
#######################################################################
#
#                 Cambridge Crystallographic Data Centre
#                                CCDC
#
#######################################################################
#
# If this CIF has been generated from an entry in the Cambridge
# Structural Database, then it will include bibliographic, chemical,
# crystal, experimental, refinement or atomic coordinate data resulting
# from the CCDC's data processing and validation procedures.
#
#######################################################################

data_CSD_CIF_NTROMA01
_audit_creation_date 1984-02-21
_audit_creation_method CSD-ConQuest-V1
_database_code_CSD NTROMA01
_database_code_depnum_ccdc_archive 'CCDC 1223556'
_chemical_formula_sum 'C1 H3 N1 O2'
_chemical_formula_moiety
;
C1 H3 N1 O2
;
_journal_coden_Cambridge 82
_journal_volume 24
_journal_year 1983
_journal_page_first 158-1
_journal_name_full 'Zh.Strukt.Khim.(Russ.)(J.Struct.Chem.) '
loop_
_publ_author_name
"I.Yu.Bagryanskaya"
"Yu.V.Gatilov"
_chemical_name_systematic
;
Nitromethane
;
_chemical_melting_point 245.15
_cell_volume    285.044
_exptl_crystal_density_diffrn 1.41
_diffrn_ambient_temperature 216.15
#These two values have been output from a single CSD field.
_refine_ls_R_factor_gt 0.044
_refine_ls_wR_factor_gt 0.044
_symmetry_cell_setting orthorhombic
_symmetry_space_group_name_H-M 'P 21 21 21'
_symmetry_Int_Tables_number 19
loop_
_symmetry_equiv_pos_site_id
_symmetry_equiv_pos_as_xyz
1 x,y,z
2 1/2+x,1/2-y,-z
3 -x,1/2+y,1/2-z
4 1/2-x,-y,1/2+z
_cell_length_a 5.228(4)
_cell_length_b 6.293(6)
_cell_length_c 8.664(9)
_cell_angle_alpha 90
_cell_angle_beta 90
_cell_angle_gamma 90
_cell_formula_units_Z 4
loop_
_atom_type_symbol
_atom_type_radius_bond
C 0.68
H 0.23
N 0.68
O 0.68
loop_
_atom_site_label
_atom_site_type_symbol
_atom_site_fract_x
_atom_site_fract_y
_atom_site_fract_z
C1 C -0.36780 -0.04990 0.88030
N1 N -0.13830 0.08710 0.87800
O1 O 0.01560 0.06830 0.98310
O2 O -0.11670 0.21330 0.77260
H1 H -0.51800 0.02500 0.93000
H2 H -0.43700 -0.06900 0.78200
H3 H -0.29700 -0.18800 0.92100
#END
