
#######################################################################
#
#                 Cambridge Crystallographic Data Centre
#                                CCDC
#
#######################################################################
#
# If this CIF has been generated from an entry in the Cambridge
# Structural Database, then it will include bibliographic, chemical,
# crystal, experimental, refinement or atomic coordinate data resulting
# from the CCDC's data processing and validation procedures.
#
#######################################################################

data_CSD_CIF_NTROMA
_audit_creation_date 1981-05-19
_audit_creation_method CSD-ConQuest-V1
_database_code_CSD NTROMA
_chemical_formula_sum 'C1 H3 N1 O2'
_chemical_formula_moiety
;
C1 H3 N1 O2
;
_journal_coden_Cambridge 8
_journal_volume 73
_journal_year 1980
_journal_page_first 2996
_journal_name_full 'J.Chem.Phys. '
loop_
_publ_author_name
"S.F.Trevino"
"E.Prince"
"C.R.Hubbard"
_chemical_name_systematic
;
Nitromethane
;
_cell_volume    289.330
_exptl_crystal_density_diffrn 1.401
_diffrn_ambient_temperature 228.15
#These two values have been output from a single CSD field.
_refine_ls_R_factor_gt 0.066
_refine_ls_wR_factor_gt 0.066
_symmetry_cell_setting orthorhombic
_symmetry_space_group_name_H-M 'P 21 21 21'
_symmetry_Int_Tables_number 19
loop_
_symmetry_equiv_pos_site_id
_symmetry_equiv_pos_as_xyz
1 x,y,z
2 1/2+x,1/2-y,-z
3 -x,1/2+y,1/2-z
4 1/2-x,-y,1/2+z
_cell_length_a 5.244(1)
_cell_length_b 6.320(1)
_cell_length_c 8.730(1)
_cell_angle_alpha 90
_cell_angle_beta 90
_cell_angle_gamma 90
_cell_formula_units_Z 4
loop_
_atom_type_symbol
_atom_type_radius_bond
C 0.68
N 0.68
O 0.68
loop_
_atom_site_label
_atom_site_type_symbol
_atom_site_fract_x
_atom_site_fract_y
_atom_site_fract_z
C1 C 0.13600 1.04840 0.37990
N1 N 0.36020 0.91460 0.37830
O1 O 0.38230 0.78810 0.27460
O2 O 0.51660 0.93270 0.48270
#END
