
#######################################################################
#
#                 Cambridge Crystallographic Data Centre
#                                CCDC
#
#######################################################################
#
# If this CIF has been generated from an entry in the Cambridge
# Structural Database, then it will include bibliographic, chemical,
# crystal, experimental, refinement or atomic coordinate data resulting
# from the CCDC's data processing and validation procedures.
#
#######################################################################

data_CSD_CIF_NTRPLB
_audit_creation_date 1981-02-05
_audit_creation_method CSD-ConQuest-V1
_database_code_CSD NTRPLB
_chemical_formula_sum 'C16 H13 N3 O8'
_chemical_formula_moiety
;
C16 H13 N3 O8
;
_journal_coden_Cambridge 82
_journal_volume 21
_journal_year 1980
_journal_page_first 83-2
_journal_name_full 'Zh.Strukt.Khim.(Russ.)(J.Struct.Chem.) '
loop_
_publ_author_name
"N.G.Furmanova"
"Yu.T.Struchkov"
"O.E.Kompan"
"Z.N.Budarina"
"L.P.Olekhnovich"
"V.I.Minkin"
_chemical_name_systematic
;
3,5,7-Trimethyl-tropylium-O,O-(2',4',6'-trinitrophenylide)
;
_cell_volume   1761.981
_exptl_crystal_colour 'red'
_exptl_crystal_density_diffrn 1.4
_diffrn_ambient_temperature ?
_diffrn_special_details
;
The study was carried out at room temperature,in the range 283-303K

;
_refine_special_details
;
C9 lies on a two-fold axis, thus its H atoms are statistically disordered and 
have been removed.
;
#These two values have been output from a single CSD field.
_refine_ls_R_factor_gt 0.044
_refine_ls_wR_factor_gt 0.044
_symmetry_cell_setting orthorhombic
_symmetry_space_group_name_H-M 'P b c n'
_symmetry_Int_Tables_number 60
loop_
_symmetry_equiv_pos_site_id
_symmetry_equiv_pos_as_xyz
1 x,y,z
2 1/2-x,1/2+y,z
3 x,-y,1/2+z
4 1/2-x,1/2-y,1/2+z
5 -x,-y,-z
6 -1/2+x,-1/2-y,-z
7 -x,y,-1/2-z
8 -1/2+x,-1/2+y,-1/2-z
_cell_length_a 8.7659(6)
_cell_length_b 20.131(4)
_cell_length_c 9.9848(5)
_cell_angle_alpha 90
_cell_angle_beta 90
_cell_angle_gamma 90
_cell_formula_units_Z 4
loop_
_atom_type_symbol
_atom_type_radius_bond
C 0.68
H 0.23
N 0.68
O 0.68
loop_
_atom_site_label
_atom_site_type_symbol
_atom_site_fract_x
_atom_site_fract_y
_atom_site_fract_z
O1 O 0.10220 0.38800 0.17920
O2 O 0.07950 0.67850 0.33300
O3 O 0.18010 0.38260 0.44740
O4 O 0.26430 0.47790 0.51460
N1 N 0.00000 0.64840 0.25000
N2 N 0.18460 0.44360 0.44040
C1 C 0.00000 0.57790 0.25000
C2 C 0.08840 0.54330 0.34180
C3 C 0.08900 0.47660 0.34320
C4 C 0.00000 0.43400 0.25000
C5 C 0.06400 0.32500 0.20800
C6 C 0.15080 0.27310 0.15780
C7 C 0.11610 0.20700 0.17770
C8 C 0.00000 0.17550 0.25000
C9 C 0.00000 0.10060 0.25000
C10 C 0.29090 0.29010 0.07890
H1 H 0.15200 0.56700 0.39900
H2 H 0.18600 0.17800 0.14500
H3 H 0.33600 0.25300 0.04100
H4 H 0.28100 0.32700 0.02600
H5 H 0.36000 0.30400 0.12800
O1F O -0.10220 0.38800 0.32080
C3F C -0.08900 0.47660 0.15680
C2F C -0.08840 0.54330 0.15820
O2F O -0.07950 0.67850 0.16700
C5F C -0.06400 0.32500 0.29200
C7F C -0.11610 0.20700 0.32230
N2F N -0.18460 0.44360 0.05960
H1F H -0.15200 0.56700 0.10100
C6F C -0.15080 0.27310 0.34220
H2F H -0.18600 0.17800 0.35500
O3F O -0.18010 0.38260 0.05260
O4F O -0.26430 0.47790 -0.01460
C10F C -0.29090 0.29010 0.42110
H3F H -0.33600 0.25300 0.45900
H4F H -0.28100 0.32700 0.47400
H5F H -0.36000 0.30400 0.37200
#END
