
#######################################################################
#
#                 Cambridge Crystallographic Data Centre
#                                CCDC
#
#######################################################################
#
# If this CIF has been generated from an entry in the Cambridge
# Structural Database, then it will include bibliographic, chemical,
# crystal, experimental, refinement or atomic coordinate data resulting
# from the CCDC's data processing and validation procedures.
#
#######################################################################

data_CSD_CIF_NTRYQV
_audit_creation_date 1979-08-06
_audit_creation_method CSD-ConQuest-V1
_database_code_CSD NTRYQV
_database_code_depnum_ccdc_archive 'CCDC 1223574'
_chemical_formula_sum 'C28 H28 N4 O7'
_chemical_formula_moiety
;
C28 H28 N4 O7
;
_journal_coden_Cambridge 24
_journal_volume 20
_journal_year 1979
_journal_page_first 339
_journal_name_full 'Tetrahedron Lett. '
loop_
_publ_author_name
"J.P.Springer"
_chemical_name_systematic
;
Nortryptoquivaline
;
_cell_volume   5281.059
_exptl_crystal_density_diffrn 1.34
_exptl_special_details
;
Absolute configuration

;
_diffrn_ambient_temperature ?
_diffrn_special_details
;
The study was carried out at room temperature,in the range 283-303K

;
#These two values have been output from a single CSD field.
_refine_ls_R_factor_gt 0.054
_refine_ls_wR_factor_gt 0.054
_symmetry_cell_setting tetragonal
_symmetry_space_group_name_H-M 'P 43 21 2'
_symmetry_Int_Tables_number 96
loop_
_symmetry_equiv_pos_site_id
_symmetry_equiv_pos_as_xyz
1 x,y,z
2 1/2-y,1/2+x,3/4+z
3 -x,-y,1/2+z
4 1/2+y,1/2-x,1/4+z
5 y,x,-z
6 1/2+x,1/2-y,1/4-z
7 -y,-x,1/2-z
8 1/2-x,1/2+y,3/4-z
_cell_length_a 10.343(2)
_cell_length_b 10.343(2)
_cell_length_c 49.366(6)
_cell_angle_alpha 90
_cell_angle_beta 90
_cell_angle_gamma 90
_cell_formula_units_Z 8
loop_
_atom_type_symbol
_atom_type_radius_bond
C 0.68
H 0.23
N 0.68
O 0.68
loop_
_atom_site_label
_atom_site_type_symbol
_atom_site_fract_x
_atom_site_fract_y
_atom_site_fract_z
N1 N 0.46420 0.32690 0.07440
C1 C 0.48690 0.34990 0.10320
C2 C 0.48060 0.49880 0.10680
C3 C 0.41780 0.54160 0.08080
C4 C 0.38370 0.66470 0.07230
C5 C 0.34160 0.67900 0.04580
C6 C 0.33650 0.57490 0.02780
C7 C 0.37420 0.45440 0.03590
C8 C 0.41660 0.43940 0.06180
O1 O 0.61040 0.55560 0.10640
C9 C 0.63110 0.63540 0.12690
C10 C 0.50890 0.64690 0.14490
C11 C 0.41890 0.54170 0.13410
C12 C 0.54600 0.23630 0.06420
C13 C 0.61150 0.17580 0.08860
N2 N 0.61050 0.28700 0.10760
N3 N 0.54400 0.63350 0.17360
C14 C 0.63130 0.53520 0.17970
C15 C 0.67030 0.52120 0.20750
C16 C 0.76550 0.43600 0.21510
C17 C 0.80470 0.42960 0.24160
C18 C 0.74750 0.50780 0.26000
C19 C 0.65140 0.59600 0.25360
C20 C 0.61360 0.60340 0.22670
N4 N 0.52020 0.69280 0.21930
C21 C 0.48850 0.70580 0.19420
C22 C 0.38000 0.80100 0.18860
C23 C 0.42100 0.94010 0.19460
C24 C 0.30550 1.03060 0.19470
C25 C 0.52860 0.98000 0.17500
C26 C 0.54070 0.05390 0.09770
O2 O 0.56160 0.20870 0.04090
O3 O 0.61470 0.23630 0.13530
O4 O 0.72730 0.69890 0.12870
O5 O 0.67140 0.46410 0.16070
O6 O 0.27560 0.77210 0.20710
C27 C 0.22550 0.65360 0.20540
O7 O 0.26480 0.57520 0.19010
C28 C 0.12620 0.62750 0.22660
H1 H 0.41300 0.31900 0.11200
H2 H 0.40700 0.74800 0.08700
H3 H 0.31700 0.76200 0.04100
H4 H 0.30500 0.59700 0.00700
H5 H 0.36000 0.40000 0.01900
H6 H 0.48000 0.73500 0.14500
H7 H 0.40700 0.47600 0.14600
H8 H 0.32000 0.56900 0.13300
H9 H 0.70700 0.16100 0.08700
H10 H 0.78800 0.38700 0.20400
H11 H 0.88100 0.37100 0.24800
H12 H 0.61300 0.66800 0.26400
H13 H 0.36100 0.78900 0.16700
H14 H 0.45400 0.94600 0.21000
H15 H 0.29300 1.02400 0.17900
H16 H 0.22500 1.00000 0.21100
H17 H 0.34900 1.13000 0.19900
H18 H 0.59000 0.90800 0.17200
H19 H 0.49900 0.99000 0.15400
H20 H 0.55000 1.07500 0.17900
H21 H 0.45900 0.07500 0.10100
H22 H 0.53100 -0.01000 0.08400
H23 H 0.59600 0.01900 0.11300
H24 H 0.63300 0.31100 0.14700
H25 H 0.08000 0.67200 0.22800
H26 H 0.10600 0.55600 0.22400
H27 H 0.16600 0.63600 0.24600
H28 H 0.76000 0.50200 0.28100
#END
