
#######################################################################
#
#                 Cambridge Crystallographic Data Centre
#                                CCDC
#
#######################################################################
#
# If this CIF has been generated from an entry in the Cambridge
# Structural Database, then it will include bibliographic, chemical,
# crystal, experimental, refinement or atomic coordinate data resulting
# from the CCDC's data processing and validation procedures.
#
#######################################################################

data_CSD_CIF_NTSDMA
_audit_creation_date 1975-12-19
_audit_creation_method CSD-ConQuest-V1
_database_code_CSD NTSDMA
_database_code_depnum_ccdc_archive 'CCDC 1223579'
_chemical_formula_sum 'C2 H6 N2 O1'
_chemical_formula_moiety
;
C2 H6 N2 O1
;
_journal_coden_Cambridge 48
_journal_volume 108
_journal_year 1975
_journal_page_first 1130
_journal_name_full 'Chem.Ber. '
loop_
_publ_author_name
"B.Krebs"
"J.Mandt"
_chemical_name_systematic
;
N-Nitroso-dimethylamine
;
_cell_volume    407.369
_exptl_crystal_density_diffrn 1.208
_diffrn_ambient_temperature 143.15
#These two values have been output from a single CSD field.
_refine_ls_R_factor_gt 0.088
_refine_ls_wR_factor_gt 0.088
_symmetry_cell_setting orthorhombic
_symmetry_space_group_name_H-M 'P n m a'
_symmetry_Int_Tables_number 62
loop_
_symmetry_equiv_pos_site_id
_symmetry_equiv_pos_as_xyz
1 x,y,z
2 1/2-x,-y,1/2+z
3 1/2+x,1/2-y,1/2-z
4 -x,1/2+y,-z
5 -x,-y,-z
6 -1/2+x,y,-1/2-z
7 -1/2-x,-1/2+y,-1/2+z
8 x,-1/2-y,z
_cell_length_a 5.959(6)
_cell_length_b 6.63(1)
_cell_length_c 10.311(8)
_cell_angle_alpha 90
_cell_angle_beta 90
_cell_angle_gamma 90
_cell_formula_units_Z 4
loop_
_atom_type_symbol
_atom_type_radius_bond
C 0.68
H 0.23
N 0.68
O 0.68
loop_
_atom_site_label
_atom_site_type_symbol
_atom_site_fract_x
_atom_site_fract_y
_atom_site_fract_z
C1 C 0.21750 0.25000 0.37730
C2 C 0.28790 0.25000 0.61980
H1 H 0.37800 0.25000 0.37900
H2 H 0.16500 0.13200 0.33200
H3 H 0.20500 0.25000 0.69900
H4 H 0.38000 0.13200 0.61600
N1 N 0.13170 0.25000 0.51010
N2 N -0.08490 0.25000 0.53690
O1 O -0.21030 0.25000 0.43850
H2G H 0.16500 0.36800 0.33200
H4G H 0.38000 0.36800 0.61600
#END
