
#######################################################################
#
#                 Cambridge Crystallographic Data Centre
#                                CCDC
#
#######################################################################
#
# If this CIF has been generated from an entry in the Cambridge
# Structural Database, then it will include bibliographic, chemical,
# crystal, experimental, refinement or atomic coordinate data resulting
# from the CCDC's data processing and validation procedures.
#
#######################################################################

data_CSD_CIF_NUBDUJ
_audit_creation_date 1998-08-03
_audit_creation_method CSD-ConQuest-V1
_database_code_CSD NUBDUJ
_database_code_depnum_ccdc_archive 'CCDC 130049'
_chemical_formula_sum 'C11 H12 N2 O5'
_chemical_formula_moiety
;
C11 H12 N2 O5
;
_journal_coeditor_code "IUCr BM1149"
_journal_coden_Cambridge 591
_journal_volume 54
_journal_year 1998
_journal_page_first 863
_journal_name_full 'Acta Crystallogr.,Sect.C:Cryst.Struct.Commun. '
loop_
_publ_author_name
"J.Mazurek"
"T.Lis"
"G.Rusek"
"K.Krajewski"
_chemical_name_systematic
;
3-Acetamido-6-nitrobenzyl acetate
;
_cell_volume   1153.040
_exptl_crystal_colour 'dark yellow'
_exptl_crystal_density_diffrn 1.453
_exptl_crystal_description 'plate'
_exptl_crystal_preparation 'absolute methanol'
_diffrn_ambient_temperature 100
#These two values have been output from a single CSD field.
_refine_ls_R_factor_gt 0.0426
_refine_ls_wR_factor_gt 0.0426
_symmetry_cell_setting monoclinic
_symmetry_space_group_name_H-M 'P 21/n'
_symmetry_Int_Tables_number 14
loop_
_symmetry_equiv_pos_site_id
_symmetry_equiv_pos_as_xyz
1 x,y,z
2 1/2-x,1/2+y,1/2-z
3 -x,-y,-z
4 -1/2+x,-1/2-y,-1/2+z
_cell_length_a 4.874(7)
_cell_length_b 17.833(16)
_cell_length_c 13.277(15)
_cell_angle_alpha 90
_cell_angle_beta 92.35(10)
_cell_angle_gamma 90
_cell_formula_units_Z 4
loop_
_atom_type_symbol
_atom_type_radius_bond
C 0.68
H 0.23
N 0.68
O 0.68
loop_
_atom_site_label
_atom_site_type_symbol
_atom_site_fract_x
_atom_site_fract_y
_atom_site_fract_z
O1 O 0.3160(5) 0.57916(11) 0.3571(2)
O2 O 0.6465(5) 0.50478(11) 0.4034(2)
O3 O 0.3488(4) 0.80599(10) 0.3784(2)
O4 O -0.0089(5) 0.79816(12) 0.2684(2)
O5 O 0.9608(5) 0.89656(11) 0.5660(2)
N1 N 1.1119(5) 0.78452(13) 0.6294(2)
N2 N 0.5309(5) 0.56608(13) 0.4053(2)
C1 C 0.5861(6) 0.70107(15) 0.4516(2)
C2 C 0.7343(6) 0.75441(16) 0.5078(3)
C3 C 0.9464(6) 0.73323(15) 0.5759(2)
C4 C 1.0049(6) 0.65692(16) 0.5912(3)
C5 C 0.8635(6) 0.60383(16) 0.5364(3)
C6 C 0.6601(6) 0.62591(16) 0.4657(2)
C7 C 0.3615(6) 0.72547(14) 0.3773(3)
C8 C 0.1467(6) 0.83580(16) 0.3192(3)
C9 C 0.1473(9) 0.9193(2) 0.3247(3)
C10 C 1.1205(6) 0.86103(15) 0.6203(3)
C11 C 1.3474(7) 0.8978(2) 0.6827(3)
H1 H 1.222(8) 0.766(2) 0.673(3)
H2 H 0.694(7) 0.805(2) 0.500(3)
H3 H 1.144(7) 0.646(2) 0.642(3)
H4 H 0.899(7) 0.553(2) 0.538(3)
H5 H 0.414(7) 0.708(2) 0.312(3)
H6 H 0.191(8) 0.707(2) 0.394(3)
H7 H 0.062(9) 0.938(3) 0.273(4)
H8 H 0.071(10) 0.937(3) 0.383(4)
H9 H 0.314(13) 0.940(4) 0.341(5)
H10 H 1.386(7) 0.873(2) 0.740(3)
H11 H 1.506(9) 0.905(3) 0.629(4)
H12 H 1.283(7) 0.948(2) 0.705(3)
#END
