
#######################################################################
#
#                 Cambridge Crystallographic Data Centre
#                                CCDC
#
#######################################################################
#
# If this CIF has been generated from an entry in the Cambridge
# Structural Database, then it will include bibliographic, chemical,
# crystal, experimental, refinement or atomic coordinate data resulting
# from the CCDC's data processing and validation procedures.
#
#######################################################################

data_CSD_CIF_NUBDOD
_audit_creation_date 1998-08-03
_audit_creation_method CSD-ConQuest-V1
_database_code_CSD NUBDOD
_database_code_depnum_ccdc_archive 'CCDC 130048'
_chemical_formula_sum 'C11 H12 N2 O5'
_chemical_formula_moiety
;
C11 H12 N2 O5
;
_journal_coeditor_code "IUCr BM1149"
_journal_coden_Cambridge 591
_journal_volume 54
_journal_year 1998
_journal_page_first 863
_journal_name_full 'Acta Crystallogr.,Sect.C:Cryst.Struct.Commun. '
loop_
_publ_author_name
"J.Mazurek"
"T.Lis"
"G.Rusek"
"K.Krajewski"
_chemical_name_systematic
;
3-Acetamido-2-nitrobenzyl acetate
;
_cell_volume    287.781
_exptl_crystal_colour 'yellow'
_exptl_crystal_density_diffrn 1.455
_exptl_crystal_description 'prism'
_exptl_crystal_preparation 'ethyl acetate'
_diffrn_ambient_temperature 150
#These two values have been output from a single CSD field.
_refine_ls_R_factor_gt 0.0371
_refine_ls_wR_factor_gt 0.0371
_symmetry_cell_setting triclinic
_symmetry_space_group_name_H-M 'P 1'
_symmetry_Int_Tables_number 1
loop_
_symmetry_equiv_pos_site_id
_symmetry_equiv_pos_as_xyz
1 x,y,z
_cell_length_a 4.851(4)
_cell_length_b 6.288(5)
_cell_length_c 9.781(8)
_cell_angle_alpha 99.96(7)
_cell_angle_beta 101.26(7)
_cell_angle_gamma 91.04(7)
_cell_formula_units_Z 1
loop_
_atom_type_symbol
_atom_type_radius_bond
C 0.68
H 0.23
N 0.68
O 0.68
loop_
_atom_site_label
_atom_site_type_symbol
_atom_site_fract_x
_atom_site_fract_y
_atom_site_fract_z
O1 O 0.1643(3) 0.2000(3) 0.4239(2)
O2 O 0.6000(3) 0.1600(3) 0.5162(2)
O3 O 0.1074(3) 0.2308(3) 0.0000(2)
O4 O 0.4794(4) 0.0262(4) -0.0035(2)
O5 O 0.4286(3) 0.5927(3) 0.6673(2)
N1 N 0.8385(3) 0.5870(3) 0.5893(2)
N2 N 0.4167(4) 0.2472(3) 0.4435(2)
C1 C 0.3774(4) 0.4088(3) 0.2295(2)
C2 C 0.5043(4) 0.4149(3) 0.3713(2)
C3 C 0.7154(4) 0.5709(3) 0.4447(2)
C4 C 0.8083(4) 0.7214(4) 0.3721(3)
C5 C 0.6862(5) 0.7167(4) 0.2311(3)
C6 C 0.4729(5) 0.5638(4) 0.1612(3)
C7 C 0.1491(4) 0.2397(4) 0.1507(2)
C8 C 0.2902(4) 0.1157(3) -0.0660(2)
C9 C 0.2290(6) 0.1198(4) -0.2213(3)
C10 C 0.6875(4) 0.6043(3) 0.6928(2)
C11 C 0.8560(4) 0.6381(4) 0.8417(3)
H1 H 1.023(7) 0.607(5) 0.611(4)
H2 H 0.939(8) 0.818(6) 0.419(4)
H3 H 0.747(8) 0.831(7) 0.186(4)
H4 H 0.391(7) 0.546(6) 0.064(4)
H5 H 0.193(6) 0.105(5) 0.169(3)
H6 H -0.036(6) 0.268(5) 0.175(4)
H7 H 0.032(14) 0.103(12) -0.253(7)
H8 H 0.263(8) 0.240(7) -0.236(4)
H9 H 0.308(11) -0.010(9) -0.286(6)
H10 H 0.815(9) 0.527(7) 0.890(5)
H11 H 0.799(7) 0.761(6) 0.888(4)
H12 H 1.064(7) 0.645(6) 0.848(4)
#END
