
#######################################################################
#
#                 Cambridge Crystallographic Data Centre
#                                CCDC
#
#######################################################################
#
# If this CIF has been generated from an entry in the Cambridge
# Structural Database, then it will include bibliographic, chemical,
# crystal, experimental, refinement or atomic coordinate data resulting
# from the CCDC's data processing and validation procedures.
#
#######################################################################

data_CSD_CIF_NUBKEA
_audit_creation_date 1998-09-03
_audit_creation_method CSD-ConQuest-V1
_database_code_CSD NUBKEA
_chemical_formula_sum 'C16 H12 N2 O4'
_chemical_formula_moiety
;
C16 H12 N2 O4
;
_journal_coden_Cambridge 154
_journal_volume 50
_journal_year 1997
_journal_page_first 861
_journal_name_full 'Aust.J.Chem. '
loop_
_publ_author_name
"S.Faizi"
"B.S.Siddiqui"
"R.Saleem"
"F.Akhtar"
"K.A.Khan"
"S.A.Khan"
"S.Siddiqui"
"M.Parvez"
"M.I.Choudhary"
_chemical_name_systematic
;
7-(\a-Hydroxy-m-nitrobenzyl)quinolin-8-ol
;
_chemical_melting_point 439.15
_cell_volume   1344.572
_exptl_crystal_colour 'yellow'
_exptl_crystal_density_diffrn 1.46
_exptl_special_details
;
Melting point range 439.15-440.15K
activity against a large number of Gram-positive and Gram-negative bacteria
;
_exptl_crystal_description 'needles'
_exptl_crystal_preparation 'light petroleum/ethyl acetate'
_diffrn_ambient_temperature 170
#These two values have been output from a single CSD field.
_refine_ls_R_factor_gt 0.062
_refine_ls_wR_factor_gt 0.062
_symmetry_cell_setting monoclinic
_symmetry_space_group_name_H-M 'P 21'
_symmetry_Int_Tables_number 4
loop_
_symmetry_equiv_pos_site_id
_symmetry_equiv_pos_as_xyz
1 x,y,z
2 -x,1/2+y,-z
_cell_length_a 4.739(2)
_cell_length_b 22.424(5)
_cell_length_c 12.667(3)
_cell_angle_alpha 90
_cell_angle_beta 92.72(2)
_cell_angle_gamma 90
_cell_formula_units_Z 4
loop_
_atom_type_symbol
_atom_type_radius_bond
C 0.68
H 0.23
N 0.68
O 0.68
loop_
_atom_site_label
_atom_site_type_symbol
_atom_site_fract_x
_atom_site_fract_y
_atom_site_fract_z
O1 O -0.0286(6) 0.5282(1) -0.1040(2)
O2 O -0.0884(6) 0.5116(1) 0.2115(2)
O3 O -0.8496(9) 0.3951(2) 0.3261(3)
O4 O -0.9479(9) 0.3108(2) 0.2429(4)
N1 N -0.2717(7) 0.6228(2) -0.2105(3)
N2 N -0.8266(9) 0.3613(2) 0.2608(4)
C1 C -0.3846(10) 0.6708(2) -0.2571(4)
C2 C -0.5952(9) 0.7070(2) -0.2152(3)
C3 C -0.6806(9) 0.6941(2) -0.1113(3)
C4 C -0.6226(10) 0.6291(2) 0.0482(3)
C5 C -0.4957(9) 0.5854(2) 0.0955(3)
C6 C -0.2823(8) 0.5477(2) 0.0458(3)
C7 C -0.2147(9) 0.5636(2) -0.0540(3)
C8 C -0.3555(9) 0.6121(2) -0.1113(3)
C9 C -0.5504(9) 0.6474(2) -0.0616(3)
C10 C -0.1384(8) 0.5010(2) 0.1056(3)
C11 C -0.3044(9) 0.4424(2) 0.0956(4)
C12 C -0.2993(9) 0.4031(2) 0.0079(4)
C13 C -0.456(1) 0.3498(2) 0.0011(5)
C14 C -0.645(1) 0.3342(2) 0.0803(4)
C15 C -0.6436(9) 0.3745(2) 0.1629(4)
C16 C -0.4914(10) 0.4241(2) 0.1764(4)
O5 O 0.0185(6) 0.6126(1) -0.3968(2)
O6 O 0.0796(6) 0.6245(1) -0.7176(2)
O7 O 0.8526(9) 0.7488(2) -0.8290(4)
O8 O 0.9744(9) 0.8271(2) -0.7521(4)
N3 N 0.2667(8) 0.5182(2) -0.2885(3)
N4 N 0.8255(8) 0.7846(2) -0.7456(4)
C17 C 0.3970(9) 0.4745(2) -0.2380(3)
C18 C 0.591(1) 0.4374(2) -0.2840(4)
C19 C 0.6662(10) 0.4478(2) -0.3795(4)
C20 C 0.6162(9) 0.5098(2) -0.5418(3)
C21 C 0.4790(9) 0.5600(2) -0.5945(3)
C22 C 0.2802(9) 0.5903(2) -0.5476(3)
C23 C 0.2157(8) 0.5795(2) -0.4423(3)
C24 C 0.3395(8) 0.5305(2) -0.3912(3)
C25 C 0.5494(9) 0.4972(2) -0.4444(3)
C26 C 0.1285(9) 0.6468(2) -0.6048(3)
C27 C 0.3116(9) 0.7003(2) -0.6008(4)
C28 C 0.294(1) 0.7348(2) -0.5130(4)
C29 C 0.458(1) 0.7840(2) -0.5021(5)
C30 C 0.629(1) 0.8003(2) -0.5801(5)
C31 C 0.649(1) 0.7654(2) -0.6701(5)
C32 C 0.4803(10) 0.7137(2) -0.6782(4)
H1 H -0.31670 0.68160 -0.32350
H2 H -0.67390 0.73970 -0.25460
H3 H -0.82300 0.71670 -0.07840
H4 H -0.76170 0.65050 0.08380
H5 H -0.54400 0.57650 0.16550
H6 H 0.04140 0.49470 0.07550
H7 H -0.18070 0.41350 -0.04760
H8 H -0.43850 0.32470 -0.05890
H9 H -0.76130 0.29940 0.07890
H10 H -0.50700 0.44810 0.23820
H11 H 0.35800 0.46770 -0.16580
H12 H 0.67190 0.40500 -0.24560
H13 H 0.80140 0.42220 -0.40820
H14 H 0.75400 0.48670 -0.57550
H15 H 0.52900 0.57120 -0.66360
H16 H -0.04400 0.65500 -0.57450
H17 H 0.17170 0.72500 -0.45850
H18 H 0.45130 0.80800 -0.44070
H19 H 0.73610 0.83580 -0.57110
H20 H 0.48720 0.68910 -0.73870
H21 H -0.00720 0.54250 -0.17380
H22 H 0.05890 0.48680 0.23890
H23 H -0.00410 0.59850 -0.32720
H24 H 0.00660 0.65640 -0.76050
#END
