
#######################################################################
#
#                 Cambridge Crystallographic Data Centre
#                                CCDC
#
#######################################################################
#
# If this CIF has been generated from an entry in the Cambridge
# Structural Database, then it will include bibliographic, chemical,
# crystal, experimental, refinement or atomic coordinate data resulting
# from the CCDC's data processing and validation procedures.
#
#######################################################################

data_CSD_CIF_NUBTOU
_audit_creation_date 2010-04-14
_audit_creation_method CSD-ConQuest-V1
_database_code_CSD NUBTOU
_database_code_depnum_ccdc_archive 'CCDC 632323'
_chemical_formula_sum 'C18 H23 N1 O8'
_chemical_formula_moiety
;
C18 H23 N1 O8
;
_journal_coden_Cambridge 16
_journal_volume 65
_journal_year 2009
_journal_page_first 6535
_journal_name_full 'Tetrahedron '
loop_
_publ_author_name
"S.E.Denmark"
"R.Y.Baiazitov"
"S.T.Nguyen"
_chemical_name_systematic
;
(-)-(1S,3S,6R,7S,10S,11S,14R)-Dimethyl 
10-methyl-5-oxo-4,9,15-trioxa-8-azapentacyclo[6.5.2.2^3,6^.0^1,6^.0^7,11^]hept
adecane-10,14-dicarboxylate
;
_chemical_melting_point 455.15
_cell_volume   3404.960
_exptl_crystal_colour 'colorless'
_exptl_crystal_density_diffrn 1.488
_exptl_special_details
;
Melts with decomposition.

;
_exptl_crystal_description 'platy'
_exptl_crystal_preparation 'dichloromethane/ether/triethylamine'
_diffrn_ambient_temperature 193
#These two values have been output from a single CSD field.
_refine_ls_R_factor_gt 0.061
_refine_ls_wR_factor_gt 0.061
_symmetry_cell_setting orthorhombic
_symmetry_space_group_name_H-M 'P c c n'
_symmetry_Int_Tables_number 56
loop_
_symmetry_equiv_pos_site_id
_symmetry_equiv_pos_as_xyz
1 x,y,z
2 1/2-x,1/2-y,z
3 -x,1/2+y,1/2-z
4 1/2+x,-y,1/2-z
5 -x,-y,-z
6 -1/2+x,-1/2+y,-z
7 x,-1/2-y,-1/2+z
8 -1/2-x,y,-1/2+z
_cell_length_a 19.016(11)
_cell_length_b 24.233(14)
_cell_length_c 7.389(4)
_cell_angle_alpha 90
_cell_angle_beta 90
_cell_angle_gamma 90
_cell_formula_units_Z 8
loop_
_atom_type_symbol
_atom_type_radius_bond
C 0.68
H 0.23
N 0.68
O 0.68
loop_
_atom_site_label
_atom_site_type_symbol
_atom_site_fract_x
_atom_site_fract_y
_atom_site_fract_z
C1 C 0.13522(18) 0.63409(15) -0.1731(5)
C2 C 0.10986(17) 0.62303(14) 0.0203(4)
H1 H 0.13890 0.59280 0.07440
C3 C 0.03641(17) 0.60079(14) -0.0222(4)
H2 H 0.04140 0.56260 -0.07160
C4 C -0.01444(17) 0.59904(13) 0.1342(4)
C5 C 0.01001(18) 0.55806(15) 0.2836(4)
H3 H 0.01400 0.52040 0.23270
H4 H 0.05670 0.56920 0.33050
C6 C -0.04460(19) 0.55867(15) 0.4381(5)
H5 H -0.06420 0.52120 0.45540
H6 H -0.02190 0.57020 0.55250
C7 C -0.1027(2) 0.59842(14) 0.3902(5)
H7 H -0.13950 0.59770 0.48670
C8 C -0.07507(18) 0.65694(14) 0.3686(5)
H8 H -0.05240 0.66920 0.48230
H9 H -0.11440 0.68240 0.34150
C9 C -0.02112(17) 0.65796(13) 0.2123(5)
C10 C 0.05128(17) 0.67547(14) 0.2838(5)
H10 H 0.04760 0.71370 0.33020
H11 H 0.06360 0.65140 0.38740
C11 C 0.11105(18) 0.67326(15) 0.1475(5)
H12 H 0.15620 0.67330 0.21430
H13 H 0.10960 0.70720 0.07300
C12 C -0.04290(18) 0.69774(14) 0.0588(5)
H14 H -0.03470 0.73550 0.10940
C13 C -0.1195(2) 0.69747(16) 0.0047(6)
C14 C -0.2055(2) 0.6647(2) -0.1963(6)
H15 H -0.21360 0.62950 -0.25840
H16 H -0.21640 0.69530 -0.27860
H17 H -0.23590 0.66700 -0.08940
C15 C -0.08511(19) 0.57506(14) 0.0838(5)
C16 C 0.18505(19) 0.68214(16) -0.2060(5)
H18 H 0.19830 0.68310 -0.33420
H19 H 0.22730 0.67750 -0.13180
H20 H 0.16160 0.71680 -0.17330
C17 C 0.1673(2) 0.58155(16) -0.2536(5)
C18 C 0.26307(19) 0.51944(14) -0.2331(5)
H21 H 0.30660 0.51440 -0.16400
H22 H 0.27420 0.52170 -0.36240
H23 H 0.23170 0.48810 -0.21150
N1 N 0.01025(14) 0.63726(12) -0.1695(4)
O1 O 0.07134(13) 0.64453(10) -0.2764(3)
O2 O 0.00364(12) 0.69394(9) -0.0919(3)
O3 O -0.13375(13) 0.58081(9) 0.2166(3)
O4 O -0.09950(13) 0.54966(10) -0.0503(4)
O5 O -0.13304(13) 0.66815(12) -0.1411(4)
O6 O -0.16392(15) 0.72180(13) 0.0872(4)
O7 O 0.22856(13) 0.57026(10) -0.1758(3)
O8 O 0.14187(14) 0.55470(12) -0.3726(4)
#END
