
#######################################################################
#
#                 Cambridge Crystallographic Data Centre
#                                CCDC
#
#######################################################################
#
# If this CIF has been generated from an entry in the Cambridge
# Structural Database, then it will include bibliographic, chemical,
# crystal, experimental, refinement or atomic coordinate data resulting
# from the CCDC's data processing and validation procedures.
#
#######################################################################

data_CSD_CIF_NUBVOX
_audit_creation_date 2015-04-27
_audit_creation_method CSD-ConQuest-V1
_database_code_CSD NUBVOX
_database_code_depnum_ccdc_archive 'CCDC 983555'
_chemical_formula_sum 'C10 H11 N1 O1'
_chemical_formula_moiety
;
C10 H11 N1 O1
;
_journal_coden_Cambridge 1775
_journal_volume 3
_journal_year 2014
_journal_page_first 482
_journal_name_full 'Europ. Chem. Bull. '
loop_
_publ_author_name
"P.Sharma"
"S.Samshuddin"
"B.Narayana"
"R.Kant"
_chemical_name_systematic
;
N-Hydroxy-4-phenylbut-3-en-2-imine
;
_chemical_name_common
;
4-Phenylbut-3-en-2-one oxime
;
_chemical_melting_point 390
_cell_volume   1814.902
_exptl_crystal_colour 'white'
_exptl_crystal_density_diffrn 1.18
_exptl_crystal_description 'block'
_diffrn_ambient_temperature 293
#These two values have been output from a single CSD field.
_refine_ls_R_factor_gt 0.0558
_refine_ls_wR_factor_gt 0.0558
_symmetry_cell_setting orthorhombic
_symmetry_space_group_name_H-M 'P b c 21'
_symmetry_Int_Tables_number 29
loop_
_symmetry_equiv_pos_site_id
_symmetry_equiv_pos_as_xyz
1 x,y,z
2 -x,-y,1/2+z
3 -x,1/2+y,z
4 x,1/2-y,1/2+z
_cell_length_a 5.5912(6)
_cell_length_b 22.019(3)
_cell_length_c 14.7418(18)
_cell_angle_alpha 90
_cell_angle_beta 90
_cell_angle_gamma 90
_cell_formula_units_Z 8
loop_
_atom_type_symbol
_atom_type_radius_bond
C 0.68
H 0.23
N 0.68
O 0.68
loop_
_atom_site_label
_atom_site_type_symbol
_atom_site_fract_x
_atom_site_fract_y
_atom_site_fract_z
C1 C 0.1655(7) 0.3148(2) 1.0209(3)
N1 N 0.5710(8) 0.49976(19) 1.0891(4)
C2 C -0.0674(8) 0.2256(3) 0.9854(4)
C3 C 0.3021(8) 0.2146(2) 1.0636(4)
O1 O 0.5915(7) 0.56349(16) 1.0846(4)
H1 H 0.70700 0.57450 1.11470
C4 C 0.1949(8) 0.3811(2) 1.0147(4)
C5 C 0.3317(8) 0.2768(2) 1.0614(4)
C6 C 0.2288(10) 0.5172(2) 0.9895(4)
H2 H 0.29520 0.55720 0.98250
H3 H 0.07760 0.52000 1.02010
H4 H 0.20620 0.49920 0.93090
C7 C 0.1040(8) 0.1893(2) 1.0259(4)
C8 C 0.3961(9) 0.4789(2) 1.0441(4)
C9 C 0.3702(9) 0.4129(2) 1.0492(4)
C10 C -0.0351(8) 0.2877(3) 0.9836(4)
H5 H 0.466(6) 0.2932(19) 1.093(3)
H6 H -0.200(8) 0.209(2) 0.953(4)
H7 H 0.496(7) 0.397(2) 1.088(4)
H8 H 0.055(7) 0.4000(19) 0.979(3)
H9 H 0.424(10) 0.189(3) 1.092(5)
H10 H 0.088(7) 0.141(2) 1.030(3)
H11 H -0.154(7) 0.314(2) 0.943(3)
C11 C 0.4490(8) 0.2326(2) 0.8139(4)
O2 O 1.0492(7) 0.51244(15) 0.7136(3)
H12 H 1.16550 0.52420 0.68460
C12 C 0.8208(8) 0.2250(2) 0.7364(3)
C13 C 0.8381(10) 0.3604(2) 0.7459(3)
C14 C 0.4345(9) 0.1697(3) 0.8150(4)
N2 N 1.0335(8) 0.44853(17) 0.7078(4)
C15 C 0.6446(7) 0.2606(2) 0.7757(3)
C16 C 0.8057(9) 0.1625(2) 0.7378(4)
C17 C 0.6106(10) 0.1355(2) 0.7775(4)
C18 C 0.8560(9) 0.4268(2) 0.7515(4)
C19 C 0.6621(8) 0.3280(2) 0.7787(3)
C20 C 0.6865(9) 0.4638(2) 0.8059(5)
H13 H 0.69140 0.45070 0.86800
H14 H 0.52750 0.45870 0.78260
H15 H 0.73110 0.50580 0.80240
H16 H 0.504(6) 0.3477(18) 0.808(3)
H17 H 0.968(7) 0.343(2) 0.719(4)
H18 H 0.950(7) 0.238(2) 0.718(3)
H19 H 0.323(8) 0.257(3) 0.831(4)
H20 H 0.936(8) 0.136(2) 0.718(4)
H21 H 0.283(8) 0.149(2) 0.837(3)
H22 H 0.612(8) 0.093(2) 0.778(4)
#END
