
#######################################################################
#
#                 Cambridge Crystallographic Data Centre
#                                CCDC
#
#######################################################################
#
# If this CIF has been generated from an entry in the Cambridge
# Structural Database, then it will include bibliographic, chemical,
# crystal, experimental, refinement or atomic coordinate data resulting
# from the CCDC's data processing and validation procedures.
#
#######################################################################

data_CSD_CIF_NUBZAM
_audit_creation_date 2010-04-23
_audit_creation_method CSD-ConQuest-V1
_database_code_CSD NUBZAM
_database_code_depnum_ccdc_archive 'CCDC 745151'
_chemical_formula_sum 'C22 H29 N1 O3'
_chemical_formula_moiety
;
C22 H29 N1 O3
;
_journal_coden_Cambridge 179
_journal_volume 48
_journal_year 2009
_journal_page_first 6152
_journal_name_full 'Angew.Chem.,Int.Ed. '
loop_
_publ_author_name
"E.Jimenez-Nunez"
"M.Raducan"
"T.Lauterbach"
"K.Molawi"
"C.R.Solorio"
"A.M.Echavarren"
_chemical_name_systematic
;
(1aR*,4R*,4aR*,7bS*)-1,1,4,7-Tetramethyl-4-(4-nitrobenzyloxy)-1a,2,3,4,4a,5,6,
7b-octahydro-1H-cyclopropa[e]azulene
;
_chemical_melting_point 360.15
_cell_volume   1905.146
_exptl_crystal_colour 'colorless'
_exptl_crystal_density_diffrn 1.239
_exptl_special_details
;
Melting point range 360.15-362.15K

;
_exptl_crystal_description 'block'
_diffrn_ambient_temperature 100
#These two values have been output from a single CSD field.
_refine_ls_R_factor_gt 0.076
_refine_ls_wR_factor_gt 0.076
loop_
_citation_database_id_CSD
_citation_special_details
NUBZEQ "is a stereoisomer of this entry"
_symmetry_cell_setting triclinic
_symmetry_space_group_name_H-M 'P -1'
_symmetry_Int_Tables_number 2
loop_
_symmetry_equiv_pos_site_id
_symmetry_equiv_pos_as_xyz
1 x,y,z
2 -x,-y,-z
_cell_length_a 9.5546(10)
_cell_length_b 12.3973(10)
_cell_length_c 16.3925(13)
_cell_angle_alpha 93.842(2)
_cell_angle_beta 97.316(4)
_cell_angle_gamma 96.927(4)
_cell_formula_units_Z 4
loop_
_atom_type_symbol
_atom_type_radius_bond
C 0.68
H 0.23
N 0.68
O 0.68
loop_
_atom_site_label
_atom_site_type_symbol
_atom_site_fract_x
_atom_site_fract_y
_atom_site_fract_z
N1 N 0.33885(18) 0.48949(11) 0.58687(9)
O1 O 0.45182(13) 0.11262(9) 0.32731(6)
O2 O 0.37773(18) 0.50385(11) 0.66126(8)
O3 O 0.26218(19) 0.54718(11) 0.54840(9)
O4 O 1.05265(14) 0.34799(10) 0.65689(6)
O5 O 1.11922(15) -0.02070(9) 0.30716(7)
O6 O 1.25492(16) -0.06228(9) 0.41371(8)
N2 N 1.16622(16) -0.00846(9) 0.38084(8)
C1 C 1.11414(17) 0.07478(10) 0.43258(8)
C2 C 1.02060(17) 0.23569(10) 0.52909(7)
C3 C 1.17929(18) 0.09963(11) 0.51339(8)
H1 H 1.25500 0.06240 0.53540
C4 C 0.90335(18) 0.48171(10) 0.70506(8)
H2 H 0.82990 0.45760 0.65610
C5 C 0.98440(18) 0.38460(11) 0.72649(8)
C6 C 1.00250(18) 0.12662(11) 0.39874(8)
H3 H 0.95860 0.10720 0.34350
C7 C 1.13085(18) 0.18063(11) 0.56152(8)
H4 H 1.17360 0.19850 0.61710
C8 C 0.95646(18) 0.20759(11) 0.44745(8)
H5 H 0.88050 0.24440 0.42520
C9 C 0.8870(2) 0.28472(11) 0.74783(9)
H6 H 0.80940 0.26460 0.70130
H7 H 0.94320 0.22280 0.75220
C10 C 0.83026(18) 0.53011(10) 0.77326(8)
C11 C 0.69491(19) 0.47229(11) 0.79358(9)
H8 H 0.60910 0.48560 0.75580
C12 C 0.8199(2) 0.29926(11) 0.82739(9)
H9 H 0.79510 0.22660 0.84720
H10 H 0.89130 0.34200 0.87020
C13 C 0.96592(19) 0.32426(12) 0.57893(8)
H11 H 0.96710 0.39080 0.54870
H12 H 0.86650 0.30030 0.58720
C14 C 0.68892(19) 0.35549(11) 0.81729(9)
H13 H 0.60080 0.30690 0.79180
C15 C 0.6626(2) 0.44487(12) 0.87922(10)
C16 C 1.0029(2) 0.58056(12) 0.68347(10)
H14 H 1.09630 0.55900 0.67400
H15 H 0.96020 0.61100 0.63330
C17 C 0.8915(2) 0.63133(11) 0.80073(10)
C18 C 1.1103(2) 0.41481(14) 0.79458(9)
H16 H 1.15030 0.34870 0.81000
H17 H 1.07820 0.45020 0.84280
H18 H 1.18330 0.46490 0.77460
C19 C 1.0195(2) 0.66412(13) 0.75857(12)
H19 H 1.10890 0.66040 0.79550
H20 H 1.01960 0.73910 0.74120
C20 C 0.7699(3) 0.47981(14) 0.95482(10)
H21 H 0.76500 0.42330 0.99380
H22 H 0.74880 0.54830 0.98110
H23 H 0.86570 0.49060 0.93880
C21 C 0.5098(3) 0.44452(18) 0.89323(15)
H24 H 0.44710 0.42010 0.84160
H25 H 0.49420 0.51840 0.91180
H26 H 0.48870 0.39490 0.93540
C22 C 0.8467(3) 0.70805(14) 0.86323(14)
H27 H 0.75620 0.67660 0.87940
H28 H 0.83480 0.77740 0.83960
H29 H 0.91960 0.72060 0.91190
C23 C 0.47872(17) 0.22856(11) 0.45258(7)
C24 C 0.63648(17) 0.14754(10) 0.23835(7)
H30 H 0.71160 0.16680 0.28720
C25 C 0.38785(19) 0.39875(11) 0.54055(9)
C26 C 0.51997(17) 0.06233(11) 0.26258(7)
C27 C 0.70789(17) 0.11041(10) 0.16521(7)
C28 C 0.68159(18) 0.17125(10) 0.10130(8)
C29 C 0.52409(18) 0.24991(11) 0.53733(8)
H31 H 0.58650 0.20560 0.56460
C30 C 0.80451(19) -0.07475(11) 0.11799(8)
C31 C 0.81065(17) 0.03059(10) 0.17313(7)
H32 H 0.91020 0.06540 0.19300
C32 C 0.5789(2) 0.25394(11) 0.21266(8)
H33 H 0.47860 0.25290 0.22250
H34 H 0.63640 0.31840 0.24460
C33 C 0.47870(18) 0.33545(11) 0.58209(8)
H35 H 0.50930 0.35000 0.63960
C34 C 0.77583(19) -0.07954(10) 0.20684(8)
H36 H 0.85550 -0.10190 0.24490
C35 C 0.38676(19) 0.29382(12) 0.41267(8)
H37 H 0.35520 0.27940 0.35520
C36 C 0.57891(19) -0.04035(11) 0.29329(8)
H38 H 0.65990 -0.01670 0.33730
H39 H 0.50400 -0.08300 0.31870
C37 C 0.53294(19) 0.13589(13) 0.40667(8)
H40 H 0.63450 0.15620 0.40100
H41 H 0.52500 0.07030 0.43800
C38 C 0.34114(19) 0.37967(12) 0.45651(9)
H42 H 0.27910 0.42450 0.42950
C39 C 0.7418(2) 0.16430(13) 0.02150(9)
H43 H 0.80070 0.10480 0.02080
H44 H 0.80020 0.23330 0.01590
H45 H 0.66390 0.15020 -0.02450
C40 C 0.62903(19) -0.11614(11) 0.22857(9)
H46 H 0.62860 -0.18940 0.24910
H47 H 0.55970 -0.12300 0.17760
C41 C 0.5903(2) 0.25761(12) 0.12025(9)
H48 H 0.49510 0.24160 0.08700
H49 H 0.63500 0.33020 0.10860
C42 C 0.39565(19) 0.03239(13) 0.19285(9)
H50 H 0.32750 -0.02510 0.20910
H51 H 0.43160 0.00620 0.14280
H52 H 0.34840 0.09690 0.18210
C43 C 0.6830(2) -0.10737(12) 0.04868(9)
H53 H 0.71330 -0.08630 -0.00360
H54 H 0.60140 -0.07050 0.05970
H55 H 0.65570 -0.18650 0.04510
C44 C 0.9450(2) -0.10577(14) 0.09788(10)
H56 H 0.93620 -0.18490 0.08510
H57 H 1.01850 -0.08390 0.14540
H58 H 0.97150 -0.06870 0.05010
#END
