
#######################################################################
#
#                 Cambridge Crystallographic Data Centre
#                                CCDC
#
#######################################################################
#
# If this CIF has been generated from an entry in the Cambridge
# Structural Database, then it will include bibliographic, chemical,
# crystal, experimental, refinement or atomic coordinate data resulting
# from the CCDC's data processing and validation procedures.
#
#######################################################################

data_CSD_CIF_NUBZIU
_audit_creation_date 2010-04-23
_audit_creation_method CSD-ConQuest-V1
_database_code_CSD NUBZIU
_database_code_depnum_ccdc_archive 'CCDC 745153'
_chemical_formula_sum 'C17 H21 N1 O3'
_chemical_formula_moiety
;
C17 H21 N1 O3
;
_journal_coden_Cambridge 179
_journal_volume 48
_journal_year 2009
_journal_page_first 6152
_journal_name_full 'Angew.Chem.,Int.Ed. '
loop_
_publ_author_name
"E.Jimenez-Nunez"
"M.Raducan"
"T.Lauterbach"
"K.Molawi"
"C.R.Solorio"
"A.M.Echavarren"
_chemical_name_systematic
;
(3R*,7aS*)-1,1,5-Trimethyl-3-(4-nitrophenyl)-1,3,4,6,7,7a-hexahydrocyclopenta[
c]pyran
;
_cell_volume   1464.989
_exptl_crystal_colour 'yellow'
_exptl_crystal_density_diffrn 1.303
_exptl_crystal_description 'block'
_diffrn_ambient_temperature 100
#These two values have been output from a single CSD field.
_refine_ls_R_factor_gt 0.0465
_refine_ls_wR_factor_gt 0.0465
_symmetry_cell_setting monoclinic
_symmetry_space_group_name_H-M 'P 21/n'
_symmetry_Int_Tables_number 14
loop_
_symmetry_equiv_pos_site_id
_symmetry_equiv_pos_as_xyz
1 x,y,z
2 1/2-x,1/2+y,1/2-z
3 -x,-y,-z
4 -1/2+x,-1/2-y,-1/2+z
_cell_length_a 8.6359(4)
_cell_length_b 17.3692(9)
_cell_length_c 9.7679(5)
_cell_angle_alpha 90
_cell_angle_beta 90.906(2)
_cell_angle_gamma 90
_cell_formula_units_Z 4
loop_
_atom_type_symbol
_atom_type_radius_bond
C 0.68
H 0.23
N 0.68
O 0.68
loop_
_atom_site_label
_atom_site_type_symbol
_atom_site_fract_x
_atom_site_fract_y
_atom_site_fract_z
O1 O 0.44055(6) 0.16787(3) 0.53698(6)
C1 C 0.54583(8) 0.14368(4) 0.64197(7)
H1 H 0.60330 0.18950 0.67820
O2 O 0.19303(9) 0.03947(4) 1.18352(7)
N1 N 0.19443(8) 0.00698(4) 1.07195(7)
C2 C 0.66300(8) 0.08447(4) 0.58775(8)
H2 H 0.74600 0.07550 0.65700
H3 H 0.61030 0.03490 0.56900
O3 O 0.12566(8) -0.05360(4) 1.04734(8)
C3 C 0.73078(8) 0.11536(4) 0.45924(7)
C4 C 0.87885(8) 0.12807(4) 0.42761(8)
C5 C 0.89119(9) 0.16781(5) 0.29081(8)
H4 H 0.95560 0.13730 0.22780
H5 H 0.93760 0.21960 0.30180
C6 C 0.72310(9) 0.17378(5) 0.23571(8)
H6 H 0.70890 0.14140 0.15300
H7 H 0.69770 0.22770 0.21170
C7 C 0.61815(8) 0.14488(4) 0.35246(7)
H8 H 0.55440 0.10080 0.31750
C8 C 0.50986(8) 0.20434(4) 0.41841(7)
C9 C 1.02044(9) 0.10918(6) 0.51039(9)
H9 H 0.99030 0.08500 0.59660
H10 H 1.07840 0.15650 0.53010
H11 H 1.08570 0.07360 0.45890
C10 C 0.37215(10) 0.22279(6) 0.32541(9)
H12 H 0.31310 0.17560 0.30700
H13 H 0.40900 0.24410 0.23890
H14 H 0.30550 0.26050 0.37030
C11 C 0.59449(11) 0.27810(4) 0.45947(9)
H15 H 0.52700 0.30970 0.51640
H16 H 0.62190 0.30690 0.37700
H17 H 0.68890 0.26510 0.51140
C12 C 0.45142(8) 0.10916(4) 0.75525(7)
C13 C 0.32676(8) 0.06067(4) 0.72396(7)
H18 H 0.29950 0.05110 0.63090
C14 C 0.24194(8) 0.02619(4) 0.82728(8)
H19 H 0.15790 -0.00720 0.80610
C15 C 0.28368(8) 0.04205(4) 0.96217(7)
C16 C 0.40621(9) 0.08994(4) 0.99692(7)
H20 H 0.43190 0.10010 1.09010
C17 C 0.49086(8) 0.12280(4) 0.89208(8)
H21 H 0.57670 0.15500 0.91400
#END
