
#######################################################################
#
#                 Cambridge Crystallographic Data Centre
#                                CCDC
#
#######################################################################
#
# If this CIF has been generated from an entry in the Cambridge
# Structural Database, then it will include bibliographic, chemical,
# crystal, experimental, refinement or atomic coordinate data resulting
# from the CCDC's data processing and validation procedures.
#
#######################################################################

data_CSD_CIF_NUCDEW
_audit_creation_date 2015-04-27
_audit_creation_method CSD-ConQuest-V1
_database_code_CSD NUCDEW
_database_code_depnum_ccdc_archive 'CCDC 1053771'
_chemical_formula_sum 'C13 H10 N4 O3'
_chemical_formula_moiety
;
C13 H10 N4 O3
;
_journal_coden_Cambridge 1500
_journal_volume 5
_journal_year 2015
_journal_page_first 37843
_journal_name_full 'RSC Advances '
loop_
_publ_author_name
"Tao He"
"Qing-Qing Zeng"
"Da-Cheng Yang"
"Yan-Hong He"
"Zhi Guan"
_chemical_name_systematic
;
(5-methyl-3-(nitromethyl)-2-oxo-2,3-dihydro-1H-indol-3-yl)malononitrile
;
_cell_volume   1310.756
_exptl_crystal_colour 'light colorless'
_exptl_crystal_density_diffrn 1.369
_exptl_crystal_description 'block'
_diffrn_ambient_temperature 288.9
#These two values have been output from a single CSD field.
_refine_ls_R_factor_gt 0.0448
_refine_ls_wR_factor_gt 0.0448
_symmetry_cell_setting monoclinic
_symmetry_space_group_name_H-M 'P 21/c'
_symmetry_Int_Tables_number 14
loop_
_symmetry_equiv_pos_site_id
_symmetry_equiv_pos_as_xyz
1 x,y,z
2 -x,1/2+y,1/2-z
3 -x,-y,-z
4 x,-1/2-y,-1/2+z
_cell_length_a 9.21681(17)
_cell_length_b 7.14117(12)
_cell_length_c 19.9378(3)
_cell_angle_alpha 90
_cell_angle_beta 92.7636(15)
_cell_angle_gamma 90
_cell_formula_units_Z 4
loop_
_atom_type_symbol
_atom_type_radius_bond
C 0.68
H 0.23
N 0.68
O 0.68
loop_
_atom_site_label
_atom_site_type_symbol
_atom_site_fract_x
_atom_site_fract_y
_atom_site_fract_z
O1 O 0.15167(11) 0.12794(15) 0.02621(5)
N1 N 0.34532(13) 0.23989(17) -0.03059(6)
H1 H 0.40390 0.26480 0.00310
N2 N -0.01927(14) 0.40793(19) -0.10033(7)
C1 C -0.00684(14) 0.20146(19) -0.10939(7)
H2 H -0.04090 0.16910 -0.15470
H3 H -0.06940 0.13920 -0.07860
O2 O 0.08035(14) 0.49299(17) -0.07295(8)
C2 C 0.21141(14) 0.16829(18) -0.02500(6)
C3 C 0.14821(13) 0.12930(18) -0.09727(6)
C4 C 0.27362(16) -0.1795(2) -0.07579(7)
N3 N 0.37728(16) -0.2456(2) -0.05392(8)
C5 C 0.13886(14) -0.09021(18) -0.10242(6)
H4 H 0.05910 -0.13240 -0.07530
C6 C 0.10881(17) -0.1545(2) -0.17182(8)
C7 C 0.37849(15) 0.26944(19) -0.09805(7)
C8 C 0.26298(14) 0.21202(18) -0.14006(7)
C9 C 0.26495(18) 0.2383(2) -0.20860(7)
H5 H 0.18640 0.20160 -0.23660
C10 C 0.3873(2) 0.3212(2) -0.23531(8)
C11 C 0.50158(17) 0.3467(2) -0.12313(9)
H6 H 0.58030 0.38190 -0.09500
O3 O -0.13173(17) 0.4796(2) -0.12135(11)
C12 C 0.50326(19) 0.3700(2) -0.19226(9)
H7 H 0.58580 0.42050 -0.21030
N4 N 0.0871(2) -0.2042(3) -0.22528(8)
C13 C 0.3883(3) 0.3578(3) -0.31024(10)
H8 H 0.31910 0.27730 -0.33330
H9 H 0.48350 0.33320 -0.32570
H10 H 0.36300 0.48620 -0.31910
#END
