
#######################################################################
#
#                 Cambridge Crystallographic Data Centre
#                                CCDC
#
#######################################################################
#
# If this CIF has been generated from an entry in the Cambridge
# Structural Database, then it will include bibliographic, chemical,
# crystal, experimental, refinement or atomic coordinate data resulting
# from the CCDC's data processing and validation procedures.
#
#######################################################################

data_CSD_CIF_NUCGEX
_audit_creation_date 1998-09-03
_audit_creation_method CSD-ConQuest-V1
_database_code_CSD NUCGEX
_chemical_formula_sum 'C15 H16 N2 O3'
_chemical_formula_moiety
;
C15 H16 N2 O3
;
_journal_coden_Cambridge 16
_journal_volume 53
_journal_year 1997
_journal_page_first 15051
_journal_name_full 'Tetrahedron '
loop_
_publ_author_name
"M.Frederickson"
"R.Grigg"
"J.Markandu"
"M.Thornton-Pett"
"J.Redpath"
_chemical_name_systematic
;
9,10-Benzo-5,12-dimethyl-2-oxa-1,5-diazatricyclo(6.4.0.0^3,7^)dodec-9-ene-4,6-
dione
;
_chemical_melting_point 448.15
_cell_volume   1311.176
_exptl_crystal_colour 'colorless'
_exptl_crystal_density_diffrn 1.379
_exptl_special_details
;
Melts with decomposition.

;
_exptl_crystal_description 'prisms'
_exptl_crystal_preparation 'petroleum ether/dichloromethane'
_diffrn_ambient_temperature ?
_diffrn_special_details
;
The study was carried out at room temperature,in the range 283-303K

;
_refine_special_details
;
H atoms on methyl atom C14 are disordered over 2 sets of positions.

;
#These two values have been output from a single CSD field.
_refine_ls_R_factor_gt 0.0375
_refine_ls_wR_factor_gt 0.0375
_symmetry_cell_setting monoclinic
_symmetry_space_group_name_H-M 'P 21/c'
_symmetry_Int_Tables_number 14
loop_
_symmetry_equiv_pos_site_id
_symmetry_equiv_pos_as_xyz
1 x,y,z
2 -x,1/2+y,1/2-z
3 -x,-y,-z
4 x,-1/2-y,-1/2+z
_cell_length_a 6.8781(3)
_cell_length_b 27.9412(14)
_cell_length_c 7.3480(2)
_cell_angle_alpha 90
_cell_angle_beta 111.799(2)
_cell_angle_gamma 90
_cell_formula_units_Z 4
loop_
_atom_type_symbol
_atom_type_radius_bond
C 0.68
H 0.23
N 0.68
O 0.68
loop_
_atom_site_label
_atom_site_type_symbol
_atom_site_fract_x
_atom_site_fract_y
_atom_site_fract_z
O1 O 0.40793(15) 0.56555(3) 0.29421(15)
N1 N 0.5174(2) 0.56391(4) 0.1593(2)
C1 C 0.7284(2) 0.54283(5) 0.2603(2)
C2 C 0.7089(3) 0.49280(5) 0.3322(3)
C3 C 0.8331(2) 0.54228(5) 0.1104(2)
C4 C 0.8242(2) 0.58971(5) 0.0103(2)
C5 C 0.9580(2) 0.60003(6) -0.0882(2)
C6 C 0.9480(2) 0.64314(6) -0.1816(2)
C7 C 0.8019(2) 0.67724(6) -0.1812(2)
C8 C 0.6665(2) 0.66753(5) -0.0863(2)
C9 C 0.6779(2) 0.62422(5) 0.0106(2)
C10 C 0.5292(2) 0.61477(4) 0.1141(2)
C11 C 0.5811(2) 0.64055(5) 0.3153(2)
C12 C 0.4625(2) 0.68685(5) 0.2954(2)
O2 O 0.4966(2) 0.72451(4) 0.2325(2)
N2 N 0.2982(2) 0.67907(4) 0.3569(2)
C13 C 0.1414(3) 0.71534(6) 0.3454(3)
C14 C 0.2966(2) 0.63373(5) 0.4302(2)
O3 O 0.1660(2) 0.61932(4) 0.4901(2)
C15 C 0.4841(2) 0.60684(5) 0.4201(2)
H1 H 0.8093(2) 0.56303(5) 0.3717(2)
H2 H 0.6569(18) 0.49474(6) 0.4365(12)
H3 H 0.8438(4) 0.4776(2) 0.3793(16)
H4 H 0.6136(14) 0.47438(14) 0.2263(5)
H5 H 0.9785(2) 0.53303(5) 0.1756(2)
H6 H 0.7656(2) 0.51825(5) 0.0119(2)
H7 H 1.0557(2) 0.57730(6) -0.0908(2)
H8 H 1.0396(2) 0.64943(6) -0.2453(2)
H9 H 0.7950(2) 0.70641(6) -0.2442(2)
H10 H 0.5669(2) 0.69014(5) -0.0872(2)
H11 H 0.3892(2) 0.62500(4) 0.0272(2)
H12 H 0.7320(2) 0.64462(5) 0.3861(2)
H13 H 0.1987(26) 0.74657(9) 0.3433(72)
H14 H 0.1021(56) 0.7126(11) 0.4574(37)
H15 H 0.0203(31) 0.7107(11) 0.2279(36)
H16? H 0.0153(26) 0.70001(9) 0.3424(73)
H17? H 0.1120(56) 0.7339(11) 0.2283(36)
H18? H 0.1937(31) 0.7359(11) 0.4578(36)
H19 H 0.5835(2) 0.59788(5) 0.5504(2)
#END
