
#######################################################################
#
#                 Cambridge Crystallographic Data Centre
#                                CCDC
#
#######################################################################
#
# If this CIF has been generated from an entry in the Cambridge
# Structural Database, then it will include bibliographic, chemical,
# crystal, experimental, refinement or atomic coordinate data resulting
# from the CCDC's data processing and validation procedures.
#
#######################################################################

data_CSD_CIF_NUCHOI
_audit_creation_date 1998-09-03
_audit_creation_method CSD-ConQuest-V1
_database_code_CSD NUCHOI
_chemical_formula_sum 'C13 H19 N1 O5'
_chemical_formula_moiety
;
C13 H19 N1 O5
;
_journal_coden_Cambridge 16
_journal_volume 53
_journal_year 1997
_journal_page_first 16711
_journal_name_full 'Tetrahedron '
loop_
_publ_author_name
"A.S.Bhanu Prasad"
"P.Knochel"
_chemical_name_systematic
;
(4aS*,5S*,7S*,8aR*)-7-Ethoxycarbonyl-5-nitro-decahydronaphthalen-1-one
;
_chemical_melting_point 341.15
_cell_volume    682.796
_exptl_crystal_colour 'colorless'
_exptl_crystal_density_diffrn 1.31
_exptl_crystal_description 'plate'
_diffrn_ambient_temperature 213
#These two values have been output from a single CSD field.
_refine_ls_R_factor_gt 0.0453
_refine_ls_wR_factor_gt 0.0453
_symmetry_cell_setting triclinic
_symmetry_space_group_name_H-M 'P -1'
_symmetry_Int_Tables_number 2
loop_
_symmetry_equiv_pos_site_id
_symmetry_equiv_pos_as_xyz
1 x,y,z
2 -x,-y,-z
_cell_length_a 5.520(1)
_cell_length_b 11.464(3)
_cell_length_c 11.978(3)
_cell_angle_alpha 112.82(2)
_cell_angle_beta 96.57(1)
_cell_angle_gamma 96.89(1)
_cell_formula_units_Z 2
loop_
_atom_type_symbol
_atom_type_radius_bond
C 0.68
H 0.23
N 0.68
O 0.68
loop_
_atom_site_label
_atom_site_type_symbol
_atom_site_fract_x
_atom_site_fract_y
_atom_site_fract_z
C1 C 0.4949(4) 0.08351(18) 1.16588(18)
O1 O 0.3218(3) -0.00630(13) 1.12085(15)
N1 N 0.6126(4) 0.56124(16) 1.34110(16)
O2 O 0.0394(2) 0.23339(13) 0.82918(12)
C2 C 0.7173(4) 0.08408(19) 1.25055(19)
O3 O -0.1307(2) 0.35652(13) 0.98404(12)
C3 C 0.7725(4) 0.2074(2) 1.36836(19)
C4 C 0.7926(4) 0.32657(18) 1.34053(18)
O4 O 0.8002(4) 0.6369(2) 1.3646(2)
C5 C 0.5574(3) 0.32463(16) 1.25914(16)
O5 O 0.4588(4) 0.57719(18) 1.40614(17)
C6 C 0.5706(3) 0.43999(16) 1.22472(16)
C7 C 0.3369(4) 0.43807(17) 1.14290(17)
C8 C 0.2804(3) 0.31460(17) 1.02539(16)
C9 C 0.2625(3) 0.19658(17) 1.05618(17)
C10 C 0.4985(3) 0.20171(16) 1.13788(16)
C11 C 0.0417(3) 0.30688(17) 0.94646(17)
C12 C -0.1868(4) 0.2091(2) 0.74303(19)
C13 C -0.1747(5) 0.0949(2) 0.6294(2)
H1 H 0.86110 0.07720 1.20890
H2 H 0.68730 0.00950 1.27130
H3 H 0.64020 0.20740 1.41640
H4 H 0.92840 0.20990 1.41810
H5 H 0.93440 0.33080 1.29900
H6 H 0.82170 0.40360 1.41780
H7 H 0.41790 0.32480 1.30420
H8 H 0.71280 0.44210 1.18170
H9 H 0.35950 0.51270 1.12190
H10 H 0.19720 0.44340 1.18720
H11 H 0.41670 0.31400 0.97830
H12 H 0.12140 0.19300 1.09830
H13 H 0.23400 0.11840 0.97990
H14 H 0.63630 0.20480 1.09240
H15 H -0.20020 0.28400 0.72380
H16 H -0.33150 0.19160 0.77820
H17 H -0.31830 0.07910 0.56730
H18 H -0.17300 0.02010 0.64850
H19 H -0.02500 0.11130 0.59860
#END
