
#######################################################################
#
#                 Cambridge Crystallographic Data Centre
#                                CCDC
#
#######################################################################
#
# If this CIF has been generated from an entry in the Cambridge
# Structural Database, then it will include bibliographic, chemical,
# crystal, experimental, refinement or atomic coordinate data resulting
# from the CCDC's data processing and validation procedures.
#
#######################################################################

data_CSD_CIF_NUCQOR
_audit_creation_date 1998-09-03
_audit_creation_method CSD-ConQuest-V1
_database_code_CSD NUCQOR
_chemical_formula_sum 'C11 H11 N3 O3'
_chemical_formula_moiety
;
C11 H11 N3 O3
;
_journal_coden_Cambridge 24
_journal_volume 38
_journal_year 1997
_journal_page_first 7777
_journal_name_full 'Tetrahedron Lett. '
loop_
_publ_author_name
"M.Frederickson"
"R.Grigg"
"M.Thornton-Pett"
"J.Redpath"
_chemical_name_systematic
;
endo-7-Methyl-4-(2-pyridyl)-2-oxa-3,7-diazabicyclo(3.3.0)octane-6,8-dione
;
_cell_volume   4310.708
_exptl_crystal_density_diffrn 1.45
_diffrn_ambient_temperature 160
#These two values have been output from a single CSD field.
_refine_ls_R_factor_gt 0.0466
_refine_ls_wR_factor_gt 0.0466
_symmetry_cell_setting orthorhombic
_symmetry_space_group_name_H-M 'P b c a'
_symmetry_Int_Tables_number 61
loop_
_symmetry_equiv_pos_site_id
_symmetry_equiv_pos_as_xyz
1 x,y,z
2 1/2-x,-y,1/2+z
3 1/2+x,1/2-y,-z
4 -x,1/2+y,1/2-z
5 -x,-y,-z
6 -1/2+x,y,-1/2-z
7 -1/2-x,-1/2+y,z
8 x,-1/2-y,-1/2+z
_cell_length_a 8.0541(4)
_cell_length_b 21.5399(9)
_cell_length_c 24.8478(9)
_cell_angle_alpha 90
_cell_angle_beta 90
_cell_angle_gamma 90
_cell_formula_units_Z 16
loop_
_atom_type_symbol
_atom_type_radius_bond
C 0.68
H 0.23
N 0.68
O 0.68
loop_
_atom_site_label
_atom_site_type_symbol
_atom_site_fract_x
_atom_site_fract_y
_atom_site_fract_z
C1 C 0.4621(3) 0.07571(10) 0.65914(9)
N1 N 0.5238(2) 0.11443(8) 0.61495(7)
O1 O 0.56024(17) 0.06984(7) 0.57277(6)
C2 C 0.4298(3) 0.02402(10) 0.57417(8)
C3 C 0.2806(3) 0.04490(9) 0.54070(8)
O2 O 0.27911(19) 0.05604(7) 0.49296(6)
N2 N 0.1444(2) 0.04828(8) 0.57433(7)
C4 C -0.0216(3) 0.06597(12) 0.55583(10)
C5 C 0.1799(3) 0.03093(10) 0.62660(8)
O3 O 0.0762(2) 0.02403(8) 0.66135(6)
C6 C 0.3650(3) 0.02108(10) 0.63189(8)
C7 C 0.3714(3) 0.11596(10) 0.69981(9)
N3 N 0.2842(2) 0.16409(9) 0.68028(7)
C8 C 0.2140(3) 0.20292(12) 0.71635(10)
C9 C 0.2266(3) 0.19503(13) 0.77119(10)
C10 C 0.3132(3) 0.14443(13) 0.79054(9)
C11 C 0.3877(3) 0.10429(12) 0.75444(9)
C12 C 0.8906(2) 0.3266(1) 0.57658(8)
N4 N 0.8702(2) 0.25869(8) 0.58550(7)
O4 O 0.93719(17) 0.23012(7) 0.53751(6)
C13 C 1.0808(2) 0.26597(9) 0.52321(8)
C14 C 1.2330(2) 0.24254(10) 0.55342(8)
O5 O 1.28860(17) 0.18987(7) 0.55154(6)
N5 N 1.2970(2) 0.29160(8) 0.58303(7)
C15 C 1.4485(3) 0.28894(11) 0.61492(9)
C16 C 1.2089(2) 0.34679(10) 0.57591(8)
O6 O 1.2549(2) 0.39661(7) 0.59304(7)
C17 C 1.0549(2) 0.33302(10) 0.54336(8)
C18 C 0.8827(2) 0.35986(10) 0.63003(9)
N6 N 0.9781(2) 0.33588(9) 0.66921(7)
C19 C 0.9716(3) 0.36347(12) 0.71738(9)
C20 C 0.8722(3) 0.41450(12) 0.72888(10)
C21 C 0.7742(3) 0.43845(11) 0.68829(10)
C22 C 0.7790(3) 0.41091(10) 0.63793(9)
H1 H 0.56070 0.05710 0.67770
H2 H 0.53600 0.15540 0.61420
H3 H 0.47100 -0.01780 0.56210
H4 H -0.10210 0.03440 0.56760
H5 H -0.02220 0.06860 0.51650
H6 H -0.05160 0.10670 0.57110
H7 H 0.39110 -0.02010 0.64910
H8 H 0.15230 0.23760 0.70330
H9 H 0.17640 0.22400 0.79520
H10 H 0.32170 0.13720 0.82820
H11 H 0.44920 0.06920 0.76680
H12 H 0.79630 0.34160 0.55380
H13 H 0.82700 0.23990 0.61370
H14 H 1.09970 0.26520 0.48340
H15 H 1.49340 0.24630 0.61400
H16 H 1.42360 0.30060 0.65220
H17 H 1.53040 0.31810 0.60000
H18 H 1.04180 0.36310 0.51280
H19 H 1.03910 0.34710 0.74540
H20 H 0.87150 0.43260 0.76380
H21 H 0.70430 0.47340 0.69480
H22 H 0.71270 0.42660 0.60940
#END
