
#######################################################################
#
#                 Cambridge Crystallographic Data Centre
#                                CCDC
#
#######################################################################
#
# If this CIF has been generated from an entry in the Cambridge
# Structural Database, then it will include bibliographic, chemical,
# crystal, experimental, refinement or atomic coordinate data resulting
# from the CCDC's data processing and validation procedures.
#
#######################################################################

data_CSD_CIF_NUCWEN
_audit_creation_date 2002-03-14
_audit_creation_method CSD-ConQuest-V1
_database_code_CSD NUCWEN
_database_code_depnum_ccdc_archive 'CCDC 176172'
_chemical_formula_sum 'C15 H18 N3 O2'
_chemical_formula_moiety
;
C15 H18 N3 O2
;
_journal_coden_Cambridge 95
_journal_year 2001
_journal_page_first 837
_journal_name_full 'Izv.Akad.Nauk SSSR,Ser.Khim.(Russ.)(Russ.Chem.Bull.) '
loop_
_publ_author_name
"V.A.Reznikov"
"G.I.Roshchupkina"
"T.V.Rybalova"
"Yu.V.Gatilov"
_chemical_name_systematic
;
4-(1-Imino-2-oxo-2-phenylethyl)-2,2,5,5-tetramethyl-3-imidazolin-1-oxyl
;
_chemical_melting_point 148
_cell_volume   1465.911
_exptl_crystal_colour 'yellow'
_exptl_crystal_density_diffrn 1.234
_exptl_special_details
;
Melting point range 148-150K

;
_exptl_crystal_description 'prism'
_diffrn_ambient_temperature ?
_diffrn_special_details
;
The study was carried out at room temperature,in the range 283-303K

;
#These two values have been output from a single CSD field.
_refine_ls_R_factor_gt 0.0352
_refine_ls_wR_factor_gt 0.0352
_symmetry_cell_setting monoclinic
_symmetry_space_group_name_H-M 'P 21/c'
_symmetry_Int_Tables_number 14
loop_
_symmetry_equiv_pos_site_id
_symmetry_equiv_pos_as_xyz
1 x,y,z
2 x,1/2-y,1/2+z
3 -x,-y,-z
4 -x,-1/2+y,-1/2-z
_cell_length_a 8.6964(8)
_cell_length_b 15.4228(16)
_cell_length_c 11.6209(12)
_cell_angle_alpha 90
_cell_angle_beta 109.862(6)
_cell_angle_gamma 90
_cell_formula_units_Z 4
loop_
_atom_type_symbol
_atom_type_radius_bond
C 0.68
H 0.23
N 0.68
O 0.68
loop_
_atom_site_label
_atom_site_type_symbol
_atom_site_fract_x
_atom_site_fract_y
_atom_site_fract_z
N1 N 0.53828(14) 0.33327(8) 0.43404(12)
C1 C 0.55187(16) 0.23936(9) 0.41307(14)
N2 N 0.71630(13) 0.23215(7) 0.40636(11)
C2 C 0.78874(16) 0.30560(8) 0.42831(13)
C3 C 0.69103(16) 0.38133(8) 0.45034(14)
C4 C 0.95780(17) 0.31027(9) 0.42638(15)
C5 C 1.00811(16) 0.23413(9) 0.36378(14)
N3 N 1.04797(19) 0.37501(9) 0.46917(18)
O1 O 0.98495(15) 0.24163(8) 0.25512(11)
C6 C 1.08523(15) 0.15740(8) 0.43576(13)
C7 C 1.12198(18) 0.08627(10) 0.37596(17)
C8 C 1.1906(2) 0.01387(11) 0.4411(2)
C9 C 1.2256(2) 0.01124(12) 0.5653(2)
C10 C 1.1917(2) 0.08124(12) 0.62602(19)
C11 C 1.11934(18) 0.15444(10) 0.56079(15)
C12 C 0.5408(2) 0.18778(12) 0.52068(17)
C13 C 0.4259(2) 0.21129(13) 0.29355(17)
C14 C 0.6623(2) 0.45150(11) 0.35302(19)
C15 C 0.7576(2) 0.42012(12) 0.57764(17)
O2 O 0.41299(14) 0.36723(8) 0.44775(13)
H1 H 1.153(3) 0.3662(15) 0.461(2)
H2 H 1.096(2) 0.0898(11) 0.2851(17)
H3 H 1.217(3) -0.0360(14) 0.3994(19)
H4 H 1.276(3) -0.0397(14) 0.6133(19)
H5 H 1.213(3) 0.0811(12) 0.715(2)
H6 H 1.096(2) 0.2005(10) 0.5998(15)
H7 H 0.546(2) 0.1234(13) 0.5072(17)
H8 H 0.629(3) 0.2031(12) 0.5937(19)
H9 H 0.437(2) 0.2010(11) 0.5329(16)
H10 H 0.443(3) 0.1475(15) 0.2784(19)
H11 H 0.317(3) 0.2217(12) 0.2957(17)
H12 H 0.438(3) 0.2419(13) 0.2229(19)
H13 H 0.582(3) 0.4940(14) 0.3633(17)
H14 H 0.769(3) 0.4820(13) 0.3641(17)
H15 H 0.618(3) 0.4274(12) 0.2708(19)
H16 H 0.865(3) 0.4491(13) 0.5874(18)
H17 H 0.773(2) 0.3763(12) 0.6380(17)
H18 H 0.681(2) 0.4631(13) 0.5879(17)
#END
