
#######################################################################
#
#                 Cambridge Crystallographic Data Centre
#                                CCDC
#
#######################################################################
#
# If this CIF has been generated from an entry in the Cambridge
# Structural Database, then it will include bibliographic, chemical,
# crystal, experimental, refinement or atomic coordinate data resulting
# from the CCDC's data processing and validation procedures.
#
#######################################################################

data_CSD_CIF_NUDLIH
_audit_creation_date 1998-09-02
_audit_creation_method CSD-ConQuest-V1
_database_code_CSD NUDLIH
_database_code_depnum_ccdc_archive 'CCDC 120738'
_database_code_depnum_ccdc_journal 1003/5252
_chemical_formula_sum 'C11 H16 N2 O3'
_chemical_formula_moiety
;
C11 H16 N2 O3
;
_journal_coden_Cambridge 1003
_journal_volume 27
_journal_year 1997
_journal_page_first 707
_journal_name_full 'J.Chem.Cryst. '
loop_
_publ_author_name
"A.Filarowski"
"A.Koll"
"T.Glowiak"
_chemical_name_systematic
;
2-(N,N-Diethylamino)methyl-4-nitrophenol
;
_chemical_melting_point 347.15
_cell_volume   1136.231
_exptl_crystal_colour 'yellow'
_exptl_crystal_density_diffrn 1.311
_exptl_crystal_preparation 'petroleum ether'
_diffrn_ambient_temperature ?
_diffrn_special_details
;
The study was carried out at room temperature,in the range 283-303K

;
#These two values have been output from a single CSD field.
_refine_ls_R_factor_gt 0.0406
_refine_ls_wR_factor_gt 0.0406
_symmetry_cell_setting triclinic
_symmetry_space_group_name_H-M 'P -1'
_symmetry_Int_Tables_number 2
loop_
_symmetry_equiv_pos_site_id
_symmetry_equiv_pos_as_xyz
1 x,y,z
2 -x,-y,-z
_cell_length_a 9.527(2)
_cell_length_b 11.268(2)
_cell_length_c 11.408(2)
_cell_angle_alpha 87.80(3)
_cell_angle_beta 69.62(3)
_cell_angle_gamma 81.82(3)
_cell_formula_units_Z 4
loop_
_atom_type_symbol
_atom_type_radius_bond
C 0.68
H 0.23
N 0.68
O 0.68
loop_
_atom_site_label
_atom_site_type_symbol
_atom_site_fract_x
_atom_site_fract_y
_atom_site_fract_z
O1 O 0.1083(2) 0.12848(13) 0.81572(12)
O2 O 0.1761(3) 0.1367(2) 0.2555(2)
O3 O 0.4105(2) 0.1167(2) 0.2393(2)
N1 N 0.4070(2) 0.2620(2) 0.72520(14)
N2 N 0.2750(3) 0.1269(2) 0.3027(2)
C1 C 0.1442(2) 0.1312(2) 0.6972(2)
C2 C 0.2983(2) 0.1319(2) 0.6185(2)
C3 C 0.3392(2) 0.1293(2) 0.4910(2)
C4 C 0.2309(2) 0.1286(2) 0.4361(2)
C5 C 0.0804(3) 0.1321(2) 0.5086(2)
C6 C 0.0378(3) 0.1330(2) 0.6357(2)
C7 C 0.4108(2) 0.1370(2) 0.6813(2)
C8 C 0.4727(3) 0.2647(2) 0.8266(2)
C9 C 0.3643(3) 0.2362(3) 0.9513(2)
C10 C 0.4784(3) 0.3420(2) 0.6200(2)
C11 C 0.6465(4) 0.3127(4) 0.5614(3)
H1 H 0.3003(28) 0.3000(22) 0.7600(22)
H2 H 0.4427(27) 0.1324(20) 0.4427(21)
H3 H 0.0093(30) 0.1314(24) 0.4710(25)
H4 H -0.0623(32) 0.1292(24) 0.6863(25)
H5 H 0.5187(26) 0.1122(20) 0.6255(21)
H6 H 0.3878(24) 0.0899(20) 0.7550(22)
H7 H 0.5672(32) 0.2078(26) 0.7989(25)
H8 H 0.4991(33) 0.3514(29) 0.8317(27)
H9 H 0.4050(32) 0.2429(26) 1.0146(29)
H10 H 0.3543(48) 0.1472(43) 0.9408(40)
H11 H 0.2684(38) 0.2923(29) 0.9732(28)
H12 H 0.4498(28) 0.4226(25) 0.6549(24)
H13 H 0.430(3) 0.3356(24) 0.5638(26)
H14 H 0.6974(45) 0.3224(37) 0.6277(40)
H15 H 0.6844(44) 0.3664(36) 0.4980(38)
H16 H 0.6780(38) 0.2280(35) 0.5331(33)
O4 O 0.1467(2) 0.39730(14) 0.8207(2)
O5 O -0.4983(2) 0.5721(2) 0.8227(2)
O6 O -0.3703(2) 0.6149(2) 0.6341(2)
N3 N -0.1163(2) 0.23791(14) 1.00735(14)
N4 N -0.3761(2) 0.57620(15) 0.7373(2)
C12 C 0.0269(2) 0.4366(2) 0.7987(2)
C13 C -0.1181(2) 0.4303(2) 0.8928(2)
C14 C -0.2474(2) 0.4788(2) 0.8719(2)
C15 C -0.2404(2) 0.5317(2) 0.7587(2)
C16 C -0.1015(3) 0.5385(2) 0.6650(2)
C17 C 0.0276(2) 0.4923(2) 0.6848(2)
C18 C -0.1231(2) 0.3719(2) 1.0131(2)
C19 C -0.0742(3) 0.1779(2) 1.1120(2)
C20 C -0.1884(4) 0.2076(4) 1.2394(2)
C21 C -0.2596(2) 0.2053(2) 0.9999(2)
C22 C -0.2571(3) 0.0738(2) 0.9837(3)
H17 H -0.0423(24) 0.2118(19) 0.9351(21)
H18 H -0.3401(24) 0.4771(18) 0.9346(20)
H19 H -0.0977(27) 0.5798(23) 0.5904(24)
H20 H 0.1228(31) 0.5004(24) 0.6253(25)
H21 H -0.0388(26) 0.3873(19) 1.035(2)
H22 H -0.2161(26) 0.4005(20) 1.0863(22)
H23 H -0.0553(24) 0.0937(22) 1.0945(20)
H24 H 0.0150(29) 0.2053(22) 1.1061(22)
H25 H -0.2101(38) 0.2916(34) 1.2576(30)
H26 H -0.2816(44) 0.1737(34) 1.2401(33)
H27 H -0.1514(33) 0.1665(28) 1.3003(30)
H28 H -0.2732(27) 0.2492(23) 0.9295(24)
H29 H -0.3378(28) 0.2351(22) 1.0758(24)
H30 H -0.2442(30) 0.0313(25) 1.0562(27)
H31 H -0.3583(36) 0.0595(27) 0.9796(28)
H32 H -0.1749(35) 0.0409(27) 0.9080(29)
#END
