
#######################################################################
#
#                 Cambridge Crystallographic Data Centre
#                                CCDC
#
#######################################################################
#
# If this CIF has been generated from an entry in the Cambridge
# Structural Database, then it will include bibliographic, chemical,
# crystal, experimental, refinement or atomic coordinate data resulting
# from the CCDC's data processing and validation procedures.
#
#######################################################################

data_CSD_CIF_NUDQEK
_audit_creation_date 2015-04-28
_audit_creation_method CSD-ConQuest-V1
_database_code_CSD NUDQEK
_database_code_depnum_ccdc_archive 'CCDC 1043693'
_chemical_formula_sum 'C16 H21 N1 O6'
_chemical_formula_moiety
;
C16 H21 N1 O6
;
_journal_coden_Cambridge 177
_journal_volume 13
_journal_year 2015
_journal_page_first 5862
_journal_name_full 'Org.Biomol.Chem. '
loop_
_publ_author_name
"M.Shibuya"
"T.Sudoh"
"T.Kawamura"
"Y.Yamamoto"
_chemical_name_systematic
;
t-Butyl 
9-methyl-5-oxo-4,11,13-trioxa-14-azatetracyclo[5.5.2.0^1,9^.0^2,6^]tetradec-2(
6)-ene-14-carboxylate
;
_cell_volume   3180.831
_exptl_crystal_density_diffrn 1.35
_diffrn_ambient_temperature 93
#These two values have been output from a single CSD field.
_refine_ls_R_factor_gt 0.0356
_refine_ls_wR_factor_gt 0.0356
_symmetry_cell_setting monoclinic
_symmetry_space_group_name_H-M 'P 21/n'
_symmetry_Int_Tables_number 14
loop_
_symmetry_equiv_pos_site_id
_symmetry_equiv_pos_as_xyz
1 x,y,z
2 1/2-x,1/2+y,1/2-z
3 -x,-y,-z
4 -1/2+x,-1/2-y,-1/2+z
_cell_length_a 16.6489(7)
_cell_length_b 9.9633(5)
_cell_length_c 20.3053(9)
_cell_angle_alpha 90
_cell_angle_beta 109.2010(12)
_cell_angle_gamma 90
_cell_formula_units_Z 8
loop_
_atom_type_symbol
_atom_type_radius_bond
C 0.68
H 0.23
N 0.68
O 0.68
loop_
_atom_site_label
_atom_site_type_symbol
_atom_site_fract_x
_atom_site_fract_y
_atom_site_fract_z
C1 C -0.09814(9) 0.00235(15) 0.14805(8)
C2 C -0.04404(9) 0.11924(15) 0.17497(7)
C3 C 0.00979(9) 0.20856(15) 0.14708(7)
H1 H 0.00340 0.18720 0.09750
C4 C -0.00955(9) 0.35719(15) 0.15670(7)
H2 H -0.06450 0.38270 0.12170
H3 H 0.03540 0.41460 0.14960
C5 C -0.01361(9) 0.37916(15) 0.23092(8)
C6 C 0.04746(10) 0.48118(16) 0.27712(8)
H4 H 0.10290 0.47920 0.26900
H5 H 0.02370 0.57300 0.26780
C7 C 0.04565(10) 0.29759(15) 0.34857(8)
H6 H -0.00010 0.27540 0.36790
H7 H 0.09890 0.25390 0.37770
C8 C 0.02203(9) 0.25101(15) 0.27361(8)
C9 C -0.03521(9) 0.13664(15) 0.24182(7)
C10 C -0.0861(1) 0.03387(16) 0.26427(8)
H8 H -0.04930 -0.02190 0.30280
H9 H -0.13070 0.07660 0.27960
C11 C -0.10437(10) 0.40720(17) 0.22993(8)
H10 H -0.10550 0.40950 0.27790
H11 H -0.14230 0.33610 0.20390
H12 H -0.12340 0.49390 0.20740
C12 C 0.12847(9) 0.04944(15) 0.19732(7)
C13 C 0.12580(9) -0.13929(15) 0.11921(8)
C14 C 0.08201(10) -0.15222(17) 0.04122(8)
H13 H 0.02090 -0.13600 0.03010
H14 H 0.09100 -0.24280 0.02620
H15 H 0.10580 -0.08620 0.01700
C15 C 0.08816(11) -0.23691(17) 0.15880(9)
H16 H 0.11870 -0.22880 0.20890
H17 H 0.09370 -0.32880 0.14360
H18 H 0.02790 -0.21600 0.14930
C16 C 0.22094(10) -0.15359(17) 0.13817(9)
H19 H 0.24260 -0.08380 0.11440
H20 H 0.23440 -0.24220 0.12360
H21 H 0.24760 -0.14400 0.18870
N1 N 0.09808(7) 0.18293(13) 0.19494(6)
O1 O -0.12020(6) -0.05188(11) 0.09212(5)
O2 O -0.12327(7) -0.04536(11) 0.20189(5)
O3 O 0.05688(7) 0.44064(11) 0.34720(5)
O4 O 0.10505(6) 0.2239(1) 0.26451(5)
O5 O 0.17324(7) -0.00385(11) 0.24939(5)
O6 O 0.10322(6) 0.00089(10) 0.13268(5)
C17 C 0.12581(9) -0.11123(15) 0.57732(7)
C18 C 0.16779(9) -0.07702(15) 0.52632(7)
C19 C 0.14748(9) 0.01441(15) 0.46460(7)
H22 H 0.08970 0.05530 0.45350
C20 C 0.15849(9) -0.05851(16) 0.40121(7)
H23 H 0.15910 0.00780 0.36510
H24 H 0.11010 -0.12040 0.38090
C21 C 0.24263(9) -0.13839(15) 0.42403(8)
C22 C 0.30819(9) -0.10207(18) 0.38919(8)
H25 H 0.29750 -0.15260 0.34520
H26 H 0.30650 -0.00480 0.37890
C23 C 0.38331(9) -0.13732(17) 0.50809(8)
H27 H 0.42500 -0.07350 0.53820
H28 H 0.39450 -0.22770 0.52950
C24 C 0.29371(9) -0.09350(15) 0.49933(8)
C25 C 0.24512(9) -0.13058(14) 0.54651(7)
C26 C 0.25912(9) -0.21120(16) 0.61092(8)
H29 H 0.26800 -0.30710 0.60260
H30 H 0.30890 -0.17780 0.64930
C27 C 0.12155(10) 0.32847(16) 0.58520(9)
C28 C 0.22712(10) -0.29024(17) 0.42003(9)
H31 H 0.19790 -0.31620 0.37150
H32 H 0.19180 -0.31430 0.44850
H33 H 0.28170 -0.33730 0.43760
C29 C 0.22006(9) 0.20307(15) 0.54071(7)
C30 C 0.02604(11) 0.31412(19) 0.56654(10)
H34 H -0.00140 0.33390 0.51690
H35 H 0.00540 0.37710 0.59440
H36 H 0.01230 0.22210 0.57620
C31 C 0.16611(12) 0.2922(2) 0.66086(9)
H37 H 0.15850 0.19630 0.66770
H38 H 0.14180 0.34460 0.69050
H39 H 0.22690 0.31230 0.67330
C32 C 0.14611(12) 0.46513(18) 0.56593(11)
H40 H 0.20790 0.46930 0.57680
H41 H 0.12820 0.53420 0.59250
H42 H 0.11810 0.48060 0.51590
N2 N 0.21606(7) 0.11785(12) 0.48490(6)
O7 O 0.05778(6) -0.08055(11) 0.58128(5)
O8 O 0.18092(6) -0.19190(11) 0.62668(5)
O9 O 0.38915(6) -0.13922(12) 0.43939(6)
O10 O 0.29785(6) 0.05526(10) 0.49794(5)
O11 O 0.28423(6) 0.25077(11) 0.57997(6)
O12 O 0.14026(6) 0.22687(11) 0.53910(5)
#END
