
#######################################################################
#
#                 Cambridge Crystallographic Data Centre
#                                CCDC
#
#######################################################################
#
# If this CIF has been generated from an entry in the Cambridge
# Structural Database, then it will include bibliographic, chemical,
# crystal, experimental, refinement or atomic coordinate data resulting
# from the CCDC's data processing and validation procedures.
#
#######################################################################

data_CSD_CIF_NUGJIK
_audit_creation_date 2015-04-29
_audit_creation_method CSD-ConQuest-V1
_database_code_CSD NUGJIK
_database_code_depnum_ccdc_archive 'CCDC 1037956'
_chemical_formula_sum 'C23 H21 N3 O1'
_chemical_formula_moiety
;
C23 H21 N3 O1
;
_journal_coden_Cambridge 16
_journal_volume 71
_journal_year 2015
_journal_page_first 7077
_journal_name_full 'Tetrahedron '
loop_
_publ_author_name
"M.V.Varaksin"
"I.A.Utepova"
"O.N.Chupakhin"
"V.N.Charushin"
_chemical_name_systematic
;
2-(3-Phenyl-1,4-diazaspiro[4.5]deca-1,3-diene-2-yl)quinoxaline-1-oxide
;
_cell_volume    917.143
_exptl_crystal_colour 'light yellow'
_exptl_crystal_density_diffrn 1.287
_exptl_crystal_description 'prism'
_diffrn_ambient_temperature 295
#These two values have been output from a single CSD field.
_refine_ls_R_factor_gt 0.0405
_refine_ls_wR_factor_gt 0.0405
_symmetry_cell_setting triclinic
_symmetry_space_group_name_H-M 'P -1'
_symmetry_Int_Tables_number 2
loop_
_symmetry_equiv_pos_site_id
_symmetry_equiv_pos_as_xyz
1 x,y,z
2 -x,-y,-z
_cell_length_a 7.0382(8)
_cell_length_b 7.1621(8)
_cell_length_c 18.6174(18)
_cell_angle_alpha 82.706(9)
_cell_angle_beta 81.520(8)
_cell_angle_gamma 83.980(9)
_cell_formula_units_Z 2
loop_
_atom_type_symbol
_atom_type_radius_bond
C 0.68
H 0.23
N 0.68
O 0.68
loop_
_atom_site_label
_atom_site_type_symbol
_atom_site_fract_x
_atom_site_fract_y
_atom_site_fract_z
N1 N 0.8707(2) 0.87710(19) 0.36491(7)
O1 O 0.70044(18) 0.93716(19) 0.34610(6)
C1 C 1.0408(2) 1.0737(2) 0.12557(8)
C2 C 1.0270(2) 0.8777(2) 0.31529(8)
N2 N 1.0942(2) 1.0635(2) 0.19970(7)
N3 N 0.90495(19) 0.93230(19) 0.12734(7)
C3 C 1.2087(3) 0.8251(3) 0.33644(10)
H1 H 1.31770 0.83260 0.30160
C4 C 1.2293(3) 0.7622(3) 0.40817(11)
H2 H 1.35020 0.72010 0.42140
C5 C 1.0637(3) 0.7625(2) 0.46142(9)
C6 C 1.0690(3) 0.7115(3) 0.53626(10)
H3 H 1.18650 0.67110 0.55290
C7 C 0.9069(4) 0.7202(3) 0.58452(11)
H4 H 0.91370 0.68740 0.63410
C8 C 0.7294(3) 0.7776(3) 0.5610(1)
H5 H 0.61820 0.78240 0.59480
C9 C 0.7179(3) 0.8267(3) 0.48889(10)
H6 H 0.59870 0.86350 0.47320
C10 C 0.8839(3) 0.8219(2) 0.43860(8)
C11 C 0.9999(2) 0.9345(2) 0.23813(8)
C12 C 0.8789(2) 0.8507(2) 0.19288(8)
C13 C 0.7526(2) 0.6970(2) 0.21474(9)
C14 C 0.5941(3) 0.6959(3) 0.17961(10)
H7 H 0.56550 0.79490 0.14430
C15 C 0.4780(3) 0.5502(4) 0.19614(12)
H8 H 0.37050 0.55170 0.17230
C16 C 0.5184(3) 0.4028(3) 0.24734(12)
H9 H 0.43900 0.30420 0.25830
C17 C 0.6767(3) 0.4009(3) 0.28253(10)
H10 H 0.70630 0.30040 0.31700
C18 C 0.7913(3) 0.5486(3) 0.26644(10)
H11 H 0.89720 0.54820 0.29100
C19 C 0.9478(3) 1.2692(2) 0.10233(9)
H12 H 0.90140 1.26860 0.05580
H13 H 0.83780 1.29950 0.13810
C20 C 1.0876(3) 1.4200(3) 0.0950(1)
H14 H 1.02570 1.54040 0.07660
H15 H 1.12120 1.43230 0.14280
C21 C 1.2689(3) 1.3728(3) 0.04402(10)
H16 H 1.35900 1.46660 0.04380
H17 H 1.23760 1.37760 -0.00520
C22 C 1.3633(3) 1.1784(3) 0.06669(10)
H18 H 1.40860 1.17780 0.11350
H19 H 1.47390 1.14910 0.03100
C23 C 1.2219(2) 1.0285(3) 0.07268(9)
H20 H 1.28360 0.90650 0.08940
H21 H 1.18640 1.02090 0.02480
#END
