
#######################################################################
#
#                 Cambridge Crystallographic Data Centre
#                                CCDC
#
#######################################################################
#
# If this CIF has been generated from an entry in the Cambridge
# Structural Database, then it will include bibliographic, chemical,
# crystal, experimental, refinement or atomic coordinate data resulting
# from the CCDC's data processing and validation procedures.
#
#######################################################################

data_CSD_CIF_NUGZIY
_audit_creation_date 1998-09-03
_audit_creation_method CSD-ConQuest-V1
_database_code_CSD NUGZIY
_chemical_formula_sum 'C24 H26 N2 O8'
_chemical_formula_moiety
;
C24 H26 N2 O8
;
_journal_coden_Cambridge 35
_journal_volume 61
_journal_year 1996
_journal_page_first 7246
_journal_name_full 'J.Org.Chem. '
loop_
_publ_author_name
"M.Lautens"
"Shihong Ma"
_chemical_name_systematic
;
(1S*,2R*,5R*,6R*)-3,5-Dinitrobenzoic acid 
2-benzyl-5,6-bis(methoxymethyl)-cyclohex-3-enyl ester
;
_cell_volume   1168.672
_exptl_crystal_colour 'colorless'
_exptl_crystal_density_diffrn 1.337
_exptl_crystal_description 'prism'
_diffrn_ambient_temperature 173
#These two values have been output from a single CSD field.
_refine_ls_R_factor_gt 0.0511
_refine_ls_wR_factor_gt 0.0511
_symmetry_cell_setting triclinic
_symmetry_space_group_name_H-M 'P -1'
_symmetry_Int_Tables_number 2
loop_
_symmetry_equiv_pos_site_id
_symmetry_equiv_pos_as_xyz
1 x,y,z
2 -x,-y,-z
_cell_length_a 7.4654(15)
_cell_length_b 12.467(2)
_cell_length_c 13.702(2)
_cell_angle_alpha 68.755(10)
_cell_angle_beta 79.496(13)
_cell_angle_gamma 86.084(14)
_cell_formula_units_Z 2
loop_
_atom_type_symbol
_atom_type_radius_bond
C 0.68
H 0.23
N 0.68
O 0.68
loop_
_atom_site_label
_atom_site_type_symbol
_atom_site_fract_x
_atom_site_fract_y
_atom_site_fract_z
O1 O 0.6717(2) 0.95996(14) 0.80995(12)
O2 O 0.7383(2) 1.0481(2) 0.91687(14)
O3 O 0.8644(2) 0.63718(15) 0.93066(13)
O4 O 0.4344(3) 0.5391(2) 1.20968(14)
O5 O 1.1397(4) 1.2090(2) 0.3807(2)
O6 O 0.9023(3) 1.1012(2) 0.4339(2)
O7 O 1.1627(3) 1.4776(2) 0.5622(2)
O8 O 1.0660(3) 1.4184(2) 0.7325(2)
N1 N 1.0080(4) 1.1637(2) 0.4465(2)
N2 N 1.0856(3) 1.4078(2) 0.6458(2)
C1 C 0.5400(3) 0.8833(2) 0.8956(2)
H1 H 0.4860(3) 0.9237(2) 0.9453(2)
C2 C 0.3902(3) 0.8612(2) 0.8429(2)
H2 H 0.4490(3) 0.8425(2) 0.7793(2)
C3 C 0.2798(4) 0.7592(2) 0.9191(2)
H3 H 0.1709(4) 0.7435(2) 0.9002(2)
C4 C 0.3231(4) 0.6897(2) 1.0105(2)
H4 H 0.2423(4) 0.6284(2) 1.0537(2)
C5 C 0.4925(3) 0.7021(2) 1.0498(2)
H5 H 0.4575(3) 0.7474(2) 1.0975(2)
C6 C 0.6358(3) 0.7741(2) 0.9569(2)
H6 H 0.7326(3) 0.7968(2) 0.9874(2)
C7 C 0.7267(4) 0.7126(2) 0.8836(2)
H7 H 0.6348(4) 0.6680(2) 0.8706(2)
H8 H 0.7815(4) 0.7696(2) 0.8145(2)
C8 C 0.9639(4) 0.5858(2) 0.8593(2)
H9 H 1.0509(17) 0.5297(11) 0.8955(5)
H10 H 1.0299(20) 0.6457(3) 0.7972(7)
H11 H 0.8792(4) 0.5469(13) 0.8364(11)
C9 C 0.5666(4) 0.5878(2) 1.1167(2)
H12 H 0.5896(4) 0.5354(2) 1.0760(2)
H13 H 0.6828(4) 0.5998(2) 1.1364(2)
C10 C 0.4982(5) 0.4356(3) 1.2804(2)
H14 H 0.4014(9) 0.4019(8) 1.3412(7)
H15 H 0.6042(15) 0.4521(3) 1.3055(11)
H16 H 0.5329(23) 0.3813(6) 1.2434(5)
C11 C 0.3481(3) 1.0735(2) 0.7242(2)
C12 C 0.3810(4) 1.1671(2) 0.7513(2)
H17 H 0.3460(4) 1.1628(2) 0.8229(2)
C13 C 0.4634(4) 1.2657(2) 0.6763(2)
H18 H 0.4860(4) 1.3279(2) 0.6970(2)
C14 C 0.5132(4) 1.2749(2) 0.5715(2)
H19 H 0.5694(4) 1.3430(2) 0.5199(2)
C15 C 0.4799(4) 1.1833(2) 0.5427(2)
H20 H 0.5126(4) 1.1890(2) 0.4707(2)
C16 C 0.3995(4) 1.0837(2) 0.6179(2)
H21 H 0.3789(4) 1.0214(2) 0.5971(2)
C17 C 0.2617(4) 0.9647(2) 0.8063(2)
H22 H 0.1649(4) 0.9415(2) 0.7773(2)
H23 H 0.2021(4) 0.9823(2) 0.8695(2)
C18 C 0.7504(3) 1.0405(2) 0.8307(2)
C19 C 0.8543(3) 1.1238(2) 0.7313(2)
C20 C 0.9235(3) 1.2228(2) 0.7353(2)
H24 H 0.9085(3) 1.2360(2) 0.8004(2)
C21 C 1.0141(3) 1.3012(2) 0.6430(2)
C22 C 1.0454(4) 1.2845(2) 0.5476(2)
H25 H 1.1116(4) 1.3386(2) 0.4853(2)
C23 C 0.9755(3) 1.1850(2) 0.5468(2)
C24 C 0.8799(3) 1.1044(2) 0.6358(2)
H26 H 0.8326(3) 1.0374(2) 0.6321(2)
#END
