
#######################################################################
#
#                 Cambridge Crystallographic Data Centre
#                                CCDC
#
#######################################################################
#
# If this CIF has been generated from an entry in the Cambridge
# Structural Database, then it will include bibliographic, chemical,
# crystal, experimental, refinement or atomic coordinate data resulting
# from the CCDC's data processing and validation procedures.
#
#######################################################################

data_CSD_CIF_NUHTOA
_audit_creation_date 2010-05-04
_audit_creation_method CSD-ConQuest-V1
_database_code_CSD NUHTOA
_database_code_depnum_ccdc_archive 'CCDC 744911'
_chemical_formula_sum 'C22 H26 N4 O5'
_chemical_formula_moiety
;
C22 H26 N4 O5
;
_journal_coden_Cambridge 4
_journal_volume 131
_journal_year 2009
_journal_page_first 7536
_journal_name_full 'J.Am.Chem.Soc. '
loop_
_publ_author_name
"D.J.Hardee"
"T.H.Lambert"
_chemical_name_systematic
;
(+-)-(E)-1-((R)-3-(Benzyloxy)-5-((1S,2S)-2-methylcyclopropyl)pentan-2-ylidene)
-2-(2,4-dinitrophenyl)hydrazine
;
_chemical_melting_point 363.15
_cell_volume   1070.718
_exptl_crystal_colour 'yellow'
_exptl_crystal_density_diffrn 1.323
_exptl_crystal_description 'plate'
_exptl_crystal_preparation '95% ethanol'
_diffrn_ambient_temperature 125
#These two values have been output from a single CSD field.
_refine_ls_R_factor_gt 0.052
_refine_ls_wR_factor_gt 0.052
_symmetry_cell_setting triclinic
_symmetry_space_group_name_H-M 'P -1'
_symmetry_Int_Tables_number 2
loop_
_symmetry_equiv_pos_site_id
_symmetry_equiv_pos_as_xyz
1 x,y,z
2 -x,-y,-z
_cell_length_a 7.0477(9)
_cell_length_b 9.0172(12)
_cell_length_c 17.499(2)
_cell_angle_alpha 103.527(2)
_cell_angle_beta 94.330(2)
_cell_angle_gamma 95.501(2)
_cell_formula_units_Z 2
loop_
_atom_type_symbol
_atom_type_radius_bond
C 0.68
H 0.23
N 0.68
O 0.68
loop_
_atom_site_label
_atom_site_type_symbol
_atom_site_fract_x
_atom_site_fract_y
_atom_site_fract_z
N1 N 0.67020(17) 0.71916(14) -0.15622(7)
N2 N 0.68893(17) 0.69256(14) -0.08121(7)
H1 H 0.78690 0.64940 -0.06580
N3 N 0.69907(17) 0.62583(14) 0.07531(7)
N4 N 0.10992(17) 0.85656(14) 0.11443(7)
O1 O 0.92292(14) 0.70067(11) -0.32025(6)
O2 O 0.82732(14) 0.58002(12) 0.03382(6)
O3 O 0.69045(16) 0.60571(14) 0.14188(6)
O4 O 0.11208(15) 0.82013(13) 0.17780(6)
O5 O -0.01794(16) 0.92316(13) 0.08979(7)
C1 C -0.0061(2) 0.1872(2) -0.39632(11)
H2 H -0.02700 0.17660 -0.34300
H3 H 0.06080 0.10240 -0.42300
H4 H -0.12980 0.18480 -0.42640
C2 C 0.1131(2) 0.33698(18) -0.39098(9)
H5 H 0.05520 0.43010 -0.36440
C3 C 0.2334(2) 0.35899(19) -0.45597(9)
H6 H 0.24290 0.46040 -0.46900
H7 H 0.23460 0.27020 -0.50150
C4 C 0.3273(2) 0.34994(18) -0.37718(9)
H8 H 0.38060 0.25120 -0.37690
C5 C 0.4369(2) 0.48950(18) -0.32145(8)
H9 H 0.44330 0.47390 -0.26720
H10 H 0.36660 0.57930 -0.32190
C6 C 0.6400(2) 0.52442(17) -0.34227(8)
H11 H 0.71250 0.43700 -0.33900
H12 H 0.63400 0.53470 -0.39750
C7 C 0.7467(2) 0.67066(17) -0.28807(8)
H13 H 0.66880 0.75770 -0.28810
C8 C 1.0191(2) 0.84887(17) -0.28322(9)
H14 H 1.05290 0.85600 -0.22640
H15 H 0.93350 0.92790 -0.28770
C9 C 1.1980(2) 0.87741(16) -0.32192(8)
C10 C 1.2194(2) 0.79747(17) -0.39812(9)
H16 H 1.12070 0.72130 -0.42680
C11 C 1.3858(2) 0.82892(18) -0.43255(9)
H17 H 1.40090 0.77280 -0.48450
C12 C 1.5291(2) 0.94126(18) -0.39171(10)
H18 H 1.64170 0.96300 -0.41560
C13 C 1.5074(2) 1.02180(18) -0.31581(10)
H19 H 1.60520 1.09930 -0.28750
C14 C 1.3431(2) 0.98948(17) -0.28105(9)
H20 H 1.32950 1.04450 -0.22880
C15 C 0.7832(2) 0.65378(16) -0.20447(8)
C16 C 0.9338(2) 0.55755(18) -0.18593(9)
H21 H 1.01950 0.61580 -0.13970
H22 H 1.00790 0.53000 -0.23130
H23 H 0.87260 0.46390 -0.17460
C17 C 0.5532(2) 0.73448(16) -0.03226(8)
C18 C 0.55314(19) 0.70418(16) 0.04367(8)
C19 C 0.4083(2) 0.74577(16) 0.09171(8)
H24 H 0.40990 0.72440 0.14240
C20 C 0.2635(2) 0.81788(16) 0.06493(8)
C21 C 0.2590(2) 0.85083(17) -0.00909(8)
H25 H 0.15820 0.90170 -0.02650
C22 C 0.4001(2) 0.80967(17) -0.05657(9)
H26 H 0.39540 0.83200 -0.10710
#END
