
#######################################################################
#
#                 Cambridge Crystallographic Data Centre
#                                CCDC
#
#######################################################################
#
# If this CIF has been generated from an entry in the Cambridge
# Structural Database, then it will include bibliographic, chemical,
# crystal, experimental, refinement or atomic coordinate data resulting
# from the CCDC's data processing and validation procedures.
#
#######################################################################

data_CSD_CIF_NUJBEZ
_audit_creation_date 1998-09-21
_audit_creation_method CSD-ConQuest-V1
_database_code_CSD NUJBEZ
_database_code_depnum_ccdc_archive 'CCDC 1224012'
_chemical_formula_sum 'C13 H15 N1 O3'
_chemical_formula_moiety
;
C13 H15 N1 O3
;
_journal_coden_Cambridge 456
_journal_volume 70
_journal_year 1996
_journal_page_first 1030
_journal_name_full 'Pol.J.Chem. '
loop_
_publ_author_name
"Z.Ciunik"
"K.Rudolf"
_chemical_name_systematic
;
2-Benzoyloxycyclohexanone oxime
;
_chemical_melting_point 398.15
_cell_volume   1206.033
_exptl_crystal_colour 'colorless'
_exptl_crystal_density_diffrn 1.285
_exptl_crystal_description 'needles'
_exptl_crystal_preparation 'hexane'
_diffrn_ambient_temperature ?
_diffrn_special_details
;
The study was carried out at room temperature,in the range 283-303K

;
#These two values have been output from a single CSD field.
_refine_ls_R_factor_gt 0.0475
_refine_ls_wR_factor_gt 0.0475
_symmetry_cell_setting monoclinic
_symmetry_space_group_name_H-M 'P 21/c'
_symmetry_Int_Tables_number 14
loop_
_symmetry_equiv_pos_site_id
_symmetry_equiv_pos_as_xyz
1 x,y,z
2 -x,1/2+y,1/2-z
3 -x,-y,-z
4 x,-1/2-y,-1/2+z
_cell_length_a 10.806(3)
_cell_length_b 11.435(2)
_cell_length_c 9.765(3)
_cell_angle_alpha 90
_cell_angle_beta 91.80(3)
_cell_angle_gamma 90
_cell_formula_units_Z 4
loop_
_atom_type_symbol
_atom_type_radius_bond
C 0.68
H 0.23
N 0.68
O 0.68
loop_
_atom_site_label
_atom_site_type_symbol
_atom_site_fract_x
_atom_site_fract_y
_atom_site_fract_z
O1 O 0.2765(2) 1.1834(2) 0.4706(3)
O2 O 0.2955(2) 0.9319(1) 0.1351(2)
O3 O 0.3237(2) 1.0783(2) -0.0100(2)
N1 N 0.3387(2) 1.1406(2) 0.3573(2)
C1 C 0.3271(2) 1.0295(2) 0.3470(3)
C2 C 0.3923(2) 0.9765(2) 0.2294(3)
C3 C 0.4710(3) 0.8737(3) 0.2740(3)
C4 C 0.4029(3) 0.7889(2) 0.3634(3)
C5 C 0.3496(3) 0.8497(2) 0.4842(3)
C6 C 0.2627(3) 0.9473(3) 0.4378(3)
C7 C 0.2666(2) 0.9921(2) 0.0226(2)
C8 C 0.1637(2) 0.9402(2) -0.0579(2)
C9 C 0.0901(2) 0.8521(2) -0.0067(3)
C10 C -0.0052(3) 0.8057(3) -0.0851(4)
C11 C -0.0291(3) 0.8480(4) -0.2153(4)
C12 C 0.0429(4) 0.9337(4) -0.2667(4)
C13 C 0.1392(3) 0.9818(3) -0.1895(3)
H1 H 0.3065(51) 1.2606(60) 0.4557(57)
H2 H 0.4411(24) 1.0357(23) 0.1865(26)
H3 H 0.1071(26) 0.8190(22) 0.0824(30)
H4 H -0.0546(32) 0.7392(36) -0.0574(36)
H5 H -0.0966(36) 0.8059(29) -0.2699(35)
H6 H 0.0279(33) 0.9734(30) -0.3559(39)
H7 H 0.1789(26) 1.0501(25) -0.2205(30)
H8 H 0.5357(25) 0.9045(22) 0.3309(28)
H9 H 0.5048(24) 0.8311(22) 0.1951(27)
H10 H 0.3375(26) 0.7523(25) 0.3061(27)
H11 H 0.4631(28) 0.7277(29) 0.3958(30)
H12 H 0.4216(26) 0.8821(22) 0.5415(27)
H13 H 0.3018(32) 0.7956(31) 0.5385(35)
H14 H 0.1885(28) 0.9094(24) 0.3857(29)
H15 H 0.2280(27) 0.9882(27) 0.5052(31)
#END
