
#######################################################################
#
#                 Cambridge Crystallographic Data Centre
#                                CCDC
#
#######################################################################
#
# If this CIF has been generated from an entry in the Cambridge
# Structural Database, then it will include bibliographic, chemical,
# crystal, experimental, refinement or atomic coordinate data resulting
# from the CCDC's data processing and validation procedures.
#
#######################################################################

data_CSD_CIF_NUJBEZ01
_audit_creation_date 2000-02-23
_audit_creation_method CSD-ConQuest-V1
_database_code_CSD NUJBEZ01
_database_code_depnum_ccdc_archive 'CCDC 1224013'
_chemical_formula_sum 'C13 H15 N1 O3'
_chemical_formula_moiety
;
C13 H15 N1 O3
;
_journal_coden_Cambridge 119
_journal_volume 385
_journal_year 1996
_journal_page_first 89
_journal_name_full 'J.Mol.Struct. '
loop_
_publ_author_name
"Z.Ciunik"
_chemical_name_systematic
;
2-Benzoyloxycyclohexanone oxime
;
_cell_volume   1173.957
_exptl_crystal_colour 'white'
_exptl_crystal_density_diffrn 1.32
_exptl_crystal_description 'spherical'
_diffrn_ambient_temperature 85
_refine_special_details
;
Atoms O1, N1, C1, C2, C3, C4, C5 and C6 are each disordered over two sets of 
positions with occupancies 0.97:0.03.
;
#These two values have been output from a single CSD field.
_refine_ls_R_factor_gt 0.0316
_refine_ls_wR_factor_gt 0.0316
_symmetry_cell_setting monoclinic
_symmetry_space_group_name_H-M 'P 21/c'
_symmetry_Int_Tables_number 14
loop_
_symmetry_equiv_pos_site_id
_symmetry_equiv_pos_as_xyz
1 x,y,z
2 -x,1/2+y,1/2-z
3 -x,-y,-z
4 x,-1/2-y,-1/2+z
_cell_length_a 10.673(4)
_cell_length_b 11.390(4)
_cell_length_c 9.661(5)
_cell_angle_alpha 90
_cell_angle_beta 91.65(4)
_cell_angle_gamma 90
_cell_formula_units_Z 4
loop_
_atom_type_symbol
_atom_type_radius_bond
C 0.68
H 0.23
N 0.68
O 0.68
loop_
_atom_site_label
_atom_site_type_symbol
_atom_site_fract_x
_atom_site_fract_y
_atom_site_fract_z
O1 O 0.2755(1) 1.1871(1) 0.4696(1)
N1 N 0.3428(1) 1.1407(1) 0.3582(1)
C1 C 0.3296(2) 1.0302(1) 0.3480(2)
C2 C 0.3980(2) 0.9727(2) 0.2325(2)
C3 C 0.4758(2) 0.8685(2) 0.2837(2)
C4 C 0.4029(2) 0.7857(2) 0.3747(2)
C5 C 0.3445(2) 0.8514(2) 0.4945(2)
C6 C 0.2586(2) 0.9497(2) 0.4406(2)
O2 O 0.3007(1) 0.9272(1) 0.1365(1)
O3 O 0.3287(1) 1.0768(1) -0.0101(1)
C7 C 0.2714(1) 0.9899(1) 0.0234(2)
C8 C 0.1646(1) 0.9390(1) -0.0571(2)
C9 C 0.0893(1) 0.8512(1) -0.0037(2)
C10 C -0.0086(2) 0.8051(2) -0.0826(2)
C11 C -0.0323(2) 0.8465(2) -0.2160(2)
C12 C 0.0413(2) 0.9342(2) -0.2690(2)
C13 C 0.1397(2) 0.9813(2) -0.1909(2)
H1 H 0.2987(22) 1.2618(25) 0.4672(25)
H2 H 0.4466(15) 1.0318(15) 0.1895(17)
H3 H 0.1064(16) 0.8212(14) 0.0872(19)
H4 H -0.0658(19) 0.7430(19) -0.0444(21)
H5 H -0.0989(19) 0.8135(17) -0.2656(20)
H6 H 0.0206(18) 0.9655(17) -0.3563(22)
H7 H 0.1888(16) 1.0466(16) -0.2253(18)
H8 H 0.5452(17) 0.9004(15) 0.3343(18)
H9 H 0.5114(17) 0.8291(16) 0.2043(20)
H10 H 0.3391(17) 0.7488(16) 0.3172(19)
H11 H 0.4618(16) 0.7217(16) 0.4107(17)
H12 H 0.4150(17) 0.8842(16) 0.5550(18)
H13 H 0.2994(17) 0.7971(17) 0.5475(19)
H14 H 0.1894(16) 0.9131(15) 0.3883(18)
H15 H 0.2239(18) 0.9942(18) 0.5120(21)
O4? O 0.3216(37) 1.2019(27) 0.3506(39)
N2? N 0.2751(31) 1.1146(22) 0.4397(30)
C14? C 0.2934(23) 1.0087(19) 0.3890(25)
C15? C 0.3637(29) 1.0027(23) 0.2641(29)
C16? C 0.4599(26) 0.9110(29) 0.2569(29)
C17? C 0.4348(37) 0.8016(28) 0.3327(41)
C18? C 0.3765(38) 0.8180(31) 0.4686(41)
C19? C 0.2697(36) 0.9002(26) 0.4695(37)
#END
