
#######################################################################
#
#                 Cambridge Crystallographic Data Centre
#                                CCDC
#
#######################################################################
#
# If this CIF has been generated from an entry in the Cambridge
# Structural Database, then it will include bibliographic, chemical,
# crystal, experimental, refinement or atomic coordinate data resulting
# from the CCDC's data processing and validation procedures.
#
#######################################################################

data_CSD_CIF_NUJFII
_audit_creation_date 2010-05-04
_audit_creation_method CSD-ConQuest-V1
_database_code_CSD NUJFII
_database_code_depnum_ccdc_archive 'CCDC 728134'
_chemical_formula_sum 'C16 H19 N1 O8'
_chemical_formula_moiety
;
C16 H19 N1 O8
;
_journal_coden_Cambridge 1291
_journal_year 2009
_journal_page_first 4091
_journal_name_full 'Eur.J.Org.Chem. '
loop_
_publ_author_name
"I.Deb"
"P.Shanbhag"
"S.M.Mobin"
"I.N.N.Namboothiri"
_chemical_name_systematic
;
Diethyl (E)-2-hydroxy-2-(2-(4-methoxyphenyl)-1-nitrovinyl)malonate
;
_chemical_melting_point 361.15
_cell_volume    829.006
_exptl_crystal_colour 'yellow'
_exptl_crystal_density_diffrn 1.415
_exptl_crystal_description 'block'
_diffrn_ambient_temperature 150
#These two values have been output from a single CSD field.
_refine_ls_R_factor_gt 0.0359
_refine_ls_wR_factor_gt 0.0359
_symmetry_cell_setting triclinic
_symmetry_space_group_name_H-M 'P -1'
_symmetry_Int_Tables_number 2
loop_
_symmetry_equiv_pos_site_id
_symmetry_equiv_pos_as_xyz
1 x,y,z
2 -x,-y,-z
_cell_length_a 6.798(2)
_cell_length_b 10.1396(14)
_cell_length_c 12.700(5)
_cell_angle_alpha 74.61(2)
_cell_angle_beta 85.56(3)
_cell_angle_gamma 79.315(18)
_cell_formula_units_Z 2
loop_
_atom_type_symbol
_atom_type_radius_bond
C 0.68
H 0.23
N 0.68
O 0.68
loop_
_atom_site_label
_atom_site_type_symbol
_atom_site_fract_x
_atom_site_fract_y
_atom_site_fract_z
O1 O 0.92972(17) -0.47140(11) 0.66942(9)
O2 O 0.81978(19) 0.30328(12) 0.14276(10)
O3 O 0.67754(18) 0.33948(12) 0.29353(10)
O4 O 1.02435(16) 0.00816(13) 0.17129(10)
O5 O 0.76549(18) 0.10337(12) 0.00096(9)
O6 O 0.51295(16) 0.15658(11) 0.11655(9)
O7 O 0.83407(16) -0.20756(11) 0.19400(9)
O8 O 0.56547(15) -0.10727(11) 0.27652(9)
N1 N 0.7545(2) 0.26176(14) 0.23715(12)
C1 C 0.8444(3) -0.50120(19) 0.77840(14)
H1 H 0.89430 -0.44840 0.81980
H2 H 0.88060 -0.59850 0.81270
H3 H 0.70120 -0.47660 0.77560
C2 C 0.8917(2) -0.33723(16) 0.60776(13)
C3 C 0.7697(2) -0.22834(17) 0.64095(13)
H4 H 0.71100 -0.24310 0.71080
C4 C 0.7368(2) -0.09813(16) 0.56917(13)
H5 H 0.65770 -0.02510 0.59210
C5 C 0.8194(2) -0.07320(16) 0.46291(12)
C6 C 0.9487(2) -0.18287(17) 0.43367(13)
H6 H 1.01150 -0.16780 0.36480
C7 C 0.9850(2) -0.31262(17) 0.50477(13)
H7 H 1.07220 -0.38410 0.48390
C8 C 0.7749(2) 0.06653(16) 0.39129(13)
H8 H 0.73830 0.13680 0.42710
C9 C 0.7784(2) 0.10947(16) 0.28238(13)
C10 C 0.8190(2) 0.03004(16) 0.19566(12)
C11 C 0.6985(2) 0.10561(16) 0.09126(13)
C12 C 0.3711(3) 0.21195(18) 0.02772(14)
H9 H 0.23620 0.20480 0.05690
H10 H 0.40080 0.15710 -0.02540
C13 C 0.3822(3) 0.35925(19) -0.02696(15)
H11 H 0.35160 0.41380 0.02540
H12 H 0.28750 0.39310 -0.08430
H13 H 0.51490 0.36610 -0.05730
C14 C 0.7427(2) -0.11192(16) 0.22585(12)
C15 C 0.4666(3) -0.22746(18) 0.28760(14)
H14 H 0.49860 -0.26300 0.22340
H15 H 0.32260 -0.19820 0.29150
C16 C 0.5301(3) -0.3410(2) 0.38748(16)
H16 H 0.67000 -0.37720 0.38030
H17 H 0.45370 -0.41400 0.39540
H18 H 0.50740 -0.30460 0.45070
H19 H 1.053(3) -0.028(2) 0.1217(19)
#END
