
#######################################################################
#
#                 Cambridge Crystallographic Data Centre
#                                CCDC
#
#######################################################################
#
# If this CIF has been generated from an entry in the Cambridge
# Structural Database, then it will include bibliographic, chemical,
# crystal, experimental, refinement or atomic coordinate data resulting
# from the CCDC's data processing and validation procedures.
#
#######################################################################

data_CSD_CIF_NUKBUQ
_audit_creation_date 1998-09-21
_audit_creation_method CSD-ConQuest-V1
_database_code_CSD NUKBUQ
_chemical_formula_sum 'C12 H15 N2 O3'
_chemical_formula_moiety
;
C12 H15 N2 O3
;
_journal_coden_Cambridge 119
_journal_volume 375
_journal_year 1996
_journal_page_first 105
_journal_name_full 'J.Mol.Struct. '
loop_
_publ_author_name
"S.A.Fairhurst"
"D.G.Gillies"
"G.W.Smith"
"L.H.Sutcliffe"
"X.Wu"
_chemical_name_systematic
;
5-Nitro-1,1,3,3-tetramethylisoindolin-2-yloxyl radical
;
_cell_volume   2465.922
_exptl_crystal_density_diffrn 1.27
_diffrn_ambient_temperature ?
_diffrn_special_details
;
The study was carried out at room temperature,in the range 283-303K

;
#These two values have been output from a single CSD field.
_refine_ls_R_factor_gt 0.055
_refine_ls_wR_factor_gt 0.055
_symmetry_cell_setting orthorhombic
_symmetry_space_group_name_H-M 'P b c a'
_symmetry_Int_Tables_number 61
loop_
_symmetry_equiv_pos_site_id
_symmetry_equiv_pos_as_xyz
1 x,y,z
2 1/2-x,-y,1/2+z
3 1/2+x,1/2-y,-z
4 -x,1/2+y,1/2-z
5 -x,-y,-z
6 -1/2+x,y,-1/2-z
7 -1/2-x,-1/2+y,z
8 x,-1/2-y,-1/2+z
_cell_length_a 11.394(9)
_cell_length_b 12.739(12)
_cell_length_c 16.989(13)
_cell_angle_alpha 90
_cell_angle_beta 90
_cell_angle_gamma 90
_cell_formula_units_Z 8
loop_
_atom_type_symbol
_atom_type_radius_bond
C 0.68
H 0.23
N 0.68
O 0.68
loop_
_atom_site_label
_atom_site_type_symbol
_atom_site_fract_x
_atom_site_fract_y
_atom_site_fract_z
O1 O 0.2779(2) 0.3601(1) 0.1885(1)
O2 O 0.6817(2) -0.1377(1) 0.0617(1)
O3 O 0.5174(2) -0.1806(1) 0.1136(1)
N1 N 0.58840 -0.1154(1) 0.0902(1)
N2 N 0.3460(2) 0.2889(1) 0.1634(1)
C1 C 0.5569(2) -0.0039(2) 0.0973(1)
C2 C 0.6328(2) 0.06900 0.0659(1)
C3 C 0.6038(2) 0.1746(2) 0.0718(1)
C4 C 0.5012(2) 0.2029(2) 0.1093(1)
C5 C 0.4265(2) 0.1277(1) 0.1396(1)
C6 C 0.4529(2) 0.0219(1) 0.1339(1)
C7 C 0.4552(2) 0.3124(2) 0.1216(1)
C8 C 0.4280(3) 0.3681(2) 0.0442(2)
C9 C 0.5349(2) 0.3786(2) 0.1732(2)
C10 C 0.3202(2) 0.1758(2) 0.1777(1)
C11 C 0.2065(2) 0.1457(2) 0.1369(2)
C12 C 0.3158(3) 0.1546(2) 0.2654(2)
H1 H 0.70660 0.04650 0.03880
H2 H 0.65670 0.22950 0.04920
H3 H 0.39900 -0.03310 0.15490
H4 H 0.37550 0.32280 0.01140
H5 H 0.38750 0.43620 0.05550
H6 H 0.50250 0.38190 0.01510
H7 H 0.55120 0.34020 0.22320
H8 H 0.61010 0.39240 0.14490
H9 H 0.49510 0.44670 0.18530
H10 H 0.21280 0.16080 0.07960
H11 H 0.19150 0.06910 0.14520
H12 H 0.14050 0.18720 0.16020
H13 H 0.39210 0.17540 0.28940
H14 H 0.25060 0.19620 0.28910
H15 H 0.30170 0.07810 0.27420
#END
