
#######################################################################
#
#                 Cambridge Crystallographic Data Centre
#                                CCDC
#
#######################################################################
#
# If this CIF has been generated from an entry in the Cambridge
# Structural Database, then it will include bibliographic, chemical,
# crystal, experimental, refinement or atomic coordinate data resulting
# from the CCDC's data processing and validation procedures.
#
#######################################################################

data_CSD_CIF_NUMKUB
_audit_creation_date 1998-09-20
_audit_creation_method CSD-ConQuest-V1
_database_code_CSD NUMKUB
_database_code_depnum_ccdc_archive 'CCDC 1224331'
_chemical_formula_sum 'C19 H21 N3 O4'
_chemical_formula_moiety
;
C19 H21 N3 O4
;
_journal_coden_Cambridge 444
_journal_volume 68
_journal_year 1998
_journal_page_first 328
_journal_name_full 'Zh.Obshch.Khim.(Russ.)(Russ.J.Gen.Chem.) '
loop_
_publ_author_name
"O.A.Nurkenov"
"A.M.Gazaliev"
"B.Ibragimov"
"B.Z.Kokzhalova"
"A.B.Shalbaeva"
"K.M.Turdybekov"
"M.Zh.Zhurinov"
"A.E.Gulyaev"
_chemical_name_systematic
;
2-(3,7-Methano-12-oxo-1,5-diazabicyclo(6.4.0)dodeca-8,10-dien-5-yl)-1-(p-nitro
phenyl)ethanol
;
_chemical_name_common
;
1-p-Nitrophenyl-2-citizinylethanol
;
_chemical_melting_point 473.15
_cell_volume    854.708
_exptl_crystal_density_diffrn 1.389
_exptl_special_details
;
Melting point range 473.15-475.15K
radioprotective activity

;
_exptl_crystal_preparation 'benzene'
_diffrn_ambient_temperature ?
_diffrn_special_details
;
The study was carried out at room temperature,in the range 283-303K

;
#These two values have been output from a single CSD field.
_refine_ls_R_factor_gt 0.04
_refine_ls_wR_factor_gt 0.04
_symmetry_cell_setting monoclinic
_symmetry_space_group_name_H-M 'P 21'
_symmetry_Int_Tables_number 4
loop_
_symmetry_equiv_pos_site_id
_symmetry_equiv_pos_as_xyz
1 x,y,z
2 -x,1/2+y,-z
_cell_length_a 9.689(2)
_cell_length_b 9.625(3)
_cell_length_c 9.926(4)
_cell_angle_alpha 90
_cell_angle_beta 112.58(2)
_cell_angle_gamma 90
_cell_formula_units_Z 2
loop_
_atom_type_symbol
_atom_type_radius_bond
C 0.68
H 0.23
N 0.68
O 0.68
loop_
_atom_site_label
_atom_site_type_symbol
_atom_site_fract_x
_atom_site_fract_y
_atom_site_fract_z
O1 O 1.1298(4) 0.1376(8) 0.3618(4)
O2 O 0.4137(4) 0.1600(7) 0.5597(4)
O3 O 1.1474(5) 0.20520 1.0161(6)
O4 O 1.1859(6) 0.00200 0.9480(8)
N1 N 0.9031(4) 0.02970 0.2715(4)
C1 C 1.0550(5) 0.0325(9) 0.3632(6)
C2 C 1.1105(6) -0.0858(9) 0.4511(6)
C3 C 1.0232(7) -0.1973(9) 0.4397(6)
C4 C 0.8728(6) -0.1987(9) 0.3438(6)
C5 C 0.8150(6) -0.0846(8) 0.2618(5)
C6 C 0.6514(5) -0.0772(9) 0.1585(5)
C7 C 0.6309(6) 0.0155(9) 0.0314(5)
C8 C 0.6825(5) 0.1576(9) 0.0937(5)
C9 C 0.8504(5) 0.1572(9) 0.1852(5)
C10 C 0.5912(5) 0.2088(9) 0.1779(5)
N2 N 0.6016(4) 0.1159(7) 0.2975(4)
C11 C 0.5564(5) -0.0237(8) 0.2408(5)
C12 C 0.5059(5) 0.1713(9) 0.3699(5)
C13 C 0.5128(5) 0.0930(8) 0.5058(6)
C14 C 0.6679(5) 0.0945(8) 0.6248(5)
C15 C 0.7163(6) 0.2037(9) 0.7168(5)
C16 C 0.8597(6) 0.2095(9) 0.8236(5)
C17 C 0.9513(6) 0.0983(9) 0.8326(6)
C18 C 0.9058(7) -0.01480 0.7455(7)
C19 C 0.7623(6) -0.0156(8) 0.6397(6)
N3 N 1.1061(6) 0.1025(1) 0.9402(7)
H1 H 0.327(8) 0.146(1) 0.518(8)
#END
