
#######################################################################
#
#                 Cambridge Crystallographic Data Centre
#                                CCDC
#
#######################################################################
#
# If this CIF has been generated from an entry in the Cambridge
# Structural Database, then it will include bibliographic, chemical,
# crystal, experimental, refinement or atomic coordinate data resulting
# from the CCDC's data processing and validation procedures.
#
#######################################################################

data_CSD_CIF_NUMMOZ
_audit_creation_date 2015-05-02
_audit_creation_method CSD-ConQuest-V1
_database_code_CSD NUMMOZ
_database_code_depnum_ccdc_archive 'CCDC 1036704'
_chemical_formula_sum 'C30 H28 N2 O2'
_chemical_formula_moiety
;
C30 H28 N2 O2
;
_journal_coden_Cambridge 1291
_journal_year 2015
_journal_page_first 3793
_journal_name_full 'Eur.J.Org.Chem. '
loop_
_publ_author_name
"C.S.Lood"
"A.E.Laine"
"A.Hognasbacka"
"M.Nieger"
"A.M.P.Koskinen"
_chemical_name_systematic
;
(S)-N-methoxy-N-methyl-N\a-(9-phenyl-9H-fluoren-9-yl)phenylalaninamide
;
_chemical_name_common
;
(S)-N-methoxy-N-methyl-3-phenyl-2-((9-phenyl-9H-fluoren-9-yl)amino)propanamide
;
_cell_volume   2470.097
_exptl_crystal_colour 'colorless'
_exptl_crystal_density_diffrn 1.206
_exptl_crystal_description 'blocks'
_diffrn_ambient_temperature 123
#These two values have been output from a single CSD field.
_refine_ls_R_factor_gt 0.035
_refine_ls_wR_factor_gt 0.035
_symmetry_cell_setting monoclinic
_symmetry_space_group_name_H-M 'P 21'
_symmetry_Int_Tables_number 4
loop_
_symmetry_equiv_pos_site_id
_symmetry_equiv_pos_as_xyz
1 x,y,z
2 -x,1/2+y,-z
_cell_length_a 10.964(2)
_cell_length_b 14.605(1)
_cell_length_c 15.874(2)
_cell_angle_alpha 90
_cell_angle_beta 103.65(2)
_cell_angle_gamma 90
_cell_formula_units_Z 4
loop_
_atom_type_symbol
_atom_type_radius_bond
C 0.68
H 0.23
N 0.68
O 0.68
loop_
_atom_site_label
_atom_site_type_symbol
_atom_site_fract_x
_atom_site_fract_y
_atom_site_fract_z
N1 N 0.87380(16) 0.15180(11) 0.57127(10)
H1 H 0.930(2) 0.1979(14) 0.5688(15)
C1 C 0.85064(18) 0.10180(14) 0.48922(12)
H2 H 0.82600 0.03730 0.49840
C2 C 0.96636(19) 0.10196(15) 0.45114(13)
O1 O 1.04264(14) 0.16409(11) 0.46555(10)
N2 N 0.98128(16) 0.02899(13) 0.40097(12)
C3 C 1.0679(2) 0.0341(2) 0.34428(15)
H3 H 1.02980 0.07000 0.29260
H4 H 1.08620 -0.02780 0.32690
H5 H 1.14600 0.06360 0.37520
O2 O 0.87175(14) -0.02233(11) 0.36592(10)
C4 C 0.8883(3) -0.11512(18) 0.3961(2)
H6 H 0.96030 -0.14220 0.37860
H7 H 0.81250 -0.15050 0.37080
H8 H 0.90330 -0.11610 0.45940
C5 C 0.74408(19) 0.14948(16) 0.42341(13)
H9 H 0.76740 0.21430 0.41770
H10 H 0.73480 0.12000 0.36610
C6 C 0.61970(19) 0.14609(16) 0.44841(13)
C7 C 0.5668(2) 0.2244(2) 0.47442(15)
H11 H 0.61100 0.28070 0.47840
C8 C 0.4503(3) 0.2217(2) 0.49472(17)
H12 H 0.41520 0.27600 0.51190
C9 C 0.3861(2) 0.1406(3) 0.48997(17)
H13 H 0.30620 0.13880 0.50340
C10 C 0.4378(2) 0.0619(2) 0.46573(18)
H14 H 0.39380 0.00550 0.46330
C11 C 0.5540(2) 0.06445(19) 0.44474(15)
H15 H 0.58870 0.00980 0.42770
C12 C 0.92384(18) 0.09658(13) 0.64966(12)
C13 C 0.83139(19) 0.02063(13) 0.65888(12)
C14 C 0.7073(2) 0.02928(16) 0.66234(13)
H16 H 0.66810 0.08760 0.65830
C15 C 0.6410(2) -0.05013(18) 0.67191(14)
H17 H 0.55560 -0.04580 0.67460
C16 C 0.6982(2) -0.13541(17) 0.67750(15)
H18 H 0.65150 -0.18850 0.68440
C17 C 0.8222(2) -0.14416(16) 0.67313(15)
H19 H 0.86100 -0.20270 0.67650
C18 C 0.8887(2) -0.06546(14) 0.66376(13)
C19 C 1.0196(2) -0.05334(14) 0.65662(13)
C20 C 1.1140(2) -0.11710(15) 0.65757(14)
H20 H 1.09920 -0.18060 0.66330
C21 C 1.2304(2) -0.08575(16) 0.64989(14)
H21 H 1.29590 -0.12840 0.65010
C22 C 1.2527(2) 0.00721(15) 0.64198(13)
H22 H 1.33290 0.02740 0.63670
C23 C 1.15811(19) 0.07098(14) 0.64173(13)
H23 H 1.17340 0.13450 0.63670
C24 C 1.04185(18) 0.04047(13) 0.64889(12)
C25 C 0.94378(18) 0.16078(13) 0.72820(12)
C26 C 0.8757(2) 0.24159(16) 0.72513(14)
H24 H 0.81690 0.25840 0.67330
C27 C 0.8936(3) 0.29785(16) 0.79784(16)
H25 H 0.84760 0.35330 0.79510
C28 C 0.9778(2) 0.27372(16) 0.87400(14)
H26 H 0.98990 0.31260 0.92330
C29 C 1.0438(2) 0.19314(15) 0.87800(14)
H27 H 1.10100 0.17580 0.93040
C30 C 1.0269(2) 0.13726(15) 0.80550(14)
H28 H 1.07320 0.08180 0.80880
N3 N 0.63706(16) 0.07168(11) 0.18196(10)
H29 H 0.7068(18) 0.0655(15) 0.2254(13)
C31 C 0.64217(18) 0.16341(13) 0.14690(12)
H30 H 0.59930 0.16360 0.08390
C32 C 0.77644(19) 0.19864(13) 0.15866(13)
O3 O 0.86085(13) 0.17524(10) 0.22044(10)
N4 N 0.79637(16) 0.26049(12) 0.09956(12)
C33 C 0.9027(2) 0.32283(16) 0.11662(17)
H31 H 0.87710 0.38190 0.13620
H32 H 0.93190 0.33170 0.06340
H33 H 0.97070 0.29690 0.16170
O4 O 0.68838(14) 0.29632(10) 0.04291(10)
C34 C 0.6806(2) 0.26477(19) -0.04346(15)
H34 H 0.75550 0.28420 -0.06220
H35 H 0.60570 0.29070 -0.08250
H36 H 0.67510 0.19780 -0.04490
C35 C 0.57636(19) 0.23269(13) 0.19555(13)
H37 H 0.61430 0.22850 0.25850
H38 H 0.59050 0.29560 0.17650
C36 C 0.43781(19) 0.21539(13) 0.17938(13)
C37 C 0.3900(2) 0.15284(14) 0.22936(14)
H39 H 0.44520 0.12240 0.27610
C38 C 0.2624(3) 0.13455(17) 0.21144(19)
H40 H 0.23110 0.09040 0.24490
C39 C 0.1809(2) 0.17990(18) 0.1454(2)
H41 H 0.09350 0.16720 0.13330
C40 C 0.2269(2) 0.24420(17) 0.09678(17)
H42 H 0.17070 0.27690 0.05220
C41 C 0.3546(2) 0.26093(15) 0.11303(14)
H43 H 0.38560 0.30400 0.07840
C42 C 0.63187(17) -0.00458(13) 0.12029(12)
C43 C 0.51780(18) 0.00370(12) 0.04289(12)
C44 C 0.39278(19) 0.01324(13) 0.04336(13)
H44 H 0.36750 0.01710 0.09650
C45 C 0.30407(19) 0.01720(13) -0.03565(14)
H45 H 0.21780 0.02460 -0.03630
C46 C 0.3407(2) 0.01048(14) -0.11349(13)
H46 H 0.27900 0.01140 -0.16670
C47 C 0.4662(2) 0.00244(14) -0.11428(13)
H47 H 0.49130 -0.00140 -0.16750
C48 C 0.55494(18) 0.00012(13) -0.03545(12)
C49 C 0.69298(19) -0.00389(14) -0.01676(13)
C50 C 0.7743(2) -0.00196(15) -0.07204(14)
H48 H 0.74290 -0.00110 -0.13320
C51 C 0.9024(2) -0.00131(15) -0.03562(15)
H49 H 0.95930 0.00060 -0.07240
C52 C 0.9487(2) -0.00346(15) 0.05357(15)
H50 H 1.03680 -0.00250 0.07720
C53 C 0.86703(19) -0.00702(14) 0.10885(14)
H51 H 0.89880 -0.00980 0.16990
C54 C 0.73947(18) -0.00636(13) 0.07348(13)
C55 C 0.62026(18) -0.09351(13) 0.16994(13)
C56 C 0.5463(2) -0.09446(14) 0.23002(14)
H52 H 0.50780 -0.03940 0.24250
C57 C 0.5280(2) -0.17490(16) 0.27199(16)
H53 H 0.47660 -0.17460 0.31250
C58 C 0.5842(2) -0.25542(16) 0.25504(17)
H54 H 0.57190 -0.31040 0.28390
C59 C 0.6582(2) -0.25507(15) 0.19593(17)
H55 H 0.69720 -0.31010 0.18420
C60 C 0.6762(2) -0.17477(14) 0.15327(15)
H56 H 0.72720 -0.17550 0.11250
#END
