
#######################################################################
#
#                 Cambridge Crystallographic Data Centre
#                                CCDC
#
#######################################################################
#
# If this CIF has been generated from an entry in the Cambridge
# Structural Database, then it will include bibliographic, chemical,
# crystal, experimental, refinement or atomic coordinate data resulting
# from the CCDC's data processing and validation procedures.
#
#######################################################################

data_CSD_CIF_NUMNAM
_audit_creation_date 2015-05-02
_audit_creation_method CSD-ConQuest-V1
_database_code_CSD NUMNAM
_database_code_depnum_ccdc_archive 'CCDC 1036706'
_chemical_formula_sum 'C26 H26 N2 O2'
_chemical_formula_moiety
;
C26 H26 N2 O2
;
_journal_coden_Cambridge 1291
_journal_year 2015
_journal_page_first 3793
_journal_name_full 'Eur.J.Org.Chem. '
loop_
_publ_author_name
"C.S.Lood"
"A.E.Laine"
"A.Hognasbacka"
"M.Nieger"
"A.M.P.Koskinen"
_chemical_name_systematic
;
(2S)-N-methoxy-N-methyl-1-(9-phenyl-9H-fluoren-9-yl)-pyrrolidine-2-carboxamide
;
_chemical_name_common
;
N-methoxy-N-methyl-1-(9-phenyl-9H-fluoren-9-yl)-L-prolinamide
;
_cell_volume   2071.879
_exptl_crystal_colour 'colorless'
_exptl_crystal_density_diffrn 1.277
_exptl_crystal_description 'blocks'
_diffrn_ambient_temperature 123
#These two values have been output from a single CSD field.
_refine_ls_R_factor_gt 0.0368
_refine_ls_wR_factor_gt 0.0368
_symmetry_cell_setting orthorhombic
_symmetry_space_group_name_H-M 'P 21 21 21'
_symmetry_Int_Tables_number 19
loop_
_symmetry_equiv_pos_site_id
_symmetry_equiv_pos_as_xyz
1 x,y,z
2 1/2-x,-y,1/2+z
3 -x,1/2+y,1/2-z
4 1/2+x,1/2-y,-z
_cell_length_a 10.165(2)
_cell_length_b 13.758(2)
_cell_length_c 14.815(1)
_cell_angle_alpha 90
_cell_angle_beta 90
_cell_angle_gamma 90
_cell_formula_units_Z 4
loop_
_atom_type_symbol
_atom_type_radius_bond
C 0.68
H 0.23
N 0.68
O 0.68
loop_
_atom_site_label
_atom_site_type_symbol
_atom_site_fract_x
_atom_site_fract_y
_atom_site_fract_z
N1 N 0.70213(15) 0.30377(11) 0.72719(10)
C1 C 0.80156(18) 0.31659(14) 0.79887(12)
H1 H 0.76420 0.35550 0.84980
C2 C 0.92705(19) 0.36421(14) 0.76344(12)
O1 O 0.97310(14) 0.34732(11) 0.68909(9)
N2 N 0.99361(17) 0.42153(13) 0.82282(11)
C3 C 1.0993(2) 0.48595(18) 0.79546(16)
H2 H 1.11730 0.47690 0.73100
H3 H 1.17860 0.47090 0.83030
H4 H 1.07330 0.55350 0.80650
O2 O 0.92944(15) 0.45110(12) 0.9022(1)
C4 C 0.9985(2) 0.41382(18) 0.97897(15)
H5 H 1.00440 0.34290 0.97450
H6 H 0.95120 0.43150 1.03420
H7 H 1.08730 0.44160 0.98070
C5 C 0.8329(2) 0.21297(16) 0.83042(15)
H8 H 0.89770 0.18120 0.79020
H9 H 0.86680 0.21240 0.89310
C6 C 0.6983(2) 0.16406(16) 0.82415(14)
H10 H 0.70650 0.09240 0.82230
H11 H 0.64110 0.18280 0.87530
C7 C 0.6466(2) 0.20410(14) 0.73522(13)
H12 H 0.67580 0.16300 0.68410
H13 H 0.54930 0.20630 0.73560
C8 C 0.60357(18) 0.38345(13) 0.72229(13)
C9 C 0.52484(19) 0.39753(15) 0.81036(13)
C10 C 0.4353(2) 0.33564(17) 0.85146(14)
H14 H 0.41260 0.27550 0.82410
C11 C 0.3790(2) 0.36294(18) 0.93339(15)
H15 H 0.31690 0.32130 0.96170
C12 C 0.4127(3) 0.45016(19) 0.97393(16)
H16 H 0.37480 0.46700 1.03040
C13 C 0.5006(3) 0.51303(17) 0.93347(15)
H17 H 0.52260 0.57310 0.96120
C14 C 0.5569(2) 0.48655(15) 0.85069(14)
C15 C 0.6505(2) 0.53814(14) 0.79250(14)
C16 C 0.7112(2) 0.62783(16) 0.80352(16)
H18 H 0.69410 0.66630 0.85540
C17 C 0.7968(2) 0.65999(16) 0.73755(16)
H19 H 0.83970 0.72080 0.74460
C18 C 0.8209(2) 0.60417(17) 0.66078(17)
H20 H 0.87880 0.62800 0.61560
C19 C 0.7610(2) 0.51344(16) 0.64947(15)
H21 H 0.77790 0.47510 0.59740
C20 C 0.67631(18) 0.48091(14) 0.71611(13)
C21 C 0.51718(19) 0.36479(13) 0.63889(13)
C22 C 0.5763(2) 0.33178(15) 0.55958(13)
H22 H 0.66890 0.32300 0.55760
C23 C 0.5012(3) 0.31163(16) 0.48378(15)
H23 H 0.54270 0.28910 0.43030
C24 C 0.3666(3) 0.32415(18) 0.48562(16)
H24 H 0.31530 0.30980 0.43370
C25 C 0.3069(2) 0.35760(17) 0.56313(17)
H25 H 0.21420 0.36640 0.56440
C26 C 0.3818(2) 0.37876(15) 0.64001(15)
H26 H 0.34010 0.40270 0.69290
#END
