
#######################################################################
#
#                 Cambridge Crystallographic Data Centre
#                                CCDC
#
#######################################################################
#
# If this CIF has been generated from an entry in the Cambridge
# Structural Database, then it will include bibliographic, chemical,
# crystal, experimental, refinement or atomic coordinate data resulting
# from the CCDC's data processing and validation procedures.
#
#######################################################################

data_CSD_CIF_NUNFOT
_audit_creation_date 2015-05-04
_audit_creation_method CSD-ConQuest-V1
_database_code_CSD NUNFOT
_database_code_depnum_ccdc_archive 'CCDC 1063119'
_chemical_formula_sum 'C14 H15 N3 O5'
_chemical_formula_moiety
;
C14 H15 N3 O5
;
_journal_coden_Cambridge 1078
_journal_year 2015
_journal_name_full 'CSD Communication(Private Communication) '
loop_
_publ_author_name
"J.T.Mague"
"S.K.Mohamed"
_chemical_name_systematic
;
ethyl 
6-methyl-4-(2-nitrophenyl)-2-oxo-1,2,3,4-tetrahydropyrimidine-5-carboxylate
;
_cell_volume   1396.441
_exptl_crystal_colour 'pale yellow'
_exptl_crystal_density_diffrn 1.452
_exptl_crystal_description 'block'
_exptl_crystal_preparation 'Re-crystallisation from solvent'
_diffrn_ambient_temperature 150
#These two values have been output from a single CSD field.
_refine_ls_R_factor_gt 0.0503
_refine_ls_wR_factor_gt 0.0503
_symmetry_cell_setting monoclinic
_symmetry_space_group_name_H-M 'P 21/c'
_symmetry_Int_Tables_number 14
loop_
_symmetry_equiv_pos_site_id
_symmetry_equiv_pos_as_xyz
1 x,y,z
2 -x,1/2+y,1/2-z
3 -x,-y,-z
4 x,-1/2-y,-1/2+z
_cell_length_a 7.8271(7)
_cell_length_b 24.229(2)
_cell_length_c 7.8400(7)
_cell_angle_alpha 90
_cell_angle_beta 110.078(1)
_cell_angle_gamma 90
_cell_formula_units_Z 4
loop_
_atom_type_symbol
_atom_type_radius_bond
C 0.68
H 0.23
N 0.68
O 0.68
loop_
_atom_site_label
_atom_site_type_symbol
_atom_site_fract_x
_atom_site_fract_y
_atom_site_fract_z
O1 O 0.16753(16) 0.51577(5) -0.10960(16)
O2 O 0.53034(18) 0.57757(6) 0.72302(17)
O3 O 0.72173(16) 0.60874(5) 0.58781(16)
O4 O 0.8377(2) 0.61998(7) 0.1686(2)
O5 O 0.9494(2) 0.69773(8) 0.2936(3)
N1 N 0.18430(17) 0.53593(6) 0.17833(17)
H1 H 0.07150 0.52100 0.15210
N2 N 0.42142(18) 0.55832(6) 0.07916(18)
H2 H 0.46430 0.55920 -0.01500
N3 N 0.8203(2) 0.66628(8) 0.2227(2)
C1 C 0.5201(2) 0.58840(6) 0.2470(2)
H3 H 0.65190 0.57840 0.28510
C2 C 0.4495(2) 0.57208(6) 0.3973(2)
C3 C 0.2839(2) 0.54841(6) 0.3565(2)
C4 C 0.2546(2) 0.53594(6) 0.0396(2)
C5 C 0.1878(2) 0.53280(8) 0.4844(2)
H4 H 0.26480 0.54180 0.60900
H5 H 0.16250 0.49310 0.47500
H6 H 0.07310 0.55330 0.45320
C6 C 0.5012(2) 0.65094(7) 0.2131(2)
C7 C 0.3357(2) 0.67578(7) 0.1970(2)
H7 H 0.23980 0.65350 0.20690
C8 C 0.3063(3) 0.73193(8) 0.1670(3)
H8 H 0.19090 0.74730 0.15470
C9 C 0.4440(3) 0.76562(8) 0.1551(3)
H9 H 0.42390 0.80410 0.13370
C10 C 0.6105(3) 0.74297(8) 0.1743(3)
H10 H 0.70690 0.76580 0.16860
C11 C 0.6374(2) 0.68657(7) 0.2022(2)
C12 C 0.5640(2) 0.58524(7) 0.5847(2)
C13 C 0.8490(3) 0.62304(8) 0.7661(2)
H11 H 0.88800 0.58950 0.84160
H12 H 0.79160 0.64870 0.82860
C14 C 1.0087(3) 0.64996(9) 0.7361(3)
H13 H 1.06850 0.62330 0.68100
H14 H 1.09510 0.66240 0.85270
H15 H 0.96690 0.68170 0.65490
#END
