
#######################################################################
#
#                 Cambridge Crystallographic Data Centre
#                                CCDC
#
#######################################################################
#
# If this CIF has been generated from an entry in the Cambridge
# Structural Database, then it will include bibliographic, chemical,
# crystal, experimental, refinement or atomic coordinate data resulting
# from the CCDC's data processing and validation procedures.
#
#######################################################################

data_CSD_CIF_NUNGEJ
_audit_creation_date 2010-05-04
_audit_creation_method CSD-ConQuest-V1
_database_code_CSD NUNGEJ
_database_code_depnum_ccdc_archive 'CCDC 706353'
_chemical_formula_sum 'C20 H26 N4 O6'
_chemical_formula_moiety
;
C20 H26 N4 O6
;
_journal_coden_Cambridge 177
_journal_volume 7
_journal_year 2009
_journal_page_first 3285
_journal_name_full 'Org.Biomol.Chem. '
loop_
_publ_author_name
"Min-Tsang Hsieh"
"Hsing-Jang Liu"
"Tai Wei Ly"
"Kak-Shan Shia"
_chemical_name_systematic
;
Methyl 
(3R*,3aR*,7R*,7aS*)-4-((2,4-dinitrophenyl)hydrazono)-3,7,7a-trimethyloctahydro
-3aH-indene-3a-carboxylate
;
_chemical_melting_point 412.15
_cell_volume   2057.958
_exptl_crystal_colour 'orange'
_exptl_crystal_density_diffrn 1.351
_exptl_special_details
;
Melting point range 412.15-414.15K

;
_exptl_crystal_description 'prism'
_exptl_crystal_preparation 'ethyl acetate/n-hexane'
_diffrn_ambient_temperature 150
#These two values have been output from a single CSD field.
_refine_ls_R_factor_gt 0.0335
_refine_ls_wR_factor_gt 0.0335
_symmetry_cell_setting monoclinic
_symmetry_space_group_name_H-M 'P 21/n'
_symmetry_Int_Tables_number 14
loop_
_symmetry_equiv_pos_site_id
_symmetry_equiv_pos_as_xyz
1 x,y,z
2 1/2-x,1/2+y,1/2-z
3 -x,-y,-z
4 -1/2+x,-1/2-y,-1/2+z
_cell_length_a 10.3756(6)
_cell_length_b 12.6325(7)
_cell_length_c 16.2827(9)
_cell_angle_alpha 90
_cell_angle_beta 105.358(1)
_cell_angle_gamma 90
_cell_formula_units_Z 4
loop_
_atom_type_symbol
_atom_type_radius_bond
C 0.68
H 0.23
N 0.68
O 0.68
loop_
_atom_site_label
_atom_site_type_symbol
_atom_site_fract_x
_atom_site_fract_y
_atom_site_fract_z
O1 O 0.77099(10) 0.58047(8) 0.01791(6)
O2 O 0.89298(10) 0.65116(9) -0.06208(7)
O3 O 0.43032(11) 0.18179(8) -0.16419(7)
O4 O 0.45391(11) 0.02319(8) -0.11466(8)
O5 O 0.85778(13) -0.09950(9) 0.06900(8)
O6 O 1.02534(12) 0.00634(9) 0.10984(8)
N1 N 0.67036(11) 0.42337(9) -0.09960(7)
N2 N 0.61259(11) 0.32427(8) -0.10756(7)
H1 H 0.53240 0.31520 -0.13870
N3 N 0.49745(12) 0.11237(10) -0.11863(8)
N4 N 0.90949(14) -0.01190(11) 0.07113(8)
C1 C 0.59280(14) 0.50139(11) -0.12851(8)
C2 C 0.66348(13) 0.60639(10) -0.12980(8)
C3 C 0.69830(15) 0.61426(11) -0.21759(9)
H2 H 0.61800 0.59170 -0.26080
C4 C 0.71447(17) 0.73290(11) -0.23235(10)
H3 H 0.80820 0.75080 -0.22270
H4 H 0.66800 0.75200 -0.29030
C5 C 0.65425(15) 0.79167(11) -0.16913(10)
H5 H 0.59400 0.84670 -0.19810
H6 H 0.72440 0.82420 -0.12480
C6 C 0.57758(14) 0.70950(11) -0.13014(9)
C7 C 0.43486(14) 0.69266(11) -0.18935(9)
H7 H 0.44380 0.68130 -0.24710
C8 C 0.36910(15) 0.59467(11) -0.1646(1)
H8 H 0.27940 0.58840 -0.20180
H9 H 0.36160 0.60320 -0.10680
C9 C 0.44565(15) 0.49313(11) -0.16985(10)
H10 H 0.40890 0.43640 -0.14280
H11 H 0.43240 0.47440 -0.22930
C10 C 0.78913(15) 0.61411(11) -0.05649(9)
C11 C 0.88471(16) 0.59283(15) 0.09001(10)
H12 H 0.86320 0.56700 0.14020
H13 H 0.90830 0.66640 0.09730
H14 H 0.95870 0.55340 0.08070
C12 C 0.81102(17) 0.54530(12) -0.2297(1)
H15 H 0.79260 0.47260 -0.21980
H16 H 0.89320 0.56630 -0.19020
H17 H 0.81880 0.55320 -0.28680
C13 C 0.57112(15) 0.74563(12) -0.04232(9)
H18 H 0.52330 0.69420 -0.01850
H19 H 0.52590 0.81250 -0.04690
H20 H 0.66010 0.75300 -0.00600
C14 C 0.34245(16) 0.78787(12) -0.19269(11)
H21 H 0.38380 0.85010 -0.20820
H22 H 0.32650 0.79810 -0.13780
H23 H 0.25910 0.77520 -0.23420
C15 C 0.68358(13) 0.24145(11) -0.06570(8)
C16 C 0.63087(13) 0.13789(11) -0.06885(8)
C17 C 0.70378(15) 0.05552(11) -0.02333(9)
H24 H 0.66690 -0.01180 -0.02530
C18 C 0.83092(15) 0.07464(11) 0.02455(9)
C19 C 0.88761(15) 0.17488(11) 0.02900(9)
H25 H 0.97460 0.18620 0.06180
C20 C 0.81492(14) 0.25648(12) -0.01495(9)
H26 H 0.85300 0.32360 -0.01130
#END
