
#######################################################################
#
#                 Cambridge Crystallographic Data Centre
#                                CCDC
#
#######################################################################
#
# If this CIF has been generated from an entry in the Cambridge
# Structural Database, then it will include bibliographic, chemical,
# crystal, experimental, refinement or atomic coordinate data resulting
# from the CCDC's data processing and validation procedures.
#
#######################################################################

data_CSD_CIF_NUNLOX
_audit_creation_date 1998-09-21
_audit_creation_method CSD-ConQuest-V1
_database_code_CSD NUNLOX
_database_code_depnum_ccdc_archive 'CCDC 130149'
_chemical_formula_sum 'C56 H52 N4 O12'
_chemical_formula_moiety
;
C56 H52 N4 O12
;
_journal_coeditor_code "IUCr AB1536"
_journal_coden_Cambridge 591
_journal_volume 54
_journal_year 1998
_journal_page_first 1023
_journal_name_full 'Acta Crystallogr.,Sect.C:Cryst.Struct.Commun. '
loop_
_publ_author_name
"A.L.Spek"
"H.Boerrigter"
"W.Verboom"
"D.N.Reinhoudt"
_chemical_name_systematic
;
5,17-Dinitro-11,23-diphthalimido-25,26,27,28-tetrapropoxycalix(4)arene
;
_cell_volume   4933.133
_exptl_crystal_colour 'colorless'
_exptl_crystal_density_diffrn 1.31
_exptl_crystal_description 'irregular block'
_diffrn_ambient_temperature 150
#These two values have been output from a single CSD field.
_refine_ls_R_factor_gt 0.05
_refine_ls_wR_factor_gt 0.05
_symmetry_cell_setting monoclinic
_symmetry_space_group_name_H-M 'C 2/c'
_symmetry_Int_Tables_number 15
loop_
_symmetry_equiv_pos_site_id
_symmetry_equiv_pos_as_xyz
1 x,y,z
2 1/2+x,1/2+y,z
3 -x,y,1/2-z
4 1/2-x,1/2+y,1/2-z
5 -x,-y,-z
6 -1/2-x,-1/2-y,-z
7 x,-y,-1/2+z
8 -1/2+x,-1/2-y,-1/2+z
_cell_length_a 23.437(3)
_cell_length_b 11.8595(13)
_cell_length_c 17.898(2)
_cell_angle_alpha 90
_cell_angle_beta 97.418(10)
_cell_angle_gamma 90
_cell_formula_units_Z 4
loop_
_atom_type_symbol
_atom_type_radius_bond
C 0.68
H 0.23
N 0.68
O 0.68
loop_
_atom_site_label
_atom_site_type_symbol
_atom_site_fract_x
_atom_site_fract_y
_atom_site_fract_z
O1 O 0.08809(5) 0.14069(11) 0.15267(7)
O2 O 0.09550(8) 0.64498(14) 0.25328(10)
O3 O 0.03195(7) 0.65531(13) 0.15526(9)
O4 O -0.04455(5) 0.16586(11) 0.17250(7)
O5 O -0.19277(7) 0.58739(13) 0.03904(8)
O6 O -0.18768(7) 0.30882(13) -0.13632(8)
N1 N 0.06598(8) 0.60176(15) 0.19967(10)
N2 N -0.18286(7) 0.43028(14) -0.03442(8)
C1 C 0.08315(8) 0.25485(16) 0.16402(10)
C2 C 0.11438(8) 0.30457(17) 0.22753(10)
C3 C 0.10831(8) 0.41918(17) 0.23821(10)
C4 C 0.07172(8) 0.48062(16) 0.18687(11)
C5 C 0.03900(8) 0.43104(17) 0.12562(10)
C6 C 0.04469(8) 0.31653(16) 0.11329(10)
C7 C 0.13150(8) 0.11040(18) 0.10648(11)
C8 C 0.12157(9) -0.00926(19) 0.08073(13)
C9 C 0.16869(12) -0.0494(2) 0.03663(15)
C10 C 0.00691(8) 0.25970(18) 0.04886(10)
C11 C -0.05608(8) 0.27325(16) 0.05786(10)
C12 C -0.07854(8) 0.23105(16) 0.12071(10)
C13 C -0.13322(8) 0.26104(16) 0.13649(10)
C14 C -0.16813(8) 0.32615(16) 0.08432(10)
C15 C -0.14744(8) 0.36289(16) 0.01954(10)
C16 C -0.09185(8) 0.33868(17) 0.00705(10)
C17 C 0.15038(8) 0.23420(18) 0.28688(10)
C18 C -0.03685(9) 0.05097(18) 0.14865(12)
C19 C -0.08491(9) -0.02724(19) 0.16191(14)
C20 C -0.07455(13) -0.1427(2) 0.12912(18)
C21 C -0.20092(9) 0.54001(17) -0.02071(11)
C22 C -0.23176(8) 0.58054(17) -0.09413(11)
C23 C -0.25865(10) 0.68202(19) -0.11233(13)
C24 C -0.28358(9) 0.6962(2) -0.18678(13)
C25 C -0.28065(9) 0.6130(2) -0.23980(13)
C26 C -0.25369(9) 0.5111(2) -0.22089(12)
C27 C -0.22950(8) 0.49645(17) -0.14681(11)
C28 C -0.19852(8) 0.39833(18) -0.10967(10)
H1 H 0.1283(8) 0.4565(17) 0.2794(12)
H2 H 0.0130(9) 0.4791(17) 0.0935(11)
H3 H 0.1293(8) 0.1632(17) 0.0629(11)
H4 H 0.1700(9) 0.1203(17) 0.1348(11)
H5 H 0.1185(9) -0.0593(19) 0.1251(13)
H6 H 0.0823(10) -0.0127(19) 0.0491(13)
H7 H 0.2067(11) -0.044(2) 0.0674(14)
H8 H 0.1623(11) -0.129(2) 0.0194(15)
H9 H 0.1704(11) 0.002(2) -0.0084(15)
H10 H 0.0141(8) 0.2963(17) -0.0008(11)
H11 H 0.0166(8) 0.1795(18) 0.0469(11)
H12 H -0.2076(8) 0.3458(16) 0.0939(10)
H13 H -0.0767(8) 0.3685(16) -0.0354(11)
H14 H 0.1457(8) 0.1558(18) 0.2746(10)
H15 H 0.1917(9) 0.2508(17) 0.2869(10)
H16 H 0.0006(9) 0.0257(16) 0.1772(11)
H17 H -0.0300(9) 0.0517(18) 0.0937(12)
H18 H -0.1227(10) 0.005(2) 0.1376(13)
H19 H -0.088(1) -0.029(2) 0.2171(15)
H20 H -0.0394(13) -0.173(2) 0.1544(15)
H21 H -0.0711(13) -0.134(3) 0.0720(18)
H22 H -0.1039(14) -0.198(3) 0.1396(17)
H23 H -0.2622(9) 0.737(2) -0.0768(13)
H24 H -0.3033(9) 0.764(2) -0.2002(12)
H25 H -0.2981(10) 0.623(2) -0.2902(14)
H26 H -0.2513(9) 0.4528(19) -0.2577(13)
C17B C -0.15038(8) 0.23420(18) 0.21312(10)
C2B C -0.11438(8) 0.30457(17) 0.27247(10)
C1B C -0.08315(8) 0.25485(16) 0.33598(10)
O1B O -0.08809(5) 0.14069(11) 0.34733(7)
C7B C -0.13150(8) 0.11040(18) 0.39352(11)
C8B C -0.12157(9) -0.00926(19) 0.41927(13)
C9B C -0.16869(12) -0.0494(2) 0.46337(15)
H7B H -0.2067(11) -0.044(2) 0.4326(14)
H8B H -0.1623(11) -0.129(2) 0.4806(15)
H9B H -0.1704(11) 0.002(2) 0.5084(15)
H5B H -0.1185(9) -0.0593(19) 0.3749(13)
H6B H -0.0823(10) -0.0127(19) 0.4509(13)
H3B H -0.1293(8) 0.1632(17) 0.4371(11)
H4B H -0.1700(9) 0.1203(17) 0.3652(11)
C6B C -0.04469(8) 0.31653(16) 0.38671(10)
C5B C -0.03900(8) 0.43104(17) 0.37438(10)
C4B C -0.07172(8) 0.48062(16) 0.31313(11)
N1B N -0.06598(8) 0.60176(15) 0.30033(10)
O2B O -0.09550(8) 0.64498(14) 0.24672(10)
O3B O -0.03195(7) 0.65531(13) 0.34474(9)
C3B C -0.10831(8) 0.41918(17) 0.26179(10)
H1B H -0.1283(8) 0.4565(17) 0.2206(12)
H2B H -0.0130(9) 0.4791(17) 0.4065(11)
C10B C -0.00691(8) 0.25970(18) 0.45114(10)
C11B C 0.05608(8) 0.27325(16) 0.44214(10)
C12B C 0.07854(8) 0.23105(16) 0.37929(10)
O4B O 0.04455(5) 0.16586(11) 0.32750(7)
C18B C 0.03685(9) 0.05097(18) 0.35135(12)
C19B C 0.08491(9) -0.02724(19) 0.33809(14)
C20B C 0.07455(13) -0.1427(2) 0.37088(18)
H20B H 0.0394(13) -0.173(2) 0.3456(15)
H21B H 0.0711(13) -0.134(3) 0.4280(18)
H22B H 0.1039(14) -0.198(3) 0.3604(17)
H18B H 0.1227(10) 0.005(2) 0.3624(13)
H19B H 0.088(1) -0.029(2) 0.2829(15)
H16B H -0.0006(9) 0.0257(16) 0.3228(11)
H17B H 0.0300(9) 0.0517(18) 0.4063(12)
C13B C 0.13322(8) 0.26104(16) 0.36351(10)
C14B C 0.16813(8) 0.32615(16) 0.41568(10)
C15B C 0.14744(8) 0.36289(16) 0.48046(10)
N2B N 0.18286(7) 0.43028(14) 0.53442(8)
C21B C 0.20092(9) 0.54001(17) 0.52071(11)
O5B O 0.19277(7) 0.58739(13) 0.46096(8)
C22B C 0.23176(8) 0.58054(17) 0.59413(11)
C23B C 0.25865(10) 0.68202(19) 0.61233(13)
C24B C 0.28358(9) 0.6962(2) 0.68678(13)
C25B C 0.28065(9) 0.6130(2) 0.73980(13)
C26B C 0.25369(9) 0.5111(2) 0.72089(12)
C27B C 0.22950(8) 0.49645(17) 0.64681(11)
C28B C 0.19852(8) 0.39833(18) 0.60967(10)
O6B O 0.18768(7) 0.30882(13) 0.63632(8)
H26B H 0.2513(9) 0.4528(19) 0.7577(13)
H25B H 0.2981(10) 0.623(2) 0.7902(14)
H24B H 0.3033(9) 0.764(2) 0.7002(12)
H23B H 0.2622(9) 0.737(2) 0.5768(13)
C16B C 0.09185(8) 0.33868(17) 0.49295(10)
H13B H 0.0767(8) 0.3685(16) 0.5354(11)
H12B H 0.2076(8) 0.3458(16) 0.4061(10)
H10B H -0.0141(8) 0.2963(17) 0.5008(11)
H11B H -0.0166(8) 0.1795(18) 0.4531(11)
H14B H -0.1457(8) 0.1558(18) 0.2254(10)
H15B H -0.1917(9) 0.2508(17) 0.2131(10)
#END
