
#######################################################################
#
#                 Cambridge Crystallographic Data Centre
#                                CCDC
#
#######################################################################
#
# If this CIF has been generated from an entry in the Cambridge
# Structural Database, then it will include bibliographic, chemical,
# crystal, experimental, refinement or atomic coordinate data resulting
# from the CCDC's data processing and validation procedures.
#
#######################################################################

data_CSD_CIF_NUNMAK
_audit_creation_date 1998-09-21
_audit_creation_method CSD-ConQuest-V1
_database_code_CSD NUNMAK
_database_code_depnum_ccdc_archive 'CCDC 130181'
_chemical_formula_sum 'C27 H23 N1 O3'
_chemical_formula_moiety
;
C27 H23 N1 O3
;
_journal_coeditor_code "IUCr GS1001"
_journal_coden_Cambridge 591
_journal_volume 54
_journal_year 1998
_journal_page_first 1027
_journal_name_full 'Acta Crystallogr.,Sect.C:Cryst.Struct.Commun. '
loop_
_publ_author_name
"M.M.Kubicki"
"O.Blacque"
"F.Djapa"
"K.Ciamala"
"J.Vebrel"
_chemical_name_systematic
;
4-Benzoyl-6-(4-methoxybenzylidene)-3-phenyl-2-oxa-3-azabicyclo(3.3.0)oct-7-ene
;
_cell_volume   1054.567
_exptl_crystal_colour 'pale yellow'
_exptl_crystal_density_diffrn 1.29
_exptl_crystal_description 'irregular'
_diffrn_ambient_temperature ?
_diffrn_special_details
;
The study was carried out at room temperature,in the range 283-303K

;
#These two values have been output from a single CSD field.
_refine_ls_R_factor_gt 0.048
_refine_ls_wR_factor_gt 0.048
_symmetry_cell_setting triclinic
_symmetry_space_group_name_H-M 'P -1'
_symmetry_Int_Tables_number 2
loop_
_symmetry_equiv_pos_site_id
_symmetry_equiv_pos_as_xyz
1 x,y,z
2 -x,-y,-z
_cell_length_a 9.542(5)
_cell_length_b 10.327(6)
_cell_length_c 11.857(9)
_cell_angle_alpha 114.41(5)
_cell_angle_beta 90.70(5)
_cell_angle_gamma 96.61(5)
_cell_formula_units_Z 2
loop_
_atom_type_symbol
_atom_type_radius_bond
C 0.68
H 0.23
N 0.68
O 0.68
loop_
_atom_site_label
_atom_site_type_symbol
_atom_site_fract_x
_atom_site_fract_y
_atom_site_fract_z
O1 O 0.39727(16) 0.80714(16) 0.85337(15)
O2 O -0.3962(2) 0.2148(2) 0.7292(2)
O3 O 0.2871(2) 0.44168(18) 0.78748(16)
N1 N 0.28365(19) 0.75499(19) 0.75935(16)
C1 C 0.1966(2) 0.6462(2) 0.7865(2)
H1 H 0.09900 0.63380 0.75340
C2 C 0.2020(2) 0.7038(2) 0.9285(2)
H2 H 0.21070 0.62720 0.95550
C3 C 0.3362(3) 0.8142(3) 0.9683(2)
H3 H 0.40330 0.79000 1.01750
C4 C 0.2862(3) 0.9531(3) 1.0454(2)
H4 H 0.34430 1.04050 1.08110
C5 C 0.1482(3) 0.9365(3) 1.0569(2)
H5 H 0.09810 1.01130 1.10270
C6 C 0.0836(3) 0.7885(3) 0.9903(2)
C7 C -0.0542(3) 0.7425(3) 0.9886(2)
H6 H -0.10760 0.81350 1.03600
C8 C -0.1340(3) 0.6007(3) 0.9253(2)
C9 C -0.0766(3) 0.4746(3) 0.8582(2)
H7 H 0.02120 0.47790 0.85800
C10 C -0.1598(3) 0.3450(3) 0.7921(2)
H8 H -0.11800 0.26340 0.74720
C11 C -0.3046(3) 0.3371(3) 0.7931(3)
C12 C -0.3654(3) 0.4581(3) 0.8640(3)
H9 H -0.46300 0.45240 0.86810
C13 C -0.2819(3) 0.5862(3) 0.9279(2)
H10 H -0.32460 0.66650 0.97480
C14 C -0.3408(4) 0.0947(3) 0.6404(3)
H11 H -0.41580 0.01680 0.60260
H12 H -0.27050 0.06610 0.68080
H13 H -0.29880 0.11990 0.57790
C15 C 0.2594(2) 0.5051(3) 0.7252(2)
C16 C 0.2864(2) 0.4475(2) 0.5914(2)
C17 C 0.2204(3) 0.4876(3) 0.5085(2)
H14 H 0.15630 0.55370 0.53650
C18 C 0.2488(3) 0.4303(3) 0.3840(2)
H15 H 0.20190 0.45590 0.32860
C19 C 0.3466(3) 0.3357(3) 0.3429(3)
H16 H 0.36700 0.29820 0.25990
C20 C 0.4137(3) 0.2968(3) 0.4246(3)
H17 H 0.48070 0.23370 0.39690
C21 C 0.3825(3) 0.3504(3) 0.5478(2)
H18 H 0.42670 0.32080 0.60180
C22 C 0.2255(3) 0.8640(3) 0.7384(2)
C23 C 0.0922(3) 0.8392(3) 0.6810(2)
H19 H 0.03370 0.75430 0.66550
C24 C 0.0455(3) 0.9406(3) 0.6466(3)
H20 H -0.04420 0.92340 0.60760
C25 C 0.1317(4) 1.0676(3) 0.6698(3)
H21 H 0.10060 1.13560 0.64650
C26 C 0.2634(4) 1.0916(3) 0.7277(3)
H22 H 0.32130 1.17720 0.74460
C27 C 0.3109(3) 0.9915(3) 0.7610(2)
H23 H 0.40110 1.00900 0.79910
#END
