
#######################################################################
#
#                 Cambridge Crystallographic Data Centre
#                                CCDC
#
#######################################################################
#
# If this CIF has been generated from an entry in the Cambridge
# Structural Database, then it will include bibliographic, chemical,
# crystal, experimental, refinement or atomic coordinate data resulting
# from the CCDC's data processing and validation procedures.
#
#######################################################################

data_CSD_CIF_NUPPOD
_audit_creation_date 1998-09-24
_audit_creation_method CSD-ConQuest-V1
_database_code_CSD NUPPOD
_chemical_formula_sum 'C9 H9 N1 O4'
_chemical_formula_moiety
;
C9 H9 N1 O4
;
_journal_coden_Cambridge 154
_journal_volume 50
_journal_year 1997
_journal_page_first 927
_journal_name_full 'Aust.J.Chem. '
loop_
_publ_author_name
"A.J.Green"
"W.Issa"
"J.M.White"
_chemical_name_systematic
;
Ethyl p-nitrobenzoate
;
_chemical_melting_point 328.15
_cell_volume    474.431
_exptl_crystal_colour 'colorless'
_exptl_crystal_density_diffrn 1.366
_exptl_special_details
;
Melting point range 328.15-329.15K

;
_exptl_crystal_description 'rods'
_diffrn_ambient_temperature 130
_refine_special_details
;
Methyl atom C2 of the ethyl group is disordered over two sets of positions 
with occupancies 0.53:0.47.
;
#These two values have been output from a single CSD field.
_refine_ls_R_factor_gt 0.0571
_refine_ls_wR_factor_gt 0.0571
_symmetry_cell_setting triclinic
_symmetry_space_group_name_H-M 'P -1'
_symmetry_Int_Tables_number 2
loop_
_symmetry_equiv_pos_site_id
_symmetry_equiv_pos_as_xyz
1 x,y,z
2 -x,-y,-z
_cell_length_a 6.1013(8)
_cell_length_b 7.2031(8)
_cell_length_c 10.8278(10)
_cell_angle_alpha 86.681(8)
_cell_angle_beta 87.377(8)
_cell_angle_gamma 88.480(8)
_cell_formula_units_Z 2
loop_
_atom_type_symbol
_atom_type_radius_bond
C 0.68
H 0.23
N 0.68
O 0.68
loop_
_atom_site_label
_atom_site_type_symbol
_atom_site_fract_x
_atom_site_fract_y
_atom_site_fract_z
O1 O 0.2876(2) 0.7519(2) 0.80554(11)
O2 O 0.0440(2) 0.9127(2) 0.68949(12)
O3 O 0.7343(2) 0.7358(2) 0.18182(12)
O4 O 0.9585(2) 0.5860(2) 0.30334(12)
N1 N 0.7888(2) 0.6773(2) 0.28456(13)
C1 C 0.1473(4) 0.7810(4) 0.9157(2)
C2 C 0.255(2) 0.685(2) 1.0194(10)
C3? C 0.281(2) 0.767(6) 1.0225(13)
C4 C 0.2138(3) 0.8247(2) 0.6993(2)
C5 C 0.3682(3) 0.7841(2) 0.5925(2)
C6 C 0.5761(3) 0.7048(2) 0.6104(2)
C7 C 0.7157(3) 0.6704(2) 0.5092(2)
C8 C 0.6420(3) 0.7169(2) 0.3921(2)
C9 C 0.4374(3) 0.7967(2) 0.3716(2)
C10 C 0.2991(3) 0.8307(2) 0.4737(2)
H1 H 0.117(7) 0.929(6) 0.924(4)
H2 H 0.006(5) 0.729(4) 0.913(2)
H3 H 0.168(2) 0.701(2) 1.0943(10)
H4 H 0.397(2) 0.736(2) 1.027(1)
H5 H 0.271(2) 0.555(2) 1.0051(10)
H6? H 0.190(2) 0.786(6) 1.0957(13)
H7? H 0.391(2) 0.861(6) 1.0136(13)
H8? H 0.350(2) 0.646(6) 1.0293(13)
H9 H 0.622(4) 0.674(3) 0.690(2)
H10 H 0.858(3) 0.619(3) 0.522(2)
H11 H 0.391(4) 0.824(3) 0.295(2)
H12 H 0.163(3) 0.883(3) 0.459(2)
#END
