
#######################################################################
#
#                 Cambridge Crystallographic Data Centre
#                                CCDC
#
#######################################################################
#
# If this CIF has been generated from an entry in the Cambridge
# Structural Database, then it will include bibliographic, chemical,
# crystal, experimental, refinement or atomic coordinate data resulting
# from the CCDC's data processing and validation procedures.
#
#######################################################################

data_CSD_CIF_NUPYON
_audit_creation_date 2010-06-29
_audit_creation_method CSD-ConQuest-V1
_database_code_CSD NUPYON
_database_code_depnum_ccdc_archive 'CCDC 777985'
_chemical_formula_sum 'C16 H15 N3 O6'
_chemical_formula_moiety
;
C16 H15 N3 O6
;
_journal_coeditor_code "IUCr HG2671"
_journal_coden_Cambridge 1370
_journal_volume 66
_journal_year 2010
_journal_page_first o1084
_journal_name_full 'Acta Crystallogr.,Sect.E:Struct.Rep.Online '
loop_
_publ_author_name
"You-Yue Han"
"Yong-Hong Li"
"Qiu-Rong Zhao"
_chemical_name_systematic
;
(E)-2-Hydroxy-N'-(2-hydroxy-3-methoxy-5-nitrobenzylidene)-3-methylbenzohydrazi
de
;
_cell_volume   1572.021
_exptl_crystal_colour 'colorless'
_exptl_crystal_density_diffrn 1.459
_exptl_crystal_description 'block'
_diffrn_ambient_temperature 298
#These two values have been output from a single CSD field.
_refine_ls_R_factor_gt 0.0371
_refine_ls_wR_factor_gt 0.0371
_symmetry_cell_setting monoclinic
_symmetry_space_group_name_H-M 'P 21/n'
_symmetry_Int_Tables_number 14
loop_
_symmetry_equiv_pos_site_id
_symmetry_equiv_pos_as_xyz
1 x,y,z
2 1/2-x,1/2+y,1/2-z
3 -x,-y,-z
4 -1/2+x,-1/2-y,-1/2+z
_cell_length_a 7.482(1)
_cell_length_b 17.158(1)
_cell_length_c 12.250(1)
_cell_angle_alpha 90
_cell_angle_beta 91.565(1)
_cell_angle_gamma 90
_cell_formula_units_Z 4
loop_
_atom_type_symbol
_atom_type_radius_bond
C 0.68
H 0.23
N 0.68
O 0.68
loop_
_atom_site_label
_atom_site_type_symbol
_atom_site_fract_x
_atom_site_fract_y
_atom_site_fract_z
O1 O 0.91330(15) 0.99426(5) 0.21838(9)
H1 H 0.86390 1.00750 0.16070
O2 O 1.05158(16) 0.93423(6) 0.39521(9)
O3 O 0.67111(17) 1.11702(6) 0.00680(9)
O4 O 0.55183(17) 1.23435(6) -0.09508(10)
H2 H 0.59860 1.20960 -0.04470
O5 O 1.0371(2) 0.63937(6) 0.14205(11)
O6 O 1.13335(17) 0.65067(6) 0.30689(10)
N1 N 1.06881(16) 0.67848(7) 0.22311(11)
N2 N 0.78019(15) 0.97366(7) 0.02075(10)
N3 N 0.70013(16) 1.00078(6) -0.07337(10)
C1 C 0.91165(17) 0.87130(8) 0.12358(11)
C2 C 0.94794(18) 0.91768(8) 0.21567(12)
C3 C 1.02423(19) 0.88404(8) 0.31098(12)
C4 C 1.06361(18) 0.80575(8) 0.31361(12)
H3 H 1.11300 0.78300 0.37640
C5 C 1.02806(18) 0.76137(8) 0.22055(12)
C6 C 0.95409(18) 0.79211(8) 0.12723(12)
H4 H 0.93210 0.76060 0.06650
C7 C 1.1154(3) 0.90321(10) 0.49667(14)
H5 H 1.03190 0.86540 0.52240
H6 H 1.12810 0.94450 0.54910
H7 H 1.22930 0.87880 0.48700
C8 C 0.8290(2) 0.90257(8) 0.02500(12)
H8 H 0.81130 0.87060 -0.03570
C9 C 0.64676(18) 1.07636(8) -0.07544(12)
C10 C 0.56400(18) 1.10707(8) -0.17680(12)
C11 C 0.52198(18) 1.18678(8) -0.18113(12)
C12 C 0.44698(19) 1.22062(9) -0.27568(13)
C13 C 0.4115(2) 1.17278(10) -0.36333(14)
H9 H 0.36040 1.19410 -0.42660
C14 C 0.4493(2) 1.09387(10) -0.36069(14)
H10 H 0.42300 1.06290 -0.42140
C15 C 0.5255(2) 1.06140(9) -0.26864(13)
H11 H 0.55190 1.00840 -0.26730
C16 C 0.4079(2) 1.30676(10) -0.27722(16)
H12 H 0.35630 1.32100 -0.34700
H13 H 0.51690 1.33520 -0.26460
H14 H 0.32550 1.31900 -0.22100
H15 H 0.686(3) 0.9691(10) -0.1318(12)
#END
