
#######################################################################
#
#                 Cambridge Crystallographic Data Centre
#                                CCDC
#
#######################################################################
#
# If this CIF has been generated from an entry in the Cambridge
# Structural Database, then it will include bibliographic, chemical,
# crystal, experimental, refinement or atomic coordinate data resulting
# from the CCDC's data processing and validation procedures.
#
#######################################################################

data_CSD_CIF_NUQCEJ
_audit_creation_date 2015-09-26
_audit_creation_method CSD-ConQuest-V1
_database_code_CSD NUQCEJ
_database_code_depnum_ccdc_archive 'CCDC 1421062'
_chemical_formula_sum 'C11 H9 N1 O3'
_chemical_formula_moiety
;
C11 H9 N1 O3
;
_journal_coeditor_code "hb7477"
_journal_coden_Cambridge 1828
_journal_volume 71
_journal_year 2015
_journal_page_first o701
_journal_name_full 'Acta Crystallogr.,Sect.E:Cryst.Commun. '
loop_
_publ_author_name
"H.Yassine"
"M.Khouili"
"L.El Ammari"
"M.Saadi"
"E.M.Ketatni"
_chemical_name_systematic
;
2-methoxy-1-nitronaphthalene
;
_cell_volume    972.625
_exptl_crystal_colour 'orange'
_exptl_crystal_density_diffrn 1.388
_exptl_crystal_description 'block'
_exptl_crystal_preparation 'ethyl acetate/hexane'
_diffrn_ambient_temperature 296
#These two values have been output from a single CSD field.
_refine_ls_R_factor_gt 0.0484
_refine_ls_wR_factor_gt 0.0484
_symmetry_cell_setting triclinic
_symmetry_space_group_name_H-M 'P -1'
_symmetry_Int_Tables_number 2
loop_
_symmetry_equiv_pos_site_id
_symmetry_equiv_pos_as_xyz
1 x,y,z
2 -x,-y,-z
_cell_length_a 9.1291(4)
_cell_length_b 10.2456(4)
_cell_length_c 10.5215(4)
_cell_angle_alpha 86.390(2)
_cell_angle_beta 82.964(2)
_cell_angle_gamma 85.801(2)
_cell_formula_units_Z 4
loop_
_atom_type_symbol
_atom_type_radius_bond
C 0.68
H 0.23
N 0.68
O 0.68
loop_
_atom_site_label
_atom_site_type_symbol
_atom_site_fract_x
_atom_site_fract_y
_atom_site_fract_z
C1 C 0.82138(17) 0.83303(15) 0.59386(15)
C2 C 0.76837(19) 0.92960(16) 0.67524(16)
C3 C 0.8714(2) 0.99956(17) 0.72711(17)
H1 H 0.83890 1.06500 0.78320
C4 C 1.0189(2) 0.97177(17) 0.69542(16)
H2 H 1.08540 1.02010 0.72980
C5 C 1.07461(18) 0.87266(15) 0.61254(15)
C6 C 0.97310(17) 0.79982(14) 0.55904(14)
C7 C 1.02802(19) 0.70018(16) 0.47545(16)
H3 H 0.96250 0.65190 0.43980
C8 C 1.1760(2) 0.67452(19) 0.44694(18)
H4 H 1.21070 0.60850 0.39200
C9 C 1.2771(2) 0.7456(2) 0.49869(19)
H5 H 1.37820 0.72660 0.47810
C10 C 1.2280(2) 0.84240(19) 0.57914(18)
H6 H 1.29610 0.88950 0.61280
C11 C 0.5602(3) 1.0473(2) 0.7849(2)
H7 H 0.45420 1.05180 0.79140
H8 H 0.59510 1.13110 0.75430
H9 H 0.59120 1.02420 0.86780
N1 N 0.71338(16) 0.76148(15) 0.53852(16)
O1 O 0.6734(2) 0.8025(2) 0.43824(19)
O2 O 0.6708(2) 0.66298(17) 0.5941(2)
O3 O 0.61970(14) 0.95078(14) 0.69777(14)
C12 C 0.12086(16) 0.31177(13) 0.90308(14)
C13 C 0.19472(16) 0.40531(14) 0.82703(14)
C14 C 0.11092(19) 0.51331(15) 0.77661(15)
H10 H 0.15810 0.57790 0.72420
C15 C -0.03834(18) 0.52299(15) 0.80456(15)
H11 H -0.09150 0.59590 0.77210
C16 C -0.11572(17) 0.42663(14) 0.88090(14)
C17 C -0.03443(16) 0.31586(14) 0.93202(14)
C18 C -0.11305(19) 0.22006(16) 1.00938(17)
H12 H -0.06180 0.14750 1.04460
C19 C -0.2632(2) 0.23339(18) 1.0326(2)
H13 H -0.31350 0.16900 1.08270
C20 C -0.34344(19) 0.34223(19) 0.9822(2)
H14 H -0.44600 0.34970 0.99900
C21 C -0.27129(18) 0.43676(17) 0.90895(18)
H15 H -0.32510 0.50930 0.87670
C22 C 0.4201(2) 0.47481(19) 0.71352(18)
H16 H 0.52440 0.45160 0.70730
H17 H 0.40100 0.56290 0.74030
H18 H 0.38620 0.46880 0.63140
N2 N 0.20980(15) 0.20198(13) 0.95773(14)
O4 O 0.29054(17) 0.22522(13) 1.03577(15)
O5 O 0.19774(17) 0.09259(12) 0.92409(16)
O6 O 0.34371(12) 0.38730(11) 0.80514(11)
#END
