
#######################################################################
#
#                 Cambridge Crystallographic Data Centre
#                                CCDC
#
#######################################################################
#
# If this CIF has been generated from an entry in the Cambridge
# Structural Database, then it will include bibliographic, chemical,
# crystal, experimental, refinement or atomic coordinate data resulting
# from the CCDC's data processing and validation procedures.
#
#######################################################################

data_CSD_CIF_NUQFIP
_audit_creation_date 2010-06-29
_audit_creation_method CSD-ConQuest-V1
_database_code_CSD NUQFIP
_database_code_depnum_ccdc_archive 'CCDC 778009'
_chemical_formula_sum 'C14 H12 N4 O4'
_chemical_formula_moiety
;
C14 H12 N4 O4
;
_journal_coeditor_code "IUCr BT5244"
_journal_coden_Cambridge 1370
_journal_volume 66
_journal_year 2010
_journal_page_first o1113
_journal_name_full 'Acta Crystallogr.,Sect.E:Struct.Rep.Online '
loop_
_publ_author_name
"Ting Sun"
"Gong-Chun Li"
"Jing Li"
"Feng-Ling Yang"
_chemical_name_systematic
;
1-Benzoyl-4-(2-nitrophenyl)semicarbazide
;
_chemical_name_common
;
2-Benzoyl-N-(2-nitrophenyl)hydrazinecarboxamide
;
_cell_volume    692.801
_exptl_crystal_colour 'colorless'
_exptl_crystal_density_diffrn 1.439
_exptl_crystal_description 'prism'
_exptl_crystal_preparation 'ethanol'
_diffrn_ambient_temperature 113
#These two values have been output from a single CSD field.
_refine_ls_R_factor_gt 0.028
_refine_ls_wR_factor_gt 0.028
_symmetry_cell_setting monoclinic
_symmetry_space_group_name_H-M 'P c'
_symmetry_Int_Tables_number 7
loop_
_symmetry_equiv_pos_site_id
_symmetry_equiv_pos_as_xyz
1 x,y,z
2 x,-y,1/2+z
_cell_length_a 4.655(2)
_cell_length_b 15.020(7)
_cell_length_c 10.005(5)
_cell_angle_alpha 90
_cell_angle_beta 97.954(7)
_cell_angle_gamma 90
_cell_formula_units_Z 2
loop_
_atom_type_symbol
_atom_type_radius_bond
C 0.68
H 0.23
N 0.68
O 0.68
loop_
_atom_site_label
_atom_site_type_symbol
_atom_site_fract_x
_atom_site_fract_y
_atom_site_fract_z
O1 O 0.4760(3) -0.01804(9) 0.99297(16)
O2 O 0.4185(3) 0.12193(9) 1.02923(16)
O3 O 1.1178(3) 0.32395(8) 0.92954(15)
O4 O 0.8286(3) 0.48594(9) 0.76324(14)
N1 N 0.6951(4) 0.24346(11) 0.90518(17)
H1 H 0.539(5) 0.2410(13) 0.936(2)
N2 N 0.6976(4) 0.38858(10) 0.97176(17)
H2 H 0.523(5) 0.3870(12) 0.958(2)
N3 N 0.8310(3) 0.47099(10) 0.98749(17)
H3 H 0.853(5) 0.4899(15) 1.073(2)
N4 N 0.5259(3) 0.0604(1) 0.97133(17)
C1 C 0.7987(3) 0.16832(12) 0.8453(2)
C2 C 0.7208(4) 0.08059(13) 0.8735(2)
C3 C 0.8283(4) 0.00766(13) 0.8095(2)
H4 H 0.77300 -0.05090 0.83100
C4 C 1.0138(4) 0.02023(13) 0.7156(2)
H5 H 1.09070 -0.02930 0.67340
C5 C 1.0872(4) 0.10670(13) 0.6832(2)
H6 H 1.21080 0.11600 0.61650
C6 C 0.9833(4) 0.17889(12) 0.7465(2)
H7 H 1.03770 0.23720 0.72290
C7 C 0.8559(4) 0.31947(12) 0.93330(19)
C8 C 0.9025(4) 0.51379(12) 0.8784(2)
C9 C 1.0848(4) 0.59575(12) 0.9075(2)
C10 C 1.2623(4) 0.60775(13) 1.0298(2)
H8 H 1.26380 0.56480 1.09960
C11 C 1.4379(4) 0.68291(13) 1.0494(2)
H9 H 1.55980 0.69100 1.13280
C12 C 1.4367(5) 0.74538(13) 0.9493(3)
H10 H 1.55760 0.79640 0.96360
C13 C 1.2588(5) 0.73400(15) 0.8273(3)
H11 H 1.25600 0.77760 0.75830
C14 C 1.0851(5) 0.65894(14) 0.8064(2)
H12 H 0.96560 0.65070 0.72240
#END
