
#######################################################################
#
#                 Cambridge Crystallographic Data Centre
#                                CCDC
#
#######################################################################
#
# If this CIF has been generated from an entry in the Cambridge
# Structural Database, then it will include bibliographic, chemical,
# crystal, experimental, refinement or atomic coordinate data resulting
# from the CCDC's data processing and validation procedures.
#
#######################################################################

data_CSD_CIF_NUQJEP
_audit_creation_date 2010-06-29
_audit_creation_method CSD-ConQuest-V1
_database_code_CSD NUQJEP
_database_code_depnum_ccdc_archive 'CCDC 778023'
_chemical_formula_sum 'C7 H6 N2 O3'
_chemical_formula_moiety
;
C7 H6 N2 O3
;
_journal_coeditor_code "IUCr HG2672"
_journal_coden_Cambridge 1370
_journal_volume 66
_journal_year 2010
_journal_page_first o1130
_journal_name_full 'Acta Crystallogr.,Sect.E:Struct.Rep.Online '
loop_
_publ_author_name
"A.Abbas"
"S.Hussain"
"N.Hafeez"
"A.Badshah"
"A.Hasan"
"K.M.Lo"
_chemical_name_systematic
;
(E)-4-Nitrobenzaldehyde oxime
;
_chemical_name_common
;
N-Hydroxy-1-(3-nitrophenyl)methanimine
;
_cell_volume    760.964
_exptl_crystal_colour 'colorless'
_exptl_crystal_density_diffrn 1.45
_exptl_crystal_description 'block'
_exptl_crystal_preparation 'ethanol'
_diffrn_ambient_temperature 296
#These two values have been output from a single CSD field.
_refine_ls_R_factor_gt 0.0663
_refine_ls_wR_factor_gt 0.0663
_symmetry_cell_setting monoclinic
_symmetry_space_group_name_H-M 'P 21/n'
_symmetry_Int_Tables_number 14
loop_
_symmetry_equiv_pos_site_id
_symmetry_equiv_pos_as_xyz
1 x,y,z
2 1/2-x,1/2+y,1/2-z
3 -x,-y,-z
4 -1/2+x,-1/2-y,-1/2+z
_cell_length_a 3.7737(2)
_cell_length_b 7.0363(3)
_cell_length_c 28.6651(14)
_cell_angle_alpha 90
_cell_angle_beta 91.237(3)
_cell_angle_gamma 90
_cell_formula_units_Z 4
loop_
_atom_type_symbol
_atom_type_radius_bond
C 0.68
H 0.23
N 0.68
O 0.68
loop_
_atom_site_label
_atom_site_type_symbol
_atom_site_fract_x
_atom_site_fract_y
_atom_site_fract_z
O1 O 0.9103(8) 0.7939(3) -0.02398(6)
H1 H 0.96730 0.89500 -0.03590
O2 O 0.2494(7) 0.1865(3) 0.14956(8)
N1 N 0.3651(6) 0.3009(3) 0.17705(8)
N2 N 0.8746(6) 0.8191(3) 0.02418(7)
C1 C 0.5229(6) 0.4774(3) 0.15885(8)
C2 C 0.5707(6) 0.4913(3) 0.11163(8)
H2 H 0.50920 0.39120 0.09190
C3 C 0.7126(6) 0.6576(3) 0.09400(8)
C4 C 0.7669(7) 0.6696(3) 0.04381(9)
H3 H 0.72050 0.56290 0.02550
C5 C 0.6116(7) 0.6200(3) 0.18954(8)
H4 H 0.57880 0.60590 0.22140
C6 C 0.7516(7) 0.7856(3) 0.17149(9)
H5 H 0.81350 0.88500 0.19140
C7 C 0.7997(6) 0.8040(3) 0.12444(8)
H6 H 0.89220 0.91650 0.11280
O3 O 0.3545(8) 0.2798(4) 0.21888(8)
#END
