
#######################################################################
#
#                 Cambridge Crystallographic Data Centre
#                                CCDC
#
#######################################################################
#
# If this CIF has been generated from an entry in the Cambridge
# Structural Database, then it will include bibliographic, chemical,
# crystal, experimental, refinement or atomic coordinate data resulting
# from the CCDC's data processing and validation procedures.
#
#######################################################################

data_CSD_CIF_NUQNUK
_audit_creation_date 2015-09-26
_audit_creation_method CSD-ConQuest-V1
_database_code_CSD NUQNUK
_database_code_depnum_ccdc_archive 'CCDC 1426448'
_chemical_formula_sum 'C11 H12 N4 O2'
_chemical_formula_moiety
;
C11 H12 N4 O2
;
_journal_coeditor_code "hb7511"
_journal_coden_Cambridge 1828
_journal_volume 71
_journal_year 2015
_journal_page_first o798
_journal_name_full 'Acta Crystallogr.,Sect.E:Cryst.Commun. '
loop_
_publ_author_name
"I.S.Khazhieva"
"T.V.Glukhareva"
"P.A.Slepukhin"
"Y.Y.Morzherin"
_chemical_name_systematic
;
1-methoxy-5-methyl-N-phenyl-1H-1,2,3-triazole-4-carboxamide
;
_chemical_melting_point 310
_cell_volume   1148.029
_exptl_crystal_colour 'colorless'
_exptl_crystal_density_diffrn 1.344
_exptl_crystal_description 'prism'
_diffrn_ambient_temperature 295
#These two values have been output from a single CSD field.
_refine_ls_R_factor_gt 0.0547
_refine_ls_wR_factor_gt 0.0547
_symmetry_cell_setting monoclinic
_symmetry_space_group_name_H-M 'P 21/c'
_symmetry_Int_Tables_number 14
loop_
_symmetry_equiv_pos_site_id
_symmetry_equiv_pos_as_xyz
1 x,y,z
2 -x,1/2+y,1/2-z
3 -x,-y,-z
4 x,-1/2-y,-1/2+z
_cell_length_a 11.4637(8)
_cell_length_b 6.4345(13)
_cell_length_c 15.822(3)
_cell_angle_alpha 90
_cell_angle_beta 100.367(12)
_cell_angle_gamma 90
_cell_formula_units_Z 4
loop_
_atom_type_symbol
_atom_type_radius_bond
C 0.68
H 0.23
N 0.68
O 0.68
loop_
_atom_site_label
_atom_site_type_symbol
_atom_site_fract_x
_atom_site_fract_y
_atom_site_fract_z
O1 O 0.61315(16) 0.0563(3) 0.15704(14)
C1 C 0.7887(2) 0.1712(4) 0.24262(18)
C2 C 0.7399(2) -0.2566(4) 0.08075(18)
C3 C 0.7204(2) 0.0365(4) 0.17728(19)
N1 N 0.90562(18) 0.1400(4) 0.27423(17)
N2 N 0.8463(2) 0.3915(4) 0.33811(19)
C4 C 0.7489(2) 0.3375(4) 0.28291(19)
N3 N 0.7844(2) -0.1083(4) 0.14353(16)
N4 N 0.9416(2) 0.2771(4) 0.3343(2)
O2 O 0.8515(2) 0.5302(4) 0.40535(18)
C5 C 0.7975(2) -0.4450(5) 0.0824(2)
H1 H 0.86340 -0.47210 0.12460
C6 C 0.6434(3) -0.2172(5) 0.0169(2)
H2 H 0.60490 -0.08960 0.01480
C7 C 0.6605(3) -0.5520(6) -0.0411(2)
H3 H 0.63310 -0.65240 -0.08210
C8 C 0.7571(3) -0.5924(5) 0.0214(2)
H4 H 0.79550 -0.72000 0.02250
C9 C 0.6048(3) -0.3651(6) -0.0430(2)
H5 H 0.53950 -0.33810 -0.08570
C10 C 0.9070(4) 0.7045(6) 0.3901(3)
H6 H 0.89700 0.80730 0.43210
H7 H 0.87410 0.75510 0.33370
H8 H 0.99000 0.67650 0.39330
C11 C 0.6343(3) 0.4512(5) 0.2740(2)
H9 H 0.62980 0.52140 0.32680
H10 H 0.56990 0.35430 0.26090
H11 H 0.62920 0.55110 0.22840
H12 H 0.858(2) -0.109(4) 0.1666(17)
#END
