
#######################################################################
#
#                 Cambridge Crystallographic Data Centre
#                                CCDC
#
#######################################################################
#
# If this CIF has been generated from an entry in the Cambridge
# Structural Database, then it will include bibliographic, chemical,
# crystal, experimental, refinement or atomic coordinate data resulting
# from the CCDC's data processing and validation procedures.
#
#######################################################################

data_CSD_CIF_NUQRUN
_audit_creation_date 2010-07-16
_audit_creation_method CSD-ConQuest-V1
_database_code_CSD NUQRUN
_database_code_depnum_ccdc_archive 'CCDC 778061'
_chemical_formula_sum 'C18 H13 N3 O4'
_chemical_formula_moiety
;
C18 H13 N3 O4
;
_journal_coeditor_code "IUCr SU2174"
_journal_coden_Cambridge 1370
_journal_volume 66
_journal_year 2010
_journal_page_first o1177
_journal_name_full 'Acta Crystallogr.,Sect.E:Struct.Rep.Online '
loop_
_publ_author_name
"Yu-Mei Hao"
_chemical_name_systematic
;
N'-[(2-Hydroxy-1-naphthyl)methylidene]-2-nitrobenzohydrazide
;
_cell_volume   1552.962
_exptl_crystal_colour 'colorless'
_exptl_crystal_density_diffrn 1.434
_exptl_crystal_description 'block'
_diffrn_ambient_temperature 298
#These two values have been output from a single CSD field.
_refine_ls_R_factor_gt 0.0436
_refine_ls_wR_factor_gt 0.0436
_symmetry_cell_setting monoclinic
_symmetry_space_group_name_H-M 'P 21/n'
_symmetry_Int_Tables_number 14
loop_
_symmetry_equiv_pos_site_id
_symmetry_equiv_pos_as_xyz
1 x,y,z
2 1/2-x,1/2+y,1/2-z
3 -x,-y,-z
4 -1/2+x,-1/2-y,-1/2+z
_cell_length_a 7.4473(6)
_cell_length_b 29.068(2)
_cell_length_c 7.8504(6)
_cell_angle_alpha 90
_cell_angle_beta 113.963(4)
_cell_angle_gamma 90
_cell_formula_units_Z 4
loop_
_atom_type_symbol
_atom_type_radius_bond
C 0.68
H 0.23
N 0.68
O 0.68
loop_
_atom_site_label
_atom_site_type_symbol
_atom_site_fract_x
_atom_site_fract_y
_atom_site_fract_z
N1 N 0.9372(2) 0.21679(5) 0.1587(2)
N2 N 0.8992(2) 0.24623(5) 0.0095(2)
N3 N 0.8947(3) 0.38594(6) 0.0264(2)
O1 O 0.9712(2) 0.20162(5) 0.49534(18)
H1 H 0.97520 0.21670 0.40870
O2 O 1.1317(2) 0.29693(4) 0.18479(17)
O3 O 0.8562(2) 0.36371(5) 0.1378(2)
O4 O 0.9318(3) 0.42719(5) 0.0425(2)
C1 C 0.8835(3) 0.14285(6) 0.2610(3)
C2 C 0.9240(3) 0.15757(6) 0.4402(3)
C3 C 0.9145(3) 0.12727(7) 0.5760(3)
H2 H 0.93850 0.13800 0.69490
C4 C 0.8703(3) 0.08250(8) 0.5329(3)
H3 H 0.86430 0.06280 0.62360
C5 C 0.8329(3) 0.06477(7) 0.3541(3)
C6 C 0.7861(4) 0.01817(8) 0.3104(4)
H4 H 0.78020 -0.00160 0.40120
C7 C 0.7492(5) 0.00153(8) 0.1374(4)
H5 H 0.71820 -0.02940 0.11010
C8 C 0.7582(4) 0.03098(8) 0.0022(4)
H6 H 0.73430 0.01950 -0.11560
C9 C 0.8014(4) 0.07638(7) 0.0383(3)
H7 H 0.80570 0.09540 -0.05530
C10 C 0.8398(3) 0.09508(6) 0.2155(3)
C11 C 0.8723(3) 0.17566(6) 0.1180(3)
H8 H 0.81670 0.16660 -0.00630
C12 C 0.9971(3) 0.28614(6) 0.0366(2)
C13 C 0.9339(3) 0.31554(6) -0.1353(2)
C14 C 0.8952(3) 0.36234(6) -0.1387(2)
C15 C 0.8493(3) 0.38854(7) -0.2967(3)
H9 H 0.82600 0.41990 -0.29470
C16 C 0.8383(3) 0.36763(7) -0.4579(3)
H10 H 0.80610 0.38490 -0.56600
C17 C 0.8747(3) 0.32149(7) -0.4602(3)
H11 H 0.86710 0.30760 -0.56960
C18 C 0.9226(3) 0.29568(6) -0.3002(2)
H12 H 0.94780 0.26440 -0.30290
H13 H 0.808(3) 0.2378(7) -0.1025(18)
#END
