
#######################################################################
#
#                 Cambridge Crystallographic Data Centre
#                                CCDC
#
#######################################################################
#
# If this CIF has been generated from an entry in the Cambridge
# Structural Database, then it will include bibliographic, chemical,
# crystal, experimental, refinement or atomic coordinate data resulting
# from the CCDC's data processing and validation procedures.
#
#######################################################################

data_CSD_CIF_NUQZIJ01
_audit_creation_date 2015-02-21
_audit_creation_method CSD-ConQuest-V1
_database_code_CSD NUQZIJ01
_database_code_depnum_ccdc_archive 'CCDC 928054'
_chemical_formula_sum 'C17 H13 N3 O3'
_chemical_formula_moiety
;
C17 H13 N3 O3
;
_journal_coden_Cambridge 155
_journal_volume 429
_journal_year 2015
_journal_page_first 39
_journal_name_full 'Inorg.Chim.Acta '
loop_
_publ_author_name
"S.Ghosh"
"Md A.Alam"
"Aniruddha Ganguly"
"S.Dalapati"
"N.Guchhait"
_chemical_name_systematic
;
1-(((2-Amino-5-nitrophenyl)iminio)methyl)naphthalen-2-olate
;
_cell_volume   1367.900
_exptl_crystal_density_diffrn 1.492
_diffrn_ambient_temperature 293
#These two values have been output from a single CSD field.
_refine_ls_R_factor_gt 0.1203
_refine_ls_wR_factor_gt 0.1203
_symmetry_cell_setting monoclinic
_symmetry_space_group_name_H-M 'P 21/n'
_symmetry_Int_Tables_number 14
loop_
_symmetry_equiv_pos_site_id
_symmetry_equiv_pos_as_xyz
1 x,y,z
2 1/2-x,1/2+y,1/2-z
3 -x,-y,-z
4 -1/2+x,-1/2-y,-1/2+z
_cell_length_a 10.414(6)
_cell_length_b 4.677(3)
_cell_length_c 28.400(15)
_cell_angle_alpha 90
_cell_angle_beta 98.546(7)
_cell_angle_gamma 90
_cell_formula_units_Z 4
loop_
_atom_type_symbol
_atom_type_radius_bond
C 0.68
H 0.23
N 0.68
O 0.68
loop_
_atom_site_label
_atom_site_type_symbol
_atom_site_fract_x
_atom_site_fract_y
_atom_site_fract_z
N1 N 0.5303(4) 1.1328(9) 0.10142(15)
O1 O 0.3543(4) 1.0679(9) 0.03152(13)
N2 N 0.8761(5) 1.4639(13) 0.22469(18)
C1 C 0.6831(5) 1.4818(12) 0.08356(18)
C2 C 0.4715(5) 0.9452(12) 0.12406(18)
C3 C 0.7870(6) 1.6661(12) 0.0986(2)
H1 H 0.81510 1.79260 0.07700
C4 C 0.8074(5) 1.4767(13) 0.17614(19)
C5 C 0.1725(5) 0.4807(12) 0.10791(18)
C6 C 0.6400(5) 1.2990(11) 0.11741(18)
C7 C 0.8480(6) 1.6621(13) 0.1450(2)
H2 H 0.91670 1.78600 0.15490
O2 O 0.9575(5) 1.6454(12) 0.23700(17)
C8 C 0.3578(5) 0.8075(11) 0.10419(17)
C9 C 0.2919(5) 0.5999(11) 0.13000(18)
O3 O 0.8490(5) 1.2759(11) 0.25142(15)
C10 C 0.2989(6) 0.8869(12) 0.05666(18)
N3 N 0.6215(5) 1.4894(13) 0.03812(18)
C11 C 0.1578(6) 0.1944(13) 0.1776(2)
H3 H 0.11330 0.06320 0.19370
C12 C 0.1199(5) 0.5702(14) 0.0612(2)
H4 H 0.04160 0.49180 0.04690
C13 C 0.7032(5) 1.2923(12) 0.16364(19)
H5 H 0.67680 1.16780 0.18590
C14 C 0.3409(5) 0.5054(12) 0.17626(19)
H6 H 0.41930 0.57740 0.19160
C15 C 0.2747(6) 0.3096(13) 0.1989(2)
H7 H 0.30900 0.25180 0.22950
C16 C 0.1095(6) 0.2784(13) 0.1322(2)
H8 H 0.03240 0.19800 0.11720
C17 C 0.1787(6) 0.7626(14) 0.0371(2)
H9 H 0.14000 0.81640 0.00670
H10 H 0.508(4) 0.907(9) 0.1569(18)
H11 H 0.649(6) 1.603(12) 0.0180(18)
H12 H 0.602(10) 1.320(9) 0.029(3)
H13 H 0.483(9) 1.14(2) 0.0740(18)
#END
