
#######################################################################
#
#                 Cambridge Crystallographic Data Centre
#                                CCDC
#
#######################################################################
#
# If this CIF has been generated from an entry in the Cambridge
# Structural Database, then it will include bibliographic, chemical,
# crystal, experimental, refinement or atomic coordinate data resulting
# from the CCDC's data processing and validation procedures.
#
#######################################################################

data_CSD_CIF_NUQZIJ02
_audit_creation_date 2016-10-26
_audit_creation_method CSD-ConQuest-V1
_database_code_CSD NUQZIJ02
_database_code_depnum_ccdc_archive 'CCDC 871966'
_chemical_formula_sum 'C17 H13 N3 O3'
_chemical_formula_moiety
;
C17 H13 N3 O3
;
_journal_coden_Cambridge 1078
_journal_year 2016
_journal_name_full 'CSD Communication(Private Communication) '
loop_
_publ_author_name
"J.B.Baruah"
_chemical_name_systematic
;
1-((2-amino-5-nitrophenyl)carbonoimidoyl)-2-naphthol
;
_cell_volume   1375.755
_exptl_crystal_colour 'red'
_exptl_crystal_density_diffrn 1.484
_exptl_crystal_description 'block'
_diffrn_ambient_temperature 296
#These two values have been output from a single CSD field.
_refine_ls_R_factor_gt 0.1298
_refine_ls_wR_factor_gt 0.1298
_symmetry_cell_setting monoclinic
_symmetry_space_group_name_H-M 'P 21/n'
_symmetry_Int_Tables_number 14
loop_
_symmetry_equiv_pos_site_id
_symmetry_equiv_pos_as_xyz
1 x,y,z
2 1/2-x,1/2+y,1/2-z
3 -x,-y,-z
4 -1/2+x,-1/2-y,-1/2+z
_cell_length_a 10.4260(11)
_cell_length_b 4.6878(4)
_cell_length_c 28.455(3)
_cell_angle_alpha 90
_cell_angle_beta 98.418(7)
_cell_angle_gamma 90
_cell_formula_units_Z 4
loop_
_atom_type_symbol
_atom_type_radius_bond
C 0.68
H 0.23
N 0.68
O 0.68
loop_
_atom_site_label
_atom_site_type_symbol
_atom_site_fract_x
_atom_site_fract_y
_atom_site_fract_z
C1 C 0.6398(7) 1.2968(16) 0.1174(3)
C2 C 0.4712(7) 0.9421(16) 0.1241(3)
H1 H 0.50710 0.89660 0.15510
C3 C 0.3565(7) 0.8047(17) 0.1041(2)
C4 C 0.1724(7) 0.4790(17) 0.1080(3)
C5 C 0.2905(7) 0.5972(16) 0.1300(3)
C6 C 0.2987(8) 0.8855(17) 0.0565(3)
C7 C 0.2741(8) 0.3067(18) 0.1990(3)
H2 H 0.30840 0.24890 0.22960
C8 C 0.8072(7) 1.4741(17) 0.1764(3)
C9 C 0.6835(7) 1.4821(17) 0.0833(3)
C10 C 0.3395(8) 0.5042(17) 0.1761(3)
H3 H 0.41760 0.57780 0.19120
C11 C 0.7878(8) 1.6652(18) 0.0985(3)
H4 H 0.81670 1.79090 0.07700
C12 C 0.1196(8) 0.567(2) 0.0615(3)
H5 H 0.04150 0.48840 0.04740
C13 C 0.1088(8) 0.2752(19) 0.1326(3)
H6 H 0.03150 0.19590 0.11790
C14 C 0.7030(8) 1.2909(17) 0.1638(3)
H7 H 0.67620 1.16710 0.18600
C15 C 0.1786(8) 0.762(2) 0.0371(3)
H8 H 0.13970 0.81680 0.00690
C16 C 0.1571(9) 0.1913(19) 0.1774(3)
H9 H 0.11280 0.05900 0.19340
C17 C 0.8479(8) 1.6602(18) 0.1449(3)
H10 H 0.91620 1.78400 0.15480
N1 N 0.5295(6) 1.1308(14) 0.1011(2)
N2 N 0.8752(7) 1.4636(18) 0.2249(2)
N3 N 0.6232(7) 1.4875(17) 0.0377(2)
H11 H 0.64880 1.60420 0.01770
H12 H 0.55930 1.37430 0.02880
O1 O 0.3542(6) 1.0668(14) 0.03199(19)
H13 H 0.36140 0.99740 0.00600
O2 O 0.8490(7) 1.2731(16) 0.2514(2)
O3 O 0.9575(7) 1.6435(19) 0.2376(2)
#END
