
#######################################################################
#
#                 Cambridge Crystallographic Data Centre
#                                CCDC
#
#######################################################################
#
# If this CIF has been generated from an entry in the Cambridge
# Structural Database, then it will include bibliographic, chemical,
# crystal, experimental, refinement or atomic coordinate data resulting
# from the CCDC's data processing and validation procedures.
#
#######################################################################

data_CSD_CIF_NUQZIJ
_audit_creation_date 2010-06-28
_audit_creation_method CSD-ConQuest-V1
_database_code_CSD NUQZIJ
_database_code_depnum_ccdc_archive 'CCDC 778094'
_chemical_formula_sum 'C17 H13 N3 O3'
_chemical_formula_moiety
;
C17 H13 N3 O3
;
_journal_coeditor_code "IUCr SJ2769"
_journal_coden_Cambridge 1370
_journal_volume 66
_journal_year 2010
_journal_page_first o1227
_journal_name_full 'Acta Crystallogr.,Sect.E:Struct.Rep.Online '
loop_
_publ_author_name
"A.M.Farag"
"S.G.Teoh"
"H.Osman"
"S.Chantrapromma"
"H.-K.Fun"
_chemical_name_systematic
;
(E)-1-[(2-Amino-5-nitrophenyl)iminiomethyl]naphthalen-2-olate
;
_cell_volume   1336.074
_exptl_crystal_colour 'red'
_exptl_crystal_density_diffrn 1.528
_exptl_crystal_description 'plate'
_diffrn_ambient_temperature 100
#These two values have been output from a single CSD field.
_refine_ls_R_factor_gt 0.0565
_refine_ls_wR_factor_gt 0.0565
_symmetry_cell_setting monoclinic
_symmetry_space_group_name_H-M 'P 21/c'
_symmetry_Int_Tables_number 14
loop_
_symmetry_equiv_pos_site_id
_symmetry_equiv_pos_as_xyz
1 x,y,z
2 -x,1/2+y,1/2-z
3 -x,-y,-z
4 x,-1/2-y,-1/2+z
_cell_length_a 10.369(4)
_cell_length_b 4.6442(18)
_cell_length_c 28.539(9)
_cell_angle_alpha 90
_cell_angle_beta 103.548(12)
_cell_angle_gamma 90
_cell_formula_units_Z 4
loop_
_atom_type_symbol
_atom_type_radius_bond
C 0.68
H 0.23
N 0.68
O 0.68
loop_
_atom_site_label
_atom_site_type_symbol
_atom_site_fract_x
_atom_site_fract_y
_atom_site_fract_z
O1 O 0.82332(14) -0.0589(3) 0.96873(5)
O2 O 1.22099(15) -0.6304(4) 0.76236(5)
O3 O 1.09865(15) -0.2495(4) 0.74798(5)
N1 N 0.92876(16) -0.1176(4) 0.89879(5)
H1 H 0.911(3) -0.151(6) 0.9315(10)
N2 N 1.08296(18) -0.4892(5) 0.96268(6)
H2 H 1.068(2) -0.318(6) 0.9746(9)
H3 H 1.134(2) -0.630(6) 0.9828(9)
N3 N 1.15214(17) -0.4461(4) 0.77485(6)
C1 C 1.02284(18) -0.2851(5) 0.88271(6)
C2 C 1.09971(19) -0.4753(5) 0.91675(6)
C3 C 1.1889(2) -0.6596(5) 0.90188(7)
H4 H 1.23830 -0.78890 0.92380
C4 C 1.2048(2) -0.6533(5) 0.85552(7)
H5 H 1.26360 -0.77830 0.84580
C5 C 1.13185(19) -0.4580(5) 0.82357(6)
C6 C 1.04003(19) -0.2757(5) 0.83600(6)
H6 H 0.99070 -0.14920 0.81350
C7 C 0.84656(19) 0.0765(5) 0.87499(6)
H7 H 0.85140 0.12690 0.84390
C8 C 0.75161(19) 0.2092(5) 0.89575(6)
C9 C 0.7424(2) 0.1231(5) 0.94325(6)
C10 C 0.6390(2) 0.2452(5) 0.96265(6)
H8 H 0.63000 0.18720 0.99290
C11 C 0.5547(2) 0.4420(5) 0.93792(7)
H9 H 0.48940 0.51730 0.95180
C12 C 0.56177(19) 0.5396(5) 0.89118(6)
C13 C 0.4720(2) 0.7454(5) 0.86662(7)
H10 H 0.40880 0.82220 0.88140
C14 C 0.4757(2) 0.8357(5) 0.82110(7)
H11 H 0.41480 0.97010 0.80490
C15 C 0.5722(2) 0.7223(5) 0.79976(6)
H12 H 0.57580 0.78340 0.76910
C16 C 0.66212(19) 0.5223(5) 0.82295(6)
H13 H 0.72580 0.45150 0.80780
C17 C 0.65970(19) 0.4222(5) 0.86945(6)
#END
