
#######################################################################
#
#                 Cambridge Crystallographic Data Centre
#                                CCDC
#
#######################################################################
#
# If this CIF has been generated from an entry in the Cambridge
# Structural Database, then it will include bibliographic, chemical,
# crystal, experimental, refinement or atomic coordinate data resulting
# from the CCDC's data processing and validation procedures.
#
#######################################################################

data_CSD_CIF_NURWAY
_audit_creation_date 1998-09-24
_audit_creation_method CSD-ConQuest-V1
_database_code_CSD NURWAY
_database_code_depnum_ccdc_archive 'CCDC 1224672; CCDC 402796'
_database_code_depnum_ccdc_fiz 'CSD 402796'
_chemical_formula_sum 'C13 H17 N1 O6'
_chemical_formula_moiety
;
C13 H17 N1 O6
;
_journal_coden_Cambridge 1267
_journal_volume 213
_journal_year 1998
_journal_page_first 67
_journal_name_full 'Z.Kristallogr.-New Cryst.Struct. '
loop_
_publ_author_name
"S.Henkel"
"T.Leibold"
"V.Jager"
_chemical_name_systematic
;
(3aR,6aR)-3-((1R,2S,3S)-1,3:2,4-Di-O-ethylidene-1,2,3,4-tetrahydroxy-1-butyl)-
3a,6a-dihydrofuro(2,3-d)isoxazole
;
_cell_volume   1422.969
_exptl_crystal_colour 'colorless'
_exptl_crystal_density_diffrn 1.322
_exptl_special_details
;
The isomer is given as (3aS,6aS) in the deposited data

;
_exptl_crystal_description 'needles'
_exptl_crystal_preparation 'petroleum ether/ethyl acetate'
_diffrn_ambient_temperature ?
_diffrn_special_details
;
The study was carried out at room temperature,in the range 283-303K

;
#These two values have been output from a single CSD field.
_refine_ls_R_factor_gt 0.067
_refine_ls_wR_factor_gt 0.067
loop_
_citation_database_id_CSD
_citation_special_details
NURWEC "is a stereoisomer of this entry"
_symmetry_cell_setting orthorhombic
_symmetry_space_group_name_H-M 'P 21 21 21'
_symmetry_Int_Tables_number 19
loop_
_symmetry_equiv_pos_site_id
_symmetry_equiv_pos_as_xyz
1 x,y,z
2 1/2-x,-y,1/2+z
3 -x,1/2+y,1/2-z
4 1/2+x,1/2-y,-z
_cell_length_a 8.118(2)
_cell_length_b 9.268(2)
_cell_length_c 18.913(4)
_cell_angle_alpha 90
_cell_angle_beta 90
_cell_angle_gamma 90
_cell_formula_units_Z 4
loop_
_atom_type_symbol
_atom_type_radius_bond
C 0.68
H 0.23
N 0.68
O 0.68
loop_
_atom_site_label
_atom_site_type_symbol
_atom_site_fract_x
_atom_site_fract_y
_atom_site_fract_z
C1 C 0.3475(6) 0.6836(4) 0.1904(2)
H1 H 0.2855(6) 0.7579(4) 0.2159(2)
O1 O 0.2886(4) 0.5446(3) 0.21036(15)
C2 C 0.1194(6) 0.5274(6) 0.1908(2)
H2 H 0.0538(6) 0.6057(6) 0.2113(2)
C3 C 0.0600(7) 0.3872(6) 0.2179(3)
H3 H 0.0698(7) 0.3855(6) 0.2685(3)
H4 H 0.1250(7) 0.3108(6) 0.1980(3)
H5 H -0.0533(7) 0.3742(6) 0.2049(3)
O2 O 0.1053(4) 0.5301(4) 0.1167(2)
C4 C 0.1527(7) 0.6654(6) 0.0892(2)
H6 H 0.0769(7) 0.7387(6) 0.1059(2)
H7 H 0.1457(7) 0.6626(6) 0.0380(2)
C5 C 0.3259(7) 0.7059(5) 0.1106(2)
H8 H 0.3468(7) 0.8071(5) 0.0987(2)
O3 O 0.4375(4) 0.6153(4) 0.07253(15)
C6 C 0.6012(6) 0.6389(6) 0.0925(2)
H9 H 0.6303(6) 0.7401(6) 0.0842(2)
C7 C 0.7099(7) 0.5435(6) 0.0491(3)
H10 H 0.8227(7) 0.5588(6) 0.0623(3)
H11 H 0.6958(7) 0.5660(6) -0.0001(3)
H12 H 0.6809(7) 0.4444(6) 0.0572(3)
O4 O 0.6261(4) 0.6046(3) 0.16500(14)
C8 C 0.5287(6) 0.6954(4) 0.2090(2)
H13 H 0.5629(6) 0.7953(4) 0.2003(2)
C9 C 0.5627(6) 0.6619(4) 0.2853(2)
C10 C 0.4858(7) 0.7485(5) 0.3436(2)
H14 H 0.5055(7) 0.8522(5) 0.3380(2)
O5 O 0.3130(5) 0.7153(4) 0.3517(2)
C11 C 0.3035(11) 0.6422(7) 0.4146(3)
H15 H 0.2047(11) 0.6045(7) 0.4312(3)
C12 C 0.4397(11) 0.6285(7) 0.4496(3)
H16 H 0.4496(11) 0.5882(7) 0.4944(3)
C13 C 0.5749(8) 0.6864(6) 0.4076(2)
H17 H 0.6371(8) 0.7603(6) 0.4333(2)
O6 O 0.6826(6) 0.5729(4) 0.3792(2)
N1 N 0.6653(6) 0.5670(4) 0.3045(2)
#END
