
#######################################################################
#
#                 Cambridge Crystallographic Data Centre
#                                CCDC
#
#######################################################################
#
# If this CIF has been generated from an entry in the Cambridge
# Structural Database, then it will include bibliographic, chemical,
# crystal, experimental, refinement or atomic coordinate data resulting
# from the CCDC's data processing and validation procedures.
#
#######################################################################

data_CSD_CIF_NURWEC
_audit_creation_date 1998-09-24
_audit_creation_method CSD-ConQuest-V1
_database_code_CSD NURWEC
_database_code_depnum_ccdc_archive 'CCDC 1224673; CCDC 402797'
_database_code_depnum_ccdc_fiz 'CSD 402797'
_chemical_formula_sum 'C13 H17 N1 O6'
_chemical_formula_moiety
;
C13 H17 N1 O6
;
_journal_coden_Cambridge 1267
_journal_volume 213
_journal_year 1998
_journal_page_first 69
_journal_name_full 'Z.Kristallogr.-New Cryst.Struct. '
loop_
_publ_author_name
"S.Henkel"
"T.Leibold"
"V.Jager"
_chemical_name_systematic
;
(3aS,6aS)-3-((1R,2S,3S)-1,3:2,4-Di-O-ethylidene-1,2,3,4-tetrahydroxy-1-butyl)-
3a,6a-dihydrofuro(2,3-d)isoxazole
;
_cell_volume   1354.072
_exptl_crystal_colour 'colorless'
_exptl_crystal_density_diffrn 1.39
_exptl_special_details
;
The isomer is given as (3aR,6aR) in the deposited data

;
_exptl_crystal_description 'block'
_exptl_crystal_preparation 'petroleum ether/ethyl acetate'
_diffrn_ambient_temperature ?
_diffrn_special_details
;
The study was carried out at room temperature,in the range 283-303K

;
#These two values have been output from a single CSD field.
_refine_ls_R_factor_gt 0.0457
_refine_ls_wR_factor_gt 0.0457
loop_
_citation_database_id_CSD
_citation_special_details
NURWAY "is a stereoisomer of this entry"
_symmetry_cell_setting orthorhombic
_symmetry_space_group_name_H-M 'P 21 21 21'
_symmetry_Int_Tables_number 19
loop_
_symmetry_equiv_pos_site_id
_symmetry_equiv_pos_as_xyz
1 x,y,z
2 1/2-x,-y,1/2+z
3 -x,1/2+y,1/2-z
4 1/2+x,1/2-y,-z
_cell_length_a 6.541(1)
_cell_length_b 8.938(2)
_cell_length_c 23.161(4)
_cell_angle_alpha 90
_cell_angle_beta 90
_cell_angle_gamma 90
_cell_formula_units_Z 4
loop_
_atom_type_symbol
_atom_type_radius_bond
C 0.68
H 0.23
N 0.68
O 0.68
loop_
_atom_site_label
_atom_site_type_symbol
_atom_site_fract_x
_atom_site_fract_y
_atom_site_fract_z
C1 C -0.0283(3) 0.9086(2) 0.85465(8)
H1 H -0.1310(3) 0.9820(2) 0.86685(8)
O1 O 0.0341(2) 0.8241(2) 0.90368(6)
C2 C -0.1359(3) 0.7415(3) 0.92545(10)
H2 H -0.2503(3) 0.8097(3) 0.93276(10)
C3 C -0.0732(5) 0.6666(4) 0.98121(12)
H3 H -0.0322(5) 0.7413(4) 1.00864(12)
H4 H 0.0390(5) 0.6000(4) 0.97399(12)
H5 H -0.1866(5) 0.6110(4) 0.99642(12)
O2 O -0.1957(3) 0.6319(2) 0.88547(8)
C4 C -0.2737(3) 0.7009(3) 0.83440(11)
H6 H -0.3983(3) 0.7546(3) 0.84374(11)
H7 H -0.3076(3) 0.6241(3) 0.80641(11)
C5 C -0.1220(3) 0.8080(2) 0.80806(9)
H8 H -0.1930(3) 0.8709(2) 0.77980(9)
O3 O 0.0341(3) 0.7242(2) 0.77893(7)
C6 C 0.1827(4) 0.8210(3) 0.75503(9)
H9 H 0.1165(4) 0.8948(3) 0.72995(9)
C7 C 0.3329(5) 0.7304(4) 0.72086(12)
H10 H 0.4342(5) 0.7955(4) 0.70450(12)
H11 H 0.2625(5) 0.6786(4) 0.69046(12)
H12 H 0.3981(5) 0.6590(4) 0.74575(12)
O4 O 0.2911(2) 0.8949(2) 0.79984(6)
C8 C 0.1570(3) 0.9923(2) 0.83054(8)
H13 H 0.1071(3) 1.0683(2) 0.80348(8)
C9 C 0.2731(3) 1.0702(2) 0.87725(8)
C10 C 0.1766(4) 1.1909(3) 0.91313(11)
H14 H 0.0695(4) 1.1514(3) 0.93853(11)
O5 O 0.1040(4) 1.3125(3) 0.87812(13)
C11 C 0.2413(7) 1.4241(4) 0.8853(2)
H15 H 0.2314(7) 1.5140(4) 0.8653(2)
C12 C 0.3890(6) 1.3980(3) 0.9221(2)
H16 H 0.4939(6) 1.4641(3) 0.9313(2)
C13 C 0.3620(4) 1.2453(3) 0.94700(12)
H17 H 0.3355(4) 1.2485(3) 0.98862(12)
O6 O 0.5268(3) 1.1426(2) 0.93263(8)
N1 N 0.4607(3) 1.0469(2) 0.88762(8)
#END
