
#######################################################################
#
#                 Cambridge Crystallographic Data Centre
#                                CCDC
#
#######################################################################
#
# If this CIF has been generated from an entry in the Cambridge
# Structural Database, then it will include bibliographic, chemical,
# crystal, experimental, refinement or atomic coordinate data resulting
# from the CCDC's data processing and validation procedures.
#
#######################################################################

data_CSD_CIF_NURWIG
_audit_creation_date 1998-09-24
_audit_creation_method CSD-ConQuest-V1
_database_code_CSD NURWIG
_database_code_depnum_ccdc_archive 'CCDC 1224674; CCDC 402798'
_database_code_depnum_ccdc_fiz 'CSD 402798'
_chemical_formula_sum 'C9 H15 N1 O5'
_chemical_formula_moiety
;
C9 H15 N1 O5
;
_journal_coden_Cambridge 1267
_journal_volume 213
_journal_year 1998
_journal_page_first 65
_journal_name_full 'Z.Kristallogr.-New Cryst.Struct. '
loop_
_publ_author_name
"S.Henkel"
"T.Leibold"
"V.Jager"
_chemical_name_systematic
;
1,3:2,4-Di-O-ethylidene-L-xylose oxime
;
_cell_volume   1082.658
_exptl_crystal_colour 'colorless'
_exptl_crystal_density_diffrn 1.333
_exptl_crystal_description 'block'
_diffrn_ambient_temperature ?
_diffrn_special_details
;
The study was carried out at room temperature,in the range 283-303K

;
#These two values have been output from a single CSD field.
_refine_ls_R_factor_gt 0.0561
_refine_ls_wR_factor_gt 0.0561
_symmetry_cell_setting orthorhombic
_symmetry_space_group_name_H-M 'P 21 21 21'
_symmetry_Int_Tables_number 19
loop_
_symmetry_equiv_pos_site_id
_symmetry_equiv_pos_as_xyz
1 x,y,z
2 1/2-x,-y,1/2+z
3 -x,1/2+y,1/2-z
4 1/2+x,1/2-y,-z
_cell_length_a 8.783(1)
_cell_length_b 9.622(1)
_cell_length_c 12.811(2)
_cell_angle_alpha 90
_cell_angle_beta 90
_cell_angle_gamma 90
_cell_formula_units_Z 4
loop_
_atom_type_symbol
_atom_type_radius_bond
C 0.68
H 0.23
N 0.68
O 0.68
loop_
_atom_site_label
_atom_site_type_symbol
_atom_site_fract_x
_atom_site_fract_y
_atom_site_fract_z
C1 C 0.1598(4) 0.5422(3) 0.2333(3)
H1 H 0.1438(4) 0.4577(3) 0.1921(3)
O1 O 0.2146(2) 0.6506(2) 0.1665(2)
C2 C 0.1040(4) 0.6889(4) 0.0902(2)
H2 H 0.0767(4) 0.6077(4) 0.0480(2)
C3 C 0.1706(5) 0.7987(4) 0.0223(3)
H3 H 0.2600(5) 0.7632(4) -0.0116(3)
H4 H 0.1974(5) 0.8778(4) 0.0641(3)
H5 H 0.0973(5) 0.8259(4) -0.0295(3)
O2 O -0.0262(3) 0.7424(2) 0.1389(2)
C4 C -0.0986(4) 0.6403(4) 0.2023(3)
H6 H -0.1336(4) 0.5643(4) 0.1587(3)
H7 H -0.1867(4) 0.6810(4) 0.2362(3)
C5 C 0.0094(4) 0.5852(3) 0.2839(3)
H8 H -0.0364(4) 0.5050(3) 0.3190(3)
O3 O 0.0352(3) 0.6936(3) 0.3578(2)
C6 C 0.1409(4) 0.6530(5) 0.4348(3)
H9 H 0.1043(4) 0.5697(5) 0.4710(3)
C7 C 0.1591(6) 0.7706(7) 0.5113(3)
H10 H 0.2308(6) 0.7445(7) 0.5644(3)
H11 H 0.0626(6) 0.7908(7) 0.5430(3)
H12 H 0.1956(6) 0.8516(7) 0.4754(3)
O4 O 0.2852(3) 0.6267(3) 0.3892(2)
C8 C 0.2799(4) 0.5147(3) 0.3157(3)
H13 H 0.2544(4) 0.4286(3) 0.3527(3)
C9 C 0.4370(4) 0.5024(4) 0.2721(3)
H14 H 0.4842(4) 0.5788(4) 0.2417(3)
N1 N 0.5041(4) 0.3878(3) 0.2770(4)
O5 O 0.6486(4) 0.3978(3) 0.2315(4)
H15 H 0.6676(92) 0.3148(83) 0.2401(59)
#END
