
#######################################################################
#
#                 Cambridge Crystallographic Data Centre
#                                CCDC
#
#######################################################################
#
# If this CIF has been generated from an entry in the Cambridge
# Structural Database, then it will include bibliographic, chemical,
# crystal, experimental, refinement or atomic coordinate data resulting
# from the CCDC's data processing and validation procedures.
#
#######################################################################

data_CSD_CIF_NUSLUI
_audit_creation_date 1998-09-24
_audit_creation_method CSD-ConQuest-V1
_database_code_CSD NUSLUI
_database_code_depnum_ccdc_archive 'CCDC 118676'
_chemical_formula_sum 'C19 H22 N2 O8'
_chemical_formula_moiety
;
C19 H22 N2 O8
;
_journal_coden_Cambridge 35
_journal_volume 63
_journal_year 1998
_journal_page_first 224
_journal_name_full 'J.Org.Chem. '
loop_
_publ_author_name
"I.Ojima"
"Songnian Lin"
_chemical_name_systematic
;
(3R,4S)-1-(t-Butoxycarbonyl)-3-(4-nitrobenzoyloxy)-4-((R)-1,2-epoxy-2-methylpr
opyl)azetidin-2-one
;
_cell_volume   1064.659
_exptl_crystal_colour 'colorless'
_exptl_crystal_density_diffrn 1.268
_exptl_special_details
;
y(O1) is 0.2555 not 0; y(O2) is 0.3481 not 0

;
_exptl_crystal_description 'block'
_diffrn_ambient_temperature ?
_diffrn_special_details
;
The study was carried out at room temperature,in the range 283-303K

;
#These two values have been output from a single CSD field.
_refine_ls_R_factor_gt 0.04
_refine_ls_wR_factor_gt 0.04
_symmetry_cell_setting monoclinic
_symmetry_space_group_name_H-M 'P 21'
_symmetry_Int_Tables_number 4
loop_
_symmetry_equiv_pos_site_id
_symmetry_equiv_pos_as_xyz
1 x,y,z
2 -x,1/2+y,-z
_cell_length_a 11.757(3)
_cell_length_b 6.905(1)
_cell_length_c 13.436(3)
_cell_angle_alpha 90
_cell_angle_beta 102.56(1)
_cell_angle_gamma 90
_cell_formula_units_Z 2
loop_
_atom_type_symbol
_atom_type_radius_bond
C 0.68
N 0.68
O 0.68
loop_
_atom_site_label
_atom_site_type_symbol
_atom_site_fract_x
_atom_site_fract_y
_atom_site_fract_z
O1 O -0.0329(4) 0.25540 0.0921(4)
O2 O 0.2410(4) 0.34800 0.1776(3)
O3 O 0.3713(5) 0.109(1) 0.2168(4)
O4 O 0.6449(5) 0.967(1) 0.4606(5)
O5 O 0.7227(4) 0.729(1) 0.5483(4)
O6 O 0.3776(3) 0.463(1) 0.0296(4)
O7 O 0.0565(3) 0.2721(10) -0.2063(3)
O8 O -0.1099(4) 0.2748(10) -0.1454(3)
N1 N 0.0691(4) 0.281(1) -0.0410(4)
N2 N 0.6513(5) 0.797(1) 0.4792(5)
C1 C 0.0526(6) 0.279(1) 0.0576(5)
C2 C 0.1767(5) 0.227(1) 0.0992(5)
C3 C 0.1977(5) 0.267(1) -0.0109(5)
C4 C 0.3442(6) 0.275(2) 0.2270(5)
C5 C 0.4195(6) 0.416(1) 0.2916(5)
C6 C 0.3948(6) 0.613(1) 0.2898(5)
C7 C 0.4704(6) 0.738(1) 0.3510(5)
C8 C 0.5685(6) 0.664(1) 0.4149(5)
C9 C 0.5952(6) 0.468(1) 0.4174(6)
C10 C 0.5193(7) 0.347(1) 0.3538(6)
C11 C -0.0045(6) 0.275(1) -0.1366(5)
C12 C 0.0021(6) 0.260(2) -0.3147(5)
C13 C 0.1030(7) 0.263(3) -0.3635(6)
C14 C -0.080(1) 0.431(2) -0.3415(9)
C15 C -0.0634(9) 0.072(2) -0.3363(7)
C16 C 0.2552(5) 0.453(1) -0.0188(5)
C17 C 0.3447(6) 0.493(2) -0.0829(7)
C18 C 0.3577(9) 0.700(2) -0.1136(9)
C19 C 0.3818(8) 0.336(2) -0.1395(8)
#END
