
#######################################################################
#
#                 Cambridge Crystallographic Data Centre
#                                CCDC
#
#######################################################################
#
# If this CIF has been generated from an entry in the Cambridge
# Structural Database, then it will include bibliographic, chemical,
# crystal, experimental, refinement or atomic coordinate data resulting
# from the CCDC's data processing and validation procedures.
#
#######################################################################

data_CSD_CIF_NUSQEY
_audit_creation_date 2010-10-12
_audit_creation_method CSD-ConQuest-V1
_database_code_CSD NUSQEY
_database_code_depnum_ccdc_archive 'CCDC 773147'
_chemical_formula_sum 'C20 H24 N4 O5'
_chemical_formula_moiety
;
C20 H24 N4 O5
;
_journal_coden_Cambridge 1220
_journal_volume 16
_journal_year 2010
_journal_page_first 639
_journal_name_full 'Chem.-Eur.J. '
loop_
_publ_author_name
"B.W.Gung"
"D.T.Craft"
"L.N.Bailey"
"K.Kirschbaum"
_chemical_name_systematic
;
1-(2,4-Dinitrophenyl)-2-(15-oxatetracyclo[10.2.1.0^1,5^.0^7,12^]pentadec-6-yli
dene)hydrazine
;
_cell_volume   3893.677
_exptl_crystal_colour 'yellow'
_exptl_crystal_density_diffrn 1.366
_exptl_crystal_description 'triangular prism'
_diffrn_ambient_temperature 150
#These two values have been output from a single CSD field.
_refine_ls_R_factor_gt 0.0505
_refine_ls_wR_factor_gt 0.0505
_symmetry_cell_setting orthorhombic
_symmetry_space_group_name_H-M 'P c c n'
_symmetry_Int_Tables_number 56
loop_
_symmetry_equiv_pos_site_id
_symmetry_equiv_pos_as_xyz
1 x,y,z
2 1/2-x,1/2-y,z
3 -x,1/2+y,1/2-z
4 1/2+x,-y,1/2-z
5 -x,-y,-z
6 -1/2+x,-1/2+y,-z
7 x,-1/2-y,-1/2+z
8 -1/2-x,y,-1/2+z
_cell_length_a 15.328(4)
_cell_length_b 31.544(6)
_cell_length_c 8.053(2)
_cell_angle_alpha 90
_cell_angle_beta 90
_cell_angle_gamma 90
_cell_formula_units_Z 8
loop_
_atom_type_symbol
_atom_type_radius_bond
C 0.68
H 0.23
N 0.68
O 0.68
loop_
_atom_site_label
_atom_site_type_symbol
_atom_site_fract_x
_atom_site_fract_y
_atom_site_fract_z
O1 O 0.57652(12) -0.10623(6) 1.5002(2)
O2 O 0.43975(13) -0.11626(6) 1.5496(2)
O3 O 0.23210(11) -0.01426(7) 1.3907(4)
O4 O 0.2644(1) 0.04046(5) 1.2446(3)
O5 O 0.46900(9) 0.19727(4) 0.91652(17)
N1 N 0.49944(13) -0.09595(6) 1.4881(2)
N2 N 0.28510(11) 0.00739(6) 1.3155(3)
N3 N 0.42510(11) 0.05462(5) 1.1510(2)
N4 N 0.49326(10) 0.07503(5) 1.0724(2)
C1 C 0.32393(15) 0.20607(8) 1.0243(4)
C2 C 0.26514(16) 0.17005(10) 0.9639(4)
C3 C 0.32536(15) 0.13304(9) 0.9260(3)
C4 C 0.39805(12) 0.13858(6) 1.0560(2)
C5 C 0.41411(12) 0.18689(6) 1.0554(3)
C6 C 0.46670(14) 0.20223(7) 1.2028(3)
C7 C 0.56083(13) 0.19223(6) 1.1507(3)
C8 C 0.55379(12) 0.18188(6) 0.9642(2)
C9 C 0.55332(12) 0.13408(6) 0.9305(2)
C10 C 0.47988(12) 0.11326(6) 1.0257(2)
C11 C 0.62210(14) 0.20342(7) 0.8579(3)
C12 C 0.71194(14) 0.18379(8) 0.8874(3)
C13 C 0.71136(15) 0.13668(8) 0.8520(3)
C14 C 0.64263(13) 0.11377(7) 0.9563(3)
C15 C 0.44040(12) 0.01735(6) 1.2271(2)
C16 C 0.52634(12) 0.00053(6) 1.2304(3)
C17 C 0.54483(13) -0.03603(6) 1.3124(2)
C18 C 0.47884(13) -0.05780(6) 1.3959(2)
C19 C 0.39443(13) -0.04356(6) 1.3940(3)
C20 C 0.37507(12) -0.00629(6) 1.3100(3)
H1 H 0.6620(15) 0.1153(7) 1.079(3)
H2 H 0.5384(14) 0.1316(6) 0.813(3)
H3 H 0.3753(13) 0.1322(6) 1.165(3)
H4 H 0.5975(14) 0.2169(7) 1.163(3)
H5 H 0.6209(15) 0.2343(7) 0.885(3)
H6 H 0.7287(15) 0.1897(7) 1.007(3)
H7 H 0.6070(15) 0.1999(7) 0.742(3)
H8 H 0.5842(14) 0.1666(7) 1.217(3)
H9 H 0.4593(16) 0.2325(8) 1.218(3)
H10 H 0.7690(17) 0.1241(8) 0.872(3)
H11 H 0.7515(18) 0.1971(8) 0.811(3)
H12 H 0.6416(14) 0.0840(7) 0.932(3)
H13 H 0.3516(15) -0.0578(7) 1.449(3)
H14 H 0.4494(16) 0.1881(8) 1.307(3)
H15 H 0.3487(17) 0.1349(8) 0.817(4)
H16 H 0.5988(17) -0.0470(7) 1.316(3)
H17 H 0.5715(15) 0.0164(7) 1.174(3)
H18 H 0.6967(17) 0.1320(8) 0.729(3)
H19 H 0.2980(19) 0.2188(9) 1.133(4)
H20 H 0.3749(18) 0.0648(8) 1.150(3)
H21 H 0.2975(18) 0.1035(9) 0.931(3)
H22 H 0.231(2) 0.1781(10) 0.875(4)
H23 H 0.331(2) 0.2288(10) 0.947(4)
H24 H 0.219(2) 0.1646(11) 1.063(5)
#END
