
#######################################################################
#
#                 Cambridge Crystallographic Data Centre
#                                CCDC
#
#######################################################################
#
# If this CIF has been generated from an entry in the Cambridge
# Structural Database, then it will include bibliographic, chemical,
# crystal, experimental, refinement or atomic coordinate data resulting
# from the CCDC's data processing and validation procedures.
#
#######################################################################

data_CSD_CIF_NUSQIC
_audit_creation_date 2010-10-12
_audit_creation_method CSD-ConQuest-V1
_database_code_CSD NUSQIC
_database_code_depnum_ccdc_archive 'CCDC 773148'
_chemical_formula_sum 'C21 H26 N4 O5'
_chemical_formula_moiety
;
C21 H26 N4 O5
;
_journal_coden_Cambridge 1220
_journal_volume 16
_journal_year 2010
_journal_page_first 639
_journal_name_full 'Chem.-Eur.J. '
loop_
_publ_author_name
"B.W.Gung"
"D.T.Craft"
"L.N.Bailey"
"K.Kirschbaum"
_chemical_name_systematic
;
1-(2,4-Dinitrophenyl)-2-(16-oxatetracyclo[11.2.1.0^1,6^.0^8,13^]hexadec-7-ylid
ene)hydrazine
;
_cell_volume   3982.507
_exptl_crystal_colour 'orange'
_exptl_crystal_density_diffrn 1.383
_exptl_crystal_description 'parallelepiped'
_diffrn_ambient_temperature 140
#These two values have been output from a single CSD field.
_refine_ls_R_factor_gt 0.0425
_refine_ls_wR_factor_gt 0.0425
_symmetry_cell_setting orthorhombic
_symmetry_space_group_name_H-M 'P b c a'
_symmetry_Int_Tables_number 61
loop_
_symmetry_equiv_pos_site_id
_symmetry_equiv_pos_as_xyz
1 x,y,z
2 1/2-x,-y,1/2+z
3 -x,1/2+y,1/2-z
4 1/2+x,1/2-y,-z
5 -x,-y,-z
6 -1/2+x,y,-1/2-z
7 x,-1/2-y,-1/2+z
8 -1/2-x,-1/2+y,z
_cell_length_a 15.315(3)
_cell_length_b 8.4530(17)
_cell_length_c 30.763(6)
_cell_angle_alpha 90
_cell_angle_beta 90
_cell_angle_gamma 90
_cell_formula_units_Z 8
loop_
_atom_type_symbol
_atom_type_radius_bond
C 0.68
H 0.23
N 0.68
O 0.68
loop_
_atom_site_label
_atom_site_type_symbol
_atom_site_fract_x
_atom_site_fract_y
_atom_site_fract_z
O1 O 0.74403(5) 1.2818(1) 0.05011(2)
O2 O 0.76944(6) 1.43928(13) -0.00338(3)
O3 O 0.55733(7) 1.57479(11) -0.10752(3)
O4 O 0.42375(6) 1.49453(10) -0.10068(3)
O5 O 0.50806(4) 0.88785(7) 0.201780(19)
N1 N 0.72018(5) 1.35165(10) 0.01681(3)
N2 N 0.50070(6) 1.49665(9) -0.08925(3)
N3 N 0.58971(5) 1.14929(9) 0.05968(2)
H1 H 0.6397(11) 1.1564(17) 0.0711(5)
N4 N 0.52295(5) 1.06474(8) 0.07856(2)
C1 C 0.48644(6) 1.21692(10) 0.00382(3)
H2 H 0.4435(9) 1.1485(15) 0.0169(4)
C2 C 0.46404(6) 1.3017(1) -0.03243(3)
H3 H 0.4067(9) 1.2916(15) -0.0446(4)
C3 C 0.52555(6) 1.40234(10) -0.05162(3)
C4 C 0.60868(6) 1.4157(1) -0.03549(3)
H4 H 0.6506(10) 1.4862(16) -0.0490(5)
C5 C 0.63187(6) 1.32985(10) 0.00133(3)
C6 C 0.57095(5) 1.22914(9) 0.02281(3)
C7 C 0.53281(5) 0.98957(9) 0.11457(3)
C8 C 0.60970(5) 0.97144(9) 0.14562(3)
H5 H 0.6269(9) 0.8617(15) 0.1449(4)
C9 C 0.57486(6) 1.00188(9) 0.19265(3)
C10 C 0.52729(6) 1.16259(9) 0.19551(3)
H6 H 0.5494(8) 1.2374(14) 0.1745(4)
H7 H 0.5333(9) 1.2099(15) 0.2244(5)
C11 C 0.43110(6) 1.12007(10) 0.18620(3)
H8 H 0.3950(9) 1.1403(15) 0.2126(4)
H9 H 0.4076(8) 1.1823(15) 0.1613(4)
C12 C 0.43342(5) 0.94018(9) 0.17761(3)
C13 C 0.45063(6) 0.90361(9) 0.12923(3)
H10 H 0.4667(8) 0.7874(14) 0.1285(4)
C14 C 0.69333(6) 1.06675(10) 0.13668(3)
H11 H 0.6797(8) 1.1778(15) 0.1344(4)
H12 H 0.7199(9) 1.0349(15) 0.1082(4)
C15 C 0.76185(6) 1.04311(11) 0.17235(3)
H13 H 0.7792(9) 0.9295(15) 0.1716(4)
H14 H 0.8151(10) 1.1103(16) 0.1651(4)
C16 C 0.72482(6) 1.08198(11) 0.21704(3)
H15 H 0.7082(9) 1.1946(16) 0.2181(4)
H16 H 0.7715(11) 1.0678(17) 0.2399(5)
C17 C 0.64581(6) 0.97789(11) 0.22648(3)
H17 H 0.6625(9) 0.8659(15) 0.2258(4)
H18 H 0.6202(10) 0.9988(15) 0.2562(4)
C18 C 0.35447(6) 0.84850(11) 0.19363(3)
H19 H 0.3453(9) 0.8743(15) 0.2246(4)
H20 H 0.3689(9) 0.7363(16) 0.1916(4)
C19 C 0.27369(7) 0.88454(12) 0.16642(3)
H21 H 0.2237(9) 0.8250(16) 0.1781(4)
H22 H 0.2583(10) 1.0006(18) 0.1690(5)
C20 C 0.29080(7) 0.84385(12) 0.11875(3)
H23 H 0.3006(9) 0.7251(16) 0.1166(4)
H24 H 0.2399(11) 0.8656(17) 0.1019(5)
C21 C 0.36989(6) 0.93453(11) 0.10120(3)
H25 H 0.3828(9) 0.9051(14) 0.0709(4)
H26 H 0.3557(9) 1.0459(15) 0.1007(4)
#END
