
#######################################################################
#
#                 Cambridge Crystallographic Data Centre
#                                CCDC
#
#######################################################################
#
# If this CIF has been generated from an entry in the Cambridge
# Structural Database, then it will include bibliographic, chemical,
# crystal, experimental, refinement or atomic coordinate data resulting
# from the CCDC's data processing and validation procedures.
#
#######################################################################

data_CSD_CIF_NUSRAW
_audit_creation_date 2015-09-28
_audit_creation_method CSD-ConQuest-V1
_database_code_CSD NUSRAW
_database_code_depnum_ccdc_archive 'CCDC 1428048'
_chemical_formula_sum 'C10 H10 N4 O3'
_chemical_formula_moiety
;
C10 H10 N4 O3
;
_journal_coden_Cambridge 1343
_journal_volume 11
_journal_year 2009
_journal_page_first 1050
_journal_name_full 'J.Comb.Chem. '
loop_
_publ_author_name
"Kah-Hoe Kong"
"Chong-Kiat Tan"
"Yulin Lam"
_chemical_name_systematic
;
6-(hydroxyimino)-1-methyl-3-phenyl-1,3,5-triazinane-2,4-dione
;
_cell_volume   2111.012
_exptl_crystal_colour 'colorless'
_exptl_crystal_density_diffrn 1.474
_exptl_crystal_description 'thin plate'
_diffrn_ambient_temperature 223
#These two values have been output from a single CSD field.
_refine_ls_R_factor_gt 0.0708
_refine_ls_wR_factor_gt 0.0708
_symmetry_cell_setting orthorhombic
_symmetry_space_group_name_H-M 'P b c a'
_symmetry_Int_Tables_number 61
loop_
_symmetry_equiv_pos_site_id
_symmetry_equiv_pos_as_xyz
1 x,y,z
2 1/2-x,-y,1/2+z
3 -x,1/2+y,1/2-z
4 1/2+x,1/2-y,-z
5 -x,-y,-z
6 -1/2+x,y,-1/2-z
7 x,-1/2-y,-1/2+z
8 -1/2-x,-1/2+y,z
_cell_length_a 8.9730(5)
_cell_length_b 8.3478(5)
_cell_length_c 28.1826(15)
_cell_angle_alpha 90
_cell_angle_beta 90
_cell_angle_gamma 90
_cell_formula_units_Z 8
loop_
_atom_type_symbol
_atom_type_radius_bond
C 0.68
H 0.23
N 0.68
O 0.68
loop_
_atom_site_label
_atom_site_type_symbol
_atom_site_fract_x
_atom_site_fract_y
_atom_site_fract_z
C1 C 0.6615(3) 1.1595(4) 0.73769(10)
H1 H 0.71360 1.18970 0.76520
O1 O 0.21352(18) 1.1450(2) 0.63953(6)
N1 N 0.1944(2) 0.8030(2) 0.51232(7)
O2 O 0.29894(19) 0.7196(2) 0.48323(6)
N2 N 0.4230(2) 0.8819(3) 0.54457(7)
O3 O 0.63830(17) 0.9107(2) 0.58521(6)
N3 N 0.19905(19) 0.9761(2) 0.57657(6)
N4 N 0.4273(2) 1.0237(2) 0.61513(6)
C2 C 0.2694(2) 0.8819(3) 0.54294(7)
C3 C 0.2737(2) 1.0555(3) 0.61210(7)
C4 C 0.5048(2) 0.9362(3) 0.58172(7)
C5 C 0.5074(2) 1.0743(3) 0.65736(7)
C6 C 0.4662(3) 1.0104(3) 0.70044(8)
H2 H 0.38600 0.93820 0.70240
C7 C 0.6250(3) 1.1788(3) 0.65361(9)
H3 H 0.65250 1.22110 0.62400
C8 C 0.5439(3) 1.0536(4) 0.74080(8)
H4 H 0.51650 1.01080 0.77040
C9 C 0.0359(2) 0.9864(3) 0.57475(9)
H5 H -0.00640 0.87990 0.57750
H6 H 0.00560 1.03360 0.54480
H7 H 0.00050 1.05260 0.60070
C10 C 0.7024(3) 1.2207(4) 0.69427(10)
H8 H 0.78350 1.29160 0.69220
H9 H 0.249(3) 0.676(3) 0.4629(10)
H10 H 0.462(3) 0.826(3) 0.5248(9)
#END
