
#######################################################################
#
#                 Cambridge Crystallographic Data Centre
#                                CCDC
#
#######################################################################
#
# If this CIF has been generated from an entry in the Cambridge
# Structural Database, then it will include bibliographic, chemical,
# crystal, experimental, refinement or atomic coordinate data resulting
# from the CCDC's data processing and validation procedures.
#
#######################################################################

data_CSD_CIF_NUTRUP
_audit_creation_date 1998-09-24
_audit_creation_method CSD-ConQuest-V1
_database_code_CSD NUTRUP
_database_code_depnum_ccdc_archive 'CCDC 130333'
_chemical_formula_sum 'C15 H20 N2 O7'
_chemical_formula_moiety
;
C15 H20 N2 O7
;
_journal_coeditor_code "IUCr OA1040"
_journal_coden_Cambridge 591
_journal_volume 54
_journal_year 1998
_journal_page_first 1146
_journal_name_full 'Acta Crystallogr.,Sect.C:Cryst.Struct.Commun. '
loop_
_publ_author_name
"Tae-Sung Yoon"
"Sung Eun Yoo"
"Whanchul Shin"
_chemical_name_systematic
;
(2R,3R,4R)-cis-4-Acetamido-3-hydroxy-2-dimethoxymethyl-2-methyl-6-nitro-3,4-di
hydro-2H-1-benzopyran
;
_cell_volume   1622.271
_exptl_crystal_colour 'colorless'
_exptl_crystal_density_diffrn 1.393
_exptl_special_details
;
potential potassium-channel opener with cardiovascular therapeutic activity

;
_exptl_crystal_description 'block'
_diffrn_ambient_temperature ?
_diffrn_special_details
;
The study was carried out at room temperature,in the range 283-303K

;
#These two values have been output from a single CSD field.
_refine_ls_R_factor_gt 0.047
_refine_ls_wR_factor_gt 0.047
_symmetry_cell_setting orthorhombic
_symmetry_space_group_name_H-M 'P 21 21 21'
_symmetry_Int_Tables_number 19
loop_
_symmetry_equiv_pos_site_id
_symmetry_equiv_pos_as_xyz
1 x,y,z
2 1/2-x,-y,1/2+z
3 -x,1/2+y,1/2-z
4 1/2+x,1/2-y,-z
_cell_length_a 10.579(3)
_cell_length_b 10.124(3)
_cell_length_c 15.147(3)
_cell_angle_alpha 90
_cell_angle_beta 90
_cell_angle_gamma 90
_cell_formula_units_Z 4
loop_
_atom_type_symbol
_atom_type_radius_bond
C 0.68
H 0.23
N 0.68
O 0.68
loop_
_atom_site_label
_atom_site_type_symbol
_atom_site_fract_x
_atom_site_fract_y
_atom_site_fract_z
O1 O 0.1257(3) 0.9555(3) 0.3694(2)
C1 C 0.2197(4) 1.0440(4) 0.4069(3)
C2 C 0.3122(5) 1.0875(5) 0.3350(3)
C3 C 0.3788(4) 0.9683(4) 0.2937(3)
C4 C 0.3086(5) 0.7634(4) 0.2098(3)
H1 H 0.3872(5) 0.7606(4) 0.1823(3)
C5 C 0.2183(5) 0.6691(4) 0.1893(3)
C6 C 0.1006(5) 0.6696(5) 0.2278(3)
H2 H 0.0411(5) 0.6054(5) 0.2137(3)
C7 C 0.0733(4) 0.7680(4) 0.2878(3)
H3 H -0.0061(4) 0.7710(4) 0.3142(3)
C8 C 0.1638(4) 0.8631(4) 0.3094(3)
C9 C 0.2832(4) 0.8614(4) 0.2706(3)
N1 N 0.2490(5) 0.5676(4) 0.1231(3)
O2 O 0.1686(4) 0.4847(4) 0.1064(3)
O3 O 0.3538(4) 0.5705(4) 0.0874(2)
N2 N 0.4508(4) 1.0081(4) 0.2159(3)
C10 C 0.5675(5) 0.9604(5) 0.1978(3)
C11 C 0.6253(5) 1.0103(6) 0.1135(3)
H4 H 0.6510(27) 0.9367(6) 0.0777(10)
H5 H 0.6977(20) 1.0639(26) 0.1270(3)
H6 H 0.5643(12) 1.0622(27) 0.0819(11)
O4 O 0.6215(3) 0.8834(3) 0.2473(2)
O5 O 0.2436(3) 1.1551(4) 0.2673(2)
C12 C 0.1458(5) 1.1600(5) 0.4439(3)
H7 H 0.1102(21) 1.2101(16) 0.3961(3)
H8 H 0.2014(7) 1.2154(15) 0.4777(15)
H9 H 0.0792(17) 1.1279(5) 0.4811(14)
C13 C 0.2861(5) 0.9671(5) 0.4817(3)
O6 O 0.3660(3) 1.0575(3) 0.5228(2)
C14 C 0.4478(5) 0.9994(6) 0.5868(3)
H10 H 0.5022(20) 0.9365(22) 0.5584(5)
H11 H 0.3982(5) 0.9556(25) 0.6310(12)
H12 H 0.4981(20) 1.0671(7) 0.6139(14)
O7 O 0.1966(4) 0.9170(3) 0.5431(2)
C15 C 0.1804(7) 0.7781(5) 0.5416(4)
H13 H 0.2616(7) 0.7359(5) 0.5423(22)
H14 H 0.1357(28) 0.7533(6) 0.4890(12)
H15 H 0.1328(28) 0.7511(6) 0.5924(13)
H16 H 0.3731(38) 1.1419(39) 0.3609(26)
H17 H 0.4376(33) 0.9326(35) 0.3334(23)
H18 H 0.4074(47) 1.0500(51) 0.1767(33)
H19 H 0.2691(69) 1.2305(66) 0.2647(50)
H20 H 0.3403(35) 0.8913(38) 0.4567(24)
#END
