
#######################################################################
#
#                 Cambridge Crystallographic Data Centre
#                                CCDC
#
#######################################################################
#
# If this CIF has been generated from an entry in the Cambridge
# Structural Database, then it will include bibliographic, chemical,
# crystal, experimental, refinement or atomic coordinate data resulting
# from the CCDC's data processing and validation procedures.
#
#######################################################################

data_CSD_CIF_NUVKUK
_audit_creation_date 1998-10-01
_audit_creation_method CSD-ConQuest-V1
_database_code_CSD NUVKUK
_chemical_formula_sum 'C14 H20 N2 O7'
_chemical_formula_moiety
;
C14 H20 N2 O7
;
_journal_coden_Cambridge 16
_journal_volume 53
_journal_year 1997
_journal_page_first 14339
_journal_name_full 'Tetrahedron '
loop_
_publ_author_name
"H.Ali Dondas"
"M.Frederickson"
"R.Grigg"
"J.Markandu"
"M.Thornton-Pett"
_chemical_name_systematic
;
4-(2-Acetoxy-1-hydroxyethyl)-7,8b-dimethyl-pyrrolidino(3',4':4,5)isoxazolo(3,2
-c)morpholin-6,8-dione
;
_chemical_melting_point 478.15
_cell_volume   1522.827
_exptl_crystal_colour 'colorless'
_exptl_crystal_density_diffrn 1.432
_exptl_special_details
;
Melting point range 478.15-479.15K

;
_diffrn_ambient_temperature ?
_diffrn_special_details
;
The study was carried out at room temperature,in the range 283-303K

;
#These two values have been output from a single CSD field.
_refine_ls_R_factor_gt 0.0308
_refine_ls_wR_factor_gt 0.0308
_symmetry_cell_setting orthorhombic
_symmetry_space_group_name_H-M 'P 21 21 21'
_symmetry_Int_Tables_number 19
loop_
_symmetry_equiv_pos_site_id
_symmetry_equiv_pos_as_xyz
1 x,y,z
2 1/2-x,-y,1/2+z
3 1/2+x,1/2-y,-z
4 -x,1/2+y,1/2-z
_cell_length_a 5.753(3)
_cell_length_b 11.558(5)
_cell_length_c 22.902(12)
_cell_angle_alpha 90
_cell_angle_beta 90
_cell_angle_gamma 90
_cell_formula_units_Z 4
loop_
_atom_type_symbol
_atom_type_radius_bond
C 0.68
H 0.23
N 0.68
O 0.68
loop_
_atom_site_label
_atom_site_type_symbol
_atom_site_fract_x
_atom_site_fract_y
_atom_site_fract_z
C1 C 0.9568(3) 0.66232(13) 0.45071(7)
C2 C 0.8396(4) 0.56707(14) 0.48566(7)
C3 C 0.8999(5) 0.35545(15) 0.50238(8)
C4 C 1.1609(4) 0.48210(14) 0.44307(7)
C5 C 1.1503(3) 0.60282(14) 0.41708(7)
C6 C 1.0543(3) 0.60375(14) 0.35308(7)
C7 C 1.2474(3) 0.61225(15) 0.30760(8)
C8 C 1.2074(3) 0.81065(15) 0.29924(8)
C9 C 1.0303(3) 0.81962(13) 0.34813(7)
C10 C 0.8570(3) 0.91569(14) 0.33197(7)
C11 C 0.6995(4) 0.95160(15) 0.38218(7)
C12 C 0.5985(4) 1.1440(2) 0.35496(8)
C13 C 0.4075(5) 1.2166(2) 0.33149(9)
C14 C 0.9011(4) 0.49962(15) 0.33887(8)
N1 N 0.9060(2) 0.70857(12) 0.35210(5)
N2 N 0.9689(3) 0.46797(11) 0.47888(6)
O1 O 0.7897(2) 0.70392(10) 0.40852(5)
O2 O 0.6621(3) 0.57555(11) 0.51367(5)
O3 O 1.3051(3) 0.40835(11) 0.43403(6)
O4 O 1.3675(2) 0.7193(1) 0.31034(5)
O5 O 0.7264(2) 0.88244(10) 0.28217(5)
O6 O 0.5289(2) 1.03468(10) 0.36279(5)
O7 O 0.7915(3) 1.17656(13) 0.36571(8)
H1 H 1.0167(3) 0.72582(13) 0.47626(7)
H2 H 1.0238(14) 0.3255(7) 0.5275(6)
H3 H 0.8727(30) 0.3014(5) 0.47013(9)
H4 H 0.7568(17) 0.3641(3) 0.5252(6)
H5 H 1.3017(3) 0.64472(14) 0.42058(7)
H6 H 1.3593(3) 0.54836(15) 0.31379(8)
H7 H 1.1794(3) 0.60294(15) 0.26818(8)
H8 H 1.1263(3) 0.79619(15) 0.26182(8)
H9 H 1.2929(3) 0.88467(15) 0.29576(8)
H10 H 1.1089(3) 0.83784(13) 0.38596(7)
H11 H 0.9502(3) 0.98523(14) 0.32073(7)
H12 H 0.6196(4) 0.88255(15) 0.39804(7)
H13 H 0.7943(4) 0.98590(15) 0.41382(7)
H14 H 0.4632(10) 1.2961(4) 0.3261(7)
H15 H 0.2770(12) 1.2164(12) 0.3590(4)
H16 H 0.3562(20) 1.1854(9) 0.2939(4)
H17 H 0.8338(19) 0.5092(6) 0.2999(3)
H18 H 0.7761(14) 0.4939(7) 0.3678(4)
H19 H 0.9952(6) 0.4290(2) 0.3398(6)
H20 H 0.6730(33) 0.8155(8) 0.2872(4)
#END
