
#######################################################################
#
#                 Cambridge Crystallographic Data Centre
#                                CCDC
#
#######################################################################
#
# If this CIF has been generated from an entry in the Cambridge
# Structural Database, then it will include bibliographic, chemical,
# crystal, experimental, refinement or atomic coordinate data resulting
# from the CCDC's data processing and validation procedures.
#
#######################################################################

data_CSD_CIF_NUVKOE
_audit_creation_date 1998-10-01
_audit_creation_method CSD-ConQuest-V1
_database_code_CSD NUVKOE
_chemical_formula_sum 'C14 H20 N2 O6'
_chemical_formula_moiety
;
C14 H20 N2 O6
;
_journal_coden_Cambridge 16
_journal_volume 53
_journal_year 1997
_journal_page_first 14339
_journal_name_full 'Tetrahedron '
loop_
_publ_author_name
"H.Ali Dondas"
"M.Frederickson"
"R.Grigg"
"J.Markandu"
"M.Thornton-Pett"
_chemical_name_systematic
;
3-(2-Acetoxy-1-hydroxyethyl)-3,6-dimethyl-dipyrrolidino(1,2-b) 
(3',4'-d)isoxazole-5,7-dione
;
_chemical_melting_point 494.15
_cell_volume   1492.055
_exptl_crystal_colour 'colorless'
_exptl_crystal_density_diffrn 1.39
_exptl_special_details
;
Melting point range 494.15-495.15K

;
_exptl_crystal_description 'prisms'
_diffrn_ambient_temperature ?
_diffrn_special_details
;
The study was carried out at room temperature,in the range 283-303K

;
#These two values have been output from a single CSD field.
_refine_ls_R_factor_gt 0.0338
_refine_ls_wR_factor_gt 0.0338
_symmetry_cell_setting orthorhombic
_symmetry_space_group_name_H-M 'P 21 21 21'
_symmetry_Int_Tables_number 19
loop_
_symmetry_equiv_pos_site_id
_symmetry_equiv_pos_as_xyz
1 x,y,z
2 1/2-x,-y,1/2+z
3 1/2+x,1/2-y,-z
4 -x,1/2+y,1/2-z
_cell_length_a 6.23550(11)
_cell_length_b 11.7893(2)
_cell_length_c 20.2967(4)
_cell_angle_alpha 90
_cell_angle_beta 90
_cell_angle_gamma 90
_cell_formula_units_Z 4
loop_
_atom_type_symbol
_atom_type_radius_bond
C 0.68
H 0.23
N 0.68
O 0.68
loop_
_atom_site_label
_atom_site_type_symbol
_atom_site_fract_x
_atom_site_fract_y
_atom_site_fract_z
N1 N 1.3352(3) 0.30034(12) 0.29189(7)
O1 O 1.1182(2) 0.34491(11) 0.30856(6)
C1 C 1.0959(3) 0.3137(2) 0.37553(9)
C2 C 1.0406(3) 0.1878(2) 0.38356(8)
O2 O 0.8876(2) 0.13971(12) 0.35983(7)
N2 N 1.1949(3) 0.13842(13) 0.42269(7)
C3 C 1.1886(4) 0.0209(2) 0.44578(10)
C4 C 1.3569(3) 0.2126(2) 0.44073(9)
O3 O 1.5034(3) 0.18727(13) 0.47605(7)
C5 C 1.3158(3) 0.32553(15) 0.40736(8)
C6 C 1.4633(3) 0.3453(2) 0.34829(9)
C7 C 1.5147(4) 0.4706(2) 0.33285(9)
C8 C 1.4463(4) 0.4887(2) 0.26104(9)
C9 C 1.4089(3) 0.36796(15) 0.23434(8)
C10 C 1.2407(3) 0.36674(15) 0.17862(8)
O4 O 1.3233(2) 0.42812(11) 0.12352(6)
C11 C 1.1853(3) 0.2488(2) 0.15619(9)
O5 O 1.0109(2) 0.25992(11) 0.10950(6)
C12 C 0.9433(4) 0.1652(2) 0.08061(9)
O6 O 1.0198(4) 0.07411(13) 0.09058(10)
C13 C 0.7614(4) 0.1878(2) 0.03415(10)
C14 C 1.6203(3) 0.3140(2) 0.21203(9)
H1 H 0.9900(3) 0.3617(2) 0.39778(9)
H2 H 1.2110(27) 0.0191(2) 0.4926(2)
H3 H 1.2994(18) -0.0219(4) 0.4243(6)
H4 H 1.0514(10) -0.0116(5) 0.4356(7)
H5 H 1.3208(3) 0.38877(15) 0.43866(8)
H6 H 1.5962(3) 0.3018(2) 0.35335(9)
H7 H 1.4353(4) 0.5206(2) 0.36194(9)
H8 H 1.6667(4) 0.4854(2) 0.33816(9)
H9 H 1.5581(4) 0.5270(2) 0.23633(9)
H10 H 1.3159(4) 0.5333(2) 0.25863(9)
H11 H 1.1100(3) 0.40428(15) 0.19423(8)
H12 H 1.2782(34) 0.4934(6) 0.1245(7)
H13 H 1.3083(3) 0.2134(2) 0.13543(9)
H14 H 1.1414(3) 0.2027(2) 0.19338(9)
H15 H 0.7921(12) 0.1539(12) -0.0078(3)
H16 H 0.7439(17) 0.2682(2) 0.0288(6)
H17 H 0.6319(6) 0.1558(12) 0.0517(4)
H18 H 1.6651(12) 0.3477(9) 0.1712(4)
H19 H 1.6000(7) 0.2339(3) 0.2059(7)
H20 H 1.7282(7) 0.3264(10) 0.2450(3)
#END
