
#######################################################################
#
#                 Cambridge Crystallographic Data Centre
#                                CCDC
#
#######################################################################
#
# If this CIF has been generated from an entry in the Cambridge
# Structural Database, then it will include bibliographic, chemical,
# crystal, experimental, refinement or atomic coordinate data resulting
# from the CCDC's data processing and validation procedures.
#
#######################################################################

data_CSD_CIF_NUVKIY
_audit_creation_date 1998-10-01
_audit_creation_method CSD-ConQuest-V1
_database_code_CSD NUVKIY
_chemical_formula_sum 'C12 H15 N1 O3'
_chemical_formula_moiety
;
C12 H15 N1 O3
;
_journal_coden_Cambridge 16
_journal_volume 53
_journal_year 1997
_journal_page_first 14339
_journal_name_full 'Tetrahedron '
loop_
_publ_author_name
"H.Ali Dondas"
"M.Frederickson"
"R.Grigg"
"J.Markandu"
"M.Thornton-Pett"
_chemical_name_systematic
;
(1S,3R,4R,5S,7S)-3,4-Dihydroxy-7-phenyl-1-aza-8-oxabicyclo(3.2.1)octane
;
_chemical_melting_point 433.15
_cell_volume    545.473
_exptl_crystal_colour 'colorless'
_exptl_crystal_density_diffrn 1.347
_exptl_special_details
;
Melting point range 433.15-435.15K

;
_exptl_crystal_description 'prisms'
_diffrn_ambient_temperature ?
_diffrn_special_details
;
The study was carried out at room temperature,in the range 283-303K

;
#These two values have been output from a single CSD field.
_refine_ls_R_factor_gt 0.0317
_refine_ls_wR_factor_gt 0.0317
_symmetry_cell_setting triclinic
_symmetry_space_group_name_H-M 'P 1'
_symmetry_Int_Tables_number 1
loop_
_symmetry_equiv_pos_site_id
_symmetry_equiv_pos_as_xyz
1 x,y,z
_cell_length_a 5.55130(11)
_cell_length_b 8.2622(2)
_cell_length_c 12.2663(2)
_cell_angle_alpha 84.2990(14)
_cell_angle_beta 79.005(2)
_cell_angle_gamma 82.088(2)
_cell_formula_units_Z 2
loop_
_atom_type_symbol
_atom_type_radius_bond
C 0.68
H 0.23
N 0.68
O 0.68
loop_
_atom_site_label
_atom_site_type_symbol
_atom_site_fract_x
_atom_site_fract_y
_atom_site_fract_z
N1 N 1.0549(3) 0.3951(2) 0.54966(13)
O1 O 0.9189(2) 0.32519(14) 0.47917(11)
C1 C 1.0829(4) 0.1831(2) 0.4400(2)
C2 C 1.0714(4) 0.0473(2) 0.5335(2)
O2 O 0.8205(3) 0.0151(2) 0.56258(13)
C3 C 1.1620(4) 0.1055(2) 0.6308(2)
O3 O 1.0901(3) 0.0045(2) 0.72977(12)
C4 C 1.0493(4) 0.2813(2) 0.6512(2)
C5 C 1.3057(3) 0.3947(2) 0.4791(2)
C6 C 1.3298(3) 0.5561(2) 0.40990(15)
C7 C 1.5133(4) 0.6494(2) 0.4180(2)
C8 C 1.5421(4) 0.7938(3) 0.3511(2)
C9 C 1.3888(4) 0.8463(3) 0.2755(2)
C10 C 1.2031(5) 0.7566(3) 0.2687(2)
C11 C 1.1735(4) 0.6122(3) 0.3350(2)
C12 C 1.3333(4) 0.2469(2) 0.4075(2)
H1 H 1.0338(4) 0.1468(2) 0.3746(2)
H2 H 1.1769(4) -0.0515(2) 0.5075(2)
H3 H 0.8160(3) -0.0813(9) 0.5855(23)
H4 H 1.3426(4) 0.1001(2) 0.6141(2)
H5 H 1.2130(7) -0.0342(31) 0.7558(14)
H6 H 0.8788(4) 0.2802(2) 0.6883(2)
H7 H 1.1370(4) 0.3235(2) 0.7013(2)
H8 H 1.4309(3) 0.3763(2) 0.5270(2)
H9 H 1.6183(4) 0.6152(2) 0.4688(2)
H10 H 1.6661(4) 0.8554(3) 0.3575(2)
H11 H 1.4111(4) 0.9416(3) 0.2295(2)
H12 H 1.0959(5) 0.7929(3) 0.2192(2)
H13 H 1.0472(4) 0.5521(3) 0.3291(2)
H14 H 1.3673(4) 0.2811(2) 0.3287(2)
H15 H 1.4649(4) 0.1641(2) 0.4249(2)
N2 N 0.2914(3) 0.5551(2) 0.85424(13)
O4 O 0.2530(2) 0.7071(2) 0.90882(11)
C13 C 0.4888(4) 0.7170(3) 0.9392(2)
C14 C 0.6695(4) 0.7680(2) 0.8364(2)
O5 O 0.5690(3) 0.9235(2) 0.79193(12)
C15 C 0.7012(4) 0.6366(2) 0.75363(15)
O6 O 0.8263(3) 0.6937(2) 0.64708(11)
C16 C 0.4516(4) 0.5874(2) 0.7457(2)
C17 C 0.4209(4) 0.4373(2) 0.9313(2)
C18 C 0.2339(4) 0.3415(3) 1.0078(2)
C19 C 0.1930(6) 0.1917(3) 0.9788(2)
C20 C 0.0121(7) 0.1057(4) 1.0434(3)
C21 C -0.1280(5) 0.1688(4) 1.1382(2)
C22 C -0.0882(5) 0.3153(3) 1.1679(2)
C23 C 0.0904(4) 0.4026(3) 1.1034(2)
C24 C 0.5603(4) 0.5438(3) 0.9883(2)
H16 H 0.4702(4) 0.7959(3) 0.9957(2)
H17 H 0.8292(4) 0.7771(2) 0.8568(2)
H18 H 0.6810(7) 0.9707(16) 0.7543(21)
H19 H 0.8023(4) 0.5398(2) 0.78084(15)
H20 H 0.8903(45) 0.6151(2) 0.6114(9)
H21 H 0.3657(4) 0.6741(2) 0.7030(2)
H22 H 0.4785(4) 0.4897(2) 0.7050(2)
H23 H 0.5419(4) 0.3607(2) 0.8870(2)
H24 H 0.2879(6) 0.1480(3) 0.9151(2)
H25 H -0.0146(7) 0.0054(4) 1.0226(3)
H26 H -0.2493(5) 0.1112(4) 1.1816(2)
H27 H -0.1819(5) 0.3574(3) 1.2324(2)
H28 H 0.1142(4) 0.5035(3) 1.1245(2)
H29 H 0.5074(4) 0.5348(3) 1.0686(2)
H30 H 0.7375(4) 0.5126(3) 0.9708(2)
#END
