
#######################################################################
#
#                 Cambridge Crystallographic Data Centre
#                                CCDC
#
#######################################################################
#
# If this CIF has been generated from an entry in the Cambridge
# Structural Database, then it will include bibliographic, chemical,
# crystal, experimental, refinement or atomic coordinate data resulting
# from the CCDC's data processing and validation procedures.
#
#######################################################################

data_CSD_CIF_NUWKOH
_audit_creation_date 2015-09-29
_audit_creation_method CSD-ConQuest-V1
_database_code_CSD NUWKOH
_database_code_depnum_ccdc_archive 'CCDC 1428507'
_chemical_formula_sum 'C9 H9 N1 O3'
_chemical_formula_moiety
;
C9 H9 N1 O3
;
_journal_coden_Cambridge 1254
_journal_volume 13
_journal_year 2009
_journal_page_first 198
_journal_name_full 'Org.Process Res.Dev. '
loop_
_publ_author_name
"M.M.Hansen"
"S.S.K.Borders"
"M.T.Clayton"
"P.C.Heath"
"S.P.Kolis"
"S.D.Larsen"
"R.J.Linder"
"S.M.Reutzel-Edens"
"J.C.Smith"
"S.L.Tameze"
"J.A.Ward"
"L.O.Weigel"
_chemical_name_systematic
;
6-nitroindan-1-ol
;
_cell_volume   3295.805
_exptl_crystal_density_diffrn 1.444
_exptl_crystal_description 'platy'
_diffrn_ambient_temperature 105
#These two values have been output from a single CSD field.
_refine_ls_R_factor_gt 0.0821
_refine_ls_wR_factor_gt 0.0821
_symmetry_cell_setting monoclinic
_symmetry_space_group_name_H-M 'C 2/c'
_symmetry_Int_Tables_number 15
loop_
_symmetry_equiv_pos_site_id
_symmetry_equiv_pos_as_xyz
1 x,y,z
2 -x,y,1/2-z
3 1/2+x,1/2+y,z
4 1/2-x,1/2+y,1/2-z
5 -x,-y,-z
6 x,-y,-1/2+z
7 -1/2-x,-1/2-y,-z
8 -1/2+x,-1/2-y,-1/2+z
_cell_length_a 16.038(12)
_cell_length_b 14.670(11)
_cell_length_c 15.634(12)
_cell_angle_alpha 90
_cell_angle_beta 116.362(11)
_cell_angle_gamma 90
_cell_formula_units_Z 16
loop_
_atom_type_symbol
_atom_type_radius_bond
C 0.68
H 0.23
N 0.68
O 0.68
loop_
_atom_site_label
_atom_site_type_symbol
_atom_site_fract_x
_atom_site_fract_y
_atom_site_fract_z
O1 O 0.1798(3) 0.1232(2) 0.0509(2)
O2 O 0.2022(2) -0.0047(3) -0.0089(2)
N1 N 0.1815(3) 0.0778(3) -0.0151(3)
O3 O 0.0267(2) 0.0170(2) -0.4052(2)
H1 H 0.03730 -0.03070 -0.37220
C1 C 0.1580(4) 0.1227(3) -0.1076(3)
C2 C 0.1479(3) 0.2184(3) -0.1115(3)
H2 H 0.15750 0.25200 -0.05590
C3 C 0.1100(3) 0.2118(3) -0.2796(3)
C4 C 0.1234(3) 0.2632(4) -0.1986(3)
H3 H 0.11610 0.32750 -0.20290
C5 C 0.1234(3) 0.1166(3) -0.2714(3)
C6 C 0.1472(3) 0.0709(3) -0.1857(3)
H4 H 0.15560 0.00660 -0.18100
C7 C 0.1081(4) 0.0746(3) -0.3668(3)
H5 H 0.16430 0.03930 -0.35910
C8 C 0.0809(4) 0.2436(4) -0.3800(3)
H6 H 0.12050 0.29470 -0.38170
H7 H 0.01510 0.26350 -0.41010
C9 C 0.0947(4) 0.1580(3) -0.4312(4)
H8 H 0.03960 0.14900 -0.49340
H9 H 0.15000 0.16610 -0.44310
O4 O 0.3918(2) 0.0920(2) 0.0326(2)
O5 O 0.3991(2) -0.0447(2) -0.0202(2)
N2 N 0.3931(3) 0.0405(3) -0.0294(3)
C10 C 0.3853(3) 0.0801(3) -0.1207(3)
O6 O 0.4482(2) 0.3553(2) -0.2011(2)
H10 H 0.44260 0.40270 -0.17400
C11 C 0.3746(3) 0.1751(3) -0.1325(3)
H11 H 0.37170 0.21360 -0.08500
C12 C 0.3698(3) 0.1522(3) -0.2894(3)
C13 C 0.3796(4) 0.0578(3) -0.2746(4)
H12 H 0.38110 0.01900 -0.32240
C14 C 0.3684(3) 0.2093(3) -0.2183(3)
C15 C 0.3870(3) 0.0214(3) -0.1897(3)
H13 H 0.39300 -0.04250 -0.17890
C16 C 0.3612(4) 0.2075(3) -0.3746(3)
H14 H 0.31560 0.17970 -0.43500
H15 H 0.42200 0.21260 -0.37630
C17 C 0.3580(4) 0.3100(3) -0.2493(3)
H16 H 0.30980 0.34150 -0.23580
C18 C 0.3269(4) 0.3025(3) -0.3584(3)
H17 H 0.35520 0.35190 -0.38000
H18 H 0.25840 0.30710 -0.39430
#END
