
#######################################################################
#
#                 Cambridge Crystallographic Data Centre
#                                CCDC
#
#######################################################################
#
# If this CIF has been generated from an entry in the Cambridge
# Structural Database, then it will include bibliographic, chemical,
# crystal, experimental, refinement or atomic coordinate data resulting
# from the CCDC's data processing and validation procedures.
#
#######################################################################

data_CSD_CIF_NUXYAI
_audit_creation_date 2015-09-29
_audit_creation_method CSD-ConQuest-V1
_database_code_CSD NUXYAI
_database_code_depnum_ccdc_archive 'CCDC 1014258'
_chemical_formula_sum 'C7 H17 N1 O3'
_chemical_formula_moiety
;
C7 H17 N1 O3
;
_journal_coden_Cambridge 4
_journal_volume 136
_journal_year 2014
_journal_page_first 15403
_journal_name_full 'J.Am.Chem.Soc. '
loop_
_publ_author_name
"R.A.Rodriguez"
"D.B.Steed"
"Yu.Kawamata"
"Shun Su"
"P.A.Smith"
"T.C.Steed"
"F.E.Romesberg"
"P.S.Baran"
_chemical_name_systematic
;
3-(diethylnitroryl)propane-1,2-diol
;
_chemical_name_common
;
3-(N,N-diethylamino)-propan-1,2-diol N-oxide
;
_cell_volume    852.199
_exptl_crystal_colour 'colorless'
_exptl_crystal_density_diffrn 1.272
_exptl_crystal_description 'Plate'
_diffrn_ambient_temperature 100
_refine_special_details
;
O2 and O2A disordered over two sites with occupancies 0.9451:0.0549.

;
#These two values have been output from a single CSD field.
_refine_ls_R_factor_gt 0.0324
_refine_ls_wR_factor_gt 0.0324
_symmetry_cell_setting monoclinic
_symmetry_space_group_name_H-M 'P 21/n'
_symmetry_Int_Tables_number 14
loop_
_symmetry_equiv_pos_site_id
_symmetry_equiv_pos_as_xyz
1 x,y,z
2 1/2-x,1/2+y,1/2-z
3 -x,-y,-z
4 -1/2+x,-1/2-y,-1/2+z
_cell_length_a 5.6142(5)
_cell_length_b 12.7026(8)
_cell_length_c 12.0019(8)
_cell_angle_alpha 90
_cell_angle_beta 95.341(3)
_cell_angle_gamma 90
_cell_formula_units_Z 4
loop_
_atom_type_symbol
_atom_type_radius_bond
C 0.68
H 0.23
N 0.68
O 0.68
loop_
_atom_site_label
_atom_site_type_symbol
_atom_site_fract_x
_atom_site_fract_y
_atom_site_fract_z
O1 O 0.42287(15) 0.37267(7) 1.09526(7)
H1 H 0.351(3) 0.3358(13) 1.1453(13)
O2 O 0.06975(16) 0.38872(7) 0.82368(7)
H2 H -0.048(3) 0.3433(14) 0.8035(14)
O3 O 0.75424(14) 0.24107(6) 0.76095(7)
N1 N 0.50908(17) 0.25587(7) 0.76853(7)
C1 C 0.2512(2) 0.40926(9) 1.00985(9)
H3 H 0.29430 0.48160 0.98860
H4 H 0.09270 0.41240 1.03970
C2 C 0.2326(2) 0.33959(8) 0.90536(9)
H5 H 0.16990 0.26870 0.92420
C3 C 0.4815(2) 0.32790(9) 0.86662(9)
H6 H 0.53810 0.39880 0.84710
H7 H 0.58950 0.30230 0.93080
C4 C 0.3952(2) 0.14978(9) 0.78344(9)
H8 H 0.41890 0.10510 0.71780
H9 H 0.22090 0.15920 0.78660
C5 C 0.4983(2) 0.09451(10) 0.88843(11)
H10 H 0.44370 0.02120 0.88710
H11 H 0.44460 0.13020 0.95410
H12 H 0.67330 0.09630 0.89230
C6 C 0.3995(2) 0.30168(9) 0.65922(9)
H13 H 0.41070 0.24920 0.59890
H14 H 0.22790 0.31600 0.66530
C7 C 0.5204(3) 0.40222(11) 0.62779(11)
H15 H 0.45970 0.42280 0.55170
H16 H 0.69350 0.39090 0.63100
H17 H 0.48620 0.45820 0.68020
H18? H 0.13650 0.38020 0.84560
O4? O 0.096(3) 0.2503(11) 0.9269(12)
H19? H -0.01560 0.24330 0.87570
#END
