
#######################################################################
#
#                 Cambridge Crystallographic Data Centre
#                                CCDC
#
#######################################################################
#
# If this CIF has been generated from an entry in the Cambridge
# Structural Database, then it will include bibliographic, chemical,
# crystal, experimental, refinement or atomic coordinate data resulting
# from the CCDC's data processing and validation procedures.
#
#######################################################################

data_CSD_CIF_NUYQEE
_audit_creation_date 2010-10-12
_audit_creation_method CSD-ConQuest-V1
_database_code_CSD NUYQEE
_database_code_depnum_ccdc_archive 'CCDC 655374'
_chemical_formula_sum 'C6 H10 N2 O6'
_chemical_formula_moiety
;
C6 H10 N2 O6
;
_journal_coden_Cambridge 1271
_journal_volume 34
_journal_year 2009
_journal_page_first 13
_journal_name_full 'Propellants,Explos.,Pyrotech. '
loop_
_publ_author_name
"T.M.Klapotke"
"B.Krumm"
"F.X.Steemann"
_chemical_name_systematic
;
1,3-Diacetoxy-2-nitro-2-azapropane
;
_chemical_melting_point 303
_cell_volume    918.391
_exptl_crystal_colour 'colorless'
_exptl_crystal_density_diffrn 1.491
_exptl_crystal_description 'block'
_diffrn_ambient_temperature 200
#These two values have been output from a single CSD field.
_refine_ls_R_factor_gt 0.044
_refine_ls_wR_factor_gt 0.044
_symmetry_cell_setting monoclinic
_symmetry_space_group_name_H-M 'P 21/c'
_symmetry_Int_Tables_number 14
loop_
_symmetry_equiv_pos_site_id
_symmetry_equiv_pos_as_xyz
1 x,y,z
2 -x,1/2+y,1/2-z
3 -x,-y,-z
4 x,-1/2-y,-1/2+z
_cell_length_a 15.889(5)
_cell_length_b 8.464(5)
_cell_length_c 6.868(5)
_cell_angle_alpha 90
_cell_angle_beta 96.111(5)
_cell_angle_gamma 90
_cell_formula_units_Z 4
loop_
_atom_type_symbol
_atom_type_radius_bond
C 0.68
H 0.23
N 0.68
O 0.68
loop_
_atom_site_label
_atom_site_type_symbol
_atom_site_fract_x
_atom_site_fract_y
_atom_site_fract_z
O1 O 0.88747(11) 0.1257(2) 0.7146(3)
O2 O 0.61625(12) -0.0423(2) 0.5599(3)
O3 O 0.80253(13) 0.3369(2) 0.6888(3)
O4 O 0.73937(14) -0.1795(2) 0.3158(3)
O5 O 0.62357(15) 0.0765(3) 0.8541(3)
N1 N 0.76458(14) -0.0074(3) 0.5584(3)
C1 C 0.68270(17) 0.0577(3) 0.5034(4)
H1 H 0.67490 0.07310 0.35970
H2 H 0.67880 0.16250 0.56580
O6 O 0.86202(13) -0.1803(2) 0.4906(3)
C2 C 0.87273(19) 0.2823(3) 0.7009(4)
N2 N 0.78988(16) -0.1306(3) 0.4480(4)
C3 C 0.81564(18) 0.0269(3) 0.7397(4)
H3 H 0.78000 0.07990 0.82980
H4 H 0.83600 -0.07380 0.80140
C4 C 0.59370(18) -0.0238(4) 0.7448(5)
C5 C 0.95245(19) 0.3757(4) 0.7051(5)
H5 H 1.00100 0.30380 0.71560
H6 H 0.95700 0.44710 0.81820
H7 H 0.95170 0.43770 0.58440
C6 C 0.5300(2) -0.1424(4) 0.7858(5)
H8 H 0.51650 -0.20920 0.67020
H9 H 0.47860 -0.08870 0.81780
H10 H 0.55250 -0.20810 0.89680
#END
