
#######################################################################
#
#                 Cambridge Crystallographic Data Centre
#                                CCDC
#
#######################################################################
#
# If this CIF has been generated from an entry in the Cambridge
# Structural Database, then it will include bibliographic, chemical,
# crystal, experimental, refinement or atomic coordinate data resulting
# from the CCDC's data processing and validation procedures.
#
#######################################################################

data_CSD_CIF_NUYSOP
_audit_creation_date 1998-10-01
_audit_creation_method CSD-ConQuest-V1
_database_code_CSD NUYSOP
_database_code_depnum_ccdc_archive 'CCDC 1225122; CCDC 409046'
_database_code_depnum_ccdc_fiz 'CSD 409046'
_chemical_formula_sum 'C14 H19 N1 O4'
_chemical_formula_moiety
;
C14 H19 N1 O4
;
_journal_coden_Cambridge 1267
_journal_volume 213
_journal_year 1998
_journal_page_first 73
_journal_name_full 'Z.Kristallogr.-New Cryst.Struct. '
loop_
_publ_author_name
"S.Henkel"
"P.J.Zimmermann"
"V.Jager"
_chemical_name_systematic
;
(3aR,6aR)-3-((1S)-1,2-Cyclohexylidenedioxyethyl)-5-methyl-3a,6a-dihydrofuro(2,
3-d)isoxazole
;
_chemical_melting_point 358.15
_cell_volume   1375.943
_exptl_crystal_colour 'colorless'
_exptl_crystal_density_diffrn 1.281
_exptl_special_details
;
Melting point range 358.15-359.15K

;
_exptl_crystal_description 'block'
_exptl_crystal_preparation 'petroleum ether'
_diffrn_ambient_temperature ?
_diffrn_special_details
;
The study was carried out at room temperature,in the range 283-303K

;
#These two values have been output from a single CSD field.
_refine_ls_R_factor_gt 0.0414
_refine_ls_wR_factor_gt 0.0414
_symmetry_cell_setting orthorhombic
_symmetry_space_group_name_H-M 'P 21 21 21'
_symmetry_Int_Tables_number 19
loop_
_symmetry_equiv_pos_site_id
_symmetry_equiv_pos_as_xyz
1 x,y,z
2 1/2-x,-y,1/2+z
3 -x,1/2+y,1/2-z
4 1/2+x,1/2-y,-z
_cell_length_a 7.437(2)
_cell_length_b 8.304(2)
_cell_length_c 22.280(5)
_cell_angle_alpha 90
_cell_angle_beta 90
_cell_angle_gamma 90
_cell_formula_units_Z 4
loop_
_atom_type_symbol
_atom_type_radius_bond
C 0.68
H 0.23
N 0.68
O 0.68
loop_
_atom_site_label
_atom_site_type_symbol
_atom_site_fract_x
_atom_site_fract_y
_atom_site_fract_z
C1 C 0.0413(3) 0.3276(3) 0.05651(9)
C2 C 0.1230(3) 0.4458(3) 0.09886(10)
H1 H 0.0485(3) 0.4621(3) 0.13463(10)
C3 C 0.1315(4) 0.5961(3) 0.05982(12)
H2 H 0.0639(4) 0.6861(3) 0.07719(12)
O1 O 0.0583(3) 0.5453(2) 0.00145(8)
N1 N 0.0082(3) 0.3826(3) 0.00454(9)
O2 O 0.3059(2) 0.4039(2) 0.11406(7)
C4 C 0.4147(3) 0.5161(3) 0.08712(10)
C5 C 0.6092(4) 0.4872(5) 0.0965(2)
H3 H 0.6731(47) 0.5679(44) 0.0680(14)
H4 H 0.6382(63) 0.3803(61) 0.0883(20)
H5 H 0.644(6) 0.4825(56) 0.1391(20)
C6 C 0.3268(4) 0.6286(3) 0.05763(13)
H6 H 0.3817(45) 0.7071(41) 0.0411(13)
C7 C -0.0085(3) 0.1582(3) 0.07243(10)
H7 H -0.0740(3) 0.1078(3) 0.0392(1)
C8 C 0.1415(4) 0.0501(3) 0.09313(14)
H8 H 0.1912(4) -0.0103(3) 0.05975(14)
H9 H 0.2368(4) 0.1122(3) 0.11176(14)
O3 O 0.0597(3) -0.0541(2) 0.13519(10)
C9 C -0.0966(3) 0.0232(3) 0.15802(10)
O4 O -0.1204(2) 0.1675(2) 0.12425(8)
C10 C -0.2547(5) -0.0873(3) 0.14958(13)
H10 H -0.2312(5) -0.1890(3) 0.16954(13)
H11 H -0.2711(5) -0.1088(3) 0.10714(13)
C11 C -0.4252(5) -0.0129(5) 0.1750(2)
H12 H -0.4563(5) 0.0818(5) 0.1518(2)
H13 H -0.5231(5) -0.0894(5) 0.1714(2)
C12 C -0.4035(6) 0.0341(6) 0.2400(2)
H14 H -0.5108(6) 0.0896(6) 0.2536(2)
H15 H -0.3888(6) -0.0620(6) 0.2643(2)
C13 C -0.2429(6) 0.1417(4) 0.24805(13)
H16 H -0.2651(6) 0.2434(4) 0.22792(13)
H17 H -0.2267(6) 0.1639(4) 0.29045(13)
C14 C -0.0741(5) 0.0686(3) 0.22360(12)
H18 H -0.0438(5) -0.0266(3) 0.24667(12)
H19 H 0.0240(5) 0.1449(3) 0.22757(12)
#END
