
#######################################################################
#
#                 Cambridge Crystallographic Data Centre
#                                CCDC
#
#######################################################################
#
# If this CIF has been generated from an entry in the Cambridge
# Structural Database, then it will include bibliographic, chemical,
# crystal, experimental, refinement or atomic coordinate data resulting
# from the CCDC's data processing and validation procedures.
#
#######################################################################

data_CSD_CIF_NUZCIW
_audit_creation_date 2016-01-29
_audit_creation_method CSD-ConQuest-V1
_database_code_CSD NUZCIW
_database_code_depnum_ccdc_archive 'CCDC 1002296'
_chemical_formula_sum 'C17 H27 N1 O4'
_chemical_formula_moiety
;
C17 H27 N1 O4
;
_journal_coden_Cambridge 1931
_journal_volume 703
_journal_year 2014
_journal_page_first 29
_journal_name_full 'Appl. Mech. Mater. '
loop_
_publ_author_name
"Na Wang"
"Si Yu Liu"
"Xue Song Huang"
_chemical_name_systematic
;
4-(5-Hydroxy-3-(hydroxyimino)decyl)-2-methoxyphenol
;
_chemical_name_common
;
6-Gingerol oxime
;
_cell_volume   3511.388
_exptl_crystal_colour 'colorless'
_exptl_crystal_density_diffrn 1.171
_exptl_crystal_description 'needle'
_diffrn_ambient_temperature 293
#These two values have been output from a single CSD field.
_refine_ls_R_factor_gt 0.0412
_refine_ls_wR_factor_gt 0.0412
_symmetry_cell_setting orthorhombic
_symmetry_space_group_name_H-M 'P 21 21 21'
_symmetry_Int_Tables_number 19
loop_
_symmetry_equiv_pos_site_id
_symmetry_equiv_pos_as_xyz
1 x,y,z
2 1/2-x,-y,1/2+z
3 1/2+x,1/2-y,-z
4 -x,1/2+y,1/2-z
_cell_length_a 5.2424(1)
_cell_length_b 25.7792(4)
_cell_length_c 25.9824(5)
_cell_angle_alpha 90
_cell_angle_beta 90
_cell_angle_gamma 90
_cell_formula_units_Z 8
loop_
_atom_type_symbol
_atom_type_radius_bond
C 0.68
H 0.23
N 0.68
O 0.68
loop_
_atom_site_label
_atom_site_type_symbol
_atom_site_fract_x
_atom_site_fract_y
_atom_site_fract_z
C1 C -0.4055(7) -0.67808(9) -0.54020(12)
C2 C -0.5687(6) -0.64027(9) -0.52128(11)
C3 C -0.5459(6) -0.58987(9) -0.53963(11)
H1 H -0.65410 -0.56440 -0.52680
C4 C -0.3670(5) -0.57639(9) -0.57649(11)
C5 C -0.2093(7) -0.61444(12) -0.59480(13)
H2 H -0.08770 -0.60640 -0.61960
C6 C -0.2296(7) -0.66562(12) -0.57634(14)
H3 H -0.12120 -0.69110 -0.58910
C7 C -0.3487(5) -0.52121(10) -0.59643(12)
H4 H -0.37560 -0.49730 -0.56810
H5 H -0.17850 -0.51530 -0.60980
C8 C -0.5410(5) -0.51015(9) -0.63812(10)
H6 H -0.52160 -0.53620 -0.66470
H7 H -0.71020 -0.51430 -0.62360
C9 C -0.5276(4) -0.45769(8) -0.66312(9)
C10 C -0.7210(4) -0.44296(8) -0.70279(8)
H8 H -0.76920 -0.40700 -0.69770
H9 H -0.87240 -0.46410 -0.69800
C11 C -0.6252(4) -0.44976(8) -0.75771(9)
H10 H -0.46460 -0.43060 -0.76100
C12 C -0.8117(6) -0.42802(10) -0.79731(10)
H11 H -0.74790 -0.43590 -0.83150
H12 H -0.97410 -0.44560 -0.79340
C13 C -0.8565(8) -0.36978(11) -0.79352(13)
H13 H -0.93080 -0.36200 -0.76020
H14 H -0.69330 -0.35220 -0.79540
C14 C -1.0293(8) -0.34855(12) -0.83506(14)
H15 H -1.19060 -0.36690 -0.83380
H16 H -0.95250 -0.35540 -0.86830
C15 C -1.0813(11) -0.29060(15) -0.83067(19)
H17 H -1.16110 -0.28360 -0.79770
H18 H -0.92050 -0.27200 -0.83170
C16 C -1.2502(11) -0.27094(17) -0.87275(19)
H19 H -1.26630 -0.23400 -0.86990
H20 H -1.41550 -0.28670 -0.86980
H21 H -1.17700 -0.27960 -0.90550
C17 C -0.9071(8) -0.62111(13) -0.46237(14)
H22 H -1.01990 -0.63870 -0.43910
H23 H -1.00480 -0.60490 -0.48910
H24 H -0.81270 -0.59520 -0.44390
N1 N -0.3455(3) -0.42771(6) -0.64902(7)
O1 O -0.4195(5) -0.72826(7) -0.52174(11)
H25 H -0.56960 -0.73680 -0.51890
O2 O -0.7358(5) -0.65728(7) -0.48435(10)
O3 O -0.3472(3) -0.37966(6) -0.67537(6)
H26 H -0.23190 -0.36120 -0.66440
O4 O -0.5730(4) -0.50348(6) -0.76781(7)
H27 H -0.70620 -0.52010 -0.76640
C18 C 0.1010(4) -0.10192(8) -0.70982(9)
C19 C 0.2739(4) -0.13790(8) -0.72956(9)
C20 C 0.2631(5) -0.18907(8) -0.71366(9)
H28 H 0.37910 -0.21300 -0.72670
C21 C 0.0790(5) -0.20522(8) -0.67802(9)
C22 C -0.0909(5) -0.16926(9) -0.65967(10)
H29 H -0.21590 -0.17950 -0.63640
C23 C -0.0797(5) -0.11778(9) -0.67522(10)
H30 H -0.19570 -0.09390 -0.66200
C24 C 0.0700(5) -0.26145(9) -0.66026(10)
H31 H -0.10250 -0.26980 -0.64960
H32 H 0.11340 -0.28380 -0.68900
C25 C 0.2496(4) -0.27220(8) -0.61635(9)
H33 H 0.21900 -0.24660 -0.58970
H34 H 0.42260 -0.26720 -0.62860
C26 C 0.2331(4) -0.32539(7) -0.59210(8)
C27 C 0.4227(4) -0.33953(7) -0.55093(8)
H35 H 0.58420 -0.32300 -0.55890
H36 H 0.44970 -0.37670 -0.55180
C28 C 0.3438(3) -0.32408(7) -0.49624(8)
H37 H 0.48320 -0.33350 -0.47290
C29 C 0.1034(4) -0.34978(8) -0.47684(8)
H38 H -0.02710 -0.34700 -0.50320
H39 H 0.04350 -0.33110 -0.44680
C30 C 0.1363(4) -0.40646(8) -0.46275(9)
H40 H 0.19470 -0.42530 -0.49280
H41 H 0.26680 -0.40940 -0.43640
C31 C -0.1068(5) -0.43111(10) -0.44322(12)
H42 H -0.16550 -0.41210 -0.41330
H43 H -0.23700 -0.42820 -0.46960
C32 C -0.0755(7) -0.48744(12) -0.42893(17)
H44 H -0.01460 -0.50620 -0.45890
H45 H 0.05440 -0.49010 -0.40250
C33 C -0.3140(8) -0.51321(14) -0.40979(19)
H46 H -0.37430 -0.49550 -0.37970
H47 H -0.27790 -0.54870 -0.40140
H48 H -0.44240 -0.51190 -0.43610
C34 C 0.6007(6) -0.15345(11) -0.79108(12)
H49 H 0.70590 -0.17170 -0.76680
H50 H 0.70700 -0.13500 -0.81490
H51 H 0.49650 -0.17780 -0.80950
N2 N 0.0588(3) -0.35558(6) -0.60944(6)
O5 O 0.0991(4) -0.05123(6) -0.72659(8)
H52 H 0.24400 -0.04260 -0.73480
O6 O 0.4429(4) -0.11796(6) -0.76455(8)
O7 O 0.0575(3) -0.40475(5) -0.58525(6)
H53 H -0.06040 -0.42220 -0.59670
O8 O 0.3062(3) -0.26904(5) -0.49261(6)
H54 H 0.44070 -0.25410 -0.49890
#END
