
#######################################################################
#
#                 Cambridge Crystallographic Data Centre
#                                CCDC
#
#######################################################################
#
# If this CIF has been generated from an entry in the Cambridge
# Structural Database, then it will include bibliographic, chemical,
# crystal, experimental, refinement or atomic coordinate data resulting
# from the CCDC's data processing and validation procedures.
#
#######################################################################

data_CSD_CIF_NUZGAQ
_audit_creation_date 1998-10-01
_audit_creation_method CSD-ConQuest-V1
_database_code_CSD NUZGAQ
_database_code_depnum_ccdc_archive 'CCDC 105786; CCDC 409058'
_database_code_depnum_ccdc_fiz 'CSD 409058'
_chemical_formula_sum 'C20 H27 N1 O2'
_chemical_formula_moiety
;
C20 H27 N1 O2
;
_journal_coden_Cambridge 1267
_journal_volume 213
_journal_year 1998
_journal_page_first 261
_journal_name_full 'Z.Kristallogr.-New Cryst.Struct. '
loop_
_publ_author_name
"U.Jaenicke-Roessler"
"G.Zahn"
"F.Hiller"
"H.-U.Reissig"
_chemical_name_systematic
;
(6S)-6-((1R,2S,5R)-(-)-2-Isopropyl-5-methylcyclohexyloxy)-3-phenyl-6H-1,2-oxaz
ine
;
_cell_volume    915.707
_exptl_crystal_colour 'colorless'
_exptl_crystal_density_diffrn 1.137
_exptl_crystal_description 'prism'
_exptl_crystal_preparation 'ethanol'
_diffrn_ambient_temperature ?
_diffrn_special_details
;
The study was carried out at room temperature,in the range 283-303K

;
#These two values have been output from a single CSD field.
_refine_ls_R_factor_gt 0.0308
_refine_ls_wR_factor_gt 0.0308
_symmetry_cell_setting monoclinic
_symmetry_space_group_name_H-M 'P 21'
_symmetry_Int_Tables_number 4
loop_
_symmetry_equiv_pos_site_id
_symmetry_equiv_pos_as_xyz
1 x,y,z
2 -x,1/2+y,-z
_cell_length_a 6.0259(4)
_cell_length_b 8.5787(6)
_cell_length_c 17.768(2)
_cell_angle_alpha 90
_cell_angle_beta 94.474(4)
_cell_angle_gamma 90
_cell_formula_units_Z 2
loop_
_atom_type_symbol
_atom_type_radius_bond
C 0.68
H 0.23
N 0.68
O 0.68
loop_
_atom_site_label
_atom_site_type_symbol
_atom_site_fract_x
_atom_site_fract_y
_atom_site_fract_z
O1 O 0.36648(12) 0.68024(9) 0.19763(5)
O2 O 0.22719(13) 0.93524(10) 0.19966(5)
N1 N 0.2941(2) 0.98755(11) 0.27358(6)
C1 C 0.1423(4) 0.5004(3) 0.02009(11)
C2 C 0.3780(4) 0.2736(2) 0.06480(13)
C3 C 0.2940(2) 0.4353(2) 0.08490(8)
C4 C 0.1914(2) 0.43551(14) 0.16124(7)
C5 C -0.0271(2) 0.3437(2) 0.16174(9)
C6 C -0.1208(3) 0.3432(2) 0.23845(10)
C7 C -0.1536(2) 0.5063(2) 0.26802(8)
C8 C -0.2472(4) 0.5083(3) 0.34488(12)
C9 C 0.0647(2) 0.5963(2) 0.26845(8)
C10 C 0.1552(2) 0.59878(13) 0.19161(7)
C11 C 0.3712(2) 0.82757(14) 0.16581(8)
C12 C 0.6049(2) 0.88210(14) 0.17538(8)
C13 C 0.6697(2) 0.95829(14) 0.23723(7)
C14 C 0.5056(2) 0.99681(14) 0.29063(7)
C15 C 0.5759(2) 1.0573(2) 0.36666(8)
C16 C 0.4320(3) 1.1466(2) 0.40682(10)
C17 C 0.5001(4) 1.2038(3) 0.47705(11)
C18 C 0.7098(4) 1.1705(3) 0.50914(11)
C19 C 0.8531(4) 1.0838(3) 0.47032(11)
C20 C 0.7882(3) 1.0275(2) 0.3998(1)
H1 H 0.0334(31) 0.4227(25) 0.0076(11)
H2 H 0.2133(28) 0.5159(24) -0.0298(11)
H3 H 0.0662(31) 0.6001(24) 0.0334(10)
H4 H 0.2578(29) 0.1979(23) 0.0568(9)
H5 H 0.4522(37) 0.2757(28) 0.0167(13)
H6 H 0.4761(31) 0.2313(22) 0.1049(11)
H7 H 0.4216(24) 0.5018(18) 0.0922(8)
H8 H 0.2978(22) 0.3869(15) 0.1985(7)
H9 H -0.1376(24) 0.3957(18) 0.1237(8)
H10 H -0.0030(25) 0.2383(22) 0.1440(9)
H11 H -0.2714(28) 0.2817(21) 0.2333(9)
H12 H -0.0260(27) 0.2885(20) 0.2723(9)
H13 H -0.2615(25) 0.5580(18) 0.2315(8)
H14 H -0.2430(32) 0.6147(27) 0.3707(11)
H15 H -0.1398(32) 0.4591(26) 0.3807(11)
H16 H -0.3849(32) 0.4514(26) 0.3459(10)
H17 H 0.0482(20) 0.7018(18) 0.2859(7)
H18 H 0.1746(21) 0.5433(16) 0.3035(7)
H19 H 0.0500(19) 0.6520(13) 0.1550(6)
H20 H 0.3008(20) 0.8261(14) 0.1141(7)
H21 H 0.7073(23) 0.8543(16) 0.1379(7)
H22 H 0.8160(22) 0.9949(15) 0.2486(6)
H23 H 0.2855(29) 1.1707(21) 0.3823(9)
H24 H 0.4000(32) 1.2751(26) 0.5038(11)
H25 H 0.7556(29) 1.2125(24) 0.5566(12)
H26 H 0.9936(39) 1.0626(26) 0.4922(13)
H27 H 0.8893(27) 0.9674(23) 0.3732(9)
#END
