
#######################################################################
#
#                 Cambridge Crystallographic Data Centre
#                                CCDC
#
#######################################################################
#
# If this CIF has been generated from an entry in the Cambridge
# Structural Database, then it will include bibliographic, chemical,
# crystal, experimental, refinement or atomic coordinate data resulting
# from the CCDC's data processing and validation procedures.
#
#######################################################################

data_CSD_CIF_OAZCBM
_audit_creation_date 1981-08-11
_audit_creation_method CSD-ConQuest-V1
_database_code_CSD OAZCBM
_database_code_depnum_ccdc_archive 'CCDC 1225255'
_chemical_formula_sum 'C18 H17 N3 O4'
_chemical_formula_moiety
;
C18 H17 N3 O4
;
_journal_coden_Cambridge 423
_journal_volume 348
_journal_year 1980
_journal_page_first 4355
_journal_name_full 'J.Chem.Res. '
loop_
_publ_author_name
"F.M.Albini"
"D.Vitali"
"R.Oberti"
"P.Caramella"
_chemical_name_systematic
;
syn-Methyl-3,7a-diphenyl-7,7a-dihydro-6H-isoxazolo(2,3-d)-1,2,4-oxadiazol-6-yl
-carbamate
;
_chemical_melting_point 421.15
_cell_volume   1673.038
_exptl_crystal_colour 'colorless'
_diffrn_ambient_temperature ?
_diffrn_special_details
;
The study was carried out at room temperature,in the range 283-303K

;
#These two values have been output from a single CSD field.
_refine_ls_R_factor_gt 0.073
_refine_ls_wR_factor_gt 0.073
_symmetry_cell_setting monoclinic
_symmetry_space_group_name_H-M 'P 21/c'
_symmetry_Int_Tables_number 14
loop_
_symmetry_equiv_pos_site_id
_symmetry_equiv_pos_as_xyz
1 x,y,z
2 -x,1/2+y,1/2-z
3 -x,-y,-z
4 x,-1/2-y,-1/2+z
_cell_length_a 10.116(2)
_cell_length_b 9.449(1)
_cell_length_c 17.562(2)
_cell_angle_alpha 90
_cell_angle_beta 94.7
_cell_angle_gamma 90
_cell_formula_units_Z 4
loop_
_atom_type_symbol
_atom_type_radius_bond
C 0.68
N 0.68
O 0.68
loop_
_atom_site_label
_atom_site_type_symbol
_atom_site_fract_x
_atom_site_fract_y
_atom_site_fract_z
C1 C 0.72810 -0.05560 0.54580
N1 N 0.64040 0.03680 0.52520
O1 O 0.57940 0.07920 0.59040
C2 C 0.65580 0.02100 0.65690
C3 C 0.56500 -0.07160 0.70310
C4 C 0.57150 -0.21510 0.66620
O2 O 0.70860 -0.22370 0.64410
N2 N 0.74980 -0.07950 0.62520
N3 N 0.47620 -0.23700 0.60100
C5 C 0.43030 -0.37040 0.58620
O3 O 0.46350 -0.47510 0.62200
O4 O 0.34050 -0.36850 0.52500
C6 C 0.28300 -0.50360 0.50270
C7 C 0.72720 0.13920 0.70090
C8 C 0.69800 0.27860 0.68740
C9 C 0.76620 0.38370 0.73040
C10 C 0.86540 0.34750 0.78630
C11 C 0.89530 0.20780 0.79950
C12 C 0.82790 0.10230 0.75770
C13 C 0.80920 -0.12710 0.49090
C14 C 0.93850 -0.16790 0.51440
C15 C 1.01720 -0.22890 0.46180
C16 C 0.96700 -0.25090 0.38840
C17 C 0.83610 -0.21180 0.36480
C18 C 0.75960 -0.14950 0.41590
#END
