
#######################################################################
#
#                 Cambridge Crystallographic Data Centre
#                                CCDC
#
#######################################################################
#
# If this CIF has been generated from an entry in the Cambridge
# Structural Database, then it will include bibliographic, chemical,
# crystal, experimental, refinement or atomic coordinate data resulting
# from the CCDC's data processing and validation procedures.
#
#######################################################################

data_CSD_CIF_OBABOL
_audit_creation_date 2016-11-17
_audit_creation_method CSD-ConQuest-V1
_database_code_CSD OBABOL
_database_code_depnum_ccdc_archive 'CCDC 1492901'
_chemical_formula_sum 'C35 H25 N3 O2'
_chemical_formula_moiety
;
C35 H25 N3 O2
;
_journal_coden_Cambridge 1336
_journal_volume 18
_journal_year 2016
_journal_page_first 5200
_journal_name_full 'Org.Lett. '
loop_
_publ_author_name
"S.Karmakar"
"P.Das"
"D.Ray"
"S.Ghosh"
"S.K.Chattopadhyay"
_chemical_name_systematic
;
3-((4-nitrophenyl)(2-phenyl-1H-indol-3-yl)methyl)-2-phenyl-1H-indole
;
_chemical_melting_point 506.15
_cell_volume   1313.828
_exptl_special_details
;
Melting point range 506.15-508.15K

;
_diffrn_ambient_temperature 296
#These two values have been output from a single CSD field.
_refine_ls_R_factor_gt 0.0854
_refine_ls_wR_factor_gt 0.0854
_symmetry_cell_setting triclinic
_symmetry_space_group_name_H-M 'P -1'
_symmetry_Int_Tables_number 2
loop_
_symmetry_equiv_pos_site_id
_symmetry_equiv_pos_as_xyz
1 x,y,z
2 -x,-y,-z
_cell_length_a 9.8997(5)
_cell_length_b 12.0050(6)
_cell_length_c 12.9633(7)
_cell_angle_alpha 89.605(3)
_cell_angle_beta 68.351(3)
_cell_angle_gamma 68.151(3)
_cell_formula_units_Z 2
loop_
_atom_type_symbol
_atom_type_radius_bond
C 0.68
N 0.68
O 0.68
loop_
_atom_site_label
_atom_site_type_symbol
_atom_site_fract_x
_atom_site_fract_y
_atom_site_fract_z
N1 N 0.8204(3) 0.3865(2) 0.8602(2)
N2 N 0.8010(3) 0.5512(2) 0.4336(2)
N3 N 0.1017(3) 1.0744(3) 0.9108(3)
O1 O 0.0136(4) 1.1194(3) 0.8638(3)
O2 O 0.1083(4) 1.1319(3) 0.9842(3)
C1 C 0.6610(4) 0.7093(3) 0.5727(2)
C2 C 0.6435(3) 0.6032(2) 0.6167(2)
C3 C 0.5549(3) 0.5890(2) 0.7372(2)
C4 C 0.4218(3) 0.7103(3) 0.7984(2)
C5 C 0.6692(3) 0.5304(3) 0.7921(2)
C6 C 0.7290(4) 0.5105(3) 0.5295(2)
C7 C 0.6187(4) 0.3346(3) 0.8330(2)
C8 C 0.7585(4) 0.6726(3) 0.4573(3)
C9 C 0.7849(4) 0.5682(3) 0.8032(2)
C10 C 0.3071(4) 0.7628(3) 0.7546(3)
C11 C 0.7544(4) 0.3816(3) 0.5224(2)
C12 C 0.2057(3) 0.9459(3) 0.8772(3)
C13 C 0.1991(4) 0.8810(3) 0.7928(3)
C14 C 0.6950(3) 0.4191(3) 0.8275(2)
C15 C 0.4161(4) 0.7749(3) 0.8892(2)
C16 C 0.8769(4) 0.4765(3) 0.8462(2)
C17 C 0.3082(4) 0.8948(3) 0.9289(3)
C18 C 0.8214(4) 0.6699(3) 0.7814(3)
C19 C 0.6033(4) 0.8321(3) 0.6162(3)
C20 C 0.7116(4) 0.2135(3) 0.7868(3)
C21 C 0.4554(4) 0.3718(3) 0.8885(3)
C22 C 1.0013(4) 0.4823(3) 0.8680(3)
C23 C 0.6286(4) 0.3468(3) 0.5472(3)
C24 C 0.9446(4) 0.6773(4) 0.8036(3)
C25 C 0.6407(5) 0.9121(3) 0.5455(3)
C26 C 0.9086(4) 0.2936(3) 0.4823(3)
C27 C 0.7957(5) 0.7533(3) 0.3857(3)
C28 C 1.0329(5) 0.5842(4) 0.8469(3)
C29 C 0.7348(5) 0.8733(4) 0.4308(3)
C30 C 0.6420(6) 0.1304(4) 0.7959(4)
C31 C 0.6557(6) 0.2250(3) 0.5331(4)
C32 C 0.3875(5) 0.2882(4) 0.8983(4)
C33 C 0.8093(6) 0.1378(3) 0.4911(4)
C34 C 0.9351(6) 0.1719(3) 0.4664(4)
C35 C 0.4806(6) 0.1674(4) 0.8518(4)
#END
