
#######################################################################
#
#                 Cambridge Crystallographic Data Centre
#                                CCDC
#
#######################################################################
#
# If this CIF has been generated from an entry in the Cambridge
# Structural Database, then it will include bibliographic, chemical,
# crystal, experimental, refinement or atomic coordinate data resulting
# from the CCDC's data processing and validation procedures.
#
#######################################################################

data_CSD_CIF_OBAFUU
_audit_creation_date 2011-11-29
_audit_creation_method CSD-ConQuest-V1
_database_code_CSD OBAFUU
_database_code_depnum_ccdc_archive 'CCDC 798318'
_chemical_formula_sum 'C16 H18 N2 O5'
_chemical_formula_moiety
;
C16 H18 N2 O5
;
_journal_coden_Cambridge 1336
_journal_volume 13
_journal_year 2011
_journal_page_first 3296
_journal_name_full 'Org.Lett. '
loop_
_publ_author_name
"M.del M.S.Duque"
"O.Basle"
"N.Isambert"
"A.Gaudel-Siri"
"Y.Genisson"
"J.-C.Plaquevent"
"J.Rodriguez"
"T.Constantieux"
_chemical_name_systematic
;
N-(4-Nitrophenyl)-2-oxo-1-(3-oxobutyl)cyclopentanecarboxamide
;
_cell_volume   1565.231
_exptl_crystal_colour 'colorless'
_exptl_crystal_density_diffrn 1.351
_exptl_special_details
;
Absolute configuration

;
_exptl_crystal_description 'prism'
_diffrn_ambient_temperature 293
#These two values have been output from a single CSD field.
_refine_ls_R_factor_gt 0.08
_refine_ls_wR_factor_gt 0.08
_symmetry_cell_setting monoclinic
_symmetry_space_group_name_H-M 'P 21'
_symmetry_Int_Tables_number 4
loop_
_symmetry_equiv_pos_site_id
_symmetry_equiv_pos_as_xyz
1 x,y,z
2 -x,1/2+y,-z
_cell_length_a 10.509
_cell_length_b 13.97
_cell_length_c 10.942
_cell_angle_alpha 90
_cell_angle_beta 103.0
_cell_angle_gamma 90
_cell_formula_units_Z 4
loop_
_atom_type_symbol
_atom_type_radius_bond
C 0.68
H 0.23
N 0.68
O 0.68
loop_
_atom_site_label
_atom_site_type_symbol
_atom_site_fract_x
_atom_site_fract_y
_atom_site_fract_z
C1 C -0.4968(4) 0.3835(4) 0.5199(5)
C2 C -0.5901(4) 0.3929(4) 0.5891(5)
H1 H -0.66460 0.35490 0.57160
C3 C -0.5722(4) 0.4597(4) 0.6854(4)
H2 H -0.63530 0.46680 0.73220
C4 C -0.4607(4) 0.5158(4) 0.7119(4)
C5 C -0.3693(4) 0.5062(4) 0.6378(5)
H3 H -0.29580 0.54530 0.65260
C6 C -0.3867(5) 0.4401(5) 0.5439(5)
H4 H -0.32440 0.43320 0.49610
C7 C -0.5168(4) 0.6196(3) 0.8743(4)
C8 C -0.4551(4) 0.6852(3) 0.9820(4)
C9 C -0.5676(4) 0.7343(4) 1.0267(4)
C10 C -0.5845(5) 0.8338(4) 0.9738(6)
H5 H -0.64830 0.83490 0.89450
H6 H -0.61210 0.87750 1.03170
C11 C -0.4530(7) 0.8591(5) 0.9563(9)
H7 H -0.40490 0.89330 1.02940
H8 H -0.46070 0.90040 0.88370
C12 C -0.3829(4) 0.7702(4) 0.9381(5)
H9 H -0.29350 0.77290 0.98660
H10 H -0.38140 0.76270 0.85040
C13 C -0.3723(5) 0.6216(4) 1.0848(4)
H11 H -0.42550 0.56830 1.10060
H12 H -0.30000 0.59560 1.05380
C14 C -0.3187(5) 0.6720(5) 1.2062(5)
H13 H -0.28440 0.73360 1.18810
H14 H -0.38980 0.68400 1.24740
C15 C -0.2143(5) 0.6192(5) 1.2941(5)
C16 C -0.1632(8) 0.6653(6) 1.4163(7)
H15 H -0.23070 0.66820 1.46240
H16 H -0.13450 0.72900 1.40330
H17 H -0.09090 0.62890 1.46290
C17 C 0.0104(4) 0.8585(3) 0.5894(4)
C18 C 0.1188(4) 0.8000(4) 0.5968(5)
H18 H 0.18030 0.81400 0.55020
C19 C 0.1337(4) 0.7215(4) 0.6736(5)
H19 H 0.20650 0.68230 0.68030
C20 C 0.0399(4) 0.7002(3) 0.7420(4)
C21 C -0.0681(4) 0.7586(3) 0.7323(4)
H20 H -0.13100 0.74420 0.77730
C22 C -0.0829(4) 0.8384(3) 0.6556(4)
H21 H -0.15510 0.87810 0.64910
C23 C -0.0195(4) 0.5726(3) 0.8789(4)
C24 C 0.0330(4) 0.4789(3) 0.9443(4)
C25 C 0.0681(4) 0.4083(3) 0.8486(4)
C26 C -0.0207(6) 0.3237(4) 0.8347(6)
H22 H -0.06690 0.31570 0.74800
H23 H 0.02800 0.26570 0.86270
C27 C -0.1098(11) 0.3454(8) 0.9128(12)
H24 H -0.19560 0.35640 0.85950
H25 H -0.11600 0.29000 0.96460
C28 C -0.0749(5) 0.4259(4) 0.9918(5)
H26 H -0.04290 0.40570 1.07810
H27 H -0.14980 0.46730 0.98760
C29 C 0.1579(4) 0.4948(3) 1.0476(4)
H28 H 0.18820 0.43310 1.08330
H29 H 0.22500 0.52040 1.00870
C30 C 0.1443(4) 0.5607(4) 1.1530(4)
H30 H 0.13130 0.62570 1.12120
H31 H 0.06750 0.54250 1.18290
C31 C 0.2620(5) 0.5582(4) 1.2610(4)
C32 C 0.2767(7) 0.6385(5) 1.3566(5)
H32 H 0.34400 0.62230 1.42860
H33 H 0.19560 0.64740 1.38180
H34 H 0.29960 0.69660 1.32000
N1 N -0.5138(4) 0.3100(4) 0.4238(4)
N2 N -0.4323(3) 0.5810(3) 0.8115(3)
H35 H -0.35210 0.59850 0.83540
N3 N -0.0062(4) 0.9406(3) 0.5051(4)
N4 N 0.0641(3) 0.6175(3) 0.8186(3)
H36 H 0.14060 0.59260 0.82830
O1 O -0.4284(4) 0.2985(5) 0.3664(5)
O2 O -0.6141(4) 0.2638(4) 0.4001(5)
O3 O -0.6331(3) 0.6023(3) 0.8486(3)
O4 O -0.6266(4) 0.6972(3) 1.0956(4)
O5 O -0.1690(6) 0.5450(5) 1.2647(5)
O6 O -0.1004(4) 0.9934(3) 0.5029(4)
O7 O 0.0735(3) 0.9533(3) 0.4398(4)
O8 O -0.1276(3) 0.6036(3) 0.8804(3)
O9 O 0.1582(3) 0.4179(3) 0.7978(3)
O10 O 0.3384(4) 0.4925(4) 1.2732(4)
#END
