
#######################################################################
#
#                 Cambridge Crystallographic Data Centre
#                                CCDC
#
#######################################################################
#
# If this CIF has been generated from an entry in the Cambridge
# Structural Database, then it will include bibliographic, chemical,
# crystal, experimental, refinement or atomic coordinate data resulting
# from the CCDC's data processing and validation procedures.
#
#######################################################################

data_CSD_CIF_OBAHIK
_audit_creation_date 2011-11-29
_audit_creation_method CSD-ConQuest-V1
_database_code_CSD OBAHIK
_database_code_depnum_ccdc_archive 'CCDC 805747'
_chemical_formula_sum 'C30 H22 N4 O5'
_chemical_formula_moiety
;
C30 H22 N4 O5
;
_journal_coden_Cambridge 1336
_journal_volume 13
_journal_year 2011
_journal_page_first 3348
_journal_name_full 'Org.Lett. '
loop_
_publ_author_name
"Hong-Ping Deng"
"Min Shi"
_chemical_name_systematic
;
Ethyl 
1'-benzyl-5,5-dicyano-2-(4-nitrophenyl)-2'-oxo-1',2'-dihydrospiro[cyclopent-3-
ene-1,3'-indole]-3-carboxylate
;
_cell_volume   5272.187
_exptl_crystal_colour 'colorless'
_exptl_crystal_density_diffrn 1.307
_exptl_crystal_description 'prismatic'
_diffrn_ambient_temperature 293
#These two values have been output from a single CSD field.
_refine_ls_R_factor_gt 0.0476
_refine_ls_wR_factor_gt 0.0476
_symmetry_cell_setting orthorhombic
_symmetry_space_group_name_H-M 'P c c n'
_symmetry_Int_Tables_number 56
loop_
_symmetry_equiv_pos_site_id
_symmetry_equiv_pos_as_xyz
1 x,y,z
2 1/2-x,1/2-y,z
3 -x,1/2+y,1/2-z
4 1/2+x,-y,1/2-z
5 -x,-y,-z
6 -1/2+x,-1/2+y,-z
7 x,-1/2-y,-1/2+z
8 -1/2-x,y,-1/2+z
_cell_length_a 9.1650(11)
_cell_length_b 18.929(2)
_cell_length_c 30.390(4)
_cell_angle_alpha 90
_cell_angle_beta 90
_cell_angle_gamma 90
_cell_formula_units_Z 8
loop_
_atom_type_symbol
_atom_type_radius_bond
C 0.68
H 0.23
N 0.68
O 0.68
loop_
_atom_site_label
_atom_site_type_symbol
_atom_site_fract_x
_atom_site_fract_y
_atom_site_fract_z
N1 N 0.61763(14) 0.44534(7) 0.13570(4)
N2 N 0.75314(19) 0.38756(9) 0.25506(6)
N3 N 1.17145(17) 0.42528(9) 0.19983(5)
N4 N 0.5478(2) 0.70918(10) 0.02263(7)
O1 O 0.59959(12) 0.52356(6) 0.19295(4)
O2 O 0.9946(2) 0.71323(7) 0.17782(5)
O3 O 0.93514(17) 0.68935(7) 0.24774(5)
O4 O 0.5775(3) 0.69920(11) -0.01602(6)
O5 O 0.4472(2) 0.74653(11) 0.03479(7)
C1 C 0.90717(16) 0.47626(8) 0.20836(5)
C2 C 0.91922(17) 0.54950(8) 0.22811(5)
H1 H 0.92820 0.55870 0.25800
C3 C 0.91534(17) 0.59844(8) 0.19737(5)
C4 C 0.89844(17) 0.56809(8) 0.15155(5)
H2 H 0.99640 0.56330 0.13900
C5 C 0.84022(16) 0.49190(8) 0.16134(5)
C6 C 0.67133(17) 0.49093(8) 0.16618(5)
C7 C 0.73085(18) 0.41291(8) 0.11144(5)
C8 C 0.86494(17) 0.43850(8) 0.12540(5)
C9 C 0.9918(2) 0.41598(9) 0.10499(6)
H3 H 1.08180 0.43460 0.11310
C10 C 0.9819(2) 0.36524(11) 0.07229(6)
H4 H 1.06620 0.34890 0.05860
C11 C 0.8479(2) 0.33881(10) 0.05989(6)
H5 H 0.84360 0.30400 0.03830
C12 C 0.7194(2) 0.36266(10) 0.07874(6)
H6 H 0.62920 0.34550 0.06970
C13 C 0.46060(18) 0.43345(9) 0.12975(6)
H7 H 0.41430 0.43120 0.15840
H8 H 0.44610 0.38820 0.11540
C14 C 0.38757(18) 0.49059(10) 0.10272(6)
C15 C 0.3754(2) 0.48419(13) 0.05780(7)
H9 H 0.41350 0.44460 0.04380
C16 C 0.3076(3) 0.53582(17) 0.03323(8)
H10 H 0.29990 0.53070 0.00290
C17 C 0.2515(3) 0.59438(15) 0.0533(1)
H11 H 0.20590 0.62920 0.03660
C18 C 0.2626(2) 0.60183(12) 0.09813(9)
H12 H 0.22460 0.64170 0.11180
C19 C 0.3305(2) 0.54978(11) 0.12301(7)
H13 H 0.33760 0.55480 0.15340
C20 C 0.81920(18) 0.42639(8) 0.23475(5)
C21 C 1.05653(17) 0.44660(9) 0.20412(5)
C22 C 0.80595(17) 0.60750(8) 0.11850(5)
C23 C 0.8354(2) 0.59829(10) 0.07401(6)
H14 H 0.91270 0.56960 0.06540
C24 C 0.7507(2) 0.63135(11) 0.04245(6)
H15 H 0.77000 0.62510 0.01270
C25 C 0.6374(2) 0.67374(9) 0.05607(6)
C26 C 0.6057(2) 0.68441(9) 0.09969(7)
H16 H 0.52900 0.71360 0.10810
C27 C 0.69093(19) 0.65065(9) 0.13076(6)
H17 H 0.67060 0.65700 0.16050
C28 C 0.9516(2) 0.67370(9) 0.20556(6)
C29 C 0.9895(4) 0.75740(11) 0.26254(9)
H18 H 0.91870 0.79420 0.25630
H19 H 1.07980 0.76890 0.24750
C30 C 1.0147(4) 0.75197(15) 0.31054(10)
H20 H 0.92410 0.74190 0.32510
H21 H 1.05330 0.79580 0.32130
H22 H 1.08300 0.71470 0.31630
#END
