
#######################################################################
#
#                 Cambridge Crystallographic Data Centre
#                                CCDC
#
#######################################################################
#
# If this CIF has been generated from an entry in the Cambridge
# Structural Database, then it will include bibliographic, chemical,
# crystal, experimental, refinement or atomic coordinate data resulting
# from the CCDC's data processing and validation procedures.
#
#######################################################################

data_CSD_CIF_OBAHOQ
_audit_creation_date 2011-11-29
_audit_creation_method CSD-ConQuest-V1
_database_code_CSD OBAHOQ
_database_code_depnum_ccdc_archive 'CCDC 812838'
_chemical_formula_sum 'C32 H27 N3 O7'
_chemical_formula_moiety
;
C32 H27 N3 O7
;
_journal_coden_Cambridge 1336
_journal_volume 13
_journal_year 2011
_journal_page_first 3348
_journal_name_full 'Org.Lett. '
loop_
_publ_author_name
"Hong-Ping Deng"
"Min Shi"
_chemical_name_systematic
;
Diethyl 
1'-benzyl-2-cyano-5-(4-nitrophenyl)-2'-oxo-1',2'-dihydrospiro[cyclopent-3-ene-
1,3'-indole]-2,4-dicarboxylate
;
_cell_volume   2772.980
_exptl_crystal_colour 'colorless'
_exptl_crystal_density_diffrn 1.355
_exptl_crystal_description 'block'
_diffrn_ambient_temperature 133
#These two values have been output from a single CSD field.
_refine_ls_R_factor_gt 0.0398
_refine_ls_wR_factor_gt 0.0398
_symmetry_cell_setting monoclinic
_symmetry_space_group_name_H-M 'P 21/c'
_symmetry_Int_Tables_number 14
loop_
_symmetry_equiv_pos_site_id
_symmetry_equiv_pos_as_xyz
1 x,y,z
2 -x,1/2+y,1/2-z
3 -x,-y,-z
4 x,-1/2-y,-1/2+z
_cell_length_a 16.2244(16)
_cell_length_b 13.6922(14)
_cell_length_c 13.2558(13)
_cell_angle_alpha 90
_cell_angle_beta 109.666(2)
_cell_angle_gamma 90
_cell_formula_units_Z 4
loop_
_atom_type_symbol
_atom_type_radius_bond
C 0.68
H 0.23
N 0.68
O 0.68
loop_
_atom_site_label
_atom_site_type_symbol
_atom_site_fract_x
_atom_site_fract_y
_atom_site_fract_z
N1 N 0.24213(7) 0.57558(9) 0.41252(9)
N2 N -0.10358(9) 0.7639(1) 0.37538(15)
N3 N 0.54019(8) 0.73067(11) 0.71037(11)
O1 O 0.26579(7) 0.71459(8) 0.32821(8)
O2 O -0.13919(8) 0.79186(10) 0.28358(14)
O3 O -0.14307(8) 0.73251(10) 0.43266(14)
O4 O 0.22248(6) 0.99273(7) 0.57692(8)
O5 O 0.31993(7) 1.04491(7) 0.50167(9)
O6 O 0.47187(9) 0.76819(9) 0.39101(10)
O7 O 0.45758(7) 0.61730(7) 0.45222(8)
C1 C 0.27281(8) 0.66775(10) 0.4088(1)
C2 C 0.32075(8) 0.70147(9) 0.52553(10)
C3 C 0.32055(8) 0.60977(9) 0.58811(10)
C4 C 0.35325(8) 0.59119(10) 0.6968(1)
H1 H 0.38490 0.63980 0.74560
C5 C 0.3387(1) 0.49923(11) 0.73344(12)
H2 H 0.36150 0.48490 0.80780
C6 C 0.29151(10) 0.42900(11) 0.66253(12)
H3 H 0.28320 0.36660 0.68890
C7 C 0.25586(9) 0.44807(10) 0.55289(12)
H4 H 0.22230 0.40040 0.50430
C8 C 0.27137(8) 0.53893(10) 0.51796(10)
C9 C 0.19268(9) 0.52088(11) 0.31622(11)
H5 H 0.20760 0.45070 0.32830
H6 H 0.21090 0.54300 0.25580
C10 C 0.09449(9) 0.53256(10) 0.28537(12)
C11 C 0.05102(10) 0.51847(14) 0.35828(13)
H7 H 0.08350 0.50260 0.43060
C12 C -0.03944(11) 0.52729(14) 0.32660(14)
H8 H -0.06840 0.51730 0.37720
C13 C -0.08727(10) 0.55047(12) 0.22197(15)
H9 H -0.14910 0.55690 0.20040
C14 C -0.04466(11) 0.56425(13) 0.14899(15)
H10 H -0.07740 0.58000 0.07680
C15 C 0.04575(10) 0.55529(12) 0.18010(13)
H11 H 0.07440 0.56480 0.12900
C16 C 0.40984(8) 0.7504(1) 0.53049(11)
C17 C 0.38752(9) 0.85797(10) 0.51615(12)
H12 H 0.42320 0.90580 0.49920
C18 C 0.31213(8) 0.87735(9) 0.53014(10)
C19 C 0.26962(8) 0.78749(9) 0.55736(10)
H13 H 0.28430 0.78580 0.63690
C20 C 0.17137(8) 0.78015(9) 0.50722(11)
C21 C 0.12346(9) 0.73674(10) 0.56506(12)
H14 H 0.15300 0.71140 0.63460
C22 C 0.0332(1) 0.73047(11) 0.52168(14)
H15 H 0.00010 0.70110 0.56070
C23 C -0.00756(9) 0.76782(10) 0.42050(14)
C24 C 0.03766(10) 0.81043(11) 0.36056(13)
H16 H 0.00770 0.83510 0.29080
C25 C 0.12794(9) 0.81634(10) 0.40471(12)
H17 H 0.16050 0.84530 0.36490
C26 C 0.27865(8) 0.97704(9) 0.53855(10)
C27 C 0.30302(13) 1.14660(11) 0.52174(15)
H18 H 0.34220 1.16700 0.59350
H19 H 0.24170 1.15440 0.51920
C28 C 0.31915(14) 1.20705(12) 0.43820(17)
H20 H 0.37600 1.18970 0.43230
H21 H 0.31940 1.27620 0.45740
H22 H 0.27280 1.19540 0.36940
C29 C 0.48057(9) 0.7367(1) 0.63407(11)
C30 C 0.44848(9) 0.71344(10) 0.44623(11)
C31 C 0.49347(10) 0.57057(12) 0.37615(12)
H23 H 0.53910 0.52270 0.41400
H24 H 0.52040 0.62040 0.34290
C32 C 0.42110(13) 0.52039(18) 0.29235(15)
H25 H 0.39630 0.46950 0.32560
H26 H 0.44370 0.49060 0.23970
H27 H 0.37550 0.56790 0.25640
#END
