
#######################################################################
#
#                 Cambridge Crystallographic Data Centre
#                                CCDC
#
#######################################################################
#
# If this CIF has been generated from an entry in the Cambridge
# Structural Database, then it will include bibliographic, chemical,
# crystal, experimental, refinement or atomic coordinate data resulting
# from the CCDC's data processing and validation procedures.
#
#######################################################################

data_CSD_CIF_OBAKAF
_audit_creation_date 2011-11-29
_audit_creation_method CSD-ConQuest-V1
_database_code_CSD OBAKAF
_database_code_depnum_ccdc_archive 'CCDC 820905'
_chemical_formula_sum 'C24 H21 N1 O3'
_chemical_formula_moiety
;
C24 H21 N1 O3
;
_journal_coden_Cambridge 1336
_journal_volume 13
_journal_year 2011
_journal_page_first 3442
_journal_name_full 'Org.Lett. '
loop_
_publ_author_name
"D.Chaiyaveij"
"L.Cleary"
"A.S.Batsanov"
"T.B.Marder"
"K.J.Shea"
"A.Whiting"
_chemical_name_systematic
;
Benzyl 
1,8-dimethyl-15-oxa-16-azatetracyclo[6.6.2.0^2,7^.0^9,14^]hexadeca-2,4,6,9,11,
13-hexaene-16-carboxylate
;
_cell_volume   1892.205
_exptl_crystal_colour 'colorless'
_exptl_crystal_density_diffrn 1.304
_exptl_crystal_description 'prism'
_diffrn_ambient_temperature 120
#These two values have been output from a single CSD field.
_refine_ls_R_factor_gt 0.039
_refine_ls_wR_factor_gt 0.039
_symmetry_cell_setting monoclinic
_symmetry_space_group_name_H-M 'P 21/c'
_symmetry_Int_Tables_number 14
loop_
_symmetry_equiv_pos_site_id
_symmetry_equiv_pos_as_xyz
1 x,y,z
2 -x,1/2+y,1/2-z
3 -x,-y,-z
4 x,-1/2-y,-1/2+z
_cell_length_a 8.3176(3)
_cell_length_b 16.6568(4)
_cell_length_c 13.6584(4)
_cell_angle_alpha 90
_cell_angle_beta 90.566(7)
_cell_angle_gamma 90
_cell_formula_units_Z 4
loop_
_atom_type_symbol
_atom_type_radius_bond
C 0.68
H 0.23
N 0.68
O 0.68
loop_
_atom_site_label
_atom_site_type_symbol
_atom_site_fract_x
_atom_site_fract_y
_atom_site_fract_z
O1 O 0.25469(12) 0.56511(5) 0.19198(7)
O2 O 0.36897(10) 0.43314(5) 0.15288(6)
O3 O 0.25234(11) 0.54477(5) 0.35518(6)
N1 N 0.30026(12) 0.44052(6) 0.24892(7)
C1 C 0.51544(15) 0.38225(7) 0.15399(9)
C2 C 0.27360(14) 0.52071(7) 0.27267(9)
C3 C 0.1882(2) 0.64482(8) 0.20751(10)
H1 H 0.109(2) 0.6428(11) 0.2638(13)
H2 H 0.276(2) 0.6809(10) 0.2276(12)
C4 C 0.37662(14) 0.38392(7) 0.32252(8)
C5 C 0.55173(14) 0.41037(7) 0.32789(9)
C6 C 0.62464(14) 0.41153(7) 0.23559(9)
C7 C 0.45540(15) 0.29996(7) 0.18319(9)
C8 C 0.37402(14) 0.30174(7) 0.27241(9)
C9 C 0.11237(15) 0.67045(8) 0.11229(9)
C10 C 0.01015(16) 0.61875(9) 0.06079(10)
H3 H -0.010(2) 0.5642(10) 0.0870(12)
C11 C -0.06053(18) 0.64357(10) -0.02652(11)
H4 H -0.129(2) 0.6077(11) -0.0614(13)
C12 C -0.03001(19) 0.71944(10) -0.06322(11)
H5 H -0.078(2) 0.7367(11) -0.1234(13)
C13 C 0.07031(19) 0.77086(9) -0.01251(11)
H6 H 0.095(2) 0.8241(12) -0.0390(13)
C14 C 0.14126(16) 0.74654(8) 0.07538(10)
H7 H 0.211(2) 0.7833(10) 0.1121(12)
C15 C 0.57981(18) 0.38975(9) 0.0516(1)
H8 H 0.497(2) 0.3712(10) 0.0033(12)
H9 H 0.673(2) 0.3548(10) 0.0447(12)
H10 H 0.609(2) 0.4467(10) 0.0382(12)
C16 C 0.78373(16) 0.43562(8) 0.22677(11)
H11 H 0.8332(18) 0.4358(9) 0.1627(11)
C17 C 0.86896(16) 0.45826(8) 0.31078(11)
H12 H 0.980(2) 0.4749(10) 0.3057(11)
C18 C 0.79716(16) 0.45722(8) 0.40133(11)
H13 H 0.8574(19) 0.4725(9) 0.4599(11)
C19 C 0.63673(15) 0.43371(7) 0.41087(10)
H14 H 0.5839(19) 0.4328(9) 0.4766(12)
C20 C 0.47192(16) 0.22857(8) 0.13207(10)
H15 H 0.5331(19) 0.2276(9) 0.0713(12)
C21 C 0.40542(17) 0.15873(8) 0.17042(11)
H16 H 0.417(2) 0.1079(10) 0.1364(12)
C22 C 0.32197(17) 0.16085(8) 0.25747(11)
H17 H 0.275(2) 0.1127(10) 0.2824(12)
C23 C 0.30521(16) 0.23261(8) 0.30947(10)
H18 H 0.2476(19) 0.2321(9) 0.3716(12)
C24 C 0.28672(16) 0.38327(8) 0.41839(9)
H19 H 0.169(2) 0.3729(10) 0.4061(11)
H20 H 0.3267(18) 0.3386(9) 0.4590(11)
H21 H 0.2989(19) 0.4348(10) 0.4548(12)
#END
