
#######################################################################
#
#                 Cambridge Crystallographic Data Centre
#                                CCDC
#
#######################################################################
#
# If this CIF has been generated from an entry in the Cambridge
# Structural Database, then it will include bibliographic, chemical,
# crystal, experimental, refinement or atomic coordinate data resulting
# from the CCDC's data processing and validation procedures.
#
#######################################################################

data_CSD_CIF_OBASOZ
_audit_creation_date 2001-09-12
_audit_creation_method CSD-ConQuest-V1
_database_code_CSD OBASOZ
_chemical_formula_sum 'C22 H16 N2 O2'
_chemical_formula_moiety
;
C22 H16 N2 O2
;
_journal_coden_Cambridge 154
_journal_volume 52
_journal_year 1999
_journal_page_first 1047
_journal_name_full 'Aust.J.Chem. '
loop_
_publ_author_name
"V.T.Nguyen"
"A.Norman"
"M.M.Rahman"
"R.Bishop"
"D.C.Craig"
"M.L.Scudder"
_chemical_name_systematic
;
5b,6,12b,13-tetrahydropentaleno(1,2-b:4,5-b')diquinoline 5,12-dioxide
;
_chemical_melting_point 528.15
_cell_volume    812.703
_exptl_crystal_density_diffrn 1.39
_exptl_special_details
;
Melts with decomposition.

;
_exptl_crystal_preparation 'methanol'
_diffrn_ambient_temperature 294.15
#These two values have been output from a single CSD field.
_refine_ls_R_factor_gt 0.046
_refine_ls_wR_factor_gt 0.046
_symmetry_cell_setting triclinic
_symmetry_space_group_name_H-M 'P -1'
_symmetry_Int_Tables_number 2
loop_
_symmetry_equiv_pos_site_id
_symmetry_equiv_pos_as_xyz
1 x,y,z
2 -x,-y,-z
_cell_length_a 6.668(2)
_cell_length_b 11.573(4)
_cell_length_c 11.656(3)
_cell_angle_alpha 107.49(2)
_cell_angle_beta 96.08(2)
_cell_angle_gamma 104.86(2)
_cell_formula_units_Z 2
loop_
_atom_type_symbol
_atom_type_radius_bond
C 0.68
H 0.23
N 0.68
O 0.68
loop_
_atom_site_label
_atom_site_type_symbol
_atom_site_fract_x
_atom_site_fract_y
_atom_site_fract_z
O1 O 0.4930(3) 0.2475(2) 0.1416(2)
O2 O -0.1823(3) 0.6305(2) 0.2651(2)
N1 N 0.4248(4) 0.2815(2) 0.2446(2)
N2 N -0.0220(3) 0.6483(2) 0.2095(2)
C1 C 0.1824(4) 0.3733(3) 0.1510(2)
C2 C 0.2828(4) 0.3452(3) 0.2554(2)
C3 C 0.2078(4) 0.3839(3) 0.3637(2)
C4 C 0.0575(4) 0.4575(3) 0.3478(2)
C5 C 0.0231(4) 0.4411(3) 0.2086(2)
C6 C 0.0807(4) 0.5627(3) 0.1825(2)
C7 C 0.2532(4) 0.5778(3) 0.1220(2)
C8 C 0.3344(4) 0.4652(3) 0.1025(2)
C9 C 0.4964(4) 0.2476(3) 0.3439(3)
C10 C 0.6411(5) 0.1775(3) 0.3313(3)
C11 C 0.7024(5) 0.1398(3) 0.4264(3)
C12 C 0.6224(5) 0.1692(3) 0.5337(3)
C13 C 0.4844(5) 0.2393(3) 0.5477(3)
C14 C 0.4166(4) 0.2808(3) 0.4519(2)
C15 C 0.2734(5) 0.3537(3) 0.4632(2)
C16 C 0.0407(5) 0.7579(3) 0.1787(2)
C17 C -0.0703(5) 0.8470(3) 0.2060(3)
C18 C -0.0091(6) 0.9527(3) 0.1727(3)
C19 C 0.1609(6) 0.9721(3) 0.1116(3)
C20 C 0.2692(5) 0.8868(3) 0.0862(3)
C21 C 0.2135(4) 0.7750(3) 0.1183(2)
C22 C 0.3202(4) 0.6832(3) 0.0902(2)
H1 H 0.10400 0.29240 0.08240
H2 H 0.12080 0.54930 0.39930
H3 H -0.07950 0.42200 0.37070
H4 H -0.12590 0.38930 0.16690
H5 H 0.48250 0.49160 0.14960
H6 H 0.33060 0.42360 0.01333
H7 H 0.69830 0.15550 0.25430
H8 H 0.80620 0.09030 0.41880
H9 H 0.66660 0.13870 0.60110
H10 H 0.43090 0.26140 0.62590
H11 H 0.22200 0.38210 0.54140
H12 H -0.19190 0.83390 0.24890
H13 H -0.08670 1.01730 0.19220
H14 H 0.20150 1.04920 0.08700
H15 H 0.39120 0.90240 0.04400
H16 H 0.44280 0.69500 0.04780
#END
