
#######################################################################
#
#                 Cambridge Crystallographic Data Centre
#                                CCDC
#
#######################################################################
#
# If this CIF has been generated from an entry in the Cambridge
# Structural Database, then it will include bibliographic, chemical,
# crystal, experimental, refinement or atomic coordinate data resulting
# from the CCDC's data processing and validation procedures.
#
#######################################################################

data_CSD_CIF_OBERAQ
_audit_creation_date 2011-12-12
_audit_creation_method CSD-ConQuest-V1
_database_code_CSD OBERAQ
_database_code_depnum_ccdc_archive 'CCDC 842420'
_chemical_formula_sum 'C72 H56 N8 O20'
_chemical_formula_moiety
;
C72 H56 N8 O20
;
_journal_coden_Cambridge 1078
_journal_year 2011
_journal_name_full 'CSD Communication(Private Communication) '
loop_
_publ_author_name
"V.Bohmer"
"C.Danila"
"M.Bolte"
_chemical_name_systematic
;
2,2',2'',2'''-((5,11,17,23-Tetranitrocalix(4)arene-25,26,27,28-tetrayl)tetraki
s(oxypropane-3,1-diyl))tetrakis(1H-isoindole-1,3(2H)-dione)
;
_cell_volume   3224.545
_exptl_crystal_colour 'colorless'
_exptl_crystal_density_diffrn 1.394
_exptl_special_details
;
contribution from Institut fuer Anorganische 
Chemie,J.-W.-Goethe-Universitaet, Max-von-Laue-Str. 7,D-60438 
Frankfurt/Main,Germany
;
_exptl_crystal_description 'block'
_diffrn_ambient_temperature 173
#These two values have been output from a single CSD field.
_refine_ls_R_factor_gt 0.0411
_refine_ls_wR_factor_gt 0.0411
_symmetry_cell_setting triclinic
_symmetry_space_group_name_H-M 'P -1'
_symmetry_Int_Tables_number 2
loop_
_symmetry_equiv_pos_site_id
_symmetry_equiv_pos_as_xyz
1 x,y,z
2 -x,-y,-z
_cell_length_a 13.5443(11)
_cell_length_b 13.601(1)
_cell_length_c 18.4301(15)
_cell_angle_alpha 74.029(6)
_cell_angle_beta 81.116(7)
_cell_angle_gamma 86.742(6)
_cell_formula_units_Z 2
loop_
_atom_type_symbol
_atom_type_radius_bond
C 0.68
H 0.23
N 0.68
O 0.68
loop_
_atom_site_label
_atom_site_type_symbol
_atom_site_fract_x
_atom_site_fract_y
_atom_site_fract_z
C1 C 0.11059(14) 0.95665(14) 0.26132(10)
H1 H 0.11470 1.00840 0.28940
H2 H 0.05570 0.97790 0.23030
C2 C 0.08436(13) 0.85488(15) 0.31873(10)
C3 C 0.08684(13) 0.76360(15) 0.29739(10)
C4 C 0.06858(12) 0.66865(15) 0.35138(10)
C5 C 0.04111(13) 0.66782(15) 0.42738(10)
H3 H 0.02690 0.60490 0.46510
C6 C 0.03460(14) 0.75817(16) 0.44789(10)
C7 C 0.05709(14) 0.85117(15) 0.39518(10)
H4 H 0.05390 0.91210 0.41120
N1 N 0.00651(14) 0.75579(15) 0.52890(9)
O1 O -0.01206(14) 0.67306(13) 0.57535(8)
O2 O 0.00253(16) 0.83644(14) 0.54598(9)
O3 O 0.11042(9) 0.76488(10) 0.22138(7)
C8 C 0.02595(14) 0.79160(16) 0.17973(10)
H5 H 0.00290 0.86230 0.17860
H6 H -0.03000 0.74480 0.20510
C9 C 0.05816(15) 0.78311(17) 0.09933(10)
H7 H 0.07810 0.71160 0.10060
H8 H 0.11660 0.82710 0.07520
C10 C -0.02765(16) 0.81619(16) 0.05294(11)
H9 H -0.08980 0.78310 0.08300
H10 H -0.03780 0.89110 0.04270
N2 N -0.00823(13) 0.78912(13) -0.01927(9)
C11 C 0.02127(14) 0.85747(16) -0.09004(11)
O4 O 0.03377(11) 0.94757(11) -0.10143(8)
C12 C 0.02930(14) 0.79511(16) -0.14632(11)
C13 C 0.05663(15) 0.82386(18) -0.22457(12)
H11 H 0.07690 0.89160 -0.25100
C14 C 0.05318(16) 0.7494(2) -0.26304(12)
H12 H 0.07060 0.76680 -0.31690
C15 C 0.02489(16) 0.6509(2) -0.22411(13)
H13 H 0.02210 0.60210 -0.25200
C16 C 0.00024(16) 0.62095(18) -0.14479(13)
H14 H -0.01690 0.55240 -0.11790
C17 C 0.00191(15) 0.69566(16) -0.10736(11)
C18 C -0.02336(15) 0.69067(16) -0.02457(11)
O5 O -0.05201(13) 0.61943(12) 0.02915(9)
C19 C 0.07492(14) 0.57045(15) 0.32751(11)
H15 H 0.02050 0.57130 0.29710
H16 H 0.06260 0.51270 0.37400
C20 C 0.17339(14) 0.55001(14) 0.2812(1)
C21 C 0.26343(14) 0.53662(14) 0.31173(10)
C22 C 0.35524(14) 0.52487(14) 0.26767(11)
C23 C 0.35478(15) 0.51766(15) 0.19425(10)
H17 H 0.41550 0.50660 0.16390
C24 C 0.26560(16) 0.52668(15) 0.16536(10)
C25 C 0.17556(15) 0.54432(15) 0.20704(11)
H18 H 0.11570 0.55250 0.18500
N3 N 0.26672(15) 0.51937(16) 0.08711(10)
O6 O 0.19076(14) 0.54376(18) 0.05735(10)
O7 O 0.34383(15) 0.48854(17) 0.05491(9)
O8 O 0.26205(10) 0.53816(10) 0.38683(7)
C26 C 0.25491(17) 0.43669(16) 0.43998(11)
H19 H 0.30520 0.39000 0.42160
H20 H 0.18770 0.40870 0.44450
C27 C 0.27354(16) 0.44602(17) 0.51651(11)
H21 H 0.34030 0.47570 0.51080
H22 H 0.27380 0.37700 0.55250
C28 C 0.19559(16) 0.51220(19) 0.54940(11)
H23 H 0.19040 0.57890 0.51120
H24 H 0.12980 0.47880 0.56010
N4 N 0.21920(12) 0.52968(14) 0.61960(9)
C29 C 0.20148(14) 0.45981(17) 0.69103(11)
O9 O 0.16566(12) 0.37610(13) 0.70338(9)
C30 C 0.23237(14) 0.51020(17) 0.74549(11)
C31 C 0.22364(17) 0.4776(2) 0.82405(12)
H25 H 0.19760 0.41250 0.85200
C32 C 0.2555(2) 0.5462(2) 0.86057(14)
H26 H 0.25040 0.52740 0.91460
C33 C 0.2941(2) 0.6405(2) 0.81876(17)
H27 H 0.31670 0.68430 0.84480
C34 C 0.30056(19) 0.6724(2) 0.74055(16)
H28 H 0.32610 0.73760 0.71240
C35 C 0.26859(15) 0.60619(18) 0.70460(12)
C36 C 0.25725(16) 0.62155(18) 0.62296(12)
O10 O 0.27219(14) 0.69610(14) 0.56936(10)
C37 C 0.45318(15) 0.52174(16) 0.29858(11)
H29 H 0.45160 0.46500 0.34580
H30 H 0.50840 0.50720 0.26080
C38 C 0.47454(13) 0.62048(15) 0.31591(10)
C39 C 0.48290(13) 0.71401(16) 0.25952(10)
C40 C 0.49313(13) 0.80602(16) 0.27653(10)
C41 C 0.50474(14) 0.80391(16) 0.35083(11)
H31 H 0.51520 0.86530 0.36350
C42 C 0.50074(13) 0.71102(15) 0.40562(10)
C43 C 0.48417(13) 0.62039(15) 0.39004(10)
H32 H 0.47940 0.55830 0.42960
N5 N 0.51493(13) 0.70905(14) 0.48359(9)
O11 O 0.49513(13) 0.62990(12) 0.53464(8)
O12 O 0.54742(14) 0.78533(13) 0.49393(9)
O13 O 0.48048(10) 0.71593(11) 0.18421(7)
C44 C 0.57856(19) 0.6937(2) 0.14763(12)
H33 H 0.60600 0.63030 0.17970
H34 H 0.62410 0.75030 0.14270
C45 C 0.5734(2) 0.6804(2) 0.06983(13)
H35 H 0.52000 0.63150 0.07420
H36 H 0.63750 0.65050 0.05130
C46 C 0.55315(18) 0.77910(17) 0.01202(11)
H37 H 0.48050 0.79460 0.01790
H38 H 0.58770 0.83560 0.02150
N6 N 0.58763(13) 0.77261(14) -0.06609(9)
C47 C 0.52499(16) 0.77103(17) -0.11890(12)
O14 O 0.43450(12) 0.77871(16) -0.10859(10)
C48 C 0.59251(17) 0.75978(16) -0.18832(11)
C49 C 0.5695(2) 0.75179(18) -0.25758(13)
H39 H 0.50240 0.75440 -0.26730
C50 C 0.6494(2) 0.73981(18) -0.31166(13)
H40 H 0.63650 0.73360 -0.35940
C51 C 0.7473(2) 0.73662(18) -0.29799(13)
H41 H 0.80000 0.72770 -0.33620
C52 C 0.76972(18) 0.74632(18) -0.22880(13)
H42 H 0.83680 0.74550 -0.21940
C53 C 0.68997(16) 0.75720(16) -0.17452(11)
C54 C 0.68863(16) 0.76715(16) -0.09574(11)
O15 O 0.75735(12) 0.77113(14) -0.06218(9)
C55 C 0.49024(14) 0.90742(16) 0.21658(11)
H43 H 0.54270 0.90660 0.17290
H44 H 0.50620 0.96250 0.23830
C56 C 0.38999(14) 0.93218(14) 0.18752(10)
C57 C 0.29933(14) 0.93421(14) 0.23589(10)
C58 C 0.20783(14) 0.95652(14) 0.20801(10)
C59 C 0.20680(14) 0.97858(14) 0.13016(10)
H45 H 0.14590 0.99530 0.10970
C60 C 0.29621(14) 0.97587(14) 0.08268(10)
C61 C 0.38680(14) 0.95354(14) 0.10977(10)
H46 H 0.44660 0.95280 0.07540
N7 N 0.29380(13) 0.99741(15) 0.00046(9)
O16 O 0.37298(11) 0.99391(14) -0.04146(8)
O17 O 0.21396(12) 1.01857(18) -0.02307(9)
O18 O 0.29709(10) 0.90925(10) 0.31392(7)
C62 C 0.32241(18) 0.99111(17) 0.34228(11)
H47 H 0.28530 1.05420 0.31970
H48 H 0.39480 1.00470 0.32810
C63 C 0.29522(18) 0.96088(19) 0.42902(12)
H49 H 0.22240 0.97000 0.44310
H50 H 0.31290 0.88800 0.45020
C64 C 0.3508(2) 1.0263(3) 0.46069(14)
H51 H 0.42160 1.00320 0.45810
H52 H 0.34890 1.09740 0.42810
N8 N 0.31240(16) 1.02584(16) 0.53967(10)
C65 C 0.25225(19) 1.1048(2) 0.55922(14)
O19 O 0.21689(16) 1.17554(17) 0.51429(12)
C66 C 0.24546(16) 1.08268(19) 0.64342(13)
C67 C 0.20097(19) 1.1374(2) 0.69262(18)
H53 H 0.16400 1.19880 0.67540
C68 C 0.2130(2) 1.0980(3) 0.76938(17)
H54 H 0.18500 1.13470 0.80480
C69 C 0.26373(19) 1.0083(3) 0.79508(14)
H55 H 0.26700 0.98260 0.84810
C70 C 0.31047(17) 0.9540(2) 0.74537(12)
H56 H 0.34720 0.89260 0.76270
C71 C 0.30073(16) 0.99403(18) 0.66953(11)
C72 C 0.34741(17) 0.95858(18) 0.60248(12)
O20 O 0.40599(14) 0.88827(15) 0.60055(11)
#END
