
#######################################################################
#
#                 Cambridge Crystallographic Data Centre
#                                CCDC
#
#######################################################################
#
# If this CIF has been generated from an entry in the Cambridge
# Structural Database, then it will include bibliographic, chemical,
# crystal, experimental, refinement or atomic coordinate data resulting
# from the CCDC's data processing and validation procedures.
#
#######################################################################

data_CSD_CIF_OBEZIH
_audit_creation_date 2016-11-18
_audit_creation_method CSD-ConQuest-V1
_database_code_CSD OBEZIH
_database_code_depnum_ccdc_archive 'CCDC 1505994'
_chemical_formula_sum 'C30 H34 N2 O9'
_chemical_formula_moiety
;
C30 H34 N2 O9
;
_journal_coden_Cambridge 182
_journal_volume 53
_journal_year 2017
_journal_page_first 111
_journal_name_full 'Chem.Commun. '
loop_
_publ_author_name
"M.Coffinet"
"F.Massicot"
"J.Joseph"
"J.-B.Behr"
"F.Jaroschik"
"J.-L.Vasse"
_chemical_name_systematic
;
2-(2-hydroxy-1,7,7-trimethylbicyclo[2.2.1]heptan-2-yl)-6-((4-nitrobenzoyl)oxy)
cyclohexyl 4-nitrobenzoate
;
_cell_volume   1403.562
_exptl_crystal_colour 'colorless'
_exptl_crystal_density_diffrn 1.341
_exptl_special_details
;
Absolute configuration

;
_exptl_crystal_description 'prismatic'
_diffrn_ambient_temperature 100
#These two values have been output from a single CSD field.
_refine_ls_R_factor_gt 0.0287
_refine_ls_wR_factor_gt 0.0287
_symmetry_cell_setting monoclinic
_symmetry_space_group_name_H-M 'P 21'
_symmetry_Int_Tables_number 4
loop_
_symmetry_equiv_pos_site_id
_symmetry_equiv_pos_as_xyz
1 x,y,z
2 -x,1/2+y,-z
_cell_length_a 9.7362(3)
_cell_length_b 11.7081(3)
_cell_length_c 13.2219(5)
_cell_angle_alpha 90
_cell_angle_beta 111.371(1)
_cell_angle_gamma 90
_cell_formula_units_Z 2
loop_
_atom_type_symbol
_atom_type_radius_bond
C 0.68
H 0.23
N 0.68
O 0.68
loop_
_atom_site_label
_atom_site_type_symbol
_atom_site_fract_x
_atom_site_fract_y
_atom_site_fract_z
O1 O 0.93978(10) 0.38548(8) 0.71365(7)
O2 O 1.13671(11) 0.50169(8) 0.74970(8)
O3 O 0.96228(10) 0.21935(8) 0.56821(7)
O4 O 0.95007(12) 0.39636(8) 0.49610(8)
O5 O 0.9884(1) 0.31202(7) 0.94435(7)
H1 H 1.06120 0.27450 0.98490
O6 O 0.34976(14) 0.06737(10) 0.12743(10)
O7 O 0.47654(15) 0.82474(11) 0.46482(10)
O8 O 0.28784(15) 0.24510(11) 0.10342(11)
N1 N 0.60144(16) 0.84921(11) 0.52632(10)
N2 N 0.37127(15) 0.16800(11) 0.15195(10)
O9 O 0.64526(17) 0.94783(10) 0.55110(13)
C1 C 1.00542(15) 0.48644(11) 0.71464(10)
C2 C 0.88589(14) 0.23639(10) 0.86843(10)
C3 C 0.89501(15) 0.57875(11) 0.66613(10)
C4 C 1.03809(13) 0.28836(10) 0.75307(10)
H2 H 1.12510 0.31300 0.81740
C5 C 0.90058(15) 0.30130(11) 0.49487(10)
C6 C 0.76099(15) 0.26166(11) 0.40883(10)
C7 C 0.74155(14) 0.30412(11) 0.80636(10)
H3 H 0.74930 0.38390 0.83270
H4 H 0.72110 0.30490 0.72730
C8 C 0.74725(16) 0.55547(12) 0.60735(10)
H5 H 0.71270 0.47890 0.59940
C9 C 0.50699(16) 0.20022(12) 0.24297(11)
C10 C 0.95784(14) 0.19234(11) 0.7881(1)
H6 H 0.87710 0.16350 0.72170
C11 C 0.72699(16) 0.14636(11) 0.38752(11)
H7 H 0.79120 0.08950 0.43090
C12 C 1.07277(15) 0.09596(11) 0.83052(10)
H8 H 1.15830 0.12470 0.89250
H9 H 1.02850 0.03180 0.85690
C13 C 0.64984(16) 0.64416(12) 0.56015(11)
H10 H 0.54910 0.62930 0.51850
C14 C 0.82850(15) 0.14251(11) 0.92877(10)
C15 C 0.53628(16) 0.31541(12) 0.26391(11)
H11 H 0.46960 0.37190 0.22210
C16 C 0.69903(16) 0.20600(12) 0.95104(12)
C17 C 0.66522(17) 0.34572(12) 0.34730(11)
H12 H 0.68880 0.42410 0.36280
C18 C 0.59937(16) 0.11494(12) 0.30292(12)
H13 H 0.57580 0.03670 0.28640
C19 C 0.73861(15) 0.05556(11) 0.84153(11)
H14 H 0.71170 -0.01190 0.87550
H15 H 0.79510 0.02990 0.79680
C20 C 0.94621(16) 0.69146(12) 0.68006(11)
H16 H 1.04740 0.70680 0.72010
C21 C 1.09148(14) 0.25176(11) 0.66268(10)
H17 H 1.14410 0.31660 0.64330
C22 C 0.70401(16) 0.75478(12) 0.57557(11)
C23 C 0.94288(16) 0.09014(11) 1.02934(11)
H18 H 0.89550 0.03330 1.06030
H19 H 0.98700 0.15010 1.08310
H20 H 1.01990 0.05320 1.00960
C24 C 0.84971(17) 0.78094(12) 0.63560(12)
H21 H 0.88260 0.85790 0.64610
C25 C 0.74306(18) 0.30859(13) 1.02846(12)
H22 H 0.65410 0.34810 1.02800
H23 H 0.80340 0.36130 1.00470
H24 H 0.79980 0.28190 1.10220
C26 C 0.62050(15) 0.23953(12) 0.83118(11)
H25 H 0.52740 0.28400 0.81610
C27 C 1.12551(16) 0.05289(11) 0.74144(11)
H26 H 1.19980 -0.00800 0.77140
H27 H 1.04110 0.01950 0.68170
C28 C 0.59904(16) 0.12349(12) 0.77197(12)
H28 H 0.59460 0.13290 0.69640
H29 H 0.50800 0.08510 0.77090
C29 C 1.19288(16) 0.14873(12) 0.69662(12)
H30 H 1.28780 0.17220 0.75270
H31 H 1.21350 0.12010 0.63310
C30 C 0.60588(18) 0.12766(14) 0.99424(14)
H32 H 0.66410 0.10500 1.06900
H33 H 0.57680 0.05940 0.94840
H34 H 0.51740 0.16870 0.99280
#END
