
#######################################################################
#
#                 Cambridge Crystallographic Data Centre
#                                CCDC
#
#######################################################################
#
# If this CIF has been generated from an entry in the Cambridge
# Structural Database, then it will include bibliographic, chemical,
# crystal, experimental, refinement or atomic coordinate data resulting
# from the CCDC's data processing and validation procedures.
#
#######################################################################

data_CSD_CIF_OBICUX
_audit_creation_date 2001-09-12
_audit_creation_method CSD-ConQuest-V1
_database_code_CSD OBICUX
_database_code_depnum_ccdc_archive 'CCDC 133817'
_chemical_formula_sum 'C11 H16 N4 O2'
_chemical_formula_moiety
;
C11 H16 N4 O2
;
_journal_coden_Cambridge 119
_journal_volume 528
_journal_year 2000
_journal_page_first 49
_journal_name_full 'J.Mol.Struct. '
loop_
_publ_author_name
"A.Schwartz"
"G.Beke"
"Z.Kovari"
"Z.Bocskey"
"O.Farkas"
"P.Matyus"
_chemical_name_systematic
;
1,5,8-Trimethyl-1,3,3a,4,5,8,9,9b-octahydroisoxazolo(3',4':4,5)pyrido(2,3-d)py
ridazin-9-one
;
_chemical_melting_point 473.15
_cell_volume   1123.901
_exptl_crystal_colour 'yellow'
_exptl_crystal_density_diffrn 1.396
_exptl_special_details
;
Melting point range 473.15-474.15K

;
_exptl_crystal_description 'needle'
_exptl_crystal_preparation 'acetone'
_diffrn_ambient_temperature 293
#These two values have been output from a single CSD field.
_refine_ls_R_factor_gt 0.0517
_refine_ls_wR_factor_gt 0.0517
_symmetry_cell_setting monoclinic
_symmetry_space_group_name_H-M 'P n'
_symmetry_Int_Tables_number 7
loop_
_symmetry_equiv_pos_site_id
_symmetry_equiv_pos_as_xyz
1 x,y,z
2 1/2+x,-y,1/2+z
_cell_length_a 8.755(5)
_cell_length_b 8.002(3)
_cell_length_c 16.187(5)
_cell_angle_alpha 90
_cell_angle_beta 97.66(3)
_cell_angle_gamma 90
_cell_formula_units_Z 4
loop_
_atom_type_symbol
_atom_type_radius_bond
C 0.68
H 0.23
N 0.68
O 0.68
loop_
_atom_site_label
_atom_site_type_symbol
_atom_site_fract_x
_atom_site_fract_y
_atom_site_fract_z
O1 O 1.0033(13) -0.5197(14) -0.5176(8)
O2 O 0.7647(6) -0.3676(11) -0.2934(5)
N1 N 1.2607(13) -0.5542(12) -0.4817(8)
N2 N 1.3959(14) -0.5224(14) -0.4335(8)
N3 N 1.2638(13) -0.2907(14) -0.2654(7)
N4 N 0.8839(12) -0.4747(10) -0.3215(7)
C1 C 1.2706(16) -0.6405(16) -0.5604(9)
H1 H 1.37490 -0.67620 -0.56220
H2 H 1.23980 -0.56590 -0.60610
H3 H 1.20380 -0.73620 -0.56470
C2 C 1.1195(14) -0.4925(15) -0.4653(6)
C3 C 1.1184(9) -0.4143(13) -0.3866(4)
C4 C 1.2547(11) -0.3745(16) -0.3377(7)
C5 C 1.3923(12) -0.4351(13) -0.3670(8)
H4 H 1.48600 -0.40920 -0.33540
C6 C 1.4074(14) -0.2675(16) -0.2088(9)
H5 H 1.38700 -0.20360 -0.16120
H6 H 1.48070 -0.20900 -0.23730
H7 H 1.44850 -0.37460 -0.19070
C7 C 1.1225(13) -0.2517(17) -0.2321(7)
H8 H 1.13930 -0.15580 -0.19530
H9 H 1.09370 -0.34560 -0.19960
C8 C 0.9921(12) -0.2135(13) -0.3016(8)
H10 H 1.00920 -0.10630 -0.32810
C9 C 0.8401(15) -0.2136(14) -0.2672(9)
H11 H 0.85690 -0.20670 -0.20680
H12 H 0.77770 -0.11900 -0.28870
C10 C 0.796(2) -0.5914(17) -0.3788(11)
H13 H 0.74410 -0.67010 -0.34770
H14 H 0.86520 -0.65000 -0.41010
H15 H 0.72200 -0.53080 -0.41630
C11 C 0.9673(12) -0.3503(12) -0.3652(8)
H16 H 0.90260 -0.31070 -0.41540
O3 O 1.0278(13) -0.0133(13) 0.1348(6)
O4 O 1.26060 0.1247(12) -0.09970
N5 N 0.7731(13) -0.0436(12) 0.0979(7)
N6 N 0.6383(14) -0.0163(15) 0.0488(9)
N7 N 0.7688(12) 0.2188(11) -0.1181(7)
N8 N 1.1410(11) 0.0298(10) -0.0634(8)
C12 C 0.7633(19) -0.1437(13) 0.1725(8)
H17 H 0.65750 -0.17070 0.17590
H18 H 0.80480 -0.08130 0.22100
H19 H 0.82120 -0.24490 0.16970
C13 C 0.9163(14) 0.0101(17) 0.0813(8)
C14 C 0.91270 0.0954(14) 0.00370
C15 C 0.7772(12) 0.1254(15) -0.0471(7)
C16 C 0.6384(11) 0.0672(11) -0.0189(6)
H20 H 0.54470 0.09090 -0.05080
C17 C 0.6249(11) 0.2369(11) -0.1756(6)
H21 H 0.64280 0.30680 -0.22160
H22 H 0.54750 0.28680 -0.14680
H23 H 0.59050 0.12880 -0.19610
C18 C 0.9123(14) 0.2493(17) -0.1517(8)
H24 H 0.89680 0.34010 -0.19170
H25 H 0.93910 0.15030 -0.18120
C19 C 1.0443(12) 0.2929(13) -0.0858(8)
H26 H 1.02810 0.40190 -0.06070
C20 C 1.1983(11) 0.2862(13) -0.1178(9)
H27 H 1.18560 0.30630 -0.17740
H28 H 1.26670 0.37090 -0.09060
C21 C 1.2279(18) -0.0905(16) -0.0076(9)
H29 H 1.27760 -0.16950 -0.03990
H30 H 1.15890 -0.14850 0.02390
H31 H 1.30430 -0.03260 0.02980
C22 C 1.0622(12) 0.1557(10) -0.0201(7)
H32 H 1.12950 0.19420 0.02950
#END
