
#######################################################################
#
#                 Cambridge Crystallographic Data Centre
#                                CCDC
#
#######################################################################
#
# If this CIF has been generated from an entry in the Cambridge
# Structural Database, then it will include bibliographic, chemical,
# crystal, experimental, refinement or atomic coordinate data resulting
# from the CCDC's data processing and validation procedures.
#
#######################################################################

data_CSD_CIF_OBOKIC
_audit_creation_date 2017-01-07
_audit_creation_method CSD-ConQuest-V1
_database_code_CSD OBOKIC
_database_code_depnum_ccdc_archive 'CCDC 1524980'
_chemical_formula_sum 'C19 H15 N3 O3'
_chemical_formula_moiety
;
C19 H15 N3 O3
;
_journal_coeditor_code "hb7649"
_journal_coden_Cambridge 1828
_journal_volume 73
_journal_year 2017
_journal_page_first 112
_journal_name_full 'Acta Crystallogr.,Sect.E:Cryst.Commun. '
loop_
_publ_author_name
"M.S.H.Faizi"
"A.Haque"
"V.A.Kalibabchuk"
_chemical_name_systematic
;
2-(((4-anilinophenyl)imino)methyl)-4-nitrophenol
;
_cell_volume   1538.260
_exptl_crystal_colour 'colorless'
_exptl_crystal_density_diffrn 1.439
_exptl_crystal_description 'block'
_diffrn_ambient_temperature 293
#These two values have been output from a single CSD field.
_refine_ls_R_factor_gt 0.0667
_refine_ls_wR_factor_gt 0.0667
_symmetry_cell_setting monoclinic
_symmetry_space_group_name_H-M 'P 21/n'
_symmetry_Int_Tables_number 14
loop_
_symmetry_equiv_pos_site_id
_symmetry_equiv_pos_as_xyz
1 x,y,z
2 1/2-x,1/2+y,1/2-z
3 -x,-y,-z
4 -1/2+x,-1/2-y,-1/2+z
_cell_length_a 6.4243(12)
_cell_length_b 31.818(6)
_cell_length_c 7.6595(14)
_cell_angle_alpha 90
_cell_angle_beta 100.736(5)
_cell_angle_gamma 90
_cell_formula_units_Z 4
loop_
_atom_type_symbol
_atom_type_radius_bond
C 0.68
H 0.23
N 0.68
O 0.68
loop_
_atom_site_label
_atom_site_type_symbol
_atom_site_fract_x
_atom_site_fract_y
_atom_site_fract_z
O1 O 0.7180(4) 0.01793(8) 1.0878(3)
H1 H 0.657(6) 0.0376(13) 0.997(5)
O2 O 1.6498(3) 0.05876(7) 1.4408(3)
O3 O 1.5860(3) 0.11239(8) 1.2643(3)
N1 N 1.5327(4) 0.07871(10) 1.3227(4)
N2 N 0.6467(4) 0.08236(9) 0.8823(3)
N3 N 0.0003(4) 0.16368(10) 0.4069(4)
H2 H -0.118(5) 0.1527(10) 0.413(4)
C1 C 0.9164(5) 0.03312(11) 1.1387(4)
C2 C 1.0557(5) 0.01128(11) 1.2681(4)
H3 H 1.01100 -0.01330 1.31590
C3 C 1.2570(5) 0.02547(11) 1.3255(4)
H4 H 1.34980 0.01070 1.41150
C4 C 1.3215(5) 0.06199(11) 1.2546(4)
C5 C 1.1882(5) 0.08439(11) 1.1266(4)
H5 H 1.23580 0.10880 1.08010
C6 C 0.9819(5) 0.07046(10) 1.0666(4)
C7 C 0.8378(5) 0.09492(11) 0.9384(4)
H6 H 0.88370 0.12000 0.89610
C8 C 0.4951(5) 0.10551(11) 0.7634(4)
C9 C 0.5258(5) 0.14469(11) 0.6939(5)
H7 H 0.65650 0.15790 0.72610
C10 C 0.3657(5) 0.16458(11) 0.5776(4)
H8 H 0.38850 0.19120 0.53470
C11 C 0.1687(5) 0.14472(11) 0.5240(4)
C12 C 0.1366(5) 0.10576(11) 0.5961(4)
H9 H 0.00580 0.09250 0.56560
C13 C 0.2985(5) 0.08666(11) 0.7131(4)
H10 H 0.27510 0.06040 0.75930
C14 C 0.0098(5) 0.18488(10) 0.2476(5)
C15 C 0.1924(5) 0.18889(11) 0.1768(5)
H11 H 0.32060 0.17870 0.23940
C16 C 0.1843(6) 0.20790(11) 0.0138(5)
H12 H 0.30760 0.21030 -0.03260
C17 C -0.0036(5) 0.22338(11) -0.0815(5)
H13 H -0.00800 0.23570 -0.19210
C18 C -0.1849(5) 0.22024(11) -0.0099(5)
H14 H -0.31180 0.23100 -0.07240
C19 C -0.1803(5) 0.20138(10) 0.1532(5)
H15 H -0.30340 0.19970 0.20030
#END
