
#######################################################################
#
#                 Cambridge Crystallographic Data Centre
#                                CCDC
#
#######################################################################
#
# If this CIF has been generated from an entry in the Cambridge
# Structural Database, then it will include bibliographic, chemical,
# crystal, experimental, refinement or atomic coordinate data resulting
# from the CCDC's data processing and validation procedures.
#
#######################################################################

data_CSD_CIF_OBUDAS
_audit_creation_date 2012-01-16
_audit_creation_method CSD-ConQuest-V1
_database_code_CSD OBUDAS
_database_code_depnum_ccdc_archive 'CCDC 858301'
_chemical_formula_sum 'C12 H10 N2 O4'
_chemical_formula_moiety
;
C12 H10 N2 O4
;
_journal_coeditor_code "IUCr HB6471"
_journal_coden_Cambridge 1370
_journal_volume 67
_journal_year 2011
_journal_page_first o3174
_journal_name_full 'Acta Crystallogr.,Sect.E:Struct.Rep.Online '
loop_
_publ_author_name
"S.B.Nasir"
"Z.A.Fairuz"
"Z.Abdullah"
"S.W.Ng"
"E.R.T.Tiekink"
_chemical_name_systematic
;
2-(2-Methoxyphenoxy)-3-nitropyridine
;
_cell_volume   1106.960
_exptl_crystal_colour 'colorless'
_exptl_crystal_density_diffrn 1.477
_exptl_crystal_description 'block'
_diffrn_ambient_temperature 100
#These two values have been output from a single CSD field.
_refine_ls_R_factor_gt 0.0374
_refine_ls_wR_factor_gt 0.0374
_symmetry_cell_setting monoclinic
_symmetry_space_group_name_H-M 'P 21/n'
_symmetry_Int_Tables_number 14
loop_
_symmetry_equiv_pos_site_id
_symmetry_equiv_pos_as_xyz
1 x,y,z
2 1/2-x,1/2+y,1/2-z
3 -x,-y,-z
4 -1/2+x,-1/2-y,-1/2+z
_cell_length_a 7.5017(7)
_cell_length_b 7.1542(6)
_cell_length_c 20.6369(18)
_cell_angle_alpha 90
_cell_angle_beta 91.878(1)
_cell_angle_gamma 90
_cell_formula_units_Z 4
loop_
_atom_type_symbol
_atom_type_radius_bond
C 0.68
H 0.23
N 0.68
O 0.68
loop_
_atom_site_label
_atom_site_type_symbol
_atom_site_fract_x
_atom_site_fract_y
_atom_site_fract_z
O1 O 0.36667(12) 0.22735(12) 0.12197(4)
O2 O 0.71311(12) 0.13613(14) 0.12236(4)
O3 O 0.20311(15) 0.16998(15) 0.01073(5)
O4 O 0.12030(15) 0.40621(16) -0.04768(5)
N1 N 0.47657(14) 0.52273(15) 0.13850(5)
N2 N 0.20013(15) 0.33758(17) -0.00044(5)
C1 C 0.38285(16) 0.40572(17) 0.10136(6)
C2 C 0.29836(16) 0.46433(18) 0.04319(6)
C3 C 0.30952(18) 0.6508(2) 0.02541(7)
H1 H 0.25190 0.69390 -0.01350
C4 C 0.4052(2) 0.7729(2) 0.06477(7)
H2 H 0.41400 0.90170 0.05410
C5 C 0.48791(18) 0.70151(19) 0.12028(7)
H3 H 0.55680 0.78420 0.14700
C6 C 0.45474(17) 0.18151(17) 0.18111(6)
C7 C 0.35938(17) 0.17835(18) 0.23680(6)
H4 H 0.23820 0.21700 0.23600
C8 C 0.44250(18) 0.11778(19) 0.29441(7)
H5 H 0.37870 0.11620 0.33340
C9 C 0.61791(18) 0.06017(18) 0.29447(6)
H6 H 0.67360 0.01690 0.33370
C10 C 0.71438(17) 0.06438(17) 0.23835(6)
H7 H 0.83540 0.02500 0.23920
C11 C 0.63311(17) 0.12668(17) 0.18063(6)
C12 C 0.89664(19) 0.0810(2) 0.12152(7)
H8 H 0.93840 0.08820 0.07710
H9 H 0.90880 -0.04770 0.13740
H10 H 0.96830 0.16460 0.14950
#END
