
#######################################################################
#
#                 Cambridge Crystallographic Data Centre
#                                CCDC
#
#######################################################################
#
# If this CIF has been generated from an entry in the Cambridge
# Structural Database, then it will include bibliographic, chemical,
# crystal, experimental, refinement or atomic coordinate data resulting
# from the CCDC's data processing and validation procedures.
#
#######################################################################

data_CSD_CIF_OBUWUF
_audit_creation_date 2012-01-25
_audit_creation_method CSD-ConQuest-V1
_database_code_CSD OBUWUF
_database_code_depnum_ccdc_archive 'CCDC 858379'
_chemical_formula_sum 'C18 H13 N3 O4'
_chemical_formula_moiety
;
C18 H13 N3 O4
;
_journal_coeditor_code "IUCr CV5182"
_journal_coden_Cambridge 1370
_journal_volume 67
_journal_year 2011
_journal_page_first o3278
_journal_name_full 'Acta Crystallogr.,Sect.E:Struct.Rep.Online '
loop_
_publ_author_name
"Yan An"
"Xiaofeng Li"
"Yingjie Zhang"
_chemical_name_systematic
;
N'-[(2-Hydroxynaphthalen-1-yl)methylidene]-4-nitrobenzohydrazide
;
_cell_volume   1553.427
_exptl_crystal_colour 'yellow'
_exptl_crystal_density_diffrn 1.434
_exptl_crystal_description 'block'
_diffrn_ambient_temperature 298
#These two values have been output from a single CSD field.
_refine_ls_R_factor_gt 0.0694
_refine_ls_wR_factor_gt 0.0694
_symmetry_cell_setting monoclinic
_symmetry_space_group_name_H-M 'P 21/c'
_symmetry_Int_Tables_number 14
loop_
_symmetry_equiv_pos_site_id
_symmetry_equiv_pos_as_xyz
1 x,y,z
2 -x,1/2+y,1/2-z
3 -x,-y,-z
4 x,-1/2-y,-1/2+z
_cell_length_a 11.208(3)
_cell_length_b 15.432(3)
_cell_length_c 8.982(2)
_cell_angle_alpha 90
_cell_angle_beta 90.701(2)
_cell_angle_gamma 90
_cell_formula_units_Z 4
loop_
_atom_type_symbol
_atom_type_radius_bond
C 0.68
H 0.23
N 0.68
O 0.68
loop_
_atom_site_label
_atom_site_type_symbol
_atom_site_fract_x
_atom_site_fract_y
_atom_site_fract_z
N1 N 0.2035(2) 0.17748(14) 0.5732(2)
N2 N 0.2552(2) 0.24273(14) 0.4891(2)
N3 N 0.4644(2) 0.60204(17) 0.2185(3)
O1 O 0.06218(18) 0.12126(14) 0.7791(2)
O2 O 0.25885(18) 0.33099(12) 0.6893(2)
O3 O 0.5244(2) 0.58734(14) 0.1093(3)
O4 O 0.4424(2) 0.67498(14) 0.2634(3)
C1 C 0.1483(2) 0.02893(16) 0.5926(3)
C2 C 0.0776(2) 0.04214(18) 0.7164(3)
C3 C 0.0168(3) -0.0276(2) 0.7829(3)
H1 H -0.03140 -0.01770 0.86480
C4 C 0.0283(3) -0.1091(2) 0.7281(4)
H2 H -0.01360 -0.15400 0.77240
C5 C 0.1020(2) -0.12764(18) 0.6053(3)
C6 C 0.1163(3) -0.21292(19) 0.5488(4)
H3 H 0.07470 -0.25840 0.59200
C7 C 0.1890(3) -0.2291(2) 0.4333(4)
H4 H 0.19770 -0.28540 0.39810
C8 C 0.2511(3) -0.1615(2) 0.3673(4)
H5 H 0.30130 -0.17300 0.28790
C9 C 0.2395(3) -0.07840(17) 0.4173(3)
H6 H 0.28250 -0.03440 0.37180
C10 C 0.1632(2) -0.05776(16) 0.5373(3)
C11 C 0.2028(2) 0.10178(16) 0.5167(3)
H7 H 0.23800 0.09290 0.42480
C12 C 0.2780(2) 0.31916(16) 0.5567(3)
C13 C 0.3284(2) 0.38988(16) 0.4623(3)
C14 C 0.3080(2) 0.47496(16) 0.5080(3)
H8 H 0.26410 0.48490 0.59350
C15 C 0.3512(2) 0.54420(17) 0.4296(3)
H9 H 0.33650 0.60070 0.46040
C16 C 0.4170(2) 0.52799(16) 0.3039(3)
C17 C 0.4401(2) 0.44479(17) 0.2556(3)
H10 H 0.48450 0.43550 0.17020
C18 C 0.3963(2) 0.37526(17) 0.3363(3)
H11 H 0.41240 0.31890 0.30600
H12 H 0.263(3) 0.2326(19) 0.3912(13)
H13 H 0.100(3) 0.1599(15) 0.730(3)
#END
