
#######################################################################
#
#                 Cambridge Crystallographic Data Centre
#                                CCDC
#
#######################################################################
#
# If this CIF has been generated from an entry in the Cambridge
# Structural Database, then it will include bibliographic, chemical,
# crystal, experimental, refinement or atomic coordinate data resulting
# from the CCDC's data processing and validation procedures.
#
#######################################################################

data_CSD_CIF_OBUXOA
_audit_creation_date 2012-01-25
_audit_creation_method CSD-ConQuest-V1
_database_code_CSD OBUXOA
_database_code_depnum_ccdc_archive 'CCDC 858383'
_chemical_formula_sum 'C10 H11 N3 O2'
_chemical_formula_moiety
;
C10 H11 N3 O2
;
_journal_coeditor_code "IUCr ZS2155"
_journal_coden_Cambridge 1370
_journal_volume 67
_journal_year 2011
_journal_page_first o3284
_journal_name_full 'Acta Crystallogr.,Sect.E:Struct.Rep.Online '
loop_
_publ_author_name
"Shang-Lian Liu"
"Hong-Sheng Jia"
_chemical_name_systematic
;
3-Nitro-4-(propylamino)benzonitrile
;
_cell_volume    526.167
_exptl_crystal_colour 'yellow'
_exptl_crystal_density_diffrn 1.295
_exptl_crystal_description 'block'
_exptl_crystal_preparation 'ethanol'
_diffrn_ambient_temperature 293
#These two values have been output from a single CSD field.
_refine_ls_R_factor_gt 0.051
_refine_ls_wR_factor_gt 0.051
_symmetry_cell_setting triclinic
_symmetry_space_group_name_H-M 'P -1'
_symmetry_Int_Tables_number 2
loop_
_symmetry_equiv_pos_site_id
_symmetry_equiv_pos_as_xyz
1 x,y,z
2 -x,-y,-z
_cell_length_a 7.6320(15)
_cell_length_b 7.9200(16)
_cell_length_c 9.2440(18)
_cell_angle_alpha 109.30(3)
_cell_angle_beta 91.28(3)
_cell_angle_gamma 93.00(3)
_cell_formula_units_Z 2
loop_
_atom_type_symbol
_atom_type_radius_bond
C 0.68
H 0.23
N 0.68
O 0.68
loop_
_atom_site_label
_atom_site_type_symbol
_atom_site_fract_x
_atom_site_fract_y
_atom_site_fract_z
N1 N 0.3192(2) 0.1104(2) 0.86877(17)
H1 H 0.35580 0.00760 0.81750
O1 O 0.2437(2) -0.30919(19) 1.04167(18)
C1 C 0.4572(4) 0.3339(4) 0.5821(3)
H2 H 0.51090 0.28530 0.48530
H3 H 0.53410 0.42770 0.65020
H4 H 0.34790 0.38160 0.56680
O2 O 0.3393(2) -0.22529(19) 0.85827(19)
N2 N 0.2712(2) -0.1930(2) 0.98294(19)
C2 C 0.4237(3) 0.1875(3) 0.6512(2)
H5 H 0.34770 0.09210 0.58110
H6 H 0.53420 0.13780 0.66410
C3 C 0.3404(3) 0.2542(3) 0.8029(2)
H7 H 0.41320 0.35330 0.87220
H8 H 0.22660 0.29750 0.78980
N3 N -0.0667(3) 0.2255(3) 1.5411(2)
C4 C 0.2472(2) 0.1269(2) 1.0023(2)
C5 C 0.2198(2) -0.0143(2) 1.0637(2)
C6 C 0.1414(2) 0.0104(2) 1.2017(2)
H9 H 0.12640 -0.08530 1.23840
C7 C 0.0851(3) 0.1755(3) 1.2854(2)
C8 C 0.1124(3) 0.3178(3) 1.2288(2)
H10 H 0.07700 0.43040 1.28530
C9 C 0.1890(3) 0.2953(2) 1.0940(2)
H11 H 0.20430 0.39310 1.06000
C10 C 0.0000(3) 0.2015(3) 1.4274(3)
#END
