
#######################################################################
#
#                 Cambridge Crystallographic Data Centre
#                                CCDC
#
#######################################################################
#
# If this CIF has been generated from an entry in the Cambridge
# Structural Database, then it will include bibliographic, chemical,
# crystal, experimental, refinement or atomic coordinate data resulting
# from the CCDC's data processing and validation procedures.
#
#######################################################################

data_CSD_CIF_OCALEL
_audit_creation_date 2012-01-25
_audit_creation_method CSD-ConQuest-V1
_database_code_CSD OCALEL
_database_code_depnum_ccdc_archive 'CCDC 858436'
_chemical_formula_sum 'C14 H12 N4 O3'
_chemical_formula_moiety
;
C14 H12 N4 O3
;
_journal_coeditor_code "IUCr HB6488"
_journal_coden_Cambridge 1370
_journal_volume 67
_journal_year 2011
_journal_page_first o3353
_journal_name_full 'Acta Crystallogr.,Sect.E:Struct.Rep.Online '
loop_
_publ_author_name
"Xiaofeng Li"
"Yan An"
"Yiqing Chen"
"Lishen Chen"
_chemical_name_systematic
;
2-Nitro-N'-(1-(pyridin-2-yl)ethylidene)benzohydrazide
;
_cell_volume   1413.363
_exptl_crystal_colour 'yellow'
_exptl_crystal_density_diffrn 1.336
_exptl_crystal_description 'block'
_diffrn_ambient_temperature 298
#These two values have been output from a single CSD field.
_refine_ls_R_factor_gt 0.043
_refine_ls_wR_factor_gt 0.043
_symmetry_cell_setting monoclinic
_symmetry_space_group_name_H-M 'P 21/n'
_symmetry_Int_Tables_number 14
loop_
_symmetry_equiv_pos_site_id
_symmetry_equiv_pos_as_xyz
1 x,y,z
2 1/2-x,1/2+y,1/2-z
3 -x,-y,-z
4 -1/2+x,-1/2-y,-1/2+z
_cell_length_a 10.8303(8)
_cell_length_b 8.9112(7)
_cell_length_c 14.9437(11)
_cell_angle_alpha 90
_cell_angle_beta 101.483(1)
_cell_angle_gamma 90
_cell_formula_units_Z 4
loop_
_atom_type_symbol
_atom_type_radius_bond
C 0.68
H 0.23
N 0.68
O 0.68
loop_
_atom_site_label
_atom_site_type_symbol
_atom_site_fract_x
_atom_site_fract_y
_atom_site_fract_z
N1 N 0.12218(13) 1.12660(15) 0.19162(9)
N2 N 0.13344(11) 0.83590(12) 0.03440(8)
N3 N 0.09007(12) 0.69373(13) 0.00993(8)
N4 N 0.39424(14) 0.72128(18) 0.02669(11)
O1 O 0.09268(11) 0.50167(12) -0.08683(8)
O2 O 0.47052(19) 0.8063(2) 0.07159(12)
O3 O 0.36144(14) 0.60537(16) 0.05665(10)
C1 C 0.14756(12) 1.05765(15) 0.11797(9)
C2 C 0.21742(15) 1.12613(17) 0.06083(11)
H1 H 0.23560 1.07470 0.01090
C3 C 0.25946(17) 1.27091(18) 0.07897(13)
H2 H 0.30460 1.31940 0.04070
C4 C 0.23368(17) 1.34274(18) 0.15460(12)
H3 H 0.26100 1.44040 0.16860
C5 C 0.16671(18) 1.26654(19) 0.20863(12)
H4 H 0.15100 1.31470 0.26040
C6 C 0.09516(13) 0.90373(15) 0.09935(9)
C7 C 0.00521(17) 0.8435(2) 0.15426(12)
H5 H -0.06850 0.80580 0.11400
H6 H -0.01850 0.92220 0.19140
H7 H 0.04480 0.76370 0.19280
C8 C 0.13068(14) 0.62602(15) -0.05927(10)
C9 C 0.21832(14) 0.71408(15) -0.10665(10)
C10 C 0.33825(15) 0.76293(16) -0.06705(11)
C11 C 0.41041(18) 0.8496(2) -0.11371(14)
H8 H 0.48960 0.88320 -0.08480
C12 C 0.3637(2) 0.8853(2) -0.20298(15)
H9 H 0.41200 0.94200 -0.23540
C13 C 0.2465(2) 0.8381(2) -0.24480(14)
H10 H 0.21520 0.86280 -0.30550
C14 C 0.17386(18) 0.7532(2) -0.19668(11)
H11 H 0.09390 0.72210 -0.22570
H12 H 0.0368(15) 0.640(2) 0.0371(13)
#END
