
#######################################################################
#
#                 Cambridge Crystallographic Data Centre
#                                CCDC
#
#######################################################################
#
# If this CIF has been generated from an entry in the Cambridge
# Structural Database, then it will include bibliographic, chemical,
# crystal, experimental, refinement or atomic coordinate data resulting
# from the CCDC's data processing and validation procedures.
#
#######################################################################

data_CSD_CIF_OCALOU
_audit_creation_date 2004-12-15
_audit_creation_method CSD-ConQuest-V1
_database_code_CSD OCALOU
_database_code_depnum_ccdc_archive 'CCDC 253033'
_chemical_formula_sum 'C10 H13 N3 O3'
_chemical_formula_moiety
;
C10 H13 N3 O3
;
_journal_coeditor_code "IUCr CI6451"
_journal_coden_Cambridge 1370
_journal_volume 60
_journal_year 2004
_journal_page_first o1875
_journal_name_full 'Acta Crystallogr.,Sect.E:Struct.Rep.Online '
loop_
_publ_author_name
"Zhi-Jun Wang"
"Dong-Hong Li"
"Shu-Ping Huang"
"Bin-Sheng Yang"
_chemical_name_systematic
;
N-(2-(4-Nitrophenylamino)ethyl)acetamide
;
_cell_volume    532.636
_exptl_crystal_colour 'yellow'
_exptl_crystal_density_diffrn 1.392
_exptl_crystal_description 'block'
_exptl_crystal_preparation 'methanol'
_diffrn_ambient_temperature 293
#These two values have been output from a single CSD field.
_refine_ls_R_factor_gt 0.0587
_refine_ls_wR_factor_gt 0.0587
_symmetry_cell_setting triclinic
_symmetry_space_group_name_H-M 'P -1'
_symmetry_Int_Tables_number 2
loop_
_symmetry_equiv_pos_site_id
_symmetry_equiv_pos_as_xyz
1 x,y,z
2 -x,-y,-z
_cell_length_a 6.731(3)
_cell_length_b 6.882(3)
_cell_length_c 11.508(5)
_cell_angle_alpha 88.620(6)
_cell_angle_beta 89.988(5)
_cell_angle_gamma 88.106(6)
_cell_formula_units_Z 2
loop_
_atom_type_symbol
_atom_type_radius_bond
C 0.68
H 0.23
N 0.68
O 0.68
loop_
_atom_site_label
_atom_site_type_symbol
_atom_site_fract_x
_atom_site_fract_y
_atom_site_fract_z
O1 O 0.2031(3) 0.3812(4) 0.86067(17)
O2 O 0.2411(3) 0.0762(4) 0.82446(16)
C1 C 0.2968(5) -0.2657(4) 0.0379(2)
H1 H 0.43040 -0.31780 0.04550
H2 H 0.28120 -0.20060 -0.03650
H3 H 0.20530 -0.36960 0.04400
N1 N 0.2266(3) 0.2486(4) 0.7907(2)
N2 N 0.2919(3) 0.4295(3) 0.32133(16)
H4 H 0.27560 0.55000 0.30090
N3 N 0.2099(3) 0.0578(3) 0.09727(17)
H5 H 0.21090 0.08750 0.02430
C2 C 0.2354(4) 0.2926(4) 0.6699(2)
C3 C 0.2564(4) 0.1444(4) 0.5915(2)
H6 H 0.26000 0.01560 0.61800
C4 C 0.2717(4) 0.1863(4) 0.4750(2)
H7 H 0.28350 0.08580 0.42250
C5 C 0.2697(3) 0.3811(4) 0.4343(2)
C6 C 0.2437(4) 0.5289(4) 0.5156(2)
H8 H 0.23720 0.65820 0.49000
C7 C 0.2280(4) 0.4862(4) 0.6307(2)
H9 H 0.21240 0.58580 0.68360
C8 C 0.3419(4) 0.2910(4) 0.2310(2)
H10 H 0.42580 0.18620 0.26370
H11 H 0.41630 0.35560 0.16990
C9 C 0.1583(4) 0.2081(4) 0.1800(2)
H12 H 0.07800 0.15340 0.24180
H13 H 0.08010 0.31120 0.14110
C10 C 0.2556(4) -0.1249(4) 0.1317(2)
O3 O 0.2608(3) -0.1731(3) 0.23497(15)
#END
