
#######################################################################
#
#                 Cambridge Crystallographic Data Centre
#                                CCDC
#
#######################################################################
#
# If this CIF has been generated from an entry in the Cambridge
# Structural Database, then it will include bibliographic, chemical,
# crystal, experimental, refinement or atomic coordinate data resulting
# from the CCDC's data processing and validation procedures.
#
#######################################################################

data_CSD_CIF_OCAMAJ
_audit_creation_date 2017-01-09
_audit_creation_method CSD-ConQuest-V1
_database_code_CSD OCAMAJ
_database_code_depnum_ccdc_archive 'CCDC 1526348'
_chemical_formula_sum 'C6 H2 N4 O6'
_chemical_formula_moiety
;
C6 H2 N4 O6
;
_journal_coden_Cambridge 1457
_journal_volume 9
_journal_year 2012
_journal_page_first 365
_journal_name_full 'Central European Journal of Energetic Materials '
loop_
_publ_author_name
"J.Sarlauskas"
"Z.Anusevicius"
"A.Misiunas"
_chemical_name_systematic
;
5,6-dinitro-1-oxo-2,1,3-benzoxadiazole
;
_cell_volume    799.093
_exptl_crystal_colour 'yellow'
_exptl_crystal_density_diffrn 1.88
_exptl_crystal_description 'Prism'
_exptl_crystal_preparation 'acetic acid'
_diffrn_ambient_temperature 153
#These two values have been output from a single CSD field.
_refine_ls_R_factor_gt 0.0296
_refine_ls_wR_factor_gt 0.0296
_symmetry_cell_setting orthorhombic
_symmetry_space_group_name_H-M 'P b c 21'
_symmetry_Int_Tables_number 29
loop_
_symmetry_equiv_pos_site_id
_symmetry_equiv_pos_as_xyz
1 x,y,z
2 -x,-y,1/2+z
3 -x,1/2+y,z
4 x,1/2-y,1/2+z
_cell_length_a 5.4751(2)
_cell_length_b 10.9799(4)
_cell_length_c 13.2925(5)
_cell_angle_alpha 90
_cell_angle_beta 90
_cell_angle_gamma 90
_cell_formula_units_Z 4
loop_
_atom_type_symbol
_atom_type_radius_bond
C 0.68
H 0.23
N 0.68
O 0.68
loop_
_atom_site_label
_atom_site_type_symbol
_atom_site_fract_x
_atom_site_fract_y
_atom_site_fract_z
O1 O 0.0177(3) -0.13301(14) 0.3763(1)
C1 C 0.2554(3) 0.10231(17) 0.40306(19)
C2 C 0.2117(3) 0.02543(17) 0.5753(2)
H1 H 0.141(4) -0.029(2) 0.6235(18)
N1 N 0.1394(3) 0.11600(14) 0.30416(17)
O2 O -0.2196(3) -0.07875(15) 0.49949(18)
O3 O -0.0816(3) 0.09688(15) 0.30012(17)
N2 N -0.0363(3) -0.06838(15) 0.44772(18)
C3 C 0.4488(3) 0.17512(18) 0.4235(2)
H2 H 0.516(4) 0.225(2) 0.375(2)
C4 C 0.1423(3) 0.02522(16) 0.4773(2)
O4 O 0.2646(3) 0.14888(15) 0.23325(19)
C5 C 0.4106(3) 0.10356(17) 0.59776(19)
O5 O 0.4946(3) 0.08855(16) 0.77183(17)
O6 O 0.7274(3) 0.20363(14) 0.66350(18)
N3 N 0.5245(3) 0.12144(16) 0.68545(17)
C6 C 0.5346(3) 0.17323(17) 0.5245(2)
N4 N 0.7240(3) 0.23347(18) 0.56289(19)
#END
