
#######################################################################
#
#                 Cambridge Crystallographic Data Centre
#                                CCDC
#
#######################################################################
#
# If this CIF has been generated from an entry in the Cambridge
# Structural Database, then it will include bibliographic, chemical,
# crystal, experimental, refinement or atomic coordinate data resulting
# from the CCDC's data processing and validation procedures.
#
#######################################################################

data_CSD_CIF_OCARPO
_audit_creation_date 1978-06-15
_audit_creation_method CSD-ConQuest-V1
_database_code_CSD OCARPO
_database_code_depnum_ccdc_archive 'CCDC 1225408'
_chemical_formula_sum 'C20 H21 N1 O6'
_chemical_formula_moiety
;
C20 H21 N1 O6
;
_journal_coden_Cambridge 189
_journal_volume 7
_journal_year 1978
_journal_page_first 71
_journal_name_full 'Cryst.Struct.Commun. '
loop_
_publ_author_name
"Z.Taira"
"W.H.Watson"
_chemical_name_systematic
;
(-)-Ophiocarpine N-oxide
;
_chemical_name_common
;
13-Hydroxy-9,10-dimethoxy-2,3-methylene-dioxydibenzo(a,g)quinazolidine N-oxide
;
_cell_volume   1742.332
_exptl_crystal_density_diffrn 1.414
_exptl_special_details
;
Absolute configuration

;
_diffrn_ambient_temperature ?
_diffrn_special_details
;
The study was carried out at room temperature,in the range 283-303K

;
#These two values have been output from a single CSD field.
_refine_ls_R_factor_gt 0.061
_refine_ls_wR_factor_gt 0.061
_symmetry_cell_setting orthorhombic
_symmetry_space_group_name_H-M 'P 21 21 21'
_symmetry_Int_Tables_number 19
loop_
_symmetry_equiv_pos_site_id
_symmetry_equiv_pos_as_xyz
1 x,y,z
2 1/2+x,1/2-y,-z
3 -x,1/2+y,1/2-z
4 1/2-x,-y,1/2+z
_cell_length_a 28.04(1)
_cell_length_b 8.854(2)
_cell_length_c 7.018(2)
_cell_angle_alpha 90
_cell_angle_beta 90
_cell_angle_gamma 90
_cell_formula_units_Z 4
loop_
_atom_type_symbol
_atom_type_radius_bond
C 0.68
H 0.23
N 0.68
O 0.68
loop_
_atom_site_label
_atom_site_type_symbol
_atom_site_fract_x
_atom_site_fract_y
_atom_site_fract_z
C1 C -0.09330 -0.48180 -0.26380
C2 C -0.14050 -0.46530 -0.22360
C3 C -0.17140 -0.38990 -0.34190
C4 C -0.15700 -0.33110 -0.51280
C5 C -0.10830 -0.34430 -0.55870
C6 C -0.09160 -0.27760 -0.74320
C7 C -0.04340 -0.33980 -0.80280
N1 N -0.00910 -0.32640 -0.64050
C8 C 0.03940 -0.37070 -0.71350
C9 C 0.07480 -0.39400 -0.55250
C10 C 0.12280 -0.40020 -0.59900
C11 C 0.15650 -0.43390 -0.46040
C12 C 0.14200 -0.46010 -0.27470
C13 C 0.09400 -0.45070 -0.22870
C14 C 0.06020 -0.41700 -0.36410
C15 C 0.00840 -0.40180 -0.30820
C16 C -0.02390 -0.43260 -0.47990
C17 C -0.07680 -0.41710 -0.43520
O1 O -0.00170 -0.25650 -0.22760
O2 O -0.16490 -0.51570 -0.06320
O3 O -0.21690 -0.38900 -0.26140
O4 O 0.13640 -0.38400 -0.78770
O5 O 0.20360 -0.44160 -0.51920
C18 C -0.21260 -0.46000 -0.08640
C19 C 0.15590 -0.23550 -0.83030
C20 C 0.23870 -0.47040 -0.37710
O6 O -0.00770 -0.17630 -0.57740
H1 H -0.07100 -0.53400 -0.17400
H2 H -0.18000 -0.28000 -0.60300
H3 H -0.08800 -0.16900 -0.73000
H4 H -0.11400 -0.30600 -0.84500
H5 H -0.04700 -0.44700 -0.83600
H6 H -0.03200 -0.27800 -0.91100
H7 H 0.03500 -0.46600 -0.78600
H8 H 0.05100 -0.28700 -0.79800
H9 H 0.16000 -0.48600 -0.17500
H10 H 0.08400 -0.46800 -0.09400
H11 H 0.00000 -0.48300 -0.21000
H12 H -0.02000 -0.54000 -0.52000
H13 H -0.23500 -0.55000 -0.08000
H14 H -0.22000 -0.39000 0.02000
#END
