
#######################################################################
#
#                 Cambridge Crystallographic Data Centre
#                                CCDC
#
#######################################################################
#
# If this CIF has been generated from an entry in the Cambridge
# Structural Database, then it will include bibliographic, chemical,
# crystal, experimental, refinement or atomic coordinate data resulting
# from the CCDC's data processing and validation procedures.
#
#######################################################################

data_CSD_CIF_OCATIY
_audit_creation_date 2017-01-09
_audit_creation_method CSD-ConQuest-V1
_database_code_CSD OCATIY
_database_code_depnum_ccdc_archive 'CCDC 1526383'
_chemical_formula_sum 'C11 H15 N1 O6'
_chemical_formula_moiety
;
C11 H15 N1 O6
;
_journal_coden_Cambridge 1078
_journal_year 2017
_journal_name_full 'CSD Communication(Private Communication) '
loop_
_publ_author_name
"M.A.Gonzalez"
"A.M.Estevez"
"J.C.Estevez"
"R.J.Estevez"
_chemical_name_systematic
;
4,4-dimethyl-7-(nitromethyl)-3,5,10-trioxatricyclo[6.2.1.0^2,6^]undecan-9-one
;
_cell_volume   1222.542
_exptl_crystal_colour 'colorless'
_exptl_crystal_density_diffrn 1.398
_exptl_crystal_description 'prism'
_diffrn_ambient_temperature 100
#These two values have been output from a single CSD field.
_refine_ls_R_factor_gt 0.0367
_refine_ls_wR_factor_gt 0.0367
_symmetry_cell_setting orthorhombic
_symmetry_space_group_name_H-M 'P 21 21 21'
_symmetry_Int_Tables_number 19
loop_
_symmetry_equiv_pos_site_id
_symmetry_equiv_pos_as_xyz
1 x,y,z
2 1/2-x,-y,1/2+z
3 1/2+x,1/2-y,-z
4 -x,1/2+y,1/2-z
_cell_length_a 9.5218(5)
_cell_length_b 11.0694(6)
_cell_length_c 11.5990(6)
_cell_angle_alpha 90
_cell_angle_beta 90
_cell_angle_gamma 90
_cell_formula_units_Z 4
loop_
_atom_type_symbol
_atom_type_radius_bond
C 0.68
H 0.23
N 0.68
O 0.68
loop_
_atom_site_label
_atom_site_type_symbol
_atom_site_fract_x
_atom_site_fract_y
_atom_site_fract_z
O1 O 0.46302(14) 0.20447(13) 0.52691(13)
C1 C 0.5628(2) 0.14203(18) 0.58661(17)
C2 C 0.5428(2) 0.00790(18) 0.56446(17)
H1 H 0.63410 -0.03640 0.56070
C3 C 0.4667(2) 0.00915(19) 0.44818(17)
H2 H 0.53240 0.02220 0.38320
H3 H 0.41240 -0.06590 0.43520
C4 C 0.3718(2) 0.11743(18) 0.46769(17)
H4 H 0.33410 0.15040 0.39370
O2 O 0.64585(15) 0.19197(14) 0.64787(14)
C5 C 0.44400(19) -0.04418(17) 0.65731(16)
H5 H 0.41950 -0.12880 0.63480
C6 C 0.3047(2) 0.02994(17) 0.66588(16)
H6 H 0.31580 0.09460 0.72540
C7 C 0.2550(2) 0.08686(18) 0.55267(17)
H7 H 0.19650 0.16000 0.56860
C8 C 0.5081(2) -0.0474(2) 0.77693(16)
H8 H 0.52900 0.03630 0.80180
H9 H 0.43870 -0.08160 0.83150
N1 N 0.6403(2) -0.12082(18) 0.78253(16)
O3 O 0.65569(18) -0.20391(16) 0.71417(15)
O4 O 0.72551(17) -0.09466(18) 0.85784(14)
O5 O 0.18940(14) -0.04631(13) 0.69692(12)
C9 C 0.0999(3) -0.0630(2) 0.59888(18)
O6 O 0.17067(15) -0.00653(14) 0.50420(12)
C10 C -0.0390(2) -0.0020(4) 0.6205(2)
H10 H -0.02290 0.08250 0.64190
H11 H -0.08820 -0.04350 0.68320
H12 H -0.09620 -0.00530 0.55030
C11 C 0.0918(5) -0.1967(3) 0.5736(3)
H13 H 0.03550 -0.20980 0.50390
H14 H 0.04790 -0.23840 0.63880
H15 H 0.18670 -0.22850 0.56160
#END
