
#######################################################################
#
#                 Cambridge Crystallographic Data Centre
#                                CCDC
#
#######################################################################
#
# If this CIF has been generated from an entry in the Cambridge
# Structural Database, then it will include bibliographic, chemical,
# crystal, experimental, refinement or atomic coordinate data resulting
# from the CCDC's data processing and validation procedures.
#
#######################################################################

data_CSD_CIF_OCAYID
_audit_creation_date 2017-01-10
_audit_creation_method CSD-ConQuest-V1
_database_code_CSD OCAYID
_database_code_depnum_ccdc_archive 'CCDC 1526577'
_chemical_formula_sum 'C13 H13 N3 O2'
_chemical_formula_moiety
;
C13 H13 N3 O2
;
_journal_coden_Cambridge 1078
_journal_year 2017
_journal_name_full 'CSD Communication(Private Communication) '
loop_
_publ_author_name
"Yao Zhou"
"Zhonghe Tang"
"Qiuling Song"
_chemical_name_systematic
;
4-(2-nitropropan-2-yl)-2-phenylpyrimidine
;
_cell_volume   1219.916
_exptl_crystal_colour 'white'
_exptl_crystal_density_diffrn 1.325
_exptl_crystal_description 'block'
_diffrn_ambient_temperature 295.3
#These two values have been output from a single CSD field.
_refine_ls_R_factor_gt 0.0862
_refine_ls_wR_factor_gt 0.0862
_symmetry_cell_setting triclinic
_symmetry_space_group_name_H-M 'P -1'
_symmetry_Int_Tables_number 2
loop_
_symmetry_equiv_pos_site_id
_symmetry_equiv_pos_as_xyz
1 x,y,z
2 -x,-y,-z
_cell_length_a 7.3577(9)
_cell_length_b 9.9881(11)
_cell_length_c 16.612(2)
_cell_angle_alpha 89.395(10)
_cell_angle_beta 88.058(10)
_cell_angle_gamma 89.171(10)
_cell_formula_units_Z 4
loop_
_atom_type_symbol
_atom_type_radius_bond
C 0.68
H 0.23
N 0.68
O 0.68
loop_
_atom_site_label
_atom_site_type_symbol
_atom_site_fract_x
_atom_site_fract_y
_atom_site_fract_z
N1 N 0.2480(4) 0.5821(3) 0.37328(18)
N2 N 0.2969(5) 0.6417(4) 0.5093(2)
C1 C 0.2602(5) 0.5529(4) 0.4524(2)
C2 C 0.2320(5) 0.4125(4) 0.4770(2)
C3 C 0.2275(6) 0.3764(5) 0.5585(2)
H1 H 0.23940 0.44150 0.59750
C4 C 0.2715(5) 0.7095(4) 0.3507(2)
C5 C 0.2102(6) 0.3138(4) 0.4211(3)
H2 H 0.21280 0.33650 0.36660
C6 C 0.2583(5) 0.7422(4) 0.2609(2)
O1 O -0.0082(6) 0.6193(4) 0.2409(2)
C7 C 0.3258(6) 0.7670(5) 0.4843(3)
H3 H 0.35440 0.83060 0.52220
N3 N 0.1540(7) 0.6264(4) 0.2247(2)
C8 C 0.1847(6) 0.1829(5) 0.4436(3)
H4 H 0.16870 0.11810 0.40480
C9 C 0.3152(6) 0.8063(4) 0.4053(3)
H5 H 0.33640 0.89430 0.38920
C10 C 0.2055(7) 0.2437(5) 0.5811(3)
H6 H 0.20610 0.21990 0.63540
O2 O 0.2369(6) 0.5478(4) 0.1816(2)
C11 C 0.1829(7) 0.1474(5) 0.5246(3)
H7 H 0.16650 0.05870 0.54040
C12 C 0.4453(6) 0.7515(5) 0.2225(3)
H8 H 0.51060 0.82140 0.24750
H9 H 0.43580 0.77120 0.16610
H10 H 0.50900 0.66780 0.22920
C13 C 0.1454(7) 0.8683(5) 0.2454(3)
H11 H 0.03190 0.86330 0.27550
H12 H 0.12230 0.87570 0.18900
H13 H 0.21060 0.94520 0.26190
N4 N 0.7264(4) 0.0952(3) 0.12661(19)
C14 C 0.7313(5) 0.0698(4) 0.0481(2)
N5 N 0.7054(5) 0.1613(4) -0.0105(2)
C15 C 0.7650(5) -0.0704(4) 0.0225(2)
C16 C 0.6970(5) 0.2464(4) 0.2393(2)
C17 C 0.8045(5) -0.1692(5) 0.0800(3)
H14 H 0.80790 -0.14690 0.13410
C18 C 0.6668(6) 0.3221(5) 0.0933(3)
H15 H 0.64410 0.41030 0.10850
C19 C 0.7573(6) -0.1083(5) -0.0578(3)
H16 H 0.72940 -0.04450 -0.09690
C20 C 0.6949(5) 0.2209(4) 0.1494(2)
N6 N 0.5780(7) 0.1353(4) 0.2773(2)
O3 O 0.4203(6) 0.1349(4) 0.2573(2)
C21 C 0.8323(6) -0.3336(6) -0.0238(3)
H17 H 0.85660 -0.42110 -0.04000
C22 C 0.7901(7) -0.2381(5) -0.0799(3)
H18 H 0.78370 -0.26170 -0.13380
C23 C 0.6119(7) 0.3773(5) 0.2670(3)
H19 H 0.68770 0.45010 0.24940
H20 H 0.59980 0.37710 0.32480
H21 H 0.49390 0.38800 0.24460
C24 C 0.8391(6) -0.3014(5) 0.0562(3)
H22 H 0.86630 -0.36700 0.09430
C25 C 0.6745(7) 0.2847(5) 0.0138(3)
H23 H 0.65690 0.35080 -0.02520
C26 C 0.8872(7) 0.2323(7) 0.2690(3)
H24 H 0.93460 0.14460 0.25650
H25 H 0.88560 0.24470 0.32630
H26 H 0.96300 0.29860 0.24320
O4 O 0.6416(8) 0.0586(4) 0.3253(3)
#END
