
#######################################################################
#
#                 Cambridge Crystallographic Data Centre
#                                CCDC
#
#######################################################################
#
# If this CIF has been generated from an entry in the Cambridge
# Structural Database, then it will include bibliographic, chemical,
# crystal, experimental, refinement or atomic coordinate data resulting
# from the CCDC's data processing and validation procedures.
#
#######################################################################

data_CSD_CIF_OCEBAA
_audit_creation_date 2004-12-15
_audit_creation_method CSD-ConQuest-V1
_database_code_CSD OCEBAA
_database_code_depnum_ccdc_archive 'CCDC 246655'
_chemical_formula_sum 'C4 H5 N3 O3'
_chemical_formula_moiety
;
C4 H5 N3 O3
;
_journal_coden_Cambridge 1078
_journal_year 2004
_journal_name_full 'CSD Communication(Private Communication) '
loop_
_publ_author_name
"S.Parsons"
"W.Pu"
"R.Ramage"
"P.A.Wood"
_chemical_name_systematic
;
1-Hydroxy-4-(methoxycarbonyl)-1H-(1,2,3)triazole
;
_chemical_melting_point 429.5
_cell_volume   1208.050
_exptl_crystal_colour 'colorless'
_exptl_crystal_density_diffrn 1.57
_exptl_special_details
;
Melting point range 429.5-430.5K
contribution from School of Chemistry, The University of Edinburgh King's 
Buildings, West Mains Road, Edinburgh, Scotland EH9 3JJ
;
_exptl_crystal_description 'lath'
_exptl_crystal_preparation 'dichloromethane'
_diffrn_ambient_temperature 220
#These two values have been output from a single CSD field.
_refine_ls_R_factor_gt 0.0313
_refine_ls_wR_factor_gt 0.0313
_symmetry_cell_setting monoclinic
_symmetry_space_group_name_H-M 'P 21/n'
_symmetry_Int_Tables_number 14
loop_
_symmetry_equiv_pos_site_id
_symmetry_equiv_pos_as_xyz
1 x,y,z
2 1/2+x,1/2-y,1/2+z
3 -x,-y,-z
4 -1/2-x,-1/2+y,-1/2-z
_cell_length_a 5.1815(3)
_cell_length_b 15.1787(8)
_cell_length_c 15.4086(8)
_cell_angle_alpha 90
_cell_angle_beta 94.546(5)
_cell_angle_gamma 90
_cell_formula_units_Z 8
loop_
_atom_type_symbol
_atom_type_radius_bond
C 0.68
H 0.23
N 0.68
O 0.68
loop_
_atom_site_label
_atom_site_type_symbol
_atom_site_fract_x
_atom_site_fract_y
_atom_site_fract_z
N1 N 0.4457(2) -0.02845(7) 0.33203(7)
O1 O 0.4133(2) -0.10828(6) 0.29346(7)
N2 N 0.6519(2) 0.01956(8) 0.31646(8)
N3 N 0.6448(2) 0.08902(8) 0.36755(7)
C1 C 0.4340(2) 0.08382(9) 0.41409(8)
C2 C 0.3846(3) 0.15274(9) 0.47806(8)
O2 O 0.5167(2) 0.21737(7) 0.48939(7)
O3 O 0.1793(2) 0.13314(6) 0.52150(6)
C3 C 0.1097(3) 0.2007(1) 0.5821(1)
C4 C 0.3039(3) 0.00757(9) 0.39151(9)
N4 N 0.8143(2) 0.29789(8) 0.35449(7)
O4 O 0.9693(2) 0.22577(7) 0.36047(7)
N5 N 0.6028(2) 0.29715(8) 0.30032(7)
N6 N 0.4989(2) 0.37575(8) 0.30766(7)
C5 C 0.6481(3) 0.4246(1) 0.36566(9)
C6 C 0.5901(3) 0.5173(1) 0.38453(9)
O5 O 0.7198(2) 0.56210(8) 0.43525(8)
O6 O 0.3782(2) 0.54376(7) 0.33737(7)
C7 C 0.3038(4) 0.6350(1) 0.3467(2)
C8 C 0.8541(3) 0.3739(1) 0.39672(9)
H1 H 0.237(5) -0.107(1) 0.250(2)
H2 H 0.158(3) -0.019(1) 0.409(1)
H3 H -0.054(4) 0.188(1) 0.600(1)
H4 H 0.232(4) 0.203(1) 0.632(1)
H5 H 0.104(3) 0.257(1) 0.555(1)
H6 H 0.850(4) 0.178(1) 0.366(1)
H7 H 0.999(3) 0.384(1) 0.437(1)
H8 H 0.323(5) 0.654(2) 0.403(2)
H9 H 0.416(5) 0.671(2) 0.315(2)
H10 H 0.125(5) 0.640(2) 0.324(2)
#END
