
#######################################################################
#
#                 Cambridge Crystallographic Data Centre
#                                CCDC
#
#######################################################################
#
# If this CIF has been generated from an entry in the Cambridge
# Structural Database, then it will include bibliographic, chemical,
# crystal, experimental, refinement or atomic coordinate data resulting
# from the CCDC's data processing and validation procedures.
#
#######################################################################

data_CSD_CIF_OCEJUD
_audit_creation_date 2012-01-16
_audit_creation_method CSD-ConQuest-V1
_database_code_CSD OCEJUD
_database_code_depnum_ccdc_archive 'CCDC 858535'
_chemical_formula_sum 'C18 H28 N4 O6'
_chemical_formula_moiety
;
C18 H28 N4 O6
;
_journal_coeditor_code "IUCr GK2433"
_journal_coden_Cambridge 1370
_journal_volume 67
_journal_year 2011
_journal_page_first o3482
_journal_name_full 'Acta Crystallogr.,Sect.E:Struct.Rep.Online '
loop_
_publ_author_name
"Xuefen Wu"
"Xi Chen"
"Yimin Hou"
_chemical_name_systematic
;
2-Methoxy-N-[(S)-3-methylbutan-2-yl]-6-([(S)-3-methylbutan-2-yl]amino)-3,5-din
itrobenzamide
;
_chemical_name_common
;
2-Methoxy-N-(3-methylbutan-2-yl)-6-((3-methylbutan-2-yl)amino)-3,5-dinitrobenz
amide
;
_chemical_melting_point 426
_cell_volume   4177.880
_exptl_crystal_colour 'colorless'
_exptl_crystal_density_diffrn 1.261
_exptl_crystal_description 'block'
_diffrn_ambient_temperature 296
#These two values have been output from a single CSD field.
_refine_ls_R_factor_gt 0.06
_refine_ls_wR_factor_gt 0.06
_symmetry_cell_setting monoclinic
_symmetry_space_group_name_H-M 'I 2'
_symmetry_Int_Tables_number 5
loop_
_symmetry_equiv_pos_site_id
_symmetry_equiv_pos_as_xyz
1 x,y,z
2 -x,y,-z
3 1/2+x,1/2+y,1/2+z
4 1/2-x,1/2+y,1/2-z
_cell_length_a 21.1662(16)
_cell_length_b 9.8317(7)
_cell_length_c 22.565(2)
_cell_angle_alpha 90
_cell_angle_beta 117.163(1)
_cell_angle_gamma 90
_cell_formula_units_Z 8
loop_
_atom_type_symbol
_atom_type_radius_bond
C 0.68
H 0.23
N 0.68
O 0.68
loop_
_atom_site_label
_atom_site_type_symbol
_atom_site_fract_x
_atom_site_fract_y
_atom_site_fract_z
C1 C 0.2149(3) 0.0458(5) 0.4202(2)
H1 H 0.21200 0.07260 0.45840
C2 C 0.2775(3) 0.0626(5) 0.4176(2)
C3 C 0.2829(3) 0.0145(5) 0.3604(2)
C4 C 0.2239(2) -0.0351(4) 0.3071(2)
C5 C 0.1559(3) -0.0464(5) 0.3066(2)
C6 C 0.1564(3) -0.0089(5) 0.3689(2)
C7 C 0.0754(3) -0.0949(9) 0.1834(3)
H2 H 0.11800 -0.09390 0.17660
C8 C 0.4036(3) -0.0608(9) 0.4051(3)
H3 H 0.44350 -0.05410 0.39580
H4 H 0.39070 -0.15460 0.40440
H5 H 0.41610 -0.02310 0.44830
C9 C 0.2352(2) -0.0956(5) 0.2504(2)
C10 C 0.2536(3) -0.0434(6) 0.1525(2)
H6 H 0.22980 -0.13090 0.13580
C11 C 0.2157(6) 0.0619(14) 0.0979(4)
H7 H 0.16700 0.06880 0.08910
H8 H 0.21790 0.03450 0.05800
H9 H 0.23850 0.14860 0.11220
C12 C 0.3296(4) -0.0607(8) 0.1670(4)
H10 H 0.33010 -0.08690 0.12530
C13 C 0.3716(5) -0.1605(11) 0.2172(4)
H11 H 0.34930 -0.24810 0.20470
H12 H 0.37470 -0.13440 0.25940
H13 H 0.41840 -0.16500 0.22050
C14 C 0.3696(7) 0.0804(12) 0.1895(8)
H14 H 0.41820 0.06940 0.19850
H15 H 0.36780 0.11130 0.22910
H16 H 0.34700 0.14610 0.15460
C15 C 0.2353(2) 0.3234(5) 0.93893(19)
H17 H 0.23450 0.30990 0.97940
C16 C 0.2961(2) 0.3005(4) 0.93438(19)
C17 C 0.2997(2) 0.3289(4) 0.87464(18)
C18 C 0.23767(19) 0.3671(4) 0.81838(17)
C19 C 0.17142(19) 0.3801(4) 0.82059(17)
C20 C 0.1747(2) 0.3663(5) 0.8847(2)
C21 C 0.24722(19) 0.4191(4) 0.76034(19)
C22 C 0.4217(3) 0.3907(7) 0.9148(3)
H18 H 0.45900 0.37860 0.90230
H19 H 0.43570 0.35120 0.95790
H20 H 0.41280 0.48600 0.91640
C23 C 0.0912(2) 0.3596(5) 0.69793(18)
H21 H 0.12880 0.38640 0.68640
C24 C 0.2849(2) 0.3677(5) 0.6750(2)
H22 H 0.30170 0.46200 0.68280
C25 C 0.3471(3) 0.2764(7) 0.6830(3)
H23 H 0.38550 0.28710 0.72700
H24 H 0.36280 0.30180 0.65070
H25 H 0.33200 0.18310 0.67620
C26 C 0.2207(3) 0.3596(6) 0.6053(2)
H26 H 0.18260 0.41390 0.60690
C27 C 0.1923(4) 0.2182(8) 0.5859(3)
H27 H 0.18190 0.18030 0.61960
H28 H 0.22720 0.16290 0.58120
H29 H 0.14980 0.22080 0.54430
C28 C 0.2375(4) 0.4239(7) 0.5523(3)
H30 H 0.19680 0.41630 0.50940
H31 H 0.27700 0.37760 0.55150
H32 H 0.24910 0.51820 0.56270
N1 N 0.0926(3) -0.0156(6) 0.3776(3)
N2 N 0.3328(3) 0.1353(5) 0.4711(2)
N3 N 0.2437(2) -0.0073(4) 0.21059(17)
H33 H 0.24350 0.07770 0.21950
N4 N 0.3536(2) 0.2302(5) 0.99008(18)
N5 N 0.1125(2) 0.3863(5) 0.89616(19)
N6 N 0.26495(17) 0.3299(3) 0.72681(15)
H34 H 0.26480 0.24500 0.73600
O1 O 0.0952(3) 0.0318(6) 0.4284(3)
O2 O 0.3313(2) 0.1448(5) 0.5239(2)
O3 O 0.0388(2) -0.0701(6) 0.3351(2)
O4 O 0.3773(3) 0.1932(6) 0.4594(2)
N7 N 0.0976(2) -0.0935(5) 0.2554(2)
H35 H 0.06750 -0.12960 0.26640
O5 O 0.34459(17) 0.0131(4) 0.35551(15)
O6 O 0.2352(2) -0.2202(3) 0.24356(19)
O7 O 0.3963(2) 0.1660(5) 0.9792(2)
O8 O 0.3522(2) 0.2307(5) 1.04399(16)
O9 O 0.1161(2) 0.3519(5) 0.94979(17)
O10 O 0.05903(19) 0.4372(5) 0.85230(18)
N8 N 0.11081(17) 0.4067(4) 0.76599(15)
H36 H 0.08030 0.45640 0.77120
O11 O 0.35904(14) 0.3261(4) 0.86735(14)
O12 O 0.23905(17) 0.5416(3) 0.74670(16)
C29 C 0.0220(2) 0.4323(5) 0.6502(2)
H37 H -0.01460 0.40860 0.66350
C30 C 0.0310(3) 0.5837(7) 0.6548(4)
H38 H 0.04650 0.61210 0.70000
H39 H -0.01350 0.62640 0.62660
H40 H 0.06580 0.60970 0.64070
C31 C -0.0028(3) 0.3829(10) 0.5789(2)
H41 H -0.04620 0.42810 0.54990
H42 H -0.01070 0.28650 0.57680
H43 H 0.03290 0.40300 0.56510
C32 C 0.0854(3) 0.2077(6) 0.6950(3)
H44 H 0.13020 0.16870 0.72540
H45 H 0.07300 0.17740 0.65060
H46 H 0.04950 0.17960 0.70720
C33 C 0.0361(5) -0.2255(10) 0.1558(4)
H47 H 0.06740 -0.30100 0.17610
H48 H 0.01960 -0.22780 0.10850
H49 H -0.00360 -0.23110 0.16530
C34 C 0.0320(7) 0.0370(14) 0.1527(5)
H50 H 0.06070 0.11540 0.17690
C35 C 0.0144(10) 0.051(2) 0.0775(5)
H51 H -0.01370 0.13080 0.05910
H52 H -0.01180 -0.02800 0.05350
H53 H 0.05770 0.05720 0.07390
C36 C -0.0292(8) 0.041(2) 0.1559(7)
H54 H -0.02000 0.03890 0.20170
H55 H -0.05770 -0.03620 0.13300
H56 H -0.05420 0.12310 0.13540
#END
