
#######################################################################
#
#                 Cambridge Crystallographic Data Centre
#                                CCDC
#
#######################################################################
#
# If this CIF has been generated from an entry in the Cambridge
# Structural Database, then it will include bibliographic, chemical,
# crystal, experimental, refinement or atomic coordinate data resulting
# from the CCDC's data processing and validation procedures.
#
#######################################################################

data_CSD_CIF_OCEKUE
_audit_creation_date 2012-01-16
_audit_creation_method CSD-ConQuest-V1
_database_code_CSD OCEKUE
_database_code_depnum_ccdc_archive 'CCDC 858540'
_chemical_formula_sum 'C20 H16 N2 O1'
_chemical_formula_moiety
;
C20 H16 N2 O1
;
_journal_coeditor_code "IUCr FK2045"
_journal_coden_Cambridge 1370
_journal_volume 67
_journal_year 2011
_journal_page_first o3487
_journal_name_full 'Acta Crystallogr.,Sect.E:Struct.Rep.Online '
loop_
_publ_author_name
"A.M.Asiri"
"A.O.Al-Youbi"
"S.A.Khan"
"M.N.Tahir"
_chemical_name_systematic
;
N-[(E)-Anthracen-9-ylmethylidene]-3,4-dimethyl-1,2-oxazol-5-amine
;
_chemical_name_common
;
N-(9-Anthrylmethylene)-3,4-dimethyl-1,2-oxazol-5-amine
;
_cell_volume   3076.785
_exptl_crystal_colour 'red'
_exptl_crystal_density_diffrn 1.297
_exptl_crystal_description 'prism'
_diffrn_ambient_temperature 296
#These two values have been output from a single CSD field.
_refine_ls_R_factor_gt 0.0442
_refine_ls_wR_factor_gt 0.0442
_symmetry_cell_setting monoclinic
_symmetry_space_group_name_H-M 'C 2/c'
_symmetry_Int_Tables_number 15
loop_
_symmetry_equiv_pos_site_id
_symmetry_equiv_pos_as_xyz
1 x,y,z
2 -x,y,1/2-z
3 1/2+x,1/2+y,z
4 1/2-x,1/2+y,1/2-z
5 -x,-y,-z
6 x,-y,-1/2+z
7 -1/2-x,-1/2-y,-z
8 -1/2+x,-1/2-y,-1/2+z
_cell_length_a 22.4919(14)
_cell_length_b 6.1666(4)
_cell_length_c 22.6801(13)
_cell_angle_alpha 90
_cell_angle_beta 102.015(2)
_cell_angle_gamma 90
_cell_formula_units_Z 8
loop_
_atom_type_symbol
_atom_type_radius_bond
C 0.68
H 0.23
N 0.68
O 0.68
loop_
_atom_site_label
_atom_site_type_symbol
_atom_site_fract_x
_atom_site_fract_y
_atom_site_fract_z
O1 O 0.09676(5) 0.50025(19) 0.05196(5)
N1 N 0.10276(6) 0.2014(2) 0.11940(6)
N2 N 0.05953(7) 0.6861(3) 0.03694(7)
C1 C 0.16650(6) -0.1894(3) 0.17670(6)
C2 C 0.12182(7) -0.1253(3) 0.20964(7)
C3 C 0.10875(8) -0.2518(3) 0.25450(8)
C4 C 0.13754(8) -0.4522(3) 0.26932(8)
C5 C 0.17975(8) -0.5201(3) 0.23969(8)
C6 C 0.19672(7) -0.3919(3) 0.19346(7)
C7 C 0.24311(7) -0.4589(3) 0.16590(7)
C8 C 0.26386(7) -0.3322(3) 0.12393(6)
C9 C 0.31446(7) -0.3980(3) 0.09933(7)
C10 C 0.33622(8) -0.2712(3) 0.06009(8)
C11 C 0.30869(8) -0.0702(3) 0.04332(8)
C12 C 0.25992(7) -0.0016(3) 0.06472(7)
C13 C 0.23446(6) -0.1286(2) 0.10601(6)
C14 C 0.18386(6) -0.0631(2) 0.13028(6)
C15 C 0.15128(7) 0.1314(2) 0.10573(7)
C16 C 0.07545(7) 0.3889(3) 0.09501(7)
C17 C 0.02670(7) 0.4911(3) 0.10808(7)
C18 C 0.01918(7) 0.6751(3) 0.07070(8)
C19 C -0.02801(9) 0.8473(3) 0.06716(10)
C20 C -0.00958(9) 0.4243(4) 0.15280(9)
H1 H 0.10126 0.00518 0.20030
H2 H 0.08009 -0.20426 0.27582
H3 H 0.12735 -0.53754 0.29956
H4 H 0.19841 -0.65363 0.24946
H5 H 0.26093 -0.59368 0.17593
H6 H 0.33285 -0.53105 0.11056
H7 H 0.36913 -0.31682 0.04434
H8 H 0.32424 0.01809 0.01692
H9 H 0.24256 0.13187 0.05217
H10 H 0.16724 0.21079 0.07779
H11 H -0.02371 0.91685 0.10569
H12 H -0.06768 0.78325 0.05612
H13 H -0.02301 0.95261 0.03740
H14 H 0.00725 0.29388 0.17266
H15 H -0.05088 0.39842 0.13254
H16 H -0.00855 0.53733 0.18209
#END
