
#######################################################################
#
#                 Cambridge Crystallographic Data Centre
#                                CCDC
#
#######################################################################
#
# If this CIF has been generated from an entry in the Cambridge
# Structural Database, then it will include bibliographic, chemical,
# crystal, experimental, refinement or atomic coordinate data resulting
# from the CCDC's data processing and validation procedures.
#
#######################################################################

data_CSD_CIF_OCEKIS
_audit_creation_date 2012-01-16
_audit_creation_method CSD-ConQuest-V1
_database_code_CSD OCEKIS
_database_code_depnum_ccdc_archive 'CCDC 858538'
_chemical_formula_sum 'C14 H14 N4 O3'
_chemical_formula_moiety
;
C14 H14 N4 O3
;
_journal_coeditor_code "IUCr QM2042"
_journal_coden_Cambridge 1370
_journal_volume 67
_journal_year 2011
_journal_page_first o3485
_journal_name_full 'Acta Crystallogr.,Sect.E:Struct.Rep.Online '
loop_
_publ_author_name
"M.R.Melardi"
"A.Ghannadan"
"M.Peyman"
"G.Bruno"
"H.Amiri Rudbari"
_chemical_name_systematic
;
3-(2-Ethoxyphenyl)-1-(3-nitrophenyl)triaz-1-ene
;
_cell_volume    692.141
_exptl_crystal_colour 'colorless'
_exptl_crystal_density_diffrn 1.374
_exptl_crystal_description 'irregular'
_diffrn_ambient_temperature 293
#These two values have been output from a single CSD field.
_refine_ls_R_factor_gt 0.0385
_refine_ls_wR_factor_gt 0.0385
_symmetry_cell_setting triclinic
_symmetry_space_group_name_H-M 'P -1'
_symmetry_Int_Tables_number 2
loop_
_symmetry_equiv_pos_site_id
_symmetry_equiv_pos_as_xyz
1 x,y,z
2 -x,-y,-z
_cell_length_a 6.7754(4)
_cell_length_b 7.5482(4)
_cell_length_c 14.0467(7)
_cell_angle_alpha 99.057(3)
_cell_angle_beta 102.479(2)
_cell_angle_gamma 90.192(3)
_cell_formula_units_Z 2
loop_
_atom_type_symbol
_atom_type_radius_bond
C 0.68
H 0.23
N 0.68
O 0.68
loop_
_atom_site_label
_atom_site_type_symbol
_atom_site_fract_x
_atom_site_fract_y
_atom_site_fract_z
O1 O 0.14363(13) 0.78956(13) 0.80767(6)
O2 O -0.25541(16) 0.75287(19) 0.17852(8)
O3 O -0.09609(19) 0.67215(19) 0.06405(7)
N1 N 0.08879(15) 0.75248(15) 0.61555(7)
H1 H 0.19690 0.72240 0.65320
N2 N 0.07393(15) 0.72890(13) 0.51841(7)
N3 N 0.22616(15) 0.65698(14) 0.49393(7)
N4 N -0.10788(17) 0.69283(16) 0.15046(7)
C1 C 0.3938(2) 0.7498(2) 0.94857(10)
H2 H 0.39110 0.62270 0.92610
H3 H 0.42960 0.77320 1.01950
H4 H 0.49190 0.80820 0.92260
C2 C 0.1898(2) 0.8201(2) 0.91353(9)
H5 H 0.08900 0.75910 0.93760
H6 H 0.18950 0.94760 0.93830
C3 C -0.03776(17) 0.84559(16) 0.76042(8)
C4 C -0.06778(17) 0.82518(15) 0.65747(8)
C5 C 0.21578(17) 0.63226(15) 0.39086(8)
C6 C 0.05175(17) 0.67526(15) 0.32130(8)
H7 H -0.06270 0.72360 0.34020
C7 C 0.06377(18) 0.64406(15) 0.22357(8)
C8 C 0.2299(2) 0.57199(18) 0.19153(9)
H8 H 0.23290 0.55230 0.12480
C9 C 0.3909(2) 0.53033(18) 0.26185(10)
H9 H 0.50490 0.48180 0.24250
C10 C 0.38486(19) 0.55994(17) 0.36067(9)
H10 H 0.49460 0.53130 0.40740
C11 C -0.24781(19) 0.87423(17) 0.60219(10)
H11 H -0.26860 0.85990 0.53370
C12 C -0.3968(2) 0.94460(18) 0.64873(11)
H12 H -0.51760 0.97780 0.61140
C13 C -0.3679(2) 0.96581(19) 0.74939(12)
H13 H -0.46880 1.01370 0.78010
C14 C -0.1888(2) 0.91623(19) 0.80575(10)
H14 H -0.17010 0.93040 0.87410
#END
