
#######################################################################
#
#                 Cambridge Crystallographic Data Centre
#                                CCDC
#
#######################################################################
#
# If this CIF has been generated from an entry in the Cambridge
# Structural Database, then it will include bibliographic, chemical,
# crystal, experimental, refinement or atomic coordinate data resulting
# from the CCDC's data processing and validation procedures.
#
#######################################################################

data_CSD_CIF_OCENIV
_audit_creation_date 2012-01-25
_audit_creation_method CSD-ConQuest-V1
_database_code_CSD OCENIV
_database_code_depnum_ccdc_archive 'CCDC 858553'
_chemical_formula_sum 'C15 H21 N2 O4'
_chemical_formula_moiety
;
C15 H21 N2 O4
;
_journal_coeditor_code "IUCr RK2315"
_journal_coden_Cambridge 1370
_journal_volume 67
_journal_year 2011
_journal_page_first o3503
_journal_name_full 'Acta Crystallogr.,Sect.E:Struct.Rep.Online '
loop_
_publ_author_name
"L.-L.Jing"
"H.-P.Ma"
"L.He"
"P.-C.Fan"
"Z.-P.Jia"
_chemical_name_systematic
;
2-[2-(2-Hydroxyethoxy)phenyl]-4,4,5,5-tetramethyl-2-imidazoline-1-oxyl 3-oxide
;
_cell_volume   1571.517
_exptl_crystal_colour 'red'
_exptl_crystal_density_diffrn 1.24
_exptl_crystal_description 'block'
_exptl_crystal_preparation 'hexane/dichloromethane'
_diffrn_ambient_temperature 296
#These two values have been output from a single CSD field.
_refine_ls_R_factor_gt 0.0422
_refine_ls_wR_factor_gt 0.0422
_symmetry_cell_setting orthorhombic
_symmetry_space_group_name_H-M 'P c a 21'
_symmetry_Int_Tables_number 29
loop_
_symmetry_equiv_pos_site_id
_symmetry_equiv_pos_as_xyz
1 x,y,z
2 -x,-y,1/2+z
3 1/2+x,-y,z
4 1/2-x,y,1/2+z
_cell_length_a 14.458(7)
_cell_length_b 10.187(5)
_cell_length_c 10.670(5)
_cell_angle_alpha 90
_cell_angle_beta 90
_cell_angle_gamma 90
_cell_formula_units_Z 4
loop_
_atom_type_symbol
_atom_type_radius_bond
C 0.68
H 0.23
N 0.68
O 0.68
loop_
_atom_site_label
_atom_site_type_symbol
_atom_site_fract_x
_atom_site_fract_y
_atom_site_fract_z
C1 C 0.9017(2) 0.8466(3) 0.2894(4)
C2 C 0.9954(3) 0.9121(4) 0.3217(4)
C3 C 0.95885(19) 0.7595(3) 0.4802(3)
C4 C 0.9624(2) 0.6861(3) 0.5974(3)
C5 C 0.8832(3) 0.6738(4) 0.6705(4)
H1 H 0.82740 0.70710 0.64100
C6 C 0.8859(3) 0.6144(4) 0.7837(5)
H2 H 0.83270 0.60740 0.83210
C7 C 0.9683(3) 0.5645(4) 0.8264(5)
H3 H 0.97050 0.52530 0.90500
C8 C 1.0473(3) 0.5710(3) 0.7558(4)
H4 H 1.10230 0.53560 0.78580
C9 C 1.0443(2) 0.6313(3) 0.6386(3)
C10 C 1.2080(2) 0.6121(4) 0.6047(5)
H5 H 1.21860 0.51840 0.61300
H6 H 1.21650 0.65290 0.68600
C11 C 1.2719(3) 0.6687(6) 0.5129(5)
H7 H 1.33460 0.64390 0.53480
H8 H 1.25840 0.63220 0.43090
C12 C 0.8185(3) 0.9359(4) 0.3095(8)
H9 H 0.76320 0.88390 0.31270
H10 H 0.81430 0.99730 0.24150
H11 H 0.82570 0.98280 0.38690
C13 C 0.8961(4) 0.7819(5) 0.1625(4)
H12 H 0.94690 0.72200 0.15290
H13 H 0.89910 0.84770 0.09830
H14 H 0.83890 0.73470 0.15570
C14 C 0.9919(5) 1.0609(4) 0.3315(6)
H15 H 0.94620 1.08580 0.39240
H16 H 0.97590 1.09750 0.25150
H17 H 1.05130 1.09340 0.35700
C15 C 1.0746(3) 0.8629(9) 0.2416(5)
H18 H 1.13230 0.88750 0.27940
H19 H 1.07040 0.90090 0.15950
H20 H 1.07130 0.76900 0.23520
N1 N 0.89542(17) 0.7436(3) 0.3891(3)
N2 N 1.01428(18) 0.8600(2) 0.4494(3)
O1 O 0.83122(15) 0.6579(2) 0.3892(3)
O2 O 1.07936(16) 0.9064(2) 0.5172(2)
O3 O 1.11657(14) 0.6369(2) 0.5582(2)
O4 O 1.2663(2) 0.8039(4) 0.5064(5)
H21 H 1.21190 0.82650 0.50990
#END
