
#######################################################################
#
#                 Cambridge Crystallographic Data Centre
#                                CCDC
#
#######################################################################
#
# If this CIF has been generated from an entry in the Cambridge
# Structural Database, then it will include bibliographic, chemical,
# crystal, experimental, refinement or atomic coordinate data resulting
# from the CCDC's data processing and validation procedures.
#
#######################################################################

data_CSD_CIF_OCEVUN
_audit_creation_date 2002-02-21
_audit_creation_method CSD-ConQuest-V1
_database_code_CSD OCEVUN
_database_code_depnum_ccdc_archive 'CCDC 147145'
_chemical_formula_sum 'C21 H22 N2 O3'
_chemical_formula_moiety
;
C21 H22 N2 O3
;
_journal_coden_Cambridge 182
_journal_year 2001
_journal_page_first 2132
_journal_name_full 'Chem.Commun. '
loop_
_publ_author_name
"O.Godsi"
"U.Peskin"
"M.Kapon"
"E.Natan"
"Y.Eichen"
_chemical_name_systematic
;
1',3'-Dihydro-1'-(n-propyl)-3',3'-dimethyl-6-nitrospiro(2H-1)benzopyran-2,2'-(
2H)-indoline
;
_chemical_melting_point 423.85
_cell_volume   1848.095
_exptl_crystal_colour 'white'
_exptl_crystal_density_diffrn 1.259
_exptl_crystal_description 'prism'
_diffrn_ambient_temperature 293
#These two values have been output from a single CSD field.
_refine_ls_R_factor_gt 0.043
_refine_ls_wR_factor_gt 0.043
_symmetry_cell_setting triclinic
_symmetry_space_group_name_H-M 'P -1'
_symmetry_Int_Tables_number 2
loop_
_symmetry_equiv_pos_site_id
_symmetry_equiv_pos_as_xyz
1 x,y,z
2 -x,-y,-z
_cell_length_a 12.1910(5)
_cell_length_b 12.4340(5)
_cell_length_c 12.9160(4)
_cell_angle_alpha 101.743(2)
_cell_angle_beta 104.914(2)
_cell_angle_gamma 90.647(2)
_cell_formula_units_Z 4
loop_
_atom_type_symbol
_atom_type_radius_bond
C 0.68
H 0.23
N 0.68
O 0.68
loop_
_atom_site_label
_atom_site_type_symbol
_atom_site_fract_x
_atom_site_fract_y
_atom_site_fract_z
C1 C 0.73124(15) 0.06775(14) 0.25218(14)
C2 C 0.67448(18) -0.03156(15) 0.23894(17)
H1 H 0.62350 -0.06340 0.17220
C3 C 0.6939(2) -0.08459(18) 0.3267(2)
H2 H 0.65520 -0.15180 0.31890
C4 C 0.7698(2) -0.03786(18) 0.42410(19)
H3 H 0.78220 -0.07450 0.48170
C5 C 0.82836(18) 0.06204(16) 0.43932(16)
H4 H 0.87970 0.09300 0.50610
C6 C 0.80867(15) 0.11473(14) 0.35267(14)
N1 N 0.85866(12) 0.21393(11) 0.34562(11)
C7 C 0.92146(17) 0.29340(15) 0.44382(15)
H5 H 0.88960 0.28760 0.50410
H6 H 0.91120 0.36710 0.43060
C8 C 1.04644(19) 0.2771(2) 0.47667(19)
H7 H 1.07910 0.28570 0.41760
H8 H 1.05700 0.20270 0.48770
C9 C 1.1088(3) 0.3574(2) 0.5802(2)
H9 H 1.18810 0.34380 0.59770
H10 H 1.07800 0.34820 0.63940
H11 H 1.10000 0.43120 0.56930
C10 C 0.78972(14) 0.25063(13) 0.25265(14)
O1 O 0.69939(10) 0.31101(9) 0.29307(10)
C11 C 0.65148(15) 0.39474(12) 0.24859(13)
C12 C 0.55114(16) 0.42868(14) 0.27131(14)
H12 H 0.51950 0.39460 0.31570
C13 C 0.49811(17) 0.51284(15) 0.22830(15)
H13 H 0.42970 0.53540 0.24180
C14 C 0.54829(18) 0.56315(14) 0.16473(15)
N2 N 0.49406(19) 0.65410(15) 0.11924(15)
O2 O 0.54357(18) 0.70346(15) 0.07048(18)
O3 O 0.39935(19) 0.67480(16) 0.13006(16)
C15 C 0.65014(17) 0.53260(14) 0.14336(15)
H14 H 0.68260 0.56900 0.10120
C16 C 0.70358(15) 0.44684(13) 0.18566(14)
C17 C 0.81259(16) 0.41068(15) 0.17160(16)
H15 H 0.85350 0.44950 0.13770
C18 C 0.85417(16) 0.32287(14) 0.20672(15)
H16 H 0.92710 0.30540 0.20250
C19 C 0.73319(14) 0.14093(13) 0.17237(13)
C20 C 0.61760(16) 0.15363(17) 0.09846(16)
H17 H 0.62600 0.20100 0.05050
H18 H 0.56870 0.18520 0.14250
H19 H 0.58490 0.08280 0.05560
C21 C 0.81222(17) 0.09344(16) 0.10131(15)
H20 H 0.81450 0.13890 0.05000
H21 H 0.78400 0.02010 0.06210
H22 H 0.88750 0.09170 0.14750
C22 C 0.23234(15) 0.32452(14) 0.24832(14)
C23 C 0.17498(18) 0.41627(15) 0.23137(18)
H23 H 0.12450 0.41660 0.16380
C24 C 0.1931(2) 0.50837(17) 0.3161(2)
H24 H 0.15410 0.57080 0.30560
C25 C 0.2679(2) 0.50814(17) 0.4149(2)
H25 H 0.27850 0.57060 0.47100
C26 C 0.32845(18) 0.41711(15) 0.43368(16)
H26 H 0.38020 0.41770 0.50070
C27 C 0.30860(15) 0.32517(14) 0.34837(14)
N3 N 0.35945(12) 0.22438(11) 0.34630(11)
C28 C 0.42015(17) 0.19113(16) 0.44622(15)
H27 H 0.40800 0.11200 0.43600
H28 H 0.38850 0.22550 0.50560
C29 C 0.54623(19) 0.2213(2) 0.47875(19)
H29 H 0.57820 0.18570 0.42010
H30 H 0.55850 0.30020 0.48770
C30 C 0.6079(3) 0.1886(3) 0.5832(2)
H31 H 0.68750 0.20960 0.59970
H32 H 0.59750 0.11030 0.57450
H33 H 0.57800 0.22490 0.64200
C31 C 0.28988(14) 0.14425(13) 0.25572(13)
O4 O 0.19994(10) 0.10252(8) 0.29927(9)
C32 C 0.15226(14) -0.00150(13) 0.25913(13)
C33 C 0.04999(16) -0.02423(15) 0.28084(15)
H34 H 0.01780 0.03010 0.32240
C34 C -0.00372(18) -0.12800(16) 0.24044(15)
H35 H -0.07330 -0.14410 0.25280
C35 C 0.04733(19) -0.20747(15) 0.18135(15)
N4 N -0.0114(2) -0.31656(16) 0.13458(17)
O5 O 0.0345(2) -0.38630(15) 0.0833(2)
O6 O -0.1068(2) -0.33071(16) 0.14579(17)
C36 C 0.15132(18) -0.18691(14) 0.16300(14)
H36 H 0.18500 -0.24280 0.12490
C37 C 0.20520(15) -0.08271(13) 0.20163(13)
C38 C 0.31504(16) -0.05211(15) 0.18898(14)
H37 H 0.35810 -0.10650 0.16150
C39 C 0.35495(16) 0.05128(14) 0.21572(14)
H38 H 0.42740 0.06720 0.20940
C40 C 0.23253(14) 0.21479(13) 0.17171(13)
C41 C 0.30777(17) 0.22882(16) 0.09606(15)
H39 H 0.30870 0.15970 0.04710
H40 H 0.38380 0.25300 0.13950
H41 H 0.27790 0.28260 0.05430
C42 C 0.11479(16) 0.16762(16) 0.10230(16)
H42 H 0.12110 0.09840 0.05590
H43 H 0.08090 0.21790 0.05780
H44 H 0.06810 0.15680 0.14940
#END
