
#######################################################################
#
#                 Cambridge Crystallographic Data Centre
#                                CCDC
#
#######################################################################
#
# If this CIF has been generated from an entry in the Cambridge
# Structural Database, then it will include bibliographic, chemical,
# crystal, experimental, refinement or atomic coordinate data resulting
# from the CCDC's data processing and validation procedures.
#
#######################################################################

data_CSD_CIF_OCHTET16
_audit_creation_date 2011-08-15
_audit_creation_method CSD-ConQuest-V1
_database_code_CSD OCHTET16
_database_code_depnum_ccdc_archive 'CCDC 792929'
_chemical_formula_sum 'C4 H8 N8 O8'
_chemical_formula_moiety
;
C4 H8 N8 O8
;
_journal_coden_Cambridge 1003
_journal_volume 41
_journal_year 2011
_journal_page_first 966
_journal_name_full 'J.Chem.Cryst. '
loop_
_publ_author_name
"J.R.Deschamps"
"M.Frisch"
"D.Parrish"
_chemical_name_systematic
;
1,3,5,7-Tetranitro-1,3,5,7-tetra-azacyclo-octane
;
_cell_volume    513.535
_exptl_crystal_colour 'colorless'
_exptl_crystal_density_diffrn 1.915
_exptl_special_details
;
beta-phase
explosive

;
_exptl_crystal_description 'prism'
_diffrn_ambient_temperature 248
#These two values have been output from a single CSD field.
_refine_ls_R_factor_gt 0.0302
_refine_ls_wR_factor_gt 0.0302
_symmetry_cell_setting monoclinic
_symmetry_space_group_name_H-M 'P 21/n'
_symmetry_Int_Tables_number 14
loop_
_symmetry_equiv_pos_site_id
_symmetry_equiv_pos_as_xyz
1 x,y,z
2 1/2-x,1/2+y,1/2-z
3 -x,-y,-z
4 -1/2+x,-1/2-y,-1/2+z
_cell_length_a 6.5254(9)
_cell_length_b 10.9702(16)
_cell_length_c 7.3503(11)
_cell_angle_alpha 90
_cell_angle_beta 102.582(9)
_cell_angle_gamma 90
_cell_formula_units_Z 2
loop_
_atom_type_symbol
_atom_type_radius_bond
C 0.68
H 0.23
N 0.68
O 0.68
loop_
_atom_site_label
_atom_site_type_symbol
_atom_site_fract_x
_atom_site_fract_y
_atom_site_fract_z
N1 N 0.98127(19) 0.62281(11) 0.46081(19)
O1 O 1.2716(2) 0.71974(12) 0.4361(2)
N2 N 1.1401(2) 0.70313(12) 0.5309(2)
N3 N 0.8573(2) 0.52543(12) 0.7057(2)
O2 O 0.7276(2) 0.42871(13) 0.92255(19)
N4 N 0.6979(2) 0.50143(13) 0.7936(2)
O3 O 1.1409(2) 0.74762(13) 0.6832(2)
C1 C 0.8092(2) 0.61522(14) 0.5532(2)
H1 H 0.68150 0.59080 0.46380
H2 H 0.78450 0.69530 0.60360
O4 O 0.53531(19) 0.56038(13) 0.7380(2)
C2 C 0.9781(2) 0.56587(14) 0.2817(2)
H3 H 0.8424(11) 0.5272(12) 0.239(2)
H4 H 0.997(2) 0.6246(13) 0.1882(17)
N1B N 1.01873(19) 0.37719(11) 0.53919(19)
O1B O 0.7284(2) 0.28026(12) 0.5639(2)
N2B N 0.8599(2) 0.29687(12) 0.4691(2)
N3B N 1.1427(2) 0.47457(12) 0.2943(2)
O2B O 1.2724(2) 0.57129(13) 0.07745(19)
N4B N 1.3021(2) 0.49857(13) 0.2064(2)
O3B O 0.8591(2) 0.25238(13) 0.3168(2)
C1B C 1.1908(2) 0.38478(14) 0.4468(2)
H1B H 1.31850 0.40920 0.53620
H2B H 1.21550 0.30470 0.39640
O4B O 1.46469(19) 0.43962(13) 0.2620(2)
C2B C 1.0219(2) 0.43413(14) 0.7183(2)
H3B H 1.1576(11) 0.4728(12) 0.761(2)
H4B H 1.003(2) 0.3754(13) 0.8118(17)
#END
