
#######################################################################
#
#                 Cambridge Crystallographic Data Centre
#                                CCDC
#
#######################################################################
#
# If this CIF has been generated from an entry in the Cambridge
# Structural Database, then it will include bibliographic, chemical,
# crystal, experimental, refinement or atomic coordinate data resulting
# from the CCDC's data processing and validation procedures.
#
#######################################################################

data_CSD_CIF_OCHTET04
_audit_creation_date 1989-09-22
_audit_creation_method CSD-ConQuest-V1
_database_code_CSD OCHTET04
_chemical_formula_sum 'C4 H8 N8 O8'
_chemical_formula_moiety
;
C4 H8 N8 O8
;
_journal_coden_Cambridge 95
_journal_year 1987
_journal_page_first 576
_journal_name_full 'Izv.Akad.Nauk SSSR,Ser.Khim.(Russ.)(Russ.Chem.Bull.) '
loop_
_publ_author_name
"N.G.Zhitomirskaya"
"L.T.Eremenko"
"N.I.Golovina"
"L.O.Atovmyan"
_chemical_name_systematic
;
1,3,5,7-Tetranitro-1,3,5,7-tetra-azacyclo-octane
;
_cell_volume    516.880
_exptl_crystal_density_diffrn 1.902
_exptl_special_details
;
beta polymorph

;
_diffrn_ambient_temperature ?
_diffrn_special_details
;
The study was carried out at room temperature,in the range 283-303K

;
#These two values have been output from a single CSD field.
_refine_ls_R_factor_gt 0.065
_refine_ls_wR_factor_gt 0.065
_symmetry_cell_setting monoclinic
_symmetry_space_group_name_H-M 'P 1 1 21/n'
_symmetry_Int_Tables_number 14
loop_
_symmetry_equiv_pos_site_id
_symmetry_equiv_pos_as_xyz
1 x,y,z
2 1/2-x,1/2-y,1/2+z
3 -x,-y,-z
4 -1/2+x,-1/2+y,-1/2-z
_cell_length_a 6.533(1)
_cell_length_b 7.351(2)
_cell_length_c 11.032(3)
_cell_angle_alpha 90
_cell_angle_beta 90
_cell_angle_gamma 77.32(2)
_cell_formula_units_Z 2
loop_
_atom_type_symbol
_atom_type_radius_bond
C 0.68
H 0.23
N 0.68
O 0.68
loop_
_atom_site_label
_atom_site_type_symbol
_atom_site_fract_x
_atom_site_fract_y
_atom_site_fract_z
C1 C 0.6907(7) 0.0552(6) 0.3852(4)
C2 C 0.4765(7) 0.2160(6) 0.5658(3)
N1 N 0.8012(6) 0.2925(6) 0.4985(3)
N2 N 0.6423(5) 0.2047(5) 0.4760(3)
N3 N 0.5175(5) -0.0385(5) 0.3779(3)
N4 N 0.3580(6) 0.0316(6) 0.2975(3)
O1 O 0.7682(5) 0.4227(5) 0.5709(3)
O2 O 0.9606(5) 0.2401(4) 0.4404(3)
O3 O 0.3576(5) 0.1827(4) 0.2534(3)
O4 O 0.2296(5) -0.0618(4) 0.2805(3)
H1 H 0.6955(94) 0.1100(79) 0.3103(53)
H2 H 0.7890(71) -0.0371(61) 0.4205(44)
H3 H 0.4814(64) 0.3235(55) 0.6211(35)
H4 H 0.3539(76) 0.2659(70) 0.5247(48)
N3B N 0.4825(5) 0.0385(5) 0.6221(3)
C2B C 0.5235(7) -0.2160(6) 0.4342(3)
C1B C 0.3093(7) -0.0552(6) 0.6148(4)
N4B N 0.6420(6) -0.0316(6) 0.7025(3)
N2B N 0.3577(5) -0.2047(5) 0.5240(3)
H3B H 0.5186(64) -0.3235(55) 0.3789(35)
H4B H 0.6461(76) -0.2659(70) 0.4753(48)
H1B H 0.3045(94) -0.1100(79) 0.6897(53)
H2B H 0.2110(71) 0.0371(61) 0.5795(44)
O3B O 0.6424(5) -0.1827(4) 0.7466(3)
O4B O 0.7704(5) 0.0618(4) 0.7195(3)
N1B N 0.1988(6) -0.2925(6) 0.5015(3)
O1B O 0.2318(5) -0.4227(5) 0.4291(3)
O2B O 0.0394(5) -0.2401(4) 0.5596(3)
#END
