
#######################################################################
#
#                 Cambridge Crystallographic Data Centre
#                                CCDC
#
#######################################################################
#
# If this CIF has been generated from an entry in the Cambridge
# Structural Database, then it will include bibliographic, chemical,
# crystal, experimental, refinement or atomic coordinate data resulting
# from the CCDC's data processing and validation procedures.
#
#######################################################################

data_CSD_CIF_OCHTET22
_audit_creation_date 2012-12-31
_audit_creation_method CSD-ConQuest-V1
_database_code_CSD OCHTET22
_database_code_depnum_ccdc_archive 'CCDC 1225496'
_chemical_formula_sum 'C4 H8 N8 O8'
_chemical_formula_moiety
;
C4 H8 N8 O8
;
_journal_coden_Cambridge 647
_journal_volume 29
_journal_year 2010
_journal_page_first 62
_journal_name_full 'Khim.Fiz.(Russ.)(Sov.J.Chem.Phys.) '
loop_
_publ_author_name
"B.L.Korsunsky"
"S.M.Aldoshin"
"S.A.Vozchikova"
"N.I.Golovina"
"N.V.Chukanov"
"G.V.Shilov"
_chemical_name_systematic
;
Octahydro-1,3,5,7-tetranitro-1,3,5,7-tetrazacine
;
_cell_volume   2552.148
_exptl_crystal_colour 'colorless'
_exptl_crystal_density_diffrn 1.927
_exptl_special_details
;
epsilon polymorph

;
_diffrn_ambient_temperature 200
#These two values have been output from a single CSD field.
_refine_ls_R_factor_gt 0.0659
_refine_ls_wR_factor_gt 0.0659
_symmetry_cell_setting monoclinic
_symmetry_space_group_name_H-M 'P 21/c'
_symmetry_Int_Tables_number 14
loop_
_symmetry_equiv_pos_site_id
_symmetry_equiv_pos_as_xyz
1 x,y,z
2 -x,1/2+y,1/2-z
3 -x,-y,-z
4 x,-1/2-y,-1/2+z
_cell_length_a 21.799(3)
_cell_length_b 10.913(2)
_cell_length_c 10.819(2)
_cell_angle_alpha 90
_cell_angle_beta 97.43(2)
_cell_angle_gamma 90
_cell_formula_units_Z 10
loop_
_atom_type_symbol
_atom_type_radius_bond
C 0.68
N 0.68
O 0.68
loop_
_atom_site_label
_atom_site_type_symbol
_atom_site_fract_x
_atom_site_fract_y
_atom_site_fract_z
O1 O 0.0298(5) 0.0722(9) 0.3655(7)
O2 O 0.0666(4) -0.2474(10) 0.0559(7)
O3 O -0.0473(5) -0.0573(11) 0.3259(9)
O4 O 0.0404(5) -0.2173(10) -0.1494(8)
N1 N -0.0128(5) -0.1212(10) -0.0153(8)
N2 N 0.0134(5) -0.0254(10) 0.1808(8)
N3 N -0.0018(6) -0.0005(11) 0.2973(8)
N4 N 0.0309(5) -0.2000(11) -0.0426(9)
C1 C -0.0281(6) -0.1164(11) 0.1066(9)
C2 C 0.0494(8) 0.0616(15) 0.1210(13)
O5 O 0.3706(5) 0.5673(9) 0.3351(8)
O6 O 0.4280(5) 0.4291(9) 1.0589(7)
O7 O 0.4626(4) 0.7485(9) 0.7516(7)
O8 O 0.3361(4) 0.2511(10) 0.6463(7)
O9 O 0.4468(5) 0.4352(9) 0.3728(8)
O10 O 0.3540(5) 0.5622(10) 1.0292(8)
O11 O 0.4429(4) 0.719(1) 0.5580(8)
O12 O 0.3583(4) 0.2773(9) 0.8474(7)
N5 N 0.3888(5) 0.6271(10) 0.6833(8)
N6 N 0.4118(5) 0.3792(10) 0.7201(8)
N7 N 0.4122(5) 0.5239(11) 0.8844(9)
N8 N 0.3882(5) 0.4735(10) 0.5201(9)
N9 N 0.3980(6) 0.4993(12) 0.997(1)
N10 N 0.4016(5) 0.4930(11) 0.4058(9)
N11 N 0.4349(5) 0.7044(11) 0.6657(10)
N12 N 0.3650(5) 0.2912(9) 0.7383(9)
C3 C 0.4272(6) 0.3841(14) 0.5902(10)
C4 C 0.4494(6) 0.4309(13) 0.8227(12)
C5 C 0.3534(7) 0.5666(12) 0.5775(10)
C6 C 0.3724(7) 0.6169(13) 0.8015(12)
O13 O 0.2301(5) 0.4282(10) 0.4655(8)
O14 O 0.1683(5) 0.5740(9) -0.2627(7)
O15 O 0.1349(5) 0.2506(10) 0.0492(7)
O16 O 0.2653(4) 0.7481(9) 0.1526(7)
O17 O 0.1564(5) 0.5592(10) 0.4310(8)
O18 O 0.2466(4) 0.4368(9) -0.2297(7)
O19 O 0.1586(4) 0.2761(8) 0.2484(7)
O20 O 0.2400(5) 0.7179(9) -0.0503(7)
N13 N 0.2096(5) 0.3749(11) 0.1142(8)
N14 N 0.1872(5) 0.6208(10) 0.0847(8)
N15 N 0.1876(5) 0.4721(10) -0.0792(8)
N16 N 0.2123(5) 0.5256(10) 0.2820(8)
N17 N 0.2028(6) 0.495(1) -0.1978(9)
N18 N 0.1991(5) 0.4976(12) 0.3992(10)
N19 N 0.1655(5) 0.2969(10) 0.1393(10)
N20 N 0.2353(6) 0.7025(10) 0.0636(9)
C7 C 0.1535(6) 0.5671(12) -0.0223(9)
C8 C 0.2483(5) 0.4355(12) 0.2261(9)
C9 C 0.1711(6) 0.6152(12) 0.2114(10)
C10 C 0.2280(6) 0.3844(13) -0.0081(9)
O1B O -0.0298(5) -0.0722(9) -0.3655(7)
O2B O -0.0666(4) 0.2474(10) -0.0559(7)
O3B O 0.0473(5) 0.0573(11) -0.3259(9)
O4B O -0.0404(5) 0.2173(10) 0.1494(8)
N1B N 0.0128(5) 0.1212(10) 0.0153(8)
N2B N -0.0134(5) 0.0254(10) -0.1808(8)
N3B N 0.0018(6) 0.0005(11) -0.2973(8)
N4B N -0.0309(5) 0.2000(11) 0.0426(9)
C1B C 0.0281(6) 0.1164(11) -0.1066(9)
C2B C -0.0494(8) -0.0616(15) -0.1210(13)
#END
