
#######################################################################
#
#                 Cambridge Crystallographic Data Centre
#                                CCDC
#
#######################################################################
#
# If this CIF has been generated from an entry in the Cambridge
# Structural Database, then it will include bibliographic, chemical,
# crystal, experimental, refinement or atomic coordinate data resulting
# from the CCDC's data processing and validation procedures.
#
#######################################################################

data_CSD_CIF_OCHTET01
_audit_creation_date 1971-12-31
_audit_creation_method CSD-ConQuest-V1
_database_code_CSD OCHTET01
_chemical_formula_sum 'C4 H8 N8 O8'
_chemical_formula_moiety
;
C4 H8 N8 O8
;
_journal_coeditor_code "IUCr A03872"
_journal_coden_Cambridge 1
_journal_volume 16
_journal_year 1963
_journal_page_first 617
_journal_name_full 'Acta Crystallogr. '
loop_
_publ_author_name
"H.H.Cady"
"A.C.Larson"
"D.T.Cromer"
_chemical_name_systematic
;
1,3,5,7-Tetranitro-1,3,5,7-tetra-azacyclo-octane
;
_cell_volume    519.387
_exptl_special_details
;
beta polymorph
Z-COORD OF N2 IN TAB 7 SHOULD BE .7970 NOT .7070

;
_diffrn_ambient_temperature ?
_diffrn_special_details
;
The study was carried out at room temperature,in the range 283-303K

;
#These two values have been output from a single CSD field.
_refine_ls_R_factor_gt 0.13
_refine_ls_wR_factor_gt 0.13
_symmetry_cell_setting monoclinic
_symmetry_space_group_name_H-M 'P 21/c'
_symmetry_Int_Tables_number 14
loop_
_symmetry_equiv_pos_site_id
_symmetry_equiv_pos_as_xyz
1 x,y,z
2 -x,1/2+y,1/2-z
3 -x,-y,-z
4 x,-1/2-y,-1/2+z
_cell_length_a 6.54
_cell_length_b 11.05
_cell_length_c 8.7
_cell_angle_alpha 90
_cell_angle_beta 124.3
_cell_angle_gamma 90
_cell_formula_units_Z 2
loop_
_atom_type_symbol
_atom_type_radius_bond
C 0.68
N 0.68
O 0.68
loop_
_atom_site_label
_atom_site_type_symbol
_atom_site_fract_x
_atom_site_fract_y
_atom_site_fract_z
C1 C -0.19760 0.06560 -0.21830
C2 C -0.24420 -0.11440 -0.05530
N1 N -0.59450 -0.00060 -0.29190
N2 N -0.34070 -0.02600 -0.20300
N3 N -0.01850 0.12110 -0.03760
N4 N -0.10810 0.20210 0.03040
O1 O -0.69560 0.07190 -0.41920
O2 O -0.70360 -0.06060 -0.24030
O3 O 0.04750 0.24640 0.18160
O4 O -0.33080 0.21970 -0.06500
N3B N 0.01850 -0.12110 0.03760
C2B C 0.24420 0.11440 0.05530
C1B C 0.19760 -0.06560 0.21830
N4B N 0.10810 -0.20210 -0.03040
N2B N 0.34070 0.02600 0.20300
O3B O -0.04750 -0.24640 -0.18160
O4B O 0.33080 -0.21970 0.06500
N1B N 0.59450 0.00060 0.29190
O1B O 0.69560 -0.07190 0.41920
O2B O 0.70360 0.06060 0.24030
#END
