
#######################################################################
#
#                 Cambridge Crystallographic Data Centre
#                                CCDC
#
#######################################################################
#
# If this CIF has been generated from an entry in the Cambridge
# Structural Database, then it will include bibliographic, chemical,
# crystal, experimental, refinement or atomic coordinate data resulting
# from the CCDC's data processing and validation procedures.
#
#######################################################################

data_CSD_CIF_OCHTET03
_audit_creation_date 1975-01-07
_audit_creation_method CSD-ConQuest-V1
_database_code_CSD OCHTET03
_chemical_formula_sum 'C4 H8 N8 O8'
_chemical_formula_moiety
;
C4 H8 N8 O8
;
_journal_coeditor_code "IUCr A11180"
_journal_coden_Cambridge 107
_journal_volume 30
_journal_year 1974
_journal_page_first 1918
_journal_name_full 'Acta Crystallogr.,Sect.B:Struct.Crystallogr.Cryst.Chem. '
loop_
_publ_author_name
"R.E.Cobbledick"
"R.W.H.Small"
_chemical_name_systematic
;
1,3,5,7-Tetranitro-1,3,5,7-tetra-azacyclo-octane
;
_cell_volume   1676.266
_exptl_crystal_density_diffrn 1.586
_exptl_special_details
;
delta polymorph

;
_diffrn_ambient_temperature ?
_diffrn_special_details
;
The study was carried out at room temperature,in the range 283-303K

;
#These two values have been output from a single CSD field.
_refine_ls_R_factor_gt 0.115
_refine_ls_wR_factor_gt 0.115
_symmetry_cell_setting hexagonal
_symmetry_space_group_name_H-M 'P 61'
_symmetry_Int_Tables_number 169
loop_
_symmetry_equiv_pos_site_id
_symmetry_equiv_pos_as_xyz
1 x,y,z
2 -y,x-y,1/3+z
3 -x+y,-x,2/3+z
4 -x,-y,1/2+z
5 y,-x+y,5/6+z
6 x-y,x,1/6+z
_cell_length_a 7.711(2)
_cell_length_b 7.711(2)
_cell_length_c 32.553(6)
_cell_angle_alpha 90
_cell_angle_beta 90
_cell_angle_gamma 120
_cell_formula_units_Z 6
loop_
_atom_type_symbol
_atom_type_radius_bond
C 0.68
H 0.20
N 0.68
O 0.68
loop_
_atom_site_label
_atom_site_type_symbol
_atom_site_fract_x
_atom_site_fract_y
_atom_site_fract_z
C1 C -0.49110 -0.14020 0.00000
C2 C -0.71120 0.00190 0.02180
C3 C -0.74540 -0.47050 0.03440
C4 C -0.95930 -0.32450 0.05480
H1 H -0.34900 -0.09000 -0.00900
H2 H -0.57000 -0.18000 -0.02900
H3 H -0.69000 0.13000 0.03500
H4 H -0.80100 -0.07200 -0.00200
H5 H -0.82000 -0.50000 0.00400
H6 H -0.73000 -0.58900 0.04100
H7 H -1.01000 -0.35000 0.02500
H8 H -1.02000 -0.32000 0.08300
N1 N -0.34620 0.22270 0.01220
N2 N -0.54410 -0.29250 0.03210
N3 N -0.86910 -0.45190 0.06540
N4 N -0.40770 -0.27370 0.06070
N5 N -0.80250 -0.11220 0.05850
N6 N -0.74660 -0.03820 0.09670
N7 N -0.96340 -0.60050 0.09380
N8 N -0.50950 0.02900 0.01370
O1 O -0.37960 0.35640 0.01900
O2 O -0.45630 -0.39620 0.08790
O3 O -0.89540 -0.71470 0.09980
O4 O -0.59770 0.13210 0.09850
O5 O -1.09240 -0.60450 0.11570
O6 O -0.82920 -0.13300 0.12640
O7 O -0.18460 0.23760 0.00400
O8 O -0.23750 -0.12470 0.05560
#END
