
#######################################################################
#
#                 Cambridge Crystallographic Data Centre
#                                CCDC
#
#######################################################################
#
# If this CIF has been generated from an entry in the Cambridge
# Structural Database, then it will include bibliographic, chemical,
# crystal, experimental, refinement or atomic coordinate data resulting
# from the CCDC's data processing and validation procedures.
#
#######################################################################

data_CSD_CIF_OCILOC
_audit_creation_date 2006-07-13
_audit_creation_method CSD-ConQuest-V1
_database_code_CSD OCILOC
_database_code_depnum_ccdc_archive 'CCDC 282438 (not 275186 as published)'
_chemical_formula_sum 'C18 H27 N1 O4'
_chemical_formula_moiety
;
C18 H27 N1 O4
;
_journal_coden_Cambridge 35
_journal_volume 71
_journal_year 2006
_journal_page_first 593
_journal_name_full 'J.Org.Chem. '
loop_
_publ_author_name
"S.E.Denmark"
"R.Y.Baiazitov"
_chemical_name_systematic
;
(1S*,2S*,4S*,6R*,6aR*,10aS*,10bR*)-methyl 
octahydro-6-(2-methylpropenyl)-6H-1,10-ethanoisoxazolo[2,3-c](2,3)benzoxazine-
2-carboxylate
;
_chemical_melting_point 372.15
_cell_volume   1713.958
_exptl_crystal_colour 'colorless'
_exptl_crystal_density_diffrn 1.245
_exptl_special_details
;
Melting point range 372.15-373.15K

;
_exptl_crystal_description 'tabular'
_exptl_crystal_preparation 'hexanes'
_diffrn_ambient_temperature 193
_diffrn_special_details
;
twinned crystal

;
#These two values have been output from a single CSD field.
_refine_ls_R_factor_gt 0.0566
_refine_ls_wR_factor_gt 0.0566
_symmetry_cell_setting triclinic
_symmetry_space_group_name_H-M 'P -1'
_symmetry_Int_Tables_number 2
loop_
_symmetry_equiv_pos_site_id
_symmetry_equiv_pos_as_xyz
1 x,y,z
2 -x,-y,-z
_cell_length_a 9.906(7)
_cell_length_b 13.089(9)
_cell_length_c 13.690(9)
_cell_angle_alpha 102.783(14)
_cell_angle_beta 92.301(14)
_cell_angle_gamma 97.012(14)
_cell_formula_units_Z 4
loop_
_atom_type_symbol
_atom_type_radius_bond
C 0.68
H 0.23
N 0.68
O 0.68
loop_
_atom_site_label
_atom_site_type_symbol
_atom_site_fract_x
_atom_site_fract_y
_atom_site_fract_z
C1 C 0.5476(3) 0.7359(2) 0.4481(2)
H1 H 0.60680 0.78560 0.41690
C2 C 0.4350(3) 0.6701(2) 0.3707(2)
H2 H 0.34560 0.69600 0.38630
C3 C 0.4361(3) 0.5624(2) 0.3971(2)
H3 H 0.38630 0.56270 0.45930
C4 C 0.3788(3) 0.4655(2) 0.3189(2)
H4 H 0.40720 0.40340 0.34190
C5 C 0.2233(3) 0.4478(3) 0.3053(3)
H5 H 0.18450 0.44220 0.36970
H6 H 0.19020 0.50850 0.28410
C6 C 0.1772(3) 0.3468(3) 0.2262(3)
H7 H 0.20170 0.28580 0.25150
H8 H 0.07670 0.33790 0.21480
C7 C 0.2406(3) 0.3468(3) 0.1272(3)
H9 H 0.20550 0.40110 0.09680
H10 H 0.21360 0.27710 0.08060
C8 C 0.3957(3) 0.3693(2) 0.1412(2)
H11 H 0.43210 0.37630 0.07630
H12 H 0.43110 0.30840 0.16010
C9 C 0.4480(3) 0.4700(2) 0.2215(2)
C10 C 0.4185(3) 0.5690(2) 0.1863(2)
H13 H 0.46440 0.57060 0.12360
H14 H 0.31920 0.56320 0.17010
C11 C 0.4645(3) 0.6736(2) 0.2623(2)
H15 H 0.41790 0.72960 0.24290
H16 H 0.56370 0.69310 0.25930
C12 C 0.6000(3) 0.4703(2) 0.2481(2)
H17 H 0.61140 0.40410 0.27080
C13 C 0.6929(3) 0.4792(2) 0.1665(2)
H18 H 0.70500 0.54570 0.14850
C14 C 0.7604(3) 0.4060(3) 0.1162(2)
C15 C 0.8544(3) 0.4304(3) 0.0390(3)
H19 H 0.82260 0.38460 -0.02670
H20 H 0.94660 0.41810 0.05750
H21 H 0.85550 0.50460 0.03580
C16 C 0.7496(3) 0.2944(2) 0.1284(3)
H22 H 0.69160 0.28640 0.18330
H23 H 0.84070 0.27770 0.14400
H24 H 0.70960 0.24610 0.06590
C17 C 0.4896(3) 0.7959(2) 0.5402(3)
C18 C 0.3798(3) 0.9466(2) 0.5964(2)
H25 H 0.30300 0.90210 0.61530
H26 H 0.34600 1.00370 0.57090
H27 H 0.44340 0.97680 0.65520
N1 N 0.5820(2) 0.55873(18) 0.42132(18)
O1 O 0.62723(18) 0.66037(15) 0.47948(14)
O2 O 0.65283(17) 0.56002(14) 0.32824(15)
O3 O 0.44898(19) 0.88349(15) 0.51928(15)
O4 O 0.4763(2) 0.77094(17) 0.61817(17)
C19 C 0.0541(3) 0.2628(2) 0.5517(2)
H28 H 0.11900 0.32790 0.58210
C20 C -0.0394(3) 0.2335(2) 0.6299(2)
H29 H -0.13220 0.25240 0.61700
C21 C -0.0437(3) 0.1133(2) 0.6020(2)
H30 H -0.10690 0.08460 0.54060
C22 C -0.0845(3) 0.0525(2) 0.6801(2)
H31 H -0.06210 -0.02080 0.65490
C23 C -0.2357(3) 0.0418(3) 0.6961(2)
H32 H -0.28840 0.00780 0.63170
H33 H -0.26340 0.11270 0.72030
C24 C -0.2665(3) -0.0249(3) 0.7730(3)
H34 H -0.24790 -0.09800 0.74520
H35 H -0.36430 -0.02790 0.78610
C25 C -0.1801(3) 0.0208(3) 0.8714(3)
H36 H -0.20810 0.08960 0.90390
H37 H -0.19650 -0.02760 0.91720
C26 C -0.0285(3) 0.0363(3) 0.8545(2)
H38 H 0.00230 -0.03390 0.83310
H39 H 0.02240 0.07270 0.91900
C27 C 0.0066(3) 0.1002(2) 0.7761(2)
C28 C -0.0135(3) 0.2163(2) 0.8141(2)
H40 H 0.04780 0.24660 0.87530
H41 H -0.10840 0.21900 0.83360
C29 C 0.0140(3) 0.2858(2) 0.7383(2)
H42 H -0.02830 0.35110 0.76040
H43 H 0.11360 0.30680 0.73960
C30 C 0.1525(3) 0.0875(2) 0.7457(2)
H44 H 0.15810 0.01050 0.72040
C31 C 0.2637(3) 0.1319(2) 0.8252(2)
H45 H 0.28330 0.20680 0.84380
C32 C 0.3388(3) 0.0787(3) 0.8733(2)
C33 C 0.4513(3) 0.1358(3) 0.9494(2)
H46 H 0.45650 0.21200 0.95460
H47 H 0.53800 0.11220 0.92870
H48 H 0.43280 0.12030 1.01490
C34 C 0.3204(3) -0.0389(2) 0.8585(2)
H49 H 0.24880 -0.07020 0.80510
H50 H 0.29420 -0.05800 0.92110
H51 H 0.40610 -0.06560 0.83960
C35 C -0.0245(3) 0.2780(3) 0.4605(3)
C36 C -0.1451(3) 0.4011(2) 0.4027(2)
H52 H -0.09160 0.40510 0.34470
H53 H -0.17680 0.46940 0.42850
H54 H -0.22380 0.34610 0.38230
N2 N 0.0962(2) 0.09695(17) 0.57493(17)
O5 O 0.12856(18) 0.17308(15) 0.51856(14)
O6 O 0.18694(16) 0.14111(13) 0.66682(14)
O7 O -0.06079(19) 0.37540(16) 0.48056(15)
O8 O -0.0560(2) 0.21463(17) 0.38416(17)
#END
