
#######################################################################
#
#                 Cambridge Crystallographic Data Centre
#                                CCDC
#
#######################################################################
#
# If this CIF has been generated from an entry in the Cambridge
# Structural Database, then it will include bibliographic, chemical,
# crystal, experimental, refinement or atomic coordinate data resulting
# from the CCDC's data processing and validation procedures.
#
#######################################################################

data_CSD_CIF_ODACOO
_audit_creation_date 2017-01-12
_audit_creation_method CSD-ConQuest-V1
_database_code_CSD ODACOO
_database_code_depnum_ccdc_archive 'CCDC 860100'
_chemical_formula_sum 'C25 H32 N2 O3'
_chemical_formula_moiety
;
C25 H32 N2 O3
;
_journal_coden_Cambridge 1394
_journal_volume 10
_journal_year 2012
_journal_page_first 1592
_journal_name_full 'Conference '
loop_
_publ_author_name
"A.V.Velikorodov"
"F.I.Zubkov"
"S.I.Troyanov"
"V.V.Chernyshev"
_chemical_name_systematic
;
(5-ethyl-5,7,7-trimethyl-1,2,5,6,7,11b-hexahydro[1,2]oxazolo[3,2-a][2]benzazep
in-2-yl)methyl phenylcarbamate
;
_cell_volume   2149.930
_exptl_crystal_colour 'colorless'
_exptl_crystal_density_diffrn 1.262
_exptl_crystal_description 'needle'
_diffrn_ambient_temperature 100
_diffrn_radiation_probe x-ray
_diffrn_source synchrotron
_refine_special_details
;
C50A and C50B disordered over two sites with occupancies 0.556:0.444.

;
#These two values have been output from a single CSD field.
_refine_ls_R_factor_gt 0.071
_refine_ls_wR_factor_gt 0.071
_symmetry_cell_setting triclinic
_symmetry_space_group_name_H-M 'P -1'
_symmetry_Int_Tables_number 2
loop_
_symmetry_equiv_pos_site_id
_symmetry_equiv_pos_as_xyz
1 x,y,z
2 -x,-y,-z
_cell_length_a 11.362(1)
_cell_length_b 11.597(1)
_cell_length_c 18.012(1)
_cell_angle_alpha 94.88(1)
_cell_angle_beta 91.93(1)
_cell_angle_gamma 114.25(1)
_cell_formula_units_Z 4
loop_
_atom_type_symbol
_atom_type_radius_bond
C 0.68
H 0.23
N 0.68
O 0.68
loop_
_atom_site_label
_atom_site_type_symbol
_atom_site_fract_x
_atom_site_fract_y
_atom_site_fract_z
O1 O 0.4297(2) 0.32800(19) 0.10797(10)
O2 O 0.5063(2) 0.3028(2) -0.00413(11)
O3 O 0.46205(17) 0.47716(18) 0.24658(10)
N1 N 0.3549(2) 0.1363(2) 0.04794(12)
H1 H 0.31180 0.12050 0.08830
N2 N 0.5762(2) 0.5660(2) 0.29648(12)
C1 C 0.5559(3) 0.6665(3) 0.19262(16)
H2 H 0.50840 0.71630 0.21190
H3 H 0.59760 0.70140 0.14730
C2 C 0.4670(3) 0.5273(3) 0.17643(16)
H4 H 0.37860 0.51910 0.16020
C3 C 0.6382(3) 0.4876(3) 0.32675(15)
C4 C 0.7680(3) 0.5821(3) 0.36695(16)
H5 H 0.79960 0.53210 0.39740
H6 H 0.82910 0.61160 0.32760
C5 C 0.7745(3) 0.8067(3) 0.37523(16)
C6 C 0.7842(3) 0.7016(3) 0.41786(16)
C7 C 0.8233(3) 0.9293(3) 0.41362(19)
H7 H 0.85700 0.94030 0.46400
C8 C 0.8253(3) 1.0332(4) 0.3833(2)
H8 H 0.85970 1.11400 0.41220
C9 C 0.7767(3) 1.0211(3) 0.3100(2)
H9 H 0.77860 1.09290 0.28750
C10 C 0.6556(2) 0.6675(3) 0.25206(14)
H10 H 0.72230 0.64460 0.22810
C11 C 0.7203(2) 0.7934(3) 0.30091(15)
C12 C 0.7260(3) 0.9022(3) 0.27085(18)
H11 H 0.69300 0.89370 0.22060
C13 C 0.5439(3) 0.4028(3) 0.37886(17)
H12 H 0.50210 0.45090 0.40600
H13 H 0.59150 0.37540 0.41460
H14 H 0.47780 0.32800 0.34920
C14 C 0.6667(3) 0.4027(3) 0.26554(17)
H15 H 0.58500 0.34750 0.23570
H16 H 0.72640 0.45760 0.23150
C15 C 0.7266(4) 0.3193(4) 0.2969(2)
H17 H 0.81150 0.37330 0.32260
H18 H 0.73690 0.26370 0.25600
H19 H 0.67000 0.26730 0.33240
C16 C 0.9222(3) 0.7486(4) 0.45585(19)
H20 H 0.98500 0.76900 0.41770
H21 H 0.92830 0.68180 0.48350
H22 H 0.94070 0.82490 0.49050
C17 C 0.6899(3) 0.6710(3) 0.47957(17)
H23 H 0.71260 0.74690 0.51530
H24 H 0.69520 0.60220 0.50550
H25 H 0.60150 0.64430 0.45740
C18 C 0.5134(3) 0.4615(3) 0.11539(16)
H26 H 0.51080 0.49700 0.06760
H27 H 0.60370 0.47480 0.12850
C19 C 0.4381(3) 0.2588(3) 0.04492(15)
C20 C 0.3284(3) 0.0307(3) -0.00534(15)
C21 C 0.3999(3) 0.0334(3) -0.06690(16)
H28 H 0.46970 0.11000 -0.07640
C22 C 0.3674(3) -0.0780(3) -0.11431(17)
H29 H 0.41630 -0.07690 -0.15620
C23 C 0.2665(4) -0.1898(3) -0.10210(18)
H30 H 0.24590 -0.26490 -0.13510
C24 C 0.1955(3) -0.1914(3) -0.04138(18)
H31 H 0.12510 -0.26790 -0.03240
C25 C 0.2266(3) -0.0821(3) 0.00632(16)
H32 H 0.17720 -0.08420 0.04810
O4 O 0.19822(18) 0.10990(18) 0.17698(11)
O5 O 0.16525(19) 0.31446(19) 0.25758(11)
O6 O 0.04504(19) 0.34548(19) 0.34807(11)
N3 N 0.2581(2) 0.4808(2) 0.34110(13)
H33 H 0.32680 0.48420 0.31860
N4 N 0.1478(2) -0.0302(2) 0.18099(12)
C26 C 0.0055(3) -0.0809(3) 0.16969(15)
H34 H -0.03280 -0.08460 0.21910
C27 C -0.0159(3) 0.0176(3) 0.12734(16)
H35 H -0.00910 0.00180 0.07310
H36 H -0.10180 0.01710 0.13540
C28 C 0.0920(3) 0.1423(3) 0.16055(17)
H37 H 0.11610 0.20290 0.12160
C29 C 0.0543(3) 0.2019(3) 0.22754(18)
H38 H -0.01780 0.22440 0.21290
H39 H 0.02520 0.14140 0.26560
C30 C 0.1457(3) 0.3785(3) 0.31961(16)
C31 C 0.2769(3) 0.5830(3) 0.39598(15)
C32 C 0.1831(3) 0.5835(3) 0.44405(16)
H40 H 0.10130 0.51290 0.44130
C33 C 0.2111(3) 0.6886(3) 0.49590(17)
H41 H 0.14710 0.68970 0.52820
C34 C 0.3291(3) 0.7907(3) 0.50142(17)
H42 H 0.34720 0.86130 0.53780
C35 C 0.4212(3) 0.7904(3) 0.45380(18)
H43 H 0.50300 0.86110 0.45700
C36 C 0.3946(3) 0.6867(3) 0.40111(17)
H44 H 0.45840 0.68730 0.36820
C37 C -0.0488(2) -0.2141(3) 0.12652(15)
C38 C -0.1509(3) -0.2431(3) 0.07221(17)
H45 H -0.18520 -0.18200 0.06620
C39 C -0.2037(3) -0.3580(3) 0.02693(19)
H46 H -0.27330 -0.37540 -0.00920
C40 C -0.1539(3) -0.4459(3) 0.03519(18)
H47 H -0.18790 -0.52460 0.00420
C41 C -0.0547(3) -0.4199(3) 0.08832(18)
H48 H -0.02110 -0.48190 0.09280
C42 C 0.0000(3) -0.3062(3) 0.13652(15)
C43 C 0.1053(3) -0.2962(3) 0.19559(17)
C44 C 0.1308(3) -0.1900(3) 0.26143(17)
H49 H 0.04530 -0.20360 0.27970
H50 H 0.17980 -0.20730 0.30220
C45 C 0.2006(3) -0.0478(3) 0.25332(16)
C46 C 0.2291(3) -0.2809(4) 0.1580(2)
H51 H 0.21350 -0.35880 0.12570
H52 H 0.29880 -0.26500 0.19640
H53 H 0.25420 -0.20900 0.12800
C47 C 0.0582(4) -0.4199(3) 0.2340(2)
H54 H 0.04270 -0.49220 0.19680
H55 H -0.02240 -0.43240 0.25720
H56 H 0.12430 -0.41350 0.27250
C48 C 0.1755(4) 0.0260(4) 0.32165(17)
H57 H 0.08180 -0.00830 0.32890
H58 H 0.20620 0.11720 0.31440
C49 C 0.3463(3) -0.0010(4) 0.2481(2)
H59 H 0.38220 0.08850 0.23660
H60 H 0.36260 -0.05240 0.20630
C50 C 0.2507(9) 0.0095(8) 0.3900(3)
H61 H 0.22390 -0.08140 0.39420
H62 H 0.23200 0.04980 0.43540
H63 H 0.34370 0.04950 0.38370
C51? C 0.4172(8) -0.0094(10) 0.3203(5)
H64? H 0.38970 0.02870 0.36320
H65? H 0.51080 0.03670 0.31760
H66? H 0.39620 -0.09880 0.32620
#END
