
#######################################################################
#
#                 Cambridge Crystallographic Data Centre
#                                CCDC
#
#######################################################################
#
# If this CIF has been generated from an entry in the Cambridge
# Structural Database, then it will include bibliographic, chemical,
# crystal, experimental, refinement or atomic coordinate data resulting
# from the CCDC's data processing and validation procedures.
#
#######################################################################

data_CSD_CIF_ODAMIS
_audit_creation_date 2017-01-12
_audit_creation_method CSD-ConQuest-V1
_database_code_CSD ODAMIS
_database_code_depnum_ccdc_archive 'CCDC 1499338'
_chemical_formula_sum 'C25 H26 N2 O5'
_chemical_formula_moiety
;
C25 H26 N2 O5
;
_journal_coden_Cambridge 24
_journal_volume 57
_journal_year 2016
_journal_page_first 5315
_journal_name_full 'Tetrahedron Lett. '
loop_
_publ_author_name
"V.S.Mityanov"
"A.V.Kutasevich"
"M.M.Krayushkin"
"B.V.Lichitsky"
"A.A.Dudinov"
"A.N.Komogortsev"
"L.G.Kuzmina"
_chemical_name_systematic
;
5-[(1-benzyl-3-hydroxy-4,5-dimethyl-1H-imidazol-3-ium-2-yl)(phenyl)methyl]-2,2
-dimethyl-4-oxo-2H,4H-1,3-dioxin-6-olate
;
_cell_volume   4347.126
_exptl_crystal_colour 'colorless'
_exptl_crystal_density_diffrn 1.328
_exptl_crystal_description 'plate'
_diffrn_ambient_temperature 120
_refine_special_details
;
C21K,C23K,C24K,C25K,O1K,O2K,O3K,O4K and C21H,C23H,C24H,C25H,O1H,O2H,O3H,O4H 
disordered over two sites with occupancies 0.566:0.434; 
C23F,C24F,C25F,O3F,O4F,O5F and C23G,C24G,C25G,O3G,O4G,O5G disordered over two 
sites with occupancies 0.561:0.439.
;
#These two values have been output from a single CSD field.
_refine_ls_R_factor_gt 0.0696
_refine_ls_wR_factor_gt 0.0696
_symmetry_cell_setting monoclinic
_symmetry_space_group_name_H-M 'P 21/c'
_symmetry_Int_Tables_number 14
loop_
_symmetry_equiv_pos_site_id
_symmetry_equiv_pos_as_xyz
1 x,y,z
2 -x,1/2+y,1/2-z
3 -x,-y,-z
4 x,-1/2-y,-1/2+z
_cell_length_a 15.5810(15)
_cell_length_b 20.320(2)
_cell_length_c 13.7304(13)
_cell_angle_alpha 90
_cell_angle_beta 90
_cell_angle_gamma 90
_cell_formula_units_Z 8
loop_
_atom_type_symbol
_atom_type_radius_bond
C 0.68
H 0.23
N 0.68
O 0.68
loop_
_atom_site_label
_atom_site_type_symbol
_atom_site_fract_x
_atom_site_fract_y
_atom_site_fract_z
O1 O 0.20006(14) 0.66134(11) 0.64606(16)
H1 H 0.19620 0.62630 0.67830
N1 N 0.20946(17) 0.77992(13) 0.82661(18)
N2 N 0.21641(17) 0.71266(13) 0.70776(18)
C1 C 0.1727(2) 0.72509(16) 0.7894(2)
C2 C 0.2803(2) 0.75781(17) 0.6916(2)
C3 C 0.2758(2) 0.80081(17) 0.7666(3)
C4 C 0.3386(2) 0.75293(18) 0.6057(3)
H2 H 0.36640 0.70970 0.60530
H3 H 0.38240 0.78740 0.60960
H4 H 0.30530 0.75850 0.54570
C5 C 0.3276(2) 0.8605(2) 0.7882(3)
H5 H 0.28940 0.89870 0.79440
H6 H 0.36840 0.86820 0.73510
H7 H 0.35900 0.85410 0.84930
C6 C 0.1769(2) 0.81631(17) 0.9113(2)
H8 H 0.22500 0.84070 0.94170
H9 H 0.15490 0.78450 0.95990
C7 C 0.1064(2) 0.86433(16) 0.8859(2)
C8 C 0.0951(2) 0.88869(16) 0.7923(2)
H10 H 0.13110 0.87400 0.74090
C9 C 0.0314(2) 0.93452(17) 0.7743(3)
H11 H 0.02440 0.95150 0.71030
C10 C -0.0220(2) 0.95589(18) 0.8473(3)
H12 H -0.06500 0.98790 0.83440
C11 C -0.0123(2) 0.93021(19) 0.9401(3)
H13 H -0.05020 0.94340 0.99060
C12 C 0.0523(2) 0.88559(17) 0.9596(2)
H14 H 0.05970 0.86940 1.02400
C13 C 0.0995(2) 0.68739(15) 0.8318(2)
H15 H 0.07400 0.71770 0.88140
C14 C 0.02750(19) 0.67599(15) 0.7579(2)
C15 C -0.0235(2) 0.62021(17) 0.7620(2)
H16 H -0.01020 0.58630 0.80720
C16 C -0.0943(2) 0.61322(17) 0.7003(3)
H17 H -0.12920 0.57500 0.70430
C17 C -0.1132(2) 0.66171(18) 0.6339(2)
H18 H -0.16170 0.65740 0.59240
C18 C -0.0617(2) 0.71661(18) 0.6278(2)
H19 H -0.07400 0.74970 0.58110
C19 C 0.0078(2) 0.72379(17) 0.6894(2)
H20 H 0.04260 0.76200 0.68470
C20 C 0.1291(2) 0.62763(16) 0.8899(2)
O2 O 0.0385(3) 0.6580(2) 1.0261(3)
O3 O 0.1021(2) 0.56130(19) 1.0370(3)
O4 O 0.1759(3) 0.5152(2) 0.9025(3)
O5 O 0.1831(5) 0.5646(4) 0.7575(6)
C21 C 0.0866(4) 0.6184(3) 0.9858(4)
C22 C 0.1623(6) 0.5716(5) 0.8485(7)
C23 C 0.2555(4) 0.5532(4) 1.0443(5)
H21 H 0.25980 0.59930 1.02360
H22 H 0.30540 0.52870 1.02020
H23 H 0.25390 0.55110 1.11550
C24 C 0.1605(4) 0.4538(3) 1.0475(5)
H24 H 0.15810 0.45700 1.11870
H25 H 0.20800 0.42490 1.02850
H26 H 0.10640 0.43570 1.02300
C25 C 0.1749(2) 0.52349(17) 1.0035(2)
O6? O 0.1219(3) 0.6881(3) 1.0385(4)
O7? O 0.1761(3) 0.5878(2) 1.0432(4)
O8? O 0.2088(4) 0.5291(3) 0.9019(4)
O9? O 0.1947(7) 0.5701(5) 0.7592(8)
C26? C 0.1431(5) 0.6402(4) 0.9894(5)
C27? C 0.1774(8) 0.5781(7) 0.8445(10)
C28? C 0.2387(5) 0.4829(4) 1.0537(6)
H27? H 0.29430 0.50530 1.05300
H28? H 0.24380 0.44040 1.02050
H29? H 0.22060 0.47580 1.12130
C29? C 0.0863(5) 0.4973(4) 0.9963(6)
H30? H 0.05940 0.49790 1.06080
H31? H 0.08810 0.45200 0.97180
H32? H 0.05290 0.52470 0.95150
O10 O -0.29989(15) 0.66123(11) 0.85390(15)
H33 H -0.30910 0.62690 0.82150
O11 O -0.31196(14) 0.56674(11) 0.74195(16)
N3 N -0.29048(17) 0.77991(13) 0.67294(19)
N4 N -0.28368(17) 0.71240(13) 0.79195(18)
C30 C -0.3279(2) 0.72552(17) 0.7106(2)
C31 C -0.2246(2) 0.80121(17) 0.7337(2)
C32 C -0.2196(2) 0.75799(17) 0.8078(2)
C33 C -0.1722(2) 0.86099(19) 0.7120(3)
H34 H -0.14000 0.85410 0.65150
H35 H -0.13190 0.86890 0.76560
H36 H -0.21010 0.89910 0.70460
C34 C -0.1611(2) 0.75333(18) 0.8938(3)
H37 H -0.19450 0.75860 0.95380
H38 H -0.11760 0.78810 0.89000
H39 H -0.13280 0.71030 0.89410
C35 C -0.3228(2) 0.81610(17) 0.5879(2)
H40 H -0.34510 0.78430 0.53950
H41 H -0.27470 0.84040 0.55740
C36 C -0.3935(2) 0.86437(16) 0.6140(2)
C37 C -0.4050(2) 0.88916(16) 0.7078(2)
H42 H -0.36890 0.87460 0.75920
C38 C -0.4685(2) 0.93449(17) 0.7264(3)
H43 H -0.47570 0.95120 0.79050
C39 C -0.5217(2) 0.95578(17) 0.6527(3)
H44 H -0.56480 0.98770 0.66560
C40 C -0.5122(2) 0.93048(19) 0.5599(3)
H45 H -0.54970 0.94430 0.50930
C41 C -0.4485(2) 0.88522(18) 0.5406(2)
H46 H -0.44220 0.86820 0.47660
C42 C -0.4009(2) 0.68742(15) 0.6679(2)
H47 H -0.42640 0.71770 0.61830
C43 C -0.47309(19) 0.67589(16) 0.7417(2)
C44 C -0.5237(2) 0.62026(17) 0.7377(2)
H48 H -0.51040 0.58650 0.69240
C45 C -0.5941(2) 0.61300(17) 0.7992(3)
H49 H -0.62880 0.57460 0.79530
C46 C -0.6133(2) 0.66179(18) 0.8659(2)
H50 H -0.66200 0.65750 0.90710
C47 C -0.5617(2) 0.71677(17) 0.8725(2)
H51 H -0.57400 0.74980 0.91940
C48 C -0.4921(2) 0.72376(17) 0.8109(2)
H52 H -0.45680 0.76170 0.81580
C49 C -0.3709(2) 0.62793(17) 0.6096(2)
C50 C -0.3312(2) 0.57457(16) 0.6534(2)
O12 O -0.4613(3) 0.6576(2) 0.4739(3)
O13 O -0.3972(2) 0.56117(19) 0.4628(3)
O14 O -0.3242(3) 0.5152(2) 0.5970(3)
C51 C -0.4132(4) 0.6182(3) 0.5140(4)
C52 C -0.3401(4) 0.4537(3) 0.4523(5)
H53 H -0.39330 0.43520 0.47870
H54 H -0.29180 0.42500 0.46930
H55 H -0.34460 0.45700 0.38130
C53 C -0.2442(5) 0.5537(4) 0.4563(5)
H56 H -0.24470 0.55080 0.38500
H57 H -0.19430 0.52980 0.48170
H58 H -0.24080 0.60000 0.47600
C54 C -0.3250(2) 0.52367(17) 0.4963(2)
O15? O -0.3781(3) 0.6886(3) 0.4618(4)
O16? O -0.3237(3) 0.5885(3) 0.4559(4)
O17? O -0.2913(4) 0.5289(3) 0.5991(4)
C55? C -0.3571(5) 0.6402(4) 0.5111(5)
C56? C -0.2624(6) 0.4832(5) 0.4459(7)
H59? H -0.28060 0.47670 0.37830
H60? H -0.25790 0.44040 0.47850
H61? H -0.20640 0.50510 0.44700
C57? C -0.4134(5) 0.4965(4) 0.5032(6)
H62? H -0.45020 0.52770 0.53830
H63? H -0.41200 0.45460 0.53830
H64? H -0.43630 0.48950 0.43750
#END
