
#######################################################################
#
#                 Cambridge Crystallographic Data Centre
#                                CCDC
#
#######################################################################
#
# If this CIF has been generated from an entry in the Cambridge
# Structural Database, then it will include bibliographic, chemical,
# crystal, experimental, refinement or atomic coordinate data resulting
# from the CCDC's data processing and validation procedures.
#
#######################################################################

data_CSD_CIF_ODANUC
_audit_creation_date 2002-02-21
_audit_creation_method CSD-ConQuest-V1
_database_code_CSD ODANUC
_database_code_depnum_ccdc_archive 'CCDC 162169'
_chemical_formula_sum 'C23 H20 N4 O4'
_chemical_formula_moiety
;
C23 H20 N4 O4
;
_journal_coden_Cambridge 10
_journal_volume 84
_journal_year 2001
_journal_page_first 3403
_journal_name_full 'Helv.Chim.Acta '
loop_
_publ_author_name
"U.Groselj"
"A.Drobnic"
"S.Recnik"
"J.Svete"
"B.Stanovnik"
"A.Golobic"
"N.Lah"
"I.Leban"
"A.Meden"
"S.Golic-Grdadolnik"
_chemical_name_systematic
;
N-((Benzoylamino)carbonyl)-4-cyano-N-methyl-3-mesitylisoxazole-5-carboxamide
;
_cell_volume   2039.786
_exptl_crystal_density_diffrn 1.356
_diffrn_ambient_temperature 150
#These two values have been output from a single CSD field.
_refine_ls_R_factor_gt 0.0532
_refine_ls_wR_factor_gt 0.0532
_symmetry_cell_setting monoclinic
_symmetry_space_group_name_H-M 'P 21/c'
_symmetry_Int_Tables_number 14
loop_
_symmetry_equiv_pos_site_id
_symmetry_equiv_pos_as_xyz
1 x,y,z
2 x,1/2-y,1/2+z
3 -x,-y,-z
4 -x,-1/2+y,-1/2-z
_cell_length_a 15.2342(3)
_cell_length_b 7.2127(1)
_cell_length_c 19.2387(5)
_cell_angle_alpha 90
_cell_angle_beta 105.221(1)
_cell_angle_gamma 90
_cell_formula_units_Z 4
loop_
_atom_type_symbol
_atom_type_radius_bond
C 0.68
H 0.23
N 0.68
O 0.68
loop_
_atom_site_label
_atom_site_type_symbol
_atom_site_fract_x
_atom_site_fract_y
_atom_site_fract_z
O1 O 0.16842(9) 0.89198(18) 0.16235(8)
N1 N 0.08459(11) 0.7998(2) 0.12949(9)
C1 C 0.09765(13) 0.6260(3) 0.14859(10)
C2 C 0.18783(12) 0.5972(2) 0.19339(10)
C3 C 0.22730(13) 0.7672(3) 0.19972(10)
C4 C 0.02279(13) 0.4890(2) 0.12706(10)
C5 C 0.02779(13) 0.3462(3) 0.07891(10)
C6 C -0.04419(14) 0.2215(3) 0.06018(11)
H1 H -0.04200 0.12690 0.02790
C7 C -0.11934(15) 0.2337(3) 0.08815(11)
C8 C -0.12125(13) 0.3742(3) 0.13672(11)
H2 H -0.17070 0.38220 0.15640
C9 C -0.05163(13) 0.5038(3) 0.15698(10)
C10 C 0.10726(14) 0.3274(3) 0.04671(12)
H3 H 0.15720 0.27020 0.08110
H4 H 0.12520 0.44790 0.03430
H5 H 0.09010 0.25200 0.00420
C11 C -0.19636(17) 0.0953(3) 0.06736(15)
H6 H -0.23970 0.13660 0.02440
H7 H -0.22560 0.08490 0.10570
H8 H -0.17270 -0.02340 0.05880
C12 C -0.05579(15) 0.6513(3) 0.21146(12)
H9 H -0.06130 0.77090 0.18880
H10 H -0.00120 0.64750 0.25020
H11 H -0.10750 0.62970 0.23010
C13 C 0.22703(13) 0.4264(3) 0.22347(11)
N2 N 0.25581(12) 0.2853(2) 0.2459(1)
C14 C 0.31733(13) 0.8258(3) 0.24778(11)
O2 O 0.33192(10) 0.7742(2) 0.31051(8)
N3 N 0.37452(11) 0.9270(2) 0.21912(9)
C15 C 0.34743(16) 0.9796(3) 0.14240(12)
H12 H 0.31570 0.87820 0.11440
H13 H 0.40070 1.00880 0.12670
H14 H 0.30830 1.08600 0.13610
C16 C 0.46542(14) 0.9804(3) 0.25767(12)
O3 O 0.51355(11) 1.0554(2) 0.2261(1)
N4 N 0.48806(11) 0.9387(2) 0.32899(10)
H15 H 0.44550 0.89450 0.34590
C17 C 0.57291(13) 0.9600(3) 0.37740(12)
O4 O 0.63544(10) 1.0401(2) 0.36296(10)
C18 C 0.58093(13) 0.8754(3) 0.44990(12)
C19 C 0.66274(15) 0.8977(3) 0.50277(14)
H16 H 0.71020 0.96300 0.49210
C20 C 0.67397(17) 0.8236(3) 0.57086(14)
H17 H 0.72900 0.83910 0.60550
C21 C 0.60445(17) 0.7273(3) 0.58784(14)
H18 H 0.61210 0.67740 0.63360
C22 C 0.52304(17) 0.7056(3) 0.53592(13)
H19 H 0.47570 0.64130 0.54720
C23 C 0.51073(15) 0.7778(3) 0.46736(12)
H20 H 0.45560 0.76120 0.43300
#END
