
#######################################################################
#
#                 Cambridge Crystallographic Data Centre
#                                CCDC
#
#######################################################################
#
# If this CIF has been generated from an entry in the Cambridge
# Structural Database, then it will include bibliographic, chemical,
# crystal, experimental, refinement or atomic coordinate data resulting
# from the CCDC's data processing and validation procedures.
#
#######################################################################

data_CSD_CIF_ODAPIT
_audit_creation_date 2006-07-13
_audit_creation_method CSD-ConQuest-V1
_database_code_CSD ODAPIT
_database_code_depnum_ccdc_archive 'CCDC 608423'
_chemical_formula_sum 'C21 H16 N4 O4'
_chemical_formula_moiety
;
C21 H16 N4 O4
;
_journal_coeditor_code "IUCr IS2022"
_journal_coden_Cambridge 1370
_journal_volume 62
_journal_year 2006
_journal_page_first o2017
_journal_name_full 'Acta Crystallogr.,Sect.E:Struct.Rep.Online '
loop_
_publ_author_name
"Heng-Yu Qian"
"Cheng Liu"
"Zhi-Gang Yin"
"S.W.Ng"
_chemical_name_systematic
;
Benzylideneacetophenone 2,4-dinitrophenylhydrazone
;
_cell_volume   1884.833
_exptl_crystal_colour 'brown'
_exptl_crystal_density_diffrn 1.369
_exptl_crystal_description 'plate'
_exptl_crystal_preparation 'dichloromethane'
_diffrn_ambient_temperature 291
_refine_special_details
;
The nitro groups and one phenyl ring are disordered across a mirror plane.

;
#These two values have been output from a single CSD field.
_refine_ls_R_factor_gt 0.0377
_refine_ls_wR_factor_gt 0.0377
_symmetry_cell_setting orthorhombic
_symmetry_space_group_name_H-M 'P n m a'
_symmetry_Int_Tables_number 62
loop_
_symmetry_equiv_pos_site_id
_symmetry_equiv_pos_as_xyz
1 x,y,z
2 1/2-x,-y,1/2+z
3 -x,1/2+y,-z
4 1/2+x,1/2-y,1/2-z
5 -x,-y,-z
6 -1/2+x,y,-1/2-z
7 x,-1/2-y,z
8 -1/2-x,-1/2+y,-1/2+z
_cell_length_a 18.570(1)
_cell_length_b 6.9335(4)
_cell_length_c 14.6389(9)
_cell_angle_alpha 90
_cell_angle_beta 90
_cell_angle_gamma 90
_cell_formula_units_Z 4
loop_
_atom_type_symbol
_atom_type_radius_bond
C 0.68
H 0.23
N 0.68
O 0.68
loop_
_atom_site_label
_atom_site_type_symbol
_atom_site_fract_x
_atom_site_fract_y
_atom_site_fract_z
O1 O 0.32186(10) 0.232(3) 0.30230(11)
O2 O 0.20783(10) 0.2903(17) 0.30459(12)
O3 O 0.07269(9) 0.243(4) 0.57573(12)
O4 O 0.12552(10) 0.266(4) 0.70627(12)
N1 N 0.45912(7) 0.25000 0.50175(10)
N2 N 0.39634(7) 0.25000 0.45172(10)
H1 H 0.39870 0.25000 0.39300
N3 N 0.26487(10) 0.2579(14) 0.34376(13)
N4 N 0.12686(8) 0.25000 0.62302(12)
C1 C 0.77820(9) 0.25000 0.42811(13)
H2 H 0.76730 0.25000 0.36610
C2 C 0.84916(10) 0.25000 0.45524(14)
H3 H 0.88560 0.25000 0.41170
C3 C 0.86613(10) 0.25000 0.54588(15)
H4 H 0.91410 0.25000 0.56430
C4 C 0.81210(11) 0.25000 0.60975(15)
H5 H 0.82370 0.25000 0.67150
C5 C 0.74061(10) 0.25000 0.58361(13)
H6 H 0.70460 0.25000 0.62780
C6 C 0.72238(9) 0.25000 0.49179(12)
C7 C 0.64876(9) 0.25000 0.45629(11)
H7 H 0.64510 0.25000 0.39290
C8 C 0.58606(9) 0.25000 0.50060(12)
H8 H 0.58630 0.25000 0.56410
C9 C 0.51754(8) 0.25000 0.45335(11)
C10 C 0.51734(9) 0.267(2) 0.35093(16)
C11 C 0.5182(6) 0.1019(16) 0.2987(7)
H9 H 0.51750 -0.01830 0.32690
C12 C 0.5201(6) 0.1143(9) 0.2041(6)
H10 H 0.52030 0.00260 0.16890
C13 C 0.52174(15) 0.2907(11) 0.1629(2)
H11 H 0.52390 0.29900 0.09960
C14 C 0.5203(6) 0.0441(11) 0.2145(6)
H12 H 0.52100 -0.07590 0.18600
C15 C 0.5176(5) 0.4442(15) 0.3086(5)
H13 H 0.51610 -0.05630 0.34340
C16 C 0.33108(9) 0.25000 0.49276(11)
C17 C 0.26585(9) 0.25000 0.44263(12)
C18 C 0.19946(9) 0.25000 0.48534(12)
H14 H 0.15730 0.25000 0.45110
C19 C 0.19665(9) 0.25000 0.57807(13)
C20 C 0.25923(10) 0.25000 0.63042(13)
H15 H 0.25630 0.25000 0.69380
C21 C 0.32492(9) 0.25000 0.58868(12)
H16 H 0.36640 0.25000 0.62420
O1F O 0.32186(10) 0.268(3) 0.30230(11)
O2F O 0.20783(10) 0.2097(17) 0.30459(12)
O3F O 0.07269(9) 0.257(4) 0.57573(12)
O4F O 0.12552(10) 0.234(4) 0.70627(12)
N3F N 0.26487(10) 0.2421(14) 0.34376(13)
C10F C 0.51734(9) 0.233(2) 0.35093(16)
C11F C 0.5182(6) 0.3981(16) 0.2987(7)
H9F H 0.51750 0.51830 0.32690
C12F C 0.5201(6) 0.3857(9) 0.2041(6)
H10F H 0.52030 0.49740 0.16890
C13F C 0.52174(15) 0.2093(11) 0.1629(2)
H11F H 0.52390 0.20100 0.09960
C14F C 0.5203(6) 0.4559(11) 0.2145(6)
H12F H 0.52100 0.57590 0.18600
C15F C 0.5176(5) 0.0558(15) 0.3086(5)
H13F H 0.51610 0.55630 0.34340
#END
