
#######################################################################
#
#                 Cambridge Crystallographic Data Centre
#                                CCDC
#
#######################################################################
#
# If this CIF has been generated from an entry in the Cambridge
# Structural Database, then it will include bibliographic, chemical,
# crystal, experimental, refinement or atomic coordinate data resulting
# from the CCDC's data processing and validation procedures.
#
#######################################################################

data_CSD_CIF_ODAWIA01
_audit_creation_date 2016-08-15
_audit_creation_method CSD-ConQuest-V1
_database_code_CSD ODAWIA01
_database_code_depnum_ccdc_archive 'CCDC 1499181'
_chemical_formula_sum 'C8 H7 N1 O4'
_chemical_formula_moiety
;
C8 H7 N1 O4
;
_journal_coden_Cambridge 1078
_journal_year 2016
_journal_name_full 'CSD Communication(Private Communication) '
loop_
_publ_author_name
"Qingming Wang"
_chemical_name_systematic
;
(2-nitrophenyl)acetic acid
;
_cell_volume    837.939
_exptl_crystal_density_diffrn 1.45
_diffrn_ambient_temperature 296
#These two values have been output from a single CSD field.
_refine_ls_R_factor_gt 0.0737
_refine_ls_wR_factor_gt 0.0737
_symmetry_cell_setting monoclinic
_symmetry_space_group_name_H-M 'P 21/n'
_symmetry_Int_Tables_number 14
loop_
_symmetry_equiv_pos_site_id
_symmetry_equiv_pos_as_xyz
1 x,y,z
2 1/2-x,1/2+y,1/2-z
3 -x,-y,-z
4 -1/2+x,-1/2-y,-1/2+z
_cell_length_a 9.8022(6)
_cell_length_b 7.2437(5)
_cell_length_c 11.8817(6)
_cell_angle_alpha 90
_cell_angle_beta 96.671(3)
_cell_angle_gamma 90
_cell_formula_units_Z 4
loop_
_atom_type_symbol
_atom_type_radius_bond
C 0.68
H 0.23
N 0.68
O 0.68
loop_
_atom_site_label
_atom_site_type_symbol
_atom_site_fract_x
_atom_site_fract_y
_atom_site_fract_z
O1 O 0.64581(14) 0.0484(2) 0.44979(15)
O2 O 0.49490(15) 0.2471(2) 0.50637(16)
H1 H 0.45670 0.15220 0.52350
C1 C 0.84381(19) 0.3212(3) 0.43482(17)
N1 N 0.9151(2) 0.2418(3) 0.63788(16)
C2 C 0.6979(2) 0.3701(3) 0.4509(2)
H2 H 0.66510 0.49060 0.44930
C3 C 0.9445(2) 0.2624(3) 0.52009(17)
O3 O 0.7979(2) 0.2490(4) 0.65925(17)
C4 C 1.0767(2) 0.2188(3) 0.4997(2)
H3 H 1.14090 0.17960 0.55860
C5 C 0.61128(18) 0.2057(3) 0.46971(17)
C6 C 0.8849(2) 0.3356(4) 0.32792(19)
H4 H 0.82180 0.37580 0.26850
C7 C 1.1126(2) 0.2338(4) 0.3916(3)
H5 H 1.20110 0.20460 0.37680
C8 C 1.0170(3) 0.2922(5) 0.3063(2)
H6 H 1.04080 0.30290 0.23300
O4 O 1.0107(2) 0.2186(4) 0.71007(18)
#END
