
#######################################################################
#
#                 Cambridge Crystallographic Data Centre
#                                CCDC
#
#######################################################################
#
# If this CIF has been generated from an entry in the Cambridge
# Structural Database, then it will include bibliographic, chemical,
# crystal, experimental, refinement or atomic coordinate data resulting
# from the CCDC's data processing and validation procedures.
#
#######################################################################

data_CSD_CIF_ODEVEY
_audit_creation_date 2002-05-31
_audit_creation_method CSD-ConQuest-V1
_database_code_CSD ODEVEY
_chemical_formula_sum 'C21 H19 N3 O9'
_chemical_formula_moiety
;
C21 H19 N3 O9
;
_journal_coden_Cambridge 35
_journal_volume 66
_journal_year 2001
_journal_page_first 2602
_journal_name_full 'J.Org.Chem. '
loop_
_publ_author_name
"O.Tamura"
"N.Mita"
"T.Okabe"
"T.Yamaguchi"
"C.Fukushima"
"M.Yamashita"
"Y.Morita"
"N.Morita"
"H.Ishibashi"
"M.Sakamoto"
_chemical_name_systematic
;
(1R,4R,5R)-4-((S)-1-((3,5-Dinitrobenzoyl)oxy)ethyl)-2-benzyl-3,7-dioxa-2-azabi
cyclo(3.3.0)octan-8-one
;
_chemical_melting_point 427.15
_cell_volume   1034.642
_exptl_crystal_colour 'colorless'
_exptl_crystal_density_diffrn 1.468
_exptl_crystal_description 'column'
_exptl_crystal_preparation 'hexane/ethyl acetate'
_diffrn_ambient_temperature 296
#These two values have been output from a single CSD field.
_refine_ls_R_factor_gt 0.029
_refine_ls_wR_factor_gt 0.029
_symmetry_cell_setting monoclinic
_symmetry_space_group_name_H-M 'P 21'
_symmetry_Int_Tables_number 4
loop_
_symmetry_equiv_pos_site_id
_symmetry_equiv_pos_as_xyz
1 x,y,z
2 -x,1/2+y,-z
_cell_length_a 5.877(1)
_cell_length_b 10.147(1)
_cell_length_c 17.4531(7)
_cell_angle_alpha 90
_cell_angle_beta 96.234(8)
_cell_angle_gamma 90
_cell_formula_units_Z 2
loop_
_atom_type_symbol
_atom_type_radius_bond
C 0.68
H 0.23
N 0.68
O 0.68
loop_
_atom_site_label
_atom_site_type_symbol
_atom_site_fract_x
_atom_site_fract_y
_atom_site_fract_z
O1 O 0.2980(4) 0.063(1) 0.6774(1)
O2 O 0.0187(3) 0.369(1) 0.6929(1)
O3 O -0.0538(5) 0.036(1) 0.6184(2)
O4 O 0.2689(3) 0.254(1) 0.8184(1)
O5 O 0.0791(4) 0.344(1) 0.9105(1)
O6 O -0.4968(6) 0.071(1) 1.0151(2)
O7 O -0.5381(5) -0.131(1) 0.9839(2)
O8 O 0.2772(7) -0.223(1) 0.7950(2)
O9 O 0.0172(7) -0.338(1) 0.8396(2)
N1 N -0.0418(4) 0.328(1) 0.6142(1)
N2 N -0.4398(5) -0.027(1) 0.9831(2)
N3 N 0.1104(7) -0.234(1) 0.8295(2)
C1 C 0.1120(6) 0.104(1) 0.6322(2)
C2 C 0.3651(5) 0.291(1) 0.6514(2)
C3 C 0.4765(5) 0.163(1) 0.6826(2)
C4 C 0.2646(5) 0.389(1) 0.7052(2)
C5 C 0.1496(5) 0.241(1) 0.6022(2)
C6 C 0.3312(6) 0.385(1) 0.7911(2)
C7 C 0.5812(6) 0.414(1) 0.8137(2)
C8 C -0.0393(5) 0.445(1) 0.5633(2)
C9 C -0.2115(5) 0.548(1) 0.5781(2)
C10 C -0.4156(6) 0.560(1) 0.5322(2)
C11 C -0.5691(6) 0.660(1) 0.5435(2)
C12 C -0.5207(7) 0.748(1) 0.6030(3)
C13 C -0.3183(9) 0.738(1) 0.6485(3)
C14 C -0.1638(7) 0.640(1) 0.6365(2)
C15 C 0.1291(5) 0.252(1) 0.8736(2)
C16 C 0.0319(5) 0.116(1) 0.8837(2)
C17 C -0.1455(5) 0.106(1) 0.9288(2)
C18 C -0.2425(5) -0.016(1) 0.9374(2)
C19 C -0.1648(6) -0.130(1) 0.9056(2)
C20 C 0.0152(6) -0.114(1) 0.8626(2)
C21 C 0.1139(6) 0.005(1) 0.8495(2)
H1 H 0.59470 0.13660 0.65260
H2 H 0.53850 0.17330 0.73480
H3 H 0.46300 0.33410 0.61990
H4 H 0.29560 0.47420 0.68770
H5 H 0.17340 0.23810 0.54920
H6 H 0.24340 0.44870 0.81450
H7 H 0.61650 0.49870 0.79630
H8 H 0.61310 0.40890 0.86810
H9 H 0.67160 0.34970 0.79070
H10 H 0.10880 0.48270 0.57070
H11 H -0.07020 0.41570 0.51140
H12 H -0.45230 0.49720 0.49190
H13 H -0.70750 0.66660 0.51020
H14 H -0.62720 0.81470 0.61210
H15 H -0.28310 0.79860 0.68920
H16 H -0.02280 0.63470 0.66860
H17 H -0.20000 0.18100 0.95340
H18 H -0.23160 -0.21450 0.91310
H19 H 0.23520 0.01120 0.81790
#END
