
#######################################################################
#
#                 Cambridge Crystallographic Data Centre
#                                CCDC
#
#######################################################################
#
# If this CIF has been generated from an entry in the Cambridge
# Structural Database, then it will include bibliographic, chemical,
# crystal, experimental, refinement or atomic coordinate data resulting
# from the CCDC's data processing and validation procedures.
#
#######################################################################

data_CSD_CIF_ODIJER
_audit_creation_date 2007-09-28
_audit_creation_method CSD-ConQuest-V1
_database_code_CSD ODIJER
_database_code_depnum_ccdc_archive 'CCDC 299269'
_chemical_formula_sum 'C21 H28 N2 O4'
_chemical_formula_moiety
;
C21 H28 N2 O4
;
_journal_coden_Cambridge 206
_journal_volume 37
_journal_year 2007
_journal_page_first 297
_journal_name_full 'Synth.Commun. '
loop_
_publ_author_name
"Shangli Cheng"
"Huimin Wu"
"Xianmin Hu"
_chemical_name_systematic
;
exo-7-(t-Butoxycarbonyl)-3-phenyl-6-oxo-2-oxa-1,7-diazabicyclo(3.3.0)octane-8-
spirocyclohexane
;
_chemical_melting_point 399.15
_cell_volume   2007.621
_exptl_crystal_colour 'colorless'
_exptl_crystal_density_diffrn 1.232
_exptl_special_details
;
Melting point range 399.15-400.15K

;
_exptl_crystal_description 'block'
_exptl_crystal_preparation 'ethyl acetate/petroleum ether'
_diffrn_ambient_temperature 273
#These two values have been output from a single CSD field.
_refine_ls_R_factor_gt 0.0471
_refine_ls_wR_factor_gt 0.0471
_symmetry_cell_setting monoclinic
_symmetry_space_group_name_H-M 'P 21/c'
_symmetry_Int_Tables_number 14
loop_
_symmetry_equiv_pos_site_id
_symmetry_equiv_pos_as_xyz
1 x,y,z
2 -x,1/2+y,1/2-z
3 -x,-y,-z
4 x,-1/2-y,-1/2+z
_cell_length_a 10.4334(8)
_cell_length_b 11.3450(9)
_cell_length_c 17.2179(14)
_cell_angle_alpha 90
_cell_angle_beta 99.910(1)
_cell_angle_gamma 90
_cell_formula_units_Z 4
loop_
_atom_type_symbol
_atom_type_radius_bond
C 0.68
H 0.23
N 0.68
O 0.68
loop_
_atom_site_label
_atom_site_type_symbol
_atom_site_fract_x
_atom_site_fract_y
_atom_site_fract_z
N1 N 0.66541(12) 0.60537(11) 0.92640(7)
N2 N 0.65084(13) 0.45073(11) 0.83703(6)
O1 O 0.74841(12) 0.50427(11) 0.79345(6)
O2 O 0.83994(12) 0.53656(12) 1.01858(6)
O3 O 0.53787(12) 0.76023(13) 0.94933(9)
O4 O 0.75361(10) 0.76296(9) 0.99241(6)
C1 C 0.89108(14) 0.36686(12) 0.74128(8)
C2 C 0.79305(18) 0.32757(15) 0.68339(10)
C3 C 0.8206(3) 0.26074(17) 0.62181(11)
C4 C 0.9450(3) 0.23229(19) 0.61658(13)
C5 C 1.0426(3) 0.2704(2) 0.67246(17)
C6 C 1.01665(19) 0.3384(2) 0.73536(12)
C7 C 0.86559(17) 0.43776(15) 0.81096(9)
C8 C 0.8543(2) 0.36331(18) 0.88386(10)
C9 C 0.73581(17) 0.41423(15) 0.91010(8)
C10 C 0.75877(15) 0.52516(14) 0.96000(8)
C11 C 0.57444(14) 0.55097(13) 0.85943(8)
C12 C 0.45523(17) 0.49932(19) 0.88743(9)
C13 C 0.3608(2) 0.4433(2) 0.82043(11)
C14 C 0.32299(19) 0.5282(2) 0.75243(11)
C15 C 0.44192(18) 0.57730(19) 0.72421(9)
C16 C 0.53397(16) 0.63585(15) 0.79125(9)
C17 C 0.64337(16) 0.71682(15) 0.95713(9)
C18 C 0.75666(16) 0.87819(13) 1.03365(8)
C19 C 0.8989(2) 0.8896(2) 1.06957(18)
C20 C 0.6749(3) 0.8719(3) 1.09675(16)
C21 C 0.7178(4) 0.9736(2) 0.97412(16)
H1 H 0.4850(17) 0.4425(16) 0.9306(11)
H2 H 0.4141(16) 0.5657(15) 0.9094(9)
H3 H 0.704(2) 0.3493(16) 0.6885(11)
H4 H 0.9345(18) 0.4997(17) 0.8247(10)
H5 H 0.6141(17) 0.6666(14) 0.7727(9)
H6 H 0.4883(16) 0.6998(15) 0.8116(9)
H7 H 0.8420(19) 0.279(2) 0.8690(11)
H8 H 0.4908(17) 0.5142(16) 0.7009(10)
H9 H 0.6891(16) 0.3582(15) 0.9376(10)
H10 H 0.4180(16) 0.6357(15) 0.6823(11)
H11 H 1.082(2) 0.3641(19) 0.7748(13)
H12 H 0.965(2) 0.179(2) 0.5707(15)
H13 H 0.914(3) 0.819(4) 1.115(2)
H14 H 0.929(2) 0.3657(18) 0.9240(13)
H15 H 0.399(2) 0.3722(19) 0.8008(13)
H16 H 0.282(2) 0.4195(19) 0.8405(12)
H17 H 0.730(3) 1.049(3) 0.9984(17)
H18 H 0.2685(18) 0.5925(18) 0.7687(11)
H19 H 0.686(2) 0.943(2) 1.1254(15)
H20 H 0.623(3) 0.965(2) 0.9555(16)
H21 H 1.127(3) 0.253(3) 0.6753(17)
H22 H 0.581(3) 0.859(2) 1.0755(16)
H23 H 0.702(3) 0.803(3) 1.1287(18)
H24 H 0.770(4) 0.961(4) 0.931(2)
H25 H 0.2697(19) 0.4882(17) 0.7110(12)
H26 H 0.747(2) 0.233(2) 0.5796(14)
H27 H 0.946(3) 0.889(2) 1.0253(16)
H28 H 0.909(2) 0.965(2) 1.0967(13)
#END
