
#######################################################################
#
#                 Cambridge Crystallographic Data Centre
#                                CCDC
#
#######################################################################
#
# If this CIF has been generated from an entry in the Cambridge
# Structural Database, then it will include bibliographic, chemical,
# crystal, experimental, refinement or atomic coordinate data resulting
# from the CCDC's data processing and validation procedures.
#
#######################################################################

data_CSD_CIF_ODISEZ
_audit_creation_date 2002-05-31
_audit_creation_method CSD-ConQuest-V1
_database_code_CSD ODISEZ
_database_code_depnum_ccdc_archive 'CCDC 167438'
_chemical_formula_sum 'C25 H29 N1 O14'
_chemical_formula_moiety
;
C25 H29 N1 O14
;
_journal_coden_Cambridge 24
_journal_volume 43
_journal_year 2002
_journal_page_first 489
_journal_name_full 'Tetrahedron Lett. '
loop_
_publ_author_name
"R.P.C.Cousins"
"R.G.Pritchard"
"C.M.Raynor"
"M.Smith"
"R.J.Stoodley"
_chemical_name_systematic
;
4-Hydroxy-2-(4-nitrophenyl)-3-(2,3,4,6-tetra-O-acetyl-\b-D-glucopyranosyloxy)-
3,4-dihydro-2H-pyran
;
_chemical_melting_point 472.15
_cell_volume   1349.927
_exptl_crystal_colour 'colorless'
_exptl_crystal_density_diffrn 1.396
_exptl_special_details
;
Melting point range 472.15-473.15K

;
_exptl_crystal_description 'plate'
_diffrn_ambient_temperature 203
#These two values have been output from a single CSD field.
_refine_ls_R_factor_gt 0.0408
_refine_ls_wR_factor_gt 0.0408
_symmetry_cell_setting monoclinic
_symmetry_space_group_name_H-M 'P 21'
_symmetry_Int_Tables_number 4
loop_
_symmetry_equiv_pos_site_id
_symmetry_equiv_pos_as_xyz
1 x,y,z
2 -x,1/2+y,-z
_cell_length_a 10.0292(10)
_cell_length_b 11.805(2)
_cell_length_c 12.172(2)
_cell_angle_alpha 90
_cell_angle_beta 110.49(2)
_cell_angle_gamma 90
_cell_formula_units_Z 2
loop_
_atom_type_symbol
_atom_type_radius_bond
C 0.68
H 0.23
N 0.68
O 0.68
loop_
_atom_site_label
_atom_site_type_symbol
_atom_site_fract_x
_atom_site_fract_y
_atom_site_fract_z
N1 N 0.2732(6) -0.2476(4) -0.0177(4)
O1 O 0.1463(3) 0.1845(3) 0.2292(3)
O2 O 0.1810(7) -0.3153(4) -0.0219(6)
O3 O 0.3726(5) -0.2672(4) -0.0499(4)
O4 O 0.4521(4) 0.4341(3) 0.3018(4)
H1 H 0.442(9) 0.497(8) 0.302(7)
C1 C 0.2227(4) 0.1963(4) 0.1496(3)
H2 H 0.16300 0.24130 0.08150
C2 C 0.3604(4) 0.2596(4) 0.2063(3)
H3 H 0.41530 0.26260 0.15280
C3 C 0.3246(5) 0.3789(4) 0.2347(4)
H4 H 0.28110 0.42080 0.16020
C4 C 0.2188(5) 0.3710(4) 0.2946(4)
H5 H 0.20680 0.43380 0.33770
C5 C 0.1412(5) 0.2802(4) 0.2900(4)
H6 H 0.07790 0.28140 0.33160
C6 C 0.2384(4) 0.0801(4) 0.1066(3)
C7 C 0.1429(5) -0.0035(4) 0.1078(4)
H7 H 0.07090 0.01250 0.13840
C8 C 0.1516(6) -0.1104(5) 0.0647(5)
H8 H 0.08490 -0.16660 0.06410
C9 C 0.2585(5) -0.1329(4) 0.0230(4)
C10 C 0.3539(5) -0.0514(4) 0.0189(4)
H9 H 0.42630 -0.06790 -0.01100
C11 C 0.3410(5) 0.0549(4) 0.0596(4)
H10 H 0.40410 0.11210 0.05520
O5 O 0.4394(3) 0.2003(2) 0.3117(2)
O6 O 0.6259(3) 0.2749(2) 0.5263(2)
O7 O 0.8712(3) 0.1199(2) 0.6199(2)
O8 O 0.9940(3) 0.0817(2) 0.4406(2)
O9 O 0.6171(3) 0.1042(2) 0.2789(2)
O10 O 0.7429(3) -0.0988(2) 0.2488(3)
O11 O 0.5692(4) 0.1753(3) 0.6585(3)
O12 O 0.9437(4) 0.2915(3) 0.6965(3)
O13 O 1.0471(4) -0.0761(3) 0.5505(3)
O14 O 0.7395(4) -0.1730(3) 0.0797(3)
C12 C 0.5846(4) 0.1970(4) 0.3383(3)
H11 H 0.61900 0.26870 0.31550
C13 C 0.6534(4) 0.1767(3) 0.4694(3)
H12 H 0.61150 0.10890 0.49260
C14 C 0.8126(4) 0.1617(3) 0.5021(3)
H13 H 0.85730 0.23490 0.49550
C15 C 0.8459(4) 0.0740(3) 0.4250(3)
H14 H 0.82330 -0.00280 0.44620
C16 C 0.7644(4) 0.0972(4) 0.2966(3)
H15 H 0.79590 0.17100 0.27560
C17 C 0.7826(5) 0.0083(4) 0.2148(3)
H16 H 0.72240 0.02600 0.13400
H17 H 0.88190 0.00610 0.21900
C18 C 0.5761(4) 0.2636(4) 0.6129(4)
C19 C 0.5341(6) 0.3757(4) 0.6468(5)
H18 H 0.61120 0.42930 0.65890
H19 H 0.51400 0.36780 0.71880
H20 H 0.44980 0.40300 0.58490
C20 C 0.9332(5) 0.1917(4) 0.7091(4)
C21 C 0.9814(5) 0.1287(5) 0.8210(4)
H21 H 1.02800 0.05920 0.81170
H22 H 0.90000 0.11050 0.84330
H23 H 1.04780 0.17490 0.88160
C22 C 1.0831(5) -0.0001(4) 0.5032(4)
C23 C 1.2290(5) 0.0206(5) 0.5015(5)
H24 H 1.25480 0.09920 0.52100
H25 H 1.23080 0.00430 0.42400
H26 H 1.29630 -0.02810 0.55860
C24 C 0.7284(5) -0.1838(4) 0.1734(4)
C25 C 0.6945(7) -0.2920(5) 0.2219(5)
H27 H 0.75950 -0.30200 0.30180
H28 H 0.70450 -0.35500 0.17420
H29 H 0.59750 -0.28930 0.22110
#END
