
#######################################################################
#
#                 Cambridge Crystallographic Data Centre
#                                CCDC
#
#######################################################################
#
# If this CIF has been generated from an entry in the Cambridge
# Structural Database, then it will include bibliographic, chemical,
# crystal, experimental, refinement or atomic coordinate data resulting
# from the CCDC's data processing and validation procedures.
#
#######################################################################

data_CSD_CIF_ODIYIM
_audit_creation_date 2018-08-24
_audit_creation_method CSD-ConQuest-V1
_database_code_CSD ODIYIM
_database_code_depnum_ccdc_archive 'CCDC 1812990'
_chemical_formula_sum 'C36 H54 N4 O6'
_chemical_formula_moiety
;
C36 H54 N4 O6
;
_journal_coden_Cambridge 182
_journal_volume 54
_journal_year 2018
_journal_page_first 10276
_journal_name_full 'Chem.Commun. '
loop_
_publ_author_name
"B.E.Cole"
"I.B.Falcones"
"T.Cheisson"
"B.C.Manor"
"P.J.Carroll"
"E.J.Schelter"
_chemical_name_systematic
;
2,2',2''-[nitrilotris(methylene)]tris(N-t-butyl-N-hydroxy-4-methoxyaniline) 
unknown solvate
;
_cell_volume   1966.092
_exptl_crystal_colour 'colorless'
_exptl_crystal_density_diffrn 1.079
_exptl_crystal_description 'prism'
_diffrn_ambient_temperature 100
_refine_special_details
;
The SQUEEZE/PLATON program was used to model some unidentified solvent.

;
#These two values have been output from a single CSD field.
_refine_ls_R_factor_gt 0.0576
_refine_ls_wR_factor_gt 0.0576
_symmetry_cell_setting hexagonal
_symmetry_space_group_name_H-M 'P -3'
_symmetry_Int_Tables_number 147
loop_
_symmetry_equiv_pos_site_id
_symmetry_equiv_pos_as_xyz
1 x,y,z
2 -y,x-y,z
3 -x+y,-x,z
4 -x,-y,-z
5 y,-x+y,-z
6 x-y,x,-z
_cell_length_a 15.7140(7)
_cell_length_b 15.7140(7)
_cell_length_c 9.1939(4)
_cell_angle_alpha 90
_cell_angle_beta 90
_cell_angle_gamma 120
_cell_formula_units_Z 2
loop_
_atom_type_symbol
_atom_type_radius_bond
C 0.68
H 0.23
N 0.68
O 0.68
loop_
_atom_site_label
_atom_site_type_symbol
_atom_site_fract_x
_atom_site_fract_y
_atom_site_fract_z
O1 O 0.38817(14) -0.05508(13) 0.4500(2)
H1 H 0.43090 -0.07030 0.45690
O2 O 0.40136(15) 0.23406(16) -0.0194(2)
N1 N 0.42986(16) 0.04863(15) 0.4858(2)
N2 N 0.66670 0.33330 0.3521(4)
C1 C 0.59750(18) 0.23355(18) 0.4019(3)
H2 H 0.58190 0.23580 0.50340
H3 H 0.62850 0.19360 0.39480
C2 C 0.50282(19) 0.18577(18) 0.3136(2)
C3 C 0.4975(2) 0.2320(2) 0.1866(3)
H4 H 0.55110 0.29170 0.15870
C4 C 0.4134(2) 0.1900(2) 0.1022(3)
C5 C 0.3348(2) 0.0989(2) 0.1398(3)
H5 H 0.27900 0.06920 0.08140
C6 C 0.3399(2) 0.0526(2) 0.2646(3)
H6 H 0.28740 -0.00860 0.28920
C7 C 0.42275(19) 0.09643(19) 0.3544(3)
C8 C 0.3731(2) 0.0534(2) 0.6157(3)
C9 C 0.4115(3) 0.1607(2) 0.6513(3)
H7 H 0.40380 0.19320 0.56800
H8 H 0.47980 0.19130 0.67670
H9 H 0.37510 0.16560 0.73160
C10 C 0.2628(3) 0.0013(3) 0.5916(4)
H10 H 0.23080 0.00280 0.67970
H11 H 0.23970 -0.06570 0.56420
H12 H 0.24810 0.03370 0.51550
C11 C 0.3984(3) 0.0074(3) 0.7431(3)
H13 H 0.37410 0.01950 0.83190
H14 H 0.46840 0.03590 0.74940
H15 H 0.36860 -0.06220 0.72790
C12 C 0.4834(2) 0.3253(2) -0.0639(3)
H16 H 0.49990 0.37320 0.01180
H17 H 0.46690 0.34780 -0.15080
H18 H 0.53860 0.31650 -0.08260
O1A O 1.05508(14) 0.44325(13) 0.4500(2)
H1A H 1.07030 0.50120 0.45690
O2A O 0.76594(15) 0.16730(16) -0.0194(2)
N1A N 0.95137(16) 0.38123(15) 0.4858(2)
C1A C 0.76645(18) 0.36395(18) 0.4019(3)
H2A H 0.76420 0.34610 0.50340
H3A H 0.80640 0.43490 0.39480
C2A C 0.81423(19) 0.31705(18) 0.3136(2)
C3A C 0.7680(2) 0.2655(2) 0.1866(3)
H4A H 0.70830 0.25940 0.15870
C4A C 0.8100(2) 0.2234(2) 0.1022(3)
C5A C 0.9011(2) 0.2359(2) 0.1398(3)
H5A H 0.93080 0.20980 0.08140
C6A C 0.9474(2) 0.2873(2) 0.2646(3)
H6A H 1.00860 0.29600 0.28920
C7A C 0.90357(19) 0.32632(19) 0.3544(3)
C8A C 0.9466(2) 0.3197(2) 0.6157(3)
C9A C 0.8393(3) 0.2508(2) 0.6513(3)
H7A H 0.80680 0.21060 0.56800
H8A H 0.80870 0.28850 0.67670
H9A H 0.83440 0.20950 0.73160
C10A C 0.9987(3) 0.2615(3) 0.5916(4)
H10A H 0.99720 0.22800 0.67970
H11A H 1.06570 0.30540 0.56420
H12A H 0.96630 0.21440 0.51550
C11A C 0.9926(3) 0.3910(3) 0.7431(3)
H13A H 0.98050 0.35460 0.83190
H14A H 0.96410 0.43250 0.74940
H15A H 1.06220 0.43080 0.72790
C12A C 0.6747(2) 0.1581(2) -0.0639(3)
H16A H 0.62680 0.12670 0.01180
H17A H 0.65220 0.11910 -0.15080
H18A H 0.68350 0.22210 -0.08260
O1B O 0.55675(14) 0.61183(13) 0.4500(2)
H1B H 0.49880 0.56910 0.45690
O2B O 0.83270(15) 0.59864(16) -0.0194(2)
N1B N 0.61877(16) 0.57014(15) 0.4858(2)
C1B C 0.63605(18) 0.40250(18) 0.4019(3)
H2B H 0.65390 0.41810 0.50340
H3B H 0.56510 0.37150 0.39480
C2B C 0.68295(19) 0.49718(18) 0.3136(2)
C3B C 0.7345(2) 0.5025(2) 0.1866(3)
H4B H 0.74060 0.44890 0.15870
C4B C 0.7766(2) 0.5866(2) 0.1022(3)
C5B C 0.7641(2) 0.6652(2) 0.1398(3)
H5B H 0.79020 0.72100 0.08140
C6B C 0.7127(2) 0.6601(2) 0.2646(3)
H6B H 0.70400 0.71260 0.28920
C7B C 0.67368(19) 0.57725(19) 0.3544(3)
C8B C 0.6803(2) 0.6269(2) 0.6157(3)
C9B C 0.7492(3) 0.5885(2) 0.6513(3)
H7B H 0.78940 0.59620 0.56800
H8B H 0.71150 0.52020 0.67670
H9B H 0.79050 0.62490 0.73160
C10B C 0.7385(3) 0.7372(3) 0.5916(4)
H10B H 0.77200 0.76920 0.67970
H11B H 0.69460 0.76030 0.56420
H12B H 0.78560 0.75190 0.51550
C11B C 0.6090(3) 0.6016(3) 0.7431(3)
H13B H 0.64540 0.62590 0.83190
H14B H 0.56750 0.53160 0.74940
H15B H 0.56920 0.63140 0.72790
C12B C 0.8419(2) 0.5166(2) -0.0639(3)
H16B H 0.87330 0.50010 0.01180
H17B H 0.88090 0.53310 -0.15080
H18B H 0.77790 0.46140 -0.08260
#END
