
#######################################################################
#
#                 Cambridge Crystallographic Data Centre
#                                CCDC
#
#######################################################################
#
# If this CIF has been generated from an entry in the Cambridge
# Structural Database, then it will include bibliographic, chemical,
# crystal, experimental, refinement or atomic coordinate data resulting
# from the CCDC's data processing and validation procedures.
#
#######################################################################

data_CSD_CIF_ODOHOF
_audit_creation_date 2007-09-28
_audit_creation_method CSD-ConQuest-V1
_database_code_CSD ODOHOF
_database_code_depnum_ccdc_archive 'CCDC 264983'
_chemical_formula_sum 'C20 H16 N2 O8'
_chemical_formula_moiety
;
C20 H16 N2 O8
;
_journal_coden_Cambridge 1147
_journal_volume 7
_journal_year 2007
_journal_page_first 1078
_journal_name_full 'Cryst.Growth Des. '
loop_
_publ_author_name
"A.Matsumoto"
"D.Furukawa"
"Y.Mori"
"T.Tanaka"
"K.Oka"
_chemical_name_systematic
;
bis(4-Nitrobenzyl) (Z,Z)-muconate
;
_chemical_melting_point 447.25
_cell_volume    947.611
_exptl_crystal_colour 'colorless'
_exptl_crystal_density_diffrn 1.445
_exptl_special_details
;
Melting point range 447.25-448.35K

;
_exptl_crystal_description 'platelet'
_diffrn_ambient_temperature 296.1
#These two values have been output from a single CSD field.
_refine_ls_R_factor_gt 0.059
_refine_ls_wR_factor_gt 0.059
_symmetry_cell_setting monoclinic
_symmetry_space_group_name_H-M 'P 21/c'
_symmetry_Int_Tables_number 14
loop_
_symmetry_equiv_pos_site_id
_symmetry_equiv_pos_as_xyz
1 x,y,z
2 -x,1/2+y,1/2-z
3 -x,-y,-z
4 x,-1/2-y,-1/2+z
_cell_length_a 5.7995(1)
_cell_length_b 5.2393(1)
_cell_length_c 31.1930(2)
_cell_angle_alpha 90
_cell_angle_beta 91.172(1)
_cell_angle_gamma 90
_cell_formula_units_Z 2
loop_
_atom_type_symbol
_atom_type_radius_bond
C 0.68
H 0.23
N 0.68
O 0.68
loop_
_atom_site_label
_atom_site_type_symbol
_atom_site_fract_x
_atom_site_fract_y
_atom_site_fract_z
O1 O 0.7065(6) 0.7033(7) 0.4334(1)
O2 O 0.4123(5) 0.4491(6) 0.41629(9)
O3 O 0.1615(6) -0.5413(6) 0.2614(1)
O4 O -0.1256(6) -0.5043(6) 0.3031(1)
N1 N 0.0653(6) -0.4423(7) 0.2915(1)
C1 C 0.5124(8) 0.6374(9) 0.4386(1)
C2 C 0.3498(9) 0.744(1) 0.4695(1)
C3 C 0.3935(9) 0.931(1) 0.4975(2)
C4 C 0.5509(8) 0.337(1) 0.3835(2)
C5 C 0.4110(7) 0.1398(8) 0.3595(1)
C6 C 0.4994(7) 0.0436(8) 0.3220(1)
C7 C 0.3873(7) -0.1460(8) 0.2993(1)
C8 C 0.1842(7) -0.2373(8) 0.3148(1)
C9 C 0.0888(7) -0.1449(9) 0.3517(1)
C10 C 0.2053(7) 0.0447(9) 0.3740(1)
H1 H 0.203(8) 0.666(9) 0.469(1)
H2 H 0.269(8) 0.993(9) 0.516(1)
H3 H 0.693(7) 0.252(8) 0.398(1)
H4 H 0.591(9) 0.47(1) 0.364(2)
H5 H 0.6400(7) 0.1101(8) 0.3115(1)
H6 H 0.4486(7) -0.2134(8) 0.2737(1)
H7 H -0.0546(7) -0.2091(9) 0.3612(1)
H8 H 0.1427(7) 0.1106(9) 0.3996(1)
O1B O 0.2935(6) 1.2967(7) 0.5666(1)
O2B O 0.5877(5) 1.5509(6) 0.58371(9)
O3B O 0.8385(6) 2.5413(6) 0.7386(1)
O4B O 1.1256(6) 2.5043(6) 0.6969(1)
N1B N 0.9347(6) 2.4423(7) 0.7085(1)
C1B C 0.4876(8) 1.3626(9) 0.5614(1)
C2B C 0.6502(9) 1.256(1) 0.5305(1)
C3B C 0.6065(9) 1.069(1) 0.5025(2)
C4B C 0.4491(8) 1.663(1) 0.6165(2)
C5B C 0.5890(7) 1.8602(8) 0.6405(1)
C6B C 0.5006(7) 1.9564(8) 0.6780(1)
C7B C 0.6127(7) 2.1460(8) 0.7007(1)
C8B C 0.8158(7) 2.2373(8) 0.6852(1)
C9B C 0.9112(7) 2.1449(9) 0.6483(1)
C10B C 0.7947(7) 1.9553(9) 0.6260(1)
H1B H 0.797(8) 1.334(9) 0.531(1)
H2B H 0.731(8) 1.007(9) 0.484(1)
H3B H 0.307(7) 1.748(8) 0.602(1)
H4B H 0.409(9) 1.53(1) 0.636(2)
H5B H 0.3600(7) 1.8899(8) 0.6885(1)
H6B H 0.5514(7) 2.2134(8) 0.7263(1)
H7B H 1.0546(7) 2.2091(9) 0.6388(1)
H8B H 0.8573(7) 1.8894(9) 0.6004(1)
#END
