
#######################################################################
#
#                 Cambridge Crystallographic Data Centre
#                                CCDC
#
#######################################################################
#
# If this CIF has been generated from an entry in the Cambridge
# Structural Database, then it will include bibliographic, chemical,
# crystal, experimental, refinement or atomic coordinate data resulting
# from the CCDC's data processing and validation procedures.
#
#######################################################################

data_CSD_CIF_ODOVOS
_audit_creation_date 2002-05-31
_audit_creation_method CSD-ConQuest-V1
_database_code_CSD ODOVOS
_database_code_depnum_ccdc_archive 'CCDC 176996'
_chemical_formula_sum 'C18 H26 N2 O2'
_chemical_formula_moiety
;
C18 H26 N2 O2
;
_journal_coden_Cambridge 188
_journal_year 2002
_journal_page_first 533
_journal_name_full 'J.Chem.Soc.,Perkin Trans.2 '
loop_
_publ_author_name
"C.D.Smith"
"R.C.Bott"
"S.E.Bottle"
"A.S.Micallef"
"G.Smith"
_chemical_name_systematic
;
1,2,3,5,6,7-Hexahydro-1,1,3,3,5,5,7,7-octamethylbenzo(1,2-c:4,5-c')dipyrrole-2
,6-diyloxyl
;
_chemical_melting_point 503
_cell_volume    950.667
_exptl_crystal_colour 'yellow'
_exptl_crystal_density_diffrn 1.056
_exptl_special_details
;
Melts with decomposition.

;
_exptl_crystal_description 'prismatic'
_exptl_crystal_preparation 'dimethylformamide'
_diffrn_ambient_temperature 293
#These two values have been output from a single CSD field.
_refine_ls_R_factor_gt 0.0731
_refine_ls_wR_factor_gt 0.0731
_symmetry_cell_setting monoclinic
_symmetry_space_group_name_H-M 'P 21/n'
_symmetry_Int_Tables_number 14
loop_
_symmetry_equiv_pos_site_id
_symmetry_equiv_pos_as_xyz
1 x,y,z
2 1/2+x,1/2-y,1/2+z
3 -x,-y,-z
4 -1/2-x,-1/2+y,-1/2-z
_cell_length_a 6.332(2)
_cell_length_b 13.4029(17)
_cell_length_c 11.2087(17)
_cell_angle_alpha 90
_cell_angle_beta 92.007(19)
_cell_angle_gamma 90
_cell_formula_units_Z 2
loop_
_atom_type_symbol
_atom_type_radius_bond
C 0.68
H 0.23
N 0.68
O 0.68
loop_
_atom_site_label
_atom_site_type_symbol
_atom_site_fract_x
_atom_site_fract_y
_atom_site_fract_z
O1 O 0.2878(7) 0.7671(3) 0.2474(3)
N1 N 0.2076(8) 0.8309(3) 0.3160(3)
C1 C 0.2201(10) 0.9392(3) 0.2930(4)
C2 C 0.1060(11) 0.8012(3) 0.4282(4)
C3 C 0.0423(8) 0.9026(3) 0.4727(4)
C4 C 0.1069(9) 0.9780(3) 0.3989(3)
C5 C -0.0649(9) 0.9227(3) 0.5755(4)
C6 C 0.0956(13) 0.9630(4) 0.1727(4)
C7 C 0.4529(12) 0.9715(4) 0.2940(6)
C8 C -0.0976(14) 0.7345(4) 0.3936(6)
C9 C 0.2758(16) 0.7532(5) 0.5124(6)
H1 H -0.08920 0.86380 0.64200
H2 H -0.04530 0.98910 0.18820
H3 H 0.16530 1.01010 0.12610
H4 H 0.07160 0.90310 0.12560
H5 H 0.50760 0.97760 0.37490
H6 H 0.53730 0.92330 0.25440
H7 H 0.46840 1.03430 0.25550
H8 H -0.16410 0.71240 0.46490
H9 H -0.19500 0.77060 0.34600
H10 H -0.05550 0.67540 0.35110
H11 H 0.23630 0.76170 0.59420
H12 H 0.28220 0.68240 0.49770
H13 H 0.40890 0.78150 0.50220
C4B C -0.1069(9) 1.0220(3) 0.6011(3)
C1B C -0.2201(10) 1.0608(3) 0.7070(4)
N1B N -0.2076(8) 1.1691(3) 0.6840(3)
O1B O -0.2878(7) 1.2329(3) 0.7526(3)
C2B C -0.1060(11) 1.1988(3) 0.5718(4)
C3B C -0.0423(8) 1.0974(3) 0.5273(4)
C5B C 0.0649(9) 1.0773(3) 0.4245(4)
H1B H 0.08920 1.13620 0.35800
C8B C 0.0976(14) 1.2655(4) 0.6064(6)
H8B H 0.16410 1.28760 0.53510
H9B H 0.19500 1.22940 0.65400
H10B H 0.05550 1.32460 0.64890
C9B C -0.2758(16) 1.2468(5) 0.4876(6)
H11B H -0.23630 1.23830 0.40580
H12B H -0.28220 1.31760 0.50230
H13B H -0.40890 1.21850 0.49780
C6B C -0.0956(13) 1.0370(4) 0.8273(4)
H2B H 0.04530 1.01090 0.81180
H3B H -0.16530 0.98990 0.87390
H4B H -0.07160 1.09690 0.87440
C7B C -0.4529(12) 1.0285(4) 0.7060(6)
H5B H -0.50760 1.02240 0.62510
H6B H -0.53730 1.07670 0.74560
H7B H -0.46840 0.96570 0.74450
#END
