
#######################################################################
#
#                 Cambridge Crystallographic Data Centre
#                                CCDC
#
#######################################################################
#
# If this CIF has been generated from an entry in the Cambridge
# Structural Database, then it will include bibliographic, chemical,
# crystal, experimental, refinement or atomic coordinate data resulting
# from the CCDC's data processing and validation procedures.
#
#######################################################################

data_CSD_CIF_ODOVIM
_audit_creation_date 2002-05-31
_audit_creation_method CSD-ConQuest-V1
_database_code_CSD ODOVIM
_database_code_depnum_ccdc_archive 'CCDC 176995'
_chemical_formula_sum 'C26 H34 N2 O2'
_chemical_formula_moiety
;
C26 H34 N2 O2
;
_journal_coden_Cambridge 188
_journal_year 2002
_journal_page_first 533
_journal_name_full 'J.Chem.Soc.,Perkin Trans.2 '
loop_
_publ_author_name
"C.D.Smith"
"R.C.Bott"
"S.E.Bottle"
"A.S.Micallef"
"G.Smith"
_chemical_name_systematic
;
1,1-bis(1',1',3',3'-Tetramethylisoindolin-2'-yloxyl-5'-yl)ethane
;
_chemical_melting_point 491
_cell_volume   1201.731
_exptl_crystal_colour 'yellow'
_exptl_crystal_density_diffrn 1.124
_exptl_special_details
;
Melts with decomposition.

;
_exptl_crystal_description 'prismatic'
_exptl_crystal_preparation 'cyclohexane/dichloromethane'
_diffrn_ambient_temperature 293
_refine_special_details
;
Atom C62 of the ethane group is equally disordered over two positions by 
symmetry.
;
#These two values have been output from a single CSD field.
_refine_ls_R_factor_gt 0.0574
_refine_ls_wR_factor_gt 0.0574
_symmetry_cell_setting orthorhombic
_symmetry_space_group_name_H-M 'P n n 2'
_symmetry_Int_Tables_number 34
loop_
_symmetry_equiv_pos_site_id
_symmetry_equiv_pos_as_xyz
1 x,y,z
2 -x,-y,z
3 1/2-x,1/2+y,1/2+z
4 1/2+x,1/2-y,1/2+z
_cell_length_a 12.6113(17)
_cell_length_b 16.164(2)
_cell_length_c 5.8952(18)
_cell_angle_alpha 90
_cell_angle_beta 90
_cell_angle_gamma 90
_cell_formula_units_Z 2
loop_
_atom_type_symbol
_atom_type_radius_bond
C 0.68
H 0.23
N 0.68
O 0.68
loop_
_atom_site_label
_atom_site_type_symbol
_atom_site_fract_x
_atom_site_fract_y
_atom_site_fract_z
O1 O 0.1430(3) 0.2640(2) 0.3674(8)
N1 N 0.1941(3) 0.20624(19) 0.2681(7)
C1 C 0.2897(3) 0.2238(2) 0.1269(8)
C2 C 0.1540(3) 0.1203(2) 0.2624(8)
C3 C 0.2487(3) -0.0022(2) 0.0630(9)
C4 C 0.3330(4) -0.0277(3) -0.0720(9)
C5 C 0.4085(3) 0.0297(3) -0.1533(7)
C6 C 0.3979(3) 0.1116(3) -0.0898(8)
C7 C 0.3134(3) 0.1365(2) 0.0451(6)
C8 C 0.2395(3) 0.0806(2) 0.1197(7)
C9 C 0.2599(4) 0.2826(3) -0.0645(12)
C10 C 0.3771(4) 0.2583(4) 0.2741(13)
C11 C 0.1461(4) 0.0852(3) 0.4996(9)
C12 C 0.0466(3) 0.1203(3) 0.1453(11)
C13 C 0.50000 0.00000 -0.2980(12)
C14 C 0.5153(8) 0.0404(6) -0.5016(18)
H1 H 0.19640 -0.04130 0.11210
H2 H 0.34060 -0.08520 -0.11300
H3 H 0.44870 0.15200 -0.14120
H4 H 0.23780 0.33410 -0.00610
H5 H 0.32170 0.29160 -0.15930
H6 H 0.20580 0.25940 -0.15620
H7 H 0.36160 0.24990 0.43050
H8 H 0.44280 0.22880 0.24150
H9 H 0.38830 0.31480 0.24530
H10 H 0.15450 0.12810 0.60790
H11 H 0.07920 0.05940 0.51880
H12 H 0.20090 0.04500 0.52060
H13 H -0.00880 0.12010 0.25610
H14 H 0.03850 0.16720 0.05030
H15 H 0.03940 0.07120 0.05440
H16 H 0.54810 0.09150 -0.47220
H17 H 0.56950 -0.00370 -0.59330
C5A C 0.5915(3) -0.0297(3) -0.1533(7)
C4A C 0.6670(4) 0.0277(3) -0.0720(9)
C3A C 0.7513(3) 0.0022(2) 0.0630(9)
C8A C 0.7605(3) -0.0806(2) 0.1197(7)
C2A C 0.8460(3) -0.1203(2) 0.2624(8)
N1A N 0.8059(3) -0.20624(19) 0.2681(7)
O1A O 0.8570(3) -0.2640(2) 0.3674(8)
C1A C 0.7103(3) -0.2238(2) 0.1269(8)
C7A C 0.6866(3) -0.1365(2) 0.0451(6)
C6A C 0.6021(3) -0.1116(3) -0.0898(8)
H3A H 0.55130 -0.15200 -0.14120
C9A C 0.7401(4) -0.2826(3) -0.0645(12)
H4A H 0.76220 -0.33410 -0.00610
H5A H 0.67830 -0.29160 -0.15930
H6A H 0.79420 -0.25940 -0.15620
C10A C 0.6229(4) -0.2583(4) 0.2741(13)
H7A H 0.63840 -0.24990 0.43050
H8A H 0.55720 -0.22880 0.24150
H9A H 0.61170 -0.31480 0.24530
C11A C 0.8539(4) -0.0852(3) 0.4996(9)
H10A H 0.84550 -0.12810 0.60790
H11A H 0.92080 -0.05940 0.51880
H12A H 0.79910 -0.04500 0.52060
C12A C 0.9534(3) -0.1203(3) 0.1453(11)
H13A H 1.00880 -0.12010 0.25610
H14A H 0.96150 -0.16720 0.05030
H15A H 0.96060 -0.07120 0.05440
H1A H 0.80360 0.04130 0.11210
H2A H 0.65940 0.08520 -0.11300
C14A C 0.4847(8) -0.0404(6) -0.5016(18)
H16A H 0.45190 -0.09150 -0.47220
H17A H 0.43050 0.00370 -0.59330
#END
