
#######################################################################
#
#                 Cambridge Crystallographic Data Centre
#                                CCDC
#
#######################################################################
#
# If this CIF has been generated from an entry in the Cambridge
# Structural Database, then it will include bibliographic, chemical,
# crystal, experimental, refinement or atomic coordinate data resulting
# from the CCDC's data processing and validation procedures.
#
#######################################################################

data_CSD_CIF_ODULAA
_audit_creation_date 2002-05-31
_audit_creation_method CSD-ConQuest-V1
_database_code_CSD ODULAA
_database_code_depnum_ccdc_archive 'CCDC 163805'
_chemical_formula_sum 'C35 H49 N4 O5'
_chemical_formula_moiety
;
C35 H49 N4 O5
;
_journal_coden_Cambridge 1220
_journal_volume 8
_journal_year 2002
_journal_page_first 84
_journal_name_full 'Chem.-Eur.J. '
loop_
_publ_author_name
"F.Formaggio"
"M.Bonchio"
"M.Crisma"
"C.Peggion"
"S.Mezzato"
"A.Polese"
"A.Barazza"
"S.Antonello"
"F.Maran"
"Q.B.Broxterman"
"B.Kaptein"
"J.Kamphuis"
"R.M.Vitale"
"M.Saviano"
"E.Benedetti"
"C.Toniolo"
_chemical_name_systematic
;
N-(4-(Fluoren-9-ylmethoxycarbonylamino)-2,2,6,6-tetramethylpiperidine-1-oxy-4-
carbonyl)-\a-methylvaline t-butyl amide
;
_chemical_name_common
;
PEPSEQ A=2 GLY*-GLY*
;
_chemical_melting_point 438.15
_cell_volume   3551.189
_exptl_crystal_colour 'pale orange'
_exptl_crystal_density_diffrn 1.133
_exptl_special_details
;
Melting point range 438.15-440.15K

;
_exptl_crystal_description 'irregular'
_exptl_crystal_preparation 'ethyl acetate/petroleum ether'
_diffrn_ambient_temperature 293
#These two values have been output from a single CSD field.
_refine_ls_R_factor_gt 0.0399
_refine_ls_wR_factor_gt 0.0399
_symmetry_cell_setting orthorhombic
_symmetry_space_group_name_H-M 'P 21 21 21'
_symmetry_Int_Tables_number 19
loop_
_symmetry_equiv_pos_site_id
_symmetry_equiv_pos_as_xyz
1 x,y,z
2 1/2-x,-y,1/2+z
3 -x,1/2+y,1/2-z
4 1/2+x,1/2-y,-z
_cell_length_a 12.120(3)
_cell_length_b 14.743(3)
_cell_length_c 19.874(4)
_cell_angle_alpha 90
_cell_angle_beta 90
_cell_angle_gamma 90
_cell_formula_units_Z 4
loop_
_atom_type_symbol
_atom_type_radius_bond
C 0.68
H 0.23
N 0.68
O 0.68
loop_
_atom_site_label
_atom_site_type_symbol
_atom_site_fract_x
_atom_site_fract_y
_atom_site_fract_z
C1 C 0.05077(18) 0.36766(16) 0.94540(11)
C2 C -0.0439(2) 0.41297(16) 0.96617(12)
H1 H -0.04990 0.43320 1.01030
C3 C -0.12937(18) 0.42805(18) 0.92093(19)
H2 H -0.19270 0.45840 0.93480
C4 C -0.1203(2) 0.3978(2) 0.85492(17)
H3 H -0.17750 0.40790 0.82470
C5 C -0.0256(3) 0.3525(2) 0.83415(11)
H4 H -0.01950 0.33230 0.79000
C6 C 0.0599(2) 0.33742(15) 0.87939(13)
C7 C 0.16234(17) 0.29302(15) 0.86942(13)
C8 C 0.2086(3) 0.24889(17) 0.81442(10)
H5 H 0.16970 0.24510 0.77420
C9 C 0.3129(3) 0.21036(15) 0.81957(13)
H6 H 0.34380 0.18080 0.78280
C10 C 0.37101(18) 0.21597(17) 0.87972(17)
H7 H 0.44080 0.19020 0.88320
C11 C 0.3248(2) 0.26011(18) 0.93473(12)
H8 H 0.36370 0.26390 0.97500
C12 C 0.2205(2) 0.29863(14) 0.92958(10)
C13 C 0.1557(3) 0.3484(2) 0.98202(16)
H9 H 0.14000 0.30690 1.01930
C14 C 0.2097(3) 0.4331(2) 1.00980(14)
H10 H 0.16490 0.45820 1.04570
H11 H 0.28170 0.41840 1.02800
O1 O 0.22077(16) 0.49834(14) 0.95625(9)
C15 C 0.3221(3) 0.52366(18) 0.93764(12)
O2 O 0.40751(18) 0.49303(14) 0.9606(1)
N1 N 0.31674(19) 0.58910(15) 0.89047(10)
H12 H 0.25330 0.60890 0.87790
C16 C 0.4161(2) 0.62704(18) 0.86031(13)
C17 C 0.3848(3) 0.70367(19) 0.81242(13)
H13 H 0.45100 0.73850 0.80300
H14 H 0.33410 0.74360 0.83580
C18 C 0.3322(3) 0.6776(2) 0.74487(14)
C19 C 0.3455(4) 0.7580(2) 0.69717(16)
H15 H 0.42250 0.76960 0.69000
H16 H 0.31140 0.81060 0.71650
H17 H 0.31090 0.74430 0.65490
C20 C 0.2097(3) 0.6551(3) 0.75075(17)
H18 H 0.17990 0.64390 0.70680
H19 H 0.17160 0.70520 0.77100
H20 H 0.20050 0.60200 0.77820
N2 N 0.3929(3) 0.60004(16) 0.71586(11)
O3 O 0.3788(3) 0.58590(17) 0.65305(10)
C21 C 0.4368(3) 0.52220(18) 0.75546(14)
C22 C 0.3466(4) 0.4509(2) 0.76629(18)
H21 H 0.28710 0.47710 0.79150
H22 H 0.37660 0.40040 0.79060
H23 H 0.31960 0.43050 0.72350
C23 C 0.5300(4) 0.4795(2) 0.71496(19)
H24 H 0.50070 0.45360 0.67440
H25 H 0.56460 0.43280 0.74120
H26 H 0.58350 0.52510 0.70380
C24 C 0.4848(3) 0.5581(2) 0.82117(14)
H27 H 0.55560 0.58560 0.81120
H28 H 0.49860 0.50670 0.85050
C25 C 0.4898(2) 0.6698(2) 0.91561(14)
O4 O 0.59012(17) 0.67313(16) 0.91001(12)
N3 N 0.4353(2) 0.70520(14) 0.96820(11)
H29 H 0.36510 0.69700 0.97010
C26 C 0.4877(2) 0.7573(2) 1.02313(15)
C27 C 0.3945(3) 0.7795(2) 1.07474(15)
H30 H 0.34000 0.81610 1.05050
C28 C 0.3323(3) 0.6985(3) 1.10257(17)
H31 H 0.38160 0.66170 1.12870
H32 H 0.30320 0.66320 1.06600
H33 H 0.27290 0.71920 1.13050
C29 C 0.4353(4) 0.8380(3) 1.13303(19)
H34 H 0.37370 0.85600 1.16040
H35 H 0.47130 0.89100 1.11560
H36 H 0.48650 0.80390 1.15980
C30 C 0.5362(3) 0.8444(2) 0.99277(18)
H37 H 0.58530 0.82890 0.95660
H38 H 0.57610 0.87690 1.02680
H39 H 0.47750 0.88170 0.97580
C31 C 0.5790(3) 0.7011(2) 1.05835(16)
O5 O 0.65679(19) 0.74101(15) 1.08493(13)
N4 N 0.5620(2) 0.61288(16) 1.06081(12)
H40 H 0.50450 0.59260 1.04030
C32 C 0.6321(3) 0.5454(2) 1.09542(17)
C33 C 0.6311(4) 0.5630(4) 1.17012(18)
H41 H 0.65420 0.62430 1.17860
H42 H 0.68060 0.52180 1.19210
H43 H 0.55780 0.55430 1.18720
C34 C 0.5861(5) 0.4542(3) 1.0791(3)
H44 H 0.51210 0.44980 1.09620
H45 H 0.63100 0.40810 1.09940
H46 H 0.58530 0.44590 1.03120
C35 C 0.7505(3) 0.5539(3) 1.0706(2)
H47 H 0.75190 0.54930 1.02240
H48 H 0.79440 0.50620 1.08970
H49 H 0.78000 0.61160 1.08410
#END
