
#######################################################################
#
#                 Cambridge Crystallographic Data Centre
#                                CCDC
#
#######################################################################
#
# If this CIF has been generated from an entry in the Cambridge
# Structural Database, then it will include bibliographic, chemical,
# crystal, experimental, refinement or atomic coordinate data resulting
# from the CCDC's data processing and validation procedures.
#
#######################################################################

data_CSD_CIF_ODULEE
_audit_creation_date 2002-05-31
_audit_creation_method CSD-ConQuest-V1
_database_code_CSD ODULEE
_database_code_depnum_ccdc_archive 'CCDC 163806'
_chemical_formula_sum 'C53 H82 N7 O8'
_chemical_formula_moiety
;
C53 H82 N7 O8
;
_journal_coden_Cambridge 1220
_journal_volume 8
_journal_year 2002
_journal_page_first 84
_journal_name_full 'Chem.-Eur.J. '
loop_
_publ_author_name
"F.Formaggio"
"M.Bonchio"
"M.Crisma"
"C.Peggion"
"S.Mezzato"
"A.Polese"
"A.Barazza"
"S.Antonello"
"F.Maran"
"Q.B.Broxterman"
"B.Kaptein"
"J.Kamphuis"
"R.M.Vitale"
"M.Saviano"
"E.Benedetti"
"C.Toniolo"
_chemical_name_systematic
;
N-(4-(N-(Fluoren-9-ylmethoxycarbonyl)-\a-methylvalyl-\a-methylvalyl)amino-2,2,
6,6-tetramethylpiperidine-1-oxy-4-carbonyl)-\a-methylvalyl-\a-methylvaline 
t-butyl amide
;
_chemical_name_common
;
PEPSEQ A=5 GLY*-GLY*-GLY*-GLY*-GLY*
;
_cell_volume   2740.469
_exptl_crystal_colour 'pale yellow'
_exptl_crystal_density_diffrn 1.146
_exptl_crystal_description 'prism'
_exptl_crystal_preparation 'methanol'
_diffrn_ambient_temperature 293
_refine_special_details
;
The t-butyl group of the amide moiety is equally disordered over two 
positions.
;
#These two values have been output from a single CSD field.
_refine_ls_R_factor_gt 0.0384
_refine_ls_wR_factor_gt 0.0384
_symmetry_cell_setting monoclinic
_symmetry_space_group_name_H-M 'P 21'
_symmetry_Int_Tables_number 4
loop_
_symmetry_equiv_pos_site_id
_symmetry_equiv_pos_as_xyz
1 x,y,z
2 -x,1/2+y,-z
_cell_length_a 11.702(2)
_cell_length_b 19.410(3)
_cell_length_c 12.731(2)
_cell_angle_alpha 90
_cell_angle_beta 108.61(4)
_cell_angle_gamma 90
_cell_formula_units_Z 2
loop_
_atom_type_symbol
_atom_type_radius_bond
C 0.68
H 0.23
N 0.68
O 0.68
loop_
_atom_site_label
_atom_site_type_symbol
_atom_site_fract_x
_atom_site_fract_y
_atom_site_fract_z
C1 C 0.5785(3) -0.1074(2) 0.1985(2)
C2 C 0.4834(3) -0.0642(2) 0.1467(3)
H1 H 0.4064(3) -0.0736(2) 0.1491(3)
C3 C 0.5042(4) -0.0067(2) 0.0910(3)
H2 H 0.4406(4) 0.0222(2) 0.0542(3)
C4 C 0.6186(4) 0.0076(2) 0.0905(3)
H3 H 0.6315(4) 0.0464(2) 0.0530(3)
C5 C 0.7155(3) -0.0341(2) 0.1442(3)
H4 H 0.7930(3) -0.0234(2) 0.1443(3)
C6 C 0.6934(3) -0.0924(2) 0.1978(2)
C7 C 0.7746(3) -0.1484(2) 0.2534(2)
C8 C 0.8972(3) -0.1559(2) 0.2751(3)
H5 H 0.9424(3) -0.1213(2) 0.2566(3)
C9 C 0.9501(4) -0.2148(3) 0.3239(4)
H6 H 1.0329(4) -0.2202(3) 0.3406(4)
C10 C 0.8827(4) -0.2675(2) 0.3497(3)
H7 H 0.9205(4) -0.3084(2) 0.3795(3)
C11 C 0.7617(3) -0.2599(2) 0.3319(3)
H8 H 0.7173(3) -0.2944(2) 0.3515(3)
C12 C 0.7072(3) -0.1988(2) 0.2835(2)
C13 C 0.5767(3) -0.1759(2) 0.2563(2)
H9 H 0.5235(3) -0.2085(2) 0.2044(2)
C14 C 0.5373(3) -0.1680(2) 0.3589(2)
H10 H 0.5975(3) -0.1426(2) 0.4160(2)
H11 H 0.4614(3) -0.1433(2) 0.3406(2)
O1 O 0.5239(2) -0.23723(11) 0.3974(2)
C15 C 0.4457(2) -0.2450(2) 0.4532(2)
O2 O 0.3891(2) -0.19838(12) 0.4758(2)
N1 N 0.4396(2) -0.31134(13) 0.4821(2)
H12 H 0.4987(2) -0.33860(13) 0.4858(2)
C16 C 0.3337(3) -0.3379(2) 0.5073(2)
C17 C 0.3539(3) -0.4166(2) 0.5333(3)
H13 H 0.3612(3) -0.4382(2) 0.4661(3)
C18 C 0.4681(4) -0.4336(2) 0.6256(3)
H14 H 0.5355(4) -0.4122(2) 0.6111(3)
H15 H 0.4794(4) -0.4826(2) 0.6299(3)
H16 H 0.4621(4) -0.4168(2) 0.6946(3)
C19 C 0.2468(5) -0.4501(2) 0.5553(5)
H17 H 0.1745(5) -0.4391(2) 0.4962(5)
H18 H 0.2405(5) -0.4333(2) 0.6242(5)
H19 H 0.2577(5) -0.4992(2) 0.5595(5)
C20 C 0.2218(3) -0.3269(2) 0.4060(3)
H20 H 0.2326(3) -0.3500(2) 0.3431(3)
H21 H 0.2105(3) -0.2785(2) 0.3907(3)
H22 H 0.1523(3) -0.3454(2) 0.4207(3)
C21 C 0.3181(2) -0.30114(14) 0.6097(2)
O3 O 0.2193(2) -0.29248(11) 0.6183(2)
N2 N 0.4204(2) -0.28229(12) 0.6867(2)
H23 H 0.4863(2) -0.28738(12) 0.6712(2)
C22 C 0.4295(3) -0.2534(2) 0.7962(2)
C23 C 0.5634(3) -0.2310(2) 0.8479(3)
H24 H 0.5827(3) -0.2022(2) 0.7926(3)
C24 C 0.6497(3) -0.2909(3) 0.8713(4)
H25 H 0.6349(3) -0.3183(3) 0.8055(4)
H26 H 0.6381(3) -0.3185(3) 0.9296(4)
H27 H 0.7310(3) -0.2739(3) 0.8936(4)
C25 C 0.5856(4) -0.1869(3) 0.9513(4)
H28 H 0.5302(4) -0.1489(3) 0.9355(4)
H29 H 0.6668(4) -0.1697(3) 0.9738(4)
H30 H 0.5738(4) -0.2142(3) 1.0099(4)
C26 C 0.3906(3) -0.3071(2) 0.8656(3)
H31 H 0.4412(3) -0.3471(2) 0.8745(3)
H32 H 0.3083(3) -0.3200(2) 0.8289(3)
H33 H 0.3979(3) -0.2881(2) 0.9371(3)
C27 C 0.3475(2) -0.18980(15) 0.7827(2)
O4 O 0.3087(2) -0.17222(10) 0.8574(2)
N3 N 0.3258(2) -0.15343(11) 0.6886(2)
H34 H 0.3522(2) -0.16893(11) 0.6375(2)
C28 C 0.2590(2) -0.08861(13) 0.6698(2)
C29 C 0.2288(3) -0.07078(14) 0.5450(2)
H35 H 0.2865(3) -0.09425(14) 0.5173(2)
H36 H 0.1498(3) -0.08959(14) 0.5060(2)
C30 C 0.2284(3) 0.00558(15) 0.5149(2)
C31 C 0.2229(3) 0.0095(2) 0.3925(3)
H37 H 0.2889(3) -0.0160(2) 0.3825(3)
H38 H 0.2281(3) 0.0567(2) 0.3722(3)
H39 H 0.1481(3) -0.0099(2) 0.3466(3)
C32 C 0.1234(3) 0.0461(2) 0.5291(3)
H40 H 0.1291(3) 0.0933(2) 0.5088(3)
H41 H 0.1258(3) 0.0438(2) 0.6051(3)
H42 H 0.0490(3) 0.0268(2) 0.4826(3)
N4 N 0.3437(2) 0.03707(13) 0.5842(2)
O5 O 0.3745(2) 0.09391(12) 0.5503(2)
C33 C 0.4177(3) 0.0083(2) 0.6920(3)
C34 C 0.5179(3) -0.0360(2) 0.6743(4)
H43 H 0.5667(3) -0.0083(2) 0.6429(4)
H44 H 0.4829(3) -0.0731(2) 0.6247(4)
H45 H 0.5670(3) -0.0544(2) 0.7441(4)
C35 C 0.4734(4) 0.0683(2) 0.7704(3)
H46 H 0.4103(4) 0.0961(2) 0.7814(3)
H47 H 0.5217(4) 0.0960(2) 0.7383(3)
H48 H 0.5230(4) 0.0504(2) 0.8404(3)
C36 C 0.3335(3) -0.0306(2) 0.7419(2)
H49 H 0.2784(3) 0.0022(2) 0.7572(2)
H50 H 0.3816(3) -0.0503(2) 0.8122(2)
C37 C 0.1391(2) -0.09768(14) 0.6954(2)
O6 O 0.0960(2) -0.04911(10) 0.7315(2)
N5 N 0.0819(2) -0.15807(11) 0.6689(2)
H51 H 0.1189(2) -0.19189(11) 0.6503(2)
C38 C -0.0419(2) -0.1686(2) 0.6705(2)
C39 C -0.0732(3) -0.2464(2) 0.6474(3)
H52 H -0.0592(3) -0.2572(2) 0.5772(3)
C40 C 0.0051(3) -0.2955(2) 0.7325(3)
H53 H 0.0885(3) -0.2855(2) 0.7436(3)
H54 H -0.0122(3) -0.3420(2) 0.7067(3)
H55 H -0.0112(3) -0.2901(2) 0.8013(3)
C41 C -0.2050(3) -0.2621(2) 0.6297(4)
H56 H -0.2546(3) -0.2309(2) 0.5757(4)
H57 H -0.2215(3) -0.2567(2) 0.6985(4)
H58 H -0.2224(3) -0.3086(2) 0.6038(4)
C42 C -0.1268(3) -0.1231(2) 0.5826(3)
H59 H -0.1198(3) -0.1341(2) 0.5114(3)
H60 H -0.1061(3) -0.0756(2) 0.5995(3)
H61 H -0.2083(3) -0.1309(2) 0.5814(3)
C43 C -0.0534(2) -0.1507(2) 0.7852(2)
O7 O -0.1494(2) -0.13293(15) 0.7926(2)
N6 N 0.0458(2) -0.15946(12) 0.8746(2)
H62 H 0.1122(2) -0.17122(12) 0.8642(2)
C44 C 0.0449(2) -0.1498(2) 0.9883(2)
C45 C 0.1755(3) -0.1636(2) 1.0648(2)
H63 H 0.2292(3) -0.1360(2) 1.0363(2)
C46 C 0.2132(4) -0.2381(3) 1.0630(4)
H64 H 0.2004(4) -0.2522(3) 0.9879(4)
H65 H 0.1660(4) -0.2665(3) 1.0952(4)
H66 H 0.2970(4) -0.2428(3) 1.1050(4)
C47 C 0.1951(3) -0.1402(3) 1.1838(3)
H67 H 0.1709(3) -0.0929(3) 1.1837(3)
H68 H 0.2789(3) -0.1445(3) 1.2260(3)
H69 H 0.1479(3) -0.1683(3) 1.2163(3)
C48 C -0.0443(3) -0.1985(2) 1.0137(3)
H70 H -0.0238(3) -0.2452(2) 1.0022(3)
H71 H -0.1241(3) -0.1885(2) 0.9656(3)
H72 H -0.0412(3) -0.1927(2) 1.0894(3)
C49 C 0.0119(3) -0.0752(2) 1.0068(3)
O8 O -0.0377(3) -0.06314(14) 1.0762(2)
N7 N 0.0456(3) -0.02599(14) 0.9495(2)
H73 H 0.0682(3) -0.03952(14) 0.8949(2)
C50 C 0.0483(6) 0.0472(3) 0.9688(5)
C51 C 0.105(1) 0.0840(4) 0.8919(7)
H74 H 0.1896(10) 0.0738(4) 0.9142(7)
H75 H 0.0937(10) 0.1328(4) 0.8959(7)
H76 H 0.0673(10) 0.0685(4) 0.8172(7)
C52 C -0.0857(9) 0.0641(6) 0.9323(12)
H77 H -0.1232(9) 0.0481(6) 0.8578(12)
H78 H -0.0962(9) 0.1130(6) 0.9351(12)
H79 H -0.1222(9) 0.0418(6) 0.9809(12)
C53 C 0.1109(10) 0.0719(5) 1.0867(7)
H80 H 0.1952(10) 0.0609(5) 1.1078(7)
H81 H 0.0758(10) 0.0496(5) 1.1363(7)
H82 H 0.1013(10) 0.1209(5) 1.0904(7)
C54? C -0.0074(6) 0.0461(3) 0.9394(5)
C55? C 0.0425(9) 0.0839(5) 0.8589(8)
H83? H 0.0123(9) 0.0630(5) 0.7871(8)
H84? H 0.1290(9) 0.0814(5) 0.8848(8)
H85? H 0.0179(9) 0.1313(5) 0.8541(8)
C56? C -0.1455(7) 0.0490(6) 0.8908(9)
H86? H -0.1805(7) 0.0254(6) 0.9394(9)
H87? H -0.1710(7) 0.0273(6) 0.8194(9)
H88? H -0.1714(7) 0.0962(6) 0.8834(9)
C57? C 0.0359(11) 0.0755(5) 1.0570(7)
H89? H 0.0014(11) 0.0495(5) 1.1035(7)
H90? H 0.0113(11) 0.1228(5) 1.0554(7)
H91? H 0.1223(11) 0.0728(5) 1.0858(7)
#END
