
#######################################################################
#
#                 Cambridge Crystallographic Data Centre
#                                CCDC
#
#######################################################################
#
# If this CIF has been generated from an entry in the Cambridge
# Structural Database, then it will include bibliographic, chemical,
# crystal, experimental, refinement or atomic coordinate data resulting
# from the CCDC's data processing and validation procedures.
#
#######################################################################

data_CSD_CIF_OFAHAH
_audit_creation_date 2018-08-28
_audit_creation_method CSD-ConQuest-V1
_database_code_CSD OFAHAH
_database_code_depnum_ccdc_archive 'CCDC 1588846'
_chemical_formula_sum 'C10 H12 N4 O6'
_chemical_formula_moiety
;
C10 H12 N4 O6
;
_journal_coden_Cambridge 24
_journal_volume 59
_journal_year 2018
_journal_page_first 2880
_journal_name_full 'Tetrahedron Lett. '
loop_
_publ_author_name
"Jian Zhang"
"Tianjiao Hou"
"Yifei Ling"
"Lin Zhang"
"Jun Luo"
_chemical_name_systematic
;
3,7a-dinitro-1,2-dioxo-3a,4,5,6,7,7a-hexahydro-3H-5,3,7-propane[1,2,3]triylind
azole
;
_cell_volume   2308.017
_exptl_crystal_density_diffrn 1.636
_diffrn_ambient_temperature 296
#These two values have been output from a single CSD field.
_refine_ls_R_factor_gt 0.1448
_refine_ls_wR_factor_gt 0.1448
_symmetry_cell_setting orthorhombic
_symmetry_space_group_name_H-M 'P c a 21'
_symmetry_Int_Tables_number 29
loop_
_symmetry_equiv_pos_site_id
_symmetry_equiv_pos_as_xyz
1 x,y,z
2 -x,-y,1/2+z
3 1/2+x,-y,z
4 1/2-x,y,1/2+z
_cell_length_a 16.593(3)
_cell_length_b 8.1562(17)
_cell_length_c 17.054(3)
_cell_angle_alpha 90
_cell_angle_beta 90
_cell_angle_gamma 90
_cell_formula_units_Z 8
loop_
_atom_type_symbol
_atom_type_radius_bond
C 0.68
H 0.23
N 0.68
O 0.68
loop_
_atom_site_label
_atom_site_type_symbol
_atom_site_fract_x
_atom_site_fract_y
_atom_site_fract_z
C1 C 0.4699(11) 1.180(2) 0.399(1)
H1 H 0.44530 1.27880 0.37680
C2 C 0.5606(10) 1.205(2) 0.4134(9)
H2 H 0.58650 1.23380 0.36430
H3 H 0.56810 1.29540 0.44960
C3 C 0.6006(10) 1.0536(18) 0.4466(9)
H4 H 0.65750 1.07710 0.45680
C4 C 0.5579(12) 1.003(3) 0.5257(11)
H5 H 0.58250 0.90480 0.54700
H6 H 0.56290 1.09030 0.56400
C5 C 0.4690(11) 0.972(2) 0.5065(11)
H7 H 0.44090 0.93730 0.55420
C6 C 0.5945(9) 0.919(2) 0.3898(9)
H8 H 0.61990 0.82140 0.41120
H9 H 0.62240 0.94830 0.34190
C7 C 0.4324(11) 1.137(2) 0.4773(11)
H10 H 0.37440 1.12610 0.47170
H11 H 0.44320 1.22280 0.51510
C8 C 0.5058(8) 0.8825(16) 0.3717(7)
H12 H 0.50120 0.79260 0.33380
C9 C 0.4572(10) 1.0305(19) 0.3448(9)
C10 C 0.4565(9) 0.8467(18) 0.4444(9)
N1 N 0.4624(10) 0.6647(19) 0.4679(9)
N2 N 0.4698(10) 1.0661(19) 0.2610(9)
N3 N 0.3730(8) 0.8599(16) 0.4132(7)
N4 N 0.3728(8) 0.9658(15) 0.3543(7)
O1 O 0.4975(9) 1.1992(17) 0.2419(8)
O2 O 0.4522(10) 0.9520(18) 0.2129(7)
O3 O 0.4847(9) 0.6400(19) 0.5367(7)
O4 O 0.4497(11) 0.5651(18) 0.4207(12)
O5 O 0.3092(7) 0.8029(14) 0.4432(7)
O6 O 0.3122(9) 1.0325(15) 0.3244(7)
C11 C 0.2312(9) 0.7119(19) 0.6895(9)
H13 H 0.22170 0.82860 0.69970
C12 C 0.2528(13) 0.623(2) 0.7676(10)
H14 H 0.30220 0.66930 0.78860
H15 H 0.21030 0.64200 0.80560
C13 C 0.2637(11) 0.441(2) 0.7562(11)
H16 H 0.27570 0.38420 0.80560
C14 C 0.1828(13) 0.375(3) 0.7165(12)
H17 H 0.18690 0.25700 0.70880
H18 H 0.13760 0.39510 0.75130
C15 C 0.1676(13) 0.456(2) 0.6392(12)
H19 H 0.11960 0.40980 0.61390
C16 C 0.1582(14) 0.638(3) 0.6512(14)
H20 H 0.14940 0.69070 0.60080
H21 H 0.11130 0.65880 0.68360
C17 C 0.3043(10) 0.6921(18) 0.6345(9)
H22 H 0.29500 0.75110 0.58590
H23 H 0.35220 0.73690 0.65910
C18 C 0.3281(10) 0.4105(19) 0.6943(9)
C19 C 0.3166(10) 0.5078(19) 0.6173(8)
H24 H 0.36220 0.49060 0.58160
C20 C 0.2445(10) 0.4197(19) 0.5897(9)
N5 N 0.4151(14) 0.419(3) 0.7237(13)
N6 N 0.2295(10) 0.4342(18) 0.4994(9)
N7 N 0.2712(8) 0.2459(15) 0.5994(7)
N8 N 0.3214(9) 0.2379(16) 0.6595(8)
O7 O 0.4652(13) 0.392(3) 0.6747(14)
O8 O 0.4171(12) 0.4485(19) 0.7940(12)
O9 O 0.2919(11) 0.4115(17) 0.4596(7)
O10 O 0.1664(12) 0.478(2) 0.4769(11)
O11 O 0.2420(8) 0.1229(16) 0.5658(7)
O12 O 0.3451(7) 0.1081(15) 0.6907(7)
#END
