
#######################################################################
#
#                 Cambridge Crystallographic Data Centre
#                                CCDC
#
#######################################################################
#
# If this CIF has been generated from an entry in the Cambridge
# Structural Database, then it will include bibliographic, chemical,
# crystal, experimental, refinement or atomic coordinate data resulting
# from the CCDC's data processing and validation procedures.
#
#######################################################################

data_CSD_CIF_OFANAN
_audit_creation_date 2018-08-28
_audit_creation_method CSD-ConQuest-V1
_database_code_CSD OFANAN
_database_code_depnum_ccdc_archive 'CCDC 1813312'
_chemical_formula_sum 'C29 H40 N4 O4'
_chemical_formula_moiety
;
C29 H40 N4 O4
;
_journal_coden_Cambridge 1441
_journal_year 2018
_journal_name_full 'Nature Chemistry '
loop_
_publ_author_name
"J.Bruffaerts"
"D.Pierrot"
"I.Marek"
_chemical_name_systematic
;
1-[3-butyl-2,3-dimethyl-6-(4-methylphenyl)dec-4-en-1-ylidene]-2-(2,4-dinitroph
enyl)hydrazine
;
_cell_volume   2970.300
_exptl_crystal_colour 'yellow'
_exptl_crystal_density_diffrn 1.137
_exptl_crystal_description 'needle'
_diffrn_ambient_temperature 296.1
#These two values have been output from a single CSD field.
_refine_ls_R_factor_gt 0.0736
_refine_ls_wR_factor_gt 0.0736
_symmetry_cell_setting monoclinic
_symmetry_space_group_name_H-M 'P 21/c'
_symmetry_Int_Tables_number 14
loop_
_symmetry_equiv_pos_site_id
_symmetry_equiv_pos_as_xyz
1 x,y,z
2 -x,1/2+y,1/2-z
3 -x,-y,-z
4 x,-1/2-y,-1/2+z
_cell_length_a 7.036(2)
_cell_length_b 23.049(7)
_cell_length_c 18.453(6)
_cell_angle_alpha 90
_cell_angle_beta 96.995(4)
_cell_angle_gamma 90
_cell_formula_units_Z 4
loop_
_atom_type_symbol
_atom_type_radius_bond
C 0.68
H 0.23
N 0.68
O 0.68
loop_
_atom_site_label
_atom_site_type_symbol
_atom_site_fract_x
_atom_site_fract_y
_atom_site_fract_z
O1 O 0.2968(5) 0.60638(17) 0.9072(2)
O2 O 0.2970(6) 0.67283(17) 0.8254(2)
O3 O 0.1557(4) 0.62879(12) 0.57693(16)
O4 O 0.1224(4) 0.54147(12) 0.53695(15)
N1 N 0.2795(5) 0.6223(2) 0.8434(3)
N2 N 0.1500(4) 0.57633(14) 0.58786(19)
N3 N 0.1305(4) 0.45413(12) 0.62728(16)
H1 H 0.11980 0.46280 0.58160
N4 N 0.1123(5) 0.39734(13) 0.64887(17)
C1 C 0.2392(5) 0.57906(17) 0.7863(2)
C2 C 0.2128(5) 0.59619(16) 0.7159(2)
H2 H 0.21960 0.63530 0.70420
C3 C 0.1755(4) 0.55530(14) 0.66127(19)
C4 C 0.1647(5) 0.49544(15) 0.67766(19)
C5 C 0.1929(5) 0.48057(17) 0.7527(2)
H3 H 0.18640 0.44180 0.76600
C6 C 0.2293(5) 0.52136(18) 0.8057(2)
H4 H 0.24720 0.51050 0.85460
C7 C 0.0731(6) 0.36101(16) 0.5984(2)
H5 H 0.06320 0.37360 0.55020
C8 C 0.0420(7) 0.29840(16) 0.6133(2)
H6 H -0.08370 0.29040 0.58610
C9 C 0.0116(9) 0.28721(18) 0.6906(2)
H7 H 0.11850 0.30200 0.72250
H8 H 0.00010 0.24620 0.69810
H9 H -0.10350 0.30620 0.70090
C10 C 0.1754(6) 0.25948(15) 0.57693(19)
C11 C 0.3840(8) 0.2708(2) 0.6210(3)
H10 H 0.41390 0.31140 0.61950
H11 H 0.47800 0.24900 0.59890
H12 H 0.38440 0.25880 0.67080
C12 C 0.1321(7) 0.19596(16) 0.5854(2)
H13 H 0.16620 0.18610 0.63650
H14 H -0.00540 0.19120 0.57490
C13 C 0.2233(7) 0.15208(17) 0.5415(3)
H15 H 0.18570 0.16050 0.49020
H16 H 0.36100 0.15700 0.55080
C14 C 0.1785(9) 0.09022(18) 0.5545(3)
H17 H 0.22250 0.08130 0.60510
H18 H 0.04040 0.08580 0.54780
C15 C 0.2594(11) 0.0470(3) 0.5088(5)
H19 H 0.18840 0.04700 0.46100
H20 H 0.25180 0.00930 0.53040
H21 H 0.39080 0.05630 0.50520
C16 C 0.1881(7) 0.27561(15) 0.5004(2)
H22 H 0.07240 0.26940 0.47130
C17 C 0.3120(6) 0.29544(16) 0.4636(2)
H23 H 0.42680 0.30390 0.49210
C18 C 0.3179(7) 0.30822(17) 0.3868(2)
H24 H 0.19560 0.29440 0.36170
C19 C 0.4711(7) 0.27403(19) 0.3539(2)
H25 H 0.45120 0.27940 0.30130
H26 H 0.59460 0.29080 0.37140
C20 C 0.4809(11) 0.2098(2) 0.3692(3)
H27 H 0.36590 0.19170 0.34490
H28 H 0.48170 0.20380 0.42130
C21 C 0.6530(16) 0.1795(3) 0.3450(5)
H29 H 0.63090 0.17440 0.29250
H30 H 0.76320 0.20480 0.35550
C22 C 0.6984(18) 0.1256(6) 0.3770(6)
H31 H 0.80150 0.10840 0.35490
H32 H 0.58820 0.10070 0.36970
H33 H 0.73660 0.13050 0.42840
C23 C 0.3256(5) 0.37238(17) 0.3688(2)
C24 C 0.3582(6) 0.41478(17) 0.4217(2)
H34 H 0.37780 0.40410 0.47060
C25 C 0.3624(6) 0.47313(18) 0.4032(2)
H35 H 0.38590 0.50050 0.44020
C26 C 0.3336(5) 0.49135(19) 0.3332(3)
C27 C 0.2993(5) 0.4491(2) 0.2806(2)
H36 H 0.27750 0.46020 0.23180
C28 C 0.2960(6) 0.3913(2) 0.2976(2)
H37 H 0.27330 0.36420 0.26010
C29 C 0.3393(7) 0.55434(19) 0.3131(3)
H38 H 0.21420 0.56660 0.29200
H39 H 0.42880 0.55990 0.27840
H40 H 0.37840 0.57690 0.35610
#END
