
#######################################################################
#
#                 Cambridge Crystallographic Data Centre
#                                CCDC
#
#######################################################################
#
# If this CIF has been generated from an entry in the Cambridge
# Structural Database, then it will include bibliographic, chemical,
# crystal, experimental, refinement or atomic coordinate data resulting
# from the CCDC's data processing and validation procedures.
#
#######################################################################

data_CSD_CIF_OFAPET
_audit_creation_date 2018-08-28
_audit_creation_method CSD-ConQuest-V1
_database_code_CSD OFAPET
_database_code_depnum_ccdc_archive 'CCDC 893463'
_chemical_formula_sum 'C19 H32 N2 O4'
_chemical_formula_moiety
;
C19 H32 N2 O4
;
_journal_coden_Cambridge 15
_journal_volume 93
_journal_year 2015
_journal_page_first 920
_journal_name_full 'Can.J.Chem. '
loop_
_publ_author_name
"C.Ysacco"
"M.Giorgi"
"P.Tordo"
"D.Bardelang"
"O.Ouari"
_chemical_name_systematic
;
3,3,14,14-tetramethyl-1,12-dioxa-4,15-diazatrispiro[4.2.2.4^11^.2^8^.2^5^]nona
decane-4,15-diolate diradical
;
_cell_volume   1940.739
_exptl_crystal_colour 'colorless'
_exptl_crystal_density_diffrn 1.206
_exptl_crystal_description 'prism'
_diffrn_ambient_temperature 293
#These two values have been output from a single CSD field.
_refine_ls_R_factor_gt 0.0892
_refine_ls_wR_factor_gt 0.0892
_symmetry_cell_setting orthorhombic
_symmetry_space_group_name_H-M 'P n a 21'
_symmetry_Int_Tables_number 33
loop_
_symmetry_equiv_pos_site_id
_symmetry_equiv_pos_as_xyz
1 x,y,z
2 -x,-y,1/2+z
3 1/2-x,1/2+y,1/2+z
4 1/2+x,1/2-y,z
_cell_length_a 28.4705(9)
_cell_length_b 6.4273(2)
_cell_length_c 10.6058(3)
_cell_angle_alpha 90
_cell_angle_beta 90
_cell_angle_gamma 90
_cell_formula_units_Z 4
loop_
_atom_type_symbol
_atom_type_radius_bond
C 0.68
H 0.23
N 0.68
O 0.68
loop_
_atom_site_label
_atom_site_type_symbol
_atom_site_fract_x
_atom_site_fract_y
_atom_site_fract_z
C1 C -0.25438(19) 0.7867(9) 0.0651(6)
C2 C -0.2563(2) 0.6821(11) 0.1924(7)
H1 H -0.25160 0.78260 0.25940
H2 H -0.28630 0.61380 0.20480
C3 C -0.18002(18) 0.6236(9) 0.1252(6)
C4 C -0.14749(19) 0.7415(9) 0.2140(6)
H3 H -0.16580 0.83900 0.26360
H4 H -0.12490 0.82050 0.16500
C5 C -0.1213(2) 0.5938(8) 0.3023(6)
H5 H -0.14390 0.52720 0.35760
H6 H -0.10010 0.67430 0.35450
C6 C -0.09324(17) 0.4257(8) 0.2339(5)
C7 C -0.12654(19) 0.3133(8) 0.1421(5)
H7 H -0.10820 0.21770 0.09130
H8 H -0.14870 0.23150 0.19080
C8 C -0.15403(19) 0.4563(9) 0.0544(6)
H9 H -0.13250 0.52080 -0.00480
H10 H -0.17630 0.37420 0.00650
C9 C -0.05046(19) 0.5265(9) 0.1681(6)
H11 H -0.06160 0.61440 0.10000
H12 H -0.03430 0.61490 0.22810
C10 C -0.01566(18) 0.3695(9) 0.1149(6)
H13 H -0.03040 0.29390 0.04630
H14 H 0.01130 0.44300 0.08090
C11 C 0.00082(18) 0.2164(8) 0.2138(5)
C12 C -0.04031(19) 0.1126(8) 0.2775(5)
H15 H -0.02900 0.02320 0.34460
H16 H -0.05680 0.02650 0.21680
C13 C -0.07383(18) 0.2718(8) 0.3316(5)
H17 H -0.05770 0.34950 0.39700
H18 H -0.09990 0.19950 0.37070
C14 C 0.0640(2) 0.1699(10) 0.3457(6)
H19 H 0.04980 0.07900 0.40800
H20 H 0.09100 0.23780 0.38310
C15 C 0.07819(18) 0.0479(9) 0.2290(6)
C16 C -0.2694(3) 1.0140(11) 0.0677(9)
H21 H -0.24830 1.09150 0.12040
H22 H -0.30070 1.02430 0.10050
H23 H -0.26860 1.06950 -0.01630
C17 C -0.2814(3) 0.6640(12) -0.0355(8)
H24 H -0.27230 0.71190 -0.11770
H25 H -0.31450 0.68470 -0.02410
H26 H -0.27420 0.51870 -0.02770
C18 C 0.1156(2) 0.1559(12) 0.1517(7)
H27 H 0.11930 0.08490 0.07260
H28 H 0.14480 0.15400 0.19680
H29 H 0.10630 0.29730 0.13640
C19 C 0.0913(3) -0.1738(11) 0.2566(8)
H30 H 0.06600 -0.24110 0.30020
H31 H 0.11900 -0.17660 0.30830
H32 H 0.09740 -0.24550 0.17890
N1 N -0.20385(16) 0.7711(8) 0.0401(5)
N2 N 0.03267(16) 0.0581(7) 0.1621(4)
O1 O -0.18279(16) 0.8696(8) -0.0454(5)
O2 O -0.21837(13) 0.5310(6) 0.1901(4)
O3 O 0.03062(13) 0.3211(6) 0.3014(4)
O4 O 0.02040(16) -0.0637(8) 0.0746(5)
#END
