
#######################################################################
#
#                 Cambridge Crystallographic Data Centre
#                                CCDC
#
#######################################################################
#
# If this CIF has been generated from an entry in the Cambridge
# Structural Database, then it will include bibliographic, chemical,
# crystal, experimental, refinement or atomic coordinate data resulting
# from the CCDC's data processing and validation procedures.
#
#######################################################################

data_CSD_CIF_OFEBEG
_audit_creation_date 2002-05-30
_audit_creation_method CSD-ConQuest-V1
_database_code_CSD OFEBEG
_database_code_depnum_ccdc_archive 'CCDC 149908'
_chemical_formula_sum 'C18 H19 N3 O7'
_chemical_formula_moiety
;
C18 H19 N3 O7
;
_journal_coden_Cambridge 119
_journal_volume 562
_journal_year 2001
_journal_page_first 129
_journal_name_full 'J.Mol.Struct. '
loop_
_publ_author_name
"J.Leppanen"
"E.Wegelius"
"T.Nevalainen"
"T.Jarvinen"
"J.Gynther"
"J.Huuskonen"
_chemical_name_systematic
;
Entacapone diacetate
;
_chemical_name_common
;
5-((E)-2-cyano-2-diethylcarbamoyl-vinyl)-3-nitrophenyl bis(acetic acid) ester
;
_cell_volume   1917.616
_exptl_crystal_colour 'yellow'
_exptl_crystal_density_diffrn 1.349
_exptl_crystal_description 'block'
_exptl_crystal_preparation 'ethyl acetate/petroleum ether'
_diffrn_ambient_temperature 293
#These two values have been output from a single CSD field.
_refine_ls_R_factor_gt 0.0445
_refine_ls_wR_factor_gt 0.0445
_symmetry_cell_setting monoclinic
_symmetry_space_group_name_H-M 'P 21/c'
_symmetry_Int_Tables_number 14
loop_
_symmetry_equiv_pos_site_id
_symmetry_equiv_pos_as_xyz
1 x,y,z
2 -x,1/2+y,1/2-z
3 -x,-y,-z
4 x,-1/2-y,-1/2+z
_cell_length_a 7.4059(16)
_cell_length_b 18.050(3)
_cell_length_c 14.7245(13)
_cell_angle_alpha 90
_cell_angle_beta 103.033(12)
_cell_angle_gamma 90
_cell_formula_units_Z 4
loop_
_atom_type_symbol
_atom_type_radius_bond
C 0.68
H 0.23
N 0.68
O 0.68
loop_
_atom_site_label
_atom_site_type_symbol
_atom_site_fract_x
_atom_site_fract_y
_atom_site_fract_z
O1 O -0.0336(3) 0.39992(10) 1.05478(13)
O2 O 0.3869(3) 0.59737(9) 0.74276(12)
O3 O 0.2868(4) 0.52693(14) 0.61917(16)
O4 O 0.6942(2) 0.52689(9) 0.72613(11)
O5 O 0.6607(3) 0.42625(11) 0.63485(14)
O6 O 0.8166(3) 0.32519(12) 0.85471(17)
O7 O 0.9397(2) 0.42307(13) 0.81285(15)
N1 N 0.1176(3) 0.30228(11) 1.13205(13)
N2 N 0.3124(4) 0.23949(13) 0.92644(19)
N3 N 0.8125(3) 0.39056(14) 0.83449(14)
C1 C 0.3839(3) 0.44640(12) 0.90876(15)
C2 C 0.3364(3) 0.51064(12) 0.85691(16)
H1 H 0.23490 0.53840 0.86430
C3 C 0.4380(3) 0.53333(12) 0.79506(16)
C4 C 0.5962(3) 0.49557(13) 0.78522(15)
C5 C 0.6441(3) 0.43241(13) 0.83836(16)
C6 C 0.5388(3) 0.40707(13) 0.89867(15)
H2 H 0.57200 0.36370 0.93240
C7 C 0.2678(3) 0.42596(12) 0.97397(15)
H3 H 0.21590 0.46550 0.99960
C8 C 0.2262(3) 0.35922(12) 1.00158(15)
C9 C 0.0933(3) 0.35471(12) 1.06630(16)
C10 C 0.2835(4) 0.25674(18) 1.1623(2)
H4 H 0.33670 0.26670 1.22760
H5 H 0.37410 0.27100 1.12720
C11 C 0.2469(6) 0.1753(2) 1.1499(3)
H6 H 0.36070 0.14850 1.17090
H7 H 0.19710 0.16470 1.08520
H8 H 0.15960 0.16040 1.18570
C12 C -0.0201(3) 0.29890(15) 1.19042(17)
H9 H -0.04480 0.34870 1.20910
H10 H 0.03150 0.27090 1.24650
C13 C -0.1986(4) 0.26384(18) 1.1414(2)
H11 H -0.28300 0.26300 1.18220
H12 H -0.17550 0.21410 1.12390
H13 H -0.25180 0.29190 1.08650
C14 C 0.2786(3) 0.29284(14) 0.96125(18)
C15 C 0.3113(4) 0.58670(16) 0.6503(2)
C16 C 0.2704(5) 0.65751(18) 0.6004(2)
H14 H 0.30450 0.69780 0.64340
H15 H 0.14030 0.66030 0.57240
H16 H 0.33970 0.66070 0.55270
C17 C 0.7152(4) 0.48777(16) 0.64908(18)
C18 C 0.8129(6) 0.5345(2) 0.5929(2)
H17 H 0.83940 0.58200 0.62230
H18 H 0.73590 0.54090 0.53160
H19 H 0.92670 0.51090 0.58840
#END
