
#######################################################################
#
#                 Cambridge Crystallographic Data Centre
#                                CCDC
#
#######################################################################
#
# If this CIF has been generated from an entry in the Cambridge
# Structural Database, then it will include bibliographic, chemical,
# crystal, experimental, refinement or atomic coordinate data resulting
# from the CCDC's data processing and validation procedures.
#
#######################################################################

data_CSD_CIF_OFEBAC
_audit_creation_date 2002-05-30
_audit_creation_method CSD-ConQuest-V1
_database_code_CSD OFEBAC
_database_code_depnum_ccdc_archive 'CCDC 149907'
_chemical_formula_sum 'C19 H23 N3 O6'
_chemical_formula_moiety
;
C19 H23 N3 O6
;
_journal_coden_Cambridge 119
_journal_volume 562
_journal_year 2001
_journal_page_first 129
_journal_name_full 'J.Mol.Struct. '
loop_
_publ_author_name
"J.Leppanen"
"E.Wegelius"
"T.Nevalainen"
"T.Jarvinen"
"J.Gynther"
"J.Huuskonen"
_chemical_name_systematic
;
Entacapone monopivaloate
;
_chemical_name_common
;
5-((E)-2-Cyano-2-diethylcarbamoyl-vinyl)-2-hydroxy-3-nitrophenyl 
2,2-dimethylpropionic acid ester
;
_cell_volume    960.681
_exptl_crystal_colour 'yellow'
_exptl_crystal_density_diffrn 1.346
_exptl_crystal_description 'block'
_exptl_crystal_preparation 'ethyl acetate/petroleum ether'
_diffrn_ambient_temperature 173
#These two values have been output from a single CSD field.
_refine_ls_R_factor_gt 0.0342
_refine_ls_wR_factor_gt 0.0342
_symmetry_cell_setting triclinic
_symmetry_space_group_name_H-M 'P -1'
_symmetry_Int_Tables_number 2
loop_
_symmetry_equiv_pos_site_id
_symmetry_equiv_pos_as_xyz
1 x,y,z
2 -x,-y,-z
_cell_length_a 7.792(3)
_cell_length_b 9.2656(14)
_cell_length_c 14.1102(17)
_cell_angle_alpha 108.223(11)
_cell_angle_beta 92.453(19)
_cell_angle_gamma 95.32(2)
_cell_formula_units_Z 2
loop_
_atom_type_symbol
_atom_type_radius_bond
C 0.68
H 0.23
N 0.68
O 0.68
loop_
_atom_site_label
_atom_site_type_symbol
_atom_site_fract_x
_atom_site_fract_y
_atom_site_fract_z
O1 O -0.45959(15) 0.57793(14) -0.10794(9)
O2 O -0.04928(15) 0.14953(14) 0.19014(8)
O3 O 0.13942(19) 0.34783(15) 0.28114(10)
O4 O 0.24522(16) 0.08836(14) 0.10685(9)
H1 H 0.33150 0.06810 0.07340
O5 O 0.35444(16) 0.21518(16) -0.14245(9)
O6 O 0.42472(17) 0.09010(16) -0.04345(10)
N1 N -0.49979(18) 0.40896(17) -0.26441(10)
N2 N -0.0423(2) 0.3226(2) -0.28619(12)
N3 N 0.32581(18) 0.16709(17) -0.07316(11)
C1 C -0.1061(2) 0.30019(19) -0.02181(12)
C2 C -0.1362(2) 0.2610(2) 0.06532(12)
H2 H -0.24120 0.28140 0.09620
C3 C -0.0162(2) 0.19386(19) 0.10629(12)
C4 C 0.1394(2) 0.15788(19) 0.06261(12)
C5 C 0.1676(2) 0.19847(19) -0.02295(12)
C6 C 0.0494(2) 0.26964(19) -0.06407(12)
H3 H 0.07530 0.29770 -0.12160
C7 C -0.2414(2) 0.37016(19) -0.06162(13)
H4 H -0.32940 0.40380 -0.01790
C8 C -0.2597(2) 0.39378(19) -0.15053(12)
C9 C -0.4158(2) 0.4677(2) -0.17322(12)
C10 C -0.4846(2) 0.2580(2) -0.33512(13)
H5 H -0.59890 0.19630 -0.34800
H6 H -0.40370 0.20580 -0.30470
C11 C -0.4209(3) 0.2651(3) -0.43369(15)
H7 H -0.50160 0.31500 -0.46490
H8 H -0.41350 0.16120 -0.47830
H9 H -0.30630 0.32370 -0.42170
C12 C -0.6452(2) 0.4868(2) -0.28627(14)
H10 H -0.71750 0.51050 -0.22850
H11 H -0.71770 0.41700 -0.34490
C13 C -0.5867(3) 0.6329(3) -0.30743(19)
H12 H -0.51860 0.70410 -0.24860
H13 H -0.68800 0.67940 -0.32260
H14 H -0.51560 0.61010 -0.36480
C14 C -0.1376(2) 0.3550(2) -0.22514(13)
C15 C 0.0516(2) 0.2332(2) 0.27631(13)
C16 C 0.0433(2) 0.1588(2) 0.35775(13)
C17 C 0.2017(3) 0.0681(3) 0.34707(17)
H15 H 0.19350 -0.00850 0.28050
H16 H 0.20480 0.01700 0.39820
H17 H 0.30750 0.13840 0.35570
C18 C -0.1208(3) 0.0495(2) 0.34726(15)
H18 H -0.22220 0.10510 0.34880
H19 H -0.11960 0.00680 0.40270
H20 H -0.12590 -0.03370 0.28360
C19 C 0.0593(3) 0.2847(3) 0.45857(14)
H21 H 0.16500 0.35380 0.46390
H22 H 0.06460 0.23900 0.51240
H23 H -0.04120 0.34230 0.46430
#END
