
#######################################################################
#
#                 Cambridge Crystallographic Data Centre
#                                CCDC
#
#######################################################################
#
# If this CIF has been generated from an entry in the Cambridge
# Structural Database, then it will include bibliographic, chemical,
# crystal, experimental, refinement or atomic coordinate data resulting
# from the CCDC's data processing and validation procedures.
#
#######################################################################

data_CSD_CIF_OFEBIK
_audit_creation_date 2002-05-30
_audit_creation_method CSD-ConQuest-V1
_database_code_CSD OFEBIK
_database_code_depnum_ccdc_archive 'CCDC 149909'
_chemical_formula_sum 'C28 H23 N3 O7'
_chemical_formula_moiety
;
C28 H23 N3 O7
;
_journal_coden_Cambridge 119
_journal_volume 562
_journal_year 2001
_journal_page_first 129
_journal_name_full 'J.Mol.Struct. '
loop_
_publ_author_name
"J.Leppanen"
"E.Wegelius"
"T.Nevalainen"
"T.Jarvinen"
"J.Gynther"
"J.Huuskonen"
_chemical_name_systematic
;
Entacapone dibenzoate
;
_chemical_name_common
;
5-((Z)-2-Cyano-2-diethylcarbamoyl-vinyl)-3-nitrophenyl bis(benzoic acid) ester
;
_cell_volume   2543.320
_exptl_crystal_colour 'colorless'
_exptl_crystal_density_diffrn 1.341
_exptl_crystal_description 'block'
_exptl_crystal_preparation 'dichloromethane/diisopropyl ether'
_diffrn_ambient_temperature 173
#These two values have been output from a single CSD field.
_refine_ls_R_factor_gt 0.0697
_refine_ls_wR_factor_gt 0.0697
_symmetry_cell_setting triclinic
_symmetry_space_group_name_H-M 'P -1'
_symmetry_Int_Tables_number 2
loop_
_symmetry_equiv_pos_site_id
_symmetry_equiv_pos_as_xyz
1 x,y,z
2 -x,-y,-z
_cell_length_a 8.8839(2)
_cell_length_b 14.1085(6)
_cell_length_c 20.5846(9)
_cell_angle_alpha 82.117(2)
_cell_angle_beta 84.376(2)
_cell_angle_gamma 88.912(2)
_cell_formula_units_Z 4
loop_
_atom_type_symbol
_atom_type_radius_bond
C 0.68
H 0.23
N 0.68
O 0.68
loop_
_atom_site_label
_atom_site_type_symbol
_atom_site_fract_x
_atom_site_fract_y
_atom_site_fract_z
N1 N 0.3235(2) 0.80892(15) 0.19312(10)
N2 N 0.5679(3) 0.64956(18) 0.07114(13)
N3 N 0.1258(2) 1.12381(17) -0.09750(11)
O1 O 0.54731(19) 0.88620(13) 0.16416(9)
O2 O 0.22071(19) 1.15882(13) 0.12755(9)
O3 O 0.4346(2) 1.24026(17) 0.09345(11)
O4 O 0.11792(17) 1.23743(12) 0.00927(9)
O5 O -0.1038(2) 1.17622(15) 0.05537(13)
O6 O 0.0761(2) 1.06366(15) -0.12682(11)
O7 O 0.1255(2) 1.20975(14) -0.11731(10)
C1 C 0.3218(2) 0.96522(17) 0.02808(12)
C2 C 0.3130(3) 1.02115(18) 0.07951(13)
H1 H 0.35690 0.99840 0.11900
C3 C 0.2410(3) 1.10901(18) 0.07329(13)
C4 C 0.1805(2) 1.14637(17) 0.01564(13)
C5 C 0.1901(2) 1.09066(18) -0.03507(13)
C6 C 0.2583(2) 1.00185(18) -0.02959(13)
H2 H 0.26210 0.96530 -0.06520
C7 C 0.3954(2) 0.87077(18) 0.02964(13)
H3 H 0.41010 0.84640 -0.01130
C8 C 0.4442(2) 0.81457(18) 0.08130(13)
C9 C 0.4413(3) 0.83973(18) 0.15043(13)
C10 C 0.3155(3) 0.8347(2) 0.26004(14)
H4 H 0.41920 0.84340 0.27190
H5 H 0.26790 0.78180 0.29150
C11 C 0.2248(4) 0.9261(2) 0.26571(17)
H6 H 0.27330 0.97900 0.23550
H7 H 0.22070 0.94090 0.31100
H8 H 0.12190 0.91760 0.25430
C12 C 0.1946(3) 0.7560(2) 0.17681(14)
H9 H 0.19180 0.76510 0.12840
H10 H 0.09970 0.78280 0.19650
C13 C 0.2020(3) 0.6502(2) 0.20124(17)
H11 H 0.29010 0.62190 0.17840
H12 H 0.10970 0.61930 0.19240
H13 H 0.21100 0.64080 0.24880
C14 C 0.5122(3) 0.7235(2) 0.07334(13)
C15 C 0.3280(3) 1.22449(19) 0.13384(14)
C16 C 0.2920(3) 1.2719(2) 0.19316(15)
C17 C 0.3744(4) 1.3506(2) 0.20041(17)
H14 H 0.45350 1.37300 0.16780
C18 C 0.3421(4) 1.3975(3) 0.2552(2)
H15 H 0.39790 1.45240 0.26000
C19 C 0.2289(5) 1.3638(3) 0.3024(2)
H16 H 0.20560 1.39650 0.33950
C20 C 0.1494(5) 1.2842(3) 0.2968(2)
H17 H 0.07380 1.26040 0.33060
C21 C 0.1787(4) 1.2379(3) 0.24163(17)
H18 H 0.12170 1.18330 0.23700
C22 C -0.0358(3) 1.2429(2) 0.02576(14)
C23 C -0.0974(3) 1.3375(2) 0.00311(15)
C24 C -0.0243(4) 1.3982(2) -0.04847(16)
H19 H 0.07070 1.38070 -0.06900
C25 C -0.0925(4) 1.4859(2) -0.07003(18)
H20 H -0.04540 1.52790 -0.10600
C26 C -0.2301(4) 1.5106(3) -0.0381(2)
H21 H -0.27590 1.57030 -0.05220
C27 C -0.3014(4) 1.4499(3) 0.0137(2)
H22 H -0.39440 1.46840 0.03550
C28 C -0.2366(3) 1.3621(2) 0.03360(19)
H23 H -0.28700 1.31880 0.06790
N4 N 0.6583(2) 0.66674(16) 0.29805(11)
N5 N 0.4248(2) 0.84164(17) 0.41905(12)
N6 N 0.8906(2) 0.38215(16) 0.58875(11)
O8 O 0.42795(18) 0.60162(13) 0.33164(9)
O9 O 0.74600(18) 0.32158(12) 0.37488(9)
O10 O 0.5177(2) 0.26368(16) 0.41530(12)
O11 O 0.87214(16) 0.25547(12) 0.48778(9)
O12 O 1.1097(2) 0.31078(14) 0.47418(11)
O13 O 0.89590(19) 0.29733(13) 0.61133(9)
O14 O 0.9414(2) 0.44616(14) 0.61449(10)
C29 C 0.6750(2) 0.52907(17) 0.46462(12)
C30 C 0.6716(3) 0.46759(18) 0.41692(13)
H24 H 0.62080 0.48680 0.37870
C31 C 0.7414(3) 0.37940(17) 0.42507(12)
C32 C 0.8147(2) 0.34738(17) 0.48072(12)
C33 C 0.8178(2) 0.40935(17) 0.52751(12)
C34 C 0.7501(2) 0.49828(17) 0.52001(12)
H25 H 0.75480 0.53890 0.55290
C35 C 0.6017(2) 0.62300(18) 0.46155(13)
H26 H 0.59190 0.65040 0.50140
C36 C 0.5464(2) 0.67566(18) 0.40960(13)
C37 C 0.5407(3) 0.64516(18) 0.34240(13)
C38 C 0.6563(3) 0.6405(2) 0.23119(14)
H27 H 0.70650 0.69140 0.19880
H28 H 0.55010 0.63640 0.22110
C39 C 0.7356(4) 0.5457(2) 0.22389(17)
H29 H 0.84050 0.54920 0.23430
H30 H 0.73440 0.53230 0.17850
H31 H 0.68300 0.49450 0.25420
C40 C 0.7942(3) 0.7166(2) 0.31170(15)
H32 H 0.88370 0.69280 0.28610
H33 H 0.80890 0.70070 0.35900
C41 C 0.7849(3) 0.8241(2) 0.29485(17)
H34 H 0.77330 0.84070 0.24780
H35 H 0.87770 0.85300 0.30510
H36 H 0.69770 0.84850 0.32070
C42 C 0.4790(3) 0.76756(19) 0.41660(13)
C43 C 0.6226(3) 0.26529(19) 0.37382(15)
C44 C 0.6400(3) 0.2084(2) 0.31934(15)
C45 C 0.7498(4) 0.2273(3) 0.26734(16)
H37 H 0.81470 0.28070 0.26460
C46 C 0.7643(5) 0.1667(3) 0.2184(2)
H38 H 0.83810 0.17970 0.18170
C47 C 0.6728(6) 0.0891(3) 0.2234(2)
H39 H 0.68550 0.04750 0.19070
C48 C 0.5641(5) 0.0704(3) 0.2741(2)
H40 H 0.50060 0.01630 0.27690
C49 C 0.5463(4) 0.1311(2) 0.32181(19)
H41 H 0.46810 0.11920 0.35680
C50 C 1.0258(3) 0.2453(2) 0.49267(14)
C51 C 1.0664(3) 0.14876(19) 0.52214(14)
C52 C 0.9600(3) 0.08727(19) 0.55850(14)
H42 H 0.85650 0.10580 0.56270
C53 C 1.0048(3) -0.0011(2) 0.58861(15)
H43 H 0.93190 -0.04330 0.61350
C54 C 1.1530(4) -0.0276(2) 0.58269(18)
H44 H 1.18280 -0.08840 0.60350
C55 C 1.2602(4) 0.0325(2) 0.5469(2)
H45 H 1.36320 0.01280 0.54290
C56 C 1.2188(3) 0.1220(2) 0.51647(17)
H46 H 1.29270 0.16420 0.49230
#END
