
#######################################################################
#
#                 Cambridge Crystallographic Data Centre
#                                CCDC
#
#######################################################################
#
# If this CIF has been generated from an entry in the Cambridge
# Structural Database, then it will include bibliographic, chemical,
# crystal, experimental, refinement or atomic coordinate data resulting
# from the CCDC's data processing and validation procedures.
#
#######################################################################

data_CSD_CIF_OFEKUG
_audit_creation_date 2007-09-28
_audit_creation_method CSD-ConQuest-V1
_database_code_CSD OFEKUG
_database_code_depnum_ccdc_archive 'CCDC 657686'
_chemical_formula_sum 'C23 H21 N3 O4'
_chemical_formula_moiety
;
C23 H21 N3 O4
;
_journal_coeditor_code "IUCr HB2376"
_journal_coden_Cambridge 1370
_journal_volume 63
_journal_year 2007
_journal_page_first o3402
_journal_name_full 'Acta Crystallogr.,Sect.E:Struct.Rep.Online '
loop_
_publ_author_name
"P.Kumaradhas"
"A.D.Stephen"
"N.S.Rai"
"B.Kalluraya"
"R.Thomas"
_chemical_name_systematic
;
5-(4,5-Dimethoxy-2-nitrophenyl)-1,3-diphenyl-2-pyrazoline
;
_cell_volume   4148.148
_exptl_crystal_colour 'red'
_exptl_crystal_density_diffrn 1.292
_exptl_crystal_description 'block'
_exptl_crystal_preparation 'ethanol'
_diffrn_ambient_temperature 296
_refine_special_details
;
The O atoms of the nitro group are disordered over two sites, with 
occupancies 0.68:0.32.
;
#These two values have been output from a single CSD field.
_refine_ls_R_factor_gt 0.0396
_refine_ls_wR_factor_gt 0.0396
_symmetry_cell_setting monoclinic
_symmetry_space_group_name_H-M 'C 2/c'
_symmetry_Int_Tables_number 15
loop_
_symmetry_equiv_pos_site_id
_symmetry_equiv_pos_as_xyz
1 x,y,z
2 1/2+x,1/2+y,z
3 -x,y,1/2-z
4 1/2-x,1/2+y,1/2-z
5 -x,-y,-z
6 -1/2-x,-1/2-y,-z
7 x,-y,-1/2+z
8 -1/2+x,-1/2-y,-1/2+z
_cell_length_a 36.0919(7)
_cell_length_b 13.4372(1)
_cell_length_c 8.8190(2)
_cell_angle_alpha 90
_cell_angle_beta 104.099(1)
_cell_angle_gamma 90
_cell_formula_units_Z 8
loop_
_atom_type_symbol
_atom_type_radius_bond
C 0.68
H 0.23
N 0.68
O 0.68
loop_
_atom_site_label
_atom_site_type_symbol
_atom_site_fract_x
_atom_site_fract_y
_atom_site_fract_z
C1 C 0.04766(4) 0.15292(14) 0.6636(2)
H1 H 0.03410 0.09730 0.61800
C2 C 0.08305(4) 0.14080(11) 0.77009(19)
C3 C 0.10437(4) 0.22122(10) 0.84411(16)
C4 C 0.08773(4) 0.31481(11) 0.80876(17)
H2 H 0.10050 0.37020 0.85920
C5 C 0.05307(4) 0.32859(12) 0.70193(18)
C6 C 0.03303(4) 0.24523(13) 0.62634(19)
C7 C -0.02062(5) 0.1837(2) 0.4375(3)
H3 H -0.00450 0.14790 0.38450
H4 H -0.04280 0.20740 0.36240
H5 H -0.02840 0.14030 0.51050
C8 C 0.05319(6) 0.50507(15) 0.7358(3)
H6 H 0.05430 0.50010 0.84530
H7 H 0.03820 0.56200 0.69280
H8 H 0.07860 0.51220 0.72160
C9 C 0.17542(4) 0.21164(10) 0.85409(18)
H9 H 0.19200 0.15430 0.88120
H10 H 0.16390 0.21100 0.74260
C10 C 0.19683(4) 0.30695(10) 0.90319(16)
C11 C 0.14472(4) 0.21363(10) 0.94876(17)
H11 H 0.14700 0.15440 1.01520
C12 C 0.22849(4) 0.34477(11) 0.84239(16)
C13 C 0.24274(4) 0.28957(13) 0.73612(19)
H12 H 0.23150 0.22890 0.70050
C14 C 0.27354(5) 0.32351(14) 0.6821(2)
H13 H 0.28290 0.28530 0.61170
C15 C 0.29022(5) 0.41318(14) 0.7324(2)
H14 H 0.31080 0.43600 0.69620
C16 C 0.27623(5) 0.46919(13) 0.8368(2)
H15 H 0.28740 0.53030 0.87020
C17 C 0.24589(4) 0.43598(12) 0.89252(18)
H16 H 0.23700 0.47440 0.96380
C18 C 0.14669(4) 0.31886(10) 1.18989(16)
C19 C 0.16297(4) 0.39793(11) 1.28447(17)
H17 H 0.17950 0.44130 1.25120
C20 C 0.15472(5) 0.41225(13) 1.42746(18)
H18 H 0.16590 0.46510 1.49030
C21 C 0.13019(5) 0.34949(13) 1.4787(2)
H19 H 0.12450 0.36010 1.57480
C22 C 0.11419(5) 0.27102(14) 1.3861(2)
H20 H 0.09780 0.22790 1.42060
C23 C 0.12210(4) 0.25515(12) 1.24222(19)
H21 H 0.11100 0.20180 1.18050
N1 N 0.15523(3) 0.30319(9) 1.04577(13)
N2 N 0.18567(3) 0.35337(8) 1.01177(13)
N3 N 0.09614(6) 0.03865(13) 0.8015(3)
O1? O 0.1226(6) 0.0251(11) 0.856(2)
O2? O 0.0810(7) -0.0219(9) 0.692(3)
O3 O 0.13056(17) 0.0181(4) 0.8620(6)
O4 O 0.07079(11) -0.0280(3) 0.7954(18)
O5 O -0.00013(3) 0.26599(10) 0.51909(15)
O6 O 0.03612(3) 0.41708(9) 0.65777(15)
#END
