
#######################################################################
#
#                 Cambridge Crystallographic Data Centre
#                                CCDC
#
#######################################################################
#
# If this CIF has been generated from an entry in the Cambridge
# Structural Database, then it will include bibliographic, chemical,
# crystal, experimental, refinement or atomic coordinate data resulting
# from the CCDC's data processing and validation procedures.
#
#######################################################################

data_CSD_CIF_OFEWIF
_audit_creation_date 2002-05-31
_audit_creation_method CSD-ConQuest-V1
_database_code_CSD OFEWIF
_database_code_depnum_ccdc_archive 'CCDC 184908'
_chemical_formula_sum 'C18 H17 N5 O2'
_chemical_formula_moiety
;
C18 H17 N5 O2
;
_journal_coeditor_code "IUCr NA0133"
_journal_coden_Cambridge 622
_journal_volume 58
_journal_year 2002
_journal_page_first 300
_journal_name_full 'Acta Crystallogr.,Sect.B:Struct.Sci. '
loop_
_publ_author_name
"A.Quesada"
"A.Marchal"
"M.Melguizo"
"M.Nogueras"
"A.Sanchez"
"J.N.Low"
"D.Cannon"
"D.M.M.Farrell"
"C.Glidewell"
_chemical_name_systematic
;
2-Amino-4-benzylamino-6-benzyloxy-5-nitrosopyrimidine
;
_cell_volume   3270.719
_exptl_crystal_colour 'purple'
_exptl_crystal_density_diffrn 1.362
_exptl_special_details
;
potential AGT inhibitor

;
_exptl_crystal_description 'block'
_diffrn_ambient_temperature 150
#These two values have been output from a single CSD field.
_refine_ls_R_factor_gt 0.0515
_refine_ls_wR_factor_gt 0.0515
_symmetry_cell_setting monoclinic
_symmetry_space_group_name_H-M 'P 21/n'
_symmetry_Int_Tables_number 14
loop_
_symmetry_equiv_pos_site_id
_symmetry_equiv_pos_as_xyz
1 x,y,z
2 1/2+x,1/2-y,1/2+z
3 -x,-y,-z
4 -1/2-x,-1/2+y,-1/2-z
_cell_length_a 11.677(2)
_cell_length_b 13.362(3)
_cell_length_c 21.478(4)
_cell_angle_alpha 90
_cell_angle_beta 102.58(3)
_cell_angle_gamma 90
_cell_formula_units_Z 8
loop_
_atom_type_symbol
_atom_type_radius_bond
C 0.68
H 0.23
N 0.68
O 0.68
loop_
_atom_site_label
_atom_site_type_symbol
_atom_site_fract_x
_atom_site_fract_y
_atom_site_fract_z
N1 N 0.72275(12) 0.80433(11) 0.25679(7)
C1 C 0.64409(15) 0.76915(14) 0.29038(9)
N2 N 0.62340(13) 0.67198(11) 0.28445(8)
N3 N 0.58763(12) 0.82167(11) 0.32740(7)
C2 C 0.61234(15) 0.91950(14) 0.33366(9)
C3 C 0.49667(15) 0.88079(14) 0.45839(9)
C4 C 0.40942(17) 0.84741(15) 0.48737(10)
C5 C 0.43522(19) 0.79373(15) 0.54365(11)
C6 C 0.5494(2) 0.77246(17) 0.57219(11)
C7 C 0.63678(19) 0.80565(17) 0.54421(10)
C8 C 0.61181(17) 0.85974(16) 0.4877(1)
C9 C 0.46236(16) 0.93826(15) 0.39689(10)
N4 N 0.55851(13) 0.97465(12) 0.36995(8)
C10 C 0.69525(15) 0.96644(13) 0.30181(9)
N5 N 0.72645(13) 1.06334(11) 0.30250(8)
O1 O 0.68109(12) 1.12291(10) 0.33691(7)
C11 C 0.74592(15) 0.89990(13) 0.26271(9)
C12 C 0.91781(16) 0.94421(14) 0.14578(10)
C13 C 0.85096(17) 0.98018(16) 0.08877(11)
C14 C 0.89713(19) 1.04988(18) 0.05312(11)
C15 C 1.00978(19) 1.08450(17) 0.07418(12)
C16 C 1.07737(18) 1.04791(16) 0.13024(11)
C17 C 1.03279(16) 0.97820(14) 0.1660(1)
C18 C 0.86425(17) 0.87567(14) 0.18617(10)
O2 O 0.82046(11) 0.94060(9) 0.23052(6)
N6 N 1.28017(13) 0.83599(11) 0.25079(8)
C19 C 1.35551(15) 0.87739(14) 0.21750(9)
N7 N 1.36975(13) 0.97493(11) 0.22494(8)
N8 N 1.41586(12) 0.83015(11) 0.17965(8)
C20 C 1.39762(15) 0.73157(14) 0.17216(9)
C21 C 1.52442(16) 0.68368(14) 0.03603(9)
C22 C 1.60612(16) 0.61795(14) 0.02028(10)
C23 C 1.58884(17) 0.57701(15) -0.04033(10)
C24 C 1.49054(18) 0.60106(16) -0.08612(10)
C25 C 1.42553(17) 0.70853(15) -0.01085(10)
C26 C 1.40869(18) 0.66696(16) -0.07109(10)
C27 C 1.53934(17) 0.72553(15) 0.10228(10)
N9 N 1.45421(13) 0.68138(12) 0.13498(8)
C28 C 1.31737(15) 0.67867(13) 0.20373(9)
N10 N 1.28927(14) 0.58079(11) 0.19968(8)
O3 O 1.33788(13) 0.52564(10) 0.16443(7)
C29 C 1.26368(15) 0.74022(14) 0.24356(9)
C30 C 1.08612(16) 0.68076(14) 0.35586(10)
C31 C 1.14663(17) 0.63364(16) 0.41034(10)
C32 C 1.09523(18) 0.55771(17) 0.43825(10)
C33 C 0.98147(18) 0.53005(16) 0.41231(11)
C34 C 0.91835(17) 0.57870(15) 0.35897(10)
C35 C 0.97098(16) 0.65294(14) 0.33053(10)
C36 C 1.14750(17) 0.75406(15) 0.32164(10)
O4 O 1.19289(11) 0.69385(9) 0.27542(6)
H1 H 0.57730 0.64170 0.30610
H2 H 0.65780 0.63310 0.26260
H3 H 0.32980 0.86160 0.46820
H4 H 0.37350 0.77150 0.56270
H5 H 0.56740 0.73530 0.61080
H6 H 0.71620 0.79140 0.56380
H7 H 0.67390 0.88230 0.46910
H8 H 0.41200 0.89470 0.36490
H9 H 0.41430 0.99640 0.40410
H10 H 0.58230 1.03670 0.37820
H11 H 0.77290 0.95690 0.07400
H12 H 0.85070 1.07380 0.01400
H13 H 1.04080 1.13330 0.05020
H14 H 1.15570 1.07100 0.14440
H15 H 1.08050 0.95330 0.20450
H16 H 0.79930 0.83690 0.15960
H17 H 0.92350 0.82840 0.20960
H18 H 1.41630 1.00320 0.20350
H19 H 1.32100 1.01080 0.24690
H20 H 1.67450 0.60100 0.05140
H21 H 1.64520 0.53200 -0.05040
H22 H 1.47880 0.57280 -0.12760
H23 H 1.36950 0.75430 -0.00130
H24 H 1.34060 0.68360 -0.10250
H25 H 1.61980 0.71140 0.12680
H26 H 1.52870 0.79900 0.09990
H27 H 1.43950 0.61700 0.12960
H28 H 1.22470 0.65370 0.42890
H29 H 1.13830 0.52480 0.47520
H30 H 0.94610 0.47730 0.43110
H31 H 0.83890 0.56100 0.34200
H32 H 0.92810 0.68530 0.29330
H33 H 1.09210 0.80550 0.29970
H34 H 1.21230 0.78770 0.35180
#END
