
#######################################################################
#
#                 Cambridge Crystallographic Data Centre
#                                CCDC
#
#######################################################################
#
# If this CIF has been generated from an entry in the Cambridge
# Structural Database, then it will include bibliographic, chemical,
# crystal, experimental, refinement or atomic coordinate data resulting
# from the CCDC's data processing and validation procedures.
#
#######################################################################

data_CSD_CIF_OFEWOL
_audit_creation_date 2002-05-31
_audit_creation_method CSD-ConQuest-V1
_database_code_CSD OFEWOL
_database_code_depnum_ccdc_archive 'CCDC 184909'
_chemical_formula_sum 'C15 H17 N5 O4'
_chemical_formula_moiety
;
C15 H17 N5 O4
;
_journal_coeditor_code "IUCr NA0133"
_journal_coden_Cambridge 622
_journal_volume 58
_journal_year 2002
_journal_page_first 300
_journal_name_full 'Acta Crystallogr.,Sect.B:Struct.Sci. '
loop_
_publ_author_name
"A.Quesada"
"A.Marchal"
"M.Melguizo"
"M.Nogueras"
"A.Sanchez"
"J.N.Low"
"D.Cannon"
"D.M.M.Farrell"
"C.Glidewell"
_chemical_name_systematic
;
Ethyl N-(2-amino-6-benzyloxy-5-nitrosopyrimidin-4-yl)glycinate
;
_cell_volume    780.062
_exptl_crystal_colour 'violet'
_exptl_crystal_density_diffrn 1.411
_exptl_special_details
;
potential AGT inhibitor

;
_exptl_crystal_description 'needle'
_diffrn_ambient_temperature 150
#These two values have been output from a single CSD field.
_refine_ls_R_factor_gt 0.0551
_refine_ls_wR_factor_gt 0.0551
_symmetry_cell_setting triclinic
_symmetry_space_group_name_H-M 'P -1'
_symmetry_Int_Tables_number 2
loop_
_symmetry_equiv_pos_site_id
_symmetry_equiv_pos_as_xyz
1 x,y,z
2 -x,-y,-z
_cell_length_a 7.3525(4)
_cell_length_b 7.5420(5)
_cell_length_c 14.9454(13)
_cell_angle_alpha 91.797(3)
_cell_angle_beta 100.467(3)
_cell_angle_gamma 106.102(6)
_cell_formula_units_Z 2
loop_
_atom_type_symbol
_atom_type_radius_bond
C 0.68
H 0.23
N 0.68
O 0.68
loop_
_atom_site_label
_atom_site_type_symbol
_atom_site_fract_x
_atom_site_fract_y
_atom_site_fract_z
N1 N 0.4868(3) 0.8017(3) 0.42584(13)
C1 C 0.6363(3) 0.7661(3) 0.48421(16)
N2 N 0.7993(3) 0.7959(3) 0.45505(14)
N3 N 0.6330(3) 0.7038(3) 0.56703(13)
C2 C 0.4658(3) 0.6690(3) 0.59524(16)
N4 N 0.4573(3) 0.6023(3) 0.67613(13)
C3 C 0.2981(3) 0.7031(3) 0.54129(16)
N5 N 0.1237(3) 0.6805(3) 0.56383(13)
O1 O 0.0994(2) 0.6172(2) 0.64024(11)
C4 C 0.3243(3) 0.7695(3) 0.45470(16)
O2 O 0.1708(2) 0.7983(2) 0.40071(10)
C5 C 0.1965(3) 0.8561(3) 0.31110(16)
C6 C 0.0016(3) 0.8490(3) 0.25717(16)
C7 C -0.0762(4) 0.9941(4) 0.26918(18)
C8 C -0.2574(4) 0.9871(4) 0.2210(2)
C9 C -0.3588(4) 0.8399(5) 0.1593(2)
C10 C -0.2833(4) 0.6944(5) 0.1459(2)
C11 C -0.1029(4) 0.6981(4) 0.19537(18)
C12 C 0.6207(3) 0.5638(3) 0.73296(16)
O3 O 0.6461(3) 0.8241(3) 0.83713(13)
C13 C 0.7069(3) 0.7010(4) 0.81541(16)
O4 O 0.8650(2) 0.6655(2) 0.86189(11)
C14 C 0.9701(4) 0.7979(4) 0.93927(18)
C15 C 1.1550(4) 0.7549(5) 0.9771(2)
H1 H 0.90040 0.77510 0.48950
H2 H 0.80740 0.83690 0.40100
H3 H 0.34800 0.58070 0.69580
H4 H 0.25310 0.77230 0.28040
H5 H 0.28450 0.98360 0.31660
H6 H -0.00450 1.09840 0.31070
H7 H -0.31170 1.08490 0.23080
H8 H -0.48210 0.83730 0.12520
H9 H -0.35470 0.59230 0.10300
H10 H -0.05120 0.59780 0.18700
H11 H 0.72080 0.56630 0.69640
H12 H 0.57920 0.43780 0.75330
H13 H 0.89100 0.79000 0.98680
H14 H 0.99840 0.92520 0.91970
H15 H 1.12580 0.63070 0.99870
H16 H 1.22920 0.84610 1.02820
H17 H 1.23100 0.75980 0.92930
#END
