
#######################################################################
#
#                 Cambridge Crystallographic Data Centre
#                                CCDC
#
#######################################################################
#
# If this CIF has been generated from an entry in the Cambridge
# Structural Database, then it will include bibliographic, chemical,
# crystal, experimental, refinement or atomic coordinate data resulting
# from the CCDC's data processing and validation procedures.
#
#######################################################################

data_CSD_CIF_OFEXEC
_audit_creation_date 2002-05-31
_audit_creation_method CSD-ConQuest-V1
_database_code_CSD OFEXEC
_database_code_depnum_ccdc_archive 'CCDC 184912'
_chemical_formula_sum 'C22 H23 N5 O4'
_chemical_formula_moiety
;
C22 H23 N5 O4
;
_journal_coeditor_code "IUCr NA0133"
_journal_coden_Cambridge 622
_journal_volume 58
_journal_year 2002
_journal_page_first 300
_journal_name_full 'Acta Crystallogr.,Sect.B:Struct.Sci. '
loop_
_publ_author_name
"A.Quesada"
"A.Marchal"
"M.Melguizo"
"M.Nogueras"
"A.Sanchez"
"J.N.Low"
"D.Cannon"
"D.M.M.Farrell"
"C.Glidewell"
_chemical_name_systematic
;
Ethyl N-(2-amino-6-benzyloxy-5-nitrosopyrimidin-4-yl)-L-phenylalaninate
;
_cell_volume   1046.216
_exptl_crystal_colour 'pink'
_exptl_crystal_density_diffrn 1.338
_exptl_special_details
;
potential AGT inhibitor

;
_exptl_crystal_description 'plate'
_diffrn_ambient_temperature 150
#These two values have been output from a single CSD field.
_refine_ls_R_factor_gt 0.0455
_refine_ls_wR_factor_gt 0.0455
_symmetry_cell_setting triclinic
_symmetry_space_group_name_H-M 'P 1'
_symmetry_Int_Tables_number 1
loop_
_symmetry_equiv_pos_site_id
_symmetry_equiv_pos_as_xyz
1 x,y,z
_cell_length_a 7.9899(3)
_cell_length_b 8.4278(3)
_cell_length_c 17.0042(7)
_cell_angle_alpha 99.9100(12)
_cell_angle_beta 90.5610(13)
_cell_angle_gamma 111.4880(17)
_cell_formula_units_Z 2
loop_
_atom_type_symbol
_atom_type_radius_bond
C 0.68
H 0.23
N 0.68
O 0.68
loop_
_atom_site_label
_atom_site_type_symbol
_atom_site_fract_x
_atom_site_fract_y
_atom_site_fract_z
N1 N 0.0293(3) -0.2813(3) 0.02734(15)
C1 C 0.1004(4) -0.3196(4) 0.09199(17)
N2 N 0.0819(4) -0.4846(3) 0.08480(16)
N3 N 0.1826(3) -0.2111(3) 0.16057(15)
C2 C 0.2072(4) -0.0452(4) 0.16334(17)
N4 N 0.2901(3) 0.0711(3) 0.22901(14)
C3 C 0.1471(4) 0.0160(4) 0.09847(17)
N5 N 0.1604(3) 0.1771(3) 0.09448(15)
O1 O 0.2394(3) 0.2984(2) 0.15520(13)
C4 C 0.0545(4) -0.1182(4) 0.03139(17)
O2 O -0.0073(3) -0.0666(3) -0.02881(12)
C5 C -0.0932(4) -0.1948(4) -0.10057(18)
C6 C 0.0472(4) -0.2161(4) -0.15633(18)
C7 C 0.1141(5) -0.3435(4) -0.1546(2)
C8 C 0.2414(5) -0.3636(5) -0.2058(2)
C9 C 0.3039(5) -0.2517(5) -0.2592(2)
C10 C 0.2371(5) -0.1228(4) -0.2609(2)
C11 C 0.1097(5) -0.1046(4) -0.21054(19)
C12 C 0.3394(4) 0.0235(4) 0.30105(18)
C13 C 0.4611(4) 0.1883(4) 0.35974(18)
C14 C 0.6462(4) 0.2759(4) 0.33286(17)
C15 C 0.7875(5) 0.2307(4) 0.3533(2)
C16 C 0.9596(5) 0.3103(5) 0.3295(2)
C17 C 0.9908(5) 0.4387(4) 0.2848(2)
C18 C 0.8518(5) 0.4869(4) 0.26380(19)
C19 C 0.6808(4) 0.4062(4) 0.28762(19)
C20 C 0.1706(4) -0.0666(4) 0.34322(18)
O3 O 0.0266(3) -0.0607(3) 0.33049(14)
O4 O 0.2141(3) -0.1407(3) 0.39837(13)
C21 C 0.0717(4) -0.2167(4) 0.4498(2)
C22 C 0.1538(5) -0.2719(6) 0.5128(3)
N6 N 0.4828(3) 0.2320(3) -0.04116(15)
C23 C 0.3976(4) 0.2719(4) -0.10001(18)
N7 N 0.2352(3) 0.2700(3) -0.08595(16)
N8 N 0.4645(3) 0.3201(3) -0.16885(15)
C24 C 0.6208(4) 0.3054(4) -0.18474(18)
N9 N 0.6952(3) 0.3525(3) -0.25112(15)
C25 C 0.7164(4) 0.2455(4) -0.13176(19)
N10 N 0.8677(4) 0.2153(4) -0.14242(17)
O5 O 0.9404(3) 0.2381(3) -0.20923(15)
C26 C 0.6390(4) 0.2230(4) -0.05630(18)
O6 O 0.7375(3) 0.1916(3) -0.00212(13)
C27 C 0.6668(5) 0.1644(4) 0.07555(19)
C28 C 0.6380(4) -0.0157(4) 0.0852(2)
C29 C 0.5376(5) -0.1581(5) 0.0281(2)
C30 C 0.5142(6) -0.3246(5) 0.0412(4)
C31 C 0.5878(7) -0.3473(6) 0.1109(4)
C32 C 0.6852(6) -0.2060(6) 0.1665(3)
C33 C 0.7104(5) -0.0426(5) 0.1543(2)
C34 C 0.6230(4) 0.4392(4) -0.30142(18)
C35 C 0.7688(4) 0.5249(4) -0.3556(2)
C36 C 0.7171(4) 0.6401(4) -0.40159(19)
C37 C 0.6541(5) 0.5842(5) -0.4818(2)
C38 C 0.6065(5) 0.6922(6) -0.5229(2)
C39 C 0.6180(5) 0.8537(6) -0.4845(3)
C40 C 0.6814(5) 0.9103(5) -0.4047(2)
C41 C 0.7310(4) 0.8037(4) -0.3643(2)
C42 C 0.4558(4) 0.3088(4) -0.3519(2)
O7 O 0.4513(4) 0.1771(3) -0.39268(19)
O8 O 0.3187(3) 0.3594(4) -0.34457(15)
C43 C 0.1453(5) 0.2399(7) -0.3849(3)
C44 C 0.1270(7) 0.2630(6) -0.4673(3)
H1 H 0.14760 -0.51550 0.11630
H2 H 0.02020 -0.55840 0.04150
H3 H 0.31600 0.18180 0.22850
H4 H -0.17770 -0.15760 -0.12850
H5 H -0.16330 -0.30760 -0.08550
H6 H 0.07250 -0.41940 -0.11750
H7 H 0.28570 -0.45350 -0.20440
H8 H 0.39190 -0.26370 -0.29440
H9 H 0.27980 -0.04580 -0.29740
H10 H 0.06390 -0.01590 -0.21260
H11 H 0.40580 -0.05630 0.28710
H12 H 0.40000 0.27240 0.36760
H13 H 0.47460 0.15670 0.41220
H14 H 0.76690 0.14290 0.38440
H15 H 1.05500 0.27650 0.34390
H16 H 1.10810 0.49400 0.26850
H17 H 0.87320 0.57530 0.23300
H18 H 0.58560 0.44020 0.27290
H19 H -0.02730 -0.31750 0.41810
H20 H 0.02160 -0.12980 0.47410
H21 H 0.24660 -0.17000 0.54570
H22 H 0.20870 -0.35280 0.48790
H23 H 0.06050 -0.32960 0.54660
H24 H 0.16150 0.27750 -0.12310
H25 H 0.18050 0.22680 -0.04530
H26 H 0.79140 0.33030 -0.26490
H27 H 0.55130 0.18250 0.07870
H28 H 0.75330 0.24880 0.11910
H29 H 0.48520 -0.14370 -0.01930
H30 H 0.44710 -0.42340 0.00190
H31 H 0.56990 -0.46060 0.11950
H32 H 0.73640 -0.22030 0.21420
H33 H 0.77900 0.05480 0.19400
H34 H 0.59060 0.53060 -0.26680
H35 H 0.88280 0.59480 -0.32230
H36 H 0.79060 0.43320 -0.39400
H37 H 0.64340 0.47190 -0.50850
H38 H 0.56570 0.65410 -0.57810
H39 H 0.58260 0.92590 -0.51260
H40 H 0.69080 1.02210 -0.37780
H41 H 0.77570 0.84390 -0.30960
H42 H 0.04670 0.26000 -0.35520
H43 H 0.13420 0.11900 -0.38490
H44 H 0.21900 0.23460 -0.49780
H45 H 0.14300 0.38390 -0.46740
H46 H 0.00680 0.18610 -0.49180
#END
