
#######################################################################
#
#                 Cambridge Crystallographic Data Centre
#                                CCDC
#
#######################################################################
#
# If this CIF has been generated from an entry in the Cambridge
# Structural Database, then it will include bibliographic, chemical,
# crystal, experimental, refinement or atomic coordinate data resulting
# from the CCDC's data processing and validation procedures.
#
#######################################################################

data_CSD_CIF_OFEXAY
_audit_creation_date 2002-05-31
_audit_creation_method CSD-ConQuest-V1
_database_code_CSD OFEXAY
_database_code_depnum_ccdc_archive 'CCDC 184911'
_chemical_formula_sum 'C16 H19 N5 O4'
_chemical_formula_moiety
;
C16 H19 N5 O4
;
_journal_coeditor_code "IUCr NA0133"
_journal_coden_Cambridge 622
_journal_volume 58
_journal_year 2002
_journal_page_first 300
_journal_name_full 'Acta Crystallogr.,Sect.B:Struct.Sci. '
loop_
_publ_author_name
"A.Quesada"
"A.Marchal"
"M.Melguizo"
"M.Nogueras"
"A.Sanchez"
"J.N.Low"
"D.Cannon"
"D.M.M.Farrell"
"C.Glidewell"
_chemical_name_systematic
;
Ethyl N-(2-amino-6-benzyloxy-5-nitrosopyrimidin-4-yl)-\b-alaninate
;
_cell_volume   1682.141
_exptl_crystal_colour 'pink'
_exptl_crystal_density_diffrn 1.364
_exptl_special_details
;
polymorph ii
potential AGT inhibitor

;
_exptl_crystal_description 'needle'
_diffrn_ambient_temperature 150
#These two values have been output from a single CSD field.
_refine_ls_R_factor_gt 0.0551
_refine_ls_wR_factor_gt 0.0551
_symmetry_cell_setting monoclinic
_symmetry_space_group_name_H-M 'P 21'
_symmetry_Int_Tables_number 4
loop_
_symmetry_equiv_pos_site_id
_symmetry_equiv_pos_as_xyz
1 x,y,z
2 -x,1/2+y,-z
_cell_length_a 7.4830(2)
_cell_length_b 16.6110(6)
_cell_length_c 13.5378(6)
_cell_angle_alpha 90
_cell_angle_beta 91.5420(11)
_cell_angle_gamma 90
_cell_formula_units_Z 4
loop_
_atom_type_symbol
_atom_type_radius_bond
C 0.68
H 0.23
N 0.68
O 0.68
loop_
_atom_site_label
_atom_site_type_symbol
_atom_site_fract_x
_atom_site_fract_y
_atom_site_fract_z
N1 N 1.0633(4) 0.0120(2) 0.2019(2)
C1 C 0.7109(8) -0.0180(5) 0.7469(4)
C2 C 0.5954(8) -0.0804(4) 0.7052(4)
C3 C 1.2030(5) 0.0057(2) 0.2705(3)
N2 N 1.3640(4) 0.0108(3) 0.2344(3)
N3 N 1.1903(4) -0.0061(2) 0.3681(2)
N4 N 1.0080(5) -0.0300(2) 0.4985(3)
C4 C 1.0259(5) -0.0147(2) 0.4028(3)
C5 C 0.8686(5) -0.0083(2) 0.3396(3)
N5 N 0.6965(4) -0.0158(2) 0.3646(2)
O1 O 0.6638(3) -0.03154(18) 0.4547(2)
C6 C 0.9037(5) 0.0051(2) 0.2372(3)
C7 C 0.6164(5) -0.0028(3) 0.0197(3)
C8 C 0.5734(5) -0.0806(3) -0.0081(3)
C9 C 0.4066(6) -0.0975(3) -0.0512(3)
C10 C 0.2853(6) -0.0371(4) -0.0685(3)
C11 C 0.3277(6) 0.0416(4) -0.0419(3)
C12 C 0.4949(6) 0.0587(3) 0.0012(3)
C13 C 0.7930(5) 0.0145(3) 0.0705(3)
O2 O 0.7601(3) 0.00849(17) 0.17628(19)
C14 C 1.1556(5) -0.0369(3) 0.5703(3)
C15 C 1.1562(6) 0.0310(3) 0.6449(3)
C16 C 0.9996(6) 0.0369(3) 0.7105(4)
O3 O 0.9810(6) 0.0871(4) 0.7716(4)
O4 O 0.8763(5) -0.0215(2) 0.6912(2)
N6 N -0.0683(4) 0.2105(2) 0.2997(2)
C17 C 0.3345(7) 0.2998(4) -0.2190(4)
C18 C 0.4022(7) 0.2158(4) -0.2139(4)
C19 C -0.2057(5) 0.2146(3) 0.2309(3)
N7 N -0.3680(4) 0.2106(3) 0.2679(3)
N8 N -0.1934(4) 0.2217(2) 0.1332(3)
C20 C -0.0286(5) 0.2268(2) 0.0973(3)
N9 N -0.0080(4) 0.2340(2) 0.0012(3)
C21 C 0.1287(5) 0.2231(3) 0.1621(3)
N10 N 0.3010(4) 0.2253(2) 0.1362(2)
O5 O 0.3347(3) 0.23345(19) 0.0449(2)
C22 C 0.0915(5) 0.2143(3) 0.2643(3)
C23 C 0.3809(5) 0.2102(3) 0.4828(3)
C24 C 0.4865(6) 0.1424(3) 0.4901(3)
C25 C 0.6565(6) 0.1482(3) 0.5330(3)
C26 C 0.7225(6) 0.2200(4) 0.5661(3)
C27 C 0.6170(7) 0.2881(4) 0.5601(3)
C28 C 0.4473(6) 0.2836(3) 0.5169(3)
C29 C 0.2017(5) 0.2063(3) 0.4317(3)
O6 O 0.2338(3) 0.2118(2) 0.32645(19)
C30 C -0.1533(5) 0.2377(3) -0.0735(3)
C31 C -0.1392(5) 0.3107(3) -0.1401(3)
C32 C 0.0143(5) 0.3083(3) -0.2087(3)
O7 O 0.0006(5) 0.3144(3) -0.2967(3)
O8 O 0.1711(4) 0.3057(3) -0.1607(2)
H1 H 0.73610 -0.02810 0.81800
H2 H 0.65390 0.03560 0.73960
H3 H 0.56440 -0.06730 0.63630
H4 H 0.48600 -0.08380 0.74320
H5 H 0.65780 -0.13230 0.70810
H6 H 1.45870 0.00640 0.27400
H7 H 1.37710 0.01860 0.17070
H8 H 0.89890 -0.03630 0.52000
H9 H 0.65780 -0.12260 0.00220
H10 H 0.37680 -0.15130 -0.06870
H11 H 0.17220 -0.04890 -0.09870
H12 H 0.24320 0.08350 -0.05300
H13 H 0.52540 0.11260 0.01800
H14 H 0.88400 -0.02530 0.05090
H15 H 0.83540 0.06910 0.05360
H16 H 1.26990 -0.03660 0.53520
H17 H 1.14640 -0.08900 0.60540
H18 H 1.26530 0.02570 0.68740
H19 H 1.16580 0.08240 0.60850
H20 H 0.42650 0.33730 -0.19220
H21 H 0.30730 0.31470 -0.28860
H22 H 0.42440 0.20070 -0.14470
H23 H 0.51380 0.21190 -0.24990
H24 H 0.31310 0.17940 -0.24380
H25 H -0.46300 0.21260 0.22820
H26 H -0.38050 0.20590 0.33210
H27 H 0.10220 0.23670 -0.01980
H28 H 0.44320 0.09210 0.46610
H29 H 0.72830 0.10120 0.53930
H30 H 0.84060 0.22320 0.59330
H31 H 0.66070 0.33790 0.58540
H32 H 0.37620 0.33080 0.51050
H33 H 0.14120 0.15500 0.44710
H34 H 0.12530 0.25140 0.45300
H35 H -0.26920 0.23920 -0.04000
H36 H -0.15110 0.18830 -0.11440
H37 H -0.25160 0.31580 -0.17990
H38 H -0.12750 0.35940 -0.09820
#END
