
#######################################################################
#
#                 Cambridge Crystallographic Data Centre
#                                CCDC
#
#######################################################################
#
# If this CIF has been generated from an entry in the Cambridge
# Structural Database, then it will include bibliographic, chemical,
# crystal, experimental, refinement or atomic coordinate data resulting
# from the CCDC's data processing and validation procedures.
#
#######################################################################

data_CSD_CIF_OFEXIG
_audit_creation_date 2002-05-31
_audit_creation_method CSD-ConQuest-V1
_database_code_CSD OFEXIG
_database_code_depnum_ccdc_archive 'CCDC 184913'
_chemical_formula_sum 'C23 H25 N5 O4'
_chemical_formula_moiety
;
C23 H25 N5 O4
;
_journal_coeditor_code "IUCr NA0133"
_journal_coden_Cambridge 622
_journal_volume 58
_journal_year 2002
_journal_page_first 300
_journal_name_full 'Acta Crystallogr.,Sect.B:Struct.Sci. '
loop_
_publ_author_name
"A.Quesada"
"A.Marchal"
"M.Melguizo"
"M.Nogueras"
"A.Sanchez"
"J.N.Low"
"D.Cannon"
"D.M.M.Farrell"
"C.Glidewell"
_chemical_name_systematic
;
Ethyl N-(2-benzylamino-6-benzyloxy-5-nitrosopyrimidin-4-yl)-\b-alaninate
;
_cell_volume   2154.956
_exptl_crystal_colour 'pink'
_exptl_crystal_density_diffrn 1.342
_exptl_special_details
;
potential AGT inhibitor

;
_exptl_crystal_description 'plate'
_diffrn_ambient_temperature 150
#These two values have been output from a single CSD field.
_refine_ls_R_factor_gt 0.0667
_refine_ls_wR_factor_gt 0.0667
_symmetry_cell_setting triclinic
_symmetry_space_group_name_H-M 'P -1'
_symmetry_Int_Tables_number 2
loop_
_symmetry_equiv_pos_site_id
_symmetry_equiv_pos_as_xyz
1 x,y,z
2 -x,-y,-z
_cell_length_a 8.6595(2)
_cell_length_b 16.3567(4)
_cell_length_c 16.9014(4)
_cell_angle_alpha 105.2210(13)
_cell_angle_beta 104.6960(13)
_cell_angle_gamma 100.3720(12)
_cell_formula_units_Z 4
loop_
_atom_type_symbol
_atom_type_radius_bond
C 0.68
H 0.23
N 0.68
O 0.68
loop_
_atom_site_label
_atom_site_type_symbol
_atom_site_fract_x
_atom_site_fract_y
_atom_site_fract_z
N1 N 1.0249(2) 0.60550(11) 0.36876(11)
C1 C 1.0964(3) 0.53673(14) 0.35369(14)
C2 C 0.9030(3) 0.05529(15) 0.06382(17)
C3 C 0.7752(3) -0.00845(16) 0.07868(18)
C4 C 1.1768(3) 0.36350(15) 0.38856(14)
C5 C 1.2141(3) 0.29965(16) 0.32948(15)
C6 C 1.1232(3) 0.21208(16) 0.30233(16)
C7 C 0.9959(3) 0.18862(16) 0.33340(16)
C8 C 0.9584(3) 0.25153(17) 0.39191(17)
C9 C 1.0498(3) 0.33901(16) 0.41971(15)
C10 C 1.2779(3) 0.45847(14) 0.42033(14)
N2 N 1.1799(2) 0.52204(12) 0.42361(11)
N3 N 1.0906(2) 0.48350(12) 0.27675(11)
N4 N 0.9987(2) 0.44785(12) 0.12929(12)
C11 C 1.0081(3) 0.49941(14) 0.20697(14)
C12 C 0.9297(3) 0.57093(14) 0.21315(14)
N5 N 0.8397(2) 0.59235(12) 0.14840(12)
O1 O 0.8223(2) 0.54515(11) 0.07058(10)
C13 C 0.9478(3) 0.62152(14) 0.30028(14)
C14 C 0.8292(3) 0.82000(15) 0.38664(15)
C15 C 0.8311(4) 0.87995(19) 0.46225(18)
C16 C 0.7762(4) 0.9539(2) 0.4606(2)
C17 C 0.7198(4) 0.96951(17) 0.38387(18)
C18 C 0.7148(3) 0.91037(16) 0.30858(17)
C19 C 0.7697(3) 0.83533(16) 0.30975(16)
C20 C 0.8931(3) 0.74143(15) 0.39275(15)
O2 O 0.8797(2) 0.68909(10) 0.30716(10)
C21 C 1.0632(3) 0.37082(14) 0.11721(15)
C22 C 0.9430(3) 0.29325(14) 0.12118(14)
C23 C 0.9878(3) 0.20869(15) 0.09095(14)
O3 O 1.1054(2) 0.20011(11) 0.06813(12)
O4 O 0.8746(2) 0.14106(10) 0.09233(10)
N6 N 0.5303(2) 0.52903(11) -0.15940(11)
C24 C 0.5347(3) 0.60947(14) -0.10538(14)
C25 C 0.7199(3) 0.99200(19) -0.29453(19)
C26 C 0.8936(3) 1.0462(2) -0.2688(2)
C27 C 0.4696(3) 0.72026(14) 0.06291(13)
C28 C 0.4357(3) 0.80224(15) 0.07891(15)
C29 C 0.2947(3) 0.81434(17) 0.09916(16)
C30 C 0.1824(3) 0.74482(18) 0.10318(15)
C31 C 0.2154(3) 0.66285(17) 0.08679(15)
C32 C 0.3562(3) 0.65088(15) 0.06777(14)
C33 C 0.6261(3) 0.70802(14) 0.04390(14)
N7 N 0.6036(2) 0.62425(12) -0.02172(12)
N8 N 0.4804(2) 0.67442(11) -0.12799(11)
C34 C 0.4181(3) 0.66066(14) -0.21238(14)
N9 N 0.3715(2) 0.72597(11) -0.23708(12)
C35 C 0.4026(3) 0.57868(14) -0.27663(13)
N10 N 0.3449(2) 0.55658(12) -0.36322(12)
O5 O 0.2950(2) 0.61498(11) -0.39373(10)
C36 C 0.4659(3) 0.51608(14) -0.24142(14)
C37 C 0.5591(3) 0.31559(14) -0.34602(14)
C38 C 0.6313(3) 0.24916(15) -0.33096(15)
C39 C 0.6552(3) 0.18896(17) -0.39780(17)
C40 C 0.6095(3) 0.19365(17) -0.48069(16)
C41 C 0.5379(3) 0.25925(16) -0.49580(15)
C42 C 0.5124(3) 0.31946(15) -0.42890(15)
C43 C 0.5375(3) 0.37955(14) -0.26986(15)
O6 O 0.46020(19) 0.44173(9) -0.30050(9)
C44 C 0.3916(3) 0.81161(14) -0.17607(14)
C45 C 0.5539(3) 0.87639(15) -0.16100(14)
C46 C 0.5584(3) 0.90424(14) -0.23811(15)
O7 O 0.4459(2) 0.88055(12) -0.30486(11)
O8 O 0.7037(2) 0.96039(11) -0.22346(11)
H1 H 1.01540 0.05580 0.09700
H2 H 0.89320 0.03850 0.00170
H3 H 0.78960 0.00720 0.14070
H4 H 0.78760 -0.06790 0.05740
H5 H 0.66450 -0.00640 0.04770
H6 H 1.30160 0.31560 0.30750
H7 H 1.14950 0.16850 0.26220
H8 H 0.93390 0.12900 0.31450
H9 H 0.87030 0.23540 0.41340
H10 H 1.02410 0.38210 0.46060
H11 H 1.35560 0.47130 0.47900
H12 H 1.34470 0.46600 0.38190
H13 H 1.17580 0.55200 0.47420
H14 H 0.95150 0.46100 0.08340
H15 H 0.87060 0.87010 0.51580
H16 H 0.77750 0.99420 0.51290
H17 H 0.68440 1.02110 0.38310
H18 H 0.67370 0.92030 0.25520
H19 H 0.76600 0.79460 0.25710
H20 H 1.01010 0.76080 0.43010
H21 H 0.82740 0.70630 0.41840
H22 H 1.17050 0.38420 0.16280
H23 H 1.08240 0.35560 0.06050
H24 H 0.94190 0.30390 0.18140
H25 H 0.83010 0.28810 0.08470
H26 H 0.64130 1.02790 -0.30590
H27 H 0.69540 0.94190 -0.34770
H28 H 0.91660 1.09530 -0.21580
H29 H 0.90840 1.06910 -0.31520
H30 H 0.97000 1.00980 -0.25850
H31 H 0.51080 0.85050 0.07580
H32 H 0.27460 0.87080 0.11040
H33 H 0.08510 0.75290 0.11680
H34 H 0.13920 0.61440 0.08880
H35 H 0.37690 0.59450 0.05770
H36 H 0.67020 0.75650 0.02420
H37 H 0.70960 0.71200 0.09800
H38 H 0.63720 0.58210 -0.00490
H39 H 0.32660 0.71680 -0.29260
H40 H 0.66420 0.24540 -0.27420
H41 H 0.70360 0.14370 -0.38680
H42 H 0.62710 0.15230 -0.52650
H43 H 0.50580 0.26310 -0.55250
H44 H 0.46200 0.36400 -0.44030
H45 H 0.46700 0.34780 -0.24370
H46 H 0.64640 0.41070 -0.22540
H47 H 0.38680 0.80460 -0.12030
H48 H 0.29870 0.83560 -0.19830
H49 H 0.57140 0.92900 -0.11120
H50 H 0.64580 0.84910 -0.14610
#END
