
#######################################################################
#
#                 Cambridge Crystallographic Data Centre
#                                CCDC
#
#######################################################################
#
# If this CIF has been generated from an entry in the Cambridge
# Structural Database, then it will include bibliographic, chemical,
# crystal, experimental, refinement or atomic coordinate data resulting
# from the CCDC's data processing and validation procedures.
#
#######################################################################

data_CSD_CIF_OFEZIK
_audit_creation_date 2013-08-29
_audit_creation_method CSD-ConQuest-V1
_database_code_CSD OFEZIK
_database_code_depnum_ccdc_archive 'CCDC 931334'
_chemical_formula_sum 'C16 H15 N1 O6'
_chemical_formula_moiety
;
C16 H15 N1 O6
;
_journal_coden_Cambridge 1336
_journal_volume 15
_journal_year 2013
_journal_page_first 3606
_journal_name_full 'Org.Lett. '
loop_
_publ_author_name
"Peng Wang"
"Saihu Liao"
"Jian-Bo Zhu"
"Yong Tang"
_chemical_name_systematic
;
Methyl 
1-(2-methoxy-2-oxoethyl)-2-(4-nitrophenyl)cyclopenta-2,4-diene-1-carboxylate
;
_cell_volume   1523.933
_exptl_crystal_colour 'colorless'
_exptl_crystal_density_diffrn 1.383
_exptl_crystal_description 'prismatic'
_diffrn_ambient_temperature 293
#These two values have been output from a single CSD field.
_refine_ls_R_factor_gt 0.0438
_refine_ls_wR_factor_gt 0.0438
_symmetry_cell_setting monoclinic
_symmetry_space_group_name_H-M 'P 21/c'
_symmetry_Int_Tables_number 14
loop_
_symmetry_equiv_pos_site_id
_symmetry_equiv_pos_as_xyz
1 x,y,z
2 -x,1/2+y,1/2-z
3 -x,-y,-z
4 x,-1/2-y,-1/2+z
_cell_length_a 13.5543(13)
_cell_length_b 12.6860(12)
_cell_length_c 8.9203(9)
_cell_angle_alpha 90
_cell_angle_beta 96.517(2)
_cell_angle_gamma 90
_cell_formula_units_Z 4
loop_
_atom_type_symbol
_atom_type_radius_bond
C 0.68
H 0.23
N 0.68
O 0.68
loop_
_atom_site_label
_atom_site_type_symbol
_atom_site_fract_x
_atom_site_fract_y
_atom_site_fract_z
N1 N -0.02898(12) 0.22005(16) -0.1650(2)
O1 O 0.37041(12) 0.54888(12) 0.58696(15)
O2 O 0.27081(10) 0.41602(10) 0.62741(13)
O3 O 0.38557(10) 0.36106(10) 0.34302(15)
O4 O 0.41904(9) 0.43765(10) 0.13021(13)
O5 O -0.08649(10) 0.24560(14) -0.27459(19)
O6 O -0.02472(16) 0.13113(16) -0.1116(2)
C1 C 0.29884(11) 0.52032(11) 0.26122(17)
C2 C 0.35279(12) 0.62535(12) 0.2718(2)
H1 H 0.40220 0.64420 0.34810
C3 C 0.31950(13) 0.68603(13) 0.1570(2)
H2 H 0.34080 0.75450 0.14160
C4 C 0.24493(13) 0.63019(13) 0.0589(2)
H3 H 0.21130 0.65750 -0.02920
C5 C 0.23112(11) 0.53308(12) 0.11331(17)
C6 C 0.16557(10) 0.45123(12) 0.04268(16)
C7 C 0.10137(12) 0.47393(13) -0.08745(18)
H4 H 0.10110 0.54140 -0.12820
C8 C 0.03883(12) 0.39910(15) -0.1562(2)
H5 H -0.00340 0.41540 -0.24270
C9 C 0.03969(11) 0.29956(14) -0.09524(19)
C10 C 0.10330(13) 0.27223(14) 0.02953(19)
H6 H 0.10430 0.20380 0.06710
C11 C 0.16563(12) 0.34833(13) 0.09793(18)
H7 H 0.20870 0.33070 0.18290
C12 C 0.23845(12) 0.50435(14) 0.39587(18)
H8 H 0.19410 0.56390 0.40120
H9 H 0.19790 0.44160 0.37830
C13 C 0.30167(13) 0.49345(13) 0.54473(18)
C14 C 0.32930(17) 0.39887(17) 0.7706(2)
H10 H 0.39650 0.38280 0.75420
H11 H 0.30200 0.34100 0.82170
H12 H 0.32840 0.46130 0.83110
C15 C 0.37245(11) 0.43004(12) 0.25221(17)
C16 C 0.48880(15) 0.35513(16) 0.1067(2)
H13 H 0.53270 0.34440 0.19770
H14 H 0.52680 0.37500 0.02660
H15 H 0.45340 0.29100 0.08010
#END
