
#######################################################################
#
#                 Cambridge Crystallographic Data Centre
#                                CCDC
#
#######################################################################
#
# If this CIF has been generated from an entry in the Cambridge
# Structural Database, then it will include bibliographic, chemical,
# crystal, experimental, refinement or atomic coordinate data resulting
# from the CCDC's data processing and validation procedures.
#
#######################################################################

data_CSD_CIF_OFIHUG
_audit_creation_date 2002-09-16
_audit_creation_method CSD-ConQuest-V1
_database_code_CSD OFIHUG
_database_code_depnum_ccdc_archive 'CCDC 1225780'
_chemical_formula_sum 'C21 H26 N2 O8'
_chemical_formula_moiety
;
C21 H26 N2 O8
;
_journal_coden_Cambridge 464
_journal_volume 53
_journal_year 2000
_journal_page_first 90
_journal_name_full 'S.Afr.J.Chem. '
loop_
_publ_author_name
"M.D.Evans"
"P.T.Kaye"
"L.Cook"
_chemical_name_systematic
;
3,3-(2,3-Butanedioxy)-2-exo-bornyl 3,5-dinitrobenzoate
;
_chemical_melting_point 405.15
_cell_volume   2205.163
_exptl_crystal_density_diffrn 1.309
_exptl_special_details
;
Melting point range 405.15-406.15K
Trace quantities of the 2-endo isomer exist in the crystal
;
_exptl_crystal_preparation 'hexane'
_diffrn_ambient_temperature 296
#These two values have been output from a single CSD field.
_refine_ls_R_factor_gt 0.1117
_refine_ls_wR_factor_gt 0.1117
_symmetry_cell_setting monoclinic
_symmetry_space_group_name_H-M 'P 21'
_symmetry_Int_Tables_number 4
loop_
_symmetry_equiv_pos_site_id
_symmetry_equiv_pos_as_xyz
1 x,y,z
2 -x,1/2+y,-z
_cell_length_a 12.7892(10)
_cell_length_b 10.6562(9)
_cell_length_c 16.1864(13)
_cell_angle_alpha 90
_cell_angle_beta 91.532(2)
_cell_angle_gamma 90
_cell_formula_units_Z 4
loop_
_atom_type_symbol
_atom_type_radius_bond
C 0.68
N 0.68
O 0.68
loop_
_atom_site_label
_atom_site_type_symbol
_atom_site_fract_x
_atom_site_fract_y
_atom_site_fract_z
O1 O -0.8643(5) -0.8683(8) 0.8667(5)
N1 N -0.8357(6) -0.9607(10) 0.8321(5)
C1 C -0.6600(6) -0.9285(7) 0.8902(5)
O2 O -0.8932(5) -1.0276(7) 0.7889(5)
N2 N -0.5514(8) -1.2552(8) 0.7754(5)
C2 C -0.7239(6) -1.0002(8) 0.8406(5)
C3 C -0.6911(7) -1.1059(8) 0.8014(4)
O3 O -0.6099(7) -1.3084(9) 0.7287(6)
O4 O -0.4598(7) -1.2838(7) 0.7892(4)
C4 C -0.5893(7) -1.1405(7) 0.8156(5)
O5 O -0.5161(4) -0.7984(6) 0.9972(4)
C5 C -0.5203(6) -1.0719(7) 0.8642(4)
O6 O -0.3895(4) -0.9278(5) 0.9586(3)
C6 C -0.5562(6) -0.9640(7) 0.9034(4)
O7 O -0.2427(4) -0.6591(5) 0.9711(3)
C7 C -0.4875(6) -0.8874(8) 0.9587(5)
O8 O -0.2589(4) -0.8001(5) 0.8663(3)
C8 C -0.3100(5) -0.8648(7) 1.0073(4)
C9 C -0.2384(6) -0.9601(7) 1.0515(4)
C10 C -0.2956(7) -1.0707(9) 1.0896(6)
C11 C -0.1782(6) -0.8827(7) 1.1171(5)
C12 C -0.1015(6) -0.8050(9) 1.0657(5)
C13 C -0.1289(6) -0.8468(7) 0.9767(5)
C14 C -0.1550(6) -0.9879(7) 0.9872(5)
C15 C -0.0610(7) -1.0616(10) 1.0234(6)
C16 C -0.1926(7) -1.0569(9) 0.9069(5)
C17 C -0.2341(6) -0.7899(8) 0.9529(4)
C18 C -0.2210(7) -0.5938(8) 0.8945(6)
C19 C -0.2557(8) -0.4596(9) 0.9023(6)
C20 C -0.2789(7) -0.6781(8) 0.8318(5)
C21 C -0.3932(7) -0.6529(11) 0.8166(6)
N3 N -0.3177(6) 0.0539(10) 0.6720(6)
C22 C -0.1485(6) 0.0711(8) 0.6095(5)
O9 O -0.3445(6) 0.1481(8) 0.6389(6)
N4 N -0.0486(9) -0.2673(9) 0.7172(5)
O10 O -0.3722(5) -0.0091(8) 0.7169(5)
C23 C -0.2117(6) 0.0040(8) 0.6580(5)
O11 O -0.1089(7) -0.3262(9) 0.7564(6)
C24 C -0.1816(7) -0.1056(9) 0.6952(5)
O12 O 0.0413(7) -0.2993(8) 0.7088(5)
C25 C -0.0846(8) -0.1485(8) 0.6780(5)
O13 O -0.0029(5) 0.1965(7) 0.5075(5)
C26 C -0.0150(6) -0.0833(8) 0.6302(4)
O14 O 0.1178(4) 0.0515(6) 0.5433(4)
C27 C -0.0477(6) 0.0276(8) 0.5956(4)
O15 O 0.2220(6) 0.1868(7) 0.6497(4)
C28 C 0.0233(6) 0.1029(9) 0.5425(6)
O16 O 0.2529(4) 0.3262(6) 0.5478(4)
C29 C 0.2018(6) 0.1157(9) 0.5049(5)
C30 C 0.2842(7) 0.0224(10) 0.4731(7)
C31 C 0.246(1) -0.0441(12) 0.3973(7)
C32 C 0.3103(9) -0.0651(12) 0.5440(8)
C33 C 0.3733(10) 0.0143(13) 0.6045(7)
C34 C 0.3744(7) 0.1481(11) 0.5626(6)
C35 C 0.3816(8) 0.1081(10) 0.4731(6)
C36 C 0.3725(8) 0.2181(10) 0.4142(5)
C37 C 0.4818(8) 0.0360(12) 0.4552(7)
C38 C 0.2610(7) 0.1957(10) 0.5691(6)
C39 C 0.2044(8) 0.3111(13) 0.6807(6)
C40 C 0.0867(8) 0.3346(11) 0.6864(7)
C41 C 0.2625(8) 0.3936(11) 0.6226(7)
C42 C 0.2222(10) 0.5268(11) 0.6100(7)
#END
