
#######################################################################
#
#                 Cambridge Crystallographic Data Centre
#                                CCDC
#
#######################################################################
#
# If this CIF has been generated from an entry in the Cambridge
# Structural Database, then it will include bibliographic, chemical,
# crystal, experimental, refinement or atomic coordinate data resulting
# from the CCDC's data processing and validation procedures.
#
#######################################################################

data_CSD_CIF_OFIJUJ
_audit_creation_date 2009-01-14
_audit_creation_method CSD-ConQuest-V1
_database_code_CSD OFIJUJ
_database_code_depnum_ccdc_archive 'CCDC 671244'
_chemical_formula_sum 'C22 H28 N2 O6'
_chemical_formula_moiety
;
C22 H28 N2 O6
;
_journal_coden_Cambridge 1090
_journal_volume 19
_journal_year 2008
_journal_page_first 800
_journal_name_full 'Tetrahedron:Asymm. '
loop_
_publ_author_name
"E.Brenna"
"C.Fuganti"
"F.G.Gatti"
"L.Malpezzi"
"S.Serra"
_chemical_name_systematic
;
(1S,2S)-2-((R)-2-((R)-4-methylcyclohex-3-enyl)propyl)cyclopentyl 3,5 
-dinitrobenzoate
;
_cell_volume   1110.419
_exptl_crystal_colour 'colorless'
_exptl_crystal_density_diffrn 1.246
_exptl_crystal_description 'block'
_diffrn_ambient_temperature 293
#These two values have been output from a single CSD field.
_refine_ls_R_factor_gt 0.0492
_refine_ls_wR_factor_gt 0.0492
_symmetry_cell_setting monoclinic
_symmetry_space_group_name_H-M 'P 21'
_symmetry_Int_Tables_number 4
loop_
_symmetry_equiv_pos_site_id
_symmetry_equiv_pos_as_xyz
1 x,y,z
2 -x,1/2+y,-z
_cell_length_a 19.104(4)
_cell_length_b 5.914(1)
_cell_length_c 9.834(2)
_cell_angle_alpha 90
_cell_angle_beta 91.940(5)
_cell_angle_gamma 90
_cell_formula_units_Z 2
loop_
_atom_type_symbol
_atom_type_radius_bond
C 0.68
H 0.23
N 0.68
O 0.68
loop_
_atom_site_label
_atom_site_type_symbol
_atom_site_fract_x
_atom_site_fract_y
_atom_site_fract_z
O1 O 0.18008(9) 0.7447(3) 0.17662(18)
O2 O 0.10622(11) 1.0341(4) 0.1366(2)
O3 O 0.13177(13) 0.1110(4) -0.3097(2)
O4 O 0.20439(13) 0.1510(4) -0.1415(2)
O5 O -0.04189(14) 0.9905(5) -0.2743(3)
O6 O -0.02889(12) 0.7225(5) -0.4194(2)
N1 N 0.15477(14) 0.2136(4) -0.2105(3)
N2 N -0.01625(14) 0.8131(6) -0.3119(3)
C1 C 0.21332(16) 0.8580(6) 0.2943(3)
H1 H 0.2170(11) 1.015(5) 0.273(2)
C2 C 0.17103(19) 0.8211(9) 0.4196(3)
H2 H 0.17700 0.94690 0.48220
H3 H 0.12170 0.80620 0.39490
C3 C 0.1986(2) 0.6059(10) 0.4836(3)
H4 H 0.16220 0.49160 0.48370
H5 H 0.21470 0.63330 0.57670
C4 C 0.25944(17) 0.5278(7) 0.3978(3)
H6 H 0.29770 0.47020 0.45520
H7 H 0.24440 0.41050 0.33430
C5 C 0.28154(15) 0.7400(6) 0.3224(3)
H8 H 0.3085(15) 0.839(6) 0.390(3)
C6 C 0.32642(14) 0.6940(5) 0.1996(3)
H9 H 0.36950 0.62180 0.23190
H10 H 0.30170 0.58670 0.14090
C7 C 0.34552(15) 0.8968(5) 0.1148(3)
H11 H 0.2997(15) 0.977(5) 0.085(3)
C8 C 0.38140(15) 0.8278(6) -0.0179(3)
H12 H 0.4252(15) 0.759(5) 0.005(3)
C9 C 0.33714(17) 0.6651(6) -0.1027(3)
H13 H 0.33410 0.52250 -0.05450
H14 H 0.29010 0.72560 -0.11370
C10 C 0.36576(19) 0.6221(7) -0.2413(3)
H15 H 0.34900 0.49790 -0.29030
C11 C 0.41343(18) 0.7514(8) -0.2970(3)
C12 C 0.43948(18) 0.9572(8) -0.2294(4)
H16 H 0.43820 1.07990 -0.29480
H17 H 0.48800 0.93380 -0.20080
C13 C 0.39897(16) 1.0278(7) -0.1069(4)
H18 H 0.35600 1.10190 -0.13740
H19 H 0.42650 1.13590 -0.05360
C14 C 0.39157(18) 1.0592(7) 0.1980(4)
H20 H 0.40270 1.18780 0.14320
H21 H 0.43400 0.98380 0.22690
H22 H 0.36710 1.10830 0.27630
C15 C 0.44295(19) 0.6947(11) -0.4333(3)
H23 H 0.42140 0.55890 -0.46800
H24 H 0.49260 0.67240 -0.42290
H25 H 0.43360 0.81680 -0.49570
C16 C 0.12926(15) 0.8519(6) 0.1087(3)
C17 C 0.10660(13) 0.7202(5) -0.0156(3)
C18 C 0.13845(13) 0.5224(5) -0.0508(2)
H26 H 0.17270 0.45780 0.00620
C19 C 0.11885(13) 0.4205(5) -0.1722(2)
C20 C 0.06753(13) 0.5069(5) -0.2583(3)
H27 H 0.05440 0.43440 -0.33910
C21 C 0.03657(13) 0.7048(5) -0.2199(3)
C22 C 0.05467(13) 0.8105(5) -0.0994(3)
H28 H 0.03190 0.94240 -0.07450
#END
