
#######################################################################
#
#                 Cambridge Crystallographic Data Centre
#                                CCDC
#
#######################################################################
#
# If this CIF has been generated from an entry in the Cambridge
# Structural Database, then it will include bibliographic, chemical,
# crystal, experimental, refinement or atomic coordinate data resulting
# from the CCDC's data processing and validation procedures.
#
#######################################################################

data_CSD_CIF_OFIJIZ
_audit_creation_date 2018-08-29
_audit_creation_method CSD-ConQuest-V1
_database_code_CSD OFIJIZ
_database_code_depnum_ccdc_archive 'CCDC 1862845'
_chemical_formula_sum 'C16 H18 N4 O4'
_chemical_formula_moiety
;
C16 H18 N4 O4
;
_journal_coeditor_code "ly3073"
_journal_coden_Cambridge 1777
_journal_volume 74
_journal_year 2018
_journal_page_first 1038
_journal_name_full 'Acta Crystallogr.,Sect.C:Cryst.Struct.Chem. '
loop_
_publ_author_name
"A.R.Badour"
"C.J.Arnett-Butscher"
"D.K.Mohanty"
"P.J.Squattrito"
"K.J.Lambright"
"K.Kirschbaum"
_chemical_name_systematic
;
N^1^,N^4^-bis(2-nitrophenyl)butane-1,4-diamine
;
_chemical_melting_point 426
_cell_volume    748.342
_exptl_crystal_colour 'orange'
_exptl_crystal_density_diffrn 1.466
_exptl_crystal_description 'plate'
_diffrn_ambient_temperature 120
_diffrn_special_details
;
twin

;
#These two values have been output from a single CSD field.
_refine_ls_R_factor_gt 0.0432
_refine_ls_wR_factor_gt 0.0432
_symmetry_cell_setting triclinic
_symmetry_space_group_name_H-M 'P -1'
_symmetry_Int_Tables_number 2
loop_
_symmetry_equiv_pos_site_id
_symmetry_equiv_pos_as_xyz
1 x,y,z
2 -x,-y,-z
_cell_length_a 6.7032(4)
_cell_length_b 8.1646(5)
_cell_length_c 15.1177(9)
_cell_angle_alpha 81.099(2)
_cell_angle_beta 79.555(2)
_cell_angle_gamma 67.488(2)
_cell_formula_units_Z 2
loop_
_atom_type_symbol
_atom_type_radius_bond
C 0.68
H 0.23
N 0.68
O 0.68
loop_
_atom_site_label
_atom_site_type_symbol
_atom_site_fract_x
_atom_site_fract_y
_atom_site_fract_z
O1 O 0.3995(2) 0.39294(16) 0.06812(8)
O2 O 0.4336(2) 0.18683(17) 0.17903(9)
N1 N 0.2731(2) 0.72853(19) 0.09832(10)
N2 N 0.3819(2) 0.34646(18) 0.15066(10)
C1 C 0.2477(3) 0.9133(2) 0.06805(11)
H1 H 0.35806 0.91557 0.01507
H2 H 0.27578 0.96655 0.11682
C2 C 0.0214(3) 1.0264(2) 0.04247(11)
H3 H -0.08981 1.01427 0.09322
H4 H 0.00630 1.15314 0.03283
C3 C 0.2460(3) 0.6631(2) 0.18512(11)
C4 C 0.3000(3) 0.4780(2) 0.21374(11)
C5 C 0.2769(3) 0.4156(2) 0.30547(12)
H5 H 0.31542 0.29139 0.32219
C6 C 0.1996(3) 0.5310(2) 0.37113(11)
H6 H 0.18532 0.48790 0.43312
C7 C 0.1418(3) 0.7143(2) 0.34535(11)
H7 H 0.08802 0.79548 0.39047
C8 C 0.1618(3) 0.7780(2) 0.25606(11)
H8 H 0.11798 0.90294 0.24092
H9 H 0.335(4) 0.649(3) 0.0588(15)
O3 O 0.7626(2) 0.35662(16) 0.43988(8)
O4 O 0.9038(3) 0.15051(17) 0.34842(9)
N3 N 0.6419(2) 0.69358(19) 0.37783(10)
N4 N 0.8198(2) 0.30994(19) 0.36156(10)
C9 C 0.5565(3) 0.8826(2) 0.39118(11)
H10 H 0.40706 0.93951 0.37470
H11 H 0.64934 0.94183 0.35201
C10 C 0.5537(3) 0.9028(2) 0.48948(11)
H12 H 0.70513 0.85459 0.50387
H13 H 0.47365 0.83249 0.52831
C11 C 0.7037(3) 0.6276(2) 0.29682(11)
C12 C 0.7889(3) 0.4419(2) 0.28573(11)
C13 C 0.8498(3) 0.3795(2) 0.19956(12)
H14 H 0.90506 0.25503 0.19420
C14 C 0.8301(3) 0.4963(2) 0.12335(12)
H15 H 0.87075 0.45386 0.06518
C15 C 0.7489(3) 0.6794(2) 0.13241(12)
H16 H 0.73622 0.76104 0.07973
C16 C 0.6876(3) 0.7431(2) 0.21577(11)
H17 H 0.63282 0.86810 0.21940
H18 H 0.641(4) 0.619(3) 0.4231(17)
O1A O -0.3995(2) 1.60706(16) -0.06812(8)
O2A O -0.4336(2) 1.81317(17) -0.17903(9)
N1A N -0.2731(2) 1.27147(19) -0.09832(10)
N2A N -0.3819(2) 1.65354(18) -0.15066(10)
C1A C -0.2477(3) 1.0867(2) -0.06805(11)
H1A H -0.35806 1.08443 -0.01507
H2A H -0.27578 1.03345 -0.11682
C2A C -0.0214(3) 0.9736(2) -0.04247(11)
H3A H 0.08981 0.98573 -0.09322
H4A H -0.00630 0.84686 -0.03283
C3A C -0.2460(3) 1.3369(2) -0.18512(11)
C4A C -0.3000(3) 1.5220(2) -0.21374(11)
C5A C -0.2769(3) 1.5844(2) -0.30547(12)
H5A H -0.31542 1.70861 -0.32219
C6A C -0.1996(3) 1.4690(2) -0.37113(11)
H6A H -0.18532 1.51210 -0.43312
C7A C -0.1418(3) 1.2857(2) -0.34535(11)
H7A H -0.08802 1.20452 -0.39047
C8A C -0.1618(3) 1.2220(2) -0.25606(11)
H8A H -0.11798 1.09706 -0.24092
H9A H -0.335(4) 1.351(3) -0.0588(15)
O3A O 0.2374(2) 1.64338(16) 0.56012(8)
O4A O 0.0962(3) 1.84949(17) 0.65158(9)
N3A N 0.3581(2) 1.30642(19) 0.62217(10)
N4A N 0.1802(2) 1.69006(19) 0.63844(10)
C9A C 0.4435(3) 1.1174(2) 0.60882(11)
H10A H 0.59294 1.06049 0.62530
H11A H 0.35066 1.05817 0.64799
C10A C 0.4463(3) 1.0972(2) 0.51052(11)
H12A H 0.29487 1.14541 0.49613
H13A H 0.52635 1.16751 0.47169
C11A C 0.2963(3) 1.3724(2) 0.70318(11)
C12A C 0.2111(3) 1.5581(2) 0.71427(11)
C13A C 0.1502(3) 1.6205(2) 0.80044(12)
H14A H 0.09494 1.74497 0.80580
C14A C 0.1699(3) 1.5037(2) 0.87665(12)
H15A H 0.12925 1.54614 0.93482
C15A C 0.2511(3) 1.3206(2) 0.86759(12)
H16A H 0.26378 1.23896 0.92027
C16A C 0.3124(3) 1.2569(2) 0.78423(11)
H17A H 0.36718 1.13190 0.78060
H18A H 0.359(4) 1.381(3) 0.5769(17)
#END
