
#######################################################################
#
#                 Cambridge Crystallographic Data Centre
#                                CCDC
#
#######################################################################
#
# If this CIF has been generated from an entry in the Cambridge
# Structural Database, then it will include bibliographic, chemical,
# crystal, experimental, refinement or atomic coordinate data resulting
# from the CCDC's data processing and validation procedures.
#
#######################################################################

data_CSD_CIF_OFIJOF
_audit_creation_date 2018-08-29
_audit_creation_method CSD-ConQuest-V1
_database_code_CSD OFIJOF
_database_code_depnum_ccdc_archive 'CCDC 1862846'
_chemical_formula_sum 'C24 H27 N7 O6'
_chemical_formula_moiety
;
C24 H27 N7 O6
;
_journal_coeditor_code "ly3073"
_journal_coden_Cambridge 1777
_journal_volume 74
_journal_year 2018
_journal_page_first 1038
_journal_name_full 'Acta Crystallogr.,Sect.C:Cryst.Struct.Chem. '
loop_
_publ_author_name
"A.R.Badour"
"C.J.Arnett-Butscher"
"D.K.Mohanty"
"P.J.Squattrito"
"K.J.Lambright"
"K.Kirschbaum"
_chemical_name_systematic
;
N^2^-(2-nitrophenyl)-N^1^,N^1^-bis{2-[(2-nitrophenyl)amino]ethyl}ethane-1,2-di
amine
;
_chemical_melting_point 376
_cell_volume   4712.517
_exptl_crystal_colour 'yellow'
_exptl_crystal_density_diffrn 1.436
_exptl_crystal_description 'triangular prism'
_diffrn_ambient_temperature 120
#These two values have been output from a single CSD field.
_refine_ls_R_factor_gt 0.0314
_refine_ls_wR_factor_gt 0.0314
_symmetry_cell_setting orthorhombic
_symmetry_space_group_name_H-M 'P b c a'
_symmetry_Int_Tables_number 61
loop_
_symmetry_equiv_pos_site_id
_symmetry_equiv_pos_as_xyz
1 x,y,z
2 1/2-x,-y,1/2+z
3 -x,1/2+y,1/2-z
4 1/2+x,1/2-y,-z
5 -x,-y,-z
6 -1/2+x,y,-1/2-z
7 x,-1/2-y,-1/2+z
8 -1/2-x,-1/2+y,z
_cell_length_a 7.5749(2)
_cell_length_b 13.4138(4)
_cell_length_c 46.3793(14)
_cell_angle_alpha 90
_cell_angle_beta 90
_cell_angle_gamma 90
_cell_formula_units_Z 8
loop_
_atom_type_symbol
_atom_type_radius_bond
C 0.68
H 0.23
N 0.68
O 0.68
loop_
_atom_site_label
_atom_site_type_symbol
_atom_site_fract_x
_atom_site_fract_y
_atom_site_fract_z
O1 O 0.10378(12) 1.08863(7) -0.01246(2)
O2 O 0.30627(13) 1.14180(7) -0.04137(2)
O3 O 0.78758(13) 0.54020(7) 0.12028(2)
O4 O 0.84429(12) 0.46457(6) 0.16032(2)
O5 O 0.29091(12) 1.04871(6) 0.14961(2)
O6 O 0.39256(12) 1.11208(7) 0.18916(2)
N1 N 0.18245(12) 0.84159(7) 0.09745(2)
N2 N 0.17842(14) 1.04263(7) 0.04110(2)
N3 N 0.25888(14) 1.11500(7) -0.01723(2)
N4 N 0.58206(13) 0.69789(8) 0.11960(2)
N5 N 0.77672(13) 0.53401(7) 0.14699(2)
N6 N 0.06877(13) 0.89790(7) 0.15092(2)
N7 N 0.30044(13) 1.05048(7) 0.17636(2)
C1 C 0.20183(16) 0.88416(8) 0.06863(2)
C2 C 0.13671(18) 0.99193(9) 0.06804(3)
C3 C 0.34148(16) 1.07529(8) 0.03378(2)
C4 C 0.38489(16) 1.11365(8) 0.00601(2)
C5 C 0.55501(17) 1.14786(9) -0.00052(3)
C6 C 0.68709(18) 1.14413(9) 0.01954(3)
C7 C 0.64809(18) 1.10657(9) 0.04694(3)
C8 C 0.48243(17) 1.07365(9) 0.05396(3)
C9 C 0.29142(15) 0.75279(8) 0.10129(2)
C10 C 0.48761(16) 0.77778(9) 0.10495(2)
C11 C 0.58330(14) 0.68520(8) 0.14861(2)
C12 C 0.68072(14) 0.60927(8) 0.16288(2)
C13 C 0.68717(16) 0.60277(9) 0.19294(3)
C14 C 0.59608(17) 0.66913(9) 0.20977(3)
C15 C 0.49346(16) 0.74231(9) 0.19626(3)
C16 C 0.48690(15) 0.75010(8) 0.16682(2)
C17 C -0.00235(15) 0.82235(9) 0.10512(2)
C18 C -0.02435(16) 0.81483(8) 0.13772(2)
C19 C 0.08961(14) 0.90749(8) 0.17968(2)
C20 C 0.20124(15) 0.97899(8) 0.19303(3)
C21 C 0.21675(17) 0.98492(10) 0.22306(3)
C22 C 0.12409(18) 0.92142(11) 0.24059(3)
C23 C 0.01299(17) 0.8507(1) 0.22796(3)
C24 C -0.00427(15) 0.84361(9) 0.19865(2)
H1 H 0.103(2) 1.0378(12) 0.0267(3)
H2 H 0.648(2) 0.6565(12) 0.1101(3)
H3 H 0.139(2) 0.9301(11) 0.1401(3)
H4 H 0.1409(18) 0.8448(10) 0.0537(3)
H5 H 0.3274(18) 0.8833(9) 0.0637(3)
H6 H 0.005(2) 0.9948(11) 0.0697(3)
H7 H 0.1903(19) 1.0281(11) 0.0848(3)
H8 H 0.572(2) 1.1733(11) -0.0196(3)
H9 H 0.804(2) 1.1655(12) 0.0147(3)
H10 H 0.740(2) 1.1021(11) 0.0615(3)
H11 H 0.461(2) 1.0464(11) 0.0726(3)
H12 H 0.2767(18) 0.7064(10) 0.0854(3)
H13 H 0.2520(17) 0.7198(9) 0.1188(3)
H14 H 0.5474(18) 0.7857(10) 0.0861(3)
H15 H 0.5010(18) 0.8401(11) 0.1163(3)
H16 H 0.758(2) 0.5507(11) 0.2014(3)
H17 H 0.600(2) 0.6643(11) 0.2305(3)
H18 H 0.4245(19) 0.7886(11) 0.2077(3)
H19 H 0.4179(19) 0.7999(11) 0.1586(3)
H20 H -0.0486(18) 0.7592(10) 0.0961(3)
H21 H -0.0755(18) 0.878(1) 0.0982(3)
H22 H 0.0214(18) 0.7488(10) 0.1453(3)
H23 H -0.1512(18) 0.8185(10) 0.1423(3)
H24 H 0.293(2) 1.0352(12) 0.2308(3)
H25 H 0.134(2) 0.9250(13) 0.2619(4)
H26 H -0.054(2) 0.8052(11) 0.2402(3)
H27 H -0.0815(19) 0.7948(11) 0.1908(3)
#END
