
#######################################################################
#
#                 Cambridge Crystallographic Data Centre
#                                CCDC
#
#######################################################################
#
# If this CIF has been generated from an entry in the Cambridge
# Structural Database, then it will include bibliographic, chemical,
# crystal, experimental, refinement or atomic coordinate data resulting
# from the CCDC's data processing and validation procedures.
#
#######################################################################

data_CSD_CIF_OFIJAP
_audit_creation_date 2009-01-14
_audit_creation_method CSD-ConQuest-V1
_database_code_CSD OFIJAP
_database_code_depnum_ccdc_archive 'CCDC 682449'
_chemical_formula_sum 'C58 H64 N2 O8'
_chemical_formula_moiety
;
C58 H64 N2 O8
;
_journal_coden_Cambridge 1090
_journal_volume 19
_journal_year 2008
_journal_page_first 921
_journal_name_full 'Tetrahedron:Asymm. '
loop_
_publ_author_name
"M.Serizawa"
"S.Fujinami"
"Y.Ukaji"
"K.Inomata"
_chemical_name_systematic
;
N,N'-((3R,4R)-1,6-Diphenylhexa-1,5-diyne-3,4-diyl)bis(N-(4-isopropylbenzyl)-O-
((1S',4R')-4,7,7-trimethyl-2-oxabicyclo(2.2.1)heptane-3-one-1-carbonyl)hydroxy
lamine)
;
_chemical_melting_point 421.15
_cell_volume   2533.020
_exptl_crystal_colour 'colorless'
_exptl_crystal_density_diffrn 1.202
_exptl_special_details
;
Melts with decomposition.

;
_exptl_crystal_description 'prism'
_exptl_crystal_preparation 'toluene/hexane'
_diffrn_ambient_temperature 123.2
#These two values have been output from a single CSD field.
_refine_ls_R_factor_gt 0.0817
_refine_ls_wR_factor_gt 0.0817
_symmetry_cell_setting monoclinic
_symmetry_space_group_name_H-M 'P 21'
_symmetry_Int_Tables_number 4
loop_
_symmetry_equiv_pos_site_id
_symmetry_equiv_pos_as_xyz
1 x,y,z
2 -x,1/2+y,-z
_cell_length_a 12.478(3)
_cell_length_b 13.085(3)
_cell_length_c 15.514(3)
_cell_angle_alpha 90
_cell_angle_beta 90.240(6)
_cell_angle_gamma 90
_cell_formula_units_Z 2
loop_
_atom_type_symbol
_atom_type_radius_bond
C 0.70
H 0.23
N 0.68
O 0.68
loop_
_atom_site_label
_atom_site_type_symbol
_atom_site_fract_x
_atom_site_fract_y
_atom_site_fract_z
O1 O 0.6390(2) -0.1997(5) -0.8081(1)
O2 O 0.5471(2) -0.0582(6) -0.7675(2)
O3 O 0.4299(2) -0.0656(6) -0.9146(2)
O4 O 0.3477(3) 0.0146(6) -1.0233(2)
O5 O 0.6266(2) -0.3326(5) -0.5391(1)
O6 O 0.5588(2) -0.1854(5) -0.4838(1)
O7 O 0.7068(2) -0.1924(5) -0.3532(1)
O8 O 0.7611(3) -0.1674(6) -0.2165(2)
N1 N 0.6909(2) -0.1956(6) -0.7231(1)
N2 N 0.5578(2) -0.3168(6) -0.6148(2)
C1 C 0.7197(2) -0.3024(6) -0.7062(2)
C2 C 0.6161(3) -0.3655(6) -0.6853(2)
C3 C 0.7818(2) -0.3518(6) -0.7761(2)
C4 C 0.8317(3) -0.3878(6) -0.8332(2)
C5 C 0.8972(3) -0.4293(6) -0.9020(3)
C6 C 0.9049(3) -0.3808(8) -0.9801(3)
C7 C 0.9729(4) -0.4185(9) -1.0427(3)
C8 C 1.0356(4) -0.5066(9) -1.0230(6)
C9 C 1.0241(5) -0.5498(7) -0.9524(7)
C10 C 0.9578(3) -0.5156(6) -0.8886(5)
C11 C 0.6455(4) -0.4731(6) -0.6735(2)
C12 C 0.6766(4) -0.5583(6) -0.6716(3)
C13 C 0.7254(6) -0.6584(6) -0.6769(6)
C14 C 0.7577(4) -0.6909(7) -0.7618(7)
C15 C 0.8123(6) -0.7825(7) -0.7963(6)
C16 C 0.8297(8) -0.822(1) -0.7287(6)
C17 C 0.8241(5) -0.8269(7) -0.6468(4)
C18 C 0.7511(9) -0.7183(7) -0.6084(7)
C19 C 0.7836(3) -0.1294(6) -0.7324(2)
C20 C 0.8335(3) -0.1056(6) -0.6464(2)
C21 C 0.9416(3) -0.1069(6) -0.6340(2)
C22 C 0.9887(4) -0.0777(6) -0.5571(3)
C23 C 0.9237(5) -0.0432(6) -0.4881(2)
C24 C 0.8148(5) -0.0446(6) -0.5003(2)
C25 C 0.7686(3) -0.0749(6) -0.5774(2)
C26 C 0.9824(9) -0.0081(8) -0.4040(3)
C27 C 0.9615(6) 0.1088(8) -0.3970(3)
C28 C 0.9716(8) -0.0881(10) -0.3327(5)
C29 C 0.5662(2) -0.1235(6) -0.8193(2)
C30 C 0.5236(2) -0.1303(6) -0.9104(2)
C31 C 0.4893(3) -0.2332(6) -0.9459(2)
C32 C 0.4743(3) -0.2074(6) -1.0435(2)
C33 C 0.5045(2) -0.0937(6) -1.0491(2)
C34 C 0.5972(2) -0.0848(6) -0.9808(2)
C35 C 0.4185(3) -0.0406(7) -0.9999(3)
C36 C 0.5230(3) -0.0529(6) -1.1381(2)
C37 C 0.6311(3) 0.0245(6) -0.9630(2)
C38 C 0.6956(2) -0.1487(6) -1.0014(2)
C39 C 0.4563(3) -0.3693(6) -0.5973(2)
C40 C 0.3780(3) -0.3480(6) -0.6692(2)
C41 C 0.3601(3) -0.2489(6) -0.6966(2)
C42 C 0.2893(3) -0.2278(6) -0.7622(3)
C43 C 0.2310(3) -0.3060(6) -0.8028(2)
C44 C 0.2508(3) -0.4054(6) -0.7756(2)
C45 C 0.3236(3) -0.4263(6) -0.7096(2)
C46 C 0.1480(2) -0.2841(6) -0.8725(2)
C47 C 0.1943(3) -0.2314(6) -0.9510(2)
C48 C 0.0549(3) -0.2205(6) -0.8356(3)
C49 C 0.6176(3) -0.2569(6) -0.4803(2)
C50 C 0.6912(3) -0.2842(6) -0.4060(2)
C51 C 0.8036(3) -0.3232(6) -0.4253(2)
C52 C 0.8394(4) -0.3631(6) -0.3352(2)
C53 C 0.7392(4) -0.3415(6) -0.2776(2)
C54 C 0.6459(3) -0.3601(6) -0.3395(2)
C55 C 0.7382(3) -0.2266(6) -0.2738(2)
C56 C 0.7382(6) -0.3922(7) -0.1883(3)
C57 C 0.6351(5) -0.4698(6) -0.3717(3)
C58 C 0.5364(4) -0.3266(6) -0.3031(2)
H1 H 0.76340 -0.30310 -0.65600
H2 H 0.57120 -0.36210 -0.73490
H3 H 0.86350 -0.32130 -0.99120
H4 H 0.97760 -0.38650 -1.09760
H5 H 1.08580 -0.53200 -1.06360
H6 H 1.06380 -0.61060 -0.94210
H7 H 0.95370 -0.55120 -0.83540
H8 H 0.74000 -0.64270 -0.80530
H9 H 0.82820 -0.80310 -0.85350
H10 H 0.86900 -0.88120 -0.74370
H11 H 0.85380 -0.87960 -0.61200
H12 H 0.73330 -0.70490 -0.55000
H13 H 0.83510 -0.16250 -0.76750
H14 H 0.76180 -0.06740 -0.75900
H15 H 0.98620 -0.12860 -0.67990
H16 H 1.06430 -0.08070 -0.55040
H17 H 0.76960 -0.02400 -0.45440
H18 H 0.69290 -0.07500 -0.58360
H19 H 1.05600 -0.01190 -0.41900
H20 H 0.88660 0.12090 -0.39280
H21 H 0.99640 0.13490 -0.34710
H22 H 0.98850 0.14210 -0.44670
H23 H 1.00860 -0.06540 -0.28260
H24 H 0.89790 -0.09760 -0.31960
H25 H 1.00140 -0.15100 -0.35160
H26 H 0.54320 -0.28360 -0.93740
H27 H 0.42420 -0.25580 -0.92070
H28 H 0.52050 -0.24770 -1.07810
H29 H 0.40220 -0.21790 -1.06110
H30 H 0.45880 -0.05850 -1.17090
H31 H 0.57810 -0.09120 -1.16510
H32 H 0.54370 0.01680 -1.13460
H33 H 0.56970 0.06430 -0.94970
H34 H 0.66510 0.05180 -1.01260
H35 H 0.67960 0.02570 -0.91570
H36 H 0.67450 -0.21710 -1.01280
H37 H 0.74360 -0.14740 -0.95370
H38 H 0.73030 -0.12130 -1.05070
H39 H 0.46860 -0.44090 -0.59360
H40 H 0.42760 -0.34540 -0.54440
H41 H 0.39750 -0.19430 -0.66950
H42 H 0.27970 -0.15910 -0.78050
H43 H 0.21380 -0.46020 -0.80250
H44 H 0.33580 -0.49500 -0.69230
H45 H 0.11940 -0.34780 -0.89080
H46 H 0.13980 -0.22350 -0.99340
H47 H 0.22110 -0.16620 -0.93500
H48 H 0.25090 -0.27160 -0.97380
H49 H 0.08180 -0.15750 -0.81400
H50 H 0.00380 -0.20740 -0.87980
H51 H 0.02170 -0.25730 -0.79020
H52 H 0.84890 -0.26980 -0.44490
H53 H 0.80220 -0.37660 -0.46680
H54 H 0.90040 -0.32690 -0.31480
H55 H 0.85510 -0.43410 -0.33710
H56 H 0.79950 -0.37100 -0.15650
H57 H 0.67520 -0.37250 -0.15840
H58 H 0.73930 -0.46440 -0.19480
H59 H 0.70180 -0.49220 -0.39410
H60 H 0.58210 -0.47260 -0.41580
H61 H 0.61460 -0.51280 -0.32530
H62 H 0.54120 -0.25840 -0.28260
H63 H 0.51680 -0.37060 -0.25710
H64 H 0.48360 -0.33030 -0.34740
#END
