
#######################################################################
#
#                 Cambridge Crystallographic Data Centre
#                                CCDC
#
#######################################################################
#
# If this CIF has been generated from an entry in the Cambridge
# Structural Database, then it will include bibliographic, chemical,
# crystal, experimental, refinement or atomic coordinate data resulting
# from the CCDC's data processing and validation procedures.
#
#######################################################################

data_CSD_CIF_OFIWUY
_audit_creation_date 2018-08-29
_audit_creation_method CSD-ConQuest-V1
_database_code_CSD OFIWUY
_database_code_depnum_ccdc_archive 'CCDC 964268'
_chemical_formula_sum 'C13 H11 N3 O3'
_chemical_formula_moiety
;
C13 H11 N3 O3
;
_journal_coden_Cambridge 15
_journal_volume 92
_journal_year 2014
_journal_page_first 904
_journal_name_full 'Can.J.Chem. '
loop_
_publ_author_name
"C.D.Bain"
"J.M.Bayne"
"D.Scott Bohle"
"I.S.Butler"
"J.Poisson"
_chemical_name_systematic
;
1-(2-nitrophenyl)-1-phenylurea
;
_chemical_melting_point 459
_cell_volume    601.471
_exptl_crystal_density_diffrn 1.42
_diffrn_ambient_temperature 100
#These two values have been output from a single CSD field.
_refine_ls_R_factor_gt 0.0377
_refine_ls_wR_factor_gt 0.0377
_symmetry_cell_setting triclinic
_symmetry_space_group_name_H-M 'P -1'
_symmetry_Int_Tables_number 2
loop_
_symmetry_equiv_pos_site_id
_symmetry_equiv_pos_as_xyz
1 x,y,z
2 -x,-y,-z
_cell_length_a 6.9053(11)
_cell_length_b 8.1316(13)
_cell_length_c 11.2989(17)
_cell_angle_alpha 79.233(2)
_cell_angle_beta 85.084(2)
_cell_angle_gamma 74.963(2)
_cell_formula_units_Z 2
loop_
_atom_type_symbol
_atom_type_radius_bond
C 0.68
H 0.23
N 0.68
O 0.68
loop_
_atom_site_label
_atom_site_type_symbol
_atom_site_fract_x
_atom_site_fract_y
_atom_site_fract_z
O1 O 0.40396(19) 0.65603(14) 0.20791(10)
O2 O 0.04896(13) 0.50310(12) 0.16303(8)
N1 N 0.27921(17) 0.41743(15) 0.01785(9)
H1 H 0.19820 0.47300 -0.04060
H2 H 0.40110 0.35820 0.00070
O3 O 0.2420(2) 0.80199(14) 0.34031(12)
N2 N 0.35335(14) 0.32982(13) 0.21943(8)
C1 C 0.21692(17) 0.42300(15) 0.13318(10)
N3 N 0.31177(17) 0.66557(14) 0.30434(11)
C2 C 0.28764(17) 0.50661(16) 0.38421(11)
C3 C 0.31177(17) 0.35110(16) 0.34225(10)
C4 C 0.53965(17) 0.21175(15) 0.19296(10)
C5 C 0.5401(2) 0.06455(17) 0.14821(12)
H3 H 0.41700 0.04120 0.13390
C6 C 0.7210(2) -0.04874(19) 0.12435(13)
H4 H 0.72150 -0.14860 0.09190
C7 C 0.8996(2) -0.0181(2) 0.14716(13)
H5 H 1.02310 -0.09620 0.13050
C8 C 0.2978(2) 0.20630(18) 0.42678(12)
H6 H 0.31490 0.09860 0.40090
C9 C 0.2595(2) 0.2158(2) 0.54798(12)
H7 H 0.25290 0.11480 0.60440
C10 C 0.2310(2) 0.3720(2) 0.58708(12)
H8 H 0.20220 0.37890 0.67000
C11 C 0.24435(19) 0.51684(19) 0.50553(12)
H9 H 0.22400 0.62450 0.53200
C12 C 0.71953(19) 0.24283(17) 0.21644(12)
H10 H 0.71970 0.34350 0.24760
C13 C 0.8987(2) 0.1269(2) 0.19438(14)
H11 H 1.02180 0.14710 0.21180
#END
