
#######################################################################
#
#                 Cambridge Crystallographic Data Centre
#                                CCDC
#
#######################################################################
#
# If this CIF has been generated from an entry in the Cambridge
# Structural Database, then it will include bibliographic, chemical,
# crystal, experimental, refinement or atomic coordinate data resulting
# from the CCDC's data processing and validation procedures.
#
#######################################################################

data_CSD_CIF_OFIWOP
_audit_creation_date 2002-09-17
_audit_creation_method CSD-ConQuest-V1
_database_code_CSD OFIWOP
_chemical_formula_sum 'C14 H13 N1 O1'
_chemical_formula_moiety
;
C14 H13 N1 O1
;
_journal_coden_Cambridge 65
_journal_volume 38
_journal_year 2000
_journal_page_first 807
_journal_name_full 'Indian J.Pure Appl.Phys. '
loop_
_publ_author_name
"P.Purkayastha"
"A.N.Talukdar"
_chemical_name_systematic
;
Benzyl phenyl ketoxime
;
_cell_volume   2328.196
_exptl_crystal_density_diffrn 1.205
_diffrn_ambient_temperature ?
_diffrn_special_details
;
The study was carried out at room temperature,in the range 283-303K

;
#These two values have been output from a single CSD field.
_refine_ls_R_factor_gt 0.065
_refine_ls_wR_factor_gt 0.065
_symmetry_cell_setting monoclinic
_symmetry_space_group_name_H-M 'C c'
_symmetry_Int_Tables_number 9
loop_
_symmetry_equiv_pos_site_id
_symmetry_equiv_pos_as_xyz
1 x,y,z
2 x,-y,1/2+z
3 1/2+x,1/2+y,z
4 1/2+x,1/2-y,1/2+z
_cell_length_a 23.873(5)
_cell_length_b 5.527(3)
_cell_length_c 17.713(3)
_cell_angle_alpha 90
_cell_angle_beta 95.02(2)
_cell_angle_gamma 90
_cell_formula_units_Z 8
loop_
_atom_type_symbol
_atom_type_radius_bond
C 0.68
N 0.68
O 0.68
loop_
_atom_site_label
_atom_site_type_symbol
_atom_site_fract_x
_atom_site_fract_y
_atom_site_fract_z
O1 O 0.3294(1) 1.0297(5) 0.3684(1)
N1 N 0.3195(1) 1.0365(5) 0.4453(1)
C1 C 0.2903(1) 1.2203(5) 0.4629(2)
C2 C 0.2784(1) 1.2373(6) 0.5444(2)
C3 C 0.2460(2) 1.4143(9) 0.5705(2)
C4 C 0.2363(2) 1.4306(9) 0.6461(3)
C5 C 0.2578(2) 1.2695(9) 0.6973(2)
C6 C 0.3048(8) 1.1054(3) 0.6745(8)
C7 C 0.3075(9) 1.0875(3) 0.6048(8)
C8 C 0.2702(1) 1.4158(6) 0.4076(2)
C9 C 0.2102(1) 1.3799(5) 0.3735(2)
C10 C 0.1954(2) 1.1851(8) 0.3288(3)
C11 C 0.1415(2) 1.1589(10) 0.2951(3)
C12 C 0.1015(2) 1.3292(12) 0.3069(4)
C13 C 0.1157(2) 1.5256(9) 0.3521(4)
C14 C 0.1707(2) 1.5554(9) 0.3847(3)
O2 O 0.3939(1) 0.6604(5) 0.4874(1)
N2 N 0.4009(1) 0.6391(5) 0.4102(1)
C15 C 0.4299(1) 0.4529(5) 0.3944(2)
C16 C 0.4395(1) 0.4216(6) 0.3131(2)
C17 C 0.4846(4) 0.3079(9) 0.2877(4)
C18 C 0.4933(4) 0.2837(9) 0.2122(5)
C19 C 0.4575(2) 0.3659(12) 0.1603(3)
C20 C 0.4520(8) 0.5875(10) 0.1946(7)
C21 C 0.4416(5) 0.6166(9) 0.2690(6)
C22 C 0.4527(1) 0.2763(6) 0.4533(2)
C23 C 0.5420(2) 0.5304(7) 0.4723(2)
C24 C 0.5957(2) 0.5689(8) 0.5082(3)
C25 C 0.6187(2) 0.4127(10) 0.5604(3)
C26 C 0.5892(2) 0.2101(9) 0.5784(3)
C27 C 0.5353(2) 0.1685(8) 0.5429(2)
C28 C 0.5112(1) 0.3289(5) 0.4897(2)
#END
