
#######################################################################
#
#                 Cambridge Crystallographic Data Centre
#                                CCDC
#
#######################################################################
#
# If this CIF has been generated from an entry in the Cambridge
# Structural Database, then it will include bibliographic, chemical,
# crystal, experimental, refinement or atomic coordinate data resulting
# from the CCDC's data processing and validation procedures.
#
#######################################################################

data_CSD_CIF_OFIXEJ
_audit_creation_date 2018-08-29
_audit_creation_method CSD-ConQuest-V1
_database_code_CSD OFIXEJ
_database_code_depnum_ccdc_archive 'CCDC 964271'
_chemical_formula_sum 'C15 H13 N3 O5'
_chemical_formula_moiety
;
C15 H13 N3 O5
;
_journal_coden_Cambridge 15
_journal_volume 92
_journal_year 2014
_journal_page_first 904
_journal_name_full 'Can.J.Chem. '
loop_
_publ_author_name
"C.D.Bain"
"J.M.Bayne"
"D.Scott Bohle"
"I.S.Butler"
"J.Poisson"
_chemical_name_systematic
;
methyl 4-(carbamoyl(2-nitrophenyl)amino)benzoate
;
_chemical_name_common
;
Methyl 4-(1-(2-nitrophenyl)ureido)benzoate
;
_chemical_melting_point 493
_cell_volume    751.453
_exptl_crystal_colour 'orange'
_exptl_crystal_density_diffrn 1.393
_exptl_crystal_description 'prism'
_diffrn_ambient_temperature 100
#These two values have been output from a single CSD field.
_refine_ls_R_factor_gt 0.041
_refine_ls_wR_factor_gt 0.041
_symmetry_cell_setting triclinic
_symmetry_space_group_name_H-M 'P -1'
_symmetry_Int_Tables_number 2
loop_
_symmetry_equiv_pos_site_id
_symmetry_equiv_pos_as_xyz
1 x,y,z
2 -x,-y,-z
_cell_length_a 7.7722(8)
_cell_length_b 10.1203(11)
_cell_length_c 10.6799(11)
_cell_angle_alpha 102.479(1)
_cell_angle_beta 103.182(1)
_cell_angle_gamma 105.813(1)
_cell_formula_units_Z 2
loop_
_atom_type_symbol
_atom_type_radius_bond
C 0.68
H 0.23
N 0.68
O 0.68
loop_
_atom_site_label
_atom_site_type_symbol
_atom_site_fract_x
_atom_site_fract_y
_atom_site_fract_z
O1 O 0.80662(17) -0.13807(12) 0.53075(12)
O2 O 0.7312(2) 0.86551(14) 0.85403(17)
O3 O 0.61239(17) 0.65921(15) 0.70131(14)
N1 N 0.53198(18) 0.37308(13) 0.86417(13)
H1 H 0.45480 0.37470 0.91280
H2 H 0.51290 0.29390 0.80110
O4 O 0.67160(18) -0.09360(12) 0.34303(12)
N2 N 0.7434(2) 0.75422(16) 0.79075(16)
C1 C 0.6777(2) 0.49041(15) 0.88601(14)
O5 O 0.71255(14) 0.60462(10) 0.97249(10)
C2 C 0.7949(3) -0.27809(18) 0.4524(2)
H3 H 0.84950 -0.32660 0.51260
H4 H 0.86420 -0.26640 0.38720
H5 H 0.66300 -0.33600 0.40440
C3 C 0.7382(2) -0.05729(16) 0.46369(16)
C4 C 0.7526(2) 0.08174(15) 0.55466(15)
C5 C 0.8141(2) 0.11253(16) 0.69338(16)
H6 H 0.84750 0.04350 0.73220
C6 C 0.8270(2) 0.24280(16) 0.77576(15)
H7 H 0.86930 0.26340 0.87090
C7 C 0.7783(2) 0.34274(15) 0.71937(14)
N3 N 0.79326(17) 0.47909(12) 0.80468(12)
C8 C 0.9453(2) 0.60206(15) 0.81701(13)
C9 C 0.9277(2) 0.73576(16) 0.81917(15)
C10 C 1.0814(2) 0.85583(18) 0.84257(18)
H8 H 1.06680 0.94700 0.84910
C11 C 1.2562(2) 0.8427(2) 0.85632(18)
H9 H 1.36220 0.92430 0.87050
C12 C 1.2757(2) 0.7112(2) 0.84939(18)
H10 H 1.39540 0.70130 0.85670
C13 C 1.1231(2) 0.59251(18) 0.83184(16)
H11 H 1.14030 0.50280 0.82990
C14 C 0.7024(2) 0.18259(16) 0.49863(15)
H12 H 0.65840 0.16170 0.40350
C15 C 0.7161(2) 0.31321(16) 0.58072(14)
H13 H 0.68310 0.38260 0.54220
#END
