
#######################################################################
#
#                 Cambridge Crystallographic Data Centre
#                                CCDC
#
#######################################################################
#
# If this CIF has been generated from an entry in the Cambridge
# Structural Database, then it will include bibliographic, chemical,
# crystal, experimental, refinement or atomic coordinate data resulting
# from the CCDC's data processing and validation procedures.
#
#######################################################################

data_CSD_CIF_OFIXAF
_audit_creation_date 2018-08-29
_audit_creation_method CSD-ConQuest-V1
_database_code_CSD OFIXAF
_database_code_depnum_ccdc_archive 'CCDC 964269'
_chemical_formula_sum 'C12 H11 N3 O2'
_chemical_formula_moiety
;
C12 H11 N3 O2
;
_journal_coden_Cambridge 15
_journal_volume 92
_journal_year 2014
_journal_page_first 904
_journal_name_full 'Can.J.Chem. '
loop_
_publ_author_name
"C.D.Bain"
"J.M.Bayne"
"D.Scott Bohle"
"I.S.Butler"
"J.Poisson"
_chemical_name_systematic
;
1-(2-nitrophenyl)-1-phenylhydrazine
;
_chemical_melting_point 359
_cell_volume   1109.566
_exptl_crystal_density_diffrn 1.372
_diffrn_ambient_temperature 100
#These two values have been output from a single CSD field.
_refine_ls_R_factor_gt 0.0339
_refine_ls_wR_factor_gt 0.0339
_symmetry_cell_setting orthorhombic
_symmetry_space_group_name_H-M 'P n a 21'
_symmetry_Int_Tables_number 33
loop_
_symmetry_equiv_pos_site_id
_symmetry_equiv_pos_as_xyz
1 x,y,z
2 -x,-y,1/2+z
3 1/2-x,1/2+y,1/2+z
4 1/2+x,1/2-y,z
_cell_length_a 9.9468(10)
_cell_length_b 14.1301(13)
_cell_length_c 7.8945(8)
_cell_angle_alpha 90
_cell_angle_beta 90
_cell_angle_gamma 90
_cell_formula_units_Z 4
loop_
_atom_type_symbol
_atom_type_radius_bond
C 0.68
H 0.23
N 0.68
O 0.68
loop_
_atom_site_label
_atom_site_type_symbol
_atom_site_fract_x
_atom_site_fract_y
_atom_site_fract_z
O1 O 0.69406(11) 0.20571(8) 0.23951(18)
O2 O 0.55952(12) 0.28556(7) 0.3966(2)
N1 N 0.74530(11) 0.04798(8) 0.4687(2)
N2 N 0.60160(12) 0.21061(9) 0.34043(17)
N3 N 0.78581(14) 0.13018(10) 0.5577(2)
C1 C 0.32538(15) 0.04006(13) 0.4033(2)
H1 H 0.23030 0.03870 0.39220
C2 C 0.39510(14) 0.12269(12) 0.3753(2)
H2 H 0.34840 0.17900 0.34620
C3 C 0.53350(13) 0.12313(10) 0.3898(2)
C4 C 0.60655(13) 0.04324(10) 0.43923(18)
C5 C 0.83266(13) -0.03048(10) 0.4539(2)
C6 C 0.94687(14) -0.03611(12) 0.5554(2)
H3 H 0.96460 0.01180 0.63680
C7 C 1.03432(16) -0.11130(14) 0.5378(3)
H4 H 1.11220 -0.11450 0.60720
C8 C 1.0104(2) -0.18125(13) 0.4221(3)
H5 H 1.07050 -0.23320 0.41210
C9 C 0.39458(16) -0.04048(12) 0.4475(2)
H6 H 0.34700 -0.09800 0.46430
C10 C 0.53265(14) -0.03870(11) 0.4679(2)
H7 H 0.57800 -0.09470 0.50220
C11 C 0.8979(2) -0.17576(12) 0.3197(3)
H8 H 0.88100 -0.22410 0.23890
C12 C 0.80974(17) -0.10043(11) 0.3339(2)
H9 H 0.73360 -0.09660 0.26170
H10 H 0.814(3) 0.1076(16) 0.669(4)
H11 H 0.865(2) 0.1499(14) 0.506(3)
#END
