
#######################################################################
#
#                 Cambridge Crystallographic Data Centre
#                                CCDC
#
#######################################################################
#
# If this CIF has been generated from an entry in the Cambridge
# Structural Database, then it will include bibliographic, chemical,
# crystal, experimental, refinement or atomic coordinate data resulting
# from the CCDC's data processing and validation procedures.
#
#######################################################################

data_CSD_CIF_OFOLUQ
_audit_creation_date 2002-09-17
_audit_creation_method CSD-ConQuest-V1
_database_code_CSD OFOLUQ
_database_code_depnum_ccdc_archive 'CCDC 180443'
_chemical_formula_sum 'C28 H21 N3 O2'
_chemical_formula_moiety
;
C28 H21 N3 O2
;
_journal_coden_Cambridge 16
_journal_volume 58
_journal_year 2002
_journal_page_first 3709
_journal_name_full 'Tetrahedron '
loop_
_publ_author_name
"J.Bloxham"
"C.J.Moody"
"A.M.Z.Slawin"
_chemical_name_systematic
;
1-(4-(Carbazol-9-ylmethyl)benzyl)-5-nitroindole
;
_chemical_melting_point 458.15
_cell_volume   2163.592
_exptl_crystal_colour 'yellow'
_exptl_crystal_density_diffrn 1.324
_exptl_special_details
;
Melting point range 458.15-458.15K

;
_exptl_crystal_description 'prism'
_exptl_crystal_preparation 'toluene'
_diffrn_ambient_temperature 293.2
#These two values have been output from a single CSD field.
_refine_ls_R_factor_gt 0.0334
_refine_ls_wR_factor_gt 0.0334
_symmetry_cell_setting monoclinic
_symmetry_space_group_name_H-M 'P 21/a'
_symmetry_Int_Tables_number 14
loop_
_symmetry_equiv_pos_site_id
_symmetry_equiv_pos_as_xyz
1 x,y,z
2 1/2+x,1/2-y,z
3 -x,-y,-z
4 -1/2-x,-1/2+y,-z
_cell_length_a 9.453(1)
_cell_length_b 16.305(2)
_cell_length_c 14.413(2)
_cell_angle_alpha 90
_cell_angle_beta 103.11(1)
_cell_angle_gamma 90
_cell_formula_units_Z 4
loop_
_atom_type_symbol
_atom_type_radius_bond
C 0.68
H 0.23
N 0.68
O 0.68
loop_
_atom_site_label
_atom_site_type_symbol
_atom_site_fract_x
_atom_site_fract_y
_atom_site_fract_z
O1 O 0.8041(4) 0.6100(2) 0.3840(2)
O2 O 0.6564(3) 0.5903(2) 0.2493(2)
N1 N 0.4741(3) 0.3127(2) 0.4948(2)
N2 N 0.7043(4) 0.5724(2) 0.3336(3)
N3 N 0.5150(3) 0.0208(2) 0.1348(2)
C1 C 0.6031(5) 0.1501(3) 0.0731(3)
C2 C 0.7168(7) 0.1818(3) 0.0401(3)
C3 C 0.5680(5) 0.3121(3) 0.5838(3)
C4 C 0.8373(6) 0.1355(4) 0.0341(3)
C5 C 0.6649(4) 0.3731(3) 0.5903(3)
C6 C 0.8491(4) 0.0546(3) 0.0631(3)
C7 C 0.6973(4) 0.4811(2) 0.4653(3)
C8 C 0.6340(4) 0.4162(2) 0.5019(2)
C9 C 0.7339(4) 0.0204(3) 0.0963(2)
C10 C 0.7072(4) -0.0604(2) 0.1278(2)
C11 C 0.6361(4) 0.5058(2) 0.3739(3)
C12 C 0.7820(4) -0.1344(3) 0.1369(3)
C13 C 0.5152(5) 0.4679(3) 0.3175(2)
C14 C 0.7217(5) -0.2024(3) 0.1692(3)
C15 C 0.5889(5) -0.1979(3) 0.1939(3)
C16 C 0.4524(4) 0.4030(3) 0.3522(3)
C17 C 0.5140(4) 0.3761(2) 0.4443(3)
C18 C 0.5117(4) -0.1259(3) 0.1861(3)
C19 C 0.5712(4) -0.0574(2) 0.1520(2)
C20 C 0.6135(5) 0.0688(2) 0.1011(2)
C21 C 0.3726(4) 0.0475(2) 0.1430(3)
C22 C 0.3721(4) 0.1022(2) 0.2271(3)
C23 C 0.4756(4) 0.0966(2) 0.3119(3)
C24 C 0.2627(4) 0.1577(3) 0.2221(3)
C25 C 0.2564(4) 0.2087(3) 0.2984(3)
C26 C 0.4679(4) 0.1471(3) 0.3877(3)
C27 C 0.3595(5) 0.2040(2) 0.3820(3)
C28 C 0.3497(5) 0.2597(3) 0.4650(3)
H1 H 0.51940 0.18250 0.07450
H2 H 0.71250 0.23790 0.02130
H3 H 0.56420 0.27330 0.63310
H4 H 0.91170 0.16030 0.00860
H5 H 0.74040 0.38500 0.64460
H6 H 0.93380 0.02320 0.06190
H7 H 0.78160 0.50720 0.50190
H8 H 0.87430 -0.13840 0.12120
H9 H 0.77200 -0.25370 0.17440
H10 H 0.47700 0.48630 0.25400
H11 H 0.54990 -0.24590 0.21740
H12 H 0.36790 0.37780 0.31460
H13 H 0.42090 -0.12290 0.20360
H14 H 0.31720 -0.00050 0.14910
H15 H 0.32780 0.07560 0.08630
H16 H 0.55220 0.05710 0.31940
H17 H 0.18840 0.16100 0.16560
H18 H 0.54010 0.14320 0.44530
H19 H 0.18000 0.24850 0.29150
H20 H 0.34260 0.22590 0.51780
H21 H 0.26540 0.29230 0.44700
#END
