
#######################################################################
#
#                 Cambridge Crystallographic Data Centre
#                                CCDC
#
#######################################################################
#
# If this CIF has been generated from an entry in the Cambridge
# Structural Database, then it will include bibliographic, chemical,
# crystal, experimental, refinement or atomic coordinate data resulting
# from the CCDC's data processing and validation procedures.
#
#######################################################################

data_CSD_CIF_OFOMOL
_audit_creation_date 2002-09-17
_audit_creation_method CSD-ConQuest-V1
_database_code_CSD OFOMOL
_database_code_depnum_ccdc_archive 'CCDC 180447'
_chemical_formula_sum 'C21 H16 N2 O4'
_chemical_formula_moiety
;
C21 H16 N2 O4
;
_journal_coden_Cambridge 16
_journal_volume 58
_journal_year 2002
_journal_page_first 3709
_journal_name_full 'Tetrahedron '
loop_
_publ_author_name
"J.Bloxham"
"C.J.Moody"
"A.M.Z.Slawin"
_chemical_name_systematic
;
2-(Carbazol-9-yl)ethyl 4-nitrobenzoate
;
_chemical_melting_point 446.15
_cell_volume   3509.719
_exptl_crystal_colour 'yellow'
_exptl_crystal_density_diffrn 1.364
_exptl_special_details
;
Melting point range 446.15-447.15K

;
_exptl_crystal_description 'plate'
_exptl_crystal_preparation 'toluene'
_diffrn_ambient_temperature 293.2
#These two values have been output from a single CSD field.
_refine_ls_R_factor_gt 0.0275
_refine_ls_wR_factor_gt 0.0275
_symmetry_cell_setting monoclinic
_symmetry_space_group_name_H-M 'P 21/c'
_symmetry_Int_Tables_number 14
loop_
_symmetry_equiv_pos_site_id
_symmetry_equiv_pos_as_xyz
1 x,y,z
2 x,1/2-y,1/2+z
3 -x,-y,-z
4 -x,-1/2+y,-1/2-z
_cell_length_a 18.651(2)
_cell_length_b 8.453(1)
_cell_length_c 22.294(2)
_cell_angle_alpha 90
_cell_angle_beta 93.082(9)
_cell_angle_gamma 90
_cell_formula_units_Z 8
loop_
_atom_type_symbol
_atom_type_radius_bond
C 0.68
H 0.23
N 0.68
O 0.68
loop_
_atom_site_label
_atom_site_type_symbol
_atom_site_fract_x
_atom_site_fract_y
_atom_site_fract_z
O1 O -0.1135(3) 0.2749(6) 0.2429(2)
O2 O -0.2260(2) 0.3573(8) 0.2447(2)
O3 O -0.1945(3) 0.6555(7) -0.0408(2)
O4 O -0.0889(3) 0.5524(8) -0.0432(2)
O5 O -0.4606(3) 0.3995(6) 0.1705(2)
O6 O -0.4033(3) 0.5111(7) 0.0950(2)
O7 O -0.7274(4) 0.8022(9) -0.0185(3)
O8 O -0.7797(3) 0.713(1) 0.0596(4)
N1 N 0.0160(3) 0.2074(8) 0.3184(3)
N2 N -0.1447(4) 0.5783(9) -0.0184(3)
N3 N -0.4423(4) 0.3503(8) 0.2967(3)
N4 N -0.7279(6) 0.729(1) 0.0300(5)
C1 C 0.0527(4) 0.152(1) 0.2136(5)
C2 C 0.1060(6) 0.182(1) 0.1745(4)
C3 C 0.1643(5) 0.278(1) 0.1918(5)
C4 C 0.1177(5) 0.316(1) 0.2882(4)
C5 C 0.1099(5) 0.363(1) 0.3490(4)
C6 C 0.1706(5) 0.342(1) 0.2482(5)
C7 C 0.1488(5) 0.457(1) 0.3904(5)
C8 C 0.1258(5) 0.469(1) 0.4474(5)
C9 C 0.0625(5) 0.397(1) 0.4636(4)
C10 C 0.0214(4) 0.308(1) 0.4225(4)
C11 C 0.0456(5) 0.295(1) 0.3651(4)
C12 C 0.0588(5) 0.219(1) 0.2705(4)
C13 C -0.0515(4) 0.1196(9) 0.3186(3)
C14 C -0.1166(4) 0.222(1) 0.3042(4)
C15 C -0.1711(5) 0.344(1) 0.2195(4)
C16 C -0.1627(4) 0.4045(9) 0.1568(4)
C17 C -0.2162(4) 0.494(1) 0.1298(4)
C18 C -0.1008(4) 0.3741(9) 0.1270(4)
C19 C -0.0954(4) 0.432(1) 0.0690(4)
C20 C -0.2118(4) 0.5521(9) 0.0720(4)
C21 C -0.1502(4) 0.518(1) 0.0435(4)
C22 C -0.5690(5) 0.269(1) 0.2704(3)
C23 C -0.6379(5) 0.283(1) 0.2884(4)
C24 C -0.6529(4) 0.366(1) 0.3395(5)
C25 C -0.6007(6) 0.445(1) 0.3733(4)
C26 C -0.4620(5) 0.498(1) 0.3786(4)
C27 C -0.5305(5) 0.436(1) 0.3562(4)
C28 C -0.4419(5) 0.589(1) 0.4285(4)
C29 C -0.3694(6) 0.623(1) 0.4393(4)
C30 C -0.3189(4) 0.569(1) 0.4014(5)
C31 C -0.4100(5) 0.4418(9) 0.3418(4)
C32 C -0.3369(5) 0.476(1) 0.3513(4)
C33 C -0.5159(5) 0.348(1) 0.3053(4)
C34 C -0.4062(4) 0.259(1) 0.2528(4)
C35 C -0.3925(4) 0.350(1) 0.1965(4)
C36 C -0.4575(5) 0.483(1) 0.1189(4)
C37 C -0.5291(5) 0.542(1) 0.0971(4)
C38 C -0.5918(5) 0.5023(9) 0.1228(4)
C39 C -0.5327(5) 0.639(1) 0.0467(4)
C40 C -0.5984(7) 0.699(1) 0.0252(4)
C41 C -0.6575(5) 0.560(1) 0.1026(5)
C42 C -0.6590(6) 0.657(1) 0.0526(5)
H1 H 0.01210 0.08890 0.20180
H2 H 0.10360 0.13630 0.13540
H3 H 0.19960 0.29910 0.16420
H4 H 0.21180 0.40440 0.26010
H5 H 0.18980 0.51330 0.37940
H6 H 0.15310 0.52640 0.47740
H7 H 0.04660 0.40640 0.50370
H8 H -0.02170 0.25860 0.43300
H9 H -0.05020 0.03870 0.28940
H10 H -0.05580 0.07500 0.35710
H11 H -0.11700 0.31030 0.33030
H12 H -0.15940 0.16150 0.30840
H13 H -0.25680 0.52080 0.15140
H14 H -0.06270 0.31620 0.14620
H15 H -0.24960 0.61150 0.05230
H16 H -0.05360 0.41220 0.04730
H17 H -0.55740 0.20950 0.23610
H18 H -0.67640 0.23270 0.26550
H19 H -0.70040 0.36980 0.35220
H20 H -0.61320 0.50700 0.40730
H21 H -0.47680 0.62600 0.45480
H22 H -0.35470 0.68610 0.47300
H23 H -0.26970 0.59680 0.40980
H24 H -0.30180 0.43630 0.32530
H25 H -0.36200 0.22350 0.27060
H26 H -0.43610 0.17010 0.24270
H27 H -0.36970 0.28260 0.16890
H28 H -0.36320 0.43850 0.20550
H29 H -0.58920 0.43030 0.15570
H30 H -0.48940 0.66320 0.02690
H31 H -0.60030 0.77000 -0.00840
H32 H -0.70030 0.53530 0.12150
#END
