
#######################################################################
#
#                 Cambridge Crystallographic Data Centre
#                                CCDC
#
#######################################################################
#
# If this CIF has been generated from an entry in the Cambridge
# Structural Database, then it will include bibliographic, chemical,
# crystal, experimental, refinement or atomic coordinate data resulting
# from the CCDC's data processing and validation procedures.
#
#######################################################################

data_CSD_CIF_OFOQAB
_audit_creation_date 2002-09-17
_audit_creation_method CSD-ConQuest-V1
_database_code_CSD OFOQAB
_database_code_depnum_ccdc_archive 'CCDC 175174'
_chemical_formula_sum 'C34 H60 N2 O2'
_chemical_formula_moiety
;
C34 H60 N2 O2
;
_journal_coden_Cambridge 1291
_journal_year 2002
_journal_page_first 1803
_journal_name_full 'Eur.J.Org.Chem. '
loop_
_publ_author_name
"J.Leitich"
"I.Heise"
"K.Angermund"
"J.Rust"
_chemical_name_systematic
;
(1S*,1'R*,4R*,4'S*)-(Z,Z)-4,4'-bis(2,2,6,6-Tetramethylpiperidinyloxy)-bicyclo-
octyl-2,2'-diene
;
_chemical_melting_point 461
_cell_volume   1576.180
_exptl_crystal_colour 'colorless'
_exptl_crystal_density_diffrn 1.114
_exptl_special_details
;
Melting point range 461-462K

;
_exptl_crystal_description 'plate'
_exptl_crystal_preparation 'pentane/ether'
_diffrn_ambient_temperature 173
#These two values have been output from a single CSD field.
_refine_ls_R_factor_gt 0.069
_refine_ls_wR_factor_gt 0.069
_symmetry_cell_setting monoclinic
_symmetry_space_group_name_H-M 'P 21/c'
_symmetry_Int_Tables_number 14
loop_
_symmetry_equiv_pos_site_id
_symmetry_equiv_pos_as_xyz
1 x,y,z
2 x,1/2-y,1/2+z
3 -x,-y,-z
4 -x,-1/2+y,-1/2-z
_cell_length_a 11.4775(4)
_cell_length_b 13.1321(5)
_cell_length_c 10.8253(3)
_cell_angle_alpha 90
_cell_angle_beta 104.980(2)
_cell_angle_gamma 90
_cell_formula_units_Z 2
loop_
_atom_type_symbol
_atom_type_radius_bond
C 0.68
H 0.23
N 0.68
O 0.68
loop_
_atom_site_label
_atom_site_type_symbol
_atom_site_fract_x
_atom_site_fract_y
_atom_site_fract_z
C1 C 0.4280(2) 0.08321(17) 0.3021(2)
C2 C 0.4836(2) -0.01622(18) 0.2803(2)
C3 C 0.5200(2) -0.03777(18) 0.1765(2)
C4 C 0.5060(2) 0.03137(17) 0.0618(2)
C5 C 0.6123(2) 0.10713(18) 0.0837(2)
C6 C 0.6120(2) 0.19393(18) 0.1785(2)
C7 C 0.6378(2) 0.1654(2) 0.3211(2)
C8 C 0.5262(2) 0.15591(19) 0.3748(2)
C9 C 0.1433(2) 0.01146(19) 0.2626(2)
C10 C 0.0159(2) 0.0511(2) 0.2025(3)
C11 C -0.0341(2) 0.1184(2) 0.2916(3)
C12 C 0.0526(2) 0.2051(2) 0.3380(3)
C13 C 0.1816(2) 0.17086(19) 0.4045(2)
C14 C 0.1905(3) -0.0364(2) 0.1557(3)
C15 C 0.1431(2) -0.0719(2) 0.3624(3)
C16 C 0.2630(2) 0.2642(2) 0.4225(3)
C17 C 0.1882(3) 0.1252(2) 0.5367(2)
H1 H 0.385(2) 0.1119(18) 0.218(2)
H2 H 0.5031(19) -0.0613(17) 0.349(2)
H3 H 0.567(2) -0.1006(18) 0.171(2)
H4 H 0.4328(19) 0.0696(16) 0.0508(19)
H5 H 0.687(2) 0.0695(18) 0.112(2)
H6 H 0.609(2) 0.140(2) -0.002(2)
H7 H 0.674(2) 0.243(2) 0.168(3)
H8 H 0.536(2) 0.2335(18) 0.153(2)
H9 H 0.692(2) 0.218(2) 0.371(3)
H10 H 0.685(2) 0.104(2) 0.335(2)
H11 H 0.487(2) 0.226(2) 0.377(2)
H12 H 0.554(2) 0.132(2) 0.463(3)
H13 H 0.016(2) 0.093(2) 0.126(3)
H14 H -0.040(3) -0.007(2) 0.174(3)
H15 H -0.049(2) 0.0774(19) 0.367(3)
H16 H -0.113(3) 0.143(2) 0.244(3)
H17 H 0.025(2) 0.246(2) 0.397(2)
H18 H 0.055(2) 0.253(2) 0.263(3)
H19 H 0.199(3) 0.015(2) 0.093(3)
H20 H 0.132(2) -0.087(2) 0.107(3)
H21 H 0.267(3) -0.073(2) 0.185(3)
H22 H 0.110(3) -0.139(2) 0.321(3)
H23 H 0.223(2) -0.085(2) 0.417(3)
H24 H 0.090(2) -0.0577(19) 0.422(3)
H25 H 0.266(2) 0.292(2) 0.334(3)
H26 H 0.345(2) 0.251(2) 0.474(2)
H27 H 0.232(2) 0.317(2) 0.466(3)
H28 H 0.115(3) 0.077(2) 0.539(3)
H29 H 0.184(3) 0.180(2) 0.598(3)
H30 H 0.262(3) 0.090(2) 0.573(2)
N1 N 0.22059(16) 0.10219(15) 0.31153(17)
O1 O 0.34087(13) 0.06583(12) 0.37701(14)
C4B C 0.4940(2) -0.03137(17) -0.0618(2)
C3B C 0.4800(2) 0.03777(18) -0.1765(2)
C2B C 0.5164(2) 0.01622(18) -0.2803(2)
C1B C 0.5720(2) -0.08321(17) -0.3021(2)
C8B C 0.4738(2) -0.15591(19) -0.3748(2)
C7B C 0.3622(2) -0.1654(2) -0.3211(2)
C6B C 0.3880(2) -0.19393(18) -0.1785(2)
C5B C 0.3877(2) -0.10713(18) -0.0837(2)
H4B H 0.5672(19) -0.0696(16) -0.0508(19)
H5B H 0.313(2) -0.0695(18) -0.112(2)
H6B H 0.391(2) -0.140(2) 0.002(2)
H7B H 0.326(2) -0.243(2) -0.168(3)
H8B H 0.464(2) -0.2335(18) -0.153(2)
H9B H 0.308(2) -0.218(2) -0.371(3)
H10B H 0.315(2) -0.104(2) -0.335(2)
H11B H 0.513(2) -0.226(2) -0.377(2)
H12B H 0.446(2) -0.132(2) -0.463(3)
H1B H 0.615(2) -0.1119(18) -0.218(2)
O1B O 0.65913(13) -0.06583(12) -0.37701(14)
N1B N 0.77941(16) -0.10219(15) -0.31153(17)
C9B C 0.8567(2) -0.01146(19) -0.2626(2)
C10B C 0.9841(2) -0.0511(2) -0.2025(3)
C11B C 1.0341(2) -0.1184(2) -0.2916(3)
C12B C 0.9474(2) -0.2051(2) -0.3380(3)
C13B C 0.8184(2) -0.17086(19) -0.4045(2)
C16B C 0.7370(2) -0.2642(2) -0.4225(3)
H25B H 0.734(2) -0.292(2) -0.334(3)
H26B H 0.655(2) -0.251(2) -0.474(2)
H27B H 0.768(2) -0.317(2) -0.466(3)
C17B C 0.8118(3) -0.1252(2) -0.5367(2)
H28B H 0.885(3) -0.077(2) -0.539(3)
H29B H 0.816(3) -0.180(2) -0.598(3)
H30B H 0.738(3) -0.090(2) -0.573(2)
H17B H 0.975(2) -0.246(2) -0.397(2)
H18B H 0.945(2) -0.253(2) -0.263(3)
H15B H 1.049(2) -0.0774(19) -0.367(3)
H16B H 1.113(3) -0.143(2) -0.244(3)
H13B H 0.984(2) -0.093(2) -0.126(3)
H14B H 1.040(3) 0.007(2) -0.174(3)
C14B C 0.8095(3) 0.0364(2) -0.1557(3)
H19B H 0.801(3) -0.015(2) -0.093(3)
H20B H 0.868(2) 0.087(2) -0.107(3)
H21B H 0.733(3) 0.073(2) -0.185(3)
C15B C 0.8569(2) 0.0719(2) -0.3624(3)
H22B H 0.890(3) 0.139(2) -0.321(3)
H23B H 0.777(2) 0.085(2) -0.417(3)
H24B H 0.910(2) 0.0577(19) -0.422(3)
H2B H 0.4969(19) 0.0613(17) -0.349(2)
H3B H 0.433(2) 0.1006(18) -0.171(2)
#END
