
#######################################################################
#
#                 Cambridge Crystallographic Data Centre
#                                CCDC
#
#######################################################################
#
# If this CIF has been generated from an entry in the Cambridge
# Structural Database, then it will include bibliographic, chemical,
# crystal, experimental, refinement or atomic coordinate data resulting
# from the CCDC's data processing and validation procedures.
#
#######################################################################

data_CSD_CIF_OFOREJ
_audit_creation_date 2018-08-29
_audit_creation_method CSD-ConQuest-V1
_database_code_CSD OFOREJ
_database_code_depnum_ccdc_archive 'CCDC 1555836'
_chemical_formula_sum 'C24 H35 N1 O2'
_chemical_formula_moiety
;
C24 H35 N1 O2
;
_journal_coden_Cambridge 96
_journal_volume 65
_journal_year 2017
_journal_page_first 9013
_journal_name_full 'J.Agric.Food Chem. '
loop_
_publ_author_name
"Shasha Zhang"
"Dangdang Li"
"Zehua Song"
"Lu Zhang"
"Chuanli Zang"
"Guotong Wang"
"Shengkun Li"
_chemical_name_systematic
;
2,5,5,8a-tetramethyl-1-[(5-phenyl-4,5-dihydro-1,2-oxazol-3-yl)methyl]decahydro
naphthalen-2-ol
;
_cell_volume   1051.296
_exptl_crystal_colour 'colorless'
_exptl_crystal_density_diffrn 1.167
_exptl_special_details
;
Absolute configuration

;
_exptl_crystal_description 'block'
_diffrn_ambient_temperature 100.0
#These two values have been output from a single CSD field.
_refine_ls_R_factor_gt 0.0386
_refine_ls_wR_factor_gt 0.0386
_symmetry_cell_setting monoclinic
_symmetry_space_group_name_H-M 'P 21'
_symmetry_Int_Tables_number 4
loop_
_symmetry_equiv_pos_site_id
_symmetry_equiv_pos_as_xyz
1 x,y,z
2 -x,1/2+y,-z
_cell_length_a 9.67127(7)
_cell_length_b 7.05127(7)
_cell_length_c 15.44464(12)
_cell_angle_alpha 90
_cell_angle_beta 93.4847(6)
_cell_angle_gamma 90
_cell_formula_units_Z 2
loop_
_atom_type_symbol
_atom_type_radius_bond
C 0.68
H 0.23
N 0.68
O 0.68
loop_
_atom_site_label
_atom_site_type_symbol
_atom_site_fract_x
_atom_site_fract_y
_atom_site_fract_z
O1 O 0.37096(14) 0.8607(2) 0.03508(9)
O2 O 0.62355(13) 0.1158(2) 0.17928(8)
H1 H 0.57090 0.03170 0.16110
N1 N 0.46158(16) 0.7925(2) 0.10513(10)
C1 C 0.44327(17) 0.6148(3) 0.11437(11)
C2 C 0.46468(17) 0.3488(3) 0.23201(11)
H2 H 0.39780 0.28610 0.19130
C3 C 0.57396(18) 0.1942(3) 0.25796(12)
C4 C 0.31055(18) 0.2430(3) 0.34788(11)
H3 H 0.26400 0.17750 0.29830
C5 C 0.42303(19) 0.1041(3) 0.38228(11)
H4 H 0.48390 0.16670 0.42560
H5 H 0.38030 -0.00320 0.40950
C6 C 0.53342(17) 0.5039(3) 0.17794(11)
H6 H 0.57900 0.59300 0.21810
H7 H 0.60520 0.44370 0.14640
C7 C 0.1937(2) 0.2796(3) 0.41135(11)
C8 C 0.08621(19) 0.4122(3) 0.36639(12)
H8 H 0.03900 0.34500 0.31840
H9 H 0.01760 0.44510 0.40720
C9 C 0.26499(19) 0.7188(3) 0.01921(11)
H10 H 0.23920 0.71180 -0.04310
C10 C 0.13791(19) 0.7651(3) 0.06852(11)
C11 C 0.33631(18) 0.5350(3) 0.04910(11)
H11 H 0.27300 0.44930 0.07580
H12 H 0.37870 0.47080 0.00190
C12 C 0.25961(19) 0.5482(3) 0.26896(12)
H13 H 0.29920 0.66600 0.24940
H14 H 0.21600 0.48510 0.21860
C13 C 0.4661(2) 0.5394(3) 0.37438(12)
H15 H 0.50790 0.45670 0.41790
H16 H 0.40860 0.63040 0.40130
H17 H 0.53730 0.60450 0.34540
C14 C 0.50721(19) 0.0346(3) 0.30772(12)
H18 H 0.57940 -0.05000 0.33090
H19 H 0.44690 -0.03780 0.26760
C15 C 0.1486(2) 0.5946(3) 0.33211(12)
H20 H 0.18920 0.66820 0.38020
H21 H 0.07610 0.67010 0.30280
C16 C 0.37717(18) 0.4218(3) 0.30781(11)
C17 C 0.70558(19) 0.2660(3) 0.30730(13)
H22 H 0.77140 0.16440 0.31410
H23 H 0.68320 0.31120 0.36340
H24 H 0.74470 0.36760 0.27540
C18 C 0.1320(2) 0.9246(3) 0.12101(13)
H25 H 0.20830 1.00460 0.12830
C19 C 0.2458(2) 0.3597(3) 0.49986(12)
H26 H 0.32200 0.28440 0.52310
H27 H 0.17220 0.35630 0.53880
H28 H 0.27580 0.48830 0.49300
C20 C 0.0238(2) 0.6469(3) 0.05924(13)
H29 H 0.02750 0.53850 0.02520
C21 C 0.0116(2) 0.9645(4) 0.16272(14)
H30 H 0.00820 1.07090 0.19810
C22 C 0.1190(2) 0.0922(3) 0.42811(14)
H31 H 0.09550 0.03020 0.37380
H32 H 0.03600 0.11760 0.45720
H33 H 0.17880 0.01150 0.46370
C23 C -0.1025(2) 0.8481(4) 0.15209(15)
H34 H -0.18310 0.87640 0.17940
C24 C -0.0963(2) 0.6887(4) 0.10041(16)
H35 H -0.17280 0.60910 0.09320
#END
