
#######################################################################
#
#                 Cambridge Crystallographic Data Centre
#                                CCDC
#
#######################################################################
#
# If this CIF has been generated from an entry in the Cambridge
# Structural Database, then it will include bibliographic, chemical,
# crystal, experimental, refinement or atomic coordinate data resulting
# from the CCDC's data processing and validation procedures.
#
#######################################################################

data_CSD_CIF_OFOYEQ
_audit_creation_date 2018-08-29
_audit_creation_method CSD-ConQuest-V1
_database_code_CSD OFOYEQ
_database_code_depnum_ccdc_archive 'CCDC 1486791'
_chemical_formula_sum 'C31 H27 N3 O5'
_chemical_formula_moiety
;
C31 H27 N3 O5
;
_journal_coden_Cambridge 1440
_journal_volume 9
_journal_year 2017
_journal_page_first 38032
_journal_name_full 'ACS Applied Materials and Interfaces '
loop_
_publ_author_name
"Guan Xi"
"Lan Sheng"
"Ivan Zhang"
"Jiahui Du"
"Ting Zhang"
"Qiaonan Chen"
"Guiying Li"
"Ying Zhang"
"Yue Song"
"Jianhua Li"
"Yu-Mo Zhang"
"Sean Xiao-An Zhang"
_chemical_name_systematic
;
2'-anilino-6'-(diethylamino)-3'-methyl-4-nitro-3H-spiro[2-benzofuran-1,9'-xant
hen]-3-one
;
_cell_volume   1327.770
_exptl_crystal_colour 'brown'
_exptl_crystal_density_diffrn 1.304
_exptl_crystal_description 'block'
_diffrn_ambient_temperature 293
_refine_special_details
;
O4 and O4' disordered over two sites with occupancies 0.52:0.48.

;
#These two values have been output from a single CSD field.
_refine_ls_R_factor_gt 0.0568
_refine_ls_wR_factor_gt 0.0568
_symmetry_cell_setting triclinic
_symmetry_space_group_name_H-M 'P -1'
_symmetry_Int_Tables_number 2
loop_
_symmetry_equiv_pos_site_id
_symmetry_equiv_pos_as_xyz
1 x,y,z
2 -x,-y,-z
_cell_length_a 10.558(2)
_cell_length_b 11.152(2)
_cell_length_c 11.868(2)
_cell_angle_alpha 89.94(3)
_cell_angle_beta 86.75(3)
_cell_angle_gamma 72.15(3)
_cell_formula_units_Z 2
loop_
_atom_type_symbol
_atom_type_radius_bond
C 0.68
H 0.23
N 0.68
O 0.68
loop_
_atom_site_label
_atom_site_type_symbol
_atom_site_fract_x
_atom_site_fract_y
_atom_site_fract_z
O1 O -0.1758(13) 0.665(2) 0.6205(13)
O2 O 0.11261(15) 0.69017(13) 0.23601(13)
O3 O 0.42607(16) 0.84345(14) 0.25611(16)
C1 C 0.3357(2) 0.67052(19) 0.29524(18)
C2 C 0.1971(2) 0.86970(19) 0.21637(18)
C3 C 0.4417(2) 0.7194(2) 0.28402(19)
C4 C 0.1944(2) 1.1002(2) 0.11253(19)
C5 C 0.1275(2) 0.79432(18) 0.40220(18)
C6 C 0.0852(2) 0.94486(19) 0.16570(19)
H1 H 0.00910 0.91930 0.16720
C7 C 0.0829(2) 1.0553(2) 0.11358(19)
H2 H 0.00700 1.10120 0.07850
C8 C 0.4905(2) 0.46996(19) 0.34448(19)
C9 C 0.1959(2) 0.75725(19) 0.28644(18)
C10 C 0.5966(2) 0.5215(2) 0.3363(2)
C11 C 0.3081(2) 0.9115(2) 0.21067(19)
C12 C 0.0184(2) 0.75119(19) 0.41438(18)
C13 C 0.0885(2) 0.8770(2) 0.5894(2)
H3 H 0.11170 0.91950 0.64830
C14 C 0.5703(2) 0.6456(2) 0.3040(2)
H4 H 0.64000 0.68020 0.29550
C15 C 0.1639(2) 0.85767(19) 0.48821(19)
H5 H 0.23740 0.88670 0.47840
C16 C 0.3629(2) 0.54466(19) 0.32444(19)
H6 H 0.29340 0.50980 0.33070
O4 O -0.0736(2) 0.64032(19) 0.28104(16)
C17 C 0.3089(2) 1.0231(2) 0.1610(2)
H7 H 0.38560 1.04750 0.15950
N1 N 0.5123(2) 0.34386(17) 0.38036(19)
N2 N 0.1904(2) 1.21427(19) 0.06577(19)
C18 C -0.0217(2) 0.8338(2) 0.6045(2)
H8 H -0.07180 0.84700 0.67290
C19 C 0.5742(2) 0.2387(2) 0.3112(2)
C20 C -0.0555(2) 0.7714(2) 0.5170(2)
C21 C 0.0077(2) 0.6875(2) 0.30812(19)
C22 C 0.7345(2) 0.4467(2) 0.3653(2)
H9 H 0.79200 0.49880 0.35830
H10 H 0.76770 0.37540 0.31470
H11 H 0.73230 0.41810 0.44150
C23 C 0.5785(3) 0.1194(2) 0.3500(3)
H12 H 0.53870 0.11110 0.42030
C24 C 0.0722(3) 1.2896(2) 0.0116(2)
H13 H 0.03820 1.23360 -0.03170
H14 H 0.09820 1.34550 -0.04120
N3 N -0.1692(3) 0.7229(3) 0.5365(2)
C25 C 0.6343(3) 0.2472(3) 0.2052(2)
H15 H 0.63240 0.32570 0.17740
C26 C 0.2933(3) 1.2743(3) 0.0827(3)
H16 H 0.25080 1.36350 0.09800
H17 H 0.34090 1.23850 0.14840
C27 C 0.6423(3) 0.0132(3) 0.2837(4)
H18 H 0.64520 -0.06600 0.31030
C28 C 0.7015(3) 0.0235(3) 0.1788(4)
H19 H 0.74400 -0.04810 0.13490
C29 C 0.6970(3) 0.1393(3) 0.1407(3)
H20 H 0.73660 0.14660 0.07010
C30 C 0.3849(5) 1.2597(7) -0.0104(5)
H21 H 0.43860 1.17300 -0.01770
H22 H 0.44110 1.31150 0.00050
H23 H 0.33770 1.28450 -0.07760
O5 O -0.2651(3) 0.7654(4) 0.4924(4)
C31 C -0.0381(4) 1.3670(3) 0.0908(3)
H24 H -0.06760 1.31250 0.14140
H25 H -0.11110 1.41440 0.04840
H26 H -0.00620 1.42380 0.13340
H27 H 0.452(3) 0.331(3) 0.424(3)
O6? O -0.1423(12) 0.6077(13) 0.548(3)
#END
