
#######################################################################
#
#                 Cambridge Crystallographic Data Centre
#                                CCDC
#
#######################################################################
#
# If this CIF has been generated from an entry in the Cambridge
# Structural Database, then it will include bibliographic, chemical,
# crystal, experimental, refinement or atomic coordinate data resulting
# from the CCDC's data processing and validation procedures.
#
#######################################################################

data_CSD_CIF_OFUCUQ
_audit_creation_date 2018-08-29
_audit_creation_method CSD-ConQuest-V1
_database_code_CSD OFUCUQ
_database_code_depnum_ccdc_archive 'CCDC 1844731'
_chemical_formula_sum 'C19 H17 N5 O7'
_chemical_formula_moiety
;
C19 H17 N5 O7
;
_journal_coden_Cambridge 1336
_journal_volume 20
_journal_year 2018
_journal_page_first 5743
_journal_name_full 'Org.Lett. '
loop_
_publ_author_name
"A.Rahim"
"B.Sahariah"
"B.K.Sarma"
_chemical_name_systematic
;
N-{4-[(4-methoxybenzene-1-carbonyl)amino]-2,5-dioxopiperazin-1-yl}-4-nitrobenz
amide
;
_cell_volume    971.850
_exptl_crystal_colour 'colorless'
_exptl_crystal_density_diffrn 1.461
_exptl_crystal_description 'Rod'
_diffrn_ambient_temperature 293
#These two values have been output from a single CSD field.
_refine_ls_R_factor_gt 0.0696
_refine_ls_wR_factor_gt 0.0696
_symmetry_cell_setting triclinic
_symmetry_space_group_name_H-M 'P -1'
_symmetry_Int_Tables_number 2
loop_
_symmetry_equiv_pos_site_id
_symmetry_equiv_pos_as_xyz
1 x,y,z
2 -x,-y,-z
_cell_length_a 6.8411(6)
_cell_length_b 10.0919(10)
_cell_length_c 15.0838(15)
_cell_angle_alpha 83.906(6)
_cell_angle_beta 78.430(6)
_cell_angle_gamma 72.504(6)
_cell_formula_units_Z 2
loop_
_atom_type_symbol
_atom_type_radius_bond
C 0.68
H 0.23
N 0.68
O 0.68
loop_
_atom_site_label
_atom_site_type_symbol
_atom_site_fract_x
_atom_site_fract_y
_atom_site_fract_z
O1 O 0.2684(4) 0.6384(3) 0.47191(17)
O2 O 0.8089(4) 0.8967(3) 0.52702(17)
O3 O 0.3199(4) 0.6053(3) 0.70196(18)
O4 O 0.7276(4) 0.8928(3) 0.28676(19)
N1 N 0.3543(4) 0.7765(3) 0.5567(2)
N2 N 0.1669(5) 0.7920(4) 0.6179(2)
O5 O 1.6156(5) 0.8069(3) 0.04213(19)
N3 N 0.7303(4) 0.7518(3) 0.4446(2)
N4 N 0.9118(5) 0.7406(4) 0.3805(2)
N5 N -0.6315(6) 0.7075(5) 0.9013(2)
O6 O -0.6462(5) 0.6034(4) 0.9459(2)
O7 O -0.7733(5) 0.8111(4) 0.8976(2)
C1 C 0.6950(6) 0.8288(4) 0.5156(2)
C2 C 0.3934(6) 0.6942(4) 0.4877(2)
C3 C 0.1622(6) 0.6940(5) 0.6869(2)
C4 C -0.0471(6) 0.7058(4) 0.7443(2)
C5 C 1.0949(6) 0.8096(4) 0.2368(2)
C6 C -0.2077(6) 0.8280(4) 0.7527(2)
H1 H -0.18740 0.90950 0.72270
C7 C -0.4236(6) 0.7090(5) 0.8483(2)
C8 C 1.4511(6) 0.8006(5) 0.1097(3)
C9 C 0.8977(6) 0.8211(4) 0.3021(3)
C10 C 1.2815(6) 0.7107(4) 0.2449(2)
H2 H 1.28710 0.64630 0.29390
C11 C -0.3991(6) 0.8297(4) 0.8057(2)
H3 H -0.50800 0.91160 0.81180
C12 C 1.4600(6) 0.7058(4) 0.1815(2)
H4 H 1.58450 0.63860 0.18770
C13 C 0.5068(6) 0.8282(4) 0.5860(3)
H5 H 0.55190 0.77140 0.63830
H6 H 0.43940 0.92230 0.60520
C14 C 0.5993(6) 0.6743(4) 0.4252(3)
H7 H 0.67490 0.57610 0.42720
H8 H 0.57370 0.70010 0.36390
C15 C -0.0775(6) 0.5859(5) 0.7907(3)
H9 H 0.03140 0.50400 0.78640
C16 C 1.0900(6) 0.9031(4) 0.1633(3)
H10 H 0.96530 0.96950 0.15630
C17 C -0.2679(7) 0.5866(5) 0.8433(3)
H11 H -0.28930 0.50610 0.87450
C18 C 1.2667(7) 0.8998(4) 0.1001(3)
H12 H 1.26170 0.96410 0.05100
C19 C 1.8132(7) 0.7102(6) 0.0490(3)
H13 H 1.85520 0.72390 0.10350
H14 H 1.91430 0.72450 -0.00240
H15 H 1.80310 0.61710 0.05050
H16 H 1.019(7) 0.710(4) 0.402(3)
H17 H 0.070(6) 0.824(4) 0.593(2)
#END
