
#######################################################################
#
#                 Cambridge Crystallographic Data Centre
#                                CCDC
#
#######################################################################
#
# If this CIF has been generated from an entry in the Cambridge
# Structural Database, then it will include bibliographic, chemical,
# crystal, experimental, refinement or atomic coordinate data resulting
# from the CCDC's data processing and validation procedures.
#
#######################################################################

data_CSD_CIF_OFUDAX
_audit_creation_date 2018-08-29
_audit_creation_method CSD-ConQuest-V1
_database_code_CSD OFUDAX
_database_code_depnum_ccdc_archive 'CCDC 1844733'
_chemical_formula_sum 'C18 H15 N5 O6'
_chemical_formula_moiety
;
C18 H15 N5 O6
;
_journal_coden_Cambridge 1336
_journal_volume 20
_journal_year 2018
_journal_page_first 5743
_journal_name_full 'Org.Lett. '
loop_
_publ_author_name
"A.Rahim"
"B.Sahariah"
"B.K.Sarma"
_chemical_name_systematic
;
N-{4-[(benzenecarbonyl)amino]-2,5-dioxopiperazin-1-yl}-4-nitrobenzamide
;
_cell_volume   1814.510
_exptl_crystal_colour 'colorless'
_exptl_crystal_density_diffrn 1.455
_exptl_crystal_description 'Block'
_diffrn_ambient_temperature 293
#These two values have been output from a single CSD field.
_refine_ls_R_factor_gt 0.0687
_refine_ls_wR_factor_gt 0.0687
_symmetry_cell_setting monoclinic
_symmetry_space_group_name_H-M 'P 21/n'
_symmetry_Int_Tables_number 14
loop_
_symmetry_equiv_pos_site_id
_symmetry_equiv_pos_as_xyz
1 x,y,z
2 1/2-x,1/2+y,1/2-z
3 -x,-y,-z
4 -1/2+x,-1/2-y,-1/2+z
_cell_length_a 7.9755(18)
_cell_length_b 5.8624(12)
_cell_length_c 38.823(8)
_cell_angle_alpha 90
_cell_angle_beta 91.570(7)
_cell_angle_gamma 90
_cell_formula_units_Z 4
loop_
_atom_type_symbol
_atom_type_radius_bond
C 0.68
H 0.23
N 0.68
O 0.68
loop_
_atom_site_label
_atom_site_type_symbol
_atom_site_fract_x
_atom_site_fract_y
_atom_site_fract_z
O1 O 0.6024(3) 0.8841(4) 0.78902(6)
O2 O 0.3986(3) 0.1724(4) 0.71225(6)
N1 N 0.4638(3) 0.5510(4) 0.78486(6)
O3 O 0.6600(3) 0.3878(5) 0.83610(6)
N2 N 0.5354(3) 0.5072(4) 0.71650(6)
N3 N 0.5767(4) 0.4957(5) 0.68212(7)
N4 N 0.4228(5) 0.5632(5) 0.81922(7)
O4 O 0.3303(4) 0.6392(5) 0.66412(6)
C1 C 0.5541(4) 0.7201(5) 0.77188(8)
C2 C 0.4457(4) 0.3366(5) 0.72941(8)
C3 C 0.5971(4) 0.7057(5) 0.73473(7)
H1 H 0.55330 0.84040 0.72310
H2 H 0.71830 0.70940 0.73320
C4 C 0.5277(5) 0.4750(6) 0.84360(9)
C5 C 0.4030(4) 0.3518(5) 0.76670(7)
H3 H 0.28180 0.34710 0.76830
H4 H 0.44740 0.21770 0.77840
C6 C 0.4714(4) 0.4991(6) 0.87951(8)
C7 C 0.4674(5) 0.5664(6) 0.65764(8)
C8 C 0.5284(4) 0.5416(6) 0.62159(8)
C9 C 0.3814(4) 0.6873(6) 0.89023(8)
H5 H 0.35160 0.80120 0.87450
N5 N 0.6938(6) 0.4926(10) 0.51973(10)
O5 O 0.6597(5) 0.6472(7) 0.50022(8)
C10 C 0.6274(4) 0.3605(6) 0.61221(9)
H6 H 0.65930 0.25100 0.62840
C11 C 0.3359(5) 0.7060(7) 0.92422(9)
H7 H 0.27740 0.83370 0.93150
C12 C 0.4810(5) 0.7044(6) 0.59750(9)
H8 H 0.41320 0.82560 0.60380
C13 C 0.5134(5) 0.3306(6) 0.90291(9)
H9 H 0.57470 0.20460 0.89590
C14 C 0.6335(5) 0.5073(9) 0.55547(9)
C15 C 0.3771(5) 0.5354(7) 0.94729(9)
H10 H 0.34550 0.54700 0.97010
C16 C 0.6794(5) 0.3421(7) 0.57852(10)
H11 H 0.74440 0.21900 0.57180
C17 C 0.5343(5) 0.6873(8) 0.56398(9)
H12 H 0.50320 0.79620 0.54760
C18 C 0.4648(5) 0.3483(7) 0.93664(9)
H13 H 0.49170 0.23270 0.95220
O6 O 0.7712(6) 0.3268(10) 0.51210(9)
H14 H 0.671(4) 0.461(5) 0.6793(8)
H15 H 0.325(5) 0.601(6) 0.8217(10)
#END
