
#######################################################################
#
#                 Cambridge Crystallographic Data Centre
#                                CCDC
#
#######################################################################
#
# If this CIF has been generated from an entry in the Cambridge
# Structural Database, then it will include bibliographic, chemical,
# crystal, experimental, refinement or atomic coordinate data resulting
# from the CCDC's data processing and validation procedures.
#
#######################################################################

data_CSD_CIF_OFUKOR
_audit_creation_date 2013-08-29
_audit_creation_method CSD-ConQuest-V1
_database_code_CSD OFUKOR
_database_code_depnum_ccdc_archive 'CCDC 822785'
_chemical_formula_sum 'C9 H9 N9 O3'
_chemical_formula_moiety
;
C9 H9 N9 O3
;
_journal_coden_Cambridge 95
_journal_year 2012
_journal_page_first 1760
_journal_name_full 'Izv.Akad.Nauk SSSR,Ser.Khim.(Russ.)(Russ.Chem.Bull.) '
loop_
_publ_author_name
"V.A.Samsonov"
"Yu.V.Gatilov"
"L.B.Volodarsky"
_chemical_name_systematic
;
5,10,15-Trimethoxy-3,4,5,8,9,10,13,14,15-nona-azatetracyclo[10.3.0.0^2,6^.0^7,
11^]pentadeca-1(12),2(6),3,7(11),8,13-hexaene
;
_chemical_melting_point 505
_cell_volume   1248.020
_exptl_crystal_colour 'colorless'
_exptl_crystal_density_diffrn 1.55
_exptl_crystal_description 'thin needle'
_diffrn_ambient_temperature 200
#These two values have been output from a single CSD field.
_refine_ls_R_factor_gt 0.0449
_refine_ls_wR_factor_gt 0.0449
_symmetry_cell_setting monoclinic
_symmetry_space_group_name_H-M 'P 21/c'
_symmetry_Int_Tables_number 14
loop_
_symmetry_equiv_pos_site_id
_symmetry_equiv_pos_as_xyz
1 x,y,z
2 -x,1/2+y,1/2-z
3 -x,-y,-z
4 x,-1/2-y,-1/2+z
_cell_length_a 4.0975(6)
_cell_length_b 18.109(3)
_cell_length_c 16.891(2)
_cell_angle_alpha 90
_cell_angle_beta 95.281(7)
_cell_angle_gamma 90
_cell_formula_units_Z 4
loop_
_atom_type_symbol
_atom_type_radius_bond
C 0.68
H 0.23
N 0.68
O 0.68
loop_
_atom_site_label
_atom_site_type_symbol
_atom_site_fract_x
_atom_site_fract_y
_atom_site_fract_z
C1 C 0.7789(5) 0.67425(12) 0.61929(12)
C2 C 0.6098(5) 0.65076(12) 0.68200(12)
C3 C 0.4959(5) 0.70580(12) 0.73354(12)
C4 C 0.7161(6) 0.80209(12) 0.65523(13)
C5 C 0.8386(5) 0.75075(12) 0.60457(12)
C6 C 0.5445(5) 0.78076(12) 0.72172(12)
C7 C 0.8303(7) 0.60530(16) 0.44693(14)
H1 H 0.96590 0.59840 0.40260
H2 H 0.72490 0.65390 0.44260
H3 H 0.66200 0.56670 0.44520
C8 C 0.9379(7) 0.96411(14) 0.71145(15)
H4 H 0.86710 1.01360 0.72600
H5 H 1.15990 0.96680 0.69440
H6 H 0.93730 0.93120 0.75750
C9 C 0.4278(7) 0.62463(16) 0.90439(15)
H7 H 0.33820 0.58160 0.93010
H8 H 0.44790 0.66600 0.94200
H9 H 0.64440 0.61240 0.88780
N1 N 0.8058(5) 0.86666(10) 0.62489(11)
N2 N 0.8519(5) 0.61001(10) 0.58438(11)
N3 N 0.3310(5) 0.70548(11) 0.79895(11)
N4 N 0.4127(5) 0.82059(11) 0.77939(11)
N5 N 0.9712(5) 0.85792(11) 0.56010(12)
N6 N 0.7361(5) 0.55069(11) 0.62121(11)
N7 N 0.5871(5) 0.5755(1) 0.68163(11)
N8 N 0.2793(5) 0.77376(12) 0.82678(11)
N9 N 0.9935(5) 0.78622(11) 0.54756(11)
O1 O 1.0354(4) 0.60062(9) 0.52175(9)
O2 O 0.2105(4) 0.64524(10) 0.83535(9)
O3 O 0.7164(4) 0.93578(9) 0.64722(10)
#END
