
#######################################################################
#
#                 Cambridge Crystallographic Data Centre
#                                CCDC
#
#######################################################################
#
# If this CIF has been generated from an entry in the Cambridge
# Structural Database, then it will include bibliographic, chemical,
# crystal, experimental, refinement or atomic coordinate data resulting
# from the CCDC's data processing and validation procedures.
#
#######################################################################

data_CSD_CIF_OFUZUM
_audit_creation_date 2013-08-30
_audit_creation_method CSD-ConQuest-V1
_database_code_CSD OFUZUM
_database_code_depnum_ccdc_archive 'CCDC 939643'
_chemical_formula_sum 'C27 H25 N1 O6'
_chemical_formula_moiety
;
C27 H25 N1 O6
;
_journal_coden_Cambridge 1500
_journal_volume 3
_journal_year 2013
_journal_page_first 20065
_journal_name_full 'RSC Advances '
loop_
_publ_author_name
"Lin Qiu"
"Xin Guo"
"Jun Zhou"
"Shunying Liu"
"Liping Yang"
"Xiang Wu"
"Wenhao Hu"
_chemical_name_systematic
;
Methyl 
3-(2-methoxyphenyl)-4-nitro-2-phenyl-5-(2-phenylvinyl)tetrahydrofuran-2-carbox
ylate
;
_cell_volume   1158.981
_exptl_crystal_colour 'colorless'
_exptl_crystal_density_diffrn 1.317
_exptl_crystal_description 'block'
_diffrn_ambient_temperature 296
#These two values have been output from a single CSD field.
_refine_ls_R_factor_gt 0.0273
_refine_ls_wR_factor_gt 0.0273
_symmetry_cell_setting monoclinic
_symmetry_space_group_name_H-M 'P 21'
_symmetry_Int_Tables_number 4
loop_
_symmetry_equiv_pos_site_id
_symmetry_equiv_pos_as_xyz
1 x,y,z
2 -x,1/2+y,-z
_cell_length_a 9.2228(6)
_cell_length_b 7.4537(5)
_cell_length_c 16.9570(12)
_cell_angle_alpha 90
_cell_angle_beta 96.151(2)
_cell_angle_gamma 90
_cell_formula_units_Z 2
loop_
_atom_type_symbol
_atom_type_radius_bond
C 0.68
H 0.23
N 0.68
O 0.68
loop_
_atom_site_label
_atom_site_type_symbol
_atom_site_fract_x
_atom_site_fract_y
_atom_site_fract_z
O1 O 0.67531(11) 0.32892(16) 0.27734(5)
O2 O 0.47924(14) -0.1618(2) 0.28428(9)
O3 O 0.43928(12) 0.0566(2) 0.20210(8)
O4 O 0.95340(13) 0.4359(2) 0.29846(7)
O5 O 1.00092(10) 0.33188(16) 0.17995(6)
O6 O 0.99197(11) 0.00241(17) 0.28202(6)
N1 N 0.51990(14) -0.0339(2) 0.24738(8)
C1 C 0.68870(14) 0.4260(2) 0.14415(8)
C2 C 0.74019(15) 0.4227(2) 0.07024(8)
H1 H 0.81910 0.35000 0.06190
C3 C 0.67501(17) 0.5268(2) 0.00889(9)
H2 H 0.71010 0.52300 -0.04050
C4 C 0.55900(17) 0.6354(2) 0.0202(1)
H3 H 0.51510 0.70490 -0.02120
C5 C 0.50824(19) 0.6405(3) 0.09381(11)
H4 H 0.43050 0.71510 0.10210
C6 C 0.57180(17) 0.5359(3) 0.15525(10)
H5 H 0.53580 0.53940 0.20440
C7 C 0.36344(16) 0.2750(2) 0.44388(9)
C8 C 0.24571(19) 0.3894(3) 0.43458(10)
H6 H 0.23750 0.47190 0.39320
C9 C 0.1388(2) 0.3829(3) 0.48653(12)
H7 H 0.05910 0.45970 0.47910
C10 C 0.1501(2) 0.2648(3) 0.54819(12)
H8 H 0.07840 0.26090 0.58280
C11 C 0.2667(2) 0.1526(3) 0.55879(12)
H9 H 0.27550 0.07240 0.60100
C12 C 0.3721(2) 0.1577(3) 0.50705(10)
H10 H 0.45110 0.07980 0.51490
C13 C 0.85637(14) -0.0064(2) 0.15749(8)
C14 C 0.84076(16) -0.0599(2) 0.07871(8)
H11 H 0.75750 -0.02710 0.04610
C15 C 0.94719(18) -0.1614(3) 0.04784(10)
H12 H 0.93520 -0.19670 -0.00510
C16 C 1.06984(18) -0.2092(3) 0.09563(11)
H13 H 1.14100 -0.27800 0.07500
C17 C 1.08963(16) -0.1566(2) 0.17421(10)
H14 H 1.17420 -0.18810 0.20610
C18 C 0.98259(15) -0.0567(2) 0.20500(8)
C19 C 0.69092(15) 0.1712(2) 0.32465(8)
H15 H 0.78930 0.16980 0.35300
C20 C 0.67877(14) 0.0175(2) 0.26351(8)
H16 H 0.73830 -0.08560 0.28290
C21 C 0.73500(14) 0.0996(2) 0.18930(8)
H17 H 0.65260 0.09480 0.14770
C22 C 0.75609(14) 0.3048(2) 0.21127(8)
C23 C 0.58254(16) 0.1679(3) 0.38441(9)
H18 H 0.59380 0.07960 0.42330
C24 C 0.47281(16) 0.2797(2) 0.38627(8)
H19 H 0.46310 0.36960 0.34800
C25 C 0.91469(15) 0.3646(2) 0.23679(8)
C26 C 1.15459(16) 0.3636(3) 0.19887(11)
H20 H 1.20470 0.33560 0.15360
H21 H 1.19120 0.28900 0.24270
H22 H 1.17040 0.48740 0.21290
C27 C 1.11952(17) -0.0412(3) 0.3330(1)
H23 H 1.11140 0.00630 0.38500
H24 H 1.20320 0.00990 0.31240
H25 H 1.13010 -0.16920 0.33610
#END
