
#######################################################################
#
#                 Cambridge Crystallographic Data Centre
#                                CCDC
#
#######################################################################
#
# If this CIF has been generated from an entry in the Cambridge
# Structural Database, then it will include bibliographic, chemical,
# crystal, experimental, refinement or atomic coordinate data resulting
# from the CCDC's data processing and validation procedures.
#
#######################################################################

data_CSD_CIF_OGADOS
_audit_creation_date 2018-08-30
_audit_creation_method CSD-ConQuest-V1
_database_code_CSD OGADOS
_database_code_depnum_ccdc_archive 'CCDC 1559445'
_chemical_formula_sum 'C24 H30 N4 O2'
_chemical_formula_moiety
;
C24 H30 N4 O2
;
_journal_coden_Cambridge 1336
_journal_volume 19
_journal_year 2017
_journal_page_first 5868
_journal_name_full 'Org.Lett. '
loop_
_publ_author_name
"Shang-Shi  Zhang"
"Jie  Xia"
"Jia-Qiang Wu"
"Xu-Ge Liu"
"Chu-Jun Zhou"
"E.Lin"
"Qingjiang Li"
"Shi-Liang Huang"
"Honggen Wang"
_chemical_name_systematic
;
3-[1-(pyrimidin-2-yl)-1H-indol-2-yl]-2-[(2,2,6,6-tetramethylpiperidin-1-yl)oxy
]propanal
;
_cell_volume   4352.388
_exptl_crystal_colour 'colorless'
_exptl_crystal_density_diffrn 1.241
_exptl_crystal_description 'block'
_diffrn_ambient_temperature 100
#These two values have been output from a single CSD field.
_refine_ls_R_factor_gt 0.0436
_refine_ls_wR_factor_gt 0.0436
_symmetry_cell_setting tetragonal
_symmetry_space_group_name_H-M 'I -4'
_symmetry_Int_Tables_number 82
loop_
_symmetry_equiv_pos_site_id
_symmetry_equiv_pos_as_xyz
1 x,y,z
2 y,-x,-z
3 -x,-y,z
4 -y,x,-z
5 1/2+x,1/2+y,1/2+z
6 1/2+y,1/2-x,1/2-z
7 1/2-x,1/2-y,1/2+z
8 1/2-y,1/2+x,1/2-z
_cell_length_a 17.5556(5)
_cell_length_b 17.5556(5)
_cell_length_c 14.1220(7)
_cell_angle_alpha 90
_cell_angle_beta 90
_cell_angle_gamma 90
_cell_formula_units_Z 8
loop_
_atom_type_symbol
_atom_type_radius_bond
C 0.68
H 0.23
N 0.68
O 0.68
loop_
_atom_site_label
_atom_site_type_symbol
_atom_site_fract_x
_atom_site_fract_y
_atom_site_fract_z
O1 O -0.54868(11) -0.36715(11) -0.22165(15)
N1 N -0.55962(14) -0.30038(14) -0.28212(18)
O2 O -0.67213(13) -0.49082(13) -0.33478(16)
C1 C -0.85749(18) -0.60749(19) -0.1116(2)
H1 H -0.89977 -0.57377 -0.10927
C2 C -0.65253(18) -0.58438(17) -0.1064(2)
H2 H -0.60177 -0.60308 -0.10457
N2 N -0.75373(14) -0.50538(14) -0.10944(19)
C3 C -0.79751(17) -0.43807(18) -0.1164(2)
C4 C -0.55627(17) -0.23219(17) -0.2186(2)
C5 C -0.71994(17) -0.63001(17) -0.1102(2)
C6 C -0.78231(18) -0.57999(18) -0.1116(2)
N3 N -0.86631(15) -0.44574(16) -0.1558(2)
C7 C -0.67322(16) -0.50997(18) -0.1058(2)
C8 C -0.5629(2) -0.16183(19) -0.2827(3)
H3 H -0.61513 -0.15978 -0.30914
H4 H -0.55541 -0.11556 -0.24374
C9 C -0.61828(16) -0.40976(17) -0.2140(2)
H5 H -0.66332 -0.37579 -0.22386
N4 N -0.76569(15) -0.37489(16) -0.0839(2)
C10 C -0.61936(17) -0.44400(17) -0.1142(2)
H6 H -0.56735 -0.46120 -0.09758
H7 H -0.63438 -0.40407 -0.06841
C11 C -0.61870(18) -0.47459(17) -0.2851(2)
H8 H -0.57379 -0.50443 -0.29080
C12 C -0.8073(2) -0.31112(19) -0.0951(2)
H9 H -0.78655 -0.26401 -0.07442
C13 C -0.90644(19) -0.3815(2) -0.1638(2)
H10 H -0.95617 -0.38408 -0.19017
C14 C -0.62743(19) -0.23454(18) -0.1555(3)
H11 H -0.67286 -0.24040 -0.19515
H12 H -0.63112 -0.18703 -0.11933
H13 H -0.62375 -0.27768 -0.11169
C15 C -0.4860(2) -0.2271(2) -0.1538(3)
H14 H -0.47903 -0.27567 -0.12077
H15 H -0.49352 -0.18632 -0.10735
H16 H -0.44081 -0.21604 -0.19210
C16 C -0.8787(2) -0.3114(2) -0.1354(2)
H17 H -0.90732 -0.26591 -0.14326
C17 C -0.41947(19) -0.31630(19) -0.3342(3)
H18 H -0.39877 -0.26749 -0.31244
H19 H -0.39058 -0.33392 -0.38938
H20 H -0.41543 -0.35398 -0.28324
C18 C -0.8675(2) -0.6859(2) -0.1151(2)
H21 H -0.91778 -0.70595 -0.11638
C19 C -0.5063(2) -0.1608(2) -0.3638(3)
H22 H -0.45381 -0.15694 -0.33852
H23 H -0.51580 -0.11596 -0.40466
C20 C -0.7323(2) -0.70885(19) -0.1138(2)
H24 H -0.69048 -0.74317 -0.11411
C21 C -0.8059(2) -0.73591(19) -0.1169(3)
H25 H -0.81475 -0.78922 -0.12023
C22 C -0.51458(19) -0.2335(2) -0.4214(3)
H26 H -0.47646 -0.23322 -0.47305
H27 H -0.56578 -0.23446 -0.45073
C23 C -0.52769(19) -0.3731(2) -0.4235(2)
H28 H -0.51255 -0.42082 -0.39286
H29 H -0.50272 -0.36913 -0.48540
H30 H -0.58308 -0.37245 -0.43206
C24 C -0.50393(18) -0.30606(19) -0.3618(2)
#END
