
#######################################################################
#
#                 Cambridge Crystallographic Data Centre
#                                CCDC
#
#######################################################################
#
# If this CIF has been generated from an entry in the Cambridge
# Structural Database, then it will include bibliographic, chemical,
# crystal, experimental, refinement or atomic coordinate data resulting
# from the CCDC's data processing and validation procedures.
#
#######################################################################

data_CSD_CIF_OGEDAG
_audit_creation_date 2009-01-14
_audit_creation_method CSD-ConQuest-V1
_database_code_CSD OGEDAG
_database_code_depnum_ccdc_archive 'CCDC 712373'
_chemical_formula_sum 'C27 H17 N3 O4'
_chemical_formula_moiety
;
C27 H17 N3 O4
;
_journal_coeditor_code "IUCr HB2827"
_journal_coden_Cambridge 1370
_journal_volume 64
_journal_year 2008
_journal_page_first o2258
_journal_name_full 'Acta Crystallogr.,Sect.E:Struct.Rep.Online '
loop_
_publ_author_name
"M.A.Rodriguez"
"J.L.Nichol"
"T.Zifer"
"A.L.Vance"
"B.M.Wong"
"F.Leonard"
_chemical_name_systematic
;
(E)-4-((4-Nitrophenyl)diazenyl)phenyl anthracene-9-carboxylate
;
_cell_volume   2080.942
_exptl_crystal_colour 'red'
_exptl_crystal_density_diffrn 1.428
_exptl_crystal_description 'plate'
_exptl_crystal_preparation 'dichloromethane'
_diffrn_ambient_temperature 173
#These two values have been output from a single CSD field.
_refine_ls_R_factor_gt 0.0425
_refine_ls_wR_factor_gt 0.0425
_symmetry_cell_setting monoclinic
_symmetry_space_group_name_H-M 'P 21/c'
_symmetry_Int_Tables_number 14
loop_
_symmetry_equiv_pos_site_id
_symmetry_equiv_pos_as_xyz
1 x,y,z
2 -x,1/2+y,1/2-z
3 -x,-y,-z
4 x,-1/2-y,-1/2+z
_cell_length_a 13.525(2)
_cell_length_b 8.6011(14)
_cell_length_c 18.956(3)
_cell_angle_alpha 90
_cell_angle_beta 109.322(3)
_cell_angle_gamma 90
_cell_formula_units_Z 4
loop_
_atom_type_symbol
_atom_type_radius_bond
C 0.68
H 0.23
N 0.68
O 0.68
loop_
_atom_site_label
_atom_site_type_symbol
_atom_site_fract_x
_atom_site_fract_y
_atom_site_fract_z
N1 N 0.69229(14) 1.52655(19) 0.65761(9)
N2 N 0.44775(13) 1.12430(19) 0.43308(9)
N3 N 0.48826(13) 1.08369(18) 0.38663(9)
O1 O 0.78660(13) 1.5368(2) 0.66951(9)
O2 O 0.64573(13) 1.60250(18) 0.69126(8)
O3 O 0.26778(10) 0.69438(15) 0.15211(7)
O4 O 0.10043(11) 0.77469(17) 0.12517(8)
C1 C 0.63159(15) 1.4180(2) 0.59981(10)
C2 C 0.52768(15) 1.3952(2) 0.59086(11)
H1 H 0.49570 1.44760 0.62180
C3 C 0.47087(16) 1.2945(2) 0.53590(11)
H2 H 0.39930 1.27490 0.52950
C4 C 0.51755(15) 1.2218(2) 0.49006(10)
C5 C 0.62352(16) 1.2433(2) 0.50109(11)
H3 H 0.65560 1.19070 0.47030
C6 C 0.68173(16) 1.3411(2) 0.55702(11)
H4 H 0.75450 1.35550 0.56600
C7 C 0.42162(15) 0.9862(2) 0.32817(10)
C8 C 0.31857(16) 0.9475(2) 0.31890(11)
H5 H 0.28600 0.98740 0.35240
C9 C 0.26266(16) 0.8502(2) 0.26061(11)
H6 H 0.19240 0.82180 0.25430
C10 C 0.31210(15) 0.7960(2) 0.21211(10)
C11 C 0.41510(15) 0.8342(2) 0.22141(11)
H7 H 0.44800 0.79490 0.18790
C12 C 0.46943(16) 0.9293(2) 0.27953(11)
H8 H 0.54010 0.95600 0.28620
C13 C 0.16358(15) 0.6938(2) 0.11132(11)
C14 C 0.14418(14) 0.5854(2) 0.04656(10)
C15 C 0.09289(14) 0.6443(2) -0.02570(11)
C16 C 0.05487(14) 0.8006(2) -0.04087(12)
H9 H 0.06260 0.86990 -0.00040
C17 C 0.00814(16) 0.8515(2) -0.11171(12)
H10 H -0.01590 0.95590 -0.12010
C18 C -0.00531(17) 0.7513(3) -0.17329(12)
H11 H -0.03910 0.78820 -0.22270
C19 C 0.02967(16) 0.6035(2) -0.16205(12)
H12 H 0.02060 0.53750 -0.20390
C20 C 0.07981(14) 0.5446(2) -0.08895(11)
C21 C 0.11527(14) 0.3921(2) -0.07705(11)
H13 H 0.10700 0.32690 -0.11910
C22 C 0.16242(14) 0.3316(2) -0.00585(11)
C23 C 0.19358(15) 0.1725(2) 0.00493(12)
H14 H 0.18210 0.10690 -0.03730
C24 C 0.23912(15) 0.1134(2) 0.07422(12)
H15 H 0.25970 0.00730 0.08030
C25 C 0.25608(15) 0.2095(2) 0.13743(12)
H16 H 0.28860 0.16770 0.18600
C26 C 0.22641(15) 0.3615(2) 0.12975(11)
H17 H 0.23760 0.42360 0.17320
C27 C 0.17899(14) 0.4293(2) 0.05797(11)
#END
