
#######################################################################
#
#                 Cambridge Crystallographic Data Centre
#                                CCDC
#
#######################################################################
#
# If this CIF has been generated from an entry in the Cambridge
# Structural Database, then it will include bibliographic, chemical,
# crystal, experimental, refinement or atomic coordinate data resulting
# from the CCDC's data processing and validation procedures.
#
#######################################################################

data_CSD_CIF_OGENIY
_audit_creation_date 2009-01-14
_audit_creation_method CSD-ConQuest-V1
_database_code_CSD OGENIY
_database_code_depnum_ccdc_archive 'CCDC 712492'
_chemical_formula_sum 'C16 H11 N3 O3'
_chemical_formula_moiety
;
C16 H11 N3 O3
;
_journal_coeditor_code "IUCr CI2717"
_journal_coden_Cambridge 1370
_journal_volume 64
_journal_year 2008
_journal_page_first o2393
_journal_name_full 'Acta Crystallogr.,Sect.E:Struct.Rep.Online '
loop_
_publ_author_name
"Gang Lei"
"Lin-Hai Jing"
"Li Zhou"
_chemical_name_systematic
;
3-Nitro-N-(8-quinolyl)benzamide
;
_cell_volume   1310.141
_exptl_crystal_colour 'white'
_exptl_crystal_density_diffrn 1.487
_exptl_crystal_description 'block'
_diffrn_ambient_temperature 93
#These two values have been output from a single CSD field.
_refine_ls_R_factor_gt 0.0374
_refine_ls_wR_factor_gt 0.0374
_symmetry_cell_setting monoclinic
_symmetry_space_group_name_H-M 'P 21'
_symmetry_Int_Tables_number 4
loop_
_symmetry_equiv_pos_site_id
_symmetry_equiv_pos_as_xyz
1 x,y,z
2 -x,1/2+y,-z
_cell_length_a 7.3783(14)
_cell_length_b 23.878(5)
_cell_length_c 7.4371(14)
_cell_angle_alpha 90
_cell_angle_beta 90.775(3)
_cell_angle_gamma 90
_cell_formula_units_Z 4
loop_
_atom_type_symbol
_atom_type_radius_bond
C 0.68
H 0.23
N 0.68
O 0.68
loop_
_atom_site_label
_atom_site_type_symbol
_atom_site_fract_x
_atom_site_fract_y
_atom_site_fract_z
O1 O 0.3802(2) 0.19096(7) 0.4467(2)
O2 O 0.1871(3) 0.35241(8) 0.0594(2)
O3 O 0.1573(2) 0.43422(7) 0.1784(2)
N1 N 0.9400(3) 0.22508(8) 0.7724(3)
N2 N 0.6102(3) 0.21775(8) 0.6364(3)
H1 H 0.66000 0.24770 0.68500
N3 N 0.2028(3) 0.38491(8) 0.1864(3)
C1 C 1.1064(3) 0.23028(11) 0.8387(3)
H2 H 1.15370 0.26700 0.85460
C2 C 1.2169(3) 0.18492(11) 0.8868(3)
H3 H 1.33650 0.19100 0.93150
C3 C 1.1508(3) 0.13180(11) 0.8688(3)
H4 H 1.22370 0.10060 0.90240
C4 C 0.8918(3) 0.07037(10) 0.7766(3)
H5 H 0.95670 0.03740 0.80820
C5 C 0.7193(3) 0.06662(10) 0.7085(3)
H6 H 0.66550 0.03070 0.69490
C6 C 0.6189(3) 0.11439(10) 0.6579(3)
H7 H 0.49970 0.11050 0.60970
C7 C 0.6946(3) 0.16665(9) 0.6785(3)
C8 C 0.8739(3) 0.17209(9) 0.7526(3)
C9 C 0.9734(3) 0.12345(10) 0.7999(3)
C10 C 0.4622(3) 0.22707(10) 0.5310(3)
C11 C 0.4060(3) 0.28758(9) 0.5227(3)
C12 C 0.3286(3) 0.30764(9) 0.3644(3)
H8 H 0.31020 0.28360 0.26400
C13 C 0.2792(3) 0.36325(9) 0.3560(3)
C14 C 0.3002(3) 0.39973(10) 0.4987(3)
H9 H 0.26540 0.43790 0.48830
C15 C 0.3735(3) 0.37886(10) 0.6575(3)
H10 H 0.38690 0.40270 0.75910
C16 C 0.4276(3) 0.32341(10) 0.6691(3)
H11 H 0.47980 0.30970 0.77790
O4 O 0.6075(2) 0.26160(7) 0.0420(2)
O5 O 0.4490(2) 0.06211(8) 0.1206(3)
O6 O 0.6518(3) 0.00459(8) 0.2183(3)
N4 N 0.8655(3) 0.35147(8) 0.5612(2)
N5 N 0.7920(3) 0.29510(8) 0.2650(3)
H12 H 0.87550 0.28490 0.34400
N6 N 0.6014(3) 0.05199(8) 0.1811(3)
C17 C 0.9074(3) 0.37849(11) 0.7114(3)
H13 H 0.95860 0.35780 0.80860
C18 C 0.8798(3) 0.43636(12) 0.7346(3)
H14 H 0.91320 0.45400 0.84460
C19 C 0.8049(3) 0.46662(11) 0.5980(3)
H15 H 0.78310 0.50550 0.61300
C20 C 0.6826(3) 0.46776(10) 0.2831(3)
H16 H 0.66030 0.50690 0.28810
C21 C 0.6403(3) 0.43863(10) 0.1308(3)
H17 H 0.58800 0.45780 0.03090
C22 C 0.6729(3) 0.38034(10) 0.1186(3)
H18 H 0.64200 0.36060 0.01150
C23 C 0.7486(3) 0.35259(9) 0.2608(3)
C24 C 0.7935(3) 0.38198(10) 0.4228(3)
C25 C 0.7595(3) 0.44004(10) 0.4334(3)
C26 C 0.7202(3) 0.25366(10) 0.1617(3)
C27 C 0.7870(3) 0.19612(10) 0.2061(3)
C28 C 0.6706(3) 0.15156(10) 0.1700(3)
H19 H 0.55440 0.15780 0.11740
C29 C 0.7274(3) 0.09834(10) 0.2121(3)
C30 C 0.8969(3) 0.08665(10) 0.2844(3)
H20 H 0.93260 0.04920 0.30990
C31 C 1.0131(3) 0.13095(10) 0.3186(3)
H21 H 1.13070 0.12420 0.36740
C32 C 0.9574(3) 0.18545(10) 0.2814(3)
H22 H 1.03660 0.21580 0.30770
#END
