
#######################################################################
#
#                 Cambridge Crystallographic Data Centre
#                                CCDC
#
#######################################################################
#
# If this CIF has been generated from an entry in the Cambridge
# Structural Database, then it will include bibliographic, chemical,
# crystal, experimental, refinement or atomic coordinate data resulting
# from the CCDC's data processing and validation procedures.
#
#######################################################################

data_CSD_CIF_OGENIY01
_audit_creation_date 2015-08-10
_audit_creation_method CSD-ConQuest-V1
_database_code_CSD OGENIY01
_database_code_depnum_ccdc_archive 'CCDC 1417843'
_chemical_formula_sum 'C16 H11 N3 O3'
_chemical_formula_moiety
;
C16 H11 N3 O3
;
_journal_coden_Cambridge 1078
_journal_year 2015
_journal_name_full 'CSD Communication(Private Communication) '
loop_
_publ_author_name
"J.B.Baruah"
"P.Khakhlary"
_chemical_name_systematic
;
3-nitro-N-(quinolin-8-yl)benzamide
;
_cell_volume   1355.126
_exptl_crystal_colour 'yellow'
_exptl_crystal_density_diffrn 1.438
_exptl_crystal_description 'block'
_diffrn_ambient_temperature 296
#These two values have been output from a single CSD field.
_refine_ls_R_factor_gt 0.0484
_refine_ls_wR_factor_gt 0.0484
_symmetry_cell_setting monoclinic
_symmetry_space_group_name_H-M 'P 21'
_symmetry_Int_Tables_number 4
loop_
_symmetry_equiv_pos_site_id
_symmetry_equiv_pos_as_xyz
1 x,y,z
2 -x,1/2+y,-z
_cell_length_a 7.5262(6)
_cell_length_b 23.9065(19)
_cell_length_c 7.5360(5)
_cell_angle_alpha 90
_cell_angle_beta 91.955(5)
_cell_angle_gamma 90
_cell_formula_units_Z 4
loop_
_atom_type_symbol
_atom_type_radius_bond
C 0.68
H 0.23
N 0.68
O 0.68
loop_
_atom_site_label
_atom_site_type_symbol
_atom_site_fract_x
_atom_site_fract_y
_atom_site_fract_z
O1 O -0.0436(4) 0.00017(10) 0.3848(4)
O2 O -0.4299(4) 0.15968(14) 0.1861(5)
O3 O -0.3154(4) 0.24121(13) 0.1571(4)
N1 N 0.2765(4) 0.03363(13) 0.9386(4)
N2 N 0.1456(4) 0.02693(12) 0.6126(4)
H1 H 0.19300 0.05610 0.66130
N3 N -0.3076(5) 0.19199(18) 0.2012(4)
C1 C 0.3423(6) 0.0382(2) 1.1042(6)
H2 H 0.35690 0.07390 1.15180
C2 C 0.3904(6) -0.0075(2) 1.2102(6)
H3 H 0.43420 -0.00200 1.32570
C3 C 0.3731(6) -0.0602(2) 1.1439(6)
H4 H 0.40590 -0.09100 1.21320
C4 C 0.3048(5) -0.06766(18) 0.9690(6)
C5 C 0.2812(5) -0.12050(18) 0.8894(6)
H5 H 0.31060 -0.15290 0.95220
C6 C 0.2144(5) -0.12368(18) 0.7188(6)
H6 H 0.20140 -0.15860 0.66570
C7 C 0.1644(5) -0.07553(16) 0.6208(5)
H7 H 0.11690 -0.07890 0.50580
C8 C 0.1864(5) -0.02439(16) 0.6959(5)
C9 C 0.2583(5) -0.01890(17) 0.8726(5)
C10 C 0.0404(5) 0.03639(16) 0.4646(6)
C11 C 0.0310(5) 0.09692(14) 0.4101(5)
C12 C 0.1745(5) 0.13303(15) 0.4303(4)
H8 H 0.28100 0.12020 0.48160
C13 C 0.1598(5) 0.18810(16) 0.3744(5)
H9 H 0.25710 0.21190 0.38750
C14 C 0.0025(5) 0.20796(16) 0.2994(5)
H10 H -0.00840 0.24500 0.26340
C15 C -0.1369(5) 0.17167(16) 0.2795(5)
C16 C -0.1270(5) 0.11632(16) 0.3324(4)
H11 H -0.22420 0.09260 0.31610
O4 O 0.5494(4) 0.07363(10) 0.6132(4)
O5 O 0.6211(5) -0.12588(13) 0.4572(5)
O6 O 0.7180(6) -0.18301(14) 0.6538(5)
N4 N 1.0712(4) 0.16214(13) 0.8661(4)
N5 N 0.7775(4) 0.10629(12) 0.7901(4)
H12 H 0.85740 0.09580 0.86740
N6 N 0.6818(5) -0.13565(15) 0.6043(6)
C17 C 1.2218(6) 0.1892(2) 0.9067(5)
H13 H 1.31690 0.16890 0.95540
C18 C 1.2440(7) 0.2461(2) 0.8800(6)
H14 H 1.35110 0.26300 0.91340
C19 C 1.1101(7) 0.27720(19) 0.8054(6)
H15 H 1.12590 0.31520 0.78450
C20 C 0.9466(6) 0.25101(17) 0.7599(5)
C21 C 0.7974(7) 0.27841(17) 0.6849(5)
H16 H 0.80220 0.31670 0.66360
C22 C 0.6457(6) 0.24969(17) 0.6431(5)
H17 H 0.54860 0.26880 0.59310
C23 C 0.6321(5) 0.19193(16) 0.6734(5)
H18 H 0.52800 0.17280 0.64230
C24 C 0.7737(5) 0.16426(15) 0.7490(4)
C25 C 0.9345(5) 0.19256(16) 0.7935(5)
C26 C 0.6708(5) 0.06562(17) 0.7224(5)
C27 C 0.7138(5) 0.00800(15) 0.7881(5)
C28 C 0.6755(5) -0.03630(16) 0.6737(5)
H19 H 0.62290 -0.03000 0.56210
C29 C 0.7168(5) -0.08908(15) 0.7289(5)
C30 C 0.7893(5) -0.10102(16) 0.8947(6)
H20 H 0.81250 -0.13780 0.92870
C31 C 0.8269(5) -0.05745(18) 1.0088(6)
H21 H 0.87690 -0.06450 1.12110
C32 C 0.7900(5) -0.00293(17) 0.9561(5)
H22 H 0.81620 0.02650 1.03320
#END
