
#######################################################################
#
#                 Cambridge Crystallographic Data Centre
#                                CCDC
#
#######################################################################
#
# If this CIF has been generated from an entry in the Cambridge
# Structural Database, then it will include bibliographic, chemical,
# crystal, experimental, refinement or atomic coordinate data resulting
# from the CCDC's data processing and validation procedures.
#
#######################################################################

data_CSD_CIF_OGENEU
_audit_creation_date 2009-01-14
_audit_creation_method CSD-ConQuest-V1
_database_code_CSD OGENEU
_database_code_depnum_ccdc_archive 'CCDC 712491'
_chemical_formula_sum 'C16 H11 N3 O3'
_chemical_formula_moiety
;
C16 H11 N3 O3
;
_journal_coeditor_code "IUCr CI2716"
_journal_coden_Cambridge 1370
_journal_volume 64
_journal_year 2008
_journal_page_first o2392
_journal_name_full 'Acta Crystallogr.,Sect.E:Struct.Rep.Online '
loop_
_publ_author_name
"Gang Lei"
"Lin-Hai Jing"
"Li Zhou"
_chemical_name_systematic
;
2-Nitro-N-(8-quinolyl)benzamide
;
_cell_volume   1301.422
_exptl_crystal_colour 'white'
_exptl_crystal_density_diffrn 1.497
_exptl_crystal_description 'block'
_diffrn_ambient_temperature 93
#These two values have been output from a single CSD field.
_refine_ls_R_factor_gt 0.0511
_refine_ls_wR_factor_gt 0.0511
_symmetry_cell_setting monoclinic
_symmetry_space_group_name_H-M 'P 21/c'
_symmetry_Int_Tables_number 14
loop_
_symmetry_equiv_pos_site_id
_symmetry_equiv_pos_as_xyz
1 x,y,z
2 -x,1/2+y,1/2-z
3 -x,-y,-z
4 x,-1/2-y,-1/2+z
_cell_length_a 12.430(3)
_cell_length_b 10.144(3)
_cell_length_c 11.528(3)
_cell_angle_alpha 90
_cell_angle_beta 116.449(3)
_cell_angle_gamma 90
_cell_formula_units_Z 4
loop_
_atom_type_symbol
_atom_type_radius_bond
C 0.68
H 0.23
N 0.68
O 0.68
loop_
_atom_site_label
_atom_site_type_symbol
_atom_site_fract_x
_atom_site_fract_y
_atom_site_fract_z
O1 O 0.33297(10) 0.27884(13) 0.71053(11)
O2 O 0.42529(10) 0.55360(12) 0.75700(12)
O3 O 0.60516(11) 0.50766(12) 0.90418(11)
N1 N 0.07416(11) 0.46239(13) 0.28513(13)
N2 N 0.23340(11) 0.35402(13) 0.50283(13)
H1 H 0.24600 0.38350 0.43810
N3 N 0.52329(11) 0.49852(13) 0.79419(13)
C1 C -0.00265(14) 0.52243(15) 0.17885(15)
H2 H 0.02840 0.56710 0.12780
C2 C -0.12782(14) 0.52428(15) 0.13644(16)
H3 H -0.17910 0.56910 0.05900
C3 C -0.17449(14) 0.46062(15) 0.20824(16)
H4 H -0.25880 0.45910 0.18030
C4 C -0.13518(14) 0.33419(15) 0.40878(16)
H5 H -0.21840 0.32980 0.38650
C5 C -0.05278(14) 0.27986(15) 0.52209(16)
H6 H -0.08000 0.23880 0.57830
C6 C 0.07210(14) 0.28306(15) 0.55819(16)
H7 H 0.12750 0.24410 0.63730
C7 C 0.11263(13) 0.34276(14) 0.47822(15)
C8 C 0.02839(13) 0.40129(14) 0.35897(15)
C9 C -0.09602(13) 0.39701(15) 0.32465(15)
C10 C 0.33334(13) 0.32539(15) 0.61325(15)
C11 C 0.44935(13) 0.34895(15) 0.60488(14)
C12 C 0.54399(13) 0.41992(15) 0.69958(15)
C13 C 0.65666(14) 0.42618(15) 0.70338(16)
H8 H 0.71980 0.47410 0.76980
C14 C 0.67563(14) 0.36117(15) 0.60838(17)
H9 H 0.75270 0.36290 0.61000
C15 C 0.58228(15) 0.29374(16) 0.51112(16)
H10 H 0.59510 0.25180 0.44470
C16 C 0.47000(14) 0.28663(15) 0.50942(15)
H11 H 0.40700 0.23890 0.44260
#END
