
#######################################################################
#
#                 Cambridge Crystallographic Data Centre
#                                CCDC
#
#######################################################################
#
# If this CIF has been generated from an entry in the Cambridge
# Structural Database, then it will include bibliographic, chemical,
# crystal, experimental, refinement or atomic coordinate data resulting
# from the CCDC's data processing and validation procedures.
#
#######################################################################

data_CSD_CIF_OGEPUM02
_audit_creation_date 2014-10-23
_audit_creation_method CSD-ConQuest-V1
_database_code_CSD OGEPUM02
_database_code_depnum_ccdc_archive 'CCDC 902578'
_chemical_formula_sum 'C16 H11 N3 O3'
_chemical_formula_moiety
;
C16 H11 N3 O3
;
_journal_coden_Cambridge 119
_journal_volume 1078
_journal_year 2014
_journal_page_first 188
_journal_name_full 'J.Mol.Struct. '
loop_
_publ_author_name
"P.Khakhlary"
"J.B.Baruah"
_chemical_name_systematic
;
4-nitro-N-(quinolin-8-yl)benzamide
;
_cell_volume   1356.332
_exptl_crystal_colour 'yellow'
_exptl_crystal_density_diffrn 1.436
_exptl_special_details
;
polymorph II

;
_exptl_crystal_description 'block'
_diffrn_ambient_temperature 296
#These two values have been output from a single CSD field.
_refine_ls_R_factor_gt 0.0461
_refine_ls_wR_factor_gt 0.0461
_symmetry_cell_setting monoclinic
_symmetry_space_group_name_H-M 'P 21/c'
_symmetry_Int_Tables_number 14
loop_
_symmetry_equiv_pos_site_id
_symmetry_equiv_pos_as_xyz
1 x,y,z
2 -x,1/2+y,1/2-z
3 -x,-y,-z
4 x,-1/2-y,-1/2+z
_cell_length_a 10.2024(10)
_cell_length_b 13.3545(12)
_cell_length_c 12.6962(13)
_cell_angle_alpha 90
_cell_angle_beta 128.364(6)
_cell_angle_gamma 90
_cell_formula_units_Z 4
loop_
_atom_type_symbol
_atom_type_radius_bond
C 0.68
H 0.23
N 0.68
O 0.68
loop_
_atom_site_label
_atom_site_type_symbol
_atom_site_fract_x
_atom_site_fract_y
_atom_site_fract_z
O1 O 0.1123(3) 0.97822(13) 0.1982(2)
O2 O -0.2438(3) 0.67905(15) 0.4372(2)
O3 O -0.2783(3) 0.83503(17) 0.4555(2)
N1 N 0.3338(3) 0.65986(15) 0.1858(2)
N2 N 0.1879(3) 0.81945(15) 0.1946(2)
H1 H 0.18890 0.75930 0.21940
N3 N -0.2256(3) 0.7679(2) 0.4257(2)
C1 C 0.4065(3) 0.5796(2) 0.1826(3)
H2 H 0.40540 0.52130 0.22200
C2 C 0.4853(4) 0.5767(2) 0.1236(3)
H3 H 0.53350 0.51770 0.12330
C3 C 0.4903(4) 0.6608(3) 0.0671(3)
H4 H 0.54240 0.65990 0.02760
C4 C 0.4170(3) 0.7497(2) 0.0679(3)
C5 C 0.4148(4) 0.8398(2) 0.0104(3)
H5 H 0.46580 0.84340 -0.02990
C6 C 0.3388(4) 0.9220(2) 0.0131(3)
H6 H 0.33780 0.98110 -0.02600
C7 C 0.2607(4) 0.91956(19) 0.0744(3)
H7 H 0.20880 0.97650 0.07520
C8 C 0.2624(3) 0.83254(18) 0.1325(2)
C9 C 0.3392(3) 0.74480(19) 0.1293(3)
C10 C 0.1144(3) 0.88930(18) 0.2205(3)
C11 C 0.0309(3) 0.85122(16) 0.2768(2)
C12 C -0.0132(4) 0.92227(17) 0.3294(3)
H8 H 0.01400 0.98910 0.33170
C13 C -0.0964(3) 0.89550(18) 0.3781(3)
H9 H -0.12660 0.94360 0.41260
C14 C -0.1344(3) 0.79610(18) 0.3750(2)
C15 C -0.0906(3) 0.72286(17) 0.3259(3)
H10 H -0.11630 0.65600 0.32570
C16 C -0.0076(3) 0.75133(17) 0.2769(3)
H11 H 0.02310 0.70290 0.24330
#END
