
#######################################################################
#
#                 Cambridge Crystallographic Data Centre
#                                CCDC
#
#######################################################################
#
# If this CIF has been generated from an entry in the Cambridge
# Structural Database, then it will include bibliographic, chemical,
# crystal, experimental, refinement or atomic coordinate data resulting
# from the CCDC's data processing and validation procedures.
#
#######################################################################

data_CSD_CIF_OGERAW
_audit_creation_date 2018-08-30
_audit_creation_method CSD-ConQuest-V1
_database_code_CSD OGERAW
_database_code_depnum_ccdc_archive 'CCDC 968781'
_chemical_formula_sum 'C22 H20 N2 O5'
_chemical_formula_moiety
;
C22 H20 N2 O5
;
_journal_coden_Cambridge 35
_journal_volume 80
_journal_year 2015
_journal_page_first 528
_journal_name_full 'J.Org.Chem. '
loop_
_publ_author_name
"Seo-Jung Han"
"Florian Vogt"
"J.A.May"
"Shyam Krishnan"
"M.Gatti"
"S.C.Virgil"
"B.M.Stoltz"
_chemical_name_systematic
;
3'-allyl-1-methyl-3'-(2-nitrophenyl)-5',6'-dihydrospiro[indole-3,4'-pyran]-2,2
'(1H,3'H)-dione
;
_cell_volume   1852.244
_exptl_crystal_colour 'colorless'
_exptl_crystal_density_diffrn 1.407
_exptl_crystal_description 'plate'
_diffrn_ambient_temperature 100
#These two values have been output from a single CSD field.
_refine_ls_R_factor_gt 0.0491
_refine_ls_wR_factor_gt 0.0491
_symmetry_cell_setting monoclinic
_symmetry_space_group_name_H-M 'P 21/c'
_symmetry_Int_Tables_number 14
loop_
_symmetry_equiv_pos_site_id
_symmetry_equiv_pos_as_xyz
1 x,y,z
2 -x,1/2+y,1/2-z
3 -x,-y,-z
4 x,-1/2-y,-1/2+z
_cell_length_a 7.5798(3)
_cell_length_b 30.0522(12)
_cell_length_c 8.3663(3)
_cell_angle_alpha 90
_cell_angle_beta 103.6098(19)
_cell_angle_gamma 90
_cell_formula_units_Z 4
loop_
_atom_type_symbol
_atom_type_radius_bond
C 0.68
H 0.23
N 0.68
O 0.68
loop_
_atom_site_label
_atom_site_type_symbol
_atom_site_fract_x
_atom_site_fract_y
_atom_site_fract_z
O1 O 1.23162(11) 0.20346(2) 0.91267(10)
O2 O 0.94765(11) 0.18868(2) 0.89634(8)
O3 O 0.86784(11) 0.09356(2) 1.00510(8)
O4 O 1.12778(10) 0.10507(2) 0.94083(8)
O5 O 0.50300(8) 0.04285(2) 0.63759(9)
N1 N 1.08359(12) 0.18864(2) 0.84009(10)
N2 N 0.47787(10) 0.08931(2) 0.41611(9)
C1 C 0.87192(11) 0.10221(3) 0.7103(1)
C2 C 0.97315(10) 0.13254(3) 0.61463(10)
C3 C 0.96310(11) 0.12304(3) 0.44882(10)
H1 H 0.8996(16) 0.0964(4) 0.3979(14)
C4 C 1.03364(13) 0.15118(3) 0.34797(12)
H2 H 1.0221(16) 0.1443(4) 0.2294(15)
C5 C 1.12380(13) 0.18975(3) 0.41074(13)
H3 H 1.1769(18) 0.2093(4) 0.3422(16)
C6 C 1.14429(12) 0.19957(3) 0.57495(13)
H4 H 1.2093(17) 0.2272(4) 0.6217(16)
C7 C 1.06755(11) 0.17168(3) 0.67261(11)
C8 C 0.89532(11) 0.05191(3) 0.66576(10)
H5 H 0.8317(15) 0.0333(4) 0.7315(14)
H6 H 0.8326(15) 0.0471(4) 0.5548(14)
C9 C 1.08760(12) 0.03644(3) 0.68770(11)
H7 H 1.1638(16) 0.0527(4) 0.6259(15)
C10 C 1.15605(14) 0.00150(4) 0.77714(15)
H8 H 1.0813(18) -0.0153(5) 0.8345(17)
H9 H 1.2791(19) -0.0080(5) 0.7840(17)
C11 C 0.96465(13) 0.10209(3) 0.89379(10)
C12 C 0.67149(16) 0.09230(4) 0.95792(13)
H10 H 0.6371(18) 0.0985(4) 1.0635(17)
H11 H 0.6350(17) 0.0624(5) 0.9241(16)
C13 C 0.59757(15) 0.12646(3) 0.82675(12)
H12 H 0.6439(17) 0.1566(4) 0.8726(16)
H13 H 0.4615(18) 0.1269(4) 0.8077(16)
C14 C 0.65891(11) 0.11604(3) 0.66824(10)
C15 C 0.61359(11) 0.15261(3) 0.54019(10)
C16 C 0.65478(11) 0.19751(3) 0.54718(11)
H14 H 0.7225(16) 0.2110(4) 0.6478(14)
C17 C 0.60621(11) 0.22300(3) 0.40366(11)
H15 H 0.6510(15) 0.2592(4) 0.4172(14)
C18 C 0.51536(12) 0.20365(3) 0.25627(11)
H16 H 0.4839(16) 0.2216(4) 0.1603(15)
C19 C 0.46452(11) 0.15879(3) 0.24882(11)
H17 H 0.3941(16) 0.1459(4) 0.1447(14)
C20 C 0.51538(11) 0.13434(3) 0.39222(10)
C21 C 0.54005(11) 0.07760(3) 0.57708(11)
C22 C 0.35764(13) 0.06131(3) 0.29626(13)
H18 H 0.2323(18) 0.0726(5) 0.2676(16)
H19 H 0.3654(18) 0.0309(4) 0.3328(17)
H20 H 0.3975(18) 0.0598(4) 0.1907(17)
#END
