
#######################################################################
#
#                 Cambridge Crystallographic Data Centre
#                                CCDC
#
#######################################################################
#
# If this CIF has been generated from an entry in the Cambridge
# Structural Database, then it will include bibliographic, chemical,
# crystal, experimental, refinement or atomic coordinate data resulting
# from the CCDC's data processing and validation procedures.
#
#######################################################################

data_CSD_CIF_OGILIA
_audit_creation_date 2010-07-15
_audit_creation_method CSD-ConQuest-V1
_database_code_CSD OGILIA
_database_code_depnum_ccdc_archive 'CCDC 724991'
_chemical_formula_sum 'C9 H6 N2 O3'
_chemical_formula_moiety
;
C9 H6 N2 O3
;
_journal_coden_Cambridge 1350
_journal_volume 11
_journal_year 2009
_journal_page_first 2400
_journal_name_full 'CrystEngComm '
loop_
_publ_author_name
"Y.P.Nizhnik"
"Jianjiang Lu"
"S.V.Rosokha"
"J.K.Kochi"
_chemical_name_systematic
;
4-Nitro-quinoline-1-oxide
;
_cell_volume    774.569
_exptl_crystal_colour 'brown'
_exptl_crystal_density_diffrn 1.631
_exptl_special_details
;
polymorph I

;
_exptl_crystal_description 'block'
_exptl_crystal_preparation 'acetic acid'
_diffrn_ambient_temperature 173
#These two values have been output from a single CSD field.
_refine_ls_R_factor_gt 0.0861
_refine_ls_wR_factor_gt 0.0861
_symmetry_cell_setting monoclinic
_symmetry_space_group_name_H-M 'P 21/c'
_symmetry_Int_Tables_number 14
loop_
_symmetry_equiv_pos_site_id
_symmetry_equiv_pos_as_xyz
1 x,y,z
2 -x,1/2+y,1/2-z
3 -x,-y,-z
4 x,-1/2-y,-1/2+z
_cell_length_a 7.435(2)
_cell_length_b 6.1034(19)
_cell_length_c 17.069(6)
_cell_angle_alpha 90
_cell_angle_beta 90.094(7)
_cell_angle_gamma 90
_cell_formula_units_Z 4
loop_
_atom_type_symbol
_atom_type_radius_bond
C 0.68
H 0.23
N 0.68
O 0.68
loop_
_atom_site_label
_atom_site_type_symbol
_atom_site_fract_x
_atom_site_fract_y
_atom_site_fract_z
O1 O 0.0530(4) -0.4367(4) 0.12135(15)
O2 O 0.3463(4) 0.4329(4) 0.24985(14)
O3 O 0.4788(4) 0.4488(5) 0.13767(16)
N1 N 0.1261(4) -0.2476(5) 0.13357(16)
N2 N 0.3762(4) 0.3599(5) 0.18357(17)
C1 C 0.1396(5) -0.1683(6) 0.20669(19)
H1 H 0.09290 -0.25100 0.24920
C2 C 0.2206(5) 0.0320(6) 0.22118(19)
H2 H 0.22960 0.08420 0.27350
C3 C 0.2874(4) 0.1548(5) 0.16149(19)
C4 C 0.2720(4) 0.0847(5) 0.08202(18)
C5 C 0.3242(5) 0.2033(5) 0.01423(19)
H3 H 0.37670 0.34440 0.01970
C6 C 0.2998(5) 0.1164(6) -0.05891(19)
H4 H 0.33460 0.19910 -0.10350
C7 C 0.2242(5) -0.0931(6) -0.06940(19)
H5 H 0.21170 -0.15190 -0.12060
C8 C 0.1685(5) -0.2123(6) -0.00580(19)
H6 H 0.11570 -0.35290 -0.01250
C9 C 0.1910(4) -0.1231(5) 0.06930(18)
#END
