
#######################################################################
#
#                 Cambridge Crystallographic Data Centre
#                                CCDC
#
#######################################################################
#
# If this CIF has been generated from an entry in the Cambridge
# Structural Database, then it will include bibliographic, chemical,
# crystal, experimental, refinement or atomic coordinate data resulting
# from the CCDC's data processing and validation procedures.
#
#######################################################################

data_CSD_CIF_OGIQIF
_audit_creation_date 2010-07-16
_audit_creation_method CSD-ConQuest-V1
_database_code_CSD OGIQIF
_database_code_depnum_ccdc_archive 'CCDC 731772'
_chemical_formula_sum 'C5 H8 N12 O3'
_chemical_formula_moiety
;
C5 H8 N12 O3
;
_journal_coden_Cambridge 9
_journal_volume 48
_journal_year 2009
_journal_page_first 8431
_journal_name_full 'Inorg.Chem. '
loop_
_publ_author_name
"Young-Hyuk Joo"
"J.M.Shreeve"
_chemical_name_systematic
;
1-(1,3-Diazido-2-(azidomethyl)propan-2-yl)-3-nitrourea
;
_cell_volume   2362.959
_exptl_crystal_colour 'colorless'
_exptl_crystal_density_diffrn 1.598
_exptl_crystal_description 'thin plate'
_diffrn_ambient_temperature 93
#These two values have been output from a single CSD field.
_refine_ls_R_factor_gt 0.0306
_refine_ls_wR_factor_gt 0.0306
_symmetry_cell_setting monoclinic
_symmetry_space_group_name_H-M 'C 2/c'
_symmetry_Int_Tables_number 15
loop_
_symmetry_equiv_pos_site_id
_symmetry_equiv_pos_as_xyz
1 x,y,z
2 -x,y,1/2-z
3 1/2+x,1/2+y,z
4 1/2-x,1/2+y,1/2-z
5 -x,-y,-z
6 x,-y,-1/2+z
7 -1/2-x,-1/2-y,-z
8 -1/2+x,-1/2-y,-1/2+z
_cell_length_a 15.6078(18)
_cell_length_b 6.2557(7)
_cell_length_c 24.224(3)
_cell_angle_alpha 90
_cell_angle_beta 92.481(2)
_cell_angle_gamma 90
_cell_formula_units_Z 8
loop_
_atom_type_symbol
_atom_type_radius_bond
C 0.68
H 0.23
N 0.68
O 0.68
loop_
_atom_site_label
_atom_site_type_symbol
_atom_site_fract_x
_atom_site_fract_y
_atom_site_fract_z
C1 C 0.16264(6) 0.84685(15) 0.39165(4)
N1 N 0.16835(5) 0.86212(14) 0.33128(3)
H1 H 0.21450 0.81210 0.31610
C2 C 0.10677(6) 0.94824(15) 0.29861(4)
O1 O 0.03929(4) 1.02462(12) 0.31436(3)
N2 N 0.11660(5) 0.95152(14) 0.24105(3)
H2 H 0.07730 1.02280 0.22150
N3 N 0.17954(5) 0.85796(14) 0.21170(3)
O2 O 0.16623(5) 0.85558(14) 0.16152(3)
O3 O 0.24409(5) 0.78746(14) 0.23630(3)
C3 C 0.07827(6) 0.74129(16) 0.40815(4)
H3 H 0.07940 0.72080 0.44870
H4 H 0.02940 0.83600 0.39770
N4 N 0.06659(6) 0.53211(15) 0.38029(4)
N5 N 0.00961(6) 0.52642(14) 0.34311(4)
N6 N -0.04083(7) 0.49776(18) 0.30908(5)
C4 C 0.17114(6) 1.07409(16) 0.41512(4)
H5 H 0.22540 1.13920 0.40370
H6 H 0.12300 1.16360 0.40050
N7 N 0.17028(6) 1.06488(15) 0.47644(4)
N8 N 0.13477(5) 1.21924(15) 0.49784(4)
N9 N 0.10451(7) 1.35115(17) 0.52233(4)
C5 C 0.23680(6) 0.70457(16) 0.41229(4)
H7 H 0.23950 0.69980 0.45320
H8 H 0.22850 0.55710 0.39820
N10 N 0.31726(5) 0.79565(15) 0.39198(4)
N11 N 0.38340(5) 0.72243(14) 0.41463(3)
N12 N 0.44791(6) 0.66968(16) 0.43280(4)
#END
