
#######################################################################
#
#                 Cambridge Crystallographic Data Centre
#                                CCDC
#
#######################################################################
#
# If this CIF has been generated from an entry in the Cambridge
# Structural Database, then it will include bibliographic, chemical,
# crystal, experimental, refinement or atomic coordinate data resulting
# from the CCDC's data processing and validation procedures.
#
#######################################################################

data_CSD_CIF_OGOCOE
_audit_creation_date 2015-06-20
_audit_creation_method CSD-ConQuest-V1
_database_code_CSD OGOCOE
_database_code_depnum_ccdc_archive 'CCDC 1052320'
_chemical_formula_sum 'C45 H37 N3 O9'
_chemical_formula_moiety
;
C45 H37 N3 O9
;
_journal_coden_Cambridge 920
_journal_volume 10
_journal_year 2015
_journal_page_first 2207
_journal_name_full 'Chem.Asian J. '
loop_
_publ_author_name
"Fong-Jiao Hong"
"Kam-Weng Chong"
"Yun-Yee Low"
"N.F.Thomas"
"T.-S.Kam"
_chemical_name_systematic
;
7-methoxy-1,5-bis(4-methoxyphenyl)-2,3,4-tris(4-nitrophenyl)-1,2,2a,3,4,5-hexa
hydroacenaphthylene
;
_chemical_melting_point 524.15
_cell_volume   3850.320
_exptl_crystal_colour 'yellowish'
_exptl_crystal_density_diffrn 1.318
_exptl_special_details
;
Melting point range 524.15-527.15K

;
_exptl_crystal_description 'block'
_diffrn_ambient_temperature 296
#These two values have been output from a single CSD field.
_refine_ls_R_factor_gt 0.0759
_refine_ls_wR_factor_gt 0.0759
_symmetry_cell_setting monoclinic
_symmetry_space_group_name_H-M 'P 21/c'
_symmetry_Int_Tables_number 14
loop_
_symmetry_equiv_pos_site_id
_symmetry_equiv_pos_as_xyz
1 x,y,z
2 -x,1/2+y,1/2-z
3 -x,-y,-z
4 x,-1/2-y,-1/2+z
_cell_length_a 13.2141(18)
_cell_length_b 14.666(2)
_cell_length_c 20.377(3)
_cell_angle_alpha 90
_cell_angle_beta 102.837(8)
_cell_angle_gamma 90
_cell_formula_units_Z 4
loop_
_atom_type_symbol
_atom_type_radius_bond
C 0.68
H 0.23
N 0.68
O 0.68
loop_
_atom_site_label
_atom_site_type_symbol
_atom_site_fract_x
_atom_site_fract_y
_atom_site_fract_z
C1 C 0.7165(5) 0.3744(5) 0.3083(4)
C2 C 0.7148(5) 0.3080(5) 0.3570(4)
C3 C 0.7264(5) 0.2115(7) 0.3470(4)
H1 H 0.72760 0.16620 0.37910
C4 C 0.7354(6) 0.1984(5) 0.2820(6)
C5 C 0.7308(5) 0.2605(5) 0.2285(4)
H2 H 0.73520 0.24100 0.18580
C6 C 0.7195(5) 0.3517(5) 0.2426(4)
C7 C 0.6977(5) 0.4660(4) 0.3330(3)
H3 H 0.76600 0.49120 0.35390
C8 C 0.6481(5) 0.5326(4) 0.2765(3)
H4 H 0.57700 0.51240 0.25720
C9 C 0.6441(5) 0.6271(4) 0.3045(3)
C10 C 0.5504(5) 0.6694(5) 0.3047(3)
H5 H 0.48870 0.64080 0.28400
C11 C 0.5470(6) 0.7537(5) 0.3351(4)
H6 H 0.48380 0.78190 0.33470
C12 C 0.6389(6) 0.7948(5) 0.3658(4)
C13 C 0.7335(6) 0.7553(5) 0.3667(3)
H7 H 0.79490 0.78370 0.38810
C14 C 0.7349(5) 0.6720(5) 0.3347(3)
H8 H 0.79840 0.64550 0.33360
C15 C 0.7551(7) 0.0396(5) 0.3183(5)
H9 H 0.82040 0.04690 0.34980
H10 H 0.75040 -0.02100 0.30010
H11 H 0.69950 0.04950 0.34080
C16 C 0.7936(5) 0.4178(5) 0.1490(4)
C17 C 0.8979(6) 0.4093(5) 0.1812(4)
H12 H 0.91650 0.41200 0.22800
C18 C 0.9721(6) 0.3974(5) 0.1465(4)
H13 H 1.04080 0.38990 0.16940
C19 C 0.9478(6) 0.3963(5) 0.0780(4)
C20 C 0.8471(6) 0.4064(5) 0.0435(4)
H14 H 0.83000 0.40550 -0.00330
C21 C 0.7702(6) 0.4182(5) 0.0803(4)
H15 H 0.70170 0.42650 0.05730
C22 C 0.7108(5) 0.4284(4) 0.1907(3)
H16 H 0.64330 0.42110 0.15940
C23 C 0.7116(5) 0.5255(4) 0.2218(3)
H17 H 0.78380 0.53980 0.24330
C24 C 0.6772(5) 0.5939(4) 0.1652(3)
C25 C 0.7479(6) 0.6451(5) 0.1400(4)
H18 H 0.81830 0.63870 0.15910
C26 C 0.7172(6) 0.7050(5) 0.0874(4)
H19 H 0.76630 0.73810 0.07100
C27 C 0.6146(6) 0.7156(5) 0.0595(4)
C28 C 0.5410(6) 0.6652(5) 0.0818(4)
H20 H 0.47100 0.67140 0.06150
C29 C 0.5722(5) 0.6057(5) 0.1342(4)
H21 H 0.52240 0.57220 0.14960
C30 C 1.0077(7) 0.3716(6) -0.0234(4)
H22 H 0.96870 0.31640 -0.03510
H23 H 1.07120 0.36810 -0.03870
H24 H 0.96760 0.42260 -0.04430
C31 C 0.7830(6) 0.3570(5) 0.4782(4)
C32 C 0.7685(6) 0.3380(6) 0.5386(4)
H25 H 0.70340 0.31850 0.54310
C33 C 0.8467(7) 0.3461(7) 0.5950(5)
H26 H 0.83280 0.33190 0.63660
C34 C 0.9406(6) 0.3731(6) 0.5927(4)
C35 C 0.9630(6) 0.3861(6) 0.5304(5)
H27 H 1.03010 0.40060 0.52670
C36 C 0.8840(7) 0.3774(6) 0.4732(4)
H28 H 0.89860 0.38510 0.43090
C37 C 0.6905(5) 0.3493(4) 0.4184(4)
H29 H 0.63650 0.31260 0.43190
C38 C 0.6422(5) 0.4450(4) 0.3918(3)
H30 H 0.66100 0.49110 0.42730
C39 C 0.5248(5) 0.4375(4) 0.3699(3)
C40 C 0.4775(5) 0.3731(5) 0.3222(3)
H31 H 0.51770 0.33730 0.30020
C41 C 0.3715(6) 0.3631(5) 0.3079(4)
H32 H 0.33920 0.32080 0.27600
C42 C 0.3154(6) 0.4149(6) 0.3405(4)
C43 C 0.3578(6) 0.4784(5) 0.3876(5)
H33 H 0.31640 0.51260 0.40980
C44 C 0.4651(6) 0.4905(5) 0.4015(4)
H34 H 0.49600 0.53470 0.43230
C45 C 1.0026(7) 0.3602(8) 0.7107(4)
H35 H 0.95010 0.39980 0.72060
H36 H 1.06510 0.36650 0.74500
H37 H 0.97900 0.29810 0.70950
N1 N 0.6363(6) 0.8813(4) 0.4012(3)
N2 N 0.5803(6) 0.7843(5) 0.0064(3)
N3 N 0.2005(6) 0.3998(5) 0.3268(5)
O1 O 0.7472(5) 0.1086(4) 0.2614(3)
O2 O 0.7158(5) 0.9108(4) 0.4351(3)
O3 O 0.5536(5) 0.9182(4) 0.3954(4)
O4 O 1.0305(4) 0.3829(4) 0.0475(3)
O5 O 0.6466(5) 0.8330(4) -0.0085(3)
O6 O 0.4881(5) 0.7865(4) -0.0208(3)
O7 O 1.0226(4) 0.3838(4) 0.6475(3)
O8 O 0.1609(4) 0.3486(4) 0.2825(3)
O9 O 0.1533(6) 0.4338(6) 0.3653(6)
#END
