
#######################################################################
#
#                 Cambridge Crystallographic Data Centre
#                                CCDC
#
#######################################################################
#
# If this CIF has been generated from an entry in the Cambridge
# Structural Database, then it will include bibliographic, chemical,
# crystal, experimental, refinement or atomic coordinate data resulting
# from the CCDC's data processing and validation procedures.
#
#######################################################################

data_CSD_CIF_OGODIZ
_audit_creation_date 2015-06-20
_audit_creation_method CSD-ConQuest-V1
_database_code_CSD OGODIZ
_database_code_depnum_ccdc_archive 'CCDC 1052648'
_chemical_formula_sum 'C4 H2 N6 O8'
_chemical_formula_moiety
;
C4 H2 N6 O8
;
_journal_coden_Cambridge 920
_journal_volume 10
_journal_year 2015
_journal_page_first 1987
_journal_name_full 'Chem.Asian J. '
loop_
_publ_author_name
"I.L.Dalinger"
"I.A.Vatsadze"
"T.K.Shkineva"
"A.V.Kormanov"
"M.I.Struchkova"
"K.Yu.Suponitsky"
"A.A.Bragin"
"K.A.Monogarov"
"V.P.Sinditskii"
"A.B.Sheremetev"
_chemical_name_systematic
;
4-nitro-1-(trinitromethyl)-1H-pyrazole
;
_cell_volume    925.513
_exptl_crystal_colour 'colorless'
_exptl_crystal_density_diffrn 1.881
_exptl_crystal_description 'plate'
_diffrn_ambient_temperature 100
#These two values have been output from a single CSD field.
_refine_ls_R_factor_gt 0.0396
_refine_ls_wR_factor_gt 0.0396
_symmetry_cell_setting triclinic
_symmetry_space_group_name_H-M 'P -1'
_symmetry_Int_Tables_number 2
loop_
_symmetry_equiv_pos_site_id
_symmetry_equiv_pos_as_xyz
1 x,y,z
2 -x,-y,-z
_cell_length_a 8.9522(11)
_cell_length_b 9.5349(12)
_cell_length_c 11.7842(15)
_cell_angle_alpha 81.782(3)
_cell_angle_beta 68.498(3)
_cell_angle_gamma 84.865(3)
_cell_formula_units_Z 4
loop_
_atom_type_symbol
_atom_type_radius_bond
C 0.68
H 0.23
N 0.68
O 0.68
loop_
_atom_site_label
_atom_site_type_symbol
_atom_site_fract_x
_atom_site_fract_y
_atom_site_fract_z
O1 O 0.76201(17) -0.21898(15) 0.33689(13)
O2 O 0.68224(17) -0.04710(16) 0.22637(13)
O3 O 0.73465(16) -0.03345(14) 0.54995(13)
O4 O 0.97139(16) -0.12561(14) 0.45354(12)
O5 O 0.80588(16) 0.24566(14) 0.36637(13)
O6 O 0.58962(18) 0.13895(16) 0.39038(16)
O7 O 1.39932(17) 0.25236(16) 0.13405(13)
O8 O 1.45844(17) 0.15072(14) -0.03147(13)
N1 N 0.98689(18) 0.03129(16) 0.24152(14)
N2 N 1.02846(19) -0.04193(16) 0.14039(14)
N3 N 0.74687(18) -0.09788(16) 0.29744(14)
N4 N 0.8491(2) -0.05686(16) 0.45921(15)
N5 N 0.7322(2) 0.14593(17) 0.36471(15)
N6 N 1.36966(19) 0.17268(16) 0.07276(16)
C1 C 1.1713(2) 0.0020(2) 0.0702(2)
C2 C 1.2219(2) 0.10007(18) 0.12489(17)
C3 C 1.1049(2) 0.11730(19) 0.23412(18)
C4 C 0.8364(2) 0.00880(19) 0.33447(17)
H1 H 1.225(2) -0.0304(19) -0.0057(17)
H2 H 1.094(2) 0.174(2) 0.2958(18)
O9 O 0.77704(18) 0.48913(15) 0.50217(13)
O10 O 0.68489(16) 0.66914(14) 0.60702(12)
O11 O 0.55111(18) 0.28327(16) 0.63061(15)
O12 O 0.72790(18) 0.20223(15) 0.71195(14)
O13 O 0.43748(15) 0.46735(14) 0.89906(12)
O14 O 0.39504(17) 0.53467(17) 0.72829(13)
O15 O 0.85934(17) 0.25648(14) 1.07621(12)
O16 O 1.09153(17) 0.35036(15) 0.97685(14)
N7 N 0.75785(18) 0.44804(16) 0.77703(14)
N8 N 0.90460(18) 0.50897(17) 0.71155(15)
N9 N 0.70985(19) 0.54449(17) 0.59456(15)
N10 N 0.64280(19) 0.29318(17) 0.68241(15)
N11 N 0.47711(19) 0.48855(16) 0.78823(16)
N12 N 0.9534(2) 0.32782(16) 0.98792(15)
C5 C 0.9885(3) 0.4728(2) 0.78248(19)
C6 C 0.9000(2) 0.38861(18) 0.89033(17)
C7 C 0.7543(2) 0.37235(19) 0.88507(18)
C8 C 0.6520(2) 0.44502(19) 0.71527(17)
H3 H 1.094(2) 0.5029(19) 0.7603(16)
H4 H 0.665(2) 0.325(2) 0.9397(18)
#END
