
#######################################################################
#
#                 Cambridge Crystallographic Data Centre
#                                CCDC
#
#######################################################################
#
# If this CIF has been generated from an entry in the Cambridge
# Structural Database, then it will include bibliographic, chemical,
# crystal, experimental, refinement or atomic coordinate data resulting
# from the CCDC's data processing and validation procedures.
#
#######################################################################

data_CSD_CIF_OGOKAY
_audit_creation_date 2015-06-20
_audit_creation_method CSD-ConQuest-V1
_database_code_CSD OGOKAY
_database_code_depnum_ccdc_archive 'CCDC 1044723'
_chemical_formula_sum 'C4 H1 N7 O10'
_chemical_formula_moiety
;
C4 H1 N7 O10
;
_journal_coden_Cambridge 920
_journal_volume 10
_journal_year 2015
_journal_page_first 1987
_journal_name_full 'Chem.Asian J. '
loop_
_publ_author_name
"I.L.Dalinger"
"I.A.Vatsadze"
"T.K.Shkineva"
"A.V.Kormanov"
"M.I.Struchkova"
"K.Yu.Suponitsky"
"A.A.Bragin"
"K.A.Monogarov"
"V.P.Sinditskii"
"A.B.Sheremetev"
_chemical_name_systematic
;
3,4-Dinitro-1-(trinitromethyl)-1H-pyrazole
;
_cell_volume   1036.150
_exptl_crystal_colour 'colorless'
_exptl_crystal_density_diffrn 1.969
_exptl_crystal_description 'prism'
_diffrn_ambient_temperature 150
#These two values have been output from a single CSD field.
_refine_ls_R_factor_gt 0.031
_refine_ls_wR_factor_gt 0.031
_symmetry_cell_setting orthorhombic
_symmetry_space_group_name_H-M 'P 21 21 21'
_symmetry_Int_Tables_number 19
loop_
_symmetry_equiv_pos_site_id
_symmetry_equiv_pos_as_xyz
1 x,y,z
2 1/2-x,-y,1/2+z
3 -x,1/2+y,1/2-z
4 1/2+x,1/2-y,-z
_cell_length_a 6.2605(4)
_cell_length_b 7.5434(4)
_cell_length_c 21.9405(13)
_cell_angle_alpha 90
_cell_angle_beta 90
_cell_angle_gamma 90
_cell_formula_units_Z 4
loop_
_atom_type_symbol
_atom_type_radius_bond
C 0.68
H 0.23
N 0.68
O 0.68
loop_
_atom_site_label
_atom_site_type_symbol
_atom_site_fract_x
_atom_site_fract_y
_atom_site_fract_z
O1 O 1.0062(2) 0.4380(2) 0.01318(6)
O2 O 0.8368(2) 0.68278(18) -0.00907(6)
O3 O 0.7325(3) 0.23569(17) 0.10272(7)
O4 O 0.9587(2) 0.40090(19) 0.15288(6)
O5 O 0.3752(2) 0.5367(2) 0.09739(6)
O6 O 0.4933(2) 0.4389(2) 0.01011(6)
O7 O 1.2388(3) 1.0600(3) 0.11788(8)
O8 O 1.2002(3) 1.0329(2) 0.21567(8)
O9 O 0.5761(3) 0.9054(2) 0.27771(6)
O10 O 0.7842(3) 1.12452(19) 0.25312(7)
N1 N 0.7678(2) 0.69683(18) 0.11552(6)
N2 N 0.9584(2) 0.78454(19) 0.10895(7)
N3 N 0.8778(2) 0.5546(2) 0.02225(6)
N4 N 0.8181(3) 0.3744(2) 0.11594(7)
N5 N 0.5129(2) 0.50297(19) 0.06028(7)
N6 N 1.1476(3) 1.0062(2) 0.16311(8)
N7 N 0.7083(3) 0.9770(2) 0.24494(7)
C1 C 0.9589(3) 0.8963(2) 0.15458(8)
C2 C 0.7762(3) 0.8785(2) 0.19183(7)
C3 C 0.6570(3) 0.7470(2) 0.16637(7)
C4 C 0.7430(3) 0.5408(2) 0.08038(7)
H1 H 0.524(4) 0.694(3) 0.179(1)
#END
