
#######################################################################
#
#                 Cambridge Crystallographic Data Centre
#                                CCDC
#
#######################################################################
#
# If this CIF has been generated from an entry in the Cambridge
# Structural Database, then it will include bibliographic, chemical,
# crystal, experimental, refinement or atomic coordinate data resulting
# from the CCDC's data processing and validation procedures.
#
#######################################################################

data_CSD_CIF_OGOKEC
_audit_creation_date 2015-06-20
_audit_creation_method CSD-ConQuest-V1
_database_code_CSD OGOKEC
_database_code_depnum_ccdc_archive 'CCDC 1044725'
_chemical_formula_sum 'C4 H1 N7 O10'
_chemical_formula_moiety
;
C4 H1 N7 O10
;
_journal_coden_Cambridge 920
_journal_volume 10
_journal_year 2015
_journal_page_first 1987
_journal_name_full 'Chem.Asian J. '
loop_
_publ_author_name
"I.L.Dalinger"
"I.A.Vatsadze"
"T.K.Shkineva"
"A.V.Kormanov"
"M.I.Struchkova"
"K.Yu.Suponitsky"
"A.A.Bragin"
"K.A.Monogarov"
"V.P.Sinditskii"
"A.B.Sheremetev"
_chemical_name_systematic
;
3,5-Dinitro-1-(trinitromethyl)-1H-pyrazole
;
_cell_volume   1009.970
_exptl_crystal_colour 'colorless'
_exptl_crystal_density_diffrn 2.02
_exptl_crystal_description 'prism'
_diffrn_ambient_temperature 100
#These two values have been output from a single CSD field.
_refine_ls_R_factor_gt 0.0317
_refine_ls_wR_factor_gt 0.0317
_symmetry_cell_setting triclinic
_symmetry_space_group_name_H-M 'P -1'
_symmetry_Int_Tables_number 2
loop_
_symmetry_equiv_pos_site_id
_symmetry_equiv_pos_as_xyz
1 x,y,z
2 -x,-y,-z
_cell_length_a 6.0346(1)
_cell_length_b 12.5666(2)
_cell_length_c 14.4521(3)
_cell_angle_alpha 67.826(1)
_cell_angle_beta 85.459(1)
_cell_angle_gamma 85.168(1)
_cell_formula_units_Z 4
loop_
_atom_type_symbol
_atom_type_radius_bond
C 0.68
H 0.23
N 0.68
O 0.68
loop_
_atom_site_label
_atom_site_type_symbol
_atom_site_fract_x
_atom_site_fract_y
_atom_site_fract_z
O1 O 0.04685(5) -0.09537(3) 0.09875(2)
O2 O -0.10621(5) -0.10054(3) 0.24273(2)
O3 O 0.47520(5) -0.15750(2) 0.15910(3)
O4 O 0.55573(5) 0.02207(3) 0.08367(2)
O5 O 0.16692(6) -0.00172(3) 0.34739(2)
O6 O 0.36346(6) -0.15351(2) 0.34299(2)
O7 O -0.30413(5) 0.27426(2) -0.02681(2)
O8 O -0.14026(6) 0.42734(2) -0.03849(3)
O9 O 0.57325(5) 0.08643(2) 0.24909(2)
O10 O 0.59573(5) 0.27214(2) 0.17982(2)
N1 N 0.18685(4) 0.102648(19) 0.149337(18)
N2 N 0.00574(4) 0.14058(2) 0.093657(18)
N3 N 0.03816(4) -0.07879(2) 0.17612(2)
N4 N 0.44506(4) -0.05526(2) 0.13987(2)
N5 N 0.25999(5) -0.06198(2) 0.306219(19)
N6 N -0.15696(4) 0.32338(2) -0.00868(2)
N7 N 0.50679(4) 0.18276(2) 0.194419(18)
C1 C 0.01711(5) 0.25318(2) 0.05520(2)
C2 C 0.20178(5) 0.29387(2) 0.08242(2)
C3 C 0.30768(5) 0.19412(2) 0.14244(2)
C4 C 0.23620(4) -0.01765(2) 0.19161(2)
H1 H 0.2396(18) 0.3705(9) 0.0664(8)
O11 O 0.36539(5) 0.59290(3) 0.40890(2)
O12 O 0.26568(5) 0.61463(3) 0.26037(2)
O13 O 0.78568(6) 0.66437(3) 0.33737(3)
O14 O 0.92050(5) 0.48716(3) 0.40902(2)
O15 O 0.58099(7) 0.50291(3) 0.15771(2)
O16 O 0.76006(6) 0.64705(2) 0.15687(2)
O17 O 0.08828(5) 0.22527(3) 0.52620(2)
O18 O 0.31116(6) 0.07372(2) 0.54350(3)
O19 O 1.00238(5) 0.41575(2) 0.24902(2)
O20 O 1.06794(5) 0.23063(2) 0.32148(2)
N8 N 0.59060(4) 0.399959(19) 0.355734(19)
N9 N 0.40152(4) 0.36152(2) 0.41129(2)
N10 N 0.39049(4) 0.58295(2) 0.32853(2)
N11 N 0.79257(4) 0.56155(2) 0.35745(2)
N12 N 0.65784(5) 0.56115(2) 0.19611(2)
N13 N 0.26403(5) 0.17747(2) 0.51117(2)
N14 N 0.95221(4) 0.31983(2) 0.306270(19)
C5 C 0.43727(5) 0.24874(2) 0.44794(2)
C6 C 0.64580(5) 0.20859(2) 0.41956(2)
C7 C 0.73950(5) 0.30866(2) 0.36035(2)
C8 C 0.61209(4) 0.52039(2) 0.31106(2)
H2 H 0.7054(18) 0.1308(9) 0.4347(8)
#END
