
#######################################################################
#
#                 Cambridge Crystallographic Data Centre
#                                CCDC
#
#######################################################################
#
# If this CIF has been generated from an entry in the Cambridge
# Structural Database, then it will include bibliographic, chemical,
# crystal, experimental, refinement or atomic coordinate data resulting
# from the CCDC's data processing and validation procedures.
#
#######################################################################

data_CSD_CIF_OGUGEC
_audit_creation_date 2003-01-24
_audit_creation_method CSD-ConQuest-V1
_database_code_CSD OGUGEC
_database_code_depnum_ccdc_archive 'CCDC 194084'
_chemical_formula_sum 'C16 H21 N1 O8'
_chemical_formula_moiety
;
C16 H21 N1 O8
;
_journal_coden_Cambridge 1320
_journal_year 2002
_journal_name_full 'Thesis '
loop_
_publ_author_name
"S.Steinbeisser"
_chemical_name_systematic
;
3-Methoxy-2-(1,2-diacetoxy-2-(isopropoxycarbonyl)ethyl)-pyridine-N-oxide
;
_cell_volume   3680.152
_exptl_crystal_colour 'colorless'
_exptl_crystal_density_diffrn 1.283
_exptl_special_details
;
contribution from Thesis, Sabine Steinbeisser, Institute of Organic Chemistry 
,University of Regensburg, Universitatsstr. 31, D-93053 Regensburg, Germany, 
(2002)
;
_exptl_crystal_description 'plate'
_diffrn_ambient_temperature 297
#These two values have been output from a single CSD field.
_refine_ls_R_factor_gt 0.0442
_refine_ls_wR_factor_gt 0.0442
_symmetry_cell_setting tetragonal
_symmetry_space_group_name_H-M 'P 41 21 2'
_symmetry_Int_Tables_number 92
loop_
_symmetry_equiv_pos_site_id
_symmetry_equiv_pos_as_xyz
1 x,y,z
2 1/2-y,1/2+x,1/4+z
3 -x,-y,1/2+z
4 1/2+y,1/2-x,-1/4+z
5 1/2+x,1/2-y,-1/4-z
6 y,x,-z
7 1/2-x,1/2+y,1/4-z
8 -y,-x,1/2-z
_cell_length_a 9.5052(3)
_cell_length_b 9.5052(3)
_cell_length_c 40.7327(19)
_cell_angle_alpha 90
_cell_angle_beta 90
_cell_angle_gamma 90
_cell_formula_units_Z 8
loop_
_atom_type_symbol
_atom_type_radius_bond
C 0.68
H 0.23
N 0.68
O 0.68
loop_
_atom_site_label
_atom_site_type_symbol
_atom_site_fract_x
_atom_site_fract_y
_atom_site_fract_z
O1 O 0.66991(17) 0.04149(19) 0.47064(4)
O2 O 0.19729(18) -0.04741(19) 0.45213(5)
O3 O 0.31915(17) 0.21573(15) 0.44480(4)
O4 O 0.4685(3) 0.3806(3) 0.46081(9)
O5 O 0.43187(18) 0.20131(15) 0.38375(3)
O6 O 0.3560(3) 0.0819(2) 0.34075(5)
O7 O 0.50431(18) -0.15431(15) 0.40266(4)
O8 O 0.6405(2) 0.0076(2) 0.37831(7)
N1 N 0.5545(2) -0.02569(19) 0.47823(4)
C1 C 0.5606(3) -0.1273(3) 0.50172(6)
C2 C 0.4453(3) -0.2037(3) 0.50967(6)
C3 C 0.3194(3) -0.1809(3) 0.49388(6)
C4 C 0.3130(2) -0.0783(2) 0.47005(5)
C5 C 0.4317(2) 0.0026(2) 0.46262(5)
C6 C 0.4346(2) 0.1215(2) 0.43832(5)
C7 C 0.4195(2) 0.0756(2) 0.40254(5)
C8 C 0.5347(3) -0.0253(2) 0.39256(5)
C9 C 0.0743(3) -0.1305(4) 0.45744(11)
C10 C 0.3496(3) 0.3456(3) 0.45530(7)
C11 C 0.2217(4) 0.4330(3) 0.45768(9)
C12 C 0.3958(3) 0.1908(3) 0.35203(6)
C13 C 0.4188(4) 0.3221(3) 0.33359(6)
C14 C 0.6082(3) -0.2663(3) 0.39698(7)
C15 C 0.5262(5) -0.3963(4) 0.39532(17)
C16 C 0.7115(4) -0.2663(4) 0.4233(1)
H1 H 0.64520 -0.14440 0.51250
H2 H 0.45130 -0.27220 0.52590
H3 H 0.24020 -0.23360 0.49920
H4 H 0.52320 0.17320 0.44080
H5 H 0.32710 0.03250 0.39900
H6 H 0.09480 -0.22720 0.45260
H7 H 0.04540 -0.12210 0.47990
H8 H 0.00020 -0.09800 0.44340
H9 H 0.17830 0.43980 0.43650
H10 H 0.15700 0.39060 0.47280
H11 H 0.24640 0.52530 0.46530
H12 H 0.36330 0.39610 0.34310
H13 H 0.51650 0.34720 0.33450
H14 H 0.39150 0.30870 0.31110
H15 H 0.65550 -0.25040 0.37590
H16 H 0.58830 -0.47440 0.39170
H17 H 0.47650 -0.40960 0.41560
H18 H 0.46000 -0.39020 0.37760
H19 H 0.77920 -0.33950 0.41950
H20 H 0.75850 -0.17690 0.42390
H21 H 0.66510 -0.28250 0.44390
#END
