
#######################################################################
#
#                 Cambridge Crystallographic Data Centre
#                                CCDC
#
#######################################################################
#
# If this CIF has been generated from an entry in the Cambridge
# Structural Database, then it will include bibliographic, chemical,
# crystal, experimental, refinement or atomic coordinate data resulting
# from the CCDC's data processing and validation procedures.
#
#######################################################################

data_CSD_CIF_OGUHIH
_audit_creation_date 2003-01-24
_audit_creation_method CSD-ConQuest-V1
_database_code_CSD OGUHIH
_database_code_depnum_ccdc_archive 'CCDC 195238'
_chemical_formula_sum 'C11 H13 N1 O3'
_chemical_formula_moiety
;
C11 H13 N1 O3
;
_journal_coden_Cambridge 1320
_journal_year 2002
_journal_name_full 'Thesis '
loop_
_publ_author_name
"C.Innertsberger"
_chemical_name_systematic
;
3-(2-(Isopropoxycarbonyl)ethenyl)pyridine-N-oxide
;
_cell_volume   2146.107
_exptl_crystal_colour 'colorless'
_exptl_crystal_density_diffrn 1.283
_exptl_special_details
;
contribution from Thesis, Clara Innertsberger, Universitat Regensburg, 
Institut fur Organische Chemie, Universitatsstr. 31, 93053 Regensburg, 
Germany, (2002)
;
_exptl_crystal_description 'prism'
_diffrn_ambient_temperature 173
#These two values have been output from a single CSD field.
_refine_ls_R_factor_gt 0.0352
_refine_ls_wR_factor_gt 0.0352
_symmetry_cell_setting monoclinic
_symmetry_space_group_name_H-M 'I 2/a'
_symmetry_Int_Tables_number 15
loop_
_symmetry_equiv_pos_site_id
_symmetry_equiv_pos_as_xyz
1 x,y,z
2 1/2+x,-y,z
3 1/2+x,1/2+y,1/2+z
4 x,1/2-y,1/2+z
5 -x,-y,-z
6 -1/2-x,y,-z
7 -1/2-x,-1/2-y,-1/2-z
8 -x,-1/2+y,-1/2-z
_cell_length_a 14.8170(11)
_cell_length_b 8.5515(8)
_cell_length_c 16.9382(12)
_cell_angle_alpha 90
_cell_angle_beta 90.527(9)
_cell_angle_gamma 90
_cell_formula_units_Z 8
loop_
_atom_type_symbol
_atom_type_radius_bond
C 0.68
H 0.23
N 0.68
O 0.68
loop_
_atom_site_label
_atom_site_type_symbol
_atom_site_fract_x
_atom_site_fract_y
_atom_site_fract_z
O1 O 0.39594(6) 0.32539(13) 0.98837(6)
O2 O 0.50463(6) 0.22934(12) 0.91002(6)
O3 O -0.03721(5) 0.12045(12) 0.79576(6)
N1 N 0.04748(6) 0.08128(12) 0.78733(7)
C1 C 0.07125(9) -0.02884(16) 0.73428(9)
C2 C 0.16025(9) -0.07078(17) 0.72509(9)
C3 C 0.22757(9) -0.00073(16) 0.77023(8)
C4 C 0.20310(8) 0.11182(14) 0.82556(8)
C5 C 0.11231(8) 0.15067(15) 0.83303(8)
C6 C 0.26833(8) 0.19064(15) 0.87820(8)
C7 C 0.35720(8) 0.17410(16) 0.87426(8)
C8 C 0.41895(8) 0.25206(15) 0.93100(8)
C9 C 0.57669(9) 0.29447(17) 0.96016(8)
C10 C 0.61271(11) 0.1642(2) 1.0116(1)
C11 C 0.6456(1) 0.3595(2) 0.90427(10)
H1 H 0.0230(11) -0.080(2) 0.7045(10)
H2 H 0.1743(10) -0.150(2) 0.6879(10)
H3 H 0.2896(11) -0.0291(19) 0.7631(9)
H4 H 0.0912(9) 0.2224(17) 0.8717(9)
H5 H 0.2444(10) 0.2566(19) 0.9165(9)
H6 H 0.3829(10) 0.1091(18) 0.8362(9)
H7 H 0.5502(9) 0.3741(18) 0.9923(9)
H8 H 0.6368(13) 0.077(2) 0.9755(11)
H9 H 0.5654(12) 0.125(2) 1.0464(11)
H10 H 0.6626(14) 0.206(2) 1.0435(12)
H11 H 0.6213(12) 0.435(2) 0.8703(11)
H12 H 0.6704(12) 0.278(2) 0.8715(11)
H13 H 0.6941(11) 0.411(2) 0.9344(10)
#END
