
#######################################################################
#
#                 Cambridge Crystallographic Data Centre
#                                CCDC
#
#######################################################################
#
# If this CIF has been generated from an entry in the Cambridge
# Structural Database, then it will include bibliographic, chemical,
# crystal, experimental, refinement or atomic coordinate data resulting
# from the CCDC's data processing and validation procedures.
#
#######################################################################

data_CSD_CIF_OHIDOY
_audit_creation_date 2003-01-24
_audit_creation_method CSD-ConQuest-V1
_database_code_CSD OHIDOY
_database_code_depnum_ccdc_archive 'CCDC 169509'
_chemical_formula_sum 'C19 H23 N3 O6'
_chemical_formula_moiety
;
C19 H23 N3 O6
;
_journal_coden_Cambridge 504
_journal_volume 57
_journal_year 2002
_journal_page_first 362
_journal_name_full 'Pharmazie '
loop_
_publ_author_name
"K.Gorlitzer"
"J.Fabian"
"P.G.Jones"
"P.Frohberg"
"G.Drutkowski"
_chemical_name_systematic
;
5-t-Butyl 3-ethyl 
(4RS)-6-methyl-4-(2-nitrophenyl)-1,4-dihydropyridazine-3,5-dicarboxylate
;
_chemical_melting_point 429.15
_cell_volume   1942.417
_exptl_crystal_colour 'yellow'
_exptl_crystal_density_diffrn 1.332
_exptl_special_details
;
boat conformer

;
_exptl_crystal_description 'prism'
_diffrn_ambient_temperature 143
#These two values have been output from a single CSD field.
_refine_ls_R_factor_gt 0.0381
_refine_ls_wR_factor_gt 0.0381
_symmetry_cell_setting monoclinic
_symmetry_space_group_name_H-M 'P 21/c'
_symmetry_Int_Tables_number 14
loop_
_symmetry_equiv_pos_site_id
_symmetry_equiv_pos_as_xyz
1 x,y,z
2 x,1/2-y,1/2+z
3 -x,-y,-z
4 -x,-1/2+y,-1/2-z
_cell_length_a 12.7967(12)
_cell_length_b 10.8819(11)
_cell_length_c 14.1263(14)
_cell_angle_alpha 90
_cell_angle_beta 99.090(4)
_cell_angle_gamma 90
_cell_formula_units_Z 4
loop_
_atom_type_symbol
_atom_type_radius_bond
C 0.68
H 0.23
N 0.68
O 0.68
loop_
_atom_site_label
_atom_site_type_symbol
_atom_site_fract_x
_atom_site_fract_y
_atom_site_fract_z
N1 N 0.11987(7) 0.58525(9) 0.50135(7)
H1 H 0.0821(11) 0.5985(13) 0.5462(11)
N2 N 0.07908(7) 0.49568(8) 0.43994(6)
C1 C 0.12272(8) 0.47615(9) 0.36511(7)
C2 C 0.22140(8) 0.54009(9) 0.34322(7)
H2 H 0.21430 0.55400 0.27250
C3 C 0.22669(8) 0.66417(9) 0.39395(7)
C4 C 0.18207(8) 0.67919(10) 0.47416(7)
C5 C 0.19081(9) 0.78703(10) 0.54146(8)
H3 H 0.26010 0.82610 0.54350
H4 H 0.18310 0.75870 0.60580
H5 H 0.13490 0.84660 0.51890
C6 C 0.28255(8) 0.76143(10) 0.34871(7)
O1 O 0.34586(7) 0.73840(8) 0.29590(7)
O2 O 0.25210(6) 0.87482(7) 0.37012(6)
C7 C 0.29999(9) 0.98557(10) 0.33406(8)
C8 C 0.27586(13) 0.98957(13) 0.22558(9)
H6 H 0.31600 0.92500 0.19890
H7 H 0.29600 1.07000 0.20300
H8 H 0.20000 0.97630 0.20470
C9 C 0.41743(11) 0.98747(12) 0.37237(12)
H9 H 0.42810 0.99010 0.44260
H10 H 0.44960 1.06030 0.34800
H11 H 0.45060 0.91330 0.35130
C10 C 0.24358(11) 1.08907(11) 0.37753(10)
H12 H 0.16710 1.08180 0.35650
H13 H 0.26820 1.16830 0.35650
H14 H 0.25900 1.08390 0.44760
C11 C 0.06628(8) 0.37962(10) 0.30113(8)
O3 O -0.01101(7) 0.32437(8) 0.31739(6)
O4 O 0.11177(6) 0.36385(8) 0.22311(6)
C12 C 0.05855(10) 0.27842(12) 0.15156(9)
H15 H -0.01890 0.29220 0.14180
H16 H 0.07290 0.19250 0.17280
C13 C 0.10117(11) 0.30189(16) 0.06027(10)
H17 H 0.08770 0.38760 0.04070
H18 H 0.06610 0.24720 0.00990
H19 H 0.17750 0.28620 0.07050
N3 N 0.34991(7) 0.40414(9) 0.20925(7)
O5 O 0.32340(7) 0.50195(8) 0.17027(6)
O6 O 0.35744(8) 0.30774(9) 0.16543(7)
C14 C 0.31884(8) 0.45951(9) 0.37555(7)
C15 C 0.37762(8) 0.39831(10) 0.31449(8)
C16 C 0.46484(9) 0.32421(10) 0.34799(9)
H20 H 0.50320 0.28470 0.30430
C17 C 0.49452(9) 0.30923(10) 0.44576(9)
H21 H 0.55460 0.26070 0.46970
C18 C 0.43649(9) 0.36507(11) 0.50865(8)
H22 H 0.45570 0.35310 0.57580
C19 C 0.35022(8) 0.43854(10) 0.47363(8)
H23 H 0.31120 0.47580 0.51780
#END
