
#######################################################################
#
#                 Cambridge Crystallographic Data Centre
#                                CCDC
#
#######################################################################
#
# If this CIF has been generated from an entry in the Cambridge
# Structural Database, then it will include bibliographic, chemical,
# crystal, experimental, refinement or atomic coordinate data resulting
# from the CCDC's data processing and validation procedures.
#
#######################################################################

data_CSD_CIF_OHISUT
_audit_creation_date 2003-10-28
_audit_creation_method CSD-ConQuest-V1
_database_code_CSD OHISUT
_database_code_depnum_ccdc_archive 'CCDC 214973'
_database_code_depnum_ccdc_journal 1267/965
_chemical_formula_sum 'C42 H46 N2 O12'
_chemical_formula_moiety
;
C42 H46 N2 O12
;
_journal_coden_Cambridge 1267
_journal_volume 218
_journal_year 2003
_journal_page_first 87
_journal_name_full 'Z.Kristallogr.-New Cryst.Struct. '
loop_
_publ_author_name
"N.Ehlinger"
"F.Vocanson"
"R.Lamartine"
_chemical_name_systematic
;
11,23-Dinitro-26,28-dipropoxy-25,27-bis(ethoxycarbonylmethoxy)calix(4)arene
;
_cell_volume   3835.484
_exptl_crystal_colour 'yellow'
_exptl_crystal_density_diffrn 1.335
_exptl_special_details
;
cone conformer

;
_exptl_crystal_description 'plate'
_exptl_crystal_preparation 'chloroform/methanol'
_diffrn_ambient_temperature 123
_refine_special_details
;
One propyl group is disordered over two positions with 0.518:0.482 
occupancies.
;
#These two values have been output from a single CSD field.
_refine_ls_R_factor_gt 0.0783
_refine_ls_wR_factor_gt 0.0783
_symmetry_cell_setting monoclinic
_symmetry_space_group_name_H-M 'P 21/c'
_symmetry_Int_Tables_number 14
loop_
_symmetry_equiv_pos_site_id
_symmetry_equiv_pos_as_xyz
1 x,y,z
2 -x,1/2+y,1/2-z
3 -x,-y,-z
4 x,-1/2-y,-1/2+z
_cell_length_a 17.121(1)
_cell_length_b 15.416(1)
_cell_length_c 14.774(1)
_cell_angle_alpha 90
_cell_angle_beta 100.389(10)
_cell_angle_gamma 90
_cell_formula_units_Z 4
loop_
_atom_type_symbol
_atom_type_radius_bond
C 0.68
H 0.23
N 0.68
O 0.68
loop_
_atom_site_label
_atom_site_type_symbol
_atom_site_fract_x
_atom_site_fract_y
_atom_site_fract_z
C1 C 0.1797(4) 0.5278(4) 0.1093(5)
C2 C 0.2244(5) 0.4551(4) 0.0719(5)
H1 H 0.20960 0.45290 0.00400
H2 H 0.28230 0.46550 0.08820
C3 C 0.2041(4) 0.3716(5) 0.1121(5)
C4 C 0.1519(4) 0.3126(5) 0.0648(5)
H3 H 0.13450 0.32040 0.00060
C5 C 0.1241(4) 0.2431(5) 0.1069(6)
H4 H 0.08960 0.20240 0.07170
C6 C 0.1461(4) 0.2322(5) 0.1996(6)
H5 H 0.12550 0.18490 0.22910
C7 C 0.1982(4) 0.2894(4) 0.2504(5)
C8 C 0.2143(4) 0.2871(4) 0.3546(5)
H6 H 0.27190 0.29390 0.37770
H7 H 0.19750 0.23040 0.37600
C9 C 0.1693(4) 0.3595(4) 0.3921(5)
C10 C 0.0893(4) 0.3694(4) 0.3584(4)
H8 H 0.06150 0.32650 0.31900
C11 C 0.0504(4) 0.4403(5) 0.3815(4)
C12 C 0.0882(4) 0.5063(4) 0.4352(4)
H9 H 0.06030 0.55750 0.44560
C13 C 0.1669(4) 0.4967(4) 0.4733(4)
C14 C 0.2087(4) 0.5700(4) 0.5307(4)
H10 H 0.19010 0.57280 0.59030
H11 H 0.26660 0.55920 0.54330
C15 C 0.1919(4) 0.6540(4) 0.4808(4)
C16 C 0.1417(4) 0.7155(4) 0.5040(4)
H12 H 0.11970 0.70750 0.55800
C17 C 0.1219(4) 0.7893(4) 0.4515(5)
H13 H 0.08880 0.83250 0.47060
C18 C 0.1507(4) 0.7987(4) 0.3723(5)
H14 H 0.13670 0.84890 0.33560
C19 C 0.2003(4) 0.7372(4) 0.3432(4)
C20 C 0.2199(4) 0.7370(4) 0.2472(5)
H15 H 0.20290 0.79240 0.21590
H16 H 0.27790 0.73090 0.25080
C21 C 0.1775(4) 0.6625(4) 0.1935(5)
C22 C 0.0968(4) 0.6525(5) 0.1881(4)
H17 H 0.06720 0.69470 0.21430
C23 C 0.0599(4) 0.5820(5) 0.1451(5)
C24 C 0.1002(4) 0.5186(4) 0.1079(4)
H18 H 0.07300 0.46850 0.08130
C25 C 0.2293(4) 0.3550(4) 0.2049(6)
C26 C 0.2063(4) 0.4225(4) 0.4536(4)
C27 C 0.2226(3) 0.6684(4) 0.4001(4)
C28 C 0.2173(4) 0.6000(5) 0.1513(5)
N1 N -0.0339(3) 0.4504(5) 0.3444(4)
O1 O -0.0632(3) 0.5232(3) 0.3426(3)
O2 O -0.0727(3) 0.3855(3) 0.3179(3)
N2 N -0.0262(4) 0.5722(5) 0.1386(4)
O3 O -0.0645(3) 0.6367(3) 0.1517(3)
O4 O -0.0561(3) 0.5012(4) 0.1199(4)
O5 O 0.2813(3) 0.4120(3) 0.2555(3)
C29 C 0.3624(6) 0.4052(7) 0.2375(7)
H19 H 0.36290 0.37500 0.17850
H20 H 0.38600 0.46360 0.23450
C30 C 0.4062(5) 0.3563(6) 0.3133(7)
H21 H 0.38290 0.29770 0.31470
H22 H 0.40320 0.38570 0.37210
C31 C 0.4979(4) 0.3489(7) 0.3003(7)
H23 H 0.50090 0.31510 0.24490
H24 H 0.52910 0.32010 0.35410
H25 H 0.51930 0.40710 0.29410
O6 O 0.2702(3) 0.6048(3) 0.3735(3)
C32 C 0.3503(10) 0.6011(13) 0.4195(17)
H26 H 0.36660 0.53990 0.43140
H27 H 0.35610 0.63160 0.47930
C33 C 0.4017(8) 0.6432(13) 0.3603(13)
H28 H 0.39190 0.70650 0.35690
H29 H 0.38980 0.61920 0.29720
C34 C 0.4896(9) 0.625(2) 0.404(2)
H30 H 0.49440 0.61990 0.47090
H31 H 0.52300 0.67270 0.38950
H32 H 0.50680 0.57070 0.37910
O7 O 0.2982(3) 0.6087(3) 0.1548(3)
C35 C 0.3206(4) 0.6535(5) 0.0801(5)
H33 H 0.32930 0.71550 0.09620
H34 H 0.27730 0.64970 0.02590
C36 C 0.3940(4) 0.6163(5) 0.0571(5)
O8 O 0.4198(3) 0.5476(4) 0.0818(5)
O9 O 0.4245(3) 0.6673(3) 0.0023(3)
C37 C 0.4935(5) 0.6360(5) -0.0335(6)
H35 H 0.49680 0.66690 -0.09140
H36 H 0.48680 0.57340 -0.04780
C38 C 0.5678(4) 0.6493(6) 0.0330(6)
H37 H 0.57650 0.71160 0.04390
H38 H 0.61240 0.62480 0.00810
H39 H 0.56400 0.62040 0.09110
O10 O 0.2855(2) 0.4142(3) 0.4913(3)
C39 C 0.3071(4) 0.3445(4) 0.5529(6)
H40 H 0.35720 0.31890 0.54060
H41 H 0.26550 0.29920 0.54030
C40 C 0.3181(5) 0.3690(6) 0.6532(6)
O11 O 0.3608(4) 0.3297(4) 0.7100(5)
O12 O 0.2694(4) 0.4316(4) 0.6685(4)
C41 C 0.2656(7) 0.4582(7) 0.7651(6)
H42 H 0.21050 0.47470 0.76940
H43 H 0.28140 0.40900 0.80740
C42 C 0.3168(6) 0.5292(6) 0.7910(6)
H44 H 0.37150 0.51220 0.78810
H45 H 0.31360 0.54680 0.85390
H46 H 0.30100 0.57780 0.74890
C43? C 0.3536(9) 0.6342(13) 0.3914(18)
H47? H 0.36390 0.66880 0.33840
H48? H 0.36240 0.67220 0.44640
C44? C 0.4954(9) 0.586(2) 0.428(3)
H49? H 0.50240 0.64470 0.45330
H50? H 0.51790 0.58270 0.37160
H51? H 0.52270 0.54440 0.47310
C45? C 0.4076(8) 0.5642(12) 0.4061(18)
H52? H 0.39830 0.52740 0.35030
H53? H 0.39470 0.52880 0.45730
#END
