
#######################################################################
#
#                 Cambridge Crystallographic Data Centre
#                                CCDC
#
#######################################################################
#
# If this CIF has been generated from an entry in the Cambridge
# Structural Database, then it will include bibliographic, chemical,
# crystal, experimental, refinement or atomic coordinate data resulting
# from the CCDC's data processing and validation procedures.
#
#######################################################################

data_CSD_CIF_OHISEF
_audit_creation_date 2015-06-24
_audit_creation_method CSD-ConQuest-V1
_database_code_CSD OHISEF
_database_code_depnum_ccdc_archive 'CCDC 1058502'
_chemical_formula_sum 'C21 H26 N2 O3'
_chemical_formula_moiety
;
C21 H26 N2 O3
;
_journal_coden_Cambridge 440
_journal_volume 39
_journal_year 2015
_journal_page_first 6404
_journal_name_full 'New J.Chem. '
loop_
_publ_author_name
"L.Marin"
"A.van der Lee"
"S.Shova"
"A.Arvinte"
"M.Barboiu"
_chemical_name_systematic
;
4-Nitro-2-((4-octylphenyl)carbonoimidoyl)phenol
;
_cell_volume    955.710
_exptl_crystal_colour 'yellow'
_exptl_crystal_density_diffrn 1.232
_exptl_crystal_description 'needle'
_diffrn_ambient_temperature 175
#These two values have been output from a single CSD field.
_refine_ls_R_factor_gt 0.0836
_refine_ls_wR_factor_gt 0.0836
_symmetry_cell_setting triclinic
_symmetry_space_group_name_H-M 'P -1'
_symmetry_Int_Tables_number 2
loop_
_symmetry_equiv_pos_site_id
_symmetry_equiv_pos_as_xyz
1 x,y,z
2 -x,-y,-z
_cell_length_a 4.6306(8)
_cell_length_b 8.8802(17)
_cell_length_c 23.893(3)
_cell_angle_alpha 95.744(13)
_cell_angle_beta 91.859(12)
_cell_angle_gamma 101.739(15)
_cell_formula_units_Z 2
loop_
_atom_type_symbol
_atom_type_radius_bond
C 0.68
H 0.23
N 0.68
O 0.68
loop_
_atom_site_label
_atom_site_type_symbol
_atom_site_fract_x
_atom_site_fract_y
_atom_site_fract_z
O1 O 0.5409(10) 0.3183(6) 0.30502(18)
C1 C 0.6684(15) 0.2977(8) 0.3544(3)
C2 C 0.9159(15) 0.4080(8) 0.3768(3)
C3 C 1.0561(13) 0.3908(8) 0.4268(3)
C4 C 0.9417(14) 0.2672(9) 0.4554(3)
N1 N 1.0821(14) 0.2483(8) 0.5086(3)
O2 O 1.3204(12) 0.3328(7) 0.5244(2)
O3 O 0.9579(13) 0.1471(8) 0.5367(2)
C5 C 0.6974(15) 0.1534(8) 0.4340(3)
C6 C 0.5572(15) 0.1693(8) 0.3839(3)
C7 C 0.3010(15) 0.0528(8) 0.3603(3)
N2 N 0.1576(11) 0.0648(7) 0.3153(2)
C8 C -0.0922(15) -0.0494(8) 0.2940(3)
C9 C -0.2188(14) -0.1766(8) 0.3211(3)
C10 C -0.4624(15) -0.2820(9) 0.2947(3)
C11 C -0.5852(15) -0.2644(9) 0.2428(3)
C12 C -0.8400(13) -0.3875(8) 0.2141(3)
C13 C -0.7287(14) -0.5159(8) 0.1805(3)
C14 C -0.9771(14) -0.6460(8) 0.1523(3)
C15 C -0.8675(13) -0.7838(8) 0.1251(3)
C16 C -1.1093(15) -0.9125(8) 0.0959(3)
C17 C -1.0059(16) -1.0595(8) 0.0778(3)
C18 C -1.2400(16) -1.1941(8) 0.0508(3)
C19 C -1.1273(18) -1.3402(9) 0.0341(4)
H1 H -1.28370 -1.42080 0.01730
H2 H -1.04390 -1.37470 0.06670
H3 H -0.97640 -1.31830 0.00770
H4 H -1.39560 -1.21910 0.07680
H5 H -1.31920 -1.16100 0.01720
H6 H -0.92260 -1.09350 0.11090
H7 H -0.85230 -1.03770 0.05160
H8 H -1.26700 -0.93610 0.12150
H9 H -1.18660 -0.87620 0.06300
H10 H -0.76410 -0.82740 0.15390
H11 H -0.72920 -0.74610 0.09730
H12 H -1.11440 -0.68370 0.18050
H13 H -1.07950 -0.60180 0.12440
H14 H -0.60830 -0.56280 0.20500
H15 H -0.60760 -0.47150 0.15160
H16 H -0.96640 -0.43280 0.24250
H17 H -0.95530 -0.33970 0.18920
C20 C -0.4602(15) -0.1335(9) 0.2179(3)
C21 C -0.2170(15) -0.0287(8) 0.2428(3)
H18 H -0.13770 0.05780 0.22490
H19 H -0.54230 -0.11680 0.18390
H20 H -0.54290 -0.36810 0.31310
H21 H -0.14100 -0.19290 0.35590
H22 H 0.23980 -0.03330 0.37960
H23 H 0.63040 0.07070 0.45420
H24 H 1.22410 0.46120 0.44140
H25 H 0.98830 0.49210 0.35690
H26 H 0.41450 0.23810 0.30170
#END
