
#######################################################################
#
#                 Cambridge Crystallographic Data Centre
#                                CCDC
#
#######################################################################
#
# If this CIF has been generated from an entry in the Cambridge
# Structural Database, then it will include bibliographic, chemical,
# crystal, experimental, refinement or atomic coordinate data resulting
# from the CCDC's data processing and validation procedures.
#
#######################################################################

data_CSD_CIF_OHMISX
_audit_creation_date 1981-09-30
_audit_creation_method CSD-ConQuest-V1
_database_code_CSD OHMISX
_database_code_depnum_ccdc_archive 'CCDC 1225947'
_chemical_formula_sum 'C16 H15 N1 O3'
_chemical_formula_moiety
;
C16 H15 N1 O3
;
_journal_coden_Cambridge 34
_journal_volume 17
_journal_year 1980
_journal_page_first 1537
_journal_name_full 'J.Heterocycl.Chem. '
loop_
_publ_author_name
"M.Philoche-Levisalles"
"C.Bellec"
_chemical_name_systematic
;
cis-4,5-Dihydroxy-3,4-diphenyl-5-methyl-2-isoxazoline
;
_chemical_melting_point 418.15
_cell_volume   2781.312
_diffrn_ambient_temperature ?
_diffrn_special_details
;
The study was carried out at room temperature,in the range 283-303K

;
#These two values have been output from a single CSD field.
_refine_ls_R_factor_gt 0.052
_refine_ls_wR_factor_gt 0.052
_symmetry_cell_setting orthorhombic
_symmetry_space_group_name_H-M 'P b c a'
_symmetry_Int_Tables_number 61
loop_
_symmetry_equiv_pos_site_id
_symmetry_equiv_pos_as_xyz
1 x,y,z
2 1/2-x,-y,1/2+z
3 1/2+x,1/2-y,-z
4 -x,1/2+y,1/2-z
5 -x,-y,-z
6 -1/2+x,y,-1/2-z
7 -1/2-x,-1/2+y,z
8 x,-1/2-y,-1/2+z
_cell_length_a 11.560(1)
_cell_length_b 27.818(3)
_cell_length_c 8.649(1)
_cell_angle_alpha 90
_cell_angle_beta 90
_cell_angle_gamma 90
_cell_formula_units_Z 8
loop_
_atom_type_symbol
_atom_type_radius_bond
C 0.68
H 0.23
N 0.68
O 0.68
loop_
_atom_site_label
_atom_site_type_symbol
_atom_site_fract_x
_atom_site_fract_y
_atom_site_fract_z
C1 C 0.82040 0.58461 0.07960
C2 C 0.83810 0.59667 0.25030
C3 C 0.76810 0.55385 0.32280
C4 C 0.70030 0.56300 0.46850
C5 C 0.89460 0.60214 -0.04710
C6 C 0.95210 0.64597 -0.03430
C7 C 1.02770 0.66090 -0.14970
C8 C 1.04640 0.63240 -0.27770
C9 C 0.99030 0.58880 -0.29210
C10 C 0.91470 0.57370 -0.17810
C11 C 0.79050 0.64626 0.29150
C12 C 0.84670 0.67470 0.40060
C13 C 0.80270 0.71990 0.43680
C14 C 0.70400 0.73680 0.36740
C15 C 0.64720 0.70861 0.26140
C16 C 0.68990 0.66344 0.22280
O1 O 0.68630 0.54225 0.20060
O2 O 0.95620 0.59540 0.29390
O3 O 0.84740 0.51582 0.33710
N1 N 0.73670 0.55520 0.05500
H1 H 0.64600 0.58600 0.45400
H2 H 0.91300 0.66200 0.44700
H3 H 0.84000 0.73800 0.51700
H4 H 0.66900 0.76600 0.39400
H5 H 0.57900 0.72100 0.21200
H6 H 0.64900 0.64400 0.15100
H7 H 0.65800 0.53400 0.50300
H8 H 0.94300 0.66500 0.05900
H9 H 1.06400 0.69500 -0.13800
H10 H 1.09800 0.64200 -0.35800
H11 H 1.00300 0.56900 -0.38300
H12 H 0.87600 0.54200 -0.18200
H13 H 0.74900 0.57400 0.55000
H14 H 0.97800 0.56500 0.30000
H15 H 0.82000 0.49200 0.39000
#END
