
#######################################################################
#
#                 Cambridge Crystallographic Data Centre
#                                CCDC
#
#######################################################################
#
# If this CIF has been generated from an entry in the Cambridge
# Structural Database, then it will include bibliographic, chemical,
# crystal, experimental, refinement or atomic coordinate data resulting
# from the CCDC's data processing and validation procedures.
#
#######################################################################

data_CSD_CIF_OHOLED
_audit_creation_date 2010-07-25
_audit_creation_method CSD-ConQuest-V1
_database_code_CSD OHOLED
_database_code_depnum_ccdc_archive 'CCDC 264880'
_chemical_formula_sum 'C24 H40 N2 O2'
_chemical_formula_moiety
;
C24 H40 N2 O2
;
_journal_coden_Cambridge 1135
_journal_volume 19
_journal_year 2009
_journal_page_first 246
_journal_name_full 'Mendeleev Commun. '
loop_
_publ_author_name
"A.M.Agafontsev"
"T.V.Rybalova"
"Yu.V.Gatilov"
"A.V.Tkachev"
_chemical_name_systematic
;
(+)-(4R,8R,11S,12E,14S,16R)-11-isopropyl-4,8,14-trimethyl-14-morpholin-4-yl-3-
oxa-2-azatricyclo[6.6.2.0^4,16^]hexadeca-1,12-diene
;
_chemical_melting_point 386.15
_cell_volume   3435.176
_exptl_crystal_colour 'colorless'
_exptl_crystal_density_diffrn 1.127
_exptl_special_details
;
Melting point range 386.15-388.15K

;
_exptl_crystal_description 'needle'
_diffrn_ambient_temperature 293
#These two values have been output from a single CSD field.
_refine_ls_R_factor_gt 0.0477
_refine_ls_wR_factor_gt 0.0477
_symmetry_cell_setting hexagonal
_symmetry_space_group_name_H-M 'P 65'
_symmetry_Int_Tables_number 170
loop_
_symmetry_equiv_pos_site_id
_symmetry_equiv_pos_as_xyz
1 x,y,z
2 -y,x-y,2/3+z
3 -x+y,-x,1/3+z
4 -x,-y,1/2+z
5 y,-x+y,1/6+z
6 x-y,x,5/6+z
_cell_length_a 10.5875(6)
_cell_length_b 10.5875(6)
_cell_length_c 35.386(3)
_cell_angle_alpha 90
_cell_angle_beta 90
_cell_angle_gamma 120
_cell_formula_units_Z 6
loop_
_atom_type_symbol
_atom_type_radius_bond
C 0.68
H 0.23
N 0.68
O 0.68
loop_
_atom_site_label
_atom_site_type_symbol
_atom_site_fract_x
_atom_site_fract_y
_atom_site_fract_z
O1 O 0.8915(3) 1.0273(3) 0.88682(10)
N1 N 0.7741(3) 0.9110(3) 0.86715(10)
C1 C 0.9048(4) 0.5174(4) 0.83080(11)
H1 H 0.90390 0.52350 0.80320
C2 C 0.7723(4) 0.5199(4) 0.84562(11)
H2 H 0.71700 0.45310 0.86430
N2 N 0.5631(3) 0.7002(3) 0.82413(10)
O2 O 0.3715(3) 0.7312(3) 0.77384(12)
C3 C 0.7304(3) 0.6117(3) 0.83358(11)
H3 H 0.76800 0.65680 0.81050
C4 C 0.6272(4) 0.6515(4) 0.85350(11)
C5 C 0.7376(4) 0.7815(4) 0.87797(11)
C6 C 0.8209(4) 0.7525(4) 0.90740(12)
H4 H 0.79840 0.65170 0.90670
H5 H 0.80110 0.77520 0.93250
C7 C 0.9808(4) 0.8578(4) 0.89547(11)
H6 H 0.97850 0.85390 0.86780
C8 C 1.0100(4) 1.0110(4) 0.90472(13)
C9 C 1.1511(4) 1.1210(4) 0.88586(14)
H7 H 1.17400 1.21880 0.89280
H8 H 1.13950 1.11170 0.85860
C10 C 1.2761(4) 1.0970(4) 0.89775(15)
H9 H 1.29310 1.11520 0.92470
H10 H 1.36420 1.16630 0.88460
C11 C 1.2440(4) 0.9421(4) 0.88908(14)
H11 H 1.32400 0.93110 0.89850
H12 H 1.24010 0.92930 0.86190
C12 C 1.0993(4) 0.8198(4) 0.90642(11)
C13 C 1.0629(4) 0.6715(4) 0.88831(12)
H13 H 1.13990 0.65160 0.89530
H14 H 0.97370 0.59620 0.89980
C14 C 1.0437(4) 0.6547(4) 0.84539(11)
H15 H 1.12810 0.65410 0.83490
H16 H 1.04370 0.74010 0.83550
C15 C 0.8985(4) 0.3720(4) 0.84125(13)
H17 H 0.88720 0.35910 0.86870
C16 C 0.7683(5) 0.2448(5) 0.82255(18)
H18 H 0.68060 0.24280 0.83040
H19 H 0.76410 0.15540 0.82970
H20 H 0.77780 0.25580 0.79560
C17 C 1.0389(5) 0.3729(5) 0.82966(17)
H21 H 1.03200 0.28220 0.83680
H22 H 1.12090 0.45180 0.84220
H23 H 1.05150 0.38540 0.80280
C18 C 0.5142(4) 0.5303(4) 0.87853(14)
H24 H 0.44650 0.45070 0.86300
H25 H 0.46260 0.56700 0.89290
H26 H 0.56240 0.49690 0.89540
C19 C 1.0062(5) 1.0494(5) 0.94572(15)
H27 H 1.02690 1.14840 0.94750
H28 H 1.07820 1.03880 0.95970
H29 H 0.91130 0.98530 0.95600
C20 C 1.1158(5) 0.8082(5) 0.94883(13)
H30 H 1.02550 0.73280 0.95910
H31 H 1.14120 0.89950 0.96060
H32 H 1.19130 0.78500 0.95350
C21 C 0.4734(4) 0.7609(4) 0.83682(15)
H33 H 0.52400 0.83320 0.85640
H34 H 0.38230 0.68430 0.84720
C22 C 0.4436(5) 0.8307(5) 0.80308(17)
H35 H 0.38470 0.87240 0.81120
H36 H 0.53540 0.90940 0.79360
C23 C 0.4555(5) 0.6677(5) 0.76221(16)
H37 H 0.54770 0.74300 0.75200
H38 H 0.40410 0.59730 0.74230
C24 C 0.4841(5) 0.5925(4) 0.79475(14)
H39 H 0.39250 0.51520 0.80470
H40 H 0.54130 0.54970 0.78610
#END
