
#######################################################################
#
#                 Cambridge Crystallographic Data Centre
#                                CCDC
#
#######################################################################
#
# If this CIF has been generated from an entry in the Cambridge
# Structural Database, then it will include bibliographic, chemical,
# crystal, experimental, refinement or atomic coordinate data resulting
# from the CCDC's data processing and validation procedures.
#
#######################################################################

data_CSD_CIF_OJACAE
_audit_creation_date 2010-07-26
_audit_creation_method CSD-ConQuest-V1
_database_code_CSD OJACAE
_database_code_depnum_ccdc_archive 'CCDC 740749'
_chemical_formula_sum 'C16 H16 N2 O4'
_chemical_formula_moiety
;
C16 H16 N2 O4
;
_journal_coden_Cambridge 222
_journal_year 2009
_journal_page_first 10787
_journal_name_full 'Dalton Trans. '
loop_
_publ_author_name
"A.J.Clarke"
"N.Yamamoto"
"P.Jensen"
"T.W.Hambley"
_chemical_name_systematic
;
N-Hydroxy-11-oxo-2,3,6,7-tetrahydro-1H,5H,11H-pyrano[2,3-f]pyrido[3,2,1-ij]qui
noline-10-carboxamide
;
_cell_volume   1329.112
_exptl_crystal_colour 'yellow'
_exptl_crystal_density_diffrn 1.501
_exptl_crystal_description 'plate'
_diffrn_ambient_temperature 150
#These two values have been output from a single CSD field.
_refine_ls_R_factor_gt 0.043
_refine_ls_wR_factor_gt 0.043
_symmetry_cell_setting monoclinic
_symmetry_space_group_name_H-M 'P 21/c'
_symmetry_Int_Tables_number 14
loop_
_symmetry_equiv_pos_site_id
_symmetry_equiv_pos_as_xyz
1 x,y,z
2 -x,1/2+y,1/2-z
3 -x,-y,-z
4 x,-1/2-y,-1/2+z
_cell_length_a 12.0319(4)
_cell_length_b 8.4492(3)
_cell_length_c 13.5644(5)
_cell_angle_alpha 90
_cell_angle_beta 105.452(2)
_cell_angle_gamma 90
_cell_formula_units_Z 4
loop_
_atom_type_symbol
_atom_type_radius_bond
C 0.68
H 0.23
N 0.68
O 0.68
loop_
_atom_site_label
_atom_site_type_symbol
_atom_site_fract_x
_atom_site_fract_y
_atom_site_fract_z
O1 O 0.10673(6) 0.40274(10) -0.04165(6)
O2 O 0.02822(7) 0.70870(11) -0.06832(7)
O3 O 0.35710(7) 0.75894(8) 0.06813(6)
O4 O 0.49030(6) 0.57804(8) 0.12633(5)
N1 N 0.14110(8) 0.66608(11) -0.01873(7)
N2 N 0.80376(7) 0.22239(10) 0.24551(6)
C1 C 0.17474(8) 0.51486(12) -0.01057(7)
C2 C 0.29874(8) 0.48738(12) 0.04043(7)
C3 C 0.37827(8) 0.61703(11) 0.07669(7)
C4 C 0.33818(8) 0.33341(11) 0.05255(7)
H1 H 0.28560 0.24950 0.02750
C5 C 0.45407(8) 0.29708(11) 0.10095(7)
C6 C 0.52970(8) 0.42374(10) 0.13952(7)
C7 C 0.64519(8) 0.40456(11) 0.19012(7)
C8 C 0.68982(8) 0.24805(11) 0.19950(7)
C9 C 0.61512(8) 0.11605(11) 0.16118(7)
C10 C 0.50088(8) 0.14202(11) 0.11376(7)
H2 H 0.45200 0.05430 0.08890
C11 C 0.72075(8) 0.54378(11) 0.23422(7)
H3 H 0.67450 0.62470 0.25820
H4 H 0.75190 0.59210 0.18070
C12 C 0.81998(9) 0.48939(12) 0.32346(7)
H5 H 0.87430 0.57810 0.34700
H6 H 0.78960 0.45610 0.38120
C13 C 0.88276(9) 0.35160(12) 0.28981(8)
H7 H 0.92180 0.38950 0.23860
H8 H 0.94260 0.31120 0.34950
C14 C 0.86145(9) 0.07082(12) 0.23969(9)
H9 H 0.87840 0.01800 0.30720
H10 H 0.93570 0.09120 0.22360
C15 C 0.78885(9) -0.03915(12) 0.15904(8)
H11 H 0.82370 -0.14610 0.16630
H12 H 0.78620 0.00110 0.08990
C16 C 0.66664(9) -0.04802(11) 0.17229(8)
H13 H 0.61870 -0.11910 0.11990
H14 H 0.66890 -0.09120 0.24070
H15 H 0.1906(10) 0.7424(14) 0.0002(10)
H16 H -0.0164(12) 0.6636(16) -0.0271(10)
#END
