
#######################################################################
#
#                 Cambridge Crystallographic Data Centre
#                                CCDC
#
#######################################################################
#
# If this CIF has been generated from an entry in the Cambridge
# Structural Database, then it will include bibliographic, chemical,
# crystal, experimental, refinement or atomic coordinate data resulting
# from the CCDC's data processing and validation procedures.
#
#######################################################################

data_CSD_CIF_OJAJAL
_audit_creation_date 2010-07-26
_audit_creation_method CSD-ConQuest-V1
_database_code_CSD OJAJAL
_database_code_depnum_ccdc_archive 'CCDC 751417'
_chemical_formula_sum 'C10 H17 N1 O4'
_chemical_formula_moiety
;
C10 H17 N1 O4
;
_journal_coden_Cambridge 4
_journal_volume 131
_journal_year 2009
_journal_page_first 16018
_journal_name_full 'J.Am.Chem.Soc. '
loop_
_publ_author_name
"Li Guo"
"Yonggui Chi"
"A.M.Almedia"
"I.A.Guzei"
"B.K.Parker"
"S.H.Gellman"
_chemical_name_systematic
;
2-(2-Nitrocyclohexyl)butanoic acid
;
_cell_volume   2204.821
_exptl_crystal_colour 'colorless'
_exptl_crystal_density_diffrn 1.297
_exptl_crystal_description 'needle'
_diffrn_ambient_temperature 100
#These two values have been output from a single CSD field.
_refine_ls_R_factor_gt 0.0281
_refine_ls_wR_factor_gt 0.0281
_symmetry_cell_setting orthorhombic
_symmetry_space_group_name_H-M 'P 21 21 21'
_symmetry_Int_Tables_number 19
loop_
_symmetry_equiv_pos_site_id
_symmetry_equiv_pos_as_xyz
1 x,y,z
2 1/2-x,-y,1/2+z
3 -x,1/2+y,1/2-z
4 1/2+x,1/2-y,-z
_cell_length_a 6.8895(1)
_cell_length_b 10.5575(2)
_cell_length_c 30.3127(6)
_cell_angle_alpha 90
_cell_angle_beta 90
_cell_angle_gamma 90
_cell_formula_units_Z 8
loop_
_atom_type_symbol
_atom_type_radius_bond
C 0.68
H 0.23
N 0.68
O 0.68
loop_
_atom_site_label
_atom_site_type_symbol
_atom_site_fract_x
_atom_site_fract_y
_atom_site_fract_z
O1 O 0.64854(16) 0.18441(9) 0.16425(4)
O2 O 0.79585(17) 0.34426(10) 0.12992(3)
H1 H 0.849(3) 0.283(2) 0.1154(7)
O3 O 0.58896(18) 0.3007(1) 0.29255(4)
O4 O 0.32769(16) 0.41231(10) 0.28830(4)
N1 N 0.50189(19) 0.39728(11) 0.28261(4)
C1 C 0.6743(2) 0.29863(12) 0.15890(4)
C2 C 0.5704(2) 0.39619(12) 0.18661(4)
H2 H 0.485(2) 0.3488(15) 0.2030(5)
C3 C 0.4611(2) 0.49133(13) 0.15759(5)
H3 H 0.408(3) 0.5512(16) 0.1767(5)
H4 H 0.554(3) 0.5301(15) 0.1386(5)
C4 C 0.3074(3) 0.42611(16) 0.12951(5)
H5 H 0.216(3) 0.378(2) 0.1484(7)
H6 H 0.236(3) 0.485(2) 0.1128(7)
H7 H 0.366(3) 0.3646(19) 0.1092(6)
C5 C 0.7174(2) 0.45559(13) 0.21972(4)
H8 H 0.807(2) 0.3919(14) 0.2299(5)
C6 C 0.6163(2) 0.50405(13) 0.26165(4)
H9 H 0.522(3) 0.5663(15) 0.2560(5)
C7 C 0.7627(2) 0.55224(14) 0.29561(5)
H10 H 0.843(3) 0.4832(16) 0.3039(5)
H11 H 0.694(3) 0.5826(15) 0.3220(5)
C8 C 0.8875(2) 0.65710(15) 0.27574(5)
H12 H 0.811(3) 0.7327(17) 0.2684(5)
H13 H 0.980(3) 0.6845(17) 0.2987(6)
C9 C 0.9881(2) 0.61276(15) 0.23374(5)
H14 H 1.064(2) 0.6837(15) 0.2211(5)
H15 H 1.082(3) 0.5473(17) 0.2407(6)
C10 C 0.8382(2) 0.56402(13) 0.20053(4)
H16 H 0.759(2) 0.6318(15) 0.1929(5)
H17 H 0.899(3) 0.5344(17) 0.1746(6)
O5 O 0.98843(19) 0.16725(10) 0.08792(4)
O6 O 0.84202(18) 0.00546(11) 0.12020(4)
H18 H 0.802(3) 0.064(2) 0.1342(7)
O7 O 1.01811(19) -0.06932(12) -0.03912(4)
O8 O 1.17488(19) -0.24488(11) -0.03118(4)
N2 N 1.1548(2) -0.13069(12) -0.02495(4)
C11 C 0.9691(2) 0.05307(13) 0.09325(4)
C12 C 1.0866(2) -0.04439(13) 0.06778(4)
H19 H 0.992(3) -0.0883(15) 0.0515(5)
C13 C 1.1885(2) -0.14100(14) 0.09829(5)
H20 H 1.270(3) -0.0982(16) 0.1191(6)
H21 H 1.271(3) -0.1905(17) 0.0792(6)
C14 C 1.0549(3) -0.23249(14) 0.12259(5)
H22 H 0.982(3) -0.1866(17) 0.1438(6)
H23 H 1.127(3) -0.2999(19) 0.1368(7)
H24 H 0.963(3) -0.2752(19) 0.1022(6)
C15 C 1.2265(2) 0.02351(12) 0.03595(4)
H25 H 1.155(2) 0.0870(15) 0.0205(5)
C16 C 1.3118(2) -0.06342(13) 0.00060(4)
H26 H 1.391(3) -0.1304(15) 0.0135(5)
C17 C 1.4335(2) 0.01053(15) -0.03282(5)
H27 H 1.348(3) 0.0700(18) -0.0486(6)
H28 H 1.482(3) -0.0451(18) -0.0552(6)
C18 C 1.5990(3) 0.07950(16) -0.00962(6)
H29 H 1.685(3) 0.0201(17) 0.0023(5)
H30 H 1.671(3) 0.1250(18) -0.0299(6)
C19 C 1.5221(2) 0.16378(15) 0.02737(5)
H31 H 1.624(3) 0.2052(19) 0.0422(6)
H32 H 1.444(3) 0.2312(17) 0.0151(5)
C20 C 1.3993(2) 0.08694(14) 0.05953(5)
H33 H 1.471(3) 0.0212(16) 0.0728(5)
H34 H 1.346(3) 0.1389(16) 0.0829(6)
#END
