
#######################################################################
#
#                 Cambridge Crystallographic Data Centre
#                                CCDC
#
#######################################################################
#
# If this CIF has been generated from an entry in the Cambridge
# Structural Database, then it will include bibliographic, chemical,
# crystal, experimental, refinement or atomic coordinate data resulting
# from the CCDC's data processing and validation procedures.
#
#######################################################################

data_CSD_CIF_OJAQIZ
_audit_creation_date 2003-10-28
_audit_creation_method CSD-ConQuest-V1
_database_code_CSD OJAQIZ
_database_code_depnum_ccdc_archive 'CCDC 215149'
_chemical_formula_sum 'C20 H28 N2 O6'
_chemical_formula_moiety
;
C20 H28 N2 O6
;
_journal_coden_Cambridge 35
_journal_volume 68
_journal_year 2003
_journal_page_first 2728
_journal_name_full 'J.Org.Chem. '
loop_
_publ_author_name
"N.Papaioannou"
"J.T.Blank"
"S.J.Miller"
_chemical_name_systematic
;
t-Butyl 
allyl(2-(2-(N-methoxy-N-methyl-aminocarbonyl)-1,3-dioxolan-2-yl)phenyl)carbama
te
;
_cell_volume   1997.293
_exptl_crystal_density_diffrn 1.305
_diffrn_ambient_temperature 273
#These two values have been output from a single CSD field.
_refine_ls_R_factor_gt 0.0383
_refine_ls_wR_factor_gt 0.0383
_symmetry_cell_setting orthorhombic
_symmetry_space_group_name_H-M 'P n a 21'
_symmetry_Int_Tables_number 33
loop_
_symmetry_equiv_pos_site_id
_symmetry_equiv_pos_as_xyz
1 x,y,z
2 -x,-y,1/2+z
3 1/2-x,1/2+y,1/2+z
4 1/2+x,1/2-y,z
_cell_length_a 28.272(3)
_cell_length_b 8.5293(9)
_cell_length_c 8.2827(8)
_cell_angle_alpha 90
_cell_angle_beta 90
_cell_angle_gamma 90
_cell_formula_units_Z 4
loop_
_atom_type_symbol
_atom_type_radius_bond
C 0.68
H 0.23
N 0.68
O 0.68
loop_
_atom_site_label
_atom_site_type_symbol
_atom_site_fract_x
_atom_site_fract_y
_atom_site_fract_z
O1 O 0.0938(1) 0.9828(1) 1.0585(2)
O2 O 0.2185(1) 0.5737(2) 0.7068(2)
O3 O 0.1852(1) 0.8150(1) 0.6982(2)
N1 N 0.1389(1) 0.6038(1) 0.7225(2)
N2 N 0.1313(1) 0.8786(2) 1.0858(2)
O4 O 0.0377(1) 0.7309(1) 1.0991(2)
C1 C 0.0985(1) 0.7029(2) 0.6969(2)
O5 O 0.0706(1) 0.5141(1) 0.9871(2)
C2 C 0.1324(1) 0.4333(2) 0.7068(3)
C3 C 0.0674(1) 0.7403(2) 0.8221(2)
C4 C 0.0215(1) 0.8958(2) 0.6352(2)
C5 C 0.1843(1) 0.6584(2) 0.7082(2)
C6 C 0.0740(1) 0.6783(2) 0.9926(2)
C7 C 0.0290(1) 0.8364(2) 0.7882(2)
C8 C 0.2309(1) 0.8980(2) 0.6799(2)
O6 O 0.1479(1) 0.6258(2) 1.1283(2)
C9 C 0.0519(1) 0.8572(2) 0.5116(2)
C10 C 0.1214(1) 0.7243(2) 1.0748(2)
C11 C 0.0899(1) 0.7599(2) 0.5427(2)
C12 C 0.1256(1) 0.3792(2) 0.5370(3)
C13 C 0.2607(1) 0.8763(3) 0.8291(3)
C14 C 0.0975(1) 0.2647(3) 0.4951(4)
C15 C 0.2157(1) 1.0671(2) 0.6627(3)
C16 C 0.1673(1) 0.9374(3) 1.1950(3)
C17 C 0.0159(1) 0.5953(3) 1.1676(3)
C18 C 0.0501(1) 0.4678(3) 1.1374(3)
C19 C 0.2566(1) 0.8446(3) 0.5309(3)
C20 C 0.1062(1) 1.0930(2) 0.9349(3)
H1 H 0.10510 0.40220 0.77010
H2 H 0.15980 0.38080 0.75170
H3 H -0.00410 0.96170 0.61570
H4 H 0.00790 0.86130 0.87040
H5 H 0.04690 0.89620 0.40820
H6 H 0.11010 0.73220 0.45870
H7 H 0.14240 0.43020 0.45600
H8 H 0.24350 0.91200 0.92190
H9 H 0.28940 0.93570 0.81860
H10 H 0.26830 0.76720 0.84180
H11 H 0.08020 0.21150 0.57340
H12 H 0.09470 0.23640 0.38710
H13 H 0.19450 1.07680 0.57260
H14 H 0.24300 1.13180 0.64500
H15 H 0.19990 1.10010 0.75950
H16 H 0.15360 0.95590 1.29930
H17 H 0.17990 1.03380 1.15340
H18 H 0.19220 0.86160 1.20460
H19 H -0.01410 0.57350 1.11560
H20 H 0.01070 0.60920 1.28240
H21 H 0.07380 0.46230 1.22210
H22 H 0.03440 0.36710 1.12850
H23 H 0.26700 0.73830 0.54520
H24 H 0.28350 0.91090 0.51270
H25 H 0.23570 0.85030 0.43970
H26 H 0.13010 1.16270 0.97460
H27 H 0.07870 1.15230 0.90490
H28 H 0.11790 1.03770 0.84230
#END
