
#######################################################################
#
#                 Cambridge Crystallographic Data Centre
#                                CCDC
#
#######################################################################
#
# If this CIF has been generated from an entry in the Cambridge
# Structural Database, then it will include bibliographic, chemical,
# crystal, experimental, refinement or atomic coordinate data resulting
# from the CCDC's data processing and validation procedures.
#
#######################################################################

data_CSD_CIF_OJARIA
_audit_creation_date 2003-10-28
_audit_creation_method CSD-ConQuest-V1
_database_code_CSD OJARIA
_database_code_depnum_ccdc_archive 'CCDC 215154'
_chemical_formula_sum 'C12 H10 N2 O5'
_chemical_formula_moiety
;
C12 H10 N2 O5
;
_journal_coden_Cambridge 35
_journal_volume 68
_journal_year 2003
_journal_page_first 2728
_journal_name_full 'J.Org.Chem. '
loop_
_publ_author_name
"N.Papaioannou"
"J.T.Blank"
"S.J.Miller"
_chemical_name_systematic
;
4-Nitro-1a,2,8a,8b-tetrahydro-8H-oxireno(3,4)pyrrolo(1,2-a)indol-8-one
;
_cell_volume   2243.526
_exptl_crystal_density_diffrn 1.553
_diffrn_ambient_temperature 273
#These two values have been output from a single CSD field.
_refine_ls_R_factor_gt 0.0421
_refine_ls_wR_factor_gt 0.0421
_symmetry_cell_setting monoclinic
_symmetry_space_group_name_H-M 'P 21/c'
_symmetry_Int_Tables_number 14
loop_
_symmetry_equiv_pos_site_id
_symmetry_equiv_pos_as_xyz
1 x,y,z
2 -x,1/2+y,1/2-z
3 -x,-y,-z
4 x,-1/2-y,-1/2+z
_cell_length_a 9.9995(8)
_cell_length_b 9.8055(8)
_cell_length_c 23.1817(18)
_cell_angle_alpha 90
_cell_angle_beta 99.232(2)
_cell_angle_gamma 90
_cell_formula_units_Z 8
loop_
_atom_type_symbol
_atom_type_radius_bond
C 0.68
H 0.23
N 0.68
O 0.68
loop_
_atom_site_label
_atom_site_type_symbol
_atom_site_fract_x
_atom_site_fract_y
_atom_site_fract_z
O1 O 0.0467(1) 0.2836(1) 0.3331(1)
O2 O -0.1854(1) 0.5363(1) 0.3722(1)
N1 N 0.0590(1) 0.5282(1) 0.3397(1)
N2 N 0.1954(1) 0.8100(1) 0.3328(1)
C1 C 0.1255(1) 0.6056(1) 0.3854(1)
O3 O 0.0727(1) 0.3071(1) 0.4614(1)
O4 O 0.1770(1) 0.7481(1) 0.2864(1)
C2 C 0.0767(1) 0.4017(1) 0.4283(1)
C3 C 0.1398(1) 0.5356(1) 0.4392(1)
C4 C 0.0134(1) 0.3993(1) 0.3631(1)
C5 C 0.1835(1) 0.7359(1) 0.3862(1)
O5 O 0.2297(1) 0.9303(1) 0.3371(1)
C6 C -0.0507(1) 0.5836(1) 0.2955(1)
C7 C 0.1885(1) 0.2686(2) 0.3320(1)
C8 C 0.2038(2) 0.5910(2) 0.4910(1)
C9 C 0.2448(2) 0.7929(2) 0.4388(1)
C10 C 0.2547(2) 0.7220(2) 0.4908(1)
C11 C -0.1391(1) 0.4087(1) 0.3520(1)
C12 C -0.1763(1) 0.5196(2) 0.3110(1)
O6 O 0.3531(1) 0.6398(1) 0.1586(1)
O7 O 0.3327(1) 0.3787(1) -0.0176(1)
O8 O 0.3944(1) 0.1745(1) -0.0368(1)
O9 O 0.0844(1) 0.3927(1) 0.1536(1)
N3 N 0.3720(1) 0.2638(1) -0.0024(1)
N4 N 0.2962(1) 0.4452(1) 0.0961(1)
O10 O 0.4112(1) 0.4211(1) 0.2487(1)
C13 C 0.4001(1) 0.2329(1) 0.0597(1)
C14 C 0.5003(1) 0.1806(1) 0.1771(1)
C15 C 0.3694(1) 0.3244(1) 0.1020(1)
C16 C 0.3847(1) 0.4056(1) 0.1965(1)
C17 C 0.3002(1) 0.5068(1) 0.1542(1)
C18 C 0.4737(1) 0.1149(1) 0.0768(1)
C19 C 0.5228(1) 0.0881(1) 0.1347(1)
C20 C 0.4240(1) 0.2954(1) 0.1604(1)
C21 C 0.1544(1) 0.5207(1) 0.1618(1)
C22 C 0.1581(1) 0.4537(1) 0.0616(1)
C23 C 0.0704(2) 0.4893(1) 0.1060(1)
C24 C 0.4899(2) 0.6510(2) 0.1487(1)
H1 H -0.03770 0.55810 0.25640
H2 H -0.05470 0.68220 0.29800
H3 H 0.20370 0.18750 0.31080
H4 H 0.23620 0.26190 0.37130
H5 H 0.22080 0.34640 0.31320
H6 H 0.21260 0.54110 0.52550
H7 H 0.27990 0.88080 0.43900
H8 H 0.29550 0.76230 0.52550
H9 H -0.19520 0.32640 0.35080
H10 H -0.25870 0.51360 0.28190
H11 H 0.53590 0.16570 0.21610
H12 H 0.49020 0.05280 0.04840
H13 H 0.57080 0.00830 0.14510
H14 H 0.12660 0.59050 0.18760
H15 H 0.13120 0.36720 0.04300
H16 H 0.15340 0.52380 0.03180
H17 H -0.01550 0.53730 0.09410
H18 H 0.51790 0.74470 0.15230
H19 H 0.49620 0.61910 0.11000
H20 H 0.54760 0.59690 0.17690
#END
