
#######################################################################
#
#                 Cambridge Crystallographic Data Centre
#                                CCDC
#
#######################################################################
#
# If this CIF has been generated from an entry in the Cambridge
# Structural Database, then it will include bibliographic, chemical,
# crystal, experimental, refinement or atomic coordinate data resulting
# from the CCDC's data processing and validation procedures.
#
#######################################################################

data_CSD_CIF_OJAXII
_audit_creation_date 2015-06-27
_audit_creation_method CSD-ConQuest-V1
_database_code_CSD OJAXII
_database_code_depnum_ccdc_archive 'CCDC 1030912'
_chemical_formula_sum 'C43 H38 N4 O15'
_chemical_formula_moiety
;
C43 H38 N4 O15
;
_journal_coden_Cambridge 177
_journal_volume 13
_journal_year 2015
_journal_page_first 7979
_journal_name_full 'Org.Biomol.Chem. '
loop_
_publ_author_name
"S.Salamone"
"L.L.Clement"
"A.H.Viuff"
"O.J.Andersen"
"F.Jensen"
"H.H.Jensen"
_chemical_name_systematic
;
5,6-bis(benzyloxy)-7-((benzyloxy)methyl)cycloheptane-1,4-diyl 
bis(3,5-dinitrobenzoate)
;
_chemical_name_common
;
(1S,2R,3S,4S,5S)-2,3-Di-O-benzyl-4-C-benzyloxymethyl-1,5-di-O-[3 ,5 
-dinitro]benzoate-cycloheptane
;
_chemical_melting_point 340.35
_cell_volume   1992.595
_exptl_special_details
;
Melting point range 340.35-342.55K

;
_diffrn_ambient_temperature 125
#These two values have been output from a single CSD field.
_refine_ls_R_factor_gt 0.0454
_refine_ls_wR_factor_gt 0.0454
_symmetry_cell_setting monoclinic
_symmetry_space_group_name_H-M 'P 21'
_symmetry_Int_Tables_number 4
loop_
_symmetry_equiv_pos_site_id
_symmetry_equiv_pos_as_xyz
1 x,y,z
2 -x,1/2+y,-z
_cell_length_a 7.8734(2)
_cell_length_b 17.4148(5)
_cell_length_c 14.5347(4)
_cell_angle_alpha 90
_cell_angle_beta 91.013(3)
_cell_angle_gamma 90
_cell_formula_units_Z 2
loop_
_atom_type_symbol
_atom_type_radius_bond
C 0.68
H 0.23
N 0.68
O 0.68
loop_
_atom_site_label
_atom_site_type_symbol
_atom_site_fract_x
_atom_site_fract_y
_atom_site_fract_z
O1 O -0.0650(3) -0.54838(16) -0.03159(18)
O2 O -0.3341(3) -0.61385(16) -0.3478(2)
O3 O -0.0847(3) -0.44384(16) -0.1868(2)
O4 O 0.3197(4) -0.55985(17) -0.0487(2)
C1 C -0.5042(5) -0.6177(3) -0.3556(3)
O5 O -0.5997(3) -0.57191(16) -0.3220(2)
O6 O -0.0935(3) -0.49677(16) -0.39459(19)
O7 O -0.4376(4) -0.5790(2) 0.3381(2)
C2 C -0.6982(6) -0.8216(3) -0.4864(3)
H1 H -0.74210 -0.86660 -0.51160
C3 C -0.0863(5) -0.5404(2) -0.3112(3)
H2 H -0.03250 -0.59000 -0.32360
O8 O -0.4288(5) -0.4635(2) 0.3924(2)
O9 O -1.0041(5) -0.8646(2) -0.4145(3)
O10 O -1.0650(4) -0.74666(19) -0.3795(2)
C4 C -0.2420(5) -0.5431(3) 0.1937(3)
H3 H -0.26110 -0.59490 0.20520
C5 C -0.2410(6) -0.3268(3) -0.1854(3)
C6 C 0.1061(5) -0.5527(2) -0.1666(3)
H4 H 0.16950 -0.58960 -0.20340
C7 C -0.1614(5) -0.6383(2) -0.1492(3)
H5 H -0.21410 -0.67140 -0.10430
H6 H -0.12360 -0.67050 -0.19920
C8 C 0.0588(5) -0.5032(3) -0.4472(3)
H7 H 0.15370 -0.51360 -0.40570
H8 H 0.08010 -0.45450 -0.47720
O11 O -0.0581(4) -0.29039(19) 0.0827(2)
N1 N -0.1458(5) -0.3074(2) 0.1486(3)
O12 O -0.2034(5) -0.2610(2) 0.2027(3)
C9 C 0.4485(5) -0.5240(3) 0.0067(3)
H9 H 0.52160 -0.49450 -0.03300
H10 H 0.51730 -0.56360 0.03560
C10 C -0.3336(6) -0.2296(3) -0.0800(4)
H11 H -0.30720 -0.19260 -0.03600
C11 C -0.7335(5) -0.7064(2) -0.3945(3)
H12 H -0.80400 -0.67460 -0.36090
C12 C -0.7949(5) -0.7732(3) -0.4334(3)
C13 C -0.0077(5) -0.6003(2) -0.1046(3)
H13 H 0.06210 -0.64050 -0.07580
O13 O -0.4839(4) -0.90893(19) -0.5847(2)
N2 N -0.4243(5) -0.8485(2) -0.5559(3)
O14 O -0.2791(4) -0.8269(2) -0.5711(3)
C14 C -0.1274(5) -0.4418(3) 0.0996(3)
H14 H -0.07250 -0.42570 0.04690
C15 C -0.5319(6) -0.7991(3) -0.4997(3)
C16 C -0.2971(5) -0.4870(3) 0.2543(3)
C17 C -0.2698(5) -0.5542(2) -0.2842(3)
H15 H -0.33500 -0.50690 -0.29400
C18 C -0.4604(5) -0.7337(2) -0.4587(3)
H16 H -0.34650 -0.72170 -0.46630
C19 C -0.1015(6) -0.3712(3) -0.2317(3)
H17 H -0.12980 -0.37850 -0.29630
H18 H 0.00450 -0.34300 -0.22720
C20 C -0.5635(6) -0.6875(2) -0.4067(3)
C21 C -0.5008(6) -0.2427(3) -0.1049(4)
H19 H -0.58690 -0.21400 -0.07880
C22 C -0.1039(7) -0.6597(3) -0.6093(3)
H20 H -0.20470 -0.68520 -0.62320
C23 C 0.2379(5) -0.5079(2) -0.1113(3)
H21 H 0.32050 -0.48550 -0.15200
H22 H 0.18380 -0.46680 -0.07770
C24 C 0.0172(5) -0.4984(2) -0.2358(3)
H23 H 0.10620 -0.46940 -0.26660
C25 C -0.1001(6) -0.6032(3) -0.5421(3)
H24 H -0.19940 -0.59050 -0.51200
C26 C 0.1968(6) -0.5844(3) -0.5660(3)
H25 H 0.29800 -0.55930 -0.55160
C27 C 0.0494(5) -0.5655(3) -0.5192(3)
C28 C -0.5394(6) -0.2991(3) -0.1690(4)
H26 H -0.65210 -0.30910 -0.18490
C29 C 0.1931(7) -0.6401(3) -0.6338(3)
H27 H 0.29190 -0.65200 -0.66480
C30 C -0.4110(6) -0.3408(3) -0.2095(3)
H28 H -0.43780 -0.37830 -0.25300
C31 C -0.1577(5) -0.5196(3) 0.1156(3)
C32 C -0.2686(5) -0.4097(3) 0.2415(3)
H29 H -0.30650 -0.37310 0.28290
C33 C -0.2953(5) -0.5820(3) -0.1868(3)
H30 H -0.40550 -0.60650 -0.18400
H31 H -0.29760 -0.53760 -0.14650
C34 C 0.0436(7) -0.6782(3) -0.6560(4)
H32 H 0.04170 -0.71570 -0.70150
C35 C -0.2050(6) -0.2711(3) -0.1201(3)
H33 H -0.09280 -0.26150 -0.10290
N3 N -0.3947(5) -0.5119(3) 0.3343(3)
C36 C -0.1808(5) -0.3896(3) 0.1638(3)
N4 N -0.9688(5) -0.7959(2) -0.4089(3)
O15 O -0.1054(4) -0.64747(17) 0.0663(2)
C37 C -0.1054(5) -0.5795(2) 0.0482(3)
C38 C 0.3827(5) -0.4716(3) 0.0804(3)
C39 C 0.4088(6) -0.3931(3) 0.0753(3)
H34 H 0.46230 -0.37230 0.02460
C40 C 0.2996(5) -0.5013(3) 0.1566(3)
H35 H 0.28020 -0.55380 0.16060
C41 C 0.2463(6) -0.4536(4) 0.2257(3)
H36 H 0.19130 -0.47430 0.27600
C42 C 0.2736(7) -0.3757(4) 0.2212(4)
H37 H 0.23760 -0.34380 0.26820
C43 C 0.3553(7) -0.3452(3) 0.1458(4)
H38 H 0.37430 -0.29260 0.14230
#END
