
#######################################################################
#
#                 Cambridge Crystallographic Data Centre
#                                CCDC
#
#######################################################################
#
# If this CIF has been generated from an entry in the Cambridge
# Structural Database, then it will include bibliographic, chemical,
# crystal, experimental, refinement or atomic coordinate data resulting
# from the CCDC's data processing and validation procedures.
#
#######################################################################

data_CSD_CIF_OJAZEF
_audit_creation_date 2011-01-04
_audit_creation_method CSD-ConQuest-V1
_database_code_CSD OJAZEF
_database_code_depnum_ccdc_archive 'CCDC 757755'
_chemical_formula_sum 'C19 H19 N1 O6'
_chemical_formula_moiety
;
C19 H19 N1 O6
;
_journal_coden_Cambridge 4
_journal_volume 131
_journal_year 2009
_journal_page_first 16045
_journal_name_full 'J.Am.Chem.Soc. '
loop_
_publ_author_name
"P.Magnus"
"N.Sane"
"B.P.Fauber"
"V.Lynch"
_chemical_name_systematic
;
6-Ethoxy-8-methoxy-12-nitro-1,5,6,12a-tetrahydro-2H-naphtho[8a,1,2-de]chromen-
2-one
;
_cell_volume   1726.370
_exptl_crystal_colour 'yellow'
_exptl_crystal_density_diffrn 1.375
_exptl_crystal_description 'needle'
_diffrn_ambient_temperature 153
#These two values have been output from a single CSD field.
_refine_ls_R_factor_gt 0.0445
_refine_ls_wR_factor_gt 0.0445
_symmetry_cell_setting monoclinic
_symmetry_space_group_name_H-M 'P 21/c'
_symmetry_Int_Tables_number 14
loop_
_symmetry_equiv_pos_site_id
_symmetry_equiv_pos_as_xyz
1 x,y,z
2 -x,1/2+y,1/2-z
3 -x,-y,-z
4 x,-1/2-y,-1/2+z
_cell_length_a 8.4748(2)
_cell_length_b 18.2912(4)
_cell_length_c 11.1855(3)
_cell_angle_alpha 90
_cell_angle_beta 95.3460(9)
_cell_angle_gamma 90
_cell_formula_units_Z 4
loop_
_atom_type_symbol
_atom_type_radius_bond
C 0.68
H 0.23
N 0.68
O 0.68
loop_
_atom_site_label
_atom_site_type_symbol
_atom_site_fract_x
_atom_site_fract_y
_atom_site_fract_z
O1 O 0.80432(14) 0.48502(6) 0.42866(10)
C1 C 0.80328(19) 0.56360(8) 0.40647(14)
C2 C 0.6858(2) 0.60293(9) 0.47608(14)
C3 C 0.70759(18) 0.58516(8) 0.61080(14)
C4 C 0.87254(19) 0.60547(8) 0.66625(14)
C5 C 0.9062(2) 0.65647(9) 0.74941(16)
C6 C 0.7825(2) 0.70444(9) 0.78736(17)
C7 C 0.6309(2) 0.70442(9) 0.70487(17)
C8 C 0.57689(19) 0.62539(8) 0.67530(14)
C9 C 0.53816(19) 0.58415(9) 0.78518(14)
C10 C 0.5758(2) 0.51460(9) 0.81031(15)
C11 C 0.65352(18) 0.46949(8) 0.72691(14)
C12 C 0.6658(2) 0.39410(9) 0.74205(15)
C13 C 0.72222(19) 0.35086(9) 0.65338(14)
C14 C 0.76527(17) 0.38231(8) 0.54892(14)
C15 C 0.75574(17) 0.45911(8) 0.53393(13)
C16 C 0.70148(17) 0.50244(8) 0.62264(13)
O2 O 0.76126(13) 0.57367(6) 0.28526(9)
C17 C 0.8787(2) 0.55179(12) 0.20811(17)
C18 C 0.8453(4) 0.5877(2) 0.0895(2)
O3 O 0.80192(19) 0.74222(8) 0.87741(15)
N1 N 0.42852(19) 0.61914(8) 0.86024(13)
O4 O 0.33980(15) 0.66694(7) 0.81399(11)
O5 O 0.4234(2) 0.59913(8) 0.96447(12)
O6 O 0.81799(13) 0.34564(6) 0.45495(10)
C19 C 0.8225(3) 0.26730(9) 0.46131(18)
H1 H 0.913(2) 0.5796(9) 0.4261(14)
H2 H 0.578(2) 0.5877(9) 0.4448(15)
H3 H 0.697(2) 0.6540(11) 0.4616(16)
H4 H 0.9623(19) 0.5771(9) 0.6376(14)
H5 H 1.013(2) 0.6633(10) 0.7882(16)
H6 H 0.6529(19) 0.7318(9) 0.6260(15)
H7 H 0.552(2) 0.7311(9) 0.7392(15)
H8 H 0.478(2) 0.6269(9) 0.6204(15)
H9 H 0.545(2) 0.493(1) 0.8830(17)
H10 H 0.634(2) 0.3743(9) 0.8145(16)
H11 H 0.728(2) 0.3007(10) 0.6622(15)
H12 H 0.876(3) 0.4942(13) 0.193(2)
H13 H 0.987(3) 0.5606(13) 0.249(2)
H14 H 0.927(3) 0.5729(14) 0.034(2)
H15 H 0.739(5) 0.582(2) 0.058(3)
H16 H 0.858(3) 0.6437(17) 0.109(2)
H17 H 0.855(2) 0.2528(10) 0.3848(18)
H18 H 0.902(2) 0.2529(10) 0.5257(18)
H19 H 0.717(3) 0.2489(11) 0.4704(17)
#END
