
#######################################################################
#
#                 Cambridge Crystallographic Data Centre
#                                CCDC
#
#######################################################################
#
# If this CIF has been generated from an entry in the Cambridge
# Structural Database, then it will include bibliographic, chemical,
# crystal, experimental, refinement or atomic coordinate data resulting
# from the CCDC's data processing and validation procedures.
#
#######################################################################

data_CSD_CIF_OJAZIJ
_audit_creation_date 2011-01-04
_audit_creation_method CSD-ConQuest-V1
_database_code_CSD OJAZIJ
_database_code_depnum_ccdc_archive 'CCDC 757756'
_chemical_formula_sum 'C19 H21 N1 O6'
_chemical_formula_moiety
;
C19 H21 N1 O6
;
_journal_coden_Cambridge 4
_journal_volume 131
_journal_year 2009
_journal_page_first 16045
_journal_name_full 'J.Am.Chem.Soc. '
loop_
_publ_author_name
"P.Magnus"
"N.Sane"
"B.P.Fauber"
"V.Lynch"
_chemical_name_systematic
;
6-Ethoxy-8-methoxy-12-nitro-1,5,6,11,12,12a-hexahydro-2H-naphtho[8a,1,2-de]chr
omen-2-one
;
_cell_volume    837.990
_exptl_crystal_colour 'pale yellow'
_exptl_crystal_density_diffrn 1.424
_exptl_crystal_description 'plates'
_diffrn_ambient_temperature 153
#These two values have been output from a single CSD field.
_refine_ls_R_factor_gt 0.0386
_refine_ls_wR_factor_gt 0.0386
_symmetry_cell_setting triclinic
_symmetry_space_group_name_H-M 'P -1'
_symmetry_Int_Tables_number 2
loop_
_symmetry_equiv_pos_site_id
_symmetry_equiv_pos_as_xyz
1 x,y,z
2 -x,-y,-z
_cell_length_a 8.7189(2)
_cell_length_b 9.8011(3)
_cell_length_c 11.0087(3)
_cell_angle_alpha 106.745(1)
_cell_angle_beta 92.890(1)
_cell_angle_gamma 109.487(1)
_cell_formula_units_Z 2
loop_
_atom_type_symbol
_atom_type_radius_bond
C 0.68
H 0.23
N 0.68
O 0.68
loop_
_atom_site_label
_atom_site_type_symbol
_atom_site_fract_x
_atom_site_fract_y
_atom_site_fract_z
O1 O 0.07865(11) 0.12483(10) 0.44207(9)
C1 C -0.01438(17) 0.22456(15) 0.46846(13)
C2 C 0.07811(18) 0.38039(16) 0.56871(13)
C3 C 0.21144(16) 0.37761(14) 0.66436(12)
C4 C 0.13066(17) 0.26605(16) 0.73431(13)
C5 C 0.11202(18) 0.30621(17) 0.85730(14)
C6 C 0.16340(18) 0.46655(17) 0.93813(14)
C7 C 0.20250(19) 0.58001(17) 0.86545(14)
C8 C 0.30441(17) 0.54051(15) 0.76026(13)
C9 C 0.47418(17) 0.55195(15) 0.81809(13)
C10 C 0.58356(18) 0.52921(17) 0.71720(14)
C11 C 0.49709(17) 0.37947(16) 0.61107(13)
C12 C 0.58604(18) 0.30427(17) 0.53623(14)
C13 C 0.50836(18) 0.16895(17) 0.43450(14)
C14 C 0.33830(17) 0.10977(15) 0.40234(13)
C15 C 0.24746(16) 0.18726(15) 0.47502(13)
C16 C 0.32440(16) 0.31628(15) 0.58256(12)
O2 O -0.05824(13) 0.25350(11) 0.35739(9)
C17 C -0.15405(19) 0.12025(18) 0.24945(14)
C18 C -0.0518(2) 0.0941(2) 0.14537(16)
O3 O 0.17270(14) 0.50443(13) 1.05521(10)
N1 N 0.55530(15) 0.70959(14) 0.91655(12)
O4 O 0.56899(15) 0.72051(13) 1.0303(1)
O5 O 0.59847(18) 0.81975(13) 0.87816(11)
O6 O 0.24872(12) -0.02219(11) 0.3051(1)
C19 C 0.3391(2) -0.10649(19) 0.23283(17)
H1 H -0.1156(19) 0.1600(17) 0.4966(14)
H2 H -0.004(2) 0.4189(18) 0.6141(15)
H3 H 0.133(2) 0.4487(19) 0.5246(15)
H4 H 0.0899(19) 0.1592(18) 0.6830(14)
H5 H 0.063(2) 0.2294(19) 0.8987(15)
H6 H 0.258(2) 0.6849(19) 0.9265(15)
H7 H 0.097(2) 0.5761(19) 0.8269(16)
H8 H 0.3220(19) 0.6156(18) 0.7135(14)
H9 H 0.4653(18) 0.4823(17) 0.8684(14)
H10 H 0.689(2) 0.5336(18) 0.7549(15)
H11 H 0.610(2) 0.615(2) 0.6849(16)
H12 H 0.707(2) 0.3481(18) 0.5569(15)
H13 H 0.573(2) 0.1185(19) 0.3865(16)
H14 H -0.251(2) 0.1404(18) 0.2179(15)
H15 H -0.1992(19) 0.0289(18) 0.2806(14)
H16 H -0.124(2) 0.008(2) 0.0664(19)
H17 H -0.006(2) 0.186(2) 0.1206(18)
H18 H 0.043(2) 0.068(2) 0.1757(17)
H19 H 0.257(2) -0.197(2) 0.1734(18)
H20 H 0.410(2) -0.047(2) 0.1824(17)
H21 H 0.410(2) -0.131(2) 0.2896(17)
#END
