
#######################################################################
#
#                 Cambridge Crystallographic Data Centre
#                                CCDC
#
#######################################################################
#
# If this CIF has been generated from an entry in the Cambridge
# Structural Database, then it will include bibliographic, chemical,
# crystal, experimental, refinement or atomic coordinate data resulting
# from the CCDC's data processing and validation procedures.
#
#######################################################################

data_CSD_CIF_OJIJOG
_audit_creation_date 2003-10-28
_audit_creation_method CSD-ConQuest-V1
_database_code_CSD OJIJOG
_database_code_depnum_ccdc_archive 'CCDC 221700'
_chemical_formula_sum 'C12 H14 N4 O4'
_chemical_formula_moiety
;
C12 H14 N4 O4
;
_journal_coeditor_code "IUCr YA6171"
_journal_coden_Cambridge 1370
_journal_volume 59
_journal_year 2003
_journal_page_first o1173
_journal_name_full 'Acta Crystallogr.,Sect.E:Struct.Rep.Online '
loop_
_publ_author_name
"Shang Shan"
"Duan-Jun Xu"
"Wei-Xiao Hu"
_chemical_name_systematic
;
Cyclohexanone 2,4-dinitrophenylhydrazone
;
_cell_volume    645.009
_exptl_crystal_colour 'yellow'
_exptl_crystal_density_diffrn 1.433
_exptl_crystal_description 'plate'
_exptl_crystal_preparation 'abs. ethanol'
_diffrn_ambient_temperature 296
#These two values have been output from a single CSD field.
_refine_ls_R_factor_gt 0.047
_refine_ls_wR_factor_gt 0.047
_symmetry_cell_setting triclinic
_symmetry_space_group_name_H-M 'P -1'
_symmetry_Int_Tables_number 2
loop_
_symmetry_equiv_pos_site_id
_symmetry_equiv_pos_as_xyz
1 x,y,z
2 -x,-y,-z
_cell_length_a 6.9700(11)
_cell_length_b 8.0438(10)
_cell_length_c 11.8063(13)
_cell_angle_alpha 87.910(2)
_cell_angle_beta 79.862(4)
_cell_angle_gamma 81.879(3)
_cell_formula_units_Z 2
loop_
_atom_type_symbol
_atom_type_radius_bond
C 0.68
H 0.23
N 0.68
O 0.68
loop_
_atom_site_label
_atom_site_type_symbol
_atom_site_fract_x
_atom_site_fract_y
_atom_site_fract_z
O1 O 0.14406(18) 0.09224(17) 0.54658(11)
O2 O 0.2134(2) 0.0879(2) 0.71724(11)
O3 O 0.7503(2) 0.3175(2) 0.80779(11)
O4 O 0.94536(19) 0.43607(18) 0.67674(12)
N1 N 0.24982(19) 0.12339(18) 0.61488(12)
N2 N 0.8044(2) 0.35901(19) 0.70775(13)
N3 N 0.3746(2) 0.21389(18) 0.37246(11)
H1 H 0.26820 0.16910 0.39040
N4 N 0.4436(2) 0.25567(19) 0.25912(12)
C1 C 0.4784(2) 0.24515(19) 0.45436(13)
C2 C 0.4225(2) 0.20425(19) 0.57250(13)
C3 C 0.5299(2) 0.2407(2) 0.65450(13)
H2 H 0.49070 0.21340 0.73150
C4 C 0.6942(2) 0.3174(2) 0.62082(14)
C5 C 0.7564(2) 0.3574(2) 0.50522(14)
H3 H 0.86930 0.40830 0.48370
C6 C 0.6522(2) 0.3221(2) 0.42437(14)
H4 H 0.69540 0.34880 0.34770
C7 C 0.3472(3) 0.2189(2) 0.18323(14)
C8 C 0.4325(3) 0.2582(3) 0.06035(15)
H5 H 0.49940 0.15540 0.02310
H6 H 0.52920 0.33400 0.05980
C9 C 0.2766(3) 0.3378(3) -0.00747(16)
H7 H 0.22600 0.45000 0.02080
H8 H 0.33520 0.34730 -0.08790
C10 C 0.1091(3) 0.2344(3) 0.00317(17)
H9 H 0.15830 0.12340 -0.02770
H10 H 0.01160 0.28730 -0.04090
C11 C 0.0153(3) 0.2196(3) 0.12850(17)
H11 H -0.09260 0.15390 0.13440
H12 H -0.03820 0.33070 0.15800
C12 C 0.1634(3) 0.1366(3) 0.20139(17)
H13 H 0.10350 0.14320 0.28200
H14 H 0.19770 0.01880 0.18170
#END
