
#######################################################################
#
#                 Cambridge Crystallographic Data Centre
#                                CCDC
#
#######################################################################
#
# If this CIF has been generated from an entry in the Cambridge
# Structural Database, then it will include bibliographic, chemical,
# crystal, experimental, refinement or atomic coordinate data resulting
# from the CCDC's data processing and validation procedures.
#
#######################################################################

data_CSD_CIF_OJIRUV
_audit_creation_date 2011-04-19
_audit_creation_method CSD-ConQuest-V1
_database_code_CSD OJIRUV
_database_code_depnum_ccdc_archive 'CCDC 784215'
_chemical_formula_sum 'C17 H15 N1 O4'
_chemical_formula_moiety
;
C17 H15 N1 O4
;
_journal_coden_Cambridge 1220
_journal_volume 16
_journal_year 2010
_journal_page_first 13609
_journal_name_full 'Chem.-Eur.J. '
loop_
_publ_author_name
"Xinhui Feng"
"Jaesook Yun"
_chemical_name_systematic
;
4-Methyl-5-(4-nitrophenyl)-4-phenyldihydrofuran-2(3H)-one
;
_cell_volume   1446.891
_exptl_crystal_colour 'colorless'
_exptl_crystal_density_diffrn 1.365
_exptl_crystal_description 'block'
_diffrn_ambient_temperature 296
#These two values have been output from a single CSD field.
_refine_ls_R_factor_gt 0.0382
_refine_ls_wR_factor_gt 0.0382
_symmetry_cell_setting monoclinic
_symmetry_space_group_name_H-M 'P 21/n'
_symmetry_Int_Tables_number 14
loop_
_symmetry_equiv_pos_site_id
_symmetry_equiv_pos_as_xyz
1 x,y,z
2 1/2-x,1/2+y,1/2-z
3 -x,-y,-z
4 -1/2+x,-1/2-y,-1/2+z
_cell_length_a 10.6492(6)
_cell_length_b 11.5270(7)
_cell_length_c 12.4995(7)
_cell_angle_alpha 90
_cell_angle_beta 109.439(3)
_cell_angle_gamma 90
_cell_formula_units_Z 4
loop_
_atom_type_symbol
_atom_type_radius_bond
C 0.68
H 0.23
N 0.68
O 0.68
loop_
_atom_site_label
_atom_site_type_symbol
_atom_site_fract_x
_atom_site_fract_y
_atom_site_fract_z
N1 N -0.1634(1) 1.09046(10) 0.41464(9)
O1 O 0.01787(9) 0.80465(8) 0.05207(7)
O2 O 0.12536(11) 0.75922(9) -0.06718(8)
O3 O -0.15150(12) 1.19315(9) 0.39799(9)
O4 O -0.21462(10) 1.05487(9) 0.48241(9)
C1 C 0.10596(14) 0.73991(12) 0.02013(11)
C2 C 0.16436(16) 0.64833(14) 0.10639(12)
C3 C 0.13431(12) 0.68895(11) 0.21266(10)
C4 C 0.00166(13) 0.75433(11) 0.15318(10)
C5 C -0.03729(11) 0.84597(10) 0.22143(10)
C6 C -0.09365(13) 0.80991(12) 0.30147(11)
C7 C -0.13298(13) 0.88923(12) 0.36592(11)
C8 C -0.11603(11) 1.00548(11) 0.34935(10)
C9 C -0.06056(13) 1.04402(12) 0.27127(11)
C10 C -0.02063(14) 0.96338(12) 0.20760(11)
C11 C 0.11367(12) 0.58907(11) 0.28523(10)
C12 C 0.01726(14) 0.50485(12) 0.23868(12)
C13 C -0.00503(16) 0.41538(13) 0.30347(14)
C14 C 0.06951(16) 0.40733(14) 0.41599(14)
C15 C 0.16522(18) 0.48772(15) 0.46267(14)
C16 C 0.18776(15) 0.57833(14) 0.39890(12)
C17 C 0.24172(15) 0.77434(14) 0.27744(14)
H1 H -0.0692(12) 0.6986(10) 0.1272(9)
H2 H -0.0711(15) 0.3598(13) 0.2694(11)
H3 H 0.3315(16) 0.7375(13) 0.3025(12)
H4 H -0.0523(12) 1.1247(12) 0.2608(10)
H5 H 0.0150(13) 0.9893(12) 0.1541(11)
H6 H -0.0352(13) 0.5093(12) 0.1597(12)
H7 H 0.2223(14) 0.8073(12) 0.3399(12)
H8 H -0.1741(14) 0.8669(11) 0.4151(11)
H9 H 0.2503(13) 0.8389(12) 0.2277(11)
H10 H 0.2526(15) 0.6382(13) 0.4348(12)
H11 H -0.1062(12) 0.7260(12) 0.3107(10)
H12 H 0.1186(15) 0.5726(13) 0.0770(12)
H13 H 0.2580(16) 0.6398(12) 0.1175(12)
H14 H 0.2153(16) 0.4882(15) 0.5404(15)
H15 H 0.0527(15) 0.3442(13) 0.4591(12)
#END
