
#######################################################################
#
#                 Cambridge Crystallographic Data Centre
#                                CCDC
#
#######################################################################
#
# If this CIF has been generated from an entry in the Cambridge
# Structural Database, then it will include bibliographic, chemical,
# crystal, experimental, refinement or atomic coordinate data resulting
# from the CCDC's data processing and validation procedures.
#
#######################################################################

data_CSD_CIF_OJIYIP
_audit_creation_date 2003-12-12
_audit_creation_method CSD-ConQuest-V1
_database_code_CSD OJIYIP
_database_code_depnum_ccdc_archive 'CCDC 189745'
_chemical_formula_sum 'C17 H26 N2 O7'
_chemical_formula_moiety
;
C17 H26 N2 O7
;
_journal_coden_Cambridge 151
_journal_volume 46
_journal_year 2003
_journal_page_first 3102
_journal_name_full 'J.Med.Chem. '
loop_
_publ_author_name
"P.Conti"
"M.De Amici"
"S.J.di Ventimiglia"
"T.B.Stensbol"
"U.Madsen"
"H.Brauner-Osborne"
"E.Russo"
"G.De Sarro"
"G.Bruno"
"C.De Micheli"
_chemical_name_systematic
;
(3aS,5S,6aS)-5-t-butoxycarbonylamino-4,5,6,6a-tetrahydro-3aH-cyclopenta(d)isox
azole-3,5-dicarboxylic acid diethyl ester
;
_chemical_melting_point 411.15
_cell_volume   3999.793
_exptl_crystal_colour 'colorless'
_exptl_crystal_density_diffrn 1.23
_exptl_special_details
;
Melting point range 411.15-412.15K

;
_exptl_crystal_description 'irregular'
_exptl_crystal_preparation 'methanol'
_diffrn_ambient_temperature 298
_refine_special_details
;
The ethoxycarbonyl groups in both molecules are disordered over two sites 
with occupancies 0.60:0.40 and 0.50:0.50 respectively.
;
#These two values have been output from a single CSD field.
_refine_ls_R_factor_gt 0.0659
_refine_ls_wR_factor_gt 0.0659
loop_
_citation_database_id_CSD
_citation_special_details
JAYZAL "is a stereoisomer of this entry"
_symmetry_cell_setting orthorhombic
_symmetry_space_group_name_H-M 'P 21 21 21'
_symmetry_Int_Tables_number 19
loop_
_symmetry_equiv_pos_site_id
_symmetry_equiv_pos_as_xyz
1 x,y,z
2 1/2-x,-y,1/2+z
3 -x,1/2+y,1/2-z
4 1/2+x,1/2-y,-z
_cell_length_a 10.645(3)
_cell_length_b 18.558(4)
_cell_length_c 20.247(7)
_cell_angle_alpha 90
_cell_angle_beta 90
_cell_angle_gamma 90
_cell_formula_units_Z 8
loop_
_atom_type_symbol
_atom_type_radius_bond
C 0.68
H 0.23
N 0.68
O 0.68
loop_
_atom_site_label
_atom_site_type_symbol
_atom_site_fract_x
_atom_site_fract_y
_atom_site_fract_z
O1 O 0.1842(8) 0.4826(4) -0.3533(3)
N1 N 0.2563(8) 0.4928(4) -0.2976(5)
C1 C 0.0628(10) 0.4505(6) -0.3351(5)
H1 H -0.00650 0.48360 -0.34500
C2 C 0.0733(7) 0.4372(5) -0.2602(4)
H2 H 0.00730 0.46260 -0.23580
C3 C 0.0643(7) 0.3570(5) -0.2508(4)
H3 H -0.01980 0.34340 -0.23720
H4 H 0.12350 0.34080 -0.21760
C4 C 0.0411(9) 0.3784(6) -0.3666(4)
H5 H 0.08270 0.37570 -0.40910
H6 H -0.04800 0.36980 -0.37280
C5 C 0.2009(8) 0.4704(5) -0.2481(4)
N2 N 0.2336(5) 0.3198(4) -0.3240(3)
H7 H 0.27890 0.33260 -0.29090
C6 C 0.2896(7) 0.2963(5) -0.3795(4)
O2 O 0.4149(4) 0.2966(4) -0.3705(2)
O3 O 0.2346(5) 0.2768(4) -0.4285(3)
C7 C 0.4992(8) 0.2790(9) -0.4259(5)
C8 C 0.479(1) 0.3257(8) -0.4847(5)
H8 H 0.39930 0.31460 -0.50430
H9 H 0.54470 0.31750 -0.51620
H10 H 0.47990 0.37540 -0.47140
C9 C 0.6288(8) 0.2955(8) -0.3933(5)
H11 H 0.63490 0.34620 -0.38420
H12 H 0.69510 0.28150 -0.42280
H13 H 0.63610 0.26900 -0.35270
C10 C 0.4849(11) 0.2022(8) -0.4421(5)
H14 H 0.40490 0.19450 -0.46280
H15 H 0.48970 0.17410 -0.40230
H16 H 0.55070 0.18770 -0.47170
C11 C 0.2648(10) 0.4772(5) -0.1832(5)
C12 C 0.2511(11) 0.4482(7) -0.0681(5)
H17 H 0.23220 0.40150 -0.04890
H18 H 0.34160 0.45260 -0.07180
O4 O 0.3664(7) 0.5023(4) -0.1738(4)
O5 O 0.1931(5) 0.4532(3) -0.1350(3)
C13 C 0.0964(7) 0.3240(5) -0.3191(4)
C14 C 0.0436(10) 0.2468(7) -0.3229(5)
O6 O 0.1030(7) 0.1951(5) -0.3036(4)
O7 O -0.0702(6) 0.2425(4) -0.3435(4)
C15 C -0.1264(18) 0.1670(8) -0.3357(10)
H19 H -0.18660 0.15830 -0.37070
H20? H -0.06030 0.13130 -0.33930
C16 C -0.186(2) 0.1601(11) -0.2749(9)
H21 H -0.22430 0.11340 -0.27200
H22 H -0.24870 0.19670 -0.27050
H23 H -0.12480 0.16520 -0.24020
C17? C 0.017(3) 0.1310(12) -0.2973(13)
H24? H 0.02610 0.10610 -0.25550
H25? H -0.07050 0.14300 -0.30510
C18? C 0.071(3) 0.0941(15) -0.3496(13)
H26? H 0.03420 0.04700 -0.35300
H27? H 0.15990 0.08950 -0.34220
H28? H 0.05690 0.12010 -0.38990
C19 C 0.2071(17) 0.4998(9) -0.0294(8)
H29 H 0.24640 0.49670 0.01320
H30 H 0.11790 0.49430 -0.02460
H31 H 0.22510 0.54590 -0.04880
N3 N -0.2468(4) 0.3152(3) 0.1711(3)
H32 H -0.29010 0.33440 0.20230
C20 C -0.3072(6) 0.2916(4) 0.1173(3)
O8 O -0.4312(4) 0.3020(3) 0.1249(2)
O9 O -0.2567(4) 0.2663(3) 0.0687(2)
C21 C -0.5215(6) 0.2835(5) 0.0712(4)
C22 C -0.5205(7) 0.2037(4) 0.0604(4)
H33 H -0.44120 0.18960 0.04180
H34 H -0.58690 0.19080 0.03060
H35 H -0.53270 0.17960 0.10180
C23 C -0.4877(9) 0.3244(5) 0.0090(4)
H36 H -0.41010 0.30610 -0.00850
H37 H -0.47840 0.37460 0.01910
H38 H -0.55310 0.31830 -0.02320
C24 C -0.6438(7) 0.3099(5) 0.0994(5)
H39 H -0.66340 0.28310 0.13860
H40 H -0.70940 0.30340 0.06750
H41 H -0.63650 0.36010 0.11020
O10 O -0.1979(7) 0.4615(4) 0.2369(3)
N4 N -0.2482(8) 0.4855(4) 0.1777(5)
C25 C -0.0523(9) 0.4327(6) 0.1512(6)
H42 H 0.02240 0.46100 0.14000
C26 C -0.0742(10) 0.4298(6) 0.2247(5)
H43 H -0.00810 0.45540 0.24890
C27 C -0.0778(7) 0.3497(6) 0.2430(4)
H44 H 0.00330 0.33410 0.25950
H45 H -0.14070 0.34090 0.27670
C28 C -0.0418(7) 0.3546(5) 0.1273(4)
H46 H -0.08080 0.34900 0.08430
H47 H 0.04560 0.34000 0.12420
C29 C -0.1718(11) 0.4704(5) 0.1310(5)
C30 C -0.1109(6) 0.3099(5) 0.1793(4)
C31 C -0.0737(8) 0.2297(6) 0.1832(5)
O11 O -0.1443(5) 0.1815(3) 0.1925(3)
O12 O 0.0474(5) 0.2216(5) 0.1772(5)
C32 C 0.106(2) 0.1504(12) 0.1591(9)
H48 H 0.04700 0.11490 0.14210
H49 H 0.18020 0.15400 0.13170
C33 C 0.129(5) 0.145(2) 0.2262(12)
H50 H 0.17090 0.10030 0.23530
H51 H 0.05150 0.14710 0.25010
H52 H 0.18220 0.18440 0.23980
C34? C 0.089(2) 0.1467(14) 0.2005(16)
H53? H 0.06470 0.14150 0.24640
H54? H 0.04210 0.11110 0.17540
C35? C 0.2161(15) 0.1307(13) 0.1951(15)
H55? H 0.23100 0.08270 0.21110
H56? H 0.26390 0.16440 0.22070
H57? H 0.24110 0.13370 0.14960
C36 C -0.207(3) 0.4886(9) 0.0640(9)
O13 O -0.1288(11) 0.4757(6) 0.0200(5)
O14 O -0.3086(15) 0.5198(7) 0.0539(7)
C37 C -0.339(3) 0.5299(16) -0.0293(14)
H58 H -0.40170 0.49530 -0.04340
H59 H -0.37070 0.57800 -0.03810
C38 C -0.226(3) 0.519(2) -0.0631(15)
H60 H -0.23950 0.52650 -0.10950
H61 H -0.19850 0.47010 -0.05600
H62 H -0.16400 0.55170 -0.04720
#END
