
#######################################################################
#
#                 Cambridge Crystallographic Data Centre
#                                CCDC
#
#######################################################################
#
# If this CIF has been generated from an entry in the Cambridge
# Structural Database, then it will include bibliographic, chemical,
# crystal, experimental, refinement or atomic coordinate data resulting
# from the CCDC's data processing and validation procedures.
#
#######################################################################

data_CSD_CIF_OJIYIP01
_audit_creation_date 2006-01-09
_audit_creation_method CSD-ConQuest-V1
_database_code_CSD OJIYIP01
_database_code_depnum_ccdc_archive 'CCDC 275410'
_chemical_formula_sum 'C17 H26 N2 O7'
_chemical_formula_moiety
;
C17 H26 N2 O7
;
_journal_coden_Cambridge 1090
_journal_volume 16
_journal_year 2005
_journal_page_first 3030
_journal_name_full 'Tetrahedron:Asymm. '
loop_
_publ_author_name
"G.Bombieri"
"C.D.Micheli"
"N.Marchini"
"F.Meneghetti"
"A.Pinto"
"G.Roda"
_chemical_name_systematic
;
(3aS,5S,6aS)-5-t-Butoxycarbonylamino-4,5,6,6a-tetrahydro-3aH-cyclopenta(d)isox
azole-3,5-dicarboxylic acid diethyl ester
;
_cell_volume   3792.865
_exptl_crystal_density_diffrn 1.297
_exptl_crystal_preparation 'ethyl acetate'
_diffrn_ambient_temperature 100
_refine_special_details
;
Sections of two ester groups are disordered over two sites with occupancies 
of 0.603:0.397 and 0.617:0.383.
;
#These two values have been output from a single CSD field.
_refine_ls_R_factor_gt 0.0833
_refine_ls_wR_factor_gt 0.0833
loop_
_citation_database_id_CSD
_citation_special_details
JAYZAL "is a stereoisomer of this entry"
_symmetry_cell_setting orthorhombic
_symmetry_space_group_name_H-M 'P 21 21 21'
_symmetry_Int_Tables_number 19
loop_
_symmetry_equiv_pos_site_id
_symmetry_equiv_pos_as_xyz
1 x,y,z
2 1/2-x,-y,1/2+z
3 1/2+x,1/2-y,-z
4 -x,1/2+y,1/2-z
_cell_length_a 10.538(5)
_cell_length_b 18.053(5)
_cell_length_c 19.937(5)
_cell_angle_alpha 90
_cell_angle_beta 90
_cell_angle_gamma 90
_cell_formula_units_Z 8
loop_
_atom_type_symbol
_atom_type_radius_bond
C 0.68
H 0.23
N 0.68
O 0.68
loop_
_atom_site_label
_atom_site_type_symbol
_atom_site_fract_x
_atom_site_fract_y
_atom_site_fract_z
O1 O 0.3053(6) 0.5357(3) 0.7618(3)
O2 O 0.3455(13) 0.5201(6) 0.9884(4)
O3 O 0.1838(17) 0.4780(5) 0.9456(4)
O4 O 0.2407(4) 0.7358(3) 0.9328(2)
O5 O 0.0658(4) 0.6969(3) 0.8743(2)
O6 O 0.3608(6) 0.8230(4) 0.8099(3)
O7 O 0.5559(5) 0.7830(5) 0.8304(6)
N1 N 0.2481(7) 0.5116(4) 0.8206(4)
N2 N 0.2546(5) 0.6856(3) 0.8285(3)
H1 H 0.21290 0.66740 0.79520
C1 C 0.4293(8) 0.5678(7) 0.7764(4)
H2 H 0.49730 0.54080 0.75350
C2 C 0.4323(9) 0.6501(6) 0.7593(5)
H3 H 0.51700 0.66510 0.74590
H4 H 0.37390 0.66100 0.72300
C3 C 0.3923(6) 0.6899(5) 0.8230(4)
C4 C 0.4569(8) 0.6443(6) 0.8769(5)
H5 H 0.54510 0.65860 0.88180
H6 H 0.41450 0.65040 0.91980
C5 C 0.4459(9) 0.5652(6) 0.8522(5)
H7 H 0.51990 0.53560 0.86510
C6 C 0.3259(11) 0.5272(5) 0.8689(4)
C7 C 0.294(3) 0.5134(7) 0.9397(8)
C8 C 0.1884(6) 0.7087(4) 0.8830(3)
C9 C -0.0255(7) 0.7150(4) 0.9281(4)
C10 C -0.1488(7) 0.6885(4) 0.9009(5)
H8 H -0.16320 0.71030 0.85770
H9 H -0.21600 0.70250 0.93090
H10 H -0.14680 0.63550 0.89670
C11 C 0.0085(8) 0.6730(5) 0.9932(4)
H11 H -0.05690 0.68090 1.02600
H12 H 0.08780 0.69110 1.01030
H13 H 0.01570 0.62110 0.98380
C12 C -0.0261(7) 0.7970(4) 0.9393(4)
H14 H -0.03240 0.82200 0.89690
H15 H 0.05110 0.81140 0.96130
H16 H -0.09730 0.81020 0.96690
C13 C 0.4306(8) 0.7742(7) 0.8193(5)
C14 C 0.5991(10) 0.8609(8) 0.8215(11)
H17 H 0.53980 0.88680 0.79260
H18 H 0.59940 0.88560 0.86470
C15 C 0.7000(19) 0.8639(8) 0.7982(10)
H19 H 0.70430 0.83210 0.75970
H20 H 0.76150 0.84820 0.83080
H21 H 0.71780 0.91400 0.78500
C16 C 0.6295(11) 0.3315(6) 0.1590(6)
H22 H 0.57270 0.37250 0.14940
H23 H 0.70070 0.33450 0.12840
C17? C 0.4704(19) 0.3796(10) 0.2035(8)
H24? H 0.46000 0.40500 0.24590
C18? C 0.67650 0.33750 0.22990
H25 H 0.7126(15) 0.2911(7) 0.2435(7)
H26 H 0.60700 0.34980 0.25900
H27 H 0.74000 0.37560 0.23300
C19 C 0.41500 0.42410 0.14270
O8? O 0.309(2) 0.0172(10) 0.1451(8)
O9 O 0.1413(6) -0.0089(3) 0.3313(3)
O10 O 0.3093(7) 0.0521(4) 0.3681(3)
O11 O 0.2492(5) 0.2304(3) 0.0713(3)
O12 O 0.0708(5) 0.2032(3) 0.1324(3)
O13 O 0.5631(5) 0.2621(4) 0.1489(3)
O14 O 0.3909(5) 0.3123(3) 0.1968(3)
N3 N 0.2383(6) 0.0060(3) 0.2027(3)
N4 N 0.2579(8) 0.1829(4) 0.1762(4)
H28 H 0.2139(5) 0.1675(4) 0.2097(3)
C20 C 0.43440 0.04910 0.16300
H29 H 0.5041(8) 0.0154(5) 0.1518(4)
C21 C 0.45020 0.12390 0.12960
H30 H 0.4047(8) 0.1253(4) 0.0873(4)
H31 H 0.53920 0.13390 0.12100
C22 C 0.39520 0.18150 0.17900
C23 C 0.4333(7) 0.1483(4) 0.2479(4)
H32 H 0.5184(7) 0.1635(4) 0.2603(4)
H33 H 0.37480 0.16420 0.28260
C24 C 0.42640 0.06320 0.23780
H34 H 0.4943(8) 0.0377(4) 0.2622(4)
C25 C 0.29670 0.02990 0.25330
C26 C 0.2400(9) 0.0221(5) 0.3211(4)
C27 C 0.2544(10) 0.0543(5) 0.4356(5)
H35 H 0.2744(9) 0.1011(6) 0.4570(5)
H36 H 0.16290 0.04960 0.43300
C28 C 0.30510 -0.00390 0.47240
H37 H 0.3873(12) -0.0164(8) 0.4550(6)
H38 H 0.25010 -0.04620 0.46900
H39 H 0.31290 0.01060 0.51860
C29 C 0.20050 0.20830 0.12130
C30 C -0.0191(6) 0.2188(4) 0.0781(4)
C31 C -0.0106(8) 0.2981(8) 0.0617(5)
H40 H 0.0684(11) 0.3078(8) 0.0394(5)
H41 H -0.01490 0.32670 0.10230
H42 H -0.07970 0.31160 0.03290
C32 C -0.14900 0.19820 0.11160
H43 H -0.1537(9) 0.2203(9) 0.1554(6)
H44 H -0.15550 0.14540 0.11560
H45 H -0.21740 0.21640 0.08440
C33 C 0.00320 0.17400 0.01840
H46 H 0.0114(9) 0.1229(8) 0.0311(5)
H47 H 0.07980 0.19010 -0.00320
H48 H -0.06690 0.17940 -0.01190
C34 C 0.44970 0.25790 0.17260
C35 C 0.1120(9) 0.4787(5) 1.0392(5)
C36 C 0.362(3) 0.4933(9) 1.1041(10)
C37? C 0.2110(19) 0.4347(11) 1.0053(8)
H49 H 0.191(2) 0.3824(11) 1.0011(13)
H50 H 0.29540 0.44190 1.02330
C38 C 0.26680 0.49050 1.05070
H51? H 0.1952(17) 0.5225(13) 1.0606(8)
H52? H 0.23660 0.44040 1.04340
#END
