
#######################################################################
#
#                 Cambridge Crystallographic Data Centre
#                                CCDC
#
#######################################################################
#
# If this CIF has been generated from an entry in the Cambridge
# Structural Database, then it will include bibliographic, chemical,
# crystal, experimental, refinement or atomic coordinate data resulting
# from the CCDC's data processing and validation procedures.
#
#######################################################################

data_CSD_CIF_OJOLAC
_audit_creation_date 2016-04-07
_audit_creation_method CSD-ConQuest-V1
_database_code_CSD OJOLAC
_database_code_depnum_ccdc_archive 'CCDC 1458459'
_chemical_formula_sum 'C6 H10 N2 O5'
_chemical_formula_moiety
;
C6 H10 N2 O5
;
_journal_coden_Cambridge 1078
_journal_year 2016
_journal_name_full 'CSD Communication(Private Communication) '
loop_
_publ_author_name
"Zhang Jiarong"
_chemical_name_systematic
;
2,2-dimethyl-5-nitro-5-nitroso-1,3-dioxane
;
_cell_volume   1699.750
_exptl_crystal_colour 'blue'
_exptl_crystal_density_diffrn 1.486
_exptl_crystal_description 'block'
_diffrn_ambient_temperature 296
#These two values have been output from a single CSD field.
_refine_ls_R_factor_gt 0.0358
_refine_ls_wR_factor_gt 0.0358
_symmetry_cell_setting monoclinic
_symmetry_space_group_name_H-M 'C 2/c'
_symmetry_Int_Tables_number 15
loop_
_symmetry_equiv_pos_site_id
_symmetry_equiv_pos_as_xyz
1 x,y,z
2 -x,y,1/2-z
3 1/2+x,1/2+y,z
4 1/2-x,1/2+y,1/2-z
5 -x,-y,-z
6 x,-y,-1/2+z
7 -1/2-x,-1/2-y,-z
8 -1/2+x,-1/2-y,-1/2+z
_cell_length_a 14.515(3)
_cell_length_b 9.955(2)
_cell_length_c 11.897(2)
_cell_angle_alpha 90
_cell_angle_beta 98.600(3)
_cell_angle_gamma 90
_cell_formula_units_Z 8
loop_
_atom_type_symbol
_atom_type_radius_bond
C 0.68
H 0.23
N 0.68
O 0.68
loop_
_atom_site_label
_atom_site_type_symbol
_atom_site_fract_x
_atom_site_fract_y
_atom_site_fract_z
C1 C 0.20210(9) 0.93053(14) -0.01715(11)
H1 H 0.19310 0.87390 -0.08420
H2 H 0.21300 1.02190 -0.04010
C2 C 0.11673(9) 0.92429(13) 0.04441(11)
C3 C 0.30654(10) 0.97908(15) 0.15064(12)
C4 C 0.1447(1) 0.97622(17) 0.16638(12)
H3 H 0.09490 1.03070 0.18830
H4 H 0.15550 0.90110 0.21860
C5 C 0.34693(12) 0.89692(18) 0.25239(14)
H5 H 0.30090 0.83470 0.27080
H6 H 0.36540 0.95540 0.31600
H7 H 0.40030 0.84830 0.23530
C6 C 0.37348(13) 1.07877(19) 0.11403(16)
H8 H 0.34400 1.12590 0.04790
H9 H 0.42760 1.03260 0.09640
H10 H 0.39170 1.14170 0.17440
N1 N 0.03993(7) 1.00096(11) -0.02004(9)
N2 N 0.08253(8) 0.77861(12) 0.03963(11)
O1 O 0.04905(7) 1.06707(11) -0.10768(8)
O2 O 0.27767(6) 0.88413(9) 0.06136(8)
O3 O 0.22641(7) 1.05344(10) 0.17141(9)
O4 O 0.03184(7) 0.74522(11) -0.04599(10)
O5 O 0.11161(9) 0.70616(12) 0.11791(11)
#END
