
#######################################################################
#
#                 Cambridge Crystallographic Data Centre
#                                CCDC
#
#######################################################################
#
# If this CIF has been generated from an entry in the Cambridge
# Structural Database, then it will include bibliographic, chemical,
# crystal, experimental, refinement or atomic coordinate data resulting
# from the CCDC's data processing and validation procedures.
#
#######################################################################

data_CSD_CIF_OJOZUK
_audit_creation_date 2016-04-07
_audit_creation_method CSD-ConQuest-V1
_database_code_CSD OJOZUK
_database_code_depnum_ccdc_archive 'CCDC 1456003'
_chemical_formula_sum 'C20 H16 N2 O8'
_chemical_formula_moiety
;
C20 H16 N2 O8
;
_journal_coden_Cambridge 1078
_journal_year 2016
_journal_name_full 'CSD Communication(Private Communication) '
loop_
_publ_author_name
"O.Caamano"
"J.F.da Costa"
"M.D.Garcia"
"X.Garcia-Mera"
_chemical_name_systematic
;
4-((benzyloxy)carbonyl)cyclopent-2-en-1-yl 3,5-dinitrobenzoate
;
_cell_volume    924.886
_exptl_crystal_colour 'colorless'
_exptl_crystal_density_diffrn 1.481
_exptl_special_details
;
Departamento de Quimica Organica, Facultade de Quimica, Universidade de 
Santiago de Compostela, Avda. das Ciencias, s/n. Campus sur 15782 Santiago de 
Compostela
;
_exptl_crystal_description 'prism'
_diffrn_ambient_temperature 120
#These two values have been output from a single CSD field.
_refine_ls_R_factor_gt 0.0501
_refine_ls_wR_factor_gt 0.0501
loop_
_citation_database_id_CSD
_citation_special_details
XESSAS "is a stereoisomer of this entry"
_symmetry_cell_setting triclinic
_symmetry_space_group_name_H-M 'P -1'
_symmetry_Int_Tables_number 2
loop_
_symmetry_equiv_pos_site_id
_symmetry_equiv_pos_as_xyz
1 x,y,z
2 -x,-y,-z
_cell_length_a 7.937(5)
_cell_length_b 10.122(5)
_cell_length_c 12.822(5)
_cell_angle_alpha 112.748(5)
_cell_angle_beta 101.281(5)
_cell_angle_gamma 91.884(5)
_cell_formula_units_Z 2
loop_
_atom_type_symbol
_atom_type_radius_bond
C 0.68
H 0.23
N 0.68
O 0.68
loop_
_atom_site_label
_atom_site_type_symbol
_atom_site_fract_x
_atom_site_fract_y
_atom_site_fract_z
C1 C 0.4182(4) 1.0610(3) 1.3535(2)
C2 C 0.4502(4) 1.1587(3) 1.4685(3)
C3 C 0.5296(4) 1.2952(3) 1.5017(3)
C4 C 0.5787(4) 1.3367(3) 1.4206(3)
C5 C 0.5456(4) 1.2409(3) 1.3049(3)
C6 C 0.4645(3) 1.1025(3) 1.2705(2)
C7 C 0.4363(4) 1.0024(3) 1.1444(2)
O1 O 0.3251(2) 0.87402(19) 1.12256(15)
C8 C 0.3026(4) 0.7685(3) 1.0159(2)
C9 C 0.1845(4) 0.6392(3) 1.0014(2)
C10 C 0.1839(4) 0.5070(3) 0.8888(2)
C11 C 0.2839(4) 0.4017(3) 0.9278(2)
C12 C 0.2932(4) 0.4569(3) 1.0550(2)
C13 C 0.2434(4) 0.5863(3) 1.0951(2)
O2 O 0.1923(2) 0.25453(18) 0.87194(15)
C14 C 0.2111(3) 0.1780(3) 0.7645(2)
C15 C 0.1225(3) 0.0275(3) 0.7165(2)
C16 C 0.1179(4) -0.0590(3) 0.6006(2)
C17 C 0.0395(4) -0.1987(3) 0.5544(2)
C18 C -0.0310(4) -0.2586(3) 0.6186(2)
C19 C -0.0215(3) -0.1703(3) 0.7333(2)
C20 C 0.0518(3) -0.0287(3) 0.7836(2)
N1 N -0.0951(3) -0.2317(2) 0.8039(2)
O3 O -0.0814(3) -0.1550(2) 0.90674(16)
O4 O -0.1663(3) -0.3561(2) 0.75582(19)
N2 N 0.0347(3) -0.2907(2) 0.43217(19)
O5 O -0.0313(4) -0.4159(2) 0.39503(17)
O6 O 0.0962(3) -0.2362(2) 0.37573(16)
O7 O 0.2899(3) 0.2231(2) 0.71141(16)
O8 O 0.3679(4) 0.7798(2) 0.9430(2)
H1 H 0.367(4) 0.965(3) 1.328(2)
H2 H 0.417(5) 1.131(4) 1.527(3)
H3 H 0.558(4) 1.354(3) 1.581(3)
H4 H 0.632(4) 1.425(3) 1.434(3)
H5 H 0.581(4) 1.270(3) 1.252(2)
H6 H 0.383(4) 1.045(3) 1.092(2)
H7 H 0.552(4) 0.972(3) 1.127(2)
H8 H 0.071(3) 0.667(3) 1.000(2)
H9 H 0.245(4) 0.643(3) 1.175(3)
H10 H 0.337(4) 0.406(3) 1.102(3)
H11 H 0.396(3) 0.392(3) 0.909(2)
H12 H 0.239(4) 0.529(3) 0.838(3)
H13 H 0.057(4) 0.471(3) 0.851(3)
H14 H 0.057(3) 0.029(3) 0.858(2)
H15 H -0.074(4) -0.349(3) 0.592(2)
H16 H 0.159(3) -0.023(3) 0.552(2)
#END
