
#######################################################################
#
#                 Cambridge Crystallographic Data Centre
#                                CCDC
#
#######################################################################
#
# If this CIF has been generated from an entry in the Cambridge
# Structural Database, then it will include bibliographic, chemical,
# crystal, experimental, refinement or atomic coordinate data resulting
# from the CCDC's data processing and validation procedures.
#
#######################################################################

data_CSD_CIF_OJUFIJ
_audit_creation_date 2011-05-03
_audit_creation_method CSD-ConQuest-V1
_database_code_CSD OJUFIJ
_database_code_depnum_ccdc_archive 'CCDC 782678'
_chemical_formula_sum 'C28 H21 N3 O3'
_chemical_formula_moiety
;
C28 H21 N3 O3
;
_journal_coden_Cambridge 16
_journal_volume 67
_journal_year 2011
_journal_page_first 1272
_journal_name_full 'Tetrahedron '
loop_
_publ_author_name
"J.M.Kuthanapillil"
"S.Thulasi"
"R.Rajan"
"K.S.Krishnan"
"E.Suresh"
"K.V.Radhakrishnan"
_chemical_name_systematic
;
5-(Diphenylmethylene)-11-(5-nitropyridin-2-yl)-11-azatricyclo[5.3.1.0^2,6^]und
eca-3,9-dien-8-one
;
_chemical_melting_point 457.15
_cell_volume   1101.072
_exptl_crystal_colour 'colorless'
_exptl_crystal_density_diffrn 1.35
_exptl_crystal_description 'blocks'
_diffrn_ambient_temperature 293
#These two values have been output from a single CSD field.
_refine_ls_R_factor_gt 0.0515
_refine_ls_wR_factor_gt 0.0515
_symmetry_cell_setting triclinic
_symmetry_space_group_name_H-M 'P -1'
_symmetry_Int_Tables_number 2
loop_
_symmetry_equiv_pos_site_id
_symmetry_equiv_pos_as_xyz
1 x,y,z
2 -x,-y,-z
_cell_length_a 10.046(3)
_cell_length_b 10.586(3)
_cell_length_c 11.018(3)
_cell_angle_alpha 108.112(4)
_cell_angle_beta 93.776(4)
_cell_angle_gamma 96.178(4)
_cell_formula_units_Z 2
loop_
_atom_type_symbol
_atom_type_radius_bond
C 0.68
H 0.23
N 0.68
O 0.68
loop_
_atom_site_label
_atom_site_type_symbol
_atom_site_fract_x
_atom_site_fract_y
_atom_site_fract_z
N1 N 0.33591(17) 0.85699(16) 0.14811(14)
N2 N 0.41356(13) 0.81857(14) 0.46372(12)
N3 N 0.34750(13) 0.65553(13) 0.55079(12)
O1 O 0.41734(17) 0.95486(16) 0.15829(14)
O2 O 0.2508(2) 0.8096(2) 0.05740(15)
O3 O 0.04964(12) 0.54006(14) 0.65600(14)
C1 C 0.41277(17) 0.86415(17) 0.36421(16)
H1 H 0.46670 0.94410 0.37240
C2 C 0.33609(16) 0.79850(16) 0.25025(14)
C3 C 0.25428(17) 0.67977(17) 0.23594(15)
H2 H 0.20070 0.63470 0.15930
C4 C 0.25377(15) 0.63028(16) 0.33619(14)
H3 H 0.19980 0.55080 0.32940
C5 C 0.33645(14) 0.70170(14) 0.44991(13)
C6 C 0.42681(15) 0.72604(16) 0.67465(14)
H4 H 0.49960 0.79210 0.66760
C7 C 0.33355(17) 0.78842(17) 0.76891(16)
H5 H 0.36390 0.86830 0.83440
C8 C 0.20781(18) 0.73100(18) 0.76002(16)
H6 H 0.14930 0.77340 0.81640
C9 C 0.16029(15) 0.60160(17) 0.66233(16)
C10 C 0.26342(15) 0.54395(15) 0.57195(14)
H7 H 0.22020 0.47890 0.49100
C11 C 0.37269(15) 0.48506(16) 0.63675(15)
H8 H 0.41240 0.41880 0.57070
C12 C 0.48117(15) 0.60689(17) 0.70673(16)
H9 H 0.56780 0.59230 0.67250
C13 C 0.48991(17) 0.60982(19) 0.84372(16)
H10 H 0.54680 0.67300 0.90990
C14 C 0.40668(16) 0.51125(18) 0.85932(16)
H11 H 0.39780 0.49830 0.93830
C15 C 0.33077(15) 0.42553(16) 0.73967(15)
C16 C 0.24113(15) 0.31610(16) 0.72316(15)
C17 C 0.20293(16) 0.27638(16) 0.83603(15)
C18 C 0.2387(2) 0.16053(18) 0.85407(17)
H12 H 0.28610 0.10530 0.79420
C19 C 0.2047(2) 0.1258(2) 0.9601(2)
H13 H 0.22980 0.04790 0.97150
C20 C 0.1342(2) 0.2060(2) 1.04853(19)
H14 H 0.11020 0.18160 1.11910
C21 C 0.0991(2) 0.3214(2) 1.0334(2)
H15 H 0.05220 0.37640 1.09400
C22 C 0.1333(2) 0.3567(2) 0.92753(19)
H16 H 0.10920 0.43560 0.91770
C23 C 0.17230(15) 0.23365(15) 0.59480(15)
C24 C 0.24244(18) 0.18528(18) 0.48934(17)
H17 H 0.33610 0.19970 0.49940
C25 C 0.1755(2) 0.11625(19) 0.36997(18)
H18 H 0.22410 0.08570 0.30010
C26 C 0.0377(2) 0.09228(19) 0.35360(18)
H19 H -0.00730 0.04680 0.27260
C27 C -0.03347(19) 0.13573(19) 0.45727(19)
H20 H -0.12700 0.11830 0.44680
C28 C 0.03258(17) 0.20480(17) 0.57649(17)
H21 H -0.01690 0.23280 0.64620
#END
