
#######################################################################
#
#                 Cambridge Crystallographic Data Centre
#                                CCDC
#
#######################################################################
#
# If this CIF has been generated from an entry in the Cambridge
# Structural Database, then it will include bibliographic, chemical,
# crystal, experimental, refinement or atomic coordinate data resulting
# from the CCDC's data processing and validation procedures.
#
#######################################################################

data_CSD_CIF_OJUNEM
_audit_creation_date 2003-12-12
_audit_creation_method CSD-ConQuest-V1
_database_code_CSD OJUNEM
_database_code_depnum_ccdc_archive 'CCDC 171743'
_chemical_formula_sum 'C12 H17 N5 O2'
_chemical_formula_moiety
;
C12 H17 N5 O2
;
_journal_coden_Cambridge 692
_journal_year 2003
_journal_page_first 1620
_journal_name_full 'Synthesis '
loop_
_publ_author_name
"R.Brehme"
"G.Reck"
"B.Schulz"
"R.Radeglia"
_chemical_name_systematic
;
(1E,2Z)-2-N,N-dimethylhydrazono-2-(4-nitrophenyl)ethanal 
N',N'-dimethylhydrazone
;
_chemical_melting_point 347.15
_cell_volume    718.879
_exptl_crystal_colour 'red'
_exptl_crystal_density_diffrn 1.216
_exptl_special_details
;
Melting point range 347.15-348.65K

;
_exptl_crystal_description 'prismatic'
_diffrn_ambient_temperature 293
#These two values have been output from a single CSD field.
_refine_ls_R_factor_gt 0.054
_refine_ls_wR_factor_gt 0.054
_symmetry_cell_setting triclinic
_symmetry_space_group_name_H-M 'P -1'
_symmetry_Int_Tables_number 2
loop_
_symmetry_equiv_pos_site_id
_symmetry_equiv_pos_as_xyz
1 x,y,z
2 -x,-y,-z
_cell_length_a 9.5312(12)
_cell_length_b 9.7709(12)
_cell_length_c 9.9516(13)
_cell_angle_alpha 105.444(3)
_cell_angle_beta 103.348(2)
_cell_angle_gamma 117.754(3)
_cell_formula_units_Z 2
loop_
_atom_type_symbol
_atom_type_radius_bond
C 0.68
H 0.23
N 0.68
O 0.68
loop_
_atom_site_label
_atom_site_type_symbol
_atom_site_fract_x
_atom_site_fract_y
_atom_site_fract_z
N1 N 0.7950(2) 0.1782(2) 0.4142(2)
N2 N 0.7539(2) 0.2760(2) 0.5113(2)
C1 C 0.5902(2) 0.2158(2) 0.4697(2)
C2 C 0.4496(2) 0.0543(2) 0.3391(2)
H1 H 0.4828(23) -0.0179(26) 0.2939(22)
N3 N 0.2958(2) 0.0226(2) 0.2884(2)
N4 N 0.1651(2) -0.1272(2) 0.1709(2)
C3 C 0.0051(3) -0.1428(4) 0.1140(4)
H2 H 0.0132(52) -0.1216(55) 0.0229(52)
H3 H -0.0848(42) -0.2549(44) 0.0798(36)
H4 H -0.0056(39) -0.0586(42) 0.1783(40)
C4 C 0.1935(4) -0.2528(3) 0.0905(3)
H5 H 0.219(4) -0.2991(44) 0.1755(44)
H6 H 0.0799(42) -0.3425(41) 0.0053(39)
H7 H 0.2743(52) -0.2061(48) 0.0544(45)
C5 C 0.9705(3) 0.2308(4) 0.5049(4)
H8 H 0.9615(35) 0.2004(36) 0.5941(36)
H9 H 1.0515(33) 0.3497(35) 0.5351(29)
H10 H 1.0083(34) 0.1730(32) 0.4390(31)
C6 C 0.7873(4) 0.2068(4) 0.2773(3)
H11 H 0.8206(36) 0.1429(36) 0.2166(33)
H12 H 0.6752(29) 0.1691(26) 0.2172(24)
H13 H 0.8842(35) 0.3343(38) 0.3099(32)
C7 C 0.5514(2) 0.3203(2) 0.5730(2)
C8 C 0.6563(2) 0.4991(2) 0.6334(2)
H14 H 0.7406(25) 0.5484(25) 0.5983(23)
C9 C 0.6285(2) 0.5987(2) 0.7356(2)
H15 H 0.6996(30) 0.7216(31) 0.7708(27)
C10 C 0.4986(2) 0.5203(2) 0.7796(2)
C11 C 0.3906(2) 0.3431(2) 0.7219(2)
H16 H 0.3081(24) 0.2931(23) 0.7620(21)
C12 C 0.4176(2) 0.2446(2) 0.6177(2)
H17 H 0.3376(27) 0.1157(28) 0.5736(24)
N5 N 0.4701(3) 0.6246(3) 0.8922(2)
O1 O 0.5775(3) 0.7796(2) 0.9562(2)
O2 O 0.3435(3) 0.5519(3) 0.9192(2)
#END
