
#######################################################################
#
#                 Cambridge Crystallographic Data Centre
#                                CCDC
#
#######################################################################
#
# If this CIF has been generated from an entry in the Cambridge
# Structural Database, then it will include bibliographic, chemical,
# crystal, experimental, refinement or atomic coordinate data resulting
# from the CCDC's data processing and validation procedures.
#
#######################################################################

data_CSD_CIF_OJUNUC
_audit_creation_date 2003-12-12
_audit_creation_method CSD-ConQuest-V1
_database_code_CSD OJUNUC
_database_code_depnum_ccdc_archive 'CCDC 210614'
_chemical_formula_sum 'C14 H19 N5 O2'
_chemical_formula_moiety
;
C14 H19 N5 O2
;
_journal_coden_Cambridge 692
_journal_year 2003
_journal_page_first 1620
_journal_name_full 'Synthesis '
loop_
_publ_author_name
"R.Brehme"
"G.Reck"
"B.Schulz"
"R.Radeglia"
_chemical_name_systematic
;
(1E,2Z)-2-N,N-tetramethylenehydrazono-2-(4-nitrophenyl)ethanal 
N',N'-dimethylhydrazone
;
_chemical_melting_point 373.15
_cell_volume    764.428
_exptl_crystal_colour 'red-brown'
_exptl_crystal_density_diffrn 1.257
_exptl_special_details
;
Melting point range 373.15-373.65K

;
_exptl_crystal_description 'plate'
_diffrn_ambient_temperature 293
#These two values have been output from a single CSD field.
_refine_ls_R_factor_gt 0.0559
_refine_ls_wR_factor_gt 0.0559
_symmetry_cell_setting triclinic
_symmetry_space_group_name_H-M 'P -1'
_symmetry_Int_Tables_number 2
loop_
_symmetry_equiv_pos_site_id
_symmetry_equiv_pos_as_xyz
1 x,y,z
2 -x,-y,-z
_cell_length_a 9.8212(13)
_cell_length_b 9.9351(13)
_cell_length_c 10.1398(14)
_cell_angle_alpha 116.613(2)
_cell_angle_beta 106.577(2)
_cell_angle_gamma 104.049(2)
_cell_formula_units_Z 2
loop_
_atom_type_symbol
_atom_type_radius_bond
C 0.68
H 0.23
N 0.68
O 0.68
loop_
_atom_site_label
_atom_site_type_symbol
_atom_site_fract_x
_atom_site_fract_y
_atom_site_fract_z
N1 N 0.58203(16) 0.77033(16) 0.32166(17)
N2 N 0.44768(16) 0.72859(16) 0.18763(18)
C1 C 0.35186(18) 0.57115(19) 0.0834(2)
C2 C 0.38160(19) 0.43727(18) 0.0893(2)
H1 H 0.486(2) 0.4619(18) 0.1569(19)
N3 N 0.26776(16) 0.28990(15) 0.00390(16)
N4 N 0.29624(19) 0.16665(17) 0.0070(2)
C3 C 0.1647(4) 0.0089(3) -0.0875(4)
H2 H 0.148(4) -0.049(5) -0.051(5)
H3 H 0.083(3) 0.011(3) -0.149(4)
H4 H 0.184(4) -0.090(5) -0.174(4)
C4 C 0.4493(3) 0.1922(3) 0.1062(3)
H5 H 0.442(3) 0.102(3) 0.107(3)
H6 H 0.524(3) 0.243(3) 0.077(3)
H7 H 0.476(3) 0.282(3) 0.231(4)
C5 C 0.5558(3) 0.7472(3) 0.4472(3)
H8 H 0.522(3) 0.643(3) 0.421(3)
H9 H 0.467(4) 0.757(3) 0.443(4)
C6 C 0.6933(4) 0.8839(4) 0.6083(3)
H10 H 0.731(4) 0.839(5) 0.677(5)
H11 H 0.667(4) 0.954(4) 0.685(5)
C7 C 0.8006(4) 0.9816(3) 0.5711(3)
H12 H 0.880(4) 1.100(4) 0.657(4)
H13 H 0.740(6) 1.076(6) 0.607(6)
C8 C 0.6942(3) 0.9444(2) 0.4085(3)
H14 H 0.751(3) 0.962(3) 0.348(3)
H15 H 0.631(3) 1.008(3) 0.408(3)
C9 C 0.21110(17) 0.53316(18) -0.0558(2)
C10 C 0.1262(2) 0.6286(2) -0.0266(3)
H16 H 0.153(2) 0.706(2) 0.082(2)
C11 C -0.0001(2) 0.5998(2) -0.1546(3)
H17 H -0.063(3) 0.666(3) -0.131(3)
C12 C -0.04068(19) 0.4757(2) -0.3135(3)
C13 C 0.0397(2) 0.3789(2) -0.3480(3)
H18 H 0.009(2) 0.285(3) -0.467(3)
C14 C 0.1649(2) 0.4083(2) -0.2178(2)
H19 H 0.221(2) 0.344(2) -0.239(2)
N5 N -0.1752(2) 0.4431(3) -0.4544(3)
O1 O -0.2176(2) 0.3229(3) -0.5931(3)
O2 O -0.2356(2) 0.5396(3) -0.4243(3)
#END
