
#######################################################################
#
#                 Cambridge Crystallographic Data Centre
#                                CCDC
#
#######################################################################
#
# If this CIF has been generated from an entry in the Cambridge
# Structural Database, then it will include bibliographic, chemical,
# crystal, experimental, refinement or atomic coordinate data resulting
# from the CCDC's data processing and validation procedures.
#
#######################################################################

data_CSD_CIF_OKENOI
_audit_creation_date 2011-04-26
_audit_creation_method CSD-ConQuest-V1
_database_code_CSD OKENOI
_database_code_depnum_ccdc_archive 'CCDC 812425'
_chemical_formula_sum 'C24 H19 N1 O1'
_chemical_formula_moiety
;
C24 H19 N1 O1
;
_journal_coden_Cambridge 4
_journal_volume 132
_journal_year 2010
_journal_page_first 7884
_journal_name_full 'J.Am.Chem.Soc. '
loop_
_publ_author_name
"I.Nakamura"
"Dong Zhang"
"M.Terada"
_chemical_name_systematic
;
3-Benzylidene-2,4-diphenyl-3,4-dihydropyridine 1-oxide
;
_cell_volume   3755.786
_exptl_crystal_colour 'colorless'
_exptl_crystal_density_diffrn 1.193
_exptl_crystal_description 'prism'
_diffrn_ambient_temperature 173
#These two values have been output from a single CSD field.
_refine_ls_R_factor_gt 0.0393
_refine_ls_wR_factor_gt 0.0393
_symmetry_cell_setting monoclinic
_symmetry_space_group_name_H-M 'P 21/a'
_symmetry_Int_Tables_number 14
loop_
_symmetry_equiv_pos_site_id
_symmetry_equiv_pos_as_xyz
1 x,y,z
2 1/2-x,1/2+y,-z
3 -x,-y,-z
4 -1/2+x,-1/2-y,z
_cell_length_a 13.331(4)
_cell_length_b 13.030(4)
_cell_length_c 22.476(7)
_cell_angle_alpha 90
_cell_angle_beta 105.846(3)
_cell_angle_gamma 90
_cell_formula_units_Z 8
loop_
_atom_type_symbol
_atom_type_radius_bond
C 0.68
H 0.23
N 0.68
O 0.68
loop_
_atom_site_label
_atom_site_type_symbol
_atom_site_fract_x
_atom_site_fract_y
_atom_site_fract_z
O1 O 0.63330(6) 0.03181(6) 0.04170(4)
O2 O 0.59608(6) 0.47218(6) 0.45973(4)
N1 N 0.64240(7) 0.12258(7) 0.01977(4)
N2 N 0.62393(7) 0.37936(7) 0.47830(4)
C1 C 0.54968(9) 0.16067(9) -0.02347(5)
C2 C 0.55439(9) 0.23644(10) -0.06122(6)
C3 C 0.65435(9) 0.29105(9) -0.05911(5)
C4 C 0.72718(9) 0.27859(9) 0.00540(5)
C5 C 0.73028(9) 0.17614(8) 0.03293(5)
C6 C 0.70248(9) 0.25610(9) -0.11016(5)
C7 C 0.68698(10) 0.15879(9) -0.13572(6)
C8 C 0.73103(11) 0.13081(10) -0.18252(6)
C9 C 0.79042(10) 0.19929(11) -0.20475(6)
C10 C 0.80808(11) 0.29566(11) -0.17873(6)
C11 C 0.76524(10) 0.3238(1) -0.13164(6)
C12 C 0.78246(9) 0.35851(9) 0.03413(5)
C13 C 0.84616(9) 0.36718(8) 0.09864(5)
C14 C 0.80877(10) 0.33539(9) 0.14779(6)
C15 C 0.86634(11) 0.35155(10) 0.20813(6)
C16 C 0.96253(11) 0.39788(11) 0.22052(6)
C17 C 1.00114(10) 0.4294(1) 0.17232(6)
C18 C 0.94314(10) 0.41539(9) 0.11198(6)
C19 C 0.82849(9) 0.12867(9) 0.06909(5)
C20 C 0.83714(10) 0.07450(9) 0.12341(6)
C21 C 0.93139(12) 0.03155(11) 0.15469(7)
C22 C 1.01654(12) 0.04049(13) 0.13195(8)
C23 C 1.00901(11) 0.09326(13) 0.07815(8)
C24 C 0.91567(10) 0.13806(11) 0.04685(7)
C25 C 0.56734(9) 0.33533(10) 0.51821(6)
C26 C 0.60588(9) 0.25723(10) 0.55443(6)
C27 C 0.70728(9) 0.20853(9) 0.55370(5)
C28 C 0.72390(8) 0.22479(9) 0.49006(5)
C29 C 0.70112(9) 0.32888(9) 0.46476(5)
C30 C 0.79800(9) 0.24836(9) 0.60593(5)
C31 C 0.79528(11) 0.34395(10) 0.63254(6)
C32 C 0.87796(12) 0.37802(11) 0.67983(6)
C33 C 0.96413(11) 0.31734(13) 0.70168(6)
C34 C 0.96848(10) 0.22219(12) 0.67530(6)
C35 C 0.88625(10) 0.18794(10) 0.62764(6)
C36 C 0.75581(9) 0.14684(9) 0.46099(5)
C37 C 0.76902(9) 0.14236(9) 0.39821(5)
C38 C 0.85230(11) 0.08689(10) 0.38831(6)
C39 C 0.86851(13) 0.08121(12) 0.33047(8)
C40 C 0.80109(15) 0.12877(13) 0.28150(7)
C41 C 0.71578(13) 0.18171(11) 0.28961(6)
C42 C 0.69918(11) 0.18806(10) 0.34775(6)
C43 C 0.76612(9) 0.38126(9) 0.43027(5)
C44 C 0.87365(10) 0.37463(10) 0.45309(7)
C45 C 0.93824(13) 0.42309(12) 0.42298(9)
C46 C 0.89665(15) 0.47702(12) 0.36994(9)
C47 C 0.79067(15) 0.48308(11) 0.34656(7)
C48 C 0.72495(11) 0.43618(9) 0.37631(6)
H1 H 0.48430 0.13050 -0.02480
H2 H 0.49250 0.25700 -0.09110
H3 H 0.63900 0.36210 -0.06520
H4 H 0.64600 0.11090 -0.12060
H5 H 0.81900 0.18040 -0.23750
H6 H 0.77860 0.39000 -0.11350
H7 H 0.78060 0.41800 0.00940
H8 H 0.74290 0.30230 0.13940
H9 H 1.00240 0.40840 0.26210
H10 H 1.06790 0.46070 0.18080
H11 H 0.96930 0.43850 0.07900
H12 H 0.77780 0.06700 0.13870
H13 H 0.93760 -0.00400 0.19240
H14 H 0.50150 0.36320 0.51820
H15 H 0.56860 0.23150 0.58170
H16 H 0.70160 0.13680 0.55940
H17 H 0.73550 0.38610 0.61780
H18 H 0.87490 0.44380 0.69750
H19 H 0.88950 0.12260 0.60950
H20 H 0.77240 0.08540 0.48440
H21 H 0.89850 0.05280 0.42230
H22 H 0.92660 0.04440 0.32470
H23 H 0.64030 0.22380 0.35340
H24 H 0.76250 0.51970 0.30920
H25 H 0.65150 0.44150 0.35990
H26 H 0.71980 0.06370 -0.19950
H27 H 0.85000 0.34320 -0.19330
H28 H 0.83930 0.33070 0.24120
H29 H 1.08080 0.00980 0.15350
H30 H 1.06790 0.09880 0.06230
H31 H 0.91040 0.17590 0.01000
H32 H 1.02070 0.34070 0.73460
H33 H 1.02850 0.18030 0.68990
H34 H 0.81260 0.12510 0.24170
H35 H 0.66860 0.21390 0.25520
H36 H 0.90300 0.33650 0.48970
H37 H 1.01180 0.41830 0.43930
H38 H 0.94140 0.51050 0.34970
#END
