
#######################################################################
#
#                 Cambridge Crystallographic Data Centre
#                                CCDC
#
#######################################################################
#
# If this CIF has been generated from an entry in the Cambridge
# Structural Database, then it will include bibliographic, chemical,
# crystal, experimental, refinement or atomic coordinate data resulting
# from the CCDC's data processing and validation procedures.
#
#######################################################################

data_CSD_CIF_OKEQEA
_audit_creation_date 2003-12-12
_audit_creation_method CSD-ConQuest-V1
_database_code_CSD OKEQEA
_database_code_depnum_ccdc_archive 'CCDC 151947'
_chemical_formula_sum 'C13 H15 N1 O8'
_chemical_formula_moiety
;
C13 H15 N1 O8
;
_journal_coden_Cambridge 24
_journal_volume 44
_journal_year 2003
_journal_page_first 6687
_journal_name_full 'Tetrahedron Lett. '
loop_
_publ_author_name
"Y.Bleriot"
"S.K.Vadivel"
"I.R.Greig"
"A.J.Kirby"
"P.Sinay"
_chemical_name_systematic
;
\a-(4-Nitrophenyl)-D-glucopyranoside
;
_cell_volume   1322.289
_exptl_crystal_colour 'colorless'
_exptl_crystal_density_diffrn 1.56
_exptl_crystal_description 'parallelepiped'
_diffrn_ambient_temperature 295
#These two values have been output from a single CSD field.
_refine_ls_R_factor_gt 0.0554
_refine_ls_wR_factor_gt 0.0554
_symmetry_cell_setting monoclinic
_symmetry_space_group_name_H-M 'P 21'
_symmetry_Int_Tables_number 4
loop_
_symmetry_equiv_pos_site_id
_symmetry_equiv_pos_as_xyz
1 x,y,z
2 -x,1/2+y,-z
_cell_length_a 11.533
_cell_length_b 7.576
_cell_length_c 15.309
_cell_angle_alpha 90
_cell_angle_beta 98.68
_cell_angle_gamma 90
_cell_formula_units_Z 4
loop_
_atom_type_symbol
_atom_type_radius_bond
C 0.68
H 0.23
N 0.68
O 0.68
loop_
_atom_site_label
_atom_site_type_symbol
_atom_site_fract_x
_atom_site_fract_y
_atom_site_fract_z
C1 C 0.1058(6) -0.1696(9) 0.2532(4)
C2 C 0.0397(6) -0.2489(9) 0.3202(4)
C3 C 0.1097(6) -0.2261(8) 0.4116(4)
C4 C 0.1276(6) -0.0266(8) 0.4279(4)
C5 C 0.0677(6) 0.0693(9) 0.3463(4)
C6 C 0.0809(6) 0.2660(9) 0.3524(4)
C7 C -0.0596(6) 0.0183(9) 0.3269(5)
C8 C 0.0841(6) -0.1643(9) 0.0959(4)
C9 C 0.1924(6) -0.0859(9) 0.0960(4)
C10 C 0.2363(6) -0.0720(9) 0.0165(4)
C11 C 0.1686(6) -0.1269(9) -0.0594(4)
C12 C 0.0607(6) -0.2036(9) -0.0601(4)
C13 C 0.0183(6) -0.2225(9) 0.0183(4)
C14 C -0.3988(6) -0.2275(9) 0.2286(4)
C15 C -0.4598(6) -0.3463(9) 0.2864(4)
C16 C -0.3878(6) -0.3549(9) 0.3779(4)
C17 C -0.3640(6) -0.1652(9) 0.4106(4)
C18 C -0.4372(6) -0.0420(8) 0.3456(4)
C19 C -0.4301(7) 0.148(1) 0.3735(5)
C20 C -0.5626(7) -0.104(1) 0.3302(5)
C21 C -0.4164(6) -0.1900(9) 0.0724(4)
C22 C -0.3109(6) -0.1011(9) 0.0747(4)
C23 C -0.2673(6) -0.0743(9) -0.0029(4)
C24 C -0.3289(6) -0.1348(9) -0.0808(4)
C25 C -0.4353(6) -0.2181(9) -0.0844(4)
C26 C -0.4795(6) -0.2432(9) -0.0076(4)
N1 N 0.2127(6) -0.1051(8) -0.1429(4)
N2 N -0.2795(5) -0.1169(8) -0.1614(4)
O1 O 0.0344(4) -0.1851(6) 0.1700(3)
O2 O -0.0718(4) -0.1685(6) 0.3186(3)
O3 O 0.2198(4) -0.3108(6) 0.4218(3)
O4 O 0.0809(4) 0.0317(6) 0.5032(3)
O5 O 0.1255(4) 0.0124(6) 0.2743(3)
O6 O 0.1998(4) 0.3245(6) 0.3705(3)
O7 O 0.3154(5) -0.0636(9) -0.1408(4)
O8 O 0.1468(6) -0.1230(12) -0.2109(4)
O9 O -0.4695(4) -0.2254(7) 0.1442(3)
O10 O -0.5720(4) -0.2772(7) 0.2923(3)
O11 O -0.2797(4) -0.4442(6) 0.3766(3)
O12 O -0.3932(4) -0.1378(7) 0.4959(3)
O13 O -0.3924(4) -0.0543(6) 0.2638(3)
O14 O -0.3146(4) 0.2067(6) 0.4001(3)
O15 O -0.1865(5) -0.0382(8) -0.1593(3)
O16 O -0.3319(5) -0.1816(8) -0.2288(3)
H1 H 0.18400 -0.23390 0.25420
H2 H 0.02740 -0.37840 0.30520
H3 H 0.06390 -0.28590 0.45500
H4 H 0.21430 0.00340 0.43910
H5 H 0.03610 0.31070 0.39880
H6 H 0.04290 0.31800 0.29310
H7 H -0.10250 0.06180 0.37470
H8 H -0.09670 0.07530 0.26900
H9 H 0.23950 -0.04220 0.15340
H10 H 0.31620 -0.02140 0.01360
H11 H 0.01370 -0.24270 -0.11750
H12 H -0.05940 -0.28280 0.02000
H13 H -0.31630 -0.26980 0.22460
H14 H -0.46560 -0.46930 0.25880
H15 H -0.43380 -0.42460 0.41680
H16 H -0.27730 -0.13700 0.41460
H17 H -0.47530 0.16130 0.42630
H18 H -0.47020 0.22500 0.32510
H19 H -0.59460 -0.10500 0.38850
H20 H -0.61300 -0.01890 0.28950
H21 H -0.26690 -0.05930 0.13350
H22 H -0.19140 -0.00970 -0.00360
H23 H -0.47910 -0.25920 -0.14210
H24 H -0.55830 -0.30130 -0.00780
#END
