
#######################################################################
#
#                 Cambridge Crystallographic Data Centre
#                                CCDC
#
#######################################################################
#
# If this CIF has been generated from an entry in the Cambridge
# Structural Database, then it will include bibliographic, chemical,
# crystal, experimental, refinement or atomic coordinate data resulting
# from the CCDC's data processing and validation procedures.
#
#######################################################################

data_CSD_CIF_OKIRUX
_audit_creation_date 2016-04-11
_audit_creation_method CSD-ConQuest-V1
_database_code_CSD OKIRUX
_database_code_depnum_ccdc_archive 'CCDC 1434740'
_chemical_formula_sum 'C5 H4 N6 O9'
_chemical_formula_moiety
;
C5 H4 N6 O9
;
_journal_coden_Cambridge 1500
_journal_volume 6
_journal_year 2016
_journal_page_first 34921
_journal_name_full 'RSC Advances '
loop_
_publ_author_name
"A.A.Gidaspov"
"V.A.Zalomlenkov"
"V.V.Bakharev"
"V.E.Parfenov"
"E.V.Yurtaev"
"M.I.Struchkova"
"N.V.Palysaeva"
"K.Yu.Suponitsky"
"D.B.Lempert"
"A.B.Sheremetev"
_chemical_name_systematic
;
6-(2,2,2-Trinitroethoxy)-1,3,5-triazine-2,4(1H,3H)-dione
;
_cell_volume   1036.242
_exptl_crystal_colour 'colorless'
_exptl_crystal_density_diffrn 1.873
_exptl_crystal_description 'plate'
_diffrn_ambient_temperature 100
#These two values have been output from a single CSD field.
_refine_ls_R_factor_gt 0.0467
_refine_ls_wR_factor_gt 0.0467
_symmetry_cell_setting monoclinic
_symmetry_space_group_name_H-M 'P 21/c'
_symmetry_Int_Tables_number 14
loop_
_symmetry_equiv_pos_site_id
_symmetry_equiv_pos_as_xyz
1 x,y,z
2 -x,1/2+y,1/2-z
3 -x,-y,-z
4 x,-1/2-y,-1/2+z
_cell_length_a 13.2903(13)
_cell_length_b 6.6865(7)
_cell_length_c 11.6787(12)
_cell_angle_alpha 90
_cell_angle_beta 93.175(2)
_cell_angle_gamma 90
_cell_formula_units_Z 4
loop_
_atom_type_symbol
_atom_type_radius_bond
C 0.68
H 0.23
N 0.68
O 0.68
loop_
_atom_site_label
_atom_site_type_symbol
_atom_site_fract_x
_atom_site_fract_y
_atom_site_fract_z
O1 O 0.29797(11) 0.0614(2) 0.30577(11)
O2 O 0.16064(12) 0.1691(2) 0.49365(13)
O3 O 0.25014(12) -0.0878(2) 0.55160(13)
O4 O 0.08973(13) 0.0754(3) 0.22804(14)
O5 O -0.00507(12) -0.0172(3) 0.36446(14)
O6 O 0.08639(15) -0.3400(3) 0.50015(15)
O7 O 0.14191(13) -0.4535(2) 0.34052(14)
O8 O 0.47489(11) 0.5483(2) 0.14617(11)
O9 O 0.38079(11) 0.0049(2) -0.06699(11)
N1 N 0.37931(13) 0.3064(3) 0.22246(14)
H1 H 0.3835(18) 0.363(4) 0.288(2)
N2 N 0.42654(13) 0.2777(3) 0.03718(14)
H2 H 0.4589(19) 0.321(4) -0.020(2)
N3 N 0.33666(13) 0.0129(3) 0.11868(14)
N4 N 0.19176(13) -0.0004(3) 0.48559(14)
N5 N 0.07370(14) -0.0100(3) 0.31708(15)
N6 N 0.12701(14) -0.3237(3) 0.41062(15)
C1 C 0.33820(14) 0.1228(3) 0.20951(16)
C2 C 0.43033(15) 0.3893(3) 0.13524(16)
C3 C 0.38062(15) 0.0926(3) 0.02549(16)
C4 C 0.25312(16) -0.1348(3) 0.30419(17)
H3 H 0.30140 -0.23510 0.33690
H4 H 0.23200 -0.17470 0.22480
C5 C 0.16287(16) -0.1170(3) 0.37683(17)
#END
