
#######################################################################
#
#                 Cambridge Crystallographic Data Centre
#                                CCDC
#
#######################################################################
#
# If this CIF has been generated from an entry in the Cambridge
# Structural Database, then it will include bibliographic, chemical,
# crystal, experimental, refinement or atomic coordinate data resulting
# from the CCDC's data processing and validation procedures.
#
#######################################################################

data_CSD_CIF_OKIRIL
_audit_creation_date 2016-04-11
_audit_creation_method CSD-ConQuest-V1
_database_code_CSD OKIRIL
_database_code_depnum_ccdc_archive 'CCDC 1434738'
_chemical_formula_sum 'C9 H6 N12 O21'
_chemical_formula_moiety
;
C9 H6 N12 O21
;
_journal_coden_Cambridge 1500
_journal_volume 6
_journal_year 2016
_journal_page_first 34921
_journal_name_full 'RSC Advances '
loop_
_publ_author_name
"A.A.Gidaspov"
"V.A.Zalomlenkov"
"V.V.Bakharev"
"V.E.Parfenov"
"E.V.Yurtaev"
"M.I.Struchkova"
"N.V.Palysaeva"
"K.Yu.Suponitsky"
"D.B.Lempert"
"A.B.Sheremetev"
_chemical_name_systematic
;
2,4,6-tris(2,2,2-Trinitroethoxy)-1,3,5-triazine
;
_cell_volume   6554.950
_exptl_crystal_colour 'yellow'
_exptl_crystal_density_diffrn 1.879
_exptl_crystal_description 'plate'
_diffrn_ambient_temperature 100
_refine_special_details
;
O7''A and O7''B disordered over two sites with occupancies 0.51:0.49.

;
#These two values have been output from a single CSD field.
_refine_ls_R_factor_gt 0.0792
_refine_ls_wR_factor_gt 0.0792
_symmetry_cell_setting orthorhombic
_symmetry_space_group_name_H-M 'P n a 21'
_symmetry_Int_Tables_number 33
loop_
_symmetry_equiv_pos_site_id
_symmetry_equiv_pos_as_xyz
1 x,y,z
2 -x,-y,1/2+z
3 1/2+x,1/2-y,z
4 1/2-x,1/2+y,1/2+z
_cell_length_a 10.9186(15)
_cell_length_b 17.007(2)
_cell_length_c 35.300(5)
_cell_angle_alpha 90
_cell_angle_beta 90
_cell_angle_gamma 90
_cell_formula_units_Z 12
loop_
_atom_type_symbol
_atom_type_radius_bond
C 0.68
H 0.23
N 0.68
O 0.68
loop_
_atom_site_label
_atom_site_type_symbol
_atom_site_fract_x
_atom_site_fract_y
_atom_site_fract_z
O1 O 0.2836(4) 0.3443(3) 0.48358(15)
O2 O 0.3243(6) 0.1806(4) 0.42934(18)
O3 O 0.3886(5) 0.1912(3) 0.48799(18)
O4 O 0.1206(5) 0.2988(3) 0.42558(16)
O5 O 0.0402(6) 0.1818(4) 0.43096(18)
O6 O 0.1701(6) 0.0882(3) 0.49208(19)
O7 O 0.0448(5) 0.1716(3) 0.51796(17)
O8 O 0.4089(5) 0.5841(3) 0.44635(17)
O9 O 0.5367(8) 0.7318(4) 0.4042(3)
O10 O 0.6338(7) 0.6997(4) 0.4567(2)
O11 O 0.4441(6) 0.5958(5) 0.3676(2)
O12 O 0.6398(6) 0.5770(4) 0.35095(18)
O13 O 0.8044(6) 0.6310(4) 0.4052(2)
O14 O 0.7563(6) 0.5136(4) 0.4265(2)
O15 O 0.0194(5) 0.5494(3) 0.49104(15)
O16 O -0.2322(6) 0.5794(4) 0.5129(2)
O17 O -0.1629(8) 0.5781(4) 0.5708(2)
O18 O 0.0967(7) 0.6041(4) 0.5608(2)
O19 O 0.0314(6) 0.7213(3) 0.57566(19)
O20 O -0.2203(6) 0.7431(4) 0.5406(2)
O21 O -0.0770(7) 0.7811(4) 0.5015(2)
N1 N 0.3450(6) 0.4608(3) 0.46243(18)
N2 N 0.2151(6) 0.5721(4) 0.46815(18)
N3 N 0.1437(6) 0.4462(3) 0.48762(19)
N4 N 0.3102(6) 0.1945(4) 0.4621(2)
N5 N 0.1074(6) 0.2342(4) 0.44061(18)
N6 N 0.1284(6) 0.1544(4) 0.49738(19)
N7 N 0.5894(8) 0.6865(4) 0.4257(2)
N8 N 0.5581(8) 0.5903(5) 0.3730(2)
N9 N 0.7311(7) 0.5772(4) 0.4156(2)
N10 N -0.1613(7) 0.5974(4) 0.5374(2)
N11 N 0.0300(7) 0.6598(4) 0.5577(2)
N12 N -0.1265(7) 0.7337(4) 0.5222(2)
C1 C 0.2541(6) 0.4198(4) 0.47762(19)
C2 C 0.3201(7) 0.5362(4) 0.4592(2)
C3 C 0.1321(7) 0.5229(4) 0.4814(2)
C4 C 0.1928(7) 0.2945(4) 0.5007(2)
H1 H 0.11270 0.32170 0.50180
H2 H 0.21740 0.27990 0.52670
C5 C 0.1846(6) 0.2216(4) 0.4756(2)
C6 C 0.5254(7) 0.5480(5) 0.4411(2)
H3 H 0.51580 0.49500 0.42990
H4 H 0.56850 0.54290 0.46570
C7 C 0.5968(7) 0.6011(5) 0.4146(3)
C8 C -0.0023(8) 0.6311(4) 0.4879(2)
H5 H -0.05780 0.64260 0.46640
H6 H 0.07550 0.66010 0.48410
C9 C -0.0621(7) 0.6540(4) 0.5258(2)
O22 O 0.3912(5) 0.0170(3) 0.28833(14)
O23 O 0.5029(8) 0.1411(3) 0.3512(2)
O24 O 0.3426(6) 0.0664(4) 0.36174(17)
O25 O 0.6493(6) 0.0470(5) 0.29412(19)
O26 O 0.7289(6) 0.0290(5) 0.3490(2)
O27 O 0.5329(6) -0.0071(4) 0.40697(18)
O28 O 0.5634(7) -0.1110(4) 0.37173(19)
O29 O 0.3471(5) 0.1545(3) 0.18085(15)
O30 O 0.4029(6) 0.3404(4) 0.1376(2)
O31 O 0.4729(5) 0.3003(3) 0.19199(19)
O32 O 0.1948(5) 0.2228(3) 0.12661(16)
O33 O 0.1212(8) 0.3362(4) 0.1397(2)
O34 O 0.2629(6) 0.4130(3) 0.20387(18)
O35 O 0.1250(5) 0.3310(3) 0.22388(16)
O36 O 0.5669(5) -0.0706(3) 0.17910(15)
O37 O 0.7562(5) -0.1765(3) 0.15541(16)
O38 O 0.6057(5) -0.2600(3) 0.15332(16)
O39 O 0.3831(6) -0.1579(4) 0.1384(2)
O40 O 0.4455(5) -0.2146(4) 0.08706(18)
O41 O 0.7225(5) -0.1841(3) 0.07469(16)
O42 O 0.6043(6) -0.0843(3) 0.06227(16)
N13 N 0.3669(5) 0.0850(3) 0.23541(16)
N14 N 0.4614(5) 0.0452(3) 0.17805(17)
N15 N 0.4864(5) -0.0313(3) 0.23443(17)
N16 N 0.4472(8) 0.0797(4) 0.3529(2)
N17 N 0.6444(7) 0.0311(5) 0.3273(2)
N18 N 0.5392(7) -0.0427(4) 0.3772(2)
N19 N 0.3922(6) 0.3107(3) 0.1696(2)
N20 N 0.1866(6) 0.2806(3) 0.14604(18)
N21 N 0.2145(6) 0.3484(3) 0.20543(19)
N22 N 0.6556(5) -0.1978(3) 0.14531(17)
N23 N 0.4586(5) -0.1735(3) 0.11454(19)
N24 N 0.6437(6) -0.1363(4) 0.08221(18)
C10 C 0.4185(6) 0.0228(4) 0.2514(2)
C11 C 0.3921(6) 0.0935(4) 0.2000(2)
C12 C 0.5019(6) -0.0159(3) 0.19756(18)
C13 C 0.4474(7) -0.0404(4) 0.3116(2)
H7 H 0.50310 -0.07400 0.29650
H8 H 0.38470 -0.07420 0.32370
C14 C 0.5189(6) 0.0052(4) 0.3416(2)
C15 C 0.2718(6) 0.2063(4) 0.2033(2)
H9 H 0.30860 0.21470 0.22860
H10 H 0.18870 0.18400 0.20650
C16 C 0.2665(6) 0.2824(4) 0.1813(2)
C17 C 0.5868(7) -0.0582(4) 0.1392(2)
H11 H 0.66640 -0.03190 0.13480
H12 H 0.52090 -0.02520 0.12830
C18 C 0.5859(7) -0.1408(4) 0.1213(2)
O43 O 0.7042(5) 0.5150(3) 0.14666(14)
O44 O 0.5957(6) 0.6390(3) 0.08502(19)
O45 O 0.7394(6) 0.5594(4) 0.06648(17)
O46 O 0.4466(7) 0.5462(5) 0.14335(19)
O47 O 0.3651(6) 0.5394(4) 0.0876(2)
O48 O 0.5406(6) 0.4819(3) 0.02925(15)
O49 O 0.5344(11) 0.3818(6) 0.0679(3)
O50 O 0.7461(4) 0.6530(3) 0.25483(14)
O51 O 0.6928(6) 0.8383(4) 0.29969(19)
O52 O 0.6226(5) 0.8019(3) 0.24447(19)
O53 O 0.8790(7) 0.7204(3) 0.31308(19)
O54 O 0.9910(6) 0.8179(4) 0.29524(18)
O55 O 0.8431(5) 0.9124(3) 0.23790(19)
O56 O 0.9673(5) 0.8277(3) 0.21262(15)
O57 O 0.5237(5) 0.4278(3) 0.25424(14)
O58 O 0.3337(5) 0.3218(3) 0.27959(17)
O59 O 0.4860(6) 0.2385(3) 0.28223(16)
O60 O 0.7075(5) 0.3429(4) 0.29492(17)
O61 O 0.6489(5) 0.2895(4) 0.34836(18)
O62 O 0.3705(5) 0.3167(3) 0.36057(15)
O63 O 0.4818(5) 0.4230(3) 0.37022(15)
N25 N 0.7277(5) 0.5851(3) 0.19893(17)
N26 N 0.6315(5) 0.5432(3) 0.25568(17)
N27 N 0.6081(5) 0.4672(3) 0.19978(16)
N28 N 0.6419(7) 0.5738(4) 0.08015(18)
N29 N 0.4494(6) 0.5316(4) 0.11029(19)
N30 N 0.5383(6) 0.4533(3) 0.06075(18)
N31 N 0.7013(6) 0.8089(4) 0.2689(2)
N32 N 0.9066(6) 0.7727(4) 0.29235(19)
N33 N 0.8824(6) 0.8471(4) 0.23275(19)
N34 N 0.4360(6) 0.2996(4) 0.29017(18)
N35 N 0.6330(6) 0.3274(4) 0.31960(19)
N36 N 0.4449(6) 0.3664(3) 0.35158(17)
C19 C 0.6758(6) 0.5215(4) 0.1828(2)
C20 C 0.7005(6) 0.5915(4) 0.23500(19)
C21 C 0.5910(6) 0.4826(4) 0.2364(2)
C22 C 0.6456(7) 0.4581(4) 0.1231(2)
H13 H 0.59210 0.42350 0.13840
H14 H 0.70740 0.42510 0.11010
C23 C 0.5703(7) 0.5037(4) 0.0943(2)
C24 C 0.8204(6) 0.7061(4) 0.2332(2)
H15 H 0.78240 0.71660 0.20820
H16 H 0.90300 0.68380 0.22910
C25 C 0.8281(6) 0.7818(4) 0.2565(2)
C26 C 0.5034(8) 0.4395(4) 0.2940(2)
H17 H 0.42310 0.46520 0.29820
H18 H 0.56800 0.47390 0.30470
C27 C 0.5060(7) 0.3598(4) 0.3135(2)
O64? O 0.4846(12) 0.3895(7) 0.0702(3)
#END
