
#######################################################################
#
#                 Cambridge Crystallographic Data Centre
#                                CCDC
#
#######################################################################
#
# If this CIF has been generated from an entry in the Cambridge
# Structural Database, then it will include bibliographic, chemical,
# crystal, experimental, refinement or atomic coordinate data resulting
# from the CCDC's data processing and validation procedures.
#
#######################################################################

data_CSD_CIF_OKOSOX
_audit_creation_date 2011-05-12
_audit_creation_method CSD-ConQuest-V1
_database_code_CSD OKOSOX
_database_code_depnum_ccdc_archive 'CCDC 796841'
_chemical_formula_sum 'C20 H17 N3 O8'
_chemical_formula_moiety
;
C20 H17 N3 O8
;
_journal_coden_Cambridge 177
_journal_volume 9
_journal_year 2011
_journal_page_first 358
_journal_name_full 'Org.Biomol.Chem. '
loop_
_publ_author_name
"S.Sen"
"V.R.Potti"
"R.Surakanti"
"Y.L.N.Murthy"
"R.Pallepogu"
_chemical_name_systematic
;
Methyl 
6-(2,4-dinitrophenyl)-5-oxo-3-phenylhexahydropyrrolo[2,1-b][1,3]oxazole-6-carb
oxylate
;
_cell_volume   1963.123
_exptl_crystal_colour 'colorless'
_exptl_crystal_density_diffrn 1.446
_exptl_crystal_description 'block'
_diffrn_ambient_temperature 293
#These two values have been output from a single CSD field.
_refine_ls_R_factor_gt 0.0406
_refine_ls_wR_factor_gt 0.0406
_symmetry_cell_setting orthorhombic
_symmetry_space_group_name_H-M 'P 21 21 21'
_symmetry_Int_Tables_number 19
loop_
_symmetry_equiv_pos_site_id
_symmetry_equiv_pos_as_xyz
1 x,y,z
2 1/2-x,-y,1/2+z
3 1/2+x,1/2-y,-z
4 -x,1/2+y,1/2-z
_cell_length_a 9.7745(6)
_cell_length_b 9.7915(4)
_cell_length_c 20.5118(9)
_cell_angle_alpha 90
_cell_angle_beta 90
_cell_angle_gamma 90
_cell_formula_units_Z 4
loop_
_atom_type_symbol
_atom_type_radius_bond
C 0.68
H 0.23
N 0.68
O 0.68
loop_
_atom_site_label
_atom_site_type_symbol
_atom_site_fract_x
_atom_site_fract_y
_atom_site_fract_z
C1 C 0.8616(3) 0.4824(2) 0.07051(10)
H1 H 0.77990 0.52330 0.05090
C2 C 0.8680(3) 0.5650(2) 0.17911(11)
H2 H 0.92490 0.53690 0.21610
C3 C 0.9546(4) 0.6530(3) 0.13159(13)
H3 H 0.90820 0.73830 0.12230
H4 H 1.04290 0.67360 0.15080
C4 C 0.8821(3) 0.3175(2) 0.15306(11)
C5 C 0.9127(2) 0.23881(19) 0.08825(10)
C6 C 0.9032(3) 0.35278(19) 0.03578(10)
H5 H 0.99090 0.36490 0.01450
H6 H 0.83570 0.32880 0.00300
C7 C 1.0607(3) 0.1886(2) 0.09716(11)
C8 C 1.1931(3) -0.0031(3) 0.12794(15)
H7 H 1.21990 -0.04110 0.08670
H8 H 1.18770 -0.07460 0.15980
H9 H 1.25950 0.06330 0.14150
C9 C 0.8148(3) 0.1212(2) 0.07679(10)
C10 C 0.8167(3) 0.0375(2) 0.02106(9)
C11 C 0.7289(3) -0.0709(2) 0.01183(10)
H10 H 0.73630 -0.12650 -0.02480
C12 C 0.6310(3) -0.0945(2) 0.05793(11)
C13 C 0.6186(3) -0.0131(2) 0.11212(11)
H11 H 0.54910 -0.02830 0.14220
C14 C 0.7112(3) 0.0917(2) 0.12115(11)
H12 H 0.70400 0.14490 0.15860
C15 C 0.7431(3) 0.6380(2) 0.20387(10)
C16 C 0.6126(3) 0.6023(2) 0.18590(11)
H13 H 0.59930 0.53070 0.15680
C17 C 0.5003(3) 0.6718(2) 0.21062(13)
H14 H 0.41250 0.64660 0.19800
C18 C 0.5185(4) 0.7774(3) 0.25360(14)
H15 H 0.44320 0.82370 0.27030
C19 C 0.6486(4) 0.8143(3) 0.27181(13)
H16 H 0.66110 0.88610 0.30090
C20 C 0.7611(4) 0.7460(2) 0.24740(12)
H17 H 0.84870 0.77200 0.26000
N1 N 0.8389(2) 0.44571(16) 0.13781(7)
N2 N 0.9149(2) 0.05946(18) -0.03298(9)
N3 N 0.5350(3) -0.2068(2) 0.04769(10)
O1 O 0.9717(2) 0.57780(16) 0.07440(8)
O2 O 0.8969(2) 0.27289(15) 0.20755(7)
O3 O 1.16012(19) 0.25583(16) 0.08590(8)
O4 O 1.06093(18) 0.06171(15) 0.12150(8)
O5 O 1.0237(2) 0.11554(17) -0.02171(8)
O6 O 0.8811(2) 0.01798(15) -0.08664(7)
O7 O 0.5731(2) -0.30420(15) 0.01499(8)
O8 O 0.4214(2) -0.19718(17) 0.07225(9)
#END
