
#######################################################################
#
#                 Cambridge Crystallographic Data Centre
#                                CCDC
#
#######################################################################
#
# If this CIF has been generated from an entry in the Cambridge
# Structural Database, then it will include bibliographic, chemical,
# crystal, experimental, refinement or atomic coordinate data resulting
# from the CCDC's data processing and validation procedures.
#
#######################################################################

data_CSD_CIF_OKUHAD
_audit_creation_date 2004-02-04
_audit_creation_method CSD-ConQuest-V1
_database_code_CSD OKUHAD
_database_code_depnum_ccdc_archive 'CCDC 161452'
_chemical_formula_sum 'C10 H13 N1 O2'
_chemical_formula_moiety
;
C10 H13 N1 O2
;
_journal_coden_Cambridge 1137
_journal_volume 14
_journal_year 2001
_journal_page_first 764
_journal_name_full 'J.Phys.Org.Chem. '
loop_
_publ_author_name
"E.Pindelska"
"T.M.Krygowski"
"R.Anulewicz-Ostrowska"
"M.K.Cyranski"
"J.Nowacki"
_chemical_name_systematic
;
2,3-Dimethyl-4-methoxybenzaldehyde oxime
;
_chemical_name_common
;
2,3-Dimethyl-p-anisaldoxime
;
_chemical_melting_point 389.15
_cell_volume    460.915
_exptl_crystal_colour 'colorless'
_exptl_crystal_density_diffrn 1.291
_exptl_special_details
;
Melting point range 389.15-390.15K

;
_exptl_crystal_preparation '95% ethanol'
_diffrn_ambient_temperature 100
#These two values have been output from a single CSD field.
_refine_ls_R_factor_gt 0.0346
_refine_ls_wR_factor_gt 0.0346
_symmetry_cell_setting triclinic
_symmetry_space_group_name_H-M 'P -1'
_symmetry_Int_Tables_number 2
loop_
_symmetry_equiv_pos_site_id
_symmetry_equiv_pos_as_xyz
1 x,y,z
2 -x,-y,-z
_cell_length_a 7.4494(15)
_cell_length_b 7.7594(16)
_cell_length_c 9.0504(18)
_cell_angle_alpha 82.64(3)
_cell_angle_beta 69.10(3)
_cell_angle_gamma 70.59(3)
_cell_formula_units_Z 2
loop_
_atom_type_symbol
_atom_type_radius_bond
C 0.68
H 0.23
N 0.68
O 0.68
loop_
_atom_site_label
_atom_site_type_symbol
_atom_site_fract_x
_atom_site_fract_y
_atom_site_fract_z
C1 C 0.3650(3) 0.1791(3) 0.6550(2)
O1 O 0.1983(2) -0.01836(19) 1.04504(16)
O2 O 0.4348(2) 0.38562(18) 0.19695(16)
C2 C 0.2261(3) 0.2843(3) 0.4430(3)
C3 C 0.5426(3) 0.2204(2) 0.5600(2)
N1 N 0.1830(3) 0.0609(2) 0.89880(19)
C4 C 0.5643(3) 0.2871(3) 0.4060(2)
C5 C 0.3432(4) 0.0990(3) 0.8129(3)
C6 C 0.2090(3) 0.2136(3) 0.5925(3)
C7 C 0.4040(3) 0.3189(3) 0.3490(2)
C8 C 0.7571(3) 0.3218(3) 0.2999(3)
C9 C 0.7122(4) 0.1935(4) 0.6232(3)
C10 C 0.2819(4) 0.4066(4) 0.1295(3)
H1 H 0.091(3) 0.186(2) 0.655(2)
H2 H 0.450(3) 0.071(3) 0.857(2)
H3 H 0.112(3) 0.307(2) 0.409(2)
H4 H 0.881(4) 0.213(3) 0.301(2)
H5 H 0.260(3) 0.283(4) 0.128(3)
H6 H 0.152(4) 0.500(3) 0.187(3)
H7 H 0.756(3) 0.340(3) 0.197(3)
H8 H 0.336(3) 0.446(3) 0.021(3)
H9 H 0.774(3) 0.423(4) 0.332(3)
H10 H 0.074(5) -0.045(4) 1.086(3)
H11 H 0.771(4) 0.285(4) 0.592(3)
H12 H 0.814(5) 0.086(5) 0.593(4)
H13 H 0.669(5) 0.210(4) 0.735(4)
#END
