
#######################################################################
#
#                 Cambridge Crystallographic Data Centre
#                                CCDC
#
#######################################################################
#
# If this CIF has been generated from an entry in the Cambridge
# Structural Database, then it will include bibliographic, chemical,
# crystal, experimental, refinement or atomic coordinate data resulting
# from the CCDC's data processing and validation procedures.
#
#######################################################################

data_CSD_CIF_OKUPAM
_audit_creation_date 2011-05-03
_audit_creation_method CSD-ConQuest-V1
_database_code_CSD OKUPAM
_database_code_depnum_ccdc_archive 'CCDC 739479'
_chemical_formula_sum 'C26 H31 N1 O2'
_chemical_formula_moiety
;
C26 H31 N1 O2
;
_journal_coden_Cambridge 35
_journal_volume 75
_journal_year 2010
_journal_page_first 1214
_journal_name_full 'J.Org.Chem. '
loop_
_publ_author_name
"S.G.Davies"
"C.J.Goodwin"
"D.Hepworth"
"P.M.Roberts"
"J.E.Thomson"
_chemical_name_systematic
;
N-t-Butoxy-2-methyl-N-(1-(2-naphthyl)ethyl)-3-phenylpropanamide
;
_cell_volume   2239.775
_exptl_crystal_colour 'colorless'
_exptl_crystal_description 'prism'
_diffrn_ambient_temperature 190
#These two values have been output from a single CSD field.
_refine_ls_R_factor_gt 0.049
_refine_ls_wR_factor_gt 0.049
_symmetry_cell_setting monoclinic
_symmetry_space_group_name_H-M 'P 21/c'
_symmetry_Int_Tables_number 14
loop_
_symmetry_equiv_pos_site_id
_symmetry_equiv_pos_as_xyz
1 x,y,z
2 -x,1/2+y,1/2-z
3 -x,-y,-z
4 x,-1/2-y,-1/2+z
_cell_length_a 11.5977(9)
_cell_length_b 16.253(2)
_cell_length_c 11.883(4)
_cell_angle_alpha 90
_cell_angle_beta 90.64(2)
_cell_angle_gamma 90
_cell_formula_units_Z 4
loop_
_atom_type_symbol
_atom_type_radius_bond
C 0.68
H 0.23
N 0.68
O 0.68
loop_
_atom_site_label
_atom_site_type_symbol
_atom_site_fract_x
_atom_site_fract_y
_atom_site_fract_z
O1 O 0.8808(1) -0.0894(1) 0.5755(1)
O2 O 0.9087(1) -0.10692(8) 0.8664(1)
N1 N 0.8549(1) -0.1112(1) 0.7590(1)
C1 C 1.1906(2) 0.0288(1) 0.7580(2)
C2 C 1.2346(2) 0.0014(2) 0.8603(2)
C3 C 1.3458(2) 0.0204(2) 0.8936(2)
C4 C 1.4141(2) 0.0683(2) 0.8258(3)
C5 C 1.3706(2) 0.0965(2) 0.7245(3)
C6 C 1.2607(2) 0.0764(2) 0.6909(2)
C7 C 1.0687(2) 0.0081(1) 0.7217(2)
C8 C 1.0523(2) -0.0825(1) 0.6902(2)
C9 C 1.1223(2) -0.1054(2) 0.5873(2)
C10 C 0.9248(2) -0.0956(1) 0.6690(2)
C11 C 0.9144(2) -0.1870(1) 0.9245(2)
C12 C 0.9648(2) -0.2535(1) 0.8511(2)
C13 C 0.7979(3) -0.2120(2) 0.9670(2)
C14 C 0.9953(3) -0.1663(2) 1.0218(2)
C15 C 0.7319(2) -0.0853(1) 0.7584(2)
C16 C 0.6572(2) -0.1444(2) 0.6909(2)
C17 C 0.7188(2) 0.0049(1) 0.7283(2)
C18 C 0.7603(2) 0.0643(2) 0.8061(2)
C19 C 0.7469(2) 0.1462(2) 0.7885(2)
C20 C 0.6901(2) 0.1755(2) 0.6905(2)
C21 C 0.6504(2) 0.1179(1) 0.6101(2)
C22 C 0.6667(2) 0.0326(1) 0.6316(2)
C23 C 0.5930(2) 0.1457(2) 0.5121(2)
C24 C 0.5744(3) 0.2273(2) 0.4961(3)
C25 C 0.6135(3) 0.2849(2) 0.5752(3)
C26 C 0.6705(3) 0.2601(2) 0.6705(3)
H1 H 1.18290 -0.03320 0.91230
H2 H 1.37870 -0.00230 0.96760
H3 H 1.49660 0.08280 0.85020
H4 H 1.42070 0.13340 0.67460
H5 H 1.23050 0.09550 0.61350
H6 H 1.01330 0.02230 0.78530
H7 H 1.04510 0.04340 0.65490
H8 H 1.07970 -0.12050 0.75230
H9 H 1.11310 -0.16590 0.56870
H10 H 1.20740 -0.09500 0.60180
H11 H 1.09760 -0.07240 0.52040
H12 H 0.96770 -0.30780 0.89170
H13 H 1.04570 -0.23860 0.82830
H14 H 0.91690 -0.26070 0.78040
H15 H 0.80050 -0.26760 1.00570
H16 H 0.76570 -0.17080 1.02070
H17 H 0.74020 -0.21760 0.90130
H18 H 1.01090 -0.21510 1.07050
H19 H 1.07340 -0.14720 0.99040
H20 H 0.96450 -0.12030 1.06810
H21 H 0.70350 -0.09000 0.83830
H22 H 0.57370 -0.12700 0.69220
H23 H 0.66200 -0.20210 0.72360
H24 H 0.68270 -0.14690 0.61080
H25 H 0.80210 0.04440 0.87780
H26 H 0.77630 0.18680 0.84800
H27 H 0.63800 -0.00900 0.57350
H28 H 0.56570 0.10380 0.45310
H29 H 0.53230 0.24660 0.42530
H30 H 0.59850 0.34700 0.56160
H31 H 0.69960 0.30350 0.72770
#END
