
#######################################################################
#
#                 Cambridge Crystallographic Data Centre
#                                CCDC
#
#######################################################################
#
# If this CIF has been generated from an entry in the Cambridge
# Structural Database, then it will include bibliographic, chemical,
# crystal, experimental, refinement or atomic coordinate data resulting
# from the CCDC's data processing and validation procedures.
#
#######################################################################

data_CSD_CIF_OKUTOE
_audit_creation_date 2011-05-03
_audit_creation_method CSD-ConQuest-V1
_database_code_CSD OKUTOE
_database_code_depnum_ccdc_archive 'CCDC 772890'
_chemical_formula_sum 'C19 H17 N3 O5'
_chemical_formula_moiety
;
C19 H17 N3 O5
;
_journal_coden_Cambridge 119
_journal_volume 987
_journal_year 2011
_journal_page_first 106
_journal_name_full 'J.Mol.Struct. '
loop_
_publ_author_name
"O.F.Vazquez-Vuelvas"
"J.V.Hernandez-Madrigal"
"R.Gavino"
"M.A.Tlenkopatchev"
"D.Morales-Morales"
"J.M.German-Acacio"
"Z.Gomez-Sandoval"
"C.Garcias-Morales"
"A.Ariza-Castolo"
"A.Pineda-Contreras"
_chemical_name_systematic
;
1-(3,5-Dinitrophenyl)-2-(1,3,3-trimethyl-1,3-dihydro-2H-indol-2-ylidene)ethano
ne
;
_chemical_melting_point 493.15
_cell_volume    832.952
_exptl_crystal_colour 'orange'
_exptl_crystal_density_diffrn 1.465
_exptl_crystal_description 'prism'
_exptl_crystal_preparation 'toluene'
_diffrn_ambient_temperature 123
#These two values have been output from a single CSD field.
_refine_ls_R_factor_gt 0.0409
_refine_ls_wR_factor_gt 0.0409
_symmetry_cell_setting triclinic
_symmetry_space_group_name_H-M 'P -1'
_symmetry_Int_Tables_number 2
loop_
_symmetry_equiv_pos_site_id
_symmetry_equiv_pos_as_xyz
1 x,y,z
2 -x,-y,-z
_cell_length_a 6.9082(9)
_cell_length_b 7.8601(11)
_cell_length_c 15.578(2)
_cell_angle_alpha 99.232(3)
_cell_angle_beta 91.361(3)
_cell_angle_gamma 93.420(3)
_cell_formula_units_Z 2
loop_
_atom_type_symbol
_atom_type_radius_bond
C 0.68
H 0.23
N 0.68
O 0.68
loop_
_atom_site_label
_atom_site_type_symbol
_atom_site_fract_x
_atom_site_fract_y
_atom_site_fract_z
O1 O 0.2162(2) 0.59940(18) 0.32358(9)
C1 C 0.2208(3) 0.4597(3) 0.35106(13)
C2 C 0.2181(3) 0.2918(3) 0.30038(13)
H1 H 0.20990 0.19760 0.33170
N1 N 0.2290(2) 0.0845(2) 0.17027(10)
C3 C 0.2259(3) 0.2498(3) 0.21114(13)
C4 C 0.2374(3) 0.3694(3) 0.14202(12)
C5 C 0.2604(3) 0.2651(3) -0.02607(13)
H2 H 0.26400 0.37850 -0.04010
C6 C 0.2680(3) 0.1221(3) -0.09150(13)
H3 H 0.27710 0.13760 -0.15050
C7 C 0.2625(3) -0.0433(3) -0.07002(13)
H4 H 0.26840 -0.13970 -0.11500
C8 C 0.2483(3) -0.0711(3) 0.01578(13)
H5 H 0.24350 -0.18410 0.03030
C9 C 0.2416(3) 0.0745(3) 0.07916(13)
C10 C 0.2474(3) 0.2396(3) 0.05902(13)
C11 C 0.2208(3) -0.0665(3) 0.21370(13)
H6 H 0.10360 -0.06770 0.24780
H7 H 0.33560 -0.06190 0.25240
H8 H 0.21790 -0.17140 0.17010
C12 C 0.4240(3) 0.4895(3) 0.15486(14)
H9 H 0.43250 0.55730 0.10730
H10 H 0.53720 0.42000 0.15490
H11 H 0.42110 0.56760 0.21050
C13 C 0.0552(3) 0.4714(3) 0.13882(14)
H12 H -0.06000 0.39090 0.12850
H13 H 0.06440 0.53990 0.09160
H14 H 0.04470 0.54860 0.19430
C14 C 0.2343(3) 0.4725(3) 0.44977(12)
C15 C 0.1896(3) 0.3354(3) 0.49409(13)
H15 H 0.15120 0.22400 0.46290
C16 C 0.2019(3) 0.3639(3) 0.58416(13)
C17 C 0.2579(3) 0.5228(3) 0.63322(13)
H16 H 0.26560 0.53960 0.69500
C18 C 0.3018(3) 0.6556(3) 0.58723(13)
C19 C 0.2911(3) 0.6347(3) 0.49755(13)
H17 H 0.32200 0.72980 0.46850
N2 N 0.1500(3) 0.2197(2) 0.63131(11)
O2 O 0.0636(2) 0.09047(19) 0.59029(10)
O3 O 0.1960(2) 0.2388(2) 0.70867(9)
N3 N 0.3638(3) 0.8270(2) 0.63707(12)
O4 O 0.3330(2) 0.8536(2) 0.71486(10)
O5 O 0.4460(2) 0.9321(2) 0.59764(10)
#END
