
#######################################################################
#
#                 Cambridge Crystallographic Data Centre
#                                CCDC
#
#######################################################################
#
# If this CIF has been generated from an entry in the Cambridge
# Structural Database, then it will include bibliographic, chemical,
# crystal, experimental, refinement or atomic coordinate data resulting
# from the CCDC's data processing and validation procedures.
#
#######################################################################

data_CSD_CIF_OKUXIC
_audit_creation_date 2011-04-26
_audit_creation_method CSD-ConQuest-V1
_database_code_CSD OKUXIC
_database_code_depnum_ccdc_archive 'CCDC 791829'
_chemical_formula_sum 'C12 H13 N1 O8'
_chemical_formula_moiety
;
C12 H13 N1 O8
;
_journal_coden_Cambridge 119
_journal_volume 987
_journal_year 2011
_journal_page_first 25
_journal_name_full 'J.Mol.Struct. '
loop_
_publ_author_name
"B.V.Cunnings"
"G.A.Hope"
"P.C.Healy"
"C.L.Brown"
_chemical_name_systematic
;
Dimethyl 2,2'-((4-nitro-1,2-phenylene)bis(oxy))diacetate
;
_chemical_name_common
;
2,2'-[(4-nitro-1,2-phenylene)bis(oxy)]diacetate
;
_cell_volume   1330.551
_exptl_crystal_colour 'colorless'
_exptl_crystal_density_diffrn 1.494
_exptl_crystal_description 'needle'
_diffrn_ambient_temperature 200
#These two values have been output from a single CSD field.
_refine_ls_R_factor_gt 0.0254
_refine_ls_wR_factor_gt 0.0254
_symmetry_cell_setting orthorhombic
_symmetry_space_group_name_H-M 'P c a 21'
_symmetry_Int_Tables_number 29
loop_
_symmetry_equiv_pos_site_id
_symmetry_equiv_pos_as_xyz
1 x,y,z
2 -x,-y,1/2+z
3 1/2-x,y,1/2+z
4 1/2+x,-y,z
_cell_length_a 11.5978(8)
_cell_length_b 14.7402(11)
_cell_length_c 7.7831(6)
_cell_angle_alpha 90
_cell_angle_beta 90
_cell_angle_gamma 90
_cell_formula_units_Z 4
loop_
_atom_type_symbol
_atom_type_radius_bond
C 0.68
H 0.23
N 0.68
O 0.68
loop_
_atom_site_label
_atom_site_type_symbol
_atom_site_fract_x
_atom_site_fract_y
_atom_site_fract_z
O1 O 0.02788(12) 0.81409(11) 0.5830(2)
O2 O 0.24602(14) 0.81664(9) 0.6331(2)
O3 O -0.24363(17) 0.76048(11) 0.3854(3)
O4 O -0.06549(14) 0.70243(10) 0.3540(2)
O5 O 0.37210(14) 0.95255(13) 0.4858(3)
O6 O 0.53373(14) 0.89354(11) 0.5975(3)
O7 O 0.16366(16) 0.48750(13) 1.0600(3)
O8 O 0.33156(15) 0.53295(12) 0.9722(3)
N1 N 0.2257(2) 0.53856(15) 0.9752(3)
C1 C 0.06872(19) 0.74438(17) 0.6805(3)
C2 C 0.18914(19) 0.74579(16) 0.7089(4)
C3 C 0.2401(2) 0.67839(16) 0.8048(3)
C4 C 0.1706(2) 0.61026(16) 0.8733(4)
C5 C 0.0531(2) 0.60696(15) 0.8472(4)
C6 C 0.0028(2) 0.67501(17) 0.7493(3)
C7 C -0.09394(19) 0.82133(17) 0.5554(4)
C8 C -0.1430(2) 0.75826(17) 0.4231(3)
C9 C -0.1092(2) 0.6414(2) 0.2228(4)
C10 C 0.36780(19) 0.81761(16) 0.6616(3)
C11 C 0.4213(2) 0.89634(18) 0.5688(4)
C12 C 0.6046(2) 0.96355(19) 0.5206(6)
H1 H 0.32100 0.67830 0.82360
H2 H 0.00780 0.55950 0.89450
H3 H -0.07800 0.67400 0.72890
H4 H -0.11010 0.88170 0.51990
H5 H -0.13150 0.80950 0.66120
H6 H -0.11800 0.67360 0.11740
H7 H -0.18190 0.61800 0.25730
H8 H -0.05660 0.59280 0.20660
H9 H 0.40040 0.76270 0.61990
H10 H 0.38260 0.82310 0.78100
H11 H 0.68050 0.94100 0.50340
H12 H 0.60720 1.01480 0.59410
H13 H 0.57270 0.98080 0.41270
#END
