
#######################################################################
#
#                 Cambridge Crystallographic Data Centre
#                                CCDC
#
#######################################################################
#
# If this CIF has been generated from an entry in the Cambridge
# Structural Database, then it will include bibliographic, chemical,
# crystal, experimental, refinement or atomic coordinate data resulting
# from the CCDC's data processing and validation procedures.
#
#######################################################################

data_CSD_CIF_OKUXUP
_audit_creation_date 2016-04-12
_audit_creation_method CSD-ConQuest-V1
_database_code_CSD OKUXUP
_database_code_depnum_ccdc_archive 'CCDC 1403942'
_chemical_formula_sum 'C3 H6 N4 O5'
_chemical_formula_moiety
;
C3 H6 N4 O5
;
_journal_coden_Cambridge 1267
_journal_volume 231
_journal_year 2016
_journal_page_first 311
_journal_name_full 'Z.Kristallogr.-New Cryst.Struct. '
loop_
_publ_author_name
"Li Jing"
"Wang Jianlong"
_chemical_name_systematic
;
3,5-dinitro-1,3,5-oxadiazinane
;
_cell_volume    660.066
_exptl_crystal_colour 'colorless'
_exptl_crystal_density_diffrn 1.792
_exptl_crystal_description 'block'
_diffrn_ambient_temperature 103
#These two values have been output from a single CSD field.
_refine_ls_R_factor_gt 0.033
_refine_ls_wR_factor_gt 0.033
_symmetry_cell_setting monoclinic
_symmetry_space_group_name_H-M 'P 21/n'
_symmetry_Int_Tables_number 14
loop_
_symmetry_equiv_pos_site_id
_symmetry_equiv_pos_as_xyz
1 x,y,z
2 1/2-x,1/2+y,1/2-z
3 -x,-y,-z
4 -1/2+x,-1/2-y,-1/2+z
_cell_length_a 5.8128(13)
_cell_length_b 17.2389(14)
_cell_length_c 7.1072(6)
_cell_angle_alpha 90
_cell_angle_beta 112.056(16)
_cell_angle_gamma 90
_cell_formula_units_Z 4
loop_
_atom_type_symbol
_atom_type_radius_bond
C 0.68
H 0.23
N 0.68
O 0.68
loop_
_atom_site_label
_atom_site_type_symbol
_atom_site_fract_x
_atom_site_fract_y
_atom_site_fract_z
O1 O 0.1737(2) 0.15476(6) 0.12676(16)
O2 O 0.75434(19) 0.03820(6) 0.51645(15)
O3 O 0.2911(2) 0.03919(6) 0.08122(15)
O4 O 0.2843(2) 0.21255(7) 0.54823(16)
N1 N 0.5807(2) 0.12716(7) 0.24613(18)
O5 O 0.4584(2) 0.12849(7) 0.78749(15)
N2 N 0.4534(2) 0.16813(8) 0.64279(18)
N3 N 0.6610(2) 0.16624(7) 0.59090(17)
N4 N 0.3322(2) 0.10517(8) 0.14870(17)
C1 C 0.6270(3) 0.19269(9) 0.3860(2)
H1 H 0.48800 0.22840 0.33760
H2 H 0.77440 0.22020 0.39020
C2 C 0.8269(3) 0.09954(9) 0.6603(2)
H3 H 0.99520 0.11530 0.68200
H4 H 0.82480 0.08140 0.78880
C3 C 0.7556(3) 0.06351(9) 0.3265(2)
H5 H 0.71080 0.02070 0.23110
H6 H 0.92130 0.08050 0.34340
#END
