
#######################################################################
#
#                 Cambridge Crystallographic Data Centre
#                                CCDC
#
#######################################################################
#
# If this CIF has been generated from an entry in the Cambridge
# Structural Database, then it will include bibliographic, chemical,
# crystal, experimental, refinement or atomic coordinate data resulting
# from the CCDC's data processing and validation procedures.
#
#######################################################################

data_CSD_CIF_OKUYIC
_audit_creation_date 2004-02-04
_audit_creation_method CSD-ConQuest-V1
_database_code_CSD OKUYIC
_database_code_depnum_ccdc_archive 'CCDC 203067'
_chemical_formula_sum 'C13 H21 N3 O3'
_chemical_formula_moiety
;
C13 H21 N3 O3
;
_journal_coden_Cambridge 580
_journal_volume 22
_journal_year 2003
_journal_page_first 2499
_journal_name_full 'Polyhedron '
loop_
_publ_author_name
"E.V.Tretyakov"
"I.V.Eltsov"
"S.V.Fokin"
"Y.G.Shvedenkov"
"G.V.Romanenko"
"V.I.Ovcharenko"
_chemical_name_systematic
;
2-(3-Hydroxy-6-methylpyridin-2-yl)-4,4,5,5-tetramethylimidazolidine-1,3-diol
;
_chemical_melting_point 455.15
_cell_volume   1446.085
_exptl_crystal_colour 'white'
_exptl_crystal_density_diffrn 1.228
_exptl_special_details
;
Melting point range 455.15-456.15K

;
_exptl_crystal_preparation 'ethyl acetate/ethanol'
_diffrn_ambient_temperature 295
#These two values have been output from a single CSD field.
_refine_ls_R_factor_gt 0.044
_refine_ls_wR_factor_gt 0.044
_symmetry_cell_setting monoclinic
_symmetry_space_group_name_H-M 'P 21/n'
_symmetry_Int_Tables_number 14
loop_
_symmetry_equiv_pos_site_id
_symmetry_equiv_pos_as_xyz
1 x,y,z
2 1/2+x,1/2-y,1/2+z
3 -x,-y,-z
4 -1/2-x,-1/2+y,-1/2-z
_cell_length_a 11.429(3)
_cell_length_b 11.639(3)
_cell_length_c 12.012(3)
_cell_angle_alpha 90
_cell_angle_beta 115.175(4)
_cell_angle_gamma 90
_cell_formula_units_Z 4
loop_
_atom_type_symbol
_atom_type_radius_bond
C 0.68
H 0.23
N 0.68
O 0.68
loop_
_atom_site_label
_atom_site_type_symbol
_atom_site_fract_x
_atom_site_fract_y
_atom_site_fract_z
O1 O 0.54406(7) -0.00638(8) 0.14593(7)
H1 H 0.5768(19) 0.0045(15) 0.0927(18)
N1 N 0.41221(8) -0.03796(7) 0.06906(8)
C1 C 0.38618(12) -0.16418(9) 0.08432(11)
C2 C 0.51005(18) -0.23386(14) 0.1407(2)
H2 H 0.5557(18) -0.2314(15) 0.0923(17)
H3 H 0.4898(18) -0.3162(18) 0.1525(18)
H4 H 0.5729(19) -0.2021(16) 0.2205(19)
C3 C 0.30569(18) -0.20767(13) -0.04559(14)
H5 H 0.3582(16) -0.2019(15) -0.0915(15)
H6 H 0.2245(17) -0.1619(15) -0.0912(15)
H7 H 0.2812(19) -0.2918(19) -0.0426(18)
C4 C 0.31053(11) -0.16129(9) 0.16507(11)
C5 C 0.39899(15) -0.15294(15) 0.30220(13)
H8 H 0.3500(19) -0.1321(16) 0.3478(17)
H9 H 0.4697(17) -0.0995(15) 0.3221(15)
H10 H 0.4441(19) -0.2275(18) 0.3345(18)
C6 C 0.21420(16) -0.25855(12) 0.14221(17)
H11 H 0.1705(17) -0.2478(15) 0.1988(16)
H12 H 0.259(2) -0.3285(18) 0.1554(18)
H13 H 0.1371(18) -0.2565(16) 0.0524(18)
N2 N 0.23714(8) -0.05301(7) 0.11698(8)
O2 O 0.18586(9) -0.00826(8) 0.19823(8)
H14 H 0.100(2) -0.0161(15) 0.1594(16)
C7 C 0.33224(10) 0.03076(8) 0.11490(9)
H15 H 0.3860(12) 0.0594(11) 0.1964(12)
C8 C 0.2687(1) 0.13231(9) 0.03321(9)
C9 C 0.15180(11) 0.12339(10) -0.07077(11)
O3 O 0.08184(9) 0.02344(9) -0.10097(9)
H16 H 0.1197(19) -0.0252(15) -0.0362(18)
C10 C 0.10578(14) 0.21913(13) -0.14541(13)
H17 H 0.0288(17) 0.2154(15) -0.2192(16)
C11 C 0.17455(14) 0.31924(12) -0.11160(14)
H18 H 0.1451(16) 0.3864(15) -0.1583(16)
C12 C 0.28687(13) 0.32429(10) -0.00457(12)
C13 C 0.3636(2) 0.43319(12) 0.03816(18)
H19 H 0.43740 0.41940 0.11460
H20 H 0.31050 0.49160 0.04960
H21 H 0.39210 0.45820 -0.02250
N3 N 0.33372(9) 0.23119(8) 0.06671(9)
#END
