
#######################################################################
#
#                 Cambridge Crystallographic Data Centre
#                                CCDC
#
#######################################################################
#
# If this CIF has been generated from an entry in the Cambridge
# Structural Database, then it will include bibliographic, chemical,
# crystal, experimental, refinement or atomic coordinate data resulting
# from the CCDC's data processing and validation procedures.
#
#######################################################################

data_CSD_CIF_OKUYOI
_audit_creation_date 2004-02-04
_audit_creation_method CSD-ConQuest-V1
_database_code_CSD OKUYOI
_database_code_depnum_ccdc_archive 'CCDC 203068'
_chemical_formula_sum 'C13 H18 N3 O3'
_chemical_formula_moiety
;
C13 H18 N3 O3
;
_journal_coden_Cambridge 580
_journal_volume 22
_journal_year 2003
_journal_page_first 2499
_journal_name_full 'Polyhedron '
loop_
_publ_author_name
"E.V.Tretyakov"
"I.V.Eltsov"
"S.V.Fokin"
"Y.G.Shvedenkov"
"G.V.Romanenko"
"V.I.Ovcharenko"
_chemical_name_systematic
;
2-(3-Hydroxy-6-methylpyridin-2-yl)-4,4,5,5-tetramethyl-4,5-dihydro-1H-imidazol
-3-oxide-1-oxyl
;
_chemical_melting_point 471.15
_cell_volume   2735.992
_exptl_special_details
;
Melts with decomposition.

;
_exptl_crystal_preparation 'benzene/hexane'
_diffrn_ambient_temperature 295
#These two values have been output from a single CSD field.
_refine_ls_R_factor_gt 0.08
_refine_ls_wR_factor_gt 0.08
_symmetry_cell_setting orthorhombic
_symmetry_space_group_name_H-M 'P b c a'
_symmetry_Int_Tables_number 61
loop_
_symmetry_equiv_pos_site_id
_symmetry_equiv_pos_as_xyz
1 x,y,z
2 1/2+x,y,1/2-z
3 x,1/2-y,1/2+z
4 1/2-x,1/2+y,z
5 -x,-y,-z
6 -1/2-x,-y,-1/2+z
7 -x,-1/2+y,-1/2-z
8 -1/2+x,-1/2-y,-z
_cell_length_a 15.0661(13)
_cell_length_b 11.4788(11)
_cell_length_c 15.8204(15)
_cell_angle_alpha 90
_cell_angle_beta 90
_cell_angle_gamma 90
_cell_formula_units_Z 9
loop_
_atom_type_symbol
_atom_type_radius_bond
C 0.68
H 0.23
N 0.68
O 0.68
loop_
_atom_site_label
_atom_site_type_symbol
_atom_site_fract_x
_atom_site_fract_y
_atom_site_fract_z
O1 O 0.22003(12) 0.82137(19) 0.19717(12)
N1 N 0.29031(12) 0.77906(17) 0.22907(11)
C1 C 0.37170(15) 0.7550(2) 0.17751(15)
C2 C 0.4114(3) 0.8756(3) 0.1610(3)
H1 H 0.372(3) 0.924(4) 0.136(3)
H2 H 0.470(2) 0.869(3) 0.126(2)
H3 H 0.433(4) 0.912(4) 0.230(3)
C3 C 0.3470(3) 0.6946(4) 0.0959(2)
H4 H 0.312(3) 0.751(3) 0.060(3)
H5 H 0.308(2) 0.615(3) 0.118(2)
H6 H 0.399(3) 0.672(3) 0.066(3)
C4 C 0.42629(14) 0.6805(2) 0.24024(14)
C5 C 0.52524(18) 0.7046(4) 0.2417(2)
H7 H 0.556(3) 0.654(3) 0.283(2)
H8 H 0.534(2) 0.790(3) 0.253(2)
H9 H 0.552(2) 0.686(3) 0.190(2)
C6 C 0.4076(2) 0.5505(3) 0.2331(2)
H10 H 0.436(3) 0.515(3) 0.279(3)
H11 H 0.431(3) 0.516(3) 0.183(3)
H12 H 0.340(2) 0.529(3) 0.234(2)
N2 N 0.38602(12) 0.71661(16) 0.32300(11)
O2 O 0.42104(11) 0.69164(17) 0.39414(11)
C7 C 0.30611(13) 0.76433(18) 0.31182(12)
C8 C 0.24459(13) 0.79842(17) 0.37920(13)
C9 C 0.23297(15) 0.91538(18) 0.39851(13)
O3 O 0.28369(12) 0.99287(15) 0.35666(11)
H13 H 0.2812(17) 1.061(3) 0.377(2)
C10 C 0.16933(17) 0.9435(2) 0.45857(15)
H14 H 0.1599(15) 1.020(2) 0.4730(17)
C11 C 0.12348(17) 0.8550(2) 0.49784(15)
H15 H 0.0765(18) 0.877(2) 0.5360(18)
C12 C 0.14069(14) 0.7393(2) 0.47785(15)
N3 N 0.20014(11) 0.71218(15) 0.41812(11)
C13 C 0.0957(2) 0.6408(3) 0.5218(2)
H16 H 0.079(2) 0.580(3) 0.487(2)
H17 H 0.042(3) 0.659(3) 0.542(3)
H18 H 0.130(3) 0.606(3) 0.566(3)
#END
