
#######################################################################
#
#                 Cambridge Crystallographic Data Centre
#                                CCDC
#
#######################################################################
#
# If this CIF has been generated from an entry in the Cambridge
# Structural Database, then it will include bibliographic, chemical,
# crystal, experimental, refinement or atomic coordinate data resulting
# from the CCDC's data processing and validation procedures.
#
#######################################################################

data_CSD_CIF_OLAJAM
_audit_creation_date 2004-02-04
_audit_creation_method CSD-ConQuest-V1
_database_code_CSD OLAJAM
_database_code_depnum_ccdc_archive 'CCDC 205429'
_chemical_formula_sum 'C23 H21 N1 O7'
_chemical_formula_moiety
;
C23 H21 N1 O7
;
_journal_coden_Cambridge 179
_journal_volume 42
_journal_year 2003
_journal_page_first 4233
_journal_name_full 'Angew.Chem.,Int.Ed. '
loop_
_publ_author_name
"D.B.Ramachary"
"N.S.Chowdari"
"C.F.Barbas III"
_chemical_name_systematic
;
3,3-Dimethyl-7-(4-nitrophenyl)-11-phenylspiro(5.5)undecane-1,5,9-trione
;
_cell_volume   2062.216
_exptl_crystal_colour 'colorless'
_exptl_crystal_density_diffrn 1.364
_exptl_crystal_description 'block'
_exptl_crystal_preparation 'hexane/chloroform'
_diffrn_ambient_temperature 296
#These two values have been output from a single CSD field.
_refine_ls_R_factor_gt 0.0486
_refine_ls_wR_factor_gt 0.0486
_symmetry_cell_setting monoclinic
_symmetry_space_group_name_H-M 'P 21/c'
_symmetry_Int_Tables_number 14
loop_
_symmetry_equiv_pos_site_id
_symmetry_equiv_pos_as_xyz
1 x,y,z
2 x,1/2-y,1/2+z
3 -x,-y,-z
4 -x,-1/2+y,-1/2-z
_cell_length_a 18.571(3)
_cell_length_b 9.6564(16)
_cell_length_c 11.9942(19)
_cell_angle_alpha 90
_cell_angle_beta 106.511(3)
_cell_angle_gamma 90
_cell_formula_units_Z 4
loop_
_atom_type_symbol
_atom_type_radius_bond
C 0.68
H 0.23
N 0.68
O 0.68
loop_
_atom_site_label
_atom_site_type_symbol
_atom_site_fract_x
_atom_site_fract_y
_atom_site_fract_z
O1 O 0.40631(7) 0.11909(14) 0.32982(12)
O2 O 0.22036(9) 0.45878(17) 0.58362(12)
O3 O 0.16975(9) 0.58591(16) 0.40892(13)
O4 O 0.19428(8) 0.53657(14) 0.24820(12)
O5 O 0.28866(7) 0.27671(13) 0.5922(1)
O6 O 0.45412(9) 0.93292(16) 0.76270(15)
O7 O 0.43808(11) 1.04251(16) 0.60191(17)
N1 N 0.43670(9) 0.93734(18) 0.65669(18)
C1 C 0.14030(12) 0.1272(2) 0.42127(19)
H1 H 0.18110 0.09290 0.47900
C2 C 0.06806(15) 0.0905(3) 0.4209(2)
H2 H 0.06080 0.03140 0.47800
C3 C 0.00730(14) 0.1407(3) 0.3370(3)
H3 H -0.04110 0.11590 0.33700
C4 C 0.01811(13) 0.2273(3) 0.2534(2)
H4 H -0.02300 0.26250 0.19680
C5 C 0.09018(12) 0.2628(2) 0.25266(19)
H5 H 0.09690 0.32060 0.19440
C6 C 0.15236(10) 0.21423(19) 0.33671(16)
C7 C 0.23055(9) 0.25917(17) 0.33566(14)
H6 H 0.22690 0.28390 0.25500
C8 C 0.28873(10) 0.14352(17) 0.36856(16)
H7 H 0.28920 0.10750 0.44430
H8 H 0.27370 0.06880 0.31280
C9 C 0.36695(10) 0.18817(18) 0.37247(15)
C10 C 0.39377(10) 0.31876(17) 0.43801(16)
H9 H 0.44030 0.34740 0.42340
H10 H 0.40420 0.30080 0.52060
C11 C 0.33681(9) 0.43625(16) 0.40416(15)
H11 H 0.33220 0.45770 0.32260
C12 C 0.25598(9) 0.39348(16) 0.40906(14)
C13 C 0.25628(9) 0.36994(18) 0.53397(15)
C14 C 0.17055(11) 0.5643(2) 0.52693(19)
C15 C 0.20417(10) 0.50920(18) 0.34847(17)
C16 C 0.09369(14) 0.5215(3) 0.5262(3)
H12 H 0.08080 0.43670 0.48340
H13 H 0.05860 0.59240 0.49010
H14 H 0.09190 0.50770 0.60470
C17 C 0.19684(19) 0.6955(3) 0.5901(3)
H15 H 0.24780 0.71310 0.59040
H16 H 0.19430 0.68770 0.66870
H17 H 0.16540 0.77050 0.55210
C18 C 0.36449(9) 0.56728(16) 0.47187(15)
C19 C 0.35993(10) 0.69262(18) 0.41403(16)
H18 H 0.33970 0.69510 0.33370
C20 C 0.38481(11) 0.81333(18) 0.47317(17)
H19 H 0.38270 0.89680 0.43360
C21 C 0.41297(10) 0.80782(18) 0.59217(17)
C22 C 0.41927(10) 0.68624(19) 0.65319(16)
H20 H 0.43930 0.68500 0.73360
C23 C 0.39516(9) 0.56585(18) 0.59224(16)
H21 H 0.39940 0.48230 0.63210
#END
