
#######################################################################
#
#                 Cambridge Crystallographic Data Centre
#                                CCDC
#
#######################################################################
#
# If this CIF has been generated from an entry in the Cambridge
# Structural Database, then it will include bibliographic, chemical,
# crystal, experimental, refinement or atomic coordinate data resulting
# from the CCDC's data processing and validation procedures.
#
#######################################################################

data_CSD_CIF_OLAVIG
_audit_creation_date 2004-05-06
_audit_creation_method CSD-ConQuest-V1
_database_code_CSD OLAVIG
_database_code_depnum_ccdc_archive 'CCDC 218889'
_chemical_formula_sum 'C20 H25 N1 O5'
_chemical_formula_moiety
;
C20 H25 N1 O5
;
_journal_coden_Cambridge 24
_journal_volume 45
_journal_year 2004
_journal_page_first 383
_journal_name_full 'Tetrahedron Lett. '
loop_
_publ_author_name
"A.Srikrishna"
"P.R.Kumar"
"S.S.V.Ramasastry"
_chemical_name_systematic
;
(1S,2R,6R,8S)-2-Methoxy-3,7,7-trimethylbicyclo(4.3.0)non-3-en-8-yl 
4-nitrophenylbenzoate
;
_cell_volume   1900.308
_exptl_crystal_density_diffrn 1.256
_diffrn_ambient_temperature 293
#These two values have been output from a single CSD field.
_refine_ls_R_factor_gt 0.0887
_refine_ls_wR_factor_gt 0.0887
_symmetry_cell_setting orthorhombic
_symmetry_space_group_name_H-M 'P 21 21 21'
_symmetry_Int_Tables_number 19
loop_
_symmetry_equiv_pos_site_id
_symmetry_equiv_pos_as_xyz
1 x,y,z
2 1/2-x,-y,1/2+z
3 1/2+x,1/2-y,-z
4 -x,1/2+y,1/2-z
_cell_length_a 6.2091(15)
_cell_length_b 7.2507(18)
_cell_length_c 42.21(1)
_cell_angle_alpha 90
_cell_angle_beta 90
_cell_angle_gamma 90
_cell_formula_units_Z 4
loop_
_atom_type_symbol
_atom_type_radius_bond
C 0.68
H 0.23
N 0.68
O 0.68
loop_
_atom_site_label
_atom_site_type_symbol
_atom_site_fract_x
_atom_site_fract_y
_atom_site_fract_z
H1 H 1.402(17) 0.913(16) 0.092(2)
H2 H 1.175(7) 0.645(6) 0.1298(9)
H3 H 0.587(4) 0.356(4) 0.2070(7)
H4 H 1.090(6) 0.542(5) 0.2534(8)
H5 H 1.040(8) 0.047(7) 0.1277(10)
H6 H 0.748(8) 0.336(7) 0.0527(10)
H7 H 0.844(7) 0.064(6) 0.1425(11)
H8 H 0.942(8) 0.665(7) 0.1335(11)
H9 H 1.36(2) 1.059(19) 0.064(2)
H10 H 0.799(8) 0.035(7) 0.1094(11)
H11 H 0.882(5) 0.608(4) 0.0830(7)
C1 C 1.3735(14) 0.9038(11) 0.0713(2)
O1 O 0.8850(4) 0.4154(4) 0.17065(6)
C2 C 0.8648(6) 0.4513(5) 0.22546(9)
C3 C 0.6579(7) 0.3861(6) 0.22539(10)
C4 C 0.6446(7) 0.4102(6) 0.28148(9)
C5 C 0.9980(7) 0.4665(6) 0.19596(10)
O2 O 1.1814(5) 0.5118(5) 0.19567(7)
N1 N 0.5273(7) 0.3849(6) 0.31123(9)
C6 C 0.5473(8) 0.3632(6) 0.25352(11)
H12 H 0.430(7) 0.316(5) 0.2534(9)
C7 C 0.9587(7) 0.5021(6) 0.25394(11)
C8 C 0.9786(8) 0.3489(6) 0.08673(10)
C9 C 0.9995(7) 0.4055(6) 0.14041(9)
C10 C 0.8490(8) 0.4812(6) 0.28202(11)
O3 O 0.3461(7) 0.3227(6) 0.31047(8)
O4 O 1.1784(6) 0.8150(4) 0.06357(7)
O5 O 0.6138(7) 0.4333(7) 0.33569(8)
C11 C 0.8655(7) 0.2900(6) 0.11711(10)
C12 C 1.1821(8) 0.6187(6) 0.06673(10)
C13 C 1.0095(7) 0.5562(6) 0.08934(9)
C14 C 1.0374(10) 0.5923(7) 0.12474(10)
C15 C 1.0284(11) 0.3884(9) 0.02983(13)
C16 C 0.6282(8) 0.3483(8) 0.11811(16)
H13 H 0.556(7) 0.290(7) 0.0999(11)
H14 H 0.618(11) 0.495(10) 0.1177(14)
H15 H 0.561(8) 0.300(8) 0.1362(12)
C17 C 1.1553(9) 0.5293(7) 0.03424(10)
C18 C 0.8948(12) 0.2949(10) 0.05445(13)
C19 C 0.8861(11) 0.0842(7) 0.12354(17)
C20 C 1.2984(16) 0.6041(13) 0.00895(16)
H16 H 1.315(6) 0.588(5) 0.0750(7)
H17 H 1.113(6) 0.300(5) 0.0874(8)
H18 H 1.252(11) 0.542(10) -0.0127(16)
H19 H 1.296(8) 0.725(9) 0.0066(11)
H20 H 0.894(8) 0.171(8) 0.0538(11)
H21 H 1.125(6) 0.347(5) 0.1457(7)
H22 H 1.464(14) 0.574(12) 0.0105(16)
H23 H 0.995(9) 0.344(8) 0.0107(14)
H24 H 1.475(11) 0.864(11) 0.0576(16)
H25 H 0.916(7) 0.518(6) 0.301(1)
#END
