
#######################################################################
#
#                 Cambridge Crystallographic Data Centre
#                                CCDC
#
#######################################################################
#
# If this CIF has been generated from an entry in the Cambridge
# Structural Database, then it will include bibliographic, chemical,
# crystal, experimental, refinement or atomic coordinate data resulting
# from the CCDC's data processing and validation procedures.
#
#######################################################################

data_CSD_CIF_OLAWAZ
_audit_creation_date 2004-02-04
_audit_creation_method CSD-ConQuest-V1
_database_code_CSD OLAWAZ
_database_code_depnum_ccdc_archive 'CCDC 219152'
_chemical_formula_sum 'C17 H18 N4 O4'
_chemical_formula_moiety
;
C17 H18 N4 O4
;
_journal_coden_Cambridge 1078
_journal_year 2003
_journal_name_full 'CSD Communication(Private Communication) '
loop_
_publ_author_name
"O.O.Gerlits"
"P.Coppens"
_chemical_name_systematic
;
(8E)-2,3,3a,4,7,8a-Hexahydro-4,7-methanoazulen-8(1H)-one 
(2,4-dinitrophenyl)hydrazone
;
_cell_volume    788.904
_exptl_crystal_colour 'yellow'
_exptl_crystal_density_diffrn 1.441
_exptl_special_details
;
contribution from Coppens Crystallography Laboratory, SUNY at Buffalo, 
Buffalo, New York, USA
;
_exptl_crystal_description 'prism'
_exptl_crystal_preparation 'ethylacetate/pentane'
_diffrn_ambient_temperature 90
#These two values have been output from a single CSD field.
_refine_ls_R_factor_gt 0.0624
_refine_ls_wR_factor_gt 0.0624
_symmetry_cell_setting triclinic
_symmetry_space_group_name_H-M 'P -1'
_symmetry_Int_Tables_number 2
loop_
_symmetry_equiv_pos_site_id
_symmetry_equiv_pos_as_xyz
1 x,y,z
2 -x,-y,-z
_cell_length_a 7.0318(5)
_cell_length_b 10.6790(8)
_cell_length_c 11.7339(9)
_cell_angle_alpha 70.898(2)
_cell_angle_beta 80.042(2)
_cell_angle_gamma 71.897(2)
_cell_formula_units_Z 2
loop_
_atom_type_symbol
_atom_type_radius_bond
C 0.68
H 0.23
N 0.68
O 0.68
loop_
_atom_site_label
_atom_site_type_symbol
_atom_site_fract_x
_atom_site_fract_y
_atom_site_fract_z
O1 O -0.4500(2) 0.55102(15) 0.30813(13)
O2 O -0.2739(2) 0.65101(17) 0.15461(13)
O3 O 0.2320(2) 0.82405(16) 0.21384(12)
O4 O 0.2908(2) 0.81764(16) 0.39076(13)
N1 N 0.0073(2) 0.69202(16) 0.70502(14)
N2 N 0.0700(3) 0.72441(18) 0.58278(14)
H1 H 0.165(4) 0.757(3) 0.557(2)
N3 N -0.3213(2) 0.61432(17) 0.26343(15)
N4 N 0.1938(2) 0.79541(17) 0.32371(14)
C1 C 0.5045(3) 0.8826(3) 0.7872(2)
H2 H 0.43880 0.94190 0.84030
H3 H 0.65170 0.85920 0.78960
C2 C 0.4452(4) 0.9555(2) 0.6584(2)
H4 H 0.54840 0.91920 0.59960
H5 H 0.42560 1.05600 0.63820
C3 C 0.2472(3) 0.9231(2) 0.65864(19)
H6 H 0.21380 0.94010 0.57530
H7 H 0.13480 0.97830 0.70060
C4 C 0.2946(3) 0.7678(2) 0.72908(18)
H8 H 0.37830 0.71610 0.67220
C5 C 0.4326(3) 0.7496(2) 0.82873(19)
H9 H 0.55230 0.66930 0.82730
C6 C 0.3250(3) 0.7226(2) 0.95887(19)
H10 H 0.41750 0.70140 1.02260
C7 C 0.1440(3) 0.8436(2) 0.96281(16)
H11 H 0.14600 0.92350 0.98110
C8 C -0.0203(3) 0.8220(2) 0.93675(17)
H12 H -0.15230 0.88190 0.93740
C9 C 0.0399(3) 0.6859(2) 0.90592(16)
H13 H -0.06800 0.63730 0.92960
C10 C 0.1090(3) 0.7157(2) 0.77291(17)
C11 C 0.2263(3) 0.6079(2) 0.97801(17)
H14 H 0.18840 0.56830 1.06470
H15 H 0.31520 0.53360 0.94500
C12 C -0.0245(3) 0.70049(18) 0.50469(16)
C13 C -0.1865(3) 0.63980(19) 0.54682(16)
H16 H -0.22940 0.61780 0.63060
C14 C -0.2821(3) 0.61224(19) 0.46945(17)
H17 H -0.38950 0.57090 0.49960
C15 C -0.2211(3) 0.64517(19) 0.34534(16)
C16 C -0.0665(3) 0.70542(19) 0.29869(16)
H18 H -0.02750 0.72800 0.21440
C17 C 0.0319(3) 0.73260(18) 0.37775(16)
#END
