
#######################################################################
#
#                 Cambridge Crystallographic Data Centre
#                                CCDC
#
#######################################################################
#
# If this CIF has been generated from an entry in the Cambridge
# Structural Database, then it will include bibliographic, chemical,
# crystal, experimental, refinement or atomic coordinate data resulting
# from the CCDC's data processing and validation procedures.
#
#######################################################################

data_CSD_CIF_OLAWIJ
_audit_creation_date 2016-04-12
_audit_creation_method CSD-ConQuest-V1
_database_code_CSD OLAWIJ
_database_code_depnum_ccdc_archive 'CCDC 1442328'
_chemical_formula_sum 'C21 H16 N2 O5'
_chemical_formula_moiety
;
C21 H16 N2 O5
;
_journal_coden_Cambridge 16
_journal_volume 72
_journal_year 2016
_journal_page_first 2868
_journal_name_full 'Tetrahedron '
loop_
_publ_author_name
"T.Yuki"
"M.Yonekawa"
"Yoshio Furusho"
"Y.Sei"
"I.Tomita"
"T.Endo"
_chemical_name_systematic
;
2-hydroxy-2-((4-nitrophenyl)amino)-1,3-diphenylpropane-1,3-dione
;
_cell_volume    846.600
_exptl_crystal_colour 'colorless'
_exptl_crystal_density_diffrn 1.476
_exptl_crystal_description 'block'
_diffrn_ambient_temperature 90
#These two values have been output from a single CSD field.
_refine_ls_R_factor_gt 0.0422
_refine_ls_wR_factor_gt 0.0422
_symmetry_cell_setting triclinic
_symmetry_space_group_name_H-M 'P -1'
_symmetry_Int_Tables_number 2
loop_
_symmetry_equiv_pos_site_id
_symmetry_equiv_pos_as_xyz
1 x,y,z
2 -x,-y,-z
_cell_length_a 6.4402(14)
_cell_length_b 11.239(2)
_cell_length_c 12.713(3)
_cell_angle_alpha 110.629(2)
_cell_angle_beta 99.635(3)
_cell_angle_gamma 90.623(3)
_cell_formula_units_Z 2
loop_
_atom_type_symbol
_atom_type_radius_bond
C 0.68
H 0.23
N 0.68
O 0.68
loop_
_atom_site_label
_atom_site_type_symbol
_atom_site_fract_x
_atom_site_fract_y
_atom_site_fract_z
O1 O 0.01934(19) 0.89512(12) 0.53449(11)
H1 H -0.08470 0.87450 0.55810
O2 O 0.5408(2) 0.90652(13) 0.55941(12)
C1 C 0.1551(3) 0.85032(15) 0.70386(15)
N1 N 0.2804(2) 1.04252(13) 0.67344(13)
H2 H 0.41390 1.06190 0.67480
C2 C -0.0492(3) 1.35014(16) 0.83114(14)
C3 C 0.1635(3) 1.14142(16) 0.72599(15)
C4 C -0.0362(3) 1.12353(17) 0.74872(17)
H3 H -0.09970 1.03980 0.72780
C5 C 0.2553(3) 1.26498(17) 0.75913(15)
H4 H 0.39280 1.27760 0.74530
C6 C 0.3254(3) 0.84099(16) 0.79434(15)
C7 C 0.5043(3) 0.52305(18) 0.36404(16)
H5 H 0.62140 0.48580 0.33170
C8 C -0.1424(3) 1.22875(18) 0.80217(17)
H6 H -0.27810 1.21730 0.81870
C9 C 0.3500(3) 0.70606(16) 0.48049(15)
C10 C 0.2035(3) 0.91124(16) 0.61691(15)
C11 C 0.3172(3) 0.45008(17) 0.34086(15)
H7 H 0.30520 0.36280 0.29270
C12 C 0.1614(3) 0.63106(17) 0.45680(15)
H8 H 0.04290 0.66750 0.48820
C13 C 0.3809(3) 0.84310(17) 0.55189(15)
C14 C 0.1505(3) 1.36830(17) 0.81114(15)
H9 H 0.21480 1.45210 0.83340
C15 C 0.1475(3) 0.50438(17) 0.38792(15)
H10 H 0.01930 0.45370 0.37260
C16 C 0.5266(3) 0.90068(18) 0.82051(16)
H11 H 0.56090 0.95310 0.78040
C17 C 0.6773(3) 0.8847(2) 0.90413(17)
H12 H 0.81410 0.92700 0.92200
C18 C 0.5224(3) 0.64959(18) 0.43388(16)
H13 H 0.65270 0.69880 0.45050
C19 C 0.6308(4) 0.8077(2) 0.96182(17)
H14 H 0.73600 0.79590 1.01850
C20 C 0.2779(3) 0.76459(18) 0.85486(16)
H15 H 0.13990 0.72430 0.83920
C21 C 0.4312(4) 0.74769(19) 0.93729(17)
H16 H 0.39910 0.69460 0.97720
O3 O -0.0733(2) 1.56656(12) 0.90879(11)
O4 O -0.3397(2) 1.44336(13) 0.90167(12)
N2 N -0.1614(2) 1.46048(14) 0.88398(13)
O5 O -0.0259(2) 0.80897(12) 0.69254(11)
#END
