
#######################################################################
#
#                 Cambridge Crystallographic Data Centre
#                                CCDC
#
#######################################################################
#
# If this CIF has been generated from an entry in the Cambridge
# Structural Database, then it will include bibliographic, chemical,
# crystal, experimental, refinement or atomic coordinate data resulting
# from the CCDC's data processing and validation procedures.
#
#######################################################################

data_CSD_CIF_OLIBUH
_audit_creation_date 2011-05-16
_audit_creation_method CSD-ConQuest-V1
_database_code_CSD OLIBUH
_database_code_depnum_ccdc_archive 'CCDC 778452'
_chemical_formula_sum 'C45 H46 N2 O8'
_chemical_formula_moiety
;
C45 H46 N2 O8
;
_journal_coden_Cambridge 1088
_journal_year 2010
_journal_page_first 2174
_journal_name_full 'Synlett '
loop_
_publ_author_name
"Ti Zhang"
"Chu-Yi Yu"
"Zhi-Tang Huang"
"Yue-Mei Jia"
_chemical_name_systematic
;
Ethyl 
3-(benzylamino)-2-(4,5-bis(benzyloxy)-6-((benzyloxy)methyl)-3-nitrotetrahydro-
2H-pyran-2-yl)-3-phenylacrylate
;
_cell_volume   1996.163
_exptl_crystal_colour 'yellow'
_exptl_crystal_density_diffrn 1.236
_exptl_crystal_description 'block'
_diffrn_ambient_temperature 293
_refine_special_details
;
Two C atoms are disordered over two sites with occupancies 0.55:0.45 and 
0.69:0.31.
;
#These two values have been output from a single CSD field.
_refine_ls_R_factor_gt 0.0544
_refine_ls_wR_factor_gt 0.0544
_symmetry_cell_setting monoclinic
_symmetry_space_group_name_H-M 'P 21'
_symmetry_Int_Tables_number 4
loop_
_symmetry_equiv_pos_site_id
_symmetry_equiv_pos_as_xyz
1 x,y,z
2 -x,1/2+y,-z
_cell_length_a 11.817(4)
_cell_length_b 10.179(3)
_cell_length_c 16.642(5)
_cell_angle_alpha 90
_cell_angle_beta 94.296(5)
_cell_angle_gamma 90
_cell_formula_units_Z 2
loop_
_atom_type_symbol
_atom_type_radius_bond
C 0.68
H 0.23
N 0.68
O 0.68
loop_
_atom_site_label
_atom_site_type_symbol
_atom_site_fract_x
_atom_site_fract_y
_atom_site_fract_z
O1 O -0.0681(3) -0.0148(3) 0.18725(18)
O2 O 0.1591(3) 0.0337(4) 0.26171(18)
O3 O 0.2228(3) 0.3391(4) 0.2057(2)
O4 O 0.0094(2) 0.3366(3) 0.29479(17)
O5 O -0.3241(4) 0.1452(5) 0.2300(3)
O6 O -0.2400(4) 0.0501(5) 0.3336(3)
O7 O -0.2858(3) 0.5636(4) 0.2963(2)
O8 O -0.2159(3) 0.4324(3) 0.20606(19)
N1 N -0.2548(3) 0.4969(4) 0.4481(2)
H1 H -0.28270 0.55250 0.41310
N2 N -0.2395(4) 0.1172(5) 0.2735(3)
C1 C -0.061(2) -0.1497(9) 0.2111(7)
H2 H -0.12650 -0.17390 0.23960
H3 H 0.00680 -0.16440 0.24650
C2 C -0.0568(5) -0.2301(5) 0.1360(3)
C3 C 0.0080(6) -0.3410(7) 0.1466(4)
H4 H 0.03730 -0.36440 0.19810
C4 C 0.0303(6) -0.4184(8) 0.0816(5)
H5 H 0.07500 -0.49320 0.08950
C5 C -0.0125(8) -0.3861(8) 0.0067(5)
H6 H 0.00070 -0.43950 -0.03700
C6 C -0.0749(7) -0.2749(7) -0.0040(4)
H7 H -0.10240 -0.25010 -0.05560
C7 C -0.0974(5) -0.1997(5) 0.0599(3)
H8 H -0.14200 -0.12500 0.05150
C8 C 0.2169(5) -0.0145(6) 0.1966(3)
H9 H 0.24750 0.05770 0.16700
H10 H 0.16540 -0.06430 0.16010
C9 C 0.3103(4) -0.1004(5) 0.2309(3)
C10 C 0.2880(5) -0.1997(6) 0.2836(4)
H11 H 0.21410 -0.21220 0.29780
C11 C 0.3719(6) -0.2799(7) 0.3152(4)
H12 H 0.35420 -0.34810 0.34920
C12 C 0.4795(6) -0.2619(9) 0.2979(4)
H13 H 0.53670 -0.31620 0.32060
C13 C 0.5045(6) -0.1645(10) 0.2474(5)
H14 H 0.57900 -0.15270 0.23440
C14 C 0.4203(6) -0.0818(8) 0.2145(4)
H15 H 0.43900 -0.01320 0.18110
C15 C 0.2097(4) 0.3132(6) 0.2869(3)
H16 H 0.21220 0.39540 0.31650
H17 H 0.27260 0.25940 0.30840
C16 C 0.3413(9) 0.366(2) 0.1968(6)
H18 H 0.38620 0.28770 0.20770
H19 H 0.36830 0.43390 0.23470
C17 C 0.3529(4) 0.4115(6) 0.1129(2)
C18 C 0.3900(4) 0.3128(5) 0.0635(4)
H20 H 0.40290 0.22860 0.08390
C19 C 0.4078(4) 0.3398(7) -0.0165(3)
H21 H 0.43260 0.27370 -0.04960
C20 C 0.3884(5) 0.4655(8) -0.0471(2)
H22 H 0.40030 0.48360 -0.10060
C21 C 0.3514(5) 0.5643(6) 0.0023(4)
H23 H 0.33840 0.64840 -0.01810
C22 C 0.3336(4) 0.5373(5) 0.0823(4)
H24 H 0.30880 0.60330 0.11540
C23 C 0.1003(4) 0.2440(5) 0.2999(3)
H25 H 0.10640 0.20800 0.35470
C24 C 0.0751(4) 0.1318(5) 0.2424(3)
H26 H 0.08000 0.16180 0.18680
C25 C -0.0398(4) 0.0722(4) 0.2518(3)
H27 H -0.03690 0.02270 0.30240
C26 C -0.1297(4) 0.1786(4) 0.2542(3)
H28 H -0.13930 0.22270 0.20180
C27 C -0.0920(4) 0.2784(4) 0.3198(3)
H29 H -0.07100 0.22850 0.36900
C28 C -0.1741(3) 0.3824(4) 0.3415(3)
C29 C -0.2308(4) 0.4664(5) 0.2817(3)
C30 C -0.2785(5) 0.5042(6) 0.1428(3)
H30 H -0.24610 0.59110 0.13790
H31 H -0.35680 0.51410 0.15550
C31 C -0.2738(7) 0.4328(9) 0.0669(4)
H32 H -0.19620 0.42400 0.05430
H33 H -0.31550 0.48040 0.02450
H34 H -0.30660 0.34720 0.07190
C32 C -0.1893(3) 0.4013(4) 0.4219(3)
C33 C -0.1341(4) 0.3149(4) 0.4855(3)
C34 C -0.1862(5) 0.2031(5) 0.5083(3)
H35 H -0.25780 0.18160 0.48490
C35 C -0.1344(6) 0.1219(6) 0.5655(3)
H36 H -0.16990 0.04440 0.57930
C36 C -0.0317(6) 0.1535(7) 0.6021(3)
H37 H 0.00280 0.09900 0.64160
C37 C 0.0206(5) 0.2668(6) 0.5804(3)
H38 H 0.09110 0.28900 0.60540
C38 C -0.0294(4) 0.3478(6) 0.5224(3)
H39 H 0.00680 0.42440 0.50800
C39 C -0.2829(5) 0.5144(5) 0.5316(3)
H40 H -0.21350 0.51890 0.56650
H41 H -0.32630 0.43940 0.54800
C40 C -0.3500(4) 0.6368(5) 0.5404(3)
C41 C -0.3257(4) 0.7545(6) 0.5042(3)
H42 H -0.26660 0.75740 0.47040
C42 C -0.3852(5) 0.8661(6) 0.5164(4)
H43 H -0.36750 0.94340 0.49030
C43 C -0.4690(6) 0.8647(7) 0.5659(4)
H44 H -0.50780 0.94190 0.57570
C44 C -0.4980(5) 0.7511(8) 0.6020(4)
H45 H -0.55810 0.75060 0.63490
C45 C -0.4385(5) 0.6358(6) 0.5901(3)
H46 H -0.45820 0.55850 0.61540
C46? C -0.109(3) -0.1437(14) 0.1974(15)
C47? C 0.313(3) 0.434(4) 0.1943(14)
H47? H -0.19140 -0.14520 0.18870
H48? H -0.08820 -0.17480 0.25150
H49? H 0.37540 0.42160 0.23510
H50? H 0.28490 0.52290 0.19850
#END
