
#######################################################################
#
#                 Cambridge Crystallographic Data Centre
#                                CCDC
#
#######################################################################
#
# If this CIF has been generated from an entry in the Cambridge
# Structural Database, then it will include bibliographic, chemical,
# crystal, experimental, refinement or atomic coordinate data resulting
# from the CCDC's data processing and validation procedures.
#
#######################################################################

data_CSD_CIF_OLIBOB
_audit_creation_date 2011-05-16
_audit_creation_method CSD-ConQuest-V1
_database_code_CSD OLIBOB
_database_code_depnum_ccdc_archive 'CCDC 781108'
_chemical_formula_sum 'C24 H25 N1 O5'
_chemical_formula_moiety
;
C24 H25 N1 O5
;
_journal_coden_Cambridge 1088
_journal_year 2010
_journal_page_first 2169
_journal_name_full 'Synlett '
loop_
_publ_author_name
"Deping Zheng"
"Zuodong Ma"
"Wanchun Gong"
"Zhixiang Xie"
"Ying Li"
_chemical_name_systematic
;
4-(6-Methoxyspiro[4.5]dec-1-en-1-yl)phenyl 4-nitrobenzoate
;
_cell_volume   2145.381
_exptl_crystal_colour 'colorless'
_exptl_crystal_density_diffrn 1.261
_exptl_crystal_description 'block'
_diffrn_ambient_temperature 296
#These two values have been output from a single CSD field.
_refine_ls_R_factor_gt 0.0991
_refine_ls_wR_factor_gt 0.0991
_symmetry_cell_setting triclinic
_symmetry_space_group_name_H-M 'P -1'
_symmetry_Int_Tables_number 2
loop_
_symmetry_equiv_pos_site_id
_symmetry_equiv_pos_as_xyz
1 x,y,z
2 -x,-y,-z
_cell_length_a 7.716(3)
_cell_length_b 12.871(5)
_cell_length_c 21.889(8)
_cell_angle_alpha 94.699(5)
_cell_angle_beta 97.151(5)
_cell_angle_gamma 93.005(5)
_cell_formula_units_Z 4
loop_
_atom_type_symbol
_atom_type_radius_bond
C 0.67
H 0.23
N 0.68
O 0.68
loop_
_atom_site_label
_atom_site_type_symbol
_atom_site_fract_x
_atom_site_fract_y
_atom_site_fract_z
O1 O 0.0857(5) 0.7715(3) 0.3514(2)
C1 C -0.2096(6) 0.9326(4) 0.5166(2)
C2 C -0.0320(6) 0.8102(4) 0.4434(3)
C3 C -0.1130(7) 0.8565(4) 0.5413(2)
H1 H -0.10970 0.84610 0.58290
N1 N -0.3047(6) 0.9997(4) 0.5575(3)
O2 O -0.3630(5) 1.0788(3) 0.5377(2)
O3 O 0.1456(5) 0.6680(3) 0.4256(2)
C4 C -0.2206(6) 0.9489(4) 0.4555(3)
H2 H -0.28740 1.00080 0.43960
C5 C 0.0777(8) 0.7399(4) 0.4043(3)
C6 C -0.1300(7) 0.8864(4) 0.4179(2)
H3 H -0.13500 0.89550 0.37600
C7 C -0.0232(6) 0.7970(4) 0.5048(3)
H4 H 0.04540 0.74640 0.52150
O4 O -0.3220(7) 0.9729(4) 0.6069(3)
C8 C 0.4302(9) 0.6161(5) 0.2458(3)
C9 C 0.5488(8) 0.5623(5) 0.2061(3)
C10 C 0.2065(10) 0.7154(5) 0.3173(3)
C11 C 0.4762(8) 0.7096(5) 0.2792(3)
H5 H 0.58670 0.74080 0.27740
C12 C 0.3687(10) 0.7599(5) 0.3153(3)
H6 H 0.40590 0.82320 0.33800
C13 C 0.6336(9) 0.4794(5) 0.2204(3)
H7 H 0.62930 0.44840 0.25720
C14 C 0.5941(12) 0.6049(7) 0.1446(4)
O5 O 0.3371(10) 0.5429(6) 0.0934(3)
C15 C 0.1517(9) 0.6209(6) 0.2854(4)
H8 H 0.04070 0.59060 0.28750
C16 C 0.2655(11) 0.5717(6) 0.2501(3)
H9 H 0.23030 0.50710 0.22860
C17 C 0.7362(11) 0.4414(6) 0.1713(4)
H10 H 0.86070 0.45370 0.18480
H11 H 0.71010 0.36730 0.16010
C18 C 0.6823(12) 0.5017(7) 0.1191(4)
H12 H 0.59880 0.45990 0.08890
H13 H 0.78310 0.52150 0.09920
C19 C 0.7316(14) 0.6981(7) 0.1583(4)
H14 H 0.84460 0.67300 0.17260
H15 H 0.69910 0.74590 0.19100
C20 C 0.494(5) 0.6732(14) 0.0498(11)
H16 H 0.58560 0.63210 0.03570
H17 H 0.39300 0.66150 0.01830
C21 C 0.4471(17) 0.6330(9) 0.1052(4)
H18 H 0.38780 0.68650 0.12780
C22 C 0.534(5) 0.748(4) 0.0520(11)
H19 H 0.45430 0.79090 0.07170
H20 H 0.54150 0.76910 0.01090
C23 C 0.746(3) 0.7597(13) 0.0968(8)
H21 H 0.83190 0.72920 0.07300
H22 H 0.78220 0.83270 0.10840
C24 C 0.1774(19) 0.5603(12) 0.0670(7)
H23 H 0.12030 0.60310 0.09540
H24 H 0.11060 0.49490 0.05620
H25 H 0.18620 0.59540 0.03040
O6 O 0.6335(6) 0.2238(3) 0.38233(19)
C25 C 0.4415(7) 0.3281(4) 0.4257(3)
C26 C 0.3071(7) 0.4177(4) 0.5247(3)
C27 C 0.2576(7) 0.4488(4) 0.4678(4)
H26 H 0.17870 0.50060 0.46280
C28 C 0.4924(7) 0.2982(4) 0.4842(3)
H27 H 0.57430 0.24820 0.48980
C29 C 0.4235(7) 0.3416(4) 0.5334(3)
H28 H 0.45450 0.32010 0.57260
N2 N 0.2321(8) 0.4701(6) 0.5769(4)
C30 C 0.3235(8) 0.4041(5) 0.4184(3)
H29 H 0.28900 0.42480 0.37920
C31 C 0.7315(9) 0.1877(6) 0.3337(3)
C32 C 1.0541(9) 0.0500(5) 0.2110(3)
O7 O 0.1580(7) 0.5463(5) 0.5721(4)
C33 C 0.9792(8) 0.1984(5) 0.2835(3)
H30 H 1.08070 0.23580 0.27700
C34 C 0.8774(9) 0.2431(5) 0.3227(3)
H31 H 0.90620 0.31020 0.34170
C35 C 0.9423(9) 0.1015(6) 0.2529(3)
O8 O 0.4605(7) 0.3026(4) 0.3178(2)
C36 C 0.5144(9) 0.2841(5) 0.3684(3)
C37 C 0.6863(9) 0.0892(6) 0.3043(3)
H32 H 0.58660 0.05110 0.31180
C38 C 1.144(1) -0.0294(6) 0.2220(3)
H33 H 1.14790 -0.06070 0.25900
O9 O 0.8361(10) 0.0427(6) 0.1015(3)
C39 C 1.0936(13) 0.0931(8) 0.1501(4)
O10 O 0.2560(8) 0.4237(6) 0.6250(3)
C40 C 1.1730(12) -0.0055(6) 0.1200(4)
H34 H 1.08380 -0.04680 0.09180
H35 H 1.26700 0.01560 0.09720
C41 C 0.7908(11) 0.0497(6) 0.2643(3)
H36 H 0.75880 -0.01570 0.24350
C42 C 1.2405(11) -0.0667(7) 0.1712(4)
H37 H 1.36570 -0.05280 0.18230
H38 H 1.21570 -0.14100 0.16020
C43 C 1.2382(14) 0.1899(7) 0.1615(4)
H39 H 1.20960 0.23690 0.19520
H40 H 1.35070 0.16330 0.17480
C44 C 0.961(2) 0.1345(9) 0.1152(5)
H41 H 0.91080 0.18910 0.14020
C45 C 0.981(5) 0.1702(13) 0.0524(11)
H42 H 1.04400 0.12140 0.02890
H43 H 0.86770 0.17870 0.02910
C46 C 1.258(3) 0.2545(12) 0.1051(8)
H44 H 1.34300 0.22570 0.08050
H45 H 1.29370 0.32690 0.11860
C47 C 1.055(5) 0.244(3) 0.0640(11)
H46 H 0.98270 0.28910 0.08650
H47 H 1.06530 0.27410 0.02530
C48 C 0.679(2) 0.0663(13) 0.0774(8)
H48 H 0.65130 0.13200 0.09670
H49 H 0.59350 0.01270 0.08410
H50 H 0.67710 0.07120 0.03380
#END
