
#######################################################################
#
#                 Cambridge Crystallographic Data Centre
#                                CCDC
#
#######################################################################
#
# If this CIF has been generated from an entry in the Cambridge
# Structural Database, then it will include bibliographic, chemical,
# crystal, experimental, refinement or atomic coordinate data resulting
# from the CCDC's data processing and validation procedures.
#
#######################################################################

data_CSD_CIF_OLICAO
_audit_creation_date 2011-05-16
_audit_creation_method CSD-ConQuest-V1
_database_code_CSD OLICAO
_database_code_depnum_ccdc_archive 'CCDC 778453'
_chemical_formula_sum 'C33 H38 N2 O8'
_chemical_formula_moiety
;
C33 H38 N2 O8
;
_journal_coden_Cambridge 1088
_journal_year 2010
_journal_page_first 2174
_journal_name_full 'Synlett '
loop_
_publ_author_name
"Ti Zhang"
"Chu-Yi Yu"
"Zhi-Tang Huang"
"Yue-Mei Jia"
_chemical_name_systematic
;
Ethyl 
3-amino-2-(4,5-bis(benzyloxy)-6-((benzyloxy)methyl)-3-nitrotetrahydro-2H-pyran
-2-yl)but-2-enoate
;
_cell_volume   6272.864
_exptl_crystal_colour 'yellow'
_exptl_crystal_density_diffrn 1.251
_exptl_crystal_description 'plate'
_diffrn_ambient_temperature 294
#These two values have been output from a single CSD field.
_refine_ls_R_factor_gt 0.0511
_refine_ls_wR_factor_gt 0.0511
_symmetry_cell_setting orthorhombic
_symmetry_space_group_name_H-M 'P 21 21 21'
_symmetry_Int_Tables_number 19
loop_
_symmetry_equiv_pos_site_id
_symmetry_equiv_pos_as_xyz
1 x,y,z
2 1/2-x,-y,1/2+z
3 -x,1/2+y,1/2-z
4 1/2+x,1/2-y,-z
_cell_length_a 9.8359(17)
_cell_length_b 19.719(3)
_cell_length_c 32.342(6)
_cell_angle_alpha 90
_cell_angle_beta 90
_cell_angle_gamma 90
_cell_formula_units_Z 8
loop_
_atom_type_symbol
_atom_type_radius_bond
C 0.68
H 0.23
N 0.68
O 0.68
loop_
_atom_site_label
_atom_site_type_symbol
_atom_site_fract_x
_atom_site_fract_y
_atom_site_fract_z
O1 O 0.2068(2) 0.50940(11) 0.93309(6)
O2 O 0.3357(3) 0.37620(12) 0.92960(8)
O3 O 0.1172(2) 0.39664(12) 0.84729(7)
O4 O 0.1941(3) 0.52217(12) 0.80593(7)
O5 O 0.0099(4) 0.64401(16) 0.85038(10)
O6 O 0.2116(4) 0.68681(16) 0.84587(10)
O7 O 0.4125(3) 0.61924(12) 0.92652(8)
O8 O 0.3585(3) 0.70536(13) 0.96846(8)
N1 N 0.1325(5) 0.64123(18) 0.85415(10)
N2 N 0.1004(3) 0.72232(15) 0.98668(9)
H1 H 0.18090 0.73880 0.98900
H2 H 0.03300 0.74210 0.99860
C1 C 0.1488(4) 0.45064(17) 0.91282(10)
H3 H 0.04960 0.45360 0.91500
C2 C 0.1867(4) 0.45169(17) 0.86697(10)
H4 H 0.28520 0.44630 0.86380
C3 C 0.1409(4) 0.51703(17) 0.84684(10)
H5 H 0.04140 0.51830 0.84580
C4 C 0.1930(4) 0.57695(16) 0.87195(10)
H6 H 0.29240 0.57900 0.87030
C5 C 0.1490(4) 0.57114(17) 0.91734(10)
H7 H 0.05000 0.56580 0.91760
C6 C 0.1944(5) 0.38758(18) 0.93481(12)
H8 H 0.17420 0.39170 0.96410
H9 H 0.14440 0.34900 0.92420
C7 C 0.3768(5) 0.3168(2) 0.95175(14)
H10 H 0.31870 0.27920 0.94400
H11 H 0.36570 0.32460 0.98120
C8 C 0.5217(6) 0.2988(2) 0.94294(16)
C9 C 0.5546(7) 0.2704(3) 0.90557(17)
H12 H 0.48820 0.26370 0.88550
C10 C 0.6876(9) 0.2517(3) 0.8982(2)
H13 H 0.70970 0.23080 0.87330
C11 C 0.7867(8) 0.2631(4) 0.9264(3)
H14 H 0.87640 0.25200 0.92020
C12 C 0.7557(9) 0.2907(3) 0.9633(3)
H15 H 0.82360 0.29750 0.98280
C13 C 0.6217(8) 0.3088(2) 0.97223(19)
H16 H 0.60000 0.32760 0.99780
C14 C 0.2021(4) 0.3483(2) 0.82716(14)
H17 H 0.25600 0.32370 0.84730
H18 H 0.26330 0.37090 0.80810
C15 C 0.1092(4) 0.3006(2) 0.80422(14)
C16 C 0.0305(5) 0.2552(2) 0.82567(13)
H19 H 0.03930 0.25210 0.85420
C17 C -0.0620(5) 0.2139(2) 0.80531(18)
H20 H -0.11590 0.18360 0.82010
C18 C -0.0726(6) 0.2183(3) 0.7637(2)
H21 H -0.13430 0.19060 0.74990
C19 C 0.0047(6) 0.2622(3) 0.74181(15)
H22 H -0.00440 0.26450 0.71320
C20 C 0.0993(5) 0.3045(2) 0.76217(15)
H23 H 0.15360 0.33430 0.74730
C21 C 0.0945(4) 0.5173(2) 0.77405(11)
H24 H 0.03360 0.55590 0.77540
H25 H 0.04120 0.47640 0.77770
C22 C 0.1642(4) 0.5158(2) 0.73276(11)
C23 C 0.2720(5) 0.5585(2) 0.72363(14)
H26 H 0.30370 0.58850 0.74360
C24 C 0.3328(5) 0.5570(2) 0.68523(16)
H27 H 0.40410 0.58640 0.67920
C25 C 0.2877(5) 0.5122(3) 0.65624(14)
H28 H 0.32920 0.51050 0.63040
C26 C 0.1825(5) 0.4700(2) 0.66496(14)
H29 H 0.15160 0.43980 0.64500
C27 C 0.1218(4) 0.4718(2) 0.70288(12)
H30 H 0.05020 0.44240 0.70850
C28 C 0.1829(4) 0.63137(17) 0.94454(10)
C29 C 0.0799(4) 0.66594(18) 0.96455(11)
C30 C -0.0665(4) 0.64418(19) 0.96472(12)
H31 H -0.11050 0.66150 0.98900
H32 H -0.07140 0.59560 0.96470
H33 H -0.11120 0.66150 0.94050
C31 C 0.3213(4) 0.6560(2) 0.94790(11)
C32 C 0.5537(4) 0.6437(2) 0.92636(14)
H34 H 0.59650 0.63430 0.95280
H35 H 0.55580 0.69230 0.92170
C33 C 0.6272(5) 0.6079(2) 0.89270(14)
H36 H 0.58430 0.61770 0.86670
H37 H 0.62470 0.55990 0.89770
H38 H 0.71990 0.62300 0.89190
O9 O 0.2198(3) 0.93427(11) 0.91263(8)
O10 O 0.4144(3) 0.84467(13) 0.86431(9)
O11 O 0.2593(3) 0.94758(13) 0.80050(8)
O12 O 0.2926(3) 1.08729(13) 0.82919(7)
O13 O 0.0160(4) 1.11815(16) 0.89521(11)
O14 O 0.1977(5) 1.16626(16) 0.91615(11)
O15 O 0.4002(3) 1.01254(14) 0.95853(9)
O16 O 0.3223(3) 1.02892(15) 1.02307(9)
N3 N 0.1372(5) 1.1176(2) 0.90247(11)
N4 N 0.0554(4) 1.02512(17) 1.03286(11)
H39 H 0.13280 1.03100 1.04470
H40 H -0.01820 1.02670 1.04720
C34 C 0.2077(4) 0.91453(19) 0.87032(12)
H41 H 0.11100 0.91180 0.86320
C35 C 0.2749(4) 0.96730(19) 0.84281(11)
H42 H 0.37210 0.96940 0.84940
C36 C 0.2126(4) 1.03707(18) 0.84909(10)
H43 H 0.11920 1.03800 0.83860
C37 C 0.2148(4) 1.05365(17) 0.89441(10)
H44 H 0.30950 1.06090 0.90270
C38 C 0.1535(4) 0.99747(18) 0.92238(11)
H45 H 0.05700 0.99290 0.91540
C39 C 0.2698(4) 0.8442(2) 0.86652(14)
H46 H 0.24210 0.81730 0.89020
H47 H 0.23410 0.82250 0.84190
C40 C 0.4817(5) 0.8528(2) 0.90219(15)
H48 H 0.43980 0.82420 0.92300
H49 H 0.47480 0.89960 0.91120
C41 C 0.6302(5) 0.8335(2) 0.89691(15)
C42 C 0.7221(6) 0.8508(2) 0.92687(14)
H50 H 0.69460 0.87620 0.94960
C43 C 0.8596(6) 0.8298(3) 0.92303(18)
H51 H 0.92330 0.84190 0.94300
C44 C 0.8965(6) 0.7920(3) 0.8899(2)
H52 H 0.98590 0.77730 0.88730
C45 C 0.8051(7) 0.7756(2) 0.86088(18)
H53 H 0.83180 0.74960 0.83830
C46 C 0.6725(5) 0.7967(2) 0.86411(16)
H54 H 0.61090 0.78540 0.84340
C47 C 0.3866(5) 0.9401(2) 0.77864(13)
H55 H 0.43420 0.90010 0.78850
H56 H 0.44390 0.97930 0.78360
C48 C 0.3578(4) 0.93334(19) 0.73322(12)
C49 C 0.4540(5) 0.9554(2) 0.70546(16)
H57 H 0.53460 0.97470 0.71480
C50 C 0.4299(5) 0.9488(3) 0.66347(17)
H58 H 0.49510 0.96350 0.64470
C51 C 0.3115(6) 0.9210(2) 0.64933(16)
H59 H 0.29620 0.91720 0.62100
C52 C 0.2160(5) 0.8988(2) 0.67651(15)
H60 H 0.13550 0.87980 0.66690
C53 C 0.2391(4) 0.9047(2) 0.71812(14)
H61 H 0.17370 0.88920 0.73660
C54 C 0.2493(4) 1.1084(2) 0.78871(11)
H62 H 0.16250 1.13160 0.79040
H63 H 0.23900 1.06930 0.77080
C55 C 0.3553(4) 1.1551(2) 0.77194(13)
C56 C 0.4112(5) 1.2059(2) 0.79556(14)
H64 H 0.38150 1.21170 0.82260
C57 C 0.5091(6) 1.2480(2) 0.78030(18)
H65 H 0.54540 1.28180 0.79700
C58 C 0.5538(6) 1.2406(3) 0.7407(2)
H66 H 0.62030 1.26940 0.73020
C59 C 0.4993(6) 1.1901(3) 0.71630(16)
H67 H 0.52900 1.18490 0.68920
C60 C 0.4003(5) 1.1468(2) 0.73190(14)
H68 H 0.36460 1.11250 0.71540
C61 C 0.1635(4) 1.01038(18) 0.96777(12)
C62 C 0.0496(5) 1.01344(19) 0.99209(14)
C63 C -0.0923(5) 1.0062(2) 0.97569(14)
H69 H -0.15570 1.00780 0.99820
H70 H -0.10090 0.96360 0.96150
H71 H -0.11110 1.04260 0.95680
C64 C 0.2981(5) 1.0186(2) 0.98612(14)
C65 C 0.5363(5) 1.0341(3) 0.97005(16)
H72 H 0.54370 1.03540 0.99990
H73 H 0.60200 1.00150 0.95980
C66 C 0.5668(5) 1.1000(3) 0.95342(15)
H74 H 0.50360 1.13250 0.96420
H75 H 0.55960 1.09870 0.92380
H76 H 0.65760 1.11270 0.96110
#END
