
#######################################################################
#
#                 Cambridge Crystallographic Data Centre
#                                CCDC
#
#######################################################################
#
# If this CIF has been generated from an entry in the Cambridge
# Structural Database, then it will include bibliographic, chemical,
# crystal, experimental, refinement or atomic coordinate data resulting
# from the CCDC's data processing and validation procedures.
#
#######################################################################

data_CSD_CIF_OLIHIA
_audit_creation_date 2004-02-04
_audit_creation_method CSD-ConQuest-V1
_database_code_CSD OLIHIA
_database_code_depnum_ccdc_archive 'CCDC 211432'
_chemical_formula_sum 'C12 H12 N2 O6'
_chemical_formula_moiety
;
C12 H12 N2 O6
;
_journal_coden_Cambridge 16
_journal_volume 59
_journal_year 2003
_journal_page_first 8365
_journal_name_full 'Tetrahedron '
loop_
_publ_author_name
"Hua Jiang"
"J.-M.Leger"
"C.Dolain"
"P.Guionneau"
"I.Huc"
_chemical_name_systematic
;
Dimethyl 2-(2-nitroanilinyl)fumarate
;
_cell_volume   1321.047
_exptl_crystal_colour 'yellow'
_exptl_crystal_density_diffrn 1.409
_exptl_crystal_preparation 'chloroform/n-hexane'
_diffrn_ambient_temperature 296
#These two values have been output from a single CSD field.
_refine_ls_R_factor_gt 0.0616
_refine_ls_wR_factor_gt 0.0616
_symmetry_cell_setting monoclinic
_symmetry_space_group_name_H-M 'P 21/n'
_symmetry_Int_Tables_number 14
loop_
_symmetry_equiv_pos_site_id
_symmetry_equiv_pos_as_xyz
1 x,y,z
2 1/2+x,1/2-y,1/2+z
3 -x,-y,-z
4 -1/2-x,-1/2+y,-1/2-z
_cell_length_a 9.299(4)
_cell_length_b 10.495(3)
_cell_length_c 13.640(3)
_cell_angle_alpha 90
_cell_angle_beta 97.07(3)
_cell_angle_gamma 90
_cell_formula_units_Z 4
loop_
_atom_type_symbol
_atom_type_radius_bond
C 0.68
H 0.23
N 0.68
O 0.68
loop_
_atom_site_label
_atom_site_type_symbol
_atom_site_fract_x
_atom_site_fract_y
_atom_site_fract_z
C1 C -0.5199(3) 0.6883(3) 0.2596(2)
C2 C -0.4414(3) 0.7999(3) 0.2502(2)
C3 C -0.4678(4) 0.9009(3) 0.3125(2)
H1 H -0.41460 0.97570 0.31070
C4 C -0.5702(4) 0.8921(4) 0.3762(3)
H2 H -0.58790 0.96170 0.41510
C5 C -0.6470(4) 0.7819(4) 0.3831(3)
H3 H -0.71550 0.77660 0.42720
C6 C -0.6232(4) 0.6791(4) 0.3251(3)
H4 H -0.67530 0.60410 0.32940
N1 N -0.5023(3) 0.5780(3) 0.1968(3)
O1 O -0.6021(4) 0.5028(3) 0.1842(4)
O2 O -0.3876(3) 0.5634(2) 0.1620(2)
N2 N -0.3408(3) 0.8102(2) 0.1828(2)
H5 H -0.30160 0.74050 0.16610
C7 C -0.2976(3) 0.9202(3) 0.1402(2)
C8 C -0.1708(3) 0.9298(3) 0.1034(2)
H6 H -0.15130 1.00470 0.07090
C9 C -0.0625(3) 0.8300(3) 0.1114(2)
O3 O -0.0794(2) 0.7216(2) 0.14074(18)
O4 O 0.0618(2) 0.8694(2) 0.08180(17)
C10 C 0.1785(4) 0.7791(4) 0.0898(3)
H7 H 0.26190 0.81740 0.06670
H8 H 0.14980 0.70550 0.05040
H9 H 0.20200 0.75410 0.15760
C11 C -0.4082(3) 1.0252(3) 0.1221(2)
O5 O -0.5363(2) 1.0077(2) 0.10795(18)
O6 O -0.3441(2) 1.13870(19) 0.12255(18)
C12 C -0.4409(4) 1.2462(3) 0.0999(3)
H10 H -0.38550 1.32350 0.10250
H11 H -0.50890 1.25020 0.14740
H12 H -0.49230 1.23580 0.03490
#END
