
#######################################################################
#
#                 Cambridge Crystallographic Data Centre
#                                CCDC
#
#######################################################################
#
# If this CIF has been generated from an entry in the Cambridge
# Structural Database, then it will include bibliographic, chemical,
# crystal, experimental, refinement or atomic coordinate data resulting
# from the CCDC's data processing and validation procedures.
#
#######################################################################

data_CSD_CIF_OLIHUM
_audit_creation_date 2004-02-04
_audit_creation_method CSD-ConQuest-V1
_database_code_CSD OLIHUM
_database_code_depnum_ccdc_archive 'CCDC 211434'
_chemical_formula_sum 'C11 H8 N2 O5'
_chemical_formula_moiety
;
C11 H8 N2 O5
;
_journal_coden_Cambridge 16
_journal_volume 59
_journal_year 2003
_journal_page_first 8365
_journal_name_full 'Tetrahedron '
loop_
_publ_author_name
"Hua Jiang"
"J.-M.Leger"
"C.Dolain"
"P.Guionneau"
"I.Huc"
_chemical_name_systematic
;
2-Methoxycarbonyl-8-nitro-4-(1H)-quinolinone
;
_cell_volume   1055.284
_exptl_crystal_colour 'yellow'
_exptl_crystal_density_diffrn 1.562
_exptl_crystal_preparation 'toluene/n-hexane'
_diffrn_ambient_temperature 296
#These two values have been output from a single CSD field.
_refine_ls_R_factor_gt 0.0414
_refine_ls_wR_factor_gt 0.0414
_symmetry_cell_setting monoclinic
_symmetry_space_group_name_H-M 'P 21/n'
_symmetry_Int_Tables_number 14
loop_
_symmetry_equiv_pos_site_id
_symmetry_equiv_pos_as_xyz
1 x,y,z
2 1/2+x,1/2-y,1/2+z
3 -x,-y,-z
4 -1/2-x,-1/2+y,-1/2-z
_cell_length_a 11.158(1)
_cell_length_b 5.394(1)
_cell_length_c 17.559(2)
_cell_angle_alpha 90
_cell_angle_beta 93.08(1)
_cell_angle_gamma 90
_cell_formula_units_Z 4
loop_
_atom_type_symbol
_atom_type_radius_bond
C 0.68
H 0.23
N 0.68
O 0.68
loop_
_atom_site_label
_atom_site_type_symbol
_atom_site_fract_x
_atom_site_fract_y
_atom_site_fract_z
C1 C 0.48070(15) -0.3121(3) 0.68233(10)
C2 C 0.58318(14) -0.3747(3) 0.64253(9)
C3 C 0.57528(15) -0.5810(3) 0.59306(9)
C4 C 0.46782(17) -0.7131(4) 0.58447(11)
H1 H 0.46280 -0.84910 0.55190
C5 C 0.36972(17) -0.6457(4) 0.62320(11)
H2 H 0.29850 -0.73440 0.61620
C6 C 0.37621(16) -0.4464(4) 0.67258(11)
H3 H 0.30970 -0.40280 0.69940
N1 N 0.48084(14) -0.1041(3) 0.73567(8)
N2 N 0.68852(12) -0.2456(3) 0.64944(8)
H4 H 0.69440 -0.12260 0.68060
C7 C 0.78417(14) -0.3060(3) 0.60863(9)
C8 C 0.78380(15) -0.5003(4) 0.56059(10)
H5 H 0.85130 -0.53370 0.53350
C9 C 0.67944(16) -0.6571(3) 0.55083(10)
C10 C 0.88696(15) -0.1331(4) 0.62399(10)
O1 O 0.88242(11) 0.0385(3) 0.66721(7)
O2 O 0.98129(11) -0.1921(3) 0.58480(8)
C11 C 1.08635(18) -0.0392(5) 0.60016(14)
H6 H 1.14980 -0.09430 0.56940
H7 H 1.11180 -0.05230 0.65310
H8 H 1.06720 0.13030 0.58810
O3 O 0.67706(12) -0.8439(3) 0.50961(8)
O4 O 0.39084(13) -0.0670(3) 0.77077(9)
O5 O 0.57014(12) 0.0277(3) 0.74355(7)
#END
