
#######################################################################
#
#                 Cambridge Crystallographic Data Centre
#                                CCDC
#
#######################################################################
#
# If this CIF has been generated from an entry in the Cambridge
# Structural Database, then it will include bibliographic, chemical,
# crystal, experimental, refinement or atomic coordinate data resulting
# from the CCDC's data processing and validation procedures.
#
#######################################################################

data_CSD_CIF_OLIVIP
_audit_creation_date 2011-03-31
_audit_creation_method CSD-ConQuest-V1
_database_code_CSD OLIVIP
_database_code_depnum_ccdc_archive 'CCDC 793754'
_chemical_formula_sum 'C15 H13 N1 O2'
_chemical_formula_moiety
;
C15 H13 N1 O2
;
_journal_coden_Cambridge 179
_journal_volume 50
_journal_year 2011
_journal_page_first 1380
_journal_name_full 'Angew.Chem.,Int.Ed. '
loop_
_publ_author_name
"Guan-Wu Wang"
"Ting-Ting Yuan"
"Dan-Dan Li"
_chemical_name_systematic
;
5-Methoxy-3-methylphenanthridin-6(5H)-one
;
_cell_volume   1230.454
_exptl_crystal_colour 'yellow'
_exptl_crystal_density_diffrn 1.292
_exptl_crystal_description 'block'
_diffrn_ambient_temperature 291
#These two values have been output from a single CSD field.
_refine_ls_R_factor_gt 0.0381
_refine_ls_wR_factor_gt 0.0381
_symmetry_cell_setting monoclinic
_symmetry_space_group_name_H-M 'P 21/n'
_symmetry_Int_Tables_number 14
loop_
_symmetry_equiv_pos_site_id
_symmetry_equiv_pos_as_xyz
1 x,y,z
2 1/2-x,1/2+y,1/2-z
3 -x,-y,-z
4 -1/2+x,-1/2-y,-1/2+z
_cell_length_a 5.9671(2)
_cell_length_b 15.9172(7)
_cell_length_c 13.0085(5)
_cell_angle_alpha 90
_cell_angle_beta 95.201(4)
_cell_angle_gamma 90
_cell_formula_units_Z 4
loop_
_atom_type_symbol
_atom_type_radius_bond
C 0.68
H 0.23
N 0.68
O 0.68
loop_
_atom_site_label
_atom_site_type_symbol
_atom_site_fract_x
_atom_site_fract_y
_atom_site_fract_z
O1 O 0.26201(16) 0.38133(6) 0.10199(7)
O2 O 0.62546(16) 0.46726(6) 0.16254(7)
N1 N 0.5820(2) 0.39097(7) 0.20927(8)
C1 C 0.3873(3) 0.35082(9) 0.17282(10)
C2 C 0.7343(2) 0.36563(9) 0.29178(10)
C3 C 0.5007(2) 0.23900(9) 0.30218(10)
C4 C 0.9176(2) 0.41612(9) 0.32457(10)
H1 H 0.93940 0.46670 0.29100
C5 C 0.3496(2) 0.26987(9) 0.22233(10)
C6 C 1.0670(3) 0.39200(11) 0.40620(11)
C7 C 0.1590(3) 0.22393(11) 0.18693(12)
H2 H 0.05820 0.24570 0.13490
C8 C 0.6949(2) 0.28936(9) 0.33921(10)
C9 C 0.4546(3) 0.15963(11) 0.34219(12)
H3 H 0.55280 0.13710 0.39460
C10 C 0.1198(3) 0.14685(12) 0.22862(13)
H4 H -0.00710 0.11620 0.20480
C11 C 0.8489(3) 0.26609(10) 0.42199(11)
H5 H 0.82860 0.21570 0.45610
C12 C 0.7357(3) 0.45192(10) 0.07027(12)
H6 H 0.87840 0.42540 0.08830
H7 H 0.75880 0.50430 0.03620
H8 H 0.64340 0.41590 0.02490
C13 C 0.2692(3) 0.11466(10) 0.30613(13)
H9 H 0.24320 0.06210 0.33380
C14 C 1.0285(3) 0.31600(12) 0.45368(12)
H10 H 1.12770 0.29850 0.50870
C15 C 1.2651(3) 0.44634(12) 0.44232(12)
H11 H 1.25180 0.46400 0.51210
H12 H 1.26810 0.49480 0.39860
H13 H 1.40170 0.41490 0.43930
#END
