
#######################################################################
#
#                 Cambridge Crystallographic Data Centre
#                                CCDC
#
#######################################################################
#
# If this CIF has been generated from an entry in the Cambridge
# Structural Database, then it will include bibliographic, chemical,
# crystal, experimental, refinement or atomic coordinate data resulting
# from the CCDC's data processing and validation procedures.
#
#######################################################################

data_CSD_CIF_OLOBIA
_audit_creation_date 2004-02-04
_audit_creation_method CSD-ConQuest-V1
_database_code_CSD OLOBIA
_database_code_depnum_ccdc_archive 'CCDC 224649'
_chemical_formula_sum 'C1 H3 N5 O4'
_chemical_formula_moiety
;
C1 H3 N5 O4
;
_journal_coeditor_code "IUCr SK1658"
_journal_coden_Cambridge 591
_journal_volume 59
_journal_year 2003
_journal_page_first o550
_journal_name_full 'Acta Crystallogr.,Sect.C:Cryst.Struct.Commun. '
loop_
_publ_author_name
"A.D.Vasiliev"
"A.M.Astachov"
"M.S.Molokeev"
"L.A.Kruglyakova"
"R.S.Stepanov"
_chemical_name_systematic
;
1,2-Dinitroguanidine
;
_cell_volume    525.492
_exptl_crystal_colour 'colorless'
_exptl_crystal_density_diffrn 1.884
_exptl_special_details
;
explosive

;
_exptl_crystal_description 'block'
_exptl_crystal_preparation 'ethyl acetate'
_diffrn_ambient_temperature 293
#These two values have been output from a single CSD field.
_refine_ls_R_factor_gt 0.024
_refine_ls_wR_factor_gt 0.024
_symmetry_cell_setting orthorhombic
_symmetry_space_group_name_H-M 'P 21 21 21'
_symmetry_Int_Tables_number 19
loop_
_symmetry_equiv_pos_site_id
_symmetry_equiv_pos_as_xyz
1 x,y,z
2 1/2-x,-y,1/2+z
3 1/2+x,1/2-y,-z
4 -x,1/2+y,1/2-z
_cell_length_a 9.6465(6)
_cell_length_b 10.7694(7)
_cell_length_c 5.0583(3)
_cell_angle_alpha 90
_cell_angle_beta 90
_cell_angle_gamma 90
_cell_formula_units_Z 4
loop_
_atom_type_symbol
_atom_type_radius_bond
C 0.68
H 0.23
N 0.68
O 0.68
loop_
_atom_site_label
_atom_site_type_symbol
_atom_site_fract_x
_atom_site_fract_y
_atom_site_fract_z
N1 N 0.49686(13) 0.45377(12) 0.8359(3)
O1 O 0.62378(12) 0.46342(13) 0.8205(3)
O2 O 0.44102(13) 0.38905(12) 1.0082(3)
N2 N 0.40686(13) 0.51317(12) 0.6751(3)
C1 C 0.45874(15) 0.58503(13) 0.4824(3)
N3 N 0.58624(15) 0.60217(15) 0.4057(3)
H1 H 0.649(3) 0.562(2) 0.498(6)
H2 H 0.605(3) 0.656(2) 0.262(5)
N4 N 0.34907(13) 0.64644(14) 0.3658(3)
H3 H 0.2632(19) 0.6277(16) 0.418(4)
N5 N 0.35413(14) 0.71820(14) 0.1419(3)
O3 O 0.46412(13) 0.73377(13) 0.0299(3)
O4 O 0.24347(15) 0.76143(17) 0.0771(3)
#END
