
#######################################################################
#
#                 Cambridge Crystallographic Data Centre
#                                CCDC
#
#######################################################################
#
# If this CIF has been generated from an entry in the Cambridge
# Structural Database, then it will include bibliographic, chemical,
# crystal, experimental, refinement or atomic coordinate data resulting
# from the CCDC's data processing and validation procedures.
#
#######################################################################

data_CSD_CIF_OLOHEC
_audit_creation_date 2004-02-04
_audit_creation_method CSD-ConQuest-V1
_database_code_CSD OLOHEC
_database_code_depnum_ccdc_archive 'CCDC 224674'
_chemical_formula_sum 'C13 H10 N2 O4'
_chemical_formula_moiety
;
C13 H10 N2 O4
;
_journal_coeditor_code "IUCr FR1431"
_journal_coden_Cambridge 591
_journal_volume 59
_journal_year 2003
_journal_page_first o601
_journal_name_full 'Acta Crystallogr.,Sect.C:Cryst.Struct.Commun. '
loop_
_publ_author_name
"C.C.Ersanli"
"C.Albayrak"
"M.Odabasoglu"
"A.Erdonmez"
_chemical_name_systematic
;
2-((2-Hydroxy-4-nitrophenyl)aminomethylene)cyclohexa-3,5-dien-1(2H)-one
;
_chemical_melting_point 495
_cell_volume   1140.649
_exptl_crystal_colour 'red'
_exptl_crystal_density_diffrn 1.504
_exptl_special_details
;
Melting point range 495-497K

;
_exptl_crystal_description 'prism'
_exptl_crystal_preparation 'ethanol'
_diffrn_ambient_temperature 293
#These two values have been output from a single CSD field.
_refine_ls_R_factor_gt 0.0383
_refine_ls_wR_factor_gt 0.0383
_symmetry_cell_setting monoclinic
_symmetry_space_group_name_H-M 'P 21/c'
_symmetry_Int_Tables_number 14
loop_
_symmetry_equiv_pos_site_id
_symmetry_equiv_pos_as_xyz
1 x,y,z
2 x,1/2-y,1/2+z
3 -x,-y,-z
4 -x,-1/2+y,-1/2-z
_cell_length_a 11.9528(13)
_cell_length_b 8.0910(5)
_cell_length_c 12.4205(14)
_cell_angle_alpha 90
_cell_angle_beta 108.268(9)
_cell_angle_gamma 90
_cell_formula_units_Z 4
loop_
_atom_type_symbol
_atom_type_radius_bond
C 0.68
H 0.23
N 0.68
O 0.68
loop_
_atom_site_label
_atom_site_type_symbol
_atom_site_fract_x
_atom_site_fract_y
_atom_site_fract_z
C1 C 0.6566(1) 0.11285(14) 0.60076(9)
C2 C 0.76399(11) 0.02430(17) 0.63365(10)
H1 H 0.80290 0.00720 0.71030
C3 C 0.81175(12) -0.03669(17) 0.55544(12)
H2 H 0.88290 -0.09350 0.58000
C4 C 0.75612(12) -0.01568(17) 0.43917(11)
H3 H 0.78930 -0.05970 0.38700
C5 C 0.65280(11) 0.06998(17) 0.4030(1)
H4 H 0.61580 0.08450 0.32570
C6 C 0.60099(10) 0.13719(14) 0.48134(9)
C7 C 0.49632(10) 0.22855(15) 0.44146(9)
H5 H 0.46100 0.23900 0.36360
C8 C 0.34224(10) 0.39415(14) 0.47974(9)
C9 C 0.31734(10) 0.47537(14) 0.56910(9)
C10 C 0.21513(11) 0.56742(15) 0.54729(10)
H6 H 0.19640 0.62060 0.60580
C11 C 0.14172(10) 0.57880(16) 0.43745(11)
C12 C 0.16516(12) 0.50230(17) 0.34786(11)
H7 H 0.11420 0.51380 0.27430
C13 C 0.26595(12) 0.40833(17) 0.36991(10)
H8 H 0.28300 0.35410 0.31090
N1 N 0.44629(8) 0.29958(12) 0.50916(8)
N2 N 0.03319(10) 0.67526(15) 0.41591(11)
O1 O 0.61009(7) 0.16936(11) 0.67479(6)
O2 O 0.39673(8) 0.45970(13) 0.67292(7)
O3 O 0.00891(10) 0.73020(18) 0.49683(11)
O4 O -0.02877(10) 0.69607(16) 0.31818(10)
H9 H 0.4902(14) 0.281(2) 0.5874(15)
H10 H 0.3850(17) 0.538(3) 0.7233(17)
#END
