
#######################################################################
#
#                 Cambridge Crystallographic Data Centre
#                                CCDC
#
#######################################################################
#
# If this CIF has been generated from an entry in the Cambridge
# Structural Database, then it will include bibliographic, chemical,
# crystal, experimental, refinement or atomic coordinate data resulting
# from the CCDC's data processing and validation procedures.
#
#######################################################################

data_CSD_CIF_OLUDOO
_audit_creation_date 2004-03-18
_audit_creation_method CSD-ConQuest-V1
_database_code_CSD OLUDOO
_database_code_depnum_ccdc_archive 'CCDC 215554'
_chemical_formula_sum 'C12 H15 N4 O1'
_chemical_formula_moiety
;
C12 H15 N4 O1
;
_journal_coden_Cambridge 9
_journal_volume 42
_journal_year 2003
_journal_page_first 7447
_journal_name_full 'Inorg.Chem. '
loop_
_publ_author_name
"L.M.Field"
"P.M.Lahti"
_chemical_name_systematic
;
1-(4-(N-t-Butyl-N-aminoxyl)phenyl)-1,2,4-triazole
;
_chemical_melting_point 342.15
_cell_volume   1212.274
_exptl_crystal_colour 'red'
_exptl_crystal_density_diffrn 1.267
_exptl_special_details
;
Melting point range 342.15-344.15K

;
_exptl_crystal_description 'long needle'
_exptl_crystal_preparation 'dichloromethane/hexane'
_diffrn_ambient_temperature 298
#These two values have been output from a single CSD field.
_refine_ls_R_factor_gt 0.0647
_refine_ls_wR_factor_gt 0.0647
_symmetry_cell_setting triclinic
_symmetry_space_group_name_H-M 'P -1'
_symmetry_Int_Tables_number 2
loop_
_symmetry_equiv_pos_site_id
_symmetry_equiv_pos_as_xyz
1 x,y,z
2 -x,-y,-z
_cell_length_a 9.3166(3)
_cell_length_b 11.3665(3)
_cell_length_c 12.5368(5)
_cell_angle_alpha 81.3960(11)
_cell_angle_beta 71.7620(13)
_cell_angle_gamma 74.5698(10)
_cell_formula_units_Z 4
loop_
_atom_type_symbol
_atom_type_radius_bond
C 0.68
H 0.23
N 0.68
O 0.68
loop_
_atom_site_label
_atom_site_type_symbol
_atom_site_fract_x
_atom_site_fract_y
_atom_site_fract_z
O1 O 0.4449(2) 0.78526(13) 0.73725(14)
O2 O 0.5038(3) 0.26511(19) 0.74443(17)
N1 N 0.3557(2) 0.89323(14) 0.73975(14)
N2 N 0.1780(2) 1.05761(15) 0.34526(15)
N3 N 0.1388(2) 1.17854(17) 0.31192(16)
N4 N 0.1357(3) 1.0620(2) 0.18269(18)
N5 N 0.1256(3) 0.65327(17) 0.34940(19)
N6 N 0.2048(2) 0.53662(14) 0.36810(15)
N7 N 0.1663(3) 0.5416(2) 0.20327(19)
N8 N 0.3927(2) 0.36100(15) 0.75803(15)
C1 C 0.4345(4) 0.3336(3) 0.9436(3)
C2 C 0.3250(4) 0.5410(2) 0.8716(2)
C3 C 0.1687(3) 0.3819(2) 0.9273(2)
C4 C 0.3287(3) 0.40640(18) 0.87424(18)
C5 C 0.3397(2) 0.41161(16) 0.66328(16)
C6 C 0.2107(3) 0.50805(18) 0.66408(18)
C7 C 0.1671(3) 0.55064(17) 0.56768(18)
C8 C 0.2505(2) 0.49633(16) 0.46791(17)
C9 C 0.3787(3) 0.40115(17) 0.46573(18)
C10 C 0.4226(3) 0.35861(17) 0.56156(18)
C11 C 0.2262(3) 0.4732(2) 0.28013(19)
C12 C 0.1078(4) 0.6494(3) 0.2504(3)
C13 C 0.1753(3) 0.9908(2) 0.2671(2)
C14 C 0.1142(3) 1.1739(3) 0.2154(2)
C15 C 0.2176(2) 1.01807(17) 0.44745(16)
C16 C 0.2100(2) 0.90148(17) 0.49702(18)
C17 C 0.2541(3) 0.86300(16) 0.59340(17)
C18 C 0.3043(2) 0.93985(16) 0.64303(16)
C19 C 0.3106(3) 1.05626(18) 0.59333(19)
C20 C 0.2675(3) 1.09521(19) 0.49622(19)
C21 C 0.3015(2) 0.94974(16) 0.84996(17)
C22 C 0.1729(3) 1.06469(19) 0.8516(2)
C23 C 0.4392(3) 0.9771(3) 0.8719(3)
C24 C 0.2385(3) 0.8558(2) 0.93902(19)
H1 H 0.53650 0.34870 0.91130
H2 H 0.44040 0.24790 0.94390
H3 H 0.39360 0.35800 1.01940
H4 H 0.42820 0.55340 0.83840
H5 H 0.28610 0.56660 0.94700
H6 H 0.25850 0.58810 0.82780
H7 H 0.10050 0.42660 0.88380
H8 H 0.12890 0.40760 1.00270
H9 H 0.17520 0.29590 0.92910
H10 H 0.15310 0.54420 0.73100
H11 H 0.08160 0.61590 0.56940
H12 H 0.43590 0.36550 0.39850
H13 H 0.50870 0.29370 0.55890
H14 H 0.27720 0.39110 0.27430
H15 H 0.05720 0.71800 0.21450
H16 H 0.19810 0.90570 0.27160
H17 H 0.08360 1.24440 0.17190
H18 H 0.17510 0.84980 0.46510
H19 H 0.25050 0.78440 0.62600
H20 H 0.34410 1.10840 0.62580
H21 H 0.27180 1.17360 0.46320
H22 H 0.08630 1.04500 0.83820
H23 H 0.21060 1.12400 0.79390
H24 H 0.14030 1.09780 0.92380
H25 H 0.51900 0.90320 0.87030
H26 H 0.40750 1.00910 0.94450
H27 H 0.47860 1.03630 0.81500
H28 H 0.15100 0.83900 0.92440
H29 H 0.20650 0.88710 1.01190
H30 H 0.31810 0.78170 0.93720
#END
