
#######################################################################
#
#                 Cambridge Crystallographic Data Centre
#                                CCDC
#
#######################################################################
#
# If this CIF has been generated from an entry in the Cambridge
# Structural Database, then it will include bibliographic, chemical,
# crystal, experimental, refinement or atomic coordinate data resulting
# from the CCDC's data processing and validation procedures.
#
#######################################################################

data_CSD_CIF_OLUMEP
_audit_creation_date 2016-05-13
_audit_creation_method CSD-ConQuest-V1
_database_code_CSD OLUMEP
_database_code_depnum_ccdc_archive 'CCDC 1455026'
_chemical_formula_sum 'C17 H14 N4 O4'
_chemical_formula_moiety
;
C17 H14 N4 O4
;
_journal_coden_Cambridge 1088
_journal_volume 27
_journal_year 2016
_journal_page_first 2167
_journal_name_full 'Synlett '
loop_
_publ_author_name
"Fengjuan Zhu"
"Runjiang Song"
"Shen Li"
"Xusheng Shao"
_chemical_name_systematic
;
N-(2-(3-methyl-4-oxo-3,4-dihydroquinazolin-2-yl)phenyl)-2-nitroacetamide 
unknown solvate
;
_cell_volume   1522.073
_exptl_crystal_density_diffrn 1.476
_exptl_special_details
;
Absolute configuration

;
_exptl_crystal_description 'block'
_diffrn_ambient_temperature 130
_refine_special_details
;
The MASK/OLEX2 program has been used to model some disorder.

;
#These two values have been output from a single CSD field.
_refine_ls_R_factor_gt 0.0598
_refine_ls_wR_factor_gt 0.0598
_symmetry_cell_setting monoclinic
_symmetry_space_group_name_H-M 'P 21'
_symmetry_Int_Tables_number 4
loop_
_symmetry_equiv_pos_site_id
_symmetry_equiv_pos_as_xyz
1 x,y,z
2 -x,1/2+y,-z
_cell_length_a 8.7416(8)
_cell_length_b 11.6238(11)
_cell_length_c 15.0455(14)
_cell_angle_alpha 90
_cell_angle_beta 95.370(2)
_cell_angle_gamma 90
_cell_formula_units_Z 4
loop_
_atom_type_symbol
_atom_type_radius_bond
C 0.68
H 0.23
N 0.68
O 0.68
loop_
_atom_site_label
_atom_site_type_symbol
_atom_site_fract_x
_atom_site_fract_y
_atom_site_fract_z
O1 O 0.0750(3) 0.8477(2) 0.72187(17)
O2 O 0.4467(4) 0.4137(3) 0.54249(18)
O3 O 0.7834(3) 0.5308(3) 0.5741(2)
O4 O 0.7056(3) 0.5636(3) 0.43587(18)
N1 N 0.3645(3) 0.6451(2) 0.88151(18)
N2 N 0.1715(3) 0.6726(2) 0.76106(16)
N3 N 0.4205(3) 0.5211(3) 0.66826(18)
H1 H 0.44000 0.58940 0.69190
N4 N 0.6863(3) 0.5658(3) 0.5157(2)
C1 C 0.3638(3) 0.7623(3) 0.8964(2)
C2 C 0.4655(4) 0.8090(3) 0.9647(2)
H2 H 0.53220 0.75980 1.00080
C3 C 0.4689(4) 0.9264(3) 0.9795(2)
H3 H 0.53940 0.95780 1.02500
C4 C 0.3693(4) 0.9989(3) 0.9279(2)
H4 H 0.37120 1.07930 0.93930
C5 C 0.2688(4) 0.9553(3) 0.8611(2)
H5 H 0.20130 1.00550 0.82640
C6 C 0.2655(3) 0.8369(3) 0.8438(2)
C7 C 0.1648(4) 0.7904(3) 0.7720(2)
C8 C 0.0653(4) 0.6216(3) 0.6898(2)
H6 H 0.10430 0.63540 0.63180
H7 H -0.03640 0.65690 0.69050
H8 H 0.05730 0.53860 0.69980
C9 C 0.2737(3) 0.6054(3) 0.8155(2)
C10 C 0.2784(3) 0.4803(3) 0.7948(2)
C11 C 0.2098(4) 0.4025(3) 0.8494(2)
H9 H 0.16620 0.42920 0.90110
C12 C 0.2051(4) 0.2869(3) 0.8287(2)
H10 H 0.15780 0.23430 0.86590
C13 C 0.2687(4) 0.2477(3) 0.7542(2)
H11 H 0.26280 0.16830 0.73940
C14 C 0.3419(4) 0.3237(3) 0.7002(2)
H12 H 0.38840 0.29570 0.64980
C15 C 0.3464(3) 0.4403(3) 0.7202(2)
C16 C 0.4641(4) 0.5023(3) 0.5850(2)
C17 C 0.5371(4) 0.6070(3) 0.5448(2)
H13 H 0.47000 0.63700 0.49340
H14 H 0.55440 0.66890 0.58990
O5 O 1.4503(3) 0.2369(2) 0.27254(16)
O6 O 1.1986(3) 0.6063(3) 0.47130(17)
O7 O 1.2148(3) 0.3171(3) 0.4065(2)
O8 O 1.0972(4) 0.2592(3) 0.5168(2)
N5 N 1.1376(3) 0.4339(2) 0.12255(17)
N6 N 1.3436(3) 0.4108(2) 0.23569(17)
N7 N 1.0913(3) 0.5500(3) 0.33439(18)
H15 H 1.02740 0.50070 0.30630
N8 N 1.1249(3) 0.3307(3) 0.4625(2)
C18 C 1.1393(4) 0.3157(3) 0.1083(2)
C19 C 1.0328(4) 0.2678(3) 0.0430(2)
H16 H 0.96380 0.31620 0.00770
C20 C 1.0286(4) 0.1509(3) 0.0302(2)
H17 H 0.95630 0.11890 -0.01410
C21 C 1.1300(4) 0.0778(3) 0.0817(2)
H18 H 1.12530 -0.00310 0.07250
C22 C 1.2361(4) 0.1235(3) 0.1456(2)
H19 H 1.30540 0.07460 0.18020
C23 C 1.2410(3) 0.2432(3) 0.1589(2)
C24 C 1.3523(4) 0.2918(3) 0.2262(2)
C25 C 1.4552(4) 0.4627(3) 0.3033(2)
H20 H 1.47610 0.54210 0.28620
H21 H 1.55090 0.41830 0.30730
H22 H 1.41290 0.46230 0.36140
C26 C 1.2349(4) 0.4741(3) 0.1850(2)
C27 C 1.2270(3) 0.5997(3) 0.2068(2)
C28 C 1.2869(4) 0.6812(3) 0.1529(2)
H23 H 1.32830 0.65800 0.09950
C29 C 1.2873(4) 0.7971(3) 0.1762(3)
H24 H 1.33050 0.85290 0.13980
C30 C 1.2233(4) 0.8299(3) 0.2537(2)
H25 H 1.22440 0.90870 0.27060
C31 C 1.1587(4) 0.7503(3) 0.3061(2)
H26 H 1.11320 0.77430 0.35790
C32 C 1.1596(4) 0.6340(3) 0.2833(2)
C33 C 1.1180(4) 0.5407(3) 0.4241(2)
C34 C 1.0376(4) 0.4413(3) 0.4651(2)
H27 H 1.02310 0.46020 0.52790
H28 H 0.93470 0.43110 0.43260
#END
