
#######################################################################
#
#                 Cambridge Crystallographic Data Centre
#                                CCDC
#
#######################################################################
#
# If this CIF has been generated from an entry in the Cambridge
# Structural Database, then it will include bibliographic, chemical,
# crystal, experimental, refinement or atomic coordinate data resulting
# from the CCDC's data processing and validation procedures.
#
#######################################################################

data_CSD_CIF_OLUPAO
_audit_creation_date 2016-05-13
_audit_creation_method CSD-ConQuest-V1
_database_code_CSD OLUPAO
_database_code_depnum_ccdc_archive 'CCDC 1022796'
_chemical_formula_sum 'C11 H13 N1 O2'
_chemical_formula_moiety
;
C11 H13 N1 O2
;
_journal_coden_Cambridge 692
_journal_volume 48
_journal_year 2016
_journal_page_first 2050
_journal_name_full 'Synthesis '
loop_
_publ_author_name
"N.Castillo-Rangel"
"J.O.H.Perez-Diaz"
"A.Vazquez"
_chemical_name_systematic
;
N-hydroxy-8-methoxy-3,4-dihydronaphthalen-1(2H)-imine
;
_chemical_name_common
;
(E)-8-methoxy-3,4-dihydronaphthalen-1(2H)-one oxime
;
_chemical_melting_point 458
_cell_volume    483.222
_exptl_crystal_colour 'colorless'
_exptl_crystal_density_diffrn 1.348
_exptl_special_details
;
Melting point range 458-459K

;
_exptl_crystal_description 'prism'
_exptl_crystal_preparation 'Chloroform'
_diffrn_ambient_temperature 293
#These two values have been output from a single CSD field.
_refine_ls_R_factor_gt 0.0569
_refine_ls_wR_factor_gt 0.0569
_symmetry_cell_setting triclinic
_symmetry_space_group_name_H-M 'P -1'
_symmetry_Int_Tables_number 2
loop_
_symmetry_equiv_pos_site_id
_symmetry_equiv_pos_as_xyz
1 x,y,z
2 -x,-y,-z
_cell_length_a 8.1735(6)
_cell_length_b 8.2652(7)
_cell_length_c 8.5188(7)
_cell_angle_alpha 71.855(7)
_cell_angle_beta 87.558(6)
_cell_angle_gamma 62.847(8)
_cell_formula_units_Z 2
loop_
_atom_type_symbol
_atom_type_radius_bond
C 0.68
H 0.23
N 0.68
O 0.68
loop_
_atom_site_label
_atom_site_type_symbol
_atom_site_fract_x
_atom_site_fract_y
_atom_site_fract_z
O1 O 0.1214(2) 0.5399(2) 0.34857(15)
H1 H 0.05860 0.48430 0.35660
O2 O 0.2104(2) 0.4725(2) 0.82767(15)
N1 N 0.1253(2) 0.5834(2) 0.49522(16)
C1 C 0.2299(2) 0.7365(2) 0.63009(18)
C2 C 0.2219(2) 0.6703(2) 0.48911(19)
C3 C 0.2454(2) 0.9059(2) 0.5941(2)
C4 C 0.2168(2) 0.6414(2) 0.7961(2)
C5 C 0.2759(2) 0.9988(2) 0.4209(2)
H2 H 0.33140 1.07960 0.42400
H3 H 0.15820 1.07920 0.35100
C6 C 0.3107(3) 0.7244(3) 0.3366(2)
H4 H 0.21700 0.79640 0.24090
H5 H 0.40280 0.60790 0.31830
C7 C 0.2363(3) 0.9851(3) 0.7189(2)
H6 H 0.24430 1.09880 0.69480
C8 C 0.4025(3) 0.8443(3) 0.3493(2)
H7 H 0.51940 0.76230 0.42030
H8 H 0.42740 0.90360 0.23990
C9 C 0.2086(3) 0.7215(3) 0.9189(2)
H9 H 0.19870 0.65990 1.02790
C10 C 0.2154(3) 0.8938(3) 0.8781(2)
H10 H 0.20570 0.94920 0.96010
C11 C 0.2544(4) 0.3456(3) 0.9941(3)
H11 H 0.24430 0.23320 0.99810
H12 H 0.37860 0.30850 1.03420
H13 H 0.16990 0.40940 1.06270
#END
