
#######################################################################
#
#                 Cambridge Crystallographic Data Centre
#                                CCDC
#
#######################################################################
#
# If this CIF has been generated from an entry in the Cambridge
# Structural Database, then it will include bibliographic, chemical,
# crystal, experimental, refinement or atomic coordinate data resulting
# from the CCDC's data processing and validation procedures.
#
#######################################################################

data_CSD_CIF_OMAHAL
_audit_creation_date 2004-03-18
_audit_creation_method CSD-ConQuest-V1
_database_code_CSD OMAHAL
_database_code_depnum_ccdc_archive 'CCDC 225373'
_chemical_formula_sum 'C10 H15 N4 O2'
_chemical_formula_moiety
;
C10 H15 N4 O2
;
_journal_coden_Cambridge 9
_journal_volume 42
_journal_year 2003
_journal_page_first 7616
_journal_name_full 'Inorg.Chem. '
loop_
_publ_author_name
"C.Aoki"
"T.Ishida"
"T.Nogami"
_chemical_name_systematic
;
2-(4-Imidazolyl)-4,4,5,5-tetramethylimidazolin-1-oxyl 3-oxide
;
_chemical_melting_point 427.15
_cell_volume   4624.750
_exptl_crystal_colour 'black'
_exptl_crystal_density_diffrn 1.282
_exptl_special_details
;
Melting point range 427.15-433.15K

;
_exptl_crystal_description 'platelet'
_diffrn_ambient_temperature 90.0
#These two values have been output from a single CSD field.
_refine_ls_R_factor_gt 0.0402
_refine_ls_wR_factor_gt 0.0402
_symmetry_cell_setting tetragonal
_symmetry_space_group_name_H-M 'I 41/a'
_symmetry_Int_Tables_number 88
loop_
_symmetry_equiv_pos_site_id
_symmetry_equiv_pos_as_xyz
1 x,y,z
2 -1/4-y,1/4+x,1/4+z
3 1/4+y,1/4-x,1/4+z
4 x,1/2+y,-z
5 -1/4+y,1/4-x,1/4-z
6 1/4-y,1/4+x,1/4-z
7 1/2+x,1/2+y,1/2+z
8 1/2+x,y,1/2-z
9 -x,-y,-z
10 1/4+y,-1/4-x,-1/4-z
11 -1/4-y,-1/4+x,-1/4-z
12 -x,-1/2-y,z
13 1/4-y,-1/4+x,-1/4+z
14 -1/4+y,-1/4-x,-1/4+z
15 -1/2-x,-1/2-y,-1/2-z
16 -1/2-x,-y,-1/2+z
_cell_length_a 20.7966(9)
_cell_length_b 20.7966(9)
_cell_length_c 10.6931(5)
_cell_angle_alpha 90
_cell_angle_beta 90
_cell_angle_gamma 90
_cell_formula_units_Z 16
loop_
_atom_type_symbol
_atom_type_radius_bond
C 0.68
H 0.23
N 0.68
O 0.68
loop_
_atom_site_label
_atom_site_type_symbol
_atom_site_fract_x
_atom_site_fract_y
_atom_site_fract_z
O1 O 0.55689(4) 0.14892(4) 0.16966(9)
O2 O 0.43140(4) -0.02956(4) 0.2540(1)
N1 N 0.62508(4) 0.03468(4) 0.25903(9)
N2 N 0.62285(5) -0.05814(5) 0.3612(1)
N3 N 0.50875(4) 0.11082(4) 0.17763(9)
N4 N 0.44870(4) 0.02659(4) 0.21734(10)
C1 C 0.65933(5) -0.01118(5) 0.3113(1)
C2 C 0.56200(5) 0.01529(5) 0.2765(1)
C3 C 0.56058(6) -0.04223(6) 0.3392(1)
C4 C 0.50854(5) 0.05084(5) 0.2265(1)
C5 C 0.44148(5) 0.13335(5) 0.1472(1)
C6 C 0.40571(5) 0.06775(5) 0.1389(1)
C7 C 0.44166(6) 0.17244(7) 0.0275(1)
C8 C 0.41992(6) 0.17478(6) 0.2573(1)
C9 C 0.40683(7) 0.03875(7) 0.0080(1)
C10 C 0.33815(6) 0.06701(6) 0.1916(1)
H1 H 0.7048(6) -0.0112(6) 0.318(1)
H2 H 0.5269(6) -0.0667(6) 0.365(1)
H3 H 0.6388(7) -0.0927(7) 0.404(1)
H4 H 0.4657(6) 0.1489(7) -0.036(1)
H5 H 0.4618(7) 0.2155(7) 0.045(2)
H6 H 0.3974(7) 0.1804(6) 0.000(1)
H7 H 0.4484(6) 0.2124(6) 0.264(1)
H8 H 0.3760(7) 0.1908(6) 0.243(1)
H9 H 0.4212(6) 0.1490(6) 0.337(1)
H10 H 0.4516(7) 0.0396(7) -0.029(2)
H11 H 0.3759(6) 0.0629(6) -0.046(1)
H12 H 0.3918(6) -0.0058(7) 0.018(1)
H13 H 0.3119(6) 0.0968(6) 0.146(1)
H14 H 0.3390(6) 0.0801(6) 0.280(1)
H15 H 0.3212(6) 0.0240(7) 0.185(1)
#END
