
#######################################################################
#
#                 Cambridge Crystallographic Data Centre
#                                CCDC
#
#######################################################################
#
# If this CIF has been generated from an entry in the Cambridge
# Structural Database, then it will include bibliographic, chemical,
# crystal, experimental, refinement or atomic coordinate data resulting
# from the CCDC's data processing and validation procedures.
#
#######################################################################

data_CSD_CIF_OMAYUX
_audit_creation_date 2011-05-17
_audit_creation_method CSD-ConQuest-V1
_database_code_CSD OMAYUX
_database_code_depnum_ccdc_archive 'CCDC 760975'
_chemical_formula_sum 'C25 H23 N1 O5'
_chemical_formula_moiety
;
C25 H23 N1 O5
;
_journal_coden_Cambridge 440
_journal_volume 35
_journal_year 2011
_journal_page_first 649
_journal_name_full 'New J.Chem. '
loop_
_publ_author_name
"A.Collas"
"R.De Borger"
"T.Amanova"
"C.M.L.V.Velde"
"J.K.Baeke"
"R.Dommisse"
"C.Van Alsenoy"
"F.Blockhuys"
_chemical_name_systematic
;
(E,E)-1-[2-(4-nitrophenyl)ethenyl]-4-[2-(3,4,5-trimethoxyphenyl)ethenyl]benzen
e
;
_chemical_melting_point 453
_cell_volume   1067.920
_exptl_crystal_colour 'red'
_exptl_crystal_density_diffrn 1.298
_exptl_special_details
;
polymorph 1

;
_exptl_crystal_description 'plate'
_diffrn_ambient_temperature 302
_refine_special_details
;
C17,C18 and C17B,C18B disordered over two sites with occupancies 0.639:0.361.

;
#These two values have been output from a single CSD field.
_refine_ls_R_factor_gt 0.0449
_refine_ls_wR_factor_gt 0.0449
_symmetry_cell_setting monoclinic
_symmetry_space_group_name_H-M 'P 21'
_symmetry_Int_Tables_number 4
loop_
_symmetry_equiv_pos_site_id
_symmetry_equiv_pos_as_xyz
1 x,y,z
2 -x,1/2+y,-z
_cell_length_a 7.856(2)
_cell_length_b 7.767(2)
_cell_length_c 17.596(6)
_cell_angle_alpha 90
_cell_angle_beta 95.93(2)
_cell_angle_gamma 90
_cell_formula_units_Z 2
loop_
_atom_type_symbol
_atom_type_radius_bond
C 0.68
H 0.23
N 0.68
O 0.68
loop_
_atom_site_label
_atom_site_type_symbol
_atom_site_fract_x
_atom_site_fract_y
_atom_site_fract_z
C1 C 0.7650(6) 0.8044(6) -0.0187(2)
C2 C 0.9211(7) 0.8812(7) 0.0054(3)
H1 H 0.93510 0.93470 0.05300
C3 C 1.0544(6) 0.8803(7) -0.0386(3)
H2 H 1.15720 0.93400 -0.02160
C4 C 1.0346(6) 0.7987(6) -0.1084(2)
C5 C 0.8840(6) 0.7237(7) -0.1348(2)
H3 H 0.87220 0.67040 -0.18230
C6 C 0.7499(6) 0.7268(6) -0.0912(2)
H4 H 0.64650 0.67650 -0.10990
C7 C 0.6229(6) 0.7939(7) 0.0285(3)
H5 H 0.52120 0.74900 0.00480
C8 C 0.6204(6) 0.8401(6) 0.1006(3)
H6 H 0.71980 0.89100 0.12360
C9 C 0.4820(6) 0.8213(6) 0.1480(2)
C10 C 0.3316(7) 0.7371(8) 0.1237(4)
H7 H 0.31490 0.69360 0.07420
C11 C 0.2029(7) 0.7167(8) 0.1732(4)
H8 H 0.10140 0.66110 0.15590
C12 C 0.2266(8) 0.7797(7) 0.2483(3)
C13 C 0.3732(8) 0.8660(7) 0.2700(3)
H9 H 0.38970 0.91360 0.31870
C14 C 0.4970(7) 0.8844(7) 0.2218(3)
H10 H 0.59680 0.94260 0.23950
C15 C 0.1194(9) 0.7558(9) 0.3126(4)
H11 H 0.16050 0.79670 0.36070
C16 C -0.0287(8) 0.6804(9) 0.3043(4)
H12 H -0.07480 0.65000 0.25540
C17 C -0.1274(8) 0.6406(7) 0.3691(4)
C18 C -0.2768(7) 0.5567(7) 0.3452(3)
H13 H -0.30700 0.54030 0.29320
C19 C -0.3830(6) 0.4964(6) 0.3966(3)
C20 C -0.3396(5) 0.5168(5) 0.4746(3)
C21 C -0.1926(5) 0.6020(6) 0.5000(3)
C22 C -0.0849(6) 0.6636(6) 0.4474(4)
H14 H 0.01580 0.72040 0.46480
C23 C -0.5704(9) 0.3581(9) 0.2994(3)
H15 H -0.56610 0.45640 0.26660
H16 H -0.68300 0.30880 0.29280
H17 H -0.48830 0.27410 0.28670
C24 C -0.6017(6) 0.5189(7) 0.5320(3)
H18 H -0.58780 0.63880 0.54440
H19 H -0.65690 0.46190 0.57120
H20 H -0.67070 0.50720 0.48390
C25 C -0.0110(7) 0.6948(11) 0.6091(4)
H21 H 0.08600 0.63590 0.59260
H22 H -0.00480 0.69190 0.66390
H23 H -0.01110 0.81230 0.59210
N1 N 1.1801(6) 0.7896(7) -0.1535(3)
O1 O 1.3082(6) 0.8663(9) -0.1322(3)
O2 O 1.1677(5) 0.7023(7) -0.2102(2)
O3 O -0.5316(4) 0.4099(5) 0.37669(18)
O4 O -0.4370(4) 0.4425(4) 0.52663(16)
O5 O -0.1617(4) 0.6137(4) 0.5781(2)
C26? C 0.045(2) 0.7132(19) 0.2697(7)
C27? C 0.0435(19) 0.7249(19) 0.3442(7)
H24? H -0.04360 0.67310 0.23540
H25? H 0.12920 0.77500 0.37740
#END
