
#######################################################################
#
#                 Cambridge Crystallographic Data Centre
#                                CCDC
#
#######################################################################
#
# If this CIF has been generated from an entry in the Cambridge
# Structural Database, then it will include bibliographic, chemical,
# crystal, experimental, refinement or atomic coordinate data resulting
# from the CCDC's data processing and validation procedures.
#
#######################################################################

data_CSD_CIF_OMAYUX01
_audit_creation_date 2011-05-17
_audit_creation_method CSD-ConQuest-V1
_database_code_CSD OMAYUX01
_database_code_depnum_ccdc_archive 'CCDC 760976'
_chemical_formula_sum 'C25 H23 N1 O5'
_chemical_formula_moiety
;
C25 H23 N1 O5
;
_journal_coden_Cambridge 440
_journal_volume 35
_journal_year 2011
_journal_page_first 649
_journal_name_full 'New J.Chem. '
loop_
_publ_author_name
"A.Collas"
"R.De Borger"
"T.Amanova"
"C.M.L.V.Velde"
"J.K.Baeke"
"R.Dommisse"
"C.Van Alsenoy"
"F.Blockhuys"
_chemical_name_systematic
;
(E,E)-1-[2-(4-nitrophenyl)ethenyl]-4-[2-(3,4,5-trimethoxyphenyl)ethenyl]benzen
e
;
_cell_volume   2168.769
_exptl_crystal_colour 'yellow'
_exptl_crystal_density_diffrn 1.278
_exptl_special_details
;
polymorph 2

;
_exptl_crystal_description 'prism'
_diffrn_ambient_temperature 300
#These two values have been output from a single CSD field.
_refine_ls_R_factor_gt 0.061
_refine_ls_wR_factor_gt 0.061
_symmetry_cell_setting triclinic
_symmetry_space_group_name_H-M 'P -1'
_symmetry_Int_Tables_number 2
loop_
_symmetry_equiv_pos_site_id
_symmetry_equiv_pos_as_xyz
1 x,y,z
2 -x,-y,-z
_cell_length_a 10.221(2)
_cell_length_b 15.239(3)
_cell_length_c 15.762(4)
_cell_angle_alpha 117.42(2)
_cell_angle_beta 92.26(2)
_cell_angle_gamma 93.52(2)
_cell_formula_units_Z 4
loop_
_atom_type_symbol
_atom_type_radius_bond
C 0.68
H 0.23
N 0.68
O 0.68
loop_
_atom_site_label
_atom_site_type_symbol
_atom_site_fract_x
_atom_site_fract_y
_atom_site_fract_z
C1 C 0.3736(3) -0.0622(2) -0.1214(3)
C2 C 0.3170(3) -0.1116(3) -0.0749(3)
H1 H 0.28890 -0.07510 -0.01390
C3 C 0.3018(3) -0.2138(3) -0.1177(3)
H2 H 0.26280 -0.24640 -0.08640
C4 C 0.3448(3) -0.2666(2) -0.2069(3)
C5 C 0.4012(4) -0.2201(3) -0.2537(3)
H3 H 0.42960 -0.25690 -0.31450
C6 C 0.4159(4) -0.1187(3) -0.2109(3)
H4 H 0.45550 -0.08720 -0.24290
C7 C 0.3915(4) 0.0467(3) -0.0804(3)
H5 H 0.43640 0.07060 -0.11680
C8 C 0.3535(3) 0.1135(3) -0.0010(3)
H6 H 0.30610 0.09060 0.03510
C9 C 0.3771(3) 0.2220(2) 0.0388(3)
C10 C 0.4506(4) 0.2674(3) -0.0045(3)
H7 H 0.48490 0.22840 -0.06260
C11 C 0.4740(4) 0.3697(3) 0.0371(3)
H8 H 0.52410 0.39790 0.00640
C12 C 0.4246(3) 0.4308(2) 0.1229(3)
C13 C 0.3507(3) 0.3854(3) 0.1658(3)
H9 H 0.31590 0.42410 0.22380
C14 C 0.3279(4) 0.2837(3) 0.1237(3)
H10 H 0.27690 0.25560 0.15410
C15 C 0.4537(4) 0.5390(3) 0.1638(3)
H11 H 0.52550 0.56090 0.14180
C16 C 0.3889(4) 0.6079(2) 0.2281(3)
H12 H 0.32090 0.58620 0.25340
C17 C 0.4132(4) 0.7170(2) 0.2645(2)
C18 C 0.5312(4) 0.7594(2) 0.2545(2)
H13 H 0.60010 0.72050 0.22860
C19 C 0.5458(3) 0.8611(2) 0.2836(2)
C20 C 0.4426(3) 0.9190(2) 0.3223(2)
C21 C 0.3264(3) 0.8757(2) 0.3335(2)
C22 C 0.3115(3) 0.7745(2) 0.3064(2)
H14 H 0.23440 0.74600 0.31640
C23 C 0.7682(4) 0.8582(3) 0.2406(3)
H15 H 0.79850 0.83300 0.28280
H16 H 0.83690 0.90190 0.23680
H17 H 0.74490 0.80390 0.17790
C24 C 0.4968(5) 1.0832(3) 0.4408(3)
H18 H 0.42630 1.08600 0.48020
H19 H 0.51980 1.14820 0.44750
H20 H 0.57180 1.06020 0.46050
C25 C 0.1055(4) 0.8992(3) 0.3770(3)
H21 H 0.07100 0.85220 0.31340
H22 H 0.04900 0.95200 0.40350
H23 H 0.11010 0.86670 0.41650
N1 N 0.3271(4) -0.3750(2) -0.2539(3)
O1 O 0.3736(4) -0.4211(2) -0.3294(3)
O2 O 0.2656(3) -0.4152(2) -0.2147(2)
O3 O 0.6564(2) 0.91115(16) 0.27639(18)
O4 O 0.4563(2) 1.01721(16) 0.34381(18)
O5 O 0.2327(3) 0.93866(17) 0.37336(19)
C26 C 0.0967(4) -0.2858(3) 0.0333(3)
C27 C -0.0010(4) -0.3290(3) -0.0419(3)
H24 H -0.06140 -0.28970 -0.04990
C28 C -0.0096(4) -0.4295(3) -0.1047(3)
H25 H -0.07450 -0.45830 -0.15500
C29 C 0.0801(4) -0.4850(3) -0.0904(3)
C30 C 0.1734(4) -0.4448(3) -0.0160(3)
H26 H 0.23130 -0.48490 -0.00670
C31 C 0.1822(4) -0.3461(3) 0.0449(3)
H27 H 0.24720 -0.31880 0.09520
C32 C 0.1173(4) -0.1779(3) 0.0980(3)
H28 H 0.18290 -0.15740 0.14760
C33 C 0.0552(4) -0.1098(3) 0.0936(3)
H29 H -0.01390 -0.13070 0.04650
C34 C 0.0808(4) -0.0012(2) 0.1551(3)
C35 C 0.1833(4) 0.0426(3) 0.2248(3)
H30 H 0.24060 0.00280 0.23530
C36 C 0.2025(4) 0.1443(3) 0.2794(3)
H31 H 0.27270 0.17150 0.32580
C37 C 0.1209(4) 0.2066(2) 0.2671(3)
C38 C 0.0196(4) 0.1621(3) 0.1954(3)
H32 H -0.03620 0.20190 0.18360
C39 C -0.0006(4) 0.0608(3) 0.1412(3)
H33 H -0.07030 0.03350 0.09440
C40 C 0.1459(4) 0.3142(3) 0.3250(3)
H34 H 0.22620 0.33670 0.36120
C41 C 0.0693(4) 0.3824(3) 0.3323(3)
H35 H -0.01400 0.36020 0.30070
C42 C 0.1004(4) 0.4909(2) 0.3852(2)
C43 C 0.2269(4) 0.5324(2) 0.4202(2)
H36 H 0.29400 0.49140 0.41250
C44 C 0.2550(4) 0.6346(3) 0.4669(2)
C45 C 0.1557(4) 0.6955(3) 0.4787(3)
C46 C 0.0288(4) 0.6541(3) 0.4426(3)
C47 C 0.0018(4) 0.5521(3) 0.3960(3)
H37 H -0.08360 0.52470 0.37170
C48 C 0.4864(4) 0.6251(3) 0.4801(3)
H38 H 0.48000 0.58060 0.50780
H39 H 0.56610 0.66830 0.50560
H40 H 0.48720 0.58750 0.41180
C49 C 0.1432(4) 0.8531(3) 0.6113(3)
H41 H 0.05030 0.85740 0.60530
H42 H 0.18800 0.91860 0.64000
H43 H 0.16110 0.82220 0.65100
C50 C -0.1893(4) 0.6837(4) 0.4149(4)
H44 H -0.18840 0.64250 0.34700
H45 H -0.24110 0.73810 0.42680
H46 H -0.22670 0.64530 0.44350
N2 N 0.0757(5) -0.5917(3) -0.1575(3)
O6 O 0.1644(5) -0.6366(3) -0.1491(3)
O7 O -0.0177(4) -0.6283(2) -0.2178(3)
O8 O 0.3779(3) 0.68214(17) 0.50252(18)
O9 O 0.1877(3) 0.79634(17) 0.5201(2)
O10 O -0.0619(3) 0.7201(2) 0.4543(2)
#END
