
#######################################################################
#
#                 Cambridge Crystallographic Data Centre
#                                CCDC
#
#######################################################################
#
# If this CIF has been generated from an entry in the Cambridge
# Structural Database, then it will include bibliographic, chemical,
# crystal, experimental, refinement or atomic coordinate data resulting
# from the CCDC's data processing and validation procedures.
#
#######################################################################

data_CSD_CIF_OMAZEI
_audit_creation_date 2011-05-17
_audit_creation_method CSD-ConQuest-V1
_database_code_CSD OMAZEI
_database_code_depnum_ccdc_archive 'CCDC 760977'
_chemical_formula_sum 'C24 H21 N1 O4'
_chemical_formula_moiety
;
C24 H21 N1 O4
;
_journal_coden_Cambridge 440
_journal_volume 35
_journal_year 2011
_journal_page_first 649
_journal_name_full 'New J.Chem. '
loop_
_publ_author_name
"A.Collas"
"R.De Borger"
"T.Amanova"
"C.M.L.V.Velde"
"J.K.Baeke"
"R.Dommisse"
"C.Van Alsenoy"
"F.Blockhuys"
_chemical_name_systematic
;
(E,E)-1-[2-(4-nitrophenyl)ethenyl]-4-[2-(3,5-dimethoxyphenyl)ethenyl]benzene
;
_cell_volume    966.407
_exptl_crystal_colour 'red'
_exptl_crystal_density_diffrn 1.331
_exptl_crystal_description 'prism'
_diffrn_ambient_temperature 293
#These two values have been output from a single CSD field.
_refine_ls_R_factor_gt 0.0594
_refine_ls_wR_factor_gt 0.0594
_symmetry_cell_setting monoclinic
_symmetry_space_group_name_H-M 'P 21'
_symmetry_Int_Tables_number 4
loop_
_symmetry_equiv_pos_site_id
_symmetry_equiv_pos_as_xyz
1 x,y,z
2 -x,1/2+y,-z
_cell_length_a 7.219(2)
_cell_length_b 7.402(2)
_cell_length_c 18.163(5)
_cell_angle_alpha 90
_cell_angle_beta 95.29(3)
_cell_angle_gamma 90
_cell_formula_units_Z 2
loop_
_atom_type_symbol
_atom_type_radius_bond
C 0.68
H 0.23
N 0.68
O 0.68
loop_
_atom_site_label
_atom_site_type_symbol
_atom_site_fract_x
_atom_site_fract_y
_atom_site_fract_z
C1 C -0.1188(6) 0.6404(6) -0.1466(2)
C2 C -0.0708(7) 0.5547(8) -0.2112(2)
H1 H 0.04990 0.51250 -0.21370
C3 C -0.2007(7) 0.5326(7) -0.2708(2)
H2 H -0.16940 0.47410 -0.31330
C4 C -0.3781(6) 0.5984(7) -0.2667(2)
C5 C -0.4271(7) 0.6882(7) -0.2051(2)
H3 H -0.54680 0.73370 -0.20370
C6 C -0.2986(7) 0.7097(7) -0.1463(2)
H4 H -0.33100 0.77200 -0.10490
C7 C 0.0074(7) 0.6615(7) -0.0795(2)
H5 H -0.03380 0.73480 -0.04280
C8 C 0.1745(6) 0.5876(7) -0.0652(2)
H6 H 0.21870 0.51730 -0.10220
C9 C 0.2950(6) 0.6068(6) 0.0034(2)
C10 C 0.2398(6) 0.6879(7) 0.0675(2)
H7 H 0.11980 0.73360 0.06760
C11 C 0.3600(7) 0.7009(7) 0.1302(2)
H8 H 0.31920 0.75510 0.17200
C12 C 0.5418(6) 0.6354(6) 0.13317(19)
C13 C 0.5973(6) 0.5552(7) 0.0690(2)
H9 H 0.71770 0.51080 0.06880
C14 C 0.4756(6) 0.5412(7) 0.0059(2)
H10 H 0.51560 0.48650 -0.03590
C15 C 0.6605(6) 0.6501(7) 0.2029(2)
H11 H 0.60590 0.70200 0.24220
C16 C 0.8349(6) 0.5988(7) 0.2167(2)
H12 H 0.89300 0.55180 0.17720
C17 C 0.9470(6) 0.6087(6) 0.28868(19)
C18 C 0.8731(6) 0.6754(7) 0.3513(2)
H13 H 0.75280 0.72150 0.34790
C19 C 0.9791(6) 0.6729(6) 0.41875(19)
C20 C 1.1629(6) 0.6145(7) 0.4243(2)
H14 H 1.23550 0.61890 0.46930
C21 C 1.2358(6) 0.5498(6) 0.3618(2)
C22 C 1.1273(6) 0.5461(7) 0.2939(2)
H15 H 1.17710 0.50120 0.25220
C23 C 0.9746(7) 0.6829(7) 0.5506(2)
H16 H 0.90040 0.73070 0.58720
H17 H 1.09790 0.73240 0.55780
H18 H 0.98090 0.55370 0.55500
C24 C 1.5163(6) 0.4622(9) 0.4317(2)
H19 H 1.63630 0.41260 0.42470
H20 H 1.45260 0.38340 0.46290
H21 H 1.53140 0.57890 0.45450
N1 N -0.5193(7) 0.5724(7) -0.3292(2)
O1 O -0.6782(6) 0.6147(9) -0.3213(2)
O2 O -0.4686(7) 0.5095(8) -0.3861(2)
O3 O 0.8923(4) 0.7303(6) 0.47835(14)
O4 O 1.4098(4) 0.4796(6) 0.36147(16)
#END
