
#######################################################################
#
#                 Cambridge Crystallographic Data Centre
#                                CCDC
#
#######################################################################
#
# If this CIF has been generated from an entry in the Cambridge
# Structural Database, then it will include bibliographic, chemical,
# crystal, experimental, refinement or atomic coordinate data resulting
# from the CCDC's data processing and validation procedures.
#
#######################################################################

data_CSD_CIF_OMEJUM
_audit_creation_date 2011-05-17
_audit_creation_method CSD-ConQuest-V1
_database_code_CSD OMEJUM
_database_code_depnum_ccdc_archive 'CCDC 795107'
_chemical_formula_sum 'C13 H15 N1 O2'
_chemical_formula_moiety
;
C13 H15 N1 O2
;
_journal_coden_Cambridge 917
_journal_volume 7
_journal_year 2011
_journal_page_first 127
_journal_name_full 'Beilstein J.Org.Chem. '
loop_
_publ_author_name
"A.G.Griesbeck"
"M.Franke"
"J.Neudorfl"
"H.Kotaka"
_chemical_name_systematic
;
exo-1,4,5-Trimethyl-6-phenyl-2,7-dioxa-3-azabicyclo[3.2.0]hept-3-ene
;
_cell_volume   1129.322
_exptl_crystal_colour 'colorless'
_exptl_crystal_density_diffrn 1.278
_exptl_crystal_description 'prism'
_diffrn_ambient_temperature 100
#These two values have been output from a single CSD field.
_refine_ls_R_factor_gt 0.0371
_refine_ls_wR_factor_gt 0.0371
_symmetry_cell_setting monoclinic
_symmetry_space_group_name_H-M 'P 21/c'
_symmetry_Int_Tables_number 14
loop_
_symmetry_equiv_pos_site_id
_symmetry_equiv_pos_as_xyz
1 x,y,z
2 -x,1/2+y,1/2-z
3 -x,-y,-z
4 x,-1/2-y,-1/2+z
_cell_length_a 9.3804(6)
_cell_length_b 14.8345(10)
_cell_length_c 9.080(6)
_cell_angle_alpha 90
_cell_angle_beta 116.646(3)
_cell_angle_gamma 90
_cell_formula_units_Z 4
loop_
_atom_type_symbol
_atom_type_radius_bond
C 0.68
H 0.23
N 0.68
O 0.68
loop_
_atom_site_label
_atom_site_type_symbol
_atom_site_fract_x
_atom_site_fract_y
_atom_site_fract_z
O1 O 0.60368(9) 0.04206(5) 0.81915(10)
O2 O 0.47836(9) 0.17347(5) 0.66656(10)
N1 N 0.53183(12) -0.02843(6) 0.69911(12)
C1 C 0.38133(14) -0.01587(8) 0.62496(14)
C2 C 0.32536(14) 0.06899(7) 0.67436(14)
C3 C 0.48674(14) 0.10955(8) 0.79127(14)
C4 C 0.31505(13) 0.14680(7) 0.55453(14)
H1 H 0.30840 0.12250 0.44890
C5 C 0.19306(14) 0.21986(7) 0.52251(14)
C6 C 0.23236(14) 0.30132(8) 0.60757(14)
H2 H 0.33850 0.31180 0.68910
C7 C 0.11694(14) 0.36724(8) 0.57358(15)
H3 H 0.14500 0.42300 0.63100
C8 C -0.03870(14) 0.35249(8) 0.45684(15)
H4 H -0.11760 0.39750 0.43530
C9 C -0.07884(15) 0.27125(8) 0.37129(16)
H5 H -0.18550 0.26070 0.29100
C10 C 0.03652(14) 0.20576(8) 0.40297(15)
H6 H 0.00890 0.15080 0.34290
C11 C 0.52265(15) 0.15420(8) 0.95251(15)
H7 H 0.51640 0.10950 1.02890
H8 H 0.44480 0.20220 0.93450
H9 H 0.63020 0.18000 0.99940
C12 C 0.19402(14) 0.05642(8) 0.72774(15)
H10 H 0.09860 0.03200 0.63570
H11 H 0.16850 0.11470 0.76090
H12 H 0.23050 0.01450 0.82100
C13 C 0.27589(14) -0.07928(8) 0.49437(15)
H13 H 0.34130 -0.12460 0.47450
H14 H 0.21340 -0.04570 0.39250
H15 H 0.20360 -0.10920 0.53020
#END
