
#######################################################################
#
#                 Cambridge Crystallographic Data Centre
#                                CCDC
#
#######################################################################
#
# If this CIF has been generated from an entry in the Cambridge
# Structural Database, then it will include bibliographic, chemical,
# crystal, experimental, refinement or atomic coordinate data resulting
# from the CCDC's data processing and validation procedures.
#
#######################################################################

data_CSD_CIF_OMEJOG
_audit_creation_date 2011-05-17
_audit_creation_method CSD-ConQuest-V1
_database_code_CSD OMEJOG
_database_code_depnum_ccdc_archive 'CCDC 763982'
_chemical_formula_sum 'C9 H6 N2 O3'
_chemical_formula_moiety
;
C9 H6 N2 O3
;
_journal_coden_Cambridge 917
_journal_volume 6
_journal_year 2010
_journal_page_first 68
_journal_name_full 'Beilstein J.Org.Chem. '
loop_
_publ_author_name
"Henning Hopf"
"A.E.Mourad"
"P.G.Jones"
_chemical_name_systematic
;
4-Nitro-3-phenyl-1,2-oxazole
;
_cell_volume    812.847
_exptl_crystal_colour 'colorless'
_exptl_crystal_density_diffrn 1.554
_exptl_crystal_description 'prism'
_diffrn_ambient_temperature 100
#These two values have been output from a single CSD field.
_refine_ls_R_factor_gt 0.0348
_refine_ls_wR_factor_gt 0.0348
_symmetry_cell_setting monoclinic
_symmetry_space_group_name_H-M 'P 21/c'
_symmetry_Int_Tables_number 14
loop_
_symmetry_equiv_pos_site_id
_symmetry_equiv_pos_as_xyz
1 x,y,z
2 -x,1/2+y,1/2-z
3 -x,-y,-z
4 x,-1/2-y,-1/2+z
_cell_length_a 12.1621(7)
_cell_length_b 5.6566(3)
_cell_length_c 12.0633(8)
_cell_angle_alpha 90
_cell_angle_beta 101.638(6)
_cell_angle_gamma 90
_cell_formula_units_Z 4
loop_
_atom_type_symbol
_atom_type_radius_bond
C 0.68
H 0.23
N 0.68
O 0.68
loop_
_atom_site_label
_atom_site_type_symbol
_atom_site_fract_x
_atom_site_fract_y
_atom_site_fract_z
O1 O 0.17231(7) 0.52655(15) 0.47930(7)
N1 N 0.24294(8) 0.55282(18) 0.39877(9)
C1 C 0.22255(9) 0.3691(2) 0.33149(10)
C2 C 0.14001(9) 0.2233(2) 0.36569(10)
C3 C 0.11324(10) 0.3282(2) 0.45684(11)
H1 H 0.06050 0.26990 0.49850
N2 N 0.08663(8) 0.01524(18) 0.31169(9)
O2 O 0.11106(7) -0.04947(15) 0.22253(8)
O3 O 0.01800(7) -0.08430(16) 0.35750(8)
C4 C 0.28801(9) 0.3362(2) 0.24169(10)
C5 C 0.28805(9) 0.5105(2) 0.16034(10)
H2 H 0.24340 0.64840 0.16010
C6 C 0.35355(9) 0.4821(2) 0.07955(10)
H3 H 0.35280 0.59950 0.02310
C7 C 0.4201(1) 0.2825(2) 0.0811(1)
H4 H 0.46550 0.26460 0.02610
C8 C 0.42071(9) 0.1092(2) 0.16239(11)
H5 H 0.46690 -0.02660 0.16340
C9 C 0.35403(9) 0.1338(2) 0.2421(1)
H6 H 0.35310 0.01350 0.29690
#END
