
#######################################################################
#
#                 Cambridge Crystallographic Data Centre
#                                CCDC
#
#######################################################################
#
# If this CIF has been generated from an entry in the Cambridge
# Structural Database, then it will include bibliographic, chemical,
# crystal, experimental, refinement or atomic coordinate data resulting
# from the CCDC's data processing and validation procedures.
#
#######################################################################

data_CSD_CIF_OMEKAT
_audit_creation_date 2011-05-17
_audit_creation_method CSD-ConQuest-V1
_database_code_CSD OMEKAT
_database_code_depnum_ccdc_archive 'CCDC 795108'
_chemical_formula_sum 'C14 H17 N1 O2'
_chemical_formula_moiety
;
C14 H17 N1 O2
;
_journal_coden_Cambridge 917
_journal_volume 7
_journal_year 2011
_journal_page_first 127
_journal_name_full 'Beilstein J.Org.Chem. '
loop_
_publ_author_name
"A.G.Griesbeck"
"M.Franke"
"J.Neudorfl"
"H.Kotaka"
_chemical_name_systematic
;
exo-1,4,5-Trimethyl-6-(4-methylphenyl)-2,7-dioxa-3-azabicyclo[3.2.0]hept-3-ene
;
_cell_volume   1225.545
_exptl_crystal_colour 'colorless'
_exptl_crystal_density_diffrn 1.254
_exptl_crystal_description 'prism'
_diffrn_ambient_temperature 100
#These two values have been output from a single CSD field.
_refine_ls_R_factor_gt 0.0422
_refine_ls_wR_factor_gt 0.0422
_symmetry_cell_setting monoclinic
_symmetry_space_group_name_H-M 'P 21/c'
_symmetry_Int_Tables_number 14
loop_
_symmetry_equiv_pos_site_id
_symmetry_equiv_pos_as_xyz
1 x,y,z
2 -x,1/2+y,1/2-z
3 -x,-y,-z
4 x,-1/2-y,-1/2+z
_cell_length_a 17.196(2)
_cell_length_b 5.9199(4)
_cell_length_c 12.807(2)
_cell_angle_alpha 90
_cell_angle_beta 109.944(4)
_cell_angle_gamma 90
_cell_formula_units_Z 4
loop_
_atom_type_symbol
_atom_type_radius_bond
C 0.68
H 0.23
N 0.68
O 0.68
loop_
_atom_site_label
_atom_site_type_symbol
_atom_site_fract_x
_atom_site_fract_y
_atom_site_fract_z
O1 O 0.36065(7) 0.20230(18) 0.07928(10)
O2 O 0.23138(7) 0.14746(17) 0.10587(10)
N1 N 0.41415(9) 0.3211(2) 0.17525(13)
C1 C 0.40473(10) 0.2392(2) 0.26231(16)
C2 C 0.34016(10) 0.0568(2) 0.24020(14)
C3 C 0.31044(10) 0.0466(3) 0.11446(15)
C4 C 0.25303(10) 0.1582(3) 0.22596(14)
H1 H 0.25810 0.31870 0.25180
C5 C 0.19495(10) 0.0296(2) 0.26894(14)
C6 C 0.15951(10) -0.1752(3) 0.22298(14)
H2 H 0.17090 -0.23590 0.16110
C7 C 0.10765(10) -0.2909(3) 0.26696(15)
H3 H 0.08430 -0.43070 0.23490
C8 C 0.08921(10) -0.2067(3) 0.35683(15)
C9 C 0.12381(10) -0.0019(3) 0.40155(15)
H4 H 0.11180 0.05950 0.46290
C10 C 0.17584(10) 0.1150(2) 0.35805(14)
H5 H 0.19870 0.25560 0.38980
C11 C 0.03417(11) -0.3366(3) 0.40617(16)
H6 H -0.01410 -0.39440 0.34620
H7 H 0.01580 -0.23620 0.45400
H8 H 0.06520 -0.46330 0.45020
C12 C 0.30129(11) -0.1659(3) 0.04757(16)
H9 H 0.27700 -0.12980 -0.03170
H10 H 0.26510 -0.27150 0.06820
H11 H 0.35580 -0.23520 0.06240
C13 C 0.36913(10) -0.1523(3) 0.31109(15)
H12 H 0.42200 -0.20300 0.30600
H13 H 0.32780 -0.27240 0.28450
H14 H 0.37630 -0.11680 0.38860
C14 C 0.45660(11) 0.3144(3) 0.37539(15)
H15 H 0.49170 0.18910 0.41470
H16 H 0.42080 0.36240 0.41660
H17 H 0.49150 0.44110 0.36940
#END
