
#######################################################################
#
#                 Cambridge Crystallographic Data Centre
#                                CCDC
#
#######################################################################
#
# If this CIF has been generated from an entry in the Cambridge
# Structural Database, then it will include bibliographic, chemical,
# crystal, experimental, refinement or atomic coordinate data resulting
# from the CCDC's data processing and validation procedures.
#
#######################################################################

data_CSD_CIF_OMEVEH
_audit_creation_date 2004-03-18
_audit_creation_method CSD-ConQuest-V1
_database_code_CSD OMEVEH
_database_code_depnum_ccdc_archive 'CCDC 204291'
_chemical_formula_sum 'C8 H6 N2 O3'
_chemical_formula_moiety
;
C8 H6 N2 O3
;
_journal_coden_Cambridge 35
_journal_volume 68
_journal_year 2003
_journal_page_first 9093
_journal_name_full 'J.Org.Chem. '
loop_
_publ_author_name
"A.R.Katritzky"
"Zuoquan Wang"
"C.D.Hall"
"N.G.Akhmedov"
"A.A.Shestopalov"
"P.J.Steel"
_chemical_name_systematic
;
N-Methyl-N-(5-oxo-2,1-benzisoxazole-4(5H)-ylidene)amine N-oxide
;
_chemical_melting_point 413.15
_cell_volume    382.637
_exptl_crystal_colour 'green-yellow'
_exptl_crystal_density_diffrn 1.546
_exptl_special_details
;
Melting point range 413.15-414.15K

;
_exptl_crystal_description 'block'
_diffrn_ambient_temperature 168
#These two values have been output from a single CSD field.
_refine_ls_R_factor_gt 0.0311
_refine_ls_wR_factor_gt 0.0311
_symmetry_cell_setting monoclinic
_symmetry_space_group_name_H-M 'P 21'
_symmetry_Int_Tables_number 4
loop_
_symmetry_equiv_pos_site_id
_symmetry_equiv_pos_as_xyz
1 x,y,z
2 -x,1/2+y,-z
_cell_length_a 4.009(3)
_cell_length_b 6.794(6)
_cell_length_c 14.123(12)
_cell_angle_alpha 90
_cell_angle_beta 95.894(10)
_cell_angle_gamma 90
_cell_formula_units_Z 2
loop_
_atom_type_symbol
_atom_type_radius_bond
C 0.68
H 0.23
N 0.68
O 0.68
loop_
_atom_site_label
_atom_site_type_symbol
_atom_site_fract_x
_atom_site_fract_y
_atom_site_fract_z
C1 C 0.1488(4) 0.1092(3) 0.09562(12)
H1 H 0.04420 0.11180 0.03220
O1 O 0.1997(3) 0.40511(18) 0.30579(9)
C2 C 0.5142(4) -0.0622(2) 0.22479(11)
O2 O 0.8391(3) -0.05192(19) 0.39945(8)
C3 C 0.1120(4) 0.2575(3) 0.15483(12)
H2 H -0.01910 0.36670 0.13110
N1 N 0.6431(3) 0.0917(2) 0.37639(9)
C4 C 0.4784(4) 0.0988(2) 0.28925(10)
C5 C 0.3530(4) -0.0567(2) 0.13044(11)
C6 C 0.2604(4) 0.2654(2) 0.25540(11)
N2 N 0.4079(4) -0.2134(2) 0.08137(10)
O3 O 0.6178(3) -0.33172(18) 0.14432(9)
C7 C 0.6213(5) 0.2428(3) 0.45043(13)
H3 H 0.75170 0.20050 0.50940
H4 H 0.38640 0.26100 0.46200
H5 H 0.71150 0.36740 0.42910
C8 C 0.6775(4) -0.2382(2) 0.22899(12)
H6 H 0.81240 -0.28760 0.28300
#END
