
#######################################################################
#
#                 Cambridge Crystallographic Data Centre
#                                CCDC
#
#######################################################################
#
# If this CIF has been generated from an entry in the Cambridge
# Structural Database, then it will include bibliographic, chemical,
# crystal, experimental, refinement or atomic coordinate data resulting
# from the CCDC's data processing and validation procedures.
#
#######################################################################

data_CSD_CIF_OMEXIN
_audit_creation_date 2004-03-18
_audit_creation_method CSD-ConQuest-V1
_database_code_CSD OMEXIN
_database_code_depnum_ccdc_archive 'CCDC 226475'
_chemical_formula_sum 'C8 H11 N1 O4'
_chemical_formula_moiety
;
C8 H11 N1 O4
;
_journal_coden_Cambridge 35
_journal_volume 68
_journal_year 2003
_journal_page_first 9233
_journal_name_full 'J.Org.Chem. '
loop_
_publ_author_name
"N.C.Lim"
"M.D.Morton"
"H.A.Jenkins"
"C.Bruckner"
_chemical_name_systematic
;
3-Methoxy-4-(N-isopropylhydroxyamino)cyclobut-3-ene-1,2-dione
;
_chemical_melting_point 421
_cell_volume   1684.018
_exptl_crystal_colour 'white'
_exptl_crystal_density_diffrn 1.461
_exptl_special_details
;
Melts with decomposition.

;
_diffrn_ambient_temperature 291
#These two values have been output from a single CSD field.
_refine_ls_R_factor_gt 0.0449
_refine_ls_wR_factor_gt 0.0449
_symmetry_cell_setting monoclinic
_symmetry_space_group_name_H-M 'C 2/c'
_symmetry_Int_Tables_number 15
loop_
_symmetry_equiv_pos_site_id
_symmetry_equiv_pos_as_xyz
1 x,y,z
2 1/2+x,1/2+y,z
3 x,-y,1/2+z
4 1/2+x,1/2-y,1/2+z
5 -x,-y,-z
6 -1/2-x,-1/2-y,-z
7 -x,y,-1/2-z
8 -1/2-x,-1/2+y,-1/2-z
_cell_length_a 29.730(16)
_cell_length_b 4.577(2)
_cell_length_c 13.538(7)
_cell_angle_alpha 90
_cell_angle_beta 113.915(8)
_cell_angle_gamma 90
_cell_formula_units_Z 8
loop_
_atom_type_symbol
_atom_type_radius_bond
C 0.68
H 0.23
N 0.68
O 0.68
loop_
_atom_site_label
_atom_site_type_symbol
_atom_site_fract_x
_atom_site_fract_y
_atom_site_fract_z
O1 O 0.38622(5) 0.3065(3) 0.51082(10)
H1 H 0.40190 0.27020 0.57510
O2 O 0.46329(5) 0.2597(3) 0.41941(11)
O3 O 0.43515(5) -0.1691(4) 0.21439(11)
O4 O 0.34679(6) -0.4139(3) 0.26619(12)
N1 N 0.37048(5) 0.0507(3) 0.45482(12)
C1 C 0.39018(7) -0.0185(4) 0.38955(14)
C2 C 0.42988(7) 0.0684(4) 0.37012(15)
C3 C 0.41885(7) -0.1218(4) 0.28142(15)
C4 C 0.37731(7) -0.2333(4) 0.30240(15)
C5 C 0.32297(7) -0.0577(4) 0.44339(16)
H2 H 0.31770 -0.24610 0.40600
C6 C 0.28311(8) 0.1408(6) 0.3761(2)
H3 H 0.28450 0.16570 0.30700
H4 H 0.28710 0.32690 0.41120
H5 H 0.25190 0.05860 0.36620
C7 C 0.32301(9) -0.1105(6) 0.55128(18)
H6 H 0.34950 -0.24020 0.59150
H7 H 0.29230 -0.19710 0.54310
H8 H 0.32730 0.07160 0.58920
C8 C 0.50125(8) 0.2881(5) 0.38187(18)
H9 H 0.52410 0.43560 0.42320
H10 H 0.48720 0.34300 0.30700
H11 H 0.51810 0.10500 0.39000
#END
