
#######################################################################
#
#                 Cambridge Crystallographic Data Centre
#                                CCDC
#
#######################################################################
#
# If this CIF has been generated from an entry in the Cambridge
# Structural Database, then it will include bibliographic, chemical,
# crystal, experimental, refinement or atomic coordinate data resulting
# from the CCDC's data processing and validation procedures.
#
#######################################################################

data_CSD_CIF_OMINEF
_audit_creation_date 2016-05-16
_audit_creation_method CSD-ConQuest-V1
_database_code_CSD OMINEF
_database_code_depnum_ccdc_archive 'CCDC 1438818'
_chemical_formula_sum 'C19 H15 N3 O2'
_chemical_formula_moiety
;
C19 H15 N3 O2
;
_journal_coden_Cambridge 1127
_journal_volume 26
_journal_year 2016
_journal_page_first 2214
_journal_name_full 'Bioorg.Med.Chem.Lett. '
loop_
_publ_author_name
"Z.V.Chirkova"
"M.V.Kabanova"
"S.I.Filimonov"
"I.G.Abramov"
"A.Petzer"
"J.P.Petzer"
"K.Yu.Suponitsky"
_chemical_name_systematic
;
3-(Hydroxymethyl)-1-methoxy-2-(4-methylphenyl)-1H-indole-5,6-dicarbonitrile
;
_cell_volume    782.738
_exptl_crystal_colour 'pale yellow'
_exptl_crystal_density_diffrn 1.346
_exptl_special_details
;
MAO inhibitor activity

;
_exptl_crystal_description 'prism'
_diffrn_ambient_temperature 120
#These two values have been output from a single CSD field.
_refine_ls_R_factor_gt 0.0469
_refine_ls_wR_factor_gt 0.0469
_symmetry_cell_setting triclinic
_symmetry_space_group_name_H-M 'P -1'
_symmetry_Int_Tables_number 2
loop_
_symmetry_equiv_pos_site_id
_symmetry_equiv_pos_as_xyz
1 x,y,z
2 -x,-y,-z
_cell_length_a 7.4667(5)
_cell_length_b 9.8949(7)
_cell_length_c 11.3418(8)
_cell_angle_alpha 74.417(2)
_cell_angle_beta 76.213(1)
_cell_angle_gamma 83.399(2)
_cell_formula_units_Z 2
loop_
_atom_type_symbol
_atom_type_radius_bond
C 0.68
H 0.23
N 0.68
O 0.68
loop_
_atom_site_label
_atom_site_type_symbol
_atom_site_fract_x
_atom_site_fract_y
_atom_site_fract_z
O1 O 0.24924(19) 0.27801(13) 0.16360(12)
O2 O 0.65155(16) 0.70955(12) 0.21325(11)
N1 N 0.55666(18) 0.58764(13) 0.24883(12)
N2 N 0.6341(2) -0.00753(15) 0.68398(14)
N3 N 0.9948(2) 0.27908(15) 0.62520(14)
C1 C 0.3510(2) 0.43101(16) 0.27057(14)
C2 C 0.4650(2) 0.37555(16) 0.35906(14)
C3 C 0.4710(2) 0.25013(16) 0.45131(14)
H1 H 0.38370 0.18140 0.46660
C4 C 0.6067(2) 0.22792(15) 0.52001(14)
C5 C 0.7362(2) 0.33122(16) 0.50008(14)
C6 C 0.7294(2) 0.45828(16) 0.41170(14)
H2 H 0.81310 0.52890 0.39900
C7 C 0.5941(2) 0.47699(15) 0.34278(14)
C8 C 0.4118(2) 0.56207(16) 0.20228(14)
C9 C 0.3478(2) 0.66105(16) 0.09633(14)
C10 C 0.2883(2) 0.60826(16) 0.01049(15)
H3 H 0.29190 0.50960 0.02050
C11 C 0.2242(2) 0.69825(17) -0.08907(15)
H4 H 0.18250 0.66010 -0.14560
C12 C 0.2198(2) 0.84361(17) -0.10808(15)
C13 C 0.2816(2) 0.89545(17) -0.02296(16)
H5 H 0.28110 0.99420 -0.03450
C14 C 0.3437(2) 0.80678(17) 0.07808(15)
H6 H 0.38370 0.84510 0.13520
C15 C 0.1944(2) 0.35624(17) 0.25609(15)
H7 H 0.14320 0.29180 0.33770
H8 H 0.09490 0.42670 0.23330
C16 C 0.6205(2) 0.09703(16) 0.61233(15)
C17 C 0.8788(2) 0.30247(16) 0.57096(15)
C18 C 0.8184(2) 0.69830(18) 0.11849(17)
H9 H 0.89740 0.77500 0.10820
H10 H 0.78520 0.70430 0.03860
H11 H 0.88500 0.60800 0.14480
C19 C 0.1485(3) 0.94023(19) -0.21667(17)
H12 H 0.20280 1.03170 -0.23850
H13 H 0.01370 0.95260 -0.19290
H14 H 0.18260 0.89920 -0.28910
H15 H 0.304(4) 0.190(3) 0.202(3)
#END
