
#######################################################################
#
#                 Cambridge Crystallographic Data Centre
#                                CCDC
#
#######################################################################
#
# If this CIF has been generated from an entry in the Cambridge
# Structural Database, then it will include bibliographic, chemical,
# crystal, experimental, refinement or atomic coordinate data resulting
# from the CCDC's data processing and validation procedures.
#
#######################################################################

data_CSD_CIF_OMINIJ
_audit_creation_date 2016-05-16
_audit_creation_method CSD-ConQuest-V1
_database_code_CSD OMINIJ
_database_code_depnum_ccdc_archive 'CCDC 1438819'
_chemical_formula_sum 'C16 H10 N2 O5'
_chemical_formula_moiety
;
C16 H10 N2 O5
;
_journal_coden_Cambridge 1127
_journal_volume 26
_journal_year 2016
_journal_page_first 2214
_journal_name_full 'Bioorg.Med.Chem.Lett. '
loop_
_publ_author_name
"Z.V.Chirkova"
"M.V.Kabanova"
"S.I.Filimonov"
"I.G.Abramov"
"A.Petzer"
"J.P.Petzer"
"K.Yu.Suponitsky"
_chemical_name_systematic
;
5-Nitro-6-(2-oxo-2-phenylethyl)-1H-isoindole-1,3(2H)-dione
;
_cell_volume   1307.418
_exptl_crystal_colour 'pale yellow'
_exptl_crystal_density_diffrn 1.576
_exptl_special_details
;
MAO inhibitor activity

;
_exptl_crystal_description 'plate'
_diffrn_ambient_temperature 120
#These two values have been output from a single CSD field.
_refine_ls_R_factor_gt 0.0836
_refine_ls_wR_factor_gt 0.0836
_symmetry_cell_setting monoclinic
_symmetry_space_group_name_H-M 'P 21/n'
_symmetry_Int_Tables_number 14
loop_
_symmetry_equiv_pos_site_id
_symmetry_equiv_pos_as_xyz
1 x,y,z
2 1/2-x,1/2+y,1/2-z
3 -x,-y,-z
4 -1/2+x,-1/2-y,-1/2+z
_cell_length_a 7.685(10)
_cell_length_b 21.46(3)
_cell_length_c 8.176(11)
_cell_angle_alpha 90
_cell_angle_beta 104.16(2)
_cell_angle_gamma 90
_cell_formula_units_Z 4
loop_
_atom_type_symbol
_atom_type_radius_bond
C 0.68
H 0.23
N 0.68
O 0.68
loop_
_atom_site_label
_atom_site_type_symbol
_atom_site_fract_x
_atom_site_fract_y
_atom_site_fract_z
O1 O 0.4278(5) 0.31506(16) 0.3266(5)
O2 O 0.5630(4) 0.26998(16) 0.5571(5)
O3 O 0.2003(5) 0.04581(16) 0.5291(5)
O4 O -0.3294(4) 0.14624(16) 0.4595(5)
O5 O 0.3059(5) 0.37174(15) 0.6260(5)
N1 N -0.0847(5) 0.08292(19) 0.5050(5)
H1 H -0.13110 0.04460 0.50900
N2 N 0.4316(5) 0.28041(18) 0.4471(6)
C1 C 0.2651(6) 0.2485(2) 0.4522(6)
C2 C 0.2801(6) 0.1861(2) 0.4865(6)
H2 H 0.39300 0.16550 0.50850
C3 C 0.1278(6) 0.1547(2) 0.4879(6)
C4 C 0.0961(7) 0.0881(2) 0.5085(6)
C5 C -0.1728(7) 0.1388(2) 0.4756(6)
C6 C -0.0340(6) 0.1857(2) 0.4644(6)
C7 C -0.0467(6) 0.2482(2) 0.4331(7)
H3 H -0.15880 0.26880 0.41830
C8 C 0.1052(6) 0.2813(2) 0.4228(6)
C9 C 0.0894(6) 0.3487(2) 0.3759(7)
H4 H -0.03690 0.36160 0.36280
H5 H 0.11760 0.35350 0.26470
C10 C 0.2085(6) 0.3925(2) 0.4994(7)
C11 C 0.2054(6) 0.4591(2) 0.4587(7)
C12 C 0.1017(7) 0.4831(2) 0.3081(7)
H6 H 0.02800 0.45590 0.22860
C13 C 0.1049(7) 0.5450(2) 0.2737(8)
H7 H 0.03390 0.56100 0.17040
C14 C 0.2105(8) 0.5845(3) 0.3882(8)
H8 H 0.21090 0.62790 0.36530
C15 C 0.3156(8) 0.5612(2) 0.5360(8)
H9 H 0.39120 0.58830 0.61410
C16 C 0.3116(7) 0.4999(2) 0.5703(7)
H10 H 0.38350 0.48440 0.67380
#END
