
#######################################################################
#
#                 Cambridge Crystallographic Data Centre
#                                CCDC
#
#######################################################################
#
# If this CIF has been generated from an entry in the Cambridge
# Structural Database, then it will include bibliographic, chemical,
# crystal, experimental, refinement or atomic coordinate data resulting
# from the CCDC's data processing and validation procedures.
#
#######################################################################

data_CSD_CIF_OMIWIQ
_audit_creation_date 2004-03-18
_audit_creation_method CSD-ConQuest-V1
_database_code_CSD OMIWIQ
_database_code_depnum_ccdc_archive 'CCDC 227006'
_chemical_formula_sum 'C6 H3 N5 O6'
_chemical_formula_moiety
;
C6 H3 N5 O6
;
_journal_coeditor_code "IUCr CV6220"
_journal_coden_Cambridge 1370
_journal_volume 59
_journal_year 2003
_journal_page_first o1780
_journal_name_full 'Acta Crystallogr.,Sect.E:Struct.Rep.Online '
loop_
_publ_author_name
"R.J.Butcher"
"J.C.Bottaro"
"R.Gilardi"
_chemical_name_systematic
;
1,3,4-Trinitro-7,8-diazapentalene
;
_cell_volume    875.804
_exptl_crystal_colour 'red'
_exptl_crystal_density_diffrn 1.829
_exptl_crystal_description 'chunk'
_diffrn_ambient_temperature 93
#These two values have been output from a single CSD field.
_refine_ls_R_factor_gt 0.0479
_refine_ls_wR_factor_gt 0.0479
_symmetry_cell_setting orthorhombic
_symmetry_space_group_name_H-M 'P c 21 b'
_symmetry_Int_Tables_number 29
loop_
_symmetry_equiv_pos_site_id
_symmetry_equiv_pos_as_xyz
1 x,y,z
2 -x,1/2+y,-z
3 -x,y,1/2+z
4 x,1/2+y,1/2-z
_cell_length_a 7.0098(15)
_cell_length_b 9.363(2)
_cell_length_c 13.344(3)
_cell_angle_alpha 90
_cell_angle_beta 90
_cell_angle_gamma 90
_cell_formula_units_Z 4
loop_
_atom_type_symbol
_atom_type_radius_bond
C 0.68
H 0.23
N 0.68
O 0.68
loop_
_atom_site_label
_atom_site_type_symbol
_atom_site_fract_x
_atom_site_fract_y
_atom_site_fract_z
C1 C -0.0210(6) 1.1250(5) 0.5789(3)
N1 N 0.0540(5) 1.2135(4) 0.5012(3)
O1 O -0.0596(5) 1.2597(4) 0.4384(3)
O2 O 0.2252(4) 1.2397(4) 0.5033(3)
C2 C 0.0634(6) 1.0841(5) 0.6673(3)
H1 H 0.18840 1.10670 0.68970
C3 C -0.0710(6) 1.0033(5) 0.7165(3)
N2 N -0.0744(5) 0.9723(4) 0.8205(3)
O3 O 0.0808(5) 0.9590(4) 0.8621(2)
O4 O -0.2306(4) 0.9651(4) 0.8632(2)
C4 C -0.4099(6) 0.9341(5) 0.6507(3)
N3 N -0.4639(5) 0.8143(4) 0.7092(3)
O5 O -0.3388(4) 0.7534(4) 0.7570(3)
O6 O -0.6315(5) 0.7768(4) 0.7045(3)
C5 C -0.4948(6) 0.9825(5) 0.5614(3)
H2 H -0.61930 0.96030 0.53790
C6 C -0.3633(6) 1.0679(5) 0.5149(3)
H3 H -0.38050 1.11590 0.45280
N4 N -0.2042(5) 1.0722(4) 0.5725(3)
N5 N -0.2325(5) 0.9916(4) 0.6578(3)
#END
