
#######################################################################
#
#                 Cambridge Crystallographic Data Centre
#                                CCDC
#
#######################################################################
#
# If this CIF has been generated from an entry in the Cambridge
# Structural Database, then it will include bibliographic, chemical,
# crystal, experimental, refinement or atomic coordinate data resulting
# from the CCDC's data processing and validation procedures.
#
#######################################################################

data_CSD_CIF_OMIWIQ02
_audit_creation_date 2016-10-28
_audit_creation_method CSD-ConQuest-V1
_database_code_CSD OMIWIQ02
_database_code_depnum_ccdc_archive 'CCDC 1423853'
_chemical_formula_sum 'C6 H3 N5 O6'
_chemical_formula_moiety
;
C6 H3 N5 O6
;
_journal_coden_Cambridge 1870
_journal_volume 2
_journal_year 2016
_journal_page_first e1600192
_journal_name_full 'Sci. Adv. '
loop_
_publ_author_name
"M.Woinska"
"S.Grabowsky"
"P.M.Dominiak"
"K.Wozniak"
"D.Jayatilaka"
_chemical_name_systematic
;
1,3,4-Trinitro-7,8-diazapentalene
;
_cell_volume    871.776
_exptl_crystal_description 'prism'
_diffrn_ambient_temperature 90
_refine_special_details
;
Hirshfeld atom refinement (HAR)

;
#These two values have been output from a single CSD field.
_refine_ls_R_factor_gt 0.025
_refine_ls_wR_factor_gt 0.025
loop_
_citation_database_id_CSD
_citation_special_details
OMIWIQ01 "is reinterpreted by this entry"
_symmetry_cell_setting orthorhombic
_symmetry_space_group_name_H-M 'P c a 21'
_symmetry_Int_Tables_number 29
loop_
_symmetry_equiv_pos_site_id
_symmetry_equiv_pos_as_xyz
1 x,y,z
2 -x,-y,1/2+z
3 1/2-x,y,1/2+z
4 1/2+x,-y,z
_cell_length_a 13.3229(3)
_cell_length_b 7.0005(1)
_cell_length_c 9.3471(2)
_cell_angle_alpha 90
_cell_angle_beta 90
_cell_angle_gamma 90
_cell_formula_units_Z 4
loop_
_atom_type_symbol
_atom_type_radius_bond
C 0.68
H 0.23
N 0.68
O 0.68
loop_
_atom_site_label
_atom_site_type_symbol
_atom_site_fract_x
_atom_site_fract_y
_atom_site_fract_z
O1 O -0.06188(2) 0.05940(5) 0.12306(9)
O2 O 0.00333(2) -0.22536(4) 0.14316(9)
O3 O 0.36226(2) -0.08126(5) 0.42408(9)
O4 O 0.36340(2) 0.22985(5) 0.4169(1)
O5 O 0.25736(2) 0.33871(5) 0.62915(9)
O6 O 0.20397(3) 0.63140(5) 0.6064(1)
N1 N 0.00155(2) -0.05338(5) 0.16860(9)
N2 N 0.32050(2) 0.07452(5) 0.41036(9)
N3 N 0.20890(2) 0.46352(5) 0.56793(9)
N4 N 0.07331(2) 0.20383(4) 0.31034(9)
N5 N 0.15751(2) 0.23258(4) 0.39004(9)
C1 C 0.07777(2) 0.01980(5) 0.25689(9)
C2 C 0.16694(2) -0.06428(5) 0.2987(1)
C3 C 0.21707(2) 0.07156(4) 0.37969(9)
C4 C 0.15045(2) 0.41035(4) 0.44875(9)
C5 C 0.06156(2) 0.49504(5) 0.40052(9)
C6 C 0.01390(2) 0.36332(5) 0.3144(1)
H1 H 0.1979(6) -0.199(1) 0.266(1)
H2 H 0.0347(7) 0.631(1) 0.432(1)
H3 H -0.0588(6) 0.360(1) 0.261(1)
#END
