
#######################################################################
#
#                 Cambridge Crystallographic Data Centre
#                                CCDC
#
#######################################################################
#
# If this CIF has been generated from an entry in the Cambridge
# Structural Database, then it will include bibliographic, chemical,
# crystal, experimental, refinement or atomic coordinate data resulting
# from the CCDC's data processing and validation procedures.
#
#######################################################################

data_CSD_CIF_OMOBOH
_audit_creation_date 2004-03-18
_audit_creation_method CSD-ConQuest-V1
_database_code_CSD OMOBOH
_database_code_depnum_ccdc_archive 'CCDC 227029'
_chemical_formula_sum 'C13 H12 N4 O6'
_chemical_formula_moiety
;
C13 H12 N4 O6
;
_journal_coeditor_code "IUCr CI6292"
_journal_coden_Cambridge 1370
_journal_volume 59
_journal_year 2003
_journal_page_first o1835
_journal_name_full 'Acta Crystallogr.,Sect.E:Struct.Rep.Online '
loop_
_publ_author_name
"S.Etti"
"G.Shanmugam"
"M.N.Ponnuswamy"
"R.Sridhar"
"R.Murugan"
"P.T.Perumal"
"K.Ravikumar"
_chemical_name_systematic
;
Ethyl 3-methyl-1-(2,4-dinitrophenyl)-1H-pyrazole-4-carboxylate
;
_cell_volume    726.736
_exptl_crystal_colour 'pale yellow'
_exptl_crystal_density_diffrn 1.464
_exptl_crystal_description 'block'
_exptl_crystal_preparation '1'
_diffrn_ambient_temperature 293
#These two values have been output from a single CSD field.
_refine_ls_R_factor_gt 0.0431
_refine_ls_wR_factor_gt 0.0431
_symmetry_cell_setting triclinic
_symmetry_space_group_name_H-M 'P -1'
_symmetry_Int_Tables_number 2
loop_
_symmetry_equiv_pos_site_id
_symmetry_equiv_pos_as_xyz
1 x,y,z
2 -x,-y,-z
_cell_length_a 7.7531(8)
_cell_length_b 9.7146(10)
_cell_length_c 11.4051(12)
_cell_angle_alpha 113.649(2)
_cell_angle_beta 92.989(2)
_cell_angle_gamma 109.089(2)
_cell_formula_units_Z 2
loop_
_atom_type_symbol
_atom_type_radius_bond
C 0.68
H 0.23
N 0.68
O 0.68
loop_
_atom_site_label
_atom_site_type_symbol
_atom_site_fract_x
_atom_site_fract_y
_atom_site_fract_z
O1 O 0.33971(16) 0.45890(16) 0.63006(13)
O2 O 0.37071(14) 0.37774(14) 0.78603(10)
O3 O 1.1906(2) 0.89878(18) 0.97845(13)
O4 O 1.4153(2) 0.8115(2) 0.96059(14)
O5 O 1.72140(19) 0.9461(2) 0.63105(16)
O6 O 1.55237(18) 0.86268(15) 0.44242(12)
N1 N 0.92725(17) 0.64369(15) 0.73161(12)
N2 N 0.94311(17) 0.56952(16) 0.80975(12)
N3 N 1.2894(2) 0.83692(18) 0.91575(14)
N4 N 1.5707(2) 0.88453(17) 0.55618(15)
C1 C 0.7702(2) 0.49489(17) 0.81583(14)
C2 C 0.6410(2) 0.52023(17) 0.74120(14)
C3 C 0.7471(2) 0.61362(19) 0.68814(16)
C4 C 0.4361(2) 0.45189(18) 0.71271(15)
C5 C 0.1724(2) 0.2805(3) 0.7542(2)
C6 C 0.1462(3) 0.1804(3) 0.8273(3)
C7 C 0.7330(3) 0.3934(3) 0.8881(2)
C8 C 1.0868(2) 0.71899(17) 0.69331(14)
C9 C 1.2630(2) 0.79859(17) 0.77585(14)
C10 C 1.4224(2) 0.85295(18) 0.73264(16)
C11 C 1.4026(2) 0.83283(17) 0.60573(15)
C12 C 1.2299(2) 0.76324(19) 0.52269(15)
C13 C 1.0726(2) 0.70505(19) 0.56639(15)
H1 H 0.712(3) 0.655(2) 0.6306(18)
H2 H 0.109(3) 0.355(3) 0.782(2)
H3 H 0.129(3) 0.209(3) 0.655(2)
H4 H 0.011(4) 0.108(4) 0.807(3)
H5 H 0.213(5) 0.103(4) 0.794(3)
H6 H 0.193(5) 0.240(5) 0.922(4)
H7 H 0.853(3) 0.402(3) 0.931(2)
H8 H 0.652(3) 0.282(3) 0.831(2)
H9 H 0.665(3) 0.425(3) 0.947(2)
H10 H 1.544(3) 0.906(2) 0.7896(18)
H11 H 1.219(3) 0.749(2) 0.4315(19)
H12 H 0.953(3) 0.649(2) 0.5087(18)
#END
