
#######################################################################
#
#                 Cambridge Crystallographic Data Centre
#                                CCDC
#
#######################################################################
#
# If this CIF has been generated from an entry in the Cambridge
# Structural Database, then it will include bibliographic, chemical,
# crystal, experimental, refinement or atomic coordinate data resulting
# from the CCDC's data processing and validation procedures.
#
#######################################################################

data_CSD_CIF_OMOLOR
_audit_creation_date 2004-03-18
_audit_creation_method CSD-ConQuest-V1
_database_code_CSD OMOLOR
_database_code_depnum_ccdc_archive 'CCDC 231057'
_chemical_formula_sum 'C14 H8 N2 O4'
_chemical_formula_moiety
;
C14 H8 N2 O4
;
_journal_coeditor_code "IUCr GG1199"
_journal_coden_Cambridge 591
_journal_volume 60
_journal_year 2004
_journal_page_first o24
_journal_name_full 'Acta Crystallogr.,Sect.C:Cryst.Struct.Commun. '
loop_
_publ_author_name
"C.Glidewell"
"J.N.Low"
"J.M.S.Skakle"
"J.L.Wardell"
_chemical_name_systematic
;
N-(3-Nitrophenyl)phthalimide
;
_cell_volume    579.947
_exptl_crystal_colour 'colorless'
_exptl_crystal_density_diffrn 1.536
_exptl_crystal_description 'plate'
_exptl_crystal_preparation 'ethanol'
_diffrn_ambient_temperature 120
#These two values have been output from a single CSD field.
_refine_ls_R_factor_gt 0.0479
_refine_ls_wR_factor_gt 0.0479
_symmetry_cell_setting monoclinic
_symmetry_space_group_name_H-M 'P n'
_symmetry_Int_Tables_number 7
loop_
_symmetry_equiv_pos_site_id
_symmetry_equiv_pos_as_xyz
1 x,y,z
2 1/2+x,-y,1/2+z
_cell_length_a 6.6650(5)
_cell_length_b 3.6962(3)
_cell_length_c 23.639(2)
_cell_angle_alpha 90
_cell_angle_beta 95.208(3)
_cell_angle_gamma 90
_cell_formula_units_Z 2
loop_
_atom_type_symbol
_atom_type_radius_bond
C 0.68
H 0.23
N 0.68
O 0.68
loop_
_atom_site_label
_atom_site_type_symbol
_atom_site_fract_x
_atom_site_fract_y
_atom_site_fract_z
N1 N 0.7445(5) 0.8585(9) 0.20877(15)
C1 C 0.5599(6) 1.0114(11) 0.22174(19)
O1 O 0.4373(4) 1.1439(8) 0.18681(12)
C2 C 0.8600(6) 0.7387(11) 0.25848(19)
O2 O 1.0213(4) 0.5878(8) 0.25924(13)
C3 C 0.5602(6) 0.9848(11) 0.28435(19)
C4 C 0.4130(6) 1.0903(11) 0.3188(2)
C5 C 0.4544(7) 1.0324(11) 0.3768(2)
C6 C 0.6376(7) 0.8856(12) 0.3991(2)
C7 C 0.7843(6) 0.7810(11) 0.36369(19)
C8 C 0.7405(6) 0.8316(10) 0.30614(18)
C9 C 0.8064(6) 0.8257(11) 0.15264(17)
C10 C 0.6746(6) 0.6874(10) 0.10976(18)
C11 C 0.7409(6) 0.6553(10) 0.05634(19)
C12 C 0.9339(6) 0.7516(12) 0.0448(2)
C13 C 1.0634(6) 0.8910(12) 0.08854(18)
C14 C 1.0007(6) 0.9310(11) 0.14216(19)
N2 N 0.6026(5) 0.502(1) 0.01052(16)
O3 O 0.4289(4) 0.4367(11) 0.02037(13)
O4 O 0.6673(5) 0.4450(11) -0.03559(14)
H1 H 0.29010 1.19690 0.30350
H2 H 0.35590 1.09410 0.40180
H3 H 0.66310 0.85620 0.43900
H4 H 0.90880 0.67940 0.37870
H5 H 0.54210 0.61630 0.11680
H6 H 0.97640 0.72260 0.00780
H7 H 1.19630 0.95950 0.08150
H8 H 1.08940 1.03000 0.17190
#END
