
#######################################################################
#
#                 Cambridge Crystallographic Data Centre
#                                CCDC
#
#######################################################################
#
# If this CIF has been generated from an entry in the Cambridge
# Structural Database, then it will include bibliographic, chemical,
# crystal, experimental, refinement or atomic coordinate data resulting
# from the CCDC's data processing and validation procedures.
#
#######################################################################

data_CSD_CIF_OMOMUY
_audit_creation_date 2004-03-18
_audit_creation_method CSD-ConQuest-V1
_database_code_CSD OMOMUY
_database_code_depnum_ccdc_archive 'CCDC 231063'
_chemical_formula_sum 'C7 H5 N3 O2'
_chemical_formula_moiety
;
C7 H5 N3 O2
;
_journal_coeditor_code "IUCr SK1684"
_journal_coden_Cambridge 591
_journal_volume 60
_journal_year 2004
_journal_page_first o35
_journal_name_full 'Acta Crystallogr.,Sect.C:Cryst.Struct.Commun. '
loop_
_publ_author_name
"C.Glidewell"
"J.N.Low"
"J.M.S.Skakle"
"J.L.Wardell"
_chemical_name_systematic
;
2-Cyano-4-nitroaniline
;
_cell_volume   1410.603
_exptl_crystal_colour 'orange'
_exptl_crystal_density_diffrn 1.536
_exptl_crystal_description 'block'
_exptl_crystal_preparation 'ethanol'
_diffrn_ambient_temperature 120
_refine_special_details
;
Both molecules are disordered over two sites with 0.947:0.053 occupancies.

;
#These two values have been output from a single CSD field.
_refine_ls_R_factor_gt 0.044
_refine_ls_wR_factor_gt 0.044
_symmetry_cell_setting monoclinic
_symmetry_space_group_name_H-M 'P 21/c'
_symmetry_Int_Tables_number 14
loop_
_symmetry_equiv_pos_site_id
_symmetry_equiv_pos_as_xyz
1 x,y,z
2 x,1/2-y,1/2+z
3 -x,-y,-z
4 -x,-1/2+y,-1/2-z
_cell_length_a 11.2316(4)
_cell_length_b 17.7275(7)
_cell_length_c 7.1078(2)
_cell_angle_alpha 90
_cell_angle_beta 94.630(3)
_cell_angle_gamma 90
_cell_formula_units_Z 8
loop_
_atom_type_symbol
_atom_type_radius_bond
C 0.68
H 0.23
N 0.68
O 0.68
loop_
_atom_site_label
_atom_site_type_symbol
_atom_site_fract_x
_atom_site_fract_y
_atom_site_fract_z
C1 C -0.05690(15) 0.49793(10) 0.20668(19)
C2 C 0.05489(16) 0.47591(9) 0.2973(2)
C3 C 0.08480(13) 0.40048(9) 0.3210(2)
C4 C 0.0065(4) 0.34652(14) 0.2497(3)
C5 C -0.10426(15) 0.36609(9) 0.1569(2)
C6 C -0.13497(13) 0.44045(10) 0.1349(2)
N1 N -0.08841(11) 0.57101(9) 0.19106(18)
C7 C 0.13736(13) 0.53359(11) 0.3631(2)
N2 N 0.20032(12) 0.58151(8) 0.41345(19)
N3 N 0.03668(12) 0.26791(8) 0.27533(19)
O1 O -0.03612(13) 0.21997(7) 0.2106(2)
O2 O 0.13312(10) 0.25085(7) 0.35930(18)
C8 C 0.44251(12) 0.68416(8) 0.71306(18)
C9 C 0.55571(13) 0.70527(10) 0.8003(2)
C10 C 0.58787(14) 0.78049(10) 0.8255(2)
C11 C 0.50670(15) 0.83556(9) 0.7634(2)
C12 C 0.39360(14) 0.81672(9) 0.6783(2)
C13 C 0.36284(13) 0.74274(9) 0.6527(2)
N4 N 0.41120(12) 0.61171(8) 0.69011(19)
C14 C 0.63585(13) 0.64705(9) 0.8686(2)
N5 N 0.69583(12) 0.59841(8) 0.92508(19)
N6 N 0.53929(12) 0.91385(8) 0.78906(18)
O3 O 0.46890(12) 0.96206(7) 0.7193(2)
O4 O 0.63482(11) 0.92994(7) 0.87734(18)
C15? C -0.0569(16) 0.1347(6) 0.207(2)
C16? C 0.0529(14) 0.1142(10) 0.297(2)
C17? C 0.0821(15) 0.0384(12) 0.321(3)
C18? C 0.002(2) -0.0169(7) 0.255(3)
C19? C -0.108(2) 0.0036(9) 0.165(3)
C20? C -0.1374(12) 0.0794(11) 0.141(2)
N7? N -0.087(2) 0.2071(7) 0.174(3)
C21? C 0.1329(17) 0.1721(11) 0.368(3)
N8? N 0.1982(16) 0.2177(10) 0.426(3)
N9? N 0.0356(14) -0.0941(7) 0.293(3)
O5? O -0.012(5) -0.1494(18) 0.212(5)
O6? O 0.1296(15) -0.1110(16) 0.385(3)
C22? C 0.4482(17) 0.3183(6) 0.703(3)
C23? C 0.5565(15) 0.3388(9) 0.797(3)
C24? C 0.5839(13) 0.4146(10) 0.826(3)
C25? C 0.5030(18) 0.4698(7) 0.761(3)
C26? C 0.3947(16) 0.4493(8) 0.666(3)
C27? C 0.3673(13) 0.3735(10) 0.637(2)
N10? N 0.425(3) 0.2441(7) 0.687(4)
C28? C 0.6373(18) 0.2787(10) 0.850(4)
N11? N 0.7064(16) 0.2336(10) 0.897(3)
N12? N 0.5328(12) 0.5488(6) 0.775(3)
O7? O 0.4580(16) 0.5965(10) 0.718(3)
O8? O 0.6282(12) 0.5668(10) 0.862(2)
H1 H 0.15870 0.38640 0.38590
H2 H -0.15770 0.32780 0.10940
H3 H -0.20960 0.45360 0.07070
H4 H -0.03900 0.60630 0.23640
H5 H -0.15850 0.58350 0.13550
H6 H 0.66400 0.79380 0.88420
H7 H 0.33860 0.85540 0.63870
H8 H 0.28660 0.73040 0.59320
H9 H 0.46160 0.57580 0.72830
H10 H 0.34020 0.59990 0.63680
H11? H 0.15720 0.02440 0.38210
H12? H -0.16320 -0.03420 0.11950
H13? H -0.21240 0.09340 0.07990
H14? H -0.03600 0.24330 0.20960
H15? H -0.15680 0.21840 0.11710
H16? H 0.65800 0.42860 0.89100
H17? H 0.33940 0.48710 0.62180
H18? H 0.29330 0.35950 0.57270
H19? H 0.47710 0.21110 0.73610
H20? H 0.35740 0.22860 0.62860
#END
