
#######################################################################
#
#                 Cambridge Crystallographic Data Centre
#                                CCDC
#
#######################################################################
#
# If this CIF has been generated from an entry in the Cambridge
# Structural Database, then it will include bibliographic, chemical,
# crystal, experimental, refinement or atomic coordinate data resulting
# from the CCDC's data processing and validation procedures.
#
#######################################################################

data_CSD_CIF_OMOSAL
_audit_creation_date 2011-05-25
_audit_creation_method CSD-ConQuest-V1
_database_code_CSD OMOSAL
_database_code_depnum_ccdc_archive 'CCDC 637070'
_chemical_formula_sum 'C22 H24 N4 O6'
_chemical_formula_moiety
;
C22 H24 N4 O6
;
_journal_coden_Cambridge 661
_journal_volume 57
_journal_year 2010
_journal_page_first 1081
_journal_name_full 'J.Chin.Chem.Soc.(Taipei) '
loop_
_publ_author_name
"A.M.Zenouz"
"M.H.Sadr"
"M.R.Oskuie"
"F.Bachechi"
_chemical_name_systematic
;
2-(Pyrazol-1-ylmethyl)-3,5-bis(ethoxycarbonyl)-6-methyl-4-(3-nitrophenyl)-1,4-
dihydropyridine
;
_cell_volume   2468.291
_exptl_crystal_density_diffrn 1.185
_exptl_special_details
;
The space group appears to be P21/a, not P21/c as given in the CIF and paper

;
_diffrn_ambient_temperature 293
#These two values have been output from a single CSD field.
_refine_ls_R_factor_gt 0.077
_refine_ls_wR_factor_gt 0.077
_symmetry_cell_setting monoclinic
_symmetry_space_group_name_H-M 'P 21/a'
_symmetry_Int_Tables_number 14
loop_
_symmetry_equiv_pos_site_id
_symmetry_equiv_pos_as_xyz
1 x,y,z
2 1/2-x,1/2+y,-z
3 -x,-y,-z
4 -1/2+x,-1/2-y,z
_cell_length_a 9.050(3)
_cell_length_b 22.259(6)
_cell_length_c 12.253(4)
_cell_angle_alpha 90
_cell_angle_beta 90.07(3)
_cell_angle_gamma 90
_cell_formula_units_Z 4
loop_
_atom_type_symbol
_atom_type_radius_bond
C 0.74
H 0.17
N 0.68
O 0.68
loop_
_atom_site_label
_atom_site_type_symbol
_atom_site_fract_x
_atom_site_fract_y
_atom_site_fract_z
O1 O 0.7405(6) 0.0862(3) 0.4963(8)
O2 O 0.6105(5) 0.0445(2) 0.6302(6)
O3 O 0.3671(7) 0.2502(3) 0.926(1)
O4 O 0.3586(5) 0.1527(3) 0.9053(8)
O5 O -0.0050(9) -0.0391(4) 0.697(1)
O6 O 0.1971(9) -0.0450(4) 0.785(1)
N1 N 0.5772(6) 0.2545(3) 0.6142(8)
N2 N 0.6963(8) 0.2669(3) 0.413(1)
N3 N 0.7528(9) 0.3189(4) 0.458(1)
N4 N 0.1188(9) -0.0197(4) 0.726(1)
C1 C 0.6310(7) 0.2010(4) 0.5691(9)
C2 C 0.5923(7) 0.1481(4) 0.6153(9)
C3 C 0.4862(7) 0.1445(3) 0.7099(9)
C4 C 0.4611(8) 0.2051(4) 0.763(1)
C5 C 0.5049(8) 0.2571(4) 0.712(1)
C6 C 0.7301(9) 0.2104(4) 0.470(1)
C7 C 0.601(1) 0.2720(8) 0.324(2)
C8 C 0.611(1) 0.3359(8) 0.310(2)
C9 C 0.688(1) 0.3615(6) 0.390(2)
C10 C 0.6585(9) 0.0913(4) 0.573(1)
C11 C 0.6652(9) -0.0143(4) 0.593(1)
C12 C 0.592(1) -0.0586(4) 0.667(1)
C13 C 0.3916(8) 0.2076(4) 0.872(1)
C14 C 0.283(1) 0.1487(5) 1.009(2)
C15 C 0.226(1) 0.0864(7) 1.021(2)
C16 C 0.3424(6) 0.1175(3) 0.6728(8)
C17 C 0.2550(7) 0.1454(3) 0.5951(9)
C18 C 0.1206(8) 0.1196(4) 0.556(1)
C19 C 0.0761(7) 0.0654(4) 0.5993(9)
C20 C 0.1624(7) 0.0386(4) 0.678(1)
C21 C 0.2949(7) 0.0624(4) 0.715(1)
C22 C 0.4815(8) 0.3197(4) 0.751(1)
H1 H 0.52990 0.11900 0.76430
H2 H 0.71630 0.17750 0.42040
H3 H 0.83120 0.21150 0.49370
H4 H 0.54580 0.24220 0.28480
H5 H 0.56810 0.35750 0.25050
H6 H 0.69810 0.40410 0.40000
H7 H 0.63780 -0.02140 0.51880
H8 H 0.77070 -0.01640 0.60050
H9 H 0.62300 -0.09850 0.64790
H10 H 0.61980 -0.05040 0.74140
H11 H 0.48690 -0.05540 0.65970
H12 H 0.35030 0.15760 1.06780
H13 H 0.20210 0.17670 1.01120
H14 H 0.17510 0.08260 1.08960
H15 H 0.15890 0.07780 0.96250
H16 H 0.30710 0.05870 1.01910
H17 H 0.28600 0.18350 0.56630
H18 H 0.06250 0.13960 0.50160
H19 H -0.01350 0.04670 0.57480
H20 H 0.35260 0.04150 0.76930
H21 H 0.43070 0.31910 0.81980
H22 H 0.57540 0.33920 0.75980
H23 H 0.42330 0.34130 0.69850
H24 H 0.59150 0.29110 0.57440
#END
