
#######################################################################
#
#                 Cambridge Crystallographic Data Centre
#                                CCDC
#
#######################################################################
#
# If this CIF has been generated from an entry in the Cambridge
# Structural Database, then it will include bibliographic, chemical,
# crystal, experimental, refinement or atomic coordinate data resulting
# from the CCDC's data processing and validation procedures.
#
#######################################################################

data_CSD_CIF_OMOTIT
_audit_creation_date 2004-03-18
_audit_creation_method CSD-ConQuest-V1
_database_code_CSD OMOTIT
_database_code_depnum_ccdc_archive 'CCDC 231091'
_chemical_formula_sum 'C12 H13 N3 O6'
_chemical_formula_moiety
;
C12 H13 N3 O6
;
_journal_coeditor_code "IUCr SX1127"
_journal_coden_Cambridge 591
_journal_volume 60
_journal_year 2004
_journal_page_first o94
_journal_name_full 'Acta Crystallogr.,Sect.C:Cryst.Struct.Commun. '
loop_
_publ_author_name
"F.Seela"
"Xiaohua Peng"
"H.Eickmeier"
"H.Reuter"
_chemical_name_systematic
;
4-Nitro-2-(\b-D-ribofuranosyl)-2H-indazole
;
_cell_volume   1257.259
_exptl_crystal_colour 'yellow'
_exptl_crystal_density_diffrn 1.56
_exptl_crystal_description 'Block'
_exptl_crystal_preparation 'methanol'
_diffrn_ambient_temperature 293
#These two values have been output from a single CSD field.
_refine_ls_R_factor_gt 0.061
_refine_ls_wR_factor_gt 0.061
_symmetry_cell_setting monoclinic
_symmetry_space_group_name_H-M 'P 21'
_symmetry_Int_Tables_number 4
loop_
_symmetry_equiv_pos_site_id
_symmetry_equiv_pos_as_xyz
1 x,y,z
2 -x,1/2+y,-z
_cell_length_a 4.9355(13)
_cell_length_b 35.936(5)
_cell_length_c 7.1833(9)
_cell_angle_alpha 90
_cell_angle_beta 99.311(18)
_cell_angle_gamma 90
_cell_formula_units_Z 4
loop_
_atom_type_symbol
_atom_type_radius_bond
C 0.68
H 0.23
N 0.68
O 0.68
loop_
_atom_site_label
_atom_site_type_symbol
_atom_site_fract_x
_atom_site_fract_y
_atom_site_fract_z
N1 N 0.1287(8) 0.04844(12) -0.1019(5)
N2 N 0.2705(7) 0.04215(11) 0.0735(5)
C1 C 0.4826(9) 0.06543(15) 0.1242(6)
H1 H 0.60230 0.06560 0.23840
C2 C 0.4872(9) 0.08891(13) -0.0265(6)
C3 C 0.6476(10) 0.11968(14) -0.0715(7)
N3 N 0.8820(9) 0.13200(14) 0.0645(7)
O1 O 1.0196(10) 0.15791(14) 0.0239(8)
O2 O 0.9295(10) 0.11460(15) 0.2138(7)
C4 C 0.5860(12) 0.13696(15) -0.2421(8)
H2 H 0.69310 0.15680 -0.27080
C5 C 0.3612(12) 0.12499(17) -0.3753(7)
H3 H 0.32270 0.13730 -0.49030
C6 C 0.1982(11) 0.09591(16) -0.3414(7)
H4 H 0.05060 0.08840 -0.43070
C7 C 0.2623(9) 0.07767(14) -0.1649(6)
C8 C 0.1828(8) 0.01156(13) 0.1843(6)
H5 H -0.00510 0.00440 0.13080
O3 O 0.2859(7) -0.04550(11) 0.0358(4)
H6 H 0.422(4) -0.0552(15) 0.004(6)
C9 C 0.3690(8) -0.02250(13) 0.1931(5)
H7 H 0.55970 -0.01460 0.19570
O4 O 0.0729(7) -0.05681(11) 0.3563(4)
H8 H 0.062(7) -0.0692(15) 0.451(5)
C10 C 0.3344(8) -0.03872(14) 0.3849(6)
H9 H 0.48440 -0.05560 0.43560
O5 O 0.1892(6) 0.02362(10) 0.3708(4)
C11 C 0.3305(8) -0.00384(14) 0.5020(6)
H10 H 0.22430 -0.00830 0.60380
O6 O 0.7219(8) -0.00780(12) 0.7486(5)
H11 H 0.841(11) 0.0049(10) 0.812(5)
C12 C 0.6117(9) 0.01193(14) 0.5841(6)
H12 H 0.73430 0.00990 0.49180
H13 H 0.59410 0.03810 0.61400
N4 N 1.1154(8) 0.80507(12) 1.1277(5)
N5 N 0.9196(7) 0.81226(11) 0.9763(5)
C13 C 0.9253(10) 0.78854(14) 0.8319(6)
H14 H 0.80840 0.78870 0.71650
C14 C 1.1395(10) 0.76383(14) 0.8883(6)
C15 C 1.2616(11) 0.73328(16) 0.8120(7)
N6 N 1.1518(13) 0.72039(17) 0.6225(8)
O7 O 1.2554(14) 0.6934(2) 0.5598(9)
O8 O 0.9577(16) 0.7366(2) 0.5374(8)
C16 C 1.4811(12) 0.71482(17) 0.9150(8)
H15 H 1.55810 0.69440 0.86380
C17 C 1.5884(11) 0.72722(17) 1.0990(9)
H16 H 1.73950 0.71510 1.16650
C18 C 1.4763(11) 0.75648(17) 1.1799(8)
H17 H 1.54710 0.76390 1.30210
C19 C 1.2508(10) 0.77532(13) 1.0752(6)
C20 C 0.7426(9) 0.84488(13) 0.9856(5)
H18 H 0.66990 0.84480 1.10480
O9 O 0.7675(6) 0.91074(10) 1.0459(4)
H19 H 0.882(4) 0.9220(11) 1.121(7)
C21 C 0.9010(8) 0.88093(13) 0.9679(6)
H20 H 1.09500 0.87890 1.02420
O10 O 0.9200(7) 0.91993(10) 0.6844(4)
H21 H 0.865(12) 0.9361(3) 0.749(6)
C22 C 0.8612(8) 0.88460(13) 0.7526(6)
H22 H 0.97880 0.86620 0.70400
O11 O 0.5244(6) 0.84386(10) 0.8324(4)
C23 C 0.5626(8) 0.87262(13) 0.6954(5)
H23 H 0.44090 0.89370 0.70800
O12 O 0.2127(8) 0.84913(17) 0.4553(6)
H24 H 0.187(4) 0.834(2) 0.367(9)
C24 C 0.4981(10) 0.85686(15) 0.4971(6)
H25 H 0.54840 0.87470 0.40720
H26 H 0.60240 0.83420 0.48830
#END
