
#######################################################################
#
#                 Cambridge Crystallographic Data Centre
#                                CCDC
#
#######################################################################
#
# If this CIF has been generated from an entry in the Cambridge
# Structural Database, then it will include bibliographic, chemical,
# crystal, experimental, refinement or atomic coordinate data resulting
# from the CCDC's data processing and validation procedures.
#
#######################################################################

data_CSD_CIF_OMOTEP
_audit_creation_date 2004-03-18
_audit_creation_method CSD-ConQuest-V1
_database_code_CSD OMOTEP
_database_code_depnum_ccdc_archive 'CCDC 231090'
_chemical_formula_sum 'C12 H13 N3 O6'
_chemical_formula_moiety
;
C12 H13 N3 O6
;
_journal_coeditor_code "IUCr SX1127"
_journal_coden_Cambridge 591
_journal_volume 60
_journal_year 2004
_journal_page_first o94
_journal_name_full 'Acta Crystallogr.,Sect.C:Cryst.Struct.Commun. '
loop_
_publ_author_name
"F.Seela"
"Xiaohua Peng"
"H.Eickmeier"
"H.Reuter"
_chemical_name_systematic
;
4-Nitro-1-(\b-D-ribofuranosyl)-1H-indazole
;
_cell_volume    642.868
_exptl_crystal_colour 'yellow'
_exptl_crystal_density_diffrn 1.525
_exptl_crystal_description 'block'
_exptl_crystal_preparation 'methanol'
_diffrn_ambient_temperature 293
#These two values have been output from a single CSD field.
_refine_ls_R_factor_gt 0.047
_refine_ls_wR_factor_gt 0.047
_symmetry_cell_setting monoclinic
_symmetry_space_group_name_H-M 'P 21'
_symmetry_Int_Tables_number 4
loop_
_symmetry_equiv_pos_site_id
_symmetry_equiv_pos_as_xyz
1 x,y,z
2 -x,1/2+y,-z
_cell_length_a 5.8912(11)
_cell_length_b 10.0825(12)
_cell_length_c 11.0998(17)
_cell_angle_alpha 90
_cell_angle_beta 102.821(15)
_cell_angle_gamma 90
_cell_formula_units_Z 2
loop_
_atom_type_symbol
_atom_type_radius_bond
C 0.68
H 0.23
N 0.68
O 0.68
loop_
_atom_site_label
_atom_site_type_symbol
_atom_site_fract_x
_atom_site_fract_y
_atom_site_fract_z
N1 N 0.6080(8) 0.6039(5) 0.2903(4)
N2 N 0.4098(9) 0.6777(6) 0.2767(5)
C1 C 0.2652(10) 0.6334(7) 0.1758(5)
H1 H 0.11660 0.66680 0.14480
C2 C 0.3671(10) 0.5285(6) 0.1216(5)
N3 N 0.0918(12) 0.4695(7) -0.0746(5)
C3 C 0.3107(12) 0.4470(7) 0.0163(6)
C4 C 0.4584(15) 0.3499(9) -0.0048(8)
H2 H 0.41690 0.29530 -0.07370
C5 C 0.6748(15) 0.3329(9) 0.0791(7)
H3 H 0.77380 0.26600 0.06430
C6 C 0.7440(13) 0.4113(7) 0.1813(6)
H4 H 0.88720 0.39950 0.23580
C7 C 0.5883(10) 0.5102(6) 0.1997(5)
O1 O 0.0459(12) 0.3977(8) -0.1664(5)
O2 O -0.0332(11) 0.5603(8) -0.0565(5)
C8 C 0.8022(9) 0.6260(5) 0.3942(5)
H5 H 0.94560 0.59460 0.37270
O3 O 1.0679(7) 0.7948(4) 0.4819(5)
H6 H 1.105(15) 0.875(12) 0.488(9)
C9 C 0.8311(9) 0.7726(5) 0.4315(5)
H7 H 0.77070 0.83160 0.36170
O4 O 0.7413(8) 0.8866(4) 0.6129(4)
H8 H 0.703(17) 0.953(12) 0.575(8)
C10 C 0.6872(9) 0.7813(5) 0.5308(5)
H9 H 0.52140 0.78470 0.49070
O5 O 0.7690(7) 0.5565(4) 0.5004(3)
C11 C 0.7416(9) 0.6481(6) 0.5973(5)
H10 H 0.89000 0.65530 0.65780
O6 O 0.3376(8) 0.5771(5) 0.5793(5)
H11 H 0.274(16) 0.648(6) 0.556(9)
C12 C 0.5591(11) 0.5946(7) 0.6609(5)
H12 H 0.61150 0.51010 0.69880
H13 H 0.54260 0.65520 0.72630
#END
