
#######################################################################
#
#                 Cambridge Crystallographic Data Centre
#                                CCDC
#
#######################################################################
#
# If this CIF has been generated from an entry in the Cambridge
# Structural Database, then it will include bibliographic, chemical,
# crystal, experimental, refinement or atomic coordinate data resulting
# from the CCDC's data processing and validation procedures.
#
#######################################################################

data_CSD_CIF_ONABEL
_audit_creation_date 2011-05-25
_audit_creation_method CSD-ConQuest-V1
_database_code_CSD ONABEL
_database_code_depnum_ccdc_archive 'CCDC 672173'
_chemical_formula_sum 'C19 H13 N3 O3'
_chemical_formula_moiety
;
C19 H13 N3 O3
;
_journal_coden_Cambridge 1003
_journal_volume 41
_journal_year 2011
_journal_page_first 59
_journal_name_full 'J.Chem.Cryst. '
loop_
_publ_author_name
"Xiang-Shan Wang"
"Qing Li"
"Jian-Rong Wu"
"Mei-Mei Zhang"
_chemical_name_systematic
;
2-((E)-3-(2-Nitrophenyl)-1-(4-methoxyphenyl)allylidene)malononitrile
;
_chemical_melting_point 455
_cell_volume    838.428
_exptl_crystal_colour 'yellow'
_exptl_crystal_density_diffrn 1.312
_exptl_special_details
;
Melting point range 455-457K

;
_exptl_crystal_description 'block'
_exptl_crystal_preparation 'dimethylformamide/water'
_diffrn_ambient_temperature 298
#These two values have been output from a single CSD field.
_refine_ls_R_factor_gt 0.05
_refine_ls_wR_factor_gt 0.05
_symmetry_cell_setting triclinic
_symmetry_space_group_name_H-M 'P -1'
_symmetry_Int_Tables_number 2
loop_
_symmetry_equiv_pos_site_id
_symmetry_equiv_pos_as_xyz
1 x,y,z
2 -x,-y,-z
_cell_length_a 7.3834(13)
_cell_length_b 10.901(3)
_cell_length_c 11.227(2)
_cell_angle_alpha 88.64(2)
_cell_angle_beta 71.596(14)
_cell_angle_gamma 78.186(18)
_cell_formula_units_Z 2
loop_
_atom_type_symbol
_atom_type_radius_bond
C 0.68
H 0.23
N 0.68
O 0.68
loop_
_atom_site_label
_atom_site_type_symbol
_atom_site_fract_x
_atom_site_fract_y
_atom_site_fract_z
O1 O 1.1194(2) 0.25855(12) 0.96881(12)
O2 O 0.6768(2) 0.73155(16) 0.80343(15)
O3 O 0.4493(3) 0.8693(2) 0.9235(3)
N1 N 1.8002(3) 0.43761(17) 0.59311(17)
N2 N 1.6774(3) 0.81581(18) 0.4666(2)
N3 N 0.6024(3) 0.8400(2) 0.83841(19)
C1 C 1.5436(3) 0.63853(15) 0.59786(16)
C2 C 1.3506(2) 0.65223(15) 0.66451(15)
C3 C 1.2145(3) 0.76464(16) 0.65247(16)
H1 H 1.25680 0.81510 0.58570
C4 C 1.0337(3) 0.80051(15) 0.73009(15)
H2 H 0.98810 0.74760 0.79370
C5 C 1.6847(3) 0.52661(17) 0.59681(16)
C6 C 1.6195(3) 0.73685(18) 0.52405(18)
C7 C 1.2804(2) 0.55275(15) 0.74791(15)
C8 C 1.1304(2) 0.50150(16) 0.73635(16)
H3 H 1.06750 0.53380 0.67900
C9 C 1.0713(3) 0.40314(16) 0.80805(16)
H4 H 0.97170 0.36860 0.79780
C10 C 1.1623(3) 0.35703(15) 0.89491(15)
C11 C 1.3084(3) 0.41024(17) 0.91116(16)
H5 H 1.36600 0.38080 0.97190
C12 C 1.3684(3) 0.50605(16) 0.83812(15)
H6 H 1.46820 0.54030 0.84850
C13 C 0.9765(4) 0.1975(2) 0.9526(2)
H7 H 0.85510 0.25680 0.96830
H8 H 0.95940 0.13120 1.01050
H9 H 1.01820 0.16290 0.86820
C14 C 0.9017(2) 0.91798(15) 0.72190(15)
C15 C 0.6987(3) 0.94028(18) 0.77592(17)
C16 C 0.5794(3) 1.0538(2) 0.7713(2)
H10 H 0.44510 1.06540 0.80900
C17 C 0.6609(3) 1.1504(2) 0.7102(2)
H11 H 0.58140 1.22750 0.70630
C18 C 0.8579(3) 1.13293(17) 0.65582(19)
H12 H 0.91280 1.19780 0.61420
C19 C 0.9753(3) 1.01937(16) 0.66253(16)
H13 H 1.10950 1.00970 0.62590
#END
