
#######################################################################
#
#                 Cambridge Crystallographic Data Centre
#                                CCDC
#
#######################################################################
#
# If this CIF has been generated from an entry in the Cambridge
# Structural Database, then it will include bibliographic, chemical,
# crystal, experimental, refinement or atomic coordinate data resulting
# from the CCDC's data processing and validation procedures.
#
#######################################################################

data_CSD_CIF_ONBZAM
_audit_creation_date 1973-05-11
_audit_creation_method CSD-ConQuest-V1
_database_code_CSD ONBZAM
_database_code_depnum_ccdc_archive 'CCDC 1226089'
_chemical_formula_sum 'C7 H6 N2 O3'
_chemical_formula_moiety
;
C7 H6 N2 O3
;
_journal_coden_Cambridge 7
_journal_volume 45
_journal_year 1972
_journal_page_first 1564
_journal_name_full 'Bull.Chem.Soc.Jpn. '
loop_
_publ_author_name
"K.Fujimori"
"T.Tsukihara"
"Y.Katsube"
"J.Yamamoto"
_chemical_name_systematic
;
o-Nitrobenzamide
;
_cell_volume    766.038
_exptl_crystal_density_diffrn 1.44
_exptl_special_details
;
BOND C2-H1 GIVEN AS 1.11,CALCULATES TO 0.99

;
_diffrn_ambient_temperature ?
_diffrn_special_details
;
The study was carried out at room temperature,in the range 283-303K

;
#These two values have been output from a single CSD field.
_refine_ls_R_factor_gt 0.108
_refine_ls_wR_factor_gt 0.108
_symmetry_cell_setting monoclinic
_symmetry_space_group_name_H-M 'P 21/a'
_symmetry_Int_Tables_number 14
loop_
_symmetry_equiv_pos_site_id
_symmetry_equiv_pos_as_xyz
1 x,y,z
2 1/2-x,1/2+y,-z
3 -x,-y,-z
4 -1/2+x,-1/2-y,z
_cell_length_a 12.01
_cell_length_b 12.79
_cell_length_c 5.03
_cell_angle_alpha 90
_cell_angle_beta 97.5
_cell_angle_gamma 90
_cell_formula_units_Z 4
loop_
_atom_type_symbol
_atom_type_radius_bond
C 0.68
H 0.20
N 0.68
O 0.68
loop_
_atom_site_label
_atom_site_type_symbol
_atom_site_fract_x
_atom_site_fract_y
_atom_site_fract_z
C1 C 0.07690 0.34250 -0.56940
C2 C 0.12950 0.43940 -0.54780
C3 C 0.22180 0.45220 -0.35410
C4 C 0.26090 0.37090 -0.18900
C5 C 0.20910 0.27180 -0.21840
C6 C 0.11640 0.25790 -0.40920
C7 C 0.06720 0.15060 -0.45960
H1 H 0.10700 0.48500 -0.70400
H2 H 0.25400 0.53700 -0.37000
H3 H 0.32800 0.38000 -0.01800
H4 H 0.22300 0.22900 -0.06600
H5 H 0.00000 0.01900 -0.27700
H6 H 0.08200 0.11300 -0.04900
N1 N -0.02760 0.33360 -0.75350
N2 N 0.05470 0.09400 -0.24120
O1 O -0.03030 0.37090 -0.97880
O2 O -0.10800 0.29170 -0.66980
O3 O 0.04420 0.11610 -0.68750
#END
