
#######################################################################
#
#                 Cambridge Crystallographic Data Centre
#                                CCDC
#
#######################################################################
#
# If this CIF has been generated from an entry in the Cambridge
# Structural Database, then it will include bibliographic, chemical,
# crystal, experimental, refinement or atomic coordinate data resulting
# from the CCDC's data processing and validation procedures.
#
#######################################################################

data_CSD_CIF_ONITAN02
_audit_creation_date 2008-12-16
_audit_creation_method CSD-ConQuest-V1
_database_code_CSD ONITAN02
_database_code_depnum_ccdc_archive 'CCDC 703307'
_chemical_formula_sum 'C6 H6 N2 O2'
_chemical_formula_moiety
;
C6 H6 N2 O2
;
_journal_coden_Cambridge 316
_journal_volume 340
_journal_year 2007
_journal_page_first 260
_journal_name_full 'Chem.Phys. '
loop_
_publ_author_name
"T.Zych"
"T.Misiaszek"
"M.M.Szostak"
_chemical_name_systematic
;
2-Nitroaniline
;
_chemical_name_common
;
o-Nitroaniline
;
_cell_volume   1256.329
_exptl_crystal_density_diffrn 1.461
_exptl_special_details
;
gamma polymorph
The paper suggests that this is the beta polymorph but it appears to be the 
gamma polymorph
;
_exptl_crystal_preparation 'water/methanol'
_diffrn_ambient_temperature 293
#These two values have been output from a single CSD field.
_refine_ls_R_factor_gt 0.0798
_refine_ls_wR_factor_gt 0.0798
_symmetry_cell_setting monoclinic
_symmetry_space_group_name_H-M 'P 21/n'
_symmetry_Int_Tables_number 14
loop_
_symmetry_equiv_pos_site_id
_symmetry_equiv_pos_as_xyz
1 x,y,z
2 1/2-x,1/2+y,1/2-z
3 -x,-y,-z
4 -1/2+x,-1/2-y,-1/2+z
_cell_length_a 8.518(4)
_cell_length_b 10.065(5)
_cell_length_c 15.227(10)
_cell_angle_alpha 90
_cell_angle_beta 105.77(6)
_cell_angle_gamma 90
_cell_formula_units_Z 8
loop_
_atom_type_symbol
_atom_type_radius_bond
C 0.68
H 0.23
N 0.68
O 0.68
loop_
_atom_site_label
_atom_site_type_symbol
_atom_site_fract_x
_atom_site_fract_y
_atom_site_fract_z
C1 C 0.99844 0.70299 -0.06934
C2 C 0.89110 0.80897 -0.10678
C3 C 0.83231 0.82110 -0.20131
C4 C 0.87283 0.73396 -0.25850
C5 C 0.97614 0.62828 -0.22327
C6 C 1.03715 0.61480 -0.13235
O1 O 0.88933 0.89561 0.03243
O2 O 0.74134 0.98840 -0.08857
N1 N 1.06343 0.68252 0.02019
N2 N 0.83721 0.90351 -0.05169
H1 H 0.76832 0.90014 -0.22449
H2 H 0.83392 0.73315 -0.32063
H3 H 1.01370 0.56061 -0.26206
H4 H 1.10792 0.55192 -0.10189
H5 H 1.13648 0.60515 0.03790
H6 H 1.04172 0.71632 0.05587
C7 C 0.41709 0.79192 -0.08686
C8 C 0.30904 0.87435 -0.14813
C9 C 0.27616 0.85598 -0.23917
C10 C 0.34690 0.75335 -0.27651
C11 C 0.45321 0.67035 -0.21952
C12 C 0.48779 0.68916 -0.12519
O3 O 0.64212 0.61030 0.01398
O4 O 0.65359 0.50508 -0.10615
N3 N 0.44548 0.81844 0.00308
N4 N 0.60250 0.59675 -0.06944
H7 H 0.26101 0.95509 -0.11653
H8 H 0.32289 0.74398 -0.34323
H9 H 0.19648 0.92012 -0.27757
H10 H 0.50511 0.61368 -0.24604
H11 H 0.36557 0.89346 0.01345
H12 H 0.48495 0.75522 0.02838
#END
