
#######################################################################
#
#                 Cambridge Crystallographic Data Centre
#                                CCDC
#
#######################################################################
#
# If this CIF has been generated from an entry in the Cambridge
# Structural Database, then it will include bibliographic, chemical,
# crystal, experimental, refinement or atomic coordinate data resulting
# from the CCDC's data processing and validation procedures.
#
#######################################################################

data_CSD_CIF_ONITAN01
_audit_creation_date 2008-02-21
_audit_creation_method CSD-ConQuest-V1
_database_code_CSD ONITAN01
_database_code_depnum_ccdc_archive 'CCDC 655336'
_chemical_formula_sum 'C6 H6 N2 O2'
_chemical_formula_moiety
;
C6 H6 N2 O2
;
_journal_coden_Cambridge 1078
_journal_year 2007
_journal_name_full 'CSD Communication(Private Communication) '
loop_
_publ_author_name
"M.Nieger"
_chemical_name_systematic
;
2-Nitroaniline
;
_chemical_name_common
;
o-Nitroaniline
;
_cell_volume   1223.109
_exptl_crystal_colour 'colorless'
_exptl_crystal_density_diffrn 1.5
_exptl_special_details
;
gamma polymorph
contribution from Laboratory of Inorganic Chemistry, Department of Chemistry, 
Universitity of Helsinki, P.O. Box 55, FIN-00014 University of Helsinki, 
Finland
;
_exptl_crystal_description 'needles'
_diffrn_ambient_temperature 120
#These two values have been output from a single CSD field.
_refine_ls_R_factor_gt 0.0701
_refine_ls_wR_factor_gt 0.0701
_symmetry_cell_setting monoclinic
_symmetry_space_group_name_H-M 'P 21/n'
_symmetry_Int_Tables_number 14
loop_
_symmetry_equiv_pos_site_id
_symmetry_equiv_pos_as_xyz
1 x,y,z
2 1/2-x,1/2+y,1/2-z
3 -x,-y,-z
4 -1/2+x,-1/2-y,-1/2+z
_cell_length_a 8.3388(6)
_cell_length_b 10.0892(4)
_cell_length_c 15.0787(10)
_cell_angle_alpha 90
_cell_angle_beta 105.390(3)
_cell_angle_gamma 90
_cell_formula_units_Z 8
loop_
_atom_type_symbol
_atom_type_radius_bond
C 0.68
H 0.23
N 0.68
O 0.68
loop_
_atom_site_label
_atom_site_type_symbol
_atom_site_fract_x
_atom_site_fract_y
_atom_site_fract_z
N1 N 0.5631(4) 0.6809(4) 0.5219(2)
H1 H 0.637(5) 0.618(4) 0.539(3)
H2 H 0.534(6) 0.725(4) 0.566(2)
C1 C 0.4997(5) 0.7004(4) 0.4310(3)
C2 C 0.3912(4) 0.8066(4) 0.3920(2)
N2 N 0.3378(4) 0.9024(3) 0.4475(2)
O1 O 0.3910(4) 0.8969(3) 0.53327(18)
O2 O 0.2389(4) 0.9900(3) 0.40943(19)
C3 C 0.3310(5) 0.8204(4) 0.2962(3)
H3 H 0.26040 0.89280 0.27160
C4 C 0.3726(5) 0.7310(4) 0.2381(3)
H4 H 0.33100 0.74040 0.17330
C5 C 0.4784(5) 0.6245(4) 0.2758(3)
H5 H 0.50710 0.56140 0.23580
C6 C 0.5402(5) 0.6105(4) 0.3686(3)
H6 H 0.61240 0.53840 0.39180
N3 N 1.0542(4) 0.1823(4) 0.4981(2)
H7 H 1.119(5) 0.121(4) 0.483(3)
H8 H 0.984(5) 0.225(4) 0.453(2)
C7 C 1.0857(5) 0.2075(4) 0.5892(3)
C8 C 1.0143(4) 0.3118(4) 0.6285(3)
N4 N 0.9021(4) 0.4046(3) 0.5724(2)
O3 O 0.8596(4) 0.3908(3) 0.48739(18)
O4 O 0.8482(4) 0.4977(3) 0.6099(2)
C9 C 1.0513(5) 0.3298(4) 0.7245(3)
H9 H 1.00100 0.40020 0.74930
C10 C 1.1597(5) 0.2459(4) 0.7819(3)
H10 H 1.18480 0.25730 0.84670
C11 C 1.2337(5) 0.1430(4) 0.7444(3)
H11 H 1.31030 0.08570 0.78440
C12 C 1.1981(5) 0.1233(4) 0.6518(3)
H12 H 1.24940 0.05190 0.62870
#END
