
#######################################################################
#
#                 Cambridge Crystallographic Data Centre
#                                CCDC
#
#######################################################################
#
# If this CIF has been generated from an entry in the Cambridge
# Structural Database, then it will include bibliographic, chemical,
# crystal, experimental, refinement or atomic coordinate data resulting
# from the CCDC's data processing and validation procedures.
#
#######################################################################

data_CSD_CIF_ONONIP
_audit_creation_date 2011-06-24
_audit_creation_method CSD-ConQuest-V1
_database_code_CSD ONONIP
_database_code_depnum_ccdc_archive 'CCDC 756296'
_chemical_formula_sum 'C17 H21 N3 O6'
_chemical_formula_moiety
;
C17 H21 N3 O6
;
_journal_coden_Cambridge 16
_journal_volume 67
_journal_year 2011
_journal_page_first 2462
_journal_name_full 'Tetrahedron '
loop_
_publ_author_name
"Zheng-Jun Quan"
"Rong-Guo Ren"
"Xiao-Dong Jia"
"Yu-Xia Da"
"Zhang Zhang"
"Xi-Cun Wang"
_chemical_name_systematic
;
Ethyl 
3-(ethoxymethyl)-6-methyl-4-(4-nitrophenyl)-2-oxo-1,2,3,4-tetrahydropyrimidine
-5-carboxylate
;
_cell_volume   1842.759
_exptl_crystal_colour 'yellow'
_exptl_crystal_density_diffrn 1.31
_exptl_crystal_description 'block'
_diffrn_ambient_temperature 296
#These two values have been output from a single CSD field.
_refine_ls_R_factor_gt 0.0512
_refine_ls_wR_factor_gt 0.0512
_symmetry_cell_setting monoclinic
_symmetry_space_group_name_H-M 'P 21/c'
_symmetry_Int_Tables_number 14
loop_
_symmetry_equiv_pos_site_id
_symmetry_equiv_pos_as_xyz
1 x,y,z
2 -x,1/2+y,1/2-z
3 -x,-y,-z
4 x,-1/2-y,-1/2+z
_cell_length_a 12.3053(7)
_cell_length_b 7.5269(4)
_cell_length_c 19.9403(11)
_cell_angle_alpha 90
_cell_angle_beta 93.831(3)
_cell_angle_gamma 90
_cell_formula_units_Z 4
loop_
_atom_type_symbol
_atom_type_radius_bond
C 0.68
H 0.23
N 0.68
O 0.68
loop_
_atom_site_label
_atom_site_type_symbol
_atom_site_fract_x
_atom_site_fract_y
_atom_site_fract_z
C1 C 0.10489(18) 0.9974(3) 0.08304(12)
C2 C 0.04305(18) 0.7032(3) 0.11400(12)
C3 C 0.10608(17) 0.7054(3) 0.17135(11)
C4 C 0.19497(17) 0.8434(3) 0.18171(11)
H1 H 0.19930 0.87690 0.22930
C5 C 0.30617(17) 0.7720(3) 0.16577(11)
C6 C 0.39049(18) 0.7627(3) 0.21532(11)
H2 H 0.37800 0.79700 0.25890
C7 C 0.49255(19) 0.7034(3) 0.20118(12)
H3 H 0.54860 0.69680 0.23480
C8 C 0.50928(18) 0.6547(3) 0.13678(11)
C9 C 0.42735(19) 0.6593(3) 0.08629(11)
H4 H 0.44030 0.62410 0.04280
C10 C 0.32614(19) 0.7170(3) 0.10166(11)
H5 H 0.26980 0.71920 0.06820
C11 C -0.0434(2) 0.5705(3) 0.09266(14)
H6 H -0.01090 0.45530 0.08880
H7 H -0.07780 0.60500 0.05000
H8 H -0.09680 0.56630 0.12560
C12 C 0.0903(2) 0.5812(4) 0.22638(13)
C13 C 0.1538(3) 0.5045(5) 0.33710(17)
H9 H 0.07910 0.51170 0.34960
H10 H 0.17030 0.38080 0.32870
C14 C 0.2245(4) 0.5691(6) 0.39030(19)
H11 H 0.29820 0.53830 0.38230
H12 H 0.20530 0.51690 0.43180
H13 H 0.21790 0.69590 0.39290
C15 C 0.2129(2) 1.1709(3) 0.16536(13)
H14 H 0.17860 1.26700 0.13940
H15 H 0.19790 1.18860 0.21200
C16 C 0.3558(2) 1.1900(4) 0.09178(15)
H16 H 0.33530 1.30500 0.07300
H17 H 0.31910 1.09860 0.06450
C17 C 0.4763(3) 1.1661(4) 0.09258(18)
H18 H 0.51180 1.25890 0.11880
H19 H 0.49870 1.17100 0.04740
H20 H 0.49580 1.05290 0.11200
N1 N 0.05619(16) 0.8373(3) 0.06742(11)
N2 N 0.16519(15) 1.0037(2) 0.14228(9)
N3 N 0.61861(17) 0.5964(3) 0.12008(12)
O1 O 0.09155(14) 1.1269(2) 0.04558(9)
O2 O 0.63459(16) 0.5674(3) 0.06190(11)
O3 O 0.68817(16) 0.5781(3) 0.16575(11)
O4 O 0.02091(19) 0.4698(3) 0.22847(11)
O5 O 0.16582(15) 0.6068(3) 0.27703(9)
O6 O 0.32569(15) 1.1780(2) 0.15957(9)
H21 H 0.0118(19) 0.838(3) 0.0318(13)
#END
