
#######################################################################
#
#                 Cambridge Crystallographic Data Centre
#                                CCDC
#
#######################################################################
#
# If this CIF has been generated from an entry in the Cambridge
# Structural Database, then it will include bibliographic, chemical,
# crystal, experimental, refinement or atomic coordinate data resulting
# from the CCDC's data processing and validation procedures.
#
#######################################################################

data_CSD_CIF_OPAGOD
_audit_creation_date 2016-06-15
_audit_creation_method CSD-ConQuest-V1
_database_code_CSD OPAGOD
_database_code_depnum_ccdc_archive 'CCDC 1469408'
_chemical_formula_sum 'C19 H21 N3 O6'
_chemical_formula_moiety
;
C19 H21 N3 O6
;
_journal_coden_Cambridge 16
_journal_volume 72
_journal_year 2016
_journal_page_first 4617
_journal_name_full 'Tetrahedron '
loop_
_publ_author_name
"I.de Miguel"
"M.Velado"
"B.Herradon"
"E.Mann"
_chemical_name_systematic
;
(4aR,5S,8aS)-1-(3,5-dinitrobenzoyl)hexahydro-1H-5,8a-propanoquinolin-7(8H)-one
;
_cell_volume   1788.809
_exptl_crystal_colour 'pale yellow'
_exptl_crystal_density_diffrn 1.438
_exptl_crystal_description 'square column'
_diffrn_ambient_temperature 296
#These two values have been output from a single CSD field.
_refine_ls_R_factor_gt 0.0588
_refine_ls_wR_factor_gt 0.0588
_symmetry_cell_setting monoclinic
_symmetry_space_group_name_H-M 'P 21/c'
_symmetry_Int_Tables_number 14
loop_
_symmetry_equiv_pos_site_id
_symmetry_equiv_pos_as_xyz
1 x,y,z
2 -x,1/2+y,1/2-z
3 -x,-y,-z
4 x,-1/2-y,-1/2+z
_cell_length_a 6.7855(2)
_cell_length_b 16.8925(4)
_cell_length_c 15.8265(4)
_cell_angle_alpha 90
_cell_angle_beta 99.578(1)
_cell_angle_gamma 90
_cell_formula_units_Z 4
loop_
_atom_type_symbol
_atom_type_radius_bond
C 0.68
H 0.23
N 0.68
O 0.68
loop_
_atom_site_label
_atom_site_type_symbol
_atom_site_fract_x
_atom_site_fract_y
_atom_site_fract_z
C1 C 1.0689(4) 0.57196(15) 0.35687(16)
H1 H 1.17220 0.60730 0.35290
C2 C 1.0576(4) 0.50056(15) 0.31369(16)
C3 C 0.9092(4) 0.44560(15) 0.31793(16)
H2 H 0.90190 0.39840 0.28730
C4 C 0.7718(4) 0.46460(15) 0.37023(16)
C5 C 0.7753(4) 0.53512(15) 0.41436(16)
H3 H 0.68030 0.54570 0.44900
C6 C 0.9238(4) 0.59027(14) 0.40624(16)
C7 C 0.9487(4) 0.66663(15) 0.45743(16)
C8 C 0.5892(4) 0.70001(17) 0.40563(19)
H4 H 0.49540 0.67880 0.43980
H5 H 0.60290 0.66180 0.36120
C9 C 0.5100(5) 0.77619(19) 0.3652(2)
H6 H 0.37870 0.76700 0.33180
H7 H 0.59710 0.79420 0.32640
C10 C 0.4946(5) 0.84085(19) 0.43114(19)
H8 H 0.56180 0.88810 0.41590
H9 H 0.35500 0.85390 0.43040
C11 C 0.5877(4) 0.81480(16) 0.52080(17)
H10 H 0.50160 0.77340 0.53830
C12 C 0.8003(4) 0.77854(14) 0.52595(16)
C13 C 0.8629(4) 0.74280(15) 0.61571(16)
H11 H 0.77660 0.69820 0.62200
H12 H 0.99840 0.72290 0.62050
C14 C 0.8539(5) 0.80091(17) 0.68862(18)
H13 H 0.87090 0.77210 0.74240
H14 H 0.96350 0.83820 0.69150
C15 C 0.6577(5) 0.84642(19) 0.67779(19)
H15 H 0.66890 0.88870 0.71980
H16 H 0.55210 0.81110 0.68870
C16 C 0.6011(4) 0.88182(17) 0.58833(19)
H17 H 0.46810 0.90560 0.58430
C17 C 0.7462(5) 0.94688(16) 0.5724(2)
H18 H 0.68680 0.97710 0.52250
H19 H 0.76540 0.98260 0.62110
C18 C 0.9464(5) 0.91680(16) 0.5585(2)
C19 C 0.9490(4) 0.84214(16) 0.50636(19)
H20 H 1.08280 0.82000 0.51710
H21 H 0.91830 0.85560 0.44600
N1 N 1.2129(4) 0.48056(15) 0.26179(15)
N2 N 0.6128(3) 0.40684(14) 0.37746(15)
N3 N 0.7870(3) 0.71214(13) 0.46108(14)
O1 O 1.3500(3) 0.52734(15) 0.26162(15)
O2 O 1.1976(4) 0.41763(14) 0.22411(16)
O3 O 0.6058(4) 0.34649(13) 0.33497(15)
O4 O 0.4937(3) 0.42296(13) 0.42523(14)
O5 O 1.1183(3) 0.68100(12) 0.49500(14)
O6 O 1.0973(4) 0.95204(14) 0.58398(18)
#END
