
#######################################################################
#
#                 Cambridge Crystallographic Data Centre
#                                CCDC
#
#######################################################################
#
# If this CIF has been generated from an entry in the Cambridge
# Structural Database, then it will include bibliographic, chemical,
# crystal, experimental, refinement or atomic coordinate data resulting
# from the CCDC's data processing and validation procedures.
#
#######################################################################

data_CSD_CIF_OPAQAZ
_audit_creation_date 2016-06-15
_audit_creation_method CSD-ConQuest-V1
_database_code_CSD OPAQAZ
_database_code_depnum_ccdc_archive 'CCDC 1454607'
_chemical_formula_sum 'C16 H19 N1 O5'
_chemical_formula_moiety
;
C16 H19 N1 O5
;
_journal_coden_Cambridge 24
_journal_volume 57
_journal_year 2016
_journal_page_first 3190
_journal_name_full 'Tetrahedron Lett. '
loop_
_publ_author_name
"K.K.Gnanasekaran"
"Junghak Yoon"
"R.A.Bunce"
_chemical_name_systematic
;
methyl 1-(2-(4-nitrophenyl)propyl)-2-oxocyclopentanecarboxylate
;
_cell_volume   5948.465
_exptl_crystal_colour 'colorless'
_exptl_crystal_density_diffrn 1.364
_exptl_crystal_description 'rod'
_exptl_crystal_preparation 'pentane/ether'
_diffrn_ambient_temperature 100
#These two values have been output from a single CSD field.
_refine_ls_R_factor_gt 0.1089
_refine_ls_wR_factor_gt 0.1089
_symmetry_cell_setting orthorhombic
_symmetry_space_group_name_H-M 'P b c n'
_symmetry_Int_Tables_number 60
loop_
_symmetry_equiv_pos_site_id
_symmetry_equiv_pos_as_xyz
1 x,y,z
2 1/2-x,1/2-y,1/2+z
3 -x,y,1/2-z
4 1/2+x,1/2-y,-z
5 -x,-y,-z
6 -1/2+x,-1/2+y,-1/2-z
7 x,-y,-1/2+z
8 -1/2-x,-1/2+y,z
_cell_length_a 18.786(18)
_cell_length_b 11.569(11)
_cell_length_c 27.37(2)
_cell_angle_alpha 90
_cell_angle_beta 90
_cell_angle_gamma 90
_cell_formula_units_Z 16
loop_
_atom_type_symbol
_atom_type_radius_bond
C 0.68
H 0.23
N 0.68
O 0.68
loop_
_atom_site_label
_atom_site_type_symbol
_atom_site_fract_x
_atom_site_fract_y
_atom_site_fract_z
O1 O 0.1695(4) 0.1938(7) 0.2007(3)
O2 O 0.4587(5) 0.2486(8) 0.4471(3)
O3 O 0.4491(5) 0.4327(8) 0.4579(3)
O4 O 0.2100(4) 0.4012(7) 0.3294(3)
O5 O 0.2333(4) 0.2202(6) 0.3040(3)
N1 N 0.4459(5) 0.3475(10) 0.4320(4)
C1 C 0.2189(6) 0.3604(9) 0.2419(4)
C2 C 0.1604(7) 0.2886(11) 0.2188(4)
C3 C 0.0942(7) 0.3572(10) 0.2164(5)
H1 H 0.05500 0.31680 0.23360
H2 H 0.07990 0.36970 0.18200
C4 C 0.1102(6) 0.4714(10) 0.2410(5)
H3 H 0.08410 0.53570 0.22520
H4 H 0.09810 0.46920 0.27620
C5 C 0.1895(6) 0.4827(10) 0.2334(5)
H5 H 0.21030 0.53810 0.25700
H6 H 0.20030 0.50950 0.19980
C6 C 0.2913(6) 0.3361(11) 0.2182(5)
H7 H 0.30300 0.25390 0.22420
H8 H 0.28560 0.34540 0.18250
C7 C 0.3548(6) 0.4070(11) 0.2335(4)
H9 H 0.34070 0.49000 0.23000
C8 C 0.4164(6) 0.3879(11) 0.1999(4)
H10 H 0.43370 0.30830 0.20300
H11 H 0.45480 0.44180 0.20830
H12 H 0.40100 0.40190 0.16620
C9 C 0.3776(6) 0.3906(10) 0.2857(4)
C10 C 0.3909(5) 0.2784(10) 0.3047(4)
H13 H 0.38320 0.21250 0.28470
C11 C 0.4149(6) 0.2638(10) 0.3524(4)
H14 H 0.42370 0.18900 0.36540
C12 C 0.4255(6) 0.3614(9) 0.3801(4)
C13 C 0.4162(5) 0.4721(9) 0.3620(4)
H15 H 0.42600 0.53820 0.38140
C14 C 0.3926(6) 0.4819(10) 0.3153(4)
H16 H 0.38600 0.55750 0.30250
C15 C 0.2199(6) 0.3372(11) 0.2973(5)
C16 C 0.2374(6) 0.1847(10) 0.3538(4)
H17 H 0.27410 0.22960 0.37080
H18 H 0.24950 0.10240 0.35520
H19 H 0.19130 0.19730 0.36970
O6 O 0.3538(4) 0.5309(7) 0.5874(3)
O7 O 0.0426(4) 0.4542(7) 0.3661(3)
O8 O 0.0589(4) 0.2707(6) 0.3593(3)
O9 O 0.2976(4) 0.3076(7) 0.4755(3)
O10 O 0.2682(4) 0.4887(7) 0.4976(3)
N2 N 0.0601(5) 0.3611(9) 0.3830(4)
C17 C 0.2902(6) 0.3596(9) 0.5631(4)
C18 C 0.3555(6) 0.4302(11) 0.5794(4)
C19 C 0.4184(6) 0.3552(9) 0.5871(5)
H20 H 0.43080 0.35090 0.62220
H21 H 0.46000 0.38460 0.56870
C20 C 0.3946(6) 0.2339(10) 0.5673(5)
H22 H 0.40840 0.22420 0.53270
H23 H 0.41620 0.17080 0.58680
C21 C 0.3144(6) 0.2347(10) 0.5729(5)
H24 H 0.30070 0.21060 0.60630
H25 H 0.29220 0.18120 0.54920
C22 C 0.2248(6) 0.3978(11) 0.5893(5)
H26 H 0.23520 0.39500 0.62470
H27 H 0.21670 0.48000 0.58080
C23 C 0.1563(6) 0.3355(11) 0.5813(4)
H28 H 0.16650 0.25220 0.58800
C24 C 0.0994(6) 0.3709(10) 0.6182(4)
H29 H 0.11600 0.35250 0.65130
H30 H 0.05530 0.32830 0.61150
H31 H 0.09040 0.45410 0.61570
C25 C 0.1285(6) 0.3401(10) 0.5296(4)
C26 C 0.1066(6) 0.4465(10) 0.5094(4)
H32 H 0.10830 0.51470 0.52870
C27 C 0.0826(6) 0.4521(10) 0.4614(4)
H33 H 0.06820 0.52380 0.44770
C28 C 0.0801(6) 0.3539(10) 0.4342(4)
C29 C 0.1000(6) 0.2485(10) 0.4538(4)
H34 H 0.09850 0.18050 0.43440
C30 C 0.1217(6) 0.2435(11) 0.5009(4)
H35 H 0.13250 0.17020 0.51470
C31 C 0.2859(6) 0.3772(10) 0.5073(5)
C32 C 0.2607(7) 0.5171(11) 0.4466(4)
H36 H 0.30670 0.50780 0.43020
H37 H 0.24470 0.59740 0.44350
H38 H 0.22560 0.46560 0.43150
#END
