
#######################################################################
#
#                 Cambridge Crystallographic Data Centre
#                                CCDC
#
#######################################################################
#
# If this CIF has been generated from an entry in the Cambridge
# Structural Database, then it will include bibliographic, chemical,
# crystal, experimental, refinement or atomic coordinate data resulting
# from the CCDC's data processing and validation procedures.
#
#######################################################################

data_CSD_CIF_OPILOP
_audit_creation_date 2011-04-26
_audit_creation_method CSD-ConQuest-V1
_database_code_CSD OPILOP
_database_code_depnum_ccdc_archive 'CCDC 688298'
_chemical_formula_sum 'C12 H12 N2 O2'
_chemical_formula_moiety
;
C12 H12 N2 O2
;
_journal_coden_Cambridge 122
_journal_year 2009
_journal_page_first 868
_journal_name_full 'Khim.Get.Soedin.,SSSR(Russ.)(Chem.Heterocycl.Compd.) '
loop_
_publ_author_name
"S.A.Amitina"
"A.Ya.Tikhonov"
"I.A.Grigor'ev"
"Yu.A.Gatilov"
"B.A.Selivanov"
_chemical_name_systematic
;
2-Benzoyl-1-hydroxy-4,5-dimethylimidazole
;
_chemical_melting_point 335
_cell_volume    549.851
_exptl_crystal_colour 'light yellow'
_exptl_crystal_density_diffrn 1.306
_exptl_crystal_preparation 'hexane'
_diffrn_ambient_temperature 295
#These two values have been output from a single CSD field.
_refine_ls_R_factor_gt 0.0463
_refine_ls_wR_factor_gt 0.0463
_symmetry_cell_setting triclinic
_symmetry_space_group_name_H-M 'P -1'
_symmetry_Int_Tables_number 2
loop_
_symmetry_equiv_pos_site_id
_symmetry_equiv_pos_as_xyz
1 x,y,z
2 -x,-y,-z
_cell_length_a 7.4321(5)
_cell_length_b 8.0943(6)
_cell_length_c 9.6860(7)
_cell_angle_alpha 90.999(6)
_cell_angle_beta 107.164(5)
_cell_angle_gamma 98.264(6)
_cell_formula_units_Z 2
loop_
_atom_type_symbol
_atom_type_radius_bond
C 0.68
H 0.23
N 0.68
O 0.68
loop_
_atom_site_label
_atom_site_type_symbol
_atom_site_fract_x
_atom_site_fract_y
_atom_site_fract_z
O1 O 0.7459(2) 0.28915(15) 0.88273(16)
N1 N 0.77107(19) 0.15318(15) 0.96562(14)
O2 O 0.50929(18) 0.07117(14) 0.70284(12)
C1 C 0.6792(2) -0.00798(17) 0.92555(15)
N2 N 0.74236(17) -0.10441(15) 1.03487(12)
C2 C 0.8720(2) -0.0019(2) 1.14114(15)
C3 C 0.8940(2) 0.1610(2) 1.09969(17)
C4 C 0.5451(2) -0.04651(18) 0.78314(15)
C5 C 0.4552(2) -0.21988(18) 0.72682(14)
C6 C 0.4538(2) -0.3560(2) 0.81223(17)
H1 H 0.512(2) -0.338(2) 0.9149(17)
C7 C 0.3674(3) -0.5130(2) 0.75036(19)
H2 H 0.371(3) -0.604(2) 0.8103(19)
C8 C 0.2836(3) -0.5363(2) 0.6032(2)
H3 H 0.229(3) -0.643(2) 0.557(2)
C9 C 0.2839(4) -0.4024(3) 0.5178(2)
H4 H 0.226(3) -0.412(3) 0.414(2)
C10 C 0.3677(3) -0.2451(2) 0.57839(18)
H5 H 0.366(3) -0.154(2) 0.519(2)
C11 C 0.9716(3) -0.0630(3) 1.28354(19)
H6 H 0.898(3) -0.067(3) 1.350(2)
H7 H 1.088(3) 0.007(3) 1.331(2)
H8 H 0.989(3) -0.179(2) 1.272(2)
C12 C 1.0186(3) 0.3176(3) 1.1727(3)
H9 H 1.101(4) 0.366(3) 1.114(3)
H10 H 0.956(4) 0.407(3) 1.183(4)
H11 H 1.122(4) 0.291(4) 1.255(3)
H12 H 0.643(4) 0.234(3) 0.791(3)
#END
