
#######################################################################
#
#                 Cambridge Crystallographic Data Centre
#                                CCDC
#
#######################################################################
#
# If this CIF has been generated from an entry in the Cambridge
# Structural Database, then it will include bibliographic, chemical,
# crystal, experimental, refinement or atomic coordinate data resulting
# from the CCDC's data processing and validation procedures.
#
#######################################################################

data_CSD_CIF_OPIMEG
_audit_creation_date 2011-04-26
_audit_creation_method CSD-ConQuest-V1
_database_code_CSD OPIMEG
_database_code_depnum_ccdc_archive 'CCDC 640757'
_chemical_formula_sum 'C18 H18 N2 O9'
_chemical_formula_moiety
;
C18 H18 N2 O9
;
_journal_coden_Cambridge 95
_journal_year 2009
_journal_page_first 1410
_journal_name_full 'Izv.Akad.Nauk SSSR,Ser.Khim.(Russ.)(Russ.Chem.Bull.) '
loop_
_publ_author_name
"V.A.Mamedov"
"L.P.Sysoeva"
"A.M.Murtazina"
"E.A.Berdnikov"
"A.T.Gubaidullin"
"S.F.Kadyrova"
"E.V.Mironova"
"I.A.Litvinov"
_chemical_name_systematic
;
Ethyl 
5-(2-ethoxy-1-hydroxy-2-oxoethylidene)-6-(2-hydroxy-3-nitrophenyl)-4-oxo-1,4,5
,6-tetrahydropyridine-2-carboxylate
;
_chemical_melting_point 117
_cell_volume   1893.615
_exptl_crystal_colour 'red-orange'
_exptl_crystal_density_diffrn 1.425
_exptl_special_details
;
Melting point range 117-9K
Absolute configuration

;
_exptl_crystal_description 'prism'
_diffrn_ambient_temperature 295
#These two values have been output from a single CSD field.
_refine_ls_R_factor_gt 0.1033
_refine_ls_wR_factor_gt 0.1033
_symmetry_cell_setting monoclinic
_symmetry_space_group_name_H-M 'P 21'
_symmetry_Int_Tables_number 4
loop_
_symmetry_equiv_pos_site_id
_symmetry_equiv_pos_as_xyz
1 x,y,z
2 -x,1/2+y,-z
_cell_length_a 8.710(6)
_cell_length_b 20.24(2)
_cell_length_c 10.756(8)
_cell_angle_alpha 90
_cell_angle_beta 92.98(6)
_cell_angle_gamma 90
_cell_formula_units_Z 4
loop_
_atom_type_symbol
_atom_type_radius_bond
C 0.68
H 0.23
N 0.68
O 0.68
loop_
_atom_site_label
_atom_site_type_symbol
_atom_site_fract_x
_atom_site_fract_y
_atom_site_fract_z
O1 O 0.0415(12) 0.6533(6) 1.5947(16)
O2 O 0.2854(13) 0.6547(6) 1.5649(14)
C1 C 0.1675(14) 0.6823(8) 1.5792(18)
C2 C 0.889(2) 1.0778(12) 0.920(2)
H1 H 0.78760 1.09620 0.92980
H2 H 0.95200 1.08880 0.99470
O3 O 0.8766(10) 1.0051(6) 0.9101(11)
C3 C -0.553(3) 1.0413(12) 1.599(3)
H3 H -0.62770 1.07180 1.62810
H4 H -0.60370 1.00120 1.57270
H5 H -0.50250 1.06040 1.53080
C4 C 0.951(3) 1.1059(13) 0.821(3)
H6 H 0.92060 1.15140 0.81530
H7 H 0.91580 1.08310 0.74660
H8 H 1.06120 1.10320 0.83000
C5 C -0.080(4) 0.5568(15) 1.636(4)
H9 H -0.15730 0.55570 1.56830
H10 H -0.11670 0.58290 1.70250
H11 H -0.05980 0.51270 1.66440
C6 C 0.046(2) 0.5829(11) 1.597(3)
H12 H 0.06210 0.56690 1.51320
H13 H 0.13230 0.56860 1.65040
C7 C 1.613(3) 0.5840(15) 0.899(3)
H14 H 1.65930 0.54260 0.87800
H15 H 1.54580 0.57720 0.96580
H16 H 1.69240 0.61480 0.92510
O4 O 0.8329(8) 0.8793(6) 0.9186(8)
H17 H 0.83040 0.83880 0.91820
C8 C 0.0315(10) 0.7962(7) 1.5864(9)
C9 C -0.1319(10) 0.7722(7) 1.5702(10)
H18 H -0.13920 0.72930 1.61190
O5 O 0.9208(7) 0.7649(5) 0.9079(8)
N1 N -0.2363(9) 0.8184(5) 1.6274(8)
H19 H -0.31750 0.80320 1.65950
C10 C 1.0634(10) 0.7857(8) 0.9125(9)
O6 O 1.5481(7) 0.9230(5) 0.9929(7)
H20 H 1.63270 0.93840 1.01360
C11 C -0.1860(11) 0.7637(6) 1.4329(9)
O7 O 0.2986(8) 0.7809(5) 1.5926(8)
H21 H 0.29380 0.82130 1.59410
O8 O 0.1914(7) 0.8923(5) 1.5971(8)
N2 N 1.3603(10) 0.8247(6) 0.8805(8)
H22 H 1.44350 0.83700 0.84760
O9 O -0.4117(7) 0.7197(5) 1.5031(7)
H23 H -0.49640 0.70590 1.47840
C12 C 0.1624(11) 0.7567(7) 1.5886(10)
C13 C -0.3876(13) 0.7347(7) 1.2799(11)
O10 O -0.3248(10) 0.9856(5) 1.6573(10)
C14 C 1.4745(12) 0.9060(6) 1.0953(11)
O11 O -0.6303(11) 0.7025(7) 1.3262(11)
C15 C 1.3242(11) 0.7619(6) 0.8776(10)
C16 C 1.2643(10) 0.8755(7) 0.9379(9)
H24 H 1.27760 0.91770 0.89500
C17 C 1.2401(15) 0.8671(9) 1.1706(12)
H25 H 1.14160 0.85010 1.15620
N3 N 1.6889(13) 0.9369(7) 1.2465(12)
C18 C -0.0691(12) 0.9091(8) 1.6030(11)
H26 H -0.05800 0.95420 1.58950
C19 C 1.1780(13) 0.7389(7) 0.8981(10)
H27 H 1.15720 0.69400 0.90220
O12 O 1.4114(11) 0.6558(6) 0.8357(11)
C20 C -0.3319(11) 0.7390(6) 1.4044(10)
C21 C -0.3469(14) 0.9223(7) 1.6645(12)
O13 O 1.7676(10) 0.9492(8) 1.1609(12)
C22 C -0.1570(16) 0.7770(11) 1.2161(13)
H28 H -0.09480 0.78950 1.15240
C23 C 1.4441(17) 0.8968(9) 1.3158(12)
H29 H 1.48670 0.90030 1.39660
N4 N -0.5410(14) 0.7115(7) 1.2451(12)
C24 C 1.4507(14) 0.7179(8) 0.8398(12)
O14 O 1.5773(10) 0.7398(6) 0.8201(10)
O15 O -0.4642(9) 0.8961(5) 1.6911(9)
O16 O 1.7294(13) 0.9458(9) 1.3526(11)
C25 C 1.3229(10) 0.8825(7) 1.0738(10)
C26 C 0.0557(10) 0.8659(7) 1.5954(9)
C27 C 1.0973(11) 0.8539(8) 0.9197(11)
O17 O 1.1233(11) 0.9953(7) 0.9716(15)
C28 C 0.9759(11) 0.8992(8) 0.9210(13)
C29 C -0.2102(11) 0.8824(6) 1.6315(9)
C30 C 1.0023(15) 0.9723(10) 0.9342(17)
C31 C -0.3014(16) 0.7534(8) 1.1871(10)
H30 H -0.33870 0.75050 1.10470
C32 C 1.5300(12) 0.9126(7) 1.218(1)
C33 C -0.1023(14) 0.7826(8) 1.3375(11)
H31 H -0.00450 0.79990 1.35430
C34 C 1.530(2) 0.6089(11) 0.796(2)
H32 H 1.48080 0.57290 0.74940
H33 H 1.59870 0.63130 0.74160
O18 O -0.5752(14) 0.6979(9) 1.1409(12)
C35 C 1.2994(18) 0.8762(10) 1.2965(13)
H34 H 1.23830 0.86790 1.36310
C36 C -0.444(2) 1.0272(10) 1.696(2)
H35 H -0.49510 1.00600 1.76380
H36 H -0.39990 1.06830 1.72790
#END
