
#######################################################################
#
#                 Cambridge Crystallographic Data Centre
#                                CCDC
#
#######################################################################
#
# If this CIF has been generated from an entry in the Cambridge
# Structural Database, then it will include bibliographic, chemical,
# crystal, experimental, refinement or atomic coordinate data resulting
# from the CCDC's data processing and validation procedures.
#
#######################################################################

data_CSD_CIF_OPODED
_audit_creation_date 2011-10-11
_audit_creation_method CSD-ConQuest-V1
_database_code_CSD OPODED
_database_code_depnum_ccdc_archive 'CCDC 749894'
_chemical_formula_sum 'C13 H8 N2 O6'
_chemical_formula_moiety
;
C13 H8 N2 O6
;
_journal_coden_Cambridge 1295
_journal_volume 13
_journal_year 2010
_journal_page_first 153
_journal_name_full 'Inorg.Chem.Commun. '
loop_
_publ_author_name
"B.Panunzi"
"A.Tuzi"
"M.Tingoli"
_chemical_name_systematic
;
1,11-Dinitrodibenzo[d,f][1,3]dioxepine
;
_cell_volume   1265.778
_exptl_crystal_colour 'orange'
_exptl_crystal_density_diffrn 1.512
_exptl_crystal_description 'plate'
_diffrn_ambient_temperature 173
#These two values have been output from a single CSD field.
_refine_ls_R_factor_gt 0.071
_refine_ls_wR_factor_gt 0.071
_symmetry_cell_setting monoclinic
_symmetry_space_group_name_H-M 'C 2/c'
_symmetry_Int_Tables_number 15
loop_
_symmetry_equiv_pos_site_id
_symmetry_equiv_pos_as_xyz
1 x,y,z
2 -x,y,1/2-z
3 1/2+x,1/2+y,z
4 1/2-x,1/2+y,1/2-z
5 -x,-y,-z
6 x,-y,-1/2+z
7 -1/2-x,-1/2-y,-z
8 -1/2+x,-1/2-y,-1/2+z
_cell_length_a 13.257(6)
_cell_length_b 9.366(3)
_cell_length_c 10.198(4)
_cell_angle_alpha 90
_cell_angle_beta 91.54(3)
_cell_angle_gamma 90
_cell_formula_units_Z 4
loop_
_atom_type_symbol
_atom_type_radius_bond
C 0.68
H 0.23
N 0.68
O 0.68
loop_
_atom_site_label
_atom_site_type_symbol
_atom_site_fract_x
_atom_site_fract_y
_atom_site_fract_z
C1 C 0.00000 0.8437(5) 0.25000
H1 H -0.02870 0.90470 0.31630
C2 C 0.1124(3) 0.6471(4) 0.2279(3)
C3 C 0.2076(3) 0.6600(4) 0.1697(3)
H2 H 0.24640 0.74440 0.18240
C4 C 0.2443(3) 0.5494(4) 0.0940(4)
H3 H 0.30850 0.55760 0.05540
C5 C 0.1869(3) 0.4269(4) 0.0748(3)
H4 H 0.21130 0.35120 0.02240
C6 C 0.0915(3) 0.4153(3) 0.1339(3)
C7 C 0.0501(2) 0.5242(3) 0.2143(3)
N1 N 0.0337(3) 0.2811(3) 0.1087(3)
O1 O 0.07840(18) 0.7578(2) 0.3093(3)
O2 O -0.0596(2) 0.2873(3) 0.0979(3)
O3 O 0.0840(2) 0.1682(3) 0.0981(2)
H1A H 0.02870 0.90470 0.18370
C2A C -0.1124(3) 0.6471(4) 0.2721(3)
C3A C -0.2076(3) 0.6600(4) 0.3303(3)
H2A H -0.24640 0.74440 0.31760
C4A C -0.2443(3) 0.5494(4) 0.4060(4)
H3A H -0.30850 0.55760 0.44460
C5A C -0.1869(3) 0.4269(4) 0.4252(3)
H4A H -0.21130 0.35120 0.47760
C6A C -0.0915(3) 0.4153(3) 0.3661(3)
C7A C -0.0501(2) 0.5242(3) 0.2857(3)
N1A N -0.0337(3) 0.2811(3) 0.3913(3)
O1A O -0.07840(18) 0.7578(2) 0.1907(3)
O2A O 0.0596(2) 0.2873(3) 0.4021(3)
O3A O -0.0840(2) 0.1682(3) 0.4019(2)
#END
