
#######################################################################
#
#                 Cambridge Crystallographic Data Centre
#                                CCDC
#
#######################################################################
#
# If this CIF has been generated from an entry in the Cambridge
# Structural Database, then it will include bibliographic, chemical,
# crystal, experimental, refinement or atomic coordinate data resulting
# from the CCDC's data processing and validation procedures.
#
#######################################################################

data_CSD_CIF_OPOFOQ
_audit_creation_date 2016-06-16
_audit_creation_method CSD-ConQuest-V1
_database_code_CSD OPOFOQ
_database_code_depnum_ccdc_archive 'CCDC 1430301'
_chemical_formula_sum 'C13 H12 N4 O1'
_chemical_formula_moiety
;
C13 H12 N4 O1
;
_journal_coden_Cambridge 24
_journal_volume 57
_journal_year 2016
_journal_page_first 3194
_journal_name_full 'Tetrahedron Lett. '
loop_
_publ_author_name
"A.K.Franzen"
"W.J.Marshall"
"Kyung-Ho Park"
_chemical_name_systematic
;
3-phenyl-5,6,6a,7-tetrahydro[1,2]oxazolo[3,4-c][1,2,4]triazolo[4,3-a]pyridine
;
_cell_volume   1688.126
_exptl_crystal_colour 'colorless'
_exptl_crystal_density_diffrn 1.418
_exptl_crystal_description 'irregular block'
_diffrn_ambient_temperature 293
_refine_special_details
;
C43,C44,C45,C46,C47 and C43',C44',C45',C46',C47' disordered over two sites 
with occupancies 0.854:0.146.
;
#These two values have been output from a single CSD field.
_refine_ls_R_factor_gt 0.0442
_refine_ls_wR_factor_gt 0.0442
_symmetry_cell_setting triclinic
_symmetry_space_group_name_H-M 'P -1'
_symmetry_Int_Tables_number 2
loop_
_symmetry_equiv_pos_site_id
_symmetry_equiv_pos_as_xyz
1 x,y,z
2 -x,-y,-z
_cell_length_a 9.785(6)
_cell_length_b 10.623(6)
_cell_length_c 17.926(11)
_cell_angle_alpha 95.406(9)
_cell_angle_beta 104.544(9)
_cell_angle_gamma 107.742(8)
_cell_formula_units_Z 6
loop_
_atom_type_symbol
_atom_type_radius_bond
C 0.68
H 0.23
N 0.68
O 0.68
loop_
_atom_site_label
_atom_site_type_symbol
_atom_site_fract_x
_atom_site_fract_y
_atom_site_fract_z
O1 O 0.48252(12) 1.30934(10) 0.54914(6)
N1 N 0.16502(12) 0.7796(1) 0.38186(6)
C1 C 0.25663(13) 0.80775(11) 0.33762(7)
N2 N 0.19622(12) 0.89391(10) 0.43534(6)
C2 C 0.30580(12) 0.98802(11) 0.42146(7)
N3 N 0.34817(10) 0.93972(9) 0.36056(6)
C3 C 0.46745(13) 1.02033(12) 0.33021(7)
H1 H 0.42190 1.04710 0.28260
H2 H 0.52470 0.96580 0.31730
N4 N 0.38460(13) 1.17488(11) 0.52908(7)
C4 C 0.57262(13) 1.14538(12) 0.39032(7)
H3 H 0.63750 1.20460 0.36580
H4 H 0.63550 1.11940 0.43280
C5 C 0.48305(13) 1.21989(11) 0.42328(7)
H5 H 0.42220 1.24990 0.38120
C6 C 0.38409(13) 1.12634(12) 0.46104(7)
C7 C 0.56845(16) 1.33443(13) 0.49280(8)
H6 H 0.66960 1.33450 0.51520
H7 H 0.57410 1.42040 0.47720
C8 C 0.25431(13) 0.70733(12) 0.27470(7)
C9 C 0.18657(15) 0.57150(12) 0.27692(8)
H8 H 0.15190 0.54810 0.31920
C10 C 0.17098(16) 0.47210(13) 0.21655(8)
H9 H 0.12470 0.38220 0.21810
C11 C 0.22426(16) 0.50599(14) 0.15362(8)
H10 H 0.21240 0.43900 0.11280
C12 C 0.29501(16) 0.63968(14) 0.15179(8)
H11 H 0.33270 0.66220 0.11030
C13 C 0.30974(15) 0.74008(13) 0.21173(8)
H12 H 0.35680 0.82970 0.21000
O2 O 1.14655(11) 1.36822(10) 0.43719(6)
N5 N 1.08267(12) 0.97932(11) 0.18051(6)
C14 C 0.96580(13) 0.90325(12) 0.19986(7)
N6 N 1.14257(12) 1.10116(11) 0.23145(6)
C15 C 1.05920(13) 1.09476(11) 0.27955(7)
N7 N 0.94775(11) 0.97242(9) 0.26275(6)
C16 C 0.84000(14) 0.92913(12) 0.30812(7)
H13 H 0.82520 0.83620 0.31330
H14 H 0.74390 0.93460 0.28020
N8 N 1.17632(12) 1.30612(11) 0.37261(7)
C17 C 0.89695(15) 1.01670(13) 0.38897(7)
H15 H 0.81780 0.99740 0.41410
H16 H 0.98070 0.99640 0.42090
C18 C 0.94687(14) 1.16413(12) 0.38307(8)
H17 H 0.86150 1.18560 0.35240
C19 C 1.06930(13) 1.19373(12) 0.34395(7)
C20 C 1.02808(16) 1.26827(15) 0.45721(8)
H18 H 0.96050 1.30860 0.47270
H19 H 1.07040 1.22840 0.49970
C21 C 0.87066(14) 0.76702(12) 0.15783(7)
C22 C 0.93493(15) 0.68939(13) 0.12001(8)
H20 H 1.03630 0.72370 0.12350
C23 C 0.84859(17) 0.56220(14) 0.07764(8)
H21 H 0.89220 0.51110 0.05290
C24 C 0.69779(17) 0.51034(14) 0.07184(9)
H22 H 0.64040 0.42410 0.04380
C25 C 0.63209(16) 0.58708(13) 0.10780(9)
H23 H 0.53030 0.55260 0.10330
C26 C 0.71756(15) 0.71498(12) 0.15044(8)
H24 H 0.67280 0.76630 0.17420
O3 O 0.20897(13) -0.23902(10) -0.06036(6)
N9 N 0.65735(12) 0.11745(11) 0.20339(6)
C27 C 0.57856(13) 0.19909(11) 0.18943(7)
N10 N 0.58177(12) -0.00050(11) 0.14898(7)
C28 C 0.46039(14) 0.01425(11) 0.10449(7)
N11 N 0.45240(11) 0.13770(9) 0.12764(6)
N12 N 0.34304(14) -0.18430(11) 0.00267(7)
C29 C 0.3321(2) 0.1880(2) 0.08990(12)
H25 H 0.37520 0.28240 0.08790
H26 H 0.26210 0.17980 0.12060
C30 C 0.24914(18) 0.10816(15) 0.00712(9)
H27 H 0.31430 0.12900 -0.02610
H28 H 0.16160 0.13280 -0.01450
C31 C 0.20055(16) -0.04197(14) 0.00892(8)
H29 H 0.13370 -0.06440 0.04190
C32 C 0.3387(2) -0.07817(18) 0.04002(11)
C33 C 0.1338(5) -0.1396(4) -0.0699(5)
H30 H 0.02610 -0.18190 -0.08110
H31 H 0.15390 -0.09330 -0.11220
C34 C 0.61832(13) 0.33116(11) 0.23789(7)
C35 C 0.76932(14) 0.41236(13) 0.26789(8)
H32 H 0.84260 0.38640 0.25290
C36 C 0.80957(16) 0.53152(14) 0.31993(9)
H33 H 0.91010 0.58540 0.34010
C37 C 0.70050(16) 0.57063(13) 0.34201(8)
H34 H 0.72830 0.65010 0.37750
C38 C 0.55015(15) 0.49182(13) 0.31141(8)
H35 H 0.47720 0.51920 0.32570
C39 C 0.50891(14) 0.37221(12) 0.25953(7)
H36 H 0.40810 0.31920 0.23910
C40? C 0.3507(16) 0.2015(16) 0.0782(10)
H37? H 0.40140 0.25260 0.04500
H38? H 0.32490 0.26200 0.11180
C41? C 0.2079(11) 0.0871(10) 0.0276(6)
H39? H 0.15660 0.03710 0.06110
H40? H 0.14010 0.12400 -0.00490
C42? C 0.2525(9) -0.0044(8) -0.0231(5)
H41? H 0.29720 0.04260 -0.06020
C43? C 0.3599(16) -0.0614(12) 0.0279(7)
C44? C 0.132(3) -0.140(2) -0.065(3)
H42? H 0.05380 -0.16290 -0.03880
H43? H 0.08590 -0.13720 -0.11890
#END
