
#######################################################################
#
#                 Cambridge Crystallographic Data Centre
#                                CCDC
#
#######################################################################
#
# If this CIF has been generated from an entry in the Cambridge
# Structural Database, then it will include bibliographic, chemical,
# crystal, experimental, refinement or atomic coordinate data resulting
# from the CCDC's data processing and validation procedures.
#
#######################################################################

data_CSD_CIF_OPOHEI
_audit_creation_date 2016-06-16
_audit_creation_method CSD-ConQuest-V1
_database_code_CSD OPOHEI
_database_code_depnum_ccdc_archive 'CCDC 1017413'
_chemical_formula_sum 'C28 H25 N1 O5'
_chemical_formula_moiety
;
C28 H25 N1 O5
;
_journal_coden_Cambridge 4
_journal_volume 136
_journal_year 2014
_journal_page_first 14951
_journal_name_full 'J.Am.Chem.Soc. '
loop_
_publ_author_name
"E.J.Tollefson"
"D.D.Dawson"
"C.A.Osborne"
"E.R.Jarvo"
_chemical_name_systematic
;
syn-2-methoxy-4-(naphthalen-2-yl)-4-phenylbutyl-4-nitrobenzoate
;
_chemical_melting_point 390.15
_cell_volume   2287.031
_exptl_crystal_colour 'colorless'
_exptl_crystal_density_diffrn 1.323
_exptl_special_details
;
Melting point range 390.15-392.15K

;
_exptl_crystal_description 'prism'
_diffrn_ambient_temperature 130
#These two values have been output from a single CSD field.
_refine_ls_R_factor_gt 0.045
_refine_ls_wR_factor_gt 0.045
loop_
_citation_database_id_CSD
_citation_special_details
OPOHIM "is a stereoisomer of this entry"
_symmetry_cell_setting monoclinic
_symmetry_space_group_name_H-M 'P 21/c'
_symmetry_Int_Tables_number 14
loop_
_symmetry_equiv_pos_site_id
_symmetry_equiv_pos_as_xyz
1 x,y,z
2 -x,1/2+y,1/2-z
3 -x,-y,-z
4 x,-1/2-y,-1/2+z
_cell_length_a 15.8595(11)
_cell_length_b 11.0683(8)
_cell_length_c 13.0301(9)
_cell_angle_alpha 90
_cell_angle_beta 90.8344(9)
_cell_angle_gamma 90
_cell_formula_units_Z 4
loop_
_atom_type_symbol
_atom_type_radius_bond
C 0.68
H 0.23
N 0.68
O 0.68
loop_
_atom_site_label
_atom_site_type_symbol
_atom_site_fract_x
_atom_site_fract_y
_atom_site_fract_z
O1 O 0.64331(7) 0.96793(9) 0.90948(7)
O2 O 0.68441(7) 1.12595(9) 0.81364(8)
O3 O 0.63733(6) 0.69934(9) 0.91990(7)
O4 O 0.48770(7) 1.34569(10) 1.27596(7)
O5 O 0.50608(8) 1.49811(9) 1.17471(8)
N1 N 0.51301(8) 1.39063(11) 1.19612(9)
C1 C 0.66674(11) 0.88654(13) 0.82713(11)
C2 C 0.70002(9) 0.76872(12) 0.86967(10)
C3 C 0.73182(9) 0.69721(13) 0.77815(11)
C4 C 0.76750(9) 0.57189(12) 0.80351(10)
C5 C 0.83174(9) 0.58062(12) 0.89137(10)
C6 C 0.81474(10) 0.53259(13) 0.98493(11)
C7 C 0.87008(9) 0.54956(13) 1.07185(11)
C8 C 0.85196(11) 0.50105(15) 1.16836(12)
C9 C 0.90624(12) 0.52070(17) 1.24960(13)
C10 C 0.98071(12) 0.58958(17) 1.23726(13)
C11 C 0.99969(11) 0.63653(16) 1.14415(13)
C12 C 0.94421(10) 0.61763(13) 1.05768(12)
C13 C 0.9624(1) 0.66475(14) 0.95966(12)
C14 C 0.90795(10) 0.64660(14) 0.87906(12)
C15 C 0.80218(9) 0.51179(13) 0.70765(11)
C16 C 0.78994(10) 0.38817(14) 0.69264(12)
C17 C 0.81790(11) 0.33168(15) 0.60406(14)
C18 C 0.85840(12) 0.39636(16) 0.52971(12)
C19 C 0.87274(12) 0.51874(16) 0.54354(12)
C20 C 0.8445(1) 0.57566(14) 0.63180(11)
C21 C 0.62986(11) 0.72604(15) 1.02612(11)
C22 C 0.65349(8) 1.08587(12) 0.8904(1)
C23 C 0.62010(8) 1.16270(12) 0.97485(10)
C24 C 0.59147(9) 1.11396(13) 1.06653(11)
C25 C 0.55852(9) 1.18919(13) 1.14092(11)
C26 C 0.55376(9) 1.31139(12) 1.12063(10)
C27 C 0.58293(10) 1.36252(13) 1.03101(11)
C28 C 0.61644(10) 1.28662(13) 0.95785(11)
H1 H 0.7098(11) 0.9239(16) 0.7879(13)
H2 H 0.6164(12) 0.8759(16) 0.7863(13)
H3 H 0.7472(11) 0.7862(16) 0.9180(13)
H4 H 0.7766(11) 0.7483(16) 0.7456(13)
H5 H 0.6831(11) 0.6880(16) 0.7300(13)
H6 H 0.7190(11) 0.5228(16) 0.8272(13)
H7 H 0.7618(12) 0.4934(16) 0.9937(13)
H8 H 0.7971(11) 0.4556(17) 1.1727(13)
H9 H 0.8904(11) 0.4851(16) 1.3240(13)
H10 H 1.0196(11) 0.6007(16) 1.2947(13)
H11 H 1.0502(12) 0.6812(16) 1.1332(13)
H12 H 1.0186(11) 0.7116(16) 0.9525(12)
H13 H 0.9220(11) 0.6804(16) 0.8056(13)
H14 H 0.7624(11) 0.3456(16) 0.7456(14)
H15 H 0.8068(11) 0.2451(17) 0.5931(13)
H16 H 0.8782(11) 0.3574(16) 0.4650(13)
H17 H 0.9023(11) 0.5643(16) 0.4910(13)
H18 H 0.8548(11) 0.6600(17) 0.6397(13)
H19 H 0.5919(12) 0.6684(18) 1.0536(14)
H20 H 0.6861(12) 0.7187(17) 1.0629(14)
H21 H 0.6071(12) 0.8000(19) 1.0370(14)
H22 H 0.5939(11) 1.0277(17) 1.0786(13)
H23 H 0.5398(11) 1.1579(16) 1.2040(13)
H24 H 0.5786(11) 1.4488(17) 1.0200(13)
H25 H 0.6366(11) 1.3189(16) 0.8964(13)
#END
