
#######################################################################
#
#                 Cambridge Crystallographic Data Centre
#                                CCDC
#
#######################################################################
#
# If this CIF has been generated from an entry in the Cambridge
# Structural Database, then it will include bibliographic, chemical,
# crystal, experimental, refinement or atomic coordinate data resulting
# from the CCDC's data processing and validation procedures.
#
#######################################################################

data_CSD_CIF_OPOXAZ01
_audit_creation_date 1971-12-31
_audit_creation_method CSD-ConQuest-V1
_database_code_CSD OPOXAZ01
_database_code_depnum_ccdc_archive 'CCDC 1226175'
_chemical_formula_sum 'C9 H7 N1 O2'
_chemical_formula_moiety
;
C9 H7 N1 O2
;
_journal_coden_Cambridge 34
_journal_volume 6
_journal_year 1969
_journal_page_first 901
_journal_name_full 'J.Heterocycl.Chem. '
loop_
_publ_author_name
"S.Biagini"
"M.Cannas"
"G.Marongiu"
_chemical_name_systematic
;
3-Hydroxy-5-phenylisoxazole
;
_chemical_melting_point 413.15
_cell_volume    770.684
_exptl_crystal_density_diffrn 1.38
_exptl_special_details
;
alpha polymorph

;
_diffrn_ambient_temperature ?
_diffrn_special_details
;
The study was carried out at room temperature,in the range 283-303K

;
#These two values have been output from a single CSD field.
_refine_ls_R_factor_gt 0.08
_refine_ls_wR_factor_gt 0.08
_symmetry_cell_setting monoclinic
_symmetry_space_group_name_H-M 'P 21/n'
_symmetry_Int_Tables_number 14
loop_
_symmetry_equiv_pos_site_id
_symmetry_equiv_pos_as_xyz
1 x,y,z
2 1/2-x,1/2+y,1/2-z
3 -x,-y,-z
4 -1/2+x,-1/2-y,-1/2+z
_cell_length_a 10.41(2)
_cell_length_b 3.89(1)
_cell_length_c 19.14(4)
_cell_angle_alpha 90
_cell_angle_beta 96.1(3)
_cell_angle_gamma 90
_cell_formula_units_Z 4
loop_
_atom_type_symbol
_atom_type_radius_bond
C 0.68
H 0.20
N 0.68
O 0.68
loop_
_atom_site_label
_atom_site_type_symbol
_atom_site_fract_x
_atom_site_fract_y
_atom_site_fract_z
C1 C 0.06010 0.17620 0.41690
C2 C 0.15180 0.03640 0.37640
C3 C 0.12810 0.02690 0.30360
C4 C -0.08440 0.17690 0.08120
C5 C -0.11830 0.26330 0.14880
C6 C -0.01760 0.15070 0.19340
C7 C 0.00970 0.15430 0.27060
C8 C -0.08110 0.29160 0.31190
C9 C -0.05630 0.30260 0.38460
H1 H 0.07500 0.20000 0.47200
H2 H 0.23800 -0.04000 0.40200
H3 H 0.19000 -0.09500 0.27500
H4 H -0.19500 0.40500 0.16500
H5 H -0.12000 0.16800 -0.02200
H6 H -0.17400 0.34800 0.28700
H7 H -0.11700 0.37000 0.41400
N1 N 0.02830 0.02210 0.08410
O1 O 0.07260 0.00370 0.15710
O2 O -0.15680 0.24060 0.02100
#END
