
#######################################################################
#
#                 Cambridge Crystallographic Data Centre
#                                CCDC
#
#######################################################################
#
# If this CIF has been generated from an entry in the Cambridge
# Structural Database, then it will include bibliographic, chemical,
# crystal, experimental, refinement or atomic coordinate data resulting
# from the CCDC's data processing and validation procedures.
#
#######################################################################

data_CSD_CIF_OPOXAZ
_audit_creation_date 1971-12-31
_audit_creation_method CSD-ConQuest-V1
_database_code_CSD OPOXAZ
_chemical_formula_sum 'C9 H7 N1 O2'
_chemical_formula_moiety
;
C9 H7 N1 O2
;
_journal_coeditor_code "IUCr A06932"
_journal_coden_Cambridge 107
_journal_volume 25
_journal_year 1969
_journal_page_first 2108
_journal_name_full 'Acta Crystallogr.,Sect.B:Struct.Crystallogr.Cryst.Chem. '
loop_
_publ_author_name
"S.Biagini"
"M.Cannas"
"G.Marongiu"
_chemical_name_systematic
;
3-Hydroxy-5-phenylisoxazole
;
_chemical_melting_point 436.15
_cell_volume    790.326
_exptl_crystal_density_diffrn 1.35
_exptl_special_details
;
Melting point range 436.15-437.15K
beta polymorph

;
_diffrn_ambient_temperature ?
_diffrn_special_details
;
The study was carried out at room temperature,in the range 283-303K

;
#These two values have been output from a single CSD field.
_refine_ls_R_factor_gt 0.084
_refine_ls_wR_factor_gt 0.084
_symmetry_cell_setting monoclinic
_symmetry_space_group_name_H-M 'P 21/c'
_symmetry_Int_Tables_number 14
loop_
_symmetry_equiv_pos_site_id
_symmetry_equiv_pos_as_xyz
1 x,y,z
2 -x,1/2+y,1/2-z
3 -x,-y,-z
4 x,-1/2-y,-1/2+z
_cell_length_a 8.75(2)
_cell_length_b 5.64(2)
_cell_length_c 16.10(4)
_cell_angle_alpha 90
_cell_angle_beta 95.9(2)
_cell_angle_gamma 90
_cell_formula_units_Z 4
loop_
_atom_type_symbol
_atom_type_radius_bond
C 0.68
H 0.20
N 0.68
O 0.68
loop_
_atom_site_label
_atom_site_type_symbol
_atom_site_fract_x
_atom_site_fract_y
_atom_site_fract_z
C1 C 0.35630 1.08430 -0.72920
C2 C 0.23500 0.93720 -0.75970
C3 C 0.18730 0.75460 -0.71140
C4 C 0.16090 0.25180 -0.48650
C5 C 0.25970 0.44270 -0.49940
C6 C 0.21320 0.52390 -0.57830
C7 C 0.26180 0.70960 -0.63110
C8 C 0.38460 0.86160 -0.60200
C9 C 0.43120 1.04310 -0.65090
H1 H 0.39500 1.19600 -0.76600
H2 H 0.18800 0.96000 -0.82100
H3 H 0.09000 0.62000 -0.73500
H4 H 0.34500 0.54600 -0.45900
H5 H 0.07400 -0.01800 -0.42600
H6 H 0.42800 0.81400 -0.54500
H7 H 0.53400 1.15000 -0.62700
N1 N 0.06270 0.20960 -0.55210
O1 O 0.09440 0.38320 -0.61170
O2 O 0.16690 0.11570 -0.41790
#END
