
#######################################################################
#
#                 Cambridge Crystallographic Data Centre
#                                CCDC
#
#######################################################################
#
# If this CIF has been generated from an entry in the Cambridge
# Structural Database, then it will include bibliographic, chemical,
# crystal, experimental, refinement or atomic coordinate data resulting
# from the CCDC's data processing and validation procedures.
#
#######################################################################

data_CSD_CIF_OPUQIB
_audit_creation_date 2016-06-16
_audit_creation_method CSD-ConQuest-V1
_database_code_CSD OPUQIB
_database_code_depnum_ccdc_archive 'CCDC 1485992'
_chemical_formula_sum 'C19 H20 N2 O6'
_chemical_formula_moiety
;
C19 H20 N2 O6
;
_journal_coden_Cambridge 1336
_journal_volume 17
_journal_year 2015
_journal_page_first 3248
_journal_name_full 'Org.Lett. '
loop_
_publ_author_name
"Shi Chen"
"A.A.Ibrahim"
"M.Mondal"
"A.J.Magee"
"A.J.Cruz"
"K.A.Wheeler"
"N.J.Kerrigan"
_chemical_name_systematic
;
2-methyl-4-phenylpentyl 3,5-dinitrobenzoate
;
_cell_volume   1799.610
_exptl_crystal_colour 'colorless'
_exptl_crystal_density_diffrn 1.374
_exptl_crystal_description 'block'
_diffrn_ambient_temperature 100
#These two values have been output from a single CSD field.
_refine_ls_R_factor_gt 0.04
_refine_ls_wR_factor_gt 0.04
_symmetry_cell_setting orthorhombic
_symmetry_space_group_name_H-M 'P 21 21 21'
_symmetry_Int_Tables_number 19
loop_
_symmetry_equiv_pos_site_id
_symmetry_equiv_pos_as_xyz
1 x,y,z
2 1/2-x,-y,1/2+z
3 1/2+x,1/2-y,-z
4 -x,1/2+y,1/2-z
_cell_length_a 5.8624(1)
_cell_length_b 9.6327(2)
_cell_length_c 31.8680(6)
_cell_angle_alpha 90
_cell_angle_beta 90
_cell_angle_gamma 90
_cell_formula_units_Z 4
loop_
_atom_type_symbol
_atom_type_radius_bond
C 0.68
H 0.23
N 0.68
O 0.68
loop_
_atom_site_label
_atom_site_type_symbol
_atom_site_fract_x
_atom_site_fract_y
_atom_site_fract_z
O1 O 0.7945(3) 0.5999(2) -0.10414(5)
O2 O 1.0973(4) 0.6805(2) -0.06814(6)
O3 O 0.1983(3) 0.3483(2) -0.03464(5)
O4 O 0.1891(3) 0.3316(2) 0.03313(5)
O5 O 0.7957(4) 0.5372(2) 0.11584(6)
O6 O 1.0888(4) 0.6241(2) 0.08377(6)
N1 N 0.2778(4) 0.3713(2) 0.00038(6)
N2 N 0.8983(5) 0.5723(2) 0.08416(7)
C1 C 0.8913(5) 0.6552(3) -0.14276(8)
H1 H 1.04940 0.62120 -0.14640
H2 H 0.89450 0.75790 -0.14170
C2 C 0.7443(5) 0.6070(3) -0.17881(8)
H3 H 0.74560 0.50320 -0.17940
C3 C 0.8518(5) 0.6602(4) -0.21937(8)
H4 H 0.86240 0.76260 -0.21760
H5 H 1.00930 0.62370 -0.22110
C4 C 0.7287(5) 0.6231(3) -0.25984(8)
H6 H 0.58140 0.67550 -0.25990
C5 C 0.8646(6) 0.6719(4) -0.29816(8)
C6 C 1.0752(7) 0.6148(4) -0.30749(9)
H7 H 1.14020 0.54810 -0.28910
C7 C 1.1931(7) 0.6540(4) -0.34365(10)
H8 H 1.33640 0.61320 -0.35010
C8 C 1.0997(7) 0.7527(4) -0.37007(9)
H9 H 1.17970 0.78100 -0.39450
C9 C 0.8896(7) 0.8101(4) -0.36076(9)
H10 H 0.82420 0.87710 -0.37900
C10 C 0.7744(6) 0.7700(3) -0.32484(8)
H11 H 0.63090 0.81080 -0.31850
C11 C 0.6698(7) 0.4708(4) -0.26351(9)
H12 H 0.60730 0.45220 -0.29150
H13 H 0.55620 0.44650 -0.24220
H14 H 0.80770 0.41500 -0.25930
C12 C 0.5002(5) 0.6554(4) -0.17290(9)
H15 H 0.44170 0.62060 -0.14610
H16 H 0.40560 0.61980 -0.19590
H17 H 0.49550 0.75710 -0.17290
C13 C 0.9126(5) 0.6248(3) -0.06939(8)
C14 C 0.7904(5) 0.5740(3) -0.03129(8)
C15 C 0.5868(5) 0.5008(3) -0.03373(8)
H18 H 0.51630 0.48360 -0.06010
C16 C 0.4888(4) 0.4534(3) 0.00314(8)
C17 C 0.5844(5) 0.4760(3) 0.04242(8)
H19 H 0.51450 0.44270 0.06740
C18 C 0.7860(5) 0.5494(3) 0.04326(8)
C19 C 0.8914(5) 0.5989(3) 0.00757(8)
H20 H 1.03060 0.64900 0.00950
#END
