
#######################################################################
#
#                 Cambridge Crystallographic Data Centre
#                                CCDC
#
#######################################################################
#
# If this CIF has been generated from an entry in the Cambridge
# Structural Database, then it will include bibliographic, chemical,
# crystal, experimental, refinement or atomic coordinate data resulting
# from the CCDC's data processing and validation procedures.
#
#######################################################################

data_CSD_CIF_OPUTAW
_audit_creation_date 2016-06-16
_audit_creation_method CSD-ConQuest-V1
_database_code_CSD OPUTAW
_database_code_depnum_ccdc_archive 'CCDC 1456821'
_chemical_formula_sum 'C22 H30 N4 O2'
_chemical_formula_moiety
;
C22 H30 N4 O2
;
_journal_coden_Cambridge 222
_journal_volume 45
_journal_year 2016
_journal_page_first 10979
_journal_name_full 'Dalton Trans. '
loop_
_publ_author_name
"H.Deka"
"S.Ghosh"
"S.Saha"
"K.Gogoi"
"B.Mondal"
_chemical_name_systematic
;
N,N'-bis(mesitylmethyl)-N,N'-dinitrosoethane-1,2-diamine
;
_cell_volume   1074.502
_exptl_crystal_colour 'white'
_exptl_crystal_density_diffrn 1.182
_exptl_crystal_description 'Needle'
_diffrn_ambient_temperature 293
#These two values have been output from a single CSD field.
_refine_ls_R_factor_gt 0.0774
_refine_ls_wR_factor_gt 0.0774
_symmetry_cell_setting monoclinic
_symmetry_space_group_name_H-M 'P 21/c'
_symmetry_Int_Tables_number 14
loop_
_symmetry_equiv_pos_site_id
_symmetry_equiv_pos_as_xyz
1 x,y,z
2 -x,1/2+y,1/2-z
3 -x,-y,-z
4 x,-1/2-y,-1/2+z
_cell_length_a 4.9480(4)
_cell_length_b 17.236(2)
_cell_length_c 12.6051(8)
_cell_angle_alpha 90
_cell_angle_beta 91.761(7)
_cell_angle_gamma 90
_cell_formula_units_Z 2
loop_
_atom_type_symbol
_atom_type_radius_bond
C 0.68
H 0.23
N 0.68
O 0.68
loop_
_atom_site_label
_atom_site_type_symbol
_atom_site_fract_x
_atom_site_fract_y
_atom_site_fract_z
O1 O 0.2157(6) 0.61918(19) 1.0972(2)
N1 N 0.2963(5) 0.58135(18) 0.94017(18)
N2 N 0.1397(7) 0.6224(2) 1.0042(2)
C1 C 0.4129(6) 0.6013(2) 0.7509(2)
C2 C 0.5199(7) 0.5449(2) 0.6834(2)
C3 C 0.7927(7) 0.6435(2) 0.6003(2)
C4 C 0.4954(7) 0.6779(2) 0.7428(2)
C5 C 0.5362(7) 0.5396(2) 0.9772(2)
H1 H 0.63110 0.56990 1.03140
H2 H 0.65640 0.53250 0.91860
C6 C 0.6847(7) 0.6977(2) 0.6668(2)
H3 H 0.73870 0.74920 0.66120
C7 C 0.7079(7) 0.5677(2) 0.6098(2)
H4 H 0.77920 0.53030 0.56530
C8 C 0.2002(7) 0.5793(2) 0.8294(2)
H5 H 0.04800 0.61440 0.82060
H6 H 0.13580 0.52740 0.81300
C9 C 0.4383(8) 0.4609(2) 0.6872(3)
H7 H 0.52530 0.43290 0.63200
H8 H 0.24570 0.45680 0.67720
H9 H 0.49180 0.43940 0.75490
C10 C 0.9964(8) 0.6662(3) 0.5189(2)
H10 H 1.16770 0.64270 0.53690
H11 H 1.01590 0.72160 0.51810
H12 H 0.93510 0.64860 0.45000
C11 C 0.3838(9) 0.7410(2) 0.8118(3)
H13 H 0.18980 0.74030 0.80650
H14 H 0.44860 0.79050 0.78860
H15 H 0.44190 0.73250 0.88430
O1B O 0.7843(6) 0.38082(19) 0.9028(2)
N1B N 0.7037(5) 0.41865(18) 1.05983(18)
N2B N 0.8603(7) 0.3776(2) 0.9958(2)
C1B C 0.5871(6) 0.3987(2) 1.2491(2)
C2B C 0.4801(7) 0.4551(2) 1.3166(2)
C3B C 0.2073(7) 0.3565(2) 1.3997(2)
C4B C 0.5046(7) 0.3221(2) 1.2572(2)
C5B C 0.4638(7) 0.4604(2) 1.0228(2)
H1B H 0.36890 0.43010 0.96860
H2B H 0.34360 0.46750 1.08140
C6B C 0.3153(7) 0.3023(2) 1.3332(2)
H3B H 0.26130 0.25080 1.33880
C7B C 0.2921(7) 0.4323(2) 1.3902(2)
H4B H 0.22080 0.46970 1.43470
C8B C 0.7998(7) 0.4207(2) 1.1706(2)
H5B H 0.95200 0.38560 1.17940
H6B H 0.86420 0.47260 1.18700
C9B C 0.5617(8) 0.5391(2) 1.3128(3)
H7B H 0.47470 0.56710 1.36800
H8B H 0.75430 0.54320 1.32280
H9B H 0.50820 0.56060 1.24510
C10B C 0.0036(8) 0.3338(3) 1.4811(2)
H10B H -0.16770 0.35730 1.46310
H11B H -0.01590 0.27840 1.48190
H12B H 0.06490 0.35140 1.55000
C11B C 0.6162(9) 0.2590(2) 1.1882(3)
H13B H 0.81020 0.25970 1.19350
H14B H 0.55140 0.20950 1.21140
H15B H 0.55810 0.26750 1.11570
#END
