
#######################################################################
#
#                 Cambridge Crystallographic Data Centre
#                                CCDC
#
#######################################################################
#
# If this CIF has been generated from an entry in the Cambridge
# Structural Database, then it will include bibliographic, chemical,
# crystal, experimental, refinement or atomic coordinate data resulting
# from the CCDC's data processing and validation procedures.
#
#######################################################################

data_CSD_CIF_OQEYOZ
_audit_creation_date 2011-08-02
_audit_creation_method CSD-ConQuest-V1
_database_code_CSD OQEYOZ
_database_code_depnum_ccdc_archive 'CCDC 804512'
_chemical_formula_sum 'C26 H24 N2 O11'
_chemical_formula_moiety
;
C26 H24 N2 O11
;
_journal_coden_Cambridge 1291
_journal_year 2011
_journal_page_first 2981
_journal_name_full 'Eur.J.Org.Chem. '
loop_
_publ_author_name
"Jing Sun"
"Qun Wu"
"Er-Yan Xia"
"Chao-Guo Yan"
_chemical_name_systematic
;
Tetramethyl 
1-(4-methoxyphenyl)-4-(3-nitrophenyl)-1,4-dihydropyridine-2,3,5,6-tetracarboxy
late
;
_cell_volume   1284.861
_exptl_crystal_density_diffrn 1.397
_diffrn_ambient_temperature 296
_refine_special_details
;
C26',O11' and C26,O11 disordered over two sites with occupancies 0.514:0.486.

;
#These two values have been output from a single CSD field.
_refine_ls_R_factor_gt 0.0529
_refine_ls_wR_factor_gt 0.0529
_symmetry_cell_setting triclinic
_symmetry_space_group_name_H-M 'P -1'
_symmetry_Int_Tables_number 2
loop_
_symmetry_equiv_pos_site_id
_symmetry_equiv_pos_as_xyz
1 x,y,z
2 -x,-y,-z
_cell_length_a 9.9884(14)
_cell_length_b 11.2546(16)
_cell_length_c 13.369(3)
_cell_angle_alpha 111.323(2)
_cell_angle_beta 102.799(2)
_cell_angle_gamma 103.091(2)
_cell_formula_units_Z 2
loop_
_atom_type_symbol
_atom_type_radius_bond
C 0.68
H 0.23
N 0.68
O 0.68
loop_
_atom_site_label
_atom_site_type_symbol
_atom_site_fract_x
_atom_site_fract_y
_atom_site_fract_z
C1 C 0.1423(3) 0.7140(2) 0.5665(2)
H1 H 0.07090 0.72470 0.51600
C2 C 0.1080(3) 0.6502(3) 0.6328(2)
H2 H 0.01080 0.61590 0.62590
C3 C 0.2198(3) 0.6350(3) 0.7132(2)
H3 H 0.19290 0.59060 0.75610
C4 C 0.3663(3) 0.6860(2) 0.7268(2)
C5 C 0.4038(3) 0.7479(2) 0.66088(18)
H4 H 0.50120 0.78130 0.66780
C6 C 0.2896(2) 0.7616(2) 0.57898(17)
C7 C 0.3277(2) 0.82494(19) 0.50187(16)
H5 H 0.42500 0.82400 0.50000
C8 C 0.3284(2) 0.96702(19) 0.53497(16)
C9 C 0.4476(2) 1.0636(2) 0.64890(17)
C10 C 0.5414(3) 1.2813(3) 0.7956(2)
H6 H 0.51730 1.26340 0.85550
H7 H 0.54300 1.37090 0.80690
H8 H 0.63570 1.27450 0.79640
C11 C 0.2313(2) 1.00251(19) 0.46471(16)
C12 C 0.2227(2) 1.1409(2) 0.49533(17)
C13 C 0.3231(4) 1.3543(3) 0.5004(4)
H9 H 0.23830 1.35200 0.44810
H10 H 0.40930 1.40420 0.49330
H11 H 0.32290 1.39740 0.57690
C14 C 0.1266(2) 0.78424(19) 0.31326(17)
C15 C 0.0207(3) 0.7033(2) 0.18791(19)
C16 C -0.2298(4) 0.5702(4) 0.0553(2)
H12 H -0.23740 0.63280 0.02290
H13 H -0.32290 0.52940 0.05900
H14 H -0.19980 0.50100 0.00860
C17 C 0.2172(2) 0.7390(2) 0.37750(17)
C18 C 0.2193(3) 0.6034(2) 0.33299(18)
C19 C 0.1036(4) 0.3904(3) 0.1787(2)
H15 H 0.19900 0.39190 0.17570
H16 H 0.03460 0.34670 0.10270
H17 H 0.07610 0.34150 0.22090
C20 C 0.0329(2) 0.9581(2) 0.27866(16)
C21 C -0.1117(3) 0.9433(3) 0.2685(2)
H18 H -0.15260 0.90670 0.31140
C22 C -0.2025(4) 0.9823(3) 0.1934(3)
H19 H -0.29880 0.97030 0.19040
C23 C -0.1519(5) 1.0346(3) 0.1293(2)
C24 C -0.0065(5) 1.0508(3) 0.1405(2)
H20 H 0.03380 1.08830 0.09790
C25 C 0.0872(3) 1.0124(2) 0.2155(2)
H21 H 0.18390 1.02560 0.21940
C26 C -0.2676(13) 1.0865(9) -0.0227(8)
H22 H -0.18330 1.16550 0.00500
H23 H -0.35240 1.10220 -0.05780
H24 H -0.25480 1.01050 -0.07760
O1 O -0.2855(9) 1.0594(6) 0.0670(5)
N1 N 0.4892(3) 0.6742(3) 0.8143(2)
N2 N 0.12709(18) 0.91347(16) 0.35449(14)
O2 O 0.4584(4) 0.6161(4) 0.8687(3)
O3 O 0.6199(3) 0.7276(3) 0.8321(2)
O4 O 0.54924(19) 1.03887(16) 0.70484(14)
O5 O 0.43108(19) 1.18143(15) 0.68461(13)
O6 O 0.13299(19) 1.17050(17) 0.52900(14)
O7 O 0.32144(18) 1.21838(15) 0.47475(15)
O8 O 0.0605(2) 0.69974(18) 0.11347(14)
O9 O -0.11916(18) 0.64430(17) 0.17330(13)
O10 O 0.3139(2) 0.56761(17) 0.38349(16)
O11 O 0.1049(2) 0.52217(16) 0.23205(14)
C27? C -0.3508(15) 1.0555(11) 0.005(1)
H25? H -0.40030 0.95940 -0.02930
H26? H -0.37590 1.09000 -0.04980
H27? H -0.37970 1.09850 0.06910
O12? O -0.1919(9) 1.0843(5) 0.0436(5)
#END
