
#######################################################################
#
#                 Cambridge Crystallographic Data Centre
#                                CCDC
#
#######################################################################
#
# If this CIF has been generated from an entry in the Cambridge
# Structural Database, then it will include bibliographic, chemical,
# crystal, experimental, refinement or atomic coordinate data resulting
# from the CCDC's data processing and validation procedures.
#
#######################################################################

data_CSD_CIF_OQOLIR
_audit_creation_date 2016-07-14
_audit_creation_method CSD-ConQuest-V1
_database_code_CSD OQOLIR
_database_code_depnum_ccdc_archive 'CCDC 1443825'
_chemical_formula_sum 'C13 H17 N1 O6'
_chemical_formula_moiety
;
C13 H17 N1 O6
;
_journal_coden_Cambridge 119
_journal_volume 1125
_journal_year 2016
_journal_page_first 558
_journal_name_full 'J.Mol.Struct. '
loop_
_publ_author_name
"M.Cyman"
"J.Wielinska"
"H.Myszka"
"D.Trzybinski"
"A.Sikorski"
"A.Nowacki"
"B.Liberek"
_chemical_name_systematic
;
6-(benzyloxy)-5-(hydroxyimino)-2-(hydroxymethyl)tetrahydro-2H-pyran-3,4-diol
;
_chemical_name_common
;
benzyl 2-deoxy-2-hydroxyimino- -D-lyxo-hexopyranoside
;
_cell_volume    673.762
_exptl_crystal_colour 'white'
_exptl_crystal_density_diffrn 1.396
_exptl_crystal_description 'block'
_diffrn_ambient_temperature 295
#These two values have been output from a single CSD field.
_refine_ls_R_factor_gt 0.0274
_refine_ls_wR_factor_gt 0.0274
_symmetry_cell_setting monoclinic
_symmetry_space_group_name_H-M 'P 21'
_symmetry_Int_Tables_number 4
loop_
_symmetry_equiv_pos_site_id
_symmetry_equiv_pos_as_xyz
1 x,y,z
2 -x,1/2+y,-z
_cell_length_a 4.9562(3)
_cell_length_b 9.6521(5)
_cell_length_c 14.1759(8)
_cell_angle_alpha 90
_cell_angle_beta 96.516(5)
_cell_angle_gamma 90
_cell_formula_units_Z 2
loop_
_atom_type_symbol
_atom_type_radius_bond
C 0.68
H 0.23
N 0.68
O 0.68
loop_
_atom_site_label
_atom_site_type_symbol
_atom_site_fract_x
_atom_site_fract_y
_atom_site_fract_z
C1 C -0.0732(3) 0.41768(14) 0.24472(9)
H1 H -0.21490 0.35200 0.25800
N1 N 0.0621(3) 0.23484(13) 0.13782(9)
O1 O 0.11907(19) 0.42638(11) 0.32521(6)
C2 C 0.0701(3) 0.36091(14) 0.16385(9)
O2 O -0.0890(3) 0.15435(12) 0.1952(1)
H2 H -0.08140 0.07270 0.17970
C3 C 0.2345(3) 0.46481(14) 0.11579(10)
H3 H 0.38770 0.49230 0.16180
O3 O 0.3439(2) 0.40567(12) 0.03684(7)
H4 H 0.48730 0.44440 0.02930
C4 C 0.0647(3) 0.59410(13) 0.0909(1)
H5 H 0.17760 0.66410 0.06420
O4 O -0.1621(2) 0.56212(11) 0.02301(7)
H6 H -0.16740 0.61670 -0.02150
O5 O -0.19604(19) 0.54734(9) 0.22139(7)
C5 C -0.0254(3) 0.64839(15) 0.18277(10)
H7 H 0.13530 0.66470 0.22840
O6 O -0.0412(2) 0.88808(11) 0.13667(8)
H8 H -0.09380 0.90010 0.08030
C6 C -0.1938(3) 0.77915(15) 0.17292(12)
H9 H -0.35790 0.76280 0.13020
H10 H -0.24610 0.80550 0.23430
C7 C -0.0054(3) 0.45443(19) 0.40972(10)
H11 H -0.15150 0.38900 0.41510
H12 H -0.08160 0.54710 0.40670
C8 C 0.2041(3) 0.44210(16) 0.49471(9)
C9 C 0.3670(4) 0.3265(2) 0.50780(12)
H13 H 0.34690 0.25480 0.46370
C10 C 0.5601(4) 0.3160(2) 0.58595(13)
H14 H 0.66690 0.23680 0.59440
C11 C 0.5958(4) 0.4209(2) 0.65097(11)
H15 H 0.73050 0.41490 0.70210
C12 C 0.4302(4) 0.5354(2) 0.63995(11)
H16 H 0.44950 0.60620 0.68470
C13 C 0.2351(4) 0.54557(19) 0.56247(11)
H17 H 0.12310 0.62310 0.55580
#END
