
#######################################################################
#
#                 Cambridge Crystallographic Data Centre
#                                CCDC
#
#######################################################################
#
# If this CIF has been generated from an entry in the Cambridge
# Structural Database, then it will include bibliographic, chemical,
# crystal, experimental, refinement or atomic coordinate data resulting
# from the CCDC's data processing and validation procedures.
#
#######################################################################

data_CSD_CIF_OQOMUD
_audit_creation_date 2011-08-14
_audit_creation_method CSD-ConQuest-V1
_database_code_CSD OQOMUD
_database_code_depnum_ccdc_archive 'CCDC 259980'
_chemical_formula_sum 'C20 H27 N1 O2'
_chemical_formula_moiety
;
C20 H27 N1 O2
;
_journal_coden_Cambridge 1037
_journal_volume 11
_journal_year 2010
_journal_page_first 101-11
_journal_name_full 'ARKIVOC '
loop_
_publ_author_name
"E.Mernyak"
"J.Huber"
"G.Benedek"
"R.Pfoh"
"S.Ruhl"
"G.Schneider"
"J.Wolfling"
_chemical_name_systematic
;
1-(1-Allyl-7-methoxy-2-methyl-1,2,3,4,4a,9,10,10a-octahydrophenanthren-2-yl)-N
-hydroxymethanimine
;
_cell_volume   1754.945
_exptl_crystal_colour 'colorless'
_exptl_crystal_density_diffrn 1.186
_exptl_crystal_description 'blocks'
_diffrn_ambient_temperature 100
_refine_special_details
;
THe allyl groups are disordered over two sites with occupancies of 
0.736:0.264 and 0.661:0.339.
;
#These two values have been output from a single CSD field.
_refine_ls_R_factor_gt 0.0259
_refine_ls_wR_factor_gt 0.0259
_symmetry_cell_setting triclinic
_symmetry_space_group_name_H-M 'P 1'
_symmetry_Int_Tables_number 1
loop_
_symmetry_equiv_pos_site_id
_symmetry_equiv_pos_as_xyz
1 x,y,z
_cell_length_a 8.8489(3)
_cell_length_b 9.4453(3)
_cell_length_c 23.6805(7)
_cell_angle_alpha 96.806(1)
_cell_angle_beta 90.032(1)
_cell_angle_gamma 116.543(1)
_cell_formula_units_Z 4
loop_
_atom_type_symbol
_atom_type_radius_bond
C 0.68
H 0.23
N 0.68
O 0.68
loop_
_atom_site_label
_atom_site_type_symbol
_atom_site_fract_x
_atom_site_fract_y
_atom_site_fract_z
C1 C 0.7277(2) 0.41286(18) 0.36047(7)
H1 H 0.83800 0.42910 0.35090
C2 C 0.68046(19) 0.38641(18) 0.41507(7)
H2 H 0.75680 0.38250 0.44240
O1 O 0.48779(13) 0.34469(12) 0.48614(4)
C3 C 0.52095(19) 0.36538(16) 0.43020(6)
C4 C 0.4087(2) 0.36603(17) 0.38948(6)
H3 H 0.29920 0.35110 0.39960
C5 C 0.4560(2) 0.38856(16) 0.33349(7)
C6 C 0.3238(2) 0.37365(19) 0.28971(7)
H4 H 0.26570 0.43640 0.30590
H5 H 0.23820 0.26040 0.28220
C7 C 0.3932(3) 0.4299(2) 0.23335(7)
H6 H 0.44290 0.54790 0.23740
H7 H 0.29910 0.38610 0.20370
C8 C 0.5275(2) 0.37788(19) 0.21446(7)
H8 H 0.47790 0.25950 0.21370
C9 C 0.6770(2) 0.45573(18) 0.25890(7)
H9 H 0.72020 0.57370 0.26020
C10 C 0.6186(2) 0.41667(17) 0.31859(7)
C11 C 0.8223(2) 0.4196(2) 0.24114(7)
H10 H 0.78680 0.30400 0.24040
H11 H 0.91950 0.47840 0.26940
C12 C 0.8766(3) 0.4677(2) 0.18248(8)
H12 H 0.96920 0.43990 0.17190
H13 H 0.92220 0.58500 0.18470
C13 C 0.7336(3) 0.3882(2) 0.13516(7)
C14 C 0.5803(3) 0.4174(2) 0.15371(7)
H14 H 0.61710 0.53430 0.15450
C15 C 0.4289(3) 0.3310(3) 0.10956(8)
H15 H 0.46320 0.28280 0.07570
H16 H 0.33590 0.24390 0.12610
C16 C 0.3674(7) 0.4435(7) 0.0919(2)
H17 H 0.44780 0.54650 0.08470
C17 C 0.2053(6) 0.4044(6) 0.08588(15)
H18 H 0.12340 0.30180 0.09290
H19 H 0.17010 0.47870 0.07460
C18 C 0.6827(2) 0.21188(19) 0.12638(7)
H20 H 0.62160 0.14910 0.15470
N1 N 0.71794(19) 0.14456(15) 0.08287(6)
C19 C 0.8010(4) 0.4623(2) 0.08029(8)
H21 H 0.71390 0.40820 0.04910
H22 H 0.90230 0.44950 0.07060
H23 H 0.82970 0.57610 0.08640
O2 O 0.66183(17) -0.02004(13) 0.08499(5)
H24 H 0.68660 -0.06100 0.05520
C20 C 0.3411(2) 0.3547(2) 0.50669(7)
H25 H 0.23950 0.26270 0.48860
H26 H 0.34160 0.45340 0.49750
H27 H 0.34130 0.35490 0.54810
C21 C 0.7548(2) 0.67543(18) 0.68908(7)
H28 H 0.84500 0.66810 0.70820
C22 C 0.7640(2) 0.69025(17) 0.63156(7)
H29 H 0.85810 0.69240 0.61170
O3 O 0.62838(14) 0.71855(13) 0.54660(5)
C23 C 0.6323(2) 0.70202(17) 0.60344(7)
C24 C 0.4965(2) 0.69885(19) 0.63330(8)
H30 H 0.40730 0.70710 0.61400
C25 C 0.4887(2) 0.68379(19) 0.69111(8)
C26 C 0.3405(2) 0.6874(3) 0.72201(9)
H31 H 0.35490 0.79840 0.72740
H32 H 0.23530 0.62080 0.69790
C27 C 0.3211(2) 0.6284(3) 0.77935(9)
H33 H 0.27380 0.51050 0.77380
H34 H 0.24050 0.65700 0.80080
C28 C 0.4909(2) 0.7006(2) 0.81400(8)
H35 H 0.54240 0.81920 0.81510
C29 C 0.6086(2) 0.6426(2) 0.78263(7)
H36 H 0.55550 0.52420 0.78250
C30 C 0.6198(2) 0.67073(18) 0.72019(7)
C31 C 0.7810(2) 0.7099(2) 0.81525(8)
H37 H 0.85180 0.66550 0.79530
H38 H 0.83940 0.82740 0.81630
C32 C 0.7605(3) 0.6681(2) 0.87609(8)
H39 H 0.87350 0.71820 0.89650
H40 H 0.71550 0.55100 0.87450
C33 C 0.6429(3) 0.7213(2) 0.91060(8)
C34 C 0.4708(3) 0.6635(2) 0.87587(8)
H41 H 0.41880 0.54430 0.87230
C35 C 0.3444(6) 0.7346(7) 0.9034(3)
H42 H 0.38720 0.78450 0.94300
H43 H 0.34960 0.81950 0.88150
C36 C 0.1630(4) 0.6136(4) 0.90407(13)
H44 H 0.08990 0.60310 0.87280
C37 C 0.0956(9) 0.5220(15) 0.9428(4)
H45 H 0.16310 0.52770 0.97500
H46 H -0.02140 0.44910 0.93900
C38 C 0.7290(2) 0.9012(2) 0.92216(7)
H47 H 0.76810 0.96090 0.89110
N2 N 0.75070(18) 0.97488(15) 0.97192(6)
C39 C 0.6146(3) 0.6482(2) 0.96665(9)
H48 H 0.54250 0.68260 0.99000
H49 H 0.72380 0.68390 0.98750
H50 H 0.55930 0.53140 0.95820
O4 O 0.83583(15) 1.14186(12) 0.97284(5)
H51 H 0.83470 1.18660 1.00560
C40 C 0.7676(2) 0.7201(2) 0.51569(7)
H52 H 0.77690 0.62160 0.51870
H53 H 0.87230 0.81230 0.53170
H54 H 0.74920 0.72730 0.47550
C41 C 0.0564(2) 0.94938(19) 0.22069(7)
H55 H -0.00380 0.97410 0.25030
C42 C 0.0087(3) 0.9458(2) 0.16467(8)
H56 H -0.08360 0.96700 0.15610
O5 O 0.0422(2) 0.91394(16) 0.06705(5)
C43 C 0.0959(3) 0.9115(2) 0.12135(8)
C44 C 0.2287(3) 0.8777(2) 0.13417(8)
H57 H 0.28770 0.85270 0.10420
C45 C 0.2765(2) 0.88023(18) 0.19090(7)
C46 C 0.4183(2) 0.8387(2) 0.20277(7)
H58 H 0.50650 0.88370 0.17540
H59 H 0.37390 0.72110 0.19650
C47 C 0.4985(2) 0.90101(19) 0.26299(7)
H60 H 0.56270 1.01890 0.26730
H61 H 0.57830 0.85710 0.27030
C48 C 0.36117(19) 0.85187(18) 0.30572(7)
H62 H 0.28940 0.73400 0.29680
C49 C 0.24829(19) 0.93289(17) 0.29736(7)
H63 H 0.31850 1.04940 0.31030
C50 C 0.1913(2) 0.91744(17) 0.23513(7)
C51 C 0.10168(19) 0.87436(18) 0.33671(6)
H64 H 0.02830 0.92630 0.33110
H65 H 0.03260 0.75750 0.32720
C52 C 0.16986(19) 0.91364(18) 0.39885(7)
H66 H 0.07310 0.87170 0.42340
H67 H 0.22880 1.03110 0.40890
C53 C 0.29299(18) 0.84489(17) 0.41200(6)
C54 C 0.43259(19) 0.88691(17) 0.36812(6)
H68 H 0.50710 1.00450 0.37620
C55 C 0.54428(19) 0.80373(18) 0.37681(7)
H69 H 0.51310 0.75440 0.41240
H70 H 0.51450 0.71570 0.34510
C56 C 0.7326(2) 0.90192(19) 0.38024(7)
H71 H 0.79680 0.84450 0.38240
C57 C 0.8205(2) 1.0565(2) 0.38067(8)
H72 H 0.76420 1.12110 0.37860
H73 H 0.94070 1.10390 0.38300
C58 C 0.19454(18) 0.66520(17) 0.40828(6)
H74 H 0.16390 0.60200 0.37200
N3 N 0.15249(15) 0.59793(14) 0.45275(5)
C59 C 0.3728(2) 0.91863(18) 0.47228(7)
H75 H 0.44680 0.87250 0.48280
H76 H 0.28340 0.89620 0.49920
H77 H 0.43940 1.03440 0.47340
O6 O 0.05994(13) 0.43011(11) 0.44043(4)
H78 H 0.02730 0.39090 0.47080
C60 C 0.1279(4) 0.8764(3) 0.02188(9)
H79 H 0.12030 0.77030 0.02370
H80 H 0.24710 0.95590 0.02520
H81 H 0.07590 0.87690 -0.01460
C61 C 0.4077(2) 0.1618(2) 0.77185(7)
H82 H 0.33970 0.14500 0.73830
C62 C 0.3392(2) 0.1673(2) 0.82424(7)
H83 H 0.22680 0.15470 0.82640
O7 O 0.38396(15) 0.19900(14) 0.92772(5)
C63 C 0.4379(2) 0.19141(19) 0.87358(7)
C64 C 0.6015(2) 0.20846(18) 0.86921(7)
H84 H 0.66820 0.22360 0.90290
C65 C 0.67001(19) 0.20378(17) 0.81640(7)
C66 C 0.8486(2) 0.22401(19) 0.81318(7)
H85 H 0.87330 0.17520 0.84450
H86 H 0.92800 0.33940 0.81880
C67 C 0.8784(2) 0.14832(19) 0.75660(7)
H87 H 0.81090 0.03090 0.75290
H88 H 0.99940 0.17330 0.75510
C68 C 0.82716(19) 0.21280(17) 0.70783(6)
H89 H 0.88760 0.33200 0.71540
C69 C 0.63642(19) 0.16253(17) 0.70737(6)
H90 H 0.57840 0.04600 0.69260
C70 C 0.5726(2) 0.18006(17) 0.76623(7)
C71 C 0.59138(19) 0.24722(18) 0.66386(6)
H91 H 0.46940 0.21920 0.66430
H92 H 0.65680 0.36430 0.67390
C72 C 0.63211(19) 0.19662(18) 0.60463(6)
H93 H 0.60670 0.25580 0.57730
H94 H 0.55630 0.08160 0.59360
C73 C 0.81711(19) 0.22466(17) 0.59902(6)
C74 C 0.87432(19) 0.16197(17) 0.64899(6)
H95 H 0.81110 0.04280 0.64200
C75 C 1.06499(19) 0.20427(17) 0.64752(7)
H96 H 1.10950 0.25310 0.61260
H97 H 1.12730 0.28440 0.68070
C76 C 1.09726(19) 0.06196(17) 0.64855(7)
H98 H 1.05670 0.00170 0.67940
C77 C 1.1777(2) 0.01368(19) 0.60989(7)
H99 H 1.22020 0.07080 0.57840
H100 H 1.19320 -0.07820 0.61360
C78 C 0.92843(18) 0.40181(17) 0.60106(6)
H101 H 0.93930 0.47120 0.63500
N4 N 1.00758(15) 0.45942(14) 0.55828(5)
C79 C 0.8261(2) 0.13482(18) 0.54169(7)
H102 H 0.94350 0.15550 0.53610
H103 H 0.78500 0.17160 0.51080
H104 H 0.75540 0.02000 0.54150
O8 O 1.10193(13) 0.62759(11) 0.56880(4)
H105 H 1.14740 0.66230 0.53900
C80 C 0.2171(2) 0.1831(2) 0.93330(8)
H106 H 0.13520 0.07890 0.91380
H107 H 0.20660 0.26800 0.91610
H108 H 0.19450 0.19140 0.97380
C81? C 0.3711(12) 0.7070(13) 0.9168(5)
C82? C 0.2280(9) 0.5736(7) 0.9391(2)
C83? C 0.0668(15) 0.527(3) 0.9259(9)
C84? C 0.2918(19) 0.3945(13) 0.0950(6)
C85? C 0.3493(10) 0.547(1) 0.0909(3)
H109? H 0.32530 0.77010 0.89870
H110? H 0.44800 0.77750 0.94960
H111? H 0.25500 0.51750 0.96500
H112? H 0.03450 0.57960 0.90010
H113? H -0.01740 0.43990 0.94200
H114? H 0.17440 0.32370 0.08970
H115? H 0.46720 0.61610 0.09640
H116? H 0.27290 0.58830 0.08250
#END
