
#######################################################################
#
#                 Cambridge Crystallographic Data Centre
#                                CCDC
#
#######################################################################
#
# If this CIF has been generated from an entry in the Cambridge
# Structural Database, then it will include bibliographic, chemical,
# crystal, experimental, refinement or atomic coordinate data resulting
# from the CCDC's data processing and validation procedures.
#
#######################################################################

data_CSD_CIF_OQOWIC
_audit_creation_date 2016-07-14
_audit_creation_method CSD-ConQuest-V1
_database_code_CSD OQOWIC
_database_code_depnum_ccdc_archive 'CCDC 1039843'
_chemical_formula_sum 'C21 H14 N2 O3'
_chemical_formula_moiety
;
C21 H14 N2 O3
;
_journal_coden_Cambridge 24
_journal_volume 57
_journal_year 2016
_journal_page_first 3823
_journal_name_full 'Tetrahedron Lett. '
loop_
_publ_author_name
"Mengru Li"
"Fushun Liang"
_chemical_name_systematic
;
(E)-1-(1,3-dioxoisoindolin-2-yl)-N,1-diphenylmethanimine oxide
;
_chemical_melting_point 456.15
_cell_volume   3374.919
_exptl_special_details
;
Melting point range 456.15-458.15K

;
_diffrn_ambient_temperature 273
#These two values have been output from a single CSD field.
_refine_ls_R_factor_gt 0.081
_refine_ls_wR_factor_gt 0.081
loop_
_citation_database_id_CSD
_citation_special_details
OQOWOI "is a stereoisomer of this entry"
_symmetry_cell_setting monoclinic
_symmetry_space_group_name_H-M 'P 21/n'
_symmetry_Int_Tables_number 14
loop_
_symmetry_equiv_pos_site_id
_symmetry_equiv_pos_as_xyz
1 x,y,z
2 1/2-x,1/2+y,1/2-z
3 -x,-y,-z
4 -1/2+x,-1/2-y,-1/2+z
_cell_length_a 13.4491(13)
_cell_length_b 13.0011(12)
_cell_length_c 19.7568(19)
_cell_angle_alpha 90
_cell_angle_beta 102.325(1)
_cell_angle_gamma 90
_cell_formula_units_Z 8
loop_
_atom_type_symbol
_atom_type_radius_bond
C 0.68
N 0.68
O 0.68
loop_
_atom_site_label
_atom_site_type_symbol
_atom_site_fract_x
_atom_site_fract_y
_atom_site_fract_z
N1 N 0.3215(2) 0.4865(2) 0.11002(16)
N2 N 0.1559(2) 0.4766(2) 0.12578(15)
O1 O 0.08999(19) 0.4256(2) 0.01273(13)
O2 O 0.1787(2) 0.5009(2) 0.24431(13)
C1 C 0.2383(3) 0.5378(3) 0.11521(18)
C2 C 0.2261(3) 0.6491(3) 0.11197(17)
C3 C 0.3439(3) 0.3357(3) 0.18651(19)
C4 C 0.3282(2) 0.3753(3) 0.12035(18)
C5 C 0.0835(2) 0.4286(3) 0.07218(18)
C6 C 0.1294(3) 0.4663(3) 0.19074(18)
C7 C 0.1297(3) 0.6900(3) 0.1124(2)
C8 C -0.1406(3) 0.2972(3) 0.1262(2)
C9 C 0.0054(2) 0.3851(3) 0.10721(18)
C10 C 0.3063(3) 0.7181(3) 0.1110(2)
C11 C 0.1148(3) 0.7964(3) 0.1120(2)
C12 C -0.0820(3) 0.3308(3) 0.0795(2)
C13 C 0.3262(3) 0.3140(3) 0.06244(19)
C14 C 0.0330(3) 0.4074(3) 0.17772(18)
C15 C 0.3552(3) 0.1665(3) 0.1388(2)
C16 C 0.3575(3) 0.2299(3) 0.1954(2)
C17 C 0.1953(3) 0.8631(3) 0.1121(2)
C18 C -0.1132(3) 0.3192(3) 0.1964(2)
C19 C -0.0243(3) 0.3753(3) 0.2241(2)
C20 C 0.3395(3) 0.2083(3) 0.0725(2)
C21 C 0.2899(3) 0.8235(3) 0.1111(3)
O3 O 0.4015(2) 0.5284(2) 0.09694(17)
N3 N 0.6150(2) 0.9486(2) 0.11501(14)
O4 O 0.8331(2) 0.9494(2) 0.24968(13)
N4 N 0.7899(2) 0.9544(2) 0.13003(15)
O5 O 0.7980(2) 0.9759(2) 0.01470(14)
C22 C 0.6162(2) 1.0609(3) 0.11762(18)
C23 C 0.7003(3) 0.8947(3) 0.12150(17)
C24 C 0.8533(3) 0.9753(3) 0.19547(19)
C25 C 0.7085(3) 0.7825(3) 0.12127(17)
C26 C 0.9308(3) 1.0385(3) 0.10920(19)
C27 C 0.8345(3) 0.9884(3) 0.07499(19)
C28 C 0.9414(3) 1.0318(3) 0.18070(19)
C29 C 0.6242(3) 0.7162(3) 0.1197(2)
C30 C 0.8036(3) 0.7387(3) 0.12257(19)
C31 C 0.6229(3) 1.2162(3) 0.1828(2)
C32 C 0.5926(3) 1.1143(3) 0.0549(2)
C33 C 0.6317(3) 1.1093(3) 0.1811(2)
C34 C 0.6390(3) 0.6103(3) 0.1203(2)
C35 C 0.8162(3) 0.6329(3) 0.1226(2)
C36 C 0.5985(3) 1.2720(3) 0.1213(2)
C37 C 1.0034(3) 1.0875(3) 0.0795(2)
C38 C 1.0871(3) 1.1302(3) 0.1254(2)
C39 C 1.0977(3) 1.1234(3) 0.1966(3)
C40 C 0.7338(3) 0.5684(3) 0.1215(2)
C41 C 0.5841(3) 1.2208(3) 0.0576(2)
C42 C 1.0245(3) 1.0740(3) 0.2266(2)
O6 O 0.52577(18) 0.9087(2) 0.10677(14)
#END
