
#######################################################################
#
#                 Cambridge Crystallographic Data Centre
#                                CCDC
#
#######################################################################
#
# If this CIF has been generated from an entry in the Cambridge
# Structural Database, then it will include bibliographic, chemical,
# crystal, experimental, refinement or atomic coordinate data resulting
# from the CCDC's data processing and validation procedures.
#
#######################################################################

data_CSD_CIF_OQUPUM01
_audit_creation_date 2011-06-30
_audit_creation_method CSD-ConQuest-V1
_database_code_CSD OQUPUM01
_database_code_depnum_ccdc_archive 'CCDC 829712'
_chemical_formula_sum 'C20 H14 N4 O4'
_chemical_formula_moiety
;
C20 H14 N4 O4
;
_journal_coeditor_code "IUCr BM3102"
_journal_coden_Cambridge 591
_journal_volume 67
_journal_year 2011
_journal_page_first o171
_journal_name_full 'Acta Crystallogr.,Sect.C:Cryst.Struct.Commun. '
loop_
_publ_author_name
"A.Collas"
"M.Zeller"
"F.Blockhuys"
_chemical_name_systematic
;
(E,E)-N,N'-bis(4-nitrobenzylidene)benzene-1,4-diamine
;
_chemical_name_common
;
N,N'-bis(4-nitrobenzylidene)benzene-1,4-diamine
;
_cell_volume    860.346
_exptl_crystal_colour 'orange'
_exptl_crystal_density_diffrn 1.445
_exptl_special_details
;
polymorph 2

;
_exptl_crystal_description 'plate'
_diffrn_ambient_temperature 293
#These two values have been output from a single CSD field.
_refine_ls_R_factor_gt 0.0398
_refine_ls_wR_factor_gt 0.0398
_symmetry_cell_setting monoclinic
_symmetry_space_group_name_H-M 'P 21/c'
_symmetry_Int_Tables_number 14
loop_
_symmetry_equiv_pos_site_id
_symmetry_equiv_pos_as_xyz
1 x,y,z
2 -x,1/2+y,1/2-z
3 -x,-y,-z
4 x,-1/2-y,-1/2+z
_cell_length_a 6.567(1)
_cell_length_b 5.0227(7)
_cell_length_c 26.723(5)
_cell_angle_alpha 90
_cell_angle_beta 102.558(4)
_cell_angle_gamma 90
_cell_formula_units_Z 2
loop_
_atom_type_symbol
_atom_type_radius_bond
C 0.68
H 0.23
N 0.68
O 0.68
loop_
_atom_site_label
_atom_site_type_symbol
_atom_site_fract_x
_atom_site_fract_y
_atom_site_fract_z
C1 C 0.0372(2) 1.1170(3) 0.37643(6)
C2 C -0.1386(2) 1.1873(4) 0.39398(7)
H1 H -0.16450 1.10650 0.42330
C3 C -0.2753(3) 1.3746(4) 0.36876(6)
H2 H -0.39420 1.42000 0.38050
C4 C -0.2331(2) 1.4942(3) 0.32576(6)
C5 C -0.0603(3) 1.4307(4) 0.30734(6)
H3 H -0.03430 1.51420 0.27830
C6 C 0.0740(3) 1.2408(4) 0.33280(6)
H4 H 0.19150 1.19440 0.32060
C7 C 0.1888(3) 0.9248(3) 0.40361(6)
H5 H 0.30380 0.88360 0.39000
C8 C 0.3384(2) 0.6540(3) 0.47115(6)
C9 C 0.2953(2) 0.4366(3) 0.49885(6)
H6 H 0.15740 0.39300 0.49850
C10 C 0.5467(2) 0.7157(3) 0.47324(6)
H7 H 0.57940 0.86280 0.45540
N1 N -0.3757(2) 1.7008(3) 0.29970(5)
N2 N 0.17115(19) 0.8119(3) 0.44468(5)
O1 O -0.3319(2) 1.8127(3) 0.26298(5)
O2 O -0.5305(2) 1.7529(3) 0.31623(5)
C1B C 0.9628(2) -0.1170(3) 0.62357(6)
C2B C 1.1386(2) -0.1873(4) 0.60602(7)
H1B H 1.16450 -0.10650 0.57670
C3B C 1.2753(3) -0.3746(4) 0.63124(6)
H2B H 1.39420 -0.42000 0.61950
C4B C 1.2331(2) -0.4942(3) 0.67424(6)
C5B C 1.0603(3) -0.4307(4) 0.69266(6)
H3B H 1.03430 -0.51420 0.72170
C6B C 0.9260(3) -0.2408(4) 0.66720(6)
H4B H 0.80850 -0.19440 0.67940
C7B C 0.8112(3) 0.0752(3) 0.59639(6)
H5B H 0.69620 0.11640 0.61000
C8B C 0.6616(2) 0.3460(3) 0.52885(6)
C9B C 0.7047(2) 0.5634(3) 0.50115(6)
H6B H 0.84260 0.60700 0.50150
C10B C 0.4533(2) 0.2843(3) 0.52676(6)
H7B H 0.42060 0.13720 0.54460
N1B N 1.3757(2) -0.7008(3) 0.70030(5)
N2B N 0.82885(19) 0.1881(3) 0.55532(5)
O1B O 1.3319(2) -0.8127(3) 0.73702(5)
O2B O 1.5305(2) -0.7529(3) 0.68377(5)
#END
