
#######################################################################
#
#                 Cambridge Crystallographic Data Centre
#                                CCDC
#
#######################################################################
#
# If this CIF has been generated from an entry in the Cambridge
# Structural Database, then it will include bibliographic, chemical,
# crystal, experimental, refinement or atomic coordinate data resulting
# from the CCDC's data processing and validation procedures.
#
#######################################################################

data_CSD_CIF_ORAVUZ
_audit_creation_date 2011-08-15
_audit_creation_method CSD-ConQuest-V1
_database_code_CSD ORAVUZ
_database_code_depnum_ccdc_archive 'CCDC 798666 (not 798665 as published)'
_chemical_formula_sum 'C7 H5 N3 O9'
_chemical_formula_moiety
;
C7 H5 N3 O9
;
_journal_coden_Cambridge 1003
_journal_volume 41
_journal_year 2011
_journal_page_first 971
_journal_name_full 'J.Chem.Cryst. '
loop_
_publ_author_name
"J.R.Deschamps"
"N.A.Straessler"
_chemical_name_systematic
;
5-Methoxy-2,4,6-trinitrobenzene-1,3-diol
;
_cell_volume   1002.613
_exptl_crystal_colour 'colorless'
_exptl_crystal_density_diffrn 1.823
_exptl_crystal_description 'irregular'
_diffrn_ambient_temperature 100
#These two values have been output from a single CSD field.
_refine_ls_R_factor_gt 0.0276
_refine_ls_wR_factor_gt 0.0276
_symmetry_cell_setting orthorhombic
_symmetry_space_group_name_H-M 'P 21 21 21'
_symmetry_Int_Tables_number 19
loop_
_symmetry_equiv_pos_site_id
_symmetry_equiv_pos_as_xyz
1 x,y,z
2 1/2-x,-y,1/2+z
3 -x,1/2+y,1/2-z
4 1/2+x,1/2-y,-z
_cell_length_a 5.2365(5)
_cell_length_b 8.9295(8)
_cell_length_c 21.442(2)
_cell_angle_alpha 90
_cell_angle_beta 90
_cell_angle_gamma 90
_cell_formula_units_Z 4
loop_
_atom_type_symbol
_atom_type_radius_bond
C 0.68
H 0.23
N 0.68
O 0.68
loop_
_atom_site_label
_atom_site_type_symbol
_atom_site_fract_x
_atom_site_fract_y
_atom_site_fract_z
C1 C 0.1047(2) 0.32001(14) 0.88732(6)
O1 O 0.26768(19) 0.20878(10) 0.89665(4)
C2 C 0.2140(3) 0.05770(14) 0.87499(6)
H1 H 0.31120 -0.01430 0.90000
H2 H 0.26370 0.04850 0.83110
H3 H 0.03100 0.03710 0.87930
C3 C 0.1254(2) 0.44095(14) 0.92868(5)
N1 N 0.2947(2) 0.42696(12) 0.98304(5)
O2 O 0.47241(19) 0.51665(11) 0.98720(4)
O3 O 0.2462(2) 0.32981(11) 1.02130(4)
C4 C -0.0192(2) 0.57071(13) 0.92405(5)
O4 O 0.0194(2) 0.6762(1) 0.96685(4)
H4 H -0.079(5) 0.749(2) 0.9567(9)
C5 C -0.2060(3) 0.57773(14) 0.87620(6)
N2 N -0.3641(2) 0.70746(13) 0.87097(5)
O5 O -0.3101(2) 0.82024(11) 0.90206(5)
O6 O -0.5522(2) 0.70435(11) 0.83603(5)
C6 C -0.2391(2) 0.45695(13) 0.83463(5)
O7 O -0.4058(2) 0.45350(11) 0.78774(4)
H5 H -0.495(4) 0.528(2) 0.7869(9)
C7 C -0.0782(2) 0.33321(13) 0.84007(5)
N3 N -0.0977(2) 0.22332(12) 0.78920(5)
O8 O 0.0692(2) 0.22734(14) 0.74947(5)
O9 O -0.2793(2) 0.13651(12) 0.78935(5)
#END
