
#######################################################################
#
#                 Cambridge Crystallographic Data Centre
#                                CCDC
#
#######################################################################
#
# If this CIF has been generated from an entry in the Cambridge
# Structural Database, then it will include bibliographic, chemical,
# crystal, experimental, refinement or atomic coordinate data resulting
# from the CCDC's data processing and validation procedures.
#
#######################################################################

data_CSD_CIF_OSAQIK
_audit_creation_date 2016-08-18
_audit_creation_method CSD-ConQuest-V1
_database_code_CSD OSAQIK
_database_code_depnum_ccdc_archive 'CCDC 1483455'
_chemical_formula_sum 'C10 H9 N1 O2'
_chemical_formula_moiety
;
C10 H9 N1 O2
;
_journal_coden_Cambridge 1003
_journal_volume 46
_journal_year 2016
_journal_page_first 303
_journal_name_full 'J.Chem.Cryst. '
loop_
_publ_author_name
"E.Bosch"
"L.Jeffries"
_chemical_name_systematic
;
1-ethynyl-4,5-dimethyl-2-nitrobenzene
;
_chemical_name_common
;
4,5-dimethyl-2-nitrophenylacetylene
;
_chemical_melting_point 366
_cell_volume    876.981
_exptl_crystal_colour 'yellow'
_exptl_crystal_density_diffrn 1.327
_exptl_special_details
;
Melting point range 366-367K

;
_exptl_crystal_description 'irregular block'
_diffrn_ambient_temperature 173
#These two values have been output from a single CSD field.
_refine_ls_R_factor_gt 0.0467
_refine_ls_wR_factor_gt 0.0467
_symmetry_cell_setting triclinic
_symmetry_space_group_name_H-M 'P -1'
_symmetry_Int_Tables_number 2
loop_
_symmetry_equiv_pos_site_id
_symmetry_equiv_pos_as_xyz
1 x,y,z
2 -x,-y,-z
_cell_length_a 7.6080(5)
_cell_length_b 9.8811(6)
_cell_length_c 12.8240(8)
_cell_angle_alpha 108.176(1)
_cell_angle_beta 102.417(1)
_cell_angle_gamma 96.648(1)
_cell_formula_units_Z 4
loop_
_atom_type_symbol
_atom_type_radius_bond
C 0.68
H 0.23
N 0.68
O 0.68
loop_
_atom_site_label
_atom_site_type_symbol
_atom_site_fract_x
_atom_site_fract_y
_atom_site_fract_z
O1 O 0.09843(17) -0.06920(13) 0.14628(11)
N1 N 0.2312(2) 0.00288(15) 0.22491(13)
C1 C 0.4342(2) 0.24676(17) 0.32757(13)
O2 O 0.2977(3) -0.04048(16) 0.30059(14)
C2 C 0.3117(2) 0.14636(16) 0.22857(14)
C3 C 0.2602(2) 0.17838(17) 0.12996(13)
H1 H 0.17640 0.10760 0.06430
C4 C 0.3288(2) 0.31201(17) 0.12558(13)
C5 C 0.4496(2) 0.41617(17) 0.22394(14)
C6 C 0.4985(2) 0.38219(17) 0.32206(14)
H2 H 0.57920 0.45400 0.38840
C7 C 0.4978(2) 0.22221(19) 0.43288(14)
C8 C 0.5595(3) 0.2116(2) 0.52171(16)
H3 H 0.60940 0.20300 0.59340
C9 C 0.2738(3) 0.34254(19) 0.01664(14)
H4 H 0.19750 0.25470 -0.04370
H5 H 0.38410 0.37190 -0.00510
H6 H 0.20400 0.42090 0.02770
C10 C 0.5272(2) 0.56281(18) 0.22277(15)
H7 H 0.59610 0.62550 0.30010
H8 H 0.42680 0.60700 0.19480
H9 H 0.60940 0.55140 0.17270
N2 N 0.2714(2) 0.75625(15) 0.96065(12)
O3 O 0.2143(3) 0.65725(15) 0.98889(12)
O4 O 0.39323(18) 0.85870(14) 1.02509(10)
C11 C 0.0672(2) 0.63435(17) 0.76348(14)
C12 C 0.1897(2) 0.75611(17) 0.84606(13)
C13 C 0.2397(2) 0.88120(17) 0.82383(14)
H10 H 0.32400 0.96140 0.88190
C14 C 0.1686(2) 0.89119(18) 0.71792(15)
C15 C 0.0464(2) 0.77089(19) 0.63285(14)
C16 C -0.0007(2) 0.64615(18) 0.65717(14)
H11 H -0.08300 0.56510 0.59870
C17 C 0.0085(2) 0.49971(18) 0.77935(14)
C18 C -0.0460(2) 0.38557(19) 0.78384(15)
H12 H -0.08990 0.29360 0.78750
C19 C 0.2230(3) 1.0304(2) 0.69722(17)
H13 H 0.11480 1.07350 0.68240
H14 H 0.27410 1.00950 0.63130
H15 H 0.31550 1.09860 0.76460
C20 C -0.0350(3) 0.7762(2) 0.51683(16)
H16 H -0.11100 0.68130 0.46760
H17 H 0.06380 0.80030 0.48380
H18 H -0.11100 0.85050 0.52350
#END
