
#######################################################################
#
#                 Cambridge Crystallographic Data Centre
#                                CCDC
#
#######################################################################
#
# If this CIF has been generated from an entry in the Cambridge
# Structural Database, then it will include bibliographic, chemical,
# crystal, experimental, refinement or atomic coordinate data resulting
# from the CCDC's data processing and validation procedures.
#
#######################################################################

data_CSD_CIF_OSAQEG
_audit_creation_date 2016-08-18
_audit_creation_method CSD-ConQuest-V1
_database_code_CSD OSAQEG
_database_code_depnum_ccdc_archive 'CCDC 1483454'
_chemical_formula_sum 'C8 H5 N1 O2'
_chemical_formula_moiety
;
C8 H5 N1 O2
;
_journal_coden_Cambridge 1003
_journal_volume 46
_journal_year 2016
_journal_page_first 303
_journal_name_full 'J.Chem.Cryst. '
loop_
_publ_author_name
"E.Bosch"
"L.Jeffries"
_chemical_name_systematic
;
1-ethynyl-2-nitrobenzene
;
_chemical_name_common
;
2-nitrophenylacetylene
;
_cell_volume    683.802
_exptl_crystal_colour 'orange'
_exptl_crystal_density_diffrn 1.429
_exptl_crystal_description 'block'
_diffrn_ambient_temperature 173
_refine_special_details
;
C7,C8,N1,O1,O2 and C7A,C8A,N1A,O1A,O2A disordered over two sites with 
occupancies 0.881:0.119.
;
#These two values have been output from a single CSD field.
_refine_ls_R_factor_gt 0.094
_refine_ls_wR_factor_gt 0.094
_symmetry_cell_setting monoclinic
_symmetry_space_group_name_H-M 'P 21/c'
_symmetry_Int_Tables_number 14
loop_
_symmetry_equiv_pos_site_id
_symmetry_equiv_pos_as_xyz
1 x,y,z
2 -x,1/2+y,1/2-z
3 -x,-y,-z
4 x,-1/2-y,-1/2+z
_cell_length_a 3.7874(5)
_cell_length_b 13.0673(16)
_cell_length_c 13.8174(17)
_cell_angle_alpha 90
_cell_angle_beta 90.587(2)
_cell_angle_gamma 90
_cell_formula_units_Z 4
loop_
_atom_type_symbol
_atom_type_radius_bond
C 0.68
H 0.23
N 0.68
O 0.68
loop_
_atom_site_label
_atom_site_type_symbol
_atom_site_fract_x
_atom_site_fract_y
_atom_site_fract_z
O1 O -0.0756(11) 0.8174(3) 0.1734(3)
N1 N 0.1208(18) 0.8544(4) 0.1130(5)
C1 C 0.2367(10) 0.7934(3) 0.0323(3)
O2 O 0.2284(14) 0.9434(3) 0.1195(4)
C2 C 0.3591(12) 0.8437(4) -0.0496(3)
H1 H 0.36840 0.91630 -0.05110
C3 C 0.4675(12) 0.7873(4) -0.1291(3)
H2 H 0.55120 0.82120 -0.18510
C4 C 0.4533(12) 0.6817(4) -0.1264(3)
H3 H 0.52690 0.64280 -0.18070
C5 C 0.3324(12) 0.6329(4) -0.0449(3)
H4 H 0.32340 0.56030 -0.04410
C6 C 0.2216(10) 0.6872(3) 0.0374(3)
C7 C 0.116(3) 0.6282(7) 0.1193(5)
C8 C 0.0424(17) 0.5709(4) 0.1831(5)
H5 H -0.01610 0.52520 0.23390
O3? O 0.214(11) 0.560(2) 0.142(2)
N2? N 0.09(3) 0.642(5) 0.121(4)
O4? O -0.085(8) 0.689(2) 0.1765(19)
C9? C 0.063(9) 0.930(3) 0.169(3)
H6? H -0.01450 0.97390 0.21940
C10? C 0.148(19) 0.882(6) 0.114(5)
#END
