
#######################################################################
#
#                 Cambridge Crystallographic Data Centre
#                                CCDC
#
#######################################################################
#
# If this CIF has been generated from an entry in the Cambridge
# Structural Database, then it will include bibliographic, chemical,
# crystal, experimental, refinement or atomic coordinate data resulting
# from the CCDC's data processing and validation procedures.
#
#######################################################################

data_CSD_CIF_OSEWIU
_audit_creation_date 2016-08-18
_audit_creation_method CSD-ConQuest-V1
_database_code_CSD OSEWIU
_database_code_depnum_ccdc_archive 'CCDC 1429071'
_chemical_formula_sum 'C17 H9 N9 O12'
_chemical_formula_moiety
;
C17 H9 N9 O12
;
_journal_coden_Cambridge 1220
_journal_volume 22
_journal_year 2016
_journal_page_first 8619
_journal_name_full 'Chem.-Eur.J. '
loop_
_publ_author_name
"T.M.Klapotke"
"J.Stierstorfer"
"M.Weyrauther"
"T.G.Witkowski"
_chemical_name_systematic
;
N,N'-bis(2,4,6-trinitrophenyl)pyridine-2,6-diamine
;
_cell_volume   2078.764
_exptl_crystal_colour 'yellow'
_exptl_crystal_density_diffrn 1.698
_exptl_crystal_description 'block'
_diffrn_ambient_temperature 173
#These two values have been output from a single CSD field.
_refine_ls_R_factor_gt 0.0617
_refine_ls_wR_factor_gt 0.0617
_symmetry_cell_setting monoclinic
_symmetry_space_group_name_H-M 'P 21'
_symmetry_Int_Tables_number 4
loop_
_symmetry_equiv_pos_site_id
_symmetry_equiv_pos_as_xyz
1 x,y,z
2 -x,1/2+y,-z
_cell_length_a 7.9956(10)
_cell_length_b 16.571(3)
_cell_length_c 15.733(2)
_cell_angle_alpha 90
_cell_angle_beta 94.268(12)
_cell_angle_gamma 90
_cell_formula_units_Z 4
loop_
_atom_type_symbol
_atom_type_radius_bond
C 0.68
H 0.23
N 0.68
O 0.68
loop_
_atom_site_label
_atom_site_type_symbol
_atom_site_fract_x
_atom_site_fract_y
_atom_site_fract_z
O1 O 0.3460(5) 0.0172(3) 0.5839(3)
O2 O 0.2122(5) 0.0255(3) 0.4590(3)
O3 O 0.5029(6) 0.0614(3) 0.2094(3)
O4 O 0.7304(7) 0.1309(5) 0.2181(3)
O5 O 1.0306(5) 0.1762(3) 0.4962(3)
O6 O 0.9738(5) 0.0843(3) 0.5880(3)
O7 O 0.5369(5) 0.3641(3) 0.5552(3)
O8 O 0.4627(5) 0.2622(3) 0.4732(3)
O9 O 0.6744(6) 0.3124(3) 0.1933(3)
O10 O 0.9301(7) 0.3437(5) 0.1868(3)
O11 O 1.1661(5) 0.4298(3) 0.5581(3)
O12 O 1.2646(5) 0.4195(3) 0.4341(3)
N1 N 0.7567(5) 0.2272(3) 0.6055(3)
N2 N 0.6248(6) 0.1041(3) 0.6099(3)
N3 N 0.3406(6) 0.0334(3) 0.5078(3)
N4 N 0.6218(7) 0.0927(4) 0.2520(3)
N5 N 0.9379(6) 0.1258(3) 0.5259(3)
N6 N 0.8897(6) 0.3490(3) 0.5872(3)
N7 N 0.5616(6) 0.3159(3) 0.4986(3)
N8 N 0.8117(7) 0.3306(4) 0.2270(3)
N9 N 1.1527(6) 0.4090(3) 0.4822(3)
C1 C 0.6990(6) 0.1700(3) 0.6544(3)
C2 C 0.7063(7) 0.1739(4) 0.7422(4)
C3 C 0.7748(7) 0.2437(4) 0.7799(4)
C4 C 0.8330(7) 0.3052(4) 0.7303(4)
C5 C 0.8227(7) 0.2929(3) 0.6427(3)
C6 C 0.8664(7) 0.3500(3) 0.4999(3)
C7 C 0.9930(7) 0.3750(3) 0.4469(3)
C8 C 0.9771(7) 0.3686(4) 0.3582(4)
C9 C 0.8289(7) 0.3387(4) 0.3202(3)
C10 C 0.6955(8) 0.3174(4) 0.3673(4)
C11 C 0.7147(7) 0.3247(3) 0.4537(3)
C12 C 0.6303(7) 0.0928(3) 0.5244(3)
C13 C 0.7702(7) 0.1130(3) 0.4792(3)
C14 C 0.7709(7) 0.1142(3) 0.3913(4)
C15 C 0.6273(7) 0.0893(4) 0.3445(3)
C16 C 0.4899(7) 0.0617(4) 0.3832(3)
C17 C 0.4917(7) 0.0621(3) 0.4700(3)
H1 H 0.680(6) 0.141(3) 0.780(3)
H2 H 0.385(6) 0.038(3) 0.347(3)
H3 H 0.590(8) 0.300(4) 0.346(3)
H4 H 1.076(8) 0.376(4) 0.325(4)
H5 H 0.868(6) 0.133(3) 0.366(3)
H6 H 0.967(8) 0.386(4) 0.606(4)
H7 H 0.775(5) 0.250(3) 0.836(3)
H8 H 0.553(8) 0.079(4) 0.636(4)
H9 H 0.875(7) 0.353(4) 0.747(4)
O13 O 0.2635(5) 0.9568(3) 0.1256(3)
O14 O 0.1521(5) 0.9661(3) -0.0057(3)
O15 O 0.4889(6) 0.9919(3) -0.2363(3)
O16 O 0.7364(7) 0.9417(4) -0.2304(3)
O17 O 0.9735(5) 0.8245(3) 0.0413(3)
O18 O 0.9081(5) 0.9075(3) 0.1413(3)
O19 O 0.4793(5) 0.6351(3) 0.0845(3)
O20 O 0.4048(5) 0.7388(3) 0.0063(3)
O21 O 0.6589(6) 0.7364(4) -0.2645(3)
O22 O 0.8974(7) 0.6798(5) -0.2752(3)
O23 O 1.2061(5) 0.5769(3) -0.0333(3)
O24 O 1.1141(5) 0.5736(3) 0.0932(2)
N10 N 0.6934(5) 0.7640(3) 0.1436(3)
N11 N 0.5593(6) 0.8873(3) 0.1512(3)
N12 N 0.2734(6) 0.9546(3) 0.0478(3)
N13 N 0.6066(7) 0.9574(4) -0.1977(3)
N14 N 0.8793(6) 0.8723(3) 0.0729(3)
N15 N 0.8290(6) 0.6440(3) 0.1226(3)
N16 N 0.5048(6) 0.6857(3) 0.0306(3)
N17 N 0.7824(7) 0.7021(4) -0.2336(3)
N18 N 1.0992(6) 0.5917(3) 0.0161(3)
C18 C 0.7620(7) 0.6993(4) 0.1788(3)
C19 C 0.7749(7) 0.6859(4) 0.2674(4)
C20 C 0.7165(8) 0.7455(4) 0.3174(4)
C21 C 0.6478(7) 0.8146(4) 0.2820(3)
C22 C 0.6359(6) 0.8206(4) 0.1942(3)
C23 C 0.5725(7) 0.9056(3) 0.0669(3)
C24 C 0.4373(7) 0.9388(4) 0.0146(4)
C25 C 0.4487(7) 0.9546(4) -0.0713(4)
C26 C 0.5947(7) 0.9371(4) -0.1089(3)
C27 C 0.7318(7) 0.9062(4) -0.0611(4)
C28 C 0.7201(7) 0.8927(4) 0.0238(4)
C29 C 0.8132(6) 0.6515(3) 0.0345(3)
C30 C 0.6649(7) 0.6804(4) -0.0117(3)
C31 C 0.6545(7) 0.6990(4) -0.0971(4)
C32 C 0.7925(7) 0.6837(4) -0.1422(3)
C33 C 0.9336(7) 0.6479(4) -0.1045(4)
C34 C 0.9443(7) 0.6320(4) -0.0182(4)
H10 H 0.353(6) 0.975(3) -0.103(3)
H11 H 1.018(7) 0.640(4) -0.134(3)
H12 H 0.602(6) 0.857(3) 0.317(3)
H13 H 0.822(6) 0.639(3) 0.291(3)
H14 H 0.902(6) 0.612(3) 0.146(3)
H15 H 0.462(9) 0.909(5) 0.176(4)
H16 H 0.551(7) 0.722(4) -0.126(3)
H17 H 0.833(6) 0.892(3) -0.086(3)
H18 H 0.727(8) 0.728(4) 0.379(4)
#END
