
#######################################################################
#
#                 Cambridge Crystallographic Data Centre
#                                CCDC
#
#######################################################################
#
# If this CIF has been generated from an entry in the Cambridge
# Structural Database, then it will include bibliographic, chemical,
# crystal, experimental, refinement or atomic coordinate data resulting
# from the CCDC's data processing and validation procedures.
#
#######################################################################

data_CSD_CIF_OSEWEQ
_audit_creation_date 2016-08-18
_audit_creation_method CSD-ConQuest-V1
_database_code_CSD OSEWEQ
_database_code_depnum_ccdc_archive 'CCDC 1429070'
_chemical_formula_sum 'C17 H7 N11 O16'
_chemical_formula_moiety
;
C17 H7 N11 O16
;
_journal_coden_Cambridge 1220
_journal_volume 22
_journal_year 2016
_journal_page_first 8619
_journal_name_full 'Chem.-Eur.J. '
loop_
_publ_author_name
"T.M.Klapotke"
"J.Stierstorfer"
"M.Weyrauther"
"T.G.Witkowski"
_chemical_name_systematic
;
3,5-dinitro-N,N'-bis(2,4,6-trinitrophenyl)pyridine-2,6-diamine
;
_cell_volume   4697.261
_exptl_crystal_colour 'yellow'
_exptl_crystal_density_diffrn 1.757
_exptl_crystal_description 'needle'
_diffrn_ambient_temperature 298
#These two values have been output from a single CSD field.
_refine_ls_R_factor_gt 0.0502
_refine_ls_wR_factor_gt 0.0502
_symmetry_cell_setting orthorhombic
_symmetry_space_group_name_H-M 'P 21 21 21'
_symmetry_Int_Tables_number 19
loop_
_symmetry_equiv_pos_site_id
_symmetry_equiv_pos_as_xyz
1 x,y,z
2 1/2-x,-y,1/2+z
3 1/2+x,1/2-y,-z
4 -x,1/2+y,1/2-z
_cell_length_a 14.5179(11)
_cell_length_b 17.6612(13)
_cell_length_c 18.3198(14)
_cell_angle_alpha 90
_cell_angle_beta 90
_cell_angle_gamma 90
_cell_formula_units_Z 8
loop_
_atom_type_symbol
_atom_type_radius_bond
C 0.68
H 0.23
N 0.68
O 0.68
loop_
_atom_site_label
_atom_site_type_symbol
_atom_site_fract_x
_atom_site_fract_y
_atom_site_fract_z
O1 O 0.1115(3) 0.2253(2) 0.6158(2)
O2 O 0.1999(3) 0.2657(2) 0.7017(2)
O3 O 0.3176(3) 0.5126(3) 0.7047(2)
O4 O 0.2789(3) 0.5972(2) 0.6255(2)
O5 O -0.0810(3) 0.4741(3) 0.4753(3)
O6 O -0.0198(3) 0.5507(3) 0.5540(3)
O7 O -0.0792(4) 0.5906(3) 0.2351(3)
O8 O 0.0461(4) 0.6427(3) 0.1952(3)
O9 O 0.2929(3) 0.6578(2) 0.4624(2)
O10 O 0.3137(3) 0.6370(3) 0.3479(3)
O11 O -0.1815(4) 0.2504(4) 0.4576(3)
O12 O -0.0575(3) 0.2127(3) 0.5097(3)
O13 O -0.0528(4) 0.4170(3) 0.1876(3)
O14 O -0.1448(3) 0.3244(3) 0.2058(2)
O15 O 0.2048(2) 0.4498(2) 0.3570(2)
O16 O 0.2371(2) 0.3436(2) 0.4106(2)
N1 N 0.1251(2) 0.4353(2) 0.51454(19)
N2 N 0.1573(3) 0.2754(2) 0.6445(2)
N3 N 0.2742(3) 0.5326(3) 0.6507(2)
N4 N 0.1680(3) 0.5602(2) 0.5160(2)
N5 N -0.0271(3) 0.5240(3) 0.4937(3)
N6 N 0.0000(4) 0.6131(3) 0.2432(3)
N7 N 0.2662(3) 0.6373(3) 0.4023(3)
N8 N 0.0795(3) 0.3121(2) 0.5003(2)
N9 N -0.0988(4) 0.2511(3) 0.4646(3)
N10 N -0.0822(4) 0.3657(3) 0.2236(2)
N11 N 0.1836(3) 0.3879(2) 0.3827(2)
C1 C 0.1697(3) 0.4910(2) 0.5490(2)
C2 C 0.2170(3) 0.4761(3) 0.6145(2)
C3 C 0.2113(3) 0.4052(3) 0.6442(3)
C4 C 0.1639(3) 0.3491(3) 0.6096(2)
C5 C 0.1224(3) 0.3653(2) 0.5416(2)
C6 C 0.1236(3) 0.5768(2) 0.4505(2)
C7 C 0.0331(3) 0.5551(3) 0.4356(3)
C8 C -0.0087(4) 0.5654(3) 0.3687(3)
C9 C 0.0424(4) 0.6020(3) 0.3159(3)
C10 C 0.1297(4) 0.6276(3) 0.3274(3)
C11 C 0.1699(3) 0.6137(3) 0.3932(3)
C12 C 0.0420(3) 0.3240(2) 0.4309(2)
C13 C -0.0450(3) 0.2952(3) 0.4128(3)
C14 C -0.0854(4) 0.3080(3) 0.3453(3)
C15 C -0.0390(3) 0.3503(3) 0.2957(2)
C16 C 0.0461(3) 0.3804(3) 0.3092(2)
C17 C 0.0874(3) 0.3643(2) 0.3757(2)
H1 H 0.161(4) 0.646(3) 0.296(3)
H2 H 0.062(4) 0.272(3) 0.523(3)
H3 H -0.065(5) 0.549(3) 0.359(3)
H4 H 0.081(3) 0.409(3) 0.274(2)
H5 H 0.208(4) 0.589(3) 0.532(3)
H6 H 0.237(4) 0.394(3) 0.688(3)
H7 H -0.140(5) 0.299(4) 0.340(3)
O17 O 0.3321(3) -0.1793(2) 0.3774(2)
O18 O 0.2439(4) -0.1402(3) 0.4637(2)
O19 O 0.1546(6) 0.1159(3) 0.4857(3)
O20 O 0.1612(3) 0.1894(3) 0.3950(3)
O21 O 0.5134(4) -0.1793(3) 0.2847(3)
O22 O 0.6390(4) -0.1352(5) 0.2448(4)
O23 O 0.6426(4) -0.0222(4) 0.0063(3)
O24 O 0.5153(4) 0.0045(4) -0.0448(3)
O25 O 0.2526(3) 0.0471(2) 0.1150(2)
O26 O 0.2237(3) -0.0563(2) 0.1737(2)
O27 O 0.4649(3) 0.1534(3) 0.3265(2)
O28 O 0.5286(3) 0.0776(2) 0.2482(2)
O29 O 0.5066(4) 0.1700(4) -0.0013(3)
O30 O 0.4146(4) 0.2619(3) -0.0242(3)
O31 O 0.1286(3) 0.2316(3) 0.1231(3)
O32 O 0.1540(3) 0.2590(3) 0.2354(3)
N12 N 0.3218(3) 0.0349(2) 0.28304(19)
N13 N 0.2855(4) -0.1288(3) 0.4074(2)
N14 N 0.1805(4) 0.1299(3) 0.4252(3)
N15 N 0.3725(3) -0.0872(2) 0.2674(2)
N16 N 0.5571(4) -0.1383(3) 0.2442(3)
N17 N 0.5600(4) -0.0152(3) 0.0070(3)
N18 N 0.2761(3) -0.0118(2) 0.1454(2)
N19 N 0.2771(3) 0.1605(2) 0.2879(2)
N20 N 0.4731(3) 0.1266(3) 0.2660(2)
N21 N 0.4459(4) 0.2160(3) 0.0155(3)
N22 N 0.1784(4) 0.2367(3) 0.1760(3)
C18 C 0.3248(3) -0.0361(3) 0.3082(2)
C19 C 0.2829(3) -0.0552(3) 0.3756(3)
C20 C 0.2368(4) 0.0019(3) 0.4123(3)
C21 C 0.2322(4) 0.0736(3) 0.3848(3)
C22 C 0.2775(3) 0.0897(3) 0.3185(2)
C23 C 0.4166(3) -0.0716(2) 0.2020(2)
C24 C 0.5075(4) -0.0939(3) 0.1893(3)
C25 C 0.5553(4) -0.0757(3) 0.1273(3)
C26 C 0.5118(3) -0.0334(3) 0.0754(3)
C27 C 0.4222(4) -0.0096(3) 0.0838(3)
C28 C 0.3744(3) -0.0302(3) 0.1449(2)
C29 C 0.3220(3) 0.1775(2) 0.2232(2)
C30 C 0.4134(3) 0.1575(3) 0.2080(3)
C31 C 0.4529(4) 0.1688(3) 0.1411(3)
C32 C 0.4036(4) 0.2041(3) 0.0870(3)
C33 C 0.3147(4) 0.2283(3) 0.0992(3)
C34 C 0.2762(3) 0.2148(3) 0.1657(3)
H8 H 0.226(4) 0.191(3) 0.303(3)
H9 H 0.511(4) 0.155(3) 0.128(3)
H10 H 0.383(4) -0.130(3) 0.298(3)
H11 H 0.386(3) 0.019(2) 0.046(2)
H12 H 0.611(4) -0.098(3) 0.121(3)
H13 H 0.279(4) 0.259(3) 0.055(3)
H14 H 0.214(5) -0.014(4) 0.452(4)
#END
