
#######################################################################
#
#                 Cambridge Crystallographic Data Centre
#                                CCDC
#
#######################################################################
#
# If this CIF has been generated from an entry in the Cambridge
# Structural Database, then it will include bibliographic, chemical,
# crystal, experimental, refinement or atomic coordinate data resulting
# from the CCDC's data processing and validation procedures.
#
#######################################################################

data_CSD_CIF_OSIDEB
_audit_creation_date 2016-08-18
_audit_creation_method CSD-ConQuest-V1
_database_code_CSD OSIDEB
_database_code_depnum_ccdc_archive 'CCDC 1019344'
_chemical_formula_sum 'C16 H10 N2 O6'
_chemical_formula_moiety
;
C16 H10 N2 O6
;
_journal_coden_Cambridge 1749
_journal_volume 10
_journal_year 2015
_journal_page_first e0119440
_journal_name_full 'Plos One '
loop_
_publ_author_name
"C.S.Chidan Kumar"
"Wan-Sin Loh"
"S.Chandraju"
"Yip-Foo Win"
"Weng Kang Tan"
"Ching Kheng Quah"
"Hoong-Kun Fun"
_chemical_name_systematic
;
(1,3-dioxo-1,3-dihydro-2H-isoindol-2-yl)methyl 4-nitrobenzoate
;
_cell_volume   2920.577
_exptl_crystal_colour 'colorless'
_exptl_crystal_density_diffrn 1.484
_exptl_crystal_description 'plate'
_diffrn_ambient_temperature 297
#These two values have been output from a single CSD field.
_refine_ls_R_factor_gt 0.057
_refine_ls_wR_factor_gt 0.057
_symmetry_cell_setting orthorhombic
_symmetry_space_group_name_H-M 'P b c n'
_symmetry_Int_Tables_number 60
loop_
_symmetry_equiv_pos_site_id
_symmetry_equiv_pos_as_xyz
1 x,y,z
2 1/2-x,1/2-y,1/2+z
3 -x,y,1/2-z
4 1/2+x,1/2-y,-z
5 -x,-y,-z
6 -1/2+x,-1/2+y,-1/2-z
7 x,-y,-1/2+z
8 -1/2-x,-1/2+y,z
_cell_length_a 13.2981(19)
_cell_length_b 7.5485(11)
_cell_length_c 29.095(3)
_cell_angle_alpha 90
_cell_angle_beta 90
_cell_angle_gamma 90
_cell_formula_units_Z 8
loop_
_atom_type_symbol
_atom_type_radius_bond
C 0.68
H 0.23
N 0.68
O 0.68
loop_
_atom_site_label
_atom_site_type_symbol
_atom_site_fract_x
_atom_site_fract_y
_atom_site_fract_z
O1 O 0.96606(15) 0.1891(3) 0.42831(6)
O2 O 0.64885(17) 0.2973(3) 0.37689(6)
O3 O 0.85545(14) 0.1984(2) 0.31696(5)
O4 O 0.87692(16) 0.4096(3) 0.26521(7)
O5 O 0.90914(19) -0.2343(3) 0.09825(6)
O6 O 0.9074(3) -0.4326(4) 0.14931(8)
N1 N 0.81701(16) 0.2601(3) 0.39263(6)
N2 N 0.90312(18) -0.2801(4) 0.13798(8)
C1 C 0.8764(2) 0.1938(4) 0.42850(8)
C2 C 0.80484(18) 0.1376(4) 0.46427(7)
C3 C 0.8216(2) 0.0683(4) 0.50721(8)
H1 H 0.88650 0.04560 0.51760
C4 C 0.7387(2) 0.0333(4) 0.53458(9)
H2 H 0.74790 -0.01470 0.56370
C5 C 0.6434(2) 0.0682(4) 0.5193(1)
H3 H 0.58910 0.04420 0.53850
C6 C 0.6256(2) 0.1383(4) 0.47613(10)
H4 H 0.56070 0.16180 0.46590
C7 C 0.70824(18) 0.1717(3) 0.44899(8)
C8 C 0.7148(2) 0.2493(4) 0.40255(9)
C9 C 0.8555(3) 0.3365(4) 0.35122(8)
H5 H 0.92330 0.38040 0.35610
H6 H 0.81340 0.43450 0.34140
C10 C 0.86835(17) 0.2559(4) 0.27396(8)
C11 C 0.87359(15) 0.1103(3) 0.23980(7)
C12 C 0.88430(19) 0.1582(4) 0.19382(8)
H7 H 0.88510 0.27740 0.18570
C13 C 0.89365(19) 0.0306(4) 0.16040(8)
H8 H 0.90070 0.06150 0.12960
C14 C 0.89228(17) -0.1431(4) 0.17363(8)
C15 C 0.88116(18) -0.1955(4) 0.21871(8)
H9 H 0.87980 -0.31500 0.22650
C16 C 0.87209(16) -0.0665(3) 0.25188(8)
H10 H 0.86490 -0.09860 0.28260
#END
