
#######################################################################
#
#                 Cambridge Crystallographic Data Centre
#                                CCDC
#
#######################################################################
#
# If this CIF has been generated from an entry in the Cambridge
# Structural Database, then it will include bibliographic, chemical,
# crystal, experimental, refinement or atomic coordinate data resulting
# from the CCDC's data processing and validation procedures.
#
#######################################################################

data_CSD_CIF_OSIFUS
_audit_creation_date 2011-08-04
_audit_creation_method CSD-ConQuest-V1
_database_code_CSD OSIFUS
_database_code_depnum_ccdc_archive 'CCDC 783982'
_chemical_formula_sum 'C11 H21 N3 O2'
_chemical_formula_moiety
;
C11 H21 N3 O2
;
_journal_coden_Cambridge 4
_journal_volume 132
_journal_year 2010
_journal_page_first 15908
_journal_name_full 'J.Am.Chem.Soc. '
loop_
_publ_author_name
"S.Suzuki"
"T.Furui"
"M.Kuratsu"
"M.Kozaki"
"D.Shiomi"
"K.Sato"
"T.Takui"
"K.Okada"
_chemical_name_systematic
;
2-(t-butyl(hydroxy)amino)-4,4,5,5-tetramethyl-4,5-dihydro-1H-imidazol-1-ol
;
_cell_volume   1272.414
_exptl_crystal_colour 'red'
_exptl_crystal_density_diffrn 1.187
_exptl_crystal_description 'platelet'
_diffrn_ambient_temperature 150
#These two values have been output from a single CSD field.
_refine_ls_R_factor_gt 0.0793
_refine_ls_wR_factor_gt 0.0793
_symmetry_cell_setting monoclinic
_symmetry_space_group_name_H-M 'P 21/c'
_symmetry_Int_Tables_number 14
loop_
_symmetry_equiv_pos_site_id
_symmetry_equiv_pos_as_xyz
1 x,y,z
2 -x,1/2+y,1/2-z
3 -x,-y,-z
4 x,-1/2-y,-1/2+z
_cell_length_a 6.118(2)
_cell_length_b 17.652(6)
_cell_length_c 12.494(4)
_cell_angle_alpha 90
_cell_angle_beta 109.434(6)
_cell_angle_gamma 90
_cell_formula_units_Z 4
loop_
_atom_type_symbol
_atom_type_radius_bond
C 0.68
H 0.23
N 0.68
O 0.68
loop_
_atom_site_label
_atom_site_type_symbol
_atom_site_fract_x
_atom_site_fract_y
_atom_site_fract_z
C1 C 0.1189(4) 0.15083(12) 0.83810(18)
N1 N 0.1721(3) 0.22656(11) 0.82752(15)
O1 O 0.0788(3) 0.27099(10) 0.74436(14)
C2 C 0.3475(4) 0.25107(13) 0.93736(18)
C3 C 0.4344(4) 0.17180(13) 0.98965(18)
N2 N 0.2460(3) 0.11773(10) 0.92825(15)
C4 C 0.2164(4) 0.29564(15) 1.0014(2)
H1 H 0.098(4) 0.2633(15) 1.019(2)
H2 H 0.135(5) 0.3395(17) 0.953(2)
H3 H 0.324(5) 0.3159(16) 1.073(2)
C5 C 0.5284(4) 0.30134(15) 0.9138(2)
H4 H 0.645(5) 0.3156(15) 0.985(2)
H5 H 0.606(5) 0.2757(16) 0.863(2)
H6 H 0.455(5) 0.3496(18) 0.878(2)
C6 C 0.4789(5) 0.16631(16) 1.1165(2)
H7 H 0.603(5) 0.2055(17) 1.158(2)
H8 H 0.337(5) 0.1789(16) 1.136(2)
H9 H 0.529(5) 0.1159(18) 1.141(2)
C7 C 0.6496(4) 0.14395(17) 0.9645(2)
H10 H 0.627(5) 0.1475(16) 0.882(2)
H11 H 0.786(5) 0.1734(15) 1.007(2)
H12 H 0.679(5) 0.0907(18) 0.986(2)
N3 N -0.0612(3) 0.11581(10) 0.75174(15)
O2 O -0.2488(3) 0.15349(10) 0.70780(14)
C8 C -0.0473(4) 0.03431(13) 0.71955(19)
C9 C -0.2221(6) 0.02425(17) 0.6007(2)
H13 H -0.209(5) -0.0290(18) 0.578(2)
H14 H -0.180(5) 0.0576(19) 0.548(3)
H15 H -0.385(6) 0.036(2) 0.599(3)
C10 C -0.1092(5) -0.01582(16) 0.8041(2)
H16 H 0.004(5) -0.0079(17) 0.886(3)
H17 H -0.269(6) -0.0036(19) 0.801(3)
H18 H -0.105(5) -0.0708(18) 0.783(2)
C11 C 0.1973(5) 0.01787(16) 0.7189(2)
H19 H 0.313(5) 0.0208(16) 0.797(3)
H20 H 0.201(5) -0.0347(18) 0.688(3)
H21 H 0.240(5) 0.0565(18) 0.667(3)
#END
