
#######################################################################
#
#                 Cambridge Crystallographic Data Centre
#                                CCDC
#
#######################################################################
#
# If this CIF has been generated from an entry in the Cambridge
# Structural Database, then it will include bibliographic, chemical,
# crystal, experimental, refinement or atomic coordinate data resulting
# from the CCDC's data processing and validation procedures.
#
#######################################################################

data_CSD_CIF_OSOVIC
_audit_creation_date 2011-08-30
_audit_creation_method CSD-ConQuest-V1
_database_code_CSD OSOVIC
_database_code_depnum_ccdc_archive 'CCDC 811797'
_chemical_formula_sum 'C19 H19 N1 O6'
_chemical_formula_moiety
;
C19 H19 N1 O6
;
_journal_coden_Cambridge 1200
_journal_volume 19
_journal_year 2011
_journal_page_first 2359
_journal_name_full 'Bioorg.Med.Chem. '
loop_
_publ_author_name
"B.Babu"
"M.Lee"
"L.Lee"
"R.Strobel"
"O.Brockway"
"A.Nickols"
"R.Sjoholm"
"S.Tzou"
"S.Chavda"
"D.Desta"
"G.Fraley"
"A.Siegfried"
"W.Pennington"
"R.M.Hartley"
"C.Westbrook"
"S.L.Mooberry"
"K.Kiakos"
"J.A.Hartley"
"M.Lee"
_chemical_name_systematic
;
4-(4-Nitrophenyl)-3-(3,4,5-trimethoxyphenyl)but-3-en-2-one
;
_cell_volume   3418.328
_exptl_crystal_colour 'light yellow'
_exptl_crystal_density_diffrn 1.389
_exptl_crystal_description 'parallelepiped'
_diffrn_ambient_temperature 163
#These two values have been output from a single CSD field.
_refine_ls_R_factor_gt 0.0432
_refine_ls_wR_factor_gt 0.0432
_symmetry_cell_setting monoclinic
_symmetry_space_group_name_H-M 'C 2/c'
_symmetry_Int_Tables_number 15
loop_
_symmetry_equiv_pos_site_id
_symmetry_equiv_pos_as_xyz
1 x,y,z
2 -x,y,1/2-z
3 1/2+x,1/2+y,z
4 1/2-x,1/2+y,1/2-z
5 -x,-y,-z
6 x,-y,-1/2+z
7 -1/2-x,-1/2-y,-z
8 -1/2+x,-1/2-y,-1/2+z
_cell_length_a 30.6394(12)
_cell_length_b 7.2842(4)
_cell_length_c 18.4845(7)
_cell_angle_alpha 90
_cell_angle_beta 124.045(9)
_cell_angle_gamma 90
_cell_formula_units_Z 8
loop_
_atom_type_symbol
_atom_type_radius_bond
C 0.68
H 0.23
N 0.68
O 0.68
loop_
_atom_site_label
_atom_site_type_symbol
_atom_site_fract_x
_atom_site_fract_y
_atom_site_fract_z
O1 O 0.05745(5) 0.05178(17) -0.09476(8)
O2 O 0.26559(6) 1.18079(18) 0.08963(9)
O3 O 0.27542(6) 1.06782(19) 0.20618(8)
O4 O 0.13961(4) 0.11275(15) 0.22815(7)
O5 O 0.09414(4) 0.41188(14) 0.23741(6)
O6 O 0.05417(4) 0.66974(14) 0.11358(6)
N1 N 0.25833(5) 1.06059(18) 0.12815(9)
C1 C 0.10891(5) 0.32142(19) -0.05178(9)
C2 C 0.10427(5) 0.34245(19) 0.02401(9)
C3 C 0.12448(5) 0.2084(2) 0.08895(9)
C4 C 0.12100(5) 0.23301(19) 0.16034(9)
C5 C 0.09690(5) 0.38935(19) 0.16587(8)
C6 C 0.07657(5) 0.52289(19) 0.10065(9)
C7 C 0.08033(5) 0.49963(19) 0.02959(9)
C8 C 0.13647(6) 0.4376(2) -0.06794(9)
C9 C 0.16874(5) 0.5959(2) -0.01462(9)
C10 C 0.19675(6) 0.5985(2) 0.07701(9)
C11 C 0.22615(6) 0.7503(2) 0.12364(9)
C12 C 0.22759(5) 0.8994(2) 0.07842(9)
C13 C 0.20169(6) 0.9007(2) -0.01162(10)
C14 C 0.17262(6) 0.7473(2) -0.05773(9)
C15 C 0.07961(6) 0.1633(2) -0.11253(9)
C16 C 0.16637(6) -0.0470(2) 0.22751(11)
C17 C 0.04369(7) 0.3634(3) 0.21968(11)
C18 C 0.03055(6) 0.8080(2) 0.04734(10)
C19 C 0.07758(8) 0.1433(3) -0.19530(11)
H1 H 0.1402(6) 0.102(2) 0.0832(10)
H2 H 0.2459(7) 0.753(3) 0.1854(12)
H3 H 0.1350(6) 0.421(2) -0.1202(11)
H4 H 0.2047(7) 1.001(3) -0.0398(12)
H5 H 0.0655(6) 0.592(2) -0.0166(11)
H6 H 0.1962(7) 0.491(3) 0.1085(12)
H7 H 0.1543(7) 0.742(3) -0.1211(13)
H8 H 0.0023(7) 0.752(3) -0.0092(12)
H9 H 0.1962(8) -0.013(3) 0.2244(13)
H10 H 0.0578(8) 0.861(3) 0.0408(13)
H11 H 0.1431(8) -0.125(3) 0.1768(14)
H12 H 0.0470(8) 0.359(3) 0.2767(14)
H13 H 0.0182(7) 0.900(3) 0.0710(12)
H14 H 0.0165(8) 0.460(3) 0.1802(14)
H15 H 0.1793(8) -0.106(3) 0.2846(14)
H16 H 0.0315(9) 0.239(3) 0.1904(15)
H17 H 0.0509(11) 0.057(4) -0.2314(18)
H18 H 0.0709(10) 0.256(4) -0.2276(18)
H19 H 0.1116(13) 0.103(4) -0.181(2)
#END
