
#######################################################################
#
#                 Cambridge Crystallographic Data Centre
#                                CCDC
#
#######################################################################
#
# If this CIF has been generated from an entry in the Cambridge
# Structural Database, then it will include bibliographic, chemical,
# crystal, experimental, refinement or atomic coordinate data resulting
# from the CCDC's data processing and validation procedures.
#
#######################################################################

data_CSD_CIF_OTAKEB01
_audit_creation_date 2017-01-31
_audit_creation_method CSD-ConQuest-V1
_database_code_CSD OTAKEB01
_database_code_depnum_ccdc_archive 'CCDC 1407085'
_chemical_formula_sum 'C6 H1 N7 O3'
_chemical_formula_moiety
;
C6 H1 N7 O3
;
_journal_coden_Cambridge 1078
_journal_year 2016
_journal_name_full 'CSD Communication(Private Communication) '
loop_
_publ_author_name
"Z.G.Aliev"
_chemical_name_systematic
;
7H-tris[1,2,5]oxadiazolo[3,4-b:3',4'-d:3'',4''-f]azepine
;
_cell_volume    779.400
_exptl_crystal_colour 'colorless'
_exptl_crystal_density_diffrn 1.868
_exptl_crystal_description 'plate'
_diffrn_ambient_temperature 293
#These two values have been output from a single CSD field.
_refine_ls_R_factor_gt 0.0342
_refine_ls_wR_factor_gt 0.0342
_symmetry_cell_setting monoclinic
_symmetry_space_group_name_H-M 'P 21/n'
_symmetry_Int_Tables_number 14
loop_
_symmetry_equiv_pos_site_id
_symmetry_equiv_pos_as_xyz
1 x,y,z
2 1/2-x,1/2+y,1/2-z
3 -x,-y,-z
4 -1/2+x,-1/2-y,-1/2+z
_cell_length_a 7.260(1)
_cell_length_b 6.474(1)
_cell_length_c 16.786(2)
_cell_angle_alpha 90
_cell_angle_beta 98.93(1)
_cell_angle_gamma 90
_cell_formula_units_Z 4
loop_
_atom_type_symbol
_atom_type_radius_bond
C 0.68
H 0.23
N 0.68
O 0.68
loop_
_atom_site_label
_atom_site_type_symbol
_atom_site_fract_x
_atom_site_fract_y
_atom_site_fract_z
O1 O 0.95209(18) 0.4207(2) 0.40975(8)
O2 O 1.5598(2) 0.4145(2) 0.25100(8)
O3 O 1.61648(19) -0.3043(2) 0.42878(8)
N1 N 1.2083(2) -0.0321(2) 0.43199(10)
H1 H 1.148(3) -0.102(4) 0.4624(14)
N2 N 0.9873(2) 0.2229(2) 0.44106(9)
N3 N 1.0830(2) 0.4757(2) 0.36319(10)
N4 N 1.3926(2) 0.4692(3) 0.27465(10)
N5 N 1.6260(2) 0.2309(3) 0.28485(10)
N6 N 1.6559(2) -0.1441(3) 0.38088(10)
N7 N 1.4434(2) -0.2763(2) 0.45380(9)
C1 C 1.1358(2) 0.1603(3) 0.41307(9)
C2 C 1.1952(2) 0.3193(3) 0.36413(10)
C3 C 1.3576(2) 0.3212(3) 0.32274(10)
C4 C 1.5018(2) 0.1727(3) 0.32879(9)
C5 C 1.5126(2) -0.0204(3) 0.37465(10)
C6 C 1.3798(2) -0.1034(3) 0.42002(10)
#END
