
#######################################################################
#
#                 Cambridge Crystallographic Data Centre
#                                CCDC
#
#######################################################################
#
# If this CIF has been generated from an entry in the Cambridge
# Structural Database, then it will include bibliographic, chemical,
# crystal, experimental, refinement or atomic coordinate data resulting
# from the CCDC's data processing and validation procedures.
#
#######################################################################

data_CSD_CIF_OTAKEB
_audit_creation_date 2016-08-19
_audit_creation_method CSD-ConQuest-V1
_database_code_CSD OTAKEB
_database_code_depnum_ccdc_archive 'CCDC 1026193'
_chemical_formula_sum 'C6 H1 N7 O3'
_chemical_formula_moiety
;
C6 H1 N7 O3
;
_journal_coden_Cambridge 584
_journal_volume 35
_journal_year 2015
_journal_page_first 851
_journal_name_full 'Youji Huaxue(Chin.)(Chin.J.Org.Chem.) '
loop_
_publ_author_name
"Jia Siyuan"
"Zhang Haihao"
"Zhou Cheng"
"Lai Weipen"
"Li Xiangzhi"
"Wang Bozhou"
_chemical_name_systematic
;
7H-tris[1,2,5]oxadiazolo[3,4-b:3',4'-d:3'',4''-f]azepine
;
_cell_volume    778.045
_exptl_crystal_density_diffrn 1.871
_diffrn_ambient_temperature 296
#These two values have been output from a single CSD field.
_refine_ls_R_factor_gt 0.0353
_refine_ls_wR_factor_gt 0.0353
_symmetry_cell_setting monoclinic
_symmetry_space_group_name_H-M 'P 21/n'
_symmetry_Int_Tables_number 14
loop_
_symmetry_equiv_pos_site_id
_symmetry_equiv_pos_as_xyz
1 x,y,z
2 1/2-x,1/2+y,1/2-z
3 -x,-y,-z
4 -1/2+x,-1/2-y,-1/2+z
_cell_length_a 7.2521(15)
_cell_length_b 6.4585(14)
_cell_length_c 16.814(4)
_cell_angle_alpha 90
_cell_angle_beta 98.901(4)
_cell_angle_gamma 90
_cell_formula_units_Z 4
loop_
_atom_type_symbol
_atom_type_radius_bond
C 0.68
H 0.23
N 0.68
O 0.68
loop_
_atom_site_label
_atom_site_type_symbol
_atom_site_fract_x
_atom_site_fract_y
_atom_site_fract_z
C1 C 0.12040(19) -0.1033(2) 0.58006(8)
C2 C -0.01289(19) -0.0196(2) 0.62532(8)
C3 C -0.00158(19) 0.1724(2) 0.67135(8)
C4 C 0.1429(2) 0.3211(2) 0.67735(8)
C5 C 0.30486(19) 0.3196(2) 0.63600(8)
C6 C 0.36453(19) 0.1605(2) 0.58686(8)
N1 N 0.29164(18) -0.03175(19) 0.56796(8)
N2 N 0.05650(18) -0.2760(2) 0.54630(8)
N3 N -0.15590(18) -0.1439(2) 0.61908(8)
N4 N -0.12594(18) 0.2311(2) 0.71515(8)
N5 N 0.1071(2) 0.4693(2) 0.72543(8)
N6 N 0.41756(18) 0.4762(2) 0.63677(8)
N7 N 0.51281(17) 0.22312(19) 0.55908(7)
O1 O -0.11622(15) -0.30359(16) 0.57111(7)
O2 O -0.06003(16) 0.4144(2) 0.74908(7)
O3 O 0.54802(14) 0.42093(16) 0.59033(7)
H1 H 0.353(3) -0.101(3) 0.5389(12)
#END
