
#######################################################################
#
#                 Cambridge Crystallographic Data Centre
#                                CCDC
#
#######################################################################
#
# If this CIF has been generated from an entry in the Cambridge
# Structural Database, then it will include bibliographic, chemical,
# crystal, experimental, refinement or atomic coordinate data resulting
# from the CCDC's data processing and validation procedures.
#
#######################################################################

data_CSD_CIF_OTOGOU
_audit_creation_date 2011-08-22
_audit_creation_method CSD-ConQuest-V1
_database_code_CSD OTOGOU
_database_code_depnum_ccdc_archive 'CCDC 805359'
_chemical_formula_sum 'C26 H23 N3 O3'
_chemical_formula_moiety
;
C26 H23 N3 O3
;
_journal_coden_Cambridge 24
_journal_volume 52
_journal_year 2011
_journal_page_first 3437
_journal_name_full 'Tetrahedron Lett. '
loop_
_publ_author_name
"N.V.Lakshmi"
"Y.Arun"
"P.T.Perumal"
_chemical_name_systematic
;
1-Benzyl-4'-((hydroxyimino)(phenyl)methyl)-1'-methyl-5'H-spiro[indole-3,3'-pyr
rolidine]-2,5'(1H)-dione
;
_cell_volume   1087.524
_exptl_crystal_colour 'colorless'
_exptl_crystal_density_diffrn 1.299
_exptl_crystal_description 'block'
_diffrn_ambient_temperature 293
#These two values have been output from a single CSD field.
_refine_ls_R_factor_gt 0.0467
_refine_ls_wR_factor_gt 0.0467
_symmetry_cell_setting triclinic
_symmetry_space_group_name_H-M 'P -1'
_symmetry_Int_Tables_number 2
loop_
_symmetry_equiv_pos_site_id
_symmetry_equiv_pos_as_xyz
1 x,y,z
2 -x,-y,-z
_cell_length_a 9.7946(3)
_cell_length_b 10.7754(3)
_cell_length_c 11.2618(3)
_cell_angle_alpha 102.152(1)
_cell_angle_beta 107.444(1)
_cell_angle_gamma 96.748(1)
_cell_formula_units_Z 2
loop_
_atom_type_symbol
_atom_type_radius_bond
C 0.68
H 0.23
N 0.68
O 0.68
loop_
_atom_site_label
_atom_site_type_symbol
_atom_site_fract_x
_atom_site_fract_y
_atom_site_fract_z
C1 C -0.23477(15) 0.12794(15) 0.63085(15)
H1 H -0.27860 0.10890 0.68930
C2 C -0.31997(17) 0.13064(18) 0.50984(17)
H2 H -0.42100 0.11230 0.48680
C3 C -0.25732(19) 0.16012(17) 0.42274(15)
H3 H -0.31570 0.16150 0.34110
C4 C -0.10954(19) 0.18724(18) 0.45642(14)
H4 H -0.06670 0.20830 0.39810
C5 C -0.02278(15) 0.18351(15) 0.57739(12)
H5 H 0.07820 0.20150 0.59920
C6 C -0.08356(12) 0.15354(11) 0.66613(11)
C7 C 0.00843(11) 0.14725(10) 0.79528(10)
C8 C 0.16197(11) 0.12360(9) 0.81581(10)
H6 H 0.16870 0.08710 0.73080
C9 C 0.19745(12) 0.02584(10) 0.89483(10)
C10 C 0.37364(13) 0.21093(11) 1.01236(11)
H7 H 0.47790 0.22730 1.02820
H8 H 0.35430 0.26310 1.08480
C11 C 0.29088(11) 0.24245(10) 0.88609(10)
C12 C 0.37303(16) 0.01361(14) 1.09619(13)
H9 H 0.35680 0.05860 1.17240
H10 H 0.47560 0.01570 1.11400
H11 H 0.32210 -0.07460 1.07000
C13 C 0.25548(12) 0.37551(10) 0.90459(12)
C14 C 0.18831(15) 0.43817(12) 0.98362(15)
H12 H 0.15290 0.39650 1.03580
C15 C 0.17427(17) 0.56528(13) 0.98406(19)
H13 H 0.13040 0.60950 1.03810
C16 C 0.22453(17) 0.62578(13) 0.90559(18)
H14 H 0.21150 0.70990 0.90540
C17 C 0.29420(16) 0.56470(12) 0.82661(15)
H15 H 0.32780 0.60590 0.77310
C18 C 0.31195(12) 0.4403(1) 0.83025(12)
C19 C 0.38551(12) 0.24684(11) 0.79937(11)
C20 C 0.46442(14) 0.39851(14) 0.68361(13)
H16 H 0.53600 0.34440 0.67860
H17 H 0.51600 0.48760 0.72000
C21 C 0.36114(14) 0.38438(13) 0.55057(13)
C22 C 0.3217(2) 0.48934(16) 0.50767(16)
H18 H 0.36300 0.57240 0.56050
C23 C 0.2208(2) 0.4729(2) 0.38632(18)
H19 H 0.19330 0.54470 0.35900
C24 C 0.1616(2) 0.3514(2) 0.30673(16)
H20 H 0.09330 0.34040 0.22570
C25 C 0.2030(2) 0.24654(19) 0.34666(16)
H21 H 0.16450 0.16410 0.29170
C26 C 0.30168(17) 0.26173(16) 0.46778(15)
H22 H 0.32860 0.18940 0.49430
N1 N -0.05244(10) 0.15766(9) 0.88183(9)
N2 N 0.31976(11) 0.07564(9) 0.99405(9)
N3 N 0.38799(11) 0.36203(9) 0.76812(10)
O1 O 0.04314(9) 0.15365(8) 1.00059(8)
H23 H 0.00080 0.16050 1.05370
O2 O 0.12615(10) -0.08435(7) 0.86606(8)
O3 O 0.44382(11) 0.16078(9) 0.76169(10)
#END
