
#######################################################################
#
#                 Cambridge Crystallographic Data Centre
#                                CCDC
#
#######################################################################
#
# If this CIF has been generated from an entry in the Cambridge
# Structural Database, then it will include bibliographic, chemical,
# crystal, experimental, refinement or atomic coordinate data resulting
# from the CCDC's data processing and validation procedures.
#
#######################################################################

data_CSD_CIF_OVAJOM
_audit_creation_date 2016-09-16
_audit_creation_method CSD-ConQuest-V1
_database_code_CSD OVAJOM
_database_code_depnum_ccdc_archive 'CCDC 1443815'
_chemical_formula_sum 'C14 H17 N3 O3'
_chemical_formula_moiety
;
C14 H17 N3 O3
;
_journal_coden_Cambridge 1127
_journal_volume 26
_journal_year 2016
_journal_page_first 4436
_journal_name_full 'Bioorg.Med.Chem.Lett. '
loop_
_publ_author_name
"Hao Zhou"
"Xin Che"
"Guochen Bao"
"Na Wang"
"Li Peng"
"K.D.Barnash"
"S.V.Frye"
"L.I.James"
"Xu Bai"
_chemical_name_systematic
;
(1-methylhexahydropyrrolo[3,4-b]pyrrol-5(1H)-yl)(4-nitrophenyl)methanone
;
_cell_volume    669.599
_exptl_crystal_colour 'colorless'
_exptl_crystal_density_diffrn 1.365
_exptl_crystal_preparation 'Petroleum ether/Dichloromethane'
_diffrn_ambient_temperature 293
_refine_special_details
;
C10,C11,C12,C13,C14,C8,C9,N3 and C10',C11',C12',C13',C14',C8',C9',N3' 
disordered over two sites with occupancies 0.50:0.50.
;
#These two values have been output from a single CSD field.
_refine_ls_R_factor_gt 0.0515
_refine_ls_wR_factor_gt 0.0515
_symmetry_cell_setting monoclinic
_symmetry_space_group_name_H-M 'P 21'
_symmetry_Int_Tables_number 4
loop_
_symmetry_equiv_pos_site_id
_symmetry_equiv_pos_as_xyz
1 x,y,z
2 -x,1/2+y,-z
_cell_length_a 7.0153(10)
_cell_length_b 10.0042(14)
_cell_length_c 9.5621(13)
_cell_angle_alpha 90
_cell_angle_beta 93.822(2)
_cell_angle_gamma 90
_cell_formula_units_Z 2
loop_
_atom_type_symbol
_atom_type_radius_bond
C 0.68
H 0.23
N 0.68
O 0.68
loop_
_atom_site_label
_atom_site_type_symbol
_atom_site_fract_x
_atom_site_fract_y
_atom_site_fract_z
C1 C 0.0916(4) 0.7185(3) 1.0542(3)
C2 C 0.2263(5) 0.6190(3) 1.0793(3)
H1 H 0.20990 0.55390 1.14680
C3 C 0.1106(5) 0.8165(3) 0.9555(3)
H2 H 0.01770 0.88220 0.94020
C4 C 0.3855(4) 0.6185(3) 1.0021(3)
H3 H 0.47780 0.55260 1.01830
C5 C 0.2721(5) 0.8152(3) 0.8790(3)
H4 H 0.28860 0.88160 0.81290
C6 C 0.4097(4) 0.7154(3) 0.9002(3)
C7 C 0.5842(4) 0.7209(3) 0.8173(3)
C8 C 0.5292(19) 0.4780(15) 0.7486(11)
H5 H 0.57050 0.40840 0.81440
H6 H 0.39590 0.49810 0.76040
C9 C 0.8414(12) 0.5907(10) 0.7032(9)
H7 H 0.94100 0.55080 0.76490
H8 H 0.88510 0.67510 0.66700
C10 C 0.5556(10) 0.4357(6) 0.6040(6)
H9 H 0.46090 0.47860 0.53870
C11 C 0.7627(12) 0.4915(8) 0.5821(8)
H10 H 0.77340 0.52890 0.48820
C12 C 0.5651(9) 0.2866(5) 0.5752(6)
H11 H 0.47510 0.26220 0.49800
H12 H 0.53500 0.23600 0.65750
C13 C 1.0721(10) 0.3863(8) 0.5551(7)
H13 H 1.06220 0.39910 0.45540
H14 H 1.14660 0.30780 0.57760
H15 H 1.13280 0.46270 0.59950
C14 C 0.7689(10) 0.2582(6) 0.5382(8)
H16 H 0.81320 0.17270 0.57550
H17 H 0.77900 0.25870 0.43750
N1 N -0.0801(4) 0.7171(3) 1.1355(3)
N2 N 0.6528(4) 0.6036(2) 0.7717(3)
N3 N 0.8781(6) 0.3697(4) 0.6059(4)
O1 O -0.1100(4) 0.6202(2) 1.2082(3)
O2 O -0.1853(4) 0.8145(3) 1.1246(3)
O3 O 0.6607(4) 0.8284(2) 0.7956(2)
C15? C 0.5645(19) 0.4757(16) 0.7541(13)
H18? H 0.42630 0.48320 0.74730
H19? H 0.60350 0.41620 0.83080
C16? C 0.8031(14) 0.6059(11) 0.6802(10)
H20? H 0.92200 0.59820 0.73750
H21? H 0.80270 0.69350 0.63680
C17? C 0.6428(14) 0.4248(8) 0.6086(8)
H22? H 0.54110 0.42380 0.53320
C18? C 0.8084(16) 0.5090(12) 0.5703(12)
H23? H 0.76740 0.55530 0.48310
C19? C 0.9739(16) 0.4138(9) 0.5348(9)
H24? H 1.02470 0.43630 0.44590
H25? H 1.07650 0.41360 0.60800
C20? C 0.5878(12) 0.1889(9) 0.6176(9)
H26? H 0.64720 0.10330 0.63330
H27? H 0.52380 0.19090 0.52570
H28? H 0.49670 0.20380 0.68650
C21? C 0.8675(14) 0.2833(9) 0.5277(8)
H29? H 0.80560 0.27010 0.43500
H30? H 0.95420 0.20940 0.54860
N4? N 0.7311(10) 0.2918(6) 0.6284(7)
#END
