
#######################################################################
#
#                 Cambridge Crystallographic Data Centre
#                                CCDC
#
#######################################################################
#
# If this CIF has been generated from an entry in the Cambridge
# Structural Database, then it will include bibliographic, chemical,
# crystal, experimental, refinement or atomic coordinate data resulting
# from the CCDC's data processing and validation procedures.
#
#######################################################################

data_CSD_CIF_OVAZAO
_audit_creation_date 2016-09-16
_audit_creation_method CSD-ConQuest-V1
_database_code_CSD OVAZAO
_database_code_depnum_ccdc_archive 'CCDC 1504584'
_chemical_formula_sum 'C4 H2 N8 O4'
_chemical_formula_moiety
;
C4 H2 N8 O4
;
_journal_coden_Cambridge 1078
_journal_year 2016
_journal_name_full 'CSD Communication(Private Communication) '
loop_
_publ_author_name
"D.A.Parrish"
"G.H.Imler"
"J.Shreeve"
"D.Kumar"
_chemical_name_systematic
;
3,7-dinitro[1,2,4]triazolo[5,1-c][1,2,4]triazin-4-amine
;
_cell_volume   2428.480
_exptl_crystal_colour 'orange'
_exptl_crystal_density_diffrn 1.856
_exptl_crystal_description 'plate'
_exptl_crystal_preparation 'Methanol/ water'
_diffrn_ambient_temperature 150
#These two values have been output from a single CSD field.
_refine_ls_R_factor_gt 0.0405
_refine_ls_wR_factor_gt 0.0405
_symmetry_cell_setting monoclinic
_symmetry_space_group_name_H-M 'C c'
_symmetry_Int_Tables_number 9
loop_
_symmetry_equiv_pos_site_id
_symmetry_equiv_pos_as_xyz
1 x,y,z
2 x,-y,1/2+z
3 1/2+x,1/2+y,z
4 1/2+x,1/2-y,1/2+z
_cell_length_a 6.2353(6)
_cell_length_b 22.473(2)
_cell_length_c 17.609(2)
_cell_angle_alpha 90
_cell_angle_beta 100.2
_cell_angle_gamma 90
_cell_formula_units_Z 12
loop_
_atom_type_symbol
_atom_type_radius_bond
C 0.68
H 0.23
N 0.68
O 0.68
loop_
_atom_site_label
_atom_site_type_symbol
_atom_site_fract_x
_atom_site_fract_y
_atom_site_fract_z
O1 O 1.3486(4) 0.36994(12) 0.81810(14)
O2 O 1.1556(4) 0.31614(11) 0.88293(12)
N1 N 1.1873(5) 0.34101(12) 0.82399(15)
C1 C 1.0188(5) 0.33466(13) 0.75531(18)
N2 N 0.8364(4) 0.30440(11) 0.75759(14)
C2 C 0.7406(5) 0.30678(12) 0.68296(17)
N3 N 0.5501(4) 0.28179(11) 0.64947(15)
N4 N 0.4994(5) 0.28831(11) 0.57409(15)
C3 C 0.6263(5) 0.31847(12) 0.53440(17)
N5 N 0.5465(5) 0.31898(11) 0.45226(15)
O3 O 0.6653(4) 0.34076(11) 0.41056(12)
O4 O 0.3662(4) 0.29766(11) 0.42753(14)
C4 C 0.8230(5) 0.34743(12) 0.56447(17)
N6 N 0.9549(5) 0.37984(12) 0.53195(15)
H1 H 1.07320 0.39500 0.56000
H2 H 0.92560 0.38660 0.48200
N7 N 0.8740(4) 0.33786(10) 0.64247(13)
N8 N 1.0576(4) 0.35687(10) 0.68955(14)
O5 O 0.5958(5) 0.01266(12) 0.31599(16)
O6 O 0.5047(6) -0.07142(12) 0.36067(19)
N9 N 0.4917(6) -0.01725(14) 0.35325(18)
C5 C 0.3381(7) 0.01361(14) 0.39288(19)
N10 N 0.1840(6) -0.01623(12) 0.42066(16)
C6 C 0.0852(6) 0.02794(13) 0.45195(17)
N11 N -0.0839(5) 0.02469(12) 0.48911(15)
N12 N -0.1407(5) 0.07569(12) 0.51778(15)
C7 C -0.0373(6) 0.12591(13) 0.50983(17)
N13 N -0.1204(5) 0.17701(12) 0.54638(15)
O7 O -0.2739(4) 0.17003(11) 0.57974(14)
O8 O -0.0283(4) 0.22512(10) 0.54121(15)
C8 C 0.1374(5) 0.13378(13) 0.47036(17)
N14 N 0.2471(5) 0.18070(11) 0.45702(17)
H3 H 0.35240 0.17760 0.42990
H4 H 0.21600 0.21560 0.47510
N15 N 0.1905(4) 0.08029(10) 0.44131(14)
N16 N 0.3552(5) 0.07176(11) 0.40147(15)
O9 O 0.6641(5) 0.54379(13) 0.21303(17)
O10 O 0.4458(4) 0.58515(10) 0.11707(16)
N17 N 0.4926(5) 0.54681(13) 0.16623(17)
C9 C 0.3298(5) 0.50017(13) 0.16783(17)
N18 N 0.1326(4) 0.50522(10) 0.12560(14)
C10 C 0.0408(5) 0.45501(13) 0.14450(17)
N19 N -0.1611(5) 0.43450(12) 0.12029(16)
N20 N -0.2097(5) 0.38410(11) 0.15250(16)
C11 C -0.0708(6) 0.35455(13) 0.20438(18)
N21 N -0.1632(6) 0.30306(13) 0.23722(17)
O11 O -0.3472(5) 0.28713(11) 0.20872(18)
O12 O -0.0490(5) 0.27931(11) 0.29329(14)
C12 C 0.1475(6) 0.37127(14) 0.23001(17)
N22 N 0.3043(5) 0.34497(13) 0.27694(16)
H5 H 0.43490 0.36110 0.28660
H6 H 0.27940 0.31110 0.29890
N23 N 0.1927(4) 0.42354(11) 0.19728(14)
N24 N 0.3841(5) 0.45311(12) 0.21261(15)
#END
