
#######################################################################
#
#                 Cambridge Crystallographic Data Centre
#                                CCDC
#
#######################################################################
#
# If this CIF has been generated from an entry in the Cambridge
# Structural Database, then it will include bibliographic, chemical,
# crystal, experimental, refinement or atomic coordinate data resulting
# from the CCDC's data processing and validation procedures.
#
#######################################################################

data_CSD_CIF_OVAZAO01
_audit_creation_date 2016-12-19
_audit_creation_method CSD-ConQuest-V1
_database_code_CSD OVAZAO01
_database_code_depnum_ccdc_archive 'CCDC 1481755'
_chemical_formula_sum 'C4 H2 N8 O4'
_chemical_formula_moiety
;
C4 H2 N8 O4
;
_journal_coden_Cambridge 179
_journal_volume 55
_journal_year 2016
_journal_page_first 15315
_journal_name_full 'Angew.Chem.,Int.Ed. '
loop_
_publ_author_name
"D.G.Piercey"
"D.E.Chavez"
"B.L.Scott"
"G.H.Imler"
"D.A.Parrish"
_chemical_name_systematic
;
3,7-dinitro[1,2,4]triazolo[5,1-c][1,2,4]triazin-4-amine
;
_cell_volume   2397.283
_exptl_crystal_colour 'yellow'
_exptl_crystal_density_diffrn 1.88
_exptl_crystal_description 'block'
_diffrn_ambient_temperature 100
#These two values have been output from a single CSD field.
_refine_ls_R_factor_gt 0.0376
_refine_ls_wR_factor_gt 0.0376
_symmetry_cell_setting monoclinic
_symmetry_space_group_name_H-M 'C c'
_symmetry_Int_Tables_number 9
loop_
_symmetry_equiv_pos_site_id
_symmetry_equiv_pos_as_xyz
1 x,y,z
2 x,-y,1/2+z
3 1/2+x,1/2+y,z
4 1/2+x,1/2-y,1/2+z
_cell_length_a 6.205(2)
_cell_length_b 22.370(7)
_cell_length_c 17.547(6)
_cell_angle_alpha 90
_cell_angle_beta 100.18
_cell_angle_gamma 90
_cell_formula_units_Z 12
loop_
_atom_type_symbol
_atom_type_radius_bond
C 0.68
H 0.23
N 0.68
O 0.68
loop_
_atom_site_label
_atom_site_type_symbol
_atom_site_fract_x
_atom_site_fract_y
_atom_site_fract_z
N1 N 0.8039(5) 0.76808(14) 0.64648(19)
N2 N 0.4262(5) 0.76713(13) 0.57944(18)
N3 N 0.6168(5) 0.67885(13) 0.59839(17)
N4 N 0.4116(4) 0.67037(12) 0.55884(15)
N5 N 0.0877(5) 0.72614(13) 0.51134(17)
N6 N 0.0030(5) 0.67492(12) 0.48260(16)
N7 N -0.0056(5) 0.57342(13) 0.45404(16)
N8 N 0.4528(5) 0.56954(12) 0.54311(19)
H1 H 0.58310 0.57240 0.56950
H2 H 0.40380 0.53540 0.52530
O1 O 0.8082(6) 0.82247(12) 0.6388(2)
O2 O 0.9450(5) 0.73823(13) 0.68410(17)
O3 O -0.1939(4) 0.58029(12) 0.42104(15)
O4 O 0.0914(4) 0.52516(10) 0.45941(16)
C1 C 0.6099(6) 0.73715(15) 0.6072(2)
C2 C 0.2968(6) 0.72292(14) 0.54811(18)
C3 C 0.1137(5) 0.62437(14) 0.49064(19)
C4 C 0.3304(5) 0.61672(14) 0.53009(18)
N9 N 1.0260(5) 0.40868(13) 0.17598(16)
N10 N 1.0314(4) 0.39314(12) 0.31070(16)
N11 N 0.7402(4) 0.44510(12) 0.24317(15)
N12 N 0.8953(4) 0.41194(11) 0.35814(15)
N13 N 0.5626(5) 0.46795(12) 0.35137(16)
N14 N 0.5880(5) 0.46149(12) 0.42697(17)
N15 N 1.0898(5) 0.37074(13) 0.46915(16)
H3 H 1.17910 0.35590 0.44190
H4 H 1.11010 0.36450 0.51830
N16 N 0.7584(5) 0.43174(12) 0.54901(17)
O5 O 0.9358(4) 0.43379(11) 0.11716(14)
O6 O 1.1939(4) 0.37954(13) 0.18187(15)
O7 O 0.9214(4) 0.41030(11) 0.59086(14)
O8 O 0.6012(5) 0.45296(13) 0.57371(16)
C5 C 0.9270(5) 0.41514(13) 0.24513(19)
C6 C 0.7195(5) 0.44298(13) 0.31720(18)
C7 C 0.7551(5) 0.43152(13) 0.46694(18)
C8 C 0.9242(5) 0.40264(13) 0.43608(18)
N17 N 0.9907(5) 0.20306(14) 0.83391(19)
N18 N 0.8351(5) 0.29704(12) 0.78774(16)
N19 N 0.6684(4) 0.24453(12) 0.87431(15)
N20 N 0.6583(4) 0.32641(12) 0.80300(16)
N21 N 0.3777(5) 0.31522(13) 0.87984(18)
N22 N 0.2976(5) 0.36562(12) 0.84804(17)
N23 N 0.6910(5) 0.40564(14) 0.72392(19)
H5 H 0.80960 0.38990 0.71420
H6 H 0.64510 0.43900 0.70270
N24 N 0.2609(5) 0.44739(13) 0.76366(19)
O9 O 0.9931(4) 0.16456(11) 0.88301(16)
O10 O 1.1155(5) 0.20589(14) 0.78686(19)
O11 O 0.3195(5) 0.47146(12) 0.70750(16)
O12 O 0.1048(4) 0.46353(12) 0.79257(19)
C9 C 0.8253(5) 0.24973(14) 0.83228(19)
C10 C 0.5574(5) 0.29472(14) 0.85497(19)
C11 C 0.3862(5) 0.39545(15) 0.7961(2)
C12 C 0.5813(5) 0.37908(15) 0.77049(19)
#END
