
#######################################################################
#
#                 Cambridge Crystallographic Data Centre
#                                CCDC
#
#######################################################################
#
# If this CIF has been generated from an entry in the Cambridge
# Structural Database, then it will include bibliographic, chemical,
# crystal, experimental, refinement or atomic coordinate data resulting
# from the CCDC's data processing and validation procedures.
#
#######################################################################

data_CSD_CIF_OVEKIL
_audit_creation_date 2016-09-16
_audit_creation_method CSD-ConQuest-V1
_database_code_CSD OVEKIL
_database_code_depnum_ccdc_archive 'CCDC 1479896'
_chemical_formula_sum 'C21 H21 N3 O3'
_chemical_formula_moiety
;
C21 H21 N3 O3
;
_journal_coden_Cambridge 1500
_journal_volume 6
_journal_year 2016
_journal_page_first 88904
_journal_name_full 'RSC Advances '
loop_
_publ_author_name
"N.Kausar"
"P.Mukherjee"
"A.R.Das"
_chemical_name_systematic
;
3,3-dimethyl-11-(4-nitrophenyl)-2,3,4,5,10,11-hexahydro-1H-dibenzo[b,e][1,4]di
azepin-1-one
;
_cell_volume   1818.946
_exptl_crystal_colour 'yellow'
_exptl_crystal_density_diffrn 1.327
_exptl_crystal_description 'Needle'
_diffrn_ambient_temperature 296
#These two values have been output from a single CSD field.
_refine_ls_R_factor_gt 0.0483
_refine_ls_wR_factor_gt 0.0483
_symmetry_cell_setting monoclinic
_symmetry_space_group_name_H-M 'P 21/c'
_symmetry_Int_Tables_number 14
loop_
_symmetry_equiv_pos_site_id
_symmetry_equiv_pos_as_xyz
1 x,y,z
2 -x,1/2+y,1/2-z
3 -x,-y,-z
4 x,-1/2-y,-1/2+z
_cell_length_a 11.6617(17)
_cell_length_b 11.7716(17)
_cell_length_c 13.3406(19)
_cell_angle_alpha 90
_cell_angle_beta 96.674(5)
_cell_angle_gamma 90
_cell_formula_units_Z 4
loop_
_atom_type_symbol
_atom_type_radius_bond
C 0.68
H 0.23
N 0.68
O 0.68
loop_
_atom_site_label
_atom_site_type_symbol
_atom_site_fract_x
_atom_site_fract_y
_atom_site_fract_z
N1 N 0.29769(14) 0.32298(15) 0.00348(12)
H1 H 0.32600 0.38810 -0.00950
N2 N 0.12319(14) 0.20069(15) -0.12062(12)
H2 H 0.08750 0.18080 -0.17800
O1 O 0.03585(13) 0.39020(14) 0.17707(10)
O2 O 0.34348(19) -0.1524(2) 0.32573(17)
C1 C 0.05819(16) 0.26273(17) -0.06319(13)
O3 O 0.48057(18) -0.0430(2) 0.39059(15)
C2 C 0.3786(2) 0.0271(2) -0.14888(17)
H3 H 0.39610 -0.03880 -0.18250
C3 C 0.4652(2) 0.0888(3) -0.09377(17)
H4 H 0.54170 0.06560 -0.09190
C4 C 0.43848(18) 0.1840(2) -0.04197(16)
H5 H 0.49710 0.22310 -0.00310
C5 C 0.32533(16) 0.22346(19) -0.04627(14)
C6 C 0.21625(15) 0.30833(17) 0.07997(13)
C7 C 0.25450(15) 0.21098(17) 0.15063(13)
C8 C 0.18808(18) 0.11658(19) 0.16362(15)
H6 H 0.11330 0.11270 0.13090
C9 C 0.23104(19) 0.0269(2) 0.22493(16)
H7 H 0.18620 -0.03710 0.23290
C10 C 0.34127(18) 0.03520(19) 0.27322(14)
N3 N 0.39114(19) -0.0598(2) 0.33449(15)
C11 C 0.23852(16) 0.16253(18) -0.10418(14)
C12 C -0.06236(17) 0.2841(2) -0.11413(15)
H8 H -0.08300 0.22330 -0.16190
H9 H -0.06230 0.35440 -0.15200
C13 C -0.15429(16) 0.29196(19) -0.04205(15)
C14 C -0.1738(2) 0.1771(2) 0.0057(2)
H10 H -0.19560 0.12240 -0.04640
H11 H -0.23420 0.18370 0.04850
H12 H -0.10390 0.15300 0.04500
C15 C -0.26770(19) 0.3336(3) -0.0995(2)
H13 H -0.25490 0.40460 -0.13180
H14 H -0.32400 0.34380 -0.05310
H15 H -0.29540 0.27850 -0.14960
C16 C -0.11209(17) 0.37765(19) 0.03943(16)
H16 H -0.11660 0.45310 0.00990
H17 H -0.16370 0.37580 0.09140
C17 C 0.00992(17) 0.35814(17) 0.08844(14)
C18 C 0.09288(15) 0.30598(16) 0.03175(13)
C19 C 0.40834(17) 0.1295(2) 0.26495(15)
H18 H 0.48180 0.13460 0.30020
C20 C 0.36477(17) 0.21603(19) 0.20362(15)
H19 H 0.41000 0.28010 0.19700
C21 C 0.2658(2) 0.0646(2) -0.15338(15)
H20 H 0.20730 0.02320 -0.19010
H21 H 0.2257(17) 0.3770(18) 0.1224(15)
#END
