
#######################################################################
#
#                 Cambridge Crystallographic Data Centre
#                                CCDC
#
#######################################################################
#
# If this CIF has been generated from an entry in the Cambridge
# Structural Database, then it will include bibliographic, chemical,
# crystal, experimental, refinement or atomic coordinate data resulting
# from the CCDC's data processing and validation procedures.
#
#######################################################################

data_CSD_CIF_OVEQAJ
_audit_creation_date 2016-09-16
_audit_creation_method CSD-ConQuest-V1
_database_code_CSD OVEQAJ
_database_code_depnum_ccdc_archive 'CCDC 1491932'
_chemical_formula_sum 'C24 H12 N4 O8'
_chemical_formula_moiety
;
C24 H12 N4 O8
;
_journal_coden_Cambridge 1540
_journal_volume 6
_journal_year 2016
_journal_page_first 33131
_journal_name_full 'Scientific Reports '
loop_
_publ_author_name
"Chendan Zhu"
"Yue Zhao"
"Di Wang"
"Wei-Yin Sun"
"Zhuangzhi Shi"
_chemical_name_systematic
;
2,7,10,15-tetranitrotetraphenylene unknown solvate
;
_cell_volume   1270.898
_exptl_crystal_colour 'colorless'
_exptl_crystal_density_diffrn 1.266
_exptl_crystal_description 'BLOCK'
_diffrn_ambient_temperature 296
_refine_special_details
;
The SQUEEZE/PLATON program has been used to model some disorder.

;
#These two values have been output from a single CSD field.
_refine_ls_R_factor_gt 0.0591
_refine_ls_wR_factor_gt 0.0591
_symmetry_cell_setting triclinic
_symmetry_space_group_name_H-M 'P -1'
_symmetry_Int_Tables_number 2
loop_
_symmetry_equiv_pos_site_id
_symmetry_equiv_pos_as_xyz
1 x,y,z
2 -x,-y,-z
_cell_length_a 8.9226(9)
_cell_length_b 10.2313(11)
_cell_length_c 14.4881(15)
_cell_angle_alpha 91.213(2)
_cell_angle_beta 92.368(2)
_cell_angle_gamma 105.790(2)
_cell_formula_units_Z 2
loop_
_atom_type_symbol
_atom_type_radius_bond
C 0.68
H 0.23
N 0.68
O 0.68
loop_
_atom_site_label
_atom_site_type_symbol
_atom_site_fract_x
_atom_site_fract_y
_atom_site_fract_z
C1 C 0.5383(3) 0.9036(3) 0.16439(18)
H1 H 0.57510 0.98650 0.19670
C2 C 0.5752(3) 0.8939(3) 0.07392(19)
H2 H 0.63610 0.96860 0.04470
C3 C 0.5189(3) 0.7697(3) 0.02773(17)
C4 C 0.4281(3) 0.6575(3) 0.06907(17)
H3 H 0.39150 0.57540 0.03590
C5 C 0.3912(3) 0.6679(2) 0.16102(16)
C6 C 0.4473(3) 0.7929(2) 0.20893(16)
C7 C 0.4022(3) 0.8155(2) 0.30424(17)
C8 C 0.3210(3) 0.9133(3) 0.3194(2)
H4 H 0.29480 0.95960 0.26940
C9 C 0.2793(3) 0.9423(3) 0.4065(2)
H5 H 0.22260 1.00520 0.41550
C10 C 0.3235(3) 0.8760(2) 0.47934(18)
C11 C 0.4056(3) 0.7818(2) 0.46851(17)
H6 H 0.43500 0.74000 0.51990
C12 C 0.4453(3) 0.7485(2) 0.38082(16)
C13 C 0.5415(3) 0.6515(2) 0.37074(16)
C14 C 0.6903(3) 0.6847(2) 0.41291(17)
H7 H 0.72740 0.76570 0.44730
C15 C 0.7825(3) 0.5979(3) 0.40384(17)
C16 C 0.7313(3) 0.4746(3) 0.35645(19)
H8 H 0.79540 0.41700 0.35130
C17 C 0.5822(3) 0.4392(2) 0.31706(17)
H9 H 0.54430 0.35520 0.28640
C18 C 0.4862(3) 0.5265(2) 0.32196(16)
C19 C 0.3271(3) 0.4812(2) 0.27739(16)
C20 C 0.2224(3) 0.3640(3) 0.30799(18)
H10 H 0.25090 0.32130 0.35920
C21 C 0.0777(3) 0.3101(3) 0.2641(2)
H11 H 0.00740 0.23390 0.28620
C22 C 0.0408(3) 0.3727(3) 0.18693(19)
C23 C 0.1399(3) 0.4895(3) 0.15491(18)
H12 H 0.11090 0.52970 0.10260
C24 C 0.2831(3) 0.5466(2) 0.20113(16)
N1 N 0.5569(3) 0.7543(3) -0.06901(17)
N2 N -0.1101(3) 0.3147(3) 0.1369(2)
N3 N 0.9430(3) 0.6393(2) 0.44479(17)
N4 N 0.2821(3) 0.9064(2) 0.57365(18)
O1 O 0.6203(4) 0.8562(3) -0.10947(17)
O2 O 0.5199(4) 0.6417(3) -0.10500(16)
O3 O -0.1384(3) 0.3666(3) 0.0661(2)
O4 O -0.1975(4) 0.2153(4) 0.1640(2)
O5 O 1.0369(3) 0.5855(3) 0.4145(2)
O6 O 0.9738(2) 0.7263(3) 0.50560(16)
O7 O 0.3263(3) 0.8505(3) 0.63806(16)
O8 O 0.2045(3) 0.9864(2) 0.58212(19)
#END
