
#######################################################################
#
#                 Cambridge Crystallographic Data Centre
#                                CCDC
#
#######################################################################
#
# If this CIF has been generated from an entry in the Cambridge
# Structural Database, then it will include bibliographic, chemical,
# crystal, experimental, refinement or atomic coordinate data resulting
# from the CCDC's data processing and validation procedures.
#
#######################################################################

data_CSD_CIF_OVIJEJ
_audit_creation_date 2011-09-15
_audit_creation_method CSD-ConQuest-V1
_database_code_CSD OVIJEJ
_database_code_depnum_ccdc_archive 'CCDC 773494'
_chemical_formula_sum 'C38 H53 N1 O7'
_chemical_formula_moiety
;
C38 H53 N1 O7
;
_journal_coden_Cambridge 119
_journal_volume 1000
_journal_year 2011
_journal_page_first 120
_journal_name_full 'J.Mol.Struct. '
loop_
_publ_author_name
"S.K.Seth"
"G.C.Maity"
"T.Kar"
_chemical_name_systematic
;
Methyl 
16-hydroxy-4a,6a,6b,11,11,14b-hexamethyl-2-(4-nitrophenyl)-4a,5,6,6a,6b,7,8,9,
10,11,12,12a,14,14a,14b,15,16,16a-octadecahydro-4H-piceno[3,4-d][1,3]dioxine-8
a(4bH)-carboxylate
;
_cell_volume   3346.123
_exptl_crystal_colour 'colorless'
_exptl_crystal_density_diffrn 1.262
_exptl_crystal_description 'block'
_diffrn_ambient_temperature 150
#These two values have been output from a single CSD field.
_refine_ls_R_factor_gt 0.0338
_refine_ls_wR_factor_gt 0.0338
_symmetry_cell_setting orthorhombic
_symmetry_space_group_name_H-M 'P 21 21 21'
_symmetry_Int_Tables_number 19
loop_
_symmetry_equiv_pos_site_id
_symmetry_equiv_pos_as_xyz
1 x,y,z
2 1/2-x,-y,1/2+z
3 -x,1/2+y,1/2-z
4 1/2+x,1/2-y,-z
_cell_length_a 9.5259(7)
_cell_length_b 17.5146(13)
_cell_length_c 20.0556(15)
_cell_angle_alpha 90
_cell_angle_beta 90
_cell_angle_gamma 90
_cell_formula_units_Z 4
loop_
_atom_type_symbol
_atom_type_radius_bond
C 0.68
H 0.23
N 0.68
O 0.68
loop_
_atom_site_label
_atom_site_type_symbol
_atom_site_fract_x
_atom_site_fract_y
_atom_site_fract_z
O1 O 0.9839(2) 0.81282(11) 0.82071(9)
N1 N 0.9306(2) 0.80229(13) 0.76600(11)
O2 O 0.9109(2) 0.85334(11) 0.72465(12)
C1 C 0.77646(19) 0.63742(11) 0.67399(10)
H1 H 0.72440 0.62840 0.63560
C2 C 0.8140(2) 0.71156(12) 0.69033(11)
H2 H 0.78830 0.75240 0.66330
C3 C 0.8909(2) 0.72321(12) 0.74796(10)
C4 C 0.9318(2) 0.66434(13) 0.78853(10)
H3 H 0.98420 0.67380 0.82680
C5 C 0.8937(2) 0.59017(12) 0.77141(10)
H4 H 0.92070 0.54950 0.79830
C6 C 0.81514(18) 0.57685(11) 0.71390(9)
C7 C 0.77832(19) 0.49540(11) 0.69561(8)
H5 H 0.86390 0.46880 0.68160
O3 O 0.68183(12) 0.49563(7) 0.64214(6)
O4 O 0.72207(13) 0.45801(7) 0.75180(6)
C8 C 0.69114(19) 0.37904(10) 0.73754(9)
H6 H 0.65070 0.35530 0.77680
H7 H 0.77760 0.35240 0.72690
C9 C 0.58826(17) 0.3715(1) 0.67877(8)
C10 C 0.65615(18) 0.41787(9) 0.62213(8)
H8 H 0.74740 0.39450 0.61250
C11 C 0.57171(18) 0.41652(9) 0.55841(8)
H9 H 0.47600 0.43450 0.56710
O5 O 0.63458(15) 0.46157(7) 0.50727(6)
H10 H 0.67230 0.49900 0.52400
C12 C 0.56828(17) 0.33427(9) 0.53372(8)
H11 H 0.66280 0.31930 0.52140
H12 H 0.51090 0.33200 0.49380
C13 C 0.51073(16) 0.27584(9) 0.58471(8)
C14 C 0.58484(17) 0.28781(9) 0.65335(7)
H13 H 0.68340 0.27500 0.64500
C15 C 0.5347(2) 0.22724(10) 0.70351(8)
H14 H 0.57430 0.23790 0.74710
H15 H 0.43320 0.22920 0.70720
C16 C 0.5801(2) 0.14753(10) 0.68057(8)
H16 H 0.54310 0.11020 0.71160
H17 H 0.68170 0.14460 0.68240
C17 C 0.53159(18) 0.12587(9) 0.60921(8)
C18 C 0.55725(17) 0.19413(9) 0.56047(7)
H18 H 0.65950 0.19730 0.55570
C19 C 0.50277(17) 0.17478(9) 0.49028(8)
H19 H 0.40290 0.18530 0.48840
H20 H 0.54870 0.20780 0.45820
C20 C 0.52733(17) 0.09339(9) 0.47079(8)
H21 H 0.50650 0.08020 0.42700
C21 C 0.57595(17) 0.03821(9) 0.50982(8)
C22 C 0.61888(17) 0.05429(9) 0.58234(8)
C23 C 0.59199(19) -0.01642(9) 0.62765(8)
H22 H 0.64920 -0.01150 0.66740
H23 H 0.49450 -0.01580 0.64160
C24 C 0.6230(2) -0.09372(9) 0.59568(8)
H24 H 0.59350 -0.13380 0.62600
H25 H 0.72350 -0.09860 0.58940
C25 C 0.54985(19) -0.10543(9) 0.52834(8)
C26 C 0.59605(18) -0.04133(9) 0.47942(8)
H26 H 0.53210 -0.04420 0.44120
C27 C 0.7449(2) -0.05301(10) 0.45131(9)
H27 H 0.76230 -0.01420 0.41780
H28 H 0.81210 -0.04530 0.48700
C28 C 0.7716(2) -0.13161(10) 0.42011(9)
C29 C 0.7354(2) -0.19214(10) 0.47285(10)
H29 H 0.74870 -0.24250 0.45380
H30 H 0.79950 -0.18710 0.51020
C30 C 0.5844(2) -0.18526(10) 0.49842(10)
H31 H 0.56880 -0.22390 0.53230
H32 H 0.52030 -0.19550 0.46190
C31 C 0.38887(19) -0.10254(9) 0.53221(8)
O6 O 0.31483(13) -0.09289(8) 0.48419(6)
O7 O 0.33671(13) -0.11466(7) 0.59313(6)
C32 C 0.1846(2) -0.10774(12) 0.59856(10)
H33 H 0.14060 -0.14170 0.56740
H34 H 0.15720 -0.05620 0.58890
H35 H 0.15580 -0.12080 0.64300
C33 C 0.9275(2) -0.13755(12) 0.40128(11)
H36 H 0.98400 -0.13090 0.44050
H37 H 0.95010 -0.09860 0.36940
H38 H 0.94570 -0.18690 0.38230
C34 C 0.6865(2) -0.14142(12) 0.35625(10)
H39 H 0.71460 -0.10350 0.32440
H40 H 0.58850 -0.13560 0.36600
H41 H 0.70310 -0.19130 0.33810
C35 C 0.77976(18) 0.06936(10) 0.58299(9)
H42 H 0.80190 0.10890 0.55160
H43 H 0.82860 0.02340 0.57090
H44 H 0.80810 0.08500 0.62680
C36 C 0.37373(19) 0.10564(10) 0.61205(9)
H45 H 0.32090 0.15010 0.62460
H46 H 0.35890 0.06600 0.64430
H47 H 0.34330 0.08830 0.56900
C37 C 0.34956(17) 0.28716(10) 0.58744(9)
H48 H 0.30590 0.25690 0.55330
H49 H 0.32770 0.34010 0.58040
H50 H 0.31520 0.27150 0.63030
C38 C 0.44651(19) 0.40454(11) 0.70161(9)
H51 H 0.46000 0.45560 0.71790
H52 H 0.40860 0.37330 0.73660
H53 H 0.38250 0.40540 0.66470
#END
