
#######################################################################
#
#                 Cambridge Crystallographic Data Centre
#                                CCDC
#
#######################################################################
#
# If this CIF has been generated from an entry in the Cambridge
# Structural Database, then it will include bibliographic, chemical,
# crystal, experimental, refinement or atomic coordinate data resulting
# from the CCDC's data processing and validation procedures.
#
#######################################################################

data_CSD_CIF_OVIVEW
_audit_creation_date 2016-09-19
_audit_creation_method CSD-ConQuest-V1
_database_code_CSD OVIVEW
_database_code_depnum_ccdc_archive 'CCDC 1489805'
_chemical_formula_sum 'C21 H21 N1 O5'
_chemical_formula_moiety
;
C21 H21 N1 O5
;
_journal_coden_Cambridge 35
_journal_volume 81
_journal_year 2016
_journal_page_first 8444
_journal_name_full 'J.Org.Chem. '
loop_
_publ_author_name
"R.Dorel"
"A.M.Echavarren"
_chemical_name_systematic
;
(1R*,1aR*,3R*,5aR*)-1-Methoxymethyl-1,1a,2,2a,5a,7ahexahydro-3H-1,3-methanocyc
lopropa[f ]azulen-3-yl 4-nitrobenzoate
;
_chemical_name_common
;
1-(methoxymethyl)tetracyclo[6.3.1.0$2,11!.0$5,9!]dodeca-3,6-dien-8-yl 
4-nitrobenzoate
;
_chemical_melting_point 409.15
_cell_volume   1756.489
_exptl_crystal_colour 'yellow'
_exptl_crystal_density_diffrn 1.389
_exptl_special_details
;
Melting point range 409.15-411.15K

;
_exptl_crystal_description 'Block'
_diffrn_ambient_temperature 100
#These two values have been output from a single CSD field.
_refine_ls_R_factor_gt 0.0324
_refine_ls_wR_factor_gt 0.0324
_symmetry_cell_setting orthorhombic
_symmetry_space_group_name_H-M 'P n a 21'
_symmetry_Int_Tables_number 33
loop_
_symmetry_equiv_pos_site_id
_symmetry_equiv_pos_as_xyz
1 x,y,z
2 -x,-y,1/2+z
3 1/2+x,1/2-y,z
4 1/2-x,1/2+y,1/2+z
_cell_length_a 16.3707(4)
_cell_length_b 9.4790(2)
_cell_length_c 11.3192(3)
_cell_angle_alpha 90
_cell_angle_beta 90
_cell_angle_gamma 90
_cell_formula_units_Z 4
loop_
_atom_type_symbol
_atom_type_radius_bond
C 0.68
H 0.23
N 0.68
O 0.68
loop_
_atom_site_label
_atom_site_type_symbol
_atom_site_fract_x
_atom_site_fract_y
_atom_site_fract_z
C1 C 0.24041(6) 0.18264(11) 0.41262(10)
C2 C 0.14869(6) 0.20112(12) 0.40032(11)
H1 H 0.11840 0.18140 0.33280
C3 C 0.11845(7) 0.25034(13) 0.50213(12)
H2 H 0.06310 0.26400 0.51660
C4 C 0.18578(7) 0.28123(11) 0.59159(11)
H3 H 0.17610 0.37380 0.62750
C5 C 0.18710(7) 0.16990(12) 0.68714(11)
H4 H 0.14180 0.17120 0.73670
C6 C 0.24197(7) 0.06955(12) 0.71316(10)
H5 H 0.22710 0.01310 0.77680
C7 C 0.32179(6) 0.03114(11) 0.66008(10)
H6 H 0.35400 -0.03330 0.70920
C8 C 0.33416(6) 0.00805(11) 0.52651(10)
C9 C 0.26091(6) 0.02891(10) 0.44598(10)
H7 H 0.21340 -0.01200 0.48410
H8 H 0.27040 -0.02360 0.37370
C10 C 0.26044(6) 0.29036(11) 0.50926(10)
H9 H 0.25760 0.38320 0.47150
C11 C 0.34545(6) 0.28020(11) 0.56349(11)
H10 H 0.38420 0.32470 0.51040
H11 H 0.34590 0.33280 0.63700
C12 C 0.37356(6) 0.13183(11) 0.58796(10)
H12 H 0.43250 0.12220 0.60040
C13 C 0.38743(7) -0.11717(12) 0.49580(12)
H13 H 0.43370 -0.11930 0.54940
H14 H 0.35630 -0.20300 0.50800
C14 C 0.27612(6) 0.17450(11) 0.20378(10)
C15 C 0.33717(6) 0.22868(11) 0.11626(10)
C16 C 0.40038(7) 0.31983(11) 0.15037(10)
H15 H 0.40660 0.34480 0.22930
C17 C 0.45375(7) 0.37279(12) 0.06560(11)
H16 H 0.49620 0.43290 0.08680
C18 C 0.44222(6) 0.33388(11) -0.05119(10)
C19 C 0.38037(7) 0.24299(11) -0.08781(10)
H17 H 0.37440 0.21850 -0.16690
C20 C 0.32772(7) 0.19004(11) -0.00201(10)
H18 H 0.28600 0.12860 -0.02360
C21 C 0.46933(8) 0.00062(14) 0.35331(14)
H19 H 0.43930 0.08700 0.36240
H20 H 0.48950 -0.00630 0.27390
H21 H 0.51450 -0.00030 0.40750
N1 N 0.49583(6) 0.39563(11) -0.14182(9)
O1 O 0.29032(5) 0.22688(8) 0.31149(8)
O2 O 0.22112(5) 0.09466(9) 0.17835(8)
O3 O 0.41713(5) -0.11562(9) 0.37738(9)
O4 O 0.48051(6) 0.37136(11) -0.24582(8)
O5 O 0.55285(6) 0.47005(11) -0.1081(1)
#END
