
#######################################################################
#
#                 Cambridge Crystallographic Data Centre
#                                CCDC
#
#######################################################################
#
# If this CIF has been generated from an entry in the Cambridge
# Structural Database, then it will include bibliographic, chemical,
# crystal, experimental, refinement or atomic coordinate data resulting
# from the CCDC's data processing and validation procedures.
#
#######################################################################

data_CSD_CIF_OVUVUY
_audit_creation_date 2016-09-19
_audit_creation_method CSD-ConQuest-V1
_database_code_CSD OVUVUY
_database_code_depnum_ccdc_archive 'CCDC 1496251'
_chemical_formula_sum 'C25 H23 N1 O4'
_chemical_formula_moiety
;
C25 H23 N1 O4
;
_journal_coden_Cambridge 1336
_journal_volume 18
_journal_year 2016
_journal_page_first 4730
_journal_name_full 'Org.Lett. '
loop_
_publ_author_name
"Cuili Chen"
"Yongzhen Zou"
"Xianxiao Chen"
"Xiaoxiang Zhang"
"Weidong Rao"
"Philip Wai Hong Chan"
_chemical_name_systematic
;
5a-methyl-4a-phenyl-1,2,4a,4b,5a,6-hexahydrocyclopropa[3',4']cyclopenta[1',2':
2,3]cyclopropa[1,2]benzen-4c(5H)-yl 4-nitrobenzoate
;
_cell_volume   4140.872
_exptl_crystal_colour 'colorless'
_exptl_crystal_density_diffrn 1.288
_exptl_crystal_description 'block'
_diffrn_ambient_temperature 376
#These two values have been output from a single CSD field.
_refine_ls_R_factor_gt 0.0451
_refine_ls_wR_factor_gt 0.0451
_symmetry_cell_setting monoclinic
_symmetry_space_group_name_H-M 'P 21/c'
_symmetry_Int_Tables_number 14
loop_
_symmetry_equiv_pos_site_id
_symmetry_equiv_pos_as_xyz
1 x,y,z
2 -x,1/2+y,1/2-z
3 -x,-y,-z
4 x,-1/2-y,-1/2+z
_cell_length_a 8.1296(3)
_cell_length_b 15.4679(6)
_cell_length_c 33.0511(14)
_cell_angle_alpha 90
_cell_angle_beta 94.9069(19)
_cell_angle_gamma 90
_cell_formula_units_Z 8
loop_
_atom_type_symbol
_atom_type_radius_bond
C 0.68
H 0.23
N 0.68
O 0.68
loop_
_atom_site_label
_atom_site_type_symbol
_atom_site_fract_x
_atom_site_fract_y
_atom_site_fract_z
C1 C 0.57381(19) 0.39372(11) 0.17579(5)
H1 H 0.55790 0.41580 0.14790
C2 C 0.74659(19) 0.36320(11) 0.19210(5)
C3 C 0.8758(2) 0.37536(12) 0.16318(5)
H2 H 0.93440 0.32690 0.15600
C4 C 0.9126(2) 0.45065(12) 0.14709(5)
H3 H 0.99500 0.45240 0.12920
C5 C 0.8267(2) 0.53310(12) 0.15649(5)
H4 H 0.73560 0.54290 0.13610
H5 H 0.90320 0.58100 0.15530
C6 C 0.7611(2) 0.53050(11) 0.19848(5)
H6 H 0.85240 0.53960 0.21890
H7 H 0.68380 0.57780 0.20050
C7 C 0.6762(2) 0.44697(11) 0.20762(5)
C8 C 0.5963(2) 0.44164(12) 0.24793(5)
H8 H 0.67110 0.41460 0.26860
H9 H 0.56890 0.49900 0.25710
C9 C 0.4406(2) 0.38746(11) 0.23974(5)
C10 C 0.4272(2) 0.36256(11) 0.19564(5)
C11 C 0.3108(2) 0.42851(12) 0.20979(5)
H10 H 0.19670 0.41160 0.21130
H11 H 0.32690 0.48830 0.20210
C12 C 0.3892(2) 0.32732(13) 0.27192(6)
H12 H 0.47830 0.28860 0.27990
H13 H 0.29460 0.29460 0.26140
H14 H 0.36160 0.36020 0.29500
C13 C 0.7760(2) 0.28641(11) 0.21961(5)
C14 C 0.8833(2) 0.29457(12) 0.25475(6)
H15 H 0.93190 0.34780 0.26120
C15 C 0.9181(2) 0.22474(13) 0.28014(6)
H16 H 0.98950 0.23120 0.30350
C16 C 0.8468(2) 0.14509(13) 0.27082(6)
H17 H 0.86730 0.09850 0.28830
C17 C 0.7445(2) 0.13518(12) 0.23527(6)
H18 H 0.69910 0.08130 0.22850
C18 C 0.7096(2) 0.20517(11) 0.20974(6)
H19 H 0.64150 0.19790 0.18590
C19 C 0.25837(19) 0.27335(11) 0.15139(5)
C20 C 0.16860(19) 0.18886(11) 0.14884(5)
C21 C 0.0762(2) 0.16840(11) 0.11256(5)
H20 H 0.07510 0.20600 0.09060
C22 C -0.0136(2) 0.09256(11) 0.10918(5)
H21 H -0.07420 0.07800 0.08500
C23 C -0.0110(2) 0.03889(11) 0.14253(5)
C24 C 0.0793(2) 0.05726(12) 0.17896(5)
H22 H 0.07890 0.01960 0.20090
C25 C 0.1700(2) 0.13289(12) 0.18200(5)
H23 H 0.23190 0.14650 0.20610
N1 N -0.10441(18) -0.04262(10) 0.13886(5)
O1 O 0.35920(13) 0.27887(7) 0.18588(4)
O2 O 0.24062(14) 0.32940(8) 0.12617(4)
O3 O -0.08805(17) -0.09433(9) 0.16709(4)
O4 O -0.19302(15) -0.05551(8) 0.10758(4)
C26 C 0.71417(19) 0.73727(11) -0.01394(5)
H24 H 0.71050 0.77980 -0.03600
C27 C 0.5576(2) 0.72377(11) 0.00842(5)
C28 C 0.4175(2) 0.77861(12) -0.00881(6)
H25 H 0.37110 0.81730 0.00850
C29 C 0.3548(2) 0.77591(12) -0.04716(6)
H26 H 0.26900 0.81340 -0.05530
C30 C 0.4155(2) 0.71526(13) -0.07800(6)
H27 H 0.49270 0.74560 -0.09380
H28 H 0.32300 0.69690 -0.09650
C31 C 0.5000(2) 0.63596(12) -0.05844(5)
H29 H 0.41590 0.59530 -0.05160
H30 H 0.56450 0.60830 -0.07810
C32 C 0.6121(2) 0.65502(11) -0.02050(5)
C33 C 0.7123(2) 0.58002(11) -0.00108(5)
H31 H 0.65640 0.55550 0.02100
H32 H 0.72570 0.53510 -0.02100
C34 C 0.8799(2) 0.61603(11) 0.01479(5)
C35 C 0.8783(2) 0.71124(11) 0.00561(5)
C36 C 0.9808(2) 0.65276(11) -0.01807(5)
H33 H 1.09980 0.65530 -0.01240
H34 H 0.94280 0.64120 -0.04620
C37 C 0.9651(2) 0.57994(12) 0.05302(6)
H35 H 1.06410 0.61220 0.06020
H36 H 0.99270 0.52040 0.04880
H37 H 0.89310 0.58400 0.07450
C38 C 0.5523(2) 0.70657(11) 0.05278(5)
C39 C 0.6393(2) 0.75501(12) 0.08296(5)
H38 H 0.71570 0.79580 0.07580
C40 C 0.6136(2) 0.74323(12) 0.12351(6)
H39 H 0.67310 0.77610 0.14330
C41 C 0.5004(2) 0.68307(13) 0.13486(6)
H40 H 0.48210 0.67620 0.16210
C42 C 0.4143(2) 0.63307(13) 0.10525(6)
H41 H 0.33950 0.59160 0.11260
C43 C 0.4401(2) 0.64518(12) 0.06480(6)
H42 H 0.38150 0.61170 0.04510
C44 C 1.02749(19) 0.83980(11) 0.01998(5)
C45 C 1.13952(19) 0.88674(11) 0.05085(5)
C46 C 1.2094(2) 0.96369(11) 0.03849(5)
H43 H 1.18020 0.98510 0.01260
C47 C 1.3220(2) 1.00845(11) 0.06450(5)
H44 H 1.36920 1.05970 0.05650
C48 C 1.3619(2) 0.97444(11) 0.10275(5)
C49 C 1.2947(2) 0.89862(11) 0.11592(5)
H45 H 1.32410 0.87760 0.14190
C50 C 1.1825(2) 0.85453(11) 0.08957(5)
H46 H 1.13580 0.80330 0.09780
N2 N 1.48016(18) 1.02243(10) 0.13067(5)
O5 O 0.96648(13) 0.76656(7) 0.03501(3)
O6 O 0.99828(15) 0.86370(8) -0.01457(4)
O7 O 1.52031(16) 0.99074(9) 0.16403(4)
O8 O 1.53200(17) 1.09198(9) 0.11935(4)
#END
