
#######################################################################
#
#                 Cambridge Crystallographic Data Centre
#                                CCDC
#
#######################################################################
#
# If this CIF has been generated from an entry in the Cambridge
# Structural Database, then it will include bibliographic, chemical,
# crystal, experimental, refinement or atomic coordinate data resulting
# from the CCDC's data processing and validation procedures.
#
#######################################################################

data_CSD_CIF_OVUZEL
_audit_creation_date 2011-09-15
_audit_creation_method CSD-ConQuest-V1
_database_code_CSD OVUZEL
_database_code_depnum_ccdc_archive 'CCDC 781885'
_chemical_formula_sum 'C16 H17 N3 O5'
_chemical_formula_moiety
;
C16 H17 N3 O5
;
_journal_coden_Cambridge 1147
_journal_volume 11
_journal_year 2011
_journal_page_first 3049
_journal_name_full 'Cryst.Growth Des. '
loop_
_publ_author_name
"Eun-Young Choi"
"Pil-Joo Kim"
"M.Jazbinsek"
"Jong-Taek Kim"
"Yoon Sup Lee"
"P.Gunter"
"S.W.Lee"
"O-Pil Kwon"
_chemical_name_systematic
;
1-(4-Nitrophenyl)-2-(3,4,5-trimethoxybenzylidene)hydrazine
;
_cell_volume    774.899
_exptl_crystal_colour 'red'
_exptl_crystal_density_diffrn 1.42
_exptl_crystal_description 'block'
_diffrn_ambient_temperature 296
#These two values have been output from a single CSD field.
_refine_ls_R_factor_gt 0.067
_refine_ls_wR_factor_gt 0.067
_symmetry_cell_setting monoclinic
_symmetry_space_group_name_H-M 'P n'
_symmetry_Int_Tables_number 7
loop_
_symmetry_equiv_pos_site_id
_symmetry_equiv_pos_as_xyz
1 x,y,z
2 1/2+x,-y,1/2+z
_cell_length_a 4.0325(7)
_cell_length_b 12.6155(17)
_cell_length_c 15.365(2)
_cell_angle_alpha 90
_cell_angle_beta 97.535(9)
_cell_angle_gamma 90
_cell_formula_units_Z 2
loop_
_atom_type_symbol
_atom_type_radius_bond
C 0.68
H 0.23
N 0.68
O 0.68
loop_
_atom_site_label
_atom_site_type_symbol
_atom_site_fract_x
_atom_site_fract_y
_atom_site_fract_z
O1 O 0.3746(12) 0.3218(3) -0.4257(2)
O2 O 0.1061(11) 0.4697(3) -0.4392(2)
O3 O -0.1614(8) 0.1583(2) 0.37006(17)
O4 O 0.0172(8) -0.0375(2) 0.32298(19)
O5 O 0.2476(8) -0.07304(19) 0.17302(18)
N1 N 0.2218(10) 0.3930(3) -0.3950(2)
N2 N 0.0152(9) 0.3778(2) -0.0445(2)
N3 N 0.0849(8) 0.2895(2) 0.00672(18)
C1 C 0.1692(9) 0.3879(3) -0.3039(2)
C2 C 0.016(1) 0.4723(3) -0.2673(2)
C3 C -0.0313(10) 0.4684(3) -0.1802(3)
C4 C 0.0726(9) 0.3792(2) -0.1299(2)
C5 C 0.2289(9) 0.2947(2) -0.1675(2)
C6 C 0.2761(10) 0.2994(3) -0.2546(2)
C7 C 0.0029(10) 0.2973(3) 0.0844(2)
C8 C 0.0342(9) 0.2101(2) 0.1464(2)
C9 C -0.0695(9) 0.2290(2) 0.2284(2)
C10 C -0.0644(9) 0.1474(3) 0.2887(2)
C11 C 0.0397(9) 0.0463(3) 0.2675(2)
C12 C 0.1479(8) 0.0290(2) 0.1865(2)
C13 C 0.1467(9) 0.1096(2) 0.1257(2)
C14 C -0.2779(13) 0.2590(3) 0.3929(3)
C15 C 0.2606(13) -0.0435(4) 0.3972(3)
C16 C 0.3699(14) -0.0939(4) 0.0921(3)
H1 H 0.406(12) 0.240(4) -0.281(3)
H2 H 0.209(11) 0.100(3) 0.069(3)
H3 H -0.162(16) 0.518(5) -0.153(4)
H4 H -0.169(14) 0.304(4) 0.245(4)
H5 H 0.305(11) 0.229(3) -0.132(3)
H6 H -0.142(13) 0.362(4) 0.104(3)
H7 H -0.067(12) 0.532(4) -0.304(3)
H8 H -0.089(12) 0.426(4) -0.023(3)
H9 H -0.448(12) 0.284(4) 0.353(3)
H10 H -0.087(14) 0.315(4) 0.393(3)
H11 H 0.189(13) -0.080(4) 0.053(3)
H12 H 0.584(16) -0.061(4) 0.089(3)
H13 H 0.398(17) -0.168(5) 0.093(4)
H14 H -0.366(13) 0.255(4) 0.444(3)
H15 H 0.49(2) -0.047(5) 0.373(4)
H16 H 0.218(19) -0.102(6) 0.425(5)
H17 H 0.38(2) 0.020(6) 0.423(6)
#END
