
#######################################################################
#
#                 Cambridge Crystallographic Data Centre
#                                CCDC
#
#######################################################################
#
# If this CIF has been generated from an entry in the Cambridge
# Structural Database, then it will include bibliographic, chemical,
# crystal, experimental, refinement or atomic coordinate data resulting
# from the CCDC's data processing and validation procedures.
#
#######################################################################

data_CSD_CIF_OWACIZ
_audit_creation_date 2011-09-15
_audit_creation_method CSD-ConQuest-V1
_database_code_CSD OWACIZ
_database_code_depnum_ccdc_archive 'CCDC 800800'
_chemical_formula_sum 'C20 H16 N2 O5'
_chemical_formula_moiety
;
C20 H16 N2 O5
;
_journal_coden_Cambridge 1003
_journal_volume 41
_journal_year 2011
_journal_page_first 1305
_journal_name_full 'J.Chem.Cryst. '
loop_
_publ_author_name
"A.Amoozadeh"
"S.Rahmani"
"G.Dutkiewicz"
"M.Salehi"
"F.Nemati"
"M.Kubicki"
_chemical_name_systematic
;
2,6-bis(2-nitrobenzylidene)cyclohexanone
;
_cell_volume   1749.958
_exptl_crystal_colour 'colorless'
_exptl_crystal_density_diffrn 1.383
_exptl_crystal_description 'plate'
_diffrn_ambient_temperature 295
#These two values have been output from a single CSD field.
_refine_ls_R_factor_gt 0.044
_refine_ls_wR_factor_gt 0.044
_symmetry_cell_setting monoclinic
_symmetry_space_group_name_H-M 'P 21/n'
_symmetry_Int_Tables_number 14
loop_
_symmetry_equiv_pos_site_id
_symmetry_equiv_pos_as_xyz
1 x,y,z
2 1/2-x,1/2+y,1/2-z
3 -x,-y,-z
4 -1/2+x,-1/2-y,-1/2+z
_cell_length_a 8.482(2)
_cell_length_b 13.435(2)
_cell_length_c 15.377(3)
_cell_angle_alpha 90
_cell_angle_beta 92.96(2)
_cell_angle_gamma 90
_cell_formula_units_Z 4
loop_
_atom_type_symbol
_atom_type_radius_bond
C 0.68
H 0.23
N 0.68
O 0.68
loop_
_atom_site_label
_atom_site_type_symbol
_atom_site_fract_x
_atom_site_fract_y
_atom_site_fract_z
C1 C 0.3273(2) 0.05021(15) 0.47300(11)
O1 O 0.39961(17) 0.12546(10) 0.45371(8)
C2 C 0.2774(2) 0.03500(14) 0.56413(11)
C3 C 0.2156(3) -0.06508(13) 0.58893(12)
H1 H 0.14110 -0.05640 0.63410
H2 H 0.30260 -0.10500 0.61300
C4 C 0.1347(2) -0.12099(14) 0.51329(11)
H3 H 0.03760 -0.08700 0.49520
H4 H 0.10770 -0.18740 0.53220
C5 C 0.2399(2) -0.12829(14) 0.43642(12)
H5 H 0.33430 -0.16560 0.45340
H6 H 0.18440 -0.16370 0.38910
C6 C 0.2852(2) -0.02649(13) 0.40592(12)
C7 C 0.2843(2) 0.00350(13) 0.32302(12)
H7 H 0.30170 0.07120 0.31540
C8 C 0.2600(3) -0.05375(16) 0.24226(13)
C9 C 0.1885(3) -0.01607(17) 0.16625(13)
N1 N 0.1003(3) 0.07822(16) 0.16771(14)
O2 O 0.0446(2) 0.10445(12) 0.23492(10)
O3 O 0.0842(3) 0.12578(13) 0.10056(11)
C10 C 0.1899(3) -0.0645(2) 0.08714(14)
H8 H 0.14330 -0.03540 0.03730
C11 C 0.2613(4) -0.1563(2) 0.08300(17)
H9 H 0.26320 -0.18970 0.03010
C12 C 0.3289(3) -0.19799(17) 0.15637(18)
H10 H 0.37430 -0.26090 0.15370
C13 C 0.3309(3) -0.14734(17) 0.23529(14)
H11 H 0.38020 -0.17620 0.28450
C14 C 0.2876(2) 0.11409(15) 0.61607(12)
H12 H 0.32260 0.17290 0.59160
C15 C 0.2489(3) 0.11816(16) 0.70876(12)
C16 C 0.1564(3) 0.19178(17) 0.74497(14)
N2 N 0.0808(3) 0.26977(15) 0.69126(15)
O4 O 0.1097(3) 0.27837(13) 0.61686(13)
O5 O -0.0159(3) 0.32277(14) 0.72148(13)
C17 C 0.1307(3) 0.19515(19) 0.83328(17)
H13 H 0.06730 0.24450 0.85560
C18 C 0.2001(4) 0.1247(3) 0.88704(16)
H14 H 0.18580 0.12710 0.94660
C19 C 0.2901(3) 0.0509(2) 0.85407(15)
H15 H 0.33630 0.00320 0.89100
C20 C 0.3123(3) 0.04723(17) 0.76610(14)
H16 H 0.37170 -0.00440 0.74440
#END
