
#######################################################################
#
#                 Cambridge Crystallographic Data Centre
#                                CCDC
#
#######################################################################
#
# If this CIF has been generated from an entry in the Cambridge
# Structural Database, then it will include bibliographic, chemical,
# crystal, experimental, refinement or atomic coordinate data resulting
# from the CCDC's data processing and validation procedures.
#
#######################################################################

data_CSD_CIF_OWADOH
_audit_creation_date 2016-09-20
_audit_creation_method CSD-ConQuest-V1
_database_code_CSD OWADOH
_database_code_depnum_ccdc_archive 'CCDC 1487052'
_chemical_formula_sum 'C21 H32 N2 O3'
_chemical_formula_moiety
;
C21 H32 N2 O3
;
_journal_coden_Cambridge 35
_journal_volume 81
_journal_year 2016
_journal_page_first 8625
_journal_name_full 'J.Org.Chem. '
loop_
_publ_author_name
"U.Osorio-Nieto"
"D.Chamorro-Arenas"
"L.Quintero"
"H.Hopfl"
"F.Sartillo-Piscil"
_chemical_name_systematic
;
(S,S)-1-benzyl-5-(hydroxymethyl)-3-((2,2,6,6-tetramethylpiperidin-1-yl)oxy)pyr
rolidin-2-one
;
_cell_volume   2023.399
_exptl_crystal_colour 'colorless'
_exptl_crystal_density_diffrn 1.183
_exptl_crystal_description 'prism'
_diffrn_ambient_temperature 100.0
#These two values have been output from a single CSD field.
_refine_ls_R_factor_gt 0.0471
_refine_ls_wR_factor_gt 0.0471
loop_
_citation_database_id_CSD
_citation_special_details
OWADUN "is a stereoisomer of this entry"
_symmetry_cell_setting monoclinic
_symmetry_space_group_name_H-M 'P 21'
_symmetry_Int_Tables_number 4
loop_
_symmetry_equiv_pos_site_id
_symmetry_equiv_pos_as_xyz
1 x,y,z
2 -x,1/2+y,-z
_cell_length_a 11.5796(4)
_cell_length_b 10.5928(3)
_cell_length_c 16.6027(6)
_cell_angle_alpha 90
_cell_angle_beta 96.501(3)
_cell_angle_gamma 90
_cell_formula_units_Z 4
loop_
_atom_type_symbol
_atom_type_radius_bond
C 0.68
H 0.23
N 0.68
O 0.68
loop_
_atom_site_label
_atom_site_type_symbol
_atom_site_fract_x
_atom_site_fract_y
_atom_site_fract_z
O1 O 0.3687(2) 0.5908(3) 0.90218(16)
O2 O 0.2745(2) 0.5179(2) 1.04796(15)
O3 O 0.4821(3) 0.8896(3) 1.09810(19)
H1 H 0.54050 0.93650 1.09750
N1 N 0.3560(3) 0.7904(3) 0.95336(19)
N2 N 0.1676(3) 0.4517(3) 1.06323(19)
C1 C 0.3320(3) 0.6658(4) 0.9498(2)
C2 C 0.2488(3) 0.6379(3) 1.0113(2)
H2 H 0.16760 0.63700 0.98350
C3 C 0.2638(3) 0.7514(3) 1.0684(2)
H3 H 0.18980 0.77190 1.09010
H4 H 0.32410 0.73450 1.11430
C4 C 0.3010(3) 0.8589(4) 1.0156(2)
H5 H 0.23050 0.90400 0.98980
C5 C 0.3824(3) 0.9528(4) 1.0614(2)
H6 H 0.40550 1.01800 1.02360
H7 H 0.34220 0.99530 1.10350
C6 C 0.4257(3) 0.8540(4) 0.8973(2)
H8 H 0.44960 0.79160 0.85800
H9 H 0.49710 0.88820 0.92820
C7 C 0.3603(3) 0.9604(4) 0.8517(2)
C8 C 0.4149(4) 1.0757(4) 0.8428(2)
H10 H 0.49310 1.08720 0.86570
C9 C 0.3564(4) 1.1744(4) 0.8008(3)
H11 H 0.39410 1.25300 0.79500
C10 C 0.2424(4) 1.1567(4) 0.7674(2)
H12 H 0.20200 1.22360 0.73830
C11 C 0.1870(4) 1.0432(4) 0.7759(3)
H13 H 0.10860 1.03210 0.75310
C12 C 0.2461(3) 0.9454(4) 0.8178(2)
H14 H 0.20790 0.86710 0.82340
C13 C 0.1540(3) 0.3428(3) 1.0049(2)
C14 C 0.0485(3) 0.2666(4) 1.0264(3)
H15 H -0.02250 0.31810 1.01360
H16 H 0.04030 0.19000 0.99200
C15 C 0.0574(4) 0.2269(4) 1.1152(3)
H17 H -0.01350 0.18060 1.12600
H18 H 0.12530 0.17080 1.12840
C16 C 0.0710(3) 0.3461(4) 1.1664(2)
H19 H 0.07740 0.32210 1.22440
H20 H 0.00010 0.39820 1.15470
C17 C 0.1769(3) 0.4258(4) 1.1518(2)
C18 C 0.2615(4) 0.2582(4) 1.0043(3)
H21 H 0.32910 0.31020 0.99600
H22 H 0.24800 0.19640 0.96040
H23 H 0.27600 0.21390 1.05630
C19 C 0.1237(4) 0.3972(4) 0.9199(2)
H24 H 0.05890 0.45660 0.92030
H25 H 0.10130 0.32850 0.88180
H26 H 0.19150 0.44130 0.90330
C20 C 0.2900(3) 0.3625(4) 1.1889(2)
H27 H 0.28900 0.27300 1.17370
H28 H 0.29670 0.36990 1.24810
H29 H 0.35660 0.40410 1.16860
C21 C 0.1670(4) 0.5517(4) 1.1953(2)
H30 H 0.24080 0.59750 1.19690
H31 H 0.14900 0.53630 1.25070
H32 H 0.10480 0.60220 1.16610
O4 O 0.8967(2) 0.9513(3) 0.60436(16)
O5 O 0.7604(2) 1.0242(2) 0.45546(15)
O6 O 0.9580(2) 0.6555(3) 0.40597(18)
H33 H 1.01240 0.60520 0.39980
N3 N 0.8739(3) 0.7528(3) 0.55034(19)
N4 N 0.6489(3) 1.0906(3) 0.44005(19)
C22 C 0.8485(3) 0.8762(4) 0.5550(2)
C23 C 0.7451(3) 0.9036(3) 0.4911(2)
H34 H 0.67120 0.90280 0.51710
C24 C 0.7471(3) 0.7912(3) 0.4332(2)
H35 H 0.66750 0.76900 0.40930
H36 H 0.79490 0.81040 0.38890
C25 C 0.8011(3) 0.6842(4) 0.4864(2)
H37 H 0.73820 0.63840 0.51110
C26 C 0.8695(3) 0.5910(4) 0.4420(2)
H38 H 0.90470 0.52650 0.48030
H39 H 0.81700 0.54760 0.39950
C27 C 0.9611(3) 0.6889(4) 0.6062(2)
H40 H 0.99800 0.75110 0.64550
H41 H 1.02230 0.65440 0.57540
C28 C 0.9105(3) 0.5830(4) 0.6519(2)
C29 C 0.9680(3) 0.4682(4) 0.6628(2)
H42 H 1.04020 0.45680 0.64160
C30 C 0.9221(4) 0.3704(4) 0.7040(3)
H43 H 0.96250 0.29240 0.71110
C31 C 0.8164(4) 0.3864(4) 0.7353(2)
H44 H 0.78460 0.31960 0.76390
C32 C 0.7580(4) 0.5000(4) 0.7244(2)
H45 H 0.68550 0.51100 0.74520
C33 C 0.8049(3) 0.5981(4) 0.6831(2)
H46 H 0.76450 0.67610 0.67610
C34 C 0.6551(3) 1.2006(3) 0.4974(2)
C35 C 0.5442(3) 1.2790(4) 0.4756(3)
H47 H 0.47640 1.22930 0.48870
H48 H 0.54860 1.35600 0.50950
C36 C 0.5251(4) 1.3174(4) 0.3865(3)
H49 H 0.45180 1.36570 0.37550
H50 H 0.59000 1.37130 0.37300
C37 C 0.5191(3) 1.1975(4) 0.3358(3)
H51 H 0.50680 1.22070 0.27770
H52 H 0.45120 1.14710 0.34810
C38 C 0.6291(3) 1.1155(4) 0.3510(2)
C39 C 0.7640(3) 1.2848(4) 0.4981(2)
H53 H 0.83390 1.23300 0.51040
H54 H 0.76230 1.35050 0.53950
H55 H 0.76500 1.32430 0.44480
C40 C 0.6520(4) 1.1482(4) 0.5826(3)
H56 H 0.58600 1.09050 0.58300
H57 H 0.64370 1.21800 0.62030
H58 H 0.72440 1.10270 0.59940
C41 C 0.7296(3) 1.1766(4) 0.3126(2)
H59 H 0.73460 1.26630 0.32710
H60 H 0.71590 1.16810 0.25350
H61 H 0.80260 1.13450 0.33270
C42 C 0.6029(4) 0.9892(4) 0.3081(3)
H62 H 0.67490 0.94060 0.30850
H63 H 0.56970 1.00450 0.25200
H64 H 0.54710 0.94170 0.33650
#END
