
#######################################################################
#
#                 Cambridge Crystallographic Data Centre
#                                CCDC
#
#######################################################################
#
# If this CIF has been generated from an entry in the Cambridge
# Structural Database, then it will include bibliographic, chemical,
# crystal, experimental, refinement or atomic coordinate data resulting
# from the CCDC's data processing and validation procedures.
#
#######################################################################

data_CSD_CIF_OWEJEG
_audit_creation_date 2011-09-23
_audit_creation_method CSD-ConQuest-V1
_database_code_CSD OWEJEG
_database_code_depnum_ccdc_archive 'CCDC 807701'
_chemical_formula_sum 'C39 H60 N4 O4'
_chemical_formula_moiety
;
C39 H60 N4 O4
;
_journal_coden_Cambridge 411
_journal_volume 44
_journal_year 2011
_journal_page_first 574
_journal_name_full 'Acc.Chem.Res. '
loop_
_publ_author_name
"XiaoHua Liu"
"LiLi Lin"
"XiaoMing Feng"
_chemical_name_systematic
;
1,1'-Propane-1,3-diylbis(N-(2,6-di-isopropylphenyl)piperidine-2-carboxamide) 
1,1'-dioxide
;
_cell_volume   4311.671
_exptl_crystal_colour 'colorless'
_exptl_crystal_density_diffrn 1.0
_exptl_crystal_description 'block'
_diffrn_ambient_temperature 150
_refine_special_details
;
The SQUEEZE/PLATON program has been used to model some disorder.

;
#These two values have been output from a single CSD field.
_refine_ls_R_factor_gt 0.0655
_refine_ls_wR_factor_gt 0.0655
_symmetry_cell_setting orthorhombic
_symmetry_space_group_name_H-M 'P 21 21 2'
_symmetry_Int_Tables_number 18
loop_
_symmetry_equiv_pos_site_id
_symmetry_equiv_pos_as_xyz
1 x,y,z
2 -x,-y,z
3 1/2+x,1/2-y,-z
4 1/2-x,1/2+y,-z
_cell_length_a 18.5088(3)
_cell_length_b 18.3074(3)
_cell_length_c 12.7245(2)
_cell_angle_alpha 90
_cell_angle_beta 90
_cell_angle_gamma 90
_cell_formula_units_Z 4
loop_
_atom_type_symbol
_atom_type_radius_bond
C 0.68
H 0.23
N 0.68
O 0.68
loop_
_atom_site_label
_atom_site_type_symbol
_atom_site_fract_x
_atom_site_fract_y
_atom_site_fract_z
O1 O 0.41745(9) 0.31836(11) 0.72618(14)
O2 O 0.43494(9) 0.36011(10) 1.04013(14)
O3 O 0.36823(10) 0.64427(11) 0.76508(14)
O4 O 0.39794(9) 0.61916(10) 0.44921(14)
N1 N 0.35306(11) 0.31541(12) 0.87918(17)
H1 H 0.35670 0.30990 0.94770
N2 N 0.49206(11) 0.36179(11) 0.96994(16)
N3 N 0.30623(11) 0.63643(12) 0.61052(18)
H2 H 0.31160 0.64190 0.54230
N4 N 0.45355(10) 0.63162(12) 0.52028(16)
C1 C 0.28223(13) 0.32501(15) 0.8350(2)
C2 C 0.24213(16) 0.38570(17) 0.8667(2)
C3 C 0.17368(16) 0.39479(18) 0.8225(3)
H3 H 0.14470 0.43500 0.84370
C4 C 0.14723(15) 0.34652(18) 0.7488(3)
H4 H 0.10160 0.35480 0.71690
C5 C 0.18732(15) 0.28661(17) 0.7221(2)
H5 H 0.16800 0.25280 0.67310
C6 C 0.25525(14) 0.27345(15) 0.7641(2)
C7 C 0.27045(19) 0.44086(18) 0.9470(3)
H6 H 0.31740 0.42150 0.97420
C8 C 0.2186(4) 0.4467(3) 1.0415(5)
H7 H 0.17500 0.47340 1.02040
H8 H 0.24250 0.47280 1.09890
H9 H 0.20510 0.39760 1.06510
C9 C 0.2846(4) 0.5105(3) 0.9021(5)
H10 H 0.31660 0.50490 0.84120
H11 H 0.30800 0.54190 0.95450
H12 H 0.23910 0.53290 0.87970
C10 C 0.29551(16) 0.20303(16) 0.7374(3)
H13 H 0.34550 0.20790 0.76650
C11 C 0.3028(4) 0.1914(3) 0.6221(4)
H14 H 0.33430 0.14930 0.60910
H15 H 0.32400 0.23510 0.58980
H16 H 0.25510 0.18230 0.59150
C12 C 0.2604(4) 0.1386(3) 0.7929(4)
H17 H 0.21020 0.13390 0.76940
H18 H 0.26140 0.14670 0.86900
H19 H 0.28690 0.09380 0.77590
C13 C 0.41408(13) 0.31442(13) 0.82190(19)
C14 C 0.48275(14) 0.30256(13) 0.8862(2)
H20 H 0.52490 0.30560 0.83720
C15 C 0.48354(17) 0.22702(15) 0.9373(3)
H21 H 0.44230 0.22270 0.98640
H22 H 0.47800 0.18910 0.88230
C16 C 0.5539(2) 0.21427(17) 0.9968(3)
H23 H 0.55210 0.16640 1.03280
H24 H 0.59490 0.21360 0.94680
C17 C 0.5651(2) 0.27444(17) 1.0771(3)
H25 H 0.52670 0.27170 1.13110
H26 H 0.61220 0.26740 1.11250
C18 C 0.56347(15) 0.34834(15) 1.0259(2)
H27 H 0.60350 0.35190 0.97470
H28 H 0.57080 0.38650 1.08010
C19 C 0.49560(14) 0.43365(13) 0.9138(2)
H29 H 0.45220 0.43840 0.86880
H30 H 0.53840 0.43340 0.86710
C20 C 0.50000 0.50000 0.9845(3)
H31 H 0.4600(15) 0.4998(15) 1.028(2)
C21 C 0.23628(15) 0.61343(16) 0.6451(2)
C22 C 0.19764(15) 0.65658(16) 0.7166(3)
C23 C 0.12783(17) 0.6337(2) 0.7425(3)
H32 H 0.10040 0.66150 0.79120
C24 C 0.09779(18) 0.5721(2) 0.6994(3)
H33 H 0.05010 0.55790 0.71800
C25 C 0.13694(18) 0.53118(19) 0.6292(3)
H34 H 0.11550 0.48900 0.59900
C26 C 0.20748(16) 0.54984(16) 0.6010(3)
C27 C 0.22514(17) 0.72793(18) 0.7613(3)
H35 H 0.27520 0.73490 0.73340
C28 C 0.2311(3) 0.7268(3) 0.8811(4)
H36 H 0.18270 0.72770 0.91200
H37 H 0.25830 0.76970 0.90470
H38 H 0.25630 0.68240 0.90330
C29 C 0.1800(3) 0.7934(2) 0.7225(5)
H39 H 0.17430 0.79040 0.64610
H40 H 0.20480 0.83900 0.74080
H41 H 0.13240 0.79240 0.75600
C30 C 0.25191(18) 0.50240(18) 0.5273(3)
H42 H 0.28400 0.53560 0.48580
C31 C 0.30119(19) 0.45173(19) 0.5930(3)
H43 H 0.27130 0.41800 0.63410
H44 H 0.33080 0.48130 0.64070
H45 H 0.33270 0.42380 0.54590
C32 C 0.2077(3) 0.4586(2) 0.4500(4)
H46 H 0.24010 0.43320 0.40130
H47 H 0.17600 0.49150 0.41040
H48 H 0.17840 0.42270 0.48810
C33 C 0.36454(13) 0.65063(14) 0.6695(2)
C34 C 0.42816(14) 0.68278(14) 0.6072(2)
H49 H 0.46930 0.68980 0.65710
C35 C 0.40822(15) 0.75783(15) 0.5623(2)
H50 H 0.36700 0.75260 0.51320
H51 H 0.39310 0.79060 0.62010
C36 C 0.47220(16) 0.79139(16) 0.5045(3)
H52 H 0.45740 0.83830 0.47230
H53 H 0.51170 0.80140 0.55490
C37 C 0.49903(16) 0.73978(16) 0.4196(2)
H54 H 0.46110 0.73370 0.36540
H55 H 0.54230 0.76090 0.38540
C38 C 0.51774(13) 0.66629(14) 0.4658(2)
H56 H 0.55760 0.67220 0.51690
H57 H 0.53480 0.63350 0.40910
C39 C 0.47736(14) 0.56194(14) 0.5726(2)
H58 H 0.43730 0.54430 0.61750
H59 H 0.51850 0.57340 0.61960
C40 C 0.50000 0.50000 0.5004(3)
H60 H 0.4540(16) 0.4846(15) 0.454(2)
O1A O 0.58255(9) 0.68164(11) 0.72618(14)
O2A O 0.56506(9) 0.63989(10) 1.04013(14)
O3A O 0.63177(10) 0.35573(11) 0.76508(14)
O4A O 0.60206(9) 0.38084(10) 0.44921(14)
N1A N 0.64694(11) 0.68459(12) 0.87918(17)
H1A H 0.64330 0.69010 0.94770
N2A N 0.50794(11) 0.63821(11) 0.96994(16)
N3A N 0.69377(11) 0.36357(12) 0.61052(18)
H2A H 0.68840 0.35810 0.54230
N4A N 0.54645(10) 0.36838(12) 0.52028(16)
C1A C 0.71777(13) 0.67499(15) 0.8350(2)
C2A C 0.75787(16) 0.61430(17) 0.8667(2)
C3A C 0.82632(16) 0.60521(18) 0.8225(3)
H3A H 0.85530 0.56500 0.84370
C4A C 0.85277(15) 0.65348(18) 0.7488(3)
H4A H 0.89840 0.64520 0.71690
C5A C 0.81268(15) 0.71339(17) 0.7221(2)
H5A H 0.83200 0.74720 0.67310
C6A C 0.74475(14) 0.72655(15) 0.7641(2)
C7A C 0.72955(19) 0.55914(18) 0.9470(3)
H6A H 0.68260 0.57850 0.97420
C8A C 0.7814(4) 0.5533(3) 1.0415(5)
H7A H 0.82500 0.52660 1.02040
H8A H 0.75750 0.52720 1.09890
H9A H 0.79490 0.60240 1.06510
C9A C 0.7154(4) 0.4895(3) 0.9021(5)
H10A H 0.68340 0.49510 0.84120
H11A H 0.69200 0.45810 0.95450
H12A H 0.76090 0.46710 0.87970
C10A C 0.70449(16) 0.79697(16) 0.7374(3)
H13A H 0.65450 0.79210 0.76650
C11A C 0.6972(4) 0.8086(3) 0.6221(4)
H14A H 0.66570 0.85070 0.60910
H15A H 0.67600 0.76490 0.58980
H16A H 0.74490 0.81770 0.59150
C12A C 0.7396(4) 0.8614(3) 0.7929(4)
H17A H 0.78980 0.86610 0.76940
H18A H 0.73860 0.85330 0.86900
H19A H 0.71310 0.90620 0.77590
C13A C 0.58592(13) 0.68558(13) 0.82190(19)
C14A C 0.51725(14) 0.69744(13) 0.8862(2)
H20A H 0.47510 0.69440 0.83720
C15A C 0.51646(17) 0.77298(15) 0.9373(3)
H21A H 0.55770 0.77730 0.98640
H22A H 0.52200 0.81090 0.88230
C16A C 0.4461(2) 0.78573(17) 0.9968(3)
H23A H 0.44790 0.83360 1.03280
H24A H 0.40510 0.78640 0.94680
C17A C 0.4349(2) 0.72556(17) 1.0771(3)
H25A H 0.47330 0.72830 1.13110
H26A H 0.38780 0.73260 1.11250
C18A C 0.43653(15) 0.65166(15) 1.0259(2)
H27A H 0.39650 0.64810 0.97470
H28A H 0.42920 0.61350 1.08010
C19A C 0.50440(14) 0.56635(13) 0.9138(2)
H29A H 0.54780 0.56160 0.86880
H30A H 0.46160 0.56660 0.86710
H31A H 0.5400(15) 0.5002(15) 1.028(2)
C21A C 0.76372(15) 0.38657(16) 0.6451(2)
C22A C 0.80236(15) 0.34342(16) 0.7166(3)
C23A C 0.87217(17) 0.3663(2) 0.7425(3)
H32A H 0.89960 0.33850 0.79120
C24A C 0.90221(18) 0.4279(2) 0.6994(3)
H33A H 0.94990 0.44210 0.71800
C25A C 0.86306(18) 0.46882(19) 0.6292(3)
H34A H 0.88450 0.51100 0.59900
C26A C 0.79252(16) 0.45016(16) 0.6010(3)
C27A C 0.77486(17) 0.27207(18) 0.7613(3)
H35A H 0.72480 0.26510 0.73340
C28A C 0.7689(3) 0.2732(3) 0.8811(4)
H36A H 0.81730 0.27230 0.91200
H37A H 0.74170 0.23030 0.90470
H38A H 0.74370 0.31760 0.90330
C29A C 0.8200(3) 0.2066(2) 0.7225(5)
H39A H 0.82570 0.20960 0.64610
H40A H 0.79520 0.16100 0.74080
H41A H 0.86760 0.20760 0.75600
C30A C 0.74809(18) 0.49760(18) 0.5273(3)
H42A H 0.71600 0.46440 0.48580
C31A C 0.69881(19) 0.54827(19) 0.5930(3)
H43A H 0.72870 0.58200 0.63410
H44A H 0.66920 0.51870 0.64070
H45A H 0.66730 0.57620 0.54590
C32A C 0.7923(3) 0.5414(2) 0.4500(4)
H46A H 0.75990 0.56680 0.40130
H47A H 0.82400 0.50850 0.41040
H48A H 0.82160 0.57730 0.48810
C33A C 0.63546(13) 0.34937(14) 0.6695(2)
C34A C 0.57184(14) 0.31722(14) 0.6072(2)
H49A H 0.53070 0.31020 0.65710
C35A C 0.59178(15) 0.24217(15) 0.5623(2)
H50A H 0.63300 0.24740 0.51320
H51A H 0.60690 0.20940 0.62010
C36A C 0.52780(16) 0.20861(16) 0.5045(3)
H52A H 0.54260 0.16170 0.47230
H53A H 0.48830 0.19860 0.55490
C37A C 0.50097(16) 0.26022(16) 0.4196(2)
H54A H 0.53890 0.26630 0.36540
H55A H 0.45770 0.23910 0.38540
C38A C 0.48226(13) 0.33371(14) 0.4658(2)
H56A H 0.44240 0.32780 0.51690
H57A H 0.46520 0.36650 0.40910
C39A C 0.52264(14) 0.43806(14) 0.5726(2)
H58A H 0.56270 0.45570 0.61750
H59A H 0.48150 0.42660 0.61960
H60A H 0.5460(16) 0.5154(15) 0.454(2)
#END
