
#######################################################################
#
#                 Cambridge Crystallographic Data Centre
#                                CCDC
#
#######################################################################
#
# If this CIF has been generated from an entry in the Cambridge
# Structural Database, then it will include bibliographic, chemical,
# crystal, experimental, refinement or atomic coordinate data resulting
# from the CCDC's data processing and validation procedures.
#
#######################################################################

data_CSD_CIF_OWOFEN
_audit_creation_date 2016-09-20
_audit_creation_method CSD-ConQuest-V1
_database_code_CSD OWOFEN
_database_code_depnum_ccdc_archive 'CCDC 1446121'
_chemical_formula_sum 'C43 H73 N1 O11'
_chemical_formula_moiety
;
C43 H73 N1 O11
;
_journal_coden_Cambridge 1498
_journal_volume 7
_journal_year 2016
_journal_page_first 635
_journal_name_full 'ACS.Med.Chem.Lett. '
loop_
_publ_author_name
"B.Borgstrom"
"Xiaoli Huang"
"E.Chygorin"
"S.Oredsson"
"D.Strand"
_chemical_name_systematic
;
2-(6-(6-(2-(5-ethyl-5-hydroxy-6-methyltetrahydro-2H-pyran-2-yl)-15-hydroxy-2,1
0,12-trimethyl-1,6,8-trioxadispiro[4.1.5^7^.3^5^]pentadec-13-en-9-yl)-3-hydrox
y-4-methyl-5-oxooctan-2-yl)-5-methyltetrahydro-2H-pyran-2-yl)-N-methoxybutanam
ide
;
_cell_volume   4263.449
_exptl_crystal_colour 'colorless'
_exptl_crystal_density_diffrn 1.215
_exptl_special_details
;
antiproliferative activity. Cytotoxicity evaluated against two breast cancer 
cell lines, JIMT-1 and MCF-7, using an MTT based assay. Capacity to 
selectively reduce traits associated with cancer stem cells was evaluated 
using an ALDEFLUOR assay.
;
_exptl_crystal_description 'cube'
_exptl_crystal_preparation 'hexane/ethyl acetate'
_diffrn_ambient_temperature 105
#These two values have been output from a single CSD field.
_refine_ls_R_factor_gt 0.0638
_refine_ls_wR_factor_gt 0.0638
_symmetry_cell_setting monoclinic
_symmetry_space_group_name_H-M 'P 21'
_symmetry_Int_Tables_number 4
loop_
_symmetry_equiv_pos_site_id
_symmetry_equiv_pos_as_xyz
1 x,y,z
2 -x,1/2+y,-z
_cell_length_a 12.678(1)
_cell_length_b 18.461(2)
_cell_length_c 18.603(1)
_cell_angle_alpha 90
_cell_angle_beta 101.706(7)
_cell_angle_gamma 90
_cell_formula_units_Z 4
loop_
_atom_type_symbol
_atom_type_radius_bond
C 0.68
H 0.23
N 0.68
O 0.68
loop_
_atom_site_label
_atom_site_type_symbol
_atom_site_fract_x
_atom_site_fract_y
_atom_site_fract_z
C1 C -0.3541(3) 0.8346(2) 0.1878(2)
C2 C -0.3335(3) 0.9152(2) 0.19192(19)
H1 H -0.26750 0.92330 0.22880
C3 C -0.3130(3) 0.9420(2) 0.11865(19)
H2 H -0.36690 0.91900 0.08020
C4 C -0.3218(3) 1.0226(2) 0.1056(2)
H3 H -0.38930 1.03990 0.11630
H4 H -0.32240 1.03260 0.05430
C5 C -0.2291(3) 1.0628(2) 0.1531(2)
H5 H -0.23320 1.05750 0.20440
H6 H -0.23430 1.11400 0.14110
C6 C -0.1207(3) 1.0332(2) 0.14116(19)
H7 H -0.06360 1.05500 0.17830
C7 C -0.1182(3) 0.9521(2) 0.15427(19)
H8 H -0.12210 0.94390 0.20570
C8 C -0.0195(3) 0.9123(2) 0.13968(18)
H9 H -0.01940 0.91730 0.08730
C9 C -0.0268(3) 0.8313(2) 0.15574(18)
H10 H -0.09420 0.81370 0.12520
C10 C 0.0635(3) 0.7851(2) 0.13765(18)
H11 H 0.12970 0.79660 0.17310
C11 C 0.0402(3) 0.7048(2) 0.14412(19)
C12 C 0.1259(3) 0.6489(2) 0.13506(19)
H12 H 0.12870 0.64840 0.08280
C13 C 0.2368(3) 0.67459(19) 0.17633(18)
H13 H 0.25110 0.72210 0.15690
C14 C 0.3323(3) 0.62503(19) 0.17276(18)
H14 H 0.31930 0.57720 0.19210
C15 C 0.4318(3) 0.6587(2) 0.22142(18)
H15 H 0.49230 0.62590 0.22410
H16 H 0.44930 0.70340 0.19910
C16 C 0.4157(3) 0.6745(2) 0.29862(18)
H17 H 0.40610 0.62790 0.32170
C17 C 0.3145(3) 0.71910(19) 0.29804(19)
C18 C 0.3236(3) 0.79642(19) 0.27596(18)
H18 H 0.34310 0.80610 0.23140
C19 C 0.3051(3) 0.8512(2) 0.31682(19)
H19 H 0.31300 0.89810 0.30040
C20 C 0.2718(3) 0.8408(2) 0.38902(19)
H20 H 0.33640 0.84570 0.42780
C21 C 0.2274(3) 0.7656(2) 0.39468(19)
C22 C 0.2197(3) 0.7431(2) 0.47239(17)
H21 H 0.28350 0.71650 0.49570
H22 H 0.21210 0.78530 0.50210
C23 C 0.1207(3) 0.6957(2) 0.46291(19)
H23 H 0.08500 0.70130 0.50400
H24 H 0.13960 0.64510 0.45900
C24 C 0.0476(3) 0.7224(2) 0.3910(2)
C25 C -0.0407(3) 0.7739(2) 0.40234(19)
H25 H -0.07060 0.79640 0.35490
C26 C -0.1331(3) 0.7405(2) 0.4308(2)
H26 H -0.10560 0.71500 0.47640
H27 H -0.17040 0.70580 0.39540
C27 C -0.2112(3) 0.7996(2) 0.4438(2)
H28 H -0.24580 0.82020 0.39690
H29 H -0.26680 0.77820 0.46600
C28 C -0.1558(3) 0.8598(2) 0.4932(2)
C29 C -0.0612(3) 0.8885(2) 0.46142(19)
H30 H -0.01950 0.92020 0.49900
C30 C -0.0936(3) 0.9343(2) 0.3925(2)
H31 H -0.03010 0.95040 0.37650
H32 H -0.13410 0.97560 0.40300
H33 H -0.13710 0.90590 0.35440
C31 C -0.2358(3) 0.9189(2) 0.5021(2)
H34 H -0.26800 0.93740 0.45390
H35 H -0.29300 0.89740 0.52260
C32 C -0.1894(3) 0.9820(2) 0.5502(2)
H36 H -0.24530 1.01650 0.55230
H37 H -0.13370 1.00470 0.53000
H38 H -0.15960 0.96480 0.59880
C33 C 0.0034(3) 0.6600(2) 0.3410(2)
H39 H 0.06130 0.62830 0.33540
H40 H -0.03100 0.67850 0.29380
H41 H -0.04810 0.63360 0.36200
C34 C 0.5156(3) 0.7102(2) 0.34438(18)
H42 H 0.50420 0.71910 0.39300
H43 H 0.52910 0.75520 0.32200
H44 H 0.57650 0.67870 0.34680
C35 C 0.3482(3) 0.6168(2) 0.09355(19)
H45 H 0.28510 0.59520 0.06410
H46 H 0.40950 0.58650 0.09290
H47 H 0.35990 0.66360 0.07410
C36 C 0.0971(3) 0.5729(2) 0.1544(2)
H48 H 0.08240 0.57370 0.20360
H49 H 0.15950 0.54220 0.15560
C37 C 0.0011(3) 0.5383(2) 0.1032(2)
H50 H -0.01030 0.49040 0.12020
H51 H 0.01520 0.53570 0.05450
H52 H -0.06210 0.56720 0.10260
C38 C 0.0831(3) 0.8008(2) 0.06059(18)
H53 H 0.09790 0.85140 0.05630
H54 H 0.02010 0.78790 0.02480
H55 H 0.14340 0.77290 0.05240
C39 C 0.0845(3) 0.9458(2) 0.1820(2)
H56 H 0.14500 0.92020 0.17070
H57 H 0.08620 0.94260 0.23370
H58 H 0.08790 0.99570 0.16820
C40 C -0.1008(3) 1.0543(2) 0.06581(19)
H59 H -0.03290 1.03490 0.05970
H60 H -0.09940 1.10620 0.06190
H61 H -0.15750 1.03530 0.02840
C41 C -0.4265(3) 0.9531(2) 0.2192(2)
H62 H -0.41690 1.00520 0.21710
H63 H -0.49400 0.94100 0.18660
C42 C -0.4326(3) 0.9322(2) 0.2959(2)
H64 H -0.49190 0.95690 0.31000
H65 H -0.36680 0.94540 0.32870
H66 H -0.44320 0.88080 0.29820
C43 C -0.2905(3) 0.6819(2) 0.1655(2)
H67 H -0.30000 0.63100 0.17280
H68 H -0.22460 0.68950 0.14870
H69 H -0.34990 0.69970 0.12940
N1 N -0.2737(3) 0.79368(18) 0.22540(17)
H70 H -0.21360 0.81380 0.24490
O1 O -0.2861(2) 0.71962(16) 0.23330(15)
O2 O -0.4397(2) 0.80918(15) 0.15508(15)
O3 O -0.20921(18) 0.91703(13) 0.10925(12)
O4 O -0.03646(19) 0.82265(15) 0.23118(12)
H71 H 0.02090 0.80820 0.25550
O5 O -0.0452(2) 0.68456(15) 0.15565(17)
O6 O 0.22353(18) 0.68415(12) 0.25035(12)
O7 O 0.29238(18) 0.71240(13) 0.36938(12)
O8 O 0.11936(18) 0.76484(13) 0.35476(12)
O9 O 0.00987(18) 0.82992(13) 0.45104(12)
O10 O -0.11725(19) 0.83020(16) 0.56480(13)
H72 H -0.05180 0.82470 0.57150
O11 O 0.1987(2) 0.89597(13) 0.39975(14)
H73 H 0.14240 0.87750 0.40590
C44 C 0.8207(3) 0.3397(3) 0.3299(2)
C45 C 0.8012(3) 0.4178(2) 0.3418(2)
H74 H 0.73730 0.43310 0.30610
C46 C 0.7780(3) 0.4258(2) 0.41888(19)
H75 H 0.83270 0.39740 0.45190
C47 C 0.7828(3) 0.5027(2) 0.4498(2)
H76 H 0.78210 0.50070 0.50180
H77 H 0.84960 0.52550 0.44410
C48 C 0.6883(3) 0.5477(2) 0.4106(2)
H78 H 0.69430 0.55520 0.36000
H79 H 0.68980 0.59480 0.43400
C49 C 0.5818(3) 0.5102(2) 0.4126(2)
H80 H 0.52500 0.53690 0.37950
C50 C 0.5839(3) 0.4336(2) 0.38206(19)
H81 H 0.59070 0.43740 0.33070
C51 C 0.4856(3) 0.38750(19) 0.38464(19)
H82 H 0.47800 0.38490 0.43600
C52 C 0.4988(3) 0.3094(2) 0.35821(18)
H83 H 0.56930 0.29240 0.38480
C53 C 0.4152(3) 0.2577(2) 0.37810(18)
H84 H 0.34350 0.27940 0.36350
C54 C 0.4137(3) 0.1819(2) 0.34540(18)
C55 C 0.3105(3) 0.13747(19) 0.34113(18)
H85 H 0.30280 0.13210 0.39220
C56 C 0.2110(3) 0.17940(19) 0.30391(18)
H86 H 0.20530 0.22260 0.33360
C57 C 0.1045(3) 0.1383(2) 0.29441(18)
H87 H 0.10850 0.09480 0.26500
C58 C 0.0164(3) 0.18794(19) 0.25323(18)
H88 H -0.05170 0.16220 0.24400
H89 H 0.00930 0.22970 0.28360
C59 C 0.0409(3) 0.2136(2) 0.18059(18)
H90 H 0.04310 0.17060 0.15000
C60 C 0.1523(3) 0.24956(19) 0.19207(18)
C61 C 0.1556(3) 0.3229(2) 0.22626(19)
H91 H 0.14050 0.32670 0.27300
C62 C 0.1788(3) 0.3822(2) 0.1938(2)
H92 H 0.17820 0.42620 0.21800
C63 C 0.2062(3) 0.3813(2) 0.1188(2)
H93 H 0.13950 0.39060 0.08290
C64 C 0.2457(3) 0.3067(2) 0.10299(18)
C65 C 0.2516(3) 0.2951(2) 0.02305(18)
H94 H 0.25950 0.34090 -0.00070
H95 H 0.18700 0.27120 -0.00320
C66 C 0.3504(3) 0.2473(2) 0.02495(18)
H96 H 0.38660 0.26000 -0.01450
H97 H 0.33020 0.19660 0.02030
C67 C 0.4228(3) 0.2622(2) 0.09966(18)
C68 C 0.5157(3) 0.3131(2) 0.09774(19)
H98 H 0.54730 0.32740 0.14820
C69 C 0.6048(3) 0.2828(2) 0.0626(2)
H99 H 0.63830 0.24180 0.09090
H100 H 0.57450 0.26620 0.01330
C70 C 0.6884(3) 0.3402(2) 0.0597(2)
H101 H 0.74090 0.32130 0.03320
H102 H 0.72590 0.35120 0.10930
C71 C 0.6410(3) 0.4098(2) 0.02294(19)
C72 C 0.5477(3) 0.4347(2) 0.0591(2)
H103 H 0.50980 0.47310 0.02770
C73 C 0.5813(3) 0.4674(2) 0.1355(2)
H104 H 0.51830 0.48160 0.15320
H105 H 0.62580 0.50910 0.13330
H106 H 0.62090 0.43220 0.16820
C74 C 0.7274(3) 0.4674(2) 0.0262(2)
H107 H 0.75880 0.47690 0.07730
H108 H 0.78390 0.44800 0.00360
C75 C 0.6903(3) 0.5383(2) -0.0105(2)
H109 H 0.75050 0.57070 -0.00620
H110 H 0.63660 0.55940 0.01280
H111 H 0.66010 0.52990 -0.06150
C76 C 0.4618(3) 0.19200(19) 0.1395(2)
H112 H 0.40150 0.16060 0.13940
H113 H 0.49640 0.20270 0.18920
H114 H 0.51210 0.16850 0.11490
C77 C -0.0479(3) 0.2622(2) 0.1401(2)
H115 H -0.03110 0.27700 0.09430
H116 H -0.05410 0.30410 0.16950
H117 H -0.11490 0.23610 0.13100
C78 C 0.0801(3) 0.1163(2) 0.36839(19)
H118 H 0.13560 0.08460 0.39320
H119 H 0.01190 0.09180 0.36070
H120 H 0.07730 0.15880 0.39770
C79 C 0.3206(3) 0.06025(19) 0.31422(18)
H121 H 0.25870 0.03290 0.32230
H122 H 0.38410 0.03850 0.34440
C80 C 0.3286(3) 0.0513(2) 0.23347(18)
H123 H 0.33440 0.00080 0.22260
H124 H 0.39110 0.07640 0.22480
H125 H 0.26520 0.07100 0.20250
C81 C 0.4405(3) 0.2456(2) 0.46201(18)
H126 H 0.44200 0.29140 0.48660
H127 H 0.50930 0.22230 0.47620
H128 H 0.38580 0.21540 0.47540
C82 C 0.3848(3) 0.4238(2) 0.34111(19)
H129 H 0.32300 0.39460 0.34360
H130 H 0.39130 0.42890 0.29080
H131 H 0.37670 0.47070 0.36150
C83 C 0.5552(3) 0.5130(2) 0.4896(2)
H132 H 0.48800 0.48870 0.48890
H133 H 0.54970 0.56250 0.50400
H134 H 0.61130 0.48930 0.52400
C84 C 0.8965(4) 0.4625(3) 0.3301(2)
H135 H 0.88310 0.51290 0.33990
H136 H 0.95990 0.44730 0.36540
C85 C 0.9198(4) 0.4570(3) 0.2554(2)
H137 H 0.98140 0.48620 0.25250
H138 H 0.85870 0.47370 0.22010
H139 H 0.93440 0.40740 0.24530
C86 C 0.7432(4) 0.1861(2) 0.3238(2)
H140 H 0.75370 0.13690 0.31000
H141 H 0.67260 0.19110 0.33450
H142 H 0.79650 0.19840 0.36650
N2 N 0.7414(3) 0.3049(2) 0.28232(18)
H143 H 0.68310 0.32760 0.26350
O12 O 0.7535(2) 0.23405(17) 0.26403(16)
O13 O 0.9044(2) 0.30831(18) 0.35803(15)
O14 O 0.67598(19) 0.39389(13) 0.42128(12)
O15 O 0.50322(18) 0.30929(15) 0.28161(12)
H144 H 0.44320 0.31820 0.25710
O16 O 0.4942(2) 0.15561(14) 0.33133(14)
O17 O 0.23283(18) 0.20322(12) 0.23459(12)
O18 O 0.17748(18) 0.25175(13) 0.12097(12)
O19 O 0.35338(18) 0.29929(13) 0.14245(12)
O20 O 0.47108(18) 0.37664(13) 0.05783(12)
O21 O 0.6008(2) 0.39832(16) -0.05383(12)
H145 H 0.56160 0.36260 -0.05960
O22 O 0.2793(2) 0.43643(14) 0.11117(17)
H146 H 0.33830 0.41850 0.11040
#END
