
#######################################################################
#
#                 Cambridge Crystallographic Data Centre
#                                CCDC
#
#######################################################################
#
# If this CIF has been generated from an entry in the Cambridge
# Structural Database, then it will include bibliographic, chemical,
# crystal, experimental, refinement or atomic coordinate data resulting
# from the CCDC's data processing and validation procedures.
#
#######################################################################

data_CSD_CIF_OWOFIR
_audit_creation_date 2016-09-20
_audit_creation_method CSD-ConQuest-V1
_database_code_CSD OWOFIR
_database_code_depnum_ccdc_archive 'CCDC 1446122'
_chemical_formula_sum 'C43 H73 N1 O11'
_chemical_formula_moiety
;
C43 H73 N1 O11
;
_journal_coden_Cambridge 1498
_journal_volume 7
_journal_year 2016
_journal_page_first 635
_journal_name_full 'ACS.Med.Chem.Lett. '
loop_
_publ_author_name
"B.Borgstrom"
"Xiaoli Huang"
"E.Chygorin"
"S.Oredsson"
"D.Strand"
_chemical_name_systematic
;
2-(6-(6-(2-(5-ethyl-5-hydroxy-6-methyltetrahydro-2H-pyran-2-yl)-15-hydroxy-2,1
0,12-trimethyl-1,6,8-trioxadispiro[4.1.5^7^.3^5^]pentadec-13-en-9-yl)-3-hydrox
y-4-methyl-5-oxooctan-2-yl)-5-methyltetrahydro-2H-pyran-2-yl)-N-hydroxy-N-meth
ylbutanamide
;
_cell_volume   2203.497
_exptl_crystal_colour 'colorless'
_exptl_crystal_density_diffrn 1.176
_exptl_special_details
;
antiproliferative activity. Cytotoxicity evaluated against two breast cancer 
cell lines, JIMT-1 and MCF-7, using an MTT based assay. Capacity to 
selectively reduce traits associated with cancer stem cells was evaluated 
using an ALDEFLUOR assay.
;
_exptl_crystal_description 'plate'
_exptl_crystal_preparation 'methanol'
_diffrn_ambient_temperature 293
#These two values have been output from a single CSD field.
_refine_ls_R_factor_gt 0.0659
_refine_ls_wR_factor_gt 0.0659
_symmetry_cell_setting monoclinic
_symmetry_space_group_name_H-M 'P 21'
_symmetry_Int_Tables_number 4
loop_
_symmetry_equiv_pos_site_id
_symmetry_equiv_pos_as_xyz
1 x,y,z
2 -x,1/2+y,-z
_cell_length_a 10.5145(5)
_cell_length_b 17.8712(6)
_cell_length_c 12.8433(7)
_cell_angle_alpha 90
_cell_angle_beta 114.070(7)
_cell_angle_gamma 90
_cell_formula_units_Z 2
loop_
_atom_type_symbol
_atom_type_radius_bond
C 0.68
H 0.23
N 0.68
O 0.68
loop_
_atom_site_label
_atom_site_type_symbol
_atom_site_fract_x
_atom_site_fract_y
_atom_site_fract_z
C1 C 0.1915(5) 0.2198(2) -0.4402(4)
H1 H 0.26550 0.20940 -0.46360
H2 H 0.10990 0.19220 -0.48730
H3 H 0.21940 0.20530 -0.36200
N1 N 0.1607(3) 0.2990(2) -0.4518(3)
O1 O 0.3320(3) 0.32858(16) -0.5035(2)
O2 O 0.3265(2) 0.45844(14) -0.2997(2)
O3 O 0.0864(2) 0.36000(15) -0.2316(2)
H4 H 0.04320 0.35230 -0.19200
O4 O 0.2298(4) 0.21959(18) -0.1708(3)
O5 O 0.0263(2) 0.23747(13) -0.0030(2)
O6 O -0.1968(3) 0.27651(14) -0.0468(2)
O7 O -0.2428(4) 0.46462(16) -0.1696(3)
H5 H -0.26380 0.44450 -0.23180
O8 O -0.1669(2) 0.32513(13) -0.2052(2)
O9 O -0.3386(2) 0.39654(14) -0.4023(2)
O10 O -0.5527(3) 0.4090(2) -0.6331(3)
H6 H -0.55990 0.38520 -0.58110
O11 O 0.0353(2) 0.31880(18) -0.4460(2)
H7 H 0.04900 0.32730 -0.37960
C2 C 0.2309(4) 0.3489(2) -0.4849(3)
C3 C 0.1844(4) 0.4301(2) -0.5006(4)
H8 H 0.10260 0.43540 -0.48290
C4 C 0.3057(4) 0.4769(2) -0.4147(4)
H9 H 0.39000 0.46070 -0.42320
C5 C 0.2971(5) 0.5610(2) -0.4319(4)
H10 H 0.26810 0.57190 -0.51230
H11 H 0.38870 0.58260 -0.39100
C6 C 0.1950(5) 0.5967(2) -0.3903(4)
H12 H 0.10120 0.58020 -0.43780
H13 H 0.19820 0.65070 -0.39680
C7 C 0.2303(4) 0.5757(2) -0.2665(4)
H14 H 0.15610 0.59510 -0.24640
C8 C 0.2275(4) 0.4905(2) -0.2607(3)
H15 H 0.13430 0.47380 -0.31240
C9 C 0.2608(4) 0.4554(2) -0.1435(3)
H16 H 0.36050 0.46210 -0.09680
C10 C 0.2312(4) 0.3714(2) -0.1595(3)
H17 H 0.28480 0.35180 -0.20050
C11 C 0.2719(4) 0.3252(2) -0.0503(3)
H18 H 0.21460 0.34160 -0.01050
C12 C 0.2443(4) 0.2427(2) -0.0783(4)
C13 C 0.2425(4) 0.1880(2) 0.0123(3)
H19 H 0.33960 0.18170 0.06660
C14 C 0.1650(4) 0.2212(2) 0.0799(3)
H20 H 0.20970 0.26890 0.11220
C15 C 0.1606(4) 0.1741(2) 0.1774(3)
H21 H 0.11310 0.12680 0.14620
C16 C 0.0755(4) 0.2171(2) 0.2290(3)
H22 H 0.06500 0.18660 0.28740
H23 H 0.12570 0.26210 0.26520
C17 C -0.0678(4) 0.2388(2) 0.1415(3)
H24 H -0.11910 0.19220 0.11230
C18 C -0.0602(4) 0.2795(2) 0.0395(3)
C19 C -0.0071(4) 0.3582(2) 0.0657(4)
H25 H 0.08020 0.36620 0.12430
C20 C -0.0791(5) 0.4164(2) 0.0089(4)
H26 H -0.04030 0.46390 0.02850
C21 C -0.2200(5) 0.4092(2) -0.0851(4)
H27 H -0.28850 0.41700 -0.05250
C22 C -0.2418(4) 0.3307(2) -0.1354(3)
C23 C -0.3918(4) 0.3124(2) -0.2122(4)
H28 H -0.43830 0.28830 -0.16970
H29 H -0.44280 0.35730 -0.24810
C24 C -0.3792(4) 0.2598(2) -0.2998(4)
H30 H -0.45740 0.26590 -0.37290
H31 H -0.37610 0.20820 -0.27550
C25 C -0.2434(4) 0.2813(2) -0.3080(3)
C26 C -0.2591(4) 0.3324(2) -0.4073(3)
H32 H -0.16590 0.34990 -0.39540
C27 C -0.3238(4) 0.2982(2) -0.5245(3)
H33 H -0.41620 0.27980 -0.53860
H34 H -0.26790 0.25610 -0.52870
C28 C -0.3336(4) 0.3555(3) -0.6148(4)
H35 H -0.38320 0.33390 -0.68980
H36 H -0.24060 0.36850 -0.60700
C29 C -0.4087(4) 0.4258(2) -0.6039(4)
C30 C -0.3436(4) 0.4549(2) -0.4811(4)
H37 H -0.40680 0.49330 -0.47520
C31 C -0.2015(5) 0.4922(3) -0.4461(4)
H38 H -0.15910 0.49810 -0.36480
H39 H -0.21300 0.54040 -0.48180
H40 H -0.14310 0.46150 -0.46980
C32 C -0.4112(5) 0.4845(3) -0.6913(4)
H41 H -0.31570 0.49770 -0.67590
H42 H -0.45110 0.46160 -0.76630
C33 C -0.4900(6) 0.5552(3) -0.6953(5)
H43 H -0.58620 0.54350 -0.71530
H44 H -0.48250 0.58840 -0.75130
H45 H -0.45160 0.57890 -0.62180
C34 C -0.1559(4) 0.2122(2) -0.3055(4)
H46 H -0.07340 0.22750 -0.31440
H47 H -0.20940 0.17910 -0.36650
H48 H -0.13020 0.18680 -0.23390
C35 C -0.1504(5) 0.2835(3) 0.1949(4)
H49 H -0.16110 0.25410 0.25340
H50 H -0.24060 0.29560 0.13720
H51 H -0.10120 0.32880 0.22760
C36 C 0.3064(5) 0.1569(3) 0.2666(4)
H52 H 0.35110 0.12180 0.23580
H53 H 0.30000 0.13570 0.33300
H54 H 0.36000 0.20220 0.28720
C37 C 0.1912(4) 0.1106(2) -0.0381(4)
H55 H 0.16870 0.08210 0.01640
H56 H 0.10590 0.11670 -0.10610
C38 C 0.2925(5) 0.0662(3) -0.0685(4)
H57 H 0.31640 0.09390 -0.12200
H58 H 0.25060 0.01950 -0.10210
H59 H 0.37510 0.05670 -0.00090
C39 C 0.4257(4) 0.3360(3) 0.0300(4)
H60 H 0.44850 0.30430 0.09550
H61 H 0.44160 0.38730 0.05400
H62 H 0.48320 0.32310 -0.00930
C40 C 0.1807(5) 0.4926(3) -0.0823(4)
H63 H 0.20540 0.54460 -0.07050
H64 H 0.20370 0.46870 -0.00990
H65 H 0.08250 0.48800 -0.12770
C41 C 0.3677(4) 0.6091(2) -0.1835(4)
H66 H 0.44380 0.58200 -0.18850
H67 H 0.37300 0.60570 -0.10720
H68 H 0.37270 0.66070 -0.20240
C42 C 0.1440(5) 0.4509(3) -0.6268(4)
H69 H 0.22400 0.47370 -0.63370
H70 H 0.12240 0.40520 -0.67170
C43 C 0.0225(5) 0.5032(3) -0.6767(4)
H71 H -0.05980 0.47910 -0.67830
H72 H 0.00920 0.51640 -0.75290
H73 H 0.04050 0.54750 -0.63080
#END
