
#######################################################################
#
#                 Cambridge Crystallographic Data Centre
#                                CCDC
#
#######################################################################
#
# If this CIF has been generated from an entry in the Cambridge
# Structural Database, then it will include bibliographic, chemical,
# crystal, experimental, refinement or atomic coordinate data resulting
# from the CCDC's data processing and validation procedures.
#
#######################################################################

data_CSD_CIF_OWUQEE
_audit_creation_date 2016-10-15
_audit_creation_method CSD-ConQuest-V1
_database_code_CSD OWUQEE
_database_code_depnum_ccdc_archive 'CCDC 1508947'
_chemical_formula_sum 'C13 H10 N2 O3'
_chemical_formula_moiety
;
C13 H10 N2 O3
;
_journal_coeditor_code "hg4016"
_journal_coden_Cambridge 1959
_journal_volume 1
_journal_year 2016
_journal_page_first x161595
_journal_name_full 'IUCrData '
loop_
_publ_author_name
"R.Ida Malarselvi"
"C.Ramachandra Raja"
"A.Thiruvalluvar"
"J.Priscilla"
"K.Panneer Selvam"
_chemical_name_systematic
;
(E)-4-nitro-2-[(phenylimino)methyl]phenol
;
_cell_volume   1139.767
_exptl_crystal_colour 'colorless'
_exptl_crystal_density_diffrn 1.412
_exptl_crystal_description 'block'
_diffrn_ambient_temperature 296
#These two values have been output from a single CSD field.
_refine_ls_R_factor_gt 0.0462
_refine_ls_wR_factor_gt 0.0462
_symmetry_cell_setting monoclinic
_symmetry_space_group_name_H-M 'P 21/n'
_symmetry_Int_Tables_number 14
loop_
_symmetry_equiv_pos_site_id
_symmetry_equiv_pos_as_xyz
1 x,y,z
2 1/2-x,1/2+y,1/2-z
3 -x,-y,-z
4 -1/2+x,-1/2-y,-1/2+z
_cell_length_a 8.0774(10)
_cell_length_b 6.5801(6)
_cell_length_c 21.668(3)
_cell_angle_alpha 90
_cell_angle_beta 98.240(5)
_cell_angle_gamma 90
_cell_formula_units_Z 4
loop_
_atom_type_symbol
_atom_type_radius_bond
C 0.68
H 0.23
N 0.68
O 0.68
loop_
_atom_site_label
_atom_site_type_symbol
_atom_site_fract_x
_atom_site_fract_y
_atom_site_fract_z
C1 C 0.2784(2) 0.1044(3) -0.11963(7)
C2 C 0.1930(3) 0.2130(3) -0.16876(8)
H1 H 0.17934 0.15961 -0.20891
C3 C 0.1293(3) 0.3986(3) -0.15790(8)
H2 H 0.07253 0.47230 -0.19099
C4 C 0.1474(2) 0.4797(3) -0.09835(8)
C5 C 0.2374(2) 0.3697(3) -0.04848(7)
C6 C 0.3016(2) 0.1809(3) -0.06025(7)
H3 H 0.36052 0.10613 -0.02788
C7 C 0.2662(2) 0.4542(3) 0.01343(8)
H4 H 0.32327 0.37717 0.04566
C8 C 0.2495(2) 0.7204(3) 0.08524(8)
C9 C 0.3526(2) 0.6347(3) 0.13497(8)
H5 H 0.40354 0.50994 0.13031
C10 C 0.3796(3) 0.7343(3) 0.19118(9)
H6 H 0.44941 0.67703 0.22450
C11 C 0.3043(3) 0.9175(4) 0.19849(10)
H7 H 0.32211 0.98356 0.23682
C12 C 0.2030(3) 1.0033(3) 0.14949(10)
H8 H 0.15191 1.12779 0.15440
C13 C 0.1768(2) 0.9057(3) 0.09319(9)
H9 H 0.10894 0.96557 0.05983
N1 N 0.3522(2) -0.0902(2) -0.13139(7)
N2 N 0.21561(19) 0.6317(2) 0.02536(6)
O1 O 0.3253(2) -0.1609(2) -0.18406(7)
O2 O 0.4381(2) -0.1762(2) -0.08827(7)
O3 O 0.08189(19) 0.6599(2) -0.08898(6)
H10 H 0.10673 0.69230 -0.05227
#END
