
#######################################################################
#
#                 Cambridge Crystallographic Data Centre
#                                CCDC
#
#######################################################################
#
# If this CIF has been generated from an entry in the Cambridge
# Structural Database, then it will include bibliographic, chemical,
# crystal, experimental, refinement or atomic coordinate data resulting
# from the CCDC's data processing and validation procedures.
#
#######################################################################

data_CSD_CIF_OWUXOU
_audit_creation_date 2011-10-11
_audit_creation_method CSD-ConQuest-V1
_database_code_CSD OWUXOU
_database_code_depnum_ccdc_archive 'CCDC 822025'
_chemical_formula_sum 'C16 H17 N1 O5'
_chemical_formula_moiety
;
C16 H17 N1 O5
;
_journal_coden_Cambridge 1366
_journal_volume 353
_journal_year 2011
_journal_page_first 1763
_journal_name_full 'Adv.Synth.Catal. '
loop_
_publ_author_name
"Baoqiang Wan"
"Guochen Jia"
"Shengming Ma"
_chemical_name_systematic
;
(E)-3-Acetyl-7-methyl-5-(4-nitrophenyl)-3,4,7,8-tetrahydro-2H-oxocin-2-one
;
_cell_volume    743.992
_exptl_crystal_colour 'colorless'
_exptl_crystal_density_diffrn 1.354
_exptl_crystal_description 'block'
_diffrn_ambient_temperature 296
#These two values have been output from a single CSD field.
_refine_ls_R_factor_gt 0.0357
_refine_ls_wR_factor_gt 0.0357
_symmetry_cell_setting triclinic
_symmetry_space_group_name_H-M 'P -1'
_symmetry_Int_Tables_number 2
loop_
_symmetry_equiv_pos_site_id
_symmetry_equiv_pos_as_xyz
1 x,y,z
2 -x,-y,-z
_cell_length_a 8.8711(5)
_cell_length_b 9.5519(5)
_cell_length_c 10.3514(6)
_cell_angle_alpha 64.631(1)
_cell_angle_beta 69.845(2)
_cell_angle_gamma 81.106(2)
_cell_formula_units_Z 2
loop_
_atom_type_symbol
_atom_type_radius_bond
C 0.68
H 0.23
N 0.68
O 0.68
loop_
_atom_site_label
_atom_site_type_symbol
_atom_site_fract_x
_atom_site_fract_y
_atom_site_fract_z
O1 O 0.02307(12) 0.39833(11) 0.89238(12)
O2 O -0.01164(14) 0.26563(13) 0.77031(12)
O3 O 0.36385(17) 0.62414(14) 0.61293(15)
O4 O 0.6613(2) -0.44473(16) 0.79288(17)
O5 O 0.74834(17) -0.26726(16) 0.57250(15)
N1 N 0.66601(17) -0.31058(17) 0.70410(16)
C1 C 0.07077(17) 0.34171(16) 0.78518(16)
C2 C 0.24512(16) 0.38130(15) 0.69516(15)
H1 H 0.28040 0.32850 0.62660
C3 C 0.34121(16) 0.31308(15) 0.80800(16)
H2 H 0.45520 0.32080 0.75330
H3 H 0.31840 0.37280 0.86850
C4 C 0.29885(15) 0.14444(15) 0.91054(15)
C5 C 0.17726(16) 0.10257(16) 1.03966(15)
H4 H 0.15530 -0.00290 1.08900
C6 C 0.07060(18) 0.20179(17) 1.11679(16)
H5 H 0.13820 0.27770 1.11080
C7 C -0.05667(18) 0.28941(18) 1.04340(17)
H6 H -0.11980 0.21760 1.03980
H7 H -0.12830 0.34430 1.10130
C8 C -0.0104(2) 0.1019(2) 1.28320(19)
H8 H 0.07010 0.04650 1.32950
H9 H -0.08080 0.02940 1.29160
H10 H -0.07120 0.16710 1.33280
C9 C 0.27099(18) 0.55459(16) 0.60093(16)
C10 C 0.1789(2) 0.62969(19) 0.49196(19)
H11 H 0.20400 0.73800 0.43860
H12 H 0.06600 0.61750 0.54520
H13 H 0.20740 0.58200 0.42170
C11 C 0.39305(15) 0.02567(15) 0.85753(14)
C12 C 0.48403(18) 0.06499(17) 0.70652(16)
H14 H 0.48450 0.16750 0.63820
C13 C 0.57278(18) -0.04316(18) 0.65601(17)
H15 H 0.63320 -0.01420 0.55520
C14 C 0.57076(16) -0.19492(17) 0.75702(16)
C15 C 0.48377(17) -0.23988(16) 0.90678(16)
H16 H 0.48340 -0.34300 0.97370
C16 C 0.39726(16) -0.12978(16) 0.95601(15)
H17 H 0.34000 -0.15960 1.05760
#END
