
#######################################################################
#
#                 Cambridge Crystallographic Data Centre
#                                CCDC
#
#######################################################################
#
# If this CIF has been generated from an entry in the Cambridge
# Structural Database, then it will include bibliographic, chemical,
# crystal, experimental, refinement or atomic coordinate data resulting
# from the CCDC's data processing and validation procedures.
#
#######################################################################

data_CSD_CIF_OXAJOO
_audit_creation_date 2016-10-17
_audit_creation_method CSD-ConQuest-V1
_database_code_CSD OXAJOO
_database_code_depnum_ccdc_archive 'CCDC 1510259'
_chemical_formula_sum 'C14 H18 N4 O3'
_chemical_formula_moiety
;
C14 H18 N4 O3
;
_journal_coden_Cambridge 35
_journal_volume 81
_journal_year 2016
_journal_page_first 9138
_journal_name_full 'J.Org.Chem. '
loop_
_publ_author_name
"S.Nourian"
"Z.A.Zilber"
"J.P.Toscano"
_chemical_name_systematic
;
1-(3,4-dimethyl-5-oxo-1-phenyl-4,5-dihydro-1H-pyrazol-4-yl)-1-hydroxy-3,3-dime
thylurea
;
_cell_volume   1532.646
_exptl_crystal_colour 'colorless'
_exptl_crystal_density_diffrn 1.258
_exptl_crystal_description 'needle'
_diffrn_ambient_temperature 110
#These two values have been output from a single CSD field.
_refine_ls_R_factor_gt 0.0404
_refine_ls_wR_factor_gt 0.0404
_symmetry_cell_setting triclinic
_symmetry_space_group_name_H-M 'P -1'
_symmetry_Int_Tables_number 2
loop_
_symmetry_equiv_pos_site_id
_symmetry_equiv_pos_as_xyz
1 x,y,z
2 -x,-y,-z
_cell_length_a 10.8050(3)
_cell_length_b 11.4659(3)
_cell_length_c 13.3709(4)
_cell_angle_alpha 111.885(3)
_cell_angle_beta 90.695(2)
_cell_angle_gamma 93.750(2)
_cell_formula_units_Z 4
loop_
_atom_type_symbol
_atom_type_radius_bond
C 0.68
H 0.23
N 0.68
O 0.68
loop_
_atom_site_label
_atom_site_type_symbol
_atom_site_fract_x
_atom_site_fract_y
_atom_site_fract_z
C1 C 0.22021(18) 0.52288(19) 0.26256(14)
H1 H 0.20880 0.51440 0.32990
C2 C 0.1315(2) 0.5752(3) 0.22001(17)
H2 H 0.05890 0.60220 0.25880
C3 C 0.1462(2) 0.5890(2) 0.12259(16)
H3 H 0.08470 0.62530 0.09460
C4 C 0.25110(17) 0.54950(16) 0.06681(14)
H4 H 0.26210 0.55890 -0.00020
C5 C 0.34152(15) 0.49592(14) 0.10691(13)
H5 H 0.41340 0.46830 0.06720
C6 C 0.32614(14) 0.48294(12) 0.20547(12)
C7 C 0.51807(13) 0.36846(12) 0.19987(11)
C8 C 0.57383(12) 0.31722(12) 0.2793(1)
C9 C 0.47562(12) 0.34602(12) 0.36304(10)
C10 C 0.69674(13) 0.39448(14) 0.32584(13)
H6 H 0.73200 0.36660 0.38030
H7 H 0.68180 0.48400 0.35920
H8 H 0.75500 0.38220 0.26780
C11 C 0.47421(14) 0.30523(14) 0.45609(11)
H9 H 0.39890 0.33100 0.49620
H10 H 0.54740 0.34440 0.50370
H11 H 0.47540 0.21330 0.42990
C12 C 0.49058(11) 0.10409(12) 0.17499(10)
C13 C 0.39181(13) -0.10489(13) 0.08943(12)
H12 H 0.31830 -0.05970 0.11830
H13 H 0.39520 -0.17680 0.11200
H14 H 0.38710 -0.13520 0.01050
C14 C 0.62095(12) -0.07769(13) 0.10591(11)
H15 H 0.68620 -0.01380 0.10660
H16 H 0.61410 -0.14560 0.03450
H17 H 0.64190 -0.11230 0.16030
N1 N 0.41722(11) 0.42975(10) 0.24934(9)
N2 N 0.39230(11) 0.41223(10) 0.34688(9)
N3 N 0.59705(10) 0.18379(10) 0.22383(9)
N4 N 0.50296(10) -0.02017(10) 0.13027(9)
O1 O 0.56082(10) 0.36364(9) 0.11469(8)
O2 O 0.66235(9) 0.14068(9) 0.29497(7)
H18 H 0.7413(17) 0.1306(17) 0.2695(14)
O3 O 0.39220(8) 0.15230(9) 0.17052(7)
C15 C 0.32671(13) 0.06003(14) 0.61169(11)
H19 H 0.31660 -0.02560 0.56360
C16 C 0.44281(15) 0.12527(16) 0.62990(12)
H20 H 0.51210 0.08390 0.59390
C17 C 0.45875(16) 0.24930(17) 0.69959(13)
H21 H 0.53890 0.29270 0.71300
C18 C 0.35699(18) 0.31030(15) 0.74999(14)
H22 H 0.36770 0.39630 0.79720
C19 C 0.23914(16) 0.24745(14) 0.73255(12)
H23 H 0.16960 0.29030 0.76660
C20 C 0.22482(13) 0.12088(13) 0.66441(11)
C21 C 0.02050(13) 0.06838(13) 0.72900(11)
C22 C -0.07092(12) -0.04824(14) 0.68457(11)
C23 C -0.00334(13) -0.12806(14) 0.58748(11)
C24 C -0.19186(14) -0.00686(18) 0.65137(13)
H24 H -0.25170 -0.08030 0.62040
H25 H -0.17480 0.03070 0.59760
H26 H -0.22640 0.05540 0.71490
C25 C -0.04481(16) -0.25861(16) 0.51448(13)
H27 H 0.01510 -0.28960 0.45780
H28 H -0.12640 -0.25900 0.48150
H29 H -0.05040 -0.31340 0.55590
C26 C 0.01050(12) -0.12734(12) 0.81559(10)
C27 C -0.12731(13) -0.18162(16) 0.94135(11)
H30 H -0.18050 -0.12040 0.93140
H31 H -0.11310 -0.16220 1.01860
H32 H -0.16800 -0.26670 0.90720
C28 C 0.09619(13) -0.21681(16) 0.93615(12)
H33 H 0.17170 -0.20640 0.89940
H34 H 0.07970 -0.30580 0.92530
H35 H 0.10750 -0.16630 1.01350
N5 N 0.10839(11) 0.05172(11) 0.65143(9)
N6 N 0.09396(11) -0.06984(11) 0.56958(9)
N7 N -0.09647(10) -0.10083(11) 0.76800(9)
N8 N -0.00825(10) -0.17489(11) 0.89183(9)
O4 O 0.01357(10) 0.15931(10) 0.81143(8)
O5 O -0.18038(9) -0.21066(10) 0.72401(8)
H36 H -0.2570(18) -0.1871(18) 0.7590(16)
O6 O 0.11431(8) -0.09907(10) 0.78971(8)
#END
