
#######################################################################
#
#                 Cambridge Crystallographic Data Centre
#                                CCDC
#
#######################################################################
#
# If this CIF has been generated from an entry in the Cambridge
# Structural Database, then it will include bibliographic, chemical,
# crystal, experimental, refinement or atomic coordinate data resulting
# from the CCDC's data processing and validation procedures.
#
#######################################################################

data_CSD_CIF_OXAJII
_audit_creation_date 2016-10-17
_audit_creation_method CSD-ConQuest-V1
_database_code_CSD OXAJII
_database_code_depnum_ccdc_archive 'CCDC 1510258'
_chemical_formula_sum 'C10 H16 N4 O5'
_chemical_formula_moiety
;
C10 H16 N4 O5
;
_journal_coden_Cambridge 35
_journal_volume 81
_journal_year 2016
_journal_page_first 9138
_journal_name_full 'J.Org.Chem. '
loop_
_publ_author_name
"S.Nourian"
"Z.A.Zilber"
"J.P.Toscano"
_chemical_name_systematic
;
methyl 
hydroxy(4-(N-methoxyethanimidoyl)-1,3-dimethyl-5-oxo-4,5-dihydro-1H-pyrazol-4-
yl)carbamate
;
_cell_volume    652.390
_exptl_crystal_colour 'colorless'
_exptl_crystal_density_diffrn 1.386
_exptl_special_details
;
Absolute configuration

;
_exptl_crystal_description 'rod'
_diffrn_ambient_temperature 110
#These two values have been output from a single CSD field.
_refine_ls_R_factor_gt 0.0251
_refine_ls_wR_factor_gt 0.0251
_symmetry_cell_setting monoclinic
_symmetry_space_group_name_H-M 'P 21'
_symmetry_Int_Tables_number 4
loop_
_symmetry_equiv_pos_site_id
_symmetry_equiv_pos_as_xyz
1 x,y,z
2 -x,1/2+y,-z
_cell_length_a 9.44384(14)
_cell_length_b 6.72231(9)
_cell_length_c 10.34284(17)
_cell_angle_alpha 90
_cell_angle_beta 96.4986(14)
_cell_angle_gamma 90
_cell_formula_units_Z 2
loop_
_atom_type_symbol
_atom_type_radius_bond
C 0.68
H 0.23
N 0.68
O 0.68
loop_
_atom_site_label
_atom_site_type_symbol
_atom_site_fract_x
_atom_site_fract_y
_atom_site_fract_z
C1 C 0.2668(2) 0.5797(3) 0.74799(17)
H1 H 0.22230 0.45270 0.72030
H2 H 0.24590 0.61070 0.83650
H3 H 0.37020 0.57010 0.74670
C2 C 0.19936(19) 0.8137(3) 0.45113(17)
C3 C 0.1085(2) 0.9901(3) 0.47231(19)
H4 H 0.03360 0.95110 0.52550
H5 H 0.06500 1.04030 0.38810
H6 H 0.16750 1.09450 0.51720
C4 C 0.23269(18) 0.7589(3) 0.31488(16)
C5 C 0.33364(19) 0.5834(3) 0.31600(16)
C6 C 0.09629(19) 0.6656(3) 0.24067(17)
C7 C 0.48802(19) 0.5894(3) 0.36512(18)
H7 H 0.49910 0.60200 0.46010
H8 H 0.53270 0.70370 0.32710
H9 H 0.53390 0.46650 0.34050
C8 C 0.0465(2) 0.3349(3) 0.1387(2)
H10 H -0.05340 0.37710 0.12520
H11 H 0.05210 0.19930 0.17370
H12 H 0.08700 0.33800 0.05560
C9 C 0.29927(19) 0.9070(3) 0.11676(17)
C10 C 0.3861(3) 1.0553(4) -0.0636(2)
H13 H 0.42970 0.92910 -0.08540
H14 H 0.44670 1.16590 -0.08550
H15 H 0.29180 1.06770 -0.11330
N1 N 0.24944(15) 0.6883(2) 0.53705(14)
N2 N 0.27139(16) 0.4266(2) 0.26820(14)
N3 N 0.12623(16) 0.4687(2) 0.23023(15)
N4 N 0.27529(16) 0.9331(2) 0.24527(14)
O1 O 0.21106(14) 0.7346(2) 0.66081(12)
H16 H 0.343(3) 1.179(5) 0.304(3)
O2 O -0.01569(14) 0.7485(2) 0.20549(13)
O3 O 0.37440(14) 1.05322(19) 0.32218(12)
O4 O 0.25212(14) 0.7667(2) 0.05248(12)
O5 O 0.37171(15) 1.0598(2) 0.07454(13)
#END
