
#######################################################################
#
#                 Cambridge Crystallographic Data Centre
#                                CCDC
#
#######################################################################
#
# If this CIF has been generated from an entry in the Cambridge
# Structural Database, then it will include bibliographic, chemical,
# crystal, experimental, refinement or atomic coordinate data resulting
# from the CCDC's data processing and validation procedures.
#
#######################################################################

data_CSD_CIF_OXAJAA
_audit_creation_date 2016-10-17
_audit_creation_method CSD-ConQuest-V1
_database_code_CSD OXAJAA
_database_code_depnum_ccdc_archive 'CCDC 1510256'
_chemical_formula_sum 'C10 H16 N4 O4'
_chemical_formula_moiety
;
C10 H16 N4 O4
;
_journal_coden_Cambridge 35
_journal_volume 81
_journal_year 2016
_journal_page_first 9138
_journal_name_full 'J.Org.Chem. '
loop_
_publ_author_name
"S.Nourian"
"Z.A.Zilber"
"J.P.Toscano"
_chemical_name_systematic
;
N-hydroxy-N-(4-(N-methoxyethanimidoyl)-1,3-dimethyl-5-oxo-4,5-dihydro-1H-pyraz
ol-4-yl)acetamide
;
_cell_volume   1291.925
_exptl_crystal_colour 'colorless'
_exptl_crystal_density_diffrn 1.318
_exptl_crystal_description 'irregular lath'
_diffrn_ambient_temperature 110
#These two values have been output from a single CSD field.
_refine_ls_R_factor_gt 0.0283
_refine_ls_wR_factor_gt 0.0283
_symmetry_cell_setting orthorhombic
_symmetry_space_group_name_H-M 'P n a 21'
_symmetry_Int_Tables_number 33
loop_
_symmetry_equiv_pos_site_id
_symmetry_equiv_pos_as_xyz
1 x,y,z
2 -x,-y,1/2+z
3 1/2-x,1/2+y,1/2+z
4 1/2+x,1/2-y,z
_cell_length_a 9.49728(11)
_cell_length_b 21.3932(2)
_cell_length_c 6.35861(9)
_cell_angle_alpha 90
_cell_angle_beta 90
_cell_angle_gamma 90
_cell_formula_units_Z 4
loop_
_atom_type_symbol
_atom_type_radius_bond
C 0.68
H 0.23
N 0.68
O 0.68
loop_
_atom_site_label
_atom_site_type_symbol
_atom_site_fract_x
_atom_site_fract_y
_atom_site_fract_z
C1 C 0.4040(2) 0.54508(9) 0.3960(4)
H1 H 0.41700 0.55740 0.24890
H2 H 0.48010 0.56270 0.48150
H3 H 0.31330 0.56090 0.44690
C2 C 0.29414(19) 0.39500(9) 0.2968(3)
C3 C 0.3947(2) 0.35481(9) 0.4179(4)
H4 H 0.49130 0.36400 0.37330
H5 H 0.37360 0.31070 0.39100
H6 H 0.38490 0.36350 0.56850
C4 C 0.17136(18) 0.36463(8) 0.1822(3)
C5 C 0.08101(19) 0.40881(8) 0.0540(3)
C6 C 0.0643(2) 0.34526(9) 0.3565(3)
C7 C 0.1243(2) 0.43664(9) -0.1501(4)
H7 H 0.14080 0.40320 -0.25260
H8 H 0.21110 0.46070 -0.13060
H9 H 0.04960 0.46430 -0.20160
C8 C -0.1785(3) 0.37975(14) 0.4386(6)
H10 H -0.24170 0.34990 0.37000
H11 H -0.22250 0.42120 0.44050
H12 H -0.16000 0.36620 0.58320
C9 C 0.13421(19) 0.26592(8) -0.0078(3)
C10 C 0.1931(2) 0.21819(8) -0.1546(3)
H13 H 0.11850 0.18910 -0.19660
H14 H 0.26860 0.19500 -0.08400
H15 H 0.23100 0.23910 -0.27960
N1 N 0.29540(17) 0.45459(7) 0.2876(3)
N2 N -0.04101(18) 0.41703(7) 0.1348(3)
N3 N -0.04703(17) 0.38281(8) 0.3236(3)
N4 N 0.22103(15) 0.31156(7) 0.0600(3)
O1 O 0.40619(15) 0.47845(6) 0.4118(3)
O2 O 0.08181(15) 0.30875(7) 0.5004(3)
O3 O 0.34457(13) 0.32386(6) -0.0533(2)
H16 H 0.404(3) 0.2973(14) -0.012(5)
O4 O 0.01245(14) 0.26467(6) 0.0625(3)
#END
