
#######################################################################
#
#                 Cambridge Crystallographic Data Centre
#                                CCDC
#
#######################################################################
#
# If this CIF has been generated from an entry in the Cambridge
# Structural Database, then it will include bibliographic, chemical,
# crystal, experimental, refinement or atomic coordinate data resulting
# from the CCDC's data processing and validation procedures.
#
#######################################################################

data_CSD_CIF_OXAKAB
_audit_creation_date 2016-10-17
_audit_creation_method CSD-ConQuest-V1
_database_code_CSD OXAKAB
_database_code_depnum_ccdc_archive 'CCDC 1510275'
_chemical_formula_sum 'C22 H16 N2 O2'
_chemical_formula_moiety
;
C22 H16 N2 O2
;
_journal_coden_Cambridge 35
_journal_volume 81
_journal_year 2016
_journal_page_first 9188
_journal_name_full 'J.Org.Chem. '
loop_
_publ_author_name
"B.Pigulski"
"A.Arendt"
"D.N.Tomilin"
"L.N.Sobenina"
"B.A.Trofimov"
"S.Szafert"
_chemical_name_systematic
;
2-(6-(4-nitrophenyl)hexa-1,3,5-triyn-1-yl)-1-vinyl-4,5,6,7-tetrahydro-1H-indol
e
;
_cell_volume    847.168
_exptl_crystal_colour 'red'
_exptl_crystal_density_diffrn 1.334
_exptl_crystal_description 'plates'
_diffrn_ambient_temperature 100
#These two values have been output from a single CSD field.
_refine_ls_R_factor_gt 0.0749
_refine_ls_wR_factor_gt 0.0749
_symmetry_cell_setting triclinic
_symmetry_space_group_name_H-M 'P -1'
_symmetry_Int_Tables_number 2
loop_
_symmetry_equiv_pos_site_id
_symmetry_equiv_pos_as_xyz
1 x,y,z
2 -x,-y,-z
_cell_length_a 7.011(2)
_cell_length_b 8.377(2)
_cell_length_c 15.363(5)
_cell_angle_alpha 100.03(3)
_cell_angle_beta 94.52(3)
_cell_angle_gamma 105.83(3)
_cell_formula_units_Z 2
loop_
_atom_type_symbol
_atom_type_radius_bond
C 0.68
H 0.23
N 0.68
O 0.68
loop_
_atom_site_label
_atom_site_type_symbol
_atom_site_fract_x
_atom_site_fract_y
_atom_site_fract_z
O1 O 0.1679(4) 0.3262(3) 0.37332(17)
O2 O 0.0922(4) 0.1288(4) 0.25327(19)
N1 N 0.2820(4) 1.4273(3) -0.29883(18)
N2 N 0.1391(4) 0.2789(4) 0.2914(2)
C1 C 0.2305(5) 0.8843(4) 0.0365(2)
C2 C 0.2491(5) 1.0049(4) -0.0146(2)
C3 C 0.2137(5) 0.7776(4) 0.0811(2)
C4 C 0.2646(5) 1.1120(4) -0.0592(2)
C5 C 0.2957(5) 1.3421(4) -0.1531(2)
C6 C 0.1519(5) 0.3604(4) 0.1459(2)
H1 H 0.13420 0.24530 0.11920
C7 C 0.1945(5) 0.6506(4) 0.1340(2)
C8 C 0.2815(5) 1.2341(5) -0.1092(2)
C9 C 0.1719(5) 0.4821(4) 0.0947(2)
H2 H 0.17030 0.45110 0.03210
C10 C 0.3149(5) 1.5785(4) -0.3298(2)
C11 C 0.3665(5) 1.6427(4) -0.1792(2)
H3 H 0.39770 1.70530 -0.11950
C12 C 0.1976(5) 0.6956(4) 0.2275(2)
H4 H 0.21000 0.80940 0.25490
C13 C 0.1826(5) 0.5743(4) 0.2783(2)
H5 H 0.18890 0.60390 0.34130
C14 C 0.3133(5) 1.4692(4) -0.2051(2)
C15 C 0.4672(5) 1.9043(4) -0.3615(2)
H6 H 0.47800 2.02010 -0.37110
H7 H 0.59780 1.88280 -0.36830
C16 C 0.2949(5) 1.5933(4) -0.4251(2)
H8 H 0.16540 1.51580 -0.45670
H9 H 0.40350 1.56030 -0.45410
C17 C 0.2194(5) 1.2586(4) -0.3469(2)
H10 H 0.17400 1.17430 -0.31310
C18 C 0.1583(5) 0.4095(4) 0.2369(2)
C19 C 0.3060(5) 1.7761(4) -0.4312(2)
H11 H 0.33460 1.79390 -0.49140
H12 H 0.17470 1.79500 -0.42260
C20 C 0.3667(5) 1.7114(4) -0.2568(2)
C21 C 0.4175(5) 1.8920(4) -0.2665(2)
H13 H 0.53390 1.96110 -0.22230
H14 H 0.30300 1.93670 -0.25510
C22 C 0.2159(7) 1.2036(5) -0.4318(3)
H15 H 0.25940 1.28160 -0.46940
H16 H 0.16980 1.08540 -0.45630
#END
