
#######################################################################
#
#                 Cambridge Crystallographic Data Centre
#                                CCDC
#
#######################################################################
#
# If this CIF has been generated from an entry in the Cambridge
# Structural Database, then it will include bibliographic, chemical,
# crystal, experimental, refinement or atomic coordinate data resulting
# from the CCDC's data processing and validation procedures.
#
#######################################################################

data_CSD_CIF_OXAKEF
_audit_creation_date 2016-10-17
_audit_creation_method CSD-ConQuest-V1
_database_code_CSD OXAKEF
_database_code_depnum_ccdc_archive 'CCDC 1510276'
_chemical_formula_sum 'C27 H20 N2 O2'
_chemical_formula_moiety
;
C27 H20 N2 O2
;
_journal_coden_Cambridge 35
_journal_volume 81
_journal_year 2016
_journal_page_first 9188
_journal_name_full 'J.Org.Chem. '
loop_
_publ_author_name
"B.Pigulski"
"A.Arendt"
"D.N.Tomilin"
"L.N.Sobenina"
"B.A.Trofimov"
"S.Szafert"
_chemical_name_systematic
;
1-benzyl-2-(6-(4-nitrophenyl)hexa-1,3,5-triyn-1-yl)-4,5,6,7-tetrahydro-1H-indo
le
;
_cell_volume   4028.912
_exptl_crystal_colour 'red'
_exptl_crystal_density_diffrn 1.334
_exptl_crystal_description 'plates'
_diffrn_ambient_temperature 100
#These two values have been output from a single CSD field.
_refine_ls_R_factor_gt 0.0442
_refine_ls_wR_factor_gt 0.0442
_symmetry_cell_setting monoclinic
_symmetry_space_group_name_H-M 'C 2/c'
_symmetry_Int_Tables_number 15
loop_
_symmetry_equiv_pos_site_id
_symmetry_equiv_pos_as_xyz
1 x,y,z
2 -x,y,1/2-z
3 1/2+x,1/2+y,z
4 1/2-x,1/2+y,1/2-z
5 -x,-y,-z
6 x,-y,-1/2+z
7 -1/2-x,-1/2-y,-z
8 -1/2+x,-1/2-y,-1/2+z
_cell_length_a 19.946(6)
_cell_length_b 13.024(4)
_cell_length_c 18.084(6)
_cell_angle_alpha 90
_cell_angle_beta 120.95(3)
_cell_angle_gamma 90
_cell_formula_units_Z 8
loop_
_atom_type_symbol
_atom_type_radius_bond
C 0.68
H 0.23
N 0.68
O 0.68
loop_
_atom_site_label
_atom_site_type_symbol
_atom_site_fract_x
_atom_site_fract_y
_atom_site_fract_z
N1 N 0.31484(6) 0.47086(8) 0.62538(7)
C1 C 0.24845(8) 0.56846(10) 0.49116(9)
O1 O -0.27118(6) 0.61786(10) -0.31542(7)
C2 C 0.30193(7) 0.56238(9) 0.58135(8)
C3 C 0.20056(8) 0.57106(10) 0.41322(9)
C4 C 0.34819(8) 0.63787(10) 0.64225(8)
H1 H 0.35060 0.70830 0.63020
C5 C 0.36865(7) 0.48872(10) 0.71184(8)
C6 C 0.14343(8) 0.5760(1) 0.32658(8)
O2 O -0.28526(6) 0.77277(9) -0.28329(7)
N2 N -0.25557(7) 0.68588(10) -0.26312(8)
C7 C 0.39027(7) 0.59116(9) 0.72415(8)
C8 C 0.03056(8) 0.59252(10) 0.16461(9)
C9 C 0.09112(8) 0.58237(10) 0.25038(9)
C10 C -0.11717(8) 0.72058(10) -0.02605(9)
H2 H -0.10010 0.77420 0.01540
C11 C 0.27991(8) 0.37074(9) 0.58552(8)
H3 H 0.23480 0.38180 0.52660
H4 H 0.26080 0.33580 0.61980
C12 C 0.33980(7) 0.30445(9) 0.58164(8)
C13 C -0.11262(8) 0.54255(10) -0.06086(9)
H5 H -0.09310 0.47480 -0.04390
C14 C -0.08520(8) 0.62152(10) 0.00045(8)
C15 C 0.37619(8) 0.21954(10) 0.63592(9)
H6 H 0.36120 0.20150 0.67630
C16 C 0.35963(8) 0.32728(10) 0.52322(9)
H7 H 0.33550 0.38290 0.48430
C17 C 0.49273(8) 0.54841(10) 0.87867(8)
H8 H 0.53370 0.51880 0.86960
H9 H 0.51830 0.57630 0.93800
C18 C -0.16896(8) 0.56337(11) -0.14737(9)
H10 H -0.18730 0.51010 -0.18920
C19 C 0.43281(9) 0.16112(10) 0.63309(9)
H11 H 0.45620 0.10430 0.67070
C20 C 0.44915(8) 0.63523(10) 0.81255(8)
H12 H 0.42150 0.67920 0.83310
H13 H 0.48750 0.67850 0.80760
C21 C -0.19760(8) 0.66284(11) -0.17123(8)
C22 C -0.02342(8) 0.60293(10) 0.08941(9)
C23 C 0.39733(8) 0.40986(10) 0.78084(8)
H14 H 0.43670 0.36550 0.77890
H15 H 0.35340 0.36620 0.77270
C24 C -0.17365(8) 0.74178(11) -0.11218(9)
H16 H -0.19490 0.80880 -0.12940
C25 C 0.43367(8) 0.46477(10) 0.86697(8)
H17 H 0.46040 0.41360 0.91370
H18 H 0.39150 0.49650 0.87280
C26 C 0.41607(8) 0.26816(11) 0.52067(9)
H19 H 0.42980 0.28410 0.47880
C27 C 0.45376(8) 0.18627(11) 0.57665(9)
H20 H 0.49370 0.14920 0.57440
#END
