
#######################################################################
#
#                 Cambridge Crystallographic Data Centre
#                                CCDC
#
#######################################################################
#
# If this CIF has been generated from an entry in the Cambridge
# Structural Database, then it will include bibliographic, chemical,
# crystal, experimental, refinement or atomic coordinate data resulting
# from the CCDC's data processing and validation procedures.
#
#######################################################################

data_CSD_CIF_OXALIN01
_audit_creation_date 2012-07-10
_audit_creation_method CSD-ConQuest-V1
_database_code_CSD OXALIN01
_database_code_depnum_ccdc_archive 'CCDC 860064'
_chemical_formula_sum 'C24 H25 N5 O4'
_chemical_formula_moiety
;
C24 H25 N5 O4
;
_journal_coeditor_code "IUCr HB6738"
_journal_coden_Cambridge 1370
_journal_volume 68
_journal_year 2012
_journal_page_first o1626
_journal_name_full 'Acta Crystallogr.,Sect.E:Struct.Rep.Online '
loop_
_publ_author_name
"Peng Qu"
"Zhi-Yong Wu"
"Wei-Ming Zhu"
_chemical_name_systematic
;
3-(1H-Imidazol-5-ylmethylene)-6,12-dimethoxy-7a-(2-methylbut-3-en-2-yl)-7a,12-
dihydro-1H,5H-imidazo[1',2':1,2]pyrido[2,3-b]indole-2,5(3H)-dione
;
_chemical_name_common
;
oxaline
;
_cell_volume   2235.738
_exptl_crystal_colour 'colorless'
_exptl_crystal_density_diffrn 1.329
_exptl_crystal_description 'block'
_diffrn_ambient_temperature 100
#These two values have been output from a single CSD field.
_refine_ls_R_factor_gt 0.0349
_refine_ls_wR_factor_gt 0.0349
_symmetry_cell_setting orthorhombic
_symmetry_space_group_name_H-M 'P 21 21 21'
_symmetry_Int_Tables_number 19
loop_
_symmetry_equiv_pos_site_id
_symmetry_equiv_pos_as_xyz
1 x,y,z
2 1/2+x,1/2-y,-z
3 -x,1/2+y,1/2-z
4 1/2-x,-y,1/2+z
_cell_length_a 10.7897(2)
_cell_length_b 13.2457(3)
_cell_length_c 15.6436(4)
_cell_angle_alpha 90
_cell_angle_beta 90
_cell_angle_gamma 90
_cell_formula_units_Z 4
loop_
_atom_type_symbol
_atom_type_radius_bond
C 0.68
H 0.23
N 0.68
O 0.68
loop_
_atom_site_label
_atom_site_type_symbol
_atom_site_fract_x
_atom_site_fract_y
_atom_site_fract_z
C1 C 0.32699(15) 0.27923(12) 0.80027(10)
C2 C 0.26044(15) 0.37581(12) 0.7665(1)
C3 C 0.33279(15) 0.39156(12) 0.68341(11)
C4 C 0.30763(17) 0.44534(13) 0.60975(11)
C5 C 0.39516(18) 0.44605(14) 0.54394(11)
C6 C 0.50732(17) 0.39574(14) 0.55266(12)
C7 C 0.53572(16) 0.34468(13) 0.62767(11)
C8 C 0.44724(15) 0.34255(12) 0.69104(10)
C9 C 0.29907(16) 0.46075(12) 0.82645(11)
C10 C 0.34100(16) 0.44460(12) 0.90560(11)
C11 C 0.33551(16) 0.34357(13) 0.94788(11)
C12 C 0.28689(15) 0.16359(13) 0.91257(11)
C13 C 0.26417(14) 0.11484(12) 0.82818(10)
C14 C 0.27783(15) 0.12521(13) 0.99230(11)
C15 C 0.24075(15) 0.02576(13) 1.01914(10)
C16 C 0.18204(17) -0.13354(13) 1.01993(11)
C17 C 0.24315(17) -0.01288(13) 1.10109(11)
C18 C 0.11422(16) 0.36829(14) 0.75912(12)
C19 C 0.07620(17) 0.30327(15) 0.68323(13)
C20 C -0.0179(2) 0.23927(19) 0.68053(16)
H1 H -0.06940 0.23060 0.72930
H2 H -0.03410 0.20200 0.62990
C21 C 0.06073(19) 0.47547(16) 0.74467(14)
C22 C 0.05692(16) 0.32850(15) 0.84208(12)
H3 H -0.03300 0.33870 0.84070
H4 H 0.09210 0.36500 0.89080
H5 H 0.07500 0.25630 0.84780
C23 C 0.38241(19) 0.61629(14) 0.92987(12)
C24 C 0.62470(18) 0.21991(16) 0.83731(13)
N1 N 0.45699(13) 0.29884(10) 0.77360(9)
N2 N 0.32034(13) 0.26396(10) 0.89240(9)
N3 N 0.28079(13) 0.18525(10) 0.76808(9)
N4 N 0.19945(13) -0.05261(11) 0.96885(9)
N5 N 0.20655(14) -0.11236(11) 1.10046(9)
O1 O 0.52932(11) 0.20898(8) 0.77451(8)
O2 O 0.38366(12) 0.51505(9) 0.96104(8)
O3 O 0.33924(13) 0.33375(10) 1.02538(8)
O4 O 0.23426(11) 0.02613(9) 0.81455(7)
H6 H 0.230(2) 0.4816(18) 0.6029(14)
H7 H 0.3779(19) 0.4836(16) 0.4900(13)
H8 H 0.5638(17) 0.3927(14) 0.5057(12)
H9 H 0.613(2) 0.3112(16) 0.6374(13)
H10 H 0.2979(17) 0.5235(15) 0.8010(12)
H11 H 0.284(2) 0.1668(17) 0.7172(15)
H12 H 0.3009(18) 0.1647(16) 1.0401(13)
H13 H 0.198(2) -0.0459(17) 0.9125(15)
H14 H 0.1494(17) -0.1977(14) 0.9977(12)
H15 H 0.269(2) 0.0184(16) 1.1564(14)
H16 H 0.118(3) 0.318(2) 0.6324(17)
H17 H 0.095(2) 0.5062(18) 0.6938(15)
H18 H 0.080(2) 0.522(2) 0.7904(16)
H19 H -0.028(3) 0.4672(19) 0.7331(16)
H20 H 0.4374(17) 0.6236(14) 0.8794(12)
H21 H 0.412(2) 0.6584(18) 0.9782(16)
H22 H 0.294(2) 0.6392(17) 0.9142(14)
H23 H 0.676(2) 0.2766(19) 0.8265(15)
H24 H 0.668(2) 0.1612(18) 0.8349(15)
H25 H 0.590(2) 0.2315(17) 0.8929(14)
#END
