
#######################################################################
#
#                 Cambridge Crystallographic Data Centre
#                                CCDC
#
#######################################################################
#
# If this CIF has been generated from an entry in the Cambridge
# Structural Database, then it will include bibliographic, chemical,
# crystal, experimental, refinement or atomic coordinate data resulting
# from the CCDC's data processing and validation procedures.
#
#######################################################################

data_CSD_CIF_OXALIN02
_audit_creation_date 2015-07-07
_audit_creation_method CSD-ConQuest-V1
_database_code_CSD OXALIN02
_database_code_depnum_ccdc_archive 'CCDC 1055032'
_chemical_formula_sum 'C24 H25 N5 O4'
_chemical_formula_moiety
;
C24 H25 N5 O4
;
_journal_coden_Cambridge 1220
_journal_volume 21
_journal_year 2015
_journal_page_first 11855
_journal_name_full 'Chem.-Eur.J. '
loop_
_publ_author_name
"T.Yamada"
"T.Ideguchi-Matsushita"
"T.Hirose"
"T.Shirahata"
"R.Hokari"
"A.Ishiyama"
"M.Iwatsuki"
"A.Sugawara"
"Y.Kobayashi"
"K.Otoguro"
"S.Omura"
"T.Sunazuka"
_chemical_name_systematic
;
3-(1H-imidazol-5-ylmethylene)-6,12-dimethoxy-7a-(2-methylbut-3-en-2-yl)-7a,12-
dihydro-1H,5H-imidazo[1',2':1,2]pyrido[2,3-b]indole-2,5(3H)-dione
;
_chemical_name_common
;
Oxaline
;
_cell_volume   2246.282
_exptl_crystal_colour 'colorless'
_exptl_crystal_density_diffrn 1.323
_diffrn_ambient_temperature 93
#These two values have been output from a single CSD field.
_refine_ls_R_factor_gt 0.0612
_refine_ls_wR_factor_gt 0.0612
_symmetry_cell_setting orthorhombic
_symmetry_space_group_name_H-M 'P 21 21 21'
_symmetry_Int_Tables_number 19
loop_
_symmetry_equiv_pos_site_id
_symmetry_equiv_pos_as_xyz
1 x,y,z
2 1/2+x,1/2-y,-z
3 -x,1/2+y,1/2-z
4 1/2-x,-y,1/2+z
_cell_length_a 10.8271(2)
_cell_length_b 13.2533(3)
_cell_length_c 15.6541(3)
_cell_angle_alpha 90
_cell_angle_beta 90
_cell_angle_gamma 90
_cell_formula_units_Z 4
loop_
_atom_type_symbol
_atom_type_radius_bond
C 0.68
H 0.23
N 0.68
O 0.68
loop_
_atom_site_label
_atom_site_type_symbol
_atom_site_fract_x
_atom_site_fract_y
_atom_site_fract_z
O1 O 0.1158(3) 0.51471(19) 0.03828(17)
O2 O -0.0282(3) 0.20866(19) 0.22511(17)
O3 O 0.2661(3) 0.0258(2) 0.18527(17)
O4 O 0.1599(3) 0.3339(2) -0.02578(16)
N1 N 0.2197(4) 0.1851(3) 0.23154(19)
N2 N 0.2990(4) -0.0534(3) 0.0315(2)
N3 N 0.0440(4) 0.2986(3) 0.2255(2)
N4 N 0.1797(4) 0.2634(3) 0.10689(19)
N5 N 0.2928(4) -0.1135(3) -0.1008(3)
C1 C 0.0542(4) 0.3427(3) 0.3086(3)
C2 C 0.1635(4) 0.3427(3) 0.0512(3)
C3 C 0.2360(4) 0.1148(3) 0.1711(3)
C4 C 0.3166(4) -0.1347(3) -0.0198(3)
C5 C 0.1733(4) 0.2790(3) 0.1989(3)
C6 C 0.1677(4) 0.3915(3) 0.3156(3)
C7 C -0.0345(4) 0.3444(3) 0.3720(3)
C8 C 0.1588(4) 0.4448(3) 0.0942(3)
C9 C 0.2127(4) 0.1631(3) 0.0867(3)
C10 C 0.2559(5) -0.0132(3) -0.1017(3)
C11 C 0.2001(4) 0.4611(3) 0.1728(3)
C12 C 0.1936(5) 0.4446(3) 0.3894(3)
C13 C 0.2220(4) 0.1246(3) 0.0070(3)
C14 C 0.2407(4) 0.3762(3) 0.2325(3)
C15 C 0.1161(5) 0.6162(3) 0.0691(3)
C16 C 0.1052(5) 0.4455(3) 0.4553(3)
C17 C 0.4399(5) 0.4755(4) 0.2548(3)
C18 C 0.3846(4) 0.3690(3) 0.2403(3)
C19 C -0.0065(5) 0.3957(3) 0.4469(3)
C20 C 0.4442(5) 0.3289(4) 0.1570(3)
C21 C 0.4244(5) 0.3031(4) 0.3160(3)
C22 C -0.1242(5) 0.2193(4) 0.1622(3)
C23 C 0.5179(5) 0.2395(4) 0.3188(4)
C24 C 0.2584(4) 0.0252(3) -0.0196(3)
H1 H 0.34290 -0.19900 -0.00010
H2 H -0.11190 0.31180 0.36460
H3 H 0.23260 0.02350 -0.15130
H4 H 0.20470 0.52860 0.19290
H5 H 0.26950 0.47980 0.39550
H6 H 0.20170 0.16980 -0.03790
H7 H 0.20070 0.63610 0.08360
H8 H 0.06390 0.62090 0.12010
H9 H 0.08390 0.66130 0.02470
H10 H 0.12260 0.48090 0.50670
H11 H 0.53010 0.47080 0.25750
H12 H 0.40840 0.50330 0.30850
H13 H 0.41610 0.51980 0.20740
H14 H -0.06420 0.39660 0.49260
H15 H 0.41710 0.25940 0.14700
H16 H 0.53430 0.33060 0.16250
H17 H 0.41880 0.37140 0.10890
H18 H 0.37630 0.30870 0.36650
H19 H -0.08690 0.22990 0.10580
H20 H -0.17620 0.27730 0.17670
H21 H -0.17470 0.15800 0.16110
H22 H 0.56920 0.23080 0.27020
H23 H 0.53400 0.20240 0.36950
#END
