
#######################################################################
#
#                 Cambridge Crystallographic Data Centre
#                                CCDC
#
#######################################################################
#
# If this CIF has been generated from an entry in the Cambridge
# Structural Database, then it will include bibliographic, chemical,
# crystal, experimental, refinement or atomic coordinate data resulting
# from the CCDC's data processing and validation procedures.
#
#######################################################################

data_CSD_CIF_OXAMEH
_audit_creation_date 2016-10-17
_audit_creation_method CSD-ConQuest-V1
_database_code_CSD OXAMEH
_database_code_depnum_ccdc_archive 'CCDC 1473220'
_chemical_formula_sum 'C18 H18 N2 O3'
_chemical_formula_moiety
;
C18 H18 N2 O3
;
_journal_coden_Cambridge 35
_journal_volume 81
_journal_year 2016
_journal_page_first 9206
_journal_name_full 'J.Org.Chem. '
loop_
_publ_author_name
"V.Rathore"
"M.Sattar"
"R.Kumar"
"S.Kumar"
_chemical_name_systematic
;
N,N-diethyl-6-nitro-3-phenyl-1-benzofuran-2-amine
;
_cell_volume   1548.580
_exptl_crystal_colour 'colorless'
_exptl_crystal_density_diffrn 1.331
_exptl_crystal_description 'needle'
_diffrn_ambient_temperature 159.1
#These two values have been output from a single CSD field.
_refine_ls_R_factor_gt 0.0776
_refine_ls_wR_factor_gt 0.0776
_symmetry_cell_setting triclinic
_symmetry_space_group_name_H-M 'P -1'
_symmetry_Int_Tables_number 2
loop_
_symmetry_equiv_pos_site_id
_symmetry_equiv_pos_as_xyz
1 x,y,z
2 -x,-y,-z
_cell_length_a 7.2107(7)
_cell_length_b 14.9108(14)
_cell_length_c 16.2218(15)
_cell_angle_alpha 115.006(4)
_cell_angle_beta 90.240(4)
_cell_angle_gamma 100.357(4)
_cell_formula_units_Z 4
loop_
_atom_type_symbol
_atom_type_radius_bond
C 0.68
H 0.23
N 0.68
O 0.68
loop_
_atom_site_label
_atom_site_type_symbol
_atom_site_fract_x
_atom_site_fract_y
_atom_site_fract_z
O1 O 0.1469(3) -0.06658(15) 0.55628(13)
O2 O 0.4850(3) 0.26989(17) 0.57047(16)
O3 O 0.5132(4) 0.23572(18) 0.42854(17)
N1 N 0.4641(4) 0.2098(2) 0.48908(18)
N2 N 0.0112(4) -0.2249(2) 0.54208(17)
C1 C 0.3788(4) 0.1046(2) 0.4640(2)
C2 C 0.2270(4) -0.0222(2) 0.5020(2)
C3 C 0.0861(4) -0.1681(2) 0.4993(2)
C4 C 0.2163(4) -0.0955(2) 0.4118(2)
C5 C 0.2927(4) -0.0649(2) 0.3460(2)
H1 H 0.2889(4) -0.1125(2) 0.2841(2)
C6 C 0.3049(4) 0.0781(2) 0.5316(2)
H2 H 0.3082(4) 0.1260(2) 0.5934(2)
C7 C 0.1205(4) -0.1893(2) 0.4095(2)
C8 C 0.3730(4) 0.0354(2) 0.3731(2)
H3 H 0.4247(4) 0.0575(2) 0.3295(2)
C9 C -0.1248(5) -0.3356(3) 0.3028(2)
H4 H -0.2151(5) -0.3133(3) 0.3455(2)
C10 C 0.0611(5) -0.2834(2) 0.3242(2)
C11 C -0.0274(5) -0.1761(3) 0.6386(2)
H5 H -0.0674(5) -0.1120(3) 0.6501(2)
H6 H -0.1346(5) -0.2205(3) 0.6493(2)
C12 C 0.1914(5) -0.3173(3) 0.2600(2)
H7 H 0.3201(5) -0.2832(3) 0.2733(2)
C13 C 0.0234(5) -0.3319(3) 0.5044(2)
H8 H 0.0786(5) -0.3508(3) 0.4450(2)
H9 H 0.1100(5) -0.3414(3) 0.5463(2)
C14 C -0.1825(6) -0.4196(3) 0.2206(2)
H10 H -0.3105(6) -0.4548(3) 0.2077(2)
C15 C -0.0535(6) -0.4522(3) 0.1573(2)
H11 H -0.0927(6) -0.5096(3) 0.1007(2)
C16 C 0.1327(6) -0.4013(3) 0.1766(2)
H12 H 0.2213(6) -0.4235(3) 0.1328(2)
C17 C 0.1383(6) -0.1536(3) 0.7068(2)
H13 H 0.179(2) -0.2165(4) 0.6964(12)
H14 H 0.2432(14) -0.1067(15) 0.6992(12)
H15 H 0.0997(12) -0.1230(18) 0.7689(2)
C18 C -0.1639(6) -0.4010(3) 0.4908(3)
H16 H -0.2495(14) -0.3935(15) 0.4481(15)
H17 H -0.1464(8) -0.4710(3) 0.4659(18)
H18 H -0.2184(19) -0.3837(14) 0.5495(4)
O4 O 0.8159(3) 0.93532(15) 1.06049(13)
O5 O 0.7383(4) 1.26506(17) 1.05567(16)
O6 O 0.6733(4) 1.22029(18) 0.91175(17)
N3 N 0.8564(4) 0.78477(19) 1.05456(17)
N4 N 0.7029(4) 1.1995(2) 0.97585(18)
C19 C 0.7627(4) 0.9751(2) 1.0034(2)
C20 C 0.8081(4) 0.8341(2) 1.0073(2)
C21 C 0.7195(4) 0.8981(2) 0.9142(2)
C22 C 0.7570(4) 1.0742(2) 1.0284(2)
H19 H 0.7886(4) 1.1247(2) 1.0893(2)
C23 C 0.7010(4) 1.0956(2) 0.9569(2)
C24 C 0.7523(4) 0.8070(2) 0.9161(2)
C25 C 0.7249(5) 0.7102(2) 0.8333(2)
C26 C 0.6520(4) 1.0217(2) 0.8677(2)
H20 H 0.6127(4) 1.0398(2) 0.8218(2)
C27 C 0.6602(4) 0.9226(2) 0.8456(2)
H21 H 0.6262(4) 0.8720(2) 0.7849(2)
C28 C 0.9124(5) 0.8384(3) 1.1532(2)
H22 H 0.9950(5) 0.8013(3) 1.1700(2)
H23 H 0.9880(5) 0.9062(3) 1.1667(2)
C29 C 0.8712(5) 0.6587(3) 0.8000(2)
H24 H 0.9935(5) 0.6850(3) 0.8322(2)
C30 C 0.5498(5) 0.6713(3) 0.7825(2)
H25 H 0.4490(5) 0.7064(3) 0.8029(2)
C31 C 0.8406(7) 0.5692(3) 0.7204(2)
H26 H 0.9416(7) 0.5346(3) 0.6990(2)
C32 C 0.8279(5) 0.6741(2) 1.0112(2)
H27 H 0.8780(5) 0.6523(2) 0.9505(2)
H28 H 0.9021(5) 0.6527(2) 1.0487(2)
C33 C 0.7486(6) 0.8509(3) 1.2125(2)
H29 H 0.663(2) 0.8857(18) 1.1952(12)
H30 H 0.679(2) 0.7842(3) 1.2038(14)
H31 H 0.7970(6) 0.8907(17) 1.2767(3)
C34 C 0.6249(6) 0.6213(3) 0.9993(3)
H32 H 0.5511(10) 0.6396(17) 0.9600(16)
H33 H 0.6171(7) 0.5481(3) 0.9711(18)
H34 H 0.5740(13) 0.6419(17) 1.0591(4)
C35 C 0.6655(7) 0.5307(3) 0.6725(3)
H35 H 0.6444(7) 0.4687(3) 0.6189(3)
C36 C 0.5194(7) 0.5824(3) 0.7027(3)
H36 H 0.3988(7) 0.5570(3) 0.6688(3)
#END
