
#######################################################################
#
#                 Cambridge Crystallographic Data Centre
#                                CCDC
#
#######################################################################
#
# If this CIF has been generated from an entry in the Cambridge
# Structural Database, then it will include bibliographic, chemical,
# crystal, experimental, refinement or atomic coordinate data resulting
# from the CCDC's data processing and validation procedures.
#
#######################################################################

data_CSD_CIF_OXARAH
_audit_creation_date 2011-10-17
_audit_creation_method CSD-ConQuest-V1
_database_code_CSD OXARAH
_database_code_depnum_ccdc_archive 'CCDC 776612'
_chemical_formula_sum 'C19 H15 N1 O6'
_chemical_formula_moiety
;
C19 H15 N1 O6
;
_journal_coden_Cambridge 1366
_journal_volume 353
_journal_year 2011
_journal_page_first 2152
_journal_name_full 'Adv.Synth.Catal. '
loop_
_publ_author_name
"T.Mahapatra"
"N.Jana"
"S.Nanda"
_chemical_name_systematic
;
(8-Oxo-11-oxatricyclo[7.2.1.0^2,7^]dodeca-2,4,6-trien-9-yl)methyl 
4-nitrobenzoate
;
_cell_volume   1649.148
_exptl_crystal_density_diffrn 1.423
_diffrn_ambient_temperature 293
#These two values have been output from a single CSD field.
_refine_ls_R_factor_gt 0.0464
_refine_ls_wR_factor_gt 0.0464
_symmetry_cell_setting monoclinic
_symmetry_space_group_name_H-M 'P 21/c'
_symmetry_Int_Tables_number 14
loop_
_symmetry_equiv_pos_site_id
_symmetry_equiv_pos_as_xyz
1 x,y,z
2 -x,1/2+y,1/2-z
3 -x,-y,-z
4 x,-1/2-y,-1/2+z
_cell_length_a 10.0686(6)
_cell_length_b 7.1584(4)
_cell_length_c 22.9392(13)
_cell_angle_alpha 90
_cell_angle_beta 94.083(2)
_cell_angle_gamma 90
_cell_formula_units_Z 4
loop_
_atom_type_symbol
_atom_type_radius_bond
C 0.68
H 0.23
N 0.68
O 0.68
loop_
_atom_site_label
_atom_site_type_symbol
_atom_site_fract_x
_atom_site_fract_y
_atom_site_fract_z
O1 O 0.37995(15) 0.2596(2) 0.14859(7)
O2 O 0.43645(18) 0.5302(2) 0.10750(7)
C1 C 0.1298(2) 0.1593(3) 0.32125(10)
O3 O 0.37418(15) -0.0558(2) 0.27906(8)
C2 C 0.4484(2) 0.3640(3) 0.11286(10)
O4 O 0.1500(2) 0.4580(2) 0.27838(9)
C3 C 0.2663(2) 0.2108(3) 0.23399(9)
C4 C 0.5530(2) 0.0540(3) 0.09090(11)
H1 H 0.50540 -0.00170 0.11950
C5 C 0.5398(2) 0.2448(3) 0.08057(9)
C6 C 0.1108(2) -0.1554(3) 0.35541(11)
H2 H 0.12760 -0.28240 0.35170
C7 C 0.2957(2) 0.3534(3) 0.18769(10)
H3 H 0.21380 0.39490 0.16680
H4 H 0.34090 0.46120 0.20540
C8 C 0.7041(2) 0.0320(3) 0.01714(10)
C9 C 0.1782(2) 0.2928(3) 0.27804(10)
C10 C 0.0407(2) -0.0926(4) 0.40108(12)
H5 H 0.01050 -0.17740 0.42790
C11 C 0.1563(2) -0.0313(3) 0.3151(1)
C12 C 0.2015(2) 0.0275(3) 0.21168(11)
H6 H 0.10610 0.04060 0.20330
H7 H 0.24170 -0.01950 0.17740
C13 C 0.6352(2) -0.0531(3) 0.05938(11)
H8 H 0.64400 -0.18060 0.06640
C14 C 0.6121(2) 0.3268(3) 0.03809(11)
H9 H 0.60520 0.45470 0.03130
C15 C 0.3945(2) 0.1365(3) 0.26777(11)
H10 H 0.47060 0.15260 0.24460
H11 H 0.41130 0.20410 0.30420
N1 N 0.7887(2) -0.0836(4) -0.0181(1)
C16 C 0.0593(2) 0.2207(4) 0.36745(11)
H12 H 0.04160 0.34740 0.37150
O5 O 0.8635(3) -0.0043(3) -0.04939(12)
C17 C 0.2347(2) -0.0934(3) 0.26487(11)
H13 H 0.21950 -0.22590 0.25590
O6 O 0.7783(2) -0.2529(3) -0.01551(9)
C18 C 0.0153(2) 0.0951(4) 0.40724(11)
H14 H -0.03150 0.13690 0.43820
C19 C 0.6939(2) 0.2203(4) 0.00601(11)
H15 H 0.74150 0.27480 -0.02280
#END
