
#######################################################################
#
#                 Cambridge Crystallographic Data Centre
#                                CCDC
#
#######################################################################
#
# If this CIF has been generated from an entry in the Cambridge
# Structural Database, then it will include bibliographic, chemical,
# crystal, experimental, refinement or atomic coordinate data resulting
# from the CCDC's data processing and validation procedures.
#
#######################################################################

data_CSD_CIF_OXAYAO
_audit_creation_date 2011-10-18
_audit_creation_method CSD-ConQuest-V1
_database_code_CSD OXAYAO
_database_code_depnum_ccdc_archive 'CCDC 749456'
_chemical_formula_sum 'C8 H4 N16 O6'
_chemical_formula_moiety
;
C8 H4 N16 O6
;
_journal_coden_Cambridge 52
_journal_volume 28
_journal_year 2010
_journal_page_first 229
_journal_name_full 'J.Energ.Mater. '
loop_
_publ_author_name
"J.M.Veauthier"
"D.E.Chavez"
"B.C.Tappan"
"D.A.Parrish"
_chemical_name_systematic
;
bis(4-Aminofurazanyl-3-azoxy)azofurazan
;
_cell_volume   1577.605
_exptl_crystal_colour 'orange'
_exptl_crystal_density_diffrn 1.769
_exptl_special_details
;
explosive

;
_exptl_crystal_description 'block'
_diffrn_ambient_temperature 113
#These two values have been output from a single CSD field.
_refine_ls_R_factor_gt 0.0329
_refine_ls_wR_factor_gt 0.0329
_symmetry_cell_setting monoclinic
_symmetry_space_group_name_H-M 'P 21/n'
_symmetry_Int_Tables_number 14
loop_
_symmetry_equiv_pos_site_id
_symmetry_equiv_pos_as_xyz
1 x,y,z
2 1/2-x,1/2+y,1/2-z
3 -x,-y,-z
4 -1/2+x,-1/2-y,-1/2+z
_cell_length_a 11.3091(4)
_cell_length_b 11.3388(5)
_cell_length_c 12.7226(5)
_cell_angle_alpha 90
_cell_angle_beta 104.760(2)
_cell_angle_gamma 90
_cell_formula_units_Z 4
loop_
_atom_type_symbol
_atom_type_radius_bond
C 0.68
H 0.23
N 0.68
O 0.68
loop_
_atom_site_label
_atom_site_type_symbol
_atom_site_fract_x
_atom_site_fract_y
_atom_site_fract_z
C1 C 0.73813(13) 0.74357(12) 0.99351(11)
N1 N 0.67006(11) 0.83727(10) 0.94991(9)
H1 H 0.70340 0.89540 0.92160
H2 H 0.59230 0.84040 0.94970
N2 N 0.85508(11) 0.73062(11) 0.99772(10)
O1 O 0.89156(10) 0.62532(9) 1.05563(9)
N3 N 0.79718(11) 0.57462(11) 1.08657(10)
C2 C 0.70490(13) 0.64429(12) 1.04992(11)
O2 O 0.57391(10) 0.52252(9) 1.11254(8)
N4 N 0.58811(11) 0.61712(10) 1.06794(9)
N5 N 0.50891(11) 0.69881(10) 1.03270(9)
C3 C 0.39190(13) 0.68252(12) 1.04524(11)
N6 N 0.34983(11) 0.59918(11) 1.0979(1)
O3 O 0.22742(10) 0.62704(9) 1.08498(9)
N7 N 0.19434(12) 0.72668(11) 1.02380(11)
C4 C 0.29386(13) 0.76248(12) 0.99931(11)
N8 N 0.28308(11) 0.86557(10) 0.93531(9)
N9 N 0.38302(11) 0.89935(10) 0.91888(9)
C5 C 0.37088(12) 1.00154(12) 0.85382(11)
N10 N 0.46835(11) 1.03814(11) 0.82688(10)
O4 O 0.43313(9) 1.13749(9) 0.76570(8)
N11 N 0.30999(11) 1.16441(11) 0.75498(10)
C6 C 0.27070(13) 1.08003(12) 0.80868(11)
N12 N 0.15548(11) 1.06116(10) 0.82418(9)
N13 N 0.06995(11) 1.13337(10) 0.77834(9)
O5 O 0.07773(10) 1.22274(9) 0.72427(9)
C7 C -0.04653(13) 1.09843(13) 0.79306(11)
N14 N -0.14253(11) 1.16255(12) 0.75434(10)
O6 O -0.23604(9) 1.10303(10) 0.77907(9)
N15 N -0.19455(12) 0.99808(12) 0.83566(10)
N16 N -0.00297(12) 0.90502(12) 0.89014(12)
H3 H -0.03330 0.84440 0.91770
H4 H 0.07560 0.90740 0.89290
C8 C -0.07631(13) 0.99354(13) 0.84384(12)
#END
