
#######################################################################
#
#                 Cambridge Crystallographic Data Centre
#                                CCDC
#
#######################################################################
#
# If this CIF has been generated from an entry in the Cambridge
# Structural Database, then it will include bibliographic, chemical,
# crystal, experimental, refinement or atomic coordinate data resulting
# from the CCDC's data processing and validation procedures.
#
#######################################################################

data_CSD_CIF_OXAZOL
_audit_creation_date 1971-12-31
_audit_creation_method CSD-ConQuest-V1
_database_code_CSD OXAZOL
_chemical_formula_sum 'C6 H8 N2 O2'
_chemical_formula_moiety
;
C6 H8 N2 O2
;
_journal_coeditor_code "IUCr A04965"
_journal_coden_Cambridge 1
_journal_volume 20
_journal_year 1966
_journal_page_first 100
_journal_name_full 'Acta Crystallogr. '
loop_
_publ_author_name
"A.L.Bednowitz"
"I.Fankuchen"
"Y.Okaya"
"M.D.Scoffer"
_chemical_name_systematic
;
3,3'-Bi-2-isoxazoline
;
_cell_volume    659.702
_exptl_crystal_density_diffrn 1.411
_exptl_special_details
;
room temperature polymorph

;
_diffrn_ambient_temperature ?
_diffrn_special_details
;
The study was carried out at room temperature,in the range 283-303K

;
#These two values have been output from a single CSD field.
_refine_ls_R_factor_gt 0.08
_refine_ls_wR_factor_gt 0.08
_symmetry_cell_setting orthorhombic
_symmetry_space_group_name_H-M 'I b a 2'
_symmetry_Int_Tables_number 45
loop_
_symmetry_equiv_pos_site_id
_symmetry_equiv_pos_as_xyz
1 x,y,z
2 1/2+x,1/2+y,1/2+z
3 1/2-x,1/2+y,z
4 -x,y,1/2+z
5 1/2+x,1/2-y,z
6 x,-y,1/2+z
7 -x,-y,z
8 1/2-x,1/2-y,1/2+z
_cell_length_a 8.922(4)
_cell_length_b 10.500(4)
_cell_length_c 7.042(4)
_cell_angle_alpha 90
_cell_angle_beta 90
_cell_angle_gamma 90
_cell_formula_units_Z 4
loop_
_atom_type_symbol
_atom_type_radius_bond
C 0.68
H 0.25
N 0.68
O 0.68
loop_
_atom_site_label
_atom_site_type_symbol
_atom_site_fract_x
_atom_site_fract_y
_atom_site_fract_z
C1 C 0.07879 0.00911 0.00000
C2 C 0.15868 0.13714 0.00122
C3 C 0.31741 0.09459 0.00222
H1 H 0.19088 0.17603 0.14786
H2 H 0.11971 0.20157 -0.12597
H3 H 0.34486 0.11389 0.18149
H4 H 0.38231 0.12093 -0.09198
N1 N 0.16570 -0.08563 0.00354
O1 O 0.31568 -0.04425 0.00720
C1F C -0.07879 -0.00911 0.00000
C2F C -0.15868 -0.13714 0.00122
N1F N -0.16570 0.08563 0.00354
C3F C -0.31741 -0.09459 0.00222
H1F H -0.19088 -0.17603 0.14786
H2F H -0.11971 -0.20157 -0.12597
O1F O -0.31568 0.04425 0.00720
H3F H -0.34486 -0.11389 0.18149
H4F H -0.38231 -0.12093 -0.09198
#END
