
#######################################################################
#
#                 Cambridge Crystallographic Data Centre
#                                CCDC
#
#######################################################################
#
# If this CIF has been generated from an entry in the Cambridge
# Structural Database, then it will include bibliographic, chemical,
# crystal, experimental, refinement or atomic coordinate data resulting
# from the CCDC's data processing and validation procedures.
#
#######################################################################

data_CSD_CIF_OXEJOR
_audit_creation_date 2011-10-18
_audit_creation_method CSD-ConQuest-V1
_database_code_CSD OXEJOR
_database_code_depnum_ccdc_archive 'CCDC 792921'
_chemical_formula_sum 'C19 H26 N2 O4'
_chemical_formula_moiety
;
C19 H26 N2 O4
;
_journal_coden_Cambridge 35
_journal_volume 76
_journal_year 2011
_journal_page_first 424
_journal_name_full 'J.Org.Chem. '
loop_
_publ_author_name
"M.J.Raihan"
"V.Kavala"
"P.M.Habib"
"Qiao-Zhi Guan"
"Chun-Wei Kuo"
"Ching-Fa Yao"
_chemical_name_systematic
;
syn-3-(3-Nitrophenyl)-3,3a,4,5,6,7,8,9,10,11,12,13-dodecahydrocyclododeca(c)is
oxazole-1-oxide
;
_cell_volume   1812.495
_exptl_crystal_colour 'colorless'
_exptl_crystal_density_diffrn 1.27
_exptl_crystal_description 'prism'
_diffrn_ambient_temperature 293
#These two values have been output from a single CSD field.
_refine_ls_R_factor_gt 0.0816
_refine_ls_wR_factor_gt 0.0816
loop_
_citation_database_id_CSD
_citation_special_details
OXEKAE "is a stereoisomer of this entry"
_symmetry_cell_setting monoclinic
_symmetry_space_group_name_H-M 'P 21/n'
_symmetry_Int_Tables_number 14
loop_
_symmetry_equiv_pos_site_id
_symmetry_equiv_pos_as_xyz
1 x,y,z
2 1/2-x,1/2+y,1/2-z
3 -x,-y,-z
4 -1/2+x,-1/2-y,-1/2+z
_cell_length_a 13.0697(3)
_cell_length_b 7.7190(2)
_cell_length_c 18.1460(5)
_cell_angle_alpha 90
_cell_angle_beta 98.078(1)
_cell_angle_gamma 90
_cell_formula_units_Z 4
loop_
_atom_type_symbol
_atom_type_radius_bond
C 0.68
H 0.23
N 0.68
O 0.68
loop_
_atom_site_label
_atom_site_type_symbol
_atom_site_fract_x
_atom_site_fract_y
_atom_site_fract_z
C1 C 0.3148(2) 0.4233(4) 0.45663(18)
C2 C 0.3818(3) 0.3302(5) 0.5066(2)
H1 H 0.41850 0.38300 0.54820
C3 C 0.3931(3) 0.1561(5) 0.4933(2)
H2 H 0.43630 0.08920 0.52710
C4 C 0.3408(3) 0.0800(5) 0.4299(2)
H3 H 0.35080 -0.03690 0.42090
C5 C 0.2734(2) 0.1758(4) 0.37976(18)
C6 C 0.2595(2) 0.3500(4) 0.39359(18)
H4 H 0.21390 0.41650 0.36120
C7 C 0.2190(3) 0.0860(5) 0.31164(18)
H5 H 0.26910 0.01130 0.29160
C8 C 0.1223(2) -0.0232(4) 0.31983(17)
H6 H 0.14200 -0.14430 0.33000
C9 C 0.0605(3) 0.0452(5) 0.3805(2)
H7 H 0.10540 0.04330 0.42780
H8 H 0.04250 0.16520 0.36930
C10 C -0.0386(3) -0.0532(6) 0.3896(2)
H9 H -0.07810 0.01510 0.42060
H10 H -0.08000 -0.06490 0.34120
C11 C -0.0210(3) -0.2304(6) 0.4236(3)
H11 H 0.01690 -0.21810 0.47330
H12 H 0.02190 -0.29650 0.39430
C12 C -0.1201(4) -0.3324(8) 0.4286(3)
H13 H -0.10450 -0.42100 0.46640
H14 H -0.16980 -0.25410 0.44570
C13 C -0.1676(4) -0.413(1) 0.3632(4)
H15 H -0.18990 -0.32150 0.32800
H16 H -0.22970 -0.46860 0.37530
C14 C -0.1104(4) -0.5482(6) 0.3215(3)
H17 H -0.03650 -0.53000 0.33400
H18 H -0.12590 -0.66300 0.33860
C15 C -0.1374(6) -0.5415(12) 0.2412(4)
H19 H -0.21150 -0.55900 0.23110
H20 H -0.10600 -0.64260 0.22180
C16 C -0.1146(4) -0.3962(7) 0.1948(3)
H21 H -0.17070 -0.31340 0.19310
H22 H -0.11400 -0.43880 0.14460
C17 C -0.0136(3) -0.3007(6) 0.2188(3)
H23 H 0.00550 -0.31490 0.27200
H24 H 0.04020 -0.35360 0.19450
C18 C -0.0181(3) -0.1128(6) 0.2011(2)
H25 H -0.08360 -0.06770 0.21200
H26 H -0.01680 -0.09900 0.14810
C19 C 0.0664(3) -0.0058(5) 0.24169(19)
N1 N 0.2983(2) 0.6069(4) 0.47208(17)
N2 N 0.0983(2) 0.1286(4) 0.20976(15)
O1 O 0.3573(3) 0.6768(4) 0.52140(16)
O2 O 0.2266(2) 0.6819(4) 0.43508(18)
O3 O 0.1827(2) 0.2145(3) 0.25588(13)
O4 O 0.0715(2) 0.1992(4) 0.14786(14)
#END
