
#######################################################################
#
#                 Cambridge Crystallographic Data Centre
#                                CCDC
#
#######################################################################
#
# If this CIF has been generated from an entry in the Cambridge
# Structural Database, then it will include bibliographic, chemical,
# crystal, experimental, refinement or atomic coordinate data resulting
# from the CCDC's data processing and validation procedures.
#
#######################################################################

data_CSD_CIF_OXEJIL
_audit_creation_date 2011-10-18
_audit_creation_method CSD-ConQuest-V1
_database_code_CSD OXEJIL
_database_code_depnum_ccdc_archive 'CCDC 792920'
_chemical_formula_sum 'C14 H16 N2 O4'
_chemical_formula_moiety
;
C14 H16 N2 O4
;
_journal_coden_Cambridge 35
_journal_volume 76
_journal_year 2011
_journal_page_first 424
_journal_name_full 'J.Org.Chem. '
loop_
_publ_author_name
"M.J.Raihan"
"V.Kavala"
"P.M.Habib"
"Qiao-Zhi Guan"
"Chun-Wei Kuo"
"Ching-Fa Yao"
_chemical_name_systematic
;
syn-3-(3-Nitrophenyl)-3a,4,5,6,7,8-hexahydro-3H-cyclohepta(c)isoxazole-1-oxide
;
_cell_volume   1340.978
_exptl_crystal_colour 'colorless'
_exptl_crystal_density_diffrn 1.369
_exptl_crystal_description 'prism'
_diffrn_ambient_temperature 200
#These two values have been output from a single CSD field.
_refine_ls_R_factor_gt 0.0431
_refine_ls_wR_factor_gt 0.0431
loop_
_citation_database_id_CSD
_citation_special_details
OXEJUX "is a stereoisomer of this entry"
OXEJIL01 "is a reinterpretation of this cif"
_symmetry_cell_setting triclinic
_symmetry_space_group_name_H-M 'P -1'
_symmetry_Int_Tables_number 2
loop_
_symmetry_equiv_pos_site_id
_symmetry_equiv_pos_as_xyz
1 x,y,z
2 -x,-y,-z
_cell_length_a 6.3130(2)
_cell_length_b 10.4530(3)
_cell_length_c 20.3210(7)
_cell_angle_alpha 90.038(1)
_cell_angle_beta 90.026(1)
_cell_angle_gamma 90.037(2)
_cell_formula_units_Z 4
loop_
_atom_type_symbol
_atom_type_radius_bond
C 0.68
H 0.23
N 0.68
O 0.68
loop_
_atom_site_label
_atom_site_type_symbol
_atom_site_fract_x
_atom_site_fract_y
_atom_site_fract_z
C1 C -0.9304(3) 0.14408(18) 0.86531(10)
C2 C -0.8188(3) 0.24743(18) 0.84173(9)
H1 H -0.86630 0.33250 0.84910
C3 C -0.6354(3) 0.22301(18) 0.80703(10)
H2 H -0.55420 0.29210 0.79020
C4 C -0.5690(3) 0.09829(18) 0.79664(10)
H3 H -0.44280 0.08310 0.77250
C5 C -0.6840(3) -0.00531(17) 0.82102(9)
C6 C -0.8679(3) 0.01829(17) 0.85617(10)
H4 H -0.94930 -0.05020 0.87360
C7 C -0.5969(3) -0.13714(17) 0.80964(9)
H5 H -0.52210 -0.13800 0.76630
C8 C -0.4454(3) -0.19079(16) 0.86242(9)
H6 H -0.29600 -0.16520 0.85270
C9 C -0.5020(3) -0.15820(18) 0.93387(9)
H7 H -0.51700 -0.06420 0.93790
H8 H -0.64110 -0.19690 0.94440
C10 C -0.3405(3) -0.20395(19) 0.98422(10)
H9 H -0.38670 -0.17460 1.02830
H10 H -0.20340 -0.16180 0.97460
C11 C -0.3034(4) -0.3480(2) 0.98734(11)
H11 H -0.21760 -0.36710 1.02690
H12 H -0.44210 -0.39100 0.99280
C12 C -0.1923(3) -0.4058(2) 0.92733(11)
H13 H -0.11530 -0.48370 0.94130
H14 H -0.08620 -0.34380 0.91090
C13 C -0.3412(3) -0.44076(18) 0.87107(11)
H15 H -0.25650 -0.47090 0.83310
H16 H -0.43390 -0.51210 0.88520
C14 C -0.4760(3) -0.33068(17) 0.84978(9)
N1 N -1.1221(3) 0.16847(17) 0.90480(11)
N2 N -0.6560(3) -0.35022(15) 0.82180(8)
O1 O -1.2072(3) 0.07891(17) 0.93138(13)
O2 O -1.1876(3) 0.27740(16) 0.90857(12)
O3 O -0.7666(2) -0.23093(12) 0.80750(7)
O4 O -0.7571(3) -0.45030(13) 0.80695(9)
C15 C -0.4311(3) -0.64412(17) 0.63444(10)
C16 C -0.3188(3) -0.74756(17) 0.65847(10)
H17 H -0.36680 -0.83270 0.65140
C17 C -0.1356(3) -0.72327(19) 0.69289(10)
H18 H -0.05410 -0.79240 0.70960
C18 C -0.0688(3) -0.59819(18) 0.70337(10)
H19 H 0.05750 -0.58290 0.72760
C19 C -0.1836(3) -0.49475(17) 0.67899(9)
C20 C -0.3675(3) -0.51845(17) 0.6437(1)
H20 H -0.44850 -0.44980 0.62620
C21 C -0.0970(3) -0.36251(17) 0.69028(9)
H21 H -0.02180 -0.36160 0.73360
C22 C 0.0542(3) -0.30899(17) 0.63760(9)
H22 H 0.20350 -0.33470 0.64740
C23 C -0.0023(3) -0.34152(18) 0.56604(9)
H23 H -0.01800 -0.43540 0.56200
H24 H -0.14110 -0.30260 0.55550
C24 C 0.1592(3) -0.29640(19) 0.51565(11)
H25 H 0.11240 -0.32550 0.47160
H26 H 0.29600 -0.33880 0.52520
C25 C 0.1969(4) -0.1518(2) 0.51281(11)
H27 H 0.28250 -0.13260 0.47320
H28 H 0.05830 -0.10880 0.50740
C26 C 0.3082(3) -0.0943(2) 0.57257(12)
H29 H 0.38470 -0.01620 0.55870
H30 H 0.41470 -0.15620 0.58880
C27 C 0.1591(3) -0.05991(18) 0.62909(11)
H31 H 0.24420 -0.03020 0.66710
H32 H 0.06670 0.01160 0.61520
C28 C 0.0245(3) -0.16920(17) 0.65009(9)
N3 N -0.6225(3) -0.66853(17) 0.59510(11)
N4 N -0.1562(3) -0.14986(14) 0.67815(9)
O5 O -0.6874(3) -0.77785(16) 0.59104(12)
O6 O -0.7072(3) -0.57887(16) 0.56844(13)
O7 O -0.2664(2) -0.26904(12) 0.69263(7)
O8 O -0.2569(3) -0.05018(13) 0.69294(9)
#END
