
#######################################################################
#
#                 Cambridge Crystallographic Data Centre
#                                CCDC
#
#######################################################################
#
# If this CIF has been generated from an entry in the Cambridge
# Structural Database, then it will include bibliographic, chemical,
# crystal, experimental, refinement or atomic coordinate data resulting
# from the CCDC's data processing and validation procedures.
#
#######################################################################

data_CSD_CIF_OXEJIL01
_audit_creation_date 2018-07-05
_audit_creation_method CSD-ConQuest-V1
_database_code_CSD OXEJIL01
_database_code_depnum_ccdc_archive 'CCDC 1853887'
_chemical_formula_sum 'C14 H16 N2 O4'
_chemical_formula_moiety
;
C14 H16 N2 O4
;
_journal_coden_Cambridge 1777
_journal_volume 70
_journal_year 2014
_journal_page_first 834
_journal_name_full 'Acta Crystallogr.,Sect.C:Cryst.Struct.Chem. '
loop_
_publ_author_name
"L.M.Henling"
"R.E.Marsh"
_chemical_name_systematic
;
syn-3-(3-Nitrophenyl)-3a,4,5,6,7,8-hexahydro-3H-cycloheptakis(c)isoxazole-1-ox
ide
;
_chemical_name_common
;
3-(3-nitrophenyl)-1-oxo-3a,4,5,6,7,8-hexahydro-3H-1-cyclohepta[c][1,2]oxazole
;
_cell_volume   1340.978
_exptl_crystal_colour 'colorless'
_exptl_crystal_density_diffrn 1.369
_exptl_crystal_description 'prism'
_diffrn_ambient_temperature 200
loop_
_citation_database_id_CSD
_citation_special_details
OXEJIL "is reinterpreted by this entry"
_symmetry_cell_setting monoclinic
_symmetry_space_group_name_H-M 'P 21/n'
_symmetry_Int_Tables_number 14
loop_
_symmetry_equiv_pos_site_id
_symmetry_equiv_pos_as_xyz
1 x,y,z
2 1/2-x,1/2+y,1/2-z
3 -x,-y,-z
4 -1/2+x,-1/2-y,-1/2+z
_cell_length_a 10.4530(3)
_cell_length_b 6.3130(2)
_cell_length_c 20.3210(7)
_cell_angle_alpha 90
_cell_angle_beta 90.038(1)
_cell_angle_gamma 90
_cell_formula_units_Z 4
loop_
_atom_type_symbol
_atom_type_radius_bond
C 0.68
H 0.23
N 0.68
O 0.68
loop_
_atom_site_label
_atom_site_type_symbol
_atom_site_fract_x
_atom_site_fract_y
_atom_site_fract_z
C1 C -0.14410 0.06920 0.36544
C2 C -0.24750 0.18120 0.34163
H1 H -0.33260 0.13340 0.34880
C3 C -0.22310 0.36450 0.30707
H2 H -0.29220 0.44580 0.29030
C4 C -0.09820 0.43110 0.29664
H3 H -0.08300 0.55740 0.27240
C5 C 0.00530 0.31620 0.32102
C6 C -0.01840 0.13230 0.35624
H4 H 0.05020 0.05110 0.37370
C7 C 0.13730 0.40300 0.30968
H5 H 0.13820 0.47800 0.26640
C8 C 0.19090 0.55440 0.36241
H6 H 0.16520 0.70380 0.35260
C9 C 0.15830 0.49780 0.43392
H7 H 0.06440 0.48250 0.43800
H8 H 0.19720 0.35890 0.44440
C10 C 0.20380 0.65940 0.48428
H9 H 0.17460 0.61280 0.52840
H10 H 0.16150 0.79630 0.47470
C11 C 0.34810 0.69680 0.48726
H11 H 0.36720 0.78240 0.52680
H12 H 0.39110 0.55810 0.49270
C12 C 0.40580 0.80800 0.42738
H13 H 0.48380 0.88470 0.44130
H14 H 0.34380 0.91420 0.41100
C13 C 0.44040 0.65900 0.37099
H15 H 0.47040 0.74380 0.33300
H16 H 0.51180 0.56640 0.38500
C14 C 0.33070 0.52420 0.34984
N1 N -0.16850 -0.12230 0.40485
N2 N 0.35020 0.34390 0.32182
O1 O -0.07890 -0.20720 0.43147
O2 O -0.27760 -0.18750 0.40876
O3 O 0.23094 0.23350 0.30744
O4 O 0.45006 0.24300 0.30700
#END
