
#######################################################################
#
#                 Cambridge Crystallographic Data Centre
#                                CCDC
#
#######################################################################
#
# If this CIF has been generated from an entry in the Cambridge
# Structural Database, then it will include bibliographic, chemical,
# crystal, experimental, refinement or atomic coordinate data resulting
# from the CCDC's data processing and validation procedures.
#
#######################################################################

data_CSD_CIF_OXEKAE
_audit_creation_date 2011-10-18
_audit_creation_method CSD-ConQuest-V1
_database_code_CSD OXEKAE
_database_code_depnum_ccdc_archive 'CCDC 792923'
_chemical_formula_sum 'C19 H26 N2 O4'
_chemical_formula_moiety
;
C19 H26 N2 O4
;
_journal_coden_Cambridge 35
_journal_volume 76
_journal_year 2011
_journal_page_first 424
_journal_name_full 'J.Org.Chem. '
loop_
_publ_author_name
"M.J.Raihan"
"V.Kavala"
"P.M.Habib"
"Qiao-Zhi Guan"
"Chun-Wei Kuo"
"Ching-Fa Yao"
_chemical_name_systematic
;
anti-3-(3-Nitrophenyl)-3,3a,4,5,6,7,8,9,10,11,12,13-dodecahydrocyclododeca(c)i
soxazole-1-oxide
;
_cell_volume    877.966
_exptl_crystal_colour 'colorless'
_exptl_crystal_density_diffrn 1.31
_exptl_crystal_description 'prism'
_diffrn_ambient_temperature 200
#These two values have been output from a single CSD field.
_refine_ls_R_factor_gt 0.0571
_refine_ls_wR_factor_gt 0.0571
loop_
_citation_database_id_CSD
_citation_special_details
OXEJOR "is a stereoisomer of this entry"
_symmetry_cell_setting triclinic
_symmetry_space_group_name_H-M 'P -1'
_symmetry_Int_Tables_number 2
loop_
_symmetry_equiv_pos_site_id
_symmetry_equiv_pos_as_xyz
1 x,y,z
2 -x,-y,-z
_cell_length_a 7.5626(3)
_cell_length_b 10.9151(3)
_cell_length_c 11.7483(3)
_cell_angle_alpha 108.667(1)
_cell_angle_beta 98.922(1)
_cell_angle_gamma 100.822(1)
_cell_formula_units_Z 2
loop_
_atom_type_symbol
_atom_type_radius_bond
C 0.68
H 0.23
N 0.68
O 0.68
loop_
_atom_site_label
_atom_site_type_symbol
_atom_site_fract_x
_atom_site_fract_y
_atom_site_fract_z
C1 C 0.8554(4) 0.6454(2) 0.9999(2)
C2 C 1.0437(4) 0.6693(3) 1.0107(3)
H1 H 1.12780 0.71520 1.08880
C3 C 1.1060(4) 0.6249(3) 0.9054(3)
H2 H 1.23530 0.64030 0.91030
C4 C 0.9828(3) 0.5577(2) 0.7912(2)
H3 H 1.02850 0.52800 0.71890
C5 C 0.7939(3) 0.5338(2) 0.7823(2)
C6 C 0.7288(3) 0.5779(2) 0.8882(2)
H4 H 0.59960 0.56210 0.88420
C7 C 0.6605(3) 0.4587(2) 0.6589(2)
H5 H 0.72520 0.46370 0.59190
C8 C 0.5714(3) 0.3102(2) 0.63535(19)
H6 H 0.57820 0.29830 0.71670
C9 C 0.6649(3) 0.2126(2) 0.55662(19)
H7 H 0.79260 0.22790 0.60340
H8 H 0.59750 0.12030 0.54320
C10 C 0.6730(3) 0.2238(2) 0.43098(19)
H9 H 0.56540 0.25470 0.40250
H10 H 0.78640 0.29220 0.44080
C11 C 0.6730(3) 0.0930(2) 0.3324(2)
H11 H 0.57100 0.02120 0.33220
H12 H 0.79070 0.06970 0.35470
C12 C 0.6508(3) 0.0967(2) 0.2016(2)
H13 H 0.75690 0.16480 0.20090
H14 H 0.65620 0.00890 0.14460
C13 C 0.4724(3) 0.1278(2) 0.1526(2)
H15 H 0.47730 0.13710 0.07200
H16 H 0.46610 0.21490 0.21020
C14 C 0.2945(3) 0.0223(2) 0.1357(2)
H17 H 0.25750 -0.03990 0.04870
H18 H 0.32160 -0.03010 0.18820
C15 C 0.1316(3) 0.0798(2) 0.1679(2)
H19 H 0.02030 0.00490 0.14520
H20 H 0.10690 0.13450 0.11730
C16 C 0.1611(3) 0.1660(2) 0.3041(2)
H21 H 0.26880 0.24340 0.32610
H22 H 0.05100 0.20100 0.31580
C17 C 0.1941(3) 0.0913(2) 0.3916(2)
H23 H 0.30730 0.05970 0.38260
H24 H 0.08900 0.01160 0.36730
C18 C 0.2153(3) 0.1757(2) 0.5274(2)
H25 H 0.09960 0.20370 0.53660
H26 H 0.23050 0.11870 0.57720
C19 C 0.3734(3) 0.2972(2) 0.57910(19)
N1 N 0.7871(5) 0.6942(3) 1.1121(2)
N2 N 0.3435(3) 0.41296(18) 0.59155(17)
O1 O 0.6171(6) 0.6751(3) 1.0998(2)
O2 O 0.8991(5) 0.7521(3) 1.2096(2)
O3 O 0.2001(2) 0.44984(17) 0.56555(15)
O4 O 0.5079(2) 0.52109(15) 0.65209(15)
#END
