
#######################################################################
#
#                 Cambridge Crystallographic Data Centre
#                                CCDC
#
#######################################################################
#
# If this CIF has been generated from an entry in the Cambridge
# Structural Database, then it will include bibliographic, chemical,
# crystal, experimental, refinement or atomic coordinate data resulting
# from the CCDC's data processing and validation procedures.
#
#######################################################################

data_CSD_CIF_OXOLEU
_audit_creation_date 2016-10-19
_audit_creation_method CSD-ConQuest-V1
_database_code_CSD OXOLEU
_database_code_depnum_ccdc_archive 'CCDC 1504939'
_chemical_formula_sum 'C13 H11 N3 O3'
_chemical_formula_moiety
;
C13 H11 N3 O3
;
_journal_coden_Cambridge 2061
_journal_volume 8
_journal_year 2016
_journal_page_first 24
_journal_name_full 'Int.J.Drug Dev.Res. '
loop_
_publ_author_name
"J.O.Osazee"
"J.K.Annor-Gymafi"
"C.Slebodnick"
"A.G.Shilabin"
_chemical_name_systematic
;
(S)-11,12,13,13a-Tetrahydro-3H,9H-benzo[e][1,2,4]oxadiazolo[3,4-c]pyrrolo[1,2-
c][1,4]diazepine-3,9-dione
;
_chemical_name_common
;
11,12,13,13a-tetrahydro-9H-[1,2,4]oxadiazolo[4,3-a]pyrrolo[2,1-c][1,4]benzodia
zepine-3,9-dione
;
_cell_volume   1166.234
_exptl_crystal_colour 'colorless'
_exptl_crystal_density_diffrn 1.465
_exptl_crystal_description 'prism'
_diffrn_ambient_temperature 100
#These two values have been output from a single CSD field.
_refine_ls_R_factor_gt 0.0518
_refine_ls_wR_factor_gt 0.0518
_symmetry_cell_setting monoclinic
_symmetry_space_group_name_H-M 'I 2'
_symmetry_Int_Tables_number 5
loop_
_symmetry_equiv_pos_site_id
_symmetry_equiv_pos_as_xyz
1 x,y,z
2 -x,y,-z
3 1/2+x,1/2+y,1/2+z
4 1/2-x,1/2+y,1/2-z
_cell_length_a 14.6877(6)
_cell_length_b 6.8905(3)
_cell_length_c 11.5288(5)
_cell_angle_alpha 90
_cell_angle_beta 91.751(4)
_cell_angle_gamma 90
_cell_formula_units_Z 4
loop_
_atom_type_symbol
_atom_type_radius_bond
C 0.68
H 0.23
N 0.68
O 0.68
loop_
_atom_site_label
_atom_site_type_symbol
_atom_site_fract_x
_atom_site_fract_y
_atom_site_fract_z
O1 O 0.20860(11) 0.9324(3) 0.73086(15)
O2 O 0.32830(13) 0.2197(2) 0.49488(17)
O3 O 0.44956(12) 0.3055(2) 0.60943(15)
N1 N 0.35803(12) 0.8794(3) 0.70740(16)
N2 N 0.36157(13) 0.5418(3) 0.54737(16)
N3 N 0.48750(13) 0.4846(3) 0.65359(17)
C1 C 0.27022(15) 0.8760(3) 0.66994(19)
C2 C 0.24838(14) 0.8053(3) 0.54851(19)
C3 C 0.17676(15) 0.8998(3) 0.4893(2)
H1 H 0.14630 1.00350 0.52620
C4 C 0.14932(17) 0.8458(4) 0.3785(2)
H2 H 0.10050 0.91220 0.33980
C5 C 0.19293(18) 0.6947(4) 0.3236(2)
H3 H 0.17490 0.65930 0.24660
C6 C 0.26262(16) 0.5954(3) 0.3808(2)
H4 H 0.29170 0.49000 0.34390
C7 C 0.28997(15) 0.6502(3) 0.49214(19)
C8 C 0.43190(14) 0.6154(3) 0.61447(18)
C9 C 0.43679(14) 0.8284(3) 0.63824(18)
H5 H 0.43610 0.90360 0.56400
C10 C 0.37298(17) 0.3423(3) 0.5441(2)
C11 C 0.51843(15) 0.8858(4) 0.7156(2)
H6 H 0.53770 1.02050 0.69950
H7 H 0.57050 0.79730 0.70400
C12 C 0.48329(16) 0.8675(4) 0.8385(2)
H8 H 0.48590 0.73120 0.86560
H9 H 0.51910 0.94980 0.89360
C13 C 0.38498(16) 0.9381(4) 0.82612(19)
H10 H 0.34610 0.87510 0.88380
H11 H 0.38130 1.08070 0.83550
#END
