
#######################################################################
#
#                 Cambridge Crystallographic Data Centre
#                                CCDC
#
#######################################################################
#
# If this CIF has been generated from an entry in the Cambridge
# Structural Database, then it will include bibliographic, chemical,
# crystal, experimental, refinement or atomic coordinate data resulting
# from the CCDC's data processing and validation procedures.
#
#######################################################################

data_CSD_CIF_OXONOG
_audit_creation_date 2016-10-19
_audit_creation_method CSD-ConQuest-V1
_database_code_CSD OXONOG
_database_code_depnum_ccdc_archive 'CCDC 1469644'
_chemical_formula_sum 'C8 H2 N18 O10'
_chemical_formula_moiety
;
C8 H2 N18 O10
;
_journal_coden_Cambridge 179
_journal_volume 55
_journal_year 2016
_journal_page_first 11548
_journal_name_full 'Angew.Chem.,Int.Ed. '
loop_
_publ_author_name
"Yuji Liu"
"Jiaheng Zhang"
"Kangcai Wang"
"Jinshan Li"
"Qinghua Zhang"
"J.M.Shreeve"
_chemical_name_systematic
;
N-nitro-4-((4-((4-((4-(nitroamino)-1,2,5-oxadiazol-3-yl)-ONN-azoxy)-1,2,5-oxad
iazol-3-yl)diazenyl)-1,2,5-oxadiazol-3-yl)-NNO-azoxy)-1,2,5-oxadiazol-3-amine
;
_cell_volume    901.581
_exptl_crystal_colour 'orangish orange'
_exptl_crystal_density_diffrn 1.88
_exptl_crystal_description 'block'
_diffrn_ambient_temperature 296.1
#These two values have been output from a single CSD field.
_refine_ls_R_factor_gt 0.033
_refine_ls_wR_factor_gt 0.033
_symmetry_cell_setting monoclinic
_symmetry_space_group_name_H-M 'P 21/c'
_symmetry_Int_Tables_number 14
loop_
_symmetry_equiv_pos_site_id
_symmetry_equiv_pos_as_xyz
1 x,y,z
2 -x,1/2+y,1/2-z
3 -x,-y,-z
4 x,-1/2-y,-1/2+z
_cell_length_a 8.406(5)
_cell_length_b 7.505(5)
_cell_length_c 16.001(8)
_cell_angle_alpha 90
_cell_angle_beta 116.73(2)
_cell_angle_gamma 90
_cell_formula_units_Z 2
loop_
_atom_type_symbol
_atom_type_radius_bond
C 0.68
H 0.23
N 0.68
O 0.68
loop_
_atom_site_label
_atom_site_type_symbol
_atom_site_fract_x
_atom_site_fract_y
_atom_site_fract_z
O1 O 0.3449(2) 0.70918(19) 0.35444(11)
O2 O 0.55389(19) 0.5112(2) 0.42179(10)
O3 O -0.16562(18) 0.57110(18) 0.25529(10)
O4 O -0.05979(15) 0.29600(15) 0.49146(8)
O5 O 0.29507(15) -0.04485(16) 0.67266(8)
N1 N 0.0018(2) 0.5692(2) 0.25880(11)
N2 N -0.17377(19) 0.4683(2) 0.32382(11)
N3 N 0.27410(18) 0.42505(17) 0.35696(10)
H1 H 0.32220 0.32950 0.39250
N4 N 0.42426(17) -0.10176(18) 0.64876(9)
N5 N 0.17940(18) 0.07693(18) 0.60863(9)
N6 N 0.3995(2) 0.5598(2) 0.37981(10)
N7 N 0.50906(15) -0.05287(16) 0.53219(8)
N8 N 0.03309(15) 0.29286(16) 0.44923(8)
N9 N 0.17434(15) 0.20187(16) 0.46737(8)
C1 C 0.0971(2) 0.46698(19) 0.32951(10)
C2 C -0.0143(2) 0.40526(18) 0.36886(10)
C3 C 0.39353(18) -0.01612(19) 0.57225(9)
C4 C 0.24019(18) 0.09543(18) 0.54652(9)
O1B O 0.6551(2) -0.70918(19) 0.64556(11)
O2B O 0.44611(19) -0.5112(2) 0.57821(10)
O3B O 1.16562(18) -0.57110(18) 0.74471(10)
O4B O 1.05979(15) -0.29600(15) 0.50854(8)
O5B O 0.70493(15) 0.04485(16) 0.32734(8)
N1B N 0.9982(2) -0.5692(2) 0.74120(11)
N2B N 1.17377(19) -0.4683(2) 0.67618(11)
N3B N 0.72590(18) -0.42505(17) 0.64304(10)
H1B H 0.67780 -0.32950 0.60750
N4B N 0.57574(17) 0.10176(18) 0.35124(9)
N5B N 0.82060(18) -0.07693(18) 0.39137(9)
N6B N 0.6005(2) -0.5598(2) 0.62019(10)
N7B N 0.49094(15) 0.05287(16) 0.46781(8)
N8B N 0.96691(15) -0.29286(16) 0.55077(8)
N9B N 0.82566(15) -0.20187(16) 0.53263(8)
C1B C 0.9029(2) -0.46698(19) 0.67049(10)
C2B C 1.0143(2) -0.40526(18) 0.63114(10)
C3B C 0.60647(18) 0.01612(19) 0.42775(9)
C4B C 0.75981(18) -0.09543(18) 0.45348(9)
#END
