
#######################################################################
#
#                 Cambridge Crystallographic Data Centre
#                                CCDC
#
#######################################################################
#
# If this CIF has been generated from an entry in the Cambridge
# Structural Database, then it will include bibliographic, chemical,
# crystal, experimental, refinement or atomic coordinate data resulting
# from the CCDC's data processing and validation procedures.
#
#######################################################################

data_CSD_CIF_OXOQEZ
_audit_creation_date 2016-10-19
_audit_creation_method CSD-ConQuest-V1
_database_code_CSD OXOQEZ
_database_code_depnum_ccdc_archive 'CCDC 1503818'
_chemical_formula_sum 'C16 H19 N1 O4'
_chemical_formula_moiety
;
C16 H19 N1 O4
;
_journal_coden_Cambridge 1336
_journal_volume 18
_journal_year 2016
_journal_page_first 4814
_journal_name_full 'Org.Lett. '
loop_
_publ_author_name
"X.Bantreil"
"A.Bourderioux"
"P.Mateo"
"C.E.Hagerman"
"M.Selkti"
"E.Brachet"
"P.Belmont"
_chemical_name_systematic
;
1-(((3-(2-methoxyethylidene)-2-benzofuran-1(3H)-ylidene)amino)oxy)-2,2-dimethy
lpropan-1-one
;
_cell_volume   3129.244
_exptl_crystal_colour 'colorless'
_exptl_crystal_density_diffrn 1.228
_diffrn_ambient_temperature 292.2
#These two values have been output from a single CSD field.
_refine_ls_R_factor_gt 0.0592
_refine_ls_wR_factor_gt 0.0592
_symmetry_cell_setting orthorhombic
_symmetry_space_group_name_H-M 'P b c a'
_symmetry_Int_Tables_number 61
loop_
_symmetry_equiv_pos_site_id
_symmetry_equiv_pos_as_xyz
1 x,y,z
2 1/2-x,-y,1/2+z
3 -x,1/2+y,1/2-z
4 1/2+x,1/2-y,-z
5 -x,-y,-z
6 -1/2+x,y,-1/2-z
7 x,-1/2-y,-1/2+z
8 -1/2-x,-1/2+y,z
_cell_length_a 12.7082(12)
_cell_length_b 10.0795(9)
_cell_length_c 24.4296(18)
_cell_angle_alpha 90
_cell_angle_beta 90
_cell_angle_gamma 90
_cell_formula_units_Z 8
loop_
_atom_type_symbol
_atom_type_radius_bond
C 0.68
H 0.23
N 0.68
O 0.68
loop_
_atom_site_label
_atom_site_type_symbol
_atom_site_fract_x
_atom_site_fract_y
_atom_site_fract_z
C1 C 0.92428(18) 0.3651(2) 0.58733(8)
H1 H 0.94030 0.43770 0.60930
C2 C 0.84995(19) 0.2756(3) 0.60450(8)
H2 H 0.81690 0.28900 0.63800
C3 C 0.82287(16) 0.1667(2) 0.57376(7)
H3 H 0.77250 0.10670 0.58590
C4 C 0.87355(13) 0.14975(17) 0.52389(6)
C5 C 0.94832(13) 0.23997(17) 0.50630(6)
C6 C 0.97586(16) 0.34903(19) 0.53779(8)
H4 H 1.02680 0.40890 0.52610
C7 C 0.86302(13) 0.04797(17) 0.48199(7)
O1 O 0.93327(9) 0.08063(11) 0.43952(4)
C8 C 0.98308(13) 0.19611(16) 0.45233(6)
N1 N 1.04749(12) 0.25694(15) 0.42138(6)
C9 C 0.80430(14) -0.06024(19) 0.47866(8)
H5 H 0.75840 -0.07710 0.50750
C10 C 0.80553(16) -0.1576(2) 0.43258(9)
H6 H 0.85950 -0.13180 0.40660
H7 H 0.82400 -0.24430 0.44680
O2 O 0.70825(12) -0.16677(17) 0.40495(7)
C11 C 0.6872(2) -0.0577(3) 0.37263(10)
H8 H 0.68020 0.01950 0.39530
H9 H 0.62290 -0.07200 0.35290
H10 H 0.74380 -0.04480 0.34720
O3 O 1.05811(11) 0.17979(12) 0.37193(5)
C12 C 1.08860(14) 0.25153(18) 0.32843(7)
O4 O 1.11042(16) 0.36568(14) 0.33022(6)
C13 C 1.08921(16) 0.16429(18) 0.27756(7)
C14 C 1.1415(3) 0.0324(3) 0.28858(10)
H11 H 1.21280 0.04690 0.30010
H12 H 1.14100 -0.02000 0.25580
H13 H 1.10380 -0.01350 0.31690
C15 C 1.1458(3) 0.2385(3) 0.23211(10)
H14 H 1.21630 0.25840 0.24350
H15 H 1.10910 0.31970 0.22440
H16 H 1.14760 0.18450 0.19980
C16 C 0.9742(2) 0.1444(4) 0.26143(13)
H17 H 0.97070 0.09440 0.22800
H18 H 0.94140 0.22920 0.25610
H19 H 0.93830 0.09710 0.28990
#END
