
#######################################################################
#
#                 Cambridge Crystallographic Data Centre
#                                CCDC
#
#######################################################################
#
# If this CIF has been generated from an entry in the Cambridge
# Structural Database, then it will include bibliographic, chemical,
# crystal, experimental, refinement or atomic coordinate data resulting
# from the CCDC's data processing and validation procedures.
#
#######################################################################

data_CSD_CIF_OXUTEI
_audit_creation_date 2016-10-20
_audit_creation_method CSD-ConQuest-V1
_database_code_CSD OXUTEI
_database_code_depnum_ccdc_archive 'CCDC 1498749'
_chemical_formula_sum 'C27 H20 N2 O3'
_chemical_formula_moiety
;
C27 H20 N2 O3
;
_journal_coden_Cambridge 574
_journal_volume 137
_journal_year 2017
_journal_page_first 182
_journal_name_full 'Dyes Pigm. '
loop_
_publ_author_name
"B.Umamahesh"
"J.Ajantha"
"C.Sravani"
"S.Easwaramoorthi"
"K.I.Sathiyanarayanan"
_chemical_name_systematic
;
4-nitro-2-(7,8,13,14-tetrahydrodibenzo[a,i]phenanthridin-5-yl)phenol
;
_cell_volume   8391.705
_exptl_crystal_colour 'yellow'
_exptl_crystal_density_diffrn 1.331
_exptl_crystal_description 'Rectangular'
_diffrn_ambient_temperature 296
#These two values have been output from a single CSD field.
_refine_ls_R_factor_gt 0.0433
_refine_ls_wR_factor_gt 0.0433
_symmetry_cell_setting monoclinic
_symmetry_space_group_name_H-M 'C 2/c'
_symmetry_Int_Tables_number 15
loop_
_symmetry_equiv_pos_site_id
_symmetry_equiv_pos_as_xyz
1 x,y,z
2 -x,y,1/2-z
3 1/2+x,1/2+y,z
4 1/2-x,1/2+y,1/2-z
5 -x,-y,-z
6 x,-y,-1/2+z
7 -1/2-x,-1/2-y,-z
8 -1/2+x,-1/2-y,-1/2+z
_cell_length_a 33.3961(9)
_cell_length_b 14.2870(4)
_cell_length_c 19.5456(6)
_cell_angle_alpha 90
_cell_angle_beta 115.8632(12)
_cell_angle_gamma 90
_cell_formula_units_Z 16
loop_
_atom_type_symbol
_atom_type_radius_bond
C 0.68
H 0.23
N 0.68
O 0.68
loop_
_atom_site_label
_atom_site_type_symbol
_atom_site_fract_x
_atom_site_fract_y
_atom_site_fract_z
C1 C 0.16910(7) 0.80617(16) 0.05860(11)
H1 H 0.13920 0.81690 0.04580
C2 C 0.19687(8) 0.88080(17) 0.06619(12)
H2 H 0.18590 0.94160 0.05920
C3 C 0.24100(8) 0.86476(19) 0.08416(13)
H3 H 0.26020 0.91510 0.09230
C4 C 0.25683(7) 0.77530(19) 0.09012(12)
H4 H 0.28630 0.76540 0.09960
C5 C 0.22921(6) 0.69870(16) 0.0822(1)
C6 C 0.24360(6) 0.60046(17) 0.08067(12)
H5 H 0.25270 0.57190 0.13020
H6 H 0.26880 0.59950 0.06840
C7 C 0.20494(6) 0.54585(15) 0.02106(12)
H7 H 0.19660 0.57350 -0.02860
H8 H 0.21410 0.48170 0.01950
C8 C 0.16549(6) 0.54691(15) 0.03955(11)
C9 C 0.13659(6) 0.47106(14) 0.02736(10)
C10 C 0.14356(6) 0.37365(15) 0.00775(11)
C11 C 0.18500(7) 0.33021(17) 0.03603(12)
H9 H 0.21010 0.36260 0.06950
C12 C 0.18950(9) 0.24016(19) 0.01534(15)
H10 H 0.21750 0.21280 0.03390
C13 C 0.15255(10) 0.19052(18) -0.03288(17)
H11 H 0.15570 0.13030 -0.04800
C14 C 0.11096(9) 0.23057(18) -0.05864(15)
H12 H 0.08600 0.19610 -0.08970
C15 C 0.10584(7) 0.32137(15) -0.03897(12)
C16 C 0.06101(6) 0.36590(15) -0.06496(12)
H13 H 0.03820 0.31790 -0.08210
H14 H 0.05560 0.40740 -0.10740
C17 C 0.05874(6) 0.42102(15) -0.00025(12)
H15 H 0.03060 0.45400 -0.01860
H16 H 0.06050 0.37850 0.03970
C18 C 0.09635(6) 0.49003(15) 0.03109(11)
C19 C 0.12107(6) 0.63698(14) 0.08475(10)
C20 C 0.15693(6) 0.63270(14) 0.06558(10)
C21 C 0.18534(6) 0.71442(15) 0.06988(10)
C22 C 0.11358(6) 0.71109(14) 0.13060(11)
C23 C 0.07026(7) 0.73669(15) 0.11855(13)
C24 C 0.06336(8) 0.80610(17) 0.16155(16)
H17 H 0.03450 0.82290 0.15180
C25 C 0.09849(9) 0.85013(17) 0.21807(15)
H18 H 0.09390 0.89740 0.24650
C26 C 0.14101(8) 0.82305(16) 0.23210(12)
C27 C 0.14877(7) 0.75485(15) 0.18968(11)
H19 H 0.17780 0.73800 0.20070
H20 H 0.0477(9) 0.636(2) 0.0549(15)
N1 N 0.08982(5) 0.56878(12) 0.06137(9)
N2 N 0.17886(9) 0.86945(17) 0.29176(12)
O1 O 0.03415(5) 0.69338(13) 0.06483(10)
O2 O 0.17205(8) 0.93531(16) 0.32512(13)
O3 O 0.21634(7) 0.84222(16) 0.30565(12)
C28 C 0.11764(8) 0.03769(16) 0.11616(13)
H21 H 0.14270 -0.00060 0.13620
C29 C 0.08218(9) 0.01344(17) 0.04915(14)
H22 H 0.08300 -0.04200 0.02480
C30 C 0.04550(8) 0.07082(17) 0.01785(13)
H23 H 0.02200 0.05530 -0.02850
C31 C 0.04355(7) 0.15139(15) 0.05518(11)
H24 H 0.01870 0.19010 0.03380
C32 C 0.07849(6) 0.17500(14) 0.12454(10)
C33 C 0.07899(6) 0.26343(13) 0.16498(10)
C34 C 0.04159(6) 0.30385(14) 0.16845(10)
C35 C 0.08062(7) 0.44194(14) 0.21866(11)
C36 C 0.07979(7) 0.53839(14) 0.24768(12)
H25 H 0.05430 0.54500 0.25870
H26 H 0.07710 0.58410 0.20920
C37 C 0.12242(7) 0.55575(16) 0.31942(12)
H27 H 0.12280 0.61950 0.33670
H28 H 0.12380 0.51370 0.35940
C38 C 0.16171(7) 0.53981(15) 0.30325(11)
C39 C 0.19863(8) 0.59773(16) 0.33326(13)
H29 H 0.19990 0.64480 0.36700
C40 C 0.23359(8) 0.58688(17) 0.31404(14)
H30 H 0.25850 0.62520 0.33580
C41 C 0.23128(7) 0.51912(17) 0.26260(13)
H31 H 0.25430 0.51280 0.24830
C42 C 0.19489(7) 0.46045(15) 0.23216(11)
H32 H 0.19350 0.41540 0.19680
C43 C 0.16022(6) 0.46743(14) 0.25337(11)
C44 C 0.12064(6) 0.40502(14) 0.22339(10)
C45 C 0.11995(6) 0.31261(14) 0.19909(10)
C46 C 0.16119(6) 0.25813(15) 0.21006(12)
H33 H 0.18670 0.28290 0.25350
H34 H 0.16660 0.26530 0.16550
C47 C 0.15553(7) 0.15506(15) 0.22279(12)
H35 H 0.18220 0.12070 0.23030
H36 H 0.15050 0.14720 0.26770
C48 C 0.11643(7) 0.11863(14) 0.15415(11)
C49 C -0.00119(6) 0.25597(15) 0.15236(10)
C50 C -0.00344(6) 0.15936(15) 0.15932(10)
H37 H 0.02200 0.12340 0.17220
C51 C -0.04267(7) 0.11639(17) 0.14751(11)
C52 C -0.08150(8) 0.1672(2) 0.12893(13)
H38 H -0.10800 0.13720 0.12010
C53 C -0.07971(7) 0.2620(2) 0.12395(13)
H39 H -0.10540 0.29680 0.11180
C54 C -0.04040(7) 0.30806(17) 0.13651(11)
H40 H -0.006(1) 0.418(2) 0.1634(17)
N3 N 0.04326(5) 0.39277(12) 0.19330(9)
N4 N -0.04330(8) 0.01495(16) 0.15566(11)
O4 O -0.04109(5) 0.40192(12) 0.13403(9)
O5 O -0.00941(7) -0.02945(12) 0.16885(10)
O6 O -0.07826(7) -0.02147(14) 0.14831(12)
#END
