
#######################################################################
#
#                 Cambridge Crystallographic Data Centre
#                                CCDC
#
#######################################################################
#
# If this CIF has been generated from an entry in the Cambridge
# Structural Database, then it will include bibliographic, chemical,
# crystal, experimental, refinement or atomic coordinate data resulting
# from the CCDC's data processing and validation procedures.
#
#######################################################################

data_CSD_CIF_OXYPHE02
_audit_creation_date 1972-11-03
_audit_creation_method CSD-ConQuest-V1
_database_code_CSD OXYPHE02
_chemical_formula_sum 'C12 H8 N2 O1'
_chemical_formula_moiety
;
C12 H8 N2 O1
;
_journal_coden_Cambridge 152
_journal_volume 266
_journal_year 1970
_journal_page_first 593
_journal_name_full 'Philos.Trans.R.Soc.London,Ser.A '
loop_
_publ_author_name
"A.M.Glazer"
_chemical_name_systematic
;
N-Oxyphenazine
;
_cell_volume    452.310
_diffrn_ambient_temperature 183.15
_refine_special_details
;
DISORDER OF OXYGEN ATOM.

;
#These two values have been output from a single CSD field.
_refine_ls_R_factor_gt 0.089
_refine_ls_wR_factor_gt 0.089
_symmetry_cell_setting monoclinic
_symmetry_space_group_name_H-M 'P 21/a'
_symmetry_Int_Tables_number 14
loop_
_symmetry_equiv_pos_site_id
_symmetry_equiv_pos_as_xyz
1 x,y,z
2 1/2-x,1/2+y,-z
3 -x,-y,-z
4 -1/2+x,-1/2-y,z
_cell_length_a 14.01(2)
_cell_length_b 4.65(2)
_cell_length_c 7.37(1)
_cell_angle_alpha 90
_cell_angle_beta 109.6(1)
_cell_angle_gamma 90
_cell_formula_units_Z 2
loop_
_atom_type_symbol
_atom_type_radius_bond
C 0.68
N 0.68
loop_
_atom_site_label
_atom_site_type_symbol
_atom_site_fract_x
_atom_site_fract_y
_atom_site_fract_z
C1 C 0.07968 0.18670 0.04267
C2 C 0.16244 0.38226 0.08755
C3 C 0.18720 0.52817 0.25923
C4 C 0.13460 0.48459 0.38829
C5 C 0.05524 0.29925 0.34727
C6 C 0.02683 0.14156 0.17081
N1 N 0.05136 0.03463 -0.12621
N1B N -0.05136 -0.03463 0.12621
C6B C -0.02683 -0.14156 -0.17081
C1B C -0.07968 -0.18670 -0.04267
C5B C -0.05524 -0.29925 -0.34727
C2B C -0.16244 -0.38226 -0.08755
C4B C -0.13460 -0.48459 -0.38829
C3B C -0.18720 -0.52817 -0.25923
#END
