
#######################################################################
#
#                 Cambridge Crystallographic Data Centre
#                                CCDC
#
#######################################################################
#
# If this CIF has been generated from an entry in the Cambridge
# Structural Database, then it will include bibliographic, chemical,
# crystal, experimental, refinement or atomic coordinate data resulting
# from the CCDC's data processing and validation procedures.
#
#######################################################################

data_CSD_CIF_OYAFOK
_audit_creation_date 2011-10-18
_audit_creation_method CSD-ConQuest-V1
_database_code_CSD OYAFOK
_database_code_depnum_ccdc_archive 'CCDC 737152'
_chemical_formula_sum 'C17 H23 N1 O6'
_chemical_formula_moiety
;
C17 H23 N1 O6
;
_journal_coden_Cambridge 1336
_journal_volume 13
_journal_year 2011
_journal_page_first 2916
_journal_name_full 'Org.Lett. '
loop_
_publ_author_name
"T.K.M.Shing"
"K.H.So"
_chemical_name_systematic
;
Methyl 
2-(benzyloxy)-3,4-dihydroxy-8-methyl-7-oxa-8-azabicyclo[4.2.1]nonane-9-carboxy
late unknown solvate
;
_chemical_melting_point 386.15
_cell_volume   1791.997
_exptl_crystal_colour 'colorless'
_exptl_crystal_density_diffrn 1.251
_exptl_special_details
;
Melting point range 386.15-387.15K

;
_exptl_crystal_description 'block'
_diffrn_ambient_temperature 296
_refine_special_details
;
Disordered solvent molecules were not modelled and the disordered density was 
taken into account using the SQUEEZE/PLATON procedure. The unit cell was 
found to contain two voids of 30 A$3!, each holding 7.5 electrons.
;
#These two values have been output from a single CSD field.
_refine_ls_R_factor_gt 0.0609
_refine_ls_wR_factor_gt 0.0609
_symmetry_cell_setting monoclinic
_symmetry_space_group_name_H-M 'P 21'
_symmetry_Int_Tables_number 4
loop_
_symmetry_equiv_pos_site_id
_symmetry_equiv_pos_as_xyz
1 x,y,z
2 -x,1/2+y,-z
_cell_length_a 12.322(2)
_cell_length_b 10.019(2)
_cell_length_c 15.678(3)
_cell_angle_alpha 90
_cell_angle_beta 112.203(3)
_cell_angle_gamma 90
_cell_formula_units_Z 4
loop_
_atom_type_symbol
_atom_type_radius_bond
C 0.68
H 0.23
N 0.68
O 0.68
loop_
_atom_site_label
_atom_site_type_symbol
_atom_site_fract_x
_atom_site_fract_y
_atom_site_fract_z
N1 N 0.9457(3) 0.4769(4) -0.0980(3)
N2 N 0.8286(3) 0.4661(3) 0.1807(3)
O1 O 0.6288(2) 0.4407(3) -0.1420(2)
O2 O 0.7247(2) 0.2961(3) 0.02334(19)
H1 H 0.65370 0.29630 -0.00610
O3 O 0.7467(2) 0.0675(3) -0.0577(2)
H2 H 0.68240 0.06270 -0.05370
O4 O 0.9798(3) 0.3412(3) -0.1104(3)
O5 O 0.8685(6) 0.4029(9) -0.3510(4)
O6 O 0.7297(6) 0.5349(7) -0.3483(3)
O7 O 0.5665(3) 0.5309(3) 0.2339(2)
O8 O 0.4624(2) 0.5374(3) 0.0383(2)
H3 H 0.45780 0.46240 0.01630
O9 O 0.5154(2) 0.7882(3) 0.0215(2)
H4 H 0.54060 0.86310 0.01840
O10 O 0.8448(2) 0.5935(3) 0.1426(2)
O11 O 0.9214(9) 0.5593(9) 0.4168(5)
O12 O 0.9415(5) 0.7524(5) 0.3884(4)
C1 C 0.5780(4) 0.5712(6) -0.1677(4)
H5 H 0.61530 0.61700 -0.20400
H6 H 0.58980 0.62390 -0.11300
C2 C 0.4500(4) 0.5556(5) -0.2228(3)
C3 C 0.3706(5) 0.6090(5) -0.1910(4)
H7 H 0.39740 0.65190 -0.13420
C4 C 0.2543(6) 0.6011(7) -0.2399(7)
H8 H 0.20350 0.64070 -0.21620
C5 C 0.2105(6) 0.5405(10) -0.3188(8)
H9 H 0.12960 0.53500 -0.34920
C6 C 0.2840(8) 0.4836(10) -0.3583(5)
H10 H 0.25370 0.44110 -0.41520
C7 C 0.4115(6) 0.4935(7) -0.3063(4)
H11 H 0.46430 0.45830 -0.32990
C8 C 0.7527(3) 0.4427(4) -0.0899(3)
H12 H 0.76790 0.51240 -0.04290
C9 C 0.7855(3) 0.3081(4) -0.0391(3)
H13 H 0.87010 0.30710 -0.00320
C10 C 0.7540(4) 0.1873(4) -0.1028(3)
H14 H 0.67750 0.20380 -0.15200
C11 C 0.8418(4) 0.1589(5) -0.1467(4)
H15 H 0.90870 0.11500 -0.10100
H16 H 0.80630 0.09520 -0.19610
C12 C 0.8870(4) 0.2726(5) -0.1854(4)
H17 H 0.91870 0.23860 -0.22990
C13 C 0.7960(4) 0.3818(6) -0.2309(3)
H18 H 0.71750 0.34400 -0.24630
C14 C 0.8204(3) 0.4800(5) -0.1505(3)
H19 H 0.79760 0.57010 -0.17510
C15 C 1.0107(4) 0.5631(6) -0.1369(4)
H20 H 0.99230 0.65470 -0.13040
H21 H 0.98930 0.54260 -0.20100
H22 H 1.09320 0.54880 -0.10490
C16 C 0.8045(6) 0.4363(9) -0.3154(5)
C17 C 0.7284(11) 0.5856(15) -0.4378(6)
H23 H 0.67350 0.65780 -0.45860
H24 H 0.70570 0.51500 -0.48250
H25 H 0.80530 0.61670 -0.43000
C18 C 0.5007(4) 0.4338(6) 0.2572(4)
H26 H 0.55120 0.36030 0.28880
H27 H 0.44050 0.39910 0.20170
C19 C 0.4463(5) 0.4922(7) 0.3168(4)
C20 C 0.3607(7) 0.4155(10) 0.3341(6)
H28 H 0.34040 0.32990 0.31050
C21 C 0.3069(13) 0.478(2) 0.3908(11)
H29 H 0.24880 0.43250 0.40310
C22 C 0.3372(14) 0.5999(17) 0.4264(9)
H30 H 0.30210 0.63530 0.46450
C23 C 0.4177(8) 0.6721(10) 0.4080(5)
H31 H 0.43760 0.75750 0.43210
C24 C 0.4697(6) 0.6167(8) 0.3530(4)
H32 H 0.52430 0.66780 0.33970
C25 C 0.6278(4) 0.4888(4) 0.1768(3)
H33 H 0.60870 0.39480 0.16060
C26 C 0.5834(3) 0.5706(4) 0.0882(3)
H34 H 0.62840 0.54600 0.05070
C27 C 0.5918(3) 0.7234(4) 0.1035(3)
H35 H 0.56780 0.74580 0.15460
C28 C 0.7134(3) 0.7790(4) 0.1231(3)
H36 H 0.71570 0.86990 0.14490
H37 H 0.72520 0.78290 0.06540
C29 C 0.8160(4) 0.7034(4) 0.1925(3)
H38 H 0.88350 0.76340 0.21660
C30 C 0.7951(4) 0.6403(5) 0.2720(3)
H39 H 0.72660 0.68400 0.27710
C31 C 0.7584(4) 0.4984(4) 0.2360(3)
H40 H 0.77780 0.43630 0.28800
C32 C 0.9461(4) 0.4150(6) 0.2344(4)
H41 H 0.98650 0.39680 0.19400
H42 H 0.93980 0.33430 0.26520
H43 H 0.98890 0.48040 0.27920
C33 C 0.8900(5) 0.6452(7) 0.3629(4)
C34 C 1.0291(8) 0.7655(10) 0.4809(5)
H44 H 1.06350 0.85280 0.48840
H45 H 1.08890 0.69930 0.49070
H46 H 0.99280 0.75320 0.52480
#END
