
#######################################################################
#
#                 Cambridge Crystallographic Data Centre
#                                CCDC
#
#######################################################################
#
# If this CIF has been generated from an entry in the Cambridge
# Structural Database, then it will include bibliographic, chemical,
# crystal, experimental, refinement or atomic coordinate data resulting
# from the CCDC's data processing and validation procedures.
#
#######################################################################

data_CSD_CIF_OYAFIE
_audit_creation_date 2011-10-18
_audit_creation_method CSD-ConQuest-V1
_database_code_CSD OYAFIE
_database_code_depnum_ccdc_archive 'CCDC 681970'
_chemical_formula_sum 'C21 H27 N1 O7'
_chemical_formula_moiety
;
C21 H27 N1 O7
;
_journal_coden_Cambridge 1336
_journal_volume 13
_journal_year 2011
_journal_page_first 2916
_journal_name_full 'Org.Lett. '
loop_
_publ_author_name
"T.K.M.Shing"
"K.H.So"
_chemical_name_systematic
;
Ethyl 
5-(benzoyloxy)-1,7,7-trimethyloctahydro[1,3]dioxolo[4,5-g][2,1]benzoxazole-3-c
arboxylate
;
_cell_volume   1083.721
_exptl_crystal_colour 'colorless'
_exptl_crystal_density_diffrn 1.242
_exptl_crystal_description 'block'
_diffrn_ambient_temperature 296
#These two values have been output from a single CSD field.
_refine_ls_R_factor_gt 0.0473
_refine_ls_wR_factor_gt 0.0473
_symmetry_cell_setting monoclinic
_symmetry_space_group_name_H-M 'P 21'
_symmetry_Int_Tables_number 4
loop_
_symmetry_equiv_pos_site_id
_symmetry_equiv_pos_as_xyz
1 x,y,z
2 -x,1/2+y,-z
_cell_length_a 8.7187(2)
_cell_length_b 10.0275(2)
_cell_length_c 12.7718(3)
_cell_angle_alpha 90
_cell_angle_beta 103.938(2)
_cell_angle_gamma 90
_cell_formula_units_Z 2
loop_
_atom_type_symbol
_atom_type_radius_bond
C 0.68
H 0.23
N 0.68
O 0.68
loop_
_atom_site_label
_atom_site_type_symbol
_atom_site_fract_x
_atom_site_fract_y
_atom_site_fract_z
N1 N 0.3965(4) 0.1532(5) 0.7750(3)
O1 O 0.7342(3) 0.2262(3) 0.6608(2)
O2 O 0.6640(3) 0.0757(4) 0.5233(3)
O3 O 0.3438(3) 0.1408(3) 0.3965(2)
O4 O 0.3794(5) 0.3177(4) 0.2987(3)
O5 O 0.2639(4) 0.2404(4) 0.7826(3)
O6 O 0.4007(6) 0.4641(6) 0.8940(3)
O7 O 0.2744(5) 0.5891(5) 0.7578(3)
C1 C 0.7954(4) 0.1529(6) 0.5834(4)
C2 C 0.9223(5) 0.0583(7) 0.6377(6)
H1 H 0.88050 -0.00270 0.68180
H2 H 1.00830 0.10740 0.68210
H3 H 0.95960 0.00930 0.58410
C3 C 0.8490(6) 0.2524(8) 0.5107(5)
H4 H 0.76240 0.30970 0.47820
H5 H 0.88470 0.20570 0.45540
H6 H 0.93410 0.30500 0.55250
C4 C 0.6017(4) 0.1508(5) 0.6765(3)
H7 H 0.63940 0.07410 0.72320
C5 C 0.5278(4) 0.1025(4) 0.5628(3)
H8 H 0.46780 0.02040 0.56500
C6 C 0.4241(4) 0.2065(4) 0.4959(3)
H9 H 0.48940 0.27970 0.47980
C7 C 0.3042(4) 0.2601(5) 0.5522(3)
H10 H 0.24090 0.18730 0.56900
H11 H 0.23430 0.32180 0.50490
C8 C 0.3872(4) 0.3319(4) 0.6563(3)
H12 H 0.43960 0.41340 0.64080
C9 C 0.5020(4) 0.2404(4) 0.7300(3)
H13 H 0.57050 0.29210 0.78800
C10 C 0.3254(5) 0.2088(5) 0.3034(3)
C11 C 0.2319(4) 0.1331(5) 0.2096(3)
C12 C 0.1640(5) 0.0129(5) 0.2212(3)
H14 H 0.17780 -0.02460 0.28950
C13 C 0.0746(7) -0.0538(7) 0.1320(4)
H15 H 0.02890 -0.13570 0.14050
C14 C 0.0539(6) 0.0007(7) 0.0318(4)
H16 H -0.00800 -0.04280 -0.02790
C15 C 0.1255(7) 0.1214(8) 0.0193(4)
H17 H 0.11340 0.15730 -0.04940
C16 C 0.2144(6) 0.1887(6) 0.1077(3)
H18 H 0.26180 0.26980 0.09910
C17 C 0.4686(7) 0.1112(9) 0.8844(4)
H19 H 0.55660 0.05370 0.88420
H20 H 0.39220 0.06400 0.91320
H21 H 0.50470 0.18810 0.92820
C18 C 0.2725(5) 0.3613(6) 0.7272(3)
H22 H 0.16810 0.38170 0.68090
C19 C 0.3260(5) 0.4768(6) 0.8041(4)
C20 C 0.3127(11) 0.7126(9) 0.8206(7)
H23 H 0.36660 0.68940 0.89390
H24 H 0.38570 0.76430 0.79030
C21 C 0.1950(13) 0.7855(14) 0.8235(17)
H25 H 0.23070 0.86420 0.86510
H26 H 0.12380 0.73700 0.85620
H27 H 0.14140 0.81070 0.75140
#END
