
#######################################################################
#
#                 Cambridge Crystallographic Data Centre
#                                CCDC
#
#######################################################################
#
# If this CIF has been generated from an entry in the Cambridge
# Structural Database, then it will include bibliographic, chemical,
# crystal, experimental, refinement or atomic coordinate data resulting
# from the CCDC's data processing and validation procedures.
#
#######################################################################

data_CSD_CIF_OYAJOO
_audit_creation_date 2011-10-18
_audit_creation_method CSD-ConQuest-V1
_database_code_CSD OYAJOO
_database_code_depnum_ccdc_archive 'CCDC 809083'
_chemical_formula_sum 'C28 H20 N2 O4'
_chemical_formula_moiety
;
C28 H20 N2 O4
;
_journal_coden_Cambridge 1336
_journal_volume 13
_journal_year 2011
_journal_page_first 2970
_journal_name_full 'Org.Lett. '
loop_
_publ_author_name
"Siang-en Syu"
"Yu-Ting Lee"
"Yeong-Jiunn Jang"
"Wenwei Lin"
_chemical_name_systematic
;
1-Benzyl-2-(4-nitrophenyl)-1H-indol-3-yl benzoate
;
_chemical_melting_point 442.15
_cell_volume   2241.922
_exptl_crystal_colour 'colorless'
_exptl_crystal_density_diffrn 1.329
_exptl_special_details
;
Melting point range 442.15-442.65K

;
_exptl_crystal_description 'prism'
_diffrn_ambient_temperature 200
#These two values have been output from a single CSD field.
_refine_ls_R_factor_gt 0.0611
_refine_ls_wR_factor_gt 0.0611
_symmetry_cell_setting monoclinic
_symmetry_space_group_name_H-M 'P 21/c'
_symmetry_Int_Tables_number 14
loop_
_symmetry_equiv_pos_site_id
_symmetry_equiv_pos_as_xyz
1 x,y,z
2 -x,1/2+y,1/2-z
3 -x,-y,-z
4 x,-1/2-y,-1/2+z
_cell_length_a 10.647(3)
_cell_length_b 6.0513(16)
_cell_length_c 35.119(9)
_cell_angle_alpha 90
_cell_angle_beta 97.762(5)
_cell_angle_gamma 90
_cell_formula_units_Z 4
loop_
_atom_type_symbol
_atom_type_radius_bond
C 0.68
H 0.23
N 0.68
O 0.68
loop_
_atom_site_label
_atom_site_type_symbol
_atom_site_fract_x
_atom_site_fract_y
_atom_site_fract_z
C1 C 0.9566(3) 0.8949(5) 0.16772(9)
C2 C 0.8961(3) 0.9309(5) 0.13127(8)
H1 H 0.91480 1.05800 0.11720
C3 C 0.8078(3) 0.7796(5) 0.11553(8)
H2 H 0.76500 0.80280 0.09030
C4 C 0.7802(3) 0.5916(5) 0.13610(8)
C5 C 0.8458(3) 0.5613(5) 0.17294(8)
H3 H 0.82960 0.43350 0.18720
C6 C 0.9334(3) 0.7137(5) 0.18888(9)
H4 H 0.97690 0.69330 0.21410
C7 C 0.6900(3) 0.4267(5) 0.11858(8)
C8 C 0.5652(3) 0.3836(5) 0.17491(8)
H5 H 0.47210 0.36320 0.17190
H6 H 0.58220 0.54410 0.17750
C9 C 0.6217(3) 0.2720(5) 0.21118(9)
C10 C 0.6158(3) 0.3791(5) 0.2457(1)
H7 H 0.57610 0.51960 0.24590
C11 C 0.6675(3) 0.2831(7) 0.27989(10)
H8 H 0.66380 0.35860 0.30340
C12 C 0.7241(3) 0.0787(6) 0.28008(9)
H9 H 0.75900 0.01270 0.30370
C13 C 0.7302(3) -0.0292(6) 0.24613(10)
H10 H 0.76930 -0.17030 0.24610
C14 C 0.6792(3) 0.0678(5) 0.21199(9)
H11 H 0.68380 -0.00780 0.18850
C15 C 0.5500(3) 0.1458(5) 0.11612(9)
C16 C 0.4650(3) -0.0152(6) 0.12466(10)
H12 H 0.43700 -0.02230 0.14920
C17 C 0.4231(3) -0.1634(7) 0.09617(12)
H13 H 0.36500 -0.27530 0.10120
C18 C 0.4634(3) -0.1546(6) 0.05981(11)
H14 H 0.43410 -0.26180 0.04090
C19 C 0.5452(3) 0.0083(6) 0.05144(10)
H15 H 0.57190 0.01580 0.02670
C20 C 0.5886(3) 0.1625(5) 0.07964(9)
C21 C 0.6744(3) 0.3425(5) 0.08223(8)
C22 C 0.8023(3) 0.2988(5) 0.03227(9)
C23 C 0.8262(3) 0.3999(5) -0.00429(8)
C24 C 0.7762(3) 0.6035(5) -0.01673(9)
H16 H 0.72670 0.68560 -0.00110
C25 C 0.7986(4) 0.6863(6) -0.05183(10)
H17 H 0.76390 0.82500 -0.06040
C26 C 0.8707(4) 0.5696(8) -0.07436(10)
H18 H 0.88600 0.62790 -0.09840
C27 C 0.9206(3) 0.3702(7) -0.06233(10)
H19 H 0.97030 0.28990 -0.07810
C28 C 0.8991(3) 0.2836(6) -0.02716(9)
H20 H 0.93440 0.14470 -0.01890
N1 N 1.0479(3) 1.0599(5) 0.18520(9)
N2 N 0.6118(2) 0.3050(4) 0.13982(7)
O1 O 1.0704(2) 1.0657(4) 0.22005(7)
O2 O 1.0976(3) 1.1827(4) 0.16395(7)
O3 O 0.72987(19) 0.4330(3) 0.05188(5)
O4 O 0.8372(2) 0.1198(4) 0.04391(6)
#END
