
#######################################################################
#
#                 Cambridge Crystallographic Data Centre
#                                CCDC
#
#######################################################################
#
# If this CIF has been generated from an entry in the Cambridge
# Structural Database, then it will include bibliographic, chemical,
# crystal, experimental, refinement or atomic coordinate data resulting
# from the CCDC's data processing and validation procedures.
#
#######################################################################

data_CSD_CIF_OYARIR
_audit_creation_date 2016-10-20
_audit_creation_method CSD-ConQuest-V1
_database_code_CSD OYARIR
_database_code_depnum_ccdc_archive 'CCDC 1497665'
_chemical_formula_sum 'C17 H19 N1 O6'
_chemical_formula_moiety
;
C17 H19 N1 O6
;
_journal_coden_Cambridge 1336
_journal_volume 18
_journal_year 2016
_journal_page_first 4932
_journal_name_full 'Org.Lett. '
loop_
_publ_author_name
"Chuang Qiao"
"Wen Zhang"
"Jing-Chun Han"
"Chuang-Chuang Li"
_chemical_name_systematic
;
(3,5,5-trimethyl-2-oxo-7-oxabicyclo[4.1.0]heptan-3-yl)methyl 4-nitrobenzoate
;
_cell_volume   3369.215
_exptl_crystal_density_diffrn 1.31
_diffrn_ambient_temperature 296
#These two values have been output from a single CSD field.
_refine_ls_R_factor_gt 0.0507
_refine_ls_wR_factor_gt 0.0507
_symmetry_cell_setting monoclinic
_symmetry_space_group_name_H-M 'C 2'
_symmetry_Int_Tables_number 5
loop_
_symmetry_equiv_pos_site_id
_symmetry_equiv_pos_as_xyz
1 x,y,z
2 -x,y,-z
3 1/2+x,1/2+y,z
4 1/2-x,1/2+y,-z
_cell_length_a 20.9111(4)
_cell_length_b 10.4665(2)
_cell_length_c 15.9414(3)
_cell_angle_alpha 90
_cell_angle_beta 105.0589(11)
_cell_angle_gamma 90
_cell_formula_units_Z 8
loop_
_atom_type_symbol
_atom_type_radius_bond
C 0.68
H 0.23
N 0.68
O 0.68
loop_
_atom_site_label
_atom_site_type_symbol
_atom_site_fract_x
_atom_site_fract_y
_atom_site_fract_z
N1 N 0.4458(2) 0.6736(4) 0.3368(2)
O1 O 0.54920(14) 0.1887(3) 0.62128(17)
O2 O 0.6226(2) -0.0271(3) 0.5142(2)
O3 O 0.66303(11) 0.2726(2) 0.52119(15)
O4 O 0.72055(14) 0.4494(3) 0.5718(2)
O5 O 0.39845(18) 0.6144(4) 0.2980(3)
O6 O 0.4494(2) 0.7884(4) 0.3367(3)
C1 C 0.56457(18) 0.0598(4) 0.6051(2)
H1 H 0.52700 0.00440 0.57830
C2 C 0.56896(18) 0.1019(4) 0.6922(2)
H2 H 0.53360 0.07220 0.71750
C3 C 0.63400(16) 0.1300(3) 0.75538(18)
C4 C 0.65644(19) 0.0074(4) 0.8063(2)
H3 H 0.69820 0.02170 0.84770
H4 H 0.66110 -0.05930 0.76700
H5 H 0.62410 -0.01750 0.83630
C5 C 0.6231(2) 0.2332(4) 0.8184(2)
H6 H 0.66440 0.25230 0.85940
H7 H 0.59200 0.20280 0.84870
H8 H 0.60600 0.30900 0.78650
C6 C 0.68218(16) 0.1790(3) 0.70601(18)
H9 H 0.70620 0.25370 0.72280
C7 C 0.68992(17) 0.1016(3) 0.6277(2)
C8 C 0.7425(2) -0.0051(5) 0.6553(3)
H10 H 0.78360 0.03170 0.68740
H11 H 0.74880 -0.04720 0.60450
H12 H 0.72770 -0.06610 0.69120
C9 C 0.6248(2) 0.0414(3) 0.57677(19)
C10 C 0.71549(18) 0.1875(4) 0.5660(2)
H13 H 0.75300 0.23700 0.59860
H14 H 0.73010 0.13560 0.52410
C11 C 0.67146(17) 0.3978(4) 0.5286(2)
C12 C 0.61225(15) 0.4691(3) 0.47740(18)
C13 C 0.55781(16) 0.4063(3) 0.4286(2)
H15 H 0.55750 0.31750 0.42640
C14 C 0.50352(17) 0.4739(4) 0.3826(2)
H16 H 0.46630 0.43160 0.34980
C15 C 0.50530(17) 0.6033(3) 0.38615(18)
C16 C 0.55880(19) 0.6694(3) 0.4339(2)
H17 H 0.55880 0.75820 0.43510
C17 C 0.61281(16) 0.6005(3) 0.48008(19)
H18 H 0.64980 0.64320 0.51320
N2 N 0.3824(2) 0.5279(5) -0.0163(2)
O7 O 0.59123(14) 1.0098(3) 0.05551(17)
O8 O 0.55278(18) 1.2240(4) 0.2008(3)
O9 O 0.57017(12) 0.9169(3) 0.23750(15)
O10 O 0.63017(16) 0.7389(3) 0.27886(18)
O11 O 0.34030(18) 0.5920(4) -0.0662(2)
O12 O 0.3847(2) 0.4123(4) -0.0174(3)
C18 C 0.58465(19) 1.1366(4) 0.0862(3)
H19 H 0.55210 1.19160 0.04730
C19 C 0.6421(2) 1.0996(4) 0.0556(2)
H20 H 0.64330 1.13310 -0.00140
C20 C 0.70792(15) 1.0770(4) 0.1184(2)
C21 C 0.7467(2) 0.9809(5) 0.0795(3)
H21 H 0.78910 0.96600 0.11950
H22 H 0.75300 1.01400 0.02600
H23 H 0.72260 0.90200 0.06830
C22 C 0.7451(2) 1.2037(5) 0.1311(3)
H24 H 0.78780 1.19220 0.17120
H25 H 0.72030 1.26590 0.15380
H26 H 0.75080 1.23270 0.07640
C23 C 0.69592(15) 1.0213(3) 0.20117(18)
H27 H 0.71700 0.94670 0.22530
C24 C 0.64839(16) 1.0910(3) 0.24354(19)
C25 C 0.6842(2) 1.1928(5) 0.3091(3)
H28 H 0.72040 1.15390 0.35090
H29 H 0.65370 1.22890 0.33830
H30 H 0.70080 1.25910 0.27870
C26 C 0.59205(18) 1.1544(4) 0.1790(3)
C27 C 0.6182(2) 0.9962(4) 0.2963(2)
H31 H 0.65280 0.94320 0.33200
H32 H 0.59690 1.04250 0.33430
C28 C 0.58223(19) 0.7919(4) 0.2346(2)
C29 C 0.52798(16) 0.7250(3) 0.16966(19)
C30 C 0.48011(17) 0.7907(3) 0.1103(2)
H33 H 0.48030 0.87960 0.11090
C31 C 0.43157(17) 0.7264(4) 0.0496(2)
H34 H 0.39890 0.77050 0.00920
C32 C 0.43311(16) 0.5964(4) 0.0509(2)
C33 C 0.47970(19) 0.5276(4) 0.1094(2)
H35 H 0.47870 0.43880 0.10890
C34 C 0.52797(18) 0.5927(4) 0.1689(2)
H36 H 0.56070 0.54790 0.20870
#END
