
#######################################################################
#
#                 Cambridge Crystallographic Data Centre
#                                CCDC
#
#######################################################################
#
# If this CIF has been generated from an entry in the Cambridge
# Structural Database, then it will include bibliographic, chemical,
# crystal, experimental, refinement or atomic coordinate data resulting
# from the CCDC's data processing and validation procedures.
#
#######################################################################

data_CSD_CIF_OYAROX
_audit_creation_date 2016-10-20
_audit_creation_method CSD-ConQuest-V1
_database_code_CSD OYAROX
_database_code_depnum_ccdc_archive 'CCDC 1497666'
_chemical_formula_sum 'C29 H30 N2 O8'
_chemical_formula_moiety
;
C29 H30 N2 O8
;
_journal_coden_Cambridge 1336
_journal_volume 18
_journal_year 2016
_journal_page_first 4932
_journal_name_full 'Org.Lett. '
loop_
_publ_author_name
"Chuang Qiao"
"Wen Zhang"
"Jing-Chun Han"
"Chuang-Chuang Li"
_chemical_name_systematic
;
(1,1,3,5-tetramethyl-3-(((4-nitrobenzoyl)oxy)methyl)-2,3,5,7a-tetrahydro-1H-in
den-4-yl)methyl 4-nitrobenzoate
;
_cell_volume   2697.567
_exptl_crystal_colour 'colorless'
_exptl_crystal_density_diffrn 1.316
_exptl_crystal_description 'block'
_diffrn_ambient_temperature 293
#These two values have been output from a single CSD field.
_refine_ls_R_factor_gt 0.0598
_refine_ls_wR_factor_gt 0.0598
_symmetry_cell_setting monoclinic
_symmetry_space_group_name_H-M 'P 21/c'
_symmetry_Int_Tables_number 14
loop_
_symmetry_equiv_pos_site_id
_symmetry_equiv_pos_as_xyz
1 x,y,z
2 -x,1/2+y,1/2-z
3 -x,-y,-z
4 x,-1/2-y,-1/2+z
_cell_length_a 28.362(2)
_cell_length_b 5.9866(1)
_cell_length_c 16.1832(3)
_cell_angle_alpha 90
_cell_angle_beta 100.970(7)
_cell_angle_gamma 90
_cell_formula_units_Z 4
loop_
_atom_type_symbol
_atom_type_radius_bond
C 0.68
H 0.23
N 0.68
O 0.68
loop_
_atom_site_label
_atom_site_type_symbol
_atom_site_fract_x
_atom_site_fract_y
_atom_site_fract_z
N1 N 0.44591(11) 0.3313(7) 0.92078(17)
N2 N 1.02554(12) 0.4536(9) 1.1782(2)
O1 O 0.41112(10) 0.4478(6) 0.9234(2)
O2 O 0.63631(6) 0.5912(3) 0.79082(11)
O3 O 0.83627(6) 0.6951(3) 0.91637(10)
O4 O 1.05305(12) 0.6055(8) 1.1779(2)
O5 O 0.44897(11) 0.1374(6) 0.9423(2)
O6 O 0.81835(9) 0.3377(4) 0.93658(15)
O7 O 1.03249(12) 0.2949(9) 1.2235(3)
O8 O 0.60584(7) 0.9318(3) 0.79641(16)
C1 C 0.48707(10) 0.4334(5) 0.89111(16)
C2 C 0.48132(10) 0.6433(5) 0.85619(18)
H1 H 0.45240 0.71960 0.85150
C3 C 0.51983(9) 0.7370(5) 0.82837(17)
H2 H 0.51710 0.88010 0.80560
C4 C 0.56244(8) 0.6208(4) 0.83386(14)
C5 C 0.60319(8) 0.7330(4) 0.80493(15)
C6 C 0.70606(8) 0.4958(4) 0.73426(14)
C7 C 0.75615(8) 0.5650(4) 0.72080(14)
C8 C 0.79176(8) 0.6701(4) 0.77227(14)
C9 C 0.78983(9) 0.7316(5) 0.86161(15)
H3 H 0.78080 0.88740 0.86410
H4 H 0.76560 0.64200 0.88100
C10 C 0.84551(11) 0.4938(5) 0.94912(17)
C11 C 0.89348(10) 0.4831(5) 1.00493(15)
C12 C 0.92606(11) 0.6573(5) 1.00990(18)
H5 H 0.91890 0.78190 0.97550
C13 C 0.96951(11) 0.6455(7) 1.0664(2)
H6 H 0.99170 0.76110 1.07010
C14 C 0.97886(11) 0.4623(7) 1.11604(18)
C15 C 0.52856(10) 0.3149(5) 0.89842(17)
H7 H 0.53120 0.17400 0.92310
C16 C 0.56682(10) 0.4077(4) 0.86852(17)
H8 H 0.59520 0.32790 0.87160
C17 C 0.67883(9) 0.4446(4) 0.64324(15)
H9 H 0.67390 0.28500 0.63590
H10 H 0.64770 0.51750 0.63310
C18 C 0.75968(9) 0.4908(4) 0.63303(14)
H11 H 0.76410 0.32850 0.63570
C19 C 0.80180(11) 0.5835(5) 0.60266(18)
H12 H 0.80380 0.56580 0.54630
C20 C 0.83634(11) 0.6897(6) 0.6531(2)
H13 H 0.86220 0.73880 0.63020
C21 C 0.83762(9) 0.7384(5) 0.74372(17)
H14 H 0.86400 0.65130 0.77650
C22 C 0.94791(14) 0.2884(7) 1.1127(2)
H15 H 0.95550 0.16490 1.14750
C23 C 0.90459(12) 0.2992(5) 1.0559(2)
H16 H 0.88290 0.18130 1.05220
C24 C 0.84903(12) 0.9880(6) 0.7618(2)
H17 H 0.82330 1.07760 0.73200
H18 H 0.87830 1.02600 0.74360
H19 H 0.85260 1.01540 0.82110
C25 C 0.69971(13) 0.4054(5) 0.49813(17)
H20 H 0.66740 0.43310 0.46950
H21 H 0.70410 0.24820 0.50860
H22 H 0.72170 0.45570 0.46380
C26 C 0.70163(11) 0.7814(4) 0.56306(18)
H23 H 0.70880 0.86410 0.61470
H24 H 0.66880 0.80740 0.53650
H25 H 0.72250 0.82910 0.52630
C27 C 0.7096(1) 0.2865(4) 0.78916(17)
H26 H 0.67800 0.22900 0.78890
H27 H 0.72470 0.32350 0.84570
H28 H 0.72840 0.17550 0.76730
C28 C 0.70917(9) 0.5316(4) 0.58173(15)
C29 C 0.68026(8) 0.6834(4) 0.77095(17)
H29 H 0.70050 0.74200 0.82140
H30 H 0.67280 0.80390 0.73050
#END
