
#######################################################################
#
#                 Cambridge Crystallographic Data Centre
#                                CCDC
#
#######################################################################
#
# If this CIF has been generated from an entry in the Cambridge
# Structural Database, then it will include bibliographic, chemical,
# crystal, experimental, refinement or atomic coordinate data resulting
# from the CCDC's data processing and validation procedures.
#
#######################################################################

data_CSD_CIF_OYEHUW
_audit_creation_date 2011-10-18
_audit_creation_method CSD-ConQuest-V1
_database_code_CSD OYEHUW
_database_code_depnum_ccdc_archive 'CCDC 843800'
_chemical_formula_sum 'C13 H14 N2 O4'
_chemical_formula_moiety
;
C13 H14 N2 O4
;
_journal_coden_Cambridge 1336
_journal_volume 13
_journal_year 2011
_journal_page_first 2118
_journal_name_full 'Org.Lett. '
loop_
_publ_author_name
"A.Singh"
"G.P.Roth"
_chemical_name_systematic
;
Ethyl 2-(hydroxyimino)-3-(2-oxo-2,3-dihydro-1H-indol-3-yl)propanoate
;
_cell_volume    645.012
_exptl_crystal_colour 'colorless'
_exptl_crystal_density_diffrn 1.35
_exptl_crystal_description 'plate'
_diffrn_ambient_temperature 150
#These two values have been output from a single CSD field.
_refine_ls_R_factor_gt 0.0359
_refine_ls_wR_factor_gt 0.0359
_symmetry_cell_setting triclinic
_symmetry_space_group_name_H-M 'P -1'
_symmetry_Int_Tables_number 2
loop_
_symmetry_equiv_pos_site_id
_symmetry_equiv_pos_as_xyz
1 x,y,z
2 -x,-y,-z
_cell_length_a 5.0939(4)
_cell_length_b 11.4983(10)
_cell_length_c 12.4598(11)
_cell_angle_alpha 113.914(1)
_cell_angle_beta 99.967(2)
_cell_angle_gamma 95.827(2)
_cell_formula_units_Z 2
loop_
_atom_type_symbol
_atom_type_radius_bond
C 0.68
H 0.23
N 0.68
O 0.68
loop_
_atom_site_label
_atom_site_type_symbol
_atom_site_fract_x
_atom_site_fract_y
_atom_site_fract_z
O1 O 1.13398(16) 0.63598(8) 0.15708(7)
O2 O 1.25100(16) 1.01956(8) 0.39928(8)
H1 H 1.39870 1.07270 0.43350
O3 O 1.26215(18) 0.74801(9) 0.51032(8)
O4 O 0.85559(19) 0.63507(9) 0.38914(8)
N1 N 0.76018(18) 0.60194(9) 0.00685(8)
H2 H 0.76170 0.52130 -0.04170
N2 N 1.25132(19) 0.92075(9) 0.43610(8)
C1 C 0.8631(2) 0.8049(1) 0.17271(9)
H3 H 1.01460 0.87440 0.18400
C2 C 0.9414(2) 0.67243(10) 0.11413(9)
C3 C 0.5702(2) 0.67341(10) -0.01708(10)
C4 C 0.3555(2) 0.63394(12) -0.1166(1)
H4 H 0.32010 0.54940 -0.18090
C5 C 0.1935(2) 0.72428(14) -0.11807(12)
H5 H 0.04370 0.70050 -0.18480
C6 C 0.2455(3) 0.84766(13) -0.02478(12)
H6 H 0.13310 0.90750 -0.02880
C7 C 0.4621(2) 0.88487(12) 0.07530(11)
H7 H 0.49740 0.96930 0.13970
C8 C 0.6236(2) 0.79667(10) 0.07881(10)
C9 C 0.7967(2) 0.83000(11) 0.29545(9)
H8 H 0.73510 0.91380 0.32750
H9 H 0.64590 0.76110 0.28340
C10 C 1.0361(2) 0.83299(10) 0.38605(9)
C11 C 1.0370(2) 0.72732(11) 0.42669(10)
C12 C 1.2917(3) 0.64794(14) 0.55167(14)
H10 H 1.29700 0.56540 0.48360
H11 H 1.13720 0.63350 0.58610
C13 C 1.5526(3) 0.69412(17) 0.64619(14)
H12 H 1.58280 0.62780 0.67500
H13 H 1.54270 0.77440 0.71400
H14 H 1.70310 0.71040 0.61150
#END
