
#######################################################################
#
#                 Cambridge Crystallographic Data Centre
#                                CCDC
#
#######################################################################
#
# If this CIF has been generated from an entry in the Cambridge
# Structural Database, then it will include bibliographic, chemical,
# crystal, experimental, refinement or atomic coordinate data resulting
# from the CCDC's data processing and validation procedures.
#
#######################################################################

data_CSD_CIF_OYELUA
_audit_creation_date 2011-10-17
_audit_creation_method CSD-ConQuest-V1
_database_code_CSD OYELUA
_database_code_depnum_ccdc_archive 'CCDC 781684'
_chemical_formula_sum 'C12 H17 N4 O2'
_chemical_formula_moiety
;
C12 H17 N4 O2
;
_journal_coden_Cambridge 1037
_journal_volume 12
_journal_year 2011
_journal_page_first 76-8
_journal_name_full 'ARKIVOC '
loop_
_publ_author_name
"E.V.Tretyakov"
"I.A.Utepova"
"M.V.Varaksin"
"S.E.Tolstikov"
"G.V.Romanenko"
"A.S.Bogomyakov"
"D.V.Stass"
"V.I.Ovcharenko"
"O.N.Chupakhin"
_chemical_name_systematic
;
(E)-2-(2-(1H-Pyrazol-5-yl)vinyl)-4,4,5,5-tetramethyl-4,5-dihydro-1H-imidazol-3
-oxide-1-oxyl
;
_cell_volume   2601.359
_exptl_crystal_colour 'green'
_exptl_crystal_density_diffrn 1.273
_exptl_crystal_description 'rhombic'
_diffrn_ambient_temperature 296
#These two values have been output from a single CSD field.
_refine_ls_R_factor_gt 0.0537
_refine_ls_wR_factor_gt 0.0537
_symmetry_cell_setting orthorhombic
_symmetry_space_group_name_H-M 'P n a 21'
_symmetry_Int_Tables_number 33
loop_
_symmetry_equiv_pos_site_id
_symmetry_equiv_pos_as_xyz
1 x,y,z
2 -x,-y,1/2+z
3 1/2+x,1/2-y,z
4 1/2-x,1/2+y,1/2+z
_cell_length_a 12.680(3)
_cell_length_b 9.066(2)
_cell_length_c 22.629(5)
_cell_angle_alpha 90
_cell_angle_beta 90
_cell_angle_gamma 90
_cell_formula_units_Z 8
loop_
_atom_type_symbol
_atom_type_radius_bond
C 0.68
H 0.23
N 0.68
O 0.68
loop_
_atom_site_label
_atom_site_type_symbol
_atom_site_fract_x
_atom_site_fract_y
_atom_site_fract_z
N1 N 0.7219(3) 0.6910(4) 0.22240
O1 O 0.7267(3) 0.6471(4) 0.2766(2)
C1 C 0.6614(4) 0.8238(5) 0.2058(3)
N2 N 0.7396(3) 0.6959(5) 0.1274(3)
O2 O 0.7689(3) 0.6578(4) 0.0749(3)
C2 C 0.6878(7) 0.9513(7) 0.2448(3)
H1 H 0.66770 0.92910 0.28470
H2 H 0.65050 1.03730 0.23150
H3 H 0.76230 0.96970 0.24320
N3 N 0.9662(3) 0.2244(5) 0.1752(3)
H4 H 0.967(3) 0.251(5) 0.137(2)
C3 C 0.5448(4) 0.7834(8) 0.2170(4)
H5 H 0.52560 0.70100 0.19250
H6 H 0.50090 0.86630 0.20750
H7 H 0.53540 0.75760 0.25780
C4 C 0.6859(3) 0.8376(5) 0.1398(3)
N4 N 1.0316(3) 0.1107(5) 0.1893(3)
C5 C 0.5896(5) 0.8540(9) 0.0995(3)
H8 H 0.53940 0.77800 0.10850
H9 H 0.61130 0.84550 0.05900
H10 H 0.55790 0.94880 0.10580
C6 C 0.7690(5) 0.9574(7) 0.1275(4)
H11 H 0.82750 0.94500 0.15400
H12 H 0.73820 1.05300 0.13340
H13 H 0.79320 0.94900 0.08740
C7 C 0.7616(3) 0.6173(5) 0.1759(3)
C8 C 0.8217(3) 0.4856(5) 0.1748(3)
H14 H 0.84020 0.44720 0.13810
C9 C 0.8539(3) 0.4123(5) 0.2234(3)
H15 H 0.82980 0.44620 0.25970
C10 C 0.9225(3) 0.2861(5) 0.2235(3)
C11 C 0.9612(4) 0.2087(6) 0.2711(3)
H16 H 0.94560 0.22390 0.31080
C12 C 1.0282(4) 0.1033(6) 0.2474(3)
H17 H 1.06610 0.03560 0.26980
N5 N 1.0186(3) 0.3195(4) -0.0845(2)
O3 O 1.0182(2) 0.3681(4) -0.1371(3)
C13 C 1.0643(4) 0.1734(6) -0.0689(3)
N6 N 0.9870(3) 0.2983(5) 0.0099(3)
O4 O 0.9479(3) 0.3265(4) 0.0610(3)
C14 C 1.1664(6) 0.1582(11) -0.0974(4)
H18 H 1.21590 0.22440 -0.07930
H19 H 1.15990 0.18160 -0.13860
H20 H 1.19100 0.05860 -0.09310
N7 N 0.7683(3) 0.7820(5) -0.0377(3)
H21 H 0.789(7) 0.774(10) 0.004(4)
C15 C 0.9778(6) 0.0645(7) -0.0958(4)
H22 H 0.98140 0.06710 -0.13820
H23 H 0.90890 0.09500 -0.08320
H24 H 0.99120 -0.03410 -0.08230
N8 N 0.7064(3) 0.8970(5) -0.0517(3)
C16 C 1.0577(3) 0.1703(5) -0.0023(3)
C17 C 1.1627(5) 0.2121(8) 0.0269(4)
H25 H 1.15510 0.20860 0.06910
H26 H 1.18220 0.31010 0.01510
H27 H 1.21640 0.14390 0.01480
C18 C 1.0157(6) 0.0340(6) 0.0258(4)
H28 H 0.94960 0.00840 0.00780
H29 H 1.00540 0.05090 0.06720
H30 H 1.06500 -0.04520 0.02030
C19 C 0.9715(3) 0.3836(5) -0.0376(3)
C20 C 0.9105(3) 0.5165(5) -0.0368(3)
H31 H 0.88610 0.54890 -0.00030
C21 C 0.8858(3) 0.5972(5) -0.0836(3)
H32 H 0.91640 0.56920 -0.11920
C22 C 0.8169(3) 0.7236(5) -0.0855(3)
C23 C 0.7844(4) 0.8030(6) -0.1329(3)
H33 H 0.80360 0.78900 -0.17210
C24 C 0.7168(4) 0.9093(6) -0.1106(3)
H34 H 0.68290 0.98020 -0.13340
#END
