
#######################################################################
#
#                 Cambridge Crystallographic Data Centre
#                                CCDC
#
#######################################################################
#
# If this CIF has been generated from an entry in the Cambridge
# Structural Database, then it will include bibliographic, chemical,
# crystal, experimental, refinement or atomic coordinate data resulting
# from the CCDC's data processing and validation procedures.
#
#######################################################################

data_CSD_CIF_OYELOU
_audit_creation_date 2011-10-17
_audit_creation_method CSD-ConQuest-V1
_database_code_CSD OYELOU
_database_code_depnum_ccdc_archive 'CCDC 781683'
_chemical_formula_sum 'C11 H15 N2 O2'
_chemical_formula_moiety
;
C11 H15 N2 O2
;
_journal_coden_Cambridge 1037
_journal_volume 12
_journal_year 2011
_journal_page_first 76-8
_journal_name_full 'ARKIVOC '
loop_
_publ_author_name
"E.V.Tretyakov"
"I.A.Utepova"
"M.V.Varaksin"
"S.E.Tolstikov"
"G.V.Romanenko"
"A.S.Bogomyakov"
"D.V.Stass"
"V.I.Ovcharenko"
"O.N.Chupakhin"
_chemical_name_systematic
;
(E)-2-(But-1-en-3-ynyl)-1-hydroxy-4,4,5,5-tetramethyl-4,5-dihydro-1H-imidazol-
3-oxide-1-oxyl
;
_cell_volume   2299.578
_exptl_crystal_colour 'dark green'
_exptl_crystal_density_diffrn 1.197
_exptl_crystal_description 'prism'
_diffrn_ambient_temperature 295
#These two values have been output from a single CSD field.
_refine_ls_R_factor_gt 0.038
_refine_ls_wR_factor_gt 0.038
_symmetry_cell_setting monoclinic
_symmetry_space_group_name_H-M 'C 2/c'
_symmetry_Int_Tables_number 15
loop_
_symmetry_equiv_pos_site_id
_symmetry_equiv_pos_as_xyz
1 x,y,z
2 -x,y,1/2-z
3 1/2+x,1/2+y,z
4 1/2-x,1/2+y,1/2-z
5 -x,-y,-z
6 x,-y,-1/2+z
7 -1/2-x,-1/2-y,-z
8 -1/2+x,-1/2-y,-1/2+z
_cell_length_a 19.553(2)
_cell_length_b 9.1114(11)
_cell_length_c 13.6744(19)
_cell_angle_alpha 90
_cell_angle_beta 109.277(11)
_cell_angle_gamma 90
_cell_formula_units_Z 8
loop_
_atom_type_symbol
_atom_type_radius_bond
C 0.68
H 0.23
N 0.68
O 0.68
loop_
_atom_site_label
_atom_site_type_symbol
_atom_site_fract_x
_atom_site_fract_y
_atom_site_fract_z
N1 N 0.18293(7) 0.08962(12) 0.60919(8)
O1 O 0.23411(6) 0.14659(11) 0.58309(9)
N2 N 0.07824(7) 0.05529(14) 0.62869(10)
O2 O 0.01203(6) 0.07435(14) 0.6215(1)
C1 C 0.0870(1) 0.27384(18) 0.52892(12)
C2 C 0.12052(9) 0.35842(18) 0.48104(12)
C3 C 0.11600(8) 0.14337(16) 0.58639(11)
C4 C 0.19041(8) -0.05790(15) 0.65878(11)
C5 C 0.08915(9) 0.48729(19) 0.42560(13)
C6 C 0.12573(8) -0.05645(16) 0.69911(12)
C7 C 0.14281(14) 0.0032(3) 0.80811(16)
C8 C 0.26399(10) -0.0713(3) 0.74103(17)
C9 C 0.06579(11) 0.5941(3) 0.38027(16)
C10 C 0.18342(17) -0.1677(3) 0.57227(19)
C11 C 0.08601(9) -0.20196(19) 0.68967(15)
H1 H 0.07520 -0.23930 0.62060
H2 H 0.04170 -0.18750 0.70430
H3 H 0.11600 -0.27090 0.73810
H4 H 0.0408(9) 0.2942(16) 0.5273(11)
H5 H 0.1685(8) 0.1027(19) 0.8157(12)
H6 H 0.0959(10) 0.0088(16) 0.8190(12)
H7 H 0.1877(9) -0.271(2) 0.6011(13)
H8 H 0.1679(8) 0.3354(14) 0.482(1)
H9 H 0.3006(11) -0.0697(19) 0.7108(15)
H10 H 0.2666(8) -0.1653(18) 0.7795(13)
H11 H 0.1366(11) -0.151(2) 0.5186(15)
H12 H 0.1766(9) -0.0656(17) 0.8597(12)
H13 H 0.2702(9) 0.0112(18) 0.7942(14)
H14 H 0.2193(11) -0.139(2) 0.5440(15)
H15 H 0.0433(11) 0.676(2) 0.3452(15)
#END
