
#######################################################################
#
#                 Cambridge Crystallographic Data Centre
#                                CCDC
#
#######################################################################
#
# If this CIF has been generated from an entry in the Cambridge
# Structural Database, then it will include bibliographic, chemical,
# crystal, experimental, refinement or atomic coordinate data resulting
# from the CCDC's data processing and validation procedures.
#
#######################################################################

data_CSD_CIF_OYELEK
_audit_creation_date 2011-10-17
_audit_creation_method CSD-ConQuest-V1
_database_code_CSD OYELEK
_database_code_depnum_ccdc_archive 'CCDC 781681'
_chemical_formula_sum 'C24 H26 N5 O1'
_chemical_formula_moiety
;
C24 H26 N5 O1
;
_journal_coden_Cambridge 1037
_journal_volume 12
_journal_year 2011
_journal_page_first 76-8
_journal_name_full 'ARKIVOC '
loop_
_publ_author_name
"E.V.Tretyakov"
"I.A.Utepova"
"M.V.Varaksin"
"S.E.Tolstikov"
"G.V.Romanenko"
"A.S.Bogomyakov"
"D.V.Stass"
"V.I.Ovcharenko"
"O.N.Chupakhin"
_chemical_name_systematic
;
4,4,5,5-Tetramethyl-2-(3-(4-ethylphenyl)-6-phenyl-1,2,4-triazin-5-yl)-4,5-dihy
dro-1H-imidazol-3-oxide-1-oxyl
;
_cell_volume   4471.587
_exptl_crystal_colour 'red'
_exptl_crystal_density_diffrn 1.19
_exptl_crystal_description 'prism'
_diffrn_ambient_temperature 240
#These two values have been output from a single CSD field.
_refine_ls_R_factor_gt 0.0722
_refine_ls_wR_factor_gt 0.0722
_symmetry_cell_setting monoclinic
_symmetry_space_group_name_H-M 'P 21/n'
_symmetry_Int_Tables_number 14
loop_
_symmetry_equiv_pos_site_id
_symmetry_equiv_pos_as_xyz
1 x,y,z
2 1/2-x,1/2+y,1/2-z
3 -x,-y,-z
4 -1/2+x,-1/2-y,-1/2+z
_cell_length_a 19.775(4)
_cell_length_b 11.672(2)
_cell_length_c 21.437(5)
_cell_angle_alpha 90
_cell_angle_beta 115.348(12)
_cell_angle_gamma 90
_cell_formula_units_Z 8
loop_
_atom_type_symbol
_atom_type_radius_bond
C 0.68
H 0.23
N 0.68
O 0.68
loop_
_atom_site_label
_atom_site_type_symbol
_atom_site_fract_x
_atom_site_fract_y
_atom_site_fract_z
N1 N 0.1738(2) 0.0344(3) 0.9677(2)
O1 O 0.2027(2) -0.0491(3) 0.9497(3)
C1 C 0.2026(3) 0.1546(4) 0.9771(3)
N2 N 0.08899(19) 0.1230(3) 0.99249(18)
C2 C 0.2817(3) 0.1548(6) 1.0320(4)
H1 H 0.31360 0.11530 1.01510
H2 H 0.28370 0.11610 1.07280
H3 H 0.29870 0.23320 1.04360
N3 N -0.0040(2) -0.2399(3) 0.91243(19)
C3 C 0.2042(5) 0.1903(5) 0.9110(4)
H4 H 0.24240 0.14700 0.90410
H5 H 0.21550 0.27140 0.91280
H6 H 0.15580 0.17570 0.87300
N4 N 0.0230(2) -0.2991(3) 0.9719(2)
C4 C 0.1441(2) 0.2135(3) 0.9957(2)
N5 N 0.10115(18) -0.1438(3) 1.0333(2)
C5 C 0.1774(3) 0.2597(6) 1.0689(3)
H7 H 0.13850 0.29640 1.07790
H8 H 0.21610 0.31500 1.07450
H9 H 0.19880 0.19700 1.10120
C6 C 0.1032(3) 0.3097(5) 0.9498(4)
H10 H 0.08180 0.28400 0.90210
H11 H 0.13760 0.37240 0.95550
H12 H 0.06350 0.33550 0.96160
C7 C 0.1098(2) 0.0282(4) 0.9783(2)
C8 C 0.0753(2) -0.0864(4) 0.9745(3)
C9 C 0.0217(3) -0.1324(4) 0.9132(2)
C10 C -0.0137(3) -0.0718(4) 0.8450(2)
C11 C 0.0259(3) -0.0318(4) 0.8114(3)
H13 H 0.07820 -0.03920 0.83220
C12 C -0.0088(4) 0.0197(5) 0.7470(3)
H14 H 0.02020 0.04750 0.72510
C13 C -0.0835(5) 0.0299(5) 0.7158(3)
H15 H -0.10620 0.06580 0.67240
C14 C -0.1280(4) -0.0113(5) 0.7461(3)
H16 H -0.18040 -0.00460 0.72390
C15 C -0.0924(4) -0.0632(4) 0.8111(3)
H17 H -0.12140 -0.09290 0.83240
C16 C 0.0719(2) -0.2498(4) 1.0295(2)
C17 C 0.0951(2) -0.3179(4) 1.0933(2)
C18 C 0.1279(3) -0.2660(4) 1.1568(3)
H18 H 0.13810 -0.18700 1.15950
C19 C 0.1461(4) -0.3275(5) 1.2168(3)
H19 H 0.16700 -0.28970 1.25960
C20 C 0.1338(3) -0.4450(5) 1.2145(3)
C21 C 0.1542(5) -0.5124(6) 1.2821(3)
H20 H 0.17090 -0.45760 1.32040
H21 H 0.10870 -0.54920 1.27990
C22 C 0.2045(6) -0.5889(12) 1.2958(6)
H22 H 0.20940 -0.63120 1.33650
H23 H 0.25180 -0.55260 1.30440
H24 H 0.19050 -0.64090 1.25700
C23 C 0.1015(3) -0.4960(4) 1.1511(3)
H25 H 0.09250 -0.57540 1.14810
C24 C 0.0820(2) -0.4335(4) 1.0917(3)
H26 H 0.05910 -0.47090 1.04890
N6 N 0.3174(2) 0.5297(3) 1.0086(2)
O2 O 0.2760(2) 0.4468(3) 1.0057(3)
C25 C 0.2959(2) 0.6500(3) 1.0104(2)
N7 N 0.41748(18) 0.6160(3) 1.01071(17)
C26 C 0.2355(3) 0.6744(5) 0.9396(3)
H27 H 0.18960 0.63670 0.93420
H28 H 0.25080 0.64580 0.90510
H29 H 0.22720 0.75640 0.93380
N8 N 0.40681(17) 0.2462(3) 0.92460(16)
C27 C 0.2674(3) 0.6685(5) 1.0633(3)
H30 H 0.30670 0.65220 1.10870
H31 H 0.22520 0.61800 1.05420
H32 H 0.25140 0.74760 1.06160
N9 N 0.44101(17) 0.1844(3) 0.98208(18)
C28 C 0.3717(2) 0.7068(3) 1.0252(2)
N10 N 0.44145(16) 0.3436(3) 1.05115(16)
C29 C 0.3685(3) 0.8092(4) 0.9817(3)
H33 H 0.33980 0.79050 0.93340
H34 H 0.41890 0.83100 0.98960
H35 H 0.34480 0.87250 0.99410
C30 C 0.4175(3) 0.7403(5) 1.1004(3)
H36 H 0.46410 0.77530 1.10560
H37 H 0.42820 0.67240 1.12920
H38 H 0.38930 0.79440 1.11430
C31 C 0.3837(2) 0.5202(4) 1.00346(19)
C32 C 0.4081(2) 0.4043(3) 0.9943(2)
C33 C 0.39091(19) 0.3566(3) 0.9285(2)
C34 C 0.3510(2) 0.4154(4) 0.8618(2)
C35 C 0.3693(2) 0.5256(4) 0.8505(2)
H39 H 0.40810 0.56530 0.88610
C36 C 0.3305(3) 0.5777(4) 0.7869(3)
H40 H 0.34290 0.65270 0.77960
C37 C 0.2738(3) 0.5200(5) 0.7343(3)
H41 H 0.24770 0.55520 0.69110
C38 C 0.2554(3) 0.4097(5) 0.7455(3)
H42 H 0.21630 0.37010 0.71020
C39 C 0.2948(2) 0.3588(4) 0.8087(2)
H43 H 0.28300 0.28320 0.81560
C40 C 0.4585(2) 0.2350(3) 1.0430(2)
C41 C 0.4947(2) 0.1626(3) 1.1047(2)
C42 C 0.4981(3) 0.1980(4) 1.1679(2)
H44 H 0.47740 0.26910 1.17110
C43 C 0.5311(3) 0.1310(5) 1.2258(2)
H45 H 0.53350 0.15800 1.26800
C44 C 0.5609(3) 0.0249(4) 1.2236(2)
C45 C 0.5969(3) -0.0485(4) 1.2877(3)
H46 H 0.65100 -0.04970 1.30170
H47 H 0.58850 -0.01190 1.32490
C46 C 0.5703(4) -0.1675(7) 1.2810(3)
H48 H 0.59640 -0.20680 1.32470
H49 H 0.58020 -0.20610 1.24570
H50 H 0.51700 -0.16800 1.26820
C47 C 0.5579(2) -0.0096(4) 1.1609(2)
H51 H 0.57870 -0.08080 1.15810
C48 C 0.5256(2) 0.0567(3) 1.1022(2)
H52 H 0.52450 0.03010 1.06040
#END
