
#######################################################################
#
#                 Cambridge Crystallographic Data Centre
#                                CCDC
#
#######################################################################
#
# If this CIF has been generated from an entry in the Cambridge
# Structural Database, then it will include bibliographic, chemical,
# crystal, experimental, refinement or atomic coordinate data resulting
# from the CCDC's data processing and validation procedures.
#
#######################################################################

data_CSD_CIF_OYEMAH
_audit_creation_date 2011-10-17
_audit_creation_method CSD-ConQuest-V1
_database_code_CSD OYEMAH
_database_code_depnum_ccdc_archive 'CCDC 781685'
_chemical_formula_sum 'C14 H20 N5 O3'
_chemical_formula_moiety
;
C14 H20 N5 O3
;
_journal_coden_Cambridge 1037
_journal_volume 12
_journal_year 2011
_journal_page_first 76-8
_journal_name_full 'ARKIVOC '
loop_
_publ_author_name
"E.V.Tretyakov"
"I.A.Utepova"
"M.V.Varaksin"
"S.E.Tolstikov"
"G.V.Romanenko"
"A.S.Bogomyakov"
"D.V.Stass"
"V.I.Ovcharenko"
"O.N.Chupakhin"
_chemical_name_systematic
;
(E)-2-(2-(1-(Methylcarbamoyl)-1H-pyrazol-3-yl)vinyl)-4,4,5,5-tetramethyl-4,5-d
ihydro-1H-imidazol-3-oxide-1-oxyl
;
_cell_volume   1548.742
_exptl_crystal_colour 'green'
_exptl_crystal_density_diffrn 1.327
_exptl_crystal_description 'stick'
_diffrn_ambient_temperature 240
#These two values have been output from a single CSD field.
_refine_ls_R_factor_gt 0.039
_refine_ls_wR_factor_gt 0.039
_symmetry_cell_setting monoclinic
_symmetry_space_group_name_H-M 'P 21/c'
_symmetry_Int_Tables_number 14
loop_
_symmetry_equiv_pos_site_id
_symmetry_equiv_pos_as_xyz
1 x,y,z
2 -x,1/2+y,1/2-z
3 -x,-y,-z
4 x,-1/2-y,-1/2+z
_cell_length_a 10.2311(5)
_cell_length_b 10.1140(4)
_cell_length_c 14.9675(7)
_cell_angle_alpha 90
_cell_angle_beta 90.485(3)
_cell_angle_gamma 90
_cell_formula_units_Z 4
loop_
_atom_type_symbol
_atom_type_radius_bond
C 0.68
H 0.23
N 0.68
O 0.68
loop_
_atom_site_label
_atom_site_type_symbol
_atom_site_fract_x
_atom_site_fract_y
_atom_site_fract_z
O1 O 0.35758(12) 0.09037(10) -0.26080(7)
N1 N 0.35588(12) 0.00368(12) -0.19836(8)
C1 C 0.42637(15) -0.12549(14) -0.20561(10)
O2 O 0.28377(13) -0.10792(11) 0.01179(8)
N2 N 0.31918(13) -0.08902(11) -0.06896(8)
C2 C 0.57105(17) -0.09362(19) -0.19154(14)
H1 H 0.5864(16) -0.0505(15) -0.1330(12)
H2 H 0.5978(16) -0.0365(16) -0.2421(11)
H3 H 0.6245(16) -0.1754(17) -0.1960(11)
O3 O 0.02588(13) 0.61983(11) 0.19928(8)
C3 C 0.4037(2) -0.18450(19) -0.29739(12)
H4 H 0.3076(19) -0.1966(15) -0.3108(11)
H5 H 0.4339(17) -0.1224(17) -0.3417(12)
H6 H 0.4437(17) -0.2717(18) -0.3004(12)
N3 N 0.10136(12) 0.44701(11) 0.11737(8)
N4 N 0.01311(14) 0.41285(15) 0.25717(9)
H7 H 0.0294(17) 0.3340(18) 0.2459(12)
N5 N 0.11642(12) 0.31435(11) 0.10601(9)
C4 C 0.36379(15) -0.20169(14) -0.12669(10)
C5 C 0.4556(2) -0.28969(18) -0.07384(13)
H8 H 0.4961(17) -0.3535(18) -0.1142(12)
H9 H 0.4107(17) -0.3320(16) -0.0247(12)
H10 H 0.5257(17) -0.2378(16) -0.0452(11)
C6 C 0.24033(19) -0.27589(17) -0.15308(13)
H11 H 0.1819(16) -0.2193(15) -0.1890(11)
H12 H 0.1943(17) -0.3030(16) -0.0970(12)
H13 H 0.2634(16) -0.3536(17) -0.1884(11)
C7 C 0.30842(15) 0.02408(14) -0.11555(10)
C8 C 0.26182(16) 0.15015(15) -0.08543(11)
H14 H 0.2743(14) 0.2213(15) -0.1282(10)
C9 C 0.20952(15) 0.17308(15) -0.00554(11)
H15 H 0.1964(15) 0.0988(15) 0.036(1)
C10 C 0.17395(15) 0.30374(14) 0.02689(10)
C11 C 0.19709(18) 0.42883(16) -0.01128(12)
H16 H 0.2372(17) 0.4476(15) -0.0684(12)
C12 C 0.14965(18) 0.51728(16) 0.04786(11)
H17 H 0.1441(16) 0.6128(17) 0.0481(11)
C13 C 0.04287(15) 0.50074(16) 0.19543(10)
C14 C -0.0565(2) 0.4508(2) 0.33720(14)
H18 H -0.136(3) 0.495(3) 0.3254(17)
H19 H -0.015(3) 0.524(3) 0.3691(16)
H20 H -0.051(3) 0.387(3) 0.3791(18)
#END
