
#######################################################################
#
#                 Cambridge Crystallographic Data Centre
#                                CCDC
#
#######################################################################
#
# If this CIF has been generated from an entry in the Cambridge
# Structural Database, then it will include bibliographic, chemical,
# crystal, experimental, refinement or atomic coordinate data resulting
# from the CCDC's data processing and validation procedures.
#
#######################################################################

data_CSD_CIF_OYITUN
_audit_creation_date 2016-10-21
_audit_creation_method CSD-ConQuest-V1
_database_code_CSD OYITUN
_database_code_depnum_ccdc_archive 'CCDC 1442179'
_chemical_formula_sum 'C27 H25 N1 O9'
_chemical_formula_moiety
;
C27 H25 N1 O9
;
_journal_coden_Cambridge 1088
_journal_volume 27
_journal_year 2016
_journal_page_first 1949
_journal_name_full 'Synlett '
loop_
_publ_author_name
"D.Yuyama"
"N.Sugiyama"
"T.Maeda"
"Y.Dobashi"
"S.Yokojima"
"Y.Fujimoto"
"H.Yanai"
"T.Matsumoto"
_chemical_name_systematic
;
8-hydroxy-10,13-dimethoxy-8-methyl-6-oxo-6,7,8,9-tetrahydrodibenzo[b,d]oxonin-
1-yl 2-methyl-6-nitrobenzoate
;
_cell_volume   1166.110
_exptl_crystal_colour 'colorless'
_exptl_crystal_density_diffrn 1.445
_exptl_crystal_description 'block'
_diffrn_ambient_temperature 90
#These two values have been output from a single CSD field.
_refine_ls_R_factor_gt 0.0339
_refine_ls_wR_factor_gt 0.0339
loop_
_citation_database_id_CSD
_citation_special_details
OYIVAV "is a stereoisomer of this entry"
_symmetry_cell_setting triclinic
_symmetry_space_group_name_H-M 'P -1'
_symmetry_Int_Tables_number 2
loop_
_symmetry_equiv_pos_site_id
_symmetry_equiv_pos_as_xyz
1 x,y,z
2 -x,-y,-z
_cell_length_a 9.4934(6)
_cell_length_b 10.1544(7)
_cell_length_c 12.7553(8)
_cell_angle_alpha 91.2580(8)
_cell_angle_beta 105.9010(7)
_cell_angle_gamma 98.7680(7)
_cell_formula_units_Z 2
loop_
_atom_type_symbol
_atom_type_radius_bond
C 0.68
H 0.23
N 0.68
O 0.68
loop_
_atom_site_label
_atom_site_type_symbol
_atom_site_fract_x
_atom_site_fract_y
_atom_site_fract_z
C1 C 1.29913(15) 0.99588(14) 0.81680(11)
C2 C 1.35447(15) 0.86446(14) 0.82183(11)
H1 H 1.46410 0.88330 0.83910
H2 H 1.31650 0.81800 0.74810
C3 C 1.31302(15) 0.76628(14) 0.90496(11)
C4 C 1.14925(15) 0.69725(14) 0.87017(11)
H3 H 1.12750 0.65580 0.79530
H4 H 1.13890 0.62390 0.91880
C5 C 1.03117(14) 0.78199(13) 0.87097(11)
C6 C 0.98133(15) 0.79458(13) 0.96468(11)
C7 C 0.86939(15) 0.86751(14) 0.96432(11)
H5 H 0.83820 0.87610 1.02850
C8 C 0.80188(15) 0.92834(14) 0.87140(12)
H6 H 0.72700 0.98020 0.87250
C9 C 0.84506(15) 0.91255(13) 0.77722(11)
C10 C 0.95899(14) 0.83960(13) 0.77695(11)
C11 C 0.99884(14) 0.82494(13) 0.67222(11)
C12 C 1.11197(15) 0.91347(13) 0.64970(11)
C13 C 1.14628(15) 0.90840(14) 0.55110(11)
H7 H 1.22250 0.97240 0.53790
C14 C 1.06704(16) 0.80795(14) 0.47175(11)
H8 H 1.09000 0.80250 0.40400
C15 C 0.95443(15) 0.71548(14) 0.49107(11)
H9 H 0.90090 0.64590 0.43760
C16 C 0.92202(14) 0.72701(13) 0.58983(11)
C17 C 0.81711(15) 0.51523(13) 0.63023(10)
C18 C 0.67337(15) 0.43279(13) 0.63618(11)
C19 C 0.57712(15) 0.35065(13) 0.54782(11)
C20 C 0.45112(15) 0.26768(14) 0.55630(12)
H10 H 0.38800 0.21230 0.49530
C21 C 0.41971(16) 0.26765(14) 0.65626(12)
H11 H 0.33400 0.21170 0.66420
C22 C 0.51230(16) 0.34852(14) 0.74443(12)
H12 H 0.48880 0.34710 0.81220
C23 C 0.63978(16) 0.43242(14) 0.73650(12)
C24 C 1.41113(16) 0.65810(16) 0.91148(12)
H13 H 1.51590 0.69930 0.93760
H14 H 1.39170 0.61350 0.83880
H15 H 1.38850 0.59250 0.96220
C25 C 0.98351(18) 0.72615(16) 1.14283(12)
H16 H 0.99380 0.81770 1.17330
H17 H 1.03530 0.67270 1.19930
H18 H 0.87810 0.68700 1.11740
C26 C 0.66648(16) 1.04024(15) 0.67800(13)
H19 H 0.58360 0.98200 0.69380
H20 H 0.63260 1.07440 0.60570
H21 H 0.70310 1.11520 0.73340
C27 C 0.73710(17) 0.52055(16) 0.83384(12)
H22 H 0.69880 0.50340 0.89700
H23 H 0.73730 0.61440 0.81750
H24 H 0.83860 0.50120 0.85030
N1 N 0.60715(13) 0.35200(12) 0.4405(1)
O1 O 1.35267(11) 1.08939(10) 0.88313(8)
O2 O 1.18774(10) 1.01815(9) 0.72802(8)
O3 O 1.34009(11) 0.83429(11) 1.00892(8)
H25 H 1.43160 0.86100 1.03500
O4 O 0.79843(10) 0.64162(9) 0.60591(8)
O5 O 0.93391(11) 0.47637(10) 0.65194(8)
O6 O 1.04678(11) 0.72773(10) 1.05308(8)
O7 O 0.78346(11) 0.96603(10) 0.67966(8)
O8 O 0.71127(12) 0.43151(11) 0.42885(9)
O9 O 0.52543(13) 0.27335(13) 0.36688(10)
#END
