
#######################################################################
#
#                 Cambridge Crystallographic Data Centre
#                                CCDC
#
#######################################################################
#
# If this CIF has been generated from an entry in the Cambridge
# Structural Database, then it will include bibliographic, chemical,
# crystal, experimental, refinement or atomic coordinate data resulting
# from the CCDC's data processing and validation procedures.
#
#######################################################################

data_CSD_CIF_OYIVAV
_audit_creation_date 2016-10-21
_audit_creation_method CSD-ConQuest-V1
_database_code_CSD OYIVAV
_database_code_depnum_ccdc_archive 'CCDC 1442180'
_chemical_formula_sum 'C27 H25 N1 O9'
_chemical_formula_moiety
;
C27 H25 N1 O9
;
_journal_coden_Cambridge 1088
_journal_volume 27
_journal_year 2016
_journal_page_first 1949
_journal_name_full 'Synlett '
loop_
_publ_author_name
"D.Yuyama"
"N.Sugiyama"
"T.Maeda"
"Y.Dobashi"
"S.Yokojima"
"Y.Fujimoto"
"H.Yanai"
"T.Matsumoto"
_chemical_name_systematic
;
8-hydroxy-10,13-dimethoxy-8-methyl-6-oxo-6,7,8,9-tetrahydrodibenzo[b,d]oxonin-
1-yl 2-methyl-6-nitrobenzoate
;
_cell_volume   1158.829
_exptl_crystal_colour 'colorless'
_exptl_crystal_density_diffrn 1.454
_exptl_crystal_description 'block'
_diffrn_ambient_temperature 90
#These two values have been output from a single CSD field.
_refine_ls_R_factor_gt 0.0346
_refine_ls_wR_factor_gt 0.0346
loop_
_citation_database_id_CSD
_citation_special_details
OYITUN "is a stereoisomer of this entry"
_symmetry_cell_setting triclinic
_symmetry_space_group_name_H-M 'P -1'
_symmetry_Int_Tables_number 2
loop_
_symmetry_equiv_pos_site_id
_symmetry_equiv_pos_as_xyz
1 x,y,z
2 -x,-y,-z
_cell_length_a 8.4761(6)
_cell_length_b 10.8798(8)
_cell_length_c 13.1666(10)
_cell_angle_alpha 74.8140(9)
_cell_angle_beta 81.5230(9)
_cell_angle_gamma 88.7270(8)
_cell_formula_units_Z 2
loop_
_atom_type_symbol
_atom_type_radius_bond
C 0.68
H 0.23
N 0.68
O 0.68
loop_
_atom_site_label
_atom_site_type_symbol
_atom_site_fract_x
_atom_site_fract_y
_atom_site_fract_z
C1 C 0.68863(17) 0.40123(14) 0.28115(12)
C2 C 0.57366(18) 0.37994(14) 0.38302(12)
H1 H 0.61580 0.42510 0.42990
H2 H 0.57010 0.28780 0.41940
C3 C 0.40170(18) 0.42406(14) 0.37066(12)
C4 C 0.30869(17) 0.33912(14) 0.32105(11)
H3 H 0.31470 0.25020 0.36420
H4 H 0.19520 0.36330 0.33020
C5 C 0.35578(17) 0.33920(13) 0.20514(11)
C6 C 0.28685(17) 0.42712(14) 0.12502(12)
C7 C 0.31435(17) 0.41984(14) 0.02072(12)
H5 H 0.26560 0.47880 -0.03190
C8 C 0.41309(17) 0.32652(14) -0.00771(11)
H6 H 0.43180 0.32220 -0.07960
C9 C 0.48396(17) 0.24027(13) 0.06866(12)
C10 C 0.45391(17) 0.24518(13) 0.17566(11)
C11 C 0.52940(17) 0.14820(14) 0.25638(11)
C12 C 0.66720(17) 0.17679(14) 0.29253(11)
C13 C 0.74124(17) 0.08946(14) 0.36634(11)
H7 H 0.83450 0.11290 0.38940
C14 C 0.67738(17) -0.03306(14) 0.40633(11)
H8 H 0.72630 -0.09390 0.45760
C15 C 0.54185(17) -0.06676(14) 0.37128(11)
H9 H 0.49870 -0.15090 0.39730
C16 C 0.47077(16) 0.02354(14) 0.29811(11)
C17 C 0.19108(17) -0.00343(13) 0.31140(11)
C18 C 0.06810(17) -0.06933(14) 0.27178(11)
C19 C -0.00190(17) -0.00117(14) 0.18438(12)
C20 C -0.12113(18) -0.06198(16) 0.15116(13)
H10 H -0.17010 -0.01670 0.09220
C21 C -0.16933(18) -0.18590(16) 0.20177(13)
H11 H -0.24950 -0.22480 0.17660
C22 C -0.10217(18) -0.25414(15) 0.28880(13)
H12 H -0.13540 -0.33940 0.32410
C23 C 0.01490(17) -0.19466(14) 0.32294(12)
C24 C 0.39756(19) 0.56540(14) 0.31509(13)
H13 H 0.28650 0.59280 0.31640
H14 H 0.44930 0.58040 0.24120
H15 H 0.45420 0.61400 0.35200
C25 C 0.1129(2) 0.60235(15) 0.08077(13)
H16 H 0.19230 0.64810 0.02190
H17 H 0.05240 0.66360 0.11330
H18 H 0.03990 0.55420 0.05380
C26 C 0.6095(2) 0.13538(15) -0.05949(12)
H19 H 0.50660 0.12150 -0.08050
H20 H 0.67900 0.06330 -0.06450
H21 H 0.65980 0.21400 -0.10690
C27 C 0.04699(19) 0.13517(15) 0.12864(13)
H22 H 0.01550 0.18920 0.17700
H23 H -0.00570 0.16400 0.06530
H24 H 0.16290 0.14090 0.10750
N1 N 0.08375(15) -0.26537(12) 0.41679(10)
O1 O 0.74476(13) 0.50305(10) 0.22987(9)
O2 O 0.73968(12) 0.29715(10) 0.24547(8)
O3 O 0.32910(13) 0.40211(11) 0.48019(8)
H25 H 0.23070 0.41540 0.48290
O4 O 0.33881(11) -0.01693(9) 0.25949(8)
O5 O 0.16172(12) 0.05766(10) 0.37503(8)
O6 O 0.58515(12) 0.1460(1) 0.04785(8)
O7 O 0.19162(13) 0.51682(10) 0.15835(8)
O8 O 0.19746(13) -0.21786(10) 0.44105(9)
O9 O 0.02591(14) -0.36981(11) 0.46668(10)
#END
