
#######################################################################
#
#                 Cambridge Crystallographic Data Centre
#                                CCDC
#
#######################################################################
#
# If this CIF has been generated from an entry in the Cambridge
# Structural Database, then it will include bibliographic, chemical,
# crystal, experimental, refinement or atomic coordinate data resulting
# from the CCDC's data processing and validation procedures.
#
#######################################################################

data_CSD_CIF_OYUQUW
_audit_creation_date 2016-11-16
_audit_creation_method CSD-ConQuest-V1
_database_code_CSD OYUQUW
_database_code_depnum_ccdc_archive 'CCDC 1482401'
_chemical_formula_sum 'C23 H22 N2 O4'
_chemical_formula_moiety
;
C23 H22 N2 O4
;
_journal_coden_Cambridge 35
_journal_volume 81
_journal_year 2016
_journal_page_first 10551
_journal_name_full 'J.Org.Chem. '
loop_
_publ_author_name
"Fei Tang"
"M.G.Banwell"
"A.C.Willis"
_chemical_name_systematic
;
{5-[2-(benzyloxy)ethyl]-2'-nitro-2-oxo[2,3,4,5-tetrahydro[1,1'-biphenyl]]-4-yl
}acetonitrile
;
_cell_volume    971.191
_exptl_crystal_colour 'pale yellow'
_exptl_crystal_density_diffrn 1.335
_exptl_crystal_description 'lath'
_exptl_crystal_preparation 'dichloromethane/n-hexane'
_diffrn_ambient_temperature 150
_refine_special_details
;
C13,C14,C15,O4 and C113,C114,C115,O104 disordered over two sites with 
occupancies 0.550:0.450.
;
#These two values have been output from a single CSD field.
_refine_ls_R_factor_gt 0.0413
_refine_ls_wR_factor_gt 0.0413
_symmetry_cell_setting triclinic
_symmetry_space_group_name_H-M 'P -1'
_symmetry_Int_Tables_number 2
loop_
_symmetry_equiv_pos_site_id
_symmetry_equiv_pos_as_xyz
1 x,y,z
2 -x,-y,-z
_cell_length_a 5.8560(2)
_cell_length_b 11.9176(4)
_cell_length_c 15.3239(7)
_cell_angle_alpha 109.830(4)
_cell_angle_beta 97.254(3)
_cell_angle_gamma 99.900(3)
_cell_formula_units_Z 2
loop_
_atom_type_symbol
_atom_type_radius_bond
C 0.68
H 0.23
N 0.68
O 0.68
loop_
_atom_site_label
_atom_site_type_symbol
_atom_site_fract_x
_atom_site_fract_y
_atom_site_fract_z
O1 O 1.21419(17) 0.65568(9) 0.39568(8)
O2 O 1.37974(19) 0.83213(10) 0.50611(8)
O3 O 0.83173(19) 0.66459(10) 0.50910(8)
O4 O 0.2100(7) 0.5293(3) 0.1263(3)
N1 N 1.22649(19) 0.76574(10) 0.43651(9)
N2 N 0.8074(3) 0.16393(15) 0.23588(14)
C1 C 1.0532(2) 0.82198(12) 0.39947(10)
C2 C 1.1322(3) 0.94257(12) 0.40774(10)
C3 C 0.9783(3) 0.99854(13) 0.37092(11)
C4 C 0.7478(3) 0.93425(14) 0.32762(11)
C5 C 0.6715(2) 0.81430(13) 0.32138(11)
C6 C 0.8224(2) 0.75400(12) 0.35621(10)
C7 C 0.7310(2) 0.62432(12) 0.34485(11)
C8 C 0.6187(3) 0.54171(14) 0.26042(13)
C9 C 0.5076(3) 0.40889(15) 0.23851(15)
C10 C 0.4931(3) 0.38068(14) 0.32763(14)
C11 C 0.7063(3) 0.45262(14) 0.40686(12)
C12 C 0.7604(2) 0.58907(13) 0.42887(11)
C13 C 0.3105(5) 0.3527(2) 0.14641(19)
C14 C 0.1288(5) 0.4299(3) 0.1560(3)
C15 C 0.0503(14) 0.6060(7) 0.1365(6)
C16 C 0.1616(3) 0.70811(18) 0.11066(12)
C17 C 0.3582(3) 0.72381(17) 0.07088(13)
C18 C 0.4287(3) 0.82954(17) 0.05278(14)
C19 C 0.3045(4) 0.92042(18) 0.07470(16)
C20 C 0.1098(4) 0.9066(2) 0.11594(17)
C21 C 0.0413(4) 0.8017(2) 0.13356(15)
C22 C 0.4581(3) 0.24224(14) 0.30724(14)
C23 C 0.6530(3) 0.19603(14) 0.26747(13)
H1 H 1.28990 0.98600 0.43830
H2 H 1.03010 1.08060 0.37530
H3 H 0.64160 0.97240 0.30210
H4 H 0.51200 0.77220 0.29260
H5 H 0.60750 0.56920 0.20900
H6 H 0.63100 0.37110 0.21720
H7 H 0.35780 0.40480 0.34940
H8 H 0.67720 0.43910 0.46250
H9 H 0.84050 0.42290 0.38910
H10 H 0.37900 0.35190 0.09330
H11 H 0.23660 0.27120 0.13800
H12 H 0.11180 0.46130 0.22010
H13 H -0.01910 0.38160 0.11710
H14 H 0.02830 0.63550 0.20000
H15 H -0.09790 0.56330 0.09530
H16 H 0.44540 0.66190 0.05590
H17 H 0.56340 0.83940 0.02510
H18 H 0.35250 0.99230 0.06150
H19 H 0.02440 0.96920 0.13190
H20 H -0.09200 0.79280 0.16220
H21 H 0.45220 0.22860 0.36460
H22 H 0.31360 0.19970 0.26340
O5? O 0.2495(8) 0.4970(4) 0.0919(3)
C24? C 0.2271(5) 0.3889(3) 0.2038(3)
C25? C 0.1770(7) 0.3828(3) 0.1026(3)
C26? C 0.1007(17) 0.5796(9) 0.1219(8)
H23? H 0.57640 0.35400 0.19470
H24? H 0.17350 0.45530 0.24350
H25? H 0.14680 0.31440 0.20700
H26? H 0.01140 0.35380 0.07880
H27? H 0.25750 0.32660 0.06630
H28? H 0.10350 0.59540 0.18710
H29? H -0.05490 0.53900 0.08660
#END
