
#######################################################################
#
#                 Cambridge Crystallographic Data Centre
#                                CCDC
#
#######################################################################
#
# If this CIF has been generated from an entry in the Cambridge
# Structural Database, then it will include bibliographic, chemical,
# crystal, experimental, refinement or atomic coordinate data resulting
# from the CCDC's data processing and validation procedures.
#
#######################################################################

data_CSD_CIF_OYUVIP
_audit_creation_date 2016-11-16
_audit_creation_method CSD-ConQuest-V1
_database_code_CSD OYUVIP
_database_code_depnum_ccdc_archive 'CCDC 914695'
_chemical_formula_sum 'C16 H11 N5 O3'
_chemical_formula_moiety
;
C16 H11 N5 O3
;
_journal_coden_Cambridge 1078
_journal_year 2016
_journal_name_full 'CSD Communication(Private Communication) '
loop_
_publ_author_name
"L.R.Gomes"
"J.N.Low"
_chemical_name_systematic
;
(E)-N'-(2-nitrobenzylidene)quinoxaline-2-carbohydrazide
;
_cell_volume   1396.115
_exptl_crystal_colour 'yellow'
_exptl_crystal_density_diffrn 1.529
_exptl_crystal_description 'needle'
_diffrn_ambient_temperature 100
#These two values have been output from a single CSD field.
_refine_ls_R_factor_gt 0.0333
_refine_ls_wR_factor_gt 0.0333
_symmetry_cell_setting monoclinic
_symmetry_space_group_name_H-M 'C c'
_symmetry_Int_Tables_number 9
loop_
_symmetry_equiv_pos_site_id
_symmetry_equiv_pos_as_xyz
1 x,y,z
2 x,-y,1/2+z
3 1/2+x,1/2+y,z
4 1/2+x,1/2-y,1/2+z
_cell_length_a 12.9503(18)
_cell_length_b 15.488(2)
_cell_length_c 6.9637(9)
_cell_angle_alpha 90
_cell_angle_beta 91.712(7)
_cell_angle_gamma 90
_cell_formula_units_Z 4
loop_
_atom_type_symbol
_atom_type_radius_bond
C 0.68
H 0.23
N 0.68
O 0.68
loop_
_atom_site_label
_atom_site_type_symbol
_atom_site_fract_x
_atom_site_fract_y
_atom_site_fract_z
O1 O 0.50696(13) 0.49081(10) 0.4981(3)
O2 O 0.11406(13) 0.41405(10) -0.0461(2)
O3 O -0.02426(12) 0.3377(1) -0.0120(2)
N1 N 0.34054(14) 0.51003(12) 0.3885(3)
H1 H 0.29050 0.54750 0.36670
N2 N 0.32401(15) 0.42467(12) 0.3543(3)
N3 N 0.36851(15) 0.68040(12) 0.3904(3)
N4 N 0.53615(14) 0.75346(13) 0.6041(3)
N5 N 0.06812(15) 0.35093(12) 0.0163(3)
C1 C 0.43427(18) 0.53745(15) 0.4564(3)
C2 C 0.23407(17) 0.40509(14) 0.2884(3)
H2 H 0.18360 0.44870 0.26480
C3 C 0.44011(17) 0.63354(15) 0.4772(3)
C4 C 0.52272(18) 0.66973(15) 0.5872(3)
H3 H 0.57030 0.63210 0.65140
C5 C 0.46542(18) 0.80439(15) 0.5077(3)
C6 C 0.47679(19) 0.89476(15) 0.5114(4)
H4 H 0.53380 0.92020 0.57940
C7 C 0.4060(2) 0.94580(15) 0.4175(4)
H5 H 0.41500 1.00670 0.41790
C8 C 0.31949(19) 0.90923(15) 0.3195(3)
H6 H 0.27010 0.94580 0.25710
C9 C 0.30619(18) 0.82193(14) 0.3136(3)
H7 H 0.24750 0.79780 0.24850
C10 C 0.37991(16) 0.76787(14) 0.4044(3)
C11 C 0.20991(17) 0.31411(14) 0.2495(3)
C12 C 0.12711(17) 0.28745(15) 0.1297(3)
C13 C 0.09868(18) 0.20174(14) 0.1069(3)
H8 H 0.04020 0.18630 0.02880
C14 C 0.15766(18) 0.13904(15) 0.2007(3)
H9 H 0.14030 0.07970 0.18630
C15 C 0.24199(18) 0.16320(14) 0.3156(3)
H10 H 0.28320 0.12000 0.37710
C16 C 0.26710(17) 0.24947(15) 0.3424(3)
H11 H 0.32390 0.26470 0.42500
#END
