
#######################################################################
#
#                 Cambridge Crystallographic Data Centre
#                                CCDC
#
#######################################################################
#
# If this CIF has been generated from an entry in the Cambridge
# Structural Database, then it will include bibliographic, chemical,
# crystal, experimental, refinement or atomic coordinate data resulting
# from the CCDC's data processing and validation procedures.
#
#######################################################################

data_CSD_CIF_OZAZEV
_audit_creation_date 2011-10-17
_audit_creation_method CSD-ConQuest-V1
_database_code_CSD OZAZEV
_database_code_depnum_ccdc_archive 'CCDC 824614'
_chemical_formula_sum 'C9 H11 N5 O3'
_chemical_formula_moiety
;
C9 H11 N5 O3
;
_journal_coden_Cambridge 119
_journal_volume 1001
_journal_year 2011
_journal_page_first 145
_journal_name_full 'J.Mol.Struct. '
loop_
_publ_author_name
"M.Tranfic"
"J.Halambek"
"M.Cetina"
"M.Jukic"
_chemical_name_systematic
;
2-Hydrazino-6-methyl-4-(methoxymethyl)-5-nitropyridine-3-carbonitrile
;
_chemical_melting_point 389
_cell_volume   1089.783
_exptl_crystal_colour 'yellow'
_exptl_crystal_density_diffrn 1.446
_exptl_special_details
;
Melting point range 389-391K

;
_exptl_crystal_description 'block'
_diffrn_ambient_temperature 295
#These two values have been output from a single CSD field.
_refine_ls_R_factor_gt 0.035
_refine_ls_wR_factor_gt 0.035
_symmetry_cell_setting monoclinic
_symmetry_space_group_name_H-M 'P 21/c'
_symmetry_Int_Tables_number 14
loop_
_symmetry_equiv_pos_site_id
_symmetry_equiv_pos_as_xyz
1 x,y,z
2 -x,1/2+y,1/2-z
3 -x,-y,-z
4 x,-1/2-y,-1/2+z
_cell_length_a 7.5003(2)
_cell_length_b 8.3197(2)
_cell_length_c 18.6323(6)
_cell_angle_alpha 90
_cell_angle_beta 110.394(3)
_cell_angle_gamma 90
_cell_formula_units_Z 4
loop_
_atom_type_symbol
_atom_type_radius_bond
C 0.68
H 0.23
N 0.68
O 0.68
loop_
_atom_site_label
_atom_site_type_symbol
_atom_site_fract_x
_atom_site_fract_y
_atom_site_fract_z
N1 N 0.41037(13) 0.72267(12) -0.03475(6)
N2 N 0.20855(14) 0.56358(13) 0.00303(6)
H1 H 0.176(2) 0.529(2) 0.0381(9)
N3 N 0.06064(14) 0.57953(16) -0.06819(6)
H2 H 0.090(3) 0.521(2) -0.1047(9)
H3 H 0.059(2) 0.683(2) -0.0825(9)
N4 N 0.4147(2) 0.48594(18) 0.19912(8)
N5 N 0.88616(14) 0.89199(12) 0.07026(6)
O1 O 0.98514(12) 0.69537(11) 0.19683(5)
O2 O 0.92155(15) 1.00781(12) 0.11312(6)
O3 O 0.99203(14) 0.84119(12) 0.03845(6)
C1 C 0.37211(15) 0.64735(13) 0.02154(7)
C2 C 0.49934(16) 0.65119(14) 0.09851(7)
C3 C 0.66811(16) 0.73672(14) 0.11677(7)
C4 C 0.70502(16) 0.80778(14) 0.05577(7)
C5 C 0.57683(16) 0.80036(14) -0.01865(7)
C6 C 0.45411(18) 0.56122(16) 0.15595(7)
C7 C 0.80719(18) 0.74745(16) 0.19763(7)
H4 H 0.81590 0.85730 0.21590
H5 H 0.76590 0.67980 0.23130
C8 C 1.1416(2) 0.7641(2) 0.25544(8)
H6 H 1.12840 0.87900 0.25430
H7 H 1.25750 0.73580 0.24750
H8 H 1.14520 0.72430 0.30430
C9 C 0.6109(2) 0.87899(17) -0.08499(7)
H9 H 0.68020 0.80690 -0.10580
H10 H 0.68320 0.97570 -0.06800
H11 H 0.49100 0.90480 -0.12370
#END
