
#######################################################################
#
#                 Cambridge Crystallographic Data Centre
#                                CCDC
#
#######################################################################
#
# If this CIF has been generated from an entry in the Cambridge
# Structural Database, then it will include bibliographic, chemical,
# crystal, experimental, refinement or atomic coordinate data resulting
# from the CCDC's data processing and validation procedures.
#
#######################################################################

data_CSD_CIF_OZIRUM
_audit_creation_date 2016-11-17
_audit_creation_method CSD-ConQuest-V1
_database_code_CSD OZIRUM
_database_code_depnum_ccdc_archive 'CCDC 946458'
_chemical_formula_sum 'C21 H25 N2 O2'
_chemical_formula_moiety
;
C21 H25 N2 O2
;
_journal_coden_Cambridge 1078
_journal_year 2016
_journal_name_full 'CSD Communication(Private Communication) '
loop_
_publ_author_name
"Jannic Wolf"
"T.Huhn"
_chemical_name_systematic
;
(4-([(2,5-diethynylphenyl)carbonyl](methyl)amino)-2,2,6,6-tetramethylpiperidin
-1-yl)oxidanyl radical
;
_chemical_name_common
;
2,5-diethynyl-N-(1-oxido-2,2,6,6-tetramethylpiperidin-4-yl)-N-methylbenzamide 
radical
;
_chemical_melting_point 443
_cell_volume   1877.422
_exptl_crystal_colour 'orange'
_exptl_crystal_density_diffrn 1.194
_exptl_special_details
;
Heat-sensitive

;
_exptl_crystal_description 'block'
_exptl_crystal_preparation 'acetone'
_diffrn_ambient_temperature 100
#These two values have been output from a single CSD field.
_refine_ls_R_factor_gt 0.054
_refine_ls_wR_factor_gt 0.054
_symmetry_cell_setting monoclinic
_symmetry_space_group_name_H-M 'P 21/c'
_symmetry_Int_Tables_number 14
loop_
_symmetry_equiv_pos_site_id
_symmetry_equiv_pos_as_xyz
1 x,y,z
2 -x,1/2+y,1/2-z
3 -x,-y,-z
4 x,-1/2-y,-1/2+z
_cell_length_a 7.7008(10)
_cell_length_b 30.412(4)
_cell_length_c 8.5824(10)
_cell_angle_alpha 90
_cell_angle_beta 110.924(9)
_cell_angle_gamma 90
_cell_formula_units_Z 4
loop_
_atom_type_symbol
_atom_type_radius_bond
C 0.68
H 0.23
N 0.68
O 0.68
loop_
_atom_site_label
_atom_site_type_symbol
_atom_site_fract_x
_atom_site_fract_y
_atom_site_fract_z
C1 C 0.4104(2) 0.18774(6) -0.1521(2)
C2 C 0.4016(2) 0.17182(6) 0.0141(2)
H1 H 0.51360 0.15530 0.07310
H2 H 0.39890 0.19720 0.08170
C3 C 0.2334(2) 0.14311(5) -0.0054(2)
H3 H 0.23370 0.11820 -0.07780
C4 C 0.0593(2) 0.17023(6) -0.0897(2)
H4 H 0.06220 0.19610 -0.02290
H5 H -0.04910 0.15310 -0.09580
C5 C 0.0420(2) 0.18447(6) -0.2662(2)
C6 C 0.5403(3) 0.22728(6) -0.1192(2)
H6 H 0.54940 0.23710 -0.22230
H7 H 0.66130 0.21900 -0.04330
H8 H 0.49190 0.25060 -0.07130
C7 C 0.4784(3) 0.15143(6) -0.2396(2)
H9 H 0.39690 0.12650 -0.25820
H10 H 0.60200 0.14280 -0.17090
H11 H 0.47890 0.16210 -0.34470
C8 C -0.1007(3) 0.22150(7) -0.3246(3)
H12 H -0.06230 0.24580 -0.24860
H13 H -0.21960 0.21110 -0.32790
H14 H -0.10990 0.23090 -0.43410
C9 C -0.0177(3) 0.14611(7) -0.3901(2)
H15 H -0.02120 0.15570 -0.49770
H16 H -0.13900 0.13620 -0.39820
H17 H 0.06970 0.12240 -0.35180
C10 C 0.3256(2) 0.08651(6) 0.2055(2)
C11 C 0.3518(2) 0.06950(5) 0.3775(2)
C12 C 0.5344(2) 0.06407(5) 0.4867(2)
H18 H 0.63200 0.07210 0.45280
C13 C 0.5731(3) 0.04678(5) 0.6466(2)
C14 C 0.4259(3) 0.03343(6) 0.6944(2)
H19 H 0.45020 0.02140 0.79970
C15 C 0.2436(3) 0.03800(6) 0.5856(2)
H20 H 0.14690 0.02880 0.61870
C16 C 0.2028(2) 0.05635(6) 0.4263(2)
C17 C 0.0120(3) 0.06086(6) 0.3169(2)
C18 C -0.1486(3) 0.06369(6) 0.2299(2)
H21 H -0.27330 0.06590 0.16240
C19 C 0.7645(3) 0.04350(6) 0.7591(2)
C20 C 0.9226(3) 0.04174(6) 0.8518(2)
H22 H 1.04570 0.04040 0.92400
C21 C 0.1893(3) 0.15558(6) 0.2674(2)
H23 H 0.23490 0.14430 0.37920
H24 H 0.05620 0.15780 0.22890
H25 H 0.24150 0.18420 0.26560
N1 N 0.2229(2) 0.20271(5) -0.26470(18)
N2 N 0.2429(2) 0.12589(5) 0.15833(17)
O1 O 0.21858(19) 0.22281(5) -0.39867(16)
O2 O 0.38696(18) 0.06451(4) 0.11555(15)
#END
