
#######################################################################
#
#                 Cambridge Crystallographic Data Centre
#                                CCDC
#
#######################################################################
#
# If this CIF has been generated from an entry in the Cambridge
# Structural Database, then it will include bibliographic, chemical,
# crystal, experimental, refinement or atomic coordinate data resulting
# from the CCDC's data processing and validation procedures.
#
#######################################################################

data_CSD_CIF_OZPSPO
_audit_creation_date 1978-09-01
_audit_creation_method CSD-ConQuest-V1
_database_code_CSD OZPSPO
_chemical_formula_sum 'C22 H32 N2 O4'
_chemical_formula_moiety
;
C22 H32 N2 O4
;
_journal_coden_Cambridge 82
_journal_volume 18
_journal_year 1977
_journal_page_first 1060
_journal_name_full 'Zh.Strukt.Khim.(Russ.)(J.Struct.Chem.) '
loop_
_publ_author_name
"R.P.Shibaeva"
"R.M.Lobkovskaya"
"A.O.Shapiro"
"E.G.Rozantsev"
_chemical_name_systematic
;
7,7,9,9-Tetramethyl-10-methylene-2-oxa-8-azabicyclo(4.4.0)dec-1(6)-ene-N-oxy-3
,3'-spiro(2',2',6',6'-tetramethyl-5'-methylene-4'-oxo-piperidine-N-oxyl)
;
_cell_volume   2159.213
_exptl_crystal_density_diffrn 1.21
_exptl_special_details
;
H36 REMOVED FOR SUSPECTED COORDINATE ERRORS

;
_diffrn_ambient_temperature ?
_diffrn_special_details
;
The study was carried out at room temperature,in the range 283-303K

;
#These two values have been output from a single CSD field.
_refine_ls_R_factor_gt 0.081
_refine_ls_wR_factor_gt 0.081
_symmetry_cell_setting triclinic
_symmetry_space_group_name_H-M 'P -1'
_symmetry_Int_Tables_number 2
loop_
_symmetry_equiv_pos_site_id
_symmetry_equiv_pos_as_xyz
1 x,y,z
2 -x,-y,-z
_cell_length_a 11.962(10)
_cell_length_b 13.176(3)
_cell_length_c 15.116(7)
_cell_angle_alpha 88.70(3)
_cell_angle_beta 94.28(5)
_cell_angle_gamma 114.65(5)
_cell_formula_units_Z 4
loop_
_atom_type_symbol
_atom_type_radius_bond
C 0.68
H 0.23
N 0.68
O 0.68
loop_
_atom_site_label
_atom_site_type_symbol
_atom_site_fract_x
_atom_site_fract_y
_atom_site_fract_z
O1 O -0.29980 0.11540 -0.01540
O2 O -0.36950 -0.55980 0.31050
O3 O -0.08970 -0.11070 0.16670
O4 O -0.30330 -0.22810 0.07460
O5 O 0.16100 0.10750 0.43530
O6 O 0.14270 -0.58650 0.21510
O7 O 0.42720 -0.10530 0.34400
O8 O 0.20890 -0.22350 0.40960
N1 N -0.25670 0.06200 0.03960
N2 N -0.36340 -0.48300 0.25570
N3 N 0.22920 0.05930 0.41200
N4 N 0.15260 -0.50140 0.25900
C1 C -0.15280 0.13250 0.10200
C2 C -0.10920 0.06070 0.16260
C3 C -0.15450 -0.06080 0.14570
C4 C -0.28180 -0.11770 0.10200
C5 C -0.28720 -0.05570 0.01440
C6 C -0.37800 -0.12430 0.16550
C7 C -0.36560 -0.18990 0.24830
C8 C -0.35580 -0.29690 0.22070
C9 C -0.32520 -0.30760 0.14080
C10 C -0.31220 -0.40550 0.11070
C11 C -0.38270 -0.50970 0.15960
C12 C -0.36440 -0.37900 0.29370
C13 C -0.19110 -0.05760 -0.04730
C14 C -0.41520 -0.10570 -0.03510
C15 C -0.04960 0.20890 0.04930
C16 C -0.20050 0.20330 0.15520
C17 C -0.02870 0.10510 0.22890
C18 C -0.24570 -0.39980 0.04450
C19 C -0.34040 -0.60370 0.14410
C20 C -0.51930 -0.55420 0.12840
C21 C -0.25280 -0.33260 0.35790
C22 C -0.48800 -0.41430 0.34110
C23 C 0.34400 0.13440 0.37600
C24 C 0.41240 0.06740 0.34410
C25 C 0.36100 -0.05510 0.35270
C26 C 0.23020 -0.11710 0.37190
C27 C 0.20320 -0.05330 0.44710
C28 C 0.14530 -0.13190 0.28770
C29 C 0.16660 -0.20540 0.22060
C30 C 0.16660 -0.30910 0.26550
C31 C 0.18910 -0.31070 0.35200
C32 C 0.19250 -0.40660 0.40090
C33 C 0.12460 -0.51730 0.35430
C34 C 0.15500 -0.40370 0.20510
C35 C 0.52120 0.12090 0.31290
C36 C 0.31180 0.19520 0.29610
C37 C 0.42510 0.22160 0.44510
C38 C 0.28770 -0.04440 0.52920
C39 C 0.06950 -0.10970 0.47010
C40 C 0.26190 -0.36890 0.14820
C41 C 0.03750 -0.44450 0.14450
C42 C 0.16160 -0.60930 0.39120
C43 C -0.01600 -0.55740 0.36010
C44 C 0.24620 -0.39420 0.48210
H1 H -0.46200 -0.16800 0.12700
H2 H -0.34000 -0.04200 0.19700
H3 H -0.44500 -0.21100 0.27200
H4 H -0.27500 -0.13500 0.28500
H5 H -0.10500 -0.03100 -0.01600
H6 H -0.18300 -0.00100 -0.09800
H7 H -0.22900 -0.13100 -0.07300
H8 H -0.46100 -0.09900 0.01000
H9 H -0.44300 -0.18800 -0.04700
H10 H -0.40100 -0.07100 -0.09600
H11 H -0.00500 0.17400 0.01400
H12 H 0.02400 0.26000 0.09400
H13 H -0.03100 0.27300 0.01800
H14 H -0.22400 0.24800 0.09900
H15 H -0.25600 0.14700 0.19800
H16 H -0.13100 0.25600 0.19300
H17 H 0.04200 0.15900 0.20600
H18 H -0.04700 0.09700 0.28700
H19 H -0.19100 -0.32600 0.00400
H20 H -0.24900 -0.47500 0.02400
H21 H -0.33700 -0.60600 0.07800
H22 H -0.24700 -0.56100 0.17900
H23 H -0.38200 -0.65300 0.18800
H24 H -0.57600 -0.62100 0.17700
H25 H -0.53500 -0.48300 0.13000
H26 H -0.51500 -0.57900 0.05900
H27 H -0.19000 -0.33100 0.32700
H28 H -0.24800 -0.30100 0.41500
H29 H -0.24100 -0.24300 0.37400
H30 H -0.57200 -0.44700 0.29200
H31 H -0.48200 -0.47100 0.37400
H32 H -0.51300 -0.35900 0.37800
H33 H 0.04900 -0.17700 0.31500
H34 H 0.18200 -0.05200 0.25900
H35 H 0.25900 -0.16000 0.18900
H36 H 0.51500 0.08700 0.25500
H37 H 0.57900 0.21600 0.30900
H38 H 0.23900 0.12900 0.26600
H39 H 0.39100 0.26300 0.28500
H40 H 0.30700 0.18000 0.23700
H41 H 0.44600 0.17300 0.49900
H42 H 0.37900 0.26400 0.43900
H43 H 0.48200 0.29300 0.41100
H44 H 0.37300 -0.01200 0.52100
H45 H 0.26600 -0.11000 0.56000
H46 H 0.28700 0.01700 0.57300
H47 H 0.06500 -0.07000 0.53200
H48 H 0.01100 -0.10300 0.41500
H49 H 0.04400 -0.19700 0.47200
H50 H 0.33300 -0.40500 0.13700
H51 H 0.29200 -0.29900 0.11400
H52 H 0.32400 -0.34500 0.19100
H53 H -0.05100 -0.48300 0.17800
H54 H 0.00900 -0.38600 0.10600
H55 H 0.02700 -0.51400 0.10400
H56 H 0.13600 -0.66900 0.34300
H57 H 0.25300 -0.57900 0.39400
H58 H 0.15700 -0.60900 0.46100
H59 H -0.03600 -0.56900 0.43100
H60 H -0.03000 -0.48600 0.33800
H61 H -0.06800 -0.62000 0.32700
H62 H 0.28200 -0.30800 0.51400
H63 H 0.27800 -0.44300 0.51500
#END
