
#######################################################################
#
#                 Cambridge Crystallographic Data Centre
#                                CCDC
#
#######################################################################
#
# If this CIF has been generated from an entry in the Cambridge
# Structural Database, then it will include bibliographic, chemical,
# crystal, experimental, refinement or atomic coordinate data resulting
# from the CCDC's data processing and validation procedures.
#
#######################################################################

data_CSD_CIF_OZUHUO
_audit_creation_date 2016-11-17
_audit_creation_method CSD-ConQuest-V1
_database_code_CSD OZUHUO
_database_code_depnum_ccdc_archive 'CCDC 1026372'
_chemical_formula_sum 'C18 H15 N3 O2'
_chemical_formula_moiety
;
C18 H15 N3 O2
;
_journal_coden_Cambridge 423
_journal_volume 39
_journal_year 2015
_journal_page_first 63
_journal_name_full 'J.Chem.Res. '
loop_
_publ_author_name
"M.John Plater"
"W.T.A.Harrison"
_chemical_name_systematic
;
4-nitro-N,N'-diphenylbenzene-1,3-diamine
;
_cell_volume   1453.662
_exptl_crystal_colour 'yellow'
_exptl_crystal_density_diffrn 1.395
_exptl_crystal_description 'lath'
_exptl_crystal_preparation 'ether/petrolem ether'
_diffrn_ambient_temperature 100
#These two values have been output from a single CSD field.
_refine_ls_R_factor_gt 0.0484
_refine_ls_wR_factor_gt 0.0484
_symmetry_cell_setting monoclinic
_symmetry_space_group_name_H-M 'P 21/c'
_symmetry_Int_Tables_number 14
loop_
_symmetry_equiv_pos_site_id
_symmetry_equiv_pos_as_xyz
1 x,y,z
2 -x,1/2+y,1/2-z
3 -x,-y,-z
4 x,-1/2-y,-1/2+z
_cell_length_a 13.347(6)
_cell_length_b 15.571(7)
_cell_length_c 7.222(4)
_cell_angle_alpha 90
_cell_angle_beta 104.416(9)
_cell_angle_gamma 90
_cell_formula_units_Z 4
loop_
_atom_type_symbol
_atom_type_radius_bond
C 0.68
H 0.23
N 0.68
O 0.68
loop_
_atom_site_label
_atom_site_type_symbol
_atom_site_fract_x
_atom_site_fract_y
_atom_site_fract_z
C1 C 0.5156(2) 0.35880(17) 0.3379(4)
C2 C 0.5552(2) 0.27310(17) 0.3559(4)
C3 C 0.4845(2) 0.20702(17) 0.2915(4)
H1 H 0.50920 0.14960 0.29710
C4 C 0.3783(2) 0.22211(17) 0.2188(4)
C5 C 0.3417(2) 0.30784(17) 0.2016(4)
H2 H 0.27020 0.31920 0.15110
C6 C 0.4093(2) 0.37401(17) 0.2578(4)
H3 H 0.38450 0.43140 0.24270
C7 C 0.7130(2) 0.17875(18) 0.4448(4)
C8 C 0.8074(2) 0.17698(19) 0.3947(4)
H4 H 0.83100 0.22680 0.34240
C9 C 0.8668(2) 0.1030(2) 0.4206(4)
H5 H 0.93150 0.10270 0.38810
C10 C 0.8327(2) 0.02945(19) 0.4937(4)
H6 H 0.87320 -0.02150 0.50950
C11 C 0.7387(2) 0.03094(18) 0.5435(4)
H7 H 0.71490 -0.01910 0.59450
C12 C 0.6794(2) 0.10500(18) 0.5193(4)
H8 H 0.61520 0.10540 0.55380
C13 C 0.2068(2) 0.14932(17) 0.0998(4)
C14 C 0.1421(2) 0.19916(18) 0.1803(4)
H9 H 0.17090 0.23830 0.28040
C15 C 0.0357(2) 0.19173(19) 0.1145(4)
H10 H -0.00790 0.22730 0.16740
C16 C -0.0081(2) 0.13330(18) -0.0272(5)
H11 H -0.08110 0.12860 -0.07170
C17 C 0.0567(2) 0.08168(18) -0.1031(4)
H12 H 0.02760 0.04070 -0.19880
C18 C 0.1635(2) 0.08929(17) -0.0408(4)
H13 H 0.20700 0.05360 -0.09380
N1 N 0.65931(18) 0.25828(15) 0.4269(4)
H14 H 0.701(2) 0.3103(18) 0.460(4)
N2 N 0.31575(17) 0.15243(15) 0.1624(3)
H15 H 0.346(2) 0.1020(19) 0.144(4)
N3 N 0.57902(18) 0.43211(14) 0.3862(3)
O1 O 0.67146(15) 0.42475(12) 0.4799(3)
O2 O 0.54297(15) 0.50472(12) 0.3331(3)
#END
