
#######################################################################
#
#                 Cambridge Crystallographic Data Centre
#                                CCDC
#
#######################################################################
#
# If this CIF has been generated from an entry in the Cambridge
# Structural Database, then it will include bibliographic, chemical,
# crystal, experimental, refinement or atomic coordinate data resulting
# from the CCDC's data processing and validation procedures.
#
#######################################################################

data_CSD_CIF_OZUVIP
_audit_creation_date 2011-11-29
_audit_creation_method CSD-ConQuest-V1
_database_code_CSD OZUVIP
_database_code_depnum_ccdc_archive 'CCDC 849557'
_chemical_formula_sum 'C11 H17 N4 O1'
_chemical_formula_moiety
;
C11 H17 N4 O1
;
_journal_coden_Cambridge 9
_journal_volume 50
_journal_year 2011
_journal_page_first 4307
_journal_name_full 'Inorg.Chem. '
loop_
_publ_author_name
"V.I.Ovcharenko"
"S.V.Fokin"
"E.Yu.Fursova"
"O.V.Kuznetsova"
"E.V.Tretyakov"
"G.V.Romanenko"
"A.S.Bogomyakov"
_chemical_name_systematic
;
4,4,5,5-Tetramethyl-2-(1-methyl-1H-imidazol-5-yl)-4,5-dihydro-1H-imidazole-1-o
xyl radical
;
_chemical_melting_point 434.15
_cell_volume   1142.730
_exptl_crystal_colour 'blue'
_exptl_crystal_density_diffrn 1.292
_exptl_special_details
;
Melting point range 434.15-435.15K

;
_exptl_crystal_description 'plate'
_exptl_crystal_preparation 'ethyl acetate/hexane'
_diffrn_ambient_temperature 295
#These two values have been output from a single CSD field.
_refine_ls_R_factor_gt 0.0555
_refine_ls_wR_factor_gt 0.0555
_symmetry_cell_setting orthorhombic
_symmetry_space_group_name_H-M 'P 21 21 21'
_symmetry_Int_Tables_number 19
loop_
_symmetry_equiv_pos_site_id
_symmetry_equiv_pos_as_xyz
1 x,y,z
2 1/2-x,-y,1/2+z
3 -x,1/2+y,1/2-z
4 1/2+x,1/2-y,-z
_cell_length_a 6.282(9)
_cell_length_b 11.751(16)
_cell_length_c 15.48(2)
_cell_angle_alpha 90
_cell_angle_beta 90
_cell_angle_gamma 90
_cell_formula_units_Z 4
loop_
_atom_type_symbol
_atom_type_radius_bond
C 0.68
H 0.23
N 0.68
O 0.68
loop_
_atom_site_label
_atom_site_type_symbol
_atom_site_fract_x
_atom_site_fract_y
_atom_site_fract_z
O1 O 0.1975(4) 0.9027(2) 0.24359(15)
N1 N 0.3307(5) 0.8600(2) 0.29563(17)
C1 C 0.4840(6) 0.7711(3) 0.2718(2)
N2 N 0.5321(5) 0.8479(2) 0.41312(16)
C2 C 0.6379(7) 0.8260(4) 0.2082(2)
H1 H 0.56690 0.83860 0.15420
H2 H 0.75770 0.77660 0.19940
H3 H 0.68620 0.89740 0.23110
N3 N 0.0430(5) 1.1422(3) 0.4364(2)
C3 C 0.3697(7) 0.6742(3) 0.2277(3)
H4 H 0.31720 0.69920 0.17270
H5 H 0.25270 0.64970 0.26300
H6 H 0.46660 0.61190 0.21950
N4 N 0.3456(5) 1.0645(2) 0.47834(18)
C4 C 0.5801(6) 0.7469(3) 0.3610(2)
C5 C 0.4728(7) 0.6484(3) 0.4074(2)
H7 H 0.53890 0.63720 0.46270
H8 H 0.48700 0.58050 0.37350
H9 H 0.32460 0.66540 0.41540
C6 C 0.8161(7) 0.7267(4) 0.3601(3)
H10 H 0.86470 0.71200 0.41780
H11 H 0.88700 0.79280 0.33780
H12 H 0.84750 0.66230 0.32410
C7 C 0.3824(5) 0.9036(3) 0.3763(2)
C8 C 0.2740(5) 1.0019(3) 0.4090(2)
C9 C 0.0883(6) 1.0514(3) 0.3862(2)
H13 H 0.00200 1.02610 0.34140
C10 C 0.2019(7) 1.1466(3) 0.4905(2)
H14 H 0.21400 1.20170 0.53340
C11 C 0.5400(6) 1.0505(3) 0.5290(2)
H15 H 0.54450 1.10710 0.57370
H16 H 0.66160 1.05900 0.49210
H17 H 0.54160 0.97610 0.55470
#END
