
#######################################################################
#
#                 Cambridge Crystallographic Data Centre
#                                CCDC
#
#######################################################################
#
# If this CIF has been generated from an entry in the Cambridge
# Structural Database, then it will include bibliographic, chemical,
# crystal, experimental, refinement or atomic coordinate data resulting
# from the CCDC's data processing and validation procedures.
#
#######################################################################

data_CSD_CIF_PABDIF
_audit_creation_date 1992-11-16
_audit_creation_method CSD-ConQuest-V1
_database_code_CSD PABDIF
_database_code_depnum_ccdc_archive 'CCDC 1226602'
_chemical_formula_sum 'C14 H19 N5 O3'
_chemical_formula_moiety
;
C14 H19 N5 O3
;
_journal_coden_Cambridge 95
_journal_year 1990
_journal_page_first 2084
_journal_name_full 'Izv.Akad.Nauk SSSR,Ser.Khim.(Russ.)(Russ.Chem.Bull.) '
loop_
_publ_author_name
"V.A.Ogurtsov"
"O.A.Rakitin"
"N.V.Obruchnikova"
"L.F.Chertanova"
"A.A.Gazikasheva"
"L.I.Khmel'nitskii"
_chemical_name_systematic
;
Triethylamino-(3-(4-nitrophenyl)-1,2,4-oxadiazol-5-yl)-imide
;
_chemical_melting_point 418.15
_cell_volume   3176.181
_exptl_crystal_density_diffrn 1.277
_exptl_special_details
;
Melting point range 418.15-449.15K

;
_diffrn_ambient_temperature ?
_diffrn_special_details
;
The study was carried out at room temperature,in the range 283-303K

;
#These two values have been output from a single CSD field.
_refine_ls_R_factor_gt 0.047
_refine_ls_wR_factor_gt 0.047
_symmetry_cell_setting monoclinic
_symmetry_space_group_name_H-M 'P 21/c'
_symmetry_Int_Tables_number 14
loop_
_symmetry_equiv_pos_site_id
_symmetry_equiv_pos_as_xyz
1 x,y,z
2 -x,1/2+y,1/2-z
3 -x,-y,-z
4 x,-1/2-y,-1/2+z
_cell_length_a 18.072(3)
_cell_length_b 13.045(2)
_cell_length_c 14.646(6)
_cell_angle_alpha 90
_cell_angle_beta 113.09(3)
_cell_angle_gamma 90
_cell_formula_units_Z 8
loop_
_atom_type_symbol
_atom_type_radius_bond
C 0.68
N 0.68
O 0.68
loop_
_atom_site_label
_atom_site_type_symbol
_atom_site_fract_x
_atom_site_fract_y
_atom_site_fract_z
O1 O 0.1289(1) 0.1583(2) 0.6183(1)
O2 O 0.5918(1) -0.0673(2) 0.9230(2)
O3 O 0.6293(1) 0.0456(2) 0.8427(2)
N1 N 0.1973(1) 0.1032(2) 0.6868(2)
N2 N 0.2390(1) 0.2334(2) 0.6157(2)
N3 N 0.1032(1) 0.2934(2) 0.5150(2)
N4 N 0.1350(1) 0.3738(2) 0.4705(2)
N5 N 0.5787(2) 0.0062(2) 0.8672(2)
C1 C 0.2579(2) 0.1525(2) 0.6802(2)
C2 C 0.1595(2) 0.2359(2) 0.5789(2)
C3 C 0.3413(2) 0.1191(2) 0.7352(2)
C4 C 0.4030(2) 0.1662(2) 0.7170(2)
C5 C 0.4810(2) 0.1316(2) 0.7616(2)
C6 C 0.4962(2) 0.0490(2) 0.8249(2)
C7 C 0.4376(2) 0.0041(3) 0.8485(2)
C8 C 0.3596(2) 0.0389(3) 0.8030(2)
C9 C 0.1765(2) 0.3286(3) 0.4072(3)
C10 C 0.1267(3) 0.2545(4) 0.3306(3)
C11 C 0.0592(2) 0.4302(3) 0.4065(2)
C12 C 0.0705(2) 0.5185(3) 0.3465(3)
C13 C 0.1922(2) 0.4459(3) 0.5464(3)
C14 C 0.1612(3) 0.4860(3) 0.6185(3)
O4 O 0.2842(1) -0.1534(2) -0.0409(1)
O5 O 0.6959(2) -0.5364(2) 0.1464(2)
O6 O 0.7337(2) -0.4124(2) 0.0811(3)
N6 N 0.3654(1) -0.1700(2) -0.0318(2)
N7 N 0.3255(1) -0.3022(2) 0.0387(2)
N8 N 0.1920(1) -0.2303(2) 0.0041(2)
N9 N 0.1710(1) -0.3207(2) 0.0492(2)
N10 N 0.6849(2) -0.4531(2) 0.1067(2)
C15 C 0.3831(2) -0.2585(2) 0.0142(2)
C16 C 0.2647(2) -0.2360(2) 0.0042(2)
C17 C 0.4625(2) -0.3066(2) 0.0396(2)
C18 C 0.5203(2) -0.2633(3) 0.0122(3)
C19 C 0.5937(2) -0.3101(3) 0.0354(3)
C20 C 0.6080(2) -0.4008(3) 0.0855(2)
C21 C 0.5525(3) -0.4460(3) 0.1149(2)
C22 C 0.4794(2) -0.3982(2) 0.0920(2)
C23 C 0.1647(2) -0.4162(3) -0.0115(3)
C24 C 0.1070(3) -0.4086(3) -0.1172(3)
C25 C 0.0894(2) -0.2910(3) 0.0482(3)
C26 C 0.0527(2) -0.3697(3) 0.0929(3)
C27 C 0.2300(2) -0.3422(2) 0.1545(2)
C28 C 0.2501(3) -0.2508(3) 0.2207(3)
#END
