
#######################################################################
#
#                 Cambridge Crystallographic Data Centre
#                                CCDC
#
#######################################################################
#
# If this CIF has been generated from an entry in the Cambridge
# Structural Database, then it will include bibliographic, chemical,
# crystal, experimental, refinement or atomic coordinate data resulting
# from the CCDC's data processing and validation procedures.
#
#######################################################################

data_CSD_CIF_PABGAA
_audit_creation_date 1992-11-16
_audit_creation_method CSD-ConQuest-V1
_database_code_CSD PABGAA
_chemical_formula_sum 'C15 H17 N1 O7'
_chemical_formula_moiety
;
C15 H17 N1 O7
;
_journal_coden_Cambridge 35
_journal_volume 57
_journal_year 1992
_journal_page_first 2422
_journal_name_full 'J.Org.Chem. '
loop_
_publ_author_name
"S.K.Meegalla"
"N.J.Taylor"
"R.Rodrigo"
_chemical_name_systematic
;
Methyl 3-(2'-(2-carbomethoxyethyl)-4'-methoxy-5'-nitrophenyl)-2-propenoate
;
_chemical_melting_point 387.15
_cell_volume    786.289
_exptl_crystal_colour 'colorless'
_exptl_crystal_density_diffrn 1.365
_exptl_special_details
;
Melting point range 387.15-388.15K

;
_diffrn_ambient_temperature ?
_diffrn_special_details
;
The study was carried out at room temperature,in the range 283-303K

;
_refine_special_details
;
C13 and H atoms associated with C12 are disordered over two sites estimated 
to be 65:35 occupancy.
;
#These two values have been output from a single CSD field.
_refine_ls_R_factor_gt 0.0615
_refine_ls_wR_factor_gt 0.0615
_symmetry_cell_setting triclinic
_symmetry_space_group_name_H-M 'P -1'
_symmetry_Int_Tables_number 2
loop_
_symmetry_equiv_pos_site_id
_symmetry_equiv_pos_as_xyz
1 x,y,z
2 -x,-y,-z
_cell_length_a 7.820(2)
_cell_length_b 9.418(2)
_cell_length_c 11.337(2)
_cell_angle_alpha 99.83(1)
_cell_angle_beta 100.97(1)
_cell_angle_gamma 100.87(1)
_cell_formula_units_Z 2
loop_
_atom_type_symbol
_atom_type_radius_bond
C 0.68
H 0.23
N 0.68
O 0.68
loop_
_atom_site_label
_atom_site_type_symbol
_atom_site_fract_x
_atom_site_fract_y
_atom_site_fract_z
C1 C 0.1495(4) 0.9071(3) 0.8255(3)
C2 C 0.1618(4) 0.8323(4) 0.7105(3)
C3 C 0.2796(4) 0.7380(4) 0.7113(3)
C4 C 0.3822(4) 0.7184(3) 0.8188(3)
C5 C 0.3671(4) 0.7941(3) 0.9330(3)
C6 C 0.2506(4) 0.8887(3) 0.9329(3)
N1 N 0.0317(3) 1.0109(3) 0.8368(2)
O1 O 0.0770(3) 1.1134(3) 0.9253(2)
O2 O -0.1061(4) 0.9888(4) 0.7611(2)
O3 O 0.0644(3) 0.8582(3) 0.6083(2)
C7 C 0.0766(7) 0.7783(8) 0.4915(3)
C8 C 0.5053(6) 0.6119(5) 0.8088(4)
C9 C 0.6788(7) 0.6745(6) 0.7921(6)
C10? C 0.5832(15) 0.6022(12) 0.7045(10)
C11 C 0.7684(8) 0.5506(7) 0.7435(7)
O4 O 0.7747(6) 0.4962(6) 0.6400(5)
O5 O 0.8603(5) 0.5244(4) 0.8386(3)
C12 C 0.9758(7) 0.4243(6) 0.8234(5)
C13 C 0.4709(4) 0.7777(3) 1.0506(3)
C14 C 0.4521(4) 0.8282(4) 1.1618(3)
C15 C 0.5698(5) 0.8076(4) 1.2711(3)
O6 O 0.6967(3) 0.7530(3) 1.2723(2)
O7 O 0.5211(4) 0.8588(4) 1.3739(2)
C16 C 0.6248(8) 0.8384(9) 1.4863(4)
H1 H 0.29210 0.68630 0.63390
H2 H 0.24090 0.94350 1.00990
H3 H 0.00260 0.80720 0.42630
H4 H 0.19880 0.80090 0.48470
H5 H 0.03790 0.67390 0.48580
H6 H 0.44850 0.52960 0.74130
H7 H 0.52150 0.57420 0.88270
H8? H 0.44060 0.51560 0.81160
H9? H 0.60360 0.64340 0.87960
H10 H 0.75300 0.73250 0.86910
H11 H 0.66590 0.73850 0.73520
H12? H 0.60400 0.69520 0.67960
H13? H 0.50250 0.52890 0.63790
H14 H 1.03710 0.41580 0.90280
H15 H 0.90420 0.32910 0.77870
H16 H 1.06180 0.45970 0.77870
H17 H 0.56440 0.72540 1.04590
H18 H 0.35720 0.87760 1.17120
H19 H 0.58100 0.87930 1.55500
H20 H 0.61610 0.73460 1.48220
H21 H 0.74760 0.88750 1.49630
#END
