
#######################################################################
#
#                 Cambridge Crystallographic Data Centre
#                                CCDC
#
#######################################################################
#
# If this CIF has been generated from an entry in the Cambridge
# Structural Database, then it will include bibliographic, chemical,
# crystal, experimental, refinement or atomic coordinate data resulting
# from the CCDC's data processing and validation procedures.
#
#######################################################################

data_CSD_CIF_PABHAB01
_audit_creation_date 1992-11-16
_audit_creation_method CSD-ConQuest-V1
_database_code_CSD PABHAB01
_chemical_formula_sum 'C14 H7 N7 O10'
_chemical_formula_moiety
;
C14 H7 N7 O10
;
_journal_coden_Cambridge 154
_journal_volume 45
_journal_year 1992
_journal_page_first 525
_journal_name_full 'Aust.J.Chem. '
loop_
_publ_author_name
"A.J.Freyer"
"C.K.Lowe-Ma"
"R.A.Nissan"
"W.S.Wilson"
_chemical_name_systematic
;
2-Methyl-4,6-dinitro-1-(2',4',6'-trinitrophenyl)benzimidazole
;
_chemical_melting_point 563.15
_cell_volume   1681.752
_exptl_crystal_colour 'cream-yellow'
_exptl_crystal_density_diffrn 1.711
_exptl_special_details
;
Melts with decomposition.
II polymorph

;
_diffrn_ambient_temperature ?
_diffrn_special_details
;
The study was carried out at room temperature,in the range 283-303K

;
#These two values have been output from a single CSD field.
_refine_ls_R_factor_gt 0.049
_refine_ls_wR_factor_gt 0.049
_symmetry_cell_setting monoclinic
_symmetry_space_group_name_H-M 'P 21/a'
_symmetry_Int_Tables_number 14
loop_
_symmetry_equiv_pos_site_id
_symmetry_equiv_pos_as_xyz
1 x,y,z
2 1/2-x,1/2+y,-z
3 -x,-y,-z
4 -1/2+x,-1/2-y,z
_cell_length_a 10.963(2)
_cell_length_b 11.797(3)
_cell_length_c 13.238(3)
_cell_angle_alpha 90
_cell_angle_beta 100.80(2)
_cell_angle_gamma 90
_cell_formula_units_Z 4
loop_
_atom_type_symbol
_atom_type_radius_bond
C 0.68
H 0.23
N 0.68
O 0.68
loop_
_atom_site_label
_atom_site_type_symbol
_atom_site_fract_x
_atom_site_fract_y
_atom_site_fract_z
C1 C 0.1125(3) 0.7893(3) 0.2102(2)
C2 C 0.0439(3) 0.6929(3) 0.2261(2)
C3 C 0.0622(3) 0.5954(3) 0.1702(3)
C4 C 0.1406(3) 0.5979(3) 0.1006(3)
C5 C 0.2020(3) 0.6974(3) 0.0862(3)
C6 C 0.1912(3) 0.7955(3) 0.1405(3)
C7 C -0.0120(3) 0.8219(3) 0.3214(3)
C8 C -0.0753(3) 0.8852(3) 0.3932(3)
C9 C 0.1302(3) 0.9802(3) 0.2925(2)
C10 C 0.2335(3) 0.9985(3) 0.3711(2)
C11 C 0.2909(3) 1.1023(3) 0.3854(3)
C12 C 0.2428(3) 1.1901(3) 0.3228(3)
C13 C 0.1393(3) 1.1794(3) 0.2483(3)
C14 C 0.0854(3) 1.0739(3) 0.2335(2)
N1 N 0.0752(3) 0.8712(2) 0.2733(2)
N2 N -0.0328(2) 0.7156(2) 0.2952(2)
N3 N 0.2807(3) 0.6992(3) 0.0081(2)
N4 N -0.0018(3) 0.4896(3) 0.1824(3)
N5 N 0.2869(3) 0.9064(3) 0.4416(2)
N6 N 0.3069(4) 1.3001(3) 0.3345(3)
N7 N -0.0230(3) 1.0649(3) 0.1497(3)
O1 O 0.3496(3) 0.7796(3) 0.0070(2)
O2 O 0.2726(3) 0.6192(3) -0.0515(2)
O3 O 0.0124(3) 0.4098(2) 0.1292(2)
O4 O -0.0687(4) 0.4862(3) 0.2430(3)
O5 O 0.2319(3) 0.8195(2) 0.4442(2)
O6 O 0.3884(4) 0.9238(3) 0.4927(3)
O7 O 0.4132(3) 1.3024(2) 0.3803(2)
O8 O 0.2505(3) 1.3824(3) 0.2962(3)
O9 O -0.0827(3) 1.1465(3) 0.1253(3)
O10 O -0.0429(4) 0.9777(3) 0.1065(3)
H1 H 0.15280 0.53110 0.06220
H2 H 0.23540 0.86350 0.13030
H3 H -0.04430 0.96140 0.40020
H4 H -0.05980 0.84880 0.45930
H5 H -0.16300 0.88650 0.36680
H6 H 0.36310 1.11300 0.43800
H7 H 0.10520 1.24320 0.20750
#END
