
#######################################################################
#
#                 Cambridge Crystallographic Data Centre
#                                CCDC
#
#######################################################################
#
# If this CIF has been generated from an entry in the Cambridge
# Structural Database, then it will include bibliographic, chemical,
# crystal, experimental, refinement or atomic coordinate data resulting
# from the CCDC's data processing and validation procedures.
#
#######################################################################

data_CSD_CIF_PABMAI
_audit_creation_date 2011-02-04
_audit_creation_method CSD-ConQuest-V1
_database_code_CSD PABMAI
_database_code_depnum_ccdc_archive 'CCDC 771659'
_chemical_formula_sum 'C26 H23 N5 O7'
_chemical_formula_moiety
;
C26 H23 N5 O7
;
_journal_coden_Cambridge 1200
_journal_volume 18
_journal_year 2010
_journal_page_first 202
_journal_name_full 'Bioorg.Med.Chem. '
loop_
_publ_author_name
"S.A.Patel"
"T.Rajale"
"E.O'Brien"
"D.J.Burkhart"
"J.K.Nelson"
"B.Twamley"
"A.Blumenfeld"
"M.I.Szabon-Watola"
"J.M.Gerdes"
"R.J.Bridges"
"N.R.Natale"
_chemical_name_systematic
;
(E)-4-(N-(2,4-dinitrophenyl)ethanehydrazonoyl)-5-(2-(2-naphthyl)ethyl)-1,2-oxa
zole-3-carboxylate ethyl ester
;
_cell_volume   2504.328
_exptl_crystal_colour 'orange'
_exptl_crystal_density_diffrn 1.373
_exptl_crystal_description 'needle'
_diffrn_ambient_temperature 185
_refine_special_details
;
C10A,C11A,C12A,C1A,C2A,C3A,C4A,C5A,C6A,C7A,C8A,C9A and 
C10B,C11B,C12B,C1B,C2B,C3B,C4B,C5B,C6B,C7B,C8B,C9B disordered over two sites 
with occupancies 0.572:0.428; C21B,C22B and C21A,C22A disordered over two 
sites with occupancies 0.543:0.457.
;
#These two values have been output from a single CSD field.
_refine_ls_R_factor_gt 0.0784
_refine_ls_wR_factor_gt 0.0784
loop_
_citation_database_id_CSD
_citation_special_details
PABMEM "is a stereoisomer of this entry"
_symmetry_cell_setting monoclinic
_symmetry_space_group_name_H-M 'P 21/c'
_symmetry_Int_Tables_number 14
loop_
_symmetry_equiv_pos_site_id
_symmetry_equiv_pos_as_xyz
1 x,y,z
2 -x,1/2+y,1/2-z
3 -x,-y,-z
4 x,-1/2-y,-1/2+z
_cell_length_a 11.8462(16)
_cell_length_b 7.9496(11)
_cell_length_c 26.684(3)
_cell_angle_alpha 90
_cell_angle_beta 94.734(6)
_cell_angle_gamma 90
_cell_formula_units_Z 4
loop_
_atom_type_symbol
_atom_type_radius_bond
C 0.68
H 0.23
N 0.68
O 0.68
loop_
_atom_site_label
_atom_site_type_symbol
_atom_site_fract_x
_atom_site_fract_y
_atom_site_fract_z
C1 C 0.0813(3) 0.7879(5) 0.29302(12)
C2 C -0.0108(3) 0.7312(5) 0.25999(11)
H1 H 0.00290 0.66660 0.23120
C3 C -0.1186(3) 0.7692(5) 0.26960(12)
H2 H -0.17950 0.72860 0.24750
C4 C -0.1428(2) 0.8665(4) 0.31112(11)
C5 C -0.2551(2) 0.9032(6) 0.32285(17)
H3 H -0.31690 0.86250 0.30120
C6 C -0.2768(3) 0.9945(7) 0.36396(18)
H4 H -0.35250 1.01700 0.37130
C7 C -0.1839(4) 1.0554(6) 0.39557(16)
H5 H -0.19820 1.12180 0.42400
C8 C -0.0750(3) 1.0219(5) 0.38667(12)
H6 H -0.01440 1.06180 0.40910
C9 C -0.0524(2) 0.9273(3) 0.34368(10)
C10 C 0.0606(2) 0.8849(4) 0.33313(11)
H7 H 0.12250 0.92560 0.35460
C11 C 0.2091(3) 0.7415(8) 0.28935(18)
H8 H 0.21510 0.63070 0.27280
H9 H 0.24870 0.73480 0.32340
C12 C 0.265(2) 0.882(2) 0.2577(7)
H10 H 0.20750 0.92770 0.23230
H11 H 0.29210 0.97480 0.28020
C13 C 0.3634(3) 0.8102(4) 0.23159(12)
C14 C 0.5125(3) 0.7528(4) 0.19212(12)
C15 C 0.4080(2) 0.8413(4) 0.18744(11)
C16 C 0.5955(3) 0.7222(4) 0.15396(14)
C17 C 0.3628(3) 0.9489(4) 0.14588(11)
C18 C 0.4435(3) 1.0530(4) 0.11830(13)
H12 H 0.42000 1.17120 0.11850
H13 H 0.44300 1.01350 0.08350
H14 H 0.52010 1.04230 0.13490
C19 C 0.1033(3) 1.0679(4) 0.08465(11)
C20 C 0.0220(3) 0.9806(4) 0.11060(13)
H15 H 0.04680 0.91070 0.13820
C21 C -0.0913(3) 0.9945(5) 0.09683(14)
H16 H -0.14480 0.93570 0.11490
C22 C -0.1278(3) 1.0958(5) 0.05606(14)
C23 C -0.0535(3) 1.1839(4) 0.03005(13)
H17 H -0.08030 1.25340 0.00260
C24 C 0.0619(3) 1.1717(4) 0.04379(11)
N1 N 0.5298(2) 0.6747(4) 0.23495(11)
N2 N 0.2542(2) 0.9502(3) 0.13686(9)
N3 N 0.2146(2) 1.0532(3) 0.09802(9)
H18 H 0.26320 1.11080 0.08160
N4 N 0.1355(3) 1.2690(4) 0.0149(1)
N5 N -0.2492(3) 1.1072(5) 0.04017(16)
O1 O 0.4341(2) 0.7108(3) 0.26056(9)
O2 O 0.6960(2) 0.7201(5) 0.16300(11)
O3 O 0.5415(2) 0.6974(3) 0.10979(9)
O4 O 0.2391(2) 1.2496(3) 0.02204(9)
O5 O 0.0944(3) 1.3676(4) -0.01645(10)
O6 O -0.2776(3) 1.1712(5) -0.00113(13)
O7 O -0.3152(3) 1.0540(5) 0.06877(15)
C25 C 0.5939(8) 0.6607(9) 0.0630(2)
H19 H 0.55670 0.72740 0.03500
H20 H 0.67520 0.69080 0.06680
C26 C 0.5808(11) 0.4827(11) 0.0525(4)
H21 H 0.63370 0.44890 0.02800
H22 H 0.50300 0.46020 0.03870
H23 H 0.59680 0.41860 0.08370
C27? C 0.0909(3) 0.8091(7) 0.29840(16)
C28? C 0.1795(4) 0.7312(10) 0.2637(2)
C29? C 0.250(3) 0.844(3) 0.2477(10)
C30? C 0.1193(3) 0.8984(7) 0.34377(17)
C31? C 0.6251(7) 0.6583(10) 0.0738(3)
C32? C 0.6368(13) 0.4781(12) 0.0683(5)
C33? C 0.0363(4) 0.9631(7) 0.37010(16)
C34? C -0.0786(4) 0.9424(6) 0.35448(15)
C35? C -0.1669(5) 1.0138(8) 0.3806(2)
C36? C -0.2777(4) 0.9954(10) 0.3642(3)
C37? C -0.3048(3) 0.9008(10) 0.3198(3)
C38? C -0.2241(3) 0.8321(8) 0.2929(2)
C39? C -0.1085(3) 0.8507(5) 0.31019(15)
C40? C -0.0198(4) 0.7844(6) 0.28274(14)
H24? H 0.22380 0.64310 0.28270
H25? H 0.13800 0.67690 0.23420
H26? H 0.26030 0.92880 0.27490
H27? H 0.20750 0.90170 0.21910
H28? H 0.19650 0.91290 0.35570
H29? H 0.60100 0.70900 0.04080
H30? H 0.69930 0.70750 0.08580
H31? H 0.66550 0.45320 0.03570
H32? H 0.56280 0.42430 0.07010
H33? H 0.68990 0.43470 0.09530
H34? H 0.05670 1.02440 0.40010
H35? H -0.14770 1.07620 0.41050
H36? H -0.33550 1.04480 0.38200
H37? H -0.38230 0.88480 0.30850
H38? H -0.24490 0.77210 0.26280
H39? H -0.03870 0.72180 0.25290
#END
