
#######################################################################
#
#                 Cambridge Crystallographic Data Centre
#                                CCDC
#
#######################################################################
#
# If this CIF has been generated from an entry in the Cambridge
# Structural Database, then it will include bibliographic, chemical,
# crystal, experimental, refinement or atomic coordinate data resulting
# from the CCDC's data processing and validation procedures.
#
#######################################################################

data_CSD_CIF_PABPUD
_audit_creation_date 1992-11-16
_audit_creation_method CSD-ConQuest-V1
_database_code_CSD PABPUD
_chemical_formula_sum 'C14 H18 N4 O2'
_chemical_formula_moiety
;
C14 H18 N4 O2
;
_journal_coden_Cambridge 188
_journal_year 1992
_journal_page_first 579
_journal_name_full 'J.Chem.Soc.,Perkin Trans.2 '
loop_
_publ_author_name
"M.Boyd"
"P.D.W.Boyd"
"G.J.Atwell"
"W.R.Wilson"
"W.A.Denny"
_chemical_name_systematic
;
4-(3-(N,N-Dimethylamino)propylamino)-3-nitroquinoline
;
_cell_volume    696.172
_exptl_crystal_colour 'yellow'
_exptl_crystal_density_diffrn 1.307
_diffrn_ambient_temperature ?
_diffrn_special_details
;
The study was carried out at room temperature,in the range 283-303K

;
#These two values have been output from a single CSD field.
_refine_ls_R_factor_gt 0.0693
_refine_ls_wR_factor_gt 0.0693
_symmetry_cell_setting triclinic
_symmetry_space_group_name_H-M 'P -1'
_symmetry_Int_Tables_number 2
loop_
_symmetry_equiv_pos_site_id
_symmetry_equiv_pos_as_xyz
1 x,y,z
2 -x,-y,-z
_cell_length_a 8.724(3)
_cell_length_b 8.862(3)
_cell_length_c 9.710(4)
_cell_angle_alpha 86.59(4)
_cell_angle_beta 111.67(3)
_cell_angle_gamma 92.65(3)
_cell_formula_units_Z 2
loop_
_atom_type_symbol
_atom_type_radius_bond
C 0.68
H 0.23
N 0.68
O 0.68
loop_
_atom_site_label
_atom_site_type_symbol
_atom_site_fract_x
_atom_site_fract_y
_atom_site_fract_z
O1 O -0.3379(4) 0.3642(4) -0.0313(4)
O2 O -0.2081(4) 0.5755(3) -0.0240(3)
N1 N -0.0676(4) 0.2078(3) 0.3678(3)
N2 N 0.0506(4) 0.6338(3) 0.2116(3)
N3 N 0.3823(3) 1.0291(3) 0.2654(3)
N4 N -0.2250(4) 0.4515(3) 0.0356(3)
C1 C -0.1519(5) 0.2684(4) 0.2386(4)
C2 C -0.1148(4) 0.4073(4) 0.1796(3)
C3 C 0.0229(4) 0.4987(3) 0.2639(3)
C4 C 0.1233(4) 0.4302(3) 0.4064(3)
H1 H -0.027(5) 0.647(5) 0.117(5)
H2 H -0.254(5) 0.240(4) 0.191(4)
H3 H 0.307(5) 0.601(5) 0.482(4)
H4 H 0.483(6) 0.470(5) 0.700(5)
H5 H 0.384(4) 0.236(4) 0.768(4)
H6 H 0.131(5) 0.106(5) 0.610(4)
H7 H 0.288(5) 0.751(4) 0.291(4)
H8 H 0.158(4) 0.780(4) 0.385(4)
H9 H -0.008(4) 0.925(3) 0.170(3)
C5 C 0.2738(4) 0.4929(4) 0.5031(4)
C6 C 0.3637(5) 0.4242(4) 0.6366(4)
C7 C 0.3125(5) 0.2861(4) 0.6804(4)
C8 C 0.1683(5) 0.2178(4) 0.5881(4)
C9 C 0.0735(4) 0.2863(4) 0.4525(4)
C10 C 0.1638(4) 0.7603(4) 0.2801(4)
C11 C 0.1040(5) 0.9022(4) 0.1825(4)
C12 C 0.2102(5) 1.0413(4) 0.2473(4)
C13 C 0.4812(6) 1.1498(6) 0.3574(5)
C14 C 0.4041(6) 1.0367(5) 0.1237(5)
H10 H 0.089(6) 0.903(6) 0.076(6)
H11 H 0.168(4) 1.134(4) 0.190(3)
H12 H 0.224(4) 1.051(4) 0.353(4)
H13 H 0.615(7) 1.098(6) 0.377(6)
H14 H 0.446(6) 1.257(6) 0.315(5)
H15 H 0.464(6) 1.138(5) 0.448(6)
H16 H 0.378(4) 1.137(5) 0.073(4)
H17 H 0.521(5) 1.056(4) 0.154(4)
H18 H 0.345(6) 0.955(5) 0.076(5)
#END
