
#######################################################################
#
#                 Cambridge Crystallographic Data Centre
#                                CCDC
#
#######################################################################
#
# If this CIF has been generated from an entry in the Cambridge
# Structural Database, then it will include bibliographic, chemical,
# crystal, experimental, refinement or atomic coordinate data resulting
# from the CCDC's data processing and validation procedures.
#
#######################################################################

data_CSD_CIF_PABROA
_audit_creation_date 2002-10-14
_audit_creation_method CSD-ConQuest-V1
_database_code_CSD PABROA
_database_code_depnum_ccdc_archive 'CCDC 193446'
_chemical_formula_sum 'C13 H11 N1 O5'
_chemical_formula_moiety
;
C13 H11 N1 O5
;
_journal_coden_Cambridge 151
_journal_volume 45
_journal_year 2002
_journal_page_first 2222
_journal_name_full 'J.Med.Chem. '
loop_
_publ_author_name
"Chung-Shieh Wu"
"Jian-Lin Huang"
"Yang-Sheng Sun"
"Ding-Yah Yang"
_chemical_name_systematic
;
3-Hydroxy-2-(2-nitrobenzoyl)cyclohex-2-en-1-one
;
_chemical_melting_point 408.15
_cell_volume    604.516
_exptl_crystal_colour 'colorless'
_exptl_crystal_density_diffrn 1.435
_exptl_special_details
;
Melting point range 408.15-410.15K
4-HPPD inhibitor

;
_exptl_crystal_description 'block'
_diffrn_ambient_temperature 295
_refine_special_details
;
Cyclohexyl C3 is disordered equally over two sites.

;
#These two values have been output from a single CSD field.
_refine_ls_R_factor_gt 0.0517
_refine_ls_wR_factor_gt 0.0517
_symmetry_cell_setting triclinic
_symmetry_space_group_name_H-M 'P -1'
_symmetry_Int_Tables_number 2
loop_
_symmetry_equiv_pos_site_id
_symmetry_equiv_pos_as_xyz
1 x,y,z
2 -x,-y,-z
_cell_length_a 7.500(2)
_cell_length_b 8.103(2)
_cell_length_c 10.508(2)
_cell_angle_alpha 71.79(2)
_cell_angle_beta 85.36(2)
_cell_angle_gamma 89.59(2)
_cell_formula_units_Z 2
loop_
_atom_type_symbol
_atom_type_radius_bond
C 0.68
H 0.23
N 0.68
O 0.68
loop_
_atom_site_label
_atom_site_type_symbol
_atom_site_fract_x
_atom_site_fract_y
_atom_site_fract_z
O1 O 0.0167(2) 0.8236(3) 0.8485(2)
O2 O 0.5550(2) 0.7686(3) 1.0571(2)
H1 H 0.5917(45) 0.8452(47) 0.9570(39)
O3 O 0.5635(2) 0.9203(3) 0.8161(2)
O4 O 0.3624(3) 0.6326(2) 0.7311(2)
O5 O 0.2394(4) 0.6408(3) 0.5541(3)
N1 N 0.2954(3) 0.7109(2) 0.6296(2)
C1 C 0.0999(2) 0.7836(3) 0.9478(2)
C2 C 0.0037(3) 0.7029(4) 1.0844(2)
H2 H -0.0249(3) 0.5827(4) 1.0943(2)
H3 H -0.1085(3) 0.7621(4) 1.0882(2)
H4? H -0.0481(3) 0.7953(4) 1.1149(2)
H5? H -0.0943(3) 0.6314(4) 1.0748(2)
C3 C 0.1041(6) 0.7070(8) 1.2022(4)
H6 H 0.0963(6) 0.8226(8) 1.2109(4)
H7 H 0.0457(6) 0.6268(8) 1.2835(4)
C4? C 0.1049(7) 0.6020(9) 1.1843(5)
H8? H 0.1137(7) 0.4875(9) 1.1737(5)
H9? H 0.0384(7) 0.5883(9) 1.2702(5)
C5 C 0.2898(3) 0.6629(4) 1.1925(2)
H10 H 0.2985(3) 0.5381(4) 1.2117(2)
H11 H 0.3499(3) 0.6946(4) 1.2600(2)
H12? H 0.2830(3) 0.7430(4) 1.2445(2)
H13? H 0.3592(3) 0.5644(4) 1.2394(2)
C6 C 0.3827(3) 0.7506(3) 1.0581(2)
C7 C 0.2929(2) 0.8109(2) 0.9420(2)
C8 C 0.3986(2) 0.8974(3) 0.8180(2)
C9 C 0.3206(2) 0.9817(2) 0.6860(2)
C10 C 0.3026(3) 1.1599(2) 0.6470(2)
H14 H 0.3295(3) 1.2205(2) 0.7052(2)
C11 C 0.2454(3) 1.2492(3) 0.5228(2)
H15 H 0.2328(3) 1.3690(3) 0.4990(2)
C12 C 0.2071(3) 1.1641(3) 0.4345(2)
H16 H 0.1698(3) 1.2257(3) 0.3507(2)
C13 C 0.2239(3) 0.9878(3) 0.4701(2)
H17 H 0.1977(3) 0.9284(3) 0.4110(2)
C14 C 0.2801(2) 0.8989(2) 0.5945(2)
#END
