
#######################################################################
#
#                 Cambridge Crystallographic Data Centre
#                                CCDC
#
#######################################################################
#
# If this CIF has been generated from an entry in the Cambridge
# Structural Database, then it will include bibliographic, chemical,
# crystal, experimental, refinement or atomic coordinate data resulting
# from the CCDC's data processing and validation procedures.
#
#######################################################################

data_CSD_CIF_PACNOY
_audit_creation_date 2011-02-04
_audit_creation_method CSD-ConQuest-V1
_database_code_CSD PACNOY
_database_code_depnum_ccdc_archive 'CCDC 776813'
_chemical_formula_sum 'C21 H21 N3 O4'
_chemical_formula_moiety
;
C21 H21 N3 O4
;
_journal_coden_Cambridge 1127
_journal_volume 20
_journal_year 2010
_journal_page_first 4766
_journal_name_full 'Bioorg.Med.Chem.Lett. '
loop_
_publ_author_name
"Liang-Wen Zheng"
"Ying Li"
"Di Ge"
"Bao-Xiang Zhao"
"Ying-Rui Liu"
"Hong-ShuiLu"
"Jun Ding"
"Jun-Ying Miao"
_chemical_name_systematic
;
Ethyl 
1-(2-(hydroxyimino)-2-phenylethyl)-3-(4-methoxyphenyl)-1H-pyrazole-5-carboxyla
te
;
_cell_volume   1951.241
_exptl_crystal_colour 'colorless'
_exptl_crystal_density_diffrn 1.292
_exptl_special_details
;
tested for anti-proliferation activity against A549 lung cancer cells

;
_exptl_crystal_description 'block'
_exptl_crystal_preparation 'ethanol'
_diffrn_ambient_temperature 293
#These two values have been output from a single CSD field.
_refine_ls_R_factor_gt 0.0396
_refine_ls_wR_factor_gt 0.0396
_symmetry_cell_setting monoclinic
_symmetry_space_group_name_H-M 'P 21/c'
_symmetry_Int_Tables_number 14
loop_
_symmetry_equiv_pos_site_id
_symmetry_equiv_pos_as_xyz
1 x,y,z
2 -x,1/2+y,1/2-z
3 -x,-y,-z
4 x,-1/2-y,-1/2+z
_cell_length_a 19.8731(13)
_cell_length_b 5.8990(4)
_cell_length_c 16.7014(12)
_cell_angle_alpha 90
_cell_angle_beta 94.737(1)
_cell_angle_gamma 90
_cell_formula_units_Z 4
loop_
_atom_type_symbol
_atom_type_radius_bond
C 0.68
H 0.23
N 0.68
O 0.68
loop_
_atom_site_label
_atom_site_type_symbol
_atom_site_fract_x
_atom_site_fract_y
_atom_site_fract_z
O1 O 0.42355(6) 1.1052(2) 1.00627(7)
H1 H 0.45850 1.14070 1.03280
O2 O 0.24207(6) 0.4027(2) 1.02537(7)
O3 O 0.32140(7) 0.6738(3) 1.03339(8)
O4 O -0.03380(7) 0.7207(2) 0.56101(8)
N1 N 0.43763(7) 0.9369(2) 0.95002(8)
N2 N 0.26236(6) 0.8455(2) 0.88115(8)
N3 N 0.22338(7) 0.8844(2) 0.81244(8)
C1 C 0.38669(8) 0.8847(3) 0.90183(10)
C2 C 0.39869(8) 0.7087(3) 0.84183(10)
C3 C 0.43538(9) 0.5154(3) 0.86422(12)
H2 H 0.45080 0.49290 0.91770
C4 C 0.44906(10) 0.3564(3) 0.80701(14)
H3 H 0.47370 0.22720 0.82230
C5 C 0.42658(10) 0.3879(4) 0.72763(14)
H4 H 0.43610 0.28040 0.68940
C6 C 0.39035(9) 0.5772(4) 0.70510(11)
H5 H 0.37550 0.59920 0.65140
C7 C 0.37566(8) 0.7355(3) 0.76156(10)
H6 H 0.35000 0.86210 0.74580
C8 C 0.31885(8) 0.9978(3) 0.90322(12)
H7 H 0.31430 1.05680 0.95670
H8 H 0.31680 1.12520 0.86640
C9 C 0.24119(8) 0.6585(3) 0.92041(10)
C10 C 0.18654(8) 0.5754(3) 0.87477(11)
H9 H 0.16110 0.44850 0.88570
C11 C 0.17657(8) 0.7194(3) 0.80839(10)
C12 C 0.27360(9) 0.5840(3) 0.99826(11)
C13 C 0.26845(10) 0.3206(4) 1.10387(11)
H10 H 0.26540 0.43840 1.14390
H11 H 0.31550 0.27770 1.10270
C14 C 0.22744(10) 0.1204(4) 1.12420(12)
H12 H 0.18110 0.16460 1.12540
H13 H 0.24390 0.06280 1.17590
H14 H 0.23100 0.00460 1.08440
C15 C 0.12267(8) 0.7130(3) 0.7425(1)
C16 C 0.11442(9) 0.8857(3) 0.68638(12)
H15 H 0.14450 1.00670 0.68940
C17 C 0.06277(10) 0.8824(4) 0.62635(12)
H16 H 0.05850 0.99960 0.58900
C18 C 0.01716(9) 0.7052(3) 0.62136(11)
C19 C 0.02464(9) 0.5315(3) 0.67583(11)
H17 H -0.00550 0.41060 0.67260
C20 C 0.07712(8) 0.5361(3) 0.73565(11)
H18 H 0.08180 0.41700 0.77220
C21 C -0.08258(10) 0.5435(4) 0.55490(13)
H19 H -0.06050 0.40190 0.54620
H20 H -0.11530 0.57360 0.51060
H21 H -0.10480 0.53550 0.60370
#END
