
#######################################################################
#
#                 Cambridge Crystallographic Data Centre
#                                CCDC
#
#######################################################################
#
# If this CIF has been generated from an entry in the Cambridge
# Structural Database, then it will include bibliographic, chemical,
# crystal, experimental, refinement or atomic coordinate data resulting
# from the CCDC's data processing and validation procedures.
#
#######################################################################

data_CSD_CIF_PACVEX
_audit_creation_date 2015-12-17
_audit_creation_method CSD-ConQuest-V1
_database_code_CSD PACVEX
_database_code_depnum_ccdc_archive 'CCDC 1415392'
_chemical_formula_sum 'C21 H15 N1 O5'
_chemical_formula_moiety
;
C21 H15 N1 O5
;
_journal_coden_Cambridge 179
_journal_volume 54
_journal_year 2015
_journal_page_first 13975
_journal_name_full 'Angew.Chem.,Int.Ed. '
loop_
_publ_author_name
"S.R.Chidipudi"
"D.J.Burns"
"Imtiaz Khan"
"Hon Wai Lam"
_chemical_name_systematic
;
(S)-3,6'-Dimethyl-5-nitro-2-phenyl-4'H-spiro[indene-1,3'-pyran]-2',4'-dione
;
_chemical_melting_point 455.15
_cell_volume    838.878
_exptl_crystal_colour 'colorless'
_exptl_crystal_density_diffrn 1.431
_exptl_special_details
;
Melting point range 455.15-456.15K
Absolute configuration

;
_exptl_crystal_description 'block'
_exptl_crystal_preparation 'ethyl acetate/petroleum ether'
_diffrn_ambient_temperature 120
#These two values have been output from a single CSD field.
_refine_ls_R_factor_gt 0.0466
_refine_ls_wR_factor_gt 0.0466
_symmetry_cell_setting triclinic
_symmetry_space_group_name_H-M 'P 1'
_symmetry_Int_Tables_number 1
loop_
_symmetry_equiv_pos_site_id
_symmetry_equiv_pos_as_xyz
1 x,y,z
_cell_length_a 9.4729(10)
_cell_length_b 9.8869(11)
_cell_length_c 11.0490(12)
_cell_angle_alpha 66.754(10)
_cell_angle_beta 70.621(10)
_cell_angle_gamma 64.039(11)
_cell_formula_units_Z 2
loop_
_atom_type_symbol
_atom_type_radius_bond
C 0.68
H 0.23
N 0.68
O 0.68
loop_
_atom_site_label
_atom_site_type_symbol
_atom_site_fract_x
_atom_site_fract_y
_atom_site_fract_z
C1 C 0.6856(4) 0.9352(4) 1.0054(3)
C2 C 0.6900(4) 1.1001(4) 0.9315(3)
C3 C 0.6599(4) 1.1495(4) 0.8058(3)
C4 C 0.6417(4) 1.0213(4) 0.7834(3)
C5 C 0.6160(4) 1.0139(4) 0.6702(3)
H1 H 0.60760 1.09950 0.59000
C6 C 0.6032(4) 0.8751(4) 0.6795(3)
C7 C 0.6148(4) 0.7467(4) 0.7947(3)
H2 H 0.60520 0.65430 0.79630
C8 C 0.6408(4) 0.7563(4) 0.9079(3)
H3 H 0.64730 0.67160 0.98860
C9 C 0.6569(4) 0.8924(4) 0.8991(3)
C10 C 0.5421(4) 0.9299(4) 1.1236(3)
C11 C 0.5709(4) 0.7901(4) 1.2364(3)
H4 H 0.48300 0.77650 1.30680
C12 C 0.7149(4) 0.6791(4) 1.2468(3)
O1 O 0.8510(3) 0.6888(3) 1.1506(2)
C13 C 0.8474(4) 0.8194(4) 1.0410(3)
O2 O 0.4131(3) 1.0352(3) 1.1146(2)
C14 C 0.7497(5) 0.5338(4) 1.3621(4)
H5 H 0.85880 0.46200 1.33980
H6 H 0.67350 0.48230 1.38130
H7 H 0.73960 0.56150 1.44130
O3 O 0.9725(3) 0.8287(3) 0.9752(3)
C15 C 0.7318(4) 1.1808(4) 0.9944(3)
C16 C 0.7061(5) 1.1437(4) 1.1351(3)
H8 H 0.65520 1.06960 1.19040
C17 C 0.7533(5) 1.2127(5) 1.1941(4)
H9 H 0.73470 1.18620 1.28910
C18 C 0.8286(5) 1.3215(5) 1.1141(4)
H10 H 0.86250 1.36850 1.15420
C19 C 0.8534(4) 1.3601(4) 0.9761(4)
H11 H 0.90390 1.43470 0.92140
C20 C 0.8058(4) 1.2918(4) 0.9168(3)
H12 H 0.82350 1.32040 0.82160
C21 C 0.6440(4) 1.3049(4) 0.7002(3)
H13 H 0.74850 1.30110 0.64180
H14 H 0.60550 1.38780 0.74320
H15 H 0.56770 1.32760 0.64670
N1 N 0.5781(4) 0.8611(4) 0.5616(3)
O4 O 0.6194(4) 0.9458(4) 0.4510(3)
O5 O 0.5172(4) 0.7665(4) 0.5788(3)
C22 C 0.1843(4) 0.4396(4) 0.5640(3)
C23 C 0.1874(4) 0.2706(4) 0.6364(3)
C24 C 0.2142(4) 0.2236(4) 0.7617(3)
C25 C 0.2293(4) 0.3510(4) 0.7862(3)
C26 C 0.2534(4) 0.3602(4) 0.9005(3)
H16 H 0.26190 0.27500 0.98090
C27 C 0.2643(4) 0.4995(4) 0.8908(3)
C28 C 0.2538(4) 0.6280(4) 0.7763(4)
H17 H 0.26480 0.71970 0.77460
C29 C 0.2267(4) 0.6183(4) 0.6642(3)
H18 H 0.21720 0.70430 0.58440
C30 C 0.2138(4) 0.4820(4) 0.6707(3)
C31 C 0.0183(4) 0.5530(4) 0.5329(3)
C32 C 0.0175(4) 0.6846(4) 0.4119(3)
H19 H -0.08210 0.76440 0.39350
C33 C 0.1513(4) 0.6978(4) 0.3257(3)
O6 O 0.3016(3) 0.5897(3) 0.3423(2)
C34 C 0.3246(4) 0.4515(4) 0.4475(3)
O7 O -0.1016(3) 0.5316(3) 0.6087(2)
C35 C 0.1597(5) 0.8286(4) 0.2000(4)
H20 H 0.05110 0.89910 0.18600
H21 H 0.21780 0.78540 0.12400
H22 H 0.21570 0.88740 0.20700
O8 O 0.4561(3) 0.3551(3) 0.4441(2)
C36 C 0.1492(4) 0.1886(4) 0.5721(3)
C37 C 0.1819(5) 0.2217(4) 0.4321(3)
H23 H 0.23610 0.29320 0.37760
C38 C 0.1360(5) 0.1514(5) 0.3721(4)
H24 H 0.16010 0.17450 0.27720
C39 C 0.0558(5) 0.0481(4) 0.4493(4)
H25 H 0.02340 0.00120 0.40800
C40 C 0.0231(4) 0.0135(4) 0.5889(4)
H26 H -0.03080 -0.05830 0.64290
C41 C 0.0686(4) 0.0830(4) 0.6494(3)
H27 H 0.04490 0.05880 0.74450
C42 C 0.2275(4) 0.0686(4) 0.8685(3)
H28 H 0.12300 0.07510 0.92780
H29 H 0.30570 0.04390 0.92100
H30 H 0.26240 -0.01430 0.82630
N2 N 0.2918(4) 0.5112(4) 1.0100(3)
O9 O 0.2488(4) 0.4287(4) 1.1199(3)
O10 O 0.3554(4) 0.6033(4) 0.9914(3)
#END
