
#######################################################################
#
#                 Cambridge Crystallographic Data Centre
#                                CCDC
#
#######################################################################
#
# If this CIF has been generated from an entry in the Cambridge
# Structural Database, then it will include bibliographic, chemical,
# crystal, experimental, refinement or atomic coordinate data resulting
# from the CCDC's data processing and validation procedures.
#
#######################################################################

data_CSD_CIF_PADCEF
_audit_creation_date 2015-12-17
_audit_creation_method CSD-ConQuest-V1
_database_code_CSD PADCEF
_database_code_depnum_ccdc_archive 'CCDC 1023582'
_chemical_formula_sum 'C22 H26 N2 O8'
_chemical_formula_moiety
;
C22 H26 N2 O8
;
_journal_coden_Cambridge 376
_journal_volume 122
_journal_year 2016
_journal_page_first 126
_journal_name_full 'Phytochemistry '
loop_
_publ_author_name
"M.Wibowo"
"V.Prachyawarakorn"
"T.Aree"
"C.Mahidol"
"S.Ruchirawat"
"P.Kittakoop"
_chemical_name_systematic
;
(1-acetyl-1-hydroxy-4,4-dimethylspiro[4.5]dec-7-en-8-yl)methyl 
3,5-dinitrobenzoate
;
_cell_volume   1087.330
_exptl_crystal_colour 'colorless'
_exptl_crystal_density_diffrn 1.364
_exptl_special_details
;
Absolute configuration
cytotoxic activity

;
_exptl_crystal_description 'needle'
_diffrn_ambient_temperature 296
#These two values have been output from a single CSD field.
_refine_ls_R_factor_gt 0.0545
_refine_ls_wR_factor_gt 0.0545
_chemical_compound_source
;
Pseudolagarobasidium acaciicola
;
_symmetry_cell_setting triclinic
_symmetry_space_group_name_H-M 'P 1'
_symmetry_Int_Tables_number 1
loop_
_symmetry_equiv_pos_site_id
_symmetry_equiv_pos_as_xyz
1 x,y,z
_cell_length_a 6.8446(2)
_cell_length_b 13.4597(5)
_cell_length_c 13.8980(5)
_cell_angle_alpha 116.653(1)
_cell_angle_beta 96.036(1)
_cell_angle_gamma 102.417(1)
_cell_formula_units_Z 2
loop_
_atom_type_symbol
_atom_type_radius_bond
C 0.68
H 0.23
N 0.68
O 0.68
loop_
_atom_site_label
_atom_site_type_symbol
_atom_site_fract_x
_atom_site_fract_y
_atom_site_fract_z
C1 C -0.1187(8) -0.0573(5) 0.5235(5)
C2 C -0.3003(9) -0.1551(7) 0.4352(6)
H1 H -0.34490 -0.21470 0.45590
H2 H -0.41440 -0.12530 0.42690
C3 C -0.2329(13) -0.204(1) 0.3306(7)
H3 H -0.31170 -0.19190 0.27670
H4 H -0.25780 -0.28710 0.30140
C4 C -0.0076(9) -0.1470(5) 0.3491(5)
C5 C 0.0760(7) -0.0875(4) 0.4797(4)
C6 C 0.1370(8) -0.1731(4) 0.5118(4)
H5 H 0.01430 -0.23450 0.49660
H6 H 0.22630 -0.20840 0.46600
C7 C 0.2448(9) -0.1180(5) 0.6312(4)
H7 H 0.24170 -0.16580 0.66310
C8 C 0.3438(8) -0.0064(5) 0.6938(4)
C9 C 0.3480(8) 0.0774(5) 0.6506(4)
H8 H 0.48890 0.12480 0.66840
H9 H 0.26890 0.12880 0.68800
C10 C 0.2627(8) 0.0193(4) 0.5261(4)
H10 H 0.37080 -0.00320 0.48900
H11 H 0.22560 0.07600 0.50870
C11 C 0.0936(18) -0.2356(9) 0.2831(5)
H12 H 0.06310 -0.29920 0.29870
H13 H 0.23970 -0.20040 0.30290
H14 H 0.04290 -0.26390 0.20560
C12 C 0.013(2) -0.0622(8) 0.3063(7)
H15 H 0.15460 -0.03250 0.30820
H16 H -0.03670 0.00100 0.35160
H17 H -0.06670 -0.10050 0.23150
C13 C -0.1310(9) -0.0397(7) 0.6392(6)
C14 C -0.2009(12) -0.1409(9) 0.6600(7)
H18 H -0.13460 -0.11990 0.73360
H19 H -0.16550 -0.20650 0.60750
H20 H -0.34720 -0.16070 0.65190
C15 C 0.4471(9) 0.0411(6) 0.8114(4)
H21 H 0.43120 -0.02070 0.83070
H22 H 0.59270 0.07780 0.82430
O1 O -0.1362(9) 0.0450(4) 0.5213(5)
H23 H -0.10230 0.09970 0.58450
C16 C 0.4391(8) 0.1923(5) 0.9849(4)
C17 C 0.3337(7) 0.2796(4) 1.0444(4)
C18 C 0.4255(8) 0.3610(4) 1.1539(4)
H24 H 0.54780 0.35940 1.18850
C19 C 0.3336(8) 0.4439(4) 1.2105(4)
C20 C 0.1532(8) 0.4499(4) 1.1627(4)
H25 H 0.09320 0.50700 1.20240
C21 C 0.0655(7) 0.3685(4) 1.0542(4)
C22 C 0.1496(7) 0.2828(4) 0.9928(4)
H26 H 0.08630 0.22870 0.91930
O2 O -0.1063(8) 0.0590(5) 0.7141(4)
O3 O 0.3484(6) 0.1269(3) 0.8781(3)
O4 O 0.5903(7) 0.1833(4) 1.0285(3)
N1 N 0.4285(9) 0.5303(4) 1.3274(4)
O5 O 0.5903(10) 0.5289(5) 1.3691(4)
O6 O 0.3405(7) 0.6006(4) 1.3761(3)
N2 N -0.1226(7) 0.3757(4) 1.0008(4)
O7 O -0.2014(7) 0.4481(4) 1.0576(4)
O8 O -0.1919(7) 0.3095(5) 0.9022(4)
C23 C 0.3639(9) 0.4762(5) 0.7800(5)
C24 C 0.3592(12) 0.4583(6) 0.8820(6)
H27 H 0.23070 0.40230 0.87000
H28 H 0.47140 0.42910 0.89480
C25 C 0.3799(14) 0.5742(7) 0.9804(6)
H29 H 0.47300 0.58550 1.04460
H30 H 0.24710 0.57770 0.99780
C26 C 0.465(1) 0.6682(6) 0.9492(5)
C27 C 0.3559(8) 0.6077(4) 0.8232(4)
C28 C 0.1385(9) 0.6160(5) 0.8090(5)
H31 H 0.05950 0.57340 0.83990
H32 H 0.14290 0.69690 0.85140
C29 C 0.0294(9) 0.5704(5) 0.6923(5)
H33 H -0.11360 0.54790 0.67430
C30 C 0.1289(9) 0.5607(5) 0.6131(5)
C31 C 0.3567(9) 0.5978(5) 0.6354(5)
H34 H 0.39920 0.64870 0.60460
H35 H 0.40260 0.52970 0.59770
C32 C 0.4623(9) 0.6609(5) 0.7579(4)
H36 H 0.46440 0.74180 0.78970
H37 H 0.60370 0.65890 0.76540
C33 C 0.4268(14) 0.7817(7) 1.0208(6)
H38 H 0.47310 0.83550 0.99450
H39 H 0.50040 0.81300 1.09580
H40 H 0.28230 0.76910 1.01780
C34 C 0.7002(12) 0.6877(8) 0.9647(6)
H41 H 0.76100 0.75090 0.95230
H42 H 0.72650 0.61830 0.91280
H43 H 0.75880 0.70610 1.03870
C35 C 0.1902(11) 0.3771(5) 0.6829(5)
C36 C -0.0253(12) 0.3384(6) 0.6916(7)
H44 H -0.11880 0.31660 0.62410
H45 H -0.05350 0.40080 0.75210
H46 H -0.04240 0.27270 0.70410
C37 C 0.0103(10) 0.5070(5) 0.4951(5)
H47 H -0.13600 0.48020 0.48930
H48 H 0.03470 0.56280 0.46840
O9 O 0.5483(7) 0.4666(4) 0.7468(4)
H49 H 0.52310 0.42140 0.68020
C38 C -0.0210(9) 0.3328(5) 0.3318(5)
C39 C 0.0795(8) 0.2400(4) 0.2756(4)
C40 C -0.0097(8) 0.1565(4) 0.1657(4)
H50 H -0.13310 0.15510 0.12920
C41 C 0.0913(8) 0.0757(5) 0.1127(4)
C42 C 0.2722(9) 0.0733(5) 0.1639(5)
H51 H 0.33810 0.01870 0.12620
C43 C 0.3507(8) 0.1551(5) 0.2730(5)
C44 C 0.2589(8) 0.2383(5) 0.3309(4)
H52 H 0.31550 0.29200 0.40520
O10 O 0.2402(10) 0.3199(4) 0.5968(4)
O11 O 0.0872(6) 0.4090(3) 0.4319(3)
O12 O -0.1762(8) 0.3358(4) 0.2888(3)
N3 N 0.0011(9) -0.0106(4) -0.0039(4)
O13 O -0.1687(10) -0.0163(5) -0.0466(4)
O14 O 0.0998(10) -0.0740(5) -0.0545(4)
N4 N 0.5405(9) 0.1519(6) 0.3313(6)
O15 O 0.6184(9) 0.0777(5) 0.2786(5)
O16 O 0.6098(9) 0.2258(6) 0.4288(5)
#END
