
#######################################################################
#
#                 Cambridge Crystallographic Data Centre
#                                CCDC
#
#######################################################################
#
# If this CIF has been generated from an entry in the Cambridge
# Structural Database, then it will include bibliographic, chemical,
# crystal, experimental, refinement or atomic coordinate data resulting
# from the CCDC's data processing and validation procedures.
#
#######################################################################

data_CSD_CIF_PADQUJ
_audit_creation_date 2015-12-17
_audit_creation_method CSD-ConQuest-V1
_database_code_CSD PADQUJ
_database_code_depnum_ccdc_archive 'CCDC 875793'
_chemical_formula_sum 'C14 H16 N4 O4'
_chemical_formula_moiety
;
C14 H16 N4 O4
;
_journal_coden_Cambridge 1127
_journal_volume 26
_journal_year 2016
_journal_page_first 992
_journal_name_full 'Bioorg.Med.Chem.Lett. '
loop_
_publ_author_name
"L.Saikia"
"P.Roudragouda"
"A.J.Thakur"
_chemical_name_systematic
;
6-amino-1,3-dimethyl-5-(2-nitro-1-phenylethyl)pyrimidine-2,4(1H,3H)-dione
;
_cell_volume   1557.139
_exptl_crystal_colour 'colorless'
_exptl_crystal_density_diffrn 1.298
_exptl_crystal_description 'blocks'
_diffrn_ambient_temperature 296
#These two values have been output from a single CSD field.
_refine_ls_R_factor_gt 0.0588
_refine_ls_wR_factor_gt 0.0588
_symmetry_cell_setting orthorhombic
_symmetry_space_group_name_H-M 'P n a 21'
_symmetry_Int_Tables_number 33
loop_
_symmetry_equiv_pos_site_id
_symmetry_equiv_pos_as_xyz
1 x,y,z
2 -x,-y,1/2+z
3 1/2+x,1/2-y,z
4 1/2-x,1/2+y,1/2+z
_cell_length_a 13.9604(9)
_cell_length_b 10.3267(7)
_cell_length_c 10.8011(7)
_cell_angle_alpha 90
_cell_angle_beta 90
_cell_angle_gamma 90
_cell_formula_units_Z 4
loop_
_atom_type_symbol
_atom_type_radius_bond
C 0.68
H 0.23
N 0.68
O 0.68
loop_
_atom_site_label
_atom_site_type_symbol
_atom_site_fract_x
_atom_site_fract_y
_atom_site_fract_z
C1 C 0.5336(3) 0.0982(4) 0.8156(5)
H1 H 0.55100 0.17010 0.86240
C2 C 0.5989(3) -0.0002(5) 0.7966(6)
H2 H 0.66010 0.00660 0.83010
C3 C 0.5754(4) -0.1057(5) 0.7303(6)
H3 H 0.61960 -0.17200 0.71890
C4 C 0.4855(4) -0.1146(5) 0.6796(5)
H4 H 0.46900 -0.18710 0.63310
C5 C 0.4193(3) -0.0172(4) 0.6970(5)
H5 H 0.35870 -0.02460 0.66210
C6 C 0.4419(3) 0.0907(4) 0.7653(4)
C7 C 0.3711(3) 0.2021(4) 0.7866(4)
H6 H 0.39790 0.27910 0.74650
C8 C 0.3663(4) 0.2302(5) 0.9251(5)
H7 H 0.33550 0.15810 0.96670
H8 H 0.43090 0.23770 0.95740
C9 C 0.2721(2) 0.1791(3) 0.7303(4)
C10 C 0.2108(3) 0.0869(4) 0.7841(4)
C11 C 0.0889(3) 0.1383(3) 0.6313(4)
C12 C 0.2429(3) 0.2437(3) 0.6259(4)
C13 C 0.0553(4) -0.0226(5) 0.7873(7)
H9 H -0.00820 0.01290 0.79100
H10 H 0.07650 -0.04360 0.86950
H11 H 0.05480 -0.09960 0.73750
C14 C 0.1180(3) 0.2954(5) 0.4695(5)
H12 H 0.11310 0.38580 0.48890
H13 H 0.05630 0.26300 0.44560
H14 H 0.16250 0.28360 0.40260
N1 N 0.1204(2) 0.0727(3) 0.7324(4)
N2 N 0.1521(2) 0.2244(3) 0.5789(3)
N3 N 0.2983(2) 0.3276(4) 0.5638(4)
H15 H 0.35560 0.34340 0.58900
H16 H 0.27650 0.36560 0.49880
N4 N 0.3132(4) 0.3500(7) 0.9527(6)
O1 O 0.2329(2) 0.0186(3) 0.8739(3)
O2 O 0.00883(18) 0.1228(3) 0.5882(3)
O3 O 0.3299(3) 0.4464(5) 0.8930(8)
O4 O 0.2541(8) 0.3485(9) 1.0248(8)
#END
