
#######################################################################
#
#                 Cambridge Crystallographic Data Centre
#                                CCDC
#
#######################################################################
#
# If this CIF has been generated from an entry in the Cambridge
# Structural Database, then it will include bibliographic, chemical,
# crystal, experimental, refinement or atomic coordinate data resulting
# from the CCDC's data processing and validation procedures.
#
#######################################################################

data_CSD_CIF_PADXUP
_audit_creation_date 2011-02-15
_audit_creation_method CSD-ConQuest-V1
_database_code_CSD PADXUP
_database_code_depnum_ccdc_archive 'CCDC 739835'
_chemical_formula_sum 'C13 H15 N1 O4'
_chemical_formula_moiety
;
C13 H15 N1 O4
;
_journal_coden_Cambridge 218
_journal_volume 137
_journal_year 2010
_journal_page_first 163
_journal_name_full 'Catal.Lett '
loop_
_publ_author_name
"Dongsheng Deng"
"Ping Liu"
"Baoming Ji"
"Weijun Fu"
"Long Li"
_chemical_name_systematic
;
(2S)-2-((R)-Hydroxy(3-nitrophenyl)methyl)cyclohexanone
;
_cell_volume   1227.949
_exptl_crystal_colour 'light yellow'
_exptl_crystal_density_diffrn 1.348
_exptl_special_details
;
Absolute configuration

;
_exptl_crystal_description 'block'
_diffrn_ambient_temperature 293
#These two values have been output from a single CSD field.
_refine_ls_R_factor_gt 0.0423
_refine_ls_wR_factor_gt 0.0423
_symmetry_cell_setting orthorhombic
_symmetry_space_group_name_H-M 'P 21 21 21'
_symmetry_Int_Tables_number 19
loop_
_symmetry_equiv_pos_site_id
_symmetry_equiv_pos_as_xyz
1 x,y,z
2 1/2-x,-y,1/2+z
3 -x,1/2+y,1/2-z
4 1/2+x,1/2-y,-z
_cell_length_a 6.8559(1)
_cell_length_b 9.4456(1)
_cell_length_c 18.9621(3)
_cell_angle_alpha 90
_cell_angle_beta 90
_cell_angle_gamma 90
_cell_formula_units_Z 4
loop_
_atom_type_symbol
_atom_type_radius_bond
C 0.68
H 0.23
N 0.68
O 0.68
loop_
_atom_site_label
_atom_site_type_symbol
_atom_site_fract_x
_atom_site_fract_y
_atom_site_fract_z
O1 O 0.5874(2) -0.02980(15) 0.04268(7)
H1 H 0.52690 0.01490 0.01280
O2 O 0.9396(2) -0.21228(14) 0.01945(7)
O3 O 0.3233(2) 0.26185(15) 0.23993(8)
N1 N 0.3833(2) 0.36582(16) 0.20788(8)
O4 O 0.3328(3) 0.48692(15) 0.22211(9)
C1 C 0.9622(3) -0.18108(19) 0.08129(10)
C2 C 0.6030(3) 0.46433(19) 0.11870(9)
H2 H 0.56350 0.55500 0.13150
C3 C 0.7163(3) 0.18815(18) 0.07997(9)
C4 C 1.0538(3) 0.0366(2) 0.14654(10)
H3 H 1.14590 0.06490 0.11030
H4 H 1.00460 0.12160 0.16910
C5 C 0.7955(3) 0.3061(2) 0.04728(9)
H5 H 0.88810 0.29350 0.01200
C6 C 0.7686(3) 0.03977(19) 0.05689(9)
H6 H 0.84510 0.04470 0.01330
C7 C 0.5807(3) 0.20843(17) 0.13390(8)
H7 H 0.52700 0.13150 0.15750
C8 C 0.8833(2) -0.04420(18) 0.11228(9)
H8 H 0.79200 -0.06980 0.15000
C9 C 0.7403(3) 0.4427(2) 0.06577(10)
H9 H 0.79530 0.51990 0.04270
C10 C 0.5276(3) 0.34548(18) 0.15156(9)
C11 C 1.2382(3) -0.1893(2) 0.16707(12)
H10 H 1.33650 -0.16450 0.13240
H11 H 1.29960 -0.24760 0.20290
C12 C 1.1576(3) -0.0545(2) 0.20099(10)
H12 H 1.06700 -0.07960 0.23820
H13 H 1.26370 -0.00110 0.22190
C13 C 1.0746(3) -0.27303(19) 0.13140(11)
H14 H 1.12990 -0.35250 0.10590
H15 H 0.98700 -0.31020 0.16700
#END
