
#######################################################################
#
#                 Cambridge Crystallographic Data Centre
#                                CCDC
#
#######################################################################
#
# If this CIF has been generated from an entry in the Cambridge
# Structural Database, then it will include bibliographic, chemical,
# crystal, experimental, refinement or atomic coordinate data resulting
# from the CCDC's data processing and validation procedures.
#
#######################################################################

data_CSD_CIF_PADXID
_audit_creation_date 2011-02-15
_audit_creation_method CSD-ConQuest-V1
_database_code_CSD PADXID
_database_code_depnum_ccdc_archive 'CCDC 670177'
_chemical_formula_sum 'C24 H29 N3 O3'
_chemical_formula_moiety
;
C24 H29 N3 O3
;
_journal_coden_Cambridge 206
_journal_volume 40
_journal_year 2010
_journal_page_first 1377
_journal_name_full 'Synth.Commun. '
loop_
_publ_author_name
"A.Bahy"
"Y.Kacem"
"B.B.Hassine"
_chemical_name_systematic
;
(3S*,5S*)-2-t-Butyl-6-isopropyl-3,8-diphenyl-1-oxa-2,6,8-triazaspiro[4.4]nonan
e-7,9-dione
;
_chemical_melting_point 420.15
_cell_volume   1129.063
_exptl_crystal_colour 'colorless'
_exptl_crystal_density_diffrn 1.199
_exptl_special_details
;
Melting point range 420.15-422.15K

;
_exptl_crystal_description 'plate'
_diffrn_ambient_temperature 293
#These two values have been output from a single CSD field.
_refine_ls_R_factor_gt 0.0565
_refine_ls_wR_factor_gt 0.0565
_symmetry_cell_setting triclinic
_symmetry_space_group_name_H-M 'P -1'
_symmetry_Int_Tables_number 2
loop_
_symmetry_equiv_pos_site_id
_symmetry_equiv_pos_as_xyz
1 x,y,z
2 -x,-y,-z
_cell_length_a 9.976(5)
_cell_length_b 10.735(5)
_cell_length_c 11.134(5)
_cell_angle_alpha 74.727(5)
_cell_angle_beta 84.806(5)
_cell_angle_gamma 79.271(5)
_cell_formula_units_Z 2
loop_
_atom_type_symbol
_atom_type_radius_bond
C 0.68
H 0.23
N 0.68
O 0.68
loop_
_atom_site_label
_atom_site_type_symbol
_atom_site_fract_x
_atom_site_fract_y
_atom_site_fract_z
O1 O 0.52409(11) 0.30969(10) 0.64427(10)
N1 N 0.44748(13) 0.20227(12) 0.64630(11)
N2 N 0.74501(13) 0.39764(12) 0.79528(12)
N3 N 0.74416(13) 0.22062(13) 0.72414(13)
O2 O 0.51240(12) 0.45659(12) 0.83369(12)
C1 C 0.39817(16) 0.17018(15) 0.77884(13)
O3 O 0.95140(12) 0.27838(13) 0.74080(15)
C2 C 0.60218(15) 0.26725(15) 0.75149(14)
C3 C 0.79907(16) 0.49316(14) 0.83669(14)
C4 C 0.22445(18) 0.03399(17) 0.88927(16)
C5 C 0.60882(16) 0.38762(15) 0.79904(14)
C6 C 0.34662(16) 0.04044(14) 0.81984(13)
C7 C 0.7386(2) 0.53522(17) 0.93841(18)
C8 C 0.82821(16) 0.29470(16) 0.75013(16)
C9 C 0.34529(17) 0.26405(17) 0.54860(15)
C10 C 0.52796(19) 0.16584(18) 0.84375(15)
C11 C 0.3729(2) -0.19157(18) 0.83680(18)
C12 C 0.7867(2) 0.12249(19) 0.65042(19)
C13 C 0.91329(18) 0.54218(18) 0.77419(18)
C14 C 0.9672(2) 0.6311(2) 0.8178(2)
C15 C 0.4217(2) -0.07305(17) 0.79501(17)
C16 C 0.2505(2) -0.19594(18) 0.90495(17)
C17 C 0.1779(2) -0.08557(19) 0.93254(19)
C18 C 0.7944(2) 0.6246(2) 0.9798(2)
C19 C 0.4288(3) 0.2978(3) 0.42623(18)
C20 C 0.2623(3) 0.1599(3) 0.5436(2)
C21 C 0.8387(3) 0.1847(3) 0.5210(3)
C22 C 0.8869(4) 0.0076(3) 0.7191(3)
C23 C 0.9091(2) 0.6714(2) 0.9204(3)
C24 C 0.2517(3) 0.3855(3) 0.5706(3)
H1 H 0.5072(17) 0.1896(16) 0.9239(17)
H2 H 0.3257(17) 0.2397(16) 0.7963(15)
H3 H 0.584(2) 0.081(2) 0.8560(19)
H4 H 0.172(2) 0.115(2) 0.9059(19)
H5 H 0.430(2) -0.266(2) 0.815(2)
H6 H 0.509(2) -0.0701(19) 0.7450(19)
H7 H 0.091(2) -0.083(2) 0.983(2)
H8 H 0.218(2) -0.279(2) 0.930(2)
H9 H 0.9545(19) 0.5118(19) 0.7020(19)
H10 H 0.697(2) 0.0969(19) 0.6409(18)
H11 H 0.367(2) 0.324(2) 0.358(2)
H12 H 0.207(3) 0.195(2) 0.470(3)
H13 H 0.948(2) 0.734(2) 0.952(2)
H14 H 0.752(2) 0.652(2) 1.050(2)
H15 H 0.657(2) 0.504(2) 0.9827(19)
H16 H 0.858(2) 0.123(2) 0.471(2)
H17 H 0.500(3) 0.218(3) 0.422(3)
H18 H 0.768(3) 0.257(3) 0.477(3)
H19 H 1.049(2) 0.665(2) 0.775(2)
H20 H 0.477(2) 0.374(3) 0.424(2)
H21 H 0.918(3) 0.216(3) 0.525(3)
H22 H 0.201(3) 0.142(3) 0.617(3)
H23 H 0.198(3) 0.373(3) 0.647(3)
H24 H 0.193(3) 0.421(3) 0.500(3)
H25 H 0.306(3) 0.452(3) 0.589(3)
H26 H 0.325(3) 0.076(3) 0.534(3)
H27 H 0.906(2) -0.059(3) 0.675(2)
H28 H 0.975(4) 0.043(4) 0.726(3)
H29 H 0.842(3) -0.025(3) 0.799(3)
#END
