
#######################################################################
#
#                 Cambridge Crystallographic Data Centre
#                                CCDC
#
#######################################################################
#
# If this CIF has been generated from an entry in the Cambridge
# Structural Database, then it will include bibliographic, chemical,
# crystal, experimental, refinement or atomic coordinate data resulting
# from the CCDC's data processing and validation procedures.
#
#######################################################################

data_CSD_CIF_PADXOJ
_audit_creation_date 2011-02-15
_audit_creation_method CSD-ConQuest-V1
_database_code_CSD PADXOJ
_database_code_depnum_ccdc_archive 'CCDC 739834'
_chemical_formula_sum 'C13 H15 N1 O4'
_chemical_formula_moiety
;
C13 H15 N1 O4
;
_journal_coden_Cambridge 218
_journal_volume 137
_journal_year 2010
_journal_page_first 163
_journal_name_full 'Catal.Lett '
loop_
_publ_author_name
"Dongsheng Deng"
"Ping Liu"
"Baoming Ji"
"Weijun Fu"
"Long Li"
_chemical_name_systematic
;
(2S)-2-((R)-Hydroxy(4-nitrophenyl)methyl)cyclohexanone
;
_cell_volume   1221.771
_exptl_crystal_colour 'light yellow'
_exptl_crystal_density_diffrn 1.355
_exptl_special_details
;
Absolute configuration

;
_exptl_crystal_description 'block'
_diffrn_ambient_temperature 150
#These two values have been output from a single CSD field.
_refine_ls_R_factor_gt 0.0341
_refine_ls_wR_factor_gt 0.0341
loop_
_citation_database_id_CSD
_citation_special_details
NADDEC "is a racemate of this entry"
_symmetry_cell_setting orthorhombic
_symmetry_space_group_name_H-M 'P 21 21 21'
_symmetry_Int_Tables_number 19
loop_
_symmetry_equiv_pos_site_id
_symmetry_equiv_pos_as_xyz
1 x,y,z
2 1/2-x,-y,1/2+z
3 -x,1/2+y,1/2-z
4 1/2+x,1/2-y,-z
_cell_length_a 5.8453(2)
_cell_length_b 8.7583(3)
_cell_length_c 23.8651(7)
_cell_angle_alpha 90
_cell_angle_beta 90
_cell_angle_gamma 90
_cell_formula_units_Z 4
loop_
_atom_type_symbol
_atom_type_radius_bond
C 0.68
H 0.23
N 0.68
O 0.68
loop_
_atom_site_label
_atom_site_type_symbol
_atom_site_fract_x
_atom_site_fract_y
_atom_site_fract_z
O1 O 0.2670(2) 0.28464(13) 0.01683(4)
H1 H 0.34740 0.35960 0.00710
C1 C 0.2648(3) 0.36654(17) 0.11390(6)
C2 C 0.3246(3) 0.24165(19) 0.07269(7)
C3 C 0.0530(3) 0.43985(19) 0.11037(7)
C4 C 0.4158(3) 0.40664(18) 0.15656(7)
C5 C 0.1436(3) 0.58290(18) 0.19215(7)
N1 N 0.0740(3) 0.6942(2) 0.23476(7)
O2 O -0.1165(3) 0.7509(2) 0.23178(7)
C6 C 0.2140(3) -0.01510(18) 0.03717(7)
C7 C 0.3563(3) 0.5154(2) 0.19619(7)
C8 C 0.4351(3) -0.1002(2) 0.03316(7)
C9 C -0.0085(3) 0.54882(19) 0.14944(7)
C10 C 0.1885(3) 0.09568(19) 0.08580(7)
O3 O 0.2076(4) 0.7236(3) 0.27234(9)
C11 C 0.4994(4) -0.1750(2) 0.08901(9)
C12 C 0.2628(4) 0.0178(2) 0.14084(7)
C13 C 0.4936(4) -0.0594(2) 0.13683(8)
O4 O 0.0589(3) -0.03256(14) 0.00329(6)
H2 H 0.500(4) 0.224(2) 0.0762(8)
H3 H 0.017(4) 0.127(2) 0.0869(8)
H4 H 0.258(5) 0.089(3) 0.1719(10)
H5 H -0.047(4) 0.410(2) 0.0794(9)
H6 H 0.385(4) -0.259(3) 0.0966(10)
H7 H 0.430(4) -0.175(3) 0.0023(10)
H8 H 0.455(5) 0.539(3) 0.2287(10)
H9 H 0.132(5) -0.063(4) 0.1500(12)
H10 H 0.579(4) 0.356(3) 0.1598(9)
H11 H 0.562(4) -0.021(3) 0.0211(9)
H12 H 0.611(4) 0.016(3) 0.1320(8)
H13 H 0.537(5) -0.110(3) 0.1729(10)
H14 H 0.649(5) -0.223(3) 0.0849(11)
H15 H -0.162(4) 0.598(3) 0.1501(10)
#END
