
#######################################################################
#
#                 Cambridge Crystallographic Data Centre
#                                CCDC
#
#######################################################################
#
# If this CIF has been generated from an entry in the Cambridge
# Structural Database, then it will include bibliographic, chemical,
# crystal, experimental, refinement or atomic coordinate data resulting
# from the CCDC's data processing and validation procedures.
#
#######################################################################

data_CSD_CIF_PAFHIP
_audit_creation_date 2011-02-04
_audit_creation_method CSD-ConQuest-V1
_database_code_CSD PAFHIP
_database_code_depnum_ccdc_archive 'CCDC 793372'
_chemical_formula_sum 'C28 H28 N4 O5'
_chemical_formula_moiety
;
C28 H28 N4 O5
;
_journal_coden_Cambridge 4
_journal_volume 132
_journal_year 2010
_journal_page_first 11379
_journal_name_full 'J.Am.Chem.Soc. '
loop_
_publ_author_name
"Y.S.M.Vaske"
"M.E.Mahoney"
"J.P.Konopelski"
"D.L.Rogow"
"W.J.McDonald"
_chemical_name_systematic
;
(S)-Methyl 5-diazo-6-(methoxy(methyl)amino)-4,6-dioxo-3-(tritylamino)hexanoate
;
_cell_volume   2579.377
_exptl_crystal_colour 'yellow'
_exptl_crystal_density_diffrn 1.292
_exptl_special_details
;
The structure contains an additional H atom coordinated to one of the phenyl 
C atoms and this has been suppressed in the 3D structure
;
_exptl_crystal_description 'block'
_diffrn_ambient_temperature 150
#These two values have been output from a single CSD field.
_refine_ls_R_factor_gt 0.0385
_refine_ls_wR_factor_gt 0.0385
_symmetry_cell_setting orthorhombic
_symmetry_space_group_name_H-M 'P 21 21 21'
_symmetry_Int_Tables_number 19
loop_
_symmetry_equiv_pos_site_id
_symmetry_equiv_pos_as_xyz
1 x,y,z
2 1/2-x,-y,1/2+z
3 -x,1/2+y,1/2-z
4 1/2+x,1/2-y,-z
_cell_length_a 9.3264(14)
_cell_length_b 14.781(2)
_cell_length_c 18.711(3)
_cell_angle_alpha 90
_cell_angle_beta 90
_cell_angle_gamma 90
_cell_formula_units_Z 4
loop_
_atom_type_symbol
_atom_type_radius_bond
C 0.68
H 0.23
N 0.68
O 0.68
loop_
_atom_site_label
_atom_site_type_symbol
_atom_site_fract_x
_atom_site_fract_y
_atom_site_fract_z
O1 O 0.0951(3) 0.4912(2) 0.24226(17)
O2 O 0.2468(3) 0.3311(2) 0.33179(16)
C1 C 0.2457(4) 0.6157(3) 0.2584(2)
O3 O 0.4952(3) 0.6185(2) 0.26139(18)
O4 O -0.0011(4) 0.7152(2) 0.25467(18)
N1 N 0.2583(4) 0.7022(3) 0.2771(2)
N2 N -0.0149(4) 0.6228(2) 0.2690(2)
N3 N 0.5256(3) 0.4768(2) 0.16857(16)
H1 H 0.61350 0.46880 0.18440
C2 C 0.6472(5) 0.5109(3) -0.0198(2)
H2 H 0.56170 0.52670 -0.04440
O5 O 0.2956(3) 0.4684(2) 0.37627(17)
C3 C 0.4160(4) 0.5776(3) 0.0801(2)
C4 C 0.6412(5) 0.4888(3) 0.0522(2)
C5 C 0.4139(5) 0.4044(3) 0.0639(2)
C6 C 0.4042(4) 0.4793(3) 0.2174(2)
H3 H 0.31490 0.46110 0.19160
C7 C 0.2655(5) 0.5822(3) 0.0793(2)
H4 H 0.21150 0.52780 0.08160
C8 C 0.3296(5) 0.4073(3) 0.0028(2)
H5 H 0.32020 0.46260 -0.02260
C9 C 0.4344(4) 0.4123(3) 0.2782(2)
H6 H 0.44610 0.35110 0.25760
H7 H 0.52620 0.42900 0.30130
C10 C 0.3630(5) 0.2442(3) 0.0720(3)
H8 H 0.37700 0.18790 0.09550
C11 C 0.3867(4) 0.5751(3) 0.2477(2)
C12 C 0.1051(4) 0.5730(3) 0.2540(2)
C13 C -0.1559(4) 0.5880(4) 0.2504(3)
H9 H -0.16270 0.52430 0.26460
H10 H -0.17040 0.59320 0.19870
H11 H -0.22960 0.62310 0.27540
C14 C 0.4893(5) 0.6592(3) 0.0773(2)
H12 H 0.59120 0.65870 0.07810
C15 C 0.8978(5) 0.4651(3) 0.0489(3)
H13 H 0.98390 0.44960 0.07320
C16 C 0.2589(6) 0.3308(3) -0.0218(3)
H14 H 0.19930 0.33450 -0.06290
C17 C 0.4311(5) 0.3210(3) 0.0971(2)
H15 H 0.49120 0.31670 0.13790
C18 C 0.4956(4) 0.4882(3) 0.0911(2)
C19 C 0.1941(5) 0.6638(3) 0.0752(3)
H16 H 0.09230 0.66490 0.07430
C20 C 0.7770(7) 0.5099(3) -0.0564(3)
H17 H 0.77890 0.52470 -0.10580
C21 C 0.7684(5) 0.4644(3) 0.0853(2)
H18 H 0.76680 0.44670 0.13410
C22 C 0.9018(6) 0.4881(3) -0.0223(3)
H19 H 0.99030 0.48880 -0.04740
C23 C 0.2698(6) 0.7434(3) 0.0725(3)
H20? H 0.23840 0.78090 0.11340
H21? H 0.24000 0.77560 0.02850
C24 C 0.4181(6) 0.7415(3) 0.0732(2)
H22 H 0.47100 0.79640 0.07090
C25 C 0.3184(5) 0.4090(4) 0.3346(2)
C26 C -0.0481(6) 0.7684(3) 0.3152(3)
H23 H -0.02190 0.83190 0.30770
H24 H -0.00190 0.74600 0.35870
H25 H -0.15240 0.76340 0.32010
C27 C 0.2750(5) 0.2493(4) 0.0133(3)
H26 H 0.22570 0.19700 -0.00310
C28 C 0.1281(6) 0.3253(4) 0.3817(3)
H27 H 0.08400 0.26530 0.37840
H28 H 0.05670 0.37160 0.37000
H29 H 0.16350 0.33510 0.43040
N4 N 0.2847(5) 0.7740(4) 0.2916(3)
#END
