
#######################################################################
#
#                 Cambridge Crystallographic Data Centre
#                                CCDC
#
#######################################################################
#
# If this CIF has been generated from an entry in the Cambridge
# Structural Database, then it will include bibliographic, chemical,
# crystal, experimental, refinement or atomic coordinate data resulting
# from the CCDC's data processing and validation procedures.
#
#######################################################################

data_CSD_CIF_PAFHAH
_audit_creation_date 2011-02-04
_audit_creation_method CSD-ConQuest-V1
_database_code_CSD PAFHAH
_database_code_depnum_ccdc_archive 'CCDC 793370'
_chemical_formula_sum 'C33 H32 N2 O4'
_chemical_formula_moiety
;
C33 H32 N2 O4
;
_journal_coden_Cambridge 4
_journal_volume 132
_journal_year 2010
_journal_page_first 11379
_journal_name_full 'J.Am.Chem.Soc. '
loop_
_publ_author_name
"Y.S.M.Vaske"
"M.E.Mahoney"
"J.P.Konopelski"
"D.L.Rogow"
"W.J.McDonald"
_chemical_name_systematic
;
2-((Benzyloxy)methyl)-N-methoxy-N-methyl-4-oxo-1-tritylazetidine-3-carboxamide
;
_cell_volume   2722.623
_exptl_crystal_density_diffrn 1.268
_exptl_special_details
;
Study temperature given as 133 K and 150 K in the CIF

;
_exptl_crystal_description 'irregular'
_diffrn_ambient_temperature 133
#These two values have been output from a single CSD field.
_refine_ls_R_factor_gt 0.0447
_refine_ls_wR_factor_gt 0.0447
loop_
_citation_database_id_CSD
_citation_special_details
PAFHEL "is a stereoisomer of this entry"
_symmetry_cell_setting monoclinic
_symmetry_space_group_name_H-M 'P 21'
_symmetry_Int_Tables_number 4
loop_
_symmetry_equiv_pos_site_id
_symmetry_equiv_pos_as_xyz
1 x,y,z
2 -x,1/2+y,-z
_cell_length_a 9.510(3)
_cell_length_b 11.941(6)
_cell_length_c 23.992(8)
_cell_angle_alpha 90
_cell_angle_beta 92.13(3)
_cell_angle_gamma 90
_cell_formula_units_Z 4
loop_
_atom_type_symbol
_atom_type_radius_bond
C 0.68
H 0.23
N 0.68
O 0.68
loop_
_atom_site_label
_atom_site_type_symbol
_atom_site_fract_x
_atom_site_fract_y
_atom_site_fract_z
O1 O 0.74037(19) 0.36606(16) 0.22939(8)
O2 O 0.31795(19) -0.13584(16) 0.26814(7)
O3 O 0.9083(2) 0.45404(16) 0.07716(8)
O4 O 0.11203(19) -0.02400(16) 0.41631(8)
O5 O 0.1133(2) -0.39948(17) 0.32286(8)
O6 O 1.1364(2) 0.27356(17) 0.24126(8)
O7 O -0.0300(2) -0.19484(17) 0.23398(8)
O8 O 0.8903(2) 0.08891(17) 0.18165(9)
N1 N 0.7132(2) 0.31738(18) 0.13444(9)
N2 N 0.3213(2) -0.16499(18) 0.36527(9)
N3 N -0.0050(2) -0.3013(2) 0.25651(10)
N4 N 1.0511(2) 0.1782(2) 0.23545(10)
C1 C 0.5834(3) 0.3390(3) -0.06527(12)
H1 H 0.59160 0.34000 -0.10460
C2 C 0.4536(2) -0.1379(2) 0.45234(11)
C3 C 0.5638(3) 0.3382(2) 0.05070(11)
C4 C 0.1889(3) -0.2073(2) 0.38939(11)
H2 H 0.19920 -0.28710 0.40150
C5 C 0.1217(3) -0.1382(2) 0.43349(11)
H3 H 0.02640 -0.16760 0.44020
H4 H 0.17840 -0.14350 0.46880
C6 C 0.9191(3) 0.2844(2) 0.16465(11)
H5 H 0.99870 0.33920 0.16500
C7 C 0.5850(3) 0.2390(2) 0.02140(12)
H6 H 0.59290 0.17020 0.04110
C8 C 0.4341(3) -0.0347(3) 0.53828(12)
H7 H 0.43330 0.03500 0.55730
C9 C 0.6258(3) -0.4028(3) 0.31875(12)
H8 H 0.60140 -0.45510 0.29020
C10 C 0.1217(3) -0.1993(2) 0.32990(11)
H9 H 0.04790 -0.13980 0.32630
C11 C 0.7894(3) -0.3342(3) 0.38824(13)
H10 H 0.87810 -0.33930 0.40760
C12 C 0.4351(3) -0.2362(2) 0.48225(11)
H11 H 0.43530 -0.30590 0.46320
C13 C 0.5142(3) 0.4422(2) 0.14215(12)
C14 C 0.5947(3) 0.2398(3) -0.03629(12)
H12 H 0.60910 0.17170 -0.05570
C15 C 0.7799(3) 0.3328(2) 0.18520(12)
C16 C 0.1991(3) 0.3328(3) 0.44248(13)
H13 H 0.28720 0.36960 0.44790
C17 C 0.0764(3) -0.3085(3) 0.30325(12)
C18 C 0.5601(3) 0.4365(3) -0.03677(13)
H14 H 0.55070 0.50500 -0.05670
C19 C 0.2666(3) -0.1594(2) 0.31211(11)
C20 C 0.4661(3) -0.1426(2) 0.38828(11)
C21 C 0.6525(3) -0.0115(3) 0.34862(12)
H15 H 0.72110 -0.06830 0.35500
C22 C 0.4534(3) -0.0371(2) 0.48149(12)
H16 H 0.46670 0.03120 0.46200
C23 C 1.0978(3) 0.0817(3) 0.26779(13)
H17 H 1.05520 0.01380 0.25170
H18 H 1.06920 0.09020 0.30640
H19 H 1.20050 0.07590 0.26720
C24 C 0.4366(3) 0.0610(3) 0.18315(13)
H20 H 0.47050 0.00610 0.20900
C25 C 0.5145(3) -0.0301(2) 0.36322(11)
C26 C 0.5646(3) 0.3325(2) 0.11536(11)
C27 C 0.2544(3) 0.1305(3) 0.12186(14)
H21 H 0.16270 0.12370 0.10520
C28 C 0.9536(3) 0.1754(2) 0.19339(12)
C29 C 0.4751(3) 0.2316(2) 0.13160(12)
C30 C 0.5539(3) 0.6382(3) 0.16018(12)
H22 H 0.61090 0.70290 0.15660
C31 C 0.3886(3) 0.4492(3) 0.16977(13)
H23 H 0.33150 0.38460 0.17360
C32 C 0.4177(3) 0.0560(2) 0.35479(11)
H24 H 0.32330 0.04600 0.36540
C33 C 0.6959(3) -0.2504(2) 0.40208(12)
H25 H 0.72070 -0.19920 0.43110
C34 C 0.4160(3) -0.1333(2) 0.56765(11)
H26 H 0.40340 -0.13160 0.60670
C35 C 0.4289(4) 0.6461(3) 0.18688(12)
H27 H 0.39950 0.71570 0.20170
C36 C 0.5647(3) -0.2405(2) 0.37347(11)
C37 C 0.5306(3) -0.3184(2) 0.33240(12)
H28 H 0.44150 -0.31460 0.31320
C38 C 0.4575(3) 0.1564(3) 0.33102(12)
H29 H 0.39000 0.21440 0.32560
C39 C -0.0527(3) -0.3950(3) 0.22248(13)
H30 H -0.01270 -0.46450 0.23790
H31 H -0.02200 -0.38470 0.18430
H32 H -0.15560 -0.39910 0.22230
C40 C 0.5502(3) 0.4364(2) 0.02075(12)
H33 H 0.53380 0.50470 0.03970
C41 C -0.0442(3) 0.3389(3) 0.41645(13)
H34 H -0.12510 0.37970 0.40390
C42 C 0.3391(3) 0.2200(3) 0.10798(12)
H35 H 0.30430 0.27440 0.08200
C43 C 0.1882(3) 0.2205(3) 0.45309(13)
H36 H 0.26920 0.18030 0.46610
C44 C 0.9003(3) 0.3401(2) 0.06021(12)
H37 H 0.99520 0.31240 0.05160
H38 H 0.83880 0.33310 0.02620
C45 C 0.7549(3) -0.4100(3) 0.34671(13)
H39 H 0.81970 -0.46690 0.33740
C46 C 0.0620(3) 0.1645(2) 0.44531(12)
C47 C 0.3026(4) 0.0517(3) 0.15964(13)
H40 H 0.24380 -0.00890 0.16950
C48 C 1.0517(3) 0.6948(3) 0.08142(13)
H41 H 1.13700 0.65570 0.08940
C49 C 0.0826(3) 0.3926(3) 0.42394(13)
H42 H 0.09010 0.47050 0.41640
C50 C 0.5977(3) 0.5374(2) 0.13854(12)
H43 H 0.68550 0.53310 0.12110
C51 C 0.4164(3) -0.2346(2) 0.53915(12)
H44 H 0.40390 -0.30270 0.55880
C52 C 0.8230(3) 0.7011(3) 0.04011(14)
H45 H 0.74800 0.66650 0.01930
C53 C -0.1740(3) -0.1639(3) 0.24010(14)
H46 H -0.19000 -0.08870 0.22470
H47 H -0.19550 -0.16420 0.27970
H48 H -0.23510 -0.21760 0.22000
C54 C 0.9452(3) 0.6422(3) 0.05157(12)
C55 C 0.5225(3) 0.1504(2) 0.16920(12)
H49 H 0.61470 0.15590 0.18560
C56 C 0.0503(3) 0.0430(3) 0.45854(13)
H50 H 0.09840 0.02770 0.49500
H51 H -0.05010 0.02270 0.46140
C57 C 0.8410(3) 0.2715(2) 0.10708(11)
H52 H 0.82860 0.19110 0.09640
C58 C 1.0378(5) 0.8022(4) 0.09996(16)
H53 H 1.11320 0.83680 0.12060
C59 C 0.5941(3) 0.1732(3) 0.31518(12)
H54 H 0.62060 0.24130 0.29800
C60 C 0.3466(4) 0.5515(3) 0.19185(13)
H55 H 0.26050 0.55610 0.21050
C61 C -0.0545(3) 0.2248(3) 0.42714(12)
H56 H -0.14260 0.18800 0.42190
C62 C 0.6910(3) 0.0893(3) 0.32480(13)
H57 H 0.78580 0.10050 0.31500
C63 C 1.1010(4) 0.3317(3) 0.29112(14)
H58 H 1.15810 0.39980 0.29490
H59 H 1.11960 0.28310 0.32350
H60 H 1.00100 0.35190 0.28900
C64 C 0.8083(4) 0.8104(4) 0.05869(19)
H61 H 0.72400 0.85090 0.05050
C65 C 0.9574(4) 0.5222(3) 0.03231(14)
C66 C 0.9175(6) 0.8595(4) 0.08917(18)
H62 H 0.90810 0.93390 0.10260
#END
