
#######################################################################
#
#                 Cambridge Crystallographic Data Centre
#                                CCDC
#
#######################################################################
#
# If this CIF has been generated from an entry in the Cambridge
# Structural Database, then it will include bibliographic, chemical,
# crystal, experimental, refinement or atomic coordinate data resulting
# from the CCDC's data processing and validation procedures.
#
#######################################################################

data_CSD_CIF_PAFHEL
_audit_creation_date 2011-02-04
_audit_creation_method CSD-ConQuest-V1
_database_code_CSD PAFHEL
_database_code_depnum_ccdc_archive 'CCDC 793371'
_chemical_formula_sum 'C33 H32 N2 O4'
_chemical_formula_moiety
;
C33 H32 N2 O4
;
_journal_coden_Cambridge 4
_journal_volume 132
_journal_year 2010
_journal_page_first 11379
_journal_name_full 'J.Am.Chem.Soc. '
loop_
_publ_author_name
"Y.S.M.Vaske"
"M.E.Mahoney"
"J.P.Konopelski"
"D.L.Rogow"
"W.J.McDonald"
_chemical_name_systematic
;
2-((Benzyloxy)methyl)-N-methoxy-N-methyl-4-oxo-1-tritylazetidine-3-carboxamide
;
_cell_volume   1308.951
_exptl_crystal_colour 'colorless'
_exptl_crystal_density_diffrn 1.324
_exptl_special_details
;
The structure contains an additional H atom coordinated to one of the phenyl 
C atoms and this has been suppressed in the 3D structure
;
_exptl_crystal_description 'plate'
_diffrn_ambient_temperature 150
#These two values have been output from a single CSD field.
_refine_ls_R_factor_gt 0.0285
_refine_ls_wR_factor_gt 0.0285
loop_
_citation_database_id_CSD
_citation_special_details
PAFHAH "is a stereoisomer of this entry"
_symmetry_cell_setting monoclinic
_symmetry_space_group_name_H-M 'P 21'
_symmetry_Int_Tables_number 4
loop_
_symmetry_equiv_pos_site_id
_symmetry_equiv_pos_as_xyz
1 x,y,z
2 -x,1/2+y,-z
_cell_length_a 7.760(13)
_cell_length_b 10.958(19)
_cell_length_c 15.61(3)
_cell_angle_alpha 90
_cell_angle_beta 99.559(16)
_cell_angle_gamma 90
_cell_formula_units_Z 2
loop_
_atom_type_symbol
_atom_type_radius_bond
C 0.68
H 0.23
N 0.68
O 0.68
loop_
_atom_site_label
_atom_site_type_symbol
_atom_site_fract_x
_atom_site_fract_y
_atom_site_fract_z
O1 O 0.3283(3) 0.2921(3) 0.62224(16)
O2 O -0.1194(3) 0.1980(2) 0.70895(17)
N1 N -0.2497(4) 0.3032(3) 0.4966(2)
C1 C 0.2555(5) 0.3884(3) 0.8068(2)
O3 O -0.3025(3) 0.4231(2) 0.50665(17)
O4 O -0.0358(3) 0.1641(3) 0.52786(16)
C2 C 0.3701(5) 0.5036(4) 0.8069(2)
C3 C 0.3701(5) 0.2737(4) 0.8273(2)
C4 C 0.5791(5) 0.6194(4) 0.7406(3)
H1 H 0.64890 0.62720 0.69630
C5 C 0.3059(5) 0.1589(4) 0.8021(2)
H2 H 0.19550 0.15160 0.76570
C6 C 0.5339(5) 0.2827(4) 0.8793(2)
H3 H 0.58090 0.36050 0.89680
C7 C 0.4715(5) 0.5183(4) 0.7414(2)
H4? H 0.54650 0.44510 0.74240
H5? H 0.39060 0.51730 0.68520
C8 C -0.2576(5) 0.1130(4) 0.6867(3)
H6 H -0.32380 0.13170 0.62830
H7 H -0.33890 0.11730 0.72920
C9 C -0.0838(5) 0.4370(4) 1.0000(2)
H8 H -0.15630 0.44920 1.04270
N2 N 0.1484(4) 0.3723(3) 0.71805(17)
C10 C 0.0126(5) 0.4982(4) 0.8684(2)
H9 H 0.00550 0.55370 0.82120
C11 C 0.5857(5) 0.7088(4) 0.8035(3)
H10 H 0.65730 0.77870 0.80160
C12 C -0.0886(5) 0.2678(4) 0.5359(2)
C13 C 0.6293(5) 0.1768(4) 0.9058(2)
H11 H 0.74150 0.18340 0.94080
C14 C -0.0945(5) 0.5149(4) 0.9299(2)
H12 H -0.17590 0.58040 0.92380
C15 C -0.0356(5) 0.4002(4) 0.6792(2)
H13 H -0.06220 0.48920 0.68270
C16 C 0.1311(5) 0.4013(3) 0.8742(2)
C17 C 0.0334(5) 0.3409(4) 1.0076(3)
H14 H 0.04210 0.28690 1.05580
C18 C -0.2208(5) -0.0906(4) 0.6173(3)
H15 H -0.30720 -0.06710 0.56970
C19 C 0.4885(5) 0.6961(4) 0.8687(3)
H16 H 0.49240 0.75730 0.91210
C20 C -0.1782(5) -0.0118(4) 0.6874(2)
C21 C 0.3831(5) 0.5925(4) 0.8711(2)
H17 H 0.31930 0.58290 0.91760
C22 C -0.1392(6) -0.2031(4) 0.6156(3)
H18 H -0.16920 -0.25610 0.56720
C23 C -0.2919(6) 0.4921(4) 0.4278(3)
H19 H -0.32230 0.57760 0.43620
H20 H -0.37350 0.45760 0.37920
H21 H -0.17260 0.48750 0.41500
C24 C -0.1749(5) 0.3220(4) 0.7090(3)
H22 H -0.19150 0.34650 0.76810
H23 H -0.28730 0.33240 0.66920
C25 C 0.0152(5) 0.3658(4) 0.5904(2)
H24 H 0.02380 0.44070 0.55480
C26 C 0.5622(5) 0.0638(4) 0.8818(2)
H25 H 0.62640 -0.00760 0.90110
C27 C 0.4008(5) 0.0541(4) 0.8292(3)
H26 H 0.35470 -0.02400 0.81160
C28 C -0.0567(5) -0.0505(4) 0.7580(3)
H27 H -0.03030 0.00010 0.80790
C29 C 0.0258(5) -0.1619(4) 0.7560(3)
H28 H 0.11050 -0.18640 0.80410
C30 C -0.3792(6) 0.2240(4) 0.4487(3)
H29 H -0.33590 0.13980 0.45240
H30 H -0.40270 0.24960 0.38770
H31 H -0.48720 0.22870 0.47340
C31 C -0.0131(6) -0.2374(4) 0.6855(3)
H32 H 0.04610 -0.31320 0.68430
C32 C 0.1390(5) 0.3234(4) 0.9442(2)
H33 H 0.21790 0.25650 0.94950
C33 C 0.1936(5) 0.3323(4) 0.6412(2)
#END
