
#######################################################################
#
#                 Cambridge Crystallographic Data Centre
#                                CCDC
#
#######################################################################
#
# If this CIF has been generated from an entry in the Cambridge
# Structural Database, then it will include bibliographic, chemical,
# crystal, experimental, refinement or atomic coordinate data resulting
# from the CCDC's data processing and validation procedures.
#
#######################################################################

data_CSD_CIF_PAFMER
_audit_creation_date 2015-12-18
_audit_creation_method CSD-ConQuest-V1
_database_code_CSD PAFMER
_database_code_depnum_ccdc_archive 'CCDC 1443328'
_chemical_formula_sum 'C22 H19 N1 O5'
_chemical_formula_moiety
;
C22 H19 N1 O5
;
_journal_coden_Cambridge 1336
_journal_volume 18
_journal_year 2016
_journal_page_first 1678
_journal_name_full 'Org.Lett. '
loop_
_publ_author_name
"Bin Rao"
"Jinghua Tang"
"Xiaoming Zeng"
_chemical_name_systematic
;
(4,5-Dimethoxy-2-(4-nitrobenzyl)phenyl)(phenyl)methanone
;
_cell_volume   1921.532
_exptl_crystal_colour 'colorless'
_exptl_crystal_density_diffrn 1.304
_exptl_crystal_description 'block'
_diffrn_ambient_temperature 296
#These two values have been output from a single CSD field.
_refine_ls_R_factor_gt 0.0537
_refine_ls_wR_factor_gt 0.0537
_symmetry_cell_setting triclinic
_symmetry_space_group_name_H-M 'P -1'
_symmetry_Int_Tables_number 2
loop_
_symmetry_equiv_pos_site_id
_symmetry_equiv_pos_as_xyz
1 x,y,z
2 -x,-y,-z
_cell_length_a 9.534(8)
_cell_length_b 12.529(11)
_cell_length_c 17.309(15)
_cell_angle_alpha 85.640(12)
_cell_angle_beta 85.998(11)
_cell_angle_gamma 68.912(11)
_cell_formula_units_Z 4
loop_
_atom_type_symbol
_atom_type_radius_bond
C 0.68
H 0.23
N 0.68
O 0.68
loop_
_atom_site_label
_atom_site_type_symbol
_atom_site_fract_x
_atom_site_fract_y
_atom_site_fract_z
O1 O 0.8536(2) 0.53852(17) 0.37126(12)
O2 O 0.7257(2) 0.75835(17) 0.35191(12)
C1 C 0.6614(3) 0.4165(3) 0.64529(15)
O3 O 0.4304(2) 0.5708(2) 0.64764(13)
C2 C 0.1773(4) 0.8588(2) 0.65939(17)
H1 H 0.21520 0.86220 0.70690
C3 C 0.2758(3) 0.8207(2) 0.59588(16)
C4 C 0.5480(3) 0.7163(2) 0.54417(17)
C5 C 0.6871(3) 0.7109(2) 0.41989(17)
C6 C 0.6080(3) 0.5966(2) 0.55180(16)
C7 C 0.7116(3) 0.5355(2) 0.49423(16)
H2 H 0.75320 0.45610 0.49980
C8 C 0.7527(3) 0.5915(2) 0.42960(16)
C9 C 0.5889(3) 0.7717(3) 0.47756(18)
H3 H 0.54900 0.85130 0.47200
C10 C -0.0322(4) 0.8882(2) 0.58246(19)
C11 C 0.2158(4) 0.8153(3) 0.52596(17)
H4 H 0.28030 0.78840 0.48320
C12 C 0.5582(3) 0.5318(3) 0.61689(16)
C13 C 0.5979(4) 0.3354(3) 0.67397(16)
H5 H 0.49420 0.35420 0.67440
C14 C 0.0616(4) 0.8491(3) 0.51881(19)
H6 H 0.02260 0.84540 0.47180
C15 C 0.4425(3) 0.7911(3) 0.60498(18)
H7 H 0.46760 0.75240 0.65560
H8 H 0.46190 0.86200 0.60440
C16 C 0.8164(3) 0.3864(3) 0.64735(17)
H9 H 0.86110 0.43880 0.62900
C17 C 0.0222(4) 0.8922(3) 0.65273(19)
H10 H -0.04330 0.91670 0.69550
C18 C 0.6572(4) 0.8788(3) 0.3369(2)
H11 H 0.54980 0.90070 0.34260
H12 H 0.68480 0.89910 0.28500
H13 H 0.69080 0.91800 0.37300
C19 C 0.6875(5) 0.2288(3) 0.70135(18)
H14 H 0.64450 0.17500 0.71900
C20 C 0.8403(5) 0.2009(3) 0.7029(2)
H15 H 0.90010 0.12850 0.72200
C21 C 0.9274(4) 0.4171(3) 0.3809(2)
H16 H 0.97510 0.39830 0.42970
H17 H 1.00190 0.39110 0.33950
H18 H 0.85470 0.38050 0.37990
C22 C 0.9052(4) 0.2787(3) 0.6766(2)
H19 H 1.00870 0.25950 0.67840
O4 O -0.2454(3) 0.9354(3) 0.5108(2)
N1 N -0.1968(3) 0.9274(2) 0.5755(2)
O5 O -0.2769(3) 0.9552(3) 0.6334(2)
O6 O 0.6758(2) 0.24171(17) 1.15809(12)
O7 O 0.7947(2) 0.02280(17) 1.14247(12)
C23 C 0.6902(3) 0.0426(2) 1.01486(16)
H20 H 0.72970 -0.03620 1.00980
C24 C 0.5477(3) 0.2324(2) 0.96182(16)
C25 C 0.6076(3) 0.1139(2) 0.95420(15)
C26 C 0.5840(3) 0.0612(2) 0.88427(16)
C27 C 0.2937(3) 0.3424(2) 0.89962(16)
C28 C 0.5707(3) 0.2753(2) 1.03011(16)
H21 H 0.53030 0.35400 1.03570
C29 C 0.7142(3) 0.0863(2) 1.08135(16)
C30 C 0.6515(3) 0.2051(2) 1.08979(16)
C31 C -0.0148(3) 0.4020(2) 0.8970(2)
C32 C 0.2194(3) 0.3778(2) 0.83050(17)
H22 H 0.27460 0.38150 0.78450
C33 C 0.4611(3) 0.3182(2) 0.89943(17)
H23 H 0.47560 0.39000 0.90460
H24 H 0.50510 0.29060 0.84930
C34 C 0.0652(4) 0.4076(3) 0.82897(19)
H25 H 0.01660 0.43090 0.78250
C35 C 0.2084(3) 0.3349(3) 0.96681(17)
H26 H 0.25630 0.30880 1.01320
N2 N -0.1808(4) 0.4386(3) 0.8961(2)
C36 C 0.6951(3) -0.0517(2) 0.86056(15)
C37 C 0.6434(4) -0.1256(3) 0.82524(18)
H27 H 0.54180 -0.10370 0.81580
C38 C 0.0534(4) 0.3652(3) 0.96636(19)
H28 H -0.00270 0.36080 1.01180
C39 C 0.8490(3) -0.0842(3) 0.87113(17)
H29 H 0.88560 -0.03470 0.89340
C40 C 0.8741(4) -0.0967(3) 1.1313(2)
H30 H 0.80320 -0.13350 1.12560
H31 H 0.93320 -0.13130 1.17530
H32 H 0.93900 -0.10510 1.08540
C41 C 0.7418(5) -0.2312(3) 0.8042(2)
H33 H 0.70640 -0.28130 0.78190
C42 C 0.8934(6) -0.2624(4) 0.8162(2)
H34 H 0.95950 -0.33390 0.80210
C43 C 0.9475(4) -0.1898(3) 0.8485(2)
H35 H 1.05010 -0.21120 0.85530
O8 O 0.4728(2) 0.10822(18) 0.84552(12)
O9 O -0.2526(3) 0.4356(3) 0.9574(2)
O10 O -0.2400(3) 0.4756(3) 0.8343(2)
C44 C 0.6309(4) 0.3622(3) 1.1659(2)
H36 H 0.67970 0.39460 1.12530
H37 H 0.65910 0.37600 1.21540
H38 H 0.52380 0.39720 1.16230
#END
