
#######################################################################
#
#                 Cambridge Crystallographic Data Centre
#                                CCDC
#
#######################################################################
#
# If this CIF has been generated from an entry in the Cambridge
# Structural Database, then it will include bibliographic, chemical,
# crystal, experimental, refinement or atomic coordinate data resulting
# from the CCDC's data processing and validation procedures.
#
#######################################################################

data_CSD_CIF_PAFTEV
_audit_creation_date 1992-12-16
_audit_creation_method CSD-ConQuest-V1
_database_code_CSD PAFTEV
_database_code_depnum_ccdc_archive 'CCDC 1227079'
_chemical_formula_sum 'C23 H28 N2 O6'
_chemical_formula_moiety
;
C23 H28 N2 O6
;
_journal_coden_Cambridge 182
_journal_year 1992
_journal_page_first 1005
_journal_name_full 'Chem.Commun. '
loop_
_publ_author_name
"O.Kitagawa"
"T.Hanano"
"K.Tanabe"
"M.Shiro"
"T.Taguchi"
_chemical_name_systematic
;
N-(\a-Methylbenzyl)-2-hydroxy-2-propyl-4-(p-nitrobenzoyloxy)pentamide
;
_cell_volume   1135.412
_exptl_crystal_colour 'colorless'
_exptl_crystal_density_diffrn 1.253
_diffrn_ambient_temperature ?
_diffrn_special_details
;
The study was carried out at room temperature,in the range 283-303K

;
#These two values have been output from a single CSD field.
_refine_ls_R_factor_gt 0.049
_refine_ls_wR_factor_gt 0.049
_symmetry_cell_setting monoclinic
_symmetry_space_group_name_H-M 'P 21'
_symmetry_Int_Tables_number 4
loop_
_symmetry_equiv_pos_site_id
_symmetry_equiv_pos_as_xyz
1 x,y,z
2 -x,1/2+y,-z
_cell_length_a 10.358(2)
_cell_length_b 10.859(2)
_cell_length_c 10.469(1)
_cell_angle_alpha 90
_cell_angle_beta 105.37(1)
_cell_angle_gamma 90
_cell_formula_units_Z 2
loop_
_atom_type_symbol
_atom_type_radius_bond
C 0.68
H 0.23
N 0.68
O 0.68
loop_
_atom_site_label
_atom_site_type_symbol
_atom_site_fract_x
_atom_site_fract_y
_atom_site_fract_z
O1 O 1.0694(5) -0.65360 0.3409(4)
O2 O 1.0863(7) -0.6238(7) 0.1488(5)
O3 O 0.7819(3) -0.0678(5) 0.1257(3)
O4 O 0.8275(5) -0.0578(6) 0.3468(3)
O5 O 0.4884(3) -0.1305(5) 0.0590(3)
O6 O 0.3963(3) 0.1822(5) 0.0495(3)
N1 N 1.0589(4) -0.5874(6) 0.2451(4)
N2 N 0.3660(4) 0.0194(5) 0.1693(3)
C1 C 0.8958(4) -0.2338(6) 0.2446(4)
C2 C 0.9040(4) -0.2864(6) 0.1267(4)
C3 C 0.9596(5) -0.4023(6) 0.1284(4)
C4 C 1.0053(4) -0.4631(6) 0.2459(4)
C5 C 0.9996(5) -0.4120(6) 0.3650(4)
C6 C 0.9460(5) -0.2955(6) 0.3634(4)
C7 C 0.8337(4) -0.1105(6) 0.2463(4)
C8 C 0.7118(4) 0.0499(6) 0.1086(4)
C9 C 0.8105(6) 0.1491(7) 0.1074(7)
C10 C 0.6030(4) 0.0404(6) -0.0201(4)
C11 C 0.4691(4) -0.0147(5) -0.0090(4)
C12 C 0.3665(4) -0.0246(6) -0.1453(4)
C13 C 0.4049(5) -0.1096(6) -0.2446(4)
C14 C 0.2936(7) -0.1238(7) -0.3700(5)
C15 C 0.4079(4) 0.0711(5) 0.0742(4)
C16 C 0.3061(5) 0.0862(6) 0.2617(4)
C17 C 0.1881(5) 0.0122(8) 0.2806(5)
C18 C 0.4076(5) 0.1161(6) 0.3920(4)
C19 C 0.3707(7) 0.1946(6) 0.4818(6)
C20 C 0.4590(8) 0.2201(7) 0.6032(6)
C21 C 0.5850(8) 0.1642(8) 0.6376(6)
C22 C 0.6196(6) 0.0897(8) 0.5508(6)
C23 C 0.5321(5) 0.0625(7) 0.4287(5)
H1 H 0.50000 -0.20100 0.01100
H2 H 0.39500 -0.07800 0.20400
H3 H 0.87900 -0.21900 0.05200
H4 H 0.95400 -0.42900 0.05800
H5 H 1.03000 -0.43800 0.44200
H6 H 0.94000 -0.25200 0.44400
H7 H 0.67600 0.07300 0.19100
H8 H 0.75200 0.25300 0.09100
H9 H 0.87500 0.16700 0.20700
H10 H 0.82300 0.16300 0.05100
H11 H 0.58400 0.14000 -0.04600
H12 H 0.62800 -0.01300 -0.07200
H13 H 0.36000 0.07800 -0.18500
H14 H 0.29400 -0.06700 -0.13000
H15 H 0.48300 -0.09100 -0.25800
H16 H 0.43400 -0.20500 -0.18400
H17 H 0.31500 -0.19100 -0.43900
H18 H 0.26300 -0.03000 -0.39700
H19 H 0.21800 -0.18700 -0.34600
H20 H 0.27290 0.16420 0.22120
H21 H 0.22500 -0.09400 0.30900
H22 H 0.12100 -0.01800 0.19300
H23 H 0.15300 0.08300 0.34700
H24 H 0.38900 0.25000 0.44700
H25 H 0.42200 0.28000 0.66100
H26 H 0.63000 0.21400 0.70800
H27 H 0.71500 0.04200 0.57800
H28 H 0.54700 -0.01300 0.37500
#END
