
#######################################################################
#
#                 Cambridge Crystallographic Data Centre
#                                CCDC
#
#######################################################################
#
# If this CIF has been generated from an entry in the Cambridge
# Structural Database, then it will include bibliographic, chemical,
# crystal, experimental, refinement or atomic coordinate data resulting
# from the CCDC's data processing and validation procedures.
#
#######################################################################

data_CSD_CIF_PAGPOF
_audit_creation_date 2017-02-01
_audit_creation_method CSD-ConQuest-V1
_database_code_CSD PAGPOF
_database_code_depnum_ccdc_archive 'CCDC 888388'
_chemical_formula_sum 'C10 H14 N6 O6'
_chemical_formula_moiety
;
C10 H14 N6 O6
;
_journal_coden_Cambridge 1078
_journal_year 2016
_journal_name_full 'CSD Communication(Private Communication) '
loop_
_publ_author_name
"Kehui Hou"
"Zuliang Liu"
_chemical_name_systematic
;
N^1^-t-butyl-2,4,6-trinitrobenzene-1,3,5-triamine
;
_cell_volume   1368.972
_exptl_crystal_density_diffrn 1.525
_diffrn_ambient_temperature 293
#These two values have been output from a single CSD field.
_refine_ls_R_factor_gt 0.0697
_refine_ls_wR_factor_gt 0.0697
_symmetry_cell_setting triclinic
_symmetry_space_group_name_H-M 'P -1'
_symmetry_Int_Tables_number 2
loop_
_symmetry_equiv_pos_site_id
_symmetry_equiv_pos_as_xyz
1 x,y,z
2 -x,-y,-z
_cell_length_a 9.0040(18)
_cell_length_b 9.1020(18)
_cell_length_c 17.105(3)
_cell_angle_alpha 99.39(3)
_cell_angle_beta 93.76(3)
_cell_angle_gamma 96.54(3)
_cell_formula_units_Z 4
loop_
_atom_type_symbol
_atom_type_radius_bond
C 0.68
H 0.23
N 0.68
O 0.68
loop_
_atom_site_label
_atom_site_type_symbol
_atom_site_fract_x
_atom_site_fract_y
_atom_site_fract_z
O1 O 0.6380(3) 0.7754(3) 0.84194(17)
C1 C 0.4636(4) 0.9407(4) 0.8487(2)
N1 N 0.6090(3) 0.9023(4) 0.86725(19)
O2 O 0.7037(3) 0.9938(4) 0.91203(18)
C2 C 0.4088(4) 1.0576(4) 0.8993(2)
N2 N 0.4990(3) 1.1596(4) 0.94794(18)
H1 H 0.59430 1.15680 0.94980
H2 H 0.46320 1.22970 0.97820
O3 O 0.2671(3) 1.2839(3) 0.97943(16)
N3 N 0.1858(4) 1.1718(4) 0.94291(18)
C3 C 0.2470(4) 1.0561(4) 0.8965(2)
C4 C 0.1508(4) 0.9313(4) 0.8506(2)
O4 O 0.0488(3) 1.1680(4) 0.94750(19)
N4 N 0.0067(3) 0.9130(4) 0.8610(2)
H3 H -0.05190 0.84080 0.83170
H4 H -0.02890 0.97320 0.89710
C5 C 0.2127(4) 0.8328(4) 0.7911(2)
O5 O -0.0196(3) 0.7051(3) 0.74313(18)
N5 N 0.1165(4) 0.7283(4) 0.7358(2)
N6 N 0.4259(3) 0.7863(4) 0.71791(18)
H5 H 0.36610 0.70870 0.69480
C6 C 0.3734(4) 0.8507(4) 0.7832(2)
O6 O 0.1672(3) 0.6498(4) 0.67870(19)
C7 C 0.5613(4) 0.8109(5) 0.6726(2)
C8 C 0.6394(5) 0.6703(6) 0.6652(3)
H6 H 0.68250 0.66020 0.71660
H7 H 0.71730 0.67790 0.62980
H8 H 0.56780 0.58400 0.64450
C9 C 0.4933(6) 0.8290(7) 0.5912(3)
H9 H 0.44620 0.91910 0.59630
H10 H 0.41990 0.74420 0.57050
H11 H 0.57090 0.83500 0.55560
C10 C 0.6648(5) 0.9512(5) 0.7073(3)
H12 H 0.70960 0.94070 0.75820
H13 H 0.60880 1.03540 0.71340
H14 H 0.74200 0.96700 0.67230
O7 O 1.0697(3) 0.0489(3) 0.67699(16)
N7 N 1.1681(4) 0.1530(4) 0.70432(19)
O8 O 1.3025(3) 0.1346(4) 0.70013(17)
N8 N 1.3737(3) 0.3763(4) 0.8029(2)
H15 H 1.40740 0.31190 0.76820
H16 H 1.43480 0.43520 0.83830
N9 N 1.2626(3) 0.5927(4) 0.91601(19)
O9 O 1.4003(3) 0.5902(4) 0.91776(19)
O10 O 1.2131(3) 0.6879(3) 0.96363(17)
N10 N 0.9494(3) 0.5627(4) 0.92115(18)
H17 H 0.85360 0.56030 0.92090
H18 H 1.00690 0.61890 0.95920
N11 N 0.7557(3) 0.3855(4) 0.8014(2)
O11 O 0.6961(3) 0.4374(4) 0.86079(17)
C11 C 1.1279(4) 0.2875(4) 0.7435(2)
O12 O 0.6713(3) 0.3244(4) 0.74055(18)
C12 C 1.2290(4) 0.3847(4) 0.8020(2)
N12 N 0.8973(3) 0.2806(4) 0.66224(17)
H19 H 0.80280 0.26370 0.66720
C13 C 1.1668(4) 0.4889(4) 0.8595(2)
C14 C 1.0075(4) 0.4812(4) 0.8638(2)
C15 C 0.9114(4) 0.3876(4) 0.8005(2)
C16 C 0.9761(4) 0.3157(4) 0.7322(2)
C17 C 0.9295(4) 0.2628(5) 0.5770(2)
C18 C 0.8531(5) 0.3875(5) 0.5477(3)
H20 H 0.74810 0.37330 0.55540
H21 H 0.86530 0.38460 0.49220
H22 H 0.89780 0.48300 0.57710
C19 C 0.8539(5) 0.1124(5) 0.5359(2)
H23 H 0.90290 0.03490 0.55470
H24 H 0.85980 0.10440 0.47960
H25 H 0.75050 0.10150 0.54710
C20 C 1.0945(4) 0.2856(5) 0.5634(2)
H26 H 1.14340 0.20700 0.58110
H27 H 1.13970 0.38100 0.59270
H28 H 1.10510 0.28320 0.50770
#END
