
#######################################################################
#
#                 Cambridge Crystallographic Data Centre
#                                CCDC
#
#######################################################################
#
# If this CIF has been generated from an entry in the Cambridge
# Structural Database, then it will include bibliographic, chemical,
# crystal, experimental, refinement or atomic coordinate data resulting
# from the CCDC's data processing and validation procedures.
#
#######################################################################

data_CSD_CIF_PAGQAS
_audit_creation_date 2017-02-01
_audit_creation_method CSD-ConQuest-V1
_database_code_CSD PAGQAS
_database_code_depnum_ccdc_archive 'CCDC 941234'
_chemical_formula_sum 'C9 H3 N9 O8'
_chemical_formula_moiety
;
C9 H3 N9 O8
;
_journal_coden_Cambridge 1122
_journal_volume 31
_journal_year 2013
_journal_page_first 1539
_journal_name_full 'Chin.J.Chem. '
loop_
_publ_author_name
"Kehui Hou"
"Congming Ma"
"Zuliang Liu"
_chemical_name_systematic
;
2-azido-4-nitro-1-(2,4,6-trinitrophenyl)-1H-imidazole
;
_cell_volume   2852.426
_exptl_crystal_density_diffrn 1.701
_diffrn_ambient_temperature 293
#These two values have been output from a single CSD field.
_refine_ls_R_factor_gt 0.0608
_refine_ls_wR_factor_gt 0.0608
_symmetry_cell_setting orthorhombic
_symmetry_space_group_name_H-M 'P b c a'
_symmetry_Int_Tables_number 61
loop_
_symmetry_equiv_pos_site_id
_symmetry_equiv_pos_as_xyz
1 x,y,z
2 1/2-x,-y,1/2+z
3 -x,1/2+y,1/2-z
4 1/2+x,1/2-y,-z
5 -x,-y,-z
6 -1/2+x,y,-1/2-z
7 x,-1/2-y,-1/2+z
8 -1/2-x,-1/2+y,z
_cell_length_a 10.696(2)
_cell_length_b 12.969(3)
_cell_length_c 20.563(4)
_cell_angle_alpha 90
_cell_angle_beta 90
_cell_angle_gamma 90
_cell_formula_units_Z 8
loop_
_atom_type_symbol
_atom_type_radius_bond
C 0.68
H 0.23
N 0.68
O 0.68
loop_
_atom_site_label
_atom_site_type_symbol
_atom_site_fract_x
_atom_site_fract_y
_atom_site_fract_z
N1 N 0.3324(3) 0.7606(2) 0.29274(16)
C1 C 0.3464(3) 0.7024(2) 0.35381(17)
O1 O 0.2261(3) 0.7791(2) 0.27450(15)
C2 C 0.4459(3) 0.7296(2) 0.39382(19)
H1 H 0.50320 0.77960 0.38110
N2 N 0.5649(3) 0.7073(3) 0.49383(17)
O2 O 0.4286(3) 0.7908(2) 0.26702(15)
N3 N 0.1955(3) 0.4932(2) 0.45362(18)
O3 O 0.6243(3) 0.7832(3) 0.47968(16)
C3 C 0.4567(3) 0.6808(2) 0.45203(17)
N4 N 0.0677(3) 0.4755(2) 0.17759(15)
C4 C 0.3755(3) 0.6062(3) 0.47315(18)
H2 H 0.38490 0.57530 0.51370
O4 O 0.5885(3) 0.6508(3) 0.53975(17)
N5 N 0.1738(2) 0.5897(2) 0.32454(14)
C5 C 0.2788(3) 0.5784(2) 0.43180(17)
O5 O 0.1878(3) 0.4805(3) 0.51096(16)
N6 N -0.1209(3) 0.6657(3) 0.37288(16)
C6 C 0.2643(3) 0.6235(2) 0.37080(17)
O6 O 0.1425(3) 0.4422(2) 0.41313(17)
O7 O 0.1583(3) 0.4464(3) 0.14680(14)
N7 N -0.2244(4) 0.6808(3) 0.3743(2)
C7 C 0.2017(3) 0.5383(3) 0.26756(16)
H3 H 0.27970 0.51850 0.25200
O8 O -0.0426(3) 0.4633(2) 0.15993(14)
C8 C 0.0880(3) 0.5236(2) 0.23958(17)
N8 N -0.0089(3) 0.5634(2) 0.27502(14)
C9 C 0.0450(3) 0.6020(3) 0.32530(18)
N9 N -0.0057(3) 0.6535(3) 0.37874(16)
#END
