
#######################################################################
#
#                 Cambridge Crystallographic Data Centre
#                                CCDC
#
#######################################################################
#
# If this CIF has been generated from an entry in the Cambridge
# Structural Database, then it will include bibliographic, chemical,
# crystal, experimental, refinement or atomic coordinate data resulting
# from the CCDC's data processing and validation procedures.
#
#######################################################################

data_CSD_CIF_PAHBIK
_audit_creation_date 2005-01-06
_audit_creation_method CSD-ConQuest-V1
_database_code_CSD PAHBIK
_database_code_depnum_ccdc_archive 'CCDC 252976'
_chemical_formula_sum 'C24 H26 N4 O4'
_chemical_formula_moiety
;
C24 H26 N4 O4
;
_journal_coeditor_code "IUCr CV6361"
_journal_coden_Cambridge 1370
_journal_volume 60
_journal_year 2004
_journal_page_first o1709
_journal_name_full 'Acta Crystallogr.,Sect.E:Struct.Rep.Online '
loop_
_publ_author_name
"Hai-Bo Wang"
"Jia-Hui Chen"
"Jin-Tang Wang"
_chemical_name_systematic
;
Methyl 
3-dimethylamino-2-(2-(2-(dimethylamino)-1-(3-phenyl-1,2,4-oxadiazol-5-yl)vinyl
oxy)phenyl)acrylate
;
_cell_volume   2301.148
_exptl_crystal_colour 'colorless'
_exptl_crystal_density_diffrn 1.254
_exptl_crystal_description 'block'
_exptl_crystal_preparation 'ethanol'
_diffrn_ambient_temperature 293
#These two values have been output from a single CSD field.
_refine_ls_R_factor_gt 0.073
_refine_ls_wR_factor_gt 0.073
_symmetry_cell_setting triclinic
_symmetry_space_group_name_H-M 'P -1'
_symmetry_Int_Tables_number 2
loop_
_symmetry_equiv_pos_site_id
_symmetry_equiv_pos_as_xyz
1 x,y,z
2 -x,-y,-z
_cell_length_a 11.220(2)
_cell_length_b 12.260(3)
_cell_length_c 17.762(4)
_cell_angle_alpha 71.06(3)
_cell_angle_beta 86.35(3)
_cell_angle_gamma 85.19(3)
_cell_formula_units_Z 4
loop_
_atom_type_symbol
_atom_type_radius_bond
C 0.68
H 0.23
N 0.68
O 0.68
loop_
_atom_site_label
_atom_site_type_symbol
_atom_site_fract_x
_atom_site_fract_y
_atom_site_fract_z
O1 O 0.4433(3) 0.7041(3) 0.1043(2)
O2 O 0.2919(2) 0.6539(2) 0.01330(16)
O3 O 0.1441(3) 0.8162(3) -0.22610(19)
O4 O 0.0136(3) 0.7239(3) -0.13038(19)
O5 O 0.9365(3) 0.2143(3) 0.55314(18)
O6 O 0.7730(2) 0.0645(2) 0.56559(16)
O7 O 0.6299(4) -0.1881(3) 0.7743(2)
O8 O 0.5084(3) -0.0843(3) 0.6783(2)
N1 N 0.5349(4) 0.7096(4) 0.1547(3)
N2 N 0.5286(3) 0.5271(3) 0.1533(2)
N3 N 0.3170(4) 0.9392(3) -0.0801(3)
N4 N 0.2889(4) 0.4044(3) 0.0247(2)
N5 N 1.0272(3) 0.2944(4) 0.5324(2)
N6 N 1.0133(3) 0.2156(3) 0.4350(2)
N7 N 0.8204(4) 0.0864(4) 0.7628(2)
N8 N 0.7662(3) -0.0295(3) 0.4299(2)
C1 C 0.8137(5) 0.4234(5) 0.3167(3)
H1 H 0.84400 0.34680 0.33460
C2 C 0.7243(4) 0.4551(4) 0.2629(3)
H2 H 0.69480 0.40050 0.24410
C3 C 0.6783(4) 0.5695(4) 0.2365(2)
C4 C 0.7251(4) 0.6498(4) 0.2637(3)
H3 H 0.69540 0.72650 0.24590
C5 C 0.8179(4) 0.6160(6) 0.3183(3)
H4 H 0.85060 0.66990 0.33620
C6 C 0.8584(5) 0.5028(6) 0.3441(3)
H5 H 0.91790 0.47900 0.38130
C7 C 0.5799(4) 0.6040(4) 0.1802(3)
C8 C 0.4460(4) 0.5908(4) 0.1072(2)
C9 C 0.3611(4) 0.5633(4) 0.0619(2)
C10 C 0.1806(3) 0.6846(4) 0.0433(2)
C11 C 0.1386(4) 0.6305(4) 0.1197(2)
H6 H 0.18540 0.57150 0.15420
C12 C 0.0273(5) 0.6640(5) 0.1449(3)
H7 H -0.00060 0.62840 0.19680
C13 C -0.0433(4) 0.7505(5) 0.0932(3)
H8 H -0.11950 0.77240 0.10930
C14 C 0.0020(4) 0.8034(4) 0.0173(3)
H9 H -0.04420 0.86350 -0.01690
C15 C 0.1130(4) 0.7713(4) -0.0104(2)
C16 C 0.1585(4) 0.8233(4) -0.0936(2)
C17 C 0.1079(4) 0.7897(4) -0.1567(3)
C18 C -0.0410(6) 0.6898(6) -0.1893(3)
H10 H -0.10640 0.64310 -0.16490
H11 H 0.01710 0.64610 -0.21190
H12 H -0.07030 0.75740 -0.23050
C19 C 0.2545(4) 0.8874(4) -0.1181(3)
H13 H 0.28120 0.89690 -0.17030
C20 C 0.4299(6) 0.9880(6) -0.1153(4)
H14 H 0.44500 0.97730 -0.16630
H15 H 0.49390 0.94980 -0.08090
H16 H 0.42490 1.06910 -0.12170
C21 C 0.2822(5) 0.9499(5) -0.0030(4)
H17 H 0.20730 0.91570 0.01510
H18 H 0.27370 1.03020 -0.00700
H19 H 0.34250 0.91100 0.03430
C22 C 0.3581(4) 0.4514(4) 0.0627(2)
H20 H 0.41360 0.39940 0.09510
C23 C 0.3036(6) 0.2810(5) 0.0373(3)
H21 H 0.36180 0.24600 0.07690
H22 H 0.33020 0.26810 -0.01180
H23 H 0.22840 0.24720 0.05500
C24 C 0.2024(5) 0.4682(5) -0.0320(3)
H24 H 0.19920 0.54830 -0.03590
H25 H 0.12510 0.43870 -0.01490
H26 H 0.22480 0.46020 -0.08310
C25 C 1.2869(5) 0.5200(5) 0.3992(3)
H27 H 1.31020 0.57950 0.41550
C26 C 1.1978(4) 0.4508(4) 0.4425(3)
H28 H 1.16180 0.46410 0.48770
C27 C 1.1627(3) 0.3622(4) 0.4183(2)
C28 C 1.2171(4) 0.3454(4) 0.3503(3)
H29 H 1.19360 0.28720 0.33270
C29 C 1.3059(4) 0.4147(4) 0.3087(3)
H30 H 1.34280 0.40200 0.26360
C30 C 1.3402(5) 0.5015(5) 0.3331(3)
H31 H 1.40000 0.54800 0.30460
C31 C 1.0681(4) 0.2888(4) 0.4633(2)
C32 C 0.9341(4) 0.1725(4) 0.4915(2)
C33 C 0.8449(4) 0.0927(4) 0.4963(2)
C34 C 0.6763(3) 0.1406(3) 0.5701(2)
C35 C 0.6150(4) 0.1170(3) 0.6439(2)
C36 C 0.5186(4) 0.1904(4) 0.6499(3)
H32 H 0.47740 0.17670 0.69880
C37 C 0.4799(4) 0.2835(4) 0.5867(3)
H33 H 0.41320 0.33080 0.59270
C38 C 0.5417(4) 0.3047(4) 0.5154(3)
H34 H 0.51730 0.36810 0.47250
C39 C 0.6399(4) 0.2339(3) 0.5055(2)
H35 H 0.68070 0.24860 0.45640
C40 C 0.6565(4) 0.0131(4) 0.7111(2)
C41 C 0.6013(4) -0.0954(4) 0.7257(3)
C42 C 0.4479(5) -0.1877(4) 0.6885(4)
H36 H 0.38420 -0.17040 0.65190
H37 H 0.41550 -0.21610 0.74210
H38 H 0.50370 -0.24550 0.67830
C43 C 0.7513(4) 0.0064(4) 0.7561(3)
H39 H 0.77260 -0.06810 0.78880
C44 C 0.9255(6) 0.0518(6) 0.8096(4)
H40 H 0.93410 -0.03100 0.83080
H41 H 0.91770 0.08360 0.85260
H42 H 0.99480 0.07990 0.77660
C45 C 0.7953(5) 0.2088(4) 0.7271(3)
H43 H 0.72420 0.22270 0.69710
H44 H 0.86140 0.24110 0.69220
H45 H 0.78370 0.24440 0.76810
C46 C 0.8406(4) 0.0451(4) 0.4382(3)
H46 H 0.89860 0.06770 0.39740
C47 C 0.6704(5) -0.0789(4) 0.4859(3)
H47 H 0.66780 -0.04900 0.52980
H48 H 0.68430 -0.16150 0.50540
H49 H 0.59550 -0.05900 0.45990
C48 C 0.7804(5) -0.0680(4) 0.3598(3)
H50 H 0.84460 -0.03000 0.32570
H51 H 0.70750 -0.04920 0.33140
H52 H 0.79840 -0.15010 0.37640
#END
