
#######################################################################
#
#                 Cambridge Crystallographic Data Centre
#                                CCDC
#
#######################################################################
#
# If this CIF has been generated from an entry in the Cambridge
# Structural Database, then it will include bibliographic, chemical,
# crystal, experimental, refinement or atomic coordinate data resulting
# from the CCDC's data processing and validation procedures.
#
#######################################################################

data_CSD_CIF_PAHKAL
_audit_creation_date 2005-01-06
_audit_creation_method CSD-ConQuest-V1
_database_code_CSD PAHKAL
_database_code_depnum_ccdc_archive 'CCDC 253005'
_chemical_formula_sum 'C11 H15 N3 O2'
_chemical_formula_moiety
;
C11 H15 N3 O2
;
_journal_coeditor_code "IUCr CI6445"
_journal_coden_Cambridge 1370
_journal_volume 60
_journal_year 2004
_journal_page_first o1797
_journal_name_full 'Acta Crystallogr.,Sect.E:Struct.Rep.Online '
loop_
_publ_author_name
"Bin Zhong"
"Xiao-Li Mu"
"Zheng-Ming Li"
"Hai-Bin Song"
_chemical_name_systematic
;
N-(1-Cyano-1,2-dimethylpropyl)-5-methylisoxazole-4-carboxamide
;
_cell_volume   1232.327
_exptl_crystal_colour 'colorless'
_exptl_crystal_density_diffrn 1.193
_exptl_special_details
;
potential biological activity

;
_exptl_crystal_description 'prism'
_exptl_crystal_preparation 'ethyl acetate-petroleum ether'
_diffrn_ambient_temperature 293
#These two values have been output from a single CSD field.
_refine_ls_R_factor_gt 0.056
_refine_ls_wR_factor_gt 0.056
_symmetry_cell_setting monoclinic
_symmetry_space_group_name_H-M 'P 21/c'
_symmetry_Int_Tables_number 14
loop_
_symmetry_equiv_pos_site_id
_symmetry_equiv_pos_as_xyz
1 x,y,z
2 x,1/2-y,1/2+z
3 -x,-y,-z
4 -x,-1/2+y,-1/2-z
_cell_length_a 10.738(8)
_cell_length_b 10.608(8)
_cell_length_c 11.623(8)
_cell_angle_alpha 90
_cell_angle_beta 111.442(12)
_cell_angle_gamma 90
_cell_formula_units_Z 4
loop_
_atom_type_symbol
_atom_type_radius_bond
C 0.68
H 0.23
N 0.68
O 0.68
loop_
_atom_site_label
_atom_site_type_symbol
_atom_site_fract_x
_atom_site_fract_y
_atom_site_fract_z
O1 O 0.13678(18) 0.27386(13) 0.57842(15)
O2 O 0.15208(18) 0.64394(14) 0.72057(16)
N1 N 0.2150(2) 0.29643(18) 0.50451(19)
N2 N 0.27112(17) 0.68883(14) 0.59923(15)
H1 H 0.302(2) 0.665(2) 0.545(2)
N3 N 0.3609(2) 0.86120(18) 0.87207(16)
C1 C 0.0454(3) 0.3750(2) 0.7171(2)
H2 H -0.02560 0.31480 0.68450
H3 H 0.00830 0.45620 0.72210
H4 H 0.10350 0.34900 0.79810
C2 C 0.1232(2) 0.38264(18) 0.63419(18)
C3 C 0.18896(18) 0.47687(17) 0.59976(16)
C4 C 0.2438(2) 0.41623(19) 0.51949(19)
H5 H 0.29480 0.45780 0.48170
C5 C 0.2006(2) 0.60888(17) 0.64445(17)
C6 C 0.2894(2) 0.82352(16) 0.63163(16)
C7 C 0.3280(2) 0.83792(17) 0.76893(18)
C8 C 0.1579(2) 0.8975(2) 0.5649(2)
H6 H 0.13980 0.89950 0.47780
H7 H 0.16720 0.98210 0.59630
H8 H 0.08520 0.85670 0.57960
C9 C 0.4071(2) 0.87439(17) 0.59713(17)
H9 H 0.37980 0.86830 0.50710
C10 C 0.5348(2) 0.7957(2) 0.6544(2)
H10 H 0.60440 0.83040 0.63070
H11 H 0.51750 0.71030 0.62550
H12 H 0.56230 0.79710 0.74280
C11 C 0.4353(3) 1.0143(2) 0.6321(2)
H13 H 0.45660 1.02440 0.71930
H14 H 0.35760 1.06350 0.58750
H15 H 0.50940 1.04240 0.61120
#END
