
#######################################################################
#
#                 Cambridge Crystallographic Data Centre
#                                CCDC
#
#######################################################################
#
# If this CIF has been generated from an entry in the Cambridge
# Structural Database, then it will include bibliographic, chemical,
# crystal, experimental, refinement or atomic coordinate data resulting
# from the CCDC's data processing and validation procedures.
#
#######################################################################

data_CSD_CIF_PAHXIH
_audit_creation_date 2012-02-24
_audit_creation_method CSD-ConQuest-V1
_database_code_CSD PAHXIH
_database_code_depnum_ccdc_archive 'CCDC 831200'
_chemical_formula_sum 'C38 H36 N8 O8'
_chemical_formula_moiety
;
C38 H36 N8 O8
;
_journal_coden_Cambridge 40
_journal_volume 108
_journal_year 2011
_journal_page_first 20913
_journal_name_full 'Proc.Nat.Acad.Sci.USA '
loop_
_publ_author_name
"Jung Su Park"
"Ki Youl Yoon"
"Dong Sub Kim"
"V.M.Lynch"
"C.W.Bielawski"
"K.P.Johnston"
"J.L.Sessler"
_chemical_name_systematic
;
cis-5,15-bis(3,5-Dinitrophenyl)-5,10,10,15,20,20-hexamethyl-5,10,15,20,22,24-h
exahydroporphyrin
;
_cell_volume   7175.092
_exptl_crystal_colour 'orange'
_exptl_crystal_density_diffrn 1.357
_exptl_crystal_description 'prism'
_diffrn_ambient_temperature 233
#These two values have been output from a single CSD field.
_refine_ls_R_factor_gt 0.0446
_refine_ls_wR_factor_gt 0.0446
loop_
_citation_database_id_CSD
_citation_special_details
PAHYEE "is a stereoisomer of this entry"
_symmetry_cell_setting monoclinic
_symmetry_space_group_name_H-M 'I 2/a'
_symmetry_Int_Tables_number 15
loop_
_symmetry_equiv_pos_site_id
_symmetry_equiv_pos_as_xyz
1 x,y,z
2 1/2-x,y,-z
3 1/2+x,1/2+y,1/2+z
4 -x,1/2+y,1/2-z
5 -x,-y,-z
6 -1/2+x,-y,z
7 -1/2-x,-1/2-y,-1/2-z
8 x,-1/2-y,-1/2+z
_cell_length_a 19.3307(19)
_cell_length_b 10.2766(10)
_cell_length_c 36.119(4)
_cell_angle_alpha 90
_cell_angle_beta 90.283(5)
_cell_angle_gamma 90
_cell_formula_units_Z 8
loop_
_atom_type_symbol
_atom_type_radius_bond
C 0.68
H 0.23
N 0.68
O 0.68
loop_
_atom_site_label
_atom_site_type_symbol
_atom_site_fract_x
_atom_site_fract_y
_atom_site_fract_z
O1 O 1.07793(9) 0.66765(18) 0.79461(5)
O2 O 1.16409(7) 0.5362(2) 0.80386(6)
O3 O 1.02366(9) -0.00124(17) 0.78750(5)
O4 O 1.12315(8) 0.07093(18) 0.80706(4)
O5 O 0.46607(8) 0.90201(15) 1.05238(4)
O6 O 0.43010(8) 0.91485(15) 0.99514(5)
O7 O 0.62897(9) 0.56226(14) 1.08251(4)
O8 O 0.70393(7) 0.50641(14) 1.04085(4)
N1 N 0.84886(7) 0.60693(14) 0.83329(4)
H1 H 0.86330 0.58200 0.85500
N2 N 0.77159(7) 0.31440(14) 0.85146(4)
H2 H 0.73650 0.33380 0.83730
N3 N 0.67023(7) 0.47527(14) 0.91072(4)
H3 H 0.71120 0.49400 0.91920
N4 N 0.73016(7) 0.75651(14) 0.88247(4)
H4 H 0.71410 0.72100 0.86230
N5 N 1.10228(9) 0.5590(2) 0.79849(5)
N6 N 1.06283(10) 0.0861(2) 0.79679(5)
N7 N 0.46958(9) 0.87348(17) 1.01926(5)
N8 N 0.65088(9) 0.56284(16) 1.05077(4)
C1 C 0.83064(9) 0.73271(17) 0.82414(5)
C2 C 0.81056(9) 0.73085(18) 0.78777(5)
H5 H 0.79520 0.80280 0.77390
C3 C 0.81695(9) 0.60112(18) 0.77456(5)
H6 H 0.80660 0.57210 0.75050
C4 C 0.84078(8) 0.52645(17) 0.80300(5)
C5 C 0.86031(9) 0.38394(17) 0.80456(5)
C6 C 0.82310(9) 0.31226(18) 0.77257(5)
H7 H 0.83190 0.21960 0.77450
H8 H 0.84030 0.34410 0.74910
H9 H 0.77370 0.32810 0.77410
C7 C 0.93897(9) 0.36549(18) 0.80035(5)
C8 C 0.98439(9) 0.46972(19) 0.79940(5)
H10 H 0.96760 0.55560 0.80000
C9 C 1.05523(9) 0.4457(2) 0.79749(5)
C10 C 1.08283(10) 0.3225(2) 0.79609(5)
H11 H 1.13080 0.30850 0.79500
C11 C 1.03639(10) 0.2208(2) 0.79639(5)
C12 C 0.96564(9) 0.23918(19) 0.79839(5)
H12 H 0.93560 0.16720 0.79840
C13 C 0.84010(9) 0.32720(16) 0.84170(5)
C14 C 0.87865(9) 0.28724(17) 0.87143(5)
H13 H 0.92720 0.28550 0.87280
C15 C 0.83240(9) 0.24885(18) 0.89990(5)
H14 H 0.84480 0.21710 0.92340
C16 C 0.76682(9) 0.26644(16) 0.88689(5)
C17 C 0.69685(9) 0.23641(17) 0.90374(5)
C18 C 0.66416(10) 0.11974(18) 0.88352(6)
H15 H 0.65810 0.14080 0.85750
H16 H 0.61960 0.10020 0.89440
H17 H 0.69430 0.04460 0.88590
C19 C 0.70703(10) 0.20253(19) 0.94498(5)
H18 H 0.73720 0.12740 0.94720
H19 H 0.66260 0.18280 0.95600
H20 H 0.72780 0.27600 0.95770
C20 C 0.64925(9) 0.35295(17) 0.90005(5)
C21 C 0.58217(9) 0.36449(18) 0.88820(5)
H21 H 0.55430 0.29670 0.87900
C22 C 0.56218(9) 0.49629(18) 0.89213(5)
H22 H 0.51860 0.53130 0.88620
C23 C 0.61767(9) 0.56375(17) 0.90608(5)
C24 C 0.62344(9) 0.70393(17) 0.91906(5)
C25 C 0.57667(9) 0.78998(18) 0.89466(5)
H23 H 0.59210 0.78560 0.86920
H24 H 0.57910 0.87930 0.90330
H25 H 0.52930 0.75930 0.89620
C26 C 0.60032(9) 0.70902(17) 0.95973(5)
C27 C 0.63434(9) 0.63457(17) 0.98649(5)
H26 H 0.67230 0.58250 0.97980
C28 C 0.61233(10) 0.63738(18) 1.02268(5)
C29 C 0.55804(10) 0.71302(19) 1.03484(5)
H27 H 0.54420 0.71490 1.05980
C30 C 0.52563(10) 0.78541(19) 1.00790(6)
C31 C 0.54493(10) 0.78506(18) 0.97099(5)
H28 H 0.52060 0.83610 0.95370
C32 C 0.69668(9) 0.75583(17) 0.91605(5)
C33 C 0.73818(9) 0.82218(17) 0.94049(5)
H29 H 0.72870 0.83790 0.96560
C34 C 0.79816(9) 0.86285(17) 0.92100(5)
H30 H 0.83540 0.91030 0.93100
C35 C 0.79227(9) 0.82088(17) 0.88514(5)
C36 C 0.83683(9) 0.84407(17) 0.85134(5)
C37 C 0.81313(10) 0.97052(18) 0.83191(6)
H31 H 0.84030 0.98390 0.80970
H32 H 0.81960 1.04370 0.84850
H33 H 0.76460 0.96340 0.82530
C38 C 0.91305(9) 0.86012(19) 0.86324(6)
H34 H 0.92850 0.78180 0.87580
H35 H 0.91720 0.93380 0.87990
H36 H 0.94130 0.87490 0.84150
#END
