
#######################################################################
#
#                 Cambridge Crystallographic Data Centre
#                                CCDC
#
#######################################################################
#
# If this CIF has been generated from an entry in the Cambridge
# Structural Database, then it will include bibliographic, chemical,
# crystal, experimental, refinement or atomic coordinate data resulting
# from the CCDC's data processing and validation procedures.
#
#######################################################################

data_CSD_CIF_PAHXIH01
_audit_creation_date 2014-05-14
_audit_creation_method CSD-ConQuest-V1
_database_code_CSD PAHXIH01
_database_code_depnum_ccdc_archive 'CCDC 1002700'
_chemical_formula_sum 'C38 H36 N8 O8'
_chemical_formula_moiety
;
C38 H36 N8 O8
;
_journal_coden_Cambridge 4
_journal_volume 136
_journal_year 2014
_journal_page_first 3208
_journal_name_full 'J.Am.Chem.Soc. '
loop_
_publ_author_name
"L.Adriaenssens"
"G.Gil-Ramirez"
"A.Frontera"
"D.Quinonero"
"E.C.Escudero-Adan"
"P.Ballester"
_chemical_name_systematic
;
5,15-bis(3,5-dinitrophenyl)-5,10,10,15,20,20-hexamethyl-5,10,15,20,22,24-hexah
ydroporphyrin
;
_cell_volume   7145.267
_exptl_crystal_density_diffrn 1.362
_exptl_crystal_description 'Block'
_diffrn_ambient_temperature 100
#These two values have been output from a single CSD field.
_refine_ls_R_factor_gt 0.0507
_refine_ls_wR_factor_gt 0.0507
loop_
_citation_database_id_CSD
_citation_special_details
PAHYEE "is a stereoisomer of this entry"
_symmetry_cell_setting monoclinic
_symmetry_space_group_name_H-M 'C 2/c'
_symmetry_Int_Tables_number 15
loop_
_symmetry_equiv_pos_site_id
_symmetry_equiv_pos_as_xyz
1 x,y,z
2 -x,y,1/2-z
3 1/2+x,1/2+y,z
4 1/2-x,1/2+y,1/2-z
5 -x,-y,-z
6 x,-y,-1/2+z
7 -1/2-x,-1/2-y,-z
8 -1/2+x,-1/2-y,-1/2+z
_cell_length_a 40.8091(18)
_cell_length_b 10.2663(4)
_cell_length_c 19.3106(8)
_cell_angle_alpha 90
_cell_angle_beta 117.971(3)
_cell_angle_gamma 90
_cell_formula_units_Z 8
loop_
_atom_type_symbol
_atom_type_radius_bond
C 0.68
H 0.23
N 0.68
O 0.68
loop_
_atom_site_label
_atom_site_type_symbol
_atom_site_fract_x
_atom_site_fract_y
_atom_site_fract_z
N1 N 0.148545(16) 1.18555(6) 0.42037(3)
C1 C 0.158362(18) 1.17272(7) 0.49859(3)
O1 O -0.040973(19) 0.99371(8) 0.16273(4)
N2 N 0.089165(16) 1.02484(6) 0.25991(3)
H1 H 0.0809(4) 1.0099(16) 0.2926(9)
C2 C 0.128546(19) 1.21280(8) 0.50792(4)
H2 H 0.12730 1.21440 0.55580
O2 O -0.082671(18) 0.93746(8) 0.04588(5)
N3 N 0.117648(16) 0.74387(6) 0.34811(3)
H3 H 0.1382(4) 0.7831(15) 0.3527(8)
C3 C 0.09986(2) 1.25165(8) 0.43294(4)
H4 H 0.07610 1.28390 0.42170
O3 O -0.05223(2) 0.59790(8) -0.08665(4)
N4 N 0.166614(15) 0.89313(6) 0.51596(3)
H5 H 0.1450(4) 0.9204(15) 0.5044(8)
C4 C 0.113077(19) 1.23370(7) 0.37987(4)
O4 O 0.00478(2) 0.58500(8) -0.06524(4)
N5 N -0.050876(18) 0.93707(7) 0.10002(4)
C5 C 0.09614(2) 1.26355(7) 0.29334(4)
O5 O 0.20516(3) 0.83190(11) 0.78353(5)
N6 N -0.01924(2) 0.62626(8) -0.05009(4)
C6 C 0.05482(2) 1.29729(9) 0.26230(4)
H6 H 0.04190 1.22270 0.27010
H7 H 0.04370 1.31770 0.20630
H8 H 0.05260 1.37290 0.29080
O6 O 0.19606(3) 0.96297(13) 0.86050(4)
N7 N 0.20138(2) 0.94048(12) 0.80399(4)
C7 C 0.11636(2) 1.38077(8) 0.28095(4)
H9 H 0.11390 1.45660 0.30890
H10 H 0.10540 1.40050 0.22480
H11 H 0.14270 1.35970 0.30120
O7 O 0.19282(2) 1.42895(11) 0.81646(4)
N8 N 0.20325(2) 1.41386(10) 0.76655(5)
C8 C 0.099801(19) 1.14708(7) 0.24965(3)
O8 O 0.21275(3) 1.50150(9) 0.73692(6)
C9 C 0.11167(2) 1.13657(8) 0.19371(4)
H12 H 0.12080 1.20550 0.17470
C10 C 0.10784(2) 1.00388(8) 0.16969(4)
H13 H 0.11380 0.96840 0.13150
C11 C 0.093932(18) 0.93620(7) 0.21194(3)
C12 C 0.080996(17) 0.79604(7) 0.20458(3)
C13 C 0.040387(17) 0.79080(7) 0.14070(3)
C14 C 0.013569(18) 0.86568(7) 0.14838(4)
H14 H 0.02030 0.91830 0.19350
C15 C -0.022900(19) 0.86237(8) 0.08957(4)
C16 C -0.03495(2) 0.78719(9) 0.02262(4)
H15 H -0.06010 0.78600 -0.01690
C17 C -0.00785(2) 0.71411(8) 0.01730(4)
C18 C 0.02916(2) 0.71460(8) 0.07382(4)
H16 H 0.04670 0.66310 0.06690
C19 C 0.10552(2) 0.70982(8) 0.18234(4)
H17 H 0.10440 0.74180 0.13350
H18 H 0.09650 0.61980 0.17510
H19 H 0.13120 0.71300 0.22430
C20 C 0.083988(17) 0.74400(7) 0.28077(3)
C21 C 0.059331(18) 0.67739(7) 0.29763(4)
H20 H 0.03390 0.66150 0.26240
C22 C 0.078814(19) 0.63653(7) 0.37753(4)
H21 H 0.06870 0.58870 0.40510
C23 C 0.114935(18) 0.67890(7) 0.40750(3)
C24 C 0.148747(19) 0.65580(7) 0.48605(4)
C25 C 0.16816(2) 0.52957(8) 0.48154(5)
H22 H 0.17510 0.53740 0.43950
H23 H 0.15120 0.45570 0.47060
H24 H 0.19050 0.51540 0.53160
C26 C 0.13672(2) 0.63973(9) 0.55021(4)
H25 H 0.15860 0.62330 0.60070
H26 H 0.11950 0.56620 0.53700
H27 H 0.12440 0.71950 0.55370
C27 C 0.175745(18) 0.76749(7) 0.50666(4)
C28 C 0.21243(2) 0.76874(8) 0.52288(4)
H28 H 0.22640 0.69580 0.52130
C29 C 0.225688(19) 0.89903(8) 0.54255(4)
H29 H 0.25000 0.92860 0.55640
C30 C 0.196842(17) 0.97398(7) 0.53786(3)
C31 C 0.195509(17) 1.11603(7) 0.55614(3)
C32 C 0.199764(18) 1.13471(7) 0.63881(3)
C33 C 0.200593(19) 1.02975(8) 0.68523(4)
H30 H 0.19990 0.94300 0.66750
C34 C 0.20246(2) 1.05357(10) 0.75800(4)
C35 C 0.20391(2) 1.17724(11) 0.78769(4)
H31 H 0.20500 1.19140 0.83730
C36 C 0.20367(2) 1.27935(9) 0.74047(4)
C37 C 0.20180(2) 1.26111(8) 0.66762(4)
H32 H 0.20190 1.33400 0.63740
C38 C 0.22750(2) 1.18795(8) 0.55062(4)
H33 H 0.25130 1.15660 0.59210
H34 H 0.22540 1.28180 0.55690
H35 H 0.22610 1.17110 0.49930
H36 H 0.1623(4) 1.1640(17) 0.4000(9)
#END
