
#######################################################################
#
#                 Cambridge Crystallographic Data Centre
#                                CCDC
#
#######################################################################
#
# If this CIF has been generated from an entry in the Cambridge
# Structural Database, then it will include bibliographic, chemical,
# crystal, experimental, refinement or atomic coordinate data resulting
# from the CCDC's data processing and validation procedures.
#
#######################################################################

data_CSD_CIF_PAHYEE
_audit_creation_date 2012-02-24
_audit_creation_method CSD-ConQuest-V1
_database_code_CSD PAHYEE
_database_code_depnum_ccdc_archive 'CCDC 831204'
_chemical_formula_sum 'C38 H36 N8 O8'
_chemical_formula_moiety
;
C38 H36 N8 O8
;
_journal_coden_Cambridge 40
_journal_volume 108
_journal_year 2011
_journal_page_first 20913
_journal_name_full 'Proc.Nat.Acad.Sci.USA '
loop_
_publ_author_name
"Jung Su Park"
"Ki Youl Yoon"
"Dong Sub Kim"
"V.M.Lynch"
"C.W.Bielawski"
"K.P.Johnston"
"J.L.Sessler"
_chemical_name_systematic
;
trans-5,15-bis(3,5-Dinitrophenyl)-5,10,10,15,20,20-hexamethyl-5,10,15,20,22,24
-hexahydroporphyrin
;
_cell_volume   1765.449
_exptl_crystal_colour 'orange'
_exptl_crystal_density_diffrn 1.378
_exptl_crystal_description 'prism'
_diffrn_ambient_temperature 100
#These two values have been output from a single CSD field.
_refine_ls_R_factor_gt 0.0343
_refine_ls_wR_factor_gt 0.0343
loop_
_citation_database_id_CSD
_citation_special_details
PAHXIH "is a stereoisomer of this entry"
_symmetry_cell_setting triclinic
_symmetry_space_group_name_H-M 'P -1'
_symmetry_Int_Tables_number 2
loop_
_symmetry_equiv_pos_site_id
_symmetry_equiv_pos_as_xyz
1 x,y,z
2 -x,-y,-z
_cell_length_a 10.5852(10)
_cell_length_b 13.1521(12)
_cell_length_c 13.7047(12)
_cell_angle_alpha 81.772(3)
_cell_angle_beta 69.325(2)
_cell_angle_gamma 85.114(2)
_cell_formula_units_Z 2
loop_
_atom_type_symbol
_atom_type_radius_bond
C 0.68
H 0.23
N 0.68
O 0.68
loop_
_atom_site_label
_atom_site_type_symbol
_atom_site_fract_x
_atom_site_fract_y
_atom_site_fract_z
C1 C 0.77914(13) 0.94517(10) 0.32144(11)
C2 C 0.82738(14) 0.99824(10) 0.22315(11)
H1 H 0.91780 1.01840 0.18710
C3 C 0.71869(14) 1.01798(10) 0.18449(11)
H2 H 0.72340 1.05380 0.11810
C4 C 0.60565(14) 0.9762(1) 0.26011(11)
C5 C 0.46011(14) 0.97897(10) 0.26409(11)
C6 C 0.40219(15) 0.87143(10) 0.29629(12)
H3 H 0.45650 0.82550 0.24540
H4 H 0.30870 0.87530 0.29780
H5 H 0.40430 0.84480 0.36620
C7 C 0.45659(15) 1.01679(11) 0.15364(11)
H6 H 0.49250 1.08580 0.13100
H7 H 0.36320 1.01890 0.15510
H8 H 0.51180 0.96970 0.10440
C8 C 0.85210(13) 0.89763(10) 0.39531(11)
C9 C 0.97260(14) 0.96499(11) 0.37859(12)
H9 H 0.93970 1.03600 0.38880
H10 H 1.03730 0.96320 0.30710
H11 H 1.01710 0.93850 0.42930
C10 C 0.75889(13) 0.88878(10) 0.50930(11)
C11 C 0.72272(14) 0.80501(10) 0.58405(11)
H12 H 0.75010 0.73550 0.57390
C12 C 0.63722(14) 0.84077(10) 0.67915(11)
H13 H 0.59700 0.79930 0.74400
C13 C 0.62263(13) 0.94555(10) 0.66125(11)
C14 C 0.90559(13) 0.78803(10) 0.37153(11)
C15 C 0.86185(13) 0.73639(10) 0.30839(11)
H14 H 0.79840 0.76870 0.27800
C16 C 0.91155(14) 0.63735(11) 0.29008(11)
C17 C 1.00297(14) 0.58505(11) 0.33164(11)
H15 H 1.03720 0.51770 0.31660
C18 C 1.04142(14) 0.63717(11) 0.39660(11)
C19 C 0.99584(14) 0.73632(11) 0.41715(11)
H16 H 1.02570 0.76910 0.46210
N1 N 0.64394(11) 0.93189(8) 0.34323(9)
H17 H 0.58970 0.89970 0.40190
N2 N 0.69702(11) 0.97405(8) 0.55713(9)
H18 H 0.70400 1.03760 0.52570
N3 N 0.86311(12) 0.58483(9) 0.22344(10)
N4 N 1.12893(13) 0.58198(10) 0.4515(1)
O1 O 0.76597(11) 0.62405(8) 0.20069(9)
O2 O 0.92139(12) 0.50500(9) 0.19238(10)
O3 O 1.17609(11) 0.49668(8) 0.42707(9)
O4 O 1.14740(13) 0.62243(10) 0.52023(10)
C20 C 0.71111(14) 0.79557(11) 0.00350(13)
H19 H 0.63970 0.80190 -0.02730
H20 H 0.73110 0.86390 0.01350
H21 H 0.68090 0.75260 0.07150
C21 C 0.83954(13) 0.74567(10) -0.07084(11)
C22 C 0.88599(16) 0.81355(11) -0.17733(13)
H22 H 0.96890 0.78310 -0.22440
H23 H 0.90350 0.88250 -0.16690
H24 H 0.81510 0.81830 -0.20860
C23 C 0.80649(13) 0.64098(10) -0.08726(11)
C24 C 0.77335(13) 0.61017(10) -0.16592(11)
H25 H 0.77750 0.65050 -0.23020
C25 C 0.73159(13) 0.5071(1) -0.13448(11)
H26 H 0.70250 0.46630 -0.17390
C26 C 0.74072(12) 0.47713(10) -0.0373(1)
C27 C 0.71497(13) 0.37354(10) 0.03041(11)
C28 C 0.61407(14) 0.31667(10) 0.00148(11)
H27 H 0.65090 0.30870 -0.07350
H28 H 0.52810 0.35640 0.01680
H29 H 0.59910 0.24870 0.04280
C29 C 0.84610(13) 0.31006(10) 0.01095(11)
C30 C 0.89487(14) 0.22814(10) -0.04477(11)
H30 H 0.85100 0.19740 -0.08220
C31 C 1.02311(14) 0.19732(10) -0.03649(11)
H31 H 1.08040 0.14240 -0.06770
C32 C 1.04938(13) 0.26061(10) 0.02418(11)
C33 C 0.65058(13) 0.38519(10) 0.14785(11)
C34 C 0.66673(14) 0.30661(10) 0.22338(11)
H32 H 0.72000 0.24630 0.20270
C35 C 0.60404(15) 0.31795(11) 0.32851(11)
C36 C 0.52960(15) 0.40445(11) 0.36501(12)
H33 H 0.48980 0.41110 0.43780
C37 C 0.51696(14) 0.48073(10) 0.28839(11)
C38 C 0.57075(13) 0.47172(10) 0.18232(11)
H34 H 0.55340 0.52440 0.13300
N5 N 0.78802(11) 0.55897(8) -0.00961(9)
H35 H 0.80410 0.55890 0.04920
N6 N 0.94138(11) 0.32981(8) 0.05219(9)
H36 H 0.93430 0.37940 0.09080
N7 N 0.44735(12) 0.57824(9) 0.32135(10)
N8 N 0.61564(15) 0.23260(9) 0.40703(10)
O5 O 0.40153(11) 0.63347(8) 0.26090(8)
O6 O 0.43965(13) 0.59948(9) 0.40753(9)
O7 O 0.52171(13) 0.22435(9) 0.49165(9)
O8 O 0.71545(15) 0.17459(9) 0.38475(10)
C1A C 0.22086(13) 1.05483(10) 0.67856(11)
C2A C 0.17262(14) 1.00176(10) 0.77685(11)
H1A H 0.08220 0.98160 0.81290
C3A C 0.28131(14) 0.98202(10) 0.81551(11)
H2A H 0.27660 0.94620 0.88190
C4A C 0.39435(14) 1.0238(1) 0.73989(11)
C5A C 0.53989(14) 1.02103(10) 0.73591(11)
C6A C 0.59781(15) 1.12857(10) 0.70371(12)
H3A H 0.54350 1.17450 0.75460
H4A H 0.69130 1.12470 0.70220
H5A H 0.59570 1.15520 0.63380
C7A C 0.54341(15) 0.98321(11) 0.84636(11)
H6A H 0.50750 0.91420 0.86900
H7A H 0.63680 0.98110 0.84490
H8A H 0.48820 1.03030 0.89560
C8A C 0.14790(13) 1.10237(10) 0.60469(11)
C9A C 0.02740(14) 1.03501(11) 0.62141(12)
H9A H 0.06030 0.96400 0.61120
H10A H -0.03730 1.03680 0.69290
H11A H -0.01710 1.06150 0.57070
C10A C 0.24111(13) 1.11122(10) 0.49070(11)
C11A C 0.27728(14) 1.19499(10) 0.41595(11)
H12A H 0.24990 1.26450 0.42610
C12A C 0.36278(14) 1.15923(10) 0.32085(11)
H13A H 0.40300 1.20070 0.25600
C13A C 0.37737(13) 1.05445(10) 0.33875(11)
C14A C 0.09441(13) 1.21197(10) 0.62847(11)
C15A C 0.13815(13) 1.26361(10) 0.69161(11)
H14A H 0.20160 1.23130 0.72200
C16A C 0.08845(14) 1.36265(11) 0.70992(11)
C17A C -0.00297(14) 1.41495(11) 0.66836(11)
H15A H -0.03720 1.48230 0.68340
C18A C -0.04142(14) 1.36283(11) 0.60340(11)
C19A C 0.00416(14) 1.26368(11) 0.58285(11)
H16A H -0.02570 1.23090 0.53790
N1A N 0.35606(11) 1.06811(8) 0.65677(9)
H17A H 0.41030 1.10030 0.59810
N2A N 0.30298(11) 1.02595(8) 0.44287(9)
H18A H 0.29600 0.96240 0.47430
N3A N 0.13689(12) 1.41517(9) 0.77656(10)
N4A N -0.12893(13) 1.41802(10) 0.5485(1)
O1A O 0.23403(11) 1.37595(8) 0.79931(9)
O2A O 0.07861(12) 1.49500(9) 0.80762(10)
O3A O -0.17609(11) 1.50332(8) 0.57293(9)
O4A O -0.14740(13) 1.37757(10) 0.47977(10)
C20A C 1.28889(14) 0.20443(11) -0.00350(13)
H19A H 1.36030 0.19810 0.02730
H20A H 1.26890 0.13610 -0.01350
H21A H 1.31910 0.24740 -0.07150
C21A C 1.16046(13) 0.25433(10) 0.07084(11)
C22A C 1.11401(16) 0.18645(11) 0.17733(13)
H22A H 1.03110 0.21690 0.22440
H23A H 1.09650 0.11750 0.16690
H24A H 1.18490 0.18170 0.20860
C23A C 1.19351(13) 0.35902(10) 0.08726(11)
C24A C 1.22665(13) 0.38983(10) 0.16592(11)
H25A H 1.22250 0.34950 0.23020
C25A C 1.26841(13) 0.4929(1) 0.13448(11)
H26A H 1.29750 0.53370 0.17390
C26A C 1.25928(12) 0.52287(10) 0.0373(1)
C27A C 1.28503(13) 0.62646(10) -0.03041(11)
C28A C 1.38593(14) 0.68333(10) -0.00148(11)
H27A H 1.34910 0.69130 0.07350
H28A H 1.47190 0.64360 -0.01680
H29A H 1.40090 0.75130 -0.04280
C29A C 1.15390(13) 0.68994(10) -0.01095(11)
C30A C 1.10513(14) 0.77186(10) 0.04477(11)
H30A H 1.14900 0.80260 0.08220
C31A C 0.97689(14) 0.80268(10) 0.03649(11)
H31A H 0.91960 0.85760 0.06770
C32A C 0.95062(13) 0.73939(10) -0.02418(11)
C33A C 1.34942(13) 0.61481(10) -0.14785(11)
C34A C 1.33327(14) 0.69339(10) -0.22338(11)
H32A H 1.28000 0.75370 -0.20270
C35A C 1.39596(15) 0.68205(11) -0.32851(11)
C36A C 1.47040(15) 0.59555(11) -0.36501(12)
H33A H 1.51020 0.58890 -0.43780
C37A C 1.48304(14) 0.51927(10) -0.28839(11)
C38A C 1.42925(13) 0.52828(10) -0.18232(11)
H34A H 1.44660 0.47560 -0.13300
N5A N 1.21198(11) 0.44103(8) 0.00961(9)
H35A H 1.19590 0.44110 -0.04920
N6A N 1.05862(11) 0.67019(8) -0.05219(9)
H36A H 1.06570 0.62060 -0.09080
N7A N 1.55265(12) 0.42176(9) -0.32135(10)
N8A N 1.38436(15) 0.76740(9) -0.40703(10)
O5A O 1.59847(11) 0.36653(8) -0.26090(8)
O6A O 1.56035(13) 0.40052(9) -0.40753(9)
O7A O 1.47829(13) 0.77565(9) -0.49165(9)
O8A O 1.28455(15) 0.82541(9) -0.38475(10)
#END
