
#######################################################################
#
#                 Cambridge Crystallographic Data Centre
#                                CCDC
#
#######################################################################
#
# If this CIF has been generated from an entry in the Cambridge
# Structural Database, then it will include bibliographic, chemical,
# crystal, experimental, refinement or atomic coordinate data resulting
# from the CCDC's data processing and validation procedures.
#
#######################################################################

data_CSD_CIF_PAJDUC
_audit_creation_date 2017-02-01
_audit_creation_method CSD-ConQuest-V1
_database_code_CSD PAJDUC
_database_code_depnum_ccdc_archive 'CCDC 1483691'
_chemical_formula_sum 'C28 H33 N1 O5'
_chemical_formula_moiety
;
C28 H33 N1 O5
;
_journal_coden_Cambridge 1291
_journal_year 2017
_journal_page_first 363
_journal_name_full 'Eur.J.Org.Chem. '
loop_
_publ_author_name
"Evelyn Lieou Kui"
"A.Kanazawa"
"C.Philouze"
"J.-F.Poisson"
"Sandrine Py"
_chemical_name_systematic
;
(2R,3R,4R,5S)-3,4-bis(benzyloxy)-2-[(benzyloxy)methyl]-5-(2-hydroxyethyl)pyrro
lidin-1-ol
;
_cell_volume   4956.525
_exptl_crystal_colour 'colorless'
_exptl_crystal_density_diffrn 1.242
_exptl_crystal_description 'needle'
_diffrn_ambient_temperature 200
_refine_special_details
;
C13D,C23D,C24D,C25D,C26D,C27D,C28D and C13C,C23C,C24C,C25C,C26C,C27C,C28C 
disordered over two sites with occupancies 0.602:0.398; 
C13E,C23E,C24E,C25E,C26E,C27E,C28E and C13F,C23F,C24F,C25F,C26F,C27F,C28F 
disordered over two sites with occupancies 0.523:0.477.
;
#These two values have been output from a single CSD field.
_refine_ls_R_factor_gt 0.0575
_refine_ls_wR_factor_gt 0.0575
_symmetry_cell_setting monoclinic
_symmetry_space_group_name_H-M 'P 21'
_symmetry_Int_Tables_number 4
loop_
_symmetry_equiv_pos_site_id
_symmetry_equiv_pos_as_xyz
1 x,y,z
2 -x,1/2+y,-z
_cell_length_a 9.902(2)
_cell_length_b 43.490(9)
_cell_length_c 12.513(3)
_cell_angle_alpha 90
_cell_angle_beta 113.10(3)
_cell_angle_gamma 90
_cell_formula_units_Z 8
loop_
_atom_type_symbol
_atom_type_radius_bond
C 0.68
H 0.23
N 0.68
O 0.68
loop_
_atom_site_label
_atom_site_type_symbol
_atom_site_fract_x
_atom_site_fract_y
_atom_site_fract_z
O1 O 0.9751(3) 0.68744(6) 0.8967(2)
H1 H 1.05790 0.69530 0.93410
O2 O 1.0983(3) 0.59499(6) 0.9556(2)
O3 O 0.7226(3) 0.74056(6) 0.4928(2)
H2 H 0.63890 0.74650 0.44740
O4 O 0.8030(3) 0.59902(6) 0.6973(3)
O5 O 0.9519(3) 0.65490(6) 0.56787(19)
C1 C 0.8485(4) 0.70596(8) 0.6482(3)
H3 H 0.85770 0.72170 0.70770
H4 H 0.93420 0.70800 0.62660
C2 C 0.8490(4) 0.67424(8) 0.6987(3)
H5 H 0.76060 0.67200 0.71800
C3 C 0.7100(4) 0.71149(9) 0.5429(3)
H6 H 0.69530 0.69480 0.48560
H7 H 0.62450 0.71180 0.56520
C4 C 1.2155(4) 0.55136(9) 1.0687(3)
C5 C 0.5361(5) 0.63691(11) 0.1802(4)
H8 H 0.44550 0.63770 0.11450
C6 C 0.7983(4) 0.63489(9) 0.3743(3)
C7 C 0.9172(4) 0.62063(8) 0.7122(3)
H9 H 1.00140 0.61040 0.70130
C8 C 0.9433(4) 0.63399(10) 0.4781(3)
H10 H 0.95960 0.61290 0.51030
H11 H 1.02310 0.63870 0.45180
N1 N 0.9823(3) 0.66858(6) 0.8040(2)
C9 C 0.6152(15) 0.5492(3) 0.5734(12)
H12 H 0.62610 0.56430 0.52240
C10 C 0.9696(4) 0.63621(8) 0.8318(3)
H13 H 0.89170 0.63420 0.86360
C11 C 0.8566(4) 0.64705(8) 0.6245(3)
H14 H 0.75640 0.64180 0.56610
C12 C 1.2293(4) 0.58463(8) 1.0447(3)
H15 H 1.24910 0.59680 1.11610
H16 H 1.31260 0.58750 1.02070
C13 C 1.2727(5) 0.54032(10) 1.1815(4)
H17 H 1.31800 0.55410 1.24440
C14 C 1.1981(5) 0.48911(11) 1.1129(5)
H18 H 1.19220 0.46780 1.12780
C15 C 0.7175(4) 0.60864(10) 0.3328(3)
H19 H 0.75150 0.58960 0.37140
C16 C 0.6170(5) 0.66329(11) 0.2204(4)
H20 H 0.58290 0.68230 0.18160
C17 C 0.5869(5) 0.60959(11) 0.2354(4)
H21 H 0.53270 0.59120 0.20700
C18 C 1.1143(4) 0.62564(9) 0.9221(3)
H22 H 1.19090 0.62630 0.88980
H23 H 1.14450 0.63940 0.99060
C19 C 0.7140(19) 0.5477(4) 0.6860(12)
C20 C 0.7474(5) 0.66226(10) 0.3167(4)
H24 H 0.80270 0.68060 0.34360
C21 C 0.8437(7) 0.56960(14) 0.7313(7)
H25 H 0.88820 0.56870 0.81720
H26 H 0.91900 0.56300 0.70230
C22 C 1.1490(5) 0.5310(1) 0.9797(4)
H27 H 1.10770 0.53820 0.90190
C23 C 1.2641(6) 0.50919(12) 1.2030(4)
H28 H 1.30430 0.50180 1.28060
C24 C 1.1413(5) 0.49997(11) 1.0022(4)
H29 H 1.09580 0.48610 0.93950
C25 C 0.4987(15) 0.5286(3) 0.5337(10)
H30 H 0.42830 0.52970 0.45600
C26 C 0.6993(14) 0.5256(3) 0.7599(9)
H31 H 0.76760 0.52500 0.83840
C27 C 0.5867(13) 0.5043(3) 0.7215(12)
H32 H 0.57940 0.48860 0.77190
C28 C 0.4862(11) 0.5063(2) 0.6095(12)
H33 H 0.40650 0.49220 0.58270
C29? C 0.525(2) 0.5029(4) 0.676(2)
H34? H 0.46210 0.48750 0.68490
C30? C 0.7298(19) 0.5373(5) 0.7553(18)
H35? H 0.80840 0.54520 0.82120
C31? C 0.649(2) 0.5125(4) 0.7715(15)
H36? H 0.67760 0.50270 0.84480
C32? C 0.7971(12) 0.5749(2) 0.6367(10)
H37? H 0.89760 0.56650 0.65940
H38? H 0.76100 0.58070 0.55370
C33? C 0.702(3) 0.5505(8) 0.650(2)
C34? C 0.494(2) 0.5164(5) 0.5668(17)
H39? H 0.41410 0.50930 0.50020
C35? C 0.581(2) 0.5398(4) 0.5568(17)
H40? H 0.55780 0.54910 0.48290
O6 O 0.5826(3) 0.25305(6) 0.6031(2)
H41 H 0.63010 0.24390 0.56990
O7 O 0.8858(3) 0.28613(6) 0.9310(2)
O8 O 0.7308(3) 0.20017(7) 1.0069(3)
H42 H 0.68610 0.19330 1.04670
O9 O 0.6044(3) 0.34156(6) 0.7986(3)
O10 O 0.6361(3) 0.34559(6) 0.5414(2)
N2 N 0.6810(3) 0.27204(6) 0.6954(2)
C36 C 0.6383(4) 0.30435(8) 0.6672(3)
H43 H 0.52890 0.30610 0.63650
C37 C 0.7040(4) 0.23482(8) 0.8521(3)
H44 H 0.65520 0.21900 0.79250
H45 H 0.81130 0.23300 0.87450
C38 C 0.6538(4) 0.26644(8) 0.8010(3)
H46 H 0.54630 0.26850 0.78200
C39 C 0.8831(5) 0.33218(10) 1.1660(3)
H47 H 0.88000 0.35130 1.12850
C40 C 0.9667(4) 0.3073(1) 1.0212(3)
H48 H 0.95020 0.32840 0.98920
H49 H 1.07280 0.30270 1.04750
C41 C 0.6686(4) 0.22906(9) 0.9574(3)
H50 H 0.71010 0.24570 1.01500
H51 H 0.56090 0.22870 0.93450
C42 C 0.9243(4) 0.30601(9) 1.1244(3)
C43 C 0.7053(4) 0.32019(8) 0.7859(3)
H52 H 0.79940 0.33060 0.79570
C44 C 0.9314(5) 0.27839(10) 1.1817(3)
H53 H 0.96150 0.26020 1.15510
C45 C 0.6913(4) 0.31556(9) 0.5761(3)
H54 H 0.80000 0.31580 0.60830
H55 H 0.65640 0.30160 0.50830
C46 C 0.8516(5) 0.30324(12) 1.3169(4)
H56 H 0.82540 0.30220 1.38210
C47 C 0.8948(5) 0.27726(11) 1.2771(4)
H57 H 0.89970 0.25820 1.31570
C48 C 0.6765(4) 0.35666(9) 0.4518(3)
H58 H 0.62530 0.34460 0.38000
H59 H 0.78360 0.35410 0.47470
C49 C 0.6367(4) 0.38999(9) 0.4294(3)
C50 C 0.7337(4) 0.29377(8) 0.8747(3)
H60 H 0.69180 0.29890 0.93330
C51 C 0.6562(5) 0.41012(10) 0.5186(4)
H61 H 0.69050 0.40270 0.59610
C52 C 0.5766(6) 0.45228(12) 0.3868(5)
H62 H 0.55860 0.47370 0.37290
C53 C 0.8462(6) 0.33083(12) 1.2620(4)
H63 H 0.81730 0.34900 1.28970
C54 C 0.4380(19) 0.4249(5) 0.9395(16)
H64 H 0.42810 0.43170 1.00810
C55 C 0.6267(5) 0.44107(11) 0.4974(5)
H65 H 0.64140 0.45470 0.56040
C56 C 0.5527(6) 0.43278(12) 0.2968(5)
H66 H 0.51530 0.44050 0.21960
C57 C 0.6589(9) 0.36566(19) 0.8627(8)
H67 H 0.73780 0.37420 0.84170
H68 H 0.70410 0.35910 0.94500
C58 C 0.5825(5) 0.40134(11) 0.3166(4)
H69 H 0.56570 0.38780 0.25310
C59 C 0.5308(19) 0.4023(4) 0.9449(14)
H70 H 0.58760 0.39390 1.01920
C60 C 0.550(3) 0.3904(6) 0.8515(16)
C61 C 0.357(2) 0.4383(4) 0.8346(18)
H71 H 0.29310 0.45510 0.83040
C62 C 0.3682(15) 0.4269(3) 0.7339(13)
H72 H 0.31140 0.43540 0.66000
C63 C 0.4655(18) 0.4026(3) 0.7444(15)
H73 H 0.47340 0.39440 0.67670
C64? C 0.530(3) 0.3924(6) 0.8159(16)
C65? C 0.3638(19) 0.4360(4) 0.7866(17)
H74? H 0.29920 0.45090 0.73720
C66? C 0.4378(18) 0.4145(3) 0.7433(13)
H75? H 0.42450 0.41530 0.66390
C67? C 0.389(2) 0.4344(4) 0.9031(18)
H76? H 0.34450 0.44890 0.93560
C68? C 0.6101(10) 0.37037(18) 0.7680(9)
H77? H 0.56710 0.37170 0.68210
H78? H 0.71410 0.37680 0.79530
C69? C 0.478(2) 0.4119(4) 0.9723(14)
H79? H 0.49150 0.41060 1.05150
C70? C 0.5479(18) 0.3917(3) 0.9298(15)
H80? H 0.61070 0.37660 0.98000
O11 O 0.4550(3) 0.65418(6) 0.56175(19)
N3 N 0.4799(3) 0.66518(6) 0.7993(2)
O12 O 0.2239(3) 0.74031(6) 0.4979(2)
H81 H 0.13970 0.74660 0.45530
C71 C 0.3490(4) 0.70427(8) 0.6484(3)
H82 H 0.35490 0.71930 0.70960
H83 H 0.43660 0.70710 0.62970
O13 O 0.4728(3) 0.68271(6) 0.8945(2)
H84 H 0.55350 0.69160 0.92990
O14 O 0.5951(3) 0.59027(6) 0.9416(2)
O15 O 0.2906(3) 0.59789(6) 0.6721(2)
C72 C 0.2127(4) 0.71034(9) 0.5415(3)
H85 H 0.20240 0.69460 0.48170
H86 H 0.12500 0.70930 0.56100
C73 C 0.3569(4) 0.64579(8) 0.6156(3)
H87 H 0.25710 0.64140 0.55510
C74 C 0.3490(4) 0.67195(8) 0.6937(3)
H88 H 0.25950 0.66920 0.71110
C75 C 0.1971(4) 0.54705(9) 0.6542(4)
C76 C 0.6108(4) 0.62104(9) 0.9080(3)
H89 H 0.68510 0.62160 0.87330
H90 H 0.64470 0.63460 0.97710
C77 C 0.2484(5) 0.66119(10) 0.3058(4)
H91 H 0.30900 0.67900 0.32370
C78 C 0.1114(5) 0.66217(11) 0.2165(4)
H92 H 0.07820 0.68060 0.17350
C79 C 0.7305(4) 0.57941(9) 1.0247(4)
H93 H 0.76120 0.59250 1.09510
H94 H 0.80690 0.58080 0.99240
C80 C 0.2081(4) 0.60904(10) 0.3407(3)
H95 H 0.24090 0.59050 0.38320
C81 C 0.4123(4) 0.61819(8) 0.6986(3)
H96 H 0.49500 0.60770 0.68650
C82 C 0.7169(4) 0.54671(9) 1.0569(3)
C83 C 0.5866(5) 0.53470(11) 1.0504(5)
H97 H 0.50060 0.54710 1.02210
C84 C 0.2985(4) 0.63461(9) 0.3694(3)
C85 C 0.4468(4) 0.63388(10) 0.4688(3)
H98 H 0.46800 0.61260 0.49910
H99 H 0.52290 0.63980 0.43980
C86 C 0.3266(5) 0.56773(9) 0.7159(4)
H100 H 0.35070 0.56750 0.80050
H101 H 0.41340 0.56030 0.70270
C87 C 0.0707(5) 0.61005(11) 0.2510(4)
H102 H 0.00980 0.59230 0.23230
C88 C 0.0586(6) 0.50200(12) 0.6578(6)
H103 H 0.04610 0.48440 0.69770
C89 C 0.4659(4) 0.63223(8) 0.8213(3)
H104 H 0.38880 0.62950 0.85340
C90 C 0.7032(6) 0.48677(12) 1.1259(6)
H105 H 0.69840 0.46630 1.15060
C91 C 0.0229(5) 0.63673(11) 0.1893(4)
H106 H -0.07160 0.63760 0.12790
C92 C 0.1772(6) 0.52114(10) 0.7110(4)
H107 H 0.24600 0.51650 0.78710
C93 C -0.0409(6) 0.50823(13) 0.5483(6)
H108 H -0.12410 0.49530 0.51310
C94 C 0.0980(5) 0.55249(10) 0.5427(4)
H109 H 0.11140 0.56980 0.50170
C95 C 0.8317(6) 0.49833(11) 1.1311(4)
H110 H 0.91720 0.48580 1.15850
C96 C 0.8404(5) 0.52826(10) 1.0970(4)
H111 H 0.93170 0.53620 1.10110
C97 C -0.0205(6) 0.53327(12) 0.4891(5)
H112 H -0.08740 0.53730 0.41180
C98 C 0.5782(6) 0.50478(13) 1.0844(6)
H113 H 0.48680 0.49660 1.07920
O16 O 0.1504(3) 0.34747(6) 0.5563(2)
O17 O 0.3953(3) 0.28513(6) 0.9377(2)
O18 O 0.2345(3) 0.19851(6) 1.0063(2)
H114 H 0.18010 0.19050 1.03590
C99 C 0.1995(4) 0.31698(9) 0.5877(3)
H115 H 0.30810 0.31630 0.62000
H116 H 0.16200 0.30360 0.51830
N4 N 0.1830(3) 0.27300(6) 0.7010(2)
C100 C 0.2427(4) 0.29291(8) 0.8833(3)
H117 H 0.20260 0.29740 0.94360
O19 O 0.0817(3) 0.25483(6) 0.6070(2)
H118 H 0.12760 0.24590 0.57210
O20 O 0.1206(3) 0.34101(6) 0.8251(2)
C101 C 0.1984(5) 0.35873(9) 0.4712(4)
H119 H 0.15510 0.34620 0.39970
H120 H 0.30660 0.35700 0.50000
C102 C 0.1796(4) 0.22829(9) 0.9622(3)
H121 H 0.22950 0.24410 1.02130
H122 H 0.07300 0.22930 0.94400
C103 C 0.4296(4) 0.30534(9) 1.1293(3)
C104 C 0.1592(4) 0.26649(8) 0.8070(3)
H123 H 0.05240 0.26890 0.79030
C105 C -0.0345(5) 0.41663(10) 0.7786(4)
H124 H -0.04280 0.41970 0.70120
C106 C 0.1539(4) 0.39169(9) 0.4436(3)
C107 C 0.0464(5) 0.39245(9) 0.8411(4)
C108 C 0.1442(4) 0.30569(8) 0.6775(3)
H125 H 0.03510 0.30810 0.64710
C109 C 0.0600(5) 0.38871(10) 0.9539(4)
H126 H 0.11670 0.37220 0.99910
C110 C 0.4786(4) 0.30586(10) 1.0292(3)
H127 H 0.46810 0.32700 0.99760
H128 H 0.58370 0.30020 1.05800
C111 C 0.2074(4) 0.23428(8) 0.8535(3)
H129 H 0.15300 0.21900 0.79330
H130 H 0.31340 0.23180 0.87110
C112 C 0.3200(5) 0.32962(11) 1.2472(4)
H131 H 0.27650 0.34730 1.26540
C113 C 0.3356(5) 0.30314(12) 1.3110(4)
H132 H 0.30280 0.30240 1.37280
C114 C 0.3991(5) 0.27790(11) 1.2843(4)
H133 H 0.41060 0.25950 1.32820
C115 C 0.0748(6) 0.45279(11) 0.3918(5)
H134 H 0.04900 0.47380 0.37550
C116 C 0.4463(5) 0.27892(10) 1.1946(3)
H135 H 0.49070 0.26130 1.17740
C117 C -0.0108(5) 0.43355(11) 0.4261(5)
H136 H -0.09810 0.44110 0.43120
C118 C 0.2145(4) 0.32032(8) 0.7991(3)
H137 H 0.30900 0.33060 0.80930
C119 C 0.1199(6) 0.37116(10) 0.7858(5)
H138 H 0.06710 0.37180 0.70030
H139 H 0.22210 0.37810 0.80510
C120 C 0.0305(5) 0.40325(10) 0.4530(4)
H140 H -0.02780 0.39020 0.47850
C121 C -0.1041(5) 0.43654(12) 0.8254(5)
H141 H -0.15980 0.45320 0.78020
C122 C 0.3668(4) 0.33082(9) 1.1570(3)
H142 H 0.35580 0.34930 1.11370
C123 C -0.0087(7) 0.40895(12) 1.0022(5)
H143 H 0.00290 0.40650 1.08080
C124 C -0.0935(6) 0.43251(12) 0.9364(6)
H144 H -0.14430 0.44590 0.96800
C125 C 0.2390(5) 0.41082(11) 0.4076(4)
H145 H 0.32530 0.40320 0.40080
C126 C 0.1975(6) 0.44127(11) 0.3813(5)
H146 H 0.25550 0.45440 0.35550
#END
