
#######################################################################
#
#                 Cambridge Crystallographic Data Centre
#                                CCDC
#
#######################################################################
#
# If this CIF has been generated from an entry in the Cambridge
# Structural Database, then it will include bibliographic, chemical,
# crystal, experimental, refinement or atomic coordinate data resulting
# from the CCDC's data processing and validation procedures.
#
#######################################################################

data_CSD_CIF_PAKNOH
_audit_creation_date 2017-02-02
_audit_creation_method CSD-ConQuest-V1
_database_code_CSD PAKNOH
_database_code_depnum_ccdc_archive 'CCDC 793025'
_chemical_formula_sum 'C29 H32 N4 O9'
_chemical_formula_moiety
;
C29 H32 N4 O9
;
_journal_coden_Cambridge 1517
_journal_volume 58
_journal_year 2010
_journal_page_first 1
_journal_name_full 'Mukogawa Joshi Daigaku Kiyo (Shizen Kagaku Hen)(Bulletin of Mukogawa Women's University (Natural Science)) '
loop_
_publ_author_name
"K.Seguchi"
"S.Tanaka"
_chemical_name_systematic
;
diethyl 
2,2'-(7-methoxy-9c-(N-methoxyethanimidoyl)-3,5-dioxo-4-phenyl-4,5,9b,9c-tetrah
ydro-3H-1-oxa-2a,4,5a-triazacyclopenta[jk]fluorene-2,2-diyl)diacetate
;
_chemical_melting_point 418.5
_cell_volume   1481.830
_exptl_crystal_colour 'colorless'
_exptl_crystal_density_diffrn 1.301
_exptl_special_details
;
ethanol

;
_exptl_crystal_description 'plates'
_diffrn_ambient_temperature 296
#These two values have been output from a single CSD field.
_refine_ls_R_factor_gt 0.046
_refine_ls_wR_factor_gt 0.046
_symmetry_cell_setting triclinic
_symmetry_space_group_name_H-M 'P -1'
_symmetry_Int_Tables_number 2
loop_
_symmetry_equiv_pos_site_id
_symmetry_equiv_pos_as_xyz
1 x,y,z
2 -x,-y,-z
_cell_length_a 11.560(2)
_cell_length_b 13.865(2)
_cell_length_c 10.014(1)
_cell_angle_alpha 99.99(1)
_cell_angle_beta 93.06(1)
_cell_angle_gamma 109.24(1)
_cell_formula_units_Z 2
loop_
_atom_type_symbol
_atom_type_radius_bond
C 0.68
H 0.23
N 0.68
O 0.68
loop_
_atom_site_label
_atom_site_type_symbol
_atom_site_fract_x
_atom_site_fract_y
_atom_site_fract_z
O1 O 0.7180(1) 0.28138(9) 0.1459(1)
O2 O 1.1057(1) 0.4309(1) 0.1817(1)
O3 O 1.0420(1) 0.1318(1) 0.3206(1)
O4 O 0.9595(2) 0.1604(1) -0.2593(1)
O5 O 0.6316(1) -0.0812(1) 0.4620(2)
O6 O 0.9341(1) 0.3587(1) 0.4219(1)
O7 O 0.7708(1) 0.4076(1) 0.4618(1)
O8 O 0.6906(1) 0.5063(1) 0.0659(2)
O9 O 0.6254(1) 0.3715(1) -0.1103(2)
N1 N 0.9175(1) 0.3033(1) 0.1173(1)
N2 N 1.0826(1) 0.2620(1) 0.1963(1)
N3 N 0.8863(1) 0.1402(1) 0.1782(1)
N4 N 0.9429(2) 0.2114(1) -0.1320(2)
C1 C 1.0394(1) 0.3410(1) 0.1661(2)
C2 C 1.0051(1) 0.1740(1) 0.2397(2)
C3 C 0.8555(1) 0.1937(1) 0.0747(2)
C4 C 0.7175(2) 0.1800(1) 0.0825(2)
C5 C 0.6775(2) 0.1034(1) 0.1737(2)
C6 C 0.5622(2) 0.0564(2) 0.2125(2)
C7 C 0.5507(2) -0.0052(2) 0.3083(2)
C8 C 0.6537(2) -0.0208(1) 0.3659(2)
C9 C 0.7702(2) 0.0236(1) 0.3278(2)
C10 C 0.7785(1) 0.0859(1) 0.2319(2)
C11 C 1.2133(2) 0.2918(1) 0.2373(2)
C12 C 1.2837(2) 0.2595(2) 0.1447(3)
C13 C 1.4098(2) 0.2865(3) 0.1846(5)
C14 C 1.4611(3) 0.3423(3) 0.3100(5)
C15 C 1.3896(3) 0.3743(2) 0.4016(4)
C16 C 1.2632(2) 0.3491(2) 0.3659(3)
C17 C 0.8821(2) 0.1466(1) -0.0639(2)
C18 C 0.8303(4) 0.0309(2) -0.1099(3)
C19 C 1.0316(3) 0.2377(3) -0.3287(3)
C20 C 0.7338(2) -0.1005(2) 0.5242(3)
C21 C 0.8305(1) 0.3606(1) 0.1333(2)
C22 C 0.8610(2) 0.4433(1) 0.2638(2)
C23 C 0.8613(2) 0.3983(1) 0.3898(2)
C24 C 0.7601(2) 0.3659(2) 0.5867(2)
C25 C 0.6904(3) 0.2522(2) 0.5582(3)
C26 C 0.8188(2) 0.4042(2) 0.0048(2)
C27 C 0.7063(2) 0.4347(2) -0.0073(2)
C28 C 0.5136(4) 0.3968(3) -0.1334(3)
C29 C 0.4255(3) 0.3090(4) -0.2307(5)
H1 H 0.843(2) 0.016(1) 0.368(2)
H2 H 0.670(2) 0.158(1) -0.010(2)
H3 H 0.496(2) 0.069(1) 0.170(2)
H4 H 0.472(2) -0.036(2) 0.339(2)
H5 H 0.941(2) 0.496(1) 0.265(2)
H6 H 0.800(2) 0.479(1) 0.268(2)
H7 H 0.885(2) 0.460(1) 0.010(2)
H8 H 0.817(2) 0.354(2) -0.076(2)
H9 H 0.703(2) -0.140(2) 0.592(2)
H10 H 0.773(2) -0.139(2) 0.453(3)
H11 H 0.800(2) -0.036(2) 0.566(2)
H12 H 1.243(3) 0.220(3) 0.045(3)
H13 H 1.208(2) 0.369(2) 0.432(3)
H14 H 1.107(3) 0.275(3) -0.271(4)
H15 H 1.044(3) 0.197(2) -0.407(3)
H16 H 0.984(3) 0.288(3) -0.343(4)
H17 H 0.845(2) 0.384(2) 0.639(2)
H18 H 0.716(2) 0.406(2) 0.644(2)
H19 H 0.797(3) -0.005(2) -0.041(3)
H20 H 0.778(6) 0.011(5) -0.185(7)
H21 H 0.888(3) 0.008(2) -0.155(4)
H22 H 0.473(3) 0.400(2) -0.044(3)
H23 H 0.524(3) 0.456(2) -0.194(3)
H24 H 1.413(3) 0.413(3) 0.503(4)
H25 H 1.458(4) 0.258(3) 0.100(5)
H26 H 0.606(3) 0.233(3) 0.513(4)
H27 H 0.729(3) 0.212(2) 0.504(3)
H28 H 0.686(3) 0.230(2) 0.646(3)
H29 H 0.357(4) 0.330(3) -0.248(4)
H30 H 0.462(4) 0.295(3) -0.321(4)
H31 H 0.426(3) 0.274(3) -0.157(4)
H32 H 1.556(4) 0.366(3) 0.324(4)
#END
