
#######################################################################
#
#                 Cambridge Crystallographic Data Centre
#                                CCDC
#
#######################################################################
#
# If this CIF has been generated from an entry in the Cambridge
# Structural Database, then it will include bibliographic, chemical,
# crystal, experimental, refinement or atomic coordinate data resulting
# from the CCDC's data processing and validation procedures.
#
#######################################################################

data_CSD_CIF_PAKNUN
_audit_creation_date 2017-02-02
_audit_creation_method CSD-ConQuest-V1
_database_code_CSD PAKNUN
_database_code_depnum_ccdc_archive 'CCDC 742039'
_chemical_formula_sum 'C21 H23 N5 O5'
_chemical_formula_moiety
;
C21 H23 N5 O5
;
_journal_coden_Cambridge 1517
_journal_volume 57
_journal_year 2009
_journal_page_first 9
_journal_name_full 'Mukogawa Joshi Daigaku Kiyo (Shizen Kagaku Hen)(Bulletin of Mukogawa Women's University (Natural Science)) '
loop_
_publ_author_name
"K.Seguchi"
"S.Tanaka"
_chemical_name_systematic
;
9-methoxy-6-(methoxyamino)-5-(N-methoxyethanimidoyl)-2-phenyl-5,6-dihydro-1H-[
1,2,4]triazolo[1,2-a]cinnoline-1,3(2H)-dione
;
_chemical_melting_point 417
_cell_volume   2133.526
_exptl_crystal_colour 'colorless'
_exptl_crystal_density_diffrn 1.325
_exptl_special_details
;
ethanol

;
_exptl_crystal_description 'plates'
_diffrn_ambient_temperature ?
_diffrn_special_details
;
The study was carried out at room temperature,in the range 283-303K

;
#These two values have been output from a single CSD field.
_refine_ls_R_factor_gt 0.05
_refine_ls_wR_factor_gt 0.05
loop_
_citation_database_id_CSD
_citation_special_details
PAKPAV "is a stereoisomer of this entry"
_symmetry_cell_setting monoclinic
_symmetry_space_group_name_H-M 'P 21/c'
_symmetry_Int_Tables_number 14
loop_
_symmetry_equiv_pos_site_id
_symmetry_equiv_pos_as_xyz
1 x,y,z
2 -x,1/2+y,1/2-z
3 -x,-y,-z
4 x,-1/2-y,-1/2+z
_cell_length_a 10.867(4)
_cell_length_b 13.507(2)
_cell_length_c 15.170(3)
_cell_angle_alpha 90
_cell_angle_beta 106.63(2)
_cell_angle_gamma 90
_cell_formula_units_Z 4
loop_
_atom_type_symbol
_atom_type_radius_bond
C 0.68
H 0.23
N 0.68
O 0.68
loop_
_atom_site_label
_atom_site_type_symbol
_atom_site_fract_x
_atom_site_fract_y
_atom_site_fract_z
O1 O 0.8888(2) 0.2456(1) 0.5807(1)
O2 O 0.5628(2) 0.4306(1) 0.6372(1)
O3 O 0.6097(2) 0.2727(2) 0.8826(1)
O4 O 0.9022(2) -0.1196(2) 0.6475(2)
O5 O 0.3044(2) 0.1770(2) 0.7212(1)
N1 N 0.6842(2) 0.2145(2) 0.8368(2)
N2 N 0.7403(2) 0.3631(2) 0.5996(1)
N3 N 0.7146(2) 0.2080(2) 0.6339(2)
N4 N 0.6141(2) 0.2652(2) 0.6483(2)
N5 N 0.3062(2) 0.1466(2) 0.6324(2)
C1 C 0.7950(3) 0.4512(2) 0.5751(2)
C2 C 0.7205(3) 0.5148(2) 0.5114(2)
C3 C 0.7736(4) 0.6017(2) 0.4900(2)
C4 C 0.9019(4) 0.6219(3) 0.5318(3)
C5 C 0.9746(3) 0.5578(3) 0.5950(3)
C6 C 0.9231(3) 0.4712(2) 0.6175(2)
C7 C 0.6296(2) 0.3617(2) 0.6299(2)
C8 C 0.7930(3) 0.2688(2) 0.6021(2)
C9 C 0.5202(2) 0.2232(2) 0.6899(2)
C10 C 0.5903(3) 0.1538(2) 0.7655(2)
C11 C 0.6675(2) 0.0801(2) 0.7292(2)
C12 C 0.6792(3) -0.0180(2) 0.7569(2)
C13 C 0.7566(3) -0.0827(2) 0.7282(2)
C14 C 0.8254(3) -0.0496(2) 0.6703(2)
C15 C 0.8142(3) 0.0467(2) 0.6382(2)
C16 C 0.7339(2) 0.1104(2) 0.6679(2)
C17 C 0.4122(3) 0.1703(2) 0.6177(2)
C18 C 0.4263(3) 0.1456(3) 0.5256(2)
C19 C 0.1922(3) 0.1393(3) 0.7390(3)
C20 C 0.6536(3) 0.3715(3) 0.8844(2)
C21 C 0.9699(4) -0.0938(3) 0.5861(3)
H1 H 0.41690 0.07490 0.51430
H2 H 0.36000 0.17720 0.47740
H3 H 0.50710 0.16520 0.51980
H4 H 1.02070 -0.14810 0.57460
H5 H 0.91210 -0.07480 0.52730
H6 H 1.02670 -0.03920 0.60790
H7 H 0.18750 0.15860 0.79900
H8 H 0.11580 0.16260 0.69480
H9 H 0.19040 0.06790 0.73690
H10 H 0.74380 0.37720 0.91690
H11 H 0.64290 0.39650 0.82300
H12 H 0.60800 0.41550 0.91370
H13 H 0.85980 0.06880 0.59540
H14 H 0.63020 0.49980 0.48220
H15 H 0.63010 -0.04140 0.79720
H16 H 0.76440 -0.15190 0.74860
H17 H 0.97580 0.42470 0.66190
H18 H 0.93990 0.68090 0.51590
H19 H 0.72300 0.64710 0.44550
H20 H 1.06480 0.57580 0.62540
H21 H 0.48330 0.27660 0.71620
H22 H 0.53070 0.12040 0.79250
H23 H 0.69610 0.16530 0.86120
#END
