
#######################################################################
#
#                 Cambridge Crystallographic Data Centre
#                                CCDC
#
#######################################################################
#
# If this CIF has been generated from an entry in the Cambridge
# Structural Database, then it will include bibliographic, chemical,
# crystal, experimental, refinement or atomic coordinate data resulting
# from the CCDC's data processing and validation procedures.
#
#######################################################################

data_CSD_CIF_PAKQUP
_audit_creation_date 2012-03-05
_audit_creation_method CSD-ConQuest-V1
_database_code_CSD PAKQUP
_database_code_depnum_ccdc_archive 'CCDC 830711'
_chemical_formula_sum 'C17 H19 N1 O10'
_chemical_formula_moiety
;
C17 H19 N1 O10
;
_journal_coden_Cambridge 119
_journal_volume 1007
_journal_year 2012
_journal_page_first 227
_journal_name_full 'J.Mol.Struct. '
loop_
_publ_author_name
"T.Gubica"
"D.K.Stepien"
"A.Ostrowski"
"D.M.Pisklak"
"A.Temeriusz"
"E.Glowacka"
"K.Paradowska"
"M.K.Cyranski"
_chemical_name_systematic
;
2-(3-Nitrophenoxy)-tetrahydro-2H-pyran-3,4,5-triyl triacetate
;
_chemical_name_common
;
m-Nitrophenyl 2,3,4-tri-O-acetyl-beta-D-xylopyranoside
;
_cell_volume   3716.663
_exptl_crystal_density_diffrn 1.42
_exptl_special_details
;
P21 polymorph
undergoes a phase-transition at about 125 K

;
_diffrn_ambient_temperature 100
#These two values have been output from a single CSD field.
_refine_ls_R_factor_gt 0.0367
_refine_ls_wR_factor_gt 0.0367
_symmetry_cell_setting monoclinic
_symmetry_space_group_name_H-M 'P 21'
_symmetry_Int_Tables_number 4
loop_
_symmetry_equiv_pos_site_id
_symmetry_equiv_pos_as_xyz
1 x,y,z
2 -x,1/2+y,-z
_cell_length_a 16.8151(10)
_cell_length_b 15.7111(7)
_cell_length_c 15.8581(7)
_cell_angle_alpha 90
_cell_angle_beta 117.483(5)
_cell_angle_gamma 90
_cell_formula_units_Z 8
loop_
_atom_type_symbol
_atom_type_radius_bond
C 0.68
H 0.23
N 0.68
O 0.68
loop_
_atom_site_label
_atom_site_type_symbol
_atom_site_fract_x
_atom_site_fract_y
_atom_site_fract_z
C1 C 0.14780(15) 0.24932(15) 0.73052(16)
H1 H 0.21140 0.26870 0.75580
C2 C 0.09095(15) 0.31933(14) 0.74190(17)
H2 H 0.02570 0.30750 0.70130
O1 O 0.11702(10) 0.39572(10) 0.71119(12)
C3 C 0.05264(17) 0.44961(17) 0.65208(18)
O2 O -0.02456(13) 0.43651(16) 0.62161(18)
C4 C 0.09541(19) 0.52658(16) 0.6349(2)
H3 H 0.16080 0.52080 0.66940
H4 H 0.07700 0.57730 0.65740
H5 H 0.07650 0.53200 0.56670
C5 C 0.11158(15) 0.33056(15) 0.84509(17)
H6 H 0.17070 0.35970 0.88060
O3 O 0.04181(11) 0.38173(11) 0.84996(12)
C6 C 0.05953(18) 0.46686(17) 0.86751(19)
O4 O 0.12735(13) 0.49977(13) 0.87652(17)
C7 C -0.01767(18) 0.5112(2) 0.8716(2)
H7 H -0.06460 0.46960 0.86190
H8 H -0.04190 0.55460 0.82160
H9 H 0.00300 0.53830 0.93380
C8 C 0.11405(15) 0.24529(16) 0.89129(17)
H10 H 0.05240 0.22070 0.86570
O5 O 0.15125(11) 0.26102(13) 0.99214(12)
C9 C 0.10681(16) 0.23210(16) 1.03781(18)
O6 O 0.03609(15) 0.19644(18) 0.99905(15)
C10 C 0.15511(18) 0.25282(19) 1.14138(19)
H11 H 0.21140 0.28210 1.15570
H12 H 0.16810 0.20010 1.17850
H13 H 0.11750 0.28980 1.15790
C11 C 0.17597(16) 0.18466(16) 0.87546(17)
H14 H 0.23760 0.20810 0.90460
H15 H 0.17740 0.12910 0.90560
O7 O 0.14388(11) 0.17339(10) 0.77492(12)
O8 O 0.11044(10) 0.2333(1) 0.63253(11)
C12 C 0.16520(15) 0.19637(14) 0.59903(17)
C13 C 0.12845(15) 0.19151(14) 0.50092(17)
H16 H 0.06950 0.21130 0.46070
C14 C 0.18138(15) 0.15656(15) 0.46414(17)
N1 N 0.14525(14) 0.15211(14) 0.36028(16)
O9 O 0.06868(13) 0.17650(15) 0.31081(14)
O10 O 0.19388(13) 0.12468(13) 0.32827(14)
C15 C 0.26823(16) 0.12726(16) 0.51970(19)
H17 H 0.30330 0.10540 0.49180
C16 C 0.30151(17) 0.13135(16) 0.61762(19)
H18 H 0.36010 0.11080 0.65780
C17 C 0.25052(15) 0.16497(15) 0.65741(18)
H19 H 0.27370 0.16660 0.72450
C18 C 0.15883(15) 0.76123(15) 0.74247(16)
H20 H 0.21860 0.78930 0.76510
C19 C 0.09163(15) 0.82223(14) 0.74950(17)
H21 H 0.02910 0.80120 0.71000
O11 O 0.10303(10) 0.90409(10) 0.71637(12)
C20 C 0.04441(16) 0.92832(16) 0.62738(18)
O12 O -0.01951(11) 0.88693(12) 0.57502(13)
C21 C 0.0713(2) 1.01335(18) 0.6059(2)
H22 H 0.12610 1.03270 0.66080
H23 H 0.02310 1.05450 0.59230
H24 H 0.08220 1.00840 0.55050
C22 C 0.10973(15) 0.83470(14) 0.85172(17)
H25 H 0.16460 0.87060 0.88570
O13 O 0.03308(10) 0.8795(1) 0.84901(11)
C23 C 0.04738(16) 0.95938(15) 0.88597(17)
O14 O 0.11995(11) 0.99225(11) 0.92412(15)
C24 C -0.03867(17) 1.00016(18) 0.8723(2)
H26 H -0.04920 1.05220 0.83450
H27 H -0.03440 1.01440 0.93440
H28 H -0.08850 0.96050 0.83910
C25 C 0.12340(15) 0.74997(15) 0.90374(16)
H29 H 0.06630 0.71660 0.87730
O15 O 0.15008(10) 0.77459(10) 1.00063(12)
C26 C 0.15985(15) 0.71192(16) 1.06371(17)
O16 O 0.15424(11) 0.63721(11) 1.04507(13)
C27 C 0.17884(17) 0.75072(17) 1.15777(17)
H30 H 0.17900 0.81290 1.15290
H31 H 0.23750 0.73140 1.20660
H32 H 0.13240 0.73320 1.17520
C28 C 0.19653(15) 0.70087(15) 0.89270(16)
H33 H 0.25280 0.73430 0.91960
H34 H 0.20840 0.64610 0.92730
O17 O 0.16675(11) 0.68554(10) 0.79320(12)
O18 O 0.12225(10) 0.74066(11) 0.64529(12)
C29 C 0.17713(14) 0.70575(14) 0.61152(17)
C30 C 0.13850(15) 0.69652(14) 0.51394(17)
H35 H 0.07830 0.71310 0.47410
C31 C 0.19156(15) 0.66188(16) 0.47648(17)
N2 N 0.15183(13) 0.65190(14) 0.37250(15)
O19 O 0.07620(12) 0.67881(16) 0.32315(14)
O20 O 0.19699(13) 0.61742(13) 0.33971(14)
C32 C 0.27945(16) 0.63730(15) 0.53089(18)
H36 H 0.31400 0.61500 0.50260
C33 C 0.31551(15) 0.64645(17) 0.62893(18)
H37 H 0.37590 0.63010 0.66850
C34 C 0.26476(15) 0.67897(15) 0.66975(18)
H38 H 0.28950 0.68300 0.73690
C35 C 0.34214(15) 0.49817(15) 0.27120(16)
H39 H 0.28020 0.52150 0.24800
C36 C 0.40321(15) 0.56394(14) 0.26029(17)
H40 H 0.46760 0.54800 0.29930
O21 O 0.38391(10) 0.64272(10) 0.29265(12)
C37 C 0.45279(17) 0.68801(18) 0.35902(19)
O22 O 0.52794(13) 0.66325(18) 0.39640(18)
C38 C 0.4185(2) 0.77119(17) 0.3745(2)
H41 H 0.35370 0.77460 0.33330
H42 H 0.44830 0.81790 0.35920
H43 H 0.43090 0.77570 0.44110
C39 C 0.38118(15) 0.57564(15) 0.15677(17)
H44 H 0.32280 0.60640 0.12220
O23 O 0.45266(11) 0.62534(10) 0.15311(12)
C40 C 0.43437(17) 0.70964(16) 0.13137(18)
O24 O 0.36394(12) 0.74163(12) 0.11339(15)
C41 C 0.51477(18) 0.7539(2) 0.1343(2)
H45 H 0.56380 0.71290 0.15150
H46 H 0.53370 0.79960 0.18160
H47 H 0.49920 0.77800 0.07160
C42 C 0.37607(15) 0.48992(15) 0.10949(16)
H48 H 0.43640 0.46240 0.13540
O25 O 0.33927(11) 0.50544(12) 0.00874(12)
C43 C 0.39042(17) 0.48938(16) -0.03410(18)
O26 O 0.46556(13) 0.46316(17) 0.00647(15)
C44 C 0.34022(18) 0.50913(19) -0.13795(19)
H49 H 0.28020 0.53000 -0.15310
H50 H 0.33510 0.45740 -0.17470
H51 H 0.37250 0.55290 -0.15410
C45 C 0.30967(17) 0.43383(16) 0.12401(17)
H52 H 0.24990 0.46130 0.09540
H53 H 0.30410 0.37820 0.09240
O27 O 0.34027(12) 0.42116(10) 0.22366(12)
O28 O 0.38078(10) 0.48011(10) 0.36900(12)
C46 C 0.32688(15) 0.44573(14) 0.40459(17)
C47 C 0.36494(15) 0.44289(14) 0.50322(17)
H54 H 0.42410 0.46270 0.54230
C48 C 0.31240(15) 0.40968(15) 0.54197(17)
N3 N 0.35113(13) 0.40584(13) 0.64611(15)
O29 O 0.42618(12) 0.43546(14) 0.69381(13)
O30 O 0.30661(12) 0.37307(13) 0.68032(13)
C49 C 0.22572(16) 0.38090(15) 0.48888(18)
H55 H 0.19150 0.36000 0.51820
C50 C 0.19062(16) 0.38382(16) 0.39042(19)
H56 H 0.13120 0.36460 0.35150
C51 C 0.24126(15) 0.41440(15) 0.34843(17)
H57 H 0.21730 0.41390 0.28120
C52 C 0.34895(14) 0.00896(15) 0.25650(16)
H58 H 0.28710 0.03280 0.23240
C53 C 0.41083(14) 0.07457(14) 0.24685(16)
H59 H 0.47500 0.05840 0.28690
O31 O 0.39194(10) 0.15517(10) 0.27694(11)
C54 C 0.44956(16) 0.18370(16) 0.36468(18)
O32 O 0.51820(11) 0.14863(14) 0.41664(14)
C55 C 0.4131(2) 0.26362(18) 0.3855(2)
H60 H 0.45600 0.31010 0.39830
H61 H 0.40350 0.25470 0.44130
H62 H 0.35610 0.27830 0.33060
C56 C 0.39087(14) 0.08620(14) 0.14339(16)
H63 H 0.33410 0.11950 0.10920
O33 O 0.46445(10) 0.13475(10) 0.14462(11)
C57 C 0.44548(16) 0.21359(15) 0.10348(17)
O34 O 0.37106(11) 0.24214(11) 0.06248(14)
C58 C 0.52957(16) 0.25850(17) 0.11811(18)
H64 H 0.58130 0.22150 0.15380
H65 H 0.53620 0.31120 0.15390
H66 H 0.52620 0.27220 0.05620
C59 C 0.38100(15) 0.00153(14) 0.09341(16)
H67 H 0.44020 -0.02800 0.11860
O35 O 0.34959(10) 0.02446(10) -0.00467(11)
C60 C 0.34149(15) -0.03801(15) -0.06726(17)
O36 O 0.34983(11) -0.11233(11) -0.04783(12)
C61 C 0.31930(17) 0.00032(17) -0.16236(17)
H68 H 0.31600 0.06240 -0.15870
H69 H 0.26140 -0.02170 -0.21020
H70 H 0.36600 -0.01470 -0.18030
C62 C 0.31368(15) -0.05335(15) 0.10867(16)
H71 H 0.25480 -0.02440 0.08190
H72 H 0.30590 -0.10870 0.07590
O37 O 0.34668(11) -0.06683(10) 0.20883(11)
O38 O 0.38555(10) -0.00893(11) 0.35396(12)
C63 C 0.33106(15) -0.04636(15) 0.38693(17)
C64 C 0.36924(16) -0.05575(15) 0.48476(17)
H73 H 0.42920 -0.03850 0.52500
C65 C 0.31634(16) -0.09126(15) 0.52130(18)
N4 N 0.35449(16) -0.10072(14) 0.62518(16)
O39 O 0.43293(14) -0.08225(16) 0.67408(14)
O40 O 0.30539(15) -0.12601(14) 0.65779(14)
C66 C 0.22870(17) -0.11770(16) 0.46584(19)
H74 H 0.19390 -0.14010 0.49380
C67 C 0.19365(16) -0.11015(17) 0.36752(19)
H75 H 0.13430 -0.12900 0.32740
C68 C 0.24424(15) -0.07558(15) 0.32759(18)
H76 H 0.22020 -0.07170 0.26050
H77? H 0.04880 0.56600 0.59290
H78? H 0.13250 0.50940 0.60500
H79? H 0.13300 0.55470 0.69560
H80? H -0.00440 0.57210 0.88300
H81? H -0.02710 0.48710 0.92330
H82? H -0.07200 0.50330 0.81110
H83? H -0.06550 0.96590 0.90420
H84? H -0.08030 1.00360 0.80430
H85? H -0.02620 1.05750 0.89960
H86? H 0.50070 0.81410 0.11830
H87? H 0.53080 0.72740 0.08820
H88? H 0.56530 0.74900 0.19820
H89? H 0.51450 0.31500 0.08880
H90? H 0.55960 0.22540 0.08870
H91? H 0.56960 0.26440 0.18640
#END
