
#######################################################################
#
#                 Cambridge Crystallographic Data Centre
#                                CCDC
#
#######################################################################
#
# If this CIF has been generated from an entry in the Cambridge
# Structural Database, then it will include bibliographic, chemical,
# crystal, experimental, refinement or atomic coordinate data resulting
# from the CCDC's data processing and validation procedures.
#
#######################################################################

data_CSD_CIF_PAKQOJ
_audit_creation_date 2012-03-05
_audit_creation_method CSD-ConQuest-V1
_database_code_CSD PAKQOJ
_database_code_depnum_ccdc_archive 'CCDC 830710'
_chemical_formula_sum 'C17 H19 N1 O10'
_chemical_formula_moiety
;
C17 H19 N1 O10
;
_journal_coden_Cambridge 119
_journal_volume 1007
_journal_year 2012
_journal_page_first 227
_journal_name_full 'J.Mol.Struct. '
loop_
_publ_author_name
"T.Gubica"
"D.K.Stepien"
"A.Ostrowski"
"D.M.Pisklak"
"A.Temeriusz"
"E.Glowacka"
"K.Paradowska"
"M.K.Cyranski"
_chemical_name_systematic
;
2-(2-Nitrophenoxy)-tetrahydro-2H-pyran-3,4,5-triyl triacetate
;
_chemical_name_common
;
o-Nitrophenyl 2,3,4-tri-O-acetyl-beta-D-xylopyranoside
;
_cell_volume    933.441
_exptl_crystal_density_diffrn 1.414
_diffrn_ambient_temperature 100
#These two values have been output from a single CSD field.
_refine_ls_R_factor_gt 0.0246
_refine_ls_wR_factor_gt 0.0246
_symmetry_cell_setting monoclinic
_symmetry_space_group_name_H-M 'P 21'
_symmetry_Int_Tables_number 4
loop_
_symmetry_equiv_pos_site_id
_symmetry_equiv_pos_as_xyz
1 x,y,z
2 -x,1/2+y,-z
_cell_length_a 8.1735(6)
_cell_length_b 8.7055(6)
_cell_length_c 13.5548(8)
_cell_angle_alpha 90
_cell_angle_beta 104.576(6)
_cell_angle_gamma 90
_cell_formula_units_Z 2
loop_
_atom_type_symbol
_atom_type_radius_bond
C 0.68
H 0.23
N 0.68
O 0.68
loop_
_atom_site_label
_atom_site_type_symbol
_atom_site_fract_x
_atom_site_fract_y
_atom_site_fract_z
C1 C 0.78968(18) 0.06484(19) 0.72025(11)
H1 H 0.85620 0.16250 0.73020
C2 C 0.66144(19) 0.06426(19) 0.78467(11)
H2 H 0.58640 -0.02780 0.76760
O1 O 0.56241(13) 0.20176(13) 0.76359(8)
C3 C 0.39201(19) 0.1860(2) 0.72339(12)
O2 O 0.32246(15) 0.06432(15) 0.71112(11)
C4 C 0.3108(2) 0.3403(2) 0.70142(13)
H3 H 0.27180 0.37500 0.76040
H4 H 0.21430 0.33330 0.64170
H5 H 0.39320 0.41390 0.68770
C5 C 0.74841(18) 0.06516(19) 0.89815(12)
H6 H 0.79070 0.17110 0.91890
O3 O 0.61489(14) 0.02676(13) 0.94725(8)
C6 C 0.6074(2) 0.10454(19) 1.03228(13)
O4 O 0.71428(15) 0.19205(17) 1.07547(10)
C7 C 0.4474(2) 0.0671(3) 1.06246(14)
H7 H 0.42710 -0.04390 1.05670
H8 H 0.35240 0.12130 1.01740
H9 H 0.45820 0.09940 1.13310
C8 C 0.89498(19) -0.04774(19) 0.92659(12)
H10 H 0.85240 -0.15450 0.93140
O5 O 1.00749(14) -0.00164(13) 1.02264(8)
C9 C 0.9847(2) -0.0679(2) 1.10865(13)
O6 O 0.88205(16) -0.16686(15) 1.10858(9)
C10 C 1.1066(2) -0.0035(2) 1.20116(13)
H11 H 1.11310 0.10830 1.19440
H12 H 1.21870 -0.04840 1.20750
H13 H 1.06770 -0.02820 1.26200
C11 C 1.0033(2) -0.0407(2) 0.84958(12)
H14 H 1.06010 0.06040 0.85390
H15 H 1.09140 -0.12140 0.86530
O7 O 0.89744(14) -0.06338(13) 0.74854(8)
O8 O 0.69820(13) 0.04903(14) 0.61845(8)
C12 C 0.7744(2) 0.10340(18) 0.54551(12)
C13 C 0.67424(19) 0.16940(19) 0.45738(12)
N1 N 0.49174(18) 0.19007(19) 0.44493(11)
O9 O 0.44339(17) 0.24329(19) 0.51659(10)
O10 O 0.39805(17) 0.15598(19) 0.36267(11)
C14 C 0.7406(2) 0.2185(2) 0.37823(13)
H16 H 0.66890 0.26070 0.31810
C15 C 0.9129(2) 0.2052(2) 0.38800(13)
H17 H 0.96080 0.23990 0.33500
C16 C 1.0147(2) 0.1409(2) 0.47569(14)
H18 H 1.13300 0.13260 0.48250
C17 C 0.9470(2) 0.0885(2) 0.55373(14)
H19 H 1.01820 0.04250 0.61260
#END
