
#######################################################################
#
#                 Cambridge Crystallographic Data Centre
#                                CCDC
#
#######################################################################
#
# If this CIF has been generated from an entry in the Cambridge
# Structural Database, then it will include bibliographic, chemical,
# crystal, experimental, refinement or atomic coordinate data resulting
# from the CCDC's data processing and validation procedures.
#
#######################################################################

data_CSD_CIF_PAKQUP01
_audit_creation_date 2012-03-05
_audit_creation_method CSD-ConQuest-V1
_database_code_CSD PAKQUP01
_database_code_depnum_ccdc_archive 'CCDC 830712'
_chemical_formula_sum 'C17 H19 N1 O10'
_chemical_formula_moiety
;
C17 H19 N1 O10
;
_journal_coden_Cambridge 119
_journal_volume 1007
_journal_year 2012
_journal_page_first 227
_journal_name_full 'J.Mol.Struct. '
loop_
_publ_author_name
"T.Gubica"
"D.K.Stepien"
"A.Ostrowski"
"D.M.Pisklak"
"A.Temeriusz"
"E.Glowacka"
"K.Paradowska"
"M.K.Cyranski"
_chemical_name_systematic
;
2-(3-Nitrophenoxy)tetrahydro-2H-pyran-3,4,5-triyl triacetate
;
_chemical_name_common
;
m-Nitrophenyl 2,3,4-tri-O-acetyl-beta-D-xylopyranoside
;
_cell_volume   1926.942
_exptl_crystal_density_diffrn 1.37
_exptl_special_details
;
C2 polymorph
undergoes a phase-transition at about 125 K

;
_diffrn_ambient_temperature 293
_refine_special_details
;
Two of the acetoxy groups are partially disordered.

;
#These two values have been output from a single CSD field.
_refine_ls_R_factor_gt 0.0305
_refine_ls_wR_factor_gt 0.0305
_symmetry_cell_setting monoclinic
_symmetry_space_group_name_H-M 'C 2'
_symmetry_Int_Tables_number 5
loop_
_symmetry_equiv_pos_site_id
_symmetry_equiv_pos_as_xyz
1 x,y,z
2 -x,y,-z
3 1/2+x,1/2+y,z
4 1/2-x,1/2+y,-z
_cell_length_a 16.8272(18)
_cell_length_b 8.0410(5)
_cell_length_c 15.904(3)
_cell_angle_alpha 90
_cell_angle_beta 116.434(15)
_cell_angle_gamma 90
_cell_formula_units_Z 4
loop_
_atom_type_symbol
_atom_type_radius_bond
C 0.68
H 0.23
N 0.68
O 0.68
loop_
_atom_site_label
_atom_site_type_symbol
_atom_site_fract_x
_atom_site_fract_y
_atom_site_fract_z
C1 C 0.65341(15) 0.2378(3) 0.73571(14)
H1 H 0.71390 0.28110 0.75830
C2 C 0.59368(15) 0.3675(3) 0.74476(14)
H2 H 0.53130 0.33770 0.70670
O1 O 0.61384(10) 0.5216(2) 0.71287(10)
C3 C 0.5504(2) 0.6003(4) 0.6393(2)
C4 C 0.5864(2) 0.7580(4) 0.6207(2)
H3 H 0.64020 0.73500 0.61590
H4 H 0.59860 0.83460 0.67120
H5 H 0.54360 0.80590 0.56290
H6? H 0.54810 0.84870 0.61750
H7? H 0.58970 0.74900 0.56210
H8? H 0.64470 0.77780 0.67040
C5 C 0.61260(15) 0.3943(3) 0.84681(15)
H9 H 0.66860 0.45500 0.87950
O2 O 0.54104(10) 0.4932(2) 0.84724(11)
C6 C 0.5597(2) 0.6507(4) 0.8779(2)
O3 O 0.63255(18) 0.7077(3) 0.9066(2)
C7 C 0.4789(2) 0.7385(5) 0.8706(2)
H10 H 0.42920 0.66390 0.84590
H11 H 0.46700 0.83260 0.82960
H12 H 0.48850 0.77570 0.93180
C8 C 0.61887(16) 0.2307(3) 0.89570(15)
H13 H 0.56050 0.17730 0.87110
O4 O 0.64954(11) 0.2735(2) 0.99343(10)
C9 C 0.68417(18) 0.1199(3) 0.88213(16)
H14 H 0.74210 0.17240 0.90830
H15 H 0.68940 0.01500 0.91430
O5 O 0.65367(11) 0.0910(2) 0.78329(11)
O6 O 0.61755(10) 0.2001(2) 0.63946(10)
C10 C 0.67116(14) 0.1281(3) 0.60463(15)
C11 C 0.63501(15) 0.1170(3) 0.50876(16)
H16 H 0.57780 0.15460 0.47100
C12 C 0.68613(16) 0.0484(3) 0.47014(17)
N1 N 0.64865(17) 0.0380(3) 0.36724(16)
O7 O 0.57538(16) 0.0901(4) 0.31987(14)
O8 O 0.69359(17) -0.0223(4) 0.33313(15)
C13 C 0.77064(17) -0.0070(4) 0.52313(19)
H17 H 0.80430 -0.04970 0.49500
C14 C 0.80430(17) 0.0021(4) 0.61852(19)
H18 H 0.86130 -0.03710 0.65590
C15 C 0.75513(16) 0.0685(3) 0.66050(18)
H19 H 0.77840 0.07290 0.72560
C16 C 0.6563(6) 0.1603(12) 1.0565(8)
C17 C 0.6700(2) 0.2367(4) 1.14713(18)
H20 H 0.66190 0.15380 1.18600
H21 H 0.62790 0.32480 1.13540
H22 H 0.72910 0.28070 1.17850
H23? H 0.68410 0.35240 1.14720
H24? H 0.71800 0.18130 1.19790
H25? H 0.61680 0.22550 1.15480
O9 O 0.4823(8) 0.5151(11) 0.5869(7)
C18? C 0.6182(7) 0.1898(19) 1.0428(8)
C19? C 0.6700(2) 0.2367(4) 1.14713(18)
H26? H 0.65900 0.15530 1.18490
H27? H 0.65100 0.34400 1.15750
H28? H 0.73230 0.23990 1.16410
H29? H 0.70260 0.33750 1.15280
H30? H 0.71060 0.14880 1.18010
H31? H 0.62920 0.25290 1.17360
O10? O 0.4766(8) 0.5798(13) 0.6100(9)
O11 O 0.6437(4) 0.0123(6) 1.0379(3)
O12? O 0.5383(7) 0.133(2) 0.9992(8)
O13? O 0.5859(11) 0.0514(17) 1.0168(8)
#END
