
#######################################################################
#
#                 Cambridge Crystallographic Data Centre
#                                CCDC
#
#######################################################################
#
# If this CIF has been generated from an entry in the Cambridge
# Structural Database, then it will include bibliographic, chemical,
# crystal, experimental, refinement or atomic coordinate data resulting
# from the CCDC's data processing and validation procedures.
#
#######################################################################

data_CSD_CIF_PAKREA
_audit_creation_date 2012-03-05
_audit_creation_method CSD-ConQuest-V1
_database_code_CSD PAKREA
_database_code_depnum_ccdc_archive 'CCDC 830713'
_chemical_formula_sum 'C17 H19 N1 O10'
_chemical_formula_moiety
;
C17 H19 N1 O10
;
_journal_coden_Cambridge 119
_journal_volume 1007
_journal_year 2012
_journal_page_first 227
_journal_name_full 'J.Mol.Struct. '
loop_
_publ_author_name
"T.Gubica"
"D.K.Stepien"
"A.Ostrowski"
"D.M.Pisklak"
"A.Temeriusz"
"E.Glowacka"
"K.Paradowska"
"M.K.Cyranski"
_chemical_name_systematic
;
2-(4-Nitrophenoxy)-tetrahydro-2H-pyran-3,4,5-triyl triacetate
;
_chemical_name_common
;
p-Nitrophenyl 2,3,4-tri-O-acetyl-beta-D-xylopyranoside
;
_cell_volume   1832.891
_exptl_crystal_density_diffrn 1.44
_diffrn_ambient_temperature 100
#These two values have been output from a single CSD field.
_refine_ls_R_factor_gt 0.0246
_refine_ls_wR_factor_gt 0.0246
_symmetry_cell_setting monoclinic
_symmetry_space_group_name_H-M 'P 21'
_symmetry_Int_Tables_number 4
loop_
_symmetry_equiv_pos_site_id
_symmetry_equiv_pos_as_xyz
1 x,y,z
2 -x,1/2+y,-z
_cell_length_a 10.8570(3)
_cell_length_b 6.7865(2)
_cell_length_c 25.4346(7)
_cell_angle_alpha 90
_cell_angle_beta 102.030(2)
_cell_angle_gamma 90
_cell_formula_units_Z 4
loop_
_atom_type_symbol
_atom_type_radius_bond
C 0.68
H 0.23
N 0.68
O 0.68
loop_
_atom_site_label
_atom_site_type_symbol
_atom_site_fract_x
_atom_site_fract_y
_atom_site_fract_z
C1 C 0.29502(14) 0.4111(2) 0.27522(6)
H1 H 0.22440 0.48170 0.28690
C2 C 0.34568(14) 0.5306(2) 0.23359(6)
H2 H 0.42030 0.46310 0.22440
O1 O 0.38109(10) 0.72045(17) 0.25669(4)
C3 C 0.50628(14) 0.7667(2) 0.26743(6)
O2 O 0.58493(10) 0.66879(17) 0.25300(5)
C4 C 0.52806(16) 0.9508(3) 0.29991(7)
H3 H 0.53090 0.91970 0.33780
H4 H 0.45940 1.04390 0.28700
H5 H 0.60820 1.01000 0.29630
C5 C 0.24315(14) 0.5564(2) 0.18367(6)
H6 H 0.17300 0.63870 0.19180
O3 O 0.30072(10) 0.65244(17) 0.14421(4)
C6 C 0.23372(15) 0.7908(3) 0.11203(6)
O4 O 0.12882(11) 0.8414(2) 0.11488(5)
C7 C 0.30748(16) 0.8648(3) 0.07263(7)
H7 H 0.30050 0.77090 0.04290
H8 H 0.39610 0.87910 0.09050
H9 H 0.27420 0.99300 0.05860
C8 C 0.19464(14) 0.3530(2) 0.16360(6)
H10 H 0.26050 0.27820 0.14970
O5 O 0.08172(10) 0.37446(18) 0.12227(4)
C9 C 0.09274(16) 0.3636(3) 0.07030(7)
O6 O 0.19058(11) 0.3337(2) 0.05669(5)
C10 C -0.03223(17) 0.3967(3) 0.03374(7)
H11 H -0.09630 0.41740 0.05520
H12 H -0.05460 0.28130 0.01060
H13 H -0.02780 0.51320 0.01150
C11 C 0.15409(14) 0.2406(3) 0.20895(6)
H14 H 0.08320 0.31040 0.21970
H15 H 0.12470 0.10740 0.19630
O7 O 0.25667(10) 0.22420(17) 0.25417(4)
O8 O 0.39779(10) 0.38503(18) 0.31845(4)
C12 C 0.37649(15) 0.3373(2) 0.36821(6)
C13 C 0.48302(15) 0.3500(3) 0.40937(6)
H16 H 0.56210 0.38350 0.40150
C14 C 0.47333(15) 0.3137(3) 0.46152(6)
H17 H 0.54480 0.32540 0.49010
C15 C 0.35717(15) 0.2597(2) 0.47154(6)
N1 N 0.34865(14) 0.2219(2) 0.52736(6)
O9 O 0.43315(12) 0.2852(2) 0.56324(5)
O10 O 0.25865(12) 0.1250(2) 0.53559(5)
C16 C 0.25131(15) 0.2409(2) 0.43111(6)
H18 H 0.17330 0.20170 0.43920
C17 C 0.26042(15) 0.2801(2) 0.37845(6)
H19 H 0.18880 0.26820 0.34990
C18 C 0.93690(14) -0.1484(2) 0.25661(6)
H20 H 0.88300 -0.24100 0.27250
C19 C 0.86534(14) 0.0387(2) 0.23581(6)
H21 H 0.92510 0.13690 0.22580
O11 O 0.80886(10) 0.11952(16) 0.27746(4)
C20 C 0.85292(15) 0.2958(2) 0.29950(6)
O12 O 0.93889(12) 0.3829(2) 0.28687(5)
C21 C 0.77914(16) 0.3603(3) 0.33982(6)
H22 H 0.69330 0.39440 0.32140
H23 H 0.81950 0.47590 0.35920
H24 H 0.77620 0.25310 0.36530
C22 C 0.76058(14) -0.0036(2) 0.18726(6)
H25 H 0.69210 -0.08290 0.19800
O13 O 0.71324(10) 0.18551(16) 0.16604(4)
C23 C 0.58770(14) 0.2176(3) 0.15684(6)
O14 O 0.51359(11) 0.1026(2) 0.16814(6)
C24 C 0.55721(16) 0.4149(3) 0.13148(7)
H26 H 0.61060 0.43910 0.10550
H27 H 0.57260 0.51700 0.15930
H28 H 0.46850 0.41790 0.11300
C25 C 0.81605(14) -0.1130(3) 0.14549(6)
H29 H 0.87550 -0.02600 0.13100
O15 O 0.71779(10) -0.18390(17) 0.10237(4)
C26 C 0.68915(16) -0.0762(3) 0.05654(7)
O16 O 0.73274(14) 0.0830(2) 0.05129(5)
C27 C 0.59650(16) -0.1831(3) 0.01470(7)
H30 H 0.57590 -0.31000 0.02910
H31 H 0.63300 -0.20540 -0.01690
H32 H 0.51970 -0.10400 0.00440
C28 C 0.88400(15) -0.2961(3) 0.17128(6)
H33 H 0.82400 -0.38260 0.18480
H34 H 0.91900 -0.37050 0.14430
O17 O 0.98339(10) -0.23857(18) 0.21471(4)
O18 O 1.04747(10) -0.09721(19) 0.29436(4)
C29 C 1.06146(14) -0.1574(2) 0.34653(6)
C30 C 1.18288(14) -0.2088(2) 0.37252(6)
H35 H 1.24900 -0.20940 0.35330
C31 C 1.20733(15) -0.2590(2) 0.42632(6)
H36 H 1.28960 -0.29650 0.44440
C32 C 1.10847(15) -0.2532(2) 0.45343(6)
N2 N 1.13300(14) -0.2977(2) 0.51101(5)
O19 O 1.23438(12) -0.3739(2) 0.53182(5)
O20 O 1.05123(12) -0.2567(2) 0.53587(5)
C33 C 0.98729(15) -0.2031(3) 0.42807(6)
H37 H 0.92150 -0.20110 0.44750
C34 C 0.96293(15) -0.1558(3) 0.37412(6)
H38 H 0.88000 -0.12260 0.35590
H39? H -0.02280 0.39060 -0.00370
H40? H -0.06450 0.52660 0.04090
H41? H -0.09140 0.29470 0.04000
H42? H 0.57650 -0.10290 -0.01800
H43? H 0.51940 -0.20750 0.02800
H44? H 0.63270 -0.30900 0.00660
#END
