
#######################################################################
#
#                 Cambridge Crystallographic Data Centre
#                                CCDC
#
#######################################################################
#
# If this CIF has been generated from an entry in the Cambridge
# Structural Database, then it will include bibliographic, chemical,
# crystal, experimental, refinement or atomic coordinate data resulting
# from the CCDC's data processing and validation procedures.
#
#######################################################################

data_CSD_CIF_PALQOL
_audit_creation_date 2017-02-02
_audit_creation_method CSD-ConQuest-V1
_database_code_CSD PALQOL
_database_code_depnum_ccdc_archive 'CCDC 1029100'
_chemical_formula_sum 'C16 H11 N5 O5'
_chemical_formula_moiety
;
C16 H11 N5 O5
;
_journal_coden_Cambridge 122
_journal_volume 50
_journal_year 2015
_journal_page_first 1731
_journal_name_full 'Khim.Get.Soedin.,SSSR(Russ.)(Chem.Heterocycl.Compd.) '
loop_
_publ_author_name
"Yu.P.Semenyuk"
"A.S.Kochubey"
"P.G.Morozov"
"O.N.Burov"
"M.E.Kletskii"
"S.V.Kurbatov"
_chemical_name_systematic
;
4-(1,2-dimethyl-1H-indole-3-il)-5,7-dinitro-2,1,3-benzoxadiazole
;
_chemical_melting_point 517
_cell_volume   1513.861
_exptl_crystal_colour 'brown'
_exptl_crystal_density_diffrn 1.55
_exptl_special_details
;
Melting point range 517-519K
Light-sensitive

;
_exptl_crystal_description 'prism'
_exptl_crystal_preparation 'chloroform'
_diffrn_ambient_temperature 120
#These two values have been output from a single CSD field.
_refine_ls_R_factor_gt 0.0445
_refine_ls_wR_factor_gt 0.0445
_symmetry_cell_setting monoclinic
_symmetry_space_group_name_H-M 'P 21/c'
_symmetry_Int_Tables_number 14
loop_
_symmetry_equiv_pos_site_id
_symmetry_equiv_pos_as_xyz
1 x,y,z
2 -x,1/2+y,1/2-z
3 -x,-y,-z
4 x,-1/2-y,-1/2+z
_cell_length_a 9.8327(8)
_cell_length_b 7.0505(6)
_cell_length_c 22.2720(18)
_cell_angle_alpha 90
_cell_angle_beta 101.3423(14)
_cell_angle_gamma 90
_cell_formula_units_Z 4
loop_
_atom_type_symbol
_atom_type_radius_bond
C 0.68
H 0.23
N 0.68
O 0.68
loop_
_atom_site_label
_atom_site_type_symbol
_atom_site_fract_x
_atom_site_fract_y
_atom_site_fract_z
N1 N 0.58194(13) 0.60141(19) 0.22618(6)
O1 O 0.61409(11) 0.68408(16) 0.28398(5)
O2 O 0.97925(14) -0.0759(2) 0.25070(6)
C1 C 0.71493(13) 0.41514(19) 0.29620(6)
N2 N 0.69491(12) 0.57017(18) 0.32660(6)
O3 O 0.90659(13) -0.12418(17) 0.33531(6)
N3 N 0.91394(13) 0.27426(17) 0.48558(5)
C2 C 0.80204(13) 0.25674(19) 0.31993(6)
N4 N 0.90719(13) -0.03628(18) 0.28843(6)
O4 O 0.59662(13) 0.15439(19) 0.09592(5)
C3 C 0.81683(14) 0.12967(19) 0.27439(6)
O5 O 0.49259(12) 0.41222(17) 0.11627(5)
N5 N 0.57780(13) 0.28463(19) 0.13003(6)
C4 C 0.74775(14) 0.1412(2) 0.21200(6)
H1 H 0.76320 0.04580 0.18400
C5 C 0.64557(13) 0.4352(2) 0.23377(6)
C6 C 0.66026(14) 0.2865(2) 0.19199(6)
C7 C 0.81357(14) 0.28426(19) 0.43398(6)
C8 C 0.87385(13) 0.25350(19) 0.38307(6)
C9 C 1.02007(14) 0.22439(19) 0.40550(6)
C10 C 1.13530(14) 0.2028(2) 0.37761(7)
H2 H 1.12380 0.19500 0.33430
C11 C 1.26625(14) 0.1929(2) 0.41455(7)
H3 H 1.34520 0.18100 0.39620
C12 C 1.28420(15) 0.2003(2) 0.47860(7)
H4 H 1.37500 0.18930 0.50270
C13 C 1.04125(14) 0.23784(19) 0.46997(6)
C14 C 1.17259(16) 0.2231(2) 0.50747(7)
H5 H 1.18480 0.22850 0.55080
C15 C 0.66439(14) 0.3066(2) 0.43770(7)
H6 H 0.64020 0.21320 0.46650
H7 H 0.60640 0.28630 0.39710
H8 H 0.64880 0.43470 0.45200
C16 C 0.89226(17) 0.2907(2) 0.54835(6)
H9 H 0.81130 0.37110 0.54900
H10 H 0.97450 0.34760 0.57410
H11 H 0.87650 0.16450 0.56410
#END
