
#######################################################################
#
#                 Cambridge Crystallographic Data Centre
#                                CCDC
#
#######################################################################
#
# If this CIF has been generated from an entry in the Cambridge
# Structural Database, then it will include bibliographic, chemical,
# crystal, experimental, refinement or atomic coordinate data resulting
# from the CCDC's data processing and validation procedures.
#
#######################################################################

data_CSD_CIF_PAMGIT
_audit_creation_date 1993-05-12
_audit_creation_method CSD-ConQuest-V1
_database_code_CSD PAMGIT
_database_code_depnum_ccdc_archive 'CCDC 1227746'
_chemical_formula_sum 'C18 H15 N5 O2'
_chemical_formula_moiety
;
C18 H15 N5 O2
;
_journal_coden_Cambridge 7
_journal_volume 65
_journal_year 1992
_journal_page_first 2394
_journal_name_full 'Bull.Chem.Soc.Jpn. '
loop_
_publ_author_name
"T.Mitsuhashi"
"G.Yamamoto"
"M.Goto"
"Y.Kondo"
_chemical_name_systematic
;
p-Nitrophenylazo(\a,\a-dimethylbenzyl)malononitrile
;
_cell_volume   1708.235
_exptl_crystal_density_diffrn 1.3
_diffrn_ambient_temperature ?
_diffrn_special_details
;
The study was carried out at room temperature,in the range 283-303K

;
#These two values have been output from a single CSD field.
_refine_ls_R_factor_gt 0.038
_refine_ls_wR_factor_gt 0.038
_symmetry_cell_setting monoclinic
_symmetry_space_group_name_H-M 'P 21/c'
_symmetry_Int_Tables_number 14
loop_
_symmetry_equiv_pos_site_id
_symmetry_equiv_pos_as_xyz
1 x,y,z
2 -x,1/2+y,1/2-z
3 -x,-y,-z
4 x,-1/2-y,-1/2+z
_cell_length_a 6.510(1)
_cell_length_b 11.240(1)
_cell_length_c 23.637(5)
_cell_angle_alpha 90
_cell_angle_beta 99.01(1)
_cell_angle_gamma 90
_cell_formula_units_Z 4
loop_
_atom_type_symbol
_atom_type_radius_bond
C 0.68
H 0.23
N 0.68
O 0.68
loop_
_atom_site_label
_atom_site_type_symbol
_atom_site_fract_x
_atom_site_fract_y
_atom_site_fract_z
C1 C 0.8780(5) 0.2191(3) 0.5059(1)
C2 C 1.0328(6) 0.3051(3) 0.5116(2)
C3 C 1.2135(6) 0.2856(4) 0.5490(2)
C4 C 1.2361(5) 0.1803(3) 0.5797(1)
C5 C 1.0848(6) 0.0942(3) 0.5740(2)
C6 C 0.9029(6) 0.1147(3) 0.5367(2)
C7 C 0.3651(5) 0.4337(4) 0.4118(2)
C8 C 0.3389(5) 0.2236(3) 0.3961(1)
C9 C 0.4766(5) 0.3285(3) 0.3951(1)
C10 C 0.5465(5) 0.3441(3) 0.3339(1)
C11 C 0.6789(7) 0.2364(4) 0.3238(2)
C12 C 0.6814(7) 0.4564(4) 0.3351(2)
C13 C 0.3512(5) 0.3549(3) 0.2888(1)
C14 C 0.2535(6) 0.4637(4) 0.2760(2)
C15 C 0.0796(7) 0.4733(5) 0.2345(2)
C16 C -0.0042(7) 0.3750(5) 0.2059(2)
C17 C 0.0892(7) 0.2667(5) 0.2177(2)
C18 C 0.2640(6) 0.2564(4) 0.2585(2)
N1 N 0.6863(4) 0.2291(3) 0.4665(1)
N2 N 0.6707(4) 0.3213(3) 0.4386(1)
N3 N 0.2812(6) 0.5133(3) 0.4261(2)
N4 N 0.2275(5) 0.1461(3) 0.3969(1)
N5 N 1.4285(5) 0.1607(3) 0.6204(1)
O1 O 1.5452(5) 0.2451(3) 0.6324(2)
O2 O 1.4605(4) 0.0635(3) 0.6418(2)
H1 H 1.321(6) 0.344(3) 0.555(2)
H2 H 1.105(6) 0.022(4) 0.596(2)
H3 H 1.011(6) 0.381(4) 0.491(2)
H4 H 0.788(6) 0.061(4) 0.531(2)
H5 H 0.332(6) 0.180(4) 0.265(2)
H6 H 0.312(6) 0.535(4) 0.296(2)
H7 H 0.024(6) 0.549(4) 0.227(2)
H8 H -0.113(6) 0.382(4) 0.178(2)
H9 H 0.811(6) 0.447(3) 0.363(2)
H10 H 0.724(6) 0.467(4) 0.296(2)
H11 H 0.614(6) 0.529(4) 0.343(2)
H12 H 0.032(6) 0.200(4) 0.197(2)
H13 H 0.821(6) 0.240(3) 0.350(2)
H14 H 0.605(6) 0.157(4) 0.324(2)
H15 H 0.709(6) 0.242(3) 0.283(2)
#END
