
#######################################################################
#
#                 Cambridge Crystallographic Data Centre
#                                CCDC
#
#######################################################################
#
# If this CIF has been generated from an entry in the Cambridge
# Structural Database, then it will include bibliographic, chemical,
# crystal, experimental, refinement or atomic coordinate data resulting
# from the CCDC's data processing and validation procedures.
#
#######################################################################

data_CSD_CIF_PANDEO
_audit_creation_date 2005-07-27
_audit_creation_method CSD-ConQuest-V1
_database_code_CSD PANDEO
_database_code_depnum_ccdc_archive 'CCDC 222335'
_chemical_formula_sum 'C24 H29 N1 O7'
_chemical_formula_moiety
;
C24 H29 N1 O7
;
_journal_coden_Cambridge 214
_journal_volume 135
_journal_year 2004
_journal_page_first 685
_journal_name_full 'Monatsh.Chem. '
loop_
_publ_author_name
"B.Dugovic"
"L.Fisera"
"C.Hametner"
"M.K.Cyranski"
"N.Pronayova"
_chemical_name_systematic
;
(3S,5R,2'R,4'S,5'R)-2-Benzyl-3-(5-hydroxy-2-methyl(1,3)dioxan-4-yl)-5-(hydroxy
(phenyl)methyl)isoxazolidine-5-carboxylic acid methyl ester
;
_chemical_melting_point 460.15
_cell_volume   1094.531
_exptl_crystal_colour 'colorless'
_exptl_crystal_density_diffrn 1.346
_exptl_special_details
;
Melting point range 460.15-461.15K

;
_diffrn_ambient_temperature 100
#These two values have been output from a single CSD field.
_refine_ls_R_factor_gt 0.0337
_refine_ls_wR_factor_gt 0.0337
_symmetry_cell_setting monoclinic
_symmetry_space_group_name_H-M 'P 21'
_symmetry_Int_Tables_number 4
loop_
_symmetry_equiv_pos_site_id
_symmetry_equiv_pos_as_xyz
1 x,y,z
2 -x,1/2+y,-z
_cell_length_a 8.8560(18)
_cell_length_b 9.1750(18)
_cell_length_c 13.515(3)
_cell_angle_alpha 90
_cell_angle_beta 94.65(3)
_cell_angle_gamma 90
_cell_formula_units_Z 2
loop_
_atom_type_symbol
_atom_type_radius_bond
C 0.68
H 0.23
N 0.68
O 0.68
loop_
_atom_site_label
_atom_site_type_symbol
_atom_site_fract_x
_atom_site_fract_y
_atom_site_fract_z
O1 O 0.80204(18) 0.13316(19) 0.98112(11)
O2 O 1.05459(18) 0.0190(2) 0.79380(12)
H1 H 0.99690 0.05150 0.74860
O3 O 1.00322(19) -0.0006(2) 1.05675(12)
O4 O 0.32634(19) 0.1438(2) 0.76003(14)
H2 H 0.25380 0.08820 0.76060
O5 O 0.69567(17) 0.13422(19) 0.66942(11)
O6 O 0.45980(19) 0.4325(2) 0.67230(13)
C1 C 0.8172(3) 0.3437(3) 0.4765(2)
H3 H 0.72030 0.38030 0.48220
N1 N 0.8299(2) 0.2040(2) 0.71628(15)
C2 C 0.5072(3) -0.0586(3) 0.77583(19)
C3 C 0.7928(3) 0.2315(3) 0.81930(18)
H4 H 0.84640 0.31880 0.84500
C4 C 0.8581(3) 0.3404(3) 0.66207(19)
H5 H 0.93490 0.39700 0.70020
H6 H 0.76580 0.39780 0.65570
C5 C 0.6307(3) -0.2984(3) 0.8804(2)
H7 H 0.67350 -0.37740 0.91550
O7 O 0.46006(19) 0.2701(2) 0.54875(14)
C6 C 0.8667(3) 0.3220(3) 0.3830(2)
H8 H 0.80340 0.34370 0.32670
C7 C 0.6214(3) 0.2596(3) 0.8114(2)
H9 H 0.57420 0.21140 0.86480
H10 H 0.60030 0.36320 0.81390
C8 C 0.8419(3) 0.1013(3) 0.88274(18)
H11 H 0.78650 0.01460 0.85770
C9 C 1.1022(3) 0.2346(3) 0.4576(2)
H12 H 1.19830 0.19660 0.45140
C10 C 0.9090(3) 0.3121(3) 0.56134(19)
C11 C 1.0520(3) -0.0439(3) 0.96346(19)
H13 H 1.00420 -0.13530 0.94310
H14 H 1.16090 -0.05850 0.96940
C12 C 0.6528(3) -0.2798(3) 0.7814(2)
H15 H 0.71000 -0.34770 0.74960
C13 C 1.0109(3) 0.0718(3) 0.88644(18)
H16 H 1.06660 0.16160 0.90420
C14 C 0.4473(3) 0.0720(3) 0.7180(2)
H17 H 0.41260 0.04060 0.65060
C15 C 0.7955(3) 0.0616(4) 1.14866(19)
H18 H 0.68810 0.07820 1.14380
H19 H 0.84720 0.14920 1.17070
H20 H 0.82030 -0.01530 1.19530
C16 C 1.0524(3) 0.2573(3) 0.5508(2)
H21 H 1.11610 0.23550 0.60700
C17 C 0.5915(3) -0.1623(3) 0.7288(2)
H22 H 0.60650 -0.15220 0.66190
C18 C 0.8439(3) 0.0191(3) 1.04860(19)
H23 H 0.79360 -0.07160 1.02630
C19 C 0.4828(3) -0.0788(3) 0.8743(2)
H24 H 0.42460 -0.01180 0.90610
C20 C 0.4893(3) 0.3029(3) 0.6348(2)
C21 C 0.5637(3) 0.1958(3) 0.71085(19)
C22 C 0.5441(3) -0.1980(4) 0.9266(2)
H25 H 0.52670 -0.21020 0.99310
C23 C 1.0091(3) 0.2686(3) 0.3740(2)
H26 H 1.04320 0.25510 0.31130
C24 C 0.3807(3) 0.5348(3) 0.6028(2)
H27 H 0.28540 0.49370 0.57800
H28 H 0.44150 0.55300 0.54850
H29 H 0.36340 0.62470 0.63650
#END
