
#######################################################################
#
#                 Cambridge Crystallographic Data Centre
#                                CCDC
#
#######################################################################
#
# If this CIF has been generated from an entry in the Cambridge
# Structural Database, then it will include bibliographic, chemical,
# crystal, experimental, refinement or atomic coordinate data resulting
# from the CCDC's data processing and validation procedures.
#
#######################################################################

data_CSD_CIF_PANGAN
_audit_creation_date 2005-07-27
_audit_creation_method CSD-ConQuest-V1
_database_code_CSD PANGAN
_database_code_depnum_ccdc_archive 'CCDC 277234'
_chemical_formula_sum 'C13 H9 N3 O4'
_chemical_formula_moiety
;
C13 H9 N3 O4
;
_journal_coeditor_code "IUCr CV6518"
_journal_coden_Cambridge 1370
_journal_volume 61
_journal_year 2005
_journal_page_first o1967
_journal_name_full 'Acta Crystallogr.,Sect.E:Struct.Rep.Online '
loop_
_publ_author_name
"M.Barys"
"Z.Ciunik"
_chemical_name_systematic
;
N-((E)-(2,4-Dinitrophenyl)methylene)aniline
;
_chemical_melting_point 410
_cell_volume   1210.121
_exptl_crystal_colour 'brown'
_exptl_crystal_density_diffrn 1.489
_exptl_special_details
;
Melting point range 410-411K

;
_exptl_crystal_description 'plates'
_diffrn_ambient_temperature 100
#These two values have been output from a single CSD field.
_refine_ls_R_factor_gt 0.0429
_refine_ls_wR_factor_gt 0.0429
_symmetry_cell_setting triclinic
_symmetry_space_group_name_H-M 'P -1'
_symmetry_Int_Tables_number 2
loop_
_symmetry_equiv_pos_site_id
_symmetry_equiv_pos_as_xyz
1 x,y,z
2 -x,-y,-z
_cell_length_a 7.5001(8)
_cell_length_b 11.9920(13)
_cell_length_c 14.1110(14)
_cell_angle_alpha 90.867(10)
_cell_angle_beta 93.531(7)
_cell_angle_gamma 107.084(8)
_cell_formula_units_Z 4
loop_
_atom_type_symbol
_atom_type_radius_bond
C 0.68
H 0.23
N 0.68
O 0.68
loop_
_atom_site_label
_atom_site_type_symbol
_atom_site_fract_x
_atom_site_fract_y
_atom_site_fract_z
C1 C 0.2366(2) 0.44624(13) 0.47209(11)
C2 C 0.2691(2) 0.34089(13) 0.49573(11)
N1 N 0.33979(18) 0.32233(11) 0.59236(9)
O1 O 0.31842(17) 0.22143(10) 0.61560(8)
O2 O 0.41790(15) 0.40845(10) 0.64458(8)
C3 C 0.2419(2) 0.24920(13) 0.43000(11)
H1 H 0.26440 0.17810 0.44760
C4 C 0.1809(2) 0.26487(13) 0.33799(11)
N2 N 0.14692(18) 0.16787(11) 0.26732(10)
O3 O 0.18181(17) 0.07826(10) 0.29192(9)
O4 O 0.08402(15) 0.18108(10) 0.18642(8)
C5 C 0.1481(2) 0.36757(13) 0.30968(11)
H2 H 0.10730 0.37640 0.24590
C6 C 0.1769(2) 0.45707(13) 0.37752(11)
H3 H 0.15550 0.52820 0.35930
N3 N 0.28860(18) 0.64666(11) 0.50581(9)
C7 C 0.2495(2) 0.54551(13) 0.53961(11)
H4 H 0.22940 0.53360 0.60500
C8 C 0.2599(3) 0.83858(14) 0.51495(12)
H5 H 0.24230 0.83400 0.44760
C9 C 0.2558(3) 0.93812(15) 0.56464(13)
H6 H 0.23250 1.00120 0.53120
C10 C 0.2854(2) 0.94649(14) 0.66323(12)
H7 H 0.28280 1.01520 0.69690
C11 C 0.3186(2) 0.85475(13) 0.71213(12)
H8 H 0.33990 0.86070 0.77930
C12 C 0.3211(2) 0.75386(13) 0.66320(11)
H9 H 0.34380 0.69090 0.69690
C13 C 0.2900(2) 0.74521(13) 0.56400(11)
C14 C 0.7647(2) 0.86159(13) 0.03765(11)
C15 C 0.7122(2) 0.74240(13) 0.01471(11)
N4 N 0.61029(18) 0.69298(11) -0.07683(9)
O5 O 0.60700(18) 0.59371(10) -0.10135(9)
O6 O 0.53319(16) 0.75305(10) -0.12407(8)
C16 C 0.7506(2) 0.66176(13) 0.07643(11)
H10 H 0.71290 0.58080 0.05970
C17 C 0.8453(2) 0.70344(13) 0.16292(11)
N5 N 0.89369(18) 0.62009(12) 0.22793(10)
O7 O 0.85268(17) 0.51721(10) 0.20111(9)
O8 O 0.97455(16) 0.65833(10) 0.30617(8)
C18 C 0.9001(2) 0.82027(13) 0.19032(11)
H11 H 0.96470 0.84650 0.25030
C19 C 0.8579(2) 0.89794(13) 0.12754(11)
H12 H 0.89310 0.97850 0.14570
N6 N 0.73616(17) 1.05074(11) 0.01256(9)
C20 C 0.7401(2) 0.95486(13) -0.02564(11)
H13 H 0.72770 0.94310 -0.09270
C21 C 0.7898(2) 1.25572(13) -0.00333(12)
H14 H 0.84410 1.26620 0.06000
C22 C 0.7771(2) 1.35163(14) -0.05462(12)
H15 H 0.82480 1.42790 -0.02640
C23 C 0.6953(2) 1.33669(14) -0.14689(12)
H16 H 0.68620 1.40260 -0.18120
C24 C 0.6271(2) 1.22574(14) -0.18889(12)
H17 H 0.57120 1.21560 -0.25190
C25 C 0.6404(2) 1.12964(14) -0.13875(12)
H18 H 0.59380 1.05370 -0.16770
C26 C 0.7219(2) 1.14373(13) -0.04577(11)
#END
