
#######################################################################
#
#                 Cambridge Crystallographic Data Centre
#                                CCDC
#
#######################################################################
#
# If this CIF has been generated from an entry in the Cambridge
# Structural Database, then it will include bibliographic, chemical,
# crystal, experimental, refinement or atomic coordinate data resulting
# from the CCDC's data processing and validation procedures.
#
#######################################################################

data_CSD_CIF_PANINO
_audit_creation_date 1971-12-31
_audit_creation_method CSD-ConQuest-V1
_database_code_CSD PANINO
_chemical_formula_sum 'C14 H14 N1 O3'
_chemical_formula_moiety
;
C14 H14 N1 O3
;
_journal_coeditor_code "IUCr A00791"
_journal_coden_Cambridge 1
_journal_volume 6
_journal_year 1953
_journal_page_first 32
_journal_name_full 'Acta Crystallogr. '
loop_
_publ_author_name
"A.W.Hanson"
_chemical_name_systematic
;
Di-p-anisyl nitric oxide
;
_cell_volume   1227.775
_exptl_crystal_density_diffrn 1.32
_diffrn_ambient_temperature ?
_diffrn_special_details
;
The study was carried out at room temperature,in the range 283-303K

;
#These two values have been output from a single CSD field.
_refine_ls_R_factor_gt 0.15
_refine_ls_wR_factor_gt 0.15
_symmetry_cell_setting orthorhombic
_symmetry_space_group_name_H-M 'A b a 2'
_symmetry_Int_Tables_number 41
loop_
_symmetry_equiv_pos_site_id
_symmetry_equiv_pos_as_xyz
1 x,y,z
2 x,1/2+y,1/2+z
3 1/2-x,1/2+y,z
4 1/2-x,y,1/2+z
5 1/2+x,1/2-y,z
6 1/2+x,-y,1/2+z
7 -x,-y,z
8 -x,1/2-y,1/2+z
_cell_length_a 7.33(4)
_cell_length_b 26.8(1)
_cell_length_c 6.25(3)
_cell_angle_alpha 90
_cell_angle_beta 90
_cell_angle_gamma 90
_cell_formula_units_Z 4
loop_
_atom_type_symbol
_atom_type_radius_bond
C 0.68
N 0.68
O 0.68
loop_
_atom_site_label
_atom_site_type_symbol
_atom_site_fract_x
_atom_site_fract_y
_atom_site_fract_z
O1 O 0.00000 0.00000 0.38400
N1 N 0.00000 0.00000 0.18720
C1 C 0.00955 0.04739 0.07840
C2 C 0.08049 0.08769 0.19040
C3 C 0.07503 0.13507 0.09920
C4 C -0.00819 0.14254 -0.09280
C5 C -0.08322 0.10224 -0.20000
C6 C -0.07367 0.05410 -0.11200
O2 O -0.00819 0.19030 -0.18560
C7 C -0.10368 0.20336 -0.37920
C1F C -0.00955 -0.04739 0.07840
C2F C -0.08049 -0.08769 0.19040
C6F C 0.07367 -0.05410 -0.11200
C3F C -0.07503 -0.13507 0.09920
C5F C 0.08322 -0.10224 -0.20000
C4F C 0.00819 -0.14254 -0.09280
O2F O 0.00819 -0.19030 -0.18560
C7F C 0.10368 -0.20336 -0.37920
#END
