
#######################################################################
#
#                 Cambridge Crystallographic Data Centre
#                                CCDC
#
#######################################################################
#
# If this CIF has been generated from an entry in the Cambridge
# Structural Database, then it will include bibliographic, chemical,
# crystal, experimental, refinement or atomic coordinate data resulting
# from the CCDC's data processing and validation procedures.
#
#######################################################################

data_CSD_CIF_PAQLUQ
_audit_creation_date 2012-02-24
_audit_creation_method CSD-ConQuest-V1
_database_code_CSD PAQLUQ
_database_code_depnum_ccdc_archive 'CCDC 779742'
_chemical_formula_sum 'C19 H25 N3 O5'
_chemical_formula_moiety
;
C19 H25 N3 O5
;
_journal_coden_Cambridge 599
_journal_volume 30
_journal_year 2011
_journal_page_first 498
_journal_name_full 'J.Carbohydr.Chem. '
loop_
_publ_author_name
"S.D.Lucas"
"H.Fischer"
"A.Alker"
"A.R.Rauter"
"H.P.Wessel"
_chemical_name_systematic
;
t-Butyl 
((3-methoxy-4-(3-(4-methylphenyl)-1,2,4-oxadiazol-5-yl)oxetan-2-yl)methyl)carb
amate
;
_cell_volume   1914.394
_exptl_crystal_colour 'colorless'
_exptl_crystal_density_diffrn 1.303
_exptl_crystal_description 'plate'
_diffrn_ambient_temperature 110
#These two values have been output from a single CSD field.
_refine_ls_R_factor_gt 0.0354
_refine_ls_wR_factor_gt 0.0354
_symmetry_cell_setting monoclinic
_symmetry_space_group_name_H-M 'P 21'
_symmetry_Int_Tables_number 4
loop_
_symmetry_equiv_pos_site_id
_symmetry_equiv_pos_as_xyz
1 x,y,z
2 -x,1/2+y,-z
_cell_length_a 5.0707(10)
_cell_length_b 12.099(2)
_cell_length_c 31.267(6)
_cell_angle_alpha 90
_cell_angle_beta 93.63(3)
_cell_angle_gamma 90
_cell_formula_units_Z 4
loop_
_atom_type_symbol
_atom_type_radius_bond
C 0.68
H 0.23
N 0.68
O 0.68
loop_
_atom_site_label
_atom_site_type_symbol
_atom_site_fract_x
_atom_site_fract_y
_atom_site_fract_z
O1 O -0.2581(4) 0.9102(2) 0.36546(8)
O2 O -0.5785(4) 0.8254(2) 0.40183(8)
O3 O -0.0773(5) 0.8408(2) 0.50951(8)
O4 O -0.3955(4) 0.63002(19) 0.52717(7)
O5 O -0.0261(5) 0.7714(2) 0.62304(8)
N1 N 0.1612(6) 0.8118(3) 0.65467(10)
N2 N 0.2155(6) 0.8925(3) 0.59026(9)
N3 N -0.1433(5) 0.7946(3) 0.41806(9)
H1 H 0.01520 0.81440 0.41330
C1 C 1.1224(7) 1.1492(3) 0.71712(13)
H2 H 1.28720 1.13570 0.70450
H3 H 1.13960 1.13090 0.74700
H4 H 1.07610 1.22580 0.71380
C2 C 0.9104(7) 1.0790(3) 0.69521(12)
C3 C 0.7938(7) 0.9939(3) 0.71674(11)
H5 H 0.84730 0.98030 0.74530
C4 C 0.5983(8) 0.9284(3) 0.69659(12)
H6 H 0.52480 0.87090 0.71160
C5 C 0.5115(7) 0.9483(3) 0.65426(11)
C6 C 0.6287(8) 1.0337(3) 0.63266(12)
H7 H 0.57410 1.04830 0.60430
C7 C 0.8247(7) 1.0971(3) 0.65280(12)
H8 H 0.90160 1.15340 0.63760
C8 C 0.2964(7) 0.8830(3) 0.63325(11)
C9 C 0.0211(7) 0.8242(3) 0.58654(11)
C10 C -0.1587(7) 0.7941(3) 0.54877(11)
H9 H -0.34170 0.81430 0.55350
C11 C -0.1426(7) 0.6764(3) 0.53214(10)
H10 H -0.01360 0.63010 0.54850
C12 C -0.3925(8) 0.5149(3) 0.51562(12)
H11 H -0.32060 0.50690 0.48810
H12 H -0.56950 0.48640 0.51430
H13 H -0.28530 0.47470 0.53670
C13 C -0.0334(7) 0.7311(3) 0.49210(11)
H14 H 0.15540 0.71590 0.49030
C14 C -0.1843(7) 0.7106(3) 0.45008(11)
H15 H -0.13220 0.63940 0.43910
H16 H -0.37130 0.70680 0.45480
C15 C -0.3462(7) 0.8419(3) 0.39583(11)
C16 C -0.4482(6) 0.9732(3) 0.33712(11)
C17 C -0.5906(8) 1.0571(4) 0.36339(12)
H17 H -0.71270 1.01950 0.38060
H18 H -0.68520 1.10800 0.34450
H19 H -0.46410 1.09670 0.38170
C18 C -0.2688(7) 1.0325(4) 0.30732(12)
H20 H -0.14310 1.07670 0.32400
H21 H -0.37340 1.07920 0.28810
H22 H -0.17700 0.97900 0.29110
C19 C -0.6307(7) 0.8954(4) 0.31175(12)
H23 H -0.53000 0.83560 0.30090
H24 H -0.71840 0.93460 0.28820
H25 H -0.75990 0.86660 0.33000
O6 O 1.2785(4) 0.8671(2) 1.13994(8)
O7 O 1.5832(4) 0.9501(2) 1.09970(8)
O8 O 1.0106(5) 1.0664(2) 0.97306(8)
O9 O 1.3930(5) 0.8712(2) 1.00159(10)
O10 O 1.0033(5) 1.0100(2) 0.87409(8)
N4 N 0.8152(7) 0.9687(3) 0.84263(10)
N5 N 0.7844(6) 0.8785(3) 0.90516(9)
N6 N 1.1408(6) 0.9733(3) 1.08596(9)
H26 H 0.98690 0.95840 1.09450
C20 C -0.1407(7) 0.6277(4) 0.78009(13)
H27 H -0.30250 0.64070 0.79360
H28 H -0.09450 0.55090 0.78260
H29 H -0.16340 0.64730 0.75030
C21 C 0.0775(7) 0.6971(3) 0.80165(12)
C22 C 0.1847(8) 0.7861(3) 0.78043(12)
H30 H 0.12340 0.80250 0.75250
C23 C 0.3809(8) 0.8500(3) 0.80048(12)
H31 H 0.44990 0.90940 0.78600
C24 C 0.4769(7) 0.8267(3) 0.84220(12)
C25 C 0.3720(8) 0.7382(4) 0.86334(13)
H32 H 0.43610 0.72060 0.89100
C26 C 0.1706(8) 0.6754(4) 0.84318(13)
H33 H 0.09730 0.61760 0.85800
C27 C 0.6918(7) 0.8926(3) 0.86284(11)
C28 C 0.9696(7) 0.9522(3) 0.90973(12)
C29 C 1.1362(8) 0.9805(3) 0.94879(12)
H34 H 1.31550 1.00150 0.94200
C30 C 1.1383(7) 0.9003(3) 0.98605(12)
H35 H 1.02290 0.83630 0.98040
C31 C 1.437(1) 0.7652(4) 1.0113(2)
H36 H 1.32400 0.74300 1.03330
H37 H 1.61830 0.75570 1.02140
H38 H 1.40040 0.72060 0.98620
C32 C 1.0056(7) 0.9932(3) 1.01055(11)
H39 H 0.82480 0.97380 1.01700
C33 C 1.1586(7) 1.0430(3) 1.04882(12)
H40 H 1.34240 1.05160 1.04260
H41 H 1.08830 1.11570 1.05470
C34 C 1.3535(7) 0.9307(3) 1.10781(12)
C35 C 1.4737(7) 0.8043(3) 1.16720(12)
C36 C 1.6125(8) 0.7206(4) 1.14017(14)
H42 H 1.48330 0.67910 1.12310
H43 H 1.71530 0.67130 1.15860
H44 H 1.72670 0.75860 1.12170
C37 C 1.3041(7) 0.7467(4) 1.19845(12)
H45 H 1.21830 0.80090 1.21520
H46 H 1.41310 0.70020 1.21710
H47 H 1.17320 0.70250 1.18290
C38 C 1.6626(7) 0.8831(4) 1.19112(12)
H48 H 1.78850 0.91040 1.17200
H49 H 1.75390 0.84490 1.21460
H50 H 1.56530 0.94400 1.20200
#END
