
#######################################################################
#
#                 Cambridge Crystallographic Data Centre
#                                CCDC
#
#######################################################################
#
# If this CIF has been generated from an entry in the Cambridge
# Structural Database, then it will include bibliographic, chemical,
# crystal, experimental, refinement or atomic coordinate data resulting
# from the CCDC's data processing and validation procedures.
#
#######################################################################

data_CSD_CIF_PAQWOV
_audit_creation_date 2012-02-24
_audit_creation_method CSD-ConQuest-V1
_database_code_CSD PAQWOV
_database_code_depnum_ccdc_archive 'CCDC 846467'
_chemical_formula_sum 'C13 H18 N3 O2'
_chemical_formula_moiety
;
C13 H18 N3 O2
;
_journal_coden_Cambridge 1096
_journal_volume 23
_journal_year 2011
_journal_page_first 4844
_journal_name_full 'Chem.Mater. '
loop_
_publ_author_name
"S.Aboaku"
"A.Paduan-Filho"
"V.Bindilatti"
"N.F.Oliveira Junior"
"J.A.Schlueter"
"P.M.Lahti"
_chemical_name_systematic
;
4,4,5,5-Tetramethyl-2-(3-aminophenyl)-4,5-dihydro-1H-imidazol-1-oxyl 3-oxide
;
_cell_volume   1320.154
_exptl_crystal_colour 'dark blue'
_exptl_crystal_density_diffrn 1.249
_exptl_crystal_description 'prism'
_diffrn_ambient_temperature 293
#These two values have been output from a single CSD field.
_refine_ls_R_factor_gt 0.0425
_refine_ls_wR_factor_gt 0.0425
_symmetry_cell_setting monoclinic
_symmetry_space_group_name_H-M 'P 21/c'
_symmetry_Int_Tables_number 14
loop_
_symmetry_equiv_pos_site_id
_symmetry_equiv_pos_as_xyz
1 x,y,z
2 -x,1/2+y,1/2-z
3 -x,-y,-z
4 x,-1/2-y,-1/2+z
_cell_length_a 7.738(5)
_cell_length_b 19.085(5)
_cell_length_c 9.148(5)
_cell_angle_alpha 90
_cell_angle_beta 102.262(5)
_cell_angle_gamma 90
_cell_formula_units_Z 4
loop_
_atom_type_symbol
_atom_type_radius_bond
C 0.68
H 0.23
N 0.68
O 0.68
loop_
_atom_site_label
_atom_site_type_symbol
_atom_site_fract_x
_atom_site_fract_y
_atom_site_fract_z
O1 O 0.16000(14) 0.18850(6) 0.93449(12)
N1 N 0.24885(15) 0.13995(6) 0.88439(12)
N2 N 0.46397(15) 0.07228(6) 0.85036(13)
C1 C 0.53101(17) 0.15040(7) 1.07599(14)
O2 O 0.61107(14) 0.03961(7) 0.87125(14)
C2 C 0.41689(17) 0.12130(7) 0.94201(14)
C3 C 0.3300(2) 0.06668(8) 0.70592(15)
C4 C 0.71291(17) 0.15446(7) 1.08487(15)
C5 C 0.82368(17) 0.18436(7) 1.20985(15)
N3 N 1.00548(17) 0.18522(9) 1.22178(19)
C6 C 0.74868(19) 0.21011(8) 1.32467(15)
H1 H 0.82030 0.23110 1.40760
C7 C 0.45961(19) 0.17514(8) 1.19379(16)
C8 C 0.16359(19) 0.09283(8) 0.75768(16)
C9 C 0.5700(2) 0.20481(8) 1.31649(16)
C10 C 0.0348(3) 0.13455(12) 0.6413(2)
C11 C 0.3221(3) -0.00789(10) 0.6482(2)
C12 C 0.3945(3) 0.11614(10) 0.59761(19)
H2 H 0.39500 0.16330 0.63400
H3 H 0.31680 0.11300 0.50090
H4 H 0.51200 0.10310 0.58990
C13 C 0.0680(3) 0.03561(13) 0.8262(3)
H5 H 0.335(2) 0.1734(8) 1.1858(18)
H6 H 0.763(2) 0.1383(8) 1.0026(18)
H7 H 0.518(2) 0.2208(9) 1.4028(19)
H8 H 1.050(3) 0.1774(11) 1.134(3)
H9 H 1.061(3) 0.2191(11) 1.284(2)
H10 H 0.292(3) -0.0383(11) 0.720(2)
H11 H -0.069(3) 0.1464(12) 0.683(2)
H12 H 0.009(3) 0.0012(13) 0.746(3)
H13 H 0.096(3) 0.1783(13) 0.608(3)
H14 H 0.445(3) -0.0204(11) 0.634(2)
H15 H -0.002(3) 0.1042(12) 0.559(3)
H16 H 0.151(3) 0.0085(11) 0.903(2)
H17 H 0.240(3) -0.0081(11) 0.560(3)
H18 H -0.007(3) 0.0573(13) 0.880(3)
#END
