
#######################################################################
#
#                 Cambridge Crystallographic Data Centre
#                                CCDC
#
#######################################################################
#
# If this CIF has been generated from an entry in the Cambridge
# Structural Database, then it will include bibliographic, chemical,
# crystal, experimental, refinement or atomic coordinate data resulting
# from the CCDC's data processing and validation procedures.
#
#######################################################################

data_CSD_CIF_PAQWIP
_audit_creation_date 2012-02-24
_audit_creation_method CSD-ConQuest-V1
_database_code_CSD PAQWIP
_database_code_depnum_ccdc_archive 'CCDC 846466'
_chemical_formula_sum 'C18 H26 N3 O4'
_chemical_formula_moiety
;
C18 H26 N3 O4
;
_journal_coden_Cambridge 1096
_journal_volume 23
_journal_year 2011
_journal_page_first 4844
_journal_name_full 'Chem.Mater. '
loop_
_publ_author_name
"S.Aboaku"
"A.Paduan-Filho"
"V.Bindilatti"
"N.F.Oliveira Junior"
"J.A.Schlueter"
"P.M.Lahti"
_chemical_name_systematic
;
4,4,5,5-Tetramethyl-2-(3-(t-butoxycarbonylamino)phenyl)-4,5-dihydro-1H-imidazo
l-1-oxyl 3-oxide
;
_cell_volume   4026.857
_exptl_crystal_colour 'blue black'
_exptl_crystal_density_diffrn 1.149
_exptl_crystal_description 'prism'
_diffrn_ambient_temperature 293
#These two values have been output from a single CSD field.
_refine_ls_R_factor_gt 0.084
_refine_ls_wR_factor_gt 0.084
_symmetry_cell_setting orthorhombic
_symmetry_space_group_name_H-M 'P b c a'
_symmetry_Int_Tables_number 61
loop_
_symmetry_equiv_pos_site_id
_symmetry_equiv_pos_as_xyz
1 x,y,z
2 1/2-x,-y,1/2+z
3 1/2+x,1/2-y,-z
4 -x,1/2+y,1/2-z
5 -x,-y,-z
6 -1/2+x,y,-1/2-z
7 -1/2-x,-1/2+y,z
8 x,-1/2-y,-1/2+z
_cell_length_a 13.922(5)
_cell_length_b 11.778(5)
_cell_length_c 24.558(5)
_cell_angle_alpha 90
_cell_angle_beta 90
_cell_angle_gamma 90
_cell_formula_units_Z 8
loop_
_atom_type_symbol
_atom_type_radius_bond
C 0.68
H 0.23
N 0.68
O 0.68
loop_
_atom_site_label
_atom_site_type_symbol
_atom_site_fract_x
_atom_site_fract_y
_atom_site_fract_z
N1 N 0.00887(17) 0.2437(2) 0.58601(10)
C1 C 0.04914(17) 0.1371(2) 0.59667(10)
N2 N 0.33553(16) -0.02285(19) 0.67596(11)
C2 C 0.17188(16) 0.0327(2) 0.64453(9)
C3 C 0.12555(17) 0.1336(2) 0.63313(10)
O1 O -0.08683(15) 0.37854(19) 0.55699(11)
C4 C 0.25380(19) 0.0350(2) 0.68180(11)
O2 O -0.12472(17) 0.1957(2) 0.53872(12)
N3 N 0.2592(2) 0.0997(3) 0.72673(11)
O3 O 0.35447(17) -0.0918(2) 0.63764(12)
C5 C 0.0184(2) 0.0368(2) 0.57311(11)
H1 H -0.03330 0.03720 0.54910
C6 C 0.0643(2) -0.0632(3) 0.58515(13)
C7 C 0.1418(2) -0.0665(2) 0.62014(12)
C8 C -0.0736(2) 0.2655(3) 0.55853(12)
O4 O 0.1935(3) 0.1640(3) 0.74543(12)
C9 C -0.1676(3) 0.4277(4) 0.5254(2)
C10 C 0.4095(3) 0.0146(3) 0.7163(2)
C11 C 0.3513(4) 0.0781(5) 0.7558(2)
C12 C -0.1511(4) 0.5524(4) 0.5334(4)
H2 H -0.18970 0.59430 0.50790
H3 H -0.08450 0.56950 0.52740
H4 H -0.16870 0.57320 0.56980
C13 C 0.4804(5) -0.0683(6) 0.7260(4)
H5 H 0.51750 -0.04730 0.75740
H6 H 0.52180 -0.07370 0.69480
H7 H 0.45020 -0.14040 0.73230
C14 C -0.2612(3) 0.3883(5) 0.5485(4)
H8 H -0.27500 0.31320 0.53540
H9 H -0.31140 0.43910 0.53730
H10 H -0.25730 0.38720 0.58750
C15 C 0.3817(5) 0.1741(6) 0.7871(3)
H11 H 0.44430 0.15980 0.80190
H12 H 0.33700 0.18700 0.81620
H13 H 0.38410 0.23990 0.76410
C16 C 0.4700(4) 0.1113(6) 0.6809(4)
H14 H 0.53680 0.10780 0.69050
H15 H 0.44540 0.18550 0.68910
H16 H 0.46270 0.09650 0.64270
C17 C -0.1567(6) 0.3912(7) 0.4660(2)
H17 H -0.18300 0.31650 0.46130
H18 H -0.08990 0.39060 0.45630
H19 H -0.19050 0.44360 0.44290
C18 C 0.3250(8) -0.0289(11) 0.7983(4)
H20 H 0.26240 -0.05810 0.78980
H21 H 0.32570 -0.00170 0.83510
H22 H 0.37180 -0.08820 0.79420
H23 H 0.1403(19) 0.197(2) 0.6496(10)
H24 H 0.175(2) -0.137(3) 0.6273(12)
H25 H 0.039(2) 0.296(3) 0.5943(11)
H26 H 0.040(3) -0.132(3) 0.5700(14)
#END
