
#######################################################################
#
#                 Cambridge Crystallographic Data Centre
#                                CCDC
#
#######################################################################
#
# If this CIF has been generated from an entry in the Cambridge
# Structural Database, then it will include bibliographic, chemical,
# crystal, experimental, refinement or atomic coordinate data resulting
# from the CCDC's data processing and validation procedures.
#
#######################################################################

data_CSD_CIF_PAQZEN
_audit_creation_date 2005-10-19
_audit_creation_method CSD-ConQuest-V1
_database_code_CSD PAQZEN
_database_code_depnum_ccdc_archive 'CCDC 264160'
_chemical_formula_sum 'C17 H17 N3 O2'
_chemical_formula_moiety
;
C17 H17 N3 O2
;
_journal_coden_Cambridge 16
_journal_volume 61
_journal_year 2005
_journal_page_first 6614
_journal_name_full 'Tetrahedron '
loop_
_publ_author_name
"K.Singh"
"S.Behal"
"M.S.Hundal"
_chemical_name_systematic
;
N,N'-Dimethyl-5-(4-nitrophenyl)dipyrromethane
;
_chemical_melting_point 389.15
_cell_volume   1574.422
_exptl_crystal_colour 'yellow'
_exptl_crystal_density_diffrn 1.246
_diffrn_ambient_temperature 293
#These two values have been output from a single CSD field.
_refine_ls_R_factor_gt 0.1469
_refine_ls_wR_factor_gt 0.1469
_symmetry_cell_setting monoclinic
_symmetry_space_group_name_H-M 'P 21'
_symmetry_Int_Tables_number 4
loop_
_symmetry_equiv_pos_site_id
_symmetry_equiv_pos_as_xyz
1 x,y,z
2 -x,1/2+y,-z
_cell_length_a 10.785(2)
_cell_length_b 6.400(2)
_cell_length_c 23.202(4)
_cell_angle_alpha 90
_cell_angle_beta 100.55(1)
_cell_angle_gamma 90
_cell_formula_units_Z 4
loop_
_atom_type_symbol
_atom_type_radius_bond
C 0.68
H 0.23
N 0.68
O 0.68
loop_
_atom_site_label
_atom_site_type_symbol
_atom_site_fract_x
_atom_site_fract_y
_atom_site_fract_z
C1 C 0.3620(14) 0.501(4) 0.6247(6)
H1 H 0.40750 0.36760 0.63080
C2 C 0.285(2) 0.527(5) 0.6748(8)
C3 C 0.1885(15) 0.657(4) 0.6725(9)
H2 H 0.15930 0.73630 0.63920
C4 C 0.1334(17) 0.670(4) 0.7213(8)
H3 H 0.07120 0.76970 0.72210
C5 C 0.1656(18) 0.544(6) 0.7676(8)
C6 C 0.2637(14) 0.405(4) 0.7720(7)
H4 H 0.28860 0.32240 0.80510
C7 C 0.3262(17) 0.396(4) 0.7218(8)
H5 H 0.39240 0.30320 0.72110
C8 C 0.4603(17) 0.678(4) 0.6312(8)
C9 C 0.4700(19) 0.843(6) 0.6681(9)
H6 H 0.42000 0.87000 0.69600
C10 C 0.570(2) 0.967(4) 0.6562(10)
H7 H 0.59940 1.09170 0.67450
C11 C 0.616(2) 0.867(7) 0.6126(12)
H8 H 0.68160 0.91830 0.59560
C12 C 0.2759(17) 0.494(4) 0.5636(8)
C13 C 0.251(2) 0.644(4) 0.5236(10)
H9 H 0.28730 0.77600 0.52470
C14 C 0.161(2) 0.558(6) 0.480(1)
H10 H 0.12990 0.62650 0.44490
C15 C 0.1253(17) 0.386(6) 0.492(1)
H11 H 0.06290 0.30450 0.46970
C16 C 0.5768(16) 0.534(5) 0.5556(8)
H12 H 0.51510 0.42500 0.55320
H13 H 0.65960 0.47640 0.56750
H14 H 0.57080 0.59970 0.51800
C17 C 0.1812(18) 0.141(3) 0.5798(9)
H15 H 0.11780 0.05700 0.55600
H16 H 0.15440 0.17540 0.61580
H17 H 0.25890 0.06410 0.58810
C18 C 0.6353(15) 0.382(4) 0.8747(7)
H18 H 0.58810 0.51290 0.87340
C19 C 0.7074(12) 0.376(2) 0.8226(7)
C20 C 0.6787(15) 0.498(3) 0.7736(7)
H19 H 0.61310 0.59410 0.77110
C21 C 0.743(2) 0.485(6) 0.7288(9)
H20 H 0.72670 0.57650 0.69720
C22 C 0.8330(16) 0.328(4) 0.7316(8)
C23 C 0.8746(17) 0.205(5) 0.7803(8)
H21 H 0.94310 0.11500 0.78270
C24 C 0.8057(19) 0.226(4) 0.8259(7)
H22 H 0.82460 0.14000 0.85870
C25 C 0.7241(15) 0.367(4) 0.9318(7)
C26 C 0.7399(14) 0.216(5) 0.9755(7)
H23 H 0.69630 0.09010 0.97450
C27 C 0.8349(16) 0.288(5) 1.0222(8)
H24 H 0.86690 0.21940 1.05710
C28 C 0.8717(17) 0.496(5) 1.0035(8)
H25 H 0.93310 0.58140 1.02490
C29 C 0.5445(15) 0.203(3) 0.8679(8)
C30 C 0.5299(15) 0.028(3) 0.8343(8)
H26 H 0.58000 -0.00680 0.80710
C31 C 0.4268(19) -0.096(5) 0.8462(9)
H27 H 0.39760 -0.22310 0.82940
C32 C 0.3804(17) 0.017(4) 0.8890(8)
H28 H 0.31090 -0.01930 0.90540
C33 C 0.8172(18) 0.724(5) 0.9190(9)
H29 H 0.75620 0.72310 0.88320
H30 H 0.90060 0.72910 0.91010
H31 H 0.80380 0.84480 0.94170
C34 C 0.4250(19) 0.354(7) 0.9458(9)
H32 H 0.35820 0.30690 0.96480
H33 H 0.40010 0.48150 0.92500
H34 H 0.49950 0.37880 0.97470
N1 N 0.5545(17) 0.683(4) 0.5968(8)
N2 N 0.2004(16) 0.334(4) 0.5481(9)
N3 N 0.0999(17) 0.583(6) 0.8197(7)
N4 N 0.8037(13) 0.542(3) 0.9513(6)
N5 N 0.4527(12) 0.188(3) 0.9026(7)
N6 N 0.8954(18) 0.315(4) 0.6804(9)
O1 O 0.0229(17) 0.712(6) 0.8188(9)
O2 O 0.1279(15) 0.451(5) 0.8599(7)
O3 O 0.8700(17) 0.432(4) 0.6402(7)
O4 O 0.9706(17) 0.172(4) 0.6829(7)
#END
