
#######################################################################
#
#                 Cambridge Crystallographic Data Centre
#                                CCDC
#
#######################################################################
#
# If this CIF has been generated from an entry in the Cambridge
# Structural Database, then it will include bibliographic, chemical,
# crystal, experimental, refinement or atomic coordinate data resulting
# from the CCDC's data processing and validation procedures.
#
#######################################################################

data_CSD_CIF_PARDOC
_audit_creation_date 2005-10-18
_audit_creation_method CSD-ConQuest-V1
_database_code_CSD PARDOC
_database_code_depnum_ccdc_archive 'CCDC 220017'
_chemical_formula_sum 'C25 H21 N3 O6'
_chemical_formula_moiety
;
C25 H21 N3 O6
;
_journal_coden_Cambridge 16
_journal_volume 61
_journal_year 2005
_journal_page_first 5687
_journal_name_full 'Tetrahedron '
loop_
_publ_author_name
"Raunak"
"V.Kumar"
"S.Mukherjee"
"Poonam"
"A.K.Prasad"
"C.E.Olsen"
"S.J.C.Schaffer"
"S.K.Sharma"
"A.C.Watterson"
"W.Errington"
"V.S.Parmar"
_chemical_name_systematic
;
4'-Ethoxycarbonyl-3'-(4-nitrophenyl)-2'-phenylspiro(indoline-3,5'-isoxazolidin
e)-2-one
;
_chemical_melting_point 444.15
_cell_volume   1071.506
_exptl_crystal_colour 'colorless'
_exptl_crystal_density_diffrn 1.424
_exptl_special_details
;
Melting point range 444.15-445.15K
inhibits Mycobacterium tuberculosis showing significant inhibition of 
invasion at 100 micromolar concentration; low level activity against tumour 
cell invasion
;
_exptl_crystal_description 'block'
_diffrn_ambient_temperature 180
#These two values have been output from a single CSD field.
_refine_ls_R_factor_gt 0.0492
_refine_ls_wR_factor_gt 0.0492
_symmetry_cell_setting triclinic
_symmetry_space_group_name_H-M 'P -1'
_symmetry_Int_Tables_number 2
loop_
_symmetry_equiv_pos_site_id
_symmetry_equiv_pos_as_xyz
1 x,y,z
2 -x,-y,-z
_cell_length_a 8.8355(9)
_cell_length_b 10.9983(9)
_cell_length_c 11.7112(12)
_cell_angle_alpha 87.345(3)
_cell_angle_beta 84.725(3)
_cell_angle_gamma 71.029(3)
_cell_formula_units_Z 2
loop_
_atom_type_symbol
_atom_type_radius_bond
C 0.68
H 0.23
N 0.68
O 0.68
loop_
_atom_site_label
_atom_site_type_symbol
_atom_site_fract_x
_atom_site_fract_y
_atom_site_fract_z
O1 O 0.46323(18) 0.84935(13) 0.46144(11)
O2 O 0.50382(16) 0.76828(12) 0.20760(11)
O3 O 0.1790(2) 0.26140(17) 0.62689(14)
O4 O 0.0684(3) 0.2207(2) 0.48492(18)
O5 O 0.03500(18) 0.84098(15) 0.16573(13)
O6 O 0.00784(16) 0.98531(13) 0.30194(12)
N1 N 0.4436(2) 1.03059(16) 0.34987(14)
H1 H 0.466(3) 1.075(2) 0.403(2)
N2 N 0.48879(19) 0.64616(14) 0.25701(13)
N3 N 0.1403(2) 0.28118(17) 0.52919(16)
C1 C 0.3439(2) 0.98602(18) 0.18810(16)
C2 C 0.2898(2) 1.01018(19) 0.07941(16)
H2 H 0.25900 0.94800 0.04220
C3 C 0.2815(3) 1.1276(2) 0.02591(18)
H3 H 0.24290 1.14660 -0.04810
C4 C 0.3292(3) 1.2168(2) 0.07989(19)
H4 H 0.32360 1.29610 0.04180
C5 C 0.3851(3) 1.19315(19) 0.18861(18)
H5 H 0.41820 1.25460 0.22520
C6 C 0.3908(2) 1.07709(18) 0.24132(16)
C7 C 0.4327(2) 0.91164(18) 0.37269(16)
C8 C 0.3746(2) 0.86812(17) 0.26466(15)
C9 C 0.5990(2) 0.54747(17) 0.18685(15)
C10 C 0.5543(2) 0.45364(18) 0.13553(16)
H6 H 0.44540 0.45600 0.14330
C11 C 0.6690(3) 0.35681(19) 0.07306(17)
H7 H 0.63790 0.29250 0.03950
C12 C 0.8274(3) 0.3526(2) 0.05898(17)
H8 H 0.90510 0.28660 0.01560
C13 C 0.8713(2) 0.4469(2) 0.10947(17)
H9 H 0.97990 0.44500 0.10000
C14 C 0.7597(2) 0.54303(19) 0.17310(16)
H10 H 0.79200 0.60620 0.20750
C15 C 0.3151(2) 0.66783(17) 0.25361(15)
H11 H 0.28920 0.66340 0.17290
C16 C 0.2639(2) 0.56996(17) 0.32850(15)
C17 C 0.3196(2) 0.5363(2) 0.43680(17)
H12 H 0.38560 0.57890 0.46570
C18 C 0.2802(2) 0.4416(2) 0.50296(17)
H13 H 0.32010 0.41740 0.57610
C19 C 0.1813(2) 0.38320(18) 0.45967(17)
C20 C 0.1188(3) 0.4175(2) 0.35475(18)
H14 H 0.04840 0.37760 0.32810
C21 C 0.1609(2) 0.51144(19) 0.28917(17)
H15 H 0.11920 0.53620 0.21660
C22 C 0.2404(2) 0.80622(17) 0.29718(16)
H16 H 0.22100 0.80350 0.38260
C23 C 0.0831(2) 0.87691(18) 0.24623(16)
C24 C -0.1448(3) 1.0641(2) 0.2606(2)
H17 H -0.22410 1.01750 0.27120
H18 H -0.13040 1.08490 0.17800
C25 C -0.2015(3) 1.1844(2) 0.3289(2)
H19 H -0.30730 1.23780 0.30670
H20 H -0.12510 1.23210 0.31410
H21 H -0.20910 1.16220 0.41080
#END
