
#######################################################################
#
#                 Cambridge Crystallographic Data Centre
#                                CCDC
#
#######################################################################
#
# If this CIF has been generated from an entry in the Cambridge
# Structural Database, then it will include bibliographic, chemical,
# crystal, experimental, refinement or atomic coordinate data resulting
# from the CCDC's data processing and validation procedures.
#
#######################################################################

data_CSD_CIF_PARGOH
_audit_creation_date 2017-02-06
_audit_creation_method CSD-ConQuest-V1
_database_code_CSD PARGOH
_database_code_depnum_ccdc_archive 'CCDC 1473876'
_chemical_formula_sum 'C15 H14 N2 O6'
_chemical_formula_moiety
;
C15 H14 N2 O6
;
_journal_coden_Cambridge 119
_journal_volume 1135
_journal_year 2017
_journal_page_first 153
_journal_name_full 'J.Mol.Struct. '
loop_
_publ_author_name
"A.U.Augustin"
"F.Katzsch"
"S.H.Prior"
"T.Gruber"
_chemical_name_systematic
;
2,2'-Methylenebis(4-nitroanisol)
;
_chemical_name_common
;
1-methoxy-2-(2-methoxy-5-nitrobenzyl)-4-nitrobenzene
;
_cell_volume    700.006
_exptl_crystal_colour 'colorless'
_exptl_crystal_density_diffrn 1.51
_exptl_crystal_description 'block'
_exptl_crystal_preparation 'Re-crystallisation from solvent'
_diffrn_ambient_temperature 100
#These two values have been output from a single CSD field.
_refine_ls_R_factor_gt 0.0388
_refine_ls_wR_factor_gt 0.0388
_symmetry_cell_setting triclinic
_symmetry_space_group_name_H-M 'P -1'
_symmetry_Int_Tables_number 2
loop_
_symmetry_equiv_pos_site_id
_symmetry_equiv_pos_as_xyz
1 x,y,z
2 -x,-y,-z
_cell_length_a 7.6504(2)
_cell_length_b 9.6220(3)
_cell_length_c 11.1741(4)
_cell_angle_alpha 65.317(1)
_cell_angle_beta 70.402(1)
_cell_angle_gamma 87.253(1)
_cell_formula_units_Z 2
loop_
_atom_type_symbol
_atom_type_radius_bond
C 0.68
H 0.23
N 0.68
O 0.68
loop_
_atom_site_label
_atom_site_type_symbol
_atom_site_fract_x
_atom_site_fract_y
_atom_site_fract_z
N1 N -0.07975(17) 1.02284(15) 0.25701(14)
N2 N 0.41718(17) 0.10697(15) 0.25245(13)
O1 O 0.43810(14) 0.73293(12) 0.11618(11)
O2 O -0.10998(15) 0.40216(12) 0.37560(11)
C1 C 0.0189(2) 0.81115(17) 0.18963(15)
H1 H 0.09560 0.88430 0.09970
C2 C 0.01320(19) 0.65631(17) 0.22114(15)
C3 C 0.28334(19) 0.50651(17) 0.15407(14)
C4 C 0.4389(2) 0.57971(17) 0.15375(14)
C5 C -0.1065(2) 0.55090(17) 0.35454(15)
C6 C 0.4234(2) 0.27039(17) 0.22095(15)
C7 C 0.2787(2) 0.35151(17) 0.18648(14)
H2 H 0.17670 0.30020 0.18530
C8 C -0.0884(2) 0.85970(17) 0.29047(16)
C9 C 0.5818(2) 0.49615(18) 0.19045(15)
H3 H 0.68470 0.54660 0.19150
C10 C 0.5739(2) 0.34001(18) 0.22524(15)
H4 H 0.66970 0.28200 0.25150
C11 C 0.1294(2) 0.59871(17) 0.11460(15)
H5 H 0.04570 0.53400 0.10270
H6 H 0.18580 0.68830 0.02290
C12 C -0.2019(2) 0.75703(18) 0.42216(16)
H7 H -0.27110 0.79250 0.49010
C13 C -0.2132(2) 0.60179(18) 0.45377(15)
H8 H -0.29350 0.53000 0.54290
C14 C 0.5915(2) 0.81262(19) 0.11732(18)
H9 H 0.59860 0.76700 0.21180
H10 H 0.57220 0.92140 0.09040
H11 H 0.70810 0.80380 0.05040
C15 C -0.2296(2) 0.28919(18) 0.50926(16)
H12 H -0.19830 0.29660 0.58470
H13 H -0.21190 0.18610 0.51300
H14 H -0.36010 0.30800 0.52110
O3 O -0.02935(15) 1.11587(13) 0.13239(12)
O4 O 0.29887(16) 0.05120(13) 0.22910(13)
O5 O -0.12283(16) 1.06114(13) 0.35407(12)
O6 O 0.53163(17) 0.03210(14) 0.30025(15)
#END
