
#######################################################################
#
#                 Cambridge Crystallographic Data Centre
#                                CCDC
#
#######################################################################
#
# If this CIF has been generated from an entry in the Cambridge
# Structural Database, then it will include bibliographic, chemical,
# crystal, experimental, refinement or atomic coordinate data resulting
# from the CCDC's data processing and validation procedures.
#
#######################################################################

data_CSD_CIF_PASJOJ
_audit_creation_date 2005-10-19
_audit_creation_method CSD-ConQuest-V1
_database_code_CSD PASJOJ
_database_code_depnum_ccdc_archive 'CCDC 233358'
_chemical_formula_sum 'C14 H20 N3 O2'
_chemical_formula_moiety
;
C14 H20 N3 O2
;
_journal_coden_Cambridge 1291
_journal_year 2005
_journal_page_first 348
_journal_name_full 'Eur.J.Org.Chem. '
loop_
_publ_author_name
"C.Hirel"
"J.Pecaut"
"S.Choua"
"P.Turek"
"D.Amabilino"
"J.Veciana"
"P.Rey"
_chemical_name_systematic
;
meso-4,5-Diethyl-4,5-dimethyl-2-(3-pyridyl)-2-imidazoline-3-oxide-1-oxyl
;
_cell_volume   2783.197
_exptl_crystal_density_diffrn 1.252
_exptl_crystal_preparation 'hexane'
_diffrn_ambient_temperature 298
#These two values have been output from a single CSD field.
_refine_ls_R_factor_gt 0.0403
_refine_ls_wR_factor_gt 0.0403
_symmetry_cell_setting monoclinic
_symmetry_space_group_name_H-M 'P 21/n'
_symmetry_Int_Tables_number 14
loop_
_symmetry_equiv_pos_site_id
_symmetry_equiv_pos_as_xyz
1 x,y,z
2 1/2-x,1/2+y,1/2-z
3 -x,-y,-z
4 -1/2+x,-1/2-y,-1/2+z
_cell_length_a 7.3715(8)
_cell_length_b 36.695(4)
_cell_length_c 10.2916(11)
_cell_angle_alpha 90
_cell_angle_beta 91.240(2)
_cell_angle_gamma 90
_cell_formula_units_Z 8
loop_
_atom_type_symbol
_atom_type_radius_bond
C 0.68
H 0.23
N 0.68
O 0.68
loop_
_atom_site_label
_atom_site_type_symbol
_atom_site_fract_x
_atom_site_fract_y
_atom_site_fract_z
O1 O 0.83550(14) 0.52521(3) 0.19679(13)
O2 O 0.33655(13) 0.47076(3) 0.37751(12)
N1 N 0.72895(15) 0.50110(3) 0.24247(12)
N2 N 0.49116(14) 0.47512(3) 0.32611(12)
N3 N 0.48242(19) 0.60738(3) 0.27771(13)
C1 C 0.56040(18) 0.50698(4) 0.28529(14)
C2 C 0.79036(18) 0.46263(4) 0.26789(14)
C3 C 0.60544(18) 0.44321(4) 0.28772(13)
C4 C 0.9053(2) 0.46481(6) 0.39280(19)
H1 H 0.949(2) 0.4395(5) 0.4203(16)
H2 H 1.011(3) 0.4803(5) 0.3763(18)
H3 H 0.831(2) 0.4760(5) 0.4661(18)
C5 C 0.9017(2) 0.45002(5) 0.15304(19)
H4 H 0.823(2) 0.4513(4) 0.0692(17)
H5 H 0.993(2) 0.4678(5) 0.1359(16)
C6 C 0.9890(3) 0.41275(6) 0.1707(3)
H6 H 0.893(3) 0.3929(6) 0.181(2)
H7 H 1.047(3) 0.4074(5) 0.094(2)
H8 H 1.080(4) 0.4116(7) 0.247(3)
C7 C 0.6058(3) 0.41465(5) 0.39520(19)
H9 H 0.478(2) 0.4080(4) 0.4123(16)
H10 H 0.671(2) 0.3929(5) 0.3624(17)
H11 H 0.662(3) 0.4256(5) 0.478(2)
C8 C 0.5148(2) 0.42620(5) 0.16649(17)
H12 H 0.602(2) 0.4083(4) 0.1229(15)
H13 H 0.402(2) 0.4120(4) 0.1969(15)
C9 C 0.4459(3) 0.45161(7) 0.06112(19)
H14 H 0.554(3) 0.4661(5) 0.0289(18)
H15 H 0.345(3) 0.4714(6) 0.096(2)
H16 H 0.389(3) 0.4357(6) -0.008(2)
C10 C 0.46501(18) 0.54193(4) 0.27863(14)
C11 C 0.5588(2) 0.57465(4) 0.29156(16)
H17 H 0.686(2) 0.5744(4) 0.3136(14)
C12 C 0.3049(2) 0.60802(5) 0.24842(16)
H18 H 0.257(2) 0.6324(4) 0.2378(14)
C13 C 0.1999(2) 0.57737(5) 0.23563(16)
H19 H 0.080(2) 0.5798(4) 0.2132(16)
C14 C 0.2801(2) 0.54370(4) 0.25131(15)
H20 H 0.209(2) 0.5219(4) 0.2426(14)
O3 O 0.78413(13) 0.82870(3) 0.27215(9)
O4 O 0.22102(13) 0.78050(3) 0.16845(10)
N4 N 0.65542(14) 0.81222(3) 0.21121(10)
N5 N 0.38710(14) 0.79004(3) 0.1612(1)
N6 N 0.47255(19) 0.83610(4) 0.60128(12)
C15 C 0.48428(17) 0.80774(3) 0.25353(12)
C16 C 0.68669(17) 0.79140(4) 0.08698(12)
C17 C 0.48733(18) 0.78641(4) 0.03668(13)
C18 C 0.7763(2) 0.75573(4) 0.12998(17)
H21 H 0.895(2) 0.7606(4) 0.1680(15)
H22 H 0.701(2) 0.7422(4) 0.1929(16)
H23 H 0.8012(19) 0.7396(4) 0.0557(15)
C19 C 0.8130(2) 0.81314(5) 0.00083(15)
H24 H 0.919(2) 0.8185(4) 0.0521(16)
H25 H 0.758(2) 0.8362(4) -0.0247(14)
C20 C 0.8702(3) 0.79375(6) -0.12234(19)
H26 H 0.944(2) 0.8100(5) -0.1745(18)
H27 H 0.940(3) 0.7710(6) -0.1009(18)
H28 H 0.762(3) 0.7869(5) -0.1732(19)
C21 C 0.4459(3) 0.74918(5) -0.0220(2)
H29 H 0.321(2) 0.7485(4) -0.0432(15)
H30 H 0.474(2) 0.7293(5) 0.0387(17)
H31 H 0.517(2) 0.7463(5) -0.1003(18)
C22 C 0.4128(3) 0.81650(5) -0.05471(16)
H32 H 0.489(2) 0.8171(4) -0.1300(17)
H33 H 0.291(2) 0.8080(4) -0.0802(15)
C23 C 0.3943(3) 0.85452(6) 0.0004(2)
H34 H 0.302(3) 0.8546(5) 0.0700(19)
H35 H 0.513(3) 0.8658(6) 0.039(2)
H36 H 0.341(3) 0.8693(6) -0.059(2)
C24 C 0.41445(18) 0.82071(3) 0.37675(13)
C25 C 0.5273(2) 0.82409(4) 0.48642(14)
H37 H 0.650(2) 0.8183(4) 0.4803(13)
C26 C 0.2977(2) 0.84556(4) 0.60855(17)
H38 H 0.261(2) 0.8545(4) 0.6891(17)
C27 C 0.1760(2) 0.84340(4) 0.50664(16)
H39 H 0.052(2) 0.8505(4) 0.5171(16)
C28 C 0.2326(2) 0.83044(4) 0.38823(16)
H40 H 0.153(2) 0.8289(4) 0.3179(16)
#END
