
#######################################################################
#
#                 Cambridge Crystallographic Data Centre
#                                CCDC
#
#######################################################################
#
# If this CIF has been generated from an entry in the Cambridge
# Structural Database, then it will include bibliographic, chemical,
# crystal, experimental, refinement or atomic coordinate data resulting
# from the CCDC's data processing and validation procedures.
#
#######################################################################

data_CSD_CIF_PASJID
_audit_creation_date 2005-10-19
_audit_creation_method CSD-ConQuest-V1
_database_code_CSD PASJID
_database_code_depnum_ccdc_archive 'CCDC 233357'
_chemical_formula_sum 'C15 H20 N3 O4'
_chemical_formula_moiety
;
C15 H20 N3 O4
;
_journal_coden_Cambridge 1291
_journal_year 2005
_journal_page_first 348
_journal_name_full 'Eur.J.Org.Chem. '
loop_
_publ_author_name
"C.Hirel"
"J.Pecaut"
"S.Choua"
"P.Turek"
"D.Amabilino"
"J.Veciana"
"P.Rey"
_chemical_name_systematic
;
meso-4,5-Diethyl-4,5-dimethyl-2-(4-nitrophenyl)-2-imidazoline-3-oxide-1-oxyl
;
_cell_volume   3130.970
_exptl_crystal_preparation 'methanol'
_diffrn_ambient_temperature 193
_refine_special_details
;
Three C atoms from three ethyl groups are disordered over two sites with 
occupancies 0.588:0.412, 0.619:0.381 and 0.567:0.433.
;
#These two values have been output from a single CSD field.
_refine_ls_R_factor_gt 0.061
_refine_ls_wR_factor_gt 0.061
loop_
_citation_database_id_CSD
_citation_special_details
PATNUU "is a stereoisomer of this entry"
_symmetry_cell_setting monoclinic
_symmetry_space_group_name_H-M 'P 21/c'
_symmetry_Int_Tables_number 14
loop_
_symmetry_equiv_pos_site_id
_symmetry_equiv_pos_as_xyz
1 x,y,z
2 -x,1/2+y,1/2-z
3 -x,-y,-z
4 x,-1/2-y,-1/2+z
_cell_length_a 12.9104(8)
_cell_length_b 12.6703(8)
_cell_length_c 19.2254(12)
_cell_angle_alpha 90
_cell_angle_beta 95.388(1)
_cell_angle_gamma 90
_cell_formula_units_Z 8
loop_
_atom_type_symbol
_atom_type_radius_bond
C 0.68
H 0.23
N 0.68
O 0.68
loop_
_atom_site_label
_atom_site_type_symbol
_atom_site_fract_x
_atom_site_fract_y
_atom_site_fract_z
O1 O 0.60370(11) 0.26016(13) 0.09676(9)
O2 O 0.26001(11) 0.23726(12) 0.14437(9)
O3 O 0.52161(14) -0.26393(13) 0.04921(10)
O4 O 0.35477(14) -0.27078(13) 0.05638(9)
N1 N 0.51365(12) 0.28346(14) 0.11523(9)
N2 N 0.34989(12) 0.27373(13) 0.13447(9)
N3 N 0.43729(15) -0.22251(15) 0.05773(9)
C1 C 0.43183(14) 0.21702(17) 0.1161(1)
C2 C 0.49187(16) 0.38935(18) 0.14547(13)
C3 C 0.37149(16) 0.39099(17) 0.13525(11)
C4 C 0.5452(3) 0.4741(3) 0.1049(2)
H1 H 0.625(2) 0.463(2) 0.1221(15)
H2 H 0.526(2) 0.543(2) 0.1199(15)
H3 H 0.525(3) 0.473(3) 0.0537(19)
C5 C 0.5380(2) 0.3846(3) 0.22223(18)
H4 H 0.5226(19) 0.455(2) 0.2450(14)
C6 C 0.5252(5) 0.2921(5) 0.2590(3)
C7? C 0.6504(5) 0.3594(7) 0.2412(4)
C8 C 0.3267(2) 0.4304(2) 0.06308(14)
H5 H 0.2476(19) 0.4324(17) 0.0567(12)
H6 H 0.3415(18) 0.507(2) 0.0567(13)
H7 H 0.362(2) 0.402(2) 0.0267(17)
C9 C 0.3152(2) 0.44258(19) 0.19357(14)
H8 H 0.2374(19) 0.425(2) 0.1867(13)
H9 H 0.3370(18) 0.416(2) 0.2373(14)
C10 C 0.3230(3) 0.5605(2) 0.19661(19)
H10 H 0.286(2) 0.600(3) 0.154(2)
H11 H 0.395(4) 0.603(4) 0.204(3)
H12 H 0.280(2) 0.592(2) 0.2344(16)
C11 C 0.43267(14) 0.10473(17) 0.10066(10)
C12 C 0.52762(15) 0.04926(18) 0.10441(11)
H13 H 0.5909(16) 0.0869(17) 0.1173(11)
C13 C 0.52878(16) -0.05654(18) 0.08946(11)
H14 H 0.5985(17) -0.0932(18) 0.0962(12)
C14 C 0.43551(16) -0.10794(16) 0.07082(10)
C15 C 0.34100(16) -0.05676(18) 0.0671(1)
H15 H 0.2747(16) -0.0972(17) 0.0540(11)
C16 C 0.33977(15) 0.05047(17) 0.08160(11)
H16 H 0.2691(17) 0.0865(17) 0.0773(11)
O5 O 0.90081(10) 0.47471(12) 0.42793(8)
O6 O 1.2303(1) 0.47483(13) 0.35273(8)
O7 O 0.98995(18) 0.99739(16) 0.41032(19)
O8 O 1.15446(16) 0.99582(15) 0.43391(13)
N4 N 0.98263(12) 0.44551(13) 0.40050(9)
N5 N 1.14103(12) 0.44419(14) 0.36924(9)
N6 N 1.07271(18) 0.95091(18) 0.41928(14)
C17 C 1.06549(14) 0.50676(17) 0.39048(11)
C18 C 0.99307(16) 0.33792(17) 0.36970(12)
C19 C 1.11305(16) 0.32873(17) 0.37343(11)
C20 C 0.9411(2) 0.2572(2) 0.41301(18)
H17 H 0.9537(17) 0.193(2) 0.4000(12)
H18 H 0.970(2) 0.262(2) 0.4683(19)
H19 H 0.873(2) 0.273(2) 0.4099(14)
C21 C 0.9404(2) 0.3441(3) 0.29386(15)
H20 H 0.9435(18) 0.270(2) 0.2734(13)
C22 C 0.8299(3) 0.3750(4) 0.2798(3)
C23? C 0.9485(7) 0.4357(8) 0.2576(4)
C24 C 1.1616(2) 0.2915(2) 0.44452(14)
H21 H 1.1470(16) 0.2154(19) 0.4520(11)
H22 H 1.2272(18) 0.3005(18) 0.4454(12)
H23 H 1.1278(18) 0.3347(19) 0.4851(14)
C25 C 1.1559(2) 0.2678(3) 0.31325(16)
H24 H 1.1346(17) 0.3004(18) 0.2748(13)
C26? C 1.2604(4) 0.2146(4) 0.3284(3)
C27 C 1.1460(5) 0.1630(4) 0.3039(3)
C28 C 1.06937(14) 0.62098(17) 0.39727(10)
C29 C 1.16344(16) 0.67464(18) 0.41314(11)
H25 H 1.2283(17) 0.6421(17) 0.4214(11)
C30 C 1.16457(17) 0.78280(19) 0.42013(13)
H26 H 1.2208(16) 0.8221(16) 0.4311(11)
C31 C 1.07208(17) 0.83694(17) 0.41021(13)
C32 C 0.97819(17) 0.78700(18) 0.39271(13)
H27 H 0.9176(18) 0.8272(18) 0.3843(12)
C33 C 0.97681(16) 0.67877(18) 0.38651(12)
H28 H 0.9146(17) 0.6403(17) 0.3733(11)
#END
