
#######################################################################
#
#                 Cambridge Crystallographic Data Centre
#                                CCDC
#
#######################################################################
#
# If this CIF has been generated from an entry in the Cambridge
# Structural Database, then it will include bibliographic, chemical,
# crystal, experimental, refinement or atomic coordinate data resulting
# from the CCDC's data processing and validation procedures.
#
#######################################################################

data_CSD_CIF_PASKEA
_audit_creation_date 2005-10-19
_audit_creation_method CSD-ConQuest-V1
_database_code_CSD PASKEA
_database_code_depnum_ccdc_archive 'CCDC 233362'
_chemical_formula_sum 'C15 H21 N2 O1'
_chemical_formula_moiety
;
C15 H21 N2 O1
;
_journal_coden_Cambridge 1291
_journal_year 2005
_journal_page_first 348
_journal_name_full 'Eur.J.Org.Chem. '
loop_
_publ_author_name
"C.Hirel"
"J.Pecaut"
"S.Choua"
"P.Turek"
"D.Amabilino"
"J.Veciana"
"P.Rey"
_chemical_name_systematic
;
(R,R)-4,5-Diethyl-4,5-dimethyl-2-phenyl-2-imidazoline-1-oxyl
;
_cell_volume    698.782
_exptl_crystal_density_diffrn 1.166
_diffrn_ambient_temperature 298
#These two values have been output from a single CSD field.
_refine_ls_R_factor_gt 0.0532
_refine_ls_wR_factor_gt 0.0532
loop_
_citation_database_id_CSD
_citation_special_details
PATPEG "is a stereoisomer of this entry"
_symmetry_cell_setting monoclinic
_symmetry_space_group_name_H-M 'P 21'
_symmetry_Int_Tables_number 4
loop_
_symmetry_equiv_pos_site_id
_symmetry_equiv_pos_as_xyz
1 x,y,z
2 -x,1/2+y,-z
_cell_length_a 7.1986(18)
_cell_length_b 10.075(3)
_cell_length_c 10.202(2)
_cell_angle_alpha 90
_cell_angle_beta 109.193(7)
_cell_angle_gamma 90
_cell_formula_units_Z 2
loop_
_atom_type_symbol
_atom_type_radius_bond
C 0.68
H 0.23
N 0.68
O 0.68
loop_
_atom_site_label
_atom_site_type_symbol
_atom_site_fract_x
_atom_site_fract_y
_atom_site_fract_z
O1 O -0.3967(3) 0.6772(2) 0.6003(2)
N1 N -0.2412(2) 0.63780(19) 0.69180(19)
N2 N 0.0759(2) 0.63166(18) 0.82451(17)
C1 C -0.0572(3) 0.6992(2) 0.7339(2)
C2 C -0.2359(3) 0.5210(2) 0.7839(2)
C3 C -0.0072(3) 0.5001(2) 0.84218(19)
C4 C -0.3230(4) 0.5704(3) 0.8943(3)
H1 H -0.459(5) 0.595(3) 0.850(3)
H2 H -0.232(5) 0.643(4) 0.952(3)
H3 H -0.321(5) 0.502(4) 0.966(3)
C5 C -0.3619(4) 0.4100(3) 0.6968(3)
H4 H -0.500(5) 0.448(4) 0.654(3)
H5 H -0.311(6) 0.387(4) 0.622(4)
C6 C -0.3745(6) 0.2844(4) 0.7769(5)
H6 H -0.438(11) 0.236(10) 0.717(8)
H7 H -0.419(5) 0.308(4) 0.853(5)
H8 H -0.253(7) 0.239(5) 0.811(4)
C7 C 0.0644(4) 0.4030(3) 0.7537(3)
H9 H 0.210(4) 0.418(3) 0.779(3)
H10 H -0.001(5) 0.421(4) 0.657(4)
H11 H 0.035(4) 0.310(3) 0.777(3)
C8 C 0.0716(3) 0.4606(3) 0.9956(2)
H12 H 0.028(4) 0.534(3) 1.054(3)
H13 H 0.013(4) 0.382(3) 1.011(3)
C9 C 0.2952(4) 0.4460(3) 1.0541(3)
H14 H 0.325(5) 0.424(4) 1.147(4)
H15 H 0.354(5) 0.529(4) 1.032(3)
H16 H 0.350(4) 0.373(4) 1.000(3)
C10 C -0.0193(3) 0.8296(2) 0.68137(19)
C11 C 0.1750(3) 0.8624(3) 0.6979(3)
H17 H 0.283(6) 0.803(5) 0.748(4)
C12 C 0.2213(4) 0.9855(3) 0.6568(3)
H18 H 0.367(6) 1.003(5) 0.661(4)
C13 C 0.0745(4) 1.0774(2) 0.5995(2)
H19 H 0.096(4) 1.165(4) 0.572(3)
C14 C -0.1182(4) 1.0449(2) 0.5796(3)
H20 H -0.213(5) 1.102(4) 0.540(3)
C15 C -0.1663(3) 0.9214(2) 0.6193(2)
H21 H -0.297(4) 0.897(3) 0.607(3)
#END
