
#######################################################################
#
#                 Cambridge Crystallographic Data Centre
#                                CCDC
#
#######################################################################
#
# If this CIF has been generated from an entry in the Cambridge
# Structural Database, then it will include bibliographic, chemical,
# crystal, experimental, refinement or atomic coordinate data resulting
# from the CCDC's data processing and validation procedures.
#
#######################################################################

data_CSD_CIF_PATPAC
_audit_creation_date 2005-10-19
_audit_creation_method CSD-ConQuest-V1
_database_code_CSD PATPAC
_database_code_depnum_ccdc_archive 'CCDC 233364'
_chemical_formula_sum 'C15 H21 N2 O2'
_chemical_formula_moiety
;
C15 H21 N2 O2
;
_journal_coden_Cambridge 1291
_journal_year 2005
_journal_page_first 348
_journal_name_full 'Eur.J.Org.Chem. '
loop_
_publ_author_name
"C.Hirel"
"J.Pecaut"
"S.Choua"
"P.Turek"
"D.Amabilino"
"J.Veciana"
"P.Rey"
_chemical_name_systematic
;
(S,S)-4,5-Diethyl-4,5-dimethyl-2-phenyl-2-imidazoline-3-oxide-1-oxyl
;
_cell_volume   2878.911
_exptl_crystal_density_diffrn 1.206
_exptl_crystal_preparation 'hexane'
_diffrn_ambient_temperature 298
#These two values have been output from a single CSD field.
_refine_ls_R_factor_gt 0.0725
_refine_ls_wR_factor_gt 0.0725
loop_
_citation_database_id_CSD
_citation_special_details
QOFRAE "is a stereoisomer of this entry"
_symmetry_cell_setting orthorhombic
_symmetry_space_group_name_H-M 'P 21 21 21'
_symmetry_Int_Tables_number 19
loop_
_symmetry_equiv_pos_site_id
_symmetry_equiv_pos_as_xyz
1 x,y,z
2 1/2-x,-y,1/2+z
3 -x,1/2+y,1/2-z
4 1/2+x,1/2-y,-z
_cell_length_a 9.920(2)
_cell_length_b 10.222(2)
_cell_length_c 28.391(7)
_cell_angle_alpha 90
_cell_angle_beta 90
_cell_angle_gamma 90
_cell_formula_units_Z 8
loop_
_atom_type_symbol
_atom_type_radius_bond
C 0.75
H 0.23
N 0.68
O 0.68
loop_
_atom_site_label
_atom_site_type_symbol
_atom_site_fract_x
_atom_site_fract_y
_atom_site_fract_z
O1 O 0.9732(3) -0.4623(3) 0.07818(13)
O2 O 0.8535(4) -0.5935(3) -0.07127(13)
O3 O 0.8290(5) -0.2232(4) -0.14897(15)
O4 O 0.6426(4) -0.1411(4) -0.29547(14)
N1 N 0.7623(5) -0.2344(5) -0.18819(19)
N2 N 0.6810(4) -0.1981(4) -0.25791(17)
C1 C 0.7558(5) -0.1484(6) -0.2232(2)
C2 C 0.6642(5) -0.3432(7) -0.1951(2)
C3 C 0.6465(4) -0.3399(5) -0.24735(19)
C4 C 0.7236(7) -0.4696(6) -0.1733(2)
H1 H 0.80770 -0.49000 -0.18840
H2 H 0.66160 -0.54060 -0.17790
H3 H 0.73830 -0.45670 -0.14020
C5 C 0.5030(18) -0.3458(8) -0.1612(4)
H4 H 0.43050 -0.39360 -0.17640
H5 H 0.51270 -0.37060 -0.12840
C6 C 0.5011(14) -0.2267(10) -0.1682(3)
H6 H 0.42240 -0.18970 -0.15380
H7 H 0.49890 -0.21010 -0.20150
H8 H 0.58040 -0.18770 -0.15490
C7 C 0.5054(5) -0.3707(6) -0.26705(18)
H9 H 0.43970 -0.31700 -0.25150
H10 H 0.48470 -0.46120 -0.26170
H11 H 0.50380 -0.35310 -0.30030
C8 C 0.7522(5) -0.4241(5) -0.2727(2)
H12 H 0.83950 -0.40290 -0.25930
H13 H 0.73380 -0.51470 -0.26500
C9 C 0.7646(6) -0.4152(7) -0.3230(2)
H14 H 0.83460 -0.47300 -0.33360
H15 H 0.78660 -0.32700 -0.33170
H16 H 0.68080 -0.43980 -0.33740
C10 C 0.8160(5) -0.0148(6) -0.2241(3)
C11 C 0.8280(6) 0.0527(7) -0.1810(3)
H17 H 0.80640 0.01340 -0.15240
C12 C 0.8747(7) 0.1835(8) -0.1834(4)
H18 H 0.88180 0.23240 -0.15580
C13 C 0.9091(7) 0.2386(8) -0.2249(4)
H19 H 0.94090 0.32410 -0.22530
C14 C 0.8984(6) 0.1723(7) -0.2657(3)
H20 H 0.92460 0.21190 -0.29370
C15 C 0.8479(5) 0.0433(7) -0.2663(3)
H21 H 0.83640 -0.00130 -0.29460
N3 N 0.9720(4) -0.5187(4) 0.03858(17)
N4 N 0.9203(4) -0.5684(4) -0.03386(17)
C16 C 0.8781(5) -0.5077(4) 0.00482(18)
C17 C 1.0802(4) -0.6160(5) 0.02261(19)
C18 C 1.0688(5) -0.6058(4) -0.02962(19)
C19 C 1.2137(5) -0.5756(6) 0.0454(2)
H22 H 1.24140 -0.49230 0.03320
H23 H 1.28140 -0.63990 0.03850
H24 H 1.20210 -0.56930 0.07890
C20 C 1.0328(6) -0.7521(5) 0.0418(2)
H25 H 0.94830 -0.77360 0.02650
H26 H 1.09840 -0.81690 0.03190
C21 C 1.0126(8) -0.7671(6) 0.0941(2)
H27 H 0.98520 -0.85520 0.10090
H28 H 0.94410 -0.70740 0.10450
H29 H 1.09550 -0.74840 0.11010
C22 C 1.0982(6) -0.7305(5) -0.05747(19)
H30 H 1.04560 -0.80120 -0.04500
H31 H 1.19230 -0.75140 -0.05500
H32 H 1.07530 -0.71710 -0.09000
C23 C 1.1498(5) -0.4893(5) -0.0501(2)
H33 H 1.13200 -0.41320 -0.03060
H34 H 1.24490 -0.50940 -0.04710
C24 C 1.1234(8) -0.4523(7) -0.1003(2)
H35 H 1.18120 -0.38100 -0.10910
H36 H 1.03100 -0.42620 -0.10380
H37 H 1.14110 -0.52600 -0.12040
C25 C 0.7443(5) -0.4440(4) 0.0106(2)
C26 C 0.6889(5) -0.4369(4) 0.0543(2)
H38 H 0.73540 -0.46800 0.08040
C27 C 0.5559(6) -0.3800(5) 0.0594(3)
H39 H 0.51320 -0.37840 0.08850
C28 C 0.4952(7) -0.3293(6) 0.0208(3)
H40 H 0.41140 -0.28970 0.02420
C29 C 0.5518(6) -0.3338(6) -0.0230(3)
H41 H 0.50610 -0.30000 -0.04890
C30 C 0.6799(5) -0.3902(5) -0.0284(2)
H42 H 0.72140 -0.39160 -0.05780
#END
