
#######################################################################
#
#                 Cambridge Crystallographic Data Centre
#                                CCDC
#
#######################################################################
#
# If this CIF has been generated from an entry in the Cambridge
# Structural Database, then it will include bibliographic, chemical,
# crystal, experimental, refinement or atomic coordinate data resulting
# from the CCDC's data processing and validation procedures.
#
#######################################################################

data_CSD_CIF_PATRAG
_audit_creation_date 2017-06-20
_audit_creation_method CSD-ConQuest-V1
_database_code_CSD PATRAG
_database_code_depnum_ccdc_archive 'CCDC 1534289'
_chemical_formula_sum 'C14 H16 N2 O2'
_chemical_formula_moiety
;
C14 H16 N2 O2
;
_journal_coden_Cambridge 1336
_journal_volume 19
_journal_year 2017
_journal_page_first 3255
_journal_name_full 'Org.Lett. '
loop_
_publ_author_name
"Fei Chen"
"Fei-Fei Zhu"
"Man Zhang"
"Rui-Hua Liu"
"Wei Yu"
"Bing Han"
_chemical_name_systematic
;
[3-(4-methoxyphenyl)-4,4-dimethyl-4,5-dihydro-1,2-oxazol-5-yl]acetonitrile
;
_cell_volume   1309.886
_exptl_crystal_colour 'light colorless'
_exptl_crystal_density_diffrn 1.239
_exptl_crystal_description 'block'
_diffrn_ambient_temperature 293
#These two values have been output from a single CSD field.
_refine_ls_R_factor_gt 0.0634
_refine_ls_wR_factor_gt 0.0634
_symmetry_cell_setting monoclinic
_symmetry_space_group_name_H-M 'P 21/n'
_symmetry_Int_Tables_number 14
loop_
_symmetry_equiv_pos_site_id
_symmetry_equiv_pos_as_xyz
1 x,y,z
2 1/2-x,1/2+y,1/2-z
3 -x,-y,-z
4 -1/2+x,-1/2-y,-1/2+z
_cell_length_a 11.7785(12)
_cell_length_b 8.8637(5)
_cell_length_c 13.5121(10)
_cell_angle_alpha 90
_cell_angle_beta 111.790(11)
_cell_angle_gamma 90
_cell_formula_units_Z 4
loop_
_atom_type_symbol
_atom_type_radius_bond
C 0.68
H 0.23
N 0.68
O 0.68
loop_
_atom_site_label
_atom_site_type_symbol
_atom_site_fract_x
_atom_site_fract_y
_atom_site_fract_z
O1 O 0.9324(2) 0.7167(3) 0.38142(16)
O2 O 0.8696(2) -0.0055(2) 0.05492(15)
N1 N 0.8937(2) 0.1056(3) 0.13692(18)
N2 N 0.7714(3) -0.3048(3) -0.1334(2)
C1 C 0.8682(3) 0.5111(3) 0.1307(2)
H1 H 0.85400 0.52920 0.05930
C2 C 0.8879(3) 0.6322(4) 0.1992(2)
H2 H 0.88730 0.73000 0.17420
C3 C 0.9085(2) 0.6069(3) 0.3056(2)
C4 C 0.9049(3) 0.4604(4) 0.3404(2)
H3 H 0.91590 0.44290 0.41120
C5 C 0.8853(2) 0.3415(3) 0.2716(2)
H4 H 0.88300 0.24410 0.29620
C6 C 0.8688(2) 0.3642(3) 0.1646(2)
C7 C 0.8546(2) 0.2333(3) 0.0946(2)
C8 C 0.8034(2) 0.2302(3) -0.0277(2)
C9 C 0.7838(3) 0.0592(3) -0.0396(2)
H5 H 0.70170 0.03760 -0.04100
C10 C 0.7955(3) -0.0146(3) -0.1347(2)
H6 H 0.73450 0.02690 -0.19890
H7 H 0.87550 0.00780 -0.13620
C11 C 0.7799(3) -0.1781(4) -0.1340(3)
C12 C 0.9476(3) 0.8671(4) 0.3513(3)
H8 H 0.87290 0.90100 0.29730
H9 H 1.01210 0.86960 0.32390
H10 H 0.96830 0.93200 0.41230
C13 C 0.6824(2) 0.3127(3) -0.0801(2)
H11 H 0.62570 0.27990 -0.04860
H12 H 0.64970 0.29090 -0.15500
H13 H 0.69550 0.41940 -0.06960
C14 C 0.8997(2) 0.2888(3) -0.0688(2)
H14 H 0.91390 0.39410 -0.05220
H15 H 0.87130 0.27520 -0.14460
H16 H 0.97450 0.23390 -0.03550
#END
