
#######################################################################
#
#                 Cambridge Crystallographic Data Centre
#                                CCDC
#
#######################################################################
#
# If this CIF has been generated from an entry in the Cambridge
# Structural Database, then it will include bibliographic, chemical,
# crystal, experimental, refinement or atomic coordinate data resulting
# from the CCDC's data processing and validation procedures.
#
#######################################################################

data_CSD_CIF_PATSUB
_audit_creation_date 2017-06-20
_audit_creation_method CSD-ConQuest-V1
_database_code_CSD PATSUB
_database_code_depnum_ccdc_archive 'CCDC 1543718'
_chemical_formula_sum 'C18 H33 N1 O3'
_chemical_formula_moiety
;
C18 H33 N1 O3
;
_journal_coden_Cambridge 1336
_journal_volume 19
_journal_year 2017
_journal_page_first 3163
_journal_name_full 'Org.Lett. '
loop_
_publ_author_name
"L.F.T.Novaes"
"J.C.Pastre"
_chemical_name_systematic
;
2-(2-hydroxy-2,5,5,8a-tetramethyldecahydronaphthalen-1-yl)-N-methoxy-N-methyla
cetamide
;
_chemical_melting_point 413
_cell_volume    887.620
_exptl_crystal_colour 'colorless'
_exptl_crystal_density_diffrn 1.165
_exptl_special_details
;
Melting point range 413-417K

;
_exptl_crystal_description 'needle'
_diffrn_ambient_temperature 150
#These two values have been output from a single CSD field.
_refine_ls_R_factor_gt 0.0341
_refine_ls_wR_factor_gt 0.0341
_symmetry_cell_setting monoclinic
_symmetry_space_group_name_H-M 'P 21'
_symmetry_Int_Tables_number 4
loop_
_symmetry_equiv_pos_site_id
_symmetry_equiv_pos_as_xyz
1 x,y,z
2 -x,1/2+y,-z
_cell_length_a 10.7535(5)
_cell_length_b 6.9720(3)
_cell_length_c 12.6570(6)
_cell_angle_alpha 90
_cell_angle_beta 110.710(2)
_cell_angle_gamma 90
_cell_formula_units_Z 2
loop_
_atom_type_symbol
_atom_type_radius_bond
C 0.68
H 0.23
N 0.68
O 0.68
loop_
_atom_site_label
_atom_site_type_symbol
_atom_site_fract_x
_atom_site_fract_y
_atom_site_fract_z
O1 O -0.56349(11) -0.31581(15) -0.26601(9)
H1 H -0.5269(19) -0.2111(10) -0.2399(4)
O2 O -0.42565(11) -0.96390(16) -0.19281(9)
O3 O -0.42379(10) -0.84038(16) -0.45868(9)
N1 N -0.37601(13) -0.9135(2) -0.34762(11)
C1 C -1.03551(17) -0.4660(3) -0.24355(17)
H2 H -1.0045(8) -0.3350(3) -0.2207(9)
H3 H -1.0422(12) -0.4870(16) -0.3219(2)
H4 H -1.1230(4) -0.4843(16) -0.2373(11)
C2 C -0.29997(16) -1.0890(3) -0.33679(14)
H5 H -0.3591(3) -1.1927(5) -0.3774(10)
H6 H -0.2302(9) -1.0698(7) -0.3689(11)
H7 H -0.2592(12) -1.1231(11) -0.25677(16)
C3 C -0.60161(14) -0.6450(2) -0.22776(11)
H8 H -0.57026(14) -0.7419(2) -0.16571(11)
C4 C -0.73503(15) -0.3803(2) -0.12235(13)
H9 H -0.76184(15) -0.3384(2) -0.05878(13)
H10 H -0.77187(15) -0.2881(2) -0.18517(13)
C5 C -0.75687(14) -0.6447(2) -0.26591(12)
C6 C -0.58369(15) -0.3829(2) -0.08497(12)
H11 H -0.54964(15) -0.2514(2) -0.06303(12)
H12 H -0.54759(15) -0.4657(2) -0.01742(12)
C7 C -0.53303(14) -0.4557(2) -0.17641(12)
C8 C -0.81929(15) -0.5183(2) -0.37139(13)
H13 H -0.8118(12) -0.3830(3) -0.34896(19)
H14 H -0.7725(9) -0.5394(15) -0.4242(5)
H15 H -0.9133(4) -0.5520(14) -0.4081(7)
C9 C -0.80556(15) -0.8525(2) -0.29408(14)
H16 H -0.79194(15) -0.8920(2) -0.36433(14)
H17 H -0.75098(15) -0.9377(2) -0.23257(14)
C10 C -0.44756(14) -0.8725(2) -0.28058(12)
C11 C -0.79043(14) -0.5806(2) -0.16093(12)
H18 H -0.73660(14) -0.6677(2) -0.09882(12)
C12 C -0.97798(16) -0.8167(3) -0.20306(16)
H19 H -0.92890(16) -0.9037(3) -0.14034(16)
H20 H -1.07394(16) -0.8312(3) -0.21641(16)
C13 C -0.38157(15) -0.4801(2) -0.12567(13)
H21 H -0.3475(2) -0.512(2) -0.1858(2)
H22 H -0.34091(19) -0.3604(7) -0.0890(11)
H23 H -0.35959(16) -0.5838(14) -0.0698(9)
C14 C -0.93670(15) -0.6093(2) -0.16653(14)
C15 C -0.95261(16) -0.8796(3) -0.30957(15)
H24 H -1.00860(16) -0.8029(3) -0.37487(15)
H25 H -0.97730(16) -1.0162(3) -0.32538(15)
C16 C -0.94207(18) -0.5868(3) -0.04728(16)
H26 H -0.8760(11) -0.6714(16) 0.0052(3)
H27 H -0.9227(15) -0.4534(6) -0.0225(5)
H28 H -1.0310(5) -0.621(2) -0.0486(3)
C17 C -0.33676(16) -0.6925(3) -0.46985(14)
H29 H -0.3608(9) -0.6584(14) -0.54971(18)
H30 H -0.3452(10) -0.5793(7) -0.427(1)
H31 H -0.2448(2) -0.7387(7) -0.4405(11)
C18 C -0.55023(14) -0.7156(2) -0.32060(12)
H32 H -0.62633(14) -0.7637(2) -0.38542(12)
H33 H -0.51095(14) -0.6059(2) -0.34742(12)
#END
