
#######################################################################
#
#                 Cambridge Crystallographic Data Centre
#                                CCDC
#
#######################################################################
#
# If this CIF has been generated from an entry in the Cambridge
# Structural Database, then it will include bibliographic, chemical,
# crystal, experimental, refinement or atomic coordinate data resulting
# from the CCDC's data processing and validation procedures.
#
#######################################################################

data_CSD_CIF_PATTUC
_audit_creation_date 2017-06-20
_audit_creation_method CSD-ConQuest-V1
_database_code_CSD PATTUC
_database_code_depnum_ccdc_archive 'CCDC 1545446'
_chemical_formula_sum 'C21 H19 N1 O1'
_chemical_formula_moiety
;
C21 H19 N1 O1
;
_journal_coden_Cambridge 1336
_journal_volume 19
_journal_year 2017
_journal_page_first 3135
_journal_name_full 'Org.Lett. '
loop_
_publ_author_name
"Tuanli Yao"
"B.Ren"
"Bo Wang"
"Yanna Zhao"
_chemical_name_systematic
;
3-methyl-3-(4-methylphenyl)-2-phenyl-2,3-dihydro-1,2-benzoxazole
;
_cell_volume   1657.012
_exptl_crystal_colour 'colorless'
_exptl_crystal_density_diffrn 1.208
_exptl_crystal_description 'block'
_diffrn_ambient_temperature 276
#These two values have been output from a single CSD field.
_refine_ls_R_factor_gt 0.085
_refine_ls_wR_factor_gt 0.085
_symmetry_cell_setting monoclinic
_symmetry_space_group_name_H-M 'P 21/c'
_symmetry_Int_Tables_number 14
loop_
_symmetry_equiv_pos_site_id
_symmetry_equiv_pos_as_xyz
1 x,y,z
2 -x,1/2+y,1/2-z
3 -x,-y,-z
4 x,-1/2-y,-1/2+z
_cell_length_a 9.4297(16)
_cell_length_b 9.7758(16)
_cell_length_c 18.503(3)
_cell_angle_alpha 90
_cell_angle_beta 103.717(11)
_cell_angle_gamma 90
_cell_formula_units_Z 4
loop_
_atom_type_symbol
_atom_type_radius_bond
C 0.68
H 0.23
N 0.68
O 0.68
loop_
_atom_site_label
_atom_site_type_symbol
_atom_site_fract_x
_atom_site_fract_y
_atom_site_fract_z
C1 C 0.1954(3) 0.5162(3) 0.43692(14)
C2 C 0.1610(4) 0.3799(4) 0.42925(17)
H1 H 0.10080 0.33850 0.45600
C3 C 0.2213(4) 0.3066(4) 0.37905(19)
H2 H 0.20110 0.21380 0.37180
C4 C 0.3108(4) 0.3705(4) 0.34003(18)
H3 H 0.35120 0.32060 0.30710
C5 C 0.3403(4) 0.5084(4) 0.35003(16)
H4 H 0.39970 0.55170 0.32350
C6 C 0.2822(3) 0.5808(3) 0.39878(14)
C7 C 0.3045(3) 0.7283(3) 0.42567(14)
C8 C 0.4519(3) 0.7399(4) 0.48218(15)
H5 H 0.45250 0.68090 0.52370
H6 H 0.46700 0.83270 0.49920
H7 H 0.52870 0.71330 0.45900
C9 C 0.1902(3) 0.8293(3) 0.52305(14)
C10 C 0.1961(4) 0.7860(4) 0.59413(16)
H8 H 0.19630 0.69290 0.60440
C11 C 0.2017(5) 0.8793(4) 0.65022(18)
H9 H 0.20640 0.84850 0.69830
C12 C 0.2005(4) 1.0145(4) 0.63657(19)
H10 H 0.20320 1.07660 0.67490
C13 C 0.1954(3) 1.0601(4) 0.56667(18)
H11 H 0.19670 1.15360 0.55750
C14 C 0.1884(3) 0.9684(3) 0.50931(16)
H12 H 0.18230 1.00010 0.46130
C15 C 0.2835(3) 0.8309(3) 0.36169(13)
C16 C 0.1474(3) 0.8505(3) 0.31438(15)
H13 H 0.06730 0.80440 0.32370
C17 C 0.1279(3) 0.9363(3) 0.25395(15)
H14 H 0.03480 0.94730 0.22350
C18 C 0.2431(3) 1.0062(3) 0.23753(14)
C19 C 0.3774(3) 0.9887(4) 0.28509(18)
H15 H 0.45700 1.03570 0.27590
C20 C 0.3983(3) 0.9030(4) 0.34669(17)
H16 H 0.49090 0.89430 0.37800
C21 C 0.2219(4) 1.0979(4) 0.16987(18)
H17 H 0.27620 1.18100 0.18300
H18 H 0.12010 1.11910 0.15230
H19 H 0.25590 1.05180 0.13140
N1 N 0.1748(2) 0.7389(3) 0.46045(12)
O1 O 0.1482(2) 0.6012(2) 0.48600(11)
#END
