
#######################################################################
#
#                 Cambridge Crystallographic Data Centre
#                                CCDC
#
#######################################################################
#
# If this CIF has been generated from an entry in the Cambridge
# Structural Database, then it will include bibliographic, chemical,
# crystal, experimental, refinement or atomic coordinate data resulting
# from the CCDC's data processing and validation procedures.
#
#######################################################################

data_CSD_CIF_PATTIQ
_audit_creation_date 2017-06-20
_audit_creation_method CSD-ConQuest-V1
_database_code_CSD PATTIQ
_database_code_depnum_ccdc_archive 'CCDC 1544982'
_chemical_formula_sum 'C16 H18 N2 O8'
_chemical_formula_moiety
;
C16 H18 N2 O8
;
_journal_coden_Cambridge 1336
_journal_volume 19
_journal_year 2017
_journal_page_first 3231
_journal_name_full 'Org.Lett. '
loop_
_publ_author_name
"Yun-Ting Liu"
"Ji-Qiang Chen"
"Lin-Ping Li"
"Xin-Yang Shao"
"Jian-Hua Xie"
"Qi-Lin Zhou"
_chemical_name_systematic
;
2-(ethoxycarbonyl)-3-methylcyclopentyl 3,5-dinitrobenzoate
;
_cell_volume   1763.029
_exptl_crystal_colour 'colorless'
_exptl_crystal_density_diffrn 1.376
_exptl_special_details
;
Absolute configuration

;
_exptl_crystal_description 'needle'
_diffrn_ambient_temperature 293
#These two values have been output from a single CSD field.
_refine_ls_R_factor_gt 0.0327
_refine_ls_wR_factor_gt 0.0327
_symmetry_cell_setting orthorhombic
_symmetry_space_group_name_H-M 'P 21 21 21'
_symmetry_Int_Tables_number 19
loop_
_symmetry_equiv_pos_site_id
_symmetry_equiv_pos_as_xyz
1 x,y,z
2 1/2-x,-y,1/2+z
3 -x,1/2+y,1/2-z
4 1/2+x,1/2-y,-z
_cell_length_a 5.70057(9)
_cell_length_b 9.90810(15)
_cell_length_c 31.2141(4)
_cell_angle_alpha 90
_cell_angle_beta 90
_cell_angle_gamma 90
_cell_formula_units_Z 4
loop_
_atom_type_symbol
_atom_type_radius_bond
C 0.68
H 0.23
N 0.68
O 0.68
loop_
_atom_site_label
_atom_site_type_symbol
_atom_site_fract_x
_atom_site_fract_y
_atom_site_fract_z
O1 O 0.5594(2) 0.62016(13) 0.38049(4)
O2 O 0.2414(3) 0.68930(16) 0.41690(5)
O3 O 0.9331(4) 0.4519(2) 0.32986(9)
O4 O 0.5784(4) 0.3675(2) 0.32055(8)
O5 O 1.1370(3) 0.34184(19) 0.44919(6)
O6 O 1.1620(3) 0.33486(15) 0.51788(5)
O7 O 0.5310(4) 0.5166(2) 0.60302(5)
O8 O 0.2482(3) 0.62291(18) 0.57178(5)
N1 N 1.0674(3) 0.37130(15) 0.48473(6)
N2 N 0.4383(3) 0.56603(16) 0.57154(5)
C1 C 0.4520(4) 0.65343(19) 0.33926(6)
H1 H 0.29480 0.61440 0.33650
C2 C 0.6219(4) 0.5968(2) 0.30565(6)
H2 H 0.53440 0.58050 0.27910
C3 C 0.7972(5) 0.7111(3) 0.29769(8)
H3 H 0.90430 0.71580 0.32220
C4 C 0.6394(7) 0.8343(3) 0.29868(11)
H4 H 0.56900 0.84900 0.27080
H5 H 0.72870 0.91390 0.30650
C5 C 0.4504(5) 0.8062(2) 0.33205(7)
H6 H 0.29820 0.83550 0.32170
H7 H 0.48500 0.85340 0.35850
C6 C 0.7332(5) 0.4659(2) 0.31961(7)
C7 C 0.6513(9) 0.2385(3) 0.33738(17)
H8 H 0.78050 0.19050 0.32740
C8 C 0.5098(12) 0.1955(5) 0.36938(16)
H9 H 0.34890 0.20670 0.36100
H10 H 0.54000 0.24730 0.39480
H11 H 0.54000 0.10180 0.37500
C9 C 0.9430(7) 0.6960(4) 0.25701(10)
H12 H 1.03010 0.61310 0.25820
H13 H 1.04980 0.77050 0.25470
H14 H 0.84100 0.69480 0.23250
C10 C 0.4336(3) 0.63925(17) 0.41566(6)
C11 C 0.5585(3) 0.58670(16) 0.45434(5)
C12 C 0.7639(3) 0.51114(16) 0.45109(5)
H15 H 0.83580 0.49740 0.42470
C13 C 0.8579(3) 0.45729(16) 0.48810(6)
C14 C 0.7605(3) 0.47545(17) 0.52813(5)
H16 H 0.82800 0.43850 0.55260
C15 C 0.5574(3) 0.55136(16) 0.53000(5)
C16 C 0.4546(3) 0.60738(16) 0.49412(5)
H17 H 0.31800 0.65820 0.49650
#END
