
#######################################################################
#
#                 Cambridge Crystallographic Data Centre
#                                CCDC
#
#######################################################################
#
# If this CIF has been generated from an entry in the Cambridge
# Structural Database, then it will include bibliographic, chemical,
# crystal, experimental, refinement or atomic coordinate data resulting
# from the CCDC's data processing and validation procedures.
#
#######################################################################

data_CSD_CIF_PATVIS
_audit_creation_date 2017-06-20
_audit_creation_method CSD-ConQuest-V1
_database_code_CSD PATVIS
_database_code_depnum_ccdc_archive 'CCDC 1545450'
_chemical_formula_sum 'C25 H19 N1 O1'
_chemical_formula_moiety
;
C25 H19 N1 O1
;
_journal_coden_Cambridge 1336
_journal_volume 19
_journal_year 2017
_journal_page_first 3135
_journal_name_full 'Org.Lett. '
loop_
_publ_author_name
"Tuanli Yao"
"B.Ren"
"Bo Wang"
"Yanna Zhao"
_chemical_name_systematic
;
2,3,3-triphenyl-2,3-dihydro-1,2-benzoxazole
;
_cell_volume   1850.065
_exptl_crystal_colour 'colorless'
_exptl_crystal_density_diffrn 1.254
_exptl_crystal_description 'block'
_diffrn_ambient_temperature 296
#These two values have been output from a single CSD field.
_refine_ls_R_factor_gt 0.0845
_refine_ls_wR_factor_gt 0.0845
_symmetry_cell_setting monoclinic
_symmetry_space_group_name_H-M 'P 21/c'
_symmetry_Int_Tables_number 14
loop_
_symmetry_equiv_pos_site_id
_symmetry_equiv_pos_as_xyz
1 x,y,z
2 -x,1/2+y,1/2-z
3 -x,-y,-z
4 x,-1/2-y,-1/2+z
_cell_length_a 10.4008(8)
_cell_length_b 19.8632(15)
_cell_length_c 8.9591(7)
_cell_angle_alpha 90
_cell_angle_beta 91.710(2)
_cell_angle_gamma 90
_cell_formula_units_Z 4
loop_
_atom_type_symbol
_atom_type_radius_bond
C 0.68
H 0.23
N 0.68
O 0.68
loop_
_atom_site_label
_atom_site_type_symbol
_atom_site_fract_x
_atom_site_fract_y
_atom_site_fract_z
C1 C 0.7159(2) 0.42601(12) 0.4814(3)
C2 C 0.7140(2) 0.41333(12) 0.6501(3)
C3 C 0.6040(2) 0.36787(12) 0.6980(3)
C4 C 0.9109(2) 0.34087(13) 0.6115(3)
C5 C 0.7163(2) 0.47824(12) 0.7392(3)
C6 C 0.6917(3) 0.37365(14) 0.3818(3)
H1 H 0.66980 0.33140 0.41780
C7 C 0.8398(3) 0.49165(14) 0.7869(3)
C8 C 0.8826(3) 0.27315(14) 0.6132(3)
H2 H 0.81960 0.25700 0.67550
C9 C 0.7500(3) 0.48773(14) 0.4239(3)
H3 H 0.76630 0.52360 0.48840
C10 C 0.6178(3) 0.32824(14) 0.8248(3)
H4 H 0.69660 0.32690 0.87660
C11 C 0.6187(3) 0.52209(14) 0.7726(3)
H5 H 0.53410 0.51330 0.74210
C12 C 0.4857(3) 0.36996(15) 0.6249(3)
H6 H 0.47370 0.39710 0.54120
C13 C 0.6999(3) 0.38353(16) 0.2292(3)
H7 H 0.68260 0.34810 0.16370
C14 C 1.0052(3) 0.36424(16) 0.5195(3)
H8 H 1.02470 0.40990 0.51700
C15 C 0.7602(3) 0.49710(17) 0.2720(3)
H9 H 0.78530 0.53880 0.23550
C16 C 0.9472(3) 0.22907(16) 0.5229(4)
H10 H 0.92650 0.18350 0.52330
C17 C 0.7334(3) 0.44533(18) 0.1745(3)
H11 H 0.73800 0.45210 0.07210
C18 C 0.6502(4) 0.57978(16) 0.8531(4)
H12 H 0.58590 0.61020 0.87680
C19 C 0.8736(3) 0.54879(16) 0.8658(3)
H13 H 0.95850 0.55730 0.89570
C20 C 0.7760(4) 0.59260(17) 0.8983(4)
H14 H 0.79500 0.63160 0.95190
C21 C 1.0419(3) 0.25206(19) 0.4325(4)
H15 H 1.08630 0.22230 0.37280
C22 C 1.0703(3) 0.3195(2) 0.4312(4)
H16 H 1.13430 0.33530 0.37000
C23 C 0.4003(3) 0.29162(17) 0.8006(5)
H17 H 0.33270 0.26540 0.83350
C24 C 0.5161(3) 0.29073(15) 0.8754(4)
H18 H 0.52690 0.26470 0.96110
C25 C 0.3839(3) 0.33163(18) 0.6757(5)
H19 H 0.30450 0.33300 0.62520
N1 N 0.8408(2) 0.38326(10) 0.7093(2)
O1 O 0.92446(19) 0.44231(10) 0.7457(2)
#END
