
#######################################################################
#
#                 Cambridge Crystallographic Data Centre
#                                CCDC
#
#######################################################################
#
# If this CIF has been generated from an entry in the Cambridge
# Structural Database, then it will include bibliographic, chemical,
# crystal, experimental, refinement or atomic coordinate data resulting
# from the CCDC's data processing and validation procedures.
#
#######################################################################

data_CSD_CIF_PAVCIZ
_audit_creation_date 2006-02-07
_audit_creation_method CSD-ConQuest-V1
_database_code_CSD PAVCIZ
_database_code_depnum_ccdc_archive 'CCDC 286481'
_chemical_formula_sum 'C22 H18 N4 O12'
_chemical_formula_moiety
;
C22 H18 N4 O12
;
_journal_coden_Cambridge 179
_journal_volume 44
_journal_year 2005
_journal_page_first 5860
_journal_name_full 'Angew.Chem.,Int.Ed. '
loop_
_publ_author_name
"K.Nomura"
"K.Oshima"
"S.Matsubara"
_chemical_name_systematic
;
1-Methylspiro(2.4)heptane-1,4-diyl bis(3,5-dinitrobenzoate)
;
_cell_volume   2335.825
_exptl_crystal_density_diffrn 1.508
_diffrn_ambient_temperature 293
#These two values have been output from a single CSD field.
_refine_ls_R_factor_gt 0.0838
_refine_ls_wR_factor_gt 0.0838
_symmetry_cell_setting monoclinic
_symmetry_space_group_name_H-M 'P 21/c'
_symmetry_Int_Tables_number 14
loop_
_symmetry_equiv_pos_site_id
_symmetry_equiv_pos_as_xyz
1 x,y,z
2 -x,1/2+y,1/2-z
3 -x,-y,-z
4 x,-1/2-y,-1/2+z
_cell_length_a 5.9500(9)
_cell_length_b 22.439(3)
_cell_length_c 17.496(3)
_cell_angle_alpha 90
_cell_angle_beta 90.536(3)
_cell_angle_gamma 90
_cell_formula_units_Z 4
loop_
_atom_type_symbol
_atom_type_radius_bond
C 0.68
H 0.23
N 0.68
O 0.68
loop_
_atom_site_label
_atom_site_type_symbol
_atom_site_fract_x
_atom_site_fract_y
_atom_site_fract_z
O1 O 0.2361(4) 0.64579(11) 0.19658(15)
O2 O 0.2406(4) 0.68579(11) 0.36875(14)
C1 C 0.3290(6) 0.70068(16) 0.20210(18)
O3 O 0.5128(5) 0.71076(13) 0.22856(15)
O4 O -0.0744(5) 0.71753(13) 0.42566(18)
C2 C 0.2424(7) 0.80613(17) 0.1828(2)
H1 H 0.37560 0.81510 0.20860
C3 C 0.4288(6) 0.79796(17) 0.3739(2)
H2 H 0.49870 0.76950 0.34360
C4 C 0.1305(7) 0.82778(16) 0.4579(2)
H3 H -0.00440 0.81990 0.48240
C5 C 0.1121(6) 0.72623(16) 0.4032(2)
N1 N -0.3577(6) 0.7669(2) 0.06210(18)
O5 O -0.3989(6) 0.71459(17) 0.05010(18)
C6 C -0.1494(7) 0.78077(18) 0.1045(2)
C7 C 0.1430(6) 0.62671(16) 0.3596(2)
H4 H -0.00380 0.62830 0.33380
C8 C 0.2292(6) 0.78519(15) 0.41084(18)
C9 C 0.5213(7) 0.85394(17) 0.3833(2)
O6 O -0.4760(6) 0.80832(19) 0.0415(2)
N2 N 0.7234(6) 0.86933(18) 0.3398(2)
C10 C -0.0224(6) 0.73444(17) 0.13330(19)
H5 H -0.06960 0.69520 0.12720
C11 C 0.1772(6) 0.74735(16) 0.17149(18)
C12 C 0.2087(7) 0.54771(17) 0.2557(3)
H6 H 0.26860 0.50760 0.25250
H7 H 0.04940 0.55120 0.24430
C13 C -0.0919(7) 0.83999(19) 0.1150(2)
H8 H -0.18130 0.87070 0.09610
C14 C 0.2381(7) 0.88205(16) 0.4674(2)
O7 O 0.7913(7) 0.8321(2) 0.2940(2)
N3 N 0.1345(8) 0.92529(16) 0.5199(2)
C15 C 0.4319(7) 0.89694(18) 0.4305(2)
H9 H 0.49960 0.93400 0.43690
C16 C 0.3087(6) 0.58920(16) 0.3158(2)
O8 O 0.8142(7) 0.91669(17) 0.3518(2)
O9 O -0.0443(8) 0.91292(15) 0.5487(2)
C17 C 0.1050(7) 0.85109(18) 0.1550(2)
C18 C 0.3572(7) 0.59775(17) 0.2330(2)
C19 C 0.130(1) 0.5940(2) 0.4370(3)
H10 H 0.11870 0.62250 0.47850
H11 H -0.00060 0.56820 0.43810
O10 O 0.2371(8) 0.97158(17) 0.5328(3)
O11 O 0.0670(9) 0.95213(17) 0.1390(3)
N4 N 0.1765(9) 0.91308(17) 0.1679(3)
C20 C 0.4802(9) 0.5683(2) 0.3749(3)
H12 H 0.59390 0.59850 0.38410
H13 H 0.55290 0.53180 0.35870
C21 C 0.5816(9) 0.5835(2) 0.1977(3)
H14 H 0.56920 0.58620 0.14310
H15 H 0.62600 0.54380 0.21180
H16 H 0.69230 0.61140 0.21580
O12 O 0.3454(10) 0.92166(18) 0.2069(3)
C22 C 0.3415(10) 0.5580(3) 0.4452(3)
H17 H 0.42460 0.57030 0.49050
H18 H 0.30540 0.51600 0.45010
#END
