
#######################################################################
#
#                 Cambridge Crystallographic Data Centre
#                                CCDC
#
#######################################################################
#
# If this CIF has been generated from an entry in the Cambridge
# Structural Database, then it will include bibliographic, chemical,
# crystal, experimental, refinement or atomic coordinate data resulting
# from the CCDC's data processing and validation procedures.
#
#######################################################################

data_CSD_CIF_PAVDOH
_audit_creation_date 2012-07-11
_audit_creation_method CSD-ConQuest-V1
_database_code_CSD PAVDOH
_database_code_depnum_ccdc_archive 'CCDC 886863'
_chemical_formula_sum 'C15 H13 N3 O3'
_chemical_formula_moiety
;
C15 H13 N3 O3
;
_journal_coeditor_code "IUCr HB6769"
_journal_coden_Cambridge 1370
_journal_volume 68
_journal_year 2012
_journal_page_first o1613
_journal_name_full 'Acta Crystallogr.,Sect.E:Struct.Rep.Online '
loop_
_publ_author_name
"Hua-Nan Hu"
"Shi-Yong Liu"
_chemical_name_systematic
;
(E)-4-Methyl-N'-(3-nitrobenzylidene)benzohydrazide
;
_cell_volume   1369.123
_exptl_crystal_colour 'yellow'
_exptl_crystal_density_diffrn 1.374
_exptl_crystal_description 'block'
_diffrn_ambient_temperature 298
#These two values have been output from a single CSD field.
_refine_ls_R_factor_gt 0.0487
_refine_ls_wR_factor_gt 0.0487
_symmetry_cell_setting orthorhombic
_symmetry_space_group_name_H-M 'P c a 21'
_symmetry_Int_Tables_number 29
loop_
_symmetry_equiv_pos_site_id
_symmetry_equiv_pos_as_xyz
1 x,y,z
2 -x,-y,1/2+z
3 1/2+x,-y,z
4 1/2-x,y,1/2+z
_cell_length_a 32.657(3)
_cell_length_b 4.7861(15)
_cell_length_c 8.7596(12)
_cell_angle_alpha 90
_cell_angle_beta 90
_cell_angle_gamma 90
_cell_formula_units_Z 4
loop_
_atom_type_symbol
_atom_type_radius_bond
C 0.68
H 0.23
N 0.68
O 0.68
loop_
_atom_site_label
_atom_site_type_symbol
_atom_site_fract_x
_atom_site_fract_y
_atom_site_fract_z
N1 N 0.85121(8) 0.5734(5) 0.4452(2)
N2 N 0.70734(7) 0.2646(4) 0.2869(3)
N3 N 0.66666(7) 0.2015(4) 0.2812(3)
O1 O 0.88853(7) 0.5929(5) 0.4514(3)
O2 O 0.82822(7) 0.7214(4) 0.5169(2)
O3 O 0.64841(6) 0.6273(4) 0.3664(2)
C1 C 0.77578(8) 0.1201(5) 0.2510(3)
C2 C 0.79253(8) 0.3213(5) 0.3444(3)
H1 H 0.77580 0.42890 0.40720
C3 C 0.83377(8) 0.3605(5) 0.3438(3)
C4 C 0.85976(8) 0.2118(6) 0.2508(3)
H2 H 0.88780 0.24480 0.25210
C5 C 0.84325(9) 0.0139(6) 0.1563(3)
H3 H 0.86010 -0.08810 0.09140
C6 C 0.80177(8) -0.0341(5) 0.1572(3)
H4 H 0.79090 -0.17170 0.09420
C7 C 0.73153(8) 0.0702(6) 0.2463(3)
H5 H 0.72130 -0.10120 0.21400
C8 C 0.63869(8) 0.3942(5) 0.3216(3)
C9 C 0.59528(8) 0.3070(5) 0.3091(3)
C10 C 0.56597(9) 0.4440(6) 0.3943(4)
H6 H 0.57390 0.58410 0.46170
C11 C 0.52522(10) 0.3763(7) 0.3809(4)
H7 H 0.50620 0.46800 0.44180
C12 C 0.51204(9) 0.1772(7) 0.2801(4)
C13 C 0.54139(9) 0.0401(7) 0.1948(3)
H8 H 0.53330 -0.09880 0.12690
C14 C 0.58242(9) 0.1047(6) 0.2083(3)
H9 H 0.60150 0.01070 0.14880
C15 C 0.46734(9) 0.0998(9) 0.2613(5)
H10 H 0.45050 0.24890 0.29900
H11 H 0.46170 -0.06780 0.31770
H12 H 0.46150 0.06920 0.15510
H13 H 0.6588(7) 0.025(3) 0.266(3)
#END
