
#######################################################################
#
#                 Cambridge Crystallographic Data Centre
#                                CCDC
#
#######################################################################
#
# If this CIF has been generated from an entry in the Cambridge
# Structural Database, then it will include bibliographic, chemical,
# crystal, experimental, refinement or atomic coordinate data resulting
# from the CCDC's data processing and validation procedures.
#
#######################################################################

data_CSD_CIF_PAVFEZ
_audit_creation_date 2012-07-11
_audit_creation_method CSD-ConQuest-V1
_database_code_CSD PAVFEZ
_database_code_depnum_ccdc_archive 'CCDC 886866'
_chemical_formula_sum 'C19 H19 N1 O4'
_chemical_formula_moiety
;
C19 H19 N1 O4
;
_journal_coeditor_code "IUCr BT5884"
_journal_coden_Cambridge 1370
_journal_volume 68
_journal_year 2012
_journal_page_first o1617
_journal_name_full 'Acta Crystallogr.,Sect.E:Struct.Rep.Online '
loop_
_publ_author_name
"G.Ganesh"
"J.Srinivasan"
"E.Govindan"
"M.Bakthadoss"
"A.SubbiahPandi"
_chemical_name_systematic
;
Methyl 
(E)-2-((2-[(E)-(hydroxyimino)methyl]phenoxy)methyl)-3-(4-methylphenyl)acrylate

;
_cell_volume    856.043
_exptl_crystal_colour 'white'
_exptl_crystal_density_diffrn 1.262
_exptl_crystal_description 'block'
_diffrn_ambient_temperature 293
#These two values have been output from a single CSD field.
_refine_ls_R_factor_gt 0.0452
_refine_ls_wR_factor_gt 0.0452
_symmetry_cell_setting triclinic
_symmetry_space_group_name_H-M 'P -1'
_symmetry_Int_Tables_number 2
loop_
_symmetry_equiv_pos_site_id
_symmetry_equiv_pos_as_xyz
1 x,y,z
2 -x,-y,-z
_cell_length_a 8.8683(2)
_cell_length_b 9.3246(2)
_cell_length_c 11.9259(3)
_cell_angle_alpha 75.200(2)
_cell_angle_beta 76.453(2)
_cell_angle_gamma 65.142(1)
_cell_formula_units_Z 2
loop_
_atom_type_symbol
_atom_type_radius_bond
C 0.68
H 0.23
N 0.68
O 0.68
loop_
_atom_site_label
_atom_site_type_symbol
_atom_site_fract_x
_atom_site_fract_y
_atom_site_fract_z
C1 C 0.30137(15) 0.78709(15) 0.40342(11)
H1 H 0.38390 0.82440 0.36070
C2 C 0.32860(14) 0.61892(14) 0.41323(10)
C3 C 0.24555(17) 0.54149(16) 0.50493(12)
H2 H 0.17010 0.59770 0.56230
C4 C 0.2729(2) 0.38274(18) 0.51246(13)
H3 H 0.21610 0.33250 0.57430
C5 C 0.38495(19) 0.29887(16) 0.42785(13)
H4 H 0.40270 0.19200 0.43260
C6 C 0.47131(16) 0.37155(15) 0.33607(12)
H5 H 0.54700 0.31390 0.27950
C7 C 0.44431(14) 0.53102(13) 0.32886(10)
C8 C 0.64247(16) 0.53394(14) 0.15207(11)
H6 H 0.58490 0.51350 0.10170
H7 H 0.72250 0.43200 0.18590
C9 C 0.73103(15) 0.64103(15) 0.08311(11)
C10 C 0.89857(17) 0.60977(17) 0.11066(13)
C11 C 1.0978(2) 0.4600(3) 0.24022(17)
H8 H 1.18010 0.45650 0.17130
H9 H 1.13070 0.35710 0.29080
H10 H 1.08990 0.54020 0.28070
C12 C 0.67354(16) 0.76491(15) -0.00294(11)
H11 H 0.74500 0.81930 -0.03590
C13 C 0.51907(16) 0.82972(14) -0.05413(11)
C14 C 0.37187(17) 0.80613(17) -0.00162(12)
H12 H 0.36630 0.74670 0.07370
C15 C 0.23412(19) 0.86949(18) -0.05950(14)
H13 H 0.13780 0.85060 -0.02280
C16 C 0.23571(19) 0.96063(17) -0.17098(13)
C17 C 0.3798(2) 0.98842(18) -0.22200(13)
H14 H 0.38330 1.05120 -0.29620
C18 C 0.51779(19) 0.92530(16) -0.16541(12)
H15 H 0.61290 0.94660 -0.20200
C19 C 0.0852(3) 1.0257(3) -0.23393(18)
H16 H 0.00300 0.98400 -0.18860
H17 H 0.11920 0.99370 -0.30930
H18 H 0.03760 1.14080 -0.24400
N1 N 0.16707(14) 0.88269(13) 0.45217(10)
O1 O 0.16721(14) 1.03758(12) 0.43411(11)
H19 H 0.07660 1.09770 0.46350
O2 O 0.52349(11) 0.61418(10) 0.24323(7)
O3 O 0.99150(15) 0.67203(16) 0.05342(13)
O4 O 0.93678(13) 0.49931(16) 0.20693(9)
H20? H 0.06180 0.93820 -0.24330
H21? H -0.01020 1.09450 -0.18900
H22? H 0.10820 1.08580 -0.30960
#END
