
#######################################################################
#
#                 Cambridge Crystallographic Data Centre
#                                CCDC
#
#######################################################################
#
# If this CIF has been generated from an entry in the Cambridge
# Structural Database, then it will include bibliographic, chemical,
# crystal, experimental, refinement or atomic coordinate data resulting
# from the CCDC's data processing and validation procedures.
#
#######################################################################

data_CSD_CIF_PAVJAY01
_audit_creation_date 2014-09-10
_audit_creation_method CSD-ConQuest-V1
_database_code_CSD PAVJAY01
_database_code_depnum_ccdc_archive 'CCDC 1023609'
_chemical_formula_sum 'C14 H10 N2 O6'
_chemical_formula_moiety
;
C14 H10 N2 O6
;
_journal_coden_Cambridge 1078
_journal_year 2014
_journal_name_full 'CSD Communication(Private Communication) '
loop_
_publ_author_name
"J.M.White"
"N.Fifer"
_chemical_name_systematic
;
p-Tolyl 3,5-dinitrobenzoate
;
_cell_volume   1322.232
_exptl_crystal_colour 'colorless'
_exptl_crystal_density_diffrn 1.518
_exptl_crystal_description 'plate'
_exptl_crystal_preparation 'Methanol'
_diffrn_ambient_temperature 130
#These two values have been output from a single CSD field.
_refine_ls_R_factor_gt 0.0324
_refine_ls_wR_factor_gt 0.0324
_symmetry_cell_setting orthorhombic
_symmetry_space_group_name_H-M 'P 21 21 21'
_symmetry_Int_Tables_number 19
loop_
_symmetry_equiv_pos_site_id
_symmetry_equiv_pos_as_xyz
1 x,y,z
2 1/2-x,-y,1/2+z
3 -x,1/2+y,1/2-z
4 1/2+x,1/2-y,-z
_cell_length_a 6.3681(8)
_cell_length_b 7.9896(10)
_cell_length_c 25.988(3)
_cell_angle_alpha 90
_cell_angle_beta 90
_cell_angle_gamma 90
_cell_formula_units_Z 4
loop_
_atom_type_symbol
_atom_type_radius_bond
C 0.68
H 0.23
N 0.68
O 0.68
loop_
_atom_site_label
_atom_site_type_symbol
_atom_site_fract_x
_atom_site_fract_y
_atom_site_fract_z
O1 O 1.6726(3) 0.9729(3) 0.10892(7)
C1 C 0.8466(5) 0.8263(4) 0.31283(10)
N1 N 1.5635(4) 0.9627(3) 0.14734(9)
O2 O 0.9647(3) 0.8391(2) 0.26663(6)
O3 O 1.6092(3) 1.0237(3) 0.18908(7)
O4 O 0.7459(3) 0.6677(2) 0.22364(7)
C2 C 1.3646(5) 0.8703(3) 0.14324(10)
C3 C 1.2368(4) 0.8590(3) 0.18597(10)
H1 H 1.27650 0.90940 0.21760
C4 C 1.3140(5) 0.8015(3) 0.09644(10)
H2 H 1.40340 0.81290 0.06740
O5 O 0.8968(4) 0.5637(3) 0.04300(9)
C5 C 1.0499(5) 0.7728(3) 0.18161(10)
O6 O 1.1829(5) 0.6517(3) 0.00816(8)
C6 C 0.6504(5) 0.8956(4) 0.31627(11)
H3 H 0.58670 0.94800 0.28740
N2 N 1.0650(5) 0.6382(3) 0.04456(9)
C7 C 0.9951(5) 0.6994(3) 0.13494(10)
H4 H 0.86720 0.63900 0.13180
C8 C 0.9430(5) 0.7521(4) 0.35378(10)
H5 H 1.07980 0.70590 0.35050
C9 C 1.1266(5) 0.7148(3) 0.09362(10)
C10 C 0.8374(5) 0.7457(4) 0.40008(10)
H6 H 0.90350 0.69500 0.42890
C11 C 0.9007(5) 0.7521(4) 0.22531(10)
C12 C 0.5482(5) 0.8869(4) 0.3630(1)
H7 H 0.41210 0.93450 0.36610
C13 C 0.6378(5) 0.8111(4) 0.40551(10)
C14 C 0.5214(6) 0.8016(4) 0.45604(10)
H8 H 0.56410 0.89510 0.47810
H9 H 0.55450 0.69560 0.47320
H10 H 0.36990 0.80780 0.44970
#END
