
#######################################################################
#
#                 Cambridge Crystallographic Data Centre
#                                CCDC
#
#######################################################################
#
# If this CIF has been generated from an entry in the Cambridge
# Structural Database, then it will include bibliographic, chemical,
# crystal, experimental, refinement or atomic coordinate data resulting
# from the CCDC's data processing and validation procedures.
#
#######################################################################

data_CSD_CIF_PAVMOQ
_audit_creation_date 2012-07-11
_audit_creation_method CSD-ConQuest-V1
_database_code_CSD PAVMOQ
_database_code_depnum_ccdc_archive 'CCDC 886898'
_chemical_formula_sum 'C16 H16 N4 O1'
_chemical_formula_moiety
;
C16 H16 N4 O1
;
_journal_coeditor_code "IUCr DS2183"
_journal_coden_Cambridge 1370
_journal_volume 68
_journal_year 2012
_journal_page_first o1661
_journal_name_full 'Acta Crystallogr.,Sect.E:Struct.Rep.Online '
loop_
_publ_author_name
"Chandra"
"N.Srikantamurthy"
"K.B.Umesha"
"S.Jeyaseelan"
"M.Mahendra"
_chemical_name_systematic
;
(E)-N'-Hydroxy-1,3-diphenyl-4,5-dihydro-1H-pyrazole-5-carboximidamide
;
_chemical_melting_point 481
_cell_volume    716.805
_exptl_crystal_colour 'yellow'
_exptl_crystal_density_diffrn 1.299
_exptl_crystal_description 'block'
_diffrn_ambient_temperature 293
#These two values have been output from a single CSD field.
_refine_ls_R_factor_gt 0.0534
_refine_ls_wR_factor_gt 0.0534
_symmetry_cell_setting triclinic
_symmetry_space_group_name_H-M 'P -1'
_symmetry_Int_Tables_number 2
loop_
_symmetry_equiv_pos_site_id
_symmetry_equiv_pos_as_xyz
1 x,y,z
2 -x,-y,-z
_cell_length_a 7.845(11)
_cell_length_b 8.940(12)
_cell_length_c 11.116(15)
_cell_angle_alpha 99.50(2)
_cell_angle_beta 99.76(2)
_cell_angle_gamma 106.70(2)
_cell_formula_units_Z 2
loop_
_atom_type_symbol
_atom_type_radius_bond
C 0.68
H 0.23
N 0.68
O 0.68
loop_
_atom_site_label
_atom_site_type_symbol
_atom_site_fract_x
_atom_site_fract_y
_atom_site_fract_z
O1 O -0.5121(2) 0.68205(19) -0.45801(14)
N1 N 0.0152(2) 0.8338(2) -0.12879(14)
N2 N 0.0582(2) 0.81960(19) -0.00444(14)
N3 N -0.3248(3) 0.8676(2) -0.24261(16)
N4 N -0.3688(2) 0.6340(2) -0.39332(14)
C1 C -0.1393(3) 0.6924(2) -0.20673(17)
C2 C -0.0671(3) 0.6971(2) 0.01121(17)
C3 C -0.2139(3) 0.6106(3) -0.10645(18)
C4 C -0.2839(3) 0.7360(2) -0.28863(16)
C5 C 0.1498(3) 0.9301(2) -0.17755(17)
C6 C 0.3162(3) 1.0346(3) -0.09989(18)
C7 C 0.4414(3) 1.1360(3) -0.1493(2)
C8 C 0.4073(3) 1.1382(3) -0.2751(2)
C9 C 0.2440(3) 1.0334(3) -0.3529(2)
C10 C 0.1173(3) 0.9290(3) -0.30604(19)
C11 C -0.0716(3) 0.6542(2) 0.13341(18)
C12 C 0.0704(3) 0.7310(3) 0.24058(19)
C13 C 0.0566(4) 0.6911(3) 0.3551(2)
C14 C -0.1001(4) 0.5748(4) 0.3648(2)
C15 C -0.2370(4) 0.4957(4) 0.2606(3)
C16 C -0.2240(3) 0.5340(3) 0.1455(2)
H1 H -0.09220 0.62150 -0.25880
H2 H -0.32990 0.62440 -0.09850
H3 H -0.22930 0.49700 -0.12590
H4 H -0.41430 0.88920 -0.28410
H5 H -0.26140 0.92980 -0.17180
H6 H -0.57860 0.60770 -0.51580
H7 H 0.34250 1.03590 -0.01490
H8 H 0.55100 1.20410 -0.09660
H9 H 0.49130 1.20810 -0.30680
H10 H 0.21920 1.03300 -0.43780
H11 H 0.01040 0.85810 -0.36010
H12 H 0.17460 0.80920 0.23490
H13 H 0.15190 0.74200 0.42530
H14 H -0.11120 0.55120 0.44210
H15 H -0.33940 0.41570 0.26670
H16 H -0.31800 0.47900 0.07530
#END
