
#######################################################################
#
#                 Cambridge Crystallographic Data Centre
#                                CCDC
#
#######################################################################
#
# If this CIF has been generated from an entry in the Cambridge
# Structural Database, then it will include bibliographic, chemical,
# crystal, experimental, refinement or atomic coordinate data resulting
# from the CCDC's data processing and validation procedures.
#
#######################################################################

data_CSD_CIF_PAVNOP
_audit_creation_date 1993-09-30
_audit_creation_method CSD-ConQuest-V1
_database_code_CSD PAVNOP
_chemical_formula_sum 'C16 H26 N2 O4'
_chemical_formula_moiety
;
C16 H26 N2 O4
;
_journal_coden_Cambridge 4
_journal_volume 115
_journal_year 1993
_journal_page_first 847
_journal_name_full 'J.Am.Chem.Soc. '
loop_
_publ_author_name
"F.Kanno"
"K.Inoue"
"N.Koga"
"H.Iwamura"
_chemical_name_systematic
;
4,6-Dimethoxy-1,3-phenylene-bis(N-t-butylnitroxide)
;
_chemical_melting_point 421.15
_cell_volume    859.735
_exptl_crystal_colour 'orange'
_exptl_crystal_density_diffrn 1.199
_diffrn_ambient_temperature ?
_diffrn_special_details
;
The study was carried out at room temperature,in the range 283-303K

;
#These two values have been output from a single CSD field.
_refine_ls_R_factor_gt 0.04
_refine_ls_wR_factor_gt 0.04
_symmetry_cell_setting monoclinic
_symmetry_space_group_name_H-M 'P 21'
_symmetry_Int_Tables_number 4
loop_
_symmetry_equiv_pos_site_id
_symmetry_equiv_pos_as_xyz
1 x,y,z
2 -x,1/2+y,-z
_cell_length_a 9.8914(8)
_cell_length_b 7.904(3)
_cell_length_c 11.4547(6)
_cell_angle_alpha 90
_cell_angle_beta 106.258(5)
_cell_angle_gamma 90
_cell_formula_units_Z 2
loop_
_atom_type_symbol
_atom_type_radius_bond
C 0.68
H 0.23
N 0.68
O 0.68
loop_
_atom_site_label
_atom_site_type_symbol
_atom_site_fract_x
_atom_site_fract_y
_atom_site_fract_z
O1 O 0.9391(2) 0.34480 0.8977(2)
C1 C 1.0254(3) 0.3295(7) 1.1184(3)
C2 C 0.7567(3) 0.4149(7) 1.1242(3)
N1 N 0.6774(3) 0.4323(7) 0.9034(3)
O2 O 1.0905(2) 0.3224(6) 1.3383(2)
C3 C 0.9945(4) 0.3460(7) 1.2285(3)
N2 N 0.8264(3) 0.4107(6) 1.3454(3)
C4 C 0.9201(3) 0.3566(7) 1.0107(3)
C5 C 0.8594(4) 0.3885(7) 1.2319(3)
C6 C 0.7848(3) 0.3985(7) 1.0139(3)
C7 C 0.5769(4) 0.3011(7) 0.8368(3)
O3 O 0.6485(3) 0.5885(6) 0.8781(3)
C8 C 0.7889(4) 0.2700(8) 1.4166(3)
C9 C 0.5531(5) 0.3344(9) 0.7027(4)
C10 C 0.8266(6) 0.1013(8) 1.3705(4)
C11 C 0.6374(5) 0.1289(8) 0.8707(5)
C12 C 0.4400(4) 0.3241(8) 0.8712(4)
C13 C 0.6319(4) 0.2821(8) 1.4015(4)
C14 C 1.0763(4) 0.3303(8) 0.8862(3)
C15 C 0.8714(4) 0.2944(8) 1.5486(3)
O4 O 0.7948(4) 0.5613(6) 1.3689(3)
C16 C 1.2281(4) 0.2677(8) 1.3428(4)
H1 H 0.97110 0.29280 1.55810
H2 H 0.36490 0.26060 0.81850
H3 H 0.49410 0.24800 0.65530
H4 H 1.11710 0.30470 1.11540
H5 H 0.66320 0.44570 1.12690
H6 H 0.50520 0.44110 0.68060
H7 H 0.63890 0.33800 0.68130
H8 H 0.80480 0.00900 1.41640
H9 H 0.77600 0.08480 1.28680
H10 H 0.92560 0.09580 1.37680
H11 H 0.57320 0.04300 0.82870
H12 H 0.72480 0.11430 0.85370
H13 H 0.65190 0.10930 0.95720
H14 H 0.41200 0.44110 0.86600
H15 H 0.44990 0.28740 0.95320
H16 H 0.60670 0.38410 1.43100
H17 H 0.57930 0.26450 1.31940
H18 H 0.60400 0.18970 1.44890
H19 H 1.12000 0.22820 0.92720
H20 H 1.07590 0.32290 0.80360
H21 H 1.13270 0.42370 0.92360
H22 H 0.85190 0.20360 1.59840
H23 H 0.84830 0.39820 1.58020
H24 H 1.22060 0.15400 1.30180
H25 H 1.27140 0.33910 1.29810
H26 H 1.28580 0.25110 1.42210
#END
