
#######################################################################
#
#                 Cambridge Crystallographic Data Centre
#                                CCDC
#
#######################################################################
#
# If this CIF has been generated from an entry in the Cambridge
# Structural Database, then it will include bibliographic, chemical,
# crystal, experimental, refinement or atomic coordinate data resulting
# from the CCDC's data processing and validation procedures.
#
#######################################################################

data_CSD_CIF_PAVYOB
_audit_creation_date 2006-02-07
_audit_creation_method CSD-ConQuest-V1
_database_code_CSD PAVYOB
_database_code_depnum_ccdc_archive 'CCDC 258521'
_chemical_formula_sum 'C13 H17 N3 O7'
_chemical_formula_moiety
;
C13 H17 N3 O7
;
_journal_coden_Cambridge 1094
_journal_volume 16
_journal_year 2005
_journal_page_first 541
_journal_name_full 'Struct.Chem. '
loop_
_publ_author_name
"A.Jarmula"
"W.R.Rypniewski"
"K.Felczak"
"W.Rode"
_chemical_name_systematic
;
3',5'-Di-O-acetyl-N(4)-hydroxy-2'-deoxycytidine
;
_cell_volume   7858.981
_exptl_crystal_colour 'colorless'
_exptl_crystal_density_diffrn 1.383
_exptl_crystal_description 'needle'
_exptl_crystal_preparation 'methanol/ethanol (1'
_diffrn_ambient_temperature 293
_diffrn_radiation_probe x-ray
_diffrn_source synchrotron
_refine_special_details
;
The structure may be disordered, although it was not possible to model the 
disorder.
;
#These two values have been output from a single CSD field.
_refine_ls_R_factor_gt 0.0571
_refine_ls_wR_factor_gt 0.0571
_symmetry_cell_setting monoclinic
_symmetry_space_group_name_H-M 'C 2'
_symmetry_Int_Tables_number 5
loop_
_symmetry_equiv_pos_site_id
_symmetry_equiv_pos_as_xyz
1 x,y,z
2 -x,y,-z
3 1/2+x,1/2+y,z
4 1/2-x,1/2+y,-z
_cell_length_a 39.54(5)
_cell_length_b 8.72(1)
_cell_length_c 22.89(3)
_cell_angle_alpha 90
_cell_angle_beta 95.26(10)
_cell_angle_gamma 90
_cell_formula_units_Z 20
loop_
_atom_type_symbol
_atom_type_radius_bond
C 0.68
H 0.23
N 0.68
O 0.68
loop_
_atom_site_label
_atom_site_type_symbol
_atom_site_fract_x
_atom_site_fract_y
_atom_site_fract_z
N1 N 0.62318(5) 0.6186(3) 0.62587(11)
H1 H 0.64040 0.55800 0.63050
O1 O 0.58761(5) 0.4185(2) 0.63254(10)
N2 N 0.56497(5) 0.6560(3) 0.62150(11)
O2 O 0.51220(4) 0.6451(3) 0.56903(8)
O3 O 0.68427(5) 0.7126(3) 0.62196(15)
H2 H 0.70290 0.75030 0.61780
C1 C 0.62948(7) 0.7720(3) 0.61804(15)
C2 C 0.47769(6) 0.6753(4) 0.57855(14)
H3 H 0.46330 0.59620 0.55850
O4 O 0.46055(6) 0.5161(3) 0.65546(14)
N3 N 0.65917(6) 0.8284(3) 0.61608(17)
C3 C 0.59163(6) 0.5557(3) 0.62679(10)
C4 C 0.53069(5) 0.5995(3) 0.62212(11)
H4 H 0.53100 0.48740 0.62480
C5 C 0.60067(7) 0.8713(4) 0.61176(19)
H5 H 0.60340 0.97630 0.60670
C6 C 0.51136(7) 0.6655(4) 0.67062(12)
H6 H 0.51440 0.60300 0.70580
H7 H 0.51870 0.76950 0.68020
C7 C 0.47493(7) 0.6624(4) 0.64456(15)
H8 H 0.46160 0.74650 0.65930
C8 C 0.43041(6) 0.5142(4) 0.67515(12)
O5 O 0.41516(8) 0.6289(5) 0.6855(2)
O6 O 0.48848(7) 0.9441(3) 0.58205(15)
C9 C 0.46751(8) 0.8280(4) 0.55300(17)
H9 H 0.47020 0.82860 0.51130
H10 H 0.44380 0.84790 0.55820
C10 C 0.41679(10) 0.3557(6) 0.6797(2)
H11 H 0.39300 0.36050 0.68460
H12 H 0.42850 0.30490 0.71290
H13 H 0.42020 0.29980 0.64460
C11 C 0.56975(7) 0.8115(4) 0.61318(17)
H14 H 0.55090 0.87570 0.60850
C12 C 0.4804(2) 1.0753(11) 0.5837(8)
C13 C 0.5040(2) 1.1836(9) 0.6148(7)
H15 H 0.51680 1.13190 0.64660
H16 H 0.49150 1.26650 0.63000
H17 H 0.51930 1.22330 0.58820
O7 O 0.4578(4) 1.1132(12) 0.5452(12)
O8 O 0.67652(4) 0.2979(2) 0.97030(11)
O9 O 0.77255(4) -0.0010(3) 1.00777(11)
H18 H 0.79150 -0.03970 1.01270
O10 O 0.60286(4) 0.0616(3) 1.01362(7)
N4 N 0.71190(5) 0.0947(3) 0.98558(10)
H19 H 0.72920 0.15480 0.98670
O11 O 0.54678(5) 0.2118(3) 0.91973(10)
C14 C 0.68058(5) 0.1590(3) 0.97564(11)
C15 C 0.61939(5) 0.1207(3) 0.96683(11)
H20 H 0.62010 0.23290 0.96920
N5 N 0.65361(4) 0.0596(3) 0.97211(10)
C16 C 0.71805(5) -0.0600(3) 0.99398(11)
C17 C 0.65851(6) -0.0958(3) 0.97828(13)
H21 H 0.63960 -0.15970 0.97480
C18 C 0.56250(5) 0.0651(3) 0.93030(11)
H22 H 0.54920 -0.01660 0.90970
O12 O 0.57810(7) -0.2256(3) 0.97731(13)
N6 N 0.74783(5) -0.1173(3) 1.00489(12)
C19 C 0.56772(5) 0.0337(3) 0.99624(11)
H23 H 0.55390 0.10550 1.01680
C20 C 0.68901(6) -0.1592(3) 0.98902(14)
H24 H 0.69150 -0.26480 0.99320
C21 C 0.59800(6) 0.0715(4) 0.91158(11)
H25 H 0.59960 0.14560 0.88030
H26 H 0.60510 -0.02810 0.89830
C22 C 0.55932(7) -0.1261(5) 1.01270(15)
H27 H 0.56580 -0.14370 1.05400
H28 H 0.53510 -0.14470 1.00510
O13 O 0.49691(5) 0.0982(5) 0.92595(13)
C23 C 0.51289(7) 0.2142(5) 0.92033(12)
C24 C 0.49877(13) 0.3692(7) 0.9126(2)
H29 H 0.47510 0.36740 0.91870
H30 H 0.50150 0.40440 0.87350
H31 H 0.51050 0.43720 0.94050
C25 C 0.57518(14) -0.3769(5) 0.9826(3)
O14 O 0.55837(16) -0.4312(6) 1.0176(3)
C26 C 0.5962(2) -0.4606(6) 0.9413(4)
H32 H 0.58230 -0.53430 0.91920
H33 H 0.61460 -0.51230 0.96340
H34 H 0.60510 -0.38850 0.91500
O15 O 0.73327(5) 0.9121(3) 0.59823(13)
N7 N 0.69909(5) 1.1130(3) 0.61470(11)
H35 H 0.68240 1.05140 0.61810
N8 N 0.75578(5) 1.1505(3) 0.60040(11)
N9 N 0.66386(5) 1.3264(3) 0.62646(11)
O16 O 0.81379(5) 1.1586(3) 0.62501(8)
O17 O 0.84908(5) 0.9958(3) 0.52148(9)
O18 O 0.63926(5) 1.2096(3) 0.62787(11)
H36 H 0.62110 1.24720 0.63530
C27 C 0.69300(6) 1.2690(3) 0.61978(11)
C28 C 0.79720(6) 1.1329(4) 0.52493(12)
H37 H 0.78970 1.05390 0.49690
H38 H 0.78700 1.22980 0.51220
C29 C 0.83564(6) 1.1444(4) 0.53186(11)
H39 H 0.84390 1.22140 0.50540
C30 C 0.72180(7) 1.3664(3) 0.61765(14)
H40 H 0.71970 1.47160 0.62300
O19 O 0.82723(6) 1.4425(3) 0.57206(12)
C31 C 0.78844(6) 1.0913(3) 0.58624(13)
H41 H 0.78900 0.97970 0.59110
C32 C 0.75139(7) 1.3075(3) 0.60813(15)
H42 H 0.76990 1.37240 0.60650
C33 C 0.72976(6) 1.0499(3) 0.60468(13)
C34 C 0.84339(6) 1.1896(4) 0.59617(13)
H43 H 0.86200 1.12520 0.61360
C35 C 0.85292(8) 1.3535(5) 0.60564(18)
H44 H 0.85360 1.37940 0.64690
H45 H 0.87510 1.37330 0.59230
O20 O 0.89982(6) 1.1036(5) 0.52181(16)
C36 C 0.82883(11) 1.5931(5) 0.57893(16)
O21 O 0.85117(11) 1.6564(4) 0.60825(14)
C37 C 0.89493(11) 0.8347(6) 0.50762(18)
H46 H 0.91890 0.83690 0.50420
H47 H 0.88340 0.79420 0.47220
H48 H 0.89040 0.77080 0.54010
C38 C 0.88271(7) 0.9919(6) 0.51741(13)
C39 C 0.79966(17) 1.6704(6) 0.5444(3)
H49 H 0.80810 1.75000 0.52070
H50 H 0.78480 1.71410 0.57080
H51 H 0.78740 1.59660 0.51960
N10 N 0.51211(5) 0.9988(3) 0.78848(10)
H52 H 0.52870 1.05500 0.77950
O22 O 0.40818(4) 1.0064(3) 0.85119(8)
O23 O 0.47682(5) 1.2021(3) 0.77640(11)
N11 N 0.45460(5) 0.9721(3) 0.79855(9)
C40 C 0.42075(5) 1.0358(3) 0.79672(10)
H53 H 0.42170 1.14680 0.79040
C41 C 0.48084(5) 1.0660(3) 0.78758(11)
O24 O 0.57184(5) 0.8991(3) 0.78586(13)
H54 H 0.59080 0.86070 0.78640
C42 C 0.51895(6) 0.8486(3) 0.80259(11)
C43 C 0.46003(6) 0.8207(4) 0.81334(14)
H55 H 0.44160 0.76030 0.82150
C44 C 0.36227(6) 0.9916(4) 0.77741(12)
H56 H 0.34540 0.91300 0.76500
O25 O 0.37859(7) 0.7146(3) 0.84831(11)
N12 N 0.54862(6) 0.7884(3) 0.80215(12)
C45 C 0.39548(6) 0.9648(4) 0.75090(11)
H57 H 0.39980 0.85630 0.74610
H58 H 0.39580 1.01590 0.71330
O26 O 0.35009(5) 1.1419(3) 0.76257(10)
C46 C 0.37208(6) 0.9861(4) 0.84358(12)
H59 H 0.36140 1.07320 0.86180
O27 O 0.30478(7) 1.0472(5) 0.70962(14)
C47 C 0.36293(7) 0.8434(4) 0.87410(15)
H60 H 0.37070 0.85020 0.91550
H61 H 0.33850 0.83070 0.87050
C48 C 0.32087(7) 1.1536(5) 0.72792(13)
C49 C 0.49099(7) 0.7578(4) 0.81641(15)
H62 H 0.49420 0.65580 0.82750
C50 C 0.3942(2) 0.4548(7) 0.8483(4)
H63 H 0.38840 0.45420 0.80670
H64 H 0.38820 0.35790 0.86450
H65 H 0.41810 0.47200 0.85650
C51 C 0.37514(12) 0.5792(6) 0.8752(2)
C52 C 0.31228(15) 1.3167(8) 0.7161(2)
H66 H 0.28840 1.32600 0.70510
H67 H 0.32470 1.35360 0.68480
H68 H 0.31820 1.37630 0.75080
O28 O 0.35947(12) 0.5648(6) 0.9163(2)
N13 N 0.58871(5) 0.4998(3) 0.77704(10)
H69 H 0.57150 0.55860 0.78000
N14 N 0.64665(5) 0.4715(3) 0.77289(11)
O29 O 0.52854(5) 0.3984(3) 0.77578(13)
H70 H 0.51050 0.35820 0.78230
C53 C 0.62003(6) 0.5662(4) 0.77977(13)
O30 O 0.62402(5) 0.7030(3) 0.78908(14)
C54 C 0.58271(6) 0.3444(3) 0.76982(11)
C55 C 0.68079(6) 0.5358(4) 0.78565(13)
H71 H 0.68080 0.64470 0.77520
O31 O 0.74528(5) 0.6580(3) 0.85374(11)
N15 N 0.55298(5) 0.2835(3) 0.76854(12)
C56 C 0.64218(6) 0.3163(4) 0.76539(14)
H72 H 0.66110 0.25480 0.76180
O32 O 0.70287(5) 0.4551(4) 0.75267(9)
C57 C 0.69420(6) 0.5151(4) 0.84875(12)
H73 H 0.68540 0.42190 0.86490
H74 H 0.68820 0.60170 0.87240
C58 C 0.61178(7) 0.2513(4) 0.76310(14)
H75 H 0.60940 0.14620 0.75720
C59 C 0.73204(6) 0.5054(4) 0.84596(13)
H76 H 0.74250 0.43540 0.87580
O33 O 0.79696(6) 0.5577(5) 0.86823(17)
C60 C 0.73572(6) 0.4458(5) 0.78407(13)
H77 H 0.75120 0.51380 0.76520
C61 C 0.77900(7) 0.6689(6) 0.86581(14)
O34 O 0.72575(9) 0.1895(4) 0.81010(17)
C62 C 0.71904(17) 0.0521(6) 0.7911(3)
O35 O 0.7323(3) 0.0015(8) 0.7524(3)
C63 C 0.74827(10) 0.2864(6) 0.7805(2)
H78 H 0.74840 0.25530 0.73990
H79 H 0.77120 0.27870 0.79930
C64 C 0.78989(13) 0.8303(8) 0.8749(2)
H80 H 0.79760 0.86980 0.83930
H81 H 0.80800 0.83520 0.90580
H82 H 0.77110 0.89060 0.88550
C65 C 0.6931(2) -0.0271(9) 0.8242(4)
H83 H 0.70430 -0.09930 0.85120
H84 H 0.67720 -0.08010 0.79720
H85 H 0.68130 0.04750 0.84560
#END
