
#######################################################################
#
#                 Cambridge Crystallographic Data Centre
#                                CCDC
#
#######################################################################
#
# If this CIF has been generated from an entry in the Cambridge
# Structural Database, then it will include bibliographic, chemical,
# crystal, experimental, refinement or atomic coordinate data resulting
# from the CCDC's data processing and validation procedures.
#
#######################################################################

data_CSD_CIF_PAVZET
_audit_creation_date 2012-07-19
_audit_creation_method CSD-ConQuest-V1
_database_code_CSD PAVZET
_database_code_depnum_ccdc_archive 'CCDC 886951'
_chemical_formula_sum 'C15 H13 N3 O4'
_chemical_formula_moiety
;
C15 H13 N3 O4
;
_journal_coeditor_code "IUCr SU2422"
_journal_coden_Cambridge 1370
_journal_volume 68
_journal_year 2012
_journal_page_first o1725
_journal_name_full 'Acta Crystallogr.,Sect.E:Struct.Rep.Online '
loop_
_publ_author_name
"Jin-Long Hou"
"Ye Bi"
_chemical_name_systematic
;
4-Methoxy-N'-(3-nitrobenzylidene)benzohydrazide
;
_cell_volume    702.921
_exptl_crystal_colour 'yellow'
_exptl_crystal_density_diffrn 1.414
_exptl_crystal_description 'block'
_diffrn_ambient_temperature 298
#These two values have been output from a single CSD field.
_refine_ls_R_factor_gt 0.0343
_refine_ls_wR_factor_gt 0.0343
_symmetry_cell_setting monoclinic
_symmetry_space_group_name_H-M 'P 21'
_symmetry_Int_Tables_number 4
loop_
_symmetry_equiv_pos_site_id
_symmetry_equiv_pos_as_xyz
1 x,y,z
2 -x,1/2+y,-z
_cell_length_a 6.8472(17)
_cell_length_b 4.8269(16)
_cell_length_c 21.414(3)
_cell_angle_alpha 90
_cell_angle_beta 96.696(2)
_cell_angle_gamma 90
_cell_formula_units_Z 2
loop_
_atom_type_symbol
_atom_type_radius_bond
C 0.68
H 0.23
N 0.68
O 0.68
loop_
_atom_site_label
_atom_site_type_symbol
_atom_site_fract_x
_atom_site_fract_y
_atom_site_fract_z
O1 O -0.0350(3) -0.0065(5) 0.08818(9)
O2 O 0.1567(3) -0.1359(5) 0.16985(9)
O3 O 0.9986(3) -0.0624(4) 0.29825(8)
O4 O 1.7677(3) 0.4319(5) 0.44850(8)
N1 N 0.1167(3) 0.0136(5) 0.12433(10)
N2 N 0.8115(3) 0.3103(4) 0.21877(9)
N3 N 0.9792(3) 0.3715(5) 0.25841(10)
C1 C 0.2599(3) 0.2248(5) 0.11108(11)
C2 C 0.4255(3) 0.2586(5) 0.15295(11)
C3 C 0.5608(3) 0.4617(5) 0.14098(10)
C4 C 0.5242(4) 0.6221(6) 0.08719(11)
C5 C 0.3576(4) 0.5802(6) 0.04504(12)
C6 C 0.2229(4) 0.3800(7) 0.05691(11)
C7 C 0.7391(3) 0.5089(5) 0.18495(11)
C8 C 1.0667(4) 0.1711(5) 0.29592(11)
C9 C 1.2529(3) 0.2545(5) 0.33428(11)
C10 C 1.3057(4) 0.1192(6) 0.39120(12)
C11 C 1.4763(4) 0.1874(6) 0.42782(11)
C12 C 1.6014(3) 0.3851(6) 0.40846(10)
C13 C 1.5529(4) 0.5197(6) 0.35165(11)
C14 C 1.3780(4) 0.4556(6) 0.31541(11)
C15 C 1.8987(4) 0.6411(7) 0.43234(14)
H1 H 0.44710 0.14800 0.18870
H2 H 1.015(5) 0.550(3) 0.2629(16)
H3 H 0.61290 0.76010 0.07930
H4 H 0.33640 0.68700 0.00870
H5 H 0.11010 0.35040 0.02910
H6 H 0.79820 0.68260 0.18790
H7 H 1.22470 -0.01830 0.40440
H8 H 1.50810 0.09920 0.46630
H9 H 1.63710 0.65190 0.33800
H10 H 1.34380 0.54920 0.27780
H11 H 1.94650 0.59410 0.39330
H12 H 2.00750 0.65530 0.46480
H13 H 1.83080 0.81520 0.42800
#END
