
#######################################################################
#
#                 Cambridge Crystallographic Data Centre
#                                CCDC
#
#######################################################################
#
# If this CIF has been generated from an entry in the Cambridge
# Structural Database, then it will include bibliographic, chemical,
# crystal, experimental, refinement or atomic coordinate data resulting
# from the CCDC's data processing and validation procedures.
#
#######################################################################

data_CSD_CIF_PAWCEX
_audit_creation_date 2012-07-19
_audit_creation_method CSD-ConQuest-V1
_database_code_CSD PAWCEX
_database_code_depnum_ccdc_archive 'CCDC 886960'
_chemical_formula_sum 'C19 H20 N2 O3'
_chemical_formula_moiety
;
C19 H20 N2 O3
;
_journal_coeditor_code "IUCr BT5906"
_journal_coden_Cambridge 1370
_journal_volume 68
_journal_year 2012
_journal_page_first o1735
_journal_name_full 'Acta Crystallogr.,Sect.E:Struct.Rep.Online '
loop_
_publ_author_name
"S.Sundaramoorthy"
"N.Sivakumar"
"M.Bakthadoss"
"D.Velmurugan"
_chemical_name_systematic
;
1-Methyl-3-(2-methylphenyl)-3a-nitro-1,2,3,3a,4,9b-hexahydrochromeno[4,3-b]pyr
role
;
_cell_volume   3345.305
_exptl_crystal_colour 'colorless'
_exptl_crystal_density_diffrn 1.288
_exptl_crystal_description 'block'
_diffrn_ambient_temperature 293
#These two values have been output from a single CSD field.
_refine_ls_R_factor_gt 0.0491
_refine_ls_wR_factor_gt 0.0491
_symmetry_cell_setting monoclinic
_symmetry_space_group_name_H-M 'P 21/n'
_symmetry_Int_Tables_number 14
loop_
_symmetry_equiv_pos_site_id
_symmetry_equiv_pos_as_xyz
1 x,y,z
2 1/2-x,1/2+y,1/2-z
3 -x,-y,-z
4 -1/2+x,-1/2-y,-1/2+z
_cell_length_a 17.8782(13)
_cell_length_b 8.0447(6)
_cell_length_c 23.4660(17)
_cell_angle_alpha 90
_cell_angle_beta 97.605(2)
_cell_angle_gamma 90
_cell_formula_units_Z 8
loop_
_atom_type_symbol
_atom_type_radius_bond
C 0.68
H 0.23
N 0.68
O 0.68
loop_
_atom_site_label
_atom_site_type_symbol
_atom_site_fract_x
_atom_site_fract_y
_atom_site_fract_z
C1 C 0.02218(11) 0.2127(2) -0.20011(6)
C2 C -0.04495(16) 0.2582(3) -0.23344(8)
H1 H -0.04270 0.31430 -0.26780
C3 C -0.11375(15) 0.2233(3) -0.21748(9)
H2 H -0.15750 0.25710 -0.24050
C4 C -0.11849(11) 0.1391(3) -0.16774(8)
H3 H -0.16530 0.11200 -0.15720
C5 C -0.05315(9) 0.0942(2) -0.13315(7)
H4 H -0.05660 0.03780 -0.09900
C6 C 0.01721(8) 0.13101(18) -0.14794(6)
C7 C 0.08806(8) 0.08815(19) -0.10752(6)
H5 H 0.13010 0.08770 -0.13040
C8 C 0.08968(10) -0.0800(2) -0.07584(6)
H6 H 0.03980 -0.12950 -0.08040
H7 H 0.12410 -0.15620 -0.09110
C9 C 0.15975(7) 0.10856(19) -0.01373(6)
H8 H 0.20800 0.08710 -0.02790
C10 C 0.10890(8) 0.21210(18) -0.05732(6)
C11 C 0.04311(8) 0.2785(2) -0.03001(6)
H9 H 0.01130 0.34490 -0.05800
H10 H 0.01320 0.18590 -0.01920
C12 C 0.12604(8) 0.32064(19) 0.05721(6)
C13 C 0.17300(8) 0.19351(19) 0.04372(6)
C14 C 0.23511(9) 0.1557(2) 0.08367(7)
H11 H 0.26870 0.07400 0.07510
C15 C 0.24807(12) 0.2370(3) 0.13589(8)
H12 H 0.28940 0.20830 0.16240
C16 C 0.19997(11) 0.3598(3) 0.14866(7)
H13 H 0.20850 0.41390 0.18390
C17 C 0.13908(10) 0.4035(2) 0.10942(7)
H14 H 0.10680 0.48800 0.11780
C18 C 0.1560(1) -0.1859(2) 0.01335(7)
H15 H 0.20140 -0.20470 -0.00350
H16 H 0.12480 -0.28340 0.00860
H17 H 0.16860 -0.16220 0.05360
C19 C 0.09576(14) 0.2474(3) -0.22223(8)
H18 H 0.12170 0.14470 -0.22650
H19 H 0.12640 0.31760 -0.19550
H20 H 0.08620 0.30220 -0.25880
N1 N 0.11522(6) -0.04540(15) -0.01501(5)
N2 N 0.15168(10) 0.3563(2) -0.07917(5)
O1 O 0.11776(11) 0.48303(19) -0.09268(7)
O2 O 0.21817(9) 0.3339(2) -0.08460(7)
O3 O 0.06649(6) 0.37738(15) 0.01962(4)
C20 C 0.55207(10) 0.7413(2) 0.25226(7)
C21 C 0.62524(12) 0.7853(3) 0.27581(8)
H21 H 0.63260 0.83600 0.31170
C22 C 0.68625(12) 0.7563(4) 0.24788(10)
H22 H 0.73430 0.78730 0.26460
C23 C 0.67598(11) 0.6809(3) 0.19500(9)
H23 H 0.71720 0.66150 0.17550
C24 C 0.60464(10) 0.6338(3) 0.17073(7)
H24 H 0.59830 0.58210 0.13500
C25 C 0.54199(9) 0.6622(2) 0.19867(6)
C26 C 0.46479(9) 0.6026(2) 0.17122(7)
H25 H 0.43340 0.58470 0.20190
C27 C 0.46583(10) 0.4408(2) 0.13662(7)
H26 H 0.51350 0.38330 0.14610
H27 H 0.42530 0.36750 0.14430
C28 C 0.39224(8) 0.61203(18) 0.07478(6)
H28 H 0.34700 0.55290 0.08320
C29 C 0.42164(8) 0.72296(19) 0.12586(7)
C30 C 0.47021(10) 0.8579(2) 0.10545(8)
H29 H 0.48930 0.92810 0.13770
H30 H 0.51310 0.80760 0.09070
C31 C 0.39385(9) 0.8719(2) 0.01524(7)
C32 C 0.37439(8) 0.70552(19) 0.01904(7)
C33 C 0.33460(9) 0.6325(2) -0.02933(7)
H31 H 0.31950 0.52220 -0.02750
C34 C 0.31695(11) 0.7189(3) -0.07995(8)
H32 H 0.29160 0.66630 -0.11220
C35 C 0.33701(11) 0.8836(3) -0.08254(8)
H33 H 0.32500 0.94290 -0.11650
C36 C 0.37472(10) 0.9603(2) -0.03502(8)
H34 H 0.38740 1.07220 -0.03660
C37 C 0.44213(11) 0.3545(2) 0.03745(8)
H35 H 0.48280 0.27630 0.04490
H36 H 0.43920 0.39370 -0.00140
H37 H 0.39550 0.30130 0.04290
C38 C 0.48834(12) 0.7791(3) 0.28559(8)
H38 H 0.50810 0.82180 0.32270
H39 H 0.46030 0.67920 0.29010
H40 H 0.45570 0.86030 0.26530
N3 N 0.45555(7) 0.49419(15) 0.07680(6)
N4 N 0.35723(10) 0.8038(2) 0.15211(7)
O4 O 0.36829(10) 0.9366(2) 0.17476(8)
O5 O 0.29936(10) 0.7331(3) 0.15009(11)
O6 O 0.42965(8) 0.95748(14) 0.06165(5)
#END
