
#######################################################################
#
#                 Cambridge Crystallographic Data Centre
#                                CCDC
#
#######################################################################
#
# If this CIF has been generated from an entry in the Cambridge
# Structural Database, then it will include bibliographic, chemical,
# crystal, experimental, refinement or atomic coordinate data resulting
# from the CCDC's data processing and validation procedures.
#
#######################################################################

data_CSD_CIF_PAWDEY
_audit_creation_date 2012-07-19
_audit_creation_method CSD-ConQuest-V1
_database_code_CSD PAWDEY
_database_code_depnum_ccdc_archive 'CCDC 886965'
_chemical_formula_sum 'C15 H13 N1 O3'
_chemical_formula_moiety
;
C15 H13 N1 O3
;
_journal_coeditor_code "IUCr TK5093"
_journal_coden_Cambridge 1370
_journal_volume 68
_journal_year 2012
_journal_page_first o1742
_journal_name_full 'Acta Crystallogr.,Sect.E:Struct.Rep.Online '
loop_
_publ_author_name
"Pei-Hua Zhao"
"Er-Jun Hao"
"Ya-Qing Liu"
"Gui-Zhe Zhao"
_chemical_name_systematic
;
3-Nitro-2-phenylchromane
;
_cell_volume    626.634
_exptl_crystal_colour 'colorless'
_exptl_crystal_density_diffrn 1.353
_exptl_crystal_description 'prism'
_exptl_crystal_preparation 'dichloromethane/n-hexane'
_diffrn_ambient_temperature 293
#These two values have been output from a single CSD field.
_refine_ls_R_factor_gt 0.0554
_refine_ls_wR_factor_gt 0.0554
_symmetry_cell_setting triclinic
_symmetry_space_group_name_H-M 'P -1'
_symmetry_Int_Tables_number 2
loop_
_symmetry_equiv_pos_site_id
_symmetry_equiv_pos_as_xyz
1 x,y,z
2 -x,-y,-z
_cell_length_a 5.3769(11)
_cell_length_b 10.105(2)
_cell_length_c 12.320(3)
_cell_angle_alpha 70.85(3)
_cell_angle_beta 82.89(3)
_cell_angle_gamma 84.87(3)
_cell_formula_units_Z 2
loop_
_atom_type_symbol
_atom_type_radius_bond
C 0.68
H 0.23
N 0.68
O 0.68
loop_
_atom_site_label
_atom_site_type_symbol
_atom_site_fract_x
_atom_site_fract_y
_atom_site_fract_z
O1 O 0.1296(3) 0.85831(18) 0.15383(15)
O2 O 0.6208(5) 0.6744(3) 0.4385(2)
O3 O 0.2445(5) 0.6648(3) 0.5113(2)
N1 N 0.4007(6) 0.6773(2) 0.4307(2)
C1 C 0.0165(5) 0.7495(3) 0.1373(2)
C2 C -0.1198(6) 0.7845(3) 0.0429(2)
H1 H -0.13010 0.87660 -0.00600
C3 C -0.2397(6) 0.6827(4) 0.0218(3)
H2 H -0.33320 0.70580 -0.04120
C4 C -0.2215(7) 0.5453(3) 0.0943(3)
H3 H -0.30320 0.47590 0.08050
C5 C -0.0821(6) 0.5123(3) 0.1865(3)
H4 H -0.06920 0.41970 0.23440
C6 C 0.0406(5) 0.6137(3) 0.2101(2)
C7 C 0.1895(5) 0.5749(3) 0.3130(2)
H5 H 0.07800 0.54140 0.38340
H6 H 0.31270 0.49980 0.30970
C8 C 0.3187(7) 0.6980(3) 0.3148(3)
H7 H 0.47340 0.70180 0.26290
C9 C 0.1824(7) 0.8331(3) 0.2685(3)
H8 H 0.01980 0.82680 0.31510
C10 C 0.3006(6) 0.9590(3) 0.2757(3)
C11 C 0.1942(6) 1.0227(3) 0.3531(3)
H9 H 0.04620 0.98990 0.39780
C12 C 0.3002(8) 1.1345(4) 0.3669(3)
H10 H 0.22480 1.17640 0.42050
C13 C 0.5127(7) 1.1822(3) 0.3026(3)
H11 H 0.58660 1.25670 0.31250
C14 C 0.6212(6) 1.1230(4) 0.2231(3)
H12 H 0.76740 1.15770 0.17780
C15 C 0.5138(7) 1.0110(3) 0.2099(3)
H13 H 0.58820 0.97060 0.15520
#END
