
#######################################################################
#
#                 Cambridge Crystallographic Data Centre
#                                CCDC
#
#######################################################################
#
# If this CIF has been generated from an entry in the Cambridge
# Structural Database, then it will include bibliographic, chemical,
# crystal, experimental, refinement or atomic coordinate data resulting
# from the CCDC's data processing and validation procedures.
#
#######################################################################

data_CSD_CIF_PAWRUA
_audit_creation_date 1998-10-19
_audit_creation_method CSD-ConQuest-V1
_database_code_CSD PAWRUA
_database_code_depnum_ccdc_archive 'CCDC 110031'
_database_code_depnum_ccdc_fiz 'CSD 402734'
_chemical_formula_sum 'C6 H8 N2 O4'
_chemical_formula_moiety
;
C6 H8 N2 O4
;
_journal_coden_Cambridge 1267
_journal_volume 212
_journal_year 1997
_journal_page_first 429
_journal_name_full 'Z.Kristallogr.-New Cryst.Struct. '
loop_
_publ_author_name
"K.Peters"
"E.-M.Peters"
"H.G.von Schnering"
"U.Burkhardt"
"V.Jager"
_chemical_name_systematic
;
4-(1',3'-Dioxolane-2'-yl)-3-methyl-1,2,5-oxadiazole-2-oxide
;
_cell_volume    386.478
_exptl_crystal_colour 'colorless'
_exptl_crystal_description 'prism'
_diffrn_ambient_temperature ?
_diffrn_special_details
;
The study was carried out at room temperature,in the range 283-303K

;
#These two values have been output from a single CSD field.
_refine_ls_R_factor_gt 0.0513
_refine_ls_wR_factor_gt 0.0513
_symmetry_cell_setting triclinic
_symmetry_space_group_name_H-M 'P -1'
_symmetry_Int_Tables_number 2
loop_
_symmetry_equiv_pos_site_id
_symmetry_equiv_pos_as_xyz
1 x,y,z
2 -x,-y,-z
_cell_length_a 7.2103(20)
_cell_length_b 8.2964(20)
_cell_length_c 7.0377(21)
_cell_angle_alpha 104.300(21)
_cell_angle_beta 81.650(24)
_cell_angle_gamma 108.200(21)
_cell_formula_units_Z 2
loop_
_atom_type_symbol
_atom_type_radius_bond
C 0.68
H 0.23
N 0.68
O 0.68
loop_
_atom_site_label
_atom_site_type_symbol
_atom_site_fract_x
_atom_site_fract_y
_atom_site_fract_z
C1 C 0.25849(44) 0.7175(4) 0.02157(46)
H1 H 0.15020(44) 0.69458(40) -0.05575(46)
O1 O 0.28114(34) 0.87498(27) 0.15908(34)
C2 C 0.20364(51) 0.83948(43) 0.34646(48)
H2 H 0.30364(51) 0.88374(43) 0.43791(48)
H3 H 0.09860(51) 0.89013(43) 0.39614(48)
C3 C 0.13025(49) 0.64480(42) 0.31189(49)
H4 H -0.00897(49) 0.60537(42) 0.30299(49)
H5 H 0.16283(49) 0.60354(42) 0.41501(49)
O2 O 0.22993(31) 0.58782(26) 0.12769(33)
C4 C 0.44025(43) 0.72406(37) -0.11357(43)
N1 N 0.42953(43) 0.69358(40) -0.30237(42)
O3 O 0.61862(38) 0.71158(33) -0.38455(34)
N2 N 0.74453(38) 0.75613(31) -0.22703(39)
O4 O 0.92269(34) 0.78094(31) -0.27175(37)
C5 C 0.63339(43) 0.76328(36) -0.06202(43)
C6 C 0.71848(47) 0.81156(51) 0.13004(49)
H6 H 0.61594(47) 0.80989(51) 0.23377(49)
H7 H 0.80849(47) 0.92619(51) 0.14503(49)
H8 H 0.78655(47) 0.73046(51) 0.13601(49)
#END
