
#######################################################################
#
#                 Cambridge Crystallographic Data Centre
#                                CCDC
#
#######################################################################
#
# If this CIF has been generated from an entry in the Cambridge
# Structural Database, then it will include bibliographic, chemical,
# crystal, experimental, refinement or atomic coordinate data resulting
# from the CCDC's data processing and validation procedures.
#
#######################################################################

data_CSD_CIF_PAWVUE
_audit_creation_date 1998-10-19
_audit_creation_method CSD-ConQuest-V1
_database_code_CSD PAWVUE
_database_code_depnum_ccdc_archive 'CCDC 1228896; CCDC 402759'
_database_code_depnum_ccdc_fiz 'CSD 402759'
_chemical_formula_sum 'C19 H21 N1 O6'
_chemical_formula_moiety
;
C19 H21 N1 O6
;
_journal_coden_Cambridge 1267
_journal_volume 212
_journal_year 1997
_journal_page_first 431
_journal_name_full 'Z.Kristallogr.-New Cryst.Struct. '
loop_
_publ_author_name
"S.Henkel"
"T.Leibold"
"V.Jager"
_chemical_name_systematic
;
(3aR,6aR)-3-((2R,3R,4S,5R)-4-Benzyloxy-2,3-O-isopropylidenedioxy-tetrahydrofur
an-5-yl)-3a,6a-dihydrofuro(2,3-d)isoxazole
;
_cell_volume    932.581
_exptl_crystal_colour 'colorless'
_exptl_crystal_density_diffrn 1.28
_exptl_crystal_description 'needles'
_diffrn_ambient_temperature ?
_diffrn_special_details
;
The study was carried out at room temperature,in the range 283-303K

;
_refine_special_details
;
Atoms C12-C16 of the phenyl ring are disordered over two sites with equal 
occupancies.
;
#These two values have been output from a single CSD field.
_refine_ls_R_factor_gt 0.0488
_refine_ls_wR_factor_gt 0.0488
_symmetry_cell_setting monoclinic
_symmetry_space_group_name_H-M 'P 21'
_symmetry_Int_Tables_number 4
loop_
_symmetry_equiv_pos_site_id
_symmetry_equiv_pos_as_xyz
1 x,y,z
2 -x,1/2+y,-z
_cell_length_a 8.727(2)
_cell_length_b 11.002(3)
_cell_length_c 10.080(3)
_cell_angle_alpha 90
_cell_angle_beta 105.51(2)
_cell_angle_gamma 90
_cell_formula_units_Z 2
loop_
_atom_type_symbol
_atom_type_radius_bond
C 0.68
H 0.23
N 0.68
O 0.68
loop_
_atom_site_label
_atom_site_type_symbol
_atom_site_fract_x
_atom_site_fract_y
_atom_site_fract_z
C1 C -0.0118(4) 0.0555(4) 0.5418(4)
H1 H 0.0006(4) 0.0682(4) 0.6403(4)
O1 O 0.0379(3) -0.0646(3) 0.5201(3)
C2 C 0.2057(5) -0.0652(4) 0.5518(4)
H2 H 0.2437(5) -0.1164(4) 0.4877(4)
O2 O 0.2718(4) -0.1008(3) 0.6889(3)
C3 C 0.3860(5) -0.0140(5) 0.7539(5)
C4 C 0.3873(8) -0.0012(9) 0.9031(5)
H3 H 0.4654(8) 0.0581(9) 0.9465(5)
H4 H 0.4131(8) -0.0780(9) 0.9486(5)
H5 H 0.2843(8) 0.0246(9) 0.9091(5)
C5 C 0.5478(6) -0.0472(6) 0.7361(7)
H6 H 0.6244(6) 0.0125(6) 0.7808(7)
H7 H 0.5426(6) -0.0499(6) 0.6398(7)
H8 H 0.5788(6) -0.1255(6) 0.7765(7)
O3 O 0.3309(3) 0.0972(3) 0.6857(3)
C6 C 0.2579(5) 0.0670(4) 0.5464(4)
H9 H 0.3300(5) 0.0776(4) 0.4875(4)
C7 C 0.1043(4) 0.1375(4) 0.4941(3)
H10 H 0.1106(4) 0.2189(4) 0.5347(3)
O4 O 0.0576(3) 0.1409(3) 0.3474(2)
C8 C 0.1294(5) 0.2372(4) 0.2920(4)
H11 H 0.2432(5) 0.2239(4) 0.3122(4)
H12 H 0.1116(5) 0.3137(4) 0.3334(4)
C9 C 0.0590(5) 0.2424(4) 0.1404(4)
C10 C -0.0714(11) 0.2567(8) -0.1434(6)
H13 H -0.1152(11) 0.2682(8) -0.2373(6)
C11 C 0.1497(12) 0.2330(9) 0.0431(10)
H14 H 0.2592(12) 0.2227(9) 0.0746(10)
C12 C 0.0803(16) 0.2387(12) -0.0968(10)
H15 H 0.1426(16) 0.2295(12) -0.158(1)
C13 C -0.1704(15) 0.2591(14) -0.0545(11)
H16 H -0.2802(15) 0.2649(14) -0.0894(11)
C14 C -0.1032(13) 0.2527(11) 0.0836(10)
H17 H -0.1691(13) 0.2553(11) 0.1423(10)
C15 C -0.1837(4) 0.0724(4) 0.4642(4)
N1 N -0.2720(4) 0.1400(4) 0.5130(4)
O5 O -0.4227(3) 0.1503(3) 0.4202(3)
C16 C -0.4245(5) 0.0800(5) 0.2967(5)
H18 H -0.4427(5) 0.1314(5) 0.2145(5)
C17 C -0.5364(5) -0.0238(5) 0.2767(5)
H19 H -0.6467(5) -0.0187(5) 0.2475(5)
C18 C -0.4549(6) -0.1226(5) 0.3067(6)
H20 H -0.5035(6) -0.1982(5) 0.3038(6)
O6 O -0.2952(4) -0.1102(3) 0.3424(4)
C19 C -0.2634(5) 0.0161(5) 0.3289(4)
H21 H -0.2063(5) 0.0313(5) 0.2590(4)
C20? C 0.0144(12) 0.1428(13) 0.0661(10)
H22? H 0.0232(12) 0.0677(13) 0.1098(10)
C21? C -0.0465(17) 0.1490(18) -0.0785(13)
H23? H -0.0695(17) 0.0776(18) -0.1294(13)
C22? C -0.0110(17) 0.3631(15) -0.0660(14)
H24? H -0.0086(17) 0.4369(15) -0.1105(14)
C23? C 0.0450(13) 0.3555(12) 0.0783(10)
H25? H 0.0721(13) 0.4254(12) 0.1311(10)
#END
