
#######################################################################
#
#                 Cambridge Crystallographic Data Centre
#                                CCDC
#
#######################################################################
#
# If this CIF has been generated from an entry in the Cambridge
# Structural Database, then it will include bibliographic, chemical,
# crystal, experimental, refinement or atomic coordinate data resulting
# from the CCDC's data processing and validation procedures.
#
#######################################################################

data_CSD_CIF_PAWZEU
_audit_creation_date 2012-08-02
_audit_creation_method CSD-ConQuest-V1
_database_code_CSD PAWZEU
_database_code_depnum_ccdc_archive 'CCDC 887055'
_chemical_formula_sum 'C20 H23 N1 O3'
_chemical_formula_moiety
;
C20 H23 N1 O3
;
_journal_coeditor_code "IUCr ZS2210"
_journal_coden_Cambridge 1370
_journal_volume 68
_journal_year 2012
_journal_page_first o1858
_journal_name_full 'Acta Crystallogr.,Sect.E:Struct.Rep.Online '
loop_
_publ_author_name
"Peng Zou"
"Yi-Jun Jin"
"Liu-Fang Xiang"
"Dong-Ping Sun"
"Shu-Lin Yang"
_chemical_name_systematic
;
(1E,4E)-1-(2-Nitrophenyl)-5-(2,6,6-trimethylcyclohex-1-en-1-yl)penta-1,4-dien-
3-one
;
_cell_volume   1792.335
_exptl_crystal_colour 'green'
_exptl_crystal_density_diffrn 1.206
_exptl_crystal_description 'prismatic'
_diffrn_ambient_temperature 293
_refine_special_details
;
Two C atoms are disordered.

;
#These two values have been output from a single CSD field.
_refine_ls_R_factor_gt 0.0546
_refine_ls_wR_factor_gt 0.0546
_symmetry_cell_setting monoclinic
_symmetry_space_group_name_H-M 'P 21/n'
_symmetry_Int_Tables_number 14
loop_
_symmetry_equiv_pos_site_id
_symmetry_equiv_pos_as_xyz
1 x,y,z
2 1/2-x,1/2+y,1/2-z
3 -x,-y,-z
4 -1/2+x,-1/2-y,-1/2+z
_cell_length_a 7.2941(6)
_cell_length_b 19.2984(15)
_cell_length_c 12.7491(10)
_cell_angle_alpha 90
_cell_angle_beta 92.892(2)
_cell_angle_gamma 90
_cell_formula_units_Z 4
loop_
_atom_type_symbol
_atom_type_radius_bond
C 0.68
H 0.23
N 0.68
O 0.68
loop_
_atom_site_label
_atom_site_type_symbol
_atom_site_fract_x
_atom_site_fract_y
_atom_site_fract_z
N1 N 0.0393(2) 0.29601(10) 0.52846(12)
O1 O 0.67912(19) 0.20268(9) 0.48739(10)
O2 O 0.1133(2) 0.24512(10) 0.56699(11)
O3 O -0.0291(3) 0.34121(11) 0.57997(12)
C1 C 0.6322(2) 0.18763(10) 0.39702(13)
C2 C 0.4555(3) 0.21296(11) 0.34870(14)
H1 H 0.42120 0.19900 0.28070
C3 C 0.3453(2) 0.2543(1) 0.39799(14)
H2 H 0.38130 0.26760 0.46610
C4 C 0.1692(2) 0.28111(9) 0.35343(13)
C5 C 0.0265(2) 0.30303(9) 0.41389(13)
C6 C -0.1358(3) 0.3297(1) 0.37105(15)
H3 H -0.22630 0.34510 0.41430
C7 C -0.1623(3) 0.3333(1) 0.26406(15)
H4 H -0.27330 0.34930 0.23410
C8 C -0.0240(3) 0.31316(11) 0.20119(15)
H5 H -0.04110 0.31610 0.12850
C9 C 0.1391(3) 0.28873(10) 0.24514(14)
H6 H 0.23230 0.27690 0.20140
C10 C 0.7434(3) 0.14433(10) 0.33055(14)
H7 H 0.70350 0.13660 0.26110
C11 C 0.8992(3) 0.1158(1) 0.36674(14)
H8 H 0.93130 0.12650 0.43640
C12 C 1.0294(3) 0.07069(10) 0.31721(15)
C13 C 1.1754(3) 0.0469(1) 0.37653(17)
C14 C 1.3181(3) 0.00004(14) 0.3345(2)
H9 H 1.30060 -0.04640 0.36120
H10 H 1.43860 0.01580 0.35980
C15 C 1.3113(7) -0.0023(4) 0.2146(5)
H11 H 1.35340 0.04140 0.18680
H12 H 1.38980 -0.03900 0.19080
C16 C 1.1135(8) -0.0156(3) 0.1771(5)
H13 H 1.06590 -0.05550 0.21300
H14 H 1.10650 -0.02490 0.10220
C17 C 0.9974(3) 0.05041(11) 0.20138(16)
C18 C 1.2140(3) 0.06430(14) 0.49096(18)
H15 H 1.19820 0.11320 0.50130
H16 H 1.33780 0.05150 0.51150
H17 H 1.13050 0.03930 0.53280
C19 C 0.8125(4) 0.01320(13) 0.1825(2)
H18 H 0.71450 0.04620 0.18550
H19 H 0.79940 -0.02140 0.23570
H20 H 0.80820 -0.00850 0.11470
C20 C 1.0017(3) 0.11384(14) 0.13065(17)
H21 H 0.90970 0.14620 0.15040
H22 H 0.97770 0.10010 0.05890
H23 H 1.12050 0.13520 0.13810
C21? C 1.181(1) 0.0186(4) 0.1612(5)
H24? H 1.15880 0.00000 0.09100
H25? H 1.27360 0.05460 0.15820
C22? C 1.2479(15) -0.0375(4) 0.2337(8)
H26? H 1.35640 -0.03260 0.38800
H27? H 1.42200 0.02720 0.31610
H28? H 1.34610 -0.06350 0.20350
H29? H 1.14910 -0.06910 0.24850
#END
