
#######################################################################
#
#                 Cambridge Crystallographic Data Centre
#                                CCDC
#
#######################################################################
#
# If this CIF has been generated from an entry in the Cambridge
# Structural Database, then it will include bibliographic, chemical,
# crystal, experimental, refinement or atomic coordinate data resulting
# from the CCDC's data processing and validation procedures.
#
#######################################################################

data_CSD_CIF_PAWZIX
_audit_creation_date 2006-02-07
_audit_creation_method CSD-ConQuest-V1
_database_code_CSD PAWZIX
_database_code_depnum_ccdc_archive 'CCDC 234245'
_chemical_formula_sum 'C14 H17 N3 O1'
_chemical_formula_moiety
;
C14 H17 N3 O1
;
_journal_coden_Cambridge 9
_journal_volume 44
_journal_year 2005
_journal_page_first 6725
_journal_name_full 'Inorg.Chem. '
loop_
_publ_author_name
"M.Baskett"
"P.M.Lahti"
"A.Paduan-Filho"
"N.F.Oliveira Junior"
_chemical_name_systematic
;
5-(3-(N-t-Butyl-N-hydroxyamino)phenyl)pyrimidine
;
_chemical_melting_point 399.15
_cell_volume    658.722
_exptl_crystal_colour 'colorless'
_exptl_crystal_density_diffrn 1.227
_exptl_special_details
;
Melting point range 399.15-401.15K

;
_exptl_crystal_description 'plate'
_diffrn_ambient_temperature 293
#These two values have been output from a single CSD field.
_refine_ls_R_factor_gt 0.0424
_refine_ls_wR_factor_gt 0.0424
_symmetry_cell_setting triclinic
_symmetry_space_group_name_H-M 'P -1'
_symmetry_Int_Tables_number 2
loop_
_symmetry_equiv_pos_site_id
_symmetry_equiv_pos_as_xyz
1 x,y,z
2 -x,-y,-z
_cell_length_a 6.5952(2)
_cell_length_b 9.3397(3)
_cell_length_c 11.2448(4)
_cell_angle_alpha 84.8122(14)
_cell_angle_beta 83.1625(14)
_cell_angle_gamma 73.647(3)
_cell_formula_units_Z 2
loop_
_atom_type_symbol
_atom_type_radius_bond
C 0.68
H 0.23
N 0.68
O 0.68
loop_
_atom_site_label
_atom_site_type_symbol
_atom_site_fract_x
_atom_site_fract_y
_atom_site_fract_z
O1 O 0.39292(16) 0.32439(11) 0.1756(1)
H1 H 0.30680 0.39820 0.14860
N1 N 1.0958(2) -0.41528(13) 0.08872(12)
N2 N 1.06964(19) -0.20372(13) -0.04874(11)
N3 N 0.28828(17) 0.25230(12) 0.27382(10)
C1 C 0.9056(2) -0.34722(15) 0.14276(13)
H2 H 0.84980 -0.39730 0.20810
C2 C 1.1674(2) -0.33881(16) -0.00391(14)
H3 H 1.30040 -0.38460 -0.04160
C3 C 0.8806(2) -0.13928(15) 0.00738(13)
H4 H 0.80700 -0.04460 -0.02120
C4 C 0.7876(2) -0.20594(14) 0.10638(12)
C5 C 0.5806(2) -0.12872(14) 0.16929(12)
C6 C 0.5355(2) 0.02267(14) 0.18976(12)
H5 H 0.63440 0.07500 0.16200
C7 C 0.3441(2) 0.09609(15) 0.25126(12)
C8 C 0.1955(2) 0.01730(17) 0.29024(14)
H6 H 0.06570 0.06590 0.32990
C9 C 0.2401(2) -0.13263(18) 0.27027(14)
H7 H 0.14060 -0.18460 0.29760
C10 C 0.4306(2) -0.20608(16) 0.21021(13)
H8 H 0.45900 -0.30700 0.19700
C11 C 0.3574(2) 0.28710(16) 0.38756(14)
C12 C 0.2524(3) 0.2101(2) 0.49276(15)
H9 H 0.30210 0.10380 0.48710
H10 H 0.10110 0.24190 0.49070
H11 H 0.28790 0.23630 0.56670
C13 C 0.2730(3) 0.45605(18) 0.39698(19)
H12 H 0.33770 0.50590 0.33110
H13 H 0.30660 0.48290 0.47120
H14 H 0.12180 0.48560 0.39460
C14 C 0.5994(3) 0.2381(2) 0.38936(18)
H15 H 0.65070 0.13190 0.38270
H16 H 0.63570 0.26370 0.46330
H17 H 0.66330 0.28800 0.32320
#END
