
#######################################################################
#
#                 Cambridge Crystallographic Data Centre
#                                CCDC
#
#######################################################################
#
# If this CIF has been generated from an entry in the Cambridge
# Structural Database, then it will include bibliographic, chemical,
# crystal, experimental, refinement or atomic coordinate data resulting
# from the CCDC's data processing and validation procedures.
#
#######################################################################

data_CSD_CIF_PAXDUQ
_audit_creation_date 2017-06-21
_audit_creation_method CSD-ConQuest-V1
_database_code_CSD PAXDUQ
_database_code_depnum_ccdc_archive 'CCDC 1526503'
_chemical_formula_sum 'C22 H26 N2 O4'
_chemical_formula_moiety
;
C22 H26 N2 O4
;
_journal_coden_Cambridge 1748
_journal_volume 4
_journal_year 2017
_journal_page_first 1833
_journal_name_full 'Org.Chem.Front. '
loop_
_publ_author_name
"Hao Yan"
"Xincheng Li"
"Chunxiang Wang"
"Boshun Wan"
_chemical_name_systematic
;
t-butyl 
4-(4-methoxyphenyl)-3-phenyl-2-oxa-3,7-diazabicyclo[3.2.0]heptane-7-carboxylat
e
;
_cell_volume   1043.067
_exptl_crystal_colour 'colorless'
_exptl_crystal_density_diffrn 1.218
_exptl_crystal_description 'prismatic'
_diffrn_ambient_temperature 293
#These two values have been output from a single CSD field.
_refine_ls_R_factor_gt 0.0721
_refine_ls_wR_factor_gt 0.0721
_symmetry_cell_setting triclinic
_symmetry_space_group_name_H-M 'P -1'
_symmetry_Int_Tables_number 2
loop_
_symmetry_equiv_pos_site_id
_symmetry_equiv_pos_as_xyz
1 x,y,z
2 -x,-y,-z
_cell_length_a 6.1408(17)
_cell_length_b 10.540(3)
_cell_length_c 16.567(5)
_cell_angle_alpha 87.399(7)
_cell_angle_beta 81.181(6)
_cell_angle_gamma 79.922(6)
_cell_formula_units_Z 2
loop_
_atom_type_symbol
_atom_type_radius_bond
C 0.68
H 0.23
N 0.68
O 0.68
loop_
_atom_site_label
_atom_site_type_symbol
_atom_site_fract_x
_atom_site_fract_y
_atom_site_fract_z
N1 N 0.7209(4) 0.3352(2) 0.70316(15)
N2 N 0.6944(4) 0.6204(2) 0.68807(14)
O1 O 0.8640(3) 0.52615(18) 0.64463(12)
O2 O 0.2892(4) 0.95389(19) 0.39818(13)
O3 O 1.0597(4) 0.2199(2) 0.71325(14)
O4 O 0.7463(3) 0.17918(19) 0.79520(12)
C1 C 0.4805(5) 0.3725(3) 0.71420(19)
H1 H 0.41810 0.41470 0.76540
H2 H 0.40140 0.30360 0.70500
C2 C 0.5112(5) 0.4661(3) 0.64060(18)
H3 H 0.44310 0.44750 0.59360
C3 C 0.7627(5) 0.4185(3) 0.63295(18)
H4 H 0.82640 0.37220 0.58250
C4 C 0.4829(5) 0.6081(3) 0.65918(17)
H5 H 0.35900 0.62910 0.70390
C5 C 0.4410(4) 0.6978(2) 0.58771(15)
C6 C 0.2231(5) 0.7530(3) 0.57861(17)
H6 H 0.10510 0.73260 0.61630
C7 C 0.1787(5) 0.8367(3) 0.51531(19)
H7 H 0.03160 0.87280 0.51070
C8 C 0.3502(5) 0.8679(3) 0.45840(16)
C9 C 0.5676(5) 0.8128(3) 0.46518(17)
H8 H 0.68450 0.83190 0.42650
C10 C 0.6113(5) 0.7292(3) 0.52944(17)
H9 H 0.75860 0.69320 0.53380
C11 C 0.4607(6) 1.0014(3) 0.34418(19)
H10 H 0.56630 1.02600 0.37510
H11 H 0.39620 1.07500 0.31430
H12 H 0.53560 0.93540 0.30670
C12 C 0.7025(6) 0.6168(3) 0.77301(19)
C13 C 0.5325(8) 0.6875(4) 0.8248(2)
H13 H 0.40850 0.73340 0.80430
C14 C 0.5456(10) 0.6905(5) 0.9071(3)
H14 H 0.42680 0.73490 0.94220
C15 C 0.7304(11) 0.6292(5) 0.9371(3)
H15 H 0.73980 0.63310 0.99250
C16 C 0.8995(10) 0.5629(5) 0.8867(3)
H16 H 1.02620 0.52170 0.90760
C17 C 0.8901(7) 0.5544(4) 0.8046(2)
H17 H 1.00850 0.50730 0.77060
C18 C 0.8609(5) 0.2415(3) 0.73532(18)
C19 C 0.8621(6) 0.0853(4) 0.8482(2)
C20 C 1.0036(9) 0.1530(6) 0.8932(3)
H18 H 1.11530 0.18530 0.85460
H19 H 1.07520 0.09330 0.93050
H20 H 0.91030 0.22340 0.92310
C21 C 0.9913(7) -0.0290(4) 0.7998(3)
H21 H 0.89200 -0.06490 0.77130
H22 H 1.05600 -0.09310 0.83630
H23 H 1.10790 -0.00170 0.76110
C22 C 0.6667(7) 0.0449(4) 0.9057(2)
H24 H 0.57390 0.11990 0.93080
H25 H 0.72260 -0.01280 0.94710
H26 H 0.58030 0.00240 0.87530
#END
