
#######################################################################
#
#                 Cambridge Crystallographic Data Centre
#                                CCDC
#
#######################################################################
#
# If this CIF has been generated from an entry in the Cambridge
# Structural Database, then it will include bibliographic, chemical,
# crystal, experimental, refinement or atomic coordinate data resulting
# from the CCDC's data processing and validation procedures.
#
#######################################################################

data_CSD_CIF_PAXGAY
_audit_creation_date 2012-08-03
_audit_creation_method CSD-ConQuest-V1
_database_code_CSD PAXGAY
_database_code_depnum_ccdc_archive 'CCDC 887079'
_chemical_formula_sum 'C15 H16 N2 O4'
_chemical_formula_moiety
;
C15 H16 N2 O4
;
_journal_coeditor_code "IUCr BT5912"
_journal_coden_Cambridge 1370
_journal_volume 68
_journal_year 2012
_journal_page_first o1893
_journal_name_full 'Acta Crystallogr.,Sect.E:Struct.Rep.Online '
loop_
_publ_author_name
"M.Chakkar"
"N.Oughris"
"A.Benharref"
"J.-C.Daran"
"M.Berraho"
_chemical_name_systematic
;
1-Isopropyl-4,7-dimethyl-2,8-dinitronaphthalene
;
_cell_volume   1387.708
_exptl_crystal_colour 'orange'
_exptl_crystal_density_diffrn 1.38
_exptl_crystal_description 'box'
_diffrn_ambient_temperature 180
_refine_special_details
;
In each of the independent molecules, two nitro O atoms were disordered over 
two sites with occupancies 0.636:0.364 or 0.832:0.168.
;
#These two values have been output from a single CSD field.
_refine_ls_R_factor_gt 0.0562
_refine_ls_wR_factor_gt 0.0562
_symmetry_cell_setting triclinic
_symmetry_space_group_name_H-M 'P -1'
_symmetry_Int_Tables_number 2
loop_
_symmetry_equiv_pos_site_id
_symmetry_equiv_pos_as_xyz
1 x,y,z
2 -x,-y,-z
_cell_length_a 11.7784(7)
_cell_length_b 11.9072(9)
_cell_length_c 12.4494(10)
_cell_angle_alpha 107.928(7)
_cell_angle_beta 112.834(7)
_cell_angle_gamma 104.536(6)
_cell_formula_units_Z 4
loop_
_atom_type_symbol
_atom_type_radius_bond
C 0.68
H 0.23
N 0.68
O 0.68
loop_
_atom_site_label
_atom_site_type_symbol
_atom_site_fract_x
_atom_site_fract_y
_atom_site_fract_z
N1 N 0.12177(19) -0.0333(2) 0.42969(19)
O1 O 0.04646(17) -0.14879(18) 0.35187(18)
O2 O 0.08307(17) 0.05310(19) 0.45226(18)
C1 C 0.3602(2) 0.10012(19) 0.49485(19)
C2 C 0.2692(2) 0.0062(2) 0.5059(2)
C3 C 0.3074(2) -0.0430(2) 0.5940(2)
C4 C 0.4479(2) 0.0090(2) 0.6837(2)
H1 H 0.47870 -0.02430 0.74430
C5 C 0.5394(2) 0.1052(2) 0.6852(2)
H2 H 0.63240 0.14100 0.75030
C6 C 0.5015(2) 0.1544(2) 0.59319(19)
C7 C 0.6027(2) 0.2564(2) 0.5992(2)
C8 C 0.5566(2) 0.2971(2) 0.5057(2)
N2 N 0.6494(2) 0.4042(2) 0.5031(2)
O3 O 0.6072(3) 0.4850(3) 0.4795(4)
O4 O 0.7589(4) 0.4098(4) 0.5207(5)
C9 C 0.4217(2) 0.2397(2) 0.4043(2)
H3 H 0.39810 0.27120 0.34100
C10 C 0.3226(2) 0.1397(2) 0.3930(2)
C11 C 0.2082(3) -0.1448(3) 0.6004(3)
H4 H 0.12970 -0.12520 0.59020
H5 H 0.25250 -0.14500 0.68520
H6 H 0.17770 -0.23060 0.53010
C12 C 0.7496(2) 0.3132(3) 0.7049(2)
H7 H 0.78770 0.25020 0.68650
H8 H 0.75530 0.33300 0.78980
H9 H 0.80110 0.39340 0.70710
C13 C 0.1839(2) 0.0751(2) 0.2675(2)
H10 H 0.12630 -0.00440 0.26500
C14 C 0.1119(2) 0.1656(3) 0.2664(3)
H11 H 0.16290 0.24130 0.26200
H12 H 0.10680 0.19480 0.34640
H13 H 0.01980 0.11870 0.19000
C15 C 0.1981(2) 0.0324(3) 0.1465(2)
H14 H 0.24850 0.10940 0.14340
H15 H 0.10760 -0.01670 0.06790
H16 H 0.24730 -0.02290 0.15040
N3 N 0.54123(18) 0.18844(18) 0.0592(2)
O5 O 0.50204(18) 0.18713(19) 0.13648(19)
O6 O 0.60540(17) 0.12814(16) 0.03450(18)
C16 C 0.6104(2) 0.36905(19) 0.00222(19)
C17 C 0.5054(2) 0.2631(2) -0.0138(2)
C18 C 0.3692(2) 0.2123(2) -0.1043(2)
C19 C 0.3327(2) 0.2679(2) -0.1899(2)
H17 H 0.23950 0.23790 -0.25170
C20 C 0.4280(2) 0.3635(2) -0.1861(2)
H18 H 0.39990 0.39570 -0.24820
C21 C 0.5681(2) 0.4170(2) -0.09219(19)
C22 C 0.6641(2) 0.5173(2) -0.0930(2)
C23 C 0.7973(2) 0.5639(2) 0.0014(2)
N4 N 0.9075(2) 0.6642(3) 0.0088(3)
O7 O 0.8930(3) 0.7589(3) -0.0031(3)
O8 O 1.0134(3) 0.6522(3) 0.0337(3)
C24 C 0.8398(2) 0.5236(2) 0.0982(2)
H19 H 0.93370 0.56130 0.16130
C25 C 0.7506(2) 0.4317(2) 0.1052(2)
C26 C 0.2617(2) 0.1001(3) -0.1173(3)
H20 H 0.29490 0.03350 -0.11050
H21 H 0.17910 0.06260 -0.20250
H22 H 0.24140 0.13140 -0.04750
C27 C 0.6183(3) 0.5633(3) -0.1961(2)
H23 H 0.69710 0.61140 -0.19880
H24 H 0.57510 0.62030 -0.17470
H25 H 0.55310 0.48790 -0.28160
C28 C 0.8082(2) 0.4112(2) 0.2271(2)
H26 H 0.73030 0.35300 0.22700
C29 C 0.9031(3) 0.3446(3) 0.2262(3)
H27 H 0.85440 0.26180 0.14640
H28 H 0.93400 0.32830 0.30290
H29 H 0.98170 0.40100 0.22890
C30 C 0.8806(3) 0.5412(3) 0.3512(2)
H30 H 0.90800 0.52540 0.42820
H31 H 0.81870 0.58360 0.34790
H32 H 0.96120 0.59780 0.35670
O9? O 0.6349(6) 0.3925(7) 0.4012(6)
O10? O 0.7403(6) 0.4984(6) 0.6108(6)
O11? O 0.8868(16) 0.6378(15) -0.1107(14)
O12? O 0.985(2) 0.7387(19) 0.0982(18)
#END
