
#######################################################################
#
#                 Cambridge Crystallographic Data Centre
#                                CCDC
#
#######################################################################
#
# If this CIF has been generated from an entry in the Cambridge
# Structural Database, then it will include bibliographic, chemical,
# crystal, experimental, refinement or atomic coordinate data resulting
# from the CCDC's data processing and validation procedures.
#
#######################################################################

data_CSD_CIF_PAXJOO
_audit_creation_date 2006-02-07
_audit_creation_method CSD-ConQuest-V1
_database_code_CSD PAXJOO
_database_code_depnum_ccdc_archive 'CCDC 288493'
_chemical_formula_sum 'C10 H5 N3 O2'
_chemical_formula_moiety
;
C10 H5 N3 O2
;
_journal_coden_Cambridge 35
_journal_volume 70
_journal_year 2005
_journal_page_first 7459
_journal_name_full 'J.Org.Chem. '
loop_
_publ_author_name
"J.R.Quinn"
"S.C.Zimmerman"
_chemical_name_systematic
;
8-Nitroquinoline-2-carbonitrile
;
_chemical_melting_point 467.15
_cell_volume    897.759
_exptl_crystal_colour 'colorless'
_exptl_crystal_density_diffrn 1.474
_exptl_special_details
;
Melting point range 467.15-468.15K

;
_exptl_crystal_description 'tabular cut'
_diffrn_ambient_temperature 193
_refine_special_details
;
The oxygen atoms of the nitro group may be disordered, although this was not 
modelled.
;
#These two values have been output from a single CSD field.
_refine_ls_R_factor_gt 0.0398
_refine_ls_wR_factor_gt 0.0398
_symmetry_cell_setting orthorhombic
_symmetry_space_group_name_H-M 'P n m a'
_symmetry_Int_Tables_number 62
loop_
_symmetry_equiv_pos_site_id
_symmetry_equiv_pos_as_xyz
1 x,y,z
2 1/2-x,-y,1/2+z
3 -x,1/2+y,-z
4 1/2+x,1/2-y,1/2-z
5 -x,-y,-z
6 -1/2+x,y,-1/2-z
7 x,-1/2-y,z
8 -1/2-x,-1/2+y,-1/2+z
_cell_length_a 17.447(8)
_cell_length_b 6.625(3)
_cell_length_c 7.767(4)
_cell_angle_alpha 90
_cell_angle_beta 90
_cell_angle_gamma 90
_cell_formula_units_Z 4
loop_
_atom_type_symbol
_atom_type_radius_bond
C 0.68
H 0.23
N 0.68
O 0.68
loop_
_atom_site_label
_atom_site_type_symbol
_atom_site_fract_x
_atom_site_fract_y
_atom_site_fract_z
C1 C 0.29760(11) 0.25000 0.1760(3)
C2 C 0.33859(13) 0.25000 0.0199(3)
H1 H 0.3923(14) 0.25000 0.019(3)
C3 C 0.29798(12) 0.25000 -0.1301(3)
H2 H 0.3215(13) 0.25000 -0.238(3)
C4 C 0.21673(12) 0.25000 -0.1247(3)
C5 C 0.16996(13) 0.25000 -0.2740(3)
H3 H 0.1942(12) 0.25000 -0.383(3)
C6 C 0.09169(13) 0.25000 -0.2607(3)
H4 H 0.0597(13) 0.25000 -0.361(3)
C7 C 0.05585(13) 0.25000 -0.0971(3)
H5 H 0.0016(14) 0.25000 -0.089(3)
C8 C 0.10038(12) 0.25000 0.0466(3)
C9 C 0.18156(11) 0.25000 0.0409(2)
C10 C 0.33889(11) 0.25000 0.3379(3)
N1 N 0.22165(9) 0.25000 0.1908(2)
N2 N 0.37166(11) 0.25000 0.4664(2)
N3 N 0.06373(9) 0.25000 0.2182(2)
O1 O 0.05026(10) 0.0899(2) 0.28437(18)
O1F O 0.05026(10) 0.4101(2) 0.28437(18)
#END
