
#######################################################################
#
#                 Cambridge Crystallographic Data Centre
#                                CCDC
#
#######################################################################
#
# If this CIF has been generated from an entry in the Cambridge
# Structural Database, then it will include bibliographic, chemical,
# crystal, experimental, refinement or atomic coordinate data resulting
# from the CCDC's data processing and validation procedures.
#
#######################################################################

data_CSD_CIF_PAXQAI
_audit_creation_date 2012-07-11
_audit_creation_method CSD-ConQuest-V1
_database_code_CSD PAXQAI
_database_code_depnum_ccdc_archive 'CCDC 887118'
_chemical_formula_sum 'C25 H27 N1 O5'
_chemical_formula_moiety
;
C25 H27 N1 O5
;
_journal_coeditor_code "IUCr FF2067"
_journal_coden_Cambridge 1370
_journal_volume 68
_journal_year 2012
_journal_page_first o1947
_journal_name_full 'Acta Crystallogr.,Sect.E:Struct.Rep.Online '
loop_
_publ_author_name
"J.K.Lee"
"S.-J.Min"
"Y.S.Cho"
"K.S.Lee"
"J.H.Cha"
_chemical_name_systematic
;
(E)-3,3,6,6-Tetramethyl-9-(2-(2-nitrophenyl)vinyl)-3,4,5,6,7,9-hexahydro-1H-xa
nthene-1,8(2H)-dione
;
_cell_volume   4428.584
_exptl_crystal_colour 'colorless'
_exptl_crystal_density_diffrn 1.264
_exptl_crystal_description 'block'
_diffrn_ambient_temperature 296
#These two values have been output from a single CSD field.
_refine_ls_R_factor_gt 0.048
_refine_ls_wR_factor_gt 0.048
_symmetry_cell_setting monoclinic
_symmetry_space_group_name_H-M 'C 2/c'
_symmetry_Int_Tables_number 15
loop_
_symmetry_equiv_pos_site_id
_symmetry_equiv_pos_as_xyz
1 x,y,z
2 -x,y,1/2-z
3 1/2+x,1/2+y,z
4 1/2-x,1/2+y,1/2-z
5 -x,-y,-z
6 x,-y,-1/2+z
7 -1/2-x,-1/2-y,-z
8 -1/2+x,-1/2-y,-1/2+z
_cell_length_a 33.312(3)
_cell_length_b 9.4144(6)
_cell_length_c 14.4581(10)
_cell_angle_alpha 90
_cell_angle_beta 102.3931(19)
_cell_angle_gamma 90
_cell_formula_units_Z 8
loop_
_atom_type_symbol
_atom_type_radius_bond
C 0.68
H 0.23
N 0.68
O 0.68
loop_
_atom_site_label
_atom_site_type_symbol
_atom_site_fract_x
_atom_site_fract_y
_atom_site_fract_z
O1 O 0.17679(3) 0.29705(11) 0.33160(7)
O2 O 0.10180(4) 0.41560(15) 0.56326(9)
O3 O 0.20630(5) -0.00886(16) 0.59592(9)
O4 O 0.10890(7) -0.1543(3) 0.70033(15)
O5 O 0.05219(8) -0.1355(3) 0.74228(13)
N1 N 0.07269(6) -0.14573(18) 0.68205(12)
C1 C 0.14994(4) 0.19968(16) 0.49809(10)
C2 C 0.11356(4) 0.44403(17) 0.49075(10)
C3 C 0.10484(5) 0.58616(18) 0.44234(12)
C4 C 0.10020(5) 0.58137(17) 0.33439(11)
C5 C 0.13839(5) 0.50909(17) 0.31324(11)
C6 C 0.23027(5) 0.12986(15) 0.34094(11)
C7 C 0.24393(5) -0.01947(16) 0.37621(11)
C8 C 0.24960(5) -0.01955(18) 0.48454(11)
C9 C 0.21302(5) 0.03331(17) 0.52095(11)
C10 C 0.13847(4) 0.34177(15) 0.45014(10)
C11 C 0.15034(4) 0.37823(15) 0.37052(10)
C12 C 0.19683(4) 0.18691(15) 0.38454(10)
C13 C 0.18697(4) 0.14200(15) 0.46483(10)
C14 C 0.11429(5) 0.09666(17) 0.47453(11)
C15 C 0.09654(5) 0.03555(16) 0.53714(10)
C16 C 0.06166(4) -0.06426(15) 0.5152(1)
C17 C 0.03628(5) -0.07231(17) 0.42507(11)
C18 C 0.00380(5) -0.1662(2) 0.40412(13)
C19 C -0.00562(6) -0.2543(2) 0.47284(15)
C20 C 0.01737(6) -0.24595(18) 0.56348(14)
C21 C 0.05035(5) -0.15289(16) 0.58291(11)
C22 C 0.21140(6) -0.12792(19) 0.33232(14)
C23 C 0.28438(6) -0.0549(2) 0.34786(15)
C24 C 0.09700(6) 0.73118(19) 0.29204(14)
C25 C 0.06161(5) 0.4985(3) 0.28947(14)
H1 H 0.15730 0.21380 0.56680
H2 H 0.12700 0.65090 0.46870
H3 H 0.07980 0.62430 0.45640
H4 H 0.13320 0.48460 0.24660
H5 H 0.16110 0.57560 0.32580
H6 H 0.25370 0.19340 0.35540
H7 H 0.22070 0.12750 0.27270
H8 H 0.25580 -0.11570 0.50730
H9 H 0.27320 0.03920 0.51130
H10 H 0.04140 -0.01260 0.37770
H11 H -0.01200 -0.17010 0.34280
H12 H -0.02730 -0.31850 0.45780
H13 H 0.01090 -0.30190 0.61130
H14 H 0.18750 -0.11620 0.35870
H15 H 0.22220 -0.22210 0.34560
H16 H 0.20400 -0.11380 0.26510
H17 H 0.29180 -0.15150 0.36460
H18 H 0.30560 0.00740 0.38040
H19 H 0.28120 -0.04280 0.28070
H20 H 0.12140 0.78390 0.31900
H21 H 0.07350 0.77850 0.30590
H22 H 0.09420 0.72500 0.22470
H23 H 0.03790 0.54490 0.30350
H24 H 0.06350 0.40380 0.31450
H25 H 0.05910 0.49480 0.22210
H26 H 0.1051(7) 0.077(3) 0.4067(15)
H27 H 0.1074(6) 0.060(2) 0.6052(14)
#END
