
#######################################################################
#
#                 Cambridge Crystallographic Data Centre
#                                CCDC
#
#######################################################################
#
# If this CIF has been generated from an entry in the Cambridge
# Structural Database, then it will include bibliographic, chemical,
# crystal, experimental, refinement or atomic coordinate data resulting
# from the CCDC's data processing and validation procedures.
#
#######################################################################

data_CSD_CIF_PAYBAV
_audit_creation_date 2017-06-22
_audit_creation_method CSD-ConQuest-V1
_database_code_CSD PAYBAV
_database_code_depnum_ccdc_archive 'CCDC 1517164'
_chemical_formula_sum 'C12 H10 N4 O3'
_chemical_formula_moiety
;
C12 H10 N4 O3
;
_journal_coden_Cambridge 1678
_journal_volume 53
_journal_year 2017
_journal_page_first 582
_journal_name_full 'Chemistry of Heterocyclic Compounds '
loop_
_publ_author_name
"V.V.Fedotov"
"E.N.Ulomskiy"
"E.B.Gorbunov"
"O.S.Eltsov"
"E.K.Voinkov"
"K.V.Savateev"
"R.A.Drokin"
"S.K.Kotovskaya"
"V.L.Rusinov"
_chemical_name_systematic
;
10-ethyl-3-nitropyrimido[1,2-a]benzimidazol-4(10H)-one
;
_chemical_name_common
;
benzimidazo [1,2-a] pyrimidin-4-one
;
_chemical_melting_point 526
_cell_volume   1151.849
_exptl_crystal_colour 'colorless'
_exptl_crystal_density_diffrn 1.489
_exptl_crystal_description 'prism'
_exptl_crystal_preparation 'chloroform'
_diffrn_ambient_temperature 295
#These two values have been output from a single CSD field.
_refine_ls_R_factor_gt 0.0506
_refine_ls_wR_factor_gt 0.0506
_symmetry_cell_setting monoclinic
_symmetry_space_group_name_H-M 'P 21/c'
_symmetry_Int_Tables_number 14
loop_
_symmetry_equiv_pos_site_id
_symmetry_equiv_pos_as_xyz
1 x,y,z
2 -x,1/2+y,1/2-z
3 -x,-y,-z
4 x,-1/2-y,-1/2+z
_cell_length_a 8.261(5)
_cell_length_b 19.36(3)
_cell_length_c 7.957(6)
_cell_angle_alpha 90
_cell_angle_beta 115.16(7)
_cell_angle_gamma 90
_cell_formula_units_Z 4
loop_
_atom_type_symbol
_atom_type_radius_bond
C 0.68
H 0.23
N 0.68
O 0.68
loop_
_atom_site_label
_atom_site_type_symbol
_atom_site_fract_x
_atom_site_fract_y
_atom_site_fract_z
N1 N 0.1506(2) 0.46065(8) 0.2068(2)
C1 C 0.2818(2) 0.43339(9) 0.3551(2)
O1 O 0.3273(2) 0.53423(8) 0.7447(2)
N2 N 0.3815(2) 0.37843(8) 0.3539(2)
O2 O 0.0773(3) 0.63403(9) 0.5832(3)
C2 C 0.5039(2) 0.36412(9) 0.5359(2)
N3 N 0.33973(19) 0.45662(7) 0.5348(2)
O3 O -0.0997(2) 0.62445(10) 0.2942(3)
C3 C 0.6327(3) 0.31287(10) 0.6063(3)
H1 H 0.647(3) 0.2808(13) 0.522(3)
N4 N 0.0284(2) 0.60462(8) 0.4335(2)
C4 C 0.7359(3) 0.31298(11) 0.7955(3)
H2 H 0.824(3) 0.2797(15) 0.848(4)
C5 C 0.7111(3) 0.36219(11) 0.9116(3)
H3 H 0.786(3) 0.3632(12) 1.047(4)
C6 C 0.5819(3) 0.41293(10) 0.8422(3)
H4 H 0.565(3) 0.4479(12) 0.919(3)
C7 C 0.4793(2) 0.41310(9) 0.6525(2)
C8 C 0.2657(2) 0.51599(9) 0.5830(3)
C9 C 0.1243(2) 0.54424(9) 0.4195(3)
C10 C 0.0737(3) 0.51582(10) 0.2445(3)
H5 H -0.026(3) 0.5366(11) 0.130(3)
C11 C 0.3608(3) 0.34095(11) 0.1853(3)
H6 H 0.47790 0.32810 0.19470
H7 H 0.30520 0.37110 0.07850
C12 C 0.2488(4) 0.27713(14) 0.1569(4)
H8 H 0.22700 0.25670 0.03930
H9 H 0.13690 0.28920 0.15890
H10 H 0.31090 0.24470 0.25450
#END
