
#######################################################################
#
#                 Cambridge Crystallographic Data Centre
#                                CCDC
#
#######################################################################
#
# If this CIF has been generated from an entry in the Cambridge
# Structural Database, then it will include bibliographic, chemical,
# crystal, experimental, refinement or atomic coordinate data resulting
# from the CCDC's data processing and validation procedures.
#
#######################################################################

data_CSD_CIF_PAYWEU
_audit_creation_date 2017-06-22
_audit_creation_method CSD-ConQuest-V1
_database_code_CSD PAYWEU
_database_code_depnum_ccdc_archive 'CCDC 851945'
_chemical_formula_sum 'C32 H34 N4 O2'
_chemical_formula_moiety
;
C32 H34 N4 O2
;
_journal_coden_Cambridge 1326
_journal_volume 19
_journal_year 2017
_journal_page_first 17263
_journal_name_full 'Phys.Chem.Chem.Phys.(PCCP) '
loop_
_publ_author_name
"E.A.Jaumann"
"S.Steinwand"
"S.Klenik"
"J.Plackmeyer"
"J.W.Bats"
"J.Wachtveitl"
"T.F.Prisner"
_chemical_name_systematic
;
3,3'-(diazene-1,2-diylbis(4,1-phenyleneethyne-2,1-diyl))bis(2,2,5,5-tetramethy
l-2,5-dihydro-1H-pyrrol-1-olate radical)
;
_cell_volume    702.854
_exptl_crystal_colour 'colorless'
_exptl_crystal_density_diffrn 1.197
_exptl_crystal_description 'rod'
_diffrn_ambient_temperature 171
#These two values have been output from a single CSD field.
_refine_ls_R_factor_gt 0.0591
_refine_ls_wR_factor_gt 0.0591
_symmetry_cell_setting triclinic
_symmetry_space_group_name_H-M 'P -1'
_symmetry_Int_Tables_number 2
loop_
_symmetry_equiv_pos_site_id
_symmetry_equiv_pos_as_xyz
1 x,y,z
2 -x,-y,-z
_cell_length_a 5.9834(8)
_cell_length_b 6.4373(8)
_cell_length_c 18.610(2)
_cell_angle_alpha 89.153(2)
_cell_angle_beta 87.364(2)
_cell_angle_gamma 78.992(2)
_cell_formula_units_Z 1
loop_
_atom_type_symbol
_atom_type_radius_bond
C 0.68
H 0.23
N 0.68
O 0.68
loop_
_atom_site_label
_atom_site_type_symbol
_atom_site_fract_x
_atom_site_fract_y
_atom_site_fract_z
O1 O -0.2937(4) -0.1532(3) 0.39734(11)
N1 N 0.9668(5) 0.4123(4) -0.00119(14)
N2 N -0.2272(4) 0.0043(4) 0.36686(13)
C1 C 0.2310(6) 0.2998(5) 0.18682(17)
C2 C 0.4108(5) 0.3358(5) 0.13730(16)
C3 C -0.0521(5) 0.2112(5) 0.28970(16)
C4 C 0.7747(6) 0.3993(5) 0.04688(16)
C5 C -0.1729(5) 0.3373(5) 0.33939(16)
H1 H -0.17970 0.48590 0.34000
C6 C 0.0935(6) 0.2665(5) 0.23315(17)
C7 C -0.0737(5) -0.0184(5) 0.30181(16)
C8 C -0.2969(5) 0.2242(5) 0.39403(16)
C9 C 0.5114(6) 0.1825(5) 0.08826(17)
H2 H 0.45410 0.05520 0.08540
C10 C 0.6750(6) 0.5547(5) 0.09434(17)
H3 H 0.72970 0.68360 0.09630
C11 C 0.1519(5) -0.1602(4) 0.31729(16)
H4 H 0.21690 -0.10570 0.35890
H5 H 0.25710 -0.16250 0.27530
H6 H 0.12750 -0.30400 0.32780
C12 C 0.4954(6) 0.5218(5) 0.13885(17)
H7 H 0.42710 0.62960 0.17170
C13 C 0.6942(6) 0.2117(5) 0.04327(17)
H8 H 0.76350 0.10450 0.01040
C14 C -0.2161(6) 0.2428(5) 0.46987(15)
H9 H -0.29370 0.15780 0.50320
H10 H -0.25180 0.39130 0.48480
H11 H -0.05110 0.19130 0.47030
C15 C -0.1864(6) -0.1032(5) 0.24003(15)
H12 H -0.20600 -0.24800 0.25120
H13 H -0.09020 -0.10300 0.19600
H14 H -0.33560 -0.01320 0.23310
C16 C -0.5549(5) 0.2920(5) 0.39263(17)
H15 H -0.60450 0.27260 0.34410
H16 H -0.59880 0.44150 0.40600
H17 H -0.62750 0.20560 0.42690
O1A O 2.2937(4) 1.1532(3) -0.39734(11)
N1A N 1.0332(5) 0.5877(4) 0.00119(14)
N2A N 2.2272(4) 0.9957(4) -0.36686(13)
C1A C 1.7690(6) 0.7002(5) -0.18682(17)
C2A C 1.5892(5) 0.6642(5) -0.13730(16)
C3A C 2.0521(5) 0.7888(5) -0.28970(16)
C4A C 1.2253(6) 0.6007(5) -0.04688(16)
C5A C 2.1729(5) 0.6627(5) -0.33939(16)
H1A H 2.17970 0.51410 -0.34000
C6A C 1.9065(6) 0.7335(5) -0.23315(17)
C7A C 2.0737(5) 1.0184(5) -0.30181(16)
C8A C 2.2969(5) 0.7758(5) -0.39403(16)
C9A C 1.4886(6) 0.8175(5) -0.08826(17)
H2A H 1.54590 0.94480 -0.08540
C10A C 1.3250(6) 0.4453(5) -0.09434(17)
H3A H 1.27030 0.31640 -0.09630
C11A C 1.8481(5) 1.1602(4) -0.31729(16)
H4A H 1.78310 1.10570 -0.35890
H5A H 1.74290 1.16250 -0.27530
H6A H 1.87250 1.30400 -0.32780
C12A C 1.5046(6) 0.4782(5) -0.13885(17)
H7A H 1.57290 0.37040 -0.17170
C13A C 1.3058(6) 0.7883(5) -0.04327(17)
H8A H 1.23650 0.89550 -0.01040
C14A C 2.2161(6) 0.7572(5) -0.46987(15)
H9A H 2.29370 0.84220 -0.50320
H10A H 2.25180 0.60870 -0.48480
H11A H 2.05110 0.80870 -0.47030
C15A C 2.1864(6) 1.1032(5) -0.24003(15)
H12A H 2.20600 1.24800 -0.25120
H13A H 2.09020 1.10300 -0.19600
H14A H 2.33560 1.01320 -0.23310
C16A C 2.5549(5) 0.7080(5) -0.39263(17)
H15A H 2.60450 0.72740 -0.34410
H16A H 2.59880 0.55850 -0.40600
H17A H 2.62750 0.79440 -0.42690
#END
