
#######################################################################
#
#                 Cambridge Crystallographic Data Centre
#                                CCDC
#
#######################################################################
#
# If this CIF has been generated from an entry in the Cambridge
# Structural Database, then it will include bibliographic, chemical,
# crystal, experimental, refinement or atomic coordinate data resulting
# from the CCDC's data processing and validation procedures.
#
#######################################################################

data_CSD_CIF_PAZOXN13
_audit_creation_date 2018-07-05
_audit_creation_method CSD-ConQuest-V1
_database_code_CSD PAZOXN13
_database_code_depnum_ccdc_archive 'CCDC 1853890'
_chemical_formula_sum 'C14 H14 N2 O3'
_chemical_formula_moiety
;
C14 H14 N2 O3
;
_journal_coden_Cambridge 1777
_journal_volume 70
_journal_year 2014
_journal_page_first 834
_journal_name_full 'Acta Crystallogr.,Sect.C:Cryst.Struct.Chem. '
loop_
_publ_author_name
"L.M.Henling"
"R.E.Marsh"
_chemical_name_systematic
;
1,2-bis(4-methoxyphenyl)-1-diazen-1-ol
;
_chemical_name_common
;
p-azoxyanisole
;
_cell_volume   1286.154
_exptl_crystal_colour 'yellow'
_exptl_crystal_density_diffrn 1.334
_exptl_crystal_description 'plate'
_diffrn_ambient_temperature 293
loop_
_citation_database_id_CSD
_citation_special_details
PAZOXN12 "is reinterpreted by this entry"
_symmetry_cell_setting monoclinic
_symmetry_space_group_name_H-M 'P 21/n'
_symmetry_Int_Tables_number 14
loop_
_symmetry_equiv_pos_site_id
_symmetry_equiv_pos_as_xyz
1 x,y,z
2 1/2-x,1/2+y,1/2-z
3 -x,-y,-z
4 -1/2+x,-1/2-y,-1/2+z
_cell_length_a 11.0245(8)
_cell_length_b 8.1166(5)
_cell_length_c 15.0455(11)
_cell_angle_alpha 90
_cell_angle_beta 107.190(3)
_cell_angle_gamma 90
_cell_formula_units_Z 4
loop_
_atom_type_symbol
_atom_type_radius_bond
C 0.68
H 0.23
N 0.68
O 0.68
loop_
_atom_site_label
_atom_site_type_symbol
_atom_site_fract_x
_atom_site_fract_y
_atom_site_fract_z
C1 C 0.37990 0.68420 0.82980
C2 C 0.29240 0.60760 0.86370
H1 H 0.22360 0.55440 0.82270
C3 C 0.30400 0.60760 0.95610
H2 H 0.24240 0.55590 0.97710
C4 C 0.40640 0.68380 1.01980
C5 C 0.49620 0.76120 0.98660
H3 H 0.56580 0.81200 1.02780
C6 C 0.48220 0.76280 0.89220
H4 H 0.54190 0.81700 0.87020
C7 C 0.51610 0.74300 1.17840
H5 H 0.59300 0.69720 1.17140
H6 H 0.51060 0.71840 1.23950
H7 H 0.51640 0.86030 1.17030
C8 C 0.38950 0.69040 0.58930
C9 C 0.44680 0.78580 0.53820
H8 H 0.49550 0.87600 0.56550
C10 C 0.43210 0.74840 0.44780
H9 H 0.47100 0.81380 0.41340
C11 C 0.35960 0.61380 0.40560
C12 C 0.30120 0.51740 0.45640
H10 H 0.25180 0.42790 0.42880
C13 C 0.31700 0.55510 0.54920
H11 H 0.27890 0.48990 0.58420
C14 C 0.28040 0.45420 0.26700
H12 H 0.31260 0.35300 0.29800
H13 H 0.28620 0.45120 0.20460
H14 H 0.19340 0.46780 0.26540
N1 N 0.35580 0.65280 0.72600
N2 N 0.41460 0.73990 0.69380
O1 O 0.48740 0.86120 0.71990
O2 O 0.40960 0.67360 1.11040
O3 O 0.35360 0.58880 0.31580
#END
