
#######################################################################
#
#                 Cambridge Crystallographic Data Centre
#                                CCDC
#
#######################################################################
#
# If this CIF has been generated from an entry in the Cambridge
# Structural Database, then it will include bibliographic, chemical,
# crystal, experimental, refinement or atomic coordinate data resulting
# from the CCDC's data processing and validation procedures.
#
#######################################################################

data_CSD_CIF_PAZOXN12
_audit_creation_date 2013-04-04
_audit_creation_method CSD-ConQuest-V1
_database_code_CSD PAZOXN12
_database_code_depnum_ccdc_archive 'CCDC 865916'
_chemical_formula_sum 'C14 H14 N2 O3'
_chemical_formula_moiety
;
C14 H14 N2 O3
;
_journal_coden_Cambridge 1366
_journal_volume 354
_journal_year 2012
_journal_page_first 2412
_journal_name_full 'Adv.Synth.Catal. '
loop_
_publ_author_name
"Ju Hyun Kim"
"Ji Hoon Park"
"Young Keun Chung"
"Kang Hyun Park"
_chemical_name_systematic
;
1-Hydroxy-1,2-bis(4-methoxyphenyl)-1\l^5^-diazene
;
_cell_volume   1286.154
_exptl_crystal_colour 'yellow'
_exptl_crystal_density_diffrn 1.334
_exptl_crystal_description 'plate'
_diffrn_ambient_temperature 293
#These two values have been output from a single CSD field.
_refine_ls_R_factor_gt 0.0619
_refine_ls_wR_factor_gt 0.0619
loop_
_citation_database_id_CSD
_citation_special_details
PAZOXN13 "is a reinterpretation of this cif"
_symmetry_cell_setting monoclinic
_symmetry_space_group_name_H-M 'P n'
_symmetry_Int_Tables_number 7
loop_
_symmetry_equiv_pos_site_id
_symmetry_equiv_pos_as_xyz
1 x,y,z
2 1/2+x,-y,1/2+z
_cell_length_a 11.0245(8)
_cell_length_b 8.1166(5)
_cell_length_c 15.0455(11)
_cell_angle_alpha 90
_cell_angle_beta 107.190(3)
_cell_angle_gamma 90
_cell_formula_units_Z 4
loop_
_atom_type_symbol
_atom_type_radius_bond
C 0.68
H 0.23
N 0.68
O 0.68
loop_
_atom_site_label
_atom_site_type_symbol
_atom_site_fract_x
_atom_site_fract_y
_atom_site_fract_z
C1 C 0.8861(7) 0.9351(9) 0.0887(5)
C2 C 0.8014(7) 0.8587(8) 0.1218(5)
H1 H 0.73340 0.80540 0.08010
C3 C 0.8102(6) 0.8555(7) 0.2135(4)
H2 H 0.74900 0.80190 0.23420
C4 C 0.9130(5) 0.9343(6) 0.2763(4)
C5 C 1.0055(6) 1.0049(8) 0.2445(5)
H3 H 1.07760 1.04980 0.28630
C6 C 0.9904(7) 1.0088(8) 0.1495(5)
H4 H 1.05060 1.06090 0.12710
C7 C 1.0230(8) 0.9929(9) 0.4375(5)
H5 H 1.10060 0.94810 0.43110
H6 H 1.01570 0.96550 0.49780
H7 H 1.02350 1.11050 0.43090
C8 C 0.8990(6) 0.9392(8) -0.1536(4)
C9 C 0.9487(7) 1.0337(8) -0.2055(5)
H8 H 0.99460 1.12650 -0.17880
C10 C 0.9354(6) 1.0005(7) -0.2949(4)
H9 H 0.97270 1.06950 -0.32870
C11 C 0.8671(6) 0.8653(6) -0.3376(4)
C12 C 0.8080(5) 0.7655(7) -0.2869(4)
H10 H 0.75870 0.67590 -0.31470
C13 C 0.8253(5) 0.8043(8) -0.1919(4)
H11 H 0.78770 0.74020 -0.15610
C14 C 0.7875(8) 0.7018(9) -0.4755(5)
H12 H 0.81870 0.60130 -0.44320
H13 H 0.79300 0.69570 -0.53790
H14 H 0.70060 0.71780 -0.47710
N1 N 0.8623(5) 0.9045(6) -0.0120(3)
N2 N 0.9241(4) 0.9903(5) -0.0405(7)
O1 O 0.9954(4) 1.1113(5) -0.0237(3)
O2 O 0.9176(4) 0.9251(5) 0.3672(3)
O3 O 0.8633(4) 0.8390(6) -0.4275(3)
C15 C 1.1263(6) 0.5666(7) -0.5709(4)
C16 C 1.2166(5) 0.6436(6) -0.6056(5)
H15 H 1.28610 0.69670 -0.56530
C17 C 1.2022(6) 0.6402(7) -0.6987(5)
H16 H 1.26430 0.69010 -0.72000
C18 C 1.1002(6) 0.5667(7) -0.7634(5)
C19 C 1.0132(5) 0.4826(6) -0.7287(4)
H17 H 0.94610 0.42580 -0.76930
C20 C 1.0260(6) 0.4832(8) -0.6350(5)
H18 H 0.96680 0.42700 -0.61330
C21 C 0.9908(6) 0.5068(8) -0.9194(5)
H19 H 0.99070 0.38990 -0.90970
H20 H 0.99460 0.52880 -0.98120
H21 H 0.91470 0.55380 -0.91160
C22 C 1.1200(6) 0.5585(7) -0.3322(4)
C23 C 1.1914(6) 0.6941(9) -0.2902(4)
H22 H 1.22990 0.76040 -0.32460
C24 C 1.2055(6) 0.7306(7) -0.1997(4)
H23 H 1.25510 0.82010 -0.17220
C25 C 1.1480(5) 0.6376(7) -0.1489(4)
C26 C 1.0712(6) 0.5037(7) -0.1905(5)
H24 H 1.03070 0.44200 -0.15560
C27 C 1.0551(6) 0.4622(8) -0.2820(5)
H25 H 1.00360 0.37440 -0.30980
C28 C 1.2267(6) 0.7935(8) -0.0094(5)
H26 H 1.31390 0.78210 -0.00790
H27 H 1.22070 0.79340 0.05290
H28 H 1.19360 0.89540 -0.03930
N3 N 1.0949(4) 0.5105(6) -0.4281(3)
N4 N 1.1508(5) 0.5990(6) -0.4640(6)
O4 O 1.0205(5) 0.3890(5) -0.4635(3)
O5 O 1.0985(4) 0.5780(5) -0.8535(3)
O6 O 1.1561(5) 0.6615(5) -0.0592(3)
#END
