
#######################################################################
#
#                 Cambridge Crystallographic Data Centre
#                                CCDC
#
#######################################################################
#
# If this CIF has been generated from an entry in the Cambridge
# Structural Database, then it will include bibliographic, chemical,
# crystal, experimental, refinement or atomic coordinate data resulting
# from the CCDC's data processing and validation procedures.
#
#######################################################################

data_CSD_CIF_PAZOXN
_audit_creation_date 1971-12-31
_audit_creation_method CSD-ConQuest-V1
_database_code_CSD PAZOXN
_database_code_depnum_ccdc_archive 'CCDC 1229168'
_chemical_formula_sum 'C14 H14 N2 O3'
_chemical_formula_moiety
;
C14 H14 N2 O3
;
_journal_coeditor_code "IUCr A07346"
_journal_coden_Cambridge 107
_journal_volume 26
_journal_year 1970
_journal_page_first 97
_journal_name_full 'Acta Crystallogr.,Sect.B:Struct.Crystallogr.Cryst.Chem. '
loop_
_publ_author_name
"W.R.Krigbaum"
"Y.Chatani"
"P.G.Barber"
_chemical_name_systematic
;
p-Azoxyanisole
;
_cell_volume   1282.355
_exptl_crystal_density_diffrn 1.337
_exptl_special_details
;
stable polymorph
X COORDINATE OF H23 SHOULD BE NEGATIVE

;
_diffrn_ambient_temperature ?
_diffrn_special_details
;
The study was carried out at room temperature,in the range 283-303K

;
#These two values have been output from a single CSD field.
_refine_ls_R_factor_gt 0.091
_refine_ls_wR_factor_gt 0.091
_symmetry_cell_setting monoclinic
_symmetry_space_group_name_H-M 'P 21/a'
_symmetry_Int_Tables_number 14
loop_
_symmetry_equiv_pos_site_id
_symmetry_equiv_pos_as_xyz
1 x,y,z
2 1/2-x,1/2+y,-z
3 -x,-y,-z
4 -1/2+x,-1/2-y,z
_cell_length_a 15.776(12)
_cell_length_b 8.112(5)
_cell_length_c 11.018(9)
_cell_angle_alpha 90
_cell_angle_beta 114.57(4)
_cell_angle_gamma 90
_cell_formula_units_Z 4
loop_
_atom_type_symbol
_atom_type_radius_bond
C 0.68
H 0.20
N 0.68
O 0.68
loop_
_atom_site_label
_atom_site_type_symbol
_atom_site_fract_x
_atom_site_fract_y
_atom_site_fract_z
C1 C -0.23311 -0.04705 0.48652
C2 C 0.33006 0.18597 0.94867
C3 C 0.36329 0.10634 1.07232
C4 C 0.45643 0.10696 1.15318
C5 C 0.51990 0.18355 1.11352
C6 C 0.48810 0.26231 0.99162
C7 C 0.39226 0.26357 0.91016
C8 C 0.67989 0.24368 1.16339
C9 C -0.09467 0.11463 0.54570
C10 C -0.04312 0.01732 0.65615
C11 C 0.04985 0.05669 0.73317
C12 C 0.08950 0.19123 0.69894
C13 C 0.03868 0.28628 0.58969
C14 C -0.05281 0.24810 0.51327
H1 H -0.06970 -0.07370 0.68340
H2 H 0.08630 -0.02170 0.81230
H3 H 0.07470 0.38270 0.56640
H4 H -0.09100 0.31800 0.43780
H5 H 0.31700 0.04370 1.08780
H6 H 0.48650 0.04900 1.25510
H7 H 0.53350 0.31780 0.96290
H8 H 0.37940 0.31930 0.82940
H9 H -0.23640 -0.03030 0.58760
H10 H -0.29520 -0.04260 0.40610
H11 H -0.19860 -0.16340 0.48180
H12 H 0.66670 0.36590 1.15080
H13 H 0.67220 0.19340 1.07400
H14 H 0.74270 0.20200 1.23540
N1 N 0.22817 0.15249 0.87293
N2 N 0.18922 0.23966 0.77533
O1 O 0.22030 0.36082 0.73160
O2 O 0.61080 0.17329 1.20136
O3 O -0.18465 0.08853 0.46132
#END
