
#######################################################################
#
#                 Cambridge Crystallographic Data Centre
#                                CCDC
#
#######################################################################
#
# If this CIF has been generated from an entry in the Cambridge
# Structural Database, then it will include bibliographic, chemical,
# crystal, experimental, refinement or atomic coordinate data resulting
# from the CCDC's data processing and validation procedures.
#
#######################################################################

data_CSD_CIF_PAZOXN03
_audit_creation_date 1995-10-10
_audit_creation_method CSD-ConQuest-V1
_database_code_CSD PAZOXN03
_database_code_depnum_ccdc_archive 'CCDC 1229170'
_chemical_formula_sum 'C14 H14 N2 O3'
_chemical_formula_moiety
;
C14 H14 N2 O3
;
_journal_coeditor_code "IUCr FG1010"
_journal_coden_Cambridge 591
_journal_volume 51
_journal_year 1995
_journal_page_first 1164
_journal_name_full 'Acta Crystallogr.,Sect.C:Cryst.Struct.Commun. '
loop_
_publ_author_name
"C.Chebli"
"F.Brisse"
_chemical_name_systematic
;
4,4'-Azoxydianisole
;
_cell_volume   1259.258
_exptl_crystal_colour 'yellow'
_exptl_crystal_density_diffrn 1.362
_exptl_special_details
;
stable polymorph

;
_diffrn_ambient_temperature 203
_refine_special_details
;
Two disordered molecules are present with occupancy 0.75 and 0.25. The two 
terminal methoxy atoms and the azoxy O-atom are common to both molecules.
;
#These two values have been output from a single CSD field.
_refine_ls_R_factor_gt 0.052
_refine_ls_wR_factor_gt 0.052
_symmetry_cell_setting monoclinic
_symmetry_space_group_name_H-M 'P 21/c'
_symmetry_Int_Tables_number 14
loop_
_symmetry_equiv_pos_site_id
_symmetry_equiv_pos_as_xyz
1 x,y,z
2 -x,1/2+y,1/2-z
3 -x,-y,-z
4 x,-1/2-y,-1/2+z
_cell_length_a 10.9822(22)
_cell_length_b 8.0799(16)
_cell_length_c 15.449(3)
_cell_angle_alpha 90
_cell_angle_beta 113.28(12)
_cell_angle_gamma 90
_cell_formula_units_Z 4
loop_
_atom_type_symbol
_atom_type_radius_bond
C 0.68
H 0.23
N 0.68
O 0.68
loop_
_atom_site_label
_atom_site_type_symbol
_atom_site_fract_x
_atom_site_fract_y
_atom_site_fract_z
C1 C 0.4867(3) -0.0489(3) 0.7657(2)
O1 O 0.4639(2) 0.0860(2) 0.8165(1)
C2 C 0.5457(4) 0.1102(5) 0.9063(3)
C3 C 0.6556(4) 0.0157(5) 0.9586(3)
C4 C 0.7323(3) 0.0579(4) 1.0519(2)
C5 C 0.6988(3) 0.1944(4) 1.0923(2)
C6 C 0.5893(3) 0.2872(4) 1.0403(2)
C7 C 0.5133(3) 0.2456(4) 0.9478(2)
N1 N 0.7756(3) 0.2377(3) 1.1895(2)
N2 N 0.8791(3) 0.1501(3) 1.2332(2)
O2 O 0.7371(2) 0.3595(2) 1.2261(1)
C8 C 0.9550(3) 0.1779(4) 1.3312(2)
C9 C 1.0777(3) 0.0958(4) 1.3643(2)
C10 C 1.1575(3) 0.0988(4) 1.4591(2)
C11 C 1.1182(4) 0.1774(5) 1.5229(3)
C12 C 0.9962(4) 0.2584(4) 1.4893(3)
C13 C 0.9156(3) 0.2594(4) 1.3942(2)
O3 O 1.2049(1) 0.1671(2) 1.6149(1)
C14 C 1.1697(2) 0.2396(3) 1.6861(2)
H1 H 0.42040 -0.04890 0.70340
H2 H 0.48340 -0.14990 0.79630
H3 H 0.57150 -0.03730 0.76350
H4 H 0.67870 -0.07790 0.93110
H5 H 0.80760 -0.00680 1.08800
H6 H 0.56580 0.38040 1.06800
H7 H 0.43770 0.31010 0.91220
H8 H 1.10570 0.03820 1.32180
H9 H 1.24150 0.04580 1.48120
H10 H 0.96780 0.31450 1.53210
H11 H 0.83300 0.31580 1.37190
H12 H 1.23920 0.22250 1.74610
H13 H 1.09070 0.18970 1.68490
H14 H 1.15560 0.35500 1.67470
C15? C 0.5570(6) 0.1101(8) 0.9080(5)
C16? C 0.6583(7) -0.0053(8) 0.9480(5)
C17? C 0.7461(7) 0.0111(8) 1.0419(5)
C18? C 0.7327(7) 0.1430(8) 1.0958(5)
C19? C 0.6314(7) 0.2584(8) 1.0557(5)
C20? C 0.5435(7) 0.2420(8) 0.9619(5)
N3? N 0.8302(8) 0.1384(9) 1.1887(6)
N4? N 0.8293(8) 0.2438(9) 1.2496(6)
C21? C 0.9263(6) 0.2223(7) 1.3427(4)
C22? C 1.0399(6) 0.1278(7) 1.3601(4)
C23? C 1.1334(6) 0.1086(7) 1.4521(4)
C24? C 1.1134(6) 0.1839(7) 1.5267(4)
C25? C 0.9999(6) 0.2785(7) 1.5092(4)
C26? C 0.9063(6) 0.2976(7) 1.4172(4)
H15? H 0.66750 -0.09510 0.91140
H16? H 0.81510 -0.06750 1.06920
H17? H 0.62220 0.34820 1.09240
H18? H 0.47460 0.32060 0.93460
H19? H 1.05350 0.07650 1.30930
H20? H 1.21080 0.04420 1.46400
H21? H 0.98630 0.32980 1.56000
H22? H 0.82900 0.36200 1.40540
#END
