
#######################################################################
#
#                 Cambridge Crystallographic Data Centre
#                                CCDC
#
#######################################################################
#
# If this CIF has been generated from an entry in the Cambridge
# Structural Database, then it will include bibliographic, chemical,
# crystal, experimental, refinement or atomic coordinate data resulting
# from the CCDC's data processing and validation procedures.
#
#######################################################################

data_CSD_CIF_PAZQUE
_audit_creation_date 2012-09-12
_audit_creation_method CSD-ConQuest-V1
_database_code_CSD PAZQUE
_database_code_depnum_ccdc_archive 'CCDC 836803'
_chemical_formula_sum 'C19 H15 N5 O2'
_chemical_formula_moiety
;
C19 H15 N5 O2
;
_journal_coden_Cambridge 1048
_journal_volume 14
_journal_year 2012
_journal_page_first 1376
_journal_name_full 'Green Chemistry '
loop_
_publ_author_name
"P.Das"
"R.J.Butcher"
"C.Mukhopadhyay"
_chemical_name_systematic
;
2-Amino-4-(3-nitrophenyl)-5,6,7,8-tetrahydronaphthalene-1,3,3(4H)-tricarbonitr
ile
;
_cell_volume   3634.472
_exptl_crystal_colour 'colorless'
_exptl_crystal_density_diffrn 1.262
_exptl_crystal_description 'irregular plate'
_diffrn_ambient_temperature 295
#These two values have been output from a single CSD field.
_refine_ls_R_factor_gt 0.0445
_refine_ls_wR_factor_gt 0.0445
_symmetry_cell_setting monoclinic
_symmetry_space_group_name_H-M 'C 2/c'
_symmetry_Int_Tables_number 15
loop_
_symmetry_equiv_pos_site_id
_symmetry_equiv_pos_as_xyz
1 x,y,z
2 -x,y,1/2-z
3 1/2+x,1/2+y,z
4 1/2-x,1/2+y,1/2-z
5 -x,-y,-z
6 x,-y,-1/2+z
7 -1/2-x,-1/2-y,-z
8 -1/2+x,-1/2-y,-1/2+z
_cell_length_a 25.1335(6)
_cell_length_b 12.37744(18)
_cell_length_c 13.4158(3)
_cell_angle_alpha 90
_cell_angle_beta 119.443(3)
_cell_angle_gamma 90
_cell_formula_units_Z 8
loop_
_atom_type_symbol
_atom_type_radius_bond
C 0.68
H 0.23
N 0.68
O 0.68
loop_
_atom_site_label
_atom_site_type_symbol
_atom_site_fract_x
_atom_site_fract_y
_atom_site_fract_z
O1 O 0.57099(8) -0.05674(14) 0.71547(14)
O2 O 0.59835(7) 0.10986(16) 0.74095(17)
N1 N 0.37229(5) 0.28912(11) 0.17282(10)
H1 H 0.34130 0.27330 0.10760
H2 H 0.40870 0.28360 0.18260
N2 N 0.52124(6) 0.28412(14) 0.38370(12)
N3 N 0.43070(8) 0.56964(13) 0.36164(13)
N4 N 0.21265(6) 0.29069(14) 0.06824(12)
N5 N 0.56018(8) 0.03947(15) 0.69622(14)
C1 C 0.42059(6) 0.35961(11) 0.36938(11)
C2 C 0.36395(6) 0.32204(11) 0.25869(11)
C3 C 0.30984(6) 0.33484(12) 0.25710(11)
C4 C 0.41511(6) 0.33177(11) 0.47824(11)
H3 H 0.44700 0.37280 0.54210
C5 C 0.30541(6) 0.37474(12) 0.35645(12)
C6 C 0.24446(7) 0.41559(17) 0.33528(15)
H4 H 0.21690 0.35490 0.31860
H5 H 0.22730 0.46260 0.26880
C7 C 0.24904(9) 0.4774(2) 0.43722(18)
H6 H 0.26550 0.54880 0.43960
H7 H 0.20850 0.48610 0.42800
C8 C 0.28865(10) 0.4207(2) 0.54675(18)
H8 H 0.27130 0.35030 0.54540
H9 H 0.28970 0.46160 0.60940
C9 C 0.35330(8) 0.40651(16) 0.56755(14)
H10 H 0.37530 0.47410 0.59500
H11 H 0.37410 0.35250 0.62660
C10 C 0.35455(6) 0.37245(12) 0.46098(12)
C11 C 0.47753(6) 0.31513(13) 0.37887(12)
C12 C 0.42506(7) 0.47884(13) 0.36349(12)
C13 C 0.25511(6) 0.31038(13) 0.15292(12)
C14 C 0.42695(6) 0.21305(12) 0.51045(11)
C15 C 0.38039(7) 0.13622(13) 0.46720(13)
H12 H 0.34050 0.15750 0.41690
C16 C 0.39287(8) 0.02885(14) 0.49814(16)
H13 H 0.36130 -0.02140 0.46850
C17 C 0.45161(9) -0.00445(14) 0.57244(15)
H14 H 0.46030 -0.07680 0.59290
C18 C 0.49702(7) 0.07235(14) 0.61554(13)
C19 C 0.48624(7) 0.18046(13) 0.58664(12)
H15 H 0.51800 0.23030 0.61750
#END
