
#######################################################################
#
#                 Cambridge Crystallographic Data Centre
#                                CCDC
#
#######################################################################
#
# If this CIF has been generated from an entry in the Cambridge
# Structural Database, then it will include bibliographic, chemical,
# crystal, experimental, refinement or atomic coordinate data resulting
# from the CCDC's data processing and validation procedures.
#
#######################################################################

data_CSD_CIF_PAZVOC
_audit_creation_date 2006-05-11
_audit_creation_method CSD-ConQuest-V1
_database_code_CSD PAZVOC
_database_code_depnum_ccdc_archive 'CCDC 281868'
_chemical_formula_sum 'C8 H5 N5 O4'
_chemical_formula_moiety
;
C8 H5 N5 O4
;
_journal_coden_Cambridge 154
_journal_volume 58
_journal_year 2005
_journal_page_first 817
_journal_name_full 'Aust.J.Chem. '
loop_
_publ_author_name
"G.P.A.Yap"
"F.A.Jove"
"R.M.Claramunt"
"D.Sanz"
"I.Alkorta"
"J.Elguero"
_chemical_name_systematic
;
1-(2',4'-Dinitrophenyl)-1,2,3-triazole
;
_cell_volume   1914.667
_exptl_crystal_colour 'colorless'
_exptl_crystal_density_diffrn 1.632
_exptl_crystal_description 'blocks'
_exptl_crystal_preparation 'bromobenzene'
_diffrn_ambient_temperature 120
#These two values have been output from a single CSD field.
_refine_ls_R_factor_gt 0.0383
_refine_ls_wR_factor_gt 0.0383
_symmetry_cell_setting orthorhombic
_symmetry_space_group_name_H-M 'P 21 21 21'
_symmetry_Int_Tables_number 19
loop_
_symmetry_equiv_pos_site_id
_symmetry_equiv_pos_as_xyz
1 x,y,z
2 1/2-x,-y,1/2+z
3 -x,1/2+y,1/2-z
4 1/2+x,1/2-y,-z
_cell_length_a 8.028(3)
_cell_length_b 10.568(4)
_cell_length_c 22.568(8)
_cell_angle_alpha 90
_cell_angle_beta 90
_cell_angle_gamma 90
_cell_formula_units_Z 8
loop_
_atom_type_symbol
_atom_type_radius_bond
C 0.68
H 0.23
N 0.68
O 0.68
loop_
_atom_site_label
_atom_site_type_symbol
_atom_site_fract_x
_atom_site_fract_y
_atom_site_fract_z
N1 N 0.15403(19) 0.59652(15) 0.09658(7)
N2 N 0.0845(2) 0.70958(16) 0.11052(7)
N3 N 0.0857(2) 0.71795(17) 0.16849(7)
N4 N 0.3195(2) 0.76812(15) 0.01693(7)
N5 N 0.2387(2) 0.46702(16) -0.14311(7)
N6 N 0.2024(2) 0.10122(14) 0.18239(7)
N7 N 0.1006(2) 0.20018(16) 0.17065(7)
N8 N 0.0801(2) 0.20251(17) 0.11326(7)
N9 N 0.4175(2) 0.26262(15) 0.26066(8)
N10 N 0.3509(2) -0.05818(15) 0.41407(7)
O1 O 0.40272(18) 0.77146(13) 0.06213(6)
O2 O 0.2908(2) 0.86015(13) -0.01437(6)
O3 O 0.1642(2) 0.37451(15) -0.16197(7)
O4 O 0.3307(2) 0.53342(16) -0.17302(6)
O5 O 0.4138(2) 0.29234(13) 0.20852(6)
O6 O 0.4822(2) 0.32656(14) 0.29942(7)
O7 O 0.48186(18) -0.02300(15) 0.43652(6)
O8 O 0.25311(18) -0.13039(13) 0.43791(6)
C1 C 0.1777(2) 0.56281(17) 0.03648(8)
C2 C 0.2533(2) 0.64599(18) -0.00300(8)
C3 C 0.2740(2) 0.61695(18) -0.06183(8)
H1 H 0.32590 0.67430 -0.08850
C4 C 0.2161(2) 0.50064(18) -0.08051(8)
C5 C 0.1392(2) 0.41570(19) -0.04294(9)
H2 H 0.09990 0.33680 -0.05740
C6 C 0.1206(2) 0.44738(18) 0.01590(9)
H3 H 0.06840 0.38990 0.04240
C7 C 0.1990(2) 0.53340(19) 0.14612(8)
H4 H 0.24930 0.45220 0.14880
C8 C 0.1562(3) 0.61176(19) 0.19100(9)
H5 H 0.17300 0.59500 0.23190
C9 C 0.2429(2) 0.06713(17) 0.24177(8)
C10 C 0.3422(2) 0.14053(17) 0.27927(8)
C11 C 0.3780(2) 0.10078(18) 0.33585(8)
H6 H 0.44760 0.14940 0.36120
C12 C 0.3097(2) -0.01204(17) 0.35469(8)
C13 C 0.2084(2) -0.08574(17) 0.31954(8)
H7 H 0.16160 -0.16220 0.33410
C14 C 0.1769(2) -0.04525(18) 0.26231(8)
H8 H 0.10920 -0.09520 0.23690
C15 C 0.2442(3) 0.03968(19) 0.13218(8)
H9 H 0.31260 -0.03320 0.12830
C16 C 0.1668(3) 0.1052(2) 0.08861(9)
H10 H 0.17210 0.08630 0.04750
#END
