
#######################################################################
#
#                 Cambridge Crystallographic Data Centre
#                                CCDC
#
#######################################################################
#
# If this CIF has been generated from an entry in the Cambridge
# Structural Database, then it will include bibliographic, chemical,
# crystal, experimental, refinement or atomic coordinate data resulting
# from the CCDC's data processing and validation procedures.
#
#######################################################################

data_CSD_CIF_PAZYOH
_audit_creation_date 2017-06-23
_audit_creation_method CSD-ConQuest-V1
_database_code_CSD PAZYOH
_database_code_depnum_ccdc_archive 'CCDC 951519'
_chemical_formula_sum 'C32 H27 N5 O3'
_chemical_formula_moiety
;
C32 H27 N5 O3
;
_journal_coden_Cambridge 1540
_journal_volume 7
_journal_year 2017
_journal_page_first 41024
_journal_name_full 'Scientific Reports '
loop_
_publ_author_name
"Jing Sun"
"Guo-Liang Shen"
"Ying Huang"
"Chao Yan"
_chemical_name_systematic
;
1-butyl-5-methyl-1'-(4-nitrophenyl)-2-oxo-1,2-dihydrospiro[indole-3,2'-pyrrolo
[1,2-a]quinoline]-3',3'(3a'H)-dicarbonitrile
;
_cell_volume   5614.432
_exptl_crystal_density_diffrn 1.253
_diffrn_ambient_temperature 296
#These two values have been output from a single CSD field.
_refine_ls_R_factor_gt 0.0516
_refine_ls_wR_factor_gt 0.0516
_symmetry_cell_setting monoclinic
_symmetry_space_group_name_H-M 'P 21/c'
_symmetry_Int_Tables_number 14
loop_
_symmetry_equiv_pos_site_id
_symmetry_equiv_pos_as_xyz
1 x,y,z
2 -x,1/2+y,1/2-z
3 -x,-y,-z
4 x,-1/2-y,-1/2+z
_cell_length_a 20.793(2)
_cell_length_b 12.7079(14)
_cell_length_c 22.527(2)
_cell_angle_alpha 90
_cell_angle_beta 109.401(1)
_cell_angle_gamma 90
_cell_formula_units_Z 8
loop_
_atom_type_symbol
_atom_type_radius_bond
C 0.68
H 0.23
N 0.68
O 0.68
loop_
_atom_site_label
_atom_site_type_symbol
_atom_site_fract_x
_atom_site_fract_y
_atom_site_fract_z
C1 C 0.2425(2) 1.1759(2) 0.0788(2)
H1 H 0.25520 1.17820 0.12390
H2 H 0.20800 1.22770 0.06070
H3 H 0.28170 1.19050 0.06670
C2 C 0.21503(15) 1.06707(19) 0.05539(14)
H4 H 0.17310 1.05540 0.06450
H5 H 0.20420 1.06440 0.01010
C3 C 0.26499(11) 0.97961(16) 0.08518(12)
H6 H 0.27590 0.98220 0.13050
H7 H 0.30680 0.99100 0.07600
C4 C 0.23695(11) 0.87153(16) 0.06156(11)
H8 H 0.19710 0.85800 0.07370
H9 H 0.22260 0.87090 0.01600
C5 C 0.28806(10) 0.72522(14) 0.13605(10)
C6 C 0.35507(10) 0.65845(14) 0.15359(9)
C7 C 0.38197(10) 0.68510(14) 0.10074(9)
C8 C 0.43879(11) 0.65057(16) 0.08758(10)
H10 H 0.46710 0.59990 0.11300
C9 C 0.45393(13) 0.69172(19) 0.03597(11)
C10 C 0.51614(16) 0.6544(2) 0.02142(15)
H11 H 0.50360 0.63790 -0.02260
H12 H 0.53420 0.59270 0.04580
H13 H 0.55010 0.70880 0.03180
C11 C 0.41147(13) 0.76875(19) -0.00009(11)
H14 H 0.42100 0.79580 -0.03460
C12 C 0.35522(12) 0.80720(17) 0.01339(10)
H15 H 0.32800 0.86020 -0.01070
C13 C 0.34129(10) 0.76356(15) 0.06411(9)
C14 C 0.33882(10) 0.54053(14) 0.16402(9)
C15 C 0.39326(11) 0.46959(16) 0.15932(10)
C16 C 0.27391(12) 0.50279(16) 0.11910(11)
C17 C 0.33801(11) 0.54329(14) 0.23354(9)
H16 H 0.29520 0.57570 0.23340
C18 C 0.34493(12) 0.43831(16) 0.26556(11)
H17 H 0.31590 0.38370 0.24580
C19 C 0.39130(12) 0.42187(16) 0.32120(11)
H18 H 0.39200 0.35710 0.34060
C20 C 0.44119(11) 0.50040(16) 0.35342(10)
C21 C 0.49118(13) 0.48225(19) 0.41136(11)
H19 H 0.49030 0.41950 0.43230
C22 C 0.54170(13) 0.5540(2) 0.43859(11)
H20 H 0.57450 0.54020 0.47740
C23 C 0.54313(12) 0.64725(19) 0.40746(10)
H21 H 0.57750 0.69590 0.42530
C24 C 0.49389(11) 0.66892(16) 0.35006(9)
H22 H 0.49520 0.73240 0.32990
C25 C 0.44265(10) 0.59676(15) 0.32233(9)
C26 C 0.40558(10) 0.69099(14) 0.21997(8)
H23 H 0.45220 0.68080 0.21970
C27 C 0.39767(9) 0.80573(14) 0.23548(8)
C28 C 0.42876(10) 0.88276(15) 0.21135(9)
H24 H 0.45470 0.86390 0.18640
C29 C 0.42158(11) 0.98777(16) 0.22399(10)
H25 H 0.44210 1.03990 0.20750
C30 C 0.38383(11) 1.01320(15) 0.26123(10)
C31 C 0.35213(12) 0.93831(17) 0.28608(11)
H26 H 0.32640 0.95760 0.31110
C32 C 0.35951(11) 0.83429(16) 0.27287(10)
H27 H 0.33860 0.78250 0.28930
N1 N 0.28694(8) 0.78725(12) 0.08628(8)
N2 N 0.43428(11) 0.41383(16) 0.15556(10)
N3 N 0.22385(11) 0.47093(16) 0.08474(10)
N4 N 0.39345(8) 0.61501(12) 0.26384(7)
N5 N 0.37737(13) 1.12464(16) 0.27570(12)
O1 O 0.24581(7) 0.72315(11) 0.16249(7)
O2 O 0.41098(14) 1.18876(15) 0.25932(14)
O3 O 0.34131(15) 1.14874(16) 0.30519(15)
C33 C 0.2627(2) 1.2093(2) 0.41586(19)
H28 H 0.25340 1.20700 0.37120
H29 H 0.29840 1.25920 0.43440
H30 H 0.22220 1.23020 0.42440
C34 C 0.28488(15) 1.10090(19) 0.44379(14)
H31 H 0.32790 1.08320 0.43830
H32 H 0.29240 1.10340 0.48860
C35 C 0.23376(11) 1.01543(16) 0.41465(12)
H33 H 0.22520 1.01430 0.36960
H34 H 0.19110 1.03200 0.42130
C36 C 0.25695(10) 0.90726(16) 0.44124(10)
H35 H 0.29960 0.89070 0.43470
H36 H 0.26540 0.90830 0.48630
C37 C 0.20864(10) 0.76834(15) 0.36177(10)
C38 C 0.14341(10) 0.69906(14) 0.33973(9)
C39 C 0.11378(10) 0.71756(14) 0.39195(9)
C40 C 0.05697(11) 0.67579(16) 0.40223(10)
H37 H 0.03010 0.62650 0.37430
C41 C 0.03982(12) 0.70745(18) 0.45438(10)
C42 C -0.02172(15) 0.6598(2) 0.46620(14)
H38 H -0.00990 0.64120 0.50980
H39 H -0.03600 0.59800 0.44070
H40 H -0.05820 0.71010 0.45550
C43 C 0.07949(11) 0.78328(17) 0.49376(10)
H41 H 0.06820 0.80470 0.52850
C44 C 0.13563(11) 0.82883(16) 0.48339(9)
H42 H 0.16110 0.88070 0.51010
C45 C 0.15224(10) 0.79442(15) 0.43206(9)
C46 C 0.16277(10) 0.58340(15) 0.32720(9)
C47 C 0.22879(13) 0.54673(18) 0.37062(11)
C48 C 0.11103(12) 0.50646(17) 0.33109(10)
C49 C 0.16267(10) 0.59125(15) 0.25762(9)
H43 H 0.20430 0.62730 0.25760
C50 C 0.15811(12) 0.48790(17) 0.22478(11)
H44 H 0.19060 0.43660 0.24270
C51 C 0.10928(12) 0.46721(17) 0.17108(11)
H45 H 0.10950 0.40250 0.15190
C52 C 0.05539(11) 0.54162(16) 0.14089(9)
C53 C 0.00324(13) 0.51943(19) 0.08519(11)
H46 H 0.00410 0.45640 0.06450
C54 C -0.04982(13) 0.5886(2) 0.05987(11)
H47 H -0.08410 0.57250 0.02230
C55 C -0.05180(12) 0.6817(2) 0.09045(10)
H48 H -0.08810 0.72780 0.07380
C56 C -0.00010(11) 0.70773(17) 0.14594(9)
H49 H -0.00120 0.77170 0.16570
C57 C 0.05322(10) 0.63786(15) 0.17180(9)
C58 C 0.0937(1) 0.73449(14) 0.27324(8)
H50 H 0.04680 0.72580 0.27300
C59 C 0.1035(1) 0.84922(15) 0.25903(9)
C60 C 0.07285(10) 0.92639(16) 0.28385(9)
H51 H 0.04630 0.90710 0.30810
C61 C 0.08122(12) 1.03077(18) 0.27306(11)
H52 H 0.06060 1.08240 0.28980
C62 C 0.12050(12) 1.05778(17) 0.23719(11)
C63 C 0.15193(13) 0.98359(19) 0.21196(12)
H53 H 0.17860 1.00370 0.18790
C64 C 0.14318(12) 0.87825(17) 0.22307(10)
H54 H 0.16400 0.82690 0.20630
N6 N 0.20741(8) 0.82443(12) 0.41286(7)
N7 N 0.27951(12) 0.51415(18) 0.40295(11)
N8 N 0.07226(12) 0.44578(17) 0.33428(11)
N9 N 0.10497(8) 0.65932(12) 0.22875(7)
N10 N 0.12891(16) 1.16985(18) 0.22504(13)
O4 O 0.25251(8) 0.77186(12) 0.33724(7)
O5 O 0.09413(17) 1.23334(17) 0.24156(15)
O6 O 0.16699(16) 1.19431(18) 0.19755(15)
#END
