
#######################################################################
#
#                 Cambridge Crystallographic Data Centre
#                                CCDC
#
#######################################################################
#
# If this CIF has been generated from an entry in the Cambridge
# Structural Database, then it will include bibliographic, chemical,
# crystal, experimental, refinement or atomic coordinate data resulting
# from the CCDC's data processing and validation procedures.
#
#######################################################################

data_CSD_CIF_PEBBIJ
_audit_creation_date 2012-09-12
_audit_creation_method CSD-ConQuest-V1
_database_code_CSD PEBBIJ
_database_code_depnum_ccdc_archive 'CCDC 848526'
_chemical_formula_sum 'C16 H21 N1 O4'
_chemical_formula_moiety
;
C16 H21 N1 O4
;
_journal_coden_Cambridge 1336
_journal_volume 14
_journal_year 2012
_journal_page_first 2614
_journal_name_full 'Org.Lett. '
loop_
_publ_author_name
"Xiao-Jing Wang"
"Gui-Jie Zhang"
"Peng-Yu Zhuang"
"Yan Zhang"
"Shi-Shan Yu"
"Xiu-Qi Bao"
"Dan Zhang"
"Yu-He Yuan"
"Nai-Hong Chen"
"Shuang-gang Ma"
"Jing Qu"
"Yong Li"
_chemical_name_systematic
;
7-Hydroxy-7-methyl-17-oxa-14-azapentacyclo-[12.2.1.0^2,10^.0^2,13^.0^5,10^]hep
tadecane-3,9-dione
;
_chemical_name_common
;
lycojaponicumin A
;
_chemical_melting_point 496.15
_cell_volume   1382.939
_exptl_crystal_colour 'colorless'
_exptl_crystal_density_diffrn 1.399
_exptl_special_details
;
Melting point range 496.15-498.15K
Absolute configuration
Study temperature given as 295 K and 140.0 K in the CIF
;
_exptl_crystal_description 'prism'
_diffrn_ambient_temperature 140
#These two values have been output from a single CSD field.
_refine_ls_R_factor_gt 0.0303
_refine_ls_wR_factor_gt 0.0303
_chemical_compound_source
;
Lycopodium japonicum Thunb
;
_symmetry_cell_setting orthorhombic
_symmetry_space_group_name_H-M 'P 21 21 21'
_symmetry_Int_Tables_number 19
loop_
_symmetry_equiv_pos_site_id
_symmetry_equiv_pos_as_xyz
1 x,y,z
2 1/2-x,-y,1/2+z
3 1/2+x,1/2-y,-z
4 -x,1/2+y,1/2-z
_cell_length_a 6.532(3)
_cell_length_b 12.094(6)
_cell_length_c 17.506(7)
_cell_angle_alpha 90
_cell_angle_beta 90
_cell_angle_gamma 90
_cell_formula_units_Z 4
loop_
_atom_type_symbol
_atom_type_radius_bond
C 0.68
H 0.23
N 0.68
O 0.68
loop_
_atom_site_label
_atom_site_type_symbol
_atom_site_fract_x
_atom_site_fract_y
_atom_site_fract_z
N1 N 0.2547(2) -0.10839(12) 0.55505(6)
O1 O 0.16348(19) 0.13920(9) 0.68567(6)
O2 O 0.72775(17) -0.01416(11) 0.74657(6)
O3 O 0.53129(16) 0.02636(8) 0.93093(5)
H1 H 0.44810 0.04640 0.96320
O4 O 0.32695(18) 0.00572(9) 0.55543(5)
C1 C 0.4531(3) -0.16665(15) 0.54282(8)
H2 H 0.48700 -0.16970 0.48890
H3 H 0.44760 -0.24140 0.56280
C2 C 0.6105(2) -0.09671(14) 0.58691(8)
H4 H 0.67270 -0.13830 0.62820
H5 H 0.71680 -0.06860 0.55340
C3 C 0.4749(2) -0.00436(13) 0.61693(7)
H6 H 0.54950 0.06430 0.62740
C4 C 0.3329(2) -0.04023(11) 0.68267(6)
C5 C 0.2216(2) 0.05782(11) 0.71914(7)
C6 C 0.1993(2) 0.03791(11) 0.80389(7)
H7 H 0.06200 0.05600 0.82100
H8 H 0.29680 0.08200 0.83250
C7 C 0.2426(2) -0.08505(11) 0.81374(7)
H9 H 0.11770 -0.12470 0.79920
C8 C 0.3024(2) -0.12517(12) 0.89350(7)
H10 H 0.29330 -0.20520 0.89440
H11 H 0.20300 -0.09700 0.92980
C9 C 0.1848(2) -0.11807(13) 0.63652(7)
H12 H 0.04430 -0.09040 0.64090
C10 C 0.1985(3) -0.23319(13) 0.67335(8)
H13 H 0.21190 -0.28970 0.63440
H14 H 0.07650 -0.24830 0.70310
C11 C 0.3889(2) -0.23209(11) 0.72524(7)
H15 H 0.50990 -0.25500 0.69730
H16 H 0.37040 -0.28060 0.76880
C12 C 0.40661(19) -0.10983(11) 0.75094(7)
C13 C 0.6158(2) -0.07607(12) 0.78170(7)
C14 C 0.6736(2) -0.11979(13) 0.85895(7)
H17 H 0.80520 -0.08920 0.87350
H18 H 0.68840 -0.19950 0.85590
C15 C 0.5162(2) -0.09176(11) 0.92065(7)
C16 C 0.5728(3) -0.15101(13) 0.99456(8)
H19 H 0.70770 -0.12910 1.01010
H20 H 0.57000 -0.22950 0.98640
H21 H 0.47620 -0.13180 1.03370
#END
