
#######################################################################
#
#                 Cambridge Crystallographic Data Centre
#                                CCDC
#
#######################################################################
#
# If this CIF has been generated from an entry in the Cambridge
# Structural Database, then it will include bibliographic, chemical,
# crystal, experimental, refinement or atomic coordinate data resulting
# from the CCDC's data processing and validation procedures.
#
#######################################################################

data_CSD_CIF_PEBPUI
_audit_creation_date 2006-05-11
_audit_creation_method CSD-ConQuest-V1
_database_code_CSD PEBPUI
_database_code_depnum_ccdc_archive 'CCDC 297793'
_chemical_formula_sum 'C23 H14 N2 O2'
_chemical_formula_moiety
;
C23 H14 N2 O2
;
_journal_coden_Cambridge 4
_journal_volume 128
_journal_year 2006
_journal_page_first 694
_journal_name_full 'J.Am.Chem.Soc. '
loop_
_publ_author_name
"D.Masselot"
"J.P.H.Charmant"
"T.Gallagher"
_chemical_name_systematic
;
7-nitrotribenzo[3,4:5,6:7,8]cycloocta[1,2-c]pyridine
;
_chemical_melting_point 501.15
_cell_volume   1653.343
_exptl_crystal_colour 'colorless'
_exptl_special_details
;
Melting point range 501.15-503.15K

;
_diffrn_ambient_temperature 100
#These two values have been output from a single CSD field.
_refine_ls_R_factor_gt 0.05
_refine_ls_wR_factor_gt 0.05
_symmetry_cell_setting monoclinic
_symmetry_space_group_name_H-M 'P 21/n'
_symmetry_Int_Tables_number 14
loop_
_symmetry_equiv_pos_site_id
_symmetry_equiv_pos_as_xyz
1 x,y,z
2 1/2-x,1/2+y,1/2-z
3 -x,-y,-z
4 -1/2+x,-1/2-y,-1/2+z
_cell_length_a 9.5369(8)
_cell_length_b 9.6309(8)
_cell_length_c 18.0131(16)
_cell_angle_alpha 90
_cell_angle_beta 92.128(3)
_cell_angle_gamma 90
_cell_formula_units_Z 4
loop_
_atom_type_symbol
_atom_type_radius_bond
C 0.68
H 0.23
N 0.68
O 0.68
loop_
_atom_site_label
_atom_site_type_symbol
_atom_site_fract_x
_atom_site_fract_y
_atom_site_fract_z
C1 C 0.3701(2) 0.9793(2) 0.08979(13)
H1 H 0.35140 0.94890 0.04020
C2 C 0.2692(2) 0.9492(2) 0.14258(12)
C3 C 0.1451(2) 0.8631(2) 0.12196(11)
C4 C 0.1670(2) 0.7323(2) 0.09032(12)
H2 H 0.26020 0.70080 0.08380
C5 C 0.0553(2) 0.6483(2) 0.06843(13)
H3 H 0.073(2) 0.559(3) 0.0452(14)
C6 C -0.0810(2) 0.6927(2) 0.07741(12)
H4 H -0.158(3) 0.634(3) 0.0643(14)
C7 C -0.1046(2) 0.8233(2) 0.10773(12)
H5 H -0.19810 0.85470 0.11280
C8 C 0.0069(2) 0.9087(2) 0.13069(11)
C9 C -0.0284(2) 1.0496(2) 0.16060(12)
C10 C -0.1012(2) 1.1419(2) 0.11333(13)
H6 H -0.11480 1.11940 0.06220
C11 C -0.1539(2) 1.2658(2) 0.13999(14)
H7 H -0.204(3) 1.326(3) 0.1050(14)
C12 C -0.1383(2) 1.2974(2) 0.21488(13)
H8 H -0.178(2) 1.386(2) 0.2353(13)
C13 C -0.0631(2) 1.2086(2) 0.26228(13)
H9 H -0.05040 1.23160 0.31340
C14 C -0.0060(2) 1.0857(2) 0.23542(12)
C15 C 0.0730(2) 0.9934(2) 0.28930(12)
C16 C 0.0096(2) 0.9564(2) 0.35478(12)
H10 H -0.08350 0.98570 0.36330
C17 C 0.0821(2) 0.8771(2) 0.40742(12)
C18 C 0.2171(2) 0.8306(2) 0.39797(12)
H11 H 0.26420 0.77410 0.43420
C19 C 0.2805(2) 0.8692(2) 0.33392(12)
H12 H 0.37390 0.83970 0.32640
C20 C 0.2122(2) 0.9505(2) 0.27948(12)
C21 C 0.2979(2) 0.9936(2) 0.21552(11)
C22 C 0.4215(2) 1.0675(2) 0.23062(13)
H13 H 0.44280 1.10100 0.27930
C23 C 0.5128(2) 1.0914(2) 0.17403(13)
H14 H 0.601(3) 1.139(2) 0.1837(13)
N1 N 0.48981(18) 1.04720(19) 0.10394(11)
N2 N 0.01339(19) 0.84245(19) 0.47685(10)
O1 O 0.08080(17) 0.77966(17) 0.52560(9)
O2 O -0.10881(15) 0.88156(17) 0.48299(8)
#END
