
#######################################################################
#
#                 Cambridge Crystallographic Data Centre
#                                CCDC
#
#######################################################################
#
# If this CIF has been generated from an entry in the Cambridge
# Structural Database, then it will include bibliographic, chemical,
# crystal, experimental, refinement or atomic coordinate data resulting
# from the CCDC's data processing and validation procedures.
#
#######################################################################

data_CSD_CIF_PEBVAW
_audit_creation_date 2017-06-23
_audit_creation_method CSD-ConQuest-V1
_database_code_CSD PEBVAW
_database_code_depnum_ccdc_archive 'CCDC 1540872'
_chemical_formula_sum 'C22 H26 N4 O6'
_chemical_formula_moiety
;
C22 H26 N4 O6
;
_journal_coden_Cambridge 1748
_journal_volume 4
_journal_year 2017
_journal_page_first 1906
_journal_name_full 'Org.Chem.Front. '
loop_
_publ_author_name
"C.Tugny"
"O.Khaled"
"E.Derat"
"J.-P.Goddard"
"V.Mouries-Mansuy"
"L.Fensterbank"
_chemical_name_systematic
;
3-[2-(2,4-dinitrophenyl)hydrazinylidene]-1-ethynyl-2-methyl-2-(4-methylpent-3-
en-1-yl)cyclopentyl acetate
;
_cell_volume   4553.127
_exptl_crystal_colour 'orange'
_exptl_crystal_density_diffrn 1.291
_exptl_crystal_description 'plate'
_diffrn_ambient_temperature 200
#These two values have been output from a single CSD field.
_refine_ls_R_factor_gt 0.0689
_refine_ls_wR_factor_gt 0.0689
_symmetry_cell_setting monoclinic
_symmetry_space_group_name_H-M 'P 21/c'
_symmetry_Int_Tables_number 14
loop_
_symmetry_equiv_pos_site_id
_symmetry_equiv_pos_as_xyz
1 x,y,z
2 -x,1/2+y,1/2-z
3 -x,-y,-z
4 x,-1/2-y,-1/2+z
_cell_length_a 19.2372(12)
_cell_length_b 19.7853(13)
_cell_length_c 12.5770(7)
_cell_angle_alpha 90
_cell_angle_beta 107.983(3)
_cell_angle_gamma 90
_cell_formula_units_Z 8
loop_
_atom_type_symbol
_atom_type_radius_bond
C 0.68
H 0.23
N 0.68
O 0.68
loop_
_atom_site_label
_atom_site_type_symbol
_atom_site_fract_x
_atom_site_fract_y
_atom_site_fract_z
O1 O 0.30726(18) 0.36823(18) 0.8749(3)
O2 O 0.4005(2) 0.3083(3) 0.8503(3)
O3 O -0.1546(3) 0.6241(3) 0.5675(5)
O4 O -0.1912(2) 0.5671(2) 0.4139(4)
O5 O -0.08956(18) 0.35441(18) 0.3865(3)
O6 O 0.0015(2) 0.3136(2) 0.5155(3)
N1 N 0.1086(2) 0.3889(2) 0.8064(3)
N2 N 0.06185(19) 0.38096(19) 0.6967(3)
H1 H 0.06690 0.34590 0.65660
N3 N -0.1512(3) 0.5750(3) 0.5104(5)
N4 N -0.0436(2) 0.3594(2) 0.4788(3)
C1 C 0.1597(2) 0.3447(2) 0.8348(3)
C2 C 0.1776(2) 0.2906(2) 0.7639(4)
H2 H 0.18540 0.31020 0.69610
H3 H 0.13770 0.25690 0.74100
C3 C 0.2483(3) 0.2581(3) 0.8398(4)
H4 H 0.23750 0.21620 0.87470
H5 H 0.28230 0.24740 0.79700
C4 C 0.2804(2) 0.3127(2) 0.9284(4)
C5 C 0.2124(2) 0.3440(2) 0.9521(3)
C6 C 0.1833(3) 0.2951(3) 1.0233(4)
H6 H 0.14400 0.31700 1.04500
H7 H 0.22300 0.28270 1.09060
H8 H 0.16430 0.25430 0.97980
C7 C 0.2242(3) 0.4146(3) 1.0041(4)
H9 H 0.17590 0.43350 1.00090
H10 H 0.24480 0.44390 0.95740
C8 C 0.2746(4) 0.4190(3) 1.1261(5)
H11 H 0.24810 0.40140 1.17650
H12 H 0.31790 0.38990 1.13480
C9 C 0.2986(4) 0.4875(4) 1.1590(6)
H13 H 0.26480 0.51540 1.17980
C10 C 0.3616(5) 0.5160(4) 1.1637(7)
C11 C 0.3755(6) 0.5879(5) 1.1956(8)
H14 H 0.42460 0.60040 1.19470
H15 H 0.33920 0.61620 1.14240
H16 H 0.37190 0.59470 1.27090
C12 C 0.4228(8) 0.4812(8) 1.1328(17)
H17 H 0.46380 0.51260 1.14320
H18 H 0.43920 0.44160 1.18080
H19 H 0.40510 0.46690 1.05440
C13 C 0.3367(3) 0.2879(3) 1.0267(4)
C14 C 0.3782(3) 0.2675(3) 1.1100(5)
H20 H 0.41180 0.25100 1.17730
C15 C 0.3652(3) 0.3593(4) 0.8378(4)
C16 C 0.3768(4) 0.4236(5) 0.7817(6)
H21 H 0.41630 0.41700 0.74870
H22 H 0.39000 0.46010 0.83700
H23 H 0.33170 0.43550 0.72280
C17 C 0.0093(2) 0.4269(2) 0.6530(3)
C18 C 0.0041(2) 0.4857(2) 0.7115(4)
H24 H 0.03780 0.49290 0.78370
C19 C -0.0484(3) 0.5330(2) 0.6668(4)
H25 H -0.05160 0.57240 0.70820
C20 C -0.0972(2) 0.5234(2) 0.5604(4)
C21 C -0.0948(2) 0.4668(2) 0.5008(4)
H26 H -0.12890 0.46070 0.42860
C22 C -0.0427(2) 0.4184(2) 0.5454(3)
O7 O -0.27637(17) 0.37387(17) 0.2276(2)
O8 O -0.2687(2) 0.3363(2) 0.0620(3)
O9 O -0.0530(2) 0.4544(2) 1.0392(3)
O10 O 0.0353(2) 0.3846(2) 1.0583(3)
O11 O 0.02140(18) 0.21792(17) 0.7775(3)
O12 O -0.07786(18) 0.20258(17) 0.6423(3)
N5 N -0.23700(19) 0.33271(19) 0.5226(3)
N6 N -0.17274(19) 0.30128(19) 0.5833(3)
H27 H -0.15580 0.26650 0.55540
N7 N -0.0240(3) 0.4082(3) 1.0060(3)
N8 N -0.0405(2) 0.2349(2) 0.7240(3)
C23 C -0.2664(2) 0.3076(2) 0.4247(4)
C24 C -0.2383(2) 0.2526(2) 0.3670(3)
H28 H -0.23930 0.20840 0.40350
H29 H -0.18760 0.26220 0.36810
C25 C -0.2905(2) 0.2525(3) 0.2466(3)
H30 H -0.26310 0.24710 0.19210
H31 H -0.32660 0.21550 0.23550
C26 C -0.3279(2) 0.3213(3) 0.2339(3)
C27 C -0.3392(2) 0.3348(3) 0.3498(4)
C28 C -0.4004(3) 0.2882(3) 0.3633(4)
H32 H -0.40280 0.29180 0.43980
H33 H -0.38980 0.24130 0.34830
H34 H -0.44730 0.30190 0.31040
C29 C -0.3546(3) 0.4086(3) 0.3672(4)
H35 H -0.31050 0.43530 0.37030
H36 H -0.39450 0.42430 0.30130
C30 C -0.3758(5) 0.4240(4) 0.4713(6)
H37 H -0.33140 0.42220 0.53710
H38 H -0.40960 0.38840 0.48070
C31 C -0.4120(7) 0.4925(6) 0.4686(9)
H39 H -0.46280 0.49440 0.42940
C32 C -0.3828(8) 0.5477(10) 0.5123(9)
C33 C -0.4275(12) 0.6155(6) 0.5150(17)
H40 H -0.39360 0.65120 0.55280
H41 H -0.45360 0.62960 0.43840
H42 H -0.46270 0.60710 0.55560
C34 C -0.3006(8) 0.5483(11) 0.5702(13)
H43 H -0.28530 0.59350 0.59990
H44 H -0.28840 0.51550 0.63170
H45 H -0.27520 0.53610 0.51640
C35 C -0.3944(3) 0.3251(3) 0.1403(4)
C36 C -0.4510(4) 0.3235(4) 0.0680(5)
H46 H -0.49640 0.32220 0.00990
C37 C -0.2493(3) 0.3753(3) 0.1391(4)
C38 C -0.1938(3) 0.4284(3) 0.1533(5)
H47 H -0.14620 0.41100 0.19890
H48 H -0.20720 0.46750 0.19060
H49 H -0.19090 0.44210 0.07990
C39 C -0.1362(2) 0.3251(2) 0.6869(3)
C40 C -0.1606(2) 0.3841(2) 0.7273(4)
H50 H -0.20340 0.40610 0.68190
C41 C -0.1245(2) 0.4105(3) 0.8296(4)
H51 H -0.14230 0.45020 0.85500
C42 C -0.0616(2) 0.3789(2) 0.8966(3)
C43 C -0.0347(2) 0.3222(2) 0.8616(3)
H52 H 0.00860 0.30130 0.90790
C44 C -0.0716(2) 0.2954(2) 0.7574(3)
#END
