
#######################################################################
#
#                 Cambridge Crystallographic Data Centre
#                                CCDC
#
#######################################################################
#
# If this CIF has been generated from an entry in the Cambridge
# Structural Database, then it will include bibliographic, chemical,
# crystal, experimental, refinement or atomic coordinate data resulting
# from the CCDC's data processing and validation procedures.
#
#######################################################################

data_CSD_CIF_PECQAS
_audit_creation_date 2017-06-26
_audit_creation_method CSD-ConQuest-V1
_database_code_CSD PECQAS
_database_code_depnum_ccdc_archive 'CCDC 1442388'
_chemical_formula_sum 'C13 H13 N3 O7'
_chemical_formula_moiety
;
C13 H13 N3 O7
;
_journal_coden_Cambridge 206
_journal_volume 47
_journal_year 2017
_journal_page_first 1077
_journal_name_full 'Synth.Commun. '
loop_
_publ_author_name
"T.H.Largania"
"G.Imanzadeha"
"N.N.Pesyanb"
"E.Sahin"
_chemical_name_systematic
;
dimethyl 2-((4-nitrobenzoyl)hydrazono)succinate
;
_cell_volume   1532.211
_exptl_crystal_colour 'yellow'
_exptl_crystal_density_diffrn 1.401
_exptl_special_details
;
Study temperature given as 0K in the deposited CIF

;
_diffrn_ambient_temperature ?
_diffrn_special_details
;
The study was carried out at room temperature,in the range 283-303K

;
#These two values have been output from a single CSD field.
_refine_ls_R_factor_gt 0.0926
_refine_ls_wR_factor_gt 0.0926
_symmetry_cell_setting triclinic
_symmetry_space_group_name_H-M 'P -1'
_symmetry_Int_Tables_number 2
loop_
_symmetry_equiv_pos_site_id
_symmetry_equiv_pos_as_xyz
1 x,y,z
2 -x,-y,-z
_cell_length_a 8.7159(5)
_cell_length_b 10.9174(7)
_cell_length_c 17.7719(11)
_cell_angle_alpha 85.413(3)
_cell_angle_beta 79.539(3)
_cell_angle_gamma 67.134(3)
_cell_formula_units_Z 4
loop_
_atom_type_symbol
_atom_type_radius_bond
C 0.68
H 0.23
N 0.68
O 0.68
loop_
_atom_site_label
_atom_site_type_symbol
_atom_site_fract_x
_atom_site_fract_y
_atom_site_fract_z
O1 O 0.6517(4) 0.4044(3) 0.76971(18)
O2 O 0.7065(5) -0.1515(3) 0.73323(19)
N1 N 0.5255(5) 0.2746(3) 0.7363(2)
H1 H 0.43250 0.26030 0.73720
N2 N 0.6779(5) 0.1892(3) 0.7015(2)
O3 O 0.8907(5) -0.0768(4) 0.5823(2)
N3 N -0.0942(6) 0.7428(4) 0.9319(2)
O4 O 0.9831(4) 0.0381(4) 0.6480(2)
O5 O -0.1917(5) 0.6990(4) 0.9699(2)
O6 O -0.1203(5) 0.8607(4) 0.9282(3)
C1 C 0.3561(6) 0.4752(4) 0.8088(2)
O7 O 0.4622(6) -0.1386(4) 0.7084(3)
C2 C 0.0629(6) 0.6482(4) 0.8886(3)
C3 C 0.5234(6) 0.3842(4) 0.7701(2)
C4 C 0.6916(6) 0.0837(4) 0.6691(2)
C5 C 0.0877(6) 0.5180(5) 0.8895(3)
H2 H 0.00540 0.48730 0.91730
C6 C 0.2370(6) 0.4297(5) 0.8484(3)
H3 H 0.25660 0.33780 0.84780
C7 C 0.8637(6) 0.0068(5) 0.6291(3)
C8 C 0.5695(7) -0.0944(5) 0.7030(3)
C9 C 0.5545(6) 0.0356(4) 0.6623(3)
H4 H 0.55500 0.02540 0.60740
H5 H 0.44410 0.10450 0.68300
C10 C 0.3252(7) 0.6100(5) 0.8081(3)
H6 H 0.40620 0.64180 0.78010
C11 C 0.1773(7) 0.6979(5) 0.8480(3)
H7 H 0.15460 0.79030 0.84750
C12 C 0.7284(9) -0.2800(5) 0.7694(3)
H8 H 0.83430 -0.31480 0.79020
H9 H 0.73200 -0.34190 0.73150
H10 H 0.63370 -0.27000 0.81100
C13 C 1.1529(7) -0.0299(8) 0.6079(4)
H11 H 1.23030 0.00170 0.62630
H12 H 1.15570 -0.01160 0.55290
H13 H 1.18780 -0.12590 0.61730
O8 O 1.3699(4) 0.0887(3) 0.84834(18)
O9 O 1.2265(4) 0.3609(4) 0.64909(19)
N4 N 1.0319(5) 0.2893(4) 0.7171(2)
H14 H 0.92720 0.29390 0.72590
O10 O 1.2247(5) -0.0334(4) 0.9010(2)
N5 N 1.1489(5) 0.2065(4) 0.7594(2)
O11 O 0.6851(5) 0.2288(4) 0.9254(2)
O12 O 0.8899(5) 0.3013(4) 0.9285(2)
N6 N 0.5619(7) 0.7317(5) 0.5102(2)
O13 O 0.5574(7) 0.8435(4) 0.5004(3)
C14 C 1.1034(6) 0.1376(4) 0.8133(2)
O14 O 0.4537(6) 0.6990(4) 0.4943(3)
C15 C 0.6981(6) 0.6315(5) 0.5463(2)
C16 C 1.2378(6) 0.0542(5) 0.8585(3)
C17 C 1.0831(6) 0.3642(5) 0.6609(3)
C18 C 0.9485(6) 0.4544(4) 0.6183(2)
C19 C 0.9543(6) 0.5761(4) 0.5939(2)
H15 H 1.04540 0.59800 0.60190
C20 C 0.8187(6) 0.4210(5) 0.6038(2)
H16 H 0.81600 0.33650 0.61960
C21 C 0.6927(6) 0.5099(5) 0.5666(3)
H17 H 0.60480 0.48680 0.55540
C22 C 0.8378(7) 0.2309(5) 0.9028(3)
C23 C 0.9334(6) 0.1330(5) 0.8393(3)
H18 H 0.94550 0.04220 0.85780
H19 H 0.87000 0.15480 0.79590
C24 C 0.8280(7) 0.6657(5) 0.5579(2)
H20 H 0.83070 0.74980 0.54120
C25 C 1.4962(7) 0.0234(6) 0.8970(3)
H21 H 1.58730 0.05680 0.88440
H22 H 1.54240 -0.07270 0.88880
H23 H 1.44420 0.04210 0.95070
C26 C 0.5793(8) 0.3184(7) 0.9863(4)
H24 H 0.47000 0.30910 0.99850
H25 H 0.56190 0.41010 0.97010
H26 H 0.63410 0.29670 1.03190
#END
