
#######################################################################
#
#                 Cambridge Crystallographic Data Centre
#                                CCDC
#
#######################################################################
#
# If this CIF has been generated from an entry in the Cambridge
# Structural Database, then it will include bibliographic, chemical,
# crystal, experimental, refinement or atomic coordinate data resulting
# from the CCDC's data processing and validation procedures.
#
#######################################################################

data_CSD_CIF_PECVIE
_audit_creation_date 2013-01-17
_audit_creation_method CSD-ConQuest-V1
_database_code_CSD PECVIE
_database_code_depnum_ccdc_archive 'CCDC 914389'
_chemical_formula_sum 'C8 H9 N3 O3'
_chemical_formula_moiety
;
C8 H9 N3 O3
;
_journal_coeditor_code "IUCr IS5219"
_journal_coden_Cambridge 1370
_journal_volume 68
_journal_year 2012
_journal_page_first o3436
_journal_name_full 'Acta Crystallogr.,Sect.E:Struct.Rep.Online '
loop_
_publ_author_name
"A.S.Praveen"
"J.P.Jasinski"
"A.C.Keeley"
"H.S.Yathirajan"
"B.Narayana"
_chemical_name_systematic
;
2-(2-Nitrophenyl)acetohydrazide
;
_cell_volume    441.433
_exptl_crystal_colour 'colorless'
_exptl_crystal_density_diffrn 1.468
_exptl_crystal_description 'chunk'
_diffrn_ambient_temperature 173
#These two values have been output from a single CSD field.
_refine_ls_R_factor_gt 0.0377
_refine_ls_wR_factor_gt 0.0377
_symmetry_cell_setting monoclinic
_symmetry_space_group_name_H-M 'P 21'
_symmetry_Int_Tables_number 4
loop_
_symmetry_equiv_pos_site_id
_symmetry_equiv_pos_as_xyz
1 x,y,z
2 -x,1/2+y,-z
_cell_length_a 6.6962(5)
_cell_length_b 4.9388(4)
_cell_length_c 13.3593(12)
_cell_angle_alpha 90
_cell_angle_beta 92.361(8)
_cell_angle_gamma 90
_cell_formula_units_Z 2
loop_
_atom_type_symbol
_atom_type_radius_bond
C 0.68
H 0.23
N 0.68
O 0.68
loop_
_atom_site_label
_atom_site_type_symbol
_atom_site_fract_x
_atom_site_fract_y
_atom_site_fract_z
O1 O 0.27090(17) 0.8745(2) 0.55928(9)
O2 O 0.0246(2) 0.4300(4) 0.71073(10)
O3 O -0.0790(2) 0.4790(4) 0.85895(11)
N1 N 0.1751(2) 0.4904(3) 0.41437(10)
H1 H 0.202(3) 0.660(4) 0.4013(15)
H2 H 0.042(2) 0.494(5) 0.4186(13)
N2 N 0.2580(2) 0.4374(3) 0.51138(10)
H3 H 0.286(3) 0.275(4) 0.5269(13)
N3 N 0.0398(2) 0.5265(3) 0.79401(10)
C1 C 0.3052(2) 0.6316(3) 0.57676(12)
C2 C 0.4158(2) 0.5384(4) 0.67189(12)
H4 H 0.37530 0.35470 0.68680
H5 H 0.55800 0.53630 0.66090
C3 C 0.3777(2) 0.7162(3) 0.76100(11)
C4 C 0.2066(2) 0.7141(3) 0.81839(11)
C5 C 0.1834(2) 0.8801(4) 0.90089(12)
H6 H 0.06820 0.86960 0.93720
C6 C 0.3327(3) 1.0607(4) 0.92857(13)
H7 H 0.31820 1.17500 0.98310
C7 C 0.5050(3) 1.0703(4) 0.87408(13)
H8 H 0.60640 1.19160 0.89220
C8 C 0.5260(2) 0.9000(4) 0.79295(12)
H9 H 0.64350 0.90800 0.75830
#END
