
#######################################################################
#
#                 Cambridge Crystallographic Data Centre
#                                CCDC
#
#######################################################################
#
# If this CIF has been generated from an entry in the Cambridge
# Structural Database, then it will include bibliographic, chemical,
# crystal, experimental, refinement or atomic coordinate data resulting
# from the CCDC's data processing and validation procedures.
#
#######################################################################

data_CSD_CIF_PECZED
_audit_creation_date 2006-05-11
_audit_creation_method CSD-ConQuest-V1
_database_code_CSD PECZED
_database_code_depnum_ccdc_archive 'CCDC 228396'
_chemical_formula_sum 'C20 H16 N4 O5'
_chemical_formula_moiety
;
C20 H16 N4 O5
;
_journal_coden_Cambridge 1182
_journal_volume 16
_journal_year 2005
_journal_page_first 307
_journal_name_full 'Chin.Chem.Lett. '
loop_
_publ_author_name
"Yan Xin Zhu"
"Yuan Hua Wang"
"Zhi Yong Chen"
"Wen Hao Hu"
_chemical_name_systematic
;
N-(4-Nitrophenyl)-2-(4-nitrophenylamino)-2-phenylacetamide
;
_cell_volume   1886.244
_exptl_crystal_density_diffrn 1.382
_diffrn_ambient_temperature 296
#These two values have been output from a single CSD field.
_refine_ls_R_factor_gt 0.0376
_refine_ls_wR_factor_gt 0.0376
_symmetry_cell_setting monoclinic
_symmetry_space_group_name_H-M 'P 21/c'
_symmetry_Int_Tables_number 14
loop_
_symmetry_equiv_pos_site_id
_symmetry_equiv_pos_as_xyz
1 x,y,z
2 -x,1/2+y,1/2-z
3 -x,-y,-z
4 x,-1/2-y,-1/2+z
_cell_length_a 6.833(1)
_cell_length_b 16.775(3)
_cell_length_c 16.456(2)
_cell_angle_alpha 90
_cell_angle_beta 90.07(1)
_cell_angle_gamma 90
_cell_formula_units_Z 4
loop_
_atom_type_symbol
_atom_type_radius_bond
C 0.68
H 0.23
N 0.68
O 0.68
loop_
_atom_site_label
_atom_site_type_symbol
_atom_site_fract_x
_atom_site_fract_y
_atom_site_fract_z
O1 O -0.01217(19) 0.07490(7) 0.19698(9)
O2 O -0.21381(19) 0.16889(8) 0.16544(10)
O3 O 0.6893(2) 0.45189(7) 0.42250(8)
O4 O 1.0110(3) 0.86377(11) 0.53506(12)
O5 O 1.1860(2) 0.76892(11) 0.58414(12)
N1 N 0.4369(2) 0.36922(9) 0.33693(10)
N2 N 0.5418(2) 0.57112(8) 0.39904(9)
N3 N -0.0586(2) 0.14591(9) 0.19543(10)
N4 N 1.0455(3) 0.79332(13) 0.54603(12)
C1 C 0.0724(2) 0.20416(10) 0.22995(10)
C2 C 0.2362(2) 0.17886(10) 0.27186(11)
H1 H 0.26340 0.12480 0.27680
C3 C 0.3574(3) 0.23405(10) 0.30587(11)
H2 H 0.46780 0.21720 0.33420
C4 C 0.3183(2) 0.31593(10) 0.29890(11)
C5 C 0.1537(2) 0.33962(10) 0.25395(11)
H3 H 0.12780 0.39360 0.24680
C6 C 0.0313(3) 0.28417(10) 0.22064(12)
H4 H -0.07910 0.30020 0.19190
C7 C 0.4328(3) 0.45462(9) 0.32397(11)
H5 H 0.29900 0.47440 0.33130
C8 C 0.5059(3) 0.47699(9) 0.23958(11)
C9 C 0.3965(3) 0.52301(10) 0.18639(12)
H6 H 0.27310 0.54080 0.20170
C10 C 0.4693(3) 0.54263(12) 0.11091(13)
H7 H 0.39500 0.57380 0.07580
C11 C 0.6512(4) 0.51642(13) 0.08724(13)
H8 H 0.69970 0.52950 0.03620
C12 C 0.7610(3) 0.47070(12) 0.13969(14)
H9 H 0.88440 0.45300 0.12410
C13 C 0.6887(3) 0.45118(11) 0.21495(13)
H10 H 0.76380 0.42010 0.24990
C14 C 0.5670(3) 0.49187(10) 0.38778(11)
C15 C 0.6648(3) 0.62388(10) 0.44148(10)
C16 C 0.8330(3) 0.60010(12) 0.48139(12)
H11 H 0.86440 0.54620 0.48450
C17 C 0.9544(3) 0.65580(12) 0.51662(12)
H12 H 1.06720 0.63960 0.54360
C18 C 0.9089(3) 0.73469(12) 0.51180(11)
C19 C 0.7395(3) 0.75983(11) 0.47506(12)
H13 H 0.70770 0.81370 0.47390
C20 C 0.6171(3) 0.70449(11) 0.44002(11)
H14 H 0.50180 0.72110 0.41520
H15 H 0.532(2) 0.3553(11) 0.366(1)
H16 H 0.447(2) 0.5924(10) 0.3726(10)
#END
