
#######################################################################
#
#                 Cambridge Crystallographic Data Centre
#                                CCDC
#
#######################################################################
#
# If this CIF has been generated from an entry in the Cambridge
# Structural Database, then it will include bibliographic, chemical,
# crystal, experimental, refinement or atomic coordinate data resulting
# from the CCDC's data processing and validation procedures.
#
#######################################################################

data_CSD_CIF_PEDFIP
_audit_creation_date 2013-01-17
_audit_creation_method CSD-ConQuest-V1
_database_code_CSD PEDFIP
_database_code_depnum_ccdc_archive 'CCDC 914429'
_chemical_formula_sum 'C14 H11 N1 O5'
_chemical_formula_moiety
;
C14 H11 N1 O5
;
_journal_coeditor_code "IUCr HB6999"
_journal_coden_Cambridge 1370
_journal_volume 68
_journal_year 2012
_journal_page_first o3490
_journal_name_full 'Acta Crystallogr.,Sect.E:Struct.Rep.Online '
loop_
_publ_author_name
"S.Sreenivasa"
"H.C.Devarajegowda"
"H.T.Srinivasa"
"V.Kumar"
"B.S.Palakshamurthy"
_chemical_name_systematic
;
4-Nitrophenyl 4-hydroxy-3-methylbenzoate
;
_chemical_melting_point 453
_cell_volume   5249.136
_exptl_crystal_colour 'colorless'
_exptl_crystal_density_diffrn 1.383
_exptl_crystal_description 'plate'
_diffrn_ambient_temperature 298
#These two values have been output from a single CSD field.
_refine_ls_R_factor_gt 0.0469
_refine_ls_wR_factor_gt 0.0469
_symmetry_cell_setting monoclinic
_symmetry_space_group_name_H-M 'C 2/c'
_symmetry_Int_Tables_number 15
loop_
_symmetry_equiv_pos_site_id
_symmetry_equiv_pos_as_xyz
1 x,y,z
2 -x,y,1/2-z
3 1/2+x,1/2+y,z
4 1/2-x,1/2+y,1/2-z
5 -x,-y,-z
6 x,-y,-1/2+z
7 -1/2-x,-1/2-y,-z
8 -1/2+x,-1/2-y,-1/2+z
_cell_length_a 42.313(6)
_cell_length_b 8.0047(11)
_cell_length_c 16.1078(18)
_cell_angle_alpha 90
_cell_angle_beta 105.819(4)
_cell_angle_gamma 90
_cell_formula_units_Z 16
loop_
_atom_type_symbol
_atom_type_radius_bond
C 0.68
H 0.23
N 0.68
O 0.68
loop_
_atom_site_label
_atom_site_type_symbol
_atom_site_fract_x
_atom_site_fract_y
_atom_site_fract_z
O1 O -0.03888(3) -0.32059(16) 0.40683(10)
H1 H -0.02630 -0.39680 0.40360
O2 O 0.00229(4) 0.43257(18) 0.37864(11)
O3 O 0.04796(3) 0.29667(16) 0.37629(10)
O4 O 0.12917(6) 0.9576(3) 0.45292(13)
O5 O 0.11233(7) 0.9690(3) 0.31718(14)
N1 N 0.11378(5) 0.9012(2) 0.38481(14)
C1 C -0.07695(5) -0.0418(3) 0.41356(16)
H2 H -0.08240 -0.15740 0.41750
H3 H -0.09300 0.00960 0.36660
H4 H -0.07670 0.01390 0.46650
C2 C -0.04364(5) -0.0287(2) 0.39804(12)
C3 C -0.02951(5) 0.1231(2) 0.38957(12)
H5 H -0.04120 0.22040 0.39210
C4 C 0.00168(5) 0.1357(2) 0.37741(12)
C5 C 0.01863(5) -0.0096(2) 0.37014(13)
H6 H 0.03920 -0.00330 0.35980
C6 C 0.00513(5) -0.1623(2) 0.37818(13)
H7 H 0.01650 -0.25950 0.37290
C7 C -0.02537(5) -0.1723(2) 0.39407(12)
C8 C 0.01605(5) 0.3012(2) 0.37702(12)
C9 C 0.06391(5) 0.4505(2) 0.37895(13)
C10 C 0.08228(5) 0.5103(3) 0.45681(14)
H8 H 0.08350 0.45150 0.50740
C11 C 0.09898(5) 0.6592(3) 0.45916(13)
H9 H 0.11170 0.70230 0.51120
C12 C 0.09643(5) 0.7423(3) 0.38305(13)
C13 C 0.07829(5) 0.6819(3) 0.30503(13)
H10 H 0.07710 0.74040 0.25440
C14 C 0.06183(5) 0.5328(3) 0.30305(14)
H11 H 0.04950 0.48860 0.25090
O6 O 0.29237(4) 0.4579(3) 0.43358(10)
H12 H 0.27890 0.43620 0.46020
O7 O 0.24794(5) 0.5330(3) 0.02839(11)
O8 O 0.20070(4) 0.4732(2) 0.05604(9)
O9 O 0.13548(7) 0.4123(4) -0.33906(14)
O10 O 0.11288(6) 0.6376(3) -0.31360(14)
N2 N 0.13174(6) 0.5217(3) -0.29087(14)
C15 C 0.33294(6) 0.5292(5) 0.33073(18)
H13 H 0.33860 0.51630 0.39230
H14 H 0.33830 0.64030 0.31680
H15 H 0.34500 0.44970 0.30680
C16 C 0.29669(5) 0.4997(3) 0.29354(13)
C17 C 0.28152(5) 0.5074(3) 0.20657(14)
H16 H 0.29420 0.53000 0.16890
C18 C 0.24797(5) 0.4827(3) 0.17292(13)
C19 C 0.22927(6) 0.4457(3) 0.22887(14)
H17 H 0.20680 0.42710 0.20750
C20 C 0.24386(6) 0.4367(4) 0.31560(14)
H18 H 0.23120 0.41190 0.35310
C21 C 0.27708(5) 0.4640(3) 0.34785(13)
C22 C 0.23353(6) 0.4987(3) 0.08041(14)
C23 C 0.18461(5) 0.4871(3) -0.03191(14)
C24 C 0.18584(6) 0.3559(3) -0.08597(16)
H19 H 0.19810 0.26090 -0.06500
C25 C 0.16863(6) 0.3677(3) -0.17177(15)
H20 H 0.16930 0.28160 -0.21000
C26 C 0.15043(6) 0.5094(3) -0.19964(14)
C27 C 0.14870(6) 0.6388(3) -0.14563(16)
H21 H 0.13600 0.73250 -0.16610
C28 C 0.16627(6) 0.6272(3) -0.06012(15)
H22 H 0.16570 0.71360 -0.02200
#END
