
#######################################################################
#
#                 Cambridge Crystallographic Data Centre
#                                CCDC
#
#######################################################################
#
# If this CIF has been generated from an entry in the Cambridge
# Structural Database, then it will include bibliographic, chemical,
# crystal, experimental, refinement or atomic coordinate data resulting
# from the CCDC's data processing and validation procedures.
#
#######################################################################

data_CSD_CIF_PEDREY
_audit_creation_date 2017-06-27
_audit_creation_method CSD-ConQuest-V1
_database_code_CSD PEDREY
_database_code_depnum_ccdc_archive 'CCDC 1548024'
_chemical_formula_sum 'C15 H13 N5 O4'
_chemical_formula_moiety
;
C15 H13 N5 O4
;
_journal_coden_Cambridge 574
_journal_volume 146
_journal_year 2017
_journal_page_first 37
_journal_name_full 'Dyes Pigm. '
loop_
_publ_author_name
"Hui-Fen Qian"
"Ya-Nan Feng"
"Yuan-Yuan Wang"
"Xiao-Lei Zhao"
"Wei Huang"
_chemical_name_systematic
;
1-ethyl-4-methyl-5-(2-(4-nitrophenyl)hydrazinylidene)-2,6-dioxo-1,2,5,6-tetrah
ydropyridine-3-carbonitrile
;
_cell_volume   3055.994
_exptl_crystal_colour 'yellow'
_exptl_crystal_density_diffrn 1.423
_exptl_crystal_description 'block'
_diffrn_ambient_temperature 291
#These two values have been output from a single CSD field.
_refine_ls_R_factor_gt 0.0469
_refine_ls_wR_factor_gt 0.0469
_symmetry_cell_setting triclinic
_symmetry_space_group_name_H-M 'P -1'
_symmetry_Int_Tables_number 2
loop_
_symmetry_equiv_pos_site_id
_symmetry_equiv_pos_as_xyz
1 x,y,z
2 -x,-y,-z
_cell_length_a 8.4086(3)
_cell_length_b 19.0758(7)
_cell_length_c 19.3272(7)
_cell_angle_alpha 99.129(1)
_cell_angle_beta 92.734(1)
_cell_angle_gamma 91.247(1)
_cell_formula_units_Z 8
loop_
_atom_type_symbol
_atom_type_radius_bond
C 0.68
H 0.23
N 0.68
O 0.68
loop_
_atom_site_label
_atom_site_type_symbol
_atom_site_fract_x
_atom_site_fract_y
_atom_site_fract_z
C1 C 0.0860(2) -0.21149(9) -0.01415(9)
C2 C 0.1896(2) -0.19544(9) 0.04392(10)
H1 H 0.21260 -0.22940 0.07230
C3 C 0.2586(2) -0.12808(9) 0.05919(9)
H2 H 0.32850 -0.11600 0.09820
C4 C 0.2229(2) -0.07858(9) 0.01587(9)
C5 C 0.1169(2) -0.09520(9) -0.04214(9)
H3 H 0.09320 -0.06150 -0.07060
C6 C 0.0472(2) -0.16241(10) -0.0569(1)
H4 H -0.02500 -0.17440 -0.09520
C7 C 0.3357(2) 0.10075(9) 0.00601(9)
C8 C 0.4378(2) 0.12564(9) 0.06922(9)
C9 C 0.4583(2) 0.24254(9) 0.03287(10)
C10 C 0.3584(2) 0.21490(9) -0.02989(10)
C11 C 0.2973(2) 0.14718(9) -0.04383(9)
C12 C 0.5899(3) 0.22263(10) 0.14427(10)
H5 H 0.66120 0.26050 0.13540
H6 H 0.65450 0.18470 0.15700
C13 C 0.4899(3) 0.25003(14) 0.20420(12)
H7 H 0.43030 0.28940 0.19290
H8 H 0.55750 0.26530 0.24550
H9 H 0.41780 0.21300 0.21260
C14 C 0.3268(3) 0.26424(11) -0.07738(11)
C15 C 0.1942(3) 0.12045(11) -0.10824(10)
H10 H 0.17330 0.15880 -0.13380
H11 H 0.09550 0.10160 -0.09490
H12 H 0.24770 0.08380 -0.13730
H13 H 0.358(3) 0.0024(11) 0.0726(12)
N1 N 0.0117(2) -0.28282(9) -0.02996(9)
N2 N 0.29806(19) -0.01122(8) 0.03266(8)
N3 N 0.27210(18) 0.03582(7) -0.00884(8)
N4 N 0.49194(18) 0.19582(7) 0.07975(7)
N5 N 0.3003(3) 0.30283(11) -0.11558(12)
O1 O 0.0576(2) -0.32778(8) 0.00410(9)
O2 O -0.0942(2) -0.29359(8) -0.07676(9)
O3 O 0.47545(18) 0.08645(7) 0.11153(7)
O4 O 0.51102(19) 0.30350(7) 0.04468(8)
C16 C 0.6069(2) 0.50287(10) -0.13050(9)
C17 C 0.5566(2) 0.44151(10) -0.1079(1)
H14 H 0.48410 0.41000 -0.13520
C18 C 0.6161(2) 0.42795(10) -0.04389(9)
H15 H 0.58570 0.38650 -0.02780
C19 C 0.7218(2) 0.47653(9) -0.00349(9)
C20 C 0.7703(2) 0.53827(9) -0.02694(9)
H16 H 0.84120 0.57040 0.00060
C21 C 0.7123(2) 0.55144(10) -0.09134(9)
H17 H 0.74390 0.59240 -0.10810
C22 C 0.9213(2) 0.49636(10) 0.16560(9)
C23 C 0.8829(2) 0.43151(10) 0.19381(10)
C24 C 1.0413(3) 0.47834(11) 0.30115(10)
C25 C 1.0762(2) 0.54232(10) 0.27084(10)
C26 C 1.0205(2) 0.55208(10) 0.20544(9)
C27 C 0.9111(3) 0.35970(11) 0.28772(10)
H18 H 0.80200 0.34380 0.27430
H19 H 0.92210 0.36890 0.33860
C28 C 1.0216(4) 0.30211(14) 0.26049(14)
H20 H 1.01410 0.29420 0.21010
H21 H 0.99240 0.25910 0.27730
H22 H 1.12900 0.31620 0.27670
C29 C 1.1736(3) 0.59577(12) 0.31477(12)
C30 C 1.0578(3) 0.61766(11) 0.17554(11)
H23 H 1.12710 0.64880 0.20820
H24 H 0.96080 0.64130 0.16700
H25 H 1.10930 0.60510 0.13220
H26 H 0.750(3) 0.4208(14) 0.0806(14)
N6 N 0.5440(2) 0.51760(9) -0.19838(9)
N7 N 0.7754(2) 0.46177(9) 0.06230(8)
N8 N 0.86771(18) 0.50823(8) 0.10302(8)
N9 N 0.9452(2) 0.42604(8) 0.26000(8)
N10 N 1.2488(4) 0.63859(13) 0.34982(12)
O5 O 0.4294(2) 0.48182(10) -0.22704(8)
O6 O 0.6090(2) 0.56489(10) -0.22362(9)
O7 O 0.79881(19) 0.38293(7) 0.16055(7)
O8 O 1.0917(2) 0.47080(9) 0.35949(8)
C31 C 0.4852(2) 0.62793(9) 0.56528(9)
C32 C 0.4839(3) 0.59011(10) 0.62049(9)
H27 H 0.54400 0.60590 0.66190
C33 C 0.3918(3) 0.52851(10) 0.6131(1)
H28 H 0.38960 0.50200 0.64950
C34 C 0.3025(2) 0.50633(9) 0.55100(9)
C35 C 0.3045(2) 0.54537(10) 0.49635(10)
H29 H 0.24320 0.53030 0.45510
C36 C 0.3974(2) 0.60657(10) 0.50335(9)
H30 H 0.40080 0.63300 0.46690
C37 C 0.1462(2) 0.33738(10) 0.5757(1)
C38 C 0.0613(3) 0.30818(11) 0.50896(11)
C39 C 0.0130(3) 0.19720(11) 0.55327(12)
C40 C 0.0972(2) 0.22854(11) 0.61919(11)
C41 C 0.1652(2) 0.29533(10) 0.6308(1)
C42 C -0.0633(3) 0.20483(12) 0.42813(12)
H31 H -0.00130 0.22040 0.39200
H32 H -0.05910 0.15350 0.42320
C43 C -0.2296(3) 0.22604(15) 0.42002(18)
H33 H -0.29210 0.20730 0.45360
H34 H -0.27150 0.20770 0.37340
H35 H -0.23370 0.27690 0.42780
C44 C 0.1091(3) 0.18248(12) 0.67100(12)
C45 C 0.2611(3) 0.32425(12) 0.69681(11)
H36 H 0.25210 0.29210 0.73000
H37 H 0.22180 0.36970 0.71630
H38 H 0.37080 0.32960 0.68640
H39 H 0.159(3) 0.4272(12) 0.5008(13)
N11 N 0.5813(2) 0.69358(8) 0.57335(9)
N12 N 0.2124(2) 0.44267(9) 0.53989(9)
N13 N 0.2185(2) 0.40092(8) 0.58778(8)
N14 N 0.0054(2) 0.23836(9) 0.50014(9)
N15 N 0.1200(3) 0.14465(11) 0.71109(11)
O9 O 0.6414(2) 0.71753(9) 0.63136(8)
O10 O 0.59776(19) 0.72277(8) 0.52191(8)
O11 O 0.0435(2) 0.34290(8) 0.46091(8)
O12 O -0.0452(2) 0.13707(9) 0.54337(9)
C46 C 0.8126(2) 0.94434(9) 0.71403(9)
C47 C 0.7440(2) 0.8877(1) 0.66823(9)
H40 H 0.72150 0.84490 0.68360
C48 C 0.7091(2) 0.89523(9) 0.59946(9)
H41 H 0.66090 0.85790 0.56810
C49 C 0.7467(2) 0.95926(9) 0.57747(9)
C50 C 0.8205(2) 1.0148(1) 0.62356(10)
H42 H 0.84860 1.05680 0.60790
C51 C 0.8523(2) 1.00772(10) 0.69275(10)
H43 H 0.89950 1.04500 0.72440
C52 C 0.5902(2) 0.92945(10) 0.39994(9)
C53 C 0.6319(2) 0.99393(10) 0.37138(9)
C54 C 0.5097(2) 0.93926(10) 0.25814(9)
C55 C 0.4675(2) 0.87663(10) 0.28921(10)
C56 C 0.5016(2) 0.87156(10) 0.35748(10)
C57 C 0.6150(2) 1.06250(11) 0.27399(10)
H44 H 0.60020 1.10300 0.31020
H45 H 0.53860 1.06520 0.23540
C58 C 0.7797(3) 1.06645(14) 0.24876(14)
H46 H 0.85570 1.06100 0.28610
H47 H 0.79770 1.11170 0.23420
H48 H 0.79140 1.02920 0.20980
C59 C 0.3844(3) 0.82078(12) 0.24231(12)
C60 C 0.4488(3) 0.80904(11) 0.38953(12)
H49 H 0.37650 0.82420 0.42550
H50 H 0.53980 0.78860 0.40960
H51 H 0.39610 0.77420 0.35400
H52 H 0.738(3) 1.0097(13) 0.4923(12)
N16 N 0.84690(19) 0.93632(10) 0.78729(8)
N17 N 0.7102(2) 0.97001(9) 0.50847(8)
N18 N 0.62863(19) 0.92080(8) 0.46530(8)
N19 N 0.58358(18) 0.99630(8) 0.30250(7)
N20 N 0.3183(4) 0.77591(13) 0.20514(13)
O13 O 0.8348(2) 0.87668(9) 0.80276(8)
O14 O 0.88831(19) 0.98873(9) 0.82943(7)
O15 O 0.70371(19) 1.04473(8) 0.40683(7)
O16 O 0.47918(18) 0.94323(8) 0.19654(7)
#END
