
#######################################################################
#
#                 Cambridge Crystallographic Data Centre
#                                CCDC
#
#######################################################################
#
# If this CIF has been generated from an entry in the Cambridge
# Structural Database, then it will include bibliographic, chemical,
# crystal, experimental, refinement or atomic coordinate data resulting
# from the CCDC's data processing and validation procedures.
#
#######################################################################

data_CSD_CIF_PEFMES
_audit_creation_date 1994-02-02
_audit_creation_method CSD-ConQuest-V1
_database_code_CSD PEFMES
_chemical_formula_sum 'C17 H20 N3 O4'
_chemical_formula_moiety
;
C17 H20 N3 O4
;
_journal_coden_Cambridge 335
_journal_volume 85
_journal_year 1993
_journal_page_first 685
_journal_name_full 'Solid State Commun. '
loop_
_publ_author_name
"Hailiang Wang"
"Deqing Zhang"
"Meixiang Wan"
"Daoben Zhu"
_chemical_name_systematic
;
2-(4-(4-Nitrophenyl)buta-1,3-dienyl)-4,4,5,5-tetramethyl-4,5-dihydro-1H-imidaz
olyl-1-oxyl-3-oxide
;
_cell_volume   1668.593
_exptl_special_details
;
x(O1) is 0.2354 not 0.2534. z(N2) is 0.7794 not 0.7749. y(O2) is positive not 
negative
;
_diffrn_ambient_temperature ?
_diffrn_special_details
;
The study was carried out at room temperature,in the range 283-303K

;
#These two values have been output from a single CSD field.
_refine_ls_R_factor_gt 0.085
_refine_ls_wR_factor_gt 0.085
_symmetry_cell_setting monoclinic
_symmetry_space_group_name_H-M 'P 21/n'
_symmetry_Int_Tables_number 14
loop_
_symmetry_equiv_pos_site_id
_symmetry_equiv_pos_as_xyz
1 x,y,z
2 1/2-x,1/2+y,1/2-z
3 -x,-y,-z
4 -1/2+x,-1/2-y,-1/2+z
_cell_length_a 22.920(6)
_cell_length_b 6.133(4)
_cell_length_c 12.005(4)
_cell_angle_alpha 90
_cell_angle_beta 98.59
_cell_angle_gamma 90
_cell_formula_units_Z 4
loop_
_atom_type_symbol
_atom_type_radius_bond
C 0.68
N 0.68
O 0.68
loop_
_atom_site_label
_atom_site_type_symbol
_atom_site_fract_x
_atom_site_fract_y
_atom_site_fract_z
O1 O 0.2354(3) 0.1288(13) 0.8700(6)
O2 O 0.0433(4) 0.2530(13) 0.7088(6)
O3 O 0.1874(4) -1.2018(14) 0.2301(7)
O4 O 0.0962(4) -1.2436(15) 0.1711(7)
N1 N 0.1834(3) 0.2045(13) 0.8555(7)
N2 N 0.0918(4) 0.2645(13) 0.7794(7)
N3 N 0.1360(5) -1.1493(16) 0.2262(8)
C1 C 0.1010(4) -0.5821(16) 0.4079(8)
C2 C 0.1588(5) -0.6438(16) 0.3999(8)
C3 C 0.1714(4) -0.8259(16) 0.3413(8)
C4 C 0.1249(5) -0.9523(16) 0.2902(8)
C5 C 0.0669(5) -0.9012(17) 0.2947(9)
C6 C 0.0563(5) -0.7141(17) 0.3524(9)
C7 C 0.0870(5) -0.3816(17) 0.4677(8)
C8 C 0.1243(5) -0.2765(17) 0.5385(8)
C9 C 0.1104(5) -0.0881(17) 0.6040(8)
C10 C 0.1514(5) -0.0019(16) 0.6846(8)
C11 C 0.1416(4) 0.1493(14) 0.7665(8)
C12 C 0.1629(5) 0.3701(16) 0.9317(8)
C13 C 0.1848(5) 0.3111(17) 1.0528(8)
C14 C 0.1919(6) 0.5862(17) 0.9033(11)
C15 C 0.095(4) 0.3674(17) 0.8921(8)
C16 C 0.0633(5) 0.2167(18) 0.9634(9)
C17 C 0.0649(6) 0.5893(17) 0.8816(10)
#END
