
#######################################################################
#
#                 Cambridge Crystallographic Data Centre
#                                CCDC
#
#######################################################################
#
# If this CIF has been generated from an entry in the Cambridge
# Structural Database, then it will include bibliographic, chemical,
# crystal, experimental, refinement or atomic coordinate data resulting
# from the CCDC's data processing and validation procedures.
#
#######################################################################

data_CSD_CIF_PEFTIE
_audit_creation_date 2006-05-11
_audit_creation_method CSD-ConQuest-V1
_database_code_CSD PEFTIE
_database_code_depnum_ccdc_archive 'CCDC 278155'
_chemical_formula_sum 'C9 H9 N3 O2'
_chemical_formula_moiety
;
C9 H9 N3 O2
;
_journal_coden_Cambridge 119
_journal_volume 784
_journal_year 2006
_journal_page_first 214
_journal_name_full 'J.Mol.Struct. '
loop_
_publ_author_name
"D.S.Yufit"
"O.V.Chetina"
"J.A.K.Howard"
_chemical_name_systematic
;
N-(4-Nitrophenyl)-N-methylaminoacetonitrile
;
_chemical_name_common
;
NPAN
;
_chemical_melting_point 368.15
_cell_volume   1854.302
_exptl_crystal_colour 'light yellow'
_exptl_crystal_density_diffrn 1.37
_exptl_special_details
;
obtained by cooling polymorph 2 and recrystallisation from dioxane
polymorph 3
phase transitions at 95-98 C and 330-340 K
;
_exptl_crystal_description 'needle'
_exptl_crystal_preparation 'dioxane'
_diffrn_ambient_temperature 120
#These two values have been output from a single CSD field.
_refine_ls_R_factor_gt 0.0633
_refine_ls_wR_factor_gt 0.0633
_symmetry_cell_setting monoclinic
_symmetry_space_group_name_H-M 'P 21/c'
_symmetry_Int_Tables_number 14
loop_
_symmetry_equiv_pos_site_id
_symmetry_equiv_pos_as_xyz
1 x,y,z
2 -x,1/2+y,1/2-z
3 -x,-y,-z
4 x,-1/2-y,-1/2+z
_cell_length_a 7.1495(7)
_cell_length_b 25.354(1)
_cell_length_c 10.279(1)
_cell_angle_alpha 90
_cell_angle_beta 95.62(3)
_cell_angle_gamma 90
_cell_formula_units_Z 8
loop_
_atom_type_symbol
_atom_type_radius_bond
C 0.68
H 0.23
N 0.68
O 0.68
loop_
_atom_site_label
_atom_site_type_symbol
_atom_site_fract_x
_atom_site_fract_y
_atom_site_fract_z
O1 O 0.1352(3) 0.45071(7) 1.07726(17)
O2 O 0.0650(3) 0.36817(7) 1.09724(17)
N1 N 0.1003(3) 0.40653(8) 1.0297(2)
N2 N 0.0809(3) 0.38297(7) 0.48770(19)
N3 N 0.3099(4) 0.26938(9) 0.4214(3)
C1 C 0.0992(3) 0.39980(9) 0.8905(2)
C2 C 0.0512(3) 0.35126(9) 0.8343(2)
C3 C 0.0478(3) 0.34515(9) 0.7013(2)
C4 C 0.0908(3) 0.38760(8) 0.6211(2)
C5 C 0.1430(3) 0.43642(9) 0.6817(2)
C6 C 0.1454(3) 0.44212(9) 0.8143(2)
C7 C 0.1420(4) 0.42591(10) 0.4077(3)
C8 C 0.0250(4) 0.33422(10) 0.4228(3)
C9 C 0.1850(4) 0.29664(10) 0.4215(3)
H1 H 0.027(3) 0.3236(9) 0.891(2)
H2 H 0.010(4) 0.3117(10) 0.667(3)
H3 H 0.180(4) 0.467(1) 0.631(3)
H4 H 0.172(4) 0.4773(11) 0.853(3)
H5 H 0.058(4) 0.4587(11) 0.414(3)
H6 H 0.274(4) 0.4341(11) 0.440(3)
H7 H 0.139(5) 0.4128(12) 0.320(4)
H8 H -0.020(4) 0.3422(10) 0.332(3)
H9 H -0.074(4) 0.3143(11) 0.467(3)
O3 O 0.3105(3) 0.54521(7) 0.49999(17)
O4 O 0.3854(3) 0.62713(7) 0.53733(18)
N4 N 0.3584(3) 0.58887(8) 0.4624(2)
N5 N 0.4549(3) 0.61836(7) -0.06617(19)
N6 N 0.2018(4) 0.7330(1) -0.1248(3)
C10 C 0.3818(3) 0.59643(9) 0.3263(2)
C11 C 0.4429(3) 0.64542(9) 0.2849(2)
C12 C 0.4638(3) 0.65299(9) 0.1548(2)
C13 C 0.4261(3) 0.61212(9) 0.0633(2)
C14 C 0.3615(3) 0.56342(9) 0.1081(2)
C15 C 0.3409(3) 0.55561(9) 0.2383(2)
C16 C 0.3889(5) 0.57887(11) -0.1620(3)
C17 C 0.4947(4) 0.67041(10) -0.1164(3)
C18 C 0.3301(4) 0.70611(10) -0.1221(3)
H10 H 0.477(4) 0.6742(11) 0.350(3)
H11 H 0.506(3) 0.6871(9) 0.129(2)
H12 H 0.329(4) 0.5334(11) 0.054(3)
H13 H 0.300(3) 0.5204(9) 0.266(2)
H14 H 0.253(4) 0.5719(11) -0.169(3)
H15 H 0.414(5) 0.5921(13) -0.246(3)
H16 H 0.453(4) 0.5446(12) -0.137(3)
H17 H 0.604(4) 0.6875(10) -0.066(3)
H18 H 0.540(4) 0.6662(12) -0.208(3)
#END
