
#######################################################################
#
#                 Cambridge Crystallographic Data Centre
#                                CCDC
#
#######################################################################
#
# If this CIF has been generated from an entry in the Cambridge
# Structural Database, then it will include bibliographic, chemical,
# crystal, experimental, refinement or atomic coordinate data resulting
# from the CCDC's data processing and validation procedures.
#
#######################################################################

data_CSD_CIF_PEHGAL
_audit_creation_date 2006-10-06
_audit_creation_method CSD-ConQuest-V1
_database_code_CSD PEHGAL
_database_code_depnum_ccdc_archive 'CCDC 615014'
_chemical_formula_sum 'C33 H29 N3 O5'
_chemical_formula_moiety
;
C33 H29 N3 O5
;
_journal_coden_Cambridge 1343
_journal_volume 8
_journal_year 2006
_journal_page_first 293
_journal_name_full 'J.Comb.Chem. '
loop_
_publ_author_name
"C.E.Masse"
"Pui Yee Ng"
"Y.Fukase"
"M.Sanchez-Rosello"
"J.T.Shaw"
_chemical_name_systematic
;
anti-1'-Benzyl-1-(2-(4-methoxyphenyl)ethyl)-5-nitro-2'-phenyl-5'H-spiro(indole
-3,3'-pyrrolidine)-2,5'(1H)-dione
;
_cell_volume   2705.193
_exptl_crystal_colour 'colorless'
_exptl_crystal_density_diffrn 1.345
_exptl_crystal_description 'block'
_diffrn_ambient_temperature 193
#These two values have been output from a single CSD field.
_refine_ls_R_factor_gt 0.0368
_refine_ls_wR_factor_gt 0.0368
_symmetry_cell_setting monoclinic
_symmetry_space_group_name_H-M 'P 21/c'
_symmetry_Int_Tables_number 14
loop_
_symmetry_equiv_pos_site_id
_symmetry_equiv_pos_as_xyz
1 x,y,z
2 -x,1/2+y,1/2-z
3 -x,-y,-z
4 x,-1/2-y,-1/2+z
_cell_length_a 9.620(2)
_cell_length_b 15.672(3)
_cell_length_c 18.278(4)
_cell_angle_alpha 90
_cell_angle_beta 100.984(4)
_cell_angle_gamma 90
_cell_formula_units_Z 4
loop_
_atom_type_symbol
_atom_type_radius_bond
C 0.68
H 0.23
N 0.68
O 0.68
loop_
_atom_site_label
_atom_site_type_symbol
_atom_site_fract_x
_atom_site_fract_y
_atom_site_fract_z
O1 O 0.50436(9) 0.74243(6) 0.22717(5)
O2 O 0.58231(9) 0.90364(6) 0.39977(5)
O3 O 1.13604(10) 0.55984(6) 0.48977(5)
O4 O 1.15282(10) 0.44220(6) 0.43044(6)
O5 O 1.17463(10) 0.68347(7) 0.09589(5)
N1 N 0.64683(11) 0.62593(7) 0.22194(5)
N2 N 0.72679(10) 0.87623(6) 0.31658(5)
N3 N 1.09914(11) 0.51221(7) 0.43607(6)
C1 C 0.61049(12) 0.70140(8) 0.25101(7)
C2 C 0.72834(12) 0.72549(8) 0.31678(6)
C3 C 0.81553(12) 0.64535(7) 0.32688(6)
C4 C 0.92509(12) 0.62079(8) 0.38261(6)
H1 H 0.95900 0.65720 0.42370
C5 C 0.98469(13) 0.54080(8) 0.37675(7)
C6 C 0.93795(15) 0.48684(8) 0.31726(7)
H2 H 0.98240 0.43310 0.31470
C7 C 0.82681(15) 0.51102(8) 0.26169(7)
H3 H 0.79350 0.47450 0.22060
C8 C 0.76521(13) 0.58980(8) 0.26746(6)
C9 C 0.66788(13) 0.75953(8) 0.38264(7)
H4 H 0.57550 0.73260 0.38430
H5 H 0.73360 0.74820 0.43030
C10 C 0.65068(12) 0.85412(8) 0.36895(6)
C11 C 0.80550(11) 0.80648(7) 0.29112(6)
H6 H 0.79040 0.80760 0.23550
C12 C 0.56252(15) 0.58880(9) 0.15400(7)
H7 H 0.46090 0.59160 0.15690
H8 H 0.58830 0.52800 0.15070
C13 C 0.58599(15) 0.63546(10) 0.08354(7)
H9 H 0.54240 0.60170 0.03930
H10 H 0.53710 0.69130 0.08050
C14 C 0.73960(15) 0.64994(9) 0.08129(7)
C15 C 0.79594(14) 0.73127(9) 0.08279(7)
H11 H 0.73460 0.77890 0.08230
C16 C 0.93913(15) 0.74565(8) 0.08504(7)
H12 H 0.97430 0.80230 0.08460
C17 C 1.03011(14) 0.67689(9) 0.08789(7)
C18 C 0.97532(16) 0.59494(9) 0.08357(7)
H13 H 1.03660 0.54750 0.08320
C19 C 0.83277(16) 0.58190(9) 0.07975(7)
H14 H 0.79680 0.52530 0.07600
C20 C 1.23156(16) 0.76711(10) 0.09312(9)
H15 H 1.19370 0.79300 0.04460
H16 H 1.33500 0.76370 0.10010
H17 H 1.20520 0.80210 0.13280
C21 C 0.74397(12) 0.96403(7) 0.29488(7)
H18 H 0.84420 0.97310 0.29120
H19 H 0.72320 1.00190 0.33480
C22 C 0.65123(12) 0.99051(8) 0.22175(7)
C23 C 0.68935(14) 1.06129(8) 0.18494(8)
H20 H 0.77360 1.09140 0.20520
C24 C 0.60619(16) 1.08887(9) 0.11883(8)
H21 H 0.63390 1.13740 0.09400
C25 C 0.48325(16) 1.04593(9) 0.08900(8)
H22 H 0.42630 1.06450 0.04350
C26 C 0.44399(16) 0.9761(1) 0.12567(8)
H23 H 0.35900 0.94660 0.10560
C27 C 0.52722(14) 0.94825(9) 0.19172(8)
H24 H 0.49890 0.89980 0.21650
C28 C 0.96325(11) 0.81120(7) 0.32284(6)
C29 C 1.05911(13) 0.77950(8) 0.28172(7)
H25 H 1.02560 0.75430 0.23440
C30 C 1.20400(13) 0.78444(9) 0.30931(8)
H26 H 1.26900 0.76340 0.28050
C31 C 1.25325(14) 0.81979(9) 0.37834(8)
H27 H 1.35220 0.82340 0.39710
C32 C 1.15902(13) 0.84994(8) 0.42015(7)
H28 H 1.19310 0.87360 0.46810
C33 C 1.01447(13) 0.84598(7) 0.39262(7)
H29 H 0.95010 0.86720 0.42170
#END
