
#######################################################################
#
#                 Cambridge Crystallographic Data Centre
#                                CCDC
#
#######################################################################
#
# If this CIF has been generated from an entry in the Cambridge
# Structural Database, then it will include bibliographic, chemical,
# crystal, experimental, refinement or atomic coordinate data resulting
# from the CCDC's data processing and validation procedures.
#
#######################################################################

data_CSD_CIF_PEHXUW
_audit_creation_date 2006-10-06
_audit_creation_method CSD-ConQuest-V1
_database_code_CSD PEHXUW
_database_code_depnum_ccdc_archive 'CCDC 282878'
_chemical_formula_sum 'C5 H6 N4 O3'
_chemical_formula_moiety
;
C5 H6 N4 O3
;
_journal_coden_Cambridge 151
_journal_volume 48
_journal_year 2005
_journal_page_first 4231
_journal_name_full 'J.Med.Chem. '
loop_
_publ_author_name
"L.Oresmaa"
"H.Kotikoski"
"M.Haukka"
"J.Salminen"
"O.Oksala"
"E.Pohjala"
"E.Moilanen"
"H.Vapaatalo"
"P.Vainiotalo"
"P.Aulaskari"
_chemical_name_systematic
;
1-Methylimidazole-2-nitrolic acid
;
_cell_volume   1469.616
_exptl_crystal_colour 'pale yellow'
_exptl_crystal_density_diffrn 1.538
_exptl_special_details
;
lowers intraocular pressure in rabbits by intravitreal injection

;
_exptl_crystal_description 'block'
_diffrn_ambient_temperature 100
#These two values have been output from a single CSD field.
_refine_ls_R_factor_gt 0.0355
_refine_ls_wR_factor_gt 0.0355
_symmetry_cell_setting monoclinic
_symmetry_space_group_name_H-M 'P 21/c'
_symmetry_Int_Tables_number 14
loop_
_symmetry_equiv_pos_site_id
_symmetry_equiv_pos_as_xyz
1 x,y,z
2 -x,1/2+y,1/2-z
3 -x,-y,-z
4 x,-1/2-y,-1/2+z
_cell_length_a 13.6524(5)
_cell_length_b 7.4416(3)
_cell_length_c 14.4976(6)
_cell_angle_alpha 90
_cell_angle_beta 93.823(3)
_cell_angle_gamma 90
_cell_formula_units_Z 8
loop_
_atom_type_symbol
_atom_type_radius_bond
C 0.68
H 0.23
N 0.68
O 0.68
loop_
_atom_site_label
_atom_site_type_symbol
_atom_site_fract_x
_atom_site_fract_y
_atom_site_fract_z
C1 C 0.92316(14) -0.3444(3) 0.85535(12)
H1 H 0.93300 -0.47480 0.85630
H2 H 0.97110 -0.28830 0.81700
H3 H 0.85660 -0.31720 0.82970
C2 C 1.02323(12) -0.2458(2) 0.99980(13)
H4 H 1.08710 -0.26860 0.98030
C3 C 1.00074(12) -0.1793(2) 1.08247(13)
H5 H 1.04710 -0.14660 1.13140
C4 C 0.86407(12) -0.2245(2) 1.00355(11)
C5 C 0.75913(12) -0.2289(2) 0.97537(11)
C6 C 0.57461(13) 0.1463(3) 1.09125(12)
H6 H 0.61560 0.23420 1.06150
H7 H 0.50720 0.15330 1.06370
H8 H 0.60060 0.02520 1.08230
C7 C 0.49833(12) 0.1624(2) 1.24500(12)
H9 H 0.43420 0.12130 1.22610
C8 C 0.53166(12) 0.2098(2) 1.33159(12)
H10 H 0.49400 0.20720 1.38440
C9 C 0.65188(12) 0.2459(2) 1.24495(11)
C10 C 0.75007(12) 0.2789(2) 1.21342(11)
N1 N 0.93621(10) -0.27406(19) 0.9496(1)
N2 N 0.9004(1) -0.16600(19) 1.08507(9)
N3 N 0.70446(10) -0.10197(19) 0.94216(9)
N4 N 0.70652(10) -0.3996(2) 0.98845(10)
N5 N 0.57524(10) 0.18521(19) 1.18995(9)
N6 N 0.62818(10) 0.26242(19) 1.33172(10)
N7 N 0.8109(1) 0.16668(19) 1.18280(9)
N8 N 0.78562(10) 0.46542(19) 1.2148(1)
O1 O 0.75447(8) 0.05344(16) 0.93207(8)
O2 O 0.75838(9) -0.53244(17) 1.00448(9)
O3 O 0.61681(9) -0.40135(18) 0.98394(10)
O4 O 0.77676(8) -0.00432(16) 1.18236(8)
O5 O 0.72305(9) 0.58430(17) 1.21124(9)
O6 O 0.87413(8) 0.49285(17) 1.21899(9)
H11 H 0.70530 0.13260 0.90430
H12 H 0.82990 -0.05900 1.15330
#END
