
#######################################################################
#
#                 Cambridge Crystallographic Data Centre
#                                CCDC
#
#######################################################################
#
# If this CIF has been generated from an entry in the Cambridge
# Structural Database, then it will include bibliographic, chemical,
# crystal, experimental, refinement or atomic coordinate data resulting
# from the CCDC's data processing and validation procedures.
#
#######################################################################

data_CSD_CIF_PEJBEN
_audit_creation_date 2013-03-18
_audit_creation_method CSD-ConQuest-V1
_database_code_CSD PEJBEN
_database_code_depnum_ccdc_archive 'CCDC 888167'
_chemical_formula_sum 'C5 H4 N4 O8'
_chemical_formula_moiety
;
C5 H4 N4 O8
;
_journal_coden_Cambridge 1147
_journal_volume 12
_journal_year 2012
_journal_page_first 5292
_journal_name_full 'Cryst.Growth Des. '
loop_
_publ_author_name
"R.L.Willer"
"R.F.Storey"
"J.Deschamps"
"D.Parrish"
"J.Kendrick"
"F.J.J.Leusen"
_chemical_name_systematic
;
(S)-1,6-Dinitro-3,8-dioxa-1,6-diazaspiro[4.4]nonane-2,7-dione
;
_cell_volume   2577.627
_exptl_crystal_colour 'colorless'
_exptl_crystal_density_diffrn 1.918
_exptl_crystal_description 'prism'
_diffrn_ambient_temperature 100
#These two values have been output from a single CSD field.
_refine_ls_R_factor_gt 0.0352
_refine_ls_wR_factor_gt 0.0352
loop_
_citation_database_id_CSD
_citation_special_details
PEJBAJ "is a racemate of this entry"
_symmetry_cell_setting orthorhombic
_symmetry_space_group_name_H-M 'P 21 21 21'
_symmetry_Int_Tables_number 19
loop_
_symmetry_equiv_pos_site_id
_symmetry_equiv_pos_as_xyz
1 x,y,z
2 1/2-x,-y,1/2+z
3 -x,1/2+y,1/2-z
4 1/2+x,1/2-y,-z
_cell_length_a 6.8491(6)
_cell_length_b 19.0036(15)
_cell_length_c 19.8039(16)
_cell_angle_alpha 90
_cell_angle_beta 90
_cell_angle_gamma 90
_cell_formula_units_Z 12
loop_
_atom_type_symbol
_atom_type_radius_bond
C 0.68
H 0.23
N 0.68
O 0.68
loop_
_atom_site_label
_atom_site_type_symbol
_atom_site_fract_x
_atom_site_fract_y
_atom_site_fract_z
N1 N 0.7105(3) 0.89797(10) -0.03201(10)
N2 N 0.6807(3) 0.97102(11) -0.03394(10)
O1 O 0.5944(3) 0.99703(10) 0.01311(9)
O2 O 0.7447(3) 1.00009(9) -0.08436(9)
C1 C 0.6827(4) 0.85655(13) 0.02645(13)
O3 O 0.6408(3) 0.87511(10) 0.08171(9)
O4 O 0.7129(3) 0.78983(9) 0.00805(9)
C2 C 0.7636(4) 0.78402(12) -0.06237(12)
H1 H 0.65720 0.76070 -0.08780
H2 H 0.88450 0.75610 -0.06790
C3 C 0.7945(3) 0.85989(12) -0.08827(12)
C4 C 0.7031(4) 0.87347(13) -0.15832(12)
H3 H 0.67210 0.82840 -0.18110
H4 H 0.58150 0.90130 -0.15390
O5 O 0.8480(3) 0.91215(10) -0.19605(9)
C5 C 1.0208(5) 0.91471(14) -0.16404(14)
O6 O 1.1616(4) 0.94344(13) -0.18469(11)
N3 N 0.9965(3) 0.87919(11) -0.1025(1)
N4 N 1.1420(3) 0.87372(12) -0.05343(12)
O7 O 1.0868(3) 0.85687(10) 0.00288(10)
O8 O 1.3074(3) 0.88560(12) -0.07078(12)
N5 N 0.7544(3) 0.94299(11) 0.24091(10)
N6 N 0.6112(3) 0.96621(11) 0.19537(10)
O9 O 0.6527(3) 1.01502(9) 0.15871(9)
O10 O 0.4573(3) 0.93492(10) 0.19857(9)
C6 C 0.9401(4) 0.97402(14) 0.24660(13)
O11 O 0.9978(3) 1.02511(10) 0.21803(9)
O12 O 1.0408(3) 0.93705(9) 0.29148(9)
C7 C 0.9281(4) 0.87921(13) 0.31794(12)
H5 H 0.89950 0.88680 0.36640
H6 H 1.00120 0.83460 0.31310
C8 C 0.7377(4) 0.87628(11) 0.27718(12)
C9 C 0.5533(4) 0.86665(14) 0.32069(13)
H7 H 0.58870 0.84870 0.36600
H8 H 0.48440 0.91210 0.32610
O13 O 0.4312(3) 0.81697(10) 0.28624(10)
C10 C 0.5247(4) 0.78672(13) 0.23463(13)
O14 O 0.4575(3) 0.74419(10) 0.19766(10)
N7 N 0.7137(3) 0.81528(11) 0.23322(10)
N8 N 0.8545(3) 0.79695(11) 0.18507(10)
O15 O 0.8297(3) 0.74249(10) 0.15436(9)
O16 O 0.9920(3) 0.83707(10) 0.18015(9)
N9 N 1.0104(3) 1.14009(11) 0.11639(10)
N10 N 0.8486(3) 1.14536(11) 0.07448(11)
O17 O 0.7050(3) 1.17481(10) 0.09668(11)
O18 O 0.8686(3) 1.11958(10) 0.01846(10)
C11 C 1.0315(4) 1.17859(13) 0.17711(14)
O19 O 0.9173(3) 1.21765(10) 0.20286(10)
O20 O 1.2087(3) 1.16455(9) 0.20137(9)
C12 C 1.3077(4) 1.11158(13) 0.16228(12)
H9 H 1.31690 1.06710 0.18810
H10 H 1.44130 1.12730 0.15060
C13 C 1.1844(4) 1.10093(13) 0.09751(12)
C14 C 1.1508(4) 1.02318(13) 0.07850(12)
H11 H 1.25070 0.99290 0.10000
H12 H 1.02010 1.00750 0.09370
O21 O 1.1655(3) 1.01911(9) 0.00571(8)
O22 O 1.3111(3) 1.23286(9) 0.07429(10)
N11 N 1.2778(3) 1.12421(11) 0.03495(10)
O23 O 1.4198(3) 1.20876(10) -0.02671(10)
N12 N 1.3398(3) 1.19413(11) 0.02623(11)
C15 C 1.2408(4) 1.07839(15) -0.02034(13)
O24 O 1.2678(3) 1.08874(11) -0.07841(9)
#END
