
#######################################################################
#
#                 Cambridge Crystallographic Data Centre
#                                CCDC
#
#######################################################################
#
# If this CIF has been generated from an entry in the Cambridge
# Structural Database, then it will include bibliographic, chemical,
# crystal, experimental, refinement or atomic coordinate data resulting
# from the CCDC's data processing and validation procedures.
#
#######################################################################

data_CSD_CIF_PEKBAI
_audit_creation_date 1994-02-02
_audit_creation_method CSD-ConQuest-V1
_database_code_CSD PEKBAI
_chemical_formula_sum 'C18 H15 N1 O6'
_chemical_formula_moiety
;
C18 H15 N1 O6
;
_journal_coden_Cambridge 16
_journal_volume 48
_journal_year 1992
_journal_page_first 4757
_journal_name_full 'Tetrahedron '
loop_
_publ_author_name
"A.B.Cooper"
"J.Wang"
"A.K.Saksena"
"V.Girijavallabhan"
"A.K.Ganguly"
"Tze-Ming Chan"
"A.T.McPhail"
_chemical_name_systematic
;
8-Acetyl-5,7-dihydroxy-3,4a,6-trimethylbenzofuro(3,2-f)-1,2-benzisoxazol-4(4aH
)-one
;
_chemical_melting_point 502.15
_cell_volume   3138.892
_exptl_crystal_density_diffrn 1.444
_exptl_special_details
;
Melting point range 502.15-503.15K

;
_diffrn_ambient_temperature ?
_diffrn_special_details
;
The study was carried out at room temperature,in the range 283-303K

;
#These two values have been output from a single CSD field.
_refine_ls_R_factor_gt 0.042
_refine_ls_wR_factor_gt 0.042
_symmetry_cell_setting orthorhombic
_symmetry_space_group_name_H-M 'P 21 21 21'
_symmetry_Int_Tables_number 19
loop_
_symmetry_equiv_pos_site_id
_symmetry_equiv_pos_as_xyz
1 x,y,z
2 1/2+x,1/2-y,-z
3 -x,1/2+y,1/2-z
4 1/2-x,-y,1/2+z
_cell_length_a 18.989(2)
_cell_length_b 20.112(2)
_cell_length_c 8.219(1)
_cell_angle_alpha 90
_cell_angle_beta 90
_cell_angle_gamma 90
_cell_formula_units_Z 8
loop_
_atom_type_symbol
_atom_type_radius_bond
C 0.68
H 0.23
N 0.68
O 0.68
loop_
_atom_site_label
_atom_site_type_symbol
_atom_site_fract_x
_atom_site_fract_y
_atom_site_fract_z
C1 C 0.0841(2) 0.4685(1) -0.4411(4)
C2 C 0.0365(2) 0.4952(1) -0.5600(4)
C3 C -0.0290(2) 0.4694(2) -0.5827(4)
C4 C -0.0584(2) 0.4117(2) -0.5026(4)
C5 C -0.0164(2) 0.3879(2) -0.3872(4)
O1 O -0.0249(1) 0.3264(1) -0.3153(3)
C6 C 0.0400(2) 0.3098(2) -0.2453(4)
C7 C 0.0541(2) 0.2488(2) -0.1674(4)
C8 C 0.1223(2) 0.2448(1) -0.0974(4)
C9 C 0.1730(2) 0.2944(2) -0.1100(4)
C10 C 0.1543(2) 0.3537(2) -0.1916(4)
C11 C 0.0871(2) 0.3606(1) -0.2573(3)
C12 C 0.0483(1) 0.4207(1) -0.3217(3)
O2 O 0.1456(1) 0.4845(1) -0.4236(3)
C13 C 0.0441(2) 0.5441(2) -0.6852(4)
C14 C 0.1059(2) 0.5867(2) -0.7219(6)
N1 N -0.0123(2) 0.548(32) -0.7733(4)
O3 O -0.0610(1) 0.4998(1) -0.7063(3)
C15 C 0.0049(2) 0.1938(2) -0.1550(5)
O4 O 0.0224(2) 0.1420(1) -0.0827(4)
C16 C -0.0667(3) 0.1966(3) -0.2271(8)
O5 O 0.1411(1) 0.1895(1) -0.0133(3)
C17 C 0.2445(2) 0.2873(2) -0.0360(5)
O6 O 0.2033(1) 0.4018(1) -0.2030(3)
C18 C 0.0262(2) 0.4678(2) -0.1783(4)
C19 C 0.2570(2) 0.1656(1) 0.6399(4)
C20 C 0.2332(2) 0.1087(1) 0.7270(4)
C21 C 0.1688(2) 0.0809(1) 0.6959(4)
C22 C 0.1172(2) 0.1029(2) 0.5833(5)
C23 C 0.1384(2) 0.1559(1) 0.4972(4)
O7 O 0.0950(1) 0.1950(1) 0.4055(3)
C24 C 0.1303(2) 0.2549(1) 0.3816(4)
C25 C 0.1021(2) 0.3094(1) 0.2963(3)
C26 C 0.1495(2) 0.3631(1) 0.2794(4)
C27 C 0.2172(2) 0.3649(1) 0.3477(4)
C28 C 0.2409(2) 0.3085(1) 0.4294(4)
C29 C 0.1971(2) 0.2533(1) 0.4437(3)
C30 C 0.2121(2) 0.1817(1) 0.4908(3)
O8 O 0.3117(1) 0.1967(1) 0.6663(3)
C31 C 0.2600(2) 0.0738(2) 0.8670(4)
C32 C 0.3266(2) 0.0842(2) 0.9574(5)
N2 N 0.2151(2) 0.0276(2) 0.9116(4)
O9 O 0.1560(2) 0.0318(1) 0.8021(4)
C33 C 0.0319(2) 0.3115(2) 0.2260(4)
O10 O 0.0133(1) 0.3610(1) 0.1457(3)
C34 C -0.0196(2) 0.2566(2) 0.2513(5)
O11 O 0.1304(1) 0.4175(1) 0.1928(3)
C35 C 0.2635(2) 0.4246(2) 0.3268(6)
O12 O 0.3067(1) 0.3089(1) 0.4900(3)
C36 C 0.2505(2) 0.1462(2) 0.3464(4)
H1 H -0.10510 0.39190 -0.53090
H2 H 0.14640 0.57650 -0.63850
H3 H 0.12370 0.57680 -0.84040
H4 H 0.09140 0.63690 -0.71280
H5 H -0.09320 0.15180 -0.20380
H6 H -0.09490 0.23620 -0.17520
H7 H -0.06270 0.20380 -0.35330
H8 H 0.10640 0.15560 -0.00470
H9 H 0.24890 0.24040 0.01900
H10 H 0.28300 0.29210 -0.12700
H11 H 0.25190 0.32450 0.05210
H12 H 0.19070 0.44170 -0.25780
H13 H 0.07110 0.49130 -0.13080
H14 H -0.00910 0.50390 -0.22160
H15 H 0.00180 0.43970 -0.08650
H16 H 0.07020 0.08130 0.56960
H17 H 0.35510 0.12310 0.90340
H18 H 0.31520 0.09650 1.07870
H19 H 0.35670 0.04040 0.95420
H20 H -0.06680 0.26790 0.19060
H21 H 0.00120 0.21210 0.20490
H22 H -0.02960 0.25110 0.37620
H23 H 0.08460 0.41630 0.14660
H24 H 0.23610 0.46150 0.26240
H25 H 0.27800 0.44300 0.44160
H26 H 0.30890 0.41110 0.26180
H27 H 0.32290 0.27040 0.54570
H28 H 0.30260 0.16340 0.33890
H29 H 0.25060 0.09460 0.36630
H30 H 0.22410 0.15680 0.23720
#END
