
#######################################################################
#
#                 Cambridge Crystallographic Data Centre
#                                CCDC
#
#######################################################################
#
# If this CIF has been generated from an entry in the Cambridge
# Structural Database, then it will include bibliographic, chemical,
# crystal, experimental, refinement or atomic coordinate data resulting
# from the CCDC's data processing and validation procedures.
#
#######################################################################

data_CSD_CIF_PEKBEM
_audit_creation_date 1994-02-02
_audit_creation_method CSD-ConQuest-V1
_database_code_CSD PEKBEM
_chemical_formula_sum 'C18 H15 N1 O6'
_chemical_formula_moiety
;
C18 H15 N1 O6
;
_journal_coden_Cambridge 16
_journal_volume 48
_journal_year 1992
_journal_page_first 4757
_journal_name_full 'Tetrahedron '
loop_
_publ_author_name
"A.B.Cooper"
"J.Wang"
"A.K.Saksena"
"V.Girijavallabhan"
"A.K.Ganguly"
"Tze-Ming Chan"
"A.T.McPhail"
_chemical_name_systematic
;
7-Acetyl-8,10-dihydroxy-3,9,10b-trimethylbenzofuro(2,3-g)-1,2-benzisoxazol-4(1
0bH)-one
;
_chemical_melting_point 528.15
_cell_volume    826.243
_exptl_crystal_density_diffrn 1.372
_exptl_special_details
;
Melting point range 528.15-529.15K

;
_diffrn_ambient_temperature ?
_diffrn_special_details
;
The study was carried out at room temperature,in the range 283-303K

;
#These two values have been output from a single CSD field.
_refine_ls_R_factor_gt 0.058
_refine_ls_wR_factor_gt 0.058
_symmetry_cell_setting triclinic
_symmetry_space_group_name_H-M 'P 1'
_symmetry_Int_Tables_number 1
loop_
_symmetry_equiv_pos_site_id
_symmetry_equiv_pos_as_xyz
1 x,y,z
_cell_length_a 9.987(3)
_cell_length_b 11.393(3)
_cell_length_c 7.869(1)
_cell_angle_alpha 102.38(2)
_cell_angle_beta 108.72(2)
_cell_angle_gamma 89.76(2)
_cell_formula_units_Z 2
loop_
_atom_type_symbol
_atom_type_radius_bond
C 0.68
H 0.23
N 0.68
O 0.68
loop_
_atom_site_label
_atom_site_type_symbol
_atom_site_fract_x
_atom_site_fract_y
_atom_site_fract_z
C1 C 0.3769(4) 0.2335(4) -0.2274(5)
C2 C 0.3900(4) 0.3469(4) -0.1296(6)
C3 C 0.4843(5) 0.4411(5) -0.1388(7)
C4 C 0.5790(5) 0.3973(4) -0.2471(7)
C5 C 0.5642(4) 0.2839(4) -0.3344(6)
O1 O 0.6683(3) 0.2280(3) -0.3986(4)
C6 C 0.6493(4) 0.1045(4) -0.4073(5)
C7 C 0.7439(4) 0.0200(4) -0.4434(5)
C8 C 0.6994(4) -0.1002(4) -0.4482(5)
C9 C 0.5735(4) -0.1320(4) -0.4214(5)
C10 C 0.4842(4) -0.0412(4) -0.3918(5)
C11 C 0.5246(4) 0.0773(4) -0.3794(5)
C12 C 0.4454(4) 0.1890(4) -0.3707(5)
O2 O 0.2857(3) 0.1663(3) -0.1918(4)
C13 C 0.2968(4) 0.3487(5) -0.0247(6)
C14 C 0.2671(6) 0.4507(6) 0.1102(8)
N1 N 0.2346(4) 0.2418(4) -0.0586(5)
O3 O 0.4918(4) 0.5449(4) -0.0510(7)
C15 C 0.8741(4) 0.0458(4) -0.4786(5)
O4 O 0.9469(3) -0.0392(3) -0.5165(4)
C16 C 0.9233(4) 0.1712(5) -0.4702(6)
O5 O 0.7822(3) -0.1908(3) -0.4810(4)
C17 C 0.5350(5) -0.2626(4) -0.4362(7)
O6 O 0.3563(3) -0.0598(3) -0.3761(4)
C18 C 0.3308(5) 0.1838(5) -0.5642(7)
C19 C -0.0144(4) -0.3206(4) -0.1362(5)
C20 C 0.0661(4) -0.3356(4) -0.2464(5)
C21 C 0.1525(4) -0.2387(4) -0.2600(5)
C22 C 0.1361(4) -0.1183(4) -0.1613(5)
C23 C 0.0518(4) -0.1081(4) -0.0582(5)
O7 O 0.00000 0.00000 0.00000
C24 C -0.1262(4) -0.0277(4) 0.0281(5)
C25 C -0.2226(4) 0.0576(4) 0.0594(5)
C26 C -0.3452(4) 0.0044(4) 0.0787(5)
C27 C -0.3678(4) -0.1165(5) 0.0712(5)
C28 C -0.2646(4) -0.1943(4) 0.0416(5)
C29 C -0.1447(4) -0.1485(4) 0.0162(5)
C30 C -0.0121(4) -0.2067(4) -0.0011(5)
O8 O -0.0785(3) -0.4235(3) -0.1441(5)
C31 C 0.0426(5) -0.4620(4) -0.3341(7)
C32 C 0.1004(6) -0.5283(6) -0.4762(8)
N2 N -0.0433(5) -0.5158(4) -0.2768(7)
O9 O 0.2276(3) -0.2570(3) -0.3617(4)
C33 C -0.2048(5) 0.1846(4) 0.0697(6)
O10 O -0.3006(4) 0.2513(4) 0.0962(6)
C34 C -0.0802(6) 0.2406(5) 0.0473(7)
O11 O -0.4457(3) 0.0789(4) 0.1127(5)
C35 C -0.5001(5) -0.1636(6) 0.0943(6)
O12 O -0.2726(3) -0.3132(3) 0.0343(5)
C36 C 0.0856(5) -0.2205(5) 0.1924(6)
H1 H 0.65310 0.45350 -0.25340
H2 H 0.32640 0.52900 0.11930
H3 H 0.15870 0.46520 0.06600
H4 H 0.29540 0.42950 0.24010
H5 H 1.01870 0.16980 -0.49980
H6 H 0.84620 0.20750 -0.56720
H7 H 0.93970 0.22450 -0.33770
H8 H 0.86760 -0.16920 -0.49920
H9 H 0.61710 -0.31500 -0.45840
H10 H 0.52010 -0.27230 -0.31360
H11 H 0.44100 -0.29140 -0.54690
H12 H 0.32860 -0.14110 -0.38460
H13 H 0.24940 0.11820 -0.58790
H14 H 0.28840 0.26820 -0.56650
H15 H 0.37810 0.16160 -0.66730
H16 H 0.18660 -0.04560 -0.17080
H17 H 0.16720 -0.46910 -0.50320
H18 H 0.15830 -0.59860 -0.42830
H19 H 0.01660 -0.56420 -0.59760
H20 H -0.09040 0.33360 0.06020
H21 H 0.01210 0.22590 0.14920
H22 H -0.07380 0.20210 -0.08340
H23 H -0.43020 0.16200 0.11790
H24 H -0.56410 -0.09220 0.11500
H25 H -0.55620 -0.22820 -0.02460
H26 H -0.47230 -0.20320 0.20860
H27 H -0.35420 -0.34440 0.05160
H28 H 0.04110 -0.28910 0.23210
H29 H 0.18630 -0.24270 0.18590
H30 H 0.09500 -0.13900 0.28920
#END
