
#######################################################################
#
#                 Cambridge Crystallographic Data Centre
#                                CCDC
#
#######################################################################
#
# If this CIF has been generated from an entry in the Cambridge
# Structural Database, then it will include bibliographic, chemical,
# crystal, experimental, refinement or atomic coordinate data resulting
# from the CCDC's data processing and validation procedures.
#
#######################################################################

data_CSD_CIF_PEKSAZ
_audit_creation_date 1994-02-02
_audit_creation_method CSD-ConQuest-V1
_database_code_CSD PEKSAZ
_chemical_formula_sum 'C13 H10 N6 O1'
_chemical_formula_moiety
;
C13 H10 N6 O1
;
_journal_coden_Cambridge 582
_journal_volume 23
_journal_year 1993
_journal_page_first 133
_journal_name_full 'J.Crystallogr.Spectrosc.Res. '
loop_
_publ_author_name
"R.Luboradzki"
"W.Kozminski"
"L.Stefaniak"
_chemical_name_systematic
;
2,3-Diphenyltetrazolium-5-diaza-N-oxide
;
_cell_volume   1274.026
_exptl_crystal_density_diffrn 1.388
_diffrn_ambient_temperature ?
_diffrn_special_details
;
The study was carried out at room temperature,in the range 283-303K

;
#These two values have been output from a single CSD field.
_refine_ls_R_factor_gt 0.036
_refine_ls_wR_factor_gt 0.036
_symmetry_cell_setting orthorhombic
_symmetry_space_group_name_H-M 'P n a 21'
_symmetry_Int_Tables_number 33
loop_
_symmetry_equiv_pos_site_id
_symmetry_equiv_pos_as_xyz
1 x,y,z
2 1/2-x,1/2+y,1/2+z
3 1/2+x,1/2-y,z
4 -x,-y,1/2+z
_cell_length_a 15.702(2)
_cell_length_b 12.529(1)
_cell_length_c 6.476(1)
_cell_angle_alpha 90
_cell_angle_beta 90
_cell_angle_gamma 90
_cell_formula_units_Z 4
loop_
_atom_type_symbol
_atom_type_radius_bond
C 0.68
H 0.23
N 0.68
O 0.68
loop_
_atom_site_label
_atom_site_type_symbol
_atom_site_fract_x
_atom_site_fract_y
_atom_site_fract_z
C1 C 0.4560(1) 0.9810(2) 0.4566(6)
N1 N 0.3794(1) 0.9345(2) 0.4805(6)
N2 N 0.3964(1) 0.8314(2) 0.4763(6)
N3 N 0.4801(1) 0.8166(1) 0.45190
N4 N 0.5192(1) 0.9083(2) 0.4356(5)
N5 N 0.4641(1) 1.0895(2) 0.4492(6)
N6 N 0.5436(1) 1.1160(1) 0.4695(6)
O1 O 0.5575(1) 1.2149(1) 0.4643(6)
C2 C 0.3330(1) 0.7486(2) 0.4930(7)
C3 C 0.2845(2) 0.7465(3) 0.6723(7)
C4 C 0.2240(2) 0.6658(3) 0.6891(9)
C5 C 0.2141(2) 0.5920(3) 0.5340(8)
C6 C 0.2623(2) 0.5981(3) 0.3582(8)
C7 C 0.3231(2) 0.6780(2) 0.3310(7)
C8 C 0.5249(1) 0.7160(2) 0.4420(7)
C9 C 0.5139(2) 0.6419(2) 0.5934(7)
C10 C 0.5609(2) 0.5482(3) 0.5800(8)
C11 C 0.6183(2) 0.5328(2) 0.4216(7)
C12 C 0.6287(2) 0.6100(3) 0.2736(8)
C13 C 0.5817(2) 0.7041(2) 0.2806(7)
H1 H 0.2935(2) 0.8047(3) 0.7926(7)
H2 H 0.1844(2) 0.6610(3) 0.8255(9)
H3 H 0.1676(2) 0.5291(3) 0.5503(8)
H4 H 0.2531(2) 0.5392(3) 0.2368(9)
H5 H 0.3605(2) 0.6840(2) 0.1923(7)
H6 H 0.4702(2) 0.6556(2) 0.7189(7)
H7 H 0.5527(2) 0.4864(3) 0.6959(8)
H8 H 0.6553(2) 0.4602(2) 0.4133(7)
H9 H 0.6737(2) 0.5974(2) 0.1503(8)
H10 H 0.5895(2) 0.7651(2) 0.1641(7)
#END
