
#######################################################################
#
#                 Cambridge Crystallographic Data Centre
#                                CCDC
#
#######################################################################
#
# If this CIF has been generated from an entry in the Cambridge
# Structural Database, then it will include bibliographic, chemical,
# crystal, experimental, refinement or atomic coordinate data resulting
# from the CCDC's data processing and validation procedures.
#
#######################################################################

data_CSD_CIF_PELDOC
_audit_creation_date 2017-10-26
_audit_creation_method CSD-ConQuest-V1
_database_code_CSD PELDOC
_database_code_depnum_ccdc_archive 'CCDC 743398'
_chemical_formula_sum 'C3 H6 N4 O8'
_chemical_formula_moiety
;
C3 H6 N4 O8
;
_journal_coden_Cambridge 1457
_journal_volume 6
_journal_year 2009
_journal_page_first 255
_journal_name_full 'Central European Journal of Energetic Materials '
loop_
_publ_author_name
"T.Altenburg"
"T.M.Klapotke"
"A.Penger"
_chemical_name_systematic
;
3-(nitroamino)propane-1,2-diyl dinitrate
;
_chemical_name_common
;
1-nitramino-2,3-dinitroxypropane
;
_cell_volume    834.828
_exptl_crystal_colour 'colorless'
_exptl_crystal_density_diffrn 1.799
_exptl_crystal_description 'needle'
_diffrn_ambient_temperature 200
_refine_special_details
;
O10A,O17A,O18A and O10B,O17B,O18B disordered over two sites with occupancies 
0.537:0.463.
;
#These two values have been output from a single CSD field.
_refine_ls_R_factor_gt 0.0424
_refine_ls_wR_factor_gt 0.0424
_symmetry_cell_setting monoclinic
_symmetry_space_group_name_H-M 'P 21'
_symmetry_Int_Tables_number 4
loop_
_symmetry_equiv_pos_site_id
_symmetry_equiv_pos_as_xyz
1 x,y,z
2 -x,1/2+y,-z
_cell_length_a 7.1363(6)
_cell_length_b 8.6355(6)
_cell_length_c 13.7048(12)
_cell_angle_alpha 90
_cell_angle_beta 98.709(9)
_cell_angle_gamma 90
_cell_formula_units_Z 4
loop_
_atom_type_symbol
_atom_type_radius_bond
C 0.68
H 0.23
N 0.68
O 0.68
loop_
_atom_site_label
_atom_site_type_symbol
_atom_site_fract_x
_atom_site_fract_y
_atom_site_fract_z
C1 C 1.3348(5) 1.2159(4) 1.6126(2)
C2 C 1.4389(4) 1.1863(4) 1.5267(2)
C3 C 1.3141(6) 1.2006(4) 1.4284(3)
N1 N 1.7465(4) 1.2594(3) 1.4873(2)
N2 N 1.4894(4) 1.0555(3) 1.7445(2)
N3 N 1.1290(5) 1.4017(6) 1.3408(3)
N4 N 1.4464(4) 1.1957(3) 1.7076(2)
O1 O 1.5913(3) 1.2980(2) 1.53591(15)
O2 O 1.7386(4) 1.1421(3) 1.4418(2)
O3 O 1.8670(4) 1.3579(3) 1.4984(2)
O4 O 1.5791(4) 1.0487(3) 1.82908(18)
O5 O 1.4355(4) 0.9419(2) 1.69383(18)
O6 O 1.2471(3) 1.3592(3) 1.42639(17)
O7 O 1.0958(5) 1.3066(6) 1.2798(3)
O8 O 1.0814(5) 1.5370(5) 1.3409(3)
H1 H 1.289(5) 1.325(4) 1.609(3)
H2 H 1.212(5) 1.151(4) 1.610(2)
H3 H 1.490(4) 1.094(4) 1.5295(19)
H4 H 1.379(6) 1.192(5) 1.379(3)
H5 H 1.188(7) 1.151(5) 1.413(3)
H6 H 1.487(4) 1.261(3) 1.747(2)
C4 C 0.6924(4) 0.7195(4) 0.9765(2)
C5 C 0.9022(4) 0.6848(4) 1.0032(2)
C6 C 0.9752(6) 0.6931(5) 1.1118(3)
N5 N 0.6237(4) 0.6894(3) 0.8741(2)
N6 N 1.1733(4) 0.7577(3) 0.9280(2)
N7 N 0.5744(4) 0.5478(3) 0.8434(2)
N8 N 0.9949(5) 0.8953(4) 1.2316(3)
O9 O 0.9206(11) 0.8591(8) 1.1342(6)
O10 O 0.9955(3) 0.8011(2) 0.95060(16)
O11 O 1.2334(4) 0.6342(3) 0.9551(2)
O12 O 1.2446(3) 0.8560(3) 0.88474(19)
O13 O 0.6158(4) 0.4396(3) 0.9019(2)
O14 O 0.4953(5) 0.5334(3) 0.7582(2)
O15 O 0.9064(9) 0.9720(13) 1.2786(6)
O16 O 1.095(2) 0.8153(12) 1.2772(5)
H7 H 0.579(5) 0.742(4) 0.842(3)
H8 H 0.610(5) 0.661(4) 1.018(3)
H9 H 0.674(5) 0.822(5) 0.984(3)
H10 H 0.939(5) 0.578(5) 0.987(3)
H11 H 1.113(6) 0.674(5) 1.120(3)
H12 H 0.932(4) 0.603(4) 1.141(2)
O17? O 0.8776(12) 0.7957(17) 1.1652(8)
O18? O 0.980(2) 1.0428(10) 1.2408(8)
O19? O 1.1566(12) 0.8757(15) 1.2392(13)
#END
