
#######################################################################
#
#                 Cambridge Crystallographic Data Centre
#                                CCDC
#
#######################################################################
#
# If this CIF has been generated from an entry in the Cambridge
# Structural Database, then it will include bibliographic, chemical,
# crystal, experimental, refinement or atomic coordinate data resulting
# from the CCDC's data processing and validation procedures.
#
#######################################################################

data_CSD_CIF_PELDAM
_audit_creation_date 2006-10-06
_audit_creation_method CSD-ConQuest-V1
_database_code_CSD PELDAM
_database_code_depnum_ccdc_archive 'CCDC 610393'
_chemical_formula_sum 'C17 H25 N1 O5'
_chemical_formula_moiety
;
C17 H25 N1 O5
;
_journal_coden_Cambridge 1078
_journal_year 2006
_journal_name_full 'CSD Communication(Private Communication) '
loop_
_publ_author_name
"S.Parsons"
"K.Baker"
"R.Paton"
"A.Parkin"
"R.Johnstone"
_chemical_name_systematic
;
(R,S,R)-2,2-dimethyl-6-(1-oxa-2-azaspiro[4.5]dec-2-en-3-yl)-4,4a,8,8a-tetrahyd
ropyrano[3,2-d][1,3]dioxin-8-ol
;
_chemical_melting_point 343.15
_cell_volume   1670.159
_exptl_crystal_colour 'colorless'
_exptl_crystal_density_diffrn 1.286
_exptl_special_details
;
contribution from School of Chemistry, The University of Edinburgh King's 
Buildings, West Mains Road, Edinburgh, Scotland EH9 3JJ
;
_exptl_crystal_description 'tablet'
_exptl_crystal_preparation 'ether/hexane'
_diffrn_ambient_temperature 150
#These two values have been output from a single CSD field.
_refine_ls_R_factor_gt 0.0389
_refine_ls_wR_factor_gt 0.0389
_symmetry_cell_setting monoclinic
_symmetry_space_group_name_H-M 'P 21'
_symmetry_Int_Tables_number 4
loop_
_symmetry_equiv_pos_site_id
_symmetry_equiv_pos_as_xyz
1 x,y,z
2 -x,1/2+y,-z
_cell_length_a 11.968(3)
_cell_length_b 9.876(2)
_cell_length_c 14.233(3)
_cell_angle_alpha 90
_cell_angle_beta 96.883(3)
_cell_angle_gamma 90
_cell_formula_units_Z 4
loop_
_atom_type_symbol
_atom_type_radius_bond
C 0.68
H 0.23
N 0.68
O 0.68
loop_
_atom_site_label
_atom_site_type_symbol
_atom_site_fract_x
_atom_site_fract_y
_atom_site_fract_z
N1 N 0.92101(12) 0.79745(15) 0.92584(9)
O1 O 0.89135(9) 0.79201(12) 1.01809(7)
C1 C 0.96456(14) 0.88723(17) 1.07837(11)
C2 C 0.89690(15) 1.01526(17) 1.08904(12)
H1 H 0.86900 1.05020 1.02540
H2 H 0.94700 1.08490 1.12160
C3 C 0.79718(16) 0.9934(2) 1.14452(13)
H3 H 0.75990 1.08110 1.15350
H4 H 0.74170 0.93260 1.10860
C4 C 0.83715(16) 0.9310(2) 1.24028(12)
H5 H 0.88890 0.99440 1.27760
H6 H 0.77180 0.91510 1.27540
C5 C 0.89720(15) 0.7980(2) 1.22797(12)
H7 H 0.84380 0.73280 1.19430
H8 H 0.92380 0.75970 1.29100
C6 C 0.99708(15) 0.81736(18) 1.17234(11)
H9 H 1.05530 0.87180 1.21060
H10 H 1.03010 0.72780 1.16090
C7 C 1.06287(14) 0.91235(18) 1.02100(11)
H11 H 1.08290 1.00950 1.01980
H12 H 1.13020 0.85920 1.04570
C8 C 1.01306(14) 0.86324(16) 0.92542(11)
C9 C 1.06411(14) 0.87841(17) 0.83814(11)
O2 O 1.00132(9) 0.81568(13) 0.76286(7)
C10 C 1.03301(14) 0.85819(18) 0.67312(11)
H13 H 1.00970 0.95450 0.66140
C11 C 1.15945(13) 0.84720(16) 0.67379(10)
H14 H 1.18500 0.75390 0.69340
O3 O 1.33421(9) 0.93486(12) 0.76122(8)
H15 H 1.34910 0.86930 0.79820
C12 C 1.21621(13) 0.95013(16) 0.74242(10)
H16 H 1.20110 1.04180 0.71390
C13 C 1.15985(14) 0.94387(16) 0.83139(11)
H17 H 1.19480 0.98940 0.88590
C14 C 0.97271(14) 0.7701(2) 0.59626(11)
H18 H 0.99080 0.67360 0.60920
H19 H 0.89030 0.78210 0.59360
O4 O 1.00958(10) 0.81009(14) 0.50882(8)
C15 C 1.12743(14) 0.79729(19) 0.50677(11)
O5 O 1.18744(9) 0.87530(11) 0.58144(7)
C16 C 1.16484(16) 0.64949(18) 0.51051(12)
H20 H 1.11500 0.59670 0.46470
H21 H 1.16130 0.61360 0.57430
H22 H 1.24230 0.64330 0.49500
C17 C 1.15298(15) 0.8651(2) 0.41671(11)
H23 H 1.12880 0.95990 0.41680
H24 H 1.11260 0.81840 0.36210
H25 H 1.23410 0.86120 0.41280
N2 N 0.40834(12) 0.75075(14) 0.92507(9)
O6 O 0.37588(10) 0.75952(12) 1.01632(8)
C18 C 0.45591(15) 0.68072(18) 1.08259(11)
C19 C 0.39685(15) 0.55043(17) 1.10444(12)
H26 H 0.45020 0.49170 1.14430
H27 H 0.37300 0.50160 1.04460
C20 C 0.29401(16) 0.5774(2) 1.15566(13)
H28 H 0.23780 0.63010 1.11400
H29 H 0.25910 0.49030 1.17050
C21 C 0.32741(18) 0.6552(2) 1.24634(13)
H30 H 0.37950 0.59960 1.28980
H31 H 0.25960 0.67390 1.27780
C22 C 0.38427(17) 0.7882(2) 1.22627(14)
H32 H 0.40990 0.83420 1.28680
H33 H 0.32920 0.84800 1.18900
C23 C 0.48485(16) 0.7651(2) 1.17164(12)
H34 H 0.51440 0.85400 1.15390
H35 H 0.54520 0.71900 1.21350
C24 C 0.55562(15) 0.6562(2) 1.02685(11)
H36 H 0.62050 0.71440 1.04980
H37 H 0.57950 0.56020 1.03000
C25 C 0.50596(14) 0.69495(17) 0.92907(12)
C26 C 0.56257(14) 0.68683(17) 0.84415(11)
O7 O 0.48911(9) 0.69827(13) 0.76226(7)
C27 C 0.54252(14) 0.74963(17) 0.68454(11)
H38 H 0.56150 0.84730 0.69610
C28 C 0.64913(14) 0.67232(16) 0.67294(11)
H39 H 0.63160 0.57380 0.66380
O8 O 0.82236(9) 0.59490(12) 0.76079(8)
H40 H 0.88380 0.63210 0.78070
C29 C 0.73339(13) 0.69166(17) 0.75912(11)
H41 H 0.76630 0.78450 0.75670
C30 C 0.67383(14) 0.68135(17) 0.84615(11)
H42 H 0.71810 0.67030 0.90570
C31 C 0.46157(14) 0.73723(18) 0.59548(11)
H43 H 0.43960 0.64140 0.58450
H44 H 0.39280 0.79070 0.60140
O9 O 0.51562(10) 0.78664(12) 0.51828(8)
C32 C 0.61855(14) 0.72003(17) 0.50612(11)
O10 O 0.69436(9) 0.72405(11) 0.59231(7)
C33 C 0.59832(15) 0.57671(18) 0.47037(12)
H45 H 0.56220 0.52430 0.51680
H46 H 0.67040 0.53470 0.46110
H47 H 0.54930 0.57840 0.41010
C34 C 0.67358(15) 0.8062(2) 0.43747(12)
H48 H 0.74640 0.76670 0.42770
H49 H 0.68510 0.89790 0.46310
H50 H 0.62510 0.81000 0.37700
#END
