
#######################################################################
#
#                 Cambridge Crystallographic Data Centre
#                                CCDC
#
#######################################################################
#
# If this CIF has been generated from an entry in the Cambridge
# Structural Database, then it will include bibliographic, chemical,
# crystal, experimental, refinement or atomic coordinate data resulting
# from the CCDC's data processing and validation procedures.
#
#######################################################################

data_CSD_CIF_PELFES
_audit_creation_date 2006-10-05
_audit_creation_method CSD-ConQuest-V1
_database_code_CSD PELFES
_database_code_depnum_ccdc_archive 'CCDC 610399'
_chemical_formula_sum 'C14 H11 N3 O2'
_chemical_formula_moiety
;
C14 H11 N3 O2
;
_journal_coden_Cambridge 1078
_journal_year 2006
_journal_name_full 'CSD Communication(Private Communication) '
loop_
_publ_author_name
"S.Parsons"
"L.Crawford"
"H.McNab"
"A.Parkin"
"R.Johnstone"
_chemical_name_systematic
;
2-methyl-1-(2-nitrophenyl)-1H-benzimidazole
;
_chemical_melting_point 383.15
_cell_volume    615.914
_exptl_crystal_colour 'colorless'
_exptl_crystal_density_diffrn 1.366
_exptl_special_details
;
Melting point range 383.15-384.15K
contribution from School of Chemistry, The University of Edinburgh King's 
Buildings, West Mains Road, Edinburgh, Scotland EH9 3JJ
;
_exptl_crystal_description 'block'
_exptl_crystal_preparation 'toluene'
_diffrn_ambient_temperature 150
#These two values have been output from a single CSD field.
_refine_ls_R_factor_gt 0.0522
_refine_ls_wR_factor_gt 0.0522
_symmetry_cell_setting triclinic
_symmetry_space_group_name_H-M 'P -1'
_symmetry_Int_Tables_number 2
loop_
_symmetry_equiv_pos_site_id
_symmetry_equiv_pos_as_xyz
1 x,y,z
2 -x,-y,-z
_cell_length_a 7.7474(16)
_cell_length_b 8.2529(18)
_cell_length_c 10.230(2)
_cell_angle_alpha 86.580(3)
_cell_angle_beta 82.200(3)
_cell_angle_gamma 71.914(3)
_cell_formula_units_Z 2
loop_
_atom_type_symbol
_atom_type_radius_bond
C 0.68
H 0.23
N 0.68
O 0.68
loop_
_atom_site_label
_atom_site_type_symbol
_atom_site_fract_x
_atom_site_fract_y
_atom_site_fract_z
N1 N 0.03460(19) 0.95855(18) 0.80131(14)
C1 C -0.0537(3) 0.8596(2) 0.88009(18)
N2 N -0.2196(2) 0.9449(2) 0.92852(15)
C2 C -0.2458(2) 1.1103(2) 0.87919(18)
C3 C -0.3989(3) 1.2545(3) 0.8974(2)
H1 H -0.505(3) 1.249(3) 0.952(2)
C4 C -0.3863(3) 1.4040(3) 0.8359(2)
H2 H -0.489(3) 1.505(3) 0.847(2)
C5 C -0.2275(3) 1.4132(3) 0.7576(2)
H3 H -0.224(3) 1.521(3) 0.715(2)
C6 C -0.0743(3) 1.2716(2) 0.73736(19)
H4 H 0.032(3) 1.277(2) 0.684(2)
C7 C -0.0882(2) 1.1218(2) 0.79964(17)
C8 C 0.2082(2) 0.9033(2) 0.72351(17)
C9 C 0.3527(3) 0.9538(2) 0.75284(19)
H5 H 0.335(3) 1.023(3) 0.829(2)
C10 C 0.5209(3) 0.9000(3) 0.6771(2)
H6 H 0.622(3) 0.934(3) 0.698(2)
C11 C 0.5488(3) 0.7925(2) 0.5722(2)
H7 H 0.660(3) 0.757(2) 0.522(2)
C12 C 0.4078(3) 0.7375(2) 0.5435(2)
H8 H 0.423(3) 0.664(3) 0.468(2)
C13 C 0.2400(2) 0.7947(2) 0.61797(18)
N3 N 0.0923(2) 0.7352(3) 0.58447(17)
O1 O -0.0567(2) 0.8403(3) 0.57677(18)
O2 O 0.1286(3) 0.5830(2) 0.56515(17)
C14 C 0.0364(3) 0.6762(2) 0.9081(2)
H9 H -0.04550 0.63230 0.97180
H10 H 0.15040 0.66300 0.94490
H11 H 0.06350 0.61250 0.82620
#END
