
#######################################################################
#
#                 Cambridge Crystallographic Data Centre
#                                CCDC
#
#######################################################################
#
# If this CIF has been generated from an entry in the Cambridge
# Structural Database, then it will include bibliographic, chemical,
# crystal, experimental, refinement or atomic coordinate data resulting
# from the CCDC's data processing and validation procedures.
#
#######################################################################

data_CSD_CIF_PELHUL
_audit_creation_date 2013-03-18
_audit_creation_method CSD-ConQuest-V1
_database_code_CSD PELHUL
_database_code_depnum_ccdc_archive 'CCDC 834912'
_chemical_formula_sum 'C10 H16 N6 O4'
_chemical_formula_moiety
;
C10 H16 N6 O4
;
_journal_coden_Cambridge 1277
_journal_volume 115
_journal_year 2011
_journal_page_first 10087
_journal_name_full 'J.Phys.Chem.A '
loop_
_publ_author_name
"Jong Hoon Lee"
"P.Naumov"
"Ihn Hee Chung"
"Sang Cheol Lee"
_chemical_name_systematic
;
N,N'-bis(2-aminoethyl)-4,6-dinitrobenzene-1,3-diamine
;
_cell_volume   2571.298
_exptl_crystal_colour 'yellow'
_exptl_crystal_density_diffrn 1.469
_exptl_crystal_description 'prism'
_diffrn_ambient_temperature 293
#These two values have been output from a single CSD field.
_refine_ls_R_factor_gt 0.0477
_refine_ls_wR_factor_gt 0.0477
_symmetry_cell_setting orthorhombic
_symmetry_space_group_name_H-M 'P b c a'
_symmetry_Int_Tables_number 61
loop_
_symmetry_equiv_pos_site_id
_symmetry_equiv_pos_as_xyz
1 x,y,z
2 1/2-x,-y,1/2+z
3 -x,1/2+y,1/2-z
4 1/2+x,1/2-y,-z
5 -x,-y,-z
6 -1/2+x,y,-1/2-z
7 x,-1/2-y,-1/2+z
8 -1/2-x,-1/2+y,z
_cell_length_a 16.138(3)
_cell_length_b 7.0036(12)
_cell_length_c 22.750(4)
_cell_angle_alpha 90
_cell_angle_beta 90
_cell_angle_gamma 90
_cell_formula_units_Z 8
loop_
_atom_type_symbol
_atom_type_radius_bond
C 0.68
H 0.23
N 0.68
O 0.68
loop_
_atom_site_label
_atom_site_type_symbol
_atom_site_fract_x
_atom_site_fract_y
_atom_site_fract_z
C1 C 0.70196(9) 0.0711(2) 0.67689(7)
N1 N 0.79470(8) 0.1290(2) 0.75911(6)
C2 C 0.76042(9) -0.0110(2) 0.58322(6)
N2 N 0.62727(8) 0.0975(2) 0.70995(6)
O1 O 0.79942(9) -0.0925(3) 0.48914(6)
C3 C 0.84370(9) 0.0051(2) 0.60573(7)
C4 C 0.78316(9) 0.0877(2) 0.70253(7)
N3 N 0.74228(9) -0.0638(2) 0.52384(6)
C5 C 0.85064(9) 0.0581(2) 0.66484(7)
H1 H 0.90360 0.07470 0.68010
N4 N 0.91112(8) -0.0293(2) 0.57308(6)
O2 O 0.66967(8) -0.0829(2) 0.50825(6)
O3 O 0.63085(7) 0.1444(2) 0.76203(6)
C6 C 0.69329(9) 0.0219(2) 0.61897(7)
H2 H 0.64030 0.01030 0.60330
O4 O 0.56085(8) 0.0729(3) 0.68507(7)
C7 C 0.99612(10) -0.0151(3) 0.59460(8)
H3 H 1.03160 -0.09360 0.57010
H4 H 0.99840 -0.06620 0.63420
N5 N 1.02670(11) 0.2673(3) 0.53614(8)
N6 N 0.79901(11) 0.2639(3) 0.87215(7)
C8 C 0.87424(10) 0.1314(3) 0.78906(7)
H5 H 0.90390 0.24800 0.77970
H6 H 0.90760 0.02380 0.77640
C9 C 0.85884(10) 0.1200(3) 0.85436(7)
H7 H 0.83800 -0.00590 0.86430
H8 H 0.91050 0.13960 0.87530
C10 C 1.02971(10) 0.1862(3) 0.59517(8)
H9 H 0.99710 0.26420 0.62170
H10 H 1.08650 0.18540 0.60920
H11 H 0.9039(12) -0.070(3) 0.5396(9)
H12 H 0.7525(13) 0.160(3) 0.7797(8)
H13 H 0.9733(10) 0.309(3) 0.5298(9)
H14 H 1.0565(12) 0.376(3) 0.5345(9)
H15 H 0.7853(12) 0.253(3) 0.9115(6)
H16 H 0.8234(13) 0.383(2) 0.8664(9)
#END
