
#######################################################################
#
#                 Cambridge Crystallographic Data Centre
#                                CCDC
#
#######################################################################
#
# If this CIF has been generated from an entry in the Cambridge
# Structural Database, then it will include bibliographic, chemical,
# crystal, experimental, refinement or atomic coordinate data resulting
# from the CCDC's data processing and validation procedures.
#
#######################################################################

data_CSD_CIF_PELJOH
_audit_creation_date 2013-03-18
_audit_creation_method CSD-ConQuest-V1
_database_code_CSD PELJOH
_database_code_depnum_ccdc_archive 'CCDC 834916'
_chemical_formula_sum 'C20 H18 N4 O4'
_chemical_formula_moiety
;
C20 H18 N4 O4
;
_journal_coden_Cambridge 1277
_journal_volume 115
_journal_year 2011
_journal_page_first 10087
_journal_name_full 'J.Phys.Chem.A '
loop_
_publ_author_name
"Jong Hoon Lee"
"P.Naumov"
"Ihn Hee Chung"
"Sang Cheol Lee"
_chemical_name_systematic
;
N,N'-Dibenzyl-4,6-dinitrobenzene-1,3-diamine
;
_cell_volume    891.674
_exptl_crystal_colour 'yellow'
_exptl_crystal_density_diffrn 1.409
_exptl_crystal_description 'block'
_diffrn_ambient_temperature 293
#These two values have been output from a single CSD field.
_refine_ls_R_factor_gt 0.0562
_refine_ls_wR_factor_gt 0.0562
_symmetry_cell_setting triclinic
_symmetry_space_group_name_H-M 'P -1'
_symmetry_Int_Tables_number 2
loop_
_symmetry_equiv_pos_site_id
_symmetry_equiv_pos_as_xyz
1 x,y,z
2 -x,-y,-z
_cell_length_a 9.6792(13)
_cell_length_b 10.0246(13)
_cell_length_c 10.2564(14)
_cell_angle_alpha 108.140(1)
_cell_angle_beta 97.415(1)
_cell_angle_gamma 104.581(1)
_cell_formula_units_Z 2
loop_
_atom_type_symbol
_atom_type_radius_bond
C 0.68
H 0.23
N 0.68
O 0.68
loop_
_atom_site_label
_atom_site_type_symbol
_atom_site_fract_x
_atom_site_fract_y
_atom_site_fract_z
C1 C 0.15667(18) 0.82809(17) 0.48013(16)
N1 N 0.04548(17) 0.77690(16) 0.54845(15)
C2 C 0.32610(19) 0.79896(18) 0.32876(17)
H1 H 0.36850 0.73900 0.26900
N2 N 0.18701(18) 0.58703(15) 0.36872(16)
C3 C 0.3060(2) 1.03952(18) 0.44549(17)
C4 C 0.22243(18) 0.73234(17) 0.39116(16)
N3 N 0.46953(19) 1.00464(19) 0.28429(16)
C5 C 0.20216(19) 0.97729(18) 0.50628(17)
H2 H 0.16110 1.03780 0.56710
O1 O -0.00601(16) 0.64290(15) 0.52188(16)
C6 C 0.37029(19) 0.94934(19) 0.35018(16)
N4 N 0.3477(2) 1.19752(17) 0.48512(17)
O2 O 0.00384(18) 0.86672(16) 0.63245(16)
O3 O 0.4277(2) 1.25774(16) 0.42189(19)
O4 O 0.3056(2) 1.26916(16) 0.58262(19)
C7 C 0.2659(2) 0.4876(2) 0.30334(19)
H3 H 0.27290 0.42380 0.35650
H4 H 0.36480 0.54600 0.30970
C8 C 0.5371(2) 0.9169(2) 0.1885(2)
H5 H 0.57160 0.85440 0.23180
H6 H 0.62210 0.98260 0.17530
C9 C 0.1968(2) 0.3922(2) 0.15050(19)
C10 C 0.4384(2) 0.8202(2) 0.04527(19)
C11 C 0.3062(3) 0.8367(3) -0.0033(2)
H7 H 0.27300 0.90810 0.05420
C12 C 0.2227(3) 0.7481(3) -0.1368(2)
H8 H 0.13260 0.75810 -0.16770
C13 C 0.1109(3) 0.1514(3) -0.0319(3)
H9 H 0.09450 0.05010 -0.05930
C14 C 0.0773(3) 0.2116(3) -0.1303(2)
H10 H 0.03790 0.15180 -0.22430
C15 C 0.1692(3) 0.2409(2) 0.1084(2)
H11 H 0.18990 0.19890 0.17470
C16 C 0.2725(3) 0.6459(3) -0.2230(3)
H12 H 0.21850 0.58930 -0.31420
C17 C 0.1019(4) 0.3572(3) -0.0892(3)
H13 H 0.07930 0.39860 -0.15550
C18 C 0.1604(3) 0.4478(3) 0.0503(3)
H14 H 0.17510 0.54870 0.07610
C19 C 0.4006(4) 0.6268(4) -0.1758(3)
H15 H 0.43350 0.55580 -0.23420
C20 C 0.4827(3) 0.7123(4) -0.0411(3)
H16 H 0.56920 0.69640 -0.00880
H17 H 0.112(2) 0.552(2) 0.403(2)
H18 H 0.485(3) 1.1006(19) 0.302(3)
#END
