
#######################################################################
#
#                 Cambridge Crystallographic Data Centre
#                                CCDC
#
#######################################################################
#
# If this CIF has been generated from an entry in the Cambridge
# Structural Database, then it will include bibliographic, chemical,
# crystal, experimental, refinement or atomic coordinate data resulting
# from the CCDC's data processing and validation procedures.
#
#######################################################################

data_CSD_CIF_PELJUN
_audit_creation_date 2013-03-18
_audit_creation_method CSD-ConQuest-V1
_database_code_CSD PELJUN
_database_code_depnum_ccdc_archive 'CCDC 834917'
_chemical_formula_sum 'C20 H30 N4 O4'
_chemical_formula_moiety
;
C20 H30 N4 O4
;
_journal_coden_Cambridge 1277
_journal_volume 115
_journal_year 2011
_journal_page_first 10087
_journal_name_full 'J.Phys.Chem.A '
loop_
_publ_author_name
"Jong Hoon Lee"
"P.Naumov"
"Ihn Hee Chung"
"Sang Cheol Lee"
_chemical_name_systematic
;
N,N'-Bis(cyclohexylmethyl)-4,6-dinitrobenzene-1,3-diamine
;
_cell_volume   2098.774
_exptl_crystal_colour 'yellow'
_exptl_crystal_density_diffrn 1.236
_exptl_crystal_description 'prism'
_diffrn_ambient_temperature 293
_refine_special_details
;
C14,C15 and C14',C15' disordered over two sites with occupancies 0.50:0.50; 
H13 disordered by symmetry over two sites with occupancy 0.50.
;
#These two values have been output from a single CSD field.
_refine_ls_R_factor_gt 0.062
_refine_ls_wR_factor_gt 0.062
_symmetry_cell_setting orthorhombic
_symmetry_space_group_name_H-M 'P n m a'
_symmetry_Int_Tables_number 62
loop_
_symmetry_equiv_pos_site_id
_symmetry_equiv_pos_as_xyz
1 x,y,z
2 1/2-x,-y,1/2+z
3 -x,1/2+y,-z
4 1/2+x,1/2-y,1/2-z
5 -x,-y,-z
6 -1/2+x,y,-1/2-z
7 x,-1/2-y,z
8 -1/2-x,-1/2+y,-1/2+z
_cell_length_a 11.6274(11)
_cell_length_b 6.7904(7)
_cell_length_c 26.582(3)
_cell_angle_alpha 90
_cell_angle_beta 90
_cell_angle_gamma 90
_cell_formula_units_Z 4
loop_
_atom_type_symbol
_atom_type_radius_bond
C 0.68
H 0.23
N 0.68
O 0.68
loop_
_atom_site_label
_atom_site_type_symbol
_atom_site_fract_x
_atom_site_fract_y
_atom_site_fract_z
O1 O 0.7695(2) 0.25000 0.48532(13)
C1 C 0.5727(3) 0.25000 0.47759(15)
N1 N 0.6873(3) 0.25000 0.45655(16)
N2 N 0.4753(3) 0.25000 0.39676(12)
C2 C 0.4717(3) 0.25000 0.44712(14)
O2 O 0.6994(2) 0.25000 0.41051(13)
C3 C 0.3729(4) 0.25000 0.36542(16)
C4 C 0.4009(5) 0.25000 0.3105(3)
N3 N 0.2513(3) 0.25000 0.54660(12)
C5 C 0.4600(3) 0.25000 0.55321(13)
O3 O 0.5556(3) 0.25000 0.62839(12)
C6 C 0.3558(3) 0.25000 0.52485(13)
N4 N 0.4621(3) 0.25000 0.60712(14)
C7 C 0.3666(3) 0.25000 0.47265(13)
H1 H 0.29960 0.25000 0.45360
C8 C 0.5641(3) 0.25000 0.52890(15)
H2 H 0.63110 0.25000 0.54800
C9 C 0.1442(3) 0.25000 0.51827(16)
O4 O 0.3720(3) 0.25000 0.63092(11)
C10 C 0.0387(3) 0.25000 0.55200(15)
C11 C 0.0284(3) 0.4332(5) 0.58405(11)
H3 H 0.09180 0.43810 0.60780
H4 H 0.03290 0.54900 0.56280
C12 C -0.0982(5) 0.25000 0.6444(2)
C13 C -0.0850(3) 0.4342(6) 0.61257(14)
H5 H -0.14810 0.44210 0.58880
H6 H -0.08830 0.54930 0.63410
C14 C 0.3622(10) 0.25000 0.2061(3)
C15 C 0.2986(9) 0.371(2) 0.2826(3)
C16 C 0.3137(10) 0.4017(19) 0.2270(3)
H7 H 0.283(9) 0.504(6) 0.292(4)
H8 H 0.236(6) 0.315(13) 0.264(4)
H9 H 0.369(7) 0.509(13) 0.223(5)
H10 H 0.243(5) 0.440(15) 0.210(4)
H11 H 0.143(4) 0.382(8) 0.494(2)
H12 H 0.322(4) 0.367(7) 0.3718(19)
H13 H 0.249(7) 0.25000 0.5821(9)
H14 H 0.551(3) 0.25000 0.383(3)
H15 H -0.028(4) 0.25000 0.530(2)
H16 H -0.041(6) 0.25000 0.671(3)
H17 H -0.175(6) 0.25000 0.663(3)
H18? H 0.459(15) 0.15(3) 0.299(8)
H19 H 0.345(4) 0.325(6) 0.1766(12)
C17? C 0.4538(13) 0.118(2) 0.2882(3)
C18? C 0.4700(12) 0.1466(19) 0.2320(3)
H20? H 0.501(8) 0.08(2) 0.311(5)
H21? H 0.387(7) 0.035(16) 0.281(5)
H22? H 0.549(4) 0.148(13) 0.220(4)
H23? H 0.452(8) 0.010(7) 0.240(5)
C11F C 0.0284(3) 0.0668(5) 0.58405(11)
H3F H 0.09180 0.06190 0.60780
H4F H 0.03290 -0.04900 0.56280
C13F C -0.0850(3) 0.0658(6) 0.61257(14)
H5F H -0.14810 0.05790 0.58880
H6F H -0.08830 -0.04930 0.63410
C15F C 0.2986(9) 0.129(2) 0.2826(3)
C16F C 0.3137(10) 0.0983(19) 0.2270(3)
H7F H 0.283(9) -0.004(6) 0.292(4)
H8F H 0.236(6) 0.185(13) 0.264(4)
H9F H 0.369(7) -0.009(13) 0.223(5)
H10F H 0.243(5) 0.060(15) 0.210(4)
H11F H 0.143(4) 0.118(8) 0.494(2)
H12F H 0.322(4) 0.133(7) 0.3718(19)
H19F H 0.345(4) 0.175(6) 0.1766(12)
#END
