
#######################################################################
#
#                 Cambridge Crystallographic Data Centre
#                                CCDC
#
#######################################################################
#
# If this CIF has been generated from an entry in the Cambridge
# Structural Database, then it will include bibliographic, chemical,
# crystal, experimental, refinement or atomic coordinate data resulting
# from the CCDC's data processing and validation procedures.
#
#######################################################################

data_CSD_CIF_PELKEY
_audit_creation_date 2013-03-18
_audit_creation_method CSD-ConQuest-V1
_database_code_CSD PELKEY
_database_code_depnum_ccdc_archive 'CCDC 834919'
_chemical_formula_sum 'C14 H24 N6 O4'
_chemical_formula_moiety
;
C14 H24 N6 O4
;
_journal_coden_Cambridge 1277
_journal_volume 115
_journal_year 2011
_journal_page_first 10087
_journal_name_full 'J.Phys.Chem.A '
loop_
_publ_author_name
"Jong Hoon Lee"
"P.Naumov"
"Ihn Hee Chung"
"Sang Cheol Lee"
_chemical_name_systematic
;
N,N'-bis(2-(dimethylamino)ethyl)-4,6-dinitrobenzene-1,3-diamine
;
_cell_volume   1761.478
_exptl_crystal_colour 'yellow'
_exptl_crystal_density_diffrn 1.284
_exptl_crystal_description 'block'
_diffrn_ambient_temperature 293
#These two values have been output from a single CSD field.
_refine_ls_R_factor_gt 0.0557
_refine_ls_wR_factor_gt 0.0557
_symmetry_cell_setting monoclinic
_symmetry_space_group_name_H-M 'P 21/c'
_symmetry_Int_Tables_number 14
loop_
_symmetry_equiv_pos_site_id
_symmetry_equiv_pos_as_xyz
1 x,y,z
2 -x,1/2+y,1/2-z
3 -x,-y,-z
4 x,-1/2-y,-1/2+z
_cell_length_a 12.7313(6)
_cell_length_b 15.6701(8)
_cell_length_c 9.4477(4)
_cell_angle_alpha 90
_cell_angle_beta 110.843(1)
_cell_angle_gamma 90
_cell_formula_units_Z 4
loop_
_atom_type_symbol
_atom_type_radius_bond
C 0.68
H 0.23
N 0.68
O 0.68
loop_
_atom_site_label
_atom_site_type_symbol
_atom_site_fract_x
_atom_site_fract_y
_atom_site_fract_z
N1 N 0.19135(14) 0.12268(11) -0.58133(19)
C1 C 0.0977(2) 0.1170(2) -0.5318(4)
H1 H 0.12440 0.11050 -0.42370
H2 H 0.05230 0.06870 -0.57860
H3 H 0.05340 0.16810 -0.55980
C2 C 0.1529(3) 0.1291(2) -0.7452(3)
H4 H 0.10700 0.08060 -0.78970
H5 H 0.21660 0.13070 -0.77700
H6 H 0.10970 0.18040 -0.77740
H7 H 0.749(3) 0.163(2) 0.191(4)
H8 H 0.360(3) 0.060(2) -0.394(4)
N2 N 0.68649(14) 0.17617(10) 0.12531(17)
C3 C 0.53479(14) 0.13461(11) -0.0975(2)
H9 H 0.50200 0.18780 -0.09870
C4 C 0.63475(14) 0.11645(11) 0.02163(19)
C5 C 0.67957(15) 0.03217(11) 0.0254(2)
N3 N 0.38817(14) 0.09984(10) -0.3306(2)
C6 C 0.48099(14) 0.07780(11) -0.2151(2)
O1 O 0.81489(16) -0.06872(11) 0.1339(2)
N4 N 0.78159(15) 0.00378(11) 0.1407(2)
C7 C 0.62682(16) -0.02532(11) -0.0862(2)
H10 H 0.65670 -0.07990 -0.08100
O2 O 0.53144(16) -0.1397(1) -0.2993(2)
C8 C 0.53113(15) -0.00488(11) -0.2056(2)
N5 N 0.48703(15) -0.06939(10) -0.3182(2)
O3 O 0.40530(17) -0.05335(11) -0.4327(2)
O4 O 0.83266(16) 0.05238(12) 0.2435(2)
C9 C 0.33130(18) 0.18126(12) -0.3492(2)
H11 H 0.38590 0.22680 -0.31170
H12 H 0.28140 0.18200 -0.29190
N6 N 0.84711(14) 0.31143(12) 0.2482(2)
C10 C 0.73197(16) 0.31581(12) 0.2411(2)
H13 H 0.70810 0.37500 0.22910
H14 H 0.72850 0.29570 0.33650
C11 C 0.65093(16) 0.26435(12) 0.1141(2)
H15 H 0.57630 0.26780 0.11920
H16 H 0.64760 0.28760 0.01750
C12 C 0.2645(2) 0.19467(14) -0.5159(3)
H17 H 0.21950 0.24600 -0.52830
H18 H 0.31600 0.20280 -0.56970
C13 C 0.9212(2) 0.3474(2) 0.3908(3)
H19 H 0.99770 0.34380 0.39560
H20 H 0.91300 0.31600 0.47360
H21 H 0.90180 0.40610 0.39740
C14 C 0.8609(3) 0.3567(2) 0.1219(4)
H22 H 0.81280 0.33190 0.02850
H23 H 0.93770 0.35260 0.12840
H24 H 0.84140 0.41570 0.12550
#END
