
#######################################################################
#
#                 Cambridge Crystallographic Data Centre
#                                CCDC
#
#######################################################################
#
# If this CIF has been generated from an entry in the Cambridge
# Structural Database, then it will include bibliographic, chemical,
# crystal, experimental, refinement or atomic coordinate data resulting
# from the CCDC's data processing and validation procedures.
#
#######################################################################

data_CSD_CIF_PELMUP
_audit_creation_date 2006-10-06
_audit_creation_method CSD-ConQuest-V1
_database_code_CSD PELMUP
_database_code_depnum_ccdc_archive 'CCDC 618476'
_chemical_formula_sum 'C14 H10 N4 O4'
_chemical_formula_moiety
;
C14 H10 N4 O4
;
_journal_coeditor_code "IUCr BM5032"
_journal_coden_Cambridge 622
_journal_volume 62
_journal_year 2006
_journal_page_first 666
_journal_name_full 'Acta Crystallogr.,Sect.B:Struct.Sci. '
loop_
_publ_author_name
"C.Glidewell"
"J.N.Low"
"J.M.S.Skakle"
"J.L.Wardell"
_chemical_name_systematic
;
(E,E)-1,4-bis(4-Nitrophenyl)-2,3-diaza-1,3-butadiene
;
_chemical_melting_point 500
_cell_volume    645.484
_exptl_crystal_colour 'yellow'
_exptl_crystal_density_diffrn 1.535
_exptl_special_details
;
Melts above 500K

;
_exptl_crystal_description 'lath'
_exptl_crystal_preparation '1,2-dichloroethane'
_diffrn_ambient_temperature 120
#These two values have been output from a single CSD field.
_refine_ls_R_factor_gt 0.0414
_refine_ls_wR_factor_gt 0.0414
_symmetry_cell_setting monoclinic
_symmetry_space_group_name_H-M 'P 21/n'
_symmetry_Int_Tables_number 14
loop_
_symmetry_equiv_pos_site_id
_symmetry_equiv_pos_as_xyz
1 x,y,z
2 1/2-x,1/2+y,1/2-z
3 -x,-y,-z
4 -1/2+x,-1/2-y,-1/2+z
_cell_length_a 3.7318(2)
_cell_length_b 7.2442(3)
_cell_length_c 23.9367(10)
_cell_angle_alpha 90
_cell_angle_beta 94.053(2)
_cell_angle_gamma 90
_cell_formula_units_Z 2
loop_
_atom_type_symbol
_atom_type_radius_bond
C 0.68
H 0.23
N 0.68
O 0.68
loop_
_atom_site_label
_atom_site_type_symbol
_atom_site_fract_x
_atom_site_fract_y
_atom_site_fract_z
O1 O 0.4336(3) 1.28743(16) 0.72674(4)
O2 O 0.1025(3) 1.38990(14) 0.65597(4)
N1 N 0.4502(3) 0.58742(16) 0.50989(5)
N2 N 0.2944(3) 1.27087(17) 0.67923(5)
C1 C 0.4796(4) 0.77966(19) 0.59139(6)
C2 C 0.5886(4) 0.7945(2) 0.64823(5)
C3 C 0.5298(4) 0.95619(19) 0.67713(5)
C4 C 0.3602(3) 1.10060(18) 0.64832(5)
C5 C 0.2477(4) 1.09149(19) 0.59169(6)
C6 C 0.3100(3) 0.92931(19) 0.56356(5)
C7 C 0.5506(4) 0.60798(19) 0.56165(6)
H1 H 0.70370 0.69310 0.66720
H2 H 0.60410 0.96750 0.71580
H3 H 0.13200 1.19330 0.57300
H4 H 0.23680 0.91920 0.52490
H5 H 0.67350 0.51020 0.58130
O1B O 0.5664(3) -0.28743(16) 0.27326(4)
O2B O 0.8975(3) -0.38990(14) 0.34403(4)
N1B N 0.5498(3) 0.41258(16) 0.49011(5)
N2B N 0.7056(3) -0.27087(17) 0.32077(5)
C1B C 0.5204(4) 0.22034(19) 0.40861(6)
C2B C 0.4114(4) 0.2055(2) 0.35177(5)
C3B C 0.4702(4) 0.04381(19) 0.32287(5)
C4B C 0.6398(3) -0.10060(18) 0.35168(5)
C5B C 0.7523(4) -0.09149(19) 0.40831(6)
C6B C 0.6900(3) 0.07069(19) 0.43644(5)
C7B C 0.4494(4) 0.39202(19) 0.43835(6)
H1B H 0.29630 0.30690 0.33280
H2B H 0.39590 0.03250 0.28420
H3B H 0.86800 -0.19330 0.42700
H4B H 0.76320 0.08080 0.47510
H5B H 0.32650 0.48980 0.41870
#END
