
#######################################################################
#
#                 Cambridge Crystallographic Data Centre
#                                CCDC
#
#######################################################################
#
# If this CIF has been generated from an entry in the Cambridge
# Structural Database, then it will include bibliographic, chemical,
# crystal, experimental, refinement or atomic coordinate data resulting
# from the CCDC's data processing and validation procedures.
#
#######################################################################

data_CSD_CIF_PELMID
_audit_creation_date 2006-10-06
_audit_creation_method CSD-ConQuest-V1
_database_code_CSD PELMID
_database_code_depnum_ccdc_archive 'CCDC 618473'
_chemical_formula_sum 'C14 H10 N4 O4'
_chemical_formula_moiety
;
C14 H10 N4 O4
;
_journal_coeditor_code "IUCr BM5032"
_journal_coden_Cambridge 622
_journal_volume 62
_journal_year 2006
_journal_page_first 666
_journal_name_full 'Acta Crystallogr.,Sect.B:Struct.Sci. '
loop_
_publ_author_name
"C.Glidewell"
"J.N.Low"
"J.M.S.Skakle"
"J.L.Wardell"
_chemical_name_systematic
;
(E,E)-1-(2-Nitrophenyl)-4-(3-nitrophenyl)-2,3-diaza-1,3-butadiene
;
_chemical_melting_point 471
_cell_volume    668.717
_exptl_crystal_colour 'orange'
_exptl_crystal_density_diffrn 1.481
_exptl_special_details
;
Melting point range 471-473K

;
_exptl_crystal_description 'blade'
_exptl_crystal_preparation 'methanol'
_diffrn_ambient_temperature 120
#These two values have been output from a single CSD field.
_refine_ls_R_factor_gt 0.04
_refine_ls_wR_factor_gt 0.04
_symmetry_cell_setting monoclinic
_symmetry_space_group_name_H-M 'P 21'
_symmetry_Int_Tables_number 4
loop_
_symmetry_equiv_pos_site_id
_symmetry_equiv_pos_as_xyz
1 x,y,z
2 -x,1/2+y,-z
_cell_length_a 7.8036(2)
_cell_length_b 7.0914(3)
_cell_length_c 12.3424(4)
_cell_angle_alpha 90
_cell_angle_beta 101.742(2)
_cell_angle_gamma 90
_cell_formula_units_Z 2
loop_
_atom_type_symbol
_atom_type_radius_bond
C 0.68
H 0.23
N 0.68
O 0.68
loop_
_atom_site_label
_atom_site_type_symbol
_atom_site_fract_x
_atom_site_fract_y
_atom_site_fract_z
O1 O 0.7741(2) 0.6427(3) 0.03301(14)
O2 O 0.9832(2) 0.8362(4) 0.02160(15)
O3 O 0.4814(3) -0.5798(3) 0.45405(13)
O4 O 0.3223(2) -0.7467(3) 0.32540(16)
N1 N 0.7767(2) 0.2780(3) 0.26739(15)
N2 N 0.9066(2) 0.7306(3) 0.07464(16)
N3 N 0.6911(2) 0.1230(3) 0.20885(15)
N4 N 0.4115(2) -0.6066(3) 0.35745(17)
C1 C 0.9397(2) 0.5555(3) 0.25359(19)
C2 C 0.9748(3) 0.7147(4) 0.19415(19)
C3 C 1.0706(3) 0.8679(4) 0.2440(2)
C4 C 1.1331(3) 0.8666(4) 0.3577(2)
C5 C 1.1008(3) 0.7117(4) 0.4192(2)
C6 C 1.0079(3) 0.5606(4) 0.36847(19)
C7 C 0.8447(3) 0.3876(3) 0.20532(18)
C8 C 0.5404(2) -0.1642(3) 0.23476(17)
C9 C 0.5212(3) -0.3015(3) 0.31221(17)
C10 C 0.4325(3) -0.4645(3) 0.27564(18)
C11 C 0.3595(3) -0.4982(4) 0.16492(18)
C12 C 0.3778(3) -0.3598(4) 0.08904(17)
C13 C 0.4661(3) -0.1947(4) 0.12280(17)
C14 C 0.6356(3) 0.0081(3) 0.27403(18)
H1 H 1.09300 0.97240 0.20080
H2 H 1.19750 0.97100 0.39310
H3 H 1.14330 0.71020 0.49700
H4 H 0.98890 0.45560 0.41230
H5 H 0.83370 0.36040 0.12880
H6 H 0.56840 -0.28290 0.38870
H7 H 0.29910 -0.61240 0.14210
H8 H 0.32890 -0.37880 0.01280
H9 H 0.47660 -0.10070 0.06970
H10 H 0.65720 0.03600 0.35090
#END
