
#######################################################################
#
#                 Cambridge Crystallographic Data Centre
#                                CCDC
#
#######################################################################
#
# If this CIF has been generated from an entry in the Cambridge
# Structural Database, then it will include bibliographic, chemical,
# crystal, experimental, refinement or atomic coordinate data resulting
# from the CCDC's data processing and validation procedures.
#
#######################################################################

data_CSD_CIF_PELPOL
_audit_creation_date 1994-02-15
_audit_creation_method CSD-ConQuest-V1
_database_code_CSD PELPOL
_chemical_formula_sum 'C23 H28 N2 O4'
_chemical_formula_moiety
;
C23 H28 N2 O4
;
_journal_coden_Cambridge 444
_journal_volume 62
_journal_year 1992
_journal_page_first 443
_journal_name_full 'Zh.Obshch.Khim.(Russ.)(Russ.J.Gen.Chem.) '
loop_
_publ_author_name
"O.E.Kompan"
"V.I.Simakov"
"E.P.Ivakhnenko"
"O.Yu.Rekhlova"
"T.A.Ryskina"
"N.G.Furmanova"
"Yu.T.Struchkov"
"L.P.Olekhnovich"
_chemical_name_systematic
;
4-(2-Allyloxy-5-nitrophenylimino)-2,6-di-t-butyl-2,5-cyclohexadien-1-one
;
_cell_volume   2251.526
_exptl_crystal_density_diffrn 1.17
_diffrn_ambient_temperature ?
_diffrn_special_details
;
The study was carried out at room temperature,in the range 283-303K

;
#These two values have been output from a single CSD field.
_refine_ls_R_factor_gt 0.053
_refine_ls_wR_factor_gt 0.053
_symmetry_cell_setting monoclinic
_symmetry_space_group_name_H-M 'P 21/n'
_symmetry_Int_Tables_number 14
loop_
_symmetry_equiv_pos_site_id
_symmetry_equiv_pos_as_xyz
1 x,y,z
2 1/2-x,1/2+y,1/2-z
3 -x,-y,-z
4 -1/2+x,-1/2-y,-1/2+z
_cell_length_a 12.136(2)
_cell_length_b 11.8833(1)
_cell_length_c 15.619(1)
_cell_angle_alpha 90
_cell_angle_beta 91.69(1)
_cell_angle_gamma 90
_cell_formula_units_Z 4
loop_
_atom_type_symbol
_atom_type_radius_bond
C 0.68
N 0.68
O 0.68
loop_
_atom_site_label
_atom_site_type_symbol
_atom_site_fract_x
_atom_site_fract_y
_atom_site_fract_z
O1 O 0.2863(3) 0.2011(4) -0.3235(2)
O2 O 0.1552(2) 0.1136(2) 0.0193(1)
O3 O 0.1553(3) -0.4042(3) 0.0765(2)
O4 O 0.2239(4) -0.3511(3) 0.1985(1)
N1 N 0.0905(2) -0.0532(2) -0.0909(2)
N2 N 0.1859(3) -0.3328(3) 0.1261(2)
C1 C 0.1451(3) 0.0047(3) -0.1458(2)
C2 C 0.2595(3) 0.0386(3) -0.1363(2)
C3 C 0.3098(3) 0.1024(3) -0.1938(2)
C4 C 0.2434(4) 0.1408(3) -0.2707(2)
C5 C 0.1271(3) 0.1032(3) -0.2836(2)
C6 C 0.0846(3) 0.0378(3) -0.2237(2)
C7 C 0.4303(3) 0.1376(3) -0.1844(2)
C8 C 0.4390(4) 0.2650(4) -0.1814(4)
C9 C 0.4946(4) 0.0853(7) -0.2571(3)
C10 C 0.4832(3) 0.0927(4) -0.1021(3)
C11 C 0.0629(3) 0.1435(3) -0.3627(3)
C12 C 0.0535(6) 0.2699(4) -0.3633(4)
C13 C -0.0535(4) 0.0938(4) -0.3663(2)
C14 C 0.1171(4) 0.1048(5) -0.4440(2)
C15 C 0.1374(3) -0.0782(3) -0.0088(2)
C16 C 0.1659(3) 0.0072(3) 0.0492(3)
C17 C 0.2017(3) -0.0211(4) 0.1330(2)
C18 C 0.2085(3) -0.1327(4) 0.1562(2)
C19 C 0.1793(3) -0.2139(3) 0.0996(2)
C20 C 0.1416(3) -0.1890(3) 0.0170(3)
C21 C 0.1678(4) 0.2043(4) 0.0779(3)
C22 C 0.1531(4) 0.3107(4) 0.0334(3)
C23 C 0.1333(5) 0.3248(4) -0.0464(4)
#END
