
#######################################################################
#
#                 Cambridge Crystallographic Data Centre
#                                CCDC
#
#######################################################################
#
# If this CIF has been generated from an entry in the Cambridge
# Structural Database, then it will include bibliographic, chemical,
# crystal, experimental, refinement or atomic coordinate data resulting
# from the CCDC's data processing and validation procedures.
#
#######################################################################

data_CSD_CIF_PEMCAM
_audit_creation_date 2006-10-05
_audit_creation_method CSD-ConQuest-V1
_database_code_CSD PEMCAM
_database_code_depnum_ccdc_archive 'CCDC 621286'
_chemical_formula_sum 'C10 H12 N2 O2'
_chemical_formula_moiety
;
C10 H12 N2 O2
;
_journal_coeditor_code "IUCr HJ3016"
_journal_coden_Cambridge 591
_journal_volume 62
_journal_year 2006
_journal_page_first o557
_journal_name_full 'Acta Crystallogr.,Sect.C:Cryst.Struct.Commun. '
loop_
_publ_author_name
"L.Hamdellou"
"O.Hernandez"
"J.Meinnel"
_chemical_name_systematic
;
4-dimethyamino-\b-nitrostyrene
;
_chemical_melting_point 390
_cell_volume   1866.278
_exptl_crystal_colour 'dark red'
_exptl_crystal_density_diffrn 1.368
_exptl_crystal_description 'plate'
_exptl_crystal_preparation 'toluene'
_diffrn_ambient_temperature 100.0
_refine_special_details
;
The molecule is partially disordered over two sites with occupancies of 
0.830:0.170.
;
#These two values have been output from a single CSD field.
_refine_ls_R_factor_gt 0.033
_refine_ls_wR_factor_gt 0.033
_symmetry_cell_setting orthorhombic
_symmetry_space_group_name_H-M 'P b c a'
_symmetry_Int_Tables_number 61
loop_
_symmetry_equiv_pos_site_id
_symmetry_equiv_pos_as_xyz
1 x,y,z
2 1/2+x,1/2-y,-z
3 -x,1/2+y,1/2-z
4 1/2-x,-y,1/2+z
5 -x,-y,-z
6 -1/2-x,-1/2+y,z
7 x,-1/2-y,-1/2+z
8 -1/2+x,y,-1/2-z
_cell_length_a 10.1460(2)
_cell_length_b 7.3091(2)
_cell_length_c 25.1662(7)
_cell_angle_alpha 90
_cell_angle_beta 90
_cell_angle_gamma 90
_cell_formula_units_Z 8
loop_
_atom_type_symbol
_atom_type_radius_bond
C 0.68
H 0.23
N 0.68
O 0.68
loop_
_atom_site_label
_atom_site_type_symbol
_atom_site_fract_x
_atom_site_fract_y
_atom_site_fract_z
O1 O 0.30077(12) 0.52197(19) 0.33507(6)
O2 O 0.46427(19) 0.7099(3) 0.34689(6)
N1 N 0.39672(10) 0.73485(14) 0.67920(4)
N2 N 0.37398(16) 0.6127(2) 0.36439(5)
C1 C 0.40288(10) 0.71801(15) 0.62546(5)
C2 C 0.49764(12) 0.83659(19) 0.70776(5)
C3 C 0.30262(13) 0.62660(19) 0.70947(5)
C4 C 0.4998(3) 0.8158(4) 0.59644(7)
C5 C 0.50576(15) 0.8036(2) 0.54137(6)
C6 C 0.41664(14) 0.6977(2) 0.51173(5)
C7 C 0.32284(15) 0.5975(2) 0.54076(6)
C8 C 0.31540(19) 0.6071(3) 0.59517(6)
C9 C 0.42780(13) 0.69515(19) 0.45437(6)
C10 C 0.35170(14) 0.6022(2) 0.42047(5)
H1 H 0.47750 0.83440 0.74670
H2 H 0.49880 0.96610 0.69490
H3 H 0.58570 0.77930 0.70140
H4 H 0.31170 0.65580 0.74810
H5 H 0.32040 0.49350 0.70370
H6 H 0.21110 0.65620 0.69740
H7 H 0.56640 0.89320 0.61520
H8 H 0.57460 0.87360 0.52150
H9 H 0.25960 0.51610 0.52150
H10 H 0.24670 0.53560 0.61470
H11 H 0.50000 0.77170 0.43890
H12 H 0.27840 0.52430 0.43450
O3? O 0.3140(7) 0.5475(9) 0.3566(3)
O4? O 0.4803(10) 0.7212(14) 0.3351(3)
N3? N 0.4071(8) 0.6536(13) 0.3677(3)
C11? C 0.4936(15) 0.796(3) 0.5895(4)
C12? C 0.4733(9) 0.7724(14) 0.5363(3)
C13? C 0.3747(8) 0.6570(12) 0.5184(2)
C14? C 0.2905(8) 0.5712(12) 0.5539(3)
C15? C 0.3010(12) 0.600(2) 0.6069(3)
C16? C 0.3606(7) 0.6261(9) 0.4620(2)
C17? C 0.4317(6) 0.7008(9) 0.4228(3)
H13? H 0.56760 0.87400 0.60300
H14? H 0.53370 0.83410 0.51040
H15? H 0.22230 0.48430 0.54030
H16? H 0.23810 0.54170 0.63240
H17? H 0.28600 0.53790 0.45770
H18? H 0.50170 0.79210 0.43160
#END
