
#######################################################################
#
#                 Cambridge Crystallographic Data Centre
#                                CCDC
#
#######################################################################
#
# If this CIF has been generated from an entry in the Cambridge
# Structural Database, then it will include bibliographic, chemical,
# crystal, experimental, refinement or atomic coordinate data resulting
# from the CCDC's data processing and validation procedures.
#
#######################################################################

data_CSD_CIF_PEMCEQ
_audit_creation_date 2006-10-06
_audit_creation_method CSD-ConQuest-V1
_database_code_CSD PEMCEQ
_database_code_depnum_ccdc_archive 'CCDC 621287'
_chemical_formula_sum 'C12 H16 N2 O2'
_chemical_formula_moiety
;
C12 H16 N2 O2
;
_journal_coeditor_code "IUCr HJ3016"
_journal_coden_Cambridge 591
_journal_volume 62
_journal_year 2006
_journal_page_first o557
_journal_name_full 'Acta Crystallogr.,Sect.C:Cryst.Struct.Commun. '
loop_
_publ_author_name
"L.Hamdellou"
"O.Hernandez"
"J.Meinnel"
_chemical_name_systematic
;
4-dimethyamino-\b-ethyl-\b-nitrostyrene
;
_chemical_melting_point 361
_cell_volume   1166.068
_exptl_crystal_colour 'yellow'
_exptl_crystal_density_diffrn 1.255
_exptl_crystal_description 'plate'
_exptl_crystal_preparation 'ethanol'
_diffrn_ambient_temperature 100.0
#These two values have been output from a single CSD field.
_refine_ls_R_factor_gt 0.0377
_refine_ls_wR_factor_gt 0.0377
_symmetry_cell_setting orthorhombic
_symmetry_space_group_name_H-M 'P 21 21 21'
_symmetry_Int_Tables_number 19
loop_
_symmetry_equiv_pos_site_id
_symmetry_equiv_pos_as_xyz
1 x,y,z
2 1/2+x,1/2-y,-z
3 -x,1/2+y,1/2-z
4 1/2-x,-y,1/2+z
_cell_length_a 5.9641(1)
_cell_length_b 8.4492(1)
_cell_length_c 23.1400(4)
_cell_angle_alpha 90
_cell_angle_beta 90
_cell_angle_gamma 90
_cell_formula_units_Z 4
loop_
_atom_type_symbol
_atom_type_radius_bond
C 0.68
H 0.23
N 0.68
O 0.68
loop_
_atom_site_label
_atom_site_type_symbol
_atom_site_fract_x
_atom_site_fract_y
_atom_site_fract_z
O1 O 0.3599(3) 0.32618(17) 0.74674(6)
O2 O 0.5309(3) 0.44741(16) 0.81591(6)
N1 N 0.3426(3) -0.15522(17) 1.09331(7)
N2 N 0.4204(3) 0.33512(18) 0.79755(7)
C1 C 0.3607(3) -0.06704(19) 1.04390(8)
C2 C 0.5465(3) 0.03552(19) 1.03515(8)
C3 C 0.5630(3) 0.1231(2) 0.98484(8)
C4 C 0.4058(3) 0.11429(19) 0.94029(7)
C5 C 0.2202(3) 0.01411(19) 0.94958(8)
C6 C 0.1980(3) -0.0745(2) 0.99990(7)
C7 C 0.4393(3) 0.21535(19) 0.89041(8)
C8 C 0.3523(3) 0.20757(19) 0.83686(8)
C9 C 0.4905(3) -0.1280(2) 1.14227(8)
C10 C 0.1492(3) -0.2571(2) 1.10196(9)
C11 C 0.1994(3) 0.08604(19) 0.81058(8)
C12 C -0.0449(3) 0.1401(2) 0.80929(9)
H1 H 0.66480 0.04490 1.06560
H2 H 0.69400 0.19580 0.98020
H3 H 0.10120 0.00690 0.91920
H4 H 0.06430 -0.14450 1.00490
H5 H 0.54470 0.30570 0.89680
H6 H 0.45170 -0.20300 1.17420
H7 H 0.47230 -0.01670 1.15620
H8 H 0.64940 -0.14550 1.13010
H9 H 0.16310 -0.31210 1.14010
H10 H 0.00920 -0.19200 1.10150
H11 H 0.14250 -0.33760 1.07030
H12 H 0.20960 -0.01360 0.83380
H13 H 0.24980 0.06480 0.77010
H14 H -0.13930 0.05540 0.79140
H15 H -0.09780 0.16090 0.84960
H16 H -0.05770 0.23920 0.78590
#END
