
#######################################################################
#
#                 Cambridge Crystallographic Data Centre
#                                CCDC
#
#######################################################################
#
# If this CIF has been generated from an entry in the Cambridge
# Structural Database, then it will include bibliographic, chemical,
# crystal, experimental, refinement or atomic coordinate data resulting
# from the CCDC's data processing and validation procedures.
#
#######################################################################

data_CSD_CIF_PEMCAM05
_audit_creation_date 2010-04-22
_audit_creation_method CSD-ConQuest-V1
_database_code_CSD PEMCAM05
_database_code_depnum_ccdc_archive 'CCDC 701901'
_chemical_formula_sum 'C10 H12 N2 O2'
_chemical_formula_moiety
;
C10 H12 N2 O2
;
_journal_coden_Cambridge 1350
_journal_volume 11
_journal_year 2009
_journal_page_first 638
_journal_name_full 'CrystEngComm '
loop_
_publ_author_name
"J.Harada"
"M.Harakawa"
"K.Ogawa"
_chemical_name_systematic
;
4-Dimethylamino-\b-nitrostyrene
;
_chemical_name_common
;
N,N-Dimethyl-4-(2-nitrovinyl)aniline
;
_chemical_melting_point 453
_cell_volume   1861.703
_exptl_crystal_colour 'red'
_exptl_crystal_density_diffrn 1.372
_exptl_crystal_description 'block'
_exptl_crystal_preparation 'hexane'
_diffrn_ambient_temperature 90
_refine_special_details
;
The compound is dynamically disordered, adopting two conformations with 
differing orientations. Whole molecule disorder has been modelled, with the 
conformations having occupancies 0.90:0.10.
;
#These two values have been output from a single CSD field.
_refine_ls_R_factor_gt 0.0391
_refine_ls_wR_factor_gt 0.0391
_symmetry_cell_setting orthorhombic
_symmetry_space_group_name_H-M 'P b c a'
_symmetry_Int_Tables_number 61
loop_
_symmetry_equiv_pos_site_id
_symmetry_equiv_pos_as_xyz
1 x,y,z
2 1/2-x,-y,1/2+z
3 -x,1/2+y,1/2-z
4 1/2+x,1/2-y,-z
5 -x,-y,-z
6 -1/2+x,y,-1/2-z
7 x,-1/2-y,-1/2+z
8 -1/2-x,-1/2+y,z
_cell_length_a 10.1607(5)
_cell_length_b 7.2960(4)
_cell_length_c 25.1132(13)
_cell_angle_alpha 90
_cell_angle_beta 90
_cell_angle_gamma 90
_cell_formula_units_Z 8
loop_
_atom_type_symbol
_atom_type_radius_bond
C 0.68
H 0.23
N 0.68
O 0.68
loop_
_atom_site_label
_atom_site_type_symbol
_atom_site_fract_x
_atom_site_fract_y
_atom_site_fract_z
N1 N 0.37431(12) 0.11179(16) 0.36453(4)
N2 N 0.3968(2) 0.2358(3) 0.67940(5)
O1 O 0.46434(16) 0.2086(2) 0.34705(4)
O2 O 0.30072(10) 0.02029(15) 0.33530(4)
C1 C 0.41678(9) 0.19851(13) 0.51205(4)
C2 C 0.50561(10) 0.30578(14) 0.54152(4)
H1 H 0.57140 0.37280 0.52300
C3 C 0.50096(13) 0.3176(2) 0.59652(5)
H2 H 0.56340 0.39090 0.61490
C4 C 0.40341(15) 0.2207(2) 0.62548(4)
C5 C 0.31541(11) 0.10845(16) 0.59588(4)
H3 H 0.25030 0.03930 0.61410
C6 C 0.3229(1) 0.09820(14) 0.54122(4)
H4 H 0.26300 0.02120 0.52270
C7 C 0.42795(9) 0.19531(13) 0.45484(4)
H5 H 0.49620 0.26730 0.43970
C8 C 0.35163(10) 0.10093(14) 0.42073(4)
H6 H 0.28220 0.02660 0.43400
C9 C 0.4963(4) 0.3391(8) 0.70868(17)
H7 H 0.47390 0.34010 0.74660
H8 H 0.49920 0.46520 0.69530
H9 H 0.58250 0.28130 0.70380
C10 C 0.3012(2) 0.1266(3) 0.70884(5)
H10 H 0.30580 0.15780 0.74670
H11 H 0.32090 -0.00390 0.70410
H12 H 0.21250 0.15240 0.69540
N3? N 0.4028(15) 0.149(2) 0.3688(5)
N4? N 0.384(3) 0.247(5) 0.6810(6)
O3? O 0.4802(17) 0.219(3) 0.3370(6)
O4? O 0.3150(12) 0.0469(15) 0.3526(5)
C11? C 0.3765(11) 0.1562(15) 0.5193(3)
C12? C 0.4739(11) 0.2747(17) 0.5373(5)
H13? H 0.53120 0.33270 0.51260
C13? C 0.4874(15) 0.308(2) 0.5915(5)
H14? H 0.55390 0.38950 0.60390
C14? C 0.4035(18) 0.224(3) 0.6277(3)
C15? C 0.3061(14) 0.105(2) 0.6096(4)
H15? H 0.24880 0.04730 0.63430
C16? C 0.2927(10) 0.0714(14) 0.5554(4)
H16? H 0.22610 -0.00960 0.54300
C17? C 0.3618(12) 0.1288(16) 0.4629(3)
H17? H 0.29230 0.04930 0.45250
C18? C 0.4318(11) 0.1992(16) 0.4235(4)
H18? H 0.50120 0.28250 0.43100
C19? C 0.491(5) 0.334(9) 0.710(2)
H19? H 0.56540 0.24790 0.71250
H20? H 0.46160 0.36860 0.74520
H21? H 0.51990 0.44340 0.69020
C20? C 0.308(3) 0.143(4) 0.7189(8)
H22? H 0.21360 0.16060 0.71160
H23? H 0.32760 0.18470 0.75500
H24? H 0.32930 0.01230 0.71560
#END
