
#######################################################################
#
#                 Cambridge Crystallographic Data Centre
#                                CCDC
#
#######################################################################
#
# If this CIF has been generated from an entry in the Cambridge
# Structural Database, then it will include bibliographic, chemical,
# crystal, experimental, refinement or atomic coordinate data resulting
# from the CCDC's data processing and validation procedures.
#
#######################################################################

data_CSD_CIF_PEMCAM01
_audit_creation_date 2010-04-22
_audit_creation_method CSD-ConQuest-V1
_database_code_CSD PEMCAM01
_database_code_depnum_ccdc_archive 'CCDC 701897'
_chemical_formula_sum 'C10 H12 N2 O2'
_chemical_formula_moiety
;
C10 H12 N2 O2
;
_journal_coden_Cambridge 1350
_journal_volume 11
_journal_year 2009
_journal_page_first 638
_journal_name_full 'CrystEngComm '
loop_
_publ_author_name
"J.Harada"
"M.Harakawa"
"K.Ogawa"
_chemical_name_systematic
;
4-Dimethylamino-\b-nitrostyrene
;
_chemical_name_common
;
N,N-Dimethyl-4-(2-nitrovinyl)aniline
;
_chemical_melting_point 453
_cell_volume   1948.385
_exptl_crystal_colour 'red'
_exptl_crystal_density_diffrn 1.311
_exptl_crystal_description 'block'
_exptl_crystal_preparation 'hexane'
_diffrn_ambient_temperature 300
_refine_special_details
;
The compound is dynamically disordered, adopting two conformations with 
differing orientations. Whole molecule disorder has been modelled, with the 
conformations having occupancies 0.72:0.28.
;
#These two values have been output from a single CSD field.
_refine_ls_R_factor_gt 0.0505
_refine_ls_wR_factor_gt 0.0505
_symmetry_cell_setting orthorhombic
_symmetry_space_group_name_H-M 'P b c a'
_symmetry_Int_Tables_number 61
loop_
_symmetry_equiv_pos_site_id
_symmetry_equiv_pos_as_xyz
1 x,y,z
2 1/2-x,-y,1/2+z
3 -x,1/2+y,1/2-z
4 1/2+x,1/2-y,-z
5 -x,-y,-z
6 -1/2+x,y,-1/2-z
7 x,-1/2-y,-1/2+z
8 -1/2-x,-1/2+y,z
_cell_length_a 10.3129(6)
_cell_length_b 7.4611(5)
_cell_length_c 25.3216(16)
_cell_angle_alpha 90
_cell_angle_beta 90
_cell_angle_gamma 90
_cell_formula_units_Z 8
loop_
_atom_type_symbol
_atom_type_radius_bond
C 0.68
H 0.23
N 0.68
O 0.68
loop_
_atom_site_label
_atom_site_type_symbol
_atom_site_fract_x
_atom_site_fract_y
_atom_site_fract_z
N1 N 0.3740(4) 0.1234(6) 0.36397(10)
N2 N 0.3956(8) 0.2261(11) 0.67705(17)
O1 O 0.4587(7) 0.2175(11) 0.3450(3)
O2 O 0.3026(3) 0.0378(5) 0.33524(11)
C1 C 0.4176(2) 0.1998(3) 0.51041(7)
C2 C 0.5031(3) 0.2998(4) 0.54105(9)
H1 H 0.56760 0.36540 0.52410
C3 C 0.4964(3) 0.3057(4) 0.59495(11)
H2 H 0.55660 0.37400 0.61340
C4 C 0.4012(5) 0.2116(8) 0.62316(13)
C5 C 0.3157(3) 0.1061(4) 0.59215(13)
H3 H 0.25200 0.03850 0.60890
C6 C 0.3243(2) 0.1012(3) 0.5384(1)
H4 H 0.26630 0.02990 0.51970
C7 C 0.4269(2) 0.1989(3) 0.45397(8)
H5 H 0.49320 0.26800 0.43960
C8 C 0.3529(2) 0.1118(3) 0.41959(7)
H6 H 0.28530 0.04110 0.43210
C9 C 0.4987(7) 0.3195(10) 0.7049(3)
H7 H 0.47370 0.33760 0.74110
H8 H 0.51390 0.43350 0.68850
H9 H 0.57660 0.24920 0.70360
C10 C 0.3030(7) 0.1198(11) 0.7074(3)
H10 H 0.30660 0.15490 0.74390
H11 H 0.32450 -0.00500 0.70440
H12 H 0.21720 0.13960 0.69400
N3? N 0.3975(13) 0.163(2) 0.3678(4)
N4? N 0.3991(16) 0.222(2) 0.6787(4)
O3? O 0.4866(18) 0.232(3) 0.3431(9)
O4? O 0.3139(12) 0.0549(17) 0.3541(5)
C11? C 0.3786(5) 0.1619(7) 0.51707(15)
C12? C 0.4749(6) 0.2728(10) 0.5372(2)
H13? H 0.53200 0.33060 0.51440
C13? C 0.4860(8) 0.2974(13) 0.5915(3)
H14? H 0.55040 0.37160 0.60500
C14? C 0.4007(9) 0.2111(14) 0.62552(17)
C15? C 0.3044(7) 0.1002(10) 0.6054(2)
H15? H 0.24740 0.04240 0.62810
C16? C 0.2934(5) 0.0756(7) 0.5511(2)
H16? H 0.22890 0.00140 0.53760
C17? C 0.3617(6) 0.1339(8) 0.4613(2)
H17? H 0.29490 0.05720 0.45140
C18? C 0.4297(7) 0.2040(9) 0.4227(3)
H18? H 0.49860 0.28010 0.43030
C19? C 0.4916(12) 0.3242(14) 0.7092(6)
H19? H 0.57770 0.29840 0.69700
H20? H 0.48420 0.29230 0.74580
H21? H 0.47420 0.44980 0.70510
C20? C 0.3059(11) 0.1241(16) 0.7090(5)
H22? H 0.22010 0.15770 0.69820
H23? H 0.31720 0.15090 0.74580
H24? H 0.31810 -0.00200 0.70340
#END
