
#######################################################################
#
#                 Cambridge Crystallographic Data Centre
#                                CCDC
#
#######################################################################
#
# If this CIF has been generated from an entry in the Cambridge
# Structural Database, then it will include bibliographic, chemical,
# crystal, experimental, refinement or atomic coordinate data resulting
# from the CCDC's data processing and validation procedures.
#
#######################################################################

data_CSD_CIF_PEMCAM03
_audit_creation_date 2010-04-22
_audit_creation_method CSD-ConQuest-V1
_database_code_CSD PEMCAM03
_database_code_depnum_ccdc_archive 'CCDC 701899'
_chemical_formula_sum 'C10 H12 N2 O2'
_chemical_formula_moiety
;
C10 H12 N2 O2
;
_journal_coden_Cambridge 1350
_journal_volume 11
_journal_year 2009
_journal_page_first 638
_journal_name_full 'CrystEngComm '
loop_
_publ_author_name
"J.Harada"
"M.Harakawa"
"K.Ogawa"
_chemical_name_systematic
;
4-Dimethylamino-\b-nitrostyrene
;
_chemical_name_common
;
N,N-Dimethyl-4-(2-nitrovinyl)aniline
;
_chemical_melting_point 453
_cell_volume   1898.655
_exptl_crystal_colour 'red'
_exptl_crystal_density_diffrn 1.345
_exptl_crystal_description 'block'
_exptl_crystal_preparation 'hexane'
_diffrn_ambient_temperature 200
_refine_special_details
;
The compound is dynamically disordered, adopting two conformations with 
differing orientations. Whole molecule disorder has been modelled, with the 
conformations having occupancies 0.86:0.14.
;
#These two values have been output from a single CSD field.
_refine_ls_R_factor_gt 0.0458
_refine_ls_wR_factor_gt 0.0458
_symmetry_cell_setting orthorhombic
_symmetry_space_group_name_H-M 'P b c a'
_symmetry_Int_Tables_number 61
loop_
_symmetry_equiv_pos_site_id
_symmetry_equiv_pos_as_xyz
1 x,y,z
2 1/2-x,-y,1/2+z
3 -x,1/2+y,1/2-z
4 1/2+x,1/2-y,-z
5 -x,-y,-z
6 -1/2+x,y,-1/2-z
7 x,-1/2-y,-1/2+z
8 -1/2-x,-1/2+y,z
_cell_length_a 10.2466(6)
_cell_length_b 7.3631(4)
_cell_length_c 25.1655(15)
_cell_angle_alpha 90
_cell_angle_beta 90
_cell_angle_gamma 90
_cell_formula_units_Z 8
loop_
_atom_type_symbol
_atom_type_radius_bond
C 0.68
H 0.23
N 0.68
O 0.68
loop_
_atom_site_label
_atom_site_type_symbol
_atom_site_fract_x
_atom_site_fract_y
_atom_site_fract_z
N1 N 0.37426(18) 0.1153(2) 0.36448(6)
N2 N 0.3956(3) 0.2323(4) 0.67881(6)
O1 O 0.4636(3) 0.2109(5) 0.34707(8)
O2 O 0.30149(17) 0.0257(3) 0.33524(5)
C1 C 0.41616(12) 0.19894(16) 0.51170(4)
C2 C 0.50376(12) 0.30405(18) 0.54143(5)
H1 H 0.56940 0.37060 0.52320
C3 C 0.49847(15) 0.3146(2) 0.59623(5)
H2 H 0.56010 0.38730 0.61480
C4 C 0.40210(15) 0.2184(2) 0.62500(5)
C5 C 0.31515(14) 0.1087(2) 0.59515(5)
H3 H 0.25020 0.04020 0.61310
C6 C 0.32300(12) 0.09977(17) 0.54058(5)
H4 H 0.26350 0.02410 0.52190
C7 C 0.42742(12) 0.19628(16) 0.45469(5)
H5 H 0.49560 0.26710 0.43970
C8 C 0.35172(13) 0.10427(19) 0.42050(5)
H6 H 0.28250 0.03110 0.43360
C9 C 0.4934(3) 0.3344(5) 0.70831(11)
H7 H 0.47100 0.33420 0.74620
H8 H 0.49580 0.45980 0.69530
H9 H 0.57920 0.27810 0.70330
C10 C 0.3017(5) 0.1257(7) 0.70860(17)
H10 H 0.30510 0.16040 0.74620
H11 H 0.32260 -0.00360 0.70510
H12 H 0.21380 0.14830 0.69470
N3? N 0.3959(19) 0.150(3) 0.3690(6)
N4? N 0.393(3) 0.245(4) 0.6796(6)
O3? O 0.477(2) 0.223(4) 0.3392(8)
O4? O 0.3133(16) 0.048(2) 0.3500(6)
C11? C 0.3799(14) 0.161(2) 0.5178(4)
C12? C 0.4772(13) 0.278(2) 0.5356(5)
H13? H 0.53390 0.33460 0.51080
C13? C 0.4915(16) 0.311(2) 0.5896(6)
H14? H 0.55790 0.39080 0.60180
C14? C 0.4085(19) 0.228(3) 0.6259(4)
C15? C 0.3112(16) 0.111(2) 0.6081(5)
H15? H 0.25450 0.05400 0.63290
C16? C 0.2970(12) 0.0776(19) 0.5540(6)
H16? H 0.23050 -0.00220 0.54190
C17? C 0.3629(15) 0.132(2) 0.4621(4)
H17? H 0.29380 0.05250 0.45240
C18? C 0.4296(14) 0.200(2) 0.4227(5)
H18? H 0.49970 0.28120 0.42940
C19? C 0.505(3) 0.315(6) 0.7086(14)
H19? H 0.54760 0.41070 0.68760
H20? H 0.56730 0.21680 0.71510
H21? H 0.47600 0.36620 0.74250
C20? C 0.305(4) 0.134(6) 0.7102(17)
H22? H 0.21640 0.18280 0.70750
H23? H 0.33240 0.13310 0.74750
H24? H 0.30640 0.00930 0.69630
#END
