
#######################################################################
#
#                 Cambridge Crystallographic Data Centre
#                                CCDC
#
#######################################################################
#
# If this CIF has been generated from an entry in the Cambridge
# Structural Database, then it will include bibliographic, chemical,
# crystal, experimental, refinement or atomic coordinate data resulting
# from the CCDC's data processing and validation procedures.
#
#######################################################################

data_CSD_CIF_PEMCAM04
_audit_creation_date 2010-04-22
_audit_creation_method CSD-ConQuest-V1
_database_code_CSD PEMCAM04
_database_code_depnum_ccdc_archive 'CCDC 701900'
_chemical_formula_sum 'C10 H12 N2 O2'
_chemical_formula_moiety
;
C10 H12 N2 O2
;
_journal_coden_Cambridge 1350
_journal_volume 11
_journal_year 2009
_journal_page_first 638
_journal_name_full 'CrystEngComm '
loop_
_publ_author_name
"J.Harada"
"M.Harakawa"
"K.Ogawa"
_chemical_name_systematic
;
4-Dimethylamino-\b-nitrostyrene
;
_chemical_name_common
;
N,N-Dimethyl-4-(2-nitrovinyl)aniline
;
_chemical_melting_point 453
_cell_volume   1881.291
_exptl_crystal_colour 'red'
_exptl_crystal_density_diffrn 1.357
_exptl_crystal_description 'block'
_exptl_crystal_preparation 'hexane'
_diffrn_ambient_temperature 150
_refine_special_details
;
The compound is dynamically disordered, adopting two conformations with 
differing orientations. Whole molecule disorder has been modelled, with the 
conformations having occupancies 0.88:0.12.
;
#These two values have been output from a single CSD field.
_refine_ls_R_factor_gt 0.0422
_refine_ls_wR_factor_gt 0.0422
_symmetry_cell_setting orthorhombic
_symmetry_space_group_name_H-M 'P b c a'
_symmetry_Int_Tables_number 61
loop_
_symmetry_equiv_pos_site_id
_symmetry_equiv_pos_as_xyz
1 x,y,z
2 1/2-x,-y,1/2+z
3 -x,1/2+y,1/2-z
4 1/2+x,1/2-y,-z
5 -x,-y,-z
6 -1/2+x,y,-1/2-z
7 x,-1/2-y,-1/2+z
8 -1/2-x,-1/2+y,z
_cell_length_a 10.2078(6)
_cell_length_b 7.3313(4)
_cell_length_c 25.1387(14)
_cell_angle_alpha 90
_cell_angle_beta 90
_cell_angle_gamma 90
_cell_formula_units_Z 8
loop_
_atom_type_symbol
_atom_type_radius_bond
C 0.68
H 0.23
N 0.68
O 0.68
loop_
_atom_site_label
_atom_site_type_symbol
_atom_site_fract_x
_atom_site_fract_y
_atom_site_fract_z
N1 N 0.37420(15) 0.1134(2) 0.36447(5)
N2 N 0.3961(3) 0.2347(4) 0.67915(6)
O1 O 0.4642(3) 0.2101(4) 0.34714(6)
O2 O 0.30121(14) 0.0229(2) 0.33525(5)
C1 C 0.41642(11) 0.19885(15) 0.51191(4)
C2 C 0.50462(11) 0.30496(17) 0.54152(4)
H1 H 0.57040 0.37160 0.52320
C3 C 0.49948(14) 0.3162(2) 0.59646(5)
H2 H 0.56140 0.38920 0.61500
C4 C 0.40255(15) 0.2196(2) 0.62528(5)
C5 C 0.31518(13) 0.10869(18) 0.59556(5)
H3 H 0.25010 0.03990 0.61370
C6 C 0.32301(11) 0.09896(16) 0.54092(5)
H4 H 0.26350 0.02250 0.52230
C7 C 0.42763(11) 0.19576(15) 0.45478(4)
H5 H 0.49590 0.26710 0.43970
C8 C 0.35169(11) 0.10262(17) 0.42063(4)
H6 H 0.28240 0.02890 0.43380
C9 C 0.4952(4) 0.3364(7) 0.70852(13)
H7 H 0.47060 0.34210 0.74620
H8 H 0.50150 0.46030 0.69410
H9 H 0.58010 0.27510 0.70500
C10 C 0.3014(3) 0.1263(5) 0.70859(8)
H10 H 0.30560 0.15840 0.74640
H11 H 0.32150 -0.00350 0.70420
H12 H 0.21310 0.15110 0.69500
N3? N 0.3964(19) 0.147(3) 0.3696(6)
N4? N 0.390(3) 0.239(5) 0.6797(6)
O3? O 0.474(2) 0.216(4) 0.3380(7)
O4? O 0.3122(15) 0.045(2) 0.3510(6)
C11? C 0.3780(13) 0.1591(19) 0.5181(4)
C12? C 0.4763(13) 0.276(2) 0.5353(5)
H13? H 0.53270 0.33280 0.51010
C13? C 0.4921(16) 0.311(3) 0.5893(6)
H14? H 0.55930 0.39090 0.60100
C14? C 0.4096(19) 0.228(3) 0.6261(4)
C15? C 0.3113(16) 0.111(2) 0.6088(5)
H15? H 0.25490 0.05440 0.63400
C16? C 0.2955(12) 0.0764(18) 0.5549(5)
H16? H 0.22830 -0.00370 0.54310
C17? C 0.3621(14) 0.129(2) 0.4622(4)
H17? H 0.29420 0.04740 0.45220
C18? C 0.4294(14) 0.2009(19) 0.4231(5)
H18? H 0.49790 0.28570 0.42980
C19? C 0.495(4) 0.329(7) 0.7087(16)
H19? H 0.57870 0.30180 0.69160
H20? H 0.49590 0.28420 0.74540
H21? H 0.47980 0.46090 0.70860
C20? C 0.307(4) 0.138(6) 0.7160(12)
H22? H 0.21520 0.16700 0.70890
H23? H 0.32890 0.17190 0.75270
H24? H 0.32180 0.00710 0.71100
#END
