
#######################################################################
#
#                 Cambridge Crystallographic Data Centre
#                                CCDC
#
#######################################################################
#
# If this CIF has been generated from an entry in the Cambridge
# Structural Database, then it will include bibliographic, chemical,
# crystal, experimental, refinement or atomic coordinate data resulting
# from the CCDC's data processing and validation procedures.
#
#######################################################################

data_CSD_CIF_PEMCAM02
_audit_creation_date 2010-04-22
_audit_creation_method CSD-ConQuest-V1
_database_code_CSD PEMCAM02
_database_code_depnum_ccdc_archive 'CCDC 701898'
_chemical_formula_sum 'C10 H12 N2 O2'
_chemical_formula_moiety
;
C10 H12 N2 O2
;
_journal_coden_Cambridge 1350
_journal_volume 11
_journal_year 2009
_journal_page_first 638
_journal_name_full 'CrystEngComm '
loop_
_publ_author_name
"J.Harada"
"M.Harakawa"
"K.Ogawa"
_chemical_name_systematic
;
4-Dimethylamino-\b-nitrostyrene
;
_chemical_name_common
;
N,N-Dimethyl-4-(2-nitrovinyl)aniline
;
_chemical_melting_point 453
_cell_volume   1923.372
_exptl_crystal_colour 'red'
_exptl_crystal_density_diffrn 1.328
_exptl_crystal_description 'block'
_exptl_crystal_preparation 'hexane'
_diffrn_ambient_temperature 250
_refine_special_details
;
The compound is dynamically disordered, adopting two conformations with 
differing orientations. Whole molecule disorder has been modelled, with the 
conformations having occupancies 0.80:0.20.
;
#These two values have been output from a single CSD field.
_refine_ls_R_factor_gt 0.0535
_refine_ls_wR_factor_gt 0.0535
_symmetry_cell_setting orthorhombic
_symmetry_space_group_name_H-M 'P b c a'
_symmetry_Int_Tables_number 61
loop_
_symmetry_equiv_pos_site_id
_symmetry_equiv_pos_as_xyz
1 x,y,z
2 1/2-x,-y,1/2+z
3 -x,1/2+y,1/2-z
4 1/2+x,1/2-y,-z
5 -x,-y,-z
6 -1/2+x,y,-1/2-z
7 x,-1/2-y,-1/2+z
8 -1/2-x,-1/2+y,z
_cell_length_a 10.2801(8)
_cell_length_b 7.4110(5)
_cell_length_c 25.2458(19)
_cell_angle_alpha 90
_cell_angle_beta 90
_cell_angle_gamma 90
_cell_formula_units_Z 8
loop_
_atom_type_symbol
_atom_type_radius_bond
C 0.68
H 0.23
N 0.68
O 0.68
loop_
_atom_site_label
_atom_site_type_symbol
_atom_site_fract_x
_atom_site_fract_y
_atom_site_fract_z
N1 N 0.3734(3) 0.1184(3) 0.36429(8)
N2 N 0.3968(5) 0.2256(5) 0.67819(10)
O1 O 0.4592(3) 0.2128(7) 0.34582(18)
O2 O 0.3018(2) 0.0301(4) 0.33470(7)
C1 C 0.41603(15) 0.1986(2) 0.51124(6)
C2 C 0.50333(17) 0.3017(3) 0.54120(7)
H1 H 0.56830 0.36750 0.52350
C3 C 0.4976(2) 0.3106(4) 0.59571(9)
H2 H 0.55860 0.38120 0.61410
C4 C 0.4014(3) 0.2151(4) 0.62437(7)
C5 C 0.3150(2) 0.1074(3) 0.59402(7)
H3 H 0.25060 0.03950 0.61140
C6 C 0.32332(16) 0.1000(2) 0.53972(7)
H4 H 0.26470 0.02630 0.52110
C7 C 0.42719(16) 0.1976(2) 0.45437(6)
H5 H 0.49450 0.26760 0.43980
C8 C 0.35231(17) 0.1081(3) 0.42007(6)
H6 H 0.28390 0.03630 0.43300
C9 C 0.4957(8) 0.3269(12) 0.7068(2)
H7 H 0.47830 0.32070 0.74450
H8 H 0.49400 0.45190 0.69540
H9 H 0.58060 0.27570 0.69950
C10 C 0.3006(9) 0.1238(13) 0.7082(3)
H10 H 0.30260 0.16170 0.74500
H11 H 0.32050 -0.00400 0.70600
H12 H 0.21480 0.14570 0.69360
N3? N 0.3995(13) 0.156(2) 0.3684(4)
N4? N 0.392(3) 0.248(3) 0.6784(5)
O3? O 0.4890(14) 0.230(2) 0.3444(8)
O4? O 0.3130(9) 0.0524(12) 0.3524(4)
C11? C 0.3781(8) 0.1604(12) 0.5173(3)
C12? C 0.4748(9) 0.2740(14) 0.5365(4)
H13? H 0.53170 0.33190 0.51280
C13? C 0.4875(12) 0.3019(19) 0.5907(4)
H14? H 0.55290 0.37870 0.60360
C14? C 0.4034(14) 0.216(2) 0.6257(3)
C15? C 0.3066(11) 0.1028(18) 0.6065(3)
H15? H 0.24970 0.04490 0.63020
C16? C 0.2940(8) 0.0748(12) 0.5523(4)
H16? H 0.22850 -0.00200 0.53940
C17? C 0.3609(9) 0.1326(12) 0.4617(3)
H17? H 0.29240 0.05570 0.45180
C18? C 0.4290(9) 0.2012(12) 0.4230(3)
H18? H 0.49780 0.28050 0.43070
C19? C 0.494(3) 0.328(5) 0.7104(11)
H19? H 0.55710 0.23650 0.71960
H20? H 0.45600 0.37770 0.74250
H21? H 0.53580 0.42360 0.69050
C20? C 0.312(4) 0.126(5) 0.7084(13)
H22? H 0.22060 0.15440 0.70250
H23? H 0.33160 0.13700 0.74580
H24? H 0.32830 0.00270 0.69700
#END
