
#######################################################################
#
#                 Cambridge Crystallographic Data Centre
#                                CCDC
#
#######################################################################
#
# If this CIF has been generated from an entry in the Cambridge
# Structural Database, then it will include bibliographic, chemical,
# crystal, experimental, refinement or atomic coordinate data resulting
# from the CCDC's data processing and validation procedures.
#
#######################################################################

data_CSD_CIF_PEMGAQ
_audit_creation_date 2006-10-06
_audit_creation_method CSD-ConQuest-V1
_database_code_CSD PEMGAQ
_database_code_depnum_ccdc_archive 'CCDC 616602'
_chemical_formula_sum 'C18 H18 N2 O2'
_chemical_formula_moiety
;
C18 H18 N2 O2
;
_journal_coeditor_code "IUCr AT2086"
_journal_coden_Cambridge 1370
_journal_volume 62
_journal_year 2006
_journal_page_first o3923
_journal_name_full 'Acta Crystallogr.,Sect.E:Struct.Rep.Online '
loop_
_publ_author_name
"Shu-Ping Yang"
"Li-Jun Han"
"Da-Qi Wang"
"Hai-Tao Xia"
_chemical_name_systematic
;
(E,E)-4-Dimethylaminobenzaldehyde O-(3-phenylpropenoyl)oxime
;
_chemical_melting_point 415
_cell_volume   3146.871
_exptl_crystal_colour 'yellow'
_exptl_crystal_density_diffrn 1.242
_exptl_special_details
;
Melting point range 415-416K

;
_exptl_crystal_description 'column'
_exptl_crystal_preparation 'ethanol'
_diffrn_ambient_temperature 298
#These two values have been output from a single CSD field.
_refine_ls_R_factor_gt 0.0552
_refine_ls_wR_factor_gt 0.0552
_symmetry_cell_setting monoclinic
_symmetry_space_group_name_H-M 'C 2/c'
_symmetry_Int_Tables_number 15
loop_
_symmetry_equiv_pos_site_id
_symmetry_equiv_pos_as_xyz
1 x,y,z
2 1/2+x,1/2+y,z
3 -x,y,1/2-z
4 1/2-x,1/2+y,1/2-z
5 -x,-y,-z
6 -1/2-x,-1/2-y,-z
7 x,-y,-1/2+z
8 -1/2+x,-1/2-y,-1/2+z
_cell_length_a 23.88(2)
_cell_length_b 6.406(6)
_cell_length_c 21.41(2)
_cell_angle_alpha 90
_cell_angle_beta 106.092(14)
_cell_angle_gamma 90
_cell_formula_units_Z 8
loop_
_atom_type_symbol
_atom_type_radius_bond
C 0.68
H 0.23
N 0.68
O 0.68
loop_
_atom_site_label
_atom_site_type_symbol
_atom_site_fract_x
_atom_site_fract_y
_atom_site_fract_z
N1 N 0.16599(11) 0.9931(5) 0.46307(12)
N2 N 0.00803(12) 0.5521(5) 0.62357(14)
O1 O 0.20919(9) 1.0075(4) 0.42703(10)
O2 O 0.19554(11) 1.3565(4) 0.42541(13)
C1 C 0.21741(14) 1.2060(6) 0.40815(16)
C2 C 0.25569(13) 1.2028(5) 0.36569(15)
H1 H 0.26430 1.07560 0.34960
C3 C 0.27849(13) 1.3755(5) 0.34941(15)
H2 H 0.27080 1.49840 0.36860
C4 C 0.31449(13) 1.3945(5) 0.30453(14)
C5 C 0.34239(13) 1.5817(6) 0.30048(15)
H3 H 0.33850 1.69270 0.32700
C6 C 0.37603(15) 1.6061(6) 0.25757(18)
H4 H 0.39480 1.73230 0.25600
C7 C 0.38177(15) 1.4459(7) 0.21752(18)
H5 H 0.40430 1.46310 0.18870
C8 C 0.35392(15) 1.2585(6) 0.22009(17)
H6 H 0.35730 1.14940 0.19270
C9 C 0.32088(13) 1.2331(6) 0.26342(16)
H7 H 0.30260 1.10590 0.26510
C10 C 0.16263(13) 0.8050(5) 0.47986(15)
H8 H 0.18710 0.70600 0.46940
C11 C 0.12193(13) 0.7405(5) 0.51476(14)
C12 C 0.08296(13) 0.8785(5) 0.53060(15)
H9 H 0.08290 1.01740 0.51790
C13 C 0.04462(13) 0.8169(5) 0.56431(16)
H10 H 0.01830 0.91320 0.57240
C14 C 0.04433(13) 0.6109(5) 0.58692(15)
C15 C 0.08271(13) 0.4715(5) 0.57031(15)
H11 H 0.08310 0.33260 0.58310
C16 C 0.12001(12) 0.5361(5) 0.53532(15)
H12 H 0.14490 0.43870 0.52510
C17 C -0.03535(16) 0.6932(6) 0.6353(2)
H13 H -0.01650 0.81590 0.65710
H14 H -0.05620 0.62520 0.66190
H15 H -0.06210 0.73220 0.59460
C18 C 0.00342(15) 0.3390(6) 0.64213(19)
H16 H -0.01760 0.26010 0.60490
H17 H -0.01690 0.33310 0.67500
H18 H 0.04170 0.28100 0.65890
#END
