
#######################################################################
#
#                 Cambridge Crystallographic Data Centre
#                                CCDC
#
#######################################################################
#
# If this CIF has been generated from an entry in the Cambridge
# Structural Database, then it will include bibliographic, chemical,
# crystal, experimental, refinement or atomic coordinate data resulting
# from the CCDC's data processing and validation procedures.
#
#######################################################################

data_CSD_CIF_PEMLUP
_audit_creation_date 2006-10-06
_audit_creation_method CSD-ConQuest-V1
_database_code_CSD PEMLUP
_database_code_depnum_ccdc_archive 'CCDC 620698'
_chemical_formula_sum 'C25 H21 N3 O4'
_chemical_formula_moiety
;
C25 H21 N3 O4
;
_journal_coeditor_code "IUCr BT2169"
_journal_coden_Cambridge 1370
_journal_volume 62
_journal_year 2006
_journal_page_first o3994
_journal_name_full 'Acta Crystallogr.,Sect.E:Struct.Rep.Online '
loop_
_publ_author_name
"Cheng Guo"
"Dong-Mei Zhang"
"Qing-Gang Tang"
"Hong-Shun Sun"
_chemical_name_systematic
;
5,5'-Dimethoxy-3,3'-(3-nitrophenylmethanediyl)bis(1H-indole)
;
_chemical_melting_point 452
_cell_volume   2094.727
_exptl_crystal_colour 'yellow'
_exptl_crystal_density_diffrn 1.355
_exptl_special_details
;
Melting point range 452-453K

;
_exptl_crystal_description 'block'
_exptl_crystal_preparation 'methanol'
_diffrn_ambient_temperature 293
#These two values have been output from a single CSD field.
_refine_ls_R_factor_gt 0.0608
_refine_ls_wR_factor_gt 0.0608
_symmetry_cell_setting monoclinic
_symmetry_space_group_name_H-M 'P 21/c'
_symmetry_Int_Tables_number 14
loop_
_symmetry_equiv_pos_site_id
_symmetry_equiv_pos_as_xyz
1 x,y,z
2 -x,1/2+y,1/2-z
3 -x,-y,-z
4 x,-1/2-y,-1/2+z
_cell_length_a 10.631(2)
_cell_length_b 9.3570(19)
_cell_length_c 21.072(4)
_cell_angle_alpha 90
_cell_angle_beta 92.09(3)
_cell_angle_gamma 90
_cell_formula_units_Z 4
loop_
_atom_type_symbol
_atom_type_radius_bond
C 0.68
H 0.23
N 0.68
O 0.68
loop_
_atom_site_label
_atom_site_type_symbol
_atom_site_fract_x
_atom_site_fract_y
_atom_site_fract_z
O1 O 0.2042(3) 0.9800(3) 0.19260(11)
N1 N -0.0634(3) 1.0416(3) 0.40810(12)
H1 H -0.13500 1.01150 0.42030
C1 C 0.2042(4) 0.8490(4) 0.15863(18)
H2 H 0.25870 0.85700 0.12340
H3 H 0.12030 0.82770 0.14320
H4 H 0.23380 0.77370 0.18630
O2 O 0.4339(2) 0.7603(3) 0.55390(11)
N2 N 0.2876(3) 1.3103(3) 0.60197(13)
H5 H 0.28730 1.36160 0.63580
C2 C 0.1302(3) 0.9881(3) 0.24524(14)
C3 C 0.0150(3) 0.9181(4) 0.24752(16)
H6 H -0.01350 0.86290 0.21320
N3 N 0.4036(4) 1.6441(4) 0.30140(15)
O3 O 0.4973(3) 1.5730(4) 0.29508(15)
C4 C -0.0566(3) 0.9299(4) 0.29995(16)
H7 H -0.13360 0.88310 0.30180
O4 O 0.3883(3) 1.7611(3) 0.27637(17)
C5 C -0.0118(3) 1.0132(3) 0.35031(15)
C6 C 0.0193(3) 1.1261(3) 0.44266(15)
H8 H 0.00650 1.15840 0.48370
C7 C 0.1220(3) 1.1560(3) 0.40896(14)
C8 C 0.1038(3) 1.0842(3) 0.34880(13)
C9 C 0.1761(3) 1.0711(3) 0.29492(14)
H9 H 0.25330 1.11740 0.29270
C10 C 0.4043(4) 0.7004(4) 0.49276(18)
H10 H 0.43560 0.60430 0.49120
H11 H 0.44280 0.75680 0.46070
H12 H 0.31470 0.69990 0.48530
C11 C 0.3952(3) 0.8993(4) 0.56382(15)
C12 C 0.4150(3) 0.9467(4) 0.62692(16)
H13 H 0.45120 0.88480 0.65690
C13 C 0.3822(3) 1.0812(4) 0.64500(15)
H14 H 0.39480 1.11170 0.68680
C14 C 0.3292(3) 1.1711(3) 0.59877(14)
C15 C 0.2470(3) 1.3538(4) 0.54299(15)
H15 H 0.21560 1.44430 0.53340
C16 C 0.2587(3) 1.2462(3) 0.49985(14)
C17 C 0.3103(3) 1.1270(3) 0.53519(13)
C18 C 0.3434(3) 0.9874(3) 0.51750(15)
H16 H 0.33080 0.95570 0.47590
C19 C 0.2342(3) 1.2467(3) 0.42912(14)
H17 H 0.30800 1.20340 0.41020
C20 C 0.2218(3) 1.3978(3) 0.40196(14)
C21 C 0.1181(3) 1.4820(4) 0.41223(17)
H18 H 0.05450 1.44610 0.43680
C22 C 0.1056(4) 1.6185(4) 0.38711(19)
H19 H 0.03440 1.67270 0.39470
C23 C 0.1997(4) 1.6733(4) 0.35084(17)
H20 H 0.19330 1.76460 0.33360
C24 C 0.3029(3) 1.5895(4) 0.34095(16)
C25 C 0.3166(3) 1.4527(3) 0.36583(15)
H21 H 0.38810 1.39900 0.35830
#END
