
#######################################################################
#
#                 Cambridge Crystallographic Data Centre
#                                CCDC
#
#######################################################################
#
# If this CIF has been generated from an entry in the Cambridge
# Structural Database, then it will include bibliographic, chemical,
# crystal, experimental, refinement or atomic coordinate data resulting
# from the CCDC's data processing and validation procedures.
#
#######################################################################

data_CSD_CIF_PENCIU
_audit_creation_date 1994-02-10
_audit_creation_method CSD-ConQuest-V1
_database_code_CSD PENCIU
_database_code_depnum_ccdc_archive 'CCDC 1230800'
_chemical_formula_sum 'C20 H17 N1 O2'
_chemical_formula_moiety
;
C20 H17 N1 O2
;
_journal_coden_Cambridge 1234
_journal_volume 220
_journal_year 1992
_journal_page_first 231
_journal_name_full 'Mol.Cryst.Liq.Cryst.Sci.Technol.,Sect.A '
loop_
_publ_author_name
"S.M.Aldoshin"
"A.N.Utenyshev"
"I.I.Chuev"
"L.O.Atovmyan"
"A.V.Metelitsa"
"M.I.Knyazhanskii"
"V.S.Nedzvetskii"
"A.S.Kulikov"
_chemical_name_systematic
;
C-(2-(2-Naphthol-1-yl)vinyl)-N-p-tolylnitrone
;
_cell_volume   1627.438
_exptl_crystal_colour 'light yellow'
_exptl_crystal_density_diffrn 1.24
_exptl_special_details
;
Author has supplied revised crystallographic data and atomic coordinates

;
_diffrn_ambient_temperature ?
_diffrn_special_details
;
The study was carried out at room temperature,in the range 283-303K

;
#These two values have been output from a single CSD field.
_refine_ls_R_factor_gt 0.055
_refine_ls_wR_factor_gt 0.055
_symmetry_cell_setting monoclinic
_symmetry_space_group_name_H-M 'P 21/a'
_symmetry_Int_Tables_number 14
loop_
_symmetry_equiv_pos_site_id
_symmetry_equiv_pos_as_xyz
1 x,y,z
2 1/2-x,1/2+y,-z
3 -x,-y,-z
4 -1/2+x,-1/2-y,z
_cell_length_a 15.937(7)
_cell_length_b 8.000(7)
_cell_length_c 13.240(9)
_cell_angle_alpha 90
_cell_angle_beta 105.4(2)
_cell_angle_gamma 90
_cell_formula_units_Z 4
loop_
_atom_type_symbol
_atom_type_radius_bond
C 0.68
H 0.23
N 0.68
O 0.68
loop_
_atom_site_label
_atom_site_type_symbol
_atom_site_fract_x
_atom_site_fract_y
_atom_site_fract_z
O1 O 0.6643(3) 0.0092(7) 0.3949(4)
O2 O 0.4978(3) 0.0719(7) 0.6298(4)
N1 N 0.7241(4) 0.1094(8) 0.4505(5)
C1 C 0.7229(4) 0.1698(10) 0.5424(6)
C2 C 0.6579(5) 0.135(1) 0.5942(6)
C3 C 0.6640(5) 0.2127(11) 0.6872(6)
C4 C 0.6105(5) 0.2072(9) 0.7577(6)
C5 C 0.5277(5) 0.1383(11) 0.7283(7)
C6 C 0.4693(5) 0.1490(12) 0.7945(6)
C7 C 0.4992(6) 0.2179(11) 0.8899(7)
C8 C 0.5826(6) 0.2867(11) 0.9249(7)
C9 C 0.6134(8) 0.3596(15) 1.0255(8)
C10 C 0.6939(9) 0.4249(14) 1.0586(9)
C11 C 0.7499(6) 0.4124(12) 0.9936(9)
C12 C 0.7226(6) 0.3435(12) 0.9005(7)
C13 C 0.6383(5) 0.2790(11) 0.8571(6)
C14 C 0.7959(5) 0.1365(9) 0.4039(7)
C15 C 0.8799(5) 0.1475(10) 0.4654(7)
C16 C 0.9474(5) 0.165(1) 0.4178(8)
C17 C 0.9303(7) 0.1737(10) 0.3140(9)
C18 C 1.0001(7) 0.1879(14) 0.2584(10)
C19 C 0.8468(7) 0.1816(10) 0.2528(6)
C20 C 0.7781(6) 0.1635(9) 0.2968(7)
H1 H 0.770(3) 0.243(6) 0.577(4)
H2 H 0.611(3) 0.059(6) 0.565(4)
H3 H 0.714(3) 0.285(6) 0.707(4)
H4 H 0.411(3) 0.108(6) 0.771(4)
H5 H 0.462(3) 0.220(6) 0.936(4)
H6 H 0.572(4) 0.377(4) 1.055(4)
H7 H 0.712(3) 0.465(6) 1.124(4)
H8 H 0.807(3) 0.454(6) 1.017(4)
H9 H 0.762(4) 0.337(4) 0.859(4)
H10 H 0.897(3) 0.138(6) 0.550(4)
H11 H 1.015(3) 0.159(6) 0.469(4)
H12 H 1.059(3) 0.179(6) 0.305(4)
H13 H 0.994(3) 0.092(6) 0.205(4)
H14 H 1.000(3) 0.290(6) 0.223(4)
H15 H 0.836(6) 0.200(6) 0.180(4)
H16 H 0.713(3) 0.171(6) 0.250(4)
H17 H 0.425(4) 0.030(5) 0.618(4)
#END
