
#######################################################################
#
#                 Cambridge Crystallographic Data Centre
#                                CCDC
#
#######################################################################
#
# If this CIF has been generated from an entry in the Cambridge
# Structural Database, then it will include bibliographic, chemical,
# crystal, experimental, refinement or atomic coordinate data resulting
# from the CCDC's data processing and validation procedures.
#
#######################################################################

data_CSD_CIF_PENPUU
_audit_creation_date 2007-01-23
_audit_creation_method CSD-ConQuest-V1
_database_code_CSD PENPUU
_database_code_depnum_ccdc_archive 'CCDC 605950'
_chemical_formula_sum 'C9 H7 N1 O5'
_chemical_formula_moiety
;
C9 H7 N1 O5
;
_journal_coden_Cambridge 1350
_journal_volume 8
_journal_year 2006
_journal_page_first 674
_journal_name_full 'CrystEngComm '
loop_
_publ_author_name
"D.Das"
"G.R.Desiraju"
_chemical_name_systematic
;
4-Nitrophenylpyruvic acid
;
_cell_volume    860.574
_exptl_crystal_colour 'yellow'
_exptl_crystal_density_diffrn 1.614
_exptl_crystal_description 'block'
_exptl_crystal_preparation 'ethyl acetate/hexane'
_diffrn_ambient_temperature 100
#These two values have been output from a single CSD field.
_refine_ls_R_factor_gt 0.0441
_refine_ls_wR_factor_gt 0.0441
_symmetry_cell_setting monoclinic
_symmetry_space_group_name_H-M 'P 21/c'
_symmetry_Int_Tables_number 14
loop_
_symmetry_equiv_pos_site_id
_symmetry_equiv_pos_as_xyz
1 x,y,z
2 -x,1/2+y,1/2-z
3 -x,-y,-z
4 x,-1/2-y,-1/2+z
_cell_length_a 6.2747(16)
_cell_length_b 9.772(2)
_cell_length_c 14.037(4)
_cell_angle_alpha 90
_cell_angle_beta 90.974(4)
_cell_angle_gamma 90
_cell_formula_units_Z 4
loop_
_atom_type_symbol
_atom_type_radius_bond
C 0.68
H 0.23
N 0.68
O 0.68
loop_
_atom_site_label
_atom_site_type_symbol
_atom_site_fract_x
_atom_site_fract_y
_atom_site_fract_z
O1 O 0.4625(2) 0.68397(14) 0.3854(1)
O2 O 0.7609(2) 0.51251(13) 0.44898(10)
O3 O 0.9922(2) 0.68368(14) 0.47868(10)
O4 O -0.0048(2) 1.30270(13) 0.27684(10)
O5 O 0.2401(2) 1.43985(13) 0.32982(10)
N1 N 0.1728(3) 1.32405(16) 0.31107(11)
C1 C 0.3110(3) 1.20692(18) 0.33193(13)
C2 C 0.3526(3) 0.96553(19) 0.34321(14)
H1 H 0.29710 0.87570 0.33540
C3 C 0.6391(3) 1.11726(19) 0.38916(13)
H2 H 0.78060 1.13100 0.41230
C4 C 0.5154(3) 1.22893(19) 0.36537(13)
H3 H 0.57000 1.31920 0.37190
C5 C 0.5601(3) 0.98342(19) 0.37984(13)
C6 C 0.6983(3) 0.87095(19) 0.40955(13)
H4 H 0.83840 0.89580 0.42960
C7 C 0.2283(3) 1.07639(19) 0.31847(13)
H5 H 0.08870 1.06390 0.29270
C8 C 0.6533(3) 0.7368(2) 0.41220(13)
C9 C 0.8091(3) 0.6344(2) 0.44784(13)
H6 H 1.072(4) 0.614(3) 0.4978(18)
H7 H 0.475(4) 0.595(3) 0.3897(18)
#END
