
#######################################################################
#
#                 Cambridge Crystallographic Data Centre
#                                CCDC
#
#######################################################################
#
# If this CIF has been generated from an entry in the Cambridge
# Structural Database, then it will include bibliographic, chemical,
# crystal, experimental, refinement or atomic coordinate data resulting
# from the CCDC's data processing and validation procedures.
#
#######################################################################

data_CSD_CIF_PEPDEU
_audit_creation_date 2007-01-23
_audit_creation_method CSD-ConQuest-V1
_database_code_CSD PEPDEU
_database_code_depnum_ccdc_archive 'CCDC 603215'
_chemical_formula_sum 'C13 H14 N4 O5'
_chemical_formula_moiety
;
C13 H14 N4 O5
;
_journal_coden_Cambridge 469
_journal_volume 69
_journal_year 2006
_journal_page_first 1351
_journal_name_full 'J.Nat.Prod. '
loop_
_publ_author_name
"P.Chomcheon"
"N.Sriubolmas"
"S.Wiyakrutta"
"N.Ngamrojanavanich"
"N.Chaichit"
"C.Mahidol"
"S.Ruchirawat"
"P.Kittakoop"
_chemical_name_systematic
;
(5-((2,4-Dinitrophenyl)hydrazono)-2-methylcyclopent-1-enyl)methanol
;
_chemical_melting_point 456.15
_cell_volume   1435.359
_exptl_crystal_colour 'red'
_exptl_crystal_density_diffrn 1.417
_exptl_special_details
;
Melting point range 456.15-459.15K
inactive with regard to antimycobacterial activity
;
_exptl_crystal_description 'Plate'
_diffrn_ambient_temperature 293
_refine_special_details
;
Hydroxy groups are disordered with occupancies 0.572:0.428 and 0.27:0.73.

;
#These two values have been output from a single CSD field.
_refine_ls_R_factor_gt 0.0831
_refine_ls_wR_factor_gt 0.0831
_chemical_compound_source
;
Thai medicinal plant Leea rubra Blume ex Spreng. (Leeaceae)
;
_symmetry_cell_setting triclinic
_symmetry_space_group_name_H-M 'P -1'
_symmetry_Int_Tables_number 2
loop_
_symmetry_equiv_pos_site_id
_symmetry_equiv_pos_as_xyz
1 x,y,z
2 -x,-y,-z
_cell_length_a 7.3291(2)
_cell_length_b 14.1613(6)
_cell_length_c 15.2631(7)
_cell_angle_alpha 108.199(2)
_cell_angle_beta 101.926(2)
_cell_angle_gamma 98.204(2)
_cell_formula_units_Z 4
loop_
_atom_type_symbol
_atom_type_radius_bond
C 0.68
H 0.23
N 0.68
O 0.68
loop_
_atom_site_label
_atom_site_type_symbol
_atom_site_fract_x
_atom_site_fract_y
_atom_site_fract_z
C1 C 0.2462(7) 0.2087(4) 0.4079(3)
C2 C 0.2434(8) 0.1229(4) 0.4434(3)
C3 C 0.2548(8) 0.0384(4) 0.3737(4)
C4 C 0.2683(8) 0.0593(4) 0.2848(4)
H1 H 0.16500 0.01410 0.23050
H2 H 0.38920 0.04980 0.27100
C5 C 0.2531(7) 0.1703(3) 0.3052(3)
H3 H 0.36330 0.20950 0.29650
H4 H 0.13810 0.17450 0.26320
C6 C 0.2113(10) 0.1380(4) 0.5382(4)
H5 H 0.09790 0.16560 0.54050
H6 H 0.18370 0.07170 0.54440
H7? H 0.31990 0.18920 0.58450
H8? H 0.10050 0.16800 0.54000
O1 O 0.3604(10) 0.2020(5) 0.6183(5)
H9 H 0.41020 0.25060 0.60660
O2? O 0.1832(8) 0.0572(3) 0.5727(4)
H10? H 0.26420 0.02370 0.56330
C7 C 0.2630(8) -0.0643(3) 0.3787(4)
H11 H 0.26810 -0.10930 0.31780
H12 H 0.15110 -0.09090 0.39440
H13 H 0.37510 -0.05900 0.42700
N1 N 0.2446(6) 0.2984(3) 0.4609(3)
N2 N 0.2543(5) 0.3702(3) 0.4158(3)
H14 H 0.25950 0.35180 0.35720
C8 C 0.2556(6) 0.4679(4) 0.4633(3)
C9 C 0.2769(6) 0.5461(4) 0.4224(3)
C10 C 0.2692(6) 0.6459(4) 0.4718(3)
H15 H 0.28050 0.69540 0.44390
C11 C 0.2447(6) 0.6698(3) 0.5619(3)
C12 C 0.2295(6) 0.5971(4) 0.6060(3)
H16 H 0.21590 0.61550 0.66800
C13 C 0.2348(6) 0.4988(4) 0.5573(3)
H17 H 0.22430 0.45090 0.58710
N3 N 0.3097(6) 0.5248(4) 0.3281(3)
O3 O 0.3398(6) 0.5950(3) 0.2985(3)
O4 O 0.3058(6) 0.4354(3) 0.2792(2)
N4 N 0.2351(6) 0.7749(3) 0.6135(3)
O5 O 0.2197(6) 0.7957(3) 0.6962(3)
O6 O 0.2462(6) 0.8382(3) 0.5740(3)
C14 C 0.5002(6) 0.7464(3) -0.0011(3)
C15 C 0.6041(6) 0.8440(3) 0.0735(3)
C16 C 0.6735(6) 0.9078(3) 0.0339(3)
C17 C 0.6314(7) 0.8592(3) -0.0733(3)
H18 H 0.74870 0.85370 -0.09260
H19 H 0.56380 0.89860 -0.10510
C18 C 0.5054(6) 0.7529(3) -0.0973(3)
H20 H 0.37780 0.74650 -0.13560
H21 H 0.56110 0.69980 -0.13200
C19 C 0.6021(7) 0.8657(4) 0.1762(3)
H22? H 0.51030 0.90720 0.19100
H23? H 0.56210 0.80200 0.18550
H24 H 0.61490 0.93820 0.20820
H25 H 0.48200 0.82970 0.17930
O7? O 0.784(3) 0.917(4) 0.2388(16)
H26? H 0.81380 0.88790 0.27650
O8 O 0.7555(18) 0.8332(14) 0.2216(5)
H27 H 0.71370 0.78600 0.23750
C20 C 0.7964(8) 1.0139(4) 0.0844(4)
H28 H 0.82770 1.04140 0.03790
H29 H 0.91200 1.01150 0.12610
H30 H 0.72810 1.05630 0.12130
N5 N 0.4205(5) 0.6702(3) 0.0175(2)
N6 N 0.3276(5) 0.5846(3) -0.0619(3)
H31 H 0.32530 0.58550 -0.11820
C21 C 0.2406(6) 0.4998(3) -0.0517(3)
C22 C 0.1402(6) 0.4093(3) -0.1302(3)
C23 C 0.0482(6) 0.3240(3) -0.1173(3)
H32 H -0.01750 0.26600 -0.16980
C24 C 0.0556(6) 0.3262(3) -0.0262(3)
C25 C 0.1552(6) 0.4123(3) 0.0527(3)
H33 H 0.15880 0.41270 0.11410
C26 C 0.2481(6) 0.4966(3) 0.0408(3)
H34 H 0.31730 0.55270 0.09440
N7 N 0.1247(7) 0.4018(4) -0.2287(3)
O9 O 0.1867(7) 0.4787(3) -0.2439(3)
O10 O 0.0447(6) 0.3222(3) -0.2939(3)
N8 N -0.0424(6) 0.2378(3) -0.0111(4)
O11 O -0.1259(5) 0.1609(3) -0.0809(3)
O12 O -0.0373(5) 0.2441(3) 0.0718(3)
#END
