
#######################################################################
#
#                 Cambridge Crystallographic Data Centre
#                                CCDC
#
#######################################################################
#
# If this CIF has been generated from an entry in the Cambridge
# Structural Database, then it will include bibliographic, chemical,
# crystal, experimental, refinement or atomic coordinate data resulting
# from the CCDC's data processing and validation procedures.
#
#######################################################################

data_CSD_CIF_PEPHEX
_audit_creation_date 1994-02-15
_audit_creation_method CSD-ConQuest-V1
_database_code_CSD PEPHEX
_chemical_formula_sum 'C20 H24 N2 O2'
_chemical_formula_moiety
;
C20 H24 N2 O2
;
_journal_coden_Cambridge 1088
_journal_year 1993
_journal_page_first 515
_journal_name_full 'Synlett '
loop_
_publ_author_name
"I.A.O'Neil"
"N.D.Miller"
"J.Peake"
"J.V.Barkley"
"C.M.R.Low"
"S.B.Kalindjian"
_chemical_name_systematic
;
N^2^-((S)-\a-Methylbenzyl)-N^1^-benzyl-L-proline amide N^1^-oxide
;
_chemical_melting_point 399.15
_cell_volume   1833.660
_exptl_crystal_colour 'colorless'
_exptl_crystal_density_diffrn 1.175
_exptl_special_details
;
Melting point range 399.15-401.15K
Absolute configuration

;
_diffrn_ambient_temperature ?
_diffrn_special_details
;
The study was carried out at room temperature,in the range 283-303K

;
#These two values have been output from a single CSD field.
_refine_ls_R_factor_gt 0.039
_refine_ls_wR_factor_gt 0.039
_symmetry_cell_setting orthorhombic
_symmetry_space_group_name_H-M 'P 21 21 21'
_symmetry_Int_Tables_number 19
loop_
_symmetry_equiv_pos_site_id
_symmetry_equiv_pos_as_xyz
1 x,y,z
2 1/2+x,1/2-y,-z
3 -x,1/2+y,1/2-z
4 1/2-x,-y,1/2+z
_cell_length_a 12.210(4)
_cell_length_b 17.167(4)
_cell_length_c 8.748(2)
_cell_angle_alpha 90
_cell_angle_beta 90
_cell_angle_gamma 90
_cell_formula_units_Z 4
loop_
_atom_type_symbol
_atom_type_radius_bond
C 0.68
H 0.23
N 0.68
O 0.68
loop_
_atom_site_label
_atom_site_type_symbol
_atom_site_fract_x
_atom_site_fract_y
_atom_site_fract_z
O1 O 0.4903(2) 0.1899(2) 0.5389(3)
O2 O 0.1586(3) 0.1390(2) 0.5213(4)
N1 N 0.4218(3) 0.2330(2) 0.4449(4)
N2 N 0.3153(3) 0.1301(2) 0.6563(4)
C1 C 0.4756(4) 0.2427(3) 0.2924(5)
C2 C 0.4664(4) 0.1629(3) 0.2192(6)
C3 C 0.3642(4) 0.1264(3) 0.2912(5)
C4 C 0.3199(3) 0.1868(2) 0.4040(5)
C5 C 0.2570(4) 0.1510(3) 0.5361(5)
C6 C 0.2685(4) 0.0891(3) 0.7863(5)
C7 C 0.3594(5) 0.0430(3) 0.8631(6)
C8 C 0.3985(3) 0.3103(3) 0.5239(5)
C9 C 0.3393(4) 0.3695(3) 0.4296(6)
C10 C 0.3968(4) 0.4241(3) 0.3429(8)
C11 C 0.3434(5) 0.4775(3) 0.2540(9)
C12 C 0.2306(6) 0.4799(3) 0.2533(9)
C13 C 0.1725(4) 0.4280(4) 0.3418(8)
C14 C 0.2261(4) 0.3729(3) 0.4286(6)
C15 C 0.2103(4) 0.1425(3) 0.8977(5)
C16 C 0.1220(4) 0.1155(3) 0.9796(6)
C17 C 0.0690(5) 0.1610(4) 1.0863(7)
C18 C 0.1065(6) 0.2347(4) 1.1161(7)
C19 C 0.1950(5) 0.2631(3) 1.0361(7)
C20 C 0.2465(4) 0.2174(3) 0.9267(6)
H1 H 0.44440 0.28140 0.22990
H2 H 0.55320 0.25430 0.30460
H3 H 0.45290 0.16910 0.10850
H4 H 0.52970 0.13280 0.23050
H5 H 0.31370 0.10880 0.21680
H6 H 0.38880 0.07890 0.34730
H7 H 0.26830 0.21940 0.34710
H8 H 0.21820 0.05260 0.74950
H9 H 0.33310 0.01700 0.95280
H10 H 0.39200 0.00700 0.79680
H11 H 0.41740 0.07880 0.89860
H12 H 0.35660 0.29800 0.61780
H13 H 0.46810 0.33020 0.56100
H14 H 0.47650 0.42200 0.34070
H15 H 0.38260 0.51960 0.19640
H16 H 0.18790 0.51970 0.19480
H17 H 0.09320 0.42830 0.34480
H18 H 0.18160 0.33540 0.48860
H19 H 0.09190 0.06410 0.95370
H20 H 0.00800 0.14360 1.15070
H21 H 0.07050 0.26950 1.18800
H22 H 0.22080 0.31510 1.05670
H23 H 0.31240 0.23880 0.87330
H24 H 0.39790 0.14760 0.66320
#END
