
#######################################################################
#
#                 Cambridge Crystallographic Data Centre
#                                CCDC
#
#######################################################################
#
# If this CIF has been generated from an entry in the Cambridge
# Structural Database, then it will include bibliographic, chemical,
# crystal, experimental, refinement or atomic coordinate data resulting
# from the CCDC's data processing and validation procedures.
#
#######################################################################

data_CSD_CIF_PEPJOJ
_audit_creation_date 1994-02-15
_audit_creation_method CSD-ConQuest-V1
_database_code_CSD PEPJOJ
_database_code_depnum_ccdc_archive 'CCDC 1230968'
_chemical_formula_sum 'C16 H14 N4 O1'
_chemical_formula_moiety
;
C16 H14 N4 O1
;
_journal_coden_Cambridge 34
_journal_volume 30
_journal_year 1993
_journal_page_first 497
_journal_name_full 'J.Heterocycl.Chem. '
loop_
_publ_author_name
"G.Kaugars"
"W.Watt"
_chemical_name_systematic
;
2-Anilino-4-methyl-6-phenyl-1,3,5-triazine 1-oxide
;
_chemical_melting_point 410.85
_cell_volume   2644.718
_exptl_crystal_density_diffrn 1.4
_diffrn_ambient_temperature 123
#These two values have been output from a single CSD field.
_refine_ls_R_factor_gt 0.048
_refine_ls_wR_factor_gt 0.048
_symmetry_cell_setting monoclinic
_symmetry_space_group_name_H-M 'C 2/c'
_symmetry_Int_Tables_number 15
loop_
_symmetry_equiv_pos_site_id
_symmetry_equiv_pos_as_xyz
1 x,y,z
2 1/2+x,1/2+y,z
3 -x,y,1/2-z
4 1/2-x,1/2+y,1/2-z
5 -x,-y,-z
6 -1/2-x,-1/2-y,-z
7 x,-y,-1/2+z
8 -1/2+x,-1/2-y,-1/2+z
_cell_length_a 24.608(2)
_cell_length_b 5.634(2)
_cell_length_c 19.080(2)
_cell_angle_alpha 90
_cell_angle_beta 91.18(2)
_cell_angle_gamma 90
_cell_formula_units_Z 8
loop_
_atom_type_symbol
_atom_type_radius_bond
C 0.68
H 0.23
N 0.68
O 0.68
loop_
_atom_site_label
_atom_site_type_symbol
_atom_site_fract_x
_atom_site_fract_y
_atom_site_fract_z
N1 N 0.1462(1) 0.1201(3) 0.5154(1)
O1 O 0.1869(1) 0.1351(2) 0.4718(1)
C1 C 0.1451(1) 0.2839(3) 0.5704(1)
N2 N 0.1068(1) 0.2780(3) 0.6181(1)
C2 C 0.0700(1) 0.1047(3) 0.6113(1)
C3 C 0.0292(1) 0.0845(4) 0.6682(1)
N3 N 0.0668(1) -0.0501(3) 0.5590(1)
C4 C 0.1050(1) -0.0397(3) 0.5102(1)
N4 N 0.1855(1) 0.4424(3) 0.5701(1)
C5 C 0.0999(1) -0.2096(3) 0.4513(1)
C6 C 0.0660(1) -0.4061(3) 0.4612(1)
C7 C 0.0566(1) -0.5691(3) 0.4085(1)
C8 C 0.0805(1) -0.5381(3) 0.3438(1)
C9 C 0.1137(1) -0.3434(3) 0.3330(1)
C10 C 0.1238(1) -0.1803(3) 0.3860(1)
C11 C 0.1952(1) 0.6347(3) 0.6165(1)
C12 C 0.2393(1) 0.7811(3) 0.6022(1)
C13 C 0.2506(1) 0.9775(3) 0.6436(1)
C14 C 0.2189(1) 1.0292(3) 0.7008(1)
C15 C 0.1756(1) 0.8818(3) 0.7153(1)
C16 C 0.1631(1) 0.6862(3) 0.6741(1)
H1 H -0.00700 0.06100 0.64700
H2 H 0.03000 0.23100 0.69700
H3 H 0.03900 -0.05600 0.69800
H4 H 0.20900 0.41800 0.52900
H5 H 0.04900 -0.42100 0.50300
H6 H 0.03300 -0.70700 0.42000
H7 H 0.07700 -0.66400 0.30700
H8 H 0.13000 -0.30700 0.28500
H9 H 0.14500 -0.04200 0.37900
H10 H 0.26400 0.72900 0.56500
H11 H 0.28200 1.06700 0.63200
H12 H 0.22400 1.17000 0.72900
H13 H 0.15100 0.91800 0.75800
H14 H 0.13500 0.58900 0.68400
#END
