
#######################################################################
#
#                 Cambridge Crystallographic Data Centre
#                                CCDC
#
#######################################################################
#
# If this CIF has been generated from an entry in the Cambridge
# Structural Database, then it will include bibliographic, chemical,
# crystal, experimental, refinement or atomic coordinate data resulting
# from the CCDC's data processing and validation procedures.
#
#######################################################################

data_CSD_CIF_PEPJAV
_audit_creation_date 1994-02-15
_audit_creation_method CSD-ConQuest-V1
_database_code_CSD PEPJAV
_chemical_formula_sum 'C21 H28 N2 O3'
_chemical_formula_moiety
;
C21 H28 N2 O3
;
_journal_coden_Cambridge 582
_journal_volume 23
_journal_year 1993
_journal_page_first 359
_journal_name_full 'J.Crystallogr.Spectrosc.Res. '
loop_
_publ_author_name
"D.Lisgarten"
"R.Palmer"
"D.Maes"
"J.Lisgarten"
_chemical_name_systematic
;
20-Oximo-5\a-pregnano-16-eno(3,4-c)-1',2',5'-oxadiazole
;
_chemical_name_common
;
H5976,16,17-epoxy-5alpha-pregnano(3,4-c)-1',2',5'-oxadiazol-20-one
;
_cell_volume   1871.531
_exptl_crystal_density_diffrn 1.27
_exptl_special_details
;
y coordinate of C3B should probably be -0.0232 (not 0.0032)

;
_diffrn_ambient_temperature ?
_diffrn_special_details
;
The study was carried out at room temperature,in the range 283-303K

;
#These two values have been output from a single CSD field.
_refine_ls_R_factor_gt 0.082
_refine_ls_wR_factor_gt 0.082
_symmetry_cell_setting monoclinic
_symmetry_space_group_name_H-M 'P 21'
_symmetry_Int_Tables_number 4
loop_
_symmetry_equiv_pos_site_id
_symmetry_equiv_pos_as_xyz
1 x,y,z
2 -x,1/2+y,-z
_cell_length_a 18.284(6)
_cell_length_b 13.992(4)
_cell_length_c 7.370(3)
_cell_angle_alpha 90
_cell_angle_beta 96.97(3)
_cell_angle_gamma 90
_cell_formula_units_Z 4
loop_
_atom_type_symbol
_atom_type_radius_bond
C 0.68
H 0.23
N 0.68
O 0.68
loop_
_atom_site_label
_atom_site_type_symbol
_atom_site_fract_x
_atom_site_fract_y
_atom_site_fract_z
C1 C 0.1882(2) 0.52660 0.2290(5)
C2 C 0.1678(3) 0.4184(3) 0.2323(6)
C3 C 0.1446(2) 0.3931(3) 0.4158(5)
C4 C 0.1303(2) 0.4629(3) 0.5465(5)
C5 C 0.1389(2) 0.5671(3) 0.5230(4)
C6 C 0.0905(2) 0.6287(3) 0.6279(4)
C7 C 0.1092(2) 0.7341(3) 0.6094(4)
C8 C 0.1067(2) 0.7637(2) 0.4048(4)
C9 C 0.1572(2) 0.6984(2) 0.3062(4)
C10 C 0.1339(1) 0.5916(2) 0.3165(4)
C11 C 0.1639(2) 0.7314(2) 0.1077(4)
C12 C 0.1820(2) 0.8388(2) 0.0944(4)
C13 C 0.1267(2) 0.8981(2) 0.1845(3)
C14 C 0.1311(2) 0.8657(2) 0.3858(3)
C15 C 0.0939(2) 0.9464(3) 0.4805(4)
C16 C 0.1182(2) 1.0340(3) 0.3807(4)
C17 C 0.1404(2) 1.0055(2) 0.2037(4)
C18 C 0.0491(2) 0.8867(2) 0.0787(4)
C19 C 0.0551(2) 0.5732(3) 0.2195(4)
C20 C 0.1394(2) 1.0724(3) 0.0443(5)
C21 C 0.1474(3) 1.1767(3) 0.0764(7)
N1 N 0.1119(2) 0.4184(3) 0.6901(4)
N2 N 0.1352(2) 0.3080(3) 0.4771(5)
O1 O 0.1142(2) 0.3228(2) 0.6545(4)
O2 O 0.1341(2) 1.0404(2) -0.1087(3)
O3 O 0.1942(1) 1.0332(2) 0.3550(3)
C22 C 0.3002(2) 0.1116(3) 0.7565(5)
C23 C 0.3147(3) 0.0024(3) 0.7498(7)
C24 C 0.3431(2) -0.0232(3) 0.5747(6)
C25 C 0.3621(2) 0.0456(3) 0.4485(5)
C26 C 0.3554(2) 0.1506(3) 0.4741(4)
C27 C 0.4071(2) 0.2104(3) 0.3751(4)
C28 C 0.3918(2) 0.3160(3) 0.3966(4)
C29 C 0.3942(2) 0.3447(2) 0.5996(4)
C30 C 0.3406(2) 0.2814(2) 0.6953(4)
C31 C 0.3596(2) 0.1739(2) 0.6817(4)
C32 C 0.3354(2) 0.3145(2) 0.8933(4)
C33 C 0.3201(2) 0.4231(2) 0.9116(4)
C34 C 0.3776(2) 0.4803(2) 0.8230(3)
C35 C 0.3724(2) 0.4483(2) 0.6223(4)
C36 C 0.4111(2) 0.5273(3) 0.5249(4)
C37 C 0.3889(2) 0.6155(3) 0.6234(4)
C38 C 0.3663(2) 0.5880(2) 0.8031(4)
C39 C 0.4547(2) 0.4663(3) 0.9274(4)
C40 C 0.4359(2) 0.1495(3) 0.7801(4)
C41 C 0.3669(2) 0.6548(3) 0.9611(5)
C42 C 0.3650(3) 0.7599(3) 0.9313(7)
N3 N 0.3860(2) 0.0015(3) 0.3121(4)
N4 N 0.3544(2) -0.1093(3) 0.5150(5)
O4 O 0.3816(2) -0.0946(3) 0.3490(4)
O5 O 0.3692(2) 0.6226(2) 1.1147(4)
O6 O 0.3120(1) 0.6178(2) 0.6519(3)
H1 H 0.1891(2) 0.54840 0.0887(5)
H2 H 0.2422(2) 0.53640 0.3037(5)
H3 H 0.2157(3) 0.3764(3) 0.2123(6)
H4 H 0.1239(3) 0.4030(3) 0.1246(6)
H5 H 0.1935(2) 0.5847(3) 0.5871(4)
H6 H 0.0336(2) 0.6173(3) 0.5735(4)
H7 H 0.0985(2) 0.6087(3) 0.7705(4)
H8 H 0.0699(2) 0.7763(3) 0.6728(4)
H9 H 0.1639(2) 0.7472(3) 0.6775(4)
H10 H 0.0504(2) 0.7561(2) 0.3419(4)
H11 H 0.2118(2) 0.7022(2) 0.3803(4)
H12 H 0.1120(2) 0.7184(2) 0.0247(4)
H13 H 0.2068(2) 0.6907(2) 0.0549(4)
H14 H 0.2366(2) 0.8516(2) 0.1634(4)
H15 H 0.1801(2) 0.8586(2) -0.0478(4)
H16 H 0.1860(2) 0.8572(2) 0.4565(3)
H17 H 0.0347(2) 0.9384(3) 0.4599(4)
H18 H 0.1126(2) 0.9487(3) 0.6252(4)
H19 H 0.0829(2) 1.0868(3) 0.4319(4)
H20 H 0.0398(2) 0.8105(2) 0.0753(4)
H21 H 0.0483(2) 0.9132(2) -0.0591(4)
H22 H 0.0063(2) 0.9214(2) 0.1434(4)
H23 H 0.0157(2) 0.6220(3) 0.2664(4)
H24 H 0.0368(2) 0.5006(3) 0.2348(4)
H25 H 0.0600(2) 0.5871(3) 0.0773(4)
H26 H 0.1422(3) 1.1963(3) 0.2160(7)
H27 H 0.1038(3) 1.2101(3) -0.0138(7)
H28 H 0.2001(3) 1.2005(3) 0.0415(7)
H29 H 0.2421(2) 0.1278(3) 0.7448(5)
H30 H 0.3280(2) 0.1457(3) 0.8772(5)
H31 H 0.2644(3) -0.0366(3) 0.7609(7)
H32 H 0.3555(3) -0.0163(3) 0.8626(7)
H33? H 0.3581(2) 1.2272(3) 0.4583(4)
H34? H 0.3654(2) 0.1567(3) 0.3393(4)
H35 H 0.4598(2) 0.1841(3) 0.3452(4)
H36 H 0.4317(2) 0.3576(3) 0.3338(4)
H37 H 0.3373(2) 0.3302(3) 0.3279(4)
H38 H 0.4505(2) 0.3355(2) 0.6613(4)
H39 H 0.2867(2) 0.2913(2) 0.6197(4)
H40? H 0.3864(2) 0.3970(2) 0.9761(4)
H41 H 0.2906(2) 0.2761(2) 0.9433(4)
H42 H 0.3231(2) 0.4417(2) 1.0546(4)
H43 H 0.2657(2) 0.4394(2) 0.8443(4)
H44 H 0.3170(2) 0.4412(2) 0.5537(4)
H45 H 0.4701(2) 0.5175(3) 0.5411(4)
H46 H 0.3907(2) 0.5299(3) 0.3812(4)
H47 H 0.4257(2) 0.6669(3) 0.5733(4)
H48 H 0.4687(2) 0.3914(3) 0.9408(4)
H49 H 0.4582(2) 0.4984(3) 1.0614(4)
H50 H 0.4928(2) 0.5016(3) 0.8482(4)
H51 H 0.4487(2) 0.0766(3) 0.7475(4)
H52 H 0.4423(2) 0.1585(3) 0.9267(4)
H53 H 0.4729(2) 0.1974(3) 0.7210(4)
H54 H 0.3633(3) 0.7726(3) 0.7863(7)
H55 H 0.4107(3) 0.7986(3) 1.0035(7)
H56 H 0.3142(3) 0.7840(3) 0.9768(7)
#END
