
#######################################################################
#
#                 Cambridge Crystallographic Data Centre
#                                CCDC
#
#######################################################################
#
# If this CIF has been generated from an entry in the Cambridge
# Structural Database, then it will include bibliographic, chemical,
# crystal, experimental, refinement or atomic coordinate data resulting
# from the CCDC's data processing and validation procedures.
#
#######################################################################

data_CSD_CIF_PEPNUV
_audit_creation_date 2013-05-19
_audit_creation_method CSD-ConQuest-V1
_database_code_CSD PEPNUV
_database_code_depnum_ccdc_archive 'CCDC 909114'
_chemical_formula_sum 'C19 H15 N1 O6'
_chemical_formula_moiety
;
C19 H15 N1 O6
;
_journal_coden_Cambridge 603
_journal_volume 32
_journal_year 2013
_journal_page_first 73
_journal_name_full 'Jiegou Huaxue(Chin.)(Chin.J.Struct.Chem.) '
loop_
_publ_author_name
"Zhi-Lan Lin"
"Yun Yu"
"Xue-Li Zhang"
"Yuan Gao"
_chemical_name_systematic
;
3-Methyl-10-(4-nitrophenyl)-6,7,8,10-tetrahydro-1H,9H-pyrano[4,3-b]chromene-1,
9-dione
;
_cell_volume   1614.187
_exptl_crystal_colour 'brown'
_exptl_crystal_density_diffrn 1.454
_exptl_crystal_description 'block'
_diffrn_ambient_temperature 173
#These two values have been output from a single CSD field.
_refine_ls_R_factor_gt 0.0503
_refine_ls_wR_factor_gt 0.0503
_symmetry_cell_setting monoclinic
_symmetry_space_group_name_H-M 'P 21/c'
_symmetry_Int_Tables_number 14
loop_
_symmetry_equiv_pos_site_id
_symmetry_equiv_pos_as_xyz
1 x,y,z
2 -x,1/2+y,1/2-z
3 -x,-y,-z
4 x,-1/2-y,-1/2+z
_cell_length_a 11.670(3)
_cell_length_b 12.076(3)
_cell_length_c 11.613(3)
_cell_angle_alpha 90
_cell_angle_beta 99.490(4)
_cell_angle_gamma 90
_cell_formula_units_Z 4
loop_
_atom_type_symbol
_atom_type_radius_bond
C 0.68
H 0.23
N 0.68
O 0.68
loop_
_atom_site_label
_atom_site_type_symbol
_atom_site_fract_x
_atom_site_fract_y
_atom_site_fract_z
O1 O -0.01778(14) 0.23257(13) 0.06599(15)
O2 O -0.05227(14) 0.13676(14) 0.21953(15)
O3 O 0.18527(13) -0.10102(12) 0.17526(13)
O4 O 0.29044(14) 0.05207(14) -0.16565(14)
O5 O 0.54440(16) 0.45771(15) 0.21205(18)
O6 O 0.42898(16) 0.55737(13) 0.08975(17)
N1 N 0.45747(18) 0.46913(16) 0.13780(19)
C1 C 0.09390(17) 0.07066(17) 0.11163(19)
C2 C 0.00753(19) 0.15160(19) 0.1272(2)
C3 C -0.0355(2) 0.04603(19) 0.2917(2)
C4 C -0.1099(2) 0.0485(2) 0.3818(2)
H1 H -0.10040 -0.02050 0.42670
H2 H -0.19130 0.05640 0.34470
H3 H -0.08800 0.11130 0.43420
C5 C 0.0429(2) -0.03246(19) 0.2765(2)
H4 H 0.05440 -0.09560 0.32590
C6 C 0.10759(18) -0.01773(17) 0.18438(19)
C7 C 0.24465(18) -0.09802(18) 0.08234(19)
C8 C 0.3152(2) -0.19999(19) 0.0776(2)
H5 H 0.26520 -0.26030 0.03980
H6 H 0.34780 -0.22380 0.15790
C9 C 0.4131(2) -0.1786(2) 0.0096(2)
H7 H 0.47170 -0.12960 0.05550
H8 H 0.45150 -0.24940 -0.00380
C10 C 0.3670(2) -0.1250(2) -0.1058(2)
H9 H 0.43310 -0.10650 -0.14600
H10 H 0.31690 -0.17860 -0.15520
C11 C 0.29867(19) -0.02183(19) -0.0935(2)
C12 C 0.23744(18) -0.01381(17) 0.00625(19)
C13 C 0.16712(18) 0.08951(17) 0.01843(19)
H11 H 0.11440 0.10320 -0.05730
C14 C 0.24517(18) 0.19044(17) 0.04700(19)
C15 C 0.2391(2) 0.28049(18) -0.0279(2)
H12 H 0.18660 0.27910 -0.09970
C16 C 0.3090(2) 0.37271(18) 0.0010(2)
H13 H 0.30490 0.43470 -0.04990
C17 C 0.38419(19) 0.37182(17) 0.1051(2)
C18 C 0.39263(19) 0.28338(18) 0.18068(19)
H14 H 0.44590 0.28480 0.25200
C19 C 0.32260(18) 0.19305(17) 0.15109(19)
H15 H 0.32730 0.13150 0.20260
#END
