
#######################################################################
#
#                 Cambridge Crystallographic Data Centre
#                                CCDC
#
#######################################################################
#
# If this CIF has been generated from an entry in the Cambridge
# Structural Database, then it will include bibliographic, chemical,
# crystal, experimental, refinement or atomic coordinate data resulting
# from the CCDC's data processing and validation procedures.
#
#######################################################################

data_CSD_CIF_PEPNAC
_audit_creation_date 2017-10-28
_audit_creation_method CSD-ConQuest-V1
_database_code_CSD PEPNAC
_database_code_depnum_ccdc_archive 'CCDC 1567388'
_chemical_formula_sum 'C22 H24 N2 O6'
_chemical_formula_moiety
;
C22 H24 N2 O6
;
_journal_coden_Cambridge 376
_journal_volume 145
_journal_year 2018
_journal_page_first 68
_journal_name_full 'Phytochemistry '
loop_
_publ_author_name
"Gui-Jie Zhang"
"Feng Hu"
"Huan Jiang"
"Lu-Mei Dai"
"Hai-Bing Liao"
"Ning Li"
"Heng-Shan Wang"
"Ying-Ming Pan"
"Dong Liang"
_chemical_name_systematic
;
4-hydroxy-16-(methoxycarbonyl)-19-methyl-16,17-didehydro-18-oxayohimban-4-ium-
5-carboxylate
;
_chemical_name_common
;
mappianine C
;
_cell_volume   3818.226
_exptl_crystal_colour 'colorless'
_exptl_crystal_density_diffrn 1.435
_exptl_special_details
;
Absolute configuration

;
_exptl_crystal_description 'block'
_diffrn_ambient_temperature 100
#These two values have been output from a single CSD field.
_refine_ls_R_factor_gt 0.029
_refine_ls_wR_factor_gt 0.029
_chemical_compound_source
;
Isolated from the stems of Mappianthus iodoides Hand.-Mazz.
;
_symmetry_cell_setting orthorhombic
_symmetry_space_group_name_H-M 'P 21 21 21'
_symmetry_Int_Tables_number 19
loop_
_symmetry_equiv_pos_site_id
_symmetry_equiv_pos_as_xyz
1 x,y,z
2 1/2-x,-y,1/2+z
3 -x,1/2+y,1/2-z
4 1/2+x,1/2-y,-z
_cell_length_a 9.0466(1)
_cell_length_b 17.4039(1)
_cell_length_c 24.2510(2)
_cell_angle_alpha 90
_cell_angle_beta 90
_cell_angle_gamma 90
_cell_formula_units_Z 8
loop_
_atom_type_symbol
_atom_type_radius_bond
C 0.68
H 0.23
N 0.68
O 0.68
loop_
_atom_site_label
_atom_site_type_symbol
_atom_site_fract_x
_atom_site_fract_y
_atom_site_fract_z
O1 O 0.84260(14) 0.80082(7) 0.72415(5)
H1 H 0.83210 0.75436 0.72820
O2 O 0.70024(16) 0.86069(8) 0.55521(6)
O3 O 0.87702(16) 1.09957(8) 0.62271(6)
O4 O 0.66581(16) 1.08884(8) 0.57429(6)
O5 O 0.92010(18) 0.66507(8) 0.72986(6)
O6 O 1.15909(19) 0.63452(8) 0.72887(7)
N1 N 0.99148(17) 0.81687(9) 0.70979(6)
N2 N 1.01792(18) 0.99026(9) 0.80067(6)
H2 H 1.00014 1.03178 0.78263
C1 C 1.0394(2) 0.98459(11) 0.85667(7)
C2 C 1.0299(2) 0.91778(10) 0.77872(7)
C3 C 1.0589(2) 0.86513(10) 0.81879(7)
C4 C 1.0649(2) 0.90673(10) 0.87002(7)
C5 C 1.0724(2) 0.78121(10) 0.80666(8)
H3 H 0.98385 0.75503 0.81919
H4 H 1.15574 0.76035 0.82686
C6 C 0.7986(2) 0.97583(11) 0.59348(7)
C7 C 0.7875(2) 1.06012(11) 0.59846(7)
C8 C 0.7062(2) 0.93770(11) 0.56012(8)
H5 H 0.64137 0.96655 0.53875
C9 C 0.9203(2) 0.93596(10) 0.62509(7)
H6 H 1.01472 0.95804 0.61323
C10 C 0.9064(2) 0.94839(10) 0.68734(7)
H7 H 0.91888 1.00252 0.69564
H8 H 0.80834 0.93319 0.69933
C11 C 0.7644(2) 0.81979(10) 0.60184(7)
H9 H 0.70569 0.82989 0.63502
C12 C 1.0386(2) 1.04264(11) 0.89659(8)
H10 H 1.02211 1.09374 0.88721
C13 C 1.0578(2) 0.68058(11) 0.73276(8)
C14 C 1.0939(2) 0.76603(10) 0.74484(7)
H11 H 1.19697 0.77642 0.73485
C15 C 1.0163(2) 0.80113(10) 0.64921(7)
H12 H 0.99614 0.74728 0.64214
H13 H 1.11964 0.81023 0.64077
C16 C 0.7554(2) 0.73528(11) 0.58752(8)
H14 H 0.66346 0.72506 0.56914
H15 H 0.76089 0.70529 0.62068
H16 H 0.83602 0.72188 0.56366
C17 C 0.9217(2) 0.84964(10) 0.61029(7)
H17 H 0.96959 0.84620 0.57413
C18 C 1.0214(2) 0.90206(10) 0.71852(7)
H18 H 1.11827 0.91371 0.70248
C19 C 1.0894(2) 0.88610(11) 0.92513(8)
H19 H 1.10575 0.83511 0.93486
C20 C 1.0632(2) 1.02072(12) 0.95042(8)
H20 H 1.06307 1.05793 0.97794
C21 C 0.6443(3) 1.17109(12) 0.58004(9)
H21 H 0.56906 1.18784 0.55486
H22 H 0.73520 1.19725 0.57194
H23 H 0.61453 1.18260 0.61712
C22 C 1.0885(3) 0.94346(12) 0.96484(8)
H24 H 1.10498 0.93069 1.00157
O7 O 0.62331(14) 0.49029(7) 0.68716(5)
H25 H 0.65290 0.53459 0.68391
O8 O 0.48227(17) 0.43555(8) 0.52049(5)
O9 O 0.25785(16) 0.23128(7) 0.61677(6)
O10 O 0.59900(16) 0.63299(7) 0.69663(6)
O11 O 0.30000(19) 0.21845(8) 0.52594(6)
O12 O 0.48925(19) 0.67851(8) 0.77286(6)
N3 N 0.52109(17) 0.31051(8) 0.78968(6)
H26 H 0.49499 0.27052 0.77127
N4 N 0.47483(17) 0.49086(8) 0.70629(6)
C23 C 0.5822(2) 0.31091(10) 0.84167(7)
C24 C 0.5599(2) 0.43464(10) 0.81204(7)
C25 C 0.5093(2) 0.38543(10) 0.77251(7)
C26 C 0.6090(2) 0.38832(10) 0.85723(7)
C27 C 0.6710(2) 0.40368(10) 0.90914(7)
H27 H 0.69034 0.45390 0.92006
C28 C 0.3734(2) 0.46666(10) 0.60952(7)
H28 H 0.28694 0.48163 0.58766
C29 C 0.3660(2) 0.33513(10) 0.57175(7)
C30 C 0.4327(2) 0.40828(9) 0.72044(7)
H29 H 0.32640 0.40803 0.72817
C31 C 0.6754(2) 0.26625(11) 0.92777(8)
H30 H 0.69799 0.22645 0.95194
C32 C 0.6154(2) 0.24936(10) 0.87671(8)
H31 H 0.59777 0.19886 0.86604
C33 C 0.7029(2) 0.34265(11) 0.94372(7)
H32 H 0.74335 0.35236 0.97828
C34 C 0.3513(2) 0.38149(10) 0.62402(7)
H33 H 0.25003 0.37524 0.63760
C35 C 0.4239(2) 0.36514(11) 0.52579(8)
H34 H 0.42365 0.33419 0.49452
C36 C 0.4572(2) 0.35673(10) 0.67039(7)
H35 H 0.43874 0.30358 0.68024
H36 H 0.55874 0.36106 0.65792
C37 C 0.5648(2) 0.51919(10) 0.80380(7)
H37 H 0.66588 0.53468 0.79651
H38 H 0.53298 0.54447 0.83742
C38 C 0.5075(2) 0.47728(10) 0.57174(7)
H39 H 0.59583 0.45687 0.58998
C39 C 0.3059(2) 0.25707(11) 0.56754(8)
C40 C 0.5210(2) 0.62682(10) 0.73982(8)
C41 C 0.3711(2) 0.5174(1) 0.66093(7)
H40 H 0.39752 0.56939 0.65043
H41 H 0.27112 0.51870 0.67539
C42 C 0.4660(2) 0.54566(10) 0.75587(7)
H42 H 0.36331 0.54892 0.76856
C43 C 0.5357(3) 0.55935(12) 0.55414(8)
H43 H 0.60608 0.55994 0.52451
H44 H 0.57418 0.58800 0.58477
H45 H 0.44481 0.58219 0.54196
C44 C 0.2044(3) 0.15307(11) 0.61685(9)
H46 H 0.12019 0.14906 0.59294
H47 H 0.17642 0.13880 0.65364
H48 H 0.28107 0.11938 0.60403
#END
