
#######################################################################
#
#                 Cambridge Crystallographic Data Centre
#                                CCDC
#
#######################################################################
#
# If this CIF has been generated from an entry in the Cambridge
# Structural Database, then it will include bibliographic, chemical,
# crystal, experimental, refinement or atomic coordinate data resulting
# from the CCDC's data processing and validation procedures.
#
#######################################################################

data_CSD_CIF_PEPPOR
_audit_creation_date 2013-05-19
_audit_creation_method CSD-ConQuest-V1
_database_code_CSD PEPPOR
_database_code_depnum_ccdc_archive 'CCDC 909086'
_chemical_formula_sum 'C25 H25 N3 O3'
_chemical_formula_moiety
;
C25 H25 N3 O3
;
_journal_coden_Cambridge 1336
_journal_volume 15
_journal_year 2013
_journal_page_first 468
_journal_name_full 'Org.Lett. '
loop_
_publ_author_name
"Bor-Cherng Hong"
"Wei-Kai Liao"
"N.S.Dange"
"Ju-Hsiou Liao"
_chemical_name_systematic
;
2-Nitro-1-phenyl-1,3,4,4a,5,8,9,14,14b,14c-decahydroindolo[2',3':3,4]pyrido[2,
1-a]isoquinolin-6(2H)-one
;
_cell_volume   2088.757
_exptl_crystal_colour 'colorless'
_exptl_crystal_density_diffrn 1.321
_exptl_crystal_description 'rod'
_diffrn_ambient_temperature 296
#These two values have been output from a single CSD field.
_refine_ls_R_factor_gt 0.0429
_refine_ls_wR_factor_gt 0.0429
_symmetry_cell_setting monoclinic
_symmetry_space_group_name_H-M 'C 2'
_symmetry_Int_Tables_number 5
loop_
_symmetry_equiv_pos_site_id
_symmetry_equiv_pos_as_xyz
1 x,y,z
2 -x,y,-z
3 1/2+x,1/2+y,z
4 1/2-x,1/2+y,-z
_cell_length_a 21.033(3)
_cell_length_b 9.9868(13)
_cell_length_c 10.2026(13)
_cell_angle_alpha 90
_cell_angle_beta 102.928(2)
_cell_angle_gamma 90
_cell_formula_units_Z 4
loop_
_atom_type_symbol
_atom_type_radius_bond
C 0.68
H 0.23
N 0.68
O 0.68
loop_
_atom_site_label
_atom_site_type_symbol
_atom_site_fract_x
_atom_site_fract_y
_atom_site_fract_z
O1 O 1.01935(9) 0.98728(16) 0.33062(18)
O2 O 0.73525(8) 0.5254(2) -0.06277(18)
O3 O 0.69957(9) 0.4200(2) 0.0894(2)
N1 N 0.73693(8) 0.4974(2) 0.0542(2)
N2 N 1.01434(7) 0.44256(14) 0.32808(15)
H1 H 0.97780 0.40050 0.31440
N3 N 0.99829(7) 0.79527(14) 0.21242(15)
C1 C 0.78708(8) 0.56669(19) 0.16216(18)
H2 H 0.79290 0.51390 0.24500
C2 C 0.85271(8) 0.57324(16) 0.12079(16)
H3 H 0.84660 0.62680 0.03850
C3 C 0.90166(7) 0.64825(16) 0.23271(15)
H4 H 0.90540 0.59840 0.31680
C4 C 0.97082(8) 0.65800(16) 0.20251(16)
H5 H 0.96650 0.62930 0.10910
C5 C 1.02299(8) 0.57151(16) 0.28710(16)
C6 C 1.07367(8) 0.39218(19) 0.39449(16)
C7 C 1.08937(10) 0.2644(2) 0.44718(19)
H6 H 1.05770 0.19870 0.44350
C8 C 1.15416(11) 0.2403(2) 0.5051(2)
H7 H 1.16650 0.15590 0.54040
C9 C 1.20145(10) 0.3386(2) 0.5119(2)
H8 H 1.24450 0.31910 0.55340
C10 C 1.18593(9) 0.4651(2) 0.45840(19)
H9 H 1.21810 0.52990 0.46290
C11 C 1.12070(8) 0.49315(19) 0.39733(16)
C12 C 1.08749(8) 0.60659(17) 0.32713(17)
C13 C 1.11410(9) 0.7358(2) 0.28795(19)
H10 H 1.15310 0.71900 0.25460
H11 H 1.12560 0.79420 0.36560
C14 C 1.06233(9) 0.8026(2) 0.17870(19)
H12 H 1.07390 0.89560 0.16960
H13 H 1.06050 0.75840 0.09330
C15 C 0.98525(10) 0.88850(18) 0.30086(18)
C16 C 0.92540(9) 0.86356(19) 0.35290(19)
H14 H 0.90730 0.94850 0.37290
H15 H 0.93690 0.81260 0.43580
C17 C 0.87450(9) 0.78732(17) 0.25171(17)
H16 H 0.86750 0.83470 0.16550
C18 C 0.80946(10) 0.7775(2) 0.2921(2)
H17 H 0.81540 0.73150 0.37770
H18 H 0.79340 0.86690 0.30330
C19 C 0.75954(9) 0.7028(2) 0.1872(2)
H19 H 0.74940 0.75380 0.10420
H20 H 0.71960 0.69120 0.21860
C20 C 0.87483(7) 0.43418(17) 0.08941(16)
C21 C 0.87478(9) 0.32829(19) 0.17756(19)
H21 H 0.86050 0.34240 0.25640
C22 C 0.8957(1) 0.2018(2) 0.1498(2)
H22 H 0.89540 0.13200 0.21000
C23 C 0.91695(11) 0.1793(2) 0.0333(3)
H23 H 0.93190 0.09510 0.01550
C24 C 0.91586(11) 0.2823(3) -0.0561(2)
H24 H 0.92930 0.26700 -0.13560
C25 C 0.89486(9) 0.4092(2) -0.02916(19)
H25 H 0.89420 0.47790 -0.09100
#END
