
#######################################################################
#
#                 Cambridge Crystallographic Data Centre
#                                CCDC
#
#######################################################################
#
# If this CIF has been generated from an entry in the Cambridge
# Structural Database, then it will include bibliographic, chemical,
# crystal, experimental, refinement or atomic coordinate data resulting
# from the CCDC's data processing and validation procedures.
#
#######################################################################

data_CSD_CIF_PEPQOQ
_audit_creation_date 1998-11-04
_audit_creation_method CSD-ConQuest-V1
_database_code_CSD PEPQOQ
_database_code_depnum_ccdc_archive 'CCDC 130440'
_chemical_formula_sum 'C22 H24 N2 O6'
_chemical_formula_moiety
;
C22 H24 N2 O6
;
_journal_coeditor_code "IUCr SK1180"
_journal_coden_Cambridge 591
_journal_volume 54
_journal_year 1998
_journal_page_first 1353
_journal_name_full 'Acta Crystallogr.,Sect.C:Cryst.Struct.Commun. '
loop_
_publ_author_name
"G.Baudoux"
"B.Norberg"
"J.Bousbaa"
"A.Krief"
"G.Evrard"
_chemical_name_systematic
;
(2S)-1-((1S,2R)-2-Methyl-1-phenylcyclopentyl)-2-propyl 3,5-dinitrobenzoate
;
_chemical_melting_point 363
_cell_volume   1042.072
_exptl_crystal_colour 'colorless'
_exptl_crystal_density_diffrn 1.314
_exptl_special_details
;
Melting point range 363-364K

;
_diffrn_ambient_temperature ?
_diffrn_special_details
;
The study was carried out at room temperature,in the range 283-303K

;
#These two values have been output from a single CSD field.
_refine_ls_R_factor_gt 0.044
_refine_ls_wR_factor_gt 0.044
_symmetry_cell_setting monoclinic
_symmetry_space_group_name_H-M 'P 21'
_symmetry_Int_Tables_number 4
loop_
_symmetry_equiv_pos_site_id
_symmetry_equiv_pos_as_xyz
1 x,y,z
2 -x,1/2+y,-z
_cell_length_a 6.189(1)
_cell_length_b 10.614(1)
_cell_length_c 16.160(1)
_cell_angle_alpha 90
_cell_angle_beta 100.993(4)
_cell_angle_gamma 90
_cell_formula_units_Z 2
loop_
_atom_type_symbol
_atom_type_radius_bond
C 0.68
H 0.23
N 0.68
O 0.68
loop_
_atom_site_label
_atom_site_type_symbol
_atom_site_fract_x
_atom_site_fract_y
_atom_site_fract_z
N1 N -0.1495(7) 0.7095(4) -0.0799(2)
N2 N 0.5496(7) 0.9281(3) 0.00249(18)
O1 O 0.5080(2) 0.62845(15) 0.23784(9)
O2 O 0.1550(3) 0.5722(3) 0.22425(16)
O3 O -0.2973(6) 0.6507(4) -0.0581(3)
O4 O -0.1458(7) 0.7419(5) -0.1530(2)
O5 O 0.5062(8) 0.9796(4) -0.06481(17)
O6 O 0.7228(5) 0.9402(3) 0.05168(17)
C1 C 0.6956(3) 0.72485(19) 0.41454(12)
C2 C 0.8678(3) 0.7615(2) 0.49461(13)
H1 H 0.99050 0.80650 0.47760
C3 C 0.7389(4) 0.8524(2) 0.54016(15)
H2 H 0.73600 0.93610 0.51590
H3 H 0.80410 0.85730 0.59960
C4 C 0.5059(4) 0.7969(2) 0.52767(16)
H4 H 0.39620 0.86300 0.51530
H5 H 0.48430 0.75250 0.57790
C5 C 0.4882(3) 0.7054(2) 0.45269(14)
H6 H 0.35700 0.72330 0.41100
H7 H 0.48050 0.61910 0.47160
C6 C 0.7576(4) 0.6034(2) 0.37169(13)
H8 H 0.87780 0.62320 0.34310
H9 H 0.81240 0.54250 0.41540
C7 C 0.5765(4) 0.5415(2) 0.30881(13)
H10 H 0.45100 0.52290 0.33570
C8 C 0.6544(5) 0.4216(2) 0.27286(16)
H11 H 0.53530 0.38510 0.23330
H12 H 0.70350 0.36290 0.31770
H13 H 0.77380 0.44070 0.24480
C9 C 0.6772(3) 0.83691(19) 0.35343(13)
C10 C 0.8504(4) 0.8638(2) 0.31212(14)
H14 H 0.97370 0.81190 0.32120
C11 C 0.8438(4) 0.9652(3) 0.25827(16)
H15 H 0.96140 0.98000 0.23130
C12 C 0.6654(5) 1.0444(3) 0.24413(17)
H16 H 0.66120 1.11260 0.20770
C13 C 0.4930(5) 1.0218(3) 0.28449(18)
H17 H 0.37220 1.07560 0.27590
C14 C 0.4978(4) 0.9184(2) 0.33849(16)
H18 H 0.37910 0.90390 0.36490
C15 C 0.9573(4) 0.6520(3) 0.55232(15)
H19 H 1.03810 0.59580 0.52290
H20 H 0.83710 0.60730 0.56860
H21 H 1.05290 0.68380 0.60170
C16 C 0.2989(4) 0.6291(2) 0.20080(15)
C17 C 0.2620(4) 0.7042(2) 0.12081(14)
C18 C 0.4204(4) 0.7859(2) 0.10259(14)
H22 H 0.54870 0.80150 0.14170
C19 C 0.3824(5) 0.8440(3) 0.02443(15)
C20 C 0.1968(6) 0.8216(3) -0.03600(17)
H23 H 0.17570 0.86030 -0.08860
C21 C 0.0454(5) 0.7400(3) -0.01501(18)
C22 C 0.0707(4) 0.6830(3) 0.06279(19)
H24 H -0.03900 0.63110 0.07600
#END
