
#######################################################################
#
#                 Cambridge Crystallographic Data Centre
#                                CCDC
#
#######################################################################
#
# If this CIF has been generated from an entry in the Cambridge
# Structural Database, then it will include bibliographic, chemical,
# crystal, experimental, refinement or atomic coordinate data resulting
# from the CCDC's data processing and validation procedures.
#
#######################################################################

data_CSD_CIF_PEPTIQ
_audit_creation_date 2017-10-29
_audit_creation_method CSD-ConQuest-V1
_database_code_CSD PEPTIQ
_database_code_depnum_ccdc_archive 'CCDC 1449417'
_chemical_formula_sum 'C20 H14 N2 O2'
_chemical_formula_moiety
;
C20 H14 N2 O2
;
_journal_coden_Cambridge 893
_journal_volume 242
_journal_year 2017
_journal_page_first 299
_journal_name_full 'Sens.Actuators,B '
loop_
_publ_author_name
"P.R.Sahoo"
"K.Prakash"
"S.Kumar"
_chemical_name_systematic
;
1-(naphtho[1,2-d][1,2,3]oxadiazol-2(1H)-yl)-2-naphthol
;
_cell_volume    757.270
_exptl_crystal_colour 'dull light yellow'
_exptl_crystal_density_diffrn 1.379
_exptl_crystal_description 'block'
_diffrn_ambient_temperature 297
_diffrn_special_details
;
twin

;
_refine_special_details
;
C46 and C46A disordered over two sites with occupancies 0.67:0.33.

;
#These two values have been output from a single CSD field.
_refine_ls_R_factor_gt 0.0893
_refine_ls_wR_factor_gt 0.0893
_symmetry_cell_setting triclinic
_symmetry_space_group_name_H-M 'P 1'
_symmetry_Int_Tables_number 1
loop_
_symmetry_equiv_pos_site_id
_symmetry_equiv_pos_as_xyz
1 x,y,z
_cell_length_a 4.975(3)
_cell_length_b 11.523(11)
_cell_length_c 13.531(13)
_cell_angle_alpha 101.63(9)
_cell_angle_beta 94.55(7)
_cell_angle_gamma 90
_cell_formula_units_Z 2
loop_
_atom_type_symbol
_atom_type_radius_bond
C 0.68
H 0.23
N 0.68
O 0.68
loop_
_atom_site_label
_atom_site_type_symbol
_atom_site_fract_x
_atom_site_fract_y
_atom_site_fract_z
O1 O 0.7852(16) 0.1863(8) 0.6542(7)
N1 N 0.7074(19) 0.3798(9) 0.7708(9)
H1 H 0.79790 0.44540 0.78650
O2 O 0.990(2) 0.4589(10) 0.9343(10)
H2 H 0.84720 0.45570 0.89940
C1 C 0.453(3) 0.1922(16) 0.5186(13)
H3 H 0.48870 0.11780 0.48070
C2 C 0.341(2) 0.4397(13) 0.6607(11)
C3 C 0.288(3) 0.5536(11) 0.7246(12)
H4 H 0.38760 0.57490 0.78680
C4 C 1.145(3) 0.0362(13) 0.7081(11)
H5 H 0.99910 0.03970 0.66130
C5 C 1.054(3) 0.2541(15) 0.8165(13)
C6 C 0.102(3) 0.6302(13) 0.6991(13)
H6 H 0.06530 0.70390 0.73800
C7 C 0.210(3) 0.3856(12) 0.5617(10)
C8 C 0.541(3) 0.3575(13) 0.6815(11)
N2 N 0.846(3) 0.2735(15) 0.7467(12)
C9 C 0.585(3) 0.2487(14) 0.6150(12)
C10 C 1.409(3) 0.1389(14) 0.8666(12)
C11 C -0.023(3) 0.5809(15) 0.6063(15)
H7 H -0.15380 0.62820 0.58200
C12 C 1.124(3) 0.3553(14) 0.9078(12)
C13 C 1.554(3) 0.0238(15) 0.8447(13)
H8 H 1.69990 0.01540 0.89000
C14 C 0.267(3) 0.2702(15) 0.4946(14)
H9 H 0.16760 0.25040 0.43210
C15 C 1.301(3) -0.0689(16) 0.6960(15)
H10 H 1.26260 -0.13100 0.64100
C16 C 0.015(3) 0.4607(17) 0.5353(15)
H11 H -0.09400 0.43890 0.47520
C17 C 1.323(3) 0.3391(18) 0.9702(15)
H12 H 1.37580 0.39610 1.02770
C18 C 1.495(3) -0.0755(19) 0.7624(17)
H13 H 1.59680 -0.14380 0.75760
C19 C 1.205(3) 0.1429(12) 0.7940(11)
C20 C 1.455(4) 0.2321(17) 0.9471(16)
H14 H 1.59710 0.22190 0.99350
O3 O 1.491(2) 0.6428(9) 1.0027(9)
H15 H 1.32790 0.64860 1.00790
C21 C 0.944(3) 0.9080(15) 1.4197(12)
H16 H 0.98480 0.98230 1.46010
N3 N 1.204(2) 0.7266(10) 1.1706(8)
H17 H 1.20660 0.66600 1.12180
C22 C 1.036(3) 0.7506(13) 1.2599(13)
C23 C 1.557(3) 0.8509(13) 1.1220(11)
C24 C 1.796(3) 1.1745(14) 1.2459(13)
H18 H 1.77760 1.23760 1.29980
O4 O 1.2857(18) 0.9167(8) 1.2842(7)
C25 C 2.051(3) 1.0780(15) 1.0910(14)
H19 H 2.18990 1.08760 1.05130
C26 C 1.704(2) 0.9658(11) 1.1462(12)
C27 C 1.983(3) 1.175(2) 1.1698(18)
H20 H 2.07050 1.24650 1.17200
C28 C 1.617(2) 0.7565(13) 1.0345(11)
C29 C 1.910(3) 0.9704(14) 1.0737(12)
C30 C 0.765(3) 0.8374(17) 1.4425(13)
H21 H 0.67140 0.86010 1.50000
N4 N 1.351(3) 0.8292(13) 1.1903(13)
C31 C 1.971(3) 0.8704(13) 0.9855(12)
H22 H 2.10410 0.88090 0.94320
C32 C 1.642(3) 1.0672(13) 1.2296(11)
H23 H 1.50350 1.06000 1.27040
C33 C 1.082(3) 0.8639(14) 1.3257(13)
C34 C 0.709(2) 0.7085(8) 1.3680(7)
C35 C 0.8443(16) 0.6703(8) 1.2816(8)
C36 C 0.789(2) 0.5585(9) 1.2220(7)
H24 H 0.87920 0.53290 1.16420
C37 C 0.597(2) 0.4850(8) 1.2487(8)
H25 H 0.56000 0.41020 1.20880
C38 C 0.4617(19) 0.5232(10) 1.3351(9)
H26 H 0.33380 0.47410 1.35300
C39 C 0.517(2) 0.6350(11) 1.3947(8)
H27 H 0.42680 0.66060 1.45250
C40 C 1.827(3) 0.7636(13) 0.9688(12)
H28 H 1.86420 0.70010 0.91780
H29? H 0.32420 0.47650 1.35000
C41? C 0.562(9) 0.680(5) 1.428(4)
H30? H 0.51520 0.71600 1.49210
#END
