
#######################################################################
#
#                 Cambridge Crystallographic Data Centre
#                                CCDC
#
#######################################################################
#
# If this CIF has been generated from an entry in the Cambridge
# Structural Database, then it will include bibliographic, chemical,
# crystal, experimental, refinement or atomic coordinate data resulting
# from the CCDC's data processing and validation procedures.
#
#######################################################################

data_CSD_CIF_PEQCIA
_audit_creation_date 2017-10-30
_audit_creation_method CSD-ConQuest-V1
_database_code_CSD PEQCIA
_database_code_depnum_ccdc_archive 'CCDC 1582783'
_chemical_formula_sum 'C25 H21 N1 O5'
_chemical_formula_moiety
;
C25 H21 N1 O5
;
_journal_coden_Cambridge 1336
_journal_volume 19
_journal_year 2017
_journal_page_first 5513
_journal_name_full 'Org.Lett. '
loop_
_publ_author_name
"Rui He"
"Penglin Liu"
"Xiaohong Huo"
"Wanbin Zhang"
_chemical_name_systematic
;
2-hydroxy-2-(1-phenylprop-2-en-1-yl)-2,3-dihydro-1H-inden-1-yl 
4-nitrobenzoate unknown solvate
;
_cell_volume  10349.544
_exptl_crystal_colour 'colorless'
_exptl_crystal_density_diffrn 1.198
_exptl_special_details
;
Absolute configuration

;
_exptl_crystal_description 'block'
_diffrn_ambient_temperature 173
_refine_special_details
;
Disordered solvent molecules were not modelled and the disordered density was 
taken into account using the SQUEEZE/PLATON procedure.
;
#These two values have been output from a single CSD field.
_refine_ls_R_factor_gt 0.0554
_refine_ls_wR_factor_gt 0.0554
_symmetry_cell_setting rhombohedral
_symmetry_space_group_name_H-M 'R 3'
_symmetry_Int_Tables_number 146
loop_
_symmetry_equiv_pos_site_id
_symmetry_equiv_pos_as_xyz
1 x,y,z
2 -y,x-y,z
3 -x+y,-x,z
4 2/3+x,1/3+y,1/3+z
5 2/3-y,1/3+x-y,1/3+z
6 2/3-x+y,1/3-x,1/3+z
7 1/3+x,2/3+y,2/3+z
8 1/3-y,2/3+x-y,2/3+z
9 1/3-x+y,2/3-x,2/3+z
_cell_length_a 31.8047(10)
_cell_length_b 31.8047(10)
_cell_length_c 11.8143(5)
_cell_angle_alpha 90
_cell_angle_beta 90
_cell_angle_gamma 120
_cell_formula_units_Z 18
loop_
_atom_type_symbol
_atom_type_radius_bond
C 0.68
H 0.23
N 0.68
O 0.68
loop_
_atom_site_label
_atom_site_type_symbol
_atom_site_fract_x
_atom_site_fract_y
_atom_site_fract_z
O1 O 0.28749(12) 0.49754(14) 0.4482(4)
N1 N 0.31233(13) 0.54096(17) 0.4516(5)
C1 C 0.36535(14) 0.56296(15) 0.4647(4)
O2 O 0.29613(17) 0.5676(2) 0.4326(8)
C2 C 0.38483(13) 0.53302(13) 0.4694(3)
H1 H 0.36460 0.49870 0.46720
O3 O 0.53753(10) 0.60245(10) 0.4937(4)
C3 C 0.43448(13) 0.55407(12) 0.4775(3)
H2 H 0.44900 0.53420 0.48000
O4 O 0.54040(8) 0.67424(8) 0.4804(2)
C4 C 0.46359(12) 0.60452(12) 0.4820(3)
O5 O 0.65962(8) 0.76882(9) 0.5578(2)
H3 H 0.67660 0.79870 0.54440
C5 C 0.44283(14) 0.63360(15) 0.4781(4)
H4 H 0.46270 0.66790 0.48200
C6 C 0.39308(16) 0.61262(17) 0.4686(6)
H5 H 0.37830 0.63220 0.46470
C7 C 0.51761(13) 0.62583(12) 0.4864(3)
C8 C 0.59354(12) 0.70051(12) 0.4794(3)
H6 H 0.60730 0.68350 0.52400
C9 C 0.61050(11) 0.70877(12) 0.3585(3)
C10 C 0.61536(13) 0.67775(13) 0.2837(3)
H7 H 0.60900 0.64660 0.30760
C11 C 0.62942(16) 0.69300(16) 0.1754(4)
H8 H 0.63220 0.67190 0.12300
C12 C 0.63973(18) 0.73884(18) 0.1402(4)
H9 H 0.65030 0.74900 0.06480
C13 C 0.63465(15) 0.76979(16) 0.2142(3)
H10 H 0.64120 0.80090 0.18980
C14 C 0.61998(12) 0.75466(13) 0.3240(3)
C15 C 0.61005(12) 0.78014(12) 0.4188(3)
H11 H 0.57820 0.77810 0.40890
H12 H 0.63570 0.81470 0.42330
C16 C 0.61031(11) 0.75218(12) 0.5250(3)
C17 C 0.57981(12) 0.75372(13) 0.6244(3)
H13 H 0.54670 0.74370 0.59430
C18 C 0.57735(17) 0.82900(16) 0.6734(4)
H14 H 0.54510 0.81460 0.64560
H15 H 0.59270 0.86100 0.70360
C19 C 0.60070(14) 0.80469(14) 0.6703(3)
H16 H 0.63290 0.82020 0.69890
C20 C 0.57363(16) 0.71885(14) 0.7194(3)
C21 C 0.5277(2) 0.6830(2) 0.7530(5)
H17 H 0.49950 0.68000 0.71750
C22 C 0.5235(4) 0.6508(3) 0.8416(7)
H18 H 0.49220 0.62550 0.86310
C23 C 0.5634(4) 0.6553(2) 0.8966(6)
H19 H 0.56000 0.63390 0.95660
C24 C 0.6067(3) 0.6900(2) 0.8643(4)
H20 H 0.63450 0.69330 0.90190
C25 C 0.61286(19) 0.72164(17) 0.7778(4)
H21 H 0.64480 0.74600 0.75750
N2 N 0.91772(16) 0.86102(17) 0.5234(6)
O6 O 0.90956(15) 0.82192(15) 0.5494(4)
O7 O 0.9576(2) 0.8922(3) 0.497(1)
O8 O 0.78084(8) 0.95133(8) 0.51244(19)
O9 O 0.72166(9) 0.87343(9) 0.5186(2)
O10 O 0.73095(9) 1.0255(1) 0.4136(2)
H22 H 0.71760 1.00590 0.36000
C26 C 0.87847(16) 0.87241(17) 0.5178(4)
C27 C 0.83151(14) 0.83414(14) 0.5217(3)
H23 H 0.82480 0.80150 0.52640
C28 C 0.79448(13) 0.84507(12) 0.5186(3)
H24 H 0.76160 0.81960 0.51990
C29 C 0.80500(12) 0.89295(12) 0.5137(3)
C30 C 0.85287(14) 0.93054(14) 0.5080(5)
H25 H 0.86010 0.96330 0.50330
C31 C 0.88966(16) 0.91971(17) 0.5093(6)
H26 H 0.92260 0.94490 0.50430
C32 C 0.76439(12) 0.90376(12) 0.5147(3)
C33 C 0.74447(11) 0.96674(12) 0.5093(3)
H27 H 0.71510 0.94380 0.46470
C34 C 0.76907(12) 1.01892(12) 0.4608(3)
C35 C 0.79056(13) 1.05201(12) 0.5659(3)
H28 H 0.82480 1.06070 0.57830
H29 H 0.78890 1.08210 0.55760
C36 C 0.80703(13) 1.02970(14) 0.3681(3)
H30 H 0.83540 1.03040 0.40650
C37 C 0.82562(17) 1.08003(17) 0.3182(4)
H31 H 0.80190 1.08630 0.28640
C38 C 0.8693(2) 1.11457(19) 0.3143(5)
H32 H 0.89450 1.11030 0.34490
H33 H 0.87670 1.14470 0.28080
C39 C 0.79125(14) 0.99183(15) 0.2752(3)
C40 C 0.8237(2) 0.9767(2) 0.2422(5)
H34 H 0.85450 0.99020 0.27840
C41 C 0.8122(3) 0.9428(3) 0.1591(6)
H35 H 0.83480 0.93300 0.13790
C42 C 0.7671(2) 0.9226(3) 0.1049(5)
H36 H 0.75880 0.89870 0.04790
C43 C 0.73497(19) 0.9378(2) 0.1351(4)
H37 H 0.70440 0.92450 0.09820
C44 C 0.74717(16) 0.97257(19) 0.2197(4)
C45 C 0.75870(12) 1.02122(13) 0.6614(3)
C46 C 0.75475(14) 1.03476(15) 0.7710(4)
H38 H 0.77330 1.06770 0.79410
C47 C 0.72356(16) 0.99965(16) 0.8454(4)
H39 H 0.72090 1.00850 0.92080
C48 C 0.69580(16) 0.95127(17) 0.8118(4)
H40 H 0.67390 0.92760 0.86360
C49 C 0.70014(13) 0.93770(14) 0.7035(3)
H41 H 0.68170 0.90470 0.68060
C50 C 0.73176(12) 0.97282(12) 0.6286(3)
#END
