
#######################################################################
#
#                 Cambridge Crystallographic Data Centre
#                                CCDC
#
#######################################################################
#
# If this CIF has been generated from an entry in the Cambridge
# Structural Database, then it will include bibliographic, chemical,
# crystal, experimental, refinement or atomic coordinate data resulting
# from the CCDC's data processing and validation procedures.
#
#######################################################################

data_CSD_CIF_PEQWEN
_audit_creation_date 1998-11-13
_audit_creation_method CSD-ConQuest-V1
_database_code_CSD PEQWEN
_chemical_formula_sum 'C21 H28 N4 O5'
_chemical_formula_moiety
;
C21 H28 N4 O5
;
_journal_coden_Cambridge 35
_journal_volume 62
_journal_year 1997
_journal_page_first 8722
_journal_name_full 'J.Org.Chem. '
loop_
_publ_author_name
"S.N.Crane"
"T.J.Jenkins"
"D.J.Burnell"
_chemical_name_systematic
;
t-8-t-Butyl-2-methyl-r-1-spiro(4.5)decane-1,4-dione 
4-(2,4-dinitrophenylhydrazone)
;
_chemical_melting_point 467.65
_cell_volume   2150.855
_exptl_crystal_colour 'orange'
_exptl_crystal_density_diffrn 1.286
_exptl_special_details
;
Melting point range 467.65-470.65K

;
_exptl_crystal_description 'irregular'
_diffrn_ambient_temperature ?
_diffrn_special_details
;
The study was carried out at room temperature,in the range 283-303K

;
#These two values have been output from a single CSD field.
_refine_ls_R_factor_gt 0.043
_refine_ls_wR_factor_gt 0.043
_symmetry_cell_setting triclinic
_symmetry_space_group_name_H-M 'P -1'
_symmetry_Int_Tables_number 2
loop_
_symmetry_equiv_pos_site_id
_symmetry_equiv_pos_as_xyz
1 x,y,z
2 -x,-y,-z
_cell_length_a 13.058(3)
_cell_length_b 13.738(6)
_cell_length_c 13.050(2)
_cell_angle_alpha 105.18(2)
_cell_angle_beta 95.55(2)
_cell_angle_gamma 72.20(2)
_cell_formula_units_Z 4
loop_
_atom_type_symbol
_atom_type_radius_bond
C 0.68
H 0.23
N 0.68
O 0.68
loop_
_atom_site_label
_atom_site_type_symbol
_atom_site_fract_x
_atom_site_fract_y
_atom_site_fract_z
O1 O -0.1686(2) 0.6438(2) 0.3692(2)
O2 O 0.4025(2) 0.3409(2) 0.2897(2)
O3 O 0.5684(2) 0.2665(2) 0.3227(2)
O4 O 0.7243(2) 0.3204(2) 0.6640(2)
O5 O 0.6340(2) 0.4310(2) 0.7972(2)
N1 N 0.1857(2) 0.5514(2) 0.4825(2)
N2 N 0.2768(2) 0.4722(2) 0.4404(2)
N3 N 0.4795(3) 0.3253(2) 0.3518(2)
N4 N 0.6406(3) 0.3836(3) 0.7040(3)
C1 C -0.0732(3) 0.6209(3) 0.3610(3)
C2 C 0.0038(3) 0.6557(3) 0.4488(3)
C3 C 0.1086(3) 0.5719(3) 0.4158(3)
C4 C 0.1038(3) 0.5167(3) 0.2988(3)
C5 C -0.0124(3) 0.5593(4) 0.2619(3)
C6 C -0.0341(3) 0.6654(3) 0.5593(3)
C7 C 0.0186(3) 0.7289(3) 0.6519(3)
C8 C 0.0115(3) 0.8368(3) 0.6357(3)
C9 C 0.0660(3) 0.8196(3) 0.5313(3)
C10 C 0.0089(3) 0.7644(3) 0.4377(3)
C11 C 0.3640(3) 0.4475(3) 0.5038(3)
C12 C 0.4650(3) 0.3775(3) 0.4643(3)
C13 C 0.5536(3) 0.3576(3) 0.5299(3)
C14 C 0.5451(3) 0.4039(3) 0.6359(3)
C15 C 0.4471(3) 0.4706(3) 0.6791(3)
C16 C 0.3601(3) 0.4918(3) 0.6152(3)
C17 C -0.0660(4) 0.4887(4) 0.1897(4)
C18 C 0.0518(3) 0.9104(3) 0.7319(3)
C19 C 0.0241(3) 1.0204(3) 0.7120(3)
C20 C 0.1730(3) 0.8694(3) 0.7502(3)
C21 C -0.0066(3) 0.9199(3) 0.8321(3)
H1 H 0.29290 0.43810 0.36080
H2 H 0.14990 0.53580 0.26250
H3 H 0.13270 0.44290 0.28580
H4 H -0.02000 0.59370 0.17870
H5 H -0.11410 0.70030 0.56040
H6 H -0.02300 0.59250 0.56900
H7 H -0.01880 0.73460 0.71980
H8 H 0.09640 0.68640 0.65940
H9 H -0.06720 0.87500 0.62340
H10 H 0.06270 0.88710 0.51870
H11 H 0.14410 0.77500 0.53480
H12 H 0.03760 0.75350 0.36670
H13 H -0.06880 0.80380 0.43110
H14 H 0.28780 0.53880 0.64150
H15 H 0.62020 0.31230 0.50040
H16 H 0.44460 0.50370 0.75620
H17 H -0.15500 0.52860 0.17470
H18 H -0.02400 0.45420 0.11570
H19 H -0.03840 0.43530 0.23530
H20 H 0.04490 1.06910 0.77670
H21 H 0.06340 1.02620 0.65900
H22 H -0.05530 1.04760 0.69240
H23 H 0.19020 0.80320 0.76720
H24 H 0.21670 0.86690 0.69120
H25 H 0.19700 0.92250 0.81450
H26 H 0.00930 0.97530 0.89090
H27 H -0.08600 0.93840 0.81740
H28 H 0.01410 0.84980 0.85360
O6 O 0.6706(2) 0.3651(3) 1.1022(2)
O7 O 0.7586(2) 0.0326(2) 0.5607(2)
O8 O 0.7348(2) -0.0249(2) 0.3944(2)
O9 O 0.3976(3) 0.0539(3) 0.2230(2)
O10 O 0.2588(3) 0.1632(3) 0.3069(2)
N5 N 0.5472(2) 0.2065(2) 0.7766(2)
N6 N 0.5979(2) 0.1505(2) 0.6807(2)
N7 N 0.7004(2) 0.0280(2) 0.4813(3)
N8 N 0.3533(3) 0.1127(3) 0.3034(3)
C22 C 0.6707(3) 0.2977(4) 1.0231(3)
C23 C 0.5720(3) 0.2684(3) 0.9680(3)
C24 C 0.6117(3) 0.2140(3) 0.8565(3)
C25 C 0.7327(3) 0.1742(3) 0.8562(3)
C26 C 0.7715(3) 0.2253(4) 0.9645(3)
C27 C 0.4716(3) 0.3625(3) 0.9805(3)
C28 C 0.3673(3) 0.3329(3) 0.9472(3)
C29 C 0.3532(3) 0.2503(4) 0.9982(3)
C30 C 0.4529(3) 0.1558(3) 0.9795(3)
C31 C 0.5550(3) 0.1861(3) 1.0209(3)
C32 C 0.5390(3) 0.1415(2) 0.5896(3)
C33 C 0.5862(3) 0.0833(3) 0.4907(3)
C34 C 0.5257(3) 0.0748(3) 0.3974(3)
C35 C 0.4182(3) 0.1237(3) 0.4015(3)
C36 C 0.3678(3) 0.1825(3) 0.4967(3)
C37 C 0.4271(3) 0.1910(3) 0.5886(3)
C38 C 0.8578(4) 0.2733(5) 0.9669(4)
C39 C 0.2470(4) 0.2213(4) 0.9637(3)
C40 C 0.1526(4) 0.3193(5) 1.0017(5)
C41 C 0.2353(4) 0.1878(4) 0.8440(4)
C42 C 0.2392(5) 0.1324(6) 1.0093(5)
H29 H 0.68400 0.11350 0.67860
H30 H 0.75570 0.09580 0.84560
H31 H 0.75660 0.19170 0.80020
H32 H 0.81510 0.17170 1.01180
H33 H 0.46410 0.39940 1.05210
H34 H 0.47940 0.41080 0.93970
H35 H 0.30610 0.40050 0.96140
H36 H 0.36450 0.30550 0.86300
H37 H 0.34740 0.28440 1.07750
H38 H 0.45450 0.09950 1.01110
H39 H 0.46210 0.11800 0.89940
H40 H 0.61900 0.12250 1.00970
H41 H 0.55180 0.21540 1.10020
H42 H 0.39200 0.23080 0.65290
H43 H 0.55880 0.03330 0.33300
H44 H 0.28970 0.21730 0.49900
H45 H 0.92270 0.22220 0.94150
H46 H 0.80270 0.32550 0.93530
H47 H 0.87890 0.30440 1.04320
H48 H 0.16620 0.31460 1.08430
H49 H 0.15580 0.38450 1.01760
H50 H 0.08700 0.29890 0.98390
H51 H 0.16390 0.16360 0.82570
H52 H 0.22610 0.24760 0.81390
H53 H 0.30280 0.11030 0.82970
H54 H 0.16750 0.12300 0.99090
H55 H 0.29710 0.07340 0.99770
H56 H 0.25110 0.17060 1.08950
#END
