
#######################################################################
#
#                 Cambridge Crystallographic Data Centre
#                                CCDC
#
#######################################################################
#
# If this CIF has been generated from an entry in the Cambridge
# Structural Database, then it will include bibliographic, chemical,
# crystal, experimental, refinement or atomic coordinate data resulting
# from the CCDC's data processing and validation procedures.
#
#######################################################################

data_CSD_CIF_PERQAH
_audit_creation_date 2018-03-07
_audit_creation_method CSD-ConQuest-V1
_database_code_CSD PERQAH
_database_code_depnum_ccdc_archive 'CCDC 1452969'
_chemical_formula_sum 'C16 H9 N1 O2'
_chemical_formula_moiety
;
C16 H9 N1 O2
;
_journal_coden_Cambridge 222
_journal_volume 47
_journal_year 2018
_journal_page_first 4560
_journal_name_full 'Dalton Trans. '
loop_
_publ_author_name
"Jun Du"
"M.S.Kodikara"
"G.J.Moxey"
"M.Morshedi"
"A.Barlow"
"C.Quintana"
"Genmiao Wang"
"R.Stranger"
"Chi Zhang"
"M.P.Cifuentes"
"M.G.Humphrey"
_chemical_name_systematic
;
9-ethynyl-10-nitroanthracene
;
_cell_volume    559.273
_exptl_crystal_colour 'yellow'
_exptl_crystal_density_diffrn 1.468
_exptl_crystal_description 'needle'
_diffrn_ambient_temperature 150
#These two values have been output from a single CSD field.
_refine_ls_R_factor_gt 0.0305
_refine_ls_wR_factor_gt 0.0305
_symmetry_cell_setting monoclinic
_symmetry_space_group_name_H-M 'P 21'
_symmetry_Int_Tables_number 4
loop_
_symmetry_equiv_pos_site_id
_symmetry_equiv_pos_as_xyz
1 x,y,z
2 -x,1/2+y,-z
_cell_length_a 3.86591(12)
_cell_length_b 16.1913(5)
_cell_length_c 9.0929(3)
_cell_angle_alpha 90
_cell_angle_beta 100.696(3)
_cell_angle_gamma 90
_cell_formula_units_Z 2
loop_
_atom_type_symbol
_atom_type_radius_bond
C 0.68
H 0.23
N 0.68
O 0.68
loop_
_atom_site_label
_atom_site_type_symbol
_atom_site_fract_x
_atom_site_fract_y
_atom_site_fract_z
C1 C 0.2404(4) 0.41024(11) 0.5174(2)
C2 C 0.5530(5) 0.50808(12) 0.7029(2)
C3 C -0.0755(5) 0.31482(13) 0.3345(2)
H1 H -0.16670 0.30110 0.23560
C4 C 0.5165(5) 0.45242(11) 0.8222(2)
C5 C 0.2086(5) 0.35310(11) 0.6347(2)
N1 N 0.3463(4) 0.31469(11) 0.90088(17)
C6 C 0.4518(5) 0.54293(12) 0.4359(2)
C7 C 0.8589(5) 0.60564(14) 0.8845(2)
H2 H 0.97300 0.65590 0.90650
C8 C 0.3539(5) 0.37622(11) 0.7821(2)
C9 C 0.4161(5) 0.48605(12) 0.5531(2)
C10 C 0.8194(5) 0.55119(14) 1.0020(2)
H3 H 0.90700 0.56630 1.10050
C11 C -0.1164(5) 0.25942(12) 0.4513(2)
H4 H -0.23880 0.21020 0.42830
C12 C 0.0961(5) 0.38783(12) 0.3664(2)
H5 H 0.11990 0.42360 0.28900
C13 C 0.0220(5) 0.27764(12) 0.5969(2)
H6 H -0.00540 0.24060 0.67210
C14 C 0.7313(5) 0.58496(12) 0.7398(2)
H7 H 0.76000 0.62120 0.66370
C15 C 0.6551(5) 0.47694(13) 0.9732(2)
H8 H 0.63280 0.44190 1.05190
O1 O 0.2026(4) 0.33273(11) 1.00554(15)
O2 O 0.4932(4) 0.24844(10) 0.89002(16)
C16 C 0.4834(5) 0.59131(14) 0.3409(2)
H9 H 0.50810 0.62920 0.26660
#END
