
#######################################################################
#
#                 Cambridge Crystallographic Data Centre
#                                CCDC
#
#######################################################################
#
# If this CIF has been generated from an entry in the Cambridge
# Structural Database, then it will include bibliographic, chemical,
# crystal, experimental, refinement or atomic coordinate data resulting
# from the CCDC's data processing and validation procedures.
#
#######################################################################

data_CSD_CIF_PERTUB
_audit_creation_date 1994-05-10
_audit_creation_method CSD-ConQuest-V1
_database_code_CSD PERTUB
_chemical_formula_sum 'C19 H22 N4 O6'
_chemical_formula_moiety
;
C19 H22 N4 O6
;
_journal_coden_Cambridge 4
_journal_volume 115
_journal_year 1993
_journal_page_first 5941
_journal_name_full 'J.Am.Chem.Soc. '
loop_
_publ_author_name
"Ming-Chang P.Yeh"
"B.-A.Sheu"
"H.-W.Fu"
"S.-I.Tau"
"L.-W.Chuang"
_chemical_name_systematic
;
(1R*,2S*,5S*,9R*)-2-Carbethoxy-9-formylbicyclo(3.3.1)non-7-ene 
(2,4-dinitrophenyl)hydrazone
;
_chemical_melting_point 445.15
_cell_volume   1948.317
_exptl_crystal_colour 'yellow'
_exptl_special_details
;
Melts with decomposition.

;
_diffrn_ambient_temperature ?
_diffrn_special_details
;
The study was carried out at room temperature,in the range 283-303K

;
#These two values have been output from a single CSD field.
_refine_ls_R_factor_gt 0.057
_refine_ls_wR_factor_gt 0.057
_symmetry_cell_setting monoclinic
_symmetry_space_group_name_H-M 'P 21/c'
_symmetry_Int_Tables_number 14
loop_
_symmetry_equiv_pos_site_id
_symmetry_equiv_pos_as_xyz
1 x,y,z
2 -x,1/2+y,1/2-z
3 -x,-y,-z
4 x,-1/2-y,-1/2+z
_cell_length_a 6.885(4)
_cell_length_b 12.525(4)
_cell_length_c 22.727(7)
_cell_angle_alpha 90
_cell_angle_beta 96.22(4)
_cell_angle_gamma 90
_cell_formula_units_Z 4
loop_
_atom_type_symbol
_atom_type_radius_bond
C 0.68
H 0.23
N 0.68
O 0.68
loop_
_atom_site_label
_atom_site_type_symbol
_atom_site_fract_x
_atom_site_fract_y
_atom_site_fract_z
C1 C 0.8288(9) 0.1031(5) 0.8507(3)
C2 C 0.8258(9) 0.1282(5) 0.7860(3)
C3 C 0.8757(10) 0.0267(5) 0.7513(2)
C4 C 0.7137(13) -0.0511(6) 0.7536(3)
C5 C 0.5307(13) -0.0198(7) 0.7586(3)
C6 C 0.4682(10) 0.0921(7) 0.7624(3)
C7 C 0.6336(10) 0.1731(5) 0.7582(3)
C8 C 0.6525(11) 0.2050(7) 0.6945(3)
C9 C 0.7195(11) 0.1132(7) 0.6577(3)
C10 C 0.9037(11) 0.0638(6) 0.6877(3)
C11 C 0.9775(14) -0.0279(7) 0.6523(3)
C12 C 1.2231(16) -0.0841(8) 0.5947(6)
C13 C 1.2941(16) -0.0265(8) 0.5427(4)
C14 C 0.5765(9) 0.1450(5) 0.9732(3)
C15 C 0.5770(8) 0.1188(5) 1.03389(24)
C16 C 0.4237(9) 0.1479(5) 1.06600(24)
C17 C 0.2720(9) 0.2052(5) 1.0381(3)
C18 C 0.2658(9) 0.2342(5) 0.9788(3)
C19 C 0.4159(10) 0.2048(5) 0.9475(3)
N1 N 0.7205(7) 0.1145(4) 0.9402(2)
N2 N 0.6986(7) 0.1416(4) 0.88055(21)
N3 N 0.7314(7) 0.0580(4) 1.06563(22)
N4 N 0.1067(8) 0.2335(5) 1.0711(3)
O1 O 0.8934(13) -0.1074(7) 0.6394(4)
O2 O 1.1341(9) -0.0063(4) 0.6314(3)
O3 O 0.8719(6) 0.0280(3) 1.03917(17)
O4 O 0.7243(7) 0.0377(4) 1.11810(19)
O5 O 0.1168(7) 0.2099(4) 1.12349(22)
O6 O -0.0327(7) 0.2796(4) 1.04450(22)
H1 H 0.93700 0.05700 0.87000
H2 H 0.93200 0.18600 0.78000
H3 H 1.00700 -0.00500 0.77200
H4 H 0.73300 -0.13100 0.74900
H5 H 0.42800 -0.07500 0.76100
H6 H 0.36000 0.10700 0.72700
H7 H 0.40300 0.10400 0.79900
H8 H 0.60000 0.24000 0.78200
H9 H 0.51800 0.23400 0.67500
H10 H 0.74700 0.26800 0.69300
H11 H 0.73800 0.13600 0.61700
H12 H 0.61500 0.05500 0.65500
H13 H 1.00900 0.12700 0.69200
H14 H 1.11900 -0.13700 0.57500
H15 H 1.33000 -0.12700 0.61500
H16 H 1.35800 -0.07900 0.51900
H17 H 1.37400 0.03800 0.55800
H18? H 1.24600 -0.06000 0.58200
H19 H 0.42200 0.12500 1.11000
H20 H 0.14800 0.27900 0.96000
H21 H 0.41200 0.22600 0.90300
H22 H 0.84200 0.07400 0.95900
#END
