
#######################################################################
#
#                 Cambridge Crystallographic Data Centre
#                                CCDC
#
#######################################################################
#
# If this CIF has been generated from an entry in the Cambridge
# Structural Database, then it will include bibliographic, chemical,
# crystal, experimental, refinement or atomic coordinate data resulting
# from the CCDC's data processing and validation procedures.
#
#######################################################################

data_CSD_CIF_PERYTN10
_audit_creation_date 1971-12-31
_audit_creation_method CSD-ConQuest-V1
_database_code_CSD PERYTN10
_chemical_formula_sum 'C5 H8 N4 O12'
_chemical_formula_moiety
;
C5 H8 N4 O12
;
_journal_coeditor_code "IUCr A03885"
_journal_coden_Cambridge 1
_journal_volume 16
_journal_year 1963
_journal_page_first 698
_journal_name_full 'Acta Crystallogr. '
loop_
_publ_author_name
"J.Trotter"
_chemical_name_systematic
;
Pentaerythritol tetranitrate
;
_cell_volume    589.495
_exptl_special_details
;
polymorph i

;
_diffrn_ambient_temperature ?
_diffrn_special_details
;
The study was carried out at room temperature,in the range 283-303K

;
#These two values have been output from a single CSD field.
_refine_ls_R_factor_gt 0.152
_refine_ls_wR_factor_gt 0.152
loop_
_citation_database_id_CSD
_citation_special_details
PERYTN13 "is reinterpreted by this entry"
_symmetry_cell_setting tetragonal
_symmetry_space_group_name_H-M 'P -4 21 c'
_symmetry_Int_Tables_number 114
loop_
_symmetry_equiv_pos_site_id
_symmetry_equiv_pos_as_xyz
1 x,y,z
2 -y,x,-z
3 -x,-y,z
4 y,-x,-z
5 1/2-x,1/2+y,1/2-z
6 1/2+y,1/2+x,1/2+z
7 1/2+x,1/2-y,1/2-z
8 1/2-y,1/2-x,1/2+z
_cell_length_a 9.38
_cell_length_b 9.38
_cell_length_c 6.7
_cell_angle_alpha 90
_cell_angle_beta 90
_cell_angle_gamma 90
_cell_formula_units_Z 2
loop_
_atom_type_symbol
_atom_type_radius_bond
C 0.68
N 0.68
O 0.68
loop_
_atom_site_label
_atom_site_type_symbol
_atom_site_fract_x
_atom_site_fract_y
_atom_site_fract_z
C1 C 0.12070 0.06360 0.12700
C2 C 0.00000 0.00000 0.00000
N1 N 0.28700 -0.01650 0.37160
O1 O 0.16080 -0.04830 0.26810
O2 O 0.31580 -0.10500 0.49510
O3 O 0.35000 0.09270 0.32400
C1A C -0.06360 0.12070 -0.12700
C1B C -0.12070 -0.06360 0.12700
C1C C 0.06360 -0.12070 -0.12700
O1A O 0.04830 0.16080 -0.26810
O1B O -0.16080 0.04830 0.26810
O1C O -0.04830 -0.16080 -0.26810
N1A N 0.01650 0.28700 -0.37160
N1B N -0.28700 0.01650 0.37160
N1C N -0.01650 -0.28700 -0.37160
O2A O 0.10500 0.31580 -0.49510
O3A O -0.09270 0.35000 -0.32400
O2B O -0.31580 0.10500 0.49510
O3B O -0.35000 -0.09270 0.32400
O2C O -0.10500 -0.31580 -0.49510
O3C O 0.09270 -0.35000 -0.32400
#END
