
#######################################################################
#
#                 Cambridge Crystallographic Data Centre
#                                CCDC
#
#######################################################################
#
# If this CIF has been generated from an entry in the Cambridge
# Structural Database, then it will include bibliographic, chemical,
# crystal, experimental, refinement or atomic coordinate data resulting
# from the CCDC's data processing and validation procedures.
#
#######################################################################

data_CSD_CIF_PERYTN11
_audit_creation_date 2003-03-06
_audit_creation_method CSD-ConQuest-V1
_database_code_CSD PERYTN11
_database_code_depnum_ccdc_archive 'CCDC 199339'
_chemical_formula_sum 'C5 H8 N4 O12'
_chemical_formula_moiety
;
C5 H8 N4 O12
;
_journal_coden_Cambridge 1078
_journal_year 2002
_journal_name_full 'CSD Communication(Private Communication) '
loop_
_publ_author_name
"M.Nieger"
"J.Lehmann"
_chemical_name_systematic
;
Pentaerythritol tetranitrate
;
_cell_volume    574.653
_exptl_crystal_colour 'colorless'
_exptl_crystal_density_diffrn 1.827
_exptl_special_details
;
polymorph i
contribution from Institut fur Anorganische Chemie, Universitat Bonn, 
Gerhard-Domagk-Str. 1, D-53121 Bonn, Bundesrepublik Deutschland
;
_exptl_crystal_description 'blocks'
_diffrn_ambient_temperature 123
#These two values have been output from a single CSD field.
_refine_ls_R_factor_gt 0.0194
_refine_ls_wR_factor_gt 0.0194
_symmetry_cell_setting tetragonal
_symmetry_space_group_name_H-M 'P -4 21 c'
_symmetry_Int_Tables_number 114
loop_
_symmetry_equiv_pos_site_id
_symmetry_equiv_pos_as_xyz
1 x,y,z
2 -x,-y,z
3 y,-x,-z
4 -y,x,-z
5 1/2-x,1/2+y,1/2-z
6 1/2+x,1/2-y,1/2-z
7 1/2-y,1/2-x,1/2+z
8 1/2+y,1/2+x,1/2+z
_cell_length_a 9.3027(3)
_cell_length_b 9.3027(3)
_cell_length_c 6.6403(2)
_cell_angle_alpha 90
_cell_angle_beta 90
_cell_angle_gamma 90
_cell_formula_units_Z 2
loop_
_atom_type_symbol
_atom_type_radius_bond
C 0.68
H 0.23
N 0.68
O 0.68
loop_
_atom_site_label
_atom_site_type_symbol
_atom_site_fract_x
_atom_site_fract_y
_atom_site_fract_z
C1 C 0.50000 0.50000 0.00000
C2 C 0.62252(9) 0.56183(9) 0.12795(12)
H1 H 0.70570 0.58690 0.04180
H2 H 0.59030 0.64950 0.19930
O1 O 0.66192(7) 0.45068(7) 0.27134(9)
N1 N 0.79012(8) 0.48238(8) 0.37497(11)
O2 O 0.85397(7) 0.58966(7) 0.32962(12)
O3 O 0.81832(8) 0.39271(8) 0.50018(10)
C2A C 0.37748(9) 0.43817(9) 0.12795(12)
H1A H 0.29430 0.41310 0.04180
H2A H 0.40970 0.35050 0.19930
O1A O 0.33808(7) 0.54932(7) 0.27134(9)
N1A N 0.20988(8) 0.51762(8) 0.37497(11)
O2A O 0.14603(7) 0.41034(7) 0.32962(12)
O3A O 0.18168(8) 0.60729(8) 0.50018(10)
C2B C 0.56183(9) 0.37748(9) -0.12795(12)
H1B H 0.58690 0.29430 -0.04180
H2B H 0.64950 0.40970 -0.19930
O1B O 0.45068(7) 0.33808(7) -0.27134(9)
N1B N 0.48238(8) 0.20988(8) -0.37497(11)
O2B O 0.58966(7) 0.14603(7) -0.32962(12)
O3B O 0.39271(8) 0.18168(8) -0.50018(10)
C2C C 0.43817(9) 0.62252(9) -0.12795(12)
H1C H 0.41310 0.70570 -0.04180
H2C H 0.35050 0.59030 -0.19930
O1C O 0.54932(7) 0.66192(7) -0.27134(9)
N1C N 0.51762(8) 0.79012(8) -0.37497(11)
O2C O 0.41034(7) 0.85397(7) -0.32962(12)
O3C O 0.60729(8) 0.81832(8) -0.50018(10)
#END
