
#######################################################################
#
#                 Cambridge Crystallographic Data Centre
#                                CCDC
#
#######################################################################
#
# If this CIF has been generated from an entry in the Cambridge
# Structural Database, then it will include bibliographic, chemical,
# crystal, experimental, refinement or atomic coordinate data resulting
# from the CCDC's data processing and validation procedures.
#
#######################################################################

data_CSD_CIF_PERYTN13
_audit_creation_date 2008-01-08
_audit_creation_method CSD-ConQuest-V1
_database_code_CSD PERYTN13
_database_code_depnum_ccdc_archive 'CCDC 669555'
_chemical_formula_sum 'C5 H8 N4 O12'
_chemical_formula_moiety
;
C5 H8 N4 O12
;
_journal_coden_Cambridge 2
_journal_volume 69
_journal_year 1947
_journal_page_first 837
_journal_name_full 'J.Chem.Soc. '
loop_
_publ_author_name
"A.D.Booth"
"F.J.Llewellyn"
_chemical_name_systematic
;
Pentaerythritol tetranitrate
;
_cell_volume    589.495
_exptl_crystal_density_diffrn 1.773
_exptl_special_details
;
polymorph i

;
_exptl_crystal_preparation 'acetone'
_diffrn_ambient_temperature ?
_diffrn_special_details
;
The study was carried out at room temperature,in the range 283-303K

;
loop_
_citation_database_id_CSD
_citation_special_details
PERYTN10 "is a reinterpretation of this cif"
_symmetry_cell_setting tetragonal
_symmetry_space_group_name_H-M 'P -4 21 c'
_symmetry_Int_Tables_number 114
loop_
_symmetry_equiv_pos_site_id
_symmetry_equiv_pos_as_xyz
1 x,y,z
2 y,-x,-z
3 1/2+x,1/2-y,1/2-z
4 -x,-y,z
5 1/2-y,1/2-x,1/2+z
6 -y,x,-z
7 1/2-x,1/2+y,1/2-z
8 1/2+y,1/2+x,1/2+z
_cell_length_a 9.38
_cell_length_b 9.38
_cell_length_c 6.7
_cell_angle_alpha 90
_cell_angle_beta 90
_cell_angle_gamma 90
_cell_formula_units_Z 2
loop_
_atom_type_symbol
_atom_type_radius_bond
C 0.68
N 0.68
O 0.68
loop_
_atom_site_label
_atom_site_type_symbol
_atom_site_fract_x
_atom_site_fract_y
_atom_site_fract_z
C1 C 0.00000 0.00000 0.00000
C2 C 0.11900 0.05900 0.12400
O1 O 0.16200 -0.04400 0.25600
N1 N 0.28400 -0.01500 0.35900
O2 O 0.31800 -0.10400 0.49400
O3 O 0.35600 0.09900 0.32500
C2A C 0.05900 -0.11900 -0.12400
C2C C -0.11900 -0.05900 0.12400
C2E C -0.05900 0.11900 -0.12400
O1A O -0.04400 -0.16200 -0.25600
O1C O -0.16200 0.04400 0.25600
O1E O 0.04400 0.16200 -0.25600
N1A N -0.01500 -0.28400 -0.35900
N1C N -0.28400 0.01500 0.35900
N1E N 0.01500 0.28400 -0.35900
O2A O -0.10400 -0.31800 -0.49400
O2C O -0.31800 0.10400 0.49400
O2E O 0.10400 0.31800 -0.49400
O3A O 0.09900 -0.35600 -0.32500
O3C O -0.35600 -0.09900 0.32500
O3E O -0.09900 0.35600 -0.32500
#END
