
#######################################################################
#
#                 Cambridge Crystallographic Data Centre
#                                CCDC
#
#######################################################################
#
# If this CIF has been generated from an entry in the Cambridge
# Structural Database, then it will include bibliographic, chemical,
# crystal, experimental, refinement or atomic coordinate data resulting
# from the CCDC's data processing and validation procedures.
#
#######################################################################

data_CSD_CIF_PESCAT
_audit_creation_date 2013-05-19
_audit_creation_method CSD-ConQuest-V1
_database_code_CSD PESCAT
_database_code_depnum_ccdc_archive 'CCDC 907820'
_chemical_formula_sum 'C24 H44 N4 O9'
_chemical_formula_moiety
;
C24 H44 N4 O9
;
_journal_coden_Cambridge 177
_journal_volume 11
_journal_year 2013
_journal_page_first 803
_journal_name_full 'Org.Biomol.Chem. '
loop_
_publ_author_name
"M.G.Kumar"
"S.M.Mali"
"H.N.Gopi"
_chemical_name_systematic
;
Ethyl 
4-((4-((t-butoxycarbonyl)amino)-5-methyl-3-(nitromethyl)hexanoyl)amino)-6-meth
yl-3-(nitromethyl)heptanoate
;
_cell_volume   2211.436
_exptl_crystal_colour 'colorless'
_exptl_crystal_density_diffrn 1.2
_exptl_crystal_description 'rod shaped'
_diffrn_ambient_temperature 100
#These two values have been output from a single CSD field.
_refine_ls_R_factor_gt 0.0865
_refine_ls_wR_factor_gt 0.0865
_symmetry_cell_setting hexagonal
_symmetry_space_group_name_H-M 'P 32'
_symmetry_Int_Tables_number 145
loop_
_symmetry_equiv_pos_site_id
_symmetry_equiv_pos_as_xyz
1 x,y,z
2 -y,x-y,2/3+z
3 -x+y,-x,1/3+z
_cell_length_a 13.503(9)
_cell_length_b 13.503(9)
_cell_length_c 14.005(10)
_cell_angle_alpha 90
_cell_angle_beta 90
_cell_angle_gamma 120
_cell_formula_units_Z 3
loop_
_atom_type_symbol
_atom_type_radius_bond
C 0.68
H 0.23
N 0.68
O 0.68
loop_
_atom_site_label
_atom_site_type_symbol
_atom_site_fract_x
_atom_site_fract_y
_atom_site_fract_z
O1 O 0.6184(4) 0.7967(5) 0.7211(5)
O2 O 0.6970(4) 0.9190(5) 0.5952(5)
O3 O 0.1676(5) 0.5125(6) 0.4650(6)
O4 O 0.2560(5) 0.6146(5) 0.3428(5)
O5 O 0.5056(4) 0.9368(4) 0.3103(5)
O6 O 1.0683(5) 1.1188(6) 0.3688(6)
O7 O 0.9717(6) 0.9675(6) 0.2818(7)
O8 O 0.6434(5) 0.9702(5) 0.0949(6)
O9 O 0.7950(5) 1.1367(5) 0.1361(5)
N1 N 0.5767(5) 0.7265(5) 0.5754(6)
H1 H 0.53680 0.66290 0.60520
N2 N 0.2551(6) 0.5788(6) 0.4212(6)
N3 N 0.6452(5) 0.9944(5) 0.4214(6)
H2 H 0.66420 0.97970 0.47600
N4 N 0.9792(7) 1.0366(8) 0.3438(9)
C1 C 0.6770(6) 0.8828(7) 0.7951(7)
C2 C 0.6309(9) 0.8163(10) 0.8885(9)
H3 H 0.55090 0.79100 0.89400
H4 H 0.67120 0.86490 0.94150
H5 H 0.64160 0.75120 0.88840
C3 C 0.6503(9) 0.9790(9) 0.7879(10)
H6 H 0.69350 1.02920 0.73650
H7 H 0.67020 1.02110 0.84670
H8 H 0.57010 0.94770 0.77580
C4 C 0.8057(7) 0.9301(8) 0.7884(7)
H9 H 0.82110 0.86790 0.78820
H10 H 0.84290 0.97870 0.84220
H11 H 0.83420 0.97330 0.73050
C5 C 0.6359(6) 0.8233(8) 0.6287(8)
C6 C 0.5763(6) 0.7234(7) 0.4724(6)
H12 H 0.64040 0.79640 0.45070
C7 C 0.6011(7) 0.6287(7) 0.4395(7)
H13 H 0.55150 0.55910 0.47570
C8 C 0.7253(7) 0.6651(8) 0.4626(10)
H14 H 0.73930 0.60390 0.44740
H15 H 0.73920 0.68300 0.52930
H16 H 0.77530 0.73140 0.42560
C9 C 0.5785(9) 0.6008(8) 0.3322(8)
H17 H 0.61540 0.67040 0.29600
H18 H 0.49760 0.56210 0.32040
H19 H 0.60830 0.55240 0.31350
C10 C 0.4673(6) 0.7164(6) 0.4337(6)
H20 H 0.46870 0.70760 0.36440
C11 C 0.3642(6) 0.6113(6) 0.4693(7)
H21 H 0.37850 0.54790 0.46390
H22 H 0.35540 0.62180 0.53670
C12 C 0.4608(6) 0.8252(6) 0.4504(6)
H23 H 0.38300 0.80790 0.43880
H24 H 0.47800 0.84700 0.51700
C13 C 0.5386(7) 0.9243(6) 0.3905(7)
C14 C 0.7308(7) 1.0931(6) 0.3699(6)
H25 H 0.68930 1.10900 0.32040
C15 C 0.7857(9) 1.1972(7) 0.4317(8)
H26 H 0.86770 1.22700 0.43320
H27 H 0.75700 1.17630 0.49640
C16 C 0.7606(19) 1.2974(15) 0.3932(16)
H28 H 0.68970 1.27460 0.35780
C17 C 0.875(3) 1.350(3) 0.337(2)
H29 H 0.90030 1.42820 0.32200
H30 H 0.86390 1.30770 0.27860
H31 H 0.93210 1.34560 0.37500
C18 C 0.785(2) 1.370(2) 0.4845(16)
H32 H 0.74790 1.32030 0.53800
H33 H 0.75510 1.42110 0.47690
H34 H 0.86550 1.41320 0.49550
C19 C 0.8122(7) 1.0624(7) 0.3160(7)
H35 H 0.87240 1.13380 0.28790
C20 C 0.8732(7) 1.0216(8) 0.3884(9)
H36 H 0.89150 1.06620 0.44660
H37 H 0.82290 0.94180 0.40440
C21 C 0.7556(7) 0.9793(7) 0.2334(7)
H38 H 0.80810 0.95540 0.21030
H39 H 0.68840 0.91180 0.25750
C22 C 0.7208(8) 1.0247(7) 0.1517(8)
C23 C 0.7783(8) 1.1903(8) 0.0569(8)
H40 H 0.70620 1.18920 0.06360
H41 H 0.77460 1.14870 -0.00070
C24 C 0.8719(9) 1.3090(8) 0.0487(9)
H42 H 0.87250 1.35130 0.10400
H43 H 0.86090 1.34310 -0.00750
H44 H 0.94340 1.31010 0.04420
#END
