
#######################################################################
#
#                 Cambridge Crystallographic Data Centre
#                                CCDC
#
#######################################################################
#
# If this CIF has been generated from an entry in the Cambridge
# Structural Database, then it will include bibliographic, chemical,
# crystal, experimental, refinement or atomic coordinate data resulting
# from the CCDC's data processing and validation procedures.
#
#######################################################################

data_CSD_CIF_PESCEX
_audit_creation_date 2013-05-19
_audit_creation_method CSD-ConQuest-V1
_database_code_CSD PESCEX
_database_code_depnum_ccdc_archive 'CCDC 907819'
_chemical_formula_sum 'C14 H26 N2 O6'
_chemical_formula_moiety
;
C14 H26 N2 O6
;
_journal_coden_Cambridge 177
_journal_volume 11
_journal_year 2013
_journal_page_first 803
_journal_name_full 'Org.Biomol.Chem. '
loop_
_publ_author_name
"M.G.Kumar"
"S.M.Mali"
"H.N.Gopi"
_chemical_name_systematic
;
4-((t-Butoxycarbonyl)amino)-5-methyl-3-(nitromethyl)heptanoic acid
;
_cell_volume    898.736
_exptl_crystal_colour 'colorless'
_exptl_crystal_density_diffrn 1.176
_exptl_crystal_description 'rod shaped'
_diffrn_ambient_temperature 100
#These two values have been output from a single CSD field.
_refine_ls_R_factor_gt 0.0441
_refine_ls_wR_factor_gt 0.0441
_symmetry_cell_setting monoclinic
_symmetry_space_group_name_H-M 'P 21'
_symmetry_Int_Tables_number 4
loop_
_symmetry_equiv_pos_site_id
_symmetry_equiv_pos_as_xyz
1 x,y,z
2 -x,1/2+y,-z
_cell_length_a 11.226(8)
_cell_length_b 7.133(5)
_cell_length_c 12.018(9)
_cell_angle_alpha 90
_cell_angle_beta 110.948(15)
_cell_angle_gamma 90
_cell_formula_units_Z 2
loop_
_atom_type_symbol
_atom_type_radius_bond
C 0.68
H 0.23
N 0.68
O 0.68
loop_
_atom_site_label
_atom_site_type_symbol
_atom_site_fract_x
_atom_site_fract_y
_atom_site_fract_z
O1 O 0.32378(11) 0.45800(17) 0.70791(11)
O2 O 0.38667(12) 0.15511(18) 0.75401(12)
O3 O 0.41538(11) 0.84868(19) 0.88026(13)
H1 H 0.39880 0.94460 0.84000
O4 O 0.23009(14) 0.9117(2) 0.90064(16)
O5 O 0.1687(2) 0.5310(4) 1.18928(17)
O6 O 0.36005(16) 0.4371(3) 1.24709(14)
N1 N 0.24523(13) 0.2915(2) 0.82303(13)
H2 H 0.24460 0.18960 0.86110
N2 N 0.25456(17) 0.4504(2) 1.17286(15)
C1 C 0.39257(17) 0.4801(3) 0.62356(17)
C2 C 0.36189(19) 0.6826(3) 0.5831(2)
H3 H 0.27110 0.69930 0.55060
H4 H 0.39730 0.71120 0.52330
H5 H 0.39790 0.76500 0.65000
C3 C 0.3380(2) 0.3444(4) 0.52135(19)
H6 H 0.35930 0.21850 0.54970
H7 H 0.37320 0.37060 0.46100
H8 H 0.24700 0.35800 0.48840
C4 C 0.53448(17) 0.4547(4) 0.6885(2)
H9 H 0.56160 0.52890 0.75980
H10 H 0.57940 0.49430 0.63790
H11 H 0.55250 0.32500 0.70880
C5 C 0.32260(16) 0.2937(2) 0.75996(15)
C6 C 0.16153(14) 0.4420(2) 0.83484(15)
H12 H 0.16300 0.54230 0.77960
C7 C 0.02399(16) 0.3658(3) 0.79468(18)
H13 H 0.02610 0.25320 0.84210
C8 C -0.0343(2) 0.4607(5) 0.5745(2)
H14 H -0.08760 0.55910 0.58500
H15 H -0.07090 0.41130 0.49520
H16 H 0.04910 0.50980 0.58670
C9 C -0.02381(19) 0.3056(3) 0.66406(19)
H17 H 0.03320 0.21000 0.65450
H18 H -0.10720 0.24850 0.64500
C10 C -0.06646(19) 0.5050(4) 0.8207(3)
H19 H -0.05490 0.62710 0.79250
H20 H -0.04820 0.51010 0.90500
H21 H -0.15300 0.46510 0.78080
C11 C 0.21331(16) 0.5236(2) 0.96157(16)
H22 H 0.15090 0.61390 0.96940
C12 C 0.2297(2) 0.3674(3) 1.05353(17)
H23 H 0.15300 0.29150 1.03080
H24 H 0.30030 0.28710 1.05600
C13 C 0.33929(16) 0.6268(3) 0.98431(17)
H25 H 0.37940 0.65140 1.06900
H26 H 0.39600 0.54700 0.96060
C14 C 0.32115(16) 0.8101(2) 0.91704(16)
#END
