
#######################################################################
#
#                 Cambridge Crystallographic Data Centre
#                                CCDC
#
#######################################################################
#
# If this CIF has been generated from an entry in the Cambridge
# Structural Database, then it will include bibliographic, chemical,
# crystal, experimental, refinement or atomic coordinate data resulting
# from the CCDC's data processing and validation procedures.
#
#######################################################################

data_CSD_CIF_PESHOK
_audit_creation_date 1994-05-10
_audit_creation_method CSD-ConQuest-V1
_database_code_CSD PESHOK
_chemical_formula_sum 'C29 H34 N2 O11'
_chemical_formula_moiety
;
C29 H34 N2 O11
;
_journal_coden_Cambridge 4
_journal_volume 115
_journal_year 1993
_journal_page_first 7152
_journal_name_full 'J.Am.Chem.Soc. '
loop_
_publ_author_name
"R.E.Ireland"
"J.D.Armstrong III"
"J.Lebreton"
"R.S.Meissner"
"M.A.Rizzacasa"
_chemical_name_systematic
;
2(R)-Ethyl-2-(5(R)-hydroxymethyl-3(S)-methyl-2(R)-tetrahydrofuranyl)-3(R),4(S)
-((dimethylmethylene)dioxy)-5(S)-(benzyloxy)tetrahydrofuran 
3,5-dinitrobenzoate
;
_cell_volume   2985.789
_exptl_crystal_colour 'colorless'
_exptl_crystal_density_diffrn 1.305
_diffrn_ambient_temperature 153.15
#These two values have been output from a single CSD field.
_refine_ls_R_factor_gt 0.058
_refine_ls_wR_factor_gt 0.058
_symmetry_cell_setting orthorhombic
_symmetry_space_group_name_H-M 'P 21 21 21'
_symmetry_Int_Tables_number 19
loop_
_symmetry_equiv_pos_site_id
_symmetry_equiv_pos_as_xyz
1 x,y,z
2 1/2+x,1/2-y,-z
3 -x,1/2+y,1/2-z
4 1/2-x,-y,1/2+z
_cell_length_a 8.413(2)
_cell_length_b 15.283(4)
_cell_length_c 23.222(6)
_cell_angle_alpha 90
_cell_angle_beta 90
_cell_angle_gamma 90
_cell_formula_units_Z 4
loop_
_atom_type_symbol
_atom_type_radius_bond
C 0.68
N 0.68
O 0.68
loop_
_atom_site_label
_atom_site_type_symbol
_atom_site_fract_x
_atom_site_fract_y
_atom_site_fract_z
O1 O 0.3200(6) 0.0491(3) 0.4078(2)
O2 O 0.3586(6) 0.0132(4) 0.5380(2)
O3 O 0.1423(6) 0.0970(3) 0.5267(2)
O4 O 0.1254(6) 0.2033(3) 0.3623(2)
O5 O 0.1871(7) 0.2395(3) 0.2448(2)
O6 O 0.2104(9) 0.3607(4) 0.1917(2)
O7 O 0.3294(7) -0.1047(4) 0.4068(2)
O8 O 0.043(1) 0.3363(6) -0.0105(3)
O9 O -0.122(1) 0.2368(7) -0.0354(3)
O10 O -0.241(1) 0.0015(6) 0.0967(5)
O11 O -0.106(1) -0.0075(5) 0.1764(4)
N1 N -0.034(1) 0.2711(7) -0.0008(4)
N2 N -0.146(1) 0.0294(6) 0.1315(6)
C1 C 0.366(1) -0.0264(6) 0.4376(4)
C2 C 0.275(1) -0.0286(5) 0.4931(3)
C3 C 0.131(1) 0.0333(5) 0.4821(3)
C4 C 0.158(1) 0.0713(5) 0.4225(3)
C5 C 0.146(1) 0.1724(4) 0.4197(3)
C6 C 0.2893(9) 0.2218(5) 0.4436(3)
C7 C 0.383(1) 0.2472(5) 0.3893(4)
C8 C 0.283(1) 0.2166(5) 0.3388(3)
C9 C 0.272(1) 0.2820(5) 0.2921(4)
C10 C 0.166(1) 0.2873(6) 0.1967(4)
C11 C 0.081(1) 0.2372(5) 0.1528(3)
C12 C 0.065(1) 0.2743(5) 0.0982(3)
C13 C -0.020(1) 0.2313(6) 0.0568(4)
C14 C -0.088(1) 0.1519(6) 0.0667(4)
C15 C -0.072(1) 0.1168(6) 0.1200(4)
C16 C 0.012(1) 0.1558(5) 0.1627(4)
C17 C 0.240(1) 0.3008(6) 0.4780(4)
C18 C 0.044(1) 0.0277(5) 0.3784(3)
C19 C -0.129(1) 0.0510(6) 0.3861(4)
C20 C 0.245(1) 0.0633(5) 0.5699(4)
C21 C 0.327(1) 0.1384(6) 0.5982(4)
C22 C 0.155(1) 0.0061(6) 0.6116(4)
C23 C 0.412(2) -0.1081(9) 0.3522(5)
C24 C 0.367(1) -0.1877(6) 0.3187(4)
C25 C 0.439(1) -0.2643(6) 0.3315(4)
C26 C 0.412(1) -0.3385(6) 0.2979(4)
C27 C 0.312(1) -0.3326(7) 0.2524(4)
C28 C 0.238(1) -0.2560(7) 0.2394(4)
C29 C 0.267(1) -0.1840(8) 0.2718(5)
#END
