
#######################################################################
#
#                 Cambridge Crystallographic Data Centre
#                                CCDC
#
#######################################################################
#
# If this CIF has been generated from an entry in the Cambridge
# Structural Database, then it will include bibliographic, chemical,
# crystal, experimental, refinement or atomic coordinate data resulting
# from the CCDC's data processing and validation procedures.
#
#######################################################################

data_CSD_CIF_PESNEJ
_audit_creation_date 2018-03-08
_audit_creation_method CSD-ConQuest-V1
_database_code_CSD PESNEJ
_database_code_depnum_ccdc_archive 'CCDC 1565535'
_chemical_formula_sum 'C19 H13 N3 O2'
_chemical_formula_moiety
;
C19 H13 N3 O2
;
_journal_coeditor_code "uk3146"
_journal_coden_Cambridge 1777
_journal_volume 74
_journal_year 2018
_journal_page_first 428
_journal_name_full 'Acta Crystallogr.,Sect.C:Cryst.Struct.Chem. '
loop_
_publ_author_name
"M.I.Garcia-Aranda"
"C.Z.Gomez-Castro"
"E.V.Garcia-Baez"
"Y.G.Gomez"
"J.L.Castrejon-Flores"
"I.I.Padilla-Martinez"
_chemical_name_systematic
;
1-(4-nitrophenyl)-2-phenyl-1H-benzimidazole
;
_cell_volume   3007.584
_exptl_crystal_colour 'colorless'
_exptl_crystal_density_diffrn 1.393
_exptl_crystal_description 'block'
_diffrn_ambient_temperature 100
#These two values have been output from a single CSD field.
_refine_ls_R_factor_gt 0.0542
_refine_ls_wR_factor_gt 0.0542
_symmetry_cell_setting triclinic
_symmetry_space_group_name_H-M 'P -1'
_symmetry_Int_Tables_number 2
loop_
_symmetry_equiv_pos_site_id
_symmetry_equiv_pos_as_xyz
1 x,y,z
2 -x,-y,-z
_cell_length_a 10.2685(7)
_cell_length_b 15.1411(10)
_cell_length_c 19.4521(14)
_cell_angle_alpha 91.886(1)
_cell_angle_beta 95.725(1)
_cell_angle_gamma 90.118(1)
_cell_formula_units_Z 8
loop_
_atom_type_symbol
_atom_type_radius_bond
C 0.68
H 0.23
N 0.68
O 0.68
loop_
_atom_site_label
_atom_site_type_symbol
_atom_site_fract_x
_atom_site_fract_y
_atom_site_fract_z
C1 C 0.1515(2) 1.07279(14) 0.36289(11)
C2 C -0.1750(2) 1.03061(15) 0.39161(12)
H1 H -0.23220 1.07670 0.37610
C3 C -0.2219(2) 0.95717(15) 0.42144(12)
H2 H -0.31270 0.95280 0.42650
C4 C -0.1387(2) 0.88896(15) 0.44450(12)
H3 H -0.17370 0.84010 0.46610
C5 C -0.0065(2) 0.89132(15) 0.43651(11)
H4 H 0.05010 0.84440 0.45090
C6 C 0.0395(2) 0.96505(14) 0.40655(11)
C7 C -0.0420(2) 1.03526(14) 0.38496(11)
C8 C 0.2716(2) 0.92931(14) 0.38947(11)
C9 C 0.3151(2) 0.88616(14) 0.44931(11)
H5 H 0.27330 0.89570 0.49030
C10 C 0.4198(2) 0.82938(14) 0.44862(11)
H6 H 0.45070 0.79900 0.48890
C11 C 0.4790(2) 0.81746(14) 0.38844(11)
C12 C 0.4346(2) 0.85825(14) 0.32788(11)
H7 H 0.47550 0.84770 0.28670
C13 C 0.3291(2) 0.91468(14) 0.32888(12)
H8 H 0.29630 0.94330 0.28800
C14 C 0.2621(2) 1.12559(14) 0.34408(11)
C15 C 0.3883(2) 1.11962(14) 0.37722(12)
H9 H 0.40620 1.07850 0.41270
C16 C 0.4880(2) 1.17298(15) 0.35899(12)
H10 H 0.57370 1.16830 0.38200
C17 C 0.4630(2) 1.23322(15) 0.30731(12)
H11 H 0.53180 1.26920 0.29440
C18 C 0.3382(2) 1.24090(15) 0.27461(12)
H12 H 0.32090 1.28290 0.23960
C19 C 0.2384(2) 1.18783(15) 0.29252(12)
H13 H 0.15280 1.19350 0.26970
N1 N 0.16391(17) 0.98928(12) 0.39070(9)
N2 N 0.03091(17) 1.10186(12) 0.35902(9)
N3 N 0.59586(18) 0.76198(11) 0.38945(9)
O1 O 0.63947(15) 0.7312(1) 0.44486(8)
O2 O 0.64664(15) 0.74983(10) 0.33559(8)
C20 C 0.2973(2) 0.57288(14) 0.36167(11)
C21 C 0.6346(2) 0.53140(15) 0.39070(12)
H14 H 0.68580 0.57770 0.37520
C22 C 0.6931(2) 0.45797(15) 0.42078(12)
H15 H 0.78580 0.45370 0.42580
C23 C 0.6179(2) 0.38991(15) 0.44392(12)
H16 H 0.66100 0.34110 0.46550
C24 C 0.4833(2) 0.39180(15) 0.43632(12)
H17 H 0.43220 0.34510 0.45140
C25 C 0.4260(2) 0.46550(14) 0.40549(11)
C26 C 0.4991(2) 0.53540(14) 0.38393(11)
C27 C 0.1871(2) 0.43012(14) 0.38899(11)
C28 C 0.1658(2) 0.38662(14) 0.44859(11)
H18 H 0.22350 0.39610 0.48950
C29 C 0.0607(2) 0.32964(14) 0.44849(11)
H19 H 0.04500 0.29950 0.48890
C30 C -0.0211(2) 0.31758(14) 0.38797(11)
C31 C 0.0004(2) 0.35821(14) 0.32740(11)
H20 H -0.05680 0.34790 0.28640
C32 C 0.1068(2) 0.41403(14) 0.32790(11)
H21 H 0.12530 0.44140 0.28670
C33 C 0.1793(2) 0.62558(14) 0.34271(11)
C34 C 0.0668(2) 0.61938(15) 0.37676(12)
H22 H 0.06300 0.57860 0.41260
C35 C -0.0397(2) 0.67267(15) 0.35837(12)
H23 H -0.11660 0.66780 0.38140
C36 C -0.0351(2) 0.73325(15) 0.30653(12)
H24 H -0.10870 0.76920 0.29380
C37 C 0.0771(2) 0.74088(16) 0.27373(12)
H25 H 0.08130 0.78280 0.23870
C38 C 0.1836(2) 0.68775(15) 0.29154(12)
H26 H 0.26060 0.69360 0.26870
N4 N 0.29532(17) 0.48948(12) 0.38976(9)
N5 N 0.41651(18) 0.60195(12) 0.35743(9)
N6 N -0.13782(18) 0.26153(12) 0.38922(9)
O3 O -0.20837(15) 0.24875(10) 0.33517(8)
O4 O -0.16081(15) 0.23189(10) 0.44480(8)
C39 C 0.6046(2) 0.32149(14) 0.13331(11)
C40 C 0.2747(2) 0.26202(16) 0.08789(12)
H27 H 0.21610 0.30710 0.09980
C41 C 0.2294(2) 0.18343(17) 0.05630(12)
H28 H 0.13780 0.17470 0.04590
C42 C 0.3148(2) 0.11655(16) 0.03923(12)
H29 H 0.27980 0.06330 0.01750
C43 C 0.4486(2) 0.12550(15) 0.05296(12)
H30 H 0.50650 0.07960 0.04170
C44 C 0.4943(2) 0.20493(15) 0.08407(11)
C45 C 0.4102(2) 0.27280(15) 0.10166(11)
C46 C 0.7330(2) 0.18147(14) 0.11465(11)
C47 C 0.7744(2) 0.13377(15) 0.05877(12)
H31 H 0.72950 0.13880 0.01400
C48 C 0.8816(2) 0.07892(15) 0.06895(12)
H32 H 0.91180 0.04610 0.03130
C49 C 0.9439(2) 0.07272(14) 0.13498(12)
C50 C 0.9039(2) 0.11920(15) 0.19113(12)
H33 H 0.94840 0.11350 0.23600
C51 C 0.7967(2) 0.17468(14) 0.18037(11)
H34 H 0.76730 0.20790 0.21810
C52 C 0.7150(2) 0.38079(14) 0.15714(11)
C53 C 0.8333(2) 0.37789(15) 0.12712(12)
H35 H 0.84670 0.33370 0.09270
C54 C 0.9308(2) 0.43909(15) 0.14735(12)
H36 H 1.01110 0.43680 0.12700
C55 C 0.9117(2) 0.50382(15) 0.19727(12)
H37 H 0.97830 0.54650 0.21050
C56 C 0.7959(2) 0.50634(15) 0.22780(12)
H38 H 0.78340 0.55040 0.26240
C57 C 0.6984(2) 0.44524(15) 0.20822(12)
H39 H 0.61930 0.44710 0.22970
N7 N 0.61997(18) 0.23668(12) 0.10492(9)
N8 N 0.48177(18) 0.34492(12) 0.13137(10)
N9 N 1.05829(19) 0.01485(12) 0.14548(11)
O5 O 1.10452(15) -0.01608(10) 0.09414(9)
O6 O 1.10234(17) 0.00072(11) 0.20495(9)
C58 C 0.2428(2) 0.17767(14) 0.86536(11)
C59 C -0.0708(2) 0.22821(15) 0.91233(12)
H40 H -0.13090 0.18070 0.90190
C60 C -0.1090(2) 0.30663(15) 0.94241(12)
H41 H -0.19700 0.31320 0.95280
C61 C -0.0207(2) 0.37656(15) 0.95792(12)
H42 H -0.05010 0.42940 0.97890
C62 C 0.1076(2) 0.37108(14) 0.94363(11)
H43 H 0.16720 0.41880 0.95400
C63 C 0.1456(2) 0.29211(15) 0.91321(11)
C64 C 0.0588(2) 0.22124(14) 0.89785(11)
C65 C 0.3739(2) 0.31956(14) 0.88461(11)
C66 C 0.4341(2) 0.36686(15) 0.94198(12)
H44 H 0.40240 0.36190 0.98590
C67 C 0.5399(2) 0.42075(15) 0.93455(12)
H45 H 0.58300 0.45220 0.97340
C68 C 0.5819(2) 0.42816(14) 0.86987(12)
C69 C 0.5231(2) 0.38242(14) 0.81240(12)
H46 H 0.55390 0.38870 0.76840
C70 C 0.4184(2) 0.32725(14) 0.82019(11)
H47 H 0.37720 0.29470 0.78140
C71 C 0.3455(2) 0.11983(14) 0.84147(12)
C72 C 0.4752(2) 0.12432(15) 0.87140(12)
H48 H 0.50120 0.16940 0.90510
C73 C 0.5657(2) 0.06312(15) 0.85184(12)
H49 H 0.65380 0.06670 0.87210
C74 C 0.5289(2) -0.00323(15) 0.80300(12)
H50 H 0.59080 -0.04590 0.79050
C75 C 0.4010(2) -0.00682(16) 0.77255(12)
H51 H 0.37570 -0.05150 0.73840
C76 C 0.3104(2) 0.05402(15) 0.79144(12)
H52 H 0.22310 0.05100 0.77010
N10 N 0.26408(18) 0.26361(12) 0.89163(9)
N11 N 0.12216(18) 0.15069(12) 0.86829(10)
N12 N 0.69384(19) 0.48662(13) 0.86188(11)
O7 O 0.75194(16) 0.52034(10) 0.91447(9)
O8 O 0.72322(18) 0.49830(12) 0.80348(9)
#END
