
#######################################################################
#
#                 Cambridge Crystallographic Data Centre
#                                CCDC
#
#######################################################################
#
# If this CIF has been generated from an entry in the Cambridge
# Structural Database, then it will include bibliographic, chemical,
# crystal, experimental, refinement or atomic coordinate data resulting
# from the CCDC's data processing and validation procedures.
#
#######################################################################

data_CSD_CIF_PESNAF
_audit_creation_date 2018-03-08
_audit_creation_method CSD-ConQuest-V1
_database_code_CSD PESNAF
_database_code_depnum_ccdc_archive 'CCDC 1565536'
_chemical_formula_sum 'C13 H9 N3 O2'
_chemical_formula_moiety
;
C13 H9 N3 O2
;
_journal_coeditor_code "uk3146"
_journal_coden_Cambridge 1777
_journal_volume 74
_journal_year 2018
_journal_page_first 428
_journal_name_full 'Acta Crystallogr.,Sect.C:Cryst.Struct.Chem. '
loop_
_publ_author_name
"M.I.Garcia-Aranda"
"C.Z.Gomez-Castro"
"E.V.Garcia-Baez"
"Y.G.Gomez"
"J.L.Castrejon-Flores"
"I.I.Padilla-Martinez"
_chemical_name_systematic
;
1-(4-nitrophenyl)-1H-benzimidazole
;
_cell_volume   4319.874
_exptl_crystal_colour 'colorless'
_exptl_crystal_density_diffrn 1.471
_exptl_crystal_description 'block'
_diffrn_ambient_temperature 293
#These two values have been output from a single CSD field.
_refine_ls_R_factor_gt 0.0724
_refine_ls_wR_factor_gt 0.0724
_symmetry_cell_setting monoclinic
_symmetry_space_group_name_H-M 'C 2/c'
_symmetry_Int_Tables_number 15
loop_
_symmetry_equiv_pos_site_id
_symmetry_equiv_pos_as_xyz
1 x,y,z
2 -x,y,1/2-z
3 1/2+x,1/2+y,z
4 1/2-x,1/2+y,1/2-z
5 -x,-y,-z
6 x,-y,-1/2+z
7 -1/2-x,-1/2-y,-z
8 -1/2+x,-1/2-y,-1/2+z
_cell_length_a 25.074(3)
_cell_length_b 7.1422(8)
_cell_length_c 24.283(3)
_cell_angle_alpha 90
_cell_angle_beta 96.599(2)
_cell_angle_gamma 90
_cell_formula_units_Z 16
loop_
_atom_type_symbol
_atom_type_radius_bond
C 0.68
H 0.23
N 0.68
O 0.68
loop_
_atom_site_label
_atom_site_type_symbol
_atom_site_fract_x
_atom_site_fract_y
_atom_site_fract_z
C1 C 0.25381(12) 0.5904(4) 0.40442(12)
H1 H 0.23850 0.62340 0.43620
C2 C 0.35364(11) 0.5709(4) 0.31521(13)
H2 H 0.38460 0.63410 0.32940
C3 C 0.35045(12) 0.4820(5) 0.26494(13)
H3 H 0.37930 0.48790 0.24410
C4 C 0.30440(12) 0.3825(4) 0.24458(13)
H4 H 0.30380 0.32100 0.21080
C5 C 0.25996(11) 0.3720(4) 0.27264(11)
H5 H 0.22960 0.30480 0.25880
C6 C 0.26273(10) 0.4672(4) 0.32285(11)
C7 C 0.30881(11) 0.5638(4) 0.34450(11)
C8 C 0.17268(11) 0.4276(4) 0.36043(11)
C9 C 0.13949(11) 0.4267(4) 0.31083(12)
H6 H 0.15310 0.45970 0.27810
C10 C 0.08636(11) 0.3770(4) 0.30986(12)
H7 H 0.06390 0.37460 0.27660
C11 C 0.06694(11) 0.3311(4) 0.35868(12)
C12 C 0.09945(12) 0.3323(4) 0.40834(12)
H8 H 0.08560 0.30180 0.44110
C13 C 0.15252(11) 0.3792(4) 0.40897(12)
H9 H 0.17500 0.37830 0.44220
N1 N 0.22712(9) 0.4857(3) 0.36256(9)
N2 N 0.30201(10) 0.6395(4) 0.39623(10)
N3 N 0.01039(10) 0.2810(4) 0.35820(11)
O1 O -0.01830(9) 0.2855(4) 0.31412(10)
O2 O -0.00616(9) 0.2363(4) 0.40131(11)
C14 C 0.49595(12) 0.3051(5) 0.32353(13)
H10 H 0.47170 0.30610 0.29150
C15 C 0.61964(12) 0.3622(5) 0.40363(16)
H11 H 0.64630 0.40210 0.38270
C16 C 0.63054(13) 0.3330(5) 0.45930(16)
H12 H 0.66510 0.35490 0.47630
C17 C 0.59116(13) 0.2711(5) 0.49148(14)
H13 H 0.60010 0.25070 0.52920
C18 C 0.53921(12) 0.2400(5) 0.46773(13)
H14 H 0.51270 0.19850 0.48870
C19 C 0.52828(11) 0.2731(4) 0.41152(12)
C20 C 0.56765(11) 0.3307(4) 0.37923(13)
C21 C 0.42893(11) 0.2110(4) 0.38619(11)
C22 C 0.40956(11) 0.2813(4) 0.43321(11)
H15 H 0.43110 0.35870 0.45730
C23 C 0.35848(11) 0.2365(4) 0.44432(11)
H16 H 0.34540 0.28020 0.47620
C24 C 0.32713(11) 0.1251(4) 0.40702(11)
C25 C 0.34509(11) 0.0603(4) 0.35931(12)
H17 H 0.32270 -0.01010 0.33410
C26 C 0.39664(11) 0.1007(4) 0.34931(12)
H18 H 0.40980 0.05400 0.31780
N4 N 0.48178(9) 0.2565(3) 0.37450(9)
N5 N 0.54622(10) 0.3496(4) 0.32391(11)
N6 N 0.27291(10) 0.0751(4) 0.41822(11)
O3 O 0.26246(9) 0.0800(5) 0.46603(10)
O4 O 0.24054(8) 0.0308(3) 0.37950(9)
#END
