
#######################################################################
#
#                 Cambridge Crystallographic Data Centre
#                                CCDC
#
#######################################################################
#
# If this CIF has been generated from an entry in the Cambridge
# Structural Database, then it will include bibliographic, chemical,
# crystal, experimental, refinement or atomic coordinate data resulting
# from the CCDC's data processing and validation procedures.
#
#######################################################################

data_CSD_CIF_PESQOW
_audit_creation_date 2018-03-08
_audit_creation_method CSD-ConQuest-V1
_database_code_CSD PESQOW
_database_code_depnum_ccdc_archive 'CCDC 1826170'
_chemical_formula_sum 'C20 H15 N3 O2'
_chemical_formula_moiety
;
C20 H15 N3 O2
;
_journal_coeditor_code "uk3146"
_journal_coden_Cambridge 1777
_journal_volume 74
_journal_year 2018
_journal_page_first 428
_journal_name_full 'Acta Crystallogr.,Sect.C:Cryst.Struct.Chem. '
loop_
_publ_author_name
"M.I.Garcia-Aranda"
"C.Z.Gomez-Castro"
"E.V.Garcia-Baez"
"Y.G.Gomez"
"J.L.Castrejon-Flores"
"I.I.Padilla-Martinez"
_chemical_name_systematic
;
2-(3-methylphenyl)-1-(4-nitrophenyl)-1H-benzimidazole
;
_cell_volume    815.650
_exptl_crystal_colour 'yellow'
_exptl_crystal_density_diffrn 1.341
_exptl_crystal_description 'block'
_diffrn_ambient_temperature 273
#These two values have been output from a single CSD field.
_refine_ls_R_factor_gt 0.0498
_refine_ls_wR_factor_gt 0.0498
_symmetry_cell_setting triclinic
_symmetry_space_group_name_H-M 'P -1'
_symmetry_Int_Tables_number 2
loop_
_symmetry_equiv_pos_site_id
_symmetry_equiv_pos_as_xyz
1 x,y,z
2 -x,-y,-z
_cell_length_a 8.186(4)
_cell_length_b 9.806(4)
_cell_length_c 11.264(5)
_cell_angle_alpha 112.825(7)
_cell_angle_beta 98.468(7)
_cell_angle_gamma 94.276(7)
_cell_formula_units_Z 2
loop_
_atom_type_symbol
_atom_type_radius_bond
C 0.68
H 0.23
N 0.68
O 0.68
loop_
_atom_site_label
_atom_site_type_symbol
_atom_site_fract_x
_atom_site_fract_y
_atom_site_fract_z
C1 C 1.11569(16) 0.81089(14) 0.92065(14)
C2 C 1.36041(19) 0.97893(17) 1.23845(17)
H1 H 1.46730 1.01930 1.23940
C3 C 1.3122(2) 0.98585(18) 1.35173(17)
H2 H 1.38790 1.03220 1.43080
C4 C 1.1528(2) 0.92531(18) 1.35185(16)
H3 H 1.12480 0.93260 1.43090
C5 C 1.0360(2) 0.85496(16) 1.23786(15)
H4 H 0.92970 0.81370 1.23760
C6 C 1.08493(16) 0.84889(14) 1.12389(14)
C7 C 1.24396(16) 0.90932(14) 1.12153(15)
C8 C 0.84671(15) 0.69016(14) 0.94718(13)
C9 C 0.70368(17) 0.75156(15) 0.97650(14)
H5 H 0.70980 0.85340 1.02660
C10 C 0.55165(16) 0.66014(16) 0.93071(14)
H6 H 0.45390 0.69900 0.95000
C11 C 0.54769(15) 0.51089(16) 0.85613(13)
C12 C 0.68956(17) 0.44715(15) 0.82913(14)
H7 H 0.68320 0.34500 0.78040
C13 C 0.84127(16) 0.53875(15) 0.87623(14)
H8 H 0.93930 0.49880 0.86030
C14 C 1.08101(17) 0.76249(15) 0.77786(14)
C15 C 0.92362(19) 0.74599(17) 0.70399(16)
H9 H 0.83160 0.76330 0.74460
C16 C 0.9041(2) 0.70399(18) 0.57068(17)
H10 H 0.79870 0.69410 0.52160
C17 C 1.0384(2) 0.67648(19) 0.50893(17)
H11 H 1.02250 0.64600 0.41840
C18 C 1.1972(2) 0.69374(18) 0.58030(16)
C19 C 1.21581(19) 0.73705(16) 0.71352(15)
H12 H 1.32200 0.74990 0.76250
C20 C 1.3455(3) 0.6623(3) 0.5141(2)
H13 H 1.44210 0.67020 0.57740
H14 H 1.36540 0.73360 0.47680
H15 H 1.32340 0.56320 0.44580
N1 N 1.00386(13) 0.78549(12) 0.99329(11)
N2 N 1.25900(13) 0.88564(13) 0.99495(12)
N3 N 0.38467(15) 0.41564(17) 0.80090(14)
O1 O 0.26128(13) 0.46980(16) 0.83535(15)
O2 O 0.37989(17) 0.28725(17) 0.72329(15)
#END
