
#######################################################################
#
#                 Cambridge Crystallographic Data Centre
#                                CCDC
#
#######################################################################
#
# If this CIF has been generated from an entry in the Cambridge
# Structural Database, then it will include bibliographic, chemical,
# crystal, experimental, refinement or atomic coordinate data resulting
# from the CCDC's data processing and validation procedures.
#
#######################################################################

data_CSD_CIF_PEVNEL
_audit_creation_date 2013-05-19
_audit_creation_method CSD-ConQuest-V1
_database_code_CSD PEVNEL
_database_code_depnum_ccdc_archive 'CCDC 906553'
_chemical_formula_sum 'C19 H17 N1 O5'
_chemical_formula_moiety
;
C19 H17 N1 O5
;
_journal_coden_Cambridge 1336
_journal_volume 14
_journal_year 2012
_journal_page_first 6060
_journal_name_full 'Org.Lett. '
loop_
_publ_author_name
"Jun-gang Wang"
"Meng Wang"
"Jia-chen Xiang"
"Yan-ping Zhu"
"Wei-jian Xue"
"An-xin Wu"
_chemical_name_systematic
;
Ethyl 3-(4-nitrophenyl)-1,5-dihydro-2-benzoxepine-4-carboxylate
;
_cell_volume   1719.167
_exptl_crystal_colour 'colorless'
_exptl_crystal_density_diffrn 1.311
_diffrn_ambient_temperature 298
#These two values have been output from a single CSD field.
_refine_ls_R_factor_gt 0.0726
_refine_ls_wR_factor_gt 0.0726
_symmetry_cell_setting monoclinic
_symmetry_space_group_name_H-M 'P 21/c'
_symmetry_Int_Tables_number 14
loop_
_symmetry_equiv_pos_site_id
_symmetry_equiv_pos_as_xyz
1 x,y,z
2 -x,1/2+y,1/2-z
3 -x,-y,-z
4 x,-1/2-y,-1/2+z
_cell_length_a 8.7664(12)
_cell_length_b 8.7325(11)
_cell_length_c 22.469(3)
_cell_angle_alpha 90
_cell_angle_beta 91.846(3)
_cell_angle_gamma 90
_cell_formula_units_Z 4
loop_
_atom_type_symbol
_atom_type_radius_bond
C 0.68
H 0.23
N 0.68
O 0.68
loop_
_atom_site_label
_atom_site_type_symbol
_atom_site_fract_x
_atom_site_fract_y
_atom_site_fract_z
C1 C 0.8703(4) 0.2527(3) 0.39946(13)
H1 H 0.77520 0.23290 0.41490
C2 C 0.9743(5) 0.3427(4) 0.43110(15)
H2 H 0.94860 0.38300 0.46770
C3 C 1.1150(5) 0.3730(4) 0.40891(18)
H3 H 1.18440 0.43420 0.43020
C4 C 1.1528(4) 0.3125(4) 0.35492(15)
H4 H 1.24800 0.33300 0.33970
C5 C 1.0505(3) 0.2211(3) 0.32292(12)
C6 C 0.9072(3) 0.1919(3) 0.34486(12)
C7 C 0.7968(3) 0.0947(3) 0.30895(11)
H5 H 0.70280 0.08640 0.33030
H6 H 0.83920 -0.00750 0.30570
C8 C 1.0865(3) 0.1595(3) 0.26353(12)
H7 H 1.19560 0.16590 0.25810
H8 H 1.05720 0.05250 0.26130
C9 C 0.7591(3) 0.1544(3) 0.24668(11)
C10 C 0.8526(3) 0.2271(3) 0.20948(11)
C11 C 0.8030(3) 0.3140(3) 0.15576(10)
C12 C 0.6752(3) 0.4087(3) 0.15674(11)
H9 H 0.61730 0.41200 0.19070
C13 C 0.6333(3) 0.4972(3) 0.10856(12)
H10 H 0.54700 0.55890 0.10940
C14 C 0.8487(3) 0.4037(3) 0.05671(11)
H11 H 0.90690 0.40350 0.02280
C15 C 0.8903(3) 0.3139(3) 0.10513(11)
H12 H 0.97720 0.25300 0.10390
C16 C 0.7207(3) 0.4930(3) 0.05928(11)
C17 C 0.5969(3) 0.1330(3) 0.22823(13)
C18 C 0.4231(4) 0.0735(4) 0.14802(15)
H13 H 0.37210 0.17150 0.15160
H14 H 0.36560 -0.00300 0.16910
C19 C 0.4347(4) 0.0306(5) 0.08481(17)
H15 H 0.50230 0.10020 0.06570
H16 H 0.33550 0.03540 0.06550
H17 H 0.47400 -0.07170 0.08210
N1 N 0.6787(3) 0.5917(3) 0.00852(12)
O1 O 1.00678(18) 0.24399(19) 0.21655(7)
O2 O 0.4911(2) 0.1545(3) 0.26039(9)
O3 O 0.57903(19) 0.0826(2) 0.17237(9)
O4 O 0.5639(3) 0.6698(3) 0.01194(10)
O5 O 0.7589(3) 0.5906(3) -0.03468(10)
#END
