
#######################################################################
#
#                 Cambridge Crystallographic Data Centre
#                                CCDC
#
#######################################################################
#
# If this CIF has been generated from an entry in the Cambridge
# Structural Database, then it will include bibliographic, chemical,
# crystal, experimental, refinement or atomic coordinate data resulting
# from the CCDC's data processing and validation procedures.
#
#######################################################################

data_CSD_CIF_PEVNIN
_audit_creation_date 1994-03-29
_audit_creation_method CSD-ConQuest-V1
_database_code_CSD PEVNIN
_database_code_depnum_ccdc_archive 'CCDC 1231629'
_chemical_formula_sum 'C13 H12 N4 O8'
_chemical_formula_moiety
;
C13 H12 N4 O8
;
_journal_coden_Cambridge 182
_journal_year 1993
_journal_page_first 1513
_journal_name_full 'Chem.Commun. '
loop_
_publ_author_name
"C.P.Butts"
"J.L.Calvert"
"L.Eberson"
"M.P.Hartshorn"
"W.T.Robinson"
_chemical_name_systematic
;
1,2-Dimethyl-r-3-nitro-1,2,4-(trinitromethanide-C,O,O')-3,4-dihydronaphthalene
;
_chemical_melting_point 481.15
_cell_volume   1472.209
_exptl_crystal_density_diffrn 1.589
_exptl_special_details
;
Melts with decomposition.

;
_diffrn_ambient_temperature 123
#These two values have been output from a single CSD field.
_refine_ls_R_factor_gt 0.0448
_refine_ls_wR_factor_gt 0.0448
_symmetry_cell_setting orthorhombic
_symmetry_space_group_name_H-M 'P 21 21 21'
_symmetry_Int_Tables_number 19
loop_
_symmetry_equiv_pos_site_id
_symmetry_equiv_pos_as_xyz
1 x,y,z
2 1/2+x,1/2-y,-z
3 -x,1/2+y,1/2-z
4 1/2-x,-y,1/2+z
_cell_length_a 8.661(2)
_cell_length_b 12.132(2)
_cell_length_c 14.011(2)
_cell_angle_alpha 90
_cell_angle_beta 90
_cell_angle_gamma 90
_cell_formula_units_Z 4
loop_
_atom_type_symbol
_atom_type_radius_bond
C 0.68
H 0.23
N 0.68
O 0.68
loop_
_atom_site_label
_atom_site_type_symbol
_atom_site_fract_x
_atom_site_fract_y
_atom_site_fract_z
O1 O 0.0289(3) 0.7695(2) 0.3893(2)
O2 O 0.1957(3) 0.6340(2) 0.3957(2)
O3 O 0.6447(3) 0.7748(2) 0.1689(2)
O4 O 0.6095(4) 0.9506(2) 0.1424(2)
O5 O 0.6477(3) 0.7653(2) 0.4059(2)
O6 O 0.7591(3) 0.9188(2) 0.3597(2)
O7 O 0.4077(3) 0.9884(2) 0.4016(2)
O8 O 0.3588(3) 1.0258(2) 0.2476(2)
N1 N 0.1622(4) 0.7328(3) 0.3909(2)
N2 N 0.5978(4) 0.8675(3) 0.1903(2)
N3 N 0.6554(4) 0.8502(3) 0.3582(2)
N4 N 0.4794(4) 0.9915(2) 0.3087(2)
C1 C 0.2087(4) 0.9775(3) 0.2820(3)
C2 C 0.2528(4) 0.9368(3) 0.3861(3)
C3 C 0.2981(4) 0.8130(3) 0.3888(3)
C4 C 0.3912(4) 0.7870(3) 0.2959(3)
C5 C 0.2675(5) 0.7103(3) 0.1442(2)
C6 C 0.1550(5) 0.7180(3) 0.0735(3)
C7 C 0.0530(5) 0.8071(3) 0.0723(3)
C8 C 0.0612(5) 0.8905(3) 0.1413(3)
C9 C 0.1759(4) 0.8852(3) 0.2111(3)
C10 C 0.2787(4) 0.7940(3) 0.2125(3)
C11 C 0.0951(5) 1.0722(3) 0.2799(3)
C12 C 0.1555(5) 0.9767(3) 0.4692(3)
C13 C 0.5195(4) 0.8739(3) 0.2889(3)
H1 H 0.3641(4) 0.7995(3) 0.4444(3)
H2 H 0.4361(4) 0.7129(3) 0.2996(3)
H3 H 0.3344(5) 0.6504(3) 0.1460(2)
H4 H 0.1476(5) 0.6637(3) 0.0269(3)
H5 H -0.0219(5) 0.8112(3) 0.0248(3)
H6 H -0.0087(5) 0.9487(3) 0.1405(3)
H7 H 0.0030(5) 1.0545(3) 0.2962(3)
H8 H 0.0946(5) 1.1020(3) 0.2204(3)
H9 H 0.1307(5) 1.1226(3) 0.3291(3)
H10 H 0.1611(5) 1.0611(3) 0.4789(3)
H11 H 0.1687(5) 0.9402(3) 0.5396(3)
H12 H 0.0308(5) 0.9589(3) 0.4630(3)
#END
