
#######################################################################
#
#                 Cambridge Crystallographic Data Centre
#                                CCDC
#
#######################################################################
#
# If this CIF has been generated from an entry in the Cambridge
# Structural Database, then it will include bibliographic, chemical,
# crystal, experimental, refinement or atomic coordinate data resulting
# from the CCDC's data processing and validation procedures.
#
#######################################################################

data_CSD_CIF_PEVNUB
_audit_creation_date 2013-05-19
_audit_creation_method CSD-ConQuest-V1
_database_code_CSD PEVNUB
_database_code_depnum_ccdc_archive 'CCDC 906550'
_chemical_formula_sum 'C19 H15 N1 O4'
_chemical_formula_moiety
;
C19 H15 N1 O4
;
_journal_coden_Cambridge 1336
_journal_volume 14
_journal_year 2012
_journal_page_first 6060
_journal_name_full 'Org.Lett. '
loop_
_publ_author_name
"Jun-gang Wang"
"Meng Wang"
"Jia-chen Xiang"
"Yan-ping Zhu"
"Wei-jian Xue"
"An-xin Wu"
_chemical_name_systematic
;
Ethyl 3-(4-nitrophenyl)-2-naphthoate
;
_cell_volume   1613.691
_exptl_crystal_density_diffrn 1.323
_exptl_crystal_description 'block'
_diffrn_ambient_temperature 298
#These two values have been output from a single CSD field.
_refine_ls_R_factor_gt 0.0328
_refine_ls_wR_factor_gt 0.0328
_symmetry_cell_setting orthorhombic
_symmetry_space_group_name_H-M 'P 21 21 21'
_symmetry_Int_Tables_number 19
loop_
_symmetry_equiv_pos_site_id
_symmetry_equiv_pos_as_xyz
1 x,y,z
2 1/2+x,1/2-y,-z
3 -x,1/2+y,1/2-z
4 1/2-x,-y,1/2+z
_cell_length_a 7.6981(10)
_cell_length_b 10.9144(14)
_cell_length_c 19.206(2)
_cell_angle_alpha 90
_cell_angle_beta 90
_cell_angle_gamma 90
_cell_formula_units_Z 4
loop_
_atom_type_symbol
_atom_type_radius_bond
C 0.68
H 0.23
N 0.68
O 0.68
loop_
_atom_site_label
_atom_site_type_symbol
_atom_site_fract_x
_atom_site_fract_y
_atom_site_fract_z
C1 C 0.0833(4) 0.7939(3) 0.25398(14)
H1 H 0.05440 0.85290 0.22100
C2 C 0.1297(4) 0.6762(3) 0.23226(13)
H2 H 0.13030 0.65740 0.18500
C3 C 0.1737(4) 0.5896(3) 0.27907(13)
H3 H 0.20590 0.51200 0.26380
C4 C 0.1714(3) 0.6157(2) 0.35156(12)
C5 C 0.1235(3) 0.7343(2) 0.37395(12)
C6 C 0.0799(3) 0.8232(3) 0.32286(13)
H4 H 0.04880 0.90200 0.33660
C7 C 0.1168(3) 0.7583(2) 0.44599(11)
H5 H 0.08540 0.83640 0.46070
C8 C 0.1546(3) 0.67122(19) 0.49543(11)
C9 C 0.2068(3) 0.55195(19) 0.47173(11)
C10 C 0.2126(3) 0.5274(2) 0.40195(12)
H6 H 0.24510 0.44940 0.38740
C11 C 0.2724(3) 0.4567(2) 0.52106(12)
C12 C 0.2957(4) 0.2421(2) 0.54054(14)
H7 H 0.23140 0.23410 0.58370
H8 H 0.41720 0.25540 0.55160
C13 C 0.2757(5) 0.1307(3) 0.4980(2)
H9 H 0.15450 0.11200 0.49290
H10 H 0.33340 0.06350 0.52040
H11 H 0.32610 0.14400 0.45290
C14 C 0.1342(3) 0.7022(2) 0.57008(11)
C15 C 0.1948(3) 0.8128(2) 0.59627(13)
H12 H 0.24740 0.86810 0.56610
C16 C 0.1793(4) 0.8432(2) 0.66556(13)
H13 H 0.22040 0.91780 0.68210
C17 C 0.1018(4) 0.7606(2) 0.70953(12)
C18 C 0.0355(3) 0.6519(3) 0.68622(13)
H14 H -0.01930 0.59820 0.71670
C19 C 0.0516(3) 0.6235(2) 0.61660(12)
H15 H 0.00610 0.55000 0.60030
N1 N 0.0930(4) 0.7879(3) 0.78434(13)
O1 O 0.3593(3) 0.47603(15) 0.57158(9)
O2 O 0.2282(2) 0.34436(13) 0.49974(9)
O3 O 0.0372(4) 0.7085(3) 0.82316(12)
O4 O 0.1443(5) 0.8879(3) 0.80394(12)
#END
