
#######################################################################
#
#                 Cambridge Crystallographic Data Centre
#                                CCDC
#
#######################################################################
#
# If this CIF has been generated from an entry in the Cambridge
# Structural Database, then it will include bibliographic, chemical,
# crystal, experimental, refinement or atomic coordinate data resulting
# from the CCDC's data processing and validation procedures.
#
#######################################################################

data_CSD_CIF_PEVNOU
_audit_creation_date 2007-04-17
_audit_creation_method CSD-ConQuest-V1
_database_code_CSD PEVNOU
_database_code_depnum_ccdc_archive 'CCDC 262043'
_chemical_formula_sum 'C11 H19 N1 O4'
_chemical_formula_moiety
;
C11 H19 N1 O4
;
_journal_coden_Cambridge 1336
_journal_volume 9
_journal_year 2007
_journal_page_first 207
_journal_name_full 'Org.Lett. '
loop_
_publ_author_name
"T.K.M.Shing"
"Wai F.Wong"
"T.Ikeno"
"T.Yamada"
_chemical_name_systematic
;
5,5,11-Trimethyl-4,6,10-trioxa-11-azatricyclo(7.2.1.0^3,7^)dodecan-2-ol
;
_chemical_melting_point 420.15
_cell_volume    578.871
_exptl_crystal_colour 'colorless'
_exptl_crystal_density_diffrn 1.315
_exptl_special_details
;
Melting point range 420.15-421.15K

;
_exptl_crystal_description 'block'
_diffrn_ambient_temperature 293
#These two values have been output from a single CSD field.
_refine_ls_R_factor_gt 0.0493
_refine_ls_wR_factor_gt 0.0493
_symmetry_cell_setting monoclinic
_symmetry_space_group_name_H-M 'P 21'
_symmetry_Int_Tables_number 4
loop_
_symmetry_equiv_pos_site_id
_symmetry_equiv_pos_as_xyz
1 x,y,z
2 -x,1/2+y,-z
_cell_length_a 5.9407(12)
_cell_length_b 10.466(2)
_cell_length_c 9.3103(19)
_cell_angle_alpha 90
_cell_angle_beta 90.00(3)
_cell_angle_gamma 90
_cell_formula_units_Z 2
loop_
_atom_type_symbol
_atom_type_radius_bond
C 0.68
H 0.23
N 0.68
O 0.68
loop_
_atom_site_label
_atom_site_type_symbol
_atom_site_fract_x
_atom_site_fract_y
_atom_site_fract_z
O1 O 0.5812(3) 0.49844(19) 0.5668(2)
O2 O 0.3592(3) 0.3296(2) 0.6349(2)
O3 O 0.0559(4) 0.1816(2) 0.4690(2)
H1 H 0.16570 0.13550 0.45610
O4 O 0.4256(3) 0.3320(2) 0.1644(2)
N1 N 0.2290(4) 0.2510(3) 0.1851(2)
C1 C 0.6893(6) 0.3799(4) 0.7727(4)
H2 H 0.77670 0.32550 0.71120
H3 H 0.63530 0.33160 0.85320
H4 H 0.78150 0.44910 0.80620
C2 C 0.3444(6) 0.5200(3) 0.7788(3)
H5 H 0.22240 0.55010 0.72030
H6 H 0.43100 0.59140 0.81230
H7 H 0.28520 0.47390 0.85950
C3 C 0.4939(5) 0.4322(3) 0.6906(3)
C4 C 0.4148(4) 0.4815(3) 0.4570(3)
H8 H 0.28540 0.53690 0.47650
C5 C 0.3486(4) 0.3429(3) 0.4808(3)
H9 H 0.45830 0.28600 0.43510
C6 C 0.1112(4) 0.3089(2) 0.4320(3)
H10 H 0.00700 0.36510 0.48360
C7 C 0.0735(5) 0.3305(3) 0.2707(3)
H11 H -0.08160 0.30690 0.24670
C8 C 0.1180(5) 0.4676(3) 0.2178(3)
H12 H 0.03340 0.48600 0.13110
H13 H 0.07960 0.53000 0.29080
C9 C 0.3694(5) 0.4663(3) 0.1886(3)
H14 H 0.40190 0.51590 0.10180
C10 C 0.5138(5) 0.5144(3) 0.3122(3)
H15 H 0.66290 0.47720 0.30470
H16 H 0.52930 0.60650 0.30470
C11 C 0.1401(7) 0.2226(4) 0.0428(4)
H17 H 0.24630 0.17110 -0.00900
H18 H 0.11510 0.30100 -0.00830
H19 H 0.00050 0.17720 0.05190
#END
