
#######################################################################
#
#                 Cambridge Crystallographic Data Centre
#                                CCDC
#
#######################################################################
#
# If this CIF has been generated from an entry in the Cambridge
# Structural Database, then it will include bibliographic, chemical,
# crystal, experimental, refinement or atomic coordinate data resulting
# from the CCDC's data processing and validation procedures.
#
#######################################################################

data_CSD_CIF_PEVPIP
_audit_creation_date 1994-03-29
_audit_creation_method CSD-ConQuest-V1
_database_code_CSD PEVPIP
_database_code_depnum_ccdc_archive 'CCDC 1231635'
_chemical_formula_sum 'C10 H15 N1 O3'
_chemical_formula_moiety
;
C10 H15 N1 O3
;
_journal_coden_Cambridge 207
_journal_year 1993
_journal_page_first 2099
_journal_name_full 'J.Chem.Soc.,Perkin Trans.1 '
loop_
_publ_author_name
"W.R.Bowman"
"D.S.Brown"
"C.A.Burns"
"D.Crosby"
_chemical_name_systematic
;
2-Hydroxy-4-methyl-4-nitro-tricyclo(4.2.1.0^3,7^)nonane
;
_chemical_melting_point 413.15
_cell_volume    952.895
_exptl_crystal_density_diffrn 1.375
_exptl_special_details
;
Melting point range 413.15-414.15K
sublimes at 118-125 deg.C
y(C4) is 0.1793, not 0.1973
;
_diffrn_ambient_temperature ?
_diffrn_special_details
;
The study was carried out at room temperature,in the range 283-303K

;
#These two values have been output from a single CSD field.
_refine_ls_R_factor_gt 0.041
_refine_ls_wR_factor_gt 0.041
_symmetry_cell_setting monoclinic
_symmetry_space_group_name_H-M 'P 21/c'
_symmetry_Int_Tables_number 14
loop_
_symmetry_equiv_pos_site_id
_symmetry_equiv_pos_as_xyz
1 x,y,z
2 -x,1/2+y,1/2-z
3 -x,-y,-z
4 x,-1/2-y,-1/2+z
_cell_length_a 6.423(10)
_cell_length_b 12.245(4)
_cell_length_c 12.969(5)
_cell_angle_alpha 90
_cell_angle_beta 110.9(2)
_cell_angle_gamma 90
_cell_formula_units_Z 4
loop_
_atom_type_symbol
_atom_type_radius_bond
C 0.68
H 0.23
N 0.68
O 0.68
loop_
_atom_site_label
_atom_site_type_symbol
_atom_site_fract_x
_atom_site_fract_y
_atom_site_fract_z
O1 O 0.3033(3) 0.3176(2) -0.0365(1)
O2 O 0.3926(4) 0.5255(2) 0.0892(2)
O3 O 0.6844(4) 0.4329(2) 0.1786(2)
N1 N 0.4844(4) 0.4473(2) 0.1468(2)
C1 C 0.0993(4) 0.3148(2) -0.0178(2)
C2 C 0.0197(5) 0.1957(2) -0.0225(2)
C3 C 0.2104(5) 0.1288(2) 0.0572(2)
C4 C 0.2385(5) 0.1793(2) 0.1707(2)
C5 C 0.0280(4) 0.2523(2) 0.1431(2)
C6 C 0.1108(4) 0.3548(2) 0.0996(2)
C7 C -0.1414(5) 0.2022(2) 0.0391(2)
C8 C 0.4405(5) 0.2568(2) 0.2137(2)
C9 C 0.3408(4) 0.3723(2) 0.1864(2)
C10 C 0.3278(6) 0.4323(3) 0.2875(2)
H1 H 0.32490 0.39520 -0.06270
H2 H -0.02580 0.36120 -0.07550
H3 H -0.04230 0.16300 -0.10090
H4 H 0.36160 0.13610 0.03920
H5 H 0.16670 0.06410 0.05250
H6 H 0.23270 0.11950 0.22910
H7 H -0.01190 0.26810 0.21400
H8 H 0.00290 0.42030 0.08770
H9 H -0.27660 0.25670 0.00640
H10 H -0.18770 0.12570 0.05510
H11 H 0.57110 0.25330 0.17790
H12 H 0.52200 0.25380 0.29110
H13 H 0.25530 0.50810 0.26620
H14 H 0.48820 0.44150 0.34740
H15 H 0.22900 0.39200 0.31490
#END
