
#######################################################################
#
#                 Cambridge Crystallographic Data Centre
#                                CCDC
#
#######################################################################
#
# If this CIF has been generated from an entry in the Cambridge
# Structural Database, then it will include bibliographic, chemical,
# crystal, experimental, refinement or atomic coordinate data resulting
# from the CCDC's data processing and validation procedures.
#
#######################################################################

data_CSD_CIF_PEVQIR
_audit_creation_date 2007-04-17
_audit_creation_method CSD-ConQuest-V1
_database_code_CSD PEVQIR
_database_code_depnum_ccdc_archive 'CCDC 610108'
_chemical_formula_sum 'C18 H12 N2 O6'
_chemical_formula_moiety
;
C18 H12 N2 O6
;
_journal_coden_Cambridge 935
_journal_volume 132
_journal_year 2006
_journal_page_first 24
_journal_name_full 'Mater.Sci.Eng.,B '
loop_
_publ_author_name
"R.H.Vora"
"Suat Hong Goh"
_chemical_name_systematic
;
1,2-bis(4-Nitrophenoxy)benzene
;
_cell_volume   1558.237
_exptl_crystal_colour 'colorless'
_exptl_crystal_density_diffrn 1.502
_exptl_crystal_description 'blocks'
_diffrn_ambient_temperature 223
#These two values have been output from a single CSD field.
_refine_ls_R_factor_gt 0.0589
_refine_ls_wR_factor_gt 0.0589
_symmetry_cell_setting monoclinic
_symmetry_space_group_name_H-M 'P 21/c'
_symmetry_Int_Tables_number 14
loop_
_symmetry_equiv_pos_site_id
_symmetry_equiv_pos_as_xyz
1 x,y,z
2 -x,1/2+y,1/2-z
3 -x,-y,-z
4 x,-1/2-y,-1/2+z
_cell_length_a 9.0869(7)
_cell_length_b 11.8627(9)
_cell_length_c 14.6945(11)
_cell_angle_alpha 90
_cell_angle_beta 100.347(2)
_cell_angle_gamma 90
_cell_formula_units_Z 4
loop_
_atom_type_symbol
_atom_type_radius_bond
C 0.68
H 0.23
N 0.68
O 0.68
loop_
_atom_site_label
_atom_site_type_symbol
_atom_site_fract_x
_atom_site_fract_y
_atom_site_fract_z
O1 O 0.10156(11) 0.13127(9) 0.52039(7)
O2 O 0.14246(13) 0.06294(9) 0.34689(7)
O3 O 0.19331(17) 0.58536(11) 0.3154(1)
O4 O 0.38363(16) 0.55068(10) 0.42031(10)
O5 O 0.29609(19) 0.60224(11) 0.68049(11)
O6 O 0.47652(18) 0.50440(13) 0.75603(10)
N1 N 0.36091(19) 0.51246(12) 0.69987(10)
N2 N 0.27645(16) 0.52028(11) 0.36399(9)
C1 C 0.17571(17) 0.03043(12) 0.51220(11)
C2 C 0.21582(19) -0.04080(14) 0.58662(12)
H1 H 0.196(2) -0.0197(16) 0.6466(13)
C3 C 0.2738(2) -0.14561(15) 0.57308(14)
H2 H 0.298(2) -0.1907(17) 0.6208(13)
C4 C 0.2905(2) -0.17882(15) 0.48591(14)
H3 H 0.331(2) -0.2481(18) 0.4745(12)
C5 C 0.2507(2) -0.10794(14) 0.41118(13)
H4 H 0.260(2) -0.1298(17) 0.3541(13)
C6 C 0.19356(18) -0.00240(13) 0.42462(11)
C7 C 0.17289(17) 0.22032(12) 0.56886(10)
C8 C 0.31450(18) 0.21567(14) 0.62202(11)
H5 H 0.366(2) 0.1529(16) 0.6271(12)
C9 C 0.37591(19) 0.31215(14) 0.66512(11)
H6 H 0.468(2) 0.3109(15) 0.7030(11)
C10 C 0.29500(19) 0.41085(13) 0.65435(11)
C11 C 0.1527(2) 0.41599(14) 0.60191(12)
H7 H 0.096(2) 0.4840(17) 0.5936(12)
C12 C 0.09064(19) 0.31994(14) 0.55990(11)
H8 H -0.005(2) 0.3192(15) 0.5229(12)
C13 C 0.18167(18) 0.17551(13) 0.34956(10)
C14 C 0.32102(18) 0.21157(13) 0.39350(11)
H9 H 0.394(2) 0.1606(15) 0.4192(11)
C15 C 0.35288(18) 0.32510(13) 0.39744(10)
H10 H 0.4433(18) 0.3530(14) 0.4296(11)
C16 C 0.24540(17) 0.39929(12) 0.35452(10)
C17 C 0.10912(18) 0.36356(14) 0.30567(11)
H11 H 0.040(2) 0.4148(16) 0.2770(12)
C18 C 0.07712(19) 0.25007(14) 0.30411(11)
H12 H -0.009(2) 0.2258(16) 0.2774(12)
#END
