
#######################################################################
#
#                 Cambridge Crystallographic Data Centre
#                                CCDC
#
#######################################################################
#
# If this CIF has been generated from an entry in the Cambridge
# Structural Database, then it will include bibliographic, chemical,
# crystal, experimental, refinement or atomic coordinate data resulting
# from the CCDC's data processing and validation procedures.
#
#######################################################################

data_CSD_CIF_PEVYEU
_audit_creation_date 1994-04-10
_audit_creation_method CSD-ConQuest-V1
_database_code_CSD PEVYEU
_database_code_depnum_ccdc_archive 'CCDC 112903'
_database_code_depnum_ccdc_fiz 'CSD 400188'
_chemical_formula_sum 'C15 H24 N6 O6'
_chemical_formula_moiety
;
C15 H24 N6 O6
;
_journal_coden_Cambridge 48
_journal_volume 126
_journal_year 1993
_journal_page_first 2127
_journal_name_full 'Chem.Ber. '
loop_
_publ_author_name
"J.J.Wolff"
"H.Irngartinger"
"F.Gredel"
"I.Bolocan"
_chemical_name_systematic
;
2,4,6-tris(Isopropylamino)-1,3,5-trinitrobenzene
;
_cell_volume   7830.940
_exptl_crystal_colour 'yellow'
_exptl_crystal_density_diffrn 1.304
_diffrn_ambient_temperature ?
_diffrn_special_details
;
The study was carried out at room temperature,in the range 283-303K

;
#These two values have been output from a single CSD field.
_refine_ls_R_factor_gt 0.053
_refine_ls_wR_factor_gt 0.053
_symmetry_cell_setting monoclinic
_symmetry_space_group_name_H-M 'C 2/c'
_symmetry_Int_Tables_number 15
loop_
_symmetry_equiv_pos_site_id
_symmetry_equiv_pos_as_xyz
1 x,y,z
2 -x,y,1/2-z
3 1/2+x,1/2+y,z
4 1/2-x,1/2+y,1/2-z
5 -x,-y,-z
6 x,-y,-1/2+z
7 -1/2-x,-1/2-y,-z
8 -1/2+x,-1/2-y,-1/2+z
_cell_length_a 18.759(5)
_cell_length_b 11.767(5)
_cell_length_c 36.604(9)
_cell_angle_alpha 90
_cell_angle_beta 104.259(3)
_cell_angle_gamma 90
_cell_formula_units_Z 16
loop_
_atom_type_symbol
_atom_type_radius_bond
C 0.68
H 0.23
N 0.68
O 0.68
loop_
_atom_site_label
_atom_site_type_symbol
_atom_site_fract_x
_atom_site_fract_y
_atom_site_fract_z
O1 O -0.0782(1) 0.1122(2) 0.40814(7)
O2 O -0.1327(1) -0.0506(2) 0.39808(8)
O3 O -0.3647(1) -0.0949(2) 0.30422(7)
O4 O -0.3577(1) -0.0320(3) 0.24995(7)
O5 O -0.2089(1) 0.3959(2) 0.30979(6)
O6 O -0.2774(1) 0.3253(2) 0.25815(7)
N1 N -0.1273(1) 0.0493(3) 0.38934(8)
N2 N -0.2819(1) -0.0113(2) 0.36463(8)
N3 N -0.3342(2) -0.0337(3) 0.28463(8)
N4 N -0.2478(1) 0.0941(2) 0.24276(7)
N5 N -0.2294(1) 0.3122(2) 0.28856(7)
N6 N -0.0941(1) 0.2450(2) 0.34882(7)
C1 C -0.1765(2) 0.0952(3) 0.35684(8)
C2 C -0.2456(2) 0.0363(3) 0.34187(9)
C3 C -0.2721(2) 0.0324(3) 0.30172(9)
C4 C -0.2409(2) 0.1079(3) 0.27887(8)
C5 C -0.2021(2) 0.2057(3) 0.29908(8)
C6 C -0.1548(2) 0.1856(3) 0.33619(8)
C7 C -0.2785(2) 0.0100(3) 0.40457(9)
C8 C -0.3446(2) 0.0813(4) 0.4069(1)
C9 C -0.2777(2) -0.1020(4) 0.4247(1)
C10 C -0.2136(2) 0.1589(3) 0.21701(9)
C11 C -0.2726(3) 0.1938(4) 0.1828(1)
C12 C -0.1554(2) 0.0865(4) 0.2066(1)
C13 C -0.0565(2) 0.3206(3) 0.32753(9)
C14 C -0.0267(2) 0.2569(4) 0.2990(1)
C15 C 0.0037(2) 0.3798(4) 0.3559(1)
H1 H -0.317(2) -0.048(3) 0.3532(9)
H2 H -0.269(2) 0.035(3) 0.2319(8)
H3 H -0.073(2) 0.223(2) 0.3725(8)
H4 H -0.23360 0.05310 0.41690
H5 H -0.34400 0.09780 0.43290
H6 H -0.34320 0.15400 0.39310
H7 H -0.39000 0.04090 0.39450
H8 H -0.27460 -0.08590 0.45180
H9 H -0.32140 -0.14440 0.41390
H10 H -0.23340 -0.14430 0.42310
H11 H -0.191(1) 0.226(2) 0.2301(8)
H12 H -0.24980 0.23720 0.16550
H13 H -0.29580 0.12550 0.16980
H14 H -0.30900 0.24100 0.19040
H15 H -0.13160 0.12750 0.18950
H16 H -0.11780 0.06460 0.22950
H17 H -0.17800 0.01630 0.19400
H18 H -0.09200 0.37590 0.31290
H19 H -0.00230 0.31020 0.28530
H20 H 0.00870 0.19980 0.31180
H21 H -0.06720 0.21900 0.28100
H22 H 0.03320 0.42810 0.34430
H23 H -0.01440 0.41860 0.37500
H24 H 0.03930 0.31700 0.37030
O7 O -0.0271(2) -0.0540(3) 0.63601(8)
O8 O -0.1239(2) -0.1118(2) 0.59467(8)
O9 O -0.2470(1) 0.1222(3) 0.49114(7)
O10 O -0.1611(1) 0.1877(3) 0.46711(6)
O11 O 0.0065(1) 0.3995(2) 0.55476(7)
O12 O 0.0577(2) 0.3494(3) 0.61196(7)
N7 N -0.0817(2) -0.0346(3) 0.60979(8)
N8 N -0.2198(1) 0.0638(3) 0.56033(7)
N9 N -0.1813(2) 0.1531(3) 0.49535(7)
N10 N -0.0294(1) 0.2093(2) 0.50726(7)
N11 N 0.0162(2) 0.3284(3) 0.58027(8)
N12 N 0.0009(2) 0.1795(3) 0.64040(8)
C16 C -0.0930(2) 0.0770(3) 0.59549(9)
C17 C -0.1521(2) 0.0961(3) 0.56244(9)
C18 C -0.1323(2) 0.1503(3) 0.53061(8)
C19 C -0.0590(2) 0.1951(3) 0.53595(8)
C20 C -0.0216(2) 0.2233(3) 0.57433(9)
C21 C -0.0357(2) 0.1604(3) 0.60486(9)
C22 C -0.2538(2) 0.0195(3) 0.58964(9)
C23 C -0.2941(3) -0.0897(5) 0.5749(1)
C24 C -0.3060(3) 0.1060(5) 0.5974(1)
C25 C 0.0481(2) 0.2297(3) 0.5068(1)
C26 C 0.0792(2) 0.1174(4) 0.4967(1)
C27 C 0.0511(2) 0.3211(4) 0.4785(1)
C28 C -0.0202(2) 0.1523(4) 0.6754(1)
C29 C 0.0449(3) 0.1038(6) 0.7035(1)
C30 C -0.0491(4) 0.2576(6) 0.6899(1)
H25 H -0.247(2) 0.073(3) 0.5381(9)
H26 H -0.061(2) 0.197(3) 0.4844(9)
H27 H 0.034(2) 0.230(3) 0.6405(9)
H28 H -0.21600 0.00370 0.61360
H29 H -0.31860 -0.12270 0.59340
H30 H -0.33310 -0.07410 0.55130
H31 H -0.26050 -0.14690 0.56870
H32 H -0.33030 0.08030 0.61700
H33 H -0.27980 0.17870 0.60640
H34 H -0.34470 0.12410 0.57430
H35 H 0.075(2) 0.252(3) 0.5319(8)
H36 H 0.13090 0.12740 0.49630
H37 H 0.07650 0.05990 0.51630
H38 H 0.05100 0.09000 0.47230
H39 H 0.10110 0.33470 0.47740
H40 H 0.02180 0.29570 0.45310
H41 H 0.02840 0.39070 0.48520
H42 H -0.06100 0.09430 0.67150
H43 H 0.03300 0.08150 0.72710
H44 H 0.06280 0.03300 0.69260
H45 H 0.08570 0.15800 0.70860
H46 H -0.06500 0.24480 0.71310
H47 H -0.01030 0.31790 0.69500
H48 H -0.09170 0.29030 0.67060
#END
