
#######################################################################
#
#                 Cambridge Crystallographic Data Centre
#                                CCDC
#
#######################################################################
#
# If this CIF has been generated from an entry in the Cambridge
# Structural Database, then it will include bibliographic, chemical,
# crystal, experimental, refinement or atomic coordinate data resulting
# from the CCDC's data processing and validation procedures.
#
#######################################################################

data_CSD_CIF_PEWQEO
_audit_creation_date 2007-04-16
_audit_creation_method CSD-ConQuest-V1
_database_code_CSD PEWQEO
_database_code_depnum_ccdc_archive 'CCDC 623476'
_database_code_depnum_ccdc_journal 1267/1932
_chemical_formula_sum 'C26 H24 N2 O4'
_chemical_formula_moiety
;
C26 H24 N2 O4
;
_journal_coden_Cambridge 1267
_journal_volume 221
_journal_year 2006
_journal_page_first 555
_journal_name_full 'Z.Kristallogr.-New Cryst.Struct. '
loop_
_publ_author_name
"Wen-Kui Dong"
"Jin-Gui Duan"
"Hui-Lu Wu"
"Jun-Yan Shi"
"Tian-Zhi Yu"
_chemical_name_systematic
;
1,1'-((1,4-butylene)dioxybis(nitrilomethylidyne))-2,2'-dinaphthol
;
_chemical_melting_point 415.15
_cell_volume   1089.365
_exptl_crystal_colour 'pale-brown'
_exptl_crystal_density_diffrn 1.306
_exptl_special_details
;
Melting point range 415.15-416.15K

;
_exptl_crystal_description 'block'
_exptl_crystal_preparation 'acetone'
_diffrn_ambient_temperature 298
#These two values have been output from a single CSD field.
_refine_ls_R_factor_gt 0.0483
_refine_ls_wR_factor_gt 0.0483
_symmetry_cell_setting monoclinic
_symmetry_space_group_name_H-M 'P 21/c'
_symmetry_Int_Tables_number 14
loop_
_symmetry_equiv_pos_site_id
_symmetry_equiv_pos_as_xyz
1 x,y,z
2 -x,1/2+y,1/2-z
3 -x,-y,-z
4 x,-1/2-y,-1/2+z
_cell_length_a 5.611(2)
_cell_length_b 11.723(2)
_cell_length_c 16.636(3)
_cell_angle_alpha 90
_cell_angle_beta 95.432(2)
_cell_angle_gamma 90
_cell_formula_units_Z 2
loop_
_atom_type_symbol
_atom_type_radius_bond
C 0.68
H 0.23
N 0.68
O 0.68
loop_
_atom_site_label
_atom_site_type_symbol
_atom_site_fract_x
_atom_site_fract_y
_atom_site_fract_z
N1 N 0.0950(3) 0.68483(14) 1.59824(10)
O1 O 0.2990(3) 0.86591(13) 1.54699(9)
H1 H 0.19720 0.81570 1.54680
O2 O -0.0703(3) 0.59619(12) 1.60133(8)
C1 C 0.2485(4) 0.68493(17) 1.65992(11)
H2 H 0.23590 0.63070 1.70010
C2 C 0.4421(4) 0.76739(16) 1.66911(11)
C3 C 0.4608(4) 0.85258(17) 1.61215(12)
C4 C 0.6534(4) 0.92925(18) 1.61846(13)
H3 H 0.66330 0.98530 1.57940
C5 C 0.8249(4) 0.92202(18) 1.68110(13)
H4 H 0.95100 0.97380 1.68450
C6 C 0.8172(4) 0.83770(18) 1.74164(12)
C7 C 0.6214(4) 0.76034(16) 1.73606(11)
C8 C 0.6207(4) 0.67718(19) 1.79801(12)
H5 H 0.49470 0.62550 1.79680
C9 C 0.7990(4) 0.6711(2) 1.85908(13)
H6 H 0.79180 0.61620 1.89910
C10 C 0.9930(5) 0.7462(2) 1.86253(14)
H7 H 1.11670 0.73980 1.90360
C11 C 0.9994(4) 0.8283(2) 1.80563(13)
H8 H 1.12650 0.87950 1.80880
C12 C -0.2375(3) 0.59925(18) 1.53115(12)
H9 H -0.15390 0.59360 1.48290
H10 H -0.32580 0.67050 1.52920
C13 C -0.4052(3) 0.50095(17) 1.53542(11)
H11 H -0.48200 0.50570 1.58520
H12 H -0.31490 0.43030 1.53650
N1B N -1.0950(3) 0.31517(14) 1.40176(10)
O1B O -1.2990(3) 0.13409(13) 1.45301(9)
H1B H -1.19720 0.18430 1.45320
O2B O -0.9297(3) 0.40381(12) 1.39867(8)
C1B C -1.2485(4) 0.31507(17) 1.34008(11)
H2B H -1.23590 0.36930 1.29990
C2B C -1.4421(4) 0.23261(16) 1.33089(11)
C3B C -1.4608(4) 0.14742(17) 1.38785(12)
C4B C -1.6534(4) 0.07075(18) 1.38154(13)
H3B H -1.66330 0.01470 1.42060
C5B C -1.8249(4) 0.07798(18) 1.31890(13)
H4B H -1.95100 0.02620 1.31550
C6B C -1.8172(4) 0.16230(18) 1.25836(12)
C7B C -1.6214(4) 0.23966(16) 1.26394(11)
C8B C -1.6207(4) 0.32282(19) 1.20199(12)
H5B H -1.49470 0.37450 1.20320
C9B C -1.7990(4) 0.3289(2) 1.14092(13)
H6B H -1.79180 0.38380 1.10090
C10B C -1.9930(5) 0.2538(2) 1.13747(14)
H7B H -2.11670 0.26020 1.09640
C11B C -1.9994(4) 0.1717(2) 1.19437(13)
H8B H -2.12650 0.12050 1.19120
C12B C -0.7625(3) 0.40075(18) 1.46885(12)
H9B H -0.84610 0.40640 1.51710
H10B H -0.67420 0.32950 1.47080
C13B C -0.5948(3) 0.49905(17) 1.46458(11)
H11B H -0.51800 0.49430 1.41480
H12B H -0.68510 0.56970 1.46350
#END
