
#######################################################################
#
#                 Cambridge Crystallographic Data Centre
#                                CCDC
#
#######################################################################
#
# If this CIF has been generated from an entry in the Cambridge
# Structural Database, then it will include bibliographic, chemical,
# crystal, experimental, refinement or atomic coordinate data resulting
# from the CCDC's data processing and validation procedures.
#
#######################################################################

data_CSD_CIF_PEWROB
_audit_creation_date 2018-03-10
_audit_creation_method CSD-ConQuest-V1
_database_code_CSD PEWROB
_database_code_depnum_ccdc_archive 'CCDC 1812746'
_chemical_formula_sum 'C8 H9 N1 O3'
_chemical_formula_moiety
;
C8 H9 N1 O3
;
_journal_coden_Cambridge 1336
_journal_volume 20
_journal_year 2018
_journal_page_first 1884
_journal_name_full 'Org.Lett. '
loop_
_publ_author_name
"R.Campagne"
"F.Schakel"
"R.Guillot"
"V.Alezra"
"C.Kouklovsky"
_chemical_name_systematic
;
1-(3,6-dioxa-7-azatricyclo[3.2.2.0^2,4^]non-8-en-7-yl)ethan-1-one
;
_cell_volume    742.740
_exptl_crystal_colour 'colorless'
_exptl_crystal_density_diffrn 1.495
_exptl_crystal_description 'block'
_diffrn_ambient_temperature 100
_refine_special_details
;
C4A,C5A,C7A,C8A,O3A and C4B,C5B,C7B,C8B,O3B disordered over two sites with 
occupancies 0.530:0.470.
;
#These two values have been output from a single CSD field.
_refine_ls_R_factor_gt 0.0429
_refine_ls_wR_factor_gt 0.0429
_symmetry_cell_setting monoclinic
_symmetry_space_group_name_H-M 'P 21/c'
_symmetry_Int_Tables_number 14
loop_
_symmetry_equiv_pos_site_id
_symmetry_equiv_pos_as_xyz
1 x,y,z
2 -x,1/2+y,1/2-z
3 -x,-y,-z
4 x,-1/2-y,-1/2+z
_cell_length_a 8.1886(3)
_cell_length_b 8.5016(3)
_cell_length_c 10.8520(4)
_cell_angle_alpha 90
_cell_angle_beta 100.535(2)
_cell_angle_gamma 90
_cell_formula_units_Z 4
loop_
_atom_type_symbol
_atom_type_radius_bond
C 0.68
H 0.23
N 0.68
O 0.68
loop_
_atom_site_label
_atom_site_type_symbol
_atom_site_fract_x
_atom_site_fract_y
_atom_site_fract_z
O1? O 1.4741(2) 0.2276(2) 1.03751(19)
C1 C 1.2916(8) 0.4649(9) 0.9861(5)
H1 H 1.26090 0.57640 0.98390
C2 C 1.2026(19) 0.3567(7) 1.0581(7)
H2 H 1.11710 0.40130 1.10010
C3 C 0.82462(15) 0.31287(14) 0.71655(10)
H3 H 0.70690 0.29500 0.70100
H4 H 0.87100 0.27210 0.64790
H5 H 0.84610 0.42370 0.72460
C4 C 0.90241(14) 0.23140(12) 0.83516(10)
C5 C 1.16671(14) 0.20460(12) 0.99231(10)
H6 H 1.10920 0.13120 1.03940
C6 C 1.3339(8) 0.1331(17) 0.9626(6)
H7 H 1.37280 0.03350 0.98830
C7 C 1.4117(8) 0.2281(6) 0.8984(9)
H8 H 1.51150 0.20480 0.87300
C8 C 1.31124(16) 0.39133(14) 0.86911(11)
H9 H 1.37010 0.46190 0.82080
N1 N 1.07045(13) 0.23711(13) 0.86615(9)
O2 O 0.82278(10) 0.15639(10) 0.90082(8)
O3 O 1.15107(11) 0.34503(12) 0.79476(8)
O4 O 1.3774(2) 0.39955(19) 1.10651(15)
C9? C 1.3243(9) 0.1454(19) 0.9768(7)
H10? H 1.33320 0.03280 0.95960
C10? C 1.4073(9) 0.2575(7) 0.9035(10)
H11? H 1.46850 0.21350 0.84190
C11? C 1.2564(10) 0.471(1) 0.9872(6)
H12? H 1.27390 0.57660 1.00800
C12? C 1.184(2) 0.3723(8) 1.0519(8)
H13? H 1.14720 0.39880 1.12530
#END
