
#######################################################################
#
#                 Cambridge Crystallographic Data Centre
#                                CCDC
#
#######################################################################
#
# If this CIF has been generated from an entry in the Cambridge
# Structural Database, then it will include bibliographic, chemical,
# crystal, experimental, refinement or atomic coordinate data resulting
# from the CCDC's data processing and validation procedures.
#
#######################################################################

data_CSD_CIF_PEWVEV
_audit_creation_date 2018-03-10
_audit_creation_method CSD-ConQuest-V1
_database_code_CSD PEWVEV
_database_code_depnum_ccdc_archive 'CCDC 1815512'
_chemical_formula_sum 'C9 H6 N2 O4'
_chemical_formula_moiety
;
C9 H6 N2 O4
;
_journal_coden_Cambridge 16
_journal_volume 74
_journal_year 2018
_journal_page_first 2092
_journal_name_full 'Tetrahedron '
loop_
_publ_author_name
"A.-L.Lucke"
"S.Wiechmann"
"T.Freese"
"M.Nieger"
"T.Foldes"
"I.Papai"
"M.Gjikaj"
"A.Adam"
"A.Schmidt"
_chemical_name_systematic
;
4-carboxy-5-oxo-3-phenyl-5H-1,2,3-oxadiazol-3-ium-2-ide
;
_chemical_name_common
;
N-phenylsydnon-4-carboxylic acid
;
_cell_volume   1767.810
_exptl_crystal_colour 'colorless'
_exptl_crystal_density_diffrn 1.549
_exptl_crystal_description 'needle'
_diffrn_ambient_temperature 123
#These two values have been output from a single CSD field.
_refine_ls_R_factor_gt 0.0719
_refine_ls_wR_factor_gt 0.0719
_symmetry_cell_setting monoclinic
_symmetry_space_group_name_H-M 'P 21/c'
_symmetry_Int_Tables_number 14
loop_
_symmetry_equiv_pos_site_id
_symmetry_equiv_pos_as_xyz
1 x,y,z
2 -x,1/2+y,1/2-z
3 -x,-y,-z
4 x,-1/2-y,-1/2+z
_cell_length_a 10.242(2)
_cell_length_b 6.2331(8)
_cell_length_c 27.783(5)
_cell_angle_alpha 90
_cell_angle_beta 94.651(16)
_cell_angle_gamma 90
_cell_formula_units_Z 8
loop_
_atom_type_symbol
_atom_type_radius_bond
C 0.68
H 0.23
N 0.68
O 0.68
loop_
_atom_site_label
_atom_site_type_symbol
_atom_site_fract_x
_atom_site_fract_y
_atom_site_fract_z
C1 C 0.9112(4) 0.3403(7) 0.11984(15)
O1 O 0.8176(3) 0.3415(6) 0.07848(11)
N1 N 0.6928(3) 0.3308(7) 0.09190(13)
N2 N 0.7060(3) 0.3234(6) 0.13892(11)
C2 C 0.8327(3) 0.3289(7) 0.15895(14)
C3 C 0.5842(3) 0.3048(7) 0.16232(15)
C4 C 0.4932(4) 0.4658(9) 0.15399(19)
C5 C 0.3729(4) 0.4425(10) 0.1723(2)
C6 C 0.3477(5) 0.2614(10) 0.1995(2)
C7 C 0.4408(4) 0.1039(9) 0.20751(19)
C8 C 0.5614(4) 0.1251(8) 0.18853(17)
C9 C 0.8739(3) 0.3349(7) 0.21004(15)
O2 O 0.7945(2) 0.3397(6) 0.24129(11)
O3 O 1.0008(2) 0.3393(6) 0.21921(11)
O4 O 1.0265(3) 0.3532(6) 0.11399(12)
H1 H 1.029(6) 0.332(14) 0.261(3)
H2 H 0.515(4) 0.592(8) 0.1360(17)
H3 H 0.307(5) 0.554(10) 0.167(2)
H4 H 0.267(5) 0.261(9) 0.212(2)
H5 H 0.428(4) -0.037(9) 0.224(2)
H6 H 0.624(4) -0.001(9) 0.1923(18)
C10 C 1.1615(3) 0.8158(7) 0.06181(14)
C11 C 0.8177(4) 0.8326(7) 0.09067(16)
O5 O 0.8206(2) 0.8124(5) 0.03999(11)
N3 N 1.0211(3) 0.8208(6) 0.06720(12)
N4 N 0.9467(3) 0.8052(7) 0.02672(14)
C12 C 0.9535(3) 0.8404(7) 0.10700(14)
C13 C 1.0045(3) 0.8417(6) 0.15737(14)
C14 C 1.4204(4) 0.808(1) 0.04614(18)
C15 C 1.3415(5) 0.633(1) 0.03329(19)
C16 C 1.3680(4) 0.9839(10) 0.06687(19)
C17 C 1.2360(4) 0.9937(8) 0.07527(17)
C18 C 1.2102(4) 0.6371(9) 0.04092(17)
O6 O 0.7150(2) 0.8395(6) 0.10869(12)
O7 O 0.9257(2) 0.8463(5) 0.18895(11)
O8 O 1.1313(2) 0.8379(6) 0.16619(10)
H7 H 1.151(5) 0.849(10) 0.208(2)
H8 H 1.516(5) 0.807(9) 0.041(2)
H9 H 1.380(4) 0.518(9) 0.017(2)
H10 H 1.416(4) 1.109(8) 0.0750(17)
H11 H 1.199(4) 1.126(9) 0.0916(18)
H12 H 1.161(4) 0.530(8) 0.0332(17)
#END
