
#######################################################################
#
#                 Cambridge Crystallographic Data Centre
#                                CCDC
#
#######################################################################
#
# If this CIF has been generated from an entry in the Cambridge
# Structural Database, then it will include bibliographic, chemical,
# crystal, experimental, refinement or atomic coordinate data resulting
# from the CCDC's data processing and validation procedures.
#
#######################################################################

data_CSD_CIF_PEWYIC
_audit_creation_date 2018-03-10
_audit_creation_method CSD-ConQuest-V1
_database_code_CSD PEWYIC
_database_code_depnum_ccdc_archive 'CCDC 1582929'
_chemical_formula_sum 'C40 H48 N2 O4'
_chemical_formula_moiety
;
C40 H48 N2 O4
;
_journal_coden_Cambridge 119
_journal_volume 1163
_journal_year 2018
_journal_page_first 197
_journal_name_full 'J.Mol.Struct. '
loop_
_publ_author_name
"A.C.F.de Brito"
"R.S.Correa"
"A.A.Pinto"
"M.J.S.Matos"
"J.C.Tenorio"
"J.G.Taylor"
"T.Cazati"
_chemical_name_systematic
;
3,3'-(1,3-phenylene)bis{5-[2-(octyloxy)phenyl]-1,2-oxazole}
;
_cell_volume   3397.533
_exptl_crystal_colour 'colorless'
_exptl_crystal_density_diffrn 1.214
_exptl_crystal_description 'plate'
_exptl_crystal_preparation 'N,N-dimethylformamide'
_diffrn_ambient_temperature 100
#These two values have been output from a single CSD field.
_refine_ls_R_factor_gt 0.0443
_refine_ls_wR_factor_gt 0.0443
_symmetry_cell_setting orthorhombic
_symmetry_space_group_name_H-M 'P b c n'
_symmetry_Int_Tables_number 60
loop_
_symmetry_equiv_pos_site_id
_symmetry_equiv_pos_as_xyz
1 x,y,z
2 1/2-x,1/2-y,1/2+z
3 -x,y,1/2-z
4 1/2+x,1/2-y,-z
5 -x,-y,-z
6 -1/2+x,-1/2+y,-1/2-z
7 x,-y,-1/2+z
8 -1/2-x,-1/2+y,z
_cell_length_a 16.996(3)
_cell_length_b 9.0749(17)
_cell_length_c 22.028(4)
_cell_angle_alpha 90
_cell_angle_beta 90
_cell_angle_gamma 90
_cell_formula_units_Z 4
loop_
_atom_type_symbol
_atom_type_radius_bond
C 0.68
H 0.23
N 0.68
O 0.68
loop_
_atom_site_label
_atom_site_type_symbol
_atom_site_fract_x
_atom_site_fract_y
_atom_site_fract_z
O1 O 0.52806(5) 0.80667(8) 0.42540(3)
O2 O 0.63822(5) 0.47558(8) 0.52013(3)
N1 N 0.50724(6) 0.76512(10) 0.36605(4)
C1 C 0.51466(6) 0.54592(11) 0.30379(4)
C2 C 0.50000 0.62194(16) 0.25000
H1 H 0.50000 0.72442 0.25000
C3 C 0.56029(6) 0.68876(10) 0.45408(4)
C4 C 0.62651(6) 0.60487(11) 0.54931(4)
C5 C 0.56100(6) 0.57165(11) 0.41557(4)
H2 H 0.57934 0.47696 0.42335
C6 C 0.52765(6) 0.62568(11) 0.36097(4)
C7 C 0.58588(6) 0.71434(10) 0.51649(4)
C8 C 0.51570(7) 0.39210(12) 0.30324(5)
H3 H 0.52695 0.34045 0.33865
C9 C 0.63644(7) 0.76913(12) 0.63478(5)
H4 H 0.65357 0.78745 0.67416
C10 C 0.65216(6) 0.63388(12) 0.60822(4)
H5 H 0.67983 0.56247 0.62969
C11 C 0.57123(6) 0.84925(11) 0.54459(5)
H6 H 0.54447 0.92216 0.52328
C12 C 0.59567(7) 0.87734(12) 0.60367(5)
H7 H 0.58481 0.96740 0.62199
C13 C 0.70169(6) 0.21729(11) 0.45304(5)
H8 H 0.68964 0.30827 0.43188
H9 H 0.75831 0.21171 0.45811
C14 C 0.67485(7) 0.35623(11) 0.55247(5)
H10 H 0.65124 0.34513 0.59230
H11 H 0.73064 0.37514 0.55755
C15 C 0.71859(7) -0.07157(13) 0.25445(5)
H12 H 0.72116 0.02138 0.23280
H13 H 0.77206 -0.10434 0.26184
C16 C 0.50000 0.31624(17) 0.25000
H14 H 0.50000 0.21376 0.25000
C17 C 0.67743(7) -0.04780(12) 0.31487(5)
H15 H 0.67905 -0.13909 0.33774
H16 H 0.62260 -0.02465 0.30721
C18 C 0.71297(7) 0.07439(12) 0.35347(5)
H17 H 0.76864 0.05522 0.35908
H18 H 0.70777 0.16742 0.33217
C19 C 0.67373(7) 0.08702(12) 0.41523(5)
H19 H 0.68346 -0.00295 0.43779
H20 H 0.61734 0.09541 0.40937
C20 C 0.66232(7) 0.21869(11) 0.51526(5)
H21 H 0.60620 0.20494 0.50960
H22 H 0.68165 0.13510 0.53830
C21 C 0.67667(7) -0.18451(14) 0.21520(5)
H23 H 0.67466 -0.27713 0.23620
H24 H 0.70472 -0.19647 0.17769
H25 H 0.62413 -0.15134 0.20689
O1B O 0.47194(5) 0.80667(8) 0.07460(3)
O2B O 0.36178(5) 0.47558(8) -0.02013(3)
N1B N 0.49276(6) 0.76512(10) 0.13395(4)
C1B C 0.48534(6) 0.54592(11) 0.19621(4)
C3B C 0.43971(6) 0.68876(10) 0.04592(4)
C4B C 0.37349(6) 0.60487(11) -0.04931(4)
C5B C 0.43900(6) 0.57165(11) 0.08443(4)
H2B H 0.42066 0.47696 0.07665
C6B C 0.47235(6) 0.62568(11) 0.13903(4)
C7B C 0.41412(6) 0.71434(10) -0.01649(4)
C8B C 0.48430(7) 0.39210(12) 0.19676(5)
H3B H 0.47305 0.34045 0.16135
C9B C 0.36356(7) 0.76913(12) -0.13478(5)
H4B H 0.34643 0.78745 -0.17416
C10B C 0.34784(6) 0.63388(12) -0.10822(4)
H5B H 0.32017 0.56247 -0.12969
C11B C 0.42877(6) 0.84925(11) -0.04459(5)
H6B H 0.45553 0.92216 -0.02328
C12B C 0.40433(7) 0.87734(12) -0.10367(5)
H7B H 0.41519 0.96740 -0.12199
C13B C 0.29831(6) 0.21729(11) 0.04696(5)
H8B H 0.31036 0.30827 0.06812
H9B H 0.24169 0.21171 0.04189
C14B C 0.32515(7) 0.35623(11) -0.05247(5)
H10B H 0.34876 0.34513 -0.09230
H11B H 0.26936 0.37514 -0.05755
C15B C 0.28141(7) -0.07157(13) 0.24555(5)
H12B H 0.27884 0.02138 0.26720
H13B H 0.22794 -0.10434 0.23816
C17B C 0.32257(7) -0.04780(12) 0.18513(5)
H15B H 0.32095 -0.13909 0.16226
H16B H 0.37740 -0.02465 0.19279
C18B C 0.28703(7) 0.07439(12) 0.14653(5)
H17B H 0.23136 0.05522 0.14092
H18B H 0.29223 0.16742 0.16783
C19B C 0.32627(7) 0.08702(12) 0.08477(5)
H19B H 0.31654 -0.00295 0.06221
H20B H 0.38266 0.09541 0.09063
C20B C 0.33768(7) 0.21869(11) -0.01526(5)
H21B H 0.39380 0.20494 -0.00960
H22B H 0.31835 0.13510 -0.03830
C21B C 0.32333(7) -0.18451(14) 0.28480(5)
H23B H 0.32534 -0.27713 0.26380
H24B H 0.29528 -0.19647 0.32231
H25B H 0.37587 -0.15134 0.29311
#END
