
#######################################################################
#
#                 Cambridge Crystallographic Data Centre
#                                CCDC
#
#######################################################################
#
# If this CIF has been generated from an entry in the Cambridge
# Structural Database, then it will include bibliographic, chemical,
# crystal, experimental, refinement or atomic coordinate data resulting
# from the CCDC's data processing and validation procedures.
#
#######################################################################

data_CSD_CIF_PEWYOH
_audit_creation_date 2013-05-19
_audit_creation_method CSD-ConQuest-V1
_database_code_CSD PEWYOH
_database_code_depnum_ccdc_archive 'CCDC 905818'
_chemical_formula_sum 'C23 H17 N3 O1'
_chemical_formula_moiety
;
C23 H17 N3 O1
;
_journal_coden_Cambridge 16
_journal_volume 69
_journal_year 2013
_journal_page_first 1849
_journal_name_full 'Tetrahedron '
loop_
_publ_author_name
"Dongxue Zhang"
"Yan Yang"
"Meng Gao"
"Wenming Shu"
"Liuming Wu"
"Yanping Zhu"
"Anxin Wu"
_chemical_name_systematic
;
7-Methyl-2,4-diphenylpyrazolo(1,5-a)quinoxaline 1-oxide
;
_cell_volume   1730.764
_exptl_crystal_density_diffrn 1.348
_diffrn_ambient_temperature 298
#These two values have been output from a single CSD field.
_refine_ls_R_factor_gt 0.0469
_refine_ls_wR_factor_gt 0.0469
_symmetry_cell_setting monoclinic
_symmetry_space_group_name_H-M 'P 21/c'
_symmetry_Int_Tables_number 14
loop_
_symmetry_equiv_pos_site_id
_symmetry_equiv_pos_as_xyz
1 x,y,z
2 -x,1/2+y,1/2-z
3 -x,-y,-z
4 x,-1/2-y,-1/2+z
_cell_length_a 11.561(2)
_cell_length_b 21.175(4)
_cell_length_c 7.3777(15)
_cell_angle_alpha 90
_cell_angle_beta 106.606(3)
_cell_angle_gamma 90
_cell_formula_units_Z 4
loop_
_atom_type_symbol
_atom_type_radius_bond
C 0.68
H 0.23
N 0.68
O 0.68
loop_
_atom_site_label
_atom_site_type_symbol
_atom_site_fract_x
_atom_site_fract_y
_atom_site_fract_z
C1 C 0.2582(3) 0.95721(11) 0.0168(4)
H1 H 0.25180 0.96830 -0.11180
H2 H 0.32620 0.97850 0.09990
H3 H 0.18590 0.96970 0.04660
C2 C 0.2748(2) 0.88664(10) 0.0418(3)
C3 C 0.38136(19) 0.86137(9) 0.1533(3)
H4 H 0.44280 0.88850 0.21690
C4 C 0.39979(16) 0.79632(9) 0.1737(3)
C5 C 0.30527(16) 0.75598(9) 0.0812(3)
C6 C 0.19665(17) 0.78077(11) -0.0324(3)
H5 H 0.13390 0.75430 -0.09530
C7 C 0.1847(2) 0.84546(11) -0.0490(3)
H6 H 0.11260 0.86200 -0.12500
C8 C 0.53473(15) 0.71471(8) 0.2941(2)
C9 C 0.44496(14) 0.66899(8) 0.2028(2)
C10 C 0.43932(15) 0.60456(9) 0.1825(2)
H7 H 0.50260 0.57650 0.23040
C11 C 0.32223(16) 0.58825(8) 0.0774(2)
C12 C 0.27025(16) 0.52605(9) 0.0161(2)
C13 C 0.34502(19) 0.47360(9) 0.0480(3)
H8 H 0.42680 0.47870 0.10930
C14 C 0.3010(2) 0.41403(10) -0.0090(3)
H9 H 0.35300 0.37960 0.01460
C15 C 0.1826(2) 0.40561(11) -0.0991(3)
H10 H 0.15340 0.36560 -0.14020
C16 C 0.1061(2) 0.45630(13) -0.1295(4)
H11 H 0.02440 0.45040 -0.18890
C17 C 0.14919(19) 0.51637(11) -0.0727(4)
H12 H 0.09610 0.55040 -0.09460
C18 C 0.65889(15) 0.69487(8) 0.4006(2)
C19 C 0.75467(16) 0.73424(9) 0.3964(3)
H13 H 0.73950 0.77150 0.32670
C20 C 0.87092(17) 0.71882(11) 0.4938(3)
H14 H 0.93390 0.74550 0.48890
C21 C 0.89517(18) 0.66387(11) 0.5993(3)
H15 H 0.97410 0.65350 0.66540
C22 C 0.80126(18) 0.62469(10) 0.6056(3)
H16 H 0.81710 0.58770 0.67660
C23 C 0.68373(17) 0.63978(9) 0.5075(3)
H17 H 0.62100 0.61300 0.51280
N1 N 0.51252(13) 0.77503(7) 0.2825(2)
N2 N 0.33209(12) 0.69183(7) 0.1074(2)
N3 N 0.25786(13) 0.64249(7) 0.0338(2)
O1 O 0.14655(13) 0.65131(8) -0.0545(3)
#END
