
#######################################################################
#
#                 Cambridge Crystallographic Data Centre
#                                CCDC
#
#######################################################################
#
# If this CIF has been generated from an entry in the Cambridge
# Structural Database, then it will include bibliographic, chemical,
# crystal, experimental, refinement or atomic coordinate data resulting
# from the CCDC's data processing and validation procedures.
#
#######################################################################

data_CSD_CIF_PEXKEI
_audit_creation_date 1994-05-24
_audit_creation_method CSD-ConQuest-V1
_database_code_CSD PEXKEI
_chemical_formula_sum 'C16 H14 N2 O2'
_chemical_formula_moiety
;
C16 H14 N2 O2
;
_journal_coden_Cambridge 151
_journal_volume 36
_journal_year 1993
_journal_page_first 2499
_journal_name_full 'J.Med.Chem. '
loop_
_publ_author_name
"J.T.M.Linders"
"J.A.Monn"
"M.V.Mattson"
"C.George"
"A.E.Jacobson"
"K.C.Rice"
_chemical_name_systematic
;
(+)-2-Nitro-5-methyl-10,11-dihydro-5H-dibenzo(a,d)cyclohepten-5,10-imine
;
_chemical_melting_point 473.15
_cell_volume   2664.852
_exptl_crystal_density_diffrn 1.327
_exptl_special_details
;
Melting point range 473.15-474.15K

;
_diffrn_ambient_temperature ?
_diffrn_special_details
;
The study was carried out at room temperature,in the range 283-303K

;
#These two values have been output from a single CSD field.
_refine_ls_R_factor_gt 0.044
_refine_ls_wR_factor_gt 0.044
_symmetry_cell_setting monoclinic
_symmetry_space_group_name_H-M 'C 2'
_symmetry_Int_Tables_number 5
loop_
_symmetry_equiv_pos_site_id
_symmetry_equiv_pos_as_xyz
1 x,y,z
2 1/2+x,1/2+y,z
3 -x,y,-z
4 1/2-x,1/2+y,-z
_cell_length_a 22.348(3)
_cell_length_b 8.9524(13)
_cell_length_c 14.836(2)
_cell_angle_alpha 90
_cell_angle_beta 116.13(9)
_cell_angle_gamma 90
_cell_formula_units_Z 8
loop_
_atom_type_symbol
_atom_type_radius_bond
C 0.68
H 0.23
N 0.68
O 0.68
loop_
_atom_site_label
_atom_site_type_symbol
_atom_site_fract_x
_atom_site_fract_y
_atom_site_fract_z
C1 C 0.4392(3) -0.1450(11) 0.5621(4)
C2 C 0.5053(3) -0.1149(9) 0.6238(4)
C3 C 0.5282(3) 0.02880 0.6526(4)
C4 C 0.4827(3) 0.1427(9) 0.6201(4)
C5 C 0.4156(2) 0.116(1) 0.5584(3)
C6 C 0.3636(2) 0.2421(10) 0.5177(3)
C7 C 0.3484(2) 0.2635(10) 0.4079(3)
C8 C 0.3778(2) 0.3573(11) 0.3655(4)
C9 C 0.3560(3) 0.3467(10) 0.2621(4)
C10 C 0.3084(3) 0.2436(11) 0.2042(4)
C11 C 0.2800(3) 0.1504(11) 0.2492(4)
C12 C 0.2997(2) 0.1607(10) 0.3508(4)
C13 C 0.2799(2) 0.0775(10) 0.4222(4)
C14 C 0.3211(2) -0.0661(10) 0.4602(4)
C15 C 0.3934(2) -0.0307(10) 0.5281(3)
N1 N 0.2982(2) 0.1856(11) 0.5054(4)
N2 N 0.5530(3) -0.2397(12) 0.6594(4)
O1 O 0.5299(3) -0.3660(13) 0.6404(5)
O2 O 0.6123(2) -0.2132(13) 0.7065(3)
C16 C 0.3822(3) 0.3842(11) 0.5790(4)
C17 C 0.4383(3) 0.3450(11) 0.8554(4)
C18 C 0.5044(3) 0.3158(11) 0.8846(4)
C19 C 0.5279(3) 0.1736(11) 0.8880(4)
C20 C 0.4827(3) 0.0582(11) 0.8589(4)
C21 C 0.4149(2) 0.0831(11) 0.8269(3)
C22 C 0.3644(2) -0.0445(10) 0.7975(4)
C23 C 0.3477(2) -0.0651(10) 0.8861(3)
C24 C 0.3752(2) -0.1611(10) 0.9673(4)
C25 C 0.3521(3) -0.1554(11) 1.0397(4)
C26 C 0.3023(3) -0.0546(11) 1.0298(5)
C27 C 0.2749(3) 0.0427(11) 0.9485(5)
C28 C 0.2975(3) 0.0349(11) 0.8758(4)
C29 C 0.2787(3) 0.1189(10) 0.7780(4)
C30 C 0.3194(3) 0.2616(11) 0.7956(4)
C31 C 0.3924(2) 0.230(1) 0.8265(3)
N3 N 0.3010(2) 0.0190(11) 0.7185(3)
N4 N 0.5518(3) 0.4401(12) 0.9136(4)
O3 O 0.5285(3) 0.5655(13) 0.9013(6)
O4 O 0.6111(2) 0.4149(13) 0.9495(4)
C32 C 0.3839(3) -0.1862(10) 0.7607(4)
H1 H 0.42510 -0.24620 0.54290
H2 H 0.57460 0.04810 0.69410
H3 H 0.49750 0.24320 0.64030
H4 H 0.41180 0.42700 0.40540
H5 H 0.37450 0.41300 0.23010
H6 H 0.29520 0.23670 0.13340
H7 H 0.24690 0.07880 0.20960
H8 H 0.23400 0.04670 0.39260
H9 H 0.31860 -0.12280 0.40370
H10 H 0.30310 -0.12400 0.49690
H11 H 0.42470 0.41870 0.58620
H12 H 0.38450 0.36500 0.64420
H13 H 0.34900 0.45910 0.54550
H14 H 0.42370 0.44600 0.85520
H15 H 0.57450 0.15500 0.91000
H16 H 0.49840 -0.04220 0.86070
H17 H 0.40970 -0.23000 0.97320
H18 H 0.37050 -0.22080 1.09680
H19 H 0.28630 -0.05220 1.08020
H20 H 0.24120 0.11340 0.94320
H21 H 0.23210 0.14340 0.74690
H22 H 0.31560 0.31790 0.84790
H23 H 0.30190 0.31910 0.73480
H24 H 0.42460 -0.22470 0.81250
H25 H 0.39020 -0.16410 0.70210
H26 H 0.34920 -0.25930 0.74420
H27 H 0.2977(21) 0.1482(57) 0.5599(32)
H28 H 0.2734(25) -0.0564(63) 0.6937(38)
#END
