
#######################################################################
#
#                 Cambridge Crystallographic Data Centre
#                                CCDC
#
#######################################################################
#
# If this CIF has been generated from an entry in the Cambridge
# Structural Database, then it will include bibliographic, chemical,
# crystal, experimental, refinement or atomic coordinate data resulting
# from the CCDC's data processing and validation procedures.
#
#######################################################################

data_CSD_CIF_PEYGOR
_audit_creation_date 2013-05-19
_audit_creation_method CSD-ConQuest-V1
_database_code_CSD PEYGOR
_database_code_depnum_ccdc_archive 'CCDC 905433; not CCDC 905443 as published'
_chemical_formula_sum 'C18 H15 N1 O3'
_chemical_formula_moiety
;
C18 H15 N1 O3
;
_journal_coden_Cambridge 35
_journal_volume 78
_journal_year 2013
_journal_page_first 154
_journal_name_full 'J.Org.Chem. '
loop_
_publ_author_name
"N.Aljaar"
"C.C.Malakar"
"J.Conrad"
"Wolfgang Frey"
"Uwe Beifuss"
_chemical_name_systematic
;
2-(((2-Hydroxy-1-naphthyl)amino)oxy)-1-phenylethanone
;
_cell_volume   1371.979
_exptl_crystal_colour 'yellow'
_exptl_crystal_density_diffrn 1.41
_exptl_crystal_description 'needle'
_diffrn_ambient_temperature 100
#These two values have been output from a single CSD field.
_refine_ls_R_factor_gt 0.047
_refine_ls_wR_factor_gt 0.047
_symmetry_cell_setting monoclinic
_symmetry_space_group_name_H-M 'P 21/c'
_symmetry_Int_Tables_number 14
loop_
_symmetry_equiv_pos_site_id
_symmetry_equiv_pos_as_xyz
1 x,y,z
2 -x,1/2+y,1/2-z
3 -x,-y,-z
4 x,-1/2-y,-1/2+z
_cell_length_a 8.2811(8)
_cell_length_b 21.745(2)
_cell_length_c 7.6197(8)
_cell_angle_alpha 90
_cell_angle_beta 90.755(7)
_cell_angle_gamma 90
_cell_formula_units_Z 4
loop_
_atom_type_symbol
_atom_type_radius_bond
C 0.68
H 0.23
N 0.68
O 0.68
loop_
_atom_site_label
_atom_site_type_symbol
_atom_site_fract_x
_atom_site_fract_y
_atom_site_fract_z
O1 O 0.41317(13) 0.65997(5) 0.27095(14)
N1 N 0.46116(14) 0.65325(6) 0.61023(16)
C1 C 0.54316(17) 0.61347(7) 0.5206(2)
O2 O 0.49696(12) 0.65436(5) 0.78834(13)
C2 C 0.49334(18) 0.61671(7) 0.3288(2)
O3 O 0.21314(13) 0.60847(5) 0.88905(15)
C3 C 0.54451(19) 0.56676(7) 0.2155(2)
H1 H 0.51000 0.56610 0.09610
C4 C 0.63993(19) 0.52163(7) 0.2776(2)
H2 H 0.66920 0.48930 0.20030
C5 C 0.70079(18) 0.51974(7) 0.4576(2)
C6 C 0.79944(18) 0.47120(7) 0.5106(2)
H3 H 0.82480 0.43970 0.42910
C7 C 0.86095(19) 0.46806(8) 0.6792(2)
H4 H 0.92610 0.43420 0.71440
C8 C 0.82722(19) 0.51471(8) 0.7973(2)
H5 H 0.87240 0.51330 0.91240
C9 C 0.72800(18) 0.56335(7) 0.7485(2)
H6 H 0.70590 0.59500 0.83070
C10 C 0.66011(18) 0.56635(7) 0.5798(2)
C11 C 0.38594(18) 0.69558(7) 0.8706(2)
H7 H 0.36260 0.73050 0.79080
H8 H 0.43590 0.71230 0.97930
C12 C 0.22951(18) 0.66335(7) 0.9150(2)
C13 C 0.09762(18) 0.70115(7) 0.9903(2)
C14 C -0.04142(18) 0.67151(7) 1.0484(2)
H9 H -0.04880 0.62800 1.04160
C15 C -0.16794(19) 0.70485(8) 1.1154(2)
H10 H -0.26180 0.68430 1.15520
C16 C -0.15825(19) 0.76831(8) 1.1249(2)
H11 H -0.24530 0.79120 1.17170
C17 C -0.02168(19) 0.79850(8) 1.0663(2)
H12 H -0.01580 0.84210 1.07210
C18 C 0.10663(19) 0.76520(7) 0.9991(2)
H13 H 0.20020 0.78590 0.95920
#END
