
#######################################################################
#
#                 Cambridge Crystallographic Data Centre
#                                CCDC
#
#######################################################################
#
# If this CIF has been generated from an entry in the Cambridge
# Structural Database, then it will include bibliographic, chemical,
# crystal, experimental, refinement or atomic coordinate data resulting
# from the CCDC's data processing and validation procedures.
#
#######################################################################

data_CSD_CIF_PEYQOA
_audit_creation_date 2007-04-17
_audit_creation_method CSD-ConQuest-V1
_database_code_CSD PEYQOA
_database_code_depnum_ccdc_archive 'CCDC 641818'
_chemical_formula_sum 'C20 H19 N1 O3'
_chemical_formula_moiety
;
C20 H19 N1 O3
;
_journal_coeditor_code "IUCr AV3067"
_journal_coden_Cambridge 591
_journal_volume 63
_journal_year 2007
_journal_page_first o196
_journal_name_full 'Acta Crystallogr.,Sect.C:Cryst.Struct.Commun. '
loop_
_publ_author_name
"Y.Sonoda"
"S.Tsuzuki"
"N.Tamaoki"
"M.Goto"
_chemical_name_systematic
;
(1E,3Z,5E)-1-(4-Ethoxyphenyl)-6-(4-nitrophenyl)hexa-1,3,5-triene
;
_cell_volume   3373.837
_exptl_crystal_colour 'orange'
_exptl_crystal_density_diffrn 1.265
_exptl_crystal_description 'rectangular'
_exptl_crystal_preparation 'dichloromethane/toluene'
_diffrn_ambient_temperature 183
#These two values have been output from a single CSD field.
_refine_ls_R_factor_gt 0.0638
_refine_ls_wR_factor_gt 0.0638
_symmetry_cell_setting orthorhombic
_symmetry_space_group_name_H-M 'P c a 21'
_symmetry_Int_Tables_number 29
loop_
_symmetry_equiv_pos_site_id
_symmetry_equiv_pos_as_xyz
1 x,y,z
2 -x,-y,1/2+z
3 1/2+x,-y,z
4 1/2-x,y,1/2+z
_cell_length_a 18.914(9)
_cell_length_b 6.880(3)
_cell_length_c 25.927(11)
_cell_angle_alpha 90
_cell_angle_beta 90
_cell_angle_gamma 90
_cell_formula_units_Z 8
loop_
_atom_type_symbol
_atom_type_radius_bond
C 0.68
H 0.23
N 0.68
O 0.68
loop_
_atom_site_label
_atom_site_type_symbol
_atom_site_fract_x
_atom_site_fract_y
_atom_site_fract_z
C1 C 0.3896(4) 1.1009(12) 1.0080(3)
C2 C 0.3283(4) 1.1630(12) 0.9856(3)
H1 H 0.31090 1.29110 0.99060
C3 C 0.2923(4) 1.0269(12) 0.9548(3)
H2 H 0.24950 1.06570 0.93860
C4 C 0.3161(3) 0.8406(11) 0.9469(3)
C5 C 0.3782(3) 0.7860(12) 0.9713(3)
H3 H 0.39500 0.65660 0.96760
C6 C 0.4159(3) 0.9148(12) 1.0009(3)
H4 H 0.45940 0.87700 1.01620
C7 C 0.2765(3) 0.7124(11) 0.9126(3)
H5 H 0.23000 0.75220 0.90370
C8 C 0.2991(3) 0.5434(11) 0.8921(3)
H6 H 0.34560 0.49900 0.89940
C9 C 0.2535(4) 0.4287(11) 0.8592(3)
H7 H 0.20690 0.47610 0.85390
C10 C 0.2707(4) 0.2612(12) 0.8353(3)
H8 H 0.23540 0.20640 0.81370
C11 C 0.3366(4) 0.1552(12) 0.8385(3)
H9 H 0.37490 0.21030 0.85720
C12 C 0.3453(4) -0.0193(12) 0.8159(3)
H10 H 0.30610 -0.06480 0.79640
C13 C 0.4061(4) -0.1473(11) 0.8171(3)
C14 C 0.4035(4) -0.3243(11) 0.7903(3)
H11 H 0.36140 -0.35710 0.77230
C15 C 0.4590(4) -0.4516(11) 0.7890(3)
H12 H 0.45510 -0.57010 0.77040
C16 C 0.5207(4) -0.4067(11) 0.8150(3)
C17 C 0.5253(4) -0.2315(12) 0.8424(3)
H13 H 0.56730 -0.19970 0.86080
C18 C 0.4692(4) -0.1068(12) 0.8426(3)
H14 H 0.47330 0.01250 0.86090
C19 C 0.5769(4) -0.6955(11) 0.7850(3)
H15 H 0.56750 -0.66140 0.74860
H16 H 0.53800 -0.77990 0.79730
C20 C 0.6463(5) -0.8012(13) 0.7893(4)
H17 H 0.68400 -0.72050 0.77480
H18 H 0.64350 -0.92400 0.77030
H19 H 0.65640 -0.82800 0.82570
C21 C 0.5910(3) -0.5610(12) -0.0304(3)
C22 C 0.6498(4) -0.6266(11) -0.0036(3)
H20 H 0.66570 -0.75690 -0.00710
C23 C 0.6848(3) -0.4960(12) 0.0287(3)
H21 H 0.72620 -0.53700 0.04630
C24 C 0.6610(3) -0.3121(12) 0.0354(3)
C25 C 0.6027(3) -0.2474(11) 0.0067(3)
H22 H 0.58760 -0.11610 0.00940
C26 C 0.5670(4) -0.3746(12) -0.0256(3)
H23 H 0.52640 -0.33280 -0.04420
C27 C 0.6992(4) -0.1802(12) 0.0704(3)
H24 H 0.74600 -0.21760 0.07910
C28 C 0.6761(3) -0.0134(12) 0.0917(3)
H25 H 0.63090 0.03400 0.08180
C29 C 0.7158(4) 0.0955(12) 0.1282(3)
H26 H 0.76090 0.04460 0.13680
C30 C 0.6973(4) 0.2619(13) 0.1520(3)
H27 H 0.73000 0.30940 0.17680
C31 C 0.6346(3) 0.3771(11) 0.1449(3)
H28 H 0.59790 0.33030 0.12320
C32 C 0.6268(4) 0.5532(12) 0.1689(3)
H29 H 0.66450 0.59340 0.19060
C33 C 0.5674(3) 0.6846(10) 0.1647(2)
C34 C 0.5695(4) 0.8555(12) 0.1930(3)
H30 H 0.61000 0.88030 0.21370
C35 C 0.5154(4) 0.9927(12) 0.1925(3)
H31 H 0.51930 1.10990 0.21160
C36 C 0.4558(4) 0.9536(12) 0.1633(3)
C37 C 0.4520(4) 0.7843(12) 0.1341(3)
H32 H 0.41090 0.75830 0.11420
C38 C 0.5066(4) 0.6556(12) 0.1336(3)
H33 H 0.50390 0.54410 0.11210
C39 C 0.3993(4) 1.2473(11) 0.1912(4)
H34 H 0.43840 1.33280 0.17980
H35 H 0.40730 1.21310 0.22790
C40 C 0.3306(4) 1.3494(14) 0.1854(4)
H36 H 0.33220 1.43320 0.15480
H37 H 0.32160 1.42890 0.21610
H38 H 0.29270 1.25360 0.18140
N1 N 0.4304(4) 1.2402(11) 1.0395(3)
N2 N 0.5519(4) -0.7003(11) -0.0627(3)
O1 O 0.4013(3) 1.3938(10) 1.0511(2)
O2 O 0.4899(3) 1.1938(9) 1.0535(2)
O3 O 0.5800(2) -0.5236(7) 0.8155(2)
O4 O 0.5801(3) -0.8518(9) -0.0741(2)
O5 O 0.4919(3) -0.6508(8) -0.0770(2)
O6 O 0.3976(2) 1.0752(8) 0.1604(2)
#END
