
#######################################################################
#
#                 Cambridge Crystallographic Data Centre
#                                CCDC
#
#######################################################################
#
# If this CIF has been generated from an entry in the Cambridge
# Structural Database, then it will include bibliographic, chemical,
# crystal, experimental, refinement or atomic coordinate data resulting
# from the CCDC's data processing and validation procedures.
#
#######################################################################

data_CSD_CIF_PEYRER
_audit_creation_date 2007-04-17
_audit_creation_method CSD-ConQuest-V1
_database_code_CSD PEYRER
_database_code_depnum_ccdc_archive 'CCDC 641823'
_chemical_formula_sum 'C12 H12 N2 O5'
_chemical_formula_moiety
;
C12 H12 N2 O5
;
_journal_coeditor_code "IUCr GZ3069"
_journal_coden_Cambridge 591
_journal_volume 63
_journal_year 2007
_journal_page_first o204
_journal_name_full 'Acta Crystallogr.,Sect.C:Cryst.Struct.Commun. '
loop_
_publ_author_name
"P.Stefanowicz"
"M.Jaremko"
"L.Jaremko"
"A.Kochel"
_chemical_name_systematic
;
(3S)-Benzyl N-(1-hydroxy-2,5-dioxopyrrolidin-3-yl)carbamate
;
_chemical_melting_point 413
_cell_volume   1188.783
_exptl_crystal_colour 'colorless'
_exptl_crystal_density_diffrn 1.477
_exptl_special_details
;
Melting point range 413-414.5K
hygroscopic

;
_exptl_crystal_description 'plate'
_exptl_crystal_preparation 'ethyl acetate'
_diffrn_ambient_temperature 100
#These two values have been output from a single CSD field.
_refine_ls_R_factor_gt 0.0397
_refine_ls_wR_factor_gt 0.0397
_symmetry_cell_setting monoclinic
_symmetry_space_group_name_H-M 'P 21'
_symmetry_Int_Tables_number 4
loop_
_symmetry_equiv_pos_site_id
_symmetry_equiv_pos_as_xyz
1 x,y,z
2 -x,1/2+y,-z
_cell_length_a 12.910(3)
_cell_length_b 7.077(4)
_cell_length_c 14.001(3)
_cell_angle_alpha 90
_cell_angle_beta 111.67(3)
_cell_angle_gamma 90
_cell_formula_units_Z 4
loop_
_atom_type_symbol
_atom_type_radius_bond
C 0.68
H 0.23
N 0.68
O 0.68
loop_
_atom_site_label
_atom_site_type_symbol
_atom_site_fract_x
_atom_site_fract_y
_atom_site_fract_z
O1 O 0.70860(12) 0.2164(2) 0.48559(12)
O2 O 0.79722(13) 0.1400(2) 0.33584(11)
H1 H 0.766(2) 0.032(4) 0.3117(19)
O3 O 1.00027(13) -0.0542(2) 0.42948(13)
O4 O 0.79080(12) 0.2630(2) 0.74929(11)
O5 O 0.74498(12) -0.0335(2) 0.78135(11)
N1 N 0.84965(14) 0.1030(2) 0.43960(13)
N2 N 0.83702(15) 0.0016(3) 0.67733(14)
H2 H 0.823(2) -0.114(4) 0.6695(18)
C1 C 0.80102(16) 0.1503(3) 0.50842(15)
C2 C 0.88554(16) 0.1060(3) 0.61501(15)
H3 H 0.91590 0.22780 0.65050
C3 C 0.98004(16) 0.0006(3) 0.59489(16)
H4 H 1.05260 0.06310 0.63130
H5 H 0.98470 -0.13200 0.61860
C4 C 0.95052(16) 0.0083(3) 0.48021(16)
C5 C 0.79084(16) 0.0917(3) 0.73619(15)
C6 C 0.71173(16) 0.0379(3) 0.86245(15)
H6 H 0.65250 -0.04400 0.86900
H7 H 0.68070 0.16670 0.84440
C7 C 0.80870(16) 0.0439(3) 0.96372(15)
C8 C 0.79748(17) 0.1455(3) 1.04528(16)
H8 H 0.73030 0.21200 1.03510
C9 C 0.88372(18) 0.1498(3) 1.14095(16)
H9 H 0.87570 0.21990 1.19570
C10 C 0.98165(18) 0.0513(3) 1.15624(17)
H10 H 1.04080 0.05360 1.22150
C11 C 0.99277(17) -0.0503(3) 1.07613(16)
H11 H 1.05960 -0.11810 1.08670
C12 C 0.90701(16) -0.0540(3) 0.98037(16)
H12 H 0.91570 -0.12400 0.92590
O6 O 0.51201(12) 0.4240(2) 0.56098(12)
O7 O 0.72170(13) 0.5982(2) 0.65733(11)
H13 H 0.741(2) 0.494(4) 0.6791(19)
O8 O 0.79804(12) 0.7224(2) 0.50629(12)
O9 O 0.69593(12) 0.8229(2) 0.24594(11)
O10 O 0.74485(11) 0.5468(2) 0.19123(11)
N3 N 0.66311(13) 0.5835(2) 0.55306(12)
N4 N 0.66563(14) 0.5380(3) 0.30778(13)
H14 H 0.6846(19) 0.424(4) 0.3122(17)
C13 C 0.56044(16) 0.4951(3) 0.51081(16)
C14 C 0.52739(16) 0.5038(3) 0.39590(16)
H15 H 0.45350 0.56450 0.36350
H16 H 0.52400 0.37530 0.36690
C15 C 0.61842(16) 0.6223(3) 0.37743(15)
H17 H 0.58620 0.74820 0.34940
C16 C 0.70671(16) 0.6509(3) 0.48407(15)
C17 C 0.70265(16) 0.6496(3) 0.24930(14)
C18 C 0.77324(16) 0.6497(3) 0.11328(15)
H18 H 0.83930 0.59080 0.10560
H19 H 0.79230 0.78200 0.13580
C19 C 0.67727(16) 0.6474(3) 0.01147(15)
C20 C 0.68887(17) 0.5607(3) -0.07384(17)
H20 H 0.75800 0.50420 -0.06700
C21 C 0.60116(17) 0.5559(3) -0.16815(16)
H21 H 0.61030 0.49660 -0.22540
C22 C 0.50023(17) 0.6379(3) -0.17846(17)
H22 H 0.43950 0.63270 -0.24260
C23 C 0.48770(17) 0.7279(3) -0.09499(16)
H23 H 0.41880 0.78640 -0.10280
C24 C 0.57518(16) 0.7325(3) -0.00050(16)
H24 H 0.56590 0.79340 0.05630
#END
