
#######################################################################
#
#                 Cambridge Crystallographic Data Centre
#                                CCDC
#
#######################################################################
#
# If this CIF has been generated from an entry in the Cambridge
# Structural Database, then it will include bibliographic, chemical,
# crystal, experimental, refinement or atomic coordinate data resulting
# from the CCDC's data processing and validation procedures.
#
#######################################################################

data_CSD_CIF_PEYSER
_audit_creation_date 1994-06-13
_audit_creation_method CSD-ConQuest-V1
_database_code_CSD PEYSER
_database_code_depnum_ccdc_archive 'CCDC 1231983'
_chemical_formula_sum 'C11 H20 N2 O3'
_chemical_formula_moiety
;
C11 H20 N2 O3
;
_journal_coden_Cambridge 4
_journal_volume 115
_journal_year 1993
_journal_page_first 8898
_journal_name_full 'J.Am.Chem.Soc. '
loop_
_publ_author_name
"V.Dupont"
"A.Lecoq"
"J.-P.Mangeot"
"A.Aubry"
"G.Boussard"
"M.Marraud"
_chemical_name_systematic
;
N-Pivaloylproline-(N'-hydroxy-N'-methyl)amide
;
_cell_volume   1318.424
_exptl_crystal_density_diffrn 1.15
_diffrn_ambient_temperature ?
_diffrn_special_details
;
The study was carried out at room temperature,in the range 283-303K

;
_refine_special_details
;
The structure is disordered.

;
#These two values have been output from a single CSD field.
_refine_ls_R_factor_gt 0.052
_refine_ls_wR_factor_gt 0.052
_symmetry_cell_setting monoclinic
_symmetry_space_group_name_H-M 'P 21'
_symmetry_Int_Tables_number 4
loop_
_symmetry_equiv_pos_site_id
_symmetry_equiv_pos_as_xyz
1 x,y,z
2 -x,1/2+y,-z
_cell_length_a 8.801(1)
_cell_length_b 10.147(2)
_cell_length_c 15.334(2)
_cell_angle_alpha 90
_cell_angle_beta 105.68(1)
_cell_angle_gamma 90
_cell_formula_units_Z 4
loop_
_atom_type_symbol
_atom_type_radius_bond
C 0.68
H 0.23
N 0.68
O 0.68
loop_
_atom_site_label
_atom_site_type_symbol
_atom_site_fract_x
_atom_site_fract_y
_atom_site_fract_z
C1 C 0.0433(7) -0.0233(9) 0.6091(5)
C2 C 0.139(1) -0.248(1) 0.599(1)
C3 C 0.1856(8) -0.071(2) 0.4973(4)
C4 C 0.1751(5) -0.1055(6) 0.5912(3)
C5 C 0.3299(5) -0.0611(5) 0.6566(3)
O1 O 0.3330(3) 0.0429(4) 0.7001(2)
N1 N 0.4651(4) -0.1288(4) 0.6694(2)
C6 C 0.5011(7) -0.2499(6) 0.6251(4)
C7 C 0.6764(7) -0.2534(7) 0.6524(5)
C8 C 0.7245(7) -0.1868(6) 0.7421(4)
C9 C 0.6059(5) -0.07240 0.7310(3)
C10 C 0.6588(4) 0.0495(5) 0.6879(2)
O2 O 0.6238(4) 0.0649(4) 0.6066(2)
N2 N 0.7498(4) 0.1340(4) 0.7447(2)
O3 O 0.8002(4) 0.1040(4) 0.8375(2)
C11 C 0.8241(8) 0.2458(8) 0.7186(5)
H1 H -0.048(7) -0.047(6) 0.579(4)
H2 H 0.05(1) -0.27(1) 0.560(5)
H3 H 0.09(1) -0.061(9) 0.468(6)
H4 H 0.466(6) -0.241(5) 0.565(3)
H5 H 0.713(6) -0.206(6) 0.611(4)
H6 H 0.853(6) -0.137(6) 0.757(3)
H7 H 0.577(5) -0.053(5) 0.779(3)
H8 H 0.907(7) 0.241(7) 0.718(4)
H9 H 0.806(7) 0.316(7) 0.741(4)
H10 H 0.721(5) 0.136(5) 0.871(3)
C12 C 0.9220(9) 0.381(1) 1.0144(5)
C13 C 0.748(2) 0.452(2) 1.1104(5)
C14 C 0.785(1) 0.6013(9) 0.9871(6)
C15 C 0.7709(8) 0.4560(6) 1.0153(3)
C16 C 0.6328(6) 0.3900(5) 0.9463(3)
O4 O 0.6553(4) 0.2850(4) 0.9099(2)
N3 N 0.4902(5) 0.4388(4) 0.9223(3)
C17 C 0.424(1) 0.5537(9) 0.9600(8)
C18 C 0.258(2) 0.529(2) 0.929(2)
C19 C 0.2209(8) 0.453(1) 0.8452(7)
C20 C 0.3738(6) 0.3867(6) 0.8425(4)
C21 C 0.4275(5) 0.4154(5) 0.7597(3)
O5 O 0.5361(5) 0.4891(4) 0.7586(2)
N4 N 0.3505(5) 0.3523(5) 0.6827(3)
O6 O 0.2167(4) 0.2792(5) 0.6831(3)
C22 C 0.382(1) 0.367(1) 0.5972(4)
H11 H 0.993(8) 0.406(8) 1.058(4)
H12 H 0.864(9) 0.649(8) 1.014(5)
H13 H 0.81(1) 0.48(1) 1.131(7)
H14 H 0.46(1) 0.620(9) 0.926(6)
H15 H 0.19(2) 0.61(1) 0.93(1)
H16 H 0.177(9) 0.502(9) 0.786(5)
H17 H 0.371(6) 0.295(7) 0.850(3)
H18 H 0.382(7) 0.285(7) 0.569(4)
H19 H 0.252(6) 0.188(6) 0.710(3)
C23? C 0.032(6) -0.043(6) 0.687(4)
C24? C 0.067(6) 0.095(7) 0.598(4)
C25? C 0.21(1) -0.34(1) 0.600(7)
C26? C 0.18(1) -0.27(1) 0.656(6)
C27? C 0.24(1) -0.01(1) 0.489(6)
C28? C 0.27(1) -0.12(1) 0.477(5)
C29? C 0.904(7) 0.284(8) 1.040(4)
C30? C 0.962(7) 0.389(7) 0.928(4)
C31? C 0.802(9) 0.588(9) 0.931(5)
C32? C 0.673(8) 0.657(8) 1.013(5)
C33? C 0.65(1) 0.49(1) 1.119(7)
C34? C 0.70(1) 0.35(1) 1.130(6)
C35? C 0.6059(5) -0.07240 0.7310(3)
C36? C 0.8241(8) 0.248(8) 0.7186(5)
C37? C 0.6328(6) 0.3900(5) 0.9463(3)
C38? C 0.444(5) -0.330(6) 0.661(3)
C39? C 0.721(6) -0.336(7) 0.662(4)
C40? C 0.700(6) -0.227(6) 0.803(4)
C41? C 0.784(6) 0.256(6) 0.654(4)
C42? C 0.477(9) 0.58(1) 1.026(6)
C43? C 0.23(2) 0.54(2) 0.962(9)
C44? C 0.147(8) 0.383(9) 0.820(5)
C45? C 0.468(8) 0.398(8) 0.605(4)
C46? C 0.301(7) 0.410(7) 0.550(4)
C47? C 0.806(7) 0.316(7) 0.741(4)
O7? O 0.252(6) 0.188(6) 0.710(3)
#END
