
#######################################################################
#
#                 Cambridge Crystallographic Data Centre
#                                CCDC
#
#######################################################################
#
# If this CIF has been generated from an entry in the Cambridge
# Structural Database, then it will include bibliographic, chemical,
# crystal, experimental, refinement or atomic coordinate data resulting
# from the CCDC's data processing and validation procedures.
#
#######################################################################

data_CSD_CIF_PEYSUH
_audit_creation_date 1994-06-28
_audit_creation_method CSD-ConQuest-V1
_database_code_CSD PEYSUH
_database_code_depnum_ccdc_archive 'CCDC 1231986'
_chemical_formula_sum 'C13 H24 N4 O4'
_chemical_formula_moiety
;
C13 H24 N4 O4
;
_journal_coden_Cambridge 4
_journal_volume 115
_journal_year 1993
_journal_page_first 8898
_journal_name_full 'J.Am.Chem.Soc. '
loop_
_publ_author_name
"V.Dupont"
"A.Lecoq"
"J.-P.Mangeot"
"A.Aubry"
"G.Boussard"
"M.Marraud"
_chemical_name_systematic
;
N-Pivaloyl-prolyl-glycine-(N'-hydroxy-N'-methylamino)amide
;
_chemical_name_common
;
PEPSEQ A=2 PRO*-GLY*
;
_cell_volume    761.973
_exptl_special_details
;
Dx reported as 1.24; we calculate 1.31

;
_diffrn_ambient_temperature ?
_diffrn_special_details
;
The study was carried out at room temperature,in the range 283-303K

;
_refine_special_details
;
Short C-N bond at N4.

;
#These two values have been output from a single CSD field.
_refine_ls_R_factor_gt 0.065
_refine_ls_wR_factor_gt 0.065
_symmetry_cell_setting triclinic
_symmetry_space_group_name_H-M 'P -1'
_symmetry_Int_Tables_number 2
loop_
_symmetry_equiv_pos_site_id
_symmetry_equiv_pos_as_xyz
1 x,y,z
2 -x,-y,-z
_cell_length_a 7.267(2)
_cell_length_b 9.775(2)
_cell_length_c 12.086(2)
_cell_angle_alpha 72.54(2)
_cell_angle_beta 86.50(2)
_cell_angle_gamma 68.71(2)
_cell_formula_units_Z 2
loop_
_atom_type_symbol
_atom_type_radius_bond
C 0.68
H 0.23
N 0.68
O 0.68
loop_
_atom_site_label
_atom_site_type_symbol
_atom_site_fract_x
_atom_site_fract_y
_atom_site_fract_z
C1 C 0.3946(6) 0.3085(5) 0.9190(3)
C2 C 0.7037(6) 0.0896(4) 0.9489(3)
C3 C 0.7099(8) 0.3460(5) 0.9344(3)
C4 C 0.6079(4) 0.2604(3) 0.8874(2)
C5 C 0.6165(4) 0.3006(3) 0.7543(2)
O1 O 0.4632(3) 0.3831(2) 0.6928(2)
N1 N 0.7851(3) 0.2466(2) 0.7026(2)
C6 C 0.9903(4) 0.1678(4) 0.7524(3)
C7 C 1.1106(5) 0.2265(5) 0.6579(4)
C8 C 1.0025(5) 0.2485(5) 0.5488(3)
C9 C 0.7821(4) 0.2951(3) 0.5755(2)
C10 C 0.6856(4) 0.2139(3) 0.5233(2)
O2 O 0.6903(4) 0.0823(2) 0.5742(2)
N2 N 0.6130(4) 0.2854(2) 0.4155(2)
C11 C 0.5389(4) 0.2152(3) 0.3480(2)
C12 C 0.3257(4) 0.3036(3) 0.3103(2)
O3 O 0.2306(3) 0.4258(1) 0.3283(2)
N3 N 0.2424(4) 0.2402(3) 0.2526(2)
O4 O 0.3599(4) 0.1042(3) 0.2295(2)
N4 N 0.0433(6) 0.3062(5) 0.2068(4)
H1 H 0.353(4) 0.255(3) 0.879(2)
H2 H 0.687(4) 0.077(3) 1.028(2)
H3 H 0.679(4) 0.335(3) 1.008(2)
H4 H 0.996(4) 0.171(3) 0.829(2)
H5 H 1.245(4) 0.170(3) 0.668(2)
H6 H 1.040(4) 0.158(3) 0.518(2)
H7 H 0.717(4) 0.397(3) 0.546(2)
H8 H 0.617(4) 0.207(3) 0.282(2)
H9 H -0.014(4) 0.396(3) 0.235(2)
C13 C -0.009(4) 0.229(3) 0.250(2)
H10 H 0.592(4) 0.399(3) 0.373(2)
H11 H 0.340(4) 0.023(3) 0.301(2)
C14? C 0.357(4) 0.406(3) 0.894(2)
C15? C 0.387(4) 0.292(3) 0.999(2)
C16? C 0.817(4) 0.056(3) 0.929(2)
C17? C 0.640(4) 0.035(3) 0.912(2)
C18? C 0.623(4) 0.465(3) 0.901(2)
C19? C 0.840(4) 0.314(3) 0.901(2)
C20? C 1.094(4) 0.107(3) 0.681(2)
C21? C 1.098(4) 0.347(3) 0.648(2)
C22? C 1.012(4) 0.135(3) 0.462(2)
C23? C 0.571(4) 0.120(3) 0.392(2)
C24? C 0.031(4) 0.317(3) 0.139(2)
#END
