
#######################################################################
#
#                 Cambridge Crystallographic Data Centre
#                                CCDC
#
#######################################################################
#
# If this CIF has been generated from an entry in the Cambridge
# Structural Database, then it will include bibliographic, chemical,
# crystal, experimental, refinement or atomic coordinate data resulting
# from the CCDC's data processing and validation procedures.
#
#######################################################################

data_CSD_CIF_PEYTOD
_audit_creation_date 2007-04-17
_audit_creation_method CSD-ConQuest-V1
_database_code_CSD PEYTOD
_database_code_depnum_ccdc_archive 'CCDC 641819'
_chemical_formula_sum 'C21 H21 N1 O3'
_chemical_formula_moiety
;
C21 H21 N1 O3
;
_journal_coeditor_code "IUCr AV3067"
_journal_coden_Cambridge 591
_journal_volume 63
_journal_year 2007
_journal_page_first o196
_journal_name_full 'Acta Crystallogr.,Sect.C:Cryst.Struct.Commun. '
loop_
_publ_author_name
"Y.Sonoda"
"S.Tsuzuki"
"N.Tamaoki"
"M.Goto"
_chemical_name_systematic
;
(1E,3Z,5E)-1-(4-Nitrophenyl)-6-(4-n-propoxyphenyl)hexa-1,3,5-triene
;
_cell_volume   1780.484
_exptl_crystal_colour 'red'
_exptl_crystal_density_diffrn 1.251
_exptl_crystal_description 'rectangular'
_exptl_crystal_preparation 'dichloromethane/toluene'
_diffrn_ambient_temperature 223
#These two values have been output from a single CSD field.
_refine_ls_R_factor_gt 0.0411
_refine_ls_wR_factor_gt 0.0411
loop_
_citation_database_id_CSD
_citation_special_details
QEVVET "is a stereoisomer of this entry"
_symmetry_cell_setting monoclinic
_symmetry_space_group_name_H-M 'P 21/c'
_symmetry_Int_Tables_number 14
loop_
_symmetry_equiv_pos_site_id
_symmetry_equiv_pos_as_xyz
1 x,y,z
2 -x,1/2+y,1/2-z
3 -x,-y,-z
4 x,-1/2-y,-1/2+z
_cell_length_a 15.3615(11)
_cell_length_b 6.8341(5)
_cell_length_c 17.6625(12)
_cell_angle_alpha 90
_cell_angle_beta 106.215(1)
_cell_angle_gamma 90
_cell_formula_units_Z 4
loop_
_atom_type_symbol
_atom_type_radius_bond
C 0.68
H 0.23
N 0.68
O 0.68
loop_
_atom_site_label
_atom_site_type_symbol
_atom_site_fract_x
_atom_site_fract_y
_atom_site_fract_z
C1 C -0.17887(8) 0.68308(18) 0.40969(7)
C2 C -0.20386(8) 0.87765(19) 0.40620(7)
H1 H -0.24930 0.92650 0.36300
C3 C -0.16058(7) 0.99830(18) 0.46754(7)
H2 H -0.17680 1.13120 0.46550
C4 C -0.09321(7) 0.92933(16) 0.53273(6)
C5 C -0.07023(8) 0.73096(17) 0.53382(7)
H3 H -0.02540 0.68040 0.57710
C6 C -0.11210(9) 0.60887(18) 0.47269(7)
H4 H -0.09550 0.47630 0.47370
C7 C -0.05072(7) 1.06399(17) 0.59595(6)
H5 H -0.07450 1.19160 0.59190
C8 C 0.01881(7) 1.02554(17) 0.65954(6)
H6 H 0.04410 0.89930 0.66500
C9 C 0.05648(7) 1.16771(17) 0.71968(6)
H7 H 0.03220 1.29480 0.71150
C10 C 0.12334(7) 1.13672(17) 0.78683(7)
H8 H 0.14060 1.24480 0.82060
C11 C 0.17121(7) 0.95658(17) 0.81245(7)
H9 H 0.16100 0.84930 0.77780
C12 C 0.23005(7) 0.93722(17) 0.88440(7)
H10 H 0.23930 1.04960 0.91630
C13 C 0.28125(7) 0.76450(16) 0.91922(7)
C14 C 0.33490(8) 0.77312(18) 0.99706(7)
H11 H 0.33860 0.89180 1.02470
C15 C 0.38306(8) 0.61317(18) 1.03520(7)
H12 H 0.41860 0.62370 1.08780
C16 C 0.37845(7) 0.43777(17) 0.99523(7)
C17 C 0.32796(8) 0.42800(17) 0.91590(7)
H13 H 0.32690 0.31120 0.88750
C18 C 0.28010(8) 0.58754(17) 0.87928(7)
H14 H 0.24580 0.57770 0.82630
C19 C 0.47326(8) 0.27455(18) 1.10809(7)
H15 H 0.43540 0.31470 1.14170
H16 H 0.52230 0.37020 1.11430
C20 C 0.51229(9) 0.0758(2) 1.13229(8)
H17 H 0.54670 0.03270 1.09620
H18 H 0.46300 -0.01780 1.12870
C21 C 0.57402(10) 0.0784(2) 1.21601(9)
H19 H 0.62270 0.17160 1.21970
H20 H 0.59940 -0.05100 1.22990
H21 H 0.53940 0.11630 1.25190
N1 N -0.22321(8) 0.55365(18) 0.34488(6)
O1 O -0.29183(7) 0.61106(19) 0.29632(7)
O2 O -0.18905(9) 0.39308(17) 0.34138(6)
O3 O 0.41971(6) 0.26844(12) 1.02721(5)
#END
