
#######################################################################
#
#                 Cambridge Crystallographic Data Centre
#                                CCDC
#
#######################################################################
#
# If this CIF has been generated from an entry in the Cambridge
# Structural Database, then it will include bibliographic, chemical,
# crystal, experimental, refinement or atomic coordinate data resulting
# from the CCDC's data processing and validation procedures.
#
#######################################################################

data_CSD_CIF_PEYTIX
_audit_creation_date 2007-04-17
_audit_creation_method CSD-ConQuest-V1
_database_code_CSD PEYTIX
_database_code_depnum_ccdc_archive 'CCDC 641817'
_chemical_formula_sum 'C19 H17 N1 O3'
_chemical_formula_moiety
;
C19 H17 N1 O3
;
_journal_coeditor_code "IUCr AV3067"
_journal_coden_Cambridge 591
_journal_volume 63
_journal_year 2007
_journal_page_first o196
_journal_name_full 'Acta Crystallogr.,Sect.C:Cryst.Struct.Commun. '
loop_
_publ_author_name
"Y.Sonoda"
"S.Tsuzuki"
"N.Tamaoki"
"M.Goto"
_chemical_name_systematic
;
(1E,3Z,5E)-1-(4-Methoxyphenyl)-6-(4-nitrophenyl)hexa-1,3,5-triene
;
_cell_volume   3147.252
_exptl_crystal_colour 'orange'
_exptl_crystal_density_diffrn 1.297
_exptl_crystal_description 'rectangular'
_exptl_crystal_preparation 'acetonitrile'
_diffrn_ambient_temperature 183
#These two values have been output from a single CSD field.
_refine_ls_R_factor_gt 0.0427
_refine_ls_wR_factor_gt 0.0427
loop_
_citation_database_id_CSD
_citation_special_details
QEVTUH "is a stereoisomer of this entry"
_symmetry_cell_setting orthorhombic
_symmetry_space_group_name_H-M 'P b c n'
_symmetry_Int_Tables_number 60
loop_
_symmetry_equiv_pos_site_id
_symmetry_equiv_pos_as_xyz
1 x,y,z
2 1/2-x,1/2-y,1/2+z
3 -x,y,1/2-z
4 1/2+x,1/2-y,-z
5 -x,-y,-z
6 -1/2+x,-1/2+y,-1/2-z
7 x,-y,-1/2+z
8 -1/2-x,-1/2+y,z
_cell_length_a 13.0541(11)
_cell_length_b 6.9672(6)
_cell_length_c 34.604(3)
_cell_angle_alpha 90
_cell_angle_beta 90
_cell_angle_gamma 90
_cell_formula_units_Z 8
loop_
_atom_type_symbol
_atom_type_radius_bond
C 0.68
H 0.23
N 0.68
O 0.68
loop_
_atom_site_label
_atom_site_type_symbol
_atom_site_fract_x
_atom_site_fract_y
_atom_site_fract_z
C1 C 0.88041(10) 0.5098(2) 0.95611(4)
C2 C 0.86381(11) 0.7040(2) 0.96131(4)
H1 H 0.85720 0.75680 0.98650
C3 C 0.85708(11) 0.8192(2) 0.92906(4)
H2 H 0.84540 0.95290 0.93230
C4 C 0.86695(9) 0.7449(2) 0.89172(4)
C5 C 0.88609(11) 0.54830(19) 0.88796(4)
H3 H 0.89470 0.49490 0.86290
C6 C 0.89277(10) 0.4309(2) 0.91968(4)
H4 H 0.90570 0.29760 0.91670
C7 C 0.85465(10) 0.87210(19) 0.85869(4)
H5 H 0.84100 1.00300 0.86440
C8 C 0.86025(10) 0.8263(2) 0.82117(4)
H6 H 0.87750 0.69800 0.81450
C9 C 0.84162(10) 0.96038(19) 0.79042(4)
H7 H 0.82650 1.08860 0.79780
C10 C 0.84339(10) 0.92345(19) 0.75229(4)
H8 H 0.82700 1.02770 0.73570
C11 C 0.86719(9) 0.74411(19) 0.73368(4)
H9 H 0.88980 0.63980 0.74920
C12 C 0.8589(1) 0.71789(19) 0.69554(4)
H10 H 0.83780 0.82640 0.68100
C13 C 0.87831(9) 0.54296(18) 0.67359(4)
C14 C 0.85294(10) 0.53563(19) 0.63447(4)
H11 H 0.82610 0.64750 0.62250
C15 C 0.86538(10) 0.3715(2) 0.61254(4)
H12 H 0.84650 0.37090 0.58600
C16 C 0.90548(9) 0.20826(18) 0.62948(4)
C17 C 0.93447(10) 0.21290(18) 0.66831(4)
H13 H 0.96420 0.10250 0.67990
C18 C 0.9202(1) 0.37636(18) 0.68995(4)
H14 H 0.93910 0.37640 0.71650
C19 C 0.89107(13) 0.0236(3) 0.57142(4)
H15 H 0.81820 0.05560 0.56900
H16 H 0.90260 -0.10770 0.56220
H17 H 0.93170 0.11320 0.55590
N1 N 0.88338(10) 0.3837(2) 0.98965(3)
O1 O 0.87144(11) 0.45429(19) 1.02176(3)
O2 O 0.89724(11) 0.21154(17) 0.98479(3)
O3 O 0.92112(8) 0.03779(15) 0.61096(3)
#END
