
#######################################################################
#
#                 Cambridge Crystallographic Data Centre
#                                CCDC
#
#######################################################################
#
# If this CIF has been generated from an entry in the Cambridge
# Structural Database, then it will include bibliographic, chemical,
# crystal, experimental, refinement or atomic coordinate data resulting
# from the CCDC's data processing and validation procedures.
#
#######################################################################

data_CSD_CIF_PEZBOL
_audit_creation_date 1994-05-24
_audit_creation_method CSD-ConQuest-V1
_database_code_CSD PEZBOL
_database_code_depnum_ccdc_archive 'CCDC 1232024'
_chemical_formula_sum 'C36 H42 N8 O8'
_chemical_formula_moiety
;
C36 H42 N8 O8
;
_journal_coden_Cambridge 127
_journal_volume 50
_journal_year 1992
_journal_page_first 249
_journal_name_full 'Huaxue Xuebao(Chin.)(Acta Chim.Sinica) '
loop_
_publ_author_name
"Nai-Jue Zhu"
"Yan Li"
"Guo-Zhang Wu"
"Xiao-Guang Liang"
_chemical_name_systematic
;
meso(2,3,7,8,12,13,17,18-Octaethyl-5,10,15,20-tetranitro)porphyrin
;
_cell_volume   3577.159
_exptl_special_details
;
monoclinic polymorph

;
_diffrn_ambient_temperature ?
_diffrn_special_details
;
The study was carried out at room temperature,in the range 283-303K

;
#These two values have been output from a single CSD field.
_refine_ls_R_factor_gt 0.076
_refine_ls_wR_factor_gt 0.076
_symmetry_cell_setting monoclinic
_symmetry_space_group_name_H-M 'P 21/n'
_symmetry_Int_Tables_number 14
loop_
_symmetry_equiv_pos_site_id
_symmetry_equiv_pos_as_xyz
1 x,y,z
2 1/2-x,1/2+y,1/2-z
3 -x,-y,-z
4 -1/2+x,-1/2-y,-1/2+z
_cell_length_a 10.52(5)
_cell_length_b 25.22(1)
_cell_length_c 13.56(7)
_cell_angle_alpha 90
_cell_angle_beta 96.12(4)
_cell_angle_gamma 90
_cell_formula_units_Z 4
loop_
_atom_type_symbol
_atom_type_radius_bond
C 0.68
N 0.68
O 0.62
loop_
_atom_site_label
_atom_site_type_symbol
_atom_site_fract_x
_atom_site_fract_y
_atom_site_fract_z
C1 C 0.0581(7) 0.3632(3) 0.2057(6)
C2 C 0.0355(7) 0.3441(3) 0.1093(5)
C3 C -0.0069(8) 0.3699(3) 0.0171(6)
C4 C 0.0053(7) 0.3337(3) -0.0586(6)
C5 C 0.0531(7) 0.2860(3) -0.0119(5)
C6 C 0.0991(7) 0.2387(3) -0.0522(5)
C7 C 0.1262(7) 0.1905(3) -0.0066(5)
C8 C 0.1934(7) 0.1448(3) -0.0424(5)
C9 C 0.1834(7) 0.1054(3) 0.0246(5)
C10 C 0.1082(7) 0.1271(3) 0.1008(5)
C11 C 0.0530(7) 0.0998(3) 0.1754(5)
C12 C -0.0043(7) 0.1203(3) 0.2551(5)
C13 C -0.0747(7) 0.0924(3) 0.3261(5)
C14 C -0.0926(7) 0.1279(3) 0.4005(5)
C15 C -0.0323(7) 0.1769(3) 0.3756(5)
C16 C -0.0069(7) 0.2236(3) 0.4301(5)
C17 C 0.0444(7) 0.2710(3) 0.3988(5)
C18 C 0.1045(7) 0.3137(3) 0.4588(5)
C19 C 0.1247(7) 0.3540(3) 0.3941(6)
C20 C 0.0774(7) 0.3352(3) 0.2961(5)
C21 C -0.0644(12) 0.4247(4) 0.0016(7)
C22 C -0.2072(12) 0.4253(6) -0.0019(9)
C23 C -0.0408(10) 0.3417(4) -0.1662(7)
C24 C -0.1566(10) 0.3081(5) -0.2006(7)
C25 C 0.2625(7) 0.1391(3) -0.1322(5)
C26 C 0.1842(9) 0.1121(4) -0.2188(6)
C27 C 0.2552(8) 0.0541(4) 0.0249(6)
C28 C 0.3807(9) 0.0559(4) 0.0919(8)
C29 C -0.1405(8) 0.0403(3) 0.3151(6)
C30 C -0.2617(10) 0.0431(4) 0.2439(8)
C31 C -0.1596(8) 0.1147(3) 0.4902(6)
C32 C -0.0821(12) 0.0809(6) 0.5662(9)
C33 C 0.1531(9) 0.3120(4) 0.5683(6)
C34 C 0.2640(9) 0.2746(5) 0.5873(8)
C35 C 0.2084(9) 0.4023(4) 0.4171(6)
C36 C 0.3431(10) 0.3920(4) 0.393(1)
N1 N 0.0626(7) 0.4215(3) 0.2164(5)
N2 N 0.1317(5) 0.2432(2) -0.1686(3)
N3 N 0.0564(6) 0.0407(3) 0.1703(4)
N4 N -0.0410(5) 0.2231(2) 0.5431(4)
N5 N 0.0645(5) 0.2927(2) 0.0887(4)
N6 N 0.0823(6) 0.1788(2) 0.0826(4)
N7 N 0.0128(5) 0.1708(2) 0.2868(4)
N8 N 0.0337(5) 0.2839(2) 0.3005(4)
O1 O -0.0166(7) 0.4430(3) 0.2572(5)
O2 O 0.1432(7) 0.4453(3) 0.1770(5)
O3 O 0.1939(10) 0.2691(5) -0.1713(6)
O4 O 0.0586(10) 0.2244(4) -0.2076(6)
O5 O -0.0161(6) 0.0198(2) 0.1074(4)
O6 O 0.1331(6) 0.0190(2) 0.2302(4)
O7 O 0.0267(8) 0.1927(4) 0.5855(6)
O8 O -0.1060(7) 0.2455(3) 0.5535(4)
#END
