
#######################################################################
#
#                 Cambridge Crystallographic Data Centre
#                                CCDC
#
#######################################################################
#
# If this CIF has been generated from an entry in the Cambridge
# Structural Database, then it will include bibliographic, chemical,
# crystal, experimental, refinement or atomic coordinate data resulting
# from the CCDC's data processing and validation procedures.
#
#######################################################################

data_CSD_CIF_PEZBOL01
_audit_creation_date 1994-06-13
_audit_creation_method CSD-ConQuest-V1
_database_code_CSD PEZBOL01
_chemical_formula_sum 'C36 H42 N8 O8'
_chemical_formula_moiety
;
C36 H42 N8 O8
;
_journal_coden_Cambridge 186
_journal_year 1993
_journal_page_first 3539
_journal_name_full 'J.Chem.Soc.,Dalton Trans. '
loop_
_publ_author_name
"M.O.Senge"
_chemical_name_systematic
;
meso-2,3,7,8,12,13,17,18-Octaethyl-5,10,15,20-tetranitroporphyrin
;
_cell_volume   3572.652
_exptl_crystal_colour 'red-brown'
_exptl_crystal_density_diffrn 1.329
_exptl_special_details
;
orthorhombic polymorph

;
_diffrn_ambient_temperature 130
#These two values have been output from a single CSD field.
_refine_ls_R_factor_gt 0.046
_refine_ls_wR_factor_gt 0.046
_symmetry_cell_setting orthorhombic
_symmetry_space_group_name_H-M 'P n a 21'
_symmetry_Int_Tables_number 33
loop_
_symmetry_equiv_pos_site_id
_symmetry_equiv_pos_as_xyz
1 x,y,z
2 1/2-x,1/2+y,1/2+z
3 1/2+x,1/2-y,z
4 -x,-y,1/2+z
_cell_length_a 11.114(4)
_cell_length_b 12.409(5)
_cell_length_c 25.905(11)
_cell_angle_alpha 90
_cell_angle_beta 90
_cell_angle_gamma 90
_cell_formula_units_Z 4
loop_
_atom_type_symbol
_atom_type_radius_bond
C 0.68
H 0.23
N 0.68
O 0.68
loop_
_atom_site_label
_atom_site_type_symbol
_atom_site_fract_x
_atom_site_fract_y
_atom_site_fract_z
N1 N 0.0923(3) 0.4065(3) 0.22400
N2 N 0.1165(3) 0.4149(3) 0.1111(1)
N3 N 0.2936(3) 0.5838(3) 0.1250(1)
N4 N 0.2903(3) 0.5576(3) 0.2381(1)
C1 C 0.0821(4) 0.4233(3) 0.2756(2)
C2 C -0.0339(4) 0.3852(3) 0.2951(2)
C3 C -0.0915(4) 0.4099(4) 0.3460(2)
C4 C -0.1289(4) 0.5286(4) 0.3491(2)
C5 C -0.0907(4) 0.3385(3) 0.2543(2)
C6 C -0.2183(4) 0.3004(4) 0.2536(2)
C7 C -0.3041(4) 0.3848(4) 0.2316(2)
C8 C -0.0079(4) 0.3504(3) 0.2102(2)
C9 C -0.0186(3) 0.3054(3) 0.1615(2)
C10 C 0.0437(4) 0.3268(3) 0.1161(2)
C11 C 0.0362(4) 0.2753(3) 0.0662(2)
C12 C -0.0158(4) 0.1651(3) 0.0545(2)
C13 C 0.0613(5) 0.0747(3) 0.0756(2)
C14 C 0.0975(4) 0.3383(3) 0.0316(2)
C15 C 0.1100(5) 0.3127(4) -0.0252(2)
C16 C 0.2188(6) 0.2423(6) -0.0367(2)
C17 C 0.1488(4) 0.4267(3) 0.0606(2)
C18 C 0.2144(4) 0.5173(3) 0.0446(2)
C19 C 0.2731(4) 0.5974(3) 0.0731(2)
C20 C 0.3275(4) 0.6980(3) 0.0542(2)
C21 C 0.3096(4) 0.7534(4) 0.0029(2)
C22 C 0.1916(5) 0.8158(5) 0.0004(2)
C23 C 0.3854(4) 0.7415(3) 0.0952(2)
C24 C 0.4362(4) 0.8540(3) 0.0979(2)
C25 C 0.3516(5) 0.9302(4) 0.1261(3)
C26 C 0.3670(4) 0.6652(3) 0.1384(2)
C27 C 0.4220(4) 0.6699(3) 0.1874(2)
C28 C 0.3949(4) 0.6136(3) 0.2329(2)
C29 C 0.4622(4) 0.6042(3) 0.2804(2)
C30 C 0.5881(4) 0.6408(4) 0.2921(2)
C31 C 0.5953(5) 0.7437(4) 0.3256(2)
C32 C 0.3919(4) 0.5446(3) 0.3140(2)
C33 C 0.4351(4) 0.5049(4) 0.3656(2)
C34 C 0.4877(5) 0.3895(4) 0.3619(2)
C35 C 0.2818(4) 0.5174(3) 0.2875(2)
C36 C 0.1801(4) 0.4647(3) 0.3039(2)
N5 N -0.1179(3) 0.2274(3) 0.1552(2)
O1 O -0.1063(3) 0.1377(3) 0.1735(2)
O2 O -0.2072(3) 0.2594(3) 0.1315(1)
N6 N 0.2197(4) 0.5318(3) -0.0122(2)
O3 O 0.1329(3) 0.5721(3) -0.0329(1)
O4 O 0.3122(3) 0.5023(3) -0.0341(1)
N7 N 0.5272(3) 0.7418(3) 0.1908(2)
O5 O 0.6175(3) 0.7147(3) 0.1671(2)
O6 O 0.5181(3) 0.8238(3) 0.2168(2)
N8 N 0.1721(3) 0.4443(3) 0.3608(2)
O7 O 0.1560(3) 0.5212(3) 0.3888(1)
O8 O 0.1832(3) 0.3509(3) 0.3751(1)
H1 H 0.15230 0.42840 0.20320
H2 H 0.26390 0.53120 0.14520
H3 H -0.03570 0.39410 0.37320
H4 H -0.16130 0.36520 0.35050
H5 H -0.16550 0.54380 0.38180
H6 H -0.05880 0.57280 0.34480
H7 H -0.18520 0.54370 0.32190
H8 H -0.24270 0.28190 0.28800
H9 H -0.22390 0.23680 0.23260
H10 H -0.38530 0.35850 0.23140
H11 H -0.29930 0.44800 0.25280
H12 H -0.28030 0.40250 0.19690
H13 H -0.02210 0.15650 0.01770
H14 H -0.09530 0.16020 0.06880
H15 H 0.02550 0.00650 0.06730
H16 H 0.14040 0.07850 0.06090
H17 H 0.06650 0.08220 0.11240
H18 H 0.11590 0.37870 -0.04440
H19 H 0.03870 0.27590 -0.03640
H20 H 0.22180 0.22810 -0.07310
H21 H 0.29070 0.27930 -0.02630
H22 H 0.21270 0.17540 -0.01820
H23 H 0.31060 0.70030 -0.02410
H24 H 0.37510 0.80240 -0.00300
H25 H 0.18320 0.84980 -0.03270
H26 H 0.12610 0.76670 0.00580
H27 H 0.19110 0.86970 0.02700
H28 H 0.44900 0.88040 0.06350
H29 H 0.51260 0.85220 0.11530
H30 H 0.38580 1.00120 0.12720
H31 H 0.27570 0.93260 0.10850
H32 H 0.33980 0.90420 0.16060
H33 H 0.62940 0.65340 0.26010
H34 H 0.62940 0.58380 0.30990
H35 H 0.67780 0.76260 0.33160
H36 H 0.55580 0.80150 0.30770
H37 H 0.55580 0.73120 0.35800
H38 H 0.36970 0.50570 0.38990
H39 H 0.49630 0.55270 0.37820
H40 H 0.51490 0.36670 0.39530
H41 H 0.42620 0.34130 0.34990
H42 H 0.55400 0.38880 0.33820
#END
