
#######################################################################
#
#                 Cambridge Crystallographic Data Centre
#                                CCDC
#
#######################################################################
#
# If this CIF has been generated from an entry in the Cambridge
# Structural Database, then it will include bibliographic, chemical,
# crystal, experimental, refinement or atomic coordinate data resulting
# from the CCDC's data processing and validation procedures.
#
#######################################################################

data_CSD_CIF_PEZFUW
_audit_creation_date 2007-07-19
_audit_creation_method CSD-ConQuest-V1
_database_code_CSD PEZFUW
_database_code_depnum_ccdc_archive 'CCDC 626221'
_chemical_formula_sum 'C33 H47 N4 O6'
_chemical_formula_moiety
;
C33 H47 N4 O6
;
_journal_coden_Cambridge 35
_journal_volume 72
_journal_year 2007
_journal_page_first 2021
_journal_name_full 'J.Org.Chem. '
loop_
_publ_author_name
"S.Nakatsuji"
"M.Fujino"
"S.Hasegawa"
"H.Akutsu"
"J.Yamada"
"V.S.Gurman"
"A.K.Vorobiev"
_chemical_name_systematic
;
11-(trans-4'-Nitroazobenzene-4-yloxy)undecyl 
2,2,6,6-tetramethylpiperidine-1-oxyl-4-carboxylate radical
;
_chemical_melting_point 378.15
_cell_volume   3334.791
_exptl_crystal_colour 'orange'
_exptl_crystal_density_diffrn 1.187
_exptl_special_details
;
Melting point range 378.15-381.15K
magnetic properties

;
_exptl_crystal_description 'plate'
_exptl_crystal_preparation 'hexane/methanol'
_diffrn_ambient_temperature 295
#These two values have been output from a single CSD field.
_refine_ls_R_factor_gt 0.0816
_refine_ls_wR_factor_gt 0.0816
_symmetry_cell_setting monoclinic
_symmetry_space_group_name_H-M 'P 21/c'
_symmetry_Int_Tables_number 14
loop_
_symmetry_equiv_pos_site_id
_symmetry_equiv_pos_as_xyz
1 x,y,z
2 -x,1/2+y,1/2-z
3 -x,-y,-z
4 x,-1/2-y,-1/2+z
_cell_length_a 8.998(3)
_cell_length_b 34.477(3)
_cell_length_c 11.1675(4)
_cell_angle_alpha 90
_cell_angle_beta 105.7235(8)
_cell_angle_gamma 90
_cell_formula_units_Z 4
loop_
_atom_type_symbol
_atom_type_radius_bond
C 0.68
H 0.23
N 0.68
O 0.68
loop_
_atom_site_label
_atom_site_type_symbol
_atom_site_fract_x
_atom_site_fract_y
_atom_site_fract_z
O1 O 0.8603(7) 0.15396(18) 1.0952(5)
O2 O 0.9024(7) 0.20857(18) 1.0143(4)
O3 O 1.1686(4) 0.0110(1) 0.1719(3)
O4 O 1.5605(5) -0.14961(10) -0.9390(3)
O5 O 1.6761(7) -0.11780(13) -1.0584(4)
O6 O 1.5113(6) -0.24335(14) -1.4481(4)
N1 N 0.8892(7) 0.1737(2) 1.0118(5)
N2 N 0.9996(5) 0.08841(12) 0.6155(4)
N3 N 1.0328(5) 0.10648(12) 0.5276(4)
N4 N 1.5347(6) -0.22095(14) -1.3520(4)
C1 C 0.9155(6) 0.15197(19) 0.9047(5)
C2 C 0.8967(7) 0.11245(19) 0.9012(5)
C3 C 0.9610(7) 0.17219(17) 0.8166(5)
C4 C 0.9248(7) 0.09294(17) 0.8024(5)
C5 C 0.9893(6) 0.15220(17) 0.7169(5)
C6 C 0.9703(6) 0.11248(16) 0.7097(4)
C7 C 1.0673(6) 0.08123(15) 0.4379(4)
C8 C 1.0807(6) 0.04165(15) 0.4511(4)
C9 C 1.0896(7) 0.09821(15) 0.3318(5)
C10 C 1.1128(6) 0.01941(15) 0.3600(5)
C11 C 1.1262(6) 0.07560(16) 0.2405(4)
C12 C 1.1353(6) 0.03627(15) 0.2537(4)
C13 C 1.2067(6) 0.02534(15) 0.0631(4)
C14 C 1.2445(6) -0.00923(15) -0.0055(4)
C15 C 1.2893(6) 0.00011(14) -0.1227(5)
C16 C 1.3244(6) -0.03585(14) -0.1871(4)
C17 C 1.3763(6) -0.02852(15) -0.3036(4)
C18 C 1.4084(7) -0.06524(15) -0.3659(5)
C19 C 1.4573(6) -0.05890(16) -0.4844(5)
C20 C 1.4807(6) -0.09535(15) -0.5517(5)
C21 C 1.5236(7) -0.08851(15) -0.6706(4)
C22 C 1.5364(7) -0.12485(15) -0.7433(5)
C23 C 1.5731(7) -0.11489(15) -0.8628(5)
C24 C 1.6150(7) -0.14635(16) -1.0377(5)
C25 C 1.5824(7) -0.18156(14) -1.1199(5)
C26 C 1.4376(7) -0.17547(16) -1.2249(5)
C27 C 1.7144(7) -0.18866(18) -1.1763(5)
C28 C 1.3967(7) -0.20929(16) -1.3137(5)
C29 C 1.6913(8) -0.22214(17) -1.2658(5)
C30 C 1.2778(9) -0.1960(2) -1.4288(7)
C31 C 1.3320(8) -0.24318(19) -1.2586(5)
C32 C 1.7167(9) -0.26068(18) -1.1989(6)
C33 C 1.8050(8) -0.2186(2) -1.3450(7)
H1 H 0.86210 0.09880 0.96710
H2 H 0.97570 0.20170 0.82430
H3 H 0.91360 0.06430 0.79650
H4 H 1.02480 0.16660 0.65210
H5 H 1.06480 0.02830 0.52610
H6 H 1.07800 0.12710 0.32320
H7 H 1.12030 -0.00940 0.36880
H8 H 1.14110 0.08850 0.16630
H9 H 1.12180 0.03990 0.00930
H10 H 1.29380 0.04330 0.08400
H11 H 1.32720 -0.02320 0.05050
H12 H 1.15580 -0.02620 -0.02620
H13 H 1.20500 0.01440 -0.18000
H14 H 1.37620 0.01760 -0.10320
H15 H 1.40620 -0.04950 -0.12800
H16 H 1.23600 -0.05200 -0.20770
H17 H 1.29850 -0.01260 -0.36190
H18 H 1.46940 -0.01160 -0.28300
H19 H 1.48920 -0.07960 -0.31010
H20 H 1.31680 -0.08140 -0.38510
H21 H 1.37650 -0.04280 -0.54100
H22 H 1.54940 -0.04300 -0.46700
H23 H 1.55990 -0.11070 -0.49760
H24 H 1.38650 -0.11080 -0.57020
H25 H 1.44350 -0.07130 -0.72300
H26 H 1.61720 -0.07400 -0.65230
H27 H 1.61610 -0.14230 -0.69260
H28 H 1.44140 -0.14020 -0.76060
H29 H 1.67860 -0.10350 -0.84610
H30 H 1.50570 -0.09450 -0.90700
H31 H 1.57020 -0.20540 -1.07470
H32 H 1.35220 -0.16960 -1.18990
H33 H 1.45100 -0.15170 -1.27020
H34 H 1.72530 -0.16510 -1.22230
H35 H 1.80810 -0.19150 -1.11190
H36 H 1.18980 -0.18480 -1.41240
H37 H 1.32090 -0.17600 -1.47450
H38 H 1.24340 -0.21660 -1.48960
H39 H 1.33960 -0.23950 -1.17290
H40 H 1.22650 -0.24850 -1.30170
H41 H 1.38920 -0.26740 -1.26410
H42 H 1.71590 -0.25950 -1.11360
H43 H 1.64220 -0.28030 -1.23880
H44 H 1.81840 -0.27230 -1.19810
H45 H 1.91020 -0.21320 -1.29350
H46 H 1.80990 -0.24030 -1.39450
H47 H 1.77830 -0.19600 -1.39980
#END
