
#######################################################################
#
#                 Cambridge Crystallographic Data Centre
#                                CCDC
#
#######################################################################
#
# If this CIF has been generated from an entry in the Cambridge
# Structural Database, then it will include bibliographic, chemical,
# crystal, experimental, refinement or atomic coordinate data resulting
# from the CCDC's data processing and validation procedures.
#
#######################################################################

data_CSD_CIF_PEZGAD
_audit_creation_date 2007-07-19
_audit_creation_method CSD-ConQuest-V1
_database_code_CSD PEZGAD
_database_code_depnum_ccdc_archive 'CCDC 626222'
_chemical_formula_sum 'C22 H26 N3 O3'
_chemical_formula_moiety
;
C22 H26 N3 O3
;
_journal_coden_Cambridge 35
_journal_volume 72
_journal_year 2007
_journal_page_first 2021
_journal_name_full 'J.Org.Chem. '
loop_
_publ_author_name
"S.Nakatsuji"
"M.Fujino"
"S.Hasegawa"
"H.Akutsu"
"J.Yamada"
"V.S.Gurman"
"A.K.Vorobiev"
_chemical_name_systematic
;
2,2,6,6-Tetramethylpiperidin-4-yl-1-oxyl radical 
trans-azobenzene-4-carboxylate
;
_chemical_melting_point 400.15
_cell_volume   2060.967
_exptl_crystal_colour 'orange'
_exptl_crystal_density_diffrn 1.226
_exptl_special_details
;
Melting point range 400.15-403.15K
magnetic properties

;
_exptl_crystal_description 'needle'
_exptl_crystal_preparation 'hexane/diethyl ether'
_diffrn_ambient_temperature 294.1
_refine_special_details
;
Carboxylate O atoms in one independent molecule are disordered over two 
positions with occupancy 0.65:0.35.
;
#These two values have been output from a single CSD field.
_refine_ls_R_factor_gt 0.0462
_refine_ls_wR_factor_gt 0.0462
_symmetry_cell_setting triclinic
_symmetry_space_group_name_H-M 'P -1'
_symmetry_Int_Tables_number 2
loop_
_symmetry_equiv_pos_site_id
_symmetry_equiv_pos_as_xyz
1 x,y,z
2 -x,-y,-z
_cell_length_a 8.2145(19)
_cell_length_b 11.706(3)
_cell_length_c 23.345(4)
_cell_angle_alpha 75.906(17)
_cell_angle_beta 85.643(17)
_cell_angle_gamma 71.19(3)
_cell_formula_units_Z 4
loop_
_atom_type_symbol
_atom_type_radius_bond
C 0.68
H 0.23
N 0.68
O 0.68
loop_
_atom_site_label
_atom_site_type_symbol
_atom_site_fract_x
_atom_site_fract_y
_atom_site_fract_z
O1 O 0.82534(16) 0.15123(12) 0.57107(6)
O2 O 0.0063(2) 0.05798(13) 0.72970(6)
O3 O -0.02180(17) -0.13041(12) 0.74236(5)
O4 O 0.31689(17) -0.34368(13) 0.56716(6)
O5 O 0.2743(3) 0.4999(8) 0.72744(13)
O6? O 0.363(4) 0.5515(9) 0.7273(2)
O7 O 0.5462(8) 0.3868(7) 0.7456(3)
O8? O 0.517(2) 0.3542(11) 0.7519(5)
N1 N 0.1980(2) 0.54081(16) 1.01905(7)
N2 N 0.3063(2) 0.44918(16) 1.00614(7)
N3 N 0.74480(16) 0.21718(12) 0.60690(6)
N4 N -0.2711(2) 0.04869(15) 1.01620(7)
N5 N -0.2412(2) -0.04850(16) 0.99927(7)
N6 N 0.23091(17) -0.28047(13) 0.60329(6)
C1 C 0.1012(3) 0.5330(2) 1.19817(11)
C2 C 0.2235(3) 0.4327(2) 1.18322(10)
C3 C 0.0136(3) 0.6327(2) 1.15518(11)
C4 C 0.2591(3) 0.4315(2) 1.12413(9)
C5 C 0.0487(3) 0.6326(2) 1.09648(10)
C6 C 0.1717(2) 0.53209(19) 1.08105(8)
C7 C 0.3286(2) 0.45766(17) 0.94411(8)
C8 C 0.4569(2) 0.36136(19) 0.92732(8)
C9 C 0.2287(2) 0.55343(18) 0.90150(8)
C10 C 0.4854(2) 0.36052(18) 0.86841(8)
C11 C 0.2553(2) 0.55158(18) 0.84268(8)
C12 C 0.3844(2) 0.45476(16) 0.82584(7)
C13 C 0.4003(2) 0.45392(18) 0.76206(8)
C14 C 0.5631(2) 0.36328(18) 0.68657(7)
C15 C 0.7491(2) 0.35150(17) 0.67205(8)
C16 C 0.5241(2) 0.24838(18) 0.68335(8)
C17 C 0.8030(2) 0.32234(16) 0.61174(7)
C18 C 0.5682(2) 0.21177(18) 0.62383(8)
C19 C 0.9993(2) 0.27941(19) 0.60823(9)
C20 C 0.7296(2) 0.43491(17) 0.56070(8)
C21 C 0.5705(3) 0.0790(2) 0.63093(11)
C22 C 0.4406(2) 0.2980(2) 0.57462(9)
C23 C -0.4127(3) 0.0358(2) 1.19266(10)
C24 C -0.3730(3) 0.1357(2) 1.15859(10)
C25 C -0.4097(3) -0.0622(2) 1.16932(10)
C26 C -0.3282(2) 0.1385(2) 1.09956(9)
C27 C -0.3634(3) -0.0616(2) 1.11128(9)
C28 C -0.3226(2) 0.03894(19) 1.07681(8)
C29 C -0.1892(2) -0.03841(17) 0.93885(8)
C30 C -0.1486(2) 0.06301(17) 0.90463(8)
C31 C -0.1790(2) -0.13865(18) 0.91534(9)
C32 C -0.0987(2) 0.06492(18) 0.84653(8)
C33 C -0.1286(2) -0.13652(18) 0.85712(8)
C34 C -0.0888(2) -0.03511(16) 0.82268(7)
C35 C -0.0302(2) -0.02869(17) 0.76047(8)
C36 C 0.0364(2) -0.13534(17) 0.68177(7)
C37 C 0.2295(2) -0.16597(18) 0.67880(8)
C38 C -0.0184(2) -0.23802(16) 0.66946(7)
C39 C 0.3045(2) -0.19201(17) 0.61933(8)
C40 C 0.0444(2) -0.26892(16) 0.60980(7)
C41 C 0.4989(2) -0.2549(2) 0.62639(12)
C42 C 0.2685(2) -0.07327(19) 0.57010(9)
C43 C -0.0578(2) -0.17040(19) 0.55826(8)
C44 C 0.0256(2) -0.39400(19) 0.60909(9)
H1 H 0.07450 0.53300 1.23740
H2 H 0.28890 0.36300 1.21050
H3 H -0.07330 0.70170 1.16700
H4 H 0.34440 0.36230 1.11430
H5 H -0.00530 0.69660 1.06620
H6 H 0.52850 0.29750 0.95700
H7 H 0.14120 0.61790 0.91320
H8 H 0.57730 0.29520 0.85720
H9 H 0.18340 0.61490 0.81330
H10 H 0.48520 0.43590 0.66270
H11 H 0.77690 0.43060 0.67260
H12 H 0.82060 0.28510 0.70160
H13 H 0.39980 0.26000 0.69070
H14 H 0.59130 0.17800 0.71350
H15 H 1.04360 0.34330 0.61560
H16 H 1.05120 0.20220 0.63620
H17 H 1.03830 0.26720 0.56790
H18 H 0.79710 0.48850 0.55830
H19 H 0.74580 0.40630 0.52460
H20 H 0.60590 0.48590 0.56480
H21 H 0.65630 0.02080 0.66080
H22 H 0.59680 0.05200 0.59390
H23 H 0.45860 0.07240 0.64350
H24 H 0.41430 0.38450 0.57640
H25 H 0.34090 0.27170 0.58150
H26 H 0.48800 0.28310 0.53610
H27 H -0.44810 0.03590 1.23260
H28 H -0.37720 0.20750 1.17480
H29 H -0.44190 -0.13170 1.19180
H30 H -0.30280 0.20580 1.07610
H31 H -0.35890 -0.12910 1.09290
H32 H -0.15250 0.12680 0.92040
H33 H -0.20710 -0.20710 0.93990
H34 H -0.06400 0.13480 0.82340
H35 H -0.12720 -0.20580 0.84140
H36 H -0.02110 -0.05470 0.65620
H37 H 0.26560 -0.09500 0.68510
H38 H 0.27590 -0.23910 0.70820
H39 H 0.02750 -0.31310 0.70100
H40 H -0.14540 -0.21310 0.67100
H41 H 0.54610 -0.19940 0.63930
H42 H 0.55230 -0.26960 0.59010
H43 H 0.52230 -0.33380 0.65600
H44 H 0.34200 -0.02620 0.57600
H45 H 0.14960 -0.01880 0.56900
H46 H 0.29290 -0.09940 0.53220
H47 H -0.07400 -0.08580 0.56000
H48 H -0.16920 -0.18030 0.55930
H49 H 0.00230 -0.18580 0.52180
H50 H 0.06240 -0.41590 0.57020
H51 H -0.08980 -0.39710 0.61800
H52 H 0.10660 -0.46110 0.63790
#END
