
#######################################################################
#
#                 Cambridge Crystallographic Data Centre
#                                CCDC
#
#######################################################################
#
# If this CIF has been generated from an entry in the Cambridge
# Structural Database, then it will include bibliographic, chemical,
# crystal, experimental, refinement or atomic coordinate data resulting
# from the CCDC's data processing and validation procedures.
#
#######################################################################

data_CSD_CIF_PEZGIL
_audit_creation_date 2007-07-19
_audit_creation_method CSD-ConQuest-V1
_database_code_CSD PEZGIL
_database_code_depnum_ccdc_archive 'CCDC 626223'
_chemical_formula_sum 'C22 H26 N3 O3'
_chemical_formula_moiety
;
C22 H26 N3 O3
;
_journal_coden_Cambridge 35
_journal_volume 72
_journal_year 2007
_journal_page_first 2021
_journal_name_full 'J.Org.Chem. '
loop_
_publ_author_name
"S.Nakatsuji"
"M.Fujino"
"S.Hasegawa"
"H.Akutsu"
"J.Yamada"
"V.S.Gurman"
"A.K.Vorobiev"
_chemical_name_systematic
;
trans-Azobenzene-4-yl 2,2,6,6-tetramethylpiperidine-1-oxyl-4-carboxylate 
radical
;
_chemical_melting_point 424.15
_cell_volume   2027.150
_exptl_crystal_colour 'orange'
_exptl_crystal_density_diffrn 1.247
_exptl_special_details
;
Melting point range 424.15-427.15K
magnetic properties

;
_exptl_crystal_description 'prismatic'
_exptl_crystal_preparation 'hexane/diethyl ether'
_diffrn_ambient_temperature 296.1
#These two values have been output from a single CSD field.
_refine_ls_R_factor_gt 0.055
_refine_ls_wR_factor_gt 0.055
_symmetry_cell_setting monoclinic
_symmetry_space_group_name_H-M 'P 21/n'
_symmetry_Int_Tables_number 14
loop_
_symmetry_equiv_pos_site_id
_symmetry_equiv_pos_as_xyz
1 x,y,z
2 1/2-x,1/2+y,1/2-z
3 -x,-y,-z
4 -1/2+x,-1/2-y,-1/2+z
_cell_length_a 5.773(2)
_cell_length_b 11.720(2)
_cell_length_c 30.012(2)
_cell_angle_alpha 90
_cell_angle_beta 93.34(2)
_cell_angle_gamma 90
_cell_formula_units_Z 4
loop_
_atom_type_symbol
_atom_type_radius_bond
C 0.68
H 0.23
N 0.68
O 0.68
loop_
_atom_site_label
_atom_site_type_symbol
_atom_site_fract_x
_atom_site_fract_y
_atom_site_fract_z
O1 O -0.2626(2) -0.13234(13) 0.22512(6)
O2 O 0.4455(3) 0.21614(13) 0.15630(6)
O3 O 0.4985(4) 0.08193(18) 0.10632(8)
N1 N -0.1061(2) -0.07555(14) 0.20579(6)
N2 N 0.8433(4) 0.5545(2) 0.05365(8)
N3 N 1.0288(4) 0.59172(19) 0.06660(8)
C1 C 1.2789(7) 0.8654(2) -0.00673(12)
C2 C 1.0686(7) 0.8217(3) -0.01941(12)
C3 C 1.4012(6) 0.8206(2) 0.02873(12)
C4 C 0.9810(6) 0.7300(3) 0.00338(12)
C5 C 1.3170(5) 0.7287(2) 0.0515(1)
C6 C 1.1054(4) 0.6844(2) 0.03862(9)
C7 C 0.7574(4) 0.4652(2) 0.08223(9)
C8 C 0.5505(5) 0.4182(2) 0.0666(1)
C9 C 0.8599(4) 0.4315(2) 0.12272(10)
C10 C 0.4485(5) 0.3333(2) 0.09080(11)
C11 C 0.7570(4) 0.3458(2) 0.14724(9)
C12 C 0.5548(4) 0.2982(2) 0.13024(8)
C13 C 0.4187(4) 0.1102(2) 0.13995(9)
C14 C 0.2848(3) 0.03279(19) 0.16935(6)
C15 C 0.1206(3) -0.0421(2) 0.14011(8)
C16 C 0.1430(3) 0.09456(19) 0.20310(8)
C17 C -0.0081(3) -0.13151(19) 0.16633(8)
C18 C 0.0167(3) 0.01400(19) 0.23350(6)
C19 C -0.2094(4) -0.1792(2) 0.13714(9)
C20 C 0.1510(4) -0.2294(2) 0.18193(9)
C21 C -0.1665(4) 0.0816(2) 0.25705(9)
C22 C 0.1847(4) -0.0431(2) 0.26802(8)
H1 H 1.34010 0.92750 -0.02270
H2 H 0.98140 0.85380 -0.04410
H3 H 1.54670 0.85300 0.03810
H4 H 0.83380 0.69910 -0.00580
H5 H 1.40610 0.69650 0.07600
H6 H 0.47740 0.44390 0.03920
H7 H 1.00000 0.46640 0.13390
H8 H 0.30590 0.30000 0.08010
H9 H 0.82690 0.32120 0.17500
H10 H 0.39230 -0.01570 0.18530
H11 H 0.00910 0.00590 0.12500
H12 H 0.20880 -0.08030 0.11890
H13 H 0.24480 0.14130 0.22110
H14 H 0.03120 0.14110 0.18730
H15 H -0.28990 -0.23450 0.15340
H16 H -0.31220 -0.11890 0.12840
H17 H -0.15190 -0.21370 0.11140
H18 H 0.07430 -0.27560 0.20250
H19 H 0.18880 -0.27420 0.15700
H20 H 0.28920 -0.19910 0.19610
H21 H -0.21510 0.03910 0.28180
H22 H -0.10290 0.15240 0.26720
H23 H -0.29580 0.09530 0.23670
H24 H 0.21950 0.00840 0.29190
H25 H 0.11550 -0.11010 0.27920
H26 H 0.32360 -0.06290 0.25440
#END
