
#######################################################################
#
#                 Cambridge Crystallographic Data Centre
#                                CCDC
#
#######################################################################
#
# If this CIF has been generated from an entry in the Cambridge
# Structural Database, then it will include bibliographic, chemical,
# crystal, experimental, refinement or atomic coordinate data resulting
# from the CCDC's data processing and validation procedures.
#
#######################################################################

data_CSD_CIF_PEZGIK
_audit_creation_date 1994-05-10
_audit_creation_method CSD-ConQuest-V1
_database_code_CSD PEZGIK
_chemical_formula_sum 'C23 H28 N2 O4'
_chemical_formula_moiety
;
C23 H28 N2 O4
;
_journal_coden_Cambridge 444
_journal_volume 62
_journal_year 1992
_journal_page_first 885
_journal_name_full 'Zh.Obshch.Khim.(Russ.)(Russ.J.Gen.Chem.) '
loop_
_publ_author_name
"L.P.Olekhnovich"
"V.I.Simakov"
"N.G.Furmanova"
"E.P.Ivakhnenko"
"O.Yu.Rekhlova"
"T.A.Ryskina"
"Yu.A.Zhdanov"
_chemical_name_systematic
;
2-Vinyl-7-nitro-3',5'-di-t-butyl-4'-oxo-2,3-dihydro-1,4-benzoxazine-3-spiro-1'
-cyclohexa-2',5'-diene
;
_cell_volume   2225.137
_exptl_crystal_density_diffrn 1.189
_exptl_special_details
;
y(O4) is -0.0487, not 0.0487

;
_diffrn_ambient_temperature ?
_diffrn_special_details
;
The study was carried out at room temperature,in the range 283-303K

;
#These two values have been output from a single CSD field.
_refine_ls_R_factor_gt 0.053
_refine_ls_wR_factor_gt 0.053
_symmetry_cell_setting monoclinic
_symmetry_space_group_name_H-M 'P 21/c'
_symmetry_Int_Tables_number 14
loop_
_symmetry_equiv_pos_site_id
_symmetry_equiv_pos_as_xyz
1 x,y,z
2 -x,1/2+y,1/2-z
3 -x,-y,-z
4 x,-1/2-y,-1/2+z
_cell_length_a 7.751(5)
_cell_length_b 15.797(4)
_cell_length_c 18.479(4)
_cell_angle_alpha 90
_cell_angle_beta 100.443(2)
_cell_angle_gamma 90
_cell_formula_units_Z 4
loop_
_atom_type_symbol
_atom_type_radius_bond
C 0.68
N 0.68
O 0.68
loop_
_atom_site_label
_atom_site_type_symbol
_atom_site_fract_x
_atom_site_fract_y
_atom_site_fract_z
O1 O 0.2977(3) 0.3075(1) -0.0788(1)
O2 O 0.6533(2) 0.0428(1) 0.11720
O3 O 1.0956(3) -0.1343(1) 0.2717(1)
O4 O 1.2821(3) -0.0487(1) 0.3319(1)
N1 N 0.7494(2) 0.2082(1) 0.1562(1)
N2 N 1.1494(3) -0.0621(1) 0.2870(1)
C1 C 0.3766(3) 0.3063(1) 0.0505(1)
C2 C 0.4047(3) 0.2849(1) -0.0251(1)
C3 C 0.5619(3) 0.2347(1) -0.0343(1)
C4 C 0.6472(3) 0.1934(1) 0.0243(1)
C5 C 0.5958(3) 0.1945(1) 0.0981(1)
C6 C 0.4655(3) 0.2617(1) 0.1060(1)
C7 C 0.2437(3) 0.3747(1) 0.0610(1)
C8 C 0.2587(4) 0.3967(2) 0.1430(1)
C9 C 0.2826(5) 0.4563(2) 0.0220(1)
C10 C 0.0579(1) 0.3432(2) 0.0316(2)
C11 C 0.6142(4) 0.2294(1) -0.1103(1)
C12 C 0.7868(5) 0.1816(2) -0.1066(1)
C13 C 0.4717(5) 0.1822(2) -0.1640(1)
C14 C 0.6369(5) 0.3194(2) -0.1392(1)
C15 C 0.5196(3) 0.1069(1) 0.1144(1)
C16 C 0.3684(3) 0.0788(1) 0.0570(1)
C17 C 0.2056(4) 0.0789(2) 0.0662(2)
C18 C 0.8506(3) 0.1428(1) 0.1877(1)
C19 C 0.8019(3) 0.0590(1) 0.1687(1)
C20 C 0.9006(3) -0.0082(1) 0.2000(1)
C21 C 1.0494(3) 0.0082(1) 0.2515(1)
C22 C 1.1005(3) 0.0899(1) 0.2729(1)
C23 C 1.0023(3) 0.1569(1) 0.2408(1)
#END
