
#######################################################################
#
#                 Cambridge Crystallographic Data Centre
#                                CCDC
#
#######################################################################
#
# If this CIF has been generated from an entry in the Cambridge
# Structural Database, then it will include bibliographic, chemical,
# crystal, experimental, refinement or atomic coordinate data resulting
# from the CCDC's data processing and validation procedures.
#
#######################################################################

data_CSD_CIF_PEZGOS
_audit_creation_date 2013-05-19
_audit_creation_method CSD-ConQuest-V1
_database_code_CSD PEZGOS
_database_code_depnum_ccdc_archive 'CCDC 904905'
_chemical_formula_sum 'C21 H24 N2 O3'
_chemical_formula_moiety
;
C21 H24 N2 O3
;
_journal_coden_Cambridge 1453
_journal_volume 5
_journal_year 2013
_journal_page_first 1192
_journal_name_full 'ChemCatChem '
loop_
_publ_author_name
"D.Mailhol"
"J.-C.Castillo"
"K.Mohanan"
"R.Abonia"
"Y.Coquerel"
"J.Rodriguez"
_chemical_name_systematic
;
1-(Hydroxy(phenyl)amino)-4,4-dimethyl-N-(4-methylphenyl)-2-oxocyclopentanecarb
oxamide
;
_cell_volume    953.483
_exptl_crystal_colour 'colorless'
_exptl_crystal_density_diffrn 1.228
_exptl_crystal_description 'prism'
_diffrn_ambient_temperature 293
#These two values have been output from a single CSD field.
_refine_ls_R_factor_gt 0.0421
_refine_ls_wR_factor_gt 0.0421
_symmetry_cell_setting monoclinic
_symmetry_space_group_name_H-M 'P 21'
_symmetry_Int_Tables_number 4
loop_
_symmetry_equiv_pos_site_id
_symmetry_equiv_pos_as_xyz
1 x,y,z
2 -x,1/2+y,-z
_cell_length_a 6.3189(2)
_cell_length_b 10.5152(3)
_cell_length_c 14.6184(5)
_cell_angle_alpha 90
_cell_angle_beta 100.995(1)
_cell_angle_gamma 90
_cell_formula_units_Z 2
loop_
_atom_type_symbol
_atom_type_radius_bond
C 0.68
H 0.23
N 0.68
O 0.68
loop_
_atom_site_label
_atom_site_type_symbol
_atom_site_fract_x
_atom_site_fract_y
_atom_site_fract_z
C1 C 0.7753(4) 0.3073(2) 0.64015(16)
C2 C 0.8573(4) 0.4178(3) 0.5838(2)
C3 C 0.7730(5) 0.3982(4) 0.4822(2)
H1 H 0.88550 0.36450 0.45230
H2 H 0.72370 0.47820 0.45270
C4 C 0.5852(4) 0.3037(3) 0.47303(17)
C5 C 0.6396(4) 0.2249(3) 0.56456(17)
H3 H 0.50770 0.19900 0.58410
H4 H 0.71920 0.14910 0.55430
C6 C 0.5731(6) 0.2181(4) 0.3879(2)
H5 H 0.46120 0.15610 0.38710
H6 H 0.70870 0.17560 0.39080
H7 H 0.54170 0.26870 0.33230
C7 C 0.3716(5) 0.3726(3) 0.4657(2)
H8 H 0.33900 0.41710 0.40740
H9 H 0.38100 0.43220 0.51600
H10 H 0.25970 0.31190 0.46890
C8 C 0.6515(4) 0.3728(2) 0.70823(17)
C9 C 0.7206(4) 0.5111(3) 0.84897(18)
C10 C 0.8761(5) 0.5355(3) 0.9274(2)
H11 H 1.01130 0.49790 0.93370
C11 C 0.8314(6) 0.6154(4) 0.9961(2)
H12 H 0.93770 0.63080 1.04830
C12 C 0.6333(6) 0.6727(4) 0.9893(2)
C13 C 0.4776(6) 0.6462(3) 0.9107(2)
H13 H 0.34200 0.68320 0.90500
C14 C 0.5186(5) 0.5660(3) 0.8404(2)
H14 H 0.41210 0.54950 0.78850
C15 C 0.9329(4) 0.1227(3) 0.73393(17)
C16 C 0.7493(5) 0.0986(3) 0.7699(2)
H15 H 0.64150 0.15980 0.76500
C17 C 0.7256(6) -0.0169(4) 0.8134(3)
H16 H 0.60300 -0.03120 0.83840
C18 C 0.8800(7) -0.1099(4) 0.8198(3)
H17 H 0.86220 -0.18740 0.84810
C19 C 1.0613(7) -0.0861(4) 0.7837(3)
H18 H 1.16720 -0.14830 0.78760
C20 C 1.0893(5) 0.0298(3) 0.7414(2)
H19 H 1.21410 0.04460 0.71800
C21 C 0.5847(9) 0.7638(5) 1.0628(3)
H20 H 0.67580 0.74450 1.12160
H21 H 0.43640 0.75530 1.06830
H22 H 0.61130 0.84940 1.04520
N1 N 0.7798(4) 0.4306(2) 0.77990(17)
H23 H 0.929(6) 0.400(4) 0.786(2)
N2 N 0.9686(3) 0.2439(2) 0.69395(14)
O1 O 0.9692(4) 0.5038(2) 0.61968(18)
O2 O 0.4539(3) 0.3762(2) 0.69507(15)
O3 O 1.1140(3) 0.2263(2) 0.63001(13)
H24 H 1.20850 0.28080 0.63960
#END
