
#######################################################################
#
#                 Cambridge Crystallographic Data Centre
#                                CCDC
#
#######################################################################
#
# If this CIF has been generated from an entry in the Cambridge
# Structural Database, then it will include bibliographic, chemical,
# crystal, experimental, refinement or atomic coordinate data resulting
# from the CCDC's data processing and validation procedures.
#
#######################################################################

data_CSD_CIF_PEZGUW
_audit_creation_date 1994-05-10
_audit_creation_method CSD-ConQuest-V1
_database_code_CSD PEZGUW
_chemical_formula_sum 'C23 H28 N2 O4'
_chemical_formula_moiety
;
C23 H28 N2 O4
;
_journal_coden_Cambridge 444
_journal_volume 62
_journal_year 1992
_journal_page_first 885
_journal_name_full 'Zh.Obshch.Khim.(Russ.)(Russ.J.Gen.Chem.) '
loop_
_publ_author_name
"L.P.Olekhnovich"
"V.I.Simakov"
"N.G.Furmanova"
"E.P.Ivakhnenko"
"O.Yu.Rekhlova"
"T.A.Ryskina"
"Yu.A.Zhdanov"
_chemical_name_systematic
;
2-Vinyl-6-nitro-3',5'-di-t-butyl-4'-oxo-2,3-dihydro-1,4-benzoxazine-3-spiro-1'
-cyclohexa-2',5'-diene
;
_cell_volume   4515.395
_exptl_special_details
;
z(C231) is 0.1892, not 0.1982. y(C132) is -0.3760, not -0.3960

;
_diffrn_ambient_temperature ?
_diffrn_special_details
;
The study was carried out at room temperature,in the range 283-303K

;
#These two values have been output from a single CSD field.
_refine_ls_R_factor_gt 0.057
_refine_ls_wR_factor_gt 0.057
_symmetry_cell_setting monoclinic
_symmetry_space_group_name_H-M 'P 21/n'
_symmetry_Int_Tables_number 14
loop_
_symmetry_equiv_pos_site_id
_symmetry_equiv_pos_as_xyz
1 x,y,z
2 1/2-x,1/2+y,1/2-z
3 -x,-y,-z
4 -1/2+x,-1/2-y,-1/2+z
_cell_length_a 18.726(4)
_cell_length_b 11.549(4)
_cell_length_c 22.627(5)
_cell_angle_alpha 90
_cell_angle_beta 112.67(2)
_cell_angle_gamma 90
_cell_formula_units_Z 8
loop_
_atom_type_symbol
_atom_type_radius_bond
C 0.68
N 0.68
O 0.68
loop_
_atom_site_label
_atom_site_type_symbol
_atom_site_fract_x
_atom_site_fract_y
_atom_site_fract_z
O1 O 0.2725(1) 0.0670(2) 0.2227(1)
O2 O 0.1766(1) -0.0870(2) 0.4364(1)
O3 O 0.1614(2) -0.6261(2) 0.4384(1)
O4 O 0.0921(1) -0.5855(2) 0.4922(1)
N1 N 0.2496(1) -0.2467(2) 0.3845(1)
N2 N 0.1321(1) -0.5561(3) 0.4628(1)
C1 C 0.3362(1) -0.0368(2) 0.3189(1)
C2 C 0.2664(1) 0.0035(2) 0.2640(1)
C3 C 0.1883(1) -0.0350(2) 0.2593(1)
C4 C 0.1827(1) -0.0951(2) 0.3078(1)
C5 C 0.2500(1) -0.1238(1) 0.3681(1)
C6 C 0.3264(1) -0.0972(1) 0.3655(1)
C7 C 0.4169(1) -0.0043(2) 0.3213(1)
C8 C 0.4277(2) -0.0468(4) 0.2612(2)
C9 C 0.4809(2) -0.0583(4) 0.3799(2)
C10 C 0.4263(2) 0.1278(3) 0.3270(2)
C11 C 0.1174(1) -0.0044(2) 0.1988(1)
C12 C 0.1069(2) 0.1269(3) 0.1931(2)
C13 C 0.0433(1) -0.0547(3) 0.2021(1)
C14 C 0.1267(2) -0.0571(4) 0.1395(1)
C15 C 0.2446(1) -0.0527(2) 0.4251(1)
C16 C 0.2373(2) 0.0751(3) 0.4135(1)
C17 C 0.2934(3) 0.1482(4) 0.4396(2)
C18 C 0.2025(1) -0.2839(2) 0.4155(1)
C19 C 0.1693(1) -0.2035(2) 0.4435(1)
C20 C 0.1251(2) -0.2382(3) 0.4774(1)
C21 C 0.1124(2) -0.3543(3) 0.4841(1)
C22 C 0.1447(1) -0.4337(3) 0.4559(1)
C23 C 0.1892(1) -0.4010(2) 0.4219(1)
O5 O 0.2366(1) -0.3166(2) 0.6926(1)
O6 O 0.1553(1) -0.2153(1) 0.9196(1)
O7 O 0.0609(1) 0.2658(2) 0.9900(1)
O8 O 0.1348(1) 0.3210(2) 0.9416(1)
N3 N 0.2301(1) -0.0423(2) 0.8777(1)
N4 N 0.1046(1) 0.2454(3) 0.9620(1)
C24 C 0.1580(1) -0.2232(2) 0.7380(1)
C25 C 0.2337(1) -0.2598(2) 0.7374(1)
C26 C 0.3064(1) -0.2258(2) 0.7917(1)
C27 C 0.3008(1) -0.1808(2) 0.8442(1)
C28 C 0.2264(1) -0.1600(2) 0.8519(1)
C29 C 0.1566(1) -0.1765(2) 0.7914(1)
C30 C 0.0847(1) -0.2429(2) 0.6779(1)
C31 C 0.0714(2) -0.3725(3) 0.6645(1)
C32 C 0.0129(1) -0.1930(3) 0.6859(1)
C33 C 0.0942(2) -0.1823(3) 0.6198(1)
C34 C 0.3841(1) -0.2464(3) 0.7860(1)
C35 C 0.4511(1) -0.2010(3) 0.8452(1)
C36 C 0.3965(2) -0.3760(3) 0.7797(2)
C37 C 0.3861(2) -0.1820(4) 0.7271(2)
C38 C 0.2228(1) -0.2427(2) 0.9055(1)
C39 C 0.2145(2) -0.3686(3) 0.8871(1)
C40 C 0.2655(3) -0.4461(4) 0.9140(2)
C41 C 0.1818(1) -0.0137(2) 0.9090(1)
C42 C 0.1472(1) -0.1011(2) 0.9315(1)
C43 C 0.1018(1) -0.0757(3) 0.9660(1)
C44 C 0.0882(1) 0.0384(3) 0.9769(1)
C45 C 0.1213(1) 0.1242(2) 0.9532(1)
C46 C 0.1683(1) 0.1014(2) 0.9200(1)
#END
