
#######################################################################
#
#                 Cambridge Crystallographic Data Centre
#                                CCDC
#
#######################################################################
#
# If this CIF has been generated from an entry in the Cambridge
# Structural Database, then it will include bibliographic, chemical,
# crystal, experimental, refinement or atomic coordinate data resulting
# from the CCDC's data processing and validation procedures.
#
#######################################################################

data_CSD_CIF_PEZPUI
_audit_creation_date 2018-03-13
_audit_creation_method CSD-ConQuest-V1
_database_code_CSD PEZPUI
_database_code_depnum_ccdc_archive 'CCDC 1817154'
_chemical_formula_sum 'C67 H43 N7 O8'
_chemical_formula_moiety
;
C67 H43 N7 O8
;
_journal_coden_Cambridge 179
_journal_volume 57
_journal_year 2018
_journal_page_first 4030
_journal_name_full 'Angew.Chem.,Int.Ed. '
loop_
_publ_author_name
"B.Szyszko"
"M.Przewoznik"
"M.J.Bialek"
"A.Bialonska"
"P.J.Chmielewski"
"J.Cichos"
"L.Latos-Grazynski"
_chemical_name_systematic
;
27,28-dimethoxy-7,12,17-tris(4-nitrophenyl)-22,36-diphenyl-2,37,38,39-tetraaza
nonacyclo[21.9.3.1^3,32^.1^8,11^.1^13,16^.1^18,21^.0^2,6^.0^26,34^.0^29,33^]no
natriaconta-1(33),3(36),4,6,8,10,12,14,16(38),17,19,21,23,25,27,29,31,34-octad
ecaene unknown solvate
;
_cell_volume   3117.020
_exptl_crystal_density_diffrn 1.144
_exptl_crystal_description 'plate'
_diffrn_ambient_temperature 100
_refine_special_details
;
C40 and C401 disordered over two sites with occupancies 0.776:0.223; 
C60,C61,C63,C64 and C601,C611,C631,C641 disordered over two sites with 
occupancies 0.830:0.170; Disordered solvent molecules were not modelled and 
the disordered density was taken into account using the SQUEEZE/PLATON 
procedure.
;
#These two values have been output from a single CSD field.
_refine_ls_R_factor_gt 0.0945
_refine_ls_wR_factor_gt 0.0945
_symmetry_cell_setting triclinic
_symmetry_space_group_name_H-M 'P -1'
_symmetry_Int_Tables_number 2
loop_
_symmetry_equiv_pos_site_id
_symmetry_equiv_pos_as_xyz
1 x,y,z
2 -x,-y,-z
_cell_length_a 13.820(3)
_cell_length_b 15.089(3)
_cell_length_c 16.754(4)
_cell_angle_alpha 73.40(3)
_cell_angle_beta 69.82(4)
_cell_angle_gamma 77.70(4)
_cell_formula_units_Z 2
loop_
_atom_type_symbol
_atom_type_radius_bond
C 0.68
H 0.23
N 0.68
O 0.68
loop_
_atom_site_label
_atom_site_type_symbol
_atom_site_fract_x
_atom_site_fract_y
_atom_site_fract_z
O1 O -0.1572(2) 0.92266(19) 0.7167(2)
O2 O -0.2279(3) 0.7789(3) 0.8670(2)
O3 O 0.2926(3) 0.6425(4) 0.1090(2)
O4 O 0.4227(3) 0.6429(4) 0.1479(3)
O5 O -0.5604(2) 1.0841(2) 0.3732(2)
O6 O -0.6031(2) 0.9445(2) 0.4157(2)
O7 O 0.4608(7) 1.0163(6) -0.1897(4)
O8 O 0.3226(6) 0.9784(5) -0.1995(4)
N1 N 0.0715(2) 0.5010(2) 0.6755(2)
N2 N -0.0153(2) 0.7240(2) 0.4677(2)
H1 H 0.03920 0.75840 0.41090
N3 N 0.0469(2) 0.8584(2) 0.3314(2)
N4 N 0.2301(2) 0.8196(2) 0.3555(2)
H2 H 0.15780 0.81440 0.38780
N5 N 0.3327(3) 0.6320(4) 0.1654(3)
N6 N -0.5415(3) 1.0001(3) 0.3987(2)
N7 N 0.3818(8) 0.9924(6) -0.1583(4)
C1 C 0.1842(3) 0.7744(3) 0.5426(3)
C2 C 0.1299(3) 0.8648(3) 0.5342(3)
H3 H 0.15930 0.91360 0.48710
C3 C 0.0366(3) 0.8833(3) 0.5920(3)
H4 H 0.00370 0.94580 0.58730
C4 C -0.0136(3) 0.8119(3) 0.6597(3)
C5 C -0.1077(3) 0.8315(3) 0.7251(3)
C6 C -0.1456(3) 0.7647(3) 0.7978(3)
C7 C -0.0962(3) 0.6695(3) 0.8056(3)
C8 C -0.1307(3) 0.6029(3) 0.8824(3)
H5 H -0.18560 0.62080 0.93010
C9 C -0.0864(3) 0.5122(3) 0.8900(3)
H6 H -0.10500 0.46840 0.94450
C10 C -0.0143(3) 0.4843(3) 0.8179(3)
C11 C 0.0430(3) 0.3942(3) 0.8039(3)
C12 C 0.0938(3) 0.4088(3) 0.7174(3)
C13 C 0.1583(3) 0.3618(3) 0.6518(3)
H7 H 0.18730 0.29820 0.66160
C14 C 0.1715(3) 0.4218(3) 0.5738(3)
H8 H 0.21480 0.40850 0.51950
C15 C 0.1092(3) 0.5104(3) 0.5855(3)
C16 C 0.0823(3) 0.5785(3) 0.5201(3)
C17 C -0.0109(3) 0.6464(3) 0.5326(2)
C18 C -0.1108(3) 0.6469(3) 0.5947(3)
H9 H -0.13220 0.60150 0.64770
C19 C -0.1721(3) 0.7262(3) 0.5636(3)
H10 H -0.24300 0.74440 0.59220
C20 C -0.1123(3) 0.7747(3) 0.4834(3)
C21 C -0.1342(3) 0.8535(3) 0.4187(3)
C22 C -0.0588(3) 0.8888(3) 0.3435(3)
C23 C -0.0702(4) 0.9498(3) 0.2634(3)
H11 H -0.13370 0.98200 0.25390
C24 C 0.0227(4) 0.9537(3) 0.2050(3)
H12 H 0.03800 0.98830 0.14600
C25 C 0.0979(3) 0.8950(3) 0.2480(3)
C26 C 0.2089(3) 0.8804(3) 0.2112(3)
C27 C 0.2686(3) 0.8421(3) 0.2671(3)
C28 C 0.3812(3) 0.8199(3) 0.2472(3)
H13 H 0.43050 0.82720 0.19060
C29 C 0.4024(3) 0.7865(3) 0.3250(3)
H14 H 0.47010 0.76790 0.33100
C30 C 0.3087(3) 0.7837(3) 0.3956(3)
C31 C 0.2899(3) 0.7544(3) 0.4831(3)
C32 C 0.1361(3) 0.7047(3) 0.6095(3)
H15 H 0.17290 0.64360 0.61790
C33 C 0.0360(3) 0.7204(3) 0.6649(3)
C34 C -0.0147(3) 0.6456(3) 0.7332(3)
C35 C 0.0127(3) 0.5494(3) 0.7388(3)
C36 C -0.2357(4) 0.9373(3) 0.6761(4)
H16 H -0.26880 1.00210 0.67130
H17 H -0.20470 0.92480 0.61770
H18 H -0.28790 0.89520 0.71140
C37 C -0.2721(9) 0.8516(7) 0.8871(7)
H19 H -0.32940 0.83860 0.94140
H20 H -0.22290 0.88340 0.89580
H21 H -0.29970 0.89160 0.84030
C38 C 0.0481(4) 0.3087(4) 0.8688(3)
C39 C 0.0506(5) 0.3131(4) 0.9542(4)
H22 H 0.04050 0.37170 0.96850
C40 C 0.0677(7) 0.2317(5) 1.0135(4)
H23 H 0.06910 0.23280 1.06960
C41 C 0.0835(7) 0.1451(5) 0.9883(6)
H24 H 0.09690 0.08840 1.02810
C42 C 0.0801(7) 0.1419(4) 0.9142(5)
H25 H 0.08860 0.08370 0.89970
C43 C 0.0636(5) 0.2261(4) 0.8540(4)
H26 H 0.06370 0.22210 0.79830
C44 C 0.1478(3) 0.5843(3) 0.4295(3)
C45 C 0.1062(3) 0.5996(3) 0.3600(3)
H27 H 0.03350 0.60030 0.37330
C46 C 0.1659(3) 0.6133(3) 0.2747(3)
H28 H 0.13540 0.62520 0.22920
C47 C 0.2716(3) 0.6094(3) 0.2560(3)
C48 C 0.3170(4) 0.5911(3) 0.3209(3)
H29 H 0.39030 0.58720 0.30660
C49 C 0.2565(3) 0.5785(3) 0.4062(3)
H30 H 0.28870 0.56550 0.45080
C50 C -0.2450(3) 0.8916(3) 0.4235(3)
C51 C -0.2725(3) 0.9867(3) 0.4024(3)
H31 H -0.22390 1.02750 0.39310
C52 C -0.3711(3) 1.0233(3) 0.3949(3)
H32 H -0.39080 1.08880 0.38020
C53 C -0.4390(3) 0.9620(3) 0.4092(3)
C54 C -0.4150(3) 0.8688(3) 0.4345(3)
H33 H -0.46480 0.82820 0.44670
C55 C -0.3178(3) 0.8335(3) 0.4423(3)
H34 H -0.30070 0.76810 0.46090
C56 C 0.2537(4) 0.9075(3) 0.1183(3)
C57 C 0.3341(6) 0.9587(5) -0.0621(4)
C58 C 0.3739(3) 0.7095(3) 0.5205(3)
C59 C 0.4531(3) 0.6461(3) 0.4846(3)
H35 H 0.45080 0.62710 0.43590
C60 C 0.5362(3) 0.6091(3) 0.5180(3)
H36 H 0.59070 0.56660 0.49150
C61 C 0.5389(3) 0.6350(3) 0.5910(3)
H37 H 0.59650 0.61180 0.61310
C62 C 0.4587(3) 0.6937(3) 0.6302(3)
H38 H 0.45940 0.70990 0.68080
C63 C 0.3749(3) 0.7302(3) 0.5961(3)
H39 H 0.31830 0.76950 0.62500
C64 C 0.2112(5) 0.8823(4) 0.0625(4)
H40 H 0.15370 0.84760 0.08750
C65 C 0.2524(5) 0.9074(4) -0.0269(4)
H41 H 0.22460 0.88940 -0.06370
C66 C 0.3785(6) 0.9778(6) -0.0159(5)
H42 H 0.43770 1.01020 -0.04320
C67 C 0.3404(5) 0.9511(5) 0.0776(4)
H43 H 0.37620 0.96390 0.11150
C68? C -0.3212(10) 0.794(3) 0.880(3)
H44? H -0.35610 0.80070 0.93990
H45? H -0.33780 0.85210 0.83900
H46? H -0.34500 0.74240 0.87030
C69? C 0.244(2) 0.996(2) 0.084(2)
H47? H 0.20560 1.03790 0.12050
C70? C 0.290(2) 1.0329(17) -0.0096(15)
H48? H 0.29230 1.09760 -0.03520
C71? C 0.377(2) 0.8862(19) -0.0255(17)
H49? H 0.43860 0.85170 -0.05520
C72? C 0.319(3) 0.856(3) 0.078(2)
H50? H 0.33730 0.79460 0.10920
#END
