
#######################################################################
#
#                 Cambridge Crystallographic Data Centre
#                                CCDC
#
#######################################################################
#
# If this CIF has been generated from an entry in the Cambridge
# Structural Database, then it will include bibliographic, chemical,
# crystal, experimental, refinement or atomic coordinate data resulting
# from the CCDC's data processing and validation procedures.
#
#######################################################################

data_CSD_CIF_PEZQAP
_audit_creation_date 2018-03-13
_audit_creation_method CSD-ConQuest-V1
_database_code_CSD PEZQAP
_database_code_depnum_ccdc_archive 'CCDC 1817155'
_chemical_formula_sum 'C67 H41 N7 O8'
_chemical_formula_moiety
;
C67 H41 N7 O8
;
_journal_coden_Cambridge 179
_journal_volume 57
_journal_year 2018
_journal_page_first 4030
_journal_name_full 'Angew.Chem.,Int.Ed. '
loop_
_publ_author_name
"B.Szyszko"
"M.Przewoznik"
"M.J.Bialek"
"A.Bialonska"
"P.J.Chmielewski"
"J.Cichos"
"L.Latos-Grazynski"
_chemical_name_systematic
;
28,29-dimethoxy-7,12,17-tris(4-nitrophenyl)-35,37-diphenyl-2,22,38,39-tetraaza
decacyclo[24.7.1.1^3,33^.1^8,11^.1^13,16^.1^21,24^.1^23,27^.0^2,6^.0^18,22^.0^
30,34^]nonatriaconta-1(34),3(35),4,6,8,10,12,14,16(38),17,19,21(37),23(36),24,
26,28,30,32-octadecaene
;
_cell_volume   2658.610
_exptl_crystal_density_diffrn 1.339
_exptl_crystal_description 'plate'
_diffrn_ambient_temperature 100
#These two values have been output from a single CSD field.
_refine_ls_R_factor_gt 0.0481
_refine_ls_wR_factor_gt 0.0481
_symmetry_cell_setting triclinic
_symmetry_space_group_name_H-M 'P -1'
_symmetry_Int_Tables_number 2
loop_
_symmetry_equiv_pos_site_id
_symmetry_equiv_pos_as_xyz
1 x,y,z
2 -x,-y,-z
_cell_length_a 12.7851(5)
_cell_length_b 13.5259(6)
_cell_length_c 16.0687(7)
_cell_angle_alpha 88.984(3)
_cell_angle_beta 82.622(3)
_cell_angle_gamma 74.771(3)
_cell_formula_units_Z 2
loop_
_atom_type_symbol
_atom_type_radius_bond
C 0.68
H 0.23
N 0.68
O 0.68
loop_
_atom_site_label
_atom_site_type_symbol
_atom_site_fract_x
_atom_site_fract_y
_atom_site_fract_z
C1 C 0.33322(15) 0.10879(13) 0.51103(11)
C2 C 0.43679(14) 0.13209(13) 0.50489(11)
C3 C 0.48788(14) 0.13806(13) 0.57440(11)
H1 H 0.55990 0.14210 0.56880
C4 C 0.42779(14) 0.13781(13) 0.65413(11)
O1 O 0.58814(11) 0.12427(11) 0.71417(8)
C5 C 0.47869(15) 0.13276(13) 0.72963(12)
O2 O 0.47380(12) 0.09927(12) 0.87626(8)
C6 C 0.42124(15) 0.12460(14) 0.80654(11)
C7 C 0.30484(15) 0.13449(14) 0.81505(11)
C8 C 0.24495(16) 0.12326(15) 0.89340(12)
H2 H 0.28200 0.10470 0.93980
C9 C 0.13342(16) 0.13918(15) 0.90256(12)
H3 H 0.09610 0.12600 0.95330
C10 C 0.07622(15) 0.17572(14) 0.83422(12)
C11 C -0.03922(15) 0.21164(14) 0.82808(12)
C12 C -0.04662(15) 0.24746(14) 0.74774(12)
C13 C -0.12324(15) 0.29032(15) 0.69052(12)
H4 H -0.19880 0.30320 0.70160
C14 C -0.06635(15) 0.30885(14) 0.61750(12)
H5 H -0.09670 0.33250 0.56900
C15 C 0.04892(15) 0.28627(14) 0.62627(11)
C16 C 0.12858(15) 0.32426(13) 0.57941(12)
C17 C 0.20712(15) 0.35624(13) 0.62290(12)
C18 C 0.18631(15) 0.40132(14) 0.70338(12)
H6 H 0.12200 0.40980 0.74000
C19 C 0.27722(15) 0.43093(13) 0.71892(12)
H7 H 0.28470 0.46380 0.76730
C20 C 0.35715(15) 0.40244(13) 0.64804(11)
C21 C 0.46605(15) 0.41335(13) 0.63525(11)
C22 C 0.54168(15) 0.37361(13) 0.56611(11)
C23 C 0.65730(15) 0.36867(14) 0.55584(12)
H8 H 0.69310 0.39940 0.59040
C24 C 0.70286(15) 0.31084(14) 0.48631(12)
H9 H 0.77610 0.29400 0.46360
C25 C 0.61505(15) 0.28025(13) 0.45414(11)
C26 C 0.62797(14) 0.21438(13) 0.38172(11)
C27 C 0.55356(15) 0.16177(13) 0.36461(11)
C28 C 0.53552(15) 0.13310(14) 0.28172(12)
H10 H 0.58210 0.13450 0.23250
C29 C 0.44155(15) 0.10409(13) 0.28655(11)
H11 H 0.41120 0.08530 0.24170
C30 C 0.39705(15) 0.10756(13) 0.37374(11)
C31 C 0.31277(15) 0.08751(13) 0.42764(11)
C32 C 0.27195(14) 0.11723(13) 0.58975(11)
H12 H 0.20170 0.10830 0.59520
C33 C 0.31495(14) 0.13905(13) 0.66087(11)
C34 C 0.25058(15) 0.15577(13) 0.74200(11)
C35 C 0.13553(15) 0.18807(13) 0.75641(11)
N1 N 0.05752(12) 0.23854(12) 0.70445(10)
N2 N 0.31101(12) 0.35847(11) 0.59085(9)
H13 H 0.34290 0.33110 0.54060
N3 N 0.51922(12) 0.31990(11) 0.50109(9)
N4 N 0.46971(12) 0.13931(11) 0.41895(9)
C36 C -0.12987(15) 0.21517(15) 0.89532(12)
C37 C -0.21147(17) 0.30624(17) 0.91343(13)
H14 H -0.21010 0.36380 0.88120
C38 C -0.29454(18) 0.3115(2) 0.97910(15)
H15 H -0.34770 0.37290 0.99140
C39 C -0.29881(17) 0.2258(2) 1.02650(14)
H16 H -0.35490 0.22950 1.07030
C40 C -0.21911(17) 0.13440(18) 1.00842(13)
H17 H -0.22220 0.07650 1.03970
C41 C -0.13493(16) 0.12941(16) 0.94375(13)
H18 H -0.08120 0.06820 0.93250
C42 C 0.12248(15) 0.34727(14) 0.48984(12)
C43 C 0.07260(15) 0.29301(14) 0.44047(12)
H19 H 0.04300 0.24190 0.46480
C44 C 0.06658(17) 0.31395(15) 0.35619(13)
H20 H 0.03090 0.27950 0.32450
O3 O 0.0730(3) 0.3563(2) 0.18978(12)
N5 N 0.1148(2) 0.40755(19) 0.23065(12)
C45 C 0.11523(18) 0.38770(16) 0.32032(13)
O4 O 0.1588(2) 0.47287(17) 0.20025(11)
C46 C 0.16652(17) 0.44181(15) 0.36651(13)
H21 H 0.19920 0.49040 0.34100
C47 C 0.16843(16) 0.42274(14) 0.45089(12)
H22 H 0.20070 0.46050 0.48270
C48 C 0.50043(14) 0.46810(13) 0.70218(11)
C49 C 0.54297(15) 0.55209(14) 0.68221(12)
H23 H 0.55080 0.57270 0.62680
C50 C 0.57361(16) 0.60485(15) 0.74379(13)
H24 H 0.60180 0.66070 0.73030
O5 O 0.6260(2) 0.70400(15) 0.87184(12)
N6 N 0.59147(17) 0.62982(15) 0.89214(12)
C51 C 0.56136(17) 0.57276(15) 0.82615(13)
O6 O 0.57945(17) 0.60068(16) 0.96463(10)
C52 C 0.51976(17) 0.48995(16) 0.84804(12)
H25 H 0.51200 0.46990 0.90370
C53 C 0.48992(16) 0.43766(15) 0.78612(12)
H26 H 0.46250 0.38150 0.80010
C54 C 0.72146(15) 0.21030(14) 0.31568(11)
C55 C 0.78114(15) 0.11629(14) 0.27806(11)
H27 H 0.76480 0.05610 0.29710
C56 C 0.86419(15) 0.11218(14) 0.21277(11)
H28 H 0.90400 0.04990 0.18780
O7 O 1.04509(13) 0.11862(12) 0.10324(9)
N7 N 0.97230(14) 0.19958(13) 0.1153(1)
C57 C 0.88655(15) 0.20301(15) 0.18554(11)
O8 O 0.96729(13) 0.27544(12) 0.07207(9)
C58 C 0.82987(16) 0.29737(15) 0.22141(12)
H29 H 0.84610 0.35730 0.20150
C59 C 0.74864(15) 0.30001(14) 0.28756(12)
H30 H 0.71150 0.36230 0.31380
C60 C 0.22515(15) 0.04633(14) 0.40415(12)
C61 C 0.18604(16) 0.06996(15) 0.32673(12)
H31 H 0.21500 0.11300 0.29030
C62 C 0.10425(16) 0.02956(16) 0.30385(13)
H32 H 0.07840 0.04600 0.25250
C63 C 0.06100(17) -0.03546(17) 0.35769(14)
H33 H 0.00550 -0.06170 0.34280
C64 C 0.10087(17) -0.06085(16) 0.43336(14)
H34 H 0.07280 -0.10530 0.46890
C65 C 0.18223(16) -0.02074(15) 0.45683(12)
H35 H 0.20840 -0.03850 0.50790
C66 C 0.64676(17) 0.15365(17) 0.77439(14)
H36 H 0.71800 0.15540 0.74810
H37 H 0.65390 0.10500 0.81890
H38 H 0.60800 0.22040 0.79690
C67 C 0.4550(2) 0.1786(2) 0.93842(15)
H39 H 0.45790 0.14880 0.99300
H40 H 0.38430 0.22500 0.93630
H41 H 0.51020 0.21520 0.92770
#END
