
#######################################################################
#
#                 Cambridge Crystallographic Data Centre
#                                CCDC
#
#######################################################################
#
# If this CIF has been generated from an entry in the Cambridge
# Structural Database, then it will include bibliographic, chemical,
# crystal, experimental, refinement or atomic coordinate data resulting
# from the CCDC's data processing and validation procedures.
#
#######################################################################

data_CSD_CIF_PEZZEC
_audit_creation_date 2018-03-13
_audit_creation_method CSD-ConQuest-V1
_database_code_CSD PEZZEC
_database_code_depnum_ccdc_archive 'CCDC 1588364'
_chemical_formula_sum 'C21 H25 N1 O6'
_chemical_formula_moiety
;
C21 H25 N1 O6
;
_journal_coden_Cambridge 1336
_journal_volume 20
_journal_year 2018
_journal_page_first 1871
_journal_name_full 'Org.Lett. '
loop_
_publ_author_name
"Xiang Wu"
"Hai-Jun Wang"
"Yong-Shuang Huang"
"W.-D.Z.Li"
_chemical_name_systematic
;
[4-hydroxy-1-oxo-7-(prop-1-en-2-yl)octahydronaphthalen-4a(2H)-yl]methyl 
4-nitrobenzoate
;
_cell_volume   1952.169
_exptl_crystal_colour 'colorless'
_exptl_crystal_density_diffrn 1.318
_exptl_crystal_description 'prism'
_diffrn_ambient_temperature 294
#These two values have been output from a single CSD field.
_refine_ls_R_factor_gt 0.0361
_refine_ls_wR_factor_gt 0.0361
_symmetry_cell_setting orthorhombic
_symmetry_space_group_name_H-M 'P 21 21 21'
_symmetry_Int_Tables_number 19
loop_
_symmetry_equiv_pos_site_id
_symmetry_equiv_pos_as_xyz
1 x,y,z
2 1/2+x,1/2-y,-z
3 -x,1/2+y,1/2-z
4 1/2-x,-y,1/2+z
_cell_length_a 7.575(1)
_cell_length_b 14.9850(15)
_cell_length_c 17.198(2)
_cell_angle_alpha 90
_cell_angle_beta 90
_cell_angle_gamma 90
_cell_formula_units_Z 4
loop_
_atom_type_symbol
_atom_type_radius_bond
C 0.68
H 0.23
N 0.68
O 0.68
loop_
_atom_site_label
_atom_site_type_symbol
_atom_site_fract_x
_atom_site_fract_y
_atom_site_fract_z
O1 O 0.47295(16) 0.90229(9) 0.27853(7)
O2 O -0.21228(14) 0.82671(8) 0.34181(8)
O3 O 0.07648(14) 0.98272(7) 0.38595(6)
O4 O 0.15214(17) 1.09865(8) 0.46105(7)
O5 O -0.6734(2) 1.27604(8) 0.38098(9)
O6 O -0.7133(2) 1.17406(10) 0.29382(9)
N1 N -0.6231(2) 1.21172(9) 0.34331(8)
C1 C 0.25576(17) 0.84583(9) 0.37343(7)
C2 C 0.31524(18) 0.85261(9) 0.28758(8)
H1 H 0.33660 0.79200 0.26830
C3 C 0.17716(19) 0.8958(1) 0.23577(8)
H2 H 0.21770 0.89450 0.18230
H3 H 0.16260 0.95780 0.25080
C4 C -0.0005(2) 0.84830(12) 0.24136(9)
H4 H -0.08990 0.88610 0.21800
H5 H 0.00550 0.79380 0.21100
C5 C -0.05818(19) 0.82500(9) 0.32234(9)
C6 C 0.08225(18) 0.79221(9) 0.37861(8)
H6 H 0.03560 0.80010 0.43130
C7 C 0.1066(2) 0.69082(9) 0.36530(9)
H7 H -0.00450 0.66070 0.37530
H8 H 0.13790 0.68050 0.31140
C8 C 0.2500(2) 0.65091(10) 0.41788(8)
H9 H 0.21520 0.66360 0.47160
C9 C 0.4222(2) 0.70023(10) 0.40356(9)
H10 H 0.45700 0.69340 0.34960
H11 H 0.51450 0.67520 0.43600
C10 C 0.3985(2) 0.79906(10) 0.42248(8)
H12 H 0.51020 0.82940 0.41450
H13 H 0.36800 0.80490 0.47700
C11 C 0.2369(2) 0.93798(10) 0.41088(9)
H14 H 0.23540 0.93150 0.46700
H15 H 0.33810 0.97430 0.39710
C12 C 0.0496(2) 1.06343(10) 0.41750(9)
C13 C -0.1233(2) 1.10308(9) 0.39327(8)
C14 C -0.2365(2) 1.05972(10) 0.34249(10)
H16 H -0.20270 1.00590 0.32010
C15 C -0.3993(2) 1.09605(10) 0.32494(9)
H17 H -0.47560 1.06740 0.29070
C16 C -0.4462(2) 1.17553(9) 0.35910(8)
C17 C -0.3353(2) 1.22165(9) 0.40893(9)
H18 H -0.36980 1.27560 0.43090
C18 C -0.1725(2) 1.18518(10) 0.42499(9)
H19 H -0.09450 1.21550 0.45730
C19 C 0.2605(3) 0.54985(10) 0.41011(9)
C20 C 0.4010(3) 0.50830(13) 0.38256(12)
H20 H 0.40340 0.44630 0.38050
H21 H 0.49750 0.54100 0.36520
C21 C 0.1033(3) 0.49898(12) 0.43849(13)
H22 H 0.12590 0.43610 0.43430
H23 H 0.00220 0.51420 0.40750
H24 H 0.08090 0.51400 0.49180
H25 H 0.551(3) 0.8751(16) 0.2887(15)
#END
