
#######################################################################
#
#                 Cambridge Crystallographic Data Centre
#                                CCDC
#
#######################################################################
#
# If this CIF has been generated from an entry in the Cambridge
# Structural Database, then it will include bibliographic, chemical,
# crystal, experimental, refinement or atomic coordinate data resulting
# from the CCDC's data processing and validation procedures.
#
#######################################################################

data_CSD_CIF_PHAZOX
_audit_creation_date 1971-12-31
_audit_creation_method CSD-ConQuest-V1
_database_code_CSD PHAZOX
_database_code_depnum_ccdc_archive 'CCDC 1232283'
_chemical_formula_sum 'C12 H8 N2 O2'
_chemical_formula_moiety
;
C12 H8 N2 O2
;
_journal_coden_Cambridge 7
_journal_volume 36
_journal_year 1963
_journal_page_first 1364
_journal_name_full 'Bull.Chem.Soc.Jpn. '
loop_
_publ_author_name
"Y.Namba"
"T.Oda"
"T.Watanabe"
_chemical_name_systematic
;
Phenazine-5,10-dioxide
;
_cell_volume    470.721
_diffrn_ambient_temperature ?
_diffrn_special_details
;
The study was carried out at room temperature,in the range 283-303K

;
#These two values have been output from a single CSD field.
_refine_ls_R_factor_gt 0.15
_refine_ls_wR_factor_gt 0.15
_symmetry_cell_setting monoclinic
_symmetry_space_group_name_H-M 'P 21/c'
_symmetry_Int_Tables_number 14
loop_
_symmetry_equiv_pos_site_id
_symmetry_equiv_pos_as_xyz
1 x,y,z
2 -x,1/2+y,1/2-z
3 -x,-y,-z
4 x,-1/2-y,-1/2+z
_cell_length_a 7.75
_cell_length_b 4.09
_cell_length_c 15.36
_cell_angle_alpha 90
_cell_angle_beta 104.8
_cell_angle_gamma 90
_cell_formula_units_Z 2
loop_
_atom_type_symbol
_atom_type_radius_bond
C 0.68
N 0.68
O 0.68
loop_
_atom_site_label
_atom_site_type_symbol
_atom_site_fract_x
_atom_site_fract_y
_atom_site_fract_z
C1 C 0.04800 0.16400 0.08020
C2 C 0.10600 0.33700 0.16440
C3 C 0.27100 0.47300 0.18910
C4 C 0.39300 0.44400 0.13380
C5 C 0.34100 0.27700 0.05260
C6 C 0.17300 0.13600 0.02440
N1 N -0.11500 0.03000 0.05450
O1 O -0.22900 0.06100 0.10530
N1B N 0.11500 -0.03000 -0.05450
C6B C -0.17300 -0.13600 -0.02440
C1B C -0.04800 -0.16400 -0.08020
O1B O 0.22900 -0.06100 -0.10530
C5B C -0.34100 -0.27700 -0.05260
C2B C -0.10600 -0.33700 -0.16440
C4B C -0.39300 -0.44400 -0.13380
C3B C -0.27100 -0.47300 -0.18910
#END
