
#######################################################################
#
#                 Cambridge Crystallographic Data Centre
#                                CCDC
#
#######################################################################
#
# If this CIF has been generated from an entry in the Cambridge
# Structural Database, then it will include bibliographic, chemical,
# crystal, experimental, refinement or atomic coordinate data resulting
# from the CCDC's data processing and validation procedures.
#
#######################################################################

data_CSD_CIF_PHTGLY01
_audit_creation_date 1981-08-11
_audit_creation_method CSD-ConQuest-V1
_database_code_CSD PHTGLY01
_chemical_formula_sum 'C10 H8 N2 O4'
_chemical_formula_moiety
;
C10 H8 N2 O4
;
_journal_coden_Cambridge 189
_journal_volume 10
_journal_year 1981
_journal_page_first 65
_journal_name_full 'Cryst.Struct.Commun. '
loop_
_publ_author_name
"M.Sikirica"
"I.Vickovic"
_chemical_name_systematic
;
N-Phthaloyl-glycinehydroxamic acid
;
_cell_volume    986.245
_exptl_crystal_density_diffrn 1.487
_exptl_special_details
;
ii polymorph

;
_diffrn_ambient_temperature ?
_diffrn_special_details
;
The study was carried out at room temperature,in the range 283-303K

;
#These two values have been output from a single CSD field.
_refine_ls_R_factor_gt 0.039
_refine_ls_wR_factor_gt 0.039
_symmetry_cell_setting monoclinic
_symmetry_space_group_name_H-M 'P 21/c'
_symmetry_Int_Tables_number 14
loop_
_symmetry_equiv_pos_site_id
_symmetry_equiv_pos_as_xyz
1 x,y,z
2 -x,1/2+y,1/2-z
3 -x,-y,-z
4 x,-1/2-y,-1/2+z
_cell_length_a 8.139(4)
_cell_length_b 17.132(6)
_cell_length_c 8.066(4)
_cell_angle_alpha 90
_cell_angle_beta 118.73(3)
_cell_angle_gamma 90
_cell_formula_units_Z 4
loop_
_atom_type_symbol
_atom_type_radius_bond
C 0.68
H 0.23
N 0.68
O 0.68
loop_
_atom_site_label
_atom_site_type_symbol
_atom_site_fract_x
_atom_site_fract_y
_atom_site_fract_z
C1 C 0.57450 0.20020 0.46290
C2 C 0.95530 0.10470 0.65270
C3 C 1.17130 0.00500 0.90830
C4 C 1.04360 -0.12530 0.85740
C5 C 0.87190 -0.02550 0.63900
O1 O 0.39890 0.31020 0.44310
O2 O 1.03440 0.16750 0.69890
N1 N 0.47180 0.25910 0.36000
H1 H 0.75900 0.19300 0.35500
H2 H 1.27400 0.04400 0.98700
H3 H 1.05800 -0.18000 0.89800
H4 H 0.27100 0.31400 0.35500
C6 C 0.67500 0.15690 0.37290
C7 C 1.01280 0.02740 0.74540
C8 C 1.18430 -0.07250 0.96370
C9 C 0.88490 -0.10280 0.69230
C10 C 0.72210 0.01670 0.47490
O3 O 0.58860 0.17970 0.61520
O4 O 0.57670 -0.00640 0.34790
N2 N 0.78540 0.09390 0.49340
H5 H 0.58000 0.13500 0.25100
H6 H 1.29000 -0.09000 1.07300
H7 H 0.78400 -0.14000 0.61600
H8 H 0.52700 0.28400 0.30300
#END
