
#######################################################################
#
#                 Cambridge Crystallographic Data Centre
#                                CCDC
#
#######################################################################
#
# If this CIF has been generated from an entry in the Cambridge
# Structural Database, then it will include bibliographic, chemical,
# crystal, experimental, refinement or atomic coordinate data resulting
# from the CCDC's data processing and validation procedures.
#
#######################################################################

data_CSD_CIF_PHTGLY
_audit_creation_date 1980-12-11
_audit_creation_method CSD-ConQuest-V1
_database_code_CSD PHTGLY
_chemical_formula_sum 'C10 H8 N2 O4'
_chemical_formula_moiety
;
C10 H8 N2 O4
;
_journal_coden_Cambridge 189
_journal_volume 9
_journal_year 1980
_journal_page_first 795
_journal_name_full 'Cryst.Struct.Commun. '
loop_
_publ_author_name
"M.Sikirica"
"I.Vickovic"
_chemical_name_systematic
;
N-Phthaloylglycine-hydroxamic acid
;
_cell_volume    965.862
_exptl_crystal_density_diffrn 1.514
_exptl_special_details
;
i polymorph

;
_diffrn_ambient_temperature ?
_diffrn_special_details
;
The study was carried out at room temperature,in the range 283-303K

;
#These two values have been output from a single CSD field.
_refine_ls_R_factor_gt 0.039
_refine_ls_wR_factor_gt 0.039
_symmetry_cell_setting monoclinic
_symmetry_space_group_name_H-M 'P 21/c'
_symmetry_Int_Tables_number 14
loop_
_symmetry_equiv_pos_site_id
_symmetry_equiv_pos_as_xyz
1 x,y,z
2 -x,1/2+y,1/2-z
3 -x,-y,-z
4 x,-1/2-y,-1/2+z
_cell_length_a 8.353(6)
_cell_length_b 7.774(3)
_cell_length_c 15.097(9)
_cell_angle_alpha 90
_cell_angle_beta 99.86(3)
_cell_angle_gamma 90
_cell_formula_units_Z 4
loop_
_atom_type_symbol
_atom_type_radius_bond
C 0.68
H 0.23
N 0.68
O 0.68
loop_
_atom_site_label
_atom_site_type_symbol
_atom_site_fract_x
_atom_site_fract_y
_atom_site_fract_z
C1 C 0.12270 0.16070 0.69370
C2 C 0.29260 0.17300 0.50830
C3 C 0.49970 0.31630 0.42080
C4 C 0.76740 0.34510 0.50790
C5 C 0.56130 0.21440 0.57360
O1 O -0.02910 0.20560 0.80750
O2 O 0.16330 0.17340 0.45830
N1 N 0.05370 0.09230 0.75910
H1 H 0.10700 -0.00700 0.59100
H2 H 0.41700 0.32900 0.36100
H3 H 0.86400 0.37800 0.50100
H4 H 0.03900 0.24100 0.85300
C6 C 0.18950 0.02890 0.63610
C7 C 0.45300 0.24010 0.49450
C8 C 0.66180 0.36900 0.43040
C9 C 0.72120 0.26680 0.58190
C10 C 0.47460 0.12830 0.63930
O3 O 0.13450 0.31590 0.68210
O4 O 0.52130 0.08410 0.71520
N2 N 0.31560 0.10350 0.59350
H5 H 0.23700 -0.07600 0.66800
H6 H 0.69500 0.42200 0.38500
H7 H 0.79200 0.24700 0.64200
H8 H -0.00500 -0.00700 0.74600
#END
