
#######################################################################
#
#                 Cambridge Crystallographic Data Centre
#                                CCDC
#
#######################################################################
#
# If this CIF has been generated from an entry in the Cambridge
# Structural Database, then it will include bibliographic, chemical,
# crystal, experimental, refinement or atomic coordinate data resulting
# from the CCDC's data processing and validation procedures.
#
#######################################################################

data_CSD_CIF_PHTHIA
_audit_creation_date 1981-11-16
_audit_creation_method CSD-ConQuest-V1
_database_code_CSD PHTHIA
_chemical_formula_sum 'C14 H9 N3 O3'
_chemical_formula_moiety
;
C14 H9 N3 O3
;
_journal_coden_Cambridge 10
_journal_volume 64
_journal_year 1981
_journal_page_first 905
_journal_name_full 'Helv.Chim.Acta '
loop_
_publ_author_name
"L.Hoesch"
"J.H.Bieri"
"J.P.Declercq"
"G.Germain"
"M.van Meerssche"
_chemical_name_systematic
;
(Z)-1-Phenyl-2-phthalimido-diazene-1-oxide
;
_chemical_melting_point 433.15
_cell_volume   2475.604
_exptl_crystal_colour 'colorless'
_exptl_special_details
;
Melting point range 433.15-435.15K

;
_diffrn_ambient_temperature ?
_diffrn_special_details
;
The study was carried out at room temperature,in the range 283-303K

;
#These two values have been output from a single CSD field.
_refine_ls_R_factor_gt 0.054
_refine_ls_wR_factor_gt 0.054
_symmetry_cell_setting orthorhombic
_symmetry_space_group_name_H-M 'P b 21 a'
_symmetry_Int_Tables_number 29
loop_
_symmetry_equiv_pos_site_id
_symmetry_equiv_pos_as_xyz
1 x,y,z
2 1/2-x,1/2+y,z
3 1/2+x,y,-z
4 -x,1/2+y,-z
_cell_length_a 27.737(12)
_cell_length_b 11.515(6)
_cell_length_c 7.751(2)
_cell_angle_alpha 90
_cell_angle_beta 90
_cell_angle_gamma 90
_cell_formula_units_Z 8
loop_
_atom_type_symbol
_atom_type_radius_bond
C 0.68
H 0.23
N 0.68
O 0.68
loop_
_atom_site_label
_atom_site_type_symbol
_atom_site_fract_x
_atom_site_fract_y
_atom_site_fract_z
N1 N 0.67610 0.39150 0.16650
N2 N 0.65030 0.31330 0.09750
N3 N 0.60160 0.33860 0.11250
C1 C 0.56930 0.25190 0.16750
C2 C 0.52060 0.30200 0.13780
C3 C 0.47580 0.25710 0.17950
C4 C 0.43580 0.32120 0.12690
C5 C 0.44080 0.42230 0.03660
C6 C 0.48510 0.46820 -0.00730
C7 C 0.52540 0.40460 0.04730
C8 C 0.57820 0.42890 0.02310
O1 O 0.59750 0.50380 -0.05930
O2 O 0.58090 0.15880 0.22960
O3 O 0.66050 0.47970 0.23730
C9 C 0.72810 0.37350 0.16200
C10 C 0.75670 0.46060 0.22650
C11 C 0.80690 0.44540 0.22740
C12 C 0.82570 0.34210 0.16390
C13 C 0.79710 0.25530 0.10130
C14 C 0.74700 0.27160 0.09600
H1 H 0.47230 0.17670 0.25010
H2 H 0.40010 0.29000 0.15800
H3 H 0.40840 0.46770 -0.00160
H4 H 0.48860 0.54810 -0.07950
H5 H 0.74020 0.53790 0.27880
H6 H 0.83010 0.51410 0.27310
H7 H 0.86430 0.32940 0.16710
H8 H 0.81280 0.17530 0.05490
H9 H 0.72340 0.20670 0.04120
N4 N 0.33360 0.64660 0.39220
N5 N 0.35540 0.55790 0.35760
N6 N 0.40590 0.57450 0.39750
C15 C 0.43660 0.65360 0.31820
C16 C 0.48530 0.61860 0.37310
C17 C 0.52990 0.66350 0.33100
C18 C 0.57040 0.60760 0.39400
C19 C 0.56660 0.50580 0.49510
C20 C 0.52110 0.46210 0.53520
C21 C 0.48120 0.51950 0.47160
C22 C 0.42940 0.48640 0.48860
O4 O 0.41040 0.40540 0.55970
O5 O 0.42450 0.73130 0.22240
O6 O 0.34750 0.74310 0.45610
C23 C 0.27890 0.64060 0.36240
C24 C 0.25100 0.73000 0.41710
C25 C 0.20180 0.72010 0.39470
C26 C 0.18240 0.62280 0.31640
C27 C 0.21090 0.53340 0.26090
C28 C 0.26120 0.54330 0.28270
H10 H 0.53320 0.74030 0.25180
H11 H 0.60580 0.64140 0.36550
H12 H 0.59870 0.46120 0.53780
H13 H 0.51720 0.38700 0.61730
H14 H 0.26710 0.80410 0.48030
H15 H 0.17850 0.79070 0.43290
H16 H 0.14370 0.61600 0.30180
H17 H 0.19500 0.45820 0.20010
H18 H 0.28540 0.47580 0.23940
#END
