
#######################################################################
#
#                 Cambridge Crystallographic Data Centre
#                                CCDC
#
#######################################################################
#
# If this CIF has been generated from an entry in the Cambridge
# Structural Database, then it will include bibliographic, chemical,
# crystal, experimental, refinement or atomic coordinate data resulting
# from the CCDC's data processing and validation procedures.
#
#######################################################################

data_CSD_CIF_PIBCAG
_audit_creation_date 2013-07-17
_audit_creation_method CSD-ConQuest-V1
_database_code_CSD PIBCAG
_database_code_depnum_ccdc_archive 'CCDC 926579'
_chemical_formula_sum 'C46 H51 N1 O6'
_chemical_formula_moiety
;
C46 H51 N1 O6
;
_journal_coden_Cambridge 177
_journal_volume 11
_journal_year 2013
_journal_page_first 5528
_journal_name_full 'Org.Biomol.Chem. '
loop_
_publ_author_name
"P.Slavik"
"K.Flidrova"
"H.Dvoakova"
"V.Eigner"
"P.Lhotak"
_chemical_name_systematic
;
4-(4-Nitrophenyl)-25,26,27,28-tetrapropoxypentacyclo[19.3.1.1^3,7^.1^9,13^.1^1
5,19^]octacosa-1(25),3(28),4,6,9(27),10,12,15(26),16,18,21,23-dodecaene
;
_chemical_name_common
;
4-(4-Nitrophenyl)-25,26,27,28-tetrapropoxycalix(4)arene
;
_cell_volume   2003.248
_exptl_crystal_density_diffrn 1.183
_diffrn_ambient_temperature 119.8
_refine_special_details
;
C30,C31,C32 and C30',C31',C32' and C30'',C31'',C32'' disordered over three 
sites with occupancies 0.661:0.216:0.123.
;
#These two values have been output from a single CSD field.
_refine_ls_R_factor_gt 0.0372
_refine_ls_wR_factor_gt 0.0372
_symmetry_cell_setting triclinic
_symmetry_space_group_name_H-M 'P -1'
_symmetry_Int_Tables_number 2
loop_
_symmetry_equiv_pos_site_id
_symmetry_equiv_pos_as_xyz
1 x,y,z
2 -x,-y,-z
_cell_length_a 11.6871(5)
_cell_length_b 12.8055(7)
_cell_length_c 14.7108(6)
_cell_angle_alpha 94.246(4)
_cell_angle_beta 91.367(3)
_cell_angle_gamma 113.935(5)
_cell_formula_units_Z 2
loop_
_atom_type_symbol
_atom_type_radius_bond
C 0.68
H 0.23
N 0.68
O 0.68
loop_
_atom_site_label
_atom_site_type_symbol
_atom_site_fract_x
_atom_site_fract_y
_atom_site_fract_z
C1 C 0.41137(11) 0.30217(12) 0.32953(8)
C2 C 0.38785(11) 0.18394(12) 0.35763(9)
C3 C 0.48788(11) 0.18948(11) 0.42836(9)
C4 C 0.46232(12) 0.16566(11) 0.51906(9)
C5 C 0.56183(12) 0.19259(12) 0.58410(9)
C6 C 0.68506(12) 0.24238(12) 0.55994(9)
C7 C 0.71288(12) 0.26164(12) 0.46960(9)
C8 C 0.84587(12) 0.32237(12) 0.44194(9)
C9 C 0.86835(11) 0.43867(12) 0.41065(9)
C10 C 0.83452(11) 0.51399(12) 0.46513(9)
C11 C 0.85121(12) 0.62030(12) 0.43838(9)
C12 C 0.89808(12) 0.65082(12) 0.35437(9)
C13 C 0.92939(11) 0.57675(12) 0.29638(9)
C14 C 0.96251(12) 0.60601(12) 0.19946(9)
C15 C 0.85766(12) 0.62800(12) 0.15368(8)
C16 C 0.87460(13) 0.73841(12) 0.13695(9)
C17 C 0.77373(13) 0.76238(13) 0.11093(9)
C18 C 0.65359(13) 0.67630(12) 0.10413(9)
C19 C 0.63238(12) 0.56377(12) 0.11879(8)
C20 C 0.50136(12) 0.47113(12) 0.11833(9)
C21 C 0.46462(11) 0.43990(11) 0.21444(9)
C22 C 0.46324(12) 0.52286(12) 0.28073(9)
C23 C 0.43478(12) 0.49674(13) 0.36955(9)
C24 C 0.41142(11) 0.38784(12) 0.39374(9)
C25 C 0.61275(12) 0.23061(11) 0.40465(9)
C26 C 0.91728(11) 0.47221(11) 0.32649(9)
C27 C 0.73660(12) 0.54036(11) 0.13943(8)
C28 C 0.43445(11) 0.32923(11) 0.23929(8)
O1 O 0.63899(8) 0.25003(8) 0.31528(6)
C29 C 0.60910(19) 0.1503(2) 0.25237(14)
C30 C 0.7137(2) 0.1111(2) 0.24896(15)
C31 C 0.6795(5) 0.0078(4) 0.1769(3)
O2 O 0.94805(8) 0.39773(8) 0.26858(6)
C32 C 1.07345(12) 0.40662(13) 0.28736(10)
C33 C 1.10448(14) 0.33616(15) 0.21379(10)
C34 C 1.1164(2) 0.3832(2) 0.12143(12)
O3 O 0.71725(8) 0.42948(8) 0.15383(6)
C35 C 0.76048(14) 0.37208(13) 0.08424(11)
C36 C 0.66454(14) 0.31566(14) 0.00591(11)
C37 C 0.71036(19) 0.2505(2) -0.06454(14)
O4 O 0.42633(7) 0.24296(8) 0.17300(6)
C38 C 0.29927(11) 0.17768(12) 0.13784(9)
C39 C 0.29065(14) 0.07229(13) 0.08190(11)
C40 C 0.15572(15) -0.00344(14) 0.05009(12)
C41 C 0.33216(12) 0.10881(11) 0.54880(9)
C42 C 0.24809(12) 0.00464(12) 0.50346(9)
C43 C 0.12941(12) -0.05291(12) 0.53356(9)
C44 C 0.09540(12) -0.00494(12) 0.60982(9)
C45 C 0.17529(12) 0.09804(12) 0.65633(9)
C46 C 0.29353(12) 0.15461(12) 0.62500(9)
N1 N -0.02866(10) -0.06590(11) 0.64432(8)
O5 O -0.0619(1) -0.01794(11) 0.70654(8)
O6 O -0.09433(9) -0.16191(9) 0.60875(8)
H1 H 0.38730 0.13487 0.30487
H2 H 0.30685 0.15105 0.38237
H3 H 0.54448 0.17637 0.64620
H4 H 0.75205 0.26385 0.60608
H5 H 0.86164 0.27637 0.39347
H6 H 0.90326 0.33169 0.49278
H7 H 0.79890 0.49169 0.52244
H8 H 0.83041 0.67240 0.47780
H9 H 0.90926 0.72443 0.33567
H10 H 1.03929 0.67368 0.20109
H11 H 0.97171 0.54285 0.16604
H12 H 0.95731 0.79900 0.14349
H13 H 0.78712 0.83862 0.09762
H14 H 0.58376 0.69442 0.08908
H15 H 0.49628 0.40415 0.08146
H16 H 0.44304 0.49678 0.09104
H17 H 0.48227 0.59923 0.26471
H18 H 0.43131 0.55397 0.41404
H19 H 0.39497 0.37102 0.45583
H20 H 1.07842 0.37847 0.34536
H21 H 1.13177 0.48540 0.28850
H22 H 1.04169 0.25883 0.20884
H23 H 1.18094 0.33010 0.23164
H24 H 1.13799 0.33537 0.07801
H25 H 1.03804 0.38425 0.10166
H26 H 1.18076 0.45979 0.12603
H27 H 0.78210 0.31548 0.11033
H28 H 0.83625 0.42607 0.06184
H29 H 0.64682 0.37295 -0.02259
H30 H 0.58779 0.26370 0.02859
H31 H 0.64846 0.21749 -0.11445
H32 H 0.78753 0.30235 -0.08680
H33 H 0.72398 0.19068 -0.03680
H34 H 0.27333 0.22350 0.10052
H35 H 0.24538 0.15613 0.18769
H36 H 0.32401 0.03012 0.11754
H37 H 0.34019 0.09384 0.02980
H38 H 0.15309 -0.06805 0.01118
H39 H 0.10758 -0.02999 0.10211
H40 H 0.12113 0.03982 0.01686
H41 H 0.27334 -0.02733 0.45058
H42 H 0.07212 -0.12431 0.50233
H43 H 0.14927 0.12949 0.70909
H44 H 0.34983 0.22645 0.65617
H45 H 0.59066 0.16671 0.19250
H46 H 0.53444 0.08932 0.26952
H47 H 0.72787 0.08916 0.30777
H48 H 0.78890 0.17272 0.23343
H49 H 0.75118 -0.01002 0.16901
H50 H 0.61178 -0.05741 0.19690
H51 H 0.65442 0.02637 0.11984
C47? C 0.6818(4) 0.1663(4) 0.2777(4)
C48? C 0.5826(5) 0.0729(4) 0.2165(4)
C49? C 0.6418(12) 0.0050(11) 0.1583(8)
C50? C 0.6650(12) 0.1785(4) 0.2466(7)
C51? C 0.5951(11) 0.0535(4) 0.2582(8)
C52? C 0.620(2) -0.0195(8) 0.1795(12)
H52? H 0.70757 0.13324 0.32639
H53? H 0.75451 0.20340 0.24398
H54? H 0.54246 0.10614 0.17712
H55? H 0.52086 0.02200 0.25298
H56? H 0.57775 -0.05449 0.11928
H57? H 0.70326 0.05583 0.12159
H58? H 0.68139 -0.02872 0.19764
H59? H 0.75345 0.19748 0.24876
H60? H 0.64320 0.19399 0.18729
H61? H 0.50687 0.03512 0.25821
H62? H 0.62211 0.03680 0.31536
H63? H 0.57915 -0.01398 0.12384
H64? H 0.70876 0.00817 0.17254
H65? H 0.58804 -0.09813 0.19307
#END
