
#######################################################################
#
#                 Cambridge Crystallographic Data Centre
#                                CCDC
#
#######################################################################
#
# If this CIF has been generated from an entry in the Cambridge
# Structural Database, then it will include bibliographic, chemical,
# crystal, experimental, refinement or atomic coordinate data resulting
# from the CCDC's data processing and validation procedures.
#
#######################################################################

data_CSD_CIF_PIBLIY
_audit_creation_date 2018-03-14
_audit_creation_method CSD-ConQuest-V1
_database_code_CSD PIBLIY
_database_code_depnum_ccdc_archive 'CCDC 1474621'
_chemical_formula_sum 'C10 H10 N2 O1'
_chemical_formula_moiety
;
C10 H10 N2 O1
;
_journal_coden_Cambridge 580
_journal_volume 146
_journal_year 2018
_journal_page_first 121
_journal_name_full 'Polyhedron '
loop_
_publ_author_name
"O.G.Shakirova"
"N.V.Kuratieva"
"L.G.Lavrenova"
"A.N.Protsenko"
"I.A.Tkachenko"
"S.K.Petkevich"
"V.I.Potkin"
_chemical_name_systematic
;
5-(4-methylphenyl)-1,2-oxazol-3-amine
;
_cell_volume    909.625
_exptl_crystal_colour 'colorless'
_exptl_crystal_density_diffrn 1.272
_exptl_crystal_description 'prism'
_diffrn_ambient_temperature 293
#These two values have been output from a single CSD field.
_refine_ls_R_factor_gt 0.0435
_refine_ls_wR_factor_gt 0.0435
_symmetry_cell_setting monoclinic
_symmetry_space_group_name_H-M 'P 21/n'
_symmetry_Int_Tables_number 14
loop_
_symmetry_equiv_pos_site_id
_symmetry_equiv_pos_as_xyz
1 x,y,z
2 1/2-x,1/2+y,1/2-z
3 -x,-y,-z
4 -1/2+x,-1/2-y,-1/2+z
_cell_length_a 7.8225(3)
_cell_length_b 5.3994(2)
_cell_length_c 21.5375(8)
_cell_angle_alpha 90
_cell_angle_beta 90.603(1)
_cell_angle_gamma 90
_cell_formula_units_Z 4
loop_
_atom_type_symbol
_atom_type_radius_bond
C 0.68
H 0.23
N 0.68
O 0.68
loop_
_atom_site_label
_atom_site_type_symbol
_atom_site_fract_x
_atom_site_fract_y
_atom_site_fract_z
O1 O -0.01557(14) 0.71314(17) 0.13939(4)
N1 N -0.04965(18) 0.6132(2) 0.07904(5)
N2 N -0.13974(17) 0.2275(3) 0.04135(5)
H1 H -0.13510 0.27910 0.00360
H2 H -0.17080 0.07790 0.04900
C1 C -0.09771(16) 0.3833(2) 0.08918(6)
C2 C -0.09810(16) 0.3262(2) 0.15311(6)
H3 H -0.12820 0.17660 0.17140
C3 C -0.04567(14) 0.5344(2) 0.18193(6)
C4 C -0.00860(14) 0.5940(2) 0.24697(6)
C5 C -0.05902(16) 0.4309(2) 0.29368(6)
H4 H -0.12090 0.28940 0.28340
C6 C -0.01772(18) 0.4780(3) 0.35503(6)
H5 H -0.05160 0.36670 0.38550
C7 C 0.07375(16) 0.6889(3) 0.37226(6)
C8 C 0.12227(16) 0.8502(3) 0.32552(7)
H6 H 0.18280 0.99280 0.33600
C9 C 0.08306(16) 0.8046(2) 0.26383(6)
H7 H 0.11820 0.91530 0.23350
C10 C 0.1191(2) 0.7402(4) 0.43929(8)
H8 H 0.01700 0.77690 0.46180
H9 H 0.19550 0.87910 0.44160
H10 H 0.17370 0.59720 0.45710
#END
