
#######################################################################
#
#                 Cambridge Crystallographic Data Centre
#                                CCDC
#
#######################################################################
#
# If this CIF has been generated from an entry in the Cambridge
# Structural Database, then it will include bibliographic, chemical,
# crystal, experimental, refinement or atomic coordinate data resulting
# from the CCDC's data processing and validation procedures.
#
#######################################################################

data_CSD_CIF_PICANO
_audit_creation_date 1972-11-03
_audit_creation_method CSD-ConQuest-V1
_database_code_CSD PICANO
_database_code_depnum_ccdc_archive 'CCDC 1232911'
_chemical_formula_sum 'C6 H5 N1 O3'
_chemical_formula_moiety
;
C6 H5 N1 O3
;
_journal_coden_Cambridge 203
_journal_volume 24
_journal_year 1971
_journal_page_first 186
_journal_name_full 'J.S.Afr.Chem.Inst. '
loop_
_publ_author_name
"M.Laing"
"C.Nicholson"
_chemical_name_systematic
;
Picolinic acid N-oxide
;
_cell_volume    305.872
_exptl_crystal_density_diffrn 1.52
_diffrn_ambient_temperature 173.15
#These two values have been output from a single CSD field.
_refine_ls_R_factor_gt 0.11
_refine_ls_wR_factor_gt 0.11
_symmetry_cell_setting monoclinic
_symmetry_space_group_name_H-M 'P 21/m'
_symmetry_Int_Tables_number 11
loop_
_symmetry_equiv_pos_site_id
_symmetry_equiv_pos_as_xyz
1 x,y,z
2 -x,1/2+y,-z
3 -x,-y,-z
4 x,-1/2-y,z
_cell_length_a 6.83(1)
_cell_length_b 6.21(1)
_cell_length_c 8.16(2)
_cell_angle_alpha 90
_cell_angle_beta 117.9(2)
_cell_angle_gamma 90
_cell_formula_units_Z 2
loop_
_atom_type_symbol
_atom_type_radius_bond
C 0.68
H 0.20
N 0.68
O 0.61
loop_
_atom_site_label
_atom_site_type_symbol
_atom_site_fract_x
_atom_site_fract_y
_atom_site_fract_z
C1 C 0.78130 0.25000 0.52940
C2 C 0.64630 0.25000 0.61400
C3 C 0.73100 0.25000 0.80360
C4 C 0.95660 0.25000 0.90930
C5 C 1.08530 0.25000 0.81920
C6 C 0.68710 0.25000 0.32250
H1 H 1.00000 0.25000 0.40000
H2 H 0.49000 0.25000 0.54000
H3 H 0.63000 0.25000 0.85000
H4 H 1.02000 0.25000 1.05000
H5 H 1.24000 0.25000 0.89000
N1 N 1.00000 0.25000 0.63350
O1 O 0.48650 0.25000 0.22430
O2 O 0.83170 0.25000 0.25820
O3 O 1.14110 0.25000 0.56200
#END
