
#######################################################################
#
#                 Cambridge Crystallographic Data Centre
#                                CCDC
#
#######################################################################
#
# If this CIF has been generated from an entry in the Cambridge
# Structural Database, then it will include bibliographic, chemical,
# crystal, experimental, refinement or atomic coordinate data resulting
# from the CCDC's data processing and validation procedures.
#
#######################################################################

data_CSD_CIF_PICGEP
_audit_creation_date 2013-07-18
_audit_creation_method CSD-ConQuest-V1
_database_code_CSD PICGEP
_database_code_depnum_ccdc_archive 'CCDC 840637'
_chemical_formula_sum 'C15 H11 N1 O4'
_chemical_formula_moiety
;
C15 H11 N1 O4
;
_journal_coden_Cambridge 261
_journal_volume 16
_journal_year 2013
_journal_page_first 442
_journal_name_full 'Comptes Rendus Chimie '
loop_
_publ_author_name
"P.Goswami"
"M.Talukdar"
"T.C.Bora"
"J.C.Sarma"
_chemical_name_systematic
;
(E)-3-(Hydroxyphenyl)-1-(3-nitrophenyl)prop-2-ene-1-one
;
_chemical_melting_point 468
_cell_volume   1281.149
_exptl_crystal_colour 'yellow'
_exptl_crystal_density_diffrn 1.396
_exptl_crystal_description 'Block'
_diffrn_ambient_temperature 298
#These two values have been output from a single CSD field.
_refine_ls_R_factor_gt 0.0608
_refine_ls_wR_factor_gt 0.0608
_symmetry_cell_setting monoclinic
_symmetry_space_group_name_H-M 'P 21/c'
_symmetry_Int_Tables_number 14
loop_
_symmetry_equiv_pos_site_id
_symmetry_equiv_pos_as_xyz
1 x,y,z
2 -x,1/2+y,1/2-z
3 -x,-y,-z
4 x,-1/2-y,-1/2+z
_cell_length_a 8.1320(16)
_cell_length_b 15.101(3)
_cell_length_c 10.474(2)
_cell_angle_alpha 90
_cell_angle_beta 95.09(3)
_cell_angle_gamma 90
_cell_formula_units_Z 4
loop_
_atom_type_symbol
_atom_type_radius_bond
C 0.68
H 0.23
N 0.68
O 0.68
loop_
_atom_site_label
_atom_site_type_symbol
_atom_site_fract_x
_atom_site_fract_y
_atom_site_fract_z
O1 O 0.23408(18) 1.04239(8) 0.40759(12)
C1 C 0.1763(2) 1.03194(10) 0.62223(15)
O2 O 0.6560(2) 0.53938(9) 0.33374(15)
O3 O -0.0305(2) 1.28063(10) 0.61749(16)
C2 C 0.1027(2) 1.11532(11) 0.61504(16)
H1 H 0.09290 1.14660 0.53830
C3 C 0.3054(2) 0.90491(11) 0.50394(16)
H2 H 0.28740 0.86730 0.57160
C4 C 0.6197(2) 0.69136(12) 0.26832(16)
H3 H 0.68210 0.68300 0.19900
N1 N -0.0325(2) 1.23865(11) 0.71580(16)
C5 C 0.4576(2) 0.78799(11) 0.39283(15)
C6 C 0.2402(2) 0.99554(11) 0.50327(15)
C7 C 0.3899(2) 0.87575(11) 0.40922(16)
H4 H 0.40780 0.91670 0.34560
C8 C 0.0447(2) 1.15043(12) 0.72351(17)
C9 C 0.4967(3) 0.63416(12) 0.45198(17)
H5 H 0.47760 0.58720 0.50620
C10 C 0.4298(2) 0.71620(11) 0.47255(16)
H6 H 0.36500 0.72400 0.54060
C11 C 0.5531(2) 0.77311(11) 0.29074(16)
H7 H 0.57240 0.81980 0.23610
C12 C 0.0583(3) 1.10735(15) 0.84000(19)
H8 H 0.01830 1.13290 0.91190
O4 O -0.0969(3) 1.26525(14) 0.80880(18)
C13 C 0.5929(2) 0.62160(11) 0.34993(16)
C14 C 0.1907(3) 0.98746(13) 0.73902(18)
H9 H 0.23960 0.93180 0.74470
C15 C 0.1330(3) 1.02517(16) 0.84669(19)
H10 H 0.14470 0.99490 0.92430
H11 H 0.707(4) 0.5405(19) 0.260(3)
#END
