
#######################################################################
#
#                 Cambridge Crystallographic Data Centre
#                                CCDC
#
#######################################################################
#
# If this CIF has been generated from an entry in the Cambridge
# Structural Database, then it will include bibliographic, chemical,
# crystal, experimental, refinement or atomic coordinate data resulting
# from the CCDC's data processing and validation procedures.
#
#######################################################################

data_CSD_CIF_PICRAC11
_audit_creation_date 1981-03-19
_audit_creation_method CSD-ConQuest-V1
_database_code_CSD PICRAC11
_database_code_depnum_ccdc_archive 'CCDC 1233009'
_chemical_formula_sum 'C6 H3 N3 O7'
_chemical_formula_moiety
;
C6 H3 N3 O7
;
_journal_coden_Cambridge 5
_journal_volume 151
_journal_year 1980
_journal_page_first 317
_journal_name_full 'Z.Kristallogr.,Kristallgeom.,Kristallphys.,Kristallchem. '
loop_
_publ_author_name
"T.Srikrishnan"
"M.Soriano-Garcia"
"R.Parthasarathy"
_chemical_name_systematic
;
Picric acid
;
_chemical_name_common
;
2,4,6-Trinitrophenol
;
_cell_volume   1721.776
_exptl_crystal_colour 'yellow'
_exptl_crystal_density_diffrn 1.768
_exptl_special_details
;
x/a(C21)=0.1099 (not 0.1999)

;
_diffrn_ambient_temperature ?
_diffrn_special_details
;
The study was carried out at room temperature,in the range 283-303K

;
#These two values have been output from a single CSD field.
_refine_ls_R_factor_gt 0.058
_refine_ls_wR_factor_gt 0.058
_symmetry_cell_setting orthorhombic
_symmetry_space_group_name_H-M 'P c a 21'
_symmetry_Int_Tables_number 29
loop_
_symmetry_equiv_pos_site_id
_symmetry_equiv_pos_as_xyz
1 x,y,z
2 1/2-x,y,1/2+z
3 1/2+x,-y,z
4 -x,-y,1/2+z
_cell_length_a 9.262(1)
_cell_length_b 19.137(1)
_cell_length_c 9.714(1)
_cell_angle_alpha 90
_cell_angle_beta 90
_cell_angle_gamma 90
_cell_formula_units_Z 8
loop_
_atom_type_symbol
_atom_type_radius_bond
C 0.68
H 0.23
N 0.68
O 0.68
loop_
_atom_site_label
_atom_site_type_symbol
_atom_site_fract_x
_atom_site_fract_y
_atom_site_fract_z
O1 O 0.02490 0.93140 0.19280
O2 O 0.19600 1.02860 0.11720
O3 O 0.20220 1.05370 -0.09100
O4 O 0.11730 0.88100 -0.43240
O5 O -0.00900 0.78850 -0.38340
O6 O -0.16160 0.74700 0.07570
O7 O -0.13990 0.82460 0.23260
N1 N 0.17180 1.01300 -0.00090
N2 N 0.05070 0.84210 -0.35200
N3 N -0.12060 0.80400 0.11420
C1 C 0.02860 0.90930 0.06530
C2 C 0.10990 0.94690 -0.03630
C3 C 0.10810 0.92680 -0.17140
C4 C 0.04180 0.86460 -0.20780
C5 C -0.03340 0.82470 -0.11690
C6 C -0.03970 0.84740 0.01840
H1 H -0.01200 0.90900 0.22700
H2 H 0.13600 0.95800 -0.23000
H3 H -0.07900 0.78200 -0.13700
O8 O 0.21270 0.61370 0.07900
O9 O 0.17590 0.70260 -0.11150
O10 O 0.35250 0.74410 -0.23080
O11 O 0.83060 0.65530 -0.17630
O12 O 0.87900 0.58650 -0.00620
O13 O 0.50330 0.48680 0.25380
O14 O 0.31200 0.54300 0.28960
N4 N 0.30520 0.70620 -0.14360
N5 N 0.79480 0.62050 -0.07800
N6 N 0.41900 0.53230 0.22400
C7 C 0.35440 0.61770 0.03970
C8 C 0.40490 0.66030 -0.06830
C9 C 0.54920 0.66310 -0.10650
C10 C 0.64270 0.62130 -0.03850
C11 C 0.60010 0.57610 0.06940
C12 C 0.45650 0.57720 0.10660
H4 H 0.58600 0.69000 -0.18400
H5 H 0.67300 0.53700 0.11400
#END
