
#######################################################################
#
#                 Cambridge Crystallographic Data Centre
#                                CCDC
#
#######################################################################
#
# If this CIF has been generated from an entry in the Cambridge
# Structural Database, then it will include bibliographic, chemical,
# crystal, experimental, refinement or atomic coordinate data resulting
# from the CCDC's data processing and validation procedures.
#
#######################################################################

data_CSD_CIF_PICRAC14
_audit_creation_date 2017-12-19
_audit_creation_method CSD-ConQuest-V1
_database_code_CSD PICRAC14
_database_code_depnum_ccdc_archive 'CCDC 1580526'
_chemical_formula_sum 'C6 H3 N3 O7'
_chemical_formula_moiety
;
C6 H3 N3 O7
;
_journal_coden_Cambridge 1147
_journal_volume 18
_journal_year 2017
_journal_page_first 52
_journal_name_full 'Cryst.Growth Des. '
loop_
_publ_author_name
"V.G.Saraswatula"
"D.Sharada"
"B.K.Saha"
_chemical_name_systematic
;
2,4,6-trinitrophenol
;
_chemical_name_common
;
Picric acid
;
_cell_volume   1673.319
_exptl_crystal_colour 'yellow'
_exptl_crystal_density_diffrn 1.819
_exptl_crystal_description 'block'
_diffrn_ambient_temperature 118
#These two values have been output from a single CSD field.
_refine_ls_R_factor_gt 0.0388
_refine_ls_wR_factor_gt 0.0388
_symmetry_cell_setting orthorhombic
_symmetry_space_group_name_H-M 'P c a 21'
_symmetry_Int_Tables_number 29
loop_
_symmetry_equiv_pos_site_id
_symmetry_equiv_pos_as_xyz
1 x,y,z
2 -x,-y,1/2+z
3 1/2-x,y,1/2+z
4 1/2+x,-y,z
_cell_length_a 9.1296(4)
_cell_length_b 18.7037(9)
_cell_length_c 9.7994(4)
_cell_angle_alpha 90
_cell_angle_beta 90
_cell_angle_gamma 90
_cell_formula_units_Z 8
loop_
_atom_type_symbol
_atom_type_radius_bond
C 0.68
H 0.23
N 0.68
O 0.68
loop_
_atom_site_label
_atom_site_type_symbol
_atom_site_fract_x
_atom_site_fract_y
_atom_site_fract_z
O1 O 0.6412(2) 0.32199(9) 0.7620(2)
O2 O 0.4737(2) 0.43034(9) 0.72672(18)
H1 H 0.53370 0.40530 0.77070
O3 O 0.2978(2) 0.53145(10) 0.65193(19)
C1 C 0.4709(2) 0.40910(12) 0.5983(3)
O4 O 0.6584(2) 0.24158(10) 0.6055(2)
N1 N 0.3282(2) 0.5189(1) 0.5329(2)
N2 N 0.6180(2) 0.29995(11) 0.6444(2)
O5 O 0.3899(2) 0.38605(12) 0.0988(2)
C2 C 0.3929(2) 0.43058(12) 0.3618(3)
H2 H 0.34300 0.45920 0.29660
C3 C 0.3993(2) 0.45064(12) 0.4972(2)
C4 C 0.4610(2) 0.36764(13) 0.3235(2)
O6 O 0.5158(3) 0.29087(11) 0.1458(2)
N3 N 0.4550(2) 0.34636(12) 0.1790(2)
O7 O 0.3047(2) 0.56066(11) 0.4396(2)
C5 C 0.5344(2) 0.32465(12) 0.4145(3)
H3 H 0.58090 0.28180 0.38560
C6 C 0.5382(2) 0.34611(12) 0.5496(2)
O8 O 0.1613(2) 0.84683(10) 0.3477(2)
N4 N 0.1970(2) 0.88067(11) 0.4490(2)
O9 O 0.7877(2) 0.88857(13) 0.5995(3)
H4 H 0.84050 0.86540 0.54510
O10 O 0.6467(2) 0.75733(11) 0.2858(3)
C7 C 0.3958(2) 0.92374(12) 0.5947(3)
H5 H 0.32740 0.95290 0.64210
O11 O 0.1111(2) 0.91429(12) 0.5217(3)
C8 C 0.4484(2) 0.83856(13) 0.4157(3)
H6 H 0.41570 0.80900 0.34300
N5 N 0.6951(3) 0.79549(13) 0.3758(3)
C9 C 0.5414(3) 0.92323(13) 0.6314(3)
O12 O 0.8276(2) 0.79844(14) 0.4042(3)
N6 N 0.5795(3) 0.96757(14) 0.7514(2)
C10 C 0.6469(3) 0.88275(14) 0.5618(3)
C11 C 0.5942(3) 0.84059(13) 0.4530(3)
C12 C 0.3518(2) 0.88107(12) 0.4878(3)
O13 O 0.6913(2) 0.95618(18) 0.8121(3)
O14 O 0.4941(3) 1.01378(13) 0.7850(3)
#END
