
#######################################################################
#
#                 Cambridge Crystallographic Data Centre
#                                CCDC
#
#######################################################################
#
# If this CIF has been generated from an entry in the Cambridge
# Structural Database, then it will include bibliographic, chemical,
# crystal, experimental, refinement or atomic coordinate data resulting
# from the CCDC's data processing and validation procedures.
#
#######################################################################

data_CSD_CIF_PICRAC13
_audit_creation_date 2011-09-15
_audit_creation_method CSD-ConQuest-V1
_database_code_CSD PICRAC13
_database_code_depnum_ccdc_archive 'CCDC 787071'
_chemical_formula_sum 'C6 H3 N3 O7'
_chemical_formula_moiety
;
C6 H3 N3 O7
;
_journal_coden_Cambridge 1147
_journal_volume 11
_journal_year 2011
_journal_page_first 2724
_journal_name_full 'Cryst.Growth Des. '
loop_
_publ_author_name
"V.Bertolasi"
"P.Gilli"
"G.Gilli"
_chemical_name_systematic
;
2,4,6-Trinitrophenol
;
_chemical_name_common
;
picric acid
;
_cell_volume   1670.228
_exptl_crystal_colour 'yellow'
_exptl_crystal_density_diffrn 1.822
_exptl_crystal_description 'prismatic'
_diffrn_ambient_temperature 120
#These two values have been output from a single CSD field.
_refine_ls_R_factor_gt 0.0401
_refine_ls_wR_factor_gt 0.0401
_symmetry_cell_setting orthorhombic
_symmetry_space_group_name_H-M 'P c a 21'
_symmetry_Int_Tables_number 29
loop_
_symmetry_equiv_pos_site_id
_symmetry_equiv_pos_as_xyz
1 x,y,z
2 -x,-y,1/2+z
3 1/2-x,y,1/2+z
4 1/2+x,-y,z
_cell_length_a 9.1295(2)
_cell_length_b 18.6869(5)
_cell_length_c 9.7902(2)
_cell_angle_alpha 90
_cell_angle_beta 90
_cell_angle_gamma 90
_cell_formula_units_Z 8
loop_
_atom_type_symbol
_atom_type_radius_bond
C 0.68
H 0.23
N 0.68
O 0.68
loop_
_atom_site_label
_atom_site_type_symbol
_atom_site_fract_x
_atom_site_fract_y
_atom_site_fract_z
C1 C 0.52929(18) 0.09072(9) 0.31844(19)
C2 C 0.46202(18) 0.15424(9) 0.36696(18)
C3 C 0.46545(19) 0.17545(9) 0.50254(19)
C4 C 0.5393(2) 0.13267(10) 0.59341(18)
C5 C 0.60736(19) 0.06964(10) 0.55494(19)
C6 C 0.60092(18) 0.04938(9) 0.41961(18)
N1 N 0.38215(17) 0.20022(8) 0.27201(17)
N2 N 0.54542(19) 0.15391(9) 0.73779(16)
N3 N 0.67183(16) -0.01880(8) 0.38382(17)
O1 O 0.52667(16) 0.06972(7) 0.18994(14)
O2 O 0.35875(16) 0.17807(7) 0.15481(15)
O3 O 0.34167(19) 0.25862(8) 0.31086(17)
O4 O 0.4842(2) 0.20932(9) 0.77079(16)
O5 O 0.60994(18) 0.11411(9) 0.81802(17)
O6 O 0.70244(16) -0.03148(7) 0.26471(14)
O7 O 0.6954(2) -0.06075(9) 0.47734(16)
H1 H 0.470(3) 0.0959(15) 0.158(3)
H2 H 0.418(3) 0.2187(13) 0.527(2)
H3 H 0.654(2) 0.0410(11) 0.621(2)
C7 C 0.8531(2) 0.38357(10) 0.3555(2)
C8 C 0.9054(2) 0.34108(10) 0.4643(2)
C9 C 1.0516(2) 0.33898(10) 0.5015(2)
C10 C 1.14835(19) 0.38121(9) 0.42910(19)
C11 C 1.1045(2) 0.42408(9) 0.3217(2)
C12 C 0.9592(2) 0.42355(10) 0.28561(18)
N4 N 0.8048(2) 0.2960(1) 0.5417(2)
N5 N 1.30338(17) 0.38076(8) 0.46729(18)
N6 N 0.9211(2) 0.46814(10) 0.16554(18)
O8 O 0.71254(16) 0.38905(10) 0.3182(2)
O9 O 0.67244(18) 0.29904(11) 0.5143(2)
O10 O 0.85338(18) 0.25751(9) 0.6315(2)
O11 O 1.33905(16) 0.34683(8) 0.56866(15)
O12 O 1.38904(16) 0.41443(9) 0.39430(19)
O13 O 0.80854(19) 0.45731(13) 0.1049(2)
O14 O 1.0080(3) 0.51411(10) 0.1315(2)
H4 H 0.659(4) 0.3651(18) 0.378(4)
H5 H 1.086(3) 0.3095(11) 0.571(2)
H6 H 1.183(2) 0.4606(10) 0.275(2)
#END
