
#######################################################################
#
#                 Cambridge Crystallographic Data Centre
#                                CCDC
#
#######################################################################
#
# If this CIF has been generated from an entry in the Cambridge
# Structural Database, then it will include bibliographic, chemical,
# crystal, experimental, refinement or atomic coordinate data resulting
# from the CCDC's data processing and validation procedures.
#
#######################################################################

data_CSD_CIF_PICRAC16
_audit_creation_date 2017-12-19
_audit_creation_method CSD-ConQuest-V1
_database_code_CSD PICRAC16
_database_code_depnum_ccdc_archive 'CCDC 1580528'
_chemical_formula_sum 'C6 H3 N3 O7'
_chemical_formula_moiety
;
C6 H3 N3 O7
;
_journal_coden_Cambridge 1147
_journal_volume 18
_journal_year 2017
_journal_page_first 52
_journal_name_full 'Cryst.Growth Des. '
loop_
_publ_author_name
"V.G.Saraswatula"
"D.Sharada"
"B.K.Saha"
_chemical_name_systematic
;
2,4,6-trinitrophenol
;
_chemical_name_common
;
Picric acid
;
_cell_volume   1689.566
_exptl_crystal_colour 'yellow'
_exptl_crystal_density_diffrn 1.801
_exptl_crystal_description 'block'
_diffrn_ambient_temperature 190
#These two values have been output from a single CSD field.
_refine_ls_R_factor_gt 0.0429
_refine_ls_wR_factor_gt 0.0429
_symmetry_cell_setting orthorhombic
_symmetry_space_group_name_H-M 'P c a 21'
_symmetry_Int_Tables_number 29
loop_
_symmetry_equiv_pos_site_id
_symmetry_equiv_pos_as_xyz
1 x,y,z
2 -x,-y,1/2+z
3 1/2-x,y,1/2+z
4 1/2+x,-y,z
_cell_length_a 9.1788(6)
_cell_length_b 18.7929(12)
_cell_length_c 9.7948(6)
_cell_angle_alpha 90
_cell_angle_beta 90
_cell_angle_gamma 90
_cell_formula_units_Z 8
loop_
_atom_type_symbol
_atom_type_radius_bond
C 0.68
H 0.23
N 0.68
O 0.68
loop_
_atom_site_label
_atom_site_type_symbol
_atom_site_fract_x
_atom_site_fract_y
_atom_site_fract_z
O1 O 0.6399(2) 0.32264(9) 0.7613(2)
O2 O 0.4740(2) 0.43063(9) 0.72483(19)
H1 H 0.53310 0.40550 0.76910
O3 O 0.2988(2) 0.53072(10) 0.6493(2)
C1 C 0.4709(2) 0.40909(12) 0.5967(3)
O4 O 0.6591(3) 0.24318(11) 0.6055(3)
N1 N 0.3278(2) 0.51755(11) 0.5312(2)
N2 N 0.6179(2) 0.30098(11) 0.6439(2)
O5 O 0.3878(3) 0.38426(14) 0.0987(2)
C2 C 0.3921(3) 0.42922(13) 0.3608(3)
H2 H 0.34210 0.45750 0.29540
C3 C 0.3989(2) 0.44976(13) 0.4959(3)
C4 C 0.4595(3) 0.36682(13) 0.3231(3)
O6 O 0.5130(3) 0.29013(12) 0.1464(2)
N3 N 0.4522(3) 0.34505(13) 0.1790(2)
O7 O 0.3030(3) 0.55894(12) 0.4385(2)
C5 C 0.5338(3) 0.32464(12) 0.4136(3)
H3 H 0.58070 0.28220 0.38470
C6 C 0.5380(2) 0.34624(11) 0.5487(3)
O8 O 0.1641(2) 0.84633(11) 0.3495(2)
N4 N 0.1998(2) 0.88045(12) 0.4501(2)
O9 O 0.78669(19) 0.88898(13) 0.6010(3)
H4 H 0.83970 0.86890 0.54260
O10 O 0.6478(2) 0.75733(12) 0.2895(3)
C7 C 0.3972(3) 0.92358(12) 0.5955(3)
H5 H 0.32890 0.95270 0.64230
O11 O 0.1141(2) 0.91381(13) 0.5226(3)
C8 C 0.4498(3) 0.83849(13) 0.4175(3)
H6 H 0.41750 0.80880 0.34500
N5 N 0.6950(3) 0.79585(14) 0.3784(3)
C9 C 0.5416(3) 0.92350(13) 0.6326(2)
O12 O 0.8268(2) 0.79873(15) 0.4070(3)
N6 N 0.5798(3) 0.96805(14) 0.7514(2)
C10 C 0.6462(3) 0.88360(14) 0.5631(3)
C11 C 0.5947(3) 0.84089(13) 0.4549(3)
C12 C 0.3536(2) 0.88075(12) 0.4893(3)
O13 O 0.6903(3) 0.95775(18) 0.8122(3)
O14 O 0.4933(4) 1.01406(14) 0.7844(3)
#END
