
#######################################################################
#
#                 Cambridge Crystallographic Data Centre
#                                CCDC
#
#######################################################################
#
# If this CIF has been generated from an entry in the Cambridge
# Structural Database, then it will include bibliographic, chemical,
# crystal, experimental, refinement or atomic coordinate data resulting
# from the CCDC's data processing and validation procedures.
#
#######################################################################

data_CSD_CIF_PICRAC12
_audit_creation_date 2008-11-13
_audit_creation_method CSD-ConQuest-V1
_database_code_CSD PICRAC12
_database_code_depnum_ccdc_archive 'CCDC 667816'
_chemical_formula_sum 'C6 H3 N3 O7'
_chemical_formula_moiety
;
C6 H3 N3 O7
;
_journal_coden_Cambridge 1078
_journal_year 2007
_journal_name_full 'CSD Communication(Private Communication) '
loop_
_publ_author_name
"B.Narayana"
"B.K.Sarojini"
"H.S.Yathirajan"
"M.Bolte"
_chemical_name_systematic
;
Picric acid
;
_chemical_name_common
;
2,4,6-Trinitrophenol
;
_cell_volume   1696.279
_exptl_crystal_colour 'yellow'
_exptl_crystal_density_diffrn 1.794
_exptl_special_details
;
contribution from Institut fur Anorganische Chemie, J.-W.-Goethe-Universitat, 
Max-von-Laue-Str. 7, D-60438 Frankfurt-Main, Germany
;
_exptl_crystal_description 'plate'
_diffrn_ambient_temperature 173
#These two values have been output from a single CSD field.
_refine_ls_R_factor_gt 0.0403
_refine_ls_wR_factor_gt 0.0403
_symmetry_cell_setting orthorhombic
_symmetry_space_group_name_H-M 'P c a 21'
_symmetry_Int_Tables_number 29
loop_
_symmetry_equiv_pos_site_id
_symmetry_equiv_pos_as_xyz
1 x,y,z
2 -x,-y,1/2+z
3 1/2+x,-y,z
4 1/2-x,y,1/2+z
_cell_length_a 9.1849(9)
_cell_length_b 18.8333(19)
_cell_length_c 9.8061(9)
_cell_angle_alpha 90
_cell_angle_beta 90
_cell_angle_gamma 90
_cell_formula_units_Z 8
loop_
_atom_type_symbol
_atom_type_radius_bond
C 0.68
H 0.23
N 0.68
O 0.68
loop_
_atom_site_label
_atom_site_type_symbol
_atom_site_fract_x
_atom_site_fract_y
_atom_site_fract_z
O1 O 0.21259(19) 0.11139(14) 0.9795(3)
H1 H 0.158(5) 0.138(3) 0.912(6)
O2 O 0.1727(2) 0.20144(15) 0.7849(3)
O3 O 0.3526(2) 0.24286(12) 0.6672(3)
O4 O 0.83649(19) 0.15381(10) 0.7274(2)
O5 O 0.8862(2) 0.08610(13) 0.9005(3)
O6 O 0.5054(4) -0.01391(13) 1.1630(3)
O7 O 0.3092(2) 0.04315(19) 1.1917(3)
N1 N 0.3047(2) 0.20454(13) 0.7565(3)
N2 N 0.8009(2) 0.11961(11) 0.8283(3)
N3 N 0.4201(3) 0.03231(13) 1.1302(3)
C1 C 0.3530(2) 0.11714(13) 0.9416(3)
C2 C 0.4049(2) 0.15968(12) 0.8332(3)
C3 C 0.5504(2) 0.16154(11) 0.7962(3)
H2 H 0.58270 0.19100 0.72370
C4 C 0.6470(2) 0.11947(11) 0.8672(3)
C5 C 0.6030(2) 0.07631(11) 0.9742(3)
H3 H 0.67090 0.04710 1.02090
C6 C 0.4583(3) 0.07690(12) 1.0108(3)
O8 O 0.4739(2) 0.43045(9) 0.60394(19)
H4 H 0.532(4) 0.408(2) 0.636(5)
O9 O 0.2984(2) 0.53081(9) 0.5292(2)
O10 O 0.3037(3) 0.55964(12) 0.3172(2)
O11 O 0.3885(2) 0.38526(12) -0.0230(2)
O12 O 0.5140(3) 0.29048(12) 0.0243(2)
O13 O 0.6588(3) 0.2427(1) 0.4841(3)
O14 O 0.6403(2) 0.32235(8) 0.6398(2)
N4 N 0.3279(2) 0.51781(10) 0.4103(2)
N5 N 0.4532(2) 0.34577(12) 0.0573(2)
N6 N 0.6181(2) 0.30066(10) 0.5227(2)
C7 C 0.4710(2) 0.40924(11) 0.4758(3)
C8 C 0.3993(2) 0.45006(11) 0.3747(2)
C9 C 0.3924(2) 0.42982(12) 0.2395(3)
H5 H 0.34250 0.45810 0.17440
C10 C 0.4599(2) 0.36718(12) 0.2013(3)
C11 C 0.5342(2) 0.32477(11) 0.2926(3)
H6 H 0.58090 0.28230 0.26400
C12 C 0.5381(2) 0.34635(10) 0.4274(2)
#END
