
#######################################################################
#
#                 Cambridge Crystallographic Data Centre
#                                CCDC
#
#######################################################################
#
# If this CIF has been generated from an entry in the Cambridge
# Structural Database, then it will include bibliographic, chemical,
# crystal, experimental, refinement or atomic coordinate data resulting
# from the CCDC's data processing and validation procedures.
#
#######################################################################

data_CSD_CIF_PICRAC19
_audit_creation_date 2017-12-19
_audit_creation_method CSD-ConQuest-V1
_database_code_CSD PICRAC19
_database_code_depnum_ccdc_archive 'CCDC 1580531'
_chemical_formula_sum 'C6 H3 N3 O7'
_chemical_formula_moiety
;
C6 H3 N3 O7
;
_journal_coden_Cambridge 1147
_journal_volume 18
_journal_year 2017
_journal_page_first 52
_journal_name_full 'Cryst.Growth Des. '
loop_
_publ_author_name
"V.G.Saraswatula"
"D.Sharada"
"B.K.Saha"
_chemical_name_systematic
;
2,4,6-trinitrophenol
;
_chemical_name_common
;
Picric acid
;
_cell_volume   1727.808
_exptl_crystal_colour 'yellow'
_exptl_crystal_density_diffrn 1.762
_exptl_crystal_description 'block'
_diffrn_ambient_temperature 298
#These two values have been output from a single CSD field.
_refine_ls_R_factor_gt 0.059
_refine_ls_wR_factor_gt 0.059
_symmetry_cell_setting orthorhombic
_symmetry_space_group_name_H-M 'P c a 21'
_symmetry_Int_Tables_number 29
loop_
_symmetry_equiv_pos_site_id
_symmetry_equiv_pos_as_xyz
1 x,y,z
2 -x,-y,1/2+z
3 1/2-x,y,1/2+z
4 1/2+x,-y,z
_cell_length_a 9.2678(6)
_cell_length_b 19.1644(13)
_cell_length_c 9.7280(7)
_cell_angle_alpha 90
_cell_angle_beta 90
_cell_angle_gamma 90
_cell_formula_units_Z 8
loop_
_atom_type_symbol
_atom_type_radius_bond
C 0.68
H 0.23
N 0.68
O 0.68
loop_
_atom_site_label
_atom_site_type_symbol
_atom_site_fract_x
_atom_site_fract_y
_atom_site_fract_z
O1 O 0.6380(4) 0.32447(16) 0.7610(4)
O2 O 0.4755(4) 0.43116(15) 0.7214(4)
H1 H 0.51790 0.40270 0.76970
O3 O 0.3032(5) 0.52830(19) 0.6462(4)
C1 C 0.4720(4) 0.4084(2) 0.5932(4)
O4 O 0.6627(5) 0.2474(2) 0.6053(5)
N1 N 0.3276(4) 0.51356(19) 0.5268(4)
N2 N 0.6190(4) 0.30362(18) 0.6425(5)
O5 O 0.3802(6) 0.3793(3) 0.0973(5)
C2 C 0.3909(4) 0.4268(2) 0.3587(5)
H2 H 0.34140 0.45350 0.29430
C3 C 0.3991(4) 0.44778(19) 0.4917(4)
C4 C 0.4575(4) 0.3650(2) 0.3202(4)
O6 O 0.5088(6) 0.2888(2) 0.1442(4)
N3 N 0.4468(5) 0.3424(3) 0.1777(4)
O7 O 0.2951(7) 0.5521(3) 0.4365(5)
C5 C 0.5329(4) 0.32458(19) 0.4118(4)
H3 H 0.57820 0.28360 0.38410
C6 C 0.5391(4) 0.34686(18) 0.5458(4)
O8 O 0.1702(4) 0.8446(2) 0.3515(4)
N4 N 0.2049(4) 0.8790(2) 0.4510(4)
O9 O 0.7853(4) 0.8878(3) 0.6074(5)
H4 H 0.83420 0.85860 0.56710
O10 O 0.6493(5) 0.7571(2) 0.2971(6)
C7 C 0.4011(4) 0.92247(19) 0.5969(5)
H5 H 0.33480 0.95110 0.64130
O11 O 0.1210(4) 0.9125(3) 0.5210(6)
C8 C 0.4523(4) 0.8378(2) 0.4228(5)
H6 H 0.42120 0.80910 0.35170
N5 N 0.6956(5) 0.7947(3) 0.3869(6)
C9 C 0.5427(4) 0.9227(2) 0.6349(4)
O12 O 0.8242(5) 0.7968(3) 0.4170(6)
N6 N 0.5817(5) 0.9675(3) 0.7520(4)
C10 C 0.6455(4) 0.8822(2) 0.5664(5)
C11 C 0.5955(4) 0.8396(2) 0.4609(5)
C12 C 0.3576(4) 0.87908(19) 0.4915(4)
O13 O 0.6883(5) 0.9565(4) 0.8155(6)
O14 O 0.4981(7) 1.0130(2) 0.7831(5)
#END
