
#######################################################################
#
#                 Cambridge Crystallographic Data Centre
#                                CCDC
#
#######################################################################
#
# If this CIF has been generated from an entry in the Cambridge
# Structural Database, then it will include bibliographic, chemical,
# crystal, experimental, refinement or atomic coordinate data resulting
# from the CCDC's data processing and validation procedures.
#
#######################################################################

data_CSD_CIF_PICRAC18
_audit_creation_date 2017-12-19
_audit_creation_method CSD-ConQuest-V1
_database_code_CSD PICRAC18
_database_code_depnum_ccdc_archive 'CCDC 1580530'
_chemical_formula_sum 'C6 H3 N3 O7'
_chemical_formula_moiety
;
C6 H3 N3 O7
;
_journal_coden_Cambridge 1147
_journal_volume 18
_journal_year 2017
_journal_page_first 52
_journal_name_full 'Cryst.Growth Des. '
loop_
_publ_author_name
"V.G.Saraswatula"
"D.Sharada"
"B.K.Saha"
_chemical_name_systematic
;
2,4,6-trinitrophenol
;
_chemical_name_common
;
Picric acid
;
_cell_volume   1715.785
_exptl_crystal_colour 'yellow'
_exptl_crystal_density_diffrn 1.774
_exptl_crystal_description 'Block'
_diffrn_ambient_temperature 262
#These two values have been output from a single CSD field.
_refine_ls_R_factor_gt 0.0587
_refine_ls_wR_factor_gt 0.0587
_symmetry_cell_setting orthorhombic
_symmetry_space_group_name_H-M 'P c a 21'
_symmetry_Int_Tables_number 29
loop_
_symmetry_equiv_pos_site_id
_symmetry_equiv_pos_as_xyz
1 x,y,z
2 -x,-y,1/2+z
3 1/2-x,y,1/2+z
4 1/2+x,-y,z
_cell_length_a 9.2465(8)
_cell_length_b 19.0178(16)
_cell_length_c 9.7572(8)
_cell_angle_alpha 90
_cell_angle_beta 90
_cell_angle_gamma 90
_cell_formula_units_Z 8
loop_
_atom_type_symbol
_atom_type_radius_bond
C 0.68
H 0.23
N 0.68
O 0.68
loop_
_atom_site_label
_atom_site_type_symbol
_atom_site_fract_x
_atom_site_fract_y
_atom_site_fract_z
O1 O 0.6388(4) 0.32404(14) 0.7612(3)
O2 O 0.4751(3) 0.43088(14) 0.7230(3)
H1 H 0.52150 0.40300 0.76970
O3 O 0.3009(4) 0.52945(17) 0.6467(4)
C1 C 0.4718(4) 0.40872(18) 0.5939(4)
O4 O 0.6610(4) 0.24592(18) 0.6048(4)
N1 N 0.3276(4) 0.51516(17) 0.5285(4)
N2 N 0.6183(4) 0.30266(17) 0.6429(4)
O5 O 0.3838(5) 0.3815(2) 0.0973(4)
C2 C 0.3916(4) 0.4277(2) 0.3592(4)
H2 H 0.34270 0.45480 0.29500
C3 C 0.3989(3) 0.44851(19) 0.4935(4)
C4 C 0.4581(4) 0.3658(2) 0.3210(4)
O6 O 0.5107(5) 0.2893(2) 0.1455(4)
N3 N 0.4495(4) 0.3433(2) 0.1777(4)
O7 O 0.3000(6) 0.5552(2) 0.4376(4)
C5 C 0.5335(4) 0.32502(18) 0.4132(4)
H3 H 0.57930 0.28390 0.38540
C6 C 0.5392(4) 0.34672(17) 0.5468(4)
O8 O 0.1679(3) 0.84549(18) 0.3511(3)
N4 N 0.2031(4) 0.87972(19) 0.4511(4)
O9 O 0.7860(3) 0.8883(2) 0.6041(5)
H4 H 0.83310 0.85610 0.57060
O10 O 0.6492(4) 0.7568(2) 0.2946(5)
C7 C 0.4000(4) 0.92291(18) 0.5966(4)
H5 H 0.33370 0.95160 0.64130
O11 O 0.1186(3) 0.9132(2) 0.5221(5)
C8 C 0.4514(4) 0.83780(19) 0.4208(4)
H6 H 0.42030 0.80890 0.34980
N5 N 0.6956(5) 0.7948(2) 0.3844(5)
C9 C 0.5432(4) 0.9229(2) 0.6341(4)
O12 O 0.8250(4) 0.7973(2) 0.4137(5)
N6 N 0.5808(4) 0.9680(2) 0.7517(4)
C10 C 0.6463(4) 0.8823(2) 0.5653(4)
C11 C 0.5952(4) 0.8400(2) 0.4584(4)
C12 C 0.3562(3) 0.87915(18) 0.4905(4)
O13 O 0.6882(4) 0.9573(3) 0.8138(5)
O14 O 0.4970(6) 1.0134(2) 0.7834(5)
#END
