
#######################################################################
#
#                 Cambridge Crystallographic Data Centre
#                                CCDC
#
#######################################################################
#
# If this CIF has been generated from an entry in the Cambridge
# Structural Database, then it will include bibliographic, chemical,
# crystal, experimental, refinement or atomic coordinate data resulting
# from the CCDC's data processing and validation procedures.
#
#######################################################################

data_CSD_CIF_PICRAC17
_audit_creation_date 2017-12-19
_audit_creation_method CSD-ConQuest-V1
_database_code_CSD PICRAC17
_database_code_depnum_ccdc_archive 'CCDC 1580529'
_chemical_formula_sum 'C6 H3 N3 O7'
_chemical_formula_moiety
;
C6 H3 N3 O7
;
_journal_coden_Cambridge 1147
_journal_volume 18
_journal_year 2017
_journal_page_first 52
_journal_name_full 'Cryst.Growth Des. '
loop_
_publ_author_name
"V.G.Saraswatula"
"D.Sharada"
"B.K.Saha"
_chemical_name_systematic
;
2,4,6-trinitrophenol
;
_chemical_name_common
;
Picric acid
;
_cell_volume   1701.298
_exptl_crystal_colour 'yellow'
_exptl_crystal_density_diffrn 1.789
_exptl_crystal_description 'Block'
_diffrn_ambient_temperature 226
#These two values have been output from a single CSD field.
_refine_ls_R_factor_gt 0.0464
_refine_ls_wR_factor_gt 0.0464
_symmetry_cell_setting orthorhombic
_symmetry_space_group_name_H-M 'P c a 21'
_symmetry_Int_Tables_number 29
loop_
_symmetry_equiv_pos_site_id
_symmetry_equiv_pos_as_xyz
1 x,y,z
2 -x,-y,1/2+z
3 1/2-x,y,1/2+z
4 1/2+x,-y,z
_cell_length_a 9.2019(3)
_cell_length_b 18.8917(8)
_cell_length_c 9.7866(4)
_cell_angle_alpha 90
_cell_angle_beta 90
_cell_angle_gamma 90
_cell_formula_units_Z 8
loop_
_atom_type_symbol
_atom_type_radius_bond
C 0.68
H 0.23
N 0.68
O 0.68
loop_
_atom_site_label
_atom_site_type_symbol
_atom_site_fract_x
_atom_site_fract_y
_atom_site_fract_z
O1 O 0.6394(2) 0.32294(10) 0.7610(2)
O2 O 0.4744(2) 0.43081(10) 0.7239(2)
H1 H 0.53320 0.40640 0.76770
O3 O 0.2994(3) 0.52991(11) 0.6482(2)
C1 C 0.4708(3) 0.40898(13) 0.5956(3)
O4 O 0.6596(3) 0.24436(12) 0.6052(3)
N1 N 0.3276(2) 0.51647(13) 0.5306(3)
N2 N 0.6180(3) 0.30162(12) 0.6431(3)
O5 O 0.3859(3) 0.38319(16) 0.0980(3)
C2 C 0.3915(3) 0.42856(14) 0.3600(3)
H2 H 0.34170 0.45610 0.29520
C3 C 0.3988(2) 0.44930(14) 0.4947(3)
C4 C 0.4591(3) 0.36638(14) 0.3225(3)
O6 O 0.5124(3) 0.29010(14) 0.1455(3)
N3 N 0.4509(3) 0.34472(15) 0.1785(3)
O7 O 0.3019(4) 0.55748(15) 0.4380(3)
C5 C 0.5333(3) 0.32490(13) 0.4134(3)
H3 H 0.57940 0.28300 0.38510
C6 C 0.5383(3) 0.34661(13) 0.5480(3)
O8 O 0.1663(2) 0.84584(13) 0.3503(2)
N4 N 0.2014(2) 0.88033(13) 0.4508(3)
O9 O 0.7864(2) 0.88862(16) 0.6024(3)
H4 H 0.83840 0.86630 0.54810
O10 O 0.6481(3) 0.75700(14) 0.2920(3)
C7 C 0.3980(3) 0.92328(13) 0.5967(3)
H5 H 0.33070 0.95200 0.64300
O11 O 0.1160(2) 0.91340(15) 0.5224(3)
C8 C 0.4506(3) 0.83830(14) 0.4187(3)
H6 H 0.41920 0.80920 0.34660
N5 N 0.6952(3) 0.79540(16) 0.3812(4)
C9 C 0.5425(3) 0.92297(14) 0.6333(3)
O12 O 0.8259(3) 0.79840(17) 0.4096(4)
N6 N 0.5800(3) 0.96785(15) 0.7515(3)
C10 C 0.6465(3) 0.88308(16) 0.5640(3)
C11 C 0.5952(3) 0.84065(15) 0.4567(3)
C12 C 0.3544(3) 0.88006(13) 0.4899(3)
O13 O 0.6899(3) 0.9575(2) 0.8130(3)
O14 O 0.4948(4) 1.01380(15) 0.7837(3)
#END
