
#######################################################################
#
#                 Cambridge Crystallographic Data Centre
#                                CCDC
#
#######################################################################
#
# If this CIF has been generated from an entry in the Cambridge
# Structural Database, then it will include bibliographic, chemical,
# crystal, experimental, refinement or atomic coordinate data resulting
# from the CCDC's data processing and validation procedures.
#
#######################################################################

data_CSD_CIF_PICRAC15
_audit_creation_date 2017-12-19
_audit_creation_method CSD-ConQuest-V1
_database_code_CSD PICRAC15
_database_code_depnum_ccdc_archive 'CCDC 1580527'
_chemical_formula_sum 'C6 H3 N3 O7'
_chemical_formula_moiety
;
C6 H3 N3 O7
;
_journal_coden_Cambridge 1147
_journal_volume 18
_journal_year 2017
_journal_page_first 52
_journal_name_full 'Cryst.Growth Des. '
loop_
_publ_author_name
"V.G.Saraswatula"
"D.Sharada"
"B.K.Saha"
_chemical_name_systematic
;
2,4,6-trinitrophenol
;
_chemical_name_common
;
Picric acid
;
_cell_volume   1679.957
_exptl_crystal_colour 'yellow'
_exptl_crystal_density_diffrn 1.812
_exptl_crystal_description 'Block'
_diffrn_ambient_temperature 154
#These two values have been output from a single CSD field.
_refine_ls_R_factor_gt 0.0418
_refine_ls_wR_factor_gt 0.0418
_symmetry_cell_setting orthorhombic
_symmetry_space_group_name_H-M 'P c a 21'
_symmetry_Int_Tables_number 29
loop_
_symmetry_equiv_pos_site_id
_symmetry_equiv_pos_as_xyz
1 x,y,z
2 -x,-y,1/2+z
3 1/2-x,y,1/2+z
4 1/2+x,-y,z
_cell_length_a 9.1476(4)
_cell_length_b 18.7463(9)
_cell_length_c 9.7966(4)
_cell_angle_alpha 90
_cell_angle_beta 90
_cell_angle_gamma 90
_cell_formula_units_Z 8
loop_
_atom_type_symbol
_atom_type_radius_bond
C 0.68
H 0.23
N 0.68
O 0.68
loop_
_atom_site_label
_atom_site_type_symbol
_atom_site_fract_x
_atom_site_fract_y
_atom_site_fract_z
O1 O 0.6407(2) 0.32230(9) 0.76153(19)
O2 O 0.4737(2) 0.43047(9) 0.72585(18)
H1 H 0.53650 0.40690 0.76910
O3 O 0.2983(2) 0.5311(1) 0.65072(19)
C1 C 0.4711(2) 0.40905(12) 0.5973(3)
O4 O 0.6589(3) 0.24251(10) 0.6050(2)
N1 N 0.3280(2) 0.51822(11) 0.5319(2)
N2 N 0.6177(2) 0.30047(11) 0.6443(2)
O5 O 0.3890(2) 0.38529(12) 0.0986(2)
C2 C 0.3925(3) 0.43005(13) 0.3614(3)
H2 H 0.34250 0.45860 0.29620
C3 C 0.3992(2) 0.45014(13) 0.4970(2)
C4 C 0.4606(3) 0.36732(13) 0.3232(3)
O6 O 0.5142(3) 0.29075(12) 0.1459(2)
N3 N 0.4535(2) 0.34598(12) 0.1789(2)
O7 O 0.3039(3) 0.55982(12) 0.4392(2)
C5 C 0.5341(3) 0.32485(12) 0.4141(3)
H3 H 0.58070 0.28210 0.38530
C6 C 0.5383(2) 0.34625(12) 0.5490(2)
O8 O 0.1629(2) 0.84649(11) 0.3484(2)
N4 N 0.1986(2) 0.88040(12) 0.4496(2)
O9 O 0.7876(2) 0.88854(13) 0.6007(3)
H4 H 0.84040 0.86570 0.54580
O10 O 0.6474(2) 0.75709(12) 0.2882(3)
C7 C 0.3969(3) 0.92357(12) 0.5951(3)
H5 H 0.32860 0.95280 0.64220
O11 O 0.1127(2) 0.91383(13) 0.5218(3)
C8 C 0.4494(3) 0.83827(13) 0.4168(3)
H6 H 0.41690 0.80870 0.34410
N5 N 0.6952(3) 0.79530(14) 0.3776(3)
C9 C 0.5415(3) 0.92318(13) 0.6318(3)
O12 O 0.8272(2) 0.79815(15) 0.4063(3)
N6 N 0.5804(3) 0.96754(14) 0.7512(3)
C10 C 0.6463(3) 0.88288(14) 0.5625(3)
C11 C 0.5943(3) 0.84048(13) 0.4542(3)
C12 C 0.3527(2) 0.88066(12) 0.4887(3)
O13 O 0.6911(2) 0.95647(19) 0.8123(3)
O14 O 0.4946(4) 1.01394(13) 0.7842(3)
#END
