
#######################################################################
#
#                 Cambridge Crystallographic Data Centre
#                                CCDC
#
#######################################################################
#
# If this CIF has been generated from an entry in the Cambridge
# Structural Database, then it will include bibliographic, chemical,
# crystal, experimental, refinement or atomic coordinate data resulting
# from the CCDC's data processing and validation procedures.
#
#######################################################################

data_CSD_CIF_PICWEA
_audit_creation_date 1994-07-25
_audit_creation_method CSD-ConQuest-V1
_database_code_CSD PICWEA
_chemical_formula_sum 'C10 H12 N2 O6'
_chemical_formula_moiety
;
C10 H12 N2 O6
;
_journal_coden_Cambridge 24
_journal_volume 34
_journal_year 1993
_journal_page_first 7391
_journal_name_full 'Tetrahedron Lett. '
loop_
_publ_author_name
"P.Chemla"
_chemical_name_systematic
;
(1S,8R,9R,13R)-11,11-Dimethyl-6,10,12,14-tetraoxa-3,5-diazatetracyclo(6.5.1.0^
9,13^.0^1,5^)tetradecane-2,4-dione
;
_cell_volume    566.706
_exptl_crystal_density_diffrn 1.501
_diffrn_ambient_temperature ?
_diffrn_special_details
;
The study was carried out at room temperature,in the range 283-303K

;
#These two values have been output from a single CSD field.
_refine_ls_R_factor_gt 0.035
_refine_ls_wR_factor_gt 0.035
_symmetry_cell_setting monoclinic
_symmetry_space_group_name_H-M 'P 21'
_symmetry_Int_Tables_number 4
loop_
_symmetry_equiv_pos_site_id
_symmetry_equiv_pos_as_xyz
1 x,y,z
2 -x,1/2+y,-z
_cell_length_a 6.086(1)
_cell_length_b 8.898(1)
_cell_length_c 10.465(1)
_cell_angle_alpha 90
_cell_angle_beta 90.29(1)
_cell_angle_gamma 90
_cell_formula_units_Z 2
loop_
_atom_type_symbol
_atom_type_radius_bond
C 0.68
H 0.23
N 0.68
O 0.68
loop_
_atom_site_label
_atom_site_type_symbol
_atom_site_fract_x
_atom_site_fract_y
_atom_site_fract_z
O1 O 1.0132(7) 0.32500 0.5628(3)
O2 O 0.6906(5) 0.3495(4) 0.7575(3)
O3 O 0.5356(6) 0.6504(5) 0.6756(4)
O4 O 0.7922(6) 0.6583(5) 0.8315(3)
O5 O 0.9635(8) 0.4210(5) 1.0061(4)
O6 O 1.2041(7) 0.0861(5) 0.7045(4)
N1 N 1.0634(6) 0.3298(6) 0.6945(4)
N2 N 1.1031(8) 0.2240(5) 0.8872(4)
C1 C 0.9051(9) 0.4048(7) 0.7741(5)
C2 C 0.8896(9) 0.5760(7) 0.7314(5)
C3 C 0.7133(9) 0.5641(7) 0.6224(6)
C4 C 0.640(1) 0.3957(7) 0.6261(5)
C5 C 0.7775(9) 0.3003(7) 0.5374(5)
C6 C 1.1314(9) 0.1977(7) 0.7549(6)
C7 C 0.9900(9) 0.3585(7) 0.9060(4)
C8 C 0.606(1) 0.7446(8) 0.7781(6)
C9 C 0.431(1) 0.7549(9) 0.8789(6)
C10 C 0.698(1) 0.8933(7) 0.7300(8)
H1 H 1.161(9) 0.166(7) 0.953(5)
H2 H 1.026(8) 0.619(7) 0.708(5)
H3 H 0.760(8) 0.600(7) 0.534(6)
H4 H 0.483(9) 0.381(7) 0.603(5)
H5 H 0.749(8) 0.329(8) 0.451(5)
H6 H 0.740(8) 0.195(7) 0.553(5)
H7 H 0.48(1) 0.82(1) 0.952(6)
H8 H 0.41(1) 0.660(9) 0.910(6)
H9 H 0.30(1) 0.796(9) 0.843(7)
H10 H 0.58(1) 0.947(8) 0.694(7)
H11 H 0.81(1) 0.873(9) 0.661(7)
H12 H 0.76(1) 0.943(8) 0.803(7)
#END
