
#######################################################################
#
#                 Cambridge Crystallographic Data Centre
#                                CCDC
#
#######################################################################
#
# If this CIF has been generated from an entry in the Cambridge
# Structural Database, then it will include bibliographic, chemical,
# crystal, experimental, refinement or atomic coordinate data resulting
# from the CCDC's data processing and validation procedures.
#
#######################################################################

data_CSD_CIF_PIDFOX01
_audit_creation_date 1994-07-28
_audit_creation_method CSD-ConQuest-V1
_database_code_CSD PIDFOX01
_database_code_depnum_ccdc_fiz 'CSD 57805'
_chemical_formula_sum 'C13 H11 N1 O2'
_chemical_formula_moiety
;
C13 H11 N1 O2
;
_journal_coden_Cambridge 179
_journal_volume 32
_journal_year 1993
_journal_page_first 1758
_journal_name_full 'Angew.Chem.,Int.Ed. '
loop_
_publ_author_name
"H.Bock"
"R.Dienelt"
"H.Schodel"
"Z.Havlas"
"E.Herdtweck"
"W.A.Herrmann"
_chemical_name_systematic
;
aci-Nitrodiphenylmethane
;
_chemical_melting_point 366.15
_cell_volume   1083.407
_exptl_crystal_colour 'colorless'
_exptl_crystal_density_diffrn 1.307
_exptl_special_details
;
Melts with decomposition.
Air- and moisture-sensitive

;
_diffrn_ambient_temperature 238
#These two values have been output from a single CSD field.
_refine_ls_R_factor_gt 0.041
_refine_ls_wR_factor_gt 0.041
_symmetry_cell_setting monoclinic
_symmetry_space_group_name_H-M 'P 21/n'
_symmetry_Int_Tables_number 14
loop_
_symmetry_equiv_pos_site_id
_symmetry_equiv_pos_as_xyz
1 x,y,z
2 1/2-x,1/2+y,1/2-z
3 -x,-y,-z
4 -1/2+x,-1/2-y,-1/2+z
_cell_length_a 11.448(1)
_cell_length_b 7.4354(3)
_cell_length_c 12.773(1)
_cell_angle_alpha 90
_cell_angle_beta 94.815(4)
_cell_angle_gamma 90
_cell_formula_units_Z 4
loop_
_atom_type_symbol
_atom_type_radius_bond
C 0.68
H 0.23
N 0.68
O 0.68
loop_
_atom_site_label
_atom_site_type_symbol
_atom_site_fract_x
_atom_site_fract_y
_atom_site_fract_z
O1 O 0.3837(1) 0.4903(2) 0.58780(8)
O2 O 0.5173(1) 0.2918(2) 0.53798(8)
N1 N 0.4604(1) 0.3520(2) 0.6142(1)
C1 C 0.4647(1) 0.2898(2) 0.7103(1)
C2 C 0.5383(1) 0.1351(2) 0.7432(1)
C3 C 0.5754(2) 0.1215(3) 0.8496(1)
C4 C 0.6477(2) -0.0169(3) 0.8861(2)
C5 C 0.6836(2) -0.1458(3) 0.8181(2)
C6 C 0.6448(2) -0.1364(3) 0.7134(1)
C7 C 0.5727(2) 0.0016(2) 0.6754(1)
C8 C 0.3979(1) 0.3891(2) 0.7871(1)
C9 C 0.3089(1) 0.3050(2) 0.8355(1)
C10 C 0.2497(2) 0.3967(3) 0.9092(1)
C11 C 0.2797(2) 0.5706(3) 0.9362(1)
C12 C 0.3690(2) 0.6541(3) 0.8890(1)
C13 C 0.4279(2) 0.5632(3) 0.8152(1)
H1 H 0.422(2) 0.558(3) 0.540(2)
H2 H 0.546(1) 0.216(2) 0.894(1)
H3 H 0.673(2) -0.025(2) 0.959(1)
H4 H 0.727(1) -0.243(2) 0.843(1)
H5 H 0.671(1) -0.231(2) 0.670(1)
H6 H 0.546(1) 0.004(2) 0.602(1)
H7 H 0.288(1) 0.182(2) 0.816(1)
H8 H 0.187(1) 0.334(2) 0.943(1)
H9 H 0.246(2) 0.638(2) 0.990(1)
H10 H 0.386(1) 0.774(2) 0.905(1)
H11 H 0.489(1) 0.620(2) 0.785(1)
#END
