
#######################################################################
#
#                 Cambridge Crystallographic Data Centre
#                                CCDC
#
#######################################################################
#
# If this CIF has been generated from an entry in the Cambridge
# Structural Database, then it will include bibliographic, chemical,
# crystal, experimental, refinement or atomic coordinate data resulting
# from the CCDC's data processing and validation procedures.
#
#######################################################################

data_CSD_CIF_PIDLAP
_audit_creation_date 1994-07-14
_audit_creation_method CSD-ConQuest-V1
_database_code_CSD PIDLAP
_database_code_depnum_ccdc_archive 'CCDC 1233112'
_chemical_formula_sum 'C28 H27 N3 O3'
_chemical_formula_moiety
;
C28 H27 N3 O3
;
_journal_coden_Cambridge 7
_journal_volume 66
_journal_year 1993
_journal_page_first 1301
_journal_name_full 'Bull.Chem.Soc.Jpn. '
loop_
_publ_author_name
"S.Mataka"
"H.Suzuki"
"T.Sawada"
"M.Tashiro"
_chemical_name_systematic
;
4-Hydroxy-2,4,5-triphenyl-5-(1-pyrrolidinylcarbonylmethyl)-4,5-dihydro-3H-pyrr
ol-3-one-oxime
;
_chemical_melting_point 456.15
_cell_volume   1168.575
_exptl_crystal_colour 'colorless'
_exptl_crystal_density_diffrn 1.289
_exptl_special_details
;
Melts with decomposition.

;
_diffrn_ambient_temperature ?
_diffrn_special_details
;
The study was carried out at room temperature,in the range 283-303K

;
#These two values have been output from a single CSD field.
_refine_ls_R_factor_gt 0.05
_refine_ls_wR_factor_gt 0.05
_symmetry_cell_setting triclinic
_symmetry_space_group_name_H-M 'P -1'
_symmetry_Int_Tables_number 2
loop_
_symmetry_equiv_pos_site_id
_symmetry_equiv_pos_as_xyz
1 x,y,z
2 -x,-y,-z
_cell_length_a 8.832(1)
_cell_length_b 9.750(1)
_cell_length_c 14.124(1)
_cell_angle_alpha 101.96(7)
_cell_angle_beta 96.44(7)
_cell_angle_gamma 97.16(7)
_cell_formula_units_Z 2
loop_
_atom_type_symbol
_atom_type_radius_bond
C 0.68
H 0.23
N 0.68
O 0.68
loop_
_atom_site_label
_atom_site_type_symbol
_atom_site_fract_x
_atom_site_fract_y
_atom_site_fract_z
O1 O 0.5234(2) 0.6420(2) 0.6026(1)
O2 O 0.8485(2) 0.6553(2) 0.6117(1)
O3 O 0.7779(2) 0.3969(2) 0.4921(1)
N1 N 0.5226(2) 0.5244(2) 0.6439(1)
N2 N 0.8109(2) 0.1912(2) 0.5319(1)
N3 N 0.8243(2) 0.3927(2) 0.7595(1)
C1 C 0.8251(3) 0.7367(3) 0.7787(2)
C2 C 0.9088(3) 0.8639(3) 0.7749(2)
C3 C 0.9157(4) 0.9847(3) 0.8477(2)
C4 C 0.8374(4) 0.9790(3) 0.9265(2)
C5 C 0.7570(4) 0.8537(4) 0.9317(2)
C6 C 0.7507(3) 0.73313 0.8591(2)
C7 C 1.0652(3) 0.5638(3) 0.7931(2)
C8 C 1.1867(3) 0.6435(3) 0.7655(2)
C9 C 1.3161(3) 0.7069(3) 0.8316(2)
C10 C 1.3286(3) 0.6915(4) 0.9264(2)
C11 C 1.2079(4) 0.6141(4) 0.9539(2)
C12 C 1.0783(3) 0.5489(4) 0.8888(2)
C13 C 0.5596(3) 0.3019(3) 0.7621(2)
C14 C 0.5965(3) 0.1746(3) 0.7814(2)
C15 C 0.4886(3) 0.0794(3) 0.8061(2)
C16 C 0.3407(3) 0.1090(3) 0.8135(2)
C17 C 0.3043(3) 0.2358(3) 0.7977(2)
C18 C 0.4111(3) 0.3304(3) 0.7711(2)
C19 C 0.9744(3) 0.4089(3) 0.6270(2)
C20 C 0.8463(3) 0.3302(3) 0.5467(2)
C21 C 0.6950(4) 0.1112(3) 0.4496(2)
C22 C 0.6954(4) -0.0412(3) 0.4544(2)
C23 C 0.7501(4) -0.0338(3) 0.5614(2)
C24 C 0.8686(3) 0.0976(3) 0.5922(2)
C25 C 0.6569(3) 0.5155(3) 0.6850(2)
C26 C 0.6805(3) 0.4001(2) 0.7360(2)
C27 C 0.9222(3) 0.4951(2) 0.7203(2)
C28 C 0.8135(3) 0.6062(2) 0.6954(2)
H1 H 0.430(3) 0.627(3) 0.572(2)
H2 H 0.960(3) 0.869(3) 0.722(2)
H3 H 0.970(3) 1.085(3) 0.846(2)
H4 H 0.851(3) 1.064(3) 0.971(2)
H5 H 0.700(3) 0.836(3) 0.976(2)
H6 H 0.691(3) 0.651(3) 0.861(2)
H7 H 0.824(3) 0.572(2) 0.561(2)
H8 H 1.038(3) 0.342(2) 0.654(2)
H9 H 1.036(3) 0.472(3) 0.601(2)
H10 H 0.603(3) 0.133(3) 0.458(2)
H11 H 0.713(3) 0.138(3) 0.388(2)
H12 H 0.598(3) -0.103(3) 0.432(2)
H13 H 0.775(3) -0.083(3) 0.417(2)
H14 H 0.650(3) -0.031(3) 0.598(2)
H15 H 0.780(3) -0.121(2) 0.577(2)
H16 H 0.878(3) 0.148(3) 0.663(2)
H17 H 0.963(3) 0.091(3) 0.576(2)
H18 H 1.180(3) 0.658(2) 0.694(2)
H19 H 1.400(3) 0.763(3) 0.812(2)
H20 H 1.414(3) 0.740(3) 0.969(2)
H21 H 1.211(3) 0.599(3) 1.014(2)
H22 H 0.991(3) 0.490(2) 0.907(2)
H23 H 0.707(3) 0.152(3) 0.775(2)
H24 H 0.509(3) -0.017(2) 0.810(2)
H25 H 0.261(3) 0.035(2) 0.828(2)
H26 H 0.197(3) 0.269(3) 0.810(2)
H27 H 0.384(3) 0.415(3) 0.764(2)
#END
