
#######################################################################
#
#                 Cambridge Crystallographic Data Centre
#                                CCDC
#
#######################################################################
#
# If this CIF has been generated from an entry in the Cambridge
# Structural Database, then it will include bibliographic, chemical,
# crystal, experimental, refinement or atomic coordinate data resulting
# from the CCDC's data processing and validation procedures.
#
#######################################################################

data_CSD_CIF_PIDLEU
_audit_creation_date 2007-07-19
_audit_creation_method CSD-ConQuest-V1
_database_code_CSD PIDLEU
_database_code_depnum_ccdc_archive 'CCDC 273739'
_chemical_formula_sum 'C14 H16 N3 O2'
_chemical_formula_moiety
;
C14 H16 N3 O2
;
_journal_coden_Cambridge 1278
_journal_volume 111
_journal_year 2007
_journal_page_first 4327
_journal_name_full 'J.Phys.Chem.B '
loop_
_publ_author_name
"C.Rajadurai"
"V.Enkelmann"
"G.Zoppellaro"
"M.Baumgarten"
_chemical_name_systematic
;
2-(5-Ethynyl-2-pyridyl)-4,4,5,5-tetramethylimidazoline-3-oxide-1-oxyl
;
_cell_volume   2683.135
_exptl_crystal_colour 'blue'
_exptl_crystal_density_diffrn 1.279
_exptl_special_details
;
magnetic properties

;
_exptl_crystal_description 'prism'
_exptl_crystal_preparation 'petroleum ether/acetone'
_diffrn_ambient_temperature 120
#These two values have been output from a single CSD field.
_refine_ls_R_factor_gt 0.039
_refine_ls_wR_factor_gt 0.039
_symmetry_cell_setting orthorhombic
_symmetry_space_group_name_H-M 'P b c a'
_symmetry_Int_Tables_number 61
loop_
_symmetry_equiv_pos_site_id
_symmetry_equiv_pos_as_xyz
1 x,y,z
2 1/2+x,1/2-y,-z
3 -x,1/2+y,1/2-z
4 1/2-x,-y,1/2+z
5 -x,-y,-z
6 -1/2-x,-1/2+y,z
7 x,-1/2-y,-1/2+z
8 -1/2+x,y,-1/2-z
_cell_length_a 8.5206(4)
_cell_length_b 15.7718(6)
_cell_length_c 19.9660(7)
_cell_angle_alpha 90
_cell_angle_beta 90
_cell_angle_gamma 90
_cell_formula_units_Z 8
loop_
_atom_type_symbol
_atom_type_radius_bond
C 0.68
H 0.23
N 0.68
O 0.68
loop_
_atom_site_label
_atom_site_type_symbol
_atom_site_fract_x
_atom_site_fract_y
_atom_site_fract_z
O1 O 0.1827(2) 0.35272(11) 0.28471(8)
O2 O 0.1838(2) 0.12278(11) 0.14010(9)
N1 N 0.0926(3) 0.17760(13) 0.3354(1)
N2 N 0.1692(3) 0.30866(13) 0.2307(1)
N3 N 0.1762(3) 0.19976(13) 0.1616(1)
C1 C 0.2395(3) 0.01286(18) 0.45364(13)
C2 C 0.2244(3) 0.06330(16) 0.39344(12)
C3 C 0.1926(3) 0.16500(15) 0.28384(11)
C4 C 0.1765(3) 0.22359(15) 0.22672(11)
C5 C 0.1754(3) 0.35035(15) 0.16256(11)
C6 C 0.1428(3) 0.27331(16) 0.11555(12)
C7 C 0.2561(4) -0.02746(18) 0.50359(14)
C8 C 0.1099(3) 0.12621(17) 0.38841(12)
C9 C 0.3061(3) 0.10221(15) 0.28329(12)
C10 C 0.3237(3) 0.05046(16) 0.33870(12)
H1 H 0.2689(4) -0.05957(18) 0.54347(14)
H2 H 0.0394(3) 0.13308(17) 0.42489(12)
H3 H 0.3699(3) 0.09441(15) 0.24474(12)
H4 H 0.4018(3) 0.00749(16) 0.33982(12)
C11 C 0.0547(3) 0.42110(17) 0.15929(14)
H5 H 0.0589(3) 0.44741(17) 0.11652(14)
H6 H 0.0773(3) 0.46184(17) 0.19298(14)
H7 H -0.0472(3) 0.39845(17) 0.16643(14)
C12 C 0.3418(3) 0.38720(18) 0.15680(14)
H8 H 0.3535(3) 0.41497(18) 0.11488(14)
H9 H 0.3590(3) 0.42666(18) 0.19200(14)
H10 H 0.4160(3) 0.34243(18) 0.16009(14)
C13 C 0.2504(4) 0.26805(19) 0.05472(13)
H11 H 0.2298(4) 0.31444(19) 0.02568(13)
H12 H 0.3567(4) 0.27015(19) 0.06905(13)
H13 H 0.2320(4) 0.21637(19) 0.03159(13)
C14 C -0.0281(3) 0.26471(18) 0.09400(13)
H14 H -0.0549(3) 0.30999(18) 0.06477(13)
H15 H -0.0942(3) 0.26626(18) 0.13231(13)
H16 H -0.0417(3) 0.21224(18) 0.07136(13)
#END
