
#######################################################################
#
#                 Cambridge Crystallographic Data Centre
#                                CCDC
#
#######################################################################
#
# If this CIF has been generated from an entry in the Cambridge
# Structural Database, then it will include bibliographic, chemical,
# crystal, experimental, refinement or atomic coordinate data resulting
# from the CCDC's data processing and validation procedures.
#
#######################################################################

data_CSD_CIF_PIDLIZ
_audit_creation_date 2013-07-18
_audit_creation_method CSD-ConQuest-V1
_database_code_CSD PIDLIZ
_database_code_depnum_ccdc_archive 'CCDC 903660'
_chemical_formula_sum 'C12 H12 N4 O2'
_chemical_formula_moiety
;
C12 H12 N4 O2
;
_journal_coden_Cambridge 315
_journal_volume 107
_journal_year 2013
_journal_page_first 317
_journal_name_full 'Spectrochim.Acta,Part A '
loop_
_publ_author_name
"E.Kucharska"
"J.Michalski"
"W.Sasiadek"
"Z.Talik"
"I.Bryndal"
"J.Hanuza"
_chemical_name_systematic
;
6-Methyl-3-nitro-2-(2-phenylhydrazino)pyridine
;
_cell_volume   2377.207
_exptl_crystal_colour 'yellow'
_exptl_crystal_density_diffrn 1.365
_exptl_crystal_description 'plate'
_diffrn_ambient_temperature 100
#These two values have been output from a single CSD field.
_refine_ls_R_factor_gt 0.0408
_refine_ls_wR_factor_gt 0.0408
_symmetry_cell_setting monoclinic
_symmetry_space_group_name_H-M 'C 2/c'
_symmetry_Int_Tables_number 15
loop_
_symmetry_equiv_pos_site_id
_symmetry_equiv_pos_as_xyz
1 x,y,z
2 -x,y,1/2-z
3 1/2+x,1/2+y,z
4 1/2-x,1/2+y,1/2-z
5 -x,-y,-z
6 x,-y,-1/2+z
7 -1/2-x,-1/2-y,-z
8 -1/2+x,-1/2-y,-1/2+z
_cell_length_a 16.791(4)
_cell_length_b 6.635(2)
_cell_length_c 21.704(7)
_cell_angle_alpha 90
_cell_angle_beta 100.54(3)
_cell_angle_gamma 90
_cell_formula_units_Z 8
loop_
_atom_type_symbol
_atom_type_radius_bond
C 0.68
H 0.23
N 0.68
O 0.68
loop_
_atom_site_label
_atom_site_type_symbol
_atom_site_fract_x
_atom_site_fract_y
_atom_site_fract_z
N1 N 0.19163(7) 0.63297(17) 0.04036(5)
H1 H 0.2099(9) 0.590(2) 0.0065(7)
N2 N 0.22173(7) 0.81675(17) 0.06745(5)
H2 H 0.1806(9) 0.901(2) 0.0663(7)
N3 N 0.09051(6) 0.65272(18) 0.09818(5)
N4 N 0.12651(6) 0.24492(17) -0.01134(5)
O1 O 0.17467(6) 0.32779(15) -0.03997(5)
O2 O 0.10464(6) 0.06764(15) -0.02140(5)
C1 C 0.12543(7) 0.5479(2) 0.05706(6)
C2 C 0.26699(7) 0.8016(2) 0.12955(6)
C3 C 0.09356(7) 0.3580(2) 0.03478(6)
C4 C 0.02756(8) 0.2788(2) 0.05705(6)
H3 H 0.00660 0.15020 0.04340
C5 C -0.00698(8) 0.3884(2) 0.09898(6)
H4 H -0.05230 0.33730 0.11460
C6 C 0.02591(8) 0.5766(2) 0.11815(6)
C7 C -0.01005(9) 0.7080(3) 0.16206(7)
H5 H 0.03140 0.73970 0.19880
H6 H -0.05510 0.63720 0.17550
H7 H -0.02990 0.83320 0.14060
C8 C 0.31243(8) 0.6309(2) 0.14964(7)
H8 H 0.31160 0.51740 0.12280
C9 C 0.35919(9) 0.6287(3) 0.20970(7)
H9 H 0.39030 0.51250 0.22380
C10 C 0.36095(9) 0.7930(3) 0.24904(7)
H10 H 0.39330 0.78970 0.28980
C11 C 0.31551(9) 0.9620(3) 0.22889(7)
H11 H 0.31640 1.07490 0.25590
C12 C 0.26857(8) 0.9671(2) 0.16924(7)
H12 H 0.23750 1.08360 0.15550
#END
