
#######################################################################
#
#                 Cambridge Crystallographic Data Centre
#                                CCDC
#
#######################################################################
#
# If this CIF has been generated from an entry in the Cambridge
# Structural Database, then it will include bibliographic, chemical,
# crystal, experimental, refinement or atomic coordinate data resulting
# from the CCDC's data processing and validation procedures.
#
#######################################################################

data_CSD_CIF_PIDLAQ
_audit_creation_date 2007-07-19
_audit_creation_method CSD-ConQuest-V1
_database_code_CSD PIDLAQ
_database_code_depnum_ccdc_archive 'CCDC 273738'
_chemical_formula_sum 'C15 H17 N2 O2'
_chemical_formula_moiety
;
C15 H17 N2 O2
;
_journal_coden_Cambridge 1278
_journal_volume 111
_journal_year 2007
_journal_page_first 4327
_journal_name_full 'J.Phys.Chem.B '
loop_
_publ_author_name
"C.Rajadurai"
"V.Enkelmann"
"G.Zoppellaro"
"M.Baumgarten"
_chemical_name_systematic
;
2-(4-Ethynylphenyl)-4,4,5,5-tetramethylimidazoline-3-oxide-1-oxyl
;
_cell_volume   1360.415
_exptl_crystal_colour 'blue'
_exptl_crystal_density_diffrn 1.264
_exptl_special_details
;
magnetic properties

;
_exptl_crystal_description 'needle'
_diffrn_ambient_temperature 120
#These two values have been output from a single CSD field.
_refine_ls_R_factor_gt 0.0437
_refine_ls_wR_factor_gt 0.0437
_symmetry_cell_setting monoclinic
_symmetry_space_group_name_H-M 'P 21/c'
_symmetry_Int_Tables_number 14
loop_
_symmetry_equiv_pos_site_id
_symmetry_equiv_pos_as_xyz
1 x,y,z
2 -x,1/2+y,1/2-z
3 -x,-y,-z
4 x,-1/2-y,-1/2+z
_cell_length_a 8.0924(3)
_cell_length_b 19.9703(9)
_cell_length_c 8.9073(4)
_cell_angle_alpha 90
_cell_angle_beta 109.079(2)
_cell_angle_gamma 90
_cell_formula_units_Z 4
loop_
_atom_type_symbol
_atom_type_radius_bond
C 0.68
H 0.23
N 0.68
O 0.68
loop_
_atom_site_label
_atom_site_type_symbol
_atom_site_fract_x
_atom_site_fract_y
_atom_site_fract_z
O1 O 0.2651(2) 0.36049(8) 0.2633(2)
O2 O 0.6785(2) 0.2145(1) 0.1952(3)
N1 N 0.4085(2) 0.33735(9) 0.2513(2)
N2 N 0.6024(2) 0.2683(1) 0.2152(2)
C1 C 0.0244(3) 0.04591(13) 0.2580(3)
C2 C 0.1255(3) 0.10451(11) 0.2492(3)
C3 C 0.3304(3) 0.21583(11) 0.2345(3)
C4 C 0.4431(3) 0.27272(11) 0.2320(3)
C5 C 0.5563(3) 0.38353(12) 0.2556(3)
C6 C 0.6939(3) 0.33406(14) 0.2294(3)
C7 C -0.0558(4) -0.00270(13) 0.2653(4)
C8 C 0.1169(3) 0.16278(12) 0.3322(3)
C9 C 0.2167(3) 0.21811(11) 0.3238(3)
C10 C 0.3382(3) 0.15755(12) 0.1507(3)
C11 C 0.2352(3) 0.10309(12) 0.1567(3)
H1 H -0.1201(4) -0.04183(13) 0.2713(4)
H2 H 0.0417(3) 0.16445(12) 0.3947(3)
H3 H 0.2088(3) 0.25794(11) 0.3794(3)
H4 H 0.4146(3) 0.15548(12) 0.0894(3)
H5 H 0.2381(3) 0.06406(12) 0.0966(3)
C12 C 0.4873(4) 0.43500(19) 0.1241(5)
H6 H 0.5779(4) 0.46521(19) 0.1238(5)
H7 H 0.3934(4) 0.45920(19) 0.1401(5)
H8 H 0.4470(4) 0.41217(19) 0.0253(5)
C13 C 0.6141(4) 0.41760(14) 0.4165(4)
H9 H 0.7081(4) 0.44733(14) 0.4237(4)
H10 H 0.5192(4) 0.44198(14) 0.4301(4)
H11 H 0.6517(4) 0.38444(14) 0.4970(4)
C14 C 0.7404(6) 0.34398(19) 0.0794(5)
H12 H 0.7995(6) 0.38542(19) 0.0839(5)
H13 H 0.8134(6) 0.30844(19) 0.0679(5)
H14 H 0.6354(6) 0.34414(19) -0.0088(5)
C15 C 0.8605(4) 0.3282(2) 0.3725(5)
H15 H 0.9243(4) 0.3690(2) 0.3873(5)
H16 H 0.9309(4) 0.2927(2) 0.3560(5)
H17 H 0.8288(4) 0.3191(2) 0.4642(5)
#END
