
#######################################################################
#
#                 Cambridge Crystallographic Data Centre
#                                CCDC
#
#######################################################################
#
# If this CIF has been generated from an entry in the Cambridge
# Structural Database, then it will include bibliographic, chemical,
# crystal, experimental, refinement or atomic coordinate data resulting
# from the CCDC's data processing and validation procedures.
#
#######################################################################

data_CSD_CIF_PIFZOU
_audit_creation_date 2007-11-13
_audit_creation_method CSD-ConQuest-V1
_database_code_CSD PIFZOU
_database_code_depnum_ccdc_archive 'CCDC 627618'
_chemical_formula_sum 'C22 H24 N2 O6'
_chemical_formula_moiety
;
C22 H24 N2 O6
;
_journal_coden_Cambridge 35
_journal_volume 72
_journal_year 2007
_journal_page_first 4313
_journal_name_full 'J.Org.Chem. '
loop_
_publ_author_name
"A.Arrieta"
"D.Otaegui"
"A.Zubia"
"F.P.Cossio"
"A.Diaz-Ortiz"
"A.de la Hoz"
"M.A.Herrero"
"P.Prieto"
"C.Foces-Foces"
"J.L.Pizarro"
"M.I.Arriortua"
_chemical_name_systematic
;
(2R*,3R*,4S*,5S*)-2-methoxycarbonyl-3-(4-methoxyphenyl)-1-(methylcarbonyl)-5-(
4-methylphenyl)-4-nitropyrrolidine
;
_cell_volume   2202.573
_exptl_crystal_density_diffrn 1.244
_diffrn_ambient_temperature 293
#These two values have been output from a single CSD field.
_refine_ls_R_factor_gt 0.0816
_refine_ls_wR_factor_gt 0.0816
_symmetry_cell_setting triclinic
_symmetry_space_group_name_H-M 'P -1'
_symmetry_Int_Tables_number 2
loop_
_symmetry_equiv_pos_site_id
_symmetry_equiv_pos_as_xyz
1 x,y,z
2 -x,-y,-z
_cell_length_a 9.7474(12)
_cell_length_b 14.4829(14)
_cell_length_c 15.887(2)
_cell_angle_alpha 90.737(5)
_cell_angle_beta 98.140(6)
_cell_angle_gamma 97.005(5)
_cell_formula_units_Z 4
loop_
_atom_type_symbol
_atom_type_radius_bond
C 0.68
H 0.23
N 0.68
O 0.68
loop_
_atom_site_label
_atom_site_type_symbol
_atom_site_fract_x
_atom_site_fract_y
_atom_site_fract_z
N1 N 0.1457(2) 0.70999(15) 0.14715(14)
C1 C 0.1120(2) 0.71536(17) 0.23342(15)
H1 H 0.01050 0.70700 0.23270
C2 C 0.1745(2) 0.81541(16) 0.26435(15)
H2 H 0.10860 0.85740 0.24030
C3 C 0.3020(3) 0.83144(17) 0.21833(16)
H3 H 0.37910 0.80400 0.25110
C4 C 0.2627(3) 0.77938(17) 0.13047(17)
H4 H 0.34070 0.74620 0.11990
C5 C 0.2281(3) 0.84043(17) 0.05577(16)
C6 C 0.3380(3) 0.8812(2) 0.01643(18)
H5 H 0.42870 0.86960 0.03570
C7 C 0.3135(4) 0.9392(2) -0.05132(19)
H6 H 0.38850 0.96690 -0.07620
C8 C 0.1799(4) 0.9568(2) -0.08272(19)
C9 C 0.0708(4) 0.9146(2) -0.0446(2)
H7 H -0.02000 0.92490 -0.06530
C10 C 0.0938(3) 0.8568(2) 0.02446(19)
H8 H 0.01880 0.82930 0.04930
C11 C 0.1554(5) 1.0206(3) -0.1563(3)
H9 H 0.05680 1.01970 -0.17370
H10 H 0.19770 0.99980 -0.20300
H11 H 0.19620 1.08280 -0.13900
C12 C 0.1009(3) 0.6292(2) 0.1013(2)
O1 O 0.0181(3) 0.57034(15) 0.12762(15)
C13 C 0.1562(5) 0.6163(3) 0.0194(3)
H12 H 0.11420 0.55780 -0.00730
H13 H 0.25570 0.61670 0.03060
H14 H 0.13420 0.66590 -0.01760
C14 C 0.1784(2) 0.64195(17) 0.28684(17)
O2 O 0.2882(2) 0.61606(15) 0.27825(16)
O3 O 0.10349(18) 0.61330(14) 0.34735(12)
C15 C 0.1644(4) 0.5495(3) 0.4075(3)
H15 H 0.20020 0.50220 0.37720
H16 H 0.09410 0.52120 0.43900
H17 H 0.23900 0.58320 0.44600
C16 C 0.2018(3) 0.83421(17) 0.35970(16)
C17 C 0.1132(3) 0.88275(18) 0.39867(18)
H18 H 0.03940 0.90590 0.36540
C18 C 0.1317(3) 0.8976(2) 0.48562(19)
H19 H 0.07020 0.93000 0.51020
C19 C 0.2408(3) 0.86470(18) 0.53633(17)
C20 C 0.3331(3) 0.8176(2) 0.49905(19)
H20 H 0.40800 0.79580 0.53250
C21 C 0.3130(3) 0.8031(2) 0.41141(18)
H21 H 0.37560 0.77180 0.38660
O4 O 0.2484(3) 0.88096(16) 0.62200(13)
C22 C 0.3568(6) 0.8461(3) 0.6767(2)
H22 H 0.34650 0.77950 0.67070
H23 H 0.35180 0.86380 0.73450
H24 H 0.44560 0.87150 0.66180
N2 N 0.3466(3) 0.93341(19) 0.21007(16)
O5 O 0.2594(4) 0.98687(17) 0.2053(2)
O6 O 0.4708(3) 0.9560(2) 0.20632(18)
N3 N 0.3398(2) 0.38140(14) 0.78971(13)
C23 C 0.3755(2) 0.33857(17) 0.71354(16)
H25 H 0.47570 0.33310 0.72160
C24 C 0.3423(2) 0.40873(17) 0.64212(15)
H26 H 0.42730 0.45200 0.64020
C25 C 0.2379(2) 0.46205(16) 0.67880(15)
H27 H 0.14530 0.42570 0.66750
C26 C 0.2846(3) 0.47058(17) 0.77620(15)
H28 H 0.20250 0.47150 0.80520
C27 C 0.3894(3) 0.55457(17) 0.80521(15)
C28 C 0.3417(4) 0.6339(2) 0.83375(18)
H29 H 0.24690 0.63410 0.83590
C29 C 0.4334(5) 0.7123(2) 0.8590(2)
H30 H 0.39940 0.76480 0.87810
C30 C 0.5749(5) 0.7150(2) 0.85651(19)
C31 C 0.6215(4) 0.6353(3) 0.8279(2)
H31 H 0.71620 0.63540 0.82550
C32 C 0.5314(3) 0.5561(2) 0.80301(18)
H32 H 0.56570 0.50330 0.78460
C33 C 0.6761(7) 0.8007(3) 0.8870(3)
H33 H 0.68560 0.80660 0.94790
H34 H 0.64130 0.85490 0.86220
H35 H 0.76550 0.79470 0.87020
C34 C 0.3687(3) 0.3418(2) 0.86602(18)
O7 O 0.4216(2) 0.26893(16) 0.86919(14)
C35 C 0.3327(4) 0.3887(3) 0.9424(2)
H36 H 0.35330 0.45490 0.93830
H37 H 0.38660 0.36860 0.99260
H38 H 0.23500 0.37300 0.94540
C36 C 0.2942(2) 0.24331(17) 0.69424(16)
O8 O 0.17952(19) 0.21832(13) 0.71088(13)
O9 O 0.3680(2) 0.19186(13) 0.65199(13)
C37 C 0.2995(4) 0.1022(2) 0.6194(3)
H39 H 0.36040 0.07260 0.58820
H40 H 0.21510 0.10990 0.58250
H41 H 0.27740 0.06420 0.66590
C38 C 0.2940(2) 0.36743(17) 0.55335(15)
C39 C 0.3879(3) 0.3697(2) 0.49449(17)
H42 H 0.47860 0.39890 0.50960
C40 C 0.3486(3) 0.3295(2) 0.41475(19)
H43 H 0.41310 0.33110 0.37670
C41 C 0.2136(3) 0.2865(2) 0.39029(18)
C42 C 0.1184(3) 0.2840(2) 0.44702(18)
H44 H 0.02730 0.25560 0.43130
C43 C 0.1596(3) 0.32427(19) 0.52760(17)
H45 H 0.09500 0.32220 0.56560
O10 O 0.1848(3) 0.2483(2) 0.30968(15)
C44 C 0.0483(6) 0.2022(5) 0.2837(3)
H46 H 0.04660 0.13710 0.29470
H47 H 0.02190 0.21020 0.22390
H48 H -0.01620 0.22820 0.31480
N4 N 0.2297(3) 0.55682(16) 0.64189(15)
O11 O 0.3254(3) 0.59233(16) 0.60704(15)
O12 O 0.1282(3) 0.59381(17) 0.65206(18)
#END
