
#######################################################################
#
#                 Cambridge Crystallographic Data Centre
#                                CCDC
#
#######################################################################
#
# If this CIF has been generated from an entry in the Cambridge
# Structural Database, then it will include bibliographic, chemical,
# crystal, experimental, refinement or atomic coordinate data resulting
# from the CCDC's data processing and validation procedures.
#
#######################################################################

data_CSD_CIF_PIGGOE
_audit_creation_date 2018-07-24
_audit_creation_method CSD-ConQuest-V1
_database_code_CSD PIGGOE
_database_code_depnum_ccdc_archive 'CCDC 1833659'
_chemical_formula_sum 'C20 H16 N2 O2'
_chemical_formula_moiety
;
C20 H16 N2 O2
;
_journal_coden_Cambridge 1336
_journal_volume 20
_journal_year 2018
_journal_page_first 4458
_journal_name_full 'Org.Lett. '
loop_
_publ_author_name
"Jinyu Sheng"
"Ru He"
"Jie Xue"
"Chao Wu"
"Juan Qiao"
"Chao Chen"
_chemical_name_systematic
;
2-(4-methoxyphenyl)-7-methylphenazine 5-oxide
;
_cell_volume   3055.244
_exptl_crystal_colour 'yellow'
_exptl_crystal_density_diffrn 1.376
_exptl_crystal_description 'needle'
_diffrn_ambient_temperature 173
#These two values have been output from a single CSD field.
_refine_ls_R_factor_gt 0.0592
_refine_ls_wR_factor_gt 0.0592
_symmetry_cell_setting orthorhombic
_symmetry_space_group_name_H-M 'P b c a'
_symmetry_Int_Tables_number 61
loop_
_symmetry_equiv_pos_site_id
_symmetry_equiv_pos_as_xyz
1 x,y,z
2 1/2-x,-y,1/2+z
3 -x,1/2+y,1/2-z
4 1/2+x,1/2-y,-z
5 -x,-y,-z
6 -1/2+x,y,-1/2-z
7 x,-1/2-y,-1/2+z
8 -1/2-x,-1/2+y,z
_cell_length_a 11.6407(10)
_cell_length_b 7.2754(3)
_cell_length_c 36.0753(19)
_cell_angle_alpha 90
_cell_angle_beta 90
_cell_angle_gamma 90
_cell_formula_units_Z 8
loop_
_atom_type_symbol
_atom_type_radius_bond
C 0.68
H 0.23
N 0.68
O 0.68
loop_
_atom_site_label
_atom_site_type_symbol
_atom_site_fract_x
_atom_site_fract_y
_atom_site_fract_z
O1 O 0.66555(16) 0.8444(2) 0.84113(5)
O2 O 0.48883(15) 0.6133(3) 0.55781(5)
N1 N 0.58568(18) 0.6525(3) 0.57286(6)
N2 N 0.79939(19) 0.7322(3) 0.60709(6)
C1 C 0.6064(2) 0.7702(3) 0.68650(7)
C2 C 0.6406(2) 0.8290(3) 0.80426(6)
C3 C 0.6857(2) 0.6507(3) 0.55260(7)
C4 C 0.5908(2) 0.6960(3) 0.61011(7)
C5 C 0.6143(2) 0.7995(3) 0.72713(7)
C6 C 0.6993(2) 0.7327(3) 0.62619(7)
C7 C 0.7198(2) 0.9106(3) 0.78043(7)
H1 H 0.78150 0.97600 0.79010
C8 C 0.7070(2) 0.8950(3) 0.74255(7)
H2 H 0.76100 0.94890 0.72700
C9 C 0.5459(2) 0.7390(3) 0.78966(7)
H3 H 0.49080 0.68860 0.80530
C10 C 0.7905(2) 0.6913(3) 0.57055(7)
C11 C 0.7028(2) 0.7684(3) 0.66472(7)
H4 H 0.77350 0.79160 0.67570
C12 C 0.4902(2) 0.7013(3) 0.63171(7)
H5 H 0.41890 0.68030 0.62080
C13 C 0.7817(2) 0.6007(3) 0.49438(7)
C14 C 0.5341(2) 0.7249(3) 0.75147(7)
H6 H 0.47070 0.66360 0.74190
C15 C 0.4981(2) 0.7377(3) 0.66889(7)
H7 H 0.43140 0.74140 0.68310
C16 C 0.6823(2) 0.6040(3) 0.51425(7)
H8 H 0.61270 0.57600 0.50290
C17 C 0.8917(2) 0.6888(4) 0.54865(7)
H9 H 0.96200 0.71710 0.55950
C18 C 0.8869(2) 0.6456(4) 0.51200(7)
H10 H 0.95430 0.64540 0.49820
C19 C 0.7836(3) 0.5472(4) 0.45415(7)
H11 H 0.82760 0.43660 0.45120
H12 H 0.81790 0.64410 0.43990
H13 H 0.70640 0.52670 0.44570
C20 C 0.5936(3) 0.7476(4) 0.86652(7)
H14 H 0.59620 0.61850 0.86110
H15 H 0.51610 0.79100 0.86420
H16 H 0.62020 0.76820 0.89140
#END
