
#######################################################################
#
#                 Cambridge Crystallographic Data Centre
#                                CCDC
#
#######################################################################
#
# If this CIF has been generated from an entry in the Cambridge
# Structural Database, then it will include bibliographic, chemical,
# crystal, experimental, refinement or atomic coordinate data resulting
# from the CCDC's data processing and validation procedures.
#
#######################################################################

data_CSD_CIF_PIGKIZ
_audit_creation_date 1994-09-09
_audit_creation_method CSD-ConQuest-V1
_database_code_CSD PIGKIZ
_database_code_depnum_ccdc_archive 'CCDC 1233342'
_chemical_formula_sum 'C14 H22 N2 O6'
_chemical_formula_moiety
;
C14 H22 N2 O6
;
_journal_coden_Cambridge 7
_journal_volume 66
_journal_year 1993
_journal_page_first 2101
_journal_name_full 'Bull.Chem.Soc.Jpn. '
loop_
_publ_author_name
"N.Sukumar"
"M.N.Ponnuswamy"
"R.Jayakumar"
_chemical_name_systematic
;
N-Hydroxysuccinimide N-(t-butoxycarbonyl)-L-valinate
;
_cell_volume   1692.079
_exptl_crystal_colour 'colorless'
_exptl_crystal_density_diffrn 1.234
_diffrn_ambient_temperature ?
_diffrn_special_details
;
The study was carried out at room temperature,in the range 283-303K

;
#These two values have been output from a single CSD field.
_refine_ls_R_factor_gt 0.043
_refine_ls_wR_factor_gt 0.043
_symmetry_cell_setting monoclinic
_symmetry_space_group_name_H-M 'P 21'
_symmetry_Int_Tables_number 4
loop_
_symmetry_equiv_pos_site_id
_symmetry_equiv_pos_as_xyz
1 x,y,z
2 -x,1/2+y,-z
_cell_length_a 8.365(4)
_cell_length_b 17.466(3)
_cell_length_c 11.582(2)
_cell_angle_alpha 90
_cell_angle_beta 90.58(2)
_cell_angle_gamma 90
_cell_formula_units_Z 4
loop_
_atom_type_symbol
_atom_type_radius_bond
C 0.68
H 0.23
N 0.68
O 0.68
loop_
_atom_site_label
_atom_site_type_symbol
_atom_site_fract_x
_atom_site_fract_y
_atom_site_fract_z
O1 O -0.1642(3) -0.1459(2) 0.2931(3)
O2 O 0.0855(3) -0.1023(2) 0.3356(3)
O3 O 0.3724(4) -0.1879(3) 0.0255(3)
O4 O 0.1368(3) -0.2480(2) -0.0011(2)
O5 O 0.2622(4) -0.3769(2) -0.1128(3)
O6 O 0.0621(5) -0.1377(2) -0.1635(3)
N1 N 0.0419(4) -0.1988(2) 0.2090(3)
N2 N 0.1737(4) -0.2525(2) -0.1179(3)
C1 C -0.4196(7) -0.1216(4) 0.3554(7)
C2 C -0.2202(8) -0.0154(4) 0.3556(7)
C3 C -0.1911(8) -0.1221(4) 0.5001(5)
C4 C -0.2481(5) -0.0991(3) 0.3797(4)
C5 C -0.0054(5) -0.1452(2) 0.2843(3)
C6 C 0.2100(5) -0.2145(3) 0.1907(3)
C7 C 0.2698(7) -0.2894(3) 0.2489(5)
C8 C 0.2463(7) -0.2847(4) 0.3776(5)
C9 C 0.1998(9) -0.3602(4) 0.1995(6)
C10 C 0.2532(5) -0.2129(3) 0.0654(4)
C11 C 0.1246(6) -0.1962(3) -0.1922(4)
C12 C 0.1646(6) -0.2251(3) -0.3110(4)
C13 C 0.2293(5) -0.3061(3) -0.2936(4)
C14 C 0.2273(5) -0.3205(3) -0.1662(4)
H1 H -0.030(5) -0.227(2) 0.180(3)
H2 H -0.463(14) -0.104(7) 0.415(11)
H3 H -0.433(11) -0.169(6) 0.400(8)
H4 H -0.506(21) -0.064(12) 0.354(17)
H5 H -0.104(13) 0.002(6) 0.373(10)
H6 H -0.282(16) 0.009(9) 0.397(13)
H7 H -0.236(10) -0.010(11) 0.280(17)
H8 H -0.079(18) -0.106(11) 0.506(14)
H9 H -0.263(26) -0.099(16) 0.547(20)
H10 H -0.189(27) -0.184(15) 0.487(19)
H11 H 0.275(6) -0.173(3) 0.218(4)
H12 H 0.396(11) -0.299(6) 0.210(8)
H13 H 0.290(7) -0.230(4) 0.407(5)
H14 H 0.282(12) -0.330(6) 0.414(10)
H15 H 0.129(10) -0.278(5) 0.399(7)
H16 H 0.276(14) -0.356(7) 0.119(10)
H17 H 0.056(15) -0.347(7) 0.221(11)
H18 H 0.219(11) -0.415(6) 0.254(8)
H19 H 0.070(8) -0.215(4) -0.354(6)
H20 H 0.255(7) -0.196(3) -0.325(8)
H21 H 0.342(10) -0.312(5) -0.330(7)
H22 H 0.153(7) -0.351(3) -0.337(6)
O7 O 0.2363(4) 0.0410(2) 0.4997(2)
O8 O 0.4219(4) 0.1206(2) 0.4226(3)
O9 O 0.1499(3) 0.1806(2) 0.2207(3)
O10 O 0.3885(3) 0.1956(2) 0.1353(2)
O11 O 0.2237(4) 0.2361(2) -0.0634(3)
O12 O 0.4572(5) 0.3268(2) 0.2649(3)
N3 N 0.2718(4) 0.0415(2) 0.3122(3)
N4 N 0.3391(4) 0.2691(2) 0.1096(3)
C15 C 0.1451(9) 0.0155(4) 0.6838(5)
C16 C 0.4375(8) 0.0310(5) 0.6530(5)
C17 C 0.2509(9) 0.1449(4) 0.6416(5)
C18 C 0.2713(6) 0.0603(3) 0.6207(4)
C19 C 0.3209(5) 0.0722(3) 0.4145(3)
C20 C 0.3329(5) 0.0726(2) 0.2069(3)
C21 C 0.2852(6) 0.0213(3) 0.1027(4)
C22 C 0.1062(7) 0.0218(4) 0.0777(4)
C23 C 0.3783(7) 0.0411(3) -0.0042(4)
C24 C 0.2738(5) 0.1536(2) 0.1924(3)
C25 C 0.3821(5) 0.3310(3) 0.1750(4)
C26 C 0.3131(7) 0.4002(3) 0.1159(5)
C27 C 0.2485(6) 0.3709(3) 0.0008(4)
C28 C 0.2638(5) 0.2852(3) 0.0044(4)
H23 H 0.218(7) 0.005(3) 0.307(5)
H24 H 0.447(8) 0.076(4) 0.207(6)
H25 H 0.355(8) 0.086(4) -0.024(6)
H26 H 0.318(8) 0.385(4) -0.080(6)
H27 H 0.154(8) 0.378(4) -0.010(6)
H28 H 0.386(9) 0.436(5) 0.106(7)
H29 H 0.474(12) 0.040(6) 0.009(9)
H30 H 0.330(9) 0.170(4) 0.598(6)
H31 H 0.227(11) 0.148(5) 0.726(9)
H32 H 0.208(17) 0.173(9) 0.595(12)
H33 H 0.227(8) 0.427(4) 0.165(6)
H34 H 0.336(7) 0.004(3) -0.059(5)
H35 H 0.130(9) -0.041(4) 0.649(7)
H36 H 0.048(10) 0.030(5) 0.659(8)
H37 H 0.152(21) 0.036(10) 0.763(15)
H38 H 0.320(6) -0.038(3) 0.125(4)
H39 H 0.051(10) 0.002(5) 0.149(7)
H40 H 0.078(8) -0.021(4) 0.015(6)
H41 H 0.540(15) 0.058(7) 0.606(11)
H42 H 0.066(9) 0.071(4) 0.041(7)
H43 H 0.449(16) 0.068(8) 0.727(12)
H44? H 0.431(15) 0.033(7) 0.628(10)
#END
