
#######################################################################
#
#                 Cambridge Crystallographic Data Centre
#                                CCDC
#
#######################################################################
#
# If this CIF has been generated from an entry in the Cambridge
# Structural Database, then it will include bibliographic, chemical,
# crystal, experimental, refinement or atomic coordinate data resulting
# from the CCDC's data processing and validation procedures.
#
#######################################################################

data_CSD_CIF_PIGLOI
_audit_creation_date 2013-07-19
_audit_creation_method CSD-ConQuest-V1
_database_code_CSD PIGLOI
_database_code_depnum_ccdc_archive 'CCDC 884549'
_chemical_formula_sum 'C9 H4 N8 O10'
_chemical_formula_moiety
;
C9 H4 N8 O10
;
_journal_coden_Cambridge 440
_journal_volume 37
_journal_year 2013
_journal_page_first 2837
_journal_name_full 'New J.Chem. '
loop_
_publ_author_name
"Kehui Hou"
"Congming Ma"
"Zuliang Liu"
_chemical_name_systematic
;
3-(4,5-Dinitro-1H-imidazol-1-yl)-2,4,6-trinitroaniline
;
_cell_volume   1449.672
_exptl_crystal_density_diffrn 1.76
_diffrn_ambient_temperature 293
#These two values have been output from a single CSD field.
_refine_ls_R_factor_gt 0.078
_refine_ls_wR_factor_gt 0.078
_symmetry_cell_setting orthorhombic
_symmetry_space_group_name_H-M 'P 21 21 21'
_symmetry_Int_Tables_number 19
loop_
_symmetry_equiv_pos_site_id
_symmetry_equiv_pos_as_xyz
1 x,y,z
2 1/2-x,-y,1/2+z
3 1/2+x,1/2-y,-z
4 -x,1/2+y,1/2-z
_cell_length_a 8.4941(7)
_cell_length_b 12.7651(10)
_cell_length_c 13.3699(12)
_cell_angle_alpha 90
_cell_angle_beta 90
_cell_angle_gamma 90
_cell_formula_units_Z 4
loop_
_atom_type_symbol
_atom_type_radius_bond
C 0.68
H 0.23
N 0.68
O 0.68
loop_
_atom_site_label
_atom_site_type_symbol
_atom_site_fract_x
_atom_site_fract_y
_atom_site_fract_z
N1 N 0.4805(9) 0.0739(5) 0.5883(6)
O1 O 0.2812(11) 0.3412(5) 0.7625(5)
C1 C 0.3891(12) 0.0519(8) 0.6731(7)
H1 H 0.36700 -0.01520 0.69620
N2 N 0.3383(10) 0.1390(6) 0.7160(5)
C2 C 0.4028(10) 0.2197(6) 0.6617(6)
O2 O 0.4223(13) 0.3941(6) 0.6387(10)
N3 N 0.3654(10) 0.3270(6) 0.6906(6)
C3 C 0.4880(9) 0.1839(5) 0.5857(7)
O3 O 0.6509(12) 0.3074(8) 0.5109(7)
C4 C 0.5681(12) -0.0038(6) 0.5298(7)
N4 N 0.5655(13) 0.2281(8) 0.5028(8)
O4 O 0.5813(14) 0.1908(8) 0.4242(8)
C5 C 0.722(1) -0.0297(7) 0.5487(7)
O5 O 0.7603(11) 0.0964(7) 0.6831(9)
N5 N 0.8194(10) 0.0265(7) 0.6271(7)
O6 O 0.9496(9) -0.0020(6) 0.6450(6)
C6 C 0.7949(12) -0.1044(8) 0.4933(7)
H2 H 0.90110 -0.11760 0.50450
N6 N 0.8079(12) -0.2422(6) 0.3650(6)
O7 O 0.9472(9) -0.2536(5) 0.3882(6)
N7 N 0.3257(11) -0.0344(8) 0.4351(7)
C7 C 0.7153(11) -0.1627(7) 0.4195(6)
O8 O 0.7387(9) -0.2953(5) 0.3039(5)
C8 C 0.5580(11) -0.1422(6) 0.3950(6)
N8 N 0.4716(9) -0.1925(6) 0.3268(6)
H3 H 0.51220 -0.24290 0.29280
H4 H 0.37530 -0.17440 0.31680
C9 C 0.4887(11) -0.0574(7) 0.4549(7)
O9 O 0.226(1) -0.0852(8) 0.4737(8)
O10 O 0.3024(10) 0.0303(7) 0.3673(8)
#END
