
#######################################################################
#
#                 Cambridge Crystallographic Data Centre
#                                CCDC
#
#######################################################################
#
# If this CIF has been generated from an entry in the Cambridge
# Structural Database, then it will include bibliographic, chemical,
# crystal, experimental, refinement or atomic coordinate data resulting
# from the CCDC's data processing and validation procedures.
#
#######################################################################

data_CSD_CIF_PIGSEF
_audit_creation_date 2013-07-19
_audit_creation_method CSD-ConQuest-V1
_database_code_CSD PIGSEF
_database_code_depnum_ccdc_archive 'CCDC 888387'
_chemical_formula_sum 'C9 H5 N9 O10'
_chemical_formula_moiety
;
C9 H5 N9 O10
;
_journal_coden_Cambridge 440
_journal_volume 37
_journal_year 2013
_journal_page_first 2837
_journal_name_full 'New J.Chem. '
loop_
_publ_author_name
"Kehui Hou"
"Congming Ma"
"Zuliang Liu"
_chemical_name_systematic
;
5-(2,4-Dinitro-1H-imidazol-1-yl)-2,4,6-trinitrobenzene-1,3-diamine
;
_cell_volume   1439.342
_exptl_crystal_density_diffrn 1.842
_diffrn_ambient_temperature 293
#These two values have been output from a single CSD field.
_refine_ls_R_factor_gt 0.0505
_refine_ls_wR_factor_gt 0.0505
_symmetry_cell_setting monoclinic
_symmetry_space_group_name_H-M 'P 21/n'
_symmetry_Int_Tables_number 14
loop_
_symmetry_equiv_pos_site_id
_symmetry_equiv_pos_as_xyz
1 x,y,z
2 1/2-x,1/2+y,1/2-z
3 -x,-y,-z
4 -1/2+x,-1/2-y,-1/2+z
_cell_length_a 9.0830(18)
_cell_length_b 11.395(2)
_cell_length_c 14.089(3)
_cell_angle_alpha 90
_cell_angle_beta 99.23(3)
_cell_angle_gamma 90
_cell_formula_units_Z 4
loop_
_atom_type_symbol
_atom_type_radius_bond
C 0.68
H 0.23
N 0.68
O 0.68
loop_
_atom_site_label
_atom_site_type_symbol
_atom_site_fract_x
_atom_site_fract_y
_atom_site_fract_z
N1 N 0.0882(3) 0.32215(19) 0.57882(16)
C1 C 0.0343(3) 0.2924(2) 0.66686(17)
O1 O 0.2144(3) 0.29183(19) 0.56980(16)
O2 O 0.0106(3) 0.37623(19) 0.51617(14)
C2 C -0.0798(3) 0.3626(2) 0.69853(19)
N2 N -0.1299(3) 0.4574(2) 0.64997(19)
H1 H -0.19550 0.50110 0.67040
H2 H -0.09700 0.47550 0.59790
N3 N -0.2378(3) 0.3990(2) 0.82302(19)
O3 O -0.2955(3) 0.4823(2) 0.77693(19)
C3 C -0.1296(3) 0.3275(2) 0.78528(18)
N4 N -0.1332(3) 0.1836(2) 0.91097(16)
H3 H -0.20490 0.22050 0.93090
H4 H -0.09800 0.12050 0.93960
C4 C -0.0770(3) 0.2237(2) 0.83624(18)
O4 O -0.2714(3) 0.3775(2) 0.90207(16)
C5 C 0.0426(3) 0.1628(2) 0.80279(18)
N5 N 0.1172(3) 0.0666(2) 0.85878(17)
O5 O 0.0443(3) 0.0035(2) 0.90501(18)
N6 N 0.1909(2) 0.11765(18) 0.67963(15)
C6 C 0.0927(3) 0.1965(2) 0.71944(18)
O6 O 0.2495(3) 0.0517(2) 0.85854(17)
N7 N 0.3921(3) 0.0369(2) 0.63335(17)
C7 C 0.1398(3) 0.0263(2) 0.62099(18)
H5 H 0.04180 0.00120 0.60340
O7 O 0.5668(3) 0.2020(2) 0.7361(2)
C8 C 0.2650(3) -0.0196(2) 0.59420(19)
O8 O 0.3726(2) 0.2803(2) 0.77933(17)
N8 N 0.4349(3) 0.2065(2) 0.73729(19)
C9 C 0.3420(3) 0.1190(2) 0.68355(19)
N9 N 0.2683(3) -0.1151(2) 0.52812(17)
O9 O 0.1469(3) -0.1517(2) 0.48981(18)
O10 O 0.3868(3) -0.1525(2) 0.51289(18)
#END
