
#######################################################################
#
#                 Cambridge Crystallographic Data Centre
#                                CCDC
#
#######################################################################
#
# If this CIF has been generated from an entry in the Cambridge
# Structural Database, then it will include bibliographic, chemical,
# crystal, experimental, refinement or atomic coordinate data resulting
# from the CCDC's data processing and validation procedures.
#
#######################################################################

data_CSD_CIF_PIGSUV
_audit_creation_date 2013-07-19
_audit_creation_method CSD-ConQuest-V1
_database_code_CSD PIGSUV
_database_code_depnum_ccdc_archive 'CCDC 884546'
_chemical_formula_sum 'C9 H5 N9 O10'
_chemical_formula_moiety
;
C9 H5 N9 O10
;
_journal_coden_Cambridge 440
_journal_volume 37
_journal_year 2013
_journal_page_first 2837
_journal_name_full 'New J.Chem. '
loop_
_publ_author_name
"Kehui Hou"
"Congming Ma"
"Zuliang Liu"
_chemical_name_systematic
;
5-(4,5-Dinitro-1H-imidazol-1-yl)-2,4,6-trinitrobenzene-1,3-diamine
;
_cell_volume   1450.940
_exptl_crystal_density_diffrn 1.828
_diffrn_ambient_temperature 293
#These two values have been output from a single CSD field.
_refine_ls_R_factor_gt 0.0535
_refine_ls_wR_factor_gt 0.0535
_symmetry_cell_setting orthorhombic
_symmetry_space_group_name_H-M 'P 21 21 21'
_symmetry_Int_Tables_number 19
loop_
_symmetry_equiv_pos_site_id
_symmetry_equiv_pos_as_xyz
1 x,y,z
2 1/2-x,-y,1/2+z
3 -x,1/2+y,1/2-z
4 1/2+x,1/2-y,-z
_cell_length_a 9.1580(18)
_cell_length_b 12.318(3)
_cell_length_c 12.862(3)
_cell_angle_alpha 90
_cell_angle_beta 90
_cell_angle_gamma 90
_cell_formula_units_Z 4
loop_
_atom_type_symbol
_atom_type_radius_bond
C 0.68
H 0.23
N 0.68
O 0.68
loop_
_atom_site_label
_atom_site_type_symbol
_atom_site_fract_x
_atom_site_fract_y
_atom_site_fract_z
C1 C 0.2297(5) 0.3002(4) 0.8150(4)
C2 C 0.1556(7) 0.0749(4) 0.7020(4)
H1 H 0.13890 0.04780 0.76840
N1 N 0.1053(5) 0.0299(4) 0.6169(4)
O1 O 0.0691(6) -0.0248(4) 0.4141(4)
N2 N 0.2355(5) 0.1662(3) 0.6817(3)
C3 C 0.1576(6) 0.0925(4) 0.5376(4)
O2 O 0.1529(7) 0.1292(5) 0.3619(3)
C4 C 0.2371(6) 0.1767(4) 0.5729(4)
N3 N 0.1241(6) 0.0638(4) 0.4291(4)
O3 O 0.3750(9) 0.2467(7) 0.4427(5)
C5 C 0.3125(6) 0.2300(4) 0.7582(4)
N4 N 0.3164(6) 0.2660(5) 0.5236(4)
O4 O 0.3248(8) 0.3471(4) 0.5711(4)
C6 C 0.4611(6) 0.2177(4) 0.7777(4)
N5 N 0.5462(6) 0.1397(5) 0.7189(4)
O5 O 0.4987(7) 0.1040(7) 0.6401(5)
C7 C 0.5279(6) 0.2826(4) 0.8574(4)
N6 N 0.6730(5) 0.2790(5) 0.8734(4)
H2 H 0.71200 0.31860 0.92100
H3 H 0.72680 0.23710 0.83610
O6 O 0.6658(6) 0.1139(5) 0.7501(4)
N7 N 0.4977(6) 0.4129(4) 1.0060(4)
C8 C 0.4387(6) 0.3523(4) 0.9196(4)
O7 O 0.6321(5) 0.4169(4) 1.0185(4)
C9 C 0.2861(6) 0.3656(4) 0.8990(4)
N8 N 0.1991(6) 0.4330(4) 0.9481(4)
H4 H 0.23290 0.47350 0.99700
H5 H 0.10830 0.43660 0.93150
O8 O 0.4171(6) 0.4573(4) 1.0679(4)
N9 N 0.0739(5) 0.3091(4) 0.7918(4)
O9 O -0.0105(6) 0.2721(5) 0.8537(6)
O10 O 0.0368(6) 0.3591(9) 0.7179(5)
#END
