
#######################################################################
#
#                 Cambridge Crystallographic Data Centre
#                                CCDC
#
#######################################################################
#
# If this CIF has been generated from an entry in the Cambridge
# Structural Database, then it will include bibliographic, chemical,
# crystal, experimental, refinement or atomic coordinate data resulting
# from the CCDC's data processing and validation procedures.
#
#######################################################################

data_CSD_CIF_PIGXUA
_audit_creation_date 2013-07-20
_audit_creation_method CSD-ConQuest-V1
_database_code_CSD PIGXUA
_database_code_depnum_ccdc_archive 'CCDC 936161'
_chemical_formula_sum 'C21 H22 N2 O5'
_chemical_formula_moiety
;
C21 H22 N2 O5
;
_journal_coden_Cambridge 1291
_journal_year 2013
_journal_page_first 5561
_journal_name_full 'Eur.J.Org.Chem. '
loop_
_publ_author_name
"P.G.Gordillo"
"D.M.Aparicio"
"M.Flores"
"Angel Mendoza"
"L.Orea"
"J.R.Juarez"
"G.Huelgas"
"D.Gnecco"
"J.L.Teran"
_chemical_name_systematic
;
(3-(4-Nitrophenyl)oxiran-2-yl)(4-phenyl-2-propyl-1,3-oxazolidin-3-yl)methanone
;
_cell_volume    975.789
_exptl_crystal_colour 'colorless'
_exptl_crystal_density_diffrn 1.302
_exptl_crystal_description 'block'
_diffrn_ambient_temperature 298
_refine_special_details
;
O3B and O3A disordered over two sites with occupancies 0.55:0.45.

;
#These two values have been output from a single CSD field.
_refine_ls_R_factor_gt 0.044
_refine_ls_wR_factor_gt 0.044
loop_
_citation_database_id_CSD
_citation_special_details
PIHBIT "is a stereoisomer of this entry"
_symmetry_cell_setting monoclinic
_symmetry_space_group_name_H-M 'P 21'
_symmetry_Int_Tables_number 4
loop_
_symmetry_equiv_pos_site_id
_symmetry_equiv_pos_as_xyz
1 x,y,z
2 -x,1/2+y,-z
_cell_length_a 10.6761(7)
_cell_length_b 7.5054(3)
_cell_length_c 13.0679(7)
_cell_angle_alpha 90
_cell_angle_beta 111.269(7)
_cell_angle_gamma 90
_cell_formula_units_Z 2
loop_
_atom_type_symbol
_atom_type_radius_bond
C 0.68
H 0.23
N 0.68
O 0.68
loop_
_atom_site_label
_atom_site_type_symbol
_atom_site_fract_x
_atom_site_fract_y
_atom_site_fract_z
O1 O -0.07015(18) -0.2370(3) -0.49676(17)
C1 C -0.1148(3) -0.3833(3) -0.3436(2)
O2 O -0.1054(2) -0.2389(3) -0.29773(17)
C2 C -0.2077(3) -0.2970(3) -0.5469(2)
H1 H -0.27380 -0.22860 -0.52700
C3 C -0.2810(2) -0.7124(3) -0.4620(2)
C4 C -0.2523(3) -0.3534(3) -0.6628(2)
N1 N -0.1307(2) -0.5380(3) -0.29824(17)
C5 C -0.4002(3) -0.6234(4) -0.4750(3)
H2 H -0.40720 -0.55820 -0.41680
C6 C -0.3394(4) -0.4391(4) -0.8799(3)
C7 C -0.1088(3) -0.3968(3) -0.4562(2)
H3 H -0.07610 -0.50940 -0.47510
C8 C -0.1648(3) -0.7128(3) -0.3543(2)
H4 H -0.08530 -0.76190 -0.36480
C9 C -0.2152(4) -0.4992(4) -0.8126(3)
H5 H -0.16160 -0.56680 -0.84020
C10 C -0.2734(3) -0.8055(4) -0.5511(3)
H6 H -0.19460 -0.86520 -0.54450
C11 C -0.1734(3) -0.4562(4) -0.7038(3)
H7 H -0.09030 -0.49660 -0.65630
C12 C -0.3779(3) -0.3000(4) -0.7325(3)
H8 H -0.43250 -0.23420 -0.70510
C13 C -0.3819(4) -0.8110(5) -0.6499(3)
H9 H -0.37550 -0.87410 -0.70900
C14 C -0.1316(4) -0.5487(5) -0.1855(2)
H10 H -0.21560 -0.50400 -0.18080
C15 C -0.4236(4) -0.3432(4) -0.8432(3)
H11 H -0.50830 -0.30820 -0.89060
C16 C -0.5073(3) -0.6305(5) -0.5724(4)
H12 H -0.58660 -0.57190 -0.57900
C17 C -0.1932(4) -0.8188(5) -0.2659(3)
H13 H -0.28770 -0.81100 -0.27610
H14 H -0.17030 -0.94320 -0.26910
N2 N -0.3837(5) -0.4755(6) -0.9992(3)
O3 O -0.167(3) -0.7217(16) -0.1801(14)
O4 O -0.3130(4) -0.5657(6) -1.0335(3)
C18 C -0.0099(4) -0.4815(6) -0.0938(3)
H15 H -0.00510 -0.35310 -0.09980
H16 H -0.01960 -0.50780 -0.02430
C19 C -0.4990(4) -0.7229(5) -0.6603(3)
H17 H -0.57190 -0.72610 -0.72640
O5 O -0.4905(5) -0.4140(6) -1.0590(3)
C20 C 0.2288(5) -0.5522(8) 0.0173(4)
H18 H 0.30870 -0.60400 0.01250
H19 H 0.20310 -0.61700 0.06990
H20 H 0.24590 -0.43010 0.04000
C21 C 0.1167(5) -0.5608(10) -0.0937(4)
H21 H 0.14460 -0.49870 -0.14690
H22 H 0.10070 -0.68430 -0.11640
O6? O -0.1147(11) -0.7453(17) -0.1655(8)
#END
