
#######################################################################
#
#                 Cambridge Crystallographic Data Centre
#                                CCDC
#
#######################################################################
#
# If this CIF has been generated from an entry in the Cambridge
# Structural Database, then it will include bibliographic, chemical,
# crystal, experimental, refinement or atomic coordinate data resulting
# from the CCDC's data processing and validation procedures.
#
#######################################################################

data_CSD_CIF_PIHBIT
_audit_creation_date 2013-07-20
_audit_creation_method CSD-ConQuest-V1
_database_code_CSD PIHBIT
_database_code_depnum_ccdc_archive 'CCDC 929349'
_chemical_formula_sum 'C21 H22 N2 O5'
_chemical_formula_moiety
;
C21 H22 N2 O5
;
_journal_coden_Cambridge 1291
_journal_year 2013
_journal_page_first 5561
_journal_name_full 'Eur.J.Org.Chem. '
loop_
_publ_author_name
"P.G.Gordillo"
"D.M.Aparicio"
"M.Flores"
"Angel Mendoza"
"L.Orea"
"J.R.Juarez"
"G.Huelgas"
"D.Gnecco"
"J.L.Teran"
_chemical_name_systematic
;
(3-(4-Nitrophenyl)oxiran-2-yl)(4-phenyl-2-propyl-1,3-oxazolidin-3-yl)methanone
;
_cell_volume   1952.897
_exptl_crystal_colour 'light colorless'
_exptl_crystal_density_diffrn 1.3
_exptl_crystal_description 'irregular'
_diffrn_ambient_temperature 298
#These two values have been output from a single CSD field.
_refine_ls_R_factor_gt 0.0343
_refine_ls_wR_factor_gt 0.0343
loop_
_citation_database_id_CSD
_citation_special_details
PIGXUA "is a stereoisomer of this entry"
_symmetry_cell_setting orthorhombic
_symmetry_space_group_name_H-M 'P 21 21 21'
_symmetry_Int_Tables_number 19
loop_
_symmetry_equiv_pos_site_id
_symmetry_equiv_pos_as_xyz
1 x,y,z
2 1/2-x,-y,1/2+z
3 1/2+x,1/2-y,-z
4 -x,1/2+y,1/2-z
_cell_length_a 8.1295(2)
_cell_length_b 9.0897(2)
_cell_length_c 26.4281(7)
_cell_angle_alpha 90
_cell_angle_beta 90
_cell_angle_gamma 90
_cell_formula_units_Z 4
loop_
_atom_type_symbol
_atom_type_radius_bond
C 0.68
H 0.23
N 0.68
O 0.68
loop_
_atom_site_label
_atom_site_type_symbol
_atom_site_fract_x
_atom_site_fract_y
_atom_site_fract_z
O1 O 0.74294(15) 0.62748(14) 0.18352(5)
O2 O 0.49025(17) 0.44799(14) 0.21916(5)
O3 O 0.7422(2) 1.36955(17) 0.07699(7)
O4 O 0.8745(2) 1.23147(18) 0.02506(6)
O5 O 0.17088(19) 0.28919(14) 0.11379(5)
N1 N 0.7909(2) 1.24931(19) 0.06304(7)
N2 N 0.35230(18) 0.45578(14) 0.14532(5)
C1 C 0.6739(2) 0.87705(18) 0.15055(6)
C2 C 0.6059(3) 1.0113(2) 0.16204(7)
H1 H 0.53340 1.01940 0.18910
C3 C 0.6442(2) 1.1344(2) 0.13367(7)
H2 H 0.59870 1.22540 0.14160
C4 C 0.7498(2) 1.12014(19) 0.09390(6)
C5 C 0.8213(3) 0.9886(2) 0.08221(8)
H3 H 0.89430 0.98120 0.05520
C6 C 0.7834(2) 0.8669(2) 0.11111(8)
H4 H 0.83260 0.77690 0.10380
C7 C 0.6260(2) 0.74526(19) 0.18020(6)
H5 H 0.55960 0.76340 0.21050
C8 C 0.5989(2) 0.60311(18) 0.15459(6)
H6 H 0.61250 0.60250 0.11770
C9 C 0.4772(2) 0.49525(19) 0.17602(7)
C10 C 0.3278(2) 0.65372(19) 0.07888(6)
C11 C 0.2388(2) 0.7522(2) 0.10732(7)
H7 H 0.18030 0.71890 0.13530
C12 C 0.2351(3) 0.9004(2) 0.09501(10)
H8 H 0.17660 0.96570 0.11530
C13 C 0.3146(4) 0.9503(3) 0.05429(13)
H9 H 0.30950 1.04960 0.04600
C14 C 0.4025(5) 0.8573(4) 0.02516(10)
H10 H 0.45610 0.89310 -0.00340
C15 C 0.4143(3) 0.7063(3) 0.03731(7)
H11 H 0.47870 0.64340 0.01790
C16 C 0.1694(3) 0.4139(2) 0.08088(7)
H12 H 0.07710 0.47770 0.08840
H13 H 0.16250 0.38330 0.04580
C17 C 0.3321(2) 0.4918(2) 0.09131(6)
H14 H 0.41980 0.44430 0.07180
C18 C 0.2373(2) 0.33782(17) 0.16044(6)
H15 H 0.30010 0.25720 0.17570
C19 C 0.1076(2) 0.3883(2) 0.19754(7)
H16 H 0.03780 0.46110 0.18140
H17 H 0.16060 0.43460 0.22630
C20 C 0.0025(2) 0.2615(2) 0.21588(8)
H18 H -0.05510 0.21900 0.18730
H19 H 0.07330 0.18610 0.23000
C21 C -0.1215(3) 0.3073(3) 0.25531(9)
H20 H -0.06500 0.34100 0.28500
H21 H -0.18980 0.22470 0.26390
H22 H -0.18870 0.38520 0.24210
#END
