
#######################################################################
#
#                 Cambridge Crystallographic Data Centre
#                                CCDC
#
#######################################################################
#
# If this CIF has been generated from an entry in the Cambridge
# Structural Database, then it will include bibliographic, chemical,
# crystal, experimental, refinement or atomic coordinate data resulting
# from the CCDC's data processing and validation procedures.
#
#######################################################################

data_CSD_CIF_PIJBAL
_audit_creation_date 1994-09-21
_audit_creation_method CSD-ConQuest-V1
_database_code_CSD PIJBAL
_chemical_formula_sum 'C15 H24 N2 O3'
_chemical_formula_moiety
;
C15 H24 N2 O3
;
_journal_coden_Cambridge 119
_journal_volume 317
_journal_year 1994
_journal_page_first 99
_journal_name_full 'J.Mol.Struct. '
loop_
_publ_author_name
"J.Slowikowska"
"B.Beagley"
"R.G.Pritchard"
"K.Wozniak"
_chemical_name_systematic
;
1-((3-Nitro-6-hydroxy)phenyl)-N,N-di-isobutylmethanamine
;
_cell_volume   1618.327
_exptl_crystal_colour 'yellow'
_exptl_crystal_density_diffrn 1.15
_diffrn_ambient_temperature ?
_diffrn_special_details
;
The study was carried out at room temperature,in the range 283-303K

;
#These two values have been output from a single CSD field.
_refine_ls_R_factor_gt 0.047
_refine_ls_wR_factor_gt 0.047
_symmetry_cell_setting orthorhombic
_symmetry_space_group_name_H-M 'P 21 21 21'
_symmetry_Int_Tables_number 19
loop_
_symmetry_equiv_pos_site_id
_symmetry_equiv_pos_as_xyz
1 x,y,z
2 1/2+x,1/2-y,-z
3 -x,1/2+y,1/2-z
4 1/2-x,-y,1/2+z
_cell_length_a 8.850(7)
_cell_length_b 29.399(6)
_cell_length_c 6.22(1)
_cell_angle_alpha 90
_cell_angle_beta 90
_cell_angle_gamma 90
_cell_formula_units_Z 4
loop_
_atom_type_symbol
_atom_type_radius_bond
C 0.68
H 0.23
N 0.68
O 0.68
loop_
_atom_site_label
_atom_site_type_symbol
_atom_site_fract_x
_atom_site_fract_y
_atom_site_fract_z
C1 C 0.8508(9) 0.0345(2) 0.757(1)
O1 O 0.6821(6) 0.1113(2) 1.1395(9)
C2 C 0.7778(9) 0.0814(3) 1.050(1)
O2 O 1.1705(6) -0.0320(2) 0.898(1)
C3 C 0.8993(9) 0.0659(3) 1.163(1)
C4 C 0.9981(8) 0.0343(3) 1.083(1)
N1 N 1.0730(9) -0.0145(2) 0.788(1)
C5 C 0.7544(8) 0.0662(2) 0.838(1)
N2 N 0.5770(7) 0.1295(2) 0.755(1)
C6 C 0.6182(9) 0.0817(2) 0.711(1)
C7 C 0.9715(8) 0.0195(2) 0.875(1)
O3 O 1.0636(8) -0.0237(2) 0.592(1)
C8 C 0.692(1) 0.1600(2) 0.659(1)
C9 C 0.2938(9) 0.1203(3) 0.792(1)
C10 C 0.4252(9) 0.1389(3) 0.666(1)
C11 C 0.681(1) 0.2097(3) 0.727(2)
C12 C 0.148(1) 0.1299(3) 0.675(2)
C13 C 0.805(1) 0.2356(3) 0.606(2)
C14 C 0.285(1) 0.1394(3) 1.018(2)
C15 C 0.692(2) 0.2179(4) 0.961(2)
H1 H 0.83593 0.02187 0.61599
H2 H 0.91693 0.07688 1.30354
H3 H 1.07917 0.02250 1.16705
H4 H 0.64058 0.07874 0.56145
H5 H 0.53495 0.06275 0.74542
H6 H 0.78897 0.14940 0.70327
H7 H 0.68408 0.15777 0.50757
H8 H 0.30857 0.08830 0.80090
H9 H 0.41352 0.17121 0.65831
H10 H 0.42046 0.12675 0.52449
H11 H 0.58482 0.22078 0.67290
H12 H 0.13511 0.16113 0.65372
H13 H 0.15153 0.11497 0.53520
H14 H 0.06610 0.11736 0.75251
H15 H 0.90273 0.22540 0.65162
H16 H 0.79954 0.23022 0.45146
H17 H 0.79741 0.26731 0.62872
H18 H 0.37672 0.13356 1.09200
H19 H 0.26574 0.17080 1.01274
H20 H 0.20413 0.12433 1.09200
H21 H 0.79138 0.20849 1.00003
H22 H 0.68533 0.25025 0.97800
H23 H 0.61828 0.20266 1.02812
H24 H 0.628(9) 0.125(3) 1.01(1)
#END
