
#######################################################################
#
#                 Cambridge Crystallographic Data Centre
#                                CCDC
#
#######################################################################
#
# If this CIF has been generated from an entry in the Cambridge
# Structural Database, then it will include bibliographic, chemical,
# crystal, experimental, refinement or atomic coordinate data resulting
# from the CCDC's data processing and validation procedures.
#
#######################################################################

data_CSD_CIF_PIJSAF
_audit_creation_date 2018-07-25
_audit_creation_method CSD-ConQuest-V1
_database_code_CSD PIJSAF
_database_code_depnum_ccdc_archive 'CCDC 1838956'
_chemical_formula_sum 'C18 H17 N3 O3'
_chemical_formula_moiety
;
C18 H17 N3 O3
;
_journal_coden_Cambridge 2020
_journal_volume 3
_journal_year 2018
_journal_page_first 7900
_journal_name_full 'Chem. Sel. '
loop_
_publ_author_name
"J.Gujral"
"T.Prabhakar Reddy"
"B.Gorachand"
"D.B.Ramachary"
_chemical_name_systematic
;
6-(2-nitrophenyl)-5-phenyltetrahydro-1H,5H-pyrazolo[1,2-a]pyrazol-1-one
;
_cell_volume   1551.164
_exptl_crystal_colour 'white'
_exptl_crystal_density_diffrn 1.385
_exptl_crystal_description 'needle'
_diffrn_ambient_temperature 293
#These two values have been output from a single CSD field.
_refine_ls_R_factor_gt 0.0605
_refine_ls_wR_factor_gt 0.0605
loop_
_citation_database_id_CSD
_citation_special_details
PIJRUY "is a stereoisomer of this entry"
_symmetry_cell_setting orthorhombic
_symmetry_space_group_name_H-M 'P 21 21 21'
_symmetry_Int_Tables_number 19
loop_
_symmetry_equiv_pos_site_id
_symmetry_equiv_pos_as_xyz
1 x,y,z
2 1/2-x,-y,1/2+z
3 -x,1/2+y,1/2-z
4 1/2+x,1/2-y,-z
_cell_length_a 9.4213(6)
_cell_length_b 9.6086(8)
_cell_length_c 17.1351(9)
_cell_angle_alpha 90
_cell_angle_beta 90
_cell_angle_gamma 90
_cell_formula_units_Z 4
loop_
_atom_type_symbol
_atom_type_radius_bond
C 0.68
H 0.23
N 0.68
O 0.68
loop_
_atom_site_label
_atom_site_type_symbol
_atom_site_fract_x
_atom_site_fract_y
_atom_site_fract_z
O1 O 0.5728(5) 0.4023(6) 0.7789(2)
N1 N 0.3537(5) 0.4836(6) 0.6210(3)
O2 O 0.7532(6) 0.4360(6) 0.4163(3)
N2 N 0.6564(7) 0.4877(7) 0.3784(3)
N3 N 0.4651(6) 0.5127(6) 0.6762(3)
O3 O 0.6226(7) 0.4455(7) 0.3132(3)
C1 C 0.4309(7) 0.4061(7) 0.5604(4)
C2 C 0.5396(7) 0.6133(7) 0.4887(4)
C3 C 0.3474(7) 0.3783(7) 0.4882(3)
C4 C 0.4727(8) 0.4132(8) 0.7339(3)
C5 C 0.5784(7) 0.6067(8) 0.4105(4)
C6 C 0.2308(7) 0.4564(8) 0.4680(4)
H1 H 0.19882 0.52551 0.50169
C7 C 0.3917(8) 0.2748(8) 0.4376(4)
H2 H 0.46812 0.21869 0.45126
C8 C 0.5639(7) 0.5007(8) 0.5484(4)
C9 C 0.5903(7) 0.5564(8) 0.6320(4)
H3 H 0.67595 0.51642 0.65398
H4 H 0.59912 0.65698 0.63187
C10 C 0.2526(7) 0.4003(8) 0.6676(4)
H5 H 0.20555 0.33198 0.63487
H6 H 0.18101 0.46000 0.69073
C11 C 0.4614(7) 0.7329(8) 0.5095(4)
H7 H 0.43124 0.74272 0.56091
C12 C 0.4277(8) 0.8364(8) 0.4560(5)
H8 H 0.37663 0.91405 0.47215
C13 C 0.3395(7) 0.3281(8) 0.7311(4)
H9 H 0.29036 0.33012 0.78085
H10 H 0.35969 0.23229 0.71726
C14 C 0.5442(8) 0.7098(9) 0.3563(4)
H11 H 0.57231 0.70052 0.30457
C15 C 0.1597(9) 0.4335(9) 0.3979(4)
H12 H 0.07966 0.48575 0.38561
C16 C 0.3244(9) 0.2539(9) 0.3675(4)
H13 H 0.35724 0.18554 0.33355
C17 C 0.4692(8) 0.8247(9) 0.3795(5)
H14 H 0.44670 0.89409 0.34377
C18 C 0.2080(9) 0.3338(10) 0.3470(4)
H15 H 0.16298 0.32007 0.29933
H16 H 0.646(5) 0.448(5) 0.532(3)
H17 H 0.463(6) 0.331(6) 0.581(3)
#END
