
#######################################################################
#
#                 Cambridge Crystallographic Data Centre
#                                CCDC
#
#######################################################################
#
# If this CIF has been generated from an entry in the Cambridge
# Structural Database, then it will include bibliographic, chemical,
# crystal, experimental, refinement or atomic coordinate data resulting
# from the CCDC's data processing and validation procedures.
#
#######################################################################

data_CSD_CIF_PIJSUX
_audit_creation_date 2007-11-13
_audit_creation_method CSD-ConQuest-V1
_database_code_CSD PIJSUX
_database_code_depnum_ccdc_archive 'CCDC 624268'
_chemical_formula_sum 'C15 H16 N2 O1'
_chemical_formula_moiety
;
C15 H16 N2 O1
;
_journal_coden_Cambridge 1094
_journal_volume 18
_journal_year 2007
_journal_page_first 457
_journal_name_full 'Struct.Chem. '
loop_
_publ_author_name
"O.N.Zefirova"
"K.A.Potekhin"
"A.I.Touchin"
"N.V.Averina"
"T.Yu.Baranova"
"N.V.Zyk"
"N.S.Zefirov"
_chemical_name_systematic
;
6-oxo-indolo(2,3-b)bicyclo(3.3.1)non-2-ene oxime
;
_cell_volume   1225.974
_exptl_crystal_colour 'black yellow'
_exptl_crystal_density_diffrn 1.302
_exptl_special_details
;
half-chair-chair conformer

;
_exptl_crystal_description 'prism'
_diffrn_ambient_temperature 293
#These two values have been output from a single CSD field.
_refine_ls_R_factor_gt 0.0496
_refine_ls_wR_factor_gt 0.0496
_symmetry_cell_setting monoclinic
_symmetry_space_group_name_H-M 'P 21/c'
_symmetry_Int_Tables_number 14
loop_
_symmetry_equiv_pos_site_id
_symmetry_equiv_pos_as_xyz
1 x,y,z
2 -x,1/2+y,1/2-z
3 -x,-y,-z
4 x,-1/2-y,-1/2+z
_cell_length_a 10.413(2)
_cell_length_b 9.512(2)
_cell_length_c 12.494(2)
_cell_angle_alpha 90
_cell_angle_beta 97.83(3)
_cell_angle_gamma 90
_cell_formula_units_Z 4
loop_
_atom_type_symbol
_atom_type_radius_bond
C 0.68
H 0.23
N 0.68
O 0.68
loop_
_atom_site_label
_atom_site_type_symbol
_atom_site_fract_x
_atom_site_fract_y
_atom_site_fract_z
O1 O 1.09771(14) -0.35717(19) 0.48777(11)
N1 N 0.74434(15) 0.13249(17) 0.20258(13)
H1 H 0.771(2) 0.156(2) 0.1397(18)
N2 N 0.96274(15) -0.36047(18) 0.45441(12)
C1 C 0.77794(17) -0.2583(2) 0.35881(16)
H2 H 0.74400 -0.34810 0.38120
C2 C 0.92013(17) -0.25265(19) 0.39911(14)
C3 C 0.99570(18) -0.1327(2) 0.36290(16)
H3 H 1.08750 -0.14790 0.38570
H4 H 0.97070 -0.04630 0.39570
C4 C 0.97007(19) -0.1197(2) 0.23955(16)
H5 H 1.01150 -0.19720 0.20720
H6 H 1.00770 -0.03290 0.21750
C5 C 0.82434(19) -0.1210(2) 0.19881(14)
H7 H 0.81050 -0.11540 0.11980
C6 C 0.75749(16) -0.00118(19) 0.24524(14)
C7 C 0.70459(16) -0.00668(19) 0.33879(14)
C8 C 0.70029(19) -0.1392(2) 0.40260(17)
H8 H 0.61080 -0.16870 0.40070
H9 H 0.73510 -0.12110 0.47730
C9 C 0.7632(2) -0.2553(2) 0.23544(17)
H10 H 0.80540 -0.33670 0.20910
H11 H 0.67200 -0.25840 0.20610
C10 C 0.68073(16) 0.21459(19) 0.26912(15)
C11 C 0.64364(19) 0.3549(2) 0.26079(17)
H12 H 0.66120 0.41000 0.20300
C12 C 0.5800(2) 0.4096(2) 0.3411(2)
H13 H 0.55360 0.50310 0.33700
C13 C 0.5545(2) 0.3283(2) 0.42773(19)
H14 H 0.51210 0.36840 0.48110
C14 C 0.59077(18) 0.1894(2) 0.43625(16)
H15 H 0.57280 0.13550 0.49450
C15 C 0.65495(16) 0.13043(19) 0.35606(14)
H16 H 1.109(3) -0.465(4) 0.526(3)
H17? H 1.132(5) -0.252(6) 0.496(4)
#END
