
#######################################################################
#
#                 Cambridge Crystallographic Data Centre
#                                CCDC
#
#######################################################################
#
# If this CIF has been generated from an entry in the Cambridge
# Structural Database, then it will include bibliographic, chemical,
# crystal, experimental, refinement or atomic coordinate data resulting
# from the CCDC's data processing and validation procedures.
#
#######################################################################

data_CSD_CIF_PIKKEZ
_audit_creation_date 1994-10-27
_audit_creation_method CSD-ConQuest-V1
_database_code_CSD PIKKEZ
_chemical_formula_sum 'C19 H20 N4 O8'
_chemical_formula_moiety
;
C19 H20 N4 O8
;
_journal_coden_Cambridge 188
_journal_year 1993
_journal_page_first 2399
_journal_name_full 'J.Chem.Soc.,Perkin Trans.2 '
loop_
_publ_author_name
"L.Mathew"
"B.Varghese"
"S.Sankararaman"
_chemical_name_systematic
;
3,3-Dinitro-2-(1-(4-methylphenyl)-2-nitroethoxy)-5-(4-methylphenyl)isoxazolidi
ne
;
_chemical_melting_point 387.15
_cell_volume   1050.967
_exptl_crystal_colour 'colorless'
_exptl_crystal_density_diffrn 1.37
_diffrn_ambient_temperature ?
_diffrn_special_details
;
The study was carried out at room temperature,in the range 283-303K

;
#These two values have been output from a single CSD field.
_refine_ls_R_factor_gt 0.0413
_refine_ls_wR_factor_gt 0.0413
_symmetry_cell_setting triclinic
_symmetry_space_group_name_H-M 'P -1'
_symmetry_Int_Tables_number 2
loop_
_symmetry_equiv_pos_site_id
_symmetry_equiv_pos_as_xyz
1 x,y,z
2 -x,-y,-z
_cell_length_a 9.020(6)
_cell_length_b 10.486(5)
_cell_length_c 12.804(2)
_cell_angle_alpha 104.777(3)
_cell_angle_beta 98.213(5)
_cell_angle_gamma 111.531(3)
_cell_formula_units_Z 2
loop_
_atom_type_symbol
_atom_type_radius_bond
C 0.68
N 0.68
O 0.68
loop_
_atom_site_label
_atom_site_type_symbol
_atom_site_fract_x
_atom_site_fract_y
_atom_site_fract_z
C1 C -0.1054(10) -0.2412(6) -0.4063(6)
C2 C -0.0407(5) -0.0852(4) -0.3298(3)
C3 C -0.0924(5) -0.0525(4) -0.2340(4)
C4 C -0.0390(4) 0.0895(4) -0.1665(3)
C5 C 0.0648(4) 0.2024(3) -0.1936(2)
C6 C 0.1207(4) 0.1704(4) -0.2879(3)
C7 C 0.0683(4) 0.0274(4) -0.3568(3)
C8 C 0.1128(4) 0.3569(3) -0.1221(3)
C9 C 0.0181(4) 0.4341(4) -0.1692(3)
C10 C 0.1533(3) 0.5626(3) -0.1792(2)
C11 C 0.4552(3) 0.7117(3) 0.0837(3)
C12 C 0.4246(3) 0.7274(3) 0.1972(2)
C13 C 0.3956(4) 0.8424(4) 0.2563(3)
C14 C 0.3672(4) 0.8537(4) 0.3609(3)
C15 C 0.3689(4) 0.7525(5) 0.4106(3)
C16 C 0.3967(5) 0.6371(5) 0.3512(3)
C17 C 0.4236(4) 0.6239(4) 0.2460(3)
C18 C 0.3367(8) 0.7635(8) 0.5243(4)
C19 C 0.5686(4) 0.8527(4) 0.0743(3)
N1 N 0.6293(3) 0.8332(3) -0.0292(2)
N2 N 0.1321(4) 0.7030(3) -0.1535(2)
N3 N 0.1764(4) 0.5348(3) -0.2972(2)
N4 N 0.3092(3) 0.5880(3) -0.1044(2)
O1 O 0.6873(3) 0.7457(3) -0.0508(2)
O2 O 0.6198(4) 0.9107(3) -0.0838(2)
O3 O 0.2322(3) 0.7998(3) -0.1748(2)
O4 O 0.0193(4) 0.7084(3) -0.1147(2)
O5 O 0.3044(4) 0.5341(3) -0.3136(2)
O6 O 0.0562(3) 0.5100(3) -0.3690(2)
O7 O 0.2931(2) 0.6508(2) 0.0051(2)
O8 O 0.2852(2) 0.4440(2) -0.1169(2)
#END
