
#######################################################################
#
#                 Cambridge Crystallographic Data Centre
#                                CCDC
#
#######################################################################
#
# If this CIF has been generated from an entry in the Cambridge
# Structural Database, then it will include bibliographic, chemical,
# crystal, experimental, refinement or atomic coordinate data resulting
# from the CCDC's data processing and validation procedures.
#
#######################################################################

data_CSD_CIF_PIKPAD
_audit_creation_date 2018-07-25
_audit_creation_method CSD-ConQuest-V1
_database_code_CSD PIKPAD
_database_code_depnum_ccdc_archive 'CCDC 1575397'
_chemical_formula_sum 'C22 H18 N2 O4'
_chemical_formula_moiety
;
C22 H18 N2 O4
;
_journal_coden_Cambridge 1291
_journal_volume 2018
_journal_year 2018
_journal_page_first 3454
_journal_name_full 'Eur.J.Org.Chem. '
loop_
_publ_author_name
"M.A.Alsharif"
"Danish Khan"
"S.Mukhtar"
"M.I.Alahmdi"
"N.Ahmed"
_chemical_name_systematic
;
2-(3-methoxyphenyl)-3-nitro-N-phenyl-2H-1-benzopyran-4-amine
;
_cell_volume    936.109
_exptl_crystal_colour 'yellow'
_exptl_crystal_density_diffrn 1.328
_exptl_crystal_description 'Needle'
_diffrn_ambient_temperature 293
#These two values have been output from a single CSD field.
_refine_ls_R_factor_gt 0.0574
_refine_ls_wR_factor_gt 0.0574
_symmetry_cell_setting triclinic
_symmetry_space_group_name_H-M 'P -1'
_symmetry_Int_Tables_number 2
loop_
_symmetry_equiv_pos_site_id
_symmetry_equiv_pos_as_xyz
1 x,y,z
2 -x,-y,-z
_cell_length_a 9.566(5)
_cell_length_b 9.674(5)
_cell_length_c 10.988(5)
_cell_angle_alpha 83.162(5)
_cell_angle_beta 72.653(5)
_cell_angle_gamma 74.893(5)
_cell_formula_units_Z 2
loop_
_atom_type_symbol
_atom_type_radius_bond
C 0.68
H 0.23
N 0.68
O 0.68
loop_
_atom_site_label
_atom_site_type_symbol
_atom_site_fract_x
_atom_site_fract_y
_atom_site_fract_z
O1 O 0.37170(15) 0.46551(12) 0.60829(10)
O2 O 0.1599(2) 0.2588(2) 1.10050(12)
O3 O 0.64455(18) 0.10293(16) 0.68754(12)
O4 O 0.70632(19) 0.02366(16) 0.49714(13)
N1 N 0.57076(19) 0.16614(16) 0.33274(13)
N2 N 0.62591(18) 0.11354(16) 0.57924(13)
C1 C 0.30995(19) 0.47400(17) 0.50978(14)
C2 C 0.1984(2) 0.5943(2) 0.49948(18)
H1 H 0.16990 0.66680 0.55670
C3 C 0.1292(2) 0.6065(2) 0.4035(2)
H2 H 0.05410 0.68760 0.39600
C4 C 0.1710(2) 0.4985(2) 0.31853(18)
H3 H 0.12100 0.50550 0.25650
C5 C 0.2860(2) 0.3810(2) 0.32552(16)
H4 H 0.31430 0.30940 0.26740
C6 C 0.36141(19) 0.36812(17) 0.41988(14)
C7 C 0.48736(19) 0.24873(17) 0.43142(14)
C8 C 0.51329(19) 0.22421(17) 0.55124(14)
C9 C 0.42673(19) 0.32292(17) 0.65826(14)
H5 H 0.49840 0.33050 0.70350
C10 C 0.29942(18) 0.27210(16) 0.75608(14)
C11 C 0.2803(2) 0.28740(18) 0.88406(15)
H6 H 0.34570 0.32790 0.90800
C12 C 0.1640(2) 0.2427(2) 0.97754(17)
C13 C 0.0644(2) 0.1850(2) 0.94208(18)
H7 H -0.01490 0.15680 1.00370
C14 C 0.0844(2) 0.1698(2) 0.81372(18)
H8 H 0.01790 0.13080 0.78980
C15 C 0.2009(2) 0.21120(19) 0.72075(16)
H9 H 0.21370 0.19860 0.63520
C16 C 0.0576(4) 0.1955(4) 1.1997(2)
H10 H -0.04390 0.24820 1.20510
H11 H 0.07850 0.19790 1.27950
H12 H 0.06940 0.09790 1.18120
C17 C 0.59554(19) 0.20357(17) 0.19897(14)
C18 C 0.5958(2) 0.10332(19) 0.11979(16)
H13 H 0.57420 0.01600 0.15370
C19 C 0.6284(2) 0.1333(2) -0.01030(16)
H14 H 0.62830 0.06580 -0.06390
C20 C 0.6607(2) 0.2611(2) -0.06121(15)
H15 H 0.68190 0.28080 -0.14890
C21 C 0.6618(2) 0.3610(2) 0.01853(17)
H16 H 0.68380 0.44810 -0.01570
C22 C 0.6302(2) 0.33202(19) 0.14902(17)
H17 H 0.63230 0.39860 0.20250
H18 H 0.645(3) 0.084(2) 0.362(2)
#END
