
#######################################################################
#
#                 Cambridge Crystallographic Data Centre
#                                CCDC
#
#######################################################################
#
# If this CIF has been generated from an entry in the Cambridge
# Structural Database, then it will include bibliographic, chemical,
# crystal, experimental, refinement or atomic coordinate data resulting
# from the CCDC's data processing and validation procedures.
#
#######################################################################

data_CSD_CIF_PILGEX
_audit_creation_date 2007-11-13
_audit_creation_method CSD-ConQuest-V1
_database_code_CSD PILGEX
_database_code_depnum_ccdc_archive 'CCDC 663720'
_chemical_formula_sum 'C15 H13 N3 O4'
_chemical_formula_moiety
;
C15 H13 N3 O4
;
_journal_coeditor_code "IUCr FI2043"
_journal_coden_Cambridge 1370
_journal_volume 63
_journal_year 2007
_journal_page_first o3997
_journal_name_full 'Acta Crystallogr.,Sect.E:Struct.Rep.Online '
loop_
_publ_author_name
"Jian-Guo Chang"
"Guo-Fang He"
"Yan-Fei Li"
_chemical_name_systematic
;
4-methoxy-N-((1E)-(2-nitrophenyl)methylene)benzhydrazide
;
_cell_volume   2864.695
_exptl_crystal_colour 'yellow'
_exptl_crystal_density_diffrn 1.388
_exptl_crystal_description 'block'
_exptl_crystal_preparation 'DMF'
_diffrn_ambient_temperature 273
#These two values have been output from a single CSD field.
_refine_ls_R_factor_gt 0.0366
_refine_ls_wR_factor_gt 0.0366
_symmetry_cell_setting orthorhombic
_symmetry_space_group_name_H-M 'P c a 21'
_symmetry_Int_Tables_number 29
loop_
_symmetry_equiv_pos_site_id
_symmetry_equiv_pos_as_xyz
1 x,y,z
2 -x,-y,1/2+z
3 1/2+x,-y,z
4 1/2-x,y,1/2+z
_cell_length_a 27.3272(15)
_cell_length_b 4.8389(3)
_cell_length_c 21.6639(12)
_cell_angle_alpha 90
_cell_angle_beta 90
_cell_angle_gamma 90
_cell_formula_units_Z 8
loop_
_atom_type_symbol
_atom_type_radius_bond
C 0.68
H 0.23
N 0.68
O 0.68
loop_
_atom_site_label
_atom_site_type_symbol
_atom_site_fract_x
_atom_site_fract_y
_atom_site_fract_z
O1 O 0.95758(9) 0.5777(5) 0.99874(14)
O2 O 0.79909(9) 0.1002(6) 0.81382(13)
O3 O 1.07001(10) -0.5271(7) 1.21363(14)
O4 O 1.01349(9) -0.3168(7) 1.16428(15)
O5 O 0.22355(8) 1.3185(4) -0.03675(13)
O6 O 0.04707(8) 0.7561(6) -0.17868(12)
O7 O 0.32068(10) 0.2884(7) 0.22193(14)
O8 O 0.26593(11) 0.4585(7) 0.16330(14)
N1 N 0.98150(9) 0.1336(5) 0.99582(14)
H1 H 0.97590 -0.03090 0.98260
N2 N 1.02079(9) 0.1816(6) 1.03432(13)
N3 N 1.05595(10) -0.3480(6) 1.17783(14)
N4 N 0.23202(9) 0.8791(5) -0.00297(12)
H2 H 0.22240 0.71040 -0.00570
N5 N 0.27059(9) 0.9449(5) 0.03510(12)
N6 N 0.30788(11) 0.4463(6) 0.18136(13)
C1 C 0.75747(14) 0.2779(11) 0.8092(2)
H3 H 0.74030 0.28030 0.84780
H4 H 0.73610 0.21120 0.77730
H5 H 0.76810 0.46170 0.79910
C2 C 0.83484(13) 0.1711(8) 0.85484(17)
C3 C 0.87762(14) 0.0170(8) 0.85072(19)
H6 H 0.88070 -0.12000 0.82090
C4 C 0.91548(14) 0.0688(7) 0.89123(17)
H7 H 0.94400 -0.03520 0.88860
C5 C 0.91161(11) 0.2735(6) 0.93575(15)
C6 C 0.86918(12) 0.4255(7) 0.93821(17)
H8 H 0.86630 0.56610 0.96730
C7 C 0.83074(13) 0.3740(8) 0.89850(17)
H9 H 0.80210 0.47710 0.90140
C8 C 0.95202(11) 0.3410(6) 0.97897(15)
C9 C 1.03790(11) -0.0312(7) 1.06142(15)
H10 H 1.02260 -0.20170 1.05730
C10 C 1.08216(11) -0.0030(6) 1.09922(14)
C11 C 1.09264(11) -0.1602(7) 1.15167(15)
C12 C 1.13661(12) -0.1393(8) 1.18240(17)
H11 H 1.14280 -0.25010 1.21660
C13 C 1.17137(13) 0.0459(9) 1.16240(19)
H12 H 1.20100 0.06220 1.18310
C14 C 1.16188(13) 0.2054(8) 1.11180(19)
H13 H 1.18510 0.33270 1.09850
C15 C 1.11838(12) 0.1803(7) 1.08016(17)
H14 H 1.11310 0.28830 1.04530
C16 C 0.01518(13) 0.5396(9) -0.1618(2)
H15 H 0.03320 0.36960 -0.15940
H16 H -0.01020 0.52240 -0.19220
H17 H 0.00090 0.57940 -0.12230
C17 C 0.08517(11) 0.8199(7) -0.14052(16)
C18 C 0.09396(11) 0.7002(7) -0.08400(16)
H18 H 0.07290 0.56610 -0.06860
C19 C 0.13441(10) 0.7810(7) -0.05040(15)
H19 H 0.14060 0.69720 -0.01260
C20 C 0.16590(11) 0.9834(6) -0.07158(14)
C21 C 0.15563(12) 1.1059(7) -0.12792(15)
H20 H 0.17580 1.24630 -0.14250
C22 C 0.11605(12) 1.0229(8) -0.16261(16)
H21 H 0.11010 1.10350 -0.20090
C23 C 0.20924(10) 1.0772(6) -0.03599(15)
C24 C 0.28988(11) 0.7390(7) 0.06273(16)
H22 H 0.27680 0.56260 0.05830
C25 C 0.33316(11) 0.7859(6) 0.10178(14)
C26 C 0.34331(11) 0.6392(6) 0.15542(15)
C27 C 0.38649(12) 0.6755(8) 0.18840(16)
H23 H 0.39270 0.57050 0.22350
C28 C 0.41980(13) 0.8683(8) 0.16846(19)
H24 H 0.44900 0.89390 0.18980
C29 C 0.40985(12) 1.0226(8) 0.11709(18)
H25 H 0.43190 1.15800 0.10460
C30 C 0.36755(11) 0.9796(7) 0.08357(16)
H26 H 0.36200 1.08290 0.04800
#END
