
#######################################################################
#
#                 Cambridge Crystallographic Data Centre
#                                CCDC
#
#######################################################################
#
# If this CIF has been generated from an entry in the Cambridge
# Structural Database, then it will include bibliographic, chemical,
# crystal, experimental, refinement or atomic coordinate data resulting
# from the CCDC's data processing and validation procedures.
#
#######################################################################

data_CSD_CIF_PILHOI
_audit_creation_date 2007-11-13
_audit_creation_method CSD-ConQuest-V1
_database_code_CSD PILHOI
_database_code_depnum_ccdc_archive 'CCDC 663729'
_chemical_formula_sum 'C14 H10 N4 O10'
_chemical_formula_moiety
;
C14 H10 N4 O10
;
_journal_coeditor_code "IUCr LH2441"
_journal_coden_Cambridge 1370
_journal_volume 63
_journal_year 2007
_journal_page_first o4012
_journal_name_full 'Acta Crystallogr.,Sect.E:Struct.Rep.Online '
loop_
_publ_author_name
"Xue-Yang Xiao"
"Shao-Bin Miao"
"Hong-Hong Lan"
"Yuan-Yuan Jiang"
"Bao-Ming Ji"
_chemical_name_systematic
;
6,6'-Dimethoxy-2,3,2',5'-tetranitro-1,1'-biphenyl
;
_cell_volume    824.214
_exptl_crystal_colour 'yellow'
_exptl_crystal_density_diffrn 1.589
_exptl_crystal_description 'block'
_exptl_crystal_preparation 'ethyl acetate'
_diffrn_ambient_temperature 291
#These two values have been output from a single CSD field.
_refine_ls_R_factor_gt 0.0459
_refine_ls_wR_factor_gt 0.0459
_symmetry_cell_setting triclinic
_symmetry_space_group_name_H-M 'P -1'
_symmetry_Int_Tables_number 2
loop_
_symmetry_equiv_pos_site_id
_symmetry_equiv_pos_as_xyz
1 x,y,z
2 -x,-y,-z
_cell_length_a 8.1821(11)
_cell_length_b 10.2161(13)
_cell_length_c 10.6133(14)
_cell_angle_alpha 95.118(2)
_cell_angle_beta 90.579(2)
_cell_angle_gamma 110.977(2)
_cell_formula_units_Z 2
loop_
_atom_type_symbol
_atom_type_radius_bond
C 0.68
H 0.23
N 0.68
O 0.68
loop_
_atom_site_label
_atom_site_type_symbol
_atom_site_fract_x
_atom_site_fract_y
_atom_site_fract_z
O1 O 0.5521(2) 0.38404(17) 0.32635(15)
O2 O 0.1047(4) -0.2166(3) 0.4665(3)
O3 O -0.0829(3) -0.1796(2) 0.3485(2)
O4 O 0.0530(3) -0.1066(2) 0.1089(2)
O5 O -0.0687(3) 0.0425(2) 0.1627(3)
O6 O 0.1341(3) 0.3722(2) 0.32138(19)
O7 O 0.0125(3) 0.4502(3) 0.1823(2)
O8 O 0.5697(3) 0.3399(2) -0.2476(2)
O9 O 0.4681(3) 0.1229(2) -0.2111(2)
O10 O 0.4716(2) 0.13198(17) 0.05720(16)
N1 N 0.0619(3) -0.1446(2) 0.3991(2)
N2 N 0.0430(3) -0.0071(2) 0.1743(2)
N3 N 0.1122(3) 0.3936(2) 0.2140(2)
N4 N 0.4869(3) 0.2450(3) -0.1846(2)
C1 C 0.4371(3) 0.2571(2) 0.3497(2)
C2 C 0.4469(3) 0.1889(3) 0.4556(2)
H1 H 0.53650 0.23190 0.51710
C3 C 0.3246(3) 0.0579(3) 0.4698(2)
H2 H 0.33220 0.01270 0.54070
C4 C 0.1917(3) -0.0063(2) 0.3801(2)
C5 C 0.1809(3) 0.0619(2) 0.2745(2)
C6 C 0.3011(3) 0.1926(2) 0.25653(19)
C7 C 0.2998(3) 0.2600(2) 0.13651(19)
C8 C 0.2142(3) 0.3520(2) 0.1146(2)
C9 C 0.2197(3) 0.4097(3) 0.0016(2)
H3 H 0.16010 0.47040 -0.00980
C10 C 0.3139(3) 0.3768(3) -0.0940(2)
H4 H 0.32190 0.41730 -0.16990
C11 C 0.3963(3) 0.2837(2) -0.0768(2)
C12 C 0.3931(3) 0.2246(2) 0.0373(2)
C13 C 0.6577(4) 0.1862(3) 0.0691(4)
H5 H 0.70460 0.21540 -0.01060
H6 H 0.69810 0.11440 0.09360
H7 H 0.69610 0.26550 0.13230
C14 C 0.6954(4) 0.4544(3) 0.4180(3)
H8 H 0.64970 0.46770 0.49910
H9 H 0.76520 0.54430 0.39160
H10 H 0.76650 0.39790 0.42400
#END
