
#######################################################################
#
#                 Cambridge Crystallographic Data Centre
#                                CCDC
#
#######################################################################
#
# If this CIF has been generated from an entry in the Cambridge
# Structural Database, then it will include bibliographic, chemical,
# crystal, experimental, refinement or atomic coordinate data resulting
# from the CCDC's data processing and validation procedures.
#
#######################################################################

data_CSD_CIF_PILVIP10
_audit_creation_date 1997-05-19
_audit_creation_method CSD-ConQuest-V1
_database_code_CSD PILVIP10
_chemical_formula_sum 'C37 H29 N5 O9'
_chemical_formula_moiety
;
C37 H29 N5 O9
;
_journal_coden_Cambridge 4
_journal_volume 118
_journal_year 1996
_journal_page_first 7529
_journal_name_full 'J.Am.Chem.Soc. '
loop_
_publ_author_name
"Y.Hamuro"
"S.J.Geib"
"A.D.Hamilton"
_chemical_name_systematic
;
2,6-bis(2-(2-Methoxycarbonylphenylcarbamoyl)phenylcarbamoyl)pyridine N-oxide
;
_chemical_melting_point 520.15
_cell_volume   1607.980
_exptl_crystal_colour 'white'
_exptl_crystal_density_diffrn 1.42
_exptl_special_details
;
Melting point range 520.15-522.15K

;
_diffrn_ambient_temperature ?
_diffrn_special_details
;
The study was carried out at room temperature,in the range 283-303K

;
#These two values have been output from a single CSD field.
_refine_ls_R_factor_gt 0.034
_refine_ls_wR_factor_gt 0.034
_symmetry_cell_setting monoclinic
_symmetry_space_group_name_H-M 'P 2/n'
_symmetry_Int_Tables_number 13
loop_
_symmetry_equiv_pos_site_id
_symmetry_equiv_pos_as_xyz
1 x,y,z
2 1/2-x,y,1/2-z
3 -x,-y,-z
4 -1/2+x,-y,-1/2+z
_cell_length_a 13.109(2)
_cell_length_b 8.730(1)
_cell_length_c 14.354(2)
_cell_angle_alpha 90
_cell_angle_beta 101.8
_cell_angle_gamma 90
_cell_formula_units_Z 2
loop_
_atom_type_symbol
_atom_type_radius_bond
C 0.68
H 0.23
N 0.68
O 0.68
loop_
_atom_site_label
_atom_site_type_symbol
_atom_site_fract_x
_atom_site_fract_y
_atom_site_fract_z
C1 C 0.0426(2) 0.5189(3) 0.7701(2)
C2 C 0.0525(2) 0.6682(3) 0.6332(2)
C3 C -0.0009(2) 0.7121(2) 0.5347(2)
C4 C -0.1010(2) 0.6557(3) 0.4974(2)
C5 C -0.1552(2) 0.6982(3) 0.4076(2)
C6 C -0.1091(2) 0.7976(3) 0.3537(2)
C7 C -0.0088(2) 0.8537(3) 0.3870(2)
C8 C 0.0469(2) 0.8114(2) 0.4776(2)
C9 C 0.2138(2) 0.9471(2) 0.4691(2)
C10 C 0.3164(2) 0.9932(2) 0.5306(1)
C11 C 0.3644(2) 0.9001(3) 0.6070(2)
C12 C 0.4611(2) 0.9383(3) 0.6620(2)
C13 C 0.5103(2) 1.0717(3) 0.6430(2)
C14 C 0.4643(2) 1.1673(3) 0.5690(1)
C15 C 0.3683(2) 1.1280(2) 0.5119(1)
C16 C 0.3304(2) 1.3759(3) 0.4287(2)
C17 C 0.2853(2) 1.4542(2) 0.3342(2)
C18 C 0.2832(2) 1.6131(2) 0.3338(2)
C19 C 0.25000 1.6937(4) 0.25000
N1 N 0.25000 1.3763(3) 0.25000
N2 N 0.3247(2) 1.2207(2) 0.4319(1)
N3 N 0.1481(2) 0.8686(2) 0.5145(1)
O1 O 0.25000 1.2256(2) 0.25000
O2 O 0.3676(2) 1.4579(2) 0.4969(1)
O3 O 0.1930(1) 0.9771(2) 0.3828(1)
O4 O 0.1376(2) 0.7129(2) 0.6736(1)
O5 O -0.0043(1) 0.5723(2) 0.6750(1)
H1 H -0.0036(2) 0.4485(3) 0.7919(2)
H2 H 0.1078(2) 0.4691(3) 0.7698(2)
H3 H 0.0543(2) 0.6059(3) 0.8119(2)
H4 H -0.1331(2) 0.5870(3) 0.5351(2)
H5 H -0.2242(2) 0.6601(3) 0.3834(2)
H6 H -0.1466(2) 0.8245(3) 0.2912(2)
H7 H 0.0223(2) 0.9240(3) 0.3496(2)
H8 H 0.3295(2) 0.8090(3) 0.6211(2)
H9 H 0.4935(2) 0.8722(3) 0.7129(2)
H10 H 0.5768(2) 1.0978(3) 0.6817(2)
H11 H 0.4982(2) 1.2604(3) 0.5566(1)
H12 H 0.3036(2) 1.6670(2) 0.3929(2)
H13 H 0.25000 1.8037(4) 0.25000
H14 H 0.2841(18) 1.1770(26) 0.3768(16)
H15 H 0.1678(17) 0.8447(25) 0.5790(16)
C18A C 0.2168(2) 1.6131(2) 0.1662(2)
C17A C 0.2147(2) 1.4542(2) 0.1658(2)
C16A C 0.1696(2) 1.3759(3) 0.0713(2)
N2A N 0.1753(2) 1.2207(2) 0.0681(1)
C15A C 0.1317(2) 1.1280(2) -0.0119(1)
C10A C 0.1836(2) 0.9932(2) -0.0306(1)
C9A C 0.2862(2) 0.9471(2) 0.0309(2)
N3A N 0.3519(2) 0.8686(2) -0.0145(1)
C8A C 0.4531(2) 0.8114(2) 0.0224(2)
C3A C 0.5009(2) 0.7121(2) -0.0347(2)
C2A C 0.4475(2) 0.6682(3) -0.1332(2)
O4A O 0.3624(2) 0.7129(2) -0.1736(1)
O5A O 0.5043(1) 0.5723(2) -0.1750(1)
C1A C 0.4574(2) 0.5189(3) -0.2701(2)
H1A H 0.5036(2) 0.4485(3) -0.2919(2)
H2A H 0.3922(2) 0.4691(3) -0.2698(2)
H3A H 0.4457(2) 0.6059(3) -0.3119(2)
C4A C 0.6010(2) 0.6557(3) 0.0026(2)
C5A C 0.6552(2) 0.6982(3) 0.0924(2)
C6A C 0.6091(2) 0.7976(3) 0.1463(2)
C7A C 0.5088(2) 0.8537(3) 0.1130(2)
H7A H 0.4777(2) 0.9240(3) 0.1504(2)
H6A H 0.6466(2) 0.8245(3) 0.2088(2)
H5A H 0.7242(2) 0.6601(3) 0.1166(2)
H4A H 0.6331(2) 0.5870(3) -0.0351(2)
H15A H 0.3322(17) 0.8447(25) -0.0790(16)
O3A O 0.3070(1) 0.9771(2) 0.1172(1)
C11A C 0.1356(2) 0.9001(3) -0.1070(2)
C12A C 0.0389(2) 0.9383(3) -0.1620(2)
C13A C -0.0103(2) 1.0717(3) -0.1430(2)
C14A C 0.0357(2) 1.1673(3) -0.0690(1)
H11A H 0.0018(2) 1.2604(3) -0.0566(1)
H10A H -0.0768(2) 1.0978(3) -0.1817(2)
H9A H 0.0065(2) 0.8722(3) -0.2129(2)
H8A H 0.1705(2) 0.8090(3) -0.1211(2)
H14A H 0.2159(18) 1.1770(26) 0.1232(16)
O2A O 0.1324(2) 1.4579(2) 0.0031(1)
H12A H 0.1964(2) 1.6670(2) 0.1071(2)
#END
