
#######################################################################
#
#                 Cambridge Crystallographic Data Centre
#                                CCDC
#
#######################################################################
#
# If this CIF has been generated from an entry in the Cambridge
# Structural Database, then it will include bibliographic, chemical,
# crystal, experimental, refinement or atomic coordinate data resulting
# from the CCDC's data processing and validation procedures.
#
#######################################################################

data_CSD_CIF_PILWUD
_audit_creation_date 2008-02-05
_audit_creation_method CSD-ConQuest-V1
_database_code_CSD PILWUD
_database_code_depnum_ccdc_archive 'CCDC 215558'
_chemical_formula_sum 'C12 H16 N4 O1'
_chemical_formula_moiety
;
C12 H16 N4 O1
;
_journal_coden_Cambridge 9
_journal_volume 42
_journal_year 2003
_journal_page_first 7447
_journal_name_full 'Inorg.Chem. '
loop_
_publ_author_name
"L.M.Field"
"P.M.Lahti"
_chemical_name_systematic
;
1-(4-(N-t-Butyl-N-hydroxylamino)phenyl)-1H-1,2,4-triazole
;
_chemical_melting_point 414.15
_cell_volume   2430.247
_exptl_crystal_colour 'colorless'
_exptl_crystal_density_diffrn 1.27
_exptl_special_details
;
Melting point range 414.15-416.15K

;
_exptl_crystal_description 'Cube'
_diffrn_ambient_temperature 293
#These two values have been output from a single CSD field.
_refine_ls_R_factor_gt 0.058
_refine_ls_wR_factor_gt 0.058
_symmetry_cell_setting monoclinic
_symmetry_space_group_name_H-M 'C 2/c'
_symmetry_Int_Tables_number 15
loop_
_symmetry_equiv_pos_site_id
_symmetry_equiv_pos_as_xyz
1 x,y,z
2 1/2+x,1/2+y,z
3 -x,y,1/2-z
4 1/2-x,1/2+y,1/2-z
5 -x,-y,-z
6 -1/2-x,-1/2-y,-z
7 x,-y,-1/2+z
8 -1/2+x,-1/2-y,-1/2+z
_cell_length_a 21.3111(4)
_cell_length_b 5.8661(1)
_cell_length_c 20.5135(5)
_cell_angle_alpha 90
_cell_angle_beta 108.6184(7)
_cell_angle_gamma 90
_cell_formula_units_Z 8
loop_
_atom_type_symbol
_atom_type_radius_bond
C 0.68
H 0.23
N 0.68
O 0.68
loop_
_atom_site_label
_atom_site_type_symbol
_atom_site_fract_x
_atom_site_fract_y
_atom_site_fract_z
O1 O 0.08356(7) 0.1576(3) 0.29698(7)
N1 N 0.13131(7) 0.0431(3) 0.35280(8)
N2 N 0.07070(7) 0.2245(3) 0.59611(8)
N3 N 0.07740(9) 0.4334(3) 0.62540(9)
N4 N 0.04402(9) 0.1789(4) 0.68943(9)
C1 C 0.06099(12) 0.3939(4) 0.68103(11)
C2 C 0.05107(12) 0.0777(4) 0.63534(11)
C3 C 0.08559(8) 0.1805(3) 0.53407(9)
C4 C 0.11212(10) -0.0270(3) 0.52474(10)
C5 C 0.12668(10) -0.0685(3) 0.4651(1)
C6 C 0.11604(8) 0.0982(3) 0.41409(9)
C7 C 0.08843(8) 0.3038(3) 0.42379(9)
C8 C 0.07334(9) 0.3465(3) 0.48337(9)
C9 C 0.19937(10) 0.1127(3) 0.35313(11)
C10 C 0.20698(12) 0.0282(5) 0.28597(14)
C11 C 0.20958(11) 0.3698(4) 0.35967(13)
C12 C 0.2503(1) -0.0057(4) 0.41253(12)
H1 H 0.09100 0.12950 0.26100
H2 H 0.06110 0.50850 0.71240
H3 H 0.04340 -0.07640 0.62540
H4 H 0.12000 -0.13860 0.55860
H5 H 0.14390 -0.20920 0.45860
H6 H 0.07990 0.41460 0.38970
H7 H 0.05520 0.48590 0.48950
H8 H 0.17480 0.10150 0.24790
H9 H 0.20030 -0.13380 0.28260
H10 H 0.25070 0.06330 0.28510
H11 H 0.20450 0.42070 0.40220
H12 H 0.17750 0.44450 0.32190
H13 H 0.25330 0.40630 0.35910
H14 H 0.24550 0.04620 0.45510
H15 H 0.29400 0.02930 0.41170
H16 H 0.24340 -0.16760 0.40860
#END
