
#######################################################################
#
#                 Cambridge Crystallographic Data Centre
#                                CCDC
#
#######################################################################
#
# If this CIF has been generated from an entry in the Cambridge
# Structural Database, then it will include bibliographic, chemical,
# crystal, experimental, refinement or atomic coordinate data resulting
# from the CCDC's data processing and validation procedures.
#
#######################################################################

data_CSD_CIF_PIMLIG
_audit_creation_date 1994-10-26
_audit_creation_method CSD-ConQuest-V1
_database_code_CSD PIMLIG
_database_code_depnum_ccdc_archive 'CCDC 1233910'
_chemical_formula_sum 'C14 H15 N1 O4'
_chemical_formula_moiety
;
C14 H15 N1 O4
;
_journal_coden_Cambridge 392
_journal_volume 36
_journal_year 1993
_journal_page_first 2497
_journal_name_full 'Heterocycles '
loop_
_publ_author_name
"K.Harada"
"Y.Shimozono"
"E.Kaji"
"S.Zen"
_chemical_name_systematic
;
5,7-Dimethyl-4-methoxycarbonyl-4a,9a-dihydro-1H-benzofuro-(3,2-d)-1,2-oxazine
;
_chemical_melting_point 397.15
_cell_volume   1301.822
_exptl_crystal_density_diffrn 1.333
_exptl_special_details
;
Melting point range 397.15-398.15K
z coordinate of O1 should probably be 0.4092 (not 0.04092)
;
_diffrn_ambient_temperature ?
_diffrn_special_details
;
The study was carried out at room temperature,in the range 283-303K

;
#These two values have been output from a single CSD field.
_refine_ls_R_factor_gt 0.064
_refine_ls_wR_factor_gt 0.064
_symmetry_cell_setting monoclinic
_symmetry_space_group_name_H-M 'P 21/c'
_symmetry_Int_Tables_number 14
loop_
_symmetry_equiv_pos_site_id
_symmetry_equiv_pos_as_xyz
1 x,y,z
2 -x,1/2+y,1/2-z
3 -x,-y,-z
4 x,-1/2-y,-1/2+z
_cell_length_a 8.691(4)
_cell_length_b 17.628(6)
_cell_length_c 9.359(4)
_cell_angle_alpha 90
_cell_angle_beta 114.78(3)
_cell_angle_gamma 90
_cell_formula_units_Z 4
loop_
_atom_type_symbol
_atom_type_radius_bond
C 0.68
N 0.68
O 0.68
loop_
_atom_site_label
_atom_site_type_symbol
_atom_site_fract_x
_atom_site_fract_y
_atom_site_fract_z
O1 O 1.0420(4) 0.3124(2) 0.4092(4)
O2 O 1.2411(4) 0.1788(2) 0.5328(3)
O3 O 0.6474(4) 0.2042(2) 0.0641(3)
O4 O 0.5644(4) 0.1711(2) 0.2506(4)
N1 N 0.8849(5) 0.2841(2) 0.2978(4)
C1 C 1.0916(6) 0.2853(3) 0.5667(5)
C2 C 0.8414(5) 0.2187(3) 0.3271(5)
C3 C 0.9434(5) 0.1636(3) 0.4551(5)
C4 C 1.0159(5) 0.1018(2) 0.3889(5)
C5 C 0.9449(5) 0.0389(3) 0.2951(5)
C6 C 1.0484(7) -0.0026(3) 0.2454(6)
C7 C 1.2161(6) 0.0159(3) 0.2837(6)
C8 C 1.2873(6) 0.0774(3) 0.3822(6)
C9 C 1.1848(5) 0.1176(3) 0.4318(5)
C10 C 1.1046(6) 0.2014(3) 0.5734(5)
C11 C 0.6683(5) 0.1954(3) 0.2097(5)
C12 C 0.4829(6) 0.1851(3) -0.0563(6)
C13 C 0.7660(6) 0.0141(3) 0.2517(6)
C14 C 1.3195(7) -0.0303(3) 0.2214(7)
#END
