
#######################################################################
#
#                 Cambridge Crystallographic Data Centre
#                                CCDC
#
#######################################################################
#
# If this CIF has been generated from an entry in the Cambridge
# Structural Database, then it will include bibliographic, chemical,
# crystal, experimental, refinement or atomic coordinate data resulting
# from the CCDC's data processing and validation procedures.
#
#######################################################################

data_CSD_CIF_PIMMOP
_audit_creation_date 2013-12-10
_audit_creation_method CSD-ConQuest-V1
_database_code_CSD PIMMOP
_database_code_depnum_ccdc_archive 'CCDC 948173'
_chemical_formula_sum 'C34 H31 N1 O6'
_chemical_formula_moiety
;
C34 H31 N1 O6
;
_journal_coden_Cambridge 1220
_journal_volume 20
_journal_year 2014
_journal_page_first 713
_journal_name_full 'Chem.-Eur.J. '
loop_
_publ_author_name
"Weidong Rao"
"Philip Wai Hong Chan"
_chemical_name_systematic
;
5-(2,5-Dicyclopropyl-4-phenyl-1,3-dioxolan-4-yl)-2-phenylcyclohexa-1,5-dien-1-
yl 4-nitrobenzoate
;
_cell_volume   2754.815
_exptl_crystal_density_diffrn 1.325
_diffrn_ambient_temperature 153
#These two values have been output from a single CSD field.
_refine_ls_R_factor_gt 0.0638
_refine_ls_wR_factor_gt 0.0638
_symmetry_cell_setting monoclinic
_symmetry_space_group_name_H-M 'P 21/n'
_symmetry_Int_Tables_number 14
loop_
_symmetry_equiv_pos_site_id
_symmetry_equiv_pos_as_xyz
1 x,y,z
2 1/2-x,1/2+y,1/2-z
3 -x,-y,-z
4 -1/2+x,-1/2-y,-1/2+z
_cell_length_a 16.345(3)
_cell_length_b 9.2979(18)
_cell_length_c 18.127(4)
_cell_angle_alpha 90
_cell_angle_beta 90.221(7)
_cell_angle_gamma 90
_cell_formula_units_Z 4
loop_
_atom_type_symbol
_atom_type_radius_bond
C 0.68
H 0.23
N 0.68
O 0.68
loop_
_atom_site_label
_atom_site_type_symbol
_atom_site_fract_x
_atom_site_fract_y
_atom_site_fract_z
C1 C 0.4075(2) 0.7936(4) 0.5264(2)
H1 H 0.36440 0.75100 0.55870
C2 C 0.3353(2) 0.8086(3) 0.41831(19)
H2 H 0.27670 0.79010 0.43080
C3 C 0.3840(2) 0.6613(4) 0.4216(2)
C4 C 0.4710(2) 0.8658(4) 0.5722(2)
H3 H 0.51410 0.92020 0.54490
C5 C 0.4970(2) 0.7965(4) 0.64264(19)
H4 H 0.55500 0.80640 0.65770
H5 H 0.47140 0.70360 0.65590
C6 C 0.4446(3) 0.9282(4) 0.6447(2)
H6 H 0.47020 1.01940 0.66080
H7 H 0.38650 0.91650 0.65900
C7 C 0.3390(2) 0.8918(4) 0.34776(19)
H8 H 0.39450 0.90420 0.32560
C8 C 0.2681(2) 0.8798(4) 0.2940(2)
H9 H 0.28060 0.88280 0.24060
H10 H 0.22180 0.81650 0.30760
C9 C 0.2803(2) 1.0153(4) 0.3378(2)
H11 H 0.24140 1.03530 0.37830
H12 H 0.30010 1.10150 0.31130
C10 C 0.3298(2) 0.5324(4) 0.44184(19)
C11 C 0.2471(2) 0.5251(4) 0.4254(2)
H13 H 0.22130 0.60270 0.40040
C12 C 0.2013(2) 0.4052(4) 0.4452(2)
H14 H 0.14440 0.40270 0.43440
C13 C 0.2374(3) 0.2903(4) 0.4801(2)
H15 H 0.20570 0.20940 0.49440
C14 C 0.3203(3) 0.2945(4) 0.4940(2)
H16 H 0.34630 0.21450 0.51670
C15 C 0.3662(2) 0.4143(4) 0.4752(2)
H17 H 0.42320 0.41540 0.48530
C16 C 0.4326(2) 0.6336(3) 0.35333(19)
C17 C 0.5120(2) 0.6637(4) 0.3465(2)
H18 H 0.54160 0.69820 0.38810
C18 C 0.5539(2) 0.6447(4) 0.2769(2)
C19 C 0.5169(2) 0.6283(3) 0.2113(2)
C20 C 0.4237(2) 0.6252(4) 0.21468(19)
H19 H 0.40280 0.72390 0.20650
H20 H 0.40290 0.56410 0.17400
C21 C 0.3898(2) 0.5691(4) 0.28706(18)
H21 H 0.33070 0.59150 0.28960
H22 H 0.39590 0.46320 0.28850
C22 C 0.6832(2) 0.5595(4) 0.3162(2)
C23 C 0.7711(2) 0.5915(4) 0.32188(19)
C24 C 0.8228(2) 0.4812(4) 0.3447(2)
H23 H 0.80030 0.39140 0.35920
C25 C 0.9062(2) 0.5011(4) 0.3464(2)
H24 H 0.94160 0.42510 0.36090
C26 C 0.9375(2) 0.6328(4) 0.3267(2)
C27 C 0.8881(2) 0.7450(4) 0.3058(2)
H25 H 0.91090 0.83590 0.29380
C28 C 0.8045(2) 0.7236(4) 0.3027(2)
H26 H 0.76970 0.79970 0.28740
C29 C 0.5547(2) 0.6281(4) 0.1376(2)
C30 C 0.6356(2) 0.5921(4) 0.1230(2)
H27 H 0.67020 0.56470 0.16280
C31 C 0.6674(3) 0.5951(4) 0.0526(2)
H28 H 0.72310 0.57030 0.04470
C32 C 0.6181(3) 0.6342(4) -0.0068(2)
H29 H 0.63950 0.63530 -0.05550
C33 C 0.5377(3) 0.6713(4) 0.0061(2)
H30 H 0.50370 0.69940 -0.03400
C34 C 0.5063(2) 0.6681(4) 0.0766(2)
H31 H 0.45070 0.69350 0.08410
N1 N 1.0262(2) 0.6518(4) 0.32426(17)
O1 O 0.44188(14) 0.6863(2) 0.48083(13)
O2 O 0.37187(15) 0.8940(2) 0.47633(13)
O3 O 0.64011(14) 0.6652(2) 0.28138(13)
O4 O 0.65158(16) 0.4491(3) 0.33703(15)
O5 O 1.05378(17) 0.7746(3) 0.32029(15)
O6 O 1.06943(18) 0.5436(3) 0.32472(18)
#END
