
#######################################################################
#
#                 Cambridge Crystallographic Data Centre
#                                CCDC
#
#######################################################################
#
# If this CIF has been generated from an entry in the Cambridge
# Structural Database, then it will include bibliographic, chemical,
# crystal, experimental, refinement or atomic coordinate data resulting
# from the CCDC's data processing and validation procedures.
#
#######################################################################

data_CSD_CIF_PIMVIT
_audit_creation_date 2018-07-26
_audit_creation_method CSD-ConQuest-V1
_database_code_CSD PIMVIT
_database_code_depnum_ccdc_archive 'CCDC 1561544'
_chemical_formula_sum 'C25 H24 N4 O6'
_chemical_formula_moiety
;
C25 H24 N4 O6
;
_journal_coden_Cambridge 1088
_journal_volume 29
_journal_year 2018
_journal_page_first 1897
_journal_name_full 'Synlett '
loop_
_publ_author_name
"R.Ramesh"
"M.Arivazhagan"
"J.G.Malecki"
"A.Lalitha"
_chemical_name_systematic
;
dimethyl 
6-amino-5-cyano-4-(3-nitrophenyl)-1-[4-(propan-2-yl)phenyl]-1,4-dihydropyridin
e-2,3-dicarboxylate
;
_cell_volume   1241.923
_exptl_crystal_colour 'pale yellow'
_exptl_crystal_density_diffrn 1.274
_exptl_crystal_description 'plate'
_diffrn_ambient_temperature 295
#These two values have been output from a single CSD field.
_refine_ls_R_factor_gt 0.0583
_refine_ls_wR_factor_gt 0.0583
_symmetry_cell_setting triclinic
_symmetry_space_group_name_H-M 'P -1'
_symmetry_Int_Tables_number 2
loop_
_symmetry_equiv_pos_site_id
_symmetry_equiv_pos_as_xyz
1 x,y,z
2 -x,-y,-z
_cell_length_a 10.5011(7)
_cell_length_b 11.4498(5)
_cell_length_c 12.0846(6)
_cell_angle_alpha 107.431(4)
_cell_angle_beta 106.798(5)
_cell_angle_gamma 103.616(5)
_cell_formula_units_Z 2
loop_
_atom_type_symbol
_atom_type_radius_bond
C 0.68
H 0.23
N 0.68
O 0.68
loop_
_atom_site_label
_atom_site_type_symbol
_atom_site_fract_x
_atom_site_fract_y
_atom_site_fract_z
O1 O 0.18816(14) 0.59266(15) 0.20697(14)
O2 O 0.20609(14) 0.79743(15) 0.22519(13)
O3 O 0.38157(15) 0.88267(16) 0.64537(13)
O4 O 0.20820(14) 0.76152(16) 0.45604(13)
O5 O 0.7356(3) 0.9377(2) 1.02240(17)
O6 O 0.7342(2) 0.7528(2) 1.02829(16)
N1 N 0.50324(15) 0.76964(16) 0.28738(13)
N2 N 0.73553(17) 0.83309(19) 0.29718(15)
H1 H 0.79600 0.79830 0.32380
H2 H 0.68660 0.78810 0.21790
N3 N 0.96146(18) 0.9991(2) 0.62275(17)
N4 N 0.7261(2) 0.8253(2) 0.97241(17)
C1 C 0.64852(18) 0.83199(18) 0.36098(16)
C2 C 0.69494(18) 0.88434(18) 0.48913(16)
C3 C 0.60014(17) 0.87379(17) 0.56185(15)
H3 H 0.61780 0.96230 0.61940
C4 C 0.44574(17) 0.81628(17) 0.47183(16)
C5 C 0.40649(18) 0.76938(17) 0.34555(16)
C6 C 0.63644(17) 0.79459(18) 0.64106(15)
C7 C 0.6462(2) 0.6737(2) 0.58780(18)
H4 H 0.62580 0.63820 0.50200
C8 C 0.6859(3) 0.6044(2) 0.6600(2)
H5 H 0.69360 0.52390 0.62260
C9 C 0.7142(2) 0.6544(2) 0.7870(2)
H6 H 0.74060 0.60870 0.83640
C10 C 0.7021(2) 0.7731(2) 0.83821(17)
C11 C 0.66550(19) 0.84593(19) 0.76878(16)
H7 H 0.66060 0.92740 0.80720
C12 C 0.45085(19) 0.73299(19) 0.15193(15)
C13 C 0.4413(2) 0.8286(2) 0.10499(18)
H8 H 0.47640 0.91610 0.15950
C14 C 0.3794(2) 0.7930(2) -0.02324(19)
H9 H 0.37420 0.85750 -0.05440
C15 C 0.3254(2) 0.6645(2) -0.10575(18)
C16 C 0.3407(2) 0.5700(2) -0.05762(19)
H10 H 0.30800 0.48280 -0.11240
C17 C 0.4048(2) 0.6045(2) 0.07201(18)
H11 H 0.41590 0.54110 0.10340
C18 C 0.84274(19) 0.9476(2) 0.56175(17)
C19 C 0.25281(19) 0.7074(2) 0.25221(16)
C20 C 0.0623(3) 0.7501(3) 0.1329(3)
H12 H 0.05570 0.69070 0.05440
H13 H 0.03800 0.82260 0.12150
H14 H -0.00220 0.70550 0.16180
C21 C 0.34401(19) 0.82447(18) 0.53377(17)
C22 C 0.1033(2) 0.7749(3) 0.5083(2)
H15 H 0.01710 0.76360 0.44370
H16 H 0.13780 0.86030 0.57420
H17 H 0.08470 0.70970 0.54210
C23 C 0.2438(3) 0.6276(3) -0.24525(19)
H18 H 0.26830 0.70860 -0.25920
C24 C 0.0853(3) 0.5852(3) -0.2735(2)
H19 H 0.05710 0.50960 -0.25500
H20 H 0.03350 0.56430 -0.36080
H21 H 0.06540 0.65510 -0.22250
C25 C 0.2835(4) 0.5350(4) -0.3302(2)
H22 H 0.38400 0.56930 -0.30900
H23 H 0.23330 0.52240 -0.41550
H24 H 0.25920 0.45280 -0.32170
#END
