
#######################################################################
#
#                 Cambridge Crystallographic Data Centre
#                                CCDC
#
#######################################################################
#
# If this CIF has been generated from an entry in the Cambridge
# Structural Database, then it will include bibliographic, chemical,
# crystal, experimental, refinement or atomic coordinate data resulting
# from the CCDC's data processing and validation procedures.
#
#######################################################################

data_CSD_CIF_PIMWUG
_audit_creation_date 2018-07-26
_audit_creation_method CSD-ConQuest-V1
_database_code_CSD PIMWUG
_database_code_depnum_ccdc_archive 'CCDC 964613'
_chemical_formula_sum 'C19 H21 N1 O3'
_chemical_formula_moiety
;
C19 H21 N1 O3
;
_journal_coden_Cambridge 2066
_journal_volume 3
_journal_year 2018
_journal_page_first 7621
_journal_name_full 'ACS Omega '
loop_
_publ_author_name
"M.G.Memeo"
"E.Valletta"
"B.Macchi"
"A.Porta"
"B.Bovio"
"M.Moiola"
"P.Quadrelli"
_chemical_name_systematic
;
((3R,5R)-5-hydroxy-3-phenylisoxazolidin-2-yl)(mesityl)methanone
;
_cell_volume   1689.831
_exptl_crystal_colour 'colorless'
_exptl_crystal_density_diffrn 1.224
_exptl_crystal_description 'prism'
_diffrn_ambient_temperature 293
#These two values have been output from a single CSD field.
_refine_ls_R_factor_gt 0.0487
_refine_ls_wR_factor_gt 0.0487
_symmetry_cell_setting monoclinic
_symmetry_space_group_name_H-M 'P 21/n'
_symmetry_Int_Tables_number 14
loop_
_symmetry_equiv_pos_site_id
_symmetry_equiv_pos_as_xyz
1 x,y,z
2 1/2-x,1/2+y,1/2-z
3 -x,-y,-z
4 -1/2+x,-1/2-y,-1/2+z
_cell_length_a 13.158(5)
_cell_length_b 7.581(5)
_cell_length_c 17.058(5)
_cell_angle_alpha 90
_cell_angle_beta 96.728(5)
_cell_angle_gamma 90
_cell_formula_units_Z 4
loop_
_atom_type_symbol
_atom_type_radius_bond
C 0.68
H 0.23
N 0.68
O 0.68
loop_
_atom_site_label
_atom_site_type_symbol
_atom_site_fract_x
_atom_site_fract_y
_atom_site_fract_z
O1 O 1.07796(9) -0.0915(2) 0.58950(6)
N1 N 1.02938(11) -0.0897(2) 0.65924(7)
C1 C 1.01515(14) -0.2723(2) 0.68728(9)
C2 C 1.0519(2) -0.3818(3) 0.62037(12)
C3 C 1.0458(2) -0.2565(2) 0.55185(10)
O2 O 0.94827(11) -0.2465(2) 0.51441(8)
C4 C 0.97753(12) 0.0562(2) 0.67391(9)
O3 O 0.98002(11) 0.19133(15) 0.63407(7)
C5 C 0.92000(12) 0.0424(2) 0.74431(9)
C6 C 0.81874(13) -0.0164(2) 0.73348(10)
C7 C 0.7686(2) -0.0412(2) 0.79997(12)
C8 C 0.8155(2) -0.0061(3) 0.87535(11)
C9 C 0.9145(2) 0.0589(2) 0.88364(11)
C10 C 0.96911(13) 0.0843(2) 0.81939(9)
C11 C 0.7649(2) -0.0509(3) 0.65260(13)
C12 C 0.7589(3) -0.0394(5) 0.9463(2)
C13 C 1.0774(2) 0.1507(3) 0.83019(14)
C14 C 1.07237(14) -0.3049(2) 0.76776(9)
C15 C 1.1781(2) -0.2828(3) 0.78030(15)
C16 C 1.2319(3) -0.3121(4) 0.8529(2)
C17 C 1.1820(5) -0.3644(5) 0.9132(2)
C18 C 1.0776(6) -0.3841(4) 0.9042(2)
C19 C 1.0205(2) -0.3549(3) 0.82949(12)
H1 H 0.9421(13) -0.2911(22) 0.6904(9)
H2 H 1.0977(14) -0.2768(24) 0.5162(11)
H3 H 1.1207(17) -0.4178(29) 0.6364(12)
H4 H 1.0135(17) -0.4781(35) 0.6096(14)
H5 H 0.9472(20) -0.1868(38) 0.4698(17)
H6 H 0.6955(14) -0.0882(26) 0.7934(11)
H7 H 0.9494(15) 0.0971(28) 0.9393(12)
H8 H 0.6985(20) -0.1091(36) 0.6538(14)
H9 H 0.7446(19) 0.059(4) 0.6320(15)
H10 H 0.8036(21) -0.1109(41) 0.6169(17)
H11 H 0.6977(42) -0.1035(79) 0.9271(31)
H12 H 0.7698(31) 0.0440(63) 0.9816(27)
H13 H 0.7930(33) -0.1452(67) 0.9734(25)
H14 H 1.0912(23) 0.2494(45) 0.7886(19)
H15 H 1.0954(20) 0.2098(38) 0.8777(17)
H16 H 1.1234(21) 0.0717(40) 0.8141(17)
H17 H 1.2152(21) -0.240(4) 0.7352(17)
H18 H 1.3122(26) -0.3212(44) 0.8649(19)
H19 H 1.2217(28) -0.3733(53) 0.9672(24)
H20 H 1.0337(37) -0.4122(72) 0.9267(29)
H21 H 0.9480(19) -0.3559(32) 0.8187(14)
#END
