
#######################################################################
#
#                 Cambridge Crystallographic Data Centre
#                                CCDC
#
#######################################################################
#
# If this CIF has been generated from an entry in the Cambridge
# Structural Database, then it will include bibliographic, chemical,
# crystal, experimental, refinement or atomic coordinate data resulting
# from the CCDC's data processing and validation procedures.
#
#######################################################################

data_CSD_CIF_PINBEW
_audit_creation_date 2018-07-26
_audit_creation_method CSD-ConQuest-V1
_database_code_CSD PINBEW
_database_code_depnum_ccdc_archive 'CCDC 1835985'
_chemical_formula_sum 'C17 H23 N1 O3'
_chemical_formula_moiety
;
C17 H23 N1 O3
;
_journal_coden_Cambridge 1336
_journal_volume 20
_journal_year 2018
_journal_page_first 4632
_journal_name_full 'Org.Lett. '
loop_
_publ_author_name
"A.K.Pandey"
"Dahye Kang"
"Sang Hoon Han"
"Heeyoung Lee"
"N.K.Mishra"
"Hyung Sik Kim"
"Young Hoon Jung"
"Sungwoo Hong"
"In Su Kim"
_chemical_name_systematic
;
methyl 
2-t-butyl-10-methyl-1,5-dihydro-1,4-methano-3,2-benzoxazepine-4(2H)-carboxylat
e
;
_cell_volume    796.706
_exptl_crystal_colour 'colorless'
_exptl_crystal_density_diffrn 1.206
_exptl_crystal_description 'block'
_diffrn_ambient_temperature 296
#These two values have been output from a single CSD field.
_refine_ls_R_factor_gt 0.0551
_refine_ls_wR_factor_gt 0.0551
_symmetry_cell_setting triclinic
_symmetry_space_group_name_H-M 'P -1'
_symmetry_Int_Tables_number 2
loop_
_symmetry_equiv_pos_site_id
_symmetry_equiv_pos_as_xyz
1 x,y,z
2 -x,-y,-z
_cell_length_a 6.8061(7)
_cell_length_b 8.1772(9)
_cell_length_c 15.3194(17)
_cell_angle_alpha 88.110(9)
_cell_angle_beta 77.577(6)
_cell_angle_gamma 73.199(6)
_cell_formula_units_Z 2
loop_
_atom_type_symbol
_atom_type_radius_bond
C 0.68
H 0.23
N 0.68
O 0.68
loop_
_atom_site_label
_atom_site_type_symbol
_atom_site_fract_x
_atom_site_fract_y
_atom_site_fract_z
C1 C 0.1604(2) 1.0071(2) 0.24592(10)
C2 C -0.0538(3) 1.0652(2) 0.28350(11)
H1 H -0.12830 0.98660 0.30190
C3 C -0.1572(3) 1.2384(3) 0.29385(12)
H2 H -0.30040 1.27570 0.31900
C4 C -0.0474(3) 1.3555(3) 0.26671(14)
H3 H -0.11560 1.47190 0.27480
C5 C 0.1644(3) 1.2992(2) 0.22734(13)
H4 H 0.23730 1.37890 0.20880
C6 C 0.2705(3) 1.1259(2) 0.21499(11)
C7 C 0.4982(3) 1.0667(2) 0.16545(12)
H5 H 0.58050 1.12140 0.19240
H6 H 0.50860 1.10060 0.10370
C8 C 0.5876(2) 0.8722(2) 0.16818(10)
C9 C 0.4316(2) 0.7854(2) 0.14452(10)
H7 H 0.36340 0.85020 0.09880
C10 C 0.2770(2) 0.8182(2) 0.2354(1)
H8 H 0.17800 0.75030 0.23970
O1 O 0.59853(17) 0.82893(15) 0.25870(7)
C11 C 0.5228(3) 0.5985(2) 0.11481(12)
H9 H 0.58750 0.53500 0.16010
H10 H 0.62610 0.58810 0.06000
H11 H 0.41260 0.55420 0.10540
C12 C 0.8071(3) 0.8033(2) 0.11061(10)
C13 C 1.0104(3) 0.7868(3) -0.03587(13)
H12 H 1.12240 0.80110 -0.01080
H13 H 1.00820 0.84640 -0.09090
H14 H 1.03230 0.66740 -0.04730
C14 C 0.3668(3) 0.7843(2) 0.39241(10)
C15 C 0.5587(3) 0.6841(3) 0.42867(12)
H15 H 0.59630 0.56580 0.41070
H16 H 0.52560 0.69460 0.49280
H17 H 0.67440 0.72910 0.40530
C16 C 0.1863(3) 0.7075(3) 0.42551(13)
H18 H 0.06520 0.77220 0.40400
H19 H 0.15310 0.71060 0.48970
H20 H 0.22670 0.59120 0.40370
C17 C 0.3076(3) 0.9712(3) 0.42346(12)
H21 H 0.41580 1.02070 0.39470
H22 H 0.29270 0.97760 0.48710
H23 H 0.17710 1.03270 0.40810
N1 N 0.4277(2) 0.74946(17) 0.29372(8)
O2 O 0.9554(2) 0.71071(19) 0.13425(9)
O3 O 0.81196(19) 0.85534(17) 0.02656(8)
#END
