
#######################################################################
#
#                 Cambridge Crystallographic Data Centre
#                                CCDC
#
#######################################################################
#
# If this CIF has been generated from an entry in the Cambridge
# Structural Database, then it will include bibliographic, chemical,
# crystal, experimental, refinement or atomic coordinate data resulting
# from the CCDC's data processing and validation procedures.
#
#######################################################################

data_CSD_CIF_PINJUR
_audit_creation_date 1994-11-22
_audit_creation_method CSD-ConQuest-V1
_database_code_CSD PINJUR
_database_code_depnum_ccdc_archive 'CCDC 1234054'
_chemical_formula_sum 'C17 H14 N2 O8'
_chemical_formula_moiety
;
C17 H14 N2 O8
;
_journal_coden_Cambridge 34
_journal_volume 30
_journal_year 1993
_journal_page_first 1557
_journal_name_full 'J.Heterocycl.Chem. '
loop_
_publ_author_name
"M.Eto"
"K.Harano"
"Y.Yoshitake"
"T.Hisano"
_chemical_name_systematic
;
6,8-Dimethyl-4,5-diaza-3,17-dioxa-pentacyclo(8.6.1.0^2,9^.0^4,8^.0^11,16^)hept
adeca-5,11,13,15-tetraene-6,8-dicarboxylate-5-oxide-7-one
;
_chemical_melting_point 442.15
_cell_volume   1674.417
_exptl_crystal_colour 'pale yellow'
_exptl_crystal_density_diffrn 1.492
_exptl_special_details
;
Melting point range 442.15-443.15K

;
_diffrn_ambient_temperature ?
_diffrn_special_details
;
The study was carried out at room temperature,in the range 283-303K

;
#These two values have been output from a single CSD field.
_refine_ls_R_factor_gt 0.049
_refine_ls_wR_factor_gt 0.049
_symmetry_cell_setting monoclinic
_symmetry_space_group_name_H-M 'P 21/n'
_symmetry_Int_Tables_number 14
loop_
_symmetry_equiv_pos_site_id
_symmetry_equiv_pos_as_xyz
1 x,y,z
2 1/2-x,1/2+y,1/2-z
3 -x,-y,-z
4 -1/2+x,-1/2-y,-1/2+z
_cell_length_a 12.747(5)
_cell_length_b 10.596(11)
_cell_length_c 12.401(5)
_cell_angle_alpha 90
_cell_angle_beta 91.47(3)
_cell_angle_gamma 90
_cell_formula_units_Z 4
loop_
_atom_type_symbol
_atom_type_radius_bond
C 0.68
N 0.68
O 0.68
loop_
_atom_site_label
_atom_site_type_symbol
_atom_site_fract_x
_atom_site_fract_y
_atom_site_fract_z
C1 C 0.5717(2) -0.0295(2) 0.6727(2)
C2 C 0.6060(2) -0.0343(2) 0.7850(2)
N1 N 0.6828(2) 0.0476(2) 0.8004(2)
N2 N 0.7254(2) 0.0913(2) 0.6957(2)
C3 C 0.6359(2) 0.0734(2) 0.6189(2)
O1 O 0.5033(2) -0.0886(2) 0.6277(2)
C4 C 0.5654(2) -0.1052(3) 0.8773(2)
O2 O 0.6067(2) -0.1083(3) 0.9638(2)
O3 O 0.4789(2) -0.1652(2) 0.8487(2)
C5 C 0.4314(3) -0.2400(4) 0.9334(3)
O4 O 0.7291(2) 0.0841(2) 0.8813(2)
O5 O 0.7487(1) 0.2189(2) 0.7021(2)
C6 C 0.6854(3) 0.0294(3) 0.5142(2)
O6 O 0.6926(3) -0.0768(2) 0.4867(2)
O7 O 0.7228(2) 0.1279(2) 0.4634(2)
C7 C 0.7766(4) 0.1047(5) 0.3637(4)
C8 C 0.6594(2) 0.2936(2) 0.6654(2)
C9 C 0.5964(2) 0.3454(3) 0.7595(2)
C10 C 0.5153(2) 0.4318(2) 0.7105(3)
C11 C 0.5041(3) 0.5605(3) 0.7053(3)
C12 C 0.4156(3) 0.6070(3) 0.6517(2)
C13 C 0.3442(3) 0.5278(3) 0.6013(2)
C14 C 0.3588(2) 0.3974(3) 0.6031(2)
C15 C 0.4434(2) 0.3519(2) 0.6603(2)
C16 C 0.4841(2) 0.2207(2) 0.6830(2)
C17 C 0.5802(2) 0.2026(2) 0.6108(2)
O8 O 0.5347(2) 0.2370(2) 0.7877(1)
#END
