
#######################################################################
#
#                 Cambridge Crystallographic Data Centre
#                                CCDC
#
#######################################################################
#
# If this CIF has been generated from an entry in the Cambridge
# Structural Database, then it will include bibliographic, chemical,
# crystal, experimental, refinement or atomic coordinate data resulting
# from the CCDC's data processing and validation procedures.
#
#######################################################################

data_CSD_CIF_PINJUS
_audit_creation_date 1994-11-22
_audit_creation_method CSD-ConQuest-V1
_database_code_CSD PINJUS
_database_code_depnum_ccdc_archive 'CCDC 1234055; CCDC 400143'
_database_code_depnum_ccdc_fiz 'CSD 400143'
_chemical_formula_sum 'C17 H16 N6 O2'
_chemical_formula_moiety
;
C17 H16 N6 O2
;
_journal_coden_Cambridge 34
_journal_volume 30
_journal_year 1993
_journal_page_first 1607
_journal_name_full 'J.Heterocycl.Chem. '
loop_
_publ_author_name
"B.Riemer"
"A.Hassoun"
"J.Liebscher"
"P.G.Jones"
"A.Chrapkowski"
_chemical_name_systematic
;
Methyl-(2-((4-nitrophenyl)hydrazono)-4-phenyl-2H-pyrimidin-1-yl) amine
;
_chemical_melting_point 451.15
_cell_volume   1601.908
_exptl_crystal_colour 'purple'
_exptl_crystal_density_diffrn 1.395
_exptl_special_details
;
Melting point range 451.15-452.15K

;
_diffrn_ambient_temperature 143
#These two values have been output from a single CSD field.
_refine_ls_R_factor_gt 0.048
_refine_ls_wR_factor_gt 0.048
_symmetry_cell_setting monoclinic
_symmetry_space_group_name_H-M 'P 21/n'
_symmetry_Int_Tables_number 14
loop_
_symmetry_equiv_pos_site_id
_symmetry_equiv_pos_as_xyz
1 x,y,z
2 1/2-x,1/2+y,1/2-z
3 -x,-y,-z
4 -1/2+x,-1/2-y,-1/2+z
_cell_length_a 10.102(2)
_cell_length_b 14.959(3)
_cell_length_c 10.651(2)
_cell_angle_alpha 90
_cell_angle_beta 95.58(2)
_cell_angle_gamma 90
_cell_formula_units_Z 4
loop_
_atom_type_symbol
_atom_type_radius_bond
C 0.68
H 0.23
N 0.68
O 0.68
loop_
_atom_site_label
_atom_site_type_symbol
_atom_site_fract_x
_atom_site_fract_y
_atom_site_fract_z
N1 N 0.5776(2) 0.42171(11) 0.5946(2)
H1 H 0.6186(2) 0.41755(11) 0.5256(2)
N2 N 0.6048(2) 0.49161(12) 0.6781(2)
N3 N 0.7266(2) 0.61739(12) 0.7299(2)
N4 N 0.7643(2) 0.53744(11) 0.5427(2)
N5 N 0.6522(2) 0.63272(14) 0.8344(2)
H2 H 0.5699(17) 0.6234(16) 0.8007(22)
N6 N 0.1947(2) 0.17251(13) 0.6946(2)
O1 O 0.1531(2) 0.11968(12) 0.6096(2)
O2 O 0.1488(2) 0.17284(12) 0.7989(2)
C1 C 0.4871(2) 0.36008(13) 0.6210(2)
C2 C 0.4532(2) 0.28953(14) 0.5353(2)
H3 H 0.4970(2) 0.28440(14) 0.4606(2)
C3 C 0.3585(2) 0.22918(14) 0.5593(2)
H4 H 0.3340(2) 0.18325(14) 0.4999(2)
C4 C 0.2968(2) 0.23444(14) 0.6712(2)
C5 C 0.3311(2) 0.30188(15) 0.7578(2)
H5 H 0.2896(2) 0.30483(15) 0.8340(2)
C6 C 0.4245(2) 0.36410(15) 0.7336(2)
H6 H 0.4473(2) 0.41031(15) 0.7930(2)
C7 C 0.6974(2) 0.54526(14) 0.6481(2)
C8 C 0.8234(2) 0.6756(2) 0.7083(2)
H7 H 0.8436(2) 0.7236(2) 0.7654(2)
C9 C 0.8920(2) 0.66664(15) 0.6069(2)
H8 H 0.9617(2) 0.70690(15) 0.5927(2)
C10 C 0.8575(2) 0.59535(14) 0.5213(2)
C11 C 0.6911(3) 0.5715(2) 0.9381(2)
H9 H 0.6282(9) 0.5766(8) 1.0022(7)
H10 H 0.7807(7) 0.5867(7) 0.9756(10)
H11 H 0.6906(16) 0.5101(2) 0.9061(4)
C12 C 0.9219(2) 0.58413(14) 0.4037(2)
C13 C 1.0200(2) 0.6421(2) 0.3694(2)
H12 H 1.0497(2) 0.6895(2) 0.4244(2)
C14 C 1.0744(3) 0.6316(2) 0.2572(2)
H13 H 1.1404(3) 0.6722(2) 0.2349(2)
C15 C 1.0344(3) 0.5628(2) 0.1767(2)
H14 H 1.0729(3) 0.5556(2) 0.0994(2)
C16 C 0.9380(2) 0.5047(2) 0.2092(2)
H15 H 0.9096(2) 0.4571(2) 0.1539(2)
C17 C 0.8823(2) 0.51482(15) 0.3212(2)
H16 H 0.8160(2) 0.47400(15) 0.3426(2)
#END
