
#######################################################################
#
#                 Cambridge Crystallographic Data Centre
#                                CCDC
#
#######################################################################
#
# If this CIF has been generated from an entry in the Cambridge
# Structural Database, then it will include bibliographic, chemical,
# crystal, experimental, refinement or atomic coordinate data resulting
# from the CCDC's data processing and validation procedures.
#
#######################################################################

data_CSD_CIF_PINTOV
_audit_creation_date 1998-11-13
_audit_creation_method CSD-ConQuest-V1
_database_code_CSD PINTOV
_database_code_depnum_ccdc_archive 'CCDC 100844'
_chemical_formula_sum 'C44 H52 N4 O12'
_chemical_formula_moiety
;
C44 H52 N4 O12
;
_journal_coden_Cambridge 1220
_journal_volume 4
_journal_year 1998
_journal_page_first 1225
_journal_name_full 'Chem.-Eur.J. '
loop_
_publ_author_name
"P.J.A.Kenis"
"O.F.J.Noordman"
"H.Schonherr"
"E.G.Kerver"
"B.H.M.Snellink-Ruel"
"G.J.van Hummel"
"S.Harkema"
"C.P.J.M.van der Vorst"
"J.Hare"
"S.J.Picken"
"J.F.J.Engbersen"
"N.F.van Hulst"
"G.J.Vancso"
"D.N.Reinhoudt"
_chemical_name_systematic
;
5,11,17,23-Tetranitro-25,26,27,28-tetraiosbutoxycalix(4)arene
;
_chemical_melting_point 583.15
_cell_volume   8763.468
_exptl_crystal_colour 'yellow'
_exptl_crystal_density_diffrn 1.26
_exptl_special_details
;
Melts with decomposition.
cone conformation

;
_exptl_crystal_description 'prism'
_exptl_crystal_preparation 'dichloromethane/methanol'
_diffrn_ambient_temperature 140
#These two values have been output from a single CSD field.
_refine_ls_R_factor_gt 0.087
_refine_ls_wR_factor_gt 0.087
_symmetry_cell_setting orthorhombic
_symmetry_space_group_name_H-M 'P 21 21 21'
_symmetry_Int_Tables_number 19
loop_
_symmetry_equiv_pos_site_id
_symmetry_equiv_pos_as_xyz
1 x,y,z
2 1/2-x,-y,1/2+z
3 1/2+x,1/2-y,-z
4 -x,1/2+y,1/2-z
_cell_length_a 19.461(2)
_cell_length_b 21.074(2)
_cell_length_c 21.368(2)
_cell_angle_alpha 90
_cell_angle_beta 90
_cell_angle_gamma 90
_cell_formula_units_Z 8
loop_
_atom_type_symbol
_atom_type_radius_bond
C 0.68
N 0.68
O 0.68
loop_
_atom_site_label
_atom_site_type_symbol
_atom_site_fract_x
_atom_site_fract_y
_atom_site_fract_z
O1 O 1.6294(5) 0.1480(5) 1.5984(4)
O2 O 1.5497(4) 0.1270(5) 1.5296(5)
O3 O 1.8096(4) 0.1197(3) 1.3592(3)
O4 O 1.6012(4) 0.3686(3) 1.2536(4)
O5 O 1.5678(4) 0.3177(4) 1.3344(4)
O6 O 1.7569(3) 0.1127(3) 1.2115(3)
O7 O 1.8321(6) 0.4661(4) 1.1029(4)
O8 O 1.9300(5) 0.4867(4) 1.1456(5)
O9 O 1.8861(3) 0.2055(3) 1.2301(3)
O10 O 1.7239(6) 0.3921(5) 1.4416(5)
O11 O 1.7514(5) 0.4233(4) 1.3511(4)
O12 O 1.9607(3) 0.2025(3) 1.3883(3)
N1 N 1.6095(5) 0.1360(4) 1.5442(5)
N2 N 1.6032(4) 0.3230(4) 1.2880(4)
N3 N 1.8822(6) 0.4515(4) 1.1343(4)
N4 N 1.7564(5) 0.3877(4) 1.3933(5)
C1 C 1.6625(5) 0.1346(5) 1.4953(5)
C2 C 1.7287(5) 0.1555(5) 1.5102(5)
C3 C 1.7779(5) 0.1517(4) 1.4633(4)
C4 C 1.7604(5) 0.1259(4) 1.4049(4)
C5 C 1.6932(5) 0.1125(5) 1.3896(5)
C6 C 1.6422(6) 0.1166(5) 1.4373(5)
C7 C 1.8502(9) 0.0677(7) 1.3490(8)
C8 C 1.901(1) 0.004(1) 1.430(1)
C9 C 1.849(1) 0.0168(8) 1.396(1)
C10 C 1.858(3) -0.039(1) 1.348(2)
C11 C 1.6729(6) 0.0980(5) 1.3219(5)
C12 C 1.6482(5) 0.2695(5) 1.2722(4)
C13 C 1.6417(5) 0.2143(5) 1.3045(4)
C14 C 1.6807(5) 0.1604(5) 1.2845(5)
C15 C 1.7219(5) 0.1662(5) 1.2324(5)
C16 C 1.7312(5) 0.2246(5) 1.2014(5)
C17 C 1.6933(5) 0.2774(5) 1.2209(5)
C18 C 1.7201(7) 0.0811(6) 1.1613(6)
C19 C 1.7633(9) 0.0331(7) 1.1308(7)
C20 C 1.781(1) -0.0215(7) 1.1767(9)
C21 C 1.7221(9) 0.0100(7) 1.0728(6)
C22 C 1.7832(5) 0.2334(5) 1.1473(5)
C23 C 1.8823(6) 0.3860(5) 1.1596(5)
C24 C 1.9313(5) 0.3733(5) 1.2079(5)
C25 C 1.9326(5) 0.3130(5) 1.2331(5)
C26 C 1.8360(5) 0.2825(5) 1.1636(5)
C27 C 1.8880(5) 0.2660(4) 1.2094(4)
C28 C 1.8334(5) 0.3429(5) 1.1400(5)
C29 C 1.9513(5) 0.1699(5) 1.2329(5)
C30 C 1.9433(6) 0.1098(5) 1.1924(5)
C31 C 2.0028(6) 0.0654(6) 1.2106(6)
C32 C 1.9459(6) 0.1261(6) 1.1218(5)
C33 C 1.9683(5) 0.3022(5) 1.2953(5)
C34 C 1.8084(5) 0.3370(5) 1.3917(5)
C35 C 1.8612(5) 0.3447(5) 1.3480(5)
C36 C 1.9131(5) 0.2980(4) 1.3464(4)
C37 C 1.9100(5) 0.2475(4) 1.3891(4)
C38 C 1.8541(5) 0.2399(4) 1.4308(4)
C39 C 1.8033(5) 0.2866(5) 1.4337(5)
C40 C 2.0173(5) 0.2201(5) 1.4297(5)
C41 C 2.0684(5) 0.1670(6) 1.4297(6)
C42 C 2.1238(7) 0.1844(7) 1.4774(7)
C43 C 2.1007(7) 0.1607(8) 1.3646(6)
C44 C 1.8487(5) 0.1815(5) 1.4728(5)
O13 O 1.5285(4) -0.1406(4) 1.0572(4)
O14 O 1.5969(4) -0.1147(4) 1.1321(4)
O15 O 1.3684(3) 0.0863(3) 1.1750(3)
O16 O 1.6254(4) 0.1751(4) 1.0700(4)
O17 O 1.6184(4) 0.2751(4) 1.0857(4)
O18 O 1.4143(3) 0.1823(3) 1.2913(3)
O19 O 1.3965(5) 0.4806(3) 1.0106(4)
O20 O 1.4512(4) 0.5001(3) 1.0984(5)
O21 O 1.3093(4) 0.2454(3) 1.1701(3)
O22 O 1.5409(4) 0.1515(4) 0.9393(4)
O23 O 1.5246(4) 0.2498(4) 0.9610(5)
O24 O 1.2475(3) 0.1333(3) 1.0559(3)
N5 N 1.5453(4) -0.1063(4) 1.1015(4)
N6 N 1.6013(4) 0.2210(4) 1.0968(4)
N7 N 1.4140(5) 0.4669(4) 1.0640(5)
N8 N 1.5059(4) 0.1935(4) 0.9616(4)
C45 C 1.5008(5) -0.0524(4) 1.1186(4)
C46 C 1.4459(5) -0.0390(4) 1.0791(4)
C47 C 1.4003(5) 0.0099(4) 1.0968(4)
C48 C 1.4107(5) 0.0397(4) 1.1538(4)
C49 C 1.4715(5) 0.0290(4) 1.1898(4)
C50 C 1.5153(5) -0.0188(5) 1.1720(5)
C51 C 1.2969(5) 0.0691(5) 1.1864(5)
C52 C 1.2826(5) 0.0602(5) 1.2563(5)
C53 C 1.3128(6) 0.0003(5) 1.2825(6)
C54 C 1.2021(6) 0.0572(6) 1.2614(6)
C55 C 1.4854(5) 0.0732(4) 1.2447(5)
C56 C 1.5505(5) 0.2107(5) 1.1468(4)
C57 C 1.5425(5) 0.1497(4) 1.1702(4)
C58 C 1.4974(5) 0.1401(4) 1.2193(4)
C59 C 1.4598(5) 0.1916(4) 1.2426(4)
C60 C 1.4657(5) 0.2524(5) 1.2169(5)
C61 C 1.5132(5) 0.2618(5) 1.1674(5)
C62 C 1.4432(6) 0.1982(6) 1.3511(4)
C63 C 1.3914(7) 0.1819(9) 1.4025(7)
C64 C 1.3890(9) 0.1156(7) 1.4172(8)
C65 C 1.3182(6) 0.2075(8) 1.3876(6)
C66 C 1.4177(5) 0.3079(5) 1.2363(5)
C67 C 1.3883(5) 0.4083(5) 1.0915(5)
C68 C 1.3431(5) 0.3713(5) 1.0553(5)
C69 C 1.3180(5) 0.3143(4) 1.0815(4)
C70 C 1.3358(5) 0.2989(4) 1.1437(4)
C71 C 1.3854(5) 0.3335(5) 1.1759(5)
C72 C 1.4107(5) 0.3910(5) 1.1508(5)
C73 C 1.2559(7) 0.2568(9) 1.2164(8)
C74 C 1.1902(6) 0.2820(5) 1.1923(6)
C75 C 1.150(1) 0.3132(8) 1.2444(9)
C76 C 1.1433(8) 0.2268(9) 1.1703(8)
C77 C 1.2796(5) 0.2665(5) 1.0410(5)
C78 C 1.4403(5) 0.1789(4) 0.9907(4)
C79 C 1.4262(5) 0.1154(5) 1.0057(4)
C80 C 1.3626(5) 0.1004(4) 1.0293(4)
C81 C 1.3131(5) 0.1491(4) 1.0357(4)
C82 C 1.3297(5) 0.2128(4) 1.0250(4)
C83 C 1.3949(5) 0.2276(4) 1.0020(5)
C84 C 1.2021(5) 0.1164(6) 1.0029(5)
C85 C 1.1342(6) 0.0933(6) 1.0300(7)
C86 C 1.0877(7) 0.0778(8) 0.9729(8)
C87 C 1.1412(7) 0.0339(7) 1.0692(7)
C88 C 1.3470(5) 0.0317(4) 1.0493(4)
#END
