
#######################################################################
#
#                 Cambridge Crystallographic Data Centre
#                                CCDC
#
#######################################################################
#
# If this CIF has been generated from an entry in the Cambridge
# Structural Database, then it will include bibliographic, chemical,
# crystal, experimental, refinement or atomic coordinate data resulting
# from the CCDC's data processing and validation procedures.
#
#######################################################################

data_CSD_CIF_PINXAL
_audit_creation_date 1994-11-22
_audit_creation_method CSD-ConQuest-V1
_database_code_CSD PINXAL
_chemical_formula_sum 'C2 H2 N2 O2'
_chemical_formula_moiety
;
C2 H2 N2 O2
;
_journal_coden_Cambridge 1135
_journal_year 1994
_journal_page_first 7
_journal_name_full 'Mendeleev Commun. '
loop_
_publ_author_name
"T.I.Godovikova"
"S.P.Golova"
"Y.A.Strelenko"
"M.Yu.Antipin"
"Y.T.Struchkov"
"L.I.Khmel'nitskii"
_chemical_name_systematic
;
Furazan-N-oxide
;
_chemical_melting_point 286.15
_cell_volume    346.334
_exptl_crystal_density_diffrn 1.65
_diffrn_ambient_temperature 183.15
#These two values have been output from a single CSD field.
_refine_ls_R_factor_gt 0.035
_refine_ls_wR_factor_gt 0.035
_symmetry_cell_setting monoclinic
_symmetry_space_group_name_H-M 'P 21/n'
_symmetry_Int_Tables_number 14
loop_
_symmetry_equiv_pos_site_id
_symmetry_equiv_pos_as_xyz
1 x,y,z
2 1/2-x,1/2+y,1/2-z
3 -x,-y,-z
4 -1/2+x,-1/2-y,-1/2+z
_cell_length_a 8.249(2)
_cell_length_b 5.004(2)
_cell_length_c 8.675(2)
_cell_angle_alpha 90
_cell_angle_beta 104.72(2)
_cell_angle_gamma 90
_cell_formula_units_Z 4
loop_
_atom_type_symbol
_atom_type_radius_bond
C 0.68
H 0.23
N 0.68
O 0.68
loop_
_atom_site_label
_atom_site_type_symbol
_atom_site_fract_x
_atom_site_fract_y
_atom_site_fract_z
O1 O 0.5918(1) 0.1943(2) 0.8996(1)
O2 O 0.5896(1) -0.1263(2) 0.7122(1)
N1 N 0.6557(1) -0.0501(2) 0.8498(1)
N2 N 0.6823(2) 0.2437(2) 1.0539(1)
C1 C 0.7741(2) -0.1348(2) 0.9694(1)
C2 C 0.7881(2) 0.0498(2) 1.0936(1)
H1 H 0.866(2) 0.048(4) 1.199(2)
H2 H 0.834(2) -0.288(4) 0.965(2)
#END
