
#######################################################################
#
#                 Cambridge Crystallographic Data Centre
#                                CCDC
#
#######################################################################
#
# If this CIF has been generated from an entry in the Cambridge
# Structural Database, then it will include bibliographic, chemical,
# crystal, experimental, refinement or atomic coordinate data resulting
# from the CCDC's data processing and validation procedures.
#
#######################################################################

data_CSD_CIF_PIPNFP
_audit_creation_date 1978-09-01
_audit_creation_method CSD-ConQuest-V1
_database_code_CSD PIPNFP
_database_code_depnum_ccdc_archive 'CCDC 1234220'
_chemical_formula_sum 'C18 H18 N2 O4'
_chemical_formula_moiety
;
C18 H18 N2 O4
;
_journal_coden_Cambridge 189
_journal_volume 7
_journal_year 1978
_journal_page_first 207
_journal_name_full 'Cryst.Struct.Commun. '
loop_
_publ_author_name
"A.Carpy"
"J.M.Leger"
"A.Nuhrich"
_chemical_name_systematic
;
1-(4-Piperidylphenyl)-3-(5-nitro-2-furanyl)-2-propen-1-one
;
_cell_volume   1611.461
_diffrn_ambient_temperature ?
_diffrn_special_details
;
The study was carried out at room temperature,in the range 283-303K

;
#These two values have been output from a single CSD field.
_refine_ls_R_factor_gt 0.06
_refine_ls_wR_factor_gt 0.06
_symmetry_cell_setting monoclinic
_symmetry_space_group_name_H-M 'P 21/c'
_symmetry_Int_Tables_number 14
loop_
_symmetry_equiv_pos_site_id
_symmetry_equiv_pos_as_xyz
1 x,y,z
2 -x,1/2+y,1/2-z
3 -x,-y,-z
4 x,-1/2-y,-1/2+z
_cell_length_a 20.019(2)
_cell_length_b 7.195(2)
_cell_length_c 11.491(1)
_cell_angle_alpha 90
_cell_angle_beta 103.19(1)
_cell_angle_gamma 90
_cell_formula_units_Z 4
loop_
_atom_type_symbol
_atom_type_radius_bond
C 0.68
H 0.23
N 0.68
O 0.68
loop_
_atom_site_label
_atom_site_type_symbol
_atom_site_fract_x
_atom_site_fract_y
_atom_site_fract_z
C1 C -0.38340 -0.33090 -0.32890
C2 C -0.36140 -0.35760 -0.43450
C3 C -0.29460 -0.40240 -0.43410
C4 C -0.24580 -0.43040 -0.32670
C5 C -0.26800 -0.40820 -0.21920
C6 C -0.33510 -0.36000 -0.22110
C7 C -0.45260 -0.27110 -0.32350
O1 O -0.46820 -0.23730 -0.22750
C8 C -0.50510 -0.24720 -0.43830
C9 C -0.56670 -0.17600 -0.43860
C10 C -0.61800 -0.15180 -0.54850
C11 C -0.61540 -0.16540 -0.66600
C12 C -0.68340 -0.12720 -0.73080
C13 C -0.72060 -0.09010 -0.64950
O2 O -0.68280 -0.10520 -0.53630
N1 N -0.79070 -0.04230 -0.66340
O3 O -0.81320 -0.01870 -0.57580
O4 O -0.82420 -0.02720 -0.76630
N2 N -0.17900 -0.48200 -0.32550
C14 C -0.12750 -0.46660 -0.21390
C15 C -0.05960 -0.52810 -0.21280
C16 C -0.03320 -0.50960 -0.32380
C17 C -0.08830 -0.54720 -0.43330
C18 C -0.15590 -0.47740 -0.43740
H1 H -0.39400 -0.34500 -0.51400
H2 H -0.27900 -0.41100 -0.51000
H3 H -0.23400 -0.42000 -0.14100
H4 H -0.35000 -0.34700 -0.14200
H5 H -0.49200 -0.28700 -0.51900
H6 H -0.57900 -0.14000 -0.36100
H7 H -0.57400 -0.20000 -0.70000
H8 H -0.69800 -0.12000 -0.81600
H9 H -0.14400 -0.54400 -0.15000
H10 H -0.12200 -0.34200 -0.18800
H11 H -0.06100 -0.65700 -0.19400
H12 H -0.02800 -0.46800 -0.14500
H13 H 0.00700 -0.59800 -0.32500
H14 H -0.02200 -0.37500 -0.33600
H15 H -0.09200 -0.67000 -0.44200
H16 H -0.07300 -0.49600 -0.51100
H17 H -0.18900 -0.55100 -0.50000
H18 H -0.15500 -0.34500 -0.46400
#END
