
#######################################################################
#
#                 Cambridge Crystallographic Data Centre
#                                CCDC
#
#######################################################################
#
# If this CIF has been generated from an entry in the Cambridge
# Structural Database, then it will include bibliographic, chemical,
# crystal, experimental, refinement or atomic coordinate data resulting
# from the CCDC's data processing and validation procedures.
#
#######################################################################

data_CSD_CIF_PIQQAH
_audit_creation_date 1998-11-13
_audit_creation_method CSD-ConQuest-V1
_database_code_CSD PIQQAH
_database_code_depnum_ccdc_archive 'CCDC 1234311; CCDC 402724'
_database_code_depnum_ccdc_fiz 'CSD 402724'
_chemical_formula_sum 'C18 H23 N1 O2'
_chemical_formula_moiety
;
C18 H23 N1 O2
;
_journal_coden_Cambridge 1267
_journal_volume 212
_journal_year 1997
_journal_page_first 441
_journal_name_full 'Z.Kristallogr.-New Cryst.Struct. '
loop_
_publ_author_name
"P.Merino"
"E.Castillo"
"F.L.Merchan"
"T.Tejero"
_chemical_name_systematic
;
(2S*,3R*)-N-Benzyl-2-benzyloxy-3-(hydroxyamino)butane
;
_chemical_melting_point 385
_cell_volume   1588.739
_exptl_crystal_colour 'colorless'
_exptl_crystal_density_diffrn 1.193
_exptl_crystal_description 'block'
_exptl_crystal_preparation 'hexane/diethyl ether'
_diffrn_ambient_temperature 173
#These two values have been output from a single CSD field.
_refine_ls_R_factor_gt 0.0864
_refine_ls_wR_factor_gt 0.0864
_symmetry_cell_setting monoclinic
_symmetry_space_group_name_H-M 'P 21/c'
_symmetry_Int_Tables_number 14
loop_
_symmetry_equiv_pos_site_id
_symmetry_equiv_pos_as_xyz
1 x,y,z
2 -x,1/2+y,1/2-z
3 -x,-y,-z
4 x,-1/2-y,-1/2+z
_cell_length_a 14.365(5)
_cell_length_b 5.952(3)
_cell_length_c 19.001(9)
_cell_angle_alpha 90
_cell_angle_beta 102.06(3)
_cell_angle_gamma 90
_cell_formula_units_Z 4
loop_
_atom_type_symbol
_atom_type_radius_bond
C 0.68
H 0.23
N 0.68
O 0.68
loop_
_atom_site_label
_atom_site_type_symbol
_atom_site_fract_x
_atom_site_fract_y
_atom_site_fract_z
O1 O 0.9367(3) 0.1881(7) 0.9520(2)
H1 H 0.9838(23) 0.1993(16) 0.9864(17)
O2 O 0.6904(2) 0.0055(7) 0.8681(2)
N1 N 0.9052(3) -0.0453(8) 0.9447(2)
C1 C 0.7838(4) -0.3023(10) 0.9741(3)
H2 H 0.8376(4) -0.3942(10) 0.9984(3)
H3 H 0.7618(4) -0.3559(10) 0.9247(3)
H4 H 0.7318(4) -0.3138(10) 1.0001(3)
C2 C 0.8153(3) -0.0564(10) 0.9729(3)
H5 H 0.8326(3) -0.0071(10) 1.0243(3)
C3 C 0.7356(3) 0.1004(10) 0.9358(3)
H6 H 0.7644(3) 0.2477(10) 0.9267(3)
C4 C 0.6641(4) 0.1413(12) 0.9834(3)
H7 H 0.6138(4) 0.2420(12) 0.9586(3)
H8 H 0.6965(4) 0.2102(12) 1.0288(3)
H9 H 0.6359(4) -0.0021(12) 0.9934(3)
C5 C 0.6417(4) 0.1655(11) 0.8187(3)
H10 H 0.6824(4) 0.2997(11) 0.8189(3)
H11 H 0.5829(4) 0.2131(11) 0.8341(3)
C6 C 0.6164(4) 0.0729(10) 0.7448(3)
C7 C 0.5556(4) 0.1990(12) 0.6907(3)
H12 H 0.5280(4) 0.3345(12) 0.7031(3)
C8 C 0.5367(4) 0.1284(12) 0.6219(3)
H13 H 0.4967(4) 0.2167(12) 0.5863(3)
C9 C 0.5746(4) -0.0718(12) 0.6017(3)
H14 H 0.5611(4) -0.1190(12) 0.5528(3)
C10 C 0.6317(4) -0.1993(11) 0.6538(3)
H15 H 0.6569(4) -0.3376(11) 0.6411(3)
C11 C 0.6527(4) -0.1274(11) 0.7244(3)
H16 H 0.6928(4) -0.2167(11) 0.7597(3)
C12 C 0.8953(4) -0.0983(11) 0.8684(3)
H17 H 0.8614(4) 0.0254(11) 0.8389(3)
H18 H 0.8572(4) -0.2371(11) 0.8569(3)
C13 C 0.9930(4) -0.1312(10) 0.8504(3)
C14 C 1.0344(4) 0.0378(11) 0.8178(3)
H19 H 1.0014(4) 0.1756(11) 0.8061(3)
C15 C 1.1249(4) 0.0083(11) 0.8017(3)
H20 H 1.1529(4) 0.1238(11) 0.7785(3)
C16 C 1.1726(4) -0.1929(12) 0.8204(3)
H21 H 1.2344(4) -0.2129(12) 0.8109(3)
C17 C 1.1317(4) -0.3649(11) 0.8526(3)
H22 H 1.1642(4) -0.5037(11) 0.8635(3)
C18 C 1.0418(4) -0.3317(10) 0.8690(3)
H23 H 1.0142(4) -0.4463(10) 0.8928(3)
#END
