
#######################################################################
#
#                 Cambridge Crystallographic Data Centre
#                                CCDC
#
#######################################################################
#
# If this CIF has been generated from an entry in the Cambridge
# Structural Database, then it will include bibliographic, chemical,
# crystal, experimental, refinement or atomic coordinate data resulting
# from the CCDC's data processing and validation procedures.
#
#######################################################################

data_CSD_CIF_PIQQEL
_audit_creation_date 1998-11-13
_audit_creation_method CSD-ConQuest-V1
_database_code_CSD PIQQEL
_database_code_depnum_ccdc_archive 'CCDC 1234312; CCDC 402725'
_database_code_depnum_ccdc_fiz 'CSD 402725'
_chemical_formula_sum 'C19 H25 N1 O2'
_chemical_formula_moiety
;
C19 H25 N1 O2
;
_journal_coden_Cambridge 1267
_journal_volume 212
_journal_year 1997
_journal_page_first 443
_journal_name_full 'Z.Kristallogr.-New Cryst.Struct. '
loop_
_publ_author_name
"P.Merino"
"E.Castillo"
"F.L.Merchan"
"T.Tejero"
_chemical_name_systematic
;
(2S*,3R*)-N-Benzyl-2-benzyloxy-3-(hydroxyamino)pentane
;
_chemical_melting_point 395
_cell_volume    858.100
_exptl_crystal_colour 'colorless'
_exptl_crystal_density_diffrn 1.159
_exptl_crystal_description 'block'
_exptl_crystal_preparation 'hexane/diethyl ether'
_diffrn_ambient_temperature 173
#These two values have been output from a single CSD field.
_refine_ls_R_factor_gt 0.0539
_refine_ls_wR_factor_gt 0.0539
_symmetry_cell_setting triclinic
_symmetry_space_group_name_H-M 'P -1'
_symmetry_Int_Tables_number 2
loop_
_symmetry_equiv_pos_site_id
_symmetry_equiv_pos_as_xyz
1 x,y,z
2 -x,-y,-z
_cell_length_a 9.190(5)
_cell_length_b 9.846(5)
_cell_length_c 10.933(5)
_cell_angle_alpha 72.450(5)
_cell_angle_beta 66.690(5)
_cell_angle_gamma 76.170(5)
_cell_formula_units_Z 2
loop_
_atom_type_symbol
_atom_type_radius_bond
C 0.68
H 0.23
N 0.68
O 0.68
loop_
_atom_site_label
_atom_site_type_symbol
_atom_site_fract_x
_atom_site_fract_y
_atom_site_fract_z
N1 N 0.4412(2) 0.4134(2) 0.4312(2)
O1 O 0.5163(2) 0.3296(2) 0.53040(14)
H1 H 0.5488(25) 0.3850(2) 0.5563(18)
O2 O 0.4470(2) 0.1876(2) 0.27184(14)
C1 C 0.4773(4) 0.6344(3) 0.1674(3)
H2 H 0.4410(4) 0.6879(3) 0.0909(3)
H3 H 0.5819(4) 0.6591(3) 0.1504(3)
H4 H 0.4000(4) 0.6596(3) 0.2523(3)
C2 C 0.4915(3) 0.4741(2) 0.1809(2)
H5 H 0.5675(3) 0.4506(2) 0.0937(2)
H6 H 0.3859(3) 0.4511(2) 0.1953(2)
C3 C 0.5476(2) 0.3783(2) 0.2977(2)
H7 H 0.6547(2) 0.4038(2) 0.2789(2)
C4 C 0.5745(3) 0.2178(2) 0.2994(2)
H8 H 0.5716(3) 0.1604(2) 0.3928(2)
C5 C 0.7356(3) 0.1745(3) 0.1948(3)
H9 H 0.7483(3) 0.0717(3) 0.1990(3)
H10 H 0.8220(3) 0.1940(3) 0.2156(3)
H11 H 0.7399(3) 0.2300(3) 0.1028(3)
C6 C 0.4104(3) 0.0454(2) 0.3327(2)
H12 H 0.3569(3) 0.0334(2) 0.4329(2)
H13 H 0.5103(3) -0.0234(2) 0.3155(2)
C7 C 0.3027(3) 0.0149(2) 0.2736(2)
C8 C 0.1777(3) -0.0640(3) 0.3552(3)
H14 H 0.1562(3) -0.0963(3) 0.4510(3)
C9 C 0.0835(3) -0.0961(3) 0.2976(3)
H15 H -0.0015(3) -0.1509(3) 0.3543(3)
C10 C 0.1118(3) -0.0498(3) 0.1601(3)
H16 H 0.0476(3) -0.0727(3) 0.1211(3)
C11 C 0.2340(3) 0.0300(3) 0.0793(3)
H17 H 0.2536(3) 0.0636(3) -0.0161(3)
C12 C 0.3285(3) 0.0618(3) 0.1348(2)
H18 H 0.4130(3) 0.1170(3) 0.0771(2)
C13 C 0.2820(2) 0.3684(2) 0.4834(2)
H19 H 0.2922(2) 0.2621(2) 0.5097(2)
H20 H 0.2353(2) 0.4024(2) 0.4101(2)
C14 C 0.1716(2) 0.4283(2) 0.6060(2)
C15 C 0.0961(3) 0.5685(3) 0.5880(2)
H21 H 0.1163(3) 0.6278(3) 0.4981(2)
C16 C -0.0092(3) 0.6242(3) 0.6997(3)
H22 H -0.0599(3) 0.7208(3) 0.6864(3)
C17 C -0.0391(3) 0.5360(4) 0.8311(3)
H23 H -0.1125(3) 0.5719(4) 0.9080(3)
C18 C 0.0368(4) 0.3984(4) 0.8492(3)
H24 H 0.0174(4) 0.3395(4) 0.9392(3)
C19 C 0.1424(3) 0.3429(3) 0.7379(2)
H25 H 0.1944(3) 0.2467(3) 0.7520(2)
#END
