
#######################################################################
#
#                 Cambridge Crystallographic Data Centre
#                                CCDC
#
#######################################################################
#
# If this CIF has been generated from an entry in the Cambridge
# Structural Database, then it will include bibliographic, chemical,
# crystal, experimental, refinement or atomic coordinate data resulting
# from the CCDC's data processing and validation procedures.
#
#######################################################################

data_CSD_CIF_PIRKOS
_audit_creation_date 2013-12-11
_audit_creation_method CSD-ConQuest-V1
_database_code_CSD PIRKOS
_database_code_depnum_ccdc_archive 'CCDC 945468'
_chemical_formula_sum 'C10 H14 N2 O5'
_chemical_formula_moiety
;
C10 H14 N2 O5
;
_journal_coden_Cambridge 1336
_journal_volume 15
_journal_year 2013
_journal_page_first 6098
_journal_name_full 'Org.Lett. '
loop_
_publ_author_name
"C.D.Schmidt"
"J.Kaschel"
"T.F.Schneider"
"D.Kratzert"
"D.Stalke"
"D.B.Werz"
_chemical_name_systematic
;
Ethyl 5-(2-oxopyrrolidin-1-yl)-4,5-dihydro-1,2-oxazole-3-carboxylate 2-oxide
;
_cell_volume   1126.639
_exptl_crystal_colour 'colorless'
_exptl_crystal_density_diffrn 1.428
_exptl_crystal_description 'plate'
_diffrn_ambient_temperature 100
#These two values have been output from a single CSD field.
_refine_ls_R_factor_gt 0.0358
_refine_ls_wR_factor_gt 0.0358
_symmetry_cell_setting monoclinic
_symmetry_space_group_name_H-M 'P 21/c'
_symmetry_Int_Tables_number 14
loop_
_symmetry_equiv_pos_site_id
_symmetry_equiv_pos_as_xyz
1 x,y,z
2 -x,1/2+y,1/2-z
3 -x,-y,-z
4 x,-1/2-y,-1/2+z
_cell_length_a 12.4044(5)
_cell_length_b 10.3305(4)
_cell_length_c 9.0070(4)
_cell_angle_alpha 90
_cell_angle_beta 102.544(2)
_cell_angle_gamma 90
_cell_formula_units_Z 4
loop_
_atom_type_symbol
_atom_type_radius_bond
C 0.68
H 0.23
N 0.68
O 0.68
loop_
_atom_site_label
_atom_site_type_symbol
_atom_site_fract_x
_atom_site_fract_y
_atom_site_fract_z
O1 O 0.10878(7) 0.48444(9) 0.22610(11)
O2 O 0.38888(7) 0.59405(9) 0.41331(9)
H1 H 0.0612(12) 0.7331(12) 0.1148(15)
H2 H 0.0293(9) 0.6317(13) -0.0182(14)
O3 O 0.54175(7) 0.71667(8) 0.48682(10)
H3 H 0.1719(12) 0.8198(8) -0.0423(17)
H4 H 0.1812(12) 0.6797(13) -0.1133(12)
O4 O 0.69927(7) 0.67245(9) 0.31268(11)
H5 H 0.3082(13) 0.7738(11) 0.1685(15)
H6 H 0.3527(9) 0.6857(15) 0.0517(17)
O5 O 0.65953(7) 0.49856(9) 0.15833(10)
H7 H 0.3042(11) 0.4437(11) 0.3212(16)
N1 N 0.26145(8) 0.58674(10) 0.17625(11)
N2 N 0.49725(8) 0.63447(10) 0.39479(11)
C1 C 0.15064(10) 0.56839(12) 0.16151(14)
C2 C 0.09143(11) 0.67034(13) 0.05292(15)
C3 C 0.18120(11) 0.72731(13) -0.01995(15)
C4 C 0.28901(11) 0.70201(12) 0.09659(14)
C5 C 0.34177(10) 0.51412(12) 0.28065(13)
C6 C 0.44141(10) 0.47245(12) 0.21764(14)
H8 H 0.4663(12) 0.3857(9) 0.2526(16)
H9 H 0.4245(12) 0.4752(14) 0.1067(9)
C7 C 0.52634(10) 0.56942(12) 0.28475(13)
C8 C 0.63496(10) 0.57691(12) 0.24534(14)
C9 C 0.81008(11) 0.67580(14) 0.27908(18)
H10 H 0.8339(13) 0.7651(9) 0.3025(18)
H11 H 0.8012(13) 0.6589(16) 0.1704(10)
C10 C 0.88457(11) 0.57924(15) 0.37616(18)
H12 H 0.8878(15) 0.5945(18) 0.4844(10)
H13 H 0.8596(14) 0.4906(10) 0.352(2)
H14 H 0.9583(9) 0.5870(17) 0.356(2)
#END
