
#######################################################################
#
#                 Cambridge Crystallographic Data Centre
#                                CCDC
#
#######################################################################
#
# If this CIF has been generated from an entry in the Cambridge
# Structural Database, then it will include bibliographic, chemical,
# crystal, experimental, refinement or atomic coordinate data resulting
# from the CCDC's data processing and validation procedures.
#
#######################################################################

data_CSD_CIF_PIRKUY
_audit_creation_date 2013-12-11
_audit_creation_method CSD-ConQuest-V1
_database_code_CSD PIRKUY
_database_code_depnum_ccdc_archive 'CCDC 945469'
_chemical_formula_sum 'C13 H15 N1 O5'
_chemical_formula_moiety
;
C13 H15 N1 O5
;
_journal_coden_Cambridge 1336
_journal_volume 15
_journal_year 2013
_journal_page_first 6098
_journal_name_full 'Org.Lett. '
loop_
_publ_author_name
"C.D.Schmidt"
"J.Kaschel"
"T.F.Schneider"
"D.Kratzert"
"D.Stalke"
"D.B.Werz"
_chemical_name_systematic
;
ethyl 5-(4-methoxyphenyl)-4,5-dihydro-1,2-oxazole-3-carboxylate 2-oxide
;
_cell_volume   2528.041
_exptl_crystal_colour 'colorless'
_exptl_crystal_density_diffrn 1.394
_exptl_crystal_description 'block'
_diffrn_ambient_temperature 100
#These two values have been output from a single CSD field.
_refine_ls_R_factor_gt 0.0348
_refine_ls_wR_factor_gt 0.0348
_symmetry_cell_setting orthorhombic
_symmetry_space_group_name_H-M 'P b c a'
_symmetry_Int_Tables_number 61
loop_
_symmetry_equiv_pos_site_id
_symmetry_equiv_pos_as_xyz
1 x,y,z
2 1/2-x,-y,1/2+z
3 -x,1/2+y,1/2-z
4 1/2+x,1/2-y,-z
5 -x,-y,-z
6 -1/2+x,y,-1/2-z
7 x,-1/2-y,-1/2+z
8 -1/2-x,-1/2+y,z
_cell_length_a 10.6801(4)
_cell_length_b 8.9717(3)
_cell_length_c 26.3836(10)
_cell_angle_alpha 90
_cell_angle_beta 90
_cell_angle_gamma 90
_cell_formula_units_Z 8
loop_
_atom_type_symbol
_atom_type_radius_bond
C 0.68
H 0.23
N 0.68
O 0.68
loop_
_atom_site_label
_atom_site_type_symbol
_atom_site_fract_x
_atom_site_fract_y
_atom_site_fract_z
O1 O 0.57340(8) 0.15116(9) 0.40117(3)
N1 N 0.66767(9) -0.09064(11) 0.30385(3)
O2 O 0.72181(8) -0.02717(10) 0.40682(3)
O3 O 0.75093(8) -0.18087(9) 0.31431(3)
O4 O 0.62598(8) -0.09656(9) 0.25221(3)
O5 O 0.61572(8) 0.37373(10) 0.07427(3)
C1 C 0.52222(15) 0.32276(16) 0.46703(5)
H1 H 0.5447(15) 0.3565(18) 0.5009(5)
H2 H 0.4336(11) 0.2965(18) 0.4660(6)
H3 H 0.5342(15) 0.4057(15) 0.4431(6)
C2 C 0.60217(13) 0.19171(15) 0.45335(4)
H4 H 0.5816(14) 0.1042(15) 0.4735(6)
H5 H 0.6913(11) 0.2168(17) 0.4543(6)
C3 C 0.64328(10) 0.03960(13) 0.38305(4)
C4 C 0.60937(10) 0.01243(13) 0.32961(4)
C5 C 0.51769(11) 0.09484(13) 0.29788(4)
H6 H 0.4328(10) 0.0884(15) 0.3122(5)
H7 H 0.5414(12) 0.2002(12) 0.2948(5)
C6 C 0.52404(11) 0.01232(13) 0.24644(4)
H8 H 0.4492(11) -0.0462(14) 0.2409(5)
C7 C 0.55215(10) 0.10697(13) 0.20080(4)
C8 C 0.47734(11) 0.09817(13) 0.15763(4)
H9 H 0.4074(11) 0.0296(14) 0.1564(5)
C9 C 0.50038(11) 0.18923(13) 0.11622(4)
H10 H 0.4464(12) 0.1848(15) 0.0862(5)
C10 C 0.60078(11) 0.28849(13) 0.11696(4)
C11 C 0.67845(11) 0.29606(13) 0.15946(4)
H11 H 0.7484(12) 0.3637(15) 0.1600(5)
C12 C 0.65301(11) 0.20535(13) 0.20093(4)
H12 H 0.7064(12) 0.2132(15) 0.2304(5)
C13 C 0.70761(13) 0.48938(15) 0.07592(5)
H13 H 0.6844(14) 0.5641(15) 0.1012(5)
H14 H 0.7049(13) 0.5341(17) 0.0421(5)
H15 H 0.7919(12) 0.4479(17) 0.0827(6)
#END
