
#######################################################################
#
#                 Cambridge Crystallographic Data Centre
#                                CCDC
#
#######################################################################
#
# If this CIF has been generated from an entry in the Cambridge
# Structural Database, then it will include bibliographic, chemical,
# crystal, experimental, refinement or atomic coordinate data resulting
# from the CCDC's data processing and validation procedures.
#
#######################################################################

data_CSD_CIF_PIRPOV
_audit_creation_date 1994-11-22
_audit_creation_method CSD-ConQuest-V1
_database_code_CSD PIRPOV
_chemical_formula_sum 'C20 H24 N3 O7'
_chemical_formula_moiety
;
C20 H24 N3 O7
;
_journal_coden_Cambridge 179
_journal_volume 33
_journal_year 1994
_journal_page_first 878
_journal_name_full 'Angew.Chem.,Int.Ed. '
loop_
_publ_author_name
"R.Tamura"
"S.Susuki"
"N.Azuma"
"A.Matsmoto"
"F.Toda"
"A.Kamimura"
"K.Hori"
_chemical_name_systematic
;
4-(3,5-Dinitrobenzoyloxy)-2,2,6,6,7a-pentamethyl-2,3,5,6,7,7a-hexahydroindole-
1-oxyl
;
_chemical_melting_point 423.15
_cell_volume   1593.382
_exptl_crystal_colour 'red'
_exptl_crystal_density_diffrn 1.308
_diffrn_ambient_temperature ?
_diffrn_special_details
;
The study was carried out at room temperature,in the range 283-303K

;
#These two values have been output from a single CSD field.
_refine_ls_R_factor_gt 0.041
_refine_ls_wR_factor_gt 0.041
_symmetry_cell_setting hexagonal
_symmetry_space_group_name_H-M 'P 31'
_symmetry_Int_Tables_number 144
loop_
_symmetry_equiv_pos_site_id
_symmetry_equiv_pos_as_xyz
1 x,y,z
2 -y,x-y,1/3+z
3 -x+y,-x,2/3+z
_cell_length_a 17.274(6)
_cell_length_b 17.274(6)
_cell_length_c 6.166(2)
_cell_angle_alpha 90
_cell_angle_beta 90
_cell_angle_gamma 120
_cell_formula_units_Z 3
loop_
_atom_type_symbol
_atom_type_radius_bond
C 0.68
H 0.23
N 0.68
O 0.68
loop_
_atom_site_label
_atom_site_type_symbol
_atom_site_fract_x
_atom_site_fract_y
_atom_site_fract_z
O1 O 0.6135(4) 0.6050(4) 0.00000
O2 O 0.9186(5) 0.6153(5) -0.301(2)
O3 O 0.6128(4) 0.6852(5) 0.283(1)
O4 O 0.3361(5) 0.3930(4) -0.346(2)
O5 O 0.2190(5) 0.3247(5) -0.147(2)
O6 O 0.1979(4) 0.4833(5) 0.476(2)
O7 O 0.3184(4) 0.5810(5) 0.635(1)
N1 N 0.8631(5) 0.6117(4) -0.161(2)
N2 N 0.2952(6) 0.3843(5) -0.179(2)
N3 N 0.2789(5) 0.5286(5) 0.488(2)
C1 C 0.7981(6) 0.5257(6) -0.059(2)
C2 C 0.7494(6) 0.5557(6) 0.102(2)
C3 C 0.7633(5) 0.6420(5) 0.003(2)
C4 C 0.7051(5) 0.6652(6) -0.046(2)
C5 C 0.7197(6) 0.7422(6) -0.188(2)
C6 C 0.8169(6) 0.8030(5) -0.253(2)
C7 C 0.8636(6) 0.7485(5) -0.283(2)
C8 C 0.8573(6) 0.6897(6) -0.088(2)
C9 C 0.7372(8) 0.4646(8) -0.235(2)
C10 C 0.8482(8) 0.4862(7) 0.053(2)
C11 C 0.8202(7) 0.8477(7) -0.467(2)
C12 C 0.8627(6) 0.8767(6) -0.080(2)
C13 C 0.9311(6) 0.7382(6) 0.081(2)
C14 C 0.5737(6) 0.6257(6) 0.157(2)
C15 C 0.4739(5) 0.5640(5) 0.153(2)
C16 C 0.4324(6) 0.5020(5) -0.009(2)
C17 C 0.3396(6) 0.4493(5) -0.005(2)
C18 C 0.2885(5) 0.4568(5) 0.156(2)
C19 C 0.3325(5) 0.5200(5) 0.314(2)
C20 C 0.4240(6) 0.5727(5) 0.317(2)
H1 H 0.68780 0.51240 0.11270
H2 H 0.77600 0.56610 0.24200
H3 H 0.68540 0.72050 -0.31320
H4 H 0.70230 0.77870 -0.10770
H5 H 0.83640 0.70990 -0.40430
H6 H 0.92430 0.78840 -0.31230
H7 H 0.70980 0.49080 -0.31070
H8 H 0.77080 0.44920 -0.33230
H9 H 0.69200 0.40930 -0.16890
H10 H 0.80910 0.42970 0.11260
H11 H 0.88870 0.48170 -0.04480
H12 H 0.88400 0.52570 0.17030
H13 H 0.87950 0.88760 -0.51140
H14 H 0.79150 0.80290 -0.58030
H15 H 0.78800 0.87940 -0.45740
H16 H 0.85360 0.84980 0.05740
H17 H 0.92520 0.91020 -0.11110
H18 H 0.83810 0.91460 -0.08580
H19 H 0.92200 0.69800 0.19630
H20 H 0.98780 0.75630 0.01530
H21 H 0.92970 0.78850 0.13340
H22 H 0.46650 0.49590 -0.12100
H23 H 0.22590 0.41950 0.16110
H24 H 0.45280 0.61550 0.42910
#END
