
#######################################################################
#
#                 Cambridge Crystallographic Data Centre
#                                CCDC
#
#######################################################################
#
# If this CIF has been generated from an entry in the Cambridge
# Structural Database, then it will include bibliographic, chemical,
# crystal, experimental, refinement or atomic coordinate data resulting
# from the CCDC's data processing and validation procedures.
#
#######################################################################

data_CSD_CIF_PIRYOG
_audit_creation_date 2013-12-11
_audit_creation_method CSD-ConQuest-V1
_database_code_CSD PIRYOG
_database_code_depnum_ccdc_archive 'CCDC 928961'
_chemical_formula_sum 'C28 H24 N2 O6'
_chemical_formula_moiety
;
C28 H24 N2 O6
;
_journal_coden_Cambridge 35
_journal_volume 78
_journal_year 2013
_journal_page_first 11798
_journal_name_full 'J.Org.Chem. '
loop_
_publ_author_name
"Wen-Chung Lin"
"Ding-Yah Yang"
_chemical_name_systematic
;
18-Methoxy-14,21,21-trimethyl-13-(2-nitrophenyl)-4,12-dioxa-14-azapentacyclo[1
1.7.1.0^2,11^.0^5,10^.0^15,20^]henicosa-2(11),5,7,9,15,17,19-heptaen-3-one
;
_cell_volume   2249.984
_exptl_crystal_colour 'yellow'
_exptl_crystal_density_diffrn 1.43
_exptl_crystal_description 'parallelepiped'
_diffrn_ambient_temperature 110
#These two values have been output from a single CSD field.
_refine_ls_R_factor_gt 0.0486
_refine_ls_wR_factor_gt 0.0486
_symmetry_cell_setting monoclinic
_symmetry_space_group_name_H-M 'P 21/c'
_symmetry_Int_Tables_number 14
loop_
_symmetry_equiv_pos_site_id
_symmetry_equiv_pos_as_xyz
1 x,y,z
2 -x,1/2+y,1/2-z
3 -x,-y,-z
4 x,-1/2-y,-1/2+z
_cell_length_a 11.5429(5)
_cell_length_b 14.5961(6)
_cell_length_c 13.7283(6)
_cell_angle_alpha 90
_cell_angle_beta 103.401(5)
_cell_angle_gamma 90
_cell_formula_units_Z 4
loop_
_atom_type_symbol
_atom_type_radius_bond
C 0.68
H 0.23
N 0.68
O 0.68
loop_
_atom_site_label
_atom_site_type_symbol
_atom_site_fract_x
_atom_site_fract_y
_atom_site_fract_z
O1 O -1.00133(13) -0.11958(9) -1.13985(11)
O2 O -0.68063(12) -0.12048(8) -0.93083(10)
O3 O -1.05295(13) -0.25168(10) -1.08469(12)
O4 O -0.88628(13) -0.57741(9) -1.08431(11)
O5 O -0.50636(13) 0.03034(10) -0.86276(11)
O6 O -0.63409(14) 0.01507(10) -0.77069(11)
N1 N -0.61066(14) -0.26919(11) -0.95123(12)
N2 N -0.55030(15) -0.01173(11) -0.80292(12)
C1 C -0.92300(18) -0.04724(13) -1.13433(15)
C2 C -0.95586(19) 0.02174(14) -1.20397(16)
H1 H -1.02910 0.01850 -1.25270
C3 C -0.88047(19) 0.09569(14) -1.20166(16)
H2 H -0.90220 0.14400 -1.24880
C4 C -0.77293(19) 0.09960(14) -1.13059(16)
H3 H -0.72180 0.15080 -1.12920
C5 C -0.73975(18) 0.02981(13) -1.06205(15)
H4 H -0.66580 0.03280 -1.01410
C6 C -0.81527(18) -0.04562(13) -1.06316(14)
C7 C -0.78774(17) -0.12334(13) -0.99688(14)
C8 C -0.86562(17) -0.19379(13) -1.00080(15)
C9 C -0.97775(18) -0.19277(13) -1.07452(16)
C10 C -0.84064(17) -0.27312(13) -0.92954(14)
H5 H -0.91540 -0.29080 -0.90930
C11 C -0.79479(18) -0.35441(13) -0.97806(14)
C12 C -0.86206(18) -0.43103(12) -1.01113(14)
H6 H -0.94240 -0.43440 -1.00540
C13 C -0.81169(18) -0.50405(13) -1.05336(14)
C14 C -0.69533(18) -0.49908(13) -1.06144(14)
H7 H -0.66130 -0.54840 -1.09050
C15 C -0.62706(18) -0.42150(13) -1.02695(14)
H8 H -0.54630 -0.41870 -1.03170
C16 C -0.67628(17) -0.34853(13) -0.98588(13)
C17 C -0.64076(17) -0.20771(12) -0.87934(14)
C18 C -0.74523(17) -0.24537(13) -0.83584(14)
C19 C -0.79216(19) -0.17110(14) -0.77624(16)
H9 H -0.85750 -0.19600 -0.74970
H10 H -0.82120 -0.11900 -0.82020
H11 H -0.72780 -0.15070 -0.72060
C20 C -0.71037(19) -0.32808(14) -0.76677(15)
H12 H -0.77940 -0.34840 -0.74220
H13 H -0.64570 -0.31080 -0.70990
H14 H -0.68370 -0.37800 -0.80400
C21 C -0.8385(2) -0.65229(14) -1.12881(17)
H15 H -0.89940 -0.70000 -1.14760
H16 H -0.76950 -0.67740 -1.08080
H17 H -0.81390 -0.63110 -1.18870
C22 C -0.51021(18) -0.24594(14) -0.99313(15)
H18 H -0.49990 -0.29330 -1.04100
H19 H -0.43800 -0.24200 -0.93920
H20 H -0.52480 -0.18680 -1.02750
C23 C -0.52841(17) -0.18441(13) -0.79936(14)
C24 C -0.45433(18) -0.25702(13) -0.75908(14)
H21 H -0.47610 -0.31720 -0.78260
C25 C -0.35021(18) -0.24507(13) -0.68606(15)
H22 H -0.30170 -0.29630 -0.66100
C26 C -0.31720(18) -0.15829(14) -0.64991(15)
H23 H -0.24690 -0.14970 -0.59880
C27 C -0.38669(18) -0.08458(14) -0.68837(14)
H24 H -0.36430 -0.02460 -0.66440
C28 C -0.48995(18) -0.09806(13) -0.76246(14)
#END
