
#######################################################################
#
#                 Cambridge Crystallographic Data Centre
#                                CCDC
#
#######################################################################
#
# If this CIF has been generated from an entry in the Cambridge
# Structural Database, then it will include bibliographic, chemical,
# crystal, experimental, refinement or atomic coordinate data resulting
# from the CCDC's data processing and validation procedures.
#
#######################################################################

data_CSD_CIF_PIRYIA
_audit_creation_date 2013-12-11
_audit_creation_method CSD-ConQuest-V1
_database_code_CSD PIRYIA
_database_code_depnum_ccdc_archive 'CCDC 928962'
_chemical_formula_sum 'C26 H18 N2 O6'
_chemical_formula_moiety
;
C26 H18 N2 O6
;
_journal_coden_Cambridge 35
_journal_volume 78
_journal_year 2013
_journal_page_first 11798
_journal_name_full 'J.Org.Chem. '
loop_
_publ_author_name
"Wen-Chung Lin"
"Ding-Yah Yang"
_chemical_name_systematic
;
21,21-Dimethyl-20-(2-nitrophenyl)-2,10-dioxa-19-azapentacyclo[11.5.3.0^1,14^.0
^3,12^.0^4,9^]henicosa-3(12),4,6,8,14,17,19-heptaene-11,16-dione
;
_cell_volume   4256.323
_exptl_crystal_colour 'colorless'
_exptl_crystal_density_diffrn 1.418
_exptl_crystal_description 'parallelepiped'
_diffrn_ambient_temperature 297
#These two values have been output from a single CSD field.
_refine_ls_R_factor_gt 0.1257
_refine_ls_wR_factor_gt 0.1257
_symmetry_cell_setting monoclinic
_symmetry_space_group_name_H-M 'C 2/c'
_symmetry_Int_Tables_number 15
loop_
_symmetry_equiv_pos_site_id
_symmetry_equiv_pos_as_xyz
1 x,y,z
2 -x,y,1/2-z
3 1/2+x,1/2+y,z
4 1/2-x,1/2+y,1/2-z
5 -x,-y,-z
6 x,-y,-1/2+z
7 -1/2-x,-1/2-y,-z
8 -1/2+x,-1/2-y,-1/2+z
_cell_length_a 22.861(2)
_cell_length_b 10.2821(11)
_cell_length_c 18.164(3)
_cell_angle_alpha 90
_cell_angle_beta 94.522(11)
_cell_angle_gamma 90
_cell_formula_units_Z 8
loop_
_atom_type_symbol
_atom_type_radius_bond
C 0.68
H 0.23
N 0.68
O 0.68
loop_
_atom_site_label
_atom_site_type_symbol
_atom_site_fract_x
_atom_site_fract_y
_atom_site_fract_z
O1 O 0.52688(12) 0.7969(3) 0.02933(18)
O2 O 0.34751(11) 0.7839(3) 0.03977(14)
O3 O 0.54217(12) 0.7126(3) 0.14015(19)
O4 O 0.27452(17) 0.9055(4) 0.28662(19)
O5 O 0.33520(18) 0.4210(4) -0.12052(19)
O6 O 0.39719(17) 0.5049(4) -0.03889(19)
N1 N 0.31548(13) 0.5812(3) 0.07625(16)
N2 N 0.35969(17) 0.4258(4) -0.0581(2)
C1 C 0.48986(19) 0.8417(4) -0.0273(2)
C2 C 0.5162(2) 0.8982(5) -0.0866(3)
H1 H 0.55680 0.90460 -0.08610
C3 C 0.4810(3) 0.9433(6) -0.1446(3)
H2 H 0.49810 0.97890 -0.18480
C4 C 0.4212(3) 0.9381(6) -0.1458(3)
H3 H 0.39840 0.97070 -0.18630
C5 C 0.3943(2) 0.8843(5) -0.0867(2)
H4 H 0.35360 0.87980 -0.08750
C6 C 0.42936(18) 0.8374(4) -0.0265(2)
C7 C 0.40659(15) 0.7787(4) 0.0378(2)
C8 C 0.44334(15) 0.7285(4) 0.0926(2)
C9 C 0.50559(17) 0.7418(4) 0.0905(2)
C10 C 0.41993(14) 0.6660(4) 0.15944(19)
H5 H 0.44720 0.68250 0.20280
C11 C 0.36298(15) 0.7299(4) 0.1698(2)
C12 C 0.34668(17) 0.7872(4) 0.2302(2)
H6 H 0.37290 0.79040 0.27200
C13 C 0.28901(19) 0.8451(5) 0.2331(2)
C14 C 0.24786(17) 0.8309(4) 0.1668(2)
H7 H 0.20990 0.86310 0.16770
C15 C 0.26319(16) 0.7739(4) 0.1062(2)
H8 H 0.23620 0.76990 0.06520
C16 C 0.32289(14) 0.7152(4) 0.10120(19)
C17 C 0.35448(15) 0.4964(4) 0.0982(2)
C18 C 0.40831(16) 0.5173(4) 0.1524(2)
C19 C 0.3951(2) 0.4652(5) 0.2287(3)
H9 H 0.38770 0.37340 0.22550
H10 H 0.36120 0.50850 0.24480
H11 H 0.42820 0.48110 0.26350
C20 C 0.46177(19) 0.4481(5) 0.1250(3)
H12 H 0.45390 0.35660 0.12060
H13 H 0.49520 0.46180 0.15960
H14 H 0.46980 0.48240 0.07770
C21 C 0.34193(15) 0.3621(4) 0.0692(2)
C22 C 0.32334(19) 0.2660(5) 0.1154(2)
H15 H 0.32170 0.28400 0.16540
C23 C 0.3071(2) 0.1440(5) 0.0890(3)
H16 H 0.29540 0.08100 0.12160
C24 C 0.3080(2) 0.1151(5) 0.0160(3)
H17 H 0.29700 0.03280 -0.00130
C25 C 0.32532(19) 0.2074(5) -0.0320(3)
H18 H 0.32550 0.18900 -0.08210
C26 C 0.34264(16) 0.3289(4) -0.0051(2)
#END
