
#######################################################################
#
#                 Cambridge Crystallographic Data Centre
#                                CCDC
#
#######################################################################
#
# If this CIF has been generated from an entry in the Cambridge
# Structural Database, then it will include bibliographic, chemical,
# crystal, experimental, refinement or atomic coordinate data resulting
# from the CCDC's data processing and validation procedures.
#
#######################################################################

data_CSD_CIF_PIRZOH
_audit_creation_date 2013-12-11
_audit_creation_method CSD-ConQuest-V1
_database_code_CSD PIRZOH
_database_code_depnum_ccdc_archive 'CCDC 940538'
_chemical_formula_sum 'C26 H33 N3 O4'
_chemical_formula_moiety
;
C26 H33 N3 O4
;
_journal_coden_Cambridge 35
_journal_volume 78
_journal_year 2013
_journal_page_first 11637
_journal_name_full 'J.Org.Chem. '
loop_
_publ_author_name
"S.K.Liew"
"Zhi He"
"A.K.Yudin"
_chemical_name_systematic
;
N-(6-Hydroxy-2-methyl-8-phenyl-5-(pyrrolidin-1-yl)oct-7-en-4-yl)-4-nitrobenzam
ide
;
_cell_volume   4811.118
_exptl_crystal_colour 'colorless'
_exptl_crystal_density_diffrn 1.247
_exptl_crystal_description 'block'
_diffrn_ambient_temperature 147
#These two values have been output from a single CSD field.
_refine_ls_R_factor_gt 0.0309
_refine_ls_wR_factor_gt 0.0309
_symmetry_cell_setting orthorhombic
_symmetry_space_group_name_H-M 'P 21 21 21'
_symmetry_Int_Tables_number 19
loop_
_symmetry_equiv_pos_site_id
_symmetry_equiv_pos_as_xyz
1 x,y,z
2 1/2-x,-y,1/2+z
3 -x,1/2+y,1/2-z
4 1/2+x,1/2-y,-z
_cell_length_a 10.1020(6)
_cell_length_b 10.1363(6)
_cell_length_c 46.985(3)
_cell_angle_alpha 90
_cell_angle_beta 90
_cell_angle_gamma 90
_cell_formula_units_Z 8
loop_
_atom_type_symbol
_atom_type_radius_bond
C 0.68
H 0.23
N 0.68
O 0.68
loop_
_atom_site_label
_atom_site_type_symbol
_atom_site_fract_x
_atom_site_fract_y
_atom_site_fract_z
O1 O -0.12036(15) 0.88640(15) 0.23992(3)
O2 O 0.36059(16) 0.78110(15) 0.20913(3)
O3 O 0.81893(16) 0.56658(17) 0.30657(4)
O4 O 0.65910(18) 0.50686(18) 0.33442(3)
N1 N 0.21278(16) 0.62610(16) 0.22262(3)
N2 N -0.11711(16) 0.75051(16) 0.19395(3)
N3 N 0.70073(18) 0.54964(18) 0.31181(4)
C1 C -0.0146(2) 0.70908(18) 0.21415(4)
H1 H -0.05150 0.63470 0.22570
C2 C 0.0072(2) 0.82877(19) 0.23471(4)
H2 H 0.06550 0.89530 0.22520
C3 C 0.0649(2) 0.79309(19) 0.26288(4)
H3 H 0.02250 0.72660 0.27380
C4 C 0.1730(2) 0.8499(2) 0.27343(4)
H4 H 0.21110 0.91840 0.26240
C5 C 0.2397(2) 0.81810(19) 0.30034(4)
C6 C 0.1812(2) 0.7419(2) 0.32169(4)
H5 H 0.09270 0.71190 0.31940
C7 C 0.2509(3) 0.7098(2) 0.34607(5)
H6 H 0.20980 0.65830 0.36050
C8 C 0.3803(2) 0.7524(2) 0.34963(5)
H7 H 0.42860 0.72840 0.36620
C9 C 0.4384(2) 0.8299(2) 0.32900(5)
H8 H 0.52620 0.86110 0.33150
C10 C 0.3690(2) 0.8624(2) 0.30462(4)
H9 H 0.41010 0.91570 0.29050
C11 C -0.0796(2) 0.8286(2) 0.16895(4)
H10 H -0.01490 0.78070 0.15700
H11 H -0.04150 0.91470 0.17460
C12 C -0.2112(3) 0.8465(3) 0.15346(5)
H12 H -0.19780 0.84440 0.13260
H13 H -0.25230 0.93170 0.15870
C13 C -0.2989(2) 0.7311(2) 0.16298(5)
H14 H -0.38080 0.76380 0.17210
H15 H -0.32340 0.67510 0.14650
C14 C -0.2149(2) 0.6538(2) 0.18414(4)
H16 H -0.26940 0.62110 0.20020
H17 H -0.17120 0.57780 0.17480
C15 C 0.11631(19) 0.66073(19) 0.20055(4)
H18 H 0.15390 0.73480 0.18900
C16 C 0.0972(2) 0.5419(2) 0.18078(4)
H19 H 0.05890 0.46840 0.19190
H20 H 0.03230 0.56590 0.16590
C17 C 0.2239(2) 0.4935(2) 0.16639(4)
H21 H 0.29140 0.47650 0.18150
C18 C 0.1961(2) 0.3637(2) 0.15108(5)
H22 H 0.16710 0.29740 0.16490
H23 H 0.27690 0.33310 0.14160
H24 H 0.12640 0.37710 0.13690
C19 C 0.2801(3) 0.5958(2) 0.14592(5)
H25 H 0.36040 0.56090 0.13700
H26 H 0.30170 0.67650 0.15640
H27 H 0.21430 0.61580 0.13120
C20 C 0.3291(2) 0.68931(19) 0.22485(4)
C21 C 0.4233(2) 0.64576(18) 0.24787(4)
C22 C 0.3868(2) 0.56637(19) 0.27080(4)
H28 H 0.29890 0.53350 0.27200
C23 C 0.4772(2) 0.53510(19) 0.29177(4)
H29 H 0.45220 0.48140 0.30750
C24 C 0.6042(2) 0.5832(2) 0.28953(4)
C25 C 0.6443(2) 0.6629(2) 0.26719(4)
H30 H 0.73260 0.69480 0.26610
C26 C 0.5519(2) 0.6946(2) 0.24656(4)
H31 H 0.57670 0.75060 0.23120
H32 H -0.161(3) 0.864(3) 0.2235(6)
H33 H 0.196(3) 0.559(3) 0.2335(5)
O5 O 0.43316(16) 0.87055(15) 0.00625(3)
O6 O 0.50979(18) 0.40079(17) 0.02971(4)
O7 O 0.7567(2) -0.06789(17) -0.06110(5)
O8 O 0.8511(2) 0.08549(19) -0.08583(4)
N4 N 0.68592(17) 0.53222(16) 0.02212(3)
N5 N 0.56766(16) 0.85971(17) 0.05207(3)
N6 N 0.7848(2) 0.0485(2) -0.06567(4)
C27 C 0.60920(19) 0.75893(19) 0.03142(4)
H34 H 0.68700 0.79500 0.02080
C28 C 0.4934(2) 0.7425(2) 0.00956(4)
H35 H 0.42670 0.67900 0.01730
C29 C 0.5367(2) 0.6986(2) -0.01936(4)
H36 H 0.60420 0.74770 -0.02860
C30 C 0.4863(2) 0.5946(2) -0.03285(4)
H37 H 0.42060 0.54570 -0.02290
C31 C 0.5215(2) 0.5473(2) -0.06154(4)
C32 C 0.5958(2) 0.6215(2) -0.08071(4)
H38 H 0.62460 0.70730 -0.07540
C33 C 0.6284(2) 0.5727(2) -0.10727(5)
H39 H 0.67950 0.62480 -0.12000
C34 C 0.5869(2) 0.4483(2) -0.11541(5)
H40 H 0.60940 0.41470 -0.13370
C35 C 0.5124(2) 0.3732(2) -0.09680(5)
H41 H 0.48370 0.28770 -0.10230
C36 C 0.4795(2) 0.4224(2) -0.07010(4)
H42 H 0.42770 0.37020 -0.05750
C37 C 0.4892(2) 0.8212(2) 0.07712(5)
H43 H 0.53490 0.75210 0.08830
H44 H 0.40060 0.78870 0.07150
C38 C 0.4790(3) 0.9486(3) 0.09379(6)
H45 H 0.48420 0.93080 0.11450
H46 H 0.39390 0.99330 0.08970
C39 C 0.5942(2) 1.0342(3) 0.08442(6)
H47 H 0.65370 1.05290 0.10070
H48 H 0.56190 1.11890 0.07660
C40 C 0.6667(2) 0.9557(2) 0.06166(4)
H49 H 0.69510 1.01340 0.04580
H50 H 0.74530 0.91070 0.06970
C41 C 0.6517(2) 0.62558(19) 0.04457(4)
H51 H 0.57490 0.58900 0.05540
C42 C 0.7694(2) 0.6387(2) 0.06510(4)
H52 H 0.84310 0.68230 0.05490
H53 H 0.74300 0.69710 0.08100
C43 C 0.8195(3) 0.5106(2) 0.07737(6)
H54 H 0.85500 0.45760 0.06110
C44 C 0.9357(3) 0.5381(3) 0.09741(7)
H55 H 0.97090 0.45440 0.10460
H56 H 0.90540 0.59230 0.11340
H57 H 1.00540 0.58520 0.08700
C45 C 0.7197(4) 0.4291(4) 0.09152(8)
H58 H 0.65510 0.39810 0.07750
H59 H 0.67430 0.48150 0.10610
H60 H 0.76280 0.35310 0.10050
C46 C 0.6125(2) 0.4246(2) 0.01696(4)
C47 C 0.6600(2) 0.33078(19) -0.00571(4)
C48 C 0.7455(2) 0.3663(2) -0.02747(4)
H61 H 0.77790 0.45420 -0.02850
C49 C 0.7840(2) 0.2749(2) -0.04765(4)
H62 H 0.84160 0.29910 -0.06270
C50 C 0.7368(2) 0.1477(2) -0.04536(4)
C51 C 0.6493(2) 0.1099(2) -0.02455(5)
H63 H 0.61660 0.02210 -0.02380
C52 C 0.6100(2) 0.2029(2) -0.00467(5)
H64 H 0.54860 0.17930 0.00980
H65 H 0.460(3) 0.911(3) 0.0224(7)
H66 H 0.756(3) 0.546(2) 0.0130(5)
#END
