
#######################################################################
#
#                 Cambridge Crystallographic Data Centre
#                                CCDC
#
#######################################################################
#
# If this CIF has been generated from an entry in the Cambridge
# Structural Database, then it will include bibliographic, chemical,
# crystal, experimental, refinement or atomic coordinate data resulting
# from the CCDC's data processing and validation procedures.
#
#######################################################################

data_CSD_CIF_PITDAZ
_audit_creation_date 2013-12-11
_audit_creation_method CSD-ConQuest-V1
_database_code_CSD PITDAZ
_database_code_depnum_ccdc_archive 'CCDC 924486'
_chemical_formula_sum 'C14 H11 N3 O3'
_chemical_formula_moiety
;
C14 H11 N3 O3
;
_journal_coden_Cambridge 1606
_journal_volume 2
_journal_year 2013
_journal_page_first 843
_journal_name_full 'Asian J.Org.Chem '
loop_
_publ_author_name
"R.K.Kumar"
"S.Manna"
"D.Mahesh"
"D.Sar"
"T.Punniyamurthy"
_chemical_name_systematic
;
6-Methoxy-1-(4-nitrophenyl)-1H-benzimidazole
;
_cell_volume    629.141
_exptl_crystal_colour 'colorless'
_exptl_crystal_density_diffrn 1.421
_exptl_crystal_description 'block'
_diffrn_ambient_temperature 296
#These two values have been output from a single CSD field.
_refine_ls_R_factor_gt 0.0595
_refine_ls_wR_factor_gt 0.0595
_symmetry_cell_setting triclinic
_symmetry_space_group_name_H-M 'P -1'
_symmetry_Int_Tables_number 2
loop_
_symmetry_equiv_pos_site_id
_symmetry_equiv_pos_as_xyz
1 x,y,z
2 -x,-y,-z
_cell_length_a 7.9271(3)
_cell_length_b 8.3482(3)
_cell_length_c 10.2367(4)
_cell_angle_alpha 94.799(2)
_cell_angle_beta 102.504(2)
_cell_angle_gamma 105.761(2)
_cell_formula_units_Z 2
loop_
_atom_type_symbol
_atom_type_radius_bond
C 0.68
H 0.23
N 0.68
O 0.68
loop_
_atom_site_label
_atom_site_type_symbol
_atom_site_fract_x
_atom_site_fract_y
_atom_site_fract_z
C1 C 0.82755(19) 0.0457(2) 0.83541(16)
C2 C 1.14939(18) 0.07507(18) 0.68623(15)
H1 H 1.15490 0.18400 0.71960
C3 C 1.2753(2) 0.0422(2) 0.62032(16)
C4 C 1.01531(19) -0.06471(19) 0.69908(15)
C5 C 0.7656(2) 0.0122(2) 0.95036(17)
H2 H 0.75500 -0.09260 0.97810
C6 C 1.0054(2) -0.22903(19) 0.65187(17)
C7 C 0.7430(2) 0.2884(2) 0.98289(17)
C8 C 1.1356(2) -0.2583(2) 0.58838(18)
H3 H 1.13230 -0.36730 0.55730
C9 C 0.8477(2) 0.2028(2) 0.79559(17)
H4 H 0.88870 0.22520 0.71860
C10 C 0.7198(2) 0.1326(2) 1.02326(17)
H5 H 0.67420 0.10930 1.09820
C11 C 1.2677(2) -0.1228(2) 0.57326(17)
H6 H 1.35500 -0.14020 0.53060
C12 C 0.8069(2) 0.3264(2) 0.87015(18)
H7 H 0.82210 0.43290 0.84510
C13 C 1.4260(2) 0.3348(2) 0.6370(2)
H8 H 1.31580 0.35700 0.59500
H9 H 1.52540 0.40760 0.61070
H10 H 1.44590 0.35500 0.73360
C14 C 0.7877(2) -0.2519(2) 0.7463(2)
H11 H 0.68670 -0.29680 0.77870
N1 N 0.87212(17) -0.08135(16) 0.76175(14)
N2 N 0.6975(2) 0.4177(2) 1.06084(18)
N3 N 0.8607(2) -0.34464(17) 0.68290(17)
O1 O 1.41270(15) 0.16515(14) 0.59525(14)
O2 O 0.7283(2) 0.55970(19) 1.03023(18)
O3 O 0.6248(3) 0.3768(2) 1.15251(17)
#END
