
#######################################################################
#
#                 Cambridge Crystallographic Data Centre
#                                CCDC
#
#######################################################################
#
# If this CIF has been generated from an entry in the Cambridge
# Structural Database, then it will include bibliographic, chemical,
# crystal, experimental, refinement or atomic coordinate data resulting
# from the CCDC's data processing and validation procedures.
#
#######################################################################

data_CSD_CIF_PITPUE
_audit_creation_date 2008-06-16
_audit_creation_method CSD-ConQuest-V1
_database_code_CSD PITPUE
_database_code_depnum_ccdc_archive 'CCDC 615600'
_chemical_formula_sum 'C28 H27 N3 O2'
_chemical_formula_moiety
;
C28 H27 N3 O2
;
_journal_coden_Cambridge 41
_journal_volume 52
_journal_year 2007
_journal_page_first 262
_journal_name_full 'Kristallografiya(Russ.)(Crystallogr.Rep.) '
loop_
_publ_author_name
"V.V.Abakumov"
"S.V.Shishkina"
"R.I.Zubatyuk"
"I.M.Gella"
"N.S.Pivnenko"
"L.A.Kutulya"
"O.V.Shishkin"
_chemical_name_systematic
;
N-(4-Nitrophenyl)-3-(4-methylphenyl)-7-(4-methylbenzylidene)-3,3a,4,5,6,7-hexa
hydroindazole
;
_cell_volume   1137.282
_exptl_crystal_density_diffrn 1.278
_exptl_crystal_preparation 'n-butanol'
_diffrn_ambient_temperature 295
#These two values have been output from a single CSD field.
_refine_ls_R_factor_gt 0.044
_refine_ls_wR_factor_gt 0.044
_symmetry_cell_setting triclinic
_symmetry_space_group_name_H-M 'P -1'
_symmetry_Int_Tables_number 2
loop_
_symmetry_equiv_pos_site_id
_symmetry_equiv_pos_as_xyz
1 x,y,z
2 -x,-y,-z
_cell_length_a 10.135(4)
_cell_length_b 11.080(4)
_cell_length_c 12.604(4)
_cell_angle_alpha 114.78(3)
_cell_angle_beta 92.75(3)
_cell_angle_gamma 113.60(3)
_cell_formula_units_Z 2
loop_
_atom_type_symbol
_atom_type_radius_bond
C 0.68
H 0.23
N 0.68
O 0.68
loop_
_atom_site_label
_atom_site_type_symbol
_atom_site_fract_x
_atom_site_fract_y
_atom_site_fract_z
O1 O 1.07090(16) 0.2645(2) 0.24493(14)
O2 O 0.91855(17) 0.15663(19) 0.07137(13)
N1 N 0.53622(15) 0.36174(15) 0.53613(11)
N2 N 0.50383(14) 0.28261(15) 0.41018(11)
N3 N 0.94794(18) 0.21773(19) 0.18168(14)
C1 C 0.41567(17) 0.36250(17) 0.56359(14)
C2 C 0.40383(18) 0.43566(18) 0.68743(15)
C3 C 0.24765(19) 0.3864(2) 0.70466(16)
H1 H 0.24160 0.47470 0.76170
H2 H 0.23250 0.32210 0.74140
C4 C 0.11978(19) 0.3032(2) 0.59157(16)
H3 H 0.02830 0.24860 0.60790
H4 H 0.10780 0.37620 0.57410
C5 C 0.14224(19) 0.1936(2) 0.48022(16)
H5 H 0.14990 0.11680 0.49450
H6 H 0.05830 0.14510 0.41110
C6 C 0.28473(18) 0.28159(18) 0.45571(14)
H7 H 0.27260 0.35720 0.44110
C7 C 0.34178(17) 0.19829(18) 0.35267(14)
H8 H 0.32100 0.21300 0.28350
C8 C 0.53023(19) 0.53927(19) 0.77650(15)
H9 H 0.61660 0.55540 0.74980
C9 C 0.55771(19) 0.63101(19) 0.90674(15)
C10 C 0.4515(2) 0.6192(2) 0.97315(17)
H10 H 0.35270 0.54750 0.93380
C11 C 0.4908(2) 0.7122(2) 1.09666(17)
H11 H 0.41690 0.70240 1.13810
C12 C 0.6350(2) 0.8186(2) 1.16030(16)
C13 C 0.7408(2) 0.8292(2) 1.09538(16)
H12 H 0.84000 0.89890 1.13560
C14 C 0.7026(2) 0.7384(2) 0.97171(16)
H13 H 0.77690 0.74990 0.93070
C15 C 0.28158(17) 0.03213(18) 0.31119(14)
C16 C 0.1657(2) -0.0708(2) 0.20834(16)
H14 H 0.12680 -0.03780 0.16410
C17 C 0.1069(2) -0.2224(2) 0.17060(18)
H15 H 0.02850 -0.29000 0.10120
C18 C 0.1617(2) -0.2761(2) 0.23330(18)
C19 C 0.2771(2) -0.1725(2) 0.33585(17)
H16 H 0.31580 -0.20560 0.38000
C20 C 0.33650(19) -0.02087(19) 0.37461(15)
H17 H 0.41450 0.04660 0.44430
C21 C 0.61244(17) 0.26648(17) 0.35465(14)
C22 C 0.57915(19) 0.1856(2) 0.22775(14)
H18 H 0.48220 0.14140 0.18160
C23 C 0.6890(2) 0.1716(2) 0.17181(15)
H19 H 0.66670 0.11860 0.08790
C24 C 0.83283(18) 0.23641(19) 0.24051(15)
C25 C 0.86748(19) 0.31569(19) 0.36503(15)
H20 H 0.96460 0.35850 0.41030
C26 C 0.75956(18) 0.33159(18) 0.42221(14)
H21 H 0.78370 0.38570 0.50620
C27 C 0.6744(2) 0.9163(2) 1.29545(16)
H22 H 0.76010 1.01050 1.31900
H23 H 0.69630 0.86700 1.33560
H24 H 0.59180 0.93360 1.31770
H25? H 0.60540 0.86360 1.32920
H26? H 0.66920 1.00710 1.31260
H27? H 0.77370 0.94050 1.33050
C28 C 0.0977(3) -0.4426(2) 0.1902(2)
H28 H 0.01070 -0.49600 0.12390
H29 H 0.07090 -0.46260 0.25530
H30 H 0.17080 -0.47480 0.16400
H31? H 0.15760 -0.45960 0.23820
H32? H 0.09740 -0.49300 0.10680
H33? H -0.00250 -0.48080 0.19810
#END
