
#######################################################################
#
#                 Cambridge Crystallographic Data Centre
#                                CCDC
#
#######################################################################
#
# If this CIF has been generated from an entry in the Cambridge
# Structural Database, then it will include bibliographic, chemical,
# crystal, experimental, refinement or atomic coordinate data resulting
# from the CCDC's data processing and validation procedures.
#
#######################################################################

data_CSD_CIF_PIVRER
_audit_creation_date 1994-12-05
_audit_creation_method CSD-ConQuest-V1
_database_code_CSD PIVRER
_database_code_depnum_ccdc_archive 'CCDC 1234667'
_chemical_formula_sum 'C28 H32 N2 O5'
_chemical_formula_moiety
;
C28 H32 N2 O5
;
_journal_coden_Cambridge 392
_journal_volume 37
_journal_year 1994
_journal_page_first 715
_journal_name_full 'Heterocycles '
loop_
_publ_author_name
"T.Ishizuka"
"H.Matsunaga"
"J.Iwashita"
"T.Arai"
"T.Kunieda"
_chemical_name_systematic
;
3-(4-Methoxy-7,7-dimethylbicylo(2.2.1)heptane-1-carbonyl)-6-benzyl-5-phenyl-3,
6,1,7-diazadioxabicyclo(3.3.0)octane
;
_cell_volume   2534.882
_exptl_crystal_density_diffrn 1.248
_diffrn_ambient_temperature ?
_diffrn_special_details
;
The study was carried out at room temperature,in the range 283-303K

;
#These two values have been output from a single CSD field.
_refine_ls_R_factor_gt 0.0447
_refine_ls_wR_factor_gt 0.0447
_symmetry_cell_setting orthorhombic
_symmetry_space_group_name_H-M 'P 21 21 21'
_symmetry_Int_Tables_number 19
loop_
_symmetry_equiv_pos_site_id
_symmetry_equiv_pos_as_xyz
1 x,y,z
2 1/2+x,1/2-y,-z
3 -x,1/2+y,1/2-z
4 1/2-x,-y,1/2+z
_cell_length_a 15.3861(29)
_cell_length_b 24.0222(49)
_cell_length_c 6.8583(12)
_cell_angle_alpha 90
_cell_angle_beta 90
_cell_angle_gamma 90
_cell_formula_units_Z 4
loop_
_atom_type_symbol
_atom_type_radius_bond
C 0.68
H 0.23
N 0.68
O 0.68
loop_
_atom_site_label
_atom_site_type_symbol
_atom_site_fract_x
_atom_site_fract_y
_atom_site_fract_z
O1 O 0.3470(4) 0.0372(2) 0.8202(8)
O2 O 0.4642(3) 0.1187(2) 0.5071(8)
O3 O 0.5352(4) 0.0623(3) 1.0650(9)
O4 O 0.6301(3) 0.0176(2) 0.8778(11)
O5 O 0.7503(3) 0.0391(2) 0.6895(11)
N1 N 0.5493(4) 0.0832(3) 0.7346(10)
N2 N 0.7432(4) 0.1005(3) 0.6939(13)
C1 C 0.4062(4) 0.1321(3) 0.8246(11)
C2 C 0.3565(5) 0.0860(3) 0.9404(11)
C3 C 0.2703(5) 0.1156(3) 0.9941(13)
C4 C 0.2843(5) 0.1741(3) 0.9221(13)
C5 C 0.3547(6) 0.2007(3) 1.0522(12)
C6 C 0.4390(5) 0.1725(3) 0.9812(13)
C7 C 0.3307(5) 0.1660(3) 0.7270(12)
C8 C 0.3592(6) 0.2210(3) 0.6338(12)
C9 C 0.2758(5) 0.1341(3) 0.5793(12)
C10 C 0.4724(5) 0.1109(3) 0.6802(13)
C11 C 0.3151(6) -0.0082(3) 0.9264(15)
C12 C 0.5674(5) 0.0557(4) 0.9095(15)
C13 C 0.6096(5) 0.0659(3) 0.5820(14)
C14 C 0.6630(6) 0.0207(3) 0.6868(18)
C15 C 0.6799(5) 0.1098(3) 0.5329(15)
C16 C 0.8318(5) 0.1191(4) 0.6434(17)
C17 C 0.8937(5) 0.1086(3) 0.8088(17)
C18 C 0.9581(5) 0.0701(4) 0.7821(19)
C19 C 1.0151(6) 0.0596(4) 0.9358(23)
C20 C 1.0117(6) 0.0894(4) 1.1018(22)
C21 C 0.9468(7) 0.1267(4) 1.1299(20)
C22 C 0.8868(6) 0.1361(3) 0.9843(19)
C23 C 0.6500(5) 0.1694(3) 0.5208(15)
C24 C 0.6460(5) 0.2033(3) 0.6885(13)
C25 C 0.6135(6) 0.2567(3) 0.6701(16)
C26 C 0.5855(6) 0.2768(4) 0.4977(19)
C27 C 0.5905(6) 0.2442(4) 0.3304(16)
C28 C 0.6218(6) 0.1911(4) 0.3452(14)
H1 H 0.390(3) 0.071(2) 1.071(8)
H2 H 0.259(3) 0.113(2) 1.155(9)
H3 H 0.215(3) 0.094(2) 0.926(9)
H4 H 0.221(3) 0.195(2) 0.931(9)
H5 H 0.343(3) 0.196(2) 1.207(9)
H6 H 0.357(3) 0.247(2) 1.024(10)
H7 H 0.486(3) 0.202(2) 0.921(8)
H8 H 0.472(4) 0.151(2) 1.099(9)
H9 H 0.307(3) 0.244(2) 0.566(9)
H10 H 0.389(3) 0.249(2) 0.739(9)
H11 H 0.410(3) 0.214(2) 0.520(9)
H12 H 0.226(3) 0.159(2) 0.510(9)
H13 H 0.317(3) 0.117(2) 0.461(9)
H14 H 0.246(3) 0.099(2) 0.646(9)
H15 H 0.308(3) -0.045(2) 0.832(9)
H16 H 0.358(3) -0.019(2) 1.049(8)
H17 H 0.251(4) 0.000(2) 0.989(9)
H18 H 0.569(3) 0.057(2) 0.448(9)
H19 H 0.665(3) -0.021(2) 0.613(8)
H20 H 0.712(3) 0.105(2) 0.384(9)
H21 H 0.830(3) 0.164(2) 0.599(9)
H22 H 0.855(3) 0.096(2) 0.505(9)
H23 H 0.966(3) 0.044(2) 0.649(9)
H24 H 1.066(3) 0.030(2) 0.898(9)
H25 H 1.064(3) 0.078(2) 1.197(9)
H26 H 0.941(3) 0.148(2) 1.267(9)
H27 H 0.833(3) 0.165(2) 1.018(10)
H28 H 0.667(3) 0.185(2) 0.828(9)
H29 H 0.611(3) 0.287(2) 0.799(9)
H30 H 0.556(3) 0.318(2) 0.471(10)
H31 H 0.570(4) 0.262(2) 0.197(9)
H32 H 0.630(3) 0.165(2) 0.214(9)
#END
