
#######################################################################
#
#                 Cambridge Crystallographic Data Centre
#                                CCDC
#
#######################################################################
#
# If this CIF has been generated from an entry in the Cambridge
# Structural Database, then it will include bibliographic, chemical,
# crystal, experimental, refinement or atomic coordinate data resulting
# from the CCDC's data processing and validation procedures.
#
#######################################################################

data_CSD_CIF_PIVRAN
_audit_creation_date 1994-12-05
_audit_creation_method CSD-ConQuest-V1
_database_code_CSD PIVRAN
_database_code_depnum_ccdc_archive 'CCDC 1234666'
_chemical_formula_sum 'C24 H30 N2 O5'
_chemical_formula_moiety
;
C24 H30 N2 O5
;
_journal_coden_Cambridge 392
_journal_volume 37
_journal_year 1994
_journal_page_first 715
_journal_name_full 'Heterocycles '
loop_
_publ_author_name
"T.Ishizuka"
"H.Matsunaga"
"J.Iwashita"
"T.Arai"
"T.Kunieda"
_chemical_name_systematic
;
3-(2-Oxo-7,7-dimethylbicylo(2.2.1)heptane-1-carbonyl)-6-t-butyl-5-phenyl-3,6,1
,7-diazadioxabicyclo(3.3.0)octan-2-one
;
_cell_volume   1139.104
_exptl_crystal_density_diffrn 1.243
_diffrn_ambient_temperature ?
_diffrn_special_details
;
The study was carried out at room temperature,in the range 283-303K

;
#These two values have been output from a single CSD field.
_refine_ls_R_factor_gt 0.0395
_refine_ls_wR_factor_gt 0.0395
_symmetry_cell_setting monoclinic
_symmetry_space_group_name_H-M 'P 21'
_symmetry_Int_Tables_number 4
loop_
_symmetry_equiv_pos_site_id
_symmetry_equiv_pos_as_xyz
1 x,y,z
2 -x,1/2+y,-z
_cell_length_a 11.465(2)
_cell_length_b 14.423(3)
_cell_length_c 6.908(1)
_cell_angle_alpha 90
_cell_angle_beta 94.29(1)
_cell_angle_gamma 90
_cell_formula_units_Z 2
loop_
_atom_type_symbol
_atom_type_radius_bond
C 0.68
N 0.68
O 0.68
loop_
_atom_site_label
_atom_site_type_symbol
_atom_site_fract_x
_atom_site_fract_y
_atom_site_fract_z
O1 O 0.2349(3) 0.4463(2) 0.5495(4)
O2 O 0.2829(2) 0.2867(2) 0.1131(3)
O3 O 0.0658(2) 0.3029(2) 0.5842(3)
O4 O -0.0637(2) 0.3259(2) 0.3316(3)
O5 O -0.1519(2) 0.2712(1) 0.0381(3)
N1 N 0.1185(2) 0.2904(2) 0.2650(3)
N2 N -0.1049(2) 0.1756(2) 0.0535(3)
C1 C 0.4789(3) 0.2989(4) 0.6594(4)
C2 C 0.4113(3) 0.3834(3) 0.7244(5)
C3 C 0.3052(3) 0.3845(2) 0.5741(4)
C4 C 0.3152(2) 0.2964(2) 0.4570(3)
C5 C 0.3010(3) 0.2139(3) 0.5981(5)
C6 C 0.4182(3) 0.2136(3) 0.7277(5)
C7 C 0.4512(2) 0.2968(4) 0.4359(4)
C8 C 0.4993(4) 0.2109(6) 0.3407(6)
C9 C 0.4919(4) 0.3866(5) 0.3357(6)
C10 C 0.2405(2) 0.2915(2) 0.2684(4)
C11 C 0.0438(2) 0.3064(2) 0.4134(4)
C12 C -0.0652(3) 0.3268(2) 0.1203(5)
C13 C 0.0511(2) 0.2857(2) 0.0771(4)
C14 C 0.0181(2) 0.1857(2) 0.0080(4)
C15 C -0.1846(2) 0.1220(2) -0.0858(5)
C16 C -0.1383(3) 0.0225(3) -0.0838(6)
C17 C -0.1925(3) 0.1615(3) -0.2925(5)
C18 C -0.3033(3) 0.1212(3) -0.0025(6)
C19 C 0.0924(2) 0.1101(2) 0.1062(5)
C20 C 0.1891(3) 0.0765(2) 0.0176(6)
C21 C 0.2592(3) 0.0070(3) 0.1066(8)
C22 C 0.2309(4) -0.0279(3) 0.2793(8)
C23 C 0.1371(4) 0.0035(3) 0.3693(6)
C24 C 0.0665(3) 0.0742(2) 0.2829(5)
#END
