
#######################################################################
#
#                 Cambridge Crystallographic Data Centre
#                                CCDC
#
#######################################################################
#
# If this CIF has been generated from an entry in the Cambridge
# Structural Database, then it will include bibliographic, chemical,
# crystal, experimental, refinement or atomic coordinate data resulting
# from the CCDC's data processing and validation procedures.
#
#######################################################################

data_CSD_CIF_PIWBED
_audit_creation_date 2008-06-15
_audit_creation_method CSD-ConQuest-V1
_database_code_CSD PIWBED
_database_code_depnum_ccdc_archive 'CCDC 661681'
_chemical_formula_sum 'C16 H14 N2 O4'
_chemical_formula_moiety
;
C16 H14 N2 O4
;
_journal_coden_Cambridge 692
_journal_volume 2008
_journal_year 2008
_journal_page_first 293
_journal_name_full 'Synthesis '
loop_
_publ_author_name
"B.Willy"
"F.Rominger"
"T.J.J.Muller"
_chemical_name_systematic
;
3,4-bis(4-Methoxyphenyl)-1,2,5-oxadiazole 2-oxide
;
_cell_volume   2841.311
_exptl_crystal_colour 'colorless'
_exptl_crystal_density_diffrn 1.395
_exptl_crystal_description 'polyhedron'
_diffrn_ambient_temperature 200
_refine_special_details
;
The oxadiazole ring is disordered over two sites with occupancies 
;
#These two values have been output from a single CSD field.
_refine_ls_R_factor_gt 0.0415
_refine_ls_wR_factor_gt 0.0415
_symmetry_cell_setting orthorhombic
_symmetry_space_group_name_H-M 'P b c a'
_symmetry_Int_Tables_number 61
loop_
_symmetry_equiv_pos_site_id
_symmetry_equiv_pos_as_xyz
1 x,y,z
2 1/2-x,-y,1/2+z
3 -x,1/2+y,1/2-z
4 1/2+x,1/2-y,-z
5 -x,-y,-z
6 -1/2+x,y,-1/2-z
7 x,-1/2-y,-1/2+z
8 -1/2-x,-1/2+y,z
_cell_length_a 12.2302(7)
_cell_length_b 8.0177(3)
_cell_length_c 28.9758(18)
_cell_angle_alpha 90
_cell_angle_beta 90
_cell_angle_gamma 90
_cell_formula_units_Z 8
loop_
_atom_type_symbol
_atom_type_radius_bond
C 0.68
H 0.23
N 0.68
O 0.68
loop_
_atom_site_label
_atom_site_type_symbol
_atom_site_fract_x
_atom_site_fract_y
_atom_site_fract_z
C1 C -0.3952(5) 0.0001(19) 0.3833(2)
N1 N -0.4944(4) 0.0168(7) 0.40155(15)
O1 O -0.59034(19) -0.0058(3) 0.38810(7)
C2 C -0.3196(4) 0.0462(12) 0.4185(2)
N2 N -0.3710(3) 0.0867(8) 0.45684(16)
O2 O -0.4811(3) 0.0709(5) 0.44868(11)
C3 C -0.38676(15) -0.0576(2) 0.33268(8)
C4 C -0.45146(16) -0.1861(3) 0.31571(7)
H1 H -0.50420 -0.23690 0.33530
C5 C -0.44014(15) -0.2407(3) 0.27103(7)
H2 H -0.48540 -0.32800 0.25970
C6 C -0.36226(15) -0.1680(3) 0.24226(6)
C7 C -0.29808(15) -0.0387(2) 0.25845(7)
H3 H -0.24540 0.01230 0.23890
C8 C -0.31151(15) 0.0155(2) 0.30337(7)
H4 H -0.26800 0.10520 0.31440
O3 O -0.35465(11) -0.23489(18) 0.19898(4)
C9 C -0.26754(17) -0.1779(3) 0.16996(7)
H5 H -0.27700 -0.05870 0.16360
H6 H -0.26860 -0.24010 0.14080
H7 H -0.19740 -0.19590 0.18560
C10 C -0.20357(17) 0.0437(2) 0.41651(6)
C11 C -0.14739(17) 0.1436(3) 0.44771(6)
H8 H -0.18770 0.21450 0.46770
C12 C -0.03473(17) 0.1430(3) 0.45047(7)
H9 H 0.00170 0.21280 0.47200
C13 C 0.02490(17) 0.0395(2) 0.42151(6)
C14 C -0.02974(16) -0.0621(2) 0.39002(7)
H10 H 0.01090 -0.13300 0.37010
C15 C -0.14184(16) -0.0606(2) 0.38758(7)
H11 H -0.17810 -0.13090 0.36610
O4 O 0.13596(12) 0.02989(18) 0.42111(5)
C16 C 0.19528(17) 0.1355(3) 0.45197(7)
H12 H 0.17870 0.25240 0.44500
H13 H 0.27390 0.11590 0.44820
H14 H 0.17390 0.11060 0.48380
C17? C -0.3418(16) 0.023(4) 0.4063(7)
N3? N -0.4006(12) 0.065(3) 0.4429(5)
O5? O -0.3856(8) 0.1112(13) 0.4839(3)
C18? C -0.416(2) -0.017(9) 0.3703(9)
N4? N -0.5197(17) -0.005(3) 0.3851(6)
O6? O -0.5137(11) 0.0470(18) 0.4301(5)
#END
