
#######################################################################
#
#                 Cambridge Crystallographic Data Centre
#                                CCDC
#
#######################################################################
#
# If this CIF has been generated from an entry in the Cambridge
# Structural Database, then it will include bibliographic, chemical,
# crystal, experimental, refinement or atomic coordinate data resulting
# from the CCDC's data processing and validation procedures.
#
#######################################################################

data_CSD_CIF_PIWBED01
_audit_creation_date 2013-02-22
_audit_creation_method CSD-ConQuest-V1
_database_code_CSD PIWBED01
_database_code_depnum_ccdc_archive 'CCDC 904545'
_chemical_formula_sum 'C16 H14 N2 O4'
_chemical_formula_moiety
;
C16 H14 N2 O4
;
_journal_coden_Cambridge 177
_journal_volume 10
_journal_year 2012
_journal_page_first 9204
_journal_name_full 'Org.Biomol.Chem. '
loop_
_publ_author_name
"M.L.McIntosh"
"M.R.Naffziger"
"B.O.Ashburn"
"L.N.Zakharov"
"R.G.Carter"
_chemical_name_systematic
;
3,4-bis(4-Methoxyphenyl)-1,2,5-oxadiazole 2-oxide
;
_chemical_melting_point 378.15
_cell_volume   2828.314
_exptl_crystal_colour 'colorless'
_exptl_crystal_density_diffrn 1.401
_exptl_special_details
;
Melting point range 378.15-380.15K

;
_exptl_crystal_description 'plate'
_diffrn_ambient_temperature 193
#These two values have been output from a single CSD field.
_refine_ls_R_factor_gt 0.0641
_refine_ls_wR_factor_gt 0.0641
_symmetry_cell_setting orthorhombic
_symmetry_space_group_name_H-M 'P b c a'
_symmetry_Int_Tables_number 61
loop_
_symmetry_equiv_pos_site_id
_symmetry_equiv_pos_as_xyz
1 x,y,z
2 1/2-x,-y,1/2+z
3 -x,1/2+y,1/2-z
4 1/2+x,1/2-y,-z
5 -x,-y,-z
6 -1/2+x,y,-1/2-z
7 x,-1/2-y,-1/2+z
8 -1/2-x,-1/2+y,z
_cell_length_a 12.238(4)
_cell_length_b 8.006(3)
_cell_length_c 28.867(10)
_cell_angle_alpha 90
_cell_angle_beta 90
_cell_angle_gamma 90
_cell_formula_units_Z 8
loop_
_atom_type_symbol
_atom_type_radius_bond
C 0.68
H 0.23
N 0.68
O 0.68
loop_
_atom_site_label
_atom_site_type_symbol
_atom_site_fract_x
_atom_site_fract_y
_atom_site_fract_z
O1 O 0.0182(2) 1.0694(4) 0.44778(10)
O2 O -0.0889(2) 0.9936(4) 0.3883(1)
O3 O 0.1454(2) 0.7649(3) 0.19905(8)
O4 O 0.6365(2) 1.0302(3) 0.42133(9)
N1 N 0.1272(3) 1.0850(4) 0.45696(13)
N2 N 0.0043(3) 1.0152(4) 0.40137(12)
C1 C 0.1779(3) 1.0420(4) 0.41696(13)
C2 C 0.1024(3) 0.9984(4) 0.38171(13)
C3 C 0.1139(3) 0.9432(4) 0.33317(13)
C4 C 0.1899(3) 1.0164(5) 0.30376(13)
C5 C 0.2026(3) 0.9610(5) 0.25864(14)
C6 C 0.1384(3) 0.8320(5) 0.24234(12)
C7 C 0.0595(3) 0.7601(5) 0.27143(14)
C8 C 0.0480(3) 0.8143(5) 0.31590(14)
C9 C 0.2333(4) 0.8226(7) 0.17019(16)
C10 C 0.2977(3) 1.0437(4) 0.41693(12)
C11 C 0.3586(3) 0.9407(5) 0.38770(14)
C12 C 0.4715(3) 0.9376(5) 0.39032(13)
C13 C 0.5260(3) 1.0402(4) 0.42178(12)
C14 C 0.4668(3) 1.1441(5) 0.45107(14)
C15 C 0.3538(3) 1.1448(5) 0.44824(13)
C16 C 0.6956(4) 1.1370(6) 0.45220(16)
H1 H 0.232(3) 1.108(5) 0.3161(12)
H2 H 0.253(3) 1.012(4) 0.2388(12)
H3 H 0.020(3) 0.673(4) 0.2601(10)
H4 H -0.001(3) 0.758(5) 0.3364(13)
H5 H 0.314(4) 0.809(6) 0.1864(15)
H6 H 0.222(3) 0.940(6) 0.1633(13)
H7 H 0.227(3) 0.758(5) 0.1443(14)
H8 H 0.328(3) 0.873(5) 0.3663(12)
H9 H 0.516(3) 0.866(5) 0.3694(14)
H10 H 0.500(3) 1.217(5) 0.4741(13)
H11 H 0.315(3) 1.216(5) 0.4701(12)
H12 H 0.767(5) 1.100(6) 0.4463(17)
H13 H 0.687(3) 1.254(5) 0.4447(12)
H14 H 0.678(3) 1.112(4) 0.4849(13)
#END
