
#######################################################################
#
#                 Cambridge Crystallographic Data Centre
#                                CCDC
#
#######################################################################
#
# If this CIF has been generated from an entry in the Cambridge
# Structural Database, then it will include bibliographic, chemical,
# crystal, experimental, refinement or atomic coordinate data resulting
# from the CCDC's data processing and validation procedures.
#
#######################################################################

data_CSD_CIF_PIWVAT
_audit_creation_date 2008-06-16
_audit_creation_method CSD-ConQuest-V1
_database_code_CSD PIWVAT
_database_code_depnum_ccdc_archive 'CCDC 670062'
_chemical_formula_sum 'C16 H20 N2 O5'
_chemical_formula_moiety
;
C16 H20 N2 O5
;
_journal_coden_Cambridge 1127
_journal_volume 18
_journal_year 2008
_journal_page_first 1288
_journal_name_full 'Bioorg.Med.Chem.Lett. '
loop_
_publ_author_name
"G.R.Ott"
"N.Asakawa"
"Rui-Qin Liu"
"M.B.Covington"
"Mingxin Qian"
"K.Vaddi"
"R.C.Newton"
"J.M.Trzaskos"
"D.D.Christ"
"L.Gayla"
"T.Scholz"
"W.Marshall"
"J.J.-W.Duan"
_chemical_name_systematic
;
N-Hydroxy-8-((4-hydroxybenzoyl)amino)-1-oxaspiro[4.4]nonane-7-carboxamide
;
_cell_volume    744.276
_exptl_crystal_colour 'colorless'
_exptl_crystal_density_diffrn 1.429
_diffrn_ambient_temperature 163
#These two values have been output from a single CSD field.
_refine_ls_R_factor_gt 0.0404
_refine_ls_wR_factor_gt 0.0404
_symmetry_cell_setting monoclinic
_symmetry_space_group_name_H-M 'P 21'
_symmetry_Int_Tables_number 4
loop_
_symmetry_equiv_pos_site_id
_symmetry_equiv_pos_as_xyz
1 x,y,z
2 -x,1/2+y,-z
_cell_length_a 11.3584(17)
_cell_length_b 5.2618(8)
_cell_length_c 13.350(2)
_cell_angle_alpha 90
_cell_angle_beta 111.120(3)
_cell_angle_gamma 90
_cell_formula_units_Z 2
loop_
_atom_type_symbol
_atom_type_radius_bond
C 0.68
H 0.23
N 0.68
O 0.68
loop_
_atom_site_label
_atom_site_type_symbol
_atom_site_fract_x
_atom_site_fract_y
_atom_site_fract_z
O1 O -0.1576(2) -0.2452(5) -0.44261(19)
C1 C -0.2570(3) -0.2203(6) -0.4086(2)
C2 C -0.2746(3) -0.4064(6) -0.3432(2)
H1 H -0.22020 -0.54980 -0.32470
C3 C -0.3713(3) -0.3849(6) -0.3042(2)
H2 H -0.38270 -0.51340 -0.25860
C4 C -0.4527(3) -0.1766(6) -0.3311(2)
C5 C -0.4354(3) 0.0054(7) -0.3991(2)
H3 H -0.49080 0.14720 -0.41880
C6 C -0.3391(3) -0.0145(6) -0.4392(2)
H4 H -0.32920 0.11050 -0.48690
O2 O -0.58507(19) 0.0907(4) -0.27316(17)
C7 C -0.5485(3) -0.1291(6) -0.2810(2)
N1 N -0.5900(2) -0.3291(6) -0.2396(2)
C8 C -0.6610(2) -0.2895(7) -0.1697(2)
H5 H -0.61820 -0.15140 -0.11800
C9 C -0.8032(2) -0.2144(6) -0.2250(2)
H6 H -0.81180 -0.02520 -0.22960
C10 C -0.8658(3) -0.3197(8) -0.1494(2)
H7 H -0.93390 -0.44020 -0.18830
H8 H -0.90300 -0.17960 -0.12100
C11 C -0.7630(3) -0.4565(6) -0.0568(2)
C12 C -0.6645(3) -0.5230(7) -0.1053(2)
H9 H -0.58120 -0.55490 -0.04860
H10 H -0.69000 -0.67480 -0.15200
C13 C -0.7133(3) -0.3048(7) 0.0457(2)
H11 H -0.71790 -0.12020 0.03050
H12 H -0.62470 -0.35100 0.08800
C14 C -0.8007(3) -0.3785(7) 0.1050(3)
H13 H -0.75310 -0.39620 0.18300
H14 H -0.86830 -0.25070 0.09340
C15 C -0.8542(3) -0.6288(7) 0.0559(3)
H15 H -0.82840 -0.76360 0.11130
H16 H -0.94750 -0.62000 0.02680
O3 O -0.8101(2) -0.6864(4) -0.02647(17)
O4 O -0.88578(18) -0.5581(4) -0.35066(17)
C16 C -0.8563(2) -0.3285(7) -0.3355(3)
N2 N -0.8678(2) -0.1701(5) -0.4146(2)
O5 O -0.9040(2) -0.2638(4) -0.51873(17)
H17 H -0.581(3) -0.468(7) -0.255(3)
H18 H -0.839(3) -0.013(7) -0.411(2)
H19 H -0.146(3) -0.124(6) -0.482(2)
H20 H -0.978(4) -0.177(10) -0.559(3)
#END
