
#######################################################################
#
#                 Cambridge Crystallographic Data Centre
#                                CCDC
#
#######################################################################
#
# If this CIF has been generated from an entry in the Cambridge
# Structural Database, then it will include bibliographic, chemical,
# crystal, experimental, refinement or atomic coordinate data resulting
# from the CCDC's data processing and validation procedures.
#
#######################################################################

data_CSD_CIF_PIWYAV
_audit_creation_date 1995-01-12
_audit_creation_method CSD-ConQuest-V1
_database_code_CSD PIWYAV
_chemical_formula_sum 'C30 H25 N3 O4'
_chemical_formula_moiety
;
C30 H25 N3 O4
;
_journal_coden_Cambridge 4
_journal_volume 116
_journal_year 1994
_journal_page_first 4497
_journal_name_full 'J.Am.Chem.Soc. '
loop_
_publ_author_name
"S.Paliwal"
"S.Geib"
"C.S.Wilcox"
_chemical_name_systematic
;
p-Nitrophenyl 
2-(9-methyl-6,7,11,12-tetrahydro-6,12-methano(b,f)dibenzo-1,5-diazocin-3-yl)-3
-methylbenzoate unknown solvate
;
_cell_volume   1393.242
_exptl_crystal_colour 'colorless'
_exptl_special_details
;
Published fw of 545.6 includes 0.5(C9) solvent atoms; published dx 1.200; we 
calculate dx 1.17
;
_diffrn_ambient_temperature ?
_diffrn_special_details
;
The study was carried out at room temperature,in the range 283-303K

;
_refine_special_details
;
Disordered solvent C31-C39 is refined at 0.5 occupancy.

;
#These two values have been output from a single CSD field.
_refine_ls_R_factor_gt 0.0587
_refine_ls_wR_factor_gt 0.0587
_symmetry_cell_setting triclinic
_symmetry_space_group_name_H-M 'P -1'
_symmetry_Int_Tables_number 2
loop_
_symmetry_equiv_pos_site_id
_symmetry_equiv_pos_as_xyz
1 x,y,z
2 -x,-y,-z
_cell_length_a 8.873(2)
_cell_length_b 10.589(2)
_cell_length_c 15.300(3)
_cell_angle_alpha 76.23(3)
_cell_angle_beta 87.99(3)
_cell_angle_gamma 86.46(3)
_cell_formula_units_Z 2
loop_
_atom_type_symbol
_atom_type_radius_bond
C 0.68
H 0.23
N 0.68
O 0.68
loop_
_atom_site_label
_atom_site_type_symbol
_atom_site_fract_x
_atom_site_fract_y
_atom_site_fract_z
O1 O 0.3092(6) 1.0147(5) 0.8003(4)
O2 O 0.1885(4) 1.0659(4) 0.9086(3)
O3 O -0.1709(3) 0.5903(3) 0.8695(2)
O4 O -0.1736(5) 0.5291(3) 1.0213(2)
N1 N 0.2039(5) 1.0016(4) 0.8535(3)
N2 N 0.4083(4) 0.4308(3) 0.6999(2)
N3 N 0.2129(4) 0.4629(4) 0.5883(2)
C1 C 0.1000(5) 0.8978(4) 0.8543(3)
C2 C -0.0230(5) 0.8874(5) 0.9122(3)
C3 C -0.1159(5) 0.7845(5) 0.9187(3)
C4 C -0.0829(5) 0.6964(4) 0.8668(3)
C5 C 0.0382(6) 0.7101(4) 0.8065(3)
C6 C 0.1312(6) 0.8114(5) 0.8003(3)
C7 C -0.1987(5) 0.5056(4) 0.9501(3)
C8 C -0.2707(4) 0.3875(4) 0.9399(3)
C9 C -0.3713(5) 0.3352(5) 1.0092(3)
C10 C -0.4480(5) 0.2273(6) 1.0063(4)
C11 C -0.4251(5) 0.1714(5) 0.9338(4)
C12 C -0.3228(5) 0.2191(4) 0.8643(3)
C13 C -0.2423(4) 0.3287(4) 0.8664(3)
C14 C -0.2993(6) 0.1504(5) 0.7886(3)
C15 C -0.1249(4) 0.3743(4) 0.7949(3)
C16 C -0.1624(5) 0.4303(4) 0.7055(3)
C17 C -0.0526(4) 0.4635(4) 0.6394(3)
C18 C 0.1008(4) 0.4406(4) 0.6603(3)
C19 C 0.1425(4) 0.3902(4) 0.7498(3)
C20 C 0.0275(4) 0.3561(4) 0.8157(3)
C21 C 0.3081(4) 0.3736(4) 0.7761(3)
C22 C 0.3566(5) 0.3948(5) 0.6201(3)
C23 C 0.2391(5) 0.6022(5) 0.5525(3)
C24 C 0.5261(5) 0.7544(5) 0.7193(3)
C25 C 0.5051(5) 0.6234(5) 0.7384(3)
C26 C 0.4159(4) 0.5699(4) 0.6838(3)
C27 C 0.3439(4) 0.6532(4) 0.6111(3)
C28 C 0.3681(5) 0.7871(5) 0.5932(3)
C29 C 0.4598(5) 0.8400(5) 0.6452(3)
C30 C 0.4867(7) 0.9832(5) 0.6243(3)
C31? C 0.0564(30) -0.0009(30) 0.3834(19)
C32? C -0.0235(23) -0.0981(24) 0.4080(15)
C33? C -0.0657(53) -0.1512(45) 0.4053(33)
C34? C -0.0864(21) -0.1523(19) 0.4776(16)
C35? C -0.1423(32) -0.1778(28) 0.5345(24)
C36? C -0.1090(28) -0.1246(29) 0.5716(17)
C37? C -0.0585(23) -0.0385(26) 0.5791(18)
C38? C -0.0556(18) -0.0627(17) 0.5282(14)
C39? C -0.0052(17) -0.0318(17) 0.4515(12)
H1 H -0.04760 0.95430 0.94390
H2 H -0.19890 0.77270 0.96130
H3 H 0.06290 0.64670 0.77190
H4 H 0.21410 0.82510 0.75770
H5 H -0.38790 0.37540 1.05900
H6 H -0.51320 0.19130 1.05620
H7 H -0.48210 0.09910 0.92920
H8 H -0.36230 0.07760 0.79860
H9 H -0.32510 0.21020 0.73270
H10 H -0.19530 0.12020 0.78600
H11 H -0.26690 0.44630 0.69010
H12 H -0.08030 0.50430 0.57870
H13 H 0.05470 0.32130 0.87730
H14 H 0.32020 0.41550 0.82440
H15 H 0.33680 0.28280 0.79740
H16 H 0.34520 0.30250 0.63480
H17 H 0.43130 0.41450 0.57260
H18 H 0.14550 0.65370 0.54760
H19 H 0.28370 0.61330 0.49320
H20 H 0.58790 0.78770 0.75800
H21 H 0.54880 0.56450 0.79010
H22 H 0.31070 0.84160 0.54510
H23 H 0.43560 1.03400 0.57220
H24 H 0.45580 1.01600 0.67590
H25 H 0.59380 0.98880 0.61480
#END
