
#######################################################################
#
#                 Cambridge Crystallographic Data Centre
#                                CCDC
#
#######################################################################
#
# If this CIF has been generated from an entry in the Cambridge
# Structural Database, then it will include bibliographic, chemical,
# crystal, experimental, refinement or atomic coordinate data resulting
# from the CCDC's data processing and validation procedures.
#
#######################################################################

data_CSD_CIF_PIWYEZ
_audit_creation_date 1995-01-12
_audit_creation_method CSD-ConQuest-V1
_database_code_CSD PIWYEZ
_chemical_formula_sum 'C32 H29 N3 O4'
_chemical_formula_moiety
;
C32 H29 N3 O4
;
_journal_coden_Cambridge 4
_journal_volume 116
_journal_year 1994
_journal_page_first 4497
_journal_name_full 'J.Am.Chem.Soc. '
loop_
_publ_author_name
"S.Paliwal"
"S.Geib"
"C.S.Wilcox"
_chemical_name_systematic
;
p-Nitrophenyl 
2-(1,7,9-trimethyl-6,7,11,12-tetrahydro-6,12-methano(b,f)dibenzo-1,5-diazocin-
3-yl)-3-methylbenzoate
;
_cell_volume   2676.038
_exptl_crystal_colour 'colorless'
_exptl_crystal_density_diffrn 1.29
_diffrn_ambient_temperature ?
_diffrn_special_details
;
The study was carried out at room temperature,in the range 283-303K

;
#These two values have been output from a single CSD field.
_refine_ls_R_factor_gt 0.1043
_refine_ls_wR_factor_gt 0.1043
_symmetry_cell_setting monoclinic
_symmetry_space_group_name_H-M 'P 21/c'
_symmetry_Int_Tables_number 14
loop_
_symmetry_equiv_pos_site_id
_symmetry_equiv_pos_as_xyz
1 x,y,z
2 -x,1/2+y,1/2-z
3 -x,-y,-z
4 x,-1/2-y,-1/2+z
_cell_length_a 21.617(4)
_cell_length_b 15.367(3)
_cell_length_c 8.062(2)
_cell_angle_alpha 90
_cell_angle_beta 92.25(3)
_cell_angle_gamma 90
_cell_formula_units_Z 4
loop_
_atom_type_symbol
_atom_type_radius_bond
C 0.68
H 0.23
N 0.68
O 0.68
loop_
_atom_site_label
_atom_site_type_symbol
_atom_site_fract_x
_atom_site_fract_y
_atom_site_fract_z
O1 O 0.2820(5) 0.0771(7) 0.0124(16)
O2 O 0.3563(5) 0.1674(7) 0.0270(16)
O3 O 0.1374(3) 0.4252(4) -0.0705(8)
O4 O 0.0931(5) 0.3800(6) -0.3081(11)
N1 N 0.3016(5) 0.1492(8) 0.0117(14)
N2 N 0.3671(3) 0.6306(5) -0.1024(9)
N3 N 0.3218(3) 0.6534(5) 0.1643(9)
C1 C 0.2578(5) 0.2214(7) -0.0151(14)
C2 C 0.2808(6) 0.3063(8) -0.0149(18)
C3 C 0.2387(5) 0.3729(7) -0.0409(16)
C4 C 0.1775(5) 0.3554(7) -0.0571(12)
C5 C 0.1559(5) 0.2697(7) -0.0567(15)
C6 C 0.1984(6) 0.2037(7) -0.0342(15)
C7 C 0.0967(5) 0.4350(8) -0.2016(15)
C8 C 0.0592(5) 0.5134(7) -0.1920(12)
C9 C 0.0773(4) 0.5917(6) -0.1144(11)
C10 C 0.0376(5) 0.6599(8) -0.1128(12)
C11 C -0.0229(5) 0.6495(9) -0.1852(14)
C12 C -0.0407(5) 0.5704(9) -0.2620(15)
C13 C 0.0002(5) 0.5055(8) -0.2672(15)
C14 C 0.0551(6) 0.7458(7) -0.0380(16)
C15 C 0.1432(5) 0.6013(6) -0.0434(11)
C16 C 0.1928(4) 0.6095(6) -0.1419(11)
C17 C 0.2537(4) 0.6221(6) -0.0802(11)
C18 C 0.2611(4) 0.6313(6) 0.0971(11)
C19 C 0.2130(4) 0.6230(6) 0.1939(10)
C20 C 0.1519(5) 0.6098(6) 0.1304(11)
C21 C 0.2189(5) 0.6335(7) 0.3878(11)
C22 C 0.3608(4) 0.6908(7) 0.0370(12)
C23 C 0.3542(5) 0.5797(6) 0.2433(11)
C24 C 0.3051(4) 0.6277(7) -0.1890(11)
C25 C 0.3853(4) 0.5230(7) 0.1179(11)
C26 C 0.4114(4) 0.4426(7) 0.1685(13)
C27 C 0.4408(5) 0.3896(7) 0.0604(14)
C28 C 0.4465(4) 0.4156(7) -0.1062(13)
C29 C 0.4201(4) 0.4946(7) -0.1609(11)
C30 C 0.3904(4) 0.5464(6) -0.0487(11)
C31 C 0.4282(4) 0.5225(7) -0.3380(11)
C32 C 0.4701(5) 0.3057(7) 0.1192(15)
H1 H 0.32460 0.31650 -0.00120
H2 H 0.25220 0.43240 -0.04380
H3 H 0.11250 0.25770 -0.07140
H4 H 0.18510 0.14410 -0.03390
H5 H -0.05210 0.69630 -0.17940
H6 H -0.08170 0.56340 -0.31070
H7 H -0.01170 0.45230 -0.32210
H8 H 0.09740 0.74470 0.00330
H9 H 0.04970 0.79220 -0.11700
H10 H 0.02830 0.75500 0.05250
H11 H 0.18500 0.60720 -0.25990
H12 H 0.11780 0.60630 0.20300
H13 H 0.26120 0.64270 0.42370
H14 H 0.19440 0.68230 0.41970
H15 H 0.20370 0.58160 0.43860
H16 H 0.34230 0.74380 -0.00380
H17 H 0.40100 0.70410 0.08500
H18 H 0.32470 0.54500 0.30000
H19 H 0.38460 0.60050 0.32390
H20 H 0.30410 0.57760 -0.26040
H21 H 0.30000 0.67840 -0.25750
H22 H 0.40850 0.42410 0.28170
H23 H 0.46810 0.37980 -0.18240
H24 H 0.40780 0.57710 -0.35850
H25 H 0.47160 0.52880 -0.35630
H26 H 0.41090 0.47920 -0.41190
H27 H 0.48880 0.27720 0.02770
H28 H 0.50120 0.31710 0.20480
H29 H 0.43870 0.26880 0.16220
#END
