
#######################################################################
#
#                 Cambridge Crystallographic Data Centre
#                                CCDC
#
#######################################################################
#
# If this CIF has been generated from an entry in the Cambridge
# Structural Database, then it will include bibliographic, chemical,
# crystal, experimental, refinement or atomic coordinate data resulting
# from the CCDC's data processing and validation procedures.
#
#######################################################################

data_CSD_CIF_PIXBUV
_audit_creation_date 2013-12-12
_audit_creation_method CSD-ConQuest-V1
_database_code_CSD PIXBUV
_database_code_depnum_ccdc_archive 'CCDC 952415'
_chemical_formula_sum 'C9 H14 N1 O1'
_chemical_formula_moiety
;
C9 H14 N1 O1
;
_journal_coden_Cambridge 1500
_journal_volume 4
_journal_year 2014
_journal_page_first 743
_journal_name_full 'RSC Advances '
loop_
_publ_author_name
"N.Hoshino"
"T.Takeda"
"T.Akutagawa"
_chemical_name_systematic
;
2-Azatricyclo[3.3.1.1^3,7^]dec-2-yloxidanyl radical
;
_cell_volume   1586.110
_exptl_crystal_colour 'yellow'
_exptl_crystal_density_diffrn 1.275
_exptl_crystal_description 'needle'
_diffrn_ambient_temperature 250
#These two values have been output from a single CSD field.
_refine_ls_R_factor_gt 0.0656
_refine_ls_wR_factor_gt 0.0656
_symmetry_cell_setting orthorhombic
_symmetry_space_group_name_H-M 'P b c a'
_symmetry_Int_Tables_number 61
loop_
_symmetry_equiv_pos_site_id
_symmetry_equiv_pos_as_xyz
1 x,y,z
2 1/2-x,-y,1/2+z
3 -x,1/2+y,1/2-z
4 1/2+x,1/2-y,-z
5 -x,-y,-z
6 -1/2+x,y,-1/2-z
7 x,-1/2-y,-1/2+z
8 -1/2-x,-1/2+y,z
_cell_length_a 11.2663(3)
_cell_length_b 10.6630(3)
_cell_length_c 13.2030(3)
_cell_angle_alpha 90
_cell_angle_beta 90
_cell_angle_gamma 90
_cell_formula_units_Z 8
loop_
_atom_type_symbol
_atom_type_radius_bond
C 0.68
H 0.23
N 0.68
O 0.68
loop_
_atom_site_label
_atom_site_type_symbol
_atom_site_fract_x
_atom_site_fract_y
_atom_site_fract_z
O1 O 0.54534(18) 0.09867(18) 0.54706(14)
N1 N 0.48153(19) 0.1160(2) 0.46773(15)
C1 C 0.3638(2) 0.1726(3) 0.4807(2)
H1 H 0.32690 0.14140 0.54400
C2 C 0.3779(3) 0.3149(3) 0.4860(2)
H2 H 0.42690 0.33760 0.54460
H3 H 0.30000 0.35450 0.49390
C3 C 0.4370(2) 0.3610(2) 0.3883(2)
H4 H 0.44700 0.45320 0.39130
C4 C 0.5590(3) 0.2982(3) 0.3786(2)
H5 H 0.60870 0.32030 0.43690
H6 H 0.59880 0.32730 0.31690
C5 C 0.5413(3) 0.1556(3) 0.3743(2)
H7 H 0.61940 0.11350 0.36910
C6 C 0.2864(2) 0.1381(3) 0.3904(2)
H8 H 0.20790 0.17670 0.39770
H9 H 0.27610 0.04690 0.38750
C7 C 0.3607(3) 0.3264(3) 0.2972(2)
H10 H 0.39880 0.35570 0.23480
H11 H 0.28290 0.36710 0.30270
C8 C 0.4656(3) 0.1207(3) 0.2840(2)
H12 H 0.45530 0.02950 0.28130
H13 H 0.50470 0.14760 0.22140
C9 C 0.3450(3) 0.1843(3) 0.2933(2)
H14 H 0.29500 0.16160 0.23450
#END
