
#######################################################################
#
#                 Cambridge Crystallographic Data Centre
#                                CCDC
#
#######################################################################
#
# If this CIF has been generated from an entry in the Cambridge
# Structural Database, then it will include bibliographic, chemical,
# crystal, experimental, refinement or atomic coordinate data resulting
# from the CCDC's data processing and validation procedures.
#
#######################################################################

data_CSD_CIF_PIXLUE
_audit_creation_date 2008-06-16
_audit_creation_method CSD-ConQuest-V1
_database_code_CSD PIXLUE
_database_code_depnum_ccdc_archive 'CCDC 637971'
_chemical_formula_sum 'C20 H19 N1 O3'
_chemical_formula_moiety
;
C20 H19 N1 O3
;
_journal_coden_Cambridge 1366
_journal_volume 350
_journal_year 2008
_journal_page_first 267
_journal_name_full 'Adv.Synth.Catal. '
loop_
_publ_author_name
"D.Enders"
"M.R.M.Huttl"
"G.Raabe"
"J.W.Bats"
_chemical_name_systematic
;
(3S,4S,5R,6R)-3-Methyl-5-nitro-4,6-diphenylcyclohex-1-ene-1-carbaldehyde
;
_cell_volume   1656.193
_exptl_crystal_colour 'colorless'
_exptl_crystal_density_diffrn 1.289
_exptl_crystal_description 'rod'
_diffrn_ambient_temperature 159
#These two values have been output from a single CSD field.
_refine_ls_R_factor_gt 0.0536
_refine_ls_wR_factor_gt 0.0536
_symmetry_cell_setting orthorhombic
_symmetry_space_group_name_H-M 'P 21 21 21'
_symmetry_Int_Tables_number 19
loop_
_symmetry_equiv_pos_site_id
_symmetry_equiv_pos_as_xyz
1 x,y,z
2 1/2-x,-y,1/2+z
3 -x,1/2+y,1/2-z
4 1/2+x,1/2-y,-z
_cell_length_a 8.2139(16)
_cell_length_b 10.053(2)
_cell_length_c 20.057(3)
_cell_angle_alpha 90
_cell_angle_beta 90
_cell_angle_gamma 90
_cell_formula_units_Z 4
loop_
_atom_type_symbol
_atom_type_radius_bond
C 0.68
H 0.23
N 0.68
O 0.68
loop_
_atom_site_label
_atom_site_type_symbol
_atom_site_fract_x
_atom_site_fract_y
_atom_site_fract_z
C1 C 0.3536(2) 0.5653(2) 0.11237(10)
H1 H 0.34260 0.47800 0.13590
C2 C 0.1794(2) 0.6213(2) 0.10932(10)
H2 H 0.13760 0.62790 0.15600
C3 C 0.0687(3) 0.2850(2) 0.10726(10)
H3 H 0.14660 0.26720 0.07340
O1 O 0.2399(2) 0.77847(16) 0.02520(8)
O2 O -0.1092(2) 0.41776(18) -0.04636(8)
C4 C 0.0630(2) 0.5286(2) 0.06984(9)
H4 H -0.03620 0.58110 0.05790
C5 C 0.1406(3) 0.4806(2) 0.00582(9)
C6 C 0.3012(3) 0.4820(2) -0.0042(1)
H5 H 0.33950 0.44930 -0.04580
C7 C 0.4260(2) 0.5303(2) 0.04412(10)
H6 H 0.47460 0.61340 0.02530
C8 C 0.4697(2) 0.6465(2) 0.15573(10)
C9 C 0.0099(2) 0.4138(2) 0.11547(10)
C10 C -0.1021(3) 0.4382(2) 0.16661(10)
H7 H -0.14150 0.52600 0.17370
N1 N 0.1732(2) 0.75904(18) 0.07877(9)
C11 C 0.0374(3) 0.4277(2) -0.04784(10)
H8 H 0.09070 0.39870 -0.08730
C12 C 0.4953(3) 0.6109(2) 0.22209(10)
H9 H 0.43480 0.53940 0.24070
C13 C 0.6072(3) 0.6776(2) 0.26146(10)
H10 H 0.62200 0.65210 0.30670
C14 C 0.5591(3) 0.7526(2) 0.13038(10)
H11 H 0.54220 0.78010 0.08560
C15 C 0.0146(3) 0.1818(2) 0.14805(10)
H12 H 0.05550 0.09420 0.14200
O3 O 0.0956(3) 0.84384(18) 0.10872(10)
C16 C 0.6975(3) 0.7815(2) 0.23509(11)
H13 H 0.77560 0.82650 0.26180
C17 C -0.1562(3) 0.3348(3) 0.20708(11)
H14 H -0.23280 0.35210 0.24150
C18 C -0.0992(3) 0.2075(3) 0.19742(11)
H15 H -0.13800 0.13710 0.22470
C19 C 0.6726(3) 0.8190(2) 0.16944(11)
H16 H 0.73340 0.89050 0.15100
C20 C 0.5634(3) 0.4286(3) 0.05162(14)
H17 H 0.51870 0.34460 0.06830
H18 H 0.64460 0.46250 0.08310
H19 H 0.61480 0.41370 0.00820
#END
