
#######################################################################
#
#                 Cambridge Crystallographic Data Centre
#                                CCDC
#
#######################################################################
#
# If this CIF has been generated from an entry in the Cambridge
# Structural Database, then it will include bibliographic, chemical,
# crystal, experimental, refinement or atomic coordinate data resulting
# from the CCDC's data processing and validation procedures.
#
#######################################################################

data_CSD_CIF_PIXNAP
_audit_creation_date 1975-07-10
_audit_creation_method CSD-ConQuest-V1
_database_code_CSD PIXNAP
_chemical_formula_sum 'C20 H25 N2 O2'
_chemical_formula_moiety
;
C20 H25 N2 O2
;
_journal_coden_Cambridge 82
_journal_volume 15
_journal_year 1974
_journal_page_first 103
_journal_name_full 'Zh.Strukt.Khim.(Russ.)(J.Struct.Chem.) '
loop_
_publ_author_name
"S.D.Mamedov"
"A.D.Khalilov"
"M.K.Gusejnova"
_chemical_name_systematic
;
2,2,6,6-Tetramethylpiperidine-1-iminoxyl-4-(N-2-hydroxy-1-naphthaldehyde 
imine)
;
_cell_volume   3657.946
_exptl_special_details
;
x(C12) = 0.1340 not 0.1430; x(C16) = -0.0020, not 0.0020

;
_diffrn_ambient_temperature ?
_diffrn_special_details
;
The study was carried out at room temperature,in the range 283-303K

;
#These two values have been output from a single CSD field.
_refine_ls_R_factor_gt 0.19
_refine_ls_wR_factor_gt 0.19
_symmetry_cell_setting orthorhombic
_symmetry_space_group_name_H-M 'P b c a'
_symmetry_Int_Tables_number 61
loop_
_symmetry_equiv_pos_site_id
_symmetry_equiv_pos_as_xyz
1 x,y,z
2 1/2-x,1/2+y,z
3 x,1/2-y,1/2+z
4 1/2-x,-y,1/2+z
5 -x,-y,-z
6 -1/2+x,-1/2-y,-z
7 -x,-1/2+y,-1/2-z
8 -1/2+x,y,-1/2-z
_cell_length_a 13.51(2)
_cell_length_b 14.08(2)
_cell_length_c 19.23(3)
_cell_angle_alpha 90
_cell_angle_beta 90
_cell_angle_gamma 90
_cell_formula_units_Z 8
loop_
_atom_type_symbol
_atom_type_radius_bond
C 0.68
N 0.68
O 0.68
loop_
_atom_site_label
_atom_site_type_symbol
_atom_site_fract_x
_atom_site_fract_y
_atom_site_fract_z
C1 C 0.12300 0.21700 0.20600
C2 C 0.05400 0.48200 0.22900
C3 C 0.09700 0.13700 0.15800
C4 C 0.13400 -0.01500 0.10500
C5 C 0.12600 -0.11300 0.14400
C6 C 0.09400 -0.19100 0.08800
C7 C 0.10800 -0.29700 0.12300
C8 C -0.00200 -0.17000 0.04400
C9 C 0.23900 -0.09500 0.00500
C10 C 0.35300 -0.13200 -0.01600
C11 C 0.18400 -0.05000 -0.05800
C12 C 0.20200 0.20600 0.26600
C13 C 0.24400 -0.01800 0.06800
C14 C 0.21700 0.29200 0.30700
C15 C 0.18800 0.37700 0.29100
C16 C 0.09900 0.39200 0.23800
C17 C 0.06700 0.30500 0.20100
C18 C -0.00100 0.31800 0.14600
C19 C -0.05200 0.41500 0.14000
C20 C -0.02800 0.49000 0.18600
N1 N 0.15100 0.05400 0.16800
N2 N 0.18400 -0.19100 0.03000
O1 O 0.24900 0.12600 0.27400
O2 O 0.18200 -0.26300 -0.01100
#END
