
#######################################################################
#
#                 Cambridge Crystallographic Data Centre
#                                CCDC
#
#######################################################################
#
# If this CIF has been generated from an entry in the Cambridge
# Structural Database, then it will include bibliographic, chemical,
# crystal, experimental, refinement or atomic coordinate data resulting
# from the CCDC's data processing and validation procedures.
#
#######################################################################

data_CSD_CIF_PIXTEX
_audit_creation_date 2013-12-13
_audit_creation_method CSD-ConQuest-V1
_database_code_CSD PIXTEX
_database_code_depnum_ccdc_archive 'CCDC 972725'
_chemical_formula_sum 'C30 H46 N6 O4'
_chemical_formula_moiety
;
C30 H46 N6 O4
;
_journal_coeditor_code "IUCr vm2199"
_journal_coden_Cambridge 1370
_journal_volume 70
_journal_year 2014
_journal_page_first o50
_journal_name_full 'Acta Crystallogr.,Sect.E:Struct.Rep.Online '
loop_
_publ_author_name
"K.Gayathri"
"S.Sathya"
"G.Usha"
"G.Ramanjaneya Reddy"
"S.Balasubramanian"
_chemical_name_systematic
;
5,5,7,12,12,14-Hexamethyl-1,8-bis(4-nitrobenzyl)-1,4,8,11-tetraazacyclotetrade
cane
;
_cell_volume    758.452
_exptl_crystal_colour 'colorless'
_exptl_crystal_density_diffrn 1.215
_exptl_crystal_description 'block'
_diffrn_ambient_temperature 273
#These two values have been output from a single CSD field.
_refine_ls_R_factor_gt 0.0506
_refine_ls_wR_factor_gt 0.0506
_symmetry_cell_setting triclinic
_symmetry_space_group_name_H-M 'P -1'
_symmetry_Int_Tables_number 2
loop_
_symmetry_equiv_pos_site_id
_symmetry_equiv_pos_as_xyz
1 x,y,z
2 -x,-y,-z
_cell_length_a 8.6407(4)
_cell_length_b 9.1433(3)
_cell_length_c 11.0008(5)
_cell_angle_alpha 107.742(2)
_cell_angle_beta 104.898(2)
_cell_angle_gamma 102.372(2)
_cell_formula_units_Z 1
loop_
_atom_type_symbol
_atom_type_radius_bond
C 0.68
H 0.23
N 0.68
O 0.68
loop_
_atom_site_label
_atom_site_type_symbol
_atom_site_fract_x
_atom_site_fract_y
_atom_site_fract_z
C1 C 0.17573(15) 0.33128(15) 0.19940(12)
H1 H 0.19590 0.39750 0.29420
C2 C 0.26370(18) 0.93648(14) 0.50435(14)
C3 C 0.19243(17) 0.89974(15) 0.36661(14)
H2 H 0.12030 0.95250 0.33460
C4 C 0.23154(16) 0.78245(15) 0.27817(13)
H3 H 0.18490 0.75540 0.18500
C5 C 0.33941(14) 0.70422(13) 0.32604(12)
C6 C 0.40708(17) 0.74400(16) 0.46470(13)
H4 H 0.47910 0.69150 0.49740
C7 C 0.37823(15) 0.57761(15) 0.22457(13)
H5 H 0.42920 0.62590 0.17120
H6 H 0.45840 0.53660 0.27240
C8 C 0.2822(2) 0.2174(2) 0.20329(19)
H7 H 0.39980 0.27990 0.24380
H8 H 0.25960 0.14440 0.11230
H9 H 0.25370 0.15650 0.25620
C9 C -0.01195(16) 0.23196(14) 0.13605(14)
H10 H -0.02950 0.15010 0.17460
H11 H -0.03660 0.17550 0.03960
C10 C 0.22706(16) 0.36646(14) -0.00178(12)
H12 H 0.12260 0.27760 -0.05450
H13 H 0.31900 0.32080 0.00560
C11 C 0.24794(16) 0.47711(16) -0.07869(14)
H14 H 0.36460 0.54630 -0.04220
H15 H 0.22310 0.41180 -0.17350
C12 C 0.14282(15) 0.68065(14) -0.15082(13)
C13 C 0.31661(18) 0.81153(19) -0.08704(18)
H16 H 0.40250 0.76140 -0.09440
H17 H 0.33680 0.87050 0.00720
H18 H 0.31930 0.88450 -0.13390
C14 C 0.1105(2) 0.5867(2) -0.30121(15)
H19 H 0.00170 0.50510 -0.34120
H20 H 0.19620 0.53630 -0.30880
H21 H 0.11350 0.65990 -0.34790
C15 C 0.36900(19) 0.86074(17) 0.55532(13)
H22 H 0.41390 0.88700 0.64850
N1 N 0.2281(2) 1.06532(16) 0.59985(15)
N2 N 0.22416(11) 0.44428(11) 0.13438(9)
N3 N 0.13852(12) 0.57798(12) -0.0704(1)
O1 O 0.1657(2) 1.15487(16) 0.55712(16)
O2 O 0.2633(3) 1.0778(2) 0.71694(15)
H23 H 0.0333(19) 0.5159(18) -0.0954(14)
C1A C -0.17573(15) 0.66872(15) -0.19940(12)
H1A H -0.19590 0.60250 -0.29420
C2A C -0.26370(18) 0.06352(14) -0.50435(14)
C3A C -0.19243(17) 0.10026(15) -0.36661(14)
H2A H -0.12030 0.04750 -0.33460
C4A C -0.23154(16) 0.21755(15) -0.27817(13)
H3A H -0.18490 0.24460 -0.18500
C5A C -0.33941(14) 0.29578(13) -0.32604(12)
C6A C -0.40708(17) 0.25600(16) -0.46470(13)
H4A H -0.47910 0.30850 -0.49740
C7A C -0.37823(15) 0.42239(15) -0.22457(13)
H5A H -0.42920 0.37410 -0.17120
H6A H -0.45840 0.46340 -0.27240
C8A C -0.2822(2) 0.7826(2) -0.20329(19)
H7A H -0.39980 0.72010 -0.24380
H8A H -0.25960 0.85560 -0.11230
H9A H -0.25370 0.84350 -0.25620
C9A C 0.01195(16) 0.76804(14) -0.13605(14)
H10A H 0.02950 0.84990 -0.17460
H11A H 0.03660 0.82450 -0.03960
C10A C -0.22706(16) 0.63354(14) 0.00178(12)
H12A H -0.12260 0.72240 0.05450
H13A H -0.31900 0.67920 -0.00560
C11A C -0.24794(16) 0.52289(16) 0.07869(14)
H14A H -0.36460 0.45370 0.04220
H15A H -0.22310 0.58820 0.17350
C12A C -0.14282(15) 0.31935(14) 0.15082(13)
C13A C -0.31661(18) 0.18847(19) 0.08704(18)
H16A H -0.40250 0.23860 0.09440
H17A H -0.33680 0.12950 -0.00720
H18A H -0.31930 0.11550 0.13390
C14A C -0.1105(2) 0.4133(2) 0.30121(15)
H19A H -0.00170 0.49490 0.34120
H20A H -0.19620 0.46370 0.30880
H21A H -0.11350 0.34010 0.34790
C15A C -0.36900(19) 0.13926(17) -0.55532(13)
H22A H -0.41390 0.11300 -0.64850
N1A N -0.2281(2) -0.06532(16) -0.59985(15)
N2A N -0.22416(11) 0.55572(11) -0.13438(9)
N3A N -0.13852(12) 0.42202(12) 0.0704(1)
O1A O -0.1657(2) -0.15487(16) -0.55712(16)
O2A O -0.2633(3) -0.0778(2) -0.71694(15)
H23A H -0.0333(19) 0.4841(18) 0.0954(14)
#END
