
#######################################################################
#
#                 Cambridge Crystallographic Data Centre
#                                CCDC
#
#######################################################################
#
# If this CIF has been generated from an entry in the Cambridge
# Structural Database, then it will include bibliographic, chemical,
# crystal, experimental, refinement or atomic coordinate data resulting
# from the CCDC's data processing and validation procedures.
#
#######################################################################

data_CSD_CIF_PIXVUP
_audit_creation_date 2013-12-13
_audit_creation_method CSD-ConQuest-V1
_database_code_CSD PIXVUP
_database_code_depnum_ccdc_archive 'CCDC 975717'
_chemical_formula_sum 'C10 H9 N1 O2'
_chemical_formula_moiety
;
C10 H9 N1 O2
;
_journal_coeditor_code "IUCr hb7169"
_journal_coden_Cambridge 1370
_journal_volume 70
_journal_year 2014
_journal_page_first o40
_journal_name_full 'Acta Crystallogr.,Sect.E:Struct.Rep.Online '
loop_
_publ_author_name
"D.B.Arunakumar"
"R.D.Nivedita"
"S.Sreenivasa"
"S.Madan Kumar"
"N.K.Lokanath"
"P.A.Suchetan"
_chemical_name_systematic
;
1-(1-Benzofuran-2-yl)-N-hydroxyethanimine
;
_chemical_melting_point 473
_cell_volume    844.372
_exptl_crystal_colour 'colorless'
_exptl_crystal_density_diffrn 1.378
_exptl_crystal_description 'Prism'
_diffrn_ambient_temperature 293
#These two values have been output from a single CSD field.
_refine_ls_R_factor_gt 0.0621
_refine_ls_wR_factor_gt 0.0621
_symmetry_cell_setting monoclinic
_symmetry_space_group_name_H-M 'P 21/c'
_symmetry_Int_Tables_number 14
loop_
_symmetry_equiv_pos_site_id
_symmetry_equiv_pos_as_xyz
1 x,y,z
2 -x,1/2+y,1/2-z
3 -x,-y,-z
4 x,-1/2-y,-1/2+z
_cell_length_a 9.5727(12)
_cell_length_b 4.7303(8)
_cell_length_c 18.756(2)
_cell_angle_alpha 90
_cell_angle_beta 96.178(6)
_cell_angle_gamma 90
_cell_formula_units_Z 4
loop_
_atom_type_symbol
_atom_type_radius_bond
C 0.68
H 0.23
N 0.68
O 0.68
loop_
_atom_site_label
_atom_site_type_symbol
_atom_site_fract_x
_atom_site_fract_y
_atom_site_fract_z
C1 C 1.04643(18) 0.3538(4) 0.41182(10)
C2 C 1.06183(18) 0.5553(4) 0.35964(10)
C3 C 1.1963(2) 0.6670(5) 0.35443(12)
H1 H 1.21090 0.80230 0.32000
C4 C 1.3051(2) 0.5706(5) 0.40151(12)
H2 H 1.39500 0.64080 0.39850
C5 C 1.2848(2) 0.3703(5) 0.45370(12)
H3 H 1.36120 0.31250 0.48510
C6 C 1.1547(2) 0.2556(5) 0.46007(12)
H4 H 1.14060 0.12060 0.49460
C7 C 0.92452(19) 0.5946(4) 0.3224(1)
H5 H 0.90030 0.71760 0.28440
C8 C 0.83702(18) 0.4191(4) 0.35294(9)
C9 C 0.68805(17) 0.3508(4) 0.34237(9)
C10 C 0.63408(19) 0.1283(5) 0.38897(11)
H6 H 0.53560 0.09960 0.37520
H7 H 0.64820 0.18790 0.43810
H8 H 0.68380 -0.04530 0.38350
N1 N 0.59615(15) 0.4690(3) 0.29671(8)
O1 O 0.90954(12) 0.2666(3) 0.40845(7)
O2 O 0.65313(13) 0.6771(3) 0.25538(7)
H9 H 0.58970 0.77640 0.23610
#END
