
#######################################################################
#
#                 Cambridge Crystallographic Data Centre
#                                CCDC
#
#######################################################################
#
# If this CIF has been generated from an entry in the Cambridge
# Structural Database, then it will include bibliographic, chemical,
# crystal, experimental, refinement or atomic coordinate data resulting
# from the CCDC's data processing and validation procedures.
#
#######################################################################

data_CSD_CIF_PIYSIA
_audit_creation_date 2008-06-16
_audit_creation_method CSD-ConQuest-V1
_database_code_CSD PIYSIA
_database_code_depnum_ccdc_archive 'CCDC 619860'
_chemical_formula_sum 'C33 H36 N6 O8'
_chemical_formula_moiety
;
C33 H36 N6 O8
;
_journal_coden_Cambridge 161
_journal_volume 89
_journal_year 2008
_journal_page_first 220
_journal_name_full 'Biopolymers '
loop_
_publ_author_name
"M.Lisowski"
"R.Latajka"
"B.Picur"
"T.Lis"
"I.Bryndal"
"M.Rospenk"
"M.Makowski"
"P.Kafarski"
_chemical_name_systematic
;
t-Butoxycarbonyl-glycyl-glycyl-(\a,\b-didehydro)phenylalanyl-phenylalanine 
N-p-nitrophenylamide
;
_chemical_name_common
;
PEPSEQ A=4 GLY*-GLY-PHE*-PHE*
;
_cell_volume   3188.538
_exptl_crystal_colour 'colorless'
_exptl_crystal_density_diffrn 1.343
_exptl_special_details
;
Three type III beta-turn molecular conformer A and two type III and one type 
II' beta-turn molecular conformer B
monoclinic polymorph
;
_exptl_crystal_description 'plate'
_exptl_crystal_preparation 'ethyl acetate'
_diffrn_ambient_temperature 100
#These two values have been output from a single CSD field.
_refine_ls_R_factor_gt 0.0837
_refine_ls_wR_factor_gt 0.0837
_symmetry_cell_setting monoclinic
_symmetry_space_group_name_H-M 'P 21'
_symmetry_Int_Tables_number 4
loop_
_symmetry_equiv_pos_site_id
_symmetry_equiv_pos_as_xyz
1 x,y,z
2 -x,1/2+y,-z
_cell_length_a 9.502(3)
_cell_length_b 14.719(4)
_cell_length_c 22.875(6)
_cell_angle_alpha 90
_cell_angle_beta 94.70(3)
_cell_angle_gamma 90
_cell_formula_units_Z 4
loop_
_atom_type_symbol
_atom_type_radius_bond
C 0.68
H 0.23
N 0.68
O 0.68
loop_
_atom_site_label
_atom_site_type_symbol
_atom_site_fract_x
_atom_site_fract_y
_atom_site_fract_z
C1 C 0.2166(6) 0.2192(5) 0.7267(3)
C2 C 0.1919(9) 0.3128(5) 0.7002(3)
H1 H 0.09680 0.31560 0.68020
H2 H 0.26180 0.32460 0.67200
H3 H 0.20100 0.35860 0.73140
C3 C 0.1151(7) 0.2003(5) 0.7719(3)
H4 H 0.01860 0.21230 0.75520
H5 H 0.13690 0.23970 0.80600
H6 H 0.12330 0.13660 0.78410
C4 C 0.3662(7) 0.2065(5) 0.7524(3)
H7 H 0.37980 0.14350 0.76550
H8 H 0.38490 0.24750 0.78590
H9 H 0.43140 0.22020 0.72250
C5 C 0.2575(5) 0.1391(4) 0.6352(2)
C6 C 0.3142(6) 0.0270(4) 0.5642(3)
H10 H 0.27020 -0.02720 0.54470
H11 H 0.39840 0.00640 0.58910
C7 C 0.3615(5) 0.0913(4) 0.5175(2)
C8 C 0.3039(5) 0.2027(4) 0.4424(2)
H12 H 0.21850 0.23070 0.42210
H13 H 0.35220 0.16760 0.41300
C9 C 0.4013(5) 0.2771(4) 0.4669(2)
C10 C 0.4837(5) 0.3646(4) 0.5518(2)
C11 C 0.4421(5) 0.4392(4) 0.5778(2)
H14 H 0.51630 0.47500 0.59620
C12 C 0.2986(5) 0.4757(4) 0.5828(2)
C13 C 0.2894(5) 0.5541(4) 0.6163(2)
H15 H 0.37330 0.58170 0.63350
C14 C 0.1596(6) 0.5925(4) 0.6250(2)
H16 H 0.15480 0.64620 0.64780
C15 C 0.0374(5) 0.5528(4) 0.6005(3)
H17 H -0.05170 0.57860 0.60690
C16 C 0.0442(5) 0.4749(4) 0.5664(3)
H18 H -0.04010 0.44800 0.54920
C17 C 0.1742(5) 0.4366(4) 0.5575(3)
H19 H 0.17860 0.38350 0.53420
C18 C 0.6387(5) 0.3430(4) 0.5541(2)
C19 C 0.8216(5) 0.2301(4) 0.5421(2)
H20 H 0.87620 0.25950 0.57620
C20 C 0.8364(5) 0.1273(4) 0.5494(2)
H21 H 0.78460 0.09760 0.51520
H22 H 0.93730 0.11120 0.54870
C21 C 0.7827(5) 0.0886(4) 0.6050(2)
C22 C 0.7124(5) 0.0070(4) 0.6038(3)
H23 H 0.69710 -0.02500 0.56770
C23 C 0.6634(5) -0.0297(4) 0.6540(3)
H24 H 0.61880 -0.08750 0.65260
C24 C 0.6792(6) 0.0178(4) 0.7062(3)
H25 H 0.64350 -0.00610 0.74060
C25 C 0.7472(7) 0.0997(5) 0.7077(3)
H26 H 0.75800 0.13250 0.74350
C26 C 0.7996(7) 0.1356(4) 0.6592(3)
H27 H 0.84760 0.19220 0.66160
C27 C 0.8848(5) 0.2613(4) 0.4863(2)
C28 C 0.8236(5) 0.3281(4) 0.3881(2)
C29 C 0.9556(5) 0.3584(4) 0.3750(2)
H28 H 1.03430 0.35270 0.40310
C30 C 0.9721(5) 0.3967(4) 0.3210(3)
H29 H 1.06270 0.41640 0.31160
C31 C 0.8566(5) 0.4064(4) 0.2806(2)
C32 C 0.7242(5) 0.3770(4) 0.2926(2)
H30 H 0.64610 0.38360 0.26410
C33 C 0.7065(5) 0.3384(4) 0.3460(2)
H31 H 0.61550 0.31840 0.35490
N1 N 0.2142(4) 0.0672(3) 0.60177(19)
H32 H 0.12820 0.04540 0.60260
N2 N 0.2612(4) 0.1409(3) 0.48743(19)
H33 H 0.17200 0.13610 0.49470
N3 N 0.3920(4) 0.2992(3) 0.52349(19)
H34 H 0.32780 0.27270 0.54330
N4 N 0.6729(4) 0.2566(3) 0.5435(2)
H35 H 0.60600 0.21550 0.53730
N5 N 0.7929(4) 0.2923(3) 0.44251(18)
H36 H 0.70290 0.28970 0.44890
N6 N 0.8728(5) 0.4487(4) 0.2239(2)
O1 O 0.1823(4) 0.1473(3) 0.68231(16)
O2 O 0.3513(4) 0.1907(3) 0.62310(17)
O3 O 0.4865(3) 0.0964(3) 0.50669(16)
O4 O 0.4817(3) 0.3158(3) 0.43599(16)
O5 O 0.7292(3) 0.4025(3) 0.56392(18)
O6 O 1.0142(3) 0.2574(3) 0.48394(17)
O7 O 0.9937(4) 0.4596(3) 0.20827(18)
O8 O 0.7649(4) 0.4726(3) 0.19468(18)
C34 C 1.2673(6) 0.9649(4) 1.2341(3)
C35 C 1.1799(8) 0.8839(5) 1.2110(3)
H37 H 1.08070 0.90200 1.20400
H38 H 1.18810 0.83460 1.23990
H39 H 1.21460 0.86290 1.17410
C36 C 1.4218(6) 0.9452(5) 1.2392(3)
H40 H 1.44940 0.92140 1.20190
H41 H 1.44320 0.90010 1.27020
H42 H 1.47430 1.00130 1.24900
C37 C 1.2195(8) 0.9955(6) 1.2931(3)
H43 H 1.11870 1.01050 1.28860
H44 H 1.27340 1.04930 1.30670
H45 H 1.23560 0.94650 1.32180
C38 C 1.2539(5) 1.0439(4) 1.1387(3)
C39 C 1.2215(5) 1.1409(4) 1.0533(2)
H46 H 1.32400 1.14150 1.04830
H47 H 1.18420 1.20250 1.04410
C40 C 1.1502(5) 1.0743(4) 1.0109(2)
C41 C 1.1730(5) 0.9541(4) 0.9405(2)
H48 H 1.24970 0.92360 0.92120
H49 H 1.10950 0.98340 0.90960
C42 C 1.0907(5) 0.8834(3) 0.9716(2)
C43 C 1.0436(5) 0.8060(4) 1.0607(2)
C44 C 1.0950(5) 0.7302(4) 1.0862(2)
H50 H 1.02730 0.69490 1.10440
C45 C 1.2379(5) 0.6917(4) 1.0908(2)
C46 C 1.2604(5) 0.6121(4) 1.1219(2)
H51 H 1.18290 0.58350 1.13810
C47 C 1.3947(5) 0.5721(4) 1.1302(3)
H52 H 1.40730 0.51770 1.15230
C48 C 1.5081(5) 0.6117(4) 1.1064(3)
H53 H 1.59900 0.58460 1.11150
C49 C 1.4873(5) 0.6911(4) 1.0751(2)
H54 H 1.56590 0.71880 1.05910
C50 C 1.3562(5) 0.7322(4) 1.0661(3)
H55 H 1.34500 0.78640 1.04370
C51 C 0.8899(5) 0.8269(4) 1.0626(2)
C52 C 0.6997(5) 0.9389(4) 1.0475(2)
H56 H 0.65710 0.90990 1.08150
C53 C 0.6833(5) 1.0424(4) 1.0526(2)
H57 H 0.72220 1.07140 1.01830
H58 H 0.58150 1.05720 1.05100
C54 C 0.7563(5) 1.0827(4) 1.1084(2)
C55 C 0.8262(5) 1.1660(4) 1.1059(2)
H59 H 0.83050 1.19550 1.06910
C56 C 0.8894(5) 1.2064(4) 1.1561(3)
H60 H 0.93600 1.26320 1.15360
C57 C 0.8844(6) 1.1639(5) 1.2098(3)
H61 H 0.92690 1.19160 1.24430
C58 C 0.8169(6) 1.0802(4) 1.2131(3)
H62 H 0.81490 1.05000 1.24980
C59 C 0.7522(6) 1.0410(4) 1.1621(3)
H63 H 0.70450 0.98450 1.16450
C60 C 0.6172(5) 0.9077(4) 0.9913(2)
C61 C 0.6506(5) 0.8413(4) 0.8928(2)
C62 C 0.5245(5) 0.7950(4) 0.8827(2)
H64 H 0.46000 0.79160 0.91230
C63 C 0.4936(5) 0.7535(4) 0.8289(3)
H65 H 0.40760 0.72110 0.82110
C64 C 0.5896(5) 0.7597(4) 0.7864(2)
C65 C 0.7146(6) 0.8082(4) 0.7953(2)
H66 H 0.77720 0.81330 0.76510
C66 C 0.7454(5) 0.8487(4) 0.8492(2)
H67 H 0.83100 0.88160 0.85670
N7 N 1.2007(5) 1.1198(3) 1.1139(2)
H68 H 1.15250 1.15750 1.13450
N8 N 1.2333(4) 1.0230(3) 0.97997(19)
H69 H 1.32540 1.03130 0.98360
N9 N 1.1236(4) 0.8689(3) 1.02933(18)
H70 H 1.19470 0.89830 1.04770
N10 N 0.8491(4) 0.9140(3) 1.05016(19)
H71 H 0.91280 0.95540 1.04370
N11 N 0.6973(4) 0.8790(3) 0.94846(19)
H72 H 0.78930 0.88420 0.95590
N12 N 0.5599(6) 0.7131(4) 0.7300(2)
O9 O 1.2343(4) 1.0450(3) 1.19677(17)
O10 O 1.3113(4) 0.9840(3) 1.11306(18)
O11 O 1.0190(3) 1.0638(3) 1.00640(17)
O12 O 0.9941(3) 0.8404(3) 0.94365(16)
O13 O 0.8042(4) 0.7682(3) 1.07414(18)
O14 O 0.4868(3) 0.9076(3) 0.98716(17)
O15 O 0.4507(5) 0.6672(3) 0.72320(19)
O16 O 0.6423(5) 0.7221(4) 0.6925(2)
#END
