
#######################################################################
#
#                 Cambridge Crystallographic Data Centre
#                                CCDC
#
#######################################################################
#
# If this CIF has been generated from an entry in the Cambridge
# Structural Database, then it will include bibliographic, chemical,
# crystal, experimental, refinement or atomic coordinate data resulting
# from the CCDC's data processing and validation procedures.
#
#######################################################################

data_CSD_CIF_PIZBIK
_audit_creation_date 2008-10-16
_audit_creation_method CSD-ConQuest-V1
_database_code_CSD PIZBIK
_database_code_depnum_ccdc_archive 'CCDC 668124'
_chemical_formula_sum 'C18 H19 N1 O4'
_chemical_formula_moiety
;
C18 H19 N1 O4
;
_journal_coden_Cambridge 179
_journal_volume 47
_journal_year 2008
_journal_page_first 1450
_journal_name_full 'Angew.Chem.,Int.Ed. '
loop_
_publ_author_name
"R.M.de Figueiredo"
"R.Frohlich"
"M.Christmann"
_chemical_name_systematic
;
((4aR,8aS)-4a,5,6,7,8,8a-Hexahydronaphthalen-1-yl)methyl 4-nitrobenzenoate
;
_chemical_melting_point 343.15
_cell_volume   1631.366
_exptl_crystal_colour 'yellow'
_exptl_crystal_density_diffrn 1.276
_exptl_special_details
;
Melting point range 343.15-345.15K

;
_exptl_crystal_description 'needle'
_diffrn_ambient_temperature 223
#These two values have been output from a single CSD field.
_refine_ls_R_factor_gt 0.0459
_refine_ls_wR_factor_gt 0.0459
_symmetry_cell_setting orthorhombic
_symmetry_space_group_name_H-M 'P 21 21 21'
_symmetry_Int_Tables_number 19
loop_
_symmetry_equiv_pos_site_id
_symmetry_equiv_pos_as_xyz
1 x,y,z
2 1/2-x,-y,1/2+z
3 -x,1/2+y,1/2-z
4 1/2+x,1/2-y,-z
_cell_length_a 7.0497(6)
_cell_length_b 11.0382(8)
_cell_length_c 20.9644(16)
_cell_angle_alpha 90
_cell_angle_beta 90
_cell_angle_gamma 90
_cell_formula_units_Z 4
loop_
_atom_type_symbol
_atom_type_radius_bond
C 0.68
H 0.23
N 0.68
O 0.68
loop_
_atom_site_label
_atom_site_type_symbol
_atom_site_fract_x
_atom_site_fract_y
_atom_site_fract_z
C1 C 0.8264(5) 0.9790(3) 0.17018(17)
H1 H 0.73520 0.98610 0.13450
C2 C 0.7204(6) 0.9180(4) 0.2236(2)
H2 H 0.80410 0.91030 0.26070
H3 H 0.68340 0.83630 0.21020
C3 C 0.5428(6) 0.9893(5) 0.2426(2)
H4 H 0.45230 0.98910 0.20710
H5 H 0.48220 0.95010 0.27930
C4 C 0.5922(7) 1.1170(5) 0.2594(3)
H6 H 0.66750 1.11760 0.29870
H7 H 0.47550 1.16280 0.26740
C5 C 0.7034(7) 1.1778(4) 0.2067(3)
H8 H 0.62200 1.18650 0.16910
H9 H 0.74100 1.25910 0.22060
C6 C 0.8778(6) 1.1071(3) 0.18871(19)
H10 H 0.95380 1.10020 0.22830
C7 C 1.0042(7) 1.1676(4) 0.1409(2)
H11 H 0.99840 1.25200 0.13540
C8 C 1.1234(7) 1.1028(5) 0.1067(2)
H12 H 1.20500 1.14150 0.07770
C9 C 1.1298(6) 0.9736(4) 0.11340(19)
H13 H 1.23230 0.93080 0.09570
C10 C 0.9945(5) 0.9124(3) 0.14407(17)
C11 C 1.0025(6) 0.7782(3) 0.1489(2)
H14 H 1.12190 0.74790 0.13110
H15 H 0.99450 0.75300 0.19370
O1 O 0.8420(3) 0.7304(2) 0.11305(12)
C12 C 0.8211(5) 0.6099(3) 0.11366(18)
O2 O 0.9339(4) 0.5402(2) 0.13656(14)
C13 C 0.6411(5) 0.5728(3) 0.08168(16)
C14 C 0.6045(5) 0.4503(3) 0.07436(18)
H16 H 0.69470 0.39300 0.08770
C15 C 0.4356(5) 0.4121(3) 0.04747(18)
H17 H 0.40890 0.32930 0.04230
C16 C 0.3073(5) 0.4995(3) 0.02842(16)
C17 C 0.3410(5) 0.6204(3) 0.03433(17)
H18 H 0.25150 0.67750 0.02010
C18 C 0.5095(5) 0.6573(3) 0.06177(16)
H19 H 0.53470 0.74040 0.06690
N1 N 0.1273(4) 0.4602(3) -0.00045(15)
O3 O 0.0971(5) 0.3519(3) -0.00508(18)
O4 O 0.0170(4) 0.5378(3) -0.01863(13)
#END
