
#######################################################################
#
#                 Cambridge Crystallographic Data Centre
#                                CCDC
#
#######################################################################
#
# If this CIF has been generated from an entry in the Cambridge
# Structural Database, then it will include bibliographic, chemical,
# crystal, experimental, refinement or atomic coordinate data resulting
# from the CCDC's data processing and validation procedures.
#
#######################################################################

data_CSD_CIF_PIZBOQ
_audit_creation_date 2008-10-16
_audit_creation_method CSD-ConQuest-V1
_database_code_CSD PIZBOQ
_database_code_depnum_ccdc_archive 'CCDC 668125'
_chemical_formula_sum 'C17 H17 N1 O4'
_chemical_formula_moiety
;
C17 H17 N1 O4
;
_journal_coden_Cambridge 179
_journal_volume 47
_journal_year 2008
_journal_page_first 1450
_journal_name_full 'Angew.Chem.,Int.Ed. '
loop_
_publ_author_name
"R.M.de Figueiredo"
"R.Frohlich"
"M.Christmann"
_chemical_name_systematic
;
((3aS,7aR)-2,3,3a,7a-Tetrahydro-1H-inden-4-yl)methyl 4-nitrobenzoate
;
_chemical_melting_point 359.15
_cell_volume   1493.293
_exptl_crystal_colour 'yellow'
_exptl_crystal_density_diffrn 1.331
_exptl_special_details
;
Melting point range 359.15-361.15K

;
_exptl_crystal_description 'block'
_diffrn_ambient_temperature 223
#These two values have been output from a single CSD field.
_refine_ls_R_factor_gt 0.0484
_refine_ls_wR_factor_gt 0.0484
_symmetry_cell_setting monoclinic
_symmetry_space_group_name_H-M 'P 21'
_symmetry_Int_Tables_number 4
loop_
_symmetry_equiv_pos_site_id
_symmetry_equiv_pos_as_xyz
1 x,y,z
2 -x,1/2+y,-z
_cell_length_a 11.5587(1)
_cell_length_b 7.3229(1)
_cell_length_c 17.6906(1)
_cell_angle_alpha 90
_cell_angle_beta 94.239(1)
_cell_angle_gamma 90
_cell_formula_units_Z 4
loop_
_atom_type_symbol
_atom_type_radius_bond
C 0.68
H 0.23
N 0.68
O 0.68
loop_
_atom_site_label
_atom_site_type_symbol
_atom_site_fract_x
_atom_site_fract_y
_atom_site_fract_z
C1 C -0.2721(2) 1.0289(4) 0.14264(15)
H1 H -0.33420 0.96600 0.16820
C2 C -0.2927(3) 1.2328(5) 0.1513(2)
H2 H -0.22350 1.30270 0.14070
H3 H -0.31370 1.26190 0.20260
C3 C -0.3943(3) 1.2749(6) 0.0921(2)
H4 H -0.46520 1.30050 0.11730
H5 H -0.37610 1.38130 0.06160
C4 C -0.4103(3) 1.1057(6) 0.04224(18)
H6 H -0.47710 1.03390 0.05600
H7 H -0.42170 1.13960 -0.01140
C5 C -0.2983(2) 0.9995(5) 0.05779(15)
H8 H -0.23740 1.06330 0.03150
C6 C -0.2903(3) 0.8010(6) 0.03961(18)
H9 H -0.34120 0.74760 0.00210
C7 C -0.2096(3) 0.7021(5) 0.07774(18)
H10 H -0.20060 0.57860 0.06490
C8 C -0.1350(3) 0.7802(5) 0.13870(17)
H11 H -0.06750 0.71740 0.15640
C9 C -0.1601(2) 0.9390(5) 0.17010(15)
C10 C -0.0903(2) 1.0267(5) 0.23461(15)
H12 H -0.05670 1.14150 0.21790
H13 H -0.13990 1.05400 0.27580
O1 O 0.00143(16) 0.9014(3) 0.26107(10)
C11 C 0.0874(2) 0.9680(5) 0.30724(16)
O2 O 0.0942(2) 1.1252(4) 0.32590(15)
C12 C 0.1735(2) 0.8233(4) 0.33251(15)
C13 C 0.1575(2) 0.6431(5) 0.31183(16)
H14 H 0.09140 0.60880 0.28100
C14 C 0.2385(3) 0.5117(5) 0.33637(17)
H15 H 0.22740 0.38800 0.32360
C15 C 0.3354(2) 0.5681(5) 0.37994(18)
C16 C 0.3534(2) 0.7455(5) 0.40172(18)
H16 H 0.41990 0.77890 0.43240
C17 C 0.2713(2) 0.8749(5) 0.37749(17)
H17 H 0.28190 0.99790 0.39160
N1 N 0.4229(2) 0.4294(5) 0.40526(19)
O3 O 0.4143(3) 0.2784(5) 0.3770(2)
O4 O 0.50002(19) 0.4752(4) 0.45156(16)
C18 C 0.7387(3) 0.6444(5) 0.37700(18)
H18 H 0.69460 0.59870 0.41900
C19 C 0.7972(3) 0.4835(6) 0.3478(2)
H19 H 0.83090 0.51110 0.29990
H20 H 0.74350 0.38060 0.34010
C20 C 0.8933(3) 0.4419(7) 0.4117(2)
H21 H 0.86860 0.34330 0.44430
H22 H 0.96520 0.40480 0.38980
C21 C 0.9121(3) 0.6178(6) 0.4570(2)
H23 H 0.88840 0.60230 0.50870
H24 H 0.99390 0.65420 0.45960
C22 C 0.8370(2) 0.7586(5) 0.41441(17)
H25 H 0.88250 0.80220 0.37270
C23 C 0.7951(3) 0.9231(6) 0.45089(19)
H26 H 0.83400 0.96850 0.49550
C24 C 0.7010(3) 1.0076(6) 0.41992(18)
H27 H 0.67590 1.11700 0.44120
C25 C 0.6366(2) 0.9313(5) 0.35304(16)
H28 H 0.58060 1.00360 0.32600
C26 C 0.6553(2) 0.7617(5) 0.32952(15)
C27 C 0.5873(2) 0.6716(5) 0.26399(16)
H29 H 0.63900 0.63920 0.22460
H30 H 0.55080 0.55960 0.28100
O5 O 0.49942(15) 0.7980(3) 0.23392(11)
C28 C 0.4108(2) 0.7269(4) 0.19124(15)
O6 O 0.40104(19) 0.5686(3) 0.17625(15)
C29 C 0.3255(2) 0.8705(4) 0.16503(15)
C30 C 0.3383(3) 1.0519(5) 0.18619(16)
H31 H 0.40390 1.08810 0.21710
C31 C 0.2558(3) 1.1802(5) 0.16247(18)
H32 H 0.26480 1.30340 0.17660
C32 C 0.1608(3) 1.1234(5) 0.11779(18)
C33 C 0.1455(2) 0.9450(5) 0.09449(16)
H33 H 0.08050 0.91060 0.06260
C34 C 0.2285(2) 0.8174(5) 0.11920(17)
H34 H 0.21920 0.69440 0.10490
N2 N 0.0710(2) 1.2601(5) 0.09326(18)
O7 O -0.00786(19) 1.2102(5) 0.04867(17)
O8 O 0.0820(3) 1.4154(5) 0.1183(2)
#END
