
#######################################################################
#
#                 Cambridge Crystallographic Data Centre
#                                CCDC
#
#######################################################################
#
# If this CIF has been generated from an entry in the Cambridge
# Structural Database, then it will include bibliographic, chemical,
# crystal, experimental, refinement or atomic coordinate data resulting
# from the CCDC's data processing and validation procedures.
#
#######################################################################

data_CSD_CIF_PIZCEI
_audit_creation_date 2014-05-22
_audit_creation_method CSD-ConQuest-V1
_database_code_CSD PIZCEI
_database_code_depnum_ccdc_archive 'CCDC 979311'
_chemical_formula_sum 'C20 H22 N2 O8'
_chemical_formula_moiety
;
C20 H22 N2 O8
;
_journal_coden_Cambridge 24
_journal_volume 55
_journal_year 2014
_journal_page_first 2876
_journal_name_full 'Tetrahedron Lett. '
loop_
_publ_author_name
"Meng-Yang Chang"
"Yi-Chia Chen"
"Chieh-Kai Chan"
_chemical_name_systematic
;
1,1'-but-2-ene-1,4-diylbis(2,3-dimethoxy-6-nitrobenzene)
;
_cell_volume   1033.841
_exptl_crystal_colour 'pale red'
_exptl_crystal_density_diffrn 1.344
_exptl_crystal_description 'Tabular'
_diffrn_ambient_temperature 296
_refine_special_details
;
N1',O3',O4' and N1,O3,O4 disordered over two sites with occupancies 
0.756:0.244.
;
#These two values have been output from a single CSD field.
_refine_ls_R_factor_gt 0.0482
_refine_ls_wR_factor_gt 0.0482
_symmetry_cell_setting monoclinic
_symmetry_space_group_name_H-M 'P 21/c'
_symmetry_Int_Tables_number 14
loop_
_symmetry_equiv_pos_site_id
_symmetry_equiv_pos_as_xyz
1 x,y,z
2 -x,1/2+y,1/2-z
3 -x,-y,-z
4 x,-1/2-y,-1/2+z
_cell_length_a 4.2724(7)
_cell_length_b 10.1264(17)
_cell_length_c 23.916(4)
_cell_angle_alpha 90
_cell_angle_beta 92.338(3)
_cell_angle_gamma 90
_cell_formula_units_Z 2
loop_
_atom_type_symbol
_atom_type_radius_bond
C 0.68
H 0.23
N 0.68
O 0.68
loop_
_atom_site_label
_atom_site_type_symbol
_atom_site_fract_x
_atom_site_fract_y
_atom_site_fract_z
O1 O 0.2138(4) 0.01003(15) 0.10698(6)
O2 O 0.5358(3) 0.17686(13) 0.04507(5)
C1 C 0.0539(7) -0.0842(3) 0.14034(13)
H1 H 0.16340 -0.09360 0.17600
H2 H 0.04700 -0.16800 0.12150
H3 H -0.15570 -0.05420 0.14580
C2 C 0.2463(5) 0.1356(2) 0.12687(9)
C3 C 0.4121(4) 0.22276(19) 0.09345(7)
C4 C 0.4730(4) 0.35273(19) 0.10969(7)
C5 C 0.6690(4) 0.43765(19) 0.07220(8)
H4 H 0.78060 0.50280 0.09510
H5 H 0.82360 0.38220 0.05510
C6 C 0.3106(5) 0.1572(2) -0.00088(9)
H6 H 0.14440 0.10130 0.01100
H7 H 0.41180 0.11620 -0.03150
H8 H 0.22580 0.24090 -0.01270
C7 C 0.3521(5) 0.3917(2) 0.16056(8)
C8 C 0.1866(6) 0.3073(3) 0.19354(9)
H9 H 0.11250 0.33680 0.22740
C9 C 0.1310(5) 0.1792(3) 0.17647(10)
H10 H 0.01620 0.12260 0.19840
C10 C 0.4810(4) 0.50765(17) 0.02685(7)
H11 H 0.32670 0.56600 0.03760
N1 N 0.3893(10) 0.5234(7) 0.1812(3)
O3 O 0.4085(16) 0.6143(4) 0.14803(17)
O4 O 0.3977(11) 0.5392(5) 0.23266(14)
N2? N 0.403(5) 0.541(2) 0.1805(10)
O5? O 0.642(4) 0.6004(13) 0.1718(9)
O6? O 0.196(3) 0.596(1) 0.2046(6)
O1B O 0.7862(4) 0.98997(15) -0.10698(6)
O2B O 0.4642(3) 0.82314(13) -0.04507(5)
C1B C 0.9461(7) 1.0842(3) -0.14034(13)
H1B H 0.83660 1.09360 -0.17600
H2B H 0.95300 1.16800 -0.12150
H3B H 1.15570 1.05420 -0.14580
C2B C 0.7537(5) 0.8644(2) -0.12687(9)
C3B C 0.5879(4) 0.77724(19) -0.09345(7)
C4B C 0.5270(4) 0.64727(19) -0.10969(7)
C5B C 0.3310(4) 0.56235(19) -0.07220(8)
H4B H 0.21940 0.49720 -0.09510
H5B H 0.17640 0.61780 -0.05510
C6B C 0.6894(5) 0.8428(2) 0.00088(9)
H6B H 0.85560 0.89870 -0.01100
H7B H 0.58820 0.88380 0.03150
H8B H 0.77420 0.75910 0.01270
C7B C 0.6479(5) 0.6083(2) -0.16056(8)
C8B C 0.8134(6) 0.6927(3) -0.19354(9)
H9B H 0.88750 0.66320 -0.22740
C9B C 0.8690(5) 0.8208(3) -0.17647(10)
H10B H 0.98380 0.87740 -0.19840
C10B C 0.5190(4) 0.49235(17) -0.02685(7)
H11B H 0.67330 0.43400 -0.03760
N1B N 0.6107(10) 0.4766(7) -0.1812(3)
O3B O 0.5915(16) 0.3857(4) -0.14803(17)
O4B O 0.6023(11) 0.4608(5) -0.23266(14)
#END
