
#######################################################################
#
#                 Cambridge Crystallographic Data Centre
#                                CCDC
#
#######################################################################
#
# If this CIF has been generated from an entry in the Cambridge
# Structural Database, then it will include bibliographic, chemical,
# crystal, experimental, refinement or atomic coordinate data resulting
# from the CCDC's data processing and validation procedures.
#
#######################################################################

data_CSD_CIF_PIZDIN
_audit_creation_date 2014-05-22
_audit_creation_method CSD-ConQuest-V1
_database_code_CSD PIZDIN
_database_code_depnum_ccdc_archive 'CCDC 982348'
_chemical_formula_sum 'C17 H19 N1 O8'
_chemical_formula_moiety
;
C17 H19 N1 O8
;
_journal_coden_Cambridge 1090
_journal_volume 25
_journal_year 2014
_journal_page_first 534
_journal_name_full 'Tetrahedron:Asymm. '
loop_
_publ_author_name
"S.G.Davies"
"E.M.Foster"
"J.A.Lee"
"P.M.Roberts"
"J.E.Thomson"
_chemical_name_systematic
;
(5-(3-methoxy-3-oxoprop-1-en-1-yl)-2,2-dimethyl-1,3-dioxolan-4-yl)methyl 
4-nitrobenzoate
;
_cell_volume    430.456
_exptl_crystal_colour 'colorless'
_exptl_crystal_density_diffrn 1.409
_exptl_crystal_description 'block'
_diffrn_ambient_temperature 150
#These two values have been output from a single CSD field.
_refine_ls_R_factor_gt 0.0362
_refine_ls_wR_factor_gt 0.0362
_symmetry_cell_setting triclinic
_symmetry_space_group_name_H-M 'P 1'
_symmetry_Int_Tables_number 1
loop_
_symmetry_equiv_pos_site_id
_symmetry_equiv_pos_as_xyz
1 x,y,z
_cell_length_a 6.4158(2)
_cell_length_b 8.0401(2)
_cell_length_c 9.2337(4)
_cell_angle_alpha 73.5130(12)
_cell_angle_beta 79.6666(12)
_cell_angle_gamma 71.2553(16)
_cell_formula_units_Z 1
loop_
_atom_type_symbol
_atom_type_radius_bond
C 0.68
H 0.23
N 0.68
O 0.68
loop_
_atom_site_label
_atom_site_type_symbol
_atom_site_fract_x
_atom_site_fract_y
_atom_site_fract_z
O1 O 0.7664(3) 0.9137(2) -0.26727(19)
C1 C 0.6274(3) 0.7984(3) -0.2313(2)
C2 C 0.4032(4) 0.9136(3) -0.1681(2)
O2 O 0.4318(3) 1.0894(2) -0.19607(19)
C3 C 0.6268(4) 1.0959(3) -0.2950(2)
C4 C 0.5722(4) 1.1655(3) -0.4590(3)
C5 C 0.7398(5) 1.2100(3) -0.2499(3)
C6 C 0.3305(3) 0.8538(3) -0.0013(2)
O3 O 0.4976(3) 0.8516(2) 0.08661(17)
C7 C 0.5562(4) 0.7096(3) 0.2050(2)
O4 O 0.4750(3) 0.5858(2) 0.24640(19)
C8 C 0.7330(3) 0.7244(3) 0.2829(2)
C9 C 0.8106(3) 0.8763(3) 0.2386(2)
C10 C 0.9682(3) 0.8878(3) 0.3183(2)
C11 C 1.0442(3) 0.7447(3) 0.4392(2)
N1 N 1.2118(3) 0.7575(3) 0.5226(2)
O5 O 1.2909(3) 0.6262(2) 0.6241(2)
O6 O 1.2652(3) 0.8977(3) 0.4866(2)
C12 C 0.9731(4) 0.5915(3) 0.4847(2)
C13 C 0.8135(4) 0.5831(3) 0.4046(2)
C14 C 0.7337(4) 0.6228(3) -0.1258(2)
C15 C 0.9314(4) 0.5837(3) -0.0802(3)
C16 C 1.0307(4) 0.4125(3) 0.0280(3)
O7 O 0.9558(3) 0.2849(2) 0.0775(2)
O8 O 1.2184(3) 0.4194(2) 0.0674(2)
C17 C 1.3291(5) 0.2647(3) 0.1789(4)
H1 H 0.60690 0.76810 -0.32220
H2 H 0.28790 0.90980 -0.22150
H3 H 0.45560 1.27840 -0.47360
H4 H 0.51960 1.08240 -0.48980
H5 H 0.69500 1.18820 -0.53040
H6 H 0.64300 1.32970 -0.25880
H7 H 0.87340 1.21590 -0.32010
H8 H 0.77540 1.15410 -0.14590
H9 H 0.30820 0.74080 0.01590
H10 H 0.19300 0.94150 0.02400
H11 H 0.75880 0.96630 0.15880
H12 H 1.02050 0.99800 0.28260
H13 H 1.03390 0.49480 0.56630
H14 H 0.75530 0.48550 0.42920
H15 H 0.65660 0.53010 -0.08610
H16 H 1.01750 0.66180 -0.11160
H17 H 1.46490 0.27950 0.19260
H18 H 1.35850 0.15630 0.14530
H19 H 1.23730 0.25430 0.27530
#END
