
#######################################################################
#
#                 Cambridge Crystallographic Data Centre
#                                CCDC
#
#######################################################################
#
# If this CIF has been generated from an entry in the Cambridge
# Structural Database, then it will include bibliographic, chemical,
# crystal, experimental, refinement or atomic coordinate data resulting
# from the CCDC's data processing and validation procedures.
#
#######################################################################

data_CSD_CIF_PIZHAH
_audit_creation_date 1995-03-06
_audit_creation_method CSD-ConQuest-V1
_database_code_CSD PIZHAH
_chemical_formula_sum 'C5 H9 N3 O4'
_chemical_formula_moiety
;
C5 H9 N3 O4
;
_journal_coden_Cambridge 35
_journal_volume 59
_journal_year 1994
_journal_page_first 1608
_journal_name_full 'J.Org.Chem. '
loop_
_publ_author_name
"A.P.Marchand"
"D.Rajagopal"
"S.G.Bott"
"T.G.Archibald"
_chemical_name_systematic
;
3-(O-Nitrato)-3-ethyl-N-nitrosoazetidine
;
_chemical_melting_point 314.15
_cell_volume    807.353
_exptl_crystal_colour 'colorless'
_exptl_crystal_density_diffrn 1.441
_exptl_special_details
;
Melting point range 314.15-315.15K
C-H BOND LENGTHS FIXED

;
_diffrn_ambient_temperature ?
_diffrn_special_details
;
The study was carried out at room temperature,in the range 283-303K

;
#These two values have been output from a single CSD field.
_refine_ls_R_factor_gt 0.0471
_refine_ls_wR_factor_gt 0.0471
_symmetry_cell_setting monoclinic
_symmetry_space_group_name_H-M 'P 21/c'
_symmetry_Int_Tables_number 14
loop_
_symmetry_equiv_pos_site_id
_symmetry_equiv_pos_as_xyz
1 x,y,z
2 -x,1/2+y,1/2-z
3 -x,-y,-z
4 x,-1/2-y,-1/2+z
_cell_length_a 7.3784(5)
_cell_length_b 7.7726(6)
_cell_length_c 14.2170(8)
_cell_angle_alpha 90
_cell_angle_beta 98.024(5)
_cell_angle_gamma 90
_cell_formula_units_Z 4
loop_
_atom_type_symbol
_atom_type_radius_bond
C 0.68
H 0.23
N 0.68
O 0.68
loop_
_atom_site_label
_atom_site_type_symbol
_atom_site_fract_x
_atom_site_fract_y
_atom_site_fract_z
O1 O 0.4769(3) 0.1535(3) 0.9078(1)
O2 O 0.1769(4) 0.5286(4) 1.1139(2)
O3 O 0.6952(3) 0.0770(4) 0.8293(2)
O4 O 0.4795(3) 0.2403(4) 0.7579(2)
N1 N 0.2634(4) 0.4383(4) 0.9881(2)
N2 N 0.5541(3) 0.1584(4) 0.8224(2)
N3 N 0.2075(4) 0.5684(4) 1.0344(2)
C1 C 0.2897(4) 0.4248(5) 0.8891(2)
C2 C 0.2958(4) 0.2271(4) 0.9027(2)
C3 C 0.2679(5) 0.2543(5) 1.0076(2)
C4 C 0.1527(4) 0.1220(5) 0.8420(2)
C5 C 0.1566(5) -0.0658(5) 0.8698(3)
H1 H 0.40010 0.47410 0.87450
H2 H 0.18980 0.46520 0.84510
H3 H 0.15700 0.20840 1.02380
H4 H 0.36740 0.21770 1.05280
H5 H 0.17330 0.13050 0.77760
H6 H 0.03540 0.16740 0.84810
H7 H 0.06420 -0.12600 0.82950
H8 H 0.27290 -0.11300 0.86330
H9 H 0.13500 -0.07610 0.93380
#END
