
#######################################################################
#
#                 Cambridge Crystallographic Data Centre
#                                CCDC
#
#######################################################################
#
# If this CIF has been generated from an entry in the Cambridge
# Structural Database, then it will include bibliographic, chemical,
# crystal, experimental, refinement or atomic coordinate data resulting
# from the CCDC's data processing and validation procedures.
#
#######################################################################

data_CSD_CIF_PIZMEQ
_audit_creation_date 1998-11-19
_audit_creation_method CSD-ConQuest-V1
_database_code_CSD PIZMEQ
_chemical_formula_sum 'C27 H29 N5 O5'
_chemical_formula_moiety
;
C27 H29 N5 O5
;
_journal_coden_Cambridge 35
_journal_volume 63
_journal_year 1998
_journal_page_first 44
_journal_name_full 'J.Org.Chem. '
loop_
_publ_author_name
"A.Padwa"
"S.R.Harring"
"M.A.Semones"
_chemical_name_systematic
;
2-(1-((2,4-Dinitrophenyl)hydrazono)ethyl)-7a-ethyl-1\b,2\b,5,6,7,7a\a,8,9-octa
hydro-1-phenyl-3H-cyclopenta(ij)quinolizin-3-one
;
_chemical_melting_point 460.15
_cell_volume   1285.207
_exptl_crystal_colour 'orange'
_exptl_crystal_density_diffrn 1.301
_exptl_special_details
;
Melting point range 460.15-461.15K

;
_diffrn_ambient_temperature ?
_diffrn_special_details
;
The study was carried out at room temperature,in the range 283-303K

;
#These two values have been output from a single CSD field.
_refine_ls_R_factor_gt 0.0531
_refine_ls_wR_factor_gt 0.0531
_symmetry_cell_setting triclinic
_symmetry_space_group_name_H-M 'P -1'
_symmetry_Int_Tables_number 2
loop_
_symmetry_equiv_pos_site_id
_symmetry_equiv_pos_as_xyz
1 x,y,z
2 -x,-y,-z
_cell_length_a 8.344(2)
_cell_length_b 10.667(2)
_cell_length_c 15.332(3)
_cell_angle_alpha 86.15(3)
_cell_angle_beta 74.30(3)
_cell_angle_gamma 78.06(3)
_cell_formula_units_Z 2
loop_
_atom_type_symbol
_atom_type_radius_bond
C 0.68
H 0.23
N 0.68
O 0.68
loop_
_atom_site_label
_atom_site_type_symbol
_atom_site_fract_x
_atom_site_fract_y
_atom_site_fract_z
O1 O 0.1642(6) 0.4126(5) 0.1798(4)
O2 O 0.2928(6) 0.2913(4) 0.0678(3)
O3 O -0.5432(7) 0.6195(5) 0.1280(3)
O4 O -0.3817(6) 0.6687(5) 0.2027(3)
O5 O -0.1032(6) -0.0753(4) -0.1512(3)
N1 N -0.4089(9) 0.6013(6) 0.1489(4)
N2 N 0.1613(10) 0.3582(6) 0.1130(4)
N3 N 0.0887(7) 0.1325(7) -0.0880(4)
N4 N 0.1155(7) 0.2095(6) -0.0265(4)
N5 N -0.0143(7) 0.0620(6) -0.2633(4)
C1 C 0.0338(9) 0.4650(6) -0.3846(4)
C2 C 0.0699(8) 0.3407(6) -0.3326(4)
C3 C 0.2055(9) 0.0329(8) -0.1110(4)
C4 C 0.3575(8) -0.0037(6) -0.0737(4)
C5 C 0.3862(9) -0.1862(6) -0.3118(4)
C6 C 0.3104(8) -0.2186(7) -0.3743(5)
C7 C 0.3522(11) -0.3404(10) -0.4081(5)
C8 C 0.4675(13) -0.4320(7) -0.3786(6)
C9 C 0.5461(9) -0.4006(9) -0.3185(6)
C10 C 0.5049(10) -0.2777(9) -0.2849(4)
C11 C -0.0470(9) 0.2115(7) -0.4247(4)
C12 C -0.2003(10) 0.1980(9) -0.3486(6)
C13 C -0.1752(9) 0.0826(7) -0.2878(5)
C14 C -0.1722(12) 0.3263(7) 0.0003(4)
C15 C -0.3000(9) 0.4192(8) 0.0437(6)
C16 C -0.2769(13) 0.4949(7) 0.1070(5)
C17 C -0.1271(15) 0.4733(7) 0.1301(4)
C18 C 0.0038(11) 0.3775(8) 0.0865(5)
C19 C -0.0122(10) 0.3027(7) 0.0188(5)
C20 C 0.2765(8) 0.1948(6) -0.4545(4)
C21 C 0.3975(7) 0.1222(6) -0.4000(4)
C22 C 0.2854(10) 0.0519(6) -0.3284(4)
C23 C 0.1262(11) 0.1036(6) -0.3234(4)
C24 C 0.1004(8) 0.2172(6) -0.3859(4)
C25 C 0.3360(7) -0.0554(6) -0.2687(4)
C26 C 0.1879(8) -0.0532(5) -0.1801(4)
C27 C 0.0109(10) -0.0230(7) -0.1966(6)
H1 H 0.2183(7) 0.1991(6) -0.0157(4)
H2 H 0.0156(9) 0.5384(6) -0.3477(4)
H3 H 0.1290(9) 0.4673(6) -0.4361(4)
H4 H -0.0657(9) 0.4659(6) -0.4048(4)
H5 H -0.0246(8) 0.3393(6) -0.2805(4)
H6 H 0.1684(8) 0.3407(6) -0.3115(4)
H7 H 0.3523(8) 0.0602(6) -0.0312(4)
H8 H 0.3588(8) -0.0856(6) -0.0437(4)
H9 H 0.4589(8) -0.0073(6) -0.1223(4)
H10 H 0.2290(8) -0.1544(7) -0.3947(5)
H11 H 0.2990(11) -0.3615(10) -0.4519(5)
H12 H 0.4935(13) -0.5178(7) -0.4009(6)
H13 H 0.6272(9) -0.4653(9) -0.2983(6)
H14 H 0.5625(10) -0.2558(9) -0.2434(4)
H15 H -0.0689(9) 0.2845(7) -0.4629(4)
H16 H -0.0175(9) 0.1356(7) -0.4605(4)
H17 H -0.2963(10) 0.2014(9) -0.3724(6)
H18 H -0.2233(10) 0.2716(9) -0.3111(6)
H19 H -0.2663(9) 0.0896(7) -0.2333(5)
H20 H -0.1766(9) 0.0094(7) -0.3205(5)
H21 H -0.1941(12) 0.2752(7) -0.0427(4)
H22 H -0.4084(9) 0.4376(8) 0.0302(6)
H23 H -0.1111(15) 0.5236(7) 0.1755(4)
H24 H 0.2766(8) 0.1434(6) -0.5036(4)
H25 H 0.3077(8) 0.2744(6) -0.4785(4)
H26 H 0.4422(7) 0.1814(6) -0.3733(4)
H27 H 0.4901(7) 0.0640(6) -0.4375(4)
H28 H 0.4328(7) -0.0411(6) -0.2511(4)
H29 H 0.1978(8) -0.1388(5) -0.1554(4)
#END
