
#######################################################################
#
#                 Cambridge Crystallographic Data Centre
#                                CCDC
#
#######################################################################
#
# If this CIF has been generated from an entry in the Cambridge
# Structural Database, then it will include bibliographic, chemical,
# crystal, experimental, refinement or atomic coordinate data resulting
# from the CCDC's data processing and validation procedures.
#
#######################################################################

data_CSD_CIF_PIZQOE
_audit_creation_date 1998-11-19
_audit_creation_method CSD-ConQuest-V1
_database_code_CSD PIZQOE
_chemical_formula_sum 'C21 H22 N2 O4'
_chemical_formula_moiety
;
C21 H22 N2 O4
;
_journal_coden_Cambridge 35
_journal_volume 63
_journal_year 1998
_journal_page_first 44
_journal_name_full 'J.Org.Chem. '
loop_
_publ_author_name
"A.Padwa"
"S.R.Harring"
"M.A.Semones"
_chemical_name_systematic
;
2-Acetyl-7a-ethyl-5,6,7,7a,8,9-hexahydro-1-(2-nitrophenyl)-3H-cyclopenta(ij)qu
inolizin-3-one
;
_chemical_melting_point 415.15
_cell_volume   1882.835
_exptl_crystal_density_diffrn 1.293
_exptl_special_details
;
Melting point range 415.15-416.15K

;
_diffrn_ambient_temperature ?
_diffrn_special_details
;
The study was carried out at room temperature,in the range 283-303K

;
#These two values have been output from a single CSD field.
_refine_ls_R_factor_gt 0.0511
_refine_ls_wR_factor_gt 0.0511
loop_
_citation_database_id_CSD
_citation_special_details
PIZQIY "is a stereoisomer of this entry"
_symmetry_cell_setting monoclinic
_symmetry_space_group_name_H-M 'P 21/n'
_symmetry_Int_Tables_number 14
loop_
_symmetry_equiv_pos_site_id
_symmetry_equiv_pos_as_xyz
1 x,y,z
2 1/2-x,1/2+y,1/2-z
3 -x,-y,-z
4 -1/2+x,-1/2-y,-1/2+z
_cell_length_a 11.687(2)
_cell_length_b 11.982(2)
_cell_length_c 13.853(3)
_cell_angle_alpha 90
_cell_angle_beta 103.93(3)
_cell_angle_gamma 90
_cell_formula_units_Z 4
loop_
_atom_type_symbol
_atom_type_radius_bond
C 0.68
H 0.23
N 0.68
O 0.68
loop_
_atom_site_label
_atom_site_type_symbol
_atom_site_fract_x
_atom_site_fract_y
_atom_site_fract_z
O1 O 0.5542(3) 0.2960(2) 0.0734(2)
O2 O 0.3994(2) 0.3351(2) 0.1225(2)
O3 O 0.6388(2) 0.3284(3) 0.3353(2)
O4 O 0.3992(2) 0.3022(2) 0.4980(1)
N1 N 0.4976(3) 0.3567(2) 0.1142(2)
N2 N 0.2622(2) 0.3985(2) 0.3847(2)
C1 C -0.0700(3) 0.4368(4) 0.1228(3)
C2 C 0.0577(3) 0.4157(3) 0.1763(2)
C3 C 0.1116(2) 0.5040(2) 0.2564(2)
C4 C 0.1407(3) 0.6118(2) 0.2049(2)
C5 C 0.2596(3) 0.5889(3) 0.1790(2)
C6 C 0.3175(2) 0.5065(2) 0.2586(2)
C7 C 0.2347(2) 0.4667(2) 0.3043(2)
C8 C 0.4335(2) 0.4666(2) 0.2873(2)
C9 C 0.5785(3) 0.6115(2) 0.2700(2)
C10 C 0.6582(3) 0.6596(3) 0.2236(3)
C11 C 0.6826(3) 0.6109(3) 0.1413(3)
C12 C 0.6300(3) 0.5113(3) 0.1061(2)
C13 C 0.5507(2) 0.4643(2) 0.1531(2)
C14 C 0.5209(2) 0.5120(2) 0.2347(2)
C15 C 0.4636(2) 0.3944(2) 0.3676(2)
C16 C 0.5855(3) 0.3483(2) 0.3980(2)
C17 C 0.6434(3) 0.3274(3) 0.5044(2)
C18 C 0.3785(3) 0.3613(2) 0.4223(2)
C19 C 0.1758(3) 0.3762(3) 0.4447(2)
C20 C 0.0516(3) 0.4097(3) 0.3953(3)
C21 C 0.0424(3) 0.5176(3) 0.3355(2)
H1 H -0.0980(3) 0.3793(4) 0.0746(3)
H2 H -0.1174(3) 0.4380(4) 0.1706(3)
H3 H -0.0752(3) 0.5078(4) 0.0899(3)
H4 H 0.1041(3) 0.4129(3) 0.1279(2)
H5 H 0.0623(3) 0.3438(3) 0.2077(2)
H6 H 0.1467(3) 0.6743(2) 0.2492(2)
H7 H 0.0802(3) 0.6267(2) 0.1459(2)
H8 H 0.3059(3) 0.6557(3) 0.1828(2)
H9 H 0.2486(3) 0.5570(3) 0.1139(2)
H10 H 0.5619(3) 0.6464(2) 0.3275(2)
H11 H 0.6972(3) 0.7278(3) 0.2490(3)
H12 H 0.7365(3) 0.6458(3) 0.1082(3)
H13 H 0.6476(3) 0.4750(3) 0.0496(2)
H14 H 0.7214(3) 0.2986(3) 0.5103(2)
H15 H 0.6478(3) 0.3956(3) 0.5415(2)
H16 H 0.5974(3) 0.2738(3) 0.5303(2)
H17 H 0.1996(3) 0.4171(3) 0.5059(2)
H18 H 0.1779(3) 0.2981(3) 0.4608(2)
H19 H 0.0062(3) 0.4163(3) 0.4443(3)
H20 H 0.0175(3) 0.3510(3) 0.3504(3)
H21 H -0.0385(3) 0.5341(3) 0.3046(2)
H22 H 0.0745(3) 0.5781(3) 0.3791(2)
#END
