
#######################################################################
#
#                 Cambridge Crystallographic Data Centre
#                                CCDC
#
#######################################################################
#
# If this CIF has been generated from an entry in the Cambridge
# Structural Database, then it will include bibliographic, chemical,
# crystal, experimental, refinement or atomic coordinate data resulting
# from the CCDC's data processing and validation procedures.
#
#######################################################################

data_CSD_CIF_PMAANO10
_audit_creation_date 1975-01-07
_audit_creation_method CSD-ConQuest-V1
_database_code_CSD PMAANO10
_chemical_formula_sum 'C18 H22 N2 O2'
_chemical_formula_moiety
;
C18 H22 N2 O2
;
_journal_coden_Cambridge 188
_journal_year 1974
_journal_page_first 1210
_journal_name_full 'J.Chem.Soc.,Perkin Trans.2 '
loop_
_publ_author_name
"R.Foster"
"J.Iball"
"R.Nash"
_chemical_name_systematic
;
5-(Hydroxy(phenyl)amino)-3,3,5-trimethyl-2-phenylisoxazolidine
;
_cell_volume   1664.176
_exptl_crystal_density_diffrn 1.191
_exptl_special_details
;
A polymorph

;
_diffrn_ambient_temperature ?
_diffrn_special_details
;
The study was carried out at room temperature,in the range 283-303K

;
#These two values have been output from a single CSD field.
_refine_ls_R_factor_gt 0.093
_refine_ls_wR_factor_gt 0.093
_symmetry_cell_setting monoclinic
_symmetry_space_group_name_H-M 'P 21/n'
_symmetry_Int_Tables_number 14
loop_
_symmetry_equiv_pos_site_id
_symmetry_equiv_pos_as_xyz
1 x,y,z
2 1/2-x,1/2+y,1/2-z
3 -x,-y,-z
4 -1/2+x,-1/2-y,-1/2+z
_cell_length_a 12.45(1)
_cell_length_b 13.25(1)
_cell_length_c 10.18(1)
_cell_angle_alpha 90
_cell_angle_beta 97.7(1)
_cell_angle_gamma 90
_cell_formula_units_Z 4
loop_
_atom_type_symbol
_atom_type_radius_bond
C 0.68
N 0.68
O 0.68
loop_
_atom_site_label
_atom_site_type_symbol
_atom_site_fract_x
_atom_site_fract_y
_atom_site_fract_z
C1 C 0.29340 0.48790 0.25210
C2 C -0.07230 0.39310 0.28780
C3 C -0.00390 0.31170 0.28580
C4 C -0.04350 0.21960 0.23570
C5 C -0.15120 0.20700 0.18680
C6 C -0.21980 0.29020 0.19110
C7 C -0.18220 0.38190 0.23970
C8 C 0.21660 0.69290 0.19150
C9 C 0.26620 0.67270 0.43680
C10 C -0.05920 0.58730 0.13290
C11 C 0.38510 0.46740 0.34480
C12 C 0.47920 0.43350 0.30050
C13 C 0.48530 0.41730 0.17080
C14 C 0.39530 0.43440 0.07880
C15 C 0.30080 0.46870 0.12020
C16 C 0.19150 0.63800 0.31410
C17 C 0.07300 0.64430 0.33240
C18 C 0.02160 0.55510 0.25390
N1 N 0.20020 0.52490 0.30420
N2 N -0.02860 0.48570 0.34720
O1 O 0.10680 0.50260 0.20570
O2 O -0.11180 0.54210 0.39860
#END
