
#######################################################################
#
#                 Cambridge Crystallographic Data Centre
#                                CCDC
#
#######################################################################
#
# If this CIF has been generated from an entry in the Cambridge
# Structural Database, then it will include bibliographic, chemical,
# crystal, experimental, refinement or atomic coordinate data resulting
# from the CCDC's data processing and validation procedures.
#
#######################################################################

data_CSD_CIF_PMBSYD
_audit_creation_date 1979-01-19
_audit_creation_method CSD-ConQuest-V1
_database_code_CSD PMBSYD
_database_code_depnum_ccdc_archive 'CCDC 1235231'
_chemical_formula_sum 'C13 H14 N2 O2'
_chemical_formula_moiety
;
C13 H14 N2 O2
;
_journal_coeditor_code "IUCr A16377"
_journal_coden_Cambridge 107
_journal_volume 34
_journal_year 1978
_journal_page_first 2756
_journal_name_full 'Acta Crystallogr.,Sect.B:Struct.Crystallogr.Cryst.Chem. '
loop_
_publ_author_name
"J.Hasek"
"J.Obrda"
"K.Huml"
"S.Nespurek"
"H.Chojnacki"
"M.Sorm"
_chemical_name_systematic
;
3-Phenyl-4-(3-methyl-but-1-en-2-yl)sydnone
;
_cell_volume   1233.969
_exptl_crystal_density_diffrn 1.239
_diffrn_ambient_temperature ?
_diffrn_special_details
;
The study was carried out at room temperature,in the range 283-303K

;
#These two values have been output from a single CSD field.
_refine_ls_R_factor_gt 0.049
_refine_ls_wR_factor_gt 0.049
_symmetry_cell_setting monoclinic
_symmetry_space_group_name_H-M 'P 21/c'
_symmetry_Int_Tables_number 14
loop_
_symmetry_equiv_pos_site_id
_symmetry_equiv_pos_as_xyz
1 x,y,z
2 -x,1/2+y,1/2-z
3 -x,-y,-z
4 x,-1/2-y,-1/2+z
_cell_length_a 9.732(6)
_cell_length_b 11.644(4)
_cell_length_c 12.098(6)
_cell_angle_alpha 90
_cell_angle_beta 115.83(4)
_cell_angle_gamma 90
_cell_formula_units_Z 4
loop_
_atom_type_symbol
_atom_type_radius_bond
C 0.68
H 0.23
N 0.68
O 0.68
loop_
_atom_site_label
_atom_site_type_symbol
_atom_site_fract_x
_atom_site_fract_y
_atom_site_fract_z
O1 O 0.61330 0.60510 1.00670
N1 N 0.47100 0.64730 0.98350
N2 N 0.39510 0.64010 0.86330
C1 C 0.47400 0.59710 0.80420
C2 C 0.62200 0.57520 0.89740
O2 O 0.74090 0.53890 0.90040
C3 C 0.24050 0.68470 0.80990
C4 C 0.13810 0.64200 0.85040
C5 C -0.00900 0.68600 0.79900
C6 C -0.04900 0.77020 0.71070
C7 C 0.05520 0.81230 0.67160
C8 C 0.20260 0.76910 0.72110
C9 C 0.41370 0.57460 0.67240
C10 C 0.49380 0.61260 0.61410
C11 C 0.27260 0.49990 0.61320
C12 C 0.18450 0.51880 0.47620
C13 C 0.31980 0.37410 0.64190
H1 H 0.16900 0.58600 0.91400
H2 H -0.08500 0.66000 0.82100
H3 H -0.15200 0.79500 0.68200
H4 H 0.02900 0.87200 0.61200
H5 H 0.27700 0.80100 0.69600
H6 H 0.46400 0.59500 0.52600
H7 H 0.59400 0.66400 0.65600
H8 H 0.20800 0.52200 0.65500
H9 H 0.24800 0.49200 0.43200
H10 H 0.10300 0.45900 0.44900
H11 H 0.14200 0.59200 0.47100
H12 H 0.37600 0.35600 0.72300
H13 H 0.39100 0.35900 0.60100
H14 H 0.22500 0.32000 0.61500
#END
