
#######################################################################
#
#                 Cambridge Crystallographic Data Centre
#                                CCDC
#
#######################################################################
#
# If this CIF has been generated from an entry in the Cambridge
# Structural Database, then it will include bibliographic, chemical,
# crystal, experimental, refinement or atomic coordinate data resulting
# from the CCDC's data processing and validation procedures.
#
#######################################################################

data_CSD_CIF_PMNTBZ01
_audit_creation_date 2011-11-21
_audit_creation_method CSD-ConQuest-V1
_database_code_CSD PMNTBZ01
_database_code_depnum_ccdc_archive 'CCDC 747416'
_chemical_formula_sum 'C11 H15 N1 O2'
_chemical_formula_moiety
;
C11 H15 N1 O2
;
_journal_coden_Cambridge 1078
_journal_year 2009
_journal_name_full 'CSD Communication(Private Communication) '
loop_
_publ_author_name
"D.Britton"
_chemical_name_systematic
;
1,2,3,4,5-Pentamethyl-6-nitrobenzene
;
_chemical_name_common
;
pentamethylnitrobenzene
;
_cell_volume    255.753
_exptl_crystal_colour 'colorless'
_exptl_crystal_density_diffrn 1.255
_exptl_special_details
;
contribution from Department of Chemistry,664 Kolthoff Hall,207 Pleasant 
Street S.E., Minneapolis, MN 55455, USA
;
_exptl_crystal_description 'prism'
_diffrn_ambient_temperature 174
#These two values have been output from a single CSD field.
_refine_ls_R_factor_gt 0.0334
_refine_ls_wR_factor_gt 0.0334
_symmetry_cell_setting triclinic
_symmetry_space_group_name_H-M 'P 1'
_symmetry_Int_Tables_number 1
loop_
_symmetry_equiv_pos_site_id
_symmetry_equiv_pos_as_xyz
1 x,y,z
_cell_length_a 5.2871(6)
_cell_length_b 6.3187(7)
_cell_length_c 8.1926(9)
_cell_angle_alpha 105.625(2)
_cell_angle_beta 98.688(2)
_cell_angle_gamma 98.121(2)
_cell_formula_units_Z 1
loop_
_atom_type_symbol
_atom_type_radius_bond
C 0.68
H 0.23
N 0.68
O 0.68
loop_
_atom_site_label
_atom_site_type_symbol
_atom_site_fract_x
_atom_site_fract_y
_atom_site_fract_z
C1 C 0.5607(3) 0.6153(3) 0.6695(2)
C2 C 0.6834(3) 0.4350(3) 0.6149(2)
C3 C 0.6182(3) 0.3167(3) 0.4381(2)
C4 C 0.4365(3) 0.3811(3) 0.3253(2)
C5 C 0.3196(3) 0.5653(3) 0.3881(2)
C6 C 0.3808(3) 0.6865(3) 0.5639(2)
C7 C 0.8778(4) 0.3725(4) 0.7395(3)
H1 H 0.91010 0.48390 0.85350
H2 H 1.04140 0.36790 0.69740
H3 H 0.80820 0.22480 0.74870
C8 C 0.7481(4) 0.1209(3) 0.3724(3)
H4 H 0.75220 0.09920 0.24980
H5 H 0.64970 -0.01470 0.38600
H6 H 0.92660 0.15120 0.43870
C9 C 0.3683(4) 0.2507(4) 0.1353(3)
H7 H 0.25440 0.32500 0.07280
H8 H 0.27800 0.09840 0.12100
H9 H 0.52820 0.24420 0.08880
C10 C 0.1233(4) 0.6341(4) 0.2671(3)
H10 H 0.12560 0.79480 0.31260
H11 H -0.05130 0.54990 0.25810
H12 H 0.16870 0.60230 0.15250
C11 C 0.2570(4) 0.8840(4) 0.6369(3)
H13 H 0.31940 0.94140 0.76240
H14 H 0.06700 0.83630 0.61130
H15 H 0.30430 1.00210 0.58410
N1 N 0.6271(3) 0.7409(3) 0.8555(2)
O1 O 0.7947(4) 0.9092(3) 0.9030(2)
O2 O 0.5090(4) 0.6722(3) 0.9526(2)
H16? H 0.03640 0.50320 0.16950
H17? H 0.21330 0.74810 0.22400
H18? H -0.00670 0.69560 0.32960
H19? H 0.14110 0.91180 0.54280
H20? H 0.39350 1.01690 0.69390
H21? H 0.15620 0.85110 0.72110
H22? H 0.92970 0.23390 0.67960
H23? H 0.79840 0.34990 0.83560
H24? H 1.03160 0.49300 0.78430
H25? H 0.80010 0.05800 0.46650
H26? H 0.90270 0.17190 0.33040
H27? H 0.62570 0.00590 0.27770
H28? H 0.45270 0.12010 0.11560
H29? H 0.42910 0.34670 0.06740
H30? H 0.17880 0.20090 0.09960
#END
