
#######################################################################
#
#                 Cambridge Crystallographic Data Centre
#                                CCDC
#
#######################################################################
#
# If this CIF has been generated from an entry in the Cambridge
# Structural Database, then it will include bibliographic, chemical,
# crystal, experimental, refinement or atomic coordinate data resulting
# from the CCDC's data processing and validation procedures.
#
#######################################################################

data_CSD_CIF_PNBZNT
_audit_creation_date 1977-12-13
_audit_creation_method CSD-ConQuest-V1
_database_code_CSD PNBZNT
_chemical_formula_sum 'C7 H4 N2 O2'
_chemical_formula_moiety
;
C7 H4 N2 O2
;
_journal_coeditor_code "IUCr A14875"
_journal_coden_Cambridge 107
_journal_volume 33
_journal_year 1977
_journal_page_first 2337
_journal_name_full 'Acta Crystallogr.,Sect.B:Struct.Crystallogr.Cryst.Chem. '
loop_
_publ_author_name
"T.Higashi"
"K.Osaki"
_chemical_name_systematic
;
p-Nitrobenzonitrile
;
_cell_volume    344.992
_exptl_crystal_density_diffrn 1.415
_diffrn_ambient_temperature ?
_diffrn_special_details
;
The study was carried out at room temperature,in the range 283-303K

;
#These two values have been output from a single CSD field.
_refine_ls_R_factor_gt 0.086
_refine_ls_wR_factor_gt 0.086
_symmetry_cell_setting monoclinic
_symmetry_space_group_name_H-M 'P 21'
_symmetry_Int_Tables_number 4
loop_
_symmetry_equiv_pos_site_id
_symmetry_equiv_pos_as_xyz
1 x,y,z
2 -x,1/2+y,-z
_cell_length_a 12.732(3)
_cell_length_b 7.058(3)
_cell_length_c 3.847(2)
_cell_angle_alpha 90
_cell_angle_beta 93.670(2)
_cell_angle_gamma 90
_cell_formula_units_Z 2
loop_
_atom_type_symbol
_atom_type_radius_bond
C 0.68
N 0.68
O 0.68
loop_
_atom_site_label
_atom_site_type_symbol
_atom_site_fract_x
_atom_site_fract_y
_atom_site_fract_z
C1 C 0.19330 0.00000 0.28840
C2 C 0.30100 0.00780 0.37940
C3 C 0.35730 0.16850 0.30300
C4 C 0.30450 0.31620 0.13040
C5 C 0.19730 0.31020 0.03610
C6 C 0.14110 0.15160 0.11850
C7 C 0.13430 -0.16480 0.37610
N1 N 0.08950 -0.29630 0.45010
N2 N 0.36530 0.48870 0.05370
O1 O 0.45560 0.50380 0.17600
O2 O 0.32260 0.60410 -0.13770
#END
