
#######################################################################
#
#                 Cambridge Crystallographic Data Centre
#                                CCDC
#
#######################################################################
#
# If this CIF has been generated from an entry in the Cambridge
# Structural Database, then it will include bibliographic, chemical,
# crystal, experimental, refinement or atomic coordinate data resulting
# from the CCDC's data processing and validation procedures.
#
#######################################################################

data_CSD_CIF_PNEBCH
_audit_creation_date 1976-02-16
_audit_creation_method CSD-ConQuest-V1
_database_code_CSD PNEBCH
_chemical_formula_sum 'C18 H25 N1 O3'
_chemical_formula_moiety
;
C18 H25 N1 O3
;
_journal_coden_Cambridge 16
_journal_volume 31
_journal_year 1975
_journal_page_first 1501
_journal_name_full 'Tetrahedron '
loop_
_publ_author_name
"M.Calligaris"
"G.Manzini"
"G.Pitacco"
"E.Valentin"
_chemical_name_systematic
;
erythro-2-(\a-Phenyl-\b-nitro)ethyl-4-t-butyl-cyclohexanone 
threo-2-(\a-phenyl-\b-nitro)ethyl-4-t-butyl-cyclohexanone
;
_cell_volume   3449.350
_exptl_crystal_density_diffrn 1.17
_diffrn_ambient_temperature ?
_diffrn_special_details
;
The study was carried out at room temperature,in the range 283-303K

;
#These two values have been output from a single CSD field.
_refine_ls_R_factor_gt 0.088
_refine_ls_wR_factor_gt 0.088
_symmetry_cell_setting monoclinic
_symmetry_space_group_name_H-M 'P 21/c'
_symmetry_Int_Tables_number 14
loop_
_symmetry_equiv_pos_site_id
_symmetry_equiv_pos_as_xyz
1 x,y,z
2 -x,1/2+y,1/2-z
3 -x,-y,-z
4 x,-1/2-y,-1/2+z
_cell_length_a 13.818
_cell_length_b 22.878
_cell_length_c 14.161
_cell_angle_alpha 90
_cell_angle_beta 129.6
_cell_angle_gamma 90
_cell_formula_units_Z 8
loop_
_atom_type_symbol
_atom_type_radius_bond
C 0.68
H 0.23
N 0.68
O 0.68
loop_
_atom_site_label
_atom_site_type_symbol
_atom_site_fract_x
_atom_site_fract_y
_atom_site_fract_z
C1 C 0.27610 0.09380 0.09610
C2 C 0.20900 -0.40800 0.44890
C3 C -0.09430 0.21400 -0.06320
C4 C 0.35930 -0.21320 0.46420
C5 C 0.26310 0.04630 0.25010
C6 C 0.26560 -0.44760 0.32680
C7 C 0.14690 0.00990 0.15770
C8 C 0.28510 0.05880 0.36870
C9 C 0.19920 -0.50440 0.30800
C10 C 0.26430 -0.43770 0.22030
C11 C 0.18850 0.06470 0.37170
C12 C 0.15240 -0.43310 0.10010
C13 C 0.21550 0.07870 0.48120
C14 C 0.15580 -0.42280 0.00270
C15 C 0.26500 -0.41870 0.02630
C16 C 0.33340 0.08660 0.58450
C17 C 0.42940 0.08070 0.58250
C18 C 0.37970 -0.42480 0.14790
C19 C 0.40870 0.06610 0.47480
C20 C 0.37750 -0.43330 0.24550
C21 C 0.25710 0.10410 0.19020
C22 C 0.19750 -0.39810 0.33620
C23 C 0.14370 0.14080 0.13570
C24 C 0.24660 -0.33660 0.34580
C25 C 0.14450 0.19990 0.08380
C26 C 0.38180 -0.32660 0.46810
C27 C 0.15570 0.18500 -0.01660
C28 C 0.37970 -0.33560 0.57360
C29 C 0.26740 0.14970 0.03180
C30 C 0.33010 -0.39570 0.56930
C31 C 0.03950 0.24090 0.04270
C32 C 0.43550 -0.26620 0.47330
C33 C 0.04600 0.25400 0.15570
C34 C 0.43920 -0.25970 0.36540
C35 C 0.05940 0.30000 -0.00090
C36 C 0.57540 -0.26180 0.59520
H1 H 0.34580 0.02160 0.27520
H2 H 0.36400 -0.45100 0.41210
H3 H 0.06450 0.03360 0.13030
H4 H 0.19000 -0.50890 0.37940
H5 H 0.13920 0.00330 0.07550
H6 H 0.10220 -0.50200 0.21830
H7 H 0.09140 0.05850 0.28860
H8 H 0.06140 -0.43780 0.07860
H9 H 0.13810 0.08180 0.48520
H10 H 0.07120 -0.41680 -0.09230
H11 H 0.35400 0.09870 0.66990
H12 H 0.26570 -0.41060 -0.04840
H13 H 0.52630 0.08710 0.66770
H14 H 0.46960 -0.42400 0.16310
H15 H 0.48700 0.06150 0.47370
H16 H 0.46440 -0.43590 0.34080
H17 H 0.33550 0.13130 0.26400
H18 H 0.09610 -0.39950 0.25470
H19 H 0.13350 0.14860 0.20420
H20 H 0.18400 -0.30430 0.33920
H21 H 0.06310 0.11590 0.05940
H22 H 0.24520 -0.33010 0.26800
H23 H 0.23180 0.22170 0.15920
H24 H 0.44390 -0.36080 0.47520
H25 H 0.15910 0.22540 -0.05620
H26 H 0.31860 -0.30270 0.56740
H27 H 0.07190 0.16000 -0.09160
H28 H 0.47480 -0.33030 0.66170
H29 H 0.35070 0.17650 0.09870
H30 H 0.32070 -0.39850 0.64030
H31 H 0.26820 0.13750 -0.04190
H32 H 0.39940 -0.42860 0.58960
N1 N 0.15230 -0.04960 0.20920
N2 N 0.26860 -0.55750 0.30930
O1 O 0.29710 0.04710 0.07620
O2 O 0.11870 -0.42550 0.43600
O3 O 0.05950 -0.06690 0.18670
O4 O 0.37830 -0.55780 0.37980
O5 O 0.25080 -0.07560 0.27120
O6 O 0.20190 -0.59370 0.23050
#END
