
#######################################################################
#
#                 Cambridge Crystallographic Data Centre
#                                CCDC
#
#######################################################################
#
# If this CIF has been generated from an entry in the Cambridge
# Structural Database, then it will include bibliographic, chemical,
# crystal, experimental, refinement or atomic coordinate data resulting
# from the CCDC's data processing and validation procedures.
#
#######################################################################

data_CSD_CIF_PNIANS
_audit_creation_date 1978-11-29
_audit_creation_method CSD-ConQuest-V1
_database_code_CSD PNIANS
_database_code_depnum_ccdc_archive 'CCDC 1235447'
_chemical_formula_sum 'C7 H7 N1 O3'
_chemical_formula_moiety
;
C7 H7 N1 O3
;
_journal_coden_Cambridge 3
_journal_volume 32
_journal_year 1978
_journal_page_first 373
_journal_name_full 'Acta Chem.Scand. '
loop_
_publ_author_name
"H.J.Talberg"
_chemical_name_systematic
;
p-Nitroanisole
;
_cell_volume    708.201
_exptl_crystal_density_diffrn 1.436
_diffrn_ambient_temperature 108
#These two values have been output from a single CSD field.
_refine_ls_R_factor_gt 0.042
_refine_ls_wR_factor_gt 0.042
_symmetry_cell_setting monoclinic
_symmetry_space_group_name_H-M 'P 21/c'
_symmetry_Int_Tables_number 14
loop_
_symmetry_equiv_pos_site_id
_symmetry_equiv_pos_as_xyz
1 x,y,z
2 -x,1/2+y,1/2-z
3 -x,-y,-z
4 x,-1/2-y,-1/2+z
_cell_length_a 9.045(3)
_cell_length_b 10.573(6)
_cell_length_c 7.533(2)
_cell_angle_alpha 90
_cell_angle_beta 100.56(2)
_cell_angle_gamma 90
_cell_formula_units_Z 4
loop_
_atom_type_symbol
_atom_type_radius_bond
C 0.68
H 0.23
N 0.68
O 0.68
loop_
_atom_site_label
_atom_site_type_symbol
_atom_site_fract_x
_atom_site_fract_y
_atom_site_fract_z
O1 O 0.14468 0.00071 0.39346
O2 O 0.41471 0.52755 0.65244
O3 O 0.22109 0.58449 0.45777
N1 N 0.30170 0.50173 0.53940
C1 C 0.19008 0.12049 0.43558
C2 C 0.32710 0.15249 0.54864
C3 C 0.36253 0.27723 0.57989
C4 C 0.26406 0.36964 0.50466
C5 C 0.12683 0.34015 0.39335
C6 C 0.09319 0.21651 0.36040
C7 C 0.23382 -0.10180 0.48089
H1 H 0.05480 0.41740 0.33810
H2 H 0.44770 0.30040 0.64800
H3 H 0.19060 -0.19060 0.44260
H4 H 0.24500 -0.09160 0.61430
H5 H 0.00270 0.19100 0.28160
H6 H 0.40510 0.07800 0.60760
H7 H 0.33390 -0.10210 0.44420
#END
