
#######################################################################
#
#                 Cambridge Crystallographic Data Centre
#                                CCDC
#
#######################################################################
#
# If this CIF has been generated from an entry in the Cambridge
# Structural Database, then it will include bibliographic, chemical,
# crystal, experimental, refinement or atomic coordinate data resulting
# from the CCDC's data processing and validation procedures.
#
#######################################################################

data_CSD_CIF_PNOIZF
_audit_creation_date 1981-09-30
_audit_creation_method CSD-ConQuest-V1
_database_code_CSD PNOIZF
_chemical_formula_sum 'C19 H19 N3 O2'
_chemical_formula_moiety
;
C19 H19 N3 O2
;
_journal_coden_Cambridge 82
_journal_volume 21
_journal_year 1980
_journal_page_first 69-6
_journal_name_full 'Zh.Strukt.Khim.(Russ.)(J.Struct.Chem.) '
loop_
_publ_author_name
"V.A.Tafeenko"
"L.A.Aslanov"
_chemical_name_systematic
;
2-Phenyl-5-piperidino-8-nitro-indolizine
;
_cell_volume   1607.048
_exptl_special_details
;
x/a(N4)=+0.0708(not -0.0708), x/a(C12)=-0.2946(not +0.2946), 
x/a(C14)=-0.0406(not +0.0406)
;
_diffrn_ambient_temperature ?
_diffrn_special_details
;
The study was carried out at room temperature,in the range 283-303K

;
#These two values have been output from a single CSD field.
_refine_ls_R_factor_gt 0.1
_refine_ls_wR_factor_gt 0.1
_symmetry_cell_setting monoclinic
_symmetry_space_group_name_H-M 'P 1 1 21/b'
_symmetry_Int_Tables_number 14
loop_
_symmetry_equiv_pos_site_id
_symmetry_equiv_pos_as_xyz
1 x,y,z
2 -x,1/2-y,1/2+z
3 -x,-y,-z
4 x,-1/2+y,-1/2-z
_cell_length_a 8.371(5)
_cell_length_b 15.143(9)
_cell_length_c 12.779(8)
_cell_angle_alpha 90
_cell_angle_beta 90
_cell_angle_gamma 97.22(9)
_cell_formula_units_Z 4
loop_
_atom_type_symbol
_atom_type_radius_bond
C 0.68
N 0.68
O 0.68
loop_
_atom_site_label
_atom_site_type_symbol
_atom_site_fract_x
_atom_site_fract_y
_atom_site_fract_z
O1 O -0.28760 0.07550 0.32240
O2 O -0.34340 0.01540 0.17220
N1 N 0.33090 0.22410 0.06750
N2 N -0.25280 0.06320 0.23030
N3 N 0.07080 0.14970 0.04420
C1 C -0.16210 0.07030 -0.00840
C2 C -0.06440 0.10020 -0.09710
C3 C 0.07490 0.14870 -0.06380
C4 C 0.19300 0.18960 0.11340
C5 C 0.15360 0.19180 0.21950
C6 C 0.00270 0.15090 0.25550
C7 C -0.10660 0.10830 0.19030
C8 C -0.07700 0.10280 0.07820
C9 C -0.10900 0.07810 -0.20810
C10 C -0.25370 0.02880 -0.23100
C11 C -0.29460 0.00690 -0.33630
C12 C -0.18960 0.03280 -0.41410
C13 C -0.04060 0.08540 -0.39230
C14 C -0.00300 0.10690 -0.28740
C15 C 0.42430 0.16300 0.01110
C16 C 0.53730 0.21910 -0.06600
C17 C 0.65680 0.28350 -0.00570
C18 C 0.55470 0.34480 0.06330
C19 C 0.44190 0.28660 0.13680
#END
