
#######################################################################
#
#                 Cambridge Crystallographic Data Centre
#                                CCDC
#
#######################################################################
#
# If this CIF has been generated from an entry in the Cambridge
# Structural Database, then it will include bibliographic, chemical,
# crystal, experimental, refinement or atomic coordinate data resulting
# from the CCDC's data processing and validation procedures.
#
#######################################################################

data_CSD_CIF_PNOIZA
_audit_creation_date 1981-09-30
_audit_creation_method CSD-ConQuest-V1
_database_code_CSD PNOIZA
_chemical_formula_sum 'C14 H10 N2 O2'
_chemical_formula_moiety
;
C14 H10 N2 O2
;
_journal_coden_Cambridge 82
_journal_volume 21
_journal_year 1980
_journal_page_first 69-6
_journal_name_full 'Zh.Strukt.Khim.(Russ.)(J.Struct.Chem.) '
loop_
_publ_author_name
"V.A.Tafeenko"
"L.A.Aslanov"
_chemical_name_systematic
;
2-Phenyl-6-nitro-indolizine
;
_cell_volume   1101.840
_exptl_special_details
;
All y/b H-atom coordinates multiplied by 10000 (not 1000)

;
_diffrn_ambient_temperature ?
_diffrn_special_details
;
The study was carried out at room temperature,in the range 283-303K

;
#These two values have been output from a single CSD field.
_refine_ls_R_factor_gt 0.047
_refine_ls_wR_factor_gt 0.047
_symmetry_cell_setting monoclinic
_symmetry_space_group_name_H-M 'P 1 1 21/b'
_symmetry_Int_Tables_number 14
loop_
_symmetry_equiv_pos_site_id
_symmetry_equiv_pos_as_xyz
1 x,y,z
2 -x,1/2-y,1/2+z
3 -x,-y,-z
4 x,-1/2+y,-1/2-z
_cell_length_a 5.871(2)
_cell_length_b 26.488(6)
_cell_length_c 7.176(2)
_cell_angle_alpha 90
_cell_angle_beta 90
_cell_angle_gamma 99.12(4)
_cell_formula_units_Z 4
loop_
_atom_type_symbol
_atom_type_radius_bond
C 0.68
H 0.23
N 0.68
O 0.68
loop_
_atom_site_label
_atom_site_type_symbol
_atom_site_fract_x
_atom_site_fract_y
_atom_site_fract_z
O1 O 0.46580 -0.00340 0.27530
O2 O 0.82830 0.02430 0.24720
N1 N 0.63070 0.03080 0.27950
N2 N 0.72710 0.16940 0.34210
C1 C 0.54370 0.23010 0.45690
C2 C 0.76310 0.25370 0.38850
C3 C 0.87260 0.21540 0.31940
C4 C 0.76170 0.12100 0.29610
C5 C 0.59090 0.08190 0.33130
C6 C 0.37670 0.08840 0.41410
C7 C 0.34580 0.13630 0.46240
C8 C 0.52030 0.17900 0.42870
C9 C 0.85470 0.30880 0.38350
C10 C 0.72020 0.34500 0.44330
C11 C 0.80030 0.39710 0.42840
C12 C 1.01910 0.41430 0.35630
C13 C 1.15540 0.37880 0.30050
C14 C 1.07540 0.32700 0.31320
H1 H 0.43500 0.25200 0.51800
H2 H 1.02100 0.21500 0.25900
H3 H 0.90100 0.11690 0.23400
H4 H 0.25800 0.05750 0.43400
H5 H 0.20900 0.14170 0.53600
H6 H 0.56400 0.33450 0.49900
H7 H 0.68900 0.42190 0.47800
H8 H 1.07500 0.45130 0.34000
H9 H 1.30100 0.39040 0.24800
H10 H 1.16900 0.30400 0.26900
#END
