
#######################################################################
#
#                 Cambridge Crystallographic Data Centre
#                                CCDC
#
#######################################################################
#
# If this CIF has been generated from an entry in the Cambridge
# Structural Database, then it will include bibliographic, chemical,
# crystal, experimental, refinement or atomic coordinate data resulting
# from the CCDC's data processing and validation procedures.
#
#######################################################################

data_CSD_CIF_PNOIZB
_audit_creation_date 1981-09-30
_audit_creation_method CSD-ConQuest-V1
_database_code_CSD PNOIZB
_chemical_formula_sum 'C14 H10 N2 O2'
_chemical_formula_moiety
;
C14 H10 N2 O2
;
_journal_coden_Cambridge 82
_journal_volume 21
_journal_year 1980
_journal_page_first 69-6
_journal_name_full 'Zh.Strukt.Khim.(Russ.)(J.Struct.Chem.) '
loop_
_publ_author_name
"V.A.Tafeenko"
"L.A.Aslanov"
_chemical_name_systematic
;
2-Phenyl-8-nitro-indolizine
;
_cell_volume   1125.020
_diffrn_ambient_temperature ?
_diffrn_special_details
;
The study was carried out at room temperature,in the range 283-303K

;
#These two values have been output from a single CSD field.
_refine_ls_R_factor_gt 0.06
_refine_ls_wR_factor_gt 0.06
_symmetry_cell_setting orthorhombic
_symmetry_space_group_name_H-M 'P c a 21'
_symmetry_Int_Tables_number 29
loop_
_symmetry_equiv_pos_site_id
_symmetry_equiv_pos_as_xyz
1 x,y,z
2 1/2-x,y,1/2+z
3 1/2+x,-y,z
4 -x,-y,1/2+z
_cell_length_a 21.841(6)
_cell_length_b 6.728(3)
_cell_length_c 7.656(3)
_cell_angle_alpha 90
_cell_angle_beta 90
_cell_angle_gamma 90
_cell_formula_units_Z 4
loop_
_atom_type_symbol
_atom_type_radius_bond
C 0.68
H 0.23
N 0.68
O 0.68
loop_
_atom_site_label
_atom_site_type_symbol
_atom_site_fract_x
_atom_site_fract_y
_atom_site_fract_z
O1 O 0.27660 0.27860 0.20880
O2 O 0.19760 0.10290 0.27320
N1 N 0.25310 0.13260 0.27590
N2 N 0.38890 -0.10920 0.48190
C1 C 0.39410 0.19490 0.36310
C2 C 0.45210 0.14590 0.43710
C3 C 0.44650 -0.04280 0.50940
C4 C 0.36380 -0.29070 0.53310
C5 C 0.30500 -0.33090 0.49460
C6 C 0.26780 -0.19190 0.40880
C7 C 0.29270 -0.01150 0.36030
C8 C 0.35510 0.03750 0.39000
C9 C 0.50720 0.27210 0.44140
C10 C 0.55990 0.21010 0.52840
C11 C 0.61180 0.33460 0.53500
C12 C 0.61100 0.51660 0.45530
C13 C 0.55870 0.58020 0.36770
C14 C 0.50690 0.46040 0.36110
H1 H 0.38200 0.31000 0.29500
H2 H 0.47800 -0.12300 0.56900
H3 H 0.39500 -0.37100 0.61100
H4 H 0.29400 -0.45300 0.53100
H5 H 0.22200 -0.20500 0.36300
H6 H 0.56000 0.09100 0.59100
H7 H 0.64800 0.28700 0.59400
H8 H 0.64900 0.61400 0.45700
H9 H 0.55800 0.72400 0.29300
H10 H 0.46900 0.51200 0.28000
#END
