
#######################################################################
#
#                 Cambridge Crystallographic Data Centre
#                                CCDC
#
#######################################################################
#
# If this CIF has been generated from an entry in the Cambridge
# Structural Database, then it will include bibliographic, chemical,
# crystal, experimental, refinement or atomic coordinate data resulting
# from the CCDC's data processing and validation procedures.
#
#######################################################################

data_CSD_CIF_POBGOD
_audit_creation_date 2008-10-16
_audit_creation_method CSD-ConQuest-V1
_database_code_CSD POBGOD
_database_code_depnum_ccdc_archive 'CCDC 669284'
_chemical_formula_sum 'C16 H15 N5 O5'
_chemical_formula_moiety
;
C16 H15 N5 O5
;
_journal_coden_Cambridge 179
_journal_volume 47
_journal_year 2008
_journal_page_first 4009
_journal_name_full 'Angew.Chem.,Int.Ed. '
loop_
_publ_author_name
"Chan Hyuk Kim"
"Ki Po Jang"
"Soo Young Choi"
"Young Keun Chung"
"Eun Lee"
_chemical_name_systematic
;
7-(2-(2,4-dinitrophenyl)hydrazinylidene)-6a-methylhexahydro-5H-2,5-methanocycl
openta[b]furan-5-carbonitrile
;
_cell_volume    804.337
_exptl_crystal_colour 'yellow'
_exptl_crystal_density_diffrn 1.475
_exptl_crystal_description 'plate'
_diffrn_ambient_temperature 293
#These two values have been output from a single CSD field.
_refine_ls_R_factor_gt 0.053
_refine_ls_wR_factor_gt 0.053
_symmetry_cell_setting triclinic
_symmetry_space_group_name_H-M 'P -1'
_symmetry_Int_Tables_number 2
loop_
_symmetry_equiv_pos_site_id
_symmetry_equiv_pos_as_xyz
1 x,y,z
2 -x,-y,-z
_cell_length_a 9.8144(8)
_cell_length_b 9.9855(8)
_cell_length_c 9.9971(8)
_cell_angle_alpha 62.611(4)
_cell_angle_beta 68.875(4)
_cell_angle_gamma 86.767(4)
_cell_formula_units_Z 2
loop_
_atom_type_symbol
_atom_type_radius_bond
C 0.68
H 0.23
N 0.68
O 0.68
loop_
_atom_site_label
_atom_site_type_symbol
_atom_site_fract_x
_atom_site_fract_y
_atom_site_fract_z
O1 O 0.28696(16) 0.04234(16) 0.67237(19)
O2 O 0.54323(17) -0.44238(16) 0.81817(19)
O3 O 0.66079(18) -0.62634(16) 0.9209(2)
O4 O 1.1609(2) -0.5437(2) 0.8256(3)
O5 O 1.2690(2) -0.3175(2) 0.7262(3)
N1 N 0.62869(18) -0.01634(16) 0.7178(2)
N2 N 0.6336(2) -0.16695(18) 0.7530(2)
H1 H 0.554(3) -0.227(3) 0.777(3)
N3 N 0.7570(3) 0.3441(2) 0.5986(3)
N4 N 0.6519(2) -0.49046(18) 0.8503(2)
N5 N 1.1608(2) -0.4061(2) 0.7729(3)
C1 C 0.5048(2) 0.0344(2) 0.7304(2)
C2 C 0.3535(2) -0.0483(2) 0.7851(3)
C3 C 0.2628(2) 0.1779(2) 0.6937(3)
C4 C 0.4106(2) 0.2799(2) 0.5916(3)
H2 H 0.40090 0.38300 0.57510
H3 H 0.45550 0.28170 0.48690
C5 C 0.4982(2) 0.1985(2) 0.7012(2)
C6 C 0.1333(3) 0.2415(3) 0.6481(3)
H4 H 0.15230 0.26070 0.53930
H5 H 0.11930 0.33480 0.65410
H6 H 0.04610 0.16940 0.72200
C7 C 0.6450(3) 0.2786(2) 0.6436(3)
C8 C 0.2491(3) -0.0493(3) 0.9397(3)
C9 C 0.2455(3) 0.1221(2) 0.8742(3)
C10 C 0.3872(3) 0.1921(3) 0.8613(3)
C11 C 0.7613(2) -0.2262(2) 0.7559(2)
C12 C 0.7739(2) -0.3818(2) 0.8031(2)
C13 C 0.9049(2) -0.4397(2) 0.8080(2)
H7 H 0.91130 -0.54250 0.83990
C14 C 1.0243(2) -0.3437(2) 0.7653(3)
C15 C 1.0175(2) -0.1898(2) 0.7168(3)
H8 H 1.10030 -0.12600 0.68700
C16 C 0.8888(2) -0.1327(2) 0.7130(3)
H9 H 0.88460 -0.02970 0.68150
H10 H 0.355(2) -0.145(2) 0.789(2)
H11 H 0.281(3) -0.089(3) 1.031(3)
H12 H 0.143(3) -0.108(2) 0.983(3)
H13 H 0.147(2) 0.145(2) 0.935(2)
H14 H 0.416(2) 0.134(2) 0.950(3)
H15 H 0.384(2) 0.300(3) 0.840(3)
#END
