
#######################################################################
#
#                 Cambridge Crystallographic Data Centre
#                                CCDC
#
#######################################################################
#
# If this CIF has been generated from an entry in the Cambridge
# Structural Database, then it will include bibliographic, chemical,
# crystal, experimental, refinement or atomic coordinate data resulting
# from the CCDC's data processing and validation procedures.
#
#######################################################################

data_CSD_CIF_POBKOI
_audit_creation_date 2014-05-22
_audit_creation_method CSD-ConQuest-V1
_database_code_CSD POBKOI
_database_code_depnum_ccdc_archive 'CCDC 953449'
_chemical_formula_sum 'C20 H37 N3 O3'
_chemical_formula_moiety
;
C20 H37 N3 O3
;
_journal_coden_Cambridge 177
_journal_volume 12
_journal_year 2014
_journal_page_first 4491
_journal_name_full 'Org.Biomol.Chem. '
loop_
_publ_author_name
"M.Kavala"
"V.Brezova"
"L.Svorc"
"Z.Vihonska"
"P.Olejnikova"
"Jan Moncol"
"J.Kozisek"
"P.Herich"
"P.Szolcsanyi"
_chemical_name_systematic
;
N,N-bis(1-oxy-2,2,6,6-tetramethylpiperidin-4-yl)acetamide
;
_cell_volume   4293.481
_exptl_crystal_colour 'orange'
_exptl_crystal_density_diffrn 1.137
_exptl_crystal_description 'rod'
_diffrn_ambient_temperature 293
#These two values have been output from a single CSD field.
_refine_ls_R_factor_gt 0.0498
_refine_ls_wR_factor_gt 0.0498
_symmetry_cell_setting orthorhombic
_symmetry_space_group_name_H-M 'P b c a'
_symmetry_Int_Tables_number 61
loop_
_symmetry_equiv_pos_site_id
_symmetry_equiv_pos_as_xyz
1 x,y,z
2 1/2-x,-y,1/2+z
3 1/2+x,1/2-y,-z
4 -x,1/2+y,1/2-z
5 -x,-y,-z
6 -1/2+x,y,-1/2-z
7 -1/2-x,-1/2+y,z
8 x,-1/2-y,-1/2+z
_cell_length_a 8.28928(18)
_cell_length_b 19.4108(4)
_cell_length_c 26.6839(5)
_cell_angle_alpha 90
_cell_angle_beta 90
_cell_angle_gamma 90
_cell_formula_units_Z 8
loop_
_atom_type_symbol
_atom_type_radius_bond
C 0.68
H 0.23
N 0.68
O 0.68
loop_
_atom_site_label
_atom_site_type_symbol
_atom_site_fract_x
_atom_site_fract_y
_atom_site_fract_z
C1 C 0.39309(19) 0.63570(8) 0.45635(5)
C2 C 0.3290(2) 0.59355(10) 0.41250(6)
H1 H 0.22170 0.60990 0.40430
H2 H 0.31910 0.54590 0.42310
C3 C 0.43222(18) 0.59591(7) 0.36514(5)
H3 H 0.43710 0.64390 0.35380
C4 C 0.60252(18) 0.57322(8) 0.37808(6)
H4 H 0.66750 0.57320 0.34780
H5 H 0.59950 0.52650 0.39090
C5 C 0.68197(19) 0.62000(9) 0.41706(6)
C6 C 0.3498(3) 0.71131(11) 0.45169(8)
H6 H 0.39310 0.73610 0.47980
H7 H 0.23460 0.71620 0.45120
H8 H 0.39440 0.72940 0.42120
C7 C 0.3204(3) 0.60842(14) 0.50514(7)
H9 H 0.36030 0.63500 0.53280
H10 H 0.35030 0.56100 0.50950
H11 H 0.20500 0.61210 0.50370
C8 C 0.7241(3) 0.6907(1) 0.39520(8)
H12 H 0.77450 0.71840 0.42060
H13 H 0.62740 0.71300 0.38380
H14 H 0.79700 0.68500 0.36750
C9 C 0.8343(2) 0.58567(12) 0.43718(9)
H15 H 0.88430 0.61530 0.46140
H16 H 0.90800 0.57750 0.41000
H17 H 0.80660 0.54260 0.45270
C10 C 0.07377(18) 0.40675(8) 0.35907(5)
C11 C 0.12742(18) 0.47532(8) 0.33633(6)
H18 H 0.08850 0.47820 0.30210
H19 H 0.07930 0.51280 0.35520
C12 C 0.30962(17) 0.48363(7) 0.33651(5)
H20 H 0.34580 0.47450 0.37080
C13 C 0.38277(19) 0.42760(8) 0.30356(6)
H21 H 0.49880 0.43370 0.30220
H22 H 0.34100 0.43220 0.26980
C14 C 0.34457(19) 0.35507(8) 0.32331(6)
C15 C -0.1047(2) 0.39489(10) 0.34749(8)
H23 H -0.13860 0.35190 0.36180
H24 H -0.12020 0.39370 0.31180
H25 H -0.16750 0.43170 0.36160
C16 C 0.0966(2) 0.40485(9) 0.41605(6)
H26 H 0.06190 0.36100 0.42870
H27 H 0.03370 0.44080 0.43120
H28 H 0.20850 0.41160 0.42390
C17 C 0.4441(2) 0.33724(10) 0.36994(8)
H29 H 0.41670 0.29170 0.38110
H30 H 0.42110 0.36980 0.39600
H31 H 0.55690 0.33900 0.36180
C18 C 0.3790(3) 0.30259(9) 0.28205(8)
H32 H 0.35610 0.25710 0.29420
H33 H 0.49050 0.30540 0.27250
H34 H 0.31220 0.31220 0.25350
C19 C 0.34980(19) 0.57749(8) 0.27609(6)
C20 C 0.4270(3) 0.64566(9) 0.26310(7)
H35 H 0.40900 0.65570 0.22830
H36 H 0.54090 0.64320 0.26940
H37 H 0.38030 0.68140 0.28330
N1 N 0.57120(17) 0.62843(8) 0.46050(5)
N2 N 0.16886(15) 0.35003(6) 0.33532(5)
N3 N 0.36223(15) 0.55424(6) 0.32402(4)
O1 O 0.63390(19) 0.65226(10) 0.50088(5)
O2 O 0.11161(15) 0.28893(6) 0.33945(5)
O3 O 0.28070(16) 0.54445(6) 0.24354(4)
#END
