
#######################################################################
#
#                 Cambridge Crystallographic Data Centre
#                                CCDC
#
#######################################################################
#
# If this CIF has been generated from an entry in the Cambridge
# Structural Database, then it will include bibliographic, chemical,
# crystal, experimental, refinement or atomic coordinate data resulting
# from the CCDC's data processing and validation procedures.
#
#######################################################################

data_CSD_CIF_POCGIX
_audit_creation_date 1995-02-08
_audit_creation_method CSD-ConQuest-V1
_database_code_CSD POCGIX
_chemical_formula_sum 'C24 H24 N2 O4'
_chemical_formula_moiety
;
C24 H24 N2 O4
;
_journal_coden_Cambridge 82
_journal_volume 35
_journal_year 1994
_journal_page_first 145-3
_journal_name_full 'Zh.Strukt.Khim.(Russ.)(J.Struct.Chem.) '
loop_
_publ_author_name
"G.V.Romanenko"
"N.V.Podberezskaya"
"S.P.Khranenko"
"S.V.Korenev"
"V.I.Alekseev"
_chemical_name_systematic
;
3,3'-Bi(5,5-dimethyl-1-hydroxy-4-oxo-2-phenyl-2-pyrroline)
;
_cell_volume   2078.751
_exptl_crystal_colour 'yellow'
_exptl_special_details
;
dx 1.33; we calc. 1.29

;
_diffrn_ambient_temperature ?
_diffrn_special_details
;
The study was carried out at room temperature,in the range 283-303K

;
#These two values have been output from a single CSD field.
_refine_ls_R_factor_gt 0.0307
_refine_ls_wR_factor_gt 0.0307
_symmetry_cell_setting monoclinic
_symmetry_space_group_name_H-M 'C 2/c'
_symmetry_Int_Tables_number 15
loop_
_symmetry_equiv_pos_site_id
_symmetry_equiv_pos_as_xyz
1 x,y,z
2 1/2+x,1/2+y,z
3 -x,y,1/2-z
4 1/2-x,1/2+y,1/2-z
5 -x,-y,-z
6 -1/2-x,-1/2-y,-z
7 x,-y,-1/2+z
8 -1/2+x,-1/2-y,-1/2+z
_cell_length_a 18.392(4)
_cell_length_b 9.799(1)
_cell_length_c 11.536(2)
_cell_angle_alpha 90
_cell_angle_beta 90.98(2)
_cell_angle_gamma 90
_cell_formula_units_Z 4
loop_
_atom_type_symbol
_atom_type_radius_bond
C 0.68
H 0.23
N 0.68
O 0.68
loop_
_atom_site_label
_atom_site_type_symbol
_atom_site_fract_x
_atom_site_fract_y
_atom_site_fract_z
O1 O 0.3663(1) 0.2145(3) 1.0359(2)
H1 H 0.375(2) 0.141(5) 1.091(4)
N1 N 0.3966(1) 0.1461(3) 0.9416(2)
C1 C 0.4609(2) 0.1832(3) 0.8978(3)
C2 C 0.5145(2) 0.2620(3) 0.9657(3)
C3 C 0.5526(2) 0.3656(4) 0.9127(3)
H2 H 0.543(2) 0.383(3) 0.833(3)
C4 C 0.6014(2) 0.4441(4) 0.9751(4)
H3 H 0.625(2) 0.517(4) 0.934(3)
C5 C 0.6123(2) 0.4196(5) 1.0911(4)
H4 H 0.646(2) 0.475(4) 1.136(3)
C6 C 0.5750(2) 0.3174(5) 1.1449(4)
H5 H 0.584(2) 0.300(4) 1.224(3)
C7 C 0.5261(2) 0.2373(4) 1.0828(3)
H6 H 0.501(2) 0.158(3) 1.119(3)
C8 C 0.4669(2) 0.1340(3) 0.7853(2)
O2 O 0.3846(1) 0.0009(3) 0.6681(2)
C9 C 0.4005(2) 0.0680(4) 0.7553(3)
C10 C 0.3464(2) 0.0941(3) 0.8518(3)
C11 C 0.3061(3) -0.0300(5) 0.8925(5)
H7 H 0.280(2) -0.066(5) 0.823(4)
H8 H 0.340(2) -0.098(4) 0.923(3)
H9 H 0.273(2) -0.006(4) 0.952(3)
C12 C 0.2954(2) 0.2085(6) 0.8105(5)
H10 H 0.322(2) 0.296(5) 0.787(4)
H11 H 0.260(2) 0.226(4) 0.874(3)
H12 H 0.270(2) 0.170(4) 0.749(4)
C8B C 0.5331(2) 0.1340(3) 0.7147(2)
C1B C 0.5391(2) 0.1832(3) 0.6022(3)
C9B C 0.5995(2) 0.0680(4) 0.7447(3)
N1B N 0.6034(1) 0.1461(3) 0.5584(2)
C2B C 0.4855(2) 0.2620(3) 0.5343(3)
O2B O 0.6154(1) 0.0009(3) 0.8319(2)
C10B C 0.6536(2) 0.0941(3) 0.6482(3)
O1B O 0.6337(1) 0.2145(3) 0.4641(2)
C3B C 0.4474(2) 0.3656(4) 0.5873(3)
C7B C 0.4739(2) 0.2373(4) 0.4172(3)
C11B C 0.6939(3) -0.0300(5) 0.6075(5)
C12B C 0.7046(2) 0.2085(6) 0.6895(5)
H1B H 0.625(2) 0.141(5) 0.409(4)
H2B H 0.457(2) 0.383(3) 0.667(3)
C4B C 0.3986(2) 0.4441(4) 0.5249(4)
C6B C 0.4250(2) 0.3174(5) 0.3551(4)
H6B H 0.499(2) 0.158(3) 0.381(3)
H7B H 0.720(2) -0.066(5) 0.677(4)
H8B H 0.660(2) -0.098(4) 0.577(3)
H9B H 0.727(2) -0.006(4) 0.548(3)
H10B H 0.678(2) 0.296(5) 0.713(4)
H11B H 0.740(2) 0.226(4) 0.626(3)
H12B H 0.730(2) 0.170(4) 0.751(4)
H3B H 0.375(2) 0.517(4) 0.566(3)
C5B C 0.3877(2) 0.4196(5) 0.4089(4)
H5B H 0.416(2) 0.300(4) 0.276(3)
H4B H 0.354(2) 0.475(4) 0.364(3)
#END
