
#######################################################################
#
#                 Cambridge Crystallographic Data Centre
#                                CCDC
#
#######################################################################
#
# If this CIF has been generated from an entry in the Cambridge
# Structural Database, then it will include bibliographic, chemical,
# crystal, experimental, refinement or atomic coordinate data resulting
# from the CCDC's data processing and validation procedures.
#
#######################################################################

data_CSD_CIF_POCREG
_audit_creation_date 2014-05-22
_audit_creation_method CSD-ConQuest-V1
_database_code_CSD POCREG
_database_code_depnum_ccdc_archive 'CCDC 1004702'
_chemical_formula_sum 'C62 H80 N6 O16'
_chemical_formula_moiety
;
C62 H80 N6 O16
;
_journal_coden_Cambridge 1336
_journal_volume 16
_journal_year 2014
_journal_page_first 2326
_journal_name_full 'Org.Lett. '
loop_
_publ_author_name
"L.Sebaoun"
"B.Kauffmann"
"T.Delclos"
"V.Maurizot"
"Ivan Huc"
_chemical_name_systematic
;
Diethyl 
4,4'-((4,6-dinitro-1,3-phenylene)bis(imino(2-isobutoxy-4,1-phenylene)carbamoyl
))bis(2,5-diisobutoxybenzoate)
;
_cell_volume   6590.939
_exptl_crystal_density_diffrn 1.16
_diffrn_ambient_temperature 213
_refine_special_details
;
The structure is disordered.

;
#These two values have been output from a single CSD field.
_refine_ls_R_factor_gt 0.22
_refine_ls_wR_factor_gt 0.22
_symmetry_cell_setting triclinic
_symmetry_space_group_name_H-M 'P -1'
_symmetry_Int_Tables_number 2
loop_
_symmetry_equiv_pos_site_id
_symmetry_equiv_pos_as_xyz
1 x,y,z
2 -x,-y,-z
_cell_length_a 10.604(2)
_cell_length_b 23.472(5)
_cell_length_c 27.553(6)
_cell_angle_alpha 77.89(3)
_cell_angle_beta 83.86(3)
_cell_angle_gamma 80.29(3)
_cell_formula_units_Z 4
loop_
_atom_type_symbol
_atom_type_radius_bond
C 0.68
H 0.23
N 0.68
O 0.68
loop_
_atom_site_label
_atom_site_type_symbol
_atom_site_fract_x
_atom_site_fract_y
_atom_site_fract_z
O1 O 0.8606(7) 0.9744(4) 0.1748(2)
O2 O 0.7061(7) 1.0515(4) 0.1539(3)
O3 O 1.0810(6) 0.5384(3) 0.4252(3)
O4 O 0.7156(7) 1.1309(4) 0.2092(3)
O5 O 0.7813(6) 0.9401(4) 0.3629(2)
O6 O 0.8423(7) 0.9351(4) 0.4941(3)
O7 O 0.4683(6) 1.0828(4) 0.6905(3)
O8 O 0.6527(6) 0.8732(4) 0.8486(3)
O9 O 0.4855(8) 1.0570(4) 0.7674(3)
O10 O 0.7295(7) 0.8012(4) 0.8113(3)
O11 O 0.5421(6) 0.7445(4) 0.5836(2)
O12 O 0.6354(6) 0.6760(3) 0.4805(3)
O13 O 0.6055(7) 1.1004(4) 0.3901(2)
O14 O 0.9811(6) 0.7015(3) 0.5226(3)
O15 O 0.7982(10) 0.5281(5) 0.3599(4)
O16 O 0.9016(9) 0.4703(5) 0.4158(3)
N1 N 0.5056(7) 1.0440(5) 0.7266(3)
N2 N 0.6739(9) 0.8536(5) 0.8097(3)
N3 N 0.7171(7) 1.0135(4) 0.4283(3)
H1 H 0.76610 0.98240 0.42200
N4 N 0.7168(7) 0.8155(4) 0.7125(3)
H2 H 0.73930 0.79180 0.73950
N5 N 0.5761(6) 1.0130(4) 0.6309(3)
H3 H 0.53600 1.04670 0.63550
N6 N 0.7675(7) 0.7086(4) 0.5459(3)
H4 H 0.69510 0.70420 0.53700
C1 C 0.6336(12) 1.0019(6) 0.0968(5)
H5 H 0.64550 0.99670 0.06290
H6 H 0.54590 1.01810 0.10410
H7 H 0.65410 0.96450 0.11860
C2 C 0.7172(12) 1.0418(6) 0.1041(4)
H8 H 0.80540 1.02580 0.09570
H9 H 0.69690 1.07930 0.08160
C3 C 0.7825(11) 1.0175(5) 0.1842(4)
C4 C 0.7685(6) 1.0281(4) 0.23788(19)
C5 C 0.7254(6) 1.0841(3) 0.2477(3)
C6 C 0.7007(6) 1.0921(3) 0.2966(3)
H10 H 0.67190 1.12950 0.30320
C7 C 0.7193(6) 1.0440(4) 0.3357(2)
C8 C 0.7625(6) 0.9879(3) 0.3259(2)
C9 C 0.7871(6) 0.9800(3) 0.2769(3)
H11 H 0.81600 0.94250 0.27040
C10 C 0.6881(11) 1.1871(6) 0.2201(4)
H12 H 0.75680 1.19390 0.23770
H13 H 0.60950 1.19030 0.24150
C11 C 0.6731(11) 1.2338(7) 0.1721(5)
H14 H 0.75090 1.22620 0.15030
C12 C 0.6644(12) 1.2964(7) 0.1793(4)
H15 H 0.65990 1.32280 0.14750
H16 H 0.73900 1.30020 0.19460
H17 H 0.58890 1.30600 0.20030
C13 C 0.5616(11) 1.2284(7) 0.1441(5)
H18 H 0.56000 1.25660 0.11330
H19 H 0.48280 1.23600 0.16400
H20 H 0.57140 1.18940 0.13740
C14 C 0.8454(9) 0.8829(5) 0.3518(3)
H21 H 0.92610 0.88820 0.33250
H22 H 0.79180 0.86880 0.33190
C15 C 0.8703(9) 0.8382(6) 0.3982(4)
H23 H 0.91080 0.85740 0.41950
C16 C 0.7497(11) 0.8213(7) 0.4271(6)
H24 H 0.77110 0.79390 0.45730
H25 H 0.70460 0.80330 0.40740
H26 H 0.69630 0.85590 0.43510
C17 C 0.9608(11) 0.7848(5) 0.3914(4)
H27 H 0.97450 0.75950 0.42330
H28 H 1.04100 0.79590 0.37610
H29 H 0.92580 0.76440 0.37060
C18 C 0.6792(8) 1.0553(6) 0.3896(4)
C19 C 0.6830(6) 1.0165(3) 0.47843(19)
C20 C 0.5840(5) 1.0570(3) 0.4941(2)
H30 H 0.54060 1.08610 0.47080
C21 C 0.5499(5) 1.0539(3) 0.5446(2)
H31 H 0.48370 1.08100 0.55510
C22 C 0.6148(6) 1.0103(3) 0.57945(18)
C23 C 0.7138(6) 0.9698(3) 0.5638(2)
H32 H 0.75720 0.94060 0.58700
C24 C 0.7479(5) 0.9729(3) 0.5132(3)
C25 C 0.9291(13) 0.8990(6) 0.5272(4)
H33 H 0.95400 0.92310 0.54800
H34 H 0.88380 0.86950 0.54880
C26 C 1.0369(11) 0.8708(7) 0.5069(5)
H35 H 1.00620 0.83810 0.49690
C27 C 1.1033(9) 0.9010(5) 0.4579(4)
H36 H 1.17680 0.87470 0.44830
H37 H 1.12990 0.93640 0.46280
H38 H 1.04430 0.91070 0.43230
C28 C 1.1364(9) 0.8385(5) 0.5447(4)
H39 H 1.20980 0.81950 0.52740
H40 H 1.09830 0.80940 0.56900
H41 H 1.16260 0.86640 0.56090
C29 C 0.5918(6) 0.9715(3) 0.6735(2)
C30 C 0.5656(6) 0.9898(3) 0.7188(3)
C31 C 0.5898(7) 0.9497(5) 0.7629(2)
H42 H 0.57230 0.96190 0.79320
C32 C 0.6401(7) 0.8913(4) 0.7617(2)
C33 C 0.6663(6) 0.8730(3) 0.7163(3)
C34 C 0.6421(6) 0.9131(4) 0.6722(2)
H43 H 0.65960 0.90090 0.64190
C35 C 0.7351(7) 0.7919(3) 0.6679(3)
C36 C 0.6274(5) 0.7825(3) 0.6478(3)
H44 H 0.54580 0.79490 0.66140
C37 C 0.6418(6) 0.7545(3) 0.6073(3)
C38 C 0.7637(8) 0.7360(3) 0.5870(2)
C39 C 0.8714(5) 0.7455(3) 0.6072(3)
H45 H 0.95300 0.73310 0.59360
C40 C 0.8570(6) 0.7734(4) 0.6476(3)
H46 H 0.92900 0.77970 0.66110
C41 C 0.4115(8) 0.7570(5) 0.6052(4)
H47 H 0.35200 0.75790 0.58060
H48 H 0.39880 0.79570 0.61380
C42 C 0.3823(9) 0.7137(5) 0.6496(4)
H49 H 0.43950 0.71330 0.67540
C43 C 0.2413(10) 0.7286(6) 0.6692(4)
H50 H 0.22790 0.76670 0.67800
H51 H 0.22230 0.69950 0.69800
H52 H 0.18590 0.72880 0.64370
C44 C 0.4001(13) 0.6498(8) 0.6354(5)
H53 H 0.37840 0.62130 0.66420
H54 H 0.48770 0.63900 0.62360
H55 H 0.34480 0.65070 0.60970
C45 C 0.8769(12) 0.6880(6) 0.5185(4)
C46 C 0.8556(5) 0.6504(3) 0.48374(19)
C47 C 0.7446(4) 0.6399(3) 0.46671(18)
C48 C 0.7512(4) 0.5970(2) 0.43819(14)
H56 H 0.67690 0.59000 0.42680
C49 C 0.8689(4) 0.5646(2) 0.42670(18)
C50 C 0.9799(4) 0.5751(3) 0.4437(2)
C51 C 0.9733(4) 0.6180(3) 0.47225(18)
H57 H 1.04760 0.62510 0.48360
C52 C 0.5176(8) 0.6687(7) 0.4600(4)
H58 H 0.49710 0.62930 0.47240
H59 H 0.52820 0.67540 0.42390
C53 C 0.4121(8) 0.7144(6) 0.4772(4)
H60 H 0.40730 0.70740 0.51360
C54 C 0.4364(10) 0.7773(6) 0.4575(5)
H61 H 0.36650 0.80410 0.46900
H62 H 0.44340 0.78500 0.42180
H63 H 0.51470 0.78280 0.46920
C55 C 0.2871(10) 0.7025(6) 0.4615(5)
H64 H 0.21770 0.73120 0.47050
H65 H 0.27150 0.66380 0.47800
H66 H 0.29340 0.70490 0.42610
C56 C 1.2038(11) 0.5538(6) 0.4332(5)
H67 H 1.21730 0.54450 0.46840
H68 H 1.20460 0.59560 0.42130
C57 C 1.3089(11) 0.5189(7) 0.4052(5)
H69 H 1.29230 0.52930 0.36990
C58 C 1.4442(10) 0.5384(7) 0.4108(5)
H70 H 1.44120 0.57980 0.39750
H71 H 1.51140 0.51660 0.39290
H72 H 1.46060 0.53050 0.44530
C59 C 1.3082(13) 0.4572(7) 0.4213(7)
H73 H 1.37290 0.43620 0.40180
H74 H 1.22560 0.44800 0.41720
H75 H 1.32570 0.44590 0.45580
C60 C 0.8561(15) 0.5188(6) 0.4082(8)
C61 C 0.8974(18) 0.4213(8) 0.3943(6)
H76 H 0.81900 0.42770 0.37750
H77 H 0.89570 0.38660 0.42050
C62 C 1.0090(18) 0.4107(8) 0.3581(7)
H78 H 0.99930 0.37860 0.34290
H79 H 1.08650 0.40100 0.37520
H80 H 1.01340 0.44550 0.33290
H81? H 0.58480 0.98940 0.12750
H82? H 0.68440 0.96810 0.08630
H83? H 0.57620 1.02170 0.07180
H84? H 0.66530 1.29660 0.21400
H85? H 0.58620 1.31910 0.16700
H86? H 0.73630 1.31330 0.16130
H87? H 0.51610 1.19800 0.16310
H88? H 0.59330 1.21860 0.11250
H89? H 0.50470 1.26520 0.13910
H90? H 0.67690 0.84140 0.40930
H91? H 0.74340 0.83210 0.45910
H92? H 0.75170 0.77950 0.43140
H93? H 0.98640 0.78700 0.35670
H94? H 0.91990 0.75060 0.40390
H95? H 1.03510 0.78220 0.40940
H96? H 1.05720 0.93980 0.44730
H97? H 1.10410 0.87810 0.43280
H98? H 1.18980 0.90380 0.46330
H99? H 1.10400 0.84400 0.57750
H100? H 1.21550 0.85420 0.53590
H101? H 1.15120 0.79710 0.54400
H102? H 0.19620 0.69660 0.66850
H103? H 0.20180 0.76380 0.64850
H104? H 0.23820 0.73460 0.70270
H105? H 0.42890 0.65270 0.60080
H106? H 0.31960 0.63500 0.64140
H107? H 0.46240 0.62330 0.65530
H108? H 0.51660 0.77710 0.43770
H109? H 0.43970 0.79630 0.48490
H110? H 0.36830 0.79840 0.43750
H111? H 0.30410 0.66870 0.44590
H112? H 0.25030 0.73620 0.43840
H113? H 0.22830 0.69500 0.49030
H114? H 1.50090 0.50480 0.42630
H115? H 1.43080 0.56800 0.43090
H116? H 1.48150 0.55410 0.37850
H117? H 1.24330 0.45050 0.44810
H118? H 1.39050 0.43870 0.43260
H119? H 1.29040 0.44080 0.39410
H120? H 1.06690 0.43810 0.35780
H121? H 0.97970 0.41580 0.32550
H122? H 1.05270 0.37120 0.36770
H123? H 0.96360 0.47430 0.20290
H124? H 0.92140 0.47530 0.25900
H125? H 0.87180 0.52870 0.21760
H126? H 0.59130 0.43840 0.20630
H127? H 0.69520 0.38180 0.21120
H128? H 0.69690 0.43070 0.16280
H129? H -0.06780 0.66340 0.33190
H130? H -0.21390 0.68730 0.32660
H131? H -0.11140 0.72920 0.30670
H132? H -0.30390 0.64970 0.28970
H133? H -0.21650 0.60600 0.25990
H134? H -0.27990 0.66760 0.23180
H135? H -0.12180 0.88960 0.11900
H136? H -0.19390 0.84120 0.10790
H137? H -0.06810 0.85590 0.07580
H138? H 0.16590 0.77700 0.13820
H139? H 0.10180 0.78550 0.08800
H140? H 0.08680 0.72970 0.12970
H141? H 0.50050 0.73890 0.19320
H142? H 0.52420 0.74810 0.13510
H143? H 0.39680 0.77850 0.15930
H144? H 0.59340 0.77020 0.22960
H145? H 0.56970 0.83870 0.22580
H146? H 0.69660 0.80830 0.20140
H147? H -0.20280 0.70950 -0.06430
H148? H -0.23820 0.64560 -0.05200
H149? H -0.20350 0.67520 -0.10730
H150? H 0.09960 0.65540 -0.12620
H151? H -0.02980 0.64280 -0.14140
H152? H 0.06540 0.59130 -0.11290
H153? H 0.66690 0.91180 -0.04800
H154? H 0.58360 0.92100 0.00100
H155? H 0.53450 0.88860 -0.03590
H156? H 0.82970 0.85270 -0.04210
H157? H 0.81900 0.78590 -0.02250
H158? H 0.86080 0.82280 0.01260
O17? O 0.0819(6) 0.7945(4) 0.2184(2)
O18? O 0.523(3) 0.5940(11) -0.0204(10)
O19? O 0.3985(6) 0.8781(4) 0.1080(2)
O20? O 0.4162(18) 0.4070(8) 0.2574(8)
O21? O 0.3593(19) 0.5734(11) -0.0507(8)
O22? O 0.1074(8) 0.8718(4) -0.0108(3)
O23? O 0.1589(11) 0.6640(4) -0.0425(3)
O24? O 0.0559(7) 1.0180(4) 0.3678(3)
O25? O 0.4772(9) 0.7955(4) 0.0130(3)
O26? O 0.5604(9) 0.4862(4) 0.2652(5)
O27? O 0.1088(8) 0.6379(4) 0.2638(4)
O28? O 0.4200(8) 0.6809(4) 0.3146(3)
O29? O -0.0088(9) 1.1111(5) 0.3450(3)
O30? O 0.0022(7) 1.1698(4) 0.1218(3)
O31? O -0.0238(8) 1.2103(5) 0.1859(3)
N7? N 0.0369(9) 1.0624(6) 0.3343(6)
N8? N 0.0107(9) 1.1687(6) 0.1679(5)
N9? N 0.2456(9) 0.7212(4) 0.2745(3)
H159? H 0.18770 0.71280 0.25870
N10? N 0.1434(8) 0.9522(5) 0.3000(3)
H160? H 0.15180 0.95400 0.33030
N11? N 0.2728(9) 0.8738(5) 0.0337(3)
H161? H 0.35020 0.85810 0.03980
N12? N 0.1120(9) 1.0606(5) 0.1303(3)
H162? H 0.08990 1.09360 0.11060
C63? C 0.236(2) 0.3561(11) 0.2182(8)
C64? C 0.307(3) 0.4415(9) 0.2564(12)
C65? C 0.3334(7) 0.5038(3) 0.2573(3)
C66? C 0.2197(6) 0.5429(4) 0.2588(2)
H163? H 0.14300 0.53180 0.25340
C67? C 0.2204(5) 0.5987(4) 0.2683(2)
C68? C 0.3349(5) 0.6154(3) 0.27638(19)
C69? C 0.4487(5) 0.5763(3) 0.27494(16)
H164? H 0.52550 0.58720 0.28040
C70? C 0.4469(11) 0.5197(4) 0.2650(5)
C71? C 0.6801(15) 0.5060(6) 0.2537(6)
H165? H 0.72010 0.50630 0.28370
H166? H 0.67160 0.54520 0.23320
C72? C 0.7667(16) 0.4545(11) 0.2215(13)
H167? H 0.78180 0.42320 0.25090
C73? C 0.895(2) 0.4867(8) 0.2257(8)
H168? H 0.87430 0.51120 0.25010
H169? H 0.91650 0.51020 0.19400
H170? H 0.96600 0.45680 0.23540
C74? C 0.679(5) 0.423(4) 0.1983(19)
H171? H 0.73100 0.39560 0.18060
H172? H 0.62710 0.45210 0.17560
H173? H 0.62540 0.40320 0.22410
C75? C -0.0153(12) 0.6182(9) 0.2707(9)
H174? H -0.02380 0.59150 0.30250
H175? H -0.02480 0.59760 0.24450
C76? C -0.1206(10) 0.6745(9) 0.2688(9)
H176? H -0.10280 0.70660 0.24110
C77? C -0.129(3) 0.6896(17) 0.3111(8)
H177? H -0.19430 0.72320 0.31160
H178? H -0.04810 0.69930 0.31680
H179? H -0.15070 0.65740 0.33680
C78? C -0.2422(15) 0.6467(9) 0.2619(9)
H180? H -0.22960 0.63250 0.23120
H181? H -0.31700 0.67620 0.26100
H182? H -0.25360 0.61460 0.28910
C79? C 0.3369(11) 0.6752(6) 0.2907(5)
C80? C 0.2309(7) 0.7798(4) 0.2793(3)
C81? C 0.1368(6) 0.8167(4) 0.2513(2)
C82? C 0.1049(6) 0.8754(4) 0.2558(2)
H183? H 0.04290 0.90030 0.23680
C83? C 0.1661(5) 0.8967(2) 0.28888(13)
C84? C 0.2592(5) 0.8598(2) 0.31733(12)
H184? H 0.29990 0.87430 0.33940
C85? C 0.2916(6) 0.8011(2) 0.31281(11)
H185? H 0.35330 0.77620 0.33200
C86? C 0.0014(8) 0.8368(6) 0.1838(4)
H186? H 0.04650 0.86930 0.16760
H187? H -0.07670 0.85260 0.20130
C87? C -0.0302(11) 0.8047(6) 0.1456(4)
H188? H -0.08520 0.77570 0.16250
C88? C -0.1113(13) 0.8524(6) 0.1085(5)
H189? H -0.13400 0.83490 0.08280
H190? H -0.06190 0.88330 0.09390
H191? H -0.18780 0.86850 0.12600
C89? C 0.0927(13) 0.7710(7) 0.1233(4)
H192? H 0.07040 0.75110 0.09900
H193? H 0.13450 0.74270 0.14930
H194? H 0.14960 0.79840 0.10760
C90? C 0.1080(9) 1.0066(6) 0.2676(4)
C91? C 0.1248(8) 1.0107(6) 0.2161(4)
H195? H 0.15940 0.97670 0.20430
C92? C 0.0941(10) 1.0611(7) 0.1819(5)
C93? C 0.0453(10) 1.1124(7) 0.2001(5)
C94? C 0.0305(8) 1.1109(6) 0.2496(5)
H196? H -0.00110 1.14470 0.26230
C95? C 0.0670(11) 1.0522(6) 0.2837(3)
C96? C 0.1603(5) 1.0139(2) 0.10839(16)
C97? C 0.0949(5) 1.0131(2) 0.06747(16)
H197? H 0.02730 1.04280 0.05780
C98? C 0.1306(4) 0.9679(2) 0.04094(14)
H198? H 0.08690 0.96740 0.01360
C99? C 0.2317(4) 0.9235(2) 0.05534(12)
C100? C 0.2970(3) 0.9243(2) 0.09626(12)
C101? C 0.2613(4) 0.9695(2) 0.12279(14)
H199? H 0.30510 0.97000 0.15020
C102? C 0.4489(11) 0.8697(6) 0.1551(4)
H200? H 0.38010 0.86650 0.18130
H201? H 0.48980 0.90310 0.15680
C103? C 0.5441(13) 0.8149(7) 0.1621(5)
H202? H 0.61000 0.81810 0.13430
C104? C 0.4871(15) 0.7665(7) 0.1624(5)
H203? H 0.44720 0.77140 0.13190
H204? H 0.42340 0.76220 0.18990
H205? H 0.55090 0.73190 0.16580
C105? C 0.6064(13) 0.8074(7) 0.2088(5)
H206? H 0.64640 0.84130 0.20820
H207? H 0.67010 0.77280 0.21200
H208? H 0.54320 0.80320 0.23640
C106? C 0.2167(12) 0.8430(6) 0.0038(4)
C107? C 0.2725(6) 0.7842(3) -0.00638(12)
C108? C 0.1889(7) 0.7518(3) -0.02027(14)
H209? H 0.10340 0.76790 -0.02390
C109? C 0.2333(8) 0.6952(3) -0.02868(16)
C110? C 0.3612(9) 0.6711(3) -0.02321(17)
C111? C 0.4447(7) 0.7035(3) -0.00932(16)
H210? H 0.53030 0.68730 -0.00570
C112? C 0.4004(6) 0.7600(3) -0.00090(13)
C113? C 0.0218(14) 0.6909(6) -0.0501(4)
H211? H -0.02260 0.69980 -0.01930
H212? H 0.01700 0.72680 -0.07520
C114? C -0.0351(13) 0.6444(7) -0.0669(5)
H213? H -0.02760 0.60800 -0.04160
C115? C -0.1853(13) 0.6714(7) -0.0733(6)
H214? H -0.22690 0.64400 -0.08480
H215? H -0.19150 0.70790 -0.09710
H216? H -0.22620 0.67840 -0.04180
C116? C 0.0311(16) 0.6324(7) -0.1164(6)
H217? H -0.00950 0.60420 -0.12740
H218? H 0.11990 0.61690 -0.11230
H219? H 0.02470 0.66840 -0.14070
C117? C 0.6043(17) 0.7917(8) -0.0058(5)
H220? H 0.60780 0.79350 -0.04140
H221? H 0.65030 0.75380 0.00910
C118? C 0.6712(15) 0.8400(11) 0.0036(6)
H222? H 0.66470 0.83980 0.03940
C119? C 0.6090(17) 0.8948(9) -0.0219(6)
H223? H 0.52310 0.90250 -0.00720
H224? H 0.60640 0.89320 -0.05630
H225? H 0.65550 0.92570 -0.01940
C120? C 0.8071(11) 0.8239(7) -0.0136(4)
H226? H 0.84330 0.78820 0.00750
H227? H 0.85400 0.85510 -0.01220
H228? H 0.81220 0.81810 -0.04720
C121? C 0.422(3) 0.6192(9) -0.0412(10)
C122? C 0.350(5) 0.5096(16) -0.056(2)
O32? O 0.247(2) 0.4233(11) 0.2193(9)
#END
