
#######################################################################
#
#                 Cambridge Crystallographic Data Centre
#                                CCDC
#
#######################################################################
#
# If this CIF has been generated from an entry in the Cambridge
# Structural Database, then it will include bibliographic, chemical,
# crystal, experimental, refinement or atomic coordinate data resulting
# from the CCDC's data processing and validation procedures.
#
#######################################################################

data_CSD_CIF_POCYAH
_audit_creation_date 1995-02-08
_audit_creation_method CSD-ConQuest-V1
_database_code_CSD POCYAH
_database_code_depnum_ccdc_fiz 'CSD 400430'
_chemical_formula_sum 'C6 H12 N2 O2'
_chemical_formula_moiety
;
C6 H12 N2 O2
;
_journal_coden_Cambridge 643
_journal_volume 209
_journal_year 1994
_journal_page_first 555
_journal_name_full 'Z.Krist.Cryst.Mater. '
loop_
_publ_author_name
"J.Pickardt"
"G.-T.Gong"
"F.Pantoni"
_chemical_name_systematic
;
2,3-Hexanedione dioxime
;
_cell_volume    396.606
_exptl_crystal_colour 'colorless'
_diffrn_ambient_temperature ?
_diffrn_special_details
;
The study was carried out at room temperature,in the range 283-303K

;
#These two values have been output from a single CSD field.
_refine_ls_R_factor_gt 0.048
_refine_ls_wR_factor_gt 0.048
_symmetry_cell_setting triclinic
_symmetry_space_group_name_H-M 'P -1'
_symmetry_Int_Tables_number 2
loop_
_symmetry_equiv_pos_site_id
_symmetry_equiv_pos_as_xyz
1 x,y,z
2 -x,-y,-z
_cell_length_a 4.857(2)
_cell_length_b 5.392(1)
_cell_length_c 15.741(4)
_cell_angle_alpha 85.71(2)
_cell_angle_beta 82.62(3)
_cell_angle_gamma 76.20(2)
_cell_formula_units_Z 2
loop_
_atom_type_symbol
_atom_type_radius_bond
C 0.68
H 0.23
N 0.68
O 0.68
loop_
_atom_site_label
_atom_site_type_symbol
_atom_site_fract_x
_atom_site_fract_y
_atom_site_fract_z
C1 C -0.04844(58) 0.76838(44) 0.42553(16)
H1 H -0.0346(52) 0.6017(57) 0.4026(17)
H2 H -0.2130(61) 0.8121(49) 0.4547(18)
H3 H 0.1002(62) 0.7395(49) 0.4601(18)
C2 C -0.00291(38) 0.95511(31) 0.35288(12)
C3 C 0.25196(38) 0.89679(32) 0.28934(12)
C4 C 0.30504(45) 1.08369(38) 0.21681(14)
H4 H 0.2201(45) 1.2626(45) 0.2353(14)
H5 H 0.5105(52) 1.0790(42) 0.2039(15)
C5 C 0.19212(70) 1.03868(60) 0.13588(17)
H6 H 0.2984(61) 0.8691(59) 0.1130(19)
H7 H 0.0074(79) 1.0155(61) 0.1444(20)
C6 C 0.2266(13) 1.24538(96) 0.06630(26)
H8 H 0.1553(92) 1.2082(86) 0.0192(33)
H9 H 0.4415(95) 1.2532(77) 0.0561(25)
H10 H 0.1447(84) 1.4122(80) 0.0847(24)
N1 N 0.41676(33) 0.67641(29) 0.30127(10)
N2 N -0.17461(32) 1.17242(28) 0.33945(10)
O1 O 0.65483(32) 0.62662(32) 0.23874(11)
O2 O -0.41410(31) 1.22142(30) 0.40088(10)
H11 H 0.7356(60) 0.4937(54) 0.2558(17)
H12 H -0.4986(59) 1.3674(56) 0.3824(17)
#END
