
#######################################################################
#
#                 Cambridge Crystallographic Data Centre
#                                CCDC
#
#######################################################################
#
# If this CIF has been generated from an entry in the Cambridge
# Structural Database, then it will include bibliographic, chemical,
# crystal, experimental, refinement or atomic coordinate data resulting
# from the CCDC's data processing and validation procedures.
#
#######################################################################

data_CSD_CIF_PODCBD
_audit_creation_date 1980-12-11
_audit_creation_method CSD-ConQuest-V1
_database_code_CSD PODCBD
_chemical_formula_sum 'C9 H7 N3 O2'
_chemical_formula_moiety
;
C9 H7 N3 O2
;
_journal_coden_Cambridge 188
_journal_year 1980
_journal_page_first 1096
_journal_name_full 'J.Chem.Soc.,Perkin Trans.2 '
loop_
_publ_author_name
"D.Viterbo"
"R.Calvino"
"A.Serafino"
_chemical_name_systematic
;
5-Phenyl-1,2,4-oxadiazole-3-carboxamide
;
_cell_volume    440.746
_exptl_crystal_density_diffrn 1.424
_diffrn_ambient_temperature ?
_diffrn_special_details
;
The study was carried out at room temperature,in the range 283-303K

;
#These two values have been output from a single CSD field.
_refine_ls_R_factor_gt 0.077
_refine_ls_wR_factor_gt 0.077
_symmetry_cell_setting triclinic
_symmetry_space_group_name_H-M 'P -1'
_symmetry_Int_Tables_number 2
loop_
_symmetry_equiv_pos_site_id
_symmetry_equiv_pos_as_xyz
1 x,y,z
2 -x,-y,-z
_cell_length_a 10.290(2)
_cell_length_b 8.170(2)
_cell_length_c 5.423(1)
_cell_angle_alpha 98.51(1)
_cell_angle_beta 99.63(1)
_cell_angle_gamma 95.87(1)
_cell_formula_units_Z 2
loop_
_atom_type_symbol
_atom_type_radius_bond
C 0.68
H 0.23
N 0.68
O 0.68
loop_
_atom_site_label
_atom_site_type_symbol
_atom_site_fract_x
_atom_site_fract_y
_atom_site_fract_z
C1 C 0.47370 0.74970 -0.07170
C2 C 0.28620 0.82440 -0.12650
C3 C 0.15910 0.88610 -0.07740
C4 C 0.60470 0.70490 0.01480
C5 C 0.66480 0.60240 -0.14610
C6 C 0.78780 0.56130 -0.05820
C7 C 0.85530 0.62360 0.18980
C8 C 0.79350 0.72470 0.35130
C9 C 0.66830 0.76570 0.26690
N1 N 0.39270 0.81720 0.05840
N2 N 0.29760 0.76670 -0.35790
N3 N 0.14790 0.90640 0.16680
O1 O 0.42600 0.71630 -0.32250
O2 O 0.07780 0.91220 -0.25550
H1 H 0.62900 0.56000 -0.30500
H2 H 0.82900 0.50600 -0.17200
H3 H 0.94500 0.59200 0.26400
H4 H 0.82800 0.77000 0.51000
H5 H 0.63800 0.84300 0.39800
H6 H 0.20300 0.87600 0.28600
H7 H 0.05600 0.94000 0.19000
#END
