
#######################################################################
#
#                 Cambridge Crystallographic Data Centre
#                                CCDC
#
#######################################################################
#
# If this CIF has been generated from an entry in the Cambridge
# Structural Database, then it will include bibliographic, chemical,
# crystal, experimental, refinement or atomic coordinate data resulting
# from the CCDC's data processing and validation procedures.
#
#######################################################################

data_CSD_CIF_PODLID
_audit_creation_date 1995-03-06
_audit_creation_method CSD-ConQuest-V1
_database_code_CSD PODLID
_database_code_depnum_ccdc_archive 'CCDC 1235793'
_chemical_formula_sum 'C31 H43 N3 O7'
_chemical_formula_moiety
;
C31 H43 N3 O7
;
_journal_coden_Cambridge 542
_journal_volume 28
_journal_year 1993
_journal_page_first 1181
_journal_name_full 'Cryst.Res.Technol. '
loop_
_publ_author_name
"H.Korner"
"P.Zugenmaier"
_chemical_name_systematic
;
Diethyl 6-(4-(4'-nitrophenylazo)phenoxy)dodecylmalonate
;
_cell_volume   3195.520
_exptl_crystal_density_diffrn 1.18
_exptl_special_details
;
Cell parameter c is 22.400 not 20.400

;
_diffrn_ambient_temperature ?
_diffrn_special_details
;
The study was carried out at room temperature,in the range 283-303K

;
#These two values have been output from a single CSD field.
_refine_ls_R_factor_gt 0.058
_refine_ls_wR_factor_gt 0.058
_symmetry_cell_setting monoclinic
_symmetry_space_group_name_H-M 'P 21/c'
_symmetry_Int_Tables_number 14
loop_
_symmetry_equiv_pos_site_id
_symmetry_equiv_pos_as_xyz
1 x,y,z
2 -x,1/2+y,1/2-z
3 -x,-y,-z
4 x,-1/2-y,-1/2+z
_cell_length_a 19.235(5)
_cell_length_b 7.620(1)
_cell_length_c 22.400(4)
_cell_angle_alpha 90
_cell_angle_beta 103.27(1)
_cell_angle_gamma 90
_cell_formula_units_Z 4
loop_
_atom_type_symbol
_atom_type_radius_bond
C 0.68
N 0.68
O 0.68
loop_
_atom_site_label
_atom_site_type_symbol
_atom_site_fract_x
_atom_site_fract_y
_atom_site_fract_z
O1 O 0.8684(3) 0.250(1) 0.4370(3)
O2 O 0.7759(3) 0.401(1) 0.3930(3)
O3 O 0.5431(3) 0.2078(7) 0.8567(2)
O4 O 0.0618(3) 0.300(2) 1.4873(3)
O5 O 0.1743(3) 0.269(1) 1.4987(3)
O6 O -0.0030(3) 0.3369(9) 1.3361(3)
O7 O 0.0531(3) 0.0802(9) 1.3593(3)
N1 N 0.8104(4) 0.309(1) 0.4356(3)
N2 N 0.6941(3) 0.2190(9) 0.6418(3)
N3 N 0.6320(3) 0.2780(9) 0.6407(3)
C1 C 0.7780(4) 0.286(1) 0.4872(4)
C2 C 0.8147(4) 0.197(1) 0.5374(4)
C3 C 0.7852(4) 0.179(1) 0.5865(4)
C4 C 0.7176(4) 0.246(1) 0.5872(3)
C5 C 0.6799(4) 0.334(1) 0.5366(3)
C6 C 0.7120(5) 0.360(1) 0.4868(4)
C7 C 0.6118(4) 0.251(1) 0.6971(3)
C8 C 0.6495(4) 0.165(1) 0.7477(3)
C9 C 0.6258(4) 0.151(1) 0.7994(3)
C10 C 0.5576(4) 0.228(1) 0.8011(3)
C11 C 0.5199(4) 0.314(1) 0.7529(3)
C12 C 0.5458(4) 0.326(1) 0.6996(3)
C13 C 0.4784(4) 0.287(1) 0.8664(4)
C14 C 0.4764(4) 0.247(1) 0.9332(3)
C15 C 0.4150(4) 0.330(1) 0.9531(4)
C16 C 0.4168(4) 0.293(1) 1.0217(4)
C17 C 0.3562(4) 0.374(1) 1.0440(4)
C18 C 0.3592(5) 0.331(1) 1.1107(4)
C19 C 0.2961(4) 0.396(1) 1.1338(4)
C20 C 0.3009(4) 0.344(1) 1.1996(4)
C21 C 0.2360(4) 0.395(1) 1.2240(4)
C22 C 0.2409(4) 0.336(1) 1.2896(4)
C23 C 0.1747(4) 0.379(1) 1.3127(4)
C24 C 0.1800(4) 0.318(1) 1.3782(4)
C25 C 0.1119(4) 0.343(1) 1.4012(3)
C26 C 0.1162(5) 0.304(1) 1.4682(5)
C27 C 0.0663(6) 0.259(3) 1.5572(4)
C28 C 0.0230(7) 0.246(3) 1.5735(7)
C29 C 0.0516(4) 0.240(1) 1.3631(4)
C30 C -0.0616(5) 0.242(2) 1.2991(5)
C31 C -0.1126(6) 0.379(2) 1.2735(5)
#END
