
#######################################################################
#
#                 Cambridge Crystallographic Data Centre
#                                CCDC
#
#######################################################################
#
# If this CIF has been generated from an entry in the Cambridge
# Structural Database, then it will include bibliographic, chemical,
# crystal, experimental, refinement or atomic coordinate data resulting
# from the CCDC's data processing and validation procedures.
#
#######################################################################

data_CSD_CIF_PODLEZ
_audit_creation_date 1995-03-06
_audit_creation_method CSD-ConQuest-V1
_database_code_CSD PODLEZ
_database_code_depnum_ccdc_archive 'CCDC 1235792'
_chemical_formula_sum 'C22 H25 N3 O7'
_chemical_formula_moiety
;
C22 H25 N3 O7
;
_journal_coden_Cambridge 542
_journal_volume 28
_journal_year 1993
_journal_page_first 1181
_journal_name_full 'Cryst.Res.Technol. '
loop_
_publ_author_name
"H.Korner"
"P.Zugenmaier"
_chemical_name_systematic
;
Diethyl 6-(4-(4'-nitrophenylazo)phenoxy)propylmalonate
;
_cell_volume   1099.590
_exptl_crystal_density_diffrn 1.34
_diffrn_ambient_temperature ?
_diffrn_special_details
;
The study was carried out at room temperature,in the range 283-303K

;
#These two values have been output from a single CSD field.
_refine_ls_R_factor_gt 0.044
_refine_ls_wR_factor_gt 0.044
_symmetry_cell_setting triclinic
_symmetry_space_group_name_H-M 'P -1'
_symmetry_Int_Tables_number 2
loop_
_symmetry_equiv_pos_site_id
_symmetry_equiv_pos_as_xyz
1 x,y,z
2 -x,-y,-z
_cell_length_a 6.797(6)
_cell_length_b 7.756(8)
_cell_length_c 22.74(2)
_cell_angle_alpha 81.48(7)
_cell_angle_beta 88.29(7)
_cell_angle_gamma 68.10(9)
_cell_formula_units_Z 2
loop_
_atom_type_symbol
_atom_type_radius_bond
C 0.68
N 0.68
O 0.68
loop_
_atom_site_label
_atom_site_type_symbol
_atom_site_fract_x
_atom_site_fract_y
_atom_site_fract_z
O1 O -0.7760(4) 0.1476(4) 1.2330(1)
O2 O -0.5104(4) -0.0460(4) 1.2858(1)
O3 O 0.4333(3) 0.3651(3) 0.8408(1)
O4 O 0.4447(4) 0.7928(4) 0.5721(1)
O5 O 0.7815(3) 0.6314(3) 0.5519(1)
O6 O 0.8126(3) 0.2768(3) 0.6276(1)
O7 O 1.0232(3) 0.3563(3) 0.6824(1)
N1 N -0.5856(4) 0.0571(4) 1.2399(1)
N2 N -0.0333(4) 0.1655(4) 1.0633(1)
N3 N -0.1147(4) 0.2485(4) 1.0128(1)
C1 C -0.4444(5) 0.0829(4) 1.1929(1)
C2 C -0.5329(5) 0.1956(5) 1.1397(2)
C3 C -0.4020(5) 0.2256(5) 1.0967(2)
C4 C -0.1835(5) 0.1418(4) 1.1051(1)
C5 C -0.0983(5) 0.0285(5) 1.1586(2)
C6 C -0.2293(5) -0.0033(5) 1.2025(2)
C7 C 0.0324(5) 0.2752(4) 0.9706(1)
C8 C -0.0526(5) 0.3673(5) 0.9151(2)
C9 C 0.0751(5) 0.4025(5) 0.8702(2)
C10 C 0.2911(5) 0.3425(4) 0.8811(1)
C11 C 0.3767(5) 0.2509(5) 0.9374(2)
C12 C 0.2491(5) 0.2184(5) 0.9808(2)
C13 C 0.3570(5) 0.4658(4) 0.7825(2)
C14 C 0.5471(5) 0.4697(4) 0.7485(2)
C15 C 0.4880(5) 0.5687(4) 0.6849(2)
C16 C 0.6778(5) 0.5844(4) 0.6506(1)
C17 C 0.6178(5) 0.6800(4) 0.5874(2)
C18 C 0.7529(6) 0.7246(5) 0.4902(2)
C19 C 0.6672(6) 0.6298(6) 0.4517(2)
C20 C 0.8608(4) 0.3954(4) 0.6553(1)
C21 C 0.9680(5) 0.0845(5) 0.6336(2)
C22 C 0.8956(6) -0.0130(5) 0.5919(2)
#END
