
#######################################################################
#
#                 Cambridge Crystallographic Data Centre
#                                CCDC
#
#######################################################################
#
# If this CIF has been generated from an entry in the Cambridge
# Structural Database, then it will include bibliographic, chemical,
# crystal, experimental, refinement or atomic coordinate data resulting
# from the CCDC's data processing and validation procedures.
#
#######################################################################

data_CSD_CIF_PODXOV
_audit_creation_date 1995-05-18
_audit_creation_method CSD-ConQuest-V1
_database_code_CSD PODXOV
_chemical_formula_sum 'C9 H12 N4 O3'
_chemical_formula_moiety
;
C9 H12 N4 O3
;
_journal_coden_Cambridge 122
_journal_year 1994
_journal_page_first 199
_journal_name_full 'Khim.Get.Soedin.,SSSR(Russ.)(Chem.Heterocycl.Compd.) '
loop_
_publ_author_name
"V.A.Samsonov"
"L.B.Volodarskii"
"I.Yu.Bagryanskaya"
"Yu.V.Gatilov"
"K.E.Lakman"
_chemical_name_systematic
;
5a-Amino-8a-hydroxy-7-methyl-4,5,5a,8a-tetrahydro-8H-pyrrolo(2,3-e)benzofuraza
na-6-oxide
;
_chemical_melting_point 461.15
_cell_volume   4060.980
_exptl_crystal_colour 'white'
_exptl_crystal_density_diffrn 1.467
_exptl_special_details
;
Melting point range 461.15-463.15K

;
_diffrn_ambient_temperature ?
_diffrn_special_details
;
The study was carried out at room temperature,in the range 283-303K

;
#These two values have been output from a single CSD field.
_refine_ls_R_factor_gt 0.0435
_refine_ls_wR_factor_gt 0.0435
_symmetry_cell_setting monoclinic
_symmetry_space_group_name_H-M 'C 2/c'
_symmetry_Int_Tables_number 15
loop_
_symmetry_equiv_pos_site_id
_symmetry_equiv_pos_as_xyz
1 x,y,z
2 1/2+x,1/2+y,z
3 -x,y,1/2-z
4 1/2-x,1/2+y,1/2-z
5 -x,-y,-z
6 -1/2-x,-1/2-y,-z
7 x,-y,-1/2+z
8 -1/2+x,-1/2-y,-1/2+z
_cell_length_a 23.882(6)
_cell_length_b 12.207(3)
_cell_length_c 13.940(3)
_cell_angle_alpha 90
_cell_angle_beta 92.17(2)
_cell_angle_gamma 90
_cell_formula_units_Z 16
loop_
_atom_type_symbol
_atom_type_radius_bond
C 0.68
N 0.68
O 0.68
loop_
_atom_site_label
_atom_site_type_symbol
_atom_site_fract_x
_atom_site_fract_y
_atom_site_fract_z
C1 C 0.3050(1) -0.4778(3) 0.4542(2)
C2 C 0.3457(1) -0.4254(3) 0.5142(2)
C3 C 0.3928(1) -0.4825(2) 0.5688(2)
C4 C 0.3945(1) -0.6027(2) 0.5347(2)
C5 C 0.3361(1) -0.6528(3) 0.5204(3)
C6 C 0.3021(2) -0.5979(3) 0.4385(3)
C7 C 0.3867(1) -0.4936(3) 0.6775(2)
C8 C 0.4138(1) -0.6009(2) 0.7013(2)
C9 C 0.4295(2) -0.6411(4) 0.7985(3)
N1 N 0.2727(1) -0.4044(3) 0.4131(2)
N2 N 0.3385(1) -0.3202(2) 0.5112(2)
N3 N 0.4197(1) -0.6569(2) 0.6241(2)
N4 N 0.4263(1) -0.6176(3) 0.4520(2)
O1 O 0.2930(1) -0.3043(2) 0.4478(2)
O2 O 0.4448(1) -0.4338(2) 0.5491(2)
O3 O 0.4412(1) -0.7547(2) 0.6145(2)
C10 C 0.3004(1) -0.0159(3) 0.7911(2)
C11 C 0.3362(1) 0.0476(2) 0.7337(2)
C12 C 0.3883(1) 0.0048(2) 0.6898(2)
C13 C 0.3996(1) -0.1144(2) 0.7237(2)
C14 C 0.3463(1) -0.1812(3) 0.7343(3)
C15 C 0.3101(2) -0.1337(3) 0.8118(3)
C16 C 0.3839(1) -0.0059(3) 0.5796(2)
C17 C 0.4205(1) -0.1019(2) 0.5600(2)
C18 C 0.4434(2) -0.1317(4) 0.4666(3)
N5 N 0.2594(1) 0.0449(3) 0.8186(2)
N6 N 0.3172(1) 0.1464(2) 0.7261(2)
N7 N 0.4287(1) -0.1589(2) 0.6367(2)
N8 N 0.4342(1) -0.1190(3) 0.8093(2)
O4 O 0.2689(1) 0.1480(2) 0.7787(2)
O5 O 0.4355(1) 0.0675(2) 0.7183(2)
O6 O 0.4571(1) -0.2502(2) 0.6475(1)
#END
