
#######################################################################
#
#                 Cambridge Crystallographic Data Centre
#                                CCDC
#
#######################################################################
#
# If this CIF has been generated from an entry in the Cambridge
# Structural Database, then it will include bibliographic, chemical,
# crystal, experimental, refinement or atomic coordinate data resulting
# from the CCDC's data processing and validation procedures.
#
#######################################################################

data_CSD_CIF_POFHID
_audit_creation_date 2014-05-24
_audit_creation_method CSD-ConQuest-V1
_database_code_CSD POFHID
_database_code_depnum_ccdc_archive 'CCDC 1002204'
_chemical_formula_sum 'C19 H22 N2 O4'
_chemical_formula_moiety
;
C19 H22 N2 O4
;
_journal_coeditor_code "IUCr su2733"
_journal_coden_Cambridge 1370
_journal_volume 70
_journal_year 2014
_journal_page_first o710
_journal_name_full 'Acta Crystallogr.,Sect.E:Struct.Rep.Online '
loop_
_publ_author_name
"S.A.Inglebert"
"J.Kamalraja"
"K.Sethusankar"
"P.T.Perumal"
_chemical_name_systematic
;
7,7-dimethyl-2-(methylamino)-4-(4-methylphenyl)-3-nitro-4,6,7,8-tetrahydro-5H-
chromen-5-one
;
_cell_volume   1753.094
_exptl_crystal_colour 'colorless'
_exptl_crystal_density_diffrn 1.297
_exptl_crystal_description 'block'
_diffrn_ambient_temperature 293
#These two values have been output from a single CSD field.
_refine_ls_R_factor_gt 0.0414
_refine_ls_wR_factor_gt 0.0414
_symmetry_cell_setting monoclinic
_symmetry_space_group_name_H-M 'P 21/c'
_symmetry_Int_Tables_number 14
loop_
_symmetry_equiv_pos_site_id
_symmetry_equiv_pos_as_xyz
1 x,y,z
2 -x,1/2+y,1/2-z
3 -x,-y,-z
4 x,-1/2-y,-1/2+z
_cell_length_a 9.4373(5)
_cell_length_b 15.8487(8)
_cell_length_c 12.1414(6)
_cell_angle_alpha 90
_cell_angle_beta 105.122(1)
_cell_angle_gamma 90
_cell_formula_units_Z 4
loop_
_atom_type_symbol
_atom_type_radius_bond
C 0.68
H 0.23
N 0.68
O 0.68
loop_
_atom_site_label
_atom_site_type_symbol
_atom_site_fract_x
_atom_site_fract_y
_atom_site_fract_z
C1 C 0.35586(16) 0.1309(1) 0.09850(12)
C2 C 0.26190(17) 0.06267(10) 0.06696(12)
H1 H 0.24680 0.04010 -0.00590
C3 C 0.19010(15) 0.02757(8) 0.14194(11)
H2 H 0.12630 -0.01750 0.11840
C4 C 0.21229(13) 0.05885(7) 0.25161(10)
C5 C 0.30488(14) 0.12771(8) 0.28302(11)
H3 H 0.31970 0.15050 0.35570
C6 C 0.37535(15) 0.16289(9) 0.20772(12)
H4 H 0.43710 0.20890 0.23070
C7 C 0.4372(2) 0.16838(15) 0.01843(17)
H5 H 0.49670 0.21460 0.05540
H6 H 0.36790 0.18830 -0.04920
H7 H 0.49870 0.12610 -0.00180
C8 C 0.41028(17) 0.0568(1) 0.74565(12)
H8 H 0.49030 0.03130 0.80110
H9 H 0.32350 0.05520 0.77280
H10 H 0.43430 0.11430 0.73360
C9 C -0.19570(18) 0.30022(10) 0.45333(15)
H11 H -0.25720 0.26750 0.48890
H12 H -0.25580 0.33080 0.38990
H13 H -0.13880 0.33920 0.50770
C10 C 0.00622(16) 0.29312(9) 0.35491(13)
H14 H -0.05320 0.32380 0.29130
H15 H 0.07080 0.25590 0.32870
H16 H 0.06320 0.33200 0.40940
C11 C 0.13852(13) 0.01918(7) 0.3375(1)
H17 H 0.07730 -0.02810 0.30060
C12 C 0.24902(13) -0.01314(7) 0.44158(10)
C13 C 0.28241(13) 0.02932(8) 0.54548(10)
C14 C 0.08036(14) 0.12100(8) 0.47489(10)
C15 C 0.00113(15) 0.19200(9) 0.51285(11)
H18 H 0.07180 0.22980 0.56090
H19 H -0.06150 0.16990 0.55800
C16 C -0.09273(14) 0.24144(8) 0.41109(12)
C17 C -0.18292(14) 0.17886(9) 0.32523(12)
H20 H -0.25840 0.15520 0.35700
H21 H -0.23180 0.20950 0.25670
C18 C -0.09720(13) 0.10749(8) 0.29228(11)
C19 C 0.04223(13) 0.08322(8) 0.37386(10)
N1 N 0.38424(12) 0.01069(7) 0.63882(9)
H22 H 0.43960 -0.03200 0.63650
N2 N 0.32677(12) -0.08485(7) 0.42859(9)
O1 O 0.20515(10) 0.09898(6) 0.55876(7)
O2 O -0.14135(11) 0.06874(7) 0.20344(9)
O3 O 0.42802(11) -0.11268(6) 0.51012(9)
O4 O 0.29464(12) -0.12159(6) 0.33498(9)
#END
