
#######################################################################
#
#                 Cambridge Crystallographic Data Centre
#                                CCDC
#
#######################################################################
#
# If this CIF has been generated from an entry in the Cambridge
# Structural Database, then it will include bibliographic, chemical,
# crystal, experimental, refinement or atomic coordinate data resulting
# from the CCDC's data processing and validation procedures.
#
#######################################################################

data_CSD_CIF_POFVIR
_audit_creation_date 2014-05-24
_audit_creation_method CSD-ConQuest-V1
_database_code_CSD POFVIR
_database_code_depnum_ccdc_archive 'CCDC 1001814'
_chemical_formula_sum 'C26 H26 N2 O3'
_chemical_formula_moiety
;
C26 H26 N2 O3
;
_journal_coeditor_code "IUCr su2678"
_journal_coden_Cambridge 1370
_journal_volume 70
_journal_year 2014
_journal_page_first o713
_journal_name_full 'Acta Crystallogr.,Sect.E:Struct.Rep.Online '
loop_
_publ_author_name
"B.Raghuvarman"
"R.Sivakumar"
"K.Gokula Krishnan"
"V.Thanikachalam"
"S.Aravindhan"
_chemical_name_systematic
;
(E)-(((1,3-dimethyl-2,6-diphenylpiperidin-4-ylidene)amino)oxy)(phenoxy)methano
ne
;
_cell_volume   2148.297
_exptl_crystal_colour 'colorless'
_exptl_crystal_density_diffrn 1.282
_exptl_crystal_description 'block'
_exptl_crystal_preparation 'N,N-dimethylformamide/water'
_diffrn_ambient_temperature 293
#These two values have been output from a single CSD field.
_refine_ls_R_factor_gt 0.0526
_refine_ls_wR_factor_gt 0.0526
_symmetry_cell_setting monoclinic
_symmetry_space_group_name_H-M 'P 21/c'
_symmetry_Int_Tables_number 14
loop_
_symmetry_equiv_pos_site_id
_symmetry_equiv_pos_as_xyz
1 x,y,z
2 -x,1/2+y,1/2-z
3 -x,-y,-z
4 x,-1/2-y,-1/2+z
_cell_length_a 16.2004(12)
_cell_length_b 11.9587(10)
_cell_length_c 11.3601(7)
_cell_angle_alpha 90
_cell_angle_beta 102.547(2)
_cell_angle_gamma 90
_cell_formula_units_Z 4
loop_
_atom_type_symbol
_atom_type_radius_bond
C 0.68
H 0.23
N 0.68
O 0.68
loop_
_atom_site_label
_atom_site_type_symbol
_atom_site_fract_x
_atom_site_fract_y
_atom_site_fract_z
C1 C 0.16989(9) 0.35382(12) 0.83490(12)
H1 H 0.13820 0.29970 0.87260
C2 C 0.26100(11) 0.31168(15) 0.85152(13)
H2 H 0.26080 0.23550 0.82200
H3 H 0.29150 0.35790 0.80510
C3 C 0.30428(9) 0.31542(13) 0.98144(13)
C4 C 0.30006(9) 0.42707(12) 1.03942(13)
H4 H 0.32530 0.48150 0.99330
C5 C 0.20588(9) 0.45817(12) 1.02319(12)
H5 H 0.17780 0.39950 1.06030
C6 C 0.19662(9) 0.56761(13) 1.08548(12)
C7 C 0.15971(11) 0.57068(15) 1.18468(14)
H6 H 0.13850 0.50530 1.21120
C8 C 0.15411(12) 0.67029(18) 1.24476(15)
H7 H 0.12930 0.67110 1.31130
C9 C 0.18471(12) 0.76735(16) 1.20726(15)
H8 H 0.18060 0.83400 1.24770
C10 C 0.22174(12) 0.76556(15) 1.10914(16)
H9 H 0.24300 0.83120 1.08330
C11 C 0.22743(11) 0.66632(14) 1.04893(14)
H10 H 0.25250 0.66610 0.98260
C12 C 0.12923(10) 0.35957(13) 0.70176(12)
C13 C 0.16171(12) 0.42803(15) 0.62530(14)
H11 H 0.21050 0.46920 0.65500
C14 C 0.12225(15) 0.43587(17) 0.50478(15)
H12 H 0.14450 0.48220 0.45370
C15 C 0.05001(15) 0.37504(19) 0.46032(16)
H13 H 0.02280 0.38170 0.37960
C16 C 0.01834(14) 0.30530(19) 0.53423(18)
H14 H -0.02980 0.26300 0.50380
C17 C 0.05790(12) 0.29753(16) 0.65455(16)
H15 H 0.03610 0.24960 0.70470
C18 C 0.34923(12) 0.43356(15) 1.16909(15)
H16 H 0.32140 0.38910 1.21930
H17 H 0.35190 0.50990 1.19580
H18 H 0.40550 0.40580 1.17430
C19 C 0.37323(10) 0.05039(13) 1.04333(14)
C20 C 0.41582(10) -0.13514(13) 1.00076(14)
C21 C 0.39797(12) -0.21341(15) 0.91128(15)
H19 H 0.36540 -0.19510 0.83580
C22 C 0.42925(14) -0.32043(16) 0.93527(19)
H20 H 0.41810 -0.37460 0.87520
C23 C 0.47672(13) -0.34739(16) 1.04712(19)
H21 H 0.49690 -0.41990 1.06300
C24 C 0.49410(13) -0.26815(16) 1.13426(18)
H22 H 0.52620 -0.28660 1.21000
C25 C 0.46459(12) -0.16009(15) 1.11162(16)
H23 H 0.47770 -0.10530 1.17080
C26 C 0.07667(10) 0.49575(17) 0.87840(15)
H24 H 0.05050 0.49810 0.79410
H25 H 0.07320 0.56820 0.91340
H26 H 0.04800 0.44200 0.91800
N1 N 0.16563(7) 0.46358(10) 0.89327(10)
N2 N 0.34143(8) 0.23699(11) 1.04748(11)
O1 O 0.34161(8) 0.13746(10) 0.97534(9)
O2 O 0.38576(11) 0.04349(12) 1.14880(12)
O3 O 0.38400(9) -0.0283(1) 0.96515(10)
#END
