
#######################################################################
#
#                 Cambridge Crystallographic Data Centre
#                                CCDC
#
#######################################################################
#
# If this CIF has been generated from an entry in the Cambridge
# Structural Database, then it will include bibliographic, chemical,
# crystal, experimental, refinement or atomic coordinate data resulting
# from the CCDC's data processing and validation procedures.
#
#######################################################################

data_CSD_CIF_POGMEF
_audit_creation_date 2014-05-24
_audit_creation_method CSD-ConQuest-V1
_database_code_CSD POGMEF
_database_code_depnum_ccdc_archive 'CCDC 978759'
_chemical_formula_sum 'C25 H30 N2 O4'
_chemical_formula_moiety
;
C25 H30 N2 O4
;
_journal_coden_Cambridge 1366
_journal_volume 356
_journal_year 2014
_journal_page_first 1803
_journal_name_full 'Adv.Synth.Catal. '
loop_
_publ_author_name
"Y.N.Belokon"
"V.I.Maleev"
"M.North"
"V.A.Larionov"
"I.V.Fedyanin"
"A.F.Smolyakov"
"M.A.Moskalenko"
"T.F.Savelyeva"
_chemical_name_systematic
;
t-butyl ((diphenylmethylene)amino)(2-nitrocyclohexyl)acetate
;
_cell_volume   2257.962
_exptl_crystal_colour 'colorless'
_exptl_crystal_density_diffrn 1.243
_exptl_crystal_description 'Prism'
_diffrn_ambient_temperature 100
#These two values have been output from a single CSD field.
_refine_ls_R_factor_gt 0.0449
_refine_ls_wR_factor_gt 0.0449
_symmetry_cell_setting monoclinic
_symmetry_space_group_name_H-M 'P 21/n'
_symmetry_Int_Tables_number 14
loop_
_symmetry_equiv_pos_site_id
_symmetry_equiv_pos_as_xyz
1 x,y,z
2 1/2-x,1/2+y,1/2-z
3 -x,-y,-z
4 -1/2+x,-1/2-y,-1/2+z
_cell_length_a 14.0392(3)
_cell_length_b 11.4222(2)
_cell_length_c 14.7277(3)
_cell_angle_alpha 90
_cell_angle_beta 107.046(1)
_cell_angle_gamma 90
_cell_formula_units_Z 4
loop_
_atom_type_symbol
_atom_type_radius_bond
C 0.68
H 0.23
N 0.68
O 0.68
loop_
_atom_site_label
_atom_site_type_symbol
_atom_site_fract_x
_atom_site_fract_y
_atom_site_fract_z
O1 O 0.41074(9) 0.59026(12) 0.02892(9)
O2 O 0.38898(9) 0.56194(10) 0.17371(8)
O3 O 0.17536(12) 0.37311(13) 0.23431(11)
O4 O 0.07392(11) 0.38038(12) 0.09267(11)
N1 N 0.22883(10) 0.49899(12) -0.06059(10)
N2 N 0.13345(11) 0.42592(13) 0.16165(11)
C1 C 0.36097(13) 0.56010(14) 0.07859(12)
C2 C 0.25562(13) 0.51049(14) 0.04206(12)
H1 H 0.25480 0.43100 0.07020
C3 C 0.17383(13) 0.58646(15) 0.06502(12)
H2 H 0.11010 0.57100 0.01420
C4 C 0.15684(13) 0.55464(15) 0.15925(12)
H3 H 0.21800 0.57330 0.21220
C5 C 0.06830(13) 0.62201(16) 0.17352(13)
H4 H 0.00760 0.60520 0.12060
H5 H 0.05610 0.59760 0.23370
C6 C 0.09181(14) 0.75206(16) 0.17658(13)
H6 H 0.03540 0.79710 0.18650
H7 H 0.15170 0.76850 0.23040
C7 C 0.11012(16) 0.79004(16) 0.08432(14)
H8 H 0.12810 0.87410 0.08830
H9 H 0.04820 0.78000 0.03140
C8 C 0.19417(14) 0.71818(15) 0.06403(13)
H10 H 0.20070 0.74050 0.00120
H11 H 0.25790 0.73640 0.11250
C9 C 0.49199(13) 0.59591(15) 0.22794(12)
C10 C 0.48836(15) 0.59009(17) 0.33007(13)
H12 H 0.46850 0.51120 0.34350
H13 H 0.43990 0.64720 0.33930
H14 H 0.55440 0.60810 0.37330
C11 C 0.51459(15) 0.72071(16) 0.20366(14)
H15 H 0.51990 0.72290 0.13880
H16 H 0.57760 0.74660 0.24830
H17 H 0.46080 0.77280 0.20830
C12 C 0.56445(14) 0.50669(16) 0.20961(14)
H18 H 0.54210 0.42760 0.21920
H19 H 0.63090 0.52030 0.25360
H20 H 0.56710 0.51460 0.14410
C13 C 0.22938(12) 0.39757(14) -0.09710(12)
C14 C 0.26099(13) 0.28776(14) -0.03977(11)
C15 C 0.35978(14) 0.27014(15) 0.01240(12)
H21 H 0.40910 0.32590 0.00990
C16 C 0.38603(16) 0.17032(17) 0.06836(13)
H22 H 0.45340 0.15810 0.10440
C17 C 0.31395(18) 0.08857(16) 0.07155(13)
H23 H 0.33220 0.02060 0.10990
C18 C 0.21678(18) 0.10540(17) 0.01966(14)
H24 H 0.16780 0.04910 0.02200
C19 C 0.18957(15) 0.20452(16) -0.03645(13)
H25 H 0.12210 0.21560 -0.07270
C20 C 0.19756(12) 0.38699(14) -0.20241(12)
C21 C 0.15941(13) 0.48459(15) -0.25909(13)
H26 H 0.14940 0.55600 -0.23010
C22 C 0.13640(14) 0.47783(16) -0.35644(13)
H27 H 0.11180 0.54500 -0.39400
C23 C 0.14880(15) 0.37351(17) -0.40024(13)
H28 H 0.13330 0.36960 -0.46740
C24 C 0.18391(14) 0.27543(16) -0.34549(13)
H29 H 0.19140 0.20350 -0.37510
C25 C 0.20821(13) 0.28240(15) -0.24722(12)
H30 H 0.23250 0.21490 -0.21000
#END
