
#######################################################################
#
#                 Cambridge Crystallographic Data Centre
#                                CCDC
#
#######################################################################
#
# If this CIF has been generated from an entry in the Cambridge
# Structural Database, then it will include bibliographic, chemical,
# crystal, experimental, refinement or atomic coordinate data resulting
# from the CCDC's data processing and validation procedures.
#
#######################################################################

data_CSD_CIF_POJHOM
_audit_creation_date 2009-03-09
_audit_creation_method CSD-ConQuest-V1
_database_code_CSD POJHOM
_database_code_depnum_ccdc_archive 'CCDC 692009'
_chemical_formula_sum 'C21 H14 N4 O2'
_chemical_formula_moiety
;
C21 H14 N4 O2
;
_journal_coden_Cambridge 24
_journal_volume 49
_journal_year 2008
_journal_page_first 6231
_journal_name_full 'Tetrahedron Lett. '
loop_
_publ_author_name
"V.A.Mamedov"
"D.F.Saifina"
"A.T.Gubaidullin"
"A.F.Saifina"
"I.Kh.Rizvanov"
_chemical_name_systematic
;
2-(3-(4-Nitrophenyl)indolinzin-2-yl)benzimidazole
;
_cell_volume   1707.922
_exptl_crystal_colour 'dark pink'
_exptl_crystal_density_diffrn 1.378
_exptl_crystal_description 'prism'
_exptl_crystal_preparation 'ethyl acetate'
_diffrn_ambient_temperature 296
#These two values have been output from a single CSD field.
_refine_ls_R_factor_gt 0.0884
_refine_ls_wR_factor_gt 0.0884
_symmetry_cell_setting monoclinic
_symmetry_space_group_name_H-M 'P 21'
_symmetry_Int_Tables_number 4
loop_
_symmetry_equiv_pos_site_id
_symmetry_equiv_pos_as_xyz
1 x,y,z
2 -x,1/2+y,-z
_cell_length_a 10.8916(16)
_cell_length_b 15.042(2)
_cell_length_c 11.751(2)
_cell_angle_alpha 90
_cell_angle_beta 117.483(2)
_cell_angle_gamma 90
_cell_formula_units_Z 4
loop_
_atom_type_symbol
_atom_type_radius_bond
C 0.68
H 0.23
N 0.68
O 0.68
loop_
_atom_site_label
_atom_site_type_symbol
_atom_site_fract_x
_atom_site_fract_y
_atom_site_fract_z
C1 C 0.5070(4) 0.7464(3) 0.6323(4)
C2 C 0.4469(5) 0.7767(3) 0.7793(5)
C3 C 0.4368(7) 0.8045(4) 0.8857(5)
H1 H 0.50180 0.84350 0.94360
C4 C 0.3309(8) 0.7744(5) 0.9059(6)
H2 H 0.32250 0.79400 0.97700
C5 C 0.2331(6) 0.7135(5) 0.8196(6)
H3 H 0.15990 0.69540 0.83400
C6 C 0.2429(6) 0.6801(4) 0.7149(6)
H4 H 0.18120 0.63800 0.66050
C7 C 0.3522(5) 0.7137(3) 0.6956(5)
C8 C 0.7287(6) 0.7533(4) 0.6187(5)
H5 H 0.78760 0.75820 0.70620
C9 C 0.5842(5) 0.7466(3) 0.5611(4)
C10 C 0.5337(4) 0.7369(3) 0.4269(5)
C11 C 0.6540(7) 0.7389(4) 0.2889(7)
H6 H 0.57390 0.73350 0.21140
C12 C 0.7815(8) 0.7473(5) 0.2926(9)
H7 H 0.78710 0.74710 0.21600
C13 C 0.9045(7) 0.7563(5) 0.4098(8)
H8 H 0.99030 0.75990 0.41080
C14 C 0.8946(7) 0.7594(5) 0.5180(8)
H9 H 0.97510 0.76730 0.59470
C15 C 0.7684(5) 0.7515(4) 0.5224(6)
C16 C 0.3932(4) 0.7292(3) 0.3243(4)
C17 C 0.2894(5) 0.7827(3) 0.3273(5)
H10 H 0.31270 0.82330 0.39380
C18 C 0.1557(5) 0.7768(3) 0.2355(5)
H11 H 0.08790 0.81250 0.23940
C19 C 0.1223(5) 0.7176(3) 0.1373(5)
C20 C 0.2214(6) 0.6641(4) 0.1274(5)
H12 H 0.19740 0.62540 0.05870
C21 C 0.3537(5) 0.6702(3) 0.2212(5)
H13 H 0.42070 0.63390 0.21700
N1 N 0.3904(4) 0.6971(3) 0.6011(4)
H14 H 0.34920 0.66270 0.53580
N2 N 0.5439(4) 0.7949(3) 0.7360(4)
N3 N 0.6489(4) 0.7388(3) 0.4049(4)
N4 N -0.0220(5) 0.7141(4) 0.0331(5)
O1 O -0.1130(5) 0.7479(4) 0.0513(5)
O2 O -0.0435(5) 0.6731(4) -0.0644(4)
C22 C 0.3911(5) 0.4974(3) 0.4042(4)
C23 C 0.1851(5) 0.4672(3) 0.2474(5)
C24 C 0.0696(6) 0.4374(4) 0.1377(5)
H15 H 0.07750 0.39890 0.07950
C25 C -0.0582(7) 0.4687(5) 0.1205(6)
H16 H -0.13850 0.45030 0.04930
C26 C -0.0680(7) 0.5276(5) 0.2089(7)
H17 H -0.15460 0.54760 0.19490
C27 C 0.0481(6) 0.5564(4) 0.3158(6)
H18 H 0.04100 0.59490 0.37440
C28 C 0.1741(6) 0.5267(3) 0.3330(5)
C29 C 0.6299(5) 0.4844(3) 0.4178(5)
H19 H 0.60150 0.47500 0.33100
C30 C 0.5452(5) 0.4950(3) 0.4784(4)
C31 C 0.6233(5) 0.5070(3) 0.6085(5)
C32 C 0.8804(5) 0.5053(4) 0.7413(6)
H20 H 0.87710 0.51330 0.81840
C33 C 1.0019(6) 0.4966(4) 0.7424(7)
H21 H 1.08270 0.49930 0.81980
C34 C 1.0095(6) 0.4832(4) 0.6285(9)
H22 H 1.09580 0.47710 0.63130
C35 C 0.8935(7) 0.4789(4) 0.5131(8)
H23 H 0.89860 0.46880 0.43740
C36 C 0.7627(6) 0.4909(4) 0.5140(5)
C37 C 0.5833(4) 0.5146(3) 0.7100(4)
C38 C 0.4771(5) 0.4603(3) 0.7075(5)
H24 H 0.43290 0.41990 0.64100
C39 C 0.4382(6) 0.4669(4) 0.8031(5)
H25 H 0.36800 0.43120 0.80200
C40 C 0.5050(5) 0.5271(3) 0.9004(5)
C41 C 0.6096(5) 0.5812(4) 0.9063(5)
H26 H 0.65370 0.62110 0.97360
C42 C 0.6467(5) 0.5746(3) 0.8107(5)
H27 H 0.71640 0.61130 0.81280
N5 N 0.3064(4) 0.5453(3) 0.4341(4)
N6 N 0.3221(4) 0.4508(3) 0.2930(4)
H28 H 0.35890 0.41700 0.25810
N7 N 0.7599(4) 0.5029(3) 0.6293(4)
N8 N 0.4643(6) 0.5343(4) 1.0047(5)
O3 O 0.3565(5) 0.5006(4) 0.9873(5)
O4 O 0.5446(6) 0.5704(4) 1.1045(5)
#END
