
#######################################################################
#
#                 Cambridge Crystallographic Data Centre
#                                CCDC
#
#######################################################################
#
# If this CIF has been generated from an entry in the Cambridge
# Structural Database, then it will include bibliographic, chemical,
# crystal, experimental, refinement or atomic coordinate data resulting
# from the CCDC's data processing and validation procedures.
#
#######################################################################

data_CSD_CIF_POJQIQ
_audit_creation_date 2014-05-27
_audit_creation_method CSD-ConQuest-V1
_database_code_CSD POJQIQ
_database_code_depnum_ccdc_archive 'CCDC 978242'
_chemical_formula_sum 'C23 H21 N1 O1'
_chemical_formula_moiety
;
C23 H21 N1 O1
;
_journal_coden_Cambridge 35
_journal_volume 79
_journal_year 2014
_journal_page_first 4306
_journal_name_full 'J.Org.Chem. '
loop_
_publ_author_name
"Jian-Ming Chen"
"Chin-Jung Chang"
"Yao-Jin Ke"
"Rai-Shung Liu"
_chemical_name_systematic
;
3-Methyl-2,4,6-triphenyl-3,6-dihydro-2H-1,2-oxazine
;
_cell_volume    849.804
_exptl_crystal_colour 'colorless'
_exptl_crystal_density_diffrn 1.28
_exptl_crystal_description 'Tabular'
_diffrn_ambient_temperature 100
#These two values have been output from a single CSD field.
_refine_ls_R_factor_gt 0.0397
_refine_ls_wR_factor_gt 0.0397
_symmetry_cell_setting triclinic
_symmetry_space_group_name_H-M 'P -1'
_symmetry_Int_Tables_number 2
loop_
_symmetry_equiv_pos_site_id
_symmetry_equiv_pos_as_xyz
1 x,y,z
2 -x,-y,-z
_cell_length_a 5.6805(4)
_cell_length_b 10.0159(6)
_cell_length_c 15.1868(9)
_cell_angle_alpha 91.566(4)
_cell_angle_beta 97.711(3)
_cell_angle_gamma 96.580(3)
_cell_formula_units_Z 2
loop_
_atom_type_symbol
_atom_type_radius_bond
C 0.68
H 0.23
N 0.68
O 0.68
loop_
_atom_site_label
_atom_site_type_symbol
_atom_site_fract_x
_atom_site_fract_y
_atom_site_fract_z
O1 O 1.0513(2) 0.47134(11) 0.27088(7)
N1 N 0.8068(2) 0.44566(13) 0.28905(9)
C1 C 0.4058(3) 1.02446(17) 0.23369(12)
H1 H 0.32730 1.10330 0.23290
C2 C 0.6025(3) 1.01891(17) 0.18964(12)
H2 H 0.65950 1.09430 0.15850
C3 C 0.7166(3) 0.90421(16) 0.19069(11)
H3 H 0.85170 0.90180 0.16020
C4 C 0.6365(3) 0.79121(16) 0.23597(11)
C5 C 0.7594(3) 0.66747(15) 0.23739(11)
C6 C 0.8903(3) 0.63593(16) 0.17528(11)
H4 H 0.89180 0.68910 0.12450
C7 C 1.0357(3) 0.51968(16) 0.18213(10)
H5 H 1.20190 0.55600 0.17320
C8 C 0.9554(3) 0.40465(15) 0.11356(10)
C9 C 0.7345(3) 0.39221(17) 0.06035(11)
H6 H 0.62880 0.45800 0.06570
C10 C 0.6670(3) 0.28422(17) -0.00071(12)
H7 H 0.51640 0.27720 -0.03730
C11 C 0.8173(3) 0.18733(17) -0.00841(12)
H8 H 0.77000 0.11320 -0.04980
C12 C 0.7261(3) 0.11829(17) 0.45460(12)
H9 H 0.70570 0.04320 0.49090
C13 C 0.9121(3) 0.13274(16) 0.40453(12)
H10 H 1.01950 0.06650 0.40620
C14 C 0.9447(3) 0.24219(16) 0.35187(11)
H11 H 1.07460 0.25090 0.31820
C15 C 0.7880(3) 0.33942(15) 0.34818(11)
C16 C 0.3242(3) 0.91467(17) 0.27885(12)
H12 H 0.18900 0.91800 0.30910
C17 C 0.4382(3) 0.79970(16) 0.28029(11)
H13 H 0.38060 0.72520 0.31200
C18 C 0.7336(3) 0.57588(15) 0.31430(11)
H14 H 0.55980 0.56060 0.32080
C19 C 0.8675(3) 0.63874(17) 0.40203(11)
H15 H 0.82460 0.58340 0.45100
H16 H 0.82380 0.72950 0.41100
H17 H 1.04020 0.64370 0.40050
C20 C 1.0382(3) 0.19832(17) 0.04455(12)
H18 H 1.14210 0.13150 0.03950
C21 C 1.1071(3) 0.30668(16) 0.10477(11)
H19 H 1.25930 0.31420 0.14040
C22 C 0.5991(3) 0.32464(17) 0.39874(11)
H20 H 0.49040 0.39020 0.39710
C23 C 0.5699(3) 0.21479(17) 0.45120(12)
H21 H 0.44090 0.20560 0.48530
#END
