
#######################################################################
#
#                 Cambridge Crystallographic Data Centre
#                                CCDC
#
#######################################################################
#
# If this CIF has been generated from an entry in the Cambridge
# Structural Database, then it will include bibliographic, chemical,
# crystal, experimental, refinement or atomic coordinate data resulting
# from the CCDC's data processing and validation procedures.
#
#######################################################################

data_CSD_CIF_POJWER
_audit_creation_date 2009-03-09
_audit_creation_method CSD-ConQuest-V1
_database_code_CSD POJWER
_database_code_depnum_ccdc_archive 'CCDC 679883'
_chemical_formula_sum 'C22 H19 N1 O6'
_chemical_formula_moiety
;
C22 H19 N1 O6
;
_journal_coden_Cambridge 179
_journal_volume 47
_journal_year 2008
_journal_page_first 7446
_journal_name_full 'Angew.Chem.,Int.Ed. '
loop_
_publ_author_name
"H.Takikawa"
"A.Takada"
"K.Hikita"
"K.Suzuki"
_chemical_name_systematic
;
Formaldehyde 
O-[9-(benzyloxy)-4a-hydroxy-5,10-dioxo-2,3,4,4a,5,10-hexahydro-1aH-anthra[1,9a
-b]oxiren-1a-yl]oxime
;
_chemical_melting_point 447.15
_cell_volume    941.006
_exptl_crystal_colour 'colorless'
_exptl_crystal_density_diffrn 1.388
_exptl_special_details
;
Melts with decomposition.

;
_exptl_crystal_description 'prism'
_exptl_crystal_preparation 'acetone/toluene'
_diffrn_ambient_temperature 223
#These two values have been output from a single CSD field.
_refine_ls_R_factor_gt 0.0512
_refine_ls_wR_factor_gt 0.0512
_symmetry_cell_setting triclinic
_symmetry_space_group_name_H-M 'P -1'
_symmetry_Int_Tables_number 2
loop_
_symmetry_equiv_pos_site_id
_symmetry_equiv_pos_as_xyz
1 x,y,z
2 -x,-y,-z
_cell_length_a 9.66(2)
_cell_length_b 9.948(19)
_cell_length_c 10.480(19)
_cell_angle_alpha 107.21(6)
_cell_angle_beta 90.47(8)
_cell_angle_gamma 101.30(7)
_cell_formula_units_Z 2
loop_
_atom_type_symbol
_atom_type_radius_bond
C 0.68
H 0.23
N 0.68
O 0.68
loop_
_atom_site_label
_atom_site_type_symbol
_atom_site_fract_x
_atom_site_fract_y
_atom_site_fract_z
O1 O 0.14706(10) 0.34203(10) 0.80355(10)
O2 O 0.64269(11) 0.35280(12) 0.86033(11)
O3 O 0.59609(15) 0.08321(13) 0.63325(13)
O4 O 0.20257(12) 0.07597(11) 1.06915(11)
O5 O 0.31966(10) 0.33219(9) 1.04523(9)
O6 O 0.38102(9) 0.47684(9) 0.85975(8)
N1 N 0.07929(14) 0.45656(16) 0.80062(15)
C1 C 0.28235(13) 0.37185(13) 0.75941(12)
C2 C 0.29208(18) 0.37972(17) 0.61832(14)
H1 H 0.30560 0.48040 0.61960
H2 H 0.20320 0.32710 0.56580
C3 C 0.4148(2) 0.3159(2) 0.55160(15)
H3 H 0.38580 0.21080 0.52120
H4 H 0.43570 0.34780 0.47260
C4 C 0.54829(19) 0.35882(19) 0.64424(17)
H5 H 0.57530 0.46400 0.67850
H6 H 0.62560 0.32350 0.59380
C5 C 0.52594(14) 0.29720(14) 0.76157(13)
C6 C 0.52394(15) 0.13478(15) 0.72134(13)
C7 C 0.44012(14) 0.04684(14) 0.79845(12)
C8 C 0.45159(18) -0.09670(15) 0.76817(14)
H7 H 0.50810 -0.13500 0.69980
C9 C 0.3802(2) -0.18193(15) 0.83837(15)
H8 H 0.38900 -0.27830 0.81790
C10 C 0.29534(19) -0.12822(16) 0.93912(16)
H9 H 0.24590 -0.18860 0.98510
C11 C 0.28320(16) 0.01572(14) 0.97235(13)
C12 C 0.35758(13) 0.10587(13) 0.90297(12)
C13 C 0.35190(13) 0.26074(13) 0.93826(12)
C14 C 0.39198(13) 0.32792(12) 0.82837(12)
C15 C -0.0423(2) 0.4345(3) 0.8392(3)
H10 H -0.07590 0.35150 0.86460
H11 H -0.10060 0.50080 0.84290
C16 C 0.12768(18) -0.00883(17) 1.14539(15)
H12 H 0.19400 -0.04680 1.18950
H13 H 0.05930 -0.09010 1.08640
C17 C 0.05219(16) 0.08527(18) 1.24819(14)
C18 C 0.0692(2) 0.2319(2) 1.26813(16)
H14 H 0.13150 0.27590 1.21690
C19 C -0.0048(3) 0.3148(3) 1.36300(18)
H15 H 0.00730 0.41410 1.37520
C20 C -0.0960(2) 0.2510(3) 1.43911(18)
H16 H -0.14640 0.30650 1.50310
C21 C -0.1126(2) 0.1067(3) 1.4209(2)
H17 H -0.17430 0.06310 1.47280
C22 C -0.0392(2) 0.0247(2) 1.32680(19)
H18 H -0.05140 -0.07420 1.31580
H19 H 0.641(2) 0.442(3) 0.902(2)
#END
