
#######################################################################
#
#                 Cambridge Crystallographic Data Centre
#                                CCDC
#
#######################################################################
#
# If this CIF has been generated from an entry in the Cambridge
# Structural Database, then it will include bibliographic, chemical,
# crystal, experimental, refinement or atomic coordinate data resulting
# from the CCDC's data processing and validation procedures.
#
#######################################################################

data_CSD_CIF_POJXOD
_audit_creation_date 2014-05-27
_audit_creation_method CSD-ConQuest-V1
_database_code_CSD POJXOD
_database_code_depnum_ccdc_archive 'CCDC 959467'
_chemical_formula_sum 'C16 H12 N4 O2'
_chemical_formula_moiety
;
C16 H12 N4 O2
;
_journal_coden_Cambridge 1366
_journal_volume 356
_journal_year 2014
_journal_page_first 1329
_journal_name_full 'Adv.Synth.Catal. '
loop_
_publ_author_name
"M.Selvaraju"
"Chung-Ming Sun"
_chemical_name_systematic
;
4-Methoxy-3-phenyl[1,2,3]triazolo[1,5-a]quinazolin-5(4H)-one
;
_cell_volume   1348.587
_exptl_crystal_colour 'colorless'
_exptl_crystal_density_diffrn 1.44
_exptl_crystal_description 'Tabular'
_diffrn_ambient_temperature 100
#These two values have been output from a single CSD field.
_refine_ls_R_factor_gt 0.0369
_refine_ls_wR_factor_gt 0.0369
_symmetry_cell_setting monoclinic
_symmetry_space_group_name_H-M 'P 21/c'
_symmetry_Int_Tables_number 14
loop_
_symmetry_equiv_pos_site_id
_symmetry_equiv_pos_as_xyz
1 x,y,z
2 -x,1/2+y,1/2-z
3 -x,-y,-z
4 x,-1/2-y,-1/2+z
_cell_length_a 8.1776(5)
_cell_length_b 10.5936(6)
_cell_length_c 15.9499(9)
_cell_angle_alpha 90
_cell_angle_beta 102.577(2)
_cell_angle_gamma 90
_cell_formula_units_Z 4
loop_
_atom_type_symbol
_atom_type_radius_bond
C 0.68
H 0.23
N 0.68
O 0.68
loop_
_atom_site_label
_atom_site_type_symbol
_atom_site_fract_x
_atom_site_fract_y
_atom_site_fract_z
O1 O 0.61367(12) 0.59762(10) 0.11027(6)
O2 O 0.48985(12) 0.69523(10) -0.04456(6)
N1 N 0.17293(14) 0.59476(11) 0.10477(7)
N2 N 0.08979(15) 0.56278(12) 0.16753(8)
N3 N 0.20440(16) 0.52420(12) 0.23312(8)
N4 N 0.44278(14) 0.61078(11) 0.07859(7)
C1 C -0.02941(18) 0.76475(14) -0.13015(10)
H1 H -0.07360 0.80880 -0.18200
C2 C -0.13620(18) 0.72306(14) -0.07873(10)
H2 H -0.25360 0.73570 -0.09710
C3 C -0.07350(17) 0.66347(13) -0.00122(9)
H3 H -0.14650 0.63540 0.03380
C4 C 0.09846(17) 0.64557(13) 0.02425(9)
C5 C 0.33975(17) 0.57578(13) 0.13279(9)
C6 C 0.36108(18) 0.52904(13) 0.21520(9)
C7 C 0.51180(19) 0.49215(13) 0.27943(9)
C8 C 0.52588(19) 0.52520(14) 0.36545(9)
H4 H 0.43720 0.56950 0.38220
C9 C 0.6680(2) 0.49402(14) 0.42645(10)
H5 H 0.67570 0.51610 0.48490
C10 C 0.7992(2) 0.43075(14) 0.4027(1)
H6 H 0.89810 0.41180 0.44440
C11 C 0.7851(2) 0.39538(15) 0.31789(10)
H7 H 0.87430 0.35100 0.30160
C12 C 0.6419(2) 0.42417(14) 0.25661(10)
H8 H 0.63220 0.39760 0.19890
C13 C 0.68014(19) 0.71235(16) 0.15432(10)
H9 H 0.65710 0.78370 0.11440
H10 H 0.80140 0.70370 0.17550
H11 H 0.62680 0.72720 0.20280
C14 C 0.38991(17) 0.66421(13) -0.00179(9)
C15 C 0.20695(17) 0.68148(13) -0.02820(9)
C16 C 0.14031(17) 0.74217(13) -0.10583(9)
H12 H 0.21230 0.76800 -0.14200
#END
