
#######################################################################
#
#                 Cambridge Crystallographic Data Centre
#                                CCDC
#
#######################################################################
#
# If this CIF has been generated from an entry in the Cambridge
# Structural Database, then it will include bibliographic, chemical,
# crystal, experimental, refinement or atomic coordinate data resulting
# from the CCDC's data processing and validation procedures.
#
#######################################################################

data_CSD_CIF_POKPIO
_audit_creation_date 1995-06-12
_audit_creation_method CSD-ConQuest-V1
_database_code_CSD POKPIO
_chemical_formula_sum 'C19 H23 N1 O7'
_chemical_formula_moiety
;
C19 H23 N1 O7
;
_journal_coden_Cambridge 35
_journal_volume 59
_journal_year 1994
_journal_page_first 355
_journal_name_full 'J.Org.Chem. '
loop_
_publ_author_name
"K.F.McClure"
"S.J.Danishefsky"
"G.K.Schulte"
_chemical_name_systematic
;
3,4-Isopropylidenedioxy-9-methoxycarbonyl-5,7-dimethoxy-6-methylene-1,5-epoxy-
benzazocine
;
_chemical_melting_point 474.15
_cell_volume   1811.076
_exptl_crystal_colour 'colorless'
_exptl_special_details
;
Melting point range 474.15-475.15K

;
_diffrn_ambient_temperature ?
_diffrn_special_details
;
The study was carried out at room temperature,in the range 283-303K

;
_symmetry_cell_setting monoclinic
_symmetry_space_group_name_H-M 'P 21/c'
_symmetry_Int_Tables_number 14
loop_
_symmetry_equiv_pos_site_id
_symmetry_equiv_pos_as_xyz
1 x,y,z
2 -x,1/2+y,1/2-z
3 -x,-y,-z
4 x,-1/2-y,-1/2+z
_cell_length_a 12.391(3)
_cell_length_b 7.894(3)
_cell_length_c 19.149(4)
_cell_angle_alpha 90
_cell_angle_beta 104.78(2)
_cell_angle_gamma 90
_cell_formula_units_Z 4
loop_
_atom_type_symbol
_atom_type_radius_bond
C 0.68
H 0.23
N 0.68
O 0.68
loop_
_atom_site_label
_atom_site_type_symbol
_atom_site_fract_x
_atom_site_fract_y
_atom_site_fract_z
O1 O 0.83814(14) 0.65670(24) 0.26296(9)
O2 O 0.94301(14) 0.89444(25) 0.27823(10)
O3 O 0.91640(16) 0.68829(26) 0.52712(9)
O4 O 0.73802(14) 0.96624(24) 0.19144(9)
O5 O 0.56475(14) 0.94462(25) 0.21302(9)
O6 O 0.62086(21) 0.09384(29) 0.41426(12)
O7 O 0.73333(18) 0.12340(26) 0.52560(11)
N1 N 0.74403(18) 0.57010(29) 0.27627(11)
C1 C 0.76343(21) 0.53310(25) 0.35204(14)
C2 C 0.71526(22) 0.38620(34) 0.36957(14)
C3 C 0.73906(23) 0.33604(35) 0.44097(15)
C4 C 0.80804(22) 0.43379(37) 0.49454(14)
C5 C 0.85124(22) 0.58484(37) 0.47673(14)
C6 C 0.82957(21) 0.63972(34) 0.40380(14)
C7 C 0.86813(22) 0.80031(37) 0.37919(14)
C8 C 0.85320(22) 0.82021(36) 0.29700(14)
C9 C 0.75296(22) 0.93231(34) 0.26650(13)
C10 C 0.64278(22) 0.84734(37) 0.26621(13)
C11 C 0.64177(22) 0.66322(37) 0.24294(14)
C12 C 0.68999(28) 0.17291(40) 0.45721(18)
C13 C 0.90627(29) 0.93215(44) 0.41992(16)
C14 C 0.69311(32) -0.03891(43) 0.54497(18)
C15 C 0.93617(26) 0.64289(43) 0.60204(15)
C16 C 1.04905(24) 0.80752(45) 0.30176(17)
C17 C 0.62409(22) 1.01718(38) 0.16444(14)
C18 C 0.57917(24) 0.94611(45) 0.08952(15)
C19 C 0.61407(27) 1.20733(42) 0.16566(17)
H1 H 0.66710 0.30030 0.32930
H2 H 0.82810 0.39090 0.54620
H3 H 0.75550 1.04390 0.29610
H4 H 0.62530 0.87210 0.31390
H5 H 0.63230 0.65430 0.18810
H6 H 0.57810 0.59630 0.25290
H7 H 0.92940 1.04620 0.39670
H8 H 0.92450 0.92640 0.47780
H9 H 0.72240 -0.05670 0.59890
H10 H 0.69860 -0.11730 0.50570
H11 H 0.60760 -0.02720 0.54750
H12 H 0.86630 0.61830 0.61220
H13 H 0.97080 0.73420 0.63110
H14 H 0.98230 0.54570 0.61140
H15 H 1.03410 0.67980 0.28240
H16 H 1.07110 0.78920 0.35620
H17 H 1.10220 0.87080 0.28480
H18 H 0.61270 1.00610 0.05670
H19 H 0.50300 0.95140 0.07520
H20 H 0.60410 0.82870 0.08980
H21 H 0.65530 1.26770 0.13250
H22 H 0.64800 1.25670 0.21520
H23 H 0.53680 1.22910 0.14610
#END
