
#######################################################################
#
#                 Cambridge Crystallographic Data Centre
#                                CCDC
#
#######################################################################
#
# If this CIF has been generated from an entry in the Cambridge
# Structural Database, then it will include bibliographic, chemical,
# crystal, experimental, refinement or atomic coordinate data resulting
# from the CCDC's data processing and validation procedures.
#
#######################################################################

data_CSD_CIF_POKPUA
_audit_creation_date 1995-05-01
_audit_creation_method CSD-ConQuest-V1
_database_code_CSD POKPUA
_chemical_formula_sum 'C19 H23 N3 O9'
_chemical_formula_moiety
;
C19 H23 N3 O9
;
_journal_coden_Cambridge 35
_journal_volume 59
_journal_year 1994
_journal_page_first 355
_journal_name_full 'J.Org.Chem. '
loop_
_publ_author_name
"K.F.McClure"
"S.J.Danishefsky"
"G.K.Schulte"
_chemical_name_systematic
;
(+-)-(1a\a,3\a,8\a,9\a,9a\a)-8-(((Aminocarbonyl) 
oxy)methyl)-1-carbomethoxy-1,1a,2,8,9,9a-hexahydro-7,9-dimethoxy-3,9-epoxy-3H-
azirino(2,3-c)-(1)benzazocine-5-carboxylic acid methyl ester
;
_chemical_melting_point 475.15
_cell_volume    983.301
_exptl_crystal_colour 'colorless'
_exptl_special_details
;
Melts with decomposition.

;
_diffrn_ambient_temperature ?
_diffrn_special_details
;
The study was carried out at room temperature,in the range 283-303K

;
loop_
_citation_database_id_CSD
_citation_special_details
WARZIY "is a stereoisomer of this entry"
POKPOU "is a stereoisomer of this entry"
_symmetry_cell_setting triclinic
_symmetry_space_group_name_H-M 'P -1'
_symmetry_Int_Tables_number 2
loop_
_symmetry_equiv_pos_site_id
_symmetry_equiv_pos_as_xyz
1 x,y,z
2 -x,-y,-z
_cell_length_a 10.180(3)
_cell_length_b 10.979(3)
_cell_length_c 9.826(3)
_cell_angle_alpha 108.21(2)
_cell_angle_beta 100.12(2)
_cell_angle_gamma 71.05(2)
_cell_formula_units_Z 2
loop_
_atom_type_symbol
_atom_type_radius_bond
C 0.68
H 0.23
N 0.68
O 0.68
loop_
_atom_site_label
_atom_site_type_symbol
_atom_site_fract_x
_atom_site_fract_y
_atom_site_fract_z
O1 O 0.88000(17) 0.79181(17) 0.48894(17)
O2 O 0.86082(24) 0.28797(25) 0.77885(33)
O3 O 0.66213(18) 0.67110(18) 0.29582(18)
O4 O 0.47472(21) 0.62104(21) 0.15916(19)
O5 O 0.49860(17) 0.68535(18) 0.62315(19)
O6 O 1.03994(19) 0.37275(19) 0.85210(21)
O7 O 0.70122(18) 0.96208(18) 0.43852(18)
O8 O 0.78032(22) 1.05682(23) 1.05113(21)
O9 O 0.58648(19) 1.07081(20) 0.90098(19)
N1 N 0.95036(21) 0.71850(21) 0.59122(22)
N2 N 0.78546(21) 0.93594(21) 0.81315(21)
N3 N 0.69312(26) 0.51188(26) 0.09019(25)
C1 C 0.86217(25) 0.65707(24) 0.62744(24)
C2 C 0.92849(25) 0.55112(25) 0.68711(27)
C3 C 0.84931(26) 0.48800(25) 0.72543(27)
C4 C 0.70432(27) 0.52902(26) 0.70407(27)
C5 C 0.64018(25) 0.63475(24) 0.64505(26)
C6 C 0.71805(25) 0.69958(24) 0.60285(24)
C7 C 0.64671(25) 0.81648(24) 0.53963(25)
C8 C 0.75183(25) 0.88974(25) 0.53996(26)
C9 C 0.78259(26) 0.98010(25) 0.68637(27)
C10 C 0.91593(26) 0.93856(27) 0.77380(28)
C11 C 1.01439(26) 0.80539(28) 0.71172(29)
C12 C 0.91467(29) 0.37202(28) 0.78644(31)
C13 C 0.56844(26) 0.77630(27) 0.39419(27)
C14 C 0.6001(3) 0.60205(27) 0.17812(27)
C15 C 0.41218(29) 0.62038(31) 0.65632(32)
C16 C 1.11303(37) 0.26166(36) 0.91014(42)
C17 C 0.78702(32) 1.03699(31) 0.42268(32)
C18 C 0.50435(37) 1.16291(36) 1.01609(36)
C19 C 0.72261(28) 1.02790(26) 0.93322(28)
H1 H 0.78890 0.50360 0.11440
H2 H 0.66190 0.45720 0.00330
H3 H 1.02750 0.52180 0.70070
H4 H 0.65070 0.48470 0.72960
H5 H 0.57880 0.87770 0.60410
H6 H 0.74370 1.07390 0.69700
H7 H 0.95560 1.00820 0.83350
H8 H 1.04980 0.76220 0.78620
H9 H 1.08930 0.81990 0.67890
H10 H 0.53040 0.85240 0.35580
H11 H 0.49360 0.74610 0.40320
H12 H 0.31710 0.66450 0.63500
H13 H 0.43340 0.52960 0.59700
H14 H 0.42920 0.62140 0.75340
H15 H 1.06270 0.25810 0.98090
H16 H 1.12990 0.17990 0.83700
H17 H 1.20280 0.27260 0.95680
H18 H 0.87420 0.97800 0.39120
H19 H 0.74170 1.08300 0.34970
H20 H 0.79990 1.10080 0.50940
H21 H 0.53550 1.24310 1.05390
H22 H 0.40900 1.18880 0.98560
H23 H 0.51680 1.12450 1.09460
#END
