
#######################################################################
#
#                 Cambridge Crystallographic Data Centre
#                                CCDC
#
#######################################################################
#
# If this CIF has been generated from an entry in the Cambridge
# Structural Database, then it will include bibliographic, chemical,
# crystal, experimental, refinement or atomic coordinate data resulting
# from the CCDC's data processing and validation procedures.
#
#######################################################################

data_CSD_CIF_POKPOU
_audit_creation_date 1995-06-12
_audit_creation_method CSD-ConQuest-V1
_database_code_CSD POKPOU
_chemical_formula_sum 'C19 H23 N3 O9'
_chemical_formula_moiety
;
C19 H23 N3 O9
;
_journal_coden_Cambridge 35
_journal_volume 59
_journal_year 1994
_journal_page_first 355
_journal_name_full 'J.Org.Chem. '
loop_
_publ_author_name
"K.F.McClure"
"S.J.Danishefsky"
"G.K.Schulte"
_chemical_name_systematic
;
(+-)-(1a\a,3\b,8\b,9\b,9a\a)-8-(((Aminocarbonyl)oxy) 
methyl)-1-carbomethoxy-1,1a,2,8,9,9a-hexahydro-7,9-dimethoxy-3,9-epoxy-3H-azir
ino(2,3-c)-(1)benzazocine-5-carboxylic acid methyl ester
;
_chemical_melting_point 529.15
_cell_volume   2049.597
_exptl_crystal_colour 'colorless'
_exptl_special_details
;
Melts with decomposition.

;
_diffrn_ambient_temperature ?
_diffrn_special_details
;
The study was carried out at room temperature,in the range 283-303K

;
loop_
_citation_database_id_CSD
_citation_special_details
POKPUA "is a stereoisomer of this entry"
WARZIY "is a stereoisomer of this entry"
_symmetry_cell_setting monoclinic
_symmetry_space_group_name_H-M 'P 21/c'
_symmetry_Int_Tables_number 14
loop_
_symmetry_equiv_pos_site_id
_symmetry_equiv_pos_as_xyz
1 x,y,z
2 -x,1/2+y,1/2-z
3 -x,-y,-z
4 x,-1/2-y,-1/2+z
_cell_length_a 8.520(1)
_cell_length_b 10.002(2)
_cell_length_c 24.090(4)
_cell_angle_alpha 90
_cell_angle_beta 93.24(1)
_cell_angle_gamma 90
_cell_formula_units_Z 4
loop_
_atom_type_symbol
_atom_type_radius_bond
C 0.68
H 0.23
N 0.68
O 0.68
loop_
_atom_site_label
_atom_site_type_symbol
_atom_site_fract_x
_atom_site_fract_y
_atom_site_fract_z
O1 O 0.86153(33) 0.78704(28) 0.73602(12)
O2 O 1.31752(45) 0.97060(46) 0.54864(16)
O3 O 0.59870(34) 0.78641(31) 0.65394(12)
O4 O 0.39185(41) 0.70281(37) 0.69680(17)
O5 O 0.69363(35) 1.16794(32) 0.62007(12)
O6 O 1.18468(40) 1.14918(37) 0.51624(14)
O7 O 0.65052(34) 0.85456(30) 0.78234(13)
O8 O 1.11617(44) 1.04686(39) 0.90742(14)
O9 O 0.85196(42) 1.03970(41) 0.90378(13)
N1 N 1.00439(41) 0.82040(37) 0.71005(15)
N2 N 0.97544(42) 0.93780(38) 0.83697(14)
N3 N 0.55879(50) 0.56838(45) 0.65241(22)
C1 C 0.97759(50) 0.91947(45) 0.66786(17)
C2 C 1.09644(49) 0.93547(48) 0.63096(18)
C3 C 1.07969(51) 1.03091(49) 0.58942(18)
C4 C 0.94591(50) 1.11198(49) 0.58409(18)
C5 C 0.82870(49) 1.09401(47) 0.62107(18)
C6 C 0.84218(49) 0.99793(45) 0.66345(17)
C7 C 0.71210(47) 0.98029(45) 0.70324(17)
C8 C 0.77732(49) 0.90428(44) 0.75386(18)
C9 C 0.88578(49) 0.99445(45) 0.78884(17)
C10 C 1.06024(48) 0.97615(43) 0.78810(17)
C11 C 1.11981(52) 0.86183(48) 0.75460(19)
C12 C 1.20735(60) 1.04483(59) 0.54982(19)
C13 C 0.56524(52) 0.91829(48) 0.67439(19)
C14 C 0.50525(56) 0.68631(53) 0.67039(21)
C15 C 0.66401(60) 1.25599(55) 0.57414(20)
C16 C 1.29753(64) 1.17097(63) 0.47469(21)
C17 C 0.6807(6) 0.75788(59) 0.82435(34)
C18 C 0.84803(85) 1.11535(78) 0.95428(25)
C19 C 0.99270(65) 1.01479(52) 0.88497(20)
H1 H 1.18900 0.87130 0.62840
H2 H 0.66320 0.55630 0.63500
H3 H 0.51430 0.47760 0.66790
H4 H 0.95410 1.19300 0.55250
H5 H 0.67100 1.08640 0.71430
H6 H 0.85130 1.09740 0.80100
H7 H 1.12970 1.06740 0.79210
H8 H 1.22730 0.87950 0.73480
H9 H 1.14660 0.77550 0.77930
H10 H 0.48550 0.91160 0.70040
H11 H 0.52960 0.97310 0.64430
H12 H 0.55450 1.30160 0.58030
H13 H 0.65860 1.19550 0.53390
H14 H 0.75100 1.34940 0.57170
H15 H 1.40090 1.18490 0.49120
H16 H 1.30160 1.09590 0.44980
H17 H 1.27020 1.24850 0.45220
H18 H 0.59020 0.71810 0.83600
H19 H 0.74530 0.68680 0.81680
H20 H 0.77530 0.77020 0.85220
H21 H 0.94450 1.16140 0.96060
H22 H 0.83330 1.05540 0.98430
H23 H 0.76380 1.17670 0.95110
#END
