
#######################################################################
#
#                 Cambridge Crystallographic Data Centre
#                                CCDC
#
#######################################################################
#
# If this CIF has been generated from an entry in the Cambridge
# Structural Database, then it will include bibliographic, chemical,
# crystal, experimental, refinement or atomic coordinate data resulting
# from the CCDC's data processing and validation procedures.
#
#######################################################################

data_CSD_CIF_POKRIS
_audit_creation_date 2014-05-28
_audit_creation_method CSD-ConQuest-V1
_database_code_CSD POKRIS
_database_code_depnum_ccdc_archive 'CCDC 995313'
_chemical_formula_sum 'C27 H21 N3 O3'
_chemical_formula_moiety
;
C27 H21 N3 O3
;
_journal_coden_Cambridge 1606
_journal_volume 3
_journal_year 2014
_journal_page_first 877
_journal_name_full 'Asian J.Org.Chem '
loop_
_publ_author_name
"Rongshun Chen"
"Xia Fan"
"Junyu Gong"
"Zhengjie He"
_chemical_name_systematic
;
6-(4-methoxyphenyl)-5-nitro-2,3-diphenylcyclohex-2-ene-1,1-dicarbonitrile
;
_cell_volume   2201.615
_exptl_crystal_density_diffrn 1.314
_diffrn_ambient_temperature 113
#These two values have been output from a single CSD field.
_refine_ls_R_factor_gt 0.0484
_refine_ls_wR_factor_gt 0.0484
_symmetry_cell_setting monoclinic
_symmetry_space_group_name_H-M 'P 21/n'
_symmetry_Int_Tables_number 14
loop_
_symmetry_equiv_pos_site_id
_symmetry_equiv_pos_as_xyz
1 x,y,z
2 1/2-x,1/2+y,1/2-z
3 -x,-y,-z
4 -1/2+x,-1/2-y,-1/2+z
_cell_length_a 7.6674(15)
_cell_length_b 11.430(2)
_cell_length_c 25.127(5)
_cell_angle_alpha 90
_cell_angle_beta 91.19(3)
_cell_angle_gamma 90
_cell_formula_units_Z 4
loop_
_atom_type_symbol
_atom_type_radius_bond
C 0.68
H 0.23
N 0.68
O 0.68
loop_
_atom_site_label
_atom_site_type_symbol
_atom_site_fract_x
_atom_site_fract_y
_atom_site_fract_z
O1 O 0.34836(18) 0.75060(12) 0.82699(5)
O2 O 0.19308(17) 0.90083(12) 0.84765(4)
O3 O 0.78342(16) 1.07962(10) 0.99835(4)
N1 N 0.30157(19) 0.85143(14) 0.82073(5)
N2 N 0.9937(2) 1.04241(13) 0.76013(5)
N3 N 0.5322(2) 1.22959(13) 0.75023(6)
C1 C 0.3858(2) 0.92230(14) 0.77703(6)
H1 H 0.33120 1.00170 0.77530
C2 C 0.3531(2) 0.85872(15) 0.72413(6)
H2 H 0.36560 0.77350 0.73000
H3 H 0.23170 0.87380 0.71180
C3 C 0.4762(2) 0.89597(13) 0.68099(6)
C4 C 0.6144(2) 0.96479(13) 0.68924(6)
C5 C 0.6555(2) 1.01517(13) 0.74529(6)
C6 C 0.5801(2) 0.93465(14) 0.78989(6)
H4 H 0.63380 0.85550 0.78570
C7 C 0.6264(2) 0.97705(13) 0.84565(6)
C8 C 0.5282(2) 1.05948(14) 0.87286(6)
H5 H 0.42660 1.09150 0.85610
C9 C 0.5757(2) 1.09587(14) 0.92398(6)
H6 H 0.50660 1.15150 0.94210
C10 C 0.7243(2) 1.05029(13) 0.94812(6)
C11 C 0.8253(2) 0.96895(13) 0.92143(6)
H7 H 0.92770 0.93800 0.93800
C12 C 0.7766(2) 0.93336(13) 0.87093(6)
H8 H 0.84660 0.87800 0.85290
C13 C 0.6925(3) 1.17141(15) 1.02466(7)
H9 H 0.69420 1.24220 1.00270
H10 H 0.74950 1.18740 1.05920
H11 H 0.57140 1.14750 1.03020
C14 C 0.8472(2) 1.02769(13) 0.75376(6)
C15 C 0.5853(2) 1.13600(14) 0.74875(6)
C16 C 0.7431(2) 0.99388(13) 0.64752(5)
C17 C 0.7667(2) 1.10883(14) 0.63057(6)
H12 H 0.69820 1.16970 0.64510
C18 C 0.8893(2) 1.13485(15) 0.59267(6)
H13 H 0.90470 1.21350 0.58140
C19 C 0.9894(2) 1.04680(15) 0.57109(6)
H14 H 1.07320 1.06490 0.54500
C20 C 0.9673(2) 0.93232(15) 0.58758(6)
H15 H 1.03590 0.87170 0.57280
C21 C 0.8445(2) 0.90605(14) 0.62578(6)
H16 H 0.83000 0.82740 0.63710
C22 C 0.4326(2) 0.84906(13) 0.62672(6)
C23 C 0.4161(2) 0.92459(15) 0.58309(6)
H17 H 0.43200 1.00630 0.58800
C24 C 0.3767(2) 0.88095(16) 0.53287(6)
H18 H 0.36630 0.93280 0.50340
C25 C 0.3527(2) 0.76247(16) 0.52550(7)
H19 H 0.32590 0.73280 0.49100
C26 C 0.3675(2) 0.68691(15) 0.56828(7)
H20 H 0.35110 0.60530 0.56310
C27 C 0.4062(2) 0.72985(14) 0.61883(6)
H21 H 0.41470 0.67760 0.64820
#END
