
#######################################################################
#
#                 Cambridge Crystallographic Data Centre
#                                CCDC
#
#######################################################################
#
# If this CIF has been generated from an entry in the Cambridge
# Structural Database, then it will include bibliographic, chemical,
# crystal, experimental, refinement or atomic coordinate data resulting
# from the CCDC's data processing and validation procedures.
#
#######################################################################

data_CSD_CIF_POLQEO
_audit_creation_date 2014-10-23
_audit_creation_method CSD-ConQuest-V1
_database_code_CSD POLQEO
_database_code_depnum_ccdc_archive 'CCDC 924573'
_chemical_formula_sum 'C23 H25 N1 O10'
_chemical_formula_moiety
;
C23 H25 N1 O10
;
_journal_coden_Cambridge 241
_journal_volume 43
_journal_year 2014
_journal_page_first 1607
_journal_name_full 'Chem.Lett. '
loop_
_publ_author_name
"H.Takikawa"
"Y.Hashimoto"
"K.Suzuki"
_chemical_name_systematic
;
methyl 
3-(2-(1,3-dioxan-2-yl)-4,6-dimethoxyphenyl)-5,5-dimethoxy-4-oxo-4,5-dihydro-1,
2-benzoxazole-6-carboxylate
;
_cell_volume   2247.059
_exptl_crystal_colour 'yellow'
_exptl_crystal_density_diffrn 1.405
_exptl_crystal_description 'block'
_diffrn_ambient_temperature 173
#These two values have been output from a single CSD field.
_refine_ls_R_factor_gt 0.0578
_refine_ls_wR_factor_gt 0.0578
_symmetry_cell_setting orthorhombic
_symmetry_space_group_name_H-M 'P c a 21'
_symmetry_Int_Tables_number 29
loop_
_symmetry_equiv_pos_site_id
_symmetry_equiv_pos_as_xyz
1 x,y,z
2 -x,-y,1/2+z
3 1/2-x,y,1/2+z
4 1/2+x,-y,z
_cell_length_a 32.538(6)
_cell_length_b 8.836(2)
_cell_length_c 7.8157(16)
_cell_angle_alpha 90
_cell_angle_beta 90
_cell_angle_gamma 90
_cell_formula_units_Z 4
loop_
_atom_type_symbol
_atom_type_radius_bond
C 0.68
H 0.23
N 0.68
O 0.68
loop_
_atom_site_label
_atom_site_type_symbol
_atom_site_fract_x
_atom_site_fract_y
_atom_site_fract_z
O1 O 0.84196(7) 0.9736(2) 0.2351(3)
O2 O 0.98369(9) 1.2441(3) 0.6084(3)
O3 O 0.96056(8) 1.3047(3) 0.3491(3)
O4 O 0.97259(6) 0.9158(2) 0.6329(3)
O5 O 0.92032(7) 1.0394(2) 0.7652(3)
O6 O 0.90810(8) 0.7159(3) 0.6598(3)
O7 O 0.88166(7) 0.5461(3) 0.2010(3)
O8 O 0.84501(7) 0.3295(2) 0.1363(3)
O9 O 0.76745(7) 0.2461(3) 0.6719(3)
O10 O 0.80273(8) 0.7668(3) 0.6905(3)
N1 N 0.81989(8) 0.8352(3) 0.2612(4)
C1 C 0.87190(9) 0.9788(4) 0.3519(4)
C2 C 0.90071(9) 1.1022(3) 0.3609(4)
H1 H 0.89890 1.18520 0.28400
C3 C 0.93004(10) 1.0967(3) 0.4803(4)
C4 C 0.93266(9) 0.9698(3) 0.6121(4)
C5 C 0.90329(10) 0.8320(4) 0.5789(4)
C6 C 0.87160(9) 0.8547(3) 0.4512(4)
C7 C 0.96103(10) 1.2208(4) 0.4908(4)
C8 C 0.98892(15) 1.4292(4) 0.3426(6)
H2 H 0.98800 1.48480 0.45110
H3 H 0.98130 1.49720 0.24870
H4 H 1.01680 1.39070 0.32360
C9 C 0.98864(12) 0.8488(4) 0.4798(5)
H5 H 0.99070 0.92600 0.39020
H6 H 0.97020 0.76770 0.44170
H7 H 1.01600 0.80680 0.50280
C10 C 0.92026(13) 0.9477(4) 0.9162(5)
H8 H 0.94420 0.88040 0.91490
H9 H 0.89510 0.88700 0.91960
H10 H 0.92150 1.01290 1.01750
C11 C 0.83799(9) 0.7664(3) 0.3882(4)
C12 C 0.82152(9) 0.6225(3) 0.4545(4)
C13 C 0.82302(9) 0.4861(3) 0.3674(4)
C14 C 0.80554(9) 0.3568(4) 0.4360(4)
H11 H 0.80690 0.26330 0.37620
C15 C 0.78594(9) 0.3657(4) 0.5933(4)
C16 C 0.78396(10) 0.5010(4) 0.6839(4)
H12 H 0.77020 0.50610 0.79100
C17 C 0.80230(9) 0.6271(3) 0.6151(4)
C18 C 0.84277(10) 0.4800(3) 0.1935(4)
H13 H 0.82550 0.53910 0.11160
C19 C 0.89947(13) 0.5540(5) 0.0329(5)
H14 H 0.92720 0.59950 0.04000
H15 H 0.88230 0.61920 -0.04130
C20 C 0.90239(13) 0.3981(5) -0.0434(5)
H16 H 0.91150 0.40510 -0.16390
H17 H 0.92280 0.33730 0.02060
C21 C 0.86117(12) 0.3228(4) -0.0351(4)
H18 H 0.84200 0.37390 -0.11460
H19 H 0.86380 0.21580 -0.07110
C22 C 0.76257(14) 0.1105(4) 0.5766(5)
H20 H 0.78950 0.06440 0.55690
H21 H 0.74960 0.13360 0.46640
H22 H 0.74520 0.04000 0.64070
C23 C 0.78604(11) 0.7819(4) 0.8571(4)
H23 H 0.80040 0.71330 0.93540
H24 H 0.75670 0.75620 0.85460
H25 H 0.78940 0.88650 0.89630
#END
