
#######################################################################
#
#                 Cambridge Crystallographic Data Centre
#                                CCDC
#
#######################################################################
#
# If this CIF has been generated from an entry in the Cambridge
# Structural Database, then it will include bibliographic, chemical,
# crystal, experimental, refinement or atomic coordinate data resulting
# from the CCDC's data processing and validation procedures.
#
#######################################################################

data_CSD_CIF_POLQIS
_audit_creation_date 2014-10-23
_audit_creation_method CSD-ConQuest-V1
_database_code_CSD POLQIS
_database_code_depnum_ccdc_archive 'CCDC 1001370'
_chemical_formula_sum 'C22 H25 N1 O9'
_chemical_formula_moiety
;
C22 H25 N1 O9
;
_journal_coden_Cambridge 241
_journal_volume 43
_journal_year 2014
_journal_page_first 1607
_journal_name_full 'Chem.Lett. '
loop_
_publ_author_name
"H.Takikawa"
"Y.Hashimoto"
"K.Suzuki"
_chemical_name_systematic
;
3-(2-(1,3-dioxan-2-yl)-4,6-dimethoxyphenyl)-5,5,6-trimethoxy-1,2-benzoxazol-4(
5H)-one
;
_cell_volume   2129.895
_exptl_crystal_colour 'colorless'
_exptl_crystal_density_diffrn 1.395
_exptl_crystal_description 'block'
_diffrn_ambient_temperature 173
#These two values have been output from a single CSD field.
_refine_ls_R_factor_gt 0.0507
_refine_ls_wR_factor_gt 0.0507
_symmetry_cell_setting monoclinic
_symmetry_space_group_name_H-M 'P 21/c'
_symmetry_Int_Tables_number 14
loop_
_symmetry_equiv_pos_site_id
_symmetry_equiv_pos_as_xyz
1 x,y,z
2 -x,1/2+y,1/2-z
3 -x,-y,-z
4 x,-1/2-y,-1/2+z
_cell_length_a 8.6568(17)
_cell_length_b 29.194(6)
_cell_length_c 8.529(2)
_cell_angle_alpha 90
_cell_angle_beta 98.841(9)
_cell_angle_gamma 90
_cell_formula_units_Z 4
loop_
_atom_type_symbol
_atom_type_radius_bond
C 0.68
H 0.23
N 0.68
O 0.68
loop_
_atom_site_label
_atom_site_type_symbol
_atom_site_fract_x
_atom_site_fract_y
_atom_site_fract_z
O1 O -0.20615(10) 0.36085(3) 0.29352(11)
O2 O -0.41032(10) 0.45789(3) 0.66767(11)
O3 O -0.10887(10) 0.48997(3) 0.66114(11)
O4 O -0.14131(10) 0.44016(3) 0.85848(10)
O5 O 0.12302(10) 0.41399(3) 0.72870(11)
O6 O 0.08860(11) 0.30931(3) 0.69827(11)
O7 O 0.60205(11) 0.26432(4) 0.63629(12)
O8 O 0.41117(11) 0.34677(3) 0.14008(11)
O9 O 0.29493(11) 0.40638(3) 0.26263(10)
N1 N -0.05781(12) 0.33811(4) 0.29540(13)
C1 C -0.19507(13) 0.38788(4) 0.42187(14)
C2 C -0.32779(13) 0.41153(4) 0.46399(14)
H1 H -0.42790 0.41000 0.40040
C3 C -0.30205(13) 0.43608(4) 0.59931(14)
C4 C -0.13887(13) 0.44409(4) 0.69528(14)
C5 C -0.00533(13) 0.41292(4) 0.64753(14)
C6 C -0.04675(13) 0.38631(4) 0.50487(14)
C7 C 0.03276(13) 0.35359(4) 0.42135(14)
C8 C -0.57078(15) 0.45204(5) 0.59428(17)
H2 H -0.63920 0.47000 0.65240
H3 H -0.59920 0.41960 0.59660
H4 H -0.58300 0.46260 0.48400
C9 C 0.03137(16) 0.51033(5) 0.74425(19)
H5 H 0.01960 0.54370 0.74480
H6 H 0.12010 0.50220 0.69100
H7 H 0.05000 0.49900 0.85370
C10 C -0.16840(19) 0.39448(6) 0.90709(19)
H8 H -0.07740 0.37540 0.89650
H9 H -0.26100 0.38200 0.84010
H10 H -0.18550 0.39460 1.01800
C11 C 0.18940(13) 0.33298(4) 0.47047(14)
C12 C 0.21271(14) 0.30935(4) 0.61664(15)
C13 C 0.35201(15) 0.28690(4) 0.66839(15)
H11 H 0.36710 0.27120 0.76710
C14 C 0.46996(14) 0.28758(4) 0.57406(15)
C15 C 0.45022(14) 0.31042(4) 0.42950(15)
H12 H 0.53150 0.31070 0.36630
C16 C 0.30895(14) 0.33305(4) 0.37815(14)
C17 C 0.09741(18) 0.28061(5) 0.83512(19)
H13 H 0.18420 0.29070 0.91530
H14 H 0.11480 0.24880 0.80520
H15 H -0.00070 0.28270 0.87870
C18 C 0.72355(17) 0.25974(6) 0.54244(19)
H16 H 0.76830 0.28990 0.52690
H17 H 0.68090 0.24660 0.43920
H18 H 0.80520 0.23960 0.59670
C19 C 0.28998(13) 0.35936(4) 0.22291(14)
H19 H 0.18680 0.35180 0.15810
C20 C 0.40575(17) 0.37215(5) -0.00525(16)
H20 H 0.30780 0.36500 -0.07720
H21 H 0.49480 0.36320 -0.05880
C21 C 0.41332(18) 0.42289(5) 0.02955(17)
H22 H 0.40070 0.44050 -0.07090
H23 H 0.51590 0.43080 0.09210
C22 C 0.28307(18) 0.43476(5) 0.12258(16)
H24 H 0.29060 0.46740 0.15380
H25 H 0.18050 0.42980 0.05550
#END
