
#######################################################################
#
#                 Cambridge Crystallographic Data Centre
#                                CCDC
#
#######################################################################
#
# If this CIF has been generated from an entry in the Cambridge
# Structural Database, then it will include bibliographic, chemical,
# crystal, experimental, refinement or atomic coordinate data resulting
# from the CCDC's data processing and validation procedures.
#
#######################################################################

data_CSD_CIF_POLZAR
_audit_creation_date 1995-09-14
_audit_creation_method CSD-ConQuest-V1
_database_code_CSD POLZAR
_database_code_depnum_ccdc_archive 'CCDC 1236574'
_chemical_formula_sum 'C21 H27 N1 O4'
_chemical_formula_moiety
;
C21 H27 N1 O4
;
_journal_coden_Cambridge 182
_journal_year 1994
_journal_page_first 2259
_journal_name_full 'Chem.Commun. '
loop_
_publ_author_name
"A.Srikrishna"
"C.V.Yelamaggad"
"K.Krishnan"
"M.Nethaji"
_chemical_name_systematic
;
exo-12-Normyltaylan-4-yl 4-nitrobenzoate
;
_chemical_melting_point 429.15
_cell_volume    944.592
_exptl_crystal_colour 'colorless'
_exptl_special_details
;
Melting point range 429.15-430.15K

;
_diffrn_ambient_temperature ?
_diffrn_special_details
;
The study was carried out at room temperature,in the range 283-303K

;
#These two values have been output from a single CSD field.
_refine_ls_R_factor_gt 0.071
_refine_ls_wR_factor_gt 0.071
_symmetry_cell_setting triclinic
_symmetry_space_group_name_H-M 'P -1'
_symmetry_Int_Tables_number 2
loop_
_symmetry_equiv_pos_site_id
_symmetry_equiv_pos_as_xyz
1 x,y,z
2 -x,-y,-z
_cell_length_a 7.058
_cell_length_b 7.655
_cell_length_c 18.435
_cell_angle_alpha 90.15
_cell_angle_beta 95.39
_cell_angle_gamma 107.62
_cell_formula_units_Z 2
loop_
_atom_type_symbol
_atom_type_radius_bond
C 0.68
H 0.23
N 0.68
O 0.68
loop_
_atom_site_label
_atom_site_type_symbol
_atom_site_fract_x
_atom_site_fract_y
_atom_site_fract_z
C1 C -0.0242(5) 0.4429(5) 0.8642(2)
C2 C -0.0638(5) 0.2954(5) 0.8030(2)
C3 C 0.0901(5) 0.3837(4) 0.7493(2)
C4 C 0.0109(4) 0.5270(5) 0.7127(2)
C5 C 0.0527(4) 0.6780(4) 0.7725(2)
C6 C 0.1479(4) 0.6000(4) 0.8401(1)
C7 C 0.2708(4) 0.4932(4) 0.8018(2)
C8 C 0.4475(4) 0.6287(4) 0.7700(2)
C9 C 0.5720(4) 0.7714(4) 0.8272(2)
C10 C 0.4489(5) 0.8741(4) 0.8626(2)
C11 C 0.2676(4) 0.7499(4) 0.8969(2)
C12 C 0.3541(6) 0.3602(5) 0.8476(2)
C13 C 0.1372(6) 0.8666(5) 0.9192(2)
C14 C 0.3398(6) 0.6705(5) 0.9671(2)
O1 O 0.1202(3) 0.5897(4) 0.6496(1)
C15 C 0.0391(5) 0.6691(5) 0.5958(2)
O2 O -0.1221(4) 0.6917(4) 0.5956(1)
C16 C 0.1723(4) 0.7192(4) 0.5367(2)
C17 C 0.3584(5) 0.6875(5) 0.5410(2)
C18 C 0.4782(5) 0.7371(5) 0.4856(2)
C19 C 0.4155(5) 0.8216(4) 0.4265(2)
C20 C 0.2333(5) 0.8548(5) 0.4208(2)
C21 C 0.1126(5) 0.8040(5) 0.4759(2)
N1 N 0.5469(5) 0.8768(4) 0.3682(1)
O3 O 0.7118(5) 0.8572(5) 0.3756(2)
O4 O 0.4904(5) 0.9517(5) 0.3160(2)
H1 H -0.0019(73) 0.4004(62) 0.9099(27)
H2 H -0.1432(58) 0.4715(49) 0.8717(20)
H3 H -0.1960(51) 0.2567(44) 0.7794(18)
H4 H -0.053(6) 0.1844(51) 0.8182(20)
H5 H 0.1036(53) 0.2979(46) 0.7140(19)
H6 H -0.1267(46) 0.4799(39) 0.6887(16)
H7 H -0.0802(60) 0.683(51) 0.7801(21)
H8 H 0.1508(49) 0.7966(42) 0.7558(17)
H9 H 0.5163(54) 0.5654(48) 0.7512(19)
H10 H 0.4164(48) 0.6991(42) 0.7329(17)
H11 H 0.6719(48) 0.8589(44) 0.8030(18)
H12 H 0.6280(47) 0.7013(40) 0.8670(16)
H13 H 0.4018(43) 0.9582(37) 0.8231(16)
H14 H 0.5385(51) 0.9660(44) 0.9000(19)
H15 H 0.3545(63) 0.2636(52) 0.8142(22)
H16 H 0.2552(67) 0.2859(59) 0.8800(23)
H17 H 0.4861(51) 0.4202(42) 0.8857(18)
H18 H 0.1031(68) 0.9490(57) 0.8710(24)
H19 H 0.2119(38) 0.9552(33) 0.9497(14)
H20 H 0.0296(56) 0.7778(49) 0.9414(20)
H21 H 0.4352(85) 0.590(7) 0.9559(29)
H22 H 0.2409(64) 0.5740(54) 0.9902(22)
H23 H 0.4012(47) 0.7713(40) 0.9964(17)
H24 H 0.3890(52) 0.6257(45) 0.5825(18)
H25 H 0.6089(62) 0.7223(52) 0.4861(22)
H26 H 0.2123(79) 0.9286(66) 0.3797(27)
H27 H -0.0097(59) 0.8238(52) 0.4731(22)
#END
