
#######################################################################
#
#                 Cambridge Crystallographic Data Centre
#                                CCDC
#
#######################################################################
#
# If this CIF has been generated from an entry in the Cambridge
# Structural Database, then it will include bibliographic, chemical,
# crystal, experimental, refinement or atomic coordinate data resulting
# from the CCDC's data processing and validation procedures.
#
#######################################################################

data_CSD_CIF_POMVAP
_audit_creation_date 2009-03-09
_audit_creation_method CSD-ConQuest-V1
_database_code_CSD POMVAP
_database_code_depnum_ccdc_archive 'CCDC 717381'
_chemical_formula_sum 'C18 H16 N2 O4'
_chemical_formula_moiety
;
C18 H16 N2 O4
;
_journal_coeditor_code "IUCr RZ2278"
_journal_coden_Cambridge 1370
_journal_volume 65
_journal_year 2009
_journal_page_first o198
_journal_name_full 'Acta Crystallogr.,Sect.E:Struct.Rep.Online '
loop_
_publ_author_name
"A.J.Bortoluzzi"
"T.B.Bisol"
"M.M.Sa"
_chemical_name_systematic
;
(E,E)-Methyl 2-((3-nitrobenzylidene)aminomethyl)-3-phenylpropenoate
;
_chemical_melting_point 387.45
_cell_volume    813.921
_exptl_crystal_colour 'colorless'
_exptl_crystal_density_diffrn 1.323
_exptl_special_details
;
Melting point range 387.45-388.45K

;
_exptl_crystal_description 'irregular block'
_exptl_crystal_preparation 'ethyl acetate/hexane'
_diffrn_ambient_temperature 293
#These two values have been output from a single CSD field.
_refine_ls_R_factor_gt 0.0432
_refine_ls_wR_factor_gt 0.0432
_symmetry_cell_setting triclinic
_symmetry_space_group_name_H-M 'P -1'
_symmetry_Int_Tables_number 2
loop_
_symmetry_equiv_pos_site_id
_symmetry_equiv_pos_as_xyz
1 x,y,z
2 -x,-y,-z
_cell_length_a 8.6035(12)
_cell_length_b 8.7829(14)
_cell_length_c 12.4680(14)
_cell_angle_alpha 79.275(18)
_cell_angle_beta 76.526(13)
_cell_angle_gamma 63.158(14)
_cell_formula_units_Z 2
loop_
_atom_type_symbol
_atom_type_radius_bond
C 0.68
H 0.23
N 0.68
O 0.68
loop_
_atom_site_label
_atom_site_type_symbol
_atom_site_fract_x
_atom_site_fract_y
_atom_site_fract_z
C1 C 0.1755(2) 0.5606(2) 0.77725(14)
H1 H 0.16480 0.66150 0.79830
N1 N 0.1722(2) 0.55429(18) 0.67793(12)
C2 C 0.1642(3) 0.7065(2) 0.60179(15)
H2 H 0.27000 0.67410 0.54590
H3 H 0.16270 0.79080 0.64300
C3 C 0.0043(2) 0.7874(2) 0.54518(14)
C4 C 0.0074(2) 0.7661(2) 0.44100(14)
H4 H -0.09600 0.83300 0.41210
C5 C -0.1594(3) 0.9030(2) 0.61246(15)
O1 O -0.1704(2) 0.91839(19) 0.70815(11)
O2 O -0.29582(18) 0.98968(18) 0.55747(11)
C6 C -0.4579(3) 1.1040(3) 0.6204(2)
H5 H -0.49230 1.04110 0.68550
H6 H -0.54930 1.15320 0.57580
H7 H -0.43980 1.19360 0.64160
C7 C 0.1958(2) 0.4135(2) 0.86183(14)
C8 C 0.1900(2) 0.2681(2) 0.83818(13)
H8 H 0.17260 0.26100 0.76870
C9 C 0.2104(2) 0.1340(2) 0.91989(14)
N2 N 0.2048(2) -0.01950(19) 0.89347(14)
O3 O 0.2052(2) -0.03191(17) 0.79774(13)
O4 O 0.2022(3) -0.13071(19) 0.96882(14)
C10 C 0.2357(3) 0.1386(3) 1.02445(15)
H9 H 0.24870 0.04650 1.07800
C11 C 0.2412(3) 0.2832(3) 1.04694(16)
H10 H 0.25820 0.28960 1.11660
C12 C 0.2215(3) 0.4193(3) 0.96652(15)
H11 H 0.22550 0.51630 0.98290
C13 C 0.1565(2) 0.6482(2) 0.36716(14)
C14 C 0.1946(3) 0.7024(2) 0.25635(15)
H12 H 0.12520 0.81330 0.22940
C15 C 0.3330(3) 0.5951(3) 0.18584(17)
H13 H 0.35780 0.63450 0.11220
C16 C 0.4353(3) 0.4296(3) 0.22366(18)
H14 H 0.52840 0.35670 0.17580
C17 C 0.3986(3) 0.3727(3) 0.33283(19)
H15 H 0.46710 0.26070 0.35850
C18 C 0.2610(3) 0.4802(2) 0.40479(17)
H16 H 0.23790 0.44050 0.47850
#END
