
#######################################################################
#
#                 Cambridge Crystallographic Data Centre
#                                CCDC
#
#######################################################################
#
# If this CIF has been generated from an entry in the Cambridge
# Structural Database, then it will include bibliographic, chemical,
# crystal, experimental, refinement or atomic coordinate data resulting
# from the CCDC's data processing and validation procedures.
#
#######################################################################

data_CSD_CIF_POMWOE
_audit_creation_date 2009-03-09
_audit_creation_method CSD-ConQuest-V1
_database_code_CSD POMWOE
_database_code_depnum_ccdc_archive 'CCDC 717389'
_chemical_formula_sum 'C12 H11 N1 O4'
_chemical_formula_moiety
;
C12 H11 N1 O4
;
_journal_coeditor_code "IUCr IS2374"
_journal_coden_Cambridge 1370
_journal_volume 65
_journal_year 2009
_journal_page_first o210
_journal_name_full 'Acta Crystallogr.,Sect.E:Struct.Rep.Online '
loop_
_publ_author_name
"Chuanbing Wu"
_chemical_name_systematic
;
3-(3-Nitrobenzylidene)pentane-2,4-dione
;
_cell_volume   1152.177
_exptl_crystal_colour 'colorless'
_exptl_crystal_density_diffrn 1.344
_exptl_crystal_description 'block'
_exptl_crystal_preparation 'ethanol'
_diffrn_ambient_temperature 298
#These two values have been output from a single CSD field.
_refine_ls_R_factor_gt 0.0681
_refine_ls_wR_factor_gt 0.0681
_symmetry_cell_setting monoclinic
_symmetry_space_group_name_H-M 'P 21/c'
_symmetry_Int_Tables_number 14
loop_
_symmetry_equiv_pos_site_id
_symmetry_equiv_pos_as_xyz
1 x,y,z
2 -x,1/2+y,1/2-z
3 -x,-y,-z
4 x,-1/2-y,-1/2+z
_cell_length_a 16.0634(9)
_cell_length_b 5.2470(3)
_cell_length_c 14.9774(9)
_cell_angle_alpha 90
_cell_angle_beta 114.117(1)
_cell_angle_gamma 90
_cell_formula_units_Z 4
loop_
_atom_type_symbol
_atom_type_radius_bond
C 0.68
H 0.23
N 0.68
O 0.68
loop_
_atom_site_label
_atom_site_type_symbol
_atom_site_fract_x
_atom_site_fract_y
_atom_site_fract_z
C1 C 0.37414(19) -0.0732(5) 0.46603(19)
C2 C 0.31796(19) 0.1238(5) 0.4642(2)
C3 C 0.30722(19) 0.1886(5) 0.54900(19)
C4 C 0.3576(2) 0.0531(6) 0.6342(2)
C5 C 0.4149(2) -0.1425(6) 0.6345(2)
C6 C 0.4239(2) -0.2098(6) 0.5501(2)
C7 C 0.2427(2) 0.3821(5) 0.5535(2)
C8 C 0.1758(2) 0.5058(5) 0.4812(2)
C9 C 0.1551(2) 0.4824(5) 0.3737(2)
C10 C 0.0895(2) 0.2825(6) 0.3165(2)
C11 C 0.1120(2) 0.6808(6) 0.5006(2)
C12 C 0.1252(3) 0.7457(7) 0.6020(2)
H1 H 0.28710 0.21420 0.40660
H2 H 0.35240 0.09570 0.69190
H3 H 0.44780 -0.22990 0.69230
H4 H 0.46210 -0.34260 0.54960
H5 H 0.24940 0.42540 0.61630
H6 H 0.08080 0.29200 0.24920
H7 H 0.03220 0.30870 0.32110
H8 H 0.11320 0.11770 0.34230
H9 H 0.08310 0.87740 0.60040
H10 H 0.18650 0.80450 0.63800
H11 H 0.11460 0.59710 0.63330
O1 O 0.34549(17) -0.0057(5) 0.30328(15)
O2 O 0.4208(2) -0.3406(5) 0.37212(17)
O3 O 0.19108(17) 0.6251(4) 0.33704(16)
O4 O 0.04744(19) 0.7640(5) 0.43075(17)
N1 N 0.38064(17) -0.1449(5) 0.37404(18)
#END
