
#######################################################################
#
#                 Cambridge Crystallographic Data Centre
#                                CCDC
#
#######################################################################
#
# If this CIF has been generated from an entry in the Cambridge
# Structural Database, then it will include bibliographic, chemical,
# crystal, experimental, refinement or atomic coordinate data resulting
# from the CCDC's data processing and validation procedures.
#
#######################################################################

data_CSD_CIF_PONQOZ
_audit_creation_date 2009-03-09
_audit_creation_method CSD-ConQuest-V1
_database_code_CSD PONQOZ
_database_code_depnum_ccdc_archive 'CCDC 721992'
_chemical_formula_sum 'C11 H14 N2 O4'
_chemical_formula_moiety
;
C11 H14 N2 O4
;
_journal_coeditor_code "IUCr HK2598"
_journal_coden_Cambridge 1370
_journal_volume 65
_journal_year 2009
_journal_page_first o227
_journal_name_full 'Acta Crystallogr.,Sect.E:Struct.Rep.Online '
loop_
_publ_author_name
"Hao-Yuan Li"
"Bo-Nian Liu"
"Shi-Gui Tang"
"Cheng Guo"
_chemical_name_systematic
;
Ethyl 4-ethylamino-3-nitrobenzoate
;
_cell_volume    578.845
_exptl_crystal_colour 'colorless'
_exptl_crystal_density_diffrn 1.367
_exptl_crystal_description 'block'
_exptl_crystal_preparation 'ethanol'
_diffrn_ambient_temperature 294
#These two values have been output from a single CSD field.
_refine_ls_R_factor_gt 0.0765
_refine_ls_wR_factor_gt 0.0765
_symmetry_cell_setting monoclinic
_symmetry_space_group_name_H-M 'P 21'
_symmetry_Int_Tables_number 4
loop_
_symmetry_equiv_pos_site_id
_symmetry_equiv_pos_as_xyz
1 x,y,z
2 -x,1/2+y,-z
_cell_length_a 4.2360(8)
_cell_length_b 16.180(3)
_cell_length_c 8.4890(17)
_cell_angle_alpha 90
_cell_angle_beta 95.80(3)
_cell_angle_gamma 90
_cell_formula_units_Z 2
loop_
_atom_type_symbol
_atom_type_radius_bond
C 0.68
H 0.23
N 0.68
O 0.68
loop_
_atom_site_label
_atom_site_type_symbol
_atom_site_fract_x
_atom_site_fract_y
_atom_site_fract_z
O1 O 0.7012(15) 1.1050(4) 0.7940(7)
O2 O 0.9134(16) 1.1622(4) 0.5988(8)
O3 O 0.9764(13) 0.7330(4) 0.7615(6)
O4 O 0.7965(13) 0.8254(3) 0.9244(6)
N1 N 1.2210(17) 1.0712(5) 0.4054(8)
H1 H 1.15910 1.12040 0.42560
N2 N 0.8667(17) 1.0957(5) 0.6810(9)
C1 C 1.212(2) 1.0329(6) 0.1174(10)
H2 H 1.34430 1.02590 0.03280
H3 H 1.05710 1.07500 0.08910
H4 H 1.10690 0.98180 0.13550
C2 C 1.414(2) 1.0581(6) 0.2654(10)
H5 H 1.52460 1.10890 0.24530
H6 H 1.57190 1.01570 0.29250
C3 C 1.1440(15) 1.0085(4) 0.4988(7)
C4 C 0.9754(15) 1.0194(5) 0.6315(8)
C5 C 0.9015(15) 0.9543(4) 0.7232(8)
H7 H 0.78580 0.96460 0.80860
C6 C 0.9927(16) 0.8715(4) 0.6946(8)
C7 C 1.1639(14) 0.8632(4) 0.5582(7)
H8 H 1.23330 0.81050 0.53480
C8 C 1.2314(16) 0.9232(4) 0.4633(8)
H9 H 1.33420 0.91180 0.37400
C9 C 0.9235(16) 0.8047(4) 0.7942(8)
C10 C 0.7087(18) 0.7563(5) 1.0314(8)
H10 H 0.89160 0.72220 1.06500
H11 H 0.54320 0.72170 0.97870
C11 C 0.590(2) 0.8020(6) 1.1726(9)
H12 H 0.52110 0.76250 1.24630
H13 H 0.41570 0.83720 1.13570
H14 H 0.75900 0.83480 1.22400
#END
