
#######################################################################
#
#                 Cambridge Crystallographic Data Centre
#                                CCDC
#
#######################################################################
#
# If this CIF has been generated from an entry in the Cambridge
# Structural Database, then it will include bibliographic, chemical,
# crystal, experimental, refinement or atomic coordinate data resulting
# from the CCDC's data processing and validation procedures.
#
#######################################################################

data_CSD_CIF_PONWAS
_audit_creation_date 2014-10-24
_audit_creation_method CSD-ConQuest-V1
_database_code_CSD PONWAS
_database_code_depnum_ccdc_archive 'CCDC 1027341'
_chemical_formula_sum 'C10 H14 N2 O3'
_chemical_formula_moiety
;
C10 H14 N2 O3
;
_journal_coeditor_code "IUCr xu5825"
_journal_coden_Cambridge 1370
_journal_volume 70
_journal_year 2014
_journal_page_first 379
_journal_name_full 'Acta Crystallogr.,Sect.E:Struct.Rep.Online '
loop_
_publ_author_name
"B.Vigante"
"D.Stepanovs"
"A.Pelss"
"A.Mishnev"
_chemical_name_systematic
;
3-amino-5,5-dimethyl-2-(2-nitrovinyl)cyclohex-2-en-1-one
;
_chemical_melting_point 503
_cell_volume   2119.199
_exptl_crystal_colour 'yellow'
_exptl_crystal_density_diffrn 1.318
_exptl_crystal_description 'plate'
_diffrn_ambient_temperature 173
#These two values have been output from a single CSD field.
_refine_ls_R_factor_gt 0.0689
_refine_ls_wR_factor_gt 0.0689
_symmetry_cell_setting monoclinic
_symmetry_space_group_name_H-M 'P 21/c'
_symmetry_Int_Tables_number 14
loop_
_symmetry_equiv_pos_site_id
_symmetry_equiv_pos_as_xyz
1 x,y,z
2 -x,1/2+y,1/2-z
3 -x,-y,-z
4 x,-1/2-y,-1/2+z
_cell_length_a 11.3545(3)
_cell_length_b 18.1097(5)
_cell_length_c 10.4689(3)
_cell_angle_alpha 90
_cell_angle_beta 100.119(2)
_cell_angle_gamma 90
_cell_formula_units_Z 8
loop_
_atom_type_symbol
_atom_type_radius_bond
C 0.68
H 0.23
N 0.68
O 0.68
loop_
_atom_site_label
_atom_site_type_symbol
_atom_site_fract_x
_atom_site_fract_y
_atom_site_fract_z
O1 O 0.44423(12) 0.26776(8) 0.25500(13)
O2 O 0.55773(14) 0.50926(9) 0.20293(17)
O3 O 0.38755(15) 0.52829(9) 0.07970(17)
N1 N 0.09527(15) 0.33969(10) -0.03942(16)
H1 H 0.034(2) 0.3223(13) -0.087(2)
H2 H 0.1126(19) 0.3869(14) -0.043(2)
N2 N 0.45967(16) 0.48703(10) 0.14688(17)
C1 C 0.16406(16) 0.29331(11) 0.03826(18)
C2 C 0.11184(17) 0.21747(11) 0.0458(2)
H3 H 0.06190 0.20620 -0.03690
H4 H 0.06080 0.21790 0.11100
C3 C 0.20444(16) 0.15635(11) 0.07868(19)
C4 C 0.28813(18) 0.18035(11) 0.20157(19)
H5 H 0.24400 0.18070 0.27290
H6 H 0.35180 0.14420 0.22170
C5 C 0.34312(16) 0.25560(11) 0.19190(17)
C6 C 0.27637(16) 0.31205(11) 0.11171(17)
C7 C 0.32346(17) 0.38535(11) 0.10523(18)
H7 H 0.27380 0.41880 0.05430
C8 C 0.42972(18) 0.41153(11) 0.16320(19)
H8 H 0.48400 0.38050 0.21410
C9 C 0.27396(19) 0.14516(13) -0.0321(2)
H9 H 0.31070 0.19090 -0.05000
H10 H 0.22020 0.12920 -0.10830
H11 H 0.33470 0.10840 -0.00780
C10 C 0.14236(19) 0.08427(12) 0.1036(2)
H12 H 0.20150 0.04750 0.13440
H13 H 0.09380 0.06760 0.02440
H14 H 0.09270 0.09240 0.16770
O4 O 0.92300(13) 0.24275(8) 0.28241(13)
O5 O 1.04280(14) 0.48418(9) 0.22269(17)
O6 O 0.88174(16) 0.49987(9) 0.08349(18)
N3 N 0.59376(15) 0.31138(10) -0.04246(17)
H15 H 0.6104(19) 0.3611(14) -0.046(2)
H16 H 0.537(2) 0.2930(12) -0.097(2)
N4 N 0.94809(15) 0.46084(10) 0.16108(17)
C11 C 0.66003(16) 0.26509(11) 0.03703(18)
C12 C 0.61249(16) 0.18770(11) 0.03415(19)
H17 H 0.56990 0.17730 -0.05260
H18 H 0.55530 0.18470 0.09270
C13 C 0.70757(16) 0.12831(11) 0.07177(19)
C14 C 0.77921(18) 0.15161(11) 0.20286(19)
H19 H 0.72810 0.14770 0.26770
H20 H 0.84510 0.11740 0.22670
C15 C 0.82867(17) 0.22863(11) 0.20607(18)
C16 C 0.76642(16) 0.28498(11) 0.12114(18)
C17 C 0.81399(17) 0.35818(11) 0.11657(18)
H21 H 0.76780 0.39060 0.05960
C18 C 0.91564(18) 0.38621(11) 0.18294(19)
H22 H 0.96510 0.35720 0.24320
C19 C 0.78776(19) 0.12275(13) -0.0302(2)
H23 H 0.82370 0.16990 -0.04000
H24 H 0.74080 0.10800 -0.11160
H25 H 0.84930 0.08680 -0.00330
C20 C 0.6467(2) 0.05431(12) 0.0841(2)
H26 H 0.70560 0.01840 0.11990
H27 H 0.60740 0.03830 0.00000
H28 H 0.58880 0.05960 0.14020
#END
