
#######################################################################
#
#                 Cambridge Crystallographic Data Centre
#                                CCDC
#
#######################################################################
#
# If this CIF has been generated from an entry in the Cambridge
# Structural Database, then it will include bibliographic, chemical,
# crystal, experimental, refinement or atomic coordinate data resulting
# from the CCDC's data processing and validation procedures.
#
#######################################################################

data_CSD_CIF_PONWOF
_audit_creation_date 2009-03-09
_audit_creation_method CSD-ConQuest-V1
_database_code_CSD PONWOF
_database_code_depnum_ccdc_archive 'CCDC 722119'
_chemical_formula_sum 'C11 H12 N4 O5'
_chemical_formula_moiety
;
C11 H12 N4 O5
;
_journal_coeditor_code "IUCr LH2749"
_journal_coden_Cambridge 1370
_journal_volume 65
_journal_year 2009
_journal_page_first o396
_journal_name_full 'Acta Crystallogr.,Sect.E:Struct.Rep.Online '
loop_
_publ_author_name
"O.Vallat"
"A.-M.Buciumas"
"R.Neier"
"H.Stoeckli-Evans"
_chemical_name_systematic
;
rac-Methyl 4-azido-3-hydroxy-3-(2-nitrophenyl)butanoate
;
_cell_volume   1272.366
_exptl_crystal_colour 'colorless'
_exptl_crystal_density_diffrn 1.463
_exptl_crystal_description 'plate'
_exptl_crystal_preparation 'ether/hexane'
_diffrn_ambient_temperature 153
#These two values have been output from a single CSD field.
_refine_ls_R_factor_gt 0.0357
_refine_ls_wR_factor_gt 0.0357
_symmetry_cell_setting monoclinic
_symmetry_space_group_name_H-M 'P 21/n'
_symmetry_Int_Tables_number 14
loop_
_symmetry_equiv_pos_site_id
_symmetry_equiv_pos_as_xyz
1 x,y,z
2 1/2-x,1/2+y,1/2-z
3 -x,-y,-z
4 -1/2+x,-1/2-y,-1/2+z
_cell_length_a 9.4772(11)
_cell_length_b 14.0710(12)
_cell_length_c 10.1861(12)
_cell_angle_alpha 90
_cell_angle_beta 110.496(13)
_cell_angle_gamma 90
_cell_formula_units_Z 4
loop_
_atom_type_symbol
_atom_type_radius_bond
C 0.68
H 0.23
N 0.68
O 0.68
loop_
_atom_site_label
_atom_site_type_symbol
_atom_site_fract_x
_atom_site_fract_y
_atom_site_fract_z
O1 O 0.32528(17) -0.00702(10) 0.18798(17)
O2 O 0.39794(16) 0.06178(11) 0.39169(15)
O3 O 0.20867(11) 0.19457(8) 0.17217(12)
O4 O 0.13982(13) 0.26155(8) 0.41688(11)
O5 O -0.07815(12) 0.34053(9) 0.35528(11)
N1 N 0.30233(17) 0.02628(11) 0.28967(16)
N2 N -0.03288(14) 0.22705(10) -0.10334(13)
N3 N 0.08103(17) 0.25861(10) -0.12165(13)
N4 N 0.17267(19) 0.29547(14) -0.15016(17)
C1 C 0.1474(2) 0.01792(12) 0.29231(16)
C2 C 0.1235(3) -0.06299(14) 0.35997(18)
C3 C -0.0179(3) -0.07913(17) 0.3639(2)
C4 C -0.1334(3) -0.01579(16) 0.3016(2)
C5 C -0.1057(2) 0.06436(14) 0.23568(19)
C6 C 0.03622(18) 0.08457(11) 0.22890(15)
C7 C 0.05471(16) 0.17238(11) 0.14778(15)
C8 C -0.01067(19) 0.14495(13) -0.00855(16)
C9 C 0.02297(16) 0.28584(12) 0.32851(16)
C10 C -0.02665(18) 0.25954(13) 0.17665(17)
C11 C -0.0434(3) 0.36959(19) 0.4988(2)
H1 H 0.210(2) -0.1090(17) 0.404(2)
H2 H -0.039(3) -0.1301(18) 0.409(2)
H3 H 0.242(2) 0.2153(14) 0.253(2)
H4 H -0.235(3) -0.0267(16) 0.307(2)
H5 H -0.183(2) 0.1080(15) 0.186(2)
H6 H 0.0553(19) 0.0951(13) -0.0298(16)
H7 H -0.113(2) 0.1209(12) -0.0262(17)
H8 H -0.0016(19) 0.3118(13) 0.1284(17)
H9 H -0.133(2) 0.2515(14) 0.1442(19)
H10 H -0.035(3) 0.315(2) 0.560(3)
H11 H -0.128(3) 0.4060(17) 0.497(2)
H12 H 0.044(3) 0.4065(17) 0.525(2)
#END
