
#######################################################################
#
#                 Cambridge Crystallographic Data Centre
#                                CCDC
#
#######################################################################
#
# If this CIF has been generated from an entry in the Cambridge
# Structural Database, then it will include bibliographic, chemical,
# crystal, experimental, refinement or atomic coordinate data resulting
# from the CCDC's data processing and validation procedures.
#
#######################################################################

data_CSD_CIF_POPDED
_audit_creation_date 1995-10-10
_audit_creation_method CSD-ConQuest-V1
_database_code_CSD POPDED
_chemical_formula_sum 'C23 H28 N2 O5'
_chemical_formula_moiety
;
C23 H28 N2 O5
;
_journal_coden_Cambridge 4
_journal_volume 116
_journal_year 1994
_journal_page_first 9009
_journal_name_full 'J.Am.Chem.Soc. '
loop_
_publ_author_name
"J.Aube"
"S.Ghosh"
"M.Tanol"
_chemical_name_systematic
;
3-(2-(Spiro(5,6-diacetoxy-perhydroindan-2,3'-oxaziran)-2'-yl)ethyl)indole
;
_cell_volume   2273.997
_exptl_crystal_colour 'colorless'
_exptl_crystal_density_diffrn 1.205
_diffrn_ambient_temperature ?
_diffrn_special_details
;
The study was carried out at room temperature,in the range 283-303K

;
_refine_special_details
;
Carbonyl O29 is disordered over two positions.

;
#These two values have been output from a single CSD field.
_refine_ls_R_factor_gt 0.048
_refine_ls_wR_factor_gt 0.048
_symmetry_cell_setting orthorhombic
_symmetry_space_group_name_H-M 'P 21 21 21'
_symmetry_Int_Tables_number 19
loop_
_symmetry_equiv_pos_site_id
_symmetry_equiv_pos_as_xyz
1 x,y,z
2 1/2-x,-y,1/2+z
3 1/2+x,1/2-y,-z
4 -x,1/2+y,1/2-z
_cell_length_a 8.886
_cell_length_b 35.612
_cell_length_c 7.186
_cell_angle_alpha 90
_cell_angle_beta 90
_cell_angle_gamma 90
_cell_formula_units_Z 4
loop_
_atom_type_symbol
_atom_type_radius_bond
C 0.68
H 0.23
N 0.68
O 0.68
loop_
_atom_site_label
_atom_site_type_symbol
_atom_site_fract_x
_atom_site_fract_y
_atom_site_fract_z
O1 O 1.1493(4) 0.19654(8) 0.9822(4)
O2 O 0.9649(4) 0.03266(7) 0.4178(4)
O3 O 0.8294(6) 0.0399(2) 0.1594(8)
O4 O 1.2359(3) 0.06636(6) 0.3681(3)
O5 O 1.295(2) 0.0647(4) 0.065(1)
O6? O 1.231(1) 0.0406(3) 0.093(2)
N1 N 0.9969(4) 0.20800(9) 0.9044(4)
N2 N 0.8400(4) 0.2053(1) 0.2659(5)
C1 C 1.0849(4) 0.1770(1) 0.8324(5)
C2 C 1.0264(6) 0.1380(1) 0.8682(5)
C3 C 1.0065(4) 0.1218(1) 0.6769(5)
C4 C 0.9917(5) 0.0796(1) 0.6517(5)
C5 C 0.9746(4) 0.0726(1) 0.4437(5)
C6 C 1.1025(4) 0.0885(1) 0.3281(5)
C7 C 1.1356(5) 0.1295(1) 0.3674(5)
C8 C 1.1468(4) 0.1364(1) 0.5752(5)
C9 C 1.1584(5) 0.1770(1) 0.6408(6)
C10 C 1.0130(6) 0.2449(1) 0.8131(6)
C11 C 0.8679(6) 0.2549(1) 0.7138(6)
C12 C 0.8344(4) 0.2306(1) 0.5493(5)
C13 C 0.8904(4) 0.2339(1) 0.3777(6)
C14 C 0.7472(4) 0.1831(1) 0.3673(6)
C15 C 0.6664(6) 0.1510(1) 0.319(1)
C16 C 0.5833(6) 0.1335(2) 0.456(1)
C17 C 0.5769(6) 0.1486(2) 0.637(1)
C18 C 0.6530(5) 0.1798(1) 0.6854(8)
C19 C 0.7399(4) 0.1983(1) 0.5500(6)
C20 C 0.8877(6) 0.0194(2) 0.2732(7)
C21 C 0.889(1) -0.0222(2) 0.2696(9)
C22 C 1.3012(6) 0.0490(2) 0.2320(8)
C23 C 1.4317(8) 0.0256(2) 0.295(1)
H1 H 0.855(7) 0.202(2) 0.14(1)
H2 H 1.112(4) 0.1216(9) 0.926(5)
H3 H 0.938(5) 0.138(1) 0.945(7)
H4 H 0.924(4) 0.1354(9) 0.613(5)
H5 H 1.091(5) 0.066(1) 0.701(6)
H6 H 0.908(6) 0.066(1) 0.706(7)
H7 H 0.863(7) 0.087(2) 0.40(1)
H8 H 1.078(4) 0.087(1) 0.196(6)
H9 H 1.232(6) 0.135(1) 0.296(7)
H10 H 1.060(4) 0.146(1) 0.323(6)
H11 H 1.250(4) 0.1205(9) 0.624(5)
H12 H 1.095(4) 0.1959(9) 0.557(5)
H13 H 1.261(5) 0.185(1) 0.645(6)
H14 H 1.053(6) 0.261(1) 0.894(8)
H15 H 1.107(5) 0.246(1) 0.725(7)
H16 H 0.785(4) 0.256(1) 0.797(6)
H17 H 0.891(4) 0.282(1) 0.673(6)
H18 H 0.954(5) 0.253(1) 0.327(7)
H19 H 0.680(6) 0.141(1) 0.201(8)
H20 H 0.535(6) 0.111(1) 0.451(8)
H21 H 0.526(8) 0.134(2) 0.72(1)
H22 H 0.671(6) 0.193(1) 0.805(8)
H23 H 0.84250 -0.03200 0.38750
H24 H 0.83340 -0.03210 0.17190
H25 H 0.98900 -0.03210 0.27000
H26 H 1.40390 0.00800 0.38580
H27 H 1.48050 0.01400 0.19400
H28 H 1.50710 0.04250 0.35370
#END
