
#######################################################################
#
#                 Cambridge Crystallographic Data Centre
#                                CCDC
#
#######################################################################
#
# If this CIF has been generated from an entry in the Cambridge
# Structural Database, then it will include bibliographic, chemical,
# crystal, experimental, refinement or atomic coordinate data resulting
# from the CCDC's data processing and validation procedures.
#
#######################################################################

data_CSD_CIF_POQFEH
_audit_creation_date 2009-09-08
_audit_creation_method CSD-ConQuest-V1
_database_code_CSD POQFEH
_database_code_depnum_ccdc_archive 'CCDC 240769'
_chemical_formula_sum 'C17 H20 N4 O6'
_chemical_formula_moiety
;
C17 H20 N4 O6
;
_journal_coden_Cambridge 35
_journal_volume 70
_journal_year 2005
_journal_page_first 6417
_journal_name_full 'J.Org.Chem. '
loop_
_publ_author_name
"D.F.Taber"
"K.J.Frankowski"
_chemical_name_systematic
;
Ethyl 
2-((2,4-dinitrophenyl)hydrazono)-5-methylbicyclo[3.2.0]heptane-1-carboxylate
;
_cell_volume   1779.671
_exptl_crystal_colour 'yellow'
_exptl_crystal_density_diffrn 1.405
_exptl_crystal_description 'block'
_diffrn_ambient_temperature 293
#These two values have been output from a single CSD field.
_refine_ls_R_factor_gt 0.0443
_refine_ls_wR_factor_gt 0.0443
_symmetry_cell_setting orthorhombic
_symmetry_space_group_name_H-M 'P 21 21 21'
_symmetry_Int_Tables_number 19
loop_
_symmetry_equiv_pos_site_id
_symmetry_equiv_pos_as_xyz
1 x,y,z
2 1/2-x,-y,1/2+z
3 -x,1/2+y,1/2-z
4 1/2+x,1/2-y,-z
_cell_length_a 6.523(3)
_cell_length_b 13.617(7)
_cell_length_c 20.036(10)
_cell_angle_alpha 90
_cell_angle_beta 90
_cell_angle_gamma 90
_cell_formula_units_Z 4
loop_
_atom_type_symbol
_atom_type_radius_bond
C 0.68
H 0.23
N 0.68
O 0.68
loop_
_atom_site_label
_atom_site_type_symbol
_atom_site_fract_x
_atom_site_fract_y
_atom_site_fract_z
C1 C 0.9343(3) 1.06568(13) 0.09395(8)
C2 C 0.9881(3) 1.13011(13) 0.03545(9)
H1 H 0.86700 1.14630 0.00960
H2 H 1.08710 1.09820 0.00660
C3 C 1.0802(3) 1.22254(14) 0.0679(1)
H3 H 1.22670 1.21480 0.07430
H4 H 1.05640 1.27970 0.04010
C4 C 0.9723(3) 1.23372(13) 0.13465(10)
C5 C 0.7406(3) 1.26022(14) 0.12998(10)
H5 H 0.70410 1.31910 0.15450
H6 H 0.68960 1.26330 0.08460
C6 C 0.6840(3) 1.16447(14) 0.16649(10)
H7 H 0.58100 1.12580 0.14350
H8 H 0.64720 1.17410 0.21290
C7 C 0.9065(3) 1.12590(13) 0.15639(9)
C8 C 1.0901(4) 1.29275(16) 0.18587(12)
H9 H 1.12000 1.35660 0.16810
H10 H 1.21590 1.25960 0.19640
H11 H 1.00900 1.29940 0.22560
C9 C 1.0102(3) 1.08442(14) 0.21734(9)
C10 C 1.3199(3) 1.01314(15) 0.25792(10)
H12 H 1.23300 0.98590 0.29260
H13 H 1.39910 1.06650 0.27700
C11 C 1.4597(4) 0.93592(17) 0.23125(11)
H14 H 1.54390 0.91110 0.26670
H15 H 1.54520 0.96360 0.19710
H16 H 1.37990 0.88330 0.21270
C12 C 0.9343(3) 0.82823(12) 0.02920(9)
C13 C 0.9351(3) 0.76935(13) 0.08779(9)
H17 H 0.93340 0.79960 0.12940
C14 C 0.9383(3) 0.66901(13) 0.08411(9)
H18 H 0.93910 0.63150 0.12290
C15 C 0.9402(3) 0.62354(12) 0.02173(9)
C16 C 0.9417(3) 0.67669(13) -0.03647(9)
H19 H 0.94480 0.64500 -0.07760
C17 C 0.9384(3) 0.77844(12) -0.03300(8)
N1 N 0.9108(2) 0.97250(11) 0.09539(7)
N2 N 0.9306(2) 0.9273(1) 0.03383(7)
H20 H 0.94050 0.96240 -0.00170
N3 N 0.9422(3) 0.83042(11) -0.09633(7)
N4 N 0.9424(3) 0.51677(11) 0.01782(9)
O1 O 0.9395(3) 1.08669(14) 0.27230(7)
O2 O 1.1949(2) 1.04915(10) 0.20286(6)
O3 O 0.9413(2) 0.92133(9) -0.09583(6)
O4 O 0.9487(3) 0.78304(10) -0.14786(6)
O5 O 0.9569(3) 0.47774(10) -0.03714(8)
O6 O 0.9276(3) 0.47025(11) 0.06972(8)
#END
