
#######################################################################
#
#                 Cambridge Crystallographic Data Centre
#                                CCDC
#
#######################################################################
#
# If this CIF has been generated from an entry in the Cambridge
# Structural Database, then it will include bibliographic, chemical,
# crystal, experimental, refinement or atomic coordinate data resulting
# from the CCDC's data processing and validation procedures.
#
#######################################################################

data_CSD_CIF_POQFOS
_audit_creation_date 2014-10-27
_audit_creation_method CSD-ConQuest-V1
_database_code_CSD POQFOS
_database_code_depnum_ccdc_archive 'CCDC 1031158'
_chemical_formula_sum 'C8 H8 N2 O4'
_chemical_formula_moiety
;
C8 H8 N2 O4
;
_journal_coden_Cambridge 1336
_journal_volume 17
_journal_year 2015
_journal_page_first 4666
_journal_name_full 'Org.Lett. '
loop_
_publ_author_name
"E.Salahifar"
"D.Nematollahi"
"M.Bayat"
"A.Mahyari"
"H.A.Rudbari"
_chemical_name_systematic
;
N-(4-hydroxy-3-nitrophenyl)acetamide
;
_cell_volume    880.829
_exptl_crystal_colour 'yellow'
_exptl_crystal_density_diffrn 1.479
_exptl_crystal_description 'irregular'
_diffrn_ambient_temperature 298
#These two values have been output from a single CSD field.
_refine_ls_R_factor_gt 0.029
_refine_ls_wR_factor_gt 0.029
_symmetry_cell_setting orthorhombic
_symmetry_space_group_name_H-M 'P 21 21 21'
_symmetry_Int_Tables_number 19
loop_
_symmetry_equiv_pos_site_id
_symmetry_equiv_pos_as_xyz
1 x,y,z
2 1/2-x,-y,1/2+z
3 1/2+x,1/2-y,-z
4 -x,1/2+y,1/2-z
_cell_length_a 4.888(1)
_cell_length_b 9.800(2)
_cell_length_c 18.388(4)
_cell_angle_alpha 90
_cell_angle_beta 90
_cell_angle_gamma 90
_cell_formula_units_Z 4
loop_
_atom_type_symbol
_atom_type_radius_bond
C 0.68
H 0.23
N 0.68
O 0.68
loop_
_atom_site_label
_atom_site_type_symbol
_atom_site_fract_x
_atom_site_fract_y
_atom_site_fract_z
O1 O 0.98525(19) 0.21736(10) 0.95695(5)
O2 O 0.6848(2) 0.31192(10) 0.88797(5)
N1 N 0.1256(2) -0.06871(11) 0.78260(6)
O3 O 0.0502(2) 0.14936(9) 0.74736(5)
O4 O 0.9132(2) -0.03218(12) 1.00170(6)
C1 C 0.4531(3) 0.07266(12) 0.85116(7)
H1 H 0.40690 0.15000 0.82460
C2 C 0.3256(3) -0.04941(13) 0.83735(6)
N2 N 0.7810(2) 0.21117(11) 0.91714(5)
C3 C 0.6529(3) 0.08002(13) 0.90551(7)
C4 C 0.3980(3) -0.16280(14) 0.87927(8)
H2 H 0.31210 -0.24590 0.87070
C5 C 0.0018(3) 0.02724(13) 0.74124(7)
C6 C 0.5923(3) -0.15416(15) 0.93258(8)
H3 H 0.63530 -0.23150 0.95960
C7 C 0.7265(3) -0.03256(14) 0.94728(7)
C8 C -0.2019(3) -0.02609(15) 0.68736(8)
H4 H -0.37260 0.02100 0.69340
H5 H -0.22890 -0.12200 0.69520
H6 H -0.13460 -0.01140 0.63890
H7 H 0.068(3) -0.1580(15) 0.7735(7)
H8 H 0.991(4) 0.051(2) 1.0054(9)
#END
