
#######################################################################
#
#                 Cambridge Crystallographic Data Centre
#                                CCDC
#
#######################################################################
#
# If this CIF has been generated from an entry in the Cambridge
# Structural Database, then it will include bibliographic, chemical,
# crystal, experimental, refinement or atomic coordinate data resulting
# from the CCDC's data processing and validation procedures.
#
#######################################################################

data_CSD_CIF_POQFIM
_audit_creation_date 2014-10-27
_audit_creation_method CSD-ConQuest-V1
_database_code_CSD POQFIM
_database_code_depnum_ccdc_archive 'CCDC 999628'
_chemical_formula_sum 'C13 H11 N3 O3'
_chemical_formula_moiety
;
C13 H11 N3 O3
;
_journal_coden_Cambridge 1220
_journal_volume 20
_journal_year 2014
_journal_page_first 9862
_journal_name_full 'Chem.-Eur.J. '
loop_
_publ_author_name
"B.Majhi"
"D.Kundu"
"S.Ahammed"
"B.C.Ranu"
_chemical_name_systematic
;
1-(4-methoxyphenyl)-2-(2-nitrophenyl)diazene
;
_cell_volume   2456.307
_diffrn_ambient_temperature 296
#These two values have been output from a single CSD field.
_refine_ls_R_factor_gt 0.0586
_refine_ls_wR_factor_gt 0.0586
_symmetry_cell_setting monoclinic
_symmetry_space_group_name_H-M 'P 21/c'
_symmetry_Int_Tables_number 14
loop_
_symmetry_equiv_pos_site_id
_symmetry_equiv_pos_as_xyz
1 x,y,z
2 -x,1/2+y,1/2-z
3 -x,-y,-z
4 x,-1/2-y,-1/2+z
_cell_length_a 3.9952(4)
_cell_length_b 41.652(4)
_cell_length_c 14.8255(16)
_cell_angle_alpha 90
_cell_angle_beta 95.357(4)
_cell_angle_gamma 90
_cell_formula_units_Z 8
loop_
_atom_type_symbol
_atom_type_radius_bond
C 0.68
H 0.23
N 0.68
O 0.68
loop_
_atom_site_label
_atom_site_type_symbol
_atom_site_fract_x
_atom_site_fract_y
_atom_site_fract_z
C1 C 1.1755(8) 0.37287(8) 0.4372(2)
C2 C 1.0637(8) 0.34127(8) 0.4361(2)
C3 C 0.7751(8) 0.28769(7) 0.5980(2)
C4 C 0.6746(9) 0.24084(8) 0.6857(2)
H1 H 0.68450 0.21870 0.69340
C5 C 0.5442(8) 0.25998(8) 0.7498(2)
C6 C 0.7890(9) 0.25462(8) 0.6107(2)
H2 H 0.87740 0.24170 0.56760
C7 C 0.5221(8) 0.29314(8) 0.7380(2)
H3 H 0.43100 0.30600 0.78080
C8 C 0.6373(8) 0.30663(8) 0.6618(2)
H4 H 0.62230 0.32870 0.65310
C9 C 0.3221(10) 0.26288(9) 0.8945(2)
H5 H 0.49420 0.27730 0.91920
H6 H 0.25890 0.24880 0.94130
H7 H 0.12960 0.27500 0.87040
C10 C 1.0693(9) 0.32398(8) 0.3555(2)
H8 H 0.98910 0.30300 0.35190
C11 C 1.1939(10) 0.33804(9) 0.2813(2)
H9 H 1.20110 0.32630 0.22820
C12 C 1.2972(9) 0.38696(9) 0.3626(3)
H10 H 1.37090 0.40810 0.36490
C13 C 1.3078(10) 0.36924(10) 0.2848(3)
H11 H 1.39220 0.37840 0.23440
O1 O 0.4461(6) 0.24439(6) 0.82396(16)
O2 O 1.3145(9) 0.38319(7) 0.58924(19)
O3 O 1.0135(9) 0.41728(7) 0.5126(2)
N1 N 0.9272(7) 0.32962(6) 0.51569(18)
N2 N 0.9103(7) 0.29967(6) 0.51927(17)
N3 N 1.1658(8) 0.39212(7) 0.5191(2)
C14 C 0.9145(9) 0.09308(8) 0.4650(2)
C15 C 0.6026(9) 0.01098(8) 0.8012(2)
C16 C 0.5368(9) 0.01064(8) 0.6396(2)
H12 H 0.45920 0.00060 0.58560
C17 C 0.4887(9) -0.00396(8) 0.7211(2)
H13 H 0.38030 -0.02370 0.72200
C18 C 0.7687(9) 0.04007(8) 0.7995(2)
H14 H 0.84920 0.04990 0.85350
C19 C 0.8153(9) 0.05453(8) 0.7187(2)
H15 H 0.92540 0.07420 0.71810
C20 C 0.8946(9) 0.12624(8) 0.4506(2)
C21 C 1.0745(10) 0.08753(10) 0.3138(3)
H16 H 1.13470 0.07440 0.26730
C22 C 1.0137(9) 0.07433(9) 0.3955(3)
H17 H 1.04000 0.05230 0.40420
C23 C 1.0465(11) 0.12034(11) 0.3004(3)
H18 H 1.08740 0.12920 0.24490
C24 C 0.3874(11) -0.02988(9) 0.8942(3)
H19 H 0.16400 -0.02800 0.86470
H20 H 0.37590 -0.03470 0.95710
H21 H 0.50390 -0.04680 0.86630
C25 C 0.959(1) 0.13961(10) 0.3687(3)
H22 H 0.94270 0.16170 0.36020
O4 O 0.5642(7) -0.00027(6) 0.88577(16)
O5 O 0.6053(9) 0.13801(7) 0.5745(2)
O6 O 0.8964(10) 0.17566(7) 0.5208(2)
N4 N 0.7305(7) 0.05337(7) 0.54983(18)
N5 N 0.8726(7) 0.08037(7) 0.55259(18)
N6 N 0.7911(9) 0.14797(9) 0.5206(2)
C26 C 0.6983(9) 0.03986(8) 0.6371(2)
#END
