
#######################################################################
#
#                 Cambridge Crystallographic Data Centre
#                                CCDC
#
#######################################################################
#
# If this CIF has been generated from an entry in the Cambridge
# Structural Database, then it will include bibliographic, chemical,
# crystal, experimental, refinement or atomic coordinate data resulting
# from the CCDC's data processing and validation procedures.
#
#######################################################################

data_CSD_CIF_POQQIX
_audit_creation_date 2014-10-27
_audit_creation_method CSD-ConQuest-V1
_database_code_CSD POQQIX
_database_code_depnum_ccdc_archive 'CCDC 960012'
_chemical_formula_sum 'C16 H19 N1 O6'
_chemical_formula_moiety
;
C16 H19 N1 O6
;
_journal_coden_Cambridge 1220
_journal_volume 20
_journal_year 2014
_journal_page_first 10160
_journal_name_full 'Chem.-Eur.J. '
loop_
_publ_author_name
"I.A.Yaremenko"
"A.O.Terent'ev"
"V.A.Vil'"
"R.A.Novikov"
"V.V.Chernyshev"
"V.A.Tafeenko"
"D.O.Levitsky"
"F.Fleury"
"G.I.Nikishin"
_chemical_name_systematic
;
1-((1R,2S,5S)-1,5-dimethyl-2-(4-nitrobenzyl)-6,7,8-trioxabicyclo[3.2.1]oct-2-y
l)ethanone
;
_cell_volume    796.291
_exptl_crystal_density_diffrn 1.34
_diffrn_ambient_temperature 295
#These two values have been output from a single CSD field.
_refine_ls_R_factor_gt 0.066
_refine_ls_wR_factor_gt 0.066
loop_
_citation_database_id_CSD
_citation_special_details
POQQET "is a stereoisomer of this entry"
_symmetry_cell_setting triclinic
_symmetry_space_group_name_H-M 'P -1'
_symmetry_Int_Tables_number 2
loop_
_symmetry_equiv_pos_site_id
_symmetry_equiv_pos_as_xyz
1 x,y,z
2 -x,-y,-z
_cell_length_a 8.165(1)
_cell_length_b 8.355(1)
_cell_length_c 13.678(2)
_cell_angle_alpha 79.38(2)
_cell_angle_beta 89.47(2)
_cell_angle_gamma 60.71(3)
_cell_formula_units_Z 2
loop_
_atom_type_symbol
_atom_type_radius_bond
C 0.68
H 0.23
N 0.68
O 0.68
loop_
_atom_site_label
_atom_site_type_symbol
_atom_site_fract_x
_atom_site_fract_y
_atom_site_fract_z
O1 O -0.0568(8) 0.7555(7) -0.3813(3)
O2 O 0.5336(6) 0.2516(7) 0.1538(3)
O3 O 0.6238(6) 0.0994(6) 0.0358(3)
O4 O -0.3811(6) 1.3917(6) -0.2777(3)
O5 O -0.4103(5) 1.2278(6) -0.2519(3)
O6 O -0.2843(4) 1.2274(5) -0.3973(2)
N1 N 0.5144(6) 0.2355(7) 0.0686(4)
C1 C -0.1156(6) 0.9530(6) -0.2655(3)
C2 C 0.0020(8) 0.8381(7) -0.3421(3)
C3 C 0.1870(8) 0.8133(10) -0.3632(4)
H1 H 0.24970 0.71230 -0.39800
H2 H 0.26060 0.78440 -0.30160
H3 H 0.17290 0.92680 -0.40390
C4 C -0.1438(6) 0.8207(7) -0.1807(3)
H4 H -0.23190 0.89560 -0.13790
H5 H -0.20070 0.76020 -0.21020
C5 C 0.0342(6) 0.6709(7) -0.1171(3)
C6 C 0.0815(7) 0.6914(7) -0.0239(3)
H6 H 0.00440 0.80130 -0.00170
C7 C 0.2408(7) 0.5513(7) 0.0355(3)
H7 H 0.27290 0.56800 0.09640
C8 C 0.3500(6) 0.3893(7) 0.0044(3)
C9 C 0.3108(7) 0.3611(7) -0.0871(3)
H8 H 0.38930 0.25020 -0.10800
C10 C 0.1523(8) 0.5019(7) -0.1461(3)
H9 H 0.12290 0.48390 -0.20720
C11 C -0.3104(7) 1.1096(7) -0.3192(3)
C12 C -0.2412(8) 1.3397(7) -0.3479(4)
C13 C -0.0247(7) 1.0499(7) -0.2225(3)
H10 H -0.08230 1.08770 -0.16240
H11 H 0.10810 0.96100 -0.20380
C14 C -0.0442(8) 1.2212(8) -0.2948(4)
H12 H -0.01670 1.29590 -0.25850
H13 H 0.04660 1.18120 -0.34380
C15 C -0.2764(11) 1.5139(9) -0.4219(5)
H14 H -0.19940 1.47860 -0.47610
H15 H -0.24520 1.58920 -0.38940
H16 H -0.40690 1.58450 -0.44740
C16 C -0.4436(9) 1.0530(9) -0.3564(5)
H17 H -0.54850 1.16070 -0.39700
H18 H -0.48850 1.00300 -0.30050
H19 H -0.37870 0.95940 -0.39550
#END
