
#######################################################################
#
#                 Cambridge Crystallographic Data Centre
#                                CCDC
#
#######################################################################
#
# If this CIF has been generated from an entry in the Cambridge
# Structural Database, then it will include bibliographic, chemical,
# crystal, experimental, refinement or atomic coordinate data resulting
# from the CCDC's data processing and validation procedures.
#
#######################################################################

data_CSD_CIF_POQQOD
_audit_creation_date 2014-10-27
_audit_creation_method CSD-ConQuest-V1
_database_code_CSD POQQOD
_database_code_depnum_ccdc_archive 'CCDC 960013'
_chemical_formula_sum 'C16 H19 N1 O6'
_chemical_formula_moiety
;
C16 H19 N1 O6
;
_journal_coden_Cambridge 1220
_journal_volume 20
_journal_year 2014
_journal_page_first 10160
_journal_name_full 'Chem.-Eur.J. '
loop_
_publ_author_name
"I.A.Yaremenko"
"A.O.Terent'ev"
"V.A.Vil'"
"R.A.Novikov"
"V.V.Chernyshev"
"V.A.Tafeenko"
"D.O.Levitsky"
"F.Fleury"
"G.I.Nikishin"
_chemical_name_systematic
;
1,3,6-trimethyl-7-(4-nitrobenzyl)-2,4,5,10-tetraoxatricyclo[4.3.1.0^3,7^]decan
e
;
_cell_volume   3217.448
_exptl_crystal_colour 'colorless'
_exptl_crystal_density_diffrn 1.327
_exptl_crystal_description 'prism'
_diffrn_ambient_temperature 295
#These two values have been output from a single CSD field.
_refine_ls_R_factor_gt 0.0468
_refine_ls_wR_factor_gt 0.0468
_symmetry_cell_setting monoclinic
_symmetry_space_group_name_H-M 'P 21/c'
_symmetry_Int_Tables_number 14
loop_
_symmetry_equiv_pos_site_id
_symmetry_equiv_pos_as_xyz
1 x,y,z
2 -x,1/2+y,1/2-z
3 -x,-y,-z
4 x,-1/2-y,-1/2+z
_cell_length_a 21.6183(6)
_cell_length_b 12.3631(3)
_cell_length_c 12.5682(3)
_cell_angle_alpha 90
_cell_angle_beta 106.698(3)
_cell_angle_gamma 90
_cell_formula_units_Z 8
loop_
_atom_type_symbol
_atom_type_radius_bond
C 0.68
H 0.23
N 0.68
O 0.68
loop_
_atom_site_label
_atom_site_type_symbol
_atom_site_fract_x
_atom_site_fract_y
_atom_site_fract_z
O1 O 0.04132(15) 0.2227(3) 0.1410(3)
O2 O 0.08616(14) 0.3754(2) 0.0834(2)
O3 O 0.14924(16) 0.1974(3) 0.2327(3)
O4 O 0.17799(13) 0.2939(3) 0.1938(3)
O5 O 0.1420(2) -0.2794(4) -0.2865(4)
O6 O 0.17162(18) -0.3575(3) -0.1260(4)
N1 N 0.15671(19) -0.2785(4) -0.1866(5)
C1 C 0.11986(16) 0.1978(3) 0.0400(3)
C2 C 0.1406(2) 0.3120(3) 0.0830(4)
C3 C 0.0985(2) 0.1641(4) 0.1383(4)
C4 C 0.06436(19) 0.2011(4) -0.0662(3)
H1 H 0.04870 0.12840 -0.08680
H2 H 0.07930 0.23070 -0.12600
C5 C 0.0096(2) 0.2710(4) -0.0495(5)
H3 H 0.00110 0.33070 -0.10180
H4 H -0.02950 0.22820 -0.06270
C6 C 0.0284(2) 0.3129(4) 0.0652(5)
C7 C -0.0200(2) 0.3835(4) 0.0974(5)
H5 H 0.00020 0.41740 0.16760
H6 H -0.05560 0.34010 0.10360
H7 H -0.03540 0.43810 0.04180
C8 C 0.0841(2) 0.0458(4) 0.1576(4)
H8 H 0.12390 0.00610 0.18100
H9 H 0.05720 0.01540 0.08980
H10 H 0.06230 0.04170 0.21400
C9 C 0.1824(2) 0.3796(3) 0.0311(4)
H11 H 0.18510 0.45200 0.05960
H12 H 0.16380 0.38100 -0.04810
H13 H 0.22490 0.34880 0.04870
C10 C 0.17892(18) 0.1362(3) 0.0283(4)
H14 H 0.20070 0.18250 -0.01190
H15 H 0.20810 0.12660 0.10230
C11 C 0.17002(18) 0.0264(4) -0.0281(4)
C12 C 0.1486(2) 0.0172(4) -0.1408(4)
H16 H 0.13670 0.07940 -0.18320
C13 C 0.1439(2) -0.0824(5) -0.1947(4)
H17 H 0.13010 -0.08730 -0.27170
C14 C 0.1602(2) -0.1713(4) -0.1302(5)
C15 C 0.1813(2) -0.1668(4) -0.0212(5)
H18 H 0.19310 -0.22980 0.02000
C16 C 0.18585(19) -0.0673(4) 0.0322(4)
H19 H 0.19970 -0.06430 0.10930
O7 O 0.46440(13) 0.2168(3) 0.5974(2)
O8 O 0.42228(13) 0.3751(2) 0.5019(2)
O9 O 0.35571(18) 0.1985(3) 0.5834(3)
O10 O 0.32904(14) 0.2975(3) 0.5182(3)
O11 O 0.3495(2) -0.2847(4) 0.0747(5)
O12 O 0.3084(2) -0.3539(4) 0.1973(4)
N2 N 0.3306(2) -0.2807(4) 0.1556(5)
C17 C 0.38464(17) 0.2005(3) 0.4189(3)
C18 C 0.3671(2) 0.3151(4) 0.4443(4)
C19 C 0.4059(2) 0.1629(4) 0.5378(4)
C20 C 0.44065(18) 0.2022(4) 0.3683(3)
H20 H 0.42660 0.23290 0.29420
H21 H 0.45550 0.12890 0.36260
C21 C 0.49597(19) 0.2701(4) 0.4417(5)
H22 H 0.53480 0.22650 0.46520
H23 H 0.50460 0.33110 0.39960
C22 C 0.4781(2) 0.3095(4) 0.5404(5)
C23 C 0.5294(2) 0.3760(4) 0.6200(4)
H24 H 0.54180 0.43490 0.58080
H25 H 0.56630 0.33150 0.65260
H26 H 0.51270 0.40410 0.67740
C24 C 0.4162(2) 0.0447(4) 0.5680(4)
H27 H 0.44190 0.03820 0.64400
H28 H 0.43810 0.01040 0.52050
H29 H 0.37520 0.01040 0.55890
C25 C 0.32669(19) 0.3872(4) 0.3531(4)
H30 H 0.32540 0.45890 0.38160
H31 H 0.28360 0.35880 0.32740
H32 H 0.34540 0.38940 0.29250
C26 C 0.32464(17) 0.1431(3) 0.3450(3)
H33 H 0.29330 0.13880 0.38670
H34 H 0.30630 0.18950 0.28160
C27 C 0.33096(19) 0.0315(4) 0.3011(4)
C28 C 0.35555(19) 0.0156(4) 0.2131(4)
H35 H 0.37220 0.07440 0.18440
C29 C 0.3563(2) -0.0868(5) 0.1652(4)
H36 H 0.37190 -0.09600 0.10410
C30 C 0.3334(2) -0.1726(4) 0.2114(5)
C31 C 0.3098(2) -0.1615(4) 0.2985(4)
H37 H 0.29470 -0.22150 0.32820
C32 C 0.30812(19) -0.0590(4) 0.3440(4)
H38 H 0.29150 -0.05090 0.40410
#END
