
#######################################################################
#
#                 Cambridge Crystallographic Data Centre
#                                CCDC
#
#######################################################################
#
# If this CIF has been generated from an entry in the Cambridge
# Structural Database, then it will include bibliographic, chemical,
# crystal, experimental, refinement or atomic coordinate data resulting
# from the CCDC's data processing and validation procedures.
#
#######################################################################

data_CSD_CIF_POQSIY
_audit_creation_date 2009-09-08
_audit_creation_method CSD-ConQuest-V1
_database_code_CSD POQSIY
_database_code_depnum_ccdc_archive 'CCDC 661274'
_chemical_formula_sum 'C23 H27 N1 O4'
_chemical_formula_moiety
;
C23 H27 N1 O4
;
_journal_coden_Cambridge 200
_journal_volume 73
_journal_year 2008
_journal_page_first 585
_journal_name_full 'Steroids '
loop_
_publ_author_name
"A.V.Baranovsky"
"D.A.Bolibrukh"
"J.R.Bull"
"A.S.Lyakhov"
"V.A.Khripach"
_chemical_name_systematic
;
(E)-16^1^-Acetoxyimino-14,16\b-ethano-3-methoxy-14\b-estra-1,3,5(10)-trien-17-
one
;
_chemical_name_common
;
(E)-17-(Acetoxyimino)-7-methoxy-14-methylpentacyclo[14.2.1.0$1,14!.0$2,11!.0$5
,10!]nonadeca-5,7,9-trien-15-one
;
_chemical_melting_point 456.15
_cell_volume   1488.155
_exptl_crystal_colour 'colorless'
_exptl_crystal_density_diffrn 1.277
_exptl_special_details
;
Melting point range 456.15-457.15K

;
_exptl_crystal_description 'prism'
_diffrn_ambient_temperature 292
#These two values have been output from a single CSD field.
_refine_ls_R_factor_gt 0.0422
_refine_ls_wR_factor_gt 0.0422
_symmetry_cell_setting hexagonal
_symmetry_space_group_name_H-M 'P 31'
_symmetry_Int_Tables_number 144
loop_
_symmetry_equiv_pos_site_id
_symmetry_equiv_pos_as_xyz
1 x,y,z
2 -y,x-y,1/3+z
3 -x+y,-x,2/3+z
_cell_length_a 10.780(2)
_cell_length_b 10.780(2)
_cell_length_c 14.787(4)
_cell_angle_alpha 90
_cell_angle_beta 90
_cell_angle_gamma 120
_cell_formula_units_Z 3
loop_
_atom_type_symbol
_atom_type_radius_bond
C 0.68
H 0.23
N 0.68
O 0.68
loop_
_atom_site_label
_atom_site_type_symbol
_atom_site_fract_x
_atom_site_fract_y
_atom_site_fract_z
C1 C 0.2757(3) 0.2820(3) 0.56827(17)
H1 H 0.24230 0.33600 0.59750
C2 C 0.2722(3) 0.2760(3) 0.47553(18)
H2 H 0.23600 0.32460 0.44300
C3 C 0.3227(2) 0.1975(3) 0.43044(16)
O1 O 0.3182(2) 0.2013(2) 0.33847(11)
C4 C 0.3771(2) 0.1262(2) 0.48004(16)
H3 H 0.41210 0.07420 0.45010
C5 C 0.3799(2) 0.1314(2) 0.57460(15)
C6 C 0.4372(3) 0.0490(3) 0.62472(16)
H4 H 0.52490 0.06550 0.59580
H5 H 0.36820 -0.05260 0.62050
C7 C 0.4673(2) 0.0905(3) 0.72387(16)
H6 H 0.55370 0.18320 0.72910
H7 H 0.48310 0.02080 0.75560
C8 C 0.3424(2) 0.0972(2) 0.76726(14)
H8 H 0.25460 0.00800 0.75220
C9 C 0.3321(2) 0.2204(2) 0.72326(15)
H9 H 0.42050 0.30870 0.73880
C10 C 0.3280(2) 0.2094(2) 0.62047(15)
C11 C 0.2091(3) 0.2336(3) 0.76353(17)
H10 H 0.11920 0.14640 0.75200
H11 H 0.20500 0.31250 0.73500
C12 C 0.2300(3) 0.2595(3) 0.86514(18)
H12 H 0.15170 0.26910 0.88950
H13 H 0.31830 0.34850 0.87620
C13 C 0.2359(2) 0.1368(3) 0.91410(16)
C14 C 0.3518(2) 0.1091(2) 0.87057(14)
C15 C 0.4915(3) 0.2320(3) 0.91220(17)
H14 H 0.50880 0.32620 0.89500
H15 H 0.57480 0.22320 0.89880
C16 C 0.4409(3) 0.1935(3) 1.01187(19)
H16 H 0.50900 0.25380 1.05860
C17 C 0.2994(3) 0.1924(3) 1.00827(16)
O2 O 0.2490(3) 0.2296(3) 1.06709(14)
C18 C 0.0862(3) 0.0065(3) 0.9217(2)
H17 H 0.08750 -0.06030 0.96410
H18 H 0.05620 -0.03850 0.86360
H19 H 0.02050 0.03620 0.94220
C19 C 0.3476(3) -0.0202(3) 0.91893(15)
H20 H 0.25130 -0.10210 0.92030
H21 H 0.41110 -0.04770 0.89010
C20 C 0.3990(3) 0.0385(3) 1.01235(17)
N1 N 0.4123(2) -0.0209(3) 1.08354(15)
O3 O 0.3728(2) -0.1668(2) 1.05973(13)
C21 C 0.3605(3) -0.2494(4) 1.1322(2)
O4 O 0.3624(3) -0.2121(4) 1.20807(16)
C22 C 0.3439(4) -0.3873(5) 1.1022(3)
H22 H 0.34100 -0.44240 1.15400
H23 H 0.42350 -0.37010 1.06450
H24 H 0.25650 -0.43930 1.06860
C23 C 0.3580(4) 0.1158(4) 0.2878(2)
H25 H 0.45900 0.15210 0.29430
H26 H 0.33570 0.11820 0.22520
H27 H 0.30630 0.01890 0.30940
#END
