
#######################################################################
#
#                 Cambridge Crystallographic Data Centre
#                                CCDC
#
#######################################################################
#
# If this CIF has been generated from an entry in the Cambridge
# Structural Database, then it will include bibliographic, chemical,
# crystal, experimental, refinement or atomic coordinate data resulting
# from the CCDC's data processing and validation procedures.
#
#######################################################################

data_CSD_CIF_POQSOE
_audit_creation_date 2009-09-08
_audit_creation_method CSD-ConQuest-V1
_database_code_CSD POQSOE
_database_code_depnum_ccdc_archive 'CCDC 658339'
_chemical_formula_sum 'C29 H42 N2 O6'
_chemical_formula_moiety
;
C29 H42 N2 O6
;
_journal_coden_Cambridge 200
_journal_volume 73
_journal_year 2008
_journal_page_first 657
_journal_name_full 'Steroids '
loop_
_publ_author_name
"Y.Lopez"
"K.M.Ruiz-Perez"
"R.Yepez"
"R.Santillan"
"M.Flores-Alamo"
"M.A.Iglesias-Arteaga"
_chemical_name_systematic
;
(25R)-3\b-Acetoxy-23-nitroamino-spirosta-5,23-diene
;
_chemical_melting_point 432.15
_cell_volume   1396.852
_exptl_crystal_colour 'colorless'
_exptl_crystal_density_diffrn 1.224
_exptl_special_details
;
Melting point range 432.15-434.15K

;
_exptl_crystal_description 'trigonal prism'
_exptl_crystal_preparation 'ethyl acetate/hexane'
_diffrn_ambient_temperature 298
#These two values have been output from a single CSD field.
_refine_ls_R_factor_gt 0.0431
_refine_ls_wR_factor_gt 0.0431
_symmetry_cell_setting monoclinic
_symmetry_space_group_name_H-M 'P 21'
_symmetry_Int_Tables_number 4
loop_
_symmetry_equiv_pos_site_id
_symmetry_equiv_pos_as_xyz
1 x,y,z
2 -x,1/2+y,-z
_cell_length_a 8.7330(19)
_cell_length_b 12.168(3)
_cell_length_c 13.556(3)
_cell_angle_alpha 90
_cell_angle_beta 104.141(12)
_cell_angle_gamma 90
_cell_formula_units_Z 2
loop_
_atom_type_symbol
_atom_type_radius_bond
C 0.68
H 0.23
N 0.68
O 0.68
loop_
_atom_site_label
_atom_site_type_symbol
_atom_site_fract_x
_atom_site_fract_y
_atom_site_fract_z
C1 C 0.0547(4) 0.5449(3) 0.6092(3)
H1 H 0.04180 0.48420 0.56150
H2 H 0.15080 0.53220 0.66160
C2 C -0.0862(4) 0.5468(3) 0.6584(3)
H3 H -0.18320 0.55430 0.60570
H4 H -0.09060 0.47760 0.69320
C3 C -0.0738(4) 0.6398(3) 0.7329(3)
H5 H 0.00990 0.62430 0.79410
C4 C -0.0431(4) 0.7496(3) 0.6878(3)
H6 H -0.14070 0.77510 0.64280
H7 H -0.01250 0.80270 0.74240
C5 C 0.0841(4) 0.7458(3) 0.6288(2)
C6 C 0.1954(5) 0.8226(3) 0.6431(3)
H8 H 0.19910 0.87330 0.69490
C7 C 0.3154(4) 0.8333(3) 0.5813(3)
H9 H 0.41760 0.81020 0.62200
H10 H 0.32350 0.90980 0.56310
C8 C 0.2723(4) 0.7640(3) 0.4843(2)
H11 H 0.18120 0.79800 0.43740
C9 C 0.2238(3) 0.6476(3) 0.5114(2)
H12 H 0.30900 0.62160 0.56780
C10 C 0.0720(3) 0.6528(3) 0.5528(2)
C11 C 0.2101(4) 0.5631(3) 0.4247(2)
H13 H 0.20340 0.49000 0.45190
H14 H 0.11270 0.57660 0.37370
C12 C 0.3487(4) 0.5660(3) 0.3728(3)
H15 H 0.44420 0.54090 0.42040
H16 H 0.32690 0.51660 0.31490
C13 C 0.3743(3) 0.6823(2) 0.3371(2)
C14 C 0.4069(3) 0.7575(3) 0.4314(2)
H17 H 0.49640 0.72480 0.48070
C15 C 0.4692(4) 0.8633(3) 0.3938(2)
H18 H 0.38360 0.90770 0.35430
H19 H 0.52940 0.90660 0.45010
C16 C 0.5747(4) 0.8199(3) 0.3275(2)
H20 H 0.68640 0.82690 0.36300
C17 C 0.5310(3) 0.6979(3) 0.3037(2)
H21 H 0.61260 0.65140 0.34630
C18 C 0.5359(4) 0.6835(3) 0.1914(2)
H22 H 0.42800 0.67000 0.15130
C19 C 0.6393(5) 0.5881(3) 0.1735(3)
H23 H 0.74460 0.59770 0.21480
H24 H 0.64160 0.58620 0.10310
H25 H 0.59670 0.52030 0.19140
C20 C 0.2300(3) 0.7201(3) 0.2548(2)
H26 H 0.20890 0.66800 0.20000
H27 H 0.25100 0.79080 0.22950
H28 H 0.14000 0.72520 0.28340
C21 C -0.0754(4) 0.6687(4) 0.4647(3)
H29 H -0.16320 0.68970 0.49160
H30 H -0.09950 0.60110 0.42760
H31 H -0.05540 0.72520 0.42000
C22 C 0.5887(3) 0.7979(2) 0.1608(2)
C23 C 0.5077(3) 0.8344(3) 0.0548(2)
C24 C 0.5851(4) 0.8596(3) -0.0142(2)
H32 H 0.52810 0.87450 -0.08030
C25 C 0.7618(4) 0.8651(3) 0.0101(2)
H33 H 0.80240 0.79550 -0.00960
C26 C 0.8183(4) 0.8787(3) 0.1239(2)
H34 H 0.93270 0.87530 0.14370
H35 H 0.78620 0.95010 0.14360
C27 C 0.8183(5) 0.9588(4) -0.0471(3)
H36 H 0.78050 0.94730 -0.11900
H37 H 0.93160 0.96080 -0.02950
H38 H 0.77820 1.02730 -0.02880
C28 C -0.2682(4) 0.5846(3) 0.8234(2)
C29 C -0.4262(5) 0.6158(3) 0.8404(3)
H39 H -0.42910 0.59780 0.90890
H40 H -0.50780 0.57630 0.79360
H41 H -0.44250 0.69340 0.82960
N1 N 0.2431(3) 0.7694(3) -0.0260(2)
O1 O 0.5438(2) 0.87294(17) 0.22940(14)
O2 O 0.7540(2) 0.79418(19) 0.17543(16)
O3 O -0.2238(3) 0.6560(2) 0.76045(19)
O4 O -0.1915(3) 0.5056(2) 0.85910(19)
O5 O 0.1030(3) 0.7774(3) -0.0300(2)
O6 O 0.3015(3) 0.7007(3) -0.0714(3)
N2 N 0.3390(3) 0.8421(3) 0.03269(19)
H42 H 0.293(4) 0.883(3) 0.069(3)
#END
