
#######################################################################
#
#                 Cambridge Crystallographic Data Centre
#                                CCDC
#
#######################################################################
#
# If this CIF has been generated from an entry in the Cambridge
# Structural Database, then it will include bibliographic, chemical,
# crystal, experimental, refinement or atomic coordinate data resulting
# from the CCDC's data processing and validation procedures.
#
#######################################################################

data_CSD_CIF_POQVUO01
_audit_creation_date 2017-11-12
_audit_creation_method CSD-ConQuest-V1
_database_code_CSD POQVUO01
_database_code_depnum_ccdc_archive 'CCDC 1585122'
_chemical_formula_sum 'C9 H7 N1 O3'
_chemical_formula_moiety
;
C9 H7 N1 O3
;
_journal_coden_Cambridge 1078
_journal_year 2017
_journal_name_full 'CSD Communication(Private Communication) '
loop_
_publ_author_name
"S.J.Petrik"
"C.L.Brown"
"S.E.Boyd"
"P.C.Healy"
_chemical_name_systematic
;
1-nitro-4-[(prop-2-yn-1-yl)oxy]benzene
;
_cell_volume    823.741
_exptl_crystal_colour 'colorless'
_exptl_crystal_density_diffrn 1.428
_exptl_crystal_description 'block'
_exptl_crystal_preparation 'acetone/ethanol'
_diffrn_ambient_temperature 223
#These two values have been output from a single CSD field.
_refine_ls_R_factor_gt 0.0712
_refine_ls_wR_factor_gt 0.0712
_symmetry_cell_setting monoclinic
_symmetry_space_group_name_H-M 'P 21/c'
_symmetry_Int_Tables_number 14
loop_
_symmetry_equiv_pos_site_id
_symmetry_equiv_pos_as_xyz
1 x,y,z
2 -x,1/2+y,1/2-z
3 -x,-y,-z
4 x,-1/2-y,-1/2+z
_cell_length_a 7.3813(9)
_cell_length_b 12.8454(7)
_cell_length_c 9.0082(5)
_cell_angle_alpha 90
_cell_angle_beta 105.327(8)
_cell_angle_gamma 90
_cell_formula_units_Z 4
loop_
_atom_type_symbol
_atom_type_radius_bond
C 0.68
H 0.23
N 0.68
O 0.68
loop_
_atom_site_label
_atom_site_type_symbol
_atom_site_fract_x
_atom_site_fract_y
_atom_site_fract_z
O1 O 0.2888(3) 0.18505(14) 0.0479(2)
O2 O 0.1535(4) -0.28748(17) -0.1187(3)
O3 O 0.3478(4) -0.29733(17) 0.1049(3)
N1 N 0.2539(4) -0.24670(19) -0.0033(3)
C1 C 0.2605(4) -0.1329(2) 0.0068(3)
C2 C 0.3607(4) -0.0866(2) 0.1424(3)
H1 H 0.42370 -0.12740 0.22690
C3 C 0.3664(4) 0.0200(2) 0.1514(3)
H2 H 0.43400 0.05280 0.24250
C4 C 0.2718(4) 0.0800(2) 0.0255(3)
C5 C 0.1708(4) 0.0332(2) -0.1098(3)
H3 H 0.10710 0.07380 -0.19430
C6 C 0.1653(4) -0.0746(2) -0.1182(3)
H4 H 0.09690 -0.10790 -0.20870
C7 C 0.2016(4) 0.2498(2) -0.0809(3)
H5 H 0.06800 0.23250 -0.11860
H6 H 0.26120 0.23890 -0.16480
C8 C 0.2236(4) 0.3583(2) -0.0300(3)
C9 C 0.2364(5) 0.4470(3) 0.0008(4)
H7 H 0.24670 0.51820 0.02560
#END
