
#######################################################################
#
#                 Cambridge Crystallographic Data Centre
#                                CCDC
#
#######################################################################
#
# If this CIF has been generated from an entry in the Cambridge
# Structural Database, then it will include bibliographic, chemical,
# crystal, experimental, refinement or atomic coordinate data resulting
# from the CCDC's data processing and validation procedures.
#
#######################################################################

data_CSD_CIF_POQWID
_audit_creation_date 2014-10-27
_audit_creation_method CSD-ConQuest-V1
_database_code_CSD POQWID
_database_code_depnum_ccdc_archive 'CCDC 1008167'
_chemical_formula_sum 'C10 H7 N1 O4'
_chemical_formula_moiety
;
C10 H7 N1 O4
;
_journal_coden_Cambridge 154
_journal_volume 67
_journal_year 2014
_journal_page_first 1866
_journal_name_full 'Aust.J.Chem. '
loop_
_publ_author_name
"B.L.Harris"
"J.M.White"
_chemical_name_systematic
;
prop-2-yn-1-yl 4-nitrobenzoate
;
_cell_volume    929.704
_exptl_crystal_colour 'colorless'
_exptl_crystal_density_diffrn 1.466
_exptl_crystal_description 'block'
_diffrn_ambient_temperature 130
#These two values have been output from a single CSD field.
_refine_ls_R_factor_gt 0.0329
_refine_ls_wR_factor_gt 0.0329
_symmetry_cell_setting monoclinic
_symmetry_space_group_name_H-M 'P 21/c'
_symmetry_Int_Tables_number 14
loop_
_symmetry_equiv_pos_site_id
_symmetry_equiv_pos_as_xyz
1 x,y,z
2 -x,1/2+y,1/2-z
3 -x,-y,-z
4 x,-1/2-y,-1/2+z
_cell_length_a 3.9683(2)
_cell_length_b 12.4161(9)
_cell_length_c 18.9360(12)
_cell_angle_alpha 90
_cell_angle_beta 94.812(4)
_cell_angle_gamma 90
_cell_formula_units_Z 4
loop_
_atom_type_symbol
_atom_type_radius_bond
C 0.68
H 0.23
N 0.68
O 0.68
loop_
_atom_site_label
_atom_site_type_symbol
_atom_site_fract_x
_atom_site_fract_y
_atom_site_fract_z
H1 H 0.583(4) 0.1221(11) 0.4322(7)
H2 H 0.322(3) 0.1251(11) 0.4922(8)
H3 H -0.026(5) -0.1258(15) 0.3694(10)
H4 H 0.267(4) 0.5156(12) 0.4594(7)
H5 H 0.012(4) 0.6570(12) 0.3950(8)
H6 H -0.397(3) 0.4474(12) 0.2463(8)
H7 H -0.141(3) 0.3038(12) 0.3120(7)
C1 C 0.3471(3) 0.11913(8) 0.44167(6)
C2 C 0.1952(3) 0.02043(9) 0.41233(6)
C3 C 0.0748(3) -0.06085(10) 0.38913(7)
C4 C 0.2572(2) 0.30601(8) 0.43320(5)
C5 C 0.0862(2) 0.39519(8) 0.39109(5)
C6 C 0.1331(2) 0.50032(8) 0.41595(5)
C7 C -0.0182(3) 0.58564(8) 0.37849(5)
C8 C -0.2133(2) 0.56319(8) 0.31614(5)
C9 C -0.2638(3) 0.45982(8) 0.28989(5)
C10 C -0.1113(3) 0.37503(8) 0.32803(5)
N1 N -0.3832(2) 0.65275(7) 0.27658(5)
O1 O 0.17270(18) 0.20918(6) 0.40597(4)
O2 O 0.4505(2) 0.31902(6) 0.48501(4)
O3 O -0.5760(2) 0.63118(7) 0.22493(4)
O4 O -0.3272(3) 0.74492(7) 0.29787(5)
#END
