
#######################################################################
#
#                 Cambridge Crystallographic Data Centre
#                                CCDC
#
#######################################################################
#
# If this CIF has been generated from an entry in the Cambridge
# Structural Database, then it will include bibliographic, chemical,
# crystal, experimental, refinement or atomic coordinate data resulting
# from the CCDC's data processing and validation procedures.
#
#######################################################################

data_CSD_CIF_POQWUP
_audit_creation_date 2014-10-27
_audit_creation_method CSD-ConQuest-V1
_database_code_CSD POQWUP
_database_code_depnum_ccdc_archive 'CCDC 1008169'
_chemical_formula_sum 'C10 H7 N1 O4'
_chemical_formula_moiety
;
C10 H7 N1 O4
;
_journal_coden_Cambridge 154
_journal_volume 67
_journal_year 2014
_journal_page_first 1866
_journal_name_full 'Aust.J.Chem. '
loop_
_publ_author_name
"B.L.Harris"
"J.M.White"
_chemical_name_systematic
;
prop-2-yn-1-yl 2-nitrobenzoate
;
_cell_volume    935.178
_exptl_crystal_colour 'colorless'
_exptl_crystal_density_diffrn 1.457
_exptl_crystal_description 'block'
_diffrn_ambient_temperature 130
#These two values have been output from a single CSD field.
_refine_ls_R_factor_gt 0.0456
_refine_ls_wR_factor_gt 0.0456
_symmetry_cell_setting monoclinic
_symmetry_space_group_name_H-M 'P 21/c'
_symmetry_Int_Tables_number 14
loop_
_symmetry_equiv_pos_site_id
_symmetry_equiv_pos_as_xyz
1 x,y,z
2 -x,1/2+y,1/2-z
3 -x,-y,-z
4 x,-1/2-y,-1/2+z
_cell_length_a 7.6698(5)
_cell_length_b 15.5331(6)
_cell_length_c 7.9534(4)
_cell_angle_alpha 90
_cell_angle_beta 99.263(5)
_cell_angle_gamma 90
_cell_formula_units_Z 4
loop_
_atom_type_symbol
_atom_type_radius_bond
C 0.68
H 0.23
N 0.68
O 0.68
loop_
_atom_site_label
_atom_site_type_symbol
_atom_site_fract_x
_atom_site_fract_y
_atom_site_fract_z
O1 O 0.55246(10) 0.34910(5) 0.42087(10)
O2 O 0.23744(12) 0.48475(5) 0.51833(10)
C1 C 0.23864(12) 0.43244(6) 0.40700(11)
O3 O 0.27353(11) 0.45013(4) 0.25145(8)
O4 O 0.53541(11) 0.23345(5) 0.26647(11)
N1 N 0.47271(11) 0.28571(5) 0.35601(10)
C2 C 0.31012(13) 0.55155(6) 0.04277(12)
C3 C 0.32920(14) 0.53783(6) 0.22570(12)
C4 C 0.18874(12) 0.34028(6) 0.42271(11)
C5 C 0.07610(14) 0.17052(7) 0.44856(14)
C6 C 0.29292(15) 0.56389(7) -0.10706(13)
C7 C 0.23996(13) 0.18616(6) 0.40286(13)
C8 C 0.29381(12) 0.27082(5) 0.39106(11)
C9 C 0.02431(13) 0.32290(6) 0.46777(12)
C10 C -0.03136(14) 0.23823(7) 0.48050(14)
H1 H 0.320(2) 0.1416(11) 0.383(2)
H2 H -0.050(2) 0.3708(10) 0.491(2)
H3 H 0.041(2) 0.1122(11) 0.468(2)
H4 H 0.256(2) 0.5765(10) 0.280(2)
H5 H 0.450(2) 0.5428(10) 0.281(2)
H6 H -0.147(2) 0.2271(11) 0.507(2)
H7 H 0.288(2) 0.5736(11) -0.224(2)
#END
