
#######################################################################
#
#                 Cambridge Crystallographic Data Centre
#                                CCDC
#
#######################################################################
#
# If this CIF has been generated from an entry in the Cambridge
# Structural Database, then it will include bibliographic, chemical,
# crystal, experimental, refinement or atomic coordinate data resulting
# from the CCDC's data processing and validation procedures.
#
#######################################################################

data_CSD_CIF_POQWAV
_audit_creation_date 2014-10-27
_audit_creation_method CSD-ConQuest-V1
_database_code_CSD POQWAV
_database_code_depnum_ccdc_archive 'CCDC 1008165'
_chemical_formula_sum 'C9 H6 N2 O5'
_chemical_formula_moiety
;
C9 H6 N2 O5
;
_journal_coden_Cambridge 154
_journal_volume 67
_journal_year 2014
_journal_page_first 1866
_journal_name_full 'Aust.J.Chem. '
loop_
_publ_author_name
"B.L.Harris"
"J.M.White"
_chemical_name_systematic
;
2,4-dinitrophenyl prop-2-yn-1-yl ether
;
_cell_volume   2834.977
_exptl_crystal_colour 'pale yellow'
_exptl_crystal_density_diffrn 1.562
_exptl_crystal_description 'rod'
_diffrn_ambient_temperature 130
_refine_special_details
;
O2 and O2.

;
#These two values have been output from a single CSD field.
_refine_ls_R_factor_gt 0.0376
_refine_ls_wR_factor_gt 0.0376
_symmetry_cell_setting monoclinic
_symmetry_space_group_name_H-M 'P 21/c'
_symmetry_Int_Tables_number 14
loop_
_symmetry_equiv_pos_site_id
_symmetry_equiv_pos_as_xyz
1 x,y,z
2 -x,1/2+y,1/2-z
3 -x,-y,-z
4 x,-1/2-y,-1/2+z
_cell_length_a 18.7143(3)
_cell_length_b 12.8511(2)
_cell_length_c 11.7881(1)
_cell_angle_alpha 90
_cell_angle_beta 90.350(1)
_cell_angle_gamma 90
_cell_formula_units_Z 12
loop_
_atom_type_symbol
_atom_type_radius_bond
C 0.68
H 0.23
N 0.68
O 0.68
loop_
_atom_site_label
_atom_site_type_symbol
_atom_site_fract_x
_atom_site_fract_y
_atom_site_fract_z
O1 O 0.14836(5) 0.61557(7) -0.42390(7)
O2 O 0.08158(4) 0.76788(7) -0.52637(8)
O3 O 0.15396(6) 0.86882(10) -0.61674(9)
O4 O 0.34461(5) 1.00490(8) -0.38298(8)
O5 O 0.41554(5) 0.88952(8) -0.31022(8)
N1 N 0.14079(5) 0.80658(8) -0.54118(8)
N2 N 0.35930(5) 0.91518(9) -0.35542(8)
C1 C 0.15401(7) 0.51504(9) -0.36865(10)
H1 H 0.15620 0.52370 -0.28520
H2 H 0.19770 0.47840 -0.39350
C2 C 0.09074(7) 0.45638(10) -0.40124(10)
C3 C 0.03908(8) 0.40970(11) -0.42924(12)
H3 H -0.00240 0.37220 -0.45170
C4 C 0.20054(6) 0.68471(9) -0.40469(9)
C5 C 0.19842(6) 0.78081(9) -0.46254(9)
C6 C 0.25047(6) 0.85575(9) -0.44832(9)
H4 H 0.24800 0.92010 -0.48780
C7 C 0.30603(6) 0.83442(10) -0.37536(10)
C8 C 0.31120(6) 0.74047(10) -0.31802(10)
H5 H 0.35070 0.72720 -0.26920
C9 C 0.25854(6) 0.66649(10) -0.33235(10)
H6 H 0.26180 0.60240 -0.29250
O6 O 0.19782(4) 0.12504(7) -0.11643(7)
O7 O 0.22888(8) 0.25114(10) 0.04722(13)
O8 O 0.18444(6) 0.40286(8) 0.04185(10)
O9 O -0.03999(7) 0.46562(10) -0.12600(9)
O10 O -0.08794(5) 0.35113(10) -0.23617(9)
N3 N 0.18639(6) 0.31250(9) 0.01121(9)
N4 N -0.03913(7) 0.38206(10) -0.17564(10)
C10 C 0.19882(7) 0.02562(10) -0.17487(10)
H7 H 0.15400 -0.01290 -0.16030
H8 H 0.20320 0.03650 -0.25770
C11 C 0.25957(7) -0.0329(1) -0.1324(1)
C12 C 0.30820(7) -0.08248(10) -0.09753(10)
H9 H 0.34730 -0.12230 -0.06950
C13 C 0.14047(6) 0.18566(9) -0.13403(10)
C14 C 0.13349(6) 0.27924(9) -0.07254(10)
C15 C 0.07548(7) 0.34451(10) -0.08666(10)
H10 H 0.07190 0.40780 -0.04540
C16 C 0.02311(7) 0.31507(11) -0.16215(10)
C17 C 0.02774(7) 0.22425(11) -0.22462(10)
H11 H -0.00940 0.20570 -0.27600
C18 C 0.08658(7) 0.16095(10) -0.21178(10)
H12 H 0.09050 0.09970 -0.25640
O11 O 0.52895(4) 0.11442(6) -0.09267(7)
O12 O 0.55023(14) 0.22834(12) 0.08910(19)
O13 O 0.52882(6) 0.39112(8) 0.06124(9)
O14 O 0.31896(6) 0.48763(8) -0.14321(8)
O15 O 0.25436(5) 0.3661(1) -0.21898(9)
N5 N 0.52128(5) 0.29987(8) 0.03671(8)
N6 N 0.30876(6) 0.39703(10) -0.17211(9)
C19 C 0.53013(7) 0.01683(9) -0.1544(1)
H13 H 0.53600 0.02990 -0.23660
H14 H 0.48490 -0.02160 -0.14290
C20 C 0.59013(6) -0.04299(10) -0.11062(9)
C21 C 0.63826(7) -0.09201(10) -0.07342(10)
H15 H 0.67700 -0.13140 -0.04350
C22 C 0.47442(6) 0.17940(9) -0.1138(1)
C23 C 0.47037(6) 0.27369(9) -0.05284(9)
C24 C 0.41733(6) 0.34591(10) -0.07297(10)
H16 H 0.41680 0.41060 -0.03400
C25 C 0.36542(6) 0.3214(1) -0.15114(10)
C26 C 0.36620(6) 0.22893(10) -0.21165(10)
H17 H 0.32900 0.21350 -0.26430
C27 C 0.42143(6) 0.15945(9) -0.19474(10)
H18 H 0.42340 0.09750 -0.23860
O16? O 0.5768(6) 0.2512(11) 0.0463(14)
#END
