
#######################################################################
#
#                 Cambridge Crystallographic Data Centre
#                                CCDC
#
#######################################################################
#
# If this CIF has been generated from an entry in the Cambridge
# Structural Database, then it will include bibliographic, chemical,
# crystal, experimental, refinement or atomic coordinate data resulting
# from the CCDC's data processing and validation procedures.
#
#######################################################################

data_CSD_CIF_POQXOK
_audit_creation_date 2014-10-27
_audit_creation_method CSD-ConQuest-V1
_database_code_CSD POQXOK
_database_code_depnum_ccdc_archive 'CCDC 1005517'
_chemical_formula_sum 'C15 H11 N1 O3'
_chemical_formula_moiety
;
C15 H11 N1 O3
;
_journal_coden_Cambridge 182
_journal_volume 51
_journal_year 2015
_journal_page_first 5375
_journal_name_full 'Chem.Commun. '
loop_
_publ_author_name
"S.Agasti"
"U.Sharma"
"T.Naveen"
"D.Maiti"
_chemical_name_systematic
;
3-(4-Methylphenyl)-5-nitro-1-benzofuran
;
_cell_volume   2378.241
_exptl_crystal_density_diffrn 1.415
_diffrn_ambient_temperature 173
#These two values have been output from a single CSD field.
_refine_ls_R_factor_gt 0.0722
_refine_ls_wR_factor_gt 0.0722
_symmetry_cell_setting orthorhombic
_symmetry_space_group_name_H-M 'P b c a'
_symmetry_Int_Tables_number 61
loop_
_symmetry_equiv_pos_site_id
_symmetry_equiv_pos_as_xyz
1 x,y,z
2 1/2-x,-y,1/2+z
3 -x,1/2+y,1/2-z
4 1/2+x,1/2-y,-z
5 -x,-y,-z
6 -1/2+x,y,-1/2-z
7 x,-1/2-y,-1/2+z
8 -1/2-x,-1/2+y,z
_cell_length_a 9.890(2)
_cell_length_b 7.3000(15)
_cell_length_c 32.941(7)
_cell_angle_alpha 90
_cell_angle_beta 90
_cell_angle_gamma 90
_cell_formula_units_Z 8
loop_
_atom_type_symbol
_atom_type_radius_bond
C 0.68
H 0.23
N 0.68
O 0.68
loop_
_atom_site_label
_atom_site_type_symbol
_atom_site_fract_x
_atom_site_fract_y
_atom_site_fract_z
O1 O 0.10386(14) 0.3517(2) 0.05189(4)
O2 O 0.67793(16) 0.4990(3) 0.11728(4)
O3 O 0.73009(17) 0.3951(3) 0.05824(5)
N1 N 0.64708(17) 0.4364(3) 0.08430(5)
C1 C 0.08833(17) 0.6007(2) 0.24134(5)
C2 C 0.12528(17) 0.5072(2) 0.15873(5)
C3 C 0.20170(17) 0.5032(2) 0.22863(5)
H1 H 0.26800 0.46830 0.24800
C4 C 0.01089(17) 0.6044(2) 0.17119(5)
H2 H -0.05540 0.63920 0.15180
C5 C -0.00654(18) 0.6504(2) 0.21178(5)
H3 H -0.08470 0.71730 0.21970
C6 C 0.24023(19) 0.3633(2) 0.05630(5)
C7 C 0.21981(17) 0.4559(2) 0.18807(5)
H4 H 0.29740 0.38790 0.18030
C8 C 0.41020(17) 0.4532(2) 0.10470(5)
H5 H 0.43720 0.50000 0.13040
C9 C 0.14624(18) 0.4520(2) 0.11624(5)
C10 C 0.27434(18) 0.4266(2) 0.09515(5)
C11 C 0.50393(18) 0.4087(3) 0.07519(5)
C12 C 0.0694(2) 0.6484(3) 0.28539(5)
H6 H -0.01520 0.71650 0.28880
H7 H 0.14540 0.72400 0.29460
H8 H 0.06580 0.53570 0.30150
C13 C 0.4690(2) 0.3392(3) 0.03694(5)
H9 H 0.53770 0.30760 0.01810
C14 C 0.04972(19) 0.4069(3) 0.08870(5)
H10 H -0.04460 0.41260 0.09410
C15 C 0.33528(19) 0.3168(3) 0.02676(5)
H11 H 0.30890 0.27180 0.00090
#END
