
#######################################################################
#
#                 Cambridge Crystallographic Data Centre
#                                CCDC
#
#######################################################################
#
# If this CIF has been generated from an entry in the Cambridge
# Structural Database, then it will include bibliographic, chemical,
# crystal, experimental, refinement or atomic coordinate data resulting
# from the CCDC's data processing and validation procedures.
#
#######################################################################

data_CSD_CIF_POQYIE
_audit_creation_date 2009-09-08
_audit_creation_method CSD-ConQuest-V1
_database_code_CSD POQYIE
_database_code_depnum_ccdc_archive 'CCDC 708519'
_chemical_formula_sum 'C6 H12 N4 O4'
_chemical_formula_moiety
;
C6 H12 N4 O4
;
_journal_coden_Cambridge 182
_journal_year 2009
_journal_page_first 1467
_journal_name_full 'Chem.Commun. '
loop_
_publ_author_name
"K.E.Knott"
"S.Auschill"
"A.Jager"
"H.-J.Knolker"
_chemical_name_systematic
;
5-Isobutyl-1-nitrobiuret
;
_cell_volume   1947.383
_exptl_crystal_colour 'light yellow'
_exptl_crystal_density_diffrn 1.393
_exptl_crystal_description 'plate'
_diffrn_ambient_temperature 198
#These two values have been output from a single CSD field.
_refine_ls_R_factor_gt 0.0386
_refine_ls_wR_factor_gt 0.0386
_symmetry_cell_setting orthorhombic
_symmetry_space_group_name_H-M 'P b c a'
_symmetry_Int_Tables_number 61
loop_
_symmetry_equiv_pos_site_id
_symmetry_equiv_pos_as_xyz
1 x,y,z
2 1/2-x,-y,1/2+z
3 1/2+x,1/2-y,-z
4 -x,1/2+y,1/2-z
5 -x,-y,-z
6 -1/2+x,y,-1/2-z
7 -1/2-x,-1/2+y,z
8 x,-1/2-y,-1/2+z
_cell_length_a 10.571(1)
_cell_length_b 6.448(1)
_cell_length_c 28.570(3)
_cell_angle_alpha 90
_cell_angle_beta 90
_cell_angle_gamma 90
_cell_formula_units_Z 8
loop_
_atom_type_symbol
_atom_type_radius_bond
C 0.68
H 0.23
N 0.68
O 0.68
loop_
_atom_site_label
_atom_site_type_symbol
_atom_site_fract_x
_atom_site_fract_y
_atom_site_fract_z
N1 N -0.14054(15) 0.1890(3) 0.82857(5)
O1 O -0.10254(14) 0.2279(3) 0.86766(5)
O2 O -0.24727(13) 0.2233(3) 0.81410(5)
N2 N -0.05437(16) 0.0966(3) 0.79931(6)
H1 H 0.017(2) 0.104(3) 0.8109(7)
C1 C -0.06039(17) 0.0829(3) 0.75078(7)
O3 O 0.03957(12) 0.0515(2) 0.73057(5)
N3 N -0.17457(15) 0.0965(3) 0.72955(5)
H2 H -0.235(2) 0.108(3) 0.7472(7)
C2 C -0.19943(18) 0.0974(3) 0.68125(6)
O4 O -0.31068(12) 0.1069(3) 0.66885(5)
N4 N -0.10268(17) 0.0895(3) 0.65196(6)
H3 H -0.033(2) 0.082(4) 0.6653(7)
C3 C -0.1213(2) 0.0805(4) 0.60144(7)
H4 H -0.21320 0.08160 0.59480
H5 H -0.08660 -0.05210 0.58960
C4 C -0.0599(2) 0.2565(4) 0.57530(7)
H6 H -0.08690 0.38980 0.59010
C5 C 0.0832(2) 0.2446(5) 0.57719(9)
H7 H 0.11130 0.25340 0.60980
H8 H 0.11950 0.35980 0.55930
H9 H 0.11140 0.11280 0.56370
C6 C -0.1085(3) 0.2533(5) 0.52477(8)
H10 H -0.08840 0.11930 0.51040
H11 H -0.06790 0.36470 0.50690
H12 H -0.20040 0.27400 0.52470
#END
