
#######################################################################
#
#                 Cambridge Crystallographic Data Centre
#                                CCDC
#
#######################################################################
#
# If this CIF has been generated from an entry in the Cambridge
# Structural Database, then it will include bibliographic, chemical,
# crystal, experimental, refinement or atomic coordinate data resulting
# from the CCDC's data processing and validation procedures.
#
#######################################################################

data_CSD_CIF_POSGIO
_audit_creation_date 2009-09-08
_audit_creation_method CSD-ConQuest-V1
_database_code_CSD POSGIO
_database_code_depnum_ccdc_archive 'CCDC 607154'
_chemical_formula_sum 'C17 H23 N1 O3'
_chemical_formula_moiety
;
C17 H23 N1 O3
;
_journal_coden_Cambridge 1220
_journal_volume 15
_journal_year 2009
_journal_page_first 2693
_journal_name_full 'Chem.-Eur.J. '
loop_
_publ_author_name
"T.K.M.Shing"
"W.F.Wong"
"T.Ikeno"
"T.Yamada"
_chemical_name_systematic
;
6-Benzyl-2,2-dimethyloctahydro(1,3)dioxolo(4,5-e)(2,1)benzoxazole
;
_chemical_melting_point 367.15
_cell_volume   1606.428
_exptl_crystal_colour 'colorless'
_exptl_crystal_density_diffrn 1.196
_exptl_special_details
;
Melting point range 367.15-368.15K

;
_exptl_crystal_description 'block'
_diffrn_ambient_temperature 293
#These two values have been output from a single CSD field.
_refine_ls_R_factor_gt 0.0659
_refine_ls_wR_factor_gt 0.0659
_symmetry_cell_setting orthorhombic
_symmetry_space_group_name_H-M 'P 21 21 21'
_symmetry_Int_Tables_number 19
loop_
_symmetry_equiv_pos_site_id
_symmetry_equiv_pos_as_xyz
1 x,y,z
2 1/2-x,-y,1/2+z
3 -x,1/2+y,1/2-z
4 1/2+x,1/2-y,-z
_cell_length_a 7.1400(14)
_cell_length_b 10.004(2)
_cell_length_c 22.490(5)
_cell_angle_alpha 90
_cell_angle_beta 90
_cell_angle_gamma 90
_cell_formula_units_Z 4
loop_
_atom_type_symbol
_atom_type_radius_bond
C 0.68
H 0.23
N 0.68
O 0.68
loop_
_atom_site_label
_atom_site_type_symbol
_atom_site_fract_x
_atom_site_fract_y
_atom_site_fract_z
N1 N 0.5258(9) 0.2954(7) 0.3303(3)
O1 O -0.0125(7) 0.4273(5) 0.4964(2)
O2 O 0.2699(7) 0.5446(5) 0.4923(2)
O3 O 0.6284(7) 0.4248(6) 0.3319(2)
C1 C 0.0885(11) 0.5386(9) 0.5215(4)
C2 C 0.1286(11) 0.5128(8) 0.5869(3)
H1 H 0.20120 0.43250 0.59080
H2 H 0.01260 0.50280 0.60800
H3 H 0.19740 0.58670 0.60310
C3 C -0.0241(13) 0.6606(8) 0.5113(4)
H4 H -0.04400 0.67220 0.46940
H5 H 0.04150 0.73680 0.52680
H6 H -0.14270 0.65200 0.53100
C4 C 0.1223(10) 0.3573(8) 0.4611(4)
H7 H 0.19660 0.29950 0.48730
C5 C 0.0468(11) 0.2741(9) 0.4103(3)
H8 H -0.02880 0.32880 0.38400
H9 H -0.03030 0.20180 0.42540
C6 C 0.2181(10) 0.2177(8) 0.3767(3)
H10 H 0.28650 0.15670 0.40220
H11 H 0.17670 0.16860 0.34190
C7 C 0.3453(11) 0.3325(8) 0.3578(3)
H12 H 0.27660 0.39240 0.33110
C8 C 0.417(1) 0.4113(7) 0.4110(3)
H13 H 0.47790 0.35010 0.43890
C9 C 0.2438(10) 0.4689(8) 0.4395(3)
H14 H 0.17490 0.52240 0.41030
C10 C 0.5645(11) 0.4999(8) 0.3823(3)
H15 H 0.51070 0.58440 0.36990
H16 H 0.66670 0.51720 0.40960
C11 C 0.5064(13) 0.2673(9) 0.2675(3)
H17 H 0.44420 0.34200 0.24840
H18 H 0.42780 0.18900 0.26240
C12 C 0.6908(12) 0.2433(10) 0.2376(4)
C13 C 0.8036(15) 0.1362(10) 0.2513(4)
H19 H 0.76570 0.07450 0.27970
C14 C 0.9728(15) 0.1206(10) 0.2228(4)
H20 H 1.04880 0.04890 0.23330
C15 C 1.0330(14) 0.2061(13) 0.1797(4)
H21 H 1.14710 0.19320 0.16060
C16 C 0.9200(14) 0.3112(12) 0.1657(4)
H22 H 0.95670 0.37050 0.13600
C17 C 0.7535(13) 0.3308(9) 0.1944(4)
H23 H 0.68090 0.40480 0.18470
#END
