
#######################################################################
#
#                 Cambridge Crystallographic Data Centre
#                                CCDC
#
#######################################################################
#
# If this CIF has been generated from an entry in the Cambridge
# Structural Database, then it will include bibliographic, chemical,
# crystal, experimental, refinement or atomic coordinate data resulting
# from the CCDC's data processing and validation procedures.
#
#######################################################################

data_CSD_CIF_POSGEK
_audit_creation_date 2009-09-08
_audit_creation_method CSD-ConQuest-V1
_database_code_CSD POSGEK
_database_code_depnum_ccdc_archive 'CCDC 245397'
_chemical_formula_sum 'C11 H19 N1 O4'
_chemical_formula_moiety
;
C11 H19 N1 O4
;
_journal_coden_Cambridge 1220
_journal_volume 15
_journal_year 2009
_journal_page_first 2693
_journal_name_full 'Chem.-Eur.J. '
loop_
_publ_author_name
"T.K.M.Shing"
"W.F.Wong"
"T.Ikeno"
"T.Yamada"
_chemical_name_systematic
;
4,4,11-Trimethyl-3,5,10-trioxa-11-azatricyclo(7.2.1.0^2,6^)dodecan-7-ol
;
_chemical_melting_point 410.15
_cell_volume   1183.806
_exptl_crystal_colour 'colorless'
_exptl_crystal_density_diffrn 1.286
_exptl_special_details
;
Melting point range 410.15-411.15K

;
_exptl_crystal_description 'block'
_diffrn_ambient_temperature 293
#These two values have been output from a single CSD field.
_refine_ls_R_factor_gt 0.0672
_refine_ls_wR_factor_gt 0.0672
_symmetry_cell_setting orthorhombic
_symmetry_space_group_name_H-M 'P 21 21 21'
_symmetry_Int_Tables_number 19
loop_
_symmetry_equiv_pos_site_id
_symmetry_equiv_pos_as_xyz
1 x,y,z
2 1/2-x,-y,1/2+z
3 -x,1/2+y,1/2-z
4 1/2+x,1/2-y,-z
_cell_length_a 6.0676(12)
_cell_length_b 10.740(2)
_cell_length_c 18.166(4)
_cell_angle_alpha 90
_cell_angle_beta 90
_cell_angle_gamma 90
_cell_formula_units_Z 4
loop_
_atom_type_symbol
_atom_type_radius_bond
C 0.68
H 0.23
N 0.68
O 0.68
loop_
_atom_site_label
_atom_site_type_symbol
_atom_site_fract_x
_atom_site_fract_y
_atom_site_fract_z
N1 N -0.0932(5) 0.3923(2) 0.12179(13)
O1 O 0.1325(4) 0.2533(2) 0.32591(10)
O2 O -0.0491(4) 0.43030(19) 0.28993(10)
O3 O 0.4132(4) 0.0930(2) 0.24879(13)
H1 H 0.31410 0.04380 0.23900
O4 O 0.0166(4) 0.2831(2) 0.09075(12)
C1 C -0.0028(7) 0.3519(3) 0.35318(15)
C2 C -0.2158(8) 0.3041(4) 0.3825(2)
H2 H -0.29280 0.26020 0.34430
H3 H -0.30420 0.37270 0.39920
H4 H -0.18780 0.24870 0.42290
C3 C 0.1307(9) 0.4231(4) 0.4104(2)
H5 H 0.26480 0.45260 0.38850
H6 H 0.16510 0.36890 0.45080
H7 H 0.04620 0.49260 0.42800
C4 C 0.1475(6) 0.2641(2) 0.24597(14)
H8 H 0.02260 0.22210 0.22240
C5 C 0.3627(6) 0.2125(3) 0.21747(17)
H9 H 0.48000 0.27020 0.23190
C6 C 0.3653(7) 0.2024(3) 0.13180(17)
H10 H 0.51800 0.19820 0.11620
H11 H 0.29720 0.12380 0.11850
C7 C 0.2532(6) 0.3046(3) 0.08696(16)
H12 H 0.30130 0.29870 0.03560
C8 C 0.2872(6) 0.4376(3) 0.11413(16)
H13 H 0.29350 0.49600 0.07350
H14 H 0.42060 0.44490 0.14330
C9 C 0.0810(6) 0.4578(3) 0.16119(14)
H15 H 0.04660 0.54670 0.16440
C10 C 0.1258(5) 0.4049(2) 0.23812(14)
H16 H 0.26130 0.44310 0.25690
C11 C -0.1756(7) 0.4657(4) 0.05888(19)
H17 H -0.29000 0.42010 0.03430
H18 H -0.05690 0.48120 0.02510
H19 H -0.23340 0.54350 0.07630
#END
