
#######################################################################
#
#                 Cambridge Crystallographic Data Centre
#                                CCDC
#
#######################################################################
#
# If this CIF has been generated from an entry in the Cambridge
# Structural Database, then it will include bibliographic, chemical,
# crystal, experimental, refinement or atomic coordinate data resulting
# from the CCDC's data processing and validation procedures.
#
#######################################################################

data_CSD_CIF_POSGOU
_audit_creation_date 2009-09-08
_audit_creation_method CSD-ConQuest-V1
_database_code_CSD POSGOU
_database_code_depnum_ccdc_archive 'CCDC 614145'
_chemical_formula_sum 'C11 H19 N1 O4'
_chemical_formula_moiety
;
C11 H19 N1 O4
;
_journal_coden_Cambridge 1220
_journal_volume 15
_journal_year 2009
_journal_page_first 2693
_journal_name_full 'Chem.-Eur.J. '
loop_
_publ_author_name
"T.K.M.Shing"
"W.F.Wong"
"T.Ikeno"
"T.Yamada"
_chemical_name_systematic
;
1,7,7-Trimethyloctahydro(1,3)dioxolo(4,5-g)(2,1)benzoxazol-5-ol
;
_chemical_melting_point 380.15
_cell_volume    604.208
_exptl_crystal_colour 'colorless'
_exptl_crystal_density_diffrn 1.26
_exptl_special_details
;
Melting point range 380.15-381.15K

;
_exptl_crystal_description 'block'
_diffrn_ambient_temperature 293
#These two values have been output from a single CSD field.
_refine_ls_R_factor_gt 0.0451
_refine_ls_wR_factor_gt 0.0451
_symmetry_cell_setting monoclinic
_symmetry_space_group_name_H-M 'P 21'
_symmetry_Int_Tables_number 4
loop_
_symmetry_equiv_pos_site_id
_symmetry_equiv_pos_as_xyz
1 x,y,z
2 -x,1/2+y,-z
_cell_length_a 6.3245(13)
_cell_length_b 11.271(2)
_cell_length_c 8.5420(17)
_cell_angle_alpha 90
_cell_angle_beta 97.12(3)
_cell_angle_gamma 90
_cell_formula_units_Z 2
loop_
_atom_type_symbol
_atom_type_radius_bond
C 0.68
H 0.23
N 0.68
O 0.68
loop_
_atom_site_label
_atom_site_type_symbol
_atom_site_fract_x
_atom_site_fract_y
_atom_site_fract_z
N1 N 0.8972(6) 0.8065(4) 0.8882(5)
O1 O 0.3689(7) 0.5067(3) 0.7694(4)
O2 O 0.6165(6) 0.6190(3) 0.6569(4)
O3 O 0.4578(7) 0.4716(3) 1.1466(4)
H1 H 0.38040 0.41980 1.10350
O4 O 1.0628(6) 0.8198(4) 1.0234(5)
C1 C 0.4521(10) 0.5308(5) 0.6234(6)
C2 C 0.2722(10) 0.5777(6) 0.5091(6)
H2 H 0.21370 0.64720 0.55260
H3 H 0.16350 0.51820 0.49000
H4 H 0.32430 0.59780 0.41160
C3 C 0.5520(12) 0.4219(6) 0.5634(7)
H5 H 0.66520 0.39500 0.64060
H6 H 0.60840 0.44040 0.46690
H7 H 0.44660 0.36070 0.54420
C4 C 0.5312(9) 0.5450(5) 0.8902(5)
H8 H 0.64300 0.48440 0.90590
C5 C 0.6174(9) 0.6537(5) 0.8181(6)
H9 H 0.52070 0.72090 0.82530
C6 C 0.8333(8) 0.6818(4) 0.9035(6)
H10 H 0.94080 0.62890 0.86800
C7 C 0.8263(9) 0.6668(5) 1.0843(5)
H11 H 0.89790 0.59280 1.12040
C8 C 0.6012(9) 0.6676(5) 1.1301(6)
H12 H 0.53870 0.74510 1.10630
H13 H 0.60890 0.65560 1.24310
C9 C 0.4539(9) 0.5727(5) 1.0459(5)
H14 H 0.30830 0.60380 1.02710
C10 C 0.9601(10) 0.7726(5) 1.1499(6)
H15 H 0.86990 0.83230 1.18950
H16 H 1.06540 0.74740 1.23580
C11 C 1.0086(10) 0.8246(6) 0.7507(7)
H17 H 1.04600 0.90680 0.74370
H18 H 0.91760 0.80180 0.65710
H19 H 1.13560 0.77710 0.76060
#END
