
#######################################################################
#
#                 Cambridge Crystallographic Data Centre
#                                CCDC
#
#######################################################################
#
# If this CIF has been generated from an entry in the Cambridge
# Structural Database, then it will include bibliographic, chemical,
# crystal, experimental, refinement or atomic coordinate data resulting
# from the CCDC's data processing and validation procedures.
#
#######################################################################

data_CSD_CIF_POTFIO
_audit_creation_date 2009-09-08
_audit_creation_method CSD-ConQuest-V1
_database_code_CSD POTFIO
_database_code_depnum_ccdc_archive 'CCDC 708964'
_chemical_formula_sum 'C17 H22 N2 O4'
_chemical_formula_moiety
;
C17 H22 N2 O4
;
_journal_coden_Cambridge 16
_journal_volume 65
_journal_year 2009
_journal_page_first 2322
_journal_name_full 'Tetrahedron '
loop_
_publ_author_name
"Xiaoliu Li"
"Zhengang Zhu"
"Kefang Duan"
"Hua Chen"
"Zhiwei Li"
"Zhe Li"
"Pingzhu Zhang"
_chemical_name_systematic
;
3-(Benzyloxy)-4-hydroxy-8,10-dimethyl-9-oxa-6,10-diazatricyclo[6.2.1.0^2,6^]un
decan-7-one
;
_cell_volume   1642.535
_exptl_crystal_colour 'white'
_exptl_crystal_density_diffrn 1.287
_exptl_crystal_preparation 'ethyl acetate/hexane'
_diffrn_ambient_temperature 294
#These two values have been output from a single CSD field.
_refine_ls_R_factor_gt 0.0513
_refine_ls_wR_factor_gt 0.0513
_symmetry_cell_setting monoclinic
_symmetry_space_group_name_H-M 'P 21'
_symmetry_Int_Tables_number 4
loop_
_symmetry_equiv_pos_site_id
_symmetry_equiv_pos_as_xyz
1 x,y,z
2 -x,1/2+y,-z
_cell_length_a 12.950(3)
_cell_length_b 9.1343(19)
_cell_length_c 14.533(3)
_cell_angle_alpha 90
_cell_angle_beta 107.164(4)
_cell_angle_gamma 90
_cell_formula_units_Z 4
loop_
_atom_type_symbol
_atom_type_radius_bond
C 0.68
H 0.23
N 0.68
O 0.68
loop_
_atom_site_label
_atom_site_type_symbol
_atom_site_fract_x
_atom_site_fract_y
_atom_site_fract_z
O1 O -0.6692(3) -0.1108(4) -0.7208(2)
O2 O -0.8256(4) 0.1570(5) -0.7030(2)
H1 H -0.83640 0.15520 -0.76150
O3 O -0.7558(3) 0.0294(5) -0.3678(3)
O4 O -0.5178(3) -0.0340(5) -0.3747(3)
O5 O -0.0535(3) -0.8748(5) -0.3148(2)
O6 O 0.1900(3) -0.9937(6) -0.1965(3)
H2 H 0.20160 -0.98150 -0.24850
O7 O 0.0939(3) -0.8987(5) 0.0988(3)
O8 O -0.1345(3) -1.0210(4) -0.0144(2)
N1 N -0.7447(3) -0.0744(5) -0.5054(3)
N2 N -0.5058(3) -0.0727(5) -0.4700(3)
N3 N 0.0390(3) -0.8443(5) -0.0579(3)
N4 N -0.1617(3) -1.0140(5) -0.1213(3)
C1 C -0.6527(6) -0.0052(9) -0.7902(5)
H3 H -0.62940 0.08730 -0.75790
H4 H -0.72060 0.01130 -0.83980
C2 C -0.5688(5) -0.0584(8) -0.8364(5)
C3 C -0.5036(7) -0.1702(10) -0.7996(5)
H5 H -0.51220 -0.22110 -0.74690
C4 C -0.4233(7) -0.2108(9) -0.8392(7)
H6 H -0.37740 -0.28830 -0.81300
C5 C -0.4116(7) -0.1380(11) -0.9157(7)
H7 H -0.35860 -0.16790 -0.94310
C6 C -0.4745(7) -0.0233(13) -0.9538(6)
H8 H -0.46300 0.02870 -1.00490
C7 C -0.5556(6) 0.0159(11) -0.9166(6)
H9 H -0.60210 0.09190 -0.94450
C8 C -0.6958(4) -0.0436(6) -0.6440(3)
H10 H -0.64550 0.03720 -0.61930
C9 C -0.8108(5) 0.0125(6) -0.6665(4)
H11 H -0.86050 -0.05430 -0.71110
C10 C -0.8333(5) 0.0115(8) -0.5679(4)
H12 H -0.83330 0.11030 -0.54340
H13 H -0.90250 -0.03370 -0.57290
C11 C -0.6881(4) -0.1532(6) -0.5635(4)
H14 H -0.73000 -0.24050 -0.59070
C12 C -0.5772(4) -0.2004(6) -0.5024(4)
H15 H -0.54510 -0.27020 -0.53730
C13 C -0.5880(5) -0.2681(6) -0.4098(4)
H16 H -0.65120 -0.33050 -0.42160
H17 H -0.52400 -0.32260 -0.37540
C14 C -0.6003(5) -0.1285(6) -0.3581(4)
C15 C -0.7086(4) -0.0524(6) -0.4105(4)
C16 C -0.5817(5) -0.1382(8) -0.2517(4)
H18 H -0.58680 -0.04230 -0.22640
H19 H -0.51110 -0.17780 -0.22170
H20 H -0.63530 -0.20080 -0.23880
C17 C -0.3907(4) -0.1094(8) -0.4497(5)
H21 H -0.37400 -0.19270 -0.40770
H22 H -0.34750 -0.02750 -0.41930
H23 H -0.37550 -0.13180 -0.50890
C18 C -0.0212(7) -0.9624(14) -0.3777(5)
H24 H -0.01860 -1.06280 -0.35540
H25 H 0.05160 -0.93470 -0.37600
C19 C -0.0911(5) -0.9566(10) -0.4797(4)
C20 C -0.1529(6) -1.0729(9) -0.5192(6)
H26 H -0.15690 -1.15160 -0.47970
C21 C -0.2094(6) -1.0799(9) -0.6140(6)
H27 H -0.25140 -1.16130 -0.63900
C22 C -0.2031(6) -0.968(1) -0.6698(5)
H28 H -0.24070 -0.97360 -0.73500
C23 C -0.1449(5) -0.8459(9) -0.6372(5)
H29 H -0.14330 -0.76860 -0.67840
C24 C -0.0873(5) -0.8393(8) -0.5395(5)
H30 H -0.04660 -0.75680 -0.51460
C25 C 0.0005(4) -0.9108(6) -0.2165(3)
H31 H -0.01140 -1.01480 -0.20640
C26 C 0.1212(4) -0.8799(7) -0.1815(4)
H32 H 0.13700 -0.78840 -0.20990
C27 C 0.1451(4) -0.8618(8) -0.0731(4)
H33 H 0.18190 -0.94740 -0.03930
H34 H 0.18980 -0.77620 -0.05060
C28 C -0.0436(4) -0.8223(6) -0.1502(3)
H35 H -0.04270 -0.71890 -0.16810
C29 C -0.1544(4) -0.8577(6) -0.1421(4)
H36 H -0.21110 -0.82890 -0.20050
C30 C -0.1662(5) -0.7771(7) -0.0543(4)
H37 H -0.13680 -0.67870 -0.04930
H38 H -0.24080 -0.77340 -0.05330
C31 C -0.0985(4) -0.8768(6) 0.0223(3)
C32 C 0.0207(4) -0.8713(6) 0.0262(3)
C33 C -0.1151(5) -0.8644(9) 0.1209(4)
H39 H -0.08180 -0.94640 0.15980
H40 H -0.19110 -0.86370 0.11430
H41 H -0.08300 -0.77530 0.15120
C34 C -0.2723(5) -1.0704(10) -0.1528(5)
H42 H -0.29620 -1.07710 -0.22170
H43 H -0.31900 -1.00540 -0.13170
H44 H -0.27430 -1.16570 -0.12550
#END
