
#######################################################################
#
#                 Cambridge Crystallographic Data Centre
#                                CCDC
#
#######################################################################
#
# If this CIF has been generated from an entry in the Cambridge
# Structural Database, then it will include bibliographic, chemical,
# crystal, experimental, refinement or atomic coordinate data resulting
# from the CCDC's data processing and validation procedures.
#
#######################################################################

data_CSD_CIF_POTKOY
_audit_creation_date 1998-11-19
_audit_creation_method CSD-ConQuest-V1
_database_code_CSD POTKOY
_database_code_depnum_ccdc_archive 'CCDC 1237306; CCDC 409232'
_database_code_depnum_ccdc_fiz 'CSD 409232'
_chemical_formula_sum 'C25 H32 N1 O3'
_chemical_formula_moiety
;
C25 H32 N1 O3
;
_journal_coden_Cambridge 1267
_journal_volume 213
_journal_year 1998
_journal_page_first 641
_journal_name_full 'Z.Kristallogr.-New Cryst.Struct. '
loop_
_publ_author_name
"K.Griesar"
"W.Haase"
"I.Svoboda"
"H.Fuess"
_chemical_name_systematic
;
(4-(2,2,6,6-Tetramethylpiperidinyl-N-oxyl)) 
4'-(4-propyl)biphenyl-4-carboxylate radical
;
_cell_volume   4515.833
_exptl_crystal_colour 'orange'
_exptl_crystal_density_diffrn 1.161
_exptl_crystal_description 'needle'
_exptl_crystal_preparation 'ethanol'
_diffrn_ambient_temperature ?
_diffrn_special_details
;
The study was carried out at room temperature,in the range 283-303K

;
#These two values have been output from a single CSD field.
_refine_ls_R_factor_gt 0.06
_refine_ls_wR_factor_gt 0.06
_symmetry_cell_setting monoclinic
_symmetry_space_group_name_H-M 'C 2'
_symmetry_Int_Tables_number 5
loop_
_symmetry_equiv_pos_site_id
_symmetry_equiv_pos_as_xyz
1 x,y,z
2 -x,y,-z
3 1/2+x,1/2+y,z
4 1/2-x,1/2+y,-z
_cell_length_a 31.204(10)
_cell_length_b 5.865(2)
_cell_length_c 25.311(6)
_cell_angle_alpha 90
_cell_angle_beta 102.87(3)
_cell_angle_gamma 90
_cell_formula_units_Z 8
loop_
_atom_type_symbol
_atom_type_radius_bond
C 0.68
H 0.23
N 0.68
O 0.68
loop_
_atom_site_label
_atom_site_type_symbol
_atom_site_fract_x
_atom_site_fract_y
_atom_site_fract_z
O1 O 0.37008(10) 1.4369(6) -0.04026(14)
N1 N 0.37230(11) 1.2949(7) -0.00107(14)
C1 C 0.41666(14) 1.2062(9) 0.0242(2)
C2 C 0.41535(14) 1.1132(10) 0.0802(2)
H1 H 0.44265(14) 1.0334(10) 0.0948(2)
H2 H 0.41339(14) 1.2401(10) 0.1041(2)
C3 C 0.37764(14) 0.9541(9) 0.0798(2)
H3 H 0.38044(14) 0.8166(9) 0.0588(2)
C4 C 0.33478(14) 1.0704(9) 0.0575(2)
H4 H 0.33096(14) 1.1919(9) 0.0821(2)
H5 H 0.31118(14) 0.9615(9) 0.0563(2)
C5 C 0.33071(13) 1.1708(9) 0.0009(2)
O2 O 0.38155(10) 0.8979(6) 0.13650(12)
C6 C 0.3641(2) 0.7038(10) 0.1494(2)
O3 O 0.3420(2) 0.5821(8) 0.1161(2)
C7 C 0.3739(2) 0.6630(9) 0.2082(2)
C8 C 0.3965(2) 0.8128(10) 0.2457(2)
H6 H 0.4058(2) 0.9511(10) 0.2342(2)
C9 C 0.4056(2) 0.7622(11) 0.3003(2)
H7 H 0.4204(2) 0.8687(11) 0.3249(2)
C10 C 0.3932(2) 0.5555(10) 0.3192(2)
C11 C 0.3707(2) 0.4080(11) 0.2813(2)
H8 H 0.3614(2) 0.2695(11) 0.2927(2)
C12 C 0.3615(2) 0.4568(11) 0.2271(2)
H9 H 0.3466(2) 0.3500(11) 0.2026(2)
C13 C 0.4037(2) 0.5002(10) 0.3778(2)
C14 C 0.4296(2) 0.6411(12) 0.4160(2)
H10 H 0.4407(2) 0.7755(12) 0.4048(2)
C15 C 0.4391(3) 0.5852(14) 0.4703(2)
H11 H 0.4564(3) 0.6847(14) 0.4947(2)
C16 C 0.4245(2) 0.3934(11) 0.4899(2)
C17 C 0.3986(2) 0.2568(13) 0.4523(2)
H12 H 0.3876(2) 0.1228(13) 0.4639(2)
C18 C 0.3880(2) 0.3096(12) 0.3982(2)
H13 H 0.3694(2) 0.2124(12) 0.3745(2)
C19 C 0.4360(2) 0.3353(12) 0.5490(2)
H14 H 0.4473(2) 0.4715(12) 0.5691(2)
H15 H 0.4093(2) 0.2920(12) 0.5600(2)
C20 C 0.4689(2) 0.1488(15) 0.5648(2)
H16 H 0.4959(2) 0.1933(15) 0.5546(2)
H17 H 0.4580(2) 0.0132(15) 0.5442(2)
C21 C 0.4793(2) 0.0905(19) 0.6231(2)
H18 H 0.4944(13) -0.0646(46) 0.6414(19)
H19 H 0.4526(10) 0.1375(70) 0.6416(17)
H20 H 0.5034(11) 0.2255(50) 0.6291(21)
C22 C 0.4486(2) 1.4083(10) 0.0318(2)
H21 H 0.4800(7) 1.3599(80) 0.0569(12)
H22 H 0.4347(14) 1.5451(58) 0.0511(15)
H23 H 0.4531(13) 1.4647(79) -0.0072(9)
C23 C 0.4312(2) 1.0247(11) -0.0119(2)
H24 H 0.4647(5) 0.9904(76) 0.0089(15)
H25 H 0.4309(13) 1.0989(73) -0.0510(9)
H26 H 0.4128(13) 0.8674(42) -0.0172(17)
C24 C 0.3216(2) 0.9887(10) -0.0432(2)
H27 H 0.3464(10) 0.8609(57) -0.0288(18)
H28 H 0.3259(12) 1.0563(78) -0.0813(9)
H29 H 0.2894(6) 0.9126(71) -0.0487(16)
C25 C 0.29383(15) 1.3445(10) -0.0101(2)
H30 H 0.2631(8) 1.2651(70) -0.0077(15)
H31 H 0.2911(14) 1.4160(71) -0.0500(7)
H32 H 0.3014(14) 1.4782(54) 0.0199(13)
O4 O 0.46435(12) -0.7505(7) 0.85206(15)
N2 N 0.44730(12) -0.6161(7) 0.81300(15)
C26 C 0.47864(15) -0.5111(10) 0.7838(2)
C27 C 0.4529(2) -0.4230(11) 0.7295(2)
H33 H 0.4431(2) -0.5521(11) 0.7059(2)
H34 H 0.4723(2) -0.3323(11) 0.7130(2)
C28 C 0.4129(2) -0.279(1) 0.7331(2)
H35 H 0.4216(2) -0.1367(10) 0.7528(2)
C29 C 0.3828(2) -0.4164(10) 0.7592(2)
H36 H 0.3713(2) -0.5427(10) 0.7355(2)
H37 H 0.3581(2) -0.3214(10) 0.7626(2)
C30 C 0.40417(15) -0.5113(9) 0.8151(2)
O5 O 0.39191(11) -0.2354(7) 0.67678(13)
C31 C 0.3633(2) -0.0689(10) 0.6638(2)
O6 O 0.3542(2) 0.0598(9) 0.6966(2)
C32 C 0.34409(14) -0.0582(9) 0.6054(2)
C33 C 0.3509(2) -0.2292(12) 0.5709(2)
H38 H 0.3680(2) -0.3541(12) 0.5850(2)
C34 C 0.3331(2) -0.2204(12) 0.5159(2)
H39 H 0.3379(2) -0.3405(12) 0.4939(2)
C35 C 0.30827(14) -0.0342(10) 0.4931(2)
C36 C 0.3008(2) 0.134(1) 0.5278(2)
H40 H 0.2836(2) 0.2591(10) 0.5139(2)
C37 C 0.3183(2) 0.1209(10) 0.5830(2)
H41 H 0.3123(2) 0.2367(10) 0.6054(2)
C38 C 0.29140(15) -0.0211(11) 0.4335(2)
C39 C 0.2649(2) 0.1539(14) 0.4091(2)
H42 H 0.2565(2) 0.2670(14) 0.4306(2)
C40 C 0.2507(2) 0.1651(18) 0.3541(2)
H43 H 0.2332(2) 0.2875(18) 0.3390(2)
C41 C 0.2613(2) 0.0013(18) 0.3203(2)
C42 C 0.2874(3) -0.1654(19) 0.3443(3)
H44 H 0.2963(3) -0.2765(19) 0.3229(3)
C43 C 0.3015(2) -0.1799(15) 0.3992(2)
H45 H 0.3188(2) -0.3036(15) 0.4137(2)
C44 C 0.2448(3) 0.000(2) 0.2598(3)
H46 H 0.2292(3) -0.1431(20) 0.2512(3)
H47 H 0.2228(3) 0.1192(20) 0.2518(3)
C45 C 0.2660(4) 0.0203(31) 0.2286(5)
H48 H 0.2850(4) -0.1126(31) 0.2340(5)
H49 H 0.2850(4) 0.1487(31) 0.2418(5)
C46 C 0.2540(3) 0.0527(27) 0.1666(4)
H50 H 0.2741(11) 0.0906(71) 0.1380(15)
H51 H 0.2299(12) 0.1858(53) 0.1652(20)
H52 H 0.2376(13) -0.1085(41) 0.1563(19)
C47 C 0.3748(2) -0.7041(11) 0.8286(2)
H53 H 0.3439(8) -0.6286(73) 0.8315(15)
H54 H 0.3892(13) -0.7894(70) 0.8661(9)
H55 H 0.3693(13) -0.826(6) 0.7958(12)
C48 C 0.4104(2) -0.3303(11) 0.8589(2)
H56 H 0.3768(5) -0.2906(75) 0.8600(17)
H57 H 0.4275(12) -0.1752(43) 0.8534(18)
H58 H 0.4264(11) -0.4104(73) 0.8965(11)
C49 C 0.5047(2) -0.3238(12) 0.8180(3)
H59 H 0.4849(13) -0.1813(50) 0.8256(17)
H60 H 0.5293(9) -0.2648(73) 0.7974(16)
H61 H 0.5205(12) -0.4014(75) 0.8561(10)
C50 C 0.5097(2) -0.6915(13) 0.7737(2)
H62 H 0.5304(11) -0.6203(75) 0.7489(13)
H63 H 0.4938(14) -0.8432(47) 0.7546(15)
H64 H 0.5296(11) -0.7347(77) 0.8131(8)
#END
