
#######################################################################
#
#                 Cambridge Crystallographic Data Centre
#                                CCDC
#
#######################################################################
#
# If this CIF has been generated from an entry in the Cambridge
# Structural Database, then it will include bibliographic, chemical,
# crystal, experimental, refinement or atomic coordinate data resulting
# from the CCDC's data processing and validation procedures.
#
#######################################################################

data_CSD_CIF_POVCIO
_audit_creation_date 2014-10-29
_audit_creation_method CSD-ConQuest-V1
_database_code_CSD POVCIO
_database_code_depnum_ccdc_archive 'CCDC 1001853'
_chemical_formula_sum 'C21 H19 N3 O7'
_chemical_formula_moiety
;
C21 H19 N3 O7
;
_journal_coden_Cambridge 1220
_journal_volume 20
_journal_year 2014
_journal_page_first 16853
_journal_name_full 'Chem.-Eur.J. '
loop_
_publ_author_name
"M.Meazza"
"V.Ceban"
"M.B.Pitak"
"S.J.Coles"
"R.Rios"
_chemical_name_systematic
;
methyl 6-(6-nitro-1,3-benzoxazol-2-yl)-5-(4-nitrophenyl)hept-2-enoate
;
_cell_volume   3941.117
_exptl_crystal_colour 'light brown'
_exptl_crystal_density_diffrn 1.434
_exptl_crystal_description 'lath'
_diffrn_ambient_temperature 100
#These two values have been output from a single CSD field.
_refine_ls_R_factor_gt 0.0596
_refine_ls_wR_factor_gt 0.0596
_symmetry_cell_setting monoclinic
_symmetry_space_group_name_H-M 'C 2'
_symmetry_Int_Tables_number 5
loop_
_symmetry_equiv_pos_site_id
_symmetry_equiv_pos_as_xyz
1 x,y,z
2 -x,y,-z
3 1/2+x,1/2+y,z
4 1/2-x,1/2+y,-z
_cell_length_a 17.969(2)
_cell_length_b 11.0559(15)
_cell_length_c 19.839(3)
_cell_angle_alpha 90
_cell_angle_beta 90.528(6)
_cell_angle_gamma 90
_cell_formula_units_Z 8
loop_
_atom_type_symbol
_atom_type_radius_bond
C 0.68
H 0.23
N 0.68
O 0.68
loop_
_atom_site_label
_atom_site_type_symbol
_atom_site_fract_x
_atom_site_fract_y
_atom_site_fract_z
C1 C 0.7483(3) 0.2736(5) 0.3645(2)
C2 C 0.7294(3) 0.3775(5) 0.3987(2)
H1 H 0.74940 0.45490 0.38860
C3 C 0.6779(3) 0.3573(5) 0.4494(3)
C4 C 0.6492(3) 0.2451(5) 0.4656(3)
H2 H 0.61420 0.23810 0.50090
C5 C 0.6713(3) 0.1422(5) 0.4305(2)
H3 H 0.65320 0.06400 0.44150
C6 C 0.7207(3) 0.1602(5) 0.3788(2)
C7 C 0.7903(3) 0.1440(5) 0.2930(2)
C8 C 0.8312(3) 0.1018(4) 0.2322(2)
H4 H 0.81880 0.01420 0.22640
C9 C 0.9151(3) 0.1092(5) 0.2436(3)
H5 H 0.92950 0.19360 0.25120
H6 H 0.94070 0.07790 0.20390
H7 H 0.92900 0.06070 0.28310
C10 C 0.8036(3) 0.1671(5) 0.1676(2)
H8 H 0.82100 0.25300 0.16950
C11 C 0.8375(3) 0.1075(4) 0.1052(2)
C12 C 0.8714(3) 0.1768(5) 0.0566(2)
H9 H 0.87450 0.26200 0.06230
C13 C 0.9012(3) 0.1237(5) -0.0007(2)
H10 H 0.92540 0.17130 -0.03380
C14 C 0.8948(3) 0.0011(5) -0.0079(2)
C15 C 0.8595(3) -0.0701(5) 0.0380(2)
H11 H 0.85480 -0.15480 0.03090
C16 C 0.8305(3) -0.0161(5) 0.0952(2)
H12 H 0.80560 -0.06420 0.12770
C17 C 0.7182(3) 0.1675(5) 0.1582(3)
H13 H 0.70660 0.19220 0.11130
H14 H 0.69980 0.08380 0.16400
C18 C 0.6762(3) 0.2480(5) 0.2048(2)
H15 H 0.69030 0.33080 0.20650
C19 C 0.6214(3) 0.2140(5) 0.2434(2)
H16 H 0.60850 0.13070 0.24440
C20 C 0.5789(3) 0.2986(6) 0.2856(3)
C21 C 0.4796(3) 0.3101(5) 0.3639(3)
H17 H 0.51070 0.34670 0.39930
H18 H 0.44180 0.25850 0.38460
H19 H 0.45520 0.37400 0.33760
N1 N 0.6509(3) 0.4612(4) 0.4874(2)
N2 N 0.7500(2) 0.0782(4) 0.33153(19)
N3 N 0.9275(3) -0.0563(5) -0.0675(2)
O1 O 0.6810(2) 0.5588(4) 0.47896(19)
O2 O 0.5990(2) 0.4472(4) 0.52673(19)
O3 O 0.7952(2) 0.2647(3) 0.30982(16)
O4 O 0.9593(2) 0.0067(4) -0.10876(18)
O5 O 0.9220(2) -0.1673(4) -0.07212(19)
O6 O 0.5882(2) 0.4057(3) 0.29134(18)
O7 O 0.52598(19) 0.2373(3) 0.31974(17)
C22 C 0.8850(3) 0.7146(4) 0.2103(2)
C23 C 0.9424(3) 0.7339(5) 0.1662(3)
H20 H 0.95390 0.81260 0.15010
C24 C 0.9826(3) 0.6342(5) 0.1466(2)
H21 H 1.02220 0.64310 0.11570
C25 C 0.9655(3) 0.5212(5) 0.1718(3)
C26 C 0.9086(3) 0.4980(5) 0.2169(2)
H22 H 0.89730 0.41960 0.23340
C27 C 0.8707(3) 0.6002(5) 0.2351(2)
C28 C 0.7915(3) 0.7296(4) 0.2752(2)
C29 C 0.7279(3) 0.7712(5) 0.3163(2)
H23 H 0.71830 0.85730 0.30350
C30 C 0.7500(3) 0.7717(5) 0.3902(2)
H24 H 0.76380 0.68970 0.40420
H25 H 0.70800 0.79990 0.41720
H26 H 0.79250 0.82600 0.39700
C31 C 0.6559(3) 0.7014(5) 0.3008(2)
H27 H 0.66210 0.61650 0.31730
C32 C 0.5910(3) 0.7587(5) 0.3384(2)
C33 C 0.5442(3) 0.6883(5) 0.3775(2)
H28 H 0.55300 0.60380 0.38110
C34 C 0.4849(3) 0.7389(5) 0.4113(2)
H29 H 0.45380 0.69070 0.43890
C35 C 0.4723(3) 0.8609(5) 0.4039(2)
C36 C 0.5166(3) 0.9345(5) 0.3647(2)
H30 H 0.50660 1.01850 0.36030
C37 C 0.5758(3) 0.8816(5) 0.3321(3)
H31 H 0.60690 0.93020 0.30470
C38 C 0.6353(3) 0.6971(5) 0.2251(3)
H32 H 0.58310 0.66970 0.22040
H33 H 0.63820 0.78020 0.20660
C39 C 0.6833(3) 0.6168(5) 0.1840(2)
H34 H 0.68710 0.53500 0.19830
C40 C 0.7206(3) 0.6463(5) 0.1305(3)
H35 H 0.71840 0.72780 0.11540
C41 C 0.7657(3) 0.5608(5) 0.0925(3)
C42 C 0.8522(3) 0.5353(6) 0.0046(3)
H36 H 0.88840 0.49590 0.03470
H37 H 0.87870 0.58270 -0.02940
H38 H 0.82160 0.47370 -0.01790
N4 N 1.0089(3) 0.4182(4) 0.1472(2)
N5 N 0.8329(2) 0.7956(4) 0.23732(19)
N6 N 0.4111(3) 0.9184(5) 0.4409(2)
O8 O 0.9843(2) 0.3163(3) 0.1554(2)
O9 O 1.0691(2) 0.4393(4) 0.1199(2)
O10 O 0.81080(18) 0.6087(3) 0.27839(16)
O11 O 0.3785(2) 0.8580(4) 0.48304(19)
O12 O 0.3946(2) 1.0235(4) 0.42679(19)
O13 O 0.7703(2) 0.4528(3) 0.10340(18)
O14 O 0.8044(2) 0.6156(3) 0.04389(17)
#END
