
#######################################################################
#
#                 Cambridge Crystallographic Data Centre
#                                CCDC
#
#######################################################################
#
# If this CIF has been generated from an entry in the Cambridge
# Structural Database, then it will include bibliographic, chemical,
# crystal, experimental, refinement or atomic coordinate data resulting
# from the CCDC's data processing and validation procedures.
#
#######################################################################

data_CSD_CIF_POVLAP
_audit_creation_date 2014-10-29
_audit_creation_method CSD-ConQuest-V1
_database_code_CSD POVLAP
_database_code_depnum_ccdc_archive 'CCDC 988408'
_chemical_formula_sum 'C4 H6 N6 O3'
_chemical_formula_moiety
;
C4 H6 N6 O3
;
_journal_coden_Cambridge 440
_journal_volume 39
_journal_year 2015
_journal_page_first 1619
_journal_name_full 'New J.Chem. '
loop_
_publ_author_name
"D.Fischer"
"T.M.Klapotke"
"M.Reymann"
"J.Stierstorfer"
"M.B.R.Volkl"
_chemical_name_systematic
;
N'^3^,N'^4^-dihydroxy-1,2,5-oxadiazole-3,4-dicarboximidamide
;
_cell_volume    741.453
_exptl_crystal_colour 'colorless'
_exptl_crystal_density_diffrn 1.668
_exptl_crystal_description 'rod'
_diffrn_ambient_temperature 100
#These two values have been output from a single CSD field.
_refine_ls_R_factor_gt 0.0388
_refine_ls_wR_factor_gt 0.0388
_symmetry_cell_setting monoclinic
_symmetry_space_group_name_H-M 'C 2/c'
_symmetry_Int_Tables_number 15
loop_
_symmetry_equiv_pos_site_id
_symmetry_equiv_pos_as_xyz
1 x,y,z
2 -x,y,1/2-z
3 1/2+x,1/2+y,z
4 1/2-x,1/2+y,1/2-z
5 -x,-y,-z
6 x,-y,-1/2+z
7 -1/2-x,-1/2-y,-z
8 -1/2+x,-1/2-y,-1/2+z
_cell_length_a 12.844(3)
_cell_length_b 8.919(5)
_cell_length_c 6.988(4)
_cell_angle_alpha 90
_cell_angle_beta 112.147(5)
_cell_angle_gamma 90
_cell_formula_units_Z 4
loop_
_atom_type_symbol
_atom_type_radius_bond
C 0.68
H 0.23
N 0.68
O 0.68
loop_
_atom_site_label
_atom_site_type_symbol
_atom_site_fract_x
_atom_site_fract_y
_atom_site_fract_z
O1 O 0.50000 0.10144(18) 0.75000
O2 O 0.63092(10) -0.46493(14) 0.5470(2)
N1 N 0.56213(12) -0.36575(15) 0.6066(2)
N2 N 0.72743(13) -0.22093(19) 0.7243(3)
N3 N 0.58328(12) 0.01326(15) 0.7294(2)
C1 C 0.61827(14) -0.24697(18) 0.6904(3)
C2 C 0.55273(14) -0.12558(17) 0.7359(3)
H1 H 0.7560(17) -0.135(2) 0.766(3)
H2 H 0.7681(17) -0.294(2) 0.686(3)
H3 H 0.582(2) -0.525(3) 0.489(5)
O2A O 0.36908(10) -0.46493(14) 0.9530(2)
N1A N 0.43787(12) -0.36575(15) 0.8934(2)
N2A N 0.27257(13) -0.22093(19) 0.7757(3)
N3A N 0.41672(12) 0.01326(15) 0.7706(2)
C1A C 0.38173(14) -0.24697(18) 0.8096(3)
C2A C 0.44727(14) -0.12558(17) 0.7641(3)
H1A H 0.2440(17) -0.135(2) 0.734(3)
H2A H 0.2319(17) -0.294(2) 0.814(3)
H3A H 0.418(2) -0.525(3) 1.011(5)
#END
