
#######################################################################
#
#                 Cambridge Crystallographic Data Centre
#                                CCDC
#
#######################################################################
#
# If this CIF has been generated from an entry in the Cambridge
# Structural Database, then it will include bibliographic, chemical,
# crystal, experimental, refinement or atomic coordinate data resulting
# from the CCDC's data processing and validation procedures.
#
#######################################################################

data_CSD_CIF_POWDAI
_audit_creation_date 2014-10-29
_audit_creation_method CSD-ConQuest-V1
_database_code_CSD POWDAI
_database_code_depnum_ccdc_archive 'CCDC 987083'
_chemical_formula_sum 'C22 H18 N2 O3'
_chemical_formula_moiety
;
C22 H18 N2 O3
;
_journal_coden_Cambridge 1336
_journal_volume 16
_journal_year 2014
_journal_page_first 4198
_journal_name_full 'Org.Lett. '
loop_
_publ_author_name
"I.Nakamura"
"T.Onuma"
"Ryo Kanazawa"
"Y.Nishigai"
"M.Terada"
_chemical_name_systematic
;
N-(1,3-diphenylprop-2-en-1-ylidene)-N-(4-nitrobenzyl)amine oxide
;
_cell_volume   1812.739
_exptl_crystal_colour 'colorless'
_exptl_crystal_density_diffrn 1.313
_exptl_crystal_description 'block'
_diffrn_ambient_temperature 150
#These two values have been output from a single CSD field.
_refine_ls_R_factor_gt 0.0381
_refine_ls_wR_factor_gt 0.0381
_symmetry_cell_setting monoclinic
_symmetry_space_group_name_H-M 'P 21/n'
_symmetry_Int_Tables_number 14
loop_
_symmetry_equiv_pos_site_id
_symmetry_equiv_pos_as_xyz
1 x,y,z
2 1/2-x,1/2+y,1/2-z
3 -x,-y,-z
4 -1/2+x,-1/2-y,-1/2+z
_cell_length_a 14.0236(14)
_cell_length_b 6.7864(7)
_cell_length_c 19.674(2)
_cell_angle_alpha 90
_cell_angle_beta 104.499(7)
_cell_angle_gamma 90
_cell_formula_units_Z 4
loop_
_atom_type_symbol
_atom_type_radius_bond
C 0.68
H 0.23
N 0.68
O 0.68
loop_
_atom_site_label
_atom_site_type_symbol
_atom_site_fract_x
_atom_site_fract_y
_atom_site_fract_z
O1 O 0.20985(6) 0.86412(13) 0.26226(4)
O2 O 0.42909(9) 1.21573(16) 0.62866(5)
O3 O 0.44788(8) 1.42780(14) 0.55164(6)
N1 N 0.42406(8) 1.26421(15) 0.56797(6)
N2 N 0.20649(7) 0.72350(14) 0.30592(5)
C1 C 0.12251(8) 0.47373(17) 0.36105(6)
C2 C 0.30354(8) 0.67489(18) 0.35425(6)
C3 C 0.09936(9) 0.3654(2) 0.47288(6)
C4 C 0.03279(8) 0.69987(17) 0.26242(6)
C5 C 0.12376(8) 0.63457(16) 0.30966(6)
C6 C 0.39686(9) 1.16021(18) 0.44424(6)
C7 C 0.10580(9) 0.51613(18) 0.42653(6)
C8 C 0.33371(8) 0.83413(17) 0.40937(6)
C9 C 0.32716(8) 0.79784(18) 0.47777(6)
C10 C -0.16217(9) 0.85541(19) 0.17742(6)
C11 C -0.14851(8) 0.67079(18) 0.21047(6)
C12 C -0.05421(8) 0.60998(18) 0.25677(6)
C13 C 0.12323(10) 0.12782(19) 0.38906(7)
C14 C 0.36829(9) 1.01675(19) 0.39300(6)
C15 C -0.22816(9) 0.5403(2) 0.19865(6)
C16 C 0.35518(9) 0.93930(18) 0.52950(6)
C17 C 0.13120(9) 0.27794(18) 0.34284(7)
C18 C 0.38989(8) 1.11783(17) 0.51179(6)
C19 C 0.10813(9) 0.17114(19) 0.45418(7)
C20 C -0.33096(10) 0.7739(3) 0.12224(7)
C21 C -0.3186(1) 0.5920(3) 0.15492(7)
C22 C -0.25275(9) 0.9052(2) 0.13345(7)
H1 H 0.35390 0.66290 0.32710
H2 H 0.29910 0.54690 0.37740
H3 H 0.08890 0.39580 0.51760
H4 H 0.03470 0.81210 0.23390
H5 H 0.42060 1.28440 0.43340
H6 H 0.09880 0.64920 0.43950
H7 H 0.30310 0.67430 0.48900
H8 H -0.10920 0.94670 0.18520
H9 H -0.05460 0.49720 0.28530
H10 H 0.12820 -0.00570 0.37580
H11 H 0.37230 1.04280 0.34630
H12 H -0.22030 0.41490 0.22080
H13 H 0.35070 0.91440 0.57610
H14 H 0.14270 0.24660 0.29850
H15 H 0.10380 0.06800 0.48590
H16 H -0.39290 0.80890 0.09220
H17 H -0.37220 0.50210 0.14740
H18 H -0.26120 1.03000 0.11090
#END
