
#######################################################################
#
#                 Cambridge Crystallographic Data Centre
#                                CCDC
#
#######################################################################
#
# If this CIF has been generated from an entry in the Cambridge
# Structural Database, then it will include bibliographic, chemical,
# crystal, experimental, refinement or atomic coordinate data resulting
# from the CCDC's data processing and validation procedures.
#
#######################################################################

data_CSD_CIF_POWDEL
_audit_creation_date 2009-09-08
_audit_creation_method CSD-ConQuest-V1
_database_code_CSD POWDEL
_database_code_depnum_ccdc_archive 'CCDC 742193'
_chemical_formula_sum 'C20 H22 N4 O2'
_chemical_formula_moiety
;
C20 H22 N4 O2
;
_journal_coeditor_code "IUCr SK3324"
_journal_coden_Cambridge 591
_journal_volume 65
_journal_year 2009
_journal_page_first o303
_journal_name_full 'Acta Crystallogr.,Sect.C:Cryst.Struct.Commun. '
loop_
_publ_author_name
"J.C.Castillo"
"R.Abonia"
"J.Cobo"
"C.Glidewell"
_chemical_name_systematic
;
3-t-Butyl-5-(4-nitrobenzylamino)-1-phenyl-1H-pyrazole
;
_chemical_melting_point 375
_cell_volume   1831.615
_exptl_crystal_colour 'colorless'
_exptl_crystal_density_diffrn 1.271
_exptl_special_details
;
Melting point range 375-377K

;
_exptl_crystal_description 'block'
_exptl_crystal_preparation 'ethanol'
_diffrn_ambient_temperature 120
#These two values have been output from a single CSD field.
_refine_ls_R_factor_gt 0.0619
_refine_ls_wR_factor_gt 0.0619
_symmetry_cell_setting monoclinic
_symmetry_space_group_name_H-M 'P 21/n'
_symmetry_Int_Tables_number 14
loop_
_symmetry_equiv_pos_site_id
_symmetry_equiv_pos_as_xyz
1 x,y,z
2 1/2-x,1/2+y,1/2-z
3 -x,-y,-z
4 -1/2+x,-1/2-y,-1/2+z
_cell_length_a 9.6594(11)
_cell_length_b 12.3991(11)
_cell_length_c 15.4338(15)
_cell_angle_alpha 90
_cell_angle_beta 97.744(8)
_cell_angle_gamma 90
_cell_formula_units_Z 4
loop_
_atom_type_symbol
_atom_type_radius_bond
C 0.68
H 0.23
N 0.68
O 0.68
loop_
_atom_site_label
_atom_site_type_symbol
_atom_site_fract_x
_atom_site_fract_y
_atom_site_fract_z
N1 N 0.54515(19) 0.29546(15) 0.37184(12)
N2 N 0.5523(2) 0.40273(15) 0.34981(13)
C1 C 0.6634(2) 0.43900(19) 0.40051(15)
C2 C 0.7276(3) 0.35830(19) 0.45548(16)
H1 H 0.80880 0.36500 0.49730
C3 C 0.6483(2) 0.26791(19) 0.43621(15)
C4 C 0.4367(2) 0.23064(19) 0.32945(14)
C5 C 0.4654(3) 0.1275(2) 0.30360(16)
H2 H 0.55810 0.10030 0.31420
C6 C 0.3596(3) 0.0642(2) 0.26241(17)
H3 H 0.37900 -0.00750 0.24600
C7 C 0.2261(3) 0.1039(2) 0.24483(17)
H4 H 0.15340 0.06000 0.21610
C8 C 0.1980(3) 0.2078(2) 0.26904(16)
H5 H 0.10610 0.23600 0.25590
C9 C 0.3028(2) 0.2712(2) 0.31232(15)
H6 H 0.28290 0.34220 0.33020
C10 C 0.7023(3) 0.55641(19) 0.39837(16)
C11 C 0.8514(3) 0.5736(3) 0.4381(3)
H7 H 0.86330 0.55010 0.49930
H8 H 0.87480 0.65030 0.43530
H9 H 0.91330 0.53160 0.40570
C12 C 0.6033(4) 0.6183(2) 0.4499(2)
H10 H 0.50700 0.60970 0.42140
H11 H 0.62820 0.69500 0.45180
H12 H 0.61130 0.58990 0.50960
C13 C 0.6827(3) 0.5997(2) 0.30547(19)
H13 H 0.74840 0.56380 0.27180
H14 H 0.70030 0.67760 0.30650
H15 H 0.58680 0.58570 0.27820
N3 N 0.6612(2) 0.16617(16) 0.47086(13)
H16 H 0.58230 0.12990 0.46730
C14 C 0.8964(2) 0.14249(17) 0.55521(15)
C15 C 0.9570(2) 0.14165(18) 0.47924(15)
H17 H 0.90040 0.15170 0.42450
C16 C 1.0986(3) 0.12631(18) 0.48192(16)
H18 H 1.14030 0.12410 0.42960
C17 C 1.1782(2) 0.11428(18) 0.56191(16)
C18 C 1.1214(3) 0.11572(19) 0.63885(16)
H19 H 1.17860 0.10790 0.69360
C19 C 0.9799(3) 0.12875(19) 0.63437(15)
H20 H 0.93830 0.12830 0.68670
C20 C 0.7421(2) 0.1560(2) 0.55646(15)
H21 H 0.70710 0.09310 0.58650
H22 H 0.72660 0.22110 0.59110
N4 N 1.3281(2) 0.09935(16) 0.56544(16)
O1 O 1.37432(19) 0.08451(15) 0.49616(14)
O2 O 1.40060(19) 0.10297(16) 0.63617(14)
#END
