
#######################################################################
#
#                 Cambridge Crystallographic Data Centre
#                                CCDC
#
#######################################################################
#
# If this CIF has been generated from an entry in the Cambridge
# Structural Database, then it will include bibliographic, chemical,
# crystal, experimental, refinement or atomic coordinate data resulting
# from the CCDC's data processing and validation procedures.
#
#######################################################################

data_CSD_CIF_POWJOA
_audit_creation_date 1998-11-26
_audit_creation_method CSD-ConQuest-V1
_database_code_CSD POWJOA
_chemical_formula_sum 'C26 H32 N8 O4'
_chemical_formula_moiety
;
C26 H32 N8 O4
;
_journal_coden_Cambridge 35
_journal_volume 62
_journal_year 1997
_journal_page_first 8854
_journal_name_full 'J.Org.Chem. '
loop_
_publ_author_name
"R.Akabane"
"M.Tanaka"
"K.Matsuo"
"N.Koga"
"K.Matsuda"
"H.Iwamura"
_chemical_name_systematic
;
1,3-bis(2-(1-Oxyl-3-oxo-4,4,5,5-tetramethylimidazolin-2-yl)imidazol-1-yl)benze
ne
;
_chemical_melting_point 500.15
_cell_volume   2627.664
_exptl_crystal_colour 'blue'
_exptl_crystal_density_diffrn 1.32
_exptl_special_details
;
Melting point range 500.15-501.15K

;
_exptl_crystal_description 'brick'
_exptl_crystal_preparation 'cyclohexane-dichloromethane'
_diffrn_ambient_temperature ?
_diffrn_special_details
;
The study was carried out at room temperature,in the range 283-303K

;
#These two values have been output from a single CSD field.
_refine_ls_R_factor_gt 0.03
_refine_ls_wR_factor_gt 0.03
_symmetry_cell_setting orthorhombic
_symmetry_space_group_name_H-M 'P b c n'
_symmetry_Int_Tables_number 60
loop_
_symmetry_equiv_pos_site_id
_symmetry_equiv_pos_as_xyz
1 x,y,z
2 1/2-x,1/2-y,1/2+z
3 1/2+x,1/2-y,-z
4 -x,y,1/2-z
5 -x,-y,-z
6 -1/2+x,-1/2+y,-1/2-z
7 -1/2-x,-1/2+y,z
8 x,-y,-1/2+z
_cell_length_a 10.448(6)
_cell_length_b 13.859(4)
_cell_length_c 18.147(4)
_cell_angle_alpha 90
_cell_angle_beta 90
_cell_angle_gamma 90
_cell_formula_units_Z 4
loop_
_atom_type_symbol
_atom_type_radius_bond
C 0.68
H 0.23
N 0.68
O 0.68
loop_
_atom_site_label
_atom_site_type_symbol
_atom_site_fract_x
_atom_site_fract_y
_atom_site_fract_z
O1 O 0.092(1) 0.7539(7) 0.1544(7)
O2 O -0.0584(10) 0.4631(6) 0.0772(5)
N1 N 0.023(1) 0.6914(9) 0.1256(7)
N2 N -0.049(1) 0.5526(8) 0.0910(7)
N3 N 0.284(1) 0.5934(8) 0.1162(7)
N4 N 0.186(1) 0.4706(8) 0.1738(6)
C1 C 0.052(2) 0.598(1) 0.1190(8)
C2 C -0.102(1) 0.716(1) 0.0869(10)
C3 C -0.163(1) 0.618(1) 0.0854(9)
C4 C -0.062(1) 0.754(1) 0.0109(10)
C5 C -0.170(1) 0.7961(10) 0.1266(8)
C6 C -0.248(1) 0.599(1) 0.1519(7)
C7 C -0.239(1) 0.595(1) 0.0151(8)
C8 C 0.177(2) 0.5570(9) 0.1358(8)
C9 C 0.373(1) 0.527(1) 0.1408(9)
C10 C 0.315(1) 0.455(1) 0.1759(8)
C11 C 0.00000 0.464(1) 0.25000
C12 C 0.090(1) 0.4155(10) 0.2113(7)
C13 C 0.094(1) 0.3166(9) 0.2112(8)
C14 C 0.00000 0.266(1) 0.25000
H1 H -0.00480 0.80690 0.01690
H2 H -0.02030 0.70420 -0.01590
H3 H -0.13560 0.77480 -0.01530
H4 H -0.11530 0.85050 0.13040
H5 H -0.19370 0.77500 0.17460
H6 H -0.24500 0.81340 0.09990
H7 H -0.32200 0.63820 0.14900
H8 H -0.20170 0.61400 0.19560
H9 H -0.27180 0.53290 0.15260
H10 H -0.31410 0.63360 0.01360
H11 H -0.18780 0.60800 -0.02690
H12 H -0.26260 0.52860 0.01520
H13 H 0.46250 0.53210 0.13360
H14 H 0.35580 0.40150 0.19850
H15 H 0.00000 0.53750 0.25000
H16 H 0.15940 0.28300 0.18530
H17 H 0.00000 0.19230 0.25000
C12C C -0.090(1) 0.4155(10) 0.2887(7)
N4C N -0.186(1) 0.4706(8) 0.3262(6)
C8C C -0.177(2) 0.5570(9) 0.3642(8)
N3C N -0.284(1) 0.5934(8) 0.3838(7)
C9C C -0.373(1) 0.527(1) 0.3592(9)
C10C C -0.315(1) 0.455(1) 0.3241(8)
H14C H -0.35580 0.40150 0.30150
H13C H -0.46250 0.53210 0.36640
C1C C -0.052(2) 0.598(1) 0.3810(8)
N1C N -0.023(1) 0.6914(9) 0.3744(7)
O1C O -0.092(1) 0.7539(7) 0.3456(7)
C2C C 0.102(1) 0.716(1) 0.4131(10)
C3C C 0.163(1) 0.618(1) 0.4146(9)
N2C N 0.049(1) 0.5526(8) 0.4090(7)
O2C O 0.0584(10) 0.4631(6) 0.4228(5)
C6C C 0.248(1) 0.599(1) 0.3481(7)
H7C H 0.32200 0.63820 0.35100
H8C H 0.20170 0.61400 0.30440
H9C H 0.27180 0.53290 0.34740
C7C C 0.239(1) 0.595(1) 0.4849(8)
H10C H 0.31410 0.63360 0.48640
H11C H 0.18780 0.60800 0.52690
H12C H 0.26260 0.52860 0.48480
C4C C 0.062(1) 0.754(1) 0.4891(10)
H1C H 0.00480 0.80690 0.48310
H2C H 0.02030 0.70420 0.51590
H3C H 0.13560 0.77480 0.51530
C5C C 0.170(1) 0.7961(10) 0.3734(8)
H4C H 0.11530 0.85050 0.36960
H5C H 0.19370 0.77500 0.32540
H6C H 0.24500 0.81340 0.40010
C13C C -0.094(1) 0.3166(9) 0.2888(8)
H16C H -0.15940 0.28300 0.31470
#END
