
#######################################################################
#
#                 Cambridge Crystallographic Data Centre
#                                CCDC
#
#######################################################################
#
# If this CIF has been generated from an entry in the Cambridge
# Structural Database, then it will include bibliographic, chemical,
# crystal, experimental, refinement or atomic coordinate data resulting
# from the CCDC's data processing and validation procedures.
#
#######################################################################

data_CSD_CIF_POWLET
_audit_creation_date 2009-09-08
_audit_creation_method CSD-ConQuest-V1
_database_code_CSD POWLET
_database_code_depnum_ccdc_archive 'CCDC 741596'
_chemical_formula_sum 'C11 H14 N2 O4'
_chemical_formula_moiety
;
C11 H14 N2 O4
;
_journal_coeditor_code "IUCr LH2837"
_journal_coden_Cambridge 1370
_journal_volume 65
_journal_year 2009
_journal_page_first o1557
_journal_name_full 'Acta Crystallogr.,Sect.E:Struct.Rep.Online '
loop_
_publ_author_name
"S.N.Narendra Babu"
"A.S.Abdul Rahim"
"S.A.Hamid"
"C.S.Yeap"
"H.-K.Fun"
_chemical_name_systematic
;
4-(sec-Butylamino)-3-nitrobenzoic acid
;
_cell_volume   2339.964
_exptl_crystal_colour 'yellow'
_exptl_crystal_density_diffrn 1.353
_exptl_crystal_description 'needle'
_exptl_crystal_preparation 'ethyl acetate'
_diffrn_ambient_temperature 110
_refine_special_details
;
A sec-butyl group is disordered over two sites with occupancies 0.722:0.278. 
The second sec-butyl group is disordered over three sites with occupancies 
0.42:0.35:0.23.
;
#These two values have been output from a single CSD field.
_refine_ls_R_factor_gt 0.0701
_refine_ls_wR_factor_gt 0.0701
_symmetry_cell_setting monoclinic
_symmetry_space_group_name_H-M 'P 21/c'
_symmetry_Int_Tables_number 14
loop_
_symmetry_equiv_pos_site_id
_symmetry_equiv_pos_as_xyz
1 x,y,z
2 -x,1/2+y,1/2-z
3 -x,-y,-z
4 x,-1/2-y,-1/2+z
_cell_length_a 6.9722(4)
_cell_length_b 15.7250(8)
_cell_length_c 21.8111(11)
_cell_angle_alpha 90
_cell_angle_beta 101.896(3)
_cell_angle_gamma 90
_cell_formula_units_Z 8
loop_
_atom_type_symbol
_atom_type_radius_bond
C 0.68
H 0.23
N 0.68
O 0.68
loop_
_atom_site_label
_atom_site_type_symbol
_atom_site_fract_x
_atom_site_fract_y
_atom_site_fract_z
O1 O 0.4975(3) 0.90262(13) 0.95499(9)
H1 H 0.49830 0.92200 0.98990
O2 O 0.5198(3) 1.04071(13) 0.93205(9)
O3 O 0.5205(3) 1.11848(13) 0.71999(10)
O4 O 0.5426(4) 1.02816(15) 0.64713(10)
N1 N 0.5280(4) 1.04472(16) 0.70177(12)
N2 N 0.5194(4) 0.86394(17) 0.66720(12)
C1 C 0.5195(4) 0.97566(18) 0.74513(13)
C2 C 0.5183(4) 0.99913(19) 0.80664(13)
H2 H 0.52150 1.05640 0.81740
C3 C 0.5126(4) 0.93828(18) 0.85192(13)
C4 C 0.5080(4) 0.85228(19) 0.83378(14)
H3 H 0.50450 0.81040 0.86360
C5 C 0.5086(4) 0.82863(19) 0.77366(13)
H4 H 0.50440 0.77110 0.76360
C6 C 0.5155(4) 0.88925(18) 0.72596(13)
C7 C 0.5153(4) 0.77568(19) 0.64471(14)
H5 H 0.59970 0.74150 0.67700
C8 C 0.6020(5) 0.7739(2) 0.58601(14)
H6 H 0.60470 0.71630 0.57160
H7 H 0.73450 0.79440 0.59610
C9 C 0.4827(11) 0.8285(4) 0.5329(3)
H8 H 0.53000 0.81930 0.49510
H9 H 0.49670 0.88750 0.54430
H10 H 0.34690 0.81270 0.52620
C10 C 0.3092(5) 0.7385(2) 0.63375(15)
H11 H 0.26110 0.74130 0.67190
H12 H 0.22440 0.77060 0.60180
H13 H 0.31200 0.68030 0.62070
C11 C 0.5106(4) 0.96526(19) 0.91601(13)
O5 O 0.9570(3) 0.58178(15) 0.55036(10)
H14 H 0.96710 0.56900 0.51470
O6 O 1.0142(3) 0.44245(15) 0.56615(10)
O7 O 1.0282(3) 0.32730(14) 0.7701(1)
O8 O 0.9980(3) 0.40380(15) 0.84984(10)
N3 N 1.0041(3) 0.39668(17) 0.79356(12)
N4 N 0.9466(4) 0.5691(2) 0.83945(12)
C12 C 0.9824(4) 0.47178(18) 0.75471(13)
C13 C 0.9906(4) 0.46020(19) 0.69198(13)
H15 H 1.01040 0.40600 0.67730
C14 C 0.9699(4) 0.5281(2) 0.65165(13)
C15 C 0.9402(4) 0.60957(19) 0.67420(13)
H16 H 0.92560 0.65580 0.64710
C16 C 0.9326(4) 0.6215(2) 0.73584(14)
H17 H 0.91180 0.67610 0.74950
C17 C 0.9549(4) 0.5542(2) 0.77919(13)
C18 C 0.9414(5) 0.6537(2) 0.86791(16)
H18 H 0.84140 0.68780 0.84050
C19 C 0.8803(8) 0.6422(3) 0.92986(19)
H19 H 0.95650 0.59830 0.95410
H20 H 0.74490 0.62570 0.92250
C20 C 0.9071(12) 0.7303(5) 0.9672(4)
H21 H 0.88960 0.72130 1.00920
H22 H 0.81140 0.77040 0.94650
H23 H 1.03630 0.75220 0.96820
C21 C 1.1359(6) 0.6989(3) 0.8750(2)
H24 H 1.16840 0.70360 0.83450
H25 H 1.12680 0.75470 0.89200
H26 H 1.23600 0.66710 0.90240
C22 C 0.9816(4) 0.5153(2) 0.58518(13)
H27 H 0.523(5) 0.903(2) 0.6440(15)
H28 H 0.961(5) 0.522(2) 0.8616(17)
C23? C 0.186(3) 0.7705(12) 0.5685(6)
C24? C 0.914(2) 0.5772(9) 0.9672(5)
C25? C 1.092(3) 0.7665(8) 0.9122(8)
H29? H 0.24650 0.75540 0.66710
H30? H 0.31560 0.67750 0.63340
H31? H 1.16840 0.70360 0.83450
H32? H 1.12680 0.75470 0.89200
H33? H 1.23600 0.66710 0.90240
H34? H 1.16100 0.71520 0.83500
H35? H 1.24280 0.66520 0.89710
H36? H 0.60470 0.71630 0.57160
H37? H 0.73450 0.79440 0.59610
H38? H 0.52100 0.80650 0.55340
H39? H 0.74140 0.65190 0.92120
H40? H 0.93830 0.68870 0.95560
H41? H 0.75650 0.61320 0.92310
H42? H 0.97670 0.60950 0.95800
H43? H 0.86750 0.69720 0.94770
H44? H 0.05560 0.74730 0.56200
H45? H 0.24780 0.75220 0.53540
H46? H 0.17860 0.83150 0.56860
H47? H 0.85170 0.52770 0.94610
H48? H 0.86130 0.58810 1.00380
H49? H 1.05230 0.56780 0.97920
H50? H 1.17560 0.81400 0.90850
H51? H 1.11370 0.74870 0.95520
H52? H 0.95770 0.78290 0.89830
#END
