
#######################################################################
#
#                 Cambridge Crystallographic Data Centre
#                                CCDC
#
#######################################################################
#
# If this CIF has been generated from an entry in the Cambridge
# Structural Database, then it will include bibliographic, chemical,
# crystal, experimental, refinement or atomic coordinate data resulting
# from the CCDC's data processing and validation procedures.
#
#######################################################################

data_CSD_CIF_POWLOD
_audit_creation_date 2009-09-07
_audit_creation_method CSD-ConQuest-V1
_database_code_CSD POWLOD
_database_code_depnum_ccdc_archive 'CCDC 741598'
_chemical_formula_sum 'C11 H12 N2 O4'
_chemical_formula_moiety
;
C11 H12 N2 O4
;
_journal_coeditor_code "IUCr CI2814"
_journal_coden_Cambridge 1370
_journal_volume 65
_journal_year 2009
_journal_page_first o1560
_journal_name_full 'Acta Crystallogr.,Sect.E:Struct.Rep.Online '
loop_
_publ_author_name
"S.N.Narendra Babu"
"A.S.Abdul Rahim"
"H.Osman"
"S.R.Jebas"
"H.-K.Fun"
_chemical_name_systematic
;
4-(But-3-en-1-ylamino)-3-nitrobenzoic acid
;
_cell_volume  13196.867
_exptl_crystal_colour 'yellow'
_exptl_crystal_density_diffrn 1.427
_exptl_crystal_description 'block'
_exptl_crystal_preparation 'ethyl acetate'
_diffrn_ambient_temperature 100
#These two values have been output from a single CSD field.
_refine_ls_R_factor_gt 0.0784
_refine_ls_wR_factor_gt 0.0784
_symmetry_cell_setting monoclinic
_symmetry_space_group_name_H-M 'C c'
_symmetry_Int_Tables_number 9
loop_
_symmetry_equiv_pos_site_id
_symmetry_equiv_pos_as_xyz
1 x,y,z
2 x,-y,1/2+z
3 1/2+x,1/2+y,z
4 1/2+x,1/2-y,1/2+z
_cell_length_a 13.3461(5)
_cell_length_b 66.777(3)
_cell_length_c 15.0195(6)
_cell_angle_alpha 90
_cell_angle_beta 99.632(2)
_cell_angle_gamma 90
_cell_formula_units_Z 48
loop_
_atom_type_symbol
_atom_type_radius_bond
C 0.68
H 0.23
N 0.68
O 0.68
loop_
_atom_site_label
_atom_site_type_symbol
_atom_site_fract_x
_atom_site_fract_y
_atom_site_fract_z
O1 O 0.4798(2) -0.00716(5) 0.5335(2)
O2 O 0.4840(2) 0.02449(5) 0.5645(2)
O3 O 0.4556(2) 0.06616(5) 0.1916(2)
H1 H 0.45010 0.07820 0.18190
O4 O 0.4515(2) 0.07584(4) 0.3347(2)
N1 N 0.4905(3) -0.01972(5) 0.3685(2)
H2 H 0.49040 -0.02340 0.42340
N2 N 0.4804(2) 0.01073(5) 0.5092(2)
C1 C 0.4820(3) -0.00012(6) 0.3488(3)
C2 C 0.4790(3) 0.01539(6) 0.4155(3)
C3 C 0.4705(3) 0.03555(6) 0.3914(3)
H3 H 0.46750 0.04520 0.43550
C4 C 0.4666(3) 0.04124(6) 0.3024(3)
C5 C 0.4696(3) 0.02653(6) 0.2357(3)
H4 H 0.46580 0.03030 0.17560
C6 C 0.4781(3) 0.00665(6) 0.2594(3)
H5 H 0.48140 -0.00280 0.21440
C7 C 0.4571(3) 0.06271(6) 0.2777(3)
C8 C 0.4999(3) -0.03516(6) 0.3019(3)
H6 H 0.54880 -0.03100 0.26440
H7 H 0.43490 -0.03720 0.26310
C9 C 0.5352(3) -0.05477(6) 0.3505(3)
H8 H 0.54940 -0.06450 0.30630
H9 H 0.59780 -0.05230 0.39210
C10 C 0.4590(4) -0.06310(6) 0.4006(3)
H10 H 0.39530 -0.06590 0.36740
C11 C 0.4722(4) -0.06695(7) 0.4881(3)
H11 H 0.53460 -0.06440 0.52400
H12 H 0.41920 -0.07220 0.51360
O5 O 0.1456(3) 0.20916(5) 0.1093(2)
O6 O 0.1513(3) 0.18594(5) 0.0112(2)
O7 O 0.1853(3) 0.11707(5) 0.0853(2)
H13 H 0.19510 0.10510 0.07730
O8 O 0.2002(3) 0.10711(5) 0.2301(2)
N3 N 0.1869(3) 0.20140(6) 0.2831(3)
H14 H 0.17170 0.21070 0.24340
N4 N 0.1537(3) 0.19127(6) 0.0896(3)
C12 C 0.1829(3) 0.18234(7) 0.2541(3)
C13 C 0.1676(3) 0.17665(7) 0.1610(3)
C14 C 0.1700(3) 0.15687(7) 0.1344(3)
H15 H 0.16240 0.15370 0.07330
C15 C 0.1837(3) 0.14176(7) 0.1985(3)
C16 C 0.1965(3) 0.14686(7) 0.2908(3)
H16 H 0.20600 0.13680 0.33430
C17 C 0.1952(3) 0.16654(7) 0.3173(3)
H17 H 0.20270 0.16950 0.37860
C18 C 0.1905(3) 0.12053(7) 0.1718(3)
C19 C 0.2151(4) 0.20750(8) 0.3773(3)
H18 H 0.27060 0.19920 0.40690
H19 H 0.15780 0.20570 0.40860
C20 C 0.2469(4) 0.22914(8) 0.3813(4)
H20 H 0.30240 0.23090 0.34780
H21 H 0.27120 0.23290 0.44360
C21 C 0.1595(4) 0.24261(7) 0.3423(3)
H22 H 0.10660 0.24420 0.37490
C22 C 0.1537(5) 0.25217(9) 0.2657(4)
H23 H 0.20550 0.25090 0.23160
H24 H 0.09780 0.26030 0.24530
O9 O 0.4371(3) 0.20715(5) 0.2700(2)
O10 O 0.4437(3) 0.18319(5) 0.3684(2)
O11 O 0.4531(3) 0.11428(5) 0.2970(2)
H25 H 0.45700 0.10220 0.30630
O12 O 0.4392(3) 0.10425(5) 0.1523(2)
N5 N 0.4024(3) 0.19865(6) 0.0965(2)
H26 H 0.40720 0.20790 0.13670
N6 N 0.4381(3) 0.18899(6) 0.2901(3)
C23 C 0.4165(3) 0.17956(6) 0.1254(3)
C24 C 0.4323(3) 0.17402(6) 0.2187(3)
C25 C 0.4406(3) 0.15417(6) 0.2457(3)
H27 H 0.44940 0.15110 0.30690
C26 C 0.4362(3) 0.13885(6) 0.1829(3)
C27 C 0.4237(3) 0.14409(6) 0.0905(3)
H28 H 0.42190 0.13400 0.04740
C28 C 0.4144(3) 0.16358(7) 0.0631(3)
H29 H 0.40640 0.16650 0.00180
C29 C 0.4439(3) 0.11772(6) 0.2093(3)
C30 C 0.3795(4) 0.20470(7) 0.0011(3)
H30 H 0.33040 0.19560 -0.03210
H31 H 0.44090 0.20430 -0.02550
C31 C 0.3365(4) 0.22596(7) -0.0039(3)
H32 H 0.31470 0.22960 -0.06670
H33 H 0.27740 0.22630 0.02580
C32 C 0.4126(4) 0.24106(7) 0.0396(3)
H34 H 0.46560 0.24440 0.00930
C33 C 0.4099(5) 0.24996(8) 0.1176(4)
H35 H 0.35800 0.24700 0.14990
H36 H 0.45980 0.25920 0.14040
O13 O 0.6730(3) 0.17158(5) 0.3481(2)
O14 O 0.6851(3) 0.13975(5) 0.3179(2)
O15 O 0.7302(3) 0.09808(5) 0.6904(2)
H37 H 0.73860 0.08600 0.69970
O16 O 0.7298(2) 0.08858(5) 0.5475(2)
N7 N 0.6674(3) 0.18377(5) 0.5140(3)
H38 H 0.66280 0.18750 0.45860
N8 N 0.6820(3) 0.15353(5) 0.3716(2)
C34 C 0.6813(3) 0.16414(6) 0.5324(3)
C35 C 0.6873(3) 0.14896(7) 0.4670(3)
C36 C 0.7010(3) 0.12866(6) 0.4903(3)
H39 H 0.70410 0.11910 0.44570
C37 C 0.7096(3) 0.12290(6) 0.5797(3)
C38 C 0.7035(3) 0.13769(7) 0.6457(3)
H40 H 0.70930 0.13390 0.70580
C39 C 0.6893(3) 0.15745(7) 0.6238(3)
H41 H 0.68470 0.16670 0.66920
C40 C 0.7249(3) 0.10172(6) 0.6044(3)
C41 C 0.6595(4) 0.19921(7) 0.5817(3)
H42 H 0.72640 0.20220 0.61530
H43 H 0.61710 0.19450 0.62380
C42 C 0.6126(5) 0.21821(8) 0.5334(4)
H44 H 0.54860 0.21490 0.49540
H45 H 0.59910 0.22800 0.57780
C43 C 0.6831(5) 0.22691(9) 0.4773(4)
H46 H 0.74940 0.22960 0.50490
C44 C 0.6572(6) 0.23101(10) 0.3901(4)
H47 H 0.59150 0.22840 0.36070
H48 H 0.70480 0.23650 0.35840
O17 O 0.9368(3) 0.16267(5) 0.5327(2)
O18 O 0.9200(3) 0.19429(5) 0.5618(2)
O19 O 0.8969(3) 0.23643(5) 0.1892(2)
H49 H 0.89200 0.24850 0.18040
O20 O 0.9056(3) 0.24640(5) 0.3334(2)
N9 N 0.9343(3) 0.15003(6) 0.3660(3)
H50 H 0.93780 0.14620 0.42110
N10 N 0.9277(3) 0.18051(6) 0.5081(3)
C45 C 0.9296(3) 0.16985(7) 0.3479(3)
C46 C 0.9259(3) 0.18532(7) 0.4136(3)
C47 C 0.9181(3) 0.20535(7) 0.3901(3)
H51 H 0.91540 0.21490 0.43450
C48 C 0.9143(3) 0.21133(7) 0.3012(3)
C49 C 0.9188(3) 0.19634(7) 0.2340(3)
H52 H 0.91650 0.20010 0.17410
C50 C 0.9265(3) 0.17648(7) 0.2571(3)
H53 H 0.92990 0.16700 0.21230
C51 C 0.9050(3) 0.23280(6) 0.2758(3)
C52 C 0.9334(4) 0.13490(7) 0.2961(3)
H54 H 0.99500 0.13590 0.27010
H55 H 0.87590 0.13710 0.24840
C53 C 0.9262(4) 0.11393(7) 0.3369(3)
H56 H 0.86210 0.11280 0.35880
H57 H 0.92590 0.10400 0.28950
C54 C 1.0104(4) 0.10915(7) 0.4123(4)
H58 H 1.07690 0.11000 0.40170
C55 C 0.9950(5) 0.10372(9) 0.4936(4)
H59 H 0.92910 0.10270 0.50580
H60 H 1.05000 0.10090 0.53860
O21 O 0.1889(3) 0.34007(5) 0.3495(2)
O22 O 0.1725(3) 0.30852(5) 0.3170(2)
O23 O 0.1606(3) 0.26731(5) 0.6860(2)
H61 H 0.15960 0.25520 0.69420
O24 O 0.1696(3) 0.25744(5) 0.5453(2)
N11 N 0.1790(3) 0.35313(5) 0.5138(2)
H62 H 0.18420 0.35670 0.45970
N12 N 0.1788(3) 0.32233(6) 0.3722(3)
C56 C 0.1768(3) 0.33346(6) 0.5321(3)
C57 C 0.1754(3) 0.31797(7) 0.4668(3)
C58 C 0.1717(3) 0.29781(7) 0.4894(3)
H63 H 0.17040 0.28810 0.44490
C59 C 0.1699(4) 0.29217(7) 0.5777(3)
C60 C 0.1712(3) 0.30720(6) 0.6434(3)
H64 H 0.16880 0.30350 0.70270
C61 C 0.1758(3) 0.32710(6) 0.6230(3)
H65 H 0.17820 0.33660 0.66860
C62 C 0.1671(3) 0.27088(6) 0.6022(3)
C63 C 0.1731(3) 0.36891(6) 0.5800(3)
H66 H 0.23850 0.37040 0.61880
H67 H 0.12320 0.36540 0.61750
C64 C 0.1428(3) 0.38856(6) 0.5307(3)
H68 H 0.07980 0.38660 0.48900
H69 H 0.13090 0.39860 0.57430
C65 C 0.2228(4) 0.39591(7) 0.4798(3)
H70 H 0.28760 0.39800 0.51230
C66 C 0.2083(4) 0.39967(7) 0.3924(4)
H71 H 0.14440 0.39780 0.35770
H72 H 0.26190 0.40420 0.36540
O25 O 0.4258(3) 0.32758(5) 0.5320(2)
O26 O 0.4339(3) 0.35946(5) 0.5614(2)
O27 O 0.4637(2) 0.40970(5) 0.3370(2)
O28 O 0.4661(3) 0.39941(5) 0.1950(2)
H73 H 0.47080 0.41150 0.18680
N13 N 0.4256(3) 0.31428(6) 0.3676(3)
H74 H 0.42260 0.31090 0.42220
N14 N 0.4334(3) 0.34537(6) 0.5087(2)
C67 C 0.4356(3) 0.33379(7) 0.3488(3)
C68 C 0.4396(3) 0.34948(6) 0.4150(3)
C69 C 0.4483(3) 0.36957(6) 0.3917(3)
H75 H 0.45100 0.37950 0.43560
C70 C 0.4528(3) 0.37475(7) 0.3034(3)
C71 C 0.4492(3) 0.35973(7) 0.2371(3)
H76 H 0.45240 0.36330 0.17770
C72 C 0.4412(3) 0.34012(7) 0.2590(3)
H77 H 0.43920 0.33050 0.21400
C73 C 0.4614(3) 0.39604(7) 0.2795(3)
C74 C 0.4195(5) 0.29851(8) 0.2980(3)
H78 H 0.48370 0.29750 0.27620
H79 H 0.36690 0.30180 0.24730
C75 C 0.3948(6) 0.27852(10) 0.3394(5)
H80 H 0.32930 0.27960 0.35890
H81 H 0.38980 0.26820 0.29370
C76 C 0.4694(6) 0.27285(10) 0.4144(5)
H82 H 0.53710 0.27240 0.40690
C77 C 0.4460(7) 0.26813(10) 0.4959(5)
H83 H 0.37870 0.26850 0.50480
H84 H 0.49710 0.26450 0.54310
O29 O 0.6949(2) 0.37269(5) 0.1115(2)
O30 O 0.6687(3) 0.34912(5) 0.0112(2)
O31 O 0.6506(3) 0.28037(5) 0.0834(2)
H85 H 0.64560 0.26830 0.07450
O32 O 0.6609(3) 0.27052(5) 0.2283(2)
N15 N 0.7181(3) 0.36459(5) 0.2845(3)
H86 H 0.71740 0.37390 0.24470
N16 N 0.6824(3) 0.35480(5) 0.0906(2)
C78 C 0.7002(3) 0.34570(6) 0.2547(3)
C79 C 0.6824(3) 0.34006(6) 0.1616(3)
C80 C 0.6687(3) 0.32022(7) 0.1345(3)
H87 H 0.65900 0.31700 0.07340
C81 C 0.6694(3) 0.30522(6) 0.1979(3)
C82 C 0.6843(3) 0.31012(7) 0.2905(3)
H88 H 0.68460 0.30000 0.33320
C83 C 0.6984(3) 0.32972(6) 0.3180(3)
H89 H 0.70710 0.33270 0.37940
C84 C 0.6595(4) 0.28398(6) 0.1702(3)
C85 C 0.7385(3) 0.37048(7) 0.3792(3)
H90 H 0.78370 0.36090 0.41380
H91 H 0.67560 0.37090 0.40350
C86 C 0.7880(3) 0.39128(6) 0.3861(3)
H92 H 0.80560 0.39500 0.44920
H93 H 0.85030 0.39080 0.36080
C87 C 0.7186(3) 0.40677(6) 0.3371(3)
H94 H 0.66510 0.41130 0.36420
C88 C 0.7283(4) 0.41445(8) 0.2579(4)
H95 H 0.78100 0.41030 0.22890
H96 H 0.68240 0.42400 0.23110
O33 O 0.9871(3) 0.37631(5) 0.2729(2)
O34 O 0.9665(2) 0.35322(5) 0.3704(2)
O35 O 0.9224(3) 0.28461(5) 0.2946(2)
H97 H 0.91730 0.27260 0.30310
O36 O 0.8981(3) 0.27468(5) 0.1495(2)
N17 N 0.9359(3) 0.36902(5) 0.0990(2)
H98 H 0.95680 0.37810 0.13850
N18 N 0.9692(3) 0.35869(5) 0.2916(2)
C89 C 0.9348(3) 0.34994(6) 0.1276(3)
C90 C 0.9492(3) 0.34421(6) 0.2196(3)
C91 C 0.9418(3) 0.32425(6) 0.2460(3)
H99 H 0.95000 0.32100 0.30700
C92 C 0.9222(3) 0.30932(6) 0.1815(3)
C93 C 0.9102(3) 0.31459(7) 0.0897(3)
H100 H 0.89770 0.30460 0.04610
C94 C 0.9163(3) 0.33419(7) 0.0627(3)
H101 H 0.90840 0.33720 0.00150
C95 C 0.9145(4) 0.28810(7) 0.2073(3)
C96 C 0.9044(3) 0.37542(7) 0.0059(3)
H102 H 0.84480 0.36790 -0.02140
H103 H 0.95840 0.37280 -0.02850
C97 C 0.8800(3) 0.39791(6) 0.0041(3)
H104 H 0.85320 0.40190 -0.05730
H105 H 0.82800 0.40040 0.04080
C98 C 0.9712(3) 0.41012(7) 0.0385(3)
H106 H 1.02310 0.41040 0.00430
C99 C 0.9845(4) 0.42081(8) 0.1151(4)
H107 H 0.93430 0.42090 0.15120
H108 H 1.04400 0.42810 0.13210
O37 O 0.6912(2) -0.04212(5) 0.6067(2)
O38 O 0.7066(2) -0.01889(5) 0.5094(2)
O39 O 0.7274(3) 0.05019(5) 0.5851(2)
H109 H 0.72940 0.06230 0.57670
O40 O 0.7450(3) 0.05988(5) 0.7296(2)
N19 N 0.7383(3) -0.03462(5) 0.7804(2)
H110 H 0.72260 -0.04380 0.74050
N20 N 0.7042(2) -0.02428(5) 0.5882(2)
C100 C 0.7335(3) -0.01560(6) 0.7525(2)
C101 C 0.7178(3) -0.00976(6) 0.6585(2)
C102 C 0.7194(3) 0.01032(6) 0.6330(3)
H111 H 0.71060 0.01360 0.57210
C103 C 0.7341(3) 0.02532(6) 0.6973(3)
C104 C 0.7469(3) 0.02006(6) 0.7898(3)
H112 H 0.75550 0.03010 0.83340
C105 C 0.7468(3) 0.00046(6) 0.8159(3)
H113 H 0.75560 -0.00250 0.87720
C106 C 0.7362(3) 0.04660(6) 0.6716(3)
C107 C 0.7683(3) -0.04080(7) 0.8742(3)
H114 H 0.71240 -0.03880 0.90700
H115 H 0.82560 -0.03280 0.90280
C108 C 0.7975(3) -0.06297(6) 0.8762(3)
H116 H 0.85090 -0.06490 0.84050
H117 H 0.82410 -0.06680 0.93790
C109 C 0.7098(3) -0.07612(7) 0.8404(3)
H118 H 0.65820 -0.07710 0.87480
C110 C 0.6981(4) -0.08646(8) 0.7652(4)
H119 H 0.74760 -0.08600 0.72840
H120 H 0.64030 -0.09430 0.74860
O41 O 0.4841(2) 0.53994(5) 0.2662(2)
O42 O 0.4993(3) 0.51635(5) 0.3670(2)
O43 O 0.4947(3) 0.44726(5) 0.2956(2)
H121 H 0.49580 0.43510 0.30470
O44 O 0.4824(3) 0.43708(5) 0.1518(3)
N21 N 0.4536(3) 0.53129(5) 0.0940(2)
H122 H 0.45800 0.54060 0.13400
N22 N 0.4897(2) 0.52186(6) 0.2871(2)
C111 C 0.4668(3) 0.51243(6) 0.1231(3)
C112 C 0.4841(3) 0.50701(6) 0.2170(3)
C113 C 0.4928(3) 0.48703(6) 0.2444(3)
H123 H 0.50370 0.48400 0.30570
C114 C 0.4854(3) 0.47175(6) 0.1821(3)
C115 C 0.4724(3) 0.47678(6) 0.0893(3)
H124 H 0.46940 0.46660 0.04660
C116 C 0.4642(3) 0.49629(6) 0.0614(2)
H125 H 0.45680 0.49910 -0.00010
C117 C 0.4884(3) 0.45065(7) 0.2100(3)
C118 C 0.4319(3) 0.53727(6) -0.0015(3)
H126 H 0.38370 0.52800 -0.03510
H127 H 0.49390 0.53690 -0.02720
C119 C 0.3878(3) 0.55848(7) -0.0079(3)
H128 H 0.36930 0.56220 -0.07100
H129 H 0.32660 0.55870 0.01900
C120 C 0.4616(3) 0.57339(7) 0.0388(3)
H130 H 0.51540 0.57720 0.01030
C121 C 0.4558(4) 0.58158(8) 0.1179(4)
H131 H 0.40300 0.57810 0.14820
H132 H 0.50460 0.59080 0.14330
O45 O 0.2305(3) -0.00317(5) -0.1522(2)
O46 O 0.2347(3) 0.02862(5) -0.1806(2)
O47 O 0.2148(2) 0.07949(5) 0.0451(2)
O48 O 0.2203(3) 0.06950(5) 0.1883(2)
H133 H 0.21870 0.08160 0.19660
N23 N 0.2342(3) -0.01613(5) 0.0147(2)
H134 H 0.23520 -0.01980 -0.04010
N24 N 0.2309(3) 0.01460(5) -0.1266(2)
C122 C 0.2281(3) 0.00347(6) 0.0321(3)
C123 C 0.2269(3) 0.01911(6) -0.0334(3)
C124 C 0.2234(3) 0.03931(6) -0.0102(3)
H135 H 0.22230 0.04910 -0.05430
C125 C 0.2214(3) 0.04480(6) 0.0785(3)
C126 C 0.2211(3) 0.02969(6) 0.1438(3)
H136 H 0.21850 0.03330 0.20320
C127 C 0.2246(3) 0.00993(7) 0.1218(3)
H137 H 0.22470 0.00040 0.16690
C128 C 0.2189(3) 0.06601(6) 0.1037(3)
C129 C 0.2391(3) -0.03163(7) 0.0840(3)
H138 H 0.17690 -0.03150 0.10940
H139 H 0.29540 -0.02890 0.13220
C130 C 0.2532(4) -0.05211(7) 0.0439(3)
H140 H 0.31770 -0.05230 0.02220
H141 H 0.25630 -0.06210 0.09120
C131 C 0.1710(4) -0.05764(8) -0.0316(4)
H142 H 0.10490 -0.05790 -0.01970
C132 C 0.1844(5) -0.06217(9) -0.1135(4)
H143 H 0.24950 -0.06210 -0.12810
H144 H 0.12900 -0.06550 -0.15720
#END
