
#######################################################################
#
#                 Cambridge Crystallographic Data Centre
#                                CCDC
#
#######################################################################
#
# If this CIF has been generated from an entry in the Cambridge
# Structural Database, then it will include bibliographic, chemical,
# crystal, experimental, refinement or atomic coordinate data resulting
# from the CCDC's data processing and validation procedures.
#
#######################################################################

data_CSD_CIF_POWMEU
_audit_creation_date 2009-09-08
_audit_creation_method CSD-ConQuest-V1
_database_code_CSD POWMEU
_database_code_depnum_ccdc_archive 'CCDC 741601'
_chemical_formula_sum 'C11 H12 N2 O4'
_chemical_formula_moiety
;
C11 H12 N2 O4
;
_journal_coeditor_code "IUCr BI2372"
_journal_coden_Cambridge 1370
_journal_volume 65
_journal_year 2009
_journal_page_first o1566
_journal_name_full 'Acta Crystallogr.,Sect.E:Struct.Rep.Online '
loop_
_publ_author_name
"S.N.Narendra Babu"
"A.S.Abdul Rahim"
"H.Osman"
"C.K.Quah"
"H.-K.Fun"
_chemical_name_systematic
;
4-(Cyclobutylamino)-3-nitrobenzoic acid
;
_cell_volume   1069.436
_exptl_crystal_colour 'yellow'
_exptl_crystal_density_diffrn 1.467
_exptl_crystal_description 'block'
_exptl_crystal_preparation 'ethyl acetate'
_diffrn_ambient_temperature 110
#These two values have been output from a single CSD field.
_refine_ls_R_factor_gt 0.0481
_refine_ls_wR_factor_gt 0.0481
_symmetry_cell_setting triclinic
_symmetry_space_group_name_H-M 'P -1'
_symmetry_Int_Tables_number 2
loop_
_symmetry_equiv_pos_site_id
_symmetry_equiv_pos_as_xyz
1 x,y,z
2 -x,-y,-z
_cell_length_a 9.8555(2)
_cell_length_b 10.5308(2)
_cell_length_c 10.9110(2)
_cell_angle_alpha 74.860(1)
_cell_angle_beta 78.265(1)
_cell_angle_gamma 84.826(1)
_cell_formula_units_Z 4
loop_
_atom_type_symbol
_atom_type_radius_bond
C 0.68
H 0.23
N 0.68
O 0.68
loop_
_atom_site_label
_atom_site_type_symbol
_atom_site_fract_x
_atom_site_fract_y
_atom_site_fract_z
O1 O 0.41436(8) 0.68803(8) -0.08160(8)
O2 O 0.24499(9) 0.80673(8) 0.01400(9)
H1 H 0.29690 0.86710 -0.02080
O3 O -0.16874(10) 0.63616(9) 0.2576(1)
O4 O -0.22880(9) 0.43744(8) 0.28295(10)
N1 N -0.14187(9) 0.52458(9) 0.24261(9)
N2 N -0.04041(10) 0.25875(8) 0.22307(9)
C1 C -0.0054(1) 0.49386(10) 0.1752(1)
C2 C 0.07959(10) 0.59982(10) 0.1178(1)
H2 H 0.04690 0.68400 0.12400
C3 C 0.21236(10) 0.58164(10) 0.0515(1)
C4 C 0.26136(10) 0.45284(10) 0.04592(10)
H3 H 0.35070 0.43940 0.00230
C5 C 0.17907(11) 0.34694(10) 0.10395(10)
H4 H 0.21470 0.26290 0.10010
C6 C 0.04005(10) 0.36263(9) 0.17013(9)
C7 C 0.00443(12) 0.12158(10) 0.24008(10)
H5 H 0.08050 0.10070 0.28850
C8 C 0.03497(12) 0.06059(10) 0.12218(11)
H6 H -0.00600 0.11050 0.04960
H7 H 0.13250 0.03960 0.09470
C9 C -0.04894(13) -0.05907(11) 0.20696(11)
H8 H -0.11560 -0.08590 0.16520
H9 H 0.00800 -0.13370 0.24360
C10 C -0.11338(13) 0.02595(11) 0.30201(11)
H10 H -0.20460 0.06420 0.29020
H11 H -0.11310 -0.01790 0.39200
C11 C 0.29658(10) 0.69811(10) -0.00959(10)
O5 O 0.37447(9) 0.02069(9) 0.91518(9)
O6 O 0.55207(10) -0.08564(8) 0.81460(9)
H12 H 0.51070 -0.15370 0.85470
O7 O 0.91441(9) 0.17243(8) 0.51738(8)
O8 O 0.93948(9) 0.37738(8) 0.50719(9)
N3 N 0.87317(9) 0.27498(9) 0.54966(9)
N4 N 0.73342(10) 0.51524(9) 0.61428(9)
C12 C 0.74352(10) 0.27632(10) 0.63934(10)
C13 C 0.68286(11) 0.15493(10) 0.69549(10)
H13 H 0.72770 0.07900 0.67620
C14 C 0.55681(11) 0.14668(10) 0.77957(10)
C15 C 0.48894(11) 0.26379(10) 0.80444(10)
H14 H 0.40310 0.25950 0.85950
C16 C 0.54711(11) 0.3838(1) 0.74909(10)
H15 H 0.49910 0.45910 0.76690
C17 C 0.67903(10) 0.39638(10) 0.66502(10)
C18 C 0.65788(11) 0.63794(10) 0.62404(10)
H16 H 0.62320 0.63850 0.71470
C19 C 0.54323(12) 0.68736(12) 0.54265(12)
H17 H 0.55340 0.65220 0.46740
H18 H 0.44970 0.67800 0.59260
C20 C 0.59819(13) 0.82720(11) 0.51283(13)
H19 H 0.60700 0.87490 0.42280
H20 H 0.54830 0.88030 0.56930
C21 C 0.73574(12) 0.76364(10) 0.55077(11)
H21 H 0.80660 0.75250 0.47800
H22 H 0.77190 0.80580 0.60590
C22 C 0.49108(11) 0.01977(10) 0.83986(10)
H23 H -0.124(2) 0.2777(18) 0.2638(18)
H24 H 0.805(2) 0.5208(18) 0.5636(18)
#END
