
#######################################################################
#
#                 Cambridge Crystallographic Data Centre
#                                CCDC
#
#######################################################################
#
# If this CIF has been generated from an entry in the Cambridge
# Structural Database, then it will include bibliographic, chemical,
# crystal, experimental, refinement or atomic coordinate data resulting
# from the CCDC's data processing and validation procedures.
#
#######################################################################

data_CSD_CIF_POWPEX
_audit_creation_date 2009-09-08
_audit_creation_method CSD-ConQuest-V1
_database_code_CSD POWPEX
_database_code_depnum_ccdc_archive 'CCDC 741611'
_chemical_formula_sum 'C14 H11 N3 O3'
_chemical_formula_moiety
;
C14 H11 N3 O3
;
_journal_coeditor_code "IUCr PV2166"
_journal_coden_Cambridge 1370
_journal_volume 65
_journal_year 2009
_journal_page_first o1581
_journal_name_full 'Acta Crystallogr.,Sect.E:Struct.Rep.Online '
loop_
_publ_author_name
"Shu-Liang Wang"
"Ke Yang"
"Xiang-Shan Wang"
"Shu-Jiang Tu"
_chemical_name_systematic
;
(E)-2-(4-Nitrobenzylideneamino)benzamide
;
_chemical_melting_point 457
_cell_volume   1270.947
_exptl_crystal_colour 'yellow'
_exptl_crystal_density_diffrn 1.407
_exptl_special_details
;
Melting point range 457-458K

;
_exptl_crystal_description 'block'
_exptl_crystal_preparation 'ethanol'
_diffrn_ambient_temperature 296
#These two values have been output from a single CSD field.
_refine_ls_R_factor_gt 0.0336
_refine_ls_wR_factor_gt 0.0336
_symmetry_cell_setting monoclinic
_symmetry_space_group_name_H-M 'P 21/c'
_symmetry_Int_Tables_number 14
loop_
_symmetry_equiv_pos_site_id
_symmetry_equiv_pos_as_xyz
1 x,y,z
2 -x,1/2+y,1/2-z
3 -x,-y,-z
4 x,-1/2-y,-1/2+z
_cell_length_a 7.3863(2)
_cell_length_b 12.2657(3)
_cell_length_c 14.1414(4)
_cell_angle_alpha 90
_cell_angle_beta 97.248(1)
_cell_angle_gamma 90
_cell_formula_units_Z 4
loop_
_atom_type_symbol
_atom_type_radius_bond
C 0.68
H 0.23
N 0.68
O 0.68
loop_
_atom_site_label
_atom_site_type_symbol
_atom_site_fract_x
_atom_site_fract_y
_atom_site_fract_z
N1 N 0.29424(15) 0.81888(9) 0.04882(9)
O1 O 0.66701(16) 0.86265(9) 0.54680(8)
O2 O -0.03944(14) 0.58880(8) -0.10923(7)
C1 C 0.39628(18) 0.86357(11) 0.21085(11)
C2 C 0.10787(17) 0.76078(11) -0.09651(10)
C3 C 0.06905(17) 0.64827(11) -0.06033(10)
N2 N 0.66097(17) 0.7921(1) 0.48528(10)
C4 C 0.56915(18) 0.81749(11) 0.38992(10)
C5 C 0.20752(18) 0.84286(11) -0.04369(11)
N3 N 0.15232(19) 0.61634(11) 0.02351(10)
C6 C 0.30111(19) 0.88799(12) 0.11590(11)
H1 H 0.24470 0.95540 0.10460
C7 C 0.3976(2) 0.93889(11) 0.28377(11)
H2 H 0.33810 1.00530 0.27210
C8 C 0.4860(2) 0.91691(11) 0.37357(11)
H3 H 0.48920 0.96840 0.42200
C9 C 0.0323(2) 0.78476(12) -0.18910(11)
H4 H -0.03480 0.73140 -0.22480
C10 C 0.5690(2) 0.74035(12) 0.31915(13)
H5 H 0.62610 0.67340 0.33180
C11 C 0.4840(2) 0.76367(12) 0.23011(12)
H6 H 0.48440 0.71240 0.18170
O3 O 0.72849(17) 0.70200(9) 0.49945(9)
C12 C 0.0538(2) 0.88540(14) -0.22967(12)
H7 H 0.00170 0.89940 -0.29180
C13 C 0.1527(2) 0.96491(14) -0.17769(13)
H8 H 0.16800 1.03290 -0.20470
C14 C 0.2289(2) 0.94391(12) -0.08568(13)
H9 H 0.29570 0.99810 -0.05100
H10 H 0.226(2) 0.6618(14) 0.0573(13)
H11 H 0.121(2) 0.5508(15) 0.0458(11)
#END
