
#######################################################################
#
#                 Cambridge Crystallographic Data Centre
#                                CCDC
#
#######################################################################
#
# If this CIF has been generated from an entry in the Cambridge
# Structural Database, then it will include bibliographic, chemical,
# crystal, experimental, refinement or atomic coordinate data resulting
# from the CCDC's data processing and validation procedures.
#
#######################################################################

data_CSD_CIF_POWXUV
_audit_creation_date 2009-09-08
_audit_creation_method CSD-ConQuest-V1
_database_code_CSD POWXUV
_database_code_depnum_ccdc_archive 'CCDC 744427'
_chemical_formula_sum 'C8 H9 N1 O3'
_chemical_formula_moiety
;
C8 H9 N1 O3
;
_journal_coeditor_code "IUCr HK2709"
_journal_coden_Cambridge 1370
_journal_volume 65
_journal_year 2009
_journal_page_first o1925
_journal_name_full 'Acta Crystallogr.,Sect.E:Struct.Rep.Online '
loop_
_publ_author_name
"Jian-hong Zhang"
"You-sheng Chen"
"Xi Wang"
_chemical_name_systematic
;
(2-Methyl-3-nitrophenyl)methanol
;
_cell_volume   1649.023
_exptl_crystal_colour 'colorless'
_exptl_crystal_density_diffrn 1.347
_exptl_crystal_description 'block'
_exptl_crystal_preparation 'methanol'
_diffrn_ambient_temperature 294
#These two values have been output from a single CSD field.
_refine_ls_R_factor_gt 0.0611
_refine_ls_wR_factor_gt 0.0611
_symmetry_cell_setting monoclinic
_symmetry_space_group_name_H-M 'P 21/n'
_symmetry_Int_Tables_number 14
loop_
_symmetry_equiv_pos_site_id
_symmetry_equiv_pos_as_xyz
1 x,y,z
2 1/2-x,1/2+y,1/2-z
3 -x,-y,-z
4 -1/2+x,-1/2-y,-1/2+z
_cell_length_a 13.601(3)
_cell_length_b 7.8650(16)
_cell_length_c 15.433(3)
_cell_angle_alpha 90
_cell_angle_beta 92.73(3)
_cell_angle_gamma 90
_cell_formula_units_Z 8
loop_
_atom_type_symbol
_atom_type_radius_bond
C 0.68
H 0.23
N 0.68
O 0.68
loop_
_atom_site_label
_atom_site_type_symbol
_atom_site_fract_x
_atom_site_fract_y
_atom_site_fract_z
O1 O 0.16054(17) -0.8063(3) -0.23189(13)
H1 H 0.16090 -0.71490 -0.25750
O2 O 0.1306(2) -0.3449(4) 0.12458(19)
O3 O 0.2061(3) -0.2898(4) 0.0108(2)
O4 O 0.71669(15) 0.0476(3) 0.16390(14)
H2 H 0.74570 -0.04310 0.17060
O5 O 0.3487(3) -0.4236(4) 0.2226(2)
O6 O 0.4004(3) -0.4885(4) 0.0995(2)
N1 N 0.1592(2) -0.3846(4) 0.0546(2)
N2 N 0.3911(2) -0.3892(4) 0.1578(2)
C1 C 0.0769(3) -0.8143(4) -0.1800(2)
H3 H 0.05150 -0.92960 -0.18090
H4 H 0.02580 -0.74050 -0.20480
C2 C 0.1004(2) -0.7622(4) -0.0875(2)
C3 C 0.1075(2) -0.8874(4) -0.0244(2)
H5 H 0.09770 -1.00010 -0.04100
C4 C 0.1285(2) -0.8523(4) 0.0614(2)
H6 H 0.13240 -0.93920 0.10230
C5 C 0.1437(2) -0.6856(4) 0.0859(2)
H7 H 0.15680 -0.65760 0.14390
C6 C 0.1391(2) -0.5609(4) 0.0230(2)
C7 C 0.1176(2) -0.5903(4) -0.06465(19)
C8 C 0.1098(3) -0.4514(4) -0.1320(2)
H8 H 0.12350 -0.34360 -0.10490
H9 H 0.04450 -0.45020 -0.15840
H10 H 0.15650 -0.47200 -0.17560
C9 C 0.6502(3) 0.0372(5) 0.0897(2)
H11 H 0.67540 -0.04450 0.04920
H12 H 0.64710 0.14700 0.06110
C10 C 0.5492(2) -0.0142(4) 0.11181(18)
C11 C 0.4806(3) 0.1136(4) 0.1233(2)
H13 H 0.49840 0.22580 0.11330
C12 C 0.3874(3) 0.0797(4) 0.1490(2)
H14 H 0.34340 0.16770 0.15790
C13 C 0.3602(2) -0.0863(4) 0.1612(2)
H15 H 0.29740 -0.11240 0.17860
C14 C 0.4266(2) -0.2128(4) 0.14749(19)
C15 C 0.5225(2) -0.1851(4) 0.12415(18)
C16 C 0.5962(3) -0.3269(5) 0.1152(3)
H16 H 0.56510 -0.43410 0.12550
H17 H 0.65020 -0.31110 0.15680
H18 H 0.62030 -0.32570 0.05780
#END
