
#######################################################################
#
#                 Cambridge Crystallographic Data Centre
#                                CCDC
#
#######################################################################
#
# If this CIF has been generated from an entry in the Cambridge
# Structural Database, then it will include bibliographic, chemical,
# crystal, experimental, refinement or atomic coordinate data resulting
# from the CCDC's data processing and validation procedures.
#
#######################################################################

data_CSD_CIF_POXYAC
_audit_creation_date 1998-11-26
_audit_creation_method CSD-ConQuest-V1
_database_code_CSD POXYAC
_chemical_formula_sum 'C10 H17 N1 O4'
_chemical_formula_moiety
;
C10 H17 N1 O4
;
_journal_coden_Cambridge 24
_journal_volume 39
_journal_year 1998
_journal_page_first 3237
_journal_name_full 'Tetrahedron Lett. '
loop_
_publ_author_name
"J.Alberto Marco"
"M.Carda"
"J.Murga"
"R.Portoles"
"E.Falomir"
"J.Lex"
_chemical_name_systematic
;
2,2-Dimethyl-5-(2,2-dimethyl-1,3-dioxolan-4-yl)-2H,4H-1,3,6-dioxazine
;
_cell_volume    574.953
_exptl_crystal_density_diffrn 1.243
_diffrn_ambient_temperature ?
_diffrn_special_details
;
The study was carried out at room temperature,in the range 283-303K

;
#These two values have been output from a single CSD field.
_refine_ls_R_factor_gt 0.0491
_refine_ls_wR_factor_gt 0.0491
_symmetry_cell_setting monoclinic
_symmetry_space_group_name_H-M 'P 21'
_symmetry_Int_Tables_number 4
loop_
_symmetry_equiv_pos_site_id
_symmetry_equiv_pos_as_xyz
1 x,y,z
2 -x,1/2+y,-z
_cell_length_a 9.768(2)
_cell_length_b 5.695(1)
_cell_length_c 11.020(4)
_cell_angle_alpha 90
_cell_angle_beta 110.30(2)
_cell_angle_gamma 90
_cell_formula_units_Z 2
loop_
_atom_type_symbol
_atom_type_radius_bond
C 0.68
H 0.23
N 0.68
O 0.68
loop_
_atom_site_label
_atom_site_type_symbol
_atom_site_fract_x
_atom_site_fract_y
_atom_site_fract_z
O1 O 0.6460(2) 0.3860(5) 0.5129(2)
C1 C 0.7812(4) 0.2965(7) 0.5119(3)
O2 O 0.8358(2) 0.4468(5) 0.4345(2)
N1 N 0.7379(3) 0.5038(6) 0.3097(2)
C2 C 0.6025(3) 0.4776(6) 0.2896(3)
C3 C 0.5392(4) 0.3939(9) 0.3866(3)
C4 C 0.7680(6) 0.0491(9) 0.4610(5)
C5 C 0.8890(6) 0.3210(14) 0.6471(4)
O3 O 0.2598(3) 0.6513(5) 0.1211(2)
C6 C 0.2614(4) 0.4560(6) 0.0428(3)
O4 O 0.4054(2) 0.3600(4) 0.1006(2)
C7 C 0.5020(4) 0.5492(7) 0.1578(3)
C8 C 0.3996(5) 0.7543(8) 0.1575(4)
C9 C 0.1535(6) 0.2792(11) 0.0517(7)
C10 C 0.2380(6) 0.5324(11) -0.0951(4)
H1 H 0.4896(43) 0.2491(87) 0.3635(35)
H2 H 0.4625(42) 0.5158(88) 0.3890(35)
H3 H 0.8639(60) -0.039(11) 0.4689(49)
H4 H 0.7184(47) -0.055(10) 0.5079(43)
H5 H 0.7096(42) 0.0408(82) 0.3722(41)
H6 H 0.9796(46) 0.2639(90) 0.6500(36)
H7 H 0.8840(62) 0.477(13) 0.6712(60)
H8 H 0.8618(52) 0.226(12) 0.7016(52)
H9 H 0.5594(30) 0.5891(59) 0.1057(27)
H10 H 0.4035(46) 0.871(11) 0.1000(41)
H11 H 0.4189(43) 0.8221(95) 0.2367(44)
H12 H 0.1696(58) 0.145(13) 0.0054(51)
H13 H 0.1710(41) 0.259(10) 0.1503(42)
H14 H 0.0591(54) 0.351(14) 0.0128(55)
H15 H 0.3174(67) 0.650(15) -0.0971(60)
H16 H 0.2304(43) 0.394(10) -0.1469(41)
H17 H 0.1487(50) 0.633(11) -0.1248(44)
#END
