
#######################################################################
#
#                 Cambridge Crystallographic Data Centre
#                                CCDC
#
#######################################################################
#
# If this CIF has been generated from an entry in the Cambridge
# Structural Database, then it will include bibliographic, chemical,
# crystal, experimental, refinement or atomic coordinate data resulting
# from the CCDC's data processing and validation procedures.
#
#######################################################################

data_CSD_CIF_POYXIL
_audit_creation_date 2009-12-22
_audit_creation_method CSD-ConQuest-V1
_database_code_CSD POYXIL
_database_code_depnum_ccdc_archive 'CCDC 681227'
_chemical_formula_sum 'C20 H25 N1 O3'
_chemical_formula_moiety
;
C20 H25 N1 O3
;
_journal_coden_Cambridge 1336
_journal_volume 11
_journal_year 2009
_journal_page_first 1333
_journal_name_full 'Org.Lett. '
loop_
_publ_author_name
"C.Aciro"
"S.G.Davies"
"W.Kurosawa"
"P.M.Roberts"
"A.J.Russell"
"J.E.Thomson"
_chemical_name_systematic
;
(1RS,2RS,3SR)-3-N,N-Dibenzylaminocyclohexane-1,2-diol N-oxide
;
_chemical_melting_point 422.15
_cell_volume   1756.488
_exptl_crystal_colour 'colorless'
_exptl_crystal_density_diffrn 1.238
_exptl_special_details
;
Melting point range 422.15-423.15K

;
_exptl_crystal_description 'plate'
_exptl_crystal_preparation 'dichloromethane/methanol/heptane'
_diffrn_ambient_temperature 190
#These two values have been output from a single CSD field.
_refine_ls_R_factor_gt 0.0513
_refine_ls_wR_factor_gt 0.0513
loop_
_citation_database_id_CSD
_citation_special_details
POYXIL01 "is a reinterpretation of this cif"
_symmetry_cell_setting triclinic
_symmetry_space_group_name_H-M 'P -1'
_symmetry_Int_Tables_number 2
loop_
_symmetry_equiv_pos_site_id
_symmetry_equiv_pos_as_xyz
1 x,y,z
2 -x,-y,-z
_cell_length_a 5.5677(1)
_cell_length_b 16.2860(3)
_cell_length_c 19.3808(5)
_cell_angle_alpha 89.9786(7)
_cell_angle_beta 89.9851(8)
_cell_angle_gamma 88.1904(8)
_cell_formula_units_Z 4
loop_
_atom_type_symbol
_atom_type_radius_bond
C 0.68
H 0.23
N 0.68
O 0.68
loop_
_atom_site_label
_atom_site_type_symbol
_atom_site_fract_x
_atom_site_fract_y
_atom_site_fract_z
N1 N -0.1037(3) 0.76836(10) -0.07482(8)
C1 C -0.0970(3) 0.85099(12) -0.1129(1)
C2 C -0.1706(4) 0.92316(12) -0.06587(10)
C3 C -0.2033(4) 1.00040(12) -0.10945(10)
C4 C 0.0263(4) 1.01964(13) -0.14799(12)
C5 C 0.1147(4) 0.94602(14) -0.19075(11)
C6 C 0.1445(4) 0.86895(13) -0.14622(11)
O1 O -0.2635(3) 1.06947(8) -0.06757(8)
O2 O -0.3872(3) 0.90976(9) -0.02920(8)
C7 C -0.0420(4) 0.69689(12) -0.12286(11)
C8 C -0.2106(4) 0.68972(12) -0.18318(10)
C9 C -0.1683(4) 0.72728(14) -0.24638(11)
C10 C -0.3237(5) 0.71786(16) -0.30153(12)
C11 C -0.5202(4) 0.66886(15) -0.29474(12)
C12 C -0.5631(4) 0.63005(14) -0.23301(12)
C13 C -0.4099(4) 0.64063(13) -0.17762(11)
C14 C 0.0730(4) 0.76628(13) -0.01459(10)
C15 C 0.0630(4) 0.68974(13) 0.02829(10)
C16 C -0.1232(4) 0.67797(15) 0.07447(11)
C17 C -0.1229(5) 0.60863(17) 0.11641(13)
C18 C 0.0629(6) 0.55063(17) 0.11197(14)
C19 C 0.2489(5) 0.56218(16) 0.06691(14)
C20 C 0.2509(4) 0.63151(15) 0.02528(12)
O3 O -0.3377(2) 0.75780(8) -0.05064(7)
H1 H -0.21940 0.84830 -0.15120
H2 H -0.03870 0.93120 -0.03130
H3 H -0.33580 0.99060 -0.14480
H4 H -0.00540 1.06800 -0.17830
H5 H 0.15250 1.03170 -0.11200
H6 H -0.00150 0.93530 -0.22890
H7 H 0.27480 0.95870 -0.21060
H8 H 0.20010 0.82120 -0.17470
H9 H 0.26230 0.87960 -0.10920
H10 H -0.04970 0.64570 -0.09430
H11 H 0.12200 0.70360 -0.14070
H12 H -0.02730 0.76040 -0.25120
H13 H -0.29370 0.74600 -0.34480
H14 H -0.62390 0.66150 -0.33300
H15 H -0.70060 0.59630 -0.22880
H16 H -0.44070 0.61360 -0.13350
H17 H 0.23720 0.77070 -0.03350
H18 H 0.03080 0.81440 0.01440
H19 H -0.25490 0.71840 0.07680
H20 H -0.25370 0.60170 0.14870
H21 H 0.06100 0.50240 0.14050
H22 H 0.37980 0.52160 0.06390
H23 H 0.38310 0.63990 -0.00550
H24 H -0.38780 0.85590 -0.02770
H25 H -0.39320 1.05750 -0.04520
N2 N 0.1038(3) 0.73165(10) 0.42525(8)
C21 C 0.0969(3) 0.64892(12) 0.38723(10)
C22 C 0.1704(3) 0.57700(12) 0.43423(10)
C23 C 0.2026(4) 0.49955(12) 0.39039(10)
C24 C -0.0264(4) 0.48047(13) 0.35201(12)
C25 C -0.1150(4) 0.55397(14) 0.30913(11)
C26 C -0.1446(4) 0.63110(13) 0.35368(11)
O4 O 0.2635(3) 0.43063(8) 0.43237(8)
O5 O 0.3870(3) 0.59025(9) 0.47077(8)
C27 C 0.0419(4) 0.80320(12) 0.37711(11)
C28 C 0.2103(4) 0.81051(12) 0.31683(11)
C29 C 0.1679(4) 0.77251(14) 0.25370(12)
C30 C 0.3235(5) 0.78217(16) 0.19819(12)
C31 C 0.5201(4) 0.83127(16) 0.20491(12)
C32 C 0.5624(4) 0.86998(14) 0.26701(12)
C33 C 0.4092(4) 0.85934(13) 0.32243(11)
C34 C -0.0736(4) 0.73368(13) 0.48532(10)
C35 C -0.0626(4) 0.81054(13) 0.52822(10)
C36 C 0.1233(4) 0.82214(15) 0.57464(12)
C37 C 0.1237(5) 0.89141(17) 0.61638(13)
C38 C -0.0616(5) 0.94922(16) 0.61203(14)
C39 C -0.2490(5) 0.93799(16) 0.56693(14)
C40 C -0.2504(4) 0.86868(15) 0.52525(12)
O6 O 0.3374(2) 0.74223(8) 0.44936(7)
H26 H 0.21880 0.65180 0.34900
H27 H 0.03870 0.56820 0.46820
H28 H 0.33780 0.50900 0.35630
H29 H -0.15290 0.46770 0.38720
H30 H 0.00530 0.43190 0.32180
H31 H -0.27500 0.54210 0.28860
H32 H 0.00600 0.56340 0.27180
H33 H -0.26280 0.62050 0.39100
H34 H -0.19960 0.67870 0.32530
H35 H 0.04840 0.85440 0.40560
H36 H -0.12350 0.79640 0.35970
H37 H 0.02730 0.73920 0.24910
H38 H 0.29440 0.75440 0.15450
H39 H 0.62550 0.83900 0.16720
H40 H 0.70220 0.90340 0.27180
H41 H 0.44210 0.88550 0.36640
H42 H -0.03640 0.68460 0.51430
H43 H -0.23610 0.72920 0.46480
H44 H 0.25330 0.78110 0.57770
H45 H 0.25430 0.89840 0.64830
H46 H -0.05840 0.99750 0.64060
H47 H -0.37920 0.97880 0.56420
H48 H -0.38280 0.86040 0.49460
H49 H 0.39620 0.64380 0.46970
H50 H 0.38980 0.44200 0.45580
#END
