
#######################################################################
#
#                 Cambridge Crystallographic Data Centre
#                                CCDC
#
#######################################################################
#
# If this CIF has been generated from an entry in the Cambridge
# Structural Database, then it will include bibliographic, chemical,
# crystal, experimental, refinement or atomic coordinate data resulting
# from the CCDC's data processing and validation procedures.
#
#######################################################################

data_CSD_CIF_POYXIL01
_audit_creation_date 2018-07-05
_audit_creation_method CSD-ConQuest-V1
_database_code_CSD POYXIL01
_database_code_depnum_ccdc_archive 'CCDC 1853895'
_chemical_formula_sum 'C20 H25 N1 O3'
_chemical_formula_moiety
;
C20 H25 N1 O3
;
_journal_coden_Cambridge 1777
_journal_volume 70
_journal_year 2014
_journal_page_first 834
_journal_name_full 'Acta Crystallogr.,Sect.C:Cryst.Struct.Chem. '
loop_
_publ_author_name
"L.M.Henling"
"R.E.Marsh"
_chemical_name_systematic
;
(1RS,2RS,3SR)-3-N,N-Dibenzylaminocyclohexane-1,2-diol N-oxide
;
_chemical_name_common
;
N,N-dibenzyl-2,3-dihydroxycyclohexan-1-amine N-oxide
;
_cell_volume   1756.489
_exptl_crystal_colour 'colorless'
_exptl_crystal_density_diffrn 1.238
_exptl_crystal_description 'plate'
_diffrn_ambient_temperature 190
loop_
_citation_database_id_CSD
_citation_special_details
POYXIL "is reinterpreted by this entry"
_symmetry_cell_setting monoclinic
_symmetry_space_group_name_H-M 'P 21/c'
_symmetry_Int_Tables_number 14
loop_
_symmetry_equiv_pos_site_id
_symmetry_equiv_pos_as_xyz
1 x,y,z
2 -x,1/2+y,1/2-z
3 -x,-y,-z
4 x,-1/2-y,-1/2+z
_cell_length_a 5.5677(1)
_cell_length_b 19.3808(5)
_cell_length_c 16.2860(3)
_cell_angle_alpha 90
_cell_angle_beta 91.8096(8)
_cell_angle_gamma 90
_cell_formula_units_Z 4
loop_
_atom_type_symbol
_atom_type_radius_bond
C 0.68
H 0.23
N 0.68
O 0.68
loop_
_atom_site_label
_atom_site_type_symbol
_atom_site_fract_x
_atom_site_fract_y
_atom_site_fract_z
N1 N 0.39620 0.42522 0.23164
C1 C 0.40300 0.38716 0.14896
C2 C 0.32950 0.43418 0.07692
C3 C 0.29700 0.39047 -0.00042
C4 C 0.52640 0.35201 -0.01958
C5 C 0.61480 0.30919 0.05398
C6 C 0.64460 0.35373 0.13108
O1 O 0.23650 0.43240 -0.06942
O2 O 0.11290 0.47078 0.09024
C7 C 0.45800 0.37712 0.30316
C8 C 0.28960 0.31682 0.31040
C9 C 0.33190 0.25366 0.27262
C10 C 0.17640 0.19833 0.28216
C11 C -0.02020 0.20508 0.33120
C12 C -0.06280 0.26700 0.36996
C13 C 0.09040 0.32240 0.35936
C14 C 0.57330 0.48536 0.23370
C15 C 0.56280 0.52826 0.31040
C16 C 0.37680 0.57456 0.32208
C17 C 0.37670 0.61640 0.39139
C18 C 0.56220 0.61200 0.44930
C19 C 0.74900 0.56692 0.43790
C20 C 0.75060 0.52526 0.36858
O3 O 0.16240 0.44936 0.24222
H1 H 0.28090 0.34890 0.15180
H2 H 0.46130 0.46840 0.06850
H3 H 0.16320 0.35580 0.00920
H4 H 0.49460 0.32180 -0.06800
H5 H 0.65270 0.38760 -0.03200
H6 H 0.49620 0.27140 0.06400
H7 H 0.77490 0.28900 0.04170
H8 H 0.69980 0.32530 0.17880
H9 H 0.76260 0.39090 0.12040
H10 H 0.45100 0.40560 0.35440
H11 H 0.62280 0.35950 0.29640
H12 H 0.47270 0.24900 0.23940
H13 H 0.20600 0.15480 0.25420
H14 H -0.12470 0.16710 0.33880
H15 H -0.20140 0.27150 0.40360
H16 H 0.05860 0.36640 0.38600
H17 H 0.73660 0.46560 0.22920
H18 H 0.53360 0.51440 0.18510
H19 H 0.24590 0.57720 0.28140
H20 H 0.24600 0.64850 0.39840
H21 H 0.55970 0.64060 0.49760
H22 H 0.87950 0.56400 0.47860
H23 H 0.88300 0.49460 0.36020
H24 H 0.10800 0.47100 0.14400
H25 H 0.10850 0.45530 -0.05780
#END
