
#######################################################################
#
#                 Cambridge Crystallographic Data Centre
#                                CCDC
#
#######################################################################
#
# If this CIF has been generated from an entry in the Cambridge
# Structural Database, then it will include bibliographic, chemical,
# crystal, experimental, refinement or atomic coordinate data resulting
# from the CCDC's data processing and validation procedures.
#
#######################################################################

data_CSD_CIF_POYYEI
_audit_creation_date 2009-12-22
_audit_creation_method CSD-ConQuest-V1
_database_code_CSD POYYEI
_database_code_depnum_ccdc_archive 'CCDC 694691'
_chemical_formula_sum 'C41 H37 N5 O13'
_chemical_formula_moiety
;
C41 H37 N5 O13
;
_journal_coden_Cambridge 1336
_journal_volume 11
_journal_year 2009
_journal_page_first 1201
_journal_name_full 'Org.Lett. '
loop_
_publ_author_name
"Yan Yan"
"Bo Qin"
"Yingying Shu"
"Xiuying Chen"
"Yeow Kwan Yip"
"Dawei Zhang"
"Haibin Su"
"Huaqiang Zeng"
_chemical_name_systematic
;
Methyl 
2-methoxy-3-((2-methoxy-3-((2-methoxy-3-((2-methoxy-3-((2-methoxy-3-nitrobenzo
yl)amino)benzoyl)amino)benzoyl)amino)-benzoyl)amino)benzoate
;
_chemical_melting_point 461.15
_cell_volume   1930.762
_exptl_crystal_colour 'colorless'
_exptl_crystal_density_diffrn 1.389
_exptl_special_details
;
Melting point range 461.15-462.15K

;
_exptl_crystal_description 'block'
_exptl_crystal_preparation 'hexane/chloroform'
_diffrn_ambient_temperature 223
_refine_special_details
;
A methoxycarbonyl group is disordered over two sites with occupancies of 
0.65:0.35.
;
#These two values have been output from a single CSD field.
_refine_ls_R_factor_gt 0.0603
_refine_ls_wR_factor_gt 0.0603
_symmetry_cell_setting triclinic
_symmetry_space_group_name_H-M 'P -1'
_symmetry_Int_Tables_number 2
loop_
_symmetry_equiv_pos_site_id
_symmetry_equiv_pos_as_xyz
1 x,y,z
2 -x,-y,-z
_cell_length_a 12.1198(6)
_cell_length_b 13.1343(6)
_cell_length_c 13.7022(6)
_cell_angle_alpha 107.878(1)
_cell_angle_beta 108.158(1)
_cell_angle_gamma 95.126(1)
_cell_formula_units_Z 2
loop_
_atom_type_symbol
_atom_type_radius_bond
C 0.68
H 0.23
N 0.68
O 0.68
loop_
_atom_site_label
_atom_site_type_symbol
_atom_site_fract_x
_atom_site_fract_y
_atom_site_fract_z
O1 O 0.24075(17) 0.82419(16) 0.27720(18)
O2 O 0.10701(17) 0.70197(15) 0.13566(16)
O3 O 0.07009(12) 0.55619(11) 0.24120(12)
O4 O -0.16712(14) 0.52810(13) 0.40124(14)
O5 O 0.10205(12) 0.31390(11) 0.27500(12)
O6 O 0.00922(16) -0.02319(13) 0.20912(15)
O7 O 0.24073(12) 0.21277(10) 0.09947(12)
O8 O 0.40699(17) 0.05220(13) -0.11031(14)
O9 O 0.49231(11) 0.41051(11) 0.17584(11)
O10 O 0.73408(15) 0.64969(13) 0.15415(14)
O11 O 0.51310(15) 0.63498(12) 0.39170(13)
O12 O 0.5891(3) 0.9258(2) 0.6547(2)
O13 O 0.4420(3) 0.7815(3) 0.5567(2)
N1 N 0.14728(19) 0.75838(16) 0.23293(19)
N2 N -0.02433(15) 0.45100(14) 0.35061(15)
H1 H 0.04280 0.46780 0.34300
N3 N 0.09925(15) 0.10365(14) 0.16258(15)
H2 H 0.10950 0.17270 0.17140
N4 N 0.42744(15) 0.20904(14) 0.02888(14)
H3 H 0.40380 0.23520 0.08360
N5 N 0.60696(15) 0.62073(14) 0.23875(14)
H4 H 0.55530 0.57020 0.23860
C1 C 0.03647(18) 0.64543(17) 0.29975(16)
C2 C 0.07705(19) 0.74858(18) 0.30109(18)
C3 C 0.0549(2) 0.84244(19) 0.36383(19)
H5 H 0.08680 0.91110 0.36550
C4 C -0.0148(2) 0.8338(2) 0.42416(19)
H6 H -0.03300 0.89690 0.46600
C5 C -0.0581(2) 0.73316(19) 0.42341(18)
H7 H -0.10680 0.72840 0.46410
C6 C -0.03159(18) 0.63790(17) 0.36377(16)
C7 C -0.0199(2) 0.4900(2) 0.13615(19)
H8 H -0.09050 0.46350 0.14750
H9 H 0.00990 0.42840 0.10060
H10 H -0.03920 0.53390 0.09000
C8 C -0.08151(18) 0.53381(18) 0.37338(17)
C9 C 0.00652(17) 0.26878(17) 0.29540(16)
C10 C -0.05890(18) 0.34124(18) 0.33753(17)
C11 C -0.15469(18) 0.3004(2) 0.36016(19)
H11 H -0.19870 0.34800 0.39040
C12 C -0.18416(19) 0.1903(2) 0.33794(19)
H12 H -0.24850 0.16320 0.35380
C13 C -0.12236(19) 0.11872(19) 0.29332(18)
H13 H -0.14540 0.04360 0.27810
C14 C -0.02487(18) 0.15651(17) 0.27004(16)
C15 C 0.2144(2) 0.3365(2) 0.3629(2)
H14 H 0.21250 0.38990 0.42910
H15 H 0.27710 0.36530 0.34270
H16 H 0.22920 0.26960 0.37590
C16 C 0.03025(19) 0.07134(17) 0.21296(18)
C17 C 0.22984(18) 0.09983(15) 0.06311(16)
C18 C 0.15648(18) 0.04164(16) 0.09822(17)
C19 C 0.14519(19) -0.07067(17) 0.06763(19)
H17 H 0.09690 -0.11080 0.09070
C20 C 0.2049(2) -0.12326(17) 0.00339(19)
H18 H 0.19570 -0.19960 -0.01820
C21 C 0.2780(2) -0.06650(17) -0.03008(18)
H19 H 0.31830 -0.10420 -0.07360
C22 C 0.29231(18) 0.04720(16) 0.00052(16)
C23 C 0.37955(19) 0.10232(17) -0.03444(17)
C24 C 0.54414(16) 0.38894(16) 0.09617(16)
C25 C 0.51026(17) 0.28296(17) 0.01773(17)
C26 C 0.55778(19) 0.25651(19) -0.06450(18)
H20 H 0.53720 0.18510 -0.11620
C27 C 0.6355(2) 0.3362(2) -0.06953(19)
H21 H 0.66870 0.31840 -0.12460
C28 C 0.66526(18) 0.44128(19) 0.00441(18)
H22 H 0.71650 0.49460 -0.00240
C29 C 0.62083(16) 0.47045(17) 0.08949(17)
C30 C 0.65947(18) 0.58842(18) 0.16369(17)
C31 C 0.5725(2) 0.73173(17) 0.39602(18)
C32 C 0.62479(19) 0.72486(17) 0.31673(17)
C33 C 0.6882(2) 0.81924(18) 0.3186(2)
H23 H 0.72220 0.81610 0.26500
C34 C 0.7009(2) 0.91738(19) 0.3993(2)
H24 H 0.74310 0.98120 0.39960
C35 C 0.6537(2) 0.92451(19) 0.4789(2)
H25 H 0.66550 0.99230 0.53430
C36 C 0.5874(2) 0.83065(18) 0.47836(19)
C37 C 0.5291(7) 0.8404(3) 0.5656(4)
C38 C 0.5355(8) 0.9505(9) 0.7374(6)
H26 H 0.45940 0.96910 0.70820
H27 H 0.58700 1.01170 0.80130
H28 H 0.52410 0.88720 0.75820
C39 C 0.3863(2) 0.6146(2) 0.3481(3)
H29 H 0.35970 0.68260 0.37080
H30 H 0.35440 0.56330 0.37530
H31 H 0.35860 0.58410 0.26850
C40 C 0.5512(2) 0.37914(19) 0.26849(18)
H32 H 0.56530 0.30590 0.24200
H33 H 0.50140 0.38080 0.31210
H34 H 0.62630 0.42980 0.31330
C41 C 0.1706(2) 0.25367(19) 0.0195(2)
H35 H 0.18500 0.22440 -0.04850
H36 H 0.19230 0.33280 0.04700
H37 H 0.08710 0.23130 0.00620
C42? C 0.5604(13) 0.8407(8) 0.5681(12)
C43? C 0.533(2) 0.969(2) 0.7234(13)
H38? H 0.47540 0.91050 0.71970
H39? H 0.50510 1.03650 0.73850
H40? H 0.60800 0.97710 0.78140
O14? O 0.5513(5) 0.9420(5) 0.6199(5)
O15? O 0.5446(6) 0.7711(5) 0.6052(5)
#END
