
#######################################################################
#
#                 Cambridge Crystallographic Data Centre
#                                CCDC
#
#######################################################################
#
# If this CIF has been generated from an entry in the Cambridge
# Structural Database, then it will include bibliographic, chemical,
# crystal, experimental, refinement or atomic coordinate data resulting
# from the CCDC's data processing and validation procedures.
#
#######################################################################

data_CSD_CIF_POYYIM
_audit_creation_date 2009-12-22
_audit_creation_method CSD-ConQuest-V1
_database_code_CSD POYYIM
_database_code_depnum_ccdc_archive 'CCDC 694692'
_chemical_formula_sum 'C49 H44 N6 O15'
_chemical_formula_moiety
;
C49 H44 N6 O15
;
_journal_coden_Cambridge 1336
_journal_volume 11
_journal_year 2009
_journal_page_first 1201
_journal_name_full 'Org.Lett. '
loop_
_publ_author_name
"Yan Yan"
"Bo Qin"
"Yingying Shu"
"Xiuying Chen"
"Yeow Kwan Yip"
"Dawei Zhang"
"Haibin Su"
"Huaqiang Zeng"
_chemical_name_systematic
;
Methyl 
2-methoxy-3-(2-methoxy-3-(2-methoxy-3-(2-methoxy-3-(2-methoxy-3-(2-methoxy-N-m
ethyl-3-nitrobenzamido)benzamido)benzamido)-benzamido)benzamido)benzoate
;
_chemical_melting_point 494.15
_cell_volume   2208.155
_exptl_crystal_colour 'colorless'
_exptl_crystal_density_diffrn 1.439
_exptl_special_details
;
Melting point range 494.15-496.15K

;
_exptl_crystal_description 'plate'
_exptl_crystal_preparation 'dichloromethane/n-hexane'
_diffrn_ambient_temperature 223
#These two values have been output from a single CSD field.
_refine_ls_R_factor_gt 0.0868
_refine_ls_wR_factor_gt 0.0868
_symmetry_cell_setting triclinic
_symmetry_space_group_name_H-M 'P -1'
_symmetry_Int_Tables_number 2
loop_
_symmetry_equiv_pos_site_id
_symmetry_equiv_pos_as_xyz
1 x,y,z
2 -x,-y,-z
_cell_length_a 11.276(2)
_cell_length_b 12.301(3)
_cell_length_c 16.564(3)
_cell_angle_alpha 90.388(6)
_cell_angle_beta 94.562(5)
_cell_angle_gamma 105.300(5)
_cell_formula_units_Z 2
loop_
_atom_type_symbol
_atom_type_radius_bond
C 0.68
H 0.23
N 0.68
O 0.68
loop_
_atom_site_label
_atom_site_type_symbol
_atom_site_fract_x
_atom_site_fract_y
_atom_site_fract_z
O1 O 0.1493(3) 0.4830(3) 0.16924(19)
O2 O 0.2231(4) 0.6281(4) 0.1023(2)
O3 O 0.3406(2) 0.3789(2) 0.19794(13)
O4 O 0.4958(4) 0.1893(4) 0.05056(19)
O5 O 0.4690(2) 0.2148(2) 0.34084(13)
O6 O 0.7110(3) 0.0579(3) 0.47430(17)
O7 O 0.3941(2) 0.2396(2) 0.53575(13)
O8 O 0.3697(3) 0.2885(3) 0.78186(16)
O9 O 0.0973(2) 0.2562(2) 0.53786(13)
O10 O -0.2000(2) 0.3985(2) 0.57248(16)
O11 O -0.0165(2) 0.2764(2) 0.34574(13)
O12 O -0.1517(3) 0.3660(3) 0.11882(17)
O13 O 0.0789(2) 0.1083(2) 0.21787(13)
O14 O 0.2413(4) -0.0260(4) 0.03462(18)
O15 O 0.2342(3) -0.0110(3) 0.16420(17)
N1 N 0.2143(3) 0.5311(3) 0.1193(2)
H1 H 0.444(4) 0.273(3) 0.210(2)
N2 N 0.4742(3) 0.2281(3) 0.17942(17)
H2 H 0.526(3) 0.192(3) 0.451(2)
N3 N 0.5739(3) 0.1607(3) 0.48289(17)
H3 H 0.261(4) 0.229(4) 0.6106(13)
N4 N 0.2525(3) 0.2391(3) 0.66342(17)
H4 H -0.030(3) 0.309(3) 0.478(3)
N5 N -0.0882(3) 0.3444(3) 0.48019(18)
H5 H -0.041(4) 0.214(4) 0.228(3)
N6 N -0.0526(3) 0.2494(3) 0.18189(17)
C1 C 0.3407(3) 0.3938(3) 0.11576(19)
C2 C 0.2852(3) 0.4692(3) 0.0760(2)
C3 C 0.2885(4) 0.4869(4) -0.0058(2)
H6 H 0.25370 0.54140 -0.03030
C4 C 0.3439(3) 0.4229(3) -0.0510(2)
H7 H 0.34660 0.43290 -0.10710
C5 C 0.3949(3) 0.3447(3) -0.0144(2)
H8 H 0.42980 0.29990 -0.04640
C6 C 0.3967(3) 0.3293(3) 0.0693(2)
C7 C 0.3934(4) 0.4778(4) 0.2494(2)
H9 H 0.45870 0.52900 0.22300
H10 H 0.42710 0.45570 0.30050
H11 H 0.33000 0.51510 0.25940
C8 C 0.4604(4) 0.2439(4) 0.0995(2)
C9 C 0.5447(3) 0.1601(3) 0.3046(2)
C10 C 0.5436(3) 0.1619(3) 0.2198(2)
C11 C 0.6139(3) 0.1044(3) 0.1813(2)
H12 H 0.61160 0.10250 0.12440
C12 C 0.6874(3) 0.0498(3) 0.2265(2)
H13 H 0.73380 0.00940 0.20000
C13 C 0.6940(3) 0.0535(3) 0.3097(2)
H14 H 0.74770 0.01870 0.33940
C14 C 0.6221(3) 0.1082(3) 0.3507(2)
C15 C 0.3418(3) 0.1489(4) 0.3382(2)
H15 H 0.31620 0.11420 0.28470
H16 H 0.28990 0.19760 0.35000
H17 H 0.33390 0.09070 0.37810
C16 C 0.6400(3) 0.1061(3) 0.4418(2)
C17 C 0.4749(3) 0.2101(3) 0.5942(2)
C18 C 0.5698(3) 0.1698(3) 0.5670(2)
C19 C 0.6541(3) 0.1427(3) 0.6238(2)
H18 H 0.71850 0.11520 0.60650
C20 C 0.6436(4) 0.1561(3) 0.7055(2)
H19 H 0.70190 0.13900 0.74360
C21 C 0.5489(4) 0.1940(3) 0.7315(2)
H20 H 0.54270 0.20220 0.78740
C22 C 0.4621(3) 0.2206(3) 0.6765(2)
C23 C 0.4293(4) 0.3570(3) 0.5187(2)
H21 H 0.43000 0.40090 0.56770
H22 H 0.37070 0.37310 0.47750
H23 H 0.51100 0.37660 0.49930
C24 C 0.3588(3) 0.2536(3) 0.7120(2)
C25 C 0.0668(3) 0.2841(3) 0.61385(19)
C26 C 0.1468(3) 0.2720(3) 0.6806(2)
C27 C 0.1191(4) 0.2935(3) 0.7581(2)
H24 H 0.16900 0.28180 0.80370
C28 C 0.0160(4) 0.3327(3) 0.7669(2)
H25 H -0.00390 0.34730 0.81920
C29 C -0.0570(4) 0.3508(3) 0.7016(2)
H26 H -0.12440 0.37990 0.70980
C30 C -0.0340(3) 0.3271(3) 0.6230(2)
C31 C 0.0484(4) 0.1386(3) 0.5160(2)
H27 H 0.07840 0.09350 0.55660
H28 H 0.07490 0.12350 0.46370
H29 H -0.04100 0.11930 0.51290
C32 C -0.1157(3) 0.3588(3) 0.5571(2)
C33 C -0.1063(3) 0.3356(3) 0.3361(2)
C34 C -0.1460(3) 0.3699(3) 0.4078(2)
C35 C -0.2367(3) 0.4273(3) 0.4020(2)
H30 H -0.26450 0.45170 0.44920
C36 C -0.2857(3) 0.4486(3) 0.3275(3)
H31 H -0.34720 0.48760 0.32410
C37 C -0.2470(3) 0.4142(3) 0.2577(2)
H32 H -0.28230 0.43000 0.20730
C38 C -0.1558(3) 0.3561(3) 0.2603(2)
C39 C 0.1085(3) 0.3474(3) 0.3443(2)
H33 H 0.11890 0.38090 0.29160
H34 H 0.16650 0.30220 0.35450
H35 H 0.12360 0.40660 0.38590
C40 C -0.1201(3) 0.3249(3) 0.1801(2)
C41 C 0.0699(3) 0.1342(3) 0.13761(19)
C42 C 0.0011(3) 0.2110(3) 0.1174(2)
C43 C -0.0069(4) 0.2476(4) 0.0392(2)
H36 H -0.05090 0.30090 0.02550
C44 C 0.0517(4) 0.2038(4) -0.0192(2)
H37 H 0.04450 0.22660 -0.07300
C45 C 0.1185(4) 0.1296(4) -0.0005(2)
H38 H 0.15770 0.10250 -0.04110
C46 C 0.1299(3) 0.0928(3) 0.0787(2)
C47 C 0.0142(4) -0.0021(4) 0.2388(3)
H39 H -0.04440 -0.03720 0.19400
H40 H -0.02960 0.00230 0.28630
H41 H 0.07240 -0.04670 0.25050
C48 C 0.2067(3) 0.0150(3) 0.0996(2)
C49 C 0.3187(6) -0.1017(6) 0.0494(3)
H42 H 0.40020 -0.05920 0.07130
H43 H 0.32510 -0.13940 -0.00110
H44 H 0.28260 -0.15750 0.08780
#END
