
#######################################################################
#
#                 Cambridge Crystallographic Data Centre
#                                CCDC
#
#######################################################################
#
# If this CIF has been generated from an entry in the Cambridge
# Structural Database, then it will include bibliographic, chemical,
# crystal, experimental, refinement or atomic coordinate data resulting
# from the CCDC's data processing and validation procedures.
#
#######################################################################

data_CSD_CIF_POZFUG
_audit_creation_date 2009-12-22
_audit_creation_method CSD-ConQuest-V1
_database_code_CSD POZFUG
_database_code_depnum_ccdc_archive 'CCDC 716944'
_chemical_formula_sum 'C11 H12 N4 O3'
_chemical_formula_moiety
;
C11 H12 N4 O3
;
_journal_coden_Cambridge 16
_journal_volume 65
_journal_year 2009
_journal_page_first 3974
_journal_name_full 'Tetrahedron '
loop_
_publ_author_name
"K.A.Dururgkar"
"R.G.Gonnade"
"C.V.Ramana"
_chemical_name_systematic
;
2-(1-(4-Nitrophenyl)-1H-1,2,3-triazol-4-yl)-2-propanol
;
_chemical_melting_point 394.15
_cell_volume   1177.887
_exptl_crystal_colour 'colorless'
_exptl_crystal_density_diffrn 1.4
_exptl_special_details
;
Melting point range 394.15-395.15K

;
_exptl_crystal_description 'plate'
_diffrn_ambient_temperature 133
#These two values have been output from a single CSD field.
_refine_ls_R_factor_gt 0.0599
_refine_ls_wR_factor_gt 0.0599
_symmetry_cell_setting monoclinic
_symmetry_space_group_name_H-M 'P 21/c'
_symmetry_Int_Tables_number 14
loop_
_symmetry_equiv_pos_site_id
_symmetry_equiv_pos_as_xyz
1 x,y,z
2 -x,1/2+y,1/2-z
3 -x,-y,-z
4 x,-1/2-y,-1/2+z
_cell_length_a 13.948(4)
_cell_length_b 12.875(4)
_cell_length_c 6.5711(18)
_cell_angle_alpha 90
_cell_angle_beta 93.463(5)
_cell_angle_gamma 90
_cell_formula_units_Z 4
loop_
_atom_type_symbol
_atom_type_radius_bond
C 0.68
H 0.23
N 0.68
O 0.68
loop_
_atom_site_label
_atom_site_type_symbol
_atom_site_fract_x
_atom_site_fract_y
_atom_site_fract_z
O1 O -0.02819(16) -0.04048(19) 0.7356(5)
O2 O 0.09725(18) -0.13719(18) 0.7364(5)
O3 O 0.38126(17) 0.61142(17) 1.0284(4)
N1 N 0.28572(16) 0.30825(18) 0.8057(4)
N2 N 0.38095(17) 0.30300(19) 0.8605(4)
N3 N 0.41282(17) 0.39886(19) 0.8651(4)
N4 N 0.05920(19) -0.0522(2) 0.7441(4)
C1 C 0.2579(2) 0.4085(2) 0.7780(4)
C2 C 0.3386(2) 0.4662(2) 0.8149(4)
C3 C 0.3542(2) 0.5833(2) 0.8202(5)
C4 C 0.4309(3) 0.6133(3) 0.6765(6)
C5 C 0.2605(3) 0.6400(3) 0.7670(6)
C6 C 0.2295(2) 0.2159(2) 0.7923(4)
C7 C 0.1302(2) 0.2244(2) 0.7930(5)
C8 C 0.0741(2) 0.1360(2) 0.7775(5)
C9 C 0.1195(2) 0.0407(2) 0.7628(4)
C10 C 0.2180(2) 0.0310(2) 0.7632(5)
C11 C 0.2737(2) 0.1194(2) 0.7791(4)
H1 H 0.193(2) 0.430(3) 0.740(5)
H2 H 0.441(3) 0.602(3) 1.047(6)
H3 H 0.401(2) 0.600(3) 0.533(5)
H4 H 0.488(3) 0.574(3) 0.703(5)
H5 H 0.443(3) 0.686(3) 0.694(6)
H6 H 0.275(3) 0.713(3) 0.772(6)
H7 H 0.211(3) 0.621(3) 0.862(6)
H8 H 0.234(3) 0.620(3) 0.618(6)
H9 H 0.103(2) 0.288(2) 0.797(4)
H10 H 0.005(2) 0.140(2) 0.787(5)
H11 H 0.246(2) -0.034(3) 0.752(5)
H12 H 0.341(2) 0.116(2) 0.779(5)
#END
