
#######################################################################
#
#                 Cambridge Crystallographic Data Centre
#                                CCDC
#
#######################################################################
#
# If this CIF has been generated from an entry in the Cambridge
# Structural Database, then it will include bibliographic, chemical,
# crystal, experimental, refinement or atomic coordinate data resulting
# from the CCDC's data processing and validation procedures.
#
#######################################################################

data_CSD_CIF_PPRDOX01
_audit_creation_date 2017-05-10
_audit_creation_method CSD-ConQuest-V1
_database_code_CSD PPRDOX01
_database_code_depnum_ccdc_archive 'CCDC 1530872'
_chemical_formula_sum 'C9 H9 N1 O2'
_chemical_formula_moiety
;
C9 H9 N1 O2
;
_journal_coden_Cambridge 1336
_journal_volume 19
_journal_year 2017
_journal_page_first 1694
_journal_name_full 'Org.Lett. '
loop_
_publ_author_name
"M.K.Reddy"
"S.Mallik"
"I.Ramakrishna"
"M.Baidya"
_chemical_name_systematic
;
2-(hydroxyimino)-1-phenylpropan-1-one
;
_cell_volume    822.537
_exptl_crystal_colour 'colorless'
_exptl_crystal_density_diffrn 1.318
_exptl_crystal_description 'block'
_diffrn_ambient_temperature 296
#These two values have been output from a single CSD field.
_refine_ls_R_factor_gt 0.0378
_refine_ls_wR_factor_gt 0.0378
_symmetry_cell_setting monoclinic
_symmetry_space_group_name_H-M 'P 21/c'
_symmetry_Int_Tables_number 14
loop_
_symmetry_equiv_pos_site_id
_symmetry_equiv_pos_as_xyz
1 x,y,z
2 -x,1/2+y,1/2-z
3 -x,-y,-z
4 x,-1/2-y,-1/2+z
_cell_length_a 9.7456(5)
_cell_length_b 14.1679(5)
_cell_length_c 6.2215(2)
_cell_angle_alpha 90
_cell_angle_beta 106.761(2)
_cell_angle_gamma 90
_cell_formula_units_Z 4
loop_
_atom_type_symbol
_atom_type_radius_bond
C 0.68
H 0.23
N 0.68
O 0.68
loop_
_atom_site_label
_atom_site_type_symbol
_atom_site_fract_x
_atom_site_fract_y
_atom_site_fract_z
C1 C 0.6788(2) 0.59683(12) 0.4150(3)
H1 H 0.70730 0.58000 0.56590
C2 C 0.5368(2) 0.59201(13) 0.2955(3)
H2 H 0.47000 0.57060 0.36490
C3 C 0.4925(2) 0.61865(13) 0.0738(3)
H3 H 0.39580 0.61610 -0.00580
C4 C 0.5914(2) 0.64913(12) -0.0304(3)
H4 H 0.56120 0.66790 -0.18000
C5 C 0.73543(19) 0.65196(11) 0.0864(3)
H5 H 0.80210 0.67070 0.01410
C6 C 0.78078(18) 0.62679(11) 0.3121(3)
C7 C 0.9310(2) 0.63866(11) 0.4541(3)
C8 C 1.05513(18) 0.62394(12) 0.3612(3)
C9 C 1.1955(2) 0.66762(15) 0.4796(3)
H6 H 1.24140 0.63120 0.61080
H7 H 1.18030 0.73090 0.52330
H8 H 1.25530 0.66900 0.38120
N1 N 1.03159(15) 0.56899(9) 0.1921(2)
O1 O 0.95689(15) 0.66052(10) 0.65092(19)
O2 O 1.15328(13) 0.55243(10) 0.1227(2)
H9 H 1.117(3) 0.5154(17) 0.005(4)
#END
