
#######################################################################
#
#                 Cambridge Crystallographic Data Centre
#                                CCDC
#
#######################################################################
#
# If this CIF has been generated from an entry in the Cambridge
# Structural Database, then it will include bibliographic, chemical,
# crystal, experimental, refinement or atomic coordinate data resulting
# from the CCDC's data processing and validation procedures.
#
#######################################################################

data_CSD_CIF_PRDOXM
_audit_creation_date 1981-09-30
_audit_creation_method CSD-ConQuest-V1
_database_code_CSD PRDOXM
_chemical_formula_sum 'C19 H22 N2 O1'
_chemical_formula_moiety
;
C19 H22 N2 O1
;
_journal_coeditor_code "IUCr A19989"
_journal_coden_Cambridge 107
_journal_volume 37
_journal_year 1981
_journal_page_first 712
_journal_name_full 'Acta Crystallogr.,Sect.B:Struct.Crystallogr.Cryst.Chem. '
loop_
_publ_author_name
"R.Roques"
"J.P.Declercq"
"G.Germain"
"P.Graffin"
"J.M.Kamenka"
"P.Geneste"
_chemical_name_systematic
;
3,5-Dimethyl-2,6-diphenylpiperidin-4-one oxime
;
_cell_volume   3412.705
_diffrn_ambient_temperature ?
_diffrn_special_details
;
The study was carried out at room temperature,in the range 283-303K

;
#These two values have been output from a single CSD field.
_refine_ls_R_factor_gt 0.073
_refine_ls_wR_factor_gt 0.073
_symmetry_cell_setting monoclinic
_symmetry_space_group_name_H-M 'P 21/n'
_symmetry_Int_Tables_number 14
loop_
_symmetry_equiv_pos_site_id
_symmetry_equiv_pos_as_xyz
1 x,y,z
2 1/2-x,1/2+y,1/2-z
3 -x,-y,-z
4 -1/2+x,-1/2-y,-1/2+z
_cell_length_a 11.345(4)
_cell_length_b 9.569(4)
_cell_length_c 31.543(14)
_cell_angle_alpha 90
_cell_angle_beta 94.72(3)
_cell_angle_gamma 90
_cell_formula_units_Z 8
loop_
_atom_type_symbol
_atom_type_radius_bond
C 0.68
H 0.23
N 0.68
O 0.68
loop_
_atom_site_label
_atom_site_type_symbol
_atom_site_fract_x
_atom_site_fract_y
_atom_site_fract_z
N1 N 0.58300 0.25860 0.05150
C1 C 0.64770 0.26370 0.09430
C2 C 0.57400 0.35090 0.12400
C3 C 0.45010 0.29170 0.12190
C4 C 0.38630 0.26360 0.07810
C5 C 0.47120 0.18290 0.05210
C6 C 0.41550 0.16100 0.00680
C7 C 0.32320 0.06480 0.00090
C8 C 0.26680 0.04420 -0.03960
C9 C 0.30260 0.11970 -0.07420
C10 C 0.39490 0.21580 -0.06820
C11 C 0.45140 0.23650 -0.02770
C12 C 0.76800 0.32770 0.08910
C13 C 0.77450 0.45330 0.06700
C14 C 0.88440 0.51350 0.06170
C15 C 0.98770 0.44820 0.07860
C16 C 0.98120 0.32260 0.10080
C17 C 0.87130 0.26240 0.10600
C18 C 0.63420 0.35780 0.16920
C19 C 0.34110 0.40350 0.05840
N2 N 0.40130 0.27970 0.15710
O1 O 0.28220 0.23370 0.15130
N3 N 0.10580 0.33900 0.34020
C20 C 0.05240 0.36530 0.29670
C21 C 0.09090 0.24390 0.26770
C22 C 0.22820 0.24600 0.27180
C23 C 0.28860 0.24490 0.31600
C24 C 0.23560 0.35600 0.34400
C25 C 0.28460 0.34480 0.38960
C26 C 0.38810 0.41800 0.40200
C27 C 0.44310 0.40030 0.44280
C28 C 0.39470 0.30950 0.47130
C29 C 0.29120 0.23630 0.45890
C30 C 0.23610 0.25390 0.41810
C31 C -0.08010 0.36490 0.29710
C32 C -0.14050 0.25510 0.31480
C33 C -0.26360 0.25860 0.31410
C34 C -0.32620 0.37180 0.29580
C35 C -0.26580 0.48150 0.27810
C36 C -0.14270 0.47810 0.27880
C37 C 0.03920 0.25790 0.22150
C38 C 0.28290 0.10110 0.33130
N4 N 0.27940 0.26310 0.23700
O2 O 0.40490 0.26770 0.24500
H1 H 0.63000 0.21900 0.03000
H2 H 0.65900 0.15400 0.10600
H3 H 0.56600 0.45900 0.11100
H4 H 0.31000 0.19200 0.08200
H5 H 0.48800 0.07800 0.06600
H6 H 0.29500 0.00600 0.02700
H7 H 0.19500 -0.03000 -0.04400
H8 H 0.25800 0.10300 -0.10500
H9 H 0.42200 0.27400 -0.09400
H10 H 0.52200 0.31000 -0.02300
H11 H 0.69400 0.50300 0.05300
H12 H 0.88900 0.61000 0.04400
H13 H 1.07200 0.49400 0.07400
H14 H 1.06100 0.27200 0.11300
H15 H 0.86600 0.16500 0.12300
H16 H 0.64000 0.25300 0.18200
H17 H 0.58400 0.42200 0.18900
H18 H 0.72100 0.40000 0.16800
H19 H 0.32100 0.51400 0.05700
H20 H 0.26000 0.34400 0.05100
H21 H 0.40300 0.37800 0.03500
H22 H 0.26300 0.15900 0.18100
H23 H 0.07000 0.43000 0.35500
H24 H 0.08200 0.46900 0.28500
H25 H 0.06500 0.13900 0.28000
H26 H 0.38200 0.27600 0.31400
H27 H 0.25500 0.46200 0.33100
H28 H 0.42500 0.48800 0.37900
H29 H 0.52300 0.45700 0.45200
H30 H 0.43700 0.29500 0.50200
H31 H 0.25300 0.16600 0.48100
H32 H 0.15600 0.19700 0.40800
H33 H -0.09200 0.16700 0.32900
H34 H -0.31000 0.17300 0.32700
H35 H -0.42100 0.37400 0.29500
H36 H -0.31400 0.56900 0.26300
H37 H -0.09600 0.56300 0.26500
H38 H 0.06400 0.35800 0.20900
H39 H -0.05600 0.25100 0.22000
H40 H 0.07300 0.17600 0.20200
H41 H 0.19100 0.07300 0.33200
H42 H 0.32800 0.09200 0.36200
H43 H 0.32300 0.03100 0.30900
H44 H 0.44700 0.26900 0.21100
#END
