
#######################################################################
#
#                 Cambridge Crystallographic Data Centre
#                                CCDC
#
#######################################################################
#
# If this CIF has been generated from an entry in the Cambridge
# Structural Database, then it will include bibliographic, chemical,
# crystal, experimental, refinement or atomic coordinate data resulting
# from the CCDC's data processing and validation procedures.
#
#######################################################################

data_CSD_CIF_PRFUXC
_audit_creation_date 1977-07-22
_audit_creation_method CSD-ConQuest-V1
_database_code_CSD PRFUXC
_chemical_formula_sum 'C7 H11 N3 O4'
_chemical_formula_moiety
;
C7 H11 N3 O4
;
_journal_coeditor_code "IUCr A14422"
_journal_coden_Cambridge 107
_journal_volume 33
_journal_year 1977
_journal_page_first 479
_journal_name_full 'Acta Crystallogr.,Sect.B:Struct.Crystallogr.Cryst.Chem. '
loop_
_publ_author_name
"M.Calleri"
"G.Chiari"
"A.C.Villa"
"A.G.Manfredotti"
"C.Guastini"
"D.Viterbo"
_chemical_name_systematic
;
Isopropyl 4-methyl-3-furoxan carbamate
;
_chemical_melting_point 378.15
_cell_volume    969.846
_exptl_crystal_density_diffrn 1.38
_exptl_special_details
;
Melting point range 378.15-380.15K
BOND LENGTHS FOR N1-O1 AND N2-O1 HAVE BEEN SWAPPED
;
_diffrn_ambient_temperature ?
_diffrn_special_details
;
The study was carried out at room temperature,in the range 283-303K

;
#These two values have been output from a single CSD field.
_refine_ls_R_factor_gt 0.056
_refine_ls_wR_factor_gt 0.056
_symmetry_cell_setting monoclinic
_symmetry_space_group_name_H-M 'P 21/c'
_symmetry_Int_Tables_number 14
loop_
_symmetry_equiv_pos_site_id
_symmetry_equiv_pos_as_xyz
1 x,y,z
2 -x,1/2+y,1/2-z
3 -x,-y,-z
4 x,-1/2-y,-1/2+z
_cell_length_a 4.844(1)
_cell_length_b 22.559(4)
_cell_length_c 8.962(1)
_cell_angle_alpha 90
_cell_angle_beta 97.98(1)
_cell_angle_gamma 90
_cell_formula_units_Z 4
loop_
_atom_type_symbol
_atom_type_radius_bond
C 0.68
H 0.23
N 0.68
O 0.68
loop_
_atom_site_label
_atom_site_type_symbol
_atom_site_fract_x
_atom_site_fract_y
_atom_site_fract_z
O1 O -0.24000 0.32000 0.05060
O2 O -0.35780 0.40060 0.18410
O3 O -0.31010 0.36100 0.49760
O4 O 0.07530 0.40120 0.63120
N1 N -0.03520 0.27640 0.07040
N2 N -0.19650 0.35810 0.18100
N3 N 0.10950 0.36180 0.40920
C1 C 0.10990 0.28540 0.20280
C2 C 0.01090 0.33570 0.27150
C3 C 0.34050 0.24590 0.26280
C4 C -0.06560 0.37420 0.51330
C5 C -0.08580 0.42340 0.74850
C6 C -0.21480 0.48120 0.69740
C7 C 0.11950 0.42730 0.88860
H1 H 0.30700 0.37700 0.43700
H2 H -0.24600 0.38900 0.76100
H3 H 0.48300 0.26300 0.32500
H4 H 0.29200 0.21700 0.32600
H5 H 0.41100 0.22500 0.17900
H6 H -0.35600 0.48200 0.59900
H7 H -0.32400 0.49800 0.77400
H8 H -0.06400 0.51100 0.68600
H9 H 0.04000 0.44000 0.96700
H10 H 0.21200 0.39000 0.91500
H11 H 0.25600 0.46300 0.86600
#END
