
#######################################################################
#
#                 Cambridge Crystallographic Data Centre
#                                CCDC
#
#######################################################################
#
# If this CIF has been generated from an entry in the Cambridge
# Structural Database, then it will include bibliographic, chemical,
# crystal, experimental, refinement or atomic coordinate data resulting
# from the CCDC's data processing and validation procedures.
#
#######################################################################

data_CSD_CIF_PRGOXZ
_audit_creation_date 1981-09-30
_audit_creation_method CSD-ConQuest-V1
_database_code_CSD PRGOXZ
_database_code_depnum_ccdc_archive 'CCDC 1238016'
_chemical_formula_sum 'C25 H35 N1 O6'
_chemical_formula_moiety
;
C25 H35 N1 O6
;
_journal_coden_Cambridge 82
_journal_volume 21
_journal_year 1980
_journal_page_first 183-5
_journal_name_full 'Zh.Strukt.Khim.(Russ.)(J.Struct.Chem.) '
loop_
_publ_author_name
"L.G.Vorontsova"
_chemical_name_systematic
;
25-Methoxycarbonyl-N-methoxy-progesterone(16\a,17\a-d)tetrahydro-23,24-oxazole
;
_cell_volume   2380.354
_diffrn_ambient_temperature ?
_diffrn_special_details
;
The study was carried out at room temperature,in the range 283-303K

;
#These two values have been output from a single CSD field.
_refine_ls_R_factor_gt 0.081
_refine_ls_wR_factor_gt 0.081
loop_
_citation_database_id_CSD
_citation_special_details
NPRHOA "is a stereoisomer of this entry"
NPRHOB "is a stereoisomer of this entry"
_symmetry_cell_setting orthorhombic
_symmetry_space_group_name_H-M 'P 21 21 21'
_symmetry_Int_Tables_number 19
loop_
_symmetry_equiv_pos_site_id
_symmetry_equiv_pos_as_xyz
1 x,y,z
2 1/2+x,1/2-y,-z
3 -x,1/2+y,1/2-z
4 1/2-x,-y,1/2+z
_cell_length_a 16.05
_cell_length_b 13.098
_cell_length_c 11.323
_cell_angle_alpha 90
_cell_angle_beta 90
_cell_angle_gamma 90
_cell_formula_units_Z 4
loop_
_atom_type_symbol
_atom_type_radius_bond
C 0.68
N 0.68
O 0.68
loop_
_atom_site_label
_atom_site_type_symbol
_atom_site_fract_x
_atom_site_fract_y
_atom_site_fract_z
C1 C 0.65830 0.08440 0.01220
C2 C 0.59330 0.16570 -0.01370
C3 C 0.63160 0.26410 -0.05100
C4 C 0.71280 0.25930 -0.10850
C5 C 0.75160 0.16890 -0.13190
C6 C 0.83070 0.17080 -0.20540
C7 C 0.89920 0.10950 -0.14570
C8 C 0.87060 -0.00170 -0.12420
C9 C 0.79130 -0.00310 -0.04870
C10 C 0.71900 0.06830 -0.09310
C11 C 0.76330 -0.11430 -0.03350
C12 C 0.82840 -0.17940 0.03170
C13 C 0.91170 -0.17410 -0.03570
C14 C 0.93530 -0.06210 -0.05390
C15 C 1.02740 -0.06750 -0.09290
C16 C 1.06390 -0.14290 -0.00270
C17 C 0.99000 -0.21020 0.03980
C18 C 0.90710 -0.23410 -0.15150
C19 C 0.67030 0.01720 -0.19570
C20 C 1.00320 -0.32470 0.03030
C21 C 0.95330 -0.39380 0.10810
O1 O 1.05180 -0.35900 -0.04440
O2 O 0.97660 -0.18200 0.16170
N1 N 1.05320 -0.14850 0.21110
C22 C 1.08880 -0.08880 0.10960
O3 O 1.10760 -0.23760 0.21700
C23 C 1.11040 -0.26880 0.33850
C24 C 1.18180 -0.07480 0.12860
O4 O 1.19660 -0.03710 0.23960
C25 C 1.28230 -0.02060 0.27090
O5 O 1.23500 -0.08760 0.05840
O6 O 0.59550 0.34440 -0.03750
#END
