
#######################################################################
#
#                 Cambridge Crystallographic Data Centre
#                                CCDC
#
#######################################################################
#
# If this CIF has been generated from an entry in the Cambridge
# Structural Database, then it will include bibliographic, chemical,
# crystal, experimental, refinement or atomic coordinate data resulting
# from the CCDC's data processing and validation procedures.
#
#######################################################################

data_CSD_CIF_PROPNB10
_audit_creation_date 1975-05-16
_audit_creation_method CSD-ConQuest-V1
_database_code_CSD PROPNB10
_chemical_formula_sum 'C17 H19 N1 O4'
_chemical_formula_moiety
;
C17 H19 N1 O4
;
_journal_coden_Cambridge 4
_journal_volume 96
_journal_year 1974
_journal_page_first 7429
_journal_name_full 'J.Am.Chem.Soc. '
loop_
_publ_author_name
"J.V.Silverton"
"G.W.A.Milne"
"P.E.Eaton"
"K.Nyi"
"G.H.Temme III"
_chemical_name_systematic
;
2-Hydroxy(4.2.2)propellane p-nitrobenzoate
;
_chemical_melting_point 389.15
_cell_volume   1545.870
_exptl_crystal_density_diffrn 1.294
_diffrn_ambient_temperature ?
_diffrn_special_details
;
The study was carried out at room temperature,in the range 283-303K

;
#These two values have been output from a single CSD field.
_refine_ls_R_factor_gt 0.043
_refine_ls_wR_factor_gt 0.043
_symmetry_cell_setting monoclinic
_symmetry_space_group_name_H-M 'P 21/n'
_symmetry_Int_Tables_number 14
loop_
_symmetry_equiv_pos_site_id
_symmetry_equiv_pos_as_xyz
1 x,y,z
2 1/2-x,1/2+y,1/2-z
3 -x,-y,-z
4 -1/2+x,-1/2-y,-1/2+z
_cell_length_a 10.976(1)
_cell_length_b 7.135(1)
_cell_length_c 19.740(1)
_cell_angle_alpha 90
_cell_angle_beta 90.43(1)
_cell_angle_gamma 90
_cell_formula_units_Z 4
loop_
_atom_type_symbol
_atom_type_radius_bond
C 0.68
H 0.20
N 0.68
O 0.68
loop_
_atom_site_label
_atom_site_type_symbol
_atom_site_fract_x
_atom_site_fract_y
_atom_site_fract_z
C1 C 0.37040 0.21290 0.02530
C2 C 0.44280 -0.19180 0.43310
C3 C 0.57520 -0.25930 0.43780
C4 C 0.60690 -0.37070 0.37560
C5 C 0.53840 -0.32980 0.30650
C6 C 0.65630 -0.25060 0.27790
C7 C 0.72730 -0.32390 0.33950
C8 C 0.57060 -0.57830 0.37090
C9 C 0.52300 -0.54570 0.29810
C10 C 0.39950 0.27980 0.08910
C11 C 0.40440 0.15600 0.14200
C12 C 0.37810 -0.03310 0.13250
C13 C 0.34740 -0.09460 0.06810
C14 C 0.34500 0.02540 0.01380
C15 C 0.38300 -0.17060 0.18950
C16 C 0.42460 -0.21150 0.30710
C17 C 0.42250 -0.08120 0.36810
H1 H 0.38000 -0.31200 0.43000
H2 H 0.63200 -0.13200 0.43900
H3 H 0.66400 -0.12000 0.27700
H4 H 0.77400 -0.23200 0.36400
H5 H 0.63900 -0.67300 0.37500
H6 H 0.43600 -0.59400 0.28400
H7 H 0.50100 0.01000 0.36200
H8 H 0.42000 0.40400 0.09400
H9 H 0.43500 -0.11900 0.47300
H10 H 0.59700 -0.33600 0.48300
H11 H 0.68200 -0.29700 0.23800
H12 H 0.42500 0.19400 0.18300
H13 H 0.77200 -0.42900 0.33400
H14 H 0.47800 -0.59100 0.39700
H15 H 0.57200 -0.58800 0.25900
H16 H 0.33800 -0.21300 0.06500
H17 H 0.31900 -0.01400 -0.03400
H18 H 0.34600 -0.28700 0.30800
H19 H 0.34600 -0.03900 0.36900
N1 N 0.36390 0.34540 -0.03180
O1 O 0.36040 0.51210 -0.01930
O2 O 0.36320 0.28250 -0.08870
O3 O 0.36020 -0.33470 0.18280
O4 O 0.41580 -0.09190 0.24710
#END
