
#######################################################################
#
#                 Cambridge Crystallographic Data Centre
#                                CCDC
#
#######################################################################
#
# If this CIF has been generated from an entry in the Cambridge
# Structural Database, then it will include bibliographic, chemical,
# crystal, experimental, refinement or atomic coordinate data resulting
# from the CCDC's data processing and validation procedures.
#
#######################################################################

data_CSD_CIF_PTZXDE
_audit_creation_date 1974-03-25
_audit_creation_method CSD-ConQuest-V1
_database_code_CSD PTZXDE
_chemical_formula_sum 'C12 H13 N3 O1'
_chemical_formula_moiety
;
C12 H13 N3 O1
;
_journal_coeditor_code "IUCr A10352"
_journal_coden_Cambridge 107
_journal_volume 29
_journal_year 1973
_journal_page_first 2637
_journal_name_full 'Acta Crystallogr.,Sect.B:Struct.Crystallogr.Cryst.Chem. '
loop_
_publ_author_name
"T.K.Bradshaw"
"E.W.Della"
"M.R.Taylor"
_chemical_name_systematic
;
8-Phenyl-3,4,8-triaza-9-oxatricyclo(5.2.1.0^2,6^)dec-3-ene
;
_cell_volume   1052.775
_exptl_crystal_density_diffrn 1.36
_diffrn_ambient_temperature ?
_diffrn_special_details
;
The study was carried out at room temperature,in the range 283-303K

;
#These two values have been output from a single CSD field.
_refine_ls_R_factor_gt 0.043
_refine_ls_wR_factor_gt 0.043
_symmetry_cell_setting monoclinic
_symmetry_space_group_name_H-M 'P 21/c'
_symmetry_Int_Tables_number 14
loop_
_symmetry_equiv_pos_site_id
_symmetry_equiv_pos_as_xyz
1 x,y,z
2 -x,1/2+y,1/2-z
3 -x,-y,-z
4 x,-1/2-y,-1/2+z
_cell_length_a 11.613(3)
_cell_length_b 9.164(3)
_cell_length_c 11.140(3)
_cell_angle_alpha 90
_cell_angle_beta 117.375
_cell_angle_gamma 90
_cell_formula_units_Z 4
loop_
_atom_type_symbol
_atom_type_radius_bond
C 0.68
H 0.20
N 0.68
O 0.68
loop_
_atom_site_label
_atom_site_type_symbol
_atom_site_fract_x
_atom_site_fract_y
_atom_site_fract_z
C1 C -0.35950 0.37120 0.04710
C2 C -0.54240 0.25640 0.14890
C3 C -0.62570 0.17160 0.03980
C4 C -0.75820 0.18210 -0.00560
C5 C -0.80950 0.27500 0.05500
C6 C -0.72620 0.35780 0.16210
C7 C -0.59390 0.34870 0.21010
C8 C -0.29850 0.22380 0.07200
C9 C -0.16520 0.24600 0.19000
C10 C -0.10890 0.48630 0.27500
C11 C -0.19310 0.36000 0.27530
C12 C -0.33960 0.38370 0.19100
H1 H -0.31600 0.44600 0.02700
H2 H -0.45100 0.37700 -0.01500
H3 H -0.58400 0.10200 -0.00300
H4 H -0.81400 0.13300 -0.09500
H5 H -0.89800 0.28300 0.02900
H6 H -0.75500 0.42600 0.20400
H7 H -0.53900 0.40500 0.27800
H8 H -0.30400 0.16600 -0.00700
H9 H -0.12900 0.15600 0.23200
H10 H -0.16400 0.57600 0.21800
H11 H -0.04500 0.52500 0.36300
H12 H -0.17200 0.32800 0.37100
H13 H -0.37300 0.46400 0.22200
N1 N -0.40400 0.24730 0.20520
N2 N -0.07430 0.31620 0.14890
N3 N -0.04430 0.44220 0.19420
O1 O -0.37070 0.14120 0.12600
#END
