
#######################################################################
#
#                 Cambridge Crystallographic Data Centre
#                                CCDC
#
#######################################################################
#
# If this CIF has been generated from an entry in the Cambridge
# Structural Database, then it will include bibliographic, chemical,
# crystal, experimental, refinement or atomic coordinate data resulting
# from the CCDC's data processing and validation procedures.
#
#######################################################################

data_CSD_CIF_PUBBEU
_audit_creation_date 2009-12-22
_audit_creation_method CSD-ConQuest-V1
_database_code_CSD PUBBEU
_database_code_depnum_ccdc_archive 'CCDC 706847'
_chemical_formula_sum 'C19 H21 N1 O4'
_chemical_formula_moiety
;
C19 H21 N1 O4
;
_journal_coden_Cambridge 4
_journal_volume 131
_journal_year 2009
_journal_page_first 2993
_journal_name_full 'J.Am.Chem.Soc. '
loop_
_publ_author_name
"G.Lemiere"
"V.Gandon"
"K.Cariou"
"A.Hours"
"T.Fukuyama"
"A.-L.Dhimane"
"L.Fensterbank"
"M.Malacria"
_chemical_name_systematic
;
2-Methyl-1,3a,3b,4,5,6,7,8-octahydrocyclopenta[1,3]cyclopropa[1,2][7]annulen-3
-yl 4-nitrobenzoate
;
_cell_volume   1769.990
_exptl_crystal_colour 'yellow'
_exptl_crystal_density_diffrn 1.229
_exptl_crystal_description 'parallelepiped'
_diffrn_ambient_temperature 250
#These two values have been output from a single CSD field.
_refine_ls_R_factor_gt 0.056
_refine_ls_wR_factor_gt 0.056
_symmetry_cell_setting monoclinic
_symmetry_space_group_name_H-M 'P 21/n'
_symmetry_Int_Tables_number 14
loop_
_symmetry_equiv_pos_site_id
_symmetry_equiv_pos_as_xyz
1 x,y,z
2 1/2-x,1/2+y,1/2-z
3 -x,-y,-z
4 -1/2+x,-1/2-y,-1/2+z
_cell_length_a 11.2235(19)
_cell_length_b 7.0509(4)
_cell_length_c 22.370(3)
_cell_angle_alpha 90
_cell_angle_beta 91.015(12)
_cell_angle_gamma 90
_cell_formula_units_Z 4
loop_
_atom_type_symbol
_atom_type_radius_bond
C 0.68
H 0.23
N 0.68
O 0.68
loop_
_atom_site_label
_atom_site_type_symbol
_atom_site_fract_x
_atom_site_fract_y
_atom_site_fract_z
O1 O 0.80121(12) 0.98502(16) 0.06387(6)
O2 O 0.72879(12) 1.25178(18) 0.02019(6)
O3 O 0.46340(15) 0.4111(2) -0.11977(8)
O4 O 0.4129(2) 0.6507(3) -0.17339(10)
N1 N 0.46585(16) 0.5804(3) -0.13085(9)
C1 C 0.86899(17) 1.0884(2) 0.10719(9)
C2 C 0.96832(17) 1.2175(2) 0.09053(9)
H1 H 1.01800 1.18790 0.05620
C3 C 0.96097(18) 1.4193(2) 0.11376(9)
H2 H 0.88280 1.45530 0.12900
C4 C 1.02970(19) 1.5805(3) 0.08539(10)
H3 H 0.97600 1.65200 0.05950
H4 H 1.09170 1.52760 0.06070
C5 C 1.0872(2) 1.7168(3) 0.13154(11)
H5 H 1.10160 1.83750 0.11220
H6 H 1.03090 1.73880 0.16320
C6 C 1.2042(2) 1.6466(3) 0.15953(11)
H7 H 1.23590 1.74650 0.18500
H8 H 1.26040 1.62740 0.12770
C7 C 1.19889(19) 1.4635(3) 0.19654(10)
H9 H 1.14380 1.48200 0.22890
H10 H 1.27700 1.43980 0.21420
C8 C 1.15986(17) 1.2870(2) 0.16046(9)
H11 H 1.19780 1.29020 0.12180
H12 H 1.18790 1.17440 0.18130
C9 C 1.02627(16) 1.2717(2) 0.15070(8)
C10 C 0.95248(17) 1.1707(3) 0.19900(9)
H13 H 1.00220 1.08420 0.22210
H14 H 0.91800 1.26260 0.22600
C11 C 0.85519(16) 1.0629(2) 0.16530(9)
C12 C 0.76348(18) 0.9440(3) 0.19599(10)
H15 H 0.71560 0.87880 0.16650
H16 H 0.71350 1.02430 0.21950
H17 H 0.80270 0.85320 0.22150
C13 C 0.73482(16) 1.0807(3) 0.02290(8)
C14 C 0.66846(15) 0.9457(2) -0.01759(8)
C15 C 0.66674(15) 0.7504(2) -0.00674(8)
H18 H 0.71040 0.70040 0.02530
C16 C 0.59977(16) 0.6303(2) -0.04377(9)
H19 H 0.59740 0.50040 -0.03660
C17 C 0.53701(16) 0.7092(2) -0.09136(9)
C18 C 0.53795(17) 0.9018(3) -0.10370(9)
H20 H 0.49550 0.95060 -0.13630
C19 C 0.60387(17) 1.0202(3) -0.06615(9)
H21 H 0.60510 1.15010 -0.07340
#END
