
#######################################################################
#
#                 Cambridge Crystallographic Data Centre
#                                CCDC
#
#######################################################################
#
# If this CIF has been generated from an entry in the Cambridge
# Structural Database, then it will include bibliographic, chemical,
# crystal, experimental, refinement or atomic coordinate data resulting
# from the CCDC's data processing and validation procedures.
#
#######################################################################

data_CSD_CIF_PUBLUT01
_audit_creation_date 2008-01-10
_audit_creation_method CSD-ConQuest-V1
_database_code_CSD PUBLUT01
_database_code_depnum_ccdc_archive 'CCDC 657005'
_chemical_formula_sum 'C14 H18 N8 O8'
_chemical_formula_moiety
;
C14 H18 N8 O8
;
_journal_coden_Cambridge 1289
_journal_volume 12
_journal_year 2004
_journal_page_first 291
_journal_name_full 'Hanneng Cailiao(Chin.)(Energet.Mater.) '
loop_
_publ_author_name
"Tao Fang"
"Cheng-hui Sun"
"Xin-qi Zhao"
_chemical_name_systematic
;
4,10-Dinitro-2,6,8,12-tetrakis(acetyl)-2,4,6,8,10,12-hexa-aza-isowurtzitane
;
_chemical_name_common
;
4,10-Dinitro-2,6,8,12-tetrakis(acetyl)-2,4,6,8,10,12-hexa-aza-tetracyclo(5.5.0
.0$3,11!.0$5,9!)dodecane
;
_cell_volume   1739.517
_exptl_crystal_density_diffrn 1.628
_diffrn_ambient_temperature ?
_diffrn_special_details
;
The study was carried out at room temperature,in the range 283-303K

;
#These two values have been output from a single CSD field.
_refine_ls_R_factor_gt 0.0464
_refine_ls_wR_factor_gt 0.0464
_symmetry_cell_setting monoclinic
_symmetry_space_group_name_H-M 'P 21/n'
_symmetry_Int_Tables_number 14
loop_
_symmetry_equiv_pos_site_id
_symmetry_equiv_pos_as_xyz
1 x,y,z
2 1/2-x,1/2+y,1/2-z
3 -x,-y,-z
4 -1/2+x,-1/2-y,-1/2+z
_cell_length_a 11.2231(8)
_cell_length_b 14.1083(10)
_cell_length_c 11.2331(8)
_cell_angle_alpha 90
_cell_angle_beta 102.039(2)
_cell_angle_gamma 90
_cell_formula_units_Z 4
loop_
_atom_type_symbol
_atom_type_radius_bond
C 0.68
N 0.68
O 0.68
loop_
_atom_site_label
_atom_site_type_symbol
_atom_site_fract_x
_atom_site_fract_y
_atom_site_fract_z
O1 O 0.9126(2) -0.2980(1) 0.5267(1)
O2 O 0.8061(2) -0.3679(1) 0.3679(1)
O3 O 0.7115(2) -0.0416(1) 0.4514(2)
O4 O 0.6003(1) -0.0857(1) 0.2777(2)
O5 O 0.8294(1) -0.0178(1) -0.0564(1)
O6 O 0.8648(1) 0.1006(1) 0.3609(1)
O7 O 1.1081(2) -0.2522(1) 0.0359(2)
O8 O 1.2431(1) -0.2397(1) 0.4427(1)
N1 N 0.9432(1) -0.2602(1) 0.3419(1)
N2 N 0.7988(1) -0.1210(1) 0.3215(1)
N3 N 0.8396(1) -0.0965(1) 0.1192(1)
N4 N 0.9747(1) -0.0209(1) 0.3151(1)
N5 N 0.9650(1) -0.2230(1) 0.1426(1)
N6 N 1.0998(1) -0.1459(1) 0.3341(1)
N7 N 0.8815(2) -0.3108(1) 0.4173(2)
N8 N 0.6968(2) -0.0783(1) 0.3511(2)
C1 C 1.0073(2) -0.1753(1) 0.3983(2)
C2 C 0.8777(2) -0.2481(1) 0.2146(2)
C3 C 0.7901(2) -0.1598(1) 0.1996(2)
C4 C 0.9191(2) -0.0884(1) 0.3847(2)
C5 C 0.9677(2) -0.1206(1) 0.1294(2)
C6 C 1.0496(2) -0.0733(1) 0.2464(2)
C7 C 0.7753(2) -0.0546(1) 0.0144(2)
C8 C 0.9388(2) 0.0718(1) 0.3038(2)
C9 C 1.0356(2) -0.2829(1) 0.0924(2)
C10 C 1.2166(2) -0.1790(1) 0.3643(2)
C11 C 0.6407(2) -0.0545(2) -0.0079(2)
C12 C 0.9953(2) 0.1341(2) 0.2234(2)
C13 C 1.0185(3) -0.3865(2) 0.1153(2)
C14 C 1.3064(2) -0.1382(2) 0.2966(2)
#END
