
#######################################################################
#
#                 Cambridge Crystallographic Data Centre
#                                CCDC
#
#######################################################################
#
# If this CIF has been generated from an entry in the Cambridge
# Structural Database, then it will include bibliographic, chemical,
# crystal, experimental, refinement or atomic coordinate data resulting
# from the CCDC's data processing and validation procedures.
#
#######################################################################

data_CSD_CIF_PUBMUU08
_audit_creation_date 2004-10-11
_audit_creation_method CSD-ConQuest-V1
_database_code_CSD PUBMUU08
_database_code_depnum_ccdc_archive 'CCDC 251402'
_chemical_formula_sum 'C6 H6 N12 O12'
_chemical_formula_moiety
;
C6 H6 N12 O12
;
_journal_coeditor_code "IUCr DO5007"
_journal_coden_Cambridge 228
_journal_volume 37
_journal_year 2004
_journal_page_first 808
_journal_name_full 'J.Appl.Crystallogr. '
loop_
_publ_author_name
"N.B.Bolotina"
"M.J.Hardie"
"R.L.Speer Junior"
"A.Alan Pinkerton"
_chemical_name_systematic
;
2,4,6,8,10,12-Hexanitro-2,4,6,8,10,12-hexa-azatetracyclo(5.5.0.0^5,9^.0^3,11^)
dodecane
;
_chemical_name_common
;
Hexanitrohexa-azaisowurtzitane; HNIW; CL-20
;
_cell_volume   1494.782
_exptl_crystal_density_diffrn 1.947
_exptl_special_details
;
monoclinic gamma polymorph

;
_exptl_crystal_description 'block'
_diffrn_ambient_temperature 150.0
#These two values have been output from a single CSD field.
_refine_ls_R_factor_gt 0.0351
_refine_ls_wR_factor_gt 0.0351
_symmetry_cell_setting monoclinic
_symmetry_space_group_name_H-M 'P 21/n'
_symmetry_Int_Tables_number 14
loop_
_symmetry_equiv_pos_site_id
_symmetry_equiv_pos_as_xyz
1 x,y,z
2 1/2-x,1/2+y,1/2-z
3 -x,-y,-z
4 -1/2+x,-1/2-y,-1/2+z
_cell_length_a 13.0698(4)
_cell_length_b 8.1737(3)
_cell_length_c 14.7718(5)
_cell_angle_alpha 90
_cell_angle_beta 108.696(1)
_cell_angle_gamma 90
_cell_formula_units_Z 4
loop_
_atom_type_symbol
_atom_type_radius_bond
C 0.68
H 0.23
N 0.68
O 0.68
loop_
_atom_site_label
_atom_site_type_symbol
_atom_site_fract_x
_atom_site_fract_y
_atom_site_fract_z
C1 C 1.10726(11) 0.5103(2) 0.32378(9)
C2 C 0.93615(11) 0.59724(15) 0.32746(9)
C3 C 1.00915(11) 0.75182(15) 0.33048(9)
C4 C 1.08430(11) 0.49759(15) 0.21156(9)
C5 C 0.90041(11) 0.57671(15) 0.15361(9)
C6 C 0.97084(11) 0.73366(15) 0.15673(9)
N1 N 1.01165(9) 0.45888(13) 0.34637(7)
N2 N 1.02649(10) 0.36479(13) 0.42896(8)
N3 N 1.11873(9) 0.68410(13) 0.34911(7)
N4 N 1.19613(9) 0.72646(15) 0.43823(8)
N5 N 0.97397(9) 0.83042(12) 0.23902(7)
N6 N 0.97140(11) 1.00083(14) 0.23260(9)
N7 N 0.85770(9) 0.58446(13) 0.23261(7)
N8 N 0.77116(10) 0.4758(2) 0.22663(9)
N9 N 0.97559(9) 0.43555(13) 0.16437(7)
N10 N 0.96409(10) 0.35832(13) 0.07394(7)
N11 N 1.07511(9) 0.65711(13) 0.16477(7)
N12 N 1.16552(10) 0.75212(14) 0.17898(8)
O1 O 1.11291(9) 0.29777(13) 0.46367(7)
O2 O 0.94769(9) 0.35343(12) 0.45644(7)
O3 O 1.18930(9) 0.86484(13) 0.46548(7)
O4 O 1.26482(9) 0.62540(14) 0.47553(7)
O5 O 0.99010(13) 1.07447(13) 0.30782(8)
O6 O 0.94683(10) 1.05842(12) 0.15298(7)
O7 O 0.75003(10) 0.4560(2) 0.30015(8)
O8 O 0.72381(10) 0.41806(15) 0.14881(8)
O9 O 0.87237(9) 0.34196(12) 0.02101(7)
O10 O 1.04614(9) 0.31042(13) 0.06036(7)
O11 O 1.25286(8) 0.68271(14) 0.20910(8)
O12 O 1.15046(9) 0.89649(12) 0.15786(8)
H1 H 1.1714(13) 0.4487(18) 0.3565(11)
H2 H 0.8981(13) 0.6033(18) 0.3717(11)
H3 H 1.0101(13) 0.8252(18) 0.3785(11)
H4 H 1.1383(13) 0.4288(18) 0.1998(10)
H5 H 0.8442(13) 0.5661(17) 0.0961(11)
H6 H 0.9455(12) 0.7951(18) 0.1022(11)
#END
