
#######################################################################
#
#                 Cambridge Crystallographic Data Centre
#                                CCDC
#
#######################################################################
#
# If this CIF has been generated from an entry in the Cambridge
# Structural Database, then it will include bibliographic, chemical,
# crystal, experimental, refinement or atomic coordinate data resulting
# from the CCDC's data processing and validation procedures.
#
#######################################################################

data_CSD_CIF_PUBMUU14
_audit_creation_date 2004-10-11
_audit_creation_method CSD-ConQuest-V1
_database_code_CSD PUBMUU14
_database_code_depnum_ccdc_archive 'CCDC 251408'
_chemical_formula_sum 'C6 H6 N12 O12'
_chemical_formula_moiety
;
C6 H6 N12 O12
;
_journal_coeditor_code "IUCr DO5007"
_journal_coden_Cambridge 228
_journal_volume 37
_journal_year 2004
_journal_page_first 808
_journal_name_full 'J.Appl.Crystallogr. '
loop_
_publ_author_name
"N.B.Bolotina"
"M.J.Hardie"
"R.L.Speer Junior"
"A.Alan Pinkerton"
_chemical_name_systematic
;
2,4,6,8,10,12-Hexanitro-2,4,6,8,10,12-hexa-azatetracyclo(5.5.0.0^5,9^.0^3,11^)
dodecane
;
_chemical_name_common
;
Hexanitrohexa-azaisowurtzitane; HNIW; CL-20
;
_cell_volume   1412.005
_exptl_crystal_colour 'colorless'
_exptl_crystal_density_diffrn 2.061
_exptl_special_details
;
monoclinic epsilon polymorph

;
_exptl_crystal_description 'block'
_diffrn_ambient_temperature 200.0
#These two values have been output from a single CSD field.
_refine_ls_R_factor_gt 0.0448
_refine_ls_wR_factor_gt 0.0448
_symmetry_cell_setting monoclinic
_symmetry_space_group_name_H-M 'P 21/n'
_symmetry_Int_Tables_number 14
loop_
_symmetry_equiv_pos_site_id
_symmetry_equiv_pos_as_xyz
1 x,y,z
2 1/2-x,1/2+y,1/2-z
3 -x,-y,-z
4 -1/2+x,-1/2-y,-1/2+z
_cell_length_a 8.8212(10)
_cell_length_b 12.5368(14)
_cell_length_c 13.3330(15)
_cell_angle_alpha 90
_cell_angle_beta 106.740(2)
_cell_angle_gamma 90
_cell_formula_units_Z 4
loop_
_atom_type_symbol
_atom_type_radius_bond
C 0.68
H 0.23
N 0.68
O 0.68
loop_
_atom_site_label
_atom_site_type_symbol
_atom_site_fract_x
_atom_site_fract_y
_atom_site_fract_z
C1 C 0.4318(2) -0.23488(16) 0.21342(15)
H1 H 0.385(2) -0.2953(17) 0.1843(16)
C2 C 0.6595(2) -0.11861(15) 0.22155(15)
H2 H 0.752(3) -0.1157(14) 0.1953(15)
C3 C 0.5861(2) -0.06165(15) 0.37452(15)
H3 H 0.627(3) -0.0362(16) 0.4427(17)
C4 C 0.5464(2) -0.01934(15) 0.19260(15)
H4 H 0.581(2) 0.0306(16) 0.1512(15)
C5 C 0.3170(2) -0.13641(16) 0.18327(15)
H5 H 0.218(3) -0.1539(15) 0.1347(15)
C6 C 0.4379(2) -0.13712(15) 0.36653(15)
H6 H 0.419(2) -0.1406(15) 0.4273(15)
N1 N 0.6470(2) -0.29860(14) 0.14643(13)
N2 N 0.56852(19) -0.21268(12) 0.17872(12)
N3 N 0.7870(2) -0.19838(13) 0.39572(13)
N4 N 0.70748(19) -0.11347(12) 0.33729(12)
N5 N 0.4512(2) 0.10388(12) 0.30481(13)
N6 N 0.55232(19) 0.02268(12) 0.29673(12)
N7 N 0.3129(2) -0.01225(14) 0.03851(12)
N8 N 0.38965(19) -0.05413(13) 0.13632(12)
N9 N 0.1509(2) -0.10619(13) 0.30209(14)
N10 N 0.30230(19) -0.09672(13) 0.28369(12)
N11 N 0.4183(2) -0.33170(13) 0.37268(14)
N12 N 0.4729(2) -0.24091(12) 0.32864(12)
O1 O 0.5897(2) -0.38654(12) 0.14692(14)
O2 O 0.76165(19) -0.27533(12) 0.11781(12)
O3 O 0.84835(18) -0.26200(12) 0.35037(12)
O4 O 0.78985(19) -0.20028(12) 0.48761(11)
O5 O 0.42199(18) 0.11248(11) 0.38889(11)
O6 O 0.40408(17) 0.16102(11) 0.22832(11)
O7 O 0.1908(2) -0.05507(13) -0.00986(12)
O8 O 0.37611(18) 0.06385(11) 0.00934(11)
O9 O 0.03782(17) -0.11619(11) 0.22545(12)
O10 O 0.1514(2) -0.09648(13) 0.39299(13)
O11 O 0.4016(2) -0.32000(11) 0.45896(12)
O12 O 0.40199(18) -0.41308(11) 0.32130(11)
#END
