
#######################################################################
#
#                 Cambridge Crystallographic Data Centre
#                                CCDC
#
#######################################################################
#
# If this CIF has been generated from an entry in the Cambridge
# Structural Database, then it will include bibliographic, chemical,
# crystal, experimental, refinement or atomic coordinate data resulting
# from the CCDC's data processing and validation procedures.
#
#######################################################################

data_CSD_CIF_PUBMUU03
_audit_creation_date 1999-12-16
_audit_creation_method CSD-ConQuest-V1
_database_code_CSD PUBMUU03
_database_code_depnum_ccdc_archive 'CCDC 124948'
_chemical_formula_sum 'C6 H6 N12 O12'
_chemical_formula_moiety
;
C6 H6 N12 O12
;
_journal_coden_Cambridge 1078
_journal_year 1999
_journal_name_full 'CSD Communication(Private Communication) '
loop_
_publ_author_name
"G.Jacob"
"L.Toupet"
"L.Ricard"
"G.Cagnon"
_chemical_name_systematic
;
2,6,8,12-endo,endo,endo,exo-2,4,6,8,10,12-Hexanitro-2,4,6,8,10,12-hexa-azatetr
acyclo(5.5.0.0^3,11^.0^5,9^)dodecane
;
_cell_volume   1465.742
_exptl_crystal_colour 'white'
_exptl_crystal_density_diffrn 1.986
_exptl_special_details
;
orthorhombic beta polymorph
contribution from Universite de Rennes, France

;
_exptl_crystal_description 'prism'
_diffrn_ambient_temperature ?
_diffrn_special_details
;
The study was carried out at room temperature,in the range 283-303K

;
#These two values have been output from a single CSD field.
_refine_ls_R_factor_gt 0.0296
_refine_ls_wR_factor_gt 0.0296
_symmetry_cell_setting orthorhombic
_symmetry_space_group_name_H-M 'P c a 21'
_symmetry_Int_Tables_number 29
loop_
_symmetry_equiv_pos_site_id
_symmetry_equiv_pos_as_xyz
1 x,y,z
2 -x,-y,1/2+z
3 1/2+x,-y,z
4 1/2-x,y,1/2+z
_cell_length_a 9.693(2)
_cell_length_b 11.641(2)
_cell_length_c 12.990(3)
_cell_angle_alpha 90
_cell_angle_beta 90
_cell_angle_gamma 90
_cell_formula_units_Z 4
loop_
_atom_type_symbol
_atom_type_radius_bond
C 0.68
H 0.23
N 0.68
O 0.68
loop_
_atom_site_label
_atom_site_type_symbol
_atom_site_fract_x
_atom_site_fract_y
_atom_site_fract_z
O1 O -0.0409(5) 0.4394(4) 0.4089(4)
O2 O 0.0902(4) 0.5183(3) 0.2921(3)
O3 O -0.3976(4) 0.2465(3) 0.2377(4)
O4 O -0.3572(5) 0.2463(4) 0.0726(4)
O5 O -0.1203(6) 0.1321(5) -0.0597(4)
O6 O 0.0551(5) 0.0244(4) -0.0191(4)
O7 O -0.1924(3) 0.0173(3) 0.2964(3)
O8 O -0.0860(4) -0.0480(3) 0.1605(3)
O9 O 0.3652(3) 0.3812(3) 0.1546(4)
O10 O 0.2211(4) 0.4989(3) 0.0847(3)
O11 O 0.3320(4) 0.2492(4) 0.3772(3)
O12 O 0.1662(4) 0.1912(4) 0.4761(3)
N1 N -0.0648(4) 0.3867(3) 0.2456(3)
N2 N -0.1794(4) 0.2364(3) 0.1814(3)
N3 N 0.0079(4) 0.1782(4) 0.0769(3)
N4 N 0.0067(4) 0.0942(3) 0.2491(3)
N5 N 0.1451(3) 0.3348(3) 0.1526(4)
N6 N 0.1193(4) 0.2436(3) 0.3148(3)
N7 N -0.0001(5) 0.4524(4) 0.3215(4)
N8 N -0.3241(5) 0.2467(4) 0.1620(6)
N9 N -0.0241(6) 0.1053(5) -0.0072(4)
N10 N -0.0982(4) 0.0163(3) 0.2338(4)
N11 N 0.2504(5) 0.4120(3) 0.1300(4)
N12 N 0.2146(5) 0.2231(4) 0.3952(4)
C1 C 0.0033(5) 0.3715(4) 0.1455(4)
C2 C -0.0839(5) 0.2709(5) 0.0993(4)
C3 C -0.1264(5) 0.2783(4) 0.2776(4)
C4 C -0.0155(5) 0.1904(4) 0.3208(4)
C5 C 0.1732(5) 0.2325(4) 0.2093(4)
C6 C 0.0885(5) 0.1327(4) 0.1592(4)
H1 H 0.002(5) 0.433(5) 0.104(4)
H2 H -0.136(5) 0.295(5) 0.031(4)
H3 H -0.201(5) 0.290(4) 0.327(4)
H4 H -0.037(5) 0.164(4) 0.389(4)
H5 H 0.255(6) 0.219(4) 0.211(4)
H6 H 0.142(5) 0.067(4) 0.139(5)
#END
