
#######################################################################
#
#                 Cambridge Crystallographic Data Centre
#                                CCDC
#
#######################################################################
#
# If this CIF has been generated from an entry in the Cambridge
# Structural Database, then it will include bibliographic, chemical,
# crystal, experimental, refinement or atomic coordinate data resulting
# from the CCDC's data processing and validation procedures.
#
#######################################################################

data_CSD_CIF_PUBMUU15
_audit_creation_date 2004-10-11
_audit_creation_method CSD-ConQuest-V1
_database_code_CSD PUBMUU15
_database_code_depnum_ccdc_archive 'CCDC 251409'
_chemical_formula_sum 'C6 H6 N12 O12'
_chemical_formula_moiety
;
C6 H6 N12 O12
;
_journal_coeditor_code "IUCr DO5007"
_journal_coden_Cambridge 228
_journal_volume 37
_journal_year 2004
_journal_page_first 808
_journal_name_full 'J.Appl.Crystallogr. '
loop_
_publ_author_name
"N.B.Bolotina"
"M.J.Hardie"
"R.L.Speer Junior"
"A.Alan Pinkerton"
_chemical_name_systematic
;
2,4,6,8,10,12-Hexanitro-2,4,6,8,10,12-hexa-azatetracyclo(5.5.0.0^5,9^.0^3,11^)
dodecane
;
_chemical_name_common
;
Hexanitrohexa-azaisowurtzitane; HNIW; CL-20
;
_cell_volume   1420.038
_exptl_crystal_colour 'colorless'
_exptl_crystal_density_diffrn 2.05
_exptl_special_details
;
monoclinic epsilon polymorph

;
_exptl_crystal_description 'block'
_diffrn_ambient_temperature 250.0
#These two values have been output from a single CSD field.
_refine_ls_R_factor_gt 0.0535
_refine_ls_wR_factor_gt 0.0535
_symmetry_cell_setting monoclinic
_symmetry_space_group_name_H-M 'P 21/n'
_symmetry_Int_Tables_number 14
loop_
_symmetry_equiv_pos_site_id
_symmetry_equiv_pos_as_xyz
1 x,y,z
2 1/2-x,1/2+y,1/2-z
3 -x,-y,-z
4 -1/2+x,-1/2-y,-1/2+z
_cell_length_a 8.8408(9)
_cell_length_b 12.5622(12)
_cell_length_c 13.3577(13)
_cell_angle_alpha 90
_cell_angle_beta 106.820(2)
_cell_angle_gamma 90
_cell_formula_units_Z 4
loop_
_atom_type_symbol
_atom_type_radius_bond
C 0.68
H 0.23
N 0.68
O 0.68
loop_
_atom_site_label
_atom_site_type_symbol
_atom_site_fract_x
_atom_site_fract_y
_atom_site_fract_z
C1 C 0.4318(3) -0.23479(17) 0.21376(16)
H1 H 0.387(3) -0.2951(18) 0.1852(16)
C2 C 0.6590(3) -0.11850(17) 0.22197(16)
H2 H 0.747(3) -0.1165(16) 0.1952(17)
C3 C 0.5857(3) -0.06175(17) 0.37419(17)
H3 H 0.628(3) -0.0340(17) 0.4418(18)
C4 C 0.5462(3) -0.01940(17) 0.19285(16)
H4 H 0.579(2) 0.0313(15) 0.1532(15)
C5 C 0.3173(3) -0.13629(17) 0.18320(17)
H5 H 0.219(3) -0.1546(16) 0.1381(16)
C6 C 0.4380(3) -0.13684(16) 0.36628(17)
H6 H 0.414(2) -0.1421(16) 0.4273(16)
N1 N 0.6466(2) -0.29818(15) 0.14683(15)
N2 N 0.5682(2) -0.21250(14) 0.17918(13)
N3 N 0.7865(2) -0.19793(15) 0.39555(14)
N4 N 0.7066(2) -0.11341(13) 0.33711(13)
N5 N 0.4517(2) 0.10351(13) 0.30484(15)
N6 N 0.5518(2) 0.02239(13) 0.29651(13)
N7 N 0.3134(2) -0.01223(15) 0.03873(14)
N8 N 0.3895(2) -0.05428(14) 0.13648(13)
N9 N 0.1512(2) -0.10572(15) 0.30174(16)
N10 N 0.3028(2) -0.09683(14) 0.28387(13)
N11 N 0.4181(2) -0.33109(14) 0.37247(15)
N12 N 0.4726(2) -0.24073(12) 0.32868(13)
O1 O 0.5896(2) -0.38588(13) 0.14767(16)
O2 O 0.7608(2) -0.27506(14) 0.11842(13)
O3 O 0.8486(2) -0.26118(13) 0.35111(13)
O4 O 0.7893(2) -0.19960(14) 0.48719(12)
O5 O 0.4228(2) 0.11217(12) 0.38878(12)
O6 O 0.4048(2) 0.16068(12) 0.22868(12)
O7 O 0.1910(2) -0.05510(15) -0.00904(13)
O8 O 0.3756(2) 0.06320(13) 0.00969(12)
O9 O 0.0387(2) -0.11577(13) 0.22548(14)
O10 O 0.1516(2) -0.09596(15) 0.39247(14)
O11 O 0.4016(2) -0.31922(13) 0.45840(13)
O12 O 0.4018(2) -0.41231(12) 0.32130(13)
#END
