
#######################################################################
#
#                 Cambridge Crystallographic Data Centre
#                                CCDC
#
#######################################################################
#
# If this CIF has been generated from an entry in the Cambridge
# Structural Database, then it will include bibliographic, chemical,
# crystal, experimental, refinement or atomic coordinate data resulting
# from the CCDC's data processing and validation procedures.
#
#######################################################################

data_CSD_CIF_PUBMUU05
_audit_creation_date 1999-12-16
_audit_creation_method CSD-ConQuest-V1
_database_code_CSD PUBMUU05
_database_code_depnum_ccdc_archive 'CCDC 124950'
_chemical_formula_sum 'C6 H6 N12 O12'
_chemical_formula_moiety
;
C6 H6 N12 O12
;
_journal_coden_Cambridge 1078
_journal_year 1999
_journal_name_full 'CSD Communication(Private Communication) '
loop_
_publ_author_name
"G.Jacob"
"L.Toupet"
"L.Ricard"
"G.Cagnon"
_chemical_name_systematic
;
2,6,8,12-endo,endo,endo,exo-2,4,6,8,10,12-Hexanitro-2,4,6,8,10,12-hexa-azatetr
acyclo(5.5.0.0^3,11^.0^5,9^)dodecane
;
_cell_volume   1432.021
_exptl_crystal_colour 'white'
_exptl_crystal_density_diffrn 2.033
_exptl_special_details
;
monoclinic epsilon polymorph
contribution from Universite de Rennes, France

;
_exptl_crystal_description 'prism'
_diffrn_ambient_temperature ?
_diffrn_special_details
;
The study was carried out at room temperature,in the range 283-303K

;
#These two values have been output from a single CSD field.
_refine_ls_R_factor_gt 0.0292
_refine_ls_wR_factor_gt 0.0292
_symmetry_cell_setting monoclinic
_symmetry_space_group_name_H-M 'P 21/n'
_symmetry_Int_Tables_number 14
loop_
_symmetry_equiv_pos_site_id
_symmetry_equiv_pos_as_xyz
1 x,y,z
2 1/2-x,1/2+y,1/2-z
3 -x,-y,-z
4 -1/2+x,-1/2-y,-1/2+z
_cell_length_a 8.8596(10)
_cell_length_b 12.581(1)
_cell_length_c 13.426(3)
_cell_angle_alpha 90
_cell_angle_beta 106.88(2)
_cell_angle_gamma 90
_cell_formula_units_Z 4
loop_
_atom_type_symbol
_atom_type_radius_bond
C 0.68
H 0.23
N 0.68
O 0.68
loop_
_atom_site_label
_atom_site_type_symbol
_atom_site_fract_x
_atom_site_fract_y
_atom_site_fract_z
O1 O 0.42350(17) 0.61164(11) 0.38822(11)
O2 O 0.40562(16) 0.65976(11) 0.22888(11)
O3 O 0.78875(19) 0.30086(13) 0.48719(11)
O4 O 0.84879(18) 0.23971(12) 0.35130(12)
O5 O 0.75967(18) 0.22506(12) 0.11942(12)
O6 O 0.5892(2) 0.11504(12) 0.14869(16)
O7 O 0.40209(17) 0.08869(11) 0.32130(12)
O8 O 0.4013(2) 0.18108(12) 0.45790(12)
O9 O 0.1912(2) 0.44486(14) -0.00810(12)
O10 O 0.37552(17) 0.56211(12) 0.01009(11)
O11 O 0.1521(2) 0.40414(15) 0.39132(14)
O12 O 0.03990(16) 0.38453(12) 0.22503(13)
N1 N 0.55137(17) 0.52160(11) 0.29639(11)
N2 N 0.70597(17) 0.38623(12) 0.33724(11)
N3 N 0.56771(17) 0.28754(12) 0.17963(11)
N4 N 0.47206(18) 0.25968(11) 0.32830(11)
N5 N 0.38962(17) 0.44505(12) 0.13685(11)
N6 N 0.30320(17) 0.40269(12) 0.28330(11)
N7 N 0.45242(17) 0.60264(12) 0.30474(12)
N8 N 0.78607(18) 0.30239(13) 0.39555(12)
N9 N 0.6465(2) 0.20224(13) 0.14763(13)
N10 N 0.41791(18) 0.16950(12) 0.37202(13)
N11 N 0.31265(19) 0.48711(13) 0.03923(12)
N12 N 0.15217(19) 0.39416(13) 0.30119(14)
C1 C 0.5455(2) 0.48001(15) 0.19302(14)
C2 C 0.6584(2) 0.38096(14) 0.22209(14)
C3 C 0.5853(2) 0.43768(14) 0.37400(14)
C4 C 0.4375(2) 0.36305(14) 0.36574(14)
C5 C 0.3177(2) 0.36354(14) 0.18331(14)
C6 C 0.4316(2) 0.26530(15) 0.21367(14)
H1 H 0.579(3) 0.529(2) 0.1523(19)
H2 H 0.748(3) 0.3848(18) 0.1940(18)
H3 H 0.629(3) 0.4642(19) 0.443(2)
H4 H 0.408(3) 0.3586(19) 0.4255(19)
H5 H 0.216(3) 0.3456(19) 0.1349(18)
H6 H 0.389(3) 0.202(2) 0.1834(19)
#END
