
#######################################################################
#
#                 Cambridge Crystallographic Data Centre
#                                CCDC
#
#######################################################################
#
# If this CIF has been generated from an entry in the Cambridge
# Structural Database, then it will include bibliographic, chemical,
# crystal, experimental, refinement or atomic coordinate data resulting
# from the CCDC's data processing and validation procedures.
#
#######################################################################

data_CSD_CIF_PUBMUU25
_audit_creation_date 2016-10-28
_audit_creation_method CSD-ConQuest-V1
_database_code_CSD PUBMUU25
_database_code_depnum_ccdc_archive 'CCDC 1423826'
_chemical_formula_sum 'C6 H6 N12 O12'
_chemical_formula_moiety
;
C6 H6 N12 O12
;
_journal_coden_Cambridge 1870
_journal_volume 2
_journal_year 2016
_journal_page_first e1600192
_journal_name_full 'Sci. Adv. '
loop_
_publ_author_name
"M.Woinska"
"S.Grabowsky"
"P.M.Dominiak"
"K.Wozniak"
"D.Jayatilaka"
_chemical_name_systematic
;
2,4,6,8,10,12-hexanitro-2,4,6,8,10,12-hexaazatetracyclo[5.5.0.0^3,11^.0^5,9^]d
odecane
;
_chemical_name_common
;
2,4,6,8,10,12-hexanitro-2,4,6,8,10,12-hexaazaisowurtzitane; CL-20; HNIW
;
_cell_volume   1395.314
_exptl_crystal_description 'rectangular'
_diffrn_ambient_temperature 100
_diffrn_radiation_probe x-ray
_diffrn_source synchrotron
_refine_special_details
;
Hirshfeld atom refinement (HAR)

;
#These two values have been output from a single CSD field.
_refine_ls_R_factor_gt 0.0245
_refine_ls_wR_factor_gt 0.0245
loop_
_citation_database_id_CSD
_citation_special_details
PUBMUU22 "is reinterpreted by this entry"
_symmetry_cell_setting monoclinic
_symmetry_space_group_name_H-M 'P 21/n'
_symmetry_Int_Tables_number 14
loop_
_symmetry_equiv_pos_site_id
_symmetry_equiv_pos_as_xyz
1 x,y,z
2 1/2-x,1/2+y,1/2-z
3 -x,-y,-z
4 -1/2+x,-1/2-y,-1/2+z
_cell_length_a 8.789(1)
_cell_length_b 12.474(1)
_cell_length_c 13.279(1)
_cell_angle_alpha 90
_cell_angle_beta 106.578(1)
_cell_angle_gamma 90
_cell_formula_units_Z 4
loop_
_atom_type_symbol
_atom_type_radius_bond
C 0.68
H 0.23
N 0.68
O 0.68
loop_
_atom_site_label
_atom_site_type_symbol
_atom_site_fract_x
_atom_site_fract_y
_atom_site_fract_z
O1 O -0.08998(3) 0.61207(1) 0.35501(2)
O2 O -0.26329(2) 0.72386(1) 0.38324(1)
O3 O -0.34830(2) 0.73631(1) 0.15065(1)
O4 O -0.28990(2) 0.79817(2) 0.01251(1)
O5 O 0.07970(2) 1.11265(1) 0.11116(1)
O6 O 0.09787(2) 1.16070(1) 0.27210(1)
O7 O 0.30854(2) 0.94550(2) 0.51109(1)
O8 O 0.12334(2) 1.06499(1) 0.49087(1)
O9 O 0.46315(2) 0.88250(2) 0.27402(2)
O10 O 0.35066(2) 0.90219(2) 0.10645(2)
O11 O 0.09765(2) 0.67837(1) 0.04009(1)
O12 O 0.09719(2) 0.58527(1) 0.17835(1)
N1 N -0.14825(2) 0.70052(1) 0.35473(1)
N2 N -0.06954(2) 0.78648(1) 0.32181(1)
N3 N -0.28699(2) 0.80026(1) 0.10499(1)
N4 N -0.20821(2) 0.88563(1) 0.16285(1)
N5 N 0.04929(2) 1.10366(1) 0.19531(1)
N6 N -0.05240(2) 1.02310(1) 0.20332(1)
N7 N 0.18685(2) 0.98864(1) 0.46208(1)
N8 N 0.11034(2) 0.94580(1) 0.36422(1)
N9 N 0.35012(2) 0.89290(1) 0.19742(2)
N10 N 0.19820(2) 0.90261(1) 0.21597(1)
N11 N 0.08102(2) 0.66696(1) 0.12687(1)
N12 N 0.02731(2) 0.75813(1) 0.17132(1)
C1 C 0.06802(2) 0.76376(2) 0.28699(1)
C2 C -0.16052(2) 0.88080(2) 0.27894(1)
C3 C -0.08675(2) 0.93830(1) 0.12516(1)
C4 C -0.04682(2) 0.98131(2) 0.30787(1)
C5 C 0.18339(2) 0.86341(2) 0.31730(1)
C6 C 0.06223(2) 0.86243(1) 0.13294(1)
H1 H -0.1361(6) 0.9694(4) 0.0463(4)
H2 H 0.0886(6) 0.8570(4) 0.0581(4)
H3 H -0.2609(6) 0.8870(4) 0.3093(4)
H4 H -0.0866(6) 1.0399(4) 0.3530(4)
H5 H 0.2987(6) 0.8421(4) 0.3702(4)
H6 H 0.1237(6) 0.6900(4) 0.3220(4)
#END
