
#######################################################################
#
#                 Cambridge Crystallographic Data Centre
#                                CCDC
#
#######################################################################
#
# If this CIF has been generated from an entry in the Cambridge
# Structural Database, then it will include bibliographic, chemical,
# crystal, experimental, refinement or atomic coordinate data resulting
# from the CCDC's data processing and validation procedures.
#
#######################################################################

data_CSD_CIF_PUBMUU10
_audit_creation_date 2004-10-11
_audit_creation_method CSD-ConQuest-V1
_database_code_CSD PUBMUU10
_database_code_depnum_ccdc_archive 'CCDC 251404'
_chemical_formula_sum 'C6 H6 N12 O12'
_chemical_formula_moiety
;
C6 H6 N12 O12
;
_journal_coeditor_code "IUCr DO5007"
_journal_coden_Cambridge 228
_journal_volume 37
_journal_year 2004
_journal_page_first 808
_journal_name_full 'J.Appl.Crystallogr. '
loop_
_publ_author_name
"N.B.Bolotina"
"M.J.Hardie"
"R.L.Speer Junior"
"A.Alan Pinkerton"
_chemical_name_systematic
;
2,4,6,8,10,12-Hexanitro-2,4,6,8,10,12-hexa-azatetracyclo(5.5.0.0^5,9^.0^3,11^)
dodecane
;
_chemical_name_common
;
Hexanitrohexa-azaisowurtzitane; HNIW; CL-20
;
_cell_volume   1509.343
_exptl_crystal_density_diffrn 1.929
_exptl_special_details
;
monoclinic gamma polymorph

;
_exptl_crystal_description 'block'
_diffrn_ambient_temperature 250.0
#These two values have been output from a single CSD field.
_refine_ls_R_factor_gt 0.0387
_refine_ls_wR_factor_gt 0.0387
_symmetry_cell_setting monoclinic
_symmetry_space_group_name_H-M 'P 21/n'
_symmetry_Int_Tables_number 14
loop_
_symmetry_equiv_pos_site_id
_symmetry_equiv_pos_as_xyz
1 x,y,z
2 1/2-x,1/2+y,1/2-z
3 -x,-y,-z
4 -1/2+x,-1/2-y,-1/2+z
_cell_length_a 13.1670(3)
_cell_length_b 8.1676(1)
_cell_length_c 14.8436(1)
_cell_angle_alpha 90
_cell_angle_beta 109.001(1)
_cell_angle_gamma 90
_cell_formula_units_Z 4
loop_
_atom_type_symbol
_atom_type_radius_bond
C 0.68
H 0.23
N 0.68
O 0.68
loop_
_atom_site_label
_atom_site_type_symbol
_atom_site_fract_x
_atom_site_fract_y
_atom_site_fract_z
C1 C 1.10712(12) 0.5120(2) 0.32352(10)
C2 C 0.93654(12) 0.5942(2) 0.32656(10)
C3 C 1.00748(12) 0.7505(2) 0.32999(10)
C4 C 1.08408(12) 0.4996(2) 0.21162(10)
C5 C 0.90099(12) 0.5748(2) 0.15356(10)
C6 C 0.96961(12) 0.7335(2) 0.15709(10)
N1 N 1.01287(10) 0.45789(14) 0.34580(8)
N2 N 1.02870(13) 0.3641(2) 0.42844(9)
N3 N 1.11678(10) 0.68546(15) 0.34901(8)
N4 N 1.19387(11) 0.7288(2) 0.43789(9)
N5 N 0.97169(11) 0.82949(14) 0.23886(8)
N6 N 0.96819(13) 0.9995(2) 0.2326(1)
N7 N 0.85886(10) 0.58036(15) 0.23191(8)
N8 N 0.77392(12) 0.4701(2) 0.22545(11)
N9 N 0.97693(11) 0.43579(14) 0.16438(8)
N10 N 0.96593(12) 0.3580(2) 0.07439(9)
N11 N 1.07362(10) 0.65945(15) 0.16537(8)
N12 N 1.16289(11) 0.7559(2) 0.17898(9)
O1 O 1.11490(12) 0.2990(2) 0.46309(9)
O2 O 0.95137(11) 0.35137(15) 0.45605(8)
O3 O 1.18566(12) 0.8657(2) 0.46546(9)
O4 O 1.26315(11) 0.6294(2) 0.47468(9)
O5 O 0.9872(2) 1.0726(2) 0.3075(1)
O6 O 0.94194(14) 1.05779(14) 0.15356(9)
O7 O 0.75388(13) 0.4468(2) 0.29855(10)
O8 O 0.72656(13) 0.4137(2) 0.14787(10)
O9 O 0.87529(11) 0.34288(15) 0.02060(8)
O10 O 1.04726(11) 0.3087(2) 0.06240(9)
O11 O 1.24989(10) 0.6878(2) 0.20908(10)
O12 O 1.14703(12) 0.8992(2) 0.15747(10)
H1 H 1.1707(15) 0.452(2) 0.3554(12)
H2 H 0.9007(14) 0.5964(19) 0.3689(12)
H3 H 1.0077(14) 0.8239(19) 0.3789(12)
H4 H 1.1382(15) 0.433(2) 0.1986(12)
H5 H 0.8463(14) 0.5621(18) 0.0976(11)
H6 H 0.9414(13) 0.7959(19) 0.1018(12)
#END
