
#######################################################################
#
#                 Cambridge Crystallographic Data Centre
#                                CCDC
#
#######################################################################
#
# If this CIF has been generated from an entry in the Cambridge
# Structural Database, then it will include bibliographic, chemical,
# crystal, experimental, refinement or atomic coordinate data resulting
# from the CCDC's data processing and validation procedures.
#
#######################################################################

data_CSD_CIF_PUBMUU20
_audit_creation_date 2005-04-28
_audit_creation_method CSD-ConQuest-V1
_database_code_CSD PUBMUU20
_database_code_depnum_ccdc_archive 'CCDC 260029'
_chemical_formula_sum 'C6 H6 N12 O12'
_chemical_formula_moiety
;
C6 H6 N12 O12
;
_journal_coden_Cambridge 1354
_journal_volume 48
_journal_year 2004
_journal_page_first 41-1
_journal_name_full 'Ross.Khim.Zhurnal(Russ.)(Russ.Chem.J.) '
loop_
_publ_author_name
"N.I.Golovina"
"A.V.Raevsky"
"N.V.Chukanov"
"B.L.Korsunsky"
"L.O.Atovmyan"
"S.M.Aldoshin"
_chemical_name_systematic
;
2,4,6,8,10,12-Hexanitro-2,4,6,8,10,12-hexa-azatetracyclo(5.5.0.0^3,11^.0^5,9^)
dodecane
;
_chemical_name_common
;
Hexanitro-hexa-azaisowurtzitane
;
_cell_volume   1410.833
_exptl_crystal_density_diffrn 2.063
_exptl_special_details
;
monoclinic epsilon polymorph
at 383 deg.K a=8.861(3),b=12.608(8),c=13.333(8),beta=106.89(6)
;
_diffrn_ambient_temperature 295
#These two values have been output from a single CSD field.
_refine_ls_R_factor_gt 0.0535
_refine_ls_wR_factor_gt 0.0535
_symmetry_cell_setting monoclinic
_symmetry_space_group_name_H-M 'P 21'
_symmetry_Int_Tables_number 4
loop_
_symmetry_equiv_pos_site_id
_symmetry_equiv_pos_as_xyz
1 x,y,z
2 -x,1/2+y,-z
_cell_length_a 8.837(2)
_cell_length_b 12.554(3)
_cell_length_c 13.289(3)
_cell_angle_alpha 90
_cell_angle_beta 106.87(3)
_cell_angle_gamma 90
_cell_formula_units_Z 4
loop_
_atom_type_symbol
_atom_type_radius_bond
C 0.68
H 0.23
N 0.68
O 0.68
loop_
_atom_site_label
_atom_site_type_symbol
_atom_site_fract_x
_atom_site_fract_y
_atom_site_fract_z
O1 O 0.1563(7) 0.3025(5) 0.4811(5)
O2 O 0.1734(8) 0.2566(6) 0.6419(5)
O3 O 0.5395(7) -0.0558(6) 0.7369(5)
N1 N 0.4550(5) 0.0314(6) 0.5858(4)
C1 C 0.2966(8) 0.1257(8) 0.4435(7)
N2 N 0.2028(7) 0.2484(6) 0.5537(5)
O4 O 0.3395(8) -0.2407(6) 0.3963(6)
O5 O 0.5972(7) -0.1168(6) 0.6020(5)
O6 O 0.5118(6) -0.1296(6) 0.3686(5)
C2 C 0.1901(7) 0.0080(6) 0.6175(6)
C3 C 0.0701(7) 0.0106(7) 0.4314(6)
O7 O 0.1540(8) -0.2694(5) 0.5732(5)
N3 N 0.3020(7) 0.1677(6) 0.5478(5)
O8 O 0.1542(8) -0.1738(6) 0.7105(5)
N4 N 0.1685(8) -0.1870(6) 0.6217(6)
N5 N 0.2231(8) -0.0946(5) 0.5764(5)
O9 O -0.2085(6) 0.0298(6) 0.4764(5)
N6 N 0.1413(7) 0.0911(5) 0.3866(5)
C4 C 0.3353(8) 0.0838(6) 0.6227(6)
N7 N 0.3178(6) -0.0657(5) 0.4276(5)
N8 N -0.0987(8) 0.0394(7) 0.5499(7)
N9 N 0.0523(6) 0.0492(6) 0.5320(5)
C5 C 0.4070(8) 0.0246(7) 0.4702(6)
N10 N 0.4004(8) -0.1526(6) 0.3972(6)
N11 N 0.5338(7) -0.0541(6) 0.6450(5)
O10 O -0.0969(7) 0.0493(7) 0.6446(5)
O11 O 0.1243(7) 0.2069(5) 0.2578(5)
O12 O -0.0571(9) 0.0901(6) 0.2438(5)
N12 N 0.0639(9) 0.1347(6) 0.2869(5)
C6 C 0.1821(8) -0.0904(8) 0.4621(7)
H1 H 0.368(6) 0.112(4) 0.698(4)
H2 H 0.329(10) 0.181(9) 0.399(8)
H3 H 0.494(8) 0.010(6) 0.425(5)
H4 H 0.156(10) 0.001(8) 0.694(7)
H5 H -0.023(8) 0.002(6) 0.367(6)
H6 H 0.117(12) -0.178(9) 0.431(9)
O13 O 0.3744(8) 0.0810(7) 0.2380(5)
O14 O 0.5614(8) 0.1996(8) 0.2598(6)
N13 N 0.3630(7) 0.2000(6) 0.1140(5)
N14 N 0.4386(7) 0.1602(6) 0.2092(5)
N15 N 0.0420(7) 0.2581(5) -0.0890(5)
O15 O -0.0410(9) 0.3418(6) -0.2370(5)
O16 O 0.3267(7) 0.0321(5) -0.1349(5)
N16 N 0.2986(8) 0.0409(6) -0.0564(6)
O17 O 0.3459(7) -0.0190(6) 0.0240(6)
N17 N 0.1981(6) 0.1235(5) -0.0441(5)
O18 O -0.1003(8) 0.4042(6) -0.1005(6)
C7 C 0.1646(8) 0.2068(6) -0.1261(6)
N18 N -0.0393(7) 0.3413(7) -0.1457(6)
O19 O 0.1608(9) 0.5303(7) 0.0974(8)
O20 O 0.3489(7) 0.5532(6) -0.0698(5)
N19 N 0.3315(8) 0.4746(6) -0.1230(7)
C8 C 0.3197(8) 0.3793(6) 0.0346(6)
N20 N 0.2777(6) 0.3853(5) -0.0805(5)
O21 O 0.3517(9) 0.4639(7) -0.2049(6)
N21 N 0.1829(8) 0.3596(6) 0.0678(6)
O22 O -0.0080(8) 0.4213(7) 0.1311(6)
N22 N 0.1072(9) 0.4426(7) 0.1025(6)
O23 O 0.7138(7) 0.2608(7) 0.0255(6)
N23 N 0.4476(6) 0.2429(5) -0.0342(5)
N24 N 0.5980(7) 0.2507(5) -0.0537(6)
O24 O 0.5999(8) 0.2391(9) -0.1371(6)
C9 C 0.0899(7) 0.2619(6) 0.0263(6)
C10 C 0.4372(8) 0.2821(6) 0.0647(6)
C11 C 0.3148(11) 0.2820(7) -0.1144(8)
C12 C 0.2064(8) 0.1646(7) 0.0580(6)
H7 H 0.325(7) 0.275(5) -0.179(5)
H8 H 0.531(7) 0.320(5) 0.106(5)
H9 H 0.355(6) 0.435(5) 0.063(5)
H10 H 0.086(10) 0.201(7) -0.208(7)
H11 H 0.171(6) 0.101(4) 0.101(4)
H12 H -0.010(6) 0.253(4) 0.043(4)
#END
