
#######################################################################
#
#                 Cambridge Crystallographic Data Centre
#                                CCDC
#
#######################################################################
#
# If this CIF has been generated from an entry in the Cambridge
# Structural Database, then it will include bibliographic, chemical,
# crystal, experimental, refinement or atomic coordinate data resulting
# from the CCDC's data processing and validation procedures.
#
#######################################################################

data_CSD_CIF_PUBMUU12
_audit_creation_date 2004-10-11
_audit_creation_method CSD-ConQuest-V1
_database_code_CSD PUBMUU12
_database_code_depnum_ccdc_archive 'CCDC 251406'
_chemical_formula_sum 'C6 H6 N12 O12'
_chemical_formula_moiety
;
C6 H6 N12 O12
;
_journal_coeditor_code "IUCr DO5007"
_journal_coden_Cambridge 228
_journal_volume 37
_journal_year 2004
_journal_page_first 808
_journal_name_full 'J.Appl.Crystallogr. '
loop_
_publ_author_name
"N.B.Bolotina"
"M.J.Hardie"
"R.L.Speer Junior"
"A.Alan Pinkerton"
_chemical_name_systematic
;
2,4,6,8,10,12-Hexanitro-2,4,6,8,10,12-hexa-azatetracyclo(5.5.0.0^5,9^.0^3,11^)
dodecane
;
_chemical_name_common
;
Hexanitrohexa-azaisowurtzitane; HNIW; CL-20
;
_cell_volume   1397.249
_exptl_crystal_colour 'colorless'
_exptl_crystal_density_diffrn 2.083
_exptl_special_details
;
monoclinic epsilon polymorph

;
_exptl_crystal_description 'block'
_diffrn_ambient_temperature 100.0
#These two values have been output from a single CSD field.
_refine_ls_R_factor_gt 0.0438
_refine_ls_wR_factor_gt 0.0438
_symmetry_cell_setting monoclinic
_symmetry_space_group_name_H-M 'P 21/n'
_symmetry_Int_Tables_number 14
loop_
_symmetry_equiv_pos_site_id
_symmetry_equiv_pos_as_xyz
1 x,y,z
2 1/2-x,1/2+y,1/2-z
3 -x,-y,-z
4 -1/2+x,-1/2-y,-1/2+z
_cell_length_a 8.7910(18)
_cell_length_b 12.481(3)
_cell_length_c 13.285(3)
_cell_angle_alpha 90
_cell_angle_beta 106.55(3)
_cell_angle_gamma 90
_cell_formula_units_Z 4
loop_
_atom_type_symbol
_atom_type_radius_bond
C 0.68
H 0.23
N 0.68
O 0.68
loop_
_atom_site_label
_atom_site_type_symbol
_atom_site_fract_x
_atom_site_fract_y
_atom_site_fract_z
C1 C 0.4318(2) -0.23594(15) 0.21295(14)
H1 H 0.386(2) -0.3002(17) 0.1853(16)
C2 C 0.6608(2) -0.11870(14) 0.22128(14)
H2 H 0.748(2) -0.1154(14) 0.1950(14)
C3 C 0.5867(2) -0.06174(14) 0.37491(15)
H3 H 0.626(2) -0.0337(15) 0.4414(15)
C4 C 0.5471(2) -0.01879(14) 0.19224(14)
H4 H 0.584(2) 0.0322(16) 0.1536(16)
C5 C 0.3167(2) -0.13679(14) 0.18275(14)
H5 H 0.215(2) -0.1538(14) 0.1343(14)
C6 C 0.4376(2) -0.13737(14) 0.36686(14)
H6 H 0.418(2) -0.1410(15) 0.4300(15)
N1 N 0.64823(19) -0.29931(12) 0.14541(12)
N2 N 0.56941(17) -0.21328(12) 0.17818(12)
N3 N 0.78711(18) -0.19951(12) 0.39532(12)
N4 N 0.70831(18) -0.11394(12) 0.33713(12)
N5 N 0.45091(18) 0.10406(12) 0.30470(12)
N6 N 0.55296(18) 0.02314(11) 0.29666(11)
N7 N 0.31335(18) -0.01129(12) 0.03787(12)
N8 N 0.39019(18) -0.05405(12) 0.13583(12)
N9 N 0.14986(18) -0.10703(12) 0.30257(13)
N10 N 0.30229(17) -0.09702(12) 0.28399(11)
N11 N 0.41827(18) -0.33289(12) 0.37300(12)
N12 N 0.47317(18) -0.24187(11) 0.32874(11)
O1 O 0.59001(17) -0.38801(11) 0.14527(12)
O2 O 0.76376(16) -0.27594(11) 0.11673(10)
O3 O 0.84853(16) -0.26379(10) 0.34949(10)
O4 O 0.79028(16) -0.20162(11) 0.48817(10)
O5 O 0.42046(16) 0.11271(10) 0.38926(10)
O6 O 0.40260(15) 0.16107(10) 0.22766(10)
O7 O 0.19078(17) -0.05467(11) -0.01134(11)
O8 O 0.37694(16) 0.06506(10) 0.00896(10)
O9 O 0.03681(15) -0.11716(10) 0.22562(11)
O10 O 0.14941(17) -0.09752(12) 0.39367(11)
O11 O 0.40149(17) -0.32144(11) 0.45976(10)
O12 O 0.40197(16) -0.41481(10) 0.32114(10)
#END
