
#######################################################################
#
#                 Cambridge Crystallographic Data Centre
#                                CCDC
#
#######################################################################
#
# If this CIF has been generated from an entry in the Cambridge
# Structural Database, then it will include bibliographic, chemical,
# crystal, experimental, refinement or atomic coordinate data resulting
# from the CCDC's data processing and validation procedures.
#
#######################################################################

data_CSD_CIF_PUBMUU07
_audit_creation_date 2004-10-11
_audit_creation_method CSD-ConQuest-V1
_database_code_CSD PUBMUU07
_database_code_depnum_ccdc_archive 'CCDC 251401'
_chemical_formula_sum 'C6 H6 N12 O12'
_chemical_formula_moiety
;
C6 H6 N12 O12
;
_journal_coeditor_code "IUCr DO5007"
_journal_coden_Cambridge 228
_journal_volume 37
_journal_year 2004
_journal_page_first 808
_journal_name_full 'J.Appl.Crystallogr. '
loop_
_publ_author_name
"N.B.Bolotina"
"M.J.Hardie"
"R.L.Speer Junior"
"A.Alan Pinkerton"
_chemical_name_systematic
;
2,4,6,8,10,12-Hexanitro-2,4,6,8,10,12-hexa-azatetracyclo(5.5.0.0^5,9^.0^3,11^)
dodecane
;
_chemical_name_common
;
Hexanitrohexa-azaisowurtzitane; HNIW; CL-20
;
_cell_volume   1489.952
_exptl_crystal_density_diffrn 1.954
_exptl_special_details
;
monoclinic gamma polymorph

;
_exptl_crystal_description 'block'
_diffrn_ambient_temperature 100.0
#These two values have been output from a single CSD field.
_refine_ls_R_factor_gt 0.034
_refine_ls_wR_factor_gt 0.034
_symmetry_cell_setting monoclinic
_symmetry_space_group_name_H-M 'P 21/n'
_symmetry_Int_Tables_number 14
loop_
_symmetry_equiv_pos_site_id
_symmetry_equiv_pos_as_xyz
1 x,y,z
2 1/2-x,1/2+y,1/2-z
3 -x,-y,-z
4 -1/2+x,-1/2-y,-1/2+z
_cell_length_a 13.0342(3)
_cell_length_b 8.1773(2)
_cell_length_c 14.7465(2)
_cell_angle_alpha 90
_cell_angle_beta 108.566(1)
_cell_angle_gamma 90
_cell_formula_units_Z 4
loop_
_atom_type_symbol
_atom_type_radius_bond
C 0.68
H 0.23
N 0.68
O 0.68
loop_
_atom_site_label
_atom_site_type_symbol
_atom_site_fract_x
_atom_site_fract_y
_atom_site_fract_z
C1 C 1.10727(11) 0.50974(14) 0.32381(8)
C2 C 0.93592(10) 0.59834(14) 0.32778(8)
C3 C 1.00962(10) 0.75247(14) 0.33073(8)
C4 C 1.08423(11) 0.49692(14) 0.21143(8)
C5 C 0.90035(11) 0.57728(14) 0.15385(9)
C6 C 0.97135(10) 0.73394(14) 0.15666(8)
N1 N 1.01135(9) 0.45952(12) 0.34664(7)
N2 N 1.02541(10) 0.36499(13) 0.42906(7)
N3 N 1.11940(9) 0.68354(12) 0.34915(7)
N4 N 1.19704(9) 0.72571(13) 0.43841(7)
N5 N 0.97493(9) 0.83092(12) 0.23918(7)
N6 N 0.97257(10) 1.00135(13) 0.23254(8)
N7 N 0.85735(9) 0.58604(12) 0.23289(7)
N8 N 0.77013(9) 0.47805(14) 0.22725(8)
N9 N 0.97526(9) 0.43563(12) 0.16447(7)
N10 N 0.96331(9) 0.35854(12) 0.07362(7)
N11 N 1.07558(9) 0.65640(12) 0.16451(7)
N12 N 1.16654(9) 0.75069(13) 0.17876(7)
O1 O 1.11202(9) 0.29716(12) 0.46395(7)
O2 O 0.94622(8) 0.35409(11) 0.45655(6)
O3 O 1.19055(9) 0.86472(12) 0.46543(7)
O4 O 1.26541(8) 0.62406(12) 0.47593(7)
O5 O 0.99071(11) 1.07556(12) 0.30786(7)
O6 O 0.94865(9) 1.05874(11) 0.15268(7)
O7 O 0.74863(9) 0.45946(15) 0.30095(7)
O8 O 0.72269(9) 0.41955(13) 0.14925(7)
O9 O 0.87133(8) 0.34172(11) 0.02114(6)
O10 O 1.04581(8) 0.31104(12) 0.05955(6)
O11 O 1.25407(8) 0.68108(12) 0.20910(7)
O12 O 1.15173(8) 0.89558(11) 0.15797(7)
H1 H 1.1707(13) 0.4509(18) 0.3561(10)
H2 H 0.9008(13) 0.6025(17) 0.3731(11)
H3 H 1.0112(12) 0.8277(18) 0.3802(11)
H4 H 1.1377(13) 0.4298(18) 0.1997(10)
H5 H 0.8460(13) 0.5697(17) 0.0968(10)
H6 H 0.9426(12) 0.7980(17) 0.1008(10)
#END
