
#######################################################################
#
#                 Cambridge Crystallographic Data Centre
#                                CCDC
#
#######################################################################
#
# If this CIF has been generated from an entry in the Cambridge
# Structural Database, then it will include bibliographic, chemical,
# crystal, experimental, refinement or atomic coordinate data resulting
# from the CCDC's data processing and validation procedures.
#
#######################################################################

data_CSD_CIF_PUBMUU04
_audit_creation_date 1999-12-16
_audit_creation_method CSD-ConQuest-V1
_database_code_CSD PUBMUU04
_database_code_depnum_ccdc_archive 'CCDC 124949'
_chemical_formula_sum 'C6 H6 N12 O12'
_chemical_formula_moiety
;
C6 H6 N12 O12
;
_journal_coden_Cambridge 1078
_journal_year 1999
_journal_name_full 'CSD Communication(Private Communication) '
loop_
_publ_author_name
"G.Jacob"
"L.Toupet"
"L.Ricard"
"G.Cagnon"
_chemical_name_systematic
;
2,6,8,12-endo,endo,endo,exo-2,4,6,8,10,12-Hexanitro-2,4,6,8,10,12-hexa-azatetr
acyclo(5.5.0.0^3,11^.0^5,9^)dodecane
;
_cell_volume   1511.300
_exptl_crystal_colour 'white'
_exptl_crystal_density_diffrn 1.926
_exptl_special_details
;
monoclinic gamma polymorph
contribution from Universite de Rennes, France

;
_exptl_crystal_description 'prism'
_diffrn_ambient_temperature ?
_diffrn_special_details
;
The study was carried out at room temperature,in the range 283-303K

;
#These two values have been output from a single CSD field.
_refine_ls_R_factor_gt 0.0528
_refine_ls_wR_factor_gt 0.0528
_symmetry_cell_setting monoclinic
_symmetry_space_group_name_H-M 'P 21/n'
_symmetry_Int_Tables_number 14
loop_
_symmetry_equiv_pos_site_id
_symmetry_equiv_pos_as_xyz
1 x,y,z
2 1/2-x,1/2+y,1/2-z
3 -x,-y,-z
4 -1/2+x,-1/2-y,-1/2+z
_cell_length_a 14.846(12)
_cell_length_b 8.155(2)
_cell_length_c 13.219(4)
_cell_angle_alpha 90
_cell_angle_beta 109.21(9)
_cell_angle_gamma 90
_cell_formula_units_Z 4
loop_
_atom_type_symbol
_atom_type_radius_bond
C 0.68
H 0.23
N 0.68
O 0.68
loop_
_atom_site_label
_atom_site_type_symbol
_atom_site_fract_x
_atom_site_fract_y
_atom_site_fract_z
O1 O 0.0437(3) 0.3510(5) 0.5465(3)
O2 O 0.0371(3) 0.3000(5) 0.3843(4)
O3 O 0.0254(3) 0.6322(6) 0.2373(3)
O4 O 0.0347(3) 0.8676(6) 0.3165(3)
O5 O 0.1923(3) 1.0719(5) 0.5147(5)
O6 O 0.3462(3) 1.0568(5) 0.5603(4)
O7 O 0.2910(3) 0.6904(6) 0.2515(3)
O8 O 0.3431(3) 0.9000(6) 0.3550(3)
O9 O 0.2022(3) 0.4428(7) 0.7442(4)
O10 O 0.3526(3) 0.4109(6) 0.7722(3)
O11 O 0.4365(3) 0.3082(5) 0.4513(3)
O12 O 0.4796(3) 0.3431(5) 0.6233(3)
N1 N 0.1549(3) 0.4575(5) 0.4865(3)
N2 N 0.1516(3) 0.6858(5) 0.3841(3)
N3 N 0.2613(3) 0.8292(5) 0.5298(3)
N4 N 0.3348(3) 0.6608(5) 0.4279(3)
N5 N 0.2690(3) 0.5769(5) 0.6404(3)
N6 N 0.3355(3) 0.4361(5) 0.5225(3)
N7 N 0.0721(3) 0.3638(5) 0.4699(4)
N8 N 0.0624(3) 0.7305(7) 0.3076(4)
N9 N 0.2672(4) 1.0004(6) 0.5335(4)
N10 N 0.3212(3) 0.7574(7) 0.3382(4)
N11 N 0.2743(4) 0.4672(7) 0.7241(4)
N12 N 0.4249(3) 0.3581(5) 0.5327(4)
C1 C 0.1732(3) 0.5935(6) 0.5631(4)
C2 C 0.1701(3) 0.7502(6) 0.4931(4)
C3 C 0.1776(4) 0.5141(7) 0.3936(4)
C4 C 0.2883(3) 0.5012(6) 0.4153(4)
C5 C 0.3460(4) 0.5754(6) 0.5982(4)
C6 C 0.3426(3) 0.7321(6) 0.5308(4)
H1 H 0.126(4) 0.600(7) 0.607(4)
H2 H 0.123(4) 0.819(7) 0.496(4)
H3 H 0.154(4) 0.452(7) 0.345(4)
H4 H 0.305(4) 0.441(6) 0.357(4)
H5 H 0.399(4) 0.572(7) 0.655(4)
H6 H 0.389(4) 0.799(7) 0.558(4)
#END
