
#######################################################################
#
#                 Cambridge Crystallographic Data Centre
#                                CCDC
#
#######################################################################
#
# If this CIF has been generated from an entry in the Cambridge
# Structural Database, then it will include bibliographic, chemical,
# crystal, experimental, refinement or atomic coordinate data resulting
# from the CCDC's data processing and validation procedures.
#
#######################################################################

data_CSD_CIF_PUBMUU18
_audit_creation_date 2005-04-28
_audit_creation_method CSD-ConQuest-V1
_database_code_CSD PUBMUU18
_database_code_depnum_ccdc_archive 'CCDC 260027'
_chemical_formula_sum 'C6 H6 N12 O12'
_chemical_formula_moiety
;
C6 H6 N12 O12
;
_journal_coden_Cambridge 1354
_journal_volume 48
_journal_year 2004
_journal_page_first 41-1
_journal_name_full 'Ross.Khim.Zhurnal(Russ.)(Russ.Chem.J.) '
loop_
_publ_author_name
"N.I.Golovina"
"A.V.Raevsky"
"N.V.Chukanov"
"B.L.Korsunsky"
"L.O.Atovmyan"
"S.M.Aldoshin"
_chemical_name_systematic
;
2,4,6,8,10,12-Hexanitro-2,4,6,8,10,12-hexa-azatetracyclo(5.5.0.0^3,11^.0^5,9^)
dodecane
;
_chemical_name_common
;
Hexanitro-hexa-azaisowurtzitane
;
_cell_volume   1428.869
_exptl_crystal_density_diffrn 2.037
_exptl_special_details
;
monoclinic epsilon polymorph

;
_diffrn_ambient_temperature 295
#These two values have been output from a single CSD field.
_refine_ls_R_factor_gt 0.0376
_refine_ls_wR_factor_gt 0.0376
_symmetry_cell_setting monoclinic
_symmetry_space_group_name_H-M 'P 21/n'
_symmetry_Int_Tables_number 14
loop_
_symmetry_equiv_pos_site_id
_symmetry_equiv_pos_as_xyz
1 x,y,z
2 1/2-x,1/2+y,1/2-z
3 -x,-y,-z
4 -1/2+x,-1/2-y,-1/2+z
_cell_length_a 8.857(2)
_cell_length_b 12.587(3)
_cell_length_c 13.394(3)
_cell_angle_alpha 90
_cell_angle_beta 106.88(3)
_cell_angle_gamma 90
_cell_formula_units_Z 4
loop_
_atom_type_symbol
_atom_type_radius_bond
C 0.68
H 0.23
N 0.68
O 0.68
loop_
_atom_site_label
_atom_site_type_symbol
_atom_site_fract_x
_atom_site_fract_y
_atom_site_fract_z
O1 O 0.0955(2) 0.65995(14) 0.27115(16)
N1 N -0.2063(2) 0.38658(15) 0.16300(16)
O2 O 0.1256(2) 0.56207(17) 0.49045(15)
N2 N 0.1976(2) 0.40317(16) 0.21654(16)
O3 O -0.3487(2) 0.23974(17) 0.14921(17)
N3 N -0.0514(2) 0.52206(15) 0.20365(15)
O4 O 0.0963(3) 0.08856(14) 0.17806(17)
N4 N 0.0278(2) 0.26000(14) 0.17136(16)
N5 N 0.0478(2) 0.60283(15) 0.19531(17)
O5 O 0.0765(2) 0.61195(15) 0.11166(16)
N6 N -0.0676(2) 0.28746(16) 0.32059(16)
O6 O -0.2597(3) 0.22483(18) 0.38098(17)
O7 O 0.0971(3) 0.18110(16) 0.04165(18)
O8 O -0.0888(3) 0.11467(17) 0.3520(2)
O9 O 0.4615(2) 0.38456(16) 0.27463(18)
C1 C -0.0856(3) 0.43826(18) 0.12576(19)
N7 N 0.1884(3) 0.48758(18) 0.46076(16)
N8 N 0.1112(2) 0.44496(17) 0.36321(16)
C2 C 0.1833(3) 0.36353(18) 0.31668(19)
N9 N 0.0808(2) 0.16966(16) 0.12730(19)
O10 O -0.2893(3) 0.30072(18) 0.01303(16)
C3 C 0.0622(3) 0.36296(18) 0.13401(19)
N10 N -0.1457(3) 0.20198(17) 0.35272(18)
N11 N 0.3478(3) 0.39408(17) 0.1980(2)
C4 C -0.1582(3) 0.38081(18) 0.27777(19)
O11 O 0.3083(3) 0.4450(2) 0.50855(18)
N12 N -0.2868(2) 0.30249(17) 0.10472(17)
C5 C 0.0687(3) 0.26535(18) 0.28603(19)
C6 C -0.0449(3) 0.48045(19) 0.30753(19)
O12 O 0.3478(3) 0.4036(2) 0.1082(2)
H1 H -0.137(4) 0.464(2) 0.052(2)
H2 H -0.244(3) 0.384(2) 0.305(2)
H3 H -0.084(3) 0.534(2) 0.347(2)
H4 H 0.084(3) 0.361(2) 0.073(2)
H5 H 0.119(4) 0.205(3) 0.318(2)
H6 H 0.286(4) 0.346(2) 0.363(2)
#END
