
#######################################################################
#
#                 Cambridge Crystallographic Data Centre
#                                CCDC
#
#######################################################################
#
# If this CIF has been generated from an entry in the Cambridge
# Structural Database, then it will include bibliographic, chemical,
# crystal, experimental, refinement or atomic coordinate data resulting
# from the CCDC's data processing and validation procedures.
#
#######################################################################

data_CSD_CIF_PUBWAK
_audit_creation_date 1998-11-26
_audit_creation_method CSD-ConQuest-V1
_database_code_CSD PUBWAK
_database_code_depnum_ccdc_journal 1145/102
_chemical_formula_sum 'C18 H12 N6 O8'
_chemical_formula_moiety
;
C18 H12 N6 O8
;
_journal_coden_Cambridge 1145
_journal_volume 8
_journal_year 1998
_journal_page_first 1799
_journal_name_full 'J.Mater.Chem. '
loop_
_publ_author_name
"A.Ito"
"T.Saito"
"Ken-ichi Ota"
"T.Muira"
"Y.Misaki"
"K.Tanaka"
"T.Yamabe"
_chemical_name_systematic
;
N,N'-bis(2,6-Dinitrophenyl)-1,3-phenylenediamine
;
_chemical_melting_point 499.15
_cell_volume   1871.473
_exptl_crystal_colour 'red'
_exptl_crystal_density_diffrn 1.563
_exptl_special_details
;
Melting point range 499.15-500.15K

;
_exptl_crystal_description 'prismatic'
_diffrn_ambient_temperature 20
#These two values have been output from a single CSD field.
_refine_ls_R_factor_gt 0.0813
_refine_ls_wR_factor_gt 0.0813
_symmetry_cell_setting triclinic
_symmetry_space_group_name_H-M 'P -1'
_symmetry_Int_Tables_number 2
loop_
_symmetry_equiv_pos_site_id
_symmetry_equiv_pos_as_xyz
1 x,y,z
2 -x,-y,-z
_cell_length_a 12.694(2)
_cell_length_b 14.921(1)
_cell_length_c 10.0749(8)
_cell_angle_alpha 94.609(7)
_cell_angle_beta 99.883(10)
_cell_angle_gamma 92.05(1)
_cell_formula_units_Z 4
loop_
_atom_type_symbol
_atom_type_radius_bond
C 0.68
H 0.23
N 0.68
O 0.68
loop_
_atom_site_label
_atom_site_type_symbol
_atom_site_fract_x
_atom_site_fract_y
_atom_site_fract_z
O1 O 0.6151(3) 0.4810(3) 0.4383(5)
O2 O 0.6604(3) 0.4094(3) 0.2634(4)
O3 O 0.1793(3) 0.4463(3) -0.0578(4)
O4 O 0.2886(4) 0.3413(3) -0.0756(4)
O5 O 0.5782(4) -0.2037(3) 0.1426(5)
O6 O 0.5697(3) -0.0713(3) 0.0724(4)
O7 O 0.7901(4) 0.1443(3) 0.6231(4)
O8 O 0.7801(3) 0.1759(3) 0.4173(4)
O9 O 1.4091(4) 0.9355(3) 1.2708(4)
O10 O 1.3388(4) 0.8321(3) 1.1175(6)
O11 O 0.9996(8) 1.0533(8) 0.7915(9)
O12 O 1.0802(5) 0.9609(5) 0.7129(6)
O13 O 0.7917(3) 0.6466(3) 0.7717(5)
O14 O 0.9120(3) 0.6847(2) 0.6559(4)
O15 O 1.1184(3) 0.3010(3) 0.6524(4)
O16 O 1.1849(3) 0.4329(3) 0.6316(4)
N1 N 0.6007(4) 0.4560(3) 0.3180(5)
N2 N 0.2676(4) 0.4154(3) -0.0299(4)
N3 N 0.4466(3) 0.3355(3) 0.1329(4)
N4 N 0.6097(3) 0.0653(3) 0.2570(4)
N5 N 0.6003(3) -0.1227(3) 0.1595(5)
N6 N 0.7716(3) 0.1230(3) 0.5018(5)
N7 N 1.3446(4) 0.9081(4) 1.1694(5)
N8 N 1.0712(5) 1.0125(5) 0.8044(7)
N9 N 1.2017(4) 0.8720(3) 0.8985(5)
N10 N 1.0840(3) 0.5692(3) 0.7332(4)
N11 N 0.8643(4) 0.6289(3) 0.7084(5)
N12 N 1.1096(4) 0.3816(3) 0.6439(4)
C1 C 0.4355(4) 0.4265(3) 0.1435(5)
C2 C 0.5058(4) 0.4877(4) 0.2335(5)
C3 C 0.4952(5) 0.5795(4) 0.2444(6)
C4 C 0.4132(6) 0.6169(4) 0.1629(7)
C5 C 0.3394(5) 0.5607(4) 0.0725(6)
C6 C 0.3515(4) 0.4689(4) 0.0636(5)
C7 C 0.4812(4) 0.2808(3) 0.2384(5)
C8 C 0.5363(4) 0.2056(3) 0.2075(5)
C9 C 0.5628(4) 0.1440(3) 0.3023(5)
C10 C 0.5382(4) 0.1586(3) 0.4312(5)
C11 C 0.4873(4) 0.2370(4) 0.4620(6)
C12 C 0.4572(4) 0.2974(4) 0.3673(5)
C13 C 0.6698(4) 0.0057(3) 0.3327(5)
C14 C 0.6660(4) -0.0873(3) 0.2877(5)
C15 C 0.7250(5) -0.1493(4) 0.3600(6)
C16 C 0.7903(5) -0.1224(4) 0.4811(6)
C17 C 0.7985(4) -0.0317(4) 0.5284(5)
C18 C 0.7412(4) 0.0290(3) 0.4545(5)
C19 C 1.2065(4) 0.9527(3) 0.9782(5)
C20 C 1.2727(4) 0.9736(4) 1.1047(5)
C21 C 1.2807(5) 1.0591(4) 1.1736(6)
C22 C 1.2223(6) 1.1276(4) 1.1166(7)
C23 C 1.1555(5) 1.1102(4) 0.9951(7)
C24 C 1.1488(4) 1.0262(4) 0.9290(6)
C25 C 1.1532(4) 0.7904(3) 0.9246(5)
C26 C 1.1465(4) 0.7188(3) 0.8262(5)
C27 C 1.0896(4) 0.6405(3) 0.8373(5)
C28 C 1.0408(4) 0.6306(3) 0.9497(5)
C29 C 1.0494(4) 0.7021(3) 1.0483(5)
C30 C 1.1054(4) 0.7822(3) 1.0384(5)
C31 C 0.9979(4) 0.5098(3) 0.6911(5)
C32 C 0.8910(4) 0.5331(3) 0.6913(5)
C33 C 0.8048(4) 0.4727(4) 0.6606(5)
C34 C 0.8183(5) 0.3848(4) 0.6187(6)
C35 C 0.9193(5) 0.3576(3) 0.6113(5)
C36 C 1.0067(4) 0.4187(3) 0.6480(5)
H1 H 0.42690 0.30290 0.03580
H2 H 0.59670 0.05010 0.15350
H3 H 1.23750 0.87160 0.81240
H4 H 1.15010 0.56180 0.68550
H5 H 0.54980 0.61980 0.31470
H6 H 0.40580 0.68690 0.17060
H7 H 0.27600 0.58720 0.01130
H8 H 0.55890 0.19540 0.11250
H9 H 0.55730 0.11190 0.50200
H10 H 0.47310 0.25040 0.56110
H11 H 0.41780 0.35560 0.39140
H12 H 0.72010 -0.21670 0.32130
H13 H 0.83270 -0.16910 0.53940
H14 H 0.84910 -0.00940 0.62040
H15 H 1.33150 1.07140 1.26830
H16 H 1.23060 1.19230 1.16780
H17 H 1.10910 1.16060 0.95090
H18 H 1.18450 0.72440 0.74370
H19 H 0.99980 0.56990 0.95920
H20 H 1.01190 0.69620 1.13160
H21 H 1.11250 0.83580 1.11360
H22 H 0.72730 0.49380 0.66880
H23 H 0.75210 0.33940 0.59150
H24 H 0.93060 0.29050 0.57860
#END
