
#######################################################################
#
#                 Cambridge Crystallographic Data Centre
#                                CCDC
#
#######################################################################
#
# If this CIF has been generated from an entry in the Cambridge
# Structural Database, then it will include bibliographic, chemical,
# crystal, experimental, refinement or atomic coordinate data resulting
# from the CCDC's data processing and validation procedures.
#
#######################################################################

data_CSD_CIF_PUFMOT
_audit_creation_date 2009-12-22
_audit_creation_method CSD-ConQuest-V1
_database_code_CSD PUFMOT
_database_code_depnum_ccdc_archive 'CCDC 750767'
_chemical_formula_sum 'C15 H15 N3 O4'
_chemical_formula_moiety
;
C15 H15 N3 O4
;
_journal_coeditor_code "IUCr XU2611"
_journal_coden_Cambridge 1370
_journal_volume 65
_journal_year 2009
_journal_page_first o2536
_journal_name_full 'Acta Crystallogr.,Sect.E:Struct.Rep.Online '
loop_
_publ_author_name
"Jun-Qiang Chen"
"Ling Jiang"
"Shu-Mian Li"
"Yu-Zhen Chen"
_chemical_name_systematic
;
2-Ethoxy-4-((2-(3-nitrophenyl)hydrazinylidene)methyl)phenol
;
_cell_volume   1461.045
_exptl_crystal_colour 'red'
_exptl_crystal_density_diffrn 1.37
_exptl_crystal_description 'block'
_exptl_crystal_preparation 'methanol'
_diffrn_ambient_temperature 296
#These two values have been output from a single CSD field.
_refine_ls_R_factor_gt 0.0351
_refine_ls_wR_factor_gt 0.0351
_symmetry_cell_setting monoclinic
_symmetry_space_group_name_H-M 'P 21/n'
_symmetry_Int_Tables_number 14
loop_
_symmetry_equiv_pos_site_id
_symmetry_equiv_pos_as_xyz
1 x,y,z
2 1/2-x,1/2+y,1/2-z
3 -x,-y,-z
4 -1/2+x,-1/2-y,-1/2+z
_cell_length_a 12.4160(6)
_cell_length_b 7.7429(4)
_cell_length_c 16.2249(9)
_cell_angle_alpha 90
_cell_angle_beta 110.497(6)
_cell_angle_gamma 90
_cell_formula_units_Z 4
loop_
_atom_type_symbol
_atom_type_radius_bond
C 0.68
H 0.23
N 0.68
O 0.68
loop_
_atom_site_label
_atom_site_type_symbol
_atom_site_fract_x
_atom_site_fract_y
_atom_site_fract_z
O1 O 0.13682(9) 0.87732(14) 0.23604(7)
O2 O 0.22167(11) 0.78440(15) 0.40430(8)
N1 N 0.50471(10) 1.09280(16) 0.17334(8)
C1 C 0.44686(13) 0.95951(18) 0.2854(1)
C2 C 0.58320(12) 1.20825(19) 0.06891(10)
C3 C 0.47700(12) 1.22659(19) 0.00284(10)
H1 H 0.40990 1.19370 0.01170
N2 N 0.36075(12) 1.31235(19) -0.14578(10)
C4 C 0.25328(13) 0.89131(18) 0.27554(10)
C5 C 0.40865(14) 0.86218(19) 0.41319(10)
H2 H 0.43530 0.83530 0.47280
C6 C 0.48479(13) 0.91857(19) 0.37376(10)
H3 H 0.56250 0.92900 0.40720
N3 N 0.59659(11) 1.14119(17) 0.15028(9)
H4 H 0.66490 1.12910 0.18810
C7 C 0.53084(13) 1.02074(18) 0.24853(10)
H5 H 0.60830 1.00660 0.28170
C8 C 0.32963(13) 0.94411(18) 0.23613(10)
H6 H 0.30300 0.96970 0.17630
C9 C 0.47362(12) 1.29476(19) -0.07618(10)
C10 C 0.29426(14) 0.84598(18) 0.36459(10)
C11 C 0.68158(13) 1.2571(2) 0.05225(11)
H7 H 0.75340 1.24410 0.09590
O3 O 0.27636(11) 1.2634(2) -0.13242(10)
C12 C 0.56883(14) 1.3452(2) -0.09402(11)
H8 H 0.56300 1.39150 -0.14830
O4 O 0.35438(11) 1.3746(2) -0.21577(9)
C13 C 0.08594(14) 0.9091(2) 0.14407(11)
H9 H 0.10260 0.81450 0.11120
H10 H 0.11670 1.01460 0.12880
C14 C 0.67357(14) 1.3242(2) -0.02778(12)
H11 H 0.74030 1.35620 -0.03760
C15 C -0.04114(14) 0.9256(2) 0.12228(12)
H12 H -0.07760 0.94690 0.06040
H13 H -0.05670 1.02000 0.15490
H14 H -0.07070 0.82060 0.13760
H15 H 0.1526(18) 0.777(2) 0.3624(14)
#END
