
#######################################################################
#
#                 Cambridge Crystallographic Data Centre
#                                CCDC
#
#######################################################################
#
# If this CIF has been generated from an entry in the Cambridge
# Structural Database, then it will include bibliographic, chemical,
# crystal, experimental, refinement or atomic coordinate data resulting
# from the CCDC's data processing and validation procedures.
#
#######################################################################

data_CSD_CIF_PUGLAF
_audit_creation_date 2009-12-22
_audit_creation_method CSD-ConQuest-V1
_database_code_CSD PUGLAF
_database_code_depnum_ccdc_archive 'CCDC 754296'
_chemical_formula_sum 'C18 H16 N4 O1'
_chemical_formula_moiety
;
C18 H16 N4 O1
;
_journal_coeditor_code "IUCr DN2494"
_journal_coden_Cambridge 1370
_journal_volume 65
_journal_year 2009
_journal_page_first o2714
_journal_name_full 'Acta Crystallogr.,Sect.E:Struct.Rep.Online '
loop_
_publ_author_name
"M.L.Doumbia"
"R.Bouhfid"
"E.M.Essassi"
"L.El Ammari"
_chemical_name_systematic
;
5-Methyl-3-(1-(2-pyridylmethyl)-1H-benzimidazol-2-ylmethyl)isoxazole
;
_chemical_name_common
;
2-((5-Methyl-1,2-oxazol-3-yl)methyl)-1-(pyridin-2-ylmethyl)-1H-benzimidazole
;
_cell_volume   1548.681
_exptl_crystal_colour 'white'
_exptl_crystal_density_diffrn 1.305
_exptl_crystal_description 'block'
_diffrn_ambient_temperature 298
#These two values have been output from a single CSD field.
_refine_ls_R_factor_gt 0.0396
_refine_ls_wR_factor_gt 0.0396
_symmetry_cell_setting monoclinic
_symmetry_space_group_name_H-M 'P 21/n'
_symmetry_Int_Tables_number 14
loop_
_symmetry_equiv_pos_site_id
_symmetry_equiv_pos_as_xyz
1 x,y,z
2 1/2-x,1/2+y,1/2-z
3 -x,-y,-z
4 -1/2+x,-1/2-y,-1/2+z
_cell_length_a 11.0761(2)
_cell_length_b 8.6535(1)
_cell_length_c 16.5920(3)
_cell_angle_alpha 90
_cell_angle_beta 103.136(1)
_cell_angle_gamma 90
_cell_formula_units_Z 4
loop_
_atom_type_symbol
_atom_type_radius_bond
C 0.68
H 0.23
N 0.68
O 0.68
loop_
_atom_site_label
_atom_site_type_symbol
_atom_site_fract_x
_atom_site_fract_y
_atom_site_fract_z
O1 O 0.35108(10) -0.03671(13) 0.02360(6)
N1 N 0.28238(12) 0.07631(17) 0.05503(8)
N2 N 0.14275(11) 0.00694(14) 0.28340(7)
N3 N 0.02122(11) 0.07134(13) 0.16088(7)
N4 N -0.03858(11) 0.38647(14) 0.14258(7)
C1 C 0.41164(13) -0.12534(17) 0.08719(9)
C2 C 0.38459(14) -0.07581(17) 0.15741(9)
H1 H 0.41300 -0.11630 0.21020
C3 C 0.30411(13) 0.05044(16) 0.13448(9)
C4 C 0.24511(14) 0.15139(17) 0.18861(9)
H2 H 0.30670 0.17740 0.23840
H3 H 0.21780 0.24690 0.15950
C5 C 0.13705(13) 0.07608(15) 0.21254(8)
C6 C 0.02351(13) -0.04756(15) 0.27876(8)
C7 C -0.02328(16) -0.13135(18) 0.33632(10)
H4 H 0.02750 -0.16080 0.38660
C8 C -0.14703(17) -0.1693(2) 0.31653(11)
H5 H -0.18030 -0.22490 0.35430
C9 C -0.22337(16) -0.1265(2) 0.24140(11)
H6 H -0.30670 -0.15380 0.23020
C10 C -0.17938(14) -0.04485(19) 0.18304(10)
H7 H -0.23070 -0.01650 0.13270
C11 C -0.05416(13) -0.00683(15) 0.20323(8)
C12 C -0.01820(15) 0.13746(17) 0.07846(8)
H8 H -0.08120 0.07080 0.04580
H9 H 0.05210 0.13750 0.05260
C13 C -0.06934(12) 0.29955(15) 0.07513(7)
C14 C -0.08168(16) 0.53187(18) 0.13659(10)
H10 H -0.06190 0.59400 0.18350
C15 C -0.15277(16) 0.5944(2) 0.06597(11)
H11 H -0.18010 0.69610 0.06500
C16 C -0.18271(15) 0.5037(2) -0.00321(10)
H12 H -0.23050 0.54280 -0.05240
C17 C -0.14106(13) 0.35385(18) 0.00120(9)
H13 H -0.16080 0.28970 -0.04490
C18 C 0.48944(16) -0.2503(2) 0.06534(11)
H14 H 0.43810 -0.32180 0.02860
H15 H 0.53090 -0.30330 0.11470
H16 H 0.54990 -0.20680 0.03860
#END
