
#######################################################################
#
#                 Cambridge Crystallographic Data Centre
#                                CCDC
#
#######################################################################
#
# If this CIF has been generated from an entry in the Cambridge
# Structural Database, then it will include bibliographic, chemical,
# crystal, experimental, refinement or atomic coordinate data resulting
# from the CCDC's data processing and validation procedures.
#
#######################################################################

data_CSD_CIF_PUGMEK
_audit_creation_date 2009-12-22
_audit_creation_method CSD-ConQuest-V1
_database_code_CSD PUGMEK
_database_code_depnum_ccdc_archive 'CCDC 754303'
_chemical_formula_sum 'C16 H16 N4 O4'
_chemical_formula_moiety
;
C16 H16 N4 O4
;
_journal_coeditor_code "IUCr HB5130"
_journal_coden_Cambridge 1370
_journal_volume 65
_journal_year 2009
_journal_page_first o2729
_journal_name_full 'Acta Crystallogr.,Sect.E:Struct.Rep.Online '
loop_
_publ_author_name
"C.F.R.A.C.Lima"
"L.R.Gomes"
"L.M.N.B.F.Santos"
"J.E.Rodriguez-Borges"
"J.N.Low"
_chemical_name_systematic
;
(E)-1-Phenylbutan-2-one (2,4-dinitrophenyl)hydrazone
;
_chemical_name_common
;
(E)-1-(2,4-Dinitrophenyl)-2-(1-phenylbutan-2-ylidene)hydrazine
;
_cell_volume   1572.193
_exptl_crystal_colour 'orange'
_exptl_crystal_density_diffrn 1.387
_exptl_crystal_description 'needle'
_exptl_crystal_preparation 'dichloromethane'
_diffrn_ambient_temperature 120
#These two values have been output from a single CSD field.
_refine_ls_R_factor_gt 0.0413
_refine_ls_wR_factor_gt 0.0413
_symmetry_cell_setting monoclinic
_symmetry_space_group_name_H-M 'P 21/n'
_symmetry_Int_Tables_number 14
loop_
_symmetry_equiv_pos_site_id
_symmetry_equiv_pos_as_xyz
1 x,y,z
2 1/2-x,1/2+y,1/2-z
3 -x,-y,-z
4 -1/2+x,-1/2-y,-1/2+z
_cell_length_a 15.8919(13)
_cell_length_b 4.9446(3)
_cell_length_c 20.7397(17)
_cell_angle_alpha 90
_cell_angle_beta 105.267(5)
_cell_angle_gamma 90
_cell_formula_units_Z 4
loop_
_atom_type_symbol
_atom_type_radius_bond
C 0.68
H 0.23
N 0.68
O 0.68
loop_
_atom_site_label
_atom_site_type_symbol
_atom_site_fract_x
_atom_site_fract_y
_atom_site_fract_z
O1 O 0.65610(8) 0.8996(2) 0.17034(6)
O2 O 0.70928(7) 0.9899(2) 0.27500(6)
O3 O 0.44704(9) 0.2157(3) 0.09414(6)
O4 O 0.41347(8) -0.0583(3) 0.16477(7)
N1 N 0.66460(8) 0.7090(3) 0.36646(6)
H1 H 0.69950 0.82610 0.35820
N2 N 0.66485(9) 0.6313(3) 0.43054(6)
N3 N 0.66156(9) 0.8554(3) 0.22955(7)
N4 N 0.45198(9) 0.1408(3) 0.15136(7)
C1 C 0.71757(10) 0.7597(3) 0.47833(8)
C2 C 0.71901(11) 0.6653(3) 0.54758(8)
H2 H 0.77890 0.60660 0.57080
H3 H 0.68000 0.50680 0.54420
C3 C 0.61365(10) 0.5756(3) 0.31389(7)
C4 C 0.61004(10) 0.6396(3) 0.24669(8)
C5 C 0.55682(10) 0.4984(3) 0.19381(8)
H4 H 0.55570 0.54360 0.14910
C6 C 0.50597(10) 0.2934(3) 0.20667(8)
C7 C 0.50676(10) 0.2231(3) 0.27206(8)
H5 H 0.47100 0.07980 0.28010
C8 C 0.55915(10) 0.3614(3) 0.32419(8)
H6 H 0.55920 0.31330 0.36860
C9 C 0.77979(11) 0.9796(3) 0.47154(8)
H7 H 0.79050 1.09970 0.51110
H8 H 0.75320 1.08960 0.43150
C10 C 0.86642(12) 0.8638(4) 0.46542(10)
H9 H 0.90530 1.01200 0.46070
H10 H 0.85600 0.74610 0.42610
H11 H 0.89360 0.75870 0.50560
C11 C 0.69053(11) 0.8820(3) 0.58860(8)
C12 C 0.74933(11) 1.0031(3) 0.64209(8)
H12 H 0.80880 0.94940 0.65340
C13 C 0.72226(12) 1.2021(3) 0.67932(8)
H13 H 0.76330 1.28310 0.71600
C14 C 0.63628(12) 1.2830(4) 0.66341(9)
H14 H 0.61790 1.41950 0.68900
C15 C 0.57701(12) 1.1645(4) 0.61015(9)
H15 H 0.51770 1.21980 0.59890
C16 C 0.60383(11) 0.9647(4) 0.57296(9)
H16 H 0.56260 0.88360 0.53650
#END
