
#######################################################################
#
#                 Cambridge Crystallographic Data Centre
#                                CCDC
#
#######################################################################
#
# If this CIF has been generated from an entry in the Cambridge
# Structural Database, then it will include bibliographic, chemical,
# crystal, experimental, refinement or atomic coordinate data resulting
# from the CCDC's data processing and validation procedures.
#
#######################################################################

data_CSD_CIF_PUGQOY
_audit_creation_date 2009-12-22
_audit_creation_method CSD-ConQuest-V1
_database_code_CSD PUGQOY
_database_code_depnum_ccdc_archive 'CCDC 754371'
_chemical_formula_sum 'C8 H6 N2 O4'
_chemical_formula_moiety
;
C8 H6 N2 O4
;
_journal_coeditor_code "IUCr CI2942"
_journal_coden_Cambridge 1370
_journal_volume 65
_journal_year 2009
_journal_page_first o2809
_journal_name_full 'Acta Crystallogr.,Sect.E:Struct.Rep.Online '
loop_
_publ_author_name
"Lin-Hai Jing"
_chemical_name_systematic
;
(E)-1-Nitro-4-(2-nitroethenyl)benzene
;
_cell_volume   1623.629
_exptl_crystal_colour 'yellow'
_exptl_crystal_density_diffrn 1.588
_exptl_crystal_description 'prism'
_exptl_crystal_preparation 'methanol'
_diffrn_ambient_temperature 93
#These two values have been output from a single CSD field.
_refine_ls_R_factor_gt 0.0354
_refine_ls_wR_factor_gt 0.0354
_symmetry_cell_setting orthorhombic
_symmetry_space_group_name_H-M 'P n a 21'
_symmetry_Int_Tables_number 33
loop_
_symmetry_equiv_pos_site_id
_symmetry_equiv_pos_as_xyz
1 x,y,z
2 -x,-y,1/2+z
3 1/2-x,1/2+y,1/2+z
4 1/2+x,1/2-y,z
_cell_length_a 15.847(4)
_cell_length_b 4.9991(11)
_cell_length_c 20.495(5)
_cell_angle_alpha 90
_cell_angle_beta 90
_cell_angle_gamma 90
_cell_formula_units_Z 8
loop_
_atom_type_symbol
_atom_type_radius_bond
C 0.68
H 0.23
N 0.68
O 0.68
loop_
_atom_site_label
_atom_site_type_symbol
_atom_site_fract_x
_atom_site_fract_y
_atom_site_fract_z
O1 O 0.00934(11) -0.2104(4) 0.37970(9)
O2 O 0.03415(11) -0.1404(4) 0.27702(8)
O3 O 0.40990(11) 1.2126(4) 0.30965(8)
O4 O 0.39197(11) 1.1786(3) 0.41409(8)
N1 N 0.04305(12) -0.0847(4) 0.33513(10)
N2 N 0.37733(12) 1.1093(4) 0.35767(10)
C1 C 0.20144(14) 0.4859(5) 0.32540(12)
C2 C 0.24209(16) 0.6078(5) 0.27306(12)
H1 H 0.22990 0.55060 0.22990
C3 C 0.29987(15) 0.8108(5) 0.28293(12)
H2 H 0.32730 0.89380 0.24700
C4 C 0.31691(14) 0.8909(5) 0.34625(11)
C5 C 0.27766(15) 0.7755(5) 0.39972(12)
H3 H 0.29010 0.83480 0.44270
C6 C 0.21957(15) 0.5709(5) 0.38928(12)
H4 H 0.19220 0.48870 0.42530
C7 C 0.14131(14) 0.2682(5) 0.31123(13)
H5 H 0.13450 0.21780 0.26690
C8 C 0.09642(15) 0.1380(5) 0.35480(12)
H6 H 0.09880 0.18960 0.39940
O5 O 0.69565(11) 0.3595(4) 0.15876(8)
O6 O 0.72313(10) 0.2899(4) 0.05672(9)
O7 O 0.33698(11) 1.6608(4) 0.01863(8)
O8 O 0.31958(11) 1.7112(3) 0.12274(9)
N3 N 0.68809(12) 0.4151(4) 0.10092(10)
N4 N 0.35187(12) 1.6000(4) 0.07547(10)
C9 C 0.52828(13) 0.9813(5) 0.11027(11)
C10 C 0.51094(15) 1.0658(5) 0.04660(12)
H7 H 0.53960 0.98510 0.01100
C11 C 0.45240(14) 1.2658(5) 0.03503(12)
H8 H 0.43980 1.32160 -0.00820
C12 C 0.41275(14) 1.3822(5) 0.08803(11)
C13 C 0.42840(15) 1.3075(5) 0.15165(12)
H9 H 0.40040 1.39280 0.18700
C14 C 0.48642(15) 1.1037(5) 0.16264(12)
H10 H 0.49780 1.04700 0.20600
C15 C 0.58824(14) 0.7649(5) 0.12470(12)
H11 H 0.59460 0.71350 0.16910
C16 C 0.63421(15) 0.6356(5) 0.08075(11)
H12 H 0.63200 0.68710 0.03620
#END
