
#######################################################################
#
#                 Cambridge Crystallographic Data Centre
#                                CCDC
#
#######################################################################
#
# If this CIF has been generated from an entry in the Cambridge
# Structural Database, then it will include bibliographic, chemical,
# crystal, experimental, refinement or atomic coordinate data resulting
# from the CCDC's data processing and validation procedures.
#
#######################################################################

data_CSD_CIF_PUGWIY
_audit_creation_date 2009-12-22
_audit_creation_method CSD-ConQuest-V1
_database_code_CSD PUGWIY
_database_code_depnum_ccdc_archive 'CCDC 754420'
_chemical_formula_sum 'C15 H13 N3 O5'
_chemical_formula_moiety
;
C15 H13 N3 O5
;
_journal_coeditor_code "IUCr WN2358"
_journal_coden_Cambridge 1370
_journal_volume 65
_journal_year 2009
_journal_page_first o2864
_journal_name_full 'Acta Crystallogr.,Sect.E:Struct.Rep.Online '
loop_
_publ_author_name
"De-Suo Yang"
_chemical_name_systematic
;
N'-(5-Hydroxy-2-nitrobenzylidene)-2-methoxybenzohydrazide
;
_cell_volume   1419.603
_exptl_crystal_colour 'colorless'
_exptl_crystal_density_diffrn 1.475
_exptl_crystal_description 'block'
_diffrn_ambient_temperature 298
#These two values have been output from a single CSD field.
_refine_ls_R_factor_gt 0.0468
_refine_ls_wR_factor_gt 0.0468
_symmetry_cell_setting triclinic
_symmetry_space_group_name_H-M 'P -1'
_symmetry_Int_Tables_number 2
loop_
_symmetry_equiv_pos_site_id
_symmetry_equiv_pos_as_xyz
1 x,y,z
2 -x,-y,-z
_cell_length_a 8.7540(9)
_cell_length_b 9.0529(9)
_cell_length_c 18.2159(17)
_cell_angle_alpha 86.902(5)
_cell_angle_beta 83.023(5)
_cell_angle_gamma 82.509(5)
_cell_formula_units_Z 4
loop_
_atom_type_symbol
_atom_type_radius_bond
C 0.68
H 0.23
N 0.68
O 0.68
loop_
_atom_site_label
_atom_site_type_symbol
_atom_site_fract_x
_atom_site_fract_y
_atom_site_fract_z
O1 O 0.43038(17) 0.56766(15) 0.20225(9)
O2 O 0.51734(15) 0.97729(14) 0.11083(7)
O3 O 0.04575(17) 0.86066(17) -0.04665(8)
O4 O -0.19271(18) 0.88756(16) -0.06698(8)
O5 O -0.22760(16) 0.36644(15) 0.16573(7)
H1 H -0.17930 0.36390 0.20170
N1 N 0.20958(17) 0.68586(16) 0.12448(8)
N2 N 0.32509(17) 0.76663(16) 0.13956(9)
N3 N -0.08536(19) 0.82546(17) -0.03512(8)
C1 C -0.02579(19) 0.67167(19) 0.07731(9)
C2 C -0.1160(2) 0.70609(19) 0.01894(9)
C3 C -0.2360(2) 0.6249(2) 0.00901(10)
H2 H -0.29260 0.64850 -0.03100
C4 C -0.2708(2) 0.5109(2) 0.05763(10)
H3 H -0.35050 0.45640 0.05070
C5 C -0.1862(2) 0.47659(19) 0.11782(9)
C6 C -0.06376(19) 0.55545(19) 0.12606(9)
H4 H -0.00570 0.52960 0.16530
C7 C 0.1012(2) 0.7541(2) 0.0919(1)
H5 H 0.10110 0.85420 0.07730
C8 C 0.4347(2) 0.6969(2) 0.17976(10)
C9 C 0.56063(19) 0.7798(2) 0.19878(10)
C10 C 0.6016(2) 0.9147(2) 0.16516(10)
C11 C 0.7241(2) 0.9775(2) 0.18779(11)
H6 H 0.75100 1.06730 0.16610
C12 C 0.8050(2) 0.9064(3) 0.24229(12)
H7 H 0.88650 0.94920 0.25730
C13 C 0.7685(2) 0.7741(3) 0.27496(12)
H8 H 0.82500 0.72670 0.31150
C14 C 0.6473(2) 0.7120(2) 0.25317(10)
H9 H 0.62240 0.62200 0.27540
C15 C 0.5651(2) 1.1071(2) 0.07190(12)
H10 H 0.55490 1.18700 0.10540
H11 H 0.50110 1.13530 0.03300
H12 H 0.67140 1.08660 0.05110
H13 H 0.331(3) 0.8598(14) 0.1214(12)
O6 O 0.93551(17) 0.39747(18) 0.28075(8)
O7 O 1.02232(16) 0.21547(16) 0.48449(7)
O8 O 0.54241(17) -0.09248(17) 0.43071(8)
O9 O 0.30249(18) -0.12659(17) 0.44316(8)
O10 O 0.27735(16) 0.33708(14) 0.18156(7)
H14 H 0.32490 0.40940 0.18140
N4 N 0.71155(17) 0.24869(17) 0.34137(8)
N5 N 0.82807(18) 0.27753(18) 0.38088(8)
N6 N 0.41209(19) -0.06591(17) 0.41211(8)
C16 C 0.47579(19) 0.15649(19) 0.33463(9)
C17 C 0.3836(2) 0.04192(19) 0.35190(9)
C18 C 0.2637(2) 0.0237(2) 0.31102(10)
H15 H 0.20520 -0.05470 0.32310
C19 C 0.2313(2) 0.1207(2) 0.25315(10)
H16 H 0.15250 0.10710 0.22510
C20 C 0.3170(2) 0.23981(19) 0.23648(9)
C21 C 0.43944(19) 0.25484(19) 0.27658(9)
H17 H 0.49830 0.33290 0.26410
C22 C 0.6037(2) 0.1839(2) 0.3758(1)
H18 H 0.60480 0.15440 0.42550
C23 C 0.9387(2) 0.3552(2) 0.34549(10)
C24 C 1.0637(2) 0.3942(2) 0.38721(10)
C25 C 1.1028(2) 0.3282(2) 0.45480(11)
C26 C 1.2213(2) 0.3780(3) 0.48783(13)
H19 H 1.24810 0.33510 0.53280
C27 C 1.2983(3) 0.4902(3) 0.45383(16)
H20 H 1.37510 0.52460 0.47700
C28 C 1.2647(3) 0.5530(3) 0.38670(15)
H21 H 1.31990 0.62720 0.36370
C29 C 1.1482(2) 0.5044(2) 0.35392(12)
H22 H 1.12520 0.54640 0.30820
C30 C 1.0611(3) 0.1437(3) 0.55204(11)
H23 H 1.16980 0.10730 0.54720
H24 H 1.00190 0.06170 0.56370
H25 H 1.03800 0.21340 0.59090
H26 H 0.833(3) 0.243(2) 0.4276(7)
#END
