
#######################################################################
#
#                 Cambridge Crystallographic Data Centre
#                                CCDC
#
#######################################################################
#
# If this CIF has been generated from an entry in the Cambridge
# Structural Database, then it will include bibliographic, chemical,
# crystal, experimental, refinement or atomic coordinate data resulting
# from the CCDC's data processing and validation procedures.
#
#######################################################################

data_CSD_CIF_PUGYIA
_audit_creation_date 2009-12-22
_audit_creation_method CSD-ConQuest-V1
_database_code_CSD PUGYIA
_database_code_depnum_ccdc_archive 'CCDC 754431'
_chemical_formula_sum 'C12 H14 N2 O3'
_chemical_formula_moiety
;
C12 H14 N2 O3
;
_journal_coeditor_code "IUCr NG2664"
_journal_coden_Cambridge 1370
_journal_volume 65
_journal_year 2009
_journal_page_first o2880
_journal_name_full 'Acta Crystallogr.,Sect.E:Struct.Rep.Online '
loop_
_publ_author_name
"A.J.N'Gouan"
"F.Mansilla-Koblavi"
"A.Timotou"
"A.Adjou"
"N.Ebby"
_chemical_name_systematic
;
5-Nitro-2-(piperidin-1-yl)benzaldehyde
;
_chemical_melting_point 388
_cell_volume    571.359
_exptl_crystal_colour 'orange'
_exptl_crystal_density_diffrn 1.362
_exptl_crystal_description 'prism'
_diffrn_ambient_temperature 295
#These two values have been output from a single CSD field.
_refine_ls_R_factor_gt 0.0453
_refine_ls_wR_factor_gt 0.0453
_symmetry_cell_setting triclinic
_symmetry_space_group_name_H-M 'P -1'
_symmetry_Int_Tables_number 2
loop_
_symmetry_equiv_pos_site_id
_symmetry_equiv_pos_as_xyz
1 x,y,z
2 -x,-y,-z
_cell_length_a 5.686(2)
_cell_length_b 10.102(5)
_cell_length_c 10.221(4)
_cell_angle_alpha 80.767(2)
_cell_angle_beta 80.733(3)
_cell_angle_gamma 86.034(2)
_cell_formula_units_Z 2
loop_
_atom_type_symbol
_atom_type_radius_bond
C 0.68
H 0.23
N 0.68
O 0.68
loop_
_atom_site_label
_atom_site_type_symbol
_atom_site_fract_x
_atom_site_fract_y
_atom_site_fract_z
N1 N -0.2540(2) -0.19297(12) 0.65442(13)
N2 N 0.1530(2) 0.26552(11) 0.75678(11)
C1 C -0.1479(2) -0.07454(13) 0.68028(13)
C2 C 0.0235(2) -0.08957(12) 0.76296(12)
C3 C 0.1255(2) 0.02260(12) 0.78871(12)
C4 C 0.0534(2) 0.15293(12) 0.73040(12)
C5 C -0.1174(3) 0.16295(13) 0.64329(14)
C6 C -0.2181(3) 0.05102(14) 0.61906(14)
C7 C 0.3268(3) -0.00219(15) 0.86587(14)
C8 C 0.1313(3) 0.28678(15) 0.89744(13)
C9 C 0.3194(3) 0.37797(17) 0.91473(16)
C10 C 0.3053(4) 0.51042(17) 0.82255(17)
C11 C 0.3178(3) 0.48655(15) 0.67935(16)
C12 C 0.1293(3) 0.39255(14) 0.66607(15)
O1 O -0.1742(2) -0.30357(10) 0.69841(14)
O2 O -0.4183(2) -0.17831(12) 0.58925(14)
O3 O 0.3735(2) -0.10961(12) 0.92869(13)
H1 H 0.07750 -0.17700 0.80030
H2 H -0.16910 0.24820 0.60130
H3 H -0.33660 0.06040 0.56080
H4 H 0.42640 0.07060 0.86200
H5 H 0.14230 0.19920 0.95490
H6 H -0.02580 0.32950 0.92320
H7 H 0.30190 0.39010 1.00890
H8 H 0.47120 0.33360 0.89260
H9 H 0.42890 0.56450 0.82980
H10 H 0.15070 0.55720 0.85150
H11 H 0.29520 0.57120 0.62060
H12 H 0.47500 0.44650 0.65030
H13 H -0.03160 0.43280 0.68800
H14 H 0.14620 0.37340 0.57380
#END
