
#######################################################################
#
#                 Cambridge Crystallographic Data Centre
#                                CCDC
#
#######################################################################
#
# If this CIF has been generated from an entry in the Cambridge
# Structural Database, then it will include bibliographic, chemical,
# crystal, experimental, refinement or atomic coordinate data resulting
# from the CCDC's data processing and validation procedures.
#
#######################################################################

data_CSD_CIF_PUHDUS
_audit_creation_date 2009-12-22
_audit_creation_method CSD-ConQuest-V1
_database_code_CSD PUHDUS
_database_code_depnum_ccdc_archive 'CCDC 754453'
_chemical_formula_sum 'C3 H5 N5 O2'
_chemical_formula_moiety
;
C3 H5 N5 O2
;
_journal_coeditor_code "IUCr LH2924"
_journal_coden_Cambridge 1370
_journal_volume 65
_journal_year 2009
_journal_page_first o2911
_journal_name_full 'Acta Crystallogr.,Sect.E:Struct.Rep.Online '
loop_
_publ_author_name
"Hui Zhang"
"Fang-fang Jian"
_chemical_name_systematic
;
4-Amino-N'-hydroxy-1,2,5-oxadiazole-3-carboximidamide
;
_cell_volume   1711.014
_exptl_crystal_colour 'yellow'
_exptl_crystal_density_diffrn 1.667
_exptl_crystal_description 'bar'
_exptl_crystal_preparation 'water/ethanol'
_diffrn_ambient_temperature 293
#These two values have been output from a single CSD field.
_refine_ls_R_factor_gt 0.0414
_refine_ls_wR_factor_gt 0.0414
_symmetry_cell_setting monoclinic
_symmetry_space_group_name_H-M 'P 21/c'
_symmetry_Int_Tables_number 14
loop_
_symmetry_equiv_pos_site_id
_symmetry_equiv_pos_as_xyz
1 x,y,z
2 -x,1/2+y,1/2-z
3 -x,-y,-z
4 x,-1/2-y,-1/2+z
_cell_length_a 7.6514(15)
_cell_length_b 11.712(2)
_cell_length_c 19.218(4)
_cell_angle_alpha 90
_cell_angle_beta 96.53(3)
_cell_angle_gamma 90
_cell_formula_units_Z 12
loop_
_atom_type_symbol
_atom_type_radius_bond
C 0.68
H 0.23
N 0.68
O 0.68
loop_
_atom_site_label
_atom_site_type_symbol
_atom_site_fract_x
_atom_site_fract_y
_atom_site_fract_z
O1 O 0.33315(11) 0.21704(8) 0.19898(5)
H1 H 0.34660 0.26710 0.22890
N1 N 0.50875(13) 0.20169(9) 0.18228(5)
O2 O 0.87029(12) 0.05568(9) 0.03919(5)
N2 N 0.69431(13) 0.05829(9) 0.04686(6)
C1 C 0.50579(14) 0.14024(9) 0.12631(6)
C2 C 0.67858(15) 0.11797(9) 0.10272(6)
N3 N 0.36404(14) 0.0958(1) 0.08818(6)
H2 H 0.26080 0.10730 0.10040
H3 H 0.37650 0.05580 0.05150
N4 N 0.89742(14) 0.21284(9) 0.19346(5)
H4 H 0.99800 0.24640 0.19750
H5 H 0.81220 0.25340 0.20560
C3 C 0.85080(14) 0.15425(10) 0.13211(6)
N5 N 0.96673(14) 0.1160(1) 0.09296(6)
O3 O 0.32799(11) 0.39453(7) 0.29805(4)
H6 H 0.30730 0.43900 0.26520
N6 N 0.15351(12) 0.37447(9) 0.31574(5)
C4 C 0.15895(14) 0.31171(9) 0.37121(6)
O4 O -0.21344(12) 0.22039(9) 0.45154(5)
N7 N 0.30087(14) 0.26718(10) 0.40878(6)
H7 H 0.40390 0.27950 0.39660
H8 H 0.28890 0.22630 0.44510
N8 N -0.03621(13) 0.22429(9) 0.44691(6)
N9 N -0.22143(14) 0.38907(10) 0.30266(6)
H9 H -0.32870 0.40430 0.28700
H10 H -0.13700 0.41400 0.28090
C5 C -0.01584(14) 0.28737(10) 0.39297(6)
C6 C -0.18545(15) 0.32568(10) 0.36160(6)
N10 N -0.30561(14) 0.28438(10) 0.39787(6)
O5 O -0.00634(11) 0.55083(8) 0.19706(5)
H11 H 0.01380 0.59630 0.22940
O6 O 0.52696(12) 0.37960(9) 0.03821(5)
N11 N 0.16666(12) 0.52895(9) 0.17977(5)
C7 C 0.16061(14) 0.47025(9) 0.12245(6)
C8 C 0.33383(14) 0.44556(9) 0.09947(6)
C9 C 0.50497(14) 0.48252(10) 0.12947(6)
N12 N 0.54677(14) 0.54437(10) 0.18905(6)
H12 H 0.65510 0.55850 0.20350
H13 H 0.46480 0.56930 0.21220
N13 N 0.01713(13) 0.4308(1) 0.08336(6)
H14 H -0.08560 0.44390 0.09570
H15 H 0.02770 0.39240 0.04590
N14 N 0.35054(13) 0.38407(9) 0.04455(6)
N15 N 0.62218(14) 0.44196(10) 0.09165(6)
#END
