
#######################################################################
#
#                 Cambridge Crystallographic Data Centre
#                                CCDC
#
#######################################################################
#
# If this CIF has been generated from an entry in the Cambridge
# Structural Database, then it will include bibliographic, chemical,
# crystal, experimental, refinement or atomic coordinate data resulting
# from the CCDC's data processing and validation procedures.
#
#######################################################################

data_CSD_CIF_PUHFEE02
_audit_creation_date 2012-07-11
_audit_creation_method CSD-ConQuest-V1
_database_code_CSD PUHFEE02
_database_code_depnum_ccdc_archive 'CCDC 813967'
_chemical_formula_sum 'C9 H8 N2 O4'
_chemical_formula_moiety
;
C9 H8 N2 O4
;
_journal_coden_Cambridge 1090
_journal_volume 22
_journal_year 2011
_journal_page_first 2099
_journal_name_full 'Tetrahedron:Asymm. '
loop_
_publ_author_name
"P.S.Prathima"
"K.Srinivas"
"K.Balaswamy"
"R.Arundhathi"
"G.N.Reddy"
"B.Sridhar"
"M.M.Rao"
"P.R.Likhar"
_chemical_name_systematic
;
3-Hydroxy-3-(nitromethyl)-1,3-dihydro-2H-indol-2-one
;
_chemical_name_common
;
'3-hydroxy-3-(nitromethyl)indolin-2-one'
;
_cell_volume   1802.735
_exptl_crystal_colour 'colorless'
_exptl_crystal_density_diffrn 1.534
_exptl_crystal_description 'block'
_diffrn_ambient_temperature 294
#These two values have been output from a single CSD field.
_refine_ls_R_factor_gt 0.033
_refine_ls_wR_factor_gt 0.033
_symmetry_cell_setting orthorhombic
_symmetry_space_group_name_H-M 'P b c a'
_symmetry_Int_Tables_number 61
loop_
_symmetry_equiv_pos_site_id
_symmetry_equiv_pos_as_xyz
1 x,y,z
2 1/2-x,-y,1/2+z
3 -x,1/2+y,1/2-z
4 1/2+x,1/2-y,-z
5 -x,-y,-z
6 -1/2+x,y,-1/2-z
7 x,-1/2-y,-1/2+z
8 -1/2-x,-1/2+y,z
_cell_length_a 10.4930(5)
_cell_length_b 7.3821(3)
_cell_length_c 23.2730(11)
_cell_angle_alpha 90
_cell_angle_beta 90
_cell_angle_gamma 90
_cell_formula_units_Z 8
loop_
_atom_type_symbol
_atom_type_radius_bond
C 0.68
H 0.23
N 0.68
O 0.68
loop_
_atom_site_label
_atom_site_type_symbol
_atom_site_fract_x
_atom_site_fract_y
_atom_site_fract_z
C1 C 0.96807(12) 0.10243(17) 0.58683(6)
C2 C 0.84592(12) 0.17031(18) 0.55553(6)
C3 C 0.81116(12) 0.20252(17) 0.65179(6)
C4 C 0.75424(14) 0.2419(2) 0.70364(6)
H1 H 0.67380 0.29460 0.70540
C5 C 0.82154(16) 0.1998(2) 0.75308(7)
H2 H 0.78510 0.22440 0.78870
C6 C 0.94124(15) 0.1222(2) 0.75093(6)
H3 H 0.98340 0.09270 0.78480
C7 C 0.99888(14) 0.08797(19) 0.69835(6)
H4 H 1.08040 0.03880 0.69660
C8 C 0.93277(12) 0.12845(17) 0.64882(6)
C9 C 1.08804(13) 0.20564(18) 0.56835(6)
H5 H 1.16280 0.14530 0.58370
H6 H 1.09430 0.20470 0.52680
N1 N 1.08493(14) 0.39552(18) 0.58903(6)
O1 O 0.99490(15) 0.48772(19) 0.57459(9)
O2 O 1.17151(15) 0.4475(2) 0.61946(6)
O3 O 0.98373(10) -0.08423(13) 0.57415(5)
O4 O 0.82862(10) 0.16589(15) 0.50357(4)
N2 N 0.76229(11) 0.22483(16) 0.59580(5)
H7 H 1.0415(19) -0.099(3) 0.5511(8)
H8 H 0.6851(18) 0.261(2) 0.5882(7)
#END
