
#######################################################################
#
#                 Cambridge Crystallographic Data Centre
#                                CCDC
#
#######################################################################
#
# If this CIF has been generated from an entry in the Cambridge
# Structural Database, then it will include bibliographic, chemical,
# crystal, experimental, refinement or atomic coordinate data resulting
# from the CCDC's data processing and validation procedures.
#
#######################################################################

data_CSD_CIF_PUHWOG
_audit_creation_date 2015-03-20
_audit_creation_method CSD-ConQuest-V1
_database_code_CSD PUHWOG
_database_code_depnum_ccdc_archive 'CCDC 1055142'
_chemical_formula_sum 'C12 H16 N2 O3'
_chemical_formula_moiety
;
C12 H16 N2 O3
;
_journal_coden_Cambridge 1078
_journal_year 2015
_journal_name_full 'CSD Communication(Private Communication) '
loop_
_publ_author_name
"Y.Durust"
"F.R.Fronczek"
_chemical_name_systematic
;
2-methyloctahydrocyclopenta[4,5]pyrrolo[1,2-b]pyrrolo[3,4-d][1,2]oxazole-1,3(2
H,3aH)-dione
;
_cell_volume   1155.358
_exptl_crystal_colour 'colorless'
_exptl_crystal_density_diffrn 1.358
_exptl_crystal_description 'prism'
_diffrn_ambient_temperature 297
#These two values have been output from a single CSD field.
_refine_ls_R_factor_gt 0.0495
_refine_ls_wR_factor_gt 0.0495
_symmetry_cell_setting monoclinic
_symmetry_space_group_name_H-M 'C c'
_symmetry_Int_Tables_number 9
loop_
_symmetry_equiv_pos_site_id
_symmetry_equiv_pos_as_xyz
1 x,y,z
2 x,-y,1/2+z
3 1/2+x,1/2+y,z
4 1/2+x,1/2-y,1/2+z
_cell_length_a 6.3364(6)
_cell_length_b 20.3808(13)
_cell_length_c 8.9845(10)
_cell_angle_alpha 90
_cell_angle_beta 95.272(9)
_cell_angle_gamma 90
_cell_formula_units_Z 4
loop_
_atom_type_symbol
_atom_type_radius_bond
C 0.68
H 0.23
N 0.68
O 0.68
loop_
_atom_site_label
_atom_site_type_symbol
_atom_site_fract_x
_atom_site_fract_y
_atom_site_fract_z
O1 O 0.5001(2) 0.44977(6) 0.50022(16)
O2 O 0.1536(2) 0.48588(9) 0.2622(2)
O3 O 0.6452(4) 0.36130(12) 0.0590(2)
N1 N 0.5212(2) 0.37708(7) 0.48889(18)
N2 N 0.3650(3) 0.41804(8) 0.13802(19)
C1 C 0.5214(4) 0.28222(12) 0.6619(3)
H1 H 0.38530 0.27740 0.70210
H2 H 0.51560 0.25990 0.56630
C2 C 0.6947(6) 0.25436(15) 0.7678(4)
H3 H 0.70700 0.20730 0.75530
H4 H 0.67140 0.26390 0.87080
C3 C 0.8903(5) 0.2901(2) 0.7213(4)
H5 H 0.94390 0.26830 0.63650
H6 H 1.00130 0.29070 0.80310
C4 C 0.8199(4) 0.36035(13) 0.6793(3)
H7 H 0.85480 0.39030 0.76340
C5 C 0.5752(3) 0.35503(10) 0.6437(2)
H8 H 0.50200 0.38190 0.71340
C6 C 0.9006(3) 0.38740(15) 0.5374(3)
H9 H 1.03070 0.36570 0.51620
H10 H 0.92660 0.43420 0.54610
C7 C 0.7210(3) 0.37280(9) 0.4145(2)
H11 H 0.73770 0.32890 0.37240
C8 C 0.6880(3) 0.42392(10) 0.2906(2)
H12 H 0.82000 0.44630 0.27210
C9 C 0.5268(3) 0.47046(8) 0.3528(2)
H13 H 0.57540 0.51610 0.35120
C10 C 0.3235(3) 0.46085(8) 0.2491(2)
C11 C 0.5734(3) 0.39613(11) 0.1486(2)
C12 C 0.2051(4) 0.39834(14) 0.0196(3)
H14 H 0.09590 0.37380 0.06180
H15 H 0.26950 0.37160 -0.05160
H16 H 0.14440 0.43670 -0.02950
#END
