
#######################################################################
#
#                 Cambridge Crystallographic Data Centre
#                                CCDC
#
#######################################################################
#
# If this CIF has been generated from an entry in the Cambridge
# Structural Database, then it will include bibliographic, chemical,
# crystal, experimental, refinement or atomic coordinate data resulting
# from the CCDC's data processing and validation procedures.
#
#######################################################################

data_CSD_CIF_PUHYUN
_audit_creation_date 2010-06-03
_audit_creation_method CSD-ConQuest-V1
_database_code_CSD PUHYUN
_database_code_depnum_ccdc_archive 'CCDC 769919'
_chemical_formula_sum 'C27 H27 N7 O6'
_chemical_formula_moiety
;
C27 H27 N7 O6
;
_journal_coeditor_code "IUCr BT5175"
_journal_coden_Cambridge 1370
_journal_volume 66
_journal_year 2010
_journal_page_first o501
_journal_name_full 'Acta Crystallogr.,Sect.E:Struct.Rep.Online '
loop_
_publ_author_name
"M.H.Habibi"
"N.Abarghooei-Shirazi"
"Yu.Yamane"
"T.Suzuki"
_chemical_name_systematic
;
N,N'-bis(3-Nitrobenzylidene)-2,2'-[2-(3-nitrophenyl)imidazolidine-1,3-diyl]die
thanamine
;
_cell_volume   2687.812
_exptl_crystal_colour 'pale yellow'
_exptl_crystal_density_diffrn 1.348
_exptl_crystal_description 'columnar'
_diffrn_ambient_temperature 193
#These two values have been output from a single CSD field.
_refine_ls_R_factor_gt 0.0353
_refine_ls_wR_factor_gt 0.0353
_symmetry_cell_setting monoclinic
_symmetry_space_group_name_H-M 'P n'
_symmetry_Int_Tables_number 7
loop_
_symmetry_equiv_pos_site_id
_symmetry_equiv_pos_as_xyz
1 x,y,z
2 1/2+x,-y,1/2+z
_cell_length_a 13.3411(12)
_cell_length_b 10.4347(8)
_cell_length_c 19.8517(17)
_cell_angle_alpha 90
_cell_angle_beta 103.446(3)
_cell_angle_gamma 90
_cell_formula_units_Z 4
loop_
_atom_type_symbol
_atom_type_radius_bond
C 0.68
H 0.23
N 0.68
O 0.68
loop_
_atom_site_label
_atom_site_type_symbol
_atom_site_fract_x
_atom_site_fract_y
_atom_site_fract_z
O1 O 0.0261(2) 0.4566(3) 0.46260(13)
O2 O 0.1679(2) 0.4288(3) 0.53838(12)
O3 O 0.0613(2) -0.2237(3) 0.39419(13)
O4 O 0.1978(2) -0.2651(3) 0.47154(12)
O5 O -0.0390(4) 0.0881(4) 0.40416(15)
O6 O 0.0861(4) 0.0839(4) 0.35339(15)
O7 O 0.5520(2) 0.4584(3) 0.46114(12)
O8 O 0.6983(2) 0.3902(3) 0.52061(12)
O9 O 0.5988(2) -0.1978(3) 0.39002(12)
O10 O 0.7406(2) -0.2761(3) 0.44742(12)
O11 O 0.5285(2) 0.1248(2) 0.4171(1)
O12 O 0.62082(19) 0.0972(3) 0.34332(11)
N1 N 0.1186(3) 0.4350(3) 0.47827(14)
N2 N 0.0276(2) 0.4744(2) 0.20934(12)
N3 N -0.01869(19) 0.2649(2) 0.10578(11)
N4 N -0.00579(18) 0.05332(19) 0.08514(11)
N5 N 0.0705(2) -0.2008(2) 0.14601(12)
N6 N 0.1529(2) -0.2459(3) 0.41122(13)
N7 N -0.0057(4) 0.0868(3) 0.35173(16)
N8 N 0.6402(3) 0.4212(3) 0.46565(14)
N9 N 0.4868(2) 0.4884(2) 0.20265(11)
N10 N 0.42653(18) 0.27230(19) 0.10836(11)
N11 N 0.43561(19) 0.0591(2) 0.08579(11)
N12 N 0.5201(3) -0.1971(2) 0.13218(12)
N13 N 0.6844(2) -0.2400(3) 0.39346(13)
N14 N 0.5375(2) 0.1073(2) 0.35797(12)
C1 C 0.1207(2) 0.4378(3) 0.35527(15)
H1 H 0.05030 0.46250 0.34480
C2 C 0.1723(3) 0.4170(3) 0.42276(16)
C3 C 0.2741(3) 0.3794(3) 0.44019(18)
H2 H 0.30830 0.36490 0.48710
C4 C 0.3250(3) 0.3634(3) 0.3877(2)
H3 H 0.39510 0.33700 0.39850
C5 C 0.2750(3) 0.3854(3) 0.31987(18)
H4 H 0.31150 0.37510 0.28440
C6 C 0.1723(2) 0.4224(3) 0.30228(15)
C7 C 0.1219(3) 0.4467(3) 0.22959(15)
H5 H 0.16220 0.44140 0.19600
C8 C -0.0121(3) 0.4944(3) 0.13518(15)
H6 H 0.04610 0.50420 0.11250
H7 H -0.05350 0.57410 0.12740
C9 C -0.0786(2) 0.3817(3) 0.10338(15)
H8 H -0.13350 0.36810 0.12870
H9 H -0.11210 0.40180 0.05460
C10 C 0.0469(2) 0.2563(3) 0.05557(14)
H10 H 0.11890 0.28000 0.07740
H11 H 0.02100 0.31330 0.01540
C11 C 0.0395(2) 0.1166(2) 0.03351(14)
H12 H -0.00520 0.10660 -0.01360
H13 H 0.10850 0.08110 0.03410
C12 C -0.0516(2) -0.0713(3) 0.06384(14)
H14 H -0.08920 -0.06710 0.01460
H15 H -0.10210 -0.09220 0.09170
C13 C 0.0282(3) -0.1764(3) 0.07264(14)
H16 H -0.00370 -0.25570 0.04980
H17 H 0.08430 -0.15070 0.05040
C14 C 0.1664(3) -0.2193(3) 0.16574(15)
H18 H 0.20710 -0.21770 0.13240
C15 C 0.2170(2) -0.2432(3) 0.23866(15)
C16 C 0.3208(3) -0.2737(3) 0.25746(18)
H19 H 0.35930 -0.27990 0.22290
C17 C 0.3691(3) -0.2950(3) 0.3262(2)
H20 H 0.44020 -0.31630 0.33820
C18 C 0.3153(3) -0.2857(3) 0.37732(17)
H21 H 0.34820 -0.30050 0.42450
C19 C 0.2116(2) -0.2541(3) 0.35782(15)
C20 C 0.1617(2) -0.2336(2) 0.29012(14)
H22 H 0.09040 -0.21320 0.27840
C21 C -0.0790(2) 0.1478(2) 0.09801(14)
H23 H -0.13870 0.15450 0.05700
C22 C -0.1167(3) 0.1193(3) 0.16267(15)
C23 C -0.2200(3) 0.0999(3) 0.1606(2)
H24 H -0.26900 0.10380 0.11750
C24 C -0.2533(3) 0.0747(3) 0.2207(2)
H25 H -0.32440 0.06130 0.21840
C25 C -0.1831(4) 0.0692(3) 0.2832(2)
H26 H -0.20480 0.05270 0.32470
C26 C -0.0809(3) 0.0882(3) 0.28462(17)
C27 C -0.0458(3) 0.1124(3) 0.22580(16)
H27 H 0.02570 0.12410 0.22850
C28 C 0.6116(2) 0.4386(3) 0.33961(14)
H28 H 0.54160 0.45930 0.33750
C29 C 0.6790(3) 0.4144(3) 0.40212(15)
C30 C 0.7810(3) 0.3836(3) 0.40797(19)
H29 H 0.82560 0.36830 0.45200
C31 C 0.8168(3) 0.3758(3) 0.3483(2)
H30 H 0.88670 0.35370 0.35090
C32 C 0.7508(3) 0.3999(3) 0.28452(19)
H31 H 0.77630 0.39430 0.24370
C33 C 0.6485(2) 0.4322(3) 0.27917(15)
C34 C 0.5801(3) 0.4583(3) 0.21081(14)
H32 H 0.60790 0.45200 0.17100
C35 C 0.4290(3) 0.5037(3) 0.13124(14)
H33 H 0.47730 0.51620 0.10070
H34 H 0.38420 0.58030 0.12730
C36 C 0.3637(2) 0.3855(2) 0.10880(15)
H35 H 0.31770 0.37170 0.14080
H36 H 0.31990 0.39950 0.06180
C37 C 0.4791(3) 0.2630(3) 0.05098(14)
H37 H 0.55270 0.28660 0.06680
H38 H 0.44630 0.32020 0.01230
C38 C 0.4677(3) 0.1237(3) 0.02864(14)
H39 H 0.41490 0.11400 -0.01520
H40 H 0.53400 0.08880 0.02240
C39 C 0.3833(3) -0.0623(3) 0.06658(15)
H41 H 0.33480 -0.05320 0.02080
H42 H 0.34260 -0.08430 0.10080
C40 C 0.4574(3) -0.1695(3) 0.06335(15)
H43 H 0.41860 -0.24720 0.04410
H44 H 0.50260 -0.14500 0.03230
C41 C 0.6160(3) -0.2077(3) 0.13940(15)
H45 H 0.64380 -0.19780 0.09980
C42 C 0.6867(3) -0.2344(3) 0.20633(15)
C43 C 0.7885(3) -0.2686(3) 0.21040(19)
H46 H 0.81250 -0.27480 0.16910
C44 C 0.8556(3) -0.2937(3) 0.2732(2)
H47 H 0.92470 -0.31770 0.27460
C45 C 0.8224(3) -0.2840(3) 0.33372(18)
H48 H 0.86790 -0.30050 0.37730
C46 C 0.7211(2) -0.2496(3) 0.32922(15)
C47 C 0.6526(2) -0.2248(2) 0.26753(14)
H49 H 0.58330 -0.20170 0.26640
C48 C 0.3706(2) 0.1528(2) 0.11034(13)
H50 H 0.30090 0.15700 0.07810
C49 C 0.3613(2) 0.1228(2) 0.18271(14)
C50 C 0.2689(3) 0.0929(3) 0.19902(16)
H51 H 0.20770 0.09040 0.16320
C51 C 0.2637(3) 0.0662(3) 0.26671(17)
H52 H 0.19930 0.04570 0.27670
C52 C 0.3514(3) 0.0695(3) 0.31922(15)
H53 H 0.34850 0.05220 0.36570
C53 C 0.4438(2) 0.0987(3) 0.30269(14)
C54 C 0.4506(2) 0.1249(3) 0.23579(14)
H54 H 0.51530 0.14420 0.22600
#END
