
#######################################################################
#
#                 Cambridge Crystallographic Data Centre
#                                CCDC
#
#######################################################################
#
# If this CIF has been generated from an entry in the Cambridge
# Structural Database, then it will include bibliographic, chemical,
# crystal, experimental, refinement or atomic coordinate data resulting
# from the CCDC's data processing and validation procedures.
#
#######################################################################

data_CSD_CIF_PUJDUU
_audit_creation_date 2010-06-03
_audit_creation_method CSD-ConQuest-V1
_database_code_CSD PUJDUU
_database_code_depnum_ccdc_archive 'CCDC 769939'
_chemical_formula_sum 'C22 H28 N2 O6'
_chemical_formula_moiety
;
C22 H28 N2 O6
;
_journal_coeditor_code "IUCr TK2623"
_journal_coden_Cambridge 1370
_journal_volume 66
_journal_year 2010
_journal_page_first o529
_journal_name_full 'Acta Crystallogr.,Sect.E:Struct.Rep.Online '
loop_
_publ_author_name
"T.Akhter"
"H.M.Siddiqi"
"Z.Akhter"
"M.Bolte"
_chemical_name_systematic
;
1,1'-(Decane-1,10-diylbis(oxy))bis(4-nitrobenzene)
;
_chemical_melting_point 351
_cell_volume   2125.732
_exptl_crystal_colour 'colorless'
_exptl_crystal_density_diffrn 1.301
_exptl_special_details
;
Melting point range 351-352K

;
_exptl_crystal_description 'block'
_exptl_crystal_preparation 'ethanol'
_diffrn_ambient_temperature 173
_refine_special_details
;
The central methylene groups of two molecules are equally disordered over two 
sites by symmetry.
;
#These two values have been output from a single CSD field.
_refine_ls_R_factor_gt 0.0538
_refine_ls_wR_factor_gt 0.0538
_symmetry_cell_setting triclinic
_symmetry_space_group_name_H-M 'P -1'
_symmetry_Int_Tables_number 2
loop_
_symmetry_equiv_pos_site_id
_symmetry_equiv_pos_as_xyz
1 x,y,z
2 -x,-y,-z
_cell_length_a 10.1806(10)
_cell_length_b 14.9460(13)
_cell_length_c 16.1127(15)
_cell_angle_alpha 114.370(7)
_cell_angle_beta 94.322(8)
_cell_angle_gamma 103.861(8)
_cell_formula_units_Z 4
loop_
_atom_type_symbol
_atom_type_radius_bond
C 0.68
H 0.23
N 0.68
O 0.68
loop_
_atom_site_label
_atom_site_type_symbol
_atom_site_fract_x
_atom_site_fract_y
_atom_site_fract_z
N1 N -0.577(11) -0.282(8) 0.186(7)
O1 O -0.076(8) -0.096(6) 0.125(6)
O2 O -0.604(10) -0.371(7) 0.175(7)
O3 O -0.658(10) -0.231(7) 0.209(7)
C1 C 0.019(12) -0.153(8) 0.086(9)
H1 H -0.02700 -0.21180 0.02500
H2 H 0.05260 -0.17910 0.12790
C2 C 0.137(12) -0.078(8) 0.075(9)
H3 H 0.18050 -0.01930 0.13610
H4 H 0.10120 -0.05180 0.03370
C3 C 0.247(12) -0.127(9) 0.034(9)
H5 H 0.20220 -0.19250 -0.02280
H6 H 0.29420 -0.14360 0.07920
C4 C 0.354(15) -0.056(11) 0.009(12)
H7? H 0.39920 -0.10040 -0.03640
H8 H 0.30170 -0.02940 -0.02510
C5 C 0.46(3) 0.029(17) 0.075(18)
H9 H 0.51850 0.00300 0.10630
H10 H 0.41580 0.07180 0.12230
C6 C -0.196(12) -0.147(8) 0.138(8)
C7 C -0.284(12) -0.088(8) 0.175(8)
H11 H -0.25730 -0.01680 0.18830
C8 C -0.407(12) -0.131(8) 0.191(8)
H12 H -0.46660 -0.09010 0.21630
C9 C -0.445(12) -0.234(8) 0.171(8)
C10 C -0.359(12) -0.294(8) 0.135(8)
H13 H -0.38580 -0.36420 0.12190
C11 C -0.235(12) -0.250(8) 0.118(8)
H14 H -0.17660 -0.29110 0.09310
N2 N -0.103(9) 0.250(7) 0.215(7)
O4 O 0.402(7) 0.295(5) 0.106(6)
O5 O -0.155(9) 0.321(6) 0.237(7)
O6 O -0.160(9) 0.169(6) 0.216(6)
C12 C 0.487(11) 0.390(8) 0.111(8)
H15 H 0.50870 0.44500 0.17510
H16 H 0.43840 0.41120 0.06970
C13 C 0.617(11) 0.369(8) 0.079(8)
H17 H 0.66840 0.35510 0.12480
H18 H 0.59120 0.30580 0.01890
C14 C 0.711(11) 0.455(8) 0.067(8)
H19 H 0.73920 0.51810 0.12680
H20 H 0.66050 0.46960 0.02120
C15 C 0.841(11) 0.430(8) 0.033(8)
H21 H 0.89300 0.41800 0.08000
H22 H 0.81270 0.36580 -0.02540
C16 C 0.937(11) 0.513(9) 0.017(9)
H23 H 0.96680 0.57780 0.07600
H24 H 0.88500 0.52650 -0.02910
C17 C 0.279(11) 0.291(8) 0.132(8)
C18 C 0.208(11) 0.197(8) 0.127(8)
H25 H 0.24610 0.14150 0.10420
C19 C 0.084(11) 0.182(8) 0.154(8)
H26 H 0.03610 0.11750 0.15090
C20 C 0.03(1) 0.265(8) 0.187(7)
C21 C 0.097(10) 0.359(7) 0.192(7)
H27 H 0.05650 0.41370 0.21400
C22 C 0.224(11) 0.374(8) 0.165(8)
H28 H 0.27160 0.43870 0.16800
N3 N -0.017(12) -0.386(7) 0.286(7)
O7 O -0.112(8) -0.007(5) 0.396(6)
O8 O 0.091(10) -0.397(6) 0.260(7)
O9 O -0.106(10) -0.454(6) 0.290(7)
C23 C -0.019(11) 0.080(7) 0.392(8)
H29 H -0.00670 0.06390 0.32770
H30 H 0.07250 0.10020 0.43170
C24 C -0.084(11) 0.167(7) 0.428(8)
H31 H -0.10680 0.17550 0.48940
H32 H -0.17200 0.14720 0.38490
C25 C 0.009(11) 0.268(7) 0.438(8)
H33 H 0.03370 0.25880 0.37780
H34 H 0.09490 0.28890 0.48340
C26 C -0.059(11) 0.355(8) 0.472(8)
H35 H -0.14540 0.33420 0.42670
H36 H -0.08440 0.36430 0.53230
C27 C 0.033(11) 0.457(7) 0.482(8)
H37 H 0.05570 0.44760 0.42110
H38 H 0.12020 0.47620 0.52570
C28 C -0.081(11) -0.097(7) 0.366(8)
C29 C -0.181(12) -0.176(8) 0.369(8)
H39 H -0.26310 -0.16530 0.38900
C30 C -0.161(12) -0.272(8) 0.342(8)
H40 H -0.22770 -0.32700 0.34440
C31 C -0.041(12) -0.285(8) 0.311(8)
C32 C 0.059(11) -0.208(8) 0.307(8)
H41 H 0.14030 -0.22020 0.28580
C33 C 0.039(11) -0.112(8) 0.334(8)
H42 H 0.10550 -0.05730 0.33080
N4 N 0.410(12) 0.130(7) 0.309(8)
O10 O 0.524(8) 0.540(6) 0.377(6)
O11 O 0.298(10) 0.086(6) 0.317(7)
O12 O 0.500(12) 0.088(7) 0.285(9)
C34 C 0.427(11) 0.597(8) 0.409(8)
H43 H 0.41060 0.60050 0.47030
H44 H 0.33790 0.56270 0.36450
C35 C 0.492(12) 0.703(8) 0.418(9)
H45 H 0.58100 0.73570 0.46210
H46 H 0.51010 0.69770 0.35640
C36 C 0.398(14) 0.771(8) 0.45(1)
H47 H 0.38260 0.77900 0.51260
H48 H 0.30760 0.73750 0.40710
C37 C 0.46(2) 0.877(11) 0.455(13)
H49? H 0.55420 0.90770 0.49480
H50 H 0.47170 0.86840 0.39200
C38 C 0.39(3) 0.947(17) 0.49(3)
H51 H 0.39020 0.96460 0.55570
H52? H 0.29050 0.91230 0.45600
C39 C 0.490(11) 0.440(8) 0.364(8)
C40 C 0.586(11) 0.388(8) 0.329(8)
H53 H 0.66860 0.42270 0.31670
C41 C 0.560(11) 0.287(8) 0.311(8)
H54 H 0.62400 0.25070 0.28710
C42 C 0.440(11) 0.238(8) 0.329(8)
C43 C 0.345(11) 0.289(8) 0.365(8)
H55 H 0.26370 0.25470 0.37720
C44 C 0.370(11) 0.391(8) 0.382(8)
H56 H 0.30620 0.42640 0.40650
C45 C 0.45(2) -0.095(18) -0.04(2)
C46 C 0.56(3) 0.95(2) 0.52(2)
H57? H 0.30380 -0.03390 -0.03050
H58? H 0.40270 0.00610 0.06700
H59? H 0.49670 0.86590 0.39750
H60? H 0.38300 0.90580 0.45190
H61? H 0.40460 -0.16240 -0.09060
H62? H 0.51330 -0.10800 0.00540
H63? H 0.63810 0.92560 0.53070
H64? H 0.52350 0.96910 0.58290
N1A N 1.577(11) 0.282(8) -0.186(7)
O1A O 1.076(8) 0.096(6) -0.125(6)
O2A O 1.604(10) 0.371(7) -0.175(7)
O3A O 1.658(10) 0.231(7) -0.209(7)
C1A C 0.981(12) 0.153(8) -0.086(9)
H1A H 1.02700 0.21180 -0.02500
H2A H 0.94740 0.17910 -0.12790
C2A C 0.863(12) 0.078(8) -0.075(9)
H3A H 0.81950 0.01930 -0.13610
H4A H 0.89880 0.05180 -0.03370
C3A C 0.753(12) 0.127(9) -0.034(9)
H5A H 0.79780 0.19250 0.02280
H6A H 0.70580 0.14360 -0.07920
C4A C 0.646(15) 0.056(11) -0.009(12)
H8A H 0.69830 0.02940 0.02510
C5A C 0.54(3) -0.029(17) -0.075(18)
H9A H 0.48150 -0.00300 -0.10630
H10A H 0.58420 -0.07180 -0.12230
C6A C 1.196(12) 0.147(8) -0.138(8)
C7A C 1.284(12) 0.088(8) -0.175(8)
H11A H 1.25730 0.01680 -0.18830
C8A C 1.407(12) 0.131(8) -0.191(8)
H12A H 1.46660 0.09010 -0.21630
C9A C 1.445(12) 0.234(8) -0.171(8)
C10A C 1.359(12) 0.294(8) -0.135(8)
H13A H 1.38580 0.36420 -0.12190
C11A C 1.235(12) 0.250(8) -0.118(8)
H14A H 1.17660 0.29110 -0.09310
N2A N 2.103(9) 0.750(7) -0.215(7)
O4A O 1.598(7) 0.705(5) -0.106(6)
O5A O 2.155(9) 0.679(6) -0.237(7)
O6A O 2.160(9) 0.831(6) -0.216(6)
C12A C 1.513(11) 0.610(8) -0.111(8)
H15A H 1.49130 0.55500 -0.17510
H16A H 1.56160 0.58880 -0.06970
C13A C 1.383(11) 0.631(8) -0.079(8)
H17A H 1.33160 0.64490 -0.12480
H18A H 1.40880 0.69420 -0.01890
C14A C 1.289(11) 0.545(8) -0.067(8)
H19A H 1.26080 0.48190 -0.12680
H20A H 1.33950 0.53040 -0.02120
C15A C 1.159(11) 0.570(8) -0.033(8)
H21A H 1.10700 0.58200 -0.08000
H22A H 1.18730 0.63420 0.02540
C16A C 1.063(11) 0.487(9) -0.017(9)
H23A H 1.03320 0.42220 -0.07600
H24A H 1.11500 0.47350 0.02910
C17A C 1.721(11) 0.709(8) -0.132(8)
C18A C 1.792(11) 0.803(8) -0.127(8)
H25A H 1.75390 0.85850 -0.10420
C19A C 1.916(11) 0.818(8) -0.154(8)
H26A H 1.96390 0.88250 -0.15090
C20A C 1.97(1) 0.735(8) -0.187(7)
C21A C 1.903(10) 0.641(7) -0.192(7)
H27A H 1.94350 0.58630 -0.21400
C22A C 1.776(11) 0.626(8) -0.165(8)
H28A H 1.72840 0.56130 -0.16800
N3A N 0.017(12) 1.386(7) 0.714(7)
O7A O 0.112(8) 1.007(5) 0.604(6)
O8A O -0.091(10) 1.397(6) 0.740(7)
O9A O 0.106(10) 1.454(6) 0.710(7)
C23A C 0.019(11) 0.920(7) 0.608(8)
H29A H 0.00670 0.93610 0.67230
H30A H -0.07250 0.89980 0.56830
C24A C 0.084(11) 0.833(7) 0.572(8)
H31A H 0.10680 0.82450 0.51060
H32A H 0.17200 0.85280 0.61510
C25A C -0.009(11) 0.732(7) 0.562(8)
H33A H -0.03370 0.74120 0.62220
H34A H -0.09490 0.71110 0.51660
C26A C 0.059(11) 0.645(8) 0.528(8)
H35A H 0.14540 0.66580 0.57330
H36A H 0.08440 0.63570 0.46770
C27A C -0.033(11) 0.543(7) 0.518(8)
H37A H -0.05570 0.55240 0.57890
H38A H -0.12020 0.52380 0.47430
C28A C 0.081(11) 1.097(7) 0.634(8)
C29A C 0.181(12) 1.176(8) 0.631(8)
H39A H 0.26310 1.16530 0.61100
C30A C 0.161(12) 1.272(8) 0.658(8)
H40A H 0.22770 1.32700 0.65560
C31A C 0.041(12) 1.285(8) 0.689(8)
C32A C -0.059(11) 1.208(8) 0.693(8)
H41A H -0.14030 1.22020 0.71420
C33A C -0.039(11) 1.112(8) 0.666(8)
H42A H -0.10550 1.05730 0.66920
N4A N 0.590(12) 1.870(7) 0.691(8)
O10A O 0.476(8) 1.460(6) 0.623(6)
O11A O 0.702(10) 1.914(6) 0.683(7)
O12A O 0.500(12) 1.912(7) 0.715(9)
C34A C 0.573(11) 1.403(8) 0.591(8)
H43A H 0.58940 1.39950 0.52970
H44A H 0.66210 1.43730 0.63550
C35A C 0.508(12) 1.297(8) 0.582(9)
H45A H 0.41900 1.26430 0.53790
H46A H 0.48990 1.30230 0.64360
C36A C 0.602(14) 1.229(8) 0.55(1)
H47A H 0.61740 1.22100 0.48740
H48A H 0.69240 1.26250 0.59290
C37A C 0.54(2) 1.123(11) 0.545(13)
H50A H 0.52830 1.13160 0.60800
C38A C 0.61(3) 1.053(17) 0.51(3)
H51A H 0.60980 1.03540 0.44430
C39A C 0.510(11) 1.560(8) 0.636(8)
C40A C 0.414(11) 1.612(8) 0.671(8)
H53A H 0.33140 1.57730 0.68330
C41A C 0.440(11) 1.713(8) 0.689(8)
H54A H 0.37600 1.74930 0.71290
C42A C 0.560(11) 1.762(8) 0.671(8)
C43A C 0.655(11) 1.711(8) 0.635(8)
H55A H 0.73630 1.74530 0.62280
C44A C 0.630(11) 1.609(8) 0.618(8)
H56A H 0.69380 1.57360 0.59350
C45A C 0.55(2) 0.095(18) 0.04(2)
C46A C 0.44(3) 1.05(2) 0.48(2)
#END
