
#######################################################################
#
#                 Cambridge Crystallographic Data Centre
#                                CCDC
#
#######################################################################
#
# If this CIF has been generated from an entry in the Cambridge
# Structural Database, then it will include bibliographic, chemical,
# crystal, experimental, refinement or atomic coordinate data resulting
# from the CCDC's data processing and validation procedures.
#
#######################################################################

data_CSD_CIF_PUJLIR
_audit_creation_date 2015-03-20
_audit_creation_method CSD-ConQuest-V1
_database_code_CSD PUJLIR
_database_code_depnum_ccdc_archive 'CCDC 1008666'
_chemical_formula_sum 'C13 H11 N3 O5'
_chemical_formula_moiety
;
C13 H11 N3 O5
;
_journal_coden_Cambridge 16
_journal_volume 70
_journal_year 2014
_journal_page_first 9321
_journal_name_full 'Tetrahedron '
loop_
_publ_author_name
"Wen-Ming Shu"
"Jun-Rui Ma"
"Kai-Lu Zheng"
"Hui-Ying Sun"
"Mei Wang"
"Yan Yang"
"An-Xin Wu"
_chemical_name_systematic
;
ethyl 3-(4-nitrobenzoyl)-1H-pyrazole-5-carboxylate
;
_cell_volume   2722.872
_exptl_crystal_density_diffrn 1.411
_diffrn_ambient_temperature 298
#These two values have been output from a single CSD field.
_refine_ls_R_factor_gt 0.0433
_refine_ls_wR_factor_gt 0.0433
_symmetry_cell_setting orthorhombic
_symmetry_space_group_name_H-M 'P b c a'
_symmetry_Int_Tables_number 61
loop_
_symmetry_equiv_pos_site_id
_symmetry_equiv_pos_as_xyz
1 x,y,z
2 1/2+x,1/2-y,-z
3 -x,1/2+y,1/2-z
4 1/2-x,-y,1/2+z
5 -x,-y,-z
6 -1/2-x,-1/2+y,z
7 x,-1/2-y,-1/2+z
8 -1/2+x,y,-1/2-z
_cell_length_a 13.5890(17)
_cell_length_b 6.5520(8)
_cell_length_c 30.582(4)
_cell_angle_alpha 90
_cell_angle_beta 90
_cell_angle_gamma 90
_cell_formula_units_Z 8
loop_
_atom_type_symbol
_atom_type_radius_bond
C 0.68
H 0.23
N 0.68
O 0.68
loop_
_atom_site_label
_atom_site_type_symbol
_atom_site_fract_x
_atom_site_fract_y
_atom_site_fract_z
C1 C 0.37267(11) 0.4388(3) 0.40736(5)
C2 C 0.44421(12) 0.5849(3) 0.40257(5)
H1 H 0.47590 0.63950 0.42680
C3 C 0.46805(11) 0.6490(3) 0.36083(5)
H2 H 0.51680 0.74700 0.35690
C4 C 0.41961(9) 0.5680(2) 0.32456(5)
C5 C 0.34743(11) 0.4200(2) 0.33067(5)
H3 H 0.31490 0.36540 0.30660
C6 C 0.32396(12) 0.3541(3) 0.37215(5)
H4 H 0.27620 0.25440 0.37640
C7 C 0.45150(9) 0.6349(2) 0.28025(5)
C8 C 0.38038(9) 0.6465(2) 0.24402(4)
C9 C 0.40260(9) 0.6640(2) 0.19957(5)
H5 H 0.46450 0.66720 0.18660
C10 C 0.31303(9) 0.6753(2) 0.17929(4)
C11 C 0.28312(10) 0.6946(2) 0.13334(5)
C12 C 0.34208(16) 0.7143(4) 0.06057(6)
H6 H 0.35370 0.85370 0.05120
H7 H 0.27420 0.67980 0.05420
C13 C 0.40809(18) 0.5756(4) 0.03721(7)
H8 H 0.47510 0.60720 0.04450
H9 H 0.39870 0.59120 0.00630
H10 H 0.39380 0.43740 0.04550
N1 N 0.34660(12) 0.3694(3) 0.45180(5)
N2 N 0.28266(7) 0.64769(18) 0.25105(4)
N3 N 0.24395(8) 0.66595(18) 0.21129(3)
H11 H 0.18170 0.67130 0.20640
O1 O 0.39204(12) 0.4377(3) 0.48244(4)
O2 O 0.28049(15) 0.2466(3) 0.45582(5)
O3 O 0.53745(7) 0.6808(2) 0.27322(4)
O4 O 0.19888(8) 0.7080(2) 0.12203(4)
O5 O 0.36049(8) 0.6959(2) 0.10721(4)
#END
