
#######################################################################
#
#                 Cambridge Crystallographic Data Centre
#                                CCDC
#
#######################################################################
#
# If this CIF has been generated from an entry in the Cambridge
# Structural Database, then it will include bibliographic, chemical,
# crystal, experimental, refinement or atomic coordinate data resulting
# from the CCDC's data processing and validation procedures.
#
#######################################################################

data_CSD_CIF_PUJLUC
_audit_creation_date 2010-04-23
_audit_creation_method CSD-ConQuest-V1
_database_code_CSD PUJLUC
_database_code_depnum_ccdc_archive 'CCDC 769969'
_chemical_formula_sum 'C21 H18 N4 O4'
_chemical_formula_moiety
;
C21 H18 N4 O4
;
_journal_coeditor_code "IUCr LH2985"
_journal_coden_Cambridge 1370
_journal_volume 66
_journal_year 2010
_journal_page_first o565
_journal_name_full 'Acta Crystallogr.,Sect.E:Struct.Rep.Online '
loop_
_publ_author_name
"L.R.Gomes"
"C.F.R.A.C.Lima"
"L.M.N.B.F.Santos"
"P.Brandao"
"J.N.Low"
_chemical_name_systematic
;
1,3-Diphenylpropan-2-one (2,4-dinitrophenyl)hydrazone
;
_chemical_name_common
;
1-(2,4-Dinitrophenyl)-2-(1,3-diphenylpropan-2-ylidene)hydrazine
;
_chemical_melting_point 381.7
_cell_volume   1886.495
_exptl_crystal_colour 'orange'
_exptl_crystal_density_diffrn 1.375
_exptl_crystal_description 'needle'
_exptl_crystal_preparation 'dichloromethane'
_diffrn_ambient_temperature 150
#These two values have been output from a single CSD field.
_refine_ls_R_factor_gt 0.0456
_refine_ls_wR_factor_gt 0.0456
_symmetry_cell_setting monoclinic
_symmetry_space_group_name_H-M 'P 21/c'
_symmetry_Int_Tables_number 14
loop_
_symmetry_equiv_pos_site_id
_symmetry_equiv_pos_as_xyz
1 x,y,z
2 -x,1/2+y,1/2-z
3 -x,-y,-z
4 x,-1/2-y,-1/2+z
_cell_length_a 17.2448(9)
_cell_length_b 5.1013(2)
_cell_length_c 22.7459(13)
_cell_angle_alpha 90
_cell_angle_beta 109.475(2)
_cell_angle_gamma 90
_cell_formula_units_Z 4
loop_
_atom_type_symbol
_atom_type_radius_bond
C 0.68
H 0.23
N 0.68
O 0.68
loop_
_atom_site_label
_atom_site_type_symbol
_atom_site_fract_x
_atom_site_fract_y
_atom_site_fract_z
O1 O 0.38029(6) 0.5908(2) 0.68188(5)
O2 O 0.50403(6) 0.43658(19) 0.71259(5)
O3 O 0.29905(7) 1.3039(3) 0.54043(6)
O4 O 0.38465(7) 1.4722(2) 0.49984(6)
N1 N 0.61933(7) 0.6614(2) 0.68083(5)
H1 H 0.60850 0.54630 0.70780
N2 N 0.69791(6) 0.7018(2) 0.67903(5)
N3 N 0.45159(7) 0.5957(2) 0.68209(5)
N4 N 0.36726(8) 1.3166(3) 0.53486(6)
C1 C 0.75430(8) 0.5395(3) 0.70889(6)
C2 C 0.74525(8) 0.3003(3) 0.74514(6)
H2 H 0.75600 0.14170 0.72400
H3 H 0.68780 0.29040 0.74500
C3 C 0.83751(8) 0.5887(3) 0.70326(6)
H4 H 0.87960 0.58830 0.74540
H5 H 0.83790 0.76400 0.68470
C4 C 0.55764(8) 0.8161(3) 0.64553(6)
C5 C 0.47530(8) 0.7921(3) 0.64507(6)
C6 C 0.41292(8) 0.9552(3) 0.60887(6)
H6 H 0.35830 0.93820 0.60950
C7 C 0.43201(8) 1.1413(3) 0.57223(6)
C8 C 0.51178(9) 1.1705(3) 0.57056(6)
H7 H 0.52330 1.30020 0.54460
C9 C 0.57319(8) 1.0114(3) 0.60642(6)
H8 H 0.62740 1.03200 0.60510
C10 C 0.80301(8) 0.3014(3) 0.81217(6)
C11 C 0.86423(9) 0.1136(3) 0.83308(7)
H9 H 0.87100 -0.01420 0.80480
C12 C 0.91584(9) 0.1099(3) 0.89490(7)
H10 H 0.95750 -0.01990 0.90870
C13 C 0.90638(10) 0.2952(3) 0.93612(7)
H11 H 0.94110 0.29200 0.97850
C14 C 0.84621(10) 0.4858(3) 0.91564(7)
H12 H 0.84020 0.61490 0.94390
C15 C 0.79469(9) 0.4891(3) 0.85398(7)
H13 H 0.75350 0.62030 0.84030
C16 C 0.85952(8) 0.3836(3) 0.66334(6)
C17 C 0.80419(9) 0.3234(3) 0.60454(6)
H14 H 0.75300 0.41260 0.58970
C18 C 0.82283(10) 0.1359(4) 0.56759(7)
H15 H 0.78430 0.09620 0.52770
C19 C 0.89716(10) 0.0059(3) 0.58834(7)
H16 H 0.90970 -0.12440 0.56300
C20 C 0.95344(9) 0.0661(3) 0.64620(7)
H17 H 1.00510 -0.02060 0.66040
C21 C 0.93414(8) 0.2534(3) 0.68334(6)
H18 H 0.97280 0.29280 0.72320
#END
