
#######################################################################
#
#                 Cambridge Crystallographic Data Centre
#                                CCDC
#
#######################################################################
#
# If this CIF has been generated from an entry in the Cambridge
# Structural Database, then it will include bibliographic, chemical,
# crystal, experimental, refinement or atomic coordinate data resulting
# from the CCDC's data processing and validation procedures.
#
#######################################################################

data_CSD_CIF_PUJVAS
_audit_creation_date 2010-04-23
_audit_creation_method CSD-ConQuest-V1
_database_code_CSD PUJVAS
_database_code_depnum_ccdc_archive 'CCDC 770005'
_chemical_formula_sum 'C19 H15 N1 O5'
_chemical_formula_moiety
;
C19 H15 N1 O5
;
_journal_coeditor_code "IUCr FL2290"
_journal_coden_Cambridge 1370
_journal_volume 66
_journal_year 2010
_journal_page_first o615
_journal_name_full 'Acta Crystallogr.,Sect.E:Struct.Rep.Online '
loop_
_publ_author_name
"S.Watanabe"
"K.Nakaema"
"T.Nishijima"
"A.Okamoto"
"N.Yonezawa"
_chemical_name_systematic
;
2,7-Dimethoxy-1-(4-nitrobenzoyl)-naphthalene
;
_chemical_name_common
;
(2,7-Dimethoxy-1-naphthyl)(4-nitrophenyl)methanone
;
_chemical_melting_point 440
_cell_volume   1620.962
_exptl_crystal_colour 'yellow'
_exptl_crystal_density_diffrn 1.382
_exptl_crystal_description 'platelet'
_exptl_crystal_preparation 'chloroform'
_diffrn_ambient_temperature 296
#These two values have been output from a single CSD field.
_refine_ls_R_factor_gt 0.0355
_refine_ls_wR_factor_gt 0.0355
_symmetry_cell_setting monoclinic
_symmetry_space_group_name_H-M 'P 21/c'
_symmetry_Int_Tables_number 14
loop_
_symmetry_equiv_pos_site_id
_symmetry_equiv_pos_as_xyz
1 x,y,z
2 -x,1/2+y,1/2-z
3 -x,-y,-z
4 x,-1/2-y,-1/2+z
_cell_length_a 8.6877(6)
_cell_length_b 28.870(2)
_cell_length_c 6.4635(5)
_cell_angle_alpha 90
_cell_angle_beta 90.839(5)
_cell_angle_gamma 90
_cell_formula_units_Z 4
loop_
_atom_type_symbol
_atom_type_radius_bond
C 0.68
H 0.23
N 0.68
O 0.68
loop_
_atom_site_label
_atom_site_type_symbol
_atom_site_fract_x
_atom_site_fract_y
_atom_site_fract_z
O1 O 0.46668(12) 0.12949(4) 0.41178(15)
O2 O 0.72324(18) -0.01707(5) -0.4151(2)
O3 O 0.86695(18) -0.03032(5) -0.1503(3)
O4 O 0.52962(12) 0.18647(4) -0.08228(16)
O5 O -0.08753(12) 0.11905(5) 0.59355(19)
N1 N 0.76264(15) -0.00977(4) -0.2367(2)
C1 C 0.32998(14) 0.15939(4) 0.12073(19)
C2 C 0.37575(16) 0.18672(4) -0.0431(2)
C3 C 0.26878(19) 0.21395(5) -0.1541(2)
H1 H 0.30010 0.23170 -0.26590
C4 C 0.1186(2) 0.21401(5) -0.0961(3)
H2 H 0.04770 0.23130 -0.17260
C5 C 0.06755(16) 0.18894(4) 0.0748(2)
C6 C -0.08761(17) 0.19031(5) 0.1403(3)
H3 H -0.15910 0.20760 0.06480
C7 C -0.13369(16) 0.16718(6) 0.3093(3)
H4 H -0.23570 0.16890 0.35010
C8 C -0.02757(16) 0.14036(5) 0.4242(2)
C9 C 0.12269(15) 0.13696(4) 0.3656(2)
H5 H 0.19090 0.11850 0.44130
C10 C 0.17471(14) 0.16139(4) 0.19014(19)
C11 C 0.44394(14) 0.12808(4) 0.22566(19)
C12 C 0.52624(13) 0.09236(4) 0.09933(18)
C13 C 0.48124(15) 0.08167(4) -0.1027(2)
H6 H 0.39900 0.09740 -0.16420
C14 C 0.55780(16) 0.04787(5) -0.2128(2)
H7 H 0.52810 0.04050 -0.34770
C15 C 0.67883(15) 0.02546(4) -0.1175(2)
C16 C 0.72680(15) 0.03499(5) 0.0825(2)
H8 H 0.80930 0.01920 0.14260
C17 C 0.64890(14) 0.06867(4) 0.1911(2)
H9 H 0.67870 0.07550 0.32640
C18 C 0.5831(2) 0.20964(7) -0.2619(2)
H10 H 0.68920 0.20190 -0.28320
H11 H 0.57340 0.24250 -0.24360
H12 H 0.52280 0.20010 -0.38010
C19 C 0.0143(2) 0.09324(6) 0.7227(3)
H13 H -0.03840 0.08380 0.84520
H14 H 0.10120 0.11210 0.76070
H15 H 0.04900 0.06630 0.64970
#END
