
#######################################################################
#
#                 Cambridge Crystallographic Data Centre
#                                CCDC
#
#######################################################################
#
# If this CIF has been generated from an entry in the Cambridge
# Structural Database, then it will include bibliographic, chemical,
# crystal, experimental, refinement or atomic coordinate data resulting
# from the CCDC's data processing and validation procedures.
#
#######################################################################

data_CSD_CIF_PUJYUP
_audit_creation_date 2010-05-04
_audit_creation_method CSD-ConQuest-V1
_database_code_CSD PUJYUP
_database_code_depnum_ccdc_archive 'CCDC 770024'
_chemical_formula_sum 'C16 H17 N3 O1'
_chemical_formula_moiety
;
C16 H17 N3 O1
;
_journal_coeditor_code "IUCr BT5182"
_journal_coden_Cambridge 1370
_journal_volume 66
_journal_year 2010
_journal_page_first o637
_journal_name_full 'Acta Crystallogr.,Sect.E:Struct.Rep.Online '
loop_
_publ_author_name
"B.R.D.Nayagam"
"S.R.Jebas"
"J.Shakina"
"R.Murugesan"
"D.Schollmeyer"
_chemical_name_systematic
;
1-(Mesitylmethyl)-1H-benzotriazol-3-oxide
;
_cell_volume   1350.258
_exptl_crystal_colour 'colorless'
_exptl_crystal_density_diffrn 1.315
_exptl_crystal_description 'block'
_exptl_crystal_preparation 'ethanol/chloroform'
_diffrn_ambient_temperature 193
#These two values have been output from a single CSD field.
_refine_ls_R_factor_gt 0.0458
_refine_ls_wR_factor_gt 0.0458
_symmetry_cell_setting monoclinic
_symmetry_space_group_name_H-M 'P 21/c'
_symmetry_Int_Tables_number 14
loop_
_symmetry_equiv_pos_site_id
_symmetry_equiv_pos_as_xyz
1 x,y,z
2 -x,1/2+y,1/2-z
3 -x,-y,-z
4 x,-1/2-y,-1/2+z
_cell_length_a 8.6269(19)
_cell_length_b 7.3422(4)
_cell_length_c 21.890(5)
_cell_angle_alpha 90
_cell_angle_beta 103.133(11)
_cell_angle_gamma 90
_cell_formula_units_Z 4
loop_
_atom_type_symbol
_atom_type_radius_bond
C 0.68
H 0.23
N 0.68
O 0.68
loop_
_atom_site_label
_atom_site_type_symbol
_atom_site_fract_x
_atom_site_fract_y
_atom_site_fract_z
N1 N 0.70466(16) -0.01341(18) 0.11411(6)
C1 C 0.71052(18) 0.0150(2) 0.05338(7)
C2 C 0.7611(2) -0.0918(2) 0.00798(8)
H1 H 0.79990 -0.21230 0.01670
C3 C 0.7513(2) -0.0124(3) -0.04902(8)
H2 H 0.78460 -0.08010 -0.08080
C4 C 0.6933(2) 0.1673(3) -0.06290(8)
H3 H 0.69000 0.21660 -0.10330
C5 C 0.64222(18) 0.2710(2) -0.01957(7)
H4 H 0.60230 0.39090 -0.02860
C6 C 0.65231(17) 0.1899(2) 0.03868(7)
N2 N 0.61389(15) 0.25395(18) 0.09300(6)
N3 N 0.64505(16) 0.13267(18) 0.13845(6)
O1 O 0.56088(16) 0.41370(17) 0.10077(6)
C7 C 0.7402(2) -0.1818(2) 0.15108(7)
H5 H 0.82030 -0.25290 0.13520
H6 H 0.64210 -0.25620 0.14500
C8 C 0.80200(18) -0.1471(2) 0.22014(7)
C9 C 0.96499(17) -0.1154(2) 0.24416(7)
C10 C 1.01987(18) -0.0911(2) 0.30840(8)
H7 H 1.13050 -0.07280 0.32490
C11 C 0.9183(2) -0.0928(2) 0.34912(7)
C12 C 0.75646(19) -0.1203(2) 0.32423(7)
H8 H 0.68500 -0.11970 0.35150
C13 C 0.69733(18) -0.1485(2) 0.26051(7)
C14 C 1.0814(2) -0.1051(2) 0.20228(9)
H9 H 1.09220 -0.22560 0.18440
H10 H 1.18520 -0.06480 0.22690
H11 H 1.04240 -0.01810 0.16830
C15 C 0.9812(2) -0.0637(3) 0.41845(8)
H12 H 0.99220 -0.18160 0.44000
H13 H 0.90700 0.01320 0.43480
H14 H 1.08530 -0.00390 0.42570
C16 C 0.52065(19) -0.1764(3) 0.23637(8)
H15 H 0.47710 -0.07710 0.20760
H16 H 0.46840 -0.17720 0.27170
H17 H 0.50170 -0.29290 0.21410
#END
