
#######################################################################
#
#                 Cambridge Crystallographic Data Centre
#                                CCDC
#
#######################################################################
#
# If this CIF has been generated from an entry in the Cambridge
# Structural Database, then it will include bibliographic, chemical,
# crystal, experimental, refinement or atomic coordinate data resulting
# from the CCDC's data processing and validation procedures.
#
#######################################################################

data_CSD_CIF_PUJZUQ
_audit_creation_date 2010-05-04
_audit_creation_method CSD-ConQuest-V1
_database_code_CSD PUJZUQ
_database_code_depnum_ccdc_archive 'CCDC 770029'
_chemical_formula_sum 'C26 H18 N4 O6'
_chemical_formula_moiety
;
C26 H18 N4 O6
;
_journal_coeditor_code "IUCr BT5169"
_journal_coden_Cambridge 1370
_journal_volume 66
_journal_year 2010
_journal_page_first o644
_journal_name_full 'Acta Crystallogr.,Sect.E:Struct.Rep.Online '
loop_
_publ_author_name
"Gui-Yu Wang"
"Da-Bin Qin"
"Li-Hui Guo"
"Jie-Wei Luo"
_chemical_name_systematic
;
N,N'-bis(4-Nitrophenyl)biphenyl-2,2'-dicarboxamide
;
_cell_volume   2231.715
_exptl_crystal_colour 'colorless'
_exptl_crystal_density_diffrn 1.436
_exptl_crystal_description 'prism'
_exptl_crystal_preparation 'acetonitrile'
_diffrn_ambient_temperature 113
#These two values have been output from a single CSD field.
_refine_ls_R_factor_gt 0.0378
_refine_ls_wR_factor_gt 0.0378
_symmetry_cell_setting monoclinic
_symmetry_space_group_name_H-M 'P 21/n'
_symmetry_Int_Tables_number 14
loop_
_symmetry_equiv_pos_site_id
_symmetry_equiv_pos_as_xyz
1 x,y,z
2 1/2-x,1/2+y,1/2-z
3 -x,-y,-z
4 -1/2+x,-1/2-y,-1/2+z
_cell_length_a 12.568(3)
_cell_length_b 12.003(3)
_cell_length_c 14.858(4)
_cell_angle_alpha 90
_cell_angle_beta 95.324(2)
_cell_angle_gamma 90
_cell_formula_units_Z 4
loop_
_atom_type_symbol
_atom_type_radius_bond
C 0.68
H 0.23
N 0.68
O 0.68
loop_
_atom_site_label
_atom_site_type_symbol
_atom_site_fract_x
_atom_site_fract_y
_atom_site_fract_z
N1 N 0.22874(9) 0.61297(10) -0.24831(8)
N2 N 0.17963(9) 0.3712(1) 0.06868(8)
N3 N 0.39547(9) 0.03271(10) 0.15619(8)
N4 N 0.45085(10) -0.31187(10) -0.09135(8)
O1 O 0.19449(8) 0.70898(9) -0.25307(8)
O2 O 0.26451(9) 0.56407(9) -0.31202(7)
O3 O 0.30986(7) 0.23718(8) 0.07673(6)
O4 O 0.44656(8) -0.04883(8) 0.29288(7)
O5 O 0.48585(9) -0.40159(9) -0.06211(8)
O6 O 0.42693(9) -0.29307(9) -0.17211(7)
C1 C 0.22503(10) 0.55285(11) -0.16268(9)
C2 C 0.17265(11) 0.60088(12) -0.09468(10)
H1 H 0.14440 0.67410 -0.10130
C3 C 0.16220(11) 0.54058(12) -0.0170(1)
H2 H 0.12610 0.57240 0.03020
C4 C 0.20437(10) 0.43306(11) -0.00715(9)
C5 C 0.26065(10) 0.38784(11) -0.07520(9)
H3 H 0.29230 0.31620 -0.06770
C6 C 0.27002(10) 0.44780(11) -0.15348(10)
H4 H 0.30710 0.41710 -0.20060
C7 C 0.2251(1) 0.27388(11) 0.10011(9)
C8 C 0.16061(11) 0.20871(11) 0.16179(9)
C9 C 0.05533(11) 0.18147(12) 0.13161(10)
H5 H 0.02320 0.21300 0.07710
C10 C -0.00279(11) 0.10879(12) 0.18054(10)
H6 H -0.07460 0.09100 0.15980
C11 C 0.04420(11) 0.06229(12) 0.2596(1)
H7 H 0.00550 0.01050 0.29230
C12 C 0.14757(11) 0.09124(12) 0.29113(10)
H8 H 0.17850 0.06020 0.34630
C13 C 0.20747(11) 0.16517(11) 0.24363(9)
C14 C 0.31259(10) 0.20675(12) 0.28613(9)
C15 C 0.31442(12) 0.31004(12) 0.32959(10)
H9 H 0.25110 0.35360 0.32660
C16 C 0.40666(13) 0.35024(14) 0.37692(10)
H10 H 0.40610 0.42060 0.40620
C17 C 0.49948(12) 0.28782(13) 0.38149(10)
H11 H 0.56310 0.31530 0.41340
C18 C 0.49917(11) 0.18540(13) 0.33941(9)
H12 H 0.56270 0.14220 0.34300
C19 C 0.40649(11) 0.14455(11) 0.29155(9)
C20 C 0.41647(10) 0.03335(12) 0.24765(9)
C21 C 0.40998(10) -0.05654(11) 0.09698(9)
C22 C 0.46411(10) -0.15411(12) 0.12407(10)
H13 H 0.49220 -0.16330 0.18520
C23 C 0.47664(11) -0.23714(12) 0.06188(10)
H14 H 0.51320 -0.30390 0.07990
C24 C 0.43563(11) -0.22264(12) -0.02687(9)
C25 C 0.38144(11) -0.12659(12) -0.05546(10)
H15 H 0.35380 -0.11810 -0.11680
C26 C 0.36826(11) -0.04339(12) 0.00675(9)
H16 H 0.33090 0.02280 -0.01160
H17 H 0.1284(10) 0.3995(13) 0.1007(10)
H18 H 0.3673(12) 0.0956(10) 0.1315(10)
#END
