
#######################################################################
#
#                 Cambridge Crystallographic Data Centre
#                                CCDC
#
#######################################################################
#
# If this CIF has been generated from an entry in the Cambridge
# Structural Database, then it will include bibliographic, chemical,
# crystal, experimental, refinement or atomic coordinate data resulting
# from the CCDC's data processing and validation procedures.
#
#######################################################################

data_CSD_CIF_PUKBED
_audit_creation_date 2010-05-04
_audit_creation_method CSD-ConQuest-V1
_database_code_CSD PUKBED
_database_code_depnum_ccdc_archive 'CCDC 770031'
_chemical_formula_sum 'C37 H35 N3 O6'
_chemical_formula_moiety
;
C37 H35 N3 O6
;
_journal_coeditor_code "IUCr CI2997"
_journal_coden_Cambridge 1370
_journal_volume 66
_journal_year 2010
_journal_page_first o646
_journal_name_full 'Acta Crystallogr.,Sect.E:Struct.Rep.Online '
loop_
_publ_author_name
"S.S.Sundaresan"
"P.Ramesh"
"N.Arumugam"
"R.Raghunathan"
"M.N.Ponnuswamy"
_chemical_name_systematic
;
Ethyl 
3-[1-(4-methoxyphenyl)-4-oxo-3-phenylazetidin-2-yl]-2-nitro-1-phenyl-2,3,10,10
a-tetrahydro-1H,5H-pyrrolo[1,2-b]isoquinoline-10a-carboxylate
;
_cell_volume   1567.350
_exptl_crystal_colour 'colorless'
_exptl_crystal_density_diffrn 1.309
_exptl_crystal_description 'block'
_exptl_crystal_preparation 'ethyl acetate'
_diffrn_ambient_temperature 293
_refine_special_details
;
The ethoxy moiety is disordered over two sites with occupancies 0.753:0.247. 
One of the phenyl moieties is disordered over two sites with occupancies 
0.54:0.46.
;
#These two values have been output from a single CSD field.
_refine_ls_R_factor_gt 0.0437
_refine_ls_wR_factor_gt 0.0437
_symmetry_cell_setting triclinic
_symmetry_space_group_name_H-M 'P -1'
_symmetry_Int_Tables_number 2
loop_
_symmetry_equiv_pos_site_id
_symmetry_equiv_pos_as_xyz
1 x,y,z
2 -x,-y,-z
_cell_length_a 9.3039(3)
_cell_length_b 13.0725(3)
_cell_length_c 13.8814(3)
_cell_angle_alpha 87.504(1)
_cell_angle_beta 74.123(1)
_cell_angle_gamma 74.926(1)
_cell_formula_units_Z 2
loop_
_atom_type_symbol
_atom_type_radius_bond
C 0.68
H 0.23
N 0.68
O 0.68
loop_
_atom_site_label
_atom_site_type_symbol
_atom_site_fract_x
_atom_site_fract_y
_atom_site_fract_z
O1 O -0.00074(16) 0.59615(13) 0.42249(12)
O2 O 0.2057(6) 0.4922(4) 0.3151(4)
O3 O 0.0627(2) 0.86406(15) 0.16584(14)
O4 O 0.0583(2) 0.71036(16) 0.22020(13)
O5 O 0.74560(17) 0.70097(11) -0.04187(12)
O6 O 0.79171(19) 0.19925(11) 0.10468(13)
N1 N 0.37346(14) 0.63265(10) 0.29712(9)
N2 N 0.10037(17) 0.79028(15) 0.21643(11)
N3 N 0.57227(15) 0.63357(10) 0.08244(10)
C1 C 0.52195(18) 0.58959(13) 0.32089(13)
H1 H 0.60530 0.59800 0.26390
H2 H 0.53580 0.51440 0.33240
C2 C 0.5315(2) 0.64295(14) 0.41105(14)
C3 C 0.6528(2) 0.68215(17) 0.41500(18)
H3 H 0.73540 0.67850 0.35840
C4 C 0.6517(3) 0.7269(2) 0.5032(2)
H4 H 0.73390 0.75360 0.50620
C5 C 0.5304(4) 0.7323(2) 0.5864(2)
H5 H 0.53160 0.76160 0.64590
C6 C 0.4075(3) 0.69511(18) 0.58325(16)
H6 H 0.32500 0.69960 0.64020
C7 C 0.4063(2) 0.65081(14) 0.49505(13)
C8 C 0.2777(2) 0.61098(15) 0.48137(13)
H7 H 0.18740 0.63560 0.53760
H8 H 0.30690 0.53410 0.48080
C9 C 0.23601(18) 0.64853(13) 0.38286(12)
C10 C 0.14835(19) 0.76820(13) 0.38416(12)
H9 H 0.03810 0.77240 0.39630
C11 C 0.20748(18) 0.80076(13) 0.27678(12)
H10 H 0.21400 0.87440 0.27680
C12 C 0.37003(17) 0.72713(12) 0.23744(11)
H11 H 0.44350 0.76210 0.25170
C13 C 0.1301(2) 0.57983(17) 0.37252(15)
C14 C 0.1191(4) 0.4158(4) 0.3140(3)
H12 H 0.05840 0.40870 0.38180
H13 H 0.19080 0.34740 0.29160
C15 C 0.0156(6) 0.4446(4) 0.2489(3)
H14 H -0.03970 0.39150 0.25160
H15 H 0.07530 0.44950 0.18130
H16 H -0.05660 0.51180 0.27120
C16 C 0.1640(2) 0.84124(14) 0.45989(13)
C17 C 0.0576(3) 0.85584(18) 0.55318(14)
H17 H -0.02010 0.82040 0.56760
C18 C 0.0653(4) 0.9221(2) 0.62489(19)
H18 H -0.00660 0.93050 0.68740
C19 C 0.1766(4) 0.9753(2) 0.6051(2)
H19 H 0.18170 1.01960 0.65400
C20 C 0.2820(3) 0.9638(2) 0.5125(2)
H20 H 0.35740 1.00120 0.49820
C21 C 0.2758(2) 0.89655(16) 0.44051(17)
H21 H 0.34810 0.88850 0.37820
C22 C 0.41689(18) 0.70400(12) 0.12498(12)
H22 H 0.33730 0.68160 0.10380
C23 C 0.4743(2) 0.79226(13) 0.05688(12)
H23 H 0.42030 0.81040 0.00450
C24 C 0.6241(2) 0.70663(14) 0.01974(14)
C25 C 0.4838(2) 0.88931(14) 0.10429(13)
C26 C 0.5938(18) 0.8965(15) 0.1495(16)
H24 H 0.67600 0.83880 0.15160
C27 C 0.577(2) 0.9938(11) 0.1922(12)
H25 H 0.65340 1.00150 0.22030
C28 C 0.456(3) 1.0783(10) 0.1957(10)
H26 H 0.45150 1.14140 0.22650
C29 C 0.3408(18) 1.0722(7) 0.1540(7)
H27 H 0.25600 1.12960 0.15680
C30 C 0.3560(17) 0.9759(9) 0.1073(16)
H28 H 0.28040 0.96900 0.07770
C31 C 0.62980(19) 0.52261(13) 0.08421(12)
C32 C 0.7856(2) 0.47680(14) 0.04880(15)
H29 H 0.85240 0.51890 0.02140
C33 C 0.8439(2) 0.36877(15) 0.05343(16)
H30 H 0.94950 0.33840 0.02870
C34 C 0.7467(2) 0.30656(14) 0.09426(14)
C35 C 0.5902(2) 0.35246(14) 0.12876(14)
H31 H 0.52360 0.31020 0.15600
C36 C 0.5313(2) 0.45959(13) 0.12349(13)
H32 H 0.42540 0.48950 0.14640
C37 C 0.9516(3) 0.14970(18) 0.0789(2)
H33 H 0.96740 0.07560 0.09280
H34 H 1.00050 0.18170 0.11750
H35 H 0.99570 0.15800 0.00880
C38? C 0.071(2) 0.4669(10) 0.2668(19)
C39? C 0.1254(17) 0.3554(13) 0.2817(13)
C40? C 0.6204(18) 0.8829(16) 0.1303(17)
C41? C 0.6522(16) 0.9628(11) 0.1789(9)
C42? C 0.5410(19) 1.0561(10) 0.1953(10)
C43? C 0.4107(19) 1.0685(7) 0.1653(8)
C44? C 0.383(2) 0.9867(10) 0.1209(19)
H36? H -0.03160 0.49460 0.31110
H37? H 0.06600 0.47870 0.19820
H38? H 0.05780 0.31840 0.26570
H39? H 0.12640 0.34420 0.35030
H40? H 0.22820 0.32900 0.23880
H41? H 0.69750 0.81980 0.11390
H42? H 0.74280 0.95270 0.19850
H43? H 0.55450 1.11230 0.22770
H44? H 0.33850 1.13410 0.17500
H45? H 0.29190 0.99830 0.10160
O7? O 0.180(2) 0.5220(14) 0.2887(16)
#END
