
#######################################################################
#
#                 Cambridge Crystallographic Data Centre
#                                CCDC
#
#######################################################################
#
# If this CIF has been generated from an entry in the Cambridge
# Structural Database, then it will include bibliographic, chemical,
# crystal, experimental, refinement or atomic coordinate data resulting
# from the CCDC's data processing and validation procedures.
#
#######################################################################

data_CSD_CIF_PUKBAZ
_audit_creation_date 2010-05-04
_audit_creation_method CSD-ConQuest-V1
_database_code_CSD PUKBAZ
_database_code_depnum_ccdc_archive 'CCDC 770030'
_chemical_formula_sum 'C18 H19 N1 O2'
_chemical_formula_moiety
;
C18 H19 N1 O2
;
_journal_coeditor_code "IUCr RZ2417"
_journal_coden_Cambridge 1370
_journal_volume 66
_journal_year 2010
_journal_page_first o645
_journal_name_full 'Acta Crystallogr.,Sect.E:Struct.Rep.Online '
loop_
_publ_author_name
"Xiao-Yan Ma"
"Di-Feng Wu"
"Yang Wang"
"Guo-Wei Gao"
"Jian Men"
_chemical_name_systematic
;
1,3,3-Trimethyl-5-nitro-1-phenylindane
;
_chemical_melting_point 402
_cell_volume   1522.830
_exptl_crystal_colour 'colorless'
_exptl_crystal_density_diffrn 1.227
_exptl_special_details
;
Melting point range 402-404K

;
_exptl_crystal_description 'block'
_exptl_crystal_preparation 'methanol'
_diffrn_ambient_temperature 292
#These two values have been output from a single CSD field.
_refine_ls_R_factor_gt 0.0573
_refine_ls_wR_factor_gt 0.0573
_symmetry_cell_setting monoclinic
_symmetry_space_group_name_H-M 'P 21/c'
_symmetry_Int_Tables_number 14
loop_
_symmetry_equiv_pos_site_id
_symmetry_equiv_pos_as_xyz
1 x,y,z
2 -x,1/2+y,1/2-z
3 -x,-y,-z
4 x,-1/2-y,-1/2+z
_cell_length_a 8.306(3)
_cell_length_b 17.600(3)
_cell_length_c 12.090(4)
_cell_angle_alpha 90
_cell_angle_beta 120.50(3)
_cell_angle_gamma 90
_cell_formula_units_Z 4
loop_
_atom_type_symbol
_atom_type_radius_bond
C 0.68
H 0.23
N 0.68
O 0.68
loop_
_atom_site_label
_atom_site_type_symbol
_atom_site_fract_x
_atom_site_fract_y
_atom_site_fract_z
O1 O 0.3148(4) 0.65100(12) -0.0098(2)
O2 O 0.0977(4) 0.56794(15) -0.0607(2)
N1 N 0.2608(4) 0.58823(15) 0.0018(2)
C1 C 0.3981(4) 0.53506(15) 0.0954(2)
C2 C 0.5784(4) 0.55976(15) 0.1727(3)
H1 H 0.61230 0.60890 0.16470
C3 C 0.7087(4) 0.51059(14) 0.2623(3)
H2 H 0.83130 0.52640 0.31620
C4 C 0.6543(3) 0.43718(14) 0.2711(2)
C5 C 0.4721(4) 0.41334(14) 0.1900(2)
C6 C 0.3404(4) 0.46264(15) 0.1011(2)
H3 H 0.21740 0.44740 0.04720
C7 C 0.7734(4) 0.37453(13) 0.3611(2)
C8 C 0.6503(4) 0.30424(14) 0.2923(3)
H4 H 0.68880 0.28150 0.23630
H5 H 0.66360 0.26660 0.35500
C9 C 0.4461(4) 0.33044(14) 0.2134(3)
C10 C 0.9639(4) 0.36996(17) 0.3688(3)
H6 H 0.94490 0.36810 0.28360
H7 H 1.02860 0.32500 0.41490
H8 H 1.03690 0.41390 0.41260
C11 C 0.3445(4) 0.32497(16) 0.2899(3)
H9 H 0.22240 0.34710 0.24090
H10 H 0.41470 0.35180 0.36960
H11 H 0.33300 0.27260 0.30700
C12 C 0.3375(5) 0.28566(17) 0.0888(3)
H12 H 0.39570 0.29200 0.03820
H13 H 0.21130 0.30400 0.04160
H14 H 0.33700 0.23280 0.10820
C13 C 0.8050(3) 0.38424(14) 0.4966(2)
C14 C 0.7377(4) 0.44583(15) 0.5326(3)
H15 H 0.66840 0.48320 0.47270
C15 C 0.7731(5) 0.45205(18) 0.6572(3)
H16 H 0.72720 0.49360 0.68010
C16 C 0.8742(5) 0.39802(18) 0.7466(3)
H17 H 0.89930 0.40300 0.83050
C17 C 0.9385(4) 0.33629(17) 0.7115(3)
H18 H 1.00520 0.29860 0.77140
C18 C 0.9053(4) 0.32970(15) 0.5890(3)
H19 H 0.95120 0.28760 0.56720
#END
