
#######################################################################
#
#                 Cambridge Crystallographic Data Centre
#                                CCDC
#
#######################################################################
#
# If this CIF has been generated from an entry in the Cambridge
# Structural Database, then it will include bibliographic, chemical,
# crystal, experimental, refinement or atomic coordinate data resulting
# from the CCDC's data processing and validation procedures.
#
#######################################################################

data_CSD_CIF_PUKGIN
_audit_creation_date 2015-08-19
_audit_creation_method CSD-ConQuest-V1
_database_code_CSD PUKGIN
_database_code_depnum_ccdc_archive 'CCDC 1402962'
_chemical_formula_sum 'C9 H7 N1 O3'
_chemical_formula_moiety
;
C9 H7 N1 O3
;
_journal_coden_Cambridge 24
_journal_volume 56
_journal_year 2015
_journal_page_first 5504
_journal_name_full 'Tetrahedron Lett. '
loop_
_publ_author_name
"You Li"
"Jinyang Chen"
"Renhua Qiu"
"Xie Wang"
"Jinguo Long"
"Longzhi Zhu"
"Chak-Tong Au"
"Xinhua Xu"
_chemical_name_systematic
;
4-Nitrophenyl propadienyl ether
;
_cell_volume    805.062
_exptl_crystal_colour 'colorless'
_exptl_crystal_density_diffrn 1.462
_exptl_crystal_description 'Block'
_diffrn_ambient_temperature 100
#These two values have been output from a single CSD field.
_refine_ls_R_factor_gt 0.0312
_refine_ls_wR_factor_gt 0.0312
_symmetry_cell_setting monoclinic
_symmetry_space_group_name_H-M 'P 21/c'
_symmetry_Int_Tables_number 14
loop_
_symmetry_equiv_pos_site_id
_symmetry_equiv_pos_as_xyz
1 x,y,z
2 -x,1/2+y,1/2-z
3 -x,-y,-z
4 x,-1/2-y,-1/2+z
_cell_length_a 3.7165(4)
_cell_length_b 12.1652(13)
_cell_length_c 17.811(2)
_cell_angle_alpha 90
_cell_angle_beta 91.304(2)
_cell_angle_gamma 90
_cell_formula_units_Z 4
loop_
_atom_type_symbol
_atom_type_radius_bond
C 0.68
H 0.23
N 0.68
O 0.68
loop_
_atom_site_label
_atom_site_type_symbol
_atom_site_fract_x
_atom_site_fract_y
_atom_site_fract_z
O1 O 0.2939(2) 0.48946(6) 0.41328(4)
O2 O 0.0218(3) 0.00488(7) 0.30872(5)
O3 O -0.2055(3) 0.00173(8) 0.41947(6)
N1 N -0.0521(3) 0.04929(9) 0.36858(6)
C1 C 0.3838(3) 0.76645(10) 0.36108(7)
H1 H 0.21540 0.80290 0.33080
H2 H 0.54220 0.80880 0.39000
C2 C 0.4120(3) 0.66027(10) 0.36030(6)
C3 C 0.4580(3) 0.55419(10) 0.35955(6)
H3 H 0.59980 0.52190 0.32330
C4 C 0.2181(3) 0.38180(9) 0.39750(6)
C5 C 0.2525(3) 0.33347(9) 0.32721(6)
H4 H 0.33150 0.37450 0.28670
C6 C 0.1677(3) 0.22354(10) 0.31844(6)
H5 H 0.19290 0.18950 0.27210
C7 C 0.0447(3) 0.16456(9) 0.37919(6)
C8 C 0.0040(3) 0.21221(9) 0.44926(6)
H6 H -0.08120 0.17130 0.48920
C9 C 0.0927(3) 0.3215(1) 0.45824(6)
H7 H 0.06900 0.35510 0.50480
#END
