
#######################################################################
#
#                 Cambridge Crystallographic Data Centre
#                                CCDC
#
#######################################################################
#
# If this CIF has been generated from an entry in the Cambridge
# Structural Database, then it will include bibliographic, chemical,
# crystal, experimental, refinement or atomic coordinate data resulting
# from the CCDC's data processing and validation procedures.
#
#######################################################################

data_CSD_CIF_PUKPIV
_audit_creation_date 2010-04-23
_audit_creation_method CSD-ConQuest-V1
_database_code_CSD PUKPIV
_database_code_depnum_ccdc_archive 'CCDC 757717'
_chemical_formula_sum 'C21 H26 N2 O6'
_chemical_formula_moiety
;
C21 H26 N2 O6
;
_journal_coeditor_code "IUCr HG2634"
_journal_coden_Cambridge 1370
_journal_volume 66
_journal_year 2010
_journal_page_first o512
_journal_name_full 'Acta Crystallogr.,Sect.E:Struct.Rep.Online '
loop_
_publ_author_name
"Li Wang"
"Yin-Xia Sun"
"Jun-Feng Tong"
_chemical_name_systematic
;
6,6'-Diethoxy-2,2'-[propane-1,3-diyldioxybis(nitrilomethylidyne)]diphenol
;
_chemical_name_common
;
2,2'-(3,7-Dioxa-2,8-diazanona-1,8-diene-1,9-diyl)bis(6-ethoxyphenol)
;
_chemical_melting_point 462.5
_cell_volume   4105.955
_exptl_crystal_colour 'colorless'
_exptl_crystal_density_diffrn 1.302
_exptl_special_details
;
Melting point range 462.5-463.5K

;
_exptl_crystal_description 'needle'
_exptl_crystal_preparation 'methanol'
_diffrn_ambient_temperature 298
#These two values have been output from a single CSD field.
_refine_ls_R_factor_gt 0.0365
_refine_ls_wR_factor_gt 0.0365
_symmetry_cell_setting orthorhombic
_symmetry_space_group_name_H-M 'F d d 2'
_symmetry_Int_Tables_number 43
loop_
_symmetry_equiv_pos_site_id
_symmetry_equiv_pos_as_xyz
1 x,y,z
2 -x,-y,z
3 1/4+x,1/4-y,1/4+z
4 1/4-x,1/4+y,1/4+z
5 x,1/2+y,1/2+z
6 -x,1/2-y,1/2+z
7 1/4+x,3/4-y,3/4+z
8 1/4-x,3/4+y,3/4+z
9 1/2+x,y,1/2+z
10 1/2-x,-y,1/2+z
11 3/4+x,1/4-y,3/4+z
12 3/4-x,1/4+y,3/4+z
13 1/2+x,1/2+y,z
14 1/2-x,1/2-y,z
15 3/4+x,3/4-y,1/4+z
16 3/4-x,3/4+y,1/4+z
_cell_length_a 25.292(2)
_cell_length_b 34.412(3)
_cell_length_c 4.7176(5)
_cell_angle_alpha 90
_cell_angle_beta 90
_cell_angle_gamma 90
_cell_formula_units_Z 8
loop_
_atom_type_symbol
_atom_type_radius_bond
C 0.68
H 0.23
N 0.68
O 0.68
loop_
_atom_site_label
_atom_site_type_symbol
_atom_site_fract_x
_atom_site_fract_y
_atom_site_fract_z
N1 N 0.23158(9) 0.17094(6) 0.6113(5)
O1 O 0.21889(7) 0.20179(5) 0.4290(5)
O2 O 0.28824(6) 0.11584(5) 0.8533(5)
H1 H 0.28260 0.13340 0.73990
O3 O 0.29360(7) 0.05913(6) 1.2148(5)
C1 C 0.26566(10) 0.21504(7) 0.2881(7)
H2 H 0.27960 0.19480 0.16600
H3 H 0.29260 0.22200 0.42550
C2 C 0.25000 0.25000 0.1155(10)
H4 H 0.27940 0.25710 -0.00590
C3 C 0.19084(11) 0.15810(7) 0.7412(6)
H5 H 0.15800 0.16920 0.70500
C4 C 0.19489(10) 0.12638(7) 0.9451(6)
C5 C 0.24271(10) 0.10703(7) 0.9928(6)
C6 C 0.2450(1) 0.07660(7) 1.1909(6)
C7 C 0.20034(10) 0.06695(8) 1.3422(7)
H6 H 0.20210 0.04740 1.47820
C8 C 0.15281(11) 0.08595(8) 1.2947(7)
H7 H 0.12280 0.07880 1.39600
C9 C 0.15006(10) 0.11522(8) 1.0988(7)
H8 H 0.11810 0.12780 1.06740
C10 C 0.29937(10) 0.02900(8) 1.4204(7)
H9 H 0.27390 0.00850 1.38670
H10 H 0.29390 0.03920 1.61000
C11 C 0.35463(10) 0.01383(9) 1.3886(11)
H11 H 0.36090 0.00720 1.19380
H12 H 0.35900 -0.00880 1.50480
H13 H 0.37930 0.03350 1.44670
N1M N 0.26842(9) 0.32906(6) 0.6113(5)
O1M O 0.28111(7) 0.29821(5) 0.4290(5)
O2M O 0.21176(6) 0.38416(5) 0.8533(5)
H1M H 0.21740 0.36660 0.73990
O3M O 0.20640(7) 0.44087(6) 1.2148(5)
C1M C 0.23434(10) 0.28496(7) 0.2881(7)
H2M H 0.22040 0.30520 0.16600
H3M H 0.20740 0.27800 0.42550
H4M H 0.22060 0.24290 -0.00590
C3M C 0.30916(11) 0.34190(7) 0.7412(6)
H5M H 0.34200 0.33080 0.70500
C4M C 0.30511(10) 0.37362(7) 0.9451(6)
C5M C 0.25729(10) 0.39297(7) 0.9928(6)
C6M C 0.2550(1) 0.42340(7) 1.1909(6)
C7M C 0.29966(10) 0.43305(8) 1.3422(7)
H6M H 0.29790 0.45260 1.47820
C8M C 0.34719(11) 0.41405(8) 1.2947(7)
H7M H 0.37720 0.42120 1.39600
C9M C 0.34994(10) 0.38478(8) 1.0988(7)
H8M H 0.38190 0.37220 1.06740
C10M C 0.20063(10) 0.47100(8) 1.4204(7)
H9M H 0.22610 0.49150 1.38670
H10M H 0.20610 0.46080 1.61000
C11M C 0.14537(10) 0.48617(9) 1.3886(11)
H11M H 0.13910 0.49280 1.19380
H12M H 0.14100 0.50880 1.50480
H13M H 0.12070 0.46650 1.44670
#END
