
#######################################################################
#
#                 Cambridge Crystallographic Data Centre
#                                CCDC
#
#######################################################################
#
# If this CIF has been generated from an entry in the Cambridge
# Structural Database, then it will include bibliographic, chemical,
# crystal, experimental, refinement or atomic coordinate data resulting
# from the CCDC's data processing and validation procedures.
#
#######################################################################

data_CSD_CIF_PUKPOB
_audit_creation_date 2010-04-23
_audit_creation_method CSD-ConQuest-V1
_database_code_CSD PUKPOB
_database_code_depnum_ccdc_archive 'CCDC 765982'
_chemical_formula_sum 'C19 H22 N4 O2'
_chemical_formula_moiety
;
C19 H22 N4 O2
;
_journal_coeditor_code "IUCr NG2723"
_journal_coden_Cambridge 1370
_journal_volume 66
_journal_year 2010
_journal_page_first o515
_journal_name_full 'Acta Crystallogr.,Sect.E:Struct.Rep.Online '
loop_
_publ_author_name
"M.Kannan"
"P.Manivel"
"M.Sarathbabu"
"R.Sathishkumar"
"H.S.P.Rao"
"R.Krishna"
_chemical_name_systematic
;
3-Benzyl-6-benzylamino-1-methyl-5-nitro-1,2,3,4-tetrahydropyrimidine
;
_cell_volume   7780.758
_exptl_crystal_colour 'yellow'
_exptl_crystal_density_diffrn 1.3
_exptl_crystal_description 'rectangle'
_exptl_crystal_preparation 'hexane/ethyl acetate'
_diffrn_ambient_temperature 292
#These two values have been output from a single CSD field.
_refine_ls_R_factor_gt 0.0669
_refine_ls_wR_factor_gt 0.0669
_symmetry_cell_setting rhombohedral
_symmetry_space_group_name_H-M 'R -3'
_symmetry_Int_Tables_number 148
loop_
_symmetry_equiv_pos_site_id
_symmetry_equiv_pos_as_xyz
1 x,y,z
2 -y,x-y,z
3 -x+y,-x,z
4 2/3+x,1/3+y,1/3+z
5 2/3-y,1/3+x-y,1/3+z
6 2/3-x+y,1/3-x,1/3+z
7 1/3+x,2/3+y,2/3+z
8 1/3-y,2/3+x-y,2/3+z
9 1/3-x+y,2/3-x,2/3+z
10 -x,-y,-z
11 y,-x+y,-z
12 x-y,x,-z
13 -2/3-x,-1/3-y,-1/3-z
14 -2/3+y,-1/3-x+y,-1/3-z
15 -2/3+x-y,-1/3+x,-1/3-z
16 -1/3-x,-2/3-y,-2/3-z
17 -1/3+y,-2/3-x+y,-2/3-z
18 -1/3+x-y,-2/3+x,-2/3-z
_cell_length_a 29.2634(12)
_cell_length_b 29.2634(12)
_cell_length_c 10.4916(8)
_cell_angle_alpha 90
_cell_angle_beta 90
_cell_angle_gamma 120
_cell_formula_units_Z 18
loop_
_atom_type_symbol
_atom_type_radius_bond
C 0.68
H 0.23
N 0.68
O 0.68
loop_
_atom_site_label
_atom_site_type_symbol
_atom_site_fract_x
_atom_site_fract_y
_atom_site_fract_z
N1 N 0.39006(6) 0.15310(6) 0.51966(16)
H1 H 0.36000 0.14950 0.54060
N2 N 0.42905(6) 0.10207(6) 0.47194(16)
O1 O 0.31664(6) 0.11208(6) 0.69111(16)
N3 N 0.33057(6) 0.07772(7) 0.71280(16)
C1 C 0.39627(7) 0.11153(7) 0.54251(18)
O2 O 0.30683(6) 0.04390(7) 0.79948(16)
N4 N 0.43266(7) 0.04487(7) 0.63639(18)
C2 C 0.37971(8) 0.03212(8) 0.6772(2)
H2 H 0.37660 0.02650 0.76870
H3 H 0.35380 -0.00040 0.63660
C3 C 0.36820(7) 0.07530(7) 0.64406(19)
C4 C 0.52871(8) 0.09734(8) 0.68224(19)
C5 C 0.48157(8) 0.22891(7) 0.5254(2)
C6 C 0.42799(8) 0.20390(8) 0.4635(2)
H4 H 0.41420 0.22780 0.47070
H5 H 0.43170 0.19890 0.37350
C7 C 0.47407(8) 0.08550(9) 0.7173(2)
H6 H 0.46720 0.07390 0.80530
H7 H 0.47240 0.11770 0.71080
C8 C 0.43797(9) 0.05758(9) 0.5043(2)
H8 H 0.41300 0.02660 0.45700
H9 H 0.47320 0.06660 0.47700
C9 C 0.54609(9) 0.06237(9) 0.7111(2)
H10 H 0.52280 0.03000 0.74810
C10 C 0.48633(10) 0.23062(9) 0.6569(2)
H11 H 0.45610 0.21580 0.70700
C11 C 0.59728(10) 0.07457(11) 0.6862(2)
H12 H 0.60810 0.05040 0.70590
C12 C 0.56396(10) 0.14432(9) 0.6243(2)
H13 H 0.55290 0.16800 0.60120
C13 C 0.63221(10) 0.12213(11) 0.6324(2)
H14 H 0.66700 0.13090 0.61800
C14 C 0.61539(11) 0.15683(10) 0.5999(3)
H15 H 0.63870 0.18880 0.56150
C15 C 0.52736(10) 0.25208(9) 0.4537(3)
H16 H 0.52550 0.25210 0.36520
C16 C 0.57623(10) 0.27535(10) 0.5138(4)
H17 H 0.60680 0.29070 0.46500
C17 C 0.57985(12) 0.27599(11) 0.6432(4)
H18 H 0.61270 0.29150 0.68240
C18 C 0.53505(12) 0.25380(11) 0.7148(3)
H19 H 0.53740 0.25430 0.80320
C19 C 0.44266(10) 0.12018(9) 0.3407(2)
H20 H 0.41580 0.12600 0.30510
H21 H 0.44520 0.09390 0.29150
H22 H 0.47590 0.15250 0.33910
#END
