
#######################################################################
#
#                 Cambridge Crystallographic Data Centre
#                                CCDC
#
#######################################################################
#
# If this CIF has been generated from an entry in the Cambridge
# Structural Database, then it will include bibliographic, chemical,
# crystal, experimental, refinement or atomic coordinate data resulting
# from the CCDC's data processing and validation procedures.
#
#######################################################################

data_CSD_CIF_PUMQEV
_audit_creation_date 2015-08-21
_audit_creation_method CSD-ConQuest-V1
_database_code_CSD PUMQEV
_database_code_depnum_ccdc_archive 'CCDC 937234'
_chemical_formula_sum 'C20 H22 N2 O10'
_chemical_formula_moiety
;
C20 H22 N2 O10
;
_journal_coden_Cambridge 34
_journal_volume 52
_journal_year 2015
_journal_page_first 1055
_journal_name_full 'J.Heterocycl.Chem. '
loop_
_publ_author_name
"Wei Tan"
"Bai-Xiang Du"
"Lu Guo"
"Mei Li"
"Gui-Juan Xing"
"Feng Shi"
_chemical_name_systematic
;
2,2-Diethyl 3,4-dimethyl 
5-(4-nitrophenyl)-1,5-dihydro-2H-pyrrole-2,2,3,4-tetracarboxylate
;
_cell_volume   1081.418
_exptl_crystal_density_diffrn 1.383
_diffrn_ambient_temperature 295
#These two values have been output from a single CSD field.
_refine_ls_R_factor_gt 0.0442
_refine_ls_wR_factor_gt 0.0442
_symmetry_cell_setting triclinic
_symmetry_space_group_name_H-M 'P -1'
_symmetry_Int_Tables_number 2
loop_
_symmetry_equiv_pos_site_id
_symmetry_equiv_pos_as_xyz
1 x,y,z
2 -x,-y,-z
_cell_length_a 8.2083(6)
_cell_length_b 11.9347(8)
_cell_length_c 12.1564(9)
_cell_angle_alpha 69.794(6)
_cell_angle_beta 75.441(6)
_cell_angle_gamma 86.226(6)
_cell_formula_units_Z 2
loop_
_atom_type_symbol
_atom_type_radius_bond
C 0.68
H 0.23
N 0.68
O 0.68
loop_
_atom_site_label
_atom_site_type_symbol
_atom_site_fract_x
_atom_site_fract_y
_atom_site_fract_z
O1 O 0.61839(18) 0.24634(11) 0.41657(10)
O2 O 0.69379(17) 0.54696(10) 0.50991(11)
O3 O 0.61767(19) 0.05169(11) 0.82447(12)
O4 O 0.84023(15) 0.40072(11) 0.45769(11)
O5 O 0.6844(3) 0.08544(13) 0.55510(14)
O6 O 0.3842(2) -0.03403(12) 0.82286(15)
O7 O 0.12609(19) 0.20364(15) 0.75599(15)
O8 O 0.8446(2) 0.46011(19) 1.10730(15)
N1 N 0.4162(2) 0.25427(13) 0.80438(13)
O9 O 0.26956(18) 0.14250(13) 0.60515(12)
C1 C 0.7150(2) 0.44290(14) 0.52374(13)
C2 C 0.2544(3) 0.17581(16) 0.69994(17)
C3 C 0.6562(2) 0.57447(16) 0.86235(16)
H1 H 0.65050 0.65430 0.85660
C4 C 0.5914(2) 0.41515(14) 0.80046(13)
O10 O 0.8086(2) 0.64212(19) 1.0043(2)
N2 N 0.8020(2) 0.5354(2) 1.02263(18)
C5 C 0.6015(2) 0.34795(13) 0.61935(13)
C6 C 0.5607(2) 0.24313(14) 0.61732(14)
C7 C 0.6294(2) 0.18283(15) 0.52696(15)
C8 C 0.6799(2) 0.33711(16) 0.87748(16)
H2 H 0.69000 0.25780 0.88140
C9 C 0.4968(2) 0.37157(13) 0.73036(13)
H3 H 0.40990 0.42900 0.70710
C10 C 0.6759(4) 0.1878(2) 0.32758(19)
H4 H 0.65030 0.23610 0.25270
H5 H 0.62010 0.11120 0.35610
H6 H 0.79530 0.17740 0.31500
C11 C 0.7534(2) 0.37666(18) 0.94864(17)
H7 H 0.81250 0.32470 1.00070
C12 C 0.4249(2) 0.18038(14) 0.72949(15)
C13 C 0.7372(2) 0.49434(18) 0.94071(16)
C14 C 0.5829(2) 0.53401(14) 0.79192(15)
H8 H 0.52710 0.58720 0.73820
C15 C 0.1622(4) 0.1836(2) 0.4319(2)
H9 H 0.20660 0.26390 0.40150
H10 H 0.06360 0.18180 0.40370
H11 H 0.24550 0.13280 0.40390
C16 C 0.1183(3) 0.1416(3) 0.5633(2)
H12 H 0.07040 0.06130 0.59460
H13 H 0.03510 0.19310 0.59220
C17 C 0.4715(3) 0.05187(16) 0.79706(15)
C18 C 0.9487(2) 0.48861(19) 0.35539(17)
H14 H 0.89190 0.52000 0.29140
H15 H 1.05060 0.45160 0.32750
H16 H 0.97540 0.55230 0.37960
C19 C 0.6826(3) -0.06409(18) 0.8821(2)
H17 H 0.70170 -0.11090 0.82900
H18 H 0.60220 -0.10720 0.95640
C20 C 0.8435(4) -0.0441(3) 0.9084(3)
H19 H 0.92270 -0.00240 0.83430
H20 H 0.88830 -0.11970 0.94740
H21 H 0.82340 0.00250 0.96070
H22 H 0.311(3) 0.2616(19) 0.838(2)
#END
