
#######################################################################
#
#                 Cambridge Crystallographic Data Centre
#                                CCDC
#
#######################################################################
#
# If this CIF has been generated from an entry in the Cambridge
# Structural Database, then it will include bibliographic, chemical,
# crystal, experimental, refinement or atomic coordinate data resulting
# from the CCDC's data processing and validation procedures.
#
#######################################################################

data_CSD_CIF_PUMSUN
_audit_creation_date 2015-08-21
_audit_creation_method CSD-ConQuest-V1
_database_code_CSD PUMSUN
_database_code_depnum_ccdc_archive 'CCDC 1036523'
_chemical_formula_sum 'C22 H21 N3 O4'
_chemical_formula_moiety
;
C22 H21 N3 O4
;
_journal_coden_Cambridge 172
_journal_volume 48
_journal_year 2015
_journal_page_first 6132
_journal_name_full 'Macromolecules '
loop_
_publ_author_name
"A.Feula"
"A.Pethybridge"
"I.Giannakopoulos"
"Xuegang Tang"
"A.Chippindale"
"C.R.Siviour"
"C.Paul Buckley"
"I.W.Hamley"
"W.Hayes"
_chemical_name_systematic
;
1-(4-Methoxybenzyl)-1-(4-nitrobenzyl)-3-phenylurea
;
_cell_volume   4172.889
_exptl_crystal_colour 'yellow'
_exptl_crystal_density_diffrn 1.246
_exptl_special_details
;
Moisture-sensitive

;
_exptl_crystal_description 'plate'
_exptl_crystal_preparation 'tetrahydrofuran'
_diffrn_ambient_temperature 150
_diffrn_special_details
;
twin

;
#These two values have been output from a single CSD field.
_refine_ls_R_factor_gt 0.0642
_refine_ls_wR_factor_gt 0.0642
_symmetry_cell_setting monoclinic
_symmetry_space_group_name_H-M 'P 21/c'
_symmetry_Int_Tables_number 14
loop_
_symmetry_equiv_pos_site_id
_symmetry_equiv_pos_as_xyz
1 x,y,z
2 -x,1/2+y,1/2-z
3 -x,-y,-z
4 x,-1/2-y,-1/2+z
_cell_length_a 9.0183(4)
_cell_length_b 23.4086(8)
_cell_length_c 20.2651(10)
_cell_angle_alpha 90
_cell_angle_beta 102.732(5)
_cell_angle_gamma 90
_cell_formula_units_Z 8
loop_
_atom_type_symbol
_atom_type_radius_bond
C 0.68
H 0.23
N 0.68
O 0.68
loop_
_atom_site_label
_atom_site_type_symbol
_atom_site_fract_x
_atom_site_fract_y
_atom_site_fract_z
O1 O 0.5643(2) 0.48619(8) 0.29145(9)
O2 O 0.5523(5) 0.26712(12) 0.50247(18)
O3 O 1.4075(4) 0.34023(12) 0.14667(16)
O4 O 1.2439(4) 0.37844(14) 0.06600(14)
N1 N 0.7787(3) 0.43605(9) 0.29199(11)
N2 N 0.7888(3) 0.53434(9) 0.30797(11)
N3 N 1.2890(3) 0.36463(10) 0.12656(13)
C1 C 0.7012(3) 0.4859(1) 0.29690(12)
C2 C 0.6878(4) 0.38439(11) 0.27487(15)
C3 C 0.6571(3) 0.35195(11) 0.33517(15)
C4 C 0.6640(4) 0.37700(12) 0.39698(16)
C5 C 0.6300(5) 0.34827(15) 0.45160(17)
C6 C 0.5841(6) 0.29220(14) 0.44374(19)
C7 C 0.4956(12) 0.2097(2) 0.4918(4)
C8 C 0.5745(5) 0.26565(13) 0.3827(2)
C9 C 0.6119(4) 0.29496(12) 0.32782(19)
C10 C 0.9389(3) 0.42742(11) 0.31815(13)
C11 C 1.0262(3) 0.40958(10) 0.26598(13)
C12 C 1.1579(3) 0.37732(11) 0.28619(14)
C13 C 1.2447(4) 0.36220(11) 0.24025(16)
C14 C 1.1977(3) 0.37936(11) 0.17356(15)
C15 C 1.0673(4) 0.41175(12) 0.15255(15)
C16 C 0.9836(3) 0.42629(12) 0.19876(14)
C17 C 0.7277(3) 0.58831(11) 0.31968(13)
C18 C 0.7768(4) 0.63610(12) 0.28904(17)
C19 C 0.7198(5) 0.68966(13) 0.3004(2)
C20 C 0.6170(5) 0.69609(14) 0.3396(2)
C21 C 0.5689(4) 0.64898(14) 0.37051(16)
C22 C 0.6270(3) 0.59482(12) 0.36104(13)
H1 H 0.59490 0.39470 0.24740
H2 H 0.73900 0.36020 0.25110
H3 H 0.69290 0.41520 0.40250
H4 H 0.63800 0.36660 0.49300
H5 H 0.47680 0.19530 0.53190
H6 H 0.56760 0.18690 0.47780
H7 H 0.40610 0.20960 0.45860
H8 H 0.54290 0.22780 0.37750
H9 H 0.60650 0.27630 0.28680
H10 H 0.98030 0.46150 0.33760
H11 H 0.95080 0.39910 0.35120
H12 H 1.18820 0.36570 0.33110
H13 H 1.33300 0.34080 0.25400
H14 H 1.03700 0.42340 0.10770
H15 H 0.89580 0.44790 0.18470
H16 H 0.84640 0.63220 0.26160
H17 H 0.75290 0.72170 0.28060
H18 H 0.57890 0.73220 0.34570
H19 H 0.49820 0.65330 0.39740
H20 H 0.59740 0.56320 0.38280
H21 H 0.88380 0.53190 0.30780
O5 O 0.0392(2) 0.55468(8) 0.24657(10)
O6 O -0.0797(4) 0.81033(9) 0.07280(13)
O7 O 0.7073(3) 0.42148(11) 0.02540(14)
O8 O 0.8421(3) 0.49673(13) 0.02199(13)
N4 N 0.2238(3) 0.57196(9) 0.18891(11)
N5 N 0.2873(3) 0.53969(10) 0.29931(12)
N6 N 0.7375(3) 0.47134(13) 0.03879(13)
C23 C 0.0640(3) 0.64233(11) 0.11256(13)
C24 C 0.0419(6) 0.67903(14) 0.16319(18)
C25 C -0.0053(6) 0.73487(15) 0.1490(2)
C26 C -0.0309(4) 0.75450(12) 0.08249(17)
C27 C -0.0991(7) 0.83203(15) 0.0070(2)
C28 C 0.0036(7) 0.72077(16) 0.03401(17)
C29 C 0.0502(6) 0.66440(15) 0.04977(17)
C30 C 0.1752(3) 0.5557(1) 0.24560(12)
C31 C 0.3744(3) 0.59508(11) 0.18990(13)
C32 C 0.4654(3) 0.56149(11) 0.14909(12)
C33 C 0.5830(3) 0.58907(11) 0.12695(14)
C34 C 0.6722(4) 0.56023(13) 0.09045(15)
C35 C 0.6427(3) 0.50317(13) 0.07698(13)
C36 C 0.5287(4) 0.47449(12) 0.09804(14)
C37 C 0.4397(3) 0.50402(12) 0.13422(14)
C38 C 0.2603(3) 0.52618(11) 0.36374(14)
C39 C 0.3403(3) 0.48077(11) 0.39929(14)
C40 C 0.3190(4) 0.46681(12) 0.46318(15)
C41 C 0.2169(4) 0.49696(14) 0.49131(15)
C42 C 0.1113(3) 0.58078(11) 0.12674(13)
C43 C 0.1382(4) 0.54176(13) 0.45615(15)
C44 C 0.1599(3) 0.55773(12) 0.39312(14)
H22 H 0.05920 0.66590 0.20760
H23 H -0.02000 0.75900 0.18340
H24 H -0.13190 0.86970 0.00610
H25 H -0.00680 0.83050 -0.00650
H26 H -0.17090 0.81030 -0.02240
H27 H -0.00350 0.73480 -0.00950
H28 H 0.07240 0.64130 0.01590
H29 H 0.36270 0.63210 0.17280
H30 H 0.42880 0.59600 0.23460
H31 H 0.60160 0.62760 0.13700
H32 H 0.74970 0.57880 0.07540
H33 H 0.51150 0.43590 0.08820
H34 H 0.36180 0.48510 0.14870
H35 H 0.40790 0.45980 0.38020
H36 H 0.37410 0.43690 0.48720
H37 H 0.20140 0.48700 0.53370
H38 H 0.15120 0.56750 0.09100
H39 H 0.02520 0.55970 0.12910
H40 H 0.06880 0.56190 0.47510
H41 H 0.10830 0.58900 0.37060
H42 H 0.37890 0.53770 0.29370
#END
