
#######################################################################
#
#                 Cambridge Crystallographic Data Centre
#                                CCDC
#
#######################################################################
#
# If this CIF has been generated from an entry in the Cambridge
# Structural Database, then it will include bibliographic, chemical,
# crystal, experimental, refinement or atomic coordinate data resulting
# from the CCDC's data processing and validation procedures.
#
#######################################################################

data_CSD_CIF_PUMSUM
_audit_creation_date 2010-09-06
_audit_creation_method CSD-ConQuest-V1
_database_code_CSD PUMSUM
_database_code_depnum_ccdc_archive 'CCDC 650788'
_chemical_formula_sum 'C15 H19 N4 O2'
_chemical_formula_moiety
;
C15 H19 N4 O2
;
_journal_coden_Cambridge 119
_journal_volume 964
_journal_year 2010
_journal_page_first 97
_journal_name_full 'J.Mol.Struct. '
loop_
_publ_author_name
"Li-Ya Wang"
"Xiao-Yuan Sun"
"Rui-Hua Yang"
"Kai Jiang"
"Yu-Fang Wang"
_chemical_name_systematic
;
4,4,5,5-Tetramethyl-2-(1-methyl-1H-benzimidazol-2-yl)-4,5-dihydroimidazole-1-o
xyl-3-oxide
;
_cell_volume   1520.477
_exptl_crystal_density_diffrn 1.255
_diffrn_ambient_temperature 291
#These two values have been output from a single CSD field.
_refine_ls_R_factor_gt 0.0416
_refine_ls_wR_factor_gt 0.0416
_symmetry_cell_setting monoclinic
_symmetry_space_group_name_H-M 'P 21/n'
_symmetry_Int_Tables_number 14
loop_
_symmetry_equiv_pos_site_id
_symmetry_equiv_pos_as_xyz
1 x,y,z
2 1/2-x,1/2+y,1/2-z
3 -x,-y,-z
4 -1/2+x,-1/2-y,-1/2+z
_cell_length_a 6.5485(7)
_cell_length_b 21.234(2)
_cell_length_c 11.0279(12)
_cell_angle_alpha 90
_cell_angle_beta 97.455(1)
_cell_angle_gamma 90
_cell_formula_units_Z 4
loop_
_atom_type_symbol
_atom_type_radius_bond
C 0.68
H 0.23
N 0.68
O 0.68
loop_
_atom_site_label
_atom_site_type_symbol
_atom_site_fract_x
_atom_site_fract_y
_atom_site_fract_z
O1 O 0.5143(2) 0.06789(6) 0.75732(12)
O2 O 0.0778(3) 0.23367(7) 0.64512(13)
N1 N 0.3247(2) 0.10693(7) 0.46631(12)
N2 N 0.0099(2) 0.09468(6) 0.52536(11)
N3 N 0.4267(2) 0.12122(6) 0.75779(12)
N4 N 0.2185(2) 0.20047(7) 0.70541(13)
C1 C -0.0048(2) 0.07269(7) 0.40689(14)
C2 C -0.1692(3) 0.04744(8) 0.32938(16)
H1 H -0.29790 0.04140 0.35460
C3 C -0.1304(3) 0.03197(9) 0.21335(17)
H2 H -0.23620 0.01520 0.15840
C4 C 0.0630(3) 0.04073(9) 0.17563(16)
H3 H 0.08200 0.03020 0.09600
C5 C 0.2261(3) 0.06453(9) 0.25295(15)
H4 H 0.35510 0.06960 0.22750
C6 C 0.1912(3) 0.08084(7) 0.37109(14)
C7 C -0.1544(3) 0.09488(9) 0.60268(16)
H5 H -0.15340 0.05580 0.64640
H6 H -0.28470 0.10000 0.55270
H7 H -0.13340 0.12910 0.65990
C8 C 0.2082(2) 0.11393(7) 0.55423(14)
C9 C 0.2816(3) 0.14377(8) 0.67209(14)
C10 C 0.4574(3) 0.16380(8) 0.86798(15)
C11 C 0.3556(3) 0.22573(8) 0.81496(15)
C12 C 0.6861(3) 0.16794(12) 0.9136(2)
H8 H 0.73640 0.12710 0.94020
H9 H 0.70780 0.19700 0.98080
H10 H 0.75870 0.18240 0.84860
C13 C 0.3435(4) 0.13276(11) 0.96377(19)
H11 H 0.19990 0.12930 0.93300
H12 H 0.35930 0.15780 1.03680
H13 H 0.39920 0.09150 0.98200
C14 C 0.5057(4) 0.27030(11) 0.7636(2)
H14 H 0.58490 0.24730 0.71110
H15 H 0.59640 0.28850 0.82970
H16 H 0.43010 0.30310 0.71780
C15 C 0.2252(4) 0.26105(11) 0.8964(2)
H17 H 0.16030 0.29630 0.85250
H18 H 0.31110 0.27580 0.96790
H19 H 0.12160 0.23340 0.92040
#END
