
#######################################################################
#
#                 Cambridge Crystallographic Data Centre
#                                CCDC
#
#######################################################################
#
# If this CIF has been generated from an entry in the Cambridge
# Structural Database, then it will include bibliographic, chemical,
# crystal, experimental, refinement or atomic coordinate data resulting
# from the CCDC's data processing and validation procedures.
#
#######################################################################

data_CSD_CIF_PUNDOT
_audit_creation_date 2015-08-23
_audit_creation_method CSD-ConQuest-V1
_database_code_CSD PUNDOT
_database_code_depnum_ccdc_archive 'CCDC 1415489'
_chemical_formula_sum 'C9 H10 N2 O4'
_chemical_formula_moiety
;
C9 H10 N2 O4
;
_journal_coeditor_code "hb7463"
_journal_coden_Cambridge 1828
_journal_volume 71
_journal_year 2015
_journal_page_first o670
_journal_name_full 'Acta Crystallogr.,Sect.E:Cryst.Commun. '
loop_
_publ_author_name
"O.Brihi"
"N.Hamdouni"
"A.Boudjada"
"J.Meinnel"
_chemical_name_systematic
;
2,6-Dinitro-1,3,5-trimethylbenzene
;
_cell_volume    989.628
_exptl_crystal_colour 'colorless'
_exptl_crystal_density_diffrn 1.411
_exptl_crystal_description 'Needle'
_diffrn_ambient_temperature 293
#These two values have been output from a single CSD field.
_refine_ls_R_factor_gt 0.0534
_refine_ls_wR_factor_gt 0.0534
_symmetry_cell_setting orthorhombic
_symmetry_space_group_name_H-M 'P 21 21 21'
_symmetry_Int_Tables_number 19
loop_
_symmetry_equiv_pos_site_id
_symmetry_equiv_pos_as_xyz
1 x,y,z
2 1/2-x,-y,1/2+z
3 1/2+x,1/2-y,-z
4 -x,1/2+y,1/2-z
_cell_length_a 4.136(5)
_cell_length_b 13.916(5)
_cell_length_c 17.194(5)
_cell_angle_alpha 90
_cell_angle_beta 90
_cell_angle_gamma 90
_cell_formula_units_Z 4
loop_
_atom_type_symbol
_atom_type_radius_bond
C 0.68
H 0.23
N 0.68
O 0.68
loop_
_atom_site_label
_atom_site_type_symbol
_atom_site_fract_x
_atom_site_fract_y
_atom_site_fract_z
O1 O 0.5095(6) 0.13682(16) 0.51948(12)
O2 O 0.4780(6) 0.14379(17) 0.16111(14)
O3 O 0.1589(6) 0.0227(2) 0.51482(12)
O4 O 0.8082(7) 0.22717(18) 0.22671(15)
N1 N 0.3785(6) 0.06911(19) 0.48712(13)
N2 N 0.6374(6) 0.15688(17) 0.21810(14)
C1 C 0.4961(5) 0.04214(19) 0.40898(13)
C2 C 0.5978(6) -0.05263(18) 0.39734(15)
C3 C 0.7215(6) -0.07338(17) 0.32487(16)
C4 C 0.7380(6) -0.00732(19) 0.26478(14)
C5 C 0.6263(6) 0.08533(17) 0.28156(15)
C6 C 0.5084(5) 0.11344(17) 0.35299(14)
C7 C 0.3848(8) 0.21448(18) 0.36780(16)
C8 C 0.8759(7) -0.0350(2) 0.18697(15)
C9 C 0.5834(7) -0.1295(2) 0.45897(17)
H1 H 0.79817 -0.13520 0.31580
H2 H 0.30028 0.24079 0.32036
H3 H 0.55903 0.25404 0.38611
H4 H 0.21682 0.21253 0.40631
H5 H 1.00516 0.01682 0.16721
H6 H 0.70269 -0.04818 0.15135
H7 H 1.00773 -0.09134 0.19269
H8 H 0.66925 -0.10482 0.50682
H9 H 0.70885 -0.18397 0.44265
H10 H 0.36286 -0.14884 0.46668
#END
