
#######################################################################
#
#                 Cambridge Crystallographic Data Centre
#                                CCDC
#
#######################################################################
#
# If this CIF has been generated from an entry in the Cambridge
# Structural Database, then it will include bibliographic, chemical,
# crystal, experimental, refinement or atomic coordinate data resulting
# from the CCDC's data processing and validation procedures.
#
#######################################################################

data_CSD_CIF_PUNGEM
_audit_creation_date 2015-08-23
_audit_creation_method CSD-ConQuest-V1
_database_code_CSD PUNGEM
_database_code_depnum_ccdc_archive 'CCDC 1418363'
_chemical_formula_sum 'C16 H18 N4 O5'
_chemical_formula_moiety
;
C16 H18 N4 O5
;
_journal_coeditor_code "tk5378"
_journal_coden_Cambridge 1828
_journal_volume 71
_journal_year 2015
_journal_page_first o684
_journal_name_full 'Acta Crystallogr.,Sect.E:Cryst.Commun. '
loop_
_publ_author_name
"A.Errossafi"
"A.El Kihel"
"S.Guesmi"
"M.Saadi"
"L.El Ammari"
_chemical_name_systematic
;
ethyl 3-(((5-methyl-7-nitro-1H-indol-2-yl)carbonyl)hydrazono)butanoate
;
_cell_volume    843.805
_exptl_crystal_colour 'yellow'
_exptl_crystal_density_diffrn 1.363
_exptl_crystal_description 'block'
_exptl_crystal_preparation 'ethanol'
_diffrn_ambient_temperature 296
#These two values have been output from a single CSD field.
_refine_ls_R_factor_gt 0.043
_refine_ls_wR_factor_gt 0.043
_symmetry_cell_setting triclinic
_symmetry_space_group_name_H-M 'P -1'
_symmetry_Int_Tables_number 2
loop_
_symmetry_equiv_pos_site_id
_symmetry_equiv_pos_as_xyz
1 x,y,z
2 -x,-y,-z
_cell_length_a 8.4716(9)
_cell_length_b 8.4722(7)
_cell_length_c 13.0971(9)
_cell_angle_alpha 108.695(4)
_cell_angle_beta 91.865(4)
_cell_angle_gamma 106.886(4)
_cell_formula_units_Z 2
loop_
_atom_type_symbol
_atom_type_radius_bond
C 0.68
H 0.23
N 0.68
O 0.68
loop_
_atom_site_label
_atom_site_type_symbol
_atom_site_fract_x
_atom_site_fract_y
_atom_site_fract_z
C1 C 0.17198(16) 0.64599(17) 0.94250(11)
C2 C 0.12573(17) 0.78350(18) 1.00943(12)
H1 H 0.08840 0.85400 0.97930
C3 C 0.13423(17) 0.81836(18) 1.12214(12)
C4 C 0.18973(17) 0.71346(18) 1.16710(11)
H2 H 0.19480 0.73560 1.24160
C5 C 0.23851(16) 0.57373(17) 1.10067(10)
C6 C 0.22965(16) 0.54061(16) 0.98701(10)
C7 C 0.0821(2) 0.9697(2) 1.19212(14)
H3 H 0.16000 1.07860 1.19350
H4 H 0.08030 0.96700 1.26480
H5 H -0.02700 0.95960 1.16250
C8 C 0.30024(17) 0.44531(18) 1.12041(11)
H6 H 0.31930 0.43340 1.18750
C9 C 0.32627(16) 0.34231(17) 1.02184(11)
C10 C 0.39564(16) 0.19582(17) 1.0051(1)
C11 C 0.39038(17) 0.03684(19) 0.72021(11)
C12 C 0.4537(2) -0.1170(2) 0.69488(12)
H7 H 0.50040 -0.13200 0.62800
H8 H 0.36340 -0.22110 0.68770
H9 H 0.53780 -0.09670 0.75270
C13 C 0.3494(2) 0.0920(2) 0.62686(12)
H10 H 0.45170 0.13980 0.60040
H11 H 0.29900 0.18420 0.65270
C14 C 0.2322(2) -0.0586(2) 0.53418(12)
C15 C -0.0299(2) -0.2793(3) 0.48056(15)
H12 H 0.01770 -0.37340 0.45290
H13 H -0.05860 -0.24450 0.42060
C16 C -0.1808(3) -0.3393(3) 0.5309(2)
H14 H -0.26180 -0.43810 0.47730
H15 H -0.22710 -0.24530 0.55750
H16 H -0.15080 -0.37310 0.59010
N1 N 0.15863(16) 0.61115(16) 0.82643(10)
N2 N 0.28297(14) 0.40043(14) 0.94143(9)
H17 H 0.28880 0.35520 0.87330
N3 N 0.41081(15) 0.09582(15) 0.90428(9)
H18 H 0.44660 0.00820 0.89680
N4 N 0.36975(14) 0.13223(15) 0.81339(9)
O1 O 0.10064(17) 0.70060(17) 0.78835(10)
O2 O 0.20654(16) 0.49110(15) 0.76987(8)
O3 O 0.43926(13) 0.16440(13) 1.08520(8)
O4 O 0.2639(2) -0.1084(3) 0.44345(11)
O5 O 0.08886(16) -0.13058(17) 0.56453(9)
#END
