
#######################################################################
#
#                 Cambridge Crystallographic Data Centre
#                                CCDC
#
#######################################################################
#
# If this CIF has been generated from an entry in the Cambridge
# Structural Database, then it will include bibliographic, chemical,
# crystal, experimental, refinement or atomic coordinate data resulting
# from the CCDC's data processing and validation procedures.
#
#######################################################################

data_CSD_CIF_PUNLOB
_audit_creation_date 2015-08-24
_audit_creation_method CSD-ConQuest-V1
_database_code_CSD PUNLOB
_database_code_depnum_ccdc_archive 'CCDC 1406504'
_chemical_formula_sum 'C9 H20 N4 O2'
_chemical_formula_moiety
;
C9 H20 N4 O2
;
_journal_coden_Cambridge 1291
_journal_year 2015
_journal_page_first 6170
_journal_name_full 'Eur.J.Org.Chem. '
loop_
_publ_author_name
"M.S.Klenov"
"O.V.Anikin"
"A.M.Churakov"
"Y.A.Strelenko"
"I.V.Fedyanin"
"I.V.Ananyev"
"V.A.Tartakovsky"
_chemical_name_systematic
;
bis(t-butyl-NNO-azoxy)methane
;
_cell_volume    614.474
_exptl_crystal_colour 'colorless'
_exptl_crystal_density_diffrn 1.169
_exptl_crystal_description 'prism'
_diffrn_ambient_temperature 100
#These two values have been output from a single CSD field.
_refine_ls_R_factor_gt 0.0524
_refine_ls_wR_factor_gt 0.0524
_symmetry_cell_setting triclinic
_symmetry_space_group_name_H-M 'P -1'
_symmetry_Int_Tables_number 2
loop_
_symmetry_equiv_pos_site_id
_symmetry_equiv_pos_as_xyz
1 x,y,z
2 -x,-y,-z
_cell_length_a 5.6782(8)
_cell_length_b 10.5383(15)
_cell_length_c 10.9094(16)
_cell_angle_alpha 70.510(3)
_cell_angle_beta 87.651(3)
_cell_angle_gamma 87.255(3)
_cell_formula_units_Z 2
loop_
_atom_type_symbol
_atom_type_radius_bond
C 0.68
H 0.23
N 0.68
O 0.68
loop_
_atom_site_label
_atom_site_type_symbol
_atom_site_fract_x
_atom_site_fract_y
_atom_site_fract_z
O1 O 0.74591(19) 0.83376(10) 0.32936(11)
O2 O 0.36648(18) 0.65816(10) 0.50604(10)
N1 N 0.9654(2) 0.65245(11) 0.31229(11)
N2 N 0.8275(2) 0.71440(11) 0.36882(11)
N3 N 0.5539(2) 0.68240(11) 0.55234(11)
N4 N 0.5801(2) 0.74031(11) 0.63511(11)
C1 C 0.7752(2) 0.63184(13) 0.50668(13)
H1 H 0.76020 0.53650 0.51350
H2 H 0.90630 0.63670 0.56190
C2 C 1.0624(2) 0.73063(14) 0.18104(14)
C3 C 1.2433(3) 0.63146(16) 0.15190(16)
H3 H 1.36520 0.60730 0.21770
H4 H 1.31620 0.67340 0.06560
H5 H 1.16440 0.55010 0.15370
C4 C 0.8676(3) 0.76672(17) 0.08121(15)
H6 H 0.75020 0.82800 0.10240
H7 H 0.79170 0.68450 0.08300
H8 H 0.93610 0.81080 -0.00580
C5 C 1.1889(3) 0.85537(15) 0.18246(16)
H9 H 1.07250 0.92240 0.19410
H10 H 1.27630 0.89380 0.09990
H11 H 1.29900 0.82970 0.25430
C6 C 0.3625(2) 0.78493(13) 0.69289(13)
C7 C 0.4578(3) 0.85534(15) 0.78150(15)
H12 H 0.54670 0.93330 0.72900
H13 H 0.56180 0.79240 0.84520
H14 H 0.32590 0.88540 0.82710
C8 C 0.2074(3) 0.88502(14) 0.59012(15)
H15 H 0.30100 0.96130 0.53860
H16 H 0.07470 0.91760 0.63320
H17 H 0.14720 0.84020 0.53290
C9 C 0.2285(3) 0.66002(14) 0.77454(15)
H18 H 0.32860 0.60340 0.84450
H19 H 0.18710 0.60860 0.71890
H20 H 0.08430 0.68840 0.81230
#END
