
#######################################################################
#
#                 Cambridge Crystallographic Data Centre
#                                CCDC
#
#######################################################################
#
# If this CIF has been generated from an entry in the Cambridge
# Structural Database, then it will include bibliographic, chemical,
# crystal, experimental, refinement or atomic coordinate data resulting
# from the CCDC's data processing and validation procedures.
#
#######################################################################

data_CSD_CIF_PUPBAD
_audit_creation_date 1999-01-07
_audit_creation_method CSD-ConQuest-V1
_database_code_CSD PUPBAD
_chemical_formula_sum 'C4 H4 N4 O2'
_chemical_formula_moiety
;
C4 H4 N4 O2
;
_journal_coden_Cambridge 4
_journal_volume 120
_journal_year 1998
_journal_page_first 8986
_journal_name_full 'J.Am.Chem.Soc. '
loop_
_publ_author_name
"C.B.Aakeroy"
"M.Nieuwenhuyzen"
"S.L.Price"
_chemical_name_systematic
;
2-Amino-5-nitropyrimidine
;
_cell_volume    590.112
_exptl_crystal_colour 'colorless'
_exptl_crystal_density_diffrn 1.577
_exptl_special_details
;
orthorhombic iii polymorph

;
_exptl_crystal_description 'block-like'
_exptl_crystal_preparation 'acetone'
_diffrn_ambient_temperature 153
#These two values have been output from a single CSD field.
_refine_ls_R_factor_gt 0.0314
_refine_ls_wR_factor_gt 0.0314
_symmetry_cell_setting orthorhombic
_symmetry_space_group_name_H-M 'P c c n'
_symmetry_Int_Tables_number 56
loop_
_symmetry_equiv_pos_site_id
_symmetry_equiv_pos_as_xyz
1 x,y,z
2 1/2-x,1/2-y,z
3 -x,1/2+y,1/2-z
4 1/2+x,-y,1/2-z
5 -x,-y,-z
6 -1/2+x,-1/2+y,-z
7 x,-1/2-y,-1/2+z
8 -1/2-x,y,-1/2+z
_cell_length_a 4.165(1)
_cell_length_b 6.654(1)
_cell_length_c 21.293(4)
_cell_angle_alpha 90
_cell_angle_beta 90
_cell_angle_gamma 90
_cell_formula_units_Z 4
loop_
_atom_type_symbol
_atom_type_radius_bond
C 0.68
H 0.23
N 0.68
O 0.68
loop_
_atom_site_label
_atom_site_type_symbol
_atom_site_fract_x
_atom_site_fract_y
_atom_site_fract_z
N1 N 0.25000 0.25000 -0.01326(8)
H1 H 0.14280 0.34430 -0.02929(8)
C1 C 0.25000 0.25000 0.04880(9)
N2 N 0.0926(3) 0.4034(2) 0.07839(5)
C2 C 0.0935(4) 0.3997(2) 0.14066(6)
H2 H -0.0239(4) 0.5019(2) 0.16001(6)
C3 C 0.25000 0.25000 0.17365(8)
N3 N 0.25000 0.25000 0.24155(7)
O1 O 0.0532(2) 0.3563(2) 0.26905(4)
H1A H 0.35720 0.15570 -0.02929(8)
C2A C 0.4065(4) 0.1003(2) 0.14066(6)
N2A N 0.4074(3) 0.0966(2) 0.07839(5)
H2A H 0.5239(4) -0.0019(2) 0.16001(6)
O1A O 0.4468(2) 0.1437(2) 0.26905(4)
#END
