
#######################################################################
#
#                 Cambridge Crystallographic Data Centre
#                                CCDC
#
#######################################################################
#
# If this CIF has been generated from an entry in the Cambridge
# Structural Database, then it will include bibliographic, chemical,
# crystal, experimental, refinement or atomic coordinate data resulting
# from the CCDC's data processing and validation procedures.
#
#######################################################################

data_CSD_CIF_PUPJEP
_audit_creation_date 1999-01-07
_audit_creation_method CSD-ConQuest-V1
_database_code_CSD PUPJEP
_database_code_depnum_ccdc_archive 'CCDC 1239568; CCDC 408181'
_database_code_depnum_ccdc_fiz 'CSD 408181'
_chemical_formula_sum 'C12 H13 N3 O6'
_chemical_formula_moiety
;
C12 H13 N3 O6
;
_journal_coden_Cambridge 1090
_journal_volume 9
_journal_year 1998
_journal_page_first 1231
_journal_name_full 'Tetrahedron:Asymm. '
loop_
_publ_author_name
"K.Woydowski"
"B.Ziemer"
"J.Liebscher"
_chemical_name_systematic
;
Ethyl 
(2R,2'S)-2-hydroxy-2-(7-nitro-3-oxo-1,2,3,4-tetrahydroquinoxalin-2-yl)acetate
;
_chemical_melting_point 491.15
_cell_volume    320.955
_exptl_crystal_colour 'colorless'
_exptl_crystal_density_diffrn 1.528
_exptl_special_details
;
Melting point range 491.15-493.15K

;
_exptl_crystal_description 'prismatic'
_exptl_crystal_preparation 'ethyl acetate'
_diffrn_ambient_temperature 200
#These two values have been output from a single CSD field.
_refine_ls_R_factor_gt 0.0798
_refine_ls_wR_factor_gt 0.0798
_symmetry_cell_setting triclinic
_symmetry_space_group_name_H-M 'P 1'
_symmetry_Int_Tables_number 1
loop_
_symmetry_equiv_pos_site_id
_symmetry_equiv_pos_as_xyz
1 x,y,z
_cell_length_a 5.0741(15)
_cell_length_b 5.673(2)
_cell_length_c 11.686(4)
_cell_angle_alpha 99.71(3)
_cell_angle_beta 94.62(3)
_cell_angle_gamma 102.75(3)
_cell_formula_units_Z 1
loop_
_atom_type_symbol
_atom_type_radius_bond
C 0.68
H 0.23
N 0.68
O 0.68
loop_
_atom_site_label
_atom_site_type_symbol
_atom_site_fract_x
_atom_site_fract_y
_atom_site_fract_z
C1 C 0.5211(11) 0.3170(9) 0.8190(4)
C2 C 0.6622(11) 0.1735(9) 0.8721(4)
H1 H 0.765(13) 0.087(11) 0.8357(51)
C3 C 0.6485(11) 0.1698(9) 0.9898(4)
C4 C 0.4988(12) 0.299(1) 1.0584(5)
H2 H 0.479(17) 0.294(14) 1.1426(71)
C5 C 0.3537(12) 0.4386(9) 1.0039(5)
H3 H 0.230(13) 0.519(10) 1.0484(51)
C6 C 0.3636(11) 0.4507(8) 0.8871(4)
C7 C 0.2240(12) 0.6195(9) 0.7205(5)
C8 C 0.3704(12) 0.4671(10) 0.6421(5)
H4 H 0.478(11) 0.5792(91) 0.6042(43)
C9 C 0.1574(13) 0.2827(10) 0.5496(5)
H5 H 0.298(12) 0.1869(90) 0.4997(43)
C10 C 0.0102(13) 0.4073(10) 0.4680(5)
C11 C 0.0827(14) 0.6795(12) 0.3336(5)
H6 H -0.003(15) 0.584(13) 0.2724(70)
H7 H -0.024(11) 0.7783(88) 0.3721(43)
C12 C 0.3266(14) 0.8269(11) 0.2928(5)
H8 H 0.2679(14) 0.9233(11) 0.2378(5)
H9 H 0.4287(14) 0.7157(11) 0.2537(5)
H10 H 0.4432(14) 0.9383(11) 0.3601(5)
N1 N 0.2264(11) 0.5991(8) 0.8349(4)
H11 H 0.116(13) 0.694(10) 0.8819(51)
N2 N 0.5310(11) 0.337(1) 0.7047(4)
H12 H 0.630(11) 0.2772(82) 0.6720(41)
N3 N 0.8066(9) 0.0203(7) 1.0430(4)
O1 O 0.0963(10) 0.7562(7) 0.6818(4)
O2 O -0.0363(9) 0.1357(7) 0.6026(4)
H13 H -0.1422(91) 0.2187(39) 0.6306(56)
O3 O -0.2299(9) 0.3826(8) 0.4535(4)
O4 O 0.1912(9) 0.5433(8) 0.4146(4)
O5 O 0.8281(11) 0.0454(9) 1.1510(4)
O6 O 0.9055(10) -0.1227(8) 0.9820(4)
#END
