
#######################################################################
#
#                 Cambridge Crystallographic Data Centre
#                                CCDC
#
#######################################################################
#
# If this CIF has been generated from an entry in the Cambridge
# Structural Database, then it will include bibliographic, chemical,
# crystal, experimental, refinement or atomic coordinate data resulting
# from the CCDC's data processing and validation procedures.
#
#######################################################################

data_CSD_CIF_PUPXIJ
_audit_creation_date 2015-08-24
_audit_creation_method CSD-ConQuest-V1
_database_code_CSD PUPXIJ
_database_code_depnum_ccdc_archive 'CCDC 1046521'
_chemical_formula_sum 'C35 H24 N2 O9'
_chemical_formula_moiety
;
C35 H24 N2 O9
;
_journal_coden_Cambridge 1366
_journal_volume 357
_journal_year 2015
_journal_page_first 2457
_journal_name_full 'Adv.Synth.Catal. '
loop_
_publ_author_name
"Yi-Ya Zhang"
"R.Gurubrahamam"
"Kwunmin Chen"
_chemical_name_systematic
;
5'-(hydroxymethyl)-2',4'-bis(4-nitrophenyl)dispiro[indene-2,1'-cyclohexane-3',
2''-indene]-1,1'',3,3''-tetrone
;
_cell_volume   3582.159
_exptl_crystal_colour 'colorless'
_exptl_crystal_density_diffrn 1.143
_exptl_crystal_description 'prism'
_diffrn_ambient_temperature 200
#These two values have been output from a single CSD field.
_refine_ls_R_factor_gt 0.1816
_refine_ls_wR_factor_gt 0.1816
_symmetry_cell_setting monoclinic
_symmetry_space_group_name_H-M 'P 21/c'
_symmetry_Int_Tables_number 14
loop_
_symmetry_equiv_pos_site_id
_symmetry_equiv_pos_as_xyz
1 x,y,z
2 -x,1/2+y,1/2-z
3 -x,-y,-z
4 x,-1/2-y,-1/2+z
_cell_length_a 20.119(17)
_cell_length_b 12.776(11)
_cell_length_c 14.115(12)
_cell_angle_alpha 90
_cell_angle_beta 99.13(3)
_cell_angle_gamma 90
_cell_formula_units_Z 4
loop_
_atom_type_symbol
_atom_type_radius_bond
C 0.68
H 0.23
N 0.68
O 0.68
loop_
_atom_site_label
_atom_site_type_symbol
_atom_site_fract_x
_atom_site_fract_y
_atom_site_fract_z
C1 C 0.0621(6) 0.4764(7) 0.4110(9)
C2 C 0.0943(6) 0.5109(7) 0.4960(8)
H1 H 0.10330 0.46600 0.55010
C3 C 0.1140(5) 0.6167(7) 0.5009(7)
H2 H 0.13580 0.64430 0.56020
C4 C 0.1026(5) 0.6799(6) 0.4234(7)
C5 C 0.0676(6) 0.6422(7) 0.3400(8)
H3 H 0.05790 0.68770 0.28630
C6 C 0.0458(6) 0.5405(8) 0.3310(8)
H4 H 0.02080 0.51490 0.27290
C7 C 0.1311(5) 0.7916(6) 0.4362(7)
H5 H 0.14170 0.80370 0.50700
C8 C 0.1988(5) 0.7963(6) 0.3989(7)
C9 C 0.1961(6) 0.7538(7) 0.2954(8)
C10 C 0.2469(5) 0.6680(8) 0.3001(8)
C11 C 0.2641(5) 0.6098(8) 0.2242(8)
H6 H 0.24130 0.61790 0.16030
C12 C 0.3163(6) 0.5401(10) 0.2472(9)
H7 H 0.32850 0.49940 0.19640
C13 C 0.3518(7) 0.5244(10) 0.3365(10)
H8 H 0.38830 0.47650 0.34690
C14 C 0.3318(6) 0.5839(10) 0.4155(10)
H9 H 0.35350 0.57520 0.47990
C15 C 0.2784(5) 0.6551(8) 0.3905(7)
C16 C 0.2523(6) 0.7276(8) 0.4599(9)
C17 C 0.2288(5) 0.9140(6) 0.4093(7)
H10 H 0.24180 0.92020 0.48040
C18 C 0.2954(6) 0.9246(6) 0.3767(9)
C19 C 0.3044(7) 0.9163(8) 0.2767(8)
H11 H 0.26650 0.90160 0.22930
C20 C 0.3661(8) 0.9291(9) 0.2492(11)
H12 H 0.37070 0.92260 0.18350
C21 C 0.4169(9) 0.9495(13) 0.3110(14)
C22 C 0.4139(7) 0.9617(14) 0.4138(11)
H13 H 0.45180 0.98050 0.45970
C23 C 0.3526(6) 0.9438(10) 0.4371(9)
H14 H 0.34950 0.94500 0.50350
C24 C 0.1793(5) 1.0053(6) 0.3876(7)
C25 C 0.2107(6) 1.1011(8) 0.4479(10)
C26 C 0.2001(5) 1.1927(7) 0.3812(8)
C27 C 0.2115(6) 1.3016(8) 0.4074(9)
H15 H 0.22850 1.32370 0.47090
C28 C 0.1956(6) 1.3708(8) 0.3314(10)
H16 H 0.20250 1.44350 0.34310
C29 C 0.1705(7) 1.3389(9) 0.2414(11)
H17 H 0.16120 1.39110 0.19330
C30 C 0.1575(6) 1.2366(9) 0.2144(9)
H18 H 0.13920 1.21600 0.15100
C31 C 0.1749(6) 1.1636(8) 0.2931(9)
C32 C 0.1664(5) 1.0468(8) 0.2868(9)
C33 C 0.1130(5) 0.9853(7) 0.4215(8)
H19 H 0.11980 0.99250 0.49220
H20 H 0.08070 1.04020 0.39450
C34 C 0.0819(5) 0.8811(6) 0.3956(8)
H21 H 0.07720 0.87590 0.32420
C35 C 0.0111(6) 0.8695(10) 0.4198(8)
H22 H -0.01800 0.92850 0.39340
H23 H -0.00970 0.80300 0.39440
N1 N 0.0416(5) 0.3656(7) 0.4022(9)
N2 N 0.4908(9) 0.9650(12) 0.2880(14)
O1 O 0.0108(5) 0.3324(6) 0.3242(7)
O2 O 0.0573(5) 0.3061(6) 0.4703(6)
O3 O 0.1551(4) 0.7741(5) 0.2249(6)
O4 O 0.2666(4) 0.7316(5) 0.5448(6)
O5 O 0.4856(7) 0.9566(13) 0.2017(12)
O6 O 0.5321(8) 0.9743(13) 0.3472(12)
O7 O 0.2371(5) 1.1019(5) 0.5313(7)
O8 O 0.1480(5) 0.9975(5) 0.2136(5)
O9 O 0.0225(5) 0.8704(10) 0.5265(9)
H24 H 0.02710 0.80870 0.54700
#END
