
#######################################################################
#
#                 Cambridge Crystallographic Data Centre
#                                CCDC
#
#######################################################################
#
# If this CIF has been generated from an entry in the Cambridge
# Structural Database, then it will include bibliographic, chemical,
# crystal, experimental, refinement or atomic coordinate data resulting
# from the CCDC's data processing and validation procedures.
#
#######################################################################

data_CSD_CIF_PUQFUD
_audit_creation_date 2010-09-05
_audit_creation_method CSD-ConQuest-V1
_database_code_CSD PUQFUD
_database_code_depnum_ccdc_archive 'CCDC 746618'
_chemical_formula_sum 'C7 H6 N2 O4'
_chemical_formula_moiety
;
C7 H6 N2 O4
;
_journal_coden_Cambridge 1147
_journal_volume 10
_journal_year 2010
_journal_page_first 726
_journal_name_full 'Cryst.Growth Des. '
loop_
_publ_author_name
"C.C.Seaton"
"K.Chadwick"
"G.Sadiq"
"Kun Guo"
"R.J.Davey"
_chemical_name_systematic
;
4-Amino-3-nitrobenzoic acid
;
_cell_volume    739.617
_exptl_crystal_colour 'brown'
_exptl_crystal_density_diffrn 1.636
_exptl_crystal_description 'block'
_diffrn_ambient_temperature 100
#These two values have been output from a single CSD field.
_refine_ls_R_factor_gt 0.0384
_refine_ls_wR_factor_gt 0.0384
_symmetry_cell_setting monoclinic
_symmetry_space_group_name_H-M 'P 21/c'
_symmetry_Int_Tables_number 14
loop_
_symmetry_equiv_pos_site_id
_symmetry_equiv_pos_as_xyz
1 x,y,z
2 -x,1/2+y,1/2-z
3 -x,-y,-z
4 x,-1/2-y,-1/2+z
_cell_length_a 6.9476(6)
_cell_length_b 10.5032(7)
_cell_length_c 10.4856(8)
_cell_angle_alpha 90
_cell_angle_beta 104.845(8)
_cell_angle_gamma 90
_cell_formula_units_Z 4
loop_
_atom_type_symbol
_atom_type_radius_bond
C 0.68
H 0.23
N 0.68
O 0.68
loop_
_atom_site_label
_atom_site_type_symbol
_atom_site_fract_x
_atom_site_fract_y
_atom_site_fract_z
O1 O 0.04183(18) 0.8906(1) 0.13745(10)
H1 H 0.00150 0.89630 0.05500
O2 O 0.07427(18) 1.10208(11) 0.1206(1)
N1 N 0.4261(2) 1.23742(12) 0.58225(13)
O3 O 0.49779(19) 1.24623(11) 0.70348(11)
O4 O 0.44639(19) 1.32345(11) 0.50676(10)
N2 N 0.3706(2) 1.01768(13) 0.74458(13)
H2 H 0.42300 1.08680 0.78690
H3 H 0.35780 0.94850 0.78900
C1 C 0.1545(2) 0.89890(15) 0.41223(15)
H4 H 0.10000 0.82150 0.37160
C2 C 0.1630(2) 1.00699(15) 0.33330(15)
C3 C 0.2463(2) 1.11723(15) 0.39309(15)
H5 H 0.25200 1.19040 0.34100
C4 C 0.3101(2) 1.01773(15) 0.61225(15)
C5 C 0.2241(2) 0.90488(15) 0.54614(14)
H6 H 0.21480 0.83140 0.59700
C6 C 0.0886(2) 1.00430(15) 0.18807(15)
C7 C 0.3227(2) 1.12279(15) 0.52977(14)
#END
