
#######################################################################
#
#                 Cambridge Crystallographic Data Centre
#                                CCDC
#
#######################################################################
#
# If this CIF has been generated from an entry in the Cambridge
# Structural Database, then it will include bibliographic, chemical,
# crystal, experimental, refinement or atomic coordinate data resulting
# from the CCDC's data processing and validation procedures.
#
#######################################################################

data_CSD_CIF_PUQGAK
_audit_creation_date 2010-09-05
_audit_creation_method CSD-ConQuest-V1
_database_code_CSD PUQGAK
_database_code_depnum_ccdc_archive 'CCDC 746619'
_chemical_formula_sum 'C15 H14 N2 O8'
_chemical_formula_moiety
;
C15 H14 N2 O8
;
_journal_coden_Cambridge 1147
_journal_volume 10
_journal_year 2010
_journal_page_first 726
_journal_name_full 'Cryst.Growth Des. '
loop_
_publ_author_name
"C.C.Seaton"
"K.Chadwick"
"G.Sadiq"
"Kun Guo"
"R.J.Davey"
_chemical_name_systematic
;
4-Amino-3-methoxybenzoic acid 4-hydroxy-3-nitrobenzoic acid
;
_cell_volume    733.493
_exptl_crystal_colour 'orange'
_exptl_crystal_density_diffrn 1.586
_exptl_crystal_description 'plate'
_diffrn_ambient_temperature 100
#These two values have been output from a single CSD field.
_refine_ls_R_factor_gt 0.0446
_refine_ls_wR_factor_gt 0.0446
_symmetry_cell_setting triclinic
_symmetry_space_group_name_H-M 'P -1'
_symmetry_Int_Tables_number 2
loop_
_symmetry_equiv_pos_site_id
_symmetry_equiv_pos_as_xyz
1 x,y,z
2 -x,-y,-z
_cell_length_a 7.174(5)
_cell_length_b 7.390(5)
_cell_length_c 14.810(5)
_cell_angle_alpha 87.838(5)
_cell_angle_beta 77.665(5)
_cell_angle_gamma 73.057(5)
_cell_formula_units_Z 2
loop_
_atom_type_symbol
_atom_type_radius_bond
C 0.68
H 0.24
N 0.68
O 0.67
loop_
_atom_site_label
_atom_site_type_symbol
_atom_site_fract_x
_atom_site_fract_y
_atom_site_fract_z
C1 C 0.1489(5) 0.6816(5) 0.1670(2)
C2 C 0.0165(5) 0.7464(6) 0.2518(2)
C3 C -0.0189(5) 0.6191(5) 0.3189(2)
C4 C 0.0762(5) 0.4214(6) 0.3028(2)
C5 C 0.2052(5) 0.3613(6) 0.2183(2)
C6 C 0.2413(5) 0.4891(5) 0.1515(2)
C7 C 0.1896(5) 0.8167(5) 0.0970(2)
C8 C -0.2386(6) 0.8596(6) 0.4249(3)
C9 C 0.3425(5) 1.3097(5) -0.1557(2)
C10 C 0.4739(5) 1.2478(6) -0.2385(2)
C11 C 0.5105(5) 1.3779(5) -0.3051(2)
C12 C 0.4176(5) 1.5720(5) -0.2907(2)
C13 C 0.2846(5) 1.6329(6) -0.2059(3)
C14 C 0.2486(5) 1.5038(6) -0.1400(2)
C15 C 0.3016(5) 1.1730(5) -0.0853(2)
H1 H -0.044(5) 0.879(5) 0.264(2)
H2 H 0.327(5) 0.447(5) 0.095(2)
H3 H 0.268(5) 0.225(5) 0.207(2)
H4 H 0.099(6) 0.180(7) 0.361(3)
H5 H -0.044(6) 0.337(5) 0.419(3)
H6 H -0.143(5) 0.927(5) 0.423(2)
H7 H -0.316(6) 0.865(6) 0.490(3)
H8 H -0.332(6) 0.941(6) 0.378(3)
H9 H 0.357(9) 0.885(9) -0.036(4)
H10 H 0.132(8) 1.104(8) 0.061(4)
H11 H 0.537(5) 1.118(5) -0.251(2)
H12 H 0.162(5) 1.547(5) -0.088(2)
H13 H 0.221(5) 1.762(5) -0.193(2)
H14 H 0.538(7) 1.647(7) -0.400(3)
N1 N 0.0402(5) 0.3009(5) 0.3712(2)
N2 N 0.6497(4) 1.3031(5) -0.3908(2)
O1 O 0.0943(4) 0.9936(4) 0.11354(18)
O2 O 0.3176(4) 0.7601(4) 0.02251(16)
O3 O -0.1457(4) 0.6627(4) 0.40418(16)
O4 O 0.3998(4) 0.9983(4) -0.10137(17)
O5 O 0.1718(3) 1.2316(4) -0.01177(16)
O6 O 0.7301(4) 1.1326(4) -0.40211(17)
O7 O 0.6853(4) 1.4175(4) -0.45202(17)
O8 O 0.4494(4) 1.7052(4) -0.35140(19)
#END
