
#######################################################################
#
#                 Cambridge Crystallographic Data Centre
#                                CCDC
#
#######################################################################
#
# If this CIF has been generated from an entry in the Cambridge
# Structural Database, then it will include bibliographic, chemical,
# crystal, experimental, refinement or atomic coordinate data resulting
# from the CCDC's data processing and validation procedures.
#
#######################################################################

data_CSD_CIF_PUQQIC
_audit_creation_date 2010-09-15
_audit_creation_method CSD-ConQuest-V1
_database_code_CSD PUQQIC
_database_code_depnum_ccdc_archive 'CCDC 676592'
_chemical_formula_sum 'C17 H12 N4 O6'
_chemical_formula_moiety
;
C17 H12 N4 O6
;
_journal_coden_Cambridge 119
_journal_volume 963
_journal_year 2010
_journal_page_first 228
_journal_name_full 'J.Mol.Struct. '
loop_
_publ_author_name
"K.K.Upadhyay"
"R.K.Mishra"
"A.Kumar"
"Jianzhang Zhao"
"R.Prasad"
_chemical_name_systematic
;
3-(1-(N-(2,4-Dinitrophenyl)hydrazono)ethyl)-2H-chromen-2-one
;
_chemical_melting_point 493
_cell_volume   1552.339
_exptl_crystal_colour 'yellow'
_diffrn_ambient_temperature 293
#These two values have been output from a single CSD field.
_refine_ls_R_factor_gt 0.0696
_refine_ls_wR_factor_gt 0.0696
_symmetry_cell_setting monoclinic
_symmetry_space_group_name_H-M 'P 21/c'
_symmetry_Int_Tables_number 14
loop_
_symmetry_equiv_pos_site_id
_symmetry_equiv_pos_as_xyz
1 x,y,z
2 -x,1/2+y,1/2-z
3 -x,-y,-z
4 x,-1/2-y,-1/2+z
_cell_length_a 8.0505(8)
_cell_length_b 14.5331(14)
_cell_length_c 13.2899(13)
_cell_angle_alpha 90
_cell_angle_beta 93.290(2)
_cell_angle_gamma 90
_cell_formula_units_Z 4
loop_
_atom_type_symbol
_atom_type_radius_bond
C 0.68
H 0.23
N 0.68
O 0.68
loop_
_atom_site_label
_atom_site_type_symbol
_atom_site_fract_x
_atom_site_fract_y
_atom_site_fract_z
O1 O 0.6670(3) 0.19877(15) 0.71484(16)
N1 N 0.9179(3) 0.16340(17) 0.40221(19)
O2 O 1.0954(3) -0.05163(15) 0.08603(17)
O3 O 0.9216(3) -0.03526(15) 0.20295(18)
O4 O 1.3425(3) 0.20414(16) -0.06178(17)
O5 O 0.7867(3) 0.06915(16) 0.67285(17)
N2 N 0.9568(3) 0.10905(17) 0.3221(2)
H1 H 0.92840 0.05200 0.32080
C1 C 1.0394(4) 0.1448(2) 0.2454(2)
N3 N 1.0297(3) -0.00473(18) 0.14963(19)
C2 C 1.0791(4) 0.0911(2) 0.1607(2)
C3 C 0.6625(4) 0.3313(2) 0.6052(2)
C4 C 1.0922(4) 0.2376(2) 0.2472(2)
H2 H 1.06750 0.27480 0.30130
C5 C 1.2170(4) 0.2180(2) 0.0897(2)
N4 N 1.3128(3) 0.25491(19) 0.0099(2)
C6 C 0.6233(4) 0.2892(2) 0.6955(2)
C7 C 1.1664(4) 0.1282(2) 0.0838(2)
H3 H 1.19060 0.09240 0.02850
O6 O 1.3641(3) 0.33469(16) 0.01741(19)
C8 C 0.7662(4) 0.0266(2) 0.4604(3)
H4 H 0.71440 0.01550 0.39470
H5 H 0.68690 0.01650 0.51050
H6 H 0.85860 -0.01450 0.47200
C9 C 0.7696(4) 0.1856(2) 0.5467(2)
C10 C 0.5383(4) 0.3340(2) 0.7685(2)
H7 H 0.51230 0.30410 0.82740
C11 C 1.1786(4) 0.2735(2) 0.1710(2)
H8 H 1.21190 0.33480 0.17320
C12 C 0.6161(4) 0.4232(2) 0.5913(3)
H9 H 0.64160 0.45350 0.53240
C13 C 0.5329(4) 0.4697(2) 0.6637(3)
H10 H 0.50340 0.53110 0.65400
C14 C 0.4934(4) 0.4241(3) 0.7513(3)
H11 H 0.43530 0.45530 0.79930
C15 C 0.7435(4) 0.1457(2) 0.6461(2)
C16 C 0.7354(4) 0.2760(2) 0.5304(2)
H12 H 0.75980 0.30250 0.46930
C17 C 0.8271(4) 0.1246(2) 0.4668(2)
#END
