
#######################################################################
#
#                 Cambridge Crystallographic Data Centre
#                                CCDC
#
#######################################################################
#
# If this CIF has been generated from an entry in the Cambridge
# Structural Database, then it will include bibliographic, chemical,
# crystal, experimental, refinement or atomic coordinate data resulting
# from the CCDC's data processing and validation procedures.
#
#######################################################################

data_CSD_CIF_PUQQAU
_audit_creation_date 2010-09-15
_audit_creation_method CSD-ConQuest-V1
_database_code_CSD PUQQAU
_database_code_depnum_ccdc_archive 'CCDC 715906'
_chemical_formula_sum 'C18 H18 N2 O2'
_chemical_formula_moiety
;
C18 H18 N2 O2
;
_journal_coden_Cambridge 119
_journal_volume 963
_journal_year 2010
_journal_page_first 111
_journal_name_full 'J.Mol.Struct. '
loop_
_publ_author_name
"T.Hemalatha"
"S.Nagarajan"
_chemical_name_systematic
;
3-Methyl-1-nitroso-2,6-diphenylpiperidin-4-one
;
_cell_volume   3103.631
_exptl_crystal_colour 'colorless'
_exptl_crystal_density_diffrn 1.26
_exptl_crystal_description 'needle'
_diffrn_ambient_temperature 293
#These two values have been output from a single CSD field.
_refine_ls_R_factor_gt 0.0414
_refine_ls_wR_factor_gt 0.0414
_symmetry_cell_setting monoclinic
_symmetry_space_group_name_H-M 'P 21/n'
_symmetry_Int_Tables_number 14
loop_
_symmetry_equiv_pos_site_id
_symmetry_equiv_pos_as_xyz
1 x,y,z
2 1/2-x,1/2+y,1/2-z
3 -x,-y,-z
4 -1/2+x,-1/2-y,-1/2+z
_cell_length_a 7.7134(6)
_cell_length_b 14.7754(14)
_cell_length_c 27.321(3)
_cell_angle_alpha 90
_cell_angle_beta 94.617(3)
_cell_angle_gamma 90
_cell_formula_units_Z 8
loop_
_atom_type_symbol
_atom_type_radius_bond
C 0.68
H 0.23
N 0.68
O 0.68
loop_
_atom_site_label
_atom_site_type_symbol
_atom_site_fract_x
_atom_site_fract_y
_atom_site_fract_z
C1 C 1.1266(3) 0.04344(19) 0.61962(10)
H1 H 1.06880 -0.01450 0.61190
C2 C 1.2922(3) 0.04572(19) 0.5923(1)
H2 H 1.33400 0.10840 0.59320
C3 C 1.4352(4) -0.0116(2) 0.61630(12)
C4 C 1.4658(4) -0.0064(2) 0.67096(12)
H3 H 1.58550 0.01180 0.67920
H4 H 1.45170 -0.06650 0.68430
C5 C 1.3480(3) 0.0580(2) 0.69583(11)
H5 H 1.34690 0.03750 0.72990
C6 C 1.0022(3) 0.1173(2) 0.60217(10)
C7 C 0.8489(4) 0.0945(2) 0.57560(12)
H6 H 0.82000 0.03390 0.57080
C8 C 0.7385(4) 0.1606(4) 0.55619(13)
H7 H 0.63570 0.14440 0.53820
C9 C 0.7787(5) 0.2501(3) 0.56311(14)
H8 H 0.70410 0.29480 0.54980
C10 C 0.9297(5) 0.2733(3) 0.58979(13)
H9 H 0.95730 0.33400 0.59490
C11 C 1.0421(4) 0.2069(2) 0.60927(11)
H10 H 1.14490 0.22320 0.62720
C12 C 1.3970(4) 0.1568(2) 0.69786(10)
C13 C 1.3027(4) 0.2124(2) 0.72661(11)
H11 H 1.21490 0.18760 0.74380
C14 C 1.3362(4) 0.3032(3) 0.73027(13)
H12 H 1.27260 0.33940 0.75020
C15 C 1.4627(5) 0.3405(3) 0.70475(15)
H13 H 1.48310 0.40250 0.70630
C16 C 1.5594(5) 0.2868(3) 0.67691(14)
H14 H 1.64670 0.31230 0.65980
C17 C 1.5287(4) 0.1944(2) 0.67390(12)
H15 H 1.59760 0.15790 0.65560
C18 C 1.2500(4) 0.0213(2) 0.53856(11)
H16 H 1.35420 0.02400 0.52160
H17 H 1.16630 0.06330 0.52390
H18 H 1.20300 -0.03890 0.53630
C19 C 0.7031(4) 0.2212(2) 0.82265(12)
H19 H 0.71020 0.24220 0.78890
C20 C 0.5990(4) 0.2908(2) 0.84829(13)
H20 H 0.63400 0.35050 0.83810
H21 H 0.47720 0.28330 0.83730
C21 C 0.6169(4) 0.2870(2) 0.90242(13)
C22 C 0.7494(3) 0.2226(2) 0.92618(11)
H22 H 0.69790 0.16200 0.92310
C23 C 0.9178(3) 0.2193(2) 0.90004(11)
H23 H 0.98300 0.27430 0.90950
C24 C 1.0308(4) 0.1404(2) 0.91728(11)
C25 C 1.1899(4) 0.1556(2) 0.94282(13)
H24 H 1.23100 0.21440 0.94730
C26 C 1.2892(5) 0.0829(4) 0.96193(14)
H25 H 1.39530 0.09370 0.97960
C27 C 1.2321(6) -0.0037(3) 0.95495(15)
H26 H 1.29880 -0.05200 0.96770
C28 C 1.0778(6) -0.0188(3) 0.92942(15)
H27 H 1.03880 -0.07790 0.92450
C29 C 0.9758(4) 0.0528(2) 0.91030(13)
H28 H 0.87000 0.04100 0.89270
C30 C 0.6307(4) 0.1260(2) 0.81967(11)
C31 C 0.7165(4) 0.0636(3) 0.79316(12)
H29 H 0.81510 0.08110 0.77810
C32 C 0.6596(6) -0.0234(3) 0.78857(14)
H30 H 0.71840 -0.06450 0.77020
C33 C 0.5180(6) -0.0501(3) 0.81065(17)
H31 H 0.48180 -0.11010 0.80830
C34 C 0.4268(5) 0.0109(4) 0.83663(14)
H32 H 0.32800 -0.00740 0.85140
C35 C 0.4833(4) 0.1000(3) 0.84073(12)
H33 H 0.42120 0.14190 0.85770
C36 C 0.7869(4) 0.2402(3) 0.98053(13)
H34 H 0.84750 0.29670 0.98520
H35 H 0.85750 0.19220 0.99500
H36 H 0.67940 0.24300 0.99590
N1 N 1.1706(3) 0.04550(15) 0.67308(9)
N2 N 1.0537(4) 0.02522(17) 0.70421(10)
N3 N 0.8815(3) 0.22257(16) 0.84662(10)
N4 N 1.0030(4) 0.24672(19) 0.81800(11)
O1 O 0.9075(3) 0.00997(15) 0.68456(9)
O2 O 1.5256(3) -0.05994(16) 0.59304(9)
O3 O 1.1473(3) 0.25784(16) 0.83985(10)
O4 O 0.5273(3) 0.33390(17) 0.92679(10)
#END
