
#######################################################################
#
#                 Cambridge Crystallographic Data Centre
#                                CCDC
#
#######################################################################
#
# If this CIF has been generated from an entry in the Cambridge
# Structural Database, then it will include bibliographic, chemical,
# crystal, experimental, refinement or atomic coordinate data resulting
# from the CCDC's data processing and validation procedures.
#
#######################################################################

data_CSD_CIF_PUSGAL
_audit_creation_date 1999-01-19
_audit_creation_method CSD-ConQuest-V1
_database_code_CSD PUSGAL
_chemical_formula_sum 'C10 H14 N2 O1'
_chemical_formula_moiety
;
C10 H14 N2 O1
;
_journal_coden_Cambridge 9
_journal_volume 37
_journal_year 1998
_journal_page_first 1446
_journal_name_full 'Inorg.Chem. '
loop_
_publ_author_name
"F.A.Villamena"
"M.H.Dickman"
"D.R.Crist"
_chemical_name_systematic
;
N-t-Butyl-\a-(2-pyridyl)nitrone
;
_cell_volume   1010.506
_exptl_crystal_density_diffrn 1.172
_diffrn_ambient_temperature 173.15
#These two values have been output from a single CSD field.
_refine_ls_R_factor_gt 0.0328
_refine_ls_wR_factor_gt 0.0328
_symmetry_cell_setting orthorhombic
_symmetry_space_group_name_H-M 'P c a 21'
_symmetry_Int_Tables_number 29
loop_
_symmetry_equiv_pos_site_id
_symmetry_equiv_pos_as_xyz
1 x,y,z
2 -x,-y,1/2+z
3 1/2-x,y,1/2+z
4 1/2+x,-y,z
_cell_length_a 11.9992(7)
_cell_length_b 8.7696(5)
_cell_length_c 9.6030(5)
_cell_angle_alpha 90
_cell_angle_beta 90
_cell_angle_gamma 90
_cell_formula_units_Z 4
loop_
_atom_type_symbol
_atom_type_radius_bond
C 0.68
H 0.23
N 0.68
O 0.68
loop_
_atom_site_label
_atom_site_type_symbol
_atom_site_fract_x
_atom_site_fract_y
_atom_site_fract_z
O1 O 0.1154(1) 0.8352(1) 0.2924(1)
N1 N 0.3936(1) 0.6035(1) 0.4494(1)
N2 N 0.1619(1) 0.8566(1) 0.4124(1)
C1 C 0.4502(1) 0.4903(2) 0.3901(2)
C2 C 0.4177(1) 0.4158(2) 0.2698(2)
C3 C 0.3185(1) 0.4587(2) 0.2090(2)
C4 C 0.2569(1) 0.5768(1) 0.2673(2)
C5 C 0.2979(1) 0.6483(1) 0.3864(1)
C6 C 0.2454(1) 0.7754(1) 0.4586(1)
C7 C 0.1102(1) 0.9855(2) 0.4970(1)
C8 C 0.1258(2) 1.1306(2) 0.4124(2)
C9 C 0.1650(1) 1.0025(2) 0.6384(2)
C10 C -0.0120(1) 0.9452(2) 0.5142(2)
H1 H 0.5173(17) 0.4622(20) 0.4418(22)
H2 H 0.4638(16) 0.3378(21) 0.2288(20)
H3 H 0.2952(16) 0.4106(22) 0.1241(22)
H4 H 0.1919(14) 0.6098(17) 0.2281(17)
H5 H 0.2745(11) 0.7997(15) 0.5441(16)
H6 H 0.0940(18) 1.1176(24) 0.3218(27)
H7 H 0.2063(19) 1.1542(21) 0.4042(26)
H8 H 0.0833(17) 1.2096(27) 0.4566(24)
H9 H 0.2471(20) 1.0248(18) 0.6322(21)
H10 H 0.1252(15) 1.0853(22) 0.6858(21)
H11 H 0.1545(15) 0.9093(23) 0.6892(21)
H12 H -0.0507(18) 0.9397(25) 0.4259(28)
H13 H -0.0488(17) 1.0256(24) 0.5652(23)
H14 H -0.0203(18) 0.839(3) 0.5627(26)
#END
