
#######################################################################
#
#                 Cambridge Crystallographic Data Centre
#                                CCDC
#
#######################################################################
#
# If this CIF has been generated from an entry in the Cambridge
# Structural Database, then it will include bibliographic, chemical,
# crystal, experimental, refinement or atomic coordinate data resulting
# from the CCDC's data processing and validation procedures.
#
#######################################################################

data_CSD_CIF_PUSHAN
_audit_creation_date 2010-09-14
_audit_creation_method CSD-ConQuest-V1
_database_code_CSD PUSHAN
_database_code_depnum_ccdc_archive 'CCDC 715155'
_chemical_formula_sum 'C17 H12 N2 O2'
_chemical_formula_moiety
;
C17 H12 N2 O2
;
_journal_coden_Cambridge 692
_journal_volume 2009
_journal_year 2009
_journal_page_first 3757
_journal_name_full 'Synthesis '
loop_
_publ_author_name
"Jean-Ho Chu"
"Shiang-Lin Tsai"
"Ming-Jung Wu"
_chemical_name_systematic
;
2-(3'-Nitrobiphenyl-2-yl)pyridine
;
_chemical_melting_point 375.15
_cell_volume   2657.852
_exptl_crystal_colour 'colorless'
_exptl_crystal_density_diffrn 1.381
_exptl_special_details
;
Melting point range 375.15-376.15K

;
_exptl_crystal_description 'prism'
_diffrn_ambient_temperature 200
#These two values have been output from a single CSD field.
_refine_ls_R_factor_gt 0.0677
_refine_ls_wR_factor_gt 0.0677
_symmetry_cell_setting orthorhombic
_symmetry_space_group_name_H-M 'P c a 21'
_symmetry_Int_Tables_number 29
loop_
_symmetry_equiv_pos_site_id
_symmetry_equiv_pos_as_xyz
1 x,y,z
2 -x,-y,1/2+z
3 1/2-x,y,1/2+z
4 1/2+x,-y,z
_cell_length_a 10.3029(4)
_cell_length_b 11.3375(5)
_cell_length_c 22.7538(10)
_cell_angle_alpha 90
_cell_angle_beta 90
_cell_angle_gamma 90
_cell_formula_units_Z 8
loop_
_atom_type_symbol
_atom_type_radius_bond
C 0.68
H 0.23
N 0.68
O 0.68
loop_
_atom_site_label
_atom_site_type_symbol
_atom_site_fract_x
_atom_site_fract_y
_atom_site_fract_z
O1 O 0.4066(4) 0.4792(4) 0.5263(2)
O2 O 0.5934(4) 0.4121(4) 0.5021(2)
N1 N 0.4749(5) 0.4045(4) 0.5037(2)
N2 N 0.2143(5) 0.1855(4) 0.3020(2)
C1 C 0.4107(6) 0.3003(5) 0.4774(3)
C2 C 0.2829(6) 0.3095(5) 0.4609(2)
H1 H 0.23700 0.38140 0.46640
C3 C 0.2217(5) 0.2128(4) 0.4361(2)
C4 C 0.2907(6) 0.1092(5) 0.4306(2)
H2 H 0.24910 0.04150 0.41480
C5 C 0.4203(6) 0.1018(6) 0.4476(3)
H3 H 0.46580 0.02950 0.44330
C6 C 0.4826(6) 0.1981(5) 0.4706(2)
H4 H 0.57150 0.19480 0.48140
C7 C 0.0811(6) 0.2208(5) 0.4203(2)
C8 C -0.0047(6) 0.2748(5) 0.4593(3)
H5 H 0.02840 0.30750 0.49470
C9 C -0.1354(6) 0.2823(6) 0.4482(3)
H6 H -0.19100 0.32080 0.47550
C10 C -0.1859(6) 0.2340(6) 0.3978(3)
H7 H -0.27650 0.23810 0.39010
C11 C -0.1024(5) 0.1789(5) 0.3580(3)
H8 H -0.13730 0.14490 0.32330
C12 C 0.0317(5) 0.1724(5) 0.3681(2)
C13 C 0.1128(5) 0.1213(4) 0.3212(3)
C14 C 0.0826(6) 0.0115(5) 0.2965(3)
H9 H 0.01210 -0.03350 0.31140
C15 C 0.1560(6) -0.0305(6) 0.2506(3)
H10 H 0.13520 -0.10380 0.23270
C16 C 0.2593(6) 0.0343(5) 0.2310(3)
H11 H 0.31230 0.00620 0.19980
C17 C 0.2847(6) 0.1417(5) 0.2574(3)
H12 H 0.35580 0.18690 0.24330
O3 O 0.3839(4) 0.0161(4) 0.0513(2)
O4 O 0.1963(4) 0.0774(4) 0.0815(2)
N3 N 0.3139(5) 0.0886(4) 0.0764(2)
N4 N 0.5713(5) 0.3143(4) 0.2760(2)
C18 C 0.3748(6) 0.1933(5) 0.1015(2)
C19 C 0.3028(6) 0.2946(5) 0.1085(2)
H13 H 0.21310 0.29620 0.09870
C20 C 0.3644(6) 0.3938(6) 0.1301(3)
H14 H 0.31780 0.46580 0.13360
C21 C 0.4932(6) 0.3891(5) 0.1464(2)
H15 H 0.53330 0.45760 0.16220
C22 C 0.5662(6) 0.2857(5) 0.1404(2)
C23 C 0.5058(6) 0.1869(5) 0.1168(2)
H16 H 0.55310 0.11590 0.11110
C24 C 0.7064(6) 0.2810(4) 0.1569(2)
C25 C 0.7915(6) 0.2275(5) 0.1174(3)
H17 H 0.75940 0.19490 0.08180
C26 C 0.9251(6) 0.2215(6) 0.1303(3)
H18 H 0.98290 0.18450 0.10350
C27 C 0.9714(6) 0.2693(5) 0.1815(3)
H19 H 1.06150 0.26540 0.19010
C28 C 0.8888(6) 0.3225(5) 0.2202(3)
H20 H 0.92290 0.35650 0.25510
C29 C 0.7554(6) 0.3280(4) 0.2098(3)
C30 C 0.6721(5) 0.3797(4) 0.2569(3)
C31 C 0.7022(6) 0.4877(5) 0.2815(3)
H21 H 0.77310 0.53250 0.26680
C32 C 0.6289(6) 0.5300(5) 0.3276(3)
H22 H 0.64870 0.60380 0.34530
C33 C 0.5264(7) 0.4630(5) 0.3475(3)
H23 H 0.47410 0.48950 0.37920
C34 C 0.5012(6) 0.3572(5) 0.3204(3)
H24 H 0.42980 0.31190 0.33420
#END
