
#######################################################################
#
#                 Cambridge Crystallographic Data Centre
#                                CCDC
#
#######################################################################
#
# If this CIF has been generated from an entry in the Cambridge
# Structural Database, then it will include bibliographic, chemical,
# crystal, experimental, refinement or atomic coordinate data resulting
# from the CCDC's data processing and validation procedures.
#
#######################################################################

data_CSD_CIF_PUSMAS
_audit_creation_date 2010-09-15
_audit_creation_method CSD-ConQuest-V1
_database_code_CSD PUSMAS
_database_code_depnum_ccdc_archive 'CCDC 726929'
_chemical_formula_sum 'C18 H20 N2 O4'
_chemical_formula_moiety
;
C18 H20 N2 O4
;
_journal_coden_Cambridge 692
_journal_year 2009
_journal_page_first 4068
_journal_name_full 'Synthesis '
loop_
_publ_author_name
"T.Kurz"
"M.Khankischpur"
_chemical_name_systematic
;
(4Z,6S)-4-(((2-Methoxypropan-2-yl)oxy)imino)-6-(1-naphthyl)-1,3-oxazinan-2-one
;
_chemical_melting_point 448.85
_cell_volume   3372.814
_exptl_crystal_colour 'colorless'
_exptl_crystal_density_diffrn 1.293
_exptl_crystal_description 'needle'
_diffrn_ambient_temperature 100
#These two values have been output from a single CSD field.
_refine_ls_R_factor_gt 0.0705
_refine_ls_wR_factor_gt 0.0705
_symmetry_cell_setting monoclinic
_symmetry_space_group_name_H-M 'C 2/c'
_symmetry_Int_Tables_number 15
loop_
_symmetry_equiv_pos_site_id
_symmetry_equiv_pos_as_xyz
1 x,y,z
2 -x,y,1/2-z
3 1/2+x,1/2+y,z
4 1/2-x,1/2+y,1/2-z
5 -x,-y,-z
6 x,-y,-1/2+z
7 -1/2-x,-1/2-y,-z
8 -1/2+x,-1/2-y,-1/2+z
_cell_length_a 29.799(10)
_cell_length_b 5.837(2)
_cell_length_c 22.893(8)
_cell_angle_alpha 90
_cell_angle_beta 122.11(2)
_cell_angle_gamma 90
_cell_formula_units_Z 8
loop_
_atom_type_symbol
_atom_type_radius_bond
C 0.68
H 0.23
N 0.68
O 0.68
loop_
_atom_site_label
_atom_site_type_symbol
_atom_site_fract_x
_atom_site_fract_y
_atom_site_fract_z
O1 O 0.08334(10) 0.4433(4) 0.08985(12)
O2 O -0.04682(10) 0.0624(4) 0.11425(12)
O3 O -0.13148(10) 0.1913(5) 0.08448(12)
O4 O 0.04249(11) 0.1989(5) 0.00181(12)
N1 N 0.01408(12) 0.2162(5) 0.07682(14)
H1 H -0.00500 0.09120 0.05940
N2 N -0.02105(12) 0.2723(5) 0.14837(15)
C1 C 0.13617(15) 0.6852(6) 0.18880(18)
C2 C 0.04426(15) 0.5434(6) 0.15688(18)
H2 H 0.05160 0.57530 0.20360
H3 H 0.02660 0.67880 0.12740
C3 C 0.00972(15) 0.3352(6) 0.12702(17)
C4 C 0.13788(15) 0.8450(7) 0.14587(19)
H4 H 0.11440 0.83040 0.09740
C5 C -0.09268(15) 0.0163(6) 0.11883(18)
C6 C 0.17225(15) 0.7033(6) 0.26273(18)
C7 C 0.04567(15) 0.2798(7) 0.05314(18)
C8 C 0.17494(15) 0.5408(7) 0.31173(19)
H5 H 0.15170 0.41290 0.29580
C9 C 0.09572(15) 0.4914(7) 0.16003(17)
H6 H 0.11220 0.35190 0.18910
C10 C 0.20738(15) 0.8969(7) 0.28892(18)
C11 C 0.17389(16) 1.0307(7) 0.1724(2)
H7 H 0.17460 1.13710 0.14140
C12 C 0.20768(16) 1.0592(7) 0.24172(19)
H8 H 0.23130 1.18570 0.25880
C13 C -0.07885(16) 0.0249(8) 0.19348(19)
H9 H -0.06770 0.18040 0.21170
H10 H -0.05000 -0.08270 0.22160
H11 H -0.11000 -0.01760 0.19500
C14 C 0.24483(16) 0.7601(7) 0.40650(19)
H12 H 0.26890 0.77850 0.45470
C15 C 0.24325(15) 0.9191(7) 0.36156(19)
H13 H 0.26650 1.04700 0.37910
C16 C 0.21061(16) 0.5679(7) 0.38109(18)
H14 H 0.21240 0.45630 0.41250
C17 C -0.11082(17) -0.2185(7) 0.0858(2)
H15 H -0.14500 -0.25540 0.08030
H16 H -0.08450 -0.33370 0.11530
H17 H -0.11470 -0.21790 0.04050
C18 C -0.14762(19) 0.2317(8) 0.01395(19)
H18 H -0.11680 0.27700 0.01200
H19 H -0.17410 0.35420 -0.00530
H20 H -0.16290 0.09110 -0.01290
#END
