
#######################################################################
#
#                 Cambridge Crystallographic Data Centre
#                                CCDC
#
#######################################################################
#
# If this CIF has been generated from an entry in the Cambridge
# Structural Database, then it will include bibliographic, chemical,
# crystal, experimental, refinement or atomic coordinate data resulting
# from the CCDC's data processing and validation procedures.
#
#######################################################################

data_CSD_CIF_PUTCUC
_audit_creation_date 1999-01-19
_audit_creation_method CSD-ConQuest-V1
_database_code_CSD PUTCUC
_chemical_formula_sum 'C8 H3 N7 O6'
_chemical_formula_moiety
;
C8 H3 N7 O6
;
_journal_coden_Cambridge 35
_journal_volume 63
_journal_year 1998
_journal_page_first 3352
_journal_name_full 'J.Org.Chem. '
loop_
_publ_author_name
"K.L.Altmann"
"A.P.Chafin"
"L.H.Merwin"
"W.S.Wilson"
"R.Gilardi"
_chemical_name_systematic
;
3,5,7-Trinitro-1,2,3-triazolo(2,1-a)benzotriazole
;
_chemical_melting_point 544.15
_cell_volume   1094.046
_exptl_crystal_density_diffrn 1.78
_exptl_special_details
;
Melting point range 544.15-545.15K

;
_exptl_crystal_preparation 'acetonitrile'
_diffrn_ambient_temperature ?
_diffrn_special_details
;
The study was carried out at room temperature,in the range 283-303K

;
#These two values have been output from a single CSD field.
_refine_ls_R_factor_gt 0.0541
_refine_ls_wR_factor_gt 0.0541
_symmetry_cell_setting monoclinic
_symmetry_space_group_name_H-M 'P 21/c'
_symmetry_Int_Tables_number 14
loop_
_symmetry_equiv_pos_site_id
_symmetry_equiv_pos_as_xyz
1 x,y,z
2 -x,1/2+y,1/2-z
3 -x,-y,-z
4 x,-1/2-y,-1/2+z
_cell_length_a 10.439(6)
_cell_length_b 9.420(3)
_cell_length_c 11.656(8)
_cell_angle_alpha 90
_cell_angle_beta 107.35(5)
_cell_angle_gamma 90
_cell_formula_units_Z 4
loop_
_atom_type_symbol
_atom_type_radius_bond
C 0.68
H 0.23
N 0.68
O 0.68
loop_
_atom_site_label
_atom_site_type_symbol
_atom_site_fract_x
_atom_site_fract_y
_atom_site_fract_z
C1 C 0.7409(4) 0.4703(5) 0.1638(4)
N1 N 0.6522(4) 0.5250(4) 0.2194(3)
N2 N 0.5200(4) 0.5164(5) 0.2089(4)
C2 C 0.5137(5) 0.5875(6) 0.3065(5)
C3 C 0.6350(5) 0.6385(6) 0.3755(4)
N3 N 0.6726(5) 0.7154(5) 0.4830(4)
O1 O 0.5822(4) 0.7365(5) 0.5303(3)
O2 O 0.7874(4) 0.7578(4) 0.5227(3)
N4 N 0.7253(4) 0.5947(4) 0.3175(3)
N5 N 0.8594(4) 0.5927(4) 0.3354(3)
C4 C 0.8662(5) 0.5134(5) 0.2382(4)
C5 C 0.9804(4) 0.4685(5) 0.2039(4)
N6 N 1.1155(4) 0.4981(5) 0.2780(4)
O3 O 1.2095(3) 0.4618(4) 0.2412(3)
O4 O 1.1324(3) 0.5563(4) 0.3752(3)
C6 C 0.9616(5) 0.3903(5) 0.1022(4)
C7 C 0.8336(5) 0.3539(5) 0.0337(4)
N7 N 0.8178(5) 0.2679(4) -0.0756(4)
O5 O 0.7072(4) 0.2162(4) -0.1247(3)
O6 O 0.9167(4) 0.2544(4) -0.1110(3)
C8 C 0.7175(5) 0.3903(5) 0.0609(4)
H1 H 0.4300(48) 0.5953(53) 0.3155(41)
H2 H 1.0345(43) 0.3531(48) 0.0813(36)
H3 H 0.6269(43) 0.3684(49) 0.0155(37)
#END
