
#######################################################################
#
#                 Cambridge Crystallographic Data Centre
#                                CCDC
#
#######################################################################
#
# If this CIF has been generated from an entry in the Cambridge
# Structural Database, then it will include bibliographic, chemical,
# crystal, experimental, refinement or atomic coordinate data resulting
# from the CCDC's data processing and validation procedures.
#
#######################################################################

data_CSD_CIF_PUTDAJ
_audit_creation_date 1999-01-19
_audit_creation_method CSD-ConQuest-V1
_database_code_CSD PUTDAJ
_chemical_formula_sum 'C8 H4 N6 O4'
_chemical_formula_moiety
;
C8 H4 N6 O4
;
_journal_coden_Cambridge 35
_journal_volume 63
_journal_year 1998
_journal_page_first 3352
_journal_name_full 'J.Org.Chem. '
loop_
_publ_author_name
"K.L.Altmann"
"A.P.Chafin"
"L.H.Merwin"
"W.S.Wilson"
"R.Gilardi"
_chemical_name_systematic
;
5,7-Dinitro-1,2,3-triazolo(2,1-a)benzotriazole
;
_cell_volume    945.533
_exptl_crystal_colour 'red'
_exptl_crystal_density_diffrn 1.743
_exptl_crystal_preparation 'acetonitrile'
_diffrn_ambient_temperature ?
_diffrn_special_details
;
The study was carried out at room temperature,in the range 283-303K

;
#These two values have been output from a single CSD field.
_refine_ls_R_factor_gt 0.0369
_refine_ls_wR_factor_gt 0.0369
_symmetry_cell_setting orthorhombic
_symmetry_space_group_name_H-M 'P n m a'
_symmetry_Int_Tables_number 62
loop_
_symmetry_equiv_pos_site_id
_symmetry_equiv_pos_as_xyz
1 x,y,z
2 1/2-x,-y,1/2+z
3 1/2+x,1/2-y,1/2-z
4 -x,1/2+y,-z
5 -x,-y,-z
6 -1/2+x,y,-1/2-z
7 -1/2-x,-1/2+y,-1/2+z
8 x,-1/2-y,z
_cell_length_a 15.2067(8)
_cell_length_b 6.1814(6)
_cell_length_c 10.0590(5)
_cell_angle_alpha 90
_cell_angle_beta 90
_cell_angle_gamma 90
_cell_formula_units_Z 4
loop_
_atom_type_symbol
_atom_type_radius_bond
C 0.68
N 0.68
O 0.68
loop_
_atom_site_label
_atom_site_type_symbol
_atom_site_fract_x
_atom_site_fract_y
_atom_site_fract_z
C1 C 0.3483(2) 0.25000 0.3960(2)
N1 N 0.4147(1) 0.25000 0.4897(2)
N2 N 0.5017(1) 0.25000 0.4976(2)
C2 C 0.5161(2) 0.25000 0.6297(2)
C3 C 0.4393(2) 0.25000 0.7025(2)
N3 N 0.3753(1) 0.25000 0.6108(2)
N4 N 0.2856(1) 0.25000 0.60612
C4 C 0.2703(2) 0.25000 0.4735(2)
C5 C 0.1899(1) 0.25000 0.4010(2)
N5 N 0.1064(1) 0.25000 0.4692(2)
O1 O 0.1060(1) 0.25000 0.5895(2)
O2 O 0.0399(1) 0.25000 0.4024(2)
C6 C 0.1914(1) 0.25000 0.2640(3)
C7 C 0.2711(1) 0.25000 0.1969(2)
N6 N 0.2699(1) 0.25000 0.0522(2)
O3 O 0.3399(1) 0.25000 -0.0068(2)
O4 O 0.1987(1) 0.25000 -0.0049(2)
C8 C 0.3519(1) 0.25000 0.2598(2)
#END
