
#######################################################################
#
#                 Cambridge Crystallographic Data Centre
#                                CCDC
#
#######################################################################
#
# If this CIF has been generated from an entry in the Cambridge
# Structural Database, then it will include bibliographic, chemical,
# crystal, experimental, refinement or atomic coordinate data resulting
# from the CCDC's data processing and validation procedures.
#
#######################################################################

data_CSD_CIF_PUTNUP
_audit_creation_date 2015-08-26
_audit_creation_method CSD-ConQuest-V1
_database_code_CSD PUTNUP
_database_code_depnum_ccdc_archive 'CCDC 1048892'
_chemical_formula_sum 'C27 H17 N3 O4'
_chemical_formula_moiety
;
C27 H17 N3 O4
;
_journal_coden_Cambridge 179
_journal_volume 54
_journal_year 2015
_journal_page_first 9092
_journal_name_full 'Angew.Chem.,Int.Ed. '
loop_
_publ_author_name
"Liejin Zhou"
"Bing Xu"
"Junliang Zhang"
_chemical_name_systematic
;
5-methyl-2-(4-nitrophenyl)-10-phenylpyrrolo[3,4-b]carbazole-1,3(2H,5H)-dione 
unknown solvate
;
_cell_volume   2173.275
_exptl_crystal_colour 'colorless'
_exptl_crystal_density_diffrn 1.367
_exptl_crystal_description 'block'
_diffrn_ambient_temperature 173
_refine_special_details
;
The SQUEEZE/PLATON program has been used to model some disorder.

;
#These two values have been output from a single CSD field.
_refine_ls_R_factor_gt 0.049
_refine_ls_wR_factor_gt 0.049
_symmetry_cell_setting monoclinic
_symmetry_space_group_name_H-M 'P 21/c'
_symmetry_Int_Tables_number 14
loop_
_symmetry_equiv_pos_site_id
_symmetry_equiv_pos_as_xyz
1 x,y,z
2 -x,1/2+y,1/2-z
3 -x,-y,-z
4 x,-1/2-y,-1/2+z
_cell_length_a 7.9873(4)
_cell_length_b 15.7630(8)
_cell_length_c 17.2684(9)
_cell_angle_alpha 90
_cell_angle_beta 91.632(2)
_cell_angle_gamma 90
_cell_formula_units_Z 4
loop_
_atom_type_symbol
_atom_type_radius_bond
C 0.68
H 0.23
N 0.68
O 0.68
loop_
_atom_site_label
_atom_site_type_symbol
_atom_site_fract_x
_atom_site_fract_y
_atom_site_fract_z
O1 O 0.26539(19) 0.66583(9) 0.46611(9)
O2 O 0.22050(19) 0.95532(9) 0.48653(10)
O3 O -0.4255(2) 0.70341(13) 0.67918(12)
O4 O -0.5151(2) 0.82181(13) 0.62968(11)
N1 N 0.8117(2) 0.92807(11) 0.33045(10)
N2 N 0.2011(2) 0.80776(10) 0.4866(1)
N3 N -0.4063(2) 0.76733(14) 0.63939(11)
C1 C 0.9268(3) 0.86759(13) 0.30948(12)
C2 C 1.0841(3) 0.88073(15) 0.27864(12)
H1 H 1.12390 0.93620 0.26780
C3 C 1.1795(3) 0.80976(16) 0.26454(13)
H2 H 1.28730 0.81640 0.24350
C4 C 1.1210(3) 0.72865(16) 0.28054(13)
H3 H 1.19000 0.68110 0.27020
C5 C 0.9657(3) 0.71551(14) 0.31092(13)
H4 H 0.92760 0.65970 0.32150
C6 C 0.8645(3) 0.78616(13) 0.32603(11)
C7 C 0.7031(2) 0.79841(12) 0.35953(11)
C8 C 0.6767(2) 0.88768(13) 0.36220(12)
C9 C 0.5373(3) 0.92418(13) 0.39561(12)
H5 H 0.52010 0.98380 0.39710
C10 C 0.4262(2) 0.86721(12) 0.42628(12)
C11 C 0.4469(2) 0.77922(12) 0.42261(11)
C12 C 0.5842(2) 0.74189(12) 0.38885(11)
C13 C 0.2738(3) 0.88626(12) 0.46832(12)
C14 C 0.3018(3) 0.73956(12) 0.45922(12)
C15 C 0.0496(2) 0.79767(13) 0.52684(12)
C16 C 0.0256(3) 0.72778(15) 0.57437(13)
H6 H 0.11200 0.68680 0.58110
C17 C -0.1232(3) 0.71797(16) 0.61162(13)
H7 H -0.14080 0.67000 0.64370
C18 C -0.2458(3) 0.77835(14) 0.60188(11)
C19 C -0.2226(3) 0.84953(14) 0.55725(12)
H8 H -0.30720 0.89180 0.55320
C20 C -0.0754(3) 0.85874(13) 0.51863(12)
H9 H -0.05910 0.90670 0.48640
C21 C 0.8329(3) 1.01869(13) 0.32129(15)
H10 H 0.93990 1.03000 0.29680
H11 H 0.83220 1.04610 0.37220
H12 H 0.74100 1.04130 0.28860
C22 C 0.6057(3) 0.64813(13) 0.38521(12)
C23 C 0.6703(6) 0.60356(18) 0.44652(18)
H13 H 0.70370 0.63300 0.49240
C24 C 0.6881(7) 0.51684(19) 0.4435(2)
H14 H 0.73660 0.48760 0.48670
C25 C 0.6376(4) 0.47273(15) 0.37994(16)
H15 H 0.64780 0.41270 0.37850
C26 C 0.5726(3) 0.51545(16) 0.31857(17)
H16 H 0.53690 0.48540 0.27340
C27 C 0.5574(3) 0.60320(15) 0.32102(14)
H17 H 0.51240 0.63240 0.27710
#END
