
#######################################################################
#
#                 Cambridge Crystallographic Data Centre
#                                CCDC
#
#######################################################################
#
# If this CIF has been generated from an entry in the Cambridge
# Structural Database, then it will include bibliographic, chemical,
# crystal, experimental, refinement or atomic coordinate data resulting
# from the CCDC's data processing and validation procedures.
#
#######################################################################

data_CSD_CIF_PUTTOO
_audit_creation_date 2010-10-27
_audit_creation_method CSD-ConQuest-V1
_database_code_CSD PUTTOO
_database_code_depnum_ccdc_archive 'CCDC 780401'
_chemical_formula_sum 'C24 H23 N5 O6'
_chemical_formula_moiety
;
C24 H23 N5 O6
;
_journal_coden_Cambridge 179
_journal_volume 49
_journal_year 2010
_journal_page_first 6418
_journal_name_full 'Angew.Chem.,Int.Ed. '
loop_
_publ_author_name
"Jun-Long Li"
"Tai-Ran Kang"
"Si-Li Zhou"
"Rui Li"
"Li Wu"
"Ying-Chun Chen"
_chemical_name_systematic
;
Ethyl 
1-cyano-6-(2-((2,4-dinitrophenyl)hydrazono)ethyl)-4-phenylcyclohex-2-ene-1-car
boxylate
;
_cell_volume   1193.713
_exptl_crystal_colour 'yellow'
_exptl_crystal_density_diffrn 1.328
_exptl_special_details
;
Absolute configuration

;
_exptl_crystal_description 'block'
_diffrn_ambient_temperature 291
#These two values have been output from a single CSD field.
_refine_ls_R_factor_gt 0.0486
_refine_ls_wR_factor_gt 0.0486
_symmetry_cell_setting triclinic
_symmetry_space_group_name_H-M 'P 1'
_symmetry_Int_Tables_number 1
loop_
_symmetry_equiv_pos_site_id
_symmetry_equiv_pos_as_xyz
1 x,y,z
_cell_length_a 7.1925(3)
_cell_length_b 12.2825(5)
_cell_length_c 13.6432(4)
_cell_angle_alpha 92.922(3)
_cell_angle_beta 94.510(3)
_cell_angle_gamma 95.598(4)
_cell_formula_units_Z 2
loop_
_atom_type_symbol
_atom_type_radius_bond
C 0.68
H 0.23
N 0.68
O 0.68
loop_
_atom_site_label
_atom_site_type_symbol
_atom_site_fract_x
_atom_site_fract_y
_atom_site_fract_z
C1 C 1.1121(8) -0.1043(5) 0.1186(3)
H1 H 1.06340 -0.09870 0.05170
H2 H 1.23850 -0.07000 0.12770
H3 H 1.03600 -0.06840 0.16230
C2 C 1.1100(11) -0.2115(5) 0.1385(3)
H4 H 1.18450 -0.24770 0.09300
H5 H 0.98230 -0.24600 0.12800
H6 H 1.799(6) -0.004(4) 0.385(2)
N1 N 1.7358(3) -0.02013(16) 0.32397(14)
C3 C 1.7388(3) 0.17503(18) 0.30079(16)
N2 N 1.6907(3) -0.12655(16) 0.28654(15)
O1 O 1.8246(3) 0.30501(16) 0.42772(17)
O2 O 1.8279(3) 0.13523(16) 0.46080(14)
C4 C 1.7199(4) -0.1998(2) 0.3449(2)
H7 H 1.77520 -0.18050 0.40810
C5 C 1.3732(3) -0.55410(19) 0.42750(19)
H8 H 1.44410 -0.54810 0.49220
C6 C 1.6506(3) 0.2326(2) 0.1416(2)
C7 C 1.6500(4) 0.0419(2) 0.16428(17)
H9 H 1.63070 -0.03030 0.13840
C8 C 1.1988(4) -0.4972(2) 0.4379(2)
H10 H 1.09880 -0.53570 0.46460
C9 C 1.3404(4) -0.21524(19) 0.41558(17)
N3 N 1.8016(3) 0.20689(16) 0.40215(15)
C10 C 1.3741(4) -0.7528(2) 0.46444(19)
H11 H 1.43090 -0.72970 0.52660
C11 C 1.7103(3) 0.2581(2) 0.2387(2)
H12 H 1.73140 0.33090 0.26260
C12 C 1.2555(5) -0.3155(3) 0.2550(2)
C13 C 1.5176(3) -0.37206(16) 0.37615(17)
H13 H 1.56520 -0.35740 0.44540
N4 N 1.3545(5) -0.13370(19) 0.46017(18)
C14 C 1.2542(4) -0.8993(2) 0.3466(2)
H14 H 1.23140 -0.97380 0.32900
C15 C 1.2425(4) -0.7119(2) 0.3067(2)
H15 H 1.20960 -0.66100 0.26190
O3 O 1.6415(5) 0.4144(2) 0.1115(2)
N5 N 1.6186(4) 0.3209(2) 0.0774(2)
C16 C 1.7098(3) 0.06338(18) 0.26601(16)
O4 O 1.5699(4) 0.2964(3) -0.0097(2)
O5 O 1.1837(5) -0.2266(2) 0.23990(16)
C17 C 1.4966(3) -0.49600(18) 0.3563(2)
H16 H 1.61960 -0.52240 0.36210
H17 H 1.44230 -0.51380 0.28940
C18 C 1.1776(4) -0.3973(2) 0.4121(2)
H18 H 1.06580 -0.36880 0.42390
C19 C 1.3275(3) -0.67584(18) 0.39834(18)
C20 C 1.3248(3) -0.32503(18) 0.36388(16)
C21 C 1.6207(4) 0.1246(2) 0.10407(18)
H19 H 1.58060 0.10880 0.03790
C22 C 1.6667(4) -0.3175(2) 0.3138(2)
H20 H 1.77770 -0.35650 0.31940
H21 H 1.61820 -0.32340 0.24510
C23 C 1.2054(4) -0.8233(2) 0.2804(2)
H22 H 1.14790 -0.84660 0.21840
C24 C 1.3369(4) -0.8641(2) 0.4388(2)
H23 H 1.36780 -0.91510 0.48400
O6 O 1.2767(6) -0.3804(3) 0.1910(2)
H24 H 0.823(4) 0.448(3) 0.6419(16)
C25 C 0.7522(2) 0.52079(16) 0.75995(15)
N6 N 0.7981(2) 0.33264(15) 0.74292(14)
N7 N 0.7817(3) 0.65155(16) 0.62640(14)
C26 C 0.6815(3) 0.5953(2) 0.91943(17)
H25 H 0.65400 0.58480 0.98400
C27 C 1.2278(3) -0.18387(16) 0.74466(16)
O7 O 0.8112(3) 0.57588(16) 0.56719(13)
O8 O 1.1484(3) 0.28531(15) 0.91121(12)
C28 C 0.7258(3) 0.71705(18) 0.78892(16)
H26 H 0.73030 0.78730 0.76620
N8 N 0.6679(3) 0.7944(2) 0.95010(18)
N9 N 0.7898(3) 0.43372(15) 0.70334(14)
C29 C 1.2415(3) -0.37746(18) 0.71055(19)
H27 H 1.25170 -0.43550 0.66540
C30 C 1.2155(4) -0.3092(2) 0.87438(19)
H28 H 1.20790 -0.32130 0.94070
C31 C 1.0454(3) -0.01887(17) 0.72549(18)
H29 H 1.01510 -0.02930 0.79260
H30 H 0.94480 -0.05720 0.68160
C32 C 0.8538(3) 0.26036(19) 0.68575(18)
H31 H 0.88720 0.27860 0.62370
C33 C 1.0577(3) 0.10365(16) 0.70755(16)
H32 H 1.09050 0.11240 0.63980
C34 C 1.2413(3) -0.27199(18) 0.67904(17)
H33 H 1.25040 -0.26020 0.61270
C35 C 0.8665(3) 0.14661(19) 0.7165(2)
H34 H 0.77220 0.09800 0.67680
H35 H 0.83680 0.14370 0.78450
N10 N 1.3115(4) 0.35404(17) 0.70169(19)
O9 O 1.1264(6) 0.1079(2) 0.9330(2)
C36 C 1.2679(3) 0.27540(17) 0.73801(17)
O10 O 0.7751(4) 0.74522(16) 0.60046(15)
C37 C 1.3927(3) 0.1082(2) 0.7850(2)
H36 H 1.50440 0.14650 0.81210
C38 C 1.3943(3) 0.0044(2) 0.7544(2)
H37 H 1.50800 -0.02570 0.76190
C39 C 1.2267(3) -0.39694(19) 0.80810(19)
H38 H 1.22430 -0.46780 0.82920
C40 C 0.7106(3) 0.50792(19) 0.85858(17)
H39 H 0.70290 0.43820 0.88260
C41 C 1.2174(3) 0.16803(16) 0.77809(15)
C42 C 0.7521(3) 0.62807(17) 0.72617(15)
O11 O 0.6255(4) 0.7763(2) 1.03334(18)
C43 C 1.2156(3) -0.20367(19) 0.84318(17)
H40 H 1.20740 -0.14570 0.88870
O12 O 0.6906(4) 0.88585(18) 0.9201(2)
C44 C 0.6930(3) 0.69965(19) 0.88465(17)
C45 C 1.1585(4) 0.1825(2) 0.88395(18)
C46 C 1.2280(3) -0.06853(17) 0.70881(17)
H41 H 1.23870 -0.07390 0.63760
C47 C 1.1187(6) 0.4252(3) 1.0332(3)
H42 H 1.08540 0.44040 1.09890
H43 H 1.03870 0.45970 0.98730
H44 H 1.24680 0.45300 1.02820
C48 C 1.0961(6) 0.3061(3) 1.0104(2)
H45 H 1.17550 0.27040 1.05690
H46 H 0.96690 0.27720 1.01510
#END
