
#######################################################################
#
#                 Cambridge Crystallographic Data Centre
#                                CCDC
#
#######################################################################
#
# If this CIF has been generated from an entry in the Cambridge
# Structural Database, then it will include bibliographic, chemical,
# crystal, experimental, refinement or atomic coordinate data resulting
# from the CCDC's data processing and validation procedures.
#
#######################################################################

data_CSD_CIF_PUVCOY
_audit_creation_date 1999-01-19
_audit_creation_method CSD-ConQuest-V1
_database_code_CSD PUVCOY
_database_code_depnum_ccdc_archive 'CCDC 130612'
_chemical_formula_sum 'C17 H19 N1 O6'
_chemical_formula_moiety
;
C17 H19 N1 O6
;
_journal_coeditor_code "IUCr QA0058"
_journal_data_validation_number IUC9800056
_journal_coden_Cambridge 591
_journal_volume 54
_journal_year 1998
_journal_page_first 9800056
_journal_name_full 'Acta Crystallogr.,Sect.C:Cryst.Struct.Commun. '
loop_
_publ_author_name
"R.J.Boffey"
"J.D.Kilburn"
"M.Webster"
_chemical_name_systematic
;
(+-)-(1S)-2-(2-Methyl-1,3-dioxolan-2-yl)-1-((1S)-2-methylenecyclopropyl)-1-eth
yl 4-nitrobenzenoate
;
_cell_volume    822.522
_exptl_crystal_colour 'pale yellow'
_exptl_crystal_density_diffrn 1.346
_exptl_crystal_description 'block'
_diffrn_ambient_temperature 150
#These two values have been output from a single CSD field.
_refine_ls_R_factor_gt 0.0539
_refine_ls_wR_factor_gt 0.0539
_symmetry_cell_setting triclinic
_symmetry_space_group_name_H-M 'P -1'
_symmetry_Int_Tables_number 2
loop_
_symmetry_equiv_pos_site_id
_symmetry_equiv_pos_as_xyz
1 x,y,z
2 -x,-y,-z
_cell_length_a 7.837(4)
_cell_length_b 15.807(9)
_cell_length_c 7.020(6)
_cell_angle_alpha 90.41(6)
_cell_angle_beta 108.66(5)
_cell_angle_gamma 86.73(5)
_cell_formula_units_Z 2
loop_
_atom_type_symbol
_atom_type_radius_bond
C 0.68
H 0.23
N 0.68
O 0.68
loop_
_atom_site_label
_atom_site_type_symbol
_atom_site_fract_x
_atom_site_fract_y
_atom_site_fract_z
O1 O 0.7187(4) 0.70696(16) 0.6904(4)
O2 O 0.7161(4) 0.62214(17) 0.9269(4)
O3 O 0.8375(4) 0.35768(15) 0.1291(4)
O4 O 0.7225(3) 0.28280(13) 0.3272(3)
O5 O 1.0461(3) 0.21884(14) 0.6228(3)
O6 O 1.0366(3) 0.07816(14) 0.6886(3)
N1 N 0.7244(4) 0.63563(19) 0.7602(4)
C1 C 0.7399(4) 0.5625(2) 0.6333(5)
C2 C 0.7666(4) 0.5771(2) 0.4519(5)
C3 C 0.7791(4) 0.5082(2) 0.3341(5)
C4 C 0.7616(4) 0.4262(2) 0.3975(4)
C5 C 0.7343(5) 0.4140(2) 0.5806(5)
C6 C 0.7255(5) 0.4821(2) 0.7021(5)
C7 C 0.7795(4) 0.3533(2) 0.2675(5)
C8 C 0.7455(4) 0.2026(2) 0.2289(4)
C9 C 0.8112(4) 0.1363(2) 0.3961(5)
C10 C 1.0081(4) 0.13848(19) 0.5285(4)
C11 C 1.1422(5) 0.1184(2) 0.4189(5)
C12 C 1.0041(5) 0.2130(3) 0.8066(5)
C13 C 1.0627(5) 0.1225(2) 0.8713(5)
C14 C 0.5676(4) 0.1834(2) 0.0792(5)
C15 C 0.5125(5) 0.2228(2) -0.1316(5)
C16 C 0.5675(4) 0.1328(2) -0.0961(5)
C17 C 0.6028(5) 0.0590(3) -0.1650(6)
H1 H 0.780(4) 0.637(2) 0.412(5)
H2 H 0.795(5) 0.515(2) 0.202(5)
H3 H 0.731(5) 0.354(2) 0.626(5)
H4 H 0.704(5) 0.475(2) 0.833(5)
H5 H 0.835(5) 0.208(2) 0.160(5)
H6 H 0.732(5) 0.145(2) 0.486(5)
H7 H 0.795(5) 0.082(2) 0.326(5)
H8 H 1.123(5) 0.159(2) 0.302(5)
H9 H 1.270(5) 0.116(2) 0.520(5)
H10 H 1.119(5) 0.064(2) 0.355(5)
H11 H 0.872(5) 0.222(2) 0.775(5)
H12 H 1.071(5) 0.259(2) 0.898(5)
H13 H 0.990(5) 0.094(2) 0.952(5)
H14 H 1.195(5) 0.114(2) 0.949(5)
H15 H 0.473(5) 0.172(2) 0.143(5)
H16 H 0.596(5) 0.263(2) -0.166(5)
H17 H 0.389(5) 0.236(2) -0.195(5)
H18 H 0.586(4) 0.048(2) -0.318(5)
H19 H 0.637(5) 0.009(2) -0.069(5)
#END
