
#######################################################################
#
#                 Cambridge Crystallographic Data Centre
#                                CCDC
#
#######################################################################
#
# If this CIF has been generated from an entry in the Cambridge
# Structural Database, then it will include bibliographic, chemical,
# crystal, experimental, refinement or atomic coordinate data resulting
# from the CCDC's data processing and validation procedures.
#
#######################################################################

data_CSD_CIF_PUVSOO
_audit_creation_date 1999-01-19
_audit_creation_method CSD-ConQuest-V1
_database_code_CSD PUVSOO
_database_code_depnum_ccdc_archive 'CCDC 130596'
_chemical_formula_sum 'C7 H4 N4 O4'
_chemical_formula_moiety
;
C7 H4 N4 O4
;
_journal_coeditor_code "IUCr KA1282"
_journal_coden_Cambridge 591
_journal_volume 54
_journal_year 1998
_journal_page_first 1687
_journal_name_full 'Acta Crystallogr.,Sect.C:Cryst.Struct.Commun. '
loop_
_publ_author_name
"J.Zaleski"
"Z.Daszkiewicz"
"J.Kyziol"
_chemical_name_systematic
;
1,5-Dinitro-1H-indazole
;
_chemical_melting_point 440
_cell_volume    821.817
_exptl_crystal_colour 'colorless'
_exptl_crystal_density_diffrn 1.682
_exptl_special_details
;
Melting point range 440-442K

;
_exptl_crystal_description 'irregular'
_exptl_crystal_preparation 'methanol'
_diffrn_ambient_temperature ?
_diffrn_special_details
;
The study was carried out at room temperature,in the range 283-303K

;
#These two values have been output from a single CSD field.
_refine_ls_R_factor_gt 0.041
_refine_ls_wR_factor_gt 0.041
_symmetry_cell_setting monoclinic
_symmetry_space_group_name_H-M 'P 21/n'
_symmetry_Int_Tables_number 14
loop_
_symmetry_equiv_pos_site_id
_symmetry_equiv_pos_as_xyz
1 x,y,z
2 1/2-x,1/2+y,1/2-z
3 -x,-y,-z
4 -1/2+x,-1/2-y,-1/2+z
_cell_length_a 7.631(2)
_cell_length_b 10.888(2)
_cell_length_c 9.917(2)
_cell_angle_alpha 90
_cell_angle_beta 94.14(3)
_cell_angle_gamma 90
_cell_formula_units_Z 4
loop_
_atom_type_symbol
_atom_type_radius_bond
C 0.68
H 0.23
N 0.68
O 0.68
loop_
_atom_site_label
_atom_site_type_symbol
_atom_site_fract_x
_atom_site_fract_y
_atom_site_fract_z
C1 C 0.0757(3) 0.5697(2) 0.2789(2)
H1 H 0.02510 0.52590 0.20170
C2 C 0.2078(2) 0.39107(18) 0.4274(2)
H2 H 0.17200 0.32350 0.36960
C3 C 0.3018(2) 0.37361(18) 0.5486(2)
C4 C 0.3558(3) 0.46893(19) 0.6352(2)
H3 H 0.42270 0.45090 0.71850
C5 C 0.3146(3) 0.58851(19) 0.60301(19)
H4 H 0.34970 0.65520 0.66220
C6 C 0.2193(2) 0.60796(18) 0.48015(18)
C7 C 0.1670(2) 0.51151(18) 0.39259(18)
N1 N 0.1543(2) 0.71183(14) 0.41440(16)
N2 N 0.0690(2) 0.68804(17) 0.29128(17)
N3 N 0.1761(2) 0.83377(17) 0.45472(19)
N4 N 0.3516(2) 0.24783(18) 0.58752(19)
O1 O 0.2521(3) 0.84820(16) 0.56481(18)
O2 O 0.1191(3) 0.91219(16) 0.37677(19)
O3 O 0.2731(3) 0.16371(17) 0.5303(2)
O4 O 0.4695(2) 0.23398(18) 0.6754(2)
#END
