
#######################################################################
#
#                 Cambridge Crystallographic Data Centre
#                                CCDC
#
#######################################################################
#
# If this CIF has been generated from an entry in the Cambridge
# Structural Database, then it will include bibliographic, chemical,
# crystal, experimental, refinement or atomic coordinate data resulting
# from the CCDC's data processing and validation procedures.
#
#######################################################################

data_CSD_CIF_PUVSEE
_audit_creation_date 1999-01-19
_audit_creation_method CSD-ConQuest-V1
_database_code_CSD PUVSEE
_database_code_depnum_ccdc_archive 'CCDC 130557'
_chemical_formula_sum 'C12 H11 N3 O4'
_chemical_formula_moiety
;
C12 H11 N3 O4
;
_journal_coeditor_code "IUCr DE1078"
_journal_coden_Cambridge 591
_journal_volume 54
_journal_year 1998
_journal_page_first 1683
_journal_name_full 'Acta Crystallogr.,Sect.C:Cryst.Struct.Commun. '
loop_
_publ_author_name
"L.Vijayalakshmi"
"V.Parthasarathi"
"P.T.Perumal"
"V.J.Majo"
_chemical_name_systematic
;
4-(N,N-Dimethylaminomethylene)-2-(2-nitrophenyl)oxazol-5(4H)-one
;
_chemical_melting_point 423
_cell_volume    615.302
_exptl_crystal_colour 'lustrous light orange'
_exptl_crystal_density_diffrn 1.41
_exptl_crystal_description 'rectangular'
_exptl_crystal_preparation 'methanol'
_diffrn_ambient_temperature ?
_diffrn_special_details
;
The study was carried out at room temperature,in the range 283-303K

;
#These two values have been output from a single CSD field.
_refine_ls_R_factor_gt 0.041
_refine_ls_wR_factor_gt 0.041
_symmetry_cell_setting triclinic
_symmetry_space_group_name_H-M 'P -1'
_symmetry_Int_Tables_number 2
loop_
_symmetry_equiv_pos_site_id
_symmetry_equiv_pos_as_xyz
1 x,y,z
2 -x,-y,-z
_cell_length_a 8.049(2)
_cell_length_b 12.756(2)
_cell_length_c 6.209(2)
_cell_angle_alpha 98.82(2)
_cell_angle_beta 100.94(3)
_cell_angle_gamma 93.99(2)
_cell_formula_units_Z 2
loop_
_atom_type_symbol
_atom_type_radius_bond
C 0.68
H 0.23
N 0.68
O 0.68
loop_
_atom_site_label
_atom_site_type_symbol
_atom_site_fract_x
_atom_site_fract_y
_atom_site_fract_z
O1 O 0.7439(2) 0.93321(9) 0.3732(2)
N1 N 0.8469(2) 0.77464(11) 0.3910(2)
O2 O 0.8635(2) 1.02710(11) 0.7164(2)
C1 C 0.7529(2) 0.83080(13) 0.2723(3)
N2 N 0.6789(2) 0.60519(12) 0.0591(2)
N3 N 1.0705(2) 0.72904(12) 0.8229(2)
C2 C 0.6255(2) 0.69203(14) -0.0610(3)
C3 C 0.6548(2) 0.79776(14) 0.0453(3)
C4 C 0.5881(2) 0.8737(2) -0.0776(3)
H1 H 0.6061(2) 0.9454(2) -0.0136(3)
C5 C 0.8478(2) 0.94384(14) 0.5877(3)
C6 C 0.9104(2) 0.84192(13) 0.5943(3)
C7 C 1.0102(2) 0.81910(14) 0.7851(3)
H2 H 1.0387(2) 0.87558(14) 0.9038(3)
C8 C 0.5397(2) 0.6617(2) -0.2792(3)
H3 H 0.5271(2) 0.5906(2) -0.3474(3)
C9 C 1.1701(3) 0.7215(2) 1.0428(3)
H4 H 1.2793(10) 0.6991(15) 1.0275(5)
H5 H 1.1111(12) 0.6706(12) 1.1078(14)
H6 H 1.1852(22) 0.7900(4) 1.1370(11)
C10 C 1.0396(3) 0.6321(2) 0.6565(3)
H7 H 1.0956(20) 0.5762(4) 0.7183(11)
H8 H 1.0835(21) 0.6452(4) 0.5287(13)
H9 H 0.9196(3) 0.6111(8) 0.6131(22)
C11 C 0.4729(3) 0.7390(2) -0.3946(3)
H10 H 0.4130(3) 0.7198(2) -0.5407(3)
C12 C 0.4952(3) 0.8436(2) -0.2935(3)
H11 H 0.4477(3) 0.8950(2) -0.3703(3)
O3 O 0.7924(2) 0.55642(14) 0.0048(3)
O4 O 0.6004(2) 0.58408(12) 0.1996(2)
#END
