
#######################################################################
#
#                 Cambridge Crystallographic Data Centre
#                                CCDC
#
#######################################################################
#
# If this CIF has been generated from an entry in the Cambridge
# Structural Database, then it will include bibliographic, chemical,
# crystal, experimental, refinement or atomic coordinate data resulting
# from the CCDC's data processing and validation procedures.
#
#######################################################################

data_CSD_CIF_PUWQUT
_audit_creation_date 2002-10-14
_audit_creation_method CSD-ConQuest-V1
_database_code_CSD PUWQUT
_chemical_formula_sum 'C24 H40 N2 O5'
_chemical_formula_moiety
;
C24 H40 N2 O5
;
_journal_coden_Cambridge 35
_journal_volume 66
_journal_year 2001
_journal_page_first 7420
_journal_name_full 'J.Org.Chem. '
loop_
_publ_author_name
"A.D.Allen"
"J.Porter"
"D.Tahmassebi"
"T.T.Tidwell"
_chemical_name_systematic
;
4-Hydroxy-2-((2,2,6,6-tetramethylpiperidin-1-yl)oxy)-4-(((2,2,6,6-tetramethylp
iperidin-1-yl)oxy)carbonyl)cyclopent-2-en-1-one
;
_chemical_melting_point 407.15
_cell_volume   2459.531
_exptl_crystal_colour 'orange'
_exptl_crystal_density_diffrn 1.179
_exptl_special_details
;
Melts with decomposition.

;
_exptl_crystal_preparation 'pentane/ether'
_diffrn_ambient_temperature 150
#These two values have been output from a single CSD field.
_refine_ls_R_factor_gt 0.0803
_refine_ls_wR_factor_gt 0.0803
_symmetry_cell_setting orthorhombic
_symmetry_space_group_name_H-M 'P c a 21'
_symmetry_Int_Tables_number 29
loop_
_symmetry_equiv_pos_site_id
_symmetry_equiv_pos_as_xyz
1 x,y,z
2 -x,-y,1/2+z
3 1/2-x,y,1/2+z
4 1/2+x,-y,z
_cell_length_a 11.5246(4)
_cell_length_b 19.7882(4)
_cell_length_c 10.7850(7)
_cell_angle_alpha 90
_cell_angle_beta 90
_cell_angle_gamma 90
_cell_formula_units_Z 4
loop_
_atom_type_symbol
_atom_type_radius_bond
C 0.68
H 0.23
N 0.68
O 0.68
loop_
_atom_site_label
_atom_site_type_symbol
_atom_site_fract_x
_atom_site_fract_y
_atom_site_fract_z
O1 O -0.0516(4) 0.1528(2) 0.5394(5)
O2 O -0.0018(3) 0.2913(2) 0.5111(4)
O3 O 0.3009(3) 0.1703(2) 0.3310(3)
O4 O 0.2294(3) 0.1789(2) 0.0998(3)
O5 O 0.0454(3) 0.1557(2) 0.1590(3)
N1 N 0.0313(4) 0.3597(2) 0.4802(4)
N2 N 0.0153(3) 0.1483(2) 0.0270(4)
C1 C 0.0237(5) 0.1718(3) 0.4720(5)
C2 C 0.0557(4) 0.2436(3) 0.4458(5)
C3 C 0.1385(4) 0.2472(2) 0.3600(5)
C4 C 0.1786(4) 0.1780(2) 0.3193(5)
C5 C 0.1071(4) 0.1286(2) 0.3983(4)
C6 C -0.0739(5) 0.3946(3) 0.4330(7)
C7 C -0.0400(6) 0.4683(3) 0.4121(7)
C8 C 0.0100(5) 0.5024(3) 0.5233(6)
C9 C 0.1156(6) 0.4623(3) 0.5660(6)
C10 C 0.0900(6) 0.3882(3) 0.5944(6)
C11 C -0.1807(6) 0.3889(4) 0.5191(13)
C12 C -0.0990(8) 0.3612(4) 0.3084(10)
C13 C 0.0212(11) 0.3807(3) 0.7134(6)
C14 C 0.2068(8) 0.3502(4) 0.6058(10)
C15 C 0.1582(4) 0.1705(2) 0.1784(5)
C16 C -0.0188(4) 0.0766(2) 0.0095(5)
C17 C -0.0584(5) 0.0709(3) -0.1272(5)
C18 C -0.1517(5) 0.1221(3) -0.1618(6)
C19 C -0.1063(5) 0.1936(3) -0.1363(5)
C20 C -0.0680(4) 0.2045(3) -0.0008(5)
C21 C 0.0893(4) 0.0333(2) 0.0276(5)
C22 C -0.1137(4) 0.0505(3) 0.0987(6)
C23 C -0.1737(5) 0.2074(3) 0.0874(6)
C24 C 0.0010(4) 0.2702(2) 0.0068(5)
H1 H 0.311(5) 0.169(3) 0.4081(9)
H2 H 0.16880 0.28840 0.32820
H3 H 0.06430 0.09650 0.34470
H4 H 0.15830 0.10250 0.45450
H5 H 0.01740 0.47040 0.34390
H6 H -0.10960 0.49360 0.38510
H7 H -0.04840 0.50430 0.59050
H8 H 0.03310 0.54920 0.50230
H9 H 0.14770 0.48380 0.64140
H10 H 0.17580 0.46450 0.50070
H11 H -0.18000 0.42630 0.57880
H12 H -0.17810 0.34580 0.56370
H13 H -0.25180 0.39110 0.46930
H14 H -0.02920 0.36280 0.25660
H15 H -0.16220 0.38540 0.26680
H16 H -0.12170 0.31400 0.32180
H17 H -0.04030 0.41480 0.71580
H18 H 0.07300 0.38680 0.78460
H19 H -0.01340 0.33550 0.71670
H20 H 0.19220 0.30310 0.62910
H21 H 0.25470 0.37190 0.66940
H22 H 0.24750 0.35160 0.52600
H23 H 0.00960 0.07750 -0.18190
H24 H -0.08870 0.02480 -0.14200
H25 H -0.22260 0.11370 -0.11230
H26 H -0.17170 0.11740 -0.25060
H27 H -0.16800 0.22660 -0.15670
H28 H -0.03960 0.20270 -0.19170
H29 H 0.11830 0.03890 0.11230
H30 H 0.14930 0.04740 -0.03150
H31 H 0.06990 -0.01430 0.01320
H32 H -0.09360 0.06280 0.18400
H33 H -0.11930 0.00120 0.09190
H34 H -0.18840 0.07080 0.07660
H35 H -0.14810 0.19910 0.17270
H36 H -0.23010 0.17280 0.06320
H37 H -0.21000 0.25210 0.08210
H38 H 0.07130 0.26620 -0.04400
H39 H 0.02280 0.27880 0.09320
H40 H -0.04660 0.30760 -0.02400
#END
