
#######################################################################
#
#                 Cambridge Crystallographic Data Centre
#                                CCDC
#
#######################################################################
#
# If this CIF has been generated from an entry in the Cambridge
# Structural Database, then it will include bibliographic, chemical,
# crystal, experimental, refinement or atomic coordinate data resulting
# from the CCDC's data processing and validation procedures.
#
#######################################################################

data_CSD_CIF_PUWRAA
_audit_creation_date 2002-10-14
_audit_creation_method CSD-ConQuest-V1
_database_code_CSD PUWRAA
_chemical_formula_sum 'C46 H52 N2 O4'
_chemical_formula_moiety
;
C46 H52 N2 O4
;
_journal_coden_Cambridge 35
_journal_volume 66
_journal_year 2001
_journal_page_first 7420
_journal_name_full 'J.Org.Chem. '
loop_
_publ_author_name
"A.D.Allen"
"J.Porter"
"D.Tahmassebi"
"T.T.Tidwell"
_chemical_name_systematic
;
9,9'-bis(((2,2,6,6-Tetramethylpiperidin-1-yl)oxy)carbonyl)-9,9'-bifluorenyl
;
_cell_volume   7914.421
_exptl_crystal_density_diffrn 1.17
_diffrn_ambient_temperature 105
#These two values have been output from a single CSD field.
_refine_ls_R_factor_gt 0.0542
_refine_ls_wR_factor_gt 0.0542
_symmetry_cell_setting monoclinic
_symmetry_space_group_name_H-M 'P 21/n'
_symmetry_Int_Tables_number 14
loop_
_symmetry_equiv_pos_site_id
_symmetry_equiv_pos_as_xyz
1 x,y,z
2 1/2-x,1/2+y,1/2-z
3 -x,-y,-z
4 -1/2+x,-1/2-y,-1/2+z
_cell_length_a 17.7299(3)
_cell_length_b 25.5761(6)
_cell_length_c 18.7487(3)
_cell_angle_alpha 90
_cell_angle_beta 111.423(1)
_cell_angle_gamma 90
_cell_formula_units_Z 8
loop_
_atom_type_symbol
_atom_type_radius_bond
C 0.68
H 0.23
N 0.68
O 0.68
loop_
_atom_site_label
_atom_site_type_symbol
_atom_site_fract_x
_atom_site_fract_y
_atom_site_fract_z
O1 O 0.1167(1) 0.4147(1) 0.5295(1)
O2 O 0.2019(1) 0.4114(1) 0.6541(1)
O3 O 0.1689(1) 0.2936(1) 0.5889(1)
O4 O 0.0660(1) 0.2342(1) 0.5582(1)
N1 N 0.2528(1) 0.4519(1) 0.6392(1)
N2 N 0.1232(1) 0.1938(1) 0.5542(1)
C1 C 0.0738(1) 0.3719(1) 0.6247(1)
C2 C 0.1117(1) 0.3621(1) 0.7113(1)
C3 C 0.1788(1) 0.3324(1) 0.7529(1)
C4 C 0.2014(1) 0.3294(1) 0.8319(1)
C5 C 0.1585(1) 0.3564(1) 0.8692(1)
C6 C 0.0926(1) 0.3868(1) 0.8283(1)
C7 C 0.0685(1) 0.3892(1) 0.7489(1)
C8 C 0.0013(1) 0.4176(1) 0.6921(1)
C9 C -0.0592(1) 0.4489(1) 0.7006(1)
C10 C -0.1130(1) 0.4737(1) 0.6369(1)
C11 C -0.1067(1) 0.4687(1) 0.5657(1)
C12 C -0.0473(1) 0.4367(1) 0.5564(1)
C13 C 0.0055(1) 0.4105(1) 0.6197(1)
C14 C 0.0343(1) 0.3202(1) 0.5801(1)
C15 C -0.0219(1) 0.3272(1) 0.4959(1)
C16 C -0.0011(1) 0.3412(1) 0.4341(1)
C17 C -0.0614(1) 0.3416(1) 0.3614(1)
C18 C -0.1400(1) 0.3279(1) 0.3513(1)
C19 C -0.1606(1) 0.3123(1) 0.4124(1)
C20 C -0.1006(1) 0.3114(1) 0.4854(1)
C21 C -0.1025(1) 0.2925(1) 0.5586(1)
C22 C -0.1657(1) 0.2709(1) 0.5758(1)
C23 C -0.1498(1) 0.2518(1) 0.6490(1)
C24 C -0.0727(1) 0.2542(1) 0.7041(1)
C25 C -0.0092(1) 0.2759(1) 0.6874(1)
C26 C -0.0242(1) 0.2955(1) 0.6144(1)
C27 C 0.1323(1) 0.4007(1) 0.5942(1)
C28 C 0.2553(1) 0.4944(1) 0.6950(1)
C29 C 0.3130(1) 0.5360(1) 0.6847(1)
C30 C 0.3958(1) 0.5141(1) 0.6942(1)
C31 C 0.3859(1) 0.4697(1) 0.6375(1)
C32 C 0.3302(1) 0.4257(1) 0.6447(1)
C33 C 0.1698(1) 0.5176(1) 0.6686(1)
C34 C 0.2799(1) 0.4773(1) 0.7791(1)
C35 C 0.3092(1) 0.3901(1) 0.5745(1)
C36 C 0.3723(1) 0.3931(1) 0.7170(1)
C37 C 0.1004(1) 0.2820(1) 0.5782(1)
C38 C 0.0944(1) 0.1759(1) 0.4731(1)
C39 C 0.1530(2) 0.1317(1) 0.4722(1)
C40 C 0.1608(2) 0.0890(1) 0.5309(2)
C41 C 0.1860(2) 0.1130(1) 0.6100(2)
C42 C 0.1280(1) 0.1559(1) 0.6160(1)
C43 C 0.0052(1) 0.1581(1) 0.4376(1)
C44 C 0.1056(1) 0.2218(1) 0.4256(1)
C45 C 0.0470(1) 0.1330(1) 0.6143(1)
C46 C 0.1669(1) 0.1849(1) 0.6917(1)
O5 O 0.1109(1) 0.4082(1) 0.0221(1)
O6 O 0.1993(1) 0.4103(1) 0.1456(1)
O7 O 0.1647(1) 0.2898(1) 0.0762(1)
O8 O 0.0628(1) 0.2300(1) 0.0492(1)
N3 N 0.2465(1) 0.4511(1) 0.1257(1)
N4 N 0.1174(1) 0.1904(1) 0.0377(1)
C47 C 0.0763(1) 0.3661(1) 0.1236(1)
C48 C 0.1221(1) 0.3558(1) 0.2091(1)
C49 C 0.1901(1) 0.3254(1) 0.2452(1)
C50 C 0.2213(1) 0.3224(1) 0.3246(1)
C51 C 0.1860(1) 0.3501(1) 0.3679(1)
C52 C 0.1191(1) 0.3813(1) 0.3327(1)
C53 C 0.0864(1) 0.3835(1) 0.2530(1)
C54 C 0.0165(1) 0.4130(1) 0.2012(1)
C55 C -0.0382(1) 0.4457(1) 0.2169(1)
C56 C -0.0959(1) 0.4715(1) 0.1565(1)
C57 C -0.0990(1) 0.4656(1) 0.0819(1)
C58 C -0.0456(1) 0.4319(1) 0.0657(1)
C59 C 0.0113(1) 0.4052(1) 0.1257(1)
C60 C 0.0340(1) 0.3149(1) 0.0796(1)
C61 C -0.0295(1) 0.3225(1) -0.0018(1)
C62 C -0.0175(1) 0.3374(1) -0.0678(1)
C63 C -0.0833(1) 0.3369(1) -0.1371(1)
C64 C -0.1590(1) 0.3212(1) -0.1400(1)
C65 C -0.1710(1) 0.3054(1) -0.0743(1)
C66 C -0.1058(1) 0.3058(1) -0.0050(1)
C67 C -0.0998(1) 0.2870(1) 0.0701(4)
C68 C -0.1588(1) 0.2665(1) 0.0948(1)
C69 C -0.1365(1) 0.2477(1) 0.1690(1)
C70 C -0.0562(1) 0.2491(1) 0.2177(1)
C71 C 0.0035(1) 0.2696(1) 0.1941(1)
C72 C -0.0185(1) 0.2894(1) 0.1203(1)
C73 C 0.1297(1) 0.3960(1) 0.0878(1)
C74 C 0.2455(1) 0.4960(1) 0.1766(1)
C75 C 0.3009(1) 0.5380(1) 0.1627(1)
C76 C 0.3852(1) 0.5176(1) 0.1751(1)
C77 C 0.3784(1) 0.4713(1) 0.1224(1)
C78 C 0.3258(1) 0.4266(1) 0.1337(1)
C79 C 0.1586(1) 0.5166(1) 0.1473(1)
C80 C 0.2708(1) 0.4834(1) 0.2623(1)
C81 C 0.3077(1) 0.3883(1) 0.0669(1)
C82 C 0.3701(1) 0.3973(1) 0.2087(1)
C83 C 0.0972(1) 0.2777(1) 0.0701(1)
C84 C 0.0836(1) 0.1765(1) -0.0455(1)
C85 C 0.1381(1) 0.1321(1) -0.0544(1)
C86 C 0.1458(2) 0.0863(1) -0.0006(1)
C87 C 0.1767(1) 0.1059(1) 0.0814(1)
C88 C 0.1239(1) 0.1492(1) 0.0962(1)
C89 C -0.0063(1) 0.1613(1) -0.0786(1)
C90 C 0.0959(1) 0.2239(1) -0.0894(1)
C91 C 0.0440(1) 0.1274(1) 0.0976(1)
C92 C 0.1704(1) 0.1737(1) 0.1739(1)
H1 H 0.20890 0.31430 0.72780
H2 H 0.24660 0.30860 0.86090
H3 H 0.17470 0.35400 0.92330
H4 H 0.06400 0.40580 0.85390
H5 H -0.06350 0.45300 0.74940
H6 H -0.15510 0.49460 0.64190
H7 H -0.14290 0.48730 0.52300
H8 H -0.04320 0.43280 0.50750
H9 H 0.05310 0.35030 0.44120
H10 H -0.04840 0.35130 0.31830
H11 H -0.18070 0.32930 0.30150
H12 H -0.21460 0.30220 0.40480
H13 H -0.21880 0.26920 0.53810
H14 H -0.19250 0.23690 0.66150
H15 H -0.06300 0.24090 0.75390
H16 H 0.04380 0.27730 0.72550
H17 H 0.28830 0.55170 0.63310
H18 H 0.31980 0.56420 0.72280
H19 H 0.42300 0.50100 0.74710
H20 H 0.42990 0.54200 0.68500
H21 H 0.43990 0.45480 0.64530
H22 H 0.36350 0.48400 0.58480
H23 H 0.15040 0.52420 0.61330
H24 H 0.17100 0.55050 0.69570
H25 H 0.13330 0.49280 0.67970
H26 H 0.33840 0.47090 0.80080
H27 H 0.25100 0.44510 0.78180
H28 H 0.26600 0.50490 0.80830
H29 H 0.27900 0.41010 0.52830
H30 H 0.27590 0.36090 0.57970
H31 H 0.35920 0.37660 0.57050
H32 H 0.33210 0.37130 0.72760
H33 H 0.39820 0.41650 0.76060
H34 H 0.41340 0.37070 0.70910
H35 H 0.13410 0.11580 0.42050
H36 H 0.20720 0.14690 0.48210
H37 H 0.10820 0.07080 0.51740
H38 H 0.20160 0.06300 0.52970
H39 H 0.24090 0.12800 0.62380
H40 H 0.18880 0.08510 0.64750
H41 H -0.02930 0.18360 0.45010
H42 H -0.00070 0.12380 0.45840
H43 H -0.01090 0.15560 0.38190
H44 H 0.06260 0.24760 0.41870
H45 H 0.10280 0.20910 0.37530
H46 H 0.15850 0.23810 0.45220
H47 H 0.02710 0.10740 0.57270
H48 H 0.00720 0.16120 0.60570
H49 H 0.05510 0.11590 0.66330
H50 H 0.21590 0.20280 0.69210
H51 H 0.18130 0.15990 0.73420
H52 H 0.12860 0.21060 0.69750
H53 H 0.21510 0.30680 0.21580
H54 H 0.26760 0.30110 0.34960
H55 H 0.20800 0.34750 0.42220
H56 H 0.09570 0.40100 0.36240
H57 H -0.03610 0.45020 0.26790
H58 H -0.13400 0.49370 0.16630
H59 H -0.13790 0.48460 0.04160
H60 H -0.04810 0.42730 0.01460
H61 H 0.03470 0.34770 -0.06590
H62 H -0.07600 0.34750 -0.18280
H63 H -0.20330 0.32120 -0.18770
H64 H -0.22310 0.29450 -0.07670
H65 H -0.21390 0.26530 0.06110
H66 H -0.17640 0.23390 0.18640
H67 H -0.04160 0.23580 0.26830
H68 H 0.05850 0.27020 0.22800
H69 H 0.27570 0.55110 0.10950
H70 H 0.30530 0.56770 0.19780
H71 H 0.41250 0.50670 0.22920
H72 H 0.41790 0.54560 0.16400
H73 H 0.43340 0.45770 0.13150
H74 H 0.35500 0.48340 0.06860
H75 H 0.12410 0.49240 0.16240
H76 H 0.13850 0.51940 0.09140
H77 H 0.15740 0.55110 0.16950
H78 H 0.32960 0.47840 0.28460
H79 H 0.24370 0.45130 0.26860
H80 H 0.25530 0.51240 0.28830
H81 H 0.27550 0.35910 0.07410
H82 H 0.35860 0.37500 0.06480
H83 H 0.27720 0.40630 0.01880
H84 H 0.39410 0.42260 0.25010
H85 H 0.41300 0.37560 0.20280
H86 H 0.33160 0.37500 0.22110
H87 H 0.11590 0.11920 -0.10790
H88 H 0.19280 0.14640 -0.04510
H89 H 0.09240 0.06930 -0.01280
H90 H 0.18380 0.06010 -0.00720
H91 H 0.23250 0.11940 0.09430
H92 H 0.17940 0.07610 0.11590
H93 H -0.01320 0.12660 -0.05950
H94 H -0.02500 0.16050 -0.13460
H95 H -0.03800 0.18700 -0.06270
H96 H 0.15140 0.23690 -0.06490
H97 H 0.05760 0.25150 -0.08920
H98 H 0.08660 0.21380 -0.14240
H99 H 0.00670 0.15640 0.09470
H100 H 0.05430 0.10790 0.14520
H101 H 0.01970 0.10410 0.05370
H102 H 0.13640 0.20010 0.18540
H103 H 0.21980 0.19030 0.17280
H104 H 0.18480 0.14660 0.21350
#END
