
#######################################################################
#
#                 Cambridge Crystallographic Data Centre
#                                CCDC
#
#######################################################################
#
# If this CIF has been generated from an entry in the Cambridge
# Structural Database, then it will include bibliographic, chemical,
# crystal, experimental, refinement or atomic coordinate data resulting
# from the CCDC's data processing and validation procedures.
#
#######################################################################

data_CSD_CIF_PUYROQ
_audit_creation_date 2002-10-14
_audit_creation_method CSD-ConQuest-V1
_database_code_CSD PUYROQ
_database_code_depnum_ccdc_archive 'CCDC 189314'
_chemical_formula_sum 'C4 H7 N1 O2'
_chemical_formula_moiety
;
C4 H7 N1 O2
;
_journal_coeditor_code "IUCr CF6174"
_journal_coden_Cambridge 1370
_journal_volume 58
_journal_year 2002
_journal_page_first o603
_journal_name_full 'Acta Crystallogr.,Sect.E:Struct.Rep.Online '
loop_
_publ_author_name
"P.J.Cox"
"N.M.Foote"
_chemical_name_systematic
;
(2E)-Butane-2,3-dione oxime
;
_chemical_name_common
;
Diacetyl monoxime
;
_cell_volume   1566.736
_exptl_crystal_colour 'colorless'
_exptl_crystal_density_diffrn 1.286
_exptl_special_details
;
affects a number of biological mechanisms, including muscle contraction, 
ionic current flow and synaptic transmission
;
_exptl_crystal_description 'block'
_exptl_crystal_preparation 'ethanol'
_diffrn_ambient_temperature 120
#These two values have been output from a single CSD field.
_refine_ls_R_factor_gt 0.0671
_refine_ls_wR_factor_gt 0.0671
_symmetry_cell_setting monoclinic
_symmetry_space_group_name_H-M 'P 21/n'
_symmetry_Int_Tables_number 14
loop_
_symmetry_equiv_pos_site_id
_symmetry_equiv_pos_as_xyz
1 x,y,z
2 1/2+x,1/2-y,1/2+z
3 -x,-y,-z
4 -1/2-x,-1/2+y,-1/2-z
_cell_length_a 11.5354(7)
_cell_length_b 12.7225(12)
_cell_length_c 11.8884(10)
_cell_angle_alpha 90
_cell_angle_beta 116.106(3)
_cell_angle_gamma 90
_cell_formula_units_Z 12
loop_
_atom_type_symbol
_atom_type_radius_bond
C 0.68
H 0.23
N 0.68
O 0.68
loop_
_atom_site_label
_atom_site_type_symbol
_atom_site_fract_x
_atom_site_fract_y
_atom_site_fract_z
O1 O 0.4844(2) 0.1259(2) -0.1256(2)
H1 H 0.54390 0.12900 -0.14800
O2 O 0.4289(2) 0.11559(19) 0.2320(2)
N1 N 0.5374(3) 0.1276(2) 0.0047(2)
C1 C 0.3082(3) 0.1188(3) -0.0316(3)
H2 H 0.28820 0.11760 -0.12070
H3 H 0.26810 0.18060 -0.01420
H4 H 0.27450 0.05490 -0.01040
C2 C 0.4511(3) 0.1239(3) 0.0453(3)
C3 C 0.5034(3) 0.1226(3) 0.1836(3)
C4 C 0.6463(3) 0.1277(3) 0.2619(3)
H5 H 0.66520 0.13050 0.35070
H6 H 0.68060 0.19080 0.23990
H7 H 0.68690 0.06520 0.24650
O3 O 0.1740(2) 0.12470(19) 0.1799(2)
H8 H 0.24810 0.11650 0.18420
O4 O -0.0335(2) 0.11724(19) 0.4285(2)
N2 N 0.1817(3) 0.1221(2) 0.3001(2)
C5 C -0.0571(3) 0.1310(4) 0.1849(3)
H9 H -0.08760 0.05990 0.15450
H10 H -0.12020 0.16640 0.20630
H11 H -0.04680 0.17080 0.11930
C6 C 0.0691(3) 0.1245(3) 0.2981(3)
C7 C 0.0711(3) 0.1212(3) 0.4227(3)
C8 C 0.1965(3) 0.1228(3) 0.5375(3)
H12 H 0.18120 0.11220 0.61140
H13 H 0.25220 0.06660 0.53270
H14 H 0.23880 0.19090 0.54380
O5 O 0.4714(2) 0.36171(19) 0.1546(2)
H15 H 0.47130 0.36730 0.08420
O6 O 0.1988(2) 0.37064(19) 0.3370(2)
N3 N 0.3454(2) 0.3717(2) 0.1411(2)
C9 C 0.4509(4) 0.3447(3) 0.3707(3)
H16 H 0.52770 0.32660 0.35950
H17 H 0.46780 0.40850 0.42170
H18 H 0.43010 0.28670 0.41310
C10 C 0.3406(3) 0.3632(3) 0.2467(3)
C11 C 0.2094(3) 0.3763(3) 0.2389(3)
C12 C 0.0983(3) 0.3977(3) 0.1164(3)
H19 H 0.10530 0.46930 0.08950
H20 H 0.09860 0.34740 0.05410
H21 H 0.01770 0.39080 0.12450
#END
