
#######################################################################
#
#                 Cambridge Crystallographic Data Centre
#                                CCDC
#
#######################################################################
#
# If this CIF has been generated from an entry in the Cambridge
# Structural Database, then it will include bibliographic, chemical,
# crystal, experimental, refinement or atomic coordinate data resulting
# from the CCDC's data processing and validation procedures.
#
#######################################################################

data_CSD_CIF_PXAZBZ01
_audit_creation_date 1988-04-27
_audit_creation_method CSD-ConQuest-V1
_database_code_CSD PXAZBZ01
_chemical_formula_sum 'C22 H30 N2 O3'
_chemical_formula_moiety
;
C22 H30 N2 O3
;
_journal_coden_Cambridge 643
_journal_volume 172
_journal_year 1985
_journal_page_first 79
_journal_name_full 'Z.Krist.Cryst.Mater. '
loop_
_publ_author_name
"N.C.Shivaprakash"
"M.M.M.Abdoh"
"J.S.Prasad"
_chemical_name_systematic
;
4,4'-bis(Pentyloxy)azoxybenzene
;
_chemical_melting_point 396.2
_cell_volume   1048.568
_exptl_crystal_density_diffrn 1.323
_exptl_special_details
;
phase transition to mesophase at 341.5 K
dx reported as 1.323; we calculate 1.17
;
_diffrn_ambient_temperature ?
_diffrn_special_details
;
The study was carried out at room temperature,in the range 283-303K

;
#These two values have been output from a single CSD field.
_refine_ls_R_factor_gt 0.0427
_refine_ls_wR_factor_gt 0.0427
_symmetry_cell_setting triclinic
_symmetry_space_group_name_H-M 'P -1'
_symmetry_Int_Tables_number 2
loop_
_symmetry_equiv_pos_site_id
_symmetry_equiv_pos_as_xyz
1 x,y,z
2 -x,-y,-z
_cell_length_a 7.428(2)
_cell_length_b 8.267(1)
_cell_length_c 17.868(3)
_cell_angle_alpha 97.73(1)
_cell_angle_beta 98.66(2)
_cell_angle_gamma 101.25(2)
_cell_formula_units_Z 2
loop_
_atom_type_symbol
_atom_type_radius_bond
C 0.68
H 0.23
N 0.68
O 0.68
loop_
_atom_site_label
_atom_site_type_symbol
_atom_site_fract_x
_atom_site_fract_y
_atom_site_fract_z
C1 C 0.2138(6) 0.8974(5) 0.5157(3)
C2 C 0.2924(5) 0.7434(4) 0.5044(3)
C3 C 0.1845(5) 0.6116(3) 0.4385(2)
C4 C 0.2614(4) 0.4564(3) 0.4269(2)
C5 C 0.1544(4) 0.3316(3) 0.3584(2)
O1 O 0.2443(3) 0.1929(3) 0.3511(2)
C6 C 0.1649(4) 0.0603(3) 0.2939(2)
C7 C 0.2510(4) -0.0729(3) 0.2906(2)
C8 C 0.1797(4) -0.2148(3) 0.2363(2)
C9 C 0.0192(4) -0.2241(3) 0.1827(2)
C10 C -0.0624(4) -0.0884(3) 0.1851(2)
C11 C 0.0075(4) 0.0515(3) 0.2398(2)
N1 N -0.0779(5) -0.3571(4) 0.1211(2)
N2 N -0.0374(5) -0.4968(4) 0.1185(2)
O2 O 0.0826(5) -0.5442(2) 0.1643(2)
C12 C -0.1499(4) -0.6251(3) 0.0532(2)
C13 C -0.1203(4) -0.7842(3) 0.0487(2)
C14 C -0.2245(4) -0.9084(3) -0.0094(2)
C15 C -0.3594(4) -0.8749(3) -0.0635(2)
C16 C -0.3870(4) -0.7124(3) -0.0592(2)
C17 C -0.2826(4) -0.5883(3) -0.0009(2)
O3 O -0.4711(5) -0.9878(4) -0.1227(2)
C18 C -0.4385(4) -1.1545(4) -0.1355(2)
C19 C -0.5764(4) -1.2504(4) -0.2045(2)
C20 C -0.5561(4) -1.4279(4) -0.2279(2)
C21 C -0.6984(5) -1.5238(5) -0.2962(3)
C22 C -0.6764(7) -1.697(6) -0.3232(3)
H1 H 0.19980 0.95150 0.46930
H2 H 0.27350 0.96320 0.55980
H3 H 0.08290 0.87480 0.52410
H4 H 0.30060 0.70040 0.55430
H5 H 0.41470 0.77280 0.49970
H6 H 0.17240 0.65560 0.39320
H7 H 0.06060 0.58100 0.44530
H8 H 0.26280 0.39540 0.47370
H9 H 0.38540 0.48530 0.42210
H10 H 0.15110 0.38160 0.31140
H11 H 0.02760 0.28810 0.36430
H12 H 0.36020 -0.06260 0.32520
H13 H 0.24320 -0.28730 0.23800
H14 H -0.18060 -0.09640 0.14520
H15 H -0.07840 0.13400 0.24000
H16 H -0.02690 -0.80440 0.08710
H17 H -0.19820 -1.00820 -0.01080
H18 H -0.48270 -0.69400 -0.09810
H19 H -0.30790 -0.48650 0.00060
H20 H -0.44980 -1.20520 -0.08750
H21 H -0.30630 -1.14530 -0.14250
H22 H -0.57020 -1.19650 -0.24780
H23 H -0.70390 -1.20550 -0.19400
H24 H -0.56260 -1.48370 -0.18560
H25 H -0.43910 -1.43090 -0.23850
H26 H -0.69810 -1.46050 -0.33910
H27 H -0.82290 -1.52150 -0.28560
H28 H -0.56420 -1.69500 -0.34380
H29 H -0.67130 -1.75930 -0.28530
H30 H -0.76910 -1.74530 -0.36920
#END
