
#######################################################################
#
#                 Cambridge Crystallographic Data Centre
#                                CCDC
#
#######################################################################
#
# If this CIF has been generated from an entry in the Cambridge
# Structural Database, then it will include bibliographic, chemical,
# crystal, experimental, refinement or atomic coordinate data resulting
# from the CCDC's data processing and validation procedures.
#
#######################################################################

data_CSD_CIF_PXTZOP
_audit_creation_date 1975-08-29
_audit_creation_method CSD-ConQuest-V1
_database_code_CSD PXTZOP
_database_code_depnum_ccdc_archive 'CCDC 1240377'
_chemical_formula_sum 'C13 H10 N4 O1'
_chemical_formula_moiety
;
C13 H10 N4 O1
;
_journal_coden_Cambridge 305
_journal_volume 29
_journal_year 1975
_journal_page_first 45
_journal_name_full 'Acta Chem.Scand.A '
loop_
_publ_author_name
"T.Ottersen"
"C.Christophersen"
"S.Treppendahl"
_chemical_name_systematic
;
N-(3-Phenyl-5-(1,2,3,4-oxatriazolio))phenylamide
;
_cell_volume   1105.352
_exptl_crystal_density_diffrn 1.431
_diffrn_ambient_temperature 105
#These two values have been output from a single CSD field.
_refine_ls_R_factor_gt 0.047
_refine_ls_wR_factor_gt 0.047
_symmetry_cell_setting monoclinic
_symmetry_space_group_name_H-M 'P 21/c'
_symmetry_Int_Tables_number 14
loop_
_symmetry_equiv_pos_site_id
_symmetry_equiv_pos_as_xyz
1 x,y,z
2 -x,1/2+y,1/2-z
3 -x,-y,-z
4 x,-1/2-y,-1/2+z
_cell_length_a 5.233(2)
_cell_length_b 18.846(6)
_cell_length_c 11.643(2)
_cell_angle_alpha 90
_cell_angle_beta 105.71(2)
_cell_angle_gamma 90
_cell_formula_units_Z 4
loop_
_atom_type_symbol
_atom_type_radius_bond
C 0.68
H 0.23
N 0.68
O 0.68
loop_
_atom_site_label
_atom_site_type_symbol
_atom_site_fract_x
_atom_site_fract_y
_atom_site_fract_z
C1 C 0.14545 -0.23422 -0.02978
C2 C 0.09822 -0.23385 -0.15374
C3 C -0.11582 -0.19681 -0.22526
C4 C -1.19048 0.03906 -0.28346
C5 C -1.32013 0.06844 -0.20467
C6 C -1.53141 0.11445 -0.25102
C7 C -1.61185 0.12943 -0.37338
C8 C -1.47805 0.09906 -0.44983
C9 C -1.26419 0.05344 -0.40494
C10 C -0.65854 -0.08039 -0.22821
C11 C -0.28854 -0.15812 -0.17368
C12 C -0.23858 -0.15815 -0.04873
C13 C -0.02340 -0.19622 0.02138
H1 H -0.35700 -0.13200 -0.01300
H2 H 0.01200 -0.19500 0.10500
H3 H 0.29000 -0.25900 0.01800
H4 H 0.21800 -0.25800 -0.19000
H5 H -0.15700 -0.19800 -0.31000
H6 H -1.25400 0.05800 -0.12300
H7 H -1.61400 0.13600 -0.20100
H8 H -1.76200 0.16000 -0.40200
H9 H -1.53300 0.10900 -0.53300
H10 H -1.16300 0.03300 -0.45600
N1 N -0.86530 -0.01139 -0.12263
N2 N -0.96967 -0.00775 -0.23737
N3 N -0.86370 -0.04605 -0.30726
N4 N -0.49536 -0.12273 -0.25560
O1 O -0.66183 -0.05917 -0.11203
#END
