
#######################################################################
#
#                 Cambridge Crystallographic Data Centre
#                                CCDC
#
#######################################################################
#
# If this CIF has been generated from an entry in the Cambridge
# Structural Database, then it will include bibliographic, chemical,
# crystal, experimental, refinement or atomic coordinate data resulting
# from the CCDC's data processing and validation procedures.
#
#######################################################################

data_CSD_CIF_PYBZNO10
_audit_creation_date 1975-07-10
_audit_creation_method CSD-ConQuest-V1
_database_code_CSD PYBZNO10
_chemical_formula_sum 'C18 H32 N2 O3'
_chemical_formula_moiety
;
C18 H32 N2 O3
;
_journal_coeditor_code "IUCr A11969"
_journal_coden_Cambridge 107
_journal_volume 31
_journal_year 1975
_journal_page_first 589
_journal_name_full 'Acta Crystallogr.,Sect.B:Struct.Crystallogr.Cryst.Chem. '
loop_
_publ_author_name
"J.Murray-Rust"
"P.Murray-Rust"
_chemical_name_systematic
;
5,8-Di-t-butyl-3,3-dimethyl-9-isopropylidene-5,8-diaza-4,7-dioxabicyclo(4.2.1)
nonan-2-one
;
_cell_volume   1980.557
_exptl_crystal_density_diffrn 1.09
_diffrn_ambient_temperature ?
_diffrn_special_details
;
The study was carried out at room temperature,in the range 283-303K

;
#These two values have been output from a single CSD field.
_refine_ls_R_factor_gt 0.051
_refine_ls_wR_factor_gt 0.051
_symmetry_cell_setting orthorhombic
_symmetry_space_group_name_H-M 'P n a 21'
_symmetry_Int_Tables_number 33
loop_
_symmetry_equiv_pos_site_id
_symmetry_equiv_pos_as_xyz
1 x,y,z
2 1/2-x,1/2+y,1/2+z
3 1/2+x,1/2-y,z
4 -x,-y,1/2+z
_cell_length_a 18.13(2)
_cell_length_b 11.56(2)
_cell_length_c 9.45(2)
_cell_angle_alpha 90
_cell_angle_beta 90
_cell_angle_gamma 90
_cell_formula_units_Z 4
loop_
_atom_type_symbol
_atom_type_radius_bond
C 0.68
H 0.23
N 0.68
O 0.68
loop_
_atom_site_label
_atom_site_type_symbol
_atom_site_fract_x
_atom_site_fract_y
_atom_site_fract_z
C1 C 0.21860 0.02730 0.01090
C2 C 0.14010 0.22190 0.16390
C3 C 0.39410 -0.04150 0.12710
C4 C 0.42690 -0.10690 0.25660
C5 C 0.43520 -0.08110 -0.00710
C6 C 0.40020 0.09290 0.14900
C7 C 0.13070 -0.05520 -0.16600
C8 C 0.18910 -0.11010 -0.26570
C9 C 0.05970 -0.12830 -0.16550
C10 C 0.11070 0.06880 -0.21520
C11 C 0.21980 0.04960 0.16840
C12 C 0.26660 -0.04740 0.22870
C13 C 0.21900 -0.15010 0.26790
C14 C 0.15770 -0.19240 0.16990
C15 C 0.15720 -0.32720 0.16960
C16 C 0.08190 -0.14700 0.21940
C17 C 0.18500 0.13100 0.23900
C18 C 0.18520 0.13860 0.39820
H1 H 0.21940 0.10780 -0.03480
H2 H 0.21030 0.21890 0.43500
H3 H 0.22130 0.07480 0.42130
H4 H 0.16110 0.30250 0.19330
H5 H 0.09200 0.20220 0.16390
H6 H 0.16380 0.22700 0.04750
H7 H 0.41270 -0.06490 0.36370
H8 H 0.48470 -0.06850 0.26950
H9 H 0.41610 -0.20440 0.22140
H10 H 0.49250 -0.05450 0.00320
H11 H 0.42170 -0.02970 -0.08350
H12 H 0.28650 -0.01990 0.31070
H13 H 0.43620 -0.17490 0.00130
H14 H 0.37500 0.13410 0.06830
H15 H 0.45980 0.11660 0.13660
H16 H 0.37470 0.11780 0.25020
H17 H 0.20910 -0.20000 -0.23100
H18 H 0.17540 -0.11290 -0.36310
H19 H 0.24270 -0.04030 -0.24270
H20 H 0.07110 -0.21430 -0.14080
H21 H 0.01250 -0.06670 -0.09870
H22 H 0.03340 -0.12590 -0.25760
H23 H 0.11970 -0.36490 0.12100
H24 H 0.15550 0.10370 -0.22950
H25 H 0.07220 0.11890 -0.15640
H26 H 0.07790 0.05840 -0.30770
H27 H 0.21380 -0.35110 0.12790
H28 H 0.16020 -0.33880 0.26780
H29 H 0.06710 -0.17590 0.31940
H30 H 0.08180 -0.04950 0.22590
H31 H 0.04060 -0.16860 0.15710
H32 H 0.13710 0.13530 0.43920
N1 N 0.31610 -0.08440 0.11060
N2 N 0.15420 -0.04710 -0.01720
O1 O 0.28740 -0.02680 -0.01820
O2 O 0.17450 -0.16340 0.02530
O3 O 0.22700 -0.19490 0.38220
#END
