
#######################################################################
#
#                 Cambridge Crystallographic Data Centre
#                                CCDC
#
#######################################################################
#
# If this CIF has been generated from an entry in the Cambridge
# Structural Database, then it will include bibliographic, chemical,
# crystal, experimental, refinement or atomic coordinate data resulting
# from the CCDC's data processing and validation procedures.
#
#######################################################################

data_CSD_CIF_PYCALN
_audit_creation_date 1975-10-10
_audit_creation_method CSD-ConQuest-V1
_database_code_CSD PYCALN
_chemical_formula_sum 'C35 H46 N2 O6'
_chemical_formula_moiety
;
C35 H46 N2 O6
;
_journal_coeditor_code "IUCr A12204"
_journal_coden_Cambridge 107
_journal_volume 31
_journal_year 1975
_journal_page_first 1535
_journal_name_full 'Acta Crystallogr.,Sect.B:Struct.Crystallogr.Cryst.Chem. '
loop_
_publ_author_name
"A.J.de Kok"
"C.Romers"
_chemical_name_systematic
;
Pyrocalciferyl 3,5-nitrobenzoate
;
_cell_volume   1591.916
_diffrn_ambient_temperature 103.15
#These two values have been output from a single CSD field.
_refine_ls_R_factor_gt 0.0639
_refine_ls_wR_factor_gt 0.0639
_symmetry_cell_setting monoclinic
_symmetry_space_group_name_H-M 'P 21'
_symmetry_Int_Tables_number 4
loop_
_symmetry_equiv_pos_site_id
_symmetry_equiv_pos_as_xyz
1 x,y,z
2 -x,1/2+y,-z
_cell_length_a 11.285(5)
_cell_length_b 11.27
_cell_length_c 12.537(5)
_cell_angle_alpha 90
_cell_angle_beta 93.25(5)
_cell_angle_gamma 90
_cell_formula_units_Z 2
loop_
_atom_type_symbol
_atom_type_radius_bond
C 0.68
H 0.23
N 0.68
O 0.68
loop_
_atom_site_label
_atom_site_type_symbol
_atom_site_fract_x
_atom_site_fract_y
_atom_site_fract_z
C1 C 0.39260 -0.38470 0.26980
C2 C 0.30020 -0.47790 0.22950
C3 C 0.15360 -0.36420 0.35390
C4 C 0.05420 -0.38320 0.43170
C5 C -0.05350 -0.44790 0.38020
C6 C -0.00810 -0.56540 0.32980
C7 C -0.12090 -0.63480 0.29940
C8 C -0.20310 -0.60560 0.39110
C9 C -0.14280 -0.50320 0.45710
C10 C -0.11880 -0.37000 0.29640
C11 C 0.35870 -0.60340 0.23290
C12 C 0.48940 -0.35900 0.19130
C13 C -0.23470 -0.42160 0.50630
C14 C -0.17950 -0.31710 0.56910
C15 C -0.31100 -0.49260 0.57860
C16 C -0.42710 -0.49830 0.56910
C17 C -0.50740 -0.56280 0.64330
C18 C -0.58120 -0.47530 0.70790
C19 C -0.50190 -0.40090 0.78360
C20 C -0.66110 -0.39450 0.63680
C21 C -0.58670 -0.65230 0.58060
C22 C 0.43500 -0.32300 0.08320
C23 C 0.25530 -0.04640 0.04960
C24 C 0.17520 -0.06680 0.12720
C25 C 0.08980 0.01970 0.14430
C26 C 0.08230 0.12450 0.08740
C27 C 0.16500 0.14150 0.01230
C28 C 0.25190 0.05970 -0.00880
C29 C 0.34760 -0.13780 0.02260
C30 C 0.35180 -0.41770 0.03710
C31 C 0.26000 -0.45640 0.11310
C32 C 0.15070 -0.48640 0.07600
C33 C 0.06350 -0.53580 0.14490
C34 C 0.08280 -0.53810 0.25050
C35 C 0.19360 -0.48290 0.30420
H1 H 0.42800 -0.40100 0.34000
H2 H 0.34900 -0.31500 0.29100
H3 H 0.21900 -0.33300 0.39700
H4 H 0.12900 -0.30800 0.29400
H5 H 0.08800 -0.42300 0.49800
H6 H 0.02900 -0.30400 0.46300
H7 H 0.03000 -0.60400 0.39600
H8 H -0.16000 -0.61000 0.22100
H9 H -0.10700 -0.70800 0.28600
H10 H -0.28000 -0.58300 0.35700
H11 H -0.22100 -0.67000 0.43900
H12 H -0.09500 -0.53000 0.52000
H13 H -0.07500 -0.34900 0.23500
H14 H -0.15300 -0.29200 0.33000
H15 H -0.19900 -0.39500 0.26200
H16 H 0.29000 -0.66100 0.20900
H17 H 0.42000 -0.61300 0.18400
H18 H 0.39800 -0.61700 0.30800
H19 H 0.55100 -0.30200 0.22500
H20 H -0.28800 -0.39400 0.44100
H21 H -0.11500 -0.33400 0.62300
H22 H -0.14200 -0.26600 0.51800
H23 H -0.23800 -0.27100 0.60800
H24 H -0.27000 -0.52900 0.64100
H25 H -0.46300 -0.46400 0.51200
H26 H -0.45700 -0.60000 0.69600
H27 H -0.64200 -0.52200 0.75700
H28 H -0.45900 -0.45600 0.84400
H29 H -0.55500 -0.34600 0.82500
H30 H -0.44400 -0.35900 0.74800
H31 H -0.60700 -0.34200 0.58700
H32 H -0.71800 -0.43200 0.58300
H33 H -0.70500 -0.34000 0.69300
H34 H -0.63900 -0.69700 0.63400
H35 H -0.64100 -0.61900 0.51900
H36 H -0.54000 -0.71400 0.54500
H37 H 0.54000 -0.42600 0.17500
H38 H 0.49500 -0.30200 0.03300
H39 H 0.17400 -0.13300 0.17400
H40 H 0.01700 0.16900 0.09800
H41 H 0.30700 0.07300 -0.06600
H42 H 0.40400 -0.47800 0.01000
H43 H 0.31500 -0.39900 -0.03200
H44 H 0.12900 -0.48200 0.00400
H45 H -0.00700 -0.55600 0.11300
H46 H 0.22100 -0.53500 0.36600
N1 N 0.00120 -0.00490 0.22360
N2 N 0.15990 0.25370 -0.05180
O1 O -0.08610 0.06050 0.22370
O2 O 0.39750 -0.13570 -0.05860
O3 O 0.36230 -0.21610 0.10230
O4 O 0.02050 -0.08770 0.28590
O5 O 0.25030 0.28630 -0.09050
O6 O 0.06210 0.30210 -0.06230
#END
