
#######################################################################
#
#                 Cambridge Crystallographic Data Centre
#                                CCDC
#
#######################################################################
#
# If this CIF has been generated from an entry in the Cambridge
# Structural Database, then it will include bibliographic, chemical,
# crystal, experimental, refinement or atomic coordinate data resulting
# from the CCDC's data processing and validation procedures.
#
#######################################################################

data_CSD_CIF_PYDSYD13
_audit_creation_date 2012-11-16
_audit_creation_method CSD-ConQuest-V1
_database_code_CSD PYDSYD13
_database_code_depnum_ccdc_archive 'CCDC 863413'
_chemical_formula_sum 'C7 H5 N3 O2'
_chemical_formula_moiety
;
C7 H5 N3 O2
;
_journal_coden_Cambridge 154
_journal_volume 65
_journal_year 2012
_journal_page_first 376
_journal_name_full 'Aust.J.Chem. '
loop_
_publ_author_name
"P.V.Bernhardt"
"D.Kvaskoff"
"R.N.Veedu"
"C.Wentrup"
_chemical_name_systematic
;
3-(3-Pyridyl)sydnone
;
_cell_volume   1403.479
_exptl_crystal_colour 'colorless'
_exptl_crystal_density_diffrn 1.544
_exptl_special_details
;
P21/c polymorph

;
_exptl_crystal_description 'prism'
_diffrn_ambient_temperature 293
#These two values have been output from a single CSD field.
_refine_ls_R_factor_gt 0.0376
_refine_ls_wR_factor_gt 0.0376
_symmetry_cell_setting monoclinic
_symmetry_space_group_name_H-M 'P 21/c'
_symmetry_Int_Tables_number 14
loop_
_symmetry_equiv_pos_site_id
_symmetry_equiv_pos_as_xyz
1 x,y,z
2 -x,1/2+y,1/2-z
3 -x,-y,-z
4 x,-1/2-y,-1/2+z
_cell_length_a 9.0692(6)
_cell_length_b 22.2953(12)
_cell_length_c 7.4882(6)
_cell_angle_alpha 90
_cell_angle_beta 112.039(9)
_cell_angle_gamma 90
_cell_formula_units_Z 8
loop_
_atom_type_symbol
_atom_type_radius_bond
C 0.68
H 0.23
N 0.68
O 0.68
loop_
_atom_site_label
_atom_site_type_symbol
_atom_site_fract_x
_atom_site_fract_y
_atom_site_fract_z
C1 C 0.4416(2) 0.53833(9) 0.1878(3)
C2 C 0.3032(2) 0.54174(8) 0.0223(3)
H1 H 0.25780 0.57640 -0.04500
C3 C 0.1063(2) 0.46676(8) -0.1781(3)
C4 C -0.0203(2) 0.50494(8) -0.2483(3)
H2 H -0.01710 0.54330 -0.19810
C5 C -0.1531(2) 0.48395(9) -0.3969(3)
H3 H -0.24240 0.50820 -0.45030
C6 C -0.1517(2) 0.42672(10) -0.4655(3)
H4 H -0.24290 0.41290 -0.56380
C7 C 0.1012(2) 0.41058(8) -0.2556(3)
H5 H 0.19030 0.38610 -0.20630
N1 N 0.24845(17) 0.48605(6) -0.0211(2)
N2 N 0.33389(18) 0.44451(7) 0.0979(2)
N3 N -0.0264(2) 0.39005(7) -0.3984(2)
O1 O 0.45665(15) 0.47629(6) 0.22925(19)
O2 O 0.54107(17) 0.57283(6) 0.2896(2)
C8 C -0.1273(2) 0.67473(9) -0.2036(3)
C9 C -0.2718(2) 0.67121(8) -0.3603(3)
H6 H -0.31440 0.63720 -0.43360
C10 C -0.4894(2) 0.74378(8) -0.5257(2)
C11 C -0.6009(2) 0.70195(8) -0.6220(3)
H7 H -0.58020 0.66120 -0.60090
C12 C -0.7449(2) 0.72204(9) -0.7513(3)
H8 H -0.82380 0.69500 -0.81990
C13 C -0.7700(2) 0.78267(9) -0.7774(3)
H9 H -0.86790 0.79580 -0.86460
C14 C -0.5229(2) 0.80386(8) -0.5591(3)
H10 H -0.44550 0.83170 -0.49160
N4 N -0.33748(17) 0.72550(6) -0.3856(2)
N5 N -0.25353(18) 0.76606(7) -0.2632(2)
N6 N -0.6614(2) 0.82378(7) -0.6841(2)
O3 O -0.12028(15) 0.73537(6) -0.1472(2)
O4 O -0.01960(16) 0.64116(6) -0.11465(19)
#END
