
#######################################################################
#
#                 Cambridge Crystallographic Data Centre
#                                CCDC
#
#######################################################################
#
# If this CIF has been generated from an entry in the Cambridge
# Structural Database, then it will include bibliographic, chemical,
# crystal, experimental, refinement or atomic coordinate data resulting
# from the CCDC's data processing and validation procedures.
#
#######################################################################

data_CSD_CIF_PYDSYD10
_audit_creation_date 1987-04-28
_audit_creation_method CSD-ConQuest-V1
_database_code_CSD PYDSYD10
_database_code_depnum_ccdc_archive 'CCDC 1240527'
_chemical_formula_sum 'C7 H5 N3 O2'
_chemical_formula_moiety
;
C7 H5 N3 O2
;
_journal_coden_Cambridge 98
_journal_volume 50
_journal_year 1985
_journal_page_first 1764
_journal_name_full 'Collect.Czech.Chem.Commun. '
loop_
_publ_author_name
"J.Hasek"
"P.T.Beurskens"
"J.Obrda"
"S.Nespurek"
"H.Schenk"
"K.Goubitz"
"K.Huml"
"J.D.Schagen"
_chemical_name_systematic
;
3-N-Pyridyl-sydnone
;
_cell_volume   1416.094
_exptl_crystal_density_diffrn 1.53
_exptl_special_details
;
Photochromic
P2/c polymorph
light-sensitive
H81,H111,H112 and H42 have been removed due to suspected errors. H atom table 
is x10**3 not x10**4. x(C112) is 0.2266 not 0.2366
;
_diffrn_ambient_temperature ?
_diffrn_special_details
;
The study was carried out at room temperature,in the range 283-303K

;
#These two values have been output from a single CSD field.
_refine_ls_R_factor_gt 0.084
_refine_ls_wR_factor_gt 0.084
_symmetry_cell_setting monoclinic
_symmetry_space_group_name_H-M 'P 2/c'
_symmetry_Int_Tables_number 13
loop_
_symmetry_equiv_pos_site_id
_symmetry_equiv_pos_as_xyz
1 x,y,z
2 -x,y,1/2-z
3 -x,-y,-z
4 x,-y,-1/2+z
_cell_length_a 7.343(6)
_cell_length_b 9.333(8)
_cell_length_c 23.34(2)
_cell_angle_alpha 90
_cell_angle_beta 117.71(5)
_cell_angle_gamma 90
_cell_formula_units_Z 8
loop_
_atom_type_symbol
_atom_type_radius_bond
C 0.68
H 0.23
N 0.68
O 0.68
loop_
_atom_site_label
_atom_site_type_symbol
_atom_site_fract_x
_atom_site_fract_y
_atom_site_fract_z
O1 O 0.2300(6) 0.0440(3) 0.5835(2)
N1 N 0.2228(7) 0.1718(4) 0.5524(2)
N2 N 0.2497(6) 0.2693(4) 0.5962(2)
C1 C 0.2696(9) 0.2174(5) 0.6520(2)
C2 C 0.2584(8) 0.0684(5) 0.6459(2)
O2 O 0.2688(7) -0.0341(4) 0.6800(2)
C3 C 0.2532(7) 0.4182(5) 0.5798(2)
C4 C 0.3045(10) 0.4536(6) 0.5324(3)
N3 N 0.3128(7) 0.5903(5) 0.5156(2)
C5 C 0.2581(9) 0.6910(6) 0.5446(3)
C6 C 0.1984(10) 0.6629(6) 0.5912(3)
C7 C 0.1924(9) 0.5205(6) 0.6087(3)
H1 H 0.304(6) 0.280(5) 0.691(2)
H2 H 0.254(6) 0.787(5) 0.532(2)
H3 H 0.146(5) 0.505(4) 0.643(2)
O3 O 0.2158(7) 0.4571(4) 0.3396(2)
N4 N 0.2036(8) 0.3295(5) 0.3677(2)
N5 N 0.2497(6) 0.2337(4) 0.3362(2)
C8 C 0.2867(10) 0.2851(6) 0.2895(3)
C9 C 0.2695(9) 0.4333(6) 0.2898(2)
O4 O 0.2853(7) 0.5354(5) 0.2601(2)
C10 C 0.2537(7) 0.0858(5) 0.3550(2)
C11 C 0.2729(9) 0.0558(6) 0.4156(3)
N6 N 0.2721(8) -0.0795(6) 0.4346(2)
C12 C 0.2471(9) -0.1849(7) 0.3945(3)
C13 C 0.2266(10) -0.1629(6) 0.3333(3)
C14 C 0.2370(8) -0.0221(6) 0.3134(2)
H4 H 0.285(6) 0.142(5) 0.446(2)
H5 H 0.244(7) -0.279(6) 0.407(2)
H6 H 0.213(6) 0.000(5) 0.267(2)
#END
