
#######################################################################
#
#                 Cambridge Crystallographic Data Centre
#                                CCDC
#
#######################################################################
#
# If this CIF has been generated from an entry in the Cambridge
# Structural Database, then it will include bibliographic, chemical,
# crystal, experimental, refinement or atomic coordinate data resulting
# from the CCDC's data processing and validation procedures.
#
#######################################################################

data_CSD_CIF_PYRDNO16
_audit_creation_date 2013-04-23
_audit_creation_method CSD-ConQuest-V1
_database_code_CSD PYRDNO16
_database_code_depnum_ccdc_archive 'CCDC 891670'
_chemical_formula_sum 'C5 H5 N1 O1'
_chemical_formula_moiety
;
C5 H5 N1 O1
;
_journal_coden_Cambridge 1353
_journal_volume 14
_journal_year 2013
_journal_page_first 847
_journal_name_full 'ChemPhysChem '
loop_
_publ_author_name
"O.V.Shishkin"
"S.V.Shishkina"
"A.V.Maleev"
"R.I.Zubatyuk"
"V.Vasylyeva"
"K.Merz"
_chemical_name_systematic
;
Pyridine-1-oxide
;
_cell_volume    454.201
_exptl_crystal_density_diffrn 1.391
_exptl_special_details
;
1 polymorph

;
_diffrn_ambient_temperature 173
#These two values have been output from a single CSD field.
_refine_ls_R_factor_gt 0.0267
_refine_ls_wR_factor_gt 0.0267
_symmetry_cell_setting tetragonal
_symmetry_space_group_name_H-M 'P 41 21 2'
_symmetry_Int_Tables_number 92
loop_
_symmetry_equiv_pos_site_id
_symmetry_equiv_pos_as_xyz
1 x,y,z
2 -x,-y,1/2+z
3 1/2-y,1/2+x,1/4+z
4 1/2+y,1/2-x,3/4+z
5 y,x,-z
6 -y,-x,1/2-z
7 1/2-x,1/2+y,1/4-z
8 1/2+x,1/2-y,3/4-z
_cell_length_a 5.760(7)
_cell_length_b 5.760(7)
_cell_length_c 13.690(17)
_cell_angle_alpha 90
_cell_angle_beta 90
_cell_angle_gamma 90
_cell_formula_units_Z 4
loop_
_atom_type_symbol
_atom_type_radius_bond
C 0.68
H 0.23
N 0.68
O 0.68
loop_
_atom_site_label
_atom_site_type_symbol
_atom_site_fract_x
_atom_site_fract_y
_atom_site_fract_z
O1 O 0.82623(13) 0.82623(13) 0.00000
N1 N 0.98658(15) 0.98658(15) 0.00000
C1 C 1.12836(18) 1.35167(17) 0.05601(7)
C2 C 0.96101(17) 1.18151(18) 0.05587(7)
C3 C 1.32834(18) 1.32834(18) 0.00000
H1 H 0.820(2) 1.188(2) 0.0918(10)
H2 H 1.446(3) 1.446(3) 0.00000
H3 H 1.101(2) 1.492(3) 0.0946(10)
C1D C 1.35167(18) 1.12836(17) -0.05601(7)
C2D C 1.18151(17) 0.96101(18) -0.05587(7)
H1D H 1.188(2) 0.820(2) -0.0918(10)
H3D H 1.492(2) 1.101(3) -0.0946(10)
#END
