
#######################################################################
#
#                 Cambridge Crystallographic Data Centre
#                                CCDC
#
#######################################################################
#
# If this CIF has been generated from an entry in the Cambridge
# Structural Database, then it will include bibliographic, chemical,
# crystal, experimental, refinement or atomic coordinate data resulting
# from the CCDC's data processing and validation procedures.
#
#######################################################################

data_CSD_CIF_PYRDNO10
_audit_creation_date 1971-12-31
_audit_creation_method CSD-ConQuest-V1
_database_code_CSD PYRDNO10
_chemical_formula_sum 'C5 H5 N1 O1'
_chemical_formula_moiety
;
C5 H5 N1 O1
;
_journal_coeditor_code "IUCr A08072"
_journal_coden_Cambridge 107
_journal_volume 27
_journal_year 1971
_journal_page_first 432
_journal_name_full 'Acta Crystallogr.,Sect.B:Struct.Crystallogr.Cryst.Chem. '
loop_
_publ_author_name
"D.Ulku"
"B.P.Huddle"
"J.C.Morrow"
_chemical_name_systematic
;
Pyridine-1-oxide
;
_cell_volume    930.106
_exptl_crystal_density_diffrn 1.358
_exptl_special_details
;
polymorph 1

;
_diffrn_ambient_temperature ?
_diffrn_special_details
;
The study was carried out at room temperature,in the range 283-303K

;
#These two values have been output from a single CSD field.
_refine_ls_R_factor_gt 0.078
_refine_ls_wR_factor_gt 0.078
loop_
_citation_database_id_CSD
_citation_special_details
PYRDNO11 "is a reinterpretation of this cif"
_symmetry_cell_setting orthorhombic
_symmetry_space_group_name_H-M 'C 2 2 21'
_symmetry_Int_Tables_number 20
loop_
_symmetry_equiv_pos_site_id
_symmetry_equiv_pos_as_xyz
1 x,y,z
2 1/2+x,1/2+y,z
3 x,-y,-z
4 1/2+x,1/2-y,-z
5 -x,y,1/2-z
6 1/2-x,1/2+y,1/2-z
7 -x,-y,1/2+z
8 1/2-x,1/2-y,1/2+z
_cell_length_a 8.230(7)
_cell_length_b 8.221(7)
_cell_length_c 13.747(8)
_cell_angle_alpha 90
_cell_angle_beta 90
_cell_angle_gamma 90
_cell_formula_units_Z 8
loop_
_atom_type_symbol
_atom_type_radius_bond
C 0.68
N 0.68
O 0.68
loop_
_atom_site_label
_atom_site_type_symbol
_atom_site_fract_x
_atom_site_fract_y
_atom_site_fract_z
C1 C 0.61030 -0.06600 0.30520
C2 C 0.61010 -0.23350 0.30680
C3 C 0.50000 -0.32080 0.25000
N1 N 0.50000 0.01100 0.25000
O1 O 0.50000 0.17760 0.25000
C4 C -0.06770 -0.10900 0.05400
C5 C -0.23400 -0.10820 0.05400
C6 C -0.31940 0.00000 0.00000
N2 N 0.01460 0.00000 0.00000
O2 O 0.17570 0.00000 0.00000
C1D C 0.38970 -0.06600 0.19480
C2D C 0.38990 -0.23350 0.19320
C4B C -0.06770 0.10900 -0.05400
C5B C -0.23400 0.10820 -0.05400
#END
