
#######################################################################
#
#                 Cambridge Crystallographic Data Centre
#                                CCDC
#
#######################################################################
#
# If this CIF has been generated from an entry in the Cambridge
# Structural Database, then it will include bibliographic, chemical,
# crystal, experimental, refinement or atomic coordinate data resulting
# from the CCDC's data processing and validation procedures.
#
#######################################################################

data_CSD_CIF_PYRDNO20
_audit_creation_date 2014-05-31
_audit_creation_method CSD-ConQuest-V1
_database_code_CSD PYRDNO20
_database_code_depnum_ccdc_archive 'CCDC 1003291'
_chemical_formula_sum 'C5 H5 N1 O1'
_chemical_formula_moiety
;
C5 H5 N1 O1
;
_journal_coeditor_code "zb5041"
_journal_coden_Cambridge 1743
_journal_volume 70
_journal_year 2014
_journal_page_first 487
_journal_name_full 'Acta Crystallogr.,Sect.B:Struct.Sci.,Cryst.Eng. and Mat. '
loop_
_publ_author_name
"E.Patyk"
"J.Marciniak"
"H.Tomkowiak"
"A.Katrusiak"
"K.Merz"
_chemical_name_systematic
;
pyridine 1-oxide
;
_chemical_name_common
;
pyridine N-oxide
;
_chemical_melting_point 338
_cell_volume    418.939
_exptl_crystal_colour 'colorless'
_exptl_crystal_density_diffrn 1.508
_exptl_special_details
;
polymorph 1

;
_exptl_crystal_description 'tetragonal trapezohedron'
_diffrn_ambient_temperature 295
_diffrn_ambient_pressure 1180000.0
#These two values have been output from a single CSD field.
_refine_ls_R_factor_gt 0.0429
_refine_ls_wR_factor_gt 0.0429
_symmetry_cell_setting tetragonal
_symmetry_space_group_name_H-M 'P 41 21 2'
_symmetry_Int_Tables_number 92
loop_
_symmetry_equiv_pos_site_id
_symmetry_equiv_pos_as_xyz
1 x,y,z
2 -x,-y,1/2+z
3 1/2-y,1/2+x,1/4+z
4 1/2+y,1/2-x,3/4+z
5 1/2-x,1/2+y,1/4-z
6 1/2+x,1/2-y,3/4-z
7 y,x,-z
8 -y,-x,1/2-z
_cell_length_a 5.5678(14)
_cell_length_b 5.5678(14)
_cell_length_c 13.514(4)
_cell_angle_alpha 90
_cell_angle_beta 90
_cell_angle_gamma 90
_cell_formula_units_Z 4
loop_
_atom_type_symbol
_atom_type_radius_bond
C 0.68
H 0.23
N 0.68
O 0.68
loop_
_atom_site_label
_atom_site_type_symbol
_atom_site_fract_x
_atom_site_fract_y
_atom_site_fract_z
O1 O 0.1767(4) 0.1767(4) 0.00000
N1 N 0.0108(5) 0.0108(5) 0.00000
C1 C 0.0388(6) -0.1904(6) 0.05523(18)
C2 C -0.1338(6) -0.3655(6) 0.05553(18)
C3 C -0.3412(6) -0.3412(6) 0.00000
H1 H 0.184(6) -0.192(6) 0.0967(18)
H2 H -0.109(5) -0.515(6) 0.099(2)
H3 H -0.479(6) -0.479(6) 0.00000
C1F C -0.1904(6) 0.0388(6) -0.05523(18)
C2F C -0.3655(6) -0.1338(6) -0.05553(18)
H1F H -0.192(6) 0.184(6) -0.0967(18)
H2F H -0.515(5) -0.109(6) -0.099(2)
#END
