
#######################################################################
#
#                 Cambridge Crystallographic Data Centre
#                                CCDC
#
#######################################################################
#
# If this CIF has been generated from an entry in the Cambridge
# Structural Database, then it will include bibliographic, chemical,
# crystal, experimental, refinement or atomic coordinate data resulting
# from the CCDC's data processing and validation procedures.
#
#######################################################################

data_CSD_CIF_PZACOX10
_audit_creation_date 1981-03-19
_audit_creation_method CSD-ConQuest-V1
_database_code_CSD PZACOX10
_chemical_formula_sum 'C8 H9 N3 O1'
_chemical_formula_moiety
;
C8 H9 N3 O1
;
_journal_coden_Cambridge 189
_journal_volume 9
_journal_year 1980
_journal_page_first 965
_journal_name_full 'Cryst.Struct.Commun. '
loop_
_publ_author_name
"T.Roy"
"S.P.S.Gupta"
_chemical_name_systematic
;
Phenylazoacetaldoxime
;
_cell_volume   3490.173
_exptl_crystal_density_diffrn 1.24
_diffrn_ambient_temperature ?
_diffrn_special_details
;
The study was carried out at room temperature,in the range 283-303K

;
#These two values have been output from a single CSD field.
_refine_ls_R_factor_gt 0.066
_refine_ls_wR_factor_gt 0.066
_symmetry_cell_setting monoclinic
_symmetry_space_group_name_H-M 'C 2/c'
_symmetry_Int_Tables_number 15
loop_
_symmetry_equiv_pos_site_id
_symmetry_equiv_pos_as_xyz
1 x,y,z
2 1/2+x,1/2+y,z
3 -x,y,1/2-z
4 1/2-x,1/2+y,1/2-z
5 -x,-y,-z
6 -1/2-x,-1/2-y,-z
7 x,-y,-1/2+z
8 -1/2+x,-1/2-y,-1/2+z
_cell_length_a 9.539(1)
_cell_length_b 20.873(3)
_cell_length_c 18.034(3)
_cell_angle_alpha 90
_cell_angle_beta 103.59(1)
_cell_angle_gamma 90
_cell_formula_units_Z 16
loop_
_atom_type_symbol
_atom_type_radius_bond
C 0.68
H 0.23
N 0.68
O 0.68
loop_
_atom_site_label
_atom_site_type_symbol
_atom_site_fract_x
_atom_site_fract_y
_atom_site_fract_z
O1 O -0.49010 -0.04760 0.14660
N1 N -0.12490 0.03530 0.32050
N2 N -0.18350 -0.01490 0.28930
N3 N -0.37050 -0.05550 0.20670
C1 C 0.00150 0.02290 0.37970
C2 C 0.04580 0.07180 0.43160
C3 C 0.08020 -0.03310 0.38350
C4 C 0.20420 -0.04040 0.44010
C5 C 0.16870 0.06380 0.48930
C6 C 0.24710 0.00800 0.49340
C7 C -0.30500 -0.00250 0.22800
C8 C -0.34370 0.06200 0.19480
O1' O 0.31170 0.17300 0.71930
N1' N 0.46490 0.25200 0.52310
N2' N 0.44910 0.20320 0.56080
N3' N 0.37370 0.16370 0.65810
C1' C 0.53520 0.23920 0.46210
C2' C 0.58230 0.17930 0.44700
C3' C 0.55260 0.29110 0.41900
C4' C 0.62090 0.28360 0.35940
C5' C 0.65100 0.17180 0.38760
C6' C 0.66920 0.22460 0.34510
C7' C 0.38260 0.21620 0.62210
C8' C 0.33750 0.28110 0.64120
H2 H -0.00780 0.11220 0.43120
H5 H 0.20120 0.09810 0.53130
H6 H 0.33780 0.00370 0.52990
H4 H 0.25700 -0.08280 0.44070
H3 H 0.04990 -0.06750 0.34360
H81 H -0.39540 0.05970 0.14440
H82 H -0.37570 0.08810 0.22680
H83 H -0.26150 0.08650 0.18970
H1 H -0.54190 -0.08980 0.14210
H2' H 0.56170 0.13820 0.47940
H5' H 0.68380 0.12760 0.37390
H6' H 0.71310 0.21810 0.30690
H4' H 0.63380 0.32260 0.33050
H3' H 0.52420 0.33330 0.43270
H81' H 0.30320 0.30750 0.59700
H82' H 0.41180 0.30130 0.66810
H83' H 0.26510 0.27780 0.66520
H1' H 0.33050 0.13460 0.74430
#END
