
#######################################################################
#
#                 Cambridge Crystallographic Data Centre
#                                CCDC
#
#######################################################################
#
# If this CIF has been generated from an entry in the Cambridge
# Structural Database, then it will include bibliographic, chemical,
# crystal, experimental, refinement or atomic coordinate data resulting
# from the CCDC's data processing and validation procedures.
#
#######################################################################

data_CSD_CIF_QABCUS
_audit_creation_date 2003-05-06
_audit_creation_method CSD-ConQuest-V1
_database_code_CSD QABCUS
_chemical_formula_sum 'C28 H31 N3 O14'
_chemical_formula_moiety
;
C28 H31 N3 O14
;
_journal_coden_Cambridge 1336
_journal_volume 4
_journal_year 2002
_journal_page_first 3711
_journal_name_full 'Org.Lett. '
loop_
_publ_author_name
"T.C.Judd"
"R.M.Williams"
_chemical_name_systematic
;
3-(4,5-dimethoxy-2-nitrobenzyl) 1,5-dimethyl 
8-(hydroxymethyl)-7-(methoxymethoxy)-9-oxo-1a,8,9,9a-tetrahydro-1H-azireno[2,3
-c][1]benzazocine-1,3,5(2H)-tricarboxylate
;
_chemical_melting_point 473.15
_cell_volume   3028.088
_exptl_crystal_density_diffrn 1.39
_exptl_special_details
;
Melting point range 473.15-476.15K

;
_exptl_crystal_preparation 'ethyl acetate'
_diffrn_ambient_temperature 170
#These two values have been output from a single CSD field.
_refine_ls_R_factor_gt 0.112
_refine_ls_wR_factor_gt 0.112
_symmetry_cell_setting orthorhombic
_symmetry_space_group_name_H-M 'P 21 21 21'
_symmetry_Int_Tables_number 19
loop_
_symmetry_equiv_pos_site_id
_symmetry_equiv_pos_as_xyz
1 x,y,z
2 1/2-x,-y,1/2+z
3 1/2+x,1/2-y,-z
4 -x,1/2+y,1/2-z
_cell_length_a 10.824(2)
_cell_length_b 15.469(2)
_cell_length_c 18.085(3)
_cell_angle_alpha 90
_cell_angle_beta 90
_cell_angle_gamma 90
_cell_formula_units_Z 4
loop_
_atom_type_symbol
_atom_type_radius_bond
C 0.68
H 0.23
N 0.68
O 0.68
loop_
_atom_site_label
_atom_site_type_symbol
_atom_site_fract_x
_atom_site_fract_y
_atom_site_fract_z
C1 C 0.7987(5) 0.8722(4) 0.8092(3)
C2 C 0.8576(6) 0.8341(4) 0.7489(4)
C3 C 0.8264(7) 0.8620(4) 0.6782(4)
C4 C 0.7387(6) 0.9264(4) 0.6674(4)
C5 C 0.6846(6) 0.9649(4) 0.7277(4)
C6 C 0.7152(6) 0.9405(4) 0.8004(4)
C7 C 0.6618(6) 0.9934(4) 0.8637(3)
C8 C 0.6620(6) 0.9500(4) 0.9400(3)
C9 C 0.5783(6) 0.8740(4) 0.9531(3)
C10 C 0.6167(6) 0.7834(4) 0.9340(3)
C11 C 0.7399(6) 0.7605(4) 0.9013(4)
C12 C 0.8794(8) 0.8187(5) 0.6115(4)
C13 C 0.7286(7) 1.0799(4) 0.8666(4)
C14 C 1.041(1) 0.7363(7) 0.5594(5)
C15 C 0.5310(8) 1.0337(6) 0.6531(4)
C16 C 0.3761(9) 0.9339(7) 0.6828(5)
C17 C 0.3994(7) 0.8093(5) 0.8945(4)
C18 C 0.2511(7) 0.7091(6) 0.8547(5)
C19 C 0.9043(6) 0.8613(4) 0.9296(3)
C20 C 1.0721(6) 0.9563(5) 0.9478(4)
C21 C 1.1496(6) 1.0159(4) 0.9011(3)
C22 C 1.1118(6) 1.0380(4) 0.8298(4)
C23 C 1.1782(6) 1.0933(4) 0.7847(4)
C24 C 1.2906(6) 1.1287(4) 0.8103(4)
C25 C 1.3317(6) 1.1066(4) 0.8796(4)
C26 C 1.2622(6) 1.0503(4) 0.9236(3)
C27 C 1.0410(6) 1.0735(6) 0.6839(4)
C28 C 1.4469(6) 1.2352(5) 0.7931(4)
N1 N 0.8150(5) 0.8353(4) 0.8814(3)
N2 N 0.5255(5) 0.8319(4) 0.8889(3)
N3 N 1.3166(5) 1.0271(4) 0.9954(3)
O1 O 0.8283(6) 0.8192(4) 0.5525(3)
O2 O 0.9854(5) 0.7788(4) 0.6242(3)
O3 O 0.5969(5) 1.0295(3) 0.7214(2)
O4 O 0.4752(5) 0.9563(4) 0.6349(3)
O5 O 0.6598(5) 1.1450(3) 0.9032(3)
O6 O 0.7172(4) 0.9819(3) 0.9915(2)
O7 O 0.3227(4) 0.8499(3) 0.9270(3)
O8 O 0.3780(4) 0.7387(3) 0.8537(3)
O9 O 0.9211(4) 0.8306(3) 0.9901(3)
O10 O 0.9732(4) 0.9255(3) 0.9001(2)
O11 O 1.1461(4) 1.1148(3) 0.7148(2)
O12 O 1.3476(4) 1.1845(3) 0.7636(2)
O13 O 1.4258(4) 1.0446(4) 1.0065(3)
O14 O 1.2515(5) 0.9903(4) 1.0407(3)
H1 H 0.9176(6) 0.7901(4) 0.7559(4)
H2 H 0.7164(6) 0.9436(4) 0.6188(4)
H3 H 0.5736(6) 1.0058(4) 0.8509(3)
H4 H 0.5219(6) 0.8793(4) 0.9967(3)
H5 H 0.5801(6) 0.7376(4) 0.9664(3)
H6 H 0.7862(6) 0.7247(4) 0.9372(4)
H7 H 0.7263(6) 0.7249(4) 0.8565(4)
H8 H 0.8085(7) 1.0721(4) 0.8924(4)
H9 H 0.7465(7) 1.0991(4) 0.8155(4)
H10 H 1.1194(10) 0.7094(7) 0.5737(5)
H11 H 1.0561(10) 0.7793(7) 0.5206(5)
H12 H 0.9846(10) 0.6919(7) 0.5406(5)
H13 H 0.4670(8) 1.0793(6) 0.6566(4)
H14 H 0.5889(8) 1.0503(6) 0.6132(4)
H15 H 0.3404(9) 0.8786(7) 0.6671(5)
H16 H 0.3125(9) 0.9789(7) 0.6808(5)
H17 H 0.4070(9) 0.9286(7) 0.7336(5)
H18 H 0.2431(7) 0.6577(6) 0.8234(5)
H19 H 0.1971(7) 0.7549(6) 0.8358(5)
H20 H 0.2272(7) 0.6948(6) 0.9055(5)
H21 H 1.1224(6) 0.9073(5) 0.9660(4)
H22 H 1.0378(6) 0.9877(5) 0.9908(4)
H23 H 1.0370(6) 1.0141(4) 0.8115(4)
H24 H 1.4072(6) 1.1296(4) 0.8978(4)
H25 H 1.0282(6) 1.0944(6) 0.6333(4)
H26 H 0.9681(6) 1.0869(6) 0.7139(4)
H27 H 1.0542(6) 1.0109(6) 0.6832(4)
H28 H 1.4806(6) 1.2725(5) 0.7543(4)
H29 H 1.5119(6) 1.1967(5) 0.8115(4)
H30 H 1.4160(6) 1.2710(5) 0.8339(4)
H31 H 0.6453(5) 1.1294(3) 0.9468(3)
#END
