
#######################################################################
#
#                 Cambridge Crystallographic Data Centre
#                                CCDC
#
#######################################################################
#
# If this CIF has been generated from an entry in the Cambridge
# Structural Database, then it will include bibliographic, chemical,
# crystal, experimental, refinement or atomic coordinate data resulting
# from the CCDC's data processing and validation procedures.
#
#######################################################################

data_CSD_CIF_QABDAA
_audit_creation_date 2011-03-30
_audit_creation_method CSD-ConQuest-V1
_database_code_CSD QABDAA
_database_code_depnum_ccdc_archive 'CCDC 753248'
_chemical_formula_sum 'C16 H17 N1 O2'
_chemical_formula_moiety
;
C16 H17 N1 O2
;
_journal_coden_Cambridge 692
_journal_volume 2010
_journal_year 2010
_journal_page_first 678
_journal_name_full 'Synthesis '
loop_
_publ_author_name
"A.Diez-Martinez"
"Z.Gultekin"
"I.Delso"
"T.Tejero"
"P.Merino"
_chemical_name_systematic
;
(Z)-N-Benzylidene-2-(benzyloxy)ethanamine oxide
;
_chemical_melting_point 369.15
_cell_volume   1385.978
_exptl_crystal_colour 'colorless'
_exptl_crystal_density_diffrn 1.224
_exptl_special_details
;
Melting point range 369.15-371.15K

;
_exptl_crystal_description 'block'
_diffrn_ambient_temperature 293
#These two values have been output from a single CSD field.
_refine_ls_R_factor_gt 0.039
_refine_ls_wR_factor_gt 0.039
_symmetry_cell_setting orthorhombic
_symmetry_space_group_name_H-M 'P 21 21 21'
_symmetry_Int_Tables_number 19
loop_
_symmetry_equiv_pos_site_id
_symmetry_equiv_pos_as_xyz
1 x,y,z
2 1/2-x,-y,1/2+z
3 1/2+x,1/2-y,-z
4 -x,1/2+y,1/2-z
_cell_length_a 25.8818(3)
_cell_length_b 5.1064(6)
_cell_length_c 10.4869(19)
_cell_angle_alpha 90
_cell_angle_beta 90
_cell_angle_gamma 90
_cell_formula_units_Z 4
loop_
_atom_type_symbol
_atom_type_radius_bond
C 0.68
H 0.23
N 0.68
O 0.68
loop_
_atom_site_label
_atom_site_type_symbol
_atom_site_fract_x
_atom_site_fract_y
_atom_site_fract_z
O1 O 0.18324(6) 0.5505(4) 0.60188(16)
O2 O 0.11497(7) 0.5017(4) 0.88383(17)
N1 N 0.19925(9) 0.4585(4) 0.7092(2)
C1 C 0.23877(11) 0.5437(6) 0.7718(2)
H1 H 0.24600 0.46060 0.84870
C2 C 0.27272(10) 0.7525(6) 0.7355(3)
C3 C 0.27208(10) 0.8932(6) 0.6229(3)
H2 H 0.24750 0.85430 0.56100
C4 C 0.30754(13) 1.0914(6) 0.6011(3)
H3 H 0.30700 1.18190 0.52410
C5 C 0.34311(14) 1.1546(7) 0.6910(4)
H4 H 0.36640 1.28990 0.67620
C6 C 0.34463(13) 1.0193(8) 0.8032(3)
H5 H 0.36900 1.06330 0.86470
C7 C 0.31033(13) 0.8179(6) 0.8263(3)
H6 H 0.31220 0.72510 0.90250
C8 C 0.16937(11) 0.2349(5) 0.7594(2)
H7 H 0.18550 0.17190 0.83710
H8 H 0.16980 0.09350 0.69770
C9 C 0.11472(10) 0.3103(5) 0.7867(2)
H9 H 0.09860 0.38010 0.71040
H10 H 0.09520 0.15820 0.81410
C10 C 0.06580(12) 0.5974(5) 0.9117(3)
H11 H 0.05040 0.66080 0.83330
H12 H 0.06940 0.74590 0.96860
C11 C 0.02923(14) 0.4035(6) 0.9719(3)
C12 C -0.02062(18) 0.3783(8) 0.9315(3)
H13 H -0.03210 0.48060 0.86390
C13 C -0.05444(19) 0.2047(11) 0.9885(5)
H14 H -0.08850 0.18940 0.96140
C14 C -0.0355(2) 0.0560(8) 1.0866(5)
H15 H -0.05730 -0.06360 1.12640
C15 C 0.01360(17) 0.0776(7) 1.1271(3)
H16 H 0.02540 -0.02640 1.19390
C16 C 0.04600(11) 0.2525(6) 1.0702(3)
H17 H 0.07990 0.26850 1.09880
#END
