
#######################################################################
#
#                 Cambridge Crystallographic Data Centre
#                                CCDC
#
#######################################################################
#
# If this CIF has been generated from an entry in the Cambridge
# Structural Database, then it will include bibliographic, chemical,
# crystal, experimental, refinement or atomic coordinate data resulting
# from the CCDC's data processing and validation procedures.
#
#######################################################################

data_CSD_CIF_QABDUU
_audit_creation_date 2011-03-30
_audit_creation_method CSD-ConQuest-V1
_database_code_CSD QABDUU
_database_code_depnum_ccdc_archive 'CCDC 753252'
_chemical_formula_sum 'C17 H21 N1 O3'
_chemical_formula_moiety
;
C17 H21 N1 O3
;
_journal_coden_Cambridge 692
_journal_volume 2010
_journal_year 2010
_journal_page_first 678
_journal_name_full 'Synthesis '
loop_
_publ_author_name
"A.Diez-Martinez"
"Z.Gultekin"
"I.Delso"
"T.Tejero"
"P.Merino"
_chemical_name_systematic
;
(S,Z)-1-(Benzyloxy)-N-(furan-2-ylmethylene)-3-methylbutan-2-amine oxide
;
_chemical_melting_point 360.15
_cell_volume    758.794
_exptl_crystal_colour 'colorless'
_exptl_crystal_density_diffrn 1.258
_exptl_special_details
;
Melting point range 360.15-362.15K
Study temperature given as 293 K and 150 K in the CIF
;
_exptl_crystal_description 'block'
_diffrn_ambient_temperature 150
#These two values have been output from a single CSD field.
_refine_ls_R_factor_gt 0.0702
_refine_ls_wR_factor_gt 0.0702
_symmetry_cell_setting monoclinic
_symmetry_space_group_name_H-M 'P 21'
_symmetry_Int_Tables_number 4
loop_
_symmetry_equiv_pos_site_id
_symmetry_equiv_pos_as_xyz
1 x,y,z
2 -x,1/2+y,-z
_cell_length_a 8.350(2)
_cell_length_b 6.001(2)
_cell_length_c 15.521(5)
_cell_angle_alpha 90
_cell_angle_beta 102.67(3)
_cell_angle_gamma 90
_cell_formula_units_Z 2
loop_
_atom_type_symbol
_atom_type_radius_bond
C 0.68
H 0.23
N 0.68
O 0.68
loop_
_atom_site_label
_atom_site_type_symbol
_atom_site_fract_x
_atom_site_fract_y
_atom_site_fract_z
O1 O 0.2800(5) 0.2301(7) 0.3055(3)
O2 O -0.2810(5) -0.1803(8) 0.1962(3)
O3 O -0.2110(5) 0.3274(8) 0.3060(3)
C1 C 0.0190(7) 0.1114(12) 0.3203(3)
H1 H 0.06730 -0.02700 0.33530
N1 N -0.1379(7) 0.1412(10) 0.3225(4)
C2 C -0.2598(8) -0.5792(13) 0.0887(5)
H2 H -0.27720 -0.63080 0.14240
C3 C 0.1161(7) 0.2899(13) 0.2951(4)
C4 C 0.3537(8) 0.4091(13) 0.2800(5)
H3 H 0.46530 0.41640 0.28090
C5 C -0.1808(8) -0.7128(15) 0.0381(5)
H4 H -0.14470 -0.85450 0.05760
C6 C 0.2479(8) 0.5770(14) 0.2529(4)
H5 H 0.27090 0.71580 0.23190
C7 C -0.3569(7) -0.1043(13) 0.2625(4)
H6 H -0.43140 -0.21780 0.27500
H7 H -0.42080 0.02800 0.24210
C8 C -0.3119(7) -0.3711(14) 0.0593(4)
C9 C -0.3916(8) -0.2304(14) 0.1168(4)
H8 H -0.43040 -0.09320 0.08620
H9 H -0.48560 -0.30850 0.12930
C10 C 0.0900(7) 0.4944(12) 0.2636(4)
H10 H -0.00950 0.57020 0.25090
C11 C -0.1823(7) 0.1155(13) 0.4971(4)
H11 H -0.13930 0.24650 0.47470
H12 H -0.09430 0.01300 0.51870
H13 H -0.23400 0.15610 0.54420
C12 C -0.2888(7) -0.2988(12) -0.0205(5)
H14 H -0.32570 -0.15780 -0.04050
C13 C -0.2114(8) -0.4315(16) -0.0726(5)
H15 H -0.19740 -0.38390 -0.12750
C14 C -0.3748(9) -0.1976(15) 0.4587(5)
H16 H -0.45340 -0.26720 0.41200
H17 H -0.42750 -0.15620 0.50540
H18 H -0.28720 -0.30010 0.48090
C15 C -0.3067(8) 0.0066(13) 0.4239(4)
H19 H -0.39700 0.11180 0.40410
C16 C -0.1569(7) -0.6357(16) -0.0391(5)
H20 H -0.10070 -0.72520 -0.07150
C17 C -0.2333(8) -0.0512(11) 0.3449(4)
H21 H -0.15930 -0.17880 0.36040
#END
