
#######################################################################
#
#                 Cambridge Crystallographic Data Centre
#                                CCDC
#
#######################################################################
#
# If this CIF has been generated from an entry in the Cambridge
# Structural Database, then it will include bibliographic, chemical,
# crystal, experimental, refinement or atomic coordinate data resulting
# from the CCDC's data processing and validation procedures.
#
#######################################################################

data_CSD_CIF_QABDOO
_audit_creation_date 2011-03-30
_audit_creation_method CSD-ConQuest-V1
_database_code_CSD QABDOO
_database_code_depnum_ccdc_archive 'CCDC 753251'
_chemical_formula_sum 'C20 H25 N1 O3'
_chemical_formula_moiety
;
C20 H25 N1 O3
;
_journal_coden_Cambridge 692
_journal_volume 2010
_journal_year 2010
_journal_page_first 678
_journal_name_full 'Synthesis '
loop_
_publ_author_name
"A.Diez-Martinez"
"Z.Gultekin"
"I.Delso"
"T.Tejero"
"P.Merino"
_chemical_name_systematic
;
(S,Z)-1-(benzyloxy)-N-(4-methoxybenzylidene)-3-methylbutan-2-amine oxide
;
_chemical_melting_point 375.15
_cell_volume   1770.982
_exptl_crystal_colour 'colorless'
_exptl_crystal_density_diffrn 1.228
_exptl_special_details
;
Melting point range 375.15-377.15K
Study temperature given as 293 K and 150 K in the CIF
;
_exptl_crystal_description 'block'
_diffrn_ambient_temperature 150
#These two values have been output from a single CSD field.
_refine_ls_R_factor_gt 0.0396
_refine_ls_wR_factor_gt 0.0396
_symmetry_cell_setting orthorhombic
_symmetry_space_group_name_H-M 'P 21 21 21'
_symmetry_Int_Tables_number 19
loop_
_symmetry_equiv_pos_site_id
_symmetry_equiv_pos_as_xyz
1 x,y,z
2 1/2-x,-y,1/2+z
3 1/2+x,1/2-y,-z
4 -x,1/2+y,1/2-z
_cell_length_a 5.411
_cell_length_b 16.021
_cell_length_c 20.429
_cell_angle_alpha 90
_cell_angle_beta 90
_cell_angle_gamma 90
_cell_formula_units_Z 4
loop_
_atom_type_symbol
_atom_type_radius_bond
C 0.68
H 0.23
N 0.68
O 0.68
loop_
_atom_site_label
_atom_site_type_symbol
_atom_site_fract_x
_atom_site_fract_y
_atom_site_fract_z
O1 O 0.2889(2) 0.61299(7) 0.44522(5)
O2 O 0.3538(2) 0.09263(6) 0.44044(5)
O3 O 0.0284(2) 0.45918(7) 0.34384(6)
N1 N 0.2602(3) 0.47962(8) 0.35102(7)
C1 C 0.6208(4) 0.58821(11) 0.62419(9)
H1 H 0.75480 0.55220 0.62780
C2 C 0.2049(3) 0.29137(10) 0.36830(8)
H2 H 0.07570 0.31410 0.34420
C3 C 0.3847(3) 0.17404(10) 0.42387(8)
C4 C 0.3105(3) 0.65255(9) 0.55758(8)
C5 C 0.4335(3) 0.42918(10) 0.37016(8)
H3 H 0.59160 0.45140 0.37390
C6 C 0.3195(3) 0.56804(9) 0.33546(8)
H4 H 0.49680 0.57640 0.34280
C7 C 0.1810(3) 0.62278(10) 0.38281(8)
H5 H 0.19110 0.68070 0.36910
H6 H 0.00820 0.60670 0.38420
C8 C 0.1980(3) 0.20872(10) 0.38607(7)
H7 H 0.06640 0.17560 0.37260
C9 C 0.4049(3) 0.34147(10) 0.38630(8)
C10 C 0.4105(4) 0.52650(12) 0.21974(9)
H8 H 0.37350 0.53820 0.17470
H9 H 0.36590 0.46990 0.22960
H10 H 0.58410 0.53420 0.22730
C11 C 0.5832(3) 0.22247(10) 0.44236(8)
H11 H 0.70990 0.19980 0.46750
C12 C 0.1836(3) 0.66546(10) 0.49319(8)
H12 H 0.00890 0.65310 0.49760
H13 H 0.20020 0.72330 0.47980
C13 C 0.5075(3) 0.59961(10) 0.56436(9)
H14 H 0.56600 0.57080 0.52800
C14 C 0.5465(4) 0.05348(10) 0.47743(9)
H15 H 0.50230 -0.00350 0.48620
H16 H 0.56860 0.08270 0.51800
H17 H 0.69760 0.05500 0.45290
C15 C 0.2655(3) 0.58518(11) 0.26324(8)
H18 H 0.08880 0.57630 0.25540
C16 C 0.5917(3) 0.30493(10) 0.42311(8)
H19 H 0.72710 0.33720 0.43520
C17 C 0.5362(4) 0.62999(11) 0.67849(9)
H20 H 0.61250 0.62260 0.71890
C18 C 0.2262(4) 0.69437(10) 0.61267(9)
H21 H 0.09270 0.73070 0.60920
C19 C 0.3385(4) 0.68249(11) 0.67235(9)
H22 H 0.27920 0.71050 0.70900
C20 C 0.3289(4) 0.67440(11) 0.24534(9)
H23 H 0.29230 0.68370 0.19990
H24 H 0.50160 0.68410 0.25300
H25 H 0.23300 0.71190 0.27170
#END
