
#######################################################################
#
#                 Cambridge Crystallographic Data Centre
#                                CCDC
#
#######################################################################
#
# If this CIF has been generated from an entry in the Cambridge
# Structural Database, then it will include bibliographic, chemical,
# crystal, experimental, refinement or atomic coordinate data resulting
# from the CCDC's data processing and validation procedures.
#
#######################################################################

data_CSD_CIF_QABFIK
_audit_creation_date 2011-03-30
_audit_creation_method CSD-ConQuest-V1
_database_code_CSD QABFIK
_database_code_depnum_ccdc_archive 'CCDC 753255'
_chemical_formula_sum 'C17 H27 N1 O2'
_chemical_formula_moiety
;
C17 H27 N1 O2
;
_journal_coden_Cambridge 692
_journal_volume 2010
_journal_year 2010
_journal_page_first 678
_journal_name_full 'Synthesis '
loop_
_publ_author_name
"A.Diez-Martinez"
"Z.Gultekin"
"I.Delso"
"T.Tejero"
"P.Merino"
_chemical_name_systematic
;
(S,Z)-1-(benzyloxy)-3-methyl-N-pentylidenebutan-2-amine oxide
;
_chemical_melting_point 349.15
_cell_volume   1651.504
_exptl_crystal_colour 'colorless'
_exptl_crystal_density_diffrn 1.116
_exptl_special_details
;
Melting point range 349.15-351.15K

;
_exptl_crystal_description 'block'
_diffrn_ambient_temperature 293
#These two values have been output from a single CSD field.
_refine_ls_R_factor_gt 0.0555
_refine_ls_wR_factor_gt 0.0555
_symmetry_cell_setting orthorhombic
_symmetry_space_group_name_H-M 'P 21 21 21'
_symmetry_Int_Tables_number 19
loop_
_symmetry_equiv_pos_site_id
_symmetry_equiv_pos_as_xyz
1 x,y,z
2 1/2-x,-y,1/2+z
3 1/2+x,1/2-y,-z
4 -x,1/2+y,1/2-z
_cell_length_a 5.044
_cell_length_b 14.406
_cell_length_c 22.728
_cell_angle_alpha 90
_cell_angle_beta 90
_cell_angle_gamma 90
_cell_formula_units_Z 4
loop_
_atom_type_symbol
_atom_type_radius_bond
C 0.68
H 0.23
N 0.68
O 0.68
loop_
_atom_site_label
_atom_site_type_symbol
_atom_site_fract_x
_atom_site_fract_y
_atom_site_fract_z
O1 O 0.3066(4) 0.62354(12) 0.00862(7)
O2 O -0.0622(3) 0.44679(13) -0.04207(7)
N1 N 0.1955(4) 0.44837(14) -0.03678(9)
C1 C 0.3198(5) 0.39746(17) 0.00046(11)
H1 H 0.50390 0.40000 0.00150
C2 C 0.6075(5) 0.64684(18) 0.08784(12)
C3 C 0.3387(5) 0.51559(16) -0.07451(10)
H2 H 0.52960 0.50690 -0.06870
C4 C 0.1811(5) 0.33513(19) 0.04160(11)
H3 H 0.13740 0.27790 0.02130
H4 H 0.01620 0.36410 0.05360
C5 C 0.2632(5) 0.61188(18) -0.05226(11)
H5 H 0.36570 0.65790 -0.07350
H6 H 0.07740 0.62290 -0.06070
C6 C 0.4332(6) 0.69774(19) 0.12151(12)
H7 H 0.29310 0.72830 0.10330
C7 C 0.2750(5) 0.4995(2) -0.13886(11)
H8 H 0.08510 0.51030 -0.14500
C8 C 0.3409(6) 0.3123(2) 0.09550(12)
H9 H 0.51060 0.28710 0.08330
H10 H 0.24910 0.26460 0.11770
C9 C 0.8124(6) 0.6013(2) 0.11610(14)
H11 H 0.93150 0.56600 0.09430
C10 C 0.3890(7) 0.3947(2) 0.13528(12)
H12 H 0.47740 0.44290 0.11290
H13 H 0.21920 0.41910 0.14800
C11 C 0.4309(6) 0.5673(2) -0.17762(11)
H14 H 0.38860 0.62990 -0.16650
H15 H 0.38430 0.55760 -0.21810
H16 H 0.61740 0.55680 -0.17250
C12 C 0.5786(6) 0.64008(19) 0.02256(11)
H17 H 0.63730 0.69730 0.00430
H18 H 0.68710 0.58970 0.00770
C13 C 0.4621(6) 0.7043(2) 0.18148(14)
H19 H 0.34360 0.73960 0.20350
C14 C 0.6679(7) 0.6584(2) 0.20894(13)
H20 H 0.68800 0.66190 0.24960
C15 C 0.8421(6) 0.6075(2) 0.17593(14)
H21 H 0.98190 0.57690 0.19420
C16 C 0.3395(6) 0.4001(2) -0.15656(11)
H22 H 0.29610 0.39110 -0.19730
H23 H 0.23800 0.35790 -0.13290
H24 H 0.52520 0.38860 -0.15070
C17 C 0.5532(8) 0.3727(2) 0.18876(13)
H25 H 0.57510 0.42790 0.21200
H26 H 0.72390 0.35020 0.17670
H27 H 0.46540 0.32610 0.21180
#END
