
#######################################################################
#
#                 Cambridge Crystallographic Data Centre
#                                CCDC
#
#######################################################################
#
# If this CIF has been generated from an entry in the Cambridge
# Structural Database, then it will include bibliographic, chemical,
# crystal, experimental, refinement or atomic coordinate data resulting
# from the CCDC's data processing and validation procedures.
#
#######################################################################

data_CSD_CIF_QABFAC
_audit_creation_date 2011-03-30
_audit_creation_method CSD-ConQuest-V1
_database_code_CSD QABFAC
_database_code_depnum_ccdc_archive 'CCDC 753253'
_chemical_formula_sum 'C23 H23 N1 O2'
_chemical_formula_moiety
;
C23 H23 N1 O2
;
_journal_coden_Cambridge 692
_journal_volume 2010
_journal_year 2010
_journal_page_first 678
_journal_name_full 'Synthesis '
loop_
_publ_author_name
"A.Diez-Martinez"
"Z.Gultekin"
"I.Delso"
"T.Tejero"
"P.Merino"
_chemical_name_systematic
;
(Z)-2-(benzyloxy)-N-(4-methylbenzylidene)-1-phenylethanamine oxide
;
_chemical_melting_point 387
_cell_volume   2934.094
_exptl_crystal_colour 'colorless'
_exptl_crystal_density_diffrn 1.181
_exptl_special_details
;
There are a number of low precision bonds present. The crystal data refers to 
the 4-methylbenzylidene analogue and not the 4-methoxybenzylidene compound, 
as published
;
_exptl_crystal_description 'block'
_diffrn_ambient_temperature 150
#These two values have been output from a single CSD field.
_refine_ls_R_factor_gt 0.1023
_refine_ls_wR_factor_gt 0.1023
_symmetry_cell_setting hexagonal
_symmetry_space_group_name_H-M 'P 61'
_symmetry_Int_Tables_number 169
loop_
_symmetry_equiv_pos_site_id
_symmetry_equiv_pos_as_xyz
1 x,y,z
2 -x,-y,1/2+z
3 -y,x-y,1/3+z
4 y,-x+y,5/6+z
5 -x+y,-x,2/3+z
6 x-y,x,1/6+z
_cell_length_a 11(5)
_cell_length_b 11(5)
_cell_length_c 28(12)
_cell_angle_alpha 90
_cell_angle_beta 90
_cell_angle_gamma 120
_cell_formula_units_Z 6
loop_
_atom_type_symbol
_atom_type_radius_bond
C 0.68
H 0.23
N 0.68
O 0.68
loop_
_atom_site_label
_atom_site_type_symbol
_atom_site_fract_x
_atom_site_fract_y
_atom_site_fract_z
O1 O 0.9161(4) 0.0742(4) 0.09045(14)
O2 O 1.1211(4) -0.0481(4) 0.13195(15)
N1 N 0.9201(5) 0.0358(5) 0.13414(17)
C1 C 0.9619(6) 0.1230(6) 0.1712(2)
H1 H 0.95650 0.08220 0.20160
C2 C 1.0140(5) 0.2705(5) 0.1703(2)
C3 C 1.0233(6) 0.3526(6) 0.1316(2)
H2 H 0.98540 0.30910 0.10180
C4 C 1.0880(6) 0.4991(7) 0.1359(2)
H3 H 1.09230 0.55460 0.10920
C5 C 1.1456(6) 0.5627(6) 0.1790(2)
C6 C 1.1364(7) 0.4856(6) 0.2175(2)
H4 H 1.17380 0.53000 0.24730
C7 C 1.0707(6) 0.3382(7) 0.2132(2)
H5 H 1.06500 0.28370 0.24030
C8 C 1.2112(6) 0.7072(5) 0.17844(16)
H6 H 1.20470 0.73920 0.14640
H7 H 1.31050 0.74690 0.18720
H8 H 1.16500 0.73860 0.20140
C9 C 0.8793(6) -0.1133(6) 0.1420(2)
H9 H 0.89170 -0.12510 0.17670
C10 C 0.9830(6) -0.1413(6) 0.1146(2)
H10 H 0.95950 -0.24030 0.11920
H11 H 0.97780 -0.12520 0.08010
C11 C 1.2236(6) -0.0625(6) 0.1065(2)
H12 H 1.22420 -0.03470 0.07290
H13 H 1.19940 -0.16250 0.10700
C12 C 0.7264(6) -0.2114(6) 0.1299(2)
C13 C 0.6344(7) -0.2800(7) 0.1652(2)
H14 H 0.66610 -0.26580 0.19730
C14 C 0.4934(7) -0.3714(9) 0.1551(3)
H15 H 0.42990 -0.41960 0.18050
C15 C 0.4436(6) -0.3938(7) 0.1087(3)
H16 H 0.34690 -0.45570 0.10170
C16 C 0.5417(7) -0.3215(7) 0.0729(2)
H17 H 0.51110 -0.33260 0.04060
C17 C 0.6803(6) -0.2352(7) 0.0832(2)
H18 H 0.74610 -0.19100 0.05800
C18 C 1.3670(6) 0.0269(6) 0.12765(19)
C19 C 1.4744(7) 0.0031(7) 0.1174(2)
H19 H 1.45530 -0.07530 0.09790
C20 C 1.6070(7) 0.0852(8) 0.1337(3)
H20 H 1.67880 0.06450 0.12540
C21 C 1.6377(7) 0.1979(7) 0.1621(2)
H21 H 1.73110 0.25720 0.17330
C22 C 1.5285(7) 0.2253(7) 0.1748(2)
H22 H 1.54620 0.30030 0.19580
C23 C 1.3969(6) 0.1413(6) 0.15591(19)
H23 H 1.32450 0.16260 0.16250
#END
