
#######################################################################
#
#                 Cambridge Crystallographic Data Centre
#                                CCDC
#
#######################################################################
#
# If this CIF has been generated from an entry in the Cambridge
# Structural Database, then it will include bibliographic, chemical,
# crystal, experimental, refinement or atomic coordinate data resulting
# from the CCDC's data processing and validation procedures.
#
#######################################################################

data_CSD_CIF_QABFEG
_audit_creation_date 2011-03-30
_audit_creation_method CSD-ConQuest-V1
_database_code_CSD QABFEG
_database_code_depnum_ccdc_archive 'CCDC 753254'
_chemical_formula_sum 'C17 H27 N1 O2'
_chemical_formula_moiety
;
C17 H27 N1 O2
;
_journal_coden_Cambridge 692
_journal_volume 2010
_journal_year 2010
_journal_page_first 678
_journal_name_full 'Synthesis '
loop_
_publ_author_name
"A.Diez-Martinez"
"Z.Gultekin"
"I.Delso"
"T.Tejero"
"P.Merino"
_chemical_name_systematic
;
(S,Z)-1-(Benzyloxy)-3-methyl-N-(3-methylbutylidene)butan-2-amine oxide
;
_chemical_melting_point 323.15
_cell_volume   1646.005
_exptl_crystal_colour 'colorless'
_exptl_crystal_density_diffrn 1.119
_exptl_special_details
;
Melting point range 323.15-325.15K
The crystal data refers to compound 2o and not 2n, as published
;
_exptl_crystal_description 'block'
_diffrn_ambient_temperature 150
#These two values have been output from a single CSD field.
_refine_ls_R_factor_gt 0.0724
_refine_ls_wR_factor_gt 0.0724
_symmetry_cell_setting orthorhombic
_symmetry_space_group_name_H-M 'P 21 21 21'
_symmetry_Int_Tables_number 19
loop_
_symmetry_equiv_pos_site_id
_symmetry_equiv_pos_as_xyz
1 x,y,z
2 1/2-x,-y,1/2+z
3 -x,1/2+y,1/2-z
4 1/2+x,1/2-y,-z
_cell_length_a 5.0218(4)
_cell_length_b 16.6867(17)
_cell_length_c 19.6427(14)
_cell_angle_alpha 90
_cell_angle_beta 90
_cell_angle_gamma 90
_cell_formula_units_Z 4
loop_
_atom_type_symbol
_atom_type_radius_bond
C 0.68
H 0.23
N 0.68
O 0.68
loop_
_atom_site_label
_atom_site_type_symbol
_atom_site_fract_x
_atom_site_fract_y
_atom_site_fract_z
N1 N 0.1635(5) 0.42938(16) 0.16224(12)
O1 O -0.0932(4) 0.42545(13) 0.16973(11)
O2 O 0.2653(4) 0.34896(13) 0.04038(9)
C1 C 0.1550(8) 0.7128(2) 0.0984(2)
H1 H 0.14620 0.73190 0.14560
H2 H -0.02560 0.70840 0.07990
H3 H 0.25820 0.75080 0.07100
C2 C 0.3091(10) 0.6024(2) 0.02399(19)
H4 H 0.40900 0.64160 -0.00300
H5 H 0.13010 0.59610 0.00490
H6 H 0.40170 0.55070 0.02300
C3 C 0.2884(7) 0.63139(19) 0.09661(17)
H7 H 0.47310 0.63760 0.11490
C4 C 0.1445(7) 0.5716(2) 0.14047(18)
H8 H 0.11280 0.59600 0.18570
H9 H -0.03150 0.56050 0.11980
C5 C 0.2857(7) 0.4950(2) 0.15011(15)
H10 H 0.47450 0.49440 0.14720
C6 C 0.3077(6) 0.35231(18) 0.16450(15)
H11 H 0.50300 0.36340 0.16140
C7 C 0.2539(7) 0.30798(19) 0.23050(14)
H12 H 0.05770 0.29890 0.23460
C8 C 0.3930(8) 0.22714(19) 0.23118(16)
H13 H 0.35420 0.19960 0.27410
H14 H 0.58560 0.23510 0.22690
H15 H 0.32890 0.19470 0.19300
C9 C 0.3456(7) 0.3573(2) 0.29096(14)
H16 H 0.30850 0.32800 0.33310
H17 H 0.25020 0.40860 0.29150
H18 H 0.53740 0.36730 0.28730
C10 C 0.2235(6) 0.30625(18) 0.10171(15)
H19 H 0.32440 0.25530 0.09980
H20 H 0.03220 0.29280 0.10560
C11 C 0.5376(6) 0.3491(2) 0.02017(15)
H21 H 0.60060 0.29340 0.01370
H22 H 0.64790 0.37460 0.05590
C12 C 0.5638(7) 0.39443(19) -0.04461(16)
C13 C 0.3906(7) 0.3834(2) -0.09787(17)
H23 H 0.24710 0.34670 -0.09320
C14 C 0.4221(7) 0.4249(2) -0.15805(18)
H24 H 0.30040 0.41690 -0.19450
C15 C 0.6295(8) 0.4779(2) -0.16526(19)
H25 H 0.65220 0.50660 -0.20660
C16 C 0.8022(8) 0.4889(2) -0.11270(19)
H26 H 0.94600 0.52540 -0.11750
C17 C 0.7706(7) 0.4477(2) -0.05286(17)
H27 H 0.89290 0.45600 -0.01670
#END
