
#######################################################################
#
#                 Cambridge Crystallographic Data Centre
#                                CCDC
#
#######################################################################
#
# If this CIF has been generated from an entry in the Cambridge
# Structural Database, then it will include bibliographic, chemical,
# crystal, experimental, refinement or atomic coordinate data resulting
# from the CCDC's data processing and validation procedures.
#
#######################################################################

data_CSD_CIF_QABGEI
_audit_creation_date 2016-03-14
_audit_creation_method CSD-ConQuest-V1
_database_code_CSD QABGEI
_database_code_depnum_ccdc_archive 'CCDC 1440855'
_chemical_formula_sum 'C22 H17 N3 O2'
_chemical_formula_moiety
;
C22 H17 N3 O2
;
_journal_coden_Cambridge 1336
_journal_volume 18
_journal_year 2016
_journal_page_first 1112
_journal_name_full 'Org.Lett. '
loop_
_publ_author_name
"G.S.Kumar"
"M.Kapur"
_chemical_name_systematic
;
5-Nitro-2-(3-phenylprop-2-en-1-yl)-1-(pyridin-2-yl)-1H-indole
;
_cell_volume    866.373
_exptl_crystal_density_diffrn 1.362
_diffrn_ambient_temperature 296
#These two values have been output from a single CSD field.
_refine_ls_R_factor_gt 0.0593
_refine_ls_wR_factor_gt 0.0593
_symmetry_cell_setting triclinic
_symmetry_space_group_name_H-M 'P -1'
_symmetry_Int_Tables_number 2
loop_
_symmetry_equiv_pos_site_id
_symmetry_equiv_pos_as_xyz
1 x,y,z
2 -x,-y,-z
_cell_length_a 3.8511(1)
_cell_length_b 12.3607(4)
_cell_length_c 18.3888(5)
_cell_angle_alpha 82.346(3)
_cell_angle_beta 88.724(2)
_cell_angle_gamma 87.156(2)
_cell_formula_units_Z 2
loop_
_atom_type_symbol
_atom_type_radius_bond
C 0.68
H 0.23
N 0.68
O 0.68
loop_
_atom_site_label
_atom_site_type_symbol
_atom_site_fract_x
_atom_site_fract_y
_atom_site_fract_z
O1 O -0.0755(4) 0.72784(10) 0.06100(7)
N1 N 0.5663(4) 0.27650(11) 0.20389(8)
O2 O 0.1402(4) 0.77060(11) 0.16023(8)
N2 N 0.4617(4) 0.09145(12) 0.20581(8)
N3 N 0.0861(4) 0.70393(12) 0.11853(9)
C1 C 0.6400(4) 0.28255(14) 0.27772(9)
C2 C 0.4467(4) 0.44980(14) 0.22609(9)
C3 C 0.5709(5) 0.38624(14) 0.29192(9)
H1 H 0.59920 0.41170 0.33670
C4 C 0.5899(4) 0.18090(14) 0.16825(9)
C5 C 0.2176(4) 0.59148(13) 0.13805(10)
C6 C 0.4477(4) 0.37924(13) 0.17162(9)
C7 C 0.3306(4) 0.55872(14) 0.20876(10)
H2 H 0.32930 0.60730 0.24330
C8 C 0.7851(4) 0.18560(14) 0.32713(9)
H3 H 0.97630 0.15130 0.30200
H4 H 0.60670 0.13280 0.33770
C9 C 0.2177(4) 0.52188(14) 0.08431(10)
H5 H 0.13870 0.54800 0.03750
C10 C 0.3346(4) 0.41456(14) 0.10044(9)
H6 H 0.33810 0.36720 0.06510
C11 C 0.8172(4) 0.16840(15) 0.46377(10)
H7 H 0.65700 0.11420 0.46550
C12 C 0.7389(4) 0.18428(14) 0.09868(9)
H8 H 0.82900 0.24820 0.07490
C13 C 0.9118(4) 0.21574(15) 0.39788(10)
H9 H 1.06730 0.27140 0.39540
C14 C 0.7498(4) 0.09027(15) 0.06573(10)
H10 H 0.84340 0.09000 0.01870
C15 C 0.9416(5) 0.19350(16) 0.5345(1)
C16 C 0.6195(5) -0.00382(15) 0.10368(10)
H11 H 0.62330 -0.06840 0.08290
C17 C 0.4834(4) 0.00116(15) 0.17342(10)
H12 H 0.40200 -0.06260 0.19940
C18 C 0.9379(5) 0.11401(17) 0.59578(10)
H13 H 0.85090 0.04630 0.59160
C19 C 1.0656(5) 0.29530(17) 0.54343(11)
H14 H 1.06850 0.35040 0.50370
C20 C 1.0602(5) 0.1335(2) 0.66256(11)
H15 H 1.06020 0.07850 0.70240
C21 C 1.1838(5) 0.3149(2) 0.61073(12)
H16 H 1.26500 0.38310 0.61590
C22 C 1.1824(5) 0.2340(2) 0.67036(12)
H17 H 1.26330 0.24750 0.71540
#END
