
#######################################################################
#
#                 Cambridge Crystallographic Data Centre
#                                CCDC
#
#######################################################################
#
# If this CIF has been generated from an entry in the Cambridge
# Structural Database, then it will include bibliographic, chemical,
# crystal, experimental, refinement or atomic coordinate data resulting
# from the CCDC's data processing and validation procedures.
#
#######################################################################

data_CSD_CIF_QABMUB
_audit_creation_date 1999-12-16
_audit_creation_method CSD-ConQuest-V1
_database_code_CSD QABMUB
_chemical_formula_sum 'C17 H21 N1 O5'
_chemical_formula_moiety
;
C17 H21 N1 O5
;
_journal_coden_Cambridge 692
_journal_year 1998
_journal_page_first 1023
_journal_name_full 'Synthesis '
loop_
_publ_author_name
"A.Maestro"
"J.M.Banez"
"J.A.Lopez"
"M.C.Romero-Avila"
_chemical_name_systematic
;
4-((1S,2S,3R)-1,2-Dihydroxy-3,4-(isopropylidenedioxy)butyl)-3-methyl-5-phenyli
soxazole
;
_chemical_melting_point 404.15
_cell_volume   1684.828
_exptl_crystal_colour 'white'
_exptl_crystal_density_diffrn 1.259
_exptl_special_details
;
Melting point range 404.15-405.15K

;
_exptl_crystal_preparation 'hexane/isopropanol'
_diffrn_ambient_temperature ?
_diffrn_special_details
;
The study was carried out at room temperature,in the range 283-303K

;
#These two values have been output from a single CSD field.
_refine_ls_R_factor_gt 0.0445
_refine_ls_wR_factor_gt 0.0445
_symmetry_cell_setting orthorhombic
_symmetry_space_group_name_H-M 'P 21 21 21'
_symmetry_Int_Tables_number 19
loop_
_symmetry_equiv_pos_site_id
_symmetry_equiv_pos_as_xyz
1 x,y,z
2 1/2-x,-y,1/2+z
3 1/2+x,1/2-y,-z
4 -x,1/2+y,1/2-z
_cell_length_a 10.876(2)
_cell_length_b 11.152(2)
_cell_length_c 13.891(2)
_cell_angle_alpha 90
_cell_angle_beta 90
_cell_angle_gamma 90
_cell_formula_units_Z 4
loop_
_atom_type_symbol
_atom_type_radius_bond
C 0.68
H 0.23
N 0.68
O 0.68
loop_
_atom_site_label
_atom_site_type_symbol
_atom_site_fract_x
_atom_site_fract_y
_atom_site_fract_z
C1 C 0.2735(2) 0.1901(2) 0.0983(2)
C2 C 0.2204(3) 0.1079(3) 0.0369(2)
C3 C 0.1552(4) 0.1470(4) -0.0431(3)
C4 C 0.1423(4) 0.2669(4) -0.0616(3)
C5 C 0.1956(4) 0.3491(3) -0.0011(2)
C6 C 0.2622(3) 0.3123(3) 0.0784(2)
C7 C 0.3480(2) 0.1514(2) 0.1809(2)
O1 O 0.4224(2) 0.0564(2) 0.1625(1)
N1 N 0.4973(2) 0.0383(2) 0.2448(2)
C8 C 0.4642(2) 0.1196(2) 0.3071(2)
C9 C 0.5344(3) 0.1285(3) 0.4000(2)
C10 C 0.3664(2) 0.1919(2) 0.2710(2)
C11 C 0.2913(2) 0.2877(2) 0.3219(2)
O2 O 0.3657(2) 0.3721(2) 0.3716(1)
C12 C 0.2019(2) 0.2366(2) 0.3975(2)
O3 O 0.2648(2) 0.1858(2) 0.4774(1)
C13 C 0.1199(3) 0.1392(3) 0.3569(2)
C14 C 0.0193(3) 0.0974(3) 0.4255(2)
O4 O -0.0840(2) 0.1667(2) 0.3983(1)
C15 C -0.0746(3) 0.1853(3) 0.2966(2)
C16 C -0.1278(4) 0.3042(4) 0.2728(3)
C17 C -0.1325(3) 0.0825(3) 0.2417(3)
O5 O 0.0540(2) 0.1865(3) 0.2775(1)
H1 H 0.22830 0.02360 0.04970
H2 H 0.11850 0.08930 -0.08560
H3 H 0.09660 0.29350 -0.11680
H4 H 0.18660 0.43320 -0.01390
H5 H 0.30040 0.37040 0.11970
H6 H 0.50030 0.19150 0.43880
H7 H 0.61910 0.14590 0.38640
H8 H 0.52890 0.05380 0.43420
H9 H 0.24620 0.32490 0.27060
H10 H 0.3986(29) 0.4107(25) 0.3344(20)
H11 H 0.15300 0.30380 0.41740
H12 H 0.3022(32) 0.2337(29) 0.5033(28)
H13 H 0.17430 0.07410 0.34190
H14 H 0.04190 0.11270 0.49110
H15 H 0.00310 0.01340 0.41730
H16 H -0.12180 0.31740 0.20470
H17 H -0.08360 0.36590 0.30630
H18 H -0.21260 0.30600 0.29190
H19 H -0.21930 0.08050 0.25380
H20 H -0.09620 0.00810 0.26180
H21 H -0.11830 0.09400 0.17410
#END
