
#######################################################################
#
#                 Cambridge Crystallographic Data Centre
#                                CCDC
#
#######################################################################
#
# If this CIF has been generated from an entry in the Cambridge
# Structural Database, then it will include bibliographic, chemical,
# crystal, experimental, refinement or atomic coordinate data resulting
# from the CCDC's data processing and validation procedures.
#
#######################################################################

data_CSD_CIF_QABWIZ
_audit_creation_date 1999-12-16
_audit_creation_method CSD-ConQuest-V1
_database_code_CSD QABWIZ
_chemical_formula_sum 'C27 H32 N2 O8'
_chemical_formula_moiety
;
C27 H32 N2 O8
;
_journal_coden_Cambridge 1090
_journal_volume 10
_journal_year 1999
_journal_page_first 77
_journal_name_full 'Tetrahedron:Asymm. '
loop_
_publ_author_name
"P.Borrachero"
"F.Cabrera"
"M.J.Dianez"
"M.D.Estrada"
"M.Gomez-Guillen"
"A.Lopez-Castro"
"J.M.Moreno"
"J.L.de Paz"
"S.Perez-Garrido"
_chemical_name_systematic
;
(2S,3R,4R,5R)-2-Benzyl-5-(1,2:3,4-di-O-isoproylidene-\a-D-galacto-pentopyranos
-5-yl)-4-nitro-3-phenylisoxazolidine
;
_chemical_melting_point 418.15
_cell_volume   1378.973
_exptl_crystal_colour 'colorless'
_exptl_crystal_density_diffrn 1.23
_exptl_special_details
;
Melting point range 418.15-420.15K

;
_exptl_crystal_description 'prisms'
_exptl_crystal_preparation 'ethanol'
_diffrn_ambient_temperature ?
_diffrn_special_details
;
The study was carried out at room temperature,in the range 283-303K

;
#These two values have been output from a single CSD field.
_refine_ls_R_factor_gt 0.046
_refine_ls_wR_factor_gt 0.046
_symmetry_cell_setting monoclinic
_symmetry_space_group_name_H-M 'P 21'
_symmetry_Int_Tables_number 4
loop_
_symmetry_equiv_pos_site_id
_symmetry_equiv_pos_as_xyz
1 x,y,z
2 -x,1/2+y,-z
_cell_length_a 11.331(8)
_cell_length_b 12.841(1)
_cell_length_c 9.709(8)
_cell_angle_alpha 90
_cell_angle_beta 102.54(1)
_cell_angle_gamma 90
_cell_formula_units_Z 2
loop_
_atom_type_symbol
_atom_type_radius_bond
C 0.68
H 0.23
N 0.68
O 0.68
loop_
_atom_site_label
_atom_site_type_symbol
_atom_site_fract_x
_atom_site_fract_y
_atom_site_fract_z
O1 O -0.0480(3) 0.81800 0.5283(4)
O2 O -0.0834(3) 0.9015(4) 0.7206(4)
O3 O 0.0449(3) 0.6958(4) 0.9580(4)
O4 O 0.2386(3) 0.7438(5) 0.9662(4)
O5 O 0.3702(3) 0.9154(4) 0.7778(3)
O6 O 0.1183(3) 0.7381(4) 0.6668(3)
O7 O 0.5151(5) 0.7305(6) 0.6079(8)
O8 O 0.3683(6) 0.6438(6) 0.5071(8)
N1 N 0.4085(5) 0.7218(5) 0.5589(6)
N2 N 0.3381(4) 0.9815(5) 0.6519(4)
C1 C -0.0081(4) 0.7478(5) 0.6412(5)
C2 C -0.0545(5) 0.7969(6) 0.7642(6)
C3 C 0.0366(5) 0.7997(6) 0.9040(6)
C4 C 0.1671(5) 0.8255(5) 0.8925(5)
C5 C 0.1796(4) 0.8263(5) 0.7392(5)
C6 C 0.3112(4) 0.8194(5) 0.7290(5)
C7 C 0.3238(4) 0.8097(5) 0.5752(5)
C8 C 0.3766(5) 0.9154(5) 0.5446(5)
C9 C 0.4117(5) 1.0754(6) 0.6833(6)
C10 C -0.1210(5) 0.8992(6) 0.5695(6)
C11 C -0.0908(6) 1.0024(7) 0.5109(8)
C12 C -0.2542(5) 0.8717(8) 0.5249(8)
C13 C 0.1658(6) 0.6798(6) 1.0343(6)
C14 C 0.1995(8) 0.5680(8) 1.0209(10)
C15 C 0.1803(7) 0.7128(9) 1.1861(7)
C16 C 0.3259(7) 0.9570(6) 0.3982(6)
C17 C 0.4029(9) 0.9722(8) 0.3067(7)
C18 C 0.3553(16) 1.0135(11) 0.1723(11)
C19 C 0.2378(20) 1.0369(9) 0.1357(12)
C20 C 0.1606(14) 1.0212(9) 0.2227(10)
C21 C 0.2059(9) 0.9811(8) 0.3558(7)
C22 C 0.3632(5) 1.1498(5) 0.7776(5)
C23 C 0.2392(6) 1.1654(6) 0.7617(7)
C24 C 0.1943(7) 1.2377(8) 0.8437(9)
C25 C 0.2737(9) 1.2948(7) 0.9428(9)
C26 C 0.3954(9) 1.2817(7) 0.9570(8)
C27 C 0.4402(6) 1.2096(6) 0.8751(7)
H1 H 0.34900 0.75700 0.78600
H2 H 0.14200 0.89400 0.69400
H3 H 0.19500 0.89700 0.93400
H4 H -0.03900 0.67400 0.62300
H5 H 0.00800 0.85700 0.96100
H6 H -0.12700 0.75400 0.78000
H7 H 0.50000 1.05900 0.72300
H8 H 0.42200 1.11200 0.59300
H9 H 0.24400 0.79400 0.50900
H10 H 0.46700 0.91400 0.54900
H11 H 0.18000 1.12700 0.68400
H12 H -0.26900 0.80200 0.56500
H13 H -0.30400 0.92500 0.56600
H14 H -0.28200 0.87100 0.42100
H15 H 0.53200 1.20100 0.88700
H16 H -0.13300 1.06200 0.54800
H17 H -0.00100 1.01600 0.53700
H18 H -0.11600 1.00300 0.40400
H19 H 0.23700 1.34700 1.00300
H20 H 0.10400 1.24400 0.83600
H21 H 0.45400 1.32500 1.02900
H22 H 0.49400 0.95200 0.33800
H23 H 0.14300 0.52000 1.05800
H24 H 0.19200 0.54900 0.91700
H25 H 0.28400 0.55400 1.07200
H26 H 0.16000 0.79000 1.19000
H27 H 0.12300 0.67300 1.23300
H28 H 0.26500 0.70200 1.24100
H29 H 0.20500 1.06900 0.03700
H30 H 0.14800 0.97000 0.42400
H31 H 0.07100 1.03800 0.19000
H32 H 0.40800 1.02600 0.10100
#END
