
#######################################################################
#
#                 Cambridge Crystallographic Data Centre
#                                CCDC
#
#######################################################################
#
# If this CIF has been generated from an entry in the Cambridge
# Structural Database, then it will include bibliographic, chemical,
# crystal, experimental, refinement or atomic coordinate data resulting
# from the CCDC's data processing and validation procedures.
#
#######################################################################

data_CSD_CIF_QACYAW
_audit_creation_date 2011-04-06
_audit_creation_method CSD-ConQuest-V1
_database_code_CSD QACYAW
_database_code_depnum_ccdc_archive 'CCDC 805304'
_chemical_formula_sum 'C16 H11 N1 O2'
_chemical_formula_moiety
;
C16 H11 N1 O2
;
_journal_coden_Cambridge 1336
_journal_volume 12
_journal_year 2010
_journal_page_first 2453
_journal_name_full 'Org.Lett. '
loop_
_publ_author_name
"I.Nakamura"
"M.Okamoto"
"M.Terada"
_chemical_name_systematic
;
4-Benzylidene-3-phenyl-1,2-oxazol-5(4H)-one
;
_cell_volume   1183.666
_exptl_crystal_colour 'colorless'
_exptl_crystal_density_diffrn 1.399
_exptl_crystal_description 'prism'
_diffrn_ambient_temperature 150
#These two values have been output from a single CSD field.
_refine_ls_R_factor_gt 0.0398
_refine_ls_wR_factor_gt 0.0398
_symmetry_cell_setting monoclinic
_symmetry_space_group_name_H-M 'P 21/a'
_symmetry_Int_Tables_number 14
loop_
_symmetry_equiv_pos_site_id
_symmetry_equiv_pos_as_xyz
1 x,y,z
2 1/2-x,1/2+y,-z
3 -x,-y,-z
4 -1/2+x,-1/2-y,z
_cell_length_a 11.701(7)
_cell_length_b 5.714(3)
_cell_length_c 17.818(11)
_cell_angle_alpha 90
_cell_angle_beta 96.491(9)
_cell_angle_gamma 90
_cell_formula_units_Z 4
loop_
_atom_type_symbol
_atom_type_radius_bond
C 0.68
H 0.23
N 0.68
O 0.68
loop_
_atom_site_label
_atom_site_type_symbol
_atom_site_fract_x
_atom_site_fract_y
_atom_site_fract_z
O1 O 0.51134(8) 1.04833(19) 0.76898(6)
O2 O 0.55981(9) 0.8052(2) 0.67930(6)
N1 N 0.42566(10) 1.0626(2) 0.82165(7)
C1 C 0.41912(12) 0.3910(2) 0.60879(8)
C2 C 0.33586(12) 0.3845(2) 0.65930(8)
C3 C 0.36053(12) 0.8799(2) 0.80957(8)
C4 C 0.08776(12) 0.7691(2) 0.94598(8)
C5 C 0.17318(12) 0.6014(2) 0.94384(8)
C6 C 0.26061(12) 0.6350(2) 0.89850(8)
C7 C 0.17883(12) 1.0088(2) 0.85902(8)
C8 C 0.25171(12) 0.2066(2) 0.64988(8)
C9 C 0.49437(13) 0.8483(2) 0.72518(9)
C10 C 0.33487(13) 0.0538(2) 0.54330(9)
C11 C 0.39208(11) 0.7320(2) 0.74891(8)
C12 C 0.25220(13) 0.0420(2) 0.59311(8)
C13 C 0.26495(12) 0.8410(2) 0.85623(8)
C14 C 0.41809(13) 0.2280(2) 0.55136(8)
C15 C 0.32822(12) 0.5449(2) 0.72140(8)
C16 C 0.09077(13) 0.9718(2) 0.90324(8)
H1 H 0.47660 0.50910 0.61400
H2 H 0.02730 0.74540 0.97660
H3 H 0.17160 0.46380 0.97360
H4 H 0.31770 0.51810 0.89570
H5 H 0.18090 1.14790 0.83000
H6 H 0.19380 0.20110 0.68320
H7 H 0.33480 -0.05730 0.50360
H8 H 0.19620 -0.07910 0.58840
H9 H 0.47470 0.23490 0.51720
H10 H 0.26490 0.51330 0.74890
H11 H 0.03210 1.08620 0.90450
#END
