
#######################################################################
#
#                 Cambridge Crystallographic Data Centre
#                                CCDC
#
#######################################################################
#
# If this CIF has been generated from an entry in the Cambridge
# Structural Database, then it will include bibliographic, chemical,
# crystal, experimental, refinement or atomic coordinate data resulting
# from the CCDC's data processing and validation procedures.
#
#######################################################################

data_CSD_CIF_QADDAC
_audit_creation_date 2011-04-07
_audit_creation_method CSD-ConQuest-V1
_database_code_CSD QADDAC
_database_code_depnum_ccdc_archive 'CCDC 759107'
_chemical_formula_sum 'C21 H24 N4 O6'
_chemical_formula_moiety
;
C21 H24 N4 O6
;
_journal_coden_Cambridge 1336
_journal_volume 12
_journal_year 2010
_journal_page_first 2528
_journal_name_full 'Org.Lett. '
loop_
_publ_author_name
"Lei Jiao"
"Mu Lin"
"Lian-Gang Zhuo"
"Zhi-Xiang Yu"
_chemical_name_systematic
;
(2R,4aR,E)-methyl 
7-(2-(2,4-dinitrophenyl)hydrazono)-8-methyl-4a-vinyl-1,2,3,4,4a,5,6,7-octahydr
onaphthalene-2-carboxylate
;
_chemical_name_common
;
Methyl 
7-((2,4-dinitrophenyl)hydrazono)-8-methyl-4a-vinyl-1,2,3,4,4a,5,6,7-octahydron
aphthalene-2-carboxylate
;
_chemical_melting_point 428
_cell_volume   2048.531
_exptl_crystal_colour 'brown'
_exptl_crystal_density_diffrn 1.389
_exptl_crystal_description 'plate'
_diffrn_ambient_temperature 173
_refine_special_details
;
N2',O3',O4' and N2,O3,O4 disordered over two sites with occupancies 
;
#These two values have been output from a single CSD field.
_refine_ls_R_factor_gt 0.0603
_refine_ls_wR_factor_gt 0.0603
_symmetry_cell_setting monoclinic
_symmetry_space_group_name_H-M 'P 21/n'
_symmetry_Int_Tables_number 14
loop_
_symmetry_equiv_pos_site_id
_symmetry_equiv_pos_as_xyz
1 x,y,z
2 1/2-x,1/2+y,1/2-z
3 -x,-y,-z
4 -1/2+x,-1/2-y,-1/2+z
_cell_length_a 7.8464(16)
_cell_length_b 7.4777(15)
_cell_length_c 34.944(7)
_cell_angle_alpha 90
_cell_angle_beta 92.36(3)
_cell_angle_gamma 90
_cell_formula_units_Z 4
loop_
_atom_type_symbol
_atom_type_radius_bond
C 0.68
H 0.23
N 0.68
O 0.68
loop_
_atom_site_label
_atom_site_type_symbol
_atom_site_fract_x
_atom_site_fract_y
_atom_site_fract_z
O1 O 0.6400(2) 0.4521(2) 0.10537(5)
O2 O 0.3713(3) 0.4557(3) 0.11701(5)
O3 O -0.0232(11) 0.736(3) 0.0305(3)
O4 O 0.0427(16) 0.841(2) -0.0239(3)
N1 N 0.0848(8) 0.768(2) 0.0069(3)
O5 O 0.7389(3) 1.5432(2) -0.20407(5)
O6 O 0.9072(2) 1.3635(3) -0.16849(6)
N2 N 0.4915(3) 0.4931(3) 0.09690(5)
N3 N 0.3647(2) 0.8521(3) -0.04189(5)
H1 H 0.25840 0.86150 -0.05070
N4 N 0.5009(2) 0.9005(3) -0.06349(5)
C1 C 0.4568(3) 0.5914(3) 0.06165(6)
C2 C 0.2922(3) 0.6247(3) 0.04991(6)
H2 H 0.20090 0.58770 0.06510
C3 C 0.2596(3) 0.7134(3) 0.01552(6)
C4 C 0.3933(3) 0.7715(3) -0.00770(6)
C5 C 0.5626(3) 0.7364(3) 0.00642(6)
H3 H 0.65610 0.77480 -0.00790
C6 C 0.5927(3) 0.6487(3) 0.04012(6)
H4 H 0.70670 0.62640 0.04910
C7 C 0.4612(3) 0.9667(3) -0.09698(6)
C8 C 0.6045(3) 1.0074(3) -0.12150(6)
C9 C 0.5758(3) 1.0546(3) -0.15860(6)
C10 C 0.7164(3) 1.0603(3) -0.18696(6)
H5 H 0.70820 0.95150 -0.20310
H6 H 0.82760 1.05640 -0.17250
C11 C 0.7145(3) 1.2244(3) -0.21337(6)
H7 H 0.79060 1.19530 -0.23480
C12 C 0.5369(3) 1.2542(4) -0.23157(6)
H8 H 0.53520 1.36660 -0.24660
H9 H 0.50740 1.15440 -0.24930
C13 C 0.4063(3) 1.2649(3) -0.20066(6)
H10 H 0.29230 1.28680 -0.21300
H11 H 0.43440 1.36800 -0.18380
C14 C 0.3984(3) 1.0942(3) -0.17589(6)
C15 C 0.2730(3) 1.1301(3) -0.14436(6)
H12 H 0.29750 1.24920 -0.13300
H13 H 0.15570 1.13290 -0.15590
C16 C 0.2821(3) 0.9911(3) -0.11291(7)
H14 H 0.20800 1.02820 -0.09210
H15 H 0.23880 0.87560 -0.12320
C17 C 0.7822(3) 0.9769(4) -0.10391(6)
H16 H 0.81990 0.85540 -0.10990
H17 H 0.78020 0.99170 -0.07610
H18 H 0.86120 1.06380 -0.11440
C18 C 0.7832(3) 1.3947(4) -0.19519(7)
C19 C 0.9910(4) 1.5221(4) -0.15255(10)
H19 H 1.07290 1.56740 -0.17060
H20 H 1.05110 1.49130 -0.12830
H21 H 0.90540 1.61420 -0.14800
C20 C 0.3295(3) 0.9403(3) -0.20030(7)
H22 H 0.23780 0.96810 -0.21790
C21 C 0.3815(3) 0.7739(3) -0.19995(7)
H23 H 0.47280 0.73810 -0.18290
H24 H 0.32800 0.68890 -0.21670
N5? N 0.0826(8) 0.719(3) 0.0023(4)
O7? O -0.0275(13) 0.658(3) 0.0224(4)
O8? O 0.0461(19) 0.781(2) -0.0298(3)
#END
