
#######################################################################
#
#                 Cambridge Crystallographic Data Centre
#                                CCDC
#
#######################################################################
#
# If this CIF has been generated from an entry in the Cambridge
# Structural Database, then it will include bibliographic, chemical,
# crystal, experimental, refinement or atomic coordinate data resulting
# from the CCDC's data processing and validation procedures.
#
#######################################################################

data_CSD_CIF_QADLOW
_audit_creation_date 1999-12-16
_audit_creation_method CSD-ConQuest-V1
_database_code_CSD QADLOW
_database_code_depnum_ccdc_archive 'CCDC 1241295'
_chemical_formula_sum 'C14 H15 N1 O5'
_chemical_formula_moiety
;
C14 H15 N1 O5
;
_journal_coden_Cambridge 194
_journal_volume 46
_journal_year 1998
_journal_page_first 744
_journal_name_full 'Chem.Pharm.Bull. '
loop_
_publ_author_name
"T.Yakura"
"S.Yamada"
"M.Shima"
"M.Iwamoto"
"M.Ikeda"
_chemical_name_systematic
;
Methyl (2R*,3S*)-3-methyl-3-nitro-2-phenyltetrahydrofuran-(E)-\D^4,\a^-acetate
;
_chemical_melting_point 366.15
_cell_volume   1407.335
_exptl_crystal_colour 'colorless'
_exptl_crystal_density_diffrn 1.309
_exptl_special_details
;
Melting point range 366.15-367.15K

;
_exptl_crystal_description 'prism'
_exptl_crystal_preparation 'hexane/ethyl acetate'
_diffrn_ambient_temperature ?
_diffrn_special_details
;
The study was carried out at room temperature,in the range 283-303K

;
#These two values have been output from a single CSD field.
_refine_ls_R_factor_gt 0.059
_refine_ls_wR_factor_gt 0.059
_symmetry_cell_setting triclinic
_symmetry_space_group_name_H-M 'P -1'
_symmetry_Int_Tables_number 2
loop_
_symmetry_equiv_pos_site_id
_symmetry_equiv_pos_as_xyz
1 x,y,z
2 -x,-y,-z
_cell_length_a 12.0949(9)
_cell_length_b 16.619(2)
_cell_length_c 7.4647(6)
_cell_angle_alpha 91.425(8)
_cell_angle_beta 105.680(6)
_cell_angle_gamma 102.078(7)
_cell_formula_units_Z 4
loop_
_atom_type_symbol
_atom_type_radius_bond
C 0.68
H 0.23
N 0.68
O 0.68
loop_
_atom_site_label
_atom_site_type_symbol
_atom_site_fract_x
_atom_site_fract_y
_atom_site_fract_z
O1 O 0.1558(2) 0.5313(2) -0.0502(3)
O2 O 0.4572(3) 0.3738(2) 0.2891(3)
O3 O 0.5042(2) 0.3250(2) 0.0465(3)
O4 O 0.1925(3) 0.3470(2) 0.2655(4)
O5 O 0.3013(3) 0.4316(2) 0.4985(3)
N1 N 0.2576(3) 0.4133(2) 0.3326(4)
C1 C 0.1560(3) 0.5073(2) 0.1309(4)
C2 C 0.2759(3) 0.4788(2) 0.1987(4)
C3 C 0.2859(3) 0.4421(2) 0.0172(4)
C4 C 0.1949(3) 0.4692(3) -0.1371(4)
C5 C 0.1413(2) 0.5762(2) 0.2494(4)
C6 C 0.1153(3) 0.5599(2) 0.4160(4)
C7 C 0.1049(3) 0.6224(2) 0.5308(5)
C8 C 0.1169(3) 0.7014(2) 0.4797(6)
C9 C 0.1389(4) 0.7176(2) 0.3123(7)
C10 C 0.1527(4) 0.6565(2) 0.1982(5)
C11 C 0.3797(3) 0.5489(2) 0.2895(5)
C12 C 0.3578(3) 0.3981(2) -0.0174(4)
C13 C 0.4441(3) 0.3664(2) 0.1249(5)
C14 C 0.5909(4) 0.2889(3) 0.1715(6)
H1 H 0.09030 0.46000 0.12590
H2 H 0.12640 0.42450 -0.20110
H3 H 0.22120 0.48510 -0.24440
H4 H 0.10920 0.50330 0.45270
H5 H 0.08870 0.60670 0.64860
H6 H 0.11480 0.74780 0.56120
H7 H 0.14750 0.77570 0.28390
H8 H 0.15940 0.66680 0.07170
H9 H 0.38080 0.57530 0.40680
H10 H 0.38110 0.58650 0.19430
H11 H 0.45300 0.53170 0.31890
H12 H 0.34680 0.38050 -0.14830
H13 H 0.62930 0.32090 0.28300
H14 H 0.54290 0.23610 0.21200
H15 H 0.63970 0.26920 0.11490
O6 O 0.8224(2) -0.0331(2) -0.2826(3)
O7 O 0.5266(3) 0.1288(2) -0.1834(4)
O8 O 0.4854(2) 0.1815(2) -0.4598(4)
O9 O 0.7964(3) 0.1603(2) 0.0129(4)
O10 O 0.6947(3) 0.0796(2) 0.1589(4)
N2 N 0.7337(3) 0.0949(2) 0.0258(4)
C15 C 0.8303(3) -0.0027(2) -0.0985(5)
C16 C 0.7111(3) 0.0258(2) -0.1253(4)
C17 C 0.6953(3) 0.0577(2) -0.3181(5)
C18 C 0.7794(4) 0.0249(3) -0.4023(6)
C19 C 0.8523(3) -0.0675(2) 0.0347(5)
C20 C 0.8841(3) -0.0459(2) 0.2254(5)
C21 C 0.9007(3) -0.1044(3) 0.3508(6)
C22 C 0.8876(4) -0.1861(3) 0.2891(7)
C23 C 0.8599(5) -0.2066(3) 0.1019(8)
C24 C 0.8401(4) -0.1484(2) -0.0262(6)
C25 C 0.6103(3) -0.0442(2) -0.1170(5)
C26 C 0.6238(3) 0.1018(2) -0.4093(5)
C27 C 0.5416(3) 0.1375(2) -0.3344(5)
C28 C 0.4016(4) 0.2199(3) -0.4073(6)
H16 H 0.89880 0.04500 -0.05960
H17 H 0.84050 0.07300 -0.41260
H18 H 0.73810 -0.00750 -0.52130
H19 H 0.91240 0.01180 0.27610
H20 H 0.92960 -0.08240 0.48510
H21 H 0.89120 -0.23120 0.37240
H22 H 0.85420 -0.26180 0.04320
H23 H 0.83090 -0.16430 -0.15810
H24 H 0.59920 -0.08800 -0.20720
H25 H 0.62200 -0.06230 0.00310
H26 H 0.53700 -0.02380 -0.14650
H27 H 0.63430 0.11720 -0.53120
H28 H 0.34380 0.23280 -0.52120
H29 H 0.43960 0.27510 -0.34160
H30 H 0.35810 0.19010 -0.33640
#END
