
#######################################################################
#
#                 Cambridge Crystallographic Data Centre
#                                CCDC
#
#######################################################################
#
# If this CIF has been generated from an entry in the Cambridge
# Structural Database, then it will include bibliographic, chemical,
# crystal, experimental, refinement or atomic coordinate data resulting
# from the CCDC's data processing and validation procedures.
#
#######################################################################

data_CSD_CIF_QADNEQ
_audit_creation_date 2011-03-31
_audit_creation_method CSD-ConQuest-V1
_database_code_CSD QADNEQ
_database_code_depnum_ccdc_archive 'CCDC 730149'
_chemical_formula_sum 'C21 H18 N2 O6'
_chemical_formula_moiety
;
C21 H18 N2 O6
;
_journal_coden_Cambridge 151
_journal_volume 53
_journal_year 2010
_journal_page_first 504
_journal_name_full 'J.Med.Chem. '
loop_
_publ_author_name
"E.N.da Silva Junior"
"C.F.de Deus"
"B.C.Cavalcanti"
"C.Pessoa"
"L.V.Costa-Lotufo"
"R.C.Montenegro"
"M.O.de Moraes"
"M.do C.F.R.Pinto"
"C.A.de Simone"
"V.F.Ferreira"
"M.O.F.Goulart"
"C.K.Z.Andrade"
"A.V.Pinto"
_chemical_name_systematic
;
3-((4-Methoxy-2-nitrophenyl)amino)-2,2-dimethyl-2,3-dihydronaphtho[1,2-b]furan
-4,5-dione
;
_chemical_melting_point 376.15
_cell_volume    925.634
_exptl_crystal_colour 'colorless'
_exptl_crystal_density_diffrn 1.415
_exptl_special_details
;
Melting point range 376.15-377.15K
Tested for cytotoxic activity against four cancer cell lines
;
_exptl_crystal_description 'prism'
_diffrn_ambient_temperature 295
#These two values have been output from a single CSD field.
_refine_ls_R_factor_gt 0.0595
_refine_ls_wR_factor_gt 0.0595
_symmetry_cell_setting triclinic
_symmetry_space_group_name_H-M 'P -1'
_symmetry_Int_Tables_number 2
loop_
_symmetry_equiv_pos_site_id
_symmetry_equiv_pos_as_xyz
1 x,y,z
2 -x,-y,-z
_cell_length_a 8.0284(4)
_cell_length_b 11.4548(5)
_cell_length_c 12.1526(6)
_cell_angle_alpha 62.499(4)
_cell_angle_beta 76.733(3)
_cell_angle_gamma 69.536(3)
_cell_formula_units_Z 2
loop_
_atom_type_symbol
_atom_type_radius_bond
C 0.68
H 0.23
N 0.68
O 0.68
loop_
_atom_site_label
_atom_site_type_symbol
_atom_site_fract_x
_atom_site_fract_y
_atom_site_fract_z
O1 O 0.3354(2) 0.51478(16) 0.93119(15)
O2 O 0.1400(2) 0.78159(15) 1.15209(15)
O3 O 0.5281(2) 1.23309(17) 0.44180(16)
N1 N 0.2392(2) 0.85592(18) 0.85727(16)
H1 H 0.13540 0.85160 0.85490
O4 O -0.0270(2) 0.94450(19) 0.72372(17)
O5 O 0.1405(3) 0.34384(18) 1.09564(17)
C1 C 0.2373(3) 0.6519(2) 1.04316(19)
N2 N 0.0401(3) 1.0322(2) 0.6393(2)
C2 C 0.3269(3) 0.7642(2) 0.9714(2)
H2 H 0.45440 0.72610 0.95290
C3 C 0.3069(3) 0.9487(2) 0.7531(2)
C4 C 0.0117(3) 0.4801(2) 1.2084(2)
C5 C 0.1303(3) 0.4445(2) 1.1089(2)
O6 O -0.0415(3) 1.1181(3) 0.5481(2)
C6 C 0.5441(3) 1.0564(2) 0.6431(2)
H3 H 0.65700 1.06250 0.64230
C7 C 0.1298(3) 0.6751(2) 1.1381(2)
C8 C 0.2455(3) 0.5399(2) 1.0169(2)
C9 C 0.4767(3) 0.9631(2) 0.7461(2)
H4 H 0.54510 0.90720 0.81390
C10 C 0.4470(3) 1.1429(2) 0.5388(2)
C11 C 0.2821(3) 1.1323(2) 0.5406(2)
H5 H 0.21540 1.18900 0.47200
C12 C -0.0955(3) 0.3988(2) 1.2898(2)
H6 H -0.09260 0.32080 1.28240
C13 C 0.0098(3) 0.5957(2) 1.2226(2)
C14 C -0.2076(4) 0.4327(3) 1.3825(2)
H7 H -0.28060 0.37810 1.43640
C15 C 0.2139(3) 1.0360(2) 0.6458(2)
C16 C 0.2483(3) 0.9784(2) 1.0187(2)
H8 H 0.15000 1.01840 0.96800
H9 H 0.34870 1.01000 0.96940
H10 H 0.21470 1.00490 1.08680
C17 C 0.4329(4) 1.3242(3) 0.3353(2)
H11 H 0.50370 1.38150 0.27440
H12 H 0.32340 1.38030 0.35830
H13 H 0.40690 1.27250 0.30100
C18 C -0.2108(4) 0.5466(3) 1.3944(3)
H14 H -0.28710 0.56920 1.45630
C19 C 0.2979(3) 0.8240(2) 1.0688(2)
C20 C 0.4520(4) 0.7527(3) 1.1497(2)
H15 H 0.47810 0.65520 1.17870
H16 H 0.42110 0.77590 1.21960
H17 H 0.55500 0.78150 1.10220
C21 C -0.1020(4) 0.6286(3) 1.3157(2)
H18 H -0.10400 0.70510 1.32530
#END
