
#######################################################################
#
#                 Cambridge Crystallographic Data Centre
#                                CCDC
#
#######################################################################
#
# If this CIF has been generated from an entry in the Cambridge
# Structural Database, then it will include bibliographic, chemical,
# crystal, experimental, refinement or atomic coordinate data resulting
# from the CCDC's data processing and validation procedures.
#
#######################################################################

data_CSD_CIF_QADRUJ
_audit_creation_date 2003-05-06
_audit_creation_method CSD-ConQuest-V1
_database_code_CSD QADRUJ
_database_code_depnum_ccdc_archive 'CCDC 204310'
_chemical_formula_sum 'C22 H21 N1 O7'
_chemical_formula_moiety
;
C22 H21 N1 O7
;
_journal_coden_Cambridge 1336
_journal_volume 4
_journal_year 2002
_journal_page_first 3059
_journal_name_full 'Org.Lett. '
loop_
_publ_author_name
"T.J.Donohoe"
"A.Raoof"
"G.C.Freestone"
"I.D.Linney"
"A.Cowley"
"M.Helliwell"
_chemical_name_systematic
;
2,6-Dimethylphenyl 
2-methyl-3-(4-nitrobenzoyloxy)-2,3-dihydro-6H-pyran-2-carboxylate
;
_cell_volume   2025.806
_exptl_crystal_colour 'pale yellow'
_exptl_crystal_density_diffrn 1.349
_exptl_crystal_description 'needle'
_diffrn_ambient_temperature 150
#These two values have been output from a single CSD field.
_refine_ls_R_factor_gt 0.0456
_refine_ls_wR_factor_gt 0.0456
_symmetry_cell_setting monoclinic
_symmetry_space_group_name_H-M 'P 21'
_symmetry_Int_Tables_number 4
loop_
_symmetry_equiv_pos_site_id
_symmetry_equiv_pos_as_xyz
1 x,y,z
2 -x,1/2+y,-z
_cell_length_a 11.1697(2)
_cell_length_b 7.6925(1)
_cell_length_c 23.6812(5)
_cell_angle_alpha 90
_cell_angle_beta 95.3763(11)
_cell_angle_gamma 90
_cell_formula_units_Z 4
loop_
_atom_type_symbol
_atom_type_radius_bond
C 0.68
H 0.23
N 0.68
O 0.68
loop_
_atom_site_label
_atom_site_type_symbol
_atom_site_fract_x
_atom_site_fract_y
_atom_site_fract_z
C1 C 0.2794(3) 0.3983(4) 0.37969(12)
C2 C 0.1886(2) 0.4392(4) 0.4226(1)
C3 C 0.0973(3) 0.2974(5) 0.42382(13)
C4 C 0.1130(3) 0.1438(5) 0.40091(14)
C5 C 0.2230(3) 0.0999(5) 0.37236(16)
C6 C 0.2228(3) 0.4427(6) 0.31958(12)
C7 C 0.3903(3) 0.5137(4) 0.38998(11)
C8 C 0.5996(3) 0.5250(4) 0.37879(14)
C9 C 0.6773(3) 0.5248(4) 0.42818(14)
C10 C 0.7909(3) 0.5973(5) 0.42414(17)
C11 C 0.8227(3) 0.6662(5) 0.37399(18)
C12 C 0.7418(3) 0.6679(5) 0.32634(16)
C13 C 0.6273(3) 0.5966(4) 0.32748(15)
C14 C 0.6406(3) 0.4537(5) 0.48316(15)
C15 C 0.5375(4) 0.5965(5) 0.27595(17)
C16 C 0.2031(2) 0.5446(4) 0.51689(12)
C17 C 0.2787(2) 0.5522(4) 0.57285(11)
C18 C 0.3914(2) 0.4727(4) 0.58046(11)
C19 C 0.4588(2) 0.4825(4) 0.63242(11)
C20 C 0.4090(3) 0.5698(4) 0.67569(12)
C21 C 0.2977(3) 0.6484(4) 0.67026(12)
C22 C 0.2324(3) 0.6397(4) 0.61753(12)
N1 N 0.4798(2) 0.5746(4) 0.73178(11)
O1 O 0.31732(17) 0.2223(3) 0.38497(9)
O2 O 0.3858(2) 0.6646(3) 0.4034(1)
O3 O 0.49065(18) 0.4303(3) 0.37841(9)
O4 O 0.25642(16) 0.4512(3) 0.47858(8)
O5 O 0.1082(2) 0.6148(4) 0.5079(1)
O6 O 0.5815(2) 0.5129(4) 0.7353(1)
O7 O 0.4343(2) 0.6404(4) 0.7712(1)
C23 C 0.2156(2) 0.2159(4) 0.11265(11)
C24 C 0.3027(2) 0.2574(4) 0.06788(11)
C25 C 0.3982(2) 0.1191(4) 0.06819(12)
C26 C 0.3884(2) -0.0304(4) 0.09481(13)
C27 C 0.2818(3) -0.0766(4) 0.12548(12)
C28 C 0.2734(3) 0.2741(5) 0.17154(11)
C29 C 0.1005(2) 0.3237(4) 0.10229(11)
C30 C -0.1074(2) 0.3229(4) 0.11605(12)
C31 C -0.1852(3) 0.3236(4) 0.06630(12)
C32 C -0.3002(3) 0.3904(5) 0.07053(14)
C33 C -0.3342(3) 0.4513(5) 0.12171(15)
C34 C -0.2538(3) 0.4503(5) 0.16962(14)
C35 C -0.1386(3) 0.3856(4) 0.16769(13)
C36 C -0.1469(3) 0.2556(5) 0.01129(12)
C37 C -0.0503(3) 0.3833(5) 0.21996(13)
C38 C 0.2855(2) 0.3475(4) -0.02789(12)
C39 C 0.2092(2) 0.3514(4) -0.08380(11)
C40 C 0.0966(2) 0.2747(4) -0.09020(11)
C41 C 0.0277(2) 0.2841(4) -0.14242(12)
C42 C 0.0747(2) 0.3704(4) -0.18602(12)
C43 C 0.1872(3) 0.4479(4) -0.18102(12)
C44 C 0.2550(3) 0.4386(4) -0.12865(12)
N2 N 0.0005(3) 0.3822(4) -0.24129(11)
O8 O 0.18274(17) 0.0384(3) 0.11115(8)
O9 O 0.09949(18) 0.4736(3) 0.08787(9)
O10 O 0.00361(17) 0.2350(3) 0.11605(9)
O11 O 0.23243(15) 0.2596(3) 0.01216(7)
O12 O 0.38235(18) 0.4142(4) -0.02029(9)
O13 O -0.1000(2) 0.3187(4) -0.24470(11)
O14 O 0.0438(2) 0.4536(4) -0.2805(1)
H1 H 0.14540 0.54990 0.41180
H2 H 0.02220 0.31960 0.44260
H3 H 0.04900 0.05350 0.40270
H4 H 0.25210 -0.01780 0.38540
H5 H 0.20160 0.09790 0.33040
H6 H 0.28160 0.41620 0.29140
H7 H 0.20170 0.56900 0.31760
H8 H 0.14840 0.37160 0.31070
H9 H 0.85040 0.59920 0.45840
H10 H 0.90510 0.71540 0.37220
H11 H 0.76560 0.72080 0.29050
H12 H 0.70900 0.46560 0.51330
H13 H 0.56970 0.52020 0.49450
H14 H 0.61870 0.32820 0.47820
H15 H 0.57390 0.65320 0.24360
H16 H 0.46410 0.66220 0.28450
H17 H 0.51500 0.47400 0.26560
H18 H 0.42330 0.40860 0.54830
H19 H 0.54040 0.42840 0.63850
H20 H 0.26540 0.70920 0.70290
H21 H 0.15160 0.69650 0.61160
H22 H 0.34270 0.37200 0.07620
H23 H 0.47100 0.14110 0.04770
H24 H 0.45540 -0.11660 0.09440
H25 H 0.30490 -0.06970 0.16720
H26 H 0.25640 -0.19800 0.11510
H27 H 0.21740 0.24760 0.20100
H28 H 0.28940 0.40200 0.17100
H29 H 0.35080 0.21040 0.18070
H30 H -0.35900 0.39430 0.03600
H31 H -0.41760 0.49630 0.12390
H32 H -0.27910 0.49680 0.20610
H33 H -0.21490 0.26740 -0.01910
H34 H -0.07630 0.32390 0.00050
H35 H -0.12400 0.13040 0.01580
H36 H -0.08910 0.43350 0.25270
H37 H 0.02200 0.45410 0.21300
H38 H -0.02520 0.26080 0.22890
H39 H 0.06490 0.21290 -0.05760
H40 H -0.05380 0.22940 -0.14790
H41 H 0.21870 0.50860 -0.21390
H42 H 0.33620 0.49420 -0.12330
#END
