
#######################################################################
#
#                 Cambridge Crystallographic Data Centre
#                                CCDC
#
#######################################################################
#
# If this CIF has been generated from an entry in the Cambridge
# Structural Database, then it will include bibliographic, chemical,
# crystal, experimental, refinement or atomic coordinate data resulting
# from the CCDC's data processing and validation procedures.
#
#######################################################################

data_CSD_CIF_QADVEW
_audit_creation_date 1999-12-16
_audit_creation_method CSD-ConQuest-V1
_database_code_CSD QADVEW
_database_code_depnum_ccdc_journal 207/300
_chemical_formula_sum 'C19 H15 N1 O5'
_chemical_formula_moiety
;
C19 H15 N1 O5
;
_journal_coden_Cambridge 207
_journal_year 1999
_journal_page_first 681
_journal_name_full 'J.Chem.Soc.,Perkin Trans.1 '
loop_
_publ_author_name
"G.Tommasi"
"P.Bruni"
"L.Greci"
"P.Sgarabotto"
"L.Righi"
_chemical_name_systematic
;
3-Ethoxycarbonyl-2,3,3a,4-tetrahydro-2,4-dioxo-3a-phenylisoxazolo[2,3-a]indole
;
_chemical_melting_point 363.15
_cell_volume   3332.693
_exptl_crystal_colour 'orange'
_exptl_crystal_density_diffrn 1.34
_exptl_crystal_description 'prism'
_exptl_crystal_preparation 'methanol'
_diffrn_ambient_temperature ?
_diffrn_special_details
;
The study was carried out at room temperature,in the range 283-303K

;
#These two values have been output from a single CSD field.
_refine_ls_R_factor_gt 0.029
_refine_ls_wR_factor_gt 0.029
loop_
_citation_database_id_CSD
_citation_special_details
QADVEW01 "is a reinterpretation of this cif"
_symmetry_cell_setting monoclinic
_symmetry_space_group_name_H-M 'C c'
_symmetry_Int_Tables_number 9
loop_
_symmetry_equiv_pos_site_id
_symmetry_equiv_pos_as_xyz
1 x,y,z
2 x,-y,1/2+z
3 1/2+x,1/2+y,z
4 1/2+x,1/2-y,1/2+z
_cell_length_a 9.772(2)
_cell_length_b 13.098(3)
_cell_length_c 26.490(4)
_cell_angle_alpha 90
_cell_angle_beta 100.6
_cell_angle_gamma 90
_cell_formula_units_Z 8
loop_
_atom_type_symbol
_atom_type_radius_bond
C 0.68
H 0.23
N 0.68
O 0.68
loop_
_atom_site_label
_atom_site_type_symbol
_atom_site_fract_x
_atom_site_fract_y
_atom_site_fract_z
O1 O 0.28210 0.3732(2) 0.27670
O2 O 0.1160(3) 0.6051(2) 0.3865(1)
O3 O 0.3699(3) 0.4666(2) 0.2205(1)
O4 O 0.4820(3) 0.5670(2) 0.3277(1)
O5 O 0.3440(4) 0.7019(2) 0.3283(2)
N1 N 0.2072(3) 0.3918(2) 0.3188(1)
C1 C 0.1543(3) 0.4990(2) 0.3137(1)
C2 C 0.1757(4) 0.5336(2) 0.3710(1)
C3 C 0.2746(3) 0.4619(2) 0.3996(1)
C4 C 0.3428(4) 0.4633(3) 0.4509(1)
C5 C 0.4383(4) 0.3863(3) 0.4670(1)
C6 C 0.4628(5) 0.3112(3) 0.4333(2)
C7 C 0.3959(4) 0.3072(2) 0.3829(1)
C8 C 0.2995(3) 0.3842(2) 0.3670(1)
C9 C 0.3124(3) 0.4644(3) 0.2560(1)
C10 C 0.2525(4) 0.5516(3) 0.2824(1)
C11 C 0.3662(4) 0.6167(3) 0.3147(1)
C12 C 0.5966(5) 0.6217(4) 0.3596(2)
C13 C 0.6965(6) 0.5498(5) 0.3838(2)
C14 C 0.0025(3) 0.5052(2) 0.2882(1)
C15 C -0.0549(4) 0.6001(3) 0.2724(1)
C16 C -0.1933(4) 0.6083(3) 0.2496(1)
C17 C -0.2759(4) 0.5222(4) 0.2422(2)
C18 C -0.2213(4) 0.4289(4) 0.2588(2)
C19 C -0.0819(4) 0.4202(3) 0.2817(1)
O6 O 0.4597(3) 0.8764(2) 0.6312(1)
O7 O 0.1832(3) 0.6447(2) 0.5216(1)
O8 O 0.6037(3) 0.7830(2) 0.6876(1)
O9 O 0.6091(3) 0.6825(2) 0.5806(1)
O10 O 0.4692(4) 0.5479(2) 0.5797(2)
N2 N 0.3426(3) 0.8579(2) 0.5894(1)
C20 C 0.2947(3) 0.7513(2) 0.5944(1)
C21 C 0.2588(3) 0.7164(2) 0.5373(1)
C22 C 0.3289(3) 0.7877(2) 0.5082(1)
C23 C 0.3458(4) 0.7860(3) 0.4570(1)
C24 C 0.4247(4) 0.8631(3) 0.4412(1)
C25 C 0.4836(4) 0.9390(3) 0.4745(1)
C26 C 0.4668(4) 0.9423(3) 0.5252(1)
C27 C 0.3864(3) 0.8657(2) 0.5411(1)
C28 C 0.5099(3) 0.7856(3) 0.6520(1)
C29 C 0.4242(3) 0.6981(3) 0.6256(1)
C30 C 0.5058(4) 0.6334(3) 0.5938(1)
C31 C 0.6921(7) 0.6267(4) 0.5488(3)
C32 C 0.7673(7) 0.7006(5) 0.5244(3)
C33 C 0.1687(3) 0.7449(2) 0.6202(1)
C34 C 0.1267(4) 0.6497(3) 0.6358(1)
C35 C 0.0109(4) 0.6412(3) 0.6587(2)
C36 C -0.0643(4) 0.7279(4) 0.6660(2)
C37 C -0.0260(4) 0.8213(3) 0.6494(2)
C38 C 0.0903(4) 0.8293(3) 0.6266(1)
H1 H 0.324(5) 0.520(4) 0.473(2)
H2 H 0.487(4) 0.387(3) 0.503(1)
H3 H 0.521(6) 0.268(4) 0.444(2)
H4 H 0.410(4) 0.252(3) 0.360(1)
H5 H 0.200(4) 0.595(3) 0.257(1)
H6 H 0.615(5) 0.670(4) 0.340(2)
H7 H 0.576(8) 0.668(6) 0.386(3)
H8 H 0.650(1) 0.495(1) 0.406(1)
H9 H 0.786(1) 0.584(1) 0.408(1)
H10 H 0.729(1) 0.512(1) 0.352(1)
H11 H 0.004(5) 0.663(3) 0.277(2)
H12 H -0.231(5) 0.682(3) 0.234(2)
H13 H -0.374(5) 0.531(4) 0.226(2)
H14 H -0.275(7) 0.371(5) 0.256(2)
H15 H -0.050(4) 0.353(3) 0.294(1)
H16 H 0.297(4) 0.727(3) 0.436(1)
H17 H 0.440(4) 0.861(3) 0.404(1)
H18 H 0.543(5) 0.991(3) 0.467(2)
H19 H 0.503(5) 1.001(3) 0.547(1)
H20 H 0.395(3) 0.648(3) 0.653(1)
H21 H 0.637(8) 0.598(5) 0.516(3)
H22 H 0.733(7) 0.577(5) 0.566(3)
H23 H 0.700(1) 0.758(1) 0.503(1)
H24 H 0.829(1) 0.665(1) 0.499(1)
H25 H 0.836(1) 0.737(1) 0.556(1)
H26 H 0.186(5) 0.587(4) 0.633(2)
H27 H -0.012(6) 0.572(4) 0.674(2)
H28 H -0.152(5) 0.712(3) 0.680(2)
H29 H -0.072(6) 0.874(5) 0.659(2)
H30 H 0.118(4) 0.892(3) 0.615(1)
#END
