
#######################################################################
#
#                 Cambridge Crystallographic Data Centre
#                                CCDC
#
#######################################################################
#
# If this CIF has been generated from an entry in the Cambridge
# Structural Database, then it will include bibliographic, chemical,
# crystal, experimental, refinement or atomic coordinate data resulting
# from the CCDC's data processing and validation procedures.
#
#######################################################################

data_CSD_CIF_QAFQUM
_audit_creation_date 2016-03-15
_audit_creation_method CSD-ConQuest-V1
_database_code_CSD QAFQUM
_database_code_depnum_ccdc_archive 'CCDC 1015825'
_chemical_formula_sum 'C18 H16 N4 O7'
_chemical_formula_moiety
;
C18 H16 N4 O7
;
_journal_coden_Cambridge 16
_journal_volume 72
_journal_year 2016
_journal_page_first 2254
_journal_name_full 'Tetrahedron '
loop_
_publ_author_name
"Y.P.Semenyuk"
"P.G.Morozov"
"O.N.Burov"
"M.E.Kletskii"
"A.V.Lisovin"
"S.V.Kurbatov"
"F.Terrier"
_chemical_name_systematic
;
7-methyl-5-nitro-4-(2,4,6-trimethoxyphenyl)-7H-[1,2,5]oxadiazolo[3,4-e]isoindo
le 1-oxide
;
_cell_volume   3529.146
_exptl_crystal_colour 'colorless'
_exptl_crystal_density_diffrn 1.507
_exptl_crystal_description 'prism'
_exptl_crystal_preparation 'acetone'
_diffrn_ambient_temperature 120
_refine_special_details
;
N1,N3,O1,O2 and N1',N3',O1',O2' disordered over two sites with occupancies 
0.767:0.233.
;
#These two values have been output from a single CSD field.
_refine_ls_R_factor_gt 0.0431
_refine_ls_wR_factor_gt 0.0431
_symmetry_cell_setting orthorhombic
_symmetry_space_group_name_H-M 'P b c a'
_symmetry_Int_Tables_number 61
loop_
_symmetry_equiv_pos_site_id
_symmetry_equiv_pos_as_xyz
1 x,y,z
2 1/2-x,-y,1/2+z
3 -x,1/2+y,1/2-z
4 1/2+x,1/2-y,-z
5 -x,-y,-z
6 -1/2+x,y,-1/2-z
7 x,-1/2-y,-1/2+z
8 -1/2-x,-1/2+y,z
_cell_length_a 8.3909(6)
_cell_length_b 17.1262(13)
_cell_length_c 24.5584(18)
_cell_angle_alpha 90
_cell_angle_beta 90
_cell_angle_gamma 90
_cell_formula_units_Z 8
loop_
_atom_type_symbol
_atom_type_radius_bond
C 0.68
H 0.23
N 0.68
O 0.68
loop_
_atom_site_label
_atom_site_type_symbol
_atom_site_fract_x
_atom_site_fract_y
_atom_site_fract_z
N1 N 0.4067(5) 0.24591(15) 0.35448(12)
O1 O 0.3425(2) 0.30991(9) 0.35435(7)
O2 O 0.3348(2) 0.18298(10) 0.32304(8)
N2 N 0.4274(4) 0.11749(11) 0.32898(13)
C1 C 0.54504(18) 0.13973(9) 0.36278(6)
N3 N 0.92146(16) 0.07683(7) 0.43125(5)
C2 C 0.67218(17) 0.08806(8) 0.38002(5)
O3 O 0.43447(13) -0.01311(6) 0.40574(4)
C3 C 0.78398(18) 0.12255(8) 0.41246(5)
C4 C 0.77937(18) 0.20278(8) 0.43031(5)
O4 O 0.66476(14) -0.21492(6) 0.29149(4)
C5 C 0.87728(19) 0.24662(8) 0.46377(6)
H1 H 0.97310 0.22940 0.48050
O5 O 1.05171(14) 0.10891(7) 0.42993(6)
O6 O 0.89872(15) 0.01035(6) 0.44794(5)
O7 O 0.92255(13) 0.02836(6) 0.32010(4)
N4 N 0.81123(16) 0.31913(7) 0.46842(5)
C6 C 0.67383(18) 0.32416(8) 0.43872(6)
H2 H 0.60720 0.36870 0.43540
C7 C 0.65005(18) 0.25245(8) 0.41456(6)
C8 C 0.53408(18) 0.21890(9) 0.37922(6)
C9 C 0.8782(2) 0.38205(8) 0.50165(6)
H3 H 0.85950 0.43230 0.48360
H4 H 0.99300 0.37380 0.50610
H5 H 0.82680 0.38220 0.53750
C10 C 0.67325(17) 0.00651(8) 0.35976(5)
C11 C 0.54452(17) -0.04255(8) 0.37018(6)
C12 C 0.53342(18) -0.11715(8) 0.34737(6)
H6 H 0.44310 -0.14930 0.35380
C13 C 0.65920(18) -0.14287(8) 0.31491(5)
C14 C 0.79215(18) -0.09631(8) 0.30473(5)
H7 H 0.87700 -0.11510 0.28270
C15 C 0.79863(17) -0.02201(8) 0.32721(5)
C16 C 0.29124(19) -0.05641(10) 0.41458(7)
H8 H 0.22330 -0.02830 0.44050
H9 H 0.31770 -0.10800 0.42940
H10 H 0.23450 -0.06260 0.38000
C17 C 0.5292(2) -0.26484(9) 0.29844(7)
H11 H 0.54940 -0.31510 0.28060
H12 H 0.43530 -0.24020 0.28210
H13 H 0.51030 -0.27340 0.33740
C18 C 1.04984(19) 0.00405(10) 0.28505(7)
H14 H 1.13380 0.04380 0.28510
H15 H 1.00920 -0.00280 0.24790
H16 H 1.09360 -0.04550 0.29820
N5? N 0.4059(19) 0.2630(7) 0.3646(5)
O8? O 0.3735(7) 0.0867(3) 0.3052(3)
O9? O 0.3312(10) 0.2091(4) 0.3322(3)
N6? N 0.4217(17) 0.1387(5) 0.3340(5)
#END
