
#######################################################################
#
#                 Cambridge Crystallographic Data Centre
#                                CCDC
#
#######################################################################
#
# If this CIF has been generated from an entry in the Cambridge
# Structural Database, then it will include bibliographic, chemical,
# crystal, experimental, refinement or atomic coordinate data resulting
# from the CCDC's data processing and validation procedures.
#
#######################################################################

data_CSD_CIF_QAFREX
_audit_creation_date 2016-03-15
_audit_creation_method CSD-ConQuest-V1
_database_code_CSD QAFREX
_database_code_depnum_ccdc_archive 'CCDC 1029427'
_chemical_formula_sum 'C20 H18 N4 O8'
_chemical_formula_moiety
;
C20 H18 N4 O8
;
_journal_coden_Cambridge 16
_journal_volume 72
_journal_year 2016
_journal_page_first 2254
_journal_name_full 'Tetrahedron '
loop_
_publ_author_name
"Y.P.Semenyuk"
"P.G.Morozov"
"O.N.Burov"
"M.E.Kletskii"
"A.V.Lisovin"
"S.V.Kurbatov"
"F.Terrier"
_chemical_name_systematic
;
2,9-dinitro-8-(2,4,6-trimethoxyphenyl)-5-oxa-4,6-diazatetracyclo[9.2.1.0^2,10^
.0^3,7^]tetradeca-3,6,8,12-tetraene
;
_cell_volume    958.544
_exptl_crystal_colour 'yellow'
_exptl_crystal_density_diffrn 1.533
_exptl_crystal_description 'prism'
_diffrn_ambient_temperature 120
#These two values have been output from a single CSD field.
_refine_ls_R_factor_gt 0.0526
_refine_ls_wR_factor_gt 0.0526
_symmetry_cell_setting triclinic
_symmetry_space_group_name_H-M 'P -1'
_symmetry_Int_Tables_number 2
loop_
_symmetry_equiv_pos_site_id
_symmetry_equiv_pos_as_xyz
1 x,y,z
2 -x,-y,-z
_cell_length_a 7.5994(15)
_cell_length_b 8.7910(18)
_cell_length_c 15.199(3)
_cell_angle_alpha 74.52(3)
_cell_angle_beta 78.44(3)
_cell_angle_gamma 85.94(3)
_cell_formula_units_Z 2
loop_
_atom_type_symbol
_atom_type_radius_bond
C 0.68
H 0.23
N 0.68
O 0.68
loop_
_atom_site_label
_atom_site_type_symbol
_atom_site_fract_x
_atom_site_fract_y
_atom_site_fract_z
N1 N 0.7096(3) 0.7516(3) 0.73699(17)
O1 O 0.8056(3) 0.6833(2) 0.80555(16)
N2 N 0.7945(3) 0.5218(3) 0.82961(18)
O2 O 0.3922(3) 0.1053(2) 0.77727(16)
C1 C 0.6931(3) 0.4937(3) 0.77746(19)
C2 C 0.6388(3) 0.3409(3) 0.77460(18)
O3 O 0.4907(4) 0.1796(3) 0.63075(16)
N3 N 0.4664(3) 0.1978(3) 0.70807(16)
N4 N 0.6362(3) 0.7223(3) 0.55752(16)
O4 O 0.6432(3) 0.8626(2) 0.53446(16)
C3 C 0.5263(3) 0.3471(3) 0.71725(18)
C4 C 0.4507(4) 0.4850(3) 0.65452(19)
H1 H 0.47370 0.47030 0.59020
O5 O 0.7185(3) 0.6359(3) 0.51344(16)
C5 C 0.2442(4) 0.5089(3) 0.6871(2)
H2 H 0.17290 0.41060 0.71560
O6 O 0.5707(3) 0.2473(2) 0.96276(13)
C6 C 0.1858(4) 0.6212(4) 0.6041(2)
H3 H 0.11430 0.59640 0.56540
O7 O 0.9544(3) -0.2048(2) 0.96041(15)
C7 C 0.2516(4) 0.7589(3) 0.5950(2)
H4 H 0.23780 0.85180 0.54750
O8 O 0.8782(3) 0.1720(2) 0.68471(14)
C8 C 0.5236(4) 0.6469(3) 0.65157(18)
C9 C 0.3533(4) 0.7458(3) 0.6725(2)
H5 H 0.37030 0.84630 0.68850
C10 C 0.6414(3) 0.6351(3) 0.71990(19)
C11 C 0.2462(4) 0.6177(3) 0.7497(2)
H6 H 0.31090 0.57100 0.80130
H7 H 0.12450 0.65440 0.77410
C12 C 0.7223(3) 0.1990(3) 0.82616(19)
C13 C 0.6861(3) 0.1524(3) 0.92201(18)
C14 C 0.7594(4) 0.0169(3) 0.97107(18)
H8 H 0.72930 -0.01660 1.03700
C15 C 0.8772(4) -0.0675(3) 0.9212(2)
C16 C 0.9266(4) -0.0179(3) 0.8256(2)
H9 H 1.01600 -0.07470 0.79310
C17 C 0.8454(4) 0.1138(3) 0.77816(18)
C18 C 0.5623(4) 0.2306(4) 1.0590(2)
H10 H 0.49000 0.31760 1.07770
H11 H 0.68390 0.23290 1.07100
H12 H 0.50700 0.12990 1.09480
C19 C 0.8927(4) -0.2747(4) 1.0568(2)
H13 H 0.95300 -0.37740 1.07500
H14 H 0.76260 -0.28910 1.06860
H15 H 0.92010 -0.20560 1.09310
C20 C 0.9942(4) 0.0842(4) 0.6314(2)
H16 H 0.99940 0.13470 0.56520
H17 H 0.94930 -0.02320 0.64610
H18 H 1.11480 0.07990 0.64580
#END
