
#######################################################################
#
#                 Cambridge Crystallographic Data Centre
#                                CCDC
#
#######################################################################
#
# If this CIF has been generated from an entry in the Cambridge
# Structural Database, then it will include bibliographic, chemical,
# crystal, experimental, refinement or atomic coordinate data resulting
# from the CCDC's data processing and validation procedures.
#
#######################################################################

data_CSD_CIF_QAGBAB
_audit_creation_date 1999-12-16
_audit_creation_method CSD-ConQuest-V1
_database_code_CSD QAGBAB
_database_code_depnum_ccdc_archive 'CCDC 125117'
_chemical_formula_sum 'C6 H5 N3 O5'
_chemical_formula_moiety
;
C6 H5 N3 O5
;
_journal_coden_Cambridge 1078
_journal_year 1999
_journal_name_full 'CSD Communication(Private Communication) '
loop_
_publ_author_name
"M.A.Menelaou"
"N.H.Fischer"
"F.R.Fronczek"
_chemical_name_systematic
;
6-Amino-2,4-dinitrophenol
;
_cell_volume    785.007
_exptl_crystal_colour 'red'
_exptl_crystal_density_diffrn 1.685
_exptl_crystal_description 'prism'
_diffrn_ambient_temperature ?
_diffrn_special_details
;
The study was carried out at room temperature,in the range 283-303K

;
_refine_special_details
;
In one molecule the hydroxy group is disordered over two positions with 
occupancies of 0.90:0.10.
;
#These two values have been output from a single CSD field.
_refine_ls_R_factor_gt 0.047
_refine_ls_wR_factor_gt 0.047
_symmetry_cell_setting triclinic
_symmetry_space_group_name_H-M 'P -1'
_symmetry_Int_Tables_number 2
loop_
_symmetry_equiv_pos_site_id
_symmetry_equiv_pos_as_xyz
1 x,y,z
2 -x,-y,-z
_cell_length_a 7.890(1)
_cell_length_b 8.174(1)
_cell_length_c 13.886(3)
_cell_angle_alpha 83.94(2)
_cell_angle_beta 74.02(2)
_cell_angle_gamma 65.76(2)
_cell_formula_units_Z 4
loop_
_atom_type_symbol
_atom_type_radius_bond
C 0.68
H 0.23
N 0.68
O 0.68
loop_
_atom_site_label
_atom_site_type_symbol
_atom_site_fract_x
_atom_site_fract_y
_atom_site_fract_z
O1 O 0.5096(2) 0.7475(2) 0.93650(9)
O2 O 0.6711(2) 0.5520(2) 0.77506(9)
O3 O 0.9161(2) 0.3017(2) 0.7678(1)
O4 O 1.1506(2) 0.0681(2) 1.0583(1)
O5 O 1.0470(2) 0.2363(2) 1.1888(1)
N1 N 0.4905(2) 0.7730(2) 1.1250(1)
N2 N 0.7911(2) 0.4335(2) 0.8137(1)
N3 N 1.0420(2) 0.2051(2) 1.1058(1)
C1 C 0.6319(2) 0.6269(2) 1.0725(1)
C2 C 0.6410(2) 0.6079(2) 0.9711(1)
C3 C 0.7790(2) 0.4542(2) 0.9182(1)
C4 C 0.9107(2) 0.3182(2) 0.9615(1)
C5 C 0.8999(2) 0.3427(2) 1.0590(1)
C6 C 0.7652(2) 0.4926(2) 1.1154(1)
O6 O 0.7966(2) 0.1209(2) 0.64108(8)
O7 O 0.7810(2) 0.4282(2) 0.5591(1)
O8 O 0.7040(2) 0.5044(2) 0.4194(1)
O9 O 0.6917(2) 0.0747(2) 0.21628(9)
O10 O 0.6453(2) -0.1551(2) 0.2892(1)
N4 N 0.7968(2) -0.1941(2) 0.6174(1)
N5 N 0.7429(2) 0.3950(2) 0.4854(1)
N6 N 0.6815(2) -0.0231(2) 0.2884(1)
C7 C 0.7681(2) -0.0725(2) 0.5418(1)
C8 C 0.7693(2) 0.0968(2) 0.5537(1)
C9 C 0.7427(2) 0.2201(2) 0.4762(1)
C10 C 0.7132(2) 0.1836(2) 0.3882(1)
C11 C 0.7140(2) 0.0189(2) 0.3798(1)
C12 C 0.7400(2) -0.1094(2) 0.4540(1)
O11? O 0.759(2) 0.520(2) 1.198(1)
H1 H 0.54100 0.70700 0.87500
H2 H 0.501(3) 0.804(3) 1.179(2)
H3 H 0.432(3) 0.853(2) 1.093(1)
H4 H 0.994(2) 0.225(2) 0.929(1)
H5? H 0.75000 0.50000 1.18750
H6 H 0.795(3) 0.221(3) 0.642(2)
H7 H 0.785(3) -0.300(3) 0.612(2)
H8 H 0.794(2) -0.151(2) 0.665(1)
H9 H 0.694(2) 0.264(2) 0.341(1)
H10 H 0.742(2) -0.228(2) 0.452(1)
#END
