
#######################################################################
#
#                 Cambridge Crystallographic Data Centre
#                                CCDC
#
#######################################################################
#
# If this CIF has been generated from an entry in the Cambridge
# Structural Database, then it will include bibliographic, chemical,
# crystal, experimental, refinement or atomic coordinate data resulting
# from the CCDC's data processing and validation procedures.
#
#######################################################################

data_CSD_CIF_QAHJER
_audit_creation_date 2016-03-16
_audit_creation_method CSD-ConQuest-V1
_database_code_CSD QAHJER
_database_code_depnum_ccdc_archive 'CCDC 1430836'
_chemical_formula_sum 'C12 H11 N5 O6'
_chemical_formula_moiety
;
C12 H11 N5 O6
;
_journal_coden_Cambridge 1267
_journal_volume 231
_journal_year 2016
_journal_page_first 699
_journal_name_full 'Z.Kristallogr.-New Cryst.Struct. '
loop_
_publ_author_name
"M.M.Ghorab"
"M.S.Alsaid"
"H.A.Ghabbour"
_chemical_name_systematic
;
ethyl 5-amino-1-(2,4-dinitrophenyl)-1H-pyrazole-4-carboxylate
;
_cell_volume   1394.727
_exptl_crystal_colour 'yellow'
_exptl_crystal_density_diffrn 1.53
_exptl_crystal_description 'block'
_diffrn_ambient_temperature 100
#These two values have been output from a single CSD field.
_refine_ls_R_factor_gt 0.0348
_refine_ls_wR_factor_gt 0.0348
_symmetry_cell_setting triclinic
_symmetry_space_group_name_H-M 'P -1'
_symmetry_Int_Tables_number 2
loop_
_symmetry_equiv_pos_site_id
_symmetry_equiv_pos_as_xyz
1 x,y,z
2 -x,-y,-z
_cell_length_a 10.4031(5)
_cell_length_b 11.3191(5)
_cell_length_c 13.2540(6)
_cell_angle_alpha 97.666(2)
_cell_angle_beta 102.252(2)
_cell_angle_gamma 110.182(2)
_cell_formula_units_Z 4
loop_
_atom_type_symbol
_atom_type_radius_bond
C 0.68
H 0.23
N 0.68
O 0.68
loop_
_atom_site_label
_atom_site_type_symbol
_atom_site_fract_x
_atom_site_fract_y
_atom_site_fract_z
O1 O 0.46457(12) 0.54831(11) 0.61201(8)
O2 O 0.40421(12) 0.65433(10) 0.73924(8)
O3 O 0.26304(12) 0.88186(11) 0.44314(9)
O4 O 0.07012(12) 0.92188(11) 0.41120(9)
O5 O -0.15232(14) 0.59385(12) -0.05976(9)
O6 O -0.12611(13) 0.78505(11) 0.01691(9)
N1 N 0.12655(13) 0.61133(12) 0.41771(10)
N2 N 0.08259(14) 0.66385(13) 0.49903(10)
N3 N 0.29975(15) 0.52431(13) 0.39311(11)
N4 N 0.13982(14) 0.85857(12) 0.39268(10)
N5 N -0.11258(14) 0.68260(13) 0.01849(10)
C1 C 0.23903(16) 0.57839(14) 0.45587(12)
C2 C 0.26806(16) 0.60834(14) 0.56572(12)
C3 C 0.16775(17) 0.65953(15) 0.58567(12)
H1 H 0.16240 0.68800 0.65480
C4 C 0.38690(16) 0.59859(14) 0.63899(12)
C5 C 0.51712(18) 0.64524(17) 0.82096(12)
H2 H 0.61030 0.71330 0.82600
H3 H 0.52350 0.55990 0.80400
C6 C 0.4789(2) 0.6627(2) 0.92330(14)
H4 H 0.55600 0.66450 0.98150
H5 H 0.39060 0.59070 0.91920
H6 H 0.46500 0.74420 0.93610
C7 C 0.07537(16) 0.62749(15) 0.31507(12)
C8 C 0.07409(16) 0.74738(14) 0.30190(12)
C9 C 0.01325(16) 0.76779(15) 0.20635(12)
H7 H 0.01060 0.84950 0.19960
C10 C -0.04366(16) 0.66349(15) 0.12090(12)
C11 C -0.04161(17) 0.54385(15) 0.12897(12)
H8 H -0.08050 0.47460 0.06810
C12 C 0.01779(16) 0.52556(15) 0.22691(12)
H9 H 0.01900 0.44340 0.23350
H10 H 0.372(2) 0.5083(17) 0.4273(15)
H11 H 0.302(2) 0.5449(18) 0.3325(17)
O7 O 0.62337(13) -0.04029(11) 0.85685(9)
O8 O 0.77378(12) 0.14811(11) 0.97142(8)
O9 O 0.27419(13) 0.22010(12) 0.76208(9)
O10 O 0.23247(12) 0.37963(10) 0.70824(9)
O11 O 0.13212(16) 0.14297(18) 0.22789(10)
O12 O 0.03678(13) 0.24846(12) 0.31365(9)
N6 N 0.49973(13) 0.20827(12) 0.68815(10)
N7 N 0.58546(14) 0.32484(12) 0.76053(10)
N8 N 0.44165(16) -0.01846(13) 0.66908(11)
N9 N 0.26587(14) 0.28620(12) 0.69668(10)
N10 N 0.12426(15) 0.20032(14) 0.30974(10)
C13 C 0.51512(16) 0.10575(15) 0.72277(11)
C14 C 0.61940(16) 0.15587(15) 0.82004(12)
C15 C 0.65598(17) 0.29028(15) 0.83772(12)
H12 H 0.72460 0.34990 0.89920
C16 C 0.66949(17) 0.07700(15) 0.88266(12)
C17 C 0.82345(19) 0.07556(18) 1.04327(14)
H13 H 0.92240 0.12860 1.08660
H14 H 0.82340 -0.00380 1.00150
C18 C 0.7292(2) 0.0400(2) 1.11439(15)
H15 H 0.76910 -0.00070 1.16660
H16 H 0.63380 -0.02050 1.07210
H17 H 0.72270 0.11800 1.15110
C19 C 0.40450(16) 0.20743(14) 0.59332(12)
C20 C 0.29340(16) 0.24827(14) 0.59539(12)
C21 C 0.20310(16) 0.25222(14) 0.50396(12)
H18 H 0.12990 0.28380 0.50610
C22 C 0.22502(16) 0.20789(15) 0.40937(12)
C23 C 0.33401(17) 0.16664(14) 0.40318(12)
H19 H 0.34600 0.13770 0.33650
C24 C 0.42538(16) 0.16853(14) 0.49657(12)
H20 H 0.50280 0.14300 0.49430
H21 H 0.445(2) -0.0750(19) 0.7051(15)
H22 H 0.364(2) -0.0380(18) 0.6162(16)
#END
