
#######################################################################
#
#                 Cambridge Crystallographic Data Centre
#                                CCDC
#
#######################################################################
#
# If this CIF has been generated from an entry in the Cambridge
# Structural Database, then it will include bibliographic, chemical,
# crystal, experimental, refinement or atomic coordinate data resulting
# from the CCDC's data processing and validation procedures.
#
#######################################################################

data_CSD_CIF_QAHVUQ
_audit_creation_date 2001-03-02
_audit_creation_method CSD-ConQuest-V1
_database_code_CSD QAHVUQ
_chemical_formula_sum 'C17 H23 N5 O1'
_chemical_formula_moiety
;
C17 H23 N5 O1
;
_journal_coden_Cambridge 24
_journal_volume 40
_journal_year 1999
_journal_page_first 6099
_journal_name_full 'Tetrahedron Lett. '
loop_
_publ_author_name
"O.N.Chupakhin"
"V.N.Kozhevnikov"
"D.N.Kozhevnikov"
"V.L.Rusinov"
_chemical_name_systematic
;
1-Hydroxy-3-phenyl-2,6-bis(pyrrolidino)-1,4,5-triazahexatriene
;
_chemical_melting_point 457.15
_cell_volume    845.905
_exptl_crystal_density_diffrn 1.23
_exptl_special_details
;
Melting point range 457.15-459.15K

;
_diffrn_ambient_temperature ?
_diffrn_special_details
;
The study was carried out at room temperature,in the range 283-303K

;
#These two values have been output from a single CSD field.
_refine_ls_R_factor_gt 0.06
_refine_ls_wR_factor_gt 0.06
_symmetry_cell_setting triclinic
_symmetry_space_group_name_H-M 'P 1'
_symmetry_Int_Tables_number 1
loop_
_symmetry_equiv_pos_site_id
_symmetry_equiv_pos_as_xyz
1 x,y,z
_cell_length_a 8.317(3)
_cell_length_b 8.652(4)
_cell_length_c 11.873(4)
_cell_angle_alpha 86.96(3)
_cell_angle_beta 85.91(3)
_cell_angle_gamma 83.54(3)
_cell_formula_units_Z 2
loop_
_atom_type_symbol
_atom_type_radius_bond
C 0.68
H 0.23
N 0.68
O 0.68
loop_
_atom_site_label
_atom_site_type_symbol
_atom_site_fract_x
_atom_site_fract_y
_atom_site_fract_z
O1 O -0.0580(3) 0.9140(3) 0.6183(2)
N1 N 0.1040(3) 0.8817(3) 0.5701(2)
N2 N 0.1339(4) 0.7894(3) 0.8401(2)
N3 N 0.2144(4) 0.9233(4) 0.8266(3)
N4 N 0.3448(4) 0.7385(4) 0.5993(2)
N5 N 0.2965(4) 1.1086(4) 0.9340(3)
C1 C 0.1899(4) 0.7902(4) 0.6348(3)
C2 C 0.1256(4) 0.7229(4) 0.7468(3)
C3 C 0.2198(5) 0.9839(4) 0.9234(3)
C4 C 0.0540(4) 0.5745(4) 0.7479(3)
C5 C -0.0133(5) 0.5110(4) 0.8467(3)
C6 C -0.0733(6) 0.3674(5) 0.8494(4)
C7 C -0.0666(5) 0.2859(5) 0.7531(4)
C8 C -0.0024(5) 0.3478(5) 0.6543(4)
C9 C 0.0577(5) 0.4904(4) 0.6506(3)
C10 C 0.4168(5) 0.7968(5) 0.4931(4)
C11 C 0.5935(6) 0.7331(6) 0.4952(5)
C12 C 0.6180(7) 0.690(1) 0.6119(6)
C13 C 0.4668(5) 0.6742(6) 0.6749(4)
C14 C 0.3149(6) 1.1768(5) 1.0406(4)
C15 C 0.4060(9) 1.3109(8) 1.0059(6)
C16 C 0.455(1) 1.3042(9) 0.8910(6)
C17 C 0.3778(6) 1.1864(5) 0.8380(4)
H1 H -0.097(5) 0.990(5) 0.562(4)
H2 H 0.16700 0.93300 1.00000
H3 H -0.01600 0.56600 0.91500
H4 H -0.12000 0.32500 0.91800
H5 H -0.10900 0.18700 0.75500
H6 H 0.00400 0.29000 0.58700
H7 H 0.10100 0.53300 0.58000
H8 H 0.40600 0.90800 0.48800
H9 H 0.36600 0.76000 0.43000
H10 H 0.66200 0.81000 0.46500
H11 H 0.61400 0.64300 0.44900
H12 H 0.67100 0.76800 0.64300
H13 H 0.68600 0.59300 0.61600
H14 H 0.45400 0.56600 0.69400
H15 H 0.45800 0.73000 0.74200
H16 H 0.37300 1.10400 1.09100
H17 H 0.21000 1.21100 1.07600
H18 H 0.49900 1.30700 1.04900
H19 H 0.33900 1.40700 1.01800
H20 H 0.57000 1.27900 0.88200
H21 H 0.42800 1.40300 0.85300
H22 H 0.30000 1.23300 0.78600
H23 H 0.45500 1.11500 0.79800
#END
