
#######################################################################
#
#                 Cambridge Crystallographic Data Centre
#                                CCDC
#
#######################################################################
#
# If this CIF has been generated from an entry in the Cambridge
# Structural Database, then it will include bibliographic, chemical,
# crystal, experimental, refinement or atomic coordinate data resulting
# from the CCDC's data processing and validation procedures.
#
#######################################################################

data_CSD_CIF_QAJFEN
_audit_creation_date 2005-03-31
_audit_creation_method CSD-ConQuest-V1
_database_code_CSD QAJFEN
_database_code_depnum_ccdc_archive 'CCDC 255714'
_chemical_formula_sum 'C25 H24 N2 O6'
_chemical_formula_moiety
;
C25 H24 N2 O6
;
_journal_coden_Cambridge 4
_journal_volume 126
_journal_year 2004
_journal_page_first 13900
_journal_name_full 'J.Am.Chem.Soc. '
loop_
_publ_author_name
"D.F.Taber"
"Yigang He"
"Ming Xu"
_chemical_name_systematic
;
2-(Phenylethynyl)-2-(2-propenyl)cycloheptanyl 3,5-dinitrobenzoate
;
_cell_volume   2226.536
_exptl_crystal_colour 'colorless'
_exptl_crystal_density_diffrn 1.338
_exptl_crystal_description 'plates'
_diffrn_ambient_temperature 150
#These two values have been output from a single CSD field.
_refine_ls_R_factor_gt 0.0862
_refine_ls_wR_factor_gt 0.0862
_symmetry_cell_setting monoclinic
_symmetry_space_group_name_H-M 'P 21/c'
_symmetry_Int_Tables_number 14
loop_
_symmetry_equiv_pos_site_id
_symmetry_equiv_pos_as_xyz
1 x,y,z
2 x,1/2-y,1/2+z
3 -x,-y,-z
4 -x,-1/2+y,-1/2-z
_cell_length_a 15.3195(13)
_cell_length_b 7.0515(6)
_cell_length_c 21.4677(19)
_cell_angle_alpha 90
_cell_angle_beta 106.239(2)
_cell_angle_gamma 90
_cell_formula_units_Z 4
loop_
_atom_type_symbol
_atom_type_radius_bond
C 0.68
H 0.23
N 0.68
O 0.68
loop_
_atom_site_label
_atom_site_type_symbol
_atom_site_fract_x
_atom_site_fract_y
_atom_site_fract_z
N1 N 0.4425(2) 0.2326(5) 0.6461(2)
N2 N 0.2809(2) 0.7890(5) 0.69251(17)
O1 O 0.31156(17) 0.8963(4) 0.46866(12)
O2 O 0.40852(18) 0.6762(4) 0.45262(14)
O3 O 0.4447(2) 0.1241(4) 0.60254(17)
O4 O 0.4695(3) 0.1960(5) 0.70406(18)
O5 O 0.2792(2) 0.7119(4) 0.74288(14)
O6 O 0.2479(2) 0.9445(4) 0.67502(14)
C1 C 0.1454(3) 1.3160(6) 0.5831(2)
H1 H 0.16640 1.19020 0.59380
C2 C 0.1170(3) 1.4237(7) 0.6276(2)
H2 H 0.11840 1.37150 0.66860
C3 C 0.0868(3) 1.6057(7) 0.6127(2)
H3 H 0.06720 1.67920 0.64340
C4 C 0.0847(3) 1.6812(6) 0.5538(2)
H4 H 0.06360 1.80710 0.54350
C5 C 0.1131(3) 1.5759(6) 0.5092(2)
H5 H 0.11200 1.63040 0.46860
C6 C 0.1434(2) 1.3900(6) 0.5229(2)
C7 C 0.1704(3) 1.2785(6) 0.4753(2)
C8 C 0.1911(2) 1.1857(6) 0.4349(2)
C9 C 0.2133(3) 1.0745(5) 0.38312(19)
C10 C 0.1455(3) 0.9047(6) 0.3623(2)
H6 H 0.15510 0.84590 0.32280
H7 H 0.16000 0.80810 0.39710
C11 C 0.0474(3) 0.9580(6) 0.3488(2)
H8 H 0.02650 0.99150 0.38500
C12 C -0.0117(3) 0.9626(7) 0.2922(3)
H9 H 0.00610 0.93030 0.25450
H10 H -0.07270 0.99840 0.28840
C13 C 0.2021(2) 1.2022(5) 0.32294(19)
H11 H 0.22020 1.12810 0.28940
H12 H 0.13680 1.23340 0.30540
C14 C 0.2561(3) 1.3882(5) 0.3337(2)
H13 H 0.22160 1.48380 0.30270
H14 H 0.26050 1.43460 0.37800
C15 C 0.3518(3) 1.3747(6) 0.3259(2)
H15 H 0.34760 1.37900 0.27910
H16 H 0.38680 1.48730 0.34650
C16 C 0.4039(2) 1.1981(5) 0.3549(2)
H17 H 0.46960 1.22290 0.36250
H18 H 0.38700 1.09420 0.32270
C17 C 0.3877(3) 1.1307(5) 0.41868(19)
H19 H 0.44370 1.06930 0.44570
H20 H 0.37480 1.24190 0.44280
C18 C 0.3090(2) 0.9912(5) 0.40748(18)
H21 H 0.31660 0.89320 0.37580
C19 C 0.3643(2) 0.7444(5) 0.48430(19)
C20 C 0.3618(2) 0.6667(5) 0.54866(18)
C21 C 0.4019(2) 0.4922(5) 0.56801(19)
H22 H 0.42890 0.42260 0.54030
C22 C 0.4024(2) 0.4211(5) 0.6274(2)
C23 C 0.3660(3) 0.5159(6) 0.6698(2)
H23 H 0.36900 0.46580 0.71140
C24 C 0.3248(2) 0.6878(5) 0.64932(18)
C25 C 0.3217(2) 0.7636(5) 0.58975(19)
H24 H 0.29230 0.88160 0.57680
#END
