
#######################################################################
#
#                 Cambridge Crystallographic Data Centre
#                                CCDC
#
#######################################################################
#
# If this CIF has been generated from an entry in the Cambridge
# Structural Database, then it will include bibliographic, chemical,
# crystal, experimental, refinement or atomic coordinate data resulting
# from the CCDC's data processing and validation procedures.
#
#######################################################################

data_CSD_CIF_QAJKUK
_audit_creation_date 2016-03-16
_audit_creation_method CSD-ConQuest-V1
_database_code_CSD QAJKUK
_database_code_depnum_ccdc_archive 'CCDC 1437248'
_chemical_formula_sum 'C17 H13 N5 O3'
_chemical_formula_moiety
;
C17 H13 N5 O3
;
_journal_coden_Cambridge 1267
_journal_volume 231
_journal_year 2016
_journal_page_first 839
_journal_name_full 'Z.Kristallogr.-New Cryst.Struct. '
loop_
_publ_author_name
"K.Karrouchi"
"S.Radi"
"M.Ansar"
"J.Taoufik"
"H.A.Ghabbour"
"Y.N.Mabkhot"
_chemical_name_systematic
;
N'-(4-Nitrobenzylidene)-5-phenyl-1H-pyrazole-3-carbohydrazide
;
_cell_volume   1532.513
_exptl_crystal_colour 'yellow'
_exptl_crystal_density_diffrn 1.453
_exptl_crystal_description 'plate'
_diffrn_ambient_temperature 100
#These two values have been output from a single CSD field.
_refine_ls_R_factor_gt 0.0451
_refine_ls_wR_factor_gt 0.0451
_symmetry_cell_setting monoclinic
_symmetry_space_group_name_H-M 'P 21/c'
_symmetry_Int_Tables_number 14
loop_
_symmetry_equiv_pos_site_id
_symmetry_equiv_pos_as_xyz
1 x,y,z
2 -x,1/2+y,1/2-z
3 -x,-y,-z
4 x,-1/2-y,-1/2+z
_cell_length_a 20.1049(8)
_cell_length_b 11.1534(4)
_cell_length_c 6.8890(3)
_cell_angle_alpha 90
_cell_angle_beta 97.224(2)
_cell_angle_gamma 90
_cell_formula_units_Z 4
loop_
_atom_type_symbol
_atom_type_radius_bond
C 0.68
H 0.23
N 0.68
O 0.68
loop_
_atom_site_label
_atom_site_type_symbol
_atom_site_fract_x
_atom_site_fract_y
_atom_site_fract_z
O1 O 0.39760(6) 0.22941(10) 0.5772(2)
O2 O -0.03009(7) 0.27707(12) 0.0581(2)
O3 O -0.05818(6) 0.45500(12) 0.1443(2)
N1 N 0.54286(7) 0.51513(13) 0.8137(2)
N2 N 0.47833(7) 0.50306(12) 0.7357(2)
N3 N 0.35352(7) 0.41374(13) 0.6146(2)
N4 N 0.29103(7) 0.37734(13) 0.5330(2)
N5 N -0.01751(7) 0.37268(14) 0.1439(2)
C1 C 0.66706(9) 0.28967(15) 1.0231(3)
H1 H 0.63550 0.22780 1.03620
C2 C 0.73379(9) 0.27241(15) 1.0962(3)
H2 H 0.74760 0.19940 1.16010
C3 C 0.78039(9) 0.36160(16) 1.0759(3)
H3 H 0.82640 0.34900 1.12160
C4 C 0.75940(9) 0.46948(16) 0.9884(3)
H4 H 0.79110 0.53140 0.97750
C5 C 0.69273(9) 0.48787(15) 0.9169(3)
H5 H 0.67890 0.56240 0.85840
C6 C 0.64561(8) 0.39656(15) 0.9307(2)
C7 C 0.57492(9) 0.40801(14) 0.8452(2)
C8 C 0.52872(8) 0.32124(15) 0.7804(3)
H6 H 0.53520 0.23690 0.78070
C9 C 0.47006(8) 0.38425(14) 0.7140(2)
C10 C 0.40524(8) 0.33434(15) 0.6303(3)
C11 C 0.24510(9) 0.45630(15) 0.5293(3)
H7 H 0.25520 0.53250 0.58730
C12 C 0.17692(9) 0.43088(16) 0.4367(3)
C13 C 0.16062(9) 0.31967(16) 0.3467(3)
H8 H 0.19360 0.25850 0.35070
C14 C 0.09653(9) 0.29882(16) 0.2521(3)
H9 H 0.08490 0.22390 0.19150
C15 C 0.05011(9) 0.39082(16) 0.2491(3)
C16 C 0.06463(9) 0.50035(16) 0.3367(3)
H10 H 0.03150 0.56140 0.33200
C17 C 0.12837(9) 0.51942(16) 0.4314(3)
H11 H 0.13910 0.59420 0.49370
H12 H 0.5602(11) 0.5902(19) 0.843(3)
H13 H 0.3609(9) 0.4859(17) 0.656(3)
#END
