
#######################################################################
#
#                 Cambridge Crystallographic Data Centre
#                                CCDC
#
#######################################################################
#
# If this CIF has been generated from an entry in the Cambridge
# Structural Database, then it will include bibliographic, chemical,
# crystal, experimental, refinement or atomic coordinate data resulting
# from the CCDC's data processing and validation procedures.
#
#######################################################################

data_CSD_CIF_QAKGOB
_audit_creation_date 2016-03-17
_audit_creation_method CSD-ConQuest-V1
_database_code_CSD QAKGOB
_database_code_depnum_ccdc_archive 'CCDC 1444882'
_chemical_formula_sum 'C52 H54 N10 O8'
_chemical_formula_moiety
;
C52 H54 N10 O8
;
_journal_coden_Cambridge 1500
_journal_volume 6
_journal_year 2016
_journal_page_first 27988
_journal_name_full 'RSC Advances '
loop_
_publ_author_name
"Hui Xu"
"Fang-Jun Qian"
"Qiao-Xia Wu"
"Min Xue"
"Yong Yang"
"Yong-Xiang Chen"
_chemical_name_systematic
;
36,39-bis(2-ethylhexyl)-9,11,26,28-tetranitro-7,13,24,30,36,39-hexaazanonacycl
o[29.3.1.1^2,6^.1^3,34^.1^8,12^.1^14,18^.1^17,20^.1^19,23^.1^25,29^]dotetracon
ta-1(35),2(42),3,5,8(41),9,11,14(40),15,17,19(38),20,22,25(37),26,28,31,33-oct
adecaene
;
_cell_volume  22642.916
_exptl_crystal_colour 'yellow'
_exptl_crystal_density_diffrn 1.25
_exptl_crystal_description 'block'
_diffrn_ambient_temperature 293
#These two values have been output from a single CSD field.
_refine_ls_R_factor_gt 0.1359
_refine_ls_wR_factor_gt 0.1359
_symmetry_cell_setting rhombohedral
_symmetry_space_group_name_H-M 'R -3'
_symmetry_Int_Tables_number 148
loop_
_symmetry_equiv_pos_site_id
_symmetry_equiv_pos_as_xyz
1 x,y,z
2 -y,x-y,z
3 -x+y,-x,z
4 2/3+x,1/3+y,1/3+z
5 2/3-y,1/3+x-y,1/3+z
6 2/3-x+y,1/3-x,1/3+z
7 1/3+x,2/3+y,2/3+z
8 1/3-y,2/3+x-y,2/3+z
9 1/3-x+y,2/3-x,2/3+z
10 -x,-y,-z
11 y,-x+y,-z
12 x-y,x,-z
13 -2/3-x,-1/3-y,-1/3-z
14 -2/3+y,-1/3-x+y,-1/3-z
15 -2/3+x-y,-1/3+x,-1/3-z
16 -1/3-x,-2/3-y,-2/3-z
17 -1/3+y,-2/3-x+y,-2/3-z
18 -1/3+x-y,-2/3+x,-2/3-z
_cell_length_a 32.871(2)
_cell_length_b 32.871(2)
_cell_length_c 24.1978(15)
_cell_angle_alpha 90
_cell_angle_beta 90
_cell_angle_gamma 120
_cell_formula_units_Z 18
loop_
_atom_type_symbol
_atom_type_radius_bond
C 0.68
H 0.23
N 0.68
O 0.68
loop_
_atom_site_label
_atom_site_type_symbol
_atom_site_fract_x
_atom_site_fract_y
_atom_site_fract_z
O1 O 0.4322(4) -0.1385(3) 0.8592(3)
O2 O 0.4045(3) -0.0930(3) 0.8588(2)
O3 O 0.5609(3) -0.1139(3) 0.7564(3)
O4 O 0.5851(2) -0.0693(2) 0.6860(3)
O5 O 0.1834(3) -0.0244(4) 0.5749(4)
O6 O 0.1475(3) -0.0875(3) 0.5233(4)
O7 O 0.2215(3) -0.1452(2) 0.4165(3)
O8 O 0.2967(3) -0.1131(3) 0.4078(3)
N1 N 0.4321(3) -0.1043(3) 0.8422(2)
N2 N 0.5600(3) -0.0839(3) 0.7271(3)
N3 N 0.4408(2) -0.0179(2) 0.79395(19)
H1 H 0.42170 -0.03240 0.82060
N4 N 0.5576(2) -0.0077(2) 0.6696(2)
H2 H 0.57980 -0.01370 0.66250
N5 N 0.1825(3) -0.0553(4) 0.5429(4)
N6 N 0.2621(4) -0.1146(3) 0.4279(3)
N7 N 0.2750(2) 0.0185(2) 0.5841(2)
H3 H 0.25000 0.01940 0.59210
N8 N 0.3532(2) -0.0366(2) 0.4634(2)
H4 H 0.35220 -0.05660 0.43990
N9 N 0.4291(3) 0.1332(2) 0.7101(3)
N10 N 0.5266(2) 0.1079(2) 0.5307(3)
C1 C 0.4684(2) -0.0346(2) 0.7770(2)
C2 C 0.4674(3) -0.0747(3) 0.8002(2)
C3 C 0.4984(3) -0.0884(3) 0.7839(3)
H5 H 0.49850 -0.11330 0.80190
C4 C 0.5297(2) -0.0661(3) 0.7410(3)
C5 C 0.5295(2) -0.0288(2) 0.7137(2)
C6 C 0.4997(2) -0.0137(2) 0.7334(2)
H6 H 0.50070 0.01220 0.71630
C7 C 0.4407(3) 0.0229(3) 0.7706(2)
C8 C 0.4712(3) 0.0674(4) 0.7920(3)
H7 H 0.49230 0.07070 0.81960
C9 C 0.4707(3) 0.1066(3) 0.7731(3)
H8 H 0.49150 0.13620 0.78730
C10 C 0.4394(3) 0.1016(3) 0.7335(3)
C11 C 0.4086(2) 0.0564(3) 0.7113(2)
C12 C 0.4098(2) 0.0170(3) 0.7298(2)
H9 H 0.39020 -0.01240 0.71460
C13 C 0.3783(2) 0.0629(3) 0.6732(2)
C14 C 0.3917(3) 0.1106(3) 0.6740(3)
C15 C 0.3691(4) 0.1284(3) 0.6440(3)
H10 H 0.37860 0.16020 0.64450
C16 C 0.3320(3) 0.0971(4) 0.6132(3)
H11 H 0.31630 0.10840 0.59160
C17 C 0.3164(3) 0.0501(3) 0.6122(3)
C18 C 0.3400(2) 0.0316(3) 0.6437(2)
H12 H 0.32970 -0.00040 0.64420
C19 C 0.2714(2) -0.0130(3) 0.5458(3)
C20 C 0.2284(3) -0.0495(3) 0.5254(3)
C21 C 0.2267(3) -0.0806(3) 0.4878(3)
H13 H 0.19750 -0.10390 0.47520
C22 C 0.2668(3) -0.0791(2) 0.4672(3)
C23 C 0.3117(3) -0.0427(2) 0.4835(2)
C24 C 0.3122(2) -0.0117(3) 0.5233(2)
H14 H 0.34130 0.01160 0.53600
C25 C 0.3981(2) 0.0014(3) 0.4792(2)
C26 C 0.4132(3) 0.0456(3) 0.4579(3)
H15 H 0.39380 0.04970 0.43320
C27 C 0.4561(3) 0.0842(3) 0.4718(3)
H16 H 0.46590 0.11360 0.45670
C28 C 0.4841(3) 0.0769(3) 0.5096(3)
C29 C 0.4690(2) 0.0317(2) 0.53126(19)
C30 C 0.4260(2) -0.0052(2) 0.5172(2)
H17 H 0.41550 -0.03460 0.53300
C31 C 0.5054(2) 0.0373(2) 0.5682(2)
C32 C 0.5411(3) 0.0846(2) 0.5669(3)
C33 C 0.5808(3) 0.1017(3) 0.5979(4)
H18 H 0.60390 0.13320 0.59650
C34 C 0.5857(3) 0.0701(3) 0.6316(3)
H19 H 0.61260 0.08080 0.65300
C35 C 0.5521(2) 0.0242(3) 0.6339(2)
C36 C 0.5120(2) 0.0075(2) 0.6023(2)
H20 H 0.48910 -0.02410 0.60410
C37 C 0.4517(6) 0.1838(4) 0.7252(6)
H21 H 0.47030 0.18960 0.75850
H22 H 0.42780 0.19220 0.73250
C38 C 0.4840(6) 0.2145(5) 0.6768(7)
H23 H 0.46570 0.20290 0.64270
C39 C 0.4914(7) 0.2642(5) 0.6875(7)
H24 H 0.46080 0.26080 0.69400
H25 H 0.50900 0.27550 0.72170
C40 C 0.5128(7) 0.2977(6) 0.6501(7)
H26 H 0.54490 0.30520 0.64660
H27 H 0.51190 0.32520 0.66150
H28 H 0.49720 0.28700 0.61520
C41 C 0.5224(6) 0.2050(5) 0.6730(7)
H29 H 0.53980 0.21830 0.63910
H30 H 0.51020 0.17130 0.67230
C42 C 0.5567(7) 0.2278(6) 0.7254(7)
H31 H 0.53860 0.21970 0.75930
H32 H 0.57450 0.26170 0.72210
C43 C 0.5924(7) 0.2064(6) 0.7262(8)
H33 H 0.61250 0.21710 0.69390
H34 H 0.57440 0.17230 0.72530
C44 C 0.6256(8) 0.2248(7) 0.7848(9)
H35 H 0.65020 0.25680 0.78030
H36 H 0.63920 0.20530 0.79160
H37 H 0.60620 0.22270 0.81550
C45 C 0.5520(5) 0.1598(4) 0.5250(5)
H38 H 0.52980 0.16970 0.51440
H39 H 0.56510 0.17380 0.56060
C46 C 0.5899(6) 0.1772(5) 0.4840(6)
H40 H 0.61260 0.16870 0.49830
C47 C 0.5778(6) 0.1573(5) 0.4301(6)
H41 H 0.55250 0.16190 0.41740
H42 H 0.56460 0.12370 0.43470
C48 C 0.6115(6) 0.1713(6) 0.3844(6)
H43 H 0.63930 0.17070 0.39680
H44 H 0.62110 0.20330 0.37360
C49 C 0.5914(6) 0.1401(6) 0.3359(6)
H45 H 0.56240 0.13870 0.32500
H46 H 0.58420 0.10850 0.34560
C50 C 0.6248(7) 0.1573(7) 0.2890(8)
H47 H 0.61200 0.16700 0.25950
H48 H 0.62990 0.13260 0.27620
H49 H 0.65410 0.18350 0.30080
C51 C 0.6152(7) 0.2309(6) 0.4850(7)
H50 H 0.59300 0.24190 0.49040
H51 H 0.63220 0.24390 0.45080
C52 C 0.6507(8) 0.2454(6) 0.5363(8)
H52 H 0.63520 0.24660 0.56940
H53 H 0.67770 0.27570 0.52960
H54 H 0.66060 0.22260 0.54070
#END
