
#######################################################################
#
#                 Cambridge Crystallographic Data Centre
#                                CCDC
#
#######################################################################
#
# If this CIF has been generated from an entry in the Cambridge
# Structural Database, then it will include bibliographic, chemical,
# crystal, experimental, refinement or atomic coordinate data resulting
# from the CCDC's data processing and validation procedures.
#
#######################################################################

data_CSD_CIF_QAKHES
_audit_creation_date 2016-03-17
_audit_creation_method CSD-ConQuest-V1
_database_code_CSD QAKHES
_database_code_depnum_ccdc_archive 'CCDC 1449528'
_chemical_formula_sum 'C11 H15 N4 O2'
_chemical_formula_moiety
;
C11 H15 N4 O2
;
_journal_coden_Cambridge 182
_journal_volume 52
_journal_year 2016
_journal_page_first 5033
_journal_name_full 'Chem.Commun. '
loop_
_publ_author_name
"Jian Wang"
"Jia-Nan Li"
"Shao-Liang Zhang"
"Xin-Hua Zhao"
"Dong Shao"
"Xin-Yi Wang"
_chemical_name_systematic
;
4,4,5,5-tetramethyl-2-(pyrimidin-2-yl)-4,5-dihydro-1H-3-imidazole-1,3-dioxide
;
_cell_volume   2428.676
_exptl_crystal_colour 'purple'
_exptl_crystal_density_diffrn 1.287
_exptl_crystal_description 'block'
_diffrn_ambient_temperature 296
#These two values have been output from a single CSD field.
_refine_ls_R_factor_gt 0.0719
_refine_ls_wR_factor_gt 0.0719
_symmetry_cell_setting monoclinic
_symmetry_space_group_name_H-M 'P 21/c'
_symmetry_Int_Tables_number 14
loop_
_symmetry_equiv_pos_site_id
_symmetry_equiv_pos_as_xyz
1 x,y,z
2 -x,1/2+y,1/2-z
3 -x,-y,-z
4 x,-1/2-y,-1/2+z
_cell_length_a 6.211(3)
_cell_length_b 40.769(17)
_cell_length_c 9.646(4)
_cell_angle_alpha 90
_cell_angle_beta 96.104(7)
_cell_angle_gamma 90
_cell_formula_units_Z 8
loop_
_atom_type_symbol
_atom_type_radius_bond
C 0.68
H 0.23
N 0.68
O 0.68
loop_
_atom_site_label
_atom_site_type_symbol
_atom_site_fract_x
_atom_site_fract_y
_atom_site_fract_z
O1 O 0.7012(4) 0.23174(6) 0.2209(3)
O2 O 0.3143(4) 0.13534(6) 0.1730(2)
N1 N 0.1387(4) 0.20310(7) 0.0544(3)
N2 N 0.4538(5) 0.20711(7) -0.0645(3)
N3 N 0.6408(4) 0.20236(6) 0.2423(3)
N4 N 0.4524(4) 0.15682(7) 0.2217(3)
C1 C 0.0226(6) 0.21542(9) -0.0576(4)
H1 H -0.12570 0.21810 -0.05530
C2 C 0.1112(6) 0.22423(9) -0.1753(4)
H2 H 0.02750 0.23290 -0.25230
C3 C 0.3300(7) 0.21971(9) -0.1747(4)
H3 H 0.39540 0.22560 -0.25340
C4 C 0.3480(5) 0.19992(7) 0.0435(3)
C5 C 0.4788(5) 0.18652(8) 0.1677(3)
C6 C 0.7173(5) 0.18376(8) 0.3738(3)
C7 C 0.6282(5) 0.14899(8) 0.3362(3)
C8 C 0.9627(6) 0.18569(9) 0.4011(4)
H4 H 1.02600 0.17850 0.31970
H5 H 1.01170 0.17180 0.47850
H6 H 1.00520 0.20790 0.42220
C9 C 0.6113(6) 0.20028(9) 0.4905(4)
H7 H 0.65720 0.22280 0.49840
H8 H 0.65300 0.18910 0.57680
H9 H 0.45670 0.19940 0.47000
C10 C 0.7866(6) 0.12686(9) 0.2688(4)
H10 H 0.71250 0.10750 0.23280
H11 H 0.90330 0.12070 0.33720
H12 H 0.84330 0.13840 0.19400
C11 C 0.5311(7) 0.13089(9) 0.4526(4)
H13 H 0.42040 0.14420 0.48670
H14 H 0.64230 0.12650 0.52720
H15 H 0.46910 0.11060 0.41750
O3 O 1.0671(4) 0.10703(6) -0.4196(2)
O4 O 0.8633(4) 0.01934(6) -0.1616(2)
N5 N 0.5799(4) 0.05014(7) -0.4326(3)
N6 N 0.8909(4) 0.03780(7) -0.5481(3)
N7 N 1.0538(4) 0.08758(7) -0.3170(3)
N8 N 0.9531(4) 0.04625(7) -0.1931(3)
C12 C 0.4540(6) 0.04010(8) -0.5454(4)
H16 H 0.30440 0.04100 -0.54510
C13 C 0.5382(6) 0.02846(8) -0.6619(4)
H17 H 0.44850 0.02150 -0.73960
C14 C 0.7583(6) 0.02755(9) -0.6594(4)
H18 H 0.81870 0.01960 -0.73690
C15 C 0.7919(5) 0.04847(7) -0.4419(3)
C16 C 0.9323(5) 0.06032(8) -0.3189(3)
C17 C 1.1421(5) 0.09689(8) -0.1703(3)
C18 C 1.1214(5) 0.06337(8) -0.0940(3)
C19 C 1.3710(6) 0.10976(9) -0.1717(4)
H19 H 1.45660 0.09390 -0.21480
H20 H 1.43340 0.11360 -0.07770
H21 H 1.36790 0.12990 -0.22340
C20 C 0.9920(6) 0.12374(9) -0.1264(4)
H22 H 0.99100 0.14180 -0.19040
H23 H 1.04270 0.13120 -0.03420
H24 H 0.84800 0.11520 -0.12690
C21 C 1.0411(7) 0.06551(9) 0.0488(3)
H25 H 0.90000 0.07540 0.04050
H26 H 1.13940 0.07860 0.10920
H27 H 1.03310 0.04390 0.08730
C22 C 1.3234(6) 0.04209(9) -0.0858(4)
H28 H 1.29040 0.02060 -0.05300
H29 H 1.43510 0.05180 -0.02250
H30 H 1.37220 0.04040 -0.17670
#END
