
#######################################################################
#
#                 Cambridge Crystallographic Data Centre
#                                CCDC
#
#######################################################################
#
# If this CIF has been generated from an entry in the Cambridge
# Structural Database, then it will include bibliographic, chemical,
# crystal, experimental, refinement or atomic coordinate data resulting
# from the CCDC's data processing and validation procedures.
#
#######################################################################

data_CSD_CIF_QAKQOK
_audit_creation_date 2011-02-04
_audit_creation_method CSD-ConQuest-V1
_database_code_CSD QAKQOK
_database_code_depnum_ccdc_archive 'CCDC 807435'
_chemical_formula_sum 'C10 H9 N3 O3'
_chemical_formula_moiety
;
C10 H9 N3 O3
;
_journal_coeditor_code "IUCr FK2032"
_journal_coden_Cambridge 1370
_journal_volume 67
_journal_year 2011
_journal_page_first o193
_journal_name_full 'Acta Crystallogr.,Sect.E:Struct.Rep.Online '
loop_
_publ_author_name
"Fang Zhang"
"Fei Liu"
"Qifan Chen"
"Mingdong Dong"
_chemical_name_systematic
;
3-(3-(Pyridin-3-yl)-1,2,4-oxadiazol-5-yl)propanoic acid
;
_cell_volume    979.243
_exptl_crystal_colour 'colorless'
_exptl_crystal_density_diffrn 1.487
_exptl_crystal_description 'block'
_diffrn_ambient_temperature 293
#These two values have been output from a single CSD field.
_refine_ls_R_factor_gt 0.0339
_refine_ls_wR_factor_gt 0.0339
_symmetry_cell_setting orthorhombic
_symmetry_space_group_name_H-M 'P n a 21'
_symmetry_Int_Tables_number 33
loop_
_symmetry_equiv_pos_site_id
_symmetry_equiv_pos_as_xyz
1 x,y,z
2 -x,-y,1/2+z
3 1/2-x,1/2+y,1/2+z
4 1/2+x,1/2-y,z
_cell_length_a 6.1298(12)
_cell_length_b 6.8194(14)
_cell_length_c 23.426(5)
_cell_angle_alpha 90
_cell_angle_beta 90
_cell_angle_gamma 90
_cell_formula_units_Z 4
loop_
_atom_type_symbol
_atom_type_radius_bond
C 0.68
H 0.23
N 0.68
O 0.68
loop_
_atom_site_label
_atom_site_type_symbol
_atom_site_fract_x
_atom_site_fract_y
_atom_site_fract_z
O1 O 0.8809(3) 0.4377(3) 0.16313(7)
O2 O 0.4239(4) 0.4072(4) 0.33554(8)
H1 H 0.32370 0.42770 0.35790
O3 O 0.2140(4) 0.5819(3) 0.27757(9)
N1 N 0.8817(4) 0.5436(3) -0.08242(9)
C1 C 0.8297(5) 0.5499(4) -0.02742(11)
H2 H 0.68950 0.58850 -0.01730
N2 N 0.6960(4) 0.5622(3) 0.09157(9)
N3 N 1.0181(4) 0.4195(3) 0.11489(9)
C2 C 0.9757(4) 0.5012(4) 0.01552(11)
C3 C 0.8992(4) 0.4978(3) 0.07499(10)
C4 C 0.3807(5) 0.4921(4) 0.28656(12)
C5 C 0.5595(4) 0.4565(4) 0.24436(11)
H3 H 0.57110 0.31670 0.23730
H4 H 0.69670 0.50020 0.26060
C6 C 0.5225(5) 0.5608(4) 0.18853(10)
H5 H 0.38260 0.52040 0.17310
H6 H 0.51530 0.70080 0.19560
C7 C 1.2425(5) 0.4437(4) -0.05639(12)
H7 H 1.38260 0.40880 -0.06770
C8 C 1.1881(4) 0.4503(4) 0.00047(12)
H8 H 1.29120 0.42140 0.02840
C9 C 0.6937(4) 0.5226(3) 0.14541(10)
C10 C 1.0850(5) 0.4898(4) -0.09637(13)
H9 H 1.12200 0.48320 -0.13480
#END
