
#######################################################################
#
#                 Cambridge Crystallographic Data Centre
#                                CCDC
#
#######################################################################
#
# If this CIF has been generated from an entry in the Cambridge
# Structural Database, then it will include bibliographic, chemical,
# crystal, experimental, refinement or atomic coordinate data resulting
# from the CCDC's data processing and validation procedures.
#
#######################################################################

data_CSD_CIF_QALCOV
_audit_creation_date 2001-03-02
_audit_creation_method CSD-ConQuest-V1
_database_code_CSD QALCOV
_database_code_depnum_ccdc_archive 'CCDC 141623'
_chemical_formula_sum 'C14 H19 N2 O3'
_chemical_formula_moiety
;
C14 H19 N2 O3
;
_journal_coden_Cambridge 1291
_journal_year 2000
_journal_page_first 3347
_journal_name_full 'Eur.J.Org.Chem. '
loop_
_publ_author_name
"R.Endtner"
"E.Rentschler"
"D.Blaser"
"R.Boese"
"R.Sustmann"
_chemical_name_systematic
;
4,4,5,5-Tetramethyl-2-(o-(hydroxymethyl)phenyl)-3-oxylimidazoline 1-oxide
;
_chemical_melting_point 365.15
_cell_volume   1400.809
_exptl_crystal_colour 'red'
_exptl_crystal_density_diffrn 1.249
_exptl_special_details
;
Melting point range 365.15-366.15K

;
_exptl_crystal_description 'block'
_exptl_crystal_preparation 'diethyl ether'
_diffrn_ambient_temperature ?
_diffrn_special_details
;
The study was carried out at room temperature,in the range 283-303K

;
#These two values have been output from a single CSD field.
_refine_ls_R_factor_gt 0.0716
_refine_ls_wR_factor_gt 0.0716
_symmetry_cell_setting monoclinic
_symmetry_space_group_name_H-M 'P 21/n'
_symmetry_Int_Tables_number 14
loop_
_symmetry_equiv_pos_site_id
_symmetry_equiv_pos_as_xyz
1 x,y,z
2 1/2+x,1/2-y,1/2+z
3 -x,-y,-z
4 -1/2-x,-1/2+y,-1/2-z
_cell_length_a 7.7292(12)
_cell_length_b 17.057(3)
_cell_length_c 10.6318(14)
_cell_angle_alpha 90
_cell_angle_beta 92.002(6)
_cell_angle_gamma 90
_cell_formula_units_Z 4
loop_
_atom_type_symbol
_atom_type_radius_bond
C 0.68
H 0.23
N 0.68
O 0.68
loop_
_atom_site_label
_atom_site_type_symbol
_atom_site_fract_x
_atom_site_fract_y
_atom_site_fract_z
N1 N 0.5725(4) 0.37717(16) 0.4638(2)
N2 N 0.5227(4) 0.30063(16) 0.6224(2)
O1 O 0.6299(4) 0.43453(16) 0.3986(2)
O2 O 0.5256(4) 0.27220(16) 0.7339(2)
O3 O 0.4081(3) 0.51556(16) 0.8506(2)
H1 H 0.39820 0.53810 0.76010
C1 C 0.6013(4) 0.36679(18) 0.5874(3)
C2 C 0.4425(5) 0.3195(2) 0.4120(3)
C3 C 0.4526(5) 0.2557(2) 0.5102(3)
C4 C 0.4657(8) 0.3010(3) 0.2785(4)
H2 H 0.45600 0.34820 0.22970
H3 H 0.37650 0.26490 0.25150
H4 H 0.57720 0.27760 0.26700
C5 C 0.2628(6) 0.3640(3) 0.4178(5)
H5 H 0.27190 0.41440 0.37850
H6 H 0.23260 0.37060 0.50400
H7 H 0.17480 0.33370 0.37420
C6 C 0.6037(8) 0.1968(3) 0.4799(6)
H8 H 0.64680 0.17270 0.55630
H9 H 0.69550 0.22530 0.44180
H10 H 0.56120 0.15700 0.42280
C7 C 0.3008(7) 0.2083(3) 0.5373(4)
H11 H 0.20340 0.24090 0.55570
H12 H 0.32870 0.17560 0.60850
H13 H 0.27230 0.17610 0.46550
C8 C 0.7163(4) 0.41561(18) 0.6682(3)
C9 C 0.8831(4) 0.4287(2) 0.6273(3)
H14 H 0.91610 0.40840 0.54740
C10 C 1.0009(5) 0.4701(2) 0.7011(4)
H15 H 1.11620 0.47870 0.67280
C11 C 0.9532(5) 0.4990(2) 0.8160(4)
H16 H 1.03540 0.52740 0.86820
C12 C 0.7868(5) 0.4879(2) 0.8560(3)
H17 H 0.75560 0.50880 0.93600
C13 C 0.6634(4) 0.44605(19) 0.7831(3)
C14 C 0.4824(5) 0.4400(2) 0.8280(3)
H18 H 0.41150 0.41310 0.76590
H19 H 0.48280 0.40990 0.90430
#END
