
#######################################################################
#
#                 Cambridge Crystallographic Data Centre
#                                CCDC
#
#######################################################################
#
# If this CIF has been generated from an entry in the Cambridge
# Structural Database, then it will include bibliographic, chemical,
# crystal, experimental, refinement or atomic coordinate data resulting
# from the CCDC's data processing and validation procedures.
#
#######################################################################

data_CSD_CIF_QALSAZ
_audit_creation_date 2011-03-31
_audit_creation_method CSD-ConQuest-V1
_database_code_CSD QALSAZ
_database_code_depnum_ccdc_archive 'CCDC 673684'
_chemical_formula_sum 'C31 H29 N3 O1'
_chemical_formula_moiety
;
C31 H29 N3 O1
;
_journal_coden_Cambridge 1127
_journal_volume 20
_journal_year 2010
_journal_page_first 6452
_journal_name_full 'Bioorg.Med.Chem.Lett. '
loop_
_publ_author_name
"P.Parthiban"
"S.Kabilan"
"V.Ramkumar"
"Yeon Tae Jeong"
_chemical_name_systematic
;
N-Hydroxy-2,4,6,8-tetraphenyl-3,7-diazabicyclo[3.3.1]nonan-9-imine
;
_chemical_name_common
;
2,4,6,8-Tetraphenyl-3,7-diazabicyclo[3.3.1]nonan-9-ones oxime
;
_cell_volume   2486.116
_exptl_crystal_colour 'colorless'
_exptl_crystal_density_diffrn 1.228
_exptl_special_details
;
Tested for antibacterial and antifungal activity

;
_exptl_crystal_description 'block'
_exptl_crystal_preparation 'ethanol'
_diffrn_ambient_temperature 297
_refine_special_details
;
O2 and O1 disordered over two sites with occupancies 0.525:0.474.

;
#These two values have been output from a single CSD field.
_refine_ls_R_factor_gt 0.05
_refine_ls_wR_factor_gt 0.05
_symmetry_cell_setting monoclinic
_symmetry_space_group_name_H-M 'P 21/c'
_symmetry_Int_Tables_number 14
loop_
_symmetry_equiv_pos_site_id
_symmetry_equiv_pos_as_xyz
1 x,y,z
2 -x,1/2+y,1/2-z
3 -x,-y,-z
4 x,-1/2-y,-1/2+z
_cell_length_a 14.4165(12)
_cell_length_b 7.0762(5)
_cell_length_c 24.5488(18)
_cell_angle_alpha 90
_cell_angle_beta 96.913(3)
_cell_angle_gamma 90
_cell_formula_units_Z 4
loop_
_atom_type_symbol
_atom_type_radius_bond
C 0.68
H 0.23
N 0.68
O 0.68
loop_
_atom_site_label
_atom_site_type_symbol
_atom_site_fract_x
_atom_site_fract_y
_atom_site_fract_z
C1 C 0.17515(12) 0.2382(2) 0.41890(7)
H1 H 0.12010 0.26920 0.39300
C2 C 0.19406(12) 0.0210(2) 0.41748(7)
H2 H 0.25670 0.00060 0.40690
C3 C 0.26019(12) 0.0313(2) 0.51523(7)
H3 H 0.32270 0.01420 0.50420
C4 C 0.23916(12) 0.2480(2) 0.51752(7)
H4 H 0.22450 0.28240 0.55420
C5 C 0.32207(12) 0.3701(2) 0.50222(7)
H5 H 0.30320 0.50310 0.50230
C6 C 0.26057(13) 0.3552(2) 0.40467(7)
H6 H 0.24450 0.48960 0.40570
C7 C 0.15807(12) 0.2934(2) 0.47570(7)
C8 C 0.12418(13) -0.0805(2) 0.37714(7)
C9 C 0.14336(16) -0.1131(3) 0.32437(8)
H7 H 0.20060 -0.07510 0.31420
C10 C 0.07957(19) -0.2008(4) 0.2864(1)
H8 H 0.09380 -0.22110 0.25090
C11 C -0.0046(2) -0.2582(4) 0.30072(11)
H9 H -0.04770 -0.31830 0.27520
C12 C -0.0247(2) -0.2266(5) 0.35277(11)
H10 H -0.08200 -0.26500 0.36270
C13 C 0.03884(18) -0.1385(4) 0.39092(10)
H11 H 0.02400 -0.11800 0.42630
C14 C 0.25663(13) -0.0664(2) 0.56976(7)
C15 C 0.17638(17) -0.1521(4) 0.58334(9)
H12 H 0.12200 -0.14830 0.55880
C16 C 0.1764(2) -0.2439(4) 0.63336(10)
H13 H 0.12230 -0.30380 0.64150
C17 C 0.2539(2) -0.2477(3) 0.67044(9)
H14 H 0.25280 -0.30770 0.70410
C18 C 0.33362(19) -0.1627(3) 0.65804(9)
H15 H 0.38710 -0.16410 0.68340
C19 C 0.33517(16) -0.0744(3) 0.60783(8)
H16 H 0.39030 -0.01920 0.59960
C20 C 0.40862(12) 0.3467(2) 0.54263(7)
C21 C 0.41057(14) 0.4260(3) 0.59460(8)
H17 H 0.35970 0.49620 0.60310
C22 C 0.48665(16) 0.4023(3) 0.63365(8)
H18 H 0.48650 0.45590 0.66820
C23 C 0.56270(15) 0.3003(3) 0.62188(9)
H19 H 0.61370 0.28270 0.64840
C24 C 0.56253(14) 0.2246(3) 0.57034(9)
H20 H 0.61430 0.15700 0.56190
C25 C 0.48640(13) 0.2475(3) 0.53086(8)
H21 H 0.48750 0.19570 0.49610
C26 C 0.28541(13) 0.3100(2) 0.34798(7)
C27 C 0.36184(15) 0.2010(3) 0.33906(8)
H22 H 0.40160 0.15570 0.36890
C28 C 0.37986(17) 0.1587(4) 0.28630(9)
H23 H 0.43090 0.08360 0.28100
C29 C 0.3233(2) 0.2264(4) 0.24201(10)
H24 H 0.33610 0.19920 0.20660
C30 C 0.2474(2) 0.3349(4) 0.25022(9)
H25 H 0.20840 0.38060 0.22020
C31 C 0.22843(16) 0.3768(3) 0.30257(8)
H26 H 0.17680 0.45080 0.30750
N1 N 0.19165(11) -0.0539(2) 0.47331(6)
N2 N 0.33949(11) 0.3201(2) 0.44652(6)
N3 N 0.08606(11) 0.3835(2) 0.48645(6)
O1 O 0.0867(2) 0.4338(5) 0.54225(11)
H27 H 0.2010(15) -0.181(3) 0.4740(8)
H28 H 0.3921(15) 0.388(3) 0.4387(8)
H29 H 0.030(3) 0.506(5) 0.5431(11)
O2? O 0.0183(2) 0.4180(5) 0.44072(14)
#END
