
#######################################################################
#
#                 Cambridge Crystallographic Data Centre
#                                CCDC
#
#######################################################################
#
# If this CIF has been generated from an entry in the Cambridge
# Structural Database, then it will include bibliographic, chemical,
# crystal, experimental, refinement or atomic coordinate data resulting
# from the CCDC's data processing and validation procedures.
#
#######################################################################

data_CSD_CIF_QALWOR
_audit_creation_date 2011-03-31
_audit_creation_method CSD-ConQuest-V1
_database_code_CSD QALWOR
_database_code_depnum_ccdc_archive 'CCDC 775656'
_chemical_formula_sum 'C6 H10 N6 O14'
_chemical_formula_moiety
;
C6 H10 N6 O14
;
_journal_coden_Cambridge 29
_journal_volume 636
_journal_year 2010
_journal_page_first 2343
_journal_name_full 'Z.Anorg.Allg.Chem. '
loop_
_publ_author_name
"T.M.Klapotke"
"B.Krumm"
"F.X.Steemann"
"K.-D.Umland"
_chemical_name_systematic
;
(Nitroimino)dipropane-2,1,3-triyl tetranitrate
;
_chemical_name_common
;
bis(1,3-Dinitratoprop-2-yl) nitramine
;
_cell_volume   1426.671
_exptl_crystal_colour 'colorless'
_exptl_crystal_density_diffrn 1.817
_exptl_special_details
;
explosive
impact-sensitive

;
_exptl_crystal_description 'needle'
_exptl_crystal_preparation 'dichloromethane/n-hexane'
_diffrn_ambient_temperature 100
#These two values have been output from a single CSD field.
_refine_ls_R_factor_gt 0.0291
_refine_ls_wR_factor_gt 0.0291
_symmetry_cell_setting orthorhombic
_symmetry_space_group_name_H-M 'P 21 21 21'
_symmetry_Int_Tables_number 19
loop_
_symmetry_equiv_pos_site_id
_symmetry_equiv_pos_as_xyz
1 x,y,z
2 1/2-x,-y,1/2+z
3 1/2+x,1/2-y,-z
4 -x,1/2+y,1/2-z
_cell_length_a 6.12266(17)
_cell_length_b 10.4051(2)
_cell_length_c 22.3943(5)
_cell_angle_alpha 90
_cell_angle_beta 90
_cell_angle_gamma 90
_cell_formula_units_Z 4
loop_
_atom_type_symbol
_atom_type_radius_bond
C 0.68
H 0.23
N 0.68
O 0.68
loop_
_atom_site_label
_atom_site_type_symbol
_atom_site_fract_x
_atom_site_fract_y
_atom_site_fract_z
C1 C 0.3713(3) -0.05691(16) 0.57704(7)
H1 H 0.51750 -0.04060 0.59540
C2 C 0.3385(3) -0.20400(16) 0.57579(8)
H2 H 0.27410 -0.23300 0.61400
H3 H 0.23670 -0.22730 0.54320
C3 C 0.3814(3) -0.00663(17) 0.51325(8)
H4 H 0.48240 -0.05920 0.48890
H5 H 0.23500 -0.00850 0.49460
C4 C 0.2658(3) 0.09112(16) 0.66612(7)
H6 H 0.12720 0.13000 0.68130
C5 C 0.3621(3) 0.01019(17) 0.71659(8)
H7 H 0.51190 -0.01700 0.70570
H8 H 0.37160 0.06290 0.75330
C6 C 0.4209(3) 0.20099(17) 0.65179(8)
H9 H 0.46980 0.24390 0.68890
H10 H 0.55090 0.16870 0.63020
N1 N 0.2093(2) 0.01135(14) 0.61382(6)
N2 N -0.0045(3) -0.01818(13) 0.60583(7)
N3 N 0.6694(3) -0.28480(14) 0.61932(7)
N4 N 0.4122(3) 0.20187(15) 0.46865(7)
N5 N 0.0379(3) -0.07545(17) 0.76126(7)
N6 N 0.3669(3) 0.41785(14) 0.61917(7)
O1 O -0.1401(2) 0.02262(13) 0.64212(6)
O2 O -0.0514(2) -0.08481(12) 0.56197(6)
O3 O 0.5469(2) -0.26695(11) 0.56648(5)
O4 O 0.8405(2) -0.33727(13) 0.61036(7)
O5 O 0.5908(2) -0.24773(13) 0.66578(6)
O6 O 0.4606(2) 0.12449(11) 0.51823(5)
O7 O 0.4708(2) 0.31156(12) 0.47590(6)
O8 O 0.3242(2) 0.15372(13) 0.42631(5)
O9 O 0.2302(2) -0.10190(12) 0.72810(5)
O10 O -0.0751(3) -0.16935(16) 0.76645(8)
O11 O 0.0084(3) 0.03158(14) 0.77907(7)
O12 O 0.2987(2) 0.28975(11) 0.61467(6)
O13 O 0.5063(3) 0.44522(12) 0.65504(6)
O14 O 0.2704(3) 0.48709(13) 0.58509(6)
#END
