
#######################################################################
#
#                 Cambridge Crystallographic Data Centre
#                                CCDC
#
#######################################################################
#
# If this CIF has been generated from an entry in the Cambridge
# Structural Database, then it will include bibliographic, chemical,
# crystal, experimental, refinement or atomic coordinate data resulting
# from the CCDC's data processing and validation procedures.
#
#######################################################################

data_CSD_CIF_QAMJIA
_audit_creation_date 2016-03-18
_audit_creation_method CSD-ConQuest-V1
_database_code_CSD QAMJIA
_database_code_depnum_ccdc_archive 'CCDC 668626'
_chemical_formula_sum 'C13 H12 N2 O3'
_chemical_formula_moiety
;
C13 H12 N2 O3
;
_journal_coden_Cambridge 692
_journal_year 2008
_journal_page_first 1889
_journal_name_full 'Synthesis '
loop_
_publ_author_name
"C.Gebhardt"
"B.Priewisch"
"E.Irran"
"K.Ruck-Braun"
_chemical_name_systematic
;
4-methoxy-N-(4-nitrophenyl)aniline
;
_chemical_melting_point 417
_cell_volume   2323.708
_exptl_crystal_colour 'orange'
_exptl_crystal_density_diffrn 1.396
_exptl_special_details
;
methanol

;
_exptl_crystal_description 'block'
_diffrn_ambient_temperature 123
#These two values have been output from a single CSD field.
_refine_ls_R_factor_gt 0.0319
_refine_ls_wR_factor_gt 0.0319
_symmetry_cell_setting monoclinic
_symmetry_space_group_name_H-M 'P 21'
_symmetry_Int_Tables_number 4
loop_
_symmetry_equiv_pos_site_id
_symmetry_equiv_pos_as_xyz
1 x,y,z
2 -x,1/2+y,-z
_cell_length_a 9.9620(15)
_cell_length_b 23.540(5)
_cell_length_c 10.285(3)
_cell_angle_alpha 90
_cell_angle_beta 105.541(18)
_cell_angle_gamma 90
_cell_formula_units_Z 8
loop_
_atom_type_symbol
_atom_type_radius_bond
C 0.68
H 0.23
N 0.68
O 0.68
loop_
_atom_site_label
_atom_site_type_symbol
_atom_site_fract_x
_atom_site_fract_y
_atom_site_fract_z
N1 N 0.1346(3) 0.56635(13) 0.5852(3)
N2 N 0.5986(3) 0.46040(12) 0.9274(3)
H1 H 0.66470 0.48420 0.96810
O1 O 0.0401(3) 0.53674(11) 0.5168(3)
O2 O 0.1258(3) 0.61903(12) 0.5871(3)
O3 O 0.7002(2) 0.23533(10) 1.0942(3)
C1 C 0.2586(4) 0.53863(15) 0.6650(4)
C2 C 0.2705(4) 0.48040(15) 0.6612(4)
H2 H 0.20020 0.45890 0.60030
C3 C 0.3623(4) 0.57139(16) 0.7507(4)
H3 H 0.35490 0.61160 0.75200
C4 C 0.3820(3) 0.45317(17) 0.7440(4)
H4 H 0.38930 0.41300 0.73980
C5 C 0.4759(4) 0.54379(15) 0.8336(4)
H5 H 0.54850 0.56570 0.89030
C6 C 0.4868(4) 0.48447(15) 0.8362(4)
C7 C 0.6224(4) 0.40291(15) 0.9651(4)
C8 C 0.5153(3) 0.36614(13) 0.9758(3)
H6 H 0.42180 0.37940 0.95500
C9 C 0.7577(3) 0.38287(13) 1.0007(3)
H7 H 0.83130 0.40760 0.99520
C10 C 0.5454(3) 0.31074(13) 1.0164(3)
H8 H 0.47180 0.28570 1.01990
C11 C 0.7884(3) 0.32761(13) 1.0442(3)
H9 H 0.88210 0.31460 1.06850
C12 C 0.6807(4) 0.29116(14) 1.0518(3)
C13 C 0.8413(3) 0.21428(14) 1.1326(4)
H10 H 0.88030 0.21590 1.05470
H11 H 0.84180 0.17490 1.16340
H12 H 0.89770 0.23780 1.20570
N3 N 0.6280(4) 0.58292(14) 0.5976(3)
N4 N 1.1002(3) 0.47341(11) 0.9120(3)
H13 H 1.16770 0.49610 0.95530
O4 O 0.5311(3) 0.55532(12) 0.5290(3)
O5 O 0.6226(3) 0.63612(12) 0.6048(3)
O6 O 1.2072(2) 0.24332(9) 1.0141(2)
C14 C 0.7538(4) 0.55474(15) 0.6712(4)
C15 C 0.7537(4) 0.49626(15) 0.6791(4)
H14 H 0.67370 0.47540 0.63210
C16 C 0.8689(4) 0.58598(16) 0.7400(4)
H15 H 0.86750 0.62630 0.73470
C17 C 0.8681(3) 0.46823(16) 0.7542(4)
H16 H 0.86820 0.42790 0.75750
C18 C 0.9847(4) 0.55838(15) 0.8158(4)
H17 H 1.06440 0.57970 0.86120
C19 C 0.9869(4) 0.49877(14) 0.8273(4)
C20 C 1.1206(3) 0.41464(14) 0.9375(4)
C21 C 1.1099(3) 0.37515(12) 0.8338(3)
H18 H 1.08430 0.38740 0.74250
C22 C 1.1572(3) 0.39534(12) 1.0689(3)
H19 H 1.16290 0.42170 1.14010
C23 C 1.1361(3) 0.31857(13) 0.8633(3)
H20 H 1.12680 0.29190 0.79210
C24 C 1.1860(3) 0.33851(13) 1.1000(3)
H21 H 1.21200 0.32620 1.19130
C25 C 1.1763(3) 0.30008(13) 0.9967(3)
C26 C 1.2546(4) 0.22249(15) 1.1483(4)
H22 H 1.34070 0.24220 1.19520
H23 H 1.27260 0.18160 1.14640
H24 H 1.18320 0.22930 1.19610
N5 N -0.1226(3) 0.56305(14) 0.0892(3)
N6 N 0.3459(3) 0.67150(12) 0.4098(3)
H25 H 0.41280 0.64850 0.45280
O7 O -0.2195(3) 0.59170(11) 0.0176(3)
O8 O -0.1296(3) 0.51075(12) 0.0971(3)
O9 O 0.4589(2) 0.90129(9) 0.5129(2)
C27 C -0.0008(4) 0.59139(16) 0.1671(4)
C28 C 0.0038(4) 0.65019(15) 0.1667(4)
H26 H -0.07200 0.67130 0.11260
C29 C 0.1120(4) 0.55926(17) 0.2419(4)
H27 H 0.10920 0.51890 0.23850
C30 C 0.1197(3) 0.67786(17) 0.2456(4)
H28 H 0.12370 0.71820 0.24590
C31 C 0.2255(4) 0.58671(15) 0.3194(4)
H29 H 0.30230 0.56530 0.37060
C32 C 0.2309(4) 0.64639(15) 0.3249(4)
C33 C 0.3684(4) 0.73022(15) 0.4358(4)
C34 C 0.3611(3) 0.76931(12) 0.3329(3)
H30 H 0.33630 0.75690 0.24160
C35 C 0.4063(3) 0.74918(12) 0.5681(3)
H31 H 0.41060 0.72290 0.63920
C36 C 0.3895(3) 0.82610(13) 0.3623(3)
H32 H 0.38110 0.85260 0.29100
C37 C 0.4381(3) 0.80606(13) 0.5987(3)
H33 H 0.46510 0.81840 0.69000
C38 C 0.4301(3) 0.84455(13) 0.4948(3)
C39 C 0.5094(4) 0.92216(15) 0.6471(4)
H34 H 0.43850 0.91640 0.69600
H35 H 0.52990 0.96280 0.64470
H36 H 0.59460 0.90170 0.69310
N7 N 0.3868(3) 0.56813(14) 0.0953(3)
N8 N 0.8546(3) 0.67398(13) 0.4275(3)
H37 H 0.92240 0.65040 0.46510
O10 O 0.2918(3) 0.59756(12) 0.0244(3)
O11 O 0.3784(3) 0.51600(12) 0.1038(3)
O12 O 0.9583(2) 0.89953(10) 0.5911(3)
C40 C 0.5108(4) 0.59614(16) 0.1735(4)
C41 C 0.5204(4) 0.65481(15) 0.1683(4)
H38 H 0.44900 0.67620 0.10870
C42 C 0.6201(3) 0.56379(17) 0.2517(4)
H39 H 0.61630 0.52350 0.24800
C43 C 0.6356(4) 0.68178(17) 0.2511(4)
H40 H 0.64320 0.72200 0.24820
C44 C 0.7321(4) 0.59048(16) 0.3332(4)
H41 H 0.80620 0.56850 0.38730
C45 C 0.7405(4) 0.65024(15) 0.3390(4)
C46 C 0.8771(4) 0.73165(15) 0.4660(4)
C47 C 0.7730(3) 0.76829(13) 0.4793(3)
H42 H 0.67970 0.75500 0.46050
C48 C 1.0138(3) 0.75208(12) 0.4989(3)
H43 H 1.08690 0.72740 0.49140
C49 C 0.8026(3) 0.82395(13) 0.5195(3)
H44 H 0.72960 0.84890 0.52560
C50 C 1.0451(3) 0.80725(12) 0.5419(3)
H45 H 1.13910 0.82000 0.56490
C51 C 0.9413(4) 0.84360(15) 0.5516(4)
C52 C 1.0965(3) 0.92129(14) 0.6260(4)
H46 H 1.15550 0.89800 0.69800
H47 H 1.09610 0.96060 0.65730
H48 H 1.13320 0.92030 0.54660
#END
