
#######################################################################
#
#                 Cambridge Crystallographic Data Centre
#                                CCDC
#
#######################################################################
#
# If this CIF has been generated from an entry in the Cambridge
# Structural Database, then it will include bibliographic, chemical,
# crystal, experimental, refinement or atomic coordinate data resulting
# from the CCDC's data processing and validation procedures.
#
#######################################################################

data_CSD_CIF_QAMJOG
_audit_creation_date 2016-03-18
_audit_creation_method CSD-ConQuest-V1
_database_code_CSD QAMJOG
_database_code_depnum_ccdc_archive 'CCDC 656449'
_chemical_formula_sum 'C14 H18 N2 O6'
_chemical_formula_moiety
;
C14 H18 N2 O6
;
_journal_coden_Cambridge 692
_journal_year 2007
_journal_page_first 3851
_journal_name_full 'Synthesis '
loop_
_publ_author_name
"L.F.Silva Junior"
"M.V.Craveiro"
"M.T.P.Gambardela"
_chemical_name_systematic
;
t-butyl 2-methoxy-3-(nitrooxy)indoline-1-carboxylate
;
_cell_volume   3214.895
_exptl_crystal_colour 'white'
_exptl_crystal_density_diffrn 1.282
_exptl_special_details
;
hexane

;
_exptl_crystal_description 'irregular'
_diffrn_ambient_temperature 293
#These two values have been output from a single CSD field.
_refine_ls_R_factor_gt 0.0398
_refine_ls_wR_factor_gt 0.0398
_symmetry_cell_setting tetragonal
_symmetry_space_group_name_H-M 'P 43 21 2'
_symmetry_Int_Tables_number 96
loop_
_symmetry_equiv_pos_site_id
_symmetry_equiv_pos_as_xyz
1 x,y,z
2 1/2+x,1/2-y,1/4-z
3 -x,-y,1/2+z
4 1/2-x,1/2+y,3/4-z
5 y,x,-z
6 1/2+y,1/2-x,1/4+z
7 1/2-y,1/2+x,3/4+z
8 -y,-x,1/2-z
_cell_length_a 10.255(2)
_cell_length_b 10.255(2)
_cell_length_c 30.570(9)
_cell_angle_alpha 90
_cell_angle_beta 90
_cell_angle_gamma 90
_cell_formula_units_Z 8
loop_
_atom_type_symbol
_atom_type_radius_bond
C 0.68
H 0.23
N 0.68
O 0.68
loop_
_atom_site_label
_atom_site_type_symbol
_atom_site_fract_x
_atom_site_fract_y
_atom_site_fract_z
N1 N 0.1299(3) 0.4781(3) 0.15095(9)
N2 N 0.1355(6) 0.6387(5) 0.27481(13)
O1 O 0.1269(3) 0.5194(3) 0.07830(8)
O2 O 0.3027(3) 0.5681(3) 0.12026(8)
O3 O 0.2784(3) 0.3633(3) 0.19388(9)
O4 O 0.0489(3) 0.5846(3) 0.24423(8)
O5 O 0.2346(4) 0.5812(4) 0.28220(11)
O6 O 0.0950(5) 0.7374(5) 0.29052(14)
C1 C 0.0029(4) 0.4280(3) 0.15662(12)
C2 C -0.0880(4) 0.3958(4) 0.12526(13)
H1 H -0.07100 0.40630 0.09560
C3 C -0.2068(4) 0.3468(4) 0.14018(18)
H2 H -0.27070 0.32460 0.11990
C4 C -0.2316(5) 0.3307(5) 0.18332(19)
H3 H -0.31150 0.29690 0.19210
C5 C -0.1397(5) 0.3639(4) 0.21436(15)
H4 H -0.15680 0.35330 0.24400
C6 C -0.0219(4) 0.4130(3) 0.20021(12)
C7 C 0.0909(4) 0.4602(4) 0.22643(12)
H5 H 0.11440 0.39840 0.24960
C8 C 0.2003(4) 0.4749(4) 0.19272(10)
H6 H 0.25120 0.55460 0.19750
C9 C 0.1823(4) 0.5221(4) 0.11301(14)
C10 C 0.3801(5) 0.6319(5) 0.08574(14)
C11 C 0.5032(4) 0.6667(5) 0.10981(15)
H7 H 0.55910 0.71650 0.09100
H8 H 0.54720 0.58840 0.11860
H9 H 0.48190 0.71750 0.13520
C12 C 0.3061(6) 0.7527(6) 0.07089(19)
H10 H 0.22400 0.72720 0.05850
H11 H 0.35650 0.79830 0.04930
H12 H 0.29120 0.80880 0.09550
C13 C 0.4058(5) 0.5383(6) 0.04929(17)
H13 H 0.44430 0.46020 0.06090
H14 H 0.46450 0.57730 0.02860
H15 H 0.32520 0.51710 0.03500
C14 C 0.4014(6) 0.3779(7) 0.2103(2)
H16 H 0.45250 0.42980 0.19060
H17 H 0.44120 0.29380 0.21370
H18 H 0.39690 0.42040 0.23830
#END
