
#######################################################################
#
#                 Cambridge Crystallographic Data Centre
#                                CCDC
#
#######################################################################
#
# If this CIF has been generated from an entry in the Cambridge
# Structural Database, then it will include bibliographic, chemical,
# crystal, experimental, refinement or atomic coordinate data resulting
# from the CCDC's data processing and validation procedures.
#
#######################################################################

data_CSD_CIF_QAMNAT01
_audit_creation_date 2002-03-06
_audit_creation_method CSD-ConQuest-V1
_database_code_CSD QAMNAT01
_database_code_depnum_ccdc_archive 'CCDC 179290'
_chemical_formula_sum 'C14 H9 N1 O2'
_chemical_formula_moiety
;
C14 H9 N1 O2
;
_journal_coeditor_code "IUCr TA1338"
_journal_coden_Cambridge 591
_journal_volume 57
_journal_year 2001
_journal_page_first 1462
_journal_name_full 'Acta Crystallogr.,Sect.C:Cryst.Struct.Commun. '
loop_
_publ_author_name
"A.Sekine"
"H.Uekusa"
"Y.Ohashi"
"K.Yoshimura"
"M.Yagi"
"J.Higuchi"
_chemical_name_systematic
;
4-nitrophenanthrene
;
_cell_volume   2128.847
_exptl_crystal_colour 'light yellow'
_exptl_crystal_density_diffrn 1.393
_exptl_special_details
;
room temperature polymorph
There is the possibility of a phase transition between 296-168K, the 
temperature at which the other polymorph was studied
;
_exptl_crystal_description 'prismatic'
_exptl_crystal_preparation 'hexane'
_diffrn_ambient_temperature 296
#These two values have been output from a single CSD field.
_refine_ls_R_factor_gt 0.0539
_refine_ls_wR_factor_gt 0.0539
_symmetry_cell_setting monoclinic
_symmetry_space_group_name_H-M 'P 21/c'
_symmetry_Int_Tables_number 14
loop_
_symmetry_equiv_pos_site_id
_symmetry_equiv_pos_as_xyz
1 x,y,z
2 x,1/2-y,1/2+z
3 -x,-y,-z
4 -x,-1/2+y,-1/2-z
_cell_length_a 15.934(7)
_cell_length_b 12.471(5)
_cell_length_c 11.436(5)
_cell_angle_alpha 90
_cell_angle_beta 110.48(5)
_cell_angle_gamma 90
_cell_formula_units_Z 8
loop_
_atom_type_symbol
_atom_type_radius_bond
C 0.68
H 0.23
N 0.68
O 0.68
loop_
_atom_site_label
_atom_site_type_symbol
_atom_site_fract_x
_atom_site_fract_y
_atom_site_fract_z
N1 N 0.6026(2) 0.3115(2) 1.0396(2)
O1 O 0.65477(15) 0.2549(2) 1.1180(2)
O2 O 0.6251(2) 0.3922(2) 0.9962(2)
C1 C 0.3289(2) 0.2457(3) 0.9488(3)
H1 H 0.26850 0.23220 0.93280
C2 C 0.3664(2) 0.3368(3) 1.0105(3)
H2 H 0.33160 0.38540 1.03520
C3 C 0.4567(2) 0.3571(3) 1.0365(3)
H3 H 0.48300 0.41840 1.08040
C4 C 0.5067(2) 0.2858(2) 0.9970(2)
C5 C 0.4712(2) 0.1907(2) 0.9282(2)
C6 C 0.5204(2) 0.1149(2) 0.8791(2)
C7 C 0.6061(2) 0.1335(2) 0.8722(2)
H4 H 0.63410 0.19900 0.89890
C8 C 0.6487(2) 0.0574(3) 0.8270(3)
H5 H 0.70480 0.07210 0.82270
C9 C 0.6090(2) -0.0417(3) 0.7875(3)
H6 H 0.63940 -0.09420 0.76040
C10 C 0.5256(2) -0.0614(2) 0.7887(3)
H7 H 0.49910 -0.12770 0.76140
C11 C 0.4779(2) 0.0159(2) 0.8303(2)
C12 C 0.3874(2) -0.0020(2) 0.8184(3)
H8 H 0.36040 -0.06690 0.78630
C13 C 0.3398(2) 0.0726(2) 0.8523(3)
H9 H 0.27970 0.06010 0.83910
C14 C 0.3801(2) 0.1710(2) 0.9086(2)
N2 N 0.8639(2) 0.3028(2) 0.9130(3)
O3 O 0.8352(2) 0.3760(2) 0.8385(3)
O4 O 0.8162(2) 0.2440(2) 0.9473(3)
C15 C 1.1404(2) 0.2669(3) 1.0986(3)
H10 H 1.20110 0.25980 1.14460
C16 C 1.0952(2) 0.3554(3) 1.1156(3)
H11 H 1.12540 0.40910 1.17080
C17 C 1.0047(2) 0.3643(2) 1.0506(3)
H12 H 0.97310 0.42300 1.06370
C18 C 0.9615(2) 0.2871(2) 0.9669(3)
C19 C 1.0042(2) 0.1953(2) 0.9402(2)
C20 C 0.9618(2) 0.1122(2) 0.8481(2)
C21 C 0.8750(2) 0.1185(2) 0.7578(3)
H13 H 0.84200 0.18110 0.75160
C22 C 0.8379(2) 0.0348(3) 0.6789(3)
H14 H 0.78040 0.04130 0.62030
C23 C 0.8856(2) -0.0598(3) 0.6857(3)
H15 H 0.85920 -0.11780 0.63510
C24 C 0.9710(2) -0.0669(2) 0.7668(3)
H16 H 1.00340 -0.12930 0.76910
C25 C 1.0118(2) 0.0184(2) 0.8480(2)
C26 C 1.1037(2) 0.0108(2) 0.9271(3)
H17 H 1.13570 -0.05140 0.92650
C27 C 1.1441(2) 0.0922(2) 1.0019(3)
H18 H 1.20490 0.08720 1.04840
C28 C 1.0963(2) 0.1861(2) 1.0122(2)
#END
