
#######################################################################
#
#                 Cambridge Crystallographic Data Centre
#                                CCDC
#
#######################################################################
#
# If this CIF has been generated from an entry in the Cambridge
# Structural Database, then it will include bibliographic, chemical,
# crystal, experimental, refinement or atomic coordinate data resulting
# from the CCDC's data processing and validation procedures.
#
#######################################################################

data_CSD_CIF_QAMZUB
_audit_creation_date 2012-06-01
_audit_creation_method CSD-ConQuest-V1
_database_code_CSD QAMZUB
_database_code_depnum_ccdc_archive 'CCDC 764734'
_chemical_formula_sum 'C20 H22 N2 O3'
_chemical_formula_moiety
;
C20 H22 N2 O3
;
_journal_coden_Cambridge 1291
_journal_year 2012
_journal_page_first 1418
_journal_name_full 'Eur.J.Org.Chem. '
loop_
_publ_author_name
"P.Quadrelli"
"F.Lunghi"
"B.Bovio"
"W.Gautschi"
"P.Caramella"
_chemical_name_systematic
;
6-Butoxy-3,7a-diphenyl-7,7a-dihydro-6H-[1,2]oxazolo[2,3-d][1,2,4]oxadiazole
;
_cell_volume    906.007
_exptl_crystal_colour 'colorless'
_exptl_crystal_density_diffrn 1.24
_exptl_crystal_description 'prisms'
_diffrn_ambient_temperature 293
#These two values have been output from a single CSD field.
_refine_ls_R_factor_gt 0.0503
_refine_ls_wR_factor_gt 0.0503
_symmetry_cell_setting triclinic
_symmetry_space_group_name_H-M 'P -1'
_symmetry_Int_Tables_number 2
loop_
_symmetry_equiv_pos_site_id
_symmetry_equiv_pos_as_xyz
1 x,y,z
2 -x,-y,-z
_cell_length_a 7.7269(9)
_cell_length_b 10.724(3)
_cell_length_c 12.719(2)
_cell_angle_alpha 112.23(1)
_cell_angle_beta 100.83(1)
_cell_angle_gamma 103.00(2)
_cell_formula_units_Z 2
loop_
_atom_type_symbol
_atom_type_radius_bond
C 0.68
H 0.23
N 0.68
O 0.68
loop_
_atom_site_label
_atom_site_type_symbol
_atom_site_fract_x
_atom_site_fract_y
_atom_site_fract_z
O1 O 0.71772(15) 0.2219(1) 0.12387(9)
N1 N 0.80886(17) 0.34952(13) 0.22875(10)
C1 C 0.91648(17) 0.43546(13) 0.20304(10)
N2 N 0.90020(15) 0.38672(10) 0.08000(9)
O2 O 1.07583(14) 0.37654(10) 0.05841(8)
C2 C 1.07775(22) 0.23617(15) 0.04002(13)
C3 C 0.87804(23) 0.14414(16) -0.02696(15)
C4 C 0.76720(19) 0.24104(13) 0.02432(11)
O3 O 1.13212(14) 0.22605(11) 0.1457(1)
C5 C 1.32490(25) 0.30538(28) 0.21313(19)
C6 C 1.37317(33) 0.27031(33) 0.31441(22)
C7 C 1.27077(37) 0.31060(37) 0.40187(23)
C8 C 1.32364(59) 0.26979(63) 0.50395(37)
C9 C 1.03813(17) 0.57886(13) 0.29188(11)
C10 C 1.06791(25) 0.61609(19) 0.41244(14)
C11 C 1.17847(27) 0.75140(21) 0.49640(15)
C12 C 1.26060(24) 0.85017(19) 0.46136(16)
C13 C 1.23645(25) 0.81319(18) 0.34232(16)
C14 C 1.12473(21) 0.67751(15) 0.25685(13)
C15 C 0.59027(19) 0.22081(13) -0.06372(11)
C16 C 0.55842(25) 0.33063(16) -0.08781(14)
C17 C 0.39320(26) 0.30522(22) -0.17082(17)
C18 C 0.26042(25) 0.17173(22) -0.22841(15)
C19 C 0.29053(24) 0.06329(20) -0.20270(15)
C20 C 0.45473(22) 0.08618(16) -0.12158(14)
H1 H 1.1679(22) 0.2178(17) -0.0081(15)
H2 H 0.8451(25) 0.0590(21) -0.0194(16)
H3 H 0.8583(23) 0.1262(18) -0.1129(17)
H4 H 1.3431(34) 0.4068(2) 0.2415(23)
H5 H 1.4020(22) 0.2819(23) 0.1622(20)
H6 H 1.5057(21) 0.3219(29) 0.3560(25)
H7 H 1.3547(17) 0.1709(14) 0.2836(11)
H8 H 1.1368(41) 0.2630(28) 0.3606(24)
H9 H 1.2911(47) 0.4120(35) 0.4350(25)
H10 H 1.2511(46) 0.2989(40) 0.5574(35)
H11? H 1.4531(54) 0.317(35) 0.3458(31)
H12 H 1.2865(66) 0.1688(54) 0.4721(42)
H13 H 1.0034(26) 0.5481(20) 0.4335(17)
H14 H 1.1969(28) 0.7769(22) 0.5773(20)
H15 H 1.3404(28) 0.9481(23) 0.5189(19)
H16 H 1.294(3) 0.8809(24) 0.3181(19)
H17 H 1.1046(23) 0.6574(18) 0.1729(16)
H18 H 0.6506(22) 0.4260(17) -0.0491(1)
H19 H 0.3720(25) 0.382(2) -0.1885(21)
H20 H 0.1468(30) 0.1511(25) -0.2895(20)
H21 H 0.1982(30) -0.0298(24) -0.2424(19)
H22 H 0.4775(28) 0.0048(22) -0.1080(18)
#END
