
#######################################################################
#
#                 Cambridge Crystallographic Data Centre
#                                CCDC
#
#######################################################################
#
# If this CIF has been generated from an entry in the Cambridge
# Structural Database, then it will include bibliographic, chemical,
# crystal, experimental, refinement or atomic coordinate data resulting
# from the CCDC's data processing and validation procedures.
#
#######################################################################

data_CSD_CIF_QANWAE
_audit_creation_date 2005-10-28
_audit_creation_method CSD-ConQuest-V1
_database_code_CSD QANWAE
_database_code_depnum_ccdc_archive 'CCDC 274654'
_chemical_formula_sum 'C10 H10 N2 O3'
_chemical_formula_moiety
;
C10 H10 N2 O3
;
_journal_coeditor_code "IUCr SU6201"
_journal_coden_Cambridge 1370
_journal_volume 61
_journal_year 2005
_journal_page_first o1670
_journal_name_full 'Acta Crystallogr.,Sect.E:Struct.Rep.Online '
loop_
_publ_author_name
"Li-Fang Zhao"
_chemical_name_systematic
;
2-(Cyclopropyliminomethyl)-4-nitrophenol
;
_cell_volume    976.569
_exptl_crystal_colour 'yellow'
_exptl_crystal_density_diffrn 1.402
_exptl_crystal_description 'block'
_exptl_crystal_preparation 'methanol'
_diffrn_ambient_temperature 298
#These two values have been output from a single CSD field.
_refine_ls_R_factor_gt 0.0549
_refine_ls_wR_factor_gt 0.0549
_symmetry_cell_setting monoclinic
_symmetry_space_group_name_H-M 'P 21/c'
_symmetry_Int_Tables_number 14
loop_
_symmetry_equiv_pos_site_id
_symmetry_equiv_pos_as_xyz
1 x,y,z
2 -x,1/2+y,1/2-z
3 -x,-y,-z
4 x,-1/2-y,-1/2+z
_cell_length_a 7.800(2)
_cell_length_b 5.845(2)
_cell_length_c 21.610(3)
_cell_angle_alpha 90
_cell_angle_beta 97.599(2)
_cell_angle_gamma 90
_cell_formula_units_Z 4
loop_
_atom_type_symbol
_atom_type_radius_bond
C 0.68
H 0.23
N 0.68
O 0.68
loop_
_atom_site_label
_atom_site_type_symbol
_atom_site_fract_x
_atom_site_fract_y
_atom_site_fract_z
O1 O 0.4591(2) 1.4388(3) 0.58930(7)
O2 O 0.3451(2) 1.2372(3) 0.65605(7)
O3 O 0.10989(19) 0.6631(2) 0.41891(6)
N1 N 0.3727(2) 1.2762(3) 0.60290(7)
N2 N 0.2233(2) 0.9255(3) 0.33760(7)
C1 C 0.3014(2) 1.1201(3) 0.55368(8)
C2 C 0.2180(2) 0.9241(3) 0.56979(8)
H1 H 0.20520 0.89580 0.61130
C3 C 0.1548(2) 0.7727(3) 0.52426(9)
H2 H 0.09940 0.64020 0.53490
C4 C 0.1726(2) 0.8151(3) 0.46216(8)
C5 C 0.2557(2) 1.0179(3) 0.44587(8)
C6 C 0.3199(2) 1.1688(3) 0.49263(8)
H3 H 0.37520 1.30240 0.48280
C7 C 0.2760(2) 1.0653(3) 0.38106(8)
H4 H 0.32870 1.20090 0.37130
C8 C 0.2521(3) 0.9740(4) 0.27513(8)
H5 H 0.30490 1.12200 0.26770
C9 C 0.2977(3) 0.7776(4) 0.23666(10)
H6 H 0.37830 0.80530 0.20700
H7 H 0.30670 0.62760 0.25600
C10 C 0.1243(3) 0.8811(4) 0.22371(9)
H8 H 0.02710 0.79470 0.23520
H9 H 0.09880 0.97230 0.18610
H10 H 0.134(3) 0.721(4) 0.3822(7)
#END
