
#######################################################################
#
#                 Cambridge Crystallographic Data Centre
#                                CCDC
#
#######################################################################
#
# If this CIF has been generated from an entry in the Cambridge
# Structural Database, then it will include bibliographic, chemical,
# crystal, experimental, refinement or atomic coordinate data resulting
# from the CCDC's data processing and validation procedures.
#
#######################################################################

data_CSD_CIF_QAPKEX
_audit_creation_date 2001-03-08
_audit_creation_method CSD-ConQuest-V1
_database_code_CSD QAPKEX
_database_code_depnum_ccdc_archive 'CCDC 1241496'
_chemical_formula_sum 'C23 H29 N1 O9'
_chemical_formula_moiety
;
C23 H29 N1 O9
;
_journal_coden_Cambridge 34
_journal_volume 35
_journal_year 1998
_journal_page_first 875
_journal_name_full 'J.Heterocycl.Chem. '
loop_
_publ_author_name
"S.Elshani"
"R.Noriyuki"
"C.M.Wai"
"N.R.Natale"
"R.A.Bartsch"
_chemical_name_systematic
;
(Dibenzo(b,m)-19-crown-6-oxy)-18-acetylhydroxamic acid
;
_chemical_melting_point 407.15
_cell_volume   1134.504
_exptl_crystal_colour 'white'
_exptl_crystal_density_diffrn 1.356
_exptl_special_details
;
Melting point range 407.15-408.15K
The cell angles have been calculated

;
_exptl_crystal_preparation 'methanol'
_diffrn_ambient_temperature ?
_diffrn_special_details
;
The study was carried out at room temperature,in the range 283-303K

;
#These two values have been output from a single CSD field.
_refine_ls_R_factor_gt 0.0763
_refine_ls_wR_factor_gt 0.0763
_symmetry_cell_setting triclinic
_symmetry_space_group_name_H-M 'P 1'
_symmetry_Int_Tables_number 1
loop_
_symmetry_equiv_pos_site_id
_symmetry_equiv_pos_as_xyz
1 x,y,z
_cell_length_a 8.790(4)
_cell_length_b 10.056(5)
_cell_length_c 13.125(7)
_cell_angle_alpha 84.072
_cell_angle_beta 90
_cell_angle_gamma 79.525
_cell_formula_units_Z 2
loop_
_atom_type_symbol
_atom_type_radius_bond
C 0.68
H 0.23
N 0.68
O 0.68
loop_
_atom_site_label
_atom_site_type_symbol
_atom_site_fract_x
_atom_site_fract_y
_atom_site_fract_z
C1 C -0.0073(3) 0.4635(3) 0.7187(2)
C2 C 0.0427(3) 0.5285(3) 0.8087(2)
O1 O -0.0895(3) 0.6174(3) 0.8375(2)
C3 C -0.0804(4) 0.6998(3) 0.9126(2)
C4 C -0.2185(4) 0.7857(3) 0.9293(3)
O2 O -0.3367(3) 0.7776(3) 0.8647(2)
C5 C -0.4928(4) 0.8296(4) 0.8893(3)
C6 C -0.5954(4) 0.7584(5) 0.8317(3)
O3 O -0.5918(3) 0.6234(3) 0.8722(2)
C7 C -0.4805(6) 0.5256(6) 0.8302(5)
C8 C -0.5119(6) 0.3993(6) 0.8462(6)
O4 O -0.3937(3) 0.2941(3) 0.8196(3)
C9 C -0.4253(4) 0.2315(5) 0.7345(3)
C10 C -0.2969(4) 0.1191(4) 0.7169(3)
O5 O -0.1648(3) 0.1745(2) 0.6846(2)
C11 C -0.0364(4) 0.0877(3) 0.6571(2)
C12 C 0.0848(4) 0.1502(3) 0.6178(2)
O6 O 0.0641(2) 0.2894(2) 0.6059(2)
C13 C 0.1155(3) 0.3492(3) 0.6907(2)
O7 O -0.0360(2) 0.5594(2) 0.6297(1)
C14 C -0.1868(3) 0.6394(3) 0.6200(2)
C15 C -0.2930(3) 0.5908(3) 0.5480(2)
O8 O -0.4193(2) 0.6644(2) 0.5224(2)
N1 N -0.2460(3) 0.4702(3) 0.5182(2)
H1 H -0.16200 0.39610 0.53460
O9 O -0.3227(3) 0.4257(3) 0.4405(2)
H2 H -0.33310 0.36040 0.39320
C16 C 0.0489(4) 0.7003(4) 0.9719(2)
C17 C 0.0397(5) 0.7896(4) 1.0470(3)
C18 C -0.0937(6) 0.8742(4) 1.0630(3)
C19 C -0.2247(5) 0.8728(4) 1.0044(3)
C20 C -0.0183(5) -0.0527(3) 0.6658(3)
C21 C 0.1145(5) -0.1297(4) 0.6334(3)
C22 C 0.2338(5) -0.0690(4) 0.5943(3)
C23 C 0.2191(4) 0.0716(3) 0.5875(3)
#END
