
#######################################################################
#
#                 Cambridge Crystallographic Data Centre
#                                CCDC
#
#######################################################################
#
# If this CIF has been generated from an entry in the Cambridge
# Structural Database, then it will include bibliographic, chemical,
# crystal, experimental, refinement or atomic coordinate data resulting
# from the CCDC's data processing and validation procedures.
#
#######################################################################

data_CSD_CIF_QAPRUV
_audit_creation_date 2005-10-28
_audit_creation_method CSD-ConQuest-V1
_database_code_CSD QAPRUV
_database_code_depnum_ccdc_archive 'CCDC 276420'
_chemical_formula_sum 'C20 H19 N3 O6'
_chemical_formula_moiety
;
C20 H19 N3 O6
;
_journal_coden_Cambridge 1336
_journal_volume 7
_journal_year 2005
_journal_page_first 2759
_journal_name_full 'Org.Lett. '
loop_
_publ_author_name
"J.R.Malpass"
"S.Handa"
"R.White"
_chemical_name_systematic
;
N-Benzyl-2-azabicyclo(2.2.1)heptan-7-yl 3,5-dinitrobenzoate
;
_cell_volume    925.140
_exptl_crystal_colour 'yellow'
_exptl_crystal_density_diffrn 1.426
_exptl_crystal_description 'needle'
_diffrn_ambient_temperature 150
#These two values have been output from a single CSD field.
_refine_ls_R_factor_gt 0.1142
_refine_ls_wR_factor_gt 0.1142
_symmetry_cell_setting triclinic
_symmetry_space_group_name_H-M 'P -1'
_symmetry_Int_Tables_number 2
loop_
_symmetry_equiv_pos_site_id
_symmetry_equiv_pos_as_xyz
1 x,y,z
2 -x,-y,-z
_cell_length_a 7.013(3)
_cell_length_b 11.227(5)
_cell_length_c 12.175(5)
_cell_angle_alpha 76.674(7)
_cell_angle_beta 84.349(7)
_cell_angle_gamma 84.149(7)
_cell_formula_units_Z 2
loop_
_atom_type_symbol
_atom_type_radius_bond
C 0.68
H 0.23
N 0.68
O 0.68
loop_
_atom_site_label
_atom_site_type_symbol
_atom_site_fract_x
_atom_site_fract_y
_atom_site_fract_z
N1 N 0.4418(7) -0.3074(4) 0.5523(4)
N2 N 0.8183(7) -0.0940(5) 0.7543(5)
O1 O 0.2333(5) 0.1944(4) 0.6547(4)
O2 O 0.0342(6) 0.0918(4) 0.5821(4)
O3 O 0.3252(7) -0.2974(4) 0.4834(5)
O4 O 0.5434(6) -0.3989(4) 0.5860(4)
O5 O 0.9476(6) -0.1731(4) 0.7480(4)
O6 O 0.8185(6) -0.0135(4) 0.8067(4)
C1 C -0.0065(9) 0.2875(6) 0.7792(6)
H1 H -0.07380 0.21160 0.81280
N3 N 0.1568(8) 0.3063(5) 0.8437(5)
C2 C 0.2845(10) 0.3778(6) 0.7606(6)
H2 H 0.40610 0.32870 0.74630
H3 H 0.31420 0.45170 0.78500
C3 C 0.1730(9) 0.4120(5) 0.6583(6)
H4 H 0.25190 0.44350 0.58630
C4 C -0.0057(9) 0.4942(6) 0.6783(6)
H5 H -0.06580 0.53090 0.60670
H6 H 0.02450 0.56090 0.71300
C5 C -0.1374(9) 0.4067(6) 0.7598(7)
H7 H -0.17370 0.43430 0.83120
H8 H -0.25520 0.39800 0.72470
C6 C 0.0857(8) 0.2939(5) 0.6619(6)
H9 H -0.01060 0.30360 0.60450
C7 C 0.2478(11) 0.1989(8) 0.9140(7)
H10 H 0.31200 0.14470 0.86540
H11 H 0.14830 0.15320 0.96530
C8 C 0.3969(11) 0.2308(8) 0.9850(6)
C9 C 0.5742(13) 0.1616(7) 0.9964(6)
H12 H 0.60620 0.09640 0.95850
C10 C 0.7068(9) 0.1915(8) 1.0667(6)
H13 H 0.82490 0.14310 1.08050
C11 C 0.6588(10) 0.2908(7) 1.1128(6)
H14 H 0.74610 0.31210 1.15860
C12 C 0.4932(11) 0.3595(7) 1.0958(7)
H15 H 0.46940 0.43050 1.12650
C13 C 0.3567(13) 0.3312(8) 1.0357(7)
H16 H 0.23680 0.37880 1.02840
C14 C 0.1861(9) 0.0976(5) 0.6195(5)
C15 C 0.3433(7) -0.0020(5) 0.6299(5)
C16 C 0.3221(8) -0.1047(5) 0.5857(5)
H17 H 0.21090 -0.10910 0.54860
C17 C 0.4643(8) -0.1974(5) 0.5972(5)
C18 C 0.6286(8) -0.1972(5) 0.6510(5)
H18 H 0.72540 -0.26360 0.65790
C19 C 0.6449(8) -0.0955(5) 0.6942(5)
C20 C 0.5061(8) 0.0009(5) 0.6849(5)
H19 H 0.52140 0.06920 0.71610
#END
