
#######################################################################
#
#                 Cambridge Crystallographic Data Centre
#                                CCDC
#
#######################################################################
#
# If this CIF has been generated from an entry in the Cambridge
# Structural Database, then it will include bibliographic, chemical,
# crystal, experimental, refinement or atomic coordinate data resulting
# from the CCDC's data processing and validation procedures.
#
#######################################################################

data_CSD_CIF_QAPWUC
_audit_creation_date 2017-05-05
_audit_creation_method CSD-ConQuest-V1
_database_code_CSD QAPWUC
_database_code_depnum_ccdc_archive 'CCDC 1534529'
_chemical_formula_sum 'C38 H51 N1 O3'
_chemical_formula_moiety
;
C38 H51 N1 O3
;
_journal_coden_Cambridge 35
_journal_volume 82
_journal_year 2017
_journal_page_first 4958
_journal_name_full 'J.Org.Chem. '
loop_
_publ_author_name
"A.Ortiz"
"M.Soumeillant"
"S.A.Savage"
"N.A.Strotman"
"M.Haley"
"T.Benkovics"
"J.Nye"
"Zhongmin Xu"
"Yichen Tan"
"S.Ayers"
"Qi Gao"
"S.Kiau"
_chemical_name_systematic
;
methyl 4-[28-(oxo-\l^5^-azanylidyne)lupa-2,20(29)-dien-3-yl]benzoate
;
_cell_volume   3311.137
_exptl_crystal_density_diffrn 1.143
_diffrn_ambient_temperature 296
#These two values have been output from a single CSD field.
_refine_ls_R_factor_gt 0.0381
_refine_ls_wR_factor_gt 0.0381
_symmetry_cell_setting orthorhombic
_symmetry_space_group_name_H-M 'P 21 21 21'
_symmetry_Int_Tables_number 19
loop_
_symmetry_equiv_pos_site_id
_symmetry_equiv_pos_as_xyz
1 x,y,z
2 1/2+x,1/2-y,-z
3 -x,1/2+y,1/2-z
4 1/2-x,-y,1/2+z
_cell_length_a 7.2203(2)
_cell_length_b 12.1227(4)
_cell_length_c 37.8288(13)
_cell_angle_alpha 90
_cell_angle_beta 90
_cell_angle_gamma 90
_cell_formula_units_Z 4
loop_
_atom_type_symbol
_atom_type_radius_bond
C 0.68
H 0.23
N 0.68
O 0.68
loop_
_atom_site_label
_atom_site_type_symbol
_atom_site_fract_x
_atom_site_fract_y
_atom_site_fract_z
N1 N 0.7070(3) -0.03784(17) 0.82265(7)
O1 O -0.4280(2) 1.11735(14) 0.96334(5)
O2 O -0.1460(2) 1.19158(13) 0.96800(4)
O3 O 0.8735(2) -0.0584(2) 0.8230(1)
C1 C 0.3498(3) -0.01671(17) 0.82327(6)
C2 C 0.2874(3) -0.11116(19) 0.79911(6)
H1 H 0.36680 -0.17510 0.80190
H2 H 0.16060 -0.13240 0.80420
C3 C 0.3040(5) -0.0633(2) 0.76183(7)
H3 H 0.19600 -0.08280 0.74790
H4 H 0.41310 -0.09260 0.75020
C4 C 0.3192(4) 0.0640(2) 0.76526(6)
H5 H 0.44880 0.08490 0.76150
C5 C 0.2707(3) 0.08494(16) 0.80444(5)
H6 H 0.13560 0.07970 0.80630
C6 C 0.3265(3) 0.19279(17) 0.82248(5)
H7 H 0.46220 0.19440 0.82270
C7 C 0.2640(3) 0.29659(18) 0.80304(5)
H8 H 0.31430 0.29580 0.77930
H9 H 0.13000 0.29640 0.80120
C8 C 0.3256(4) 0.40174(17) 0.82163(5)
H10 H 0.27610 0.46520 0.80920
H11 H 0.45970 0.40660 0.82110
C9 C 0.2587(3) 0.40348(16) 0.86021(5)
H12 H 0.12550 0.38880 0.85860
C10 C 0.2712(3) 0.52037(16) 0.87799(5)
C11 C 0.1453(4) 0.59780(18) 0.85693(5)
H13 H 0.21210 0.62350 0.83630
H14 H 0.03860 0.55640 0.84870
C12 C 0.0788(3) 0.69581(18) 0.87734(6)
H15 H 0.02740 0.75340 0.86440
C13 C 0.0861(3) 0.70850(16) 0.91210(5)
C14 C 0.1585(3) 0.61870(17) 0.93698(5)
C15 C 0.1882(3) 0.50923(16) 0.91570(5)
H16 H 0.06350 0.47930 0.91210
C16 C 0.2913(3) 0.42049(17) 0.93657(5)
H17 H 0.42190 0.43890 0.93770
H18 H 0.24390 0.41800 0.96060
C17 C 0.2674(3) 0.30784(17) 0.91927(5)
H19 H 0.13710 0.28830 0.91970
H20 H 0.33360 0.25340 0.93320
C18 C 0.3374(3) 0.30250(16) 0.88074(5)
C19 C 0.2632(3) 0.19332(16) 0.86199(5)
C20 C 0.3424(3) 0.08915(17) 0.88025(5)
H21 H 0.47630 0.09500 0.88100
H22 H 0.29800 0.08690 0.90440
C21 C 0.2903(3) -0.01945(17) 0.86193(6)
H23 H 0.35060 -0.08060 0.87380
H24 H 0.15750 -0.03050 0.86340
C22 C 0.5562(3) -0.0158(2) 0.82225(7)
C23 C 0.2025(5) 0.1227(2) 0.73806(7)
C24 C 0.2837(9) 0.1699(3) 0.71061(8)
H25 H 0.21230 0.20370 0.69320
H26 H 0.41200 0.16920 0.70870
C25 C -0.0004(6) 0.1213(4) 0.74251(9)
H27 H -0.05730 0.16170 0.72360
H28 H -0.03240 0.15480 0.76470
H29 H -0.04370 0.04640 0.74220
C26 C 0.4660(4) 0.5720(2) 0.87783(6)
H30 H 0.46170 0.64310 0.88900
H31 H 0.50800 0.58020 0.85390
H32 H 0.54990 0.52510 0.89050
C27 C 0.0026(3) 0.81132(17) 0.92714(5)
C28 C -0.1864(3) 0.82826(19) 0.92322(7)
H33 H -0.25850 0.77370 0.91280
C29 C -0.2695(3) 0.92448(18) 0.93454(6)
H34 H -0.39660 0.93360 0.93180
C30 C -0.1661(3) 1.00741(17) 0.94997(5)
C31 C 0.0227(3) 0.99077(18) 0.95428(5)
H35 H 0.09450 1.04560 0.96470
C32 C -0.2300(4) 1.2940(2) 0.97901(7)
H36 H -0.13500 1.34770 0.98340
H37 H -0.30000 1.28220 1.00020
H38 H -0.31080 1.32040 0.96070
C33 C 0.1051(3) 0.89394(17) 0.94339(6)
H39 H 0.23140 0.88380 0.94700
C34 C -0.2617(3) 1.10919(17) 0.96093(5)
C35 C 0.3333(4) 0.6577(2) 0.95685(7)
H40 H 0.30680 0.72510 0.96910
H41 H 0.43170 0.67000 0.94020
H42 H 0.37030 0.60220 0.97350
C36 C 0.0053(4) 0.5973(2) 0.96458(6)
H43 H -0.01590 0.66320 0.97810
H44 H 0.04340 0.53890 0.98010
H45 H -0.10690 0.57640 0.95270
C37 C 0.5508(3) 0.3034(2) 0.88173(6)
H46 H 0.59290 0.36970 0.89300
H47 H 0.59810 0.30040 0.85800
H48 H 0.59420 0.24050 0.89480
C38 C 0.0489(3) 0.18605(19) 0.86429(6)
H49 H 0.00750 0.11960 0.85300
H50 H -0.00490 0.24870 0.85260
H51 H 0.01170 0.18540 0.88870
#END
