
#######################################################################
#
#                 Cambridge Crystallographic Data Centre
#                                CCDC
#
#######################################################################
#
# If this CIF has been generated from an entry in the Cambridge
# Structural Database, then it will include bibliographic, chemical,
# crystal, experimental, refinement or atomic coordinate data resulting
# from the CCDC's data processing and validation procedures.
#
#######################################################################

data_CSD_CIF_QAPXUD
_audit_creation_date 2017-05-05
_audit_creation_method CSD-ConQuest-V1
_database_code_CSD QAPXUD
_database_code_depnum_ccdc_archive 'CCDC 1548217'
_chemical_formula_sum 'C30 H30 N2 O9'
_chemical_formula_moiety
;
C30 H30 N2 O9
;
_journal_coden_Cambridge 35
_journal_volume 82
_journal_year 2017
_journal_page_first 4640
_journal_name_full 'J.Org.Chem. '
loop_
_publ_author_name
"T.C.Johnson"
"M.R.Chin"
"D.Siegel"
_chemical_name_systematic
;
7-[(4-methoxyphenyl)methoxy]-9-methyl-3,6-dimethylidene-2,3,3a,4,5,6,6a,7,9a,9
b-decahydroazuleno[4,5-b]furan-4-yl 3,5-dinitrobenzoate
;
_cell_volume   4051.059
_exptl_crystal_colour 'colorless'
_exptl_crystal_density_diffrn 1.384
_exptl_crystal_description 'needles'
_diffrn_ambient_temperature 140
#These two values have been output from a single CSD field.
_refine_ls_R_factor_gt 0.0737
_refine_ls_wR_factor_gt 0.0737
_symmetry_cell_setting monoclinic
_symmetry_space_group_name_H-M 'P 21'
_symmetry_Int_Tables_number 4
loop_
_symmetry_equiv_pos_site_id
_symmetry_equiv_pos_as_xyz
1 x,y,z
2 -x,1/2+y,-z
_cell_length_a 25.044(3)
_cell_length_b 5.4847(12)
_cell_length_c 29.751(4)
_cell_angle_alpha 90
_cell_angle_beta 97.558(6)
_cell_angle_gamma 90
_cell_formula_units_Z 6
loop_
_atom_type_symbol
_atom_type_radius_bond
C 0.68
H 0.23
N 0.68
O 0.68
loop_
_atom_site_label
_atom_site_type_symbol
_atom_site_fract_x
_atom_site_fract_y
_atom_site_fract_z
C1 C -0.1326(3) 0.7658(16) 0.3274(3)
H1 H -0.13140 0.89770 0.30480
H2 H -0.16960 0.75550 0.33550
C2 C -0.1166(3) 0.5296(17) 0.3086(3)
C3 C -0.0675(3) 0.4387(15) 0.3391(2)
H3 H -0.08040 0.33040 0.36250
C4 C -0.0271(3) 0.2970(16) 0.3167(2)
H4 H -0.04370 0.14050 0.30470
C5 C 0.0253(3) 0.2409(15) 0.3482(2)
H5 H 0.01630 0.14740 0.37470
H6 H 0.04850 0.13640 0.33170
C6 C 0.0566(3) 0.4643(16) 0.3649(3)
C7 C 0.0455(3) 0.5860(16) 0.4078(3)
H7 H 0.06750 0.73800 0.41260
C8 C 0.0597(3) 0.4116(17) 0.4496(3)
H8 H 0.07660 0.50990 0.47600
C9 C 0.0058(3) 0.3235(18) 0.4593(2)
H9 H 0.00120 0.18530 0.47760
C10 C -0.0342(3) 0.4545(16) 0.4401(3)
C11 C -0.0151(3) 0.6487(15) 0.4098(2)
H10 H -0.01650 0.80870 0.42570
C12 C -0.0472(3) 0.6753(15) 0.3629(3)
H11 H -0.02490 0.76590 0.34290
C13 C -0.0089(3) 0.3234(19) 0.2404(3)
C14 C 0.0183(3) 0.4770(16) 0.2087(2)
C15 C 0.0475(3) 0.6817(16) 0.2247(3)
H12 H 0.04790 0.73540 0.25510
C16 C 0.0759(3) 0.8050(16) 0.1950(3)
C17 C 0.0771(3) 0.7365(16) 0.1505(3)
H13 H 0.09640 0.82660 0.13070
C18 C 0.0481(3) 0.5271(16) 0.1365(2)
C19 C 0.0198(3) 0.3955(17) 0.1643(2)
H14 H 0.00140 0.25090 0.15370
C20 C 0.1505(3) 0.2930(18) 0.4481(3)
H15 H 0.16240 0.32560 0.48060
H16 H 0.15420 0.44560 0.43100
C21 C 0.1844(3) 0.1005(17) 0.4317(3)
C22 C 0.1865(3) 0.0692(19) 0.3853(3)
H17 H 0.16610 0.17520 0.36430
C23 C 0.2172(3) -0.1109(17) 0.3691(3)
H18 H 0.21700 -0.12960 0.33730
C24 C 0.2476(3) -0.2622(18) 0.3982(3)
C25 C 0.2480(3) -0.2298(19) 0.4446(3)
H19 H 0.26990 -0.33150 0.46520
C26 C 0.2171(3) -0.0532(19) 0.4607(3)
H20 H 0.21800 -0.03460 0.49250
C27 C 0.2717(3) -0.508(2) 0.3382(3)
H21 H 0.28600 -0.37340 0.32170
H22 H 0.23350 -0.53110 0.32710
H23 H 0.29150 -0.65760 0.33350
C28 C -0.1403(3) 0.4243(18) 0.2711(3)
H24 H -0.17030 0.50060 0.25380
H25 H -0.12730 0.27260 0.26160
C29 C 0.0942(3) 0.5548(17) 0.3419(3)
H26 H 0.11380 0.69610 0.35260
H27 H 0.10140 0.47810 0.31470
C30 C -0.0923(3) 0.4409(18) 0.4487(3)
H28 H -0.09790 0.55210 0.47350
H29 H -0.10070 0.27380 0.45720
H30 H -0.11600 0.48800 0.42120
N1 N 0.1091(3) 1.0165(14) 0.2121(2)
N2 N 0.0515(3) 0.4361(17) 0.0905(2)
O1 O -0.0949(2) 0.8131(11) 0.36681(16)
O2 O -0.01183(19) 0.4395(10) 0.27937(16)
O3 O -0.0251(2) 0.1186(12) 0.23085(17)
O4 O 0.1085(2) 1.0769(11) 0.2514(2)
O5 O 0.1348(2) 1.1211(12) 0.18589(19)
O6 O 0.0761(2) 0.5621(12) 0.06574(18)
O7 O 0.0303(2) 0.2387(12) 0.07936(18)
O8 O 0.0951(2) 0.2162(10) 0.44197(16)
O9 O 0.2778(2) -0.4511(12) 0.38570(18)
C31 C 0.4504(3) 0.3555(18) 0.0086(3)
H31 H 0.44220 0.50330 0.02560
H32 H 0.49000 0.33720 0.01090
C32 C 0.4255(3) 0.1330(17) 0.0274(3)
C33 C 0.3797(3) 0.0542(16) -0.0077(3)
H33 H 0.39330 -0.08530 -0.02460
C34 C 0.3287(3) -0.0302(16) 0.0088(2)
H34 H 0.33680 -0.17890 0.02800
C35 C 0.2845(3) -0.0904(16) -0.0291(2)
H35 H 0.25400 -0.16450 -0.01600
H36 H 0.29810 -0.21300 -0.04920
C36 C 0.2642(3) 0.1288(16) -0.0572(3)
C37 C 0.2898(3) 0.1955(15) -0.0990(2)
H37 H 0.27340 0.35000 -0.11230
C38 C 0.2809(3) -0.0126(16) -0.1351(3)
H38 H 0.26990 0.06290 -0.16550
C39 C 0.3352(3) -0.1248(16) -0.1348(2)
H39 H 0.34110 -0.27310 -0.14990
C40 C 0.3743(3) 0.0031(17) -0.1115(3)
C41 C 0.3523(3) 0.2245(16) -0.0898(3)
H40 H 0.36180 0.36990 -0.10740
C42 C 0.3736(3) 0.2725(17) -0.0403(2)
H41 H 0.34980 0.39610 -0.02820
C43 C 0.3016(3) 0.1034(19) 0.0796(3)
C44 C 0.2701(3) 0.3002(17) 0.0999(3)
C45 C 0.2407(3) 0.4736(17) 0.0734(3)
H42 H 0.24140 0.47740 0.04150
C46 C 0.2103(3) 0.6420(17) 0.0939(3)
C47 C 0.2088(3) 0.6444(18) 0.1398(3)
H43 H 0.18910 0.76480 0.15360
C48 C 0.2371(3) 0.4653(19) 0.1651(3)
C49 C 0.2674(3) 0.2921(17) 0.1463(3)
H44 H 0.28610 0.16950 0.16470
C50 C 0.1879(3) -0.1067(17) -0.1433(3)
H45 H 0.18230 -0.10330 -0.17680
H46 H 0.18280 0.06060 -0.13210
C51 C 0.1481(3) -0.2766(16) -0.1262(3)
C52 C 0.1261(3) -0.4718(17) -0.1517(3)
H47 H 0.13420 -0.49170 -0.18180
C53 C 0.0928(3) -0.6382(17) -0.1345(3)
H48 H 0.07800 -0.77080 -0.15250
C54 C 0.0814(3) -0.6088(17) -0.0903(3)
C55 C 0.1007(3) -0.4097(16) -0.0649(3)
H49 H 0.09130 -0.38580 -0.03530
C56 C 0.1337(3) -0.2458(17) -0.0829(3)
H50 H 0.14690 -0.10840 -0.06550
C57 C 0.0490(3) -0.7994(18) -0.0269(2)
H51 H 0.02370 -0.67720 -0.01820
H52 H 0.08510 -0.76540 -0.01130
H53 H 0.03750 -0.96200 -0.01850
C58 C 0.4399(3) 0.0381(18) 0.0678(3)
H54 H 0.42050 -0.09610 0.07760
H55 H 0.46970 0.10380 0.08700
C59 C 0.2235(3) 0.2639(17) -0.0465(3)
H56 H 0.20650 0.22340 -0.02080
H57 H 0.21150 0.40080 -0.06460
C60 C 0.4333(3) -0.0427(19) -0.1103(3)
H58 H 0.44920 0.08700 -0.12690
H59 H 0.43880 -0.20030 -0.12450
H60 H 0.45050 -0.04470 -0.07880
N3 N 0.1797(3) 0.8310(16) 0.0660(3)
N4 N 0.2324(3) 0.4562(19) 0.2142(2)
O10 O 0.4271(2) 0.3728(11) -0.03775(17)
O11 O 0.3088(2) 0.1622(10) 0.03684(16)
O12 O 0.3171(2) -0.0776(12) 0.09982(18)
O13 O 0.1765(2) 0.8084(12) 0.02472(19)
O14 O 0.1600(2) 0.9974(12) 0.0857(2)
O15 O 0.2061(3) 0.6174(14) 0.22953(19)
O16 O 0.2564(3) 0.2921(16) 0.2358(2)
O17 O 0.2414(2) -0.1907(10) -0.12732(16)
O18 O 0.0498(2) -0.7897(11) -0.07516(17)
C61 C 0.7746(3) 1.2627(16) 0.3645(3)
H61 H 0.77310 1.38870 0.38820
H62 H 0.81190 1.25500 0.35690
C62 C 0.7581(3) 1.0201(16) 0.3812(3)
C63 C 0.7113(3) 0.9303(15) 0.3475(2)
H63 H 0.72680 0.83320 0.32380
C64 C 0.6696(3) 0.7723(16) 0.3660(2)
H64 H 0.68660 0.61330 0.37640
C65 C 0.6198(3) 0.7229(15) 0.3320(2)
H65 H 0.63130 0.63970 0.30530
H66 H 0.59610 0.60940 0.34600
C66 C 0.5876(3) 0.9458(17) 0.3158(3)
C67 C 0.6011(3) 1.0825(16) 0.2748(2)
H67 H 0.57800 1.23160 0.27020
C68 C 0.5921(3) 0.9217(17) 0.2304(3)
H68 H 0.57590 1.02820 0.20490
C69 C 0.6476(3) 0.8578(16) 0.2220(2)
H69 H 0.65520 0.73340 0.20160
C70 C 0.6849(3) 0.9898(16) 0.2455(3)
C71 C 0.6612(3) 1.1576(16) 0.2773(2)
H70 H 0.66190 1.32530 0.26420
C72 C 0.6902(3) 1.1710(15) 0.3254(3)
H71 H 0.66600 1.25030 0.34520
C73 C 0.6576(3) 0.7755(18) 0.4445(3)
C74 C 0.6348(3) 0.9158(16) 0.4800(3)
C75 C 0.6041(3) 1.1239(16) 0.4699(3)
H72 H 0.59860 1.18610 0.43980
C76 C 0.5816(3) 1.2390(17) 0.5039(3)
C77 C 0.5850(3) 1.1479(18) 0.5471(3)
H73 H 0.56730 1.22450 0.56960
C78 C 0.6153(3) 0.9408(19) 0.5562(3)
C79 C 0.6401(3) 0.8217(17) 0.5237(3)
H74 H 0.66050 0.67790 0.53110
C80 C 0.5021(3) 0.7825(18) 0.2222(3)
H75 H 0.49550 0.85960 0.19190
H76 H 0.49310 0.90280 0.24480
C81 C 0.4668(3) 0.5639(18) 0.2232(3)
C82 C 0.4450(3) 0.4500(19) 0.1830(3)
H77 H 0.45480 0.50480 0.15490
C83 C 0.4096(3) 0.2596(19) 0.1836(3)
H78 H 0.39410 0.18570 0.15610
C84 C 0.3965(3) 0.1759(18) 0.2248(3)
C85 C 0.4172(3) 0.2846(19) 0.2645(3)
H79 H 0.40750 0.22910 0.29250
C86 C 0.4526(3) 0.4767(19) 0.2633(3)
H80 H 0.46760 0.55080 0.29100
C87 C 0.3461(4) -0.113(2) 0.2623(3)
H81 H 0.32920 0.01570 0.27830
H82 H 0.37850 -0.17220 0.28130
H83 H 0.32070 -0.24840 0.25570
C88 C 0.7806(3) 0.9080(17) 0.4187(3)
H84 H 0.80980 0.98240 0.43740
H85 H 0.76750 0.75360 0.42670
C89 C 0.5472(3) 1.0191(17) 0.3367(3)
H86 H 0.53810 0.93130 0.36210
H87 H 0.52710 1.15960 0.32620
C90 C 0.7436(3) 0.9986(17) 0.2389(3)
H88 H 0.75180 1.15770 0.22650
H89 H 0.75120 0.86970 0.21790
H90 H 0.76600 0.97430 0.26820
N5 N 0.5473(3) 1.4554(15) 0.4927(3)
N6 N 0.6164(3) 0.8291(19) 0.6016(3)
O19 O 0.7376(2) 1.3203(11) 0.32494(16)
O20 O 0.6518(2) 0.8977(10) 0.40499(16)
O21 O 0.6778(2) 0.5764(11) 0.45085(17)
O22 O 0.5401(2) 1.5205(11) 0.4529(2)
O23 O 0.5297(2) 1.5604(12) 0.5239(2)
O24 O 0.5981(3) 0.9452(15) 0.6307(2)
O25 O 0.6367(3) 0.6249(15) 0.6073(2)
O26 O 0.5584(2) 0.7163(10) 0.23204(17)
O27 O 0.3607(2) -0.0186(13) 0.22079(19)
#END
