
#######################################################################
#
#                 Cambridge Crystallographic Data Centre
#                                CCDC
#
#######################################################################
#
# If this CIF has been generated from an entry in the Cambridge
# Structural Database, then it will include bibliographic, chemical,
# crystal, experimental, refinement or atomic coordinate data resulting
# from the CCDC's data processing and validation procedures.
#
#######################################################################

data_CSD_CIF_QAQDAN
_audit_creation_date 2001-03-08
_audit_creation_method CSD-ConQuest-V1
_database_code_CSD QAQDAN
_chemical_formula_sum 'C12 H17 N5 O2'
_chemical_formula_moiety
;
C12 H17 N5 O2
;
_journal_coden_Cambridge 241
_journal_year 1999
_journal_page_first 597
_journal_name_full 'Chem.Lett. '
loop_
_publ_author_name
"S.Murata"
"Y.Mori"
"Y.Satoh"
"R.Yoshidome"
"H.Tomioka"
_chemical_name_systematic
;
4,5-Dihydro-5-(diethylamino)-1-(p-nitrophenyl)-1,2,3-triazole
;
_chemical_melting_point 368.15
_cell_volume    671.655
_exptl_crystal_density_diffrn 1.302
_exptl_special_details
;
Melting point range 368.15-369.15K

;
_diffrn_ambient_temperature ?
_diffrn_special_details
;
The study was carried out at room temperature,in the range 283-303K

;
#These two values have been output from a single CSD field.
_refine_ls_R_factor_gt 0.071
_refine_ls_wR_factor_gt 0.071
_symmetry_cell_setting triclinic
_symmetry_space_group_name_H-M 'P -1'
_symmetry_Int_Tables_number 2
loop_
_symmetry_equiv_pos_site_id
_symmetry_equiv_pos_as_xyz
1 x,y,z
2 -x,-y,-z
_cell_length_a 9.9983(6)
_cell_length_b 11.2046(6)
_cell_length_c 6.1873(4)
_cell_angle_alpha 99.472(5)
_cell_angle_beta 90.453(5)
_cell_angle_gamma 79.314(5)
_cell_formula_units_Z 2
loop_
_atom_type_symbol
_atom_type_radius_bond
C 0.68
H 0.23
N 0.68
O 0.68
loop_
_atom_site_label
_atom_site_type_symbol
_atom_site_fract_x
_atom_site_fract_y
_atom_site_fract_z
O1 O -0.4014(3) 0.1277(3) 0.3981(5)
O2 O -0.3301(3) 0.2424(3) 0.1938(6)
N1 N 0.1755(3) 0.1503(2) 0.7939(5)
N2 N 0.1908(3) 0.0951(3) 0.9753(5)
N3 N 0.3087(3) 0.0880(3) 1.0470(6)
N4 N 0.2648(3) 0.3324(3) 0.7752(6)
N5 N -0.3147(3) 0.1822(3) 0.3418(6)
C1 C 0.0523(3) 0.1615(3) 0.6842(5)
C2 C -0.0552(3) 0.1131(3) 0.7587(6)
C3 C -0.1738(4) 0.1203(3) 0.6443(6)
C4 C -0.1874(3) 0.1754(3) 0.4632(6)
C5 C -0.0831(4) 0.2244(3) 0.3895(6)
C6 C 0.0362(4) 0.2171(3) 0.5003(6)
C7 C 0.2962(3) 0.2008(3) 0.7483(7)
C8 C 0.3928(4) 0.1380(4) 0.9025(8)
C9 C 0.2353(4) 0.3937(4) 1.0006(9)
C10 C 0.1722(5) 0.5284(5) 1.021(1)
C11 C 0.3551(5) 0.3850(4) 0.643(1)
C12 C 0.4920(6) 0.3873(6) 0.726(1)
H1 H -0.038(3) 0.069(3) 0.892(6)
H2 H -0.239(4) 0.084(3) 0.683(6)
H3 H -0.088(3) 0.257(3) 0.261(6)
H4 H 0.104(4) 0.257(3) 0.462(6)
H5 H 0.328(3) 0.175(3) 0.601(5)
H6 H 0.458(4) 0.071(4) 0.827(6)
H7 H 0.442(4) 0.187(3) 0.979(6)
H8 H 0.17750 0.35160 1.06510
H9 H 0.32150 0.38510 1.07540
H10 H 0.23320 0.57300 0.97500
H11 H 0.08930 0.53950 0.96320
H12 H 0.15990 0.55920 1.18700
H13 H 0.36600 0.33810 0.50560
H14 H 0.31590 0.46720 0.64400
H15 H 0.54340 0.30500 0.73290
H16 H 0.54540 0.42250 0.63160
H17 H 0.49330 0.43420 0.87110
#END
