
#######################################################################
#
#                 Cambridge Crystallographic Data Centre
#                                CCDC
#
#######################################################################
#
# If this CIF has been generated from an entry in the Cambridge
# Structural Database, then it will include bibliographic, chemical,
# crystal, experimental, refinement or atomic coordinate data resulting
# from the CCDC's data processing and validation procedures.
#
#######################################################################

data_CSD_CIF_QAQGUK
_audit_creation_date 2001-03-08
_audit_creation_method CSD-ConQuest-V1
_database_code_CSD QAQGUK
_chemical_formula_sum 'C20 H23 N1 O4'
_chemical_formula_moiety
;
C20 H23 N1 O4
;
_journal_coden_Cambridge 16
_journal_volume 55
_journal_year 1999
_journal_page_first 9501
_journal_name_full 'Tetrahedron '
loop_
_publ_author_name
"J.Kuban"
"I.Blanarikova"
"L.Fisera"
"L.Jaroskova"
"M.Fengler-Veith"
"V.Jager"
"J.Kozisek"
"O.Humpa"
"N.Pronayova"
"V.Langer"
_chemical_name_systematic
;
(3S,5R,2'R,4'S,5'R)-3-(5'-hydroxy-2'-methyl-1',3'-dioxan-4'-yl)-2,5-diphenylis
oxazolidine
;
_chemical_melting_point 414.15
_cell_volume   2823.372
_exptl_crystal_colour 'colorless'
_exptl_crystal_density_diffrn 1.205
_exptl_special_details
;
Melting point range 414.15-415.15K

;
_exptl_crystal_preparation 'diethyl ether'
_diffrn_ambient_temperature ?
_diffrn_special_details
;
The study was carried out at room temperature,in the range 283-303K

;
#These two values have been output from a single CSD field.
_refine_ls_R_factor_gt 0.0473
_refine_ls_wR_factor_gt 0.0473
_symmetry_cell_setting hexagonal
_symmetry_space_group_name_H-M 'P 61'
_symmetry_Int_Tables_number 169
loop_
_symmetry_equiv_pos_site_id
_symmetry_equiv_pos_as_xyz
1 x,y,z
2 x-y,x,1/6+z
3 -y,x-y,1/3+z
4 -x,-y,1/2+z
5 -x+y,-x,2/3+z
6 y,-x+y,5/6+z
_cell_length_a 10.0376(1)
_cell_length_b 10.0376(1)
_cell_length_c 32.3577(4)
_cell_angle_alpha 90
_cell_angle_beta 90
_cell_angle_gamma 120
_cell_formula_units_Z 6
loop_
_atom_type_symbol
_atom_type_radius_bond
C 0.68
H 0.23
N 0.68
O 0.68
loop_
_atom_site_label
_atom_site_type_symbol
_atom_site_fract_x
_atom_site_fract_y
_atom_site_fract_z
O1 O 0.6510(1) 0.4756(1) 0.1764(1)
N1 N 0.7753(1) 0.6035(1) 0.1560(1)
C1 C 0.7036(1) 0.6442(1) 0.1215(1)
C2 C 0.5487(2) 0.4981(2) 0.1132(1)
C3 C 0.5409(2) 0.3808(2) 0.1450(1)
C4 C 0.6907(1) 0.7839(1) 0.1328(1)
O2 O 0.5774(1) 0.7414(1) 0.1646(1)
C5 C 0.5573(2) 0.8655(2) 0.1772(1)
O3 O 0.5088(2) 0.9206(2) 0.1438(1)
C6 C 0.6179(2) 0.9747(2) 0.1110(1)
C7 C 0.6454(1) 0.8474(1) 0.0959(1)
O4 O 0.7674(1) 0.9055(2) 0.0671(1)
C8 C 0.4311(3) 0.8029(3) 0.2094(1)
C9 C 0.3906(2) 0.2860(2) 0.1669(1)
C10 C 0.3129(2) 0.1261(2) 0.1651(1)
C11 C 0.1749(3) 0.0402(2) 0.1864(1)
C12 C 0.1168(2) 0.1126(2) 0.2103(1)
C13 C 0.1944(2) 0.2709(2) 0.2128(1)
C14 C 0.3301(2) 0.3574(2) 0.1911(1)
C15 C 0.8944(2) 0.5710(2) 0.1440(1)
C16 C 0.8933(2) 0.4385(2) 0.1568(1)
C17 C 1.0138(3) 0.4161(3) 0.1452(1)
C18 C 1.1351(3) 0.5251(4) 0.1219(1)
C19 C 1.1375(2) 0.6563(3) 0.1106(1)
C20 C 1.0177(2) 0.6815(2) 0.1215(1)
H1 H 0.7685(1) 0.6681(1) 0.0968(1)
H2 H 0.4642(2) 0.5176(2) 0.1170(1)
H3 H 0.5448(2) 0.4612(2) 0.0853(1)
H4 H 0.5736(2) 0.3134(2) 0.1321(1)
H5 H 0.7901(1) 0.8644(1) 0.1435(1)
H6 H 0.6531(2) 0.9485(2) 0.1889(1)
H7 H 0.7141(2) 1.0610(2) 0.1205(1)
H8 H 0.5800(2) 1.0100(2) 0.0883(1)
H9 H 0.5515(1) 0.7653(1) 0.0832(1)
H10 H 0.7340(4) 0.9045(25) 0.0439(1)
H11 H 0.4095(14) 0.8822(6) 0.2175(4)
H12 H 0.4639(8) 0.7693(17) 0.2331(2)
H13 H 0.3400(6) 0.7177(12) 0.1981(2)
H14 H 0.3532(2) 0.0764(2) 0.1496(1)
H15 H 0.1220(3) -0.0666(2) 0.1844(1)
H16 H 0.0253(2) 0.0549(2) 0.2247(1)
H17 H 0.1556(2) 0.3198(2) 0.2292(1)
H18 H 0.3812(2) 0.4642(2) 0.1928(1)
H19 H 0.8130(2) 0.3658(2) 0.1729(1)
H20 H 1.0131(3) 0.3268(3) 0.1532(1)
H21 H 1.2147(3) 0.5084(4) 0.1141(1)
H22 H 1.2200(2) 0.7302(3) 0.0954(1)
H23 H 1.0205(2) 0.7720(2) 0.1137(1)
#END
