
#######################################################################
#
#                 Cambridge Crystallographic Data Centre
#                                CCDC
#
#######################################################################
#
# If this CIF has been generated from an entry in the Cambridge
# Structural Database, then it will include bibliographic, chemical,
# crystal, experimental, refinement or atomic coordinate data resulting
# from the CCDC's data processing and validation procedures.
#
#######################################################################

data_CSD_CIF_QAQPIH
_audit_creation_date 2001-03-08
_audit_creation_method CSD-ConQuest-V1
_database_code_CSD QAQPIH
_chemical_formula_sum 'C7 H6 N4 O3'
_chemical_formula_moiety
;
C7 H6 N4 O3
;
_journal_coden_Cambridge 35
_journal_volume 64
_journal_year 1999
_journal_page_first 6476
_journal_name_full 'J.Org.Chem. '
loop_
_publ_author_name
"N.Nishiwaki"
"T.Nogami"
"T.Kawamura"
"N.Asaka"
"Y.Tohda"
"M.Ariga"
_chemical_name_systematic
;
3,5-dicyano-4,4-dimethyl-5-nitro-2-isoxazoline
;
_chemical_melting_point 363.15
_cell_volume    913.601
_exptl_crystal_colour 'colorless'
_exptl_crystal_density_diffrn 1.41
_exptl_special_details
;
Melting point range 363.15-364.15K

;
_exptl_crystal_description 'prism'
_diffrn_ambient_temperature ?
_diffrn_special_details
;
The study was carried out at room temperature,in the range 283-303K

;
#These two values have been output from a single CSD field.
_refine_ls_R_factor_gt 0.03
_refine_ls_wR_factor_gt 0.03
_symmetry_cell_setting monoclinic
_symmetry_space_group_name_H-M 'P 21/n'
_symmetry_Int_Tables_number 14
loop_
_symmetry_equiv_pos_site_id
_symmetry_equiv_pos_as_xyz
1 x,y,z
2 1/2-x,1/2+y,1/2-z
3 -x,-y,-z
4 -1/2+x,-1/2-y,-1/2+z
_cell_length_a 7.274(3)
_cell_length_b 11.903(5)
_cell_length_c 10.735(4)
_cell_angle_alpha 90
_cell_angle_beta 100.60(3)
_cell_angle_gamma 90
_cell_formula_units_Z 4
loop_
_atom_type_symbol
_atom_type_radius_bond
C 0.68
H 0.23
N 0.68
O 0.68
loop_
_atom_site_label
_atom_site_type_symbol
_atom_site_fract_x
_atom_site_fract_y
_atom_site_fract_z
O1 O 0.6931(4) 0.1758(2) 0.3353(3)
O2 O 0.5197(5) 0.1406(3) 0.1020(3)
O3 O 0.2599(5) 0.2076(3) 0.1457(3)
N1 N 0.8593(5) 0.2268(3) 0.3088(3)
N2 N 0.4277(6) 0.1908(3) 0.1683(4)
N3 N 1.0689(6) 0.4561(3) 0.2094(5)
N4 N 0.3257(6) 0.2436(4) 0.4603(4)
C1 C 0.8169(5) 0.3256(4) 0.2674(4)
C2 C 0.6159(5) 0.3636(3) 0.2595(4)
C3 C 0.5388(6) 0.2458(4) 0.2913(4)
C4 C 0.9618(6) 0.3969(4) 0.2355(5)
C5 C 0.6029(6) 0.4488(4) 0.3647(4)
C6 C 0.5307(6) 0.4114(4) 0.1300(4)
C7 C 0.4126(6) 0.2445(4) 0.3853(5)
H1 H 0.65200 0.42290 0.45500
H2 H 0.47030 0.47450 0.35510
H3 H 0.66200 0.51760 0.34300
H4 H 0.59740 0.49170 0.12280
H5 H 0.39790 0.42860 0.12560
H6 H 0.55790 0.36580 0.06010
#END
