
#######################################################################
#
#                 Cambridge Crystallographic Data Centre
#                                CCDC
#
#######################################################################
#
# If this CIF has been generated from an entry in the Cambridge
# Structural Database, then it will include bibliographic, chemical,
# crystal, experimental, refinement or atomic coordinate data resulting
# from the CCDC's data processing and validation procedures.
#
#######################################################################

data_CSD_CIF_QAQPON
_audit_creation_date 2001-03-08
_audit_creation_method CSD-ConQuest-V1
_database_code_CSD QAQPON
_chemical_formula_sum 'C12 H7 N3 O2'
_chemical_formula_moiety
;
C12 H7 N3 O2
;
_journal_coden_Cambridge 35
_journal_volume 64
_journal_year 1999
_journal_page_first 6476
_journal_name_full 'J.Org.Chem. '
loop_
_publ_author_name
"N.Nishiwaki"
"T.Nogami"
"T.Kawamura"
"N.Asaka"
"Y.Tohda"
"M.Ariga"
_chemical_name_systematic
;
3,5-dicyano-4-(4-methoxyphenyl)isoxazole
;
_chemical_melting_point 403.15
_cell_volume   1096.388
_exptl_crystal_colour 'yellow'
_exptl_crystal_density_diffrn 1.36
_exptl_special_details
;
Melting point range 403.15-404.15K

;
_exptl_crystal_description 'needles'
_diffrn_ambient_temperature ?
_diffrn_special_details
;
The study was carried out at room temperature,in the range 283-303K

;
#These two values have been output from a single CSD field.
_refine_ls_R_factor_gt 0.041
_refine_ls_wR_factor_gt 0.041
_symmetry_cell_setting monoclinic
_symmetry_space_group_name_H-M 'P 21/n'
_symmetry_Int_Tables_number 14
loop_
_symmetry_equiv_pos_site_id
_symmetry_equiv_pos_as_xyz
1 x,y,z
2 1/2-x,1/2+y,1/2-z
3 -x,-y,-z
4 -1/2+x,-1/2-y,-1/2+z
_cell_length_a 11.711(6)
_cell_length_b 7.132(3)
_cell_length_c 13.245(8)
_cell_angle_alpha 90
_cell_angle_beta 97.66(5)
_cell_angle_gamma 90
_cell_formula_units_Z 4
loop_
_atom_type_symbol
_atom_type_radius_bond
C 0.68
H 0.23
N 0.68
O 0.68
loop_
_atom_site_label
_atom_site_type_symbol
_atom_site_fract_x
_atom_site_fract_y
_atom_site_fract_z
O1 O 0.0149(3) 0.4306(6) 0.8882(3)
O2 O 0.5751(3) 0.4096(6) 0.6270(2)
N1 N -0.0399(3) 0.3851(7) 0.7926(3)
N2 N 0.2595(4) 0.5386(9) 1.0453(3)
N3 N -0.0259(5) 0.2935(8) 0.5451(3)
C1 C 0.1295(4) 0.4460(8) 0.8820(4)
C2 C 0.1528(4) 0.4121(8) 0.7839(3)
C3 C 0.0413(4) 0.3753(8) 0.7325(4)
C4 C 0.2016(5) 0.497(1) 0.9747(4)
C5 C 0.0043(4) 0.3288(9) 0.6274(4)
C6 C 0.2646(4) 0.4130(7) 0.7458(3)
C7 C 0.3668(4) 0.3824(8) 0.8102(3)
C8 C 0.4719(4) 0.3815(9) 0.7740(4)
C9 C 0.4772(4) 0.4091(8) 0.6719(4)
C10 C 0.3757(5) 0.441(1) 0.6061(4)
C11 C 0.2708(4) 0.4436(8) 0.6413(3)
C12 C 0.6822(5) 0.385(2) 0.6903(6)
H1 H 0.368(3) 0.356(6) 0.888(3)
H2 H 0.541(3) 0.362(6) 0.826(3)
H3 H 0.376(4) 0.464(6) 0.538(3)
H4 H 0.194(4) 0.476(6) 0.591(3)
H5 H 0.693(5) 0.488(8) 0.737(4)
H6 H 0.685(6) 0.25(1) 0.728(5)
H7 H 0.740(4) 0.398(8) 0.643(4)
#END
