
#######################################################################
#
#                 Cambridge Crystallographic Data Centre
#                                CCDC
#
#######################################################################
#
# If this CIF has been generated from an entry in the Cambridge
# Structural Database, then it will include bibliographic, chemical,
# crystal, experimental, refinement or atomic coordinate data resulting
# from the CCDC's data processing and validation procedures.
#
#######################################################################

data_CSD_CIF_QARHEZ
_audit_creation_date 2017-05-08
_audit_creation_method CSD-ConQuest-V1
_database_code_CSD QARHEZ
_database_code_depnum_ccdc_archive 'CCDC 1509692'
_chemical_formula_sum 'C13 H15 N3 O3'
_chemical_formula_moiety
;
C13 H15 N3 O3
;
_journal_coden_Cambridge 16
_journal_volume 73
_journal_year 2017
_journal_page_first 1255
_journal_name_full 'Tetrahedron '
loop_
_publ_author_name
"Feiyue Hao"
"H.Asahara"
"N.Nishiwaki"
_chemical_name_systematic
;
3-methyl-1a-nitro-1-propyl-1,1a,3,7b-tetrahydro-2H-azireno[2,3-c]quinolin-2-on
e
;
_cell_volume   1306.720
_exptl_crystal_colour 'colorless'
_exptl_crystal_density_diffrn 1.328
_exptl_crystal_description 'prismatic'
_diffrn_ambient_temperature 296
#These two values have been output from a single CSD field.
_refine_ls_R_factor_gt 0.1074
_refine_ls_wR_factor_gt 0.1074
_symmetry_cell_setting monoclinic
_symmetry_space_group_name_H-M 'P 21/c'
_symmetry_Int_Tables_number 14
loop_
_symmetry_equiv_pos_site_id
_symmetry_equiv_pos_as_xyz
1 x,y,z
2 -x,1/2+y,1/2-z
3 -x,-y,-z
4 x,-1/2-y,-1/2+z
_cell_length_a 10.240(6)
_cell_length_b 13.808(5)
_cell_length_c 10.363(8)
_cell_angle_alpha 90
_cell_angle_beta 116.90(4)
_cell_angle_gamma 90
_cell_formula_units_Z 4
loop_
_atom_type_symbol
_atom_type_radius_bond
C 0.68
H 0.23
N 0.68
O 0.68
loop_
_atom_site_label
_atom_site_type_symbol
_atom_site_fract_x
_atom_site_fract_y
_atom_site_fract_z
O1 O 0.9667(3) 0.1519(2) 1.3106(3)
O2 O 0.8158(4) -0.0546(3) 1.2999(4)
O3 O 0.6854(5) 0.0582(4) 1.3271(4)
N1 N 0.9345(3) 0.14341(17) 1.0784(3)
N2 N 0.6157(3) 0.11843(17) 1.0482(3)
N3 N 0.7507(4) 0.0220(3) 1.2680(4)
C1 C 0.8961(4) 0.1254(2) 1.1858(3)
C2 C 0.7525(4) 0.0743(2) 1.1415(4)
C3 C 0.6685(4) 0.03508(19) 0.9940(4)
C4 C 0.7350(4) 0.0483(2) 0.8952(3)
C5 C 0.6700(5) 0.0060(3) 0.7601(4)
C6 C 0.7292(6) 0.0161(3) 0.6648(4)
C7 C 0.8560(5) 0.0680(3) 0.7073(4)
C8 C 0.9243(4) 0.1103(3) 0.8416(4)
C9 C 0.8647(3) 0.1011(2) 0.9387(3)
C10 C 1.0635(4) 0.2053(3) 1.1153(4)
C11 C 0.6118(4) 0.2183(3) 0.9965(5)
C12 C 0.4572(5) 0.2543(3) 0.9311(4)
C13 C 0.3941(5) 0.2651(4) 1.0359(5)
H1 H 0.61870 -0.02680 0.98650
H2 H 0.58480 -0.03010 0.73270
H3 H 0.68370 -0.01170 0.57330
H4 H 0.89670 0.07480 0.64380
H5 H 1.01050 0.14510 0.86810
H6 H 1.14180 0.16710 1.11520
H7 H 1.09380 0.23280 1.20960
H8 H 1.03910 0.25630 1.04520
H9 H 0.64820 0.21970 0.92480
H10 H 0.67370 0.25970 1.07660
H11 H 0.39610 0.20990 0.85510
H12 H 0.45320 0.31670 0.88640
H13 H 0.30960 0.30640 0.99470
H14 H 0.46610 0.29310 1.12430
H15 H 0.36610 0.20260 1.05570
#END
