
#######################################################################
#
#                 Cambridge Crystallographic Data Centre
#                                CCDC
#
#######################################################################
#
# If this CIF has been generated from an entry in the Cambridge
# Structural Database, then it will include bibliographic, chemical,
# crystal, experimental, refinement or atomic coordinate data resulting
# from the CCDC's data processing and validation procedures.
#
#######################################################################

data_CSD_CIF_QATJEB
_audit_creation_date 2005-10-28
_audit_creation_method CSD-ConQuest-V1
_database_code_CSD QATJEB
_database_code_depnum_ccdc_archive 'CCDC 263463'
_chemical_formula_sum 'C16 H23 N1 O4'
_chemical_formula_moiety
;
C16 H23 N1 O4
;
_journal_coden_Cambridge 10
_journal_volume 88
_journal_year 2005
_journal_page_first 1432
_journal_name_full 'Helv.Chim.Acta '
loop_
_publ_author_name
"B.Dugovic"
"L.Fisera"
"M.K.Cyranski"
"C.Hametner"
"N.Pronayova"
"M.Obranec"
_chemical_name_systematic
;
((3S,4S)-3-((4S)-2,2-Dimethyl-1,3-dioxolan-4-yl)-2-(phenylmethyl)isoxazolidin-
4-yl)methanol
;
_chemical_melting_point 425.15
_cell_volume   1517.960
_exptl_crystal_colour 'colorless'
_exptl_crystal_density_diffrn 1.284
_exptl_special_details
;
Melting point range 425.15-426.15K

;
_diffrn_ambient_temperature 100
#These two values have been output from a single CSD field.
_refine_ls_R_factor_gt 0.0324
_refine_ls_wR_factor_gt 0.0324
_symmetry_cell_setting orthorhombic
_symmetry_space_group_name_H-M 'P 21 21 21'
_symmetry_Int_Tables_number 19
loop_
_symmetry_equiv_pos_site_id
_symmetry_equiv_pos_as_xyz
1 x,y,z
2 1/2-x,-y,1/2+z
3 -x,1/2+y,1/2-z
4 1/2+x,1/2-y,-z
_cell_length_a 6.4476(6)
_cell_length_b 13.7780(13)
_cell_length_c 17.0874(17)
_cell_angle_alpha 90
_cell_angle_beta 90
_cell_angle_gamma 90
_cell_formula_units_Z 4
loop_
_atom_type_symbol
_atom_type_radius_bond
C 0.68
H 0.23
N 0.68
O 0.68
loop_
_atom_site_label
_atom_site_type_symbol
_atom_site_fract_x
_atom_site_fract_y
_atom_site_fract_z
O1 O 0.1920(2) 0.12568(10) 0.35408(7)
N1 N 0.1907(3) 0.15089(11) 0.27114(9)
C1 C 0.3257(3) 0.07663(13) 0.23393(11)
H1 H 0.41400 0.10780 0.19290
C2 C 0.4654(3) 0.03450(14) 0.29958(10)
H2 H 0.42710 -0.03510 0.30790
C3 C 0.3996(3) 0.09240(15) 0.37136(11)
H3 H 0.40030 0.05090 0.41870
H4 H 0.49400 0.14800 0.38000
C4 C 0.1895(3) -0.00078(14) 0.19670(11)
H5 H 0.08330 -0.02370 0.23510
C5 C 0.0835(3) 0.03208(15) 0.12104(11)
H6 H -0.05610 0.00290 0.11600
H7 H 0.07080 0.10370 0.11910
O2 O 0.2199(2) -0.00265(9) 0.06109(7)
C6 C 0.3013(3) -0.09264(13) 0.08951(11)
O3 O 0.3179(3) -0.08056(11) 0.17253(8)
C7 C 0.5133(4) -0.10710(16) 0.05517(14)
H8 H 0.50280 -0.11070 -0.00200
H9 H 0.57290 -0.16760 0.07530
H10 H 0.60260 -0.05250 0.06980
C8 C 0.1555(4) -0.17654(15) 0.07250(13)
H11 H 0.01400 -0.15850 0.08760
H12 H 0.19920 -0.23360 0.10250
H13 H 0.15930 -0.19160 0.01650
C9 C 0.6957(3) 0.04014(14) 0.28213(12)
H14 H 0.77590 0.02150 0.32920
H15 H 0.73120 -0.00550 0.23940
O4 O 0.7481(2) 0.13647(11) 0.25957(10)
H16 H 0.87770 0.14270 0.25930
C10 C 0.2759(3) 0.25050(13) 0.26307(11)
H17 H 0.42740 0.24960 0.27240
H18 H 0.21140 0.29380 0.30240
C11 C 0.2321(3) 0.28828(13) 0.18181(11)
C12 C 0.0309(3) 0.31657(14) 0.16136(12)
H19 H -0.07850 0.31070 0.19830
C13 C -0.0096(4) 0.35334(14) 0.08705(13)
H20 H -0.14610 0.37300 0.07350
C14 C 0.1497(4) 0.36122(15) 0.03287(13)
H21 H 0.12200 0.38620 -0.01790
C15 C 0.3497(4) 0.33269(16) 0.05260(13)
H22 H 0.45870 0.33800 0.01540
C16 C 0.3895(3) 0.29631(14) 0.12694(12)
H23 H 0.52620 0.27670 0.14030
#END
