
#######################################################################
#
#                 Cambridge Crystallographic Data Centre
#                                CCDC
#
#######################################################################
#
# If this CIF has been generated from an entry in the Cambridge
# Structural Database, then it will include bibliographic, chemical,
# crystal, experimental, refinement or atomic coordinate data resulting
# from the CCDC's data processing and validation procedures.
#
#######################################################################

data_CSD_CIF_QATYES
_audit_creation_date 2017-05-09
_audit_creation_method CSD-ConQuest-V1
_database_code_CSD QATYES
_database_code_depnum_ccdc_archive 'CCDC 1475846'
_chemical_formula_sum 'C19 H14 N4 O2'
_chemical_formula_moiety
;
C19 H14 N4 O2
;
_journal_coden_Cambridge 1428
_journal_volume 99
_journal_year 2017
_journal_page_first 115
_journal_name_full 'Catalysis Communications '
loop_
_publ_author_name
"B.Paplal"
"S.Nagaraju"
"B.Sridhar"
"D.Kashinath"
_chemical_name_systematic
;
1-benzyl-5-(1-naphthyl)-4-nitro-1H-1,2,3-triazole
;
_cell_volume   3236.557
_exptl_crystal_colour 'colorless'
_exptl_crystal_density_diffrn 1.356
_exptl_crystal_description 'needle'
_diffrn_ambient_temperature 294
#These two values have been output from a single CSD field.
_refine_ls_R_factor_gt 0.0454
_refine_ls_wR_factor_gt 0.0454
_symmetry_cell_setting orthorhombic
_symmetry_space_group_name_H-M 'P b c a'
_symmetry_Int_Tables_number 61
loop_
_symmetry_equiv_pos_site_id
_symmetry_equiv_pos_as_xyz
1 x,y,z
2 1/2-x,-y,1/2+z
3 -x,1/2+y,1/2-z
4 1/2+x,1/2-y,-z
5 -x,-y,-z
6 -1/2+x,y,-1/2-z
7 x,-1/2-y,-1/2+z
8 -1/2-x,-1/2+y,z
_cell_length_a 10.6369(9)
_cell_length_b 14.3889(12)
_cell_length_c 21.1466(17)
_cell_angle_alpha 90
_cell_angle_beta 90
_cell_angle_gamma 90
_cell_formula_units_Z 8
loop_
_atom_type_symbol
_atom_type_radius_bond
C 0.68
H 0.23
N 0.68
O 0.68
loop_
_atom_site_label
_atom_site_type_symbol
_atom_site_fract_x
_atom_site_fract_y
_atom_site_fract_z
C1 C 0.76832(12) 1.01894(8) 0.65102(6)
C2 C 0.85134(12) 0.94190(8) 0.64514(6)
C3 C 0.95599(13) 0.94128(11) 0.60396(8)
H1 H 0.97360 0.99320 0.57930
C4 C 1.03151(16) 0.86444(14) 0.6004(1)
H2 H 1.09950 0.86400 0.57280
C5 C 1.0072(2) 0.78647(13) 0.63805(12)
H3 H 1.05990 0.73500 0.63560
C6 C 0.9082(2) 0.78524(11) 0.67772(10)
H4 H 0.89380 0.73300 0.70260
C7 C 0.82620(14) 0.86152(9) 0.68219(7)
C8 C 0.72053(16) 0.86078(11) 0.72242(7)
H5 H 0.70460 0.80850 0.74700
C9 C 0.64205(16) 0.93421(11) 0.72609(7)
H6 H 0.57220 0.93200 0.75250
C10 C 0.66612(13) 1.01405(10) 0.68987(7)
H7 H 0.61150 1.06440 0.69240
C11 C 0.79510(11) 1.10527(8) 0.61574(6)
C12 C 0.88694(13) 1.17212(8) 0.62092(6)
C13 C 0.61689(13) 1.09530(11) 0.53578(7)
H8 H 0.55930 1.14450 0.52380
H9 H 0.57420 1.05550 0.56600
C14 C 0.65060(12) 1.03927(10) 0.47801(6)
C15 C 0.70585(14) 0.95256(10) 0.48338(7)
H10 H 0.72170 0.92780 0.52320
C16 C 0.73769(17) 0.90248(12) 0.43008(8)
H11 H 0.77550 0.84450 0.43410
C17 C 0.71359(16) 0.93824(14) 0.37096(8)
H12 H 0.73600 0.90490 0.33500
C18 C 0.65622(16) 1.02345(14) 0.36522(8)
H13 H 0.63820 1.04700 0.32530
C19 C 0.62515(14) 1.07424(12) 0.41840(7)
H14 H 0.58710 1.13210 0.41410
N1 N 0.72815(10) 1.13643(8) 0.56598(5)
N2 N 0.77627(12) 1.21658(8) 0.54257(6)
N3 N 0.87459(12) 1.23822(8) 0.57635(6)
N4 N 0.98334(12) 1.17775(8) 0.66810(6)
O1 O 0.97687(14) 1.12376(9) 0.71219(6)
O2 O 1.06593(12) 1.23535(9) 0.66223(6)
#END
