
#######################################################################
#
#                 Cambridge Crystallographic Data Centre
#                                CCDC
#
#######################################################################
#
# If this CIF has been generated from an entry in the Cambridge
# Structural Database, then it will include bibliographic, chemical,
# crystal, experimental, refinement or atomic coordinate data resulting
# from the CCDC's data processing and validation procedures.
#
#######################################################################

data_CSD_CIF_QATYAO
_audit_creation_date 2017-05-09
_audit_creation_method CSD-ConQuest-V1
_database_code_CSD QATYAO
_database_code_depnum_ccdc_archive 'CCDC 1475845'
_chemical_formula_sum 'C25 H18 N6 O3'
_chemical_formula_moiety
;
C25 H18 N6 O3
;
_journal_coden_Cambridge 1428
_journal_volume 99
_journal_year 2017
_journal_page_first 115
_journal_name_full 'Catalysis Communications '
loop_
_publ_author_name
"B.Paplal"
"S.Nagaraju"
"B.Sridhar"
"D.Kashinath"
_chemical_name_systematic
;
1-(5-(1,3-diphenyl-1H-pyrazol-4-yl)-1-(3-nitrophenyl)-1H-1,2,3-triazol-4-yl)et
hanone
;
_cell_volume   2194.354
_exptl_crystal_colour 'colorless'
_exptl_crystal_density_diffrn 1.363
_exptl_crystal_description 'block'
_diffrn_ambient_temperature 294
#These two values have been output from a single CSD field.
_refine_ls_R_factor_gt 0.0507
_refine_ls_wR_factor_gt 0.0507
_symmetry_cell_setting monoclinic
_symmetry_space_group_name_H-M 'P 21/c'
_symmetry_Int_Tables_number 14
loop_
_symmetry_equiv_pos_site_id
_symmetry_equiv_pos_as_xyz
1 x,y,z
2 -x,1/2+y,1/2-z
3 -x,-y,-z
4 x,-1/2-y,-1/2+z
_cell_length_a 12.7054(7)
_cell_length_b 21.6617(12)
_cell_length_c 8.1228(4)
_cell_angle_alpha 90
_cell_angle_beta 101.018(1)
_cell_angle_gamma 90
_cell_formula_units_Z 4
loop_
_atom_type_symbol
_atom_type_radius_bond
C 0.68
H 0.23
N 0.68
O 0.68
loop_
_atom_site_label
_atom_site_type_symbol
_atom_site_fract_x
_atom_site_fract_y
_atom_site_fract_z
C1 C 0.14002(11) 0.61648(6) 0.98353(18)
C2 C 0.03838(11) 0.63955(6) 0.9692(2)
H1 H -0.02330 0.61690 0.97320
C3 C 0.20495(11) 0.66914(6) 0.97254(18)
C4 C -0.04229(11) 0.74436(7) 0.9186(2)
C5 C -0.14299(14) 0.72704(10) 0.9360(4)
H2 H -0.15610 0.68700 0.96820
C6 C -0.22498(15) 0.76982(11) 0.9052(4)
H3 H -0.29330 0.75830 0.91880
C7 C -0.20815(14) 0.82816(9) 0.8555(3)
H4 H -0.26440 0.85630 0.83400
C8 C -0.10888(14) 0.84478(8) 0.8376(2)
H5 H -0.09670 0.88470 0.80380
C9 C -0.02481(13) 0.80325(7) 0.8688(2)
H6 H 0.04340 0.81530 0.85610
C10 C 0.32211(11) 0.67191(6) 0.98469(18)
C11 C 0.36707(13) 0.71346(8) 0.8886(2)
H7 H 0.32350 0.74090 0.81830
C12 C 0.47690(14) 0.71416(10) 0.8972(3)
H8 H 0.50680 0.74190 0.83190
C13 C 0.54224(13) 0.67395(10) 1.0018(3)
H9 H 0.61600 0.67450 1.00670
C14 C 0.49834(12) 0.63332(8) 1.0983(2)
H10 H 0.54240 0.60650 1.16990
C15 C 0.38899(12) 0.63197(7) 1.08995(19)
H11 H 0.35980 0.60400 1.15560
C16 C 0.16858(11) 0.55104(6) 0.98856(19)
C17 C 0.15129(12) 0.50304(6) 1.0914(2)
C18 C 0.10100(13) 0.50397(8) 1.2396(2)
C19 C 0.12753(18) 0.45310(9) 1.3645(3)
H12 H 0.20050 0.45730 1.42220
H13 H 0.11850 0.41400 1.30780
H14 H 0.08060 0.45520 1.44410
C20 C 0.27136(12) 0.55231(7) 0.75165(19)
C21 C 0.21322(13) 0.59157(9) 0.6345(2)
H15 H 0.14040 0.59770 0.63130
C22 C 0.26454(16) 0.62177(10) 0.5220(2)
H16 H 0.22630 0.64900 0.44420
C23 C 0.37184(16) 0.61179(10) 0.5246(2)
H17 H 0.40720 0.63290 0.45160
C24 C 0.42540(13) 0.56999(9) 0.6373(2)
C25 C 0.37823(13) 0.54020(7) 0.7535(2)
H18 H 0.41680 0.51290 0.83060
N1 N 0.04402(9) 0.70099(5) 0.94828(17)
N2 N 0.14615(9) 0.72009(5) 0.95132(17)
N3 N 0.22391(10) 0.52448(5) 0.87953(17)
N4 N 0.24063(12) 0.46318(6) 0.9142(2)
N5 N 0.19644(12) 0.45068(6) 1.0416(2)
N6 N 0.53909(14) 0.55683(10) 0.6363(2)
O1 O 0.04173(12) 0.54546(7) 1.2608(2)
O2 O 0.58404(14) 0.58770(12) 0.5465(3)
O3 O 0.58176(12) 0.51489(9) 0.7217(3)
#END
