
#######################################################################
#
#                 Cambridge Crystallographic Data Centre
#                                CCDC
#
#######################################################################
#
# If this CIF has been generated from an entry in the Cambridge
# Structural Database, then it will include bibliographic, chemical,
# crystal, experimental, refinement or atomic coordinate data resulting
# from the CCDC's data processing and validation procedures.
#
#######################################################################

data_CSD_CIF_QAVYAO
_audit_creation_date 2006-02-15
_audit_creation_method CSD-ConQuest-V1
_database_code_CSD QAVYAO
_database_code_depnum_ccdc_archive 'CCDC 288786'
_chemical_formula_sum 'C18 H17 N3 O3'
_chemical_formula_moiety
;
C18 H17 N3 O3
;
_journal_coden_Cambridge 35
_journal_volume 70
_journal_year 2005
_journal_page_first 7810
_journal_name_full 'J.Org.Chem. '
loop_
_publ_author_name
"J.D.Toker"
"M.R.Tremblay"
"J.Yli-Kauhaluoma"
"A.D.Wentworth"
"Bin Zhou"
"P.Wentworth Junior"
"K.D.Janda"
_chemical_name_systematic
;
(R)-3-(4-Acetylaminophenyl)-4,5-dihydroisoxazole-5-carboxylic acid phenylamide
;
_cell_volume   1563.370
_exptl_crystal_colour 'colorless'
_exptl_crystal_density_diffrn 1.374
_exptl_crystal_description 'parallelepiped'
_exptl_crystal_preparation 'methanol'
_diffrn_ambient_temperature 296
#These two values have been output from a single CSD field.
_refine_ls_R_factor_gt 0.0434
_refine_ls_wR_factor_gt 0.0434
_symmetry_cell_setting monoclinic
_symmetry_space_group_name_H-M 'P 21'
_symmetry_Int_Tables_number 4
loop_
_symmetry_equiv_pos_site_id
_symmetry_equiv_pos_as_xyz
1 x,y,z
2 -x,1/2+y,-z
_cell_length_a 5.6269(6)
_cell_length_b 36.295(4)
_cell_length_c 7.6556(9)
_cell_angle_alpha 90
_cell_angle_beta 90.712(4)
_cell_angle_gamma 90
_cell_formula_units_Z 4
loop_
_atom_type_symbol
_atom_type_radius_bond
C 0.68
H 0.23
N 0.68
O 0.68
loop_
_atom_site_label
_atom_site_type_symbol
_atom_site_fract_x
_atom_site_fract_y
_atom_site_fract_z
O1 O 0.6930(3) 0.04927(4) 0.5329(3)
O2 O 0.1854(3) 0.10258(4) 0.6492(2)
O3 O 0.8403(5) 0.31722(6) 0.4877(4)
N1 N 0.2953(4) 0.03615(5) 0.5315(3)
H1 H 0.15920 0.04620 0.54900
N2 N 0.1853(4) 0.13761(5) 0.5679(3)
N3 N 0.5576(4) 0.29518(5) 0.3158(3)
H2 H 0.46260 0.30150 0.23210
C1 C 0.4793(5) -0.01512(7) 0.3705(3)
H3 H 0.60940 -0.00060 0.34170
C2 C 0.4669(5) -0.05139(6) 0.3179(3)
H4 H 0.59050 -0.06140 0.25410
C3 C 0.2752(5) -0.07282(7) 0.3584(4)
H5 H 0.26940 -0.09740 0.32370
C4 C 0.0903(5) -0.05766(7) 0.4513(4)
H6 H -0.04130 -0.07210 0.47730
C5 C 0.0977(4) -0.02169(6) 0.5058(3)
H7 H -0.02800 -0.01170 0.56780
C6 C 0.2933(4) -0.00044(6) 0.4678(3)
C7 C 0.4883(5) 0.05693(6) 0.5677(3)
C8 C 0.4305(4) 0.09128(6) 0.6753(3)
H8 H 0.45600 0.08560 0.79930
C9 C 0.5795(4) 0.12459(6) 0.6288(4)
H9 H 0.65750 0.13500 0.73120
H10 H 0.69800 0.11860 0.54240
C10 C 0.3972(4) 0.14965(6) 0.5571(3)
C11 C 0.4437(4) 0.18696(6) 0.4896(3)
C12 C 0.6545(4) 0.20473(6) 0.5258(3)
H11 H 0.77400 0.19220 0.58620
C13 C 0.6932(4) 0.24056(6) 0.4751(3)
H12 H 0.83540 0.25220 0.50490
C14 C 0.5235(4) 0.25923(6) 0.3810(3)
C15 C 0.3128(4) 0.24176(6) 0.3411(3)
H13 H 0.19580 0.25410 0.27730
C16 C 0.2739(4) 0.20618(6) 0.3948(3)
H14 H 0.13040 0.19480 0.36680
C17 C 0.7148(6) 0.32089(7) 0.3641(4)
C18 C 0.7263(6) 0.35461(8) 0.2556(4)
H15 H 0.84450 0.37100 0.30320
H16 H 0.57430 0.36660 0.25510
H17 H 0.76740 0.34810 0.13830
O4 O 1.1936(3) 0.04700(4) 1.0440(3)
O5 O 0.6985(3) 0.10283(4) 1.1672(2)
O6 O 1.3201(4) 0.31204(5) 0.9985(3)
N4 N 0.7963(4) 0.03555(5) 1.0457(3)
H18 H 0.66090 0.04540 1.06710
N5 N 0.6897(4) 0.13925(5) 1.1015(3)
N6 N 1.0603(4) 0.29409(5) 0.8012(3)
H19 H 0.97740 0.30050 0.71110
C19 C 0.9766(4) -0.02517(6) 1.0082(4)
H20 H 1.11080 -0.01760 1.07060
C20 C 0.9612(5) -0.06075(6) 0.9478(4)
H21 H 1.08350 -0.07730 0.97180
C21 C 0.7676(5) -0.07197(6) 0.8527(4)
H22 H 0.75900 -0.09590 0.80920
C22 C 0.5874(5) -0.04770(6) 0.8223(3)
H23 H 0.45410 -0.05530 0.75880
C23 C 0.5992(4) -0.01208(7) 0.8841(3)
H24 H 0.47450 0.00420 0.86260
C24 C 0.7940(5) -0.00075(6) 0.9769(3)
C25 C 0.9900(5) 0.05575(6) 1.0803(3)
C26 C 0.9457(4) 0.09166(6) 1.1766(3)
H25 H 0.99010 0.08820 1.29970
C27 C 1.0894(4) 0.12338(6) 1.1045(4)
H26 H 1.20460 0.13240 1.18950
H27 H 1.17060 0.11650 0.99830
C28 C 0.8996(4) 0.15075(6) 1.0696(3)
C29 C 0.9404(4) 0.18811(6) 1.0017(3)
C30 C 1.1540(4) 0.19691(6) 0.9207(3)
H28 H 1.27190 0.17910 0.91120
C31 C 1.1918(4) 0.23159(6) 0.8548(4)
H29 H 1.33380 0.23690 0.79930
C32 C 1.0224(4) 0.25827(6) 0.8703(3)
C33 C 0.8102(5) 0.25011(7) 0.9508(3)
H30 H 0.69410 0.26820 0.96060
C34 C 0.7693(4) 0.21511(6) 1.0171(3)
H31 H 0.62670 0.20990 1.07190
C35 C 1.2134(5) 0.31806(7) 0.8654(4)
C36 C 1.2471(6) 0.35299(7) 0.7679(4)
H32 H 1.36190 0.36800 0.82820
H33 H 1.09850 0.36590 0.75980
H34 H 1.30260 0.34760 0.65260
#END
