
#######################################################################
#
#                 Cambridge Crystallographic Data Centre
#                                CCDC
#
#######################################################################
#
# If this CIF has been generated from an entry in the Cambridge
# Structural Database, then it will include bibliographic, chemical,
# crystal, experimental, refinement or atomic coordinate data resulting
# from the CCDC's data processing and validation procedures.
#
#######################################################################

data_CSD_CIF_QAWGUQ
_audit_creation_date 2001-04-25
_audit_creation_method CSD-ConQuest-V1
_database_code_CSD QAWGUQ
_chemical_formula_sum 'C17 H17 N1 O5'
_chemical_formula_moiety
;
C17 H17 N1 O5
;
_journal_coden_Cambridge 35
_journal_volume 64
_journal_year 1999
_journal_page_first 1436
_journal_name_full 'J.Org.Chem. '
loop_
_publ_author_name
"F.Uehara"
"M.Sato"
"C.Kaneko"
"H.Kurihara"
_chemical_name_systematic
;
2-(4-Methoxyphenyl)-2-(4-nitrophenyl)-1,3-dioxane
;
_chemical_melting_point 434.15
_cell_volume   1531.760
_exptl_crystal_colour 'colorless'
_exptl_crystal_density_diffrn 1.37
_exptl_special_details
;
Melting point range 434.15-436.15K

;
_exptl_crystal_description 'prismatic'
_exptl_crystal_preparation 'ether'
_diffrn_ambient_temperature ?
_diffrn_special_details
;
The study was carried out at room temperature,in the range 283-303K

;
#These two values have been output from a single CSD field.
_refine_ls_R_factor_gt 0.054
_refine_ls_wR_factor_gt 0.054
_symmetry_cell_setting monoclinic
_symmetry_space_group_name_H-M 'P 21/a'
_symmetry_Int_Tables_number 14
loop_
_symmetry_equiv_pos_site_id
_symmetry_equiv_pos_as_xyz
1 x,y,z
2 1/2-x,1/2+y,-z
3 -x,-y,-z
4 -1/2+x,-1/2-y,z
_cell_length_a 26.157(1)
_cell_length_b 7.947(2)
_cell_length_c 7.380(1)
_cell_angle_alpha 90
_cell_angle_beta 93.15(1)
_cell_angle_gamma 90
_cell_formula_units_Z 4
loop_
_atom_type_symbol
_atom_type_radius_bond
C 0.68
H 0.23
N 0.68
O 0.68
loop_
_atom_site_label
_atom_site_type_symbol
_atom_site_fract_x
_atom_site_fract_y
_atom_site_fract_z
O1 O 0.33935(6) 0.3327(2) 0.2515(2)
O2 O 0.38451(6) 0.5304(2) 0.0890(2)
O3 O 0.45694(10) -0.3077(3) -0.2020(4)
O4 O 0.5007(1) -0.1293(4) -0.3440(4)
O5 O 0.19207(7) 0.3983(3) -0.4432(2)
N1 N 0.46790(9) -0.1640(3) -0.2395(3)
C1 C 0.35821(8) 0.3751(3) 0.0828(3)
C2 C 0.3786(1) 0.3276(4) 0.3961(3)
C3 C 0.4061(1) 0.4939(4) 0.4096(4)
C4 C 0.4257(1) 0.5339(3) 0.2275(4)
C5 C 0.39162(8) 0.2329(3) 0.0093(3)
C6 C 0.38120(9) 0.0662(3) 0.0532(3)
C7 C 0.40637(9) -0.0644(3) -0.0272(3)
C8 C 0.44200(9) -0.0245(3) -0.1519(3)
C9 C 0.45371(9) 0.1376(3) -0.1972(3)
C10 C 0.42798(9) 0.2682(3) -0.1141(3)
C11 C 0.31250(8) 0.3950(3) -0.0531(3)
C12 C 0.31534(9) 0.4973(3) -0.2025(3)
C13 C 0.27566(9) 0.5042(3) -0.3352(3)
C14 C 0.23289(9) 0.4044(3) -0.3176(3)
C15 C 0.22927(9) 0.3031(3) -0.1669(3)
C16 C 0.26875(9) 0.2967(3) -0.0366(3)
C17 C 0.1978(1) 0.4810(5) -0.6114(4)
H1 H 0.36180 0.30080 0.51760
H2 H 0.40470 0.23290 0.36910
H3 H 0.38050 0.58850 0.44630
H4 H 0.43600 0.48820 0.50870
H5 H 0.45380 0.44480 0.19460
H6 H 0.44320 0.65300 0.22820
H7 H 0.35450 0.04010 0.15040
H8 H 0.39790 -0.19050 0.00200
H9 H 0.48150 0.16460 -0.29290
H10 H 0.43610 0.39420 -0.14430
H11 H 0.34800 0.57350 -0.21330
H12 H 0.27830 0.58110 -0.45150
H13 H 0.19580 0.23180 -0.15110
H14 H 0.26570 0.21930 0.07740
H15 H 0.22850 0.43020 -0.67820
H16 H 0.16470 0.46990 -0.69640
H17 H 0.20510 0.61020 -0.59040
#END
