
#######################################################################
#
#                 Cambridge Crystallographic Data Centre
#                                CCDC
#
#######################################################################
#
# If this CIF has been generated from an entry in the Cambridge
# Structural Database, then it will include bibliographic, chemical,
# crystal, experimental, refinement or atomic coordinate data resulting
# from the CCDC's data processing and validation procedures.
#
#######################################################################

data_CSD_CIF_QAWMUW
_audit_creation_date 2001-04-25
_audit_creation_method CSD-ConQuest-V1
_database_code_CSD QAWMUW
_chemical_formula_sum 'C13 H12 N4 O6'
_chemical_formula_moiety
;
C13 H12 N4 O6
;
_journal_coden_Cambridge 1061
_journal_volume 15
_journal_year 1999
_journal_page_first 811
_journal_name_full 'Anal.Sci. '
loop_
_publ_author_name
"Y.Nakano"
"N.Adachi"
"K.Ohashi"
_chemical_name_systematic
;
Methyl 2-[1-(2,4-dinitrophenyl)-3-methylpyrazol-5-yl]acetate
;
_chemical_melting_point 383.15
_cell_volume   1453.284
_exptl_crystal_colour 'pale yellow'
_exptl_crystal_density_diffrn 1.46
_exptl_special_details
;
Melting point range 383.15-385.15K

;
_exptl_crystal_description 'prismatic'
_diffrn_ambient_temperature ?
_diffrn_special_details
;
The study was carried out at room temperature,in the range 283-303K

;
#These two values have been output from a single CSD field.
_refine_ls_R_factor_gt 0.039
_refine_ls_wR_factor_gt 0.039
_symmetry_cell_setting monoclinic
_symmetry_space_group_name_H-M 'P 21/n'
_symmetry_Int_Tables_number 14
loop_
_symmetry_equiv_pos_site_id
_symmetry_equiv_pos_as_xyz
1 x,y,z
2 1/2-x,1/2+y,1/2-z
3 -x,-y,-z
4 -1/2+x,-1/2-y,-1/2+z
_cell_length_a 8.426(2)
_cell_length_b 10.516(2)
_cell_length_c 16.472(2)
_cell_angle_alpha 90
_cell_angle_beta 95.31(2)
_cell_angle_gamma 90
_cell_formula_units_Z 4
loop_
_atom_type_symbol
_atom_type_radius_bond
C 0.68
N 0.68
O 0.68
loop_
_atom_site_label
_atom_site_type_symbol
_atom_site_fract_x
_atom_site_fract_y
_atom_site_fract_z
O1 O 0.3373(2) 0.4616(1) 0.57329(8)
O2 O 0.5066(2) 0.3159(1) 0.62520(9)
O3 O -0.0233(2) 0.1154(1) 0.32511(9)
O4 O -0.2288(2) 0.2063(1) 0.26131(9)
O5 O -0.0148(2) 0.5838(1) 0.12697(9)
O6 O 0.1313(2) 0.7147(2) 0.20165(10)
N1 N 0.0348(2) 0.2871(1) 0.46045(8)
N2 N -0.1139(2) 0.2417(1) 0.47371(9)
N3 N -0.0982(2) 0.2085(2) 0.30058(9)
N4 N 0.0573(2) 0.6157(2) 0.1914(1)
C1 C 0.4009(2) 0.3468(2) 0.5757(1)
C2 C 0.3255(2) 0.2601(2) 0.5107(1)
C3 C 0.1515(2) 0.2374(1) 0.51462(10)
C4 C 0.0747(2) 0.1593(2) 0.5642(1)
C5 C -0.0879(2) 0.1645(2) 0.5369(1)
C6 C -0.2237(3) 0.0961(2) 0.5697(2)
C7 C 0.4035(3) 0.5530(2) 0.6329(2)
C8 C 0.0471(2) 0.3670(2) 0.39252(10)
C9 C -0.0241(2) 0.3340(2) 0.31574(10)
C10 C -0.0246(2) 0.4151(2) 0.2500(1)
C11 C 0.0539(2) 0.5293(2) 0.2616(1)
C12 C 0.1289(2) 0.5645(2) 0.3360(1)
C13 C 0.1223(2) 0.4841(2) 0.4017(1)
#END
