
#######################################################################
#
#                 Cambridge Crystallographic Data Centre
#                                CCDC
#
#######################################################################
#
# If this CIF has been generated from an entry in the Cambridge
# Structural Database, then it will include bibliographic, chemical,
# crystal, experimental, refinement or atomic coordinate data resulting
# from the CCDC's data processing and validation procedures.
#
#######################################################################

data_CSD_CIF_QAWPEK
_audit_creation_date 2006-02-15
_audit_creation_method CSD-ConQuest-V1
_database_code_CSD QAWPEK
_database_code_depnum_ccdc_archive 'CCDC 279634'
_chemical_formula_sum 'C10 H9 N1 O4'
_chemical_formula_moiety
;
C10 H9 N1 O4
;
_journal_coden_Cambridge 177
_journal_volume 3
_journal_year 2005
_journal_page_first 3805
_journal_name_full 'Org.Biomol.Chem. '
loop_
_publ_author_name
"F.N.Palmer"
"F.Lach"
"C.Poriel"
"A.G.Pepper"
"M.C.Bagley"
"A.M.Z.Slawin"
"C.J.Moody"
_chemical_name_systematic
;
(E)-2-(2-nitrophenyl)but-2-enoic acid
;
_cell_volume   1874.178
_exptl_crystal_colour 'colorless'
_exptl_crystal_density_diffrn 1.469
_exptl_crystal_description 'Prism'
_diffrn_ambient_temperature 93
#These two values have been output from a single CSD field.
_refine_ls_R_factor_gt 0.0367
_refine_ls_wR_factor_gt 0.0367
_symmetry_cell_setting monoclinic
_symmetry_space_group_name_H-M 'P 21/n'
_symmetry_Int_Tables_number 14
loop_
_symmetry_equiv_pos_site_id
_symmetry_equiv_pos_as_xyz
1 x,y,z
2 1/2-x,1/2+y,1/2-z
3 -x,-y,-z
4 -1/2+x,-1/2-y,-1/2+z
_cell_length_a 10.244(2)
_cell_length_b 13.920(3)
_cell_length_c 13.155(3)
_cell_angle_alpha 90
_cell_angle_beta 92.4243(17)
_cell_angle_gamma 90
_cell_formula_units_Z 8
loop_
_atom_type_symbol
_atom_type_radius_bond
C 0.68
H 0.23
N 0.68
O 0.68
loop_
_atom_site_label
_atom_site_type_symbol
_atom_site_fract_x
_atom_site_fract_y
_atom_site_fract_z
O1 O 0.87525(9) 0.23099(7) 0.19937(7)
O2 O 0.91394(9) 0.19369(7) 0.35783(8)
N1 N 0.87268(10) 0.24850(8) 0.29099(9)
C1 C 0.82124(12) 0.34224(10) 0.32182(10)
C2 C 0.72145(12) 0.38641(10) 0.26293(10)
C3 C 0.68631(13) 0.47858(10) 0.29344(10)
H1 H 0.62080 0.51250 0.25470
C4 C 0.74439(13) 0.52185(10) 0.37859(10)
H2 H 0.71980 0.58520 0.39660
C5 C 0.83806(13) 0.47346(10) 0.43759(11)
H3 H 0.87490 0.50230 0.49760
C6 C 0.87782(13) 0.3827(1) 0.40864(10)
H4 H 0.94290 0.34900 0.44790
C7 C 0.64449(12) 0.3388(1) 0.17827(10)
C8 C 0.58804(12) 0.24394(10) 0.20336(10)
O3 O 0.60692(9) 0.20607(7) 0.28689(7)
O4 O 0.51505(9) 0.20382(7) 0.12992(7)
H5 H 0.4784(17) 0.1437(7) 0.1549(14)
C9 C 0.61692(13) 0.3798(1) 0.08788(10)
H6 H 0.55960 0.34570 0.04220
C10 C 0.66747(15) 0.4739(1) 0.05186(11)
H7 H 0.60480 0.52480 0.06640
H8 H 0.67930 0.47080 -0.02160
H9 H 0.75150 0.48790 0.08720
O5 O 0.13912(9) 0.04326(7) 0.27968(7)
O6 O 0.09909(9) 0.06965(7) 0.11905(7)
N2 N 0.1352(1) 0.01782(8) 0.19015(9)
C11 C 0.17207(12) -0.08117(10) 0.16729(10)
C12 C 0.27005(12) -0.12728(10) 0.22619(10)
C13 C 0.29453(13) -0.22278(10) 0.20146(10)
H10 H 0.35970 -0.25740 0.23970
C14 C 0.22595(13) -0.26834(10) 0.12232(10)
H11 H 0.24420 -0.33370 0.10750
C15 C 0.13128(13) -0.21985(10) 0.06456(11)
H12 H 0.08590 -0.25130 0.00960
C16 C 0.10313(13) -0.12542(10) 0.08732(10)
H13 H 0.03760 -0.09140 0.04880
C17 C 0.35328(12) -0.08042(10) 0.30794(10)
C18 C 0.42308(12) 0.00777(10) 0.27833(10)
O7 O 0.40878(9) 0.04312(7) 0.19292(7)
O8 O 0.50037(9) 0.04641(7) 0.35011(7)
H14 H 0.5383(17) 0.1057(7) 0.3240(13)
C19 C 0.37027(13) -0.1162(1) 0.4020(1)
H15 H 0.43260 -0.08480 0.44590
C20 C 0.30140(14) -0.20031(11) 0.44481(11)
H16 H 0.22040 -0.21230 0.40450
H17 H 0.28080 -0.18690 0.51550
H18 H 0.35780 -0.25710 0.44260
#END
