
#######################################################################
#
#                 Cambridge Crystallographic Data Centre
#                                CCDC
#
#######################################################################
#
# If this CIF has been generated from an entry in the Cambridge
# Structural Database, then it will include bibliographic, chemical,
# crystal, experimental, refinement or atomic coordinate data resulting
# from the CCDC's data processing and validation procedures.
#
#######################################################################

data_CSD_CIF_QAXJOO
_audit_creation_date 2001-04-25
_audit_creation_method CSD-ConQuest-V1
_database_code_CSD QAXJOO
_chemical_formula_sum 'C15 H15 N3 O6'
_chemical_formula_moiety
;
C15 H15 N3 O6
;
_journal_coden_Cambridge 423
_journal_volume 690
_journal_year 1999
_journal_page_first 2901
_journal_name_full 'J.Chem.Res. '
loop_
_publ_author_name
"C.N.O'Callaghan"
"T.B.H.McMurry"
"S.M.Draper"
"E.Champeil"
_chemical_name_systematic
;
Methyl 
3-carbamoyl-6-methyl-4-(4-nitrophenyl)-2-oxo-1,2,3,4-tetrahydropyridine-5-carb
oxylate
;
_cell_volume    771.795
_exptl_crystal_colour 'colorless'
_exptl_crystal_density_diffrn 1.434
_exptl_crystal_description 'prismatic'
_diffrn_ambient_temperature ?
_diffrn_special_details
;
The study was carried out at room temperature,in the range 283-303K

;
#These two values have been output from a single CSD field.
_refine_ls_R_factor_gt 0.0447
_refine_ls_wR_factor_gt 0.0447
_symmetry_cell_setting triclinic
_symmetry_space_group_name_H-M 'P -1'
_symmetry_Int_Tables_number 2
loop_
_symmetry_equiv_pos_site_id
_symmetry_equiv_pos_as_xyz
1 x,y,z
2 -x,-y,-z
_cell_length_a 6.4505(9)
_cell_length_b 7.7918(10)
_cell_length_c 16.2999(19)
_cell_angle_alpha 98.627(9)
_cell_angle_beta 100.27(1)
_cell_angle_gamma 102.474(10)
_cell_formula_units_Z 2
loop_
_atom_type_symbol
_atom_type_radius_bond
C 0.68
H 0.23
N 0.68
O 0.68
loop_
_atom_site_label
_atom_site_type_symbol
_atom_site_fract_x
_atom_site_fract_y
_atom_site_fract_z
O1 O 0.1514(2) 0.4004(2) 0.0614(1)
O2 O -0.4899(3) 0.1227(2) 0.0918(1)
O3 O 0.0833(3) 0.9206(2) 0.1974(1)
C1 C -0.3534(3) 0.2655(3) 0.1156(1)
O4 O 0.2801(3) 0.7660(2) 0.2676(1)
C2 C -0.0600(3) 0.6070(3) 0.1885(1)
N1 N -0.4080(3) 0.4236(2) 0.1183(1)
C3 C 0.1012(4) 0.7805(3) 0.2170(1)
C4 C -0.0170(3) 0.2891(3) 0.0599(1)
C5 C -0.0006(4) 0.4409(3) 0.2119(1)
C6 C -0.2624(3) 0.5931(3) 0.1439(1)
C7 C -0.1129(3) 0.2801(3) 0.1391(1)
C8 C -0.0602(4) 0.3988(3) 0.2943(1)
N2 N -0.1263(4) 0.1691(3) -0.0091(2)
C9 C -0.1800(5) 0.2964(3) 0.4374(2)
C10 C 0.0372(5) 0.2836(4) 0.3351(2)
C11 C -0.2779(5) 0.4117(4) 0.4002(2)
C12 C -0.3603(5) 0.7394(4) 0.1185(2)
C13 C -0.0216(5) 0.2327(4) 0.4073(2)
N3 N -0.2503(5) 0.2363(3) 0.5121(2)
C14 C -0.2167(4) 0.4630(3) 0.3283(2)
O5 O -0.4002(5) 0.2863(4) 0.5348(2)
O6 O -0.1522(6) 0.1428(4) 0.5474(2)
C15 C 0.4466(5) 0.9306(4) 0.3031(2)
H1 H -0.285(4) 0.552(3) 0.3029(16)
H2 H -0.237(5) 0.090(3) -0.0078(16)
H3 H -0.513(6) 0.710(4) 0.1121(19)
H4 H 0.143(4) 0.242(4) 0.3111(16)
H5 H -0.080(5) 0.160(4) -0.0562(19)
H6 H -0.547(5) 0.422(3) 0.1029(15)
H7 H 0.049(5) 0.159(4) 0.434(2)
H8 H -0.303(5) 0.853(4) 0.1577(19)
H9 H -0.386(5) 0.462(4) 0.4267(19)
H10 H 0.436(5) 0.995(4) 0.2583(19)
H11 H 0.394(5) 1.004(4) 0.345(2)
H12 H 0.571(6) 0.886(4) 0.333(2)
H13 H -0.340(6) 0.749(4) 0.063(2)
H14 H 0.152(4) 0.454(3) 0.2167(13)
H15 H -0.095(3) 0.170(3) 0.1568(13)
#END
