
#######################################################################
#
#                 Cambridge Crystallographic Data Centre
#                                CCDC
#
#######################################################################
#
# If this CIF has been generated from an entry in the Cambridge
# Structural Database, then it will include bibliographic, chemical,
# crystal, experimental, refinement or atomic coordinate data resulting
# from the CCDC's data processing and validation procedures.
#
#######################################################################

data_CSD_CIF_QAYFUS
_audit_creation_date 2006-02-15
_audit_creation_method CSD-ConQuest-V1
_database_code_CSD QAYFUS
_database_code_depnum_ccdc_archive 'CCDC 290405'
_chemical_formula_sum 'C15 H21 N1 O4'
_chemical_formula_moiety
;
C15 H21 N1 O4
;
_journal_coden_Cambridge 1078
_journal_year 2003
_journal_name_full 'CSD Communication(Private Communication) '
loop_
_publ_author_name
"M.B.Hursthouse"
"S.M.Roberts"
"K.M.A.Malik"
_chemical_name_systematic
;
[(6-benzyloxy)amino]-2,2-dimethyltetrahydro-3aH-cyclopenta[d][1,3]dioxol-4-ol
;
_cell_volume   1488.252
_exptl_crystal_density_diffrn 1.247
_exptl_special_details
;
contribution from Queen Mary College, University of London, UK

;
_diffrn_ambient_temperature 293
_refine_special_details
;
C atoms of the phenyl ring were refined over two positions with occupancies 
0.58:0.42.
;
#These two values have been output from a single CSD field.
_refine_ls_R_factor_gt 0.0456
_refine_ls_wR_factor_gt 0.0456
_symmetry_cell_setting monoclinic
_symmetry_space_group_name_H-M 'C 2'
_symmetry_Int_Tables_number 5
loop_
_symmetry_equiv_pos_site_id
_symmetry_equiv_pos_as_xyz
1 x,y,z
2 -x,y,-z
3 1/2+x,1/2+y,z
4 1/2-x,1/2+y,-z
_cell_length_a 18.655
_cell_length_b 5.4316
_cell_length_c 14.7067
_cell_angle_alpha 90
_cell_angle_beta 92.914
_cell_angle_gamma 90
_cell_formula_units_Z 4
loop_
_atom_type_symbol
_atom_type_radius_bond
C 0.68
H 0.23
N 0.68
O 0.68
loop_
_atom_site_label
_atom_site_type_symbol
_atom_site_fract_x
_atom_site_fract_y
_atom_site_fract_z
O1 O 0.0325(1) 0.3214(4) 0.1118(2)
O2 O 0.0855(1) 0.0480(4) 0.2078(2)
O3 O 0.1087(1) 0.5040(5) -0.0314(2)
O4 O 0.2911(1) 0.1992(6) 0.2601(2)
N1 N 0.2666(2) 0.2562(7) 0.1677(2)
C1 C 0.1024(2) 0.4241(7) 0.1339(2)
C2 C 0.1450(2) 0.4248(7) 0.0498(3)
C3 C 0.1776(2) 0.1647(7) 0.0478(2)
C4 C 0.2003(2) 0.1205(7) 0.1472(3)
C5 C 0.1387(2) 0.2319(6) 0.1984(2)
C6 C 0.3065(2) 0.4257(10) 0.3064(3)
C7 C 0.3368(4) 0.3587(16) 0.3981(4)
C8 C 0.3366(4) 0.5502(14) 0.4608(6)
C9 C 0.3624(5) 0.5115(17) 0.5500(6)
C10 C 0.3885(5) 0.2813(19) 0.5765(4)
C11 C 0.3888(4) 0.0899(15) 0.5138(6)
C12 C 0.3629(4) 0.1285(14) 0.4246(5)
C13? C 0.3321(5) 0.3849(21) 0.4055(5)
C14? C 0.2934(5) 0.4615(21) 0.4787(7)
C15? C 0.3202(6) 0.4198(22) 0.5673(6)
C16? C 0.3858(6) 0.3014(23) 0.5827(6)
C17? C 0.4245(5) 0.2248(21) 0.5095(8)
C18? C 0.3977(5) 0.2665(20) 0.4209(7)
C19 C 0.0169(2) 0.1547(7) 0.1835(2)
C20 C -0.0316(2) -0.0450(7) 0.1446(3)
C21 C -0.0129(2) 0.2878(9) 0.2624(3)
H1 H 0.0666(21) 0.4526(84) -0.0369(30)
H2 H 0.30610 0.21990 0.12170
H3 H 0.0999(2) 0.5873(7) 0.1619(2)
H4 H 0.1851(2) 0.5390(7) 0.0616(3)
H5 H 0.1423(2) 0.0445(7) 0.0260(2)
H6 H 0.2185(2) 0.1591(7) 0.0097(2)
H7 H 0.2061(2) -0.0554(7) 0.1604(3)
H8 H 0.1551(2) 0.3033(6) 0.2570(2)
H9 H 0.25730 0.53260 0.31590
H10 H 0.34340 0.52610 0.27720
H11 H 0.3191(6) 0.7041(15) 0.4431(9)
H12 H 0.3623(7) 0.6396(20) 0.5919(7)
H13 H 0.4059(6) 0.2554(26) 0.6361(5)
H14 H 0.4063(6) -0.0641(17) 0.5315(8)
H15 H 0.3631(6) 0.0004(17) 0.3826(7)
H16? H 0.2496(6) 0.5407(30) 0.4684(10)
H17? H 0.2943(8) 0.4710(31) 0.6162(7)
H18? H 0.4037(8) 0.2735(33) 0.6419(7)
H19? H 0.4684(6) 0.1456(31) 0.5198(11)
H20? H 0.4236(7) 0.2152(28) 0.3720(8)
H21 H -0.0373(10) -0.1704(22) 0.1896(6)
H22 H -0.0108(6) -0.1157(30) 0.0922(10)
H23 H -0.0776(4) 0.0239(11) 0.1270(15)
H24 H -0.0194(13) 0.1738(13) 0.3111(7)
H25 H -0.0582(7) 0.3602(39) 0.2438(5)
H26 H 0.0200(7) 0.4148(32) 0.2827(11)
#END
