
#######################################################################
#
#                 Cambridge Crystallographic Data Centre
#                                CCDC
#
#######################################################################
#
# If this CIF has been generated from an entry in the Cambridge
# Structural Database, then it will include bibliographic, chemical,
# crystal, experimental, refinement or atomic coordinate data resulting
# from the CCDC's data processing and validation procedures.
#
#######################################################################

data_CSD_CIF_QAYQUD
_audit_creation_date 2006-02-15
_audit_creation_method CSD-ConQuest-V1
_database_code_CSD QAYQUD
_database_code_depnum_ccdc_archive 'CCDC 280424'
_chemical_formula_sum 'C12 H16 N2 O2'
_chemical_formula_moiety
;
C12 H16 N2 O2
;
_journal_coeditor_code "IUCr HG6282"
_journal_coden_Cambridge 1370
_journal_volume 62
_journal_year 2006
_journal_page_first o218
_journal_name_full 'Acta Crystallogr.,Sect.E:Struct.Rep.Online '
loop_
_publ_author_name
"K.R.Scott"
"R.J.Butcher"
"C.D.Hanson"
_chemical_name_systematic
;
5,5-Dimethyl-3-((5-methylisoxazol-3-yl)amino)cyclohex-2-enone
;
_chemical_melting_point 477
_cell_volume   1209.599
_exptl_crystal_colour 'colorless'
_exptl_crystal_density_diffrn 1.21
_exptl_special_details
;
Melting point range 477-480K
active in maximal electroshock seizure evaluation in mice
;
_exptl_crystal_description 'lath'
_diffrn_ambient_temperature 294
#These two values have been output from a single CSD field.
_refine_ls_R_factor_gt 0.0588
_refine_ls_wR_factor_gt 0.0588
_symmetry_cell_setting triclinic
_symmetry_space_group_name_H-M 'P -1'
_symmetry_Int_Tables_number 2
loop_
_symmetry_equiv_pos_site_id
_symmetry_equiv_pos_as_xyz
1 x,y,z
2 -x,-y,-z
_cell_length_a 6.2647(4)
_cell_length_b 12.2138(10)
_cell_length_c 16.459(2)
_cell_angle_alpha 101.137(12)
_cell_angle_beta 93.566(9)
_cell_angle_gamma 100.306(7)
_cell_formula_units_Z 4
loop_
_atom_type_symbol
_atom_type_radius_bond
C 0.68
H 0.23
N 0.68
O 0.68
loop_
_atom_site_label
_atom_site_type_symbol
_atom_site_fract_x
_atom_site_fract_y
_atom_site_fract_z
O1 O 0.9358(4) 0.6454(2) 0.34741(17)
O2 O 0.0714(4) 0.57646(19) 0.13600(16)
O3 O 0.0544(5) 0.1584(2) 0.16727(18)
O4 O 0.6299(4) -0.0220(2) 0.40106(16)
N1 N 0.3314(4) 0.3734(2) 0.20183(17)
H1 H 0.28530 0.30090 0.18880
N2 N 0.2521(5) 0.5483(2) 0.1781(2)
N3 N 0.1230(5) -0.1531(2) 0.29288(18)
H2 H 0.05320 -0.22000 0.29430
N4 N 0.4456(5) -0.0190(2) 0.3476(2)
C1 C 0.5233(5) 0.4092(3) 0.2528(2)
C2 C 0.6292(5) 0.5178(3) 0.2765(2)
H3 H 0.57080 0.57500 0.25860
C3 C 0.8311(6) 0.5468(3) 0.3290(2)
C4 C 0.9177(6) 0.4549(3) 0.3609(2)
H4 H 0.98960 0.48630 0.41650
H5 H 1.02690 0.43110 0.32580
C5 C 0.7460(6) 0.3502(3) 0.3638(2)
C6 C 0.6109(6) 0.3138(3) 0.2795(2)
H6 H 0.70050 0.28390 0.23790
H7 H 0.48990 0.25310 0.28210
C7 C 0.5984(7) 0.3792(4) 0.4320(3)
H8 H 0.68390 0.40230 0.48500
H9 H 0.48860 0.31350 0.43220
H10 H 0.52990 0.44010 0.42150
C8 C 0.8595(7) 0.2552(3) 0.3808(3)
H11 H 0.94080 0.27830 0.43480
H12 H 0.95690 0.23970 0.33920
H13 H 0.75230 0.18780 0.37930
C9 C 0.2015(5) 0.4381(3) 0.1684(2)
C10 C -0.0008(5) 0.3910(3) 0.1215(2)
H14 H -0.06770 0.31470 0.10640
C11 C -0.0754(6) 0.4798(3) 0.1034(2)
C12 C -0.2771(6) 0.4935(3) 0.0585(2)
H15 H -0.36850 0.42020 0.03770
H16 H -0.24080 0.52950 0.01290
H17 H -0.35310 0.53980 0.09580
C13 C 0.0214(6) -0.0961(3) 0.2438(2)
C14 C 0.1014(6) 0.0093(3) 0.2320(2)
H18 H 0.23800 0.04730 0.25790
C15 C -0.0181(6) 0.0635(3) 0.1812(2)
C16 C -0.2466(6) 0.0040(3) 0.1453(2)
H19 H -0.28310 0.03000 0.09500
H20 H -0.34810 0.02520 0.18490
C17 C -0.2748(6) -0.1243(3) 0.1247(2)
C18 C -0.1969(6) -0.1619(3) 0.2024(2)
H21 H -0.30410 -0.15440 0.24210
H22 H -0.18910 -0.24180 0.18750
C19 C -0.1446(7) -0.1622(4) 0.0526(3)
H23 H -0.19780 -0.13910 0.00390
H24 H -0.16090 -0.24360 0.04140
H25 H 0.00660 -0.12800 0.06700
C20 C -0.5160(6) -0.1777(3) 0.0998(3)
H26 H -0.56210 -0.15940 0.04810
H27 H -0.60130 -0.14830 0.14230
H28 H -0.53590 -0.25880 0.09330
C21 C 0.3223(6) -0.1193(3) 0.3409(2)
C22 C 0.4146(6) -0.1879(3) 0.3867(2)
H29 H 0.35620 -0.26200 0.39060
C23 C 0.6029(6) -0.1244(3) 0.4231(2)
C24 C 0.7823(6) -0.1417(3) 0.4793(2)
H30 H 0.77500 -0.22170 0.47580
H31 H 0.76840 -0.10590 0.53550
H32 H 0.91990 -0.10870 0.46310
#END
