
#######################################################################
#
#                 Cambridge Crystallographic Data Centre
#                                CCDC
#
#######################################################################
#
# If this CIF has been generated from an entry in the Cambridge
# Structural Database, then it will include bibliographic, chemical,
# crystal, experimental, refinement or atomic coordinate data resulting
# from the CCDC's data processing and validation procedures.
#
#######################################################################

data_CSD_CIF_QAYSIT
_audit_creation_date 2006-02-15
_audit_creation_method CSD-ConQuest-V1
_database_code_CSD QAYSIT
_database_code_depnum_ccdc_archive 'CCDC 296725'
_chemical_formula_sum 'C19 H19 N1 O6'
_chemical_formula_moiety
;
C19 H19 N1 O6
;
_journal_coeditor_code "IUCr RZ6157"
_journal_coden_Cambridge 1370
_journal_volume 62
_journal_year 2006
_journal_page_first o332
_journal_name_full 'Acta Crystallogr.,Sect.E:Struct.Rep.Online '
loop_
_publ_author_name
"Guoping Hua"
"Jianing Xu"
"Bo Jiang"
"Yan Zhang"
"Shujiang Tu"
_chemical_name_systematic
;
4a-Hydroxy-9-(3-nitrophenyl)-3,4,4a,5,6,7,9,9a-octahydro-2H-xanthene-1,8-dione
;
_chemical_melting_point 492
_cell_volume   1752.035
_exptl_crystal_colour 'colorless'
_exptl_crystal_density_diffrn 1.355
_exptl_crystal_description 'prism'
_exptl_crystal_preparation 'ethanol'
_diffrn_ambient_temperature 294
#These two values have been output from a single CSD field.
_refine_ls_R_factor_gt 0.0583
_refine_ls_wR_factor_gt 0.0583
_symmetry_cell_setting monoclinic
_symmetry_space_group_name_H-M 'P 21/n'
_symmetry_Int_Tables_number 14
loop_
_symmetry_equiv_pos_site_id
_symmetry_equiv_pos_as_xyz
1 x,y,z
2 1/2-x,1/2+y,1/2-z
3 -x,-y,-z
4 -1/2+x,-1/2-y,-1/2+z
_cell_length_a 6.2983(11)
_cell_length_b 12.869(2)
_cell_length_c 21.619(4)
_cell_angle_alpha 90
_cell_angle_beta 90.960(4)
_cell_angle_gamma 90
_cell_formula_units_Z 4
loop_
_atom_type_symbol
_atom_type_radius_bond
C 0.68
H 0.23
N 0.68
O 0.68
loop_
_atom_site_label
_atom_site_type_symbol
_atom_site_fract_x
_atom_site_fract_y
_atom_site_fract_z
O1 O 0.8223(4) 0.37217(15) 0.18106(11)
H1 H 0.848(6) 0.439(3) 0.204(2)
O2 O 0.4539(3) 0.38226(13) 0.18857(10)
O3 O 0.6032(4) 0.04412(15) 0.25377(11)
O4 O 0.9200(4) 0.20673(16) 0.05762(11)
O5 O 0.8997(5) -0.18122(17) 0.09561(14)
O6 O 0.6440(4) -0.25602(17) 0.04763(15)
N1 N 0.7198(6) -0.18198(19) 0.07495(15)
C1 C 0.6319(5) 0.37591(19) 0.14704(16)
C2 C 0.6153(6) 0.4710(2) 0.10583(17)
H2 H 0.47770 0.47190 0.08500
H3 H 0.62720 0.53330 0.13100
C3 C 0.7886(6) 0.4707(2) 0.05814(18)
H4 H 0.92510 0.47960 0.07890
H5 H 0.76760 0.52910 0.03030
C4 C 0.7917(6) 0.3703(2) 0.02044(17)
H6 H 0.66770 0.36780 -0.00670
H7 H 0.91690 0.36920 -0.00510
C5 C 0.7930(5) 0.2760(2) 0.06244(16)
C6 C 0.6219(5) 0.27558(18) 0.11060(14)
H8 H 0.48460 0.27410 0.08860
C7 C 0.6300(5) 0.18076(17) 0.15356(14)
H9 H 0.77800 0.16860 0.16630
C8 C 0.5018(5) 0.20157(18) 0.21027(14)
C9 C 0.4888(6) 0.1214(2) 0.25756(16)
C10 C 0.3445(6) 0.1366(3) 0.31102(18)
H10 H 0.42810 0.15830 0.34680
H11 H 0.27820 0.07080 0.32090
C11 C 0.1724(6) 0.2168(3) 0.2982(2)
H12 H 0.09570 0.23050 0.33590
H13 H 0.07240 0.18990 0.26760
C12 C 0.2699(6) 0.3176(2) 0.27459(17)
H14 H 0.15790 0.36410 0.26050
H15 H 0.34760 0.35170 0.30800
C13 C 0.4160(5) 0.2959(2) 0.22272(16)
C14 C 0.5469(4) 0.08390(19) 0.12010(14)
C15 C 0.6707(5) -0.00347(19) 0.11298(14)
H16 H 0.80920 -0.00510 0.12860
C16 C 0.5865(5) -0.08853(19) 0.08243(15)
C17 C 0.3828(6) -0.0902(2) 0.05858(16)
H17 H 0.32990 -0.14840 0.03800
C18 C 0.2601(5) -0.0031(2) 0.06608(16)
H18 H 0.12150 -0.00200 0.05050
C19 C 0.3407(5) 0.0830(2) 0.09648(15)
H19 H 0.25540 0.14130 0.10120
#END
