
#######################################################################
#
#                 Cambridge Crystallographic Data Centre
#                                CCDC
#
#######################################################################
#
# If this CIF has been generated from an entry in the Cambridge
# Structural Database, then it will include bibliographic, chemical,
# crystal, experimental, refinement or atomic coordinate data resulting
# from the CCDC's data processing and validation procedures.
#
#######################################################################

data_CSD_CIF_QAYVIY01
_audit_creation_date 2017-08-31
_audit_creation_method CSD-ConQuest-V1
_database_code_CSD QAYVIY01
_database_code_depnum_ccdc_archive 'CCDC 1504132'
_chemical_formula_sum 'C13 H11 N3 O3'
_chemical_formula_moiety
;
C13 H11 N3 O3
;
_journal_coden_Cambridge 1147
_journal_volume 17
_journal_year 2017
_journal_page_first 5065
_journal_name_full 'Cryst.Growth Des. '
loop_
_publ_author_name
"M.A.Solomos"
"T.A.Watts"
"J.A.Swift"
_chemical_name_systematic
;
1-(2-nitrophenyl)-3-phenylurea
;
_chemical_melting_point 444.15
_cell_volume    595.707
_exptl_crystal_colour 'colorless'
_exptl_crystal_density_diffrn 1.434
_exptl_special_details
;
Melting point range 444.15-446.55K
alpha polymorph

;
_exptl_crystal_description 'needle'
_exptl_crystal_preparation 'acetone'
_diffrn_ambient_temperature 102
#These two values have been output from a single CSD field.
_refine_ls_R_factor_gt 0.0238
_refine_ls_wR_factor_gt 0.0238
_symmetry_cell_setting monoclinic
_symmetry_space_group_name_H-M 'P c'
_symmetry_Int_Tables_number 7
loop_
_symmetry_equiv_pos_site_id
_symmetry_equiv_pos_as_xyz
1 x,y,z
2 x,-y,1/2+z
_cell_length_a 4.6327(3)
_cell_length_b 6.1305(4)
_cell_length_c 20.9967(15)
_cell_angle_alpha 90
_cell_angle_beta 92.603(2)
_cell_angle_gamma 90
_cell_formula_units_Z 2
loop_
_atom_type_symbol
_atom_type_radius_bond
C 0.68
H 0.23
N 0.68
O 0.68
loop_
_atom_site_label
_atom_site_type_symbol
_atom_site_fract_x
_atom_site_fract_y
_atom_site_fract_z
O1 O 0.1164(3) 0.3896(2) 0.46441(7)
O2 O 0.8969(3) 0.4389(2) 0.61346(8)
N1 N 0.5411(4) 0.2529(3) 0.43110(8)
H1 H 0.707(6) 0.261(4) 0.4353(13)
N2 N 0.7279(4) 0.5374(3) 0.64663(9)
O3 O 0.7323(4) 0.5220(3) 0.70498(8)
N3 N 0.5453(4) 0.5026(3) 0.51152(8)
H2 H 0.720(7) 0.464(4) 0.5177(13)
C1 C 0.3819(4) 0.3827(3) 0.46792(9)
C2 C 0.5163(4) 0.6834(4) 0.61597(9)
C3 C 0.4300(4) 0.6604(3) 0.55143(10)
C4 C 0.4266(4) 0.1024(4) 0.38544(10)
C5 C 0.2208(4) 0.8063(3) 0.52724(10)
H3 H 0.15650 0.79610 0.48370
C6 C 0.5509(4) -0.1037(4) 0.38235(10)
H4 H 0.70440 -0.14260 0.41170
C7 C 0.4004(5) 0.8427(4) 0.65410(11)
H5 H 0.46250 0.85370 0.69770
C8 C 0.2017(4) 0.1597(4) 0.34252(10)
H6 H 0.11780 0.30090 0.34380
C9 C 0.4527(5) -0.2516(4) 0.33695(11)
H7 H 0.54080 -0.39120 0.33470
C10 C 0.1060(4) 0.9646(4) 0.56510(11)
H8 H -0.03650 1.06120 0.54740
C11 C 0.1015(5) 0.0070(4) 0.29768(10)
H9 H -0.05460 0.04400 0.26880
C12 C 0.1961(5) 0.9848(4) 0.62899(11)
H10 H 0.11740 1.09510 0.65480
C13 C 0.2253(5) -0.1973(4) 0.29456(11)
H11 H 0.15550 -0.29990 0.26370
#END
