
#######################################################################
#
#                 Cambridge Crystallographic Data Centre
#                                CCDC
#
#######################################################################
#
# If this CIF has been generated from an entry in the Cambridge
# Structural Database, then it will include bibliographic, chemical,
# crystal, experimental, refinement or atomic coordinate data resulting
# from the CCDC's data processing and validation procedures.
#
#######################################################################

data_CSD_CIF_QAZDOK
_audit_creation_date 2001-04-25
_audit_creation_method CSD-ConQuest-V1
_database_code_CSD QAZDOK
_database_code_depnum_ccdc_archive 'CCDC 142153'
_chemical_formula_sum 'C11 H14 N4 O5'
_chemical_formula_moiety
;
C11 H14 N4 O5
;
_journal_coden_Cambridge 35
_journal_volume 65
_journal_year 2000
_journal_page_first 7391
_journal_name_full 'J.Org.Chem. '
loop_
_publ_author_name
"F.Terrier"
"M.Sebban"
"R.Goumont"
"J.C.Halle"
"G.Moutiers"
"I.Cangelosi"
"E.Buncel"
_chemical_name_systematic
;
7,8-Dimethyl-5a-nitro-4,5,5a,6,9,9a-hexahydro-(1,2,5)oxadiazolo(3,4-c)isoquino
lin-5-ol 1-oxide
;
_chemical_melting_point 433.15
_cell_volume   2494.820
_exptl_crystal_colour 'yellow'
_exptl_crystal_density_diffrn 1.503
_exptl_special_details
;
Melting point range 433.15-438.15K

;
_diffrn_ambient_temperature ?
_diffrn_special_details
;
The study was carried out at room temperature,in the range 283-303K

;
#These two values have been output from a single CSD field.
_refine_ls_R_factor_gt 0.0482
_refine_ls_wR_factor_gt 0.0482
_symmetry_cell_setting monoclinic
_symmetry_space_group_name_H-M 'P 21/n'
_symmetry_Int_Tables_number 14
loop_
_symmetry_equiv_pos_site_id
_symmetry_equiv_pos_as_xyz
1 x,y,z
2 1/2+x,1/2-y,1/2+z
3 -x,-y,-z
4 -1/2-x,-1/2+y,-1/2-z
_cell_length_a 11.7334(2)
_cell_length_b 7.7884(2)
_cell_length_c 27.5509(5)
_cell_angle_alpha 90
_cell_angle_beta 97.734(1)
_cell_angle_gamma 90
_cell_formula_units_Z 8
loop_
_atom_type_symbol
_atom_type_radius_bond
C 0.68
H 0.23
N 0.68
O 0.68
loop_
_atom_site_label
_atom_site_type_symbol
_atom_site_fract_x
_atom_site_fract_y
_atom_site_fract_z
O1 O 0.3128(2) -0.2148(2) -0.00669(7)
O2 O 0.3837(2) -0.0110(3) -0.05379(6)
O3 O 0.2680(2) 0.4616(3) 0.14328(8)
O4 O 0.1713(2) 0.2284(3) 0.13272(7)
O5 O 0.18612(15) 0.4131(2) 0.02750(7)
H1 H 0.1630(7) 0.5121(2) 0.0236(12)
N1 N 0.3369(2) -0.0602(3) -0.01033(7)
N2 N 0.2475(2) 0.3229(3) 0.12351(7)
N3 N 0.4016(2) 0.1664(3) -0.05222(7)
N4 N 0.3746(2) 0.3802(2) 0.00743(7)
H2 H 0.4169(2) 0.4580(2) -0.00322(7)
C1 C 0.3303(2) 0.0784(3) 0.01654(7)
C2 C 0.3697(2) 0.2167(3) -0.01062(8)
C3 C 0.3042(2) 0.4143(3) 0.04556(8)
H3 H 0.3253(2) 0.5256(3) 0.06075(8)
C4 C 0.3235(2) 0.2707(2) 0.08471(7)
C5 C 0.2816(2) 0.0948(2) 0.06371(7)
H4 H 0.1976(2) 0.0998(2) 0.05601(7)
C6 C 0.3117(2) -0.0530(3) 0.10018(8)
H5 H 0.2477(2) -0.0688(3) 0.11869(8)
H6 H 0.3189(2) -0.1574(3) 0.08167(8)
C7 C 0.4199(2) -0.0312(3) 0.13597(7)
C8 C 0.4802(2) 0.1131(3) 0.14031(7)
C9 C 0.4476(2) 0.2683(3) 0.10928(8)
H7 H 0.4978(2) 0.2751(3) 0.08411(8)
H8 H 0.4610(2) 0.3698(3) 0.12963(8)
C10 C 0.5905(2) 0.1380(4) 0.17459(10)
H9 H 0.5800(6) 0.2267(19) 0.1978(5)
H10 H 0.6509(5) 0.1705(27) 0.15610(13)
H11 H 0.6109(10) 0.0327(8) 0.1917(6)
C11 C 0.4514(3) -0.1895(4) 0.16614(11)
H12 H 0.4737(20) -0.2791(10) 0.1454(2)
H13 H 0.3864(7) -0.2266(18) 0.1811(7)
H14 H 0.5143(14) -0.1638(9) 0.1911(6)
O6 O 0.9229(2) 1.0558(2) 0.07671(8)
O7 O 1.0223(2) 0.8604(2) 0.03692(6)
O8 O 0.8178(2) 0.3738(3) 0.21398(7)
O9 O 0.7062(2) 0.5794(3) 0.18752(9)
O10 O 0.7649(2) 0.4115(2) 0.09271(6)
H15 H 0.7562(7) 0.3277(24) 0.0746(9)
N5 N 0.9475(2) 0.9030(2) 0.07297(7)
N6 N 0.7949(2) 0.5006(3) 0.18877(7)
N7 N 1.0360(2) 0.6828(3) 0.03718(8)
N8 N 0.9605(2) 0.4591(2) 0.08229(7)
H16 H 0.9991(2) 0.3794(2) 0.07031(7)
C12 C 0.9206(2) 0.7598(2) 0.09381(7)
C13 C 0.9741(2) 0.6253(3) 0.07002(7)
C14 C 0.8800(2) 0.4177(2) 0.11584(7)
H17 H 0.9006(2) 0.3066(2) 0.13124(7)
C15 C 0.8846(2) 0.5577(2) 0.15599(7)
C16 C 0.8490(2) 0.7356(2) 0.13443(7)
H18 H 0.7676(2) 0.7325(2) 0.12060(7)
C17 C 0.8672(2) 0.8762(3) 0.17370(8)
H19 H 0.8594(2) 0.9873(3) 0.15771(8)
H20 H 0.8071(2) 0.8670(3) 0.19453(8)
C18 C 0.9824(2) 0.8685(3) 0.20537(7)
C19 C 1.0433(2) 0.7241(3) 0.21091(7)
C20 C 1.0038(2) 0.5580(3) 0.18656(8)
H21 H 1.0044(2) 0.4709(3) 0.21176(8)
H22 H 1.0597(2) 0.5240(3) 0.16546(8)
C21 C 1.1586(2) 0.7067(4) 0.24198(10)
H23 H 1.2124(5) 0.6554(24) 0.2230(2)
H24 H 1.1510(4) 0.6355(21) 0.2698(4)
H25 H 1.1859(8) 0.8182(5) 0.2530(6)
C22 C 1.0181(3) 1.0348(3) 0.23104(11)
H26 H 0.9541(6) 1.0822(15) 0.2449(7)
H27 H 1.0425(18) 1.1145(10) 0.2079(2)
H28 H 1.0805(13) 1.0136(6) 0.2567(5)
#END
