
#######################################################################
#
#                 Cambridge Crystallographic Data Centre
#                                CCDC
#
#######################################################################
#
# If this CIF has been generated from an entry in the Cambridge
# Structural Database, then it will include bibliographic, chemical,
# crystal, experimental, refinement or atomic coordinate data resulting
# from the CCDC's data processing and validation procedures.
#
#######################################################################

data_CSD_CIF_QAZFEF
_audit_creation_date 2017-09-01
_audit_creation_method CSD-ConQuest-V1
_database_code_CSD QAZFEF
_database_code_depnum_ccdc_archive 'CCDC 1565059'
_chemical_formula_sum 'C24 H21 N3 O3'
_chemical_formula_moiety
;
C24 H21 N3 O3
;
_journal_coeditor_code "hg5491"
_journal_coden_Cambridge 1828
_journal_volume 73
_journal_year 2017
_journal_page_first 1398
_journal_name_full 'Acta Crystallogr.,Sect.E:Cryst.Commun. '
loop_
_publ_author_name
"J.Simpson"
"S.K.Mohamed"
"A.A.Marzouk"
"A.A.Abdelhamid"
"M.R.Albayati"
_chemical_name_systematic
;
1-[2-(4-nitrophenyl)-4,5-diphenyl-1H-imidazol-1-yl]propan-2-ol
;
_cell_volume   2083.950
_exptl_crystal_colour 'yellow'
_exptl_crystal_density_diffrn 1.273
_exptl_crystal_description 'block'
_diffrn_ambient_temperature 100
#These two values have been output from a single CSD field.
_refine_ls_R_factor_gt 0.0724
_refine_ls_wR_factor_gt 0.0724
_symmetry_cell_setting triclinic
_symmetry_space_group_name_H-M 'P -1'
_symmetry_Int_Tables_number 2
loop_
_symmetry_equiv_pos_site_id
_symmetry_equiv_pos_as_xyz
1 x,y,z
2 -x,-y,-z
_cell_length_a 12.3070(4)
_cell_length_b 13.2871(4)
_cell_length_c 13.8499(3)
_cell_angle_alpha 90.907(2)
_cell_angle_beta 100.748(2)
_cell_angle_gamma 109.938(3)
_cell_formula_units_Z 4
loop_
_atom_type_symbol
_atom_type_radius_bond
C 0.68
H 0.23
N 0.68
O 0.68
loop_
_atom_site_label
_atom_site_type_symbol
_atom_site_fract_x
_atom_site_fract_y
_atom_site_fract_z
N1 N 0.47399(16) 0.32171(14) 0.60492(13)
C1 C 0.39745(19) 0.21294(16) 0.56313(16)
H1 H 0.38900 0.20910 0.49050
H2 H 0.31810 0.19810 0.57790
C2 C 0.4456(2) 0.12685(17) 0.60368(16)
H3 H 0.52890 0.14580 0.59510
O1 O 0.44400(15) 0.12926(13) 0.70570(11)
H4 H 0.451(3) 0.071(3) 0.731(2)
C3 C 0.3715(2) 0.01767(19) 0.54911(19)
H5 H 0.39800 -0.03780 0.58050
H6 H 0.38040 0.01830 0.48020
H7 H 0.28830 0.00220 0.55140
C4 C 0.45419(19) 0.38744(16) 0.67156(16)
C5 C 0.35006(19) 0.36587(17) 0.71663(16)
C6 C 0.2969(2) 0.26889(17) 0.75549(17)
H8 H 0.32660 0.21200 0.75200
C7 C 0.2005(2) 0.25551(18) 0.79922(18)
H9 H 0.16500 0.19030 0.82690
C8 C 0.1573(2) 0.33862(19) 0.80183(18)
N2 N 0.0529(2) 0.32242(18) 0.84456(19)
O2 O 0.0194(2) 0.24368(19) 0.89045(18)
O3 O 0.00229(19) 0.38771(18) 0.8305(2)
C9 C 0.2084(2) 0.43608(19) 0.76456(19)
H10 H 0.17700 0.49200 0.76700
C10 C 0.3061(2) 0.44945(18) 0.72384(18)
H11 H 0.34420 0.51650 0.70030
N3 N 0.54166(16) 0.48177(14) 0.68955(13)
C11 C 0.62122(19) 0.47744(17) 0.63342(16)
C12 C 0.7291(2) 0.57016(17) 0.63058(17)
C13 C 0.8016(2) 0.62895(18) 0.71690(18)
H12 H 0.78160 0.61020 0.77880
C14 C 0.9035(2) 0.7153(2) 0.7129(2)
H13 H 0.95330 0.75470 0.77210
C15 C 0.9328(2) 0.74408(19) 0.6222(2)
H14 H 1.00240 0.80300 0.61960
C16 C 0.8599(2) 0.6864(2) 0.5359(2)
H15 H 0.87890 0.70610 0.47380
C17 C 0.7589(2) 0.59978(19) 0.54048(18)
H16 H 0.70960 0.56010 0.48120
C18 C 0.58139(19) 0.37866(17) 0.58023(16)
C19 C 0.6379(2) 0.33771(17) 0.51106(16)
C20 C 0.5831(2) 0.30527(17) 0.41259(16)
H17 H 0.50490 0.30410 0.38950
C21 C 0.6425(2) 0.27454(18) 0.34782(18)
H18 H 0.60400 0.25120 0.28110
C22 C 0.7571(2) 0.2778(2) 0.37998(19)
H19 H 0.79750 0.25750 0.33540
C23 C 0.8127(2) 0.3108(2) 0.4775(2)
H20 H 0.89150 0.31340 0.49980
C24 C 0.7531(2) 0.34025(19) 0.54298(17)
H21 H 0.79150 0.36220 0.61000
N4 N 0.53514(16) 0.84449(14) 0.89788(13)
C25 C 0.6129(2) 0.78650(17) 0.94029(16)
H22 H 0.61960 0.78900 1.01270
H23 H 0.69280 0.82310 0.92710
C26 C 0.5678(2) 0.66925(18) 0.89808(16)
H24 H 0.48330 0.63500 0.90340
O4 O 0.57451(15) 0.67128(13) 0.79728(12)
H25 H 0.559(3) 0.606(3) 0.769(3)
C27 C 0.6397(3) 0.6084(2) 0.9554(2)
H26 H 0.61280 0.53460 0.92520
H27 H 0.62940 0.60730 1.02390
H28 H 0.72340 0.64420 0.95400
C28 C 0.55613(19) 0.92431(16) 0.83472(16)
C29 C 0.65812(19) 0.96701(17) 0.78737(16)
C30 C 0.6966(2) 1.07800(18) 0.77616(17)
H29 H 0.66120 1.12160 0.80400
C31 C 0.7853(2) 1.12438(19) 0.72527(18)
H30 H 0.81190 1.19940 0.71840
C32 C 0.8346(2) 1.05887(19) 0.68452(17)
N5 N 0.92519(18) 1.10743(18) 0.62720(16)
O5 O 0.96751(17) 1.20609(16) 0.63188(15)
O6 O 0.9549(2) 1.04823(19) 0.57759(18)
C33 C 0.7994(2) 0.94926(19) 0.69411(17)
H31 H 0.83480 0.90630 0.66530
C34 C 0.7115(2) 0.90354(18) 0.74671(17)
H32 H 0.68740 0.82880 0.75510
N6 N 0.46808(16) 0.96207(14) 0.81808(14)
C35 C 0.38696(19) 0.90515(17) 0.87159(16)
C36 C 0.27705(19) 0.92635(17) 0.87218(17)
C37 C 0.2189(2) 0.95697(18) 0.78775(17)
H33 H 0.25000 0.96400 0.72940
C38 C 0.1155(2) 0.97731(18) 0.7888(2)
H34 H 0.07640 0.99800 0.73090
C39 C 0.0689(2) 0.96790(19) 0.8728(2)
H35 H -0.00180 0.98190 0.87280
C40 C 0.1262(2) 0.9377(2) 0.9576(2)
H36 H 0.09460 0.93100 1.01570
C41 C 0.2299(2) 0.91744(19) 0.95732(18)
H37 H 0.26900 0.89740 1.01550
C42 C 0.42676(19) 0.83105(17) 0.92131(16)
C43 C 0.3663(2) 0.74902(17) 0.98272(16)
C44 C 0.2548(2) 0.67459(19) 0.94172(18)
H38 H 0.22270 0.67370 0.87370
C45 C 0.1905(2) 0.6023(2) 0.9986(2)
H39 H 0.11470 0.55220 0.96970
C46 C 0.2371(2) 0.6029(2) 1.0986(2)
H40 H 0.19300 0.55370 1.13810
C47 C 0.3483(2) 0.6756(2) 1.13974(18)
H41 H 0.38070 0.67550 1.20760
C48 C 0.4129(2) 0.74873(18) 1.08274(17)
H42 H 0.48880 0.79860 1.11180
#END
