
#######################################################################
#
#                 Cambridge Crystallographic Data Centre
#                                CCDC
#
#######################################################################
#
# If this CIF has been generated from an entry in the Cambridge
# Structural Database, then it will include bibliographic, chemical,
# crystal, experimental, refinement or atomic coordinate data resulting
# from the CCDC's data processing and validation procedures.
#
#######################################################################

data_CSD_CIF_QAZYIC
_audit_creation_date 2017-09-01
_audit_creation_method CSD-ConQuest-V1
_database_code_CSD QAZYIC
_database_code_depnum_ccdc_archive 'CCDC 1471322'
_chemical_formula_sum 'C24 H20 N2 O1'
_chemical_formula_moiety
;
C24 H20 N2 O1
;
_journal_coden_Cambridge 1291
_journal_year 2017
_journal_page_first 4765
_journal_name_full 'Eur.J.Org.Chem. '
loop_
_publ_author_name
"A.K.Jha"
"Nidhi Jain"
_chemical_name_systematic
;
2-(4-methylphenyl)-6-(6-(4-methylphenyl)pyridin-2-yl)pyridinium-N-oxide
;
_cell_volume    892.783
_exptl_crystal_colour 'colorless'
_exptl_crystal_density_diffrn 1.311
_exptl_crystal_description 'cube'
_diffrn_ambient_temperature 293
#These two values have been output from a single CSD field.
_refine_ls_R_factor_gt 0.06
_refine_ls_wR_factor_gt 0.06
_symmetry_cell_setting triclinic
_symmetry_space_group_name_H-M 'P -1'
_symmetry_Int_Tables_number 2
loop_
_symmetry_equiv_pos_site_id
_symmetry_equiv_pos_as_xyz
1 x,y,z
2 -x,-y,-z
_cell_length_a 7.113(3)
_cell_length_b 7.510(3)
_cell_length_c 17.172(7)
_cell_angle_alpha 98.776(10)
_cell_angle_beta 98.444(9)
_cell_angle_gamma 93.974(10)
_cell_formula_units_Z 2
loop_
_atom_type_symbol
_atom_type_radius_bond
C 0.68
H 0.23
N 0.68
O 0.68
loop_
_atom_site_label
_atom_site_type_symbol
_atom_site_fract_x
_atom_site_fract_y
_atom_site_fract_z
O1 O 0.3814(3) 0.7402(4) 0.48265(13)
N1 N 0.2015(3) 0.7520(3) 0.48052(15)
N2 N 0.1489(4) 0.7227(3) 0.68149(15)
C1 C 0.4858(5) 0.5728(5) 0.6907(2)
H1 H 0.60180 0.52210 0.69430
C2 C 0.1953(4) 0.8067(4) 0.34494(18)
C3 C 0.0979(4) 0.7891(4) 0.41267(18)
C4 C 0.3644(5) 0.9147(4) 0.35106(19)
H2 H 0.41780 0.98520 0.39960
C5 C 0.4520(5) 0.9176(5) 0.2861(2)
H3 H 0.56470 0.99190 0.29090
C6 C 0.1176(4) 0.7270(4) 0.54463(18)
C7 C 0.2312(5) 0.6861(4) 0.75026(19)
C8 C 0.1175(5) 0.7097(4) 0.27195(19)
H4 H 0.00120 0.64050 0.26610
C9 C -0.1803(4) 0.7795(4) 0.47372(19)
H5 H -0.31050 0.78950 0.47160
C10 C 0.1267(5) 0.7228(4) 0.81788(19)
C11 C -0.0926(4) 0.8034(4) 0.41021(19)
H6 H -0.16420 0.82990 0.36430
C12 C 0.2308(4) 0.6856(4) 0.61650(18)
C13 C -0.0741(4) 0.7411(4) 0.53973(19)
H7 H -0.13300 0.72380 0.58320
C14 C 0.4004(5) 0.6070(5) 0.6196(2)
H8 H 0.45480 0.57810 0.57380
C15 C 0.4035(5) 0.6120(5) 0.7566(2)
H9 H 0.46260 0.58930 0.80570
C16 C 0.2093(5) 0.7134(5) 0.2074(2)
H10 H 0.15480 0.64590 0.15820
C17 C -0.0910(6) 0.7722(5) 0.9409(2)
C18 C 0.3799(5) 0.8151(5) 0.2141(2)
C19 C 0.1830(5) 0.6692(5) 0.8896(2)
H11 H 0.29670 0.61570 0.89800
C20 C 0.0747(6) 0.6930(6) 0.9492(2)
H12 H 0.11600 0.65350 0.99700
C21 C -0.0389(5) 0.8050(5) 0.8093(2)
H13 H -0.08050 0.84570 0.76170
C22 C 0.4884(6) 0.8126(6) 0.1458(2)
H14 H 0.48620 0.92730 0.12760
H15 H 0.43050 0.71850 0.10300
H16 H 0.61810 0.79050 0.16280
C23 C -0.1429(6) 0.8277(5) 0.8696(2)
H17 H -0.25510 0.88390 0.86190
C24 C -0.2102(6) 0.7929(6) 1.0054(2)
H18 H -0.29840 0.68720 0.99920
H19 H -0.27960 0.89750 1.00240
H20 H -0.12940 0.80750 1.05640
#END
