
#######################################################################
#
#                 Cambridge Crystallographic Data Centre
#                                CCDC
#
#######################################################################
#
# If this CIF has been generated from an entry in the Cambridge
# Structural Database, then it will include bibliographic, chemical,
# crystal, experimental, refinement or atomic coordinate data resulting
# from the CCDC's data processing and validation procedures.
#
#######################################################################

data_CSD_CIF_QAZYOI
_audit_creation_date 2017-09-01
_audit_creation_method CSD-ConQuest-V1
_database_code_CSD QAZYOI
_database_code_depnum_ccdc_archive 'CCDC 1472751'
_chemical_formula_sum 'C24 H20 N2 O2'
_chemical_formula_moiety
;
C24 H20 N2 O2
;
_journal_coden_Cambridge 1291
_journal_year 2017
_journal_page_first 4765
_journal_name_full 'Eur.J.Org.Chem. '
loop_
_publ_author_name
"A.K.Jha"
"Nidhi Jain"
_chemical_name_systematic
;
6,6'-bis(o-tolyl)-2,2'-bipyridinium-N,N'-dioxide
;
_cell_volume   1896.776
_exptl_crystal_colour 'white'
_exptl_crystal_density_diffrn 1.29
_exptl_crystal_description 'block'
_diffrn_ambient_temperature 298
#These two values have been output from a single CSD field.
_refine_ls_R_factor_gt 0.0399
_refine_ls_wR_factor_gt 0.0399
_symmetry_cell_setting monoclinic
_symmetry_space_group_name_H-M 'P 21'
_symmetry_Int_Tables_number 4
loop_
_symmetry_equiv_pos_site_id
_symmetry_equiv_pos_as_xyz
1 x,y,z
2 -x,1/2+y,-z
_cell_length_a 10.479(3)
_cell_length_b 13.524(4)
_cell_length_c 13.392(4)
_cell_angle_alpha 90
_cell_angle_beta 91.961(5)
_cell_angle_gamma 90
_cell_formula_units_Z 4
loop_
_atom_type_symbol
_atom_type_radius_bond
C 0.68
H 0.23
N 0.68
O 0.68
loop_
_atom_site_label
_atom_site_type_symbol
_atom_site_fract_x
_atom_site_fract_y
_atom_site_fract_z
O1 O 0.16752(16) 0.41929(14) 0.55722(14)
O2 O 0.19257(16) 0.29540(16) 0.38573(13)
C1 C -0.0233(2) 0.2345(2) 0.28117(19)
N1 N 0.11217(18) 0.24399(16) 0.43399(15)
C2 C 0.3713(2) 0.5151(2) 0.6402(2)
C3 C 0.0046(2) 0.20666(19) 0.38678(18)
C4 C 0.1349(2) 0.22353(19) 0.53295(18)
N2 N 0.25897(18) 0.36460(16) 0.59135(16)
C5 C 0.2498(2) 0.26447(19) 0.58322(19)
C6 C 0.0563(2) 0.1611(2) 0.5825(2)
H1 H 0.07340 0.14730 0.64970
C7 C 0.3405(2) 0.2056(2) 0.6294(2)
H2 H 0.33340 0.13720 0.62420
C8 C 0.4411(3) 0.2458(2) 0.6829(2)
H3 H 0.50060 0.20550 0.71620
C9 C -0.0717(2) 0.1431(2) 0.4361(2)
H4 H -0.14200 0.11560 0.40230
C10 C 0.3629(2) 0.4063(2) 0.6391(2)
C11 C -0.0478(2) 0.1185(2) 0.5342(2)
H5 H -0.10020 0.07440 0.56700
C12 C 0.4062(3) 0.6685(3) 0.5599(3)
H6 H 0.42280 0.70470 0.50270
C13 C 0.3950(3) 0.5670(2) 0.5529(2)
C14 C -0.0691(2) 0.3270(2) 0.2556(2)
C15 C 0.4524(2) 0.3463(2) 0.6866(2)
H7 H 0.52130 0.37470 0.72160
C16 C 0.3591(2) 0.5648(2) 0.7302(2)
H8 H 0.34430 0.52950 0.78830
C17 C 0.3690(3) 0.6662(3) 0.7333(3)
H9 H 0.35900 0.69970 0.79320
C18 C -0.0882(3) 0.2751(3) 0.0838(3)
H10 H -0.10910 0.28950 0.01730
C19 C -0.0117(2) 0.1629(2) 0.2079(2)
H11 H 0.01780 0.10030 0.22550
C20 C -0.0432(3) 0.1833(3) 0.1101(2)
H12 H -0.03410 0.13490 0.06150
C21 C -0.1021(3) 0.3454(3) 0.1558(3)
H13 H -0.13440 0.40720 0.13770
C22 C 0.3936(3) 0.7175(2) 0.6486(3)
H14 H 0.40180 0.78590 0.65100
C23 C 0.4080(3) 0.5149(3) 0.4552(2)
H15 H 0.48600 0.47750 0.45670
H16 H 0.40960 0.56260 0.40220
H17 H 0.33700 0.47100 0.44410
C24 C -0.0839(4) 0.4046(3) 0.3333(3)
H18 H -0.14400 0.38270 0.38100
H19 H -0.11440 0.46450 0.30230
H20 H -0.00280 0.41670 0.36660
O3 O 0.17575(18) 0.94051(16) 0.08302(14)
N3 N 0.43580(18) 1.02719(16) 0.07555(16)
O4 O 0.45433(17) 0.93512(13) 0.09373(14)
N4 N 0.19496(18) 0.95760(16) 0.17676(16)
C25 C 0.2813(2) 1.02747(19) 0.20740(19)
C26 C 0.5048(2) 1.0743(2) 0.0046(2)
C27 C 0.3505(2) 1.07936(19) 0.12921(19)
C28 C 0.3367(2) 1.1793(2) 0.1149(2)
H21 H 0.27920 1.21430 0.15270
C29 C 0.1252(2) 0.9077(2) 0.2456(2)
C30 C 0.2226(3) 1.0054(2) 0.3765(2)
H22 H 0.23060 1.02240 0.44370
C31 C 0.2941(2) 1.0523(2) 0.3070(2)
H23 H 0.35170 1.10130 0.32720
C32 C 0.1393(3) 0.9331(2) 0.3449(2)
H24 H 0.09100 0.90040 0.39160
C33 C 0.7204(3) 1.0043(2) -0.0184(2)
H25 H 0.74620 1.03200 0.04260
C34 C 0.5561(3) 0.9738(2) -0.1446(2)
C35 C 0.0805(3) 0.7368(2) 0.1886(2)
C36 C -0.0070(3) 0.6666(3) 0.1530(2)
H26 H 0.02010 0.60210 0.14180
C37 C 0.5949(2) 1.0142(2) -0.0536(2)
C38 C 0.6469(3) 0.9253(2) -0.2004(2)
H27 H 0.62290 0.89920 -0.26250
C39 C 0.0362(2) 0.8317(2) 0.2071(2)
C40 C 0.4896(3) 1.1737(2) -0.0090(2)
H28 H 0.53710 1.20550 -0.05680
C41 C 0.2179(3) 0.7117(3) 0.2076(3)
H29 H 0.27010 0.75610 0.17070
H30 H 0.23330 0.64500 0.18670
H31 H 0.23880 0.71800 0.27770
C42 C 0.7699(3) 0.9153(2) -0.1660(3)
H32 H 0.82900 0.88280 -0.20450
C43 C 0.4061(3) 1.2280(2) 0.0457(2)
H33 H 0.39720 1.29580 0.03610
C44 C 0.8068(3) 0.9531(2) -0.0745(3)
H34 H 0.89020 0.94430 -0.05020
C45 C -0.1327(3) 0.6910(3) 0.1342(2)
H35 H -0.18910 0.64370 0.10810
C46 C -0.1756(3) 0.7839(3) 0.1533(3)
H36 H -0.26120 0.79960 0.14160
C47 C -0.0917(3) 0.8546(3) 0.1902(2)
H37 H -0.12100 0.91790 0.20390
C48 C 0.4209(3) 0.9788(3) -0.1803(3)
H38 H 0.36910 0.94100 -0.13650
H39 H 0.41300 0.95220 -0.24670
H40 H 0.39310 1.04640 -0.18080
#END
