
#######################################################################
#
#                 Cambridge Crystallographic Data Centre
#                                CCDC
#
#######################################################################
#
# If this CIF has been generated from an entry in the Cambridge
# Structural Database, then it will include bibliographic, chemical,
# crystal, experimental, refinement or atomic coordinate data resulting
# from the CCDC's data processing and validation procedures.
#
#######################################################################

data_CSD_CIF_QEBBUW
_audit_creation_date 2012-12-11
_audit_creation_method CSD-ConQuest-V1
_database_code_CSD QEBBUW
_database_code_depnum_ccdc_archive 'CCDC 886729'
_chemical_formula_sum 'C10 H7 N3 O2'
_chemical_formula_moiety
;
C10 H7 N3 O2
;
_journal_coden_Cambridge 222
_journal_volume 41
_journal_year 2012
_journal_page_first 11212
_journal_name_full 'Dalton Trans. '
loop_
_publ_author_name
"A.de Bettencourt-Dias"
"S.Bauer"
"S.Viswanathan"
"B.C.Maull"
"A.M.Ako"
_chemical_name_systematic
;
6-Nitro-2,2'-bipyridine
;
_cell_volume    873.012
_exptl_crystal_colour 'colorless'
_exptl_crystal_density_diffrn 1.531
_exptl_crystal_description 'needle'
_diffrn_ambient_temperature 100
#These two values have been output from a single CSD field.
_refine_ls_R_factor_gt 0.0338
_refine_ls_wR_factor_gt 0.0338
_symmetry_cell_setting monoclinic
_symmetry_space_group_name_H-M 'P 21/n'
_symmetry_Int_Tables_number 14
loop_
_symmetry_equiv_pos_site_id
_symmetry_equiv_pos_as_xyz
1 x,y,z
2 1/2-x,1/2+y,1/2-z
3 -x,-y,-z
4 -1/2+x,-1/2-y,-1/2+z
_cell_length_a 3.7128(3)
_cell_length_b 11.7806(8)
_cell_length_c 19.9856(14)
_cell_angle_alpha 90
_cell_angle_beta 92.925(2)
_cell_angle_gamma 90
_cell_formula_units_Z 4
loop_
_atom_type_symbol
_atom_type_radius_bond
C 0.68
H 0.23
N 0.68
O 0.68
loop_
_atom_site_label
_atom_site_type_symbol
_atom_site_fract_x
_atom_site_fract_y
_atom_site_fract_z
H1 H 0.355(4) 0.3595(13) -0.1353(8)
H2 H 0.298(4) 0.1736(12) -0.1730(8)
H3 H 0.509(4) 0.0225(14) -0.0997(8)
H4 H 0.768(4) 0.0770(14) 0.0082(9)
H5 H 0.839(4) 0.4541(14) 0.0454(9)
H6 H 1.117(4) 0.5038(14) 0.1510(7)
H7 H 1.271(4) 0.3538(13) 0.2279(8)
C1 C 0.4321(4) 0.29943(12) -0.10765(7)
C2 C 0.4014(4) 0.18825(12) -0.12914(7)
C3 C 0.5245(4) 0.10300(12) -0.08641(7)
C4 C 0.6729(4) 0.13260(12) -0.02401(7)
C5 C 0.6917(3) 0.2466(1) -0.00593(6)
C6 C 0.8488(3) 0.28227(11) 0.06059(6)
C7 C 0.9091(4) 0.39693(12) 0.07659(7)
C8 C 1.0669(4) 0.42473(12) 0.13842(7)
C9 C 1.1599(4) 0.33958(11) 0.18401(7)
C10 C 1.0838(4) 0.23035(11) 0.16287(6)
N1 N 0.5733(3) 0.33064(9) -0.04757(6)
N2 N 0.9342(3) 0.19902(9) 0.10467(5)
N3 N 1.1742(3) 0.13502(10) 0.20981(5)
O1 O 1.0378(3) 0.04204(8) 0.19905(5)
O2 O 1.3845(3) 0.15663(8) 0.25785(5)
#END
