
#######################################################################
#
#                 Cambridge Crystallographic Data Centre
#                                CCDC
#
#######################################################################
#
# If this CIF has been generated from an entry in the Cambridge
# Structural Database, then it will include bibliographic, chemical,
# crystal, experimental, refinement or atomic coordinate data resulting
# from the CCDC's data processing and validation procedures.
#
#######################################################################

data_CSD_CIF_QEBDAF
_audit_creation_date 2017-09-01
_audit_creation_method CSD-ConQuest-V1
_database_code_CSD QEBDAF
_database_code_depnum_ccdc_archive 'CCDC 1529985'
_chemical_formula_sum 'C7 H11 N7 O6'
_chemical_formula_moiety
;
C7 H11 N7 O6
;
_journal_coden_Cambridge 1678
_journal_volume 53
_journal_year 2017
_journal_page_first 702
_journal_name_full 'Chemistry of Heterocyclic Compounds '
loop_
_publ_author_name
"I.N.Zyuzin"
"I.L.Dalinger"
"K.Yu.Suponitsky"
_chemical_name_systematic
;
1-[2,2-bis(methoxy-NNO-azoxy)ethyl]-3-nitro-1H-pyrazole
;
_cell_volume   1286.303
_exptl_crystal_colour 'colorless'
_exptl_crystal_density_diffrn 1.493
_exptl_crystal_description 'prism'
_diffrn_ambient_temperature 100
#These two values have been output from a single CSD field.
_refine_ls_R_factor_gt 0.0455
_refine_ls_wR_factor_gt 0.0455
_symmetry_cell_setting monoclinic
_symmetry_space_group_name_H-M 'P 21/n'
_symmetry_Int_Tables_number 14
loop_
_symmetry_equiv_pos_site_id
_symmetry_equiv_pos_as_xyz
1 x,y,z
2 1/2-x,1/2+y,1/2-z
3 -x,-y,-z
4 -1/2+x,-1/2-y,-1/2+z
_cell_length_a 5.2745(19)
_cell_length_b 9.362(3)
_cell_length_c 26.142(10)
_cell_angle_alpha 90
_cell_angle_beta 94.831(7)
_cell_angle_gamma 90
_cell_formula_units_Z 4
loop_
_atom_type_symbol
_atom_type_radius_bond
C 0.68
H 0.23
N 0.68
O 0.68
loop_
_atom_site_label
_atom_site_type_symbol
_atom_site_fract_x
_atom_site_fract_y
_atom_site_fract_z
O1 O 0.6709(2) 0.88133(13) 0.52698(4)
O2 O 0.3434(2) 0.75538(14) 0.49870(4)
O3 O 0.4959(2) 0.42577(11) 0.24577(4)
O4 O 0.2564(2) 0.58227(12) 0.18024(4)
O5 O 0.9617(2) 0.59101(13) 0.29152(4)
O6 O 1.0764(2) 0.48194(13) 0.37733(4)
N1 N 0.6074(2) 0.81730(14) 0.36163(5)
N2 N 0.4696(2) 0.78733(14) 0.40124(5)
N3 N 0.5363(3) 0.82307(15) 0.49213(5)
N4 N 0.4585(2) 0.55610(14) 0.25460(5)
N5 N 0.3447(2) 0.64836(14) 0.22502(4)
N6 N 0.7935(2) 0.56325(13) 0.32106(5)
N7 N 0.8212(2) 0.50714(14) 0.36584(5)
C1 C 0.8331(3) 0.88051(18) 0.37613(6)
H1 H 0.95890 0.90860 0.35420
C2 C 0.8458(3) 0.89622(18) 0.42840(6)
H2 H 0.97760 0.93780 0.45060
C3 C 0.6179(3) 0.83631(17) 0.44098(5)
C4 C 0.5164(3) 0.77320(16) 0.30992(5)
H3 H 0.62340 0.81630 0.28470
H4 H 0.33890 0.80560 0.30190
C5 C 0.5297(3) 0.61084(16) 0.30699(5)
H5 H 0.41440 0.56840 0.33140
C6 C 0.0803(3) 0.68029(19) 0.15295(6)
H6 H 0.02960 0.64220 0.11870
H7 H 0.16290 0.77320 0.14970
H8 H -0.07070 0.69170 0.17200
C7 C 1.1166(4) 0.4497(2) 0.43139(6)
H9 H 1.29490 0.42310 0.43990
H10 H 1.00640 0.37010 0.43960
H11 H 1.07570 0.53390 0.45140
#END
