
#######################################################################
#
#                 Cambridge Crystallographic Data Centre
#                                CCDC
#
#######################################################################
#
# If this CIF has been generated from an entry in the Cambridge
# Structural Database, then it will include bibliographic, chemical,
# crystal, experimental, refinement or atomic coordinate data resulting
# from the CCDC's data processing and validation procedures.
#
#######################################################################

data_CSD_CIF_QEBLEQ
_audit_creation_date 2012-12-11
_audit_creation_method CSD-ConQuest-V1
_database_code_CSD QEBLEQ
_database_code_depnum_ccdc_archive 'CCDC 839605'
_chemical_formula_sum 'C22 H25 N3 O7'
_chemical_formula_moiety
;
C22 H25 N3 O7
;
_journal_coden_Cambridge 1475
_journal_volume 3
_journal_year 2012
_journal_page_first 3053
_journal_name_full 'Chemical Science '
loop_
_publ_author_name
"Wei Meng"
"Hai-Tao Zhao"
"Jing Nie"
"Yan Zheng"
"Aiping Fu"
"Jun-An Ma"
_chemical_name_systematic
;
Diethyl 
7-methyl-5-(4-nitrophenyl)-1-oxo-2,3,5,6-tetrahydro-1H-pyrazolo[1,2-a][1,2]dia
zocine-6,8-dicarboxylate
;
_cell_volume   2180.547
_exptl_crystal_density_diffrn 1.351
_diffrn_ambient_temperature 113
#These two values have been output from a single CSD field.
_refine_ls_R_factor_gt 0.0469
_refine_ls_wR_factor_gt 0.0469
_symmetry_cell_setting monoclinic
_symmetry_space_group_name_H-M 'C c'
_symmetry_Int_Tables_number 9
loop_
_symmetry_equiv_pos_site_id
_symmetry_equiv_pos_as_xyz
1 x,y,z
2 x,-y,1/2+z
3 1/2+x,1/2+y,z
4 1/2+x,1/2-y,1/2+z
_cell_length_a 15.778(3)
_cell_length_b 16.681(3)
_cell_length_c 8.3240(17)
_cell_angle_alpha 90
_cell_angle_beta 95.55(3)
_cell_angle_gamma 90
_cell_formula_units_Z 4
loop_
_atom_type_symbol
_atom_type_radius_bond
C 0.68
H 0.23
N 0.68
O 0.68
loop_
_atom_site_label
_atom_site_type_symbol
_atom_site_fract_x
_atom_site_fract_y
_atom_site_fract_z
O1 O 0.47726(17) 0.02043(16) 0.1963(3)
O2 O 0.79718(18) 0.33022(16) 0.4009(3)
O3 O 0.8330(2) 0.25469(19) 0.1956(4)
O4 O 0.80771(16) 0.05393(16) 0.7412(3)
O5 O 0.69216(17) 0.06813(16) 0.8799(3)
O6 O 0.5940(2) 0.48350(19) 0.9963(4)
O7 O 0.5336(2) 0.4080(2) 1.1633(4)
N1 N 0.56557(19) 0.11076(18) 0.3368(3)
N2 N 0.5611(2) 0.17466(18) 0.4537(4)
N3 N 0.5671(2) 0.4185(3) 1.0370(4)
C1 C 0.4887(2) 0.0726(2) 0.2994(4)
C2 C 0.4258(2) 0.1092(2) 0.4019(4)
H1 H 0.41920 0.07690 0.49680
H2 H 0.37070 0.11660 0.34140
C3 C 0.4683(2) 0.1898(2) 0.4471(4)
H3 H 0.45120 0.23010 0.36660
H4 H 0.45290 0.20800 0.55110
C4 C 0.5973(2) 0.1476(2) 0.6172(4)
H5 H 0.56310 0.10330 0.65350
C5 C 0.6900(2) 0.1184(2) 0.6048(4)
H6 H 0.68660 0.07690 0.52090
C6 C 0.7465(2) 0.1841(2) 0.5483(4)
C7 C 0.7474(2) 0.1962(2) 0.3862(4)
C8 C 0.7083(2) 0.1431(2) 0.2592(4)
H7 H 0.74210 0.13400 0.17540
C9 C 0.6330(3) 0.1055(2) 0.2414(4)
H8 H 0.62470 0.07110 0.15330
C10 C 0.7979(2) 0.2613(2) 0.3179(5)
C11 C 0.8375(3) 0.3994(2) 0.3338(5)
H9 H 0.88460 0.38190 0.27570
H10 H 0.85990 0.43470 0.42050
C12 C 0.7741(3) 0.4440(3) 0.2217(5)
H11 H 0.75750 0.41130 0.12900
H12 H 0.79930 0.49280 0.18780
H13 H 0.72490 0.45640 0.27640
C13 C 0.7976(3) 0.2323(2) 0.6757(5)
H14 H 0.85700 0.22030 0.67350
H15 H 0.78030 0.21910 0.77990
H16 H 0.78830 0.28840 0.65520
C14 C 0.7276(2) 0.0784(2) 0.7586(4)
C15 C 0.8567(2) 0.0175(2) 0.8816(5)
H17 H 0.89480 -0.02290 0.84550
H18 H 0.81820 -0.00850 0.94920
C16 C 0.9075(3) 0.0803(3) 0.9775(5)
H19 H 0.94330 0.10790 0.90880
H20 H 0.94220 0.05520 1.06450
H21 H 0.86950 0.11780 1.02060
C17 C 0.5908(2) 0.2198(2) 0.7288(4)
C18 C 0.5673(2) 0.2081(2) 0.8845(4)
H22 H 0.55660 0.15650 0.91980
C19 C 0.5596(3) 0.2730(2) 0.9875(5)
H23 H 0.54470 0.26560 1.09190
C20 C 0.5747(3) 0.3487(3) 0.9297(5)
C21 C 0.5965(3) 0.3637(3) 0.7757(5)
H24 H 0.60540 0.41560 0.74020
C22 C 0.6045(3) 0.2975(2) 0.6756(4)
H25 H 0.61940 0.30540 0.57140
#END
