
#######################################################################
#
#                 Cambridge Crystallographic Data Centre
#                                CCDC
#
#######################################################################
#
# If this CIF has been generated from an entry in the Cambridge
# Structural Database, then it will include bibliographic, chemical,
# crystal, experimental, refinement or atomic coordinate data resulting
# from the CCDC's data processing and validation procedures.
#
#######################################################################

data_CSD_CIF_QEBRIB
_audit_creation_date 2017-09-01
_audit_creation_method CSD-ConQuest-V1
_database_code_CSD QEBRIB
_database_code_depnum_ccdc_archive 'CCDC 1550068'
_chemical_formula_sum 'C11 H8 N4 O3'
_chemical_formula_moiety
;
C11 H8 N4 O3
;
_journal_coden_Cambridge 2066
_journal_volume 2
_journal_year 2017
_journal_page_first 3123
_journal_name_full 'ACS Omega '
loop_
_publ_author_name
"Kun-Ming Jiang"
"U.Luesakul"
"Shu-Yue Zhao"
"Kun An"
"Nongnuj Muangsin"
"N.Neamati"
"Yi Jin"
"Jun Lin"
_chemical_name_systematic
;
3-(4-methylphenyl)-6-nitroimidazo[1,2-d][1,2,4]oxadiazole
;
_cell_volume   1094.112
_exptl_crystal_colour 'colorless'
_exptl_crystal_density_diffrn 1.483
_exptl_crystal_description 'block'
_diffrn_ambient_temperature 293
#These two values have been output from a single CSD field.
_refine_ls_R_factor_gt 0.0332
_refine_ls_wR_factor_gt 0.0332
_symmetry_cell_setting monoclinic
_symmetry_space_group_name_H-M 'P 21/c'
_symmetry_Int_Tables_number 14
loop_
_symmetry_equiv_pos_site_id
_symmetry_equiv_pos_as_xyz
1 x,y,z
2 -x,1/2+y,1/2-z
3 -x,-y,-z
4 x,-1/2-y,-1/2+z
_cell_length_a 5.8616(12)
_cell_length_b 11.146(2)
_cell_length_c 16.811(3)
_cell_angle_alpha 90
_cell_angle_beta 95.017(2)
_cell_angle_gamma 90
_cell_formula_units_Z 4
loop_
_atom_type_symbol
_atom_type_radius_bond
C 0.68
H 0.23
N 0.68
O 0.68
loop_
_atom_site_label
_atom_site_type_symbol
_atom_site_fract_x
_atom_site_fract_y
_atom_site_fract_z
C1 C 0.8595(2) 0.38835(12) 0.40607(7)
C2 C 0.6764(3) 0.34240(13) 0.44405(8)
H1 H 0.57590 0.39450 0.46640
C3 C 0.6435(3) 0.22111(13) 0.44862(9)
H2 H 0.51990 0.19210 0.47400
C4 C 0.7906(3) 0.14029(13) 0.41628(8)
C5 C 0.9727(3) 0.18678(13) 0.37905(9)
H3 H 1.07390 0.13440 0.35730
C6 C 1.0082(2) 0.30884(12) 0.37341(8)
H4 H 1.13140 0.33780 0.34780
C7 C 0.7501(4) 0.00706(15) 0.41976(12)
H5 H 0.75390 -0.01800 0.47450
H6 H 0.86750 -0.03420 0.39420
H7 H 0.60320 -0.01160 0.39280
C8 C 0.8874(2) 0.51793(12) 0.40168(7)
C9 C 1.0120(2) 0.69913(12) 0.37524(8)
C10 C 1.2431(2) 0.57585(12) 0.32070(8)
H8 H 1.31770 0.50870 0.30280
C11 C 1.2925(2) 0.69350(12) 0.31049(8)
N1 N 0.7541(2) 0.59309(11) 0.43434(7)
N2 N 1.05395(18) 0.58090(9) 0.36434(6)
N3 N 1.1497(2) 0.77346(11) 0.34398(6)
N4 N 1.4798(2) 0.73574(13) 0.26795(7)
O1 O 0.83079(18) 0.71214(8) 0.41797(6)
O2 O 1.4988(2) 0.84359(11) 0.25759(7)
O3 O 1.6097(2) 0.65920(11) 0.24472(7)
#END
