
#######################################################################
#
#                 Cambridge Crystallographic Data Centre
#                                CCDC
#
#######################################################################
#
# If this CIF has been generated from an entry in the Cambridge
# Structural Database, then it will include bibliographic, chemical,
# crystal, experimental, refinement or atomic coordinate data resulting
# from the CCDC's data processing and validation procedures.
#
#######################################################################

data_CSD_CIF_QEBWID
_audit_creation_date 2001-05-08
_audit_creation_method CSD-ConQuest-V1
_database_code_CSD QEBWID
_chemical_formula_sum 'C14 H19 N1 O4'
_chemical_formula_moiety
;
C14 H19 N1 O4
;
_journal_coden_Cambridge 35
_journal_volume 64
_journal_year 1999
_journal_page_first 8754
_journal_name_full 'J.Org.Chem. '
loop_
_publ_author_name
"S.R.Angle"
"M.L.Neitzel"
_chemical_name_systematic
;
(2S*,3R*)-4,4-Diethyl-3-hydroxy-2-(4-nitrophenyl)tetrahydrofuran
;
_chemical_melting_point 358.15
_cell_volume   1358.795
_exptl_crystal_colour 'white'
_exptl_crystal_density_diffrn 1.297
_exptl_special_details
;
Melting point range 358.15-360.15K

;
_diffrn_ambient_temperature 198
#These two values have been output from a single CSD field.
_refine_ls_R_factor_gt 0.0474
_refine_ls_wR_factor_gt 0.0474
_symmetry_cell_setting monoclinic
_symmetry_space_group_name_H-M 'P 21/n'
_symmetry_Int_Tables_number 14
loop_
_symmetry_equiv_pos_site_id
_symmetry_equiv_pos_as_xyz
1 x,y,z
2 1/2-x,1/2+y,1/2-z
3 -x,-y,-z
4 -1/2+x,-1/2-y,-1/2+z
_cell_length_a 11.1344(5)
_cell_length_b 6.5141(3)
_cell_length_c 18.8286(9)
_cell_angle_alpha 90
_cell_angle_beta 95.743(1)
_cell_angle_gamma 90
_cell_formula_units_Z 4
loop_
_atom_type_symbol
_atom_type_radius_bond
C 0.68
H 0.23
N 0.68
O 0.68
loop_
_atom_site_label
_atom_site_type_symbol
_atom_site_fract_x
_atom_site_fract_y
_atom_site_fract_z
O1 O 0.8805(1) 0.4614(1) 0.2217(1)
C1 C 0.7984(1) 0.3323(2) 0.1793(1)
C2 C 0.8724(1) 0.2616(2) 0.1193(1)
C3 C 1.0023(1) 0.2361(2) 0.1568(1)
C4 C 0.9942(1) 0.3568(2) 0.2268(1)
C5 C 0.6874(1) 0.4478(2) 0.1509(1)
C6 C 0.5772(1) 0.3454(2) 0.1401(1)
C7 C 0.4757(1) 0.4441(2) 0.1074(1)
C8 C 0.4872(1) 0.6467(2) 0.0874(1)
C9 C 0.5951(1) 0.7525(2) 0.0977(1)
C10 C 0.6954(1) 0.6515(2) 0.1294(1)
N1 N 0.3805(1) 0.7557(2) 0.0551(1)
O2 O 0.3866(1) 0.9413(2) 0.0462(1)
O3 O 0.2883(1) 0.6573(2) 0.0383(1)
O4 O 0.8234(1) 0.0801(1) 0.0864(1)
C11 C 1.0307(1) 0.0094(2) 0.1718(1)
C12 C 1.1557(2) -0.0299(3) 0.2105(1)
C13 C 1.0940(1) 0.3401(2) 0.1127(1)
C14 C 1.1026(2) 0.2442(3) 0.0398(1)
H1 H 0.77580 0.21150 0.20790
H2 H 0.87230 0.37260 0.08260
H3 H 1.00040 0.26150 0.26800
H4 H 1.06110 0.45710 0.23390
H5 H 0.57140 0.20700 0.15520
H6 H 0.40070 0.37430 0.09910
H7 H 0.60020 0.89170 0.08320
H8 H 0.77040 0.72150 0.13670
H9 H 0.789(2) 0.116(3) 0.0463(13)
H10 H 0.96920 -0.04740 0.20080
H11 H 1.02400 -0.06570 0.12580
H12 H 1.16700 -0.17770 0.21830
H13 H 1.16280 0.04110 0.25660
H14 H 1.21750 0.02160 0.18150
H15 H 1.07160 0.48640 0.10610
H16 H 1.17470 0.33490 0.14010
H17 H 1.16260 0.31860 0.01500
H18 H 1.02380 0.25200 0.01160
H19 H 1.12700 0.10010 0.04560
#END
