
#######################################################################
#
#                 Cambridge Crystallographic Data Centre
#                                CCDC
#
#######################################################################
#
# If this CIF has been generated from an entry in the Cambridge
# Structural Database, then it will include bibliographic, chemical,
# crystal, experimental, refinement or atomic coordinate data resulting
# from the CCDC's data processing and validation procedures.
#
#######################################################################

data_CSD_CIF_QEBZUS
_audit_creation_date 2001-05-08
_audit_creation_method CSD-ConQuest-V1
_database_code_CSD QEBZUS
_chemical_formula_sum 'C6 H11 N1 O4'
_chemical_formula_moiety
;
C6 H11 N1 O4
;
_journal_coden_Cambridge 35
_journal_volume 65
_journal_year 2000
_journal_page_first 388
_journal_name_full 'J.Org.Chem. '
loop_
_publ_author_name
"E.Muray"
"A.Alvarez-Larena"
"J.F.Piniella"
"V.Branchadell"
"R.M.Ortuno"
_chemical_name_systematic
;
(1S,2R,1'S)-1-Methyl-1-nitro-2-(1',2'-dihydroxyethyl)cyclopropane
;
_chemical_melting_point 316.15
_cell_volume    790.121
_exptl_crystal_density_diffrn 1.355
_exptl_special_details
;
Melting point range 316.15-318.15K

;
_diffrn_ambient_temperature ?
_diffrn_special_details
;
The study was carried out at room temperature,in the range 283-303K

;
#These two values have been output from a single CSD field.
_refine_ls_R_factor_gt 0.09
_refine_ls_wR_factor_gt 0.09
loop_
_citation_database_id_CSD
_citation_special_details
QECBAB "is a stereoisomer of this entry"
_symmetry_cell_setting monoclinic
_symmetry_space_group_name_H-M 'P 21'
_symmetry_Int_Tables_number 4
loop_
_symmetry_equiv_pos_site_id
_symmetry_equiv_pos_as_xyz
1 x,y,z
2 -x,1/2+y,-z
_cell_length_a 9.902(15)
_cell_length_b 7.736(7)
_cell_length_c 10.96(3)
_cell_angle_alpha 90
_cell_angle_beta 109.76(16)
_cell_angle_gamma 90
_cell_formula_units_Z 4
loop_
_atom_type_symbol
_atom_type_radius_bond
C 0.68
N 0.68
O 0.68
loop_
_atom_site_label
_atom_site_type_symbol
_atom_site_fract_x
_atom_site_fract_y
_atom_site_fract_z
C1 C 0.6132(6) 0.1073(6) 0.3259(6)
O1 O 0.5565(4) 0.1157(5) 0.4256(5)
C2 C 0.7189(5) -0.0374(6) 0.3400(5)
O2 O 0.8342(4) -0.0096(5) 0.4592(4)
C3 C 0.6557(5) -0.2127(7) 0.3450(5)
C4 C 0.7208(6) -0.3709(7) 0.3069(6)
C5 C 0.5763(5) -0.3136(6) 0.2252(5)
C6 C 0.4446(6) -0.4161(8) 0.2198(7)
N1 N 0.5639(6) -0.2323(8) 0.1008(5)
O3 O 0.6664(8) -0.2191(12) 0.0660(6)
O4 O 0.4464(7) -0.1693(15) 0.0386(6)
C7 C 0.9085(5) 0.3267(7) 0.6571(5)
O5 O 0.9344(4) 0.3053(5) 0.5410(4)
C8 C 0.8034(4) 0.4700(7) 0.6503(5)
O6 O 0.6635(3) 0.4078(5) 0.5742(4)
C9 C 0.8035(5) 0.5273(7) 0.7784(5)
C10 C 0.7722(6) 0.7124(9) 0.8013(6)
C11 C 0.9194(6) 0.6414(8) 0.8719(6)
C12 C 0.9687(10) 0.6077(12) 1.0103(7)
N2 N 1.0316(7) 0.7038(9) 0.8219(6)
O7 O 1.0052(9) 0.7766(13) 0.7268(6)
O8 O 1.1537(6) 0.6644(16) 0.8894(10)
#END
