
#######################################################################
#
#                 Cambridge Crystallographic Data Centre
#                                CCDC
#
#######################################################################
#
# If this CIF has been generated from an entry in the Cambridge
# Structural Database, then it will include bibliographic, chemical,
# crystal, experimental, refinement or atomic coordinate data resulting
# from the CCDC's data processing and validation procedures.
#
#######################################################################

data_CSD_CIF_QECBAB
_audit_creation_date 2001-05-08
_audit_creation_method CSD-ConQuest-V1
_database_code_CSD QECBAB
_chemical_formula_sum 'C6 H11 N1 O4'
_chemical_formula_moiety
;
C6 H11 N1 O4
;
_journal_coden_Cambridge 35
_journal_volume 65
_journal_year 2000
_journal_page_first 388
_journal_name_full 'J.Org.Chem. '
loop_
_publ_author_name
"E.Muray"
"A.Alvarez-Larena"
"J.F.Piniella"
"V.Branchadell"
"R.M.Ortuno"
_chemical_name_systematic
;
(1R,2R,1'S)-1-Methyl-1-nitro-2-(1',2'-dihydroxyethyl)cyclopropane
;
_chemical_melting_point 337.15
_cell_volume    760.409
_exptl_crystal_density_diffrn 1.408
_exptl_special_details
;
Melting point range 337.15-339.15K

;
_diffrn_ambient_temperature ?
_diffrn_special_details
;
The study was carried out at room temperature,in the range 283-303K

;
#These two values have been output from a single CSD field.
_refine_ls_R_factor_gt 0.0351
_refine_ls_wR_factor_gt 0.0351
loop_
_citation_database_id_CSD
_citation_special_details
QEBZUS "is a stereoisomer of this entry"
_symmetry_cell_setting orthorhombic
_symmetry_space_group_name_H-M 'P 21 21 21'
_symmetry_Int_Tables_number 19
loop_
_symmetry_equiv_pos_site_id
_symmetry_equiv_pos_as_xyz
1 x,y,z
2 1/2-x,-y,1/2+z
3 1/2+x,1/2-y,-z
4 -x,1/2+y,1/2-z
_cell_length_a 5.738(1)
_cell_length_b 6.507(5)
_cell_length_c 20.366(6)
_cell_angle_alpha 90
_cell_angle_beta 90
_cell_angle_gamma 90
_cell_formula_units_Z 4
loop_
_atom_type_symbol
_atom_type_radius_bond
C 0.68
H 0.23
N 0.68
O 0.68
loop_
_atom_site_label
_atom_site_type_symbol
_atom_site_fract_x
_atom_site_fract_y
_atom_site_fract_z
C1 C 0.0996(12) -0.3367(11) -0.6852(3)
O1 O 0.2358(8) -0.2060(19) -0.7288(7)
C2 C -0.1458(10) -0.2474(14) -0.6845(3)
O2 O -0.2820(2) -0.2850(2) -0.7416(8)
C3 C -0.2020(6) -0.1532(6) -0.6172(2)
C4 C -0.3902(7) -0.0030(8) -0.6011(2)
C5 C -0.1508(7) 0.0320(6) -0.5749(2)
C6 C -0.0160(3) 0.2200(2) -0.5963(2)
N1 N -0.1254(7) -0.0185(6) -0.5044(2)
O3 O -0.2531(10) -0.1501(6) -0.4803(2)
O4 O 0.0196(8) 0.0775(7) -0.4727(2)
H1 H 0.16560 -0.33620 -0.64140
H2 H 0.09740 -0.47690 -0.70130
H3 H 0.2140(11) -0.1110(6) -0.7080(2)
H4 H -0.09110 -0.11520 -0.70170
H5 H -0.2600(11) -0.4010(6) -0.7540(3)
H6 H -0.22230 -0.26900 -0.58700
H7 H -0.44440 0.08670 -0.63590
H8 H -0.50970 -0.04590 -0.57030
H9 H 0.13320 0.22140 -0.57490
H10 H -0.10110 0.34150 -0.58450
H11 H 0.00610 0.21670 -0.64300
#END
