
#######################################################################
#
#                 Cambridge Crystallographic Data Centre
#                                CCDC
#
#######################################################################
#
# If this CIF has been generated from an entry in the Cambridge
# Structural Database, then it will include bibliographic, chemical,
# crystal, experimental, refinement or atomic coordinate data resulting
# from the CCDC's data processing and validation procedures.
#
#######################################################################

data_CSD_CIF_QECQUN
_audit_creation_date 2017-09-04
_audit_creation_method CSD-ConQuest-V1
_database_code_CSD QECQUN
_database_code_depnum_ccdc_archive 'CCDC 1516109'
_chemical_formula_sum 'C7 H11 N5 O5'
_chemical_formula_moiety
;
C7 H11 N5 O5
;
_journal_coden_Cambridge 1678
_journal_volume 53
_journal_year 2017
_journal_page_first 710
_journal_name_full 'Chemistry of Heterocyclic Compounds '
loop_
_publ_author_name
"Tianhong Zhou"
"Xiaoge Guan"
"Kangzhen Xu"
"Jirong Song"
"Fengqi Zhao"
_chemical_name_systematic
;
1-(1-amino-2,2-dinitrovinyl)-3,5-dimethyl-4,5-dihydro-1H-pyrazol-5-ol
;
_cell_volume    565.302
_exptl_crystal_colour 'colorless'
_exptl_crystal_density_diffrn 1.441
_exptl_crystal_description 'block'
_diffrn_ambient_temperature 296
#These two values have been output from a single CSD field.
_refine_ls_R_factor_gt 0.0383
_refine_ls_wR_factor_gt 0.0383
_symmetry_cell_setting triclinic
_symmetry_space_group_name_H-M 'P -1'
_symmetry_Int_Tables_number 2
loop_
_symmetry_equiv_pos_site_id
_symmetry_equiv_pos_as_xyz
1 x,y,z
2 -x,-y,-z
_cell_length_a 7.6334(17)
_cell_length_b 8.3937(19)
_cell_length_c 9.764(2)
_cell_angle_alpha 106.187(3)
_cell_angle_beta 104.470(3)
_cell_angle_gamma 98.619(3)
_cell_formula_units_Z 2
loop_
_atom_type_symbol
_atom_type_radius_bond
C 0.68
H 0.23
N 0.68
O 0.68
loop_
_atom_site_label
_atom_site_type_symbol
_atom_site_fract_x
_atom_site_fract_y
_atom_site_fract_z
N1 N 0.38036(19) 0.90336(16) 0.76037(14)
N2 N 0.58887(16) 0.79329(16) 0.92215(15)
N3 N 0.18223(18) 0.74000(16) 0.96485(15)
H1 H 0.09100 0.67270 0.97240
H2 H 0.22400 0.84260 1.02680
N4 N 0.19949(17) 0.53061(15) 0.76093(14)
N5 N 0.29464(19) 0.48318(17) 0.65539(15)
O1 O 0.21274(18) 0.87828(17) 0.68834(15)
O2 O 0.50474(18) 1.00925(16) 0.75248(15)
O3 O 0.73551(15) 0.88051(16) 0.92225(15)
O4 O 0.59129(15) 0.68354(16) 0.98811(15)
O5 O 0.07668(14) 0.37407(14) 0.89807(12)
H3 H 0.16740 0.33470 0.92170
C1 C 0.4153(2) 0.80542(18) 0.85251(16)
C2 C 0.25689(19) 0.68668(18) 0.85987(16)
C3 C 0.2353(2) 0.3213(2) 0.59012(18)
C4 C 0.0944(2) 0.23702(19) 0.64502(18)
H4 H 0.14400 0.16130 0.69520
H5 H -0.01700 0.17180 0.56280
C5 C 0.0523(2) 0.38490(18) 0.75460(17)
C6 C 0.3078(3) 0.2283(3) 0.4718(2)
H6 H 0.40170 0.30680 0.45810
H7 H 0.20780 0.17620 0.37950
H8 H 0.36070 0.14150 0.50100
C7 C -0.1398(2) 0.4142(2) 0.6986(2)
H9 H -0.23210 0.31970 0.69360
H10 H -0.15850 0.42410 0.60070
H11 H -0.15060 0.51740 0.76610
#END
