
#######################################################################
#
#                 Cambridge Crystallographic Data Centre
#                                CCDC
#
#######################################################################
#
# If this CIF has been generated from an entry in the Cambridge
# Structural Database, then it will include bibliographic, chemical,
# crystal, experimental, refinement or atomic coordinate data resulting
# from the CCDC's data processing and validation procedures.
#
#######################################################################

data_CSD_CIF_QECWAY
_audit_creation_date 2012-11-07
_audit_creation_method CSD-ConQuest-V1
_database_code_CSD QECWAY
_database_code_depnum_ccdc_archive 'CCDC 899680'
_chemical_formula_sum 'C14 H11 N5 O6'
_chemical_formula_moiety
;
C14 H11 N5 O6
;
_journal_coeditor_code "IUCr IS5180"
_journal_coden_Cambridge 1370
_journal_volume 68
_journal_year 2012
_journal_page_first o2684
_journal_name_full 'Acta Crystallogr.,Sect.E:Struct.Rep.Online '
loop_
_publ_author_name
"H.-K.Fun"
"S.Chantrapromma"
"B.Nilwanna"
"T.Kobkeatthawin"
"N.Boonnak"
_chemical_name_systematic
;
(E)-1-(2,4-Dinitrophenyl)-2-[1-(3-nitrophenyl)ethylidene]hydrazine
;
_cell_volume   4276.565
_exptl_crystal_colour 'yellow'
_exptl_crystal_density_diffrn 1.609
_exptl_crystal_description 'block'
_diffrn_ambient_temperature 100
#These two values have been output from a single CSD field.
_refine_ls_R_factor_gt 0.0769
_refine_ls_wR_factor_gt 0.0769
_symmetry_cell_setting monoclinic
_symmetry_space_group_name_H-M 'P 21/c'
_symmetry_Int_Tables_number 14
loop_
_symmetry_equiv_pos_site_id
_symmetry_equiv_pos_as_xyz
1 x,y,z
2 -x,1/2+y,1/2-z
3 -x,-y,-z
4 x,-1/2-y,-1/2+z
_cell_length_a 7.3309(2)
_cell_length_b 38.3569(8)
_cell_length_c 16.8027(4)
_cell_angle_alpha 90
_cell_angle_beta 115.158(1)
_cell_angle_gamma 90
_cell_formula_units_Z 12
loop_
_atom_type_symbol
_atom_type_radius_bond
C 0.68
H 0.23
N 0.68
O 0.68
loop_
_atom_site_label
_atom_site_type_symbol
_atom_site_fract_x
_atom_site_fract_y
_atom_site_fract_z
O1 O 1.0005(3) 0.92844(5) 0.64127(11)
O2 O 0.9875(3) 0.97771(5) 0.57674(12)
O3 O 0.6139(3) 0.99217(5) 0.26790(13)
O4 O 0.3472(3) 0.95996(5) 0.20354(11)
O5 O 0.2251(3) 0.75669(5) 0.35614(12)
O6 O 0.2531(4) 0.70272(5) 0.39490(14)
N1 N 0.7915(3) 0.87484(5) 0.55324(13)
H1 H 0.87640 0.88170 0.60600
N2 N 0.7233(3) 0.84100(5) 0.53897(13)
N3 N 0.9363(3) 0.94709(5) 0.57465(13)
N4 N 0.5092(3) 0.96680(6) 0.26601(14)
N5 N 0.3093(3) 0.73305(6) 0.40790(14)
C1 C 0.7255(4) 0.89752(6) 0.48449(15)
C2 C 0.7932(3) 0.93258(6) 0.49190(15)
C3 C 0.7244(4) 0.95503(6) 0.41999(16)
H2 H 0.77560 0.97810 0.42540
C4 C 0.5813(4) 0.94319(6) 0.34122(15)
C5 C 0.5038(4) 0.90923(6) 0.33111(16)
H3 H 0.40120 0.90190 0.27640
C6 C 0.5780(4) 0.88679(6) 0.40110(15)
H4 H 0.52960 0.86350 0.39360
C7 C 0.7690(4) 0.82152(6) 0.60742(15)
C8 C 0.6995(4) 0.78476(6) 0.58883(15)
C9 C 0.5443(4) 0.77613(6) 0.50711(15)
H5 H 0.48350 0.79340 0.46330
C10 C 0.4817(4) 0.74167(6) 0.49183(16)
C11 C 0.5691(4) 0.71538(6) 0.55242(17)
H6 H 0.52530 0.69190 0.53910
C12 C 0.7215(4) 0.72408(7) 0.63267(17)
H7 H 0.78390 0.70650 0.67540
C13 C 0.7846(4) 0.75853(6) 0.65159(16)
H8 H 0.88680 0.76430 0.70790
C14 C 0.8828(4) 0.83316(7) 0.70094(17)
H9 H 0.85570 0.85790 0.70580
H10 H 1.02760 0.82980 0.71910
H11 H 0.83960 0.81940 0.73900
O7 O 1.0090(3) 0.91068(5) 1.14668(12)
O8 O 0.8666(3) 0.86026(4) 1.10339(12)
O9 O 0.4725(4) 0.83754(6) 0.80216(16)
O10 O 0.2945(3) 0.87838(5) 0.71768(12)
O11 O 0.3878(3) 1.09140(5) 0.83376(11)
O12 O 0.5168(3) 1.14326(5) 0.84719(12)
N6 N 0.8365(3) 0.96614(5) 1.05174(13)
H12 H 0.91700 0.95950 1.10540
N7 N 0.8059(3) 1.00095(5) 1.03058(13)
N8 N 0.8860(3) 0.89130(5) 1.09028(14)
N9 N 0.4247(3) 0.86807(6) 0.78739(15)
N10 N 0.5170(3) 1.11357(6) 0.87446(14)
C15 C 0.7396(4) 0.94219(6) 0.98780(16)
C16 C 0.7587(4) 0.90569(6) 1.00424(15)
C17 C 0.6541(4) 0.88183(6) 0.93861(16)
H13 H 0.66870 0.85750 0.95060
C18 C 0.5301(4) 0.89357(6) 0.85670(16)
C19 C 0.5034(4) 0.92931(7) 0.83717(16)
H14 H 0.41420 0.93700 0.78000
C20 C 0.6080(4) 0.95299(6) 0.90184(15)
H15 H 0.59180 0.97720 0.88860
C21 C 0.8768(4) 1.02291(6) 1.09502(16)
C22 C 0.8458(4) 1.06007(6) 1.06806(15)
C23 C 0.6992(4) 1.06913(6) 0.98502(15)
H16 H 0.61630 1.05180 0.94590
C24 C 0.6771(4) 1.10396(6) 0.96097(15)
C25 C 0.7940(4) 1.13023(6) 1.01474(16)
H17 H 0.77640 1.15380 0.99570
C26 C 0.9374(4) 1.12102(6) 1.09710(16)
H18 H 1.01970 1.13850 1.13560
C27 C 0.9629(4) 1.08631(6) 1.12452(16)
H19 H 1.06020 1.08050 1.18180
C28 C 0.9801(4) 1.01340(7) 1.19055(16)
H20 H 0.92110 0.99190 1.20080
H21 H 0.96270 1.03230 1.22600
H22 H 1.12410 1.00980 1.20720
O13 O -0.1689(3) 0.74191(5) 0.38978(12)
O14 O -0.1244(3) 0.69066(5) 0.44882(12)
O15 O 0.2722(3) 0.67220(5) 0.75401(12)
O16 O 0.5339(3) 0.70556(5) 0.81641(12)
O17 O 0.5986(3) 0.91628(5) 0.66988(12)
O18 O 0.5778(3) 0.96939(5) 0.62208(14)
N11 N 0.0454(3) 0.79484(5) 0.47944(13)
H23 H -0.04840 0.78850 0.42800
N12 N 0.1181(3) 0.82847(5) 0.49206(13)
N13 N -0.0874(3) 0.72206(5) 0.45348(14)
N14 N 0.3685(3) 0.69869(5) 0.75661(13)
N15 N 0.5215(3) 0.93881(6) 0.61320(14)
C29 C 0.1188(4) 0.77154(6) 0.54654(16)
C30 C 0.0576(4) 0.73607(6) 0.53636(15)
C31 C 0.1358(4) 0.71267(6) 0.60596(16)
H24 H 0.08870 0.68930 0.59900
C32 C 0.2817(4) 0.72381(6) 0.68475(16)
C33 C 0.3507(4) 0.75844(6) 0.69789(16)
H25 H 0.45380 0.76550 0.75280
C34 C 0.2673(4) 0.78189(6) 0.63043(16)
H26 H 0.30940 0.80550 0.63990
C35 C 0.0635(4) 0.84757(6) 0.42229(16)
C36 C 0.1381(3) 0.88409(6) 0.43691(15)
C37 C 0.2878(3) 0.89426(6) 0.51852(15)
H27 H 0.34150 0.87820 0.56580
C38 C 0.3557(4) 0.92842(7) 0.52864(16)
C39 C 0.2798(4) 0.95319(7) 0.46272(17)
H28 H 0.32890 0.97650 0.47220
C40 C 0.1305(4) 0.94299(7) 0.38283(17)
H29 H 0.07470 0.95950 0.33660
C41 C 0.0606(4) 0.90885(6) 0.36922(16)
H30 H -0.04070 0.90220 0.31350
C42 C -0.0651(4) 0.83538(7) 0.33029(16)
H31 H -0.03930 0.81060 0.32510
H32 H -0.03230 0.84890 0.28860
H33 H -0.20760 0.83870 0.31720
#END
