
#######################################################################
#
#                 Cambridge Crystallographic Data Centre
#                                CCDC
#
#######################################################################
#
# If this CIF has been generated from an entry in the Cambridge
# Structural Database, then it will include bibliographic, chemical,
# crystal, experimental, refinement or atomic coordinate data resulting
# from the CCDC's data processing and validation procedures.
#
#######################################################################

data_CSD_CIF_QECYAA
_audit_creation_date 2012-11-07
_audit_creation_method CSD-ConQuest-V1
_database_code_CSD QECYAA
_database_code_depnum_ccdc_archive 'CCDC 899690'
_chemical_formula_sum 'C17 H19 N1 O3'
_chemical_formula_moiety
;
C17 H19 N1 O3
;
_journal_coeditor_code "IUCr LH5508"
_journal_coden_Cambridge 1370
_journal_volume 68
_journal_year 2012
_journal_page_first o2697
_journal_name_full 'Acta Crystallogr.,Sect.E:Struct.Rep.Online '
loop_
_publ_author_name
"R.Kant"
"V.K.Gupta"
"K.Kapoor"
"C.S.Shripanavar"
"K.Banerjee"
_chemical_name_systematic
;
2-Methoxyimino-2-(2-[(2-methylphenoxy)methyl]phenyl)ethanol
;
_cell_volume   3171.166
_exptl_crystal_colour 'colorless'
_exptl_crystal_density_diffrn 1.195
_exptl_crystal_description 'block'
_diffrn_ambient_temperature 293
_refine_special_details
;
The structure is disordered.

;
#These two values have been output from a single CSD field.
_refine_ls_R_factor_gt 0.0657
_refine_ls_wR_factor_gt 0.0657
_symmetry_cell_setting monoclinic
_symmetry_space_group_name_H-M 'C 2/c'
_symmetry_Int_Tables_number 15
loop_
_symmetry_equiv_pos_site_id
_symmetry_equiv_pos_as_xyz
1 x,y,z
2 -x,y,1/2-z
3 1/2+x,1/2+y,z
4 1/2-x,1/2+y,1/2-z
5 -x,-y,-z
6 x,-y,-1/2+z
7 -1/2-x,-1/2-y,-z
8 -1/2+x,-1/2-y,-1/2+z
_cell_length_a 21.0394(14)
_cell_length_b 20.4128(10)
_cell_length_c 7.6711(5)
_cell_angle_alpha 90
_cell_angle_beta 105.729(6)
_cell_angle_gamma 90
_cell_formula_units_Z 8
loop_
_atom_type_symbol
_atom_type_radius_bond
C 0.68
H 0.23
N 0.68
O 0.68
loop_
_atom_site_label
_atom_site_type_symbol
_atom_site_fract_x
_atom_site_fract_y
_atom_site_fract_z
O1 O 0.36797(11) 0.16370(9) 0.4565(3)
O2 O 0.2468(1) 0.14485(9) 0.7894(3)
N1 N 0.37326(13) 0.10321(12) 0.5462(4)
C1 C 0.38302(15) 0.11036(14) 0.7167(4)
C2 C 0.3638(2) 0.1523(2) 0.2722(5)
H1 H 0.36300 0.19340 0.21100
H2 H 0.32420 0.12830 0.21740
H3 H 0.40140 0.12730 0.26290
C3 C 0.39179(15) 0.17396(14) 0.8143(3)
C4 C 0.45455(16) 0.19128(17) 0.9162(4)
H4 H 0.48980 0.16300 0.92280
C5 C 0.4652(2) 0.2500(2) 1.0079(5)
H5 H 0.50770 0.26160 1.07360
C6 C 0.4141(3) 0.2911(2) 1.0029(5)
H6 H 0.42160 0.33070 1.06530
C7 C 0.3504(2) 0.27400(16) 0.9042(5)
H7 H 0.31550 0.30220 0.90230
C8 C 0.33831(16) 0.21524(14) 0.8083(4)
C9 C 0.27043(14) 0.19845(14) 0.7035(4)
H8 H 0.24180 0.23610 0.69740
H9 H 0.27010 0.18640 0.58100
C10 C 0.18363(16) 0.12314(14) 0.7087(4)
C11 C 0.16296(18) 0.06974(15) 0.7930(5)
C12 C 0.0989(2) 0.04775(18) 0.7189(6)
H10 H 0.08320 0.01290 0.77350
C13 C 0.0578(2) 0.0762(2) 0.5666(7)
H11 H 0.01520 0.06040 0.51950
C14 C 0.07975(19) 0.1270(2) 0.4858(5)
H12 H 0.05230 0.14570 0.38200
C15 C 0.14248(17) 0.15098(15) 0.5562(5)
H13 H 0.15720 0.18620 0.50060
C16 C 0.2088(2) 0.03868(18) 0.9558(5)
H14 H 0.24840 0.02500 0.92690
H15 H 0.18770 0.00130 0.99190
H16 H 0.21970 0.06980 1.05320
O3 O 0.4567(3) 0.0312(2) 0.8725(8)
H17 H 0.48370 0.01060 0.95530
H18? H 0.48060 0.03120 0.80070
C17 C 0.3946(2) 0.0467(2) 0.8269(7)
H19? H 0.37960 0.05220 0.93510
H20? H 0.36910 0.01160 0.75560
O4? O 0.3776(10) -0.0022(7) 0.757(2)
H21? H 0.37460 -0.02980 0.83610
C18? C 0.3637(19) 0.0532(6) 0.822(4)
H22? H 0.38750 0.05660 0.94910
H23? H 0.31680 0.05520 0.81230
#END
