
#######################################################################
#
#                 Cambridge Crystallographic Data Centre
#                                CCDC
#
#######################################################################
#
# If this CIF has been generated from an entry in the Cambridge
# Structural Database, then it will include bibliographic, chemical,
# crystal, experimental, refinement or atomic coordinate data resulting
# from the CCDC's data processing and validation procedures.
#
#######################################################################

data_CSD_CIF_QEDDIP
_audit_creation_date 2017-09-04
_audit_creation_method CSD-ConQuest-V1
_database_code_CSD QEDDIP
_database_code_depnum_ccdc_archive 'CCDC 1568998'
_chemical_formula_sum 'C16 H15 N1 O3'
_chemical_formula_moiety
;
C16 H15 N1 O3
;
_journal_coden_Cambridge 182
_journal_volume 53
_journal_year 2017
_journal_page_first 10291
_journal_name_full 'Chem.Commun. '
loop_
_publ_author_name
"V.N.G.Lindsay"
"R.A.Murphy"
"R.Sarpong"
_chemical_name_systematic
;
5-methyl-1a-(1-oxo-1-pyridin-4-yl)-3a,4-dihydro-1H-cyclopropa[c]indene-2,7(1aH
,3H)-dione
;
_cell_volume   1289.788
_exptl_crystal_colour 'colorless'
_exptl_crystal_density_diffrn 1.387
_exptl_special_details
;
Absolute configuration

;
_exptl_crystal_description 'plate'
_diffrn_ambient_temperature 100
_diffrn_special_details
;
twin

;
#These two values have been output from a single CSD field.
_refine_ls_R_factor_gt 0.0307
_refine_ls_wR_factor_gt 0.0307
_symmetry_cell_setting orthorhombic
_symmetry_space_group_name_H-M 'P 21 21 21'
_symmetry_Int_Tables_number 19
loop_
_symmetry_equiv_pos_site_id
_symmetry_equiv_pos_as_xyz
1 x,y,z
2 1/2-x,-y,1/2+z
3 -x,1/2+y,1/2-z
4 1/2+x,1/2-y,-z
_cell_length_a 6.3718(4)
_cell_length_b 11.6995(7)
_cell_length_c 17.3017(10)
_cell_angle_alpha 90
_cell_angle_beta 90
_cell_angle_gamma 90
_cell_formula_units_Z 4
loop_
_atom_type_symbol
_atom_type_radius_bond
C 0.68
H 0.23
N 0.68
O 0.68
loop_
_atom_site_label
_atom_site_type_symbol
_atom_site_fract_x
_atom_site_fract_y
_atom_site_fract_z
C1 C 0.9554(3) 0.11845(18) 0.21280(12)
C2 C 1.1249(4) 0.19488(18) 0.24700(12)
H1 H 1.26910 0.18660 0.22650
H2 H 1.08510 0.27410 0.26070
C3 C 1.0426(3) 0.10106(18) 0.29675(12)
C4 C 1.1814(3) 0.00025(18) 0.31115(12)
C5 C 1.1113(4) -0.07968(18) 0.37107(12)
H3 H 1.20730 -0.13510 0.39000
C6 C 0.9161(4) -0.07708(18) 0.39997(12)
C7 C 0.7626(4) 0.01322(19) 0.37571(12)
H4 H 0.66360 0.02720 0.41880
H5 H 0.68030 -0.01570 0.33130
C8 C 0.8647(4) 0.12643(18) 0.35294(12)
H6 H 0.91870 0.16730 0.39960
C9 C 0.7117(4) 0.20204(19) 0.30801(12)
H7 H 0.56550 0.18800 0.32490
H8 H 0.74500 0.28390 0.31570
C10 C 0.7407(3) 0.16820(17) 0.22347(12)
C11 C 0.9944(3) 0.03733(18) 0.14848(12)
C12 C 1.1837(3) 0.03191(19) 0.10817(12)
H9 H 1.29540 0.08200 0.12160
C13 C 1.2096(4) -0.0454(2) 0.04916(12)
H10 H 1.34010 -0.04880 0.02270
C14 C 0.8687(4) -0.11611(19) 0.06732(13)
H11 H 0.76020 -0.16790 0.05350
C15 C 0.8381(4) -0.04039(18) 0.12731(12)
H12 H 0.70890 -0.04100 0.15470
C16 C 0.8353(4) -0.1659(2) 0.45444(13)
H13 H 0.93980 -0.22670 0.46010
H14 H 0.70460 -0.19820 0.43400
H15 H 0.80830 -0.13100 0.50500
N1 N 1.0527(3) -0.11714(16) 0.02794(10)
O1 O 1.3393(2) -0.01598(13) 0.27316(9)
O2 O 0.6125(2) 0.17868(12) 0.17229(8)
O3 O 1.0760(3) -0.18635(15) -0.03077(10)
#END
