
#######################################################################
#
#                 Cambridge Crystallographic Data Centre
#                                CCDC
#
#######################################################################
#
# If this CIF has been generated from an entry in the Cambridge
# Structural Database, then it will include bibliographic, chemical,
# crystal, experimental, refinement or atomic coordinate data resulting
# from the CCDC's data processing and validation procedures.
#
#######################################################################

data_CSD_CIF_QEDGOY
_audit_creation_date 2017-09-04
_audit_creation_method CSD-ConQuest-V1
_database_code_CSD QEDGOY
_database_code_depnum_ccdc_archive 'CCDC 1572473'
_chemical_formula_sum 'C12 H11 N3 O2'
_chemical_formula_moiety
;
C12 H11 N3 O2
;
_journal_coden_Cambridge 35
_journal_volume 82
_journal_year 2017
_journal_page_first 8864
_journal_name_full 'J.Org.Chem. '
loop_
_publ_author_name
"Adrian Huang"
"Kellie Wo"
"So Y.C.Lee"
"N.Kneitschel"
"Jennifer Chang"
"K.Zhu"
"T.Mello"
"L.Bancroft"
"N.J.Norman"
"Shao-Liang Zheng"
_chemical_name_systematic
;
3-nitro-1-(3-phenylprop-2-en-1-yl)-1H-pyrazole
;
_cell_volume   1123.325
_exptl_crystal_colour 'colorless'
_exptl_crystal_density_diffrn 1.355
_exptl_crystal_description 'plate'
_diffrn_ambient_temperature 100
_diffrn_special_details
;
twin

;
#These two values have been output from a single CSD field.
_refine_ls_R_factor_gt 0.0573
_refine_ls_wR_factor_gt 0.0573
_symmetry_cell_setting triclinic
_symmetry_space_group_name_H-M 'P -1'
_symmetry_Int_Tables_number 2
loop_
_symmetry_equiv_pos_site_id
_symmetry_equiv_pos_as_xyz
1 x,y,z
2 -x,-y,-z
_cell_length_a 6.9102(2)
_cell_length_b 7.5569(3)
_cell_length_c 21.8746(7)
_cell_angle_alpha 95.895(2)
_cell_angle_beta 96.939(2)
_cell_angle_gamma 94.396(2)
_cell_formula_units_Z 4
loop_
_atom_type_symbol
_atom_type_radius_bond
C 0.68
H 0.23
N 0.68
O 0.68
loop_
_atom_site_label
_atom_site_type_symbol
_atom_site_fract_x
_atom_site_fract_y
_atom_site_fract_z
C1 C 0.1178(4) 0.4235(4) 0.61692(12)
C2 C 0.1341(4) 0.2764(4) 0.57457(13)
H1 H 0.15460 0.27420 0.53230
C3 C 0.1133(4) 0.1355(4) 0.60876(13)
H2 H 0.11760 0.01280 0.59470
C4 C 0.0629(4) 0.1099(4) 0.72118(13)
H3 H -0.01880 -0.00410 0.70790
H4 H -0.00570 0.18310 0.75040
C5 C 0.2564(4) 0.0721(4) 0.75364(13)
H5 H 0.33830 0.00350 0.73060
C6 C 0.3201(4) 0.1283(4) 0.81240(13)
H6 H 0.23990 0.20240 0.83410
C7 C 0.5036(4) 0.0868(4) 0.84736(13)
C8 C 0.5259(4) 0.1072(4) 0.91192(13)
H7 H 0.42570 0.15550 0.93280
C9 C 0.6912(4) 0.0585(4) 0.94620(14)
H8 H 0.70340 0.07300 0.99020
C10 C 0.8391(4) -0.0115(4) 0.91629(14)
H9 H 0.95160 -0.04730 0.93960
C11 C 0.8217(4) -0.0289(4) 0.85202(14)
H10 H 0.92370 -0.07480 0.83140
C12 C 0.6568(4) 0.0201(4) 0.81785(13)
H11 H 0.64690 0.00850 0.77390
N1 N 0.0888(3) 0.3823(3) 0.67323(10)
N2 N 0.0853(3) 0.2048(3) 0.66679(10)
N3 N 0.1262(4) 0.6078(4) 0.60662(11)
O1 O 0.1026(4) 0.7212(3) 0.64903(11)
O2 O 0.1592(3) 0.6449(3) 0.5550(1)
C13 C 0.6186(4) 0.1572(4) 0.60971(13)
C14 C 0.6358(4) 0.2844(4) 0.56849(13)
H12 H 0.65870 0.26700 0.52640
C15 C 0.6117(4) 0.4405(4) 0.60322(13)
H13 H 0.61520 0.55630 0.58980
C16 C 0.5673(4) 0.5195(4) 0.71647(13)
H14 H 0.47440 0.46340 0.74140
H15 H 0.51710 0.63200 0.70460
C17 C 0.7649(4) 0.5591(4) 0.75416(13)
H16 H 0.86290 0.62960 0.73830
C18 C 0.8086(4) 0.5004(4) 0.80855(13)
H17 H 0.70620 0.43380 0.82380
C19 C 0.9987(4) 0.5271(4) 0.84785(13)
C20 C 1.1660(4) 0.6155(4) 0.83002(14)
H18 H 1.15860 0.66060 0.79090
C21 C 1.3409(4) 0.6373(4) 0.86889(14)
H19 H 1.45270 0.69710 0.85620
C22 C 1.3551(4) 0.5731(4) 0.92604(14)
H20 H 1.47580 0.58960 0.95270
C23 C 1.1916(4) 0.4842(4) 0.94424(14)
H21 H 1.20060 0.43890 0.98330
C24 C 1.0162(4) 0.4617(4) 0.90545(13)
H22 H 0.90540 0.40050 0.91820
N4 N 0.5871(3) 0.2243(3) 0.66604(11)
N5 N 0.5818(3) 0.3984(3) 0.6605(1)
N6 N 0.6324(4) -0.0312(4) 0.59828(12)
O3 O 0.6056(4) -0.1258(3) 0.63971(12)
O4 O 0.6727(3) -0.0898(3) 0.54697(10)
#END
