
#######################################################################
#
#                 Cambridge Crystallographic Data Centre
#                                CCDC
#
#######################################################################
#
# If this CIF has been generated from an entry in the Cambridge
# Structural Database, then it will include bibliographic, chemical,
# crystal, experimental, refinement or atomic coordinate data resulting
# from the CCDC's data processing and validation procedures.
#
#######################################################################

data_CSD_CIF_QEDGEO
_audit_creation_date 2017-09-04
_audit_creation_method CSD-ConQuest-V1
_database_code_CSD QEDGEO
_database_code_depnum_ccdc_archive 'CCDC 1572471'
_chemical_formula_sum 'C12 H11 N3 O3'
_chemical_formula_moiety
;
C12 H11 N3 O3
;
_journal_coden_Cambridge 35
_journal_volume 82
_journal_year 2017
_journal_page_first 8864
_journal_name_full 'J.Org.Chem. '
loop_
_publ_author_name
"Adrian Huang"
"Kellie Wo"
"So Y.C.Lee"
"N.Kneitschel"
"Jennifer Chang"
"K.Zhu"
"T.Mello"
"L.Bancroft"
"N.J.Norman"
"Shao-Liang Zheng"
_chemical_name_systematic
;
1-(4-methylphenyl)-2-(3-nitro-1H-pyrazol-1-yl)ethan-1-one
;
_cell_volume   1136.618
_exptl_crystal_colour 'colorless'
_exptl_crystal_density_diffrn 1.433
_exptl_crystal_description 'plate'
_diffrn_ambient_temperature 100
#These two values have been output from a single CSD field.
_refine_ls_R_factor_gt 0.0445
_refine_ls_wR_factor_gt 0.0445
_symmetry_cell_setting orthorhombic
_symmetry_space_group_name_H-M 'P n a 21'
_symmetry_Int_Tables_number 33
loop_
_symmetry_equiv_pos_site_id
_symmetry_equiv_pos_as_xyz
1 x,y,z
2 -x,-y,1/2+z
3 1/2+x,1/2-y,z
4 1/2-x,1/2+y,1/2+z
_cell_length_a 8.9557(3)
_cell_length_b 26.4849(10)
_cell_length_c 4.7920(2)
_cell_angle_alpha 90
_cell_angle_beta 90
_cell_angle_gamma 90
_cell_formula_units_Z 4
loop_
_atom_type_symbol
_atom_type_radius_bond
C 0.68
H 0.23
N 0.68
O 0.68
loop_
_atom_site_label
_atom_site_type_symbol
_atom_site_fract_x
_atom_site_fract_y
_atom_site_fract_z
C1 C 0.7588(4) 0.42819(13) 0.2942(8)
C2 C 0.8881(4) 0.42264(13) 0.4527(8)
H1 H 0.96260 0.39720 0.43940
C3 C 0.8816(3) 0.46259(12) 0.6315(8)
H2 H 0.95350 0.47100 0.76980
C4 C 0.6988(3) 0.53324(13) 0.7144(8)
H3 H 0.73140 0.53280 0.91170
H4 H 0.58820 0.53330 0.71140
C5 C 0.7566(3) 0.58096(12) 0.5738(9)
C6 C 0.7167(3) 0.62980(13) 0.7028(8)
C7 C 0.7867(4) 0.67353(13) 0.6035(9)
H5 H 0.85760 0.67160 0.45650
C8 C 0.7510(4) 0.71993(13) 0.7229(9)
H6 H 0.79980 0.74950 0.65750
C9 C 0.6458(4) 0.72417(13) 0.9352(9)
C10 C 0.5757(4) 0.68002(13) 1.0284(8)
H7 H 0.50210 0.68210 1.17070
C11 C 0.6117(3) 0.63358(13) 0.9173(8)
H8 H 0.56480 0.60400 0.98700
C12 C 0.6115(4) 0.77459(14) 1.0625(10)
H9 H 0.70310 0.79480 1.07170
H10 H 0.57180 0.76970 1.25120
H11 H 0.53730 0.79220 0.94790
N1 N 0.6761(3) 0.46785(10) 0.3651(7)
N2 N 0.7530(3) 0.48839(10) 0.5757(7)
N3 N 0.7067(3) 0.39555(11) 0.0745(7)
O1 O 0.5979(2) 0.40891(9) -0.0642(5)
O2 O 0.7743(3) 0.35571(9) 0.0412(7)
O3 O 0.8338(3) 0.57761(9) 0.3638(6)
#END
