
#######################################################################
#
#                 Cambridge Crystallographic Data Centre
#                                CCDC
#
#######################################################################
#
# If this CIF has been generated from an entry in the Cambridge
# Structural Database, then it will include bibliographic, chemical,
# crystal, experimental, refinement or atomic coordinate data resulting
# from the CCDC's data processing and validation procedures.
#
#######################################################################

data_CSD_CIF_QEDHEP
_audit_creation_date 2017-09-04
_audit_creation_method CSD-ConQuest-V1
_database_code_CSD QEDHEP
_database_code_depnum_ccdc_archive 'CCDC 1572476'
_chemical_formula_sum 'C9 H6 N4 O4'
_chemical_formula_moiety
;
C9 H6 N4 O4
;
_journal_coden_Cambridge 35
_journal_volume 82
_journal_year 2017
_journal_page_first 8864
_journal_name_full 'J.Org.Chem. '
loop_
_publ_author_name
"Adrian Huang"
"Kellie Wo"
"So Y.C.Lee"
"N.Kneitschel"
"Jennifer Chang"
"K.Zhu"
"T.Mello"
"L.Bancroft"
"N.J.Norman"
"Shao-Liang Zheng"
_chemical_name_systematic
;
3-nitro-1-(4-nitrophenyl)-1H-pyrazole
;
_cell_volume    931.450
_exptl_crystal_colour 'colorless'
_exptl_crystal_density_diffrn 1.67
_exptl_crystal_description 'block'
_diffrn_ambient_temperature 100
#These two values have been output from a single CSD field.
_refine_ls_R_factor_gt 0.0335
_refine_ls_wR_factor_gt 0.0335
_symmetry_cell_setting orthorhombic
_symmetry_space_group_name_H-M 'P c a 21'
_symmetry_Int_Tables_number 29
loop_
_symmetry_equiv_pos_site_id
_symmetry_equiv_pos_as_xyz
1 x,y,z
2 -x,-y,1/2+z
3 1/2+x,-y,z
4 1/2-x,y,1/2+z
_cell_length_a 17.1640(7)
_cell_length_b 4.9032(2)
_cell_length_c 11.0678(4)
_cell_angle_alpha 90
_cell_angle_beta 90
_cell_angle_gamma 90
_cell_formula_units_Z 4
loop_
_atom_type_symbol
_atom_type_radius_bond
C 0.68
H 0.23
N 0.68
O 0.68
loop_
_atom_site_label
_atom_site_type_symbol
_atom_site_fract_x
_atom_site_fract_y
_atom_site_fract_z
C1 C 0.22452(11) 1.1965(4) 0.55794(18)
C2 C 0.22968(12) 1.1420(4) 0.68133(19)
H1 H 0.20290 1.22850 0.74590
C3 C 0.28238(13) 0.9351(4) 0.68691(19)
H2 H 0.30030 0.84660 0.75800
C4 C 0.36040(12) 0.6803(4) 0.53136(19)
C5 C 0.37694(12) 0.6548(4) 0.40884(18)
H3 H 0.35160 0.76850 0.35150
C6 C 0.43089(12) 0.4612(4) 0.3711(2)
H4 H 0.44330 0.44080 0.28800
C7 C 0.46612(12) 0.2987(4) 0.4581(2)
C8 C 0.44991(11) 0.3220(4) 0.5797(2)
H5 H 0.47520 0.20780 0.63690
C9 C 0.39610(12) 0.5146(4) 0.6171(2)
H6 H 0.38370 0.53350 0.70030
N1 N 0.26936(10) 1.0419(3) 0.48873(16)
N2 N 0.3047(1) 0.8785(3) 0.57084(16)
N3 N 0.17851(10) 1.4124(3) 0.50342(16)
N4 N 0.52318(10) 0.0901(3) 0.42041(17)
O1 O 0.18283(9) 1.4465(3) 0.39371(13)
O2 O 0.13874(9) 1.5513(3) 0.57192(15)
O3 O 0.54117(10) 0.0808(3) 0.31294(15)
O4 O 0.54835(9) -0.0656(3) 0.49742(15)
#END
