
#######################################################################
#
#                 Cambridge Crystallographic Data Centre
#                                CCDC
#
#######################################################################
#
# If this CIF has been generated from an entry in the Cambridge
# Structural Database, then it will include bibliographic, chemical,
# crystal, experimental, refinement or atomic coordinate data resulting
# from the CCDC's data processing and validation procedures.
#
#######################################################################

data_CSD_CIF_QEDHUF
_audit_creation_date 2017-09-04
_audit_creation_method CSD-ConQuest-V1
_database_code_CSD QEDHUF
_database_code_depnum_ccdc_archive 'CCDC 1572479'
_chemical_formula_sum 'C10 H6 N4 O2'
_chemical_formula_moiety
;
C10 H6 N4 O2
;
_journal_coden_Cambridge 35
_journal_volume 82
_journal_year 2017
_journal_page_first 8864
_journal_name_full 'J.Org.Chem. '
loop_
_publ_author_name
"Adrian Huang"
"Kellie Wo"
"So Y.C.Lee"
"N.Kneitschel"
"Jennifer Chang"
"K.Zhu"
"T.Mello"
"L.Bancroft"
"N.J.Norman"
"Shao-Liang Zheng"
_chemical_name_systematic
;
2-(3-nitro-1H-pyrazol-1-yl)benzonitrile
;
_cell_volume   1894.961
_exptl_crystal_colour 'colorless'
_exptl_crystal_density_diffrn 1.502
_exptl_crystal_description 'block'
_diffrn_ambient_temperature 100
#These two values have been output from a single CSD field.
_refine_ls_R_factor_gt 0.0354
_refine_ls_wR_factor_gt 0.0354
_symmetry_cell_setting monoclinic
_symmetry_space_group_name_H-M 'P 21/c'
_symmetry_Int_Tables_number 14
loop_
_symmetry_equiv_pos_site_id
_symmetry_equiv_pos_as_xyz
1 x,y,z
2 -x,1/2+y,1/2-z
3 -x,-y,-z
4 x,-1/2-y,-1/2+z
_cell_length_a 11.9915(3)
_cell_length_b 14.3694(4)
_cell_length_c 11.2447(3)
_cell_angle_alpha 90
_cell_angle_beta 102.0398(11)
_cell_angle_gamma 90
_cell_formula_units_Z 8
loop_
_atom_type_symbol
_atom_type_radius_bond
C 0.68
H 0.23
N 0.68
O 0.68
loop_
_atom_site_label
_atom_site_type_symbol
_atom_site_fract_x
_atom_site_fract_y
_atom_site_fract_z
C1 C 0.47321(13) 0.37045(12) 1.01703(14)
C2 C 0.36928(14) 0.32827(12) 0.96761(15)
H1 H 0.30980 0.31120 1.00740
C3 C 0.37374(13) 0.31733(12) 0.84790(15)
H2 H 0.31650 0.29050 0.78620
C4 C 0.51530(14) 0.35795(11) 0.72305(14)
C5 C 0.43922(14) 0.38475(12) 0.61887(15)
H3 H 0.36320 0.40100 0.62260
C6 C 0.47403(14) 0.38790(12) 0.50832(15)
H4 H 0.42150 0.40610 0.43670
C7 C 0.58464(14) 0.36467(12) 0.50212(14)
H5 H 0.60800 0.36730 0.42650
C8 C 0.66144(14) 0.33753(12) 0.60632(15)
H6 H 0.73720 0.32130 0.60190
C9 C 0.62765(13) 0.33403(11) 0.71788(14)
C10 C 0.70931(13) 0.30428(11) 0.82398(14)
N1 N 0.53972(11) 0.38626(10) 0.93849(12)
N2 N 0.47610(11) 0.35219(10) 0.83391(12)
N3 N 0.51245(12) 0.39725(10) 1.14322(12)
N4 N 0.77797(12) 0.28035(10) 0.90523(13)
O1 O 0.60682(10) 0.43277(10) 1.17520(11)
O2 O 0.44679(11) 0.38135(10) 1.21139(11)
C11 C 0.14442(12) 0.48053(11) 0.55801(14)
C12 C 0.12742(13) 0.57446(12) 0.57936(15)
H7 H 0.12190 0.62510 0.52410
C13 C 0.12059(13) 0.57607(11) 0.69923(15)
H8 H 0.10930 0.62950 0.74510
C14 C 0.12668(13) 0.45438(11) 0.85869(14)
C15 C 0.17935(14) 0.50527(12) 0.95936(14)
H9 H 0.21990 0.56060 0.94970
C16 C 0.17222(14) 0.47461(12) 1.07472(14)
H10 H 0.20760 0.50960 1.14410
C17 C 0.11386(14) 0.39334(12) 1.08980(14)
H11 H 0.11030 0.37260 1.16910
C18 C 0.06081(13) 0.34260(12) 0.98896(14)
H12 H 0.02080 0.28710 0.99910
C19 C 0.06627(13) 0.37311(11) 0.87228(14)
C20 C 0.00485(13) 0.32129(11) 0.76964(14)
N5 N 0.14860(11) 0.42577(10) 0.65380(11)
N6 N 0.13302(11) 0.48675(9) 0.74053(11)
N7 N 0.15804(11) 0.43992(10) 0.44399(12)
N8 N -0.04769(12) 0.27791(10) 0.69183(12)
O3 O 0.17717(11) 0.35621(8) 0.43968(11)
O4 O 0.14921(11) 0.49352(9) 0.35726(10)
#END
