
#######################################################################
#
#                 Cambridge Crystallographic Data Centre
#                                CCDC
#
#######################################################################
#
# If this CIF has been generated from an entry in the Cambridge
# Structural Database, then it will include bibliographic, chemical,
# crystal, experimental, refinement or atomic coordinate data resulting
# from the CCDC's data processing and validation procedures.
#
#######################################################################

data_CSD_CIF_QEDHOZ
_audit_creation_date 2017-09-04
_audit_creation_method CSD-ConQuest-V1
_database_code_CSD QEDHOZ
_database_code_depnum_ccdc_archive 'CCDC 1572478'
_chemical_formula_sum 'C10 H6 N4 O2'
_chemical_formula_moiety
;
C10 H6 N4 O2
;
_journal_coden_Cambridge 35
_journal_volume 82
_journal_year 2017
_journal_page_first 8864
_journal_name_full 'J.Org.Chem. '
loop_
_publ_author_name
"Adrian Huang"
"Kellie Wo"
"So Y.C.Lee"
"N.Kneitschel"
"Jennifer Chang"
"K.Zhu"
"T.Mello"
"L.Bancroft"
"N.J.Norman"
"Shao-Liang Zheng"
_chemical_name_systematic
;
4-(3-nitro-1H-pyrazol-1-yl)benzonitrile
;
_cell_volume    956.247
_exptl_crystal_colour 'colorless'
_exptl_crystal_density_diffrn 1.488
_exptl_crystal_description 'needle'
_diffrn_ambient_temperature 100
_refine_special_details
;
C1,C10,C2,C3,C4,C5,C6,C7,C8,C9,N1,N2,N3,N4,O1,O2 and 
C10A,C1A,C2A,C3A,C4A,C5A,C6A,C7A,C8A,C9A,N1A,N2A,N3A,N4A,O1A,O2A disordered 
over two sites with occupancies 0.9141:0.0859.
;
#These two values have been output from a single CSD field.
_refine_ls_R_factor_gt 0.0352
_refine_ls_wR_factor_gt 0.0352
_symmetry_cell_setting monoclinic
_symmetry_space_group_name_H-M 'P 21/n'
_symmetry_Int_Tables_number 14
loop_
_symmetry_equiv_pos_site_id
_symmetry_equiv_pos_as_xyz
1 x,y,z
2 1/2-x,1/2+y,1/2-z
3 -x,-y,-z
4 -1/2+x,-1/2-y,-1/2+z
_cell_length_a 3.7941(2)
_cell_length_b 13.5676(10)
_cell_length_c 18.5776(13)
_cell_angle_alpha 90
_cell_angle_beta 90.690(4)
_cell_angle_gamma 90
_cell_formula_units_Z 4
loop_
_atom_type_symbol
_atom_type_radius_bond
C 0.68
H 0.23
N 0.68
O 0.68
loop_
_atom_site_label
_atom_site_type_symbol
_atom_site_fract_x
_atom_site_fract_y
_atom_site_fract_z
N1 N 0.0971(3) 0.46708(9) 0.63809(7)
C1 C -0.0634(5) 0.49791(13) 0.69660(8)
C2 C -0.0905(4) 0.42809(11) 0.75108(8)
H1 H -0.19450 0.43500 0.79710
C3 C 0.0691(4) 0.34728(11) 0.72225(7)
H2 H 0.09980 0.28510 0.74490
N2 N 0.1768(3) 0.37249(9) 0.65454(6)
C4 C 0.3434(5) 0.31111(12) 0.60263(9)
C5 C 0.4418(4) 0.35078(11) 0.53714(8)
H3 H 0.40170 0.41850 0.52710
C6 C 0.5987(4) 0.29085(13) 0.48657(9)
H4 H 0.66850 0.31740 0.44160
C7 C 0.6543(5) 0.19161(13) 0.50161(9)
C8 C 0.5569(4) 0.15241(12) 0.56769(9)
H5 H 0.59860 0.08480 0.57800
C9 C 0.3995(4) 0.21213(12) 0.61822(8)
H6 H 0.33020 0.18580 0.66330
C10 C 0.8152(4) 0.12825(12) 0.44882(9)
N3 N 0.9395(10) 0.0762(2) 0.40877(16)
N4 N -0.1952(5) 0.59714(11) 0.69960(9)
O1 O -0.1158(3) 0.65613(8) 0.65292(7)
O2 O -0.3823(6) 0.61735(14) 0.75148(7)
N5? N 0.599(5) 0.2642(13) 0.5054(8)
C11? C 0.702(7) 0.1748(15) 0.4871(10)
C12? C 0.616(4) 0.1084(12) 0.5406(8)
H7? H 0.66350 0.03960 0.54150
C13? C 0.451(5) 0.1623(12) 0.5916(9)
H8? H 0.35450 0.13670 0.63470
N6? N 0.446(3) 0.2571(8) 0.5718(6)
C14? C 0.294(7) 0.3384(12) 0.6097(10)
C15? C 0.246(4) 0.4278(9) 0.5709(8)
H9? H 0.32280 0.43390 0.52260
C16? C 0.084(4) 0.5057(12) 0.6054(8)
H10? H 0.05400 0.56740 0.58180
C17? C -0.036(7) 0.4921(15) 0.6759(10)
C18? C 0.020(4) 0.4066(11) 0.7152(9)
H11? H -0.05540 0.39970 0.76360
C19? C 0.188(4) 0.3340(12) 0.6801(9)
H12? H 0.23830 0.27520 0.70600
C20? C -0.211(9) 0.5754(18) 0.7103(13)
N7? N -0.408(9) 0.629(2) 0.7354(14)
N8? N 0.870(4) 0.1614(9) 0.4192(7)
O3? O 0.914(4) 0.2332(9) 0.3810(7)
O4? O 0.966(11) 0.0804(18) 0.3968(18)
N1B N 0.9029(3) 0.53292(9) 0.36191(7)
C1B C 1.0634(5) 0.50209(13) 0.30340(8)
C2B C 1.0905(4) 0.57191(11) 0.24892(8)
H1B H 1.19450 0.56500 0.20290
C3B C 0.9309(4) 0.65272(11) 0.27775(7)
H2B H 0.90020 0.71490 0.25510
N2B N 0.8232(3) 0.62751(9) 0.34546(6)
C4B C 0.6566(5) 0.68889(12) 0.39737(9)
C5B C 0.5582(4) 0.64922(11) 0.46286(8)
H3B H 0.59830 0.58150 0.47290
C6B C 0.4013(4) 0.70915(13) 0.51343(9)
H4B H 0.33150 0.68260 0.55840
C7B C 0.3457(5) 0.80839(13) 0.49839(9)
C8B C 0.4431(4) 0.84759(12) 0.43231(9)
H5B H 0.40140 0.91520 0.42200
C9B C 0.6005(4) 0.78787(12) 0.38178(8)
H6B H 0.66980 0.81420 0.33670
C10B C 0.1848(4) 0.87175(12) 0.55118(9)
N3B N 0.0605(10) 0.9238(2) 0.59123(16)
N4B N 1.1952(5) 0.40286(11) 0.30040(9)
O1B O 1.1158(3) 0.34387(8) 0.34708(7)
O2B O 1.3823(6) 0.38265(14) 0.24852(7)
#END
