
#######################################################################
#
#                 Cambridge Crystallographic Data Centre
#                                CCDC
#
#######################################################################
#
# If this CIF has been generated from an entry in the Cambridge
# Structural Database, then it will include bibliographic, chemical,
# crystal, experimental, refinement or atomic coordinate data resulting
# from the CCDC's data processing and validation procedures.
#
#######################################################################

data_CSD_CIF_QEDJAN
_audit_creation_date 2017-09-04
_audit_creation_method CSD-ConQuest-V1
_database_code_CSD QEDJAN
_database_code_depnum_ccdc_archive 'CCDC 1572480'
_chemical_formula_sum 'C12 H11 N3 O4'
_chemical_formula_moiety
;
C12 H11 N3 O4
;
_journal_coden_Cambridge 35
_journal_volume 82
_journal_year 2017
_journal_page_first 8864
_journal_name_full 'J.Org.Chem. '
loop_
_publ_author_name
"Adrian Huang"
"Kellie Wo"
"So Y.C.Lee"
"N.Kneitschel"
"Jennifer Chang"
"K.Zhu"
"T.Mello"
"L.Bancroft"
"N.J.Norman"
"Shao-Liang Zheng"
_chemical_name_systematic
;
ethyl 4-(3-nitro-1H-pyrazol-1-yl)benzoate
;
_cell_volume   1159.285
_exptl_crystal_colour 'colorless'
_exptl_crystal_density_diffrn 1.497
_exptl_crystal_description 'needle'
_diffrn_ambient_temperature 100
#These two values have been output from a single CSD field.
_refine_ls_R_factor_gt 0.0329
_refine_ls_wR_factor_gt 0.0329
_symmetry_cell_setting monoclinic
_symmetry_space_group_name_H-M 'P 21/n'
_symmetry_Int_Tables_number 14
loop_
_symmetry_equiv_pos_site_id
_symmetry_equiv_pos_as_xyz
1 x,y,z
2 1/2-x,1/2+y,1/2-z
3 -x,-y,-z
4 -1/2+x,-1/2-y,-1/2+z
_cell_length_a 3.79733(6)
_cell_length_b 11.3573(2)
_cell_length_c 26.8872(4)
_cell_angle_alpha 90
_cell_angle_beta 91.2826(10)
_cell_angle_gamma 90
_cell_formula_units_Z 4
loop_
_atom_type_symbol
_atom_type_radius_bond
C 0.68
H 0.23
N 0.68
O 0.68
loop_
_atom_site_label
_atom_site_type_symbol
_atom_site_fract_x
_atom_site_fract_y
_atom_site_fract_z
C1 C 1.0794(4) 0.33707(13) 0.55261(5)
C2 C 1.1736(4) 0.45484(13) 0.55920(5)
H1 H 1.29340 0.50500 0.53690
C3 C 1.0524(4) 0.48073(13) 0.60530(5)
H2 H 1.07080 0.55440 0.62190
C4 C 0.7442(3) 0.36252(12) 0.67036(5)
C5 C 0.7198(4) 0.45561(12) 0.70376(5)
H3 H 0.79850 0.53200 0.69490
C6 C 0.5791(4) 0.43533(12) 0.75010(5)
H4 H 0.56320 0.49830 0.77320
C7 C 0.4608(3) 0.32371(12) 0.76322(5)
C8 C 0.4830(4) 0.23225(12) 0.72873(5)
H5 H 0.40040 0.15610 0.73720
C9 C 0.6230(4) 0.25092(12) 0.68251(5)
H6 H 0.63640 0.18820 0.65920
C10 C 0.3118(4) 0.29686(12) 0.81257(5)
C11 C 0.1244(4) 0.37032(13) 0.89015(5)
H7 H 0.31040 0.33490 0.91180
H8 H -0.07730 0.31520 0.88810
C12 C 0.0095(4) 0.48643(14) 0.91115(6)
H9 H -0.18230 0.51880 0.89040
H10 H 0.20870 0.54130 0.91170
H11 H -0.07280 0.47480 0.94510
N1 N 0.9132(3) 0.29015(10) 0.59055(4)
N2 N 0.8991(3) 0.38058(10) 0.62321(4)
N3 N 1.1469(3) 0.26442(11) 0.50953(4)
O1 O 1.0213(3) 0.16547(9) 0.50736(4)
O2 O 1.3284(3) 0.30937(10) 0.47697(4)
O3 O 0.2601(3) 0.39241(9) 0.84039(3)
O4 O 0.2424(3) 0.19772(9) 0.82608(4)
#END
