
#######################################################################
#
#                 Cambridge Crystallographic Data Centre
#                                CCDC
#
#######################################################################
#
# If this CIF has been generated from an entry in the Cambridge
# Structural Database, then it will include bibliographic, chemical,
# crystal, experimental, refinement or atomic coordinate data resulting
# from the CCDC's data processing and validation procedures.
#
#######################################################################

data_CSD_CIF_QEDJUH
_audit_creation_date 2017-09-04
_audit_creation_method CSD-ConQuest-V1
_database_code_CSD QEDJUH
_database_code_depnum_ccdc_archive 'CCDC 1572484'
_chemical_formula_sum 'C9 H5 N5 O2'
_chemical_formula_moiety
;
C9 H5 N5 O2
;
_journal_coden_Cambridge 35
_journal_volume 82
_journal_year 2017
_journal_page_first 8864
_journal_name_full 'J.Org.Chem. '
loop_
_publ_author_name
"Adrian Huang"
"Kellie Wo"
"So Y.C.Lee"
"N.Kneitschel"
"Jennifer Chang"
"K.Zhu"
"T.Mello"
"L.Bancroft"
"N.J.Norman"
"Shao-Liang Zheng"
_chemical_name_systematic
;
6-(3-nitro-1H-pyrazol-1-yl)pyridine-3-carbonitrile
;
_cell_volume    916.592
_exptl_crystal_colour 'colorless'
_exptl_crystal_density_diffrn 1.559
_exptl_crystal_description 'needle'
_diffrn_ambient_temperature 100
#These two values have been output from a single CSD field.
_refine_ls_R_factor_gt 0.0522
_refine_ls_wR_factor_gt 0.0522
_symmetry_cell_setting monoclinic
_symmetry_space_group_name_H-M 'P 21/n'
_symmetry_Int_Tables_number 14
loop_
_symmetry_equiv_pos_site_id
_symmetry_equiv_pos_as_xyz
1 x,y,z
2 1/2-x,1/2+y,1/2-z
3 -x,-y,-z
4 -1/2+x,-1/2-y,-1/2+z
_cell_length_a 3.8200(3)
_cell_length_b 13.4306(11)
_cell_length_c 17.8756(14)
_cell_angle_alpha 90
_cell_angle_beta 91.917(3)
_cell_angle_gamma 90
_cell_formula_units_Z 4
loop_
_atom_type_symbol
_atom_type_radius_bond
C 0.68
H 0.23
N 0.68
O 0.68
loop_
_atom_site_label
_atom_site_type_symbol
_atom_site_fract_x
_atom_site_fract_y
_atom_site_fract_z
C1 C 1.0518(5) 0.50001(16) 0.30086(12)
C2 C 1.0824(6) 0.42566(16) 0.24675(13)
H1 H 1.18900 0.42970 0.19960
C3 C 0.9223(6) 0.34606(17) 0.27816(12)
H2 H 0.89240 0.28190 0.25650
C4 C 0.6442(5) 0.31618(17) 0.39977(12)
C5 C 0.5715(6) 0.35310(17) 0.46975(13)
H3 H 0.62830 0.41960 0.48360
C6 C 0.4125(6) 0.28885(18) 0.51871(13)
H4 H 0.35520 0.31050 0.56740
C7 C 0.3380(5) 0.19200(17) 0.49542(12)
C8 C 0.4198(6) 0.16286(18) 0.42345(13)
H5 H 0.36510 0.09700 0.40770
C9 C 0.1793(6) 0.12224(18) 0.54499(13)
N1 N 0.8896(5) 0.47261(13) 0.3618(1)
N2 N 0.8129(5) 0.37580(13) 0.34654(10)
N3 N 0.5726(5) 0.22423(14) 0.37573(11)
N4 N 1.1863(5) 0.60012(14) 0.29531(10)
N5 N 0.0516(6) 0.06600(16) 0.58386(12)
O1 O 1.0949(5) 0.66330(13) 0.34024(10)
O2 O 1.3899(4) 0.61481(12) 0.24497(9)
#END
