
#######################################################################
#
#                 Cambridge Crystallographic Data Centre
#                                CCDC
#
#######################################################################
#
# If this CIF has been generated from an entry in the Cambridge
# Structural Database, then it will include bibliographic, chemical,
# crystal, experimental, refinement or atomic coordinate data resulting
# from the CCDC's data processing and validation procedures.
#
#######################################################################

data_CSD_CIF_QEDKER
_audit_creation_date 2012-10-03
_audit_creation_method CSD-ConQuest-V1
_database_code_CSD QEDKER
_database_code_depnum_ccdc_archive 'CCDC 899735'
_chemical_formula_sum 'C19 H26 N2 O3'
_chemical_formula_moiety
;
C19 H26 N2 O3
;
_journal_coeditor_code "IUCr NG5286"
_journal_coden_Cambridge 1370
_journal_volume 68
_journal_year 2012
_journal_page_first o2762
_journal_name_full 'Acta Crystallogr.,Sect.E:Struct.Rep.Online '
loop_
_publ_author_name
"S.Saeed"
"N.Rashid"
"R.J.Butcher"
"S.Ozturk Yildirim"
"R.Hussain"
_chemical_name_systematic
;
N,N-Dicyclohexyl-4-nitrobenzamide
;
_cell_volume   1731.965
_exptl_crystal_colour 'colorless'
_exptl_crystal_density_diffrn 1.267
_exptl_crystal_description 'plate'
_exptl_crystal_preparation 'ethyl acetate'
_diffrn_ambient_temperature 123
_diffrn_special_details
;
non-merohedral twin

;
#These two values have been output from a single CSD field.
_refine_ls_R_factor_gt 0.0797
_refine_ls_wR_factor_gt 0.0797
_symmetry_cell_setting triclinic
_symmetry_space_group_name_H-M 'P -1'
_symmetry_Int_Tables_number 2
loop_
_symmetry_equiv_pos_site_id
_symmetry_equiv_pos_as_xyz
1 x,y,z
2 -x,-y,-z
_cell_length_a 6.1874(3)
_cell_length_b 10.7109(4)
_cell_length_c 26.8188(11)
_cell_angle_alpha 79.128(4)
_cell_angle_beta 89.027(4)
_cell_angle_gamma 82.883(3)
_cell_formula_units_Z 4
loop_
_atom_type_symbol
_atom_type_radius_bond
C 0.68
H 0.23
N 0.68
O 0.68
loop_
_atom_site_label
_atom_site_type_symbol
_atom_site_fract_x
_atom_site_fract_y
_atom_site_fract_z
O1 O 1.2037(5) 0.5044(3) 1.08793(12)
O2 O 0.9117(5) 0.4171(2) 1.0815(1)
O3 O 0.6696(4) 1.0644(2) 0.95462(9)
O4 O 0.3898(5) -0.0077(3) 0.4169(1)
O5 O 0.6849(5) 0.0824(3) 0.40932(11)
O6 O 0.1784(4) 0.5172(2) 0.54297(9)
N1 N 1.0181(5) 0.5061(3) 1.07197(11)
N2 N 0.5886(4) 0.9656(2) 0.89045(10)
N3 N 0.5025(5) 0.0694(3) 0.42687(10)
N4 N 0.1038(4) 0.3626(2) 0.60959(10)
C1 C 0.9244(5) 0.6242(3) 1.03726(11)
C2 C 0.7117(6) 0.6306(3) 1.01945(12)
H1 H 0.62730 0.56210 1.03000
C3 C 0.6276(5) 0.7404(3) 0.98588(12)
H2 H 0.48370 0.74720 0.97290
C4 C 0.7519(5) 0.8398(3) 0.97115(11)
C5 C 0.9626(5) 0.8314(3) 0.99050(12)
H3 H 1.04700 0.90010 0.98060
C6 C 1.0485(5) 0.7220(3) 1.02437(12)
H4 H 1.19070 0.71570 1.03820
C7 C 0.6645(5) 0.9660(3) 0.93753(12)
C8 C 0.5043(5) 1.0884(3) 0.85731(11)
H5 H 0.46010 1.06610 0.82470
C9 C 0.2981(5) 1.1545(3) 0.87833(12)
H6 H 0.33260 1.18020 0.91060
H7 H 0.18710 1.09450 0.88530
C10 C 0.2085(6) 1.2733(3) 0.83935(14)
H8 H 0.15990 1.24600 0.80850
H9 H 0.08040 1.31880 0.85380
C11 C 0.3790(7) 1.3642(3) 0.82482(16)
H10 H 0.41590 1.39890 0.85490
H11 H 0.31830 1.43700 0.79840
C12 C 0.5854(6) 1.2968(3) 0.80490(15)
H12 H 0.69620 1.35690 0.79780
H13 H 0.55190 1.27040 0.77270
C13 C 0.6769(5) 1.1789(3) 0.84358(13)
H14 H 0.80540 1.13380 0.82910
H15 H 0.72430 1.20590 0.87460
C14 C 0.6076(5) 0.8494(3) 0.86733(11)
H16 H 0.67070 0.77540 0.89360
C15 C 0.7626(5) 0.8599(3) 0.82207(11)
H17 H 0.90810 0.87360 0.83320
H18 H 0.70740 0.93440 0.79570
C16 C 0.7815(5) 0.7375(3) 0.79970(12)
H19 H 0.87810 0.74670 0.76980
H20 H 0.84730 0.66410 0.82520
C17 C 0.5575(6) 0.7111(3) 0.78393(13)
H21 H 0.49610 0.78150 0.75660
H22 H 0.57250 0.63040 0.77060
C18 C 0.4038(5) 0.7004(3) 0.82904(12)
H23 H 0.45910 0.62520 0.85510
H24 H 0.25830 0.68670 0.81780
C19 C 0.3824(5) 0.8210(3) 0.85253(12)
H25 H 0.28940 0.80880 0.88300
H26 H 0.31180 0.89480 0.82780
C20 C 0.4191(6) 0.1522(3) 0.46324(11)
C21 C 0.2093(6) 0.1422(3) 0.48212(12)
H27 H 0.12170 0.08420 0.47210
C22 C 0.1331(5) 0.2205(3) 0.51624(11)
H28 H -0.00810 0.21510 0.53040
C23 C 0.2611(5) 0.3060(3) 0.52976(11)
C24 C 0.4682(5) 0.3148(3) 0.50942(11)
H29 H 0.55490 0.37420 0.51860
C25 C 0.5487(5) 0.2367(3) 0.47565(12)
H30 H 0.69000 0.24180 0.46160
C26 C 0.1765(5) 0.4039(3) 0.56197(11)
C27 C 0.0134(5) 0.4579(3) 0.64028(11)
H31 H -0.02800 0.40790 0.67370
C28 C 0.1805(5) 0.5419(3) 0.65189(13)
H32 H 0.22980 0.59190 0.61980
H33 H 0.30880 0.48700 0.66900
C29 C 0.0831(6) 0.6335(3) 0.68602(13)
H34 H 0.19070 0.69110 0.69120
H35 H 0.04890 0.58380 0.71960
C30 C -0.1255(6) 0.7136(3) 0.66192(13)
H36 H -0.18950 0.77000 0.68500
H37 H -0.08910 0.76850 0.62960
C31 C -0.2904(5) 0.6276(3) 0.65174(12)
H38 H -0.42230 0.68110 0.63580
H39 H -0.33370 0.57680 0.68430
C32 C -0.1973(5) 0.5371(3) 0.61686(12)
H40 H -0.16600 0.58720 0.58310
H41 H -0.30510 0.47910 0.61220
C33 C 0.1299(5) 0.2268(3) 0.63518(11)
H42 H 0.19560 0.17480 0.61020
C34 C -0.0898(5) 0.1806(3) 0.65121(12)
H43 H -0.18450 0.19160 0.62090
H44 H -0.16240 0.23330 0.67470
C35 C -0.0599(5) 0.0395(3) 0.67733(13)
H45 H -0.20290 0.01330 0.68910
H46 H -0.00160 -0.01400 0.65270
C36 C 0.0960(6) 0.0174(3) 0.72263(13)
H47 H 0.03200 0.06520 0.74860
H48 H 0.11730 -0.07480 0.73800
C37 C 0.3159(5) 0.0618(3) 0.70600(12)
H49 H 0.38460 0.00990 0.68180
H50 H 0.41330 0.04880 0.73590
C38 C 0.2872(5) 0.2034(3) 0.68080(12)
H51 H 0.43030 0.22980 0.66920
H52 H 0.22910 0.25600 0.70580
#END
