
#######################################################################
#
#                 Cambridge Crystallographic Data Centre
#                                CCDC
#
#######################################################################
#
# If this CIF has been generated from an entry in the Cambridge
# Structural Database, then it will include bibliographic, chemical,
# crystal, experimental, refinement or atomic coordinate data resulting
# from the CCDC's data processing and validation procedures.
#
#######################################################################

data_CSD_CIF_QEDQEY
_audit_creation_date 2017-09-04
_audit_creation_method CSD-ConQuest-V1
_database_code_CSD QEDQEY
_database_code_depnum_ccdc_archive 'CCDC 1534657'
_chemical_formula_sum 'C20 H14 N2 O2'
_chemical_formula_moiety
;
C20 H14 N2 O2
;
_journal_coden_Cambridge 35
_journal_volume 82
_journal_year 2017
_journal_page_first 8933
_journal_name_full 'J.Org.Chem. '
loop_
_publ_author_name
"A.Biswas"
"U.Karmakar"
"Shiny Nandi"
"R.Samanta"
_chemical_name_systematic
;
2-[(1-oxo-1\l^5^-benzo[h]quinolin-2-yl)amino]benzaldehyde
;
_cell_volume   1448.419
_exptl_crystal_colour 'yellow'
_exptl_crystal_density_diffrn 1.441
_exptl_crystal_description 'prism'
_diffrn_ambient_temperature 100
#These two values have been output from a single CSD field.
_refine_ls_R_factor_gt 0.0745
_refine_ls_wR_factor_gt 0.0745
_symmetry_cell_setting monoclinic
_symmetry_space_group_name_H-M 'P 21/n'
_symmetry_Int_Tables_number 14
loop_
_symmetry_equiv_pos_site_id
_symmetry_equiv_pos_as_xyz
1 x,y,z
2 1/2-x,1/2+y,1/2-z
3 -x,-y,-z
4 -1/2+x,-1/2-y,-1/2+z
_cell_length_a 7.531(2)
_cell_length_b 8.120(3)
_cell_length_c 23.756(8)
_cell_angle_alpha 90
_cell_angle_beta 94.410(7)
_cell_angle_gamma 90
_cell_formula_units_Z 4
loop_
_atom_type_symbol
_atom_type_radius_bond
C 0.68
H 0.23
N 0.68
O 0.68
loop_
_atom_site_label
_atom_site_type_symbol
_atom_site_fract_x
_atom_site_fract_y
_atom_site_fract_z
O1 O 0.6366(4) -0.0936(3) 0.41666(12)
O2 O 0.8676(4) -0.3232(4) 0.50592(15)
N1 N 0.4637(4) -0.0846(3) 0.41832(13)
N2 N 0.5172(5) -0.2352(4) 0.49828(14)
C1 C 0.3568(5) -0.0024(4) 0.37671(16)
C2 C 0.6553(6) -0.4148(4) 0.56908(17)
C3 C 0.3153(6) 0.1628(4) 0.29017(17)
C4 C 0.0691(6) 0.1180(5) 0.34661(19)
H1 H -0.05030 0.13390 0.35250
C5 C 0.8285(7) -0.4059(6) 0.5453(2)
C6 C 0.4314(6) 0.0612(4) 0.32614(16)
C7 C 0.3899(5) -0.1589(4) 0.46327(16)
C8 C 0.1746(6) 0.0157(4) 0.38445(18)
C9 C 0.5045(5) -0.3280(4) 0.54633(16)
C10 C 0.3805(7) 0.2275(5) 0.24113(19)
H2 H 0.30810 0.29770 0.21860
C11 C 0.1367(6) 0.1919(5) 0.3029(2)
H3 H 0.06580 0.26350 0.28030
C12 C 0.6006(6) 0.0247(5) 0.30864(18)
H4 H 0.67700 -0.04270 0.33100
C13 C 0.5479(7) 0.1908(6) 0.22509(18)
H5 H 0.58810 0.23480 0.19220
C14 C 0.2071(6) -0.1529(5) 0.46711(19)
H6 H 0.15600 -0.21010 0.49570
C15 C 0.1022(6) -0.0631(5) 0.42908(19)
H7 H -0.01930 -0.05470 0.43320
C16 C 0.3537(7) -0.3386(6) 0.5765(2)
C17 C 0.6440(7) -0.5129(5) 0.61685(19)
H8 H 0.74450 -0.57020 0.63110
C18 C 0.6555(7) 0.0863(6) 0.25931(19)
H9 H 0.76730 0.05770 0.24840
C19 C 0.4904(7) -0.5275(5) 0.6435(2)
H10 H 0.48340 -0.59660 0.67440
C20 C 0.3498(7) -0.4381(6) 0.6231(2)
H11 H 0.24510 -0.44380 0.64140
H12 H 0.913(7) -0.474(6) 0.566(2)
H13 H 0.624(5) -0.221(4) 0.4854(14)
H14 H 0.251(5) -0.284(4) 0.5657(16)
#END
