
#######################################################################
#
#                 Cambridge Crystallographic Data Centre
#                                CCDC
#
#######################################################################
#
# If this CIF has been generated from an entry in the Cambridge
# Structural Database, then it will include bibliographic, chemical,
# crystal, experimental, refinement or atomic coordinate data resulting
# from the CCDC's data processing and validation procedures.
#
#######################################################################

data_CSD_CIF_QEDQIC
_audit_creation_date 2017-09-04
_audit_creation_method CSD-ConQuest-V1
_database_code_CSD QEDQIC
_database_code_depnum_ccdc_archive 'CCDC 1535009'
_chemical_formula_sum 'C17 H15 N1 O3'
_chemical_formula_moiety
;
C17 H15 N1 O3
;
_journal_coden_Cambridge 35
_journal_volume 82
_journal_year 2017
_journal_page_first 8984
_journal_name_full 'J.Org.Chem. '
loop_
_publ_author_name
"Yazhou Li"
"Jian Li"
"Xiaowei Wu"
"Yu Zhou"
"Hong Liu"
_chemical_name_systematic
;
ethyl 1-hydroxy-2-phenyl-1H-indole-3-carboxylate
;
_cell_volume   2796.992
_exptl_crystal_colour 'colorless'
_exptl_crystal_density_diffrn 1.336
_exptl_crystal_description 'block'
_diffrn_ambient_temperature 170
#These two values have been output from a single CSD field.
_refine_ls_R_factor_gt 0.0461
_refine_ls_wR_factor_gt 0.0461
_symmetry_cell_setting orthorhombic
_symmetry_space_group_name_H-M 'P b c n'
_symmetry_Int_Tables_number 60
loop_
_symmetry_equiv_pos_site_id
_symmetry_equiv_pos_as_xyz
1 x,y,z
2 1/2+x,1/2-y,-z
3 -x,y,1/2-z
4 1/2-x,1/2-y,1/2+z
5 -x,-y,-z
6 -1/2-x,-1/2+y,z
7 x,-y,-1/2+z
8 -1/2+x,-1/2+y,-1/2-z
_cell_length_a 16.810(4)
_cell_length_b 10.863(2)
_cell_length_c 15.317(3)
_cell_angle_alpha 90
_cell_angle_beta 90
_cell_angle_gamma 90
_cell_formula_units_Z 8
loop_
_atom_type_symbol
_atom_type_radius_bond
C 0.68
H 0.23
N 0.68
O 0.68
loop_
_atom_site_label
_atom_site_type_symbol
_atom_site_fract_x
_atom_site_fract_y
_atom_site_fract_z
O1 O 0.70179(7) 0.62615(10) 0.03725(8)
O2 O 0.60523(6) 0.61275(9) -0.06263(7)
O3 O 0.66084(6) 0.15030(9) 0.12507(8)
H1 H 0.70520 0.12010 0.11180
N1 N 0.64420(7) 0.24812(11) 0.07036(9)
C1 C 0.56958(11) 0.76589(17) -0.16527(12)
H2 H 0.58000 0.70870 -0.21340
H3 H 0.57910 0.85040 -0.18500
H4 H 0.51410 0.75750 -0.14640
C2 C 0.62382(11) 0.73699(14) -0.09045(12)
H5 H 0.68010 0.74260 -0.10910
H6 H 0.61510 0.79570 -0.04200
C3 C 0.64995(9) 0.56565(14) 0.00111(11)
C4 C 0.63151(8) 0.43766(14) 0.01859(10)
C5 C 0.58313(8) 0.35614(13) -0.03379(10)
C6 C 0.53095(9) 0.37052(15) -0.10453(11)
H7 H 0.52290 0.44910 -0.13030
C7 C 0.49146(9) 0.26839(15) -0.13598(12)
H8 H 0.45500 0.27800 -0.18290
C8 C 0.50362(9) 0.15100(16) -0.10061(12)
H9 H 0.47580 0.08260 -0.12430
C9 C 0.55529(9) 0.13322(15) -0.03209(11)
H10 H 0.56450 0.05380 -0.00810
C10 C 0.59338(8) 0.23736(13) 0.00031(11)
C11 C 0.66618(8) 0.36695(13) 0.08440(11)
C12 C 0.71108(9) 0.40368(13) 0.16281(10)
C13 C 0.78076(10) 0.34475(15) 0.18786(12)
H11 H 0.80280 0.28200 0.15200
C14 C 0.81827(10) 0.37736(16) 0.26508(12)
H12 H 0.86570 0.33650 0.28220
C15 C 0.78695(10) 0.46901(15) 0.31714(12)
H13 H 0.81250 0.49030 0.37040
C16 C 0.71868(10) 0.52968(15) 0.29205(11)
H14 H 0.69770 0.59390 0.32730
C17 C 0.68072(9) 0.49671(14) 0.21538(11)
H15 H 0.63340 0.53810 0.19850
#END
