
#######################################################################
#
#                 Cambridge Crystallographic Data Centre
#                                CCDC
#
#######################################################################
#
# If this CIF has been generated from an entry in the Cambridge
# Structural Database, then it will include bibliographic, chemical,
# crystal, experimental, refinement or atomic coordinate data resulting
# from the CCDC's data processing and validation procedures.
#
#######################################################################

data_CSD_CIF_QEDTAW
_audit_creation_date 2012-10-03
_audit_creation_method CSD-ConQuest-V1
_database_code_CSD QEDTAW
_database_code_depnum_ccdc_archive 'CCDC 899774'
_chemical_formula_sum 'C17 H18 N2 O4'
_chemical_formula_moiety
;
C17 H18 N2 O4
;
_journal_coeditor_code "IUCr GG2093"
_journal_coden_Cambridge 1370
_journal_volume 68
_journal_year 2012
_journal_page_first o2816
_journal_name_full 'Acta Crystallogr.,Sect.E:Struct.Rep.Online '
loop_
_publ_author_name
"A.Nigar"
"Z.Akhter"
"V.McKee"
"R.Hussain"
_chemical_name_systematic
;
N-(4-(4-Nitrophenoxy)phenyl)pentanamide
;
_chemical_melting_point 390
_cell_volume   1537.814
_exptl_crystal_colour 'brown'
_exptl_crystal_density_diffrn 1.358
_exptl_crystal_description 'wedge'
_exptl_crystal_preparation 'toluene'
_diffrn_ambient_temperature 150
#These two values have been output from a single CSD field.
_refine_ls_R_factor_gt 0.0556
_refine_ls_wR_factor_gt 0.0556
_symmetry_cell_setting triclinic
_symmetry_space_group_name_H-M 'P -1'
_symmetry_Int_Tables_number 2
loop_
_symmetry_equiv_pos_site_id
_symmetry_equiv_pos_as_xyz
1 x,y,z
2 -x,-y,-z
_cell_length_a 4.9776(5)
_cell_length_b 10.1139(10)
_cell_length_c 30.572(3)
_cell_angle_alpha 92.069(2)
_cell_angle_beta 90.087(2)
_cell_angle_gamma 91.060(2)
_cell_formula_units_Z 4
loop_
_atom_type_symbol
_atom_type_radius_bond
C 0.68
H 0.23
N 0.68
O 0.68
loop_
_atom_site_label
_atom_site_type_symbol
_atom_site_fract_x
_atom_site_fract_y
_atom_site_fract_z
C1 C 0.6952(5) 1.1513(2) 0.41515(8)
C2 C 0.5007(5) 1.0629(2) 0.42860(8)
H1 H 0.47890 0.97890 0.41400
C3 C 0.3375(5) 1.0977(2) 0.46368(8)
H2 H 0.20370 1.03770 0.47360
C4 C 0.3722(5) 1.2207(2) 0.48397(7)
N1 N 0.1898(4) 1.2606(2) 0.51924(7)
O1 O 0.0553(4) 1.17409(19) 0.53686(6)
O2 O 0.1772(4) 1.37879(18) 0.52958(6)
C5 C 0.5702(5) 1.3092(2) 0.47140(8)
H3 H 0.59330 1.39260 0.48640
C6 C 0.7335(5) 1.2738(2) 0.43667(8)
H4 H 0.87130 1.33270 0.42750
O3 O 0.8658(3) 1.12568(18) 0.38088(6)
C7 C 0.7902(5) 1.0268(2) 0.34970(8)
C8 C 0.5830(5) 1.0467(2) 0.32109(8)
H5 H 0.47870 1.12420 0.32400
C9 C 0.5272(5) 0.9532(2) 0.28806(8)
H6 H 0.38320 0.96630 0.26830
C10 C 0.6800(4) 0.8405(2) 0.28355(7)
C11 C 0.8841(5) 0.8202(2) 0.31316(8)
H7 H 0.98720 0.74220 0.31070
C12 C 0.9385(5) 0.9137(3) 0.34648(8)
H8 H 1.07770 0.89960 0.36700
N2 N 0.6189(4) 0.74848(19) 0.24853(6)
H9 H 0.44810 0.73210 0.24270
C13 C 0.8018(4) 0.6841(2) 0.22349(7)
O4 O 1.0444(3) 0.68820(17) 0.23109(5)
C14 C 0.6836(5) 0.6108(3) 0.18369(8)
H10 H 0.51920 0.56240 0.19260
H11 H 0.63000 0.67630 0.16220
C15 C 0.8712(5) 0.5141(3) 0.16170(8)
H12 H 0.91360 0.44420 0.18230
H13 H 1.04130 0.56090 0.15460
C16 C 0.7546(5) 0.4497(3) 0.11993(8)
H14 H 0.73000 0.51800 0.09800
H15 H 0.57620 0.41000 0.12620
C17 C 0.9380(6) 0.3430(3) 0.10128(10)
H16 H 0.85800 0.30320 0.07450
H17 H 0.96030 0.27460 0.12280
H18 H 1.11370 0.38240 0.09450
C18 C 0.1775(5) -0.1421(2) 0.09199(8)
C19 C 0.0018(5) -0.0524(2) 0.07505(8)
H19 H -0.00410 0.03550 0.08700
C20 C -0.1649(5) -0.0917(2) 0.04060(8)
H20 H -0.28680 -0.03140 0.02870
C21 C -0.1514(5) -0.2198(2) 0.02386(8)
N3 N -0.3357(5) -0.2628(2) -0.01144(7)
O5 O -0.4575(5) -0.1779(2) -0.03068(7)
O6 O -0.3609(4) -0.3815(2) -0.02012(7)
C22 C 0.0274(5) -0.3092(2) 0.03978(8)
H21 H 0.03470 -0.39660 0.02740
C23 C 0.1945(5) -0.2697(3) 0.07381(9)
H22 H 0.32100 -0.32930 0.08490
O7 O 0.3504(4) -0.11092(19) 0.12585(6)
C24 C 0.2903(5) -0.0041(2) 0.15468(8)
C25 C 0.0770(5) -0.0121(3) 0.18294(8)
H23 H -0.04340 -0.08610 0.18120
C26 C 0.0393(5) 0.0892(2) 0.21400(8)
H24 H -0.10910 0.08480 0.23340
C27 C 0.2158(4) 0.1966(2) 0.21698(7)
C28 C 0.4253(5) 0.2041(3) 0.18721(8)
H25 H 0.54430 0.27870 0.18830
C29 C 0.4618(5) 0.1036(3) 0.15602(8)
H26 H 0.60500 0.10920 0.13560
N4 N 0.1717(4) 0.29683(19) 0.24937(6)
H27 H 0.00350 0.31390 0.25600
C30 C 0.3637(4) 0.3693(2) 0.27129(7)
O8 O 0.6048(3) 0.35562(18) 0.26473(6)
C31 C 0.2633(5) 0.4669(2) 0.30584(8)
H28 H 0.06540 0.47230 0.30360
H29 H 0.34100 0.55570 0.30060
C32 C 0.3385(5) 0.4267(3) 0.35172(8)
H30 H 0.53550 0.41580 0.35330
H31 H 0.25220 0.34010 0.35750
C33 C 0.2540(5) 0.5274(3) 0.38710(8)
H32 H 0.06040 0.54490 0.38340
H33 H 0.27750 0.48820 0.41600
C34 C 0.4077(5) 0.6579(3) 0.38696(9)
H34 H 0.34050 0.71700 0.41040
H35 H 0.38300 0.69880 0.35870
H36 H 0.59920 0.64240 0.39170
#END
