
#######################################################################
#
#                 Cambridge Crystallographic Data Centre
#                                CCDC
#
#######################################################################
#
# If this CIF has been generated from an entry in the Cambridge
# Structural Database, then it will include bibliographic, chemical,
# crystal, experimental, refinement or atomic coordinate data resulting
# from the CCDC's data processing and validation procedures.
#
#######################################################################

data_CSD_CIF_QEDXAY
_audit_creation_date 2001-05-08
_audit_creation_method CSD-ConQuest-V1
_database_code_CSD QEDXAY
_database_code_depnum_ccdc_archive 'CCDC 139984'
_chemical_formula_sum 'C6 H13 N1 O6'
_chemical_formula_moiety
;
C6 H13 N1 O6
;
_journal_coden_Cambridge 156
_journal_volume 326
_journal_year 2000
_journal_page_first 104
_journal_name_full 'Carbohydr.Res. '
loop_
_publ_author_name
"W.H.Ojala"
"J.M.Ostman"
"C.R.Ojala"
_chemical_name_systematic
;
D-Mannose oxime
;
_chemical_melting_point 461.15
_cell_volume    215.542
_exptl_crystal_colour 'colorless'
_exptl_crystal_density_diffrn 1.504
_exptl_special_details
;
Melting point range 461.15-466.15K

;
_exptl_crystal_description 'needle'
_diffrn_ambient_temperature ?
_diffrn_special_details
;
The study was carried out at room temperature,in the range 283-303K

;
#These two values have been output from a single CSD field.
_refine_ls_R_factor_gt 0.0271
_refine_ls_wR_factor_gt 0.0271
_symmetry_cell_setting triclinic
_symmetry_space_group_name_H-M 'P 1'
_symmetry_Int_Tables_number 1
loop_
_symmetry_equiv_pos_site_id
_symmetry_equiv_pos_as_xyz
1 x,y,z
_cell_length_a 5.5968(8)
_cell_length_b 8.532(1)
_cell_length_c 4.9925(8)
_cell_angle_alpha 94.71(1)
_cell_angle_beta 110.32(1)
_cell_angle_gamma 102.02(1)
_cell_formula_units_Z 1
loop_
_atom_type_symbol
_atom_type_radius_bond
C 0.68
H 0.23
N 0.68
O 0.68
loop_
_atom_site_label
_atom_site_type_symbol
_atom_site_fract_x
_atom_site_fract_y
_atom_site_fract_z
O1 O -0.40550 0.04920 -0.06050
O2 O 0.3301(5) 0.2916(2) -0.1579(5)
O3 O 0.2287(4) 0.4980(3) 0.4486(5)
O4 O 0.74810 0.47470 0.49640
O5 O 0.5189(4) 0.8320(3) 0.2723(5)
O6 O 1.0404(5) 0.8373(3) 0.2975(6)
N1 N -0.1289(4) 0.1075(3) 0.0662(6)
C1 C -0.0452(6) 0.2321(3) -0.0253(7)
C2 C 0.2460(5) 0.3059(3) 0.0812(7)
C3 C 0.3131(6) 0.4844(3) 0.2106(7)
C4 C 0.6058(6) 0.5668(4) 0.3032(7)
C5 C 0.6756(6) 0.7414(4) 0.4573(7)
C6 C 0.9641(6) 0.8270(4) 0.5422(7)
H1 H -0.142(6) 0.271(4) -0.147(6)
H2 H -0.466(7) -0.013(4) 0.008(6)
H3 H 0.332(5) 0.252(3) 0.239(6)
H4 H 0.356(6) 0.204(4) -0.182(7)
H5 H 0.284(7) 0.441(4) 0.532(7)
H6 H 0.229(6) 0.546(3) 0.092(6)
H7 H 0.662(6) 0.568(3) 0.145(6)
H8 H 0.857(7) 0.480(4) 0.453(7)
H9 H 0.653(5) 0.745(3) 0.650(6)
H10 H 0.394(6) 0.819(4) 0.305(7)
H11 H 1.082(5) 0.768(3) 0.678(6)
H12 H 0.996(5) 0.936(3) 0.649(6)
H13 H 1.006(6) 0.919(3) 0.235(7)
#END
