
#######################################################################
#
#                 Cambridge Crystallographic Data Centre
#                                CCDC
#
#######################################################################
#
# If this CIF has been generated from an entry in the Cambridge
# Structural Database, then it will include bibliographic, chemical,
# crystal, experimental, refinement or atomic coordinate data resulting
# from the CCDC's data processing and validation procedures.
#
#######################################################################

data_CSD_CIF_QEDYOP
_audit_creation_date 2012-10-03
_audit_creation_method CSD-ConQuest-V1
_database_code_CSD QEDYOP
_database_code_depnum_ccdc_archive 'CCDC 877864'
_chemical_formula_sum 'C17 H17 N1 O4'
_chemical_formula_moiety
;
C17 H17 N1 O4
;
_journal_coeditor_code "IUCr BT5986"
_journal_coden_Cambridge 1370
_journal_volume 68
_journal_year 2012
_journal_page_first o2774
_journal_name_full 'Acta Crystallogr.,Sect.E:Struct.Rep.Online '
loop_
_publ_author_name
"P.M.Dinakaran"
"S.Kalainathan"
"T.Srinivasan"
"D.Velmurugan"
_chemical_name_systematic
;
1-Ethoxy-2-methoxy-4-[2-(4-nitrophenyl)ethenyl]benzene
;
_chemical_name_common
;
1-Ethoxy-2-methoxy-4-(2-(4-nitrophenyl)vinyl)benzene
;
_cell_volume   1518.023
_exptl_crystal_colour 'colorless'
_exptl_crystal_density_diffrn 1.31
_exptl_crystal_description 'block'
_diffrn_ambient_temperature 293
#These two values have been output from a single CSD field.
_refine_ls_R_factor_gt 0.0448
_refine_ls_wR_factor_gt 0.0448
_symmetry_cell_setting monoclinic
_symmetry_space_group_name_H-M 'P 21/n'
_symmetry_Int_Tables_number 14
loop_
_symmetry_equiv_pos_site_id
_symmetry_equiv_pos_as_xyz
1 x,y,z
2 1/2-x,1/2+y,1/2-z
3 -x,-y,-z
4 -1/2+x,-1/2-y,-1/2+z
_cell_length_a 8.5209(4)
_cell_length_b 7.5959(4)
_cell_length_c 23.7877(13)
_cell_angle_alpha 90
_cell_angle_beta 99.611(3)
_cell_angle_gamma 90
_cell_formula_units_Z 4
loop_
_atom_type_symbol
_atom_type_radius_bond
C 0.68
H 0.23
N 0.68
O 0.68
loop_
_atom_site_label
_atom_site_type_symbol
_atom_site_fract_x
_atom_site_fract_y
_atom_site_fract_z
O1 O 1.09886(11) 0.13016(14) 0.06184(5)
O2 O 0.89997(12) 0.38803(13) 0.04273(5)
C1 C 0.70663(15) 0.13692(18) 0.14525(6)
C2 C 0.86351(14) 0.26322(17) 0.07949(5)
C3 C 0.42645(15) 0.09455(17) 0.25675(6)
N1 N 0.04474(16) 0.11093(17) 0.34984(6)
C4 C 0.17789(16) 0.10582(17) 0.31788(6)
C5 C 0.57030(15) 0.15205(19) 0.17555(6)
H1 H 0.48290 0.21610 0.15780
C6 C 0.73211(14) 0.26748(18) 0.10663(5)
H2 H 0.65940 0.35920 0.09900
C7 C 0.14936(16) 0.14921(19) 0.26099(6)
H3 H 0.04780 0.18120 0.24320
C8 C 0.81278(17) -0.0027(2) 0.15429(7)
H4 H 0.79620 -0.09250 0.17920
C9 C 0.27400(16) 0.14451(19) 0.23074(6)
H5 H 0.25610 0.17520 0.19240
C10 C 0.97140(15) 0.12289(18) 0.08991(6)
C11 C 0.94367(16) -0.0096(2) 0.12641(7)
H6 H 1.01310 -0.10480 0.13250
C12 C 0.56122(15) 0.08254(19) 0.22582(6)
H7 H 0.64940 0.01950 0.24340
O3 O -0.08925(15) 0.13496(19) 0.32390(7)
C13 C 0.44945(16) 0.0507(2) 0.31410(6)
H8 H 0.55020 0.01650 0.33210
C14 C 1.20153(17) -0.0197(2) 0.06557(7)
H9 H 1.14250 -0.12270 0.04990
H10 H 1.24620 -0.04350 0.10510
C15 C 0.32634(17) 0.0564(2) 0.34522(6)
H11 H 0.34350 0.02740 0.38370
C16 C 1.33198(18) 0.0214(3) 0.03219(8)
H12 H 1.28670 0.04160 -0.00700
H13 H 1.40460 -0.07590 0.03470
H14 H 1.38800 0.12500 0.04760
C17 C 0.7940(2) 0.5327(2) 0.03028(7)
H15 H 0.69120 0.49050 0.01280
H16 H 0.83450 0.61190 0.00470
H17 H 0.78480 0.59350 0.06500
O4 O 0.07343(17) 0.0848(2) 0.40088(6)
#END
