
#######################################################################
#
#                 Cambridge Crystallographic Data Centre
#                                CCDC
#
#######################################################################
#
# If this CIF has been generated from an entry in the Cambridge
# Structural Database, then it will include bibliographic, chemical,
# crystal, experimental, refinement or atomic coordinate data resulting
# from the CCDC's data processing and validation procedures.
#
#######################################################################

data_CSD_CIF_QEGHES
_audit_creation_date 2017-09-05
_audit_creation_method CSD-ConQuest-V1
_database_code_CSD QEGHES
_database_code_depnum_ccdc_archive 'CCDC 1559084'
_chemical_formula_sum 'C27 H30 N2 O6'
_chemical_formula_moiety
;
C27 H30 N2 O6
;
_journal_coden_Cambridge 1220
_journal_volume 23
_journal_year 2017
_journal_page_first 13332
_journal_name_full 'Chem.-Eur.J. '
loop_
_publ_author_name
"I.Bastida"
"M.S.Segundo"
"R.Lopez"
"C.Palomo"
_chemical_name_systematic
;
benzyl 
3-[(t-butoxycarbonyl)amino]-2-(1-hydroxy-1\l^5^-pyridin-2-yl)-3-(4-methoxyphen
yl)propanoate
;
_cell_volume   2512.584
_exptl_crystal_colour 'colorless'
_exptl_crystal_density_diffrn 1.265
_exptl_special_details
;
Absolute configuration

;
_exptl_crystal_description 'prism'
_diffrn_ambient_temperature 150
#These two values have been output from a single CSD field.
_refine_ls_R_factor_gt 0.028
_refine_ls_wR_factor_gt 0.028
_symmetry_cell_setting monoclinic
_symmetry_space_group_name_H-M 'P 21'
_symmetry_Int_Tables_number 4
loop_
_symmetry_equiv_pos_site_id
_symmetry_equiv_pos_as_xyz
1 x,y,z
2 -x,1/2+y,-z
_cell_length_a 10.85349(15)
_cell_length_b 20.4779(2)
_cell_length_c 11.62033(16)
_cell_angle_alpha 90
_cell_angle_beta 103.3809(14)
_cell_angle_gamma 90
_cell_formula_units_Z 4
loop_
_atom_type_symbol
_atom_type_radius_bond
C 0.68
H 0.23
N 0.68
O 0.68
loop_
_atom_site_label
_atom_site_type_symbol
_atom_site_fract_x
_atom_site_fract_y
_atom_site_fract_z
O1 O 0.69736(16) 0.38164(7) 0.58881(14)
O2 O 0.68535(15) 0.40792(7) 0.39829(13)
O3 O 0.45757(15) 0.55473(9) 0.41116(13)
O4 O 1.21529(16) 0.42008(8) 0.42773(16)
O5 O 0.95594(17) 0.58826(8) 0.78377(15)
O6 O 0.88888(14) 0.68198(7) 0.68163(12)
N1 N 0.46143(16) 0.53922(8) 0.52129(15)
N2 N 0.80207(16) 0.58794(8) 0.61297(15)
C1 C 0.68419(19) 0.42137(10) 0.51044(18)
C2 C 0.67272(18) 0.49451(9) 0.52932(17)
H1 H 0.65570 0.51700 0.45090
C3 C 0.56612(19) 0.50900(9) 0.58848(17)
C4 C 0.5658(2) 0.49262(11) 0.70436(18)
H2 H 0.63760 0.47140 0.75210
C5 C 0.4628(2) 0.50659(12) 0.7517(2)
H3 H 0.46320 0.49500 0.83100
C6 C 0.3593(2) 0.53777(12) 0.6812(2)
H4 H 0.28770 0.54800 0.71180
C7 C 0.3606(2) 0.55380(11) 0.5676(2)
H5 H 0.28970 0.57560 0.51980
C8 C 0.80364(19) 0.51684(9) 0.60402(18)
H6 H 0.81440 0.49840 0.68550
C9 C 0.91112(18) 0.49146(10) 0.55283(18)
C10 C 0.9262(2) 0.51138(10) 0.4427(2)
H7 H 0.86770 0.54140 0.39770
C11 C 1.0257(2) 0.48811(11) 0.3970(2)
H8 H 1.03420 0.50190 0.32110
C12 C 1.1121(2) 0.44477(10) 0.4627(2)
C13 C 1.0976(2) 0.42381(10) 0.5725(2)
H9 H 1.15610 0.39370 0.61730
C14 C 0.99748(19) 0.44693(10) 0.61645(18)
H10 H 0.98770 0.43210 0.69130
C15 C 0.8891(2) 0.61695(10) 0.70061(18)
C16 C 0.9640(2) 0.72544(10) 0.7733(2)
C17 C 0.9251(3) 0.71582(15) 0.8896(2)
H11 H 0.83250 0.71660 0.87540
H12 H 0.96090 0.75100 0.94440
H13 H 0.95690 0.67370 0.92400
C18 C 0.9271(3) 0.79237(12) 0.7213(3)
H14 H 0.94570 0.79530 0.64290
H15 H 0.97530 0.82580 0.77310
H16 H 0.83630 0.79930 0.71430
H17 H 0.778(3) 0.6087(16) 0.548(2)
C19 C 1.1039(2) 0.71370(12) 0.7857(2)
H18 H 1.12520 0.66920 0.81420
H19 H 1.15250 0.74500 0.84220
H20 H 1.12470 0.71940 0.70860
C20 C 1.2361(3) 0.44094(13) 0.3167(2)
H21 H 1.16350 0.42840 0.25340
H22 H 1.31290 0.42020 0.30330
H23 H 1.24610 0.48850 0.31720
C21 C 0.7317(2) 0.34296(11) 0.3768(2)
H24 H 0.79930 0.33010 0.44590
H25 H 0.76950 0.34510 0.30720
C22 C 0.6302(2) 0.2916(1) 0.35567(19)
C23 C 0.5560(3) 0.28153(12) 0.2427(2)
H26 H 0.56780 0.30820 0.17920
C24 C 0.4644(3) 0.23276(14) 0.2216(3)
H27 H 0.41380 0.22650 0.14400
C25 C 0.4468(3) 0.19364(13) 0.3125(3)
H28 H 0.38450 0.16020 0.29770
C26 C 0.5198(2) 0.20305(11) 0.4251(2)
H29 H 0.50740 0.17620 0.48820
C27 C 0.6112(2) 0.25158(11) 0.4465(2)
H30 H 0.66160 0.25750 0.52430
O7 O 0.62637(16) 0.67069(7) 0.04248(15)
O8 O 0.66383(14) 0.56669(7) 0.09842(12)
O9 O 0.72637(13) 0.64331(7) 0.38306(13)
O10 O 0.22007(15) 0.38265(7) -0.10487(15)
O11 O 0.17130(14) 0.69817(7) 0.12201(13)
O12 O 0.17455(13) 0.66850(7) 0.31257(12)
N3 N 0.65585(16) 0.69538(8) 0.35328(15)
N4 N 0.31892(15) 0.62858(8) 0.22748(14)
H31 H 0.34400 0.60780 0.29520
C28 C 0.61192(18) 0.62545(9) 0.10342(17)
C29 C 0.53152(18) 0.62842(9) 0.19505(17)
H32 H 0.55880 0.59260 0.25400
C30 C 0.55481(18) 0.69321(10) 0.25814(17)
C31 C 0.4837(2) 0.7494(1) 0.2273(2)
H33 H 0.41350 0.74870 0.16100
C32 C 0.5128(2) 0.80654(11) 0.2913(2)
H34 H 0.46370 0.84490 0.26910
C33 C 0.6145(2) 0.80693(11) 0.3880(2)
H35 H 0.63560 0.84550 0.43370
C34 C 0.6849(2) 0.75120(11) 0.4176(2)
H36 H 0.75510 0.75160 0.48390
C35 C 0.38921(18) 0.61944(9) 0.13640(17)
H37 H 0.36380 0.65490 0.07650
C36 C 0.35413(18) 0.55438(9) 0.07418(16)
C37 C 0.25536(19) 0.55365(10) -0.02720(18)
H38 H 0.21720 0.59370 -0.05770
C38 C 0.21189(19) 0.49597(11) -0.08403(18)
H39 H 0.14410 0.49650 -0.15250
C39 C 0.26763(19) 0.43714(10) -0.04074(18)
C40 C 0.36379(19) 0.4365(1) 0.06105(19)
H40 H 0.40070 0.39630 0.09210
C41 C 0.40632(18) 0.49499(10) 0.11793(17)
H41 H 0.47220 0.49420 0.18780
C42 C 0.21664(18) 0.66777(9) 0.21172(17)
C43 C 0.05179(19) 0.69808(10) 0.31516(19)
C44 C 0.0440(2) 0.68582(12) 0.44216(19)
H42 H 0.05190 0.63890 0.45890
H43 H -0.03770 0.70140 0.45360
H44 H 0.11280 0.70920 0.49590
C45 C 0.0504(2) 0.77075(11) 0.2887(2)
H45 H 0.12850 0.79080 0.33450
H46 H -0.02280 0.79100 0.31050
H47 H 0.04460 0.77740 0.20410
C46 C -0.0521(2) 0.66199(12) 0.2285(2)
H48 H -0.04430 0.67060 0.14750
H49 H -0.13500 0.67710 0.23770
H50 H -0.04400 0.61500 0.24430
C47 C 0.2762(3) 0.32151(11) -0.0651(3)
H51 H 0.23490 0.28690 -0.11850
H52 H 0.26580 0.31280 0.01500
H53 H 0.36660 0.32270 -0.06450
C48 C 0.7369(2) 0.55975(10) 0.00902(19)
H54 H 0.81520 0.58620 0.03100
H55 H 0.68680 0.57550 -0.06820
C49 C 0.77039(19) 0.48891(10) -0.00025(17)
C50 C 0.6875(2) 0.43982(11) 0.0148(2)
H56 H 0.61150 0.45040 0.03790
C51 C 0.7159(2) 0.37484(11) -0.0041(2)
H57 H 0.65910 0.34130 0.00670
C52 C 0.8256(2) 0.35874(12) -0.0384(2)
H58 H 0.84420 0.31440 -0.05190
C53 C 0.9081(2) 0.40769(12) -0.0530(2)
H59 H 0.98370 0.39700 -0.07670
C54 C 0.8815(2) 0.47269(11) -0.0331(2)
H60 H 0.93950 0.50600 -0.04200
#END
