
#######################################################################
#
#                 Cambridge Crystallographic Data Centre
#                                CCDC
#
#######################################################################
#
# If this CIF has been generated from an entry in the Cambridge
# Structural Database, then it will include bibliographic, chemical,
# crystal, experimental, refinement or atomic coordinate data resulting
# from the CCDC's data processing and validation procedures.
#
#######################################################################

data_CSD_CIF_QEGQOL
_audit_creation_date 2017-09-05
_audit_creation_method CSD-ConQuest-V1
_database_code_CSD QEGQOL
_database_code_depnum_ccdc_archive 'CCDC 1565788'
_chemical_formula_sum 'C19 H21 N1 O1'
_chemical_formula_moiety
;
C19 H21 N1 O1
;
_journal_coden_Cambridge 4
_journal_volume 139
_journal_year 2017
_journal_page_first 11702
_journal_name_full 'J.Am.Chem.Soc. '
loop_
_publ_author_name
"Zhanyu Li"
"Jinbo Zhao"
"Baozhen Sun"
"Tingting Zhou"
"Mingzhu Liu"
"Shuang Liu"
"Mengru Zhang"
"Qian Zhang"
_chemical_name_systematic
;
(rac)-2-methyl-2-phenyl-N-(1-phenylpropylidene)cyclopropanamine oxide
;
_cell_volume   1529.889
_exptl_crystal_colour 'colorless'
_exptl_crystal_density_diffrn 1.213
_exptl_crystal_description 'BLOCK'
_diffrn_ambient_temperature 293
#These two values have been output from a single CSD field.
_refine_ls_R_factor_gt 0.04
_refine_ls_wR_factor_gt 0.04
_symmetry_cell_setting monoclinic
_symmetry_space_group_name_H-M 'P 21/c'
_symmetry_Int_Tables_number 14
loop_
_symmetry_equiv_pos_site_id
_symmetry_equiv_pos_as_xyz
1 x,y,z
2 -x,1/2+y,1/2-z
3 -x,-y,-z
4 x,-1/2-y,-1/2+z
_cell_length_a 11.229
_cell_length_b 8.075
_cell_length_c 17.078
_cell_angle_alpha 90
_cell_angle_beta 98.9
_cell_angle_gamma 90
_cell_formula_units_Z 4
loop_
_atom_type_symbol
_atom_type_radius_bond
C 0.68
H 0.23
N 0.68
O 0.68
loop_
_atom_site_label
_atom_site_type_symbol
_atom_site_fract_x
_atom_site_fract_y
_atom_site_fract_z
N1 N 0.66049(10) -0.01305(16) 0.04215(7)
O1 O 0.6694(1) 0.05130(15) -0.02669(6)
C1 C 0.62086(13) -0.24401(17) 0.12742(8)
C2 C 0.62615(12) -0.16650(19) 0.04946(8)
C3 C 0.71988(14) -0.25034(19) 0.18717(9)
H1 H 0.79160 -0.19910 0.17990
C4 C 0.86265(12) 0.14158(17) 0.22659(9)
C5 C 0.60784(17) -0.4108(2) 0.26886(10)
H2 H 0.60360 -0.46580 0.31620
C6 C 0.69169(12) 0.09284(17) 0.11138(9)
H3 H 0.64290 0.07730 0.15370
C7 C 0.96278(14) 0.0529(2) 0.26163(10)
H4 H 1.00750 -0.00670 0.22980
C8 C 0.82377(12) 0.13986(18) 0.13875(9)
C9 C 0.51541(13) -0.3249(2) 0.13988(9)
H5 H 0.44820 -0.32320 0.10050
C10 C 0.71261(16) -0.3322(2) 0.25729(10)
H6 H 0.77920 -0.33420 0.29710
C11 C 0.51014(16) -0.4072(2) 0.21001(10)
H7 H 0.43940 -0.46090 0.21740
C12 C 0.79953(14) 0.22824(19) 0.27722(10)
H8 H 0.73160 0.28850 0.25580
C13 C 0.83457(16) 0.2277(2) 0.35832(11)
H9 H 0.79060 0.28740 0.39060
C14 C 0.99717(15) 0.0514(2) 0.34262(11)
H10 H 1.06420 -0.00990 0.36460
C15 C 0.73248(14) 0.2648(2) 0.10046(11)
H11 H 0.70650 0.35010 0.13410
H12 H 0.73850 0.30040 0.04700
C16 C 0.91447(15) 0.0793(2) 0.08820(11)
H13 H 0.87940 0.08410 0.03330
H14 H 0.93660 -0.03300 0.10220
H15 H 0.98490 0.14820 0.09700
C17 C 0.93377(16) 0.1394(2) 0.39139(11)
H16 H 0.95790 0.13900 0.44600
C18 C 0.71809(18) -0.3403(3) -0.04404(11)
H17 H 0.70120 -0.40490 -0.09170
H18 H 0.75470 -0.40950 -0.00130
H19 H 0.77220 -0.25180 -0.05180
C19 C 0.60146(15) -0.2687(2) -0.02409(9)
H20 H 0.56350 -0.20060 -0.06770
H21 H 0.54660 -0.35780 -0.01640
#END
