
#######################################################################
#
#                 Cambridge Crystallographic Data Centre
#                                CCDC
#
#######################################################################
#
# If this CIF has been generated from an entry in the Cambridge
# Structural Database, then it will include bibliographic, chemical,
# crystal, experimental, refinement or atomic coordinate data resulting
# from the CCDC's data processing and validation procedures.
#
#######################################################################

data_CSD_CIF_QEGQUR
_audit_creation_date 2017-09-05
_audit_creation_method CSD-ConQuest-V1
_database_code_CSD QEGQUR
_database_code_depnum_ccdc_archive 'CCDC 1565846'
_chemical_formula_sum 'C17 H16 N2 O3'
_chemical_formula_moiety
;
C17 H16 N2 O3
;
_journal_coden_Cambridge 4
_journal_volume 139
_journal_year 2017
_journal_page_first 11702
_journal_name_full 'J.Am.Chem.Soc. '
loop_
_publ_author_name
"Zhanyu Li"
"Jinbo Zhao"
"Baozhen Sun"
"Tingting Zhou"
"Mingzhu Liu"
"Shuang Liu"
"Mengru Zhang"
"Qian Zhang"
_chemical_name_systematic
;
(1R,2S,Z)-2-methyl-N-(4-nitrobenzylidene)-2-phenylcyclopropanamine oxide
;
_cell_volume   1509.650
_exptl_crystal_colour 'colorless'
_exptl_crystal_density_diffrn 1.27
_exptl_crystal_description 'BLOCK'
_diffrn_ambient_temperature 293
#These two values have been output from a single CSD field.
_refine_ls_R_factor_gt 0.0502
_refine_ls_wR_factor_gt 0.0502
_symmetry_cell_setting monoclinic
_symmetry_space_group_name_H-M 'P 21'
_symmetry_Int_Tables_number 4
loop_
_symmetry_equiv_pos_site_id
_symmetry_equiv_pos_as_xyz
1 x,y,z
2 -x,1/2+y,-z
_cell_length_a 8.353(5)
_cell_length_b 15.877(5)
_cell_length_c 11.442(5)
_cell_angle_alpha 90
_cell_angle_beta 95.810(5)
_cell_angle_gamma 90
_cell_formula_units_Z 4
loop_
_atom_type_symbol
_atom_type_radius_bond
C 0.68
H 0.23
N 0.68
O 0.68
loop_
_atom_site_label
_atom_site_type_symbol
_atom_site_fract_x
_atom_site_fract_y
_atom_site_fract_z
N1 N -0.3070(3) -0.16494(17) -0.2717(2)
O1 O -0.4069(3) -0.20645(19) -0.2170(3)
C1 C -0.1776(3) -0.2872(2) -0.3544(2)
C2 C -0.4319(3) -0.0176(2) -0.3242(3)
C3 C -0.2404(4) -0.3517(2) -0.2903(3)
H1 H -0.31220 -0.33900 -0.23570
C4 C -0.2076(3) -0.1981(2) -0.3392(2)
H2 H -0.15000 -0.16100 -0.38190
C5 C -0.1970(4) -0.4343(2) -0.3071(3)
H3 H -0.23780 -0.47720 -0.26330
C6 C -0.3786(4) 0.0670(2) -0.3655(3)
C7 C -0.0933(4) -0.4525(2) -0.3891(3)
C8 C -0.0708(3) -0.3087(2) -0.4358(3)
H4 H -0.02680 -0.26620 -0.47850
C9 C -0.4388(4) 0.0997(2) -0.4736(3)
H5 H -0.50980 0.06770 -0.52340
C10 C -0.4286(4) -0.0324(3) -0.1950(3)
H6 H -0.39670 0.01420 -0.14310
H7 H -0.51120 -0.06850 -0.16820
N2 N -0.0501(4) -0.5402(2) -0.4091(3)
C11 C -0.0291(4) -0.3904(2) -0.4543(3)
H8 H 0.04090 -0.40380 -0.50970
C12 C -0.3029(4) -0.0726(2) -0.2577(3)
H9 H -0.19550 -0.04740 -0.24440
C13 C -0.5638(4) -0.0627(3) -0.4016(3)
H10 H -0.65880 -0.02840 -0.40990
H11 H -0.58750 -0.11550 -0.36610
H12 H -0.52820 -0.07280 -0.47750
C14 C -0.2889(4) 0.2269(3) -0.4377(4)
H13 H -0.26030 0.28020 -0.46180
C15 C -0.2242(4) 0.1955(3) -0.3303(4)
H14 H -0.15170 0.22740 -0.28180
O2 O -0.0892(4) -0.5934(2) -0.3408(4)
C16 C -0.2691(4) 0.1157(2) -0.2958(3)
H15 H -0.22440 0.09440 -0.22410
C17 C -0.3948(4) 0.1790(3) -0.5081(3)
H16 H -0.43790 0.20010 -0.58030
O3 O 0.0193(5) -0.5575(2) -0.4935(3)
O4 O -0.4695(4) -0.00793(18) 0.2184(3)
N3 N -0.3850(4) -0.04677(18) 0.1474(3)
C18 C -0.4034(4) -0.3170(2) 0.0530(3)
H17 H -0.47140 -0.28420 0.00210
C19 C -0.3528(4) -0.2858(2) 0.1636(3)
C20 C -0.4062(4) -0.2019(2) 0.2052(3)
C21 C -0.2629(4) -0.0119(2) 0.1013(3)
H18 H -0.20270 -0.04720 0.05770
C22 C -0.2123(3) 0.0743(2) 0.1107(3)
C23 C -0.0984(4) 0.0987(2) 0.0369(3)
H19 H -0.05520 0.05850 -0.01000
C24 C -0.1113(4) 0.2394(2) 0.1035(3)
C25 C -0.0481(4) 0.1812(3) 0.0317(3)
H20 H 0.02660 0.19720 -0.01900
C26 C -0.4273(4) -0.1343(2) 0.1145(3)
H21 H -0.40840 -0.15090 0.03460
C27 C -0.2027(5) -0.4163(3) 0.1969(5)
H22 H -0.13330 -0.44980 0.24560
C28 C -0.3564(5) -0.3953(3) 0.0152(4)
H23 H -0.39290 -0.41410 -0.05970
C29 C -0.2497(4) -0.3378(3) 0.2367(3)
H24 H -0.21260 -0.31980 0.31200
C30 C -0.2211(4) 0.2174(3) 0.1790(3)
H25 H -0.26130 0.25780 0.22720
C31 C -0.2711(4) 0.1360(2) 0.1831(3)
H26 H -0.34540 0.12100 0.23470
O5 O -0.0997(4) 0.3756(2) 0.1757(4)
N4 N -0.0588(4) 0.3274(3) 0.1004(4)
C32 C -0.5691(4) -0.1721(3) 0.1606(4)
H27 H -0.63580 -0.20940 0.10920
H28 H -0.62720 -0.13820 0.21280
C33 C -0.2575(5) -0.4446(3) 0.0872(5)
H29 H -0.22700 -0.49740 0.06220
C34 C -0.3417(5) -0.1763(3) 0.3297(3)
H30 H -0.36450 -0.22000 0.38360
H31 H -0.39240 -0.12500 0.35040
H32 H -0.22740 -0.16800 0.33330
O6 O 0.0256(5) 0.3479(3) 0.0268(5)
#END
