
#######################################################################
#
#                 Cambridge Crystallographic Data Centre
#                                CCDC
#
#######################################################################
#
# If this CIF has been generated from an entry in the Cambridge
# Structural Database, then it will include bibliographic, chemical,
# crystal, experimental, refinement or atomic coordinate data resulting
# from the CCDC's data processing and validation procedures.
#
#######################################################################

data_CSD_CIF_QEGZAG
_audit_creation_date 2017-09-05
_audit_creation_method CSD-ConQuest-V1
_database_code_CSD QEGZAG
_database_code_depnum_ccdc_archive 'CCDC 1553043'
_chemical_formula_sum 'C21 H17 N3 O3'
_chemical_formula_moiety
;
C21 H17 N3 O3
;
_journal_coden_Cambridge 119
_journal_volume 1150
_journal_year 2017
_journal_page_first 258
_journal_name_full 'J.Mol.Struct. '
loop_
_publ_author_name
"S.S.Wazalwar"
"A.R.Banpurkar"
"F.Perdih"
_chemical_name_systematic
;
(4E)-4-((3-(4-methoxyphenyl)-1-phenyl-1H-pyrazol-4-yl)methylene)-3-methyl-1,2-
oxazol-5(4H)-one
;
_cell_volume   3543.190
_exptl_crystal_colour 'yellow'
_exptl_crystal_density_diffrn 1.347
_exptl_crystal_description 'needle'
_diffrn_ambient_temperature 293
#These two values have been output from a single CSD field.
_refine_ls_R_factor_gt 0.0537
_refine_ls_wR_factor_gt 0.0537
_symmetry_cell_setting orthorhombic
_symmetry_space_group_name_H-M 'P b c a'
_symmetry_Int_Tables_number 61
loop_
_symmetry_equiv_pos_site_id
_symmetry_equiv_pos_as_xyz
1 x,y,z
2 1/2-x,-y,1/2+z
3 1/2+x,1/2-y,-z
4 -x,1/2+y,1/2-z
5 -x,-y,-z
6 -1/2+x,y,-1/2-z
7 -1/2-x,-1/2+y,z
8 x,-1/2-y,-1/2+z
_cell_length_a 13.0953(8)
_cell_length_b 7.3785(5)
_cell_length_c 36.670(2)
_cell_angle_alpha 90
_cell_angle_beta 90
_cell_angle_gamma 90
_cell_formula_units_Z 8
loop_
_atom_type_symbol
_atom_type_radius_bond
C 0.68
H 0.23
N 0.68
O 0.68
loop_
_atom_site_label
_atom_site_type_symbol
_atom_site_fract_x
_atom_site_fract_y
_atom_site_fract_z
O1 O 0.15887(11) 0.2261(2) 0.01233(4)
O2 O 0.11304(11) 0.1032(2) 0.06538(4)
O3 O 0.83245(12) -0.0611(2) 0.12643(5)
N1 N 0.25600(13) -0.0650(2) 0.16177(4)
N2 N 0.35829(13) -0.0986(2) 0.16750(5)
N3 N 0.25205(14) 0.2740(3) -0.00642(5)
C1 C 0.40388(16) -0.0468(2) 0.13686(5)
C2 C 0.33092(14) 0.0209(3) 0.11104(5)
C3 C 0.23761(16) 0.0029(3) 0.12873(5)
H1 H 0.17390 0.03270 0.11920
C4 C 0.18327(17) -0.1079(3) 0.18947(6)
C5 C 0.2157(2) -0.1823(3) 0.22157(6)
H2 H 0.28460 -0.20590 0.22540
C6 C 0.1445(3) -0.2222(4) 0.24839(7)
H3 H 0.16620 -0.27360 0.27020
C7 C 0.0431(2) -0.1873(4) 0.24325(8)
H4 H -0.00400 -0.21370 0.26150
C8 C 0.0117(2) -0.1135(4) 0.21111(8)
H5 H -0.05740 -0.09080 0.20740
C9 C 0.08133(19) -0.0716(3) 0.18394(7)
H6 H 0.05940 -0.01950 0.16220
C10 C 0.51585(15) -0.0580(2) 0.13346(5)
C11 C 0.57828(18) -0.0096(3) 0.16242(6)
H7 H 0.54890 0.02640 0.18430
C12 C 0.68256(18) -0.0137(3) 0.15930(7)
H8 H 0.72290 0.01900 0.17910
C13 C 0.72816(16) -0.0657(3) 0.12710(6)
C14 C 0.66818(16) -0.1185(3) 0.09803(6)
H9 H 0.69800 -0.15650 0.07630
C15 C 0.56267(16) -0.1141(3) 0.10163(6)
H10 H 0.52230 -0.14990 0.08200
C16 C 0.35371(15) 0.0966(2) 0.07629(5)
H11 H 0.42310 0.10910 0.07150
C17 C 0.29214(14) 0.1539(2) 0.04888(5)
C18 C 0.18151(15) 0.1533(3) 0.04556(6)
C19 C 0.32572(15) 0.2312(3) 0.01484(5)
C20 C 0.43309(16) 0.2619(3) 0.00340(6)
H12 H 0.43410 0.31850 -0.02020
H13 H 0.46820 0.14780 0.00220
H14 H 0.46640 0.33910 0.02080
C21 C 0.88169(18) -0.1054(3) 0.09300(9)
H15 H 0.86800 -0.22970 0.08700
H16 H 0.95400 -0.08810 0.09550
H17 H 0.85630 -0.02830 0.07400
#END
