
#######################################################################
#
#                 Cambridge Crystallographic Data Centre
#                                CCDC
#
#######################################################################
#
# If this CIF has been generated from an entry in the Cambridge
# Structural Database, then it will include bibliographic, chemical,
# crystal, experimental, refinement or atomic coordinate data resulting
# from the CCDC's data processing and validation procedures.
#
#######################################################################

data_CSD_CIF_QEGZEK
_audit_creation_date 2017-09-05
_audit_creation_method CSD-ConQuest-V1
_database_code_CSD QEGZEK
_database_code_depnum_ccdc_archive 'CCDC 1553044'
_chemical_formula_sum 'C20 H15 N3 O3'
_chemical_formula_moiety
;
C20 H15 N3 O3
;
_journal_coden_Cambridge 119
_journal_volume 1150
_journal_year 2017
_journal_page_first 258
_journal_name_full 'J.Mol.Struct. '
loop_
_publ_author_name
"S.S.Wazalwar"
"A.R.Banpurkar"
"F.Perdih"
_chemical_name_systematic
;
(4E)-4-((3-(4-hydroxyphenyl)-1-phenyl-1H-pyrazol-4-yl)methylene)-3-methyl-1,2-
oxazol-5(4H)-one
;
_cell_volume   3246.331
_exptl_crystal_colour 'orange'
_exptl_crystal_density_diffrn 1.413
_exptl_crystal_description 'stick'
_diffrn_ambient_temperature 293
#These two values have been output from a single CSD field.
_refine_ls_R_factor_gt 0.0433
_refine_ls_wR_factor_gt 0.0433
_symmetry_cell_setting monoclinic
_symmetry_space_group_name_H-M 'I 2/a'
_symmetry_Int_Tables_number 15
loop_
_symmetry_equiv_pos_site_id
_symmetry_equiv_pos_as_xyz
1 x,y,z
2 1/2-x,y,-z
3 1/2+x,1/2+y,1/2+z
4 -x,1/2+y,1/2-z
5 -x,-y,-z
6 -1/2+x,-y,z
7 -1/2-x,-1/2-y,-1/2-z
8 x,-1/2-y,-1/2+z
_cell_length_a 23.6058(10)
_cell_length_b 3.9439(2)
_cell_length_c 34.9489(13)
_cell_angle_alpha 90
_cell_angle_beta 93.858(4)
_cell_angle_gamma 90
_cell_formula_units_Z 8
loop_
_atom_type_symbol
_atom_type_radius_bond
C 0.68
H 0.23
N 0.68
O 0.68
loop_
_atom_site_label
_atom_site_type_symbol
_atom_site_fract_x
_atom_site_fract_y
_atom_site_fract_z
O1 O 0.69784(5) 0.6968(4) 0.15155(4)
O2 O 0.73270(5) 0.4140(4) 0.10310(4)
O3 O 1.11698(5) 0.8190(4) 0.21402(3)
H1 H 1.14210 0.90910 0.20250
N1 N 0.89028(5) 0.1980(3) 0.06261(3)
N2 N 0.94336(5) 0.2603(3) 0.07991(4)
N3 N 0.71950(6) 0.8636(4) 0.18604(4)
C1 C 0.93408(6) 0.4072(4) 0.11287(4)
C2 C 0.87433(6) 0.4447(4) 0.11720(4)
C3 C 0.84886(6) 0.3026(4) 0.08387(4)
H2 H 0.81010 0.28420 0.07760
C4 C 0.88477(7) 0.0428(4) 0.02559(4)
C5 C 0.93131(7) -0.1079(4) 0.01095(5)
H3 H 0.96570 -0.11810 0.02550
C6 C 0.92648(8) -0.2441(5) -0.02562(5)
H4 H 0.95800 -0.34240 -0.03570
C7 C 0.87586(9) -0.2359(5) -0.04708(5)
H5 H 0.87290 -0.32800 -0.07160
C8 C 0.82927(9) -0.0897(6) -0.03191(6)
H6 H 0.79460 -0.08590 -0.04630
C9 C 0.83348(8) 0.0511(5) 0.00425(5)
H7 H 0.80200 0.15090 0.01420
C10 C 0.98216(6) 0.5148(4) 0.13935(4)
C11 C 1.02921(6) 0.6727(4) 0.12519(4)
H8 H 1.03000 0.71100 0.09900
C12 C 1.07476(6) 0.7734(4) 0.14939(5)
H9 H 1.10590 0.87720 0.13940
C13 C 1.07403(7) 0.7196(4) 0.18845(5)
C14 C 1.02797(7) 0.5594(4) 0.20303(4)
H10 H 1.02760 0.52010 0.22920
C15 C 0.98258(6) 0.4579(4) 0.17871(4)
H11 H 0.95190 0.34990 0.18880
C16 C 0.84935(6) 0.6119(4) 0.14794(4)
H12 H 0.87530 0.70050 0.16650
C17 C 0.79401(6) 0.6643(4) 0.15483(4)
C18 C 0.74204(7) 0.5696(5) 0.13246(5)
C19 C 0.77419(7) 0.8402(4) 0.18754(4)
C20 C 0.80982(8) 0.9770(5) 0.22072(5)
H13 H 0.78610 1.09090 0.23790
H14 H 0.83700 1.13430 0.21170
H15 H 0.82950 0.79400 0.23400
#END
