
#######################################################################
#
#                 Cambridge Crystallographic Data Centre
#                                CCDC
#
#######################################################################
#
# If this CIF has been generated from an entry in the Cambridge
# Structural Database, then it will include bibliographic, chemical,
# crystal, experimental, refinement or atomic coordinate data resulting
# from the CCDC's data processing and validation procedures.
#
#######################################################################

data_CSD_CIF_QEHDIS
_audit_creation_date 2012-12-31
_audit_creation_method CSD-ConQuest-V1
_database_code_CSD QEHDIS
_database_code_depnum_ccdc_archive 'CCDC 831494'
_chemical_formula_sum 'C1 H5 N5 O2'
_chemical_formula_moiety
;
C1 H5 N5 O2
;
_journal_coden_Cambridge 644
_journal_volume 67
_journal_year 2012
_journal_page_first 573
_journal_name_full 'Z.Naturforsch.,B:Chem.Sci. '
loop_
_publ_author_name
"J.Stierstorfer"
"T.M.Klapotke"
"N.Fischer"
_chemical_name_systematic
;
N'-Nitrohydrazinecarboximidamide
;
_cell_volume    459.461
_exptl_crystal_colour 'colorless'
_exptl_crystal_density_diffrn 1.722
_exptl_crystal_description 'rod'
_diffrn_ambient_temperature 173
#These two values have been output from a single CSD field.
_refine_ls_R_factor_gt 0.0358
_refine_ls_wR_factor_gt 0.0358
_symmetry_cell_setting monoclinic
_symmetry_space_group_name_H-M 'P 21/c'
_symmetry_Int_Tables_number 14
loop_
_symmetry_equiv_pos_site_id
_symmetry_equiv_pos_as_xyz
1 x,y,z
2 -x,1/2+y,1/2-z
3 -x,-y,-z
4 x,-1/2-y,-1/2+z
_cell_length_a 6.8301(9)
_cell_length_b 9.4491(14)
_cell_length_c 7.1192(14)
_cell_angle_alpha 90
_cell_angle_beta 90.000(5)
_cell_angle_gamma 90
_cell_formula_units_Z 4
loop_
_atom_type_symbol
_atom_type_radius_bond
C 0.68
H 0.23
N 0.68
O 0.68
loop_
_atom_site_label
_atom_site_type_symbol
_atom_site_fract_x
_atom_site_fract_y
_atom_site_fract_z
O1 O 0.0177(2) 0.17283(13) 0.2888(2)
O2 O 0.0724(2) -0.05385(13) 0.3008(2)
N1 N 0.3084(2) 0.08428(16) 0.3948(3)
N2 N 0.5676(2) 0.21182(17) 0.4861(3)
N3 N 0.3017(3) 0.34129(19) 0.3894(3)
N4 N 0.1271(2) 0.07132(16) 0.3264(2)
N5 N 0.6706(3) 0.33901(17) 0.5208(3)
C1 C 0.3844(3) 0.21744(18) 0.4214(2)
H1 H 0.183(4) 0.341(2) 0.338(3)
H2 H 0.754(4) 0.327(2) 0.623(3)
H3 H 0.368(4) 0.419(3) 0.408(3)
H4 H 0.612(3) 0.127(3) 0.515(3)
H5 H 0.762(4) 0.347(2) 0.427(4)
#END
