
#######################################################################
#
#                 Cambridge Crystallographic Data Centre
#                                CCDC
#
#######################################################################
#
# If this CIF has been generated from an entry in the Cambridge
# Structural Database, then it will include bibliographic, chemical,
# crystal, experimental, refinement or atomic coordinate data resulting
# from the CCDC's data processing and validation procedures.
#
#######################################################################

data_CSD_CIF_QEHFIV
_audit_creation_date 2017-09-05
_audit_creation_method CSD-ConQuest-V1
_database_code_CSD QEHFIV
_database_code_depnum_ccdc_archive 'CCDC 1553040'
_chemical_formula_sum 'C20 H15 N3 O2'
_chemical_formula_moiety
;
C20 H15 N3 O2
;
_journal_coden_Cambridge 119
_journal_volume 1150
_journal_year 2017
_journal_page_first 258
_journal_name_full 'J.Mol.Struct. '
loop_
_publ_author_name
"S.S.Wazalwar"
"A.R.Banpurkar"
"F.Perdih"
_chemical_name_systematic
;
(4E)-4-[(1,3-diphenyl-1H-pyrazol-4-yl)methylidene]-3-methyl-1,2-oxazol-5(4H)-o
ne
;
_cell_volume   3315.139
_exptl_crystal_colour 'yellow'
_exptl_crystal_density_diffrn 1.32
_exptl_crystal_description 'needle'
_diffrn_ambient_temperature 293
#These two values have been output from a single CSD field.
_refine_ls_R_factor_gt 0.0738
_refine_ls_wR_factor_gt 0.0738
_symmetry_cell_setting orthorhombic
_symmetry_space_group_name_H-M 'P b c a'
_symmetry_Int_Tables_number 61
loop_
_symmetry_equiv_pos_site_id
_symmetry_equiv_pos_as_xyz
1 x,y,z
2 1/2-x,-y,1/2+z
3 1/2+x,1/2-y,-z
4 -x,1/2+y,1/2-z
5 -x,-y,-z
6 -1/2+x,y,-1/2-z
7 -1/2-x,-1/2+y,z
8 x,-1/2-y,-1/2+z
_cell_length_a 7.5316(5)
_cell_length_b 20.6808(14)
_cell_length_c 21.2837(16)
_cell_angle_alpha 90
_cell_angle_beta 90
_cell_angle_gamma 90
_cell_formula_units_Z 8
loop_
_atom_type_symbol
_atom_type_radius_bond
C 0.68
H 0.23
N 0.68
O 0.68
loop_
_atom_site_label
_atom_site_type_symbol
_atom_site_fract_x
_atom_site_fract_y
_atom_site_fract_z
O1 O 0.9869(5) 0.12114(14) 0.95151(14)
O2 O 1.0737(4) 0.15746(14) 0.85815(15)
N1 N 0.9871(4) 0.11466(12) 0.67070(14)
N2 N 0.9447(4) 0.05539(13) 0.64577(13)
N3 N 0.8886(5) 0.06601(18) 0.97611(15)
C1 C 0.9090(4) 0.01827(16) 0.69440(15)
C2 C 0.9266(4) 0.05301(17) 0.75219(16)
C3 C 0.9777(4) 0.11418(16) 0.73357(16)
H1 H 1.00140 0.14890 0.76000
C4 C 1.0418(4) 0.16642(16) 0.63118(18)
C5 C 0.9950(6) 0.1668(2) 0.56946(19)
H2 H 0.92870 0.13310 0.55260
C6 C 1.0478(6) 0.2185(3) 0.5318(2)
H3 H 1.01730 0.21910 0.48950
C7 C 1.1432(6) 0.2679(2) 0.5566(2)
H4 H 1.17550 0.30260 0.53120
C8 C 1.1924(6) 0.2673(2) 0.6180(3)
H5 H 1.25910 0.30100 0.63470
C9 C 1.1418(5) 0.21574(18) 0.6554(2)
H6 H 1.17600 0.21460 0.69740
C10 C 0.8685(4) -0.05138(16) 0.68357(15)
C11 C 0.7715(5) -0.06951(16) 0.63098(16)
H7 H 0.72790 -0.03800 0.60390
C12 C 0.7393(6) -0.13409(19) 0.6186(2)
H8 H 0.67280 -0.14590 0.58360
C13 C 0.8053(6) -0.18066(19) 0.6580(2)
H9 H 0.78320 -0.22410 0.64990
C14 C 0.9049(6) -0.16302(19) 0.7098(2)
H10 H 0.95100 -0.19480 0.73610
C15 C 0.9365(5) -0.09886(17) 0.72287(18)
H11 H 1.00320 -0.08740 0.75790
C16 C 0.8802(4) 0.02941(17) 0.81315(16)
H12 H 0.82340 -0.01050 0.81340
C17 C 0.9059(4) 0.05604(17) 0.87046(16)
C18 C 0.9964(5) 0.11605(19) 0.88846(19)
C19 C 0.8466(5) 0.0304(2) 0.92942(17)
C20 C 0.7495(6) -0.0304(2) 0.9394(2)
H13 H 0.73660 -0.03810 0.98360
H14 H 0.81420 -0.06540 0.92060
H15 H 0.63420 -0.02740 0.92030
#END
