
#######################################################################
#
#                 Cambridge Crystallographic Data Centre
#                                CCDC
#
#######################################################################
#
# If this CIF has been generated from an entry in the Cambridge
# Structural Database, then it will include bibliographic, chemical,
# crystal, experimental, refinement or atomic coordinate data resulting
# from the CCDC's data processing and validation procedures.
#
#######################################################################

data_CSD_CIF_QEHTUS
_audit_creation_date 2001-05-08
_audit_creation_method CSD-ConQuest-V1
_database_code_CSD QEHTUS
_database_code_depnum_ccdc_archive 'CCDC 159353'
_chemical_formula_sum 'C24 H29 N2 O1'
_chemical_formula_moiety
;
C24 H29 N2 O1
;
_journal_coden_Cambridge 241
_journal_year 2000
_journal_page_first 918
_journal_name_full 'Chem.Lett. '
loop_
_publ_author_name
"T.Ojima"
"H.Akutsu"
"J.Yamada"
"S.Nakatsuji"
_chemical_name_systematic
;
4-(9-Anthrylmethylamino)-tetramethylpiperidine N-oxyl radical
;
_cell_volume   2061.205
_exptl_crystal_colour 'orange'
_exptl_crystal_density_diffrn 1.165
_exptl_crystal_description 'needle'
_exptl_crystal_preparation 'hexane/chloroform'
_diffrn_ambient_temperature ?
_diffrn_special_details
;
The study was carried out at room temperature,in the range 283-303K

;
#These two values have been output from a single CSD field.
_refine_ls_R_factor_gt 0.041
_refine_ls_wR_factor_gt 0.041
_symmetry_cell_setting monoclinic
_symmetry_space_group_name_H-M 'P 21/a'
_symmetry_Int_Tables_number 14
loop_
_symmetry_equiv_pos_site_id
_symmetry_equiv_pos_as_xyz
1 x,y,z
2 1/2+x,1/2-y,z
3 -x,-y,-z
4 -1/2-x,-1/2+y,-z
_cell_length_a 14.176(2)
_cell_length_b 12.718(3)
_cell_length_c 12.073(2)
_cell_angle_alpha 90
_cell_angle_beta 108.744(12)
_cell_angle_gamma 90
_cell_formula_units_Z 4
loop_
_atom_type_symbol
_atom_type_radius_bond
C 0.68
H 0.23
N 0.68
O 0.68
loop_
_atom_site_label
_atom_site_type_symbol
_atom_site_fract_x
_atom_site_fract_y
_atom_site_fract_z
O1 O 0.15517(7) 0.74475(7) 0.44666(9)
N1 N 0.20682(8) 0.36872(8) 0.68792(9)
N2 N 0.16212(7) 0.65605(8) 0.49998(9)
C1 C 0.5194(1) 0.2871(2) 1.0305(2)
C2 C 0.54168(13) 0.1884(2) 1.0833(2)
C3 C 0.42646(13) 0.31082(12) 0.9611(1)
C4 C 0.47184(13) 0.11455(13) 1.06317(13)
C5 C 0.34726(11) 0.23532(10) 0.93630(11)
C6 C 0.37247(10) 0.13331(11) 0.98736(11)
C7 C 0.24893(10) 0.25516(10) 0.86368(10)
C8 C 0.30140(11) 0.05525(11) 0.96047(12)
C9 C 0.17794(10) 0.17365(10) 0.83564(10)
C10 C 0.20574(10) 0.07153(10) 0.88464(11)
C11 C 0.07899(11) 0.18581(12) 0.75682(13)
C12 C 0.13489(13) -0.01077(12) 0.8526(1)
C13 C 0.01497(12) 0.1047(1) 0.7284(1)
C14 C 0.04299(13) 0.0052(1) 0.7774(2)
C15 C 0.21871(12) 0.36385(11) 0.81332(12)
C16 C 0.21648(9) 0.47472(9) 0.64495(10)
C17 C 0.13568(10) 0.54752(10) 0.65715(12)
C18 C 0.20537(10) 0.46736(10) 0.51661(11)
C19 C 0.14389(9) 0.65916(9) 0.61445(11)
C20 C 0.21452(9) 0.57144(10) 0.45839(11)
C21 C 0.2280(1) 0.71922(12) 0.7014(2)
C22 C 0.04603(13) 0.71827(13) 0.5965(2)
C23 C 0.32302(12) 0.6038(1) 0.4855(2)
C24 C 0.1638(2) 0.56311(13) 0.3274(2)
H1 H 0.2450(8) 0.3201(9) 0.6701(10)
H2 H 0.5694(8) 0.3371(9) 1.0439(10)
H3 H 0.6083(8) 0.1734(9) 1.1319(10)
H4 H 0.4087(8) 0.3764(9) 0.923(1)
H5 H 0.4817(8) 0.0472(8) 1.0955(10)
H6 H 0.3214(8) -0.0140(9) 0.9914(9)
H7 H 0.0610(8) 0.2499(9) 0.7243(10)
H8 H 0.1549(8) -0.0748(8) 0.8849(10)
H9 H -0.0519(8) 0.1163(8) 0.6749(10)
H10 H -0.0020(8) -0.0493(9) 0.7573(10)
H11 H 0.2704(8) 0.4219(8) 0.8580(9)
H12 H 0.1582(8) 0.3837(9) 0.8246(9)
H13 H 0.2869(8) 0.5075(8) 0.6916(9)
H14 H 0.1362(7) 0.5537(8) 0.7413(9)
H15 H 0.0761(8) 0.5181(8) 0.6119(10)
H16 H 0.1394(8) 0.4392(8) 0.4755(9)
H17 H 0.2543(8) 0.4227(8) 0.5047(10)
H18 H 0.2898(8) 0.6835(9) 0.7213(10)
H19 H 0.2363(8) 0.7868(9) 0.6715(9)
H20 H 0.2124(8) 0.7232(9) 0.7736(10)
H21 H 0.0551(8) 0.7941(8) 0.5749(9)
H22 H 0.0315(8) 0.7175(9) 0.6695(9)
H23 H -0.0061(8) 0.6870(8) 0.5309(10)
H24 H 0.3279(8) 0.6724(8) 0.4481(9)
H25 H 0.3606(8) 0.6079(9) 0.5759(10)
H26 H 0.3544(8) 0.5539(9) 0.4605(10)
H27 H 0.1716(7) 0.6358(8) 0.2917(9)
H28 H 0.0950(8) 0.5370(9) 0.3098(10)
H29 H 0.188(1) 0.5149(9) 0.3045(11)
#END
