
#######################################################################
#
#                 Cambridge Crystallographic Data Centre
#                                CCDC
#
#######################################################################
#
# If this CIF has been generated from an entry in the Cambridge
# Structural Database, then it will include bibliographic, chemical,
# crystal, experimental, refinement or atomic coordinate data resulting
# from the CCDC's data processing and validation procedures.
#
#######################################################################

data_CSD_CIF_QEJLAS
_audit_creation_date 2001-05-10
_audit_creation_method CSD-ConQuest-V1
_database_code_CSD QEJLAS
_chemical_formula_sum 'C14 H13 N3 O3'
_chemical_formula_moiety
;
C14 H13 N3 O3
;
_journal_coden_Cambridge 1061
_journal_volume 15
_journal_year 1999
_journal_page_first 715
_journal_name_full 'Anal.Sci. '
loop_
_publ_author_name
"I.Fujii"
"K.Tanaka"
"T.Deguchi"
"N.Hirayama"
_chemical_name_systematic
;
2-(4-(Acetylamino)-2-nitrobenzyl)pyridine
;
_cell_volume   1314.941
_exptl_crystal_colour 'pale yellow'
_exptl_crystal_density_diffrn 1.37
_exptl_crystal_description 'prism'
_exptl_crystal_preparation 'acetone'
_diffrn_ambient_temperature ?
_diffrn_special_details
;
The study was carried out at room temperature,in the range 283-303K

;
#These two values have been output from a single CSD field.
_refine_ls_R_factor_gt 0.044
_refine_ls_wR_factor_gt 0.044
_symmetry_cell_setting monoclinic
_symmetry_space_group_name_H-M 'P 21/a'
_symmetry_Int_Tables_number 14
loop_
_symmetry_equiv_pos_site_id
_symmetry_equiv_pos_as_xyz
1 x,y,z
2 1/2-x,1/2+y,-z
3 -x,-y,-z
4 -1/2+x,-1/2-y,z
_cell_length_a 7.430(5)
_cell_length_b 23.943(8)
_cell_length_c 8.007(4)
_cell_angle_alpha 90
_cell_angle_beta 112.61(5)
_cell_angle_gamma 90
_cell_formula_units_Z 4
loop_
_atom_type_symbol
_atom_type_radius_bond
C 0.68
N 0.68
O 0.68
loop_
_atom_site_label
_atom_site_type_symbol
_atom_site_fract_x
_atom_site_fract_y
_atom_site_fract_z
O1 O 0.6801(3) 0.29190(7) 0.8620(3)
O2 O 0.5026(3) 0.34459(7) 0.9519(3)
O3 O 0.3037(3) 0.50637(8) 0.6934(3)
N1 N 1.1556(3) 0.36756(7) 1.2997(2)
N2 N 0.6356(3) 0.33777(7) 0.9006(2)
N3 N 0.6085(3) 0.53236(7) 0.7227(3)
C1 C 1.0419(4) 0.27418(9) 1.2396(3)
C2 C 1.0663(4) 0.2672(1) 1.4172(3)
C3 C 1.1357(4) 0.3107(1) 1.5362(4)
C4 C 1.1765(4) 0.3600(1) 1.4698(3)
C5 C 1.0877(3) 0.32465(7) 1.1830(3)
C6 C 1.0686(4) 0.33477(9) 0.9915(3)
C7 C 0.9370(3) 0.38370(8) 0.9029(2)
C8 C 0.7403(3) 0.38698(7) 0.8758(2)
C9 C 0.6283(3) 0.43472(8) 0.8207(3)
C10 C 0.7109(3) 0.48183(8) 0.7777(3)
C11 C 0.9030(3) 0.47900(9) 0.7918(3)
C12 C 1.0122(3) 0.43137(8) 0.8567(3)
C13 C 0.4167(3) 0.5422(1) 0.6864(3)
C14 C 0.3524(5) 0.6013(1) 0.6349(4)
#END
