
#######################################################################
#
#                 Cambridge Crystallographic Data Centre
#                                CCDC
#
#######################################################################
#
# If this CIF has been generated from an entry in the Cambridge
# Structural Database, then it will include bibliographic, chemical,
# crystal, experimental, refinement or atomic coordinate data resulting
# from the CCDC's data processing and validation procedures.
#
#######################################################################

data_CSD_CIF_QEJZAH
_audit_creation_date 2006-09-19
_audit_creation_method CSD-ConQuest-V1
_database_code_CSD QEJZAH
_database_code_depnum_ccdc_archive 'CCDC 613490'
_chemical_formula_sum 'C8 H7 N1 O4'
_chemical_formula_moiety
;
C8 H7 N1 O4
;
_journal_coden_Cambridge 1147
_journal_volume 6
_journal_year 2006
_journal_page_first 1366
_journal_name_full 'Cryst.Growth Des. '
loop_
_publ_author_name
"S.Wishkerman"
"J.Bernstein"
"P.W.Stephens"
_chemical_name_systematic
;
4-methoxy-3-nitrobenzaldehyde
;
_chemical_melting_point 352.15
_cell_volume   3298.896
_exptl_crystal_colour 'white'
_exptl_special_details
;
beta polymorph

;
_diffrn_ambient_temperature ?
_diffrn_radiation_probe x-ray
_diffrn_source synchrotron
_diffrn_special_details
;
The study was carried out at room temperature,in the range 283-303K

;
#These two values have been output from a single CSD field.
_refine_ls_R_factor_gt 0.0197
_refine_ls_wR_factor_gt 0.0197
_symmetry_cell_setting monoclinic
_symmetry_space_group_name_H-M 'C 2/c'
_symmetry_Int_Tables_number 15
loop_
_symmetry_equiv_pos_site_id
_symmetry_equiv_pos_as_xyz
1 x,y,z
2 1/2+x,1/2+y,z
3 -x,y,1/2-z
4 1/2-x,1/2+y,1/2-z
5 -x,-y,-z
6 -1/2-x,-1/2-y,-z
7 x,-y,-1/2+z
8 -1/2+x,-1/2-y,-1/2+z
_cell_length_a 62.4105
_cell_length_b 3.84891
_cell_length_c 14.17859
_cell_angle_alpha 90
_cell_angle_beta 104.3983
_cell_angle_gamma 90
_cell_formula_units_Z 16
loop_
_atom_type_symbol
_atom_type_radius_bond
C 0.68
H 0.23
N 0.68
O 0.68
loop_
_atom_site_label
_atom_site_type_symbol
_atom_site_fract_x
_atom_site_fract_y
_atom_site_fract_z
C1 C 0.30893 0.18723 0.22580
C2 C 0.33148 0.11534 0.23719
C3 C 0.34423 -0.01216 0.32631
C4 C 0.33442 -0.06777 0.40405
C5 C 0.31187 0.00413 0.39266
C6 C 0.29912 0.13162 0.30354
C7 C 0.36848 -0.08255 0.33197
C8 C 0.26675 0.15086 0.36314
N1 N 0.29626 0.32098 0.13053
O1 O 0.30591 0.51175 0.08478
O2 O 0.27668 0.23850 0.10022
O3 O 0.37962 -0.22229 0.40386
O4 O 0.27786 0.20517 0.28731
H1 H 0.33777 0.15099 0.18735
H2 H 0.34259 -0.14951 0.46119
H3 H 0.30558 -0.03153 0.44250
H4 H 0.27028 0.32455 0.40675
H5 H 0.25205 0.14865 0.33694
H6 H 0.27109 -0.05398 0.39228
C9 C 0.06063 0.32924 0.37964
C10 C 0.08347 0.28934 0.41886
C11 C 0.09674 0.14932 0.36158
C12 C 0.08717 0.04921 0.26509
C13 C 0.06433 0.08911 0.22587
C14 C 0.05106 0.22913 0.28315
C15 C 0.12118 0.11455 0.40897
C16 C 0.01888 0.10470 0.15748
N2 N 0.04706 0.47328 0.43882
O5 O 0.05247 0.40039 0.52612
O6 O 0.03097 0.65886 0.40382
O7 O 0.13149 -0.05203 0.36155
O8 O 0.02870 0.27372 0.24854
H7 H 0.08960 0.35352 0.48072
H8 H 0.09568 -0.04056 0.22837
H9 H 0.05820 0.02493 0.16401
H10 H 0.01689 -0.12168 0.16872
H11 H 0.00578 0.20543 0.13051
H12 H 0.02799 0.12714 0.11762
#END
