
#######################################################################
#
#                 Cambridge Crystallographic Data Centre
#                                CCDC
#
#######################################################################
#
# If this CIF has been generated from an entry in the Cambridge
# Structural Database, then it will include bibliographic, chemical,
# crystal, experimental, refinement or atomic coordinate data resulting
# from the CCDC's data processing and validation procedures.
#
#######################################################################

data_CSD_CIF_QEJZAH01
_audit_creation_date 2006-09-19
_audit_creation_method CSD-ConQuest-V1
_database_code_CSD QEJZAH01
_database_code_depnum_ccdc_archive 'CCDC 613491'
_chemical_formula_sum 'C8 H7 N1 O4'
_chemical_formula_moiety
;
C8 H7 N1 O4
;
_journal_coden_Cambridge 1147
_journal_volume 6
_journal_year 2006
_journal_page_first 1366
_journal_name_full 'Cryst.Growth Des. '
loop_
_publ_author_name
"S.Wishkerman"
"J.Bernstein"
"P.W.Stephens"
_chemical_name_systematic
;
4-methoxy-3-nitrobenzaldehyde
;
_cell_volume    814.731
_exptl_crystal_density_diffrn 1.477
_exptl_special_details
;
alpha polymorph
phase transition at 73 deg.C to beta polymorph

;
_diffrn_ambient_temperature 293
#These two values have been output from a single CSD field.
_refine_ls_R_factor_gt 0.0417
_refine_ls_wR_factor_gt 0.0417
_symmetry_cell_setting monoclinic
_symmetry_space_group_name_H-M 'P 21/c'
_symmetry_Int_Tables_number 14
loop_
_symmetry_equiv_pos_site_id
_symmetry_equiv_pos_as_xyz
1 x,y,z
2 -x,1/2+y,1/2-z
3 -x,-y,-z
4 x,-1/2-y,-1/2+z
_cell_length_a 3.9139(5)
_cell_length_b 17.538(2)
_cell_length_c 11.8693(16)
_cell_angle_alpha 90
_cell_angle_beta 90.079(4)
_cell_angle_gamma 90
_cell_formula_units_Z 4
loop_
_atom_type_symbol
_atom_type_radius_bond
C 0.68
H 0.23
N 0.68
O 0.68
loop_
_atom_site_label
_atom_site_type_symbol
_atom_site_fract_x
_atom_site_fract_y
_atom_site_fract_z
O1 O 0.5954(4) 0.41746(7) -0.10826(10)
O2 O 0.3190(3) 0.31220(7) -0.10109(10)
O3 O 1.1823(4) 0.46507(6) 0.36724(11)
O4 O 0.6134(3) 0.21047(5) 0.02783(9)
N1 N 0.5155(3) 0.35826(7) -0.06050(9)
C1 C 0.6669(3) 0.34400(7) 0.0503(1)
C2 C 0.7656(4) 0.40705(7) 0.11222(11)
H1 H 0.74970 0.45620 0.08810
C3 C 0.9170(3) 0.39819(8) 0.21705(11)
C4 C 0.9727(4) 0.32460(8) 0.25760(11)
H2 H 1.07710 0.31640 0.32350
C5 C 0.8750(4) 0.26187(8) 0.19655(11)
H3 H 0.90980 0.21270 0.22350
C6 C 0.7150(3) 0.26940(7) 0.09102(10)
C7 C 1.0189(4) 0.46650(8) 0.28153(13)
H4 H 0.93560 0.51760 0.24840
C8 C 0.6831(5) 0.13458(8) 0.06692(15)
H5 H 0.58850 0.12290 0.14590
H6 H 0.93630 0.12490 0.07520
H7 H 0.57680 0.10210 0.01270
#END
