
#######################################################################
#
#                 Cambridge Crystallographic Data Centre
#                                CCDC
#
#######################################################################
#
# If this CIF has been generated from an entry in the Cambridge
# Structural Database, then it will include bibliographic, chemical,
# crystal, experimental, refinement or atomic coordinate data resulting
# from the CCDC's data processing and validation procedures.
#
#######################################################################

data_CSD_CIF_QEKPAY
_audit_creation_date 2006-09-20
_audit_creation_method CSD-ConQuest-V1
_database_code_CSD QEKPAY
_database_code_depnum_ccdc_archive 'CCDC 290290'
_chemical_formula_sum 'C27 H27 N7 O9'
_chemical_formula_moiety
;
C27 H27 N7 O9
;
_journal_coden_Cambridge 9
_journal_volume 45
_journal_year 2006
_journal_page_first 4372
_journal_name_full 'Inorg.Chem. '
loop_
_publ_author_name
"P.S.Lakshminarayanan"
"E.Suresh"
"P.Ghosh"
_chemical_name_systematic
;
tris(2-(3-Nitrobenzamido)ethyl)amine
;
_chemical_melting_point 483.15
_cell_volume   2721.060
_exptl_crystal_colour 'colorless'
_exptl_crystal_density_diffrn 1.449
_exptl_special_details
;
Cell parameter b is 8.3607 (not 8.4898 as published). Cell parameter beta is 
100.044 not 90.969 as published)
;
_exptl_crystal_description 'plates'
_diffrn_ambient_temperature 100
#These two values have been output from a single CSD field.
_refine_ls_R_factor_gt 0.0453
_refine_ls_wR_factor_gt 0.0453
_symmetry_cell_setting monoclinic
_symmetry_space_group_name_H-M 'P 21/c'
_symmetry_Int_Tables_number 14
loop_
_symmetry_equiv_pos_site_id
_symmetry_equiv_pos_as_xyz
1 x,y,z
2 -x,1/2+y,1/2-z
3 -x,-y,-z
4 x,-1/2-y,-1/2+z
_cell_length_a 12.3801(10)
_cell_length_b 8.3607(7)
_cell_length_c 26.698(2)
_cell_angle_alpha 90
_cell_angle_beta 100.044(2)
_cell_angle_gamma 90
_cell_formula_units_Z 4
loop_
_atom_type_symbol
_atom_type_radius_bond
C 0.68
H 0.23
N 0.68
O 0.68
loop_
_atom_site_label
_atom_site_type_symbol
_atom_site_fract_x
_atom_site_fract_y
_atom_site_fract_z
O1 O -0.00199(9) 0.44028(13) 0.22494(4)
O2 O 0.15755(9) 0.09958(14) 0.12219(4)
O3 O 0.09578(9) 0.33579(14) -0.04984(4)
N1 N 0.07863(11) 0.23112(15) 0.02562(5)
N2 N -0.10634(10) 0.17863(14) 0.09433(4)
O4 O 0.44598(10) 0.06984(15) 0.13262(4)
N3 N 0.05342(10) 0.03983(15) 0.18097(5)
N4 N 0.49207(11) 0.08602(16) 0.09610(5)
C1 C 0.13952(12) 0.10951(18) 0.16632(6)
N5 N 0.28288(11) 0.68271(17) 0.08053(5)
C2 C 0.13911(12) 0.27684(17) -0.00858(6)
N6 N -0.07281(11) 0.49720(15) 0.14287(5)
O5 O 0.24727(10) 0.58420(15) 0.04798(5)
O6 O 0.58682(10) 0.04199(17) 0.09566(5)
C3 C 0.26176(12) 0.25281(17) 0.00214(6)
C4 C 0.31862(13) 0.17859(18) 0.04539(6)
H1 H 0.28200 0.14010 0.07050
O7 O 0.54078(11) 0.50548(17) 0.23548(6)
C5 C 0.24187(13) 0.67936(18) 0.12917(6)
C6 C -0.17261(12) 0.40458(18) 0.14058(6)
H2 H -0.23440 0.47630 0.14010
H3 H -0.16690 0.33790 0.17070
C7 C 0.30234(12) 0.28104(18) 0.18828(6)
H4 H 0.30880 0.27760 0.15410
C8 C 0.37707(13) 0.36538(19) 0.22281(7)
C9 C 0.21731(12) 0.20128(17) 0.20548(6)
C10 C -0.04073(12) 0.24278(18) 0.01290(6)
H5 H -0.06350 0.22280 -0.02320
H6 H -0.06290 0.35080 0.01980
C11 C -0.19217(12) 0.29972(17) 0.09331(6)
H7 H -0.26270 0.24710 0.09080
H8 H -0.19450 0.36640 0.06340
C12 C 0.25946(14) 0.7578(2) 0.21558(6)
H9 H 0.29610 0.81280 0.24380
C13 C 0.14839(12) 0.59146(18) 0.13138(6)
H10 H 0.11250 0.53590 0.10310
C14 C 0.43151(13) 0.16342(19) 0.05013(6)
C15 C 0.20957(13) 0.21079(19) 0.25688(6)
H11 H 0.15280 0.15830 0.26880
C16 C 0.29804(13) 0.76462(19) 0.16980(7)
H12 H 0.35970 0.82470 0.16660
C17 C -0.02602(12) -0.05362(17) 0.14645(6)
H13 H -0.04660 -0.14680 0.16430
H14 H 0.00780 -0.09090 0.11840
O8 O 0.46662(12) 0.44980(19) 0.15767(6)
C18 C 0.16673(13) 0.66964(19) 0.21934(6)
H15 H 0.14230 0.66430 0.25030
C19 C 0.10960(12) 0.58880(17) 0.17743(6)
O9 O 0.34966(12) 0.78619(17) 0.07449(6)
C20 C -0.09891(12) 0.12588(18) 0.04256(6)
H16 H -0.17250 0.10810 0.02400
H17 H -0.06050 0.02440 0.04460
N7 N 0.46810(12) 0.44566(18) 0.20378(7)
C21 C 0.31988(14) 0.3090(2) -0.03457(6)
H18 H 0.28210 0.35890 -0.06350
C22 C 0.28587(14) 0.2980(2) 0.29064(7)
H19 H 0.27940 0.30370 0.32480
C23 C -0.12848(12) 0.04125(17) 0.12538(6)
H20 H -0.18070 -0.02900 0.10480
H21 H -0.16170 0.07940 0.15350
C24 C 0.37088(14) 0.3761(2) 0.27385(7)
H22 H 0.42240 0.43410 0.29620
C25 C 0.48992(14) 0.2174(2) 0.01384(7)
H23 H 0.56550 0.20390 0.01800
C26 C 0.43237(15) 0.2921(2) -0.02883(7)
H24 H 0.46950 0.33110 -0.05370
C27 C 0.00669(12) 0.50059(17) 0.18359(5)
H25 H 0.0470(14) 0.042(2) 0.2119(7)
H26 H 0.1045(14) 0.193(2) 0.0527(7)
H27 H -0.0666(17) 0.549(3) 0.1175(8)
#END
