
#######################################################################
#
#                 Cambridge Crystallographic Data Centre
#                                CCDC
#
#######################################################################
#
# If this CIF has been generated from an entry in the Cambridge
# Structural Database, then it will include bibliographic, chemical,
# crystal, experimental, refinement or atomic coordinate data resulting
# from the CCDC's data processing and validation procedures.
#
#######################################################################

data_CSD_CIF_QELJEZ
_audit_creation_date 2018-01-11
_audit_creation_method CSD-ConQuest-V1
_database_code_CSD QELJEZ
_database_code_depnum_ccdc_archive 'CCDC 1500541'
_chemical_formula_sum 'C14 H15 N3 O1'
_chemical_formula_moiety
;
C14 H15 N3 O1
;
_journal_coden_Cambridge 1336
_journal_volume 18
_journal_year 2016
_journal_page_first 5142
_journal_name_full 'Org.Lett. '
loop_
_publ_author_name
"M.Portillo"
"M.A.Maxwell"
"J.H.Frederich"
_chemical_name_systematic
;
3-phenyl-6-(pyrrolidin-1-yl)pyridazine 1-oxide
;
_cell_volume   1190.047
_exptl_crystal_colour 'colorless'
_exptl_crystal_density_diffrn 1.347
_exptl_crystal_description 'irregular'
_diffrn_ambient_temperature 103
#These two values have been output from a single CSD field.
_refine_ls_R_factor_gt 0.0387
_refine_ls_wR_factor_gt 0.0387
_symmetry_cell_setting monoclinic
_symmetry_space_group_name_H-M 'P 21/c'
_symmetry_Int_Tables_number 14
loop_
_symmetry_equiv_pos_site_id
_symmetry_equiv_pos_as_xyz
1 x,y,z
2 -x,1/2+y,1/2-z
3 -x,-y,-z
4 x,-1/2-y,-1/2+z
_cell_length_a 11.7980(7)
_cell_length_b 10.1391(6)
_cell_length_c 10.0913(6)
_cell_angle_alpha 90
_cell_angle_beta 99.6512(7)
_cell_angle_gamma 90
_cell_formula_units_Z 4
loop_
_atom_type_symbol
_atom_type_radius_bond
C 0.68
H 0.23
N 0.68
O 0.68
loop_
_atom_site_label
_atom_site_type_symbol
_atom_site_fract_x
_atom_site_fract_y
_atom_site_fract_z
C1 C 1.08306(11) 0.51875(13) 0.37220(13)
H1 H 1.02690 0.45070 0.36430
C2 C 1.17098(12) 0.52077(13) 0.48196(13)
H2 H 1.17450 0.45460 0.54920
C3 C 1.25400(11) 0.61907(14) 0.49407(13)
H3 H 1.31390 0.62050 0.56980
C4 C 1.24936(11) 0.71541(13) 0.39514(13)
H4 H 1.30680 0.78190 0.40260
C5 C 1.16071(11) 0.71438(12) 0.28537(12)
H5 H 1.15750 0.78080 0.21850
C6 C 1.07619(10) 0.61615(12) 0.27270(12)
C7 C 0.97823(10) 0.61789(11) 0.15927(12)
C8 C 0.98381(11) 0.67462(12) 0.03454(12)
H6 H 1.05280 0.71410 0.01700
C9 C 0.88688(11) 0.67182(12) -0.06216(12)
H7 H 0.88910 0.70900 -0.14810
C10 C 0.78513(10) 0.61493(11) -0.03577(12)
C11 C 0.67289(11) 0.69377(13) -0.24548(13)
H8 H 0.72800 0.66480 -0.30360
H9 H 0.68520 0.78850 -0.22420
C12 C 0.54932(12) 0.66665(14) -0.31122(15)
H10 H 0.53750 0.68600 -0.40870
H11 H 0.49440 0.71940 -0.26890
C13 C 0.53648(11) 0.51941(13) -0.28516(14)
H12 H 0.56810 0.46600 -0.35250
H13 H 0.45470 0.49570 -0.28810
C14 C 0.60547(11) 0.49785(13) -0.14427(14)
H14 H 0.55410 0.49500 -0.07610
H15 H 0.64980 0.41460 -0.14000
N1 N 0.88115(9) 0.56304(10) 0.18649(10)
N2 N 0.78688(9) 0.56422(10) 0.09216(10)
N3 N 0.68348(9) 0.61376(10) -0.12271(11)
O1 O 0.69426(8) 0.51900(9) 0.12623(9)
#END
