
#######################################################################
#
#                 Cambridge Crystallographic Data Centre
#                                CCDC
#
#######################################################################
#
# If this CIF has been generated from an entry in the Cambridge
# Structural Database, then it will include bibliographic, chemical,
# crystal, experimental, refinement or atomic coordinate data resulting
# from the CCDC's data processing and validation procedures.
#
#######################################################################

data_CSD_CIF_QELQEG
_audit_creation_date 2018-01-11
_audit_creation_method CSD-ConQuest-V1
_database_code_CSD QELQEG
_database_code_depnum_ccdc_archive 'CCDC 1588348'
_chemical_formula_sum 'C17 H14 N4 O3'
_chemical_formula_moiety
;
C17 H14 N4 O3
;
_journal_coden_Cambridge 1336
_journal_volume 20
_journal_year 2018
_journal_page_first 660
_journal_name_full 'Org.Lett. '
loop_
_publ_author_name
"Bao-Qu Wang"
"Cong-Hai Zhang"
"Xiao-Xue Tian"
"Jun Lin"
"Sheng-Jiao Yan"
_chemical_name_systematic
;
2-amino-N-benzyl-3-nitroquinoline-4-carboxamide
;
_cell_volume   1514.067
_exptl_crystal_colour 'colorless'
_exptl_crystal_density_diffrn 1.414
_exptl_crystal_description 'block'
_diffrn_ambient_temperature 296.1
#These two values have been output from a single CSD field.
_refine_ls_R_factor_gt 0.0418
_refine_ls_wR_factor_gt 0.0418
_symmetry_cell_setting monoclinic
_symmetry_space_group_name_H-M 'P 21/c'
_symmetry_Int_Tables_number 14
loop_
_symmetry_equiv_pos_site_id
_symmetry_equiv_pos_as_xyz
1 x,y,z
2 -x,1/2+y,1/2-z
3 -x,-y,-z
4 x,-1/2-y,-1/2+z
_cell_length_a 9.4009(11)
_cell_length_b 9.7452(11)
_cell_length_c 16.927(2)
_cell_angle_alpha 90
_cell_angle_beta 102.486(1)
_cell_angle_gamma 90
_cell_formula_units_Z 4
loop_
_atom_type_symbol
_atom_type_radius_bond
C 0.68
H 0.23
N 0.68
O 0.68
loop_
_atom_site_label
_atom_site_type_symbol
_atom_site_fract_x
_atom_site_fract_y
_atom_site_fract_z
O1 O 0.48940(12) 0.43581(12) 0.07517(7)
O2 O 0.59284(12) 0.62511(13) 0.12009(8)
O3 O 0.54501(11) 0.84572(10) 0.24464(6)
N1 N 0.48677(13) 0.54959(13) 0.10587(7)
N2 N 0.09111(13) 0.60010(12) 0.09511(7)
N3 N 0.57136(13) 0.62889(12) 0.29518(7)
H1 H 0.53050 0.54990 0.29500
N4 N 0.20150(14) 0.47290(16) 0.01275(8)
H2 H 0.11680 0.45200 -0.01550
H3 H 0.27850 0.44140 -0.00050
C1 C 0.35210(14) 0.59690(14) 0.12651(8)
C2 C 0.21344(15) 0.55465(15) 0.07756(8)
C3 C 0.09614(16) 0.68595(14) 0.15923(9)
C4 C 0.22872(15) 0.72936(14) 0.21041(8)
C5 C 0.36012(15) 0.68170(13) 0.19192(8)
C6 C 0.50353(16) 0.72617(14) 0.24606(8)
C7 C 0.71306(17) 0.65160(18) 0.34956(9)
H4 H 0.72730 0.74920 0.35930
H5 H 0.78930 0.61930 0.32370
C8 C 0.72575(17) 0.57886(16) 0.42926(10)
C9 C 0.6491(2) 0.62387(18) 0.48514(11)
H6 H 0.58660 0.69850 0.47270
C10 C 0.6635(3) 0.5600(2) 0.55934(13)
H7 H 0.61180 0.59220 0.59660
C11 C 0.7532(4) 0.4503(3) 0.57745(15)
H8 H 0.76330 0.40740 0.62740
C12 C 0.8285(3) 0.4024(2) 0.52320(17)
H9 H 0.88780 0.32560 0.53570
C13 C 0.8174(2) 0.4679(2) 0.44884(13)
H10 H 0.87170 0.43680 0.41260
C14 C 0.22364(18) 0.81852(15) 0.27609(9)
H11 H 0.30980 0.84580 0.31070
C15 C 0.09401(19) 0.86433(17) 0.28878(10)
H12 H 0.09200 0.92310 0.33180
C16 C -0.03691(19) 0.82335(18) 0.23726(11)
H13 H -0.12500 0.85630 0.24610
C17 C -0.03668(17) 0.73592(17) 0.17441(10)
H14 H -0.12450 0.70890 0.14130
#END
