
#######################################################################
#
#                 Cambridge Crystallographic Data Centre
#                                CCDC
#
#######################################################################
#
# If this CIF has been generated from an entry in the Cambridge
# Structural Database, then it will include bibliographic, chemical,
# crystal, experimental, refinement or atomic coordinate data resulting
# from the CCDC's data processing and validation procedures.
#
#######################################################################

data_CSD_CIF_QENQIJ
_audit_creation_date 2001-05-10
_audit_creation_method CSD-ConQuest-V1
_database_code_CSD QENQIJ
_database_code_depnum_ccdc_archive 'CCDC 151721'
_chemical_formula_sum 'C30 H23 N1 O4'
_chemical_formula_moiety
;
C30 H23 N1 O4
;
_journal_coden_Cambridge 10
_journal_volume 84
_journal_year 2001
_journal_page_first 401
_journal_name_full 'Helv.Chim.Acta '
loop_
_publ_author_name
"G.A.Schmid"
"H.-J.Borschberg"
_chemical_name_systematic
;
2-Benzyl-1,2,2a,10b-tetrahydrocyclobuta(l)phenanthren-2a-yl 4-nitrobenzoate
;
_cell_volume   2335.479
_exptl_crystal_colour 'colorless'
_exptl_crystal_density_diffrn 1.313
_exptl_crystal_description 'plate'
_exptl_crystal_preparation 'dichloromethane/cyclohexane'
_diffrn_ambient_temperature ?
_diffrn_special_details
;
The study was carried out at room temperature,in the range 283-303K

;
#These two values have been output from a single CSD field.
_refine_ls_R_factor_gt 0.0767
_refine_ls_wR_factor_gt 0.0767
_symmetry_cell_setting orthorhombic
_symmetry_space_group_name_H-M 'P 21 21 21'
_symmetry_Int_Tables_number 19
loop_
_symmetry_equiv_pos_site_id
_symmetry_equiv_pos_as_xyz
1 x,y,z
2 1/2-x,-y,1/2+z
3 1/2+x,1/2-y,-z
4 -x,1/2+y,1/2-z
_cell_length_a 7.357(2)
_cell_length_b 11.071(3)
_cell_length_c 28.674(9)
_cell_angle_alpha 90
_cell_angle_beta 90
_cell_angle_gamma 90
_cell_formula_units_Z 4
loop_
_atom_type_symbol
_atom_type_radius_bond
C 0.68
H 0.23
N 0.68
O 0.68
loop_
_atom_site_label
_atom_site_type_symbol
_atom_site_fract_x
_atom_site_fract_y
_atom_site_fract_z
O1 O -0.0201(8) 0.3294(5) 0.3439(2)
O2 O -0.2549(10) 0.4158(5) 0.3059(2)
O3 O -0.176(2) 0.8545(13) 0.4786(5)
O4 O -0.110(3) 0.717(2) 0.5262(6)
N1 N -0.147(2) 0.747(2) 0.4890(7)
C1 C 0.0480(12) 0.2789(7) 0.2590(3)
H1 H 0.08950 0.36300 0.25900
C2 C -0.0851(12) 0.2561(8) 0.2206(3)
C3 C -0.0726(14) 0.3188(10) 0.1787(4)
H2 H 0.00650 0.38410 0.17700
C4 C -0.1698(14) 0.2896(9) 0.1402(4)
H3 H -0.15310 0.33030 0.11220
C5 C -0.2947(15) 0.1969(9) 0.1443(4)
H4 H -0.36360 0.17560 0.11840
C6 C -0.3198(15) 0.1362(10) 0.1848(4)
H5 H -0.40510 0.07430 0.18620
C7 C -0.2184(13) 0.1657(9) 0.2249(3)
C8 C -0.2455(14) 0.1093(7) 0.2712(3)
C9 C -0.3782(15) 0.0172(9) 0.2780(4)
H6 H -0.44030 -0.01300 0.25230
C10 C -0.4163(15) -0.0276(9) 0.3210(4)
H7 H -0.50440 -0.08730 0.32400
C11 C -0.3324(14) 0.0113(9) 0.3581(4)
H8 H -0.36440 -0.01950 0.38710
C12 C -0.1917(14) 0.1004(9) 0.3550(4)
H9 H -0.13060 0.12700 0.38150
C13 C -0.1495(12) 0.1460(8) 0.3109(3)
C14 C 0.0030(11) 0.2368(8) 0.3077(3)
C15 C 0.1959(12) 0.1789(9) 0.3114(3)
H10 H 0.19210 0.09490 0.32220
C16 C 0.2124(15) 0.1889(9) 0.2601(3)
H11 H 0.18910 0.11380 0.24380
H12 H 0.32600 0.22460 0.24990
C17 C 0.3352(12) 0.2559(9) 0.3385(4)
H13 H 0.45530 0.22730 0.33000
H14 H 0.32510 0.33810 0.32710
C18 C 0.3283(13) 0.2613(9) 0.3902(3)
C19 C 0.2707(19) 0.1682(12) 0.4168(4)
H15 H 0.23820 0.09680 0.40190
C20 C 0.257(3) 0.1726(17) 0.4649(6)
H16 H 0.21770 0.10720 0.48260
C21 C 0.305(2) 0.2791(16) 0.4844(6)
H17 H 0.29370 0.28750 0.51660
C22 C 0.370(2) 0.3753(15) 0.4595(6)
H18 H 0.40630 0.44560 0.47460
C23 C 0.3817(18) 0.3671(12) 0.4123(5)
H19 H 0.42500 0.43190 0.39490
C24 C -0.1536(13) 0.4128(8) 0.3390(3)
C25 C -0.1497(13) 0.4980(8) 0.3794(3)
C26 C -0.2320(15) 0.6082(8) 0.3736(3)
H20 H -0.28720 0.62770 0.34540
C27 C -0.2323(17) 0.6894(11) 0.4097(4)
H21 H -0.28940 0.76380 0.40630
C28 C -0.1495(16) 0.6606(11) 0.4499(4)
C29 C -0.0640(18) 0.5494(11) 0.4568(4)
H22 H -0.00920 0.52950 0.48490
C30 C -0.0651(15) 0.4704(11) 0.4193(4)
H23 H -0.00580 0.39650 0.42190
#END
