
#######################################################################
#
#                 Cambridge Crystallographic Data Centre
#                                CCDC
#
#######################################################################
#
# If this CIF has been generated from an entry in the Cambridge
# Structural Database, then it will include bibliographic, chemical,
# crystal, experimental, refinement or atomic coordinate data resulting
# from the CCDC's data processing and validation procedures.
#
#######################################################################

data_CSD_CIF_QEPBUJ
_audit_creation_date 2007-01-05
_audit_creation_method CSD-ConQuest-V1
_database_code_CSD QEPBUJ
_database_code_depnum_ccdc_archive 'CCDC 614391'
_chemical_formula_sum 'C18 H24 N2 O3'
_chemical_formula_moiety
;
C18 H24 N2 O3
;
_journal_coden_Cambridge 182
_journal_year 2006
_journal_page_first 3886
_journal_name_full 'Chem.Commun. '
loop_
_publ_author_name
"K.J.Wallace"
"R.I.Fagbemi"
"F.J.Folmer-Andersen"
"J.Morey"
"V.M.Lynch"
"E.V.Anslyn"
_chemical_name_systematic
;
4-Butyl-7-(diethylamino)coumarin-3-one oxime
;
_cell_volume   3389.525
_exptl_crystal_colour 'orange'
_exptl_crystal_density_diffrn 1.24
_exptl_crystal_description 'lath'
_exptl_crystal_preparation 'methanol'
_diffrn_ambient_temperature 117
#These two values have been output from a single CSD field.
_refine_ls_R_factor_gt 0.0786
_refine_ls_wR_factor_gt 0.0786
_symmetry_cell_setting monoclinic
_symmetry_space_group_name_H-M 'P 21/c'
_symmetry_Int_Tables_number 14
loop_
_symmetry_equiv_pos_site_id
_symmetry_equiv_pos_as_xyz
1 x,y,z
2 -x,1/2+y,1/2-z
3 -x,-y,-z
4 x,-1/2-y,-1/2+z
_cell_length_a 14.9783(4)
_cell_length_b 16.9346(6)
_cell_length_c 13.5481(6)
_cell_angle_alpha 90
_cell_angle_beta 99.484(2)
_cell_angle_gamma 90
_cell_formula_units_Z 8
loop_
_atom_type_symbol
_atom_type_radius_bond
C 0.68
H 0.23
N 0.68
O 0.68
loop_
_atom_site_label
_atom_site_type_symbol
_atom_site_fract_x
_atom_site_fract_y
_atom_site_fract_z
O1 O 0.59068(18) 0.43505(18) 0.56675(19)
C1 C 0.5672(3) 0.3684(3) 0.5115(3)
C2 C 0.5786(3) 0.3679(3) 0.4079(3)
C3 C 0.6093(3) 0.4331(3) 0.3643(3)
C4 C 0.6313(3) 0.5020(3) 0.4241(3)
C5 C 0.6618(3) 0.5746(3) 0.3907(3)
H1 H 0.66870 0.57920 0.32170
C6 C 0.6811(3) 0.6383(3) 0.4520(3)
H2 H 0.70050 0.68700 0.42610
C7 C 0.6726(3) 0.6347(3) 0.5551(3)
C8 C 0.6411(3) 0.5638(3) 0.5894(3)
H3 H 0.63400 0.55830 0.65820
C9 C 0.6220(3) 0.5025(3) 0.5247(3)
O2 O 0.53855(19) 0.31400(18) 0.5574(2)
C10 C 0.5524(3) 0.2908(3) 0.3616(3)
H4 H 0.53120 0.25090 0.40250
N1 N 0.5552(2) 0.2731(2) 0.2703(3)
O3 O 0.5223(2) 0.1957(2) 0.2507(2)
C11 C 0.6192(3) 0.4328(3) 0.2558(3)
H5 H 0.64830 0.38440 0.24200
H6 H 0.65710 0.47580 0.24220
C12 C 0.5295(4) 0.4412(3) 0.1857(4)
H7 H 0.48830 0.40280 0.20490
H8 H 0.53680 0.43060 0.11790
C13 C 0.4886(4) 0.5173(3) 0.1888(4)
H9 H 0.53160 0.55570 0.17370
H10 H 0.47800 0.52660 0.25580
C14 C 0.3954(4) 0.5275(3) 0.1137(4)
H11 H 0.37180 0.57980 0.11890
H12 H 0.40640 0.51880 0.04670
H13 H 0.35230 0.48950 0.12950
N2 N 0.6934(2) 0.6982(2) 0.6172(3)
C15 C 0.6860(3) 0.6937(3) 0.7236(3)
H14 H 0.63130 0.66650 0.73140
H15 H 0.68250 0.74650 0.74840
C16 C 0.7661(3) 0.6531(3) 0.7867(3)
H16 H 0.75990 0.65180 0.85610
H17 H 0.76900 0.60010 0.76230
H18 H 0.82060 0.68070 0.77940
C17 C 0.7261(3) 0.7731(3) 0.5840(3)
H19 H 0.76240 0.76370 0.53300
H20 H 0.76360 0.79780 0.63970
C18 C 0.6496(3) 0.8301(3) 0.5441(4)
H21 H 0.67310 0.87900 0.52350
H22 H 0.61260 0.80560 0.48770
H23 H 0.61380 0.84000 0.59540
O4 O 0.88300(18) 0.57744(18) 0.56072(19)
C19 C 0.9096(3) 0.6368(3) 0.5020(3)
C20 C 0.9260(3) 0.6170(3) 0.4033(3)
C21 C 0.9170(3) 0.5412(3) 0.3687(3)
C22 C 0.8869(3) 0.4813(3) 0.4310(3)
C23 C 0.8729(3) 0.4010(3) 0.4066(3)
H24 H 0.88540 0.38370 0.34270
C24 C 0.8431(3) 0.3472(3) 0.4685(3)
H25 H 0.83370 0.29320 0.44800
C25 C 0.8251(3) 0.3701(3) 0.5631(3)
C26 C 0.8385(3) 0.4496(3) 0.5898(3)
H26 H 0.82660 0.46740 0.65350
C27 C 0.8680(3) 0.5018(3) 0.5243(3)
O5 O 0.9191(2) 0.70246(18) 0.5401(2)
C28 C 0.9561(3) 0.6863(3) 0.3525(3)
H27 H 0.98860 0.72680 0.39310
N3 N 0.9420(2) 0.6958(2) 0.2571(3)
O6 O 0.9798(2) 0.7691(2) 0.2336(3)
C29 C 0.9362(3) 0.5182(2) 0.2661(3)
H28 H 0.96480 0.46730 0.26870
H29 H 0.97710 0.55630 0.24580
C30 C 0.8501(3) 0.5168(3) 0.1865(3)
H30 H 0.81950 0.56650 0.18730
H31 H 0.81100 0.47630 0.20450
C31 C 0.8691(3) 0.5024(3) 0.0808(3)
H32 H 0.81340 0.49120 0.03700
H33 H 0.90700 0.45650 0.08260
C32 C 0.9163(3) 0.5692(3) 0.0369(3)
H34 H 0.92740 0.55620 -0.02900
H35 H 0.87810 0.61500 0.03350
H36 H 0.97270 0.58000 0.07960
N4 N 0.7947(2) 0.3176(2) 0.6277(2)
C33 C 0.7617(3) 0.3421(3) 0.7181(3)
H37 H 0.71910 0.30380 0.73430
H38 H 0.73070 0.39160 0.70530
C34 C 0.8367(3) 0.3524(3) 0.8083(3)
H39 H 0.81240 0.36900 0.86620
H40 H 0.86720 0.30280 0.82170
H41 H 0.87890 0.39130 0.79250
C35 C 0.8028(3) 0.2304(3) 0.6131(4)
H42 H 0.81650 0.20530 0.67740
H43 H 0.85190 0.22020 0.57740
C36 C 0.7176(3) 0.1957(3) 0.5569(4)
H44 H 0.72450 0.13980 0.54870
H45 H 0.66870 0.20530 0.59310
H46 H 0.70450 0.22030 0.49230
H47 H 0.522(3) 0.190(3) 0.180(4)
H48 H 0.952(4) 0.777(4) 0.166(5)
#END
