
#######################################################################
#
#                 Cambridge Crystallographic Data Centre
#                                CCDC
#
#######################################################################
#
# If this CIF has been generated from an entry in the Cambridge
# Structural Database, then it will include bibliographic, chemical,
# crystal, experimental, refinement or atomic coordinate data resulting
# from the CCDC's data processing and validation procedures.
#
#######################################################################

data_CSD_CIF_QEPJIG01
_audit_creation_date 2014-02-14
_audit_creation_method CSD-ConQuest-V1
_database_code_CSD QEPJIG01
_database_code_depnum_ccdc_archive 'CCDC 984872'
_chemical_formula_sum 'C9 H13 N3 O4'
_chemical_formula_moiety
;
C9 H13 N3 O4
;
_journal_coeditor_code "hb7195"
_journal_coden_Cambridge 1370
_journal_volume 70
_journal_year 2014
_journal_page_first o294
_journal_name_full 'Acta Crystallogr.,Sect.E:Struct.Rep.Online '
loop_
_publ_author_name
"H.A.Shahid"
"E.Hussain"
"S.Jahangir"
"S.Yousuf"
_chemical_name_systematic
;
1-(2-Methyl-5-nitro-1H-imidazol-1-yl)propan-2-yl acetate
;
_chemical_melting_point 346
_cell_volume   1131.577
_exptl_crystal_colour 'colorless'
_exptl_crystal_density_diffrn 1.334
_exptl_special_details
;
Melting point range 346-348K

;
_exptl_crystal_description 'PLATE'
_diffrn_ambient_temperature 273
#These two values have been output from a single CSD field.
_refine_ls_R_factor_gt 0.0433
_refine_ls_wR_factor_gt 0.0433
_symmetry_cell_setting monoclinic
_symmetry_space_group_name_H-M 'P 21/n'
_symmetry_Int_Tables_number 14
loop_
_symmetry_equiv_pos_site_id
_symmetry_equiv_pos_as_xyz
1 x,y,z
2 1/2-x,1/2+y,1/2-z
3 -x,-y,-z
4 -1/2+x,-1/2-y,-1/2+z
_cell_length_a 6.1771(5)
_cell_length_b 8.9928(7)
_cell_length_c 20.3736(16)
_cell_angle_alpha 90
_cell_angle_beta 90.978(2)
_cell_angle_gamma 90
_cell_formula_units_Z 4
loop_
_atom_type_symbol
_atom_type_radius_bond
C 0.68
H 0.23
N 0.68
O 0.68
loop_
_atom_site_label
_atom_site_type_symbol
_atom_site_fract_x
_atom_site_fract_y
_atom_site_fract_z
O1 O 0.9023(2) 0.57210(19) 0.08857(8)
O2 O 0.6626(3) 0.55701(17) 0.16347(8)
O3 O 0.48247(17) 0.11443(13) 0.18968(6)
O4 O 0.8273(2) 0.17014(17) 0.16857(8)
N1 N 0.7361(3) 0.51890(17) 0.11093(9)
N2 N 0.5484(3) 0.2475(2) -0.00606(8)
N3 N 0.4442(2) 0.33433(15) 0.09081(7)
C1 C 0.6300(3) 0.40876(19) 0.07274(9)
C2 C 0.6890(3) 0.3540(2) 0.01383(10)
H1 H 0.80880 0.38510 -0.00950
C3 C 0.4036(3) 0.2373(2) 0.04109(10)
C4 C 0.2199(3) 0.1309(3) 0.03950(12)
H2 H 0.22370 0.07380 -0.00030
H3 H 0.08590 0.18480 0.04120
H4 H 0.23120 0.06540 0.07660
C5 C 0.3239(3) 0.3431(2) 0.15215(9)
H5 H 0.18260 0.29790 0.14550
H6 H 0.30180 0.44680 0.16330
C6 C 0.4387(3) 0.26641(19) 0.20886(9)
H7 H 0.57480 0.31780 0.21930
C7 C 0.2980(4) 0.2624(2) 0.26847(10)
H8 H 0.37410 0.21340 0.30380
H9 H 0.16700 0.20920 0.25830
H10 H 0.26330 0.36220 0.28140
C8 C 0.6837(3) 0.0809(2) 0.17030(9)
C9 C 0.7003(3) -0.0780(2) 0.15128(12)
H11 H 0.84520 -0.09890 0.13770
H12 H 0.60070 -0.09820 0.11570
H13 H 0.66580 -0.13950 0.18820
#END
