
#######################################################################
#
#                 Cambridge Crystallographic Data Centre
#                                CCDC
#
#######################################################################
#
# If this CIF has been generated from an entry in the Cambridge
# Structural Database, then it will include bibliographic, chemical,
# crystal, experimental, refinement or atomic coordinate data resulting
# from the CCDC's data processing and validation procedures.
#
#######################################################################

data_CSD_CIF_QEPJAY
_audit_creation_date 2013-04-23
_audit_creation_method CSD-ConQuest-V1
_database_code_CSD QEPJAY
_database_code_depnum_ccdc_archive 'CCDC 923415'
_chemical_formula_sum 'C16 H17 N3 O4'
_chemical_formula_moiety
;
C16 H17 N3 O4
;
_journal_coden_Cambridge 1078
_journal_year 2013
_journal_name_full 'CSD Communication(Private Communication) '
loop_
_publ_author_name
"S.Yousuf"
_chemical_name_systematic
;
1-(2-Methyl-5-nitro-1H-imidazol-1-yl)propan-2-yl 3-phenylacrylate
;
_cell_volume    809.285
_exptl_crystal_colour 'colorless'
_exptl_crystal_density_diffrn 1.294
_exptl_special_details
;
contribution from H.E.J. Research Institute of Chemistry, International 
Center for Chemical and Biological Sciences, University of Karachi, 
Karachi-75270, Pakistan
;
_exptl_crystal_description 'block'
_diffrn_ambient_temperature 273
#These two values have been output from a single CSD field.
_refine_ls_R_factor_gt 0.0361
_refine_ls_wR_factor_gt 0.0361
_symmetry_cell_setting monoclinic
_symmetry_space_group_name_H-M 'P 21'
_symmetry_Int_Tables_number 4
loop_
_symmetry_equiv_pos_site_id
_symmetry_equiv_pos_as_xyz
1 x,y,z
2 -x,1/2+y,-z
_cell_length_a 6.5444(4)
_cell_length_b 9.3579(6)
_cell_length_c 13.2222(9)
_cell_angle_alpha 90
_cell_angle_beta 91.945(2)
_cell_angle_gamma 90
_cell_formula_units_Z 2
loop_
_atom_type_symbol
_atom_type_radius_bond
C 0.68
H 0.23
N 0.68
O 0.68
loop_
_atom_site_label
_atom_site_type_symbol
_atom_site_fract_x
_atom_site_fract_y
_atom_site_fract_z
O1 O 0.2094(3) 0.3563(2) -0.20648(14)
O2 O -0.0108(3) 0.31709(19) -0.09104(14)
O3 O 0.1522(2) 0.32177(14) 0.22965(11)
O4 O 0.1832(2) 0.08316(15) 0.22514(12)
N1 N 0.2241(2) 0.48568(15) 0.04514(12)
N2 N 0.5394(2) 0.5612(2) 0.01930(13)
N3 N 0.1487(3) 0.3682(2) -0.11967(16)
C1 C 0.3892(3) 0.5557(2) 0.08352(14)
C2 C 0.4689(3) 0.4930(3) -0.06449(17)
H1 H 0.54190 0.47990 -0.12290
C3 C 0.2768(3) 0.4466(2) -0.05118(14)
C4 C 0.0296(3) 0.4655(2) 0.09507(16)
H2 H -0.08180 0.47790 0.04550
H3 H 0.01620 0.53860 0.14640
C5 C 0.0105(3) 0.3204(2) 0.14388(17)
H4 H 0.04790 0.24520 0.09630
C6 C -0.2036(4) 0.2953(3) 0.1798(2)
H5 H -0.20710 0.20750 0.21720
H6 H -0.29710 0.28960 0.12240
H7 H -0.24230 0.37300 0.22250
C7 C 0.2267(3) 0.1969(2) 0.26283(15)
C8 C 0.3717(3) 0.2205(2) 0.34987(17)
H8 H 0.36830 0.30670 0.38470
C9 C 0.5041(3) 0.1229(2) 0.37884(16)
H9 H 0.49720 0.03580 0.34500
C10 C 0.6623(3) 0.1372(2) 0.45930(15)
C11 C 0.8200(4) 0.0412(3) 0.46428(18)
H10 H 0.82230 -0.03390 0.41820
C12 C 0.9755(4) 0.0542(4) 0.53665(19)
H11 H 1.08220 -0.01150 0.53830
C13 C 0.9749(5) 0.1619(3) 0.60578(19)
H12 H 1.07990 0.16950 0.65460
C14 C 0.8195(5) 0.2581(3) 0.60277(18)
H13 H 0.81840 0.33240 0.64950
C15 C 0.6635(4) 0.2461(3) 0.53083(17)
H14 H 0.55710 0.31200 0.53000
C16 C 0.4012(3) 0.6196(3) 0.18574(17)
H15 H 0.53810 0.65240 0.20030
H16 H 0.36500 0.54920 0.23480
H17 H 0.30830 0.69880 0.18850
#END
