
#######################################################################
#
#                 Cambridge Crystallographic Data Centre
#                                CCDC
#
#######################################################################
#
# If this CIF has been generated from an entry in the Cambridge
# Structural Database, then it will include bibliographic, chemical,
# crystal, experimental, refinement or atomic coordinate data resulting
# from the CCDC's data processing and validation procedures.
#
#######################################################################

data_CSD_CIF_QEPROU
_audit_creation_date 2013-04-24
_audit_creation_method CSD-ConQuest-V1
_database_code_CSD QEPROU
_database_code_depnum_ccdc_archive 'CCDC 926946'
_chemical_formula_sum 'C25 H19 N1 O3'
_chemical_formula_moiety
;
C25 H19 N1 O3
;
_journal_coden_Cambridge 1078
_journal_year 2013
_journal_name_full 'CSD Communication(Private Communication) '
loop_
_publ_author_name
"K.A.Wheeler"
"P.N.Basa"
_chemical_name_systematic
;
4-Nitrophenyl trityl ether
;
_cell_volume   3995.858
_exptl_crystal_colour 'yellow'
_exptl_crystal_density_diffrn 1.268
_exptl_special_details
;
contribution from Eastern Illinois University, 600 Lincoln Ave, Charleston, 
IL 61920, USA
;
_exptl_crystal_description 'block'
_diffrn_ambient_temperature 298
#These two values have been output from a single CSD field.
_refine_ls_R_factor_gt 0.0525
_refine_ls_wR_factor_gt 0.0525
_symmetry_cell_setting orthorhombic
_symmetry_space_group_name_H-M 'P b c a'
_symmetry_Int_Tables_number 61
loop_
_symmetry_equiv_pos_site_id
_symmetry_equiv_pos_as_xyz
1 x,y,z
2 1/2-x,-y,1/2+z
3 1/2+x,1/2-y,-z
4 -x,1/2+y,1/2-z
5 -x,-y,-z
6 -1/2+x,y,-1/2-z
7 -1/2-x,-1/2+y,z
8 x,-1/2-y,-1/2+z
_cell_length_a 16.202(4)
_cell_length_b 14.546(3)
_cell_length_c 16.955(2)
_cell_angle_alpha 90
_cell_angle_beta 90
_cell_angle_gamma 90
_cell_formula_units_Z 8
loop_
_atom_type_symbol
_atom_type_radius_bond
C 0.68
H 0.23
N 0.68
O 0.68
loop_
_atom_site_label
_atom_site_type_symbol
_atom_site_fract_x
_atom_site_fract_y
_atom_site_fract_z
O1 O 0.14200(8) 0.07663(9) 0.28384(8)
C1 C 0.15745(11) 0.15952(13) 0.32004(11)
C2 C 0.07157(11) 0.06434(13) 0.23019(11)
C3 C 0.07013(11) 0.14549(13) 0.17145(11)
C4 C -0.00767(11) 0.04868(12) 0.27892(11)
C5 C 0.14508(13) 0.16892(15) 0.13530(13)
H1 H 0.19240 0.13540 0.14700
C6 C 0.12621(13) 0.31228(14) 0.36406(12)
H2 H 0.08930 0.36090 0.36920
C7 C 0.20540(13) 0.31990(14) 0.39300(12)
C8 C 0.09166(11) -0.02658(13) 0.18719(12)
C9 C 0.07569(14) -0.03815(15) 0.10759(13)
H3 H 0.05560 0.01100 0.07830
C10 C -0.08156(12) 0.02598(14) 0.24117(13)
H4 H -0.08340 0.02340 0.18640
C11 C 0.10205(12) 0.23210(14) 0.32748(12)
H5 H 0.04870 0.22650 0.30780
C12 C 0.23593(12) 0.16696(15) 0.35326(12)
H6 H 0.27200 0.11730 0.35100
N1 N 0.23148(15) 0.40691(15) 0.42924(11)
C13 C -0.07866(15) 0.03226(16) 0.40358(14)
H7 H -0.07740 0.03480 0.45840
C14 C 0.12264(14) -0.10101(15) 0.22913(14)
H8 H 0.13350 -0.09500 0.28270
C15 C -0.00698(13) 0.05004(14) 0.36091(12)
H9 H 0.04180 0.06300 0.38750
C16 C 0.14944(15) 0.24120(16) 0.08252(13)
H10 H 0.19960 0.25610 0.05920
C17 C 0.00098(13) 0.19718(15) 0.15351(13)
H11 H -0.04920 0.18350 0.17740
O2 O 0.18080(13) 0.46830(12) 0.43766(12)
C18 C -0.15225(13) 0.00726(16) 0.28443(15)
H12 H -0.20090 -0.00800 0.25830
C19 C 0.07982(17) 0.29142(16) 0.06426(14)
H13 H 0.08270 0.33950 0.02820
C20 C 0.26033(13) 0.24704(17) 0.38926(13)
H14 H 0.31290 0.25230 0.41080
C21 C -0.15124(14) 0.01100(16) 0.36568(15)
H15 H -0.19900 -0.00070 0.39450
C22 C 0.13754(16) -0.18410(16) 0.19196(16)
H16 H 0.15940 -0.23290 0.22050
O3 O 0.30377(13) 0.41421(15) 0.44889(14)
C23 C 0.12006(15) -0.19497(17) 0.11260(17)
H17 H 0.12920 -0.25120 0.08800
C24 C 0.08933(16) -0.12253(17) 0.07080(15)
H18 H 0.07740 -0.12940 0.01750
C25 C 0.00597(15) 0.26976(16) 0.09989(15)
H19 H -0.04100 0.30380 0.08810
#END
