
#######################################################################
#
#                 Cambridge Crystallographic Data Centre
#                                CCDC
#
#######################################################################
#
# If this CIF has been generated from an entry in the Cambridge
# Structural Database, then it will include bibliographic, chemical,
# crystal, experimental, refinement or atomic coordinate data resulting
# from the CCDC's data processing and validation procedures.
#
#######################################################################

data_CSD_CIF_QEQKAY
_audit_creation_date 2001-05-23
_audit_creation_method CSD-ConQuest-V1
_database_code_CSD QEQKAY
_database_code_depnum_ccdc_archive 'CCDC 159219'
_chemical_formula_sum 'C25 H35 N1 O3'
_chemical_formula_moiety
;
C25 H35 N1 O3
;
_journal_coden_Cambridge 444
_journal_volume 70
_journal_year 2000
_journal_page_first 1571
_journal_name_full 'Zh.Obshch.Khim.(Russ.)(Russ.J.Gen.Chem.) '
loop_
_publ_author_name
"R.P.Litvinovskaya"
"A.S.Lyakhov"
"S.V.Drach"
"V.A.Khripach"
"A.A.Govorova"
_chemical_name_systematic
;
(5'R)-17\b-Hydroxy-17\a-(3'-isopropylisoxazolin-5'-yl)-3-methoxyestra-1,3,5(10
)-triene
;
_cell_volume   2199.400
_exptl_crystal_colour 'colorless'
_exptl_crystal_density_diffrn 1.201
_exptl_special_details
;
Absolute configuration

;
_exptl_crystal_description 'prism'
_exptl_crystal_preparation 'ethanol'
_diffrn_ambient_temperature ?
_diffrn_special_details
;
The study was carried out at room temperature,in the range 283-303K

;
#These two values have been output from a single CSD field.
_refine_ls_R_factor_gt 0.042
_refine_ls_wR_factor_gt 0.042
_symmetry_cell_setting monoclinic
_symmetry_space_group_name_H-M 'C 2'
_symmetry_Int_Tables_number 5
loop_
_symmetry_equiv_pos_site_id
_symmetry_equiv_pos_as_xyz
1 x,y,z
2 -x,y,-z
3 1/2+x,1/2+y,z
4 1/2-x,1/2+y,-z
_cell_length_a 16.406(4)
_cell_length_b 8.200(1)
_cell_length_c 16.472(3)
_cell_angle_alpha 90
_cell_angle_beta 97.01(2)
_cell_angle_gamma 90
_cell_formula_units_Z 4
loop_
_atom_type_symbol
_atom_type_radius_bond
C 0.68
H 0.23
N 0.68
O 0.68
loop_
_atom_site_label
_atom_site_type_symbol
_atom_site_fract_x
_atom_site_fract_y
_atom_site_fract_z
C1 C 0.81239(14) -0.0305(3) -0.05693(13)
H1 H 0.79620 -0.13740 -0.04900
C2 C 0.79908(15) 0.0357(3) -0.13427(14)
H2 H 0.77500 -0.02660 -0.17790
C3 C 0.82183(14) 0.1956(3) -0.14667(14)
C4 C 0.85586(14) 0.2878(3) -0.08149(14)
H3 H 0.87000 0.39580 -0.08970
C5 C 0.86946(13) 0.2204(3) -0.00244(13)
C6 C 0.90694(18) 0.3298(3) 0.06590(14)
H4 H 0.87710 0.43220 0.06330
H5 H 0.96330 0.35340 0.05780
C7 C 0.90580(18) 0.2554(3) 0.15044(14)
H6 H 0.85110 0.26520 0.16670
H7 H 0.94360 0.31440 0.18990
C8 C 0.93042(14) 0.0763(3) 0.15011(13)
H8 H 0.98260 0.06740 0.12720
C9 C 0.86475(14) -0.0186(3) 0.09488(12)
H9 H 0.81350 -0.00790 0.11940
C10 C 0.84943(13) 0.0583(3) 0.01007(12)
C11 C 0.88452(18) -0.2016(3) 0.09361(14)
H10 H 0.83950 -0.25880 0.06210
H11 H 0.93340 -0.21820 0.06700
C12 C 0.89843(18) -0.2728(3) 0.18050(14)
H12 H 0.84750 -0.26750 0.20470
H13 H 0.91390 -0.38670 0.17750
C13 C 0.96505(14) -0.1817(3) 0.23478(13)
C14 C 0.94102(14) -0.0001(3) 0.23519(13)
H14 H 0.88720 0.00500 0.25520
C15 C 1.00269(18) 0.0736(4) 0.30225(15)
H15 H 0.98120 0.17230 0.32410
H16 H 1.05420 0.09850 0.28170
C16 C 1.01398(18) -0.0614(4) 0.36749(16)
H17 H 0.98690 -0.03080 0.41440
H18 H 1.07190 -0.07750 0.38560
C17 C 0.97569(15) -0.2213(3) 0.32876(13)
C18 C 1.04802(18) -0.2066(4) 0.20312(17)
H19 H 1.05670 -0.32080 0.19480
H20 H 1.09100 -0.16500 0.24240
H21 H 1.04840 -0.14960 0.15230
C19 C 0.8348(2) 0.4088(4) -0.24320(18)
H22 H 0.81020 0.48720 -0.21040
H23 H 0.81970 0.43310 -0.30010
H24 H 0.89350 0.41320 -0.23070
O1 O 0.80686(12) 0.2508(3) -0.22616(10)
O2 O 1.02845(13) -0.3584(3) 0.34452(11)
H25 H 1.04540 -0.36200 0.39340
O3 O 0.90682(14) -0.2466(3) 0.45077(10)
N1 N 0.89075(15) -0.3985(3) 0.48550(13)
C20 C 0.86602(17) -0.4992(4) 0.42971(15)
C21 C 0.8613(2) -0.4309(4) 0.34560(14)
H26 H 0.80510 -0.42970 0.31910
H27 H 0.89510 -0.49260 0.31230
C22 C 0.89405(16) -0.2590(3) 0.36101(13)
H28 H 0.85240 -0.17980 0.33880
C23 C 0.8487(3) -0.6756(5) 0.4476(2)
H29 H 0.89480 -0.73670 0.42980
C24 C 0.8512(4) -0.7108(7) 0.5349(3)
H30 H 0.80100 -0.67470 0.55360
H31 H 0.89680 -0.65470 0.56460
H32 H 0.85730 -0.82610 0.54370
C25 C 0.7752(5) -0.7364(8) 0.3962(3)
H33 H 0.72770 -0.67780 0.40900
H34 H 0.76830 -0.85050 0.40660
H35 H 0.78160 -0.72070 0.33960
#END
