
#######################################################################
#
#                 Cambridge Crystallographic Data Centre
#                                CCDC
#
#######################################################################
#
# If this CIF has been generated from an entry in the Cambridge
# Structural Database, then it will include bibliographic, chemical,
# crystal, experimental, refinement or atomic coordinate data resulting
# from the CCDC's data processing and validation procedures.
#
#######################################################################

data_CSD_CIF_QERHAX
_audit_creation_date 2007-01-05
_audit_creation_method CSD-ConQuest-V1
_database_code_CSD QERHAX
_database_code_depnum_ccdc_archive 'CCDC 627497'
_chemical_formula_sum 'C17 H19 N1 O4'
_chemical_formula_moiety
;
C17 H19 N1 O4
;
_journal_coeditor_code "IUCr DN3023"
_journal_coden_Cambridge 1370
_journal_volume 62
_journal_year 2006
_journal_page_first o4793
_journal_name_full 'Acta Crystallogr.,Sect.E:Struct.Rep.Online '
loop_
_publ_author_name
"S.Naveen"
"M.P.Sadashiva"
"K.S.Rangappa"
"M.A.Sridhar"
"J.Shashidhara Prasad"
_chemical_name_systematic
;
2-Methyl-N-(3,4,5-trimethoxybenzylidene)aniline N-oxide
;
_chemical_name_common
;
N-(2-Methylphenyl)-C-(3,4,5-trimethoxyphenyl)nitrone
;
_chemical_melting_point 406.15
_cell_volume    795.627
_exptl_crystal_colour 'pale yellow'
_exptl_crystal_density_diffrn 1.258
_exptl_crystal_description 'block'
_exptl_crystal_preparation 'ethyl acetate/n-hexane'
_diffrn_ambient_temperature 295
#These two values have been output from a single CSD field.
_refine_ls_R_factor_gt 0.0375
_refine_ls_wR_factor_gt 0.0375
_symmetry_cell_setting monoclinic
_symmetry_space_group_name_H-M 'P 21'
_symmetry_Int_Tables_number 4
loop_
_symmetry_equiv_pos_site_id
_symmetry_equiv_pos_as_xyz
1 x,y,z
2 -x,1/2+y,-z
_cell_length_a 7.532(8)
_cell_length_b 8.256(9)
_cell_length_c 12.872(13)
_cell_angle_alpha 90
_cell_angle_beta 96.283(4)
_cell_angle_gamma 90
_cell_formula_units_Z 2
loop_
_atom_type_symbol
_atom_type_radius_bond
C 0.68
H 0.23
N 0.68
O 0.68
loop_
_atom_site_label
_atom_site_type_symbol
_atom_site_fract_x
_atom_site_fract_y
_atom_site_fract_z
O1 O 0.0908(3) 0.2076(3) 0.66639(16)
O2 O 0.0575(3) 0.2440(3) 0.45840(16)
O3 O 0.2675(3) 0.4408(3) 0.36540(14)
O4 O 0.5946(3) 0.4713(4) 0.86252(17)
N1 N 0.6720(3) 0.5561(3) 0.79473(16)
C1 C 0.9697(4) 0.8324(4) 0.9605(2)
C2 C 1.1336(4) 0.7961(5) 0.9288(2)
C3 C 1.1450(3) 0.6857(4) 0.8494(2)
C4 C 0.9927(3) 0.6106(4) 0.8033(2)
C5 C 0.8298(3) 0.6452(4) 0.83919(19)
C6 C 0.8129(3) 0.7579(4) 0.91742(19)
C7 C 0.6216(3) 0.5638(3) 0.6954(2)
C8 C 0.4709(3) 0.4805(3) 0.63900(19)
C9 C 0.4455(3) 0.5023(3) 0.5305(2)
C10 C 0.3041(3) 0.4276(3) 0.47091(19)
C11 C 0.1887(3) 0.3276(3) 0.5194(2)
C12 C 0.2132(3) 0.3058(3) 0.6269(2)
C13 C 0.3534(3) 0.3821(4) 0.6877(2)
C14 C 0.1207(5) 0.1574(5) 0.7710(3)
C15 C -0.1131(4) 0.3202(5) 0.4492(3)
C16 C 0.3716(5) 0.5488(6) 0.3129(3)
C17 C 0.6358(4) 0.8031(6) 0.9538(3)
H1 H 0.96330 0.90960 1.01270
H2 H 1.23620 0.84570 0.96070
H3 H 1.25530 0.66190 0.82690
H4 H 0.99910 0.53770 0.74880
H5 H 0.68890 0.62960 0.65600
H6 H 0.52400 0.56730 0.49810
H7 H 0.36870 0.36760 0.75970
H8 H 0.23760 0.11050 0.78390
H9 H 0.03260 0.07840 0.78450
H10 H 0.11220 0.24910 0.81610
H11 H -0.15660 0.32390 0.51660
H12 H -0.19490 0.25960 0.40170
H13 H -0.10280 0.42840 0.42330
H14 H 0.36550 0.65500 0.34280
H15 H 0.32680 0.55250 0.24020
H16 H 0.49340 0.51260 0.32010
H17 H 0.55140 0.82660 0.89430
H18 H 0.65070 0.89700 0.99790
H19 H 0.59250 0.71460 0.99230
#END
