
#######################################################################
#
#                 Cambridge Crystallographic Data Centre
#                                CCDC
#
#######################################################################
#
# If this CIF has been generated from an entry in the Cambridge
# Structural Database, then it will include bibliographic, chemical,
# crystal, experimental, refinement or atomic coordinate data resulting
# from the CCDC's data processing and validation procedures.
#
#######################################################################

data_CSD_CIF_QERZAR
_audit_creation_date 2018-01-17
_audit_creation_method CSD-ConQuest-V1
_database_code_CSD QERZAR
_database_code_depnum_ccdc_archive 'CCDC 1570492'
_chemical_formula_sum 'C15 H10 N2 O3'
_chemical_formula_moiety
;
C15 H10 N2 O3
;
_journal_coden_Cambridge 1495
_journal_year 2017
_journal_name_full 'Arab.J.Chem. '
loop_
_publ_author_name
"M.R.C.de Castro"
"R.F.Naves"
"A.Bernardes"
"C.C.da Silva"
"C.N.Perez"
"A.F.Moura"
"M.O.de Moraes"
"F.T.Martins"
_chemical_name_systematic
;
2-(4-nitrophenyl)quinolin-4(1H)-one
;
_cell_volume   1232.410
_exptl_crystal_colour 'colorless'
_exptl_crystal_density_diffrn 1.435
_exptl_crystal_description 'prism'
_diffrn_ambient_temperature 296
#These two values have been output from a single CSD field.
_refine_ls_R_factor_gt 0.0757
_refine_ls_wR_factor_gt 0.0757
_symmetry_cell_setting monoclinic
_symmetry_space_group_name_H-M 'P 21/c'
_symmetry_Int_Tables_number 14
loop_
_symmetry_equiv_pos_site_id
_symmetry_equiv_pos_as_xyz
1 x,y,z
2 -x,1/2+y,1/2-z
3 -x,-y,-z
4 x,-1/2-y,-1/2+z
_cell_length_a 8.6648(5)
_cell_length_b 11.2242(7)
_cell_length_c 12.7144(12)
_cell_angle_alpha 90
_cell_angle_beta 94.687(4)
_cell_angle_gamma 90
_cell_formula_units_Z 4
loop_
_atom_type_symbol
_atom_type_radius_bond
C 0.68
H 0.23
N 0.68
O 0.68
loop_
_atom_site_label
_atom_site_type_symbol
_atom_site_fract_x
_atom_site_fract_y
_atom_site_fract_z
O1 O 0.4505(5) 0.3364(4) 0.7682(4)
N1 N 0.9908(3) 0.7582(3) 0.9564(2)
H1 H 0.97490 0.74080 0.89050
O2 O 0.4902(4) 0.2362(3) 0.9088(4)
O3 O 1.0460(3) 0.8354(3) 1.2633(2)
C1 C 1.0926(4) 0.8484(3) 0.9853(3)
C2 C 1.1182(4) 0.8778(3) 1.0921(3)
N2 N 0.5114(4) 0.3232(4) 0.8551(4)
C3 C 0.6115(4) 0.4173(4) 0.9009(4)
C4 C 0.6290(4) 0.5195(4) 0.8442(3)
H2 H 0.57670 0.52890 0.77790
C5 C 0.7246(4) 0.6081(4) 0.8863(3)
H3 H 0.73580 0.67760 0.84790
C6 C 0.8034(4) 0.5962(4) 0.9829(3)
C7 C 0.9140(5) 0.6953(4) 1.0268(3)
C8 C 1.2224(4) 0.9685(4) 1.1223(3)
H4 H 1.23980 0.98880 1.19320
C9 C 1.2995(5) 1.0282(4) 1.0484(4)
H5 H 1.36950 1.08820 1.06910
C10 C 0.7842(5) 0.4957(4) 1.0396(3)
H6 H 0.83710 0.48800 1.10590
C11 C 0.6864(5) 0.4026(4) 1.0008(4)
H7 H 0.67260 0.33430 1.04040
C12 C 1.0318(4) 0.8107(3) 1.1666(3)
C13 C 0.9304(5) 0.7205(4) 1.1285(3)
H8 H 0.87420 0.67800 1.17520
C14 C 1.2728(5) 0.9986(4) 0.9429(4)
H9 H 1.32480 1.04010 0.89320
C15 C 1.1723(4) 0.9103(4) 0.9099(3)
H10 H 1.15650 0.89110 0.83870
#END
