
#######################################################################
#
#                 Cambridge Crystallographic Data Centre
#                                CCDC
#
#######################################################################
#
# If this CIF has been generated from an entry in the Cambridge
# Structural Database, then it will include bibliographic, chemical,
# crystal, experimental, refinement or atomic coordinate data resulting
# from the CCDC's data processing and validation procedures.
#
#######################################################################

data_CSD_CIF_QESHEC
_audit_creation_date 2007-01-05
_audit_creation_method CSD-ConQuest-V1
_database_code_CSD QESHEC
_database_code_depnum_ccdc_archive 'CCDC 629811'
_chemical_formula_sum 'C23 H20 N2 O4'
_chemical_formula_moiety
;
C23 H20 N2 O4
;
_journal_coeditor_code "IUCr BK5040"
_journal_coden_Cambridge 622
_journal_volume 62
_journal_year 2006
_journal_page_first 1112
_journal_name_full 'Acta Crystallogr.,Sect.B:Struct.Sci. '
loop_
_publ_author_name
"V.Bertolasi"
"L.Pretto"
"V.Ferretti"
"P.Gilli"
"G.Gilli"
_chemical_name_systematic
;
(2Z)-3-benzylamino-3-(4-methoxyphenyl)-1-(3-nitrophenyl)prop-2-en-1-one
;
_cell_volume    958.180
_exptl_crystal_colour 'colorless'
_exptl_crystal_density_diffrn 1.346
_exptl_crystal_description 'Plate'
_exptl_crystal_preparation 'methanol/ethyl acetate'
_diffrn_ambient_temperature 150
#These two values have been output from a single CSD field.
_refine_ls_R_factor_gt 0.0555
_refine_ls_wR_factor_gt 0.0555
_symmetry_cell_setting triclinic
_symmetry_space_group_name_H-M 'P -1'
_symmetry_Int_Tables_number 2
loop_
_symmetry_equiv_pos_site_id
_symmetry_equiv_pos_as_xyz
1 x,y,z
2 -x,-y,-z
_cell_length_a 6.9599(2)
_cell_length_b 8.4786(3)
_cell_length_c 17.1616(6)
_cell_angle_alpha 82.282(2)
_cell_angle_beta 78.773(2)
_cell_angle_gamma 75.599(2)
_cell_formula_units_Z 2
loop_
_atom_type_symbol
_atom_type_radius_bond
C 0.68
H 0.23
N 0.68
O 0.68
loop_
_atom_site_label
_atom_site_type_symbol
_atom_site_fract_x
_atom_site_fract_y
_atom_site_fract_z
O1 O -0.07927(19) -0.26221(15) 0.25074(7)
O2 O 0.59333(19) 0.44447(15) 0.25503(8)
O3 O -0.1854(2) -0.76039(17) 0.42083(9)
O4 O -0.3032(2) -0.74710(18) 0.54671(9)
N1 N 0.1250(3) -0.0516(2) 0.16791(9)
H1 H 0.050(4) -0.130(3) 0.1715(14)
N2 N -0.2412(2) -0.68586(19) 0.48049(10)
C1 C -0.0588(2) -0.2069(2) 0.31224(10)
C2 C 0.0472(3) -0.0831(2) 0.30992(10)
C3 C 0.1366(3) -0.0112(2) 0.23929(10)
C4 C 0.2527(3) 0.1128(2) 0.24327(10)
C5 C 0.4392(3) 0.0636(2) 0.26846(11)
C6 C 0.5489(3) 0.1769(2) 0.27208(11)
C7 C 0.4724(2) 0.3420(2) 0.25119(10)
C8 C 0.2841(3) 0.3932(2) 0.22876(10)
C9 C 0.1758(3) 0.2778(2) 0.22464(11)
C10 C -0.1451(2) -0.2801(2) 0.3921(1)
C11 C -0.1631(3) -0.4418(2) 0.39848(11)
C12 C -0.2333(3) -0.5120(2) 0.47281(11)
C13 C -0.2922(3) -0.4272(2) 0.53998(11)
C14 C -0.2792(3) -0.2654(3) 0.53250(12)
C15 C -0.2049(3) -0.1920(2) 0.45913(11)
C16 C 0.2143(3) 0.0152(2) 0.09051(11)
C17 C 0.0695(3) 0.1487(2) 0.04892(10)
C18 C 0.1380(3) 0.2176(2) -0.02653(11)
C19 C 0.0112(4) 0.3405(3) -0.06614(12)
C20 C -0.1854(4) 0.3961(3) -0.03122(13)
C21 C -0.2554(4) 0.3277(3) 0.04312(14)
C22 C -0.1286(3) 0.2039(3) 0.08310(12)
C23 C 0.5207(3) 0.6140(2) 0.23199(15)
H2 H 0.061(3) -0.048(2) 0.3574(11)
H3 H 0.493(3) -0.050(3) 0.2833(12)
H4 H 0.674(3) 0.144(3) 0.2901(12)
H5 H 0.225(3) 0.511(3) 0.2161(12)
H6 H 0.044(3) 0.315(3) 0.2096(13)
H7 H -0.122(3) -0.505(2) 0.3532(12)
H8 H -0.343(3) -0.478(3) 0.5898(13)
H9 H -0.319(3) -0.206(3) 0.5788(13)
H10 H -0.200(3) -0.080(3) 0.4544(11)
H11 H 0.329(3) 0.058(3) 0.0985(13)
H12 H 0.270(3) -0.077(3) 0.0560(13)
H13 H 0.277(4) 0.178(3) -0.0496(13)
H14 H 0.060(4) 0.395(3) -0.1189(15)
H15 H -0.274(4) 0.483(3) -0.0582(14)
H16 H -0.392(5) 0.365(4) 0.0677(17)
H17 H -0.181(3) 0.154(3) 0.1364(14)
H18 H 0.629(3) 0.666(3) 0.2375(12)
H19 H 0.492(4) 0.631(3) 0.1757(15)
H20 H 0.393(4) 0.662(3) 0.2686(14)
#END
