
#######################################################################
#
#                 Cambridge Crystallographic Data Centre
#                                CCDC
#
#######################################################################
#
# If this CIF has been generated from an entry in the Cambridge
# Structural Database, then it will include bibliographic, chemical,
# crystal, experimental, refinement or atomic coordinate data resulting
# from the CCDC's data processing and validation procedures.
#
#######################################################################

data_CSD_CIF_QESVIW
_audit_creation_date 2018-01-17
_audit_creation_method CSD-ConQuest-V1
_database_code_CSD QESVIW
_database_code_depnum_ccdc_archive 'CCDC 1532415'
_chemical_formula_sum 'C22 H23 N1 O5'
_chemical_formula_moiety
;
C22 H23 N1 O5
;
_journal_coden_Cambridge 1220
_journal_volume 24
_journal_year 2018
_journal_page_first 2080
_journal_name_full 'Chem.-Eur.J. '
loop_
_publ_author_name
"D.R.Loya"
"A.Jean"
"M.Cormier"
"C.Fressigne"
"S.Nejrotti"
"J.Blanchet"
"J.Maddaluno"
"Michael De Paolis"
_chemical_name_systematic
;
3,3-dimethyl-7-(2-nitrophenyl)-4-phenyloxonane-2,6-dione
;
_cell_volume   1903.238
_exptl_crystal_density_diffrn 1.331
_diffrn_ambient_temperature 173
#These two values have been output from a single CSD field.
_refine_ls_R_factor_gt 0.0354
_refine_ls_wR_factor_gt 0.0354
_symmetry_cell_setting monoclinic
_symmetry_space_group_name_H-M 'P 21/c'
_symmetry_Int_Tables_number 14
loop_
_symmetry_equiv_pos_site_id
_symmetry_equiv_pos_as_xyz
1 x,y,z
2 -x,1/2+y,1/2-z
3 -x,-y,-z
4 x,-1/2-y,-1/2+z
_cell_length_a 12.2593(5)
_cell_length_b 23.2336(8)
_cell_length_c 6.8793(3)
_cell_angle_alpha 90
_cell_angle_beta 103.753(1)
_cell_angle_gamma 90
_cell_formula_units_Z 4
loop_
_atom_type_symbol
_atom_type_radius_bond
C 0.68
H 0.23
N 0.68
O 0.68
loop_
_atom_site_label
_atom_site_type_symbol
_atom_site_fract_x
_atom_site_fract_y
_atom_site_fract_z
O1 O 0.22803(9) 0.12334(4) -0.28426(16)
O2 O 0.18220(9) 0.02984(5) -0.29451(17)
O3 O 0.26592(9) 0.05664(5) 0.20772(19)
O4 O 0.35361(10) 0.22337(5) 0.3226(2)
O5 O 0.51444(10) 0.26537(5) 0.4189(2)
N1 N 0.45620(12) 0.22196(6) 0.3799(2)
C1 C 0.15656(13) 0.07943(7) -0.2824(2)
C2 C 0.04479(13) 0.10131(6) -0.2515(2)
C3 C 0.05962(12) 0.10777(7) -0.0190(2)
H1 H 0.07030 0.06780 0.03610
C4 C 0.16557(12) 0.14147(7) 0.0885(2)
H2 H 0.17780 0.17380 0.00250
H3 H 0.15330 0.15780 0.21440
C5 C 0.26946(12) 0.10375(7) 0.1358(2)
C6 C 0.38059(12) 0.12460(6) 0.0938(2)
H4 H 0.37240 0.16580 0.05130
C7 C 0.40692(14) 0.08820(7) -0.0780(2)
H5 H 0.48850 0.08990 -0.07020
H6 H 0.38700 0.04750 -0.06090
C8 C 0.34355(14) 0.10892(8) -0.2816(2)
H7 H 0.38160 0.14330 -0.31940
H8 H 0.34460 0.07850 -0.38190
C9 C -0.04516(14) 0.05627(7) -0.3321(3)
H9 H -0.05000 0.04990 -0.47480
H10 H -0.11780 0.06990 -0.31440
H11 H -0.02540 0.02010 -0.25910
C10 C 0.01253(15) 0.15799(7) -0.3652(2)
H12 H 0.06640 0.18800 -0.30630
H13 H -0.06300 0.16950 -0.35580
H14 H 0.01350 0.15270 -0.50610
C11 C -0.04578(13) 0.13037(7) 0.0356(2)
C12 C -0.07373(13) 0.18855(7) 0.0291(2)
H15 H -0.02620 0.21590 -0.01240
C13 C -0.17004(14) 0.20705(7) 0.0823(3)
H16 H -0.18860 0.24680 0.07470
C14 C -0.23924(13) 0.16827(8) 0.1463(3)
H17 H -0.30490 0.18120 0.18370
C15 C -0.21220(14) 0.11062(8) 0.1556(2)
H18 H -0.25890 0.08360 0.20070
C16 C -0.11683(13) 0.09194(7) 0.0990(2)
H19 H -0.09980 0.05200 0.10370
C17 C 0.47354(12) 0.11974(7) 0.2845(2)
C18 C 0.52883(13) 0.06746(7) 0.3387(3)
H20 H 0.50660 0.03470 0.25630
C19 C 0.61483(14) 0.06215(8) 0.5088(3)
H21 H 0.64940 0.02580 0.54300
C20 C 0.65095(14) 0.10921(9) 0.6294(3)
H22 H 0.71060 0.10540 0.74540
C21 C 0.60002(13) 0.16159(8) 0.5806(2)
H23 H 0.62500 0.19450 0.66090
C22 C 0.51176(12) 0.16591(7) 0.4129(2)
#END
