
#######################################################################
#
#                 Cambridge Crystallographic Data Centre
#                                CCDC
#
#######################################################################
#
# If this CIF has been generated from an entry in the Cambridge
# Structural Database, then it will include bibliographic, chemical,
# crystal, experimental, refinement or atomic coordinate data resulting
# from the CCDC's data processing and validation procedures.
#
#######################################################################

data_CSD_CIF_QETRUD
_audit_creation_date 2007-04-03
_audit_creation_method CSD-ConQuest-V1
_database_code_CSD QETRUD
_database_code_depnum_ccdc_archive 'CCDC 297693'
_chemical_formula_sum 'C20 H20 N4 O4'
_chemical_formula_moiety
;
C20 H20 N4 O4
;
_journal_coden_Cambridge 1094
_journal_volume 17
_journal_year 2006
_journal_page_first 569
_journal_name_full 'Struct.Chem. '
loop_
_publ_author_name
"S.Naveen"
"P.Adlakha"
"C.Dholakia"
"A.Shah"
"M.A.Sridhar"
"J.S.Prasad"
_chemical_name_systematic
;
N-(2,4-Dimethylphenyl)-6-methyl-4-(3-nitrophenyl)-2-oxo-1,2,3,4-tetrahydropyri
midine-5-carboxamide
;
_chemical_melting_point 535.15
_cell_volume   1871.970
_exptl_crystal_colour 'pale orange'
_exptl_crystal_density_diffrn 1.35
_exptl_special_details
;
Melting point range 535.15-536.15K

;
_exptl_crystal_preparation 'dimethylformamide/ethanol'
_diffrn_ambient_temperature 293
#These two values have been output from a single CSD field.
_refine_ls_R_factor_gt 0.0671
_refine_ls_wR_factor_gt 0.0671
_symmetry_cell_setting monoclinic
_symmetry_space_group_name_H-M 'P 21/c'
_symmetry_Int_Tables_number 14
loop_
_symmetry_equiv_pos_site_id
_symmetry_equiv_pos_as_xyz
1 x,y,z
2 -x,1/2+y,1/2-z
3 -x,-y,-z
4 x,-1/2-y,-1/2+z
_cell_length_a 12.8970(12)
_cell_length_b 13.6210(11)
_cell_length_c 11.8420(13)
_cell_angle_alpha 90
_cell_angle_beta 115.860(3)
_cell_angle_gamma 90
_cell_formula_units_Z 4
loop_
_atom_type_symbol
_atom_type_radius_bond
C 0.68
H 0.23
N 0.68
O 0.68
loop_
_atom_site_label
_atom_site_type_symbol
_atom_site_fract_x
_atom_site_fract_y
_atom_site_fract_z
N1 N 0.4390(2) 0.4734(2) 0.1051(2)
H1 H 0.46420 0.52090 0.07620
C1 C 0.4174(2) 0.4917(2) 0.2079(2)
C2 C 0.3717(2) 0.4212(2) 0.2517(2)
C3 C 0.3468(2) 0.3189(2) 0.1952(2)
H2 H 0.39350 0.27160 0.25980
N2 N 0.3783(2) 0.3124(2) 0.0899(2)
H3 H 0.36700 0.25670 0.05220
C4 C 0.4227(2) 0.3844(2) 0.0466(2)
O1 O 0.4472(2) 0.3721(2) -0.0421(2)
C5 C 0.4565(2) 0.5922(2) 0.2609(2)
H4 H 0.40800 0.64060 0.20310
H5 H 0.53470 0.60190 0.27420
H6 H 0.45190 0.59830 0.33930
C6 C 0.2199(2) 0.2944(2) 0.1529(2)
C7 C 0.1861(2) 0.2244(2) 0.2156(2)
H7 H 0.24190 0.18960 0.28190
C8 C 0.0703(2) 0.2056(2) 0.1807(3)
H8 H 0.04940 0.15850 0.22390
C9 C -0.0141(2) 0.2561(2) 0.0826(3)
H9 H -0.09180 0.24380 0.05850
C10 C 0.0208(2) 0.3252(2) 0.0217(2)
C11 C 0.1353(2) 0.3456(2) 0.0545(2)
H10 H 0.15530 0.39310 0.01120
N3 N -0.0671(2) 0.3799(2) -0.0843(3)
O2 O -0.0353(2) 0.4392(2) -0.1402(2)
O3 O -0.1682(2) 0.3650(2) -0.1107(3)
C12 C 0.3491(2) 0.4329(2) 0.3638(2)
O4 O 0.3766(2) 0.3684(2) 0.4447(2)
N4 N 0.2939(2) 0.5154(2) 0.3696(2)
H11 H 0.26990 0.55440 0.30610
C13 C 0.2729(2) 0.5423(2) 0.4746(2)
C14 C 0.3371(2) 0.6179(2) 0.5527(2)
H12 H 0.39140 0.65110 0.53520
C15 C 0.3204(2) 0.6435(2) 0.6559(3)
H13 H 0.36390 0.69410 0.70770
C16 C 0.2396(2) 0.5953(2) 0.6841(2)
C17 C 0.1752(2) 0.5219(2) 0.6040(3)
H14 H 0.11990 0.49020 0.62110
C18 C 0.1892(2) 0.4928(2) 0.4978(2)
C19 C 0.1178(3) 0.4131(2) 0.4133(3)
H15 H 0.08550 0.43550 0.32790
H16 H 0.05690 0.39600 0.43550
H17 H 0.16520 0.35660 0.42220
C20 C 0.2231(4) 0.6218(3) 0.7994(3)
H18 H 0.18280 0.68310 0.78570
H19 H 0.29700 0.62770 0.87040
H20 H 0.17920 0.57130 0.81530
#END
