
#######################################################################
#
#                 Cambridge Crystallographic Data Centre
#                                CCDC
#
#######################################################################
#
# If this CIF has been generated from an entry in the Cambridge
# Structural Database, then it will include bibliographic, chemical,
# crystal, experimental, refinement or atomic coordinate data resulting
# from the CCDC's data processing and validation procedures.
#
#######################################################################

data_CSD_CIF_QETTOB
_audit_creation_date 2018-01-18
_audit_creation_method CSD-ConQuest-V1
_database_code_CSD QETTOB
_database_code_depnum_ccdc_archive 'CCDC 1559066'
_chemical_formula_sum 'C4 H2 N8 O4'
_chemical_formula_moiety
;
C4 H2 N8 O4
;
_journal_coden_Cambridge 1699
_journal_volume 6
_journal_year 2018
_journal_page_first 2239
_journal_name_full 'J.Mater.Chem.A '
loop_
_publ_author_name
"Zhen Xu"
"Guangbin Cheng"
"Shunguan Zhu"
"Qiuhan Lin"
"Hongwei Yang"
_chemical_name_systematic
;
4-nitro-5-(3-nitro-1H-1,2,4-triazol-5-yl)-2H-1,2,3-triazole
;
_cell_volume    802.616
_exptl_crystal_density_diffrn 1.871
_exptl_crystal_description 'needle'
_diffrn_ambient_temperature 173
#These two values have been output from a single CSD field.
_refine_ls_R_factor_gt 0.0498
_refine_ls_wR_factor_gt 0.0498
_symmetry_cell_setting orthorhombic
_symmetry_space_group_name_H-M 'P c a 21'
_symmetry_Int_Tables_number 29
loop_
_symmetry_equiv_pos_site_id
_symmetry_equiv_pos_as_xyz
1 x,y,z
2 -x,-y,1/2+z
3 1/2+x,-y,z
4 1/2-x,y,1/2+z
_cell_length_a 12.9567(12)
_cell_length_b 6.4248(8)
_cell_length_c 9.6417(10)
_cell_angle_alpha 90
_cell_angle_beta 90
_cell_angle_gamma 90
_cell_formula_units_Z 4
loop_
_atom_type_symbol
_atom_type_radius_bond
C 0.68
H 0.23
N 0.68
O 0.68
loop_
_atom_site_label
_atom_site_type_symbol
_atom_site_fract_x
_atom_site_fract_y
_atom_site_fract_z
C1 C 0.5920(4) 0.3900(8) 0.5838(5)
C2 C 0.6760(4) 0.4994(8) 0.6386(5)
C3 C 0.8253(4) 0.9491(7) 0.6185(5)
C4 C 0.7299(4) 0.6917(8) 0.6049(5)
N1 N 0.7069(3) 0.3937(6) 0.7520(5)
N2 N 0.6427(3) 0.2339(7) 0.7580(5)
H1 H 0.642(4) 0.151(8) 0.823(6)
N3 N 0.5716(3) 0.2215(7) 0.6591(4)
N4 N 0.5287(3) 0.4400(7) 0.4664(5)
N5 N 0.7316(3) 0.7915(6) 0.4828(4)
H2 H 0.704(4) 0.766(8) 0.406(6)
N6 N 0.7935(3) 0.9603(6) 0.4904(5)
N7 N 0.7890(3) 0.7909(6) 0.6956(4)
N8 N 0.8962(3) 1.1010(7) 0.6761(5)
O1 O 0.4441(3) 0.3566(6) 0.4558(4)
O2 O 0.5642(3) 0.5668(6) 0.3835(4)
O3 O 0.9335(4) 1.2265(6) 0.5963(5)
O4 O 0.9146(3) 1.0887(6) 0.8004(4)
#END
