
#######################################################################
#
#                 Cambridge Crystallographic Data Centre
#                                CCDC
#
#######################################################################
#
# If this CIF has been generated from an entry in the Cambridge
# Structural Database, then it will include bibliographic, chemical,
# crystal, experimental, refinement or atomic coordinate data resulting
# from the CCDC's data processing and validation procedures.
#
#######################################################################

data_CSD_CIF_QETTEO
_audit_creation_date 2001-05-23
_audit_creation_method CSD-ConQuest-V1
_database_code_CSD QETTEO
_database_code_depnum_ccdc_archive 'CCDC 160813'
_chemical_formula_sum 'C16 H15 N3 O2'
_chemical_formula_moiety
;
C16 H15 N3 O2
;
_journal_coden_Cambridge 35
_journal_volume 66
_journal_year 2001
_journal_page_first 831
_journal_name_full 'J.Org.Chem. '
loop_
_publ_author_name
"V.A.Sauro"
"M.S.Workentin"
_chemical_name_systematic
;
4-Nitroacetophenone azine
;
_chemical_melting_point 386.15
_cell_volume    719.383
_exptl_crystal_colour 'orange'
_exptl_crystal_density_diffrn 1.299
_exptl_special_details
;
Melting point range 386.15-387.15K

;
_diffrn_ambient_temperature 200
#These two values have been output from a single CSD field.
_refine_ls_R_factor_gt 0.0397
_refine_ls_wR_factor_gt 0.0397
loop_
_citation_database_id_CSD
_citation_special_details
QETTEO01 "is a reinterpretation of this cif"
_symmetry_cell_setting triclinic
_symmetry_space_group_name_H-M 'P 1'
_symmetry_Int_Tables_number 1
loop_
_symmetry_equiv_pos_site_id
_symmetry_equiv_pos_as_xyz
1 x,y,z
_cell_length_a 9.2694(14)
_cell_length_b 9.4267(13)
_cell_length_c 9.6076(8)
_cell_angle_alpha 75.999(7)
_cell_angle_beta 62.890(7)
_cell_angle_gamma 89.872(7)
_cell_formula_units_Z 2
loop_
_atom_type_symbol
_atom_type_radius_bond
C 0.68
H 0.23
N 0.68
O 0.68
loop_
_atom_site_label
_atom_site_type_symbol
_atom_site_fract_x
_atom_site_fract_y
_atom_site_fract_z
O1 O -0.1554(13) 0.5470(14) 0.7858(13)
O2 O -0.2194(12) 0.6134(15) 0.5942(13)
N1 N -0.1234(13) 0.5836(12) 0.6434(13)
C1 C 0.0531(16) 0.6286(14) 0.5233(16)
C2 C 0.1683(17) 0.6007(15) 0.5732(15)
H1 H 0.13680 0.55510 0.68420
C3 C 0.3318(14) 0.6393(15) 0.4612(14)
H2 H 0.41340 0.62400 0.49530
C4 C 0.3754(15) 0.7006(12) 0.2986(13)
C5 C 0.2579(15) 0.7268(14) 0.2472(15)
H3 H 0.28700 0.77010 0.13630
C6 C 0.0938(16) 0.6865(14) 0.3661(16)
H4 H 0.01020 0.70040 0.33480
C7 C 0.5512(16) 0.7397(13) 0.1761(15)
C8 C 0.5995(15) 0.8270(14) 0.0100(13)
H5 H 0.56440 0.77000 -0.04440
H6 H 0.71860 0.85180 -0.04950
H7 H 0.54790 0.91790 0.01270
N2 N 0.6495(13) 0.6872(12) 0.2292(11)
N3 N 0.8192(13) 0.7244(11) 0.1151(12)
C9 C 0.9051(16) 0.6118(15) 0.1124(15)
C10 C 0.8390(16) 0.4628(14) 0.2089(16)
H8 H 0.84800 0.40040 0.13800
H9 H 0.72390 0.45990 0.28650
H10 H 0.90020 0.42670 0.26810
C11 C 1.0825(16) 0.6538(15) -0.0112(14)
C12 C 1.1912(17) 0.5479(15) -0.0290(15)
H11 H 1.15320 0.44940 0.03740
C13 C 1.3488(18) 0.5855(16) -0.1396(16)
H12 H 1.41850 0.51040 -0.15230
C14 C 1.4152(17) 0.7253(17) -0.2352(16)
H13 H 1.52830 0.74910 -0.31010
C15 C 1.3057(16) 0.8331(14) -0.2164(16)
H14 H 1.34350 0.93240 -0.28010
C16 C 1.1471(18) 0.7920(15) -0.1062(15)
H15 H 1.07560 0.86580 -0.09470
O3 O 1.4666(15) 0.2808(14) -0.4019(13)
O4 O 1.5330(14) 0.2159(14) -0.2125(13)
N4 N 1.4298(16) 0.2216(15) -0.2619(18)
C17 C 1.2546(17) 0.1892(15) -0.1410(15)
C18 C 1.1381(17) 0.2122(15) -0.1933(15)
H16 H 1.16850 0.25080 -0.30520
C19 C 0.9771(16) 0.1775(14) -0.0786(13)
H17 H 0.89530 0.19880 -0.11160
C20 C 0.9296(16) 0.1125(14) 0.0840(14)
C21 C 1.0518(18) 0.0897(14) 0.1276(14)
H18 H 1.02050 0.04730 0.23910
C22 C 1.2156(17) 0.1237(15) 0.0215(15)
H19 H 1.29680 0.10430 0.05560
C23 C 0.7526(15) 0.0797(13) 0.2007(13)
C24 C 0.6963(17) -0.0100(15) 0.3801(14)
H20 H 0.60110 -0.08140 0.41670
H21 H 0.66710 0.05730 0.44950
H22 H 0.78550 -0.06230 0.38670
N5 N 0.6509(13) 0.1291(11) 0.1530(12)
N6 N 0.4900(13) 0.0936(12) 0.2660(11)
C25 C 0.4017(15) 0.1935(14) 0.2742(14)
C26 C 0.4719(17) 0.3543(14) 0.1707(16)
H23 H 0.55880 0.35430 0.06300
H24 H 0.51650 0.40350 0.22420
H25 H 0.38480 0.40680 0.15950
C27 C 0.2284(16) 0.1625(14) 0.3858(14)
C28 C 0.1225(16) 0.2683(15) 0.4090(14)
H26 H 0.16540 0.36760 0.34750
C29 C -0.0466(17) 0.2365(16) 0.5194(16)
H27 H -0.11730 0.31080 0.52880
C30 C -0.1036(17) 0.0939(18) 0.6121(15)
H28 H -0.21610 0.06970 0.68910
C31 C -0.0069(16) -0.0113(14) 0.5979(14)
H29 H -0.05290 -0.10850 0.66500
C32 C 0.1631(16) 0.0152(15) 0.4861(14)
H30 H 0.23040 -0.06180 0.47850
#END
