
#######################################################################
#
#                 Cambridge Crystallographic Data Centre
#                                CCDC
#
#######################################################################
#
# If this CIF has been generated from an entry in the Cambridge
# Structural Database, then it will include bibliographic, chemical,
# crystal, experimental, refinement or atomic coordinate data resulting
# from the CCDC's data processing and validation procedures.
#
#######################################################################

data_CSD_CIF_QETTEO01
_audit_creation_date 2005-07-27
_audit_creation_method CSD-ConQuest-V1
_database_code_CSD QETTEO01
_database_code_depnum_ccdc_archive 'CCDC 274003'
_chemical_formula_sum 'C16 H15 N3 O2'
_chemical_formula_moiety
;
C16 H15 N3 O2
;
_journal_coeditor_code "IUCr BK0148"
_journal_coden_Cambridge 622
_journal_volume 61
_journal_year 2005
_journal_page_first 359
_journal_name_full 'Acta Crystallogr.,Sect.B:Struct.Sci. '
loop_
_publ_author_name
"R.E.Marsh"
_chemical_name_systematic
;
4-Nitroacetophenone azine
;
_cell_volume    719.391
_diffrn_ambient_temperature ?
_diffrn_special_details
;
The study was carried out at room temperature,in the range 283-303K

;
loop_
_citation_database_id_CSD
_citation_special_details
QETTEO "is reinterpreted by this entry"
_symmetry_cell_setting triclinic
_symmetry_space_group_name_H-M 'P -1'
_symmetry_Int_Tables_number 2
loop_
_symmetry_equiv_pos_site_id
_symmetry_equiv_pos_as_xyz
1 x,y,z
2 -x,-y,-z
_cell_length_a 9.2694
_cell_length_b 9.4267
_cell_length_c 9.6076
_cell_angle_alpha 76.0
_cell_angle_beta 62.89
_cell_angle_gamma 89.87
_cell_formula_units_Z 2
loop_
_atom_type_symbol
_atom_type_radius_bond
C 0.68
H 0.23
N 0.68
O 0.68
loop_
_atom_site_label
_atom_site_type_symbol
_atom_site_fract_x
_atom_site_fract_y
_atom_site_fract_z
O1 O -0.81100 0.13310 0.59385
O2 O -0.87620 0.19875 0.40335
N1 N -0.77660 0.18100 0.45265
C1 C -0.60075 0.21970 0.33215
C2 C -0.48490 0.19425 0.38325
H1 H -0.51585 0.15215 0.49470
C3 C -0.32265 0.23090 0.26990
H2 H -0.24095 0.21260 0.30345
C4 C -0.27710 0.29405 0.10730
C5 C -0.39695 0.31855 0.05980
H3 H -0.36675 0.36140 -0.05140
C6 C -0.56090 0.28140 0.17230
H4 H -0.64330 0.29805 0.13960
C7 C -0.10070 0.33000 -0.01230
C8 C -0.04840 0.41850 -0.18505
H5 H -0.05135 0.35635 -0.24695
H6 H 0.05875 0.46660 -0.23310
H7 H -0.11880 0.49010 -0.18700
N2 N -0.00070 0.27905 0.03810
N3 N 0.16460 0.31540 -0.07545
C9 C 0.25170 0.20915 -0.08090
C10 C 0.18355 0.05425 0.01910
H8 H 0.16575 -0.00155 -0.04310
H9 H 0.08255 0.05280 0.11175
H10 H 0.25770 0.00995 0.05430
C11 C 0.42705 0.24565 -0.19850
C12 C 0.53435 0.13980 -0.21900
H11 H 0.49390 0.04090 -0.15505
C13 C 0.69770 0.17450 -0.32950
H12 H 0.76790 0.09980 -0.34055
C14 C 0.75940 0.31570 -0.42365
H13 H 0.87220 0.33970 -0.49960
C15 C 0.65630 0.42220 -0.40715
H14 H 0.69820 0.52045 -0.47255
C16 C 0.49200 0.38840 -0.29615
H15 H 0.42260 0.46380 -0.28660
#END
