
#######################################################################
#
#                 Cambridge Crystallographic Data Centre
#                                CCDC
#
#######################################################################
#
# If this CIF has been generated from an entry in the Cambridge
# Structural Database, then it will include bibliographic, chemical,
# crystal, experimental, refinement or atomic coordinate data resulting
# from the CCDC's data processing and validation procedures.
#
#######################################################################

data_CSD_CIF_QETTUE
_audit_creation_date 2001-05-23
_audit_creation_method CSD-ConQuest-V1
_database_code_CSD QETTUE
_database_code_depnum_ccdc_archive 'CCDC 160816'
_chemical_formula_sum 'C17 H17 N3 O3'
_chemical_formula_moiety
;
C17 H17 N3 O3
;
_journal_coden_Cambridge 35
_journal_volume 66
_journal_year 2001
_journal_page_first 831
_journal_name_full 'J.Org.Chem. '
loop_
_publ_author_name
"V.A.Sauro"
"M.S.Workentin"
_chemical_name_systematic
;
3-Methoxy-4'-nitroacetophenone azine
;
_chemical_melting_point 361.15
_cell_volume   1563.968
_exptl_crystal_density_diffrn 1.322
_exptl_special_details
;
Melting point range 361.15-363.15K

;
_diffrn_ambient_temperature ?
_diffrn_special_details
;
The study was carried out at room temperature,in the range 283-303K

;
_refine_special_details
;
The methoxy group at O52 and the nitro O atoms are each disordered equally 
over two sites.
;
#These two values have been output from a single CSD field.
_refine_ls_R_factor_gt 0.0684
_refine_ls_wR_factor_gt 0.0684
_symmetry_cell_setting monoclinic
_symmetry_space_group_name_H-M 'P 21'
_symmetry_Int_Tables_number 4
loop_
_symmetry_equiv_pos_site_id
_symmetry_equiv_pos_as_xyz
1 x,y,z
2 -x,1/2+y,-z
_cell_length_a 7.2285(2)
_cell_length_b 17.6946(8)
_cell_length_c 12.3886(6)
_cell_angle_alpha 90
_cell_angle_beta 99.249(3)
_cell_angle_gamma 90
_cell_formula_units_Z 4
loop_
_atom_type_symbol
_atom_type_radius_bond
C 0.68
H 0.23
N 0.68
O 0.68
loop_
_atom_site_label
_atom_site_type_symbol
_atom_site_fract_x
_atom_site_fract_y
_atom_site_fract_z
O1 O 0.9632(12) 0.4743(5) 0.6481(7)
O2 O 0.8233(13) 0.4656(5) 0.7796(8)
O3? O 0.8802(11) 0.4750(4) 0.6157(7)
O4? O 0.9009(11) 0.4674(4) 0.8056(6)
N1 N 0.8882(5) 0.5012(2) 0.7147(4)
C1 C 0.8764(5) 0.58481(19) 0.7234(4)
C2 C 0.8118(6) 0.6158(2) 0.8096(4)
H1 H 0.77870 0.58570 0.86510
C3 C 0.7961(5) 0.6948(2) 0.8129(3)
H2 H 0.75020 0.71730 0.87110
C4 C 0.8471(4) 0.73984(17) 0.7317(3)
C5 C 0.9157(6) 0.70504(19) 0.6466(4)
H3 H 0.95170 0.73430 0.59110
C6 C 0.9318(6) 0.6271(2) 0.6426(4)
H4 H 0.97970 0.60410 0.58560
C7 C 0.8253(4) 0.82299(17) 0.7329(3)
C8 C 0.7845(5) 0.8626(2) 0.8306(3)
H5 H 0.77370 0.91590 0.81590
H6 H 0.88420 0.85380 0.89040
H7 H 0.66880 0.84410 0.84930
N2 N 0.8418(4) 0.85607(15) 0.6421(3)
N3 N 0.8252(4) 0.93508(15) 0.6401(3)
C9 C 0.7423(4) 0.9621(2) 0.5495(3)
C10 C 0.6546(8) 0.9134(2) 0.4570(4)
H8 H 0.67420 0.86120 0.47670
H9 H 0.71050 0.92410 0.39350
H10 H 0.52250 0.92360 0.44140
C11 C 0.7290(4) 1.04481(19) 0.5382(3)
C12 C 0.6112(5) 1.0775(2) 0.4501(4)
H11 H 0.54280 1.04640 0.39770
C13 C 0.5945(6) 1.1538(2) 0.4395(4)
H12 H 0.51390 1.17410 0.38060
C14 C 0.6948(5) 1.2014(2) 0.5146(3)
H13 H 0.68170 1.25350 0.50700
C15 C 0.8158(5) 1.17099(19) 0.6018(3)
C16 C 0.8318(4) 1.09318(18) 0.6129(3)
H14 H 0.91310 1.07300 0.67170
O5 O 0.9247(4) 1.21324(14) 0.6789(2)
C17 C 0.9180(7) 1.2931(2) 0.6671(4)
H15 H 1.00150 1.31590 0.72620
H16 H 0.79250 1.31040 0.66840
H17 H 0.95530 1.30690 0.59890
O6 O 0.3731(11) 0.2568(5) 0.7001(7)
O7 O 0.3312(12) 0.2586(5) 0.8671(8)
O8? O 0.4275(9) 0.2596(4) 0.7357(6)
O9? O 0.2783(11) 0.2572(4) 0.8797(6)
N4 N 0.3449(5) 0.2264(2) 0.7937(4)
C18 C 0.3257(5) 0.14270(17) 0.7873(3)
C19 C 0.2723(5) 0.10609(19) 0.8741(4)
H18 H 0.24560 0.13290 0.93430
C20 C 0.2588(5) 0.0283(2) 0.8704(3)
H19 H 0.22200 0.00260 0.92890
C21 C 0.2992(4) -0.01255(17) 0.7810(3)
C22 C 0.3485(5) 0.0278(2) 0.6934(3)
H20 H 0.37220 0.00200 0.63170
C23 C 0.3626(5) 0.1060(2) 0.6968(4)
H21 H 0.39670 0.13280 0.63840
C24 C 0.2962(4) -0.09597(17) 0.7827(3)
C25 C 0.3065(5) -0.1388(2) 0.6789(3)
H22 H 0.30560 -0.19210 0.69330
H23 H 0.42000 -0.12570 0.65230
H24 H 0.20060 -0.12600 0.62480
N5 N 0.2876(4) -0.12560(14) 0.8744(3)
N6 N 0.2947(4) -0.20510(15) 0.8780(3)
C26 C 0.2467(4) -0.23336(19) 0.9660(3)
C27 C 0.1825(6) -0.1879(2) 1.0549(4)
H25 H 0.18500 -0.13520 1.03700
H26 H 0.26420 -0.19710 1.12270
H27 H 0.05700 -0.20240 1.06190
C28 C 0.2553(4) -0.31649(19) 0.9771(3)
C29 C 0.2043(6) -0.3514(2) 1.0686(4)
H28 H 0.16600 -0.32240 1.12350
C30 C 0.2104(6) -0.4291(2) 1.0777(4)
H29 H 0.17290 -0.45200 1.13820
C31 C 0.2702(5) -0.4727(2) 1.0002(3)
H30 H 0.27390 -0.52500 1.00780
C32 C 0.3252(5) -0.4395(2) 0.9104(3)
C33 C 0.3178(5) -0.36136(18) 0.8992(3)
H31 H 0.35550 -0.33900 0.83840
O10 O 0.3539(9) -0.4804(3) 0.8238(5)
C34 C 0.3765(15) -0.5611(5) 0.8432(8)
H32 H 0.39780 -0.58560 0.77730
H33 H 0.26500 -0.58110 0.86540
H34 H 0.48150 -0.56980 0.89990
O11? O 0.4256(8) -0.4773(3) 0.8351(4)
C35? C 0.4462(13) -0.5554(5) 0.8436(7)
H35? H 0.51610 -0.57310 0.78890
H36? H 0.32480 -0.57880 0.83270
H37? H 0.51190 -0.56810 0.91490
#END
