
#######################################################################
#
#                 Cambridge Crystallographic Data Centre
#                                CCDC
#
#######################################################################
#
# If this CIF has been generated from an entry in the Cambridge
# Structural Database, then it will include bibliographic, chemical,
# crystal, experimental, refinement or atomic coordinate data resulting
# from the CCDC's data processing and validation procedures.
#
#######################################################################

data_CSD_CIF_QEVBUP
_audit_creation_date 2007-04-02
_audit_creation_method CSD-ConQuest-V1
_database_code_CSD QEVBUP
_database_code_depnum_ccdc_archive 'CCDC 609605'
_database_code_depnum_ccdc_journal 1267/1816
_chemical_formula_sum 'C48 H66 N2 O6'
_chemical_formula_moiety
;
C48 H66 N2 O6
;
_journal_coden_Cambridge 1267
_journal_volume 221
_journal_year 2006
_journal_page_first 329
_journal_name_full 'Z.Kristallogr.-New Cryst.Struct. '
loop_
_publ_author_name
"Xiao-Jun Hu"
"Hai-Jun Yang"
"Jin-Ku Liu"
"Hao Zhang"
"Yong Li"
"Yang-He Luo"
"Ru-Ji Wang"
_chemical_name_systematic
;
5,17-bis(N-t-butylhydroxyamino)-25,26,27,28-tetrapropoxycalix(4)arene
;
_cell_volume   4585.719
_exptl_crystal_colour 'colorless'
_exptl_crystal_density_diffrn 1.111
_exptl_crystal_description 'prism'
_diffrn_ambient_temperature 295
_refine_special_details
;
The hydroxyamine groups are disordered with occupancies 0.6497:0.3503. Three 
n-propyl groups are disordered with occupancies 0.5764:0.4236, 0.6928:0.3072 
and 0.5261:0.4739.
;
#These two values have been output from a single CSD field.
_refine_ls_R_factor_gt 0.0696
_refine_ls_wR_factor_gt 0.0696
_symmetry_cell_setting monoclinic
_symmetry_space_group_name_H-M 'P 21/c'
_symmetry_Int_Tables_number 14
loop_
_symmetry_equiv_pos_site_id
_symmetry_equiv_pos_as_xyz
1 x,y,z
2 -x,1/2+y,1/2-z
3 -x,-y,-z
4 x,-1/2-y,-1/2+z
_cell_length_a 14.636(2)
_cell_length_b 16.807(2)
_cell_length_c 19.131(2)
_cell_angle_alpha 90
_cell_angle_beta 102.981(1)
_cell_angle_gamma 90
_cell_formula_units_Z 4
loop_
_atom_type_symbol
_atom_type_radius_bond
C 0.68
H 0.23
N 0.68
O 0.68
loop_
_atom_site_label
_atom_site_type_symbol
_atom_site_fract_x
_atom_site_fract_y
_atom_site_fract_z
O1 O 0.83959(6) 0.46935(6) 0.14534(5)
O2 O 0.83460(6) 0.29635(6) 0.24000(5)
O3 O 0.88260(6) 0.30065(7) 0.41998(5)
O4 O 0.85010(6) 0.47897(6) 0.32209(5)
O5 O 0.45231(9) 0.47497(9) 0.22979(7)
H1 H 0.46240 0.44980 0.26750
O6 O 0.46136(9) 0.29200(9) 0.25943(7)
H2 H 0.46110 0.31690 0.22250
N1 N 0.46817(7) 0.42249(7) 0.17067(6)
N2 N 0.49392(7) 0.34436(7) 0.32205(6)
C1 C 0.75651(10) 0.58912(9) 0.22020(8)
H3 H 0.82160 0.58600 0.21680
H4 H 0.72970 0.63710 0.19570
C2 C 0.70387(9) 0.51726(9) 0.18389(7)
C3 C 0.74592(8) 0.45926(9) 0.14982(7)
C4 C 0.70076(9) 0.38916(9) 0.12442(7)
C5 C 0.60850(9) 0.37850(9) 0.13154(7)
H5 H 0.57700 0.33150 0.11560
C6 C 0.56355(8) 0.43703(9) 0.16201(7)
C7 C 0.61147(9) 0.50503(9) 0.18901(7)
H6 H 0.58160 0.54330 0.21100
C8 C 0.74937(10) 0.32126(9) 0.09436(7)
H7 H 0.72230 0.31540 0.04350
H8 H 0.81540 0.33350 0.10030
C9 C 0.73859(9) 0.24490(9) 0.13228(8)
C10 C 0.77662(8) 0.23646(8) 0.20532(7)
C11 C 0.75089(9) 0.17554(9) 0.24639(8)
C12 C 0.69175(11) 0.11676(10) 0.20999(10)
H9 H 0.67380 0.07480 0.23560
C13 C 0.65906(12) 0.11992(11) 0.13561(10)
H10 H 0.62210 0.07900 0.11160
C14 C 0.68190(11) 0.1840(1) 0.09791(10)
H11 H 0.65890 0.18640 0.04850
C15 C 0.77819(10) 0.17981(9) 0.32659(8)
H12 H 0.84590 0.18380 0.34190
H13 H 0.75870 0.13140 0.34670
C16 C 0.73311(9) 0.25136(9) 0.35456(7)
C17 C 0.78495(9) 0.30991(9) 0.39720(7)
C18 C 0.74412(9) 0.37995(9) 0.41415(7)
C19 C 0.64786(9) 0.38951(9) 0.38858(7)
H14 H 0.61930 0.43640 0.39840
C20 C 0.59437(9) 0.33072(9) 0.34907(7)
C21 C 0.63663(9) 0.26266(9) 0.33102(7)
H15 H 0.60040 0.22400 0.30290
C22 C 0.80104(11) 0.44835(10) 0.45354(8)
H16 H 0.78910 0.45320 0.50120
H17 H 0.86740 0.43780 0.45850
C23 C 0.77494(10) 0.52505(10) 0.41262(8)
C24 C 0.79433(9) 0.53486(9) 0.34536(8)
C25 C 0.75173(9) 0.59342(9) 0.29757(8)
C26 C 0.69646(11) 0.64906(10) 0.32282(9)
H18 H 0.66860 0.69000 0.29280
C27 C 0.68218(12) 0.64452(11) 0.39192(10)
H19 H 0.64740 0.68340 0.40880
C28 C 0.72011(11) 0.58184(11) 0.43535(9)
H20 H 0.70840 0.57780 0.48100
C29 C 0.84974(10) 0.51052(12) 0.08218(8)
H21 H 0.81090 0.55790 0.07580
H22 H 0.82870 0.47660 0.04060
C30 C 0.94862(12) 0.53311(18) 0.08771(13)
H23 H 0.95380 0.54390 0.03890
H24 H 0.95630 0.58390 0.11230
C31 C 1.02413(15) 0.4915(2) 0.11685(14)
H25 H 1.07920 0.52120 0.11390
H26 H 1.02350 0.44210 0.09160
H27 H 1.02460 0.48090 0.16630
C32 C 0.93309(14) 0.2758(2) 0.26233(13)
H28 H 0.93830 0.22080 0.27810
H29 H 0.96170 0.30870 0.30300
C33 C 0.98603(15) 0.2859(3) 0.20546(15)
H30 H 0.97280 0.33830 0.18430
H31 H 0.96420 0.24690 0.16810
C34 C 1.09146(16) 0.2770(3) 0.23214(19)
H32 H 1.12160 0.28510 0.19300
H33 H 1.10550 0.22460 0.25140
H34 H 1.11390 0.31580 0.26880
C35 C 0.92196(15) 0.2753(2) 0.49236(12)
H35 H 0.91980 0.21770 0.49460
H36 H 0.88410 0.29620 0.52380
C36 C 1.02472(15) 0.3033(2) 0.51964(14)
H37 H 1.03180 0.35870 0.50760
H38 H 1.04490 0.29680 0.57120
C37 C 1.0765(2) 0.2527(3) 0.4831(2)
H39 H 1.14230 0.26320 0.49970
H40 H 1.05820 0.26270 0.43250
H41 H 1.06390 0.19820 0.49250
C38 C 0.94108(15) 0.5083(2) 0.31357(16)
H42 H 0.93980 0.56600 0.31420
H43 H 0.94950 0.49210 0.26680
C39 C 1.02306(17) 0.4811(2) 0.36827(17)
H44 H 1.02470 0.42340 0.37020
H45 H 1.01970 0.50110 0.41520
C40 C 1.1109(2) 0.5130(3) 0.3468(2)
H46 H 1.16580 0.49330 0.37950
H47 H 1.11070 0.57010 0.34840
H48 H 1.11120 0.49580 0.29900
C41 C 0.39213(9) 0.44611(10) 0.10678(7)
C42 C 0.29867(9) 0.42636(11) 0.12630(9)
H49 H 0.29570 0.37030 0.13510
H50 H 0.24780 0.44120 0.08740
H51 H 0.29390 0.45520 0.16860
C43 C 0.40140(11) 0.39813(11) 0.04129(8)
H52 H 0.45980 0.41080 0.02900
H53 H 0.35050 0.41100 0.00170
H54 H 0.39970 0.34240 0.05180
C44 C 0.39798(11) 0.5353(1) 0.09170(9)
H55 H 0.45650 0.54670 0.07900
H56 H 0.39400 0.56500 0.13380
H57 H 0.34710 0.55010 0.05280
C45 C 0.43393(10) 0.32234(11) 0.37409(8)
C46 C 0.33197(10) 0.33909(12) 0.33538(9)
H58 H 0.29110 0.32630 0.36660
H59 H 0.31580 0.30710 0.29280
H60 H 0.32530 0.39430 0.32250
C47 C 0.44709(12) 0.23479(12) 0.3934(1)
H61 H 0.51060 0.22570 0.41890
H62 H 0.43390 0.20340 0.35040
H63 H 0.40500 0.21990 0.42310
C48 C 0.45972(12) 0.37368(14) 0.44077(9)
H64 H 0.52290 0.36230 0.46560
H65 H 0.41790 0.36250 0.47160
H66 H 0.45470 0.42880 0.42730
O7? O 0.45383(18) 0.33384(15) 0.17322(16)
H67? H 0.45320 0.32050 0.21430
O8? O 0.47541(18) 0.43099(14) 0.31659(16)
H68? H 0.47190 0.44560 0.27520
C49? C 0.92559(18) 0.3025(2) 0.22451(18)
H69? H 0.94600 0.35750 0.22850
H70? H 0.92290 0.28480 0.17580
C50? C 0.9936(2) 0.2526(3) 0.2757(2)
H71? H 0.97750 0.19690 0.26720
H72? H 0.98950 0.26530 0.32440
C51? C 1.0932(2) 0.2663(3) 0.2676(3)
H73? H 1.13510 0.23160 0.29950
H74? H 1.11060 0.32060 0.27920
H75? H 1.09680 0.25550 0.21910
C52? C 0.8991(2) 0.2521(3) 0.48304(19)
H76? H 0.86700 0.20150 0.47340
H77? H 0.87790 0.27860 0.52160
C53? C 1.00543(19) 0.2405(3) 0.5024(2)
H78? H 1.01290 0.18310 0.50520
H79? H 1.02480 0.25600 0.45900
C54? C 1.0811(4) 0.2698(6) 0.5599(3)
H80? H 1.13650 0.27770 0.54170
H81? H 1.09390 0.23150 0.59810
H82? H 1.06280 0.31930 0.57770
C55? C 0.94656(18) 0.4794(2) 0.35945(17)
H83? H 0.96950 0.42530 0.36790
H84? H 0.95330 0.50580 0.40540
C56? C 1.00087(19) 0.5224(3) 0.3147(2)
H85? H 0.98890 0.57910 0.31590
H86? H 0.98230 0.50440 0.26530
C57? C 1.1057(2) 0.5056(4) 0.3445(3)
H87? H 1.14170 0.53110 0.31480
H88? H 1.11650 0.44920 0.34490
H89? H 1.12420 0.52590 0.39250
#END
