
#######################################################################
#
#                 Cambridge Crystallographic Data Centre
#                                CCDC
#
#######################################################################
#
# If this CIF has been generated from an entry in the Cambridge
# Structural Database, then it will include bibliographic, chemical,
# crystal, experimental, refinement or atomic coordinate data resulting
# from the CCDC's data processing and validation procedures.
#
#######################################################################

data_CSD_CIF_QEVJOQ
_audit_creation_date 2001-05-23
_audit_creation_method CSD-ConQuest-V1
_database_code_CSD QEVJOQ
_chemical_formula_sum 'C13 H24 N4 O6'
_chemical_formula_moiety
;
C13 H24 N4 O6
;
_journal_coden_Cambridge 82
_journal_volume 41
_journal_year 2000
_journal_page_first 1102
_journal_name_full 'Zh.Strukt.Khim.(Russ.)(J.Struct.Chem.) '
loop_
_publ_author_name
"R.A.Tamazyan"
"A.A.Karapetyan"
"G.L.Arutyunyan"
"Ts.E.Agadzhanyan"
_chemical_name_systematic
;
3,7-bis(2-Hydroxyethyl)-9,9-dimethyl-1,5-dinitro-3,7-diazabicyclo(3.3.1)nonane
;
_cell_volume    813.062
_exptl_crystal_density_diffrn 1.358
_exptl_crystal_preparation 'water'
_diffrn_ambient_temperature ?
_diffrn_special_details
;
The study was carried out at room temperature,in the range 283-303K

;
#These two values have been output from a single CSD field.
_refine_ls_R_factor_gt 0.065
_refine_ls_wR_factor_gt 0.065
_symmetry_cell_setting triclinic
_symmetry_space_group_name_H-M 'P -1'
_symmetry_Int_Tables_number 2
loop_
_symmetry_equiv_pos_site_id
_symmetry_equiv_pos_as_xyz
1 x,y,z
2 -x,-y,-z
_cell_length_a 8.054(2)
_cell_length_b 9.569(2)
_cell_length_c 11.124(2)
_cell_angle_alpha 80.75(3)
_cell_angle_beta 77.38(3)
_cell_angle_gamma 78.28(3)
_cell_formula_units_Z 2
loop_
_atom_type_symbol
_atom_type_radius_bond
C 0.68
N 0.68
O 0.68
loop_
_atom_site_label
_atom_site_type_symbol
_atom_site_fract_x
_atom_site_fract_y
_atom_site_fract_z
O1 O -0.2417(6) 0.2102(6) 0.2839(6)
N1 N 0.1782(6) 0.2483(6) 0.4176(4)
O2 O -0.2104(6) 0.3809(7) 0.1383(6)
C1 C 0.3188(9) 0.1619(8) 0.3420(6)
O3 O 0.5488(6) 0.1551(5) 0.0351(5)
C2 C 0.1546(6) 0.1894(6) 0.1653(5)
O4 O 0.5222(6) -0.0085(5) 0.1849(4)
C3 C 0.1191(12) 0.0357(9) 0.1982(11)
O5 O 0.3577(8) 0.6131(7) 0.3698(6)
C4 C 0.1594(10) 0.2273(10) 0.0266(7)
O6 O 0.3156(9) 0.3898(9) 0.5696(6)
N2 N -0.1603(6) 0.2963(6) 0.2224(6)
C5 C 0.3223(6) 0.2083(5) 0.2040(5)
N3 N 0.4778(6) 0.1108(5) 0.1355(5)
C6 C 0.3584(7) 0.3626(6) 0.1630(7)
C7 C 0.2529(9) 0.6115(7) 0.1871(9)
N4 N 0.2198(5) 0.4649(4) 0.2237(4)
C8 C 0.0524(7) 0.4514(7) 0.2046(8)
C9 C 0.0208(6) 0.2969(6) 0.2457(5)
C10 C 0.0123(8) 0.2508(9) 0.3832(6)
C11 C 0.3937(11) 0.6382(8) 0.2408(7)
C12 C 0.1701(13) 0.2050(13) 0.5500(8)
C13 C 0.3116(13) 0.2433(11) 0.5944(8)
#END
