
#######################################################################
#
#                 Cambridge Crystallographic Data Centre
#                                CCDC
#
#######################################################################
#
# If this CIF has been generated from an entry in the Cambridge
# Structural Database, then it will include bibliographic, chemical,
# crystal, experimental, refinement or atomic coordinate data resulting
# from the CCDC's data processing and validation procedures.
#
#######################################################################

data_CSD_CIF_QEVLEL
_audit_creation_date 2018-01-18
_audit_creation_method CSD-ConQuest-V1
_database_code_CSD QEVLEL
_database_code_depnum_ccdc_archive 'CCDC 1523656'
_chemical_formula_sum 'C17 H13 N1 O3'
_chemical_formula_moiety
;
C17 H13 N1 O3
;
_journal_coden_Cambridge 643
_journal_volume 232
_journal_year 2017
_journal_page_first 697
_journal_name_full 'Z.Krist.Cryst.Mater. '
loop_
_publ_author_name
"T.C.Baddeley"
"L.R.Gomes"
"J.N.Low"
"A.B.Turner"
"J.L.Wardell"
"G.J.R.Watson"
_chemical_name_systematic
;
(E)-2-(3-nitrobenzylidene)-3,4-dihydronaphthalen-1(2H)-one
;
_chemical_name_common
;
(E)-2-(3-nitrobenzylidene)-2,3-dihydro-1H-tetral-1-one
;
_cell_volume    650.334
_exptl_crystal_colour 'colorless'
_exptl_crystal_density_diffrn 1.426
_exptl_crystal_description 'block'
_diffrn_ambient_temperature 100
#These two values have been output from a single CSD field.
_refine_ls_R_factor_gt 0.0563
_refine_ls_wR_factor_gt 0.0563
_symmetry_cell_setting triclinic
_symmetry_space_group_name_H-M 'P -1'
_symmetry_Int_Tables_number 2
loop_
_symmetry_equiv_pos_site_id
_symmetry_equiv_pos_as_xyz
1 x,y,z
2 -x,-y,-z
_cell_length_a 7.8859(7)
_cell_length_b 8.0863(8)
_cell_length_c 12.3613(11)
_cell_angle_alpha 89.580(8)
_cell_angle_beta 73.057(8)
_cell_angle_gamma 60.907(10)
_cell_formula_units_Z 2
loop_
_atom_type_symbol
_atom_type_radius_bond
C 0.68
H 0.23
N 0.68
O 0.68
loop_
_atom_site_label
_atom_site_type_symbol
_atom_site_fract_x
_atom_site_fract_y
_atom_site_fract_z
O1 O 0.2294(2) 0.7083(2) 0.56642(12)
O2 O 1.0988(2) 0.0923(2) 0.07395(13)
O3 O 1.1306(2) 0.1642(2) -0.09641(13)
N1 N 1.0363(3) 0.1989(3) 0.00657(15)
C1 C 0.1245(3) 0.7278(3) 0.50567(18)
C2 C 0.2074(3) 0.7072(3) 0.37862(17)
C3 C 0.0501(3) 0.7794(3) 0.31846(17)
H1 H 0.12010 0.73610 0.23490
H2 H -0.02760 0.92140 0.33260
C4 C -0.0977(3) 0.7051(3) 0.36146(17)
H3 H -0.20470 0.75970 0.32420
H4 H -0.02180 0.56390 0.34010
C5 C -0.3963(3) 0.7917(3) 0.54208(19)
H5 H -0.46860 0.77640 0.49720
C6 C -0.1980(3) 0.7581(3) 0.48899(17)
C7 C -0.4887(3) 0.8469(3) 0.65894(19)
H6 H -0.62450 0.87040 0.69380
C8 C -0.3848(3) 0.8684(3) 0.72618(18)
H7 H -0.45040 0.90950 0.80650
C9 C -0.1861(3) 0.8299(3) 0.67566(18)
H8 H -0.11300 0.84060 0.72160
C10 C -0.0924(3) 0.7752(3) 0.55744(17)
C11 C 0.5322(3) 0.5814(3) 0.20803(17)
C12 C 0.7241(3) 0.4148(3) 0.16558(17)
H9 H 0.77600 0.32690 0.21500
C13 C 0.8378(3) 0.3787(3) 0.05132(17)
C14 C 0.7733(3) 0.5049(3) -0.02348(18)
H10 H 0.85550 0.47750 -0.10170
C15 C 0.5855(3) 0.6720(3) 0.01920(18)
H11 H 0.53750 0.76180 -0.03010
C16 C 0.4668(3) 0.7098(3) 0.13315(18)
H12 H 0.33810 0.82560 0.16100
C17 C 0.4118(3) 0.6171(3) 0.32997(17)
H13 H 0.48900 0.57010 0.38070
#END
