
#######################################################################
#
#                 Cambridge Crystallographic Data Centre
#                                CCDC
#
#######################################################################
#
# If this CIF has been generated from an entry in the Cambridge
# Structural Database, then it will include bibliographic, chemical,
# crystal, experimental, refinement or atomic coordinate data resulting
# from the CCDC's data processing and validation procedures.
#
#######################################################################

data_CSD_CIF_QEVRIV
_audit_creation_date 2018-01-18
_audit_creation_method CSD-ConQuest-V1
_database_code_CSD QEVRIV
_database_code_depnum_ccdc_archive 'CCDC 1481419'
_chemical_formula_sum 'C13 H15 N1 O7'
_chemical_formula_moiety
;
C13 H15 N1 O7
;
_journal_coden_Cambridge 917
_journal_volume 12
_journal_year 2016
_journal_page_first 1096
_journal_name_full 'Beilstein J.Org.Chem. '
loop_
_publ_author_name
"P.Jakubec"
"A.J.M.Farley"
"D.J.Dixon"
_chemical_name_systematic
;
methyl 3-(1-(3-furyl)-2-nitroethyl)-2-oxotetrahydro-2H-pyran-3-carboxylate
;
_cell_volume    688.820
_exptl_crystal_colour 'colorless'
_exptl_crystal_density_diffrn 1.433
_exptl_crystal_description 'block'
_diffrn_ambient_temperature 150
#These two values have been output from a single CSD field.
_refine_ls_R_factor_gt 0.0298
_refine_ls_wR_factor_gt 0.0298
_symmetry_cell_setting monoclinic
_symmetry_space_group_name_H-M 'P 21'
_symmetry_Int_Tables_number 4
loop_
_symmetry_equiv_pos_site_id
_symmetry_equiv_pos_as_xyz
1 x,y,z
2 -x,1/2+y,-z
_cell_length_a 9.4573(3)
_cell_length_b 6.5026(2)
_cell_length_c 11.6625(4)
_cell_angle_alpha 90
_cell_angle_beta 106.1747(13)
_cell_angle_gamma 90
_cell_formula_units_Z 2
loop_
_atom_type_symbol
_atom_type_radius_bond
C 0.68
H 0.23
N 0.68
O 0.68
loop_
_atom_site_label
_atom_site_type_symbol
_atom_site_fract_x
_atom_site_fract_y
_atom_site_fract_z
O1 O -0.08721(13) 0.7478(2) 0.05969(10)
C1 C -0.04558(18) 0.7324(3) 0.16680(15)
O2 O -0.12390(12) 0.7872(2) 0.24067(11)
C2 C -0.27248(18) 0.8633(3) 0.18546(17)
C3 C 0.10166(17) 0.6356(3) 0.23553(14)
C4 C 0.07400(19) 0.4012(3) 0.23895(16)
C5 C 0.0032(2) 0.3474(3) 0.33667(17)
C6 C 0.1065(3) 0.4121(4) 0.45394(18)
O3 O 0.14496(14) 0.6312(2) 0.45674(11)
C7 C 0.14760(18) 0.7358(3) 0.35917(15)
O4 O 0.18367(13) 0.9148(2) 0.37052(11)
C8 C 0.22014(18) 0.6745(3) 0.16807(15)
C9 C 0.23838(19) 0.9012(3) 0.13928(15)
N1 N 0.31655(15) 0.9119(3) 0.04381(13)
O5 O 0.43140(14) 1.0090(3) 0.06451(13)
O6 O 0.26083(15) 0.8250(3) -0.05085(11)
C10 C 0.36734(18) 0.5822(3) 0.23222(15)
C11 C 0.4593(2) 0.6208(4) 0.35131(17)
C12 C 0.5787(2) 0.5008(4) 0.36549(17)
O7 O 0.57129(15) 0.3908(3) 0.26536(13)
C13 C 0.4410(2) 0.4433(3) 0.18530(17)
H1 H -0.31310 0.90060 0.24910
H2 H -0.26720 0.98370 0.13810
H3 H -0.33120 0.75340 0.13630
H4 H 0.16960 0.33130 0.25390
H5 H 0.01020 0.35980 0.16180
H6 H -0.09310 0.41740 0.32340
H7 H -0.00900 0.19620 0.33880
H8 H 0.06270 0.38810 0.51870
H9 H 0.20170 0.33420 0.47060
H10 H 0.18310 0.60140 0.09010
H11 H 0.29960 0.97220 0.20910
H12 H 0.14250 0.96580 0.10680
H13 H 0.43870 0.71390 0.40800
H14 H 0.66260 0.49050 0.43480
H15 H 0.41360 0.38460 0.10920
#END
