
#######################################################################
#
#                 Cambridge Crystallographic Data Centre
#                                CCDC
#
#######################################################################
#
# If this CIF has been generated from an entry in the Cambridge
# Structural Database, then it will include bibliographic, chemical,
# crystal, experimental, refinement or atomic coordinate data resulting
# from the CCDC's data processing and validation procedures.
#
#######################################################################

data_CSD_CIF_QEVREP
_audit_creation_date 2007-04-03
_audit_creation_method CSD-ConQuest-V1
_database_code_CSD QEVREP
_database_code_depnum_ccdc_archive 'CCDC 622616'
_chemical_formula_sum 'C13 H15 N1 O3'
_chemical_formula_moiety
;
C13 H15 N1 O3
;
_journal_coden_Cambridge 177
_journal_volume 5
_journal_year 2007
_journal_page_first 229
_journal_name_full 'Org.Biomol.Chem. '
loop_
_publ_author_name
"R.J.Cox"
"A.S.Evitt"
_chemical_name_systematic
;
(E)-2-Ethyl-1-(4-nitrophenyl)pent-2-en-1-one
;
_chemical_melting_point 305.15
_cell_volume   1197.678
_exptl_crystal_colour 'colorless'
_exptl_crystal_density_diffrn 1.294
_exptl_special_details
;
Melting point range 305.15-307.15K

;
_exptl_crystal_description 'plate'
_diffrn_ambient_temperature 100
#These two values have been output from a single CSD field.
_refine_ls_R_factor_gt 0.1222
_refine_ls_wR_factor_gt 0.1222
_symmetry_cell_setting triclinic
_symmetry_space_group_name_H-M 'P -1'
_symmetry_Int_Tables_number 2
loop_
_symmetry_equiv_pos_site_id
_symmetry_equiv_pos_as_xyz
1 x,y,z
2 -x,-y,-z
_cell_length_a 8.2761(17)
_cell_length_b 10.042(2)
_cell_length_c 15.189(3)
_cell_angle_alpha 74.44(3)
_cell_angle_beta 81.70(3)
_cell_angle_gamma 82.47(3)
_cell_formula_units_Z 4
loop_
_atom_type_symbol
_atom_type_radius_bond
C 0.68
H 0.23
N 0.68
O 0.68
loop_
_atom_site_label
_atom_site_type_symbol
_atom_site_fract_x
_atom_site_fract_y
_atom_site_fract_z
C1 C 0.9049(5) 0.2921(4) 0.7124(2)
H1 H 0.87800 0.36260 0.74460
C2 C 1.0028(5) 0.3196(4) 0.6296(2)
H2 H 1.04220 0.40810 0.60360
C3 C 1.0420(4) 0.2132(4) 0.5854(2)
C4 C 0.9828(5) 0.0844(4) 0.6192(2)
H3 H 1.01070 0.01420 0.58690
C5 C 0.8816(5) 0.0610(4) 0.7018(2)
H4 H 0.83720 -0.02580 0.72570
C6 C 0.8441(4) 0.1631(4) 0.7504(2)
C7 C 0.7270(5) 0.1307(4) 0.8371(2)
C8 C 0.7462(5) 0.1862(4) 0.9164(2)
C9 C 0.8908(5) 0.2230(4) 0.9249(3)
H5 H 0.97570 0.21700 0.87650
C10 C 0.9353(6) 0.2731(5) 1.0023(3)
H6 H 0.98340 0.36270 0.97700
H7 H 0.83510 0.28860 1.04400
C11 C 1.0564(6) 0.1690(5) 1.0556(3)
H8 H 1.00600 0.08230 1.08420
H9 H 1.08820 0.20580 1.10350
H10 H 1.15380 0.15100 1.01390
C12 C 0.5960(6) 0.1883(5) 0.9861(3)
H11 H 0.53050 0.11220 0.98680
H12 H 0.63130 0.17120 1.04800
C13 C 0.4907(6) 0.3229(5) 0.9657(3)
H13 H 0.55430 0.39850 0.96590
H14 H 0.39570 0.31930 1.01270
H15 H 0.45290 0.33930 0.90510
C14 C 0.5603(5) 0.1416(4) 0.5374(2)
H16 H 0.58510 0.08020 0.49840
C15 C 0.4614(5) 0.1025(4) 0.6192(2)
H17 H 0.41910 0.01440 0.63760
C16 C 0.4254(5) 0.1957(4) 0.6738(2)
C17 C 0.4889(5) 0.3231(4) 0.6508(2)
H18 H 0.46370 0.38420 0.69000
C18 C 0.5898(5) 0.3586(4) 0.5693(2)
H19 H 0.63620 0.44480 0.55260
C19 C 0.6250(4) 0.2704(4) 0.5109(2)
C20 C 0.7364(5) 0.3121(4) 0.4228(2)
C21 C 0.7001(4) 0.2848(3) 0.3368(2)
C22 C 0.5453(5) 0.2760(4) 0.3247(2)
H20 H 0.46570 0.27520 0.37650
C23 C 0.4834(5) 0.2672(4) 0.2392(2)
H21 H 0.46130 0.17040 0.24530
H22 H 0.56860 0.29270 0.18640
C24 C 0.3271(5) 0.3632(5) 0.2206(3)
H23 H 0.24370 0.34030 0.27360
H24 H 0.28640 0.35150 0.16590
H25 H 0.35040 0.45980 0.21010
C25 C 0.8448(4) 0.2860(4) 0.2627(2)
H26 H 0.82880 0.22340 0.22490
H27 H 0.94620 0.24960 0.29240
C26 C 0.8660(5) 0.4313(4) 0.2003(2)
H28 H 0.76910 0.46530 0.16750
H29 H 0.96360 0.42750 0.15570
H30 H 0.87910 0.49420 0.23760
N1 N 1.1478(4) 0.2404(3) 0.49796(19)
N2 N 0.3160(4) 0.1554(3) 0.7604(2)
O1 O 1.1740(3) 0.1497(3) 0.45524(17)
O2 O 1.2077(3) 0.3516(3) 0.47029(16)
O3 O 0.6188(3) 0.0572(3) 0.84146(18)
O4 O 0.2849(3) 0.2381(3) 0.80854(18)
O5 O 0.2613(3) 0.0428(3) 0.78001(17)
O6 O 0.8577(3) 0.3701(3) 0.42335(17)
#END
