
#######################################################################
#
#                 Cambridge Crystallographic Data Centre
#                                CCDC
#
#######################################################################
#
# If this CIF has been generated from an entry in the Cambridge
# Structural Database, then it will include bibliographic, chemical,
# crystal, experimental, refinement or atomic coordinate data resulting
# from the CCDC's data processing and validation procedures.
#
#######################################################################

data_CSD_CIF_QEVTUH
_audit_creation_date 2007-04-03
_audit_creation_method CSD-ConQuest-V1
_database_code_CSD QEVTUH
_database_code_depnum_ccdc_archive 'CCDC 635938'
_chemical_formula_sum 'C19 H17 N1 O3'
_chemical_formula_moiety
;
C19 H17 N1 O3
;
_journal_coden_Cambridge 1277
_journal_volume 110
_journal_year 2006
_journal_page_first 13379
_journal_name_full 'J.Phys.Chem.A '
loop_
_publ_author_name
"Y.Sonoda"
"M.Goto"
"S.Tsuzuki"
"N.Tamaoki"
_chemical_name_systematic
;
(E,E,E)-1-(4-methoxyphenyl)-6-(4-nitrophenyl)-1,3,5-hexatriene
;
_chemical_melting_point 456.15
_cell_volume   1558.841
_exptl_crystal_colour 'yellow'
_exptl_crystal_density_diffrn 1.31
_exptl_special_details
;
Melting point range 456.15-457.15K
fluorescent

;
_exptl_crystal_description 'plate'
_exptl_crystal_preparation 'acetonitrile'
_diffrn_ambient_temperature 163
#These two values have been output from a single CSD field.
_refine_ls_R_factor_gt 0.0807
_refine_ls_wR_factor_gt 0.0807
loop_
_citation_database_id_CSD
_citation_special_details
PEYTIX "is a stereoisomer of this entry"
_symmetry_cell_setting triclinic
_symmetry_space_group_name_H-M 'P -1'
_symmetry_Int_Tables_number 2
loop_
_symmetry_equiv_pos_site_id
_symmetry_equiv_pos_as_xyz
1 x,y,z
2 -x,-y,-z
_cell_length_a 6.8991(10)
_cell_length_b 7.2227(11)
_cell_length_c 31.435(5)
_cell_angle_alpha 93.322(3)
_cell_angle_beta 93.237(3)
_cell_angle_gamma 93.007(3)
_cell_formula_units_Z 4
loop_
_atom_type_symbol
_atom_type_radius_bond
C 0.68
H 0.23
N 0.68
O 0.68
loop_
_atom_site_label
_atom_site_type_symbol
_atom_site_fract_x
_atom_site_fract_y
_atom_site_fract_z
C1 C -0.1202(5) 0.7130(5) 0.41764(12)
H1 H -0.00020 0.77760 0.42680
C2 C -0.2673(5) 0.7047(5) 0.44539(12)
H2 H -0.25020 0.76280 0.47330
C3 C -0.4398(5) 0.6102(5) 0.43162(12)
C4 C -0.4691(5) 0.5216(5) 0.39118(13)
H3 H -0.58890 0.45570 0.38250
C5 C -0.3202(5) 0.5317(5) 0.36396(13)
H4 H -0.33780 0.47170 0.33620
C6 C -0.1430(5) 0.6288(5) 0.37637(12)
C7 C 0.0210(5) 0.6432(5) 0.34914(13)
H5 H 0.12690 0.72600 0.35950
C8 C 0.0397(6) 0.5538(5) 0.31143(13)
H6 H -0.06670 0.47560 0.29930
C9 C 0.2131(6) 0.5696(5) 0.28807(13)
H7 H 0.31410 0.65690 0.29900
C10 C 0.2410(6) 0.4691(5) 0.25194(13)
H8 H 0.13790 0.38480 0.24070
C11 C 0.4154(6) 0.4792(5) 0.22890(13)
H9 H 0.52120 0.55940 0.24050
C12 C 0.4370(5) 0.3824(5) 0.19217(13)
H10 H 0.33020 0.30120 0.18160
C13 C 0.6067(5) 0.3879(5) 0.16656(12)
C14 C 0.5904(6) 0.3093(6) 0.12473(13)
H11 H 0.46980 0.25060 0.11390
C15 C 0.7458(6) 0.3150(6) 0.09864(14)
H12 H 0.73080 0.26230 0.07020
C16 C 0.9215(6) 0.3972(6) 0.11417(14)
C17 C 0.9414(6) 0.4756(5) 0.15585(13)
H13 H 1.06290 0.53250 0.16660
C18 C 0.7869(5) 0.4713(5) 0.18147(13)
H14 H 0.80280 0.52580 0.20980
C19 C 1.0684(8) 0.3556(9) 0.04776(16)
H15 H 1.03280 0.22240 0.04360
H16 H 1.19230 0.38270 0.03500
H17 H 0.96700 0.42590 0.03410
C20 C 1.1686(6) 0.9171(6) 0.11051(14)
H18 H 1.03990 0.95790 0.10950
C21 C 1.2595(6) 0.8883(6) 0.07322(14)
H19 H 1.19380 0.90560 0.04650
C22 C 1.4489(6) 0.8335(6) 0.07535(14)
C23 C 1.5462(6) 0.8039(5) 0.11310(14)
H20 H 1.67610 0.76610 0.11380
C24 C 1.4515(6) 0.8303(5) 0.15007(13)
H21 H 1.51730 0.80890 0.17650
C25 C 1.2609(6) 0.8879(5) 0.14989(13)
C26 C 1.1703(6) 0.9065(5) 0.19056(13)
H22 H 1.24420 0.86900 0.21470
C27 C 0.9951(6) 0.9702(5) 0.19825(13)
H23 H 0.92170 1.02040 0.17560
C28 C 0.9147(6) 0.9652(5) 0.23941(13)
H24 H 0.99120 0.91490 0.26150
C29 C 0.7407(6) 1.0255(5) 0.24934(13)
H25 H 0.66540 1.07960 0.22760
C30 C 0.6600(5) 1.0145(5) 0.29023(13)
H26 H 0.73550 0.96410 0.31250
C31 C 0.4831(6) 1.0716(5) 0.29867(12)
H27 H 0.41030 1.11640 0.27520
C32 C 0.3884(5) 1.0741(5) 0.33879(12)
C33 C 0.2005(5) 1.1368(5) 0.34055(12)
H28 H 0.13520 1.16960 0.31490
C34 C 0.1054(5) 1.1529(5) 0.37815(13)
H29 H -0.02240 1.19610 0.37820
C35 C 0.1995(5) 1.1051(5) 0.41575(12)
C36 C 0.3866(5) 1.0399(5) 0.41480(13)
H30 H 0.45120 1.00600 0.44050
C37 C 0.4779(5) 1.0245(5) 0.37720(12)
H31 H 0.60470 0.97920 0.37720
C38 C -0.0637(5) 1.1903(6) 0.45803(14)
H32 H -0.05500 1.31970 0.45020
H33 H -0.10290 1.18560 0.48740
H34 H -0.16020 1.11880 0.43870
N1 N -0.5992(5) 0.6083(4) 0.46028(11)
N2 N 1.5496(7) 0.8057(6) 0.03577(14)
O1 O -0.7524(4) 0.5229(4) 0.44842(10)
O2 O -0.5727(4) 0.6961(4) 0.49533(10)
O3 O 1.0875(4) 0.4076(5) 0.09215(10)
O4 O 1.4520(6) 0.7896(7) 0.00180(12)
O5 O 1.7267(6) 0.8018(7) 0.03836(12)
O6 O 0.1228(3) 1.1122(3) 0.45471(8)
#END
