
#######################################################################
#
#                 Cambridge Crystallographic Data Centre
#                                CCDC
#
#######################################################################
#
# If this CIF has been generated from an entry in the Cambridge
# Structural Database, then it will include bibliographic, chemical,
# crystal, experimental, refinement or atomic coordinate data resulting
# from the CCDC's data processing and validation procedures.
#
#######################################################################

data_CSD_CIF_QEVVET
_audit_creation_date 2007-04-03
_audit_creation_method CSD-ConQuest-V1
_database_code_CSD QEVVET
_database_code_depnum_ccdc_archive 'CCDC 635940'
_chemical_formula_sum 'C21 H21 N1 O3'
_chemical_formula_moiety
;
C21 H21 N1 O3
;
_journal_coden_Cambridge 1277
_journal_volume 110
_journal_year 2006
_journal_page_first 13379
_journal_name_full 'J.Phys.Chem.A '
loop_
_publ_author_name
"Y.Sonoda"
"M.Goto"
"S.Tsuzuki"
"N.Tamaoki"
_chemical_name_systematic
;
(E,E,E)-1-(4-(n-propoxy)phenyl)-6-(4-nitrophenyl)-1,3,5-hexatriene
;
_chemical_melting_point 431.15
_cell_volume   1757.155
_exptl_crystal_colour 'orange'
_exptl_crystal_density_diffrn 1.268
_exptl_special_details
;
Melting point range 431.15-433.15K
fluorescent

;
_exptl_crystal_description 'plate'
_exptl_crystal_preparation 'dichloromethane/toluene'
_diffrn_ambient_temperature 183
#These two values have been output from a single CSD field.
_refine_ls_R_factor_gt 0.096
_refine_ls_wR_factor_gt 0.096
loop_
_citation_database_id_CSD
_citation_special_details
PEYTOD "is a stereoisomer of this entry"
_symmetry_cell_setting monoclinic
_symmetry_space_group_name_H-M 'P 21'
_symmetry_Int_Tables_number 4
loop_
_symmetry_equiv_pos_site_id
_symmetry_equiv_pos_as_xyz
1 x,y,z
2 -x,1/2+y,-z
_cell_length_a 14.193(4)
_cell_length_b 7.299(2)
_cell_length_c 17.052(5)
_cell_angle_alpha 90
_cell_angle_beta 95.895(5)
_cell_angle_gamma 90
_cell_formula_units_Z 4
loop_
_atom_type_symbol
_atom_type_radius_bond
C 0.68
H 0.23
N 0.68
O 0.68
loop_
_atom_site_label
_atom_site_type_symbol
_atom_site_fract_x
_atom_site_fract_y
_atom_site_fract_z
C1 C 0.6881(5) 0.2018(10) 0.7806(4)
H1 H 0.74340 0.14320 0.80480
C2 C 0.6126(5) 0.2251(10) 0.8220(4)
H2 H 0.61590 0.18390 0.87500
C3 C 0.5301(5) 0.3088(10) 0.7877(4)
C4 C 0.5276(4) 0.3763(9) 0.7101(4)
H3 H 0.47310 0.43860 0.68670
C5 C 0.6042(4) 0.3516(9) 0.6686(4)
H4 H 0.60140 0.39580 0.61610
C6 C 0.6858(4) 0.2640(9) 0.7010(4)
C7 C 0.7661(4) 0.2274(10) 0.6582(4)
H5 H 0.81190 0.14300 0.68120
C8 C 0.7821(4) 0.3015(9) 0.5889(4)
H6 H 0.73630 0.38340 0.56420
C9 C 0.8665(5) 0.2625(10) 0.5494(4)
H7 H 0.91070 0.17600 0.57300
C10 C 0.8851(5) 0.3417(11) 0.4819(4)
H8 H 0.84120 0.43040 0.45960
C11 C 0.9666(4) 0.3034(9) 0.4403(4)
H9 H 1.01410 0.22370 0.46420
C12 C 0.9782(5) 0.3741(10) 0.3701(4)
H10 H 0.93040 0.45650 0.34900
C13 C 1.0565(4) 0.3404(9) 0.3208(4)
C14 C 1.0417(4) 0.3914(10) 0.2418(4)
H11 H 0.98460 0.45180 0.22270
C15 C 1.1094(5) 0.355(1) 0.1910(4)
H12 H 1.09950 0.39150 0.13730
C16 C 1.1927(5) 0.2637(10) 0.2197(4)
C17 C 1.2096(5) 0.2196(9) 0.2980(4)
H13 H 1.26770 0.16360 0.31770
C18 C 1.1420(4) 0.2569(9) 0.3479(4)
H14 H 1.15380 0.22510 0.40200
C19 C 1.2480(5) 0.2498(12) 0.0910(4)
H15 H 1.25020 0.38310 0.08060
H16 H 1.18510 0.20320 0.06950
C20 C 1.3249(5) 0.1531(12) 0.0521(4)
H17 H 1.31970 0.01990 0.06170
H18 H 1.31350 0.17300 -0.00550
C21 C 1.4234(6) 0.2123(17) 0.0792(5)
H19 H 1.43070 0.34260 0.06740
H20 H 1.46830 0.14050 0.05180
H21 H 1.43590 0.19260 0.13620
C22 C 1.0033(5) 0.8899(9) 0.2579(4)
H22 H 1.03800 0.93690 0.30410
C23 C 1.0459(5) 0.8790(11) 0.1906(5)
H23 H 1.10960 0.91870 0.18990
C24 C 0.9961(5) 0.8095(12) 0.1226(5)
C25 C 0.9034(5) 0.7573(12) 0.1229(5)
H24 H 0.86910 0.71470 0.07570
C26 C 0.8593(5) 0.7665(12) 0.1919(4)
H25 H 0.79550 0.72750 0.19220
C27 C 0.9098(5) 0.8340(9) 0.2614(4)
C28 C 0.8671(4) 0.8445(10) 0.3352(4)
H26 H 0.90190 0.91130 0.37630
C29 C 0.7855(5) 0.7729(10) 0.3529(4)
H27 H 0.75020 0.69910 0.31440
C30 C 0.7488(5) 0.8012(9) 0.4261(4)
H28 H 0.78580 0.86970 0.46540
C31 C 0.6643(5) 0.7363(9) 0.4430(4)
H29 H 0.63100 0.65840 0.40510
C32 C 0.6204(5) 0.7745(10) 0.5131(4)
H30 H 0.65630 0.83820 0.55460
C33 C 0.5312(5) 0.7255(9) 0.5237(4)
H31 H 0.49830 0.65530 0.48270
C34 C 0.4796(4) 0.7678(9) 0.5906(4)
C35 C 0.5194(5) 0.8493(10) 0.6600(4)
H32 H 0.58400 0.88540 0.66500
C36 C 0.4645(5) 0.8779(10) 0.7221(4)
H33 H 0.49200 0.93850 0.76820
C37 C 0.3713(5) 0.8209(9) 0.7187(4)
C38 C 0.3314(5) 0.7394(10) 0.6512(4)
H34 H 0.26750 0.69860 0.64800
C39 C 0.3826(5) 0.7158(9) 0.5880(4)
H35 H 0.35250 0.66310 0.54100
C40 C 0.2389(5) 0.7569(13) 0.7917(5)
H36 H 0.24370 0.62660 0.77640
H37 H 0.18770 0.81530 0.75650
C41 C 0.2187(6) 0.7717(15) 0.8756(5)
H38 H 0.21810 0.90300 0.89010
H39 H 0.15440 0.72260 0.88000
C42 C 0.2867(7) 0.6745(14) 0.9337(5)
H40 H 0.28840 0.54430 0.91990
H41 H 0.26650 0.68790 0.98660
H42 H 0.35000 0.72750 0.93260
N1 N 0.4490(5) 0.3185(10) 0.8299(4)
N2 N 1.0403(5) 0.7985(11) 0.0514(4)
O1 O 1.2630(4) 0.2157(8) 0.1738(3)
O2 O 0.3754(4) 0.3777(11) 0.7950(4)
O3 O 0.4562(5) 0.2695(14) 0.8970(4)
O4 O 0.9965(5) 0.7495(16) -0.0085(4)
O5 O 1.1263(4) 0.8379(14) 0.0540(4)
O6 O 0.3280(4) 0.8498(9) 0.7858(3)
#END
