
#######################################################################
#
#                 Cambridge Crystallographic Data Centre
#                                CCDC
#
#######################################################################
#
# If this CIF has been generated from an entry in the Cambridge
# Structural Database, then it will include bibliographic, chemical,
# crystal, experimental, refinement or atomic coordinate data resulting
# from the CCDC's data processing and validation procedures.
#
#######################################################################

data_CSD_CIF_QEVVAP
_audit_creation_date 2007-04-03
_audit_creation_method CSD-ConQuest-V1
_database_code_CSD QEVVAP
_database_code_depnum_ccdc_archive 'CCDC 635939'
_chemical_formula_sum 'C22 H23 N1 O3'
_chemical_formula_moiety
;
C22 H23 N1 O3
;
_journal_coden_Cambridge 1277
_journal_volume 110
_journal_year 2006
_journal_page_first 13379
_journal_name_full 'J.Phys.Chem.A '
loop_
_publ_author_name
"Y.Sonoda"
"M.Goto"
"S.Tsuzuki"
"N.Tamaoki"
_chemical_name_systematic
;
(E,E,E)-1-(4-(n-butoxy)phenyl)-6-(4-nitrophenyl)-1,3,5-hexatriene
;
_chemical_melting_point 432.15
_cell_volume    912.509
_exptl_crystal_colour 'orange'
_exptl_crystal_density_diffrn 1.272
_exptl_special_details
;
Melting point range 432.15-434.15K
fluorescent

;
_exptl_crystal_description 'needle'
_exptl_crystal_preparation 'acetonitrile'
_diffrn_ambient_temperature 183
#These two values have been output from a single CSD field.
_refine_ls_R_factor_gt 0.0573
_refine_ls_wR_factor_gt 0.0573
loop_
_citation_database_id_CSD
_citation_special_details
PEYTUJ "is a stereoisomer of this entry"
_symmetry_cell_setting triclinic
_symmetry_space_group_name_H-M 'P -1'
_symmetry_Int_Tables_number 2
loop_
_symmetry_equiv_pos_site_id
_symmetry_equiv_pos_as_xyz
1 x,y,z
2 -x,-y,-z
_cell_length_a 8.0445(9)
_cell_length_b 8.5236(9)
_cell_length_c 14.1707(15)
_cell_angle_alpha 74.950(2)
_cell_angle_beta 82.264(2)
_cell_angle_gamma 77.374(2)
_cell_formula_units_Z 2
loop_
_atom_type_symbol
_atom_type_radius_bond
C 0.68
H 0.23
N 0.68
O 0.68
loop_
_atom_site_label
_atom_site_type_symbol
_atom_site_fract_x
_atom_site_fract_y
_atom_site_fract_z
O1 O 0.17537(16) 0.14936(12) -0.30268(8)
O2 O 0.35826(16) 0.10199(13) -0.42255(8)
O3 O 0.27392(13) -1.93788(11) 0.26655(7)
N1 N 0.27837(16) 0.05498(14) -0.34415(8)
C1 C 0.22344(17) -0.34590(16) -0.17354(9)
H1 H 0.15600 -0.38500 -0.11530
C2 C 0.20446(17) -0.17797(16) -0.21405(9)
H2 H 0.12540 -0.10160 -0.18380
C3 C 0.30221(16) -0.12257(15) -0.29933(9)
C4 C 0.42030(17) -0.23040(16) -0.34452(9)
H3 H 0.48670 -0.19030 -0.40300
C5 C 0.43877(16) -0.39755(15) -0.30221(9)
H4 H 0.52060 -0.47280 -0.33190
C6 C 0.34090(16) -0.45980(15) -0.21710(9)
C7 C 0.36540(16) -0.63845(15) -0.17796(9)
H5 H 0.45660 -0.70340 -0.20920
C8 C 0.27413(16) -0.72189(15) -0.10292(9)
H6 H 0.18260 -0.66050 -0.06980
C9 C 0.30757(16) -0.89911(15) -0.06998(9)
H7 H 0.39810 -0.95960 -0.10420
C10 C 0.21984(16) -0.98544(15) 0.00588(9)
H8 H 0.12970 -0.92470 0.04020
C11 C 0.25230(16) -1.16260(15) 0.03879(9)
H9 H 0.34180 -1.22410 0.00440
C12 C 0.16394(16) -1.24685(15) 0.11522(9)
H10 H 0.07520 -1.18270 0.14840
C13 C 0.18921(15) -1.42568(15) 0.15278(9)
C14 C 0.10841(16) -1.49210(15) 0.24299(9)
H11 H 0.03410 -1.41900 0.27760
C15 C 0.13239(17) -1.66105(16) 0.28423(9)
H12 H 0.07660 -1.70230 0.34640
C16 C 0.23908(16) -1.76948(15) 0.23366(9)
C17 C 0.31712(17) -1.70648(15) 0.14217(9)
H13 H 0.38720 -1.78010 0.10640
C18 C 0.29390(16) -1.53832(15) 0.10289(9)
H14 H 0.34990 -1.49770 0.04070
C19 C 0.19531(18) -2.00782(16) 0.36053(9)
H15 H 0.06930 -1.97670 0.36040
H16 H 0.23100 -1.96530 0.41180
C20 C 0.25024(18) -2.19361(15) 0.38148(9)
H17 H 0.37490 -2.22400 0.38790
H18 H 0.22650 -2.23350 0.32590
C21 C 0.15627(17) -2.27722(15) 0.47539(9)
H19 H 0.17130 -2.22890 0.52940
H20 H 0.03260 -2.25390 0.46640
C22 C 0.21859(18) -2.46337(16) 0.50432(10)
H21 H 0.19880 -2.51280 0.45260
H22 H 0.15610 -2.51000 0.56590
H23 H 0.34110 -2.48740 0.51310
#END
