
#######################################################################
#
#                 Cambridge Crystallographic Data Centre
#                                CCDC
#
#######################################################################
#
# If this CIF has been generated from an entry in the Cambridge
# Structural Database, then it will include bibliographic, chemical,
# crystal, experimental, refinement or atomic coordinate data resulting
# from the CCDC's data processing and validation procedures.
#
#######################################################################

data_CSD_CIF_QEVVIX
_audit_creation_date 2007-04-03
_audit_creation_method CSD-ConQuest-V1
_database_code_CSD QEVVIX
_database_code_depnum_ccdc_archive 'CCDC 614921'
_chemical_formula_sum 'C3 H3 N7 O5'
_chemical_formula_moiety
;
C3 H3 N7 O5
;
_journal_coden_Cambridge 1277
_journal_volume 111
_journal_year 2007
_journal_page_first 150
_journal_name_full 'J.Phys.Chem.A '
loop_
_publ_author_name
"P.N.Simoes"
"L.M.Pedroso"
"A.M.M.Beja"
"M.R.Silva"
"E.MacLean"
"A.A.Portugal"
_chemical_name_systematic
;
4,6-bis(nitroimino)-1,3,5-triazinan-2-one
;
_cell_volume    721.677
_exptl_crystal_colour 'colorless'
_exptl_crystal_density_diffrn 1.998
_exptl_crystal_description 'block'
_diffrn_ambient_temperature 150
_diffrn_radiation_probe x-ray
_diffrn_source synchrotron
#These two values have been output from a single CSD field.
_refine_ls_R_factor_gt 0.0326
_refine_ls_wR_factor_gt 0.0326
_symmetry_cell_setting orthorhombic
_symmetry_space_group_name_H-M 'P n m a'
_symmetry_Int_Tables_number 62
loop_
_symmetry_equiv_pos_site_id
_symmetry_equiv_pos_as_xyz
1 x,y,z
2 1/2-x,-y,1/2+z
3 -x,1/2+y,-z
4 1/2+x,1/2-y,1/2-z
5 -x,-y,-z
6 -1/2+x,y,-1/2-z
7 x,-1/2-y,z
8 -1/2-x,-1/2+y,-1/2+z
_cell_length_a 6.187(2)
_cell_length_b 13.252(5)
_cell_length_c 8.802(4)
_cell_angle_alpha 90
_cell_angle_beta 90
_cell_angle_gamma 90
_cell_formula_units_Z 4
loop_
_atom_type_symbol
_atom_type_radius_bond
C 0.68
H 0.23
N 0.68
O 0.68
loop_
_atom_site_label
_atom_site_type_symbol
_atom_site_fract_x
_atom_site_fract_y
_atom_site_fract_z
O1 O 1.3379(4) 0.25000 0.3271(3)
O2 O 0.5705(2) -0.02294(13) 0.67193(18)
O3 O 0.4932(3) 0.13605(12) 0.65840(16)
N1 N 1.0679(3) 0.16281(16) 0.4422(2)
N2 N 0.7845(4) 0.25000 0.5471(3)
N3 N 0.7987(3) 0.06964(14) 0.54489(19)
N4 N 0.6113(3) 0.06304(15) 0.6297(2)
C1 C 1.1713(5) 0.25000 0.3970(3)
C2 C 0.8753(4) 0.15976(16) 0.5138(2)
H1 H 1.124(4) 0.112(2) 0.419(3)
H2 H 0.661(7) 0.25000 0.587(4)
O2F O 0.5705(2) 0.52294(13) 0.67193(18)
O3F O 0.4932(3) 0.36395(12) 0.65840(16)
N1F N 1.0679(3) 0.33719(16) 0.4422(2)
N3F N 0.7987(3) 0.43036(14) 0.54489(19)
N4F N 0.6113(3) 0.43696(15) 0.6297(2)
C2F C 0.8753(4) 0.34024(16) 0.5138(2)
H1F H 1.124(4) 0.388(2) 0.419(3)
#END
