
#######################################################################
#
#                 Cambridge Crystallographic Data Centre
#                                CCDC
#
#######################################################################
#
# If this CIF has been generated from an entry in the Cambridge
# Structural Database, then it will include bibliographic, chemical,
# crystal, experimental, refinement or atomic coordinate data resulting
# from the CCDC's data processing and validation procedures.
#
#######################################################################

data_CSD_CIF_QEVXIB
_audit_creation_date 2018-01-18
_audit_creation_method CSD-ConQuest-V1
_database_code_CSD QEVXIB
_database_code_depnum_ccdc_archive 'CCDC 1574858'
_chemical_formula_sum 'C28 H26 N2 O4'
_chemical_formula_moiety
;
C28 H26 N2 O4
;
_journal_coden_Cambridge 177
_journal_volume 16
_journal_year 2018
_journal_page_first 895
_journal_name_full 'Org.Biomol.Chem. '
loop_
_publ_author_name
"Xinye Shang"
"Kun Liu"
"Zhongyin Zhang"
"Xianhong Xu"
"Pengfei Li"
"Wenjun Li"
_chemical_name_systematic
;
ethyl 
6-[(4-methylphenyl)methyl]-3,9-diphenyl-1,7-dioxa-2,8-diazaspiro[4.4]nona-2,8-
diene-6-carboxylate
;
_cell_volume   2304.465
_exptl_crystal_colour 'colorless'
_exptl_crystal_density_diffrn 1.31
_exptl_crystal_description 'block'
_diffrn_ambient_temperature 150
#These two values have been output from a single CSD field.
_refine_ls_R_factor_gt 0.0488
_refine_ls_wR_factor_gt 0.0488
_symmetry_cell_setting monoclinic
_symmetry_space_group_name_H-M 'P 21/n'
_symmetry_Int_Tables_number 14
loop_
_symmetry_equiv_pos_site_id
_symmetry_equiv_pos_as_xyz
1 x,y,z
2 1/2-x,1/2+y,1/2-z
3 -x,-y,-z
4 -1/2+x,-1/2-y,-1/2+z
_cell_length_a 11.2591(7)
_cell_length_b 10.2596(5)
_cell_length_c 19.9617(11)
_cell_angle_alpha 90
_cell_angle_beta 91.988(2)
_cell_angle_gamma 90
_cell_formula_units_Z 4
loop_
_atom_type_symbol
_atom_type_radius_bond
C 0.68
H 0.23
N 0.68
O 0.68
loop_
_atom_site_label
_atom_site_type_symbol
_atom_site_fract_x
_atom_site_fract_y
_atom_site_fract_z
O1 O 0.82681(9) 0.70948(11) 0.35583(5)
O2 O 0.66190(9) 0.79743(10) 0.23520(5)
O3 O 0.64048(11) 0.85389(11) 0.39118(6)
O4 O 0.51013(9) 0.70932(10) 0.34539(6)
N1 N 0.90383(11) 0.70783(13) 0.30184(6)
N2 N 0.57131(11) 0.77827(12) 0.18511(6)
C1 C 0.84991(15) 0.69334(15) 0.12170(8)
H1 H 0.76684 0.70989 0.11977
C2 C 0.91204(15) 0.68715(16) 0.06274(8)
H2 H 0.87124 0.70050 0.02084
C3 C 1.03233(16) 0.66179(16) 0.06464(9)
H3 H 1.07411 0.65566 0.02422
C4 C 1.09194(16) 0.64528(18) 0.12612(9)
H4 H 1.17510 0.62927 0.12777
C5 C 1.03103(15) 0.65201(17) 0.18485(9)
H5 H 1.07270 0.64059 0.22663
C6 C 0.90874(14) 0.67542(14) 0.18349(8)
C7 C 0.84574(14) 0.68208(14) 0.24708(8)
C8 C 0.71266(13) 0.67117(14) 0.25592(7)
C9 C 0.64202(13) 0.57063(14) 0.21424(7)
H6 H 0.69462 0.51834 0.18597
H7 H 0.59672 0.51150 0.24309
C10 C 0.56061(13) 0.65623(14) 0.17238(7)
C11 C 0.47717(13) 0.61015(15) 0.11915(7)
C12 C 0.45395(14) 0.47790(15) 0.11103(8)
H8 H 0.48932 0.41647 0.14123
C13 C 0.37879(15) 0.43553(17) 0.05858(8)
H9 H 0.36218 0.34521 0.05350
C14 C 0.32833(14) 0.52381(17) 0.01399(8)
H10 H 0.27787 0.49425 -0.02200
C15 C 0.35138(14) 0.65611(17) 0.02177(8)
H11 H 0.31663 0.71700 -0.00894
C16 C 0.42443(13) 0.69908(16) 0.07387(8)
H12 H 0.43923 0.78972 0.07919
C17 C 0.71094(13) 0.66235(14) 0.33358(7)
C18 C 0.69640(14) 0.52264(14) 0.35979(7)
H13 H 0.61339 0.49418 0.35067
H14 H 0.74888 0.46395 0.33485
C19 C 0.72542(14) 0.50896(14) 0.43391(7)
C20 C 0.64627(15) 0.54729(15) 0.48203(8)
H15 H 0.57150 0.58322 0.46842
C21 C 0.67548(16) 0.53353(16) 0.54994(8)
H16 H 0.62039 0.56069 0.58212
C22 C 0.78364(16) 0.48087(16) 0.57149(8)
C23 C 0.86145(15) 0.44087(16) 0.52334(8)
H17 H 0.93537 0.40291 0.53696
C24 C 0.83324(14) 0.45533(15) 0.45569(8)
H18 H 0.88854 0.42812 0.42364
C25 C 0.8179(2) 0.4696(2) 0.64521(9)
H19 H 0.85098 0.38281 0.65436
H20 H 0.74739 0.48272 0.67184
H21 H 0.87752 0.53599 0.65717
C26 C 0.61875(14) 0.75580(15) 0.36081(7)
C27 C 0.40826(15) 0.78949(17) 0.36242(9)
H22 H 0.43558 0.86848 0.38692
H23 H 0.35503 0.73983 0.39151
C28 C 0.34292(17) 0.8273(2) 0.29847(10)
H24 H 0.39481 0.88069 0.27115
H25 H 0.27181 0.87739 0.30896
H26 H 0.31952 0.74858 0.27355
#END
