
#######################################################################
#
#                 Cambridge Crystallographic Data Centre
#                                CCDC
#
#######################################################################
#
# If this CIF has been generated from an entry in the Cambridge
# Structural Database, then it will include bibliographic, chemical,
# crystal, experimental, refinement or atomic coordinate data resulting
# from the CCDC's data processing and validation procedures.
#
#######################################################################

data_CSD_CIF_QEWHAD
_audit_creation_date 2013-05-28
_audit_creation_method CSD-ConQuest-V1
_database_code_CSD QEWHAD
_database_code_depnum_ccdc_archive 'CCDC 912553'
_chemical_formula_sum 'C22 H30 N4 O4'
_chemical_formula_moiety
;
C22 H30 N4 O4
;
_journal_coden_Cambridge 177
_journal_volume 11
_journal_year 2013
_journal_page_first 3846
_journal_name_full 'Org.Biomol.Chem. '
loop_
_publ_author_name
"M.Ramanathan"
"Chun-Jui Tan"
"Wen-Jung Chang"
"Hui-Hsu Gavin Tsai"
"Duen-Ren Hou"
_chemical_name_systematic
;
1-(2,4-Dinitrophenyl)-2-((2,3,4a,6,8-pentamethyl-1,2,4a,5,6,7,8,8a-octahydrona
phthalen-1-yl)methylene)hydrazine
;
_cell_volume   2174.959
_exptl_crystal_colour 'pale orange'
_exptl_crystal_density_diffrn 1.266
_exptl_crystal_description 'Columnar'
_diffrn_ambient_temperature 296
#These two values have been output from a single CSD field.
_refine_ls_R_factor_gt 0.0482
_refine_ls_wR_factor_gt 0.0482
_symmetry_cell_setting monoclinic
_symmetry_space_group_name_H-M 'P 21/c'
_symmetry_Int_Tables_number 14
loop_
_symmetry_equiv_pos_site_id
_symmetry_equiv_pos_as_xyz
1 x,y,z
2 -x,1/2+y,1/2-z
3 -x,-y,-z
4 x,-1/2-y,-1/2+z
_cell_length_a 14.0891(6)
_cell_length_b 12.3368(5)
_cell_length_c 14.0775(6)
_cell_angle_alpha 90
_cell_angle_beta 117.268(1)
_cell_angle_gamma 90
_cell_formula_units_Z 4
loop_
_atom_type_symbol
_atom_type_radius_bond
C 0.68
H 0.23
N 0.68
O 0.68
loop_
_atom_site_label
_atom_site_type_symbol
_atom_site_fract_x
_atom_site_fract_y
_atom_site_fract_z
O1 O 0.87918(17) 0.11652(14) 0.36174(14)
O2 O 0.78445(14) 0.22302(14) 0.40498(14)
O3 O 1.03565(15) 0.23935(13) 0.15139(17)
O4 O 1.01665(12) 0.40050(13) 0.09068(13)
N1 N 0.87194(11) 0.52866(12) 0.09854(11)
H1 H 0.91850 0.52540 0.07510
N2 N 0.80109(11) 0.61495(12) 0.07103(11)
N3 N 0.83542(14) 0.20344(15) 0.35665(13)
N4 N 0.99636(12) 0.32909(15) 0.13919(13)
C1 C 0.42747(19) 0.8748(2) -0.47113(16)
H2 H 0.48150 0.90310 -0.48780
H3 H 0.37770 0.93120 -0.47840
H4 H 0.39050 0.81660 -0.51920
C2 C 0.47920(14) 0.83274(16) -0.35689(14)
H5 H 0.42300 0.79920 -0.34420
C3 C 0.52738(14) 0.92394(15) -0.27659(14)
H6 H 0.47170 0.97540 -0.28620
H7 H 0.58010 0.96150 -0.29070
C4 C 0.58064(13) 0.88439(13) -0.16018(13)
C5 C 0.66860(12) 0.80087(12) -0.14587(12)
H8 H 0.71680 0.83810 -0.16780
C6 C 0.73472(13) 0.77916(13) -0.02471(13)
H9 H 0.68320 0.76600 0.00270
C7 C 0.80817(13) 0.68432(15) 0.00817(13)
H10 H 0.85840 0.67610 -0.01700
C8 C 0.86673(12) 0.45038(13) 0.16228(12)
C9 C 0.80014(13) 0.46290(14) 0.21254(13)
H11 H 0.76180 0.52690 0.20210
C10 C 0.79054(13) 0.38487(15) 0.27507(13)
H12 H 0.74700 0.39590 0.30770
C11 C 0.84610(13) 0.28821(14) 0.29025(13)
C12 C 0.79624(14) 0.88300(15) 0.03092(13)
H13 H 0.82190 0.87270 0.10780
C13 C 0.72306(17) 0.98000(15) -0.00116(15)
C14 C 0.7636(2) 1.07819(19) 0.06961(18)
H14 H 0.70890 1.13270 0.04590
H15 H 0.82550 1.10620 0.06610
H16 H 0.78220 1.05830 0.14200
C15 C 0.62937(16) 0.97828(15) -0.08669(15)
H17 H 0.58960 1.04190 -0.10300
C16 C 0.49358(14) 0.83670(18) -0.13408(16)
H18 H 0.52560 0.81380 -0.06080
H19 H 0.46050 0.77570 -0.17970
H20 H 0.44060 0.89110 -0.14560
C17 C 0.62166(13) 0.70488(13) -0.22292(13)
H21 H 0.57010 0.66750 -0.20570
C18 C 0.56270(15) 0.74770(15) -0.33712(14)
H22 H 0.61500 0.77760 -0.35680
H23 H 0.52870 0.68700 -0.38430
C19 C 0.70302(17) 0.62203(17) -0.22101(17)
H24 H 0.66970 0.57480 -0.28170
H25 H 0.72890 0.58010 -0.15650
H26 H 0.76170 0.65910 -0.22370
C20 C 0.89462(14) 0.90526(18) 0.01449(16)
H27 H 0.87280 0.91670 -0.06010
H28 H 0.94220 0.84430 0.03930
H29 H 0.93060 0.96880 0.05400
C21 C 0.92406(12) 0.35198(14) 0.18322(12)
C22 C 0.91291(13) 0.27190(14) 0.24581(13)
H30 H 0.95070 0.20730 0.25760
#END
