
#######################################################################
#
#                 Cambridge Crystallographic Data Centre
#                                CCDC
#
#######################################################################
#
# If this CIF has been generated from an entry in the Cambridge
# Structural Database, then it will include bibliographic, chemical,
# crystal, experimental, refinement or atomic coordinate data resulting
# from the CCDC's data processing and validation procedures.
#
#######################################################################

data_CSD_CIF_QEYGOS
_audit_creation_date 2013-05-28
_audit_creation_method CSD-ConQuest-V1
_database_code_CSD QEYGOS
_database_code_depnum_ccdc_archive 'CCDC 895283'
_chemical_formula_sum 'C18 H16 N2 O3'
_chemical_formula_moiety
;
C18 H16 N2 O3
;
_journal_coden_Cambridge 182
_journal_volume 49
_journal_year 2013
_journal_page_first 6587
_journal_name_full 'Chem.Commun. '
loop_
_publ_author_name
"Yi Wang"
"Minjie Li"
"Yumo Zhang"
"Jin Yang"
"Shaoyin Zhu"
"Lan Sheng"
"Xudong Wang"
"Bing Yang"
"Sean Xiao-An Zhang"
_chemical_name_systematic
;
932-(2-(3,3-Dimethyl-3H-indol-2-yl)vinyl)-6-nitrophenol
;
_cell_volume   1527.930
_exptl_crystal_colour 'yellow'
_exptl_crystal_density_diffrn 1.34
_diffrn_ambient_temperature 293
#These two values have been output from a single CSD field.
_refine_ls_R_factor_gt 0.0698
_refine_ls_wR_factor_gt 0.0698
_symmetry_cell_setting monoclinic
_symmetry_space_group_name_H-M 'P 21/c'
_symmetry_Int_Tables_number 14
loop_
_symmetry_equiv_pos_site_id
_symmetry_equiv_pos_as_xyz
1 x,y,z
2 -x,1/2+y,1/2-z
3 -x,-y,-z
4 x,-1/2-y,-1/2+z
_cell_length_a 8.578(5)
_cell_length_b 17.638(5)
_cell_length_c 10.333(5)
_cell_angle_alpha 90
_cell_angle_beta 102.223(5)
_cell_angle_gamma 90
_cell_formula_units_Z 4
loop_
_atom_type_symbol
_atom_type_radius_bond
C 0.68
H 0.23
N 0.68
O 0.68
loop_
_atom_site_label
_atom_site_type_symbol
_atom_site_fract_x
_atom_site_fract_y
_atom_site_fract_z
O1 O 0.5520(1) 0.0892(1) 0.5219(1)
H1 H 0.45510 0.08390 0.51060
N1 N 1.2948(1) 0.1201(1) 0.6684(1)
O2 O 0.2682(1) 0.0761(1) 0.3669(1)
N2 N 0.3241(2) 0.0577(1) 0.2729(1)
O3 O 0.2411(2) 0.0354(1) 0.1701(1)
C1 C 1.1444(2) 0.1286(1) 0.6695(1)
C2 C 0.5971(2) 0.0796(1) 0.4064(1)
C3 C 1.0276(2) 0.1019(1) 0.5568(2)
H2 H 1.06850 0.07750 0.49150
C4 C 0.8158(2) 0.0726(1) 0.2943(2)
H3 H 0.92450 0.07590 0.29660
C5 C 1.1133(2) 0.1698(1) 0.7921(2)
C6 C 0.7619(2) 0.0854(1) 0.4101(1)
C7 C 0.8695(2) 0.1076(1) 0.5340(2)
H4 H 0.82420 0.12690 0.60130
C8 C 1.3830(2) 0.1531(1) 0.7864(2)
C9 C 0.7132(2) 0.0553(1) 0.1756(2)
H5 H 0.75290 0.04670 0.09980
C10 C 0.4956(2) 0.0629(1) 0.2846(2)
C11 C 1.3489(2) 0.2193(1) 0.9804(2)
H6 H 1.28360 0.23940 1.03310
C12 C 1.6109(2) 0.1945(1) 0.9414(2)
H7 H 1.72100 0.19900 0.96890
C13 C 1.2841(2) 0.1834(1) 0.8628(2)
C14 C 0.5528(2) 0.0509(1) 0.1708(2)
H8 H 0.48260 0.03980 0.09140
C15 C 1.5477(2) 0.1576(1) 0.8246(2)
H9 H 1.61320 0.13640 0.77310
C16 C 1.0250(2) 0.1191(1) 0.8745(2)
H10 H 0.91710 0.11150 0.82730
H11 H 1.02480 0.14320 0.95780
H12 H 1.07810 0.07100 0.88990
C17 C 1.0251(2) 0.2453(1) 0.7581(2)
H13 H 0.91700 0.23550 0.71330
H14 H 1.07760 0.27450 0.70160
H15 H 1.02550 0.27300 0.83810
C18 C 1.5133(2) 0.2249(1) 1.0182(2)
H16 H 1.55860 0.24970 1.09660
#END
