
#######################################################################
#
#                 Cambridge Crystallographic Data Centre
#                                CCDC
#
#######################################################################
#
# If this CIF has been generated from an entry in the Cambridge
# Structural Database, then it will include bibliographic, chemical,
# crystal, experimental, refinement or atomic coordinate data resulting
# from the CCDC's data processing and validation procedures.
#
#######################################################################

data_CSD_CIF_QEYHAF
_audit_creation_date 2013-05-28
_audit_creation_method CSD-ConQuest-V1
_database_code_CSD QEYHAF
_database_code_depnum_ccdc_archive 'CCDC 895281'
_chemical_formula_sum 'C18 H16 N2 O3'
_chemical_formula_moiety
;
C18 H16 N2 O3
;
_journal_coden_Cambridge 182
_journal_volume 49
_journal_year 2013
_journal_page_first 6587
_journal_name_full 'Chem.Commun. '
loop_
_publ_author_name
"Yi Wang"
"Minjie Li"
"Yumo Zhang"
"Jin Yang"
"Shaoyin Zhu"
"Lan Sheng"
"Xudong Wang"
"Bing Yang"
"Sean Xiao-An Zhang"
_chemical_name_systematic
;
2-(2-(3,3-Dimethyl-3H-indol-2-yl)vinyl)-4-nitrophenol
;
_cell_volume   1552.276
_exptl_crystal_density_diffrn 1.319
_diffrn_ambient_temperature 293
#These two values have been output from a single CSD field.
_refine_ls_R_factor_gt 0.067
_refine_ls_wR_factor_gt 0.067
_symmetry_cell_setting monoclinic
_symmetry_space_group_name_H-M 'P 21/n'
_symmetry_Int_Tables_number 14
loop_
_symmetry_equiv_pos_site_id
_symmetry_equiv_pos_as_xyz
1 x,y,z
2 1/2-x,1/2+y,1/2-z
3 -x,-y,-z
4 -1/2+x,-1/2-y,-1/2+z
_cell_length_a 16.289(5)
_cell_length_b 5.772(5)
_cell_length_c 16.527(5)
_cell_angle_alpha 90
_cell_angle_beta 92.596(5)
_cell_angle_gamma 90
_cell_formula_units_Z 4
loop_
_atom_type_symbol
_atom_type_radius_bond
C 0.68
H 0.23
N 0.68
O 0.68
loop_
_atom_site_label
_atom_site_type_symbol
_atom_site_fract_x
_atom_site_fract_y
_atom_site_fract_z
C1 C 0.8456(1) 0.0321(4) 0.1451(1)
H1 H 0.79220 0.07300 0.15660
C2 C 0.8602(1) -0.1154(4) 0.0817(1)
H2 H 0.81620 -0.17250 0.04980
C3 C 0.9392(2) -0.1793(5) 0.0651(1)
H3 H 0.94760 -0.28240 0.02300
C4 C 1.0066(1) -0.0924(4) 0.1101(1)
H4 H 1.05990 -0.13550 0.09900
C5 C 0.9911(1) 0.0603(3) 0.1717(1)
C6 C 0.9116(1) 0.1181(3) 0.1912(1)
C7 C 0.9176(1) 0.2781(3) 0.2633(1)
C8 C 0.8703(1) 0.5043(4) 0.2509(2)
H5 H 0.87670 0.59750 0.29890
H6 H 0.81310 0.47100 0.24010
H7 H 0.89140 0.58680 0.20580
C9 C 0.8904(1) 0.1544(4) 0.3401(1)
H8 H 0.89450 0.25950 0.38510
H9 H 0.92520 0.02290 0.35110
H10 H 0.83450 0.10370 0.33200
C10 C 1.0103(1) 0.3143(3) 0.2703(1)
C11 C 1.0488(1) 0.4843(3) 0.3241(1)
H11 H 1.01740 0.55180 0.36340
C12 C 1.1270(1) 0.5486(4) 0.3200(1)
H12 H 1.15800 0.46510 0.28420
C13 C 1.1703(1) 0.7337(3) 0.3647(1)
C14 C 1.2553(1) 0.7598(3) 0.3546(1)
C15 C 1.2984(1) 0.9433(4) 0.3927(1)
H13 H 1.35430 0.96070 0.38540
C16 C 1.2585(1) 1.0979(4) 0.4408(1)
H14 H 1.28700 1.21940 0.46620
C17 C 1.1753(1) 1.0686(3) 0.4505(1)
C18 C 1.1312(1) 0.8907(3) 0.4136(1)
H15 H 1.07530 0.87590 0.42160
O1 O 1.0583(1) 1.2191(3) 0.5045(1)
O2 O 1.1735(1) 1.3809(4) 0.5377(1)
O3 O 1.2919(1) 0.6057(2) 0.3076(1)
H16 H 1.34080 0.63770 0.30560
N1 N 1.1327(1) 1.2334(3) 0.5007(1)
N2 N 1.0501(1) 0.1848(3) 0.2208(1)
#END
