
#######################################################################
#
#                 Cambridge Crystallographic Data Centre
#                                CCDC
#
#######################################################################
#
# If this CIF has been generated from an entry in the Cambridge
# Structural Database, then it will include bibliographic, chemical,
# crystal, experimental, refinement or atomic coordinate data resulting
# from the CCDC's data processing and validation procedures.
#
#######################################################################

data_CSD_CIF_QEYWOG
_audit_creation_date 2001-05-25
_audit_creation_method CSD-ConQuest-V1
_database_code_CSD QEYWOG
_database_code_depnum_ccdc_archive 'CCDC 156994'
_chemical_formula_sum 'C30 H31 N1 O8'
_chemical_formula_moiety
;
C30 H31 N1 O8
;
_journal_coden_Cambridge 35
_journal_volume 65
_journal_year 2000
_journal_page_first 8822
_journal_name_full 'J.Org.Chem. '
loop_
_publ_author_name
"C.Betancor"
"R.L.Dorta"
"R.Freire"
"T.Prange"
"E.Suarez"
_chemical_name_systematic
;
(2R,3R,4R,4aR,8aS)-3-(Benzyloxy)-2-(phenoxymethyl)-octahydropyrano(3,2-b)pyran
-4-yl 4-nitrobenzoate
;
_chemical_melting_point 370.15
_cell_volume   1392.018
_exptl_crystal_density_diffrn 1.273
_exptl_special_details
;
Melting point range 370.15-372.15K

;
_exptl_crystal_preparation 'n-pentane/diethyl ether'
_diffrn_ambient_temperature ?
_diffrn_special_details
;
The study was carried out at room temperature,in the range 283-303K

;
#These two values have been output from a single CSD field.
_refine_ls_R_factor_gt 0.0411
_refine_ls_wR_factor_gt 0.0411
_symmetry_cell_setting monoclinic
_symmetry_space_group_name_H-M 'P 21'
_symmetry_Int_Tables_number 4
loop_
_symmetry_equiv_pos_site_id
_symmetry_equiv_pos_as_xyz
1 x,y,z
2 -x,1/2+y,-z
_cell_length_a 8.559(3)
_cell_length_b 10.747(3)
_cell_length_c 15.564(3)
_cell_angle_alpha 90
_cell_angle_beta 103.51(10)
_cell_angle_gamma 90
_cell_formula_units_Z 2
loop_
_atom_type_symbol
_atom_type_radius_bond
C 0.68
H 0.23
N 0.68
O 0.68
loop_
_atom_site_label
_atom_site_type_symbol
_atom_site_fract_x
_atom_site_fract_y
_atom_site_fract_z
C1 C 0.4287(5) 0.12150 0.8213(3)
H1 H 0.48490 0.20090 0.82080
C2 C 0.3582(5) 0.1141(5) 0.9030(3)
H2 H 0.44390 0.12970 0.95590
O1 O 0.2887(3) -0.0036(4) 0.91118(19)
C3 C 0.2298(5) 0.2118(5) 0.8970(3)
H3 H 0.27900 0.29450 0.90030
O2 O 0.1562(4) 0.1953(4) 0.97050(18)
O3 O 0.1706(4) 0.3998(4) 1.0014(2)
C4 C 0.1336(4) 0.2966(5) 1.0180(3)
C5 C 0.0655(4) 0.2610(5) 1.0932(3)
C6 C 0.0501(5) 0.3534(5) 1.1533(3)
H4 H 0.07750 0.43520 1.14380
C7 C -0.0052(6) 0.3241(5) 1.2265(3)
H5 H -0.01840 0.38550 1.26640
C8 C -0.0405(5) 0.2031(6) 1.2397(3)
C9 C -0.0278(6) 0.1103(5) 1.1815(3)
H6 H -0.05360 0.02850 1.19210
C10 C 0.0234(6) 0.1408(5) 1.1077(3)
H7 H 0.03010 0.07940 1.06660
N1 N -0.0932(5) 0.1699(6) 1.3200(3)
O4 O -0.1453(5) 0.2509(6) 1.3594(3)
O5 O -0.0861(8) 0.0626(6) 1.3421(3)
C11 C 0.1059(5) 0.2000(5) 0.8117(3)
H8 H 0.05210 0.11920 0.81020
O6 O -0.0099(3) 0.2958(4) 0.8033(2)
C12 C -0.1636(6) 0.2519(7) 0.8089(5)
H9 H -0.15890 0.22020 0.86780
H10 H -0.19740 0.18470 0.76700
C13 C -0.2819(5) 0.3580(6) 0.7885(4)
C14 C -0.3211(7) 0.4221(7) 0.8550(4)
H11 H -0.27210 0.40080 0.91290
C15 C -0.427(1) 0.5145(9) 0.8408(6)
H12 H -0.44660 0.55870 0.88860
C16 C -0.5035(9) 0.5440(9) 0.7611(8)
H13 H -0.57940 0.60760 0.75220
C17 C -0.4721(12) 0.4811(10) 0.6897(6)
H14 H -0.52700 0.50090 0.63240
C18 C -0.3554(9) 0.3864(7) 0.7053(4)
H15 H -0.32970 0.34410 0.65830
C19 C 0.1892(5) 0.2072(5) 0.7349(3)
H16 H 0.24590 0.28690 0.73860
C20 C 0.0760(6) 0.1984(6) 0.6456(3)
H17 H 0.01690 0.27570 0.63230
H18 H 0.13660 0.18520 0.60090
C21 C -0.1364(9) 0.0851(9) 0.5600(3)
H19 H -0.07490 0.06210 0.51740
H20 H -0.18980 0.16350 0.54140
C22 C -0.2589(7) -0.0129(7) 0.5625(3)
C23 C -0.4011(9) 0.0190(7) 0.5831(4)
H21 H -0.42080 0.10180 0.59430
C24 C -0.5164(8) -0.0711(10) 0.5874(4)
H22 H -0.61250 -0.04870 0.60130
C25 C -0.4873(9) -0.1892(10) 0.5712(5)
H23 H -0.56450 -0.24940 0.57310
C26 C -0.3473(11) -0.2229(9) 0.5521(6)
H24 H -0.32720 -0.30620 0.54260
C27 C -0.2334(8) -0.1333(10) 0.5466(4)
H25 H -0.13850 -0.15670 0.53170
O7 O 0.3046(3) 0.10980 0.74322(17)
O8 O -0.0326(4) 0.0989(4) 0.64383(18)
C28 C 0.5437(6) 0.0145(6) 0.8217(3)
H26 H 0.57690 0.01310 0.76620
H27 H 0.63870 0.02630 0.86900
C29 C 0.4653(6) -0.1081(6) 0.8343(4)
H28 H 0.37910 -0.12540 0.78300
H29 H 0.54370 -0.17460 0.84000
C30 C 0.3994(5) -0.1037(6) 0.9152(3)
H30 H 0.34570 -0.18170 0.92110
H31 H 0.48710 -0.09380 0.96700
#END
