
#######################################################################
#
#                 Cambridge Crystallographic Data Centre
#                                CCDC
#
#######################################################################
#
# If this CIF has been generated from an entry in the Cambridge
# Structural Database, then it will include bibliographic, chemical,
# crystal, experimental, refinement or atomic coordinate data resulting
# from the CCDC's data processing and validation procedures.
#
#######################################################################

data_CSD_CIF_QEYZOJ
_audit_creation_date 2001-05-25
_audit_creation_method CSD-ConQuest-V1
_database_code_CSD QEYZOJ
_database_code_depnum_ccdc_archive 'CCDC 144432'
_chemical_formula_sum 'C26 H24 N2 O1'
_chemical_formula_moiety
;
C26 H24 N2 O1
;
_journal_coden_Cambridge 35
_journal_volume 65
_journal_year 2000
_journal_page_first 8924
_journal_name_full 'J.Org.Chem. '
loop_
_publ_author_name
"E.Beccalli"
"G.Broggini"
"C.La Rosa"
"D.Passarella"
"T.Pilati"
"A.Terraneo"
"G.Zecchi"
_chemical_name_systematic
;
(+)-(\aR,3R,3aR,10bR)-1-(\a-Phenylethyl)-3-phenyl-1,3a,4,10b-tetrahydro-3H-iso
xazolo(3',4':3,4)pyrrolo(1,2-a)indole
;
_chemical_melting_point 327.15
_cell_volume   2056.309
_exptl_crystal_colour 'pale yellow'
_exptl_crystal_density_diffrn 1.229
_exptl_special_details
;
Melting point range 327.15-328.15K

;
_exptl_crystal_description 'prism'
_exptl_crystal_preparation 'di-isopropyl ether'
_diffrn_ambient_temperature ?
_diffrn_special_details
;
The study was carried out at room temperature,in the range 283-303K

;
#These two values have been output from a single CSD field.
_refine_ls_R_factor_gt 0.0339
_refine_ls_wR_factor_gt 0.0339
_symmetry_cell_setting orthorhombic
_symmetry_space_group_name_H-M 'P 21 21 21'
_symmetry_Int_Tables_number 19
loop_
_symmetry_equiv_pos_site_id
_symmetry_equiv_pos_as_xyz
1 x,y,z
2 1/2-x,-y,1/2+z
3 1/2+x,1/2-y,-z
4 -x,1/2+y,1/2-z
_cell_length_a 11.2390(13)
_cell_length_b 11.6263(9)
_cell_length_c 15.7369(12)
_cell_angle_alpha 90
_cell_angle_beta 90
_cell_angle_gamma 90
_cell_formula_units_Z 4
loop_
_atom_type_symbol
_atom_type_radius_bond
C 0.68
H 0.23
N 0.68
O 0.68
loop_
_atom_site_label
_atom_site_type_symbol
_atom_site_fract_x
_atom_site_fract_y
_atom_site_fract_z
N1 N 0.25924(15) 0.06702(14) 0.53752(9)
O1 O 0.34583(12) 0.13822(13) 0.49031(8)
C1 C 0.2717(2) 0.19390(19) 0.42830(12)
H1 H 0.2226(17) 0.2571(16) 0.4582(11)
C2 C 0.18626(19) 0.09885(18) 0.39841(12)
H2 H 0.2098(17) 0.0668(16) 0.3431(13)
C3 C 0.0540(2) 0.1337(2) 0.39656(17)
H3 H 0.020(2) 0.130(2) 0.3389(17)
H4 H 0.043(2) 0.210(2) 0.4267(16)
N2 N -0.00149(15) 0.04320(14) 0.44629(10)
C4 C -0.11694(19) 0.00970(18) 0.45967(12)
C5 C -0.2238(2) 0.0583(2) 0.43366(14)
H5 H -0.221(2) 0.129(2) 0.4015(15)
C6 C -0.3277(3) 0.0040(3) 0.45874(17)
H6 H -0.401(2) 0.040(2) 0.4416(16)
C7 C -0.3243(3) -0.0965(3) 0.50673(17)
H7 H -0.402(2) -0.131(2) 0.5215(15)
C8 C -0.2198(3) -0.1449(2) 0.53175(15)
H8 H -0.217(2) -0.213(2) 0.5669(14)
C9 C -0.1115(2) -0.09242(18) 0.50872(13)
C10 C 0.0111(2) -0.11675(19) 0.52408(13)
H9 H 0.0422(19) -0.1780(18) 0.5526(13)
C11 C 0.07509(19) -0.03226(17) 0.48501(11)
C12 C 0.20042(18) 0.00392(18) 0.46675(12)
H10 H 0.2512(17) -0.0591(17) 0.4478(11)
C13 C 0.3350(2) -0.00220(18) 0.59394(12)
H11 H 0.4007(18) -0.0344(17) 0.5617(12)
C14 C 0.2647(3) -0.1005(2) 0.63262(16)
H12 H 0.2370(19) -0.1605(18) 0.5905(13)
H13 H 0.312(2) -0.138(2) 0.6759(15)
H14 H 0.191(2) -0.0718(18) 0.6563(14)
C15 C 0.38510(19) 0.07377(18) 0.66366(12)
C16 C 0.4993(2) 0.0584(2) 0.69416(15)
H15 H 0.546(2) 0.0016(19) 0.6666(14)
C17 C 0.5402(3) 0.1220(3) 0.76328(17)
H16 H 0.621(3) 0.109(2) 0.7833(17)
C18 C 0.4678(3) 0.2006(3) 0.80098(15)
H17 H 0.497(2) 0.245(2) 0.8485(16)
C19 C 0.3556(3) 0.2186(3) 0.77047(15)
H18 H 0.306(2) 0.280(2) 0.7972(16)
C20 C 0.3137(2) 0.1558(2) 0.70230(13)
H19 H 0.228(2) 0.1664(19) 0.6829(14)
C21 C 0.35040(19) 0.24534(17) 0.36075(11)
C22 C 0.4339(2) 0.1810(2) 0.31782(15)
H20 H 0.443(2) 0.0946(19) 0.3315(14)
C23 C 0.5012(3) 0.2284(3) 0.25298(19)
H21 H 0.559(2) 0.181(2) 0.2266(18)
C24 C 0.4860(3) 0.3399(3) 0.23074(19)
H22 H 0.533(3) 0.382(3) 0.1870(17)
C25 C 0.4048(4) 0.4049(3) 0.2723(2)
H23 H 0.391(3) 0.485(3) 0.257(2)
C26 C 0.3379(3) 0.3590(2) 0.33851(17)
H24 H 0.279(2) 0.4044(19) 0.3700(13)
#END
