
#######################################################################
#
#                 Cambridge Crystallographic Data Centre
#                                CCDC
#
#######################################################################
#
# If this CIF has been generated from an entry in the Cambridge
# Structural Database, then it will include bibliographic, chemical,
# crystal, experimental, refinement or atomic coordinate data resulting
# from the CCDC's data processing and validation procedures.
#
#######################################################################

data_CSD_CIF_QEZLOY
_audit_creation_date 2013-05-29
_audit_creation_method CSD-ConQuest-V1
_database_code_CSD QEZLOY
_database_code_depnum_ccdc_archive 'CCDC 928524'
_chemical_formula_sum 'C24 H40 N3 O4'
_chemical_formula_moiety
;
C24 H40 N3 O4
;
_journal_coden_Cambridge 177
_journal_volume 11
_journal_year 2013
_journal_page_first 4147
_journal_name_full 'Org.Biomol.Chem. '
loop_
_publ_author_name
"M.-C.Frantz"
"E.M.Skoda"
"J.R.Sacher"
"M.W.Epperly"
"J.P.Goff"
"J.S.Greenberger"
"P.Wipf"
_chemical_name_systematic
;
t-Butyl 
(8-((2-hydroxy-1-methyl-2-azatricyclo[3.3.1.1^3,7^]dec-6-yl)amino)-2-methyl-8-
oxo-oct-5-en-4-yl)carbamate
;
_cell_volume   2549.483
_exptl_crystal_colour 'colorless'
_exptl_crystal_density_diffrn 1.132
_exptl_crystal_description 'block'
_diffrn_ambient_temperature 223
#These two values have been output from a single CSD field.
_refine_ls_R_factor_gt 0.0484
_refine_ls_wR_factor_gt 0.0484
_symmetry_cell_setting orthorhombic
_symmetry_space_group_name_H-M 'P 21 21 21'
_symmetry_Int_Tables_number 19
loop_
_symmetry_equiv_pos_site_id
_symmetry_equiv_pos_as_xyz
1 x,y,z
2 1/2-x,-y,1/2+z
3 -x,1/2+y,1/2-z
4 1/2+x,1/2-y,-z
_cell_length_a 6.8433(18)
_cell_length_b 18.424(5)
_cell_length_c 20.221(5)
_cell_angle_alpha 90
_cell_angle_beta 90
_cell_angle_gamma 90
_cell_formula_units_Z 4
loop_
_atom_type_symbol
_atom_type_radius_bond
C 0.68
H 0.23
N 0.68
O 0.68
loop_
_atom_site_label
_atom_site_type_symbol
_atom_site_fract_x
_atom_site_fract_y
_atom_site_fract_z
O1 O 0.9677(4) 0.72383(13) 0.08397(11)
N1 N 0.7414(5) 0.63618(19) 0.09195(15)
H1 H 0.674(6) 0.599(2) 0.0714(19)
C1 C 1.4877(9) 0.6353(3) -0.2903(2)
H2 H 1.60550 0.62850 -0.31620
H3 H 1.46020 0.68680 -0.28620
H4 H 1.37900 0.61140 -0.31200
N2 N 0.3320(5) 0.5820(2) 0.26023(15)
O2 O 0.1622(4) 0.57929(19) 0.28444(13)
C2 C 1.6937(7) 0.6357(3) -0.1884(2)
H5 H 1.71160 0.61380 -0.14520
H6 H 1.67440 0.68750 -0.18340
H7 H 1.80860 0.62680 -0.21530
O3 O 1.5174(4) 0.41871(12) -0.05203(11)
N3 N 1.4139(4) 0.51705(15) -0.10220(13)
H8 H 1.385(5) 0.4837(16) -0.1341(16)
C3 C 1.5166(6) 0.6026(2) -0.22152(17)
H9 H 1.53970 0.54990 -0.22660
O4 O 1.5157(4) 0.52573(12) 0.00404(11)
C4 C 1.3312(6) 0.6131(2) -0.18127(17)
H10 H 1.22640 0.58520 -0.20240
H11 H 1.29440 0.66440 -0.18360
C5 C 1.3401(5) 0.59119(17) -0.10853(15)
H12 H 1.43060 0.62440 -0.08520
C6 C 1.1417(5) 0.59822(18) -0.07828(16)
H13 H 1.05070 0.56150 -0.08790
C7 C 1.0828(5) 0.65119(18) -0.03928(15)
H14 H 1.17610 0.68560 -0.02590
C8 C 0.8781(5) 0.6604(2) -0.01486(16)
H15 H 0.80420 0.61590 -0.02390
H16 H 0.81580 0.70020 -0.03920
C9 C 0.8693(5) 0.67653(18) 0.05815(16)
C10 C 0.6973(6) 0.6477(3) 0.16235(18)
H17 H 0.79700 0.68130 0.18040
C11 C 0.4995(10) 0.6830(2) 0.1712(2)
H18 H 0.49120 0.72770 0.14420
C12 C 0.4680(11) 0.7011(2) 0.2443(2)
H19 H 0.56860 0.73530 0.25900
H20 H 0.34020 0.72420 0.25010
C13 C 0.4778(6) 0.6333(2) 0.28562(16)
C14 C 0.7051(6) 0.5790(3) 0.2022(2)
H21 H 0.83470 0.55600 0.19640
C15 C 0.6743(7) 0.5968(4) 0.2753(2)
H22 H 0.68020 0.55210 0.30140
H23 H 0.77870 0.62910 0.29060
C16 C 0.5536(9) 0.5285(2) 0.1808(2)
H24 H 0.56400 0.48330 0.20610
H25 H 0.57170 0.51690 0.13390
C17 C 0.3594(7) 0.5605(3) 0.1908(2)
H26 H 0.25700 0.52550 0.17760
C18 C 0.3405(7) 0.6296(4) 0.1504(2)
H27 H 0.35370 0.61830 0.10320
H28 H 0.21140 0.65120 0.15760
C19 C 0.4341(8) 0.6473(3) 0.3587(2)
H29 H 0.30740 0.67050 0.36280
H30 H 0.53400 0.67870 0.37710
H31 H 0.43300 0.60160 0.38240
C20 C 1.4845(5) 0.49055(17) -0.04563(15)
C21 C 1.5660(6) 0.37346(19) 0.00433(18)
C22 C 1.7630(7) 0.3947(3) 0.0320(2)
H32 H 1.86070 0.39190 -0.00270
H33 H 1.79790 0.36200 0.06760
H34 H 1.75690 0.44400 0.04870
C23 C 1.4055(9) 0.3773(2) 0.0560(2)
H35 H 1.40200 0.42570 0.07500
H36 H 1.43120 0.34210 0.09060
H37 H 1.28060 0.36670 0.03550
C24 C 1.5751(8) 0.2982(2) -0.0266(2)
H38 H 1.67750 0.29710 -0.05970
H39 H 1.45060 0.28710 -0.04720
H40 H 1.60290 0.26260 0.00750
#END
