
#######################################################################
#
#                 Cambridge Crystallographic Data Centre
#                                CCDC
#
#######################################################################
#
# If this CIF has been generated from an entry in the Cambridge
# Structural Database, then it will include bibliographic, chemical,
# crystal, experimental, refinement or atomic coordinate data resulting
# from the CCDC's data processing and validation procedures.
#
#######################################################################

data_CSD_CIF_QIBFUE
_audit_creation_date 2013-06-14
_audit_creation_method CSD-ConQuest-V1
_database_code_CSD QIBFUE
_database_code_depnum_ccdc_archive 'CCDC 943235'
_chemical_formula_sum 'C41 H46 N2 O15'
_chemical_formula_moiety
;
C41 H46 N2 O15
;
_journal_coden_Cambridge 1336
_journal_volume 15
_journal_year 2013
_journal_page_first 2076
_journal_name_full 'Org.Lett. '
loop_
_publ_author_name
"H.Masubuti"
"Y.Endo"
"H.Araya"
"H.Uekusa"
"Y.Fujimoto"
_chemical_name_systematic
;
4-(3,11a-Di-sec-butyl-2,4-dioxy-1,4a-dimethoxy-11aH-2\l^5^-pyrazino[1,2-b][1,4
,2]benzodioxazin-9-yl)-4'-methoxybiphenyl-2,3,5,6-tetrayl tetraacetate
;
_cell_volume   4143.165
_exptl_crystal_colour 'colorless'
_exptl_crystal_density_diffrn 1.293
_exptl_crystal_description 'needle'
_diffrn_ambient_temperature 173
_refine_special_details
;
C122,C124,O123 and C222,C224,O223 disordered over two sites with occupancies 
0.720:0.280.
;
#These two values have been output from a single CSD field.
_refine_ls_R_factor_gt 0.0765
_refine_ls_wR_factor_gt 0.0765
_symmetry_cell_setting monoclinic
_symmetry_space_group_name_H-M 'P 21'
_symmetry_Int_Tables_number 4
loop_
_symmetry_equiv_pos_site_id
_symmetry_equiv_pos_as_xyz
1 x,y,z
2 -x,1/2+y,-z
_cell_length_a 10.5602(5)
_cell_length_b 10.4546(4)
_cell_length_c 37.7085(15)
_cell_angle_alpha 90
_cell_angle_beta 95.612(2)
_cell_angle_gamma 90
_cell_formula_units_Z 4
loop_
_atom_type_symbol
_atom_type_radius_bond
C 0.68
H 0.23
N 0.68
O 0.68
loop_
_atom_site_label
_atom_site_type_symbol
_atom_site_fract_x
_atom_site_fract_y
_atom_site_fract_z
C1 C 1.2883(8) 0.0852(8) 0.19072(18)
H1 H 1.20780 0.04490 0.19530
H2 H 1.33870 0.02500 0.17790
H3 H 1.27090 0.16210 0.17620
O1 O 1.3576(5) 0.1196(5) 0.22370(13)
C2 C 1.3053(7) 0.2102(7) 0.2441(2)
C3 C 1.1918(7) 0.2656(7) 0.23631(18)
H4 H 1.14070 0.24380 0.21500
C4 C 1.1493(6) 0.3553(7) 0.25966(18)
H5 H 1.06780 0.39270 0.25390
C5 C 1.2184(6) 0.3929(6) 0.29057(16)
C6 C 1.3334(8) 0.3348(10) 0.2970(2)
H6 H 1.38580 0.35690 0.31810
C7 C 1.3777(8) 0.2446(10) 0.2742(2)
H7 H 1.45910 0.20680 0.27980
C8 C 1.1705(6) 0.4883(6) 0.31543(16)
C9 C 1.1641(5) 0.6163(6) 0.30787(16)
O2 O 1.1976(4) 0.6584(4) 0.27490(11)
C10 C 1.3154(7) 0.7181(7) 0.2748(2)
C11 C 1.3325(7) 0.7578(8) 0.23735(17)
H8 H 1.36760 0.84460 0.23750
H9 H 1.25000 0.75630 0.22300
H10 H 1.39100 0.69860 0.22710
O3 O 1.3848(4) 0.7345(5) 0.30129(13)
C12 C 1.1168(5) 0.7034(6) 0.33087(17)
O4 O 1.1216(4) 0.8345(4) 0.32173(11)
C13 C 1.0220(8) 0.8776(7) 0.29876(19)
O5 O 0.9267(5) 0.8136(6) 0.29254(15)
C14 C 1.0452(8) 1.0079(7) 0.28494(19)
H11 H 1.06980 1.00150 0.26060
H12 H 1.11370 1.04910 0.30020
H13 H 0.96730 1.05890 0.28480
C15 C 1.1273(6) 0.4518(6) 0.34723(17)
O6 O 1.1375(4) 0.3231(4) 0.35864(11)
C16 C 1.0334(8) 0.2484(7) 0.35149(19)
O7 O 0.9442(5) 0.2820(5) 0.33123(13)
C17 C 1.0475(8) 0.1236(7) 0.37183(18)
H14 H 0.98710 0.06080 0.36070
H15 H 1.02990 0.13790 0.39660
H16 H 1.13440 0.09140 0.37140
C18 C 1.0765(6) 0.5381(7) 0.36933(16)
O8 O 1.0213(4) 0.4894(4) 0.39961(12)
C19 C 1.1035(9) 0.4549(8) 0.4273(2)
O9 O 1.2151(6) 0.4766(6) 0.42924(13)
C20 C 1.0320(8) 0.3819(8) 0.45431(18)
H17 H 1.08950 0.36540 0.47580
H18 H 1.00110 0.30040 0.44390
H19 H 0.95960 0.43310 0.46050
C21 C 1.0712(6) 0.6666(7) 0.36231(17)
C22 C 1.0148(6) 0.7560(6) 0.38728(15)
C23 C 1.0892(6) 0.8305(6) 0.41194(17)
H20 H 1.17910 0.82910 0.41190
C24 C 1.0345(6) 0.9071(6) 0.43659(16)
H21 H 1.08630 0.95600 0.45360
C25 C 0.9040(6) 0.9105(6) 0.43579(15)
C26 C 0.8300(6) 0.8367(6) 0.41174(15)
C27 C 0.8828(6) 0.7601(6) 0.38765(16)
H22 H 0.82980 0.70990 0.37130
O10 O 0.8533(4) 0.9842(4) 0.46086(10)
N1 N 0.7216(6) 1.0038(6) 0.45545(18)
O11 O 0.6807(4) 1.0529(4) 0.48692(12)
C28 C 0.7463(7) 1.1638(7) 0.50161(18)
H23 H 0.83770 1.14580 0.50540
H24 H 0.71440 1.18570 0.52440
H25 H 0.73160 1.23570 0.48500
C29 C 0.6499(6) 0.8809(6) 0.44398(16)
C30 C 0.6712(6) 0.7767(6) 0.47416(17)
H26 H 0.76190 0.78460 0.48440
C31 C 0.5897(7) 0.7998(8) 0.50484(18)
H27 H 0.49950 0.79800 0.49580
H28 H 0.61070 0.88350 0.51560
H29 H 0.60670 0.73280 0.52290
C32 C 0.6544(6) 0.6383(6) 0.45992(19)
H30 H 0.56260 0.61800 0.45590
H31 H 0.69090 0.63160 0.43680
C33 C 0.7195(8) 0.5420(8) 0.4860(2)
H32 H 0.81020 0.56250 0.49020
H33 H 0.70930 0.45580 0.47590
H34 H 0.68080 0.54570 0.50850
O12 O 0.6984(4) 0.8398(4) 0.41125(10)
C34 C 0.6943(5) 1.1051(5) 0.42687(14)
O13 O 0.7865(4) 1.1821(5) 0.42246(12)
C35 C 0.5833(7) 1.1168(6) 0.41024(18)
C36 C 0.5470(7) 1.2221(7) 0.38361(18)
H35 H 0.45990 1.20350 0.37190
C37 C 0.5437(8) 1.3564(8) 0.4024(2)
H36 H 0.49160 1.35090 0.42250
H37 H 0.50700 1.42010 0.38530
H38 H 0.63050 1.38200 0.41110
C38 C 0.6391(7) 1.2298(8) 0.35451(19)
H39 H 0.60340 1.28890 0.33560
H40 H 0.72090 1.26600 0.36500
C39 C 0.6642(9) 1.1015(9) 0.3378(2)
H41 H 0.71810 1.04940 0.35480
H42 H 0.70740 1.11480 0.31630
H43 H 0.58320 1.05730 0.33150
N2 N 0.4817(7) 1.0191(8) 0.41686(19)
O14 O 0.3690(5) 1.0383(5) 0.40439(14)
C40 C 0.5199(5) 0.9124(5) 0.43540(15)
O15 O 0.4321(4) 0.8089(5) 0.43212(12)
C41 C 0.4181(6) 0.7486(8) 0.39658(19)
H44 H 0.38790 0.81230 0.37860
H45 H 0.35650 0.67850 0.39640
H46 H 0.50050 0.71500 0.39110
C42 C 0.6714(7) 1.5815(8) 0.30498(19)
H47 H 0.67460 1.50270 0.31910
H48 H 0.62500 1.64740 0.31690
H49 H 0.75820 1.61120 0.30260
O16 O 0.6078(5) 1.5568(6) 0.27037(14)
C43 C 0.6549(7) 1.4597(8) 0.2508(2)
C44 C 0.7564(7) 1.3823(7) 0.26235(19)
H50 H 0.79820 1.39100 0.28570
C45 C 0.7957(7) 1.2918(7) 0.2391(2)
H51 H 0.86800 1.24110 0.24670
C46 C 0.7359(7) 1.2711(7) 0.2056(2)
C47 C 0.6320(7) 1.3477(8) 0.1947(2)
H52 H 0.58680 1.33510 0.17200
C48 C 0.5943(7) 1.4423(8) 0.2171(2)
H53 H 0.52500 1.49630 0.20910
C49 C 0.7845(6) 1.1751(7) 0.18138(18)
C50 C 0.7961(6) 1.0472(7) 0.19083(17)
O17 O 0.7645(4) 1.0064(4) 0.22436(11)
C51 C 0.6505(7) 0.9425(7) 0.2255(2)
O18 O 0.5800(4) 0.9273(5) 0.19857(13)
C52 C 0.6322(7) 0.8991(9) 0.26170(17)
H54 H 0.57490 0.95810 0.27250
H55 H 0.71450 0.89700 0.27620
H56 H 0.59490 0.81310 0.26060
C53 C 0.8453(6) 0.9592(6) 0.16834(18)
O19 O 0.8468(4) 0.8287(4) 0.17912(10)
C54 C 0.9497(7) 0.7902(7) 0.20186(18)
O20 O 1.0397(5) 0.8588(5) 0.20826(13)
C55 C 0.9302(8) 0.6566(7) 0.2149(2)
H57 H 0.98530 0.59760 0.20330
H58 H 0.84110 0.63170 0.20910
H59 H 0.95150 0.65320 0.24070
C56 C 0.8237(7) 1.2070(6) 0.14821(19)
O21 O 0.8085(7) 1.3321(5) 0.13493(16)
C57 C 0.8842(10) 1.4197(9) 0.1472(3)
O22 O 0.9564(7) 1.3966(8) 0.1706(2)
C58 C 0.8454(12) 1.5402(10) 0.1268(3)
H60 H 0.77220 1.57900 0.13670
H61 H 0.82230 1.51900 0.10170
H62 H 0.91660 1.60070 0.12860
C59 C 0.8743(6) 1.1179(7) 0.12630(18)
O23 O 0.9089(4) 1.1582(5) 0.09342(11)
C60 C 1.0319(8) 1.2049(7) 0.0932(2)
O24 O 1.1054(5) 1.2062(5) 0.11936(14)
C61 C 1.0568(7) 1.2448(10) 0.05666(19)
H63 H 1.00170 1.31710 0.04910
H64 H 1.03900 1.17310 0.04020
H65 H 1.14610 1.27030 0.05670
C62 C 0.8859(6) 0.9921(6) 0.13571(17)
C63 C 0.9424(6) 0.8958(6) 0.11258(16)
C64 C 0.8661(6) 0.8325(7) 0.08577(16)
H66 H 0.77710 0.84810 0.08270
C65 C 0.9205(6) 0.7467(6) 0.06366(16)
H67 H 0.86910 0.70160 0.04570
C66 C 1.0492(6) 0.7279(6) 0.06805(15)
C67 C 1.1252(5) 0.7913(6) 0.09362(16)
C68 C 1.0742(6) 0.8771(6) 0.11659(16)
H68 H 1.12710 0.92150 0.13440
O25 O 1.1029(4) 0.6397(4) 0.04622(10)
N3 N 1.2336(6) 0.6522(8) 0.04338(17)
O26 O 1.2781(4) 0.5471(5) 0.02676(11)
C69 C 1.2136(7) 0.5193(8) -0.00817(17)
H69 H 1.12300 0.50480 -0.00610
H70 H 1.25080 0.44240 -0.01790
H71 H 1.22370 0.59170 -0.02410
C70 C 1.3044(6) 0.6644(7) 0.08238(17)
C71 C 1.2856(7) 0.5463(7) 0.10527(16)
H72 H 1.19550 0.51810 0.09940
C72 C 1.3693(7) 0.4326(7) 0.0977(2)
H73 H 1.36440 0.41770 0.07190
H74 H 1.33970 0.35620 0.10950
H75 H 1.45760 0.45070 0.10680
C73 C 1.3005(7) 0.5787(8) 0.14592(17)
H76 H 1.39120 0.59660 0.15340
H77 H 1.25170 0.65750 0.14980
C74 C 1.2561(8) 0.4749(9) 0.1688(2)
H78 H 1.16500 0.46010 0.16260
H79 H 1.27090 0.50010 0.19390
H80 H 1.30320 0.39610 0.16500
O27 O 1.2569(4) 0.7802(4) 0.09735(10)
C75 C 1.2547(6) 0.7757(6) 0.02368(16)
O28 O 1.1592(5) 0.8219(5) 0.00527(12)
C76 C 1.3679(8) 0.8194(8) 0.02401(19)
C77 C 1.3998(8) 0.9338(9) 0.0015(3)
H81 H 1.49450 0.94330 0.00410
C78 C 1.3582(10) 0.9160(13) -0.0382(3)
H82 H 1.38820 0.83290 -0.04610
H83 H 1.39470 0.98430 -0.05180
H84 H 1.26520 0.91930 -0.04220
C79 C 1.3437(11) 1.0586(11) 0.0152(4)
H85 H 1.24960 1.05310 0.01270
H86 H 1.36840 1.13150 0.00060
C80 C 1.3938(14) 1.0820(11) 0.0556(5)
H87 H 1.35590 1.01870 0.07060
H88 H 1.37000 1.16820 0.06270
H89 H 1.48670 1.07350 0.05860
N4 N 1.4706(7) 0.7660(7) 0.0514(2)
O29 O 1.5844(5) 0.7986(5) 0.04787(13)
C81 C 1.4357(5) 0.6905(6) 0.07711(16)
O30 O 1.5273(4) 0.6715(5) 0.10534(12)
C82 C 1.5474(7) 0.7857(8) 0.12771(19)
H90 H 1.56320 0.85950 0.11270
H91 H 1.62090 0.77230 0.14530
H92 H 1.47150 0.80160 0.14010
C83? C 0.7119(17) 1.3879(18) 0.1163(6)
O31? O 0.6272(16) 1.329(3) 0.1060(7)
C84? C 0.763(3) 1.5225(15) 0.1135(9)
H93? H 0.70330 1.57320 0.09760
H94? H 0.84570 1.51970 0.10390
H95? H 0.77250 1.56180 0.13720
#END
