
#######################################################################
#
#                 Cambridge Crystallographic Data Centre
#                                CCDC
#
#######################################################################
#
# If this CIF has been generated from an entry in the Cambridge
# Structural Database, then it will include bibliographic, chemical,
# crystal, experimental, refinement or atomic coordinate data resulting
# from the CCDC's data processing and validation procedures.
#
#######################################################################

data_CSD_CIF_QIBNEV
_audit_creation_date 2007-07-11
_audit_creation_method CSD-ConQuest-V1
_database_code_CSD QIBNEV
_database_code_depnum_ccdc_archive 'CCDC 606882'
_chemical_formula_sum 'C26 H31 N1 O1'
_chemical_formula_moiety
;
C26 H31 N1 O1
;
_journal_coden_Cambridge 16
_journal_volume 62
_journal_year 2006
_journal_page_first 7380
_journal_name_full 'Tetrahedron '
loop_
_publ_author_name
"Jean-Ho Chu"
"Wan-Sheung Li"
"Ito Chao"
"Gene-Hsiang Lee"
"Wen-Sheng Chung"
_chemical_name_systematic
;
6-(Adamant-2-ylidene)-3-(4-t-butylphenyl)-6,6a-dihydro-3aH-cyclopenta(d)isoxaz
ole
;
_chemical_melting_point 445.15
_cell_volume   2085.611
_exptl_crystal_colour 'colorless'
_exptl_crystal_density_diffrn 1.19
_exptl_special_details
;
Melting point range 445.15-446.15K

;
_exptl_crystal_description 'plate'
_diffrn_ambient_temperature 295
_refine_special_details
;
The t-butyl group is disordered with occupancies 0.75:0.25.

;
#These two values have been output from a single CSD field.
_refine_ls_R_factor_gt 0.0862
_refine_ls_wR_factor_gt 0.0862
_symmetry_cell_setting monoclinic
_symmetry_space_group_name_H-M 'P 21/c'
_symmetry_Int_Tables_number 14
loop_
_symmetry_equiv_pos_site_id
_symmetry_equiv_pos_as_xyz
1 x,y,z
2 -x,1/2+y,1/2-z
3 -x,-y,-z
4 x,-1/2-y,-1/2+z
_cell_length_a 16.5261(13)
_cell_length_b 10.5956(9)
_cell_length_c 11.9249(9)
_cell_angle_alpha 90
_cell_angle_beta 92.796(2)
_cell_angle_gamma 90
_cell_formula_units_Z 4
loop_
_atom_type_symbol
_atom_type_radius_bond
C 0.68
H 0.23
N 0.68
O 0.68
loop_
_atom_site_label
_atom_site_type_symbol
_atom_site_fract_x
_atom_site_fract_y
_atom_site_fract_z
C1 C -0.1967(2) 0.0399(3) 1.0585(3)
H1 H -0.16340 -0.02420 1.02350
C2 C -0.16499(18) 0.1705(3) 1.0331(3)
C3 C -0.2142(2) 0.2691(3) 1.0883(3)
H2 H -0.19350 0.35310 1.07060
C4 C -0.2111(3) 0.2505(4) 1.2139(3)
H3 H -0.24390 0.31420 1.24850
H4 H -0.15570 0.25910 1.24390
C5 C -0.2429(3) 0.1203(4) 1.2400(3)
H5 H -0.24000 0.10770 1.32150
C6 C -0.3307(2) 0.1089(4) 1.1963(4)
H6 H -0.35140 0.02570 1.21330
H7 H -0.36360 0.17120 1.23240
C7 C -0.3350(2) 0.1297(5) 1.0712(4)
H8 H -0.39140 0.12260 1.04240
C8 C -0.2832(3) 0.0281(5) 1.0155(4)
H9 H -0.30360 -0.05520 1.03260
H10 H -0.28660 0.03890 0.93460
C9 C -0.1922(3) 0.0229(4) 1.1867(3)
H11 H -0.21140 -0.06060 1.20560
H12 H -0.13650 0.03070 1.21520
C10 C -0.3027(2) 0.2567(4) 1.0431(4)
H13 H -0.33550 0.32160 1.07610
H14 H -0.30560 0.26830 0.96240
C11 C -0.09894(18) 0.1932(3) 0.9765(3)
C12 C -0.0514(2) 0.1076(3) 0.9116(3)
H15 H -0.05970 0.02080 0.90880
C13 C 0.00497(19) 0.1669(3) 0.8569(3)
H16 H 0.03860 0.12800 0.80690
C14 C 0.00805(19) 0.3037(3) 0.8851(3)
H17 H 0.00030 0.35740 0.81850
C15 C -0.0593(2) 0.3205(3) 0.9670(3)
H18 H -0.09820 0.38540 0.94140
O1 O -0.01795(15) 0.3547(3) 1.0718(2)
N1 N 0.06546(18) 0.3651(3) 1.0576(3)
C16 C 0.0809(2) 0.3406(3) 0.9566(3)
C17 C 0.16472(19) 0.3480(3) 0.9196(3)
C18 C 0.1819(2) 0.3325(3) 0.8084(3)
H19 H 0.13970 0.31930 0.75530
C19 C 0.2608(2) 0.3360(3) 0.7741(3)
H20 H 0.27010 0.32470 0.69840
C20 C 0.3256(2) 0.3559(3) 0.8487(3)
C21 C 0.3075(2) 0.3747(3) 0.9599(3)
H21 H 0.34960 0.39080 1.01260
C22 C 0.2299(2) 0.3703(3) 0.9947(3)
H22 H 0.22060 0.38250 1.07030
C23 C 0.4133(2) 0.3561(3) 0.8136(3)
C24 C 0.4208(3) 0.2965(7) 0.6966(5)
H23 H 0.39820 0.21310 0.69610
H24 H 0.47690 0.29200 0.67960
H25 H 0.39210 0.34740 0.64120
C25 C 0.4654(3) 0.2720(6) 0.8916(5)
H26 H 0.44150 0.18960 0.89460
H27 H 0.46870 0.30810 0.96550
H28 H 0.51880 0.26540 0.86380
C26 C 0.4439(4) 0.4890(6) 0.8101(8)
H29 H 0.41410 0.53480 0.75210
H30 H 0.50040 0.48860 0.79460
H31 H 0.43680 0.52890 0.88120
C27? C 0.4413(15) 0.2255(12) 0.794(2)
H32? H 0.40580 0.18600 0.73800
H33? H 0.44080 0.17830 0.86240
H34? H 0.49530 0.22750 0.76770
C28? C 0.4694(13) 0.428(3) 0.9042(19)
H35? H 0.48160 0.37340 0.96700
H36? H 0.44180 0.50190 0.92930
H37? H 0.51890 0.45280 0.87120
C29? C 0.4256(17) 0.448(3) 0.720(2)
H38? H 0.40530 0.41220 0.65070
H39? H 0.48240 0.46540 0.71640
H40? H 0.39710 0.52460 0.73480
#END
