
#######################################################################
#
#                 Cambridge Crystallographic Data Centre
#                                CCDC
#
#######################################################################
#
# If this CIF has been generated from an entry in the Cambridge
# Structural Database, then it will include bibliographic, chemical,
# crystal, experimental, refinement or atomic coordinate data resulting
# from the CCDC's data processing and validation procedures.
#
#######################################################################

data_CSD_CIF_QIBNAR
_audit_creation_date 2007-07-11
_audit_creation_method CSD-ConQuest-V1
_database_code_CSD QIBNAR
_database_code_depnum_ccdc_archive 'CCDC 606881'
_chemical_formula_sum 'C29 H28 N2 O2'
_chemical_formula_moiety
;
C29 H28 N2 O2
;
_journal_coden_Cambridge 16
_journal_volume 62
_journal_year 2006
_journal_page_first 7380
_journal_name_full 'Tetrahedron '
loop_
_publ_author_name
"Jean-Ho Chu"
"Wan-Sheung Li"
"Ito Chao"
"Gene-Hsiang Lee"
"Wen-Sheng Chung"
_chemical_name_systematic
;
(3aR,3bR,6aS,7aR)-7-(Adamant-2-ylidene)-3,6-diphenyl-3a,3b,6a,7a-tetrahydro-3a
H-cyclopenta(1,2-d:3,4-d')di-isoxazole
;
_chemical_melting_point 510.15
_cell_volume   2242.644
_exptl_crystal_colour 'colorless'
_exptl_crystal_density_diffrn 1.293
_exptl_special_details
;
Melting point range 510.15-511.15K

;
_exptl_crystal_description 'block'
_diffrn_ambient_temperature 293
#These two values have been output from a single CSD field.
_refine_ls_R_factor_gt 0.0422
_refine_ls_wR_factor_gt 0.0422
_symmetry_cell_setting monoclinic
_symmetry_space_group_name_H-M 'P 21/c'
_symmetry_Int_Tables_number 14
loop_
_symmetry_equiv_pos_site_id
_symmetry_equiv_pos_as_xyz
1 x,y,z
2 -x,1/2+y,1/2-z
3 -x,-y,-z
4 x,-1/2-y,-1/2+z
_cell_length_a 11.384(2)
_cell_length_b 17.894(3)
_cell_length_c 11.099(2)
_cell_angle_alpha 90
_cell_angle_beta 97.291(14)
_cell_angle_gamma 90
_cell_formula_units_Z 4
loop_
_atom_type_symbol
_atom_type_radius_bond
C 0.68
H 0.23
N 0.68
O 0.68
loop_
_atom_site_label
_atom_site_type_symbol
_atom_site_fract_x
_atom_site_fract_y
_atom_site_fract_z
O1 O 0.20366(10) 0.64799(8) 0.09623(12)
O2 O -0.03511(10) 0.77151(8) -0.03872(11)
N1 N 0.15841(13) 0.62180(9) -0.02079(14)
N2 N 0.07778(13) 0.80434(9) -0.03544(14)
C1 C -0.30526(15) 0.71789(10) 0.1406(2)
H1 H -0.27988(15) 0.76726(10) 0.1157(2)
C2 C -0.21218(15) 0.66023(10) 0.12180(15)
C3 C -0.2524(2) 0.58278(10) 0.1537(2)
H2 H -0.1931(2) 0.54565(10) 0.1376(2)
C4 C -0.2652(2) 0.58387(14) 0.2897(2)
H3 H -0.2890(2) 0.53483(14) 0.3150(2)
H4 H -0.1897(2) 0.59621(14) 0.3362(2)
C5 C -0.3580(2) 0.64174(15) 0.3140(2)
H5 H -0.3660(2) 0.64227(15) 0.4009(2)
C6 C -0.4772(2) 0.6220(2) 0.2416(2)
H6 H -0.5362(2) 0.6586(2) 0.2571(2)
H7 H -0.5030(2) 0.5733(2) 0.2666(2)
C7 C -0.4645(2) 0.62074(12) 0.1062(2)
H8 H -0.5409(2) 0.60816(12) 0.0595(2)
C8 C -0.4245(2) 0.69747(11) 0.0678(2)
H9 H -0.4833(2) 0.73464(11) 0.0816(2)
H10 H -0.4167(2) 0.69705(11) -0.0183(2)
C9 C -0.3189(2) 0.71860(13) 0.2757(2)
H11 H -0.2441(2) 0.73178(13) 0.3227(2)
H12 H -0.3772(2) 0.75572(13) 0.2913(2)
C10 C -0.3725(2) 0.56360(12) 0.0812(2)
H13 H -0.3651(2) 0.56304(12) -0.0049(2)
H14 H -0.3973(2) 0.51426(12) 0.1040(2)
C11 C -0.10483(15) 0.67609(9) 0.09387(15)
C12 C -0.00092(15) 0.62319(10) 0.0940(2)
H15 H -0.01510(15) 0.57618(10) 0.1350(2)
C13 C 0.10496(15) 0.66482(10) 0.1602(2)
H16 H 0.12065(15) 0.64837(10) 0.2449(2)
C14 C 0.07101(15) 0.74934(10) 0.15315(15)
H17 H 0.07602(15) 0.77204(10) 0.23400(15)
C15 C -0.05390(15) 0.75299(10) 0.0865(2)
H18 H -0.10198(15) 0.7908(1) 0.1213(2)
C16 C 0.0473(2) 0.60908(10) -0.0249(2)
C17 C -0.0193(2) 0.5794(1) -0.1371(2)
C18 C -0.1355(2) 0.55666(13) -0.1410(2)
H19 H -0.1735(2) 0.56088(13) -0.0719(2)
C19 C -0.1963(2) 0.52760(14) -0.2468(2)
H20 H -0.2740(2) 0.51133(14) -0.2480(2)
C20 C -0.1414(3) 0.52287(14) -0.3502(2)
H21 H -0.1826(3) 0.50512(14) -0.4222(2)
C21 C -0.0257(3) 0.54452(13) -0.3459(2)
H22 H 0.0119(3) 0.54051(13) -0.4153(2)
C22 C 0.0354(2) 0.57192(11) -0.2415(2)
H23 H 0.1143(2) 0.58570(11) -0.2401(2)
C23 C 0.13691(15) 0.79419(10) 0.06936(15)
C24 C 0.25566(15) 0.82635(10) 0.0992(2)
C25 C 0.3123(2) 0.86203(11) 0.0122(2)
H24 H 0.2771(2) 0.86268(11) -0.0681(2)
C26 C 0.4199(2) 0.89654(13) 0.0427(2)
H25 H 0.4569(2) 0.92029(13) -0.0168(2)
C27 C 0.4723(2) 0.89592(14) 0.1607(2)
H26 H 0.5451(2) 0.91926(14) 0.1813(2)
C28 C 0.4180(2) 0.86111(14) 0.2479(2)
H27 H 0.4538(2) 0.86104(14) 0.3280(2)
C29 C 0.3104(2) 0.82601(12) 0.2179(2)
H28 H 0.2744(2) 0.80196(12) 0.2779(2)
#END
