
#######################################################################
#
#                 Cambridge Crystallographic Data Centre
#                                CCDC
#
#######################################################################
#
# If this CIF has been generated from an entry in the Cambridge
# Structural Database, then it will include bibliographic, chemical,
# crystal, experimental, refinement or atomic coordinate data resulting
# from the CCDC's data processing and validation procedures.
#
#######################################################################

data_CSD_CIF_QICMUK
_audit_creation_date 2001-06-05
_audit_creation_method CSD-ConQuest-V1
_database_code_CSD QICMUK
_chemical_formula_sum 'C16 H18 N2 O6'
_chemical_formula_moiety
;
C16 H18 N2 O6
;
_journal_coden_Cambridge 156
_journal_volume 318
_journal_year 1999
_journal_page_first 157
_journal_name_full 'Carbohydr.Res. '
loop_
_publ_author_name
"Minglong Zhang"
"Huyi Zhang"
"Zhenjun Yang"
"Lingtai Ma"
"Jimei Min"
"Lihe Zhang"
_chemical_name_systematic
;
3-C-(1,2-O-Isopropylidene-\a-D-xylofuranos-3-yl)-5-phenyl-1,2,4-oxadiazole
;
_chemical_melting_point 429.15
_cell_volume   3356.744
_exptl_special_details
;
Melting point range 429.15-430.15K

;
_diffrn_ambient_temperature ?
_diffrn_special_details
;
The study was carried out at room temperature,in the range 283-303K

;
#These two values have been output from a single CSD field.
_refine_ls_R_factor_gt 0.06
_refine_ls_wR_factor_gt 0.06
_symmetry_cell_setting orthorhombic
_symmetry_space_group_name_H-M 'P 2 21 21'
_symmetry_Int_Tables_number 18
loop_
_symmetry_equiv_pos_site_id
_symmetry_equiv_pos_as_xyz
1 x,y,z
2 -x,1/2-y,1/2+z
3 x,-y,-z
4 -x,1/2+y,1/2-z
_cell_length_a 6.732(2)
_cell_length_b 15.729(1)
_cell_length_c 31.701(1)
_cell_angle_alpha 90
_cell_angle_beta 90
_cell_angle_gamma 90
_cell_formula_units_Z 8
loop_
_atom_type_symbol
_atom_type_radius_bond
C 0.68
H 0.23
N 0.68
O 0.68
loop_
_atom_site_label
_atom_site_type_symbol
_atom_site_fract_x
_atom_site_fract_y
_atom_site_fract_z
O1 O 0.3017(6) 0.2261(2) 0.4009(1)
O2 O 0.1743(7) 0.0903(2) 0.3916(1)
O3 O 0.0974(6) 0.1037(2) 0.4617(1)
O4 O 0.0380(6) 0.333(2) 0.4490(1)
O5 O 0.6491(6) 0.3181(3) 0.4252(1)
O6 O 0.1901(7) 0.2605(3) 0.5756(1)
N1 N 0.2716(8) 0.2676(4) 0.5338(1)
N2 N -0.0563(7) 0.2355(3) 0.5311(1)
C1 C 0.1264(9) 0.1768(3) 0.3981(1)
C2 C 0.0282(9) 0.1792(3) 0.4418(1)
C3 C 0.1275(8) 0.2563(3) 0.4630(1)
C4 C 0.3391(8) 0.2504(4) 0.4446(1)
C5 C 0.4551(9) 0.3327(4) 0.4439(1)
C6 C 0.1180(9) 0.2525(4) 0.5102(1)
C7 C -0.0027(10) 0.2425(4) 0.5705(1)
C8 C -0.1225(10) 0.2303(4) 0.6087(1)
C9 C -0.0416(11) 0.2474(4) 0.6482(1)
C10 C -0.1664(14) 0.2369(5) 0.6838(1)
C11 C -0.3559(13) 0.2067(4) 0.6794(2)
C12 C -0.4344(12) 0.1912(5) 0.6399(2)
C13 C -0.3178(11) 0.2030(4) 0.6041(1)
C14 C 0.1274(11) 0.0405(4) 0.4291(1)
C15 C 0.3024(15) -0.0136(5) 0.4407(2)
C16 C -0.0634(14) -0.0087(5) 0.4217(2)
O7 O -0.7968(6) 0.3860(3) 0.8327(1)
O8 O -0.6736(6) 0.2484(2) 0.8400(1)
O9 O -0.5579(7) 0.2690(2) 0.7732(1)
O10 O -0.5188(5) 0.4970(2) 0.7897(1)
O11 O -1.1257(6) 0.4830(3) 0.8086(1)
O12 O -0.6427(7) 0.4062(3) 0.6610(1)
N3 N -0.7308(8) 0.4005(4) 0.7023(1)
N4 N -0.4044(7) 0.4331(3) 0.7071(1)
C17 C -0.6233(9) 0.3359(4) 0.8374(1)
C18 C -0.5067(9) 0.3446(3) 0.7961(1)
C19 C -0.6018(9) 0.4211(3) 0.7740(1)
C20 C -0.8192(8) 0.4133(4) 0.7891(1)
C21 C -0.9315(9) 0.4962(4) 0.7902(2)
C22 C -0.5804(9) 0.4181(4) 0.7268(1)
C23 C -0.4486(10) 0.4249(4) 0.6674(1)
C24 C -0.3266(10) 0.4374(3) 0.6302(1)
C25 C -0.1294(11) 0.4645(4) 0.6355(1)
C26 C -0.0125(12) 0.4777(5) 0.6004(2)
C27 C -0.0847(13) 0.4639(5) 0.5599(2)
C28 C -0.2780(14) 0.4365(5) 0.5549(1)
C29 C -0.4037(12) 0.4230(4) 0.5896(2)
C30 C -0.6094(10) 0.2029(4) 0.8022(1)
C31 C -0.4309(12) 0.1480(4) 0.8133(2)
C32 C -0.7811(12) 0.1533(4) 0.7845(2)
H1 H 0.02500 0.20100 0.37400
H2 H -0.13600 0.18500 0.44100
H3 H 0.42600 0.20200 0.46100
H4 H 0.47000 0.35900 0.47500
H5 H 0.37300 0.37900 0.42400
H6 H 0.11500 0.26800 0.65100
H7 H -0.10700 0.25100 0.71600
H8 H -0.45100 0.19800 0.70800
H9 H -0.59100 0.16700 0.63800
H10 H -0.38200 0.19300 0.57200
H11 H 0.33400 -0.06600 0.41900
H12 H 0.30400 -0.03800 0.47300
H13 H 0.41400 0.02400 0.43900
H14 H -0.14400 -0.01900 0.45100
H15 H -0.03300 -0.07200 0.40800
H16 H -0.15600 0.02700 0.39900
H17 H -0.09200 0.30300 0.44100
H18 H 0.62300 0.29200 0.39900
H19 H -0.53400 0.35700 0.86400
H20 H -0.34700 0.35300 0.80100
H21 H -0.90000 0.36700 0.77000
H22 H -0.94600 0.52100 0.75800
H23 H -0.84600 0.54200 0.80900
H24 H -0.06500 0.47300 0.66700
H25 H 0.14000 0.49900 0.60400
H26 H 0.01100 0.47700 0.53300
H27 H -0.32300 0.42300 0.52200
H28 H -0.55900 0.39900 0.58500
H29 H -0.30900 0.18800 0.82500
H30 H -0.37600 0.11500 0.78500
H31 H -0.47900 0.10700 0.83500
H32 H -0.83100 0.10100 0.80400
H33 H -0.75600 0.12900 0.75200
H34 H -0.90100 0.20000 0.78200
H35 H -0.38400 0.49600 0.79900
H36 H -1.09500 0.47000 0.83800
#END
