
#######################################################################
#
#                 Cambridge Crystallographic Data Centre
#                                CCDC
#
#######################################################################
#
# If this CIF has been generated from an entry in the Cambridge
# Structural Database, then it will include bibliographic, chemical,
# crystal, experimental, refinement or atomic coordinate data resulting
# from the CCDC's data processing and validation procedures.
#
#######################################################################

data_CSD_CIF_QICMOE
_audit_creation_date 2001-06-05
_audit_creation_method CSD-ConQuest-V1
_database_code_CSD QICMOE
_chemical_formula_sum 'C23 H22 N2 O7'
_chemical_formula_moiety
;
C23 H22 N2 O7
;
_journal_coden_Cambridge 156
_journal_volume 318
_journal_year 1999
_journal_page_first 157
_journal_name_full 'Carbohydr.Res. '
loop_
_publ_author_name
"Minglong Zhang"
"Huyi Zhang"
"Zhenjun Yang"
"Lingtai Ma"
"Jimei Min"
"Lihe Zhang"
_chemical_name_systematic
;
3-C-(5-O-Benzoyl-1,2-O-isopropylidene-\a-D-xylofuranos-3-yl)-5-phenyl-1,2,4-ox
adiazole
;
_chemical_melting_point 403.15
_cell_volume   2113.818
_exptl_crystal_colour 'colorless'
_exptl_special_details
;
Melting point range 403.15-404.15K

;
_diffrn_ambient_temperature ?
_diffrn_special_details
;
The study was carried out at room temperature,in the range 283-303K

;
_symmetry_cell_setting orthorhombic
_symmetry_space_group_name_H-M 'P 21 21 21'
_symmetry_Int_Tables_number 19
loop_
_symmetry_equiv_pos_site_id
_symmetry_equiv_pos_as_xyz
1 x,y,z
2 1/2-x,-y,1/2+z
3 1/2+x,1/2-y,-z
4 -x,1/2+y,1/2-z
_cell_length_a 10.839(4)
_cell_length_b 12.016(3)
_cell_length_c 16.230(7)
_cell_angle_alpha 90
_cell_angle_beta 90
_cell_angle_gamma 90
_cell_formula_units_Z 4
loop_
_atom_type_symbol
_atom_type_radius_bond
C 0.68
H 0.23
N 0.68
O 0.68
loop_
_atom_site_label
_atom_site_type_symbol
_atom_site_fract_x
_atom_site_fract_y
_atom_site_fract_z
O1 O 0.2346(1) 0.7403(2) 0.4863(1)
O2 O 0.3294(1) 0.6555(1) 0.3732(1)
O3 O 0.1717(1) 0.5320(1) 0.3952(1)
O4 O -0.0217(1) 0.7671(1) 0.4470(1)
O5 O 0.2130(1) 0.7502(1) 0.6573(1)
O6 O -0.1672(2) 0.4617(1) 0.5516(1)
O7 O 0.1340(2) 0.8964(2) 0.7257(1)
N1 N -0.0750(2) 0.5445(2) 0.5608(1)
N2 N -0.1225(2) 0.5210(2) 0.4259(1)
C1 C 0.2271(3) 0.7166(3) 0.3997(1)
C2 C 0.1166(3) 0.6398(3) 0.3893(1)
C3 C 0.0383(2) 0.6641(2) 0.4654(1)
C4 C 0.1393(3) 0.6809(3) 0.5306(1)
C5 C 0.1045(3) 0.7498(3) 0.6050(2)
C6 C 0.3008(3) 0.5388(3) 0.3729(2)
C7 C -0.0532(2) 0.5749(2) 0.4851(1)
C8 C -0.1889(3) 0.4529(3) 0.4698(1)
C9 C -0.2758(3) 0.3678(2) 0.4425(1)
C10 C -0.3114(3) 0.3667(3) 0.3599(2)
C11 C -0.3891(3) 0.2825(3) 0.3313(2)
C12 C -0.4312(4) 0.2014(3) 0.3851(2)
C13 C -0.3962(4) 0.2028(3) 0.4664(2)
C14 C -0.3187(3) 0.2860(3) 0.4959(2)
C15 C 0.2167(3) 0.8308(3) 0.7146(1)
C16 C 0.3343(3) 0.8304(3) 0.7617(1)
C17 C 0.3693(4) 0.9281(3) 0.8010(2)
C18 C 0.4803(4) 0.9311(4) 0.8454(2)
C19 C 0.5528(4) 0.8361(4) 0.8511(2)
C20 C 0.5171(3) 0.7389(4) 0.8133(2)
C21 C 0.4080(3) 0.7359(3) 0.7672(2)
C22 C 0.3744(3) 0.4803(3) 0.4384(3)
C23 C 0.3234(4) 0.4955(4) 0.2883(2)
H1 H 0.21400 0.79200 0.36400
H2 H 0.06800 0.65400 0.33200
H3 H 0.17300 0.60000 0.55100
H4 H 0.02700 0.71200 0.63800
H5 H 0.08000 0.83300 0.58700
H6 H -0.27900 0.43200 0.31800
H7 H -0.41700 0.28000 0.26700
H8 H -0.49000 0.13400 0.36300
H9 H -0.42900 0.13900 0.50800
H10 H -0.29300 0.28700 0.56000
H11 H 0.31200 1.00100 0.79800
H12 H 0.51200 1.00800 0.87300
H13 H 0.64000 0.83800 0.88600
H14 H 0.57400 0.66400 0.81800
H15 H 0.38100 0.65900 0.73600
H16 H 0.47200 0.49800 0.43400
H17 H 0.36100 0.39100 0.43700
H18 H 0.33900 0.51300 0.49600
H19 H 0.41600 0.51300 0.26700
H20 H 0.25900 0.53100 0.24400
H21 H 0.30800 0.40700 0.29200
H22 H -0.10800 0.76800 0.47500
#END
