
#######################################################################
#
#                 Cambridge Crystallographic Data Centre
#                                CCDC
#
#######################################################################
#
# If this CIF has been generated from an entry in the Cambridge
# Structural Database, then it will include bibliographic, chemical,
# crystal, experimental, refinement or atomic coordinate data resulting
# from the CCDC's data processing and validation procedures.
#
#######################################################################

data_CSD_CIF_QIDGIW
_audit_creation_date 2018-06-04
_audit_creation_method CSD-ConQuest-V1
_database_code_CSD QIDGIW
_database_code_depnum_ccdc_archive 'CCDC 1588746'
_chemical_formula_sum 'C20 H13 N1 O2'
_chemical_formula_moiety
;
C20 H13 N1 O2
;
_journal_coden_Cambridge 920
_journal_volume 13
_journal_year 2018
_journal_page_first 2489
_journal_name_full 'Chem.Asian J. '
loop_
_publ_author_name
"V.Sable"
"K.Maindan"
"S.Bhilare"
"N.Chrysochos"
"C.Schulzke"
"A.R.Kapdi"
_chemical_name_systematic
;
9-(3-nitrophenyl)anthracene
;
_cell_volume   1415.312
_exptl_crystal_colour 'yellow'
_exptl_crystal_density_diffrn 1.405
_exptl_crystal_description 'platelet'
_diffrn_ambient_temperature 170
#These two values have been output from a single CSD field.
_refine_ls_R_factor_gt 0.0459
_refine_ls_wR_factor_gt 0.0459
_symmetry_cell_setting monoclinic
_symmetry_space_group_name_H-M 'P 21/n'
_symmetry_Int_Tables_number 14
loop_
_symmetry_equiv_pos_site_id
_symmetry_equiv_pos_as_xyz
1 x,y,z
2 1/2-x,1/2+y,1/2-z
3 -x,-y,-z
4 -1/2+x,-1/2-y,-1/2+z
_cell_length_a 12.996(3)
_cell_length_b 6.0624(12)
_cell_length_c 18.004(4)
_cell_angle_alpha 90
_cell_angle_beta 93.83(3)
_cell_angle_gamma 90
_cell_formula_units_Z 4
loop_
_atom_type_symbol
_atom_type_radius_bond
C 0.68
H 0.23
N 0.68
O 0.68
loop_
_atom_site_label
_atom_site_type_symbol
_atom_site_fract_x
_atom_site_fract_y
_atom_site_fract_z
O1 O 0.47500(11) -0.0878(2) 0.78263(8)
O2 O 0.63869(10) -0.0243(2) 0.78813(8)
N1 N 0.54955(11) 0.0197(2) 0.76612(8)
C1 C 0.29995(10) 0.2737(2) 0.52164(8)
C2 C 0.36390(11) 0.0908(3) 0.50647(8)
H1 H 0.42654 0.06968 0.53591
C3 C 0.33758(12) -0.0541(3) 0.45094(9)
H2 H 0.38145 -0.17566 0.44259
C4 C 0.24515(12) -0.0260(3) 0.40518(9)
H3 H 0.22685 -0.12933 0.36688
C5 C 0.18351(11) 0.1482(3) 0.41642(8)
H4 H 0.12249 0.16748 0.38500
C6 C 0.20758(10) 0.3042(3) 0.47423(8)
C7 C 0.14345(11) 0.4823(3) 0.48639(8)
H5 H 0.08448 0.50646 0.45330
C8 C 0.16343(11) 0.6256(3) 0.54560(9)
C9 C 0.09562(11) 0.8039(3) 0.55915(10)
H6 H 0.03664 0.82819 0.52609
C10 C 0.11401(12) 0.9394(3) 0.61854(10)
H7 H 0.06784 1.05682 0.62699
C11 C 0.20179(12) 0.9057(3) 0.66779(10)
H8 H 0.21328 0.99910 0.70989
C12 C 0.27015(12) 0.7416(3) 0.65586(9)
H9 H 0.32945 0.72450 0.68917
C13 C 0.25441(11) 0.5950(2) 0.59427(8)
C14 C 0.32307(10) 0.4230(2) 0.58011(8)
C15 C 0.42171(11) 0.4019(3) 0.62718(8)
C16 C 0.50025(11) 0.5564(3) 0.62150(9)
H10 H 0.49007 0.67685 0.58808
C17 C 0.59313(12) 0.5372(3) 0.66387(9)
H11 H 0.64511 0.64587 0.65977
C18 C 0.61051(11) 0.3622(3) 0.71174(9)
H12 H 0.67425 0.34640 0.74028
C19 C 0.53240(11) 0.2108(3) 0.71687(8)
C20 C 0.43858(11) 0.2275(3) 0.67631(8)
H13 H 0.38623 0.12064 0.68204
#END
