
#######################################################################
#
#                 Cambridge Crystallographic Data Centre
#                                CCDC
#
#######################################################################
#
# If this CIF has been generated from an entry in the Cambridge
# Structural Database, then it will include bibliographic, chemical,
# crystal, experimental, refinement or atomic coordinate data resulting
# from the CCDC's data processing and validation procedures.
#
#######################################################################

data_CSD_CIF_QIDHUG
_audit_creation_date 2001-06-05
_audit_creation_method CSD-ConQuest-V1
_database_code_CSD QIDHUG
_chemical_formula_sum 'C31 H39 N3 O3'
_chemical_formula_moiety
;
C31 H39 N3 O3
;
_journal_coden_Cambridge 4
_journal_volume 122
_journal_year 2000
_journal_page_first 2567
_journal_name_full 'J.Am.Chem.Soc. '
loop_
_publ_author_name
"T.Itoh"
"K.Matsuda"
"H.Iwamura"
"K.Hori"
_chemical_name_systematic
;
tris(p-(N-Oxyl-t-butylamino)phenyl)methyl diradical
;
_cell_volume   2819.436
_exptl_crystal_colour 'red-purple'
_exptl_crystal_density_diffrn 1.181
_exptl_crystal_description 'prismatic'
_exptl_crystal_preparation 'diethyl ether'
_diffrn_ambient_temperature 173
#These two values have been output from a single CSD field.
_refine_ls_R_factor_gt 0.055
_refine_ls_wR_factor_gt 0.055
_symmetry_cell_setting monoclinic
_symmetry_space_group_name_H-M 'C c'
_symmetry_Int_Tables_number 9
loop_
_symmetry_equiv_pos_site_id
_symmetry_equiv_pos_as_xyz
1 x,y,z
2 x,-y,1/2+z
3 1/2+x,1/2+y,z
4 1/2+x,1/2-y,1/2+z
_cell_length_a 13.35(1)
_cell_length_b 23.542(4)
_cell_length_c 10.134(2)
_cell_angle_alpha 90
_cell_angle_beta 117.72(1)
_cell_angle_gamma 90
_cell_formula_units_Z 4
loop_
_atom_type_symbol
_atom_type_radius_bond
C 0.68
H 0.23
N 0.68
O 0.68
loop_
_atom_site_label
_atom_site_type_symbol
_atom_site_fract_x
_atom_site_fract_y
_atom_site_fract_z
O1 O -0.437(1) 0.0642(2) 0.134(1)
O2 O 0.310(1) 0.2653(2) 0.073(1)
O3 O 0.260(1) -0.1497(2) -0.075(1)
N1 N -0.441(1) 0.0563(2) 0.006(1)
N2 N 0.203(1) 0.2677(2) 0.030(1)
N3 N 0.181(1) -0.1537(2) -0.035(1)
C1 C -0.014(1) 0.0572(3) 0.000(1)
C2 C -0.125(1) 0.0571(2) 0.002(1)
C3 C -0.143(1) 0.0871(2) 0.109(1)
C4 C -0.246(1) 0.0863(3) 0.110(1)
C5 C -0.337(1) 0.0563(2) 0.000(1)
C6 C -0.321(1) 0.0266(2) -0.107(1)
C7 C -0.217(1) 0.0263(2) -0.106(1)
C8 C -0.557(1) 0.0517(3) -0.126(2)
C9 C -0.560(1) 0.0849(3) -0.257(2)
C10 C -0.641(1) 0.0774(3) -0.080(2)
C11 C -0.588(1) -0.0102(3) -0.164(2)
C12 C 0.039(1) 0.1107(2) 0.007(1)
C13 C 0.159(1) 0.1159(3) 0.062(1)
C14 C 0.209(1) 0.1668(2) 0.069(2)
C15 C 0.146(1) 0.2177(3) 0.022(1)
C16 C 0.027(1) 0.2139(3) -0.029(2)
C17 C -0.022(1) 0.1625(3) -0.034(2)
C18 C 0.149(1) 0.3259(3) -0.011(2)
C19 C 0.245(1) 0.3680(3) 0.012(1)
C20 C 0.099(1) 0.3431(3) 0.092(2)
C21 C 0.059(1) 0.3269(3) -0.176(2)
C22 C 0.033(1) 0.0040(3) -0.010(1)
C23 C 0.006(1) -0.0471(2) 0.040(2)
C24 C 0.052(1) -0.0989(2) 0.034(1)
C25 C 0.125(1) -0.1033(2) -0.029(2)
C26 C 0.151(1) -0.0534(3) -0.084(1)
C27 C 0.106(1) -0.0029(3) -0.076(1)
C28 C 0.158(1) -0.2123(3) 0.007(2)
C29 C 0.198(1) -0.2145(3) 0.175(2)
C30 C 0.229(1) -0.2536(3) -0.035(2)
C31 C 0.032(1) -0.2268(3) -0.083(2)
H1 H -0.08140 0.10880 0.18290
H2 H -0.25370 0.10600 0.18710
H3 H -0.38180 0.00630 -0.18110
H4 H -0.20590 0.00510 -0.17750
H5 H -0.54210 0.12380 -0.22960
H6 H -0.50360 0.06980 -0.28150
H7 H -0.63150 0.08180 -0.33970
H8 H -0.62070 0.11580 -0.05040
H9 H -0.71420 0.07560 -0.16080
H10 H -0.63820 0.05660 0.00250
H11 H -0.65940 -0.01270 -0.24750
H12 H -0.53240 -0.02780 -0.18550
H13 H -0.58800 -0.02890 -0.08090
H14 H 0.20520 0.08280 0.09560
H15 H 0.28980 0.16820 0.10800
H16 H -0.01670 0.24730 -0.05860
H17 H -0.10060 0.16150 -0.06580
H18 H 0.30310 0.36690 0.11430
H19 H 0.27820 0.35760 -0.04960
H20 H 0.21630 0.40540 -0.01090
H21 H 0.15810 0.34260 0.19330
H22 H 0.06940 0.38020 0.06750
H23 H 0.04240 0.31710 0.08120
H24 H 0.02600 0.36350 -0.19930
H25 H 0.09460 0.31860 -0.23590
H26 H 0.00340 0.29930 -0.19110
H27 H -0.04430 -0.04560 0.08100
H28 H 0.03380 -0.13180 0.07320
H29 H 0.20140 -0.05520 -0.12600
H30 H 0.12470 0.02960 -0.11540
H31 H 0.18560 -0.25130 0.20250
H32 H 0.27750 -0.20620 0.22730
H33 H 0.15850 -0.18720 0.20150
H34 H 0.21980 -0.29130 -0.00770
H35 H 0.20520 -0.25160 -0.13770
H36 H 0.30710 -0.24340 0.01930
H37 H -0.01050 -0.19950 -0.06250
H38 H 0.01240 -0.22650 -0.18550
H39 H 0.01970 -0.26350 -0.05460
#END
