
#######################################################################
#
#                 Cambridge Crystallographic Data Centre
#                                CCDC
#
#######################################################################
#
# If this CIF has been generated from an entry in the Cambridge
# Structural Database, then it will include bibliographic, chemical,
# crystal, experimental, refinement or atomic coordinate data resulting
# from the CCDC's data processing and validation procedures.
#
#######################################################################

data_CSD_CIF_QIFCOX
_audit_creation_date 2001-06-04
_audit_creation_method CSD-ConQuest-V1
_database_code_CSD QIFCOX
_database_code_depnum_ccdc_archive 'CCDC 160340'
_chemical_formula_sum 'C10 H16 N2 O2'
_chemical_formula_moiety
;
C10 H16 N2 O2
;
_journal_coden_Cambridge 392
_journal_volume 53
_journal_year 2000
_journal_page_first 2661
_journal_name_full 'Heterocycles '
loop_
_publ_author_name
"S.Y.Melsovich"
"A.M.Khan"
"A.G.Abdulkakhimovna"
"M.I.Choudhary"
"K.B.Baurzhanovich"
"K.A.Tabylovich"
"T.K.Muboryakovich"
"D.A.Dmitrievich"
"A.S.Mynzhasarovich"
"A.Rahman"
_chemical_name_systematic
;
3,3-Dimethyl-3H-pyrazo(4,5-2'(S)-methyl)cyclohexene-1,2-dioxide
;
_chemical_melting_point 391.15
_cell_volume   1066.966
_exptl_crystal_colour 'colorless'
_exptl_crystal_density_diffrn 1.222
_exptl_special_details
;
Melting point range 391.15-393.15K

;
_exptl_crystal_preparation 'ethyl acetate'
_diffrn_ambient_temperature ?
_diffrn_special_details
;
The study was carried out at room temperature,in the range 283-303K

;
#These two values have been output from a single CSD field.
_refine_ls_R_factor_gt 0.0526
_refine_ls_wR_factor_gt 0.0526
_symmetry_cell_setting orthorhombic
_symmetry_space_group_name_H-M 'P 21 21 21'
_symmetry_Int_Tables_number 19
loop_
_symmetry_equiv_pos_site_id
_symmetry_equiv_pos_as_xyz
1 x,y,z
2 1/2-x,-y,1/2+z
3 1/2+x,1/2-y,-z
4 -x,1/2+y,1/2-z
_cell_length_a 5.953(4)
_cell_length_b 11.303(7)
_cell_length_c 15.857(11)
_cell_angle_alpha 90
_cell_angle_beta 90
_cell_angle_gamma 90
_cell_formula_units_Z 4
loop_
_atom_type_symbol
_atom_type_radius_bond
C 0.68
H 0.23
N 0.68
O 0.68
loop_
_atom_site_label
_atom_site_type_symbol
_atom_site_fract_x
_atom_site_fract_y
_atom_site_fract_z
C1 C 0.0573(4) 0.1690(2) 0.1055(2)
C2 C 0.1951(4) 0.1135(2) 0.1567(2)
C3 C 0.2502(5) -0.0151(2) 0.1491(2)
C4 C 0.1607(5) -0.0608(3) 0.0648(2)
C5 C -0.0755(5) -0.0165(3) 0.0446(2)
C6 C -0.0737(5) 0.1180(3) 0.0344(2)
C7 C 0.2771(4) 0.1962(2) 0.2234(2)
C8 C 0.5315(5) 0.2120(3) 0.2253(2)
C9 C 0.1804(6) 0.1672(3) 0.3105(2)
C10 C -0.1743(7) -0.0759(3) -0.0328(2)
O1 O -0.0795(4) 0.3699(2) 0.0961(1)
O2 O 0.1932(5) 0.4091(2) 0.2309(1)
N1 N 0.0410(4) 0.2909(2) 0.1296(1)
N2 N 0.1718(4) 0.3096(2) 0.1961(1)
H1 H 0.1820(5) -0.0587(2) 0.1951(2)
H2 H 0.4116(5) -0.0263(2) 0.1518(2)
H3 H 0.2619(5) -0.0362(3) 0.0202(2)
H4 H 0.1594(5) -0.1466(3) 0.0660(2)
H5 H -0.1721(5) -0.0356(3) 0.0927(2)
H6 H -0.0053(5) 0.1395(3) -0.0189(2)
H7 H -0.2261(5) 0.1483(3) 0.0353(2)
H8 H 0.6015(5) 0.1378(5) 0.2387(12)
H9 H 0.5705(5) 0.2695(13) 0.2674(9)
H10 H 0.5826(6) 0.2386(17) 0.1711(4)
H11 H 0.2382(32) 0.0924(11) 0.3293(7)
H12 H 0.0196(6) 0.1631(21) 0.3071(4)
H13 H 0.2227(34) 0.2279(12) 0.3498(4)
H14 H -0.3235(17) -0.0466(16) -0.0424(9)
H15 H -0.1797(39) -0.1599(4) -0.0240(7)
H16 H -0.0822(24) -0.0589(18) -0.0810(4)
#END
