
#######################################################################
#
#                 Cambridge Crystallographic Data Centre
#                                CCDC
#
#######################################################################
#
# If this CIF has been generated from an entry in the Cambridge
# Structural Database, then it will include bibliographic, chemical,
# crystal, experimental, refinement or atomic coordinate data resulting
# from the CCDC's data processing and validation procedures.
#
#######################################################################

data_CSD_CIF_QIFNOL
_audit_creation_date 2018-06-04
_audit_creation_method CSD-ConQuest-V1
_database_code_CSD QIFNOL
_database_code_depnum_ccdc_archive 'CCDC 1834657'
_chemical_formula_sum 'C48 H40 N4 O8'
_chemical_formula_moiety
;
C48 H40 N4 O8
;
_journal_coden_Cambridge 1748
_journal_volume 5
_journal_year 2018
_journal_page_first 2296
_journal_name_full 'Org.Chem.Front. '
loop_
_publ_author_name
"Hai-Xian Gong"
"Zhu Cao"
"Meng-Hua Li"
"Sai-Hu Liao"
"Mei-Jin Lin"
_chemical_name_systematic
;
N,N-bis(2,6-di-isopropylphenyl)-1,7-dinitroperylene-3,4,9,10-tetracarboxylic 
di-imide unknown solvate
;
_cell_volume   4646.849
_exptl_crystal_description 'block'
_diffrn_ambient_temperature 293
_refine_special_details
;
The structure contains a solvent molecule which does not appear to be 
mentioned in the paper.
;
#These two values have been output from a single CSD field.
_refine_ls_R_factor_gt 0.1526
_refine_ls_wR_factor_gt 0.1526
_symmetry_cell_setting monoclinic
_symmetry_space_group_name_H-M 'P 21/n'
_symmetry_Int_Tables_number 14
loop_
_symmetry_equiv_pos_site_id
_symmetry_equiv_pos_as_xyz
1 x,y,z
2 1/2-x,1/2+y,1/2-z
3 -x,-y,-z
4 -1/2+x,-1/2-y,-1/2+z
_cell_length_a 21.194(5)
_cell_length_b 8.4619(12)
_cell_length_c 27.57(1)
_cell_angle_alpha 90
_cell_angle_beta 109.98(3)
_cell_angle_gamma 90
_cell_formula_units_Z 4
loop_
_atom_type_symbol
_atom_type_radius_bond
C 0.68
H 0.23
N 0.68
O 0.68
loop_
_atom_site_label
_atom_site_type_symbol
_atom_site_fract_x
_atom_site_fract_y
_atom_site_fract_z
N1 N 0.8904(11) 0.360(3) 0.6415(9)
O1 O 0.9343(9) 0.259(2) 0.6545(7)
O2 O 0.9038(9) 0.506(2) 0.6467(7)
O3 O 0.7432(4) 0.8345(10) 0.3423(4)
O4 O 0.5316(5) 0.0345(10) 0.5815(4)
O5 O 0.9528(4) 0.6641(9) 0.4385(4)
N2 N 0.6317(6) 0.0435(10) 0.6464(4)
O6 O 0.7348(5) 0.0341(10) 0.7084(4)
N3 N 0.8481(5) 0.7484(10) 0.3899(4)
O7 O 0.5615(7) 0.6412(17) 0.4549(6)
N4 N 0.5853(9) 0.5918(18) 0.4212(8)
O8 O 0.5507(7) 0.558(2) 0.3786(6)
C1 C 0.6190(6) 0.1830(13) 0.5663(5)
C2 C 0.5789(7) 0.2232(15) 0.5173(6)
H1 H 0.53500 0.18610 0.50390
C3 C 0.6048(7) 0.3204(15) 0.4878(5)
H2 H 0.57760 0.34930 0.45480
C4 C 0.6711(6) 0.3755(13) 0.5070(5)
C5 C 0.7133(6) 0.3243(13) 0.5544(5)
C6 C 0.6866(6) 0.2289(12) 0.5855(5)
C7 C 0.7284(7) 0.1883(13) 0.6359(5)
C8 C 0.7908(7) 0.2365(16) 0.6538(6)
H3 H 0.81680 0.21050 0.68740
C9 C 0.8198(6) 0.3248(15) 0.6245(5)
C10 C 0.7833(6) 0.3615(13) 0.5735(5)
C11 C 0.6964(6) 0.4868(13) 0.4762(5)
C12 C 0.6578(6) 0.5731(17) 0.4339(6)
C13 C 0.6826(7) 0.6567(15) 0.4000(6)
H4 H 0.65370 0.70360 0.37010
C14 C 0.7510(6) 0.6661(13) 0.4126(5)
C15 C 0.7958(6) 0.5883(12) 0.4572(5)
C16 C 0.7687(6) 0.5045(13) 0.4917(5)
C17 C 0.8132(6) 0.4354(13) 0.5378(5)
C18 C 0.8796(6) 0.4421(15) 0.5453(5)
C19 C 0.9059(6) 0.5196(15) 0.5121(5)
H5 H 0.95220 0.52270 0.51980
C20 C 0.8647(6) 0.5916(13) 0.4681(5)
C21 C 0.5906(7) 0.0831(14) 0.5978(6)
C22 C 0.7005(7) 0.0836(15) 0.6665(6)
C23 C 0.7791(6) 0.7549(14) 0.3790(5)
C24 C 0.8933(7) 0.6664(14) 0.4327(5)
C25 C 0.6034(6) -0.0566(14) 0.6776(5)
C26 C 0.5731(7) 0.0091(15) 0.7097(5)
C27 C 0.5462(7) -0.0903(17) 0.7381(6)
H6 H 0.52620 -0.04870 0.76060
C28 C 0.5501(8) -0.2560(16) 0.7320(6)
H7 H 0.53280 -0.32470 0.75050
C29 C 0.5791(8) -0.3136(17) 0.6990(6)
H8 H 0.58010 -0.42270 0.69520
C30 C 0.6076(7) -0.2202(15) 0.6705(5)
C31 C 0.5691(9) 0.1939(15) 0.7150(7)
C32 C 0.5020(9) 0.2413(18) 0.7179(8)
H9 H 0.46690 0.20910 0.68690
H10 H 0.50060 0.35400 0.72160
H11 H 0.49560 0.19110 0.74710
C33 C 0.6268(12) 0.246(2) 0.7633(9)
H12 H 0.66890 0.21510 0.76020
H13 H 0.62190 0.19670 0.79320
H14 H 0.62580 0.35870 0.76670
C34 C 0.6406(8) -0.2910(15) 0.6368(6)
C35 C 0.5892(9) -0.370(2) 0.5894(6)
H15 H 0.61200 -0.41560 0.56820
H16 H 0.55760 -0.29230 0.56990
H17 H 0.56570 -0.45140 0.60060
C36 C 0.6940(8) -0.4166(19) 0.6645(6)
H18 H 0.71390 -0.45830 0.64070
H19 H 0.67310 -0.50060 0.67680
H20 H 0.72820 -0.36850 0.69310
C37 C 0.8747(6) 0.8154(14) 0.3511(5)
C38 C 0.8671(7) 0.7354(14) 0.3066(6)
C39 C 0.8906(7) 0.8023(15) 0.2700(6)
H21 H 0.88760 0.74590 0.24030
C40 C 0.9188(6) 0.9549(17) 0.2773(6)
H22 H 0.93060 1.00370 0.25150
C41 C 0.9284(7) 1.0307(15) 0.3237(6)
H23 H 0.95090 1.12700 0.32990
C42 C 0.9062(6) 0.9695(14) 0.3609(6)
C43 C 0.8349(7) 0.5717(13) 0.2968(5)
C44 C 0.8787(7) 0.4558(14) 0.2775(6)
H24 H 0.85750 0.35400 0.27090
H25 H 0.92240 0.44600 0.30350
H26 H 0.88320 0.49620 0.24630
C45 C 0.7641(7) 0.5806(15) 0.2533(6)
H27 H 0.74450 0.47710 0.24730
H28 H 0.76900 0.61980 0.22210
H29 H 0.73560 0.65040 0.26400
C46 C 0.9164(8) 1.0565(15) 0.4120(6)
C47 C 0.8779(14) 1.2167(19) 0.3976(9)
H30 H 0.88300 1.27550 0.42850
H31 H 0.83110 1.19630 0.37970
H32 H 0.89580 1.27660 0.37570
C48 C 0.991(1) 1.088(2) 0.4416(8)
H33 H 0.99570 1.14350 0.47290
H34 H 1.00950 1.15020 0.42060
H35 H 1.01450 0.98890 0.44970
N5? N 0.9291(11) 0.390(3) 0.5953(9)
O9? O 0.9335(9) 0.241(2) 0.6007(7)
O10? O 0.9664(9) 0.480(2) 0.6309(7)
C49? C 0.7385(6) 0.1107(10) 0.4320(4)
H36? H 0.77540 0.15880 0.42710
C50? C 0.6751(7) 0.1265(11) 0.3949(4)
H37? H 0.66950 0.18520 0.36520
C51? C 0.6200(5) 0.0547(12) 0.4022(4)
H38? H 0.57760 0.06530 0.37730
C52? C 0.6284(4) -0.0329(11) 0.4466(4)
H39? H 0.59160 -0.08100 0.45140
C53? C 0.6918(4) -0.0487(8) 0.4837(4)
C54? C 0.7469(4) 0.0231(8) 0.4764(4)
C55? C 0.8103(4) 0.0073(12) 0.5135(4)
H40? H 0.84720 0.05530 0.50860
C56? C 0.8187(5) -0.0803(12) 0.5579(4)
H41? H 0.86110 -0.09090 0.58280
C57? C 0.7636(6) -0.1522(11) 0.5652(4)
H42? H 0.76920 -0.21080 0.59490
C58? C 0.7002(6) -0.1364(10) 0.5281(4)
H43? H 0.66340 -0.18440 0.53300
#END
