
#######################################################################
#
#                 Cambridge Crystallographic Data Centre
#                                CCDC
#
#######################################################################
#
# If this CIF has been generated from an entry in the Cambridge
# Structural Database, then it will include bibliographic, chemical,
# crystal, experimental, refinement or atomic coordinate data resulting
# from the CCDC's data processing and validation procedures.
#
#######################################################################

data_CSD_CIF_QIGGIY01
_audit_creation_date 2014-02-13
_audit_creation_method CSD-ConQuest-V1
_database_code_CSD QIGGIY01
_database_code_depnum_ccdc_archive 'CCDC 944726'
_chemical_formula_sum 'C18 H22 N2 O2'
_chemical_formula_moiety
;
C18 H22 N2 O2
;
_journal_coden_Cambridge 1003
_journal_volume 44
_journal_year 2014
_journal_page_first 98
_journal_name_full 'J.Chem.Cryst. '
loop_
_publ_author_name
"E.Bosch"
_chemical_name_systematic
;
1,2-dimesityldiazene 1,2-dioxide
;
_chemical_name_common
;
2-nitroso-1,3,5-trimethylbenzene
;
_cell_volume   1626.846
_exptl_crystal_colour 'colorless'
_exptl_crystal_density_diffrn 1.218
_exptl_crystal_description 'block'
_exptl_crystal_preparation 'methanol'
_diffrn_ambient_temperature 173
#These two values have been output from a single CSD field.
_refine_ls_R_factor_gt 0.0454
_refine_ls_wR_factor_gt 0.0454
_symmetry_cell_setting orthorhombic
_symmetry_space_group_name_H-M 'P b c a'
_symmetry_Int_Tables_number 61
loop_
_symmetry_equiv_pos_site_id
_symmetry_equiv_pos_as_xyz
1 x,y,z
2 1/2-x,-y,1/2+z
3 1/2+x,1/2-y,-z
4 -x,1/2+y,1/2-z
5 -x,-y,-z
6 -1/2+x,y,-1/2-z
7 -1/2-x,-1/2+y,z
8 x,-1/2-y,-1/2+z
_cell_length_a 8.8743(15)
_cell_length_b 10.4516(18)
_cell_length_c 17.540(3)
_cell_angle_alpha 90
_cell_angle_beta 90
_cell_angle_gamma 90
_cell_formula_units_Z 4
loop_
_atom_type_symbol
_atom_type_radius_bond
C 0.68
H 0.23
N 0.68
O 0.68
loop_
_atom_site_label
_atom_site_type_symbol
_atom_site_fract_x
_atom_site_fract_y
_atom_site_fract_z
O1 O 0.01939(14) 0.10955(10) 0.07115(7)
N1 N -0.00052(15) 0.00361(12) 0.03738(8)
C1 C -0.16677(17) -0.16369(15) 0.09087(9)
C2 C -0.02163(17) -0.11527(14) 0.08103(9)
C3 C 0.10469(18) -0.16763(15) 0.11638(9)
C4 C 0.0807(2) -0.27210(15) 0.16383(9)
H1 H 0.16480 -0.30950 0.18890
C5 C -0.0612(2) -0.32400(16) 0.17614(9)
C6 C -0.1829(2) -0.26839(15) 0.13927(9)
H2 H -0.28060 -0.30290 0.14730
C7 C -0.30158(19) -0.10767(18) 0.05118(11)
H3 H -0.30570 -0.01540 0.06080
H4 H -0.39350 -0.14810 0.07070
H5 H -0.29350 -0.12310 -0.00380
C8 C 0.2617(2) -0.11812(18) 0.10371(12)
H6 H 0.33050 -0.15830 0.14030
H7 H 0.26300 -0.02510 0.11090
H8 H 0.29400 -0.13870 0.05170
C9 C -0.0813(3) -0.43740(19) 0.22806(11)
H9 H -0.00850 -0.50410 0.21440
H10 H -0.18380 -0.47100 0.22260
H11 H -0.06470 -0.41100 0.28100
O1D O -0.01939(14) -0.10955(10) -0.07115(7)
N1D N 0.00052(15) -0.00361(12) -0.03738(8)
C1D C 0.16677(17) 0.16369(15) -0.09087(9)
C2D C 0.02163(17) 0.11527(14) -0.08103(9)
C3D C -0.10469(18) 0.16763(15) -0.11638(9)
C4D C -0.0807(2) 0.27210(15) -0.16383(9)
H1D H -0.16480 0.30950 -0.18890
C5D C 0.0612(2) 0.32400(16) -0.17614(9)
C6D C 0.1829(2) 0.26839(15) -0.13927(9)
H2D H 0.28060 0.30290 -0.14730
C7D C 0.30158(19) 0.10767(18) -0.05118(11)
H3D H 0.30570 0.01540 -0.06080
H4D H 0.39350 0.14810 -0.07070
H5D H 0.29350 0.12310 0.00380
C8D C -0.2617(2) 0.11812(18) -0.10371(12)
H6D H -0.33050 0.15830 -0.14030
H7D H -0.26300 0.02510 -0.11090
H8D H -0.29400 0.13870 -0.05170
C9D C 0.0813(3) 0.43740(19) -0.22806(11)
H9D H 0.00850 0.50410 -0.21440
H10D H 0.18380 0.47100 -0.22260
H11D H 0.06470 0.41100 -0.28100
#END
