
#######################################################################
#
#                 Cambridge Crystallographic Data Centre
#                                CCDC
#
#######################################################################
#
# If this CIF has been generated from an entry in the Cambridge
# Structural Database, then it will include bibliographic, chemical,
# crystal, experimental, refinement or atomic coordinate data resulting
# from the CCDC's data processing and validation procedures.
#
#######################################################################

data_CSD_CIF_QIGPUU
_audit_creation_date 2018-06-04
_audit_creation_method CSD-ConQuest-V1
_database_code_CSD QIGPUU
_database_code_depnum_ccdc_archive 'CCDC 1574640'
_chemical_formula_sum 'C17 H18 N2 O2'
_chemical_formula_moiety
;
C17 H18 N2 O2
;
_journal_coden_Cambridge 35
_journal_volume 83
_journal_year 2018
_journal_page_first 5999
_journal_name_full 'J.Org.Chem. '
loop_
_publ_author_name
"Feifei Wu"
"Min Zhang"
"Wei Zhou"
"Wanzhi Chen"
"Miaochang Liu"
"Huayue Wu"
_chemical_name_systematic
;
N-[2-(methoxyimino)-2-phenylethyl]-4-methylbenzamide
;
_cell_volume   1522.795
_exptl_crystal_colour 'yellow'
_exptl_crystal_density_diffrn 1.231
_exptl_crystal_description 'plate'
_diffrn_ambient_temperature 293
#These two values have been output from a single CSD field.
_refine_ls_R_factor_gt 0.0609
_refine_ls_wR_factor_gt 0.0609
_symmetry_cell_setting triclinic
_symmetry_space_group_name_H-M 'P -1'
_symmetry_Int_Tables_number 2
loop_
_symmetry_equiv_pos_site_id
_symmetry_equiv_pos_as_xyz
1 x,y,z
2 -x,-y,-z
_cell_length_a 5.3098(5)
_cell_length_b 15.9656(13)
_cell_length_c 19.7582(19)
_cell_angle_alpha 113.815(9)
_cell_angle_beta 93.449(8)
_cell_angle_gamma 93.537(7)
_cell_formula_units_Z 4
loop_
_atom_type_symbol
_atom_type_radius_bond
C 0.68
H 0.23
N 0.68
O 0.68
loop_
_atom_site_label
_atom_site_type_symbol
_atom_site_fract_x
_atom_site_fract_y
_atom_site_fract_z
O1 O 0.7400(3) 0.75639(12) 0.29738(8)
C1 C 0.1396(4) 0.73289(14) 0.15053(9)
N1 N 0.3180(3) 0.74733(13) 0.27240(9)
O2 O -0.1808(3) 0.70271(11) 0.06442(8)
C2 C 0.1659(4) 0.83048(14) 0.16101(10)
C3 C 0.2977(4) 0.87218(17) 0.42764(11)
H1 H 0.17510 0.87830 0.39470
N2 N -0.0220(3) 0.66948(12) 0.10551(9)
C4 C 0.4951(4) 0.81865(16) 0.40029(11)
C5 C 0.6507(5) 0.8540(2) 0.52659(12)
H2 H 0.76970 0.84660 0.55980
C6 C 0.5287(4) 0.77176(15) 0.31963(11)
C7 C 0.2813(4) 0.91655(18) 0.50329(12)
H3 H 0.14900 0.95290 0.52030
C8 C 0.6724(4) 0.81090(18) 0.45172(11)
H4 H 0.80780 0.77600 0.43510
C9 C 0.3255(4) 0.70019(15) 0.19273(10)
H5 H 0.28770 0.63460 0.17790
H6 H 0.49510 0.71020 0.18010
C10 C 0.0055(4) 0.89184(16) 0.20261(12)
H7 H -0.12280 0.87210 0.22430
C11 C 0.2213(4) 1.01346(17) 0.18117(12)
H8 H 0.24190 1.07490 0.18860
C12 C 0.4551(5) 0.90820(19) 0.55374(12)
C13 C 0.3516(4) 0.86221(17) 0.12926(14)
H9 H 0.46170 0.82210 0.10070
C14 C -0.3541(5) 0.62843(19) 0.01424(13)
H10 H -0.26150 0.57840 -0.01490
H11 H -0.45030 0.64880 -0.01810
H12 H -0.46710 0.60820 0.04190
C15 C 0.3756(5) 0.95294(18) 0.13943(15)
H13 H 0.50100 0.97300 0.11700
C16 C 0.0350(5) 0.98280(17) 0.21216(13)
H14 H -0.07450 1.02360 0.24030
C17 C 0.4316(7) 0.9575(2) 0.63641(13)
H15 H 0.27080 0.98260 0.64400
H16 H 0.56550 1.00630 0.65830
H17 H 0.44360 0.91470 0.65920
H18 H 0.176(4) 0.7531(15) 0.2904(10)
O3 O 0.3225(3) 0.20004(11) 0.06198(8)
O4 O 1.2585(3) 0.26393(13) 0.29117(8)
N3 N 0.8332(3) 0.24667(14) 0.26892(9)
C18 C 0.6686(4) 0.32887(14) 0.15793(10)
C19 C 0.6455(4) 0.23123(14) 0.14737(10)
N4 N 0.4841(3) 0.16708(12) 0.10271(9)
C20 C 1.0480(4) 0.27439(15) 0.31496(11)
C21 C 0.8177(4) 0.29671(18) 0.42807(11)
H19 H 0.68480 0.25490 0.39820
C22 C 0.8359(4) 0.19901(16) 0.18925(11)
H20 H 0.79890 0.13350 0.17490
H21 H 1.00410 0.20890 0.17560
C23 C 1.0204(4) 0.31815(16) 0.39571(11)
C24 C 1.1956(5) 0.4218(2) 0.51818(13)
H22 H 1.32520 0.46510 0.54820
C25 C 0.5055(4) 0.38933(16) 0.19917(12)
H23 H 0.37740 0.36880 0.22040
C26 C 0.7165(4) 0.51191(17) 0.17828(12)
H24 H 0.73420 0.57340 0.18580
C27 C 1.2114(4) 0.38129(18) 0.44263(13)
H25 H 1.35270 0.39660 0.42290
C28 C 0.8538(4) 0.36146(17) 0.12659(13)
H26 H 0.96600 0.32190 0.09850
C29 C 0.9948(5) 0.40017(19) 0.55035(13)
C30 C 0.5316(5) 0.48026(18) 0.20906(13)
H27 H 0.42090 0.52050 0.23720
C31 C 0.1508(5) 0.12551(19) 0.01217(13)
H28 H 0.24430 0.07560 -0.01660
H29 H 0.05450 0.14530 -0.02050
H30 H 0.03800 0.10550 0.04000
C32 C 0.8743(5) 0.45254(18) 0.13661(15)
H31 H 0.99860 0.47330 0.11430
C33 C 0.8089(5) 0.3363(2) 0.50400(13)
H32 H 0.67220 0.31890 0.52430
C34 C 0.9775(7) 0.4446(3) 0.63366(14)
H33 H 0.81800 0.47030 0.64350
H34 H 1.11320 0.49240 0.65650
H35 H 0.99030 0.39910 0.65360
H36 H 0.694(4) 0.2565(16) 0.2887(11)
#END
