
#######################################################################
#
#                 Cambridge Crystallographic Data Centre
#                                CCDC
#
#######################################################################
#
# If this CIF has been generated from an entry in the Cambridge
# Structural Database, then it will include bibliographic, chemical,
# crystal, experimental, refinement or atomic coordinate data resulting
# from the CCDC's data processing and validation procedures.
#
#######################################################################

data_CSD_CIF_QIGQAB
_audit_creation_date 2018-06-04
_audit_creation_method CSD-ConQuest-V1
_database_code_CSD QIGQAB
_database_code_depnum_ccdc_archive 'CCDC 1577714'
_chemical_formula_sum 'C16 H16 N2 O2'
_chemical_formula_moiety
;
C16 H16 N2 O2
;
_journal_coden_Cambridge 35
_journal_volume 83
_journal_year 2018
_journal_page_first 5999
_journal_name_full 'J.Org.Chem. '
loop_
_publ_author_name
"Feifei Wu"
"Min Zhang"
"Wei Zhou"
"Wanzhi Chen"
"Miaochang Liu"
"Huayue Wu"
_chemical_name_systematic
;
N-[2-(methoxyimino)-2-phenylethyl]benzamide
;
_cell_volume    687.724
_exptl_crystal_colour 'colorless'
_exptl_crystal_density_diffrn 1.296
_exptl_crystal_description 'needle'
_diffrn_ambient_temperature 293
#These two values have been output from a single CSD field.
_refine_ls_R_factor_gt 0.0498
_refine_ls_wR_factor_gt 0.0498
_symmetry_cell_setting triclinic
_symmetry_space_group_name_H-M 'P -1'
_symmetry_Int_Tables_number 2
loop_
_symmetry_equiv_pos_site_id
_symmetry_equiv_pos_as_xyz
1 x,y,z
2 -x,-y,-z
_cell_length_a 5.2551(6)
_cell_length_b 8.3833(8)
_cell_length_c 15.9413(16)
_cell_angle_alpha 80.053(8)
_cell_angle_beta 84.296(9)
_cell_angle_gamma 86.691(9)
_cell_formula_units_Z 2
loop_
_atom_type_symbol
_atom_type_radius_bond
C 0.68
H 0.23
N 0.68
O 0.68
loop_
_atom_site_label
_atom_site_type_symbol
_atom_site_fract_x
_atom_site_fract_y
_atom_site_fract_z
O1 O 0.5255(3) 1.04643(15) 0.09964(9)
O2 O 1.3359(3) 0.86992(17) 0.36581(9)
N1 N 0.9181(3) 0.9139(2) 0.34600(11)
N2 N 0.6592(3) 1.09187(18) 0.16401(10)
C1 C 0.8236(3) 0.8088(2) 0.17452(11)
C2 C 0.8011(3) 0.9736(2) 0.19769(12)
C3 C 1.0387(4) 0.7662(2) 0.48159(12)
C4 C 1.1105(4) 0.8541(2) 0.39309(12)
C5 C 0.9622(4) 1.0155(2) 0.26337(12)
H1 H 1.14150 1.00470 0.24300
H2 H 0.92510 1.12770 0.26960
C6 C 1.0331(4) 0.7638(2) 0.12266(14)
H3 H 1.16260 0.83600 0.10360
C7 C 0.8149(4) 0.8011(3) 0.52934(13)
H4 H 0.69880 0.88070 0.50630
C8 C 1.2092(4) 0.6480(2) 0.51685(13)
H5 H 1.36200 0.62550 0.48560
C9 C 0.6579(4) 0.5468(2) 0.17961(14)
H6 H 0.53100 0.47310 0.19930
C10 C 0.6368(4) 0.6982(2) 0.20314(13)
H7 H 0.49560 0.72580 0.23850
C11 C 0.8639(4) 0.5044(2) 0.12758(14)
H8 H 0.87690 0.40240 0.11160
C12 C 0.7638(4) 0.7170(3) 0.61185(14)
H9 H 0.61450 0.74180 0.64440
C13 C 0.9322(5) 0.5976(3) 0.64561(14)
H10 H 0.89570 0.54020 0.70050
C14 C 1.0508(4) 0.6128(3) 0.09916(15)
H11 H 1.19110 0.58430 0.06360
C15 C 1.1542(5) 0.5629(3) 0.59830(14)
H12 H 1.26830 0.48180 0.62110
C16 C 0.3779(4) 1.1832(2) 0.06247(14)
H13 H 0.26450 1.22210 0.10620
H14 H 0.27950 1.15260 0.02060
H15 H 0.48990 1.26730 0.03550
H16 H 0.774(4) 0.897(2) 0.3647(12)
#END
