
#######################################################################
#
#                 Cambridge Crystallographic Data Centre
#                                CCDC
#
#######################################################################
#
# If this CIF has been generated from an entry in the Cambridge
# Structural Database, then it will include bibliographic, chemical,
# crystal, experimental, refinement or atomic coordinate data resulting
# from the CCDC's data processing and validation procedures.
#
#######################################################################

data_CSD_CIF_QIGSII
_audit_creation_date 2001-06-05
_audit_creation_method CSD-ConQuest-V1
_database_code_CSD QIGSII
_database_code_depnum_ccdc_archive 'CCDC 161285'
_chemical_formula_sum 'C14 H13 N3 O1'
_chemical_formula_moiety
;
C14 H13 N3 O1
;
_journal_coden_Cambridge 1147
_journal_volume 1
_journal_year 2001
_journal_page_first 47
_journal_name_full 'Cryst.Growth Des. '
loop_
_publ_author_name
"C.B.Aakeroy"
"A.M.Beatty"
"D.S.Leinen"
_chemical_name_systematic
;
1-(3-((Pyrid-4-ylmethylene)amino)phenyl)ethanone oxime
;
_chemical_name_common
;
3'-((Pyrid-4-ylmethylene)amino)acetophenone oxime
;
_chemical_melting_point 429.15
_cell_volume   1227.471
_exptl_crystal_colour 'pale yellow'
_exptl_crystal_density_diffrn 1.295
_exptl_special_details
;
Melting point range 429.15-431.15K

;
_exptl_crystal_description 'plate'
_exptl_crystal_preparation 'ethanol/water'
_diffrn_ambient_temperature 173
#These two values have been output from a single CSD field.
_refine_ls_R_factor_gt 0.0564
_refine_ls_wR_factor_gt 0.0564
_symmetry_cell_setting triclinic
_symmetry_space_group_name_H-M 'P -1'
_symmetry_Int_Tables_number 2
loop_
_symmetry_equiv_pos_site_id
_symmetry_equiv_pos_as_xyz
1 x,y,z
2 -x,-y,-z
_cell_length_a 10.966(3)
_cell_length_b 11.767(3)
_cell_length_c 11.931(3)
_cell_angle_alpha 62.281(4)
_cell_angle_beta 68.493(4)
_cell_angle_gamma 67.851(5)
_cell_formula_units_Z 4
loop_
_atom_type_symbol
_atom_type_radius_bond
C 0.68
H 0.23
N 0.68
O 0.68
loop_
_atom_site_label
_atom_site_type_symbol
_atom_site_fract_x
_atom_site_fract_y
_atom_site_fract_z
O1 O -0.25869(18) 1.18347(18) 0.46506(15)
H1 H -0.20460 1.14170 0.41580
O2 O 0.18036(18) 0.46628(19) -0.38480(16)
H2 H 0.25370 0.39820 -0.42290
N1 N -0.6294(2) 1.3106(2) 1.47646(19)
N2 N -0.40384(19) 1.13673(19) 1.11515(18)
N3 N -0.2551(2) 1.0999(2) 0.59420(18)
N4 N -0.10601(19) 1.0072(2) 0.34762(18)
N5 N 0.09849(19) 0.72083(19) 0.08423(17)
N6 N 0.2312(2) 0.4588(2) -0.28837(18)
C1 C -0.6712(3) 1.2055(3) 1.5053(3)
H3 H -0.74150 1.17970 1.58470
C2 C -0.6226(3) 1.1316(3) 1.4291(2)
H4 H -0.63950 1.04340 1.45710
C3 C -0.5245(2) 1.1670(2) 1.3149(2)
C4 C -0.4777(2) 1.2748(2) 1.2846(2)
H5 H -0.40540 1.30070 1.20030
C5 C -0.5319(2) 1.3426(2) 1.3674(2)
H6 H -0.50030 1.42110 1.34970
C6 C -0.4747(2) 1.0924(2) 1.2287(2)
H7 H -0.51080 1.02140 1.26340
C7 C -0.3576(2) 1.0647(2) 1.0328(2)
C8 C -0.3596(2) 1.1392(2) 0.9022(2)
H8 H -0.39790 1.23900 0.87520
C9 C -0.3124(2) 1.0798(2) 0.8115(2)
C10 C -0.2587(2) 0.9422(2) 0.8556(2)
H9 H -0.22010 0.89950 0.79500
C11 C -0.2542(2) 0.8689(2) 0.9841(2)
H10 H -0.21840 0.78070 1.00890
C12 C -0.3054(2) 0.9281(2) 1.0747(2)
H11 H -0.30170 0.88120 1.16300
C13 C -0.3164(2) 1.1621(2) 0.6727(2)
C14 C -0.3853(3) 1.3070(3) 0.6311(2)
H12 H -0.37170 1.33760 0.54840
H13 H -0.36010 1.35790 0.66420
H14 H -0.48850 1.29790 0.67880
C15 C -0.0369(2) 0.8893(3) 0.4168(2)
H15 H -0.03200 0.87850 0.50290
C16 C 0.0253(2) 0.7847(2) 0.3762(2)
H16 H 0.08000 0.70310 0.42200
C17 C 0.0199(2) 0.8025(2) 0.2537(2)
C18 C -0.0515(2) 0.9255(2) 0.1806(2)
H17 H -0.06030 0.94050 0.10070
C19 C -0.1123(2) 1.0229(2) 0.2303(2)
H18 H -0.17380 1.12020 0.18490
C20 C 0.0891(2) 0.6968(2) 0.2022(2)
H19 H 0.13170 0.60120 0.25850
C21 C 0.1739(2) 0.6211(2) 0.0319(2)
C22 C 0.1290(2) 0.6231(2) -0.0643(2)
H20 H 0.04320 0.69920 -0.09020
C23 C 0.1984(2) 0.5321(2) -0.12493(19)
C24 C 0.3163(2) 0.4398(2) -0.0870(2)
H21 H 0.36640 0.37980 -0.12530
C25 C 0.3616(2) 0.4385(2) 0.0071(2)
H22 H 0.44640 0.38110 0.03290
C26 C 0.2913(2) 0.5293(2) 0.0671(2)
H23 H 0.32070 0.52160 0.13620
C27 C 0.1500(2) 0.5345(2) -0.2273(2)
C28 C 0.0152(2) 0.6234(3) -0.2541(2)
H24 H -0.05550 0.63820 -0.18680
H25 H 0.02910 0.71770 -0.29850
H26 H -0.00530 0.59760 -0.31650
#END
