
#######################################################################
#
#                 Cambridge Crystallographic Data Centre
#                                CCDC
#
#######################################################################
#
# If this CIF has been generated from an entry in the Cambridge
# Structural Database, then it will include bibliographic, chemical,
# crystal, experimental, refinement or atomic coordinate data resulting
# from the CCDC's data processing and validation procedures.
#
#######################################################################

data_CSD_CIF_QIGSUU
_audit_creation_date 2001-06-05
_audit_creation_method CSD-ConQuest-V1
_database_code_CSD QIGSUU
_database_code_depnum_ccdc_archive 'CCDC 161287'
_chemical_formula_sum 'C14 H13 N3 O1'
_chemical_formula_moiety
;
C14 H13 N3 O1
;
_journal_coden_Cambridge 1147
_journal_volume 1
_journal_year 2001
_journal_page_first 47
_journal_name_full 'Cryst.Growth Des. '
loop_
_publ_author_name
"C.B.Aakeroy"
"A.M.Beatty"
"D.S.Leinen"
_chemical_name_systematic
;
1-(4-((Pyrid-3-ylmethylene)amino)phenyl)ethanone oxime
;
_chemical_name_common
;
4'-((Pyrid-3-ylmethylene)amino)acetophenone oxime
;
_chemical_melting_point 459.15
_cell_volume    602.818
_exptl_crystal_colour 'pale yellow'
_exptl_crystal_density_diffrn 1.318
_exptl_special_details
;
Melting point range 459.15-462.15K

;
_exptl_crystal_description 'plate'
_exptl_crystal_preparation 'acetone'
_diffrn_ambient_temperature 173
#These two values have been output from a single CSD field.
_refine_ls_R_factor_gt 0.0503
_refine_ls_wR_factor_gt 0.0503
_symmetry_cell_setting monoclinic
_symmetry_space_group_name_H-M 'P 21'
_symmetry_Int_Tables_number 4
loop_
_symmetry_equiv_pos_site_id
_symmetry_equiv_pos_as_xyz
1 x,y,z
2 -x,1/2+y,-z
_cell_length_a 6.1366(13)
_cell_length_b 7.2888(15)
_cell_length_c 13.509(3)
_cell_angle_alpha 90
_cell_angle_beta 93.927(4)
_cell_angle_gamma 90
_cell_formula_units_Z 2
loop_
_atom_type_symbol
_atom_type_radius_bond
C 0.68
H 0.23
N 0.68
O 0.68
loop_
_atom_site_label
_atom_site_type_symbol
_atom_site_fract_x
_atom_site_fract_y
_atom_site_fract_z
O1 O 0.2151(3) 0.2586(3) 0.78727(11)
H1 H 0.33620 0.25810 0.84090
N1 N 0.5588(4) 0.2231(3) -0.07251(13)
N2 N 0.4193(3) 0.2707(2) 0.22566(12)
N3 N 0.2968(3) 0.2486(3) 0.69260(12)
C1 C 0.5182(4) 0.2470(4) 0.02265(15)
H2 H 0.38240 0.28850 0.04140
C2 C 0.6726(4) 0.2170(3) 0.10175(15)
C3 C 0.8794(4) 0.1611(4) 0.07979(18)
H3 H 0.97590 0.12610 0.12020
C4 C 0.9253(4) 0.1354(4) -0.01822(19)
H4 H 1.07460 0.07880 -0.04100
C5 C 0.7612(4) 0.1682(4) -0.09179(17)
H5 H 0.79160 0.14980 -0.16040
C6 C 0.6137(4) 0.2401(3) 0.20483(15)
H6 H 0.73350 0.22590 0.25910
C7 C 0.3668(3) 0.2802(3) 0.32663(14)
C8 C 0.1746(4) 0.3687(3) 0.34659(16)
H7 H 0.09030 0.42800 0.30020
C9 C 0.1049(3) 0.3759(3) 0.44229(15)
H8 H -0.01680 0.45720 0.45970
C10 C 0.2264(3) 0.2912(3) 0.52113(14)
C11 C 0.4193(3) 0.1983(3) 0.50042(14)
H9 H 0.49580 0.13360 0.56220
C12 C 0.4883(3) 0.1944(3) 0.40506(15)
H10 H 0.60870 0.12810 0.39850
C13 C 0.1550(3) 0.2979(3) 0.62419(15)
C14 C -0.0677(4) 0.3674(3) 0.64294(17)
H11 H -0.10610 0.35990 0.69950
H12 H -0.14610 0.30090 0.61920
H13 H -0.07710 0.47310 0.62030
#END
