
#######################################################################
#
#                 Cambridge Crystallographic Data Centre
#                                CCDC
#
#######################################################################
#
# If this CIF has been generated from an entry in the Cambridge
# Structural Database, then it will include bibliographic, chemical,
# crystal, experimental, refinement or atomic coordinate data resulting
# from the CCDC's data processing and validation procedures.
#
#######################################################################

data_CSD_CIF_QIGTAB
_audit_creation_date 2001-06-04
_audit_creation_method CSD-ConQuest-V1
_database_code_CSD QIGTAB
_database_code_depnum_ccdc_archive 'CCDC 161288'
_chemical_formula_sum 'C14 H13 N3 O1'
_chemical_formula_moiety
;
C14 H13 N3 O1
;
_journal_coden_Cambridge 1147
_journal_volume 1
_journal_year 2001
_journal_page_first 47
_journal_name_full 'Cryst.Growth Des. '
loop_
_publ_author_name
"C.B.Aakeroy"
"A.M.Beatty"
"D.S.Leinen"
_chemical_name_systematic
;
1-(4-((Pyrid-4-ylmethylene)amino)phenyl)ethanone oxime
;
_chemical_name_common
;
4'-((Pyrid-4-ylmethylene)amino)acetophenone oxime
;
_chemical_melting_point 472.15
_cell_volume   1187.364
_exptl_crystal_colour 'pale yellow'
_exptl_crystal_density_diffrn 1.339
_exptl_special_details
;
Melting point range 472.15-476.15K

;
_exptl_crystal_description 'plate'
_exptl_crystal_preparation 'ethyl acetate'
_diffrn_ambient_temperature 173
#These two values have been output from a single CSD field.
_refine_ls_R_factor_gt 0.061
_refine_ls_wR_factor_gt 0.061
_symmetry_cell_setting monoclinic
_symmetry_space_group_name_H-M 'P n'
_symmetry_Int_Tables_number 7
loop_
_symmetry_equiv_pos_site_id
_symmetry_equiv_pos_as_xyz
1 x,y,z
2 1/2+x,-y,1/2+z
_cell_length_a 7.296(2)
_cell_length_b 5.9859(17)
_cell_length_c 27.196(8)
_cell_angle_alpha 90
_cell_angle_beta 91.430(6)
_cell_angle_gamma 90
_cell_formula_units_Z 4
loop_
_atom_type_symbol
_atom_type_radius_bond
C 0.68
H 0.23
N 0.68
O 0.68
loop_
_atom_site_label
_atom_site_type_symbol
_atom_site_fract_x
_atom_site_fract_y
_atom_site_fract_z
O1 O 0.7848(5) 0.9125(6) 0.14376(12)
H1 H 0.83250 0.75930 0.12560
N1 N 0.3453(5) 0.4168(7) 0.57438(14)
N2 N 0.5475(4) 0.7952(6) 0.41787(12)
N3 N 0.7469(5) 0.8474(7) 0.19157(14)
C1 C 0.4133(6) 0.6233(8) 0.56483(17)
H2 H 0.41800 0.72910 0.59090
C2 C 0.4757(6) 0.6881(8) 0.51958(16)
H3 H 0.51730 0.83640 0.51440
C3 C 0.4765(5) 0.5324(8) 0.48183(16)
C4 C 0.4147(6) 0.3201(7) 0.49070(15)
H4 H 0.41780 0.20840 0.46590
C5 C 0.3476(6) 0.2728(8) 0.53699(17)
H5 H 0.29990 0.12740 0.54230
C6 C 0.5335(5) 0.5932(8) 0.43159(16)
H6 H 0.56030 0.47740 0.40900
C7 C 0.5902(5) 0.8422(7) 0.36829(14)
C8 C 0.6858(5) 1.0391(7) 0.35902(15)
H7 H 0.72110 1.13400 0.38560
C9 C 0.7302(5) 1.0980(7) 0.31111(14)
H8 H 0.79580 1.23210 0.30540
C10 C 0.6785(5) 0.9604(7) 0.27135(14)
C11 C 0.5795(5) 0.7654(7) 0.28093(14)
H9 H 0.54010 0.67240 0.25440
C12 C 0.5378(5) 0.7060(7) 0.32912(14)
H10 H 0.47320 0.57130 0.33510
C13 C 0.7253(6) 1.0187(8) 0.22022(15)
C14 C 0.7422(6) 1.2563(8) 0.20547(18)
H11 H 0.77350 1.26480 0.17070
H12 H 0.83880 1.32810 0.22550
H13 H 0.62540 1.33300 0.21050
O2 O -0.0574(4) 1.3915(6) 0.49036(10)
H14 H -0.05870 1.26680 0.51000
N4 N 0.3733(5) 0.9456(7) 0.05759(13)
N5 N 0.2412(4) 1.3245(6) 0.21963(12)
N6 N -0.0089(5) 1.3362(6) 0.44221(12)
C15 C 0.2960(6) 0.7997(7) 0.08778(15)
H15 H 0.27260 0.65270 0.07600
C16 C 0.2481(6) 0.8513(7) 0.13549(14)
H16 H 0.19320 0.74170 0.15560
C17 C 0.2816(5) 1.0664(7) 0.15360(15)
C18 C 0.3645(6) 1.2162(7) 0.12165(15)
H17 H 0.39060 1.36440 0.13210
C19 C 0.4085(6) 1.1492(8) 0.07490(16)
H18 H 0.46670 1.25350 0.05410
C20 C 0.2291(6) 1.1265(8) 0.20297(16)
H19 H 0.18360 1.01280 0.22380
C21 C 0.1880(5) 1.3631(7) 0.26925(14)
C22 C 0.0969(5) 1.5595(7) 0.28012(14)
H20 H 0.06880 1.66240 0.25440
C23 C 0.0461(5) 1.6088(7) 0.32733(14)
H21 H -0.01780 1.74340 0.33390
C24 C 0.0887(5) 1.4601(7) 0.36576(13)
C25 C 0.1826(5) 1.2646(7) 0.35509(14)
H22 H 0.21220 1.16270 0.38090
C26 C 0.2340(5) 1.2157(7) 0.30763(13)
H23 H 0.30020 1.08280 0.30110
C27 C 0.0323(4) 1.5079(7) 0.41734(13)
C28 C 0.0284(6) 1.7448(7) 0.43681(15)
H24 H -0.01310 1.74390 0.47080
H25 H -0.05590 1.83480 0.41640
H26 H 0.15180 1.80910 0.43580
#END
