
#######################################################################
#
#                 Cambridge Crystallographic Data Centre
#                                CCDC
#
#######################################################################
#
# If this CIF has been generated from an entry in the Cambridge
# Structural Database, then it will include bibliographic, chemical,
# crystal, experimental, refinement or atomic coordinate data resulting
# from the CCDC's data processing and validation procedures.
#
#######################################################################

data_CSD_CIF_QIHHAQ
_audit_creation_date 2001-06-05
_audit_creation_method CSD-ConQuest-V1
_database_code_CSD QIHHAQ
_database_code_depnum_ccdc_archive 'CCDC 161149'
_database_code_depnum_ccdc_journal 188/284
_chemical_formula_sum 'C13 H14 N2 O3'
_chemical_formula_moiety
;
C13 H14 N2 O3
;
_journal_coden_Cambridge 188
_journal_year 2001
_journal_page_first 373
_journal_name_full 'J.Chem.Soc.,Perkin Trans.2 '
loop_
_publ_author_name
"F.Heaney"
"O.Rooney"
"D.Cunningham"
"P.McArdle"
_chemical_name_systematic
;
2,5-dimethyl-3-phenyldihydro-2H-pyrrolo[3,4-d]isoxazole-4,6(3H,5H)-dione
;
_chemical_melting_point 415.15
_cell_volume   1222.910
_exptl_crystal_colour 'colorless'
_exptl_crystal_density_diffrn 1.338
_exptl_special_details
;
Melting point range 415.15-416.15K

;
_exptl_crystal_description 'cubic'
_exptl_crystal_preparation 'diethyl ether/petroleum spirit'
_diffrn_ambient_temperature ?
_diffrn_special_details
;
The study was carried out at room temperature,in the range 283-303K

;
#These two values have been output from a single CSD field.
_refine_ls_R_factor_gt 0.053
_refine_ls_wR_factor_gt 0.053
_symmetry_cell_setting monoclinic
_symmetry_space_group_name_H-M 'P 21/n'
_symmetry_Int_Tables_number 14
loop_
_symmetry_equiv_pos_site_id
_symmetry_equiv_pos_as_xyz
1 x,y,z
2 1/2+x,1/2-y,1/2+z
3 -x,-y,-z
4 -1/2-x,-1/2+y,-1/2-z
_cell_length_a 11.858(2)
_cell_length_b 7.7841(11)
_cell_length_c 13.3660(11)
_cell_angle_alpha 90.000(9)
_cell_angle_beta 97.595(11)
_cell_angle_gamma 90.000(13)
_cell_formula_units_Z 4
loop_
_atom_type_symbol
_atom_type_radius_bond
C 0.68
H 0.23
N 0.68
O 0.68
loop_
_atom_site_label
_atom_site_type_symbol
_atom_site_fract_x
_atom_site_fract_y
_atom_site_fract_z
O1 O 0.11999(13) -0.20563(19) 0.46049(11)
O2 O 0.38844(13) 0.1398(2) 0.35388(12)
O3 O 0.15309(11) 0.25259(16) 0.26734(9)
N1 N 0.08262(13) 0.2501(2) 0.35141(11)
N2 N 0.27411(13) -0.0546(2) 0.42117(12)
C1 C -0.08440(17) 0.1154(2) 0.24061(14)
C2 C -0.0708(2) 0.0894(3) 0.14027(16)
H1 H -0.00100 0.05280 0.12360
C3 C -0.1604(4) 0.1176(4) 0.0649(2)
H2 H -0.15040 0.09990 -0.00220
C4 C -0.2633(3) 0.1712(4) 0.0881(3)
H3 H -0.32300 0.19030 0.03680
C5 C -0.2790(2) 0.1969(3) 0.1866(2)
H4 H -0.34940 0.23270 0.20240
C6 C -0.18965(19) 0.1693(3) 0.26234(18)
H5 H -0.20050 0.18740 0.32920
C7 C 0.01146(16) 0.0951(2) 0.32593(13)
H6 H -0.02090 0.05910 0.38640
C8 C 0.02289(18) 0.4133(3) 0.34576(17)
H7 H -0.01130 0.43340 0.27760
H8 H 0.07570 0.50400 0.36660
H9 H -0.03530 0.41050 0.38940
C9 C 0.10474(15) -0.0320(2) 0.30790(12)
H10 H 0.07700 -0.11990 0.25810
C10 C 0.19605(17) 0.0822(2) 0.27095(14)
H11 H 0.21330 0.04510 0.20460
C11 C 0.29910(18) 0.0638(3) 0.35056(15)
C12 C 0.16236(17) -0.1100(2) 0.40468(14)
C13 C 0.3555(2) -0.1079(3) 0.50625(18)
H12 H 0.36050 -0.02130 0.55780
H13 H 0.42880 -0.12330 0.48450
H14 H 0.33110 -0.21420 0.53270
#END
