
#######################################################################
#
#                 Cambridge Crystallographic Data Centre
#                                CCDC
#
#######################################################################
#
# If this CIF has been generated from an entry in the Cambridge
# Structural Database, then it will include bibliographic, chemical,
# crystal, experimental, refinement or atomic coordinate data resulting
# from the CCDC's data processing and validation procedures.
#
#######################################################################

data_CSD_CIF_QIHHEU
_audit_creation_date 2001-06-05
_audit_creation_method CSD-ConQuest-V1
_database_code_CSD QIHHEU
_database_code_depnum_ccdc_archive 'CCDC 158143'
_database_code_depnum_ccdc_journal 207/509
_chemical_formula_sum 'C24 H28 N4 O7'
_chemical_formula_moiety
;
C24 H28 N4 O7
;
_journal_coden_Cambridge 207
_journal_year 2001
_journal_page_first 622
_journal_name_full 'J.Chem.Soc.,Perkin Trans.1 '
loop_
_publ_author_name
"F.Heaney"
"C.Burke"
"D.Cunningham"
"P.McArdle"
_chemical_name_systematic
;
Methyl 
5-benzyl-1,3-dimethoxy-7-(2-methoxy-2-oxoethyl)-11a-methyl-5,6,7,11a-tetrahydr
oisoxazolo[2,3-d]pyrimido[5,4-f]-[1,4]diazepine-11-carboxylate
;
_cell_volume   1237.142
_exptl_crystal_density_diffrn 1.301
_exptl_crystal_preparation 'hexane/diethyl ether'
_diffrn_ambient_temperature ?
_diffrn_special_details
;
The study was carried out at room temperature,in the range 283-303K

;
#These two values have been output from a single CSD field.
_refine_ls_R_factor_gt 0.0836
_refine_ls_wR_factor_gt 0.0836
_symmetry_cell_setting triclinic
_symmetry_space_group_name_H-M 'P -1'
_symmetry_Int_Tables_number 2
loop_
_symmetry_equiv_pos_site_id
_symmetry_equiv_pos_as_xyz
1 x,y,z
2 -x,-y,-z
_cell_length_a 10.628(5)
_cell_length_b 11.108(3)
_cell_length_c 11.442(5)
_cell_angle_alpha 71.62(3)
_cell_angle_beta 74.82(4)
_cell_angle_gamma 85.00(3)
_cell_formula_units_Z 2
loop_
_atom_type_symbol
_atom_type_radius_bond
C 0.68
H 0.23
N 0.68
O 0.68
loop_
_atom_site_label
_atom_site_type_symbol
_atom_site_fract_x
_atom_site_fract_y
_atom_site_fract_z
N1 N 0.3883(2) 0.4800(2) 0.2001(3)
N2 N 0.1658(2) 0.2862(2) 0.2461(3)
N3 N 0.5848(2) 0.3747(2) 0.2059(2)
N4 N 0.5979(2) 0.1502(2) 0.2751(3)
O1 O 0.7769(2) 0.2786(2) 0.2124(3)
O2 O 0.4163(2) 0.0290(2) 0.3435(3)
O3 O 0.3565(3) 0.3226(3) 0.5297(3)
O4 O 0.1948(2) 0.4609(2) 0.5563(2)
O5 O 0.0533(2) 0.3604(2) 0.2971(2)
O6 O 0.2229(3) 0.2222(3) -0.0306(3)
O7 O 0.0374(3) 0.3148(3) -0.0664(3)
C1 C 0.4636(3) 0.5976(3) 0.1641(4)
H1 H 0.51720 0.61330 0.07800
H2 H 0.52130 0.58620 0.22000
C2 C 0.3773(3) 0.7113(3) 0.1718(4)
C3 C 0.3936(4) 0.8196(3) 0.0710(4)
H3 H 0.45570 0.82070 -0.00370
C4 C 0.3204(5) 0.9273(4) 0.0769(5)
H4 H 0.33090 0.99870 0.00580
C5 C 0.2328(5) 0.9291(4) 0.1869(5)
H5 H 0.18650 1.00290 0.19280
C6 C 0.2135(4) 0.8215(4) 0.2888(5)
H6 H 0.15080 0.82110 0.36290
C7 C 0.2868(4) 0.7129(3) 0.2825(4)
H7 H 0.27490 0.64090 0.35310
C8 C 0.2865(3) 0.4952(3) 0.1304(3)
H8 H 0.32090 0.54840 0.04400
H9 H 0.21360 0.54030 0.16920
C9 C 0.2352(3) 0.3739(3) 0.1250(3)
H10 H 0.31100 0.32770 0.09010
C10 C 0.2405(3) 0.2488(3) 0.3473(3)
C11 C 0.3871(3) 0.2498(3) 0.2913(3)
C12 C 0.4545(3) 0.3671(3) 0.2304(3)
C13 C 0.6471(3) 0.2660(3) 0.2331(3)
C14 C 0.8517(4) 0.1644(4) 0.2448(5)
H11 H 0.81780 0.11770 0.33250
H12 H 0.94110 0.18570 0.23110
H13 H 0.84610 0.11350 0.19230
C15 C 0.4689(3) 0.1449(3) 0.3008(3)
C16 C 0.5015(4) -0.0803(3) 0.3602(5)
H14 H 0.54870 -0.08680 0.27860
H15 H 0.45050 -0.15550 0.40690
H16 H 0.56180 -0.07140 0.40640
C17 C 0.1834(3) 0.1216(3) 0.4404(3)
H17 H 0.09110 0.13080 0.47160
H18 H 0.22370 0.09640 0.51040
H19 H 0.19960 0.05810 0.39740
C18 C 0.2582(3) 0.3725(3) 0.5059(3)
C19 C 0.2564(5) 0.4985(5) 0.6379(5)
H20 H 0.27780 0.42430 0.70030
H21 H 0.19780 0.55140 0.67980
H22 H 0.33460 0.54460 0.58770
C20 C 0.1957(3) 0.3486(3) 0.4160(3)
C21 C 0.1494(3) 0.4064(3) 0.0319(3)
H23 H 0.06170 0.42390 0.07540
H24 H 0.18200 0.48290 -0.03610
C22 C 0.1444(4) 0.3038(3) -0.0238(3)
C23 C 0.0220(7) 0.2232(6) -0.1259(8)
H25 H 0.07540 0.24620 -0.21140
H26 H -0.06770 0.22090 -0.12720
H27 H 0.04790 0.14100 -0.07900
C24 C 0.0869(3) 0.3999(3) 0.3856(3)
H28 H 0.03760 0.45830 0.42190
#END
