
#######################################################################
#
#                 Cambridge Crystallographic Data Centre
#                                CCDC
#
#######################################################################
#
# If this CIF has been generated from an entry in the Cambridge
# Structural Database, then it will include bibliographic, chemical,
# crystal, experimental, refinement or atomic coordinate data resulting
# from the CCDC's data processing and validation procedures.
#
#######################################################################

data_CSD_CIF_QIHRUU
_audit_creation_date 2001-06-05
_audit_creation_method CSD-ConQuest-V1
_database_code_CSD QIHRUU
_database_code_depnum_ccdc_archive 'CCDC 161370'
_database_code_depnum_ccdc_journal 1267/485
_chemical_formula_sum 'C12 H15 N1 O4'
_chemical_formula_moiety
;
C12 H15 N1 O4
;
_journal_coden_Cambridge 1267
_journal_volume 216
_journal_year 2001
_journal_page_first 95
_journal_name_full 'Z.Kristallogr.-New Cryst.Struct. '
loop_
_publ_author_name
"W.Frey"
"P.Hilgers"
"V.Jager"
_chemical_name_systematic
;
(3aS,4R,5S,6R,6aS)-4,5,6-trihydroxy-1-phenyl-3,3a,4,5,6,6a-hexahydro-1H-cyclop
enta(1,2-c)isoxazole
;
_chemical_melting_point 438
_cell_volume   1140.668
_exptl_crystal_colour 'colorless'
_exptl_crystal_density_diffrn 1.382
_exptl_crystal_description 'block'
_exptl_crystal_preparation 'methanol'
_diffrn_ambient_temperature ?
_diffrn_special_details
;
The study was carried out at room temperature,in the range 283-303K

;
#These two values have been output from a single CSD field.
_refine_ls_R_factor_gt 0.0391
_refine_ls_wR_factor_gt 0.0391
_symmetry_cell_setting orthorhombic
_symmetry_space_group_name_H-M 'P 21 21 21'
_symmetry_Int_Tables_number 19
loop_
_symmetry_equiv_pos_site_id
_symmetry_equiv_pos_as_xyz
1 x,y,z
2 1/2-x,-y,1/2+z
3 -x,1/2+y,1/2-z
4 1/2+x,1/2-y,-z
_cell_length_a 5.7551(7)
_cell_length_b 5.7518(8)
_cell_length_c 34.459(5)
_cell_angle_alpha 90
_cell_angle_beta 90
_cell_angle_gamma 90
_cell_formula_units_Z 4
loop_
_atom_type_symbol
_atom_type_radius_bond
C 0.68
H 0.23
N 0.68
O 0.68
loop_
_atom_site_label
_atom_site_type_symbol
_atom_site_fract_x
_atom_site_fract_y
_atom_site_fract_z
O1 O 0.2741(3) 0.3152(3) 0.87758(4)
C1 C 0.2688(3) -0.0620(3) 0.85128(5)
H1 H 0.2527(3) -0.2132(3) 0.86412(5)
N1 N 0.4069(3) 0.1040(3) 0.87460(4)
O2 O 0.2848(3) -0.2827(2) 0.79195(4)
H2 H 0.3771(22) -0.3273(30) 0.7754(6)
C2 C 0.3768(3) -0.0832(3) 0.81112(5)
H3 H 0.5468(3) -0.0890(3) 0.81251(5)
O3 O 0.3281(3) 0.1406(3) 0.75028(4)
H4 H 0.2449(41) 0.0424(38) 0.74008(10)
C3 C 0.2930(3) 0.1378(3) 0.79113(5)
H5 H 0.3771(3) 0.2698(3) 0.80235(5)
O4 O -0.0553(3) 0.3854(3) 0.79911(5)
H6 H 0.0457(16) 0.4813(3) 0.8042(9)
C4 C 0.0374(3) 0.1571(3) 0.80316(5)
H7 H -0.0534(3) 0.0523(3) 0.78663(5)
C5 C 0.0307(3) 0.0605(4) 0.84538(5)
H8 H -0.0988(3) -0.0480(4) 0.84900(5)
C6 C 0.0354(4) 0.2425(5) 0.87672(6)
H9 H -0.0663(4) 0.3715(5) 0.87037(6)
H10 H -0.0114(4) 0.1775(5) 0.90150(6)
C7 C 0.4936(3) 0.0294(4) 0.91119(5)
C8 C 0.6062(4) -0.1842(4) 0.91368(6)
H11 H 0.6046(4) -0.2857(4) 0.89267(6)
C9 C 0.7213(5) -0.2457(5) 0.94773(7)
H12 H 0.8005(5) -0.3864(5) 0.94905(7)
C10 C 0.7189(5) -0.0995(5) 0.97958(7)
H13 H 0.7948(5) -0.1417(5) 1.00234(7)
C11 C 0.6030(5) 0.1088(5) 0.97721(7)
H14 H 0.5996(5) 0.2066(5) 0.99868(7)
C12 C 0.4906(4) 0.1761(4) 0.94329(6)
H15 H 0.4139(4) 0.3182(4) 0.94208(6)
#END
