
#######################################################################
#
#                 Cambridge Crystallographic Data Centre
#                                CCDC
#
#######################################################################
#
# If this CIF has been generated from an entry in the Cambridge
# Structural Database, then it will include bibliographic, chemical,
# crystal, experimental, refinement or atomic coordinate data resulting
# from the CCDC's data processing and validation procedures.
#
#######################################################################

data_CSD_CIF_QIHRII
_audit_creation_date 2001-06-05
_audit_creation_method CSD-ConQuest-V1
_database_code_CSD QIHRII
_database_code_depnum_ccdc_archive 'CCDC 161368'
_database_code_depnum_ccdc_journal 1267/483
_chemical_formula_sum 'C19 H23 N1 O7'
_chemical_formula_moiety
;
C19 H23 N1 O7
;
_journal_coden_Cambridge 1267
_journal_volume 216
_journal_year 2001
_journal_page_first 91
_journal_name_full 'Z.Kristallogr.-New Cryst.Struct. '
loop_
_publ_author_name
"W.Frey"
"P.Hilgers"
"M.Kleban"
"V.Jager"
_chemical_name_systematic
;
(3aR,4R,5S,6S,6aR)-4,5,6-triacetoxy-1-benzyl-3,3a,4,5,6,6a-hexahydro-1H-cyclop
enta(1,2-c)isoxazole
;
_chemical_melting_point 381
_cell_volume   1966.996
_exptl_crystal_colour 'colorless'
_exptl_crystal_density_diffrn 1.274
_exptl_special_details
;
Melting point range 381-383K

;
_exptl_crystal_description 'block'
_exptl_crystal_preparation 'methanol'
_diffrn_ambient_temperature ?
_diffrn_special_details
;
The study was carried out at room temperature,in the range 283-303K

;
_refine_special_details
;
H atom on C15 are disordered equally over two positions.

;
#These two values have been output from a single CSD field.
_refine_ls_R_factor_gt 0.0585
_refine_ls_wR_factor_gt 0.0585
loop_
_citation_database_id_CSD
_citation_special_details
GOLJIA "is a stereoisomer of this entry"
_symmetry_cell_setting orthorhombic
_symmetry_space_group_name_H-M 'P 21 21 21'
_symmetry_Int_Tables_number 19
loop_
_symmetry_equiv_pos_site_id
_symmetry_equiv_pos_as_xyz
1 x,y,z
2 1/2-x,-y,1/2+z
3 -x,1/2+y,1/2-z
4 1/2+x,1/2-y,-z
_cell_length_a 9.854(3)
_cell_length_b 13.353(3)
_cell_length_c 14.949(3)
_cell_angle_alpha 90
_cell_angle_beta 90
_cell_angle_gamma 90
_cell_formula_units_Z 4
loop_
_atom_type_symbol
_atom_type_radius_bond
C 0.68
H 0.23
N 0.68
O 0.68
loop_
_atom_site_label
_atom_site_type_symbol
_atom_site_fract_x
_atom_site_fract_y
_atom_site_fract_z
O1 O 0.3937(3) 0.0126(2) 0.5626(2)
N1 N 0.2702(3) -0.0286(3) 0.5250(2)
C1 C 0.4066(4) 0.1124(4) 0.5273(4)
H1 H 0.4477(4) 0.1110(4) 0.4683(4)
H2 H 0.4620(4) 0.1535(4) 0.5663(4)
O2 O 0.1972(3) 0.3220(2) 0.5805(2)
C2 C 0.2611(4) 0.1533(3) 0.5223(3)
H3 H 0.2443(4) 0.1877(3) 0.4655(3)
O3 O 0.4199(3) 0.3490(2) 0.5861(3)
C3 C 0.2183(4) 0.2180(3) 0.6026(3)
H4 H 0.2843(4) 0.2116(3) 0.6513(3)
O4 O 0.0498(3) 0.2054(2) 0.7204(2)
C4 C 0.0830(4) 0.1752(3) 0.6303(2)
H5 H 0.0121(4) 0.1975(3) 0.5890(2)
C5 C 0.1054(3) 0.0634(3) 0.6206(3)
H6 H 0.1648(3) 0.0385(3) 0.6683(3)
O5 O -0.1685(3) 0.2182(4) 0.6841(3)
O6 O -0.0199(2) 0.0078(2) 0.6190(2)
C6 C 0.1761(4) 0.0556(3) 0.5299(3)
H7 H 0.1091(4) 0.0519(3) 0.4816(3)
O7 O -0.0119(4) -0.0162(3) 0.7674(2)
C7 C 0.2987(5) -0.0580(4) 0.4305(3)
H8 H 0.3802(5) -0.0986(4) 0.4285(3)
H9 H 0.3145(5) 0.0017(4) 0.3951(3)
C8 C 0.1826(5) -0.1159(4) 0.3911(3)
C9 C 0.1122(8) -0.0784(7) 0.3185(5)
H10 H 0.1346(8) -0.0157(7) 0.2958(5)
C10 C 0.0107(14) -0.1319(13) 0.2797(10)
H11 H -0.0350(14) -0.1059(13) 0.2305(10)
C11 C -0.0234(15) -0.2207(13) 0.3117(12)
H12 H -0.0912(15) -0.2573(13) 0.2834(12)
C12 C 0.0387(8) -0.2594(7) 0.3850(7)
H13 H 0.0116(8) -0.3207(7) 0.4084(7)
C13 C 0.1431(6) -0.2057(4) 0.4243(4)
H14 H 0.1868(6) -0.2317(4) 0.4743(4)
C14 C 0.3076(5) 0.3805(3) 0.5767(3)
C15 C 0.2690(5) 0.4871(3) 0.5602(3)
H15 H 0.1721(5) 0.4921(3) 0.5552(3)
H16 H 0.3103(5) 0.5097(3) 0.5057(3)
H17 H 0.2998(5) 0.5278(3) 0.6090(3)
C16 C -0.0802(4) 0.2240(4) 0.7390(3)
C17 C -0.0982(5) 0.2493(4) 0.8363(3)
H18 H -0.0114(5) 0.2490(4) 0.8655(3)
H19 H -0.1563(5) 0.2005(4) 0.8639(3)
H20 H -0.1384(5) 0.3145(4) 0.8417(3)
C18 C -0.0683(4) -0.0250(3) 0.6975(3)
C19 C -0.2045(5) -0.0737(4) 0.6851(3)
H21 H -0.2289(5) -0.0719(4) 0.6230(3)
H22 H -0.2713(5) -0.0383(4) 0.7195(3)
H23 H -0.2001(5) -0.1420(4) 0.7049(3)
H24? H 0.3493(5) 0.5277(3) 0.5581(3)
H25? H 0.2111(5) 0.5100(3) 0.6076(3)
H26? H 0.2217(5) 0.4920(3) 0.5042(3)
#END
