
#######################################################################
#
#                 Cambridge Crystallographic Data Centre
#                                CCDC
#
#######################################################################
#
# If this CIF has been generated from an entry in the Cambridge
# Structural Database, then it will include bibliographic, chemical,
# crystal, experimental, refinement or atomic coordinate data resulting
# from the CCDC's data processing and validation procedures.
#
#######################################################################

data_CSD_CIF_QIHROO
_audit_creation_date 2001-06-05
_audit_creation_method CSD-ConQuest-V1
_database_code_CSD QIHROO
_database_code_depnum_ccdc_archive 'CCDC 161369'
_database_code_depnum_ccdc_journal 1267/484
_chemical_formula_sum 'C18 H21 N1 O7'
_chemical_formula_moiety
;
C18 H21 N1 O7
;
_journal_coden_Cambridge 1267
_journal_volume 216
_journal_year 2001
_journal_page_first 93
_journal_name_full 'Z.Kristallogr.-New Cryst.Struct. '
loop_
_publ_author_name
"W.Frey"
"P.Hilgers"
"V.Jager"
_chemical_name_systematic
;
(3aS,4R,5S,6R,6aS)-4,5,6-triacetoxy-1-phenyl-3,3a,4,5,6,6a-hexahydro-1H-cyclop
enta(1,2-c)isoxazole
;
_chemical_melting_point 392
_cell_volume    908.070
_exptl_crystal_colour 'colorless'
_exptl_crystal_density_diffrn 1.329
_exptl_crystal_description 'block'
_exptl_crystal_preparation 'methanol'
_diffrn_ambient_temperature ?
_diffrn_special_details
;
The study was carried out at room temperature,in the range 283-303K

;
_refine_special_details
;
The H atoms of all the methyl groups show a rotational disorder with six 
equivalent H positions.
;
#These two values have been output from a single CSD field.
_refine_ls_R_factor_gt 0.0376
_refine_ls_wR_factor_gt 0.0376
_symmetry_cell_setting monoclinic
_symmetry_space_group_name_H-M 'P 21'
_symmetry_Int_Tables_number 4
loop_
_symmetry_equiv_pos_site_id
_symmetry_equiv_pos_as_xyz
1 x,y,z
2 -x,1/2+y,-z
_cell_length_a 9.5652(11)
_cell_length_b 7.5975(11)
_cell_length_c 12.4961(14)
_cell_angle_alpha 90
_cell_angle_beta 90.552(9)
_cell_angle_gamma 90
_cell_formula_units_Z 2
loop_
_atom_type_symbol
_atom_type_radius_bond
C 0.68
H 0.23
N 0.68
O 0.68
loop_
_atom_site_label
_atom_site_type_symbol
_atom_site_fract_x
_atom_site_fract_y
_atom_site_fract_z
O1 O 0.9029(2) 0.2976(4) 0.0807(2)
N1 N 0.7719(2) 0.3561(3) 0.0374(2)
C1 C 0.8782(3) 0.1206(6) 0.1141(3)
H1 H 0.9509(3) 0.0811(6) 0.1632(3)
H2 H 0.8748(3) 0.0417(6) 0.0531(3)
O2 O 0.8755(2) 0.1796(3) 0.3341(2)
C2 C 0.7382(3) 0.1280(4) 0.1691(2)
H3 H 0.6895(3) 0.0147(4) 0.1651(2)
C3 C 0.7396(3) 0.2011(4) 0.2834(2)
H4 H 0.6675(3) 0.1430(4) 0.3260(2)
O3 O 0.7842(3) 0.0664(4) 0.4824(2)
O4 O 0.6555(2) 0.4624(3) 0.3721(2)
C4 C 0.7068(3) 0.3957(4) 0.2722(2)
H5 H 0.7918(3) 0.4595(4) 0.2525(2)
O5 O 0.7112(3) 0.7348(3) 0.3224(2)
C5 C 0.6022(3) 0.4025(4) 0.1800(2)
H6 H 0.5952(3) 0.5206(4) 0.1489(2)
O6 O 0.4703(2) 0.3428(3) 0.22138(15)
C6 C 0.6621(3) 0.2705(4) 0.1016(2)
H7 H 0.5889(3) 0.2191(4) 0.0560(2)
O7 O 0.3685(2) 0.4243(4) 0.0674(2)
C7 C 0.7636(3) 0.3301(4) -0.0753(2)
C8 C 0.6380(4) 0.3719(5) -0.1268(3)
H8 H 0.5627(4) 0.4111(5) -0.0868(3)
C9 C 0.6241(4) 0.3558(5) -0.2360(3)
H9 H 0.5394(4) 0.3820(5) -0.2695(3)
C10 C 0.7358(5) 0.3008(6) -0.2953(3)
H10 H 0.7269(5) 0.2889(6) -0.3692(3)
C11 C 0.8599(5) 0.2637(6) -0.2457(3)
H11 H 0.9356(5) 0.2280(6) -0.2865(3)
C12 C 0.8755(3) 0.2782(5) -0.1357(3)
H12 H 0.9610(3) 0.2531(5) -0.1031(3)
C13 C 0.8830(3) 0.1099(4) 0.4319(2)
C14 C 1.0317(3) 0.0969(6) 0.4688(3)
H13 H 1.0921(3) 0.1403(6) 0.4139(3)
H14 H 1.0541(3) -0.0238(6) 0.4839(3)
H15 H 1.0445(3) 0.1660(6) 0.5325(3)
C15 C 0.6599(3) 0.6377(5) 0.3859(3)
C16 C 0.5929(3) 0.6891(5) 0.4881(3)
H16 H 0.5601(3) 0.5856(5) 0.5241(3)
H17 H 0.5154(3) 0.7660(5) 0.4734(3)
H18 H 0.6599(3) 0.7488(5) 0.5328(3)
C17 C 0.3586(3) 0.3656(4) 0.1551(3)
C18 C 0.2267(3) 0.3091(6) 0.2090(3)
H19 H 0.2484(3) 0.2666(6) 0.2796(3)
H20 H 0.1830(3) 0.2169(6) 0.1681(3)
H21 H 0.1641(3) 0.4075(6) 0.2139(3)
H22? H 1.0350(3) 0.0481(6) 0.5397(3)
H23? H 1.0730(3) 0.2121(6) 0.4696(3)
H24? H 1.0826(3) 0.0223(6) 0.4210(3)
H25? H 0.5969(3) 0.8146(5) 0.4961(3)
H26? H 0.6415(3) 0.6342(5) 0.5468(3)
H27? H 0.4971(3) 0.6515(5) 0.4874(3)
H28? H 0.1486(3) 0.3274(6) 0.1614(3)
H29? H 0.2140(3) 0.3771(6) 0.2729(3)
H30? H 0.2329(3) 0.1865(6) 0.2272(3)
#END
