
#######################################################################
#
#                 Cambridge Crystallographic Data Centre
#                                CCDC
#
#######################################################################
#
# If this CIF has been generated from an entry in the Cambridge
# Structural Database, then it will include bibliographic, chemical,
# crystal, experimental, refinement or atomic coordinate data resulting
# from the CCDC's data processing and validation procedures.
#
#######################################################################

data_CSD_CIF_QIJDAO
_audit_creation_date 2001-06-04
_audit_creation_method CSD-ConQuest-V1
_database_code_CSD QIJDAO
_database_code_depnum_ccdc_archive 'CCDC 162577'
_chemical_formula_sum 'C8 H8 N2 O2'
_chemical_formula_moiety
;
C8 H8 N2 O2
;
_journal_coeditor_code "IUCr GD1117"
_journal_coden_Cambridge 591
_journal_volume 57
_journal_year 2001
_journal_page_first 304
_journal_name_full 'Acta Crystallogr.,Sect.C:Cryst.Struct.Commun. '
loop_
_publ_author_name
"J.Zaleski"
"Z.Daszkiewicz"
"J.B.Kyziol"
_chemical_name_systematic
;
1-Nitroindoline
;
_chemical_melting_point 362.5
_cell_volume    376.060
_exptl_crystal_colour 'colorless'
_exptl_crystal_density_diffrn 1.45
_exptl_special_details
;
Melting point range 362.5-363.5K

;
_exptl_crystal_description 'plates'
_exptl_crystal_preparation 'dichloromethane/n-hexane'
_diffrn_ambient_temperature ?
_diffrn_special_details
;
The study was carried out at room temperature,in the range 283-303K

;
#These two values have been output from a single CSD field.
_refine_ls_R_factor_gt 0.0368
_refine_ls_wR_factor_gt 0.0368
_symmetry_cell_setting triclinic
_symmetry_space_group_name_H-M 'P -1'
_symmetry_Int_Tables_number 2
loop_
_symmetry_equiv_pos_site_id
_symmetry_equiv_pos_as_xyz
1 x,y,z
2 -x,-y,-z
_cell_length_a 5.886(2)
_cell_length_b 8.402(3)
_cell_length_c 8.923(3)
_cell_angle_alpha 116.80(3)
_cell_angle_beta 104.04(3)
_cell_angle_gamma 92.53(3)
_cell_formula_units_Z 2
loop_
_atom_type_symbol
_atom_type_radius_bond
C 0.68
H 0.23
N 0.68
O 0.68
loop_
_atom_site_label
_atom_site_type_symbol
_atom_site_fract_x
_atom_site_fract_y
_atom_site_fract_z
C1 C 0.03253(18) 0.76359(13) 0.46292(13)
C2 C -0.12229(18) 0.70046(14) 0.52725(13)
C3 C -0.0669(2) 0.75623(19) 0.70445(15)
C4 C 0.1423(3) 0.8750(2) 0.81636(16)
C5 C 0.2939(2) 0.93635(18) 0.75082(17)
C6 C 0.2431(2) 0.88204(16) 0.57318(17)
N1 N -0.06979(17) 0.68569(14) 0.28014(12)
C7 C -0.3063(2) 0.57703(19) 0.21843(15)
C8 C -0.3355(2) 0.57295(17) 0.38166(15)
O1 O 0.21270(19) 0.81134(16) 0.22450(14)
O2 O -0.1192(2) 0.65732(15) 0.01832(12)
N2 N 0.0130(2) 0.72110(15) 0.16956(13)
H1 H -0.175(3) 0.716(2) 0.753(2)
H2 H 0.185(3) 0.911(3) 0.936(3)
H3 H 0.439(3) 1.016(2) 0.823(2)
H4 H 0.342(3) 0.920(2) 0.525(2)
H5 H -0.484(3) 0.614(2) 0.401(2)
H6 H -0.414(3) 0.642(2) 0.181(2)
H7 H -0.338(3) 0.448(2) 0.366(2)
H8 H -0.304(3) 0.458(2) 0.126(2)
#END
