
#######################################################################
#
#                 Cambridge Crystallographic Data Centre
#                                CCDC
#
#######################################################################
#
# If this CIF has been generated from an entry in the Cambridge
# Structural Database, then it will include bibliographic, chemical,
# crystal, experimental, refinement or atomic coordinate data resulting
# from the CCDC's data processing and validation procedures.
#
#######################################################################

data_CSD_CIF_QIJDAO01
_audit_creation_date 2011-07-10
_audit_creation_method CSD-ConQuest-V1
_database_code_CSD QIJDAO01
_database_code_depnum_ccdc_archive 'CCDC 830703'
_chemical_formula_sum 'C8 H8 N2 O2'
_chemical_formula_moiety
;
C8 H8 N2 O2
;
_journal_coeditor_code "IUCr PI5008"
_journal_coden_Cambridge 622
_journal_volume 67
_journal_year 2011
_journal_page_first 250
_journal_name_full 'Acta Crystallogr.,Sect.B:Struct.Sci. '
loop_
_publ_author_name
"B.Zarychta"
"J.Zaleski"
"J.Kyziol"
"Z.Daszkiewicz"
"C.Jelsch"
_chemical_name_systematic
;
1-Nitroindoline
;
_cell_volume    362.991
_exptl_crystal_colour 'colorless'
_exptl_crystal_density_diffrn 1.502
_exptl_crystal_description 'irregular'
_diffrn_ambient_temperature 90
#These two values have been output from a single CSD field.
_refine_ls_R_factor_gt 0.0211
_refine_ls_wR_factor_gt 0.0211
loop_
_citation_database_id_CSD
_citation_special_details
QIJDAO02 "is a reinterpretation of this cif"
_symmetry_cell_setting triclinic
_symmetry_space_group_name_H-M 'P -1'
_symmetry_Int_Tables_number 2
loop_
_symmetry_equiv_pos_site_id
_symmetry_equiv_pos_as_xyz
1 x,y,z
2 -x,-y,-z
_cell_length_a 5.7913(3)
_cell_length_b 8.2458(6)
_cell_length_c 8.9223(10)
_cell_angle_alpha 116.823(8)
_cell_angle_beta 104.589(9)
_cell_angle_gamma 91.602(5)
_cell_formula_units_Z 2
loop_
_atom_type_symbol
_atom_type_radius_bond
C 0.68
H 0.23
N 0.68
O 0.68
loop_
_atom_site_label
_atom_site_type_symbol
_atom_site_fract_x
_atom_site_fract_y
_atom_site_fract_z
O1 O 0.78192(5) 1.08684(3) 0.27352(4)
O2 O 1.11924(5) 1.13974(3) 0.48239(3)
N1 N 1.06725(3) 0.90148(2) 0.22094(2)
N2 N 0.98503(3) 1.05034(2) 0.33008(2)
C1 C 0.96755(3) 0.79791(2) 0.03622(2)
C2 C 1.12758(3) 0.67051(2) -0.02713(2)
C3 C 1.07498(3) 0.54989(2) -0.20611(2)
C4 C 0.86148(3) 0.55753(3) -0.32114(2)
C5 C 0.70391(3) 0.68537(3) -0.25621(2)
C6 C 0.75379(3) 0.80809(2) -0.07582(2)
C7 C 1.34213(3) 0.68715(2) 0.12131(2)
C8 C 1.30992(3) 0.85638(3) 0.28538(2)
H1 H 1.1918(8) 0.4520(6) -0.2576(6)
H2 H 0.8181(9) 0.4646(6) -0.4610(3)
H3 H 0.5412(6) 0.6893(7) -0.3457(5)
H4 H 0.6344(7) 0.9046(6) -0.0270(6)
H5 H 1.5142(4) 0.7031(8) 0.0973(5)
H6 H 1.3436(9) 0.5621(4) 0.1343(6)
H7 H 1.3134(10) 0.8371(8) 0.3989(5)
H8 H 1.4406(8) 0.9817(5) 0.3418(7)
#END
