
#######################################################################
#
#                 Cambridge Crystallographic Data Centre
#                                CCDC
#
#######################################################################
#
# If this CIF has been generated from an entry in the Cambridge
# Structural Database, then it will include bibliographic, chemical,
# crystal, experimental, refinement or atomic coordinate data resulting
# from the CCDC's data processing and validation procedures.
#
#######################################################################

data_CSD_CIF_QIJDIW
_audit_creation_date 2001-06-05
_audit_creation_method CSD-ConQuest-V1
_database_code_CSD QIJDIW
_database_code_depnum_ccdc_archive 'CCDC 162579'
_chemical_formula_sum 'C29 H29 N1 O9'
_chemical_formula_moiety
;
C29 H29 N1 O9
;
_journal_coeditor_code "IUCr SK1434"
_journal_coden_Cambridge 591
_journal_volume 57
_journal_year 2001
_journal_page_first 309
_journal_name_full 'Acta Crystallogr.,Sect.C:Cryst.Struct.Commun. '
loop_
_publ_author_name
"O.Renaudet"
"P.Dumy"
"C.Philouze"
_chemical_name_systematic
;
Methyl 2,3,6-tri-O-benzoyl-4-deoxy-4-methoxyamino-\a-D-glucopyranoside
;
_chemical_melting_point 396
_cell_volume   1384.937
_exptl_crystal_colour 'colorless'
_exptl_crystal_density_diffrn 1.284
_exptl_crystal_description 'monoclinic prism'
_exptl_crystal_preparation 'diethyl ether/petroleum ether'
_diffrn_ambient_temperature ?
_diffrn_special_details
;
The study was carried out at room temperature,in the range 283-303K

;
#These two values have been output from a single CSD field.
_refine_ls_R_factor_gt 0.04
_refine_ls_wR_factor_gt 0.04
_symmetry_cell_setting monoclinic
_symmetry_space_group_name_H-M 'P 21'
_symmetry_Int_Tables_number 4
loop_
_symmetry_equiv_pos_site_id
_symmetry_equiv_pos_as_xyz
1 x,y,z
2 -x,1/2+y,-z
_cell_length_a 8.026(2)
_cell_length_b 12.359(3)
_cell_length_c 14.056(3)
_cell_angle_alpha 90
_cell_angle_beta 96.63(2)
_cell_angle_gamma 90
_cell_formula_units_Z 2
loop_
_atom_type_symbol
_atom_type_radius_bond
C 0.68
H 0.23
N 0.68
O 0.68
loop_
_atom_site_label
_atom_site_type_symbol
_atom_site_fract_x
_atom_site_fract_y
_atom_site_fract_z
O1 O 0.5814(1) 0.22680 0.54634(9)
O2 O 0.3181(2) 0.1688(1) 0.41260(9)
O3 O 0.0850(1) 0.3243(1) 0.46179(8)
O4 O 0.2644(2) 0.5096(1) 0.6053(1)
O5 O 0.4243(2) 0.1894(1) 0.67208(9)
O6 O 0.2258(2) 0.2590(1) 0.81754(9)
O7 O 0.2091(2) 0.0041(1) 0.4192(1)
O8 O 0.2176(2) 0.4078(2) 0.3499(1)
O9 O 0.2720(3) 0.3301(2) 0.9620(1)
N1 N 0.1551(2) 0.4329(2) 0.6445(1)
C1 C 0.4522(3) 0.1654(2) 0.5771(1)
C2 C 0.2928(2) 0.1888(2) 0.5107(1)
C3 C 0.2428(2) 0.3051(2) 0.5202(1)
C4 C 0.2167(2) 0.3263(2) 0.6238(1)
C5 C 0.3794(2) 0.2999(2) 0.6870(1)
C6 C 0.3719(3) 0.3175(2) 0.7915(1)
C7 C 0.7427(3) 0.2016(2) 0.5953(2)
C8 C 0.2657(2) 0.0737(2) 0.3738(1)
C9 C 0.2868(2) 0.0672(2) 0.2716(1)
C10 C 0.3621(3) 0.1485(2) 0.2250(1)
C11 C 0.3851(3) 0.1371(2) 0.1300(2)
C12 C 0.3311(3) 0.0472(3) 0.0814(2)
C13 C 0.2542(3) -0.0332(2) 0.1261(2)
C14 C 0.2326(3) -0.0244(2) 0.2212(2)
C15 C 0.0904(2) 0.3769(2) 0.3779(1)
C16 C -0.0787(2) 0.3888(2) 0.3238(1)
C17 C -0.2247(2) 0.3869(2) 0.3665(1)
C18 C -0.3773(3) 0.3985(2) 0.3117(2)
C19 C -0.3855(3) 0.4098(3) 0.2156(2)
C20 C -0.2420(4) 0.4085(4) 0.1723(2)
C21 C -0.0898(3) 0.4006(3) 0.2265(2)
C22 C 0.2431(3) 0.6103(2) 0.6494(2)
C23 C 0.1875(3) 0.2736(2) 0.9056(2)
C24 C 0.0341(3) 0.2145(2) 0.9234(2)
C25 C -0.0146(4) 0.2180(3) 1.0146(2)
C26 C -0.1551(4) 0.1584(4) 1.0330(2)
C27 C -0.2445(4) 0.1023(4) 0.9636(3)
C28 C -0.1994(4) 0.1008(4) 0.8735(3)
C29 C -0.0588(4) 0.1556(3) 0.8544(2)
H1 H 0.47570 0.08170 0.58070
H2 H 0.19310 0.13950 0.52800
H3 H 0.32390 0.35570 0.49900
H4 H 0.12940 0.26870 0.64330
H5 H 0.47370 0.35070 0.66840
H6 H 0.47610 0.27740 0.82760
H7 H 0.34540 0.39720 0.80440
H8 H 0.74860 0.22590 0.66000
H9 H 0.76030 0.12540 0.59540
H10 H 0.82880 0.23600 0.56470
H11 H 0.39690 0.21290 0.25870
H12 H 0.43870 0.19340 0.09800
H13 H 0.34550 0.03980 0.01540
H14 H 0.21360 -0.09620 0.09140
H15 H 0.17860 -0.08170 0.25320
H16 H -0.21820 0.37710 0.43420
H17 H -0.47790 0.39790 0.34190
H18 H -0.49030 0.41960 0.17780
H19 H -0.24420 0.41580 0.10400
H20 H 0.01270 0.40420 0.19760
H21 H 0.05520 0.43920 0.60740
H22 H 0.25620 0.60160 0.71770
H23 H 0.32000 0.66130 0.63140
H24 H 0.12900 0.63720 0.63110
H25 H 0.04920 0.26340 1.06300
H26 H -0.18330 0.16230 1.09790
H27 H -0.33950 0.06540 0.97970
H28 H -0.25940 0.05750 0.82600
H29 H -0.02080 0.15350 0.79270
#END
