
#######################################################################
#
#                 Cambridge Crystallographic Data Centre
#                                CCDC
#
#######################################################################
#
# If this CIF has been generated from an entry in the Cambridge
# Structural Database, then it will include bibliographic, chemical,
# crystal, experimental, refinement or atomic coordinate data resulting
# from the CCDC's data processing and validation procedures.
#
#######################################################################

data_CSD_CIF_QIJMIH
_audit_creation_date 2013-10-24
_audit_creation_method CSD-ConQuest-V1
_database_code_CSD QIJMIH
_database_code_depnum_ccdc_archive 'CCDC 961996'
_chemical_formula_sum 'C15 H13 N3 O2'
_chemical_formula_moiety
;
C15 H13 N3 O2
;
_journal_coeditor_code "IUCr cu3041"
_journal_coden_Cambridge 591
_journal_volume 69
_journal_year 2013
_journal_page_first 1383
_journal_name_full 'Acta Crystallogr.,Sect.C:Cryst.Struct.Commun. '
loop_
_publ_author_name
"C.B.Wade"
"D.K.Mohanty"
"P.J.Squattrito"
"N.J.Amato"
"K.Kirschbaum"
_chemical_name_systematic
;
5-Nitro-2-((2-phenylethyl)amino)benzonitrile
;
_chemical_melting_point 427
_cell_volume   1317.001
_exptl_crystal_colour 'yellow'
_exptl_crystal_density_diffrn 1.348
_exptl_crystal_description 'parallelepiped'
_diffrn_ambient_temperature 100
#These two values have been output from a single CSD field.
_refine_ls_R_factor_gt 0.0378
_refine_ls_wR_factor_gt 0.0378
_symmetry_cell_setting monoclinic
_symmetry_space_group_name_H-M 'P 21/n'
_symmetry_Int_Tables_number 14
loop_
_symmetry_equiv_pos_site_id
_symmetry_equiv_pos_as_xyz
1 x,y,z
2 1/2-x,1/2+y,1/2-z
3 -x,-y,-z
4 -1/2+x,-1/2-y,-1/2+z
_cell_length_a 7.4871(5)
_cell_length_b 16.270(1)
_cell_length_c 10.8432(7)
_cell_angle_alpha 90
_cell_angle_beta 94.384(1)
_cell_angle_gamma 90
_cell_formula_units_Z 4
loop_
_atom_type_symbol
_atom_type_radius_bond
C 0.68
H 0.23
N 0.68
O 0.68
loop_
_atom_site_label
_atom_site_type_symbol
_atom_site_fract_x
_atom_site_fract_y
_atom_site_fract_z
O1 O 0.28684(9) 0.12353(4) 0.29556(6)
O2 O 0.10504(8) 0.03747(4) 0.37421(6)
N1 N 0.65662(8) 0.09507(4) 0.83376(6)
H1 H 0.6214(19) 0.0666(9) 0.8948(14)
N2 N 0.33192(10) -0.05113(4) 0.89432(7)
N3 N 0.23997(8) 0.08139(4) 0.38232(6)
C1 C 0.55906(9) 0.09106(4) 0.72443(6)
C2 C 0.40849(9) 0.03712(4) 0.70702(6)
C3 C 0.30296(9) 0.03411(4) 0.59568(7)
H2 H 0.2029(15) -0.0007(7) 0.5865(11)
C4 C 0.34763(9) 0.08426(4) 0.49902(6)
C5 C 0.49621(10) 0.13679(5) 0.51165(7)
H3 H 0.5272(16) 0.1712(8) 0.4445(11)
C6 C 0.59954(10) 0.13990(5) 0.62209(7)
H4 H 0.6992(17) 0.1754(8) 0.6296(12)
C7 C 0.80953(9) 0.14949(5) 0.86030(7)
H5 H 0.7833(16) 0.2054(7) 0.8259(11)
H6 H 0.8227(16) 0.1545(8) 0.9503(12)
C8 C 0.98355(10) 0.11550(5) 0.81298(8)
H7 H 0.9959(18) 0.0584(8) 0.8430(13)
H8 H 0.9744(18) 0.1137(8) 0.7233(13)
C9 C 1.14367(9) 0.16670(5) 0.85827(7)
C10 C 1.22232(10) 0.15533(5) 0.97834(7)
H9 H 1.1749(18) 0.1134(8) 1.0314(13)
C11 C 1.36857(10) 0.20255(5) 1.02246(7)
H10 H 1.4201(18) 0.1936(8) 1.1055(12)
C12 C 1.43693(10) 0.26274(5) 0.94762(7)
H11 H 1.5371(18) 0.2976(8) 0.9811(13)
C13 C 1.36012(10) 0.27489(5) 0.82797(7)
H12 H 1.4088(18) 0.3160(8) 0.7747(13)
C14 C 1.21486(10) 0.22666(5) 0.78384(7)
H13 H 1.1657(16) 0.2334(8) 0.6966(12)
C15 C 0.36369(9) -0.01308(4) 0.80896(7)
#END
