
#######################################################################
#
#                 Cambridge Crystallographic Data Centre
#                                CCDC
#
#######################################################################
#
# If this CIF has been generated from an entry in the Cambridge
# Structural Database, then it will include bibliographic, chemical,
# crystal, experimental, refinement or atomic coordinate data resulting
# from the CCDC's data processing and validation procedures.
#
#######################################################################

data_CSD_CIF_QIKBUJ
_audit_creation_date 2013-10-24
_audit_creation_method CSD-ConQuest-V1
_database_code_CSD QIKBUJ
_database_code_depnum_ccdc_archive 'CCDC 793901'
_chemical_formula_sum 'C12 H14 N2 O2'
_chemical_formula_moiety
;
C12 H14 N2 O2
;
_journal_coden_Cambridge 1506
_journal_volume 17
_journal_year 2013
_journal_page_first 2349
_journal_name_full 'Curr.Org.Chem. '
loop_
_publ_author_name
"M.Opietnik"
"K.Mereiter"
"P.Kosma"
"A.Jungbauer"
"T.Rosenau"
_chemical_name_systematic
;
2-(1H-Indol-3-yl)-N-methoxy-N-methylacetamide
;
_chemical_name_common
;
N-Methyl-N-methoxy-3-indolylacetamide
;
_cell_volume   2270.653
_exptl_crystal_colour 'colorless'
_exptl_crystal_density_diffrn 1.277
_exptl_crystal_description 'block'
_diffrn_ambient_temperature 100
#These two values have been output from a single CSD field.
_refine_ls_R_factor_gt 0.0356
_refine_ls_wR_factor_gt 0.0356
_symmetry_cell_setting monoclinic
_symmetry_space_group_name_H-M 'C c'
_symmetry_Int_Tables_number 9
loop_
_symmetry_equiv_pos_site_id
_symmetry_equiv_pos_as_xyz
1 x,y,z
2 x,-y,1/2+z
3 1/2+x,1/2+y,z
4 1/2+x,1/2-y,1/2+z
_cell_length_a 11.1603(12)
_cell_length_b 11.3619(12)
_cell_length_c 17.920(2)
_cell_angle_alpha 90
_cell_angle_beta 92.179(2)
_cell_angle_gamma 90
_cell_formula_units_Z 8
loop_
_atom_type_symbol
_atom_type_radius_bond
C 0.68
H 0.23
N 0.68
O 0.68
loop_
_atom_site_label
_atom_site_type_symbol
_atom_site_fract_x
_atom_site_fract_y
_atom_site_fract_z
O1 O 0.44573(9) 0.10154(10) 0.39832(6)
O2 O 0.38577(11) -0.08451(10) 0.24722(6)
N1 N 0.11923(12) 0.02220(12) 0.54708(7)
H1 H 0.09000 -0.00210 0.58930
N2 N 0.43836(11) 0.00929(12) 0.28760(7)
C1 C 0.18506(14) -0.04488(13) 0.49943(8)
H2 H 0.20640 -0.12490 0.50760
C2 C 0.21547(13) 0.02041(12) 0.43851(8)
C3 C 0.16658(12) 0.13586(12) 0.44924(7)
C4 C 0.16598(13) 0.24098(13) 0.40798(8)
H3 H 0.20690 0.24570 0.36250
C5 C 0.10476(14) 0.33795(14) 0.43456(9)
H4 H 0.10440 0.40940 0.40700
C6 C 0.04340(14) 0.33213(14) 0.50158(10)
H5 H 0.00050 0.39910 0.51780
C7 C 0.04439(13) 0.23045(14) 0.54436(8)
H6 H 0.00420 0.22690 0.59010
C8 C 0.10683(12) 0.13323(13) 0.51767(7)
C9 C 0.27454(13) -0.02557(13) 0.37111(8)
H7 H 0.21910 -0.01530 0.32720
H8 H 0.28860 -0.11100 0.37770
C10 C 0.39307(12) 0.03351(12) 0.35510(8)
C11 C 0.55812(15) 0.04012(16) 0.26602(10)
H9 H 0.59440 0.09430 0.30290
H10 H 0.55390 0.07820 0.21690
H11 H 0.60710 -0.03130 0.26360
C12 C 0.33142(18) -0.04117(18) 0.17852(10)
H12 H 0.27610 0.02310 0.18940
H13 H 0.28720 -0.10500 0.15310
H14 H 0.39390 -0.01210 0.14630
O3 O 0.53251(11) 0.46206(10) 0.19386(7)
O4 O 0.33409(10) 0.50178(12) 0.33618(6)
N3 N 0.43147(11) 0.77025(11) 0.03195(7)
H15 H 0.40890 0.79670 -0.01250
N4 N 0.43867(12) 0.46389(12) 0.30220(7)
C13 C 0.36427(13) 0.69887(13) 0.07661(8)
H16 H 0.28590 0.67080 0.06390
C14 C 0.42740(12) 0.67444(12) 0.14206(8)
C15 C 0.54071(12) 0.73303(11) 0.13769(7)
C16 C 0.64380(13) 0.73981(13) 0.18510(8)
H17 H 0.64720 0.69980 0.23170
C17 C 0.74034(14) 0.80600(14) 0.16255(9)
H18 H 0.81090 0.81010 0.19380
C18 C 0.73576(14) 0.86724(13) 0.09408(10)
H19 H 0.80270 0.91300 0.08050
C19 C 0.63537(13) 0.86192(13) 0.04628(8)
H20 H 0.63200 0.90350 0.00020
C20 C 0.53945(12) 0.79314(12) 0.06844(7)
C21 C 0.38135(13) 0.61244(12) 0.20867(8)
H21 H 0.29820 0.58590 0.19710
H22 H 0.37890 0.66880 0.25070
C22 C 0.45682(13) 0.50688(13) 0.23284(8)
C23 C 0.48215(16) 0.34972(16) 0.32751(10)
H23 H 0.42090 0.28980 0.31610
H24 H 0.49930 0.35220 0.38150
H25 H 0.55560 0.33000 0.30190
C24 C 0.36688(17) 0.5681(2) 0.40228(10)
H26 H 0.41310 0.51800 0.43730
H27 H 0.29420 0.59560 0.42590
H28 H 0.41570 0.63600 0.38870
#END
