
#######################################################################
#
#                 Cambridge Crystallographic Data Centre
#                                CCDC
#
#######################################################################
#
# If this CIF has been generated from an entry in the Cambridge
# Structural Database, then it will include bibliographic, chemical,
# crystal, experimental, refinement or atomic coordinate data resulting
# from the CCDC's data processing and validation procedures.
#
#######################################################################

data_CSD_CIF_QIKCUI
_audit_creation_date 2001-06-22
_audit_creation_method CSD-ConQuest-V1
_database_code_CSD QIKCUI
_database_code_depnum_ccdc_archive 'CCDC 163927'
_chemical_formula_sum 'C3 H7 N1 O2'
_chemical_formula_moiety
;
C3 H7 N1 O2
;
_journal_coeditor_code "IUCr SK1449"
_journal_coden_Cambridge 591
_journal_volume 57
_journal_year 2001
_journal_page_first 452
_journal_name_full 'Acta Crystallogr.,Sect.C:Cryst.Struct.Commun. '
loop_
_publ_author_name
"G.Ferguson"
"C.Glidewell"
_chemical_name_systematic
;
N-Hydroxypropanamide
;
_chemical_name_common
;
N-(Propionyl)hydroxylamine
;
_cell_volume   1384.347
_exptl_crystal_colour 'colorless'
_exptl_crystal_density_diffrn 1.282
_exptl_crystal_description 'block'
_diffrn_ambient_temperature ?
_diffrn_special_details
;
The study was carried out at room temperature,in the range 283-303K

;
#These two values have been output from a single CSD field.
_refine_ls_R_factor_gt 0.0376
_refine_ls_wR_factor_gt 0.0376
_symmetry_cell_setting monoclinic
_symmetry_space_group_name_H-M 'P 21/c'
_symmetry_Int_Tables_number 14
loop_
_symmetry_equiv_pos_site_id
_symmetry_equiv_pos_as_xyz
1 x,y,z
2 x,1/2-y,1/2+z
3 -x,-y,-z
4 -x,-1/2+y,-1/2-z
_cell_length_a 12.052(3)
_cell_length_b 8.009(3)
_cell_length_c 14.354(3)
_cell_angle_alpha 90
_cell_angle_beta 92.35(2)
_cell_angle_gamma 90
_cell_formula_units_Z 12
loop_
_atom_type_symbol
_atom_type_radius_bond
C 0.68
H 0.23
N 0.68
O 0.68
loop_
_atom_site_label
_atom_site_type_symbol
_atom_site_fract_x
_atom_site_fract_y
_atom_site_fract_z
O1 O 0.16302(8) 0.37086(14) 0.32034(9)
O2 O 0.12245(8) 0.05820(13) 0.37449(7)
N1 N 0.04621(8) 0.18708(15) 0.38178(8)
C1 C 0.07007(10) 0.33463(17) 0.34863(9)
C2 C -0.02402(11) 0.45828(19) 0.34589(11)
C3 C 0.00887(14) 0.6290(2) 0.38140(13)
O3 O 0.15986(7) 0.57334(15) 0.04293(7)
O4 O 0.20525(8) 0.64442(13) 0.22256(7)
N2 N 0.28637(8) 0.60463(15) 0.16042(8)
C4 C 0.2583(1) 0.57854(17) 0.07233(9)
C5 C 0.35365(11) 0.5567(2) 0.00888(10)
C6 C 0.35481(16) 0.6881(3) -0.06606(13)
O5 O 0.50451(8) 0.08237(15) 0.23862(8)
O6 O 0.45586(9) 0.31530(15) 0.36718(8)
N3 N 0.37691(9) 0.23735(16) 0.30936(9)
C7 C 0.40608(10) 0.12399(17) 0.24912(10)
C8 C 0.31184(12) 0.0503(2) 0.19124(12)
C9 C 0.31564(16) 0.0997(3) 0.09140(14)
H1 H 0.13220 0.01280 0.42540
H2 H -0.01590 0.17030 0.40770
H3 H -0.08310 0.41550 0.38310
H4 H -0.05310 0.46850 0.28210
H5 H 0.04320 0.61920 0.44270
H6 H -0.05600 0.69820 0.38390
H7 H 0.06040 0.67840 0.34020
H8 H 0.19020 0.56140 0.25300
H9 H 0.35470 0.59710 0.17950
H10 H 0.34860 0.44730 -0.02000
H11 H 0.42290 0.56150 0.04560
H12 H 0.28640 0.68380 -0.10270
H13 H 0.41590 0.66810 -0.10540
H14 H 0.36280 0.79630 -0.03780
H15 H 0.47500 0.40310 0.34320
H16 H 0.30800 0.26360 0.31300
H17 H 0.31490 -0.07050 0.19590
H18 H 0.24200 0.08690 0.21570
H19 H 0.30360 0.21790 0.08570
H20 H 0.25880 0.04130 0.05580
H21 H 0.38700 0.07200 0.06830
#END
