
#######################################################################
#
#                 Cambridge Crystallographic Data Centre
#                                CCDC
#
#######################################################################
#
# If this CIF has been generated from an entry in the Cambridge
# Structural Database, then it will include bibliographic, chemical,
# crystal, experimental, refinement or atomic coordinate data resulting
# from the CCDC's data processing and validation procedures.
#
#######################################################################

data_CSD_CIF_QIKDOD
_audit_creation_date 2001-06-22
_audit_creation_method CSD-ConQuest-V1
_database_code_CSD QIKDOD
_database_code_depnum_ccdc_archive 'CCDC 163931'
_chemical_formula_sum 'C16 H17 N9 O9'
_chemical_formula_moiety
;
C16 H17 N9 O9
;
_journal_coeditor_code "IUCr JZ1436"
_journal_coden_Cambridge 591
_journal_volume 57
_journal_year 2001
_journal_page_first 462
_journal_name_full 'Acta Crystallogr.,Sect.C:Cryst.Struct.Commun. '
loop_
_publ_author_name
"A.Gzella"
"U.Wrzeciono"
"W.Poppel"
_chemical_name_systematic
;
(Z)-1-(4,5-Dinitroimidazol-1-yl)-3-(morpholin-4-yl)propan-2-one 
(2,4-dinitrophenyl)hydrazone
;
_chemical_melting_point 444
_cell_volume   2053.035
_exptl_crystal_colour 'yellow'
_exptl_crystal_density_diffrn 1.551
_exptl_special_details
;
Melts with decomposition.

;
_exptl_crystal_description 'prism'
_exptl_crystal_preparation 'tetrahydrofuran'
_diffrn_ambient_temperature ?
_diffrn_special_details
;
The study was carried out at room temperature,in the range 283-303K

;
#These two values have been output from a single CSD field.
_refine_ls_R_factor_gt 0.042
_refine_ls_wR_factor_gt 0.042
_symmetry_cell_setting monoclinic
_symmetry_space_group_name_H-M 'P 21/n'
_symmetry_Int_Tables_number 14
loop_
_symmetry_equiv_pos_site_id
_symmetry_equiv_pos_as_xyz
1 x,y,z
2 1/2+x,1/2-y,1/2+z
3 -x,-y,-z
4 -1/2-x,-1/2+y,-1/2-z
_cell_length_a 9.0382(7)
_cell_length_b 19.2008(13)
_cell_length_c 11.9087(8)
_cell_angle_alpha 90
_cell_angle_beta 96.579(6)
_cell_angle_gamma 90
_cell_formula_units_Z 4
loop_
_atom_type_symbol
_atom_type_radius_bond
C 0.68
H 0.23
N 0.68
O 0.68
loop_
_atom_site_label
_atom_site_type_symbol
_atom_site_fract_x
_atom_site_fract_y
_atom_site_fract_z
N1 N 0.25752(15) 0.65795(8) 1.11034(11)
C1 C 0.2022(2) 0.71521(11) 1.15519(17)
N2 N 0.2722(2) 0.73276(8) 1.25267(15)
C2 C 0.37949(19) 0.68461(9) 1.27170(14)
C3 C 0.37352(18) 0.63746(9) 1.18701(13)
C4 C 0.2061(2) 0.62955(12) 0.99913(15)
C5 C 0.29988(17) 0.65246(9) 0.90886(14)
C6 C 0.41305(19) 0.70944(9) 0.93221(15)
N3 N 0.28839(15) 0.62582(8) 0.81027(12)
N4 N 0.18812(17) 0.57209(8) 0.78763(13)
C7 C 0.19044(17) 0.53541(9) 0.69125(13)
C8 C 0.10082(18) 0.47585(9) 0.66530(15)
C9 C 0.1098(2) 0.43736(10) 0.56836(16)
C10 C 0.2066(2) 0.45791(10) 0.49539(16)
C11 C 0.2943(2) 0.51690(11) 0.51555(17)
C12 C 0.2867(2) 0.55486(10) 0.61103(15)
N5 N -0.00566(19) 0.45181(10) 0.73865(14)
O1 O -0.01693(17) 0.48265(9) 0.82804(13)
O2 O -0.0826(2) 0.40184(12) 0.70885(17)
N6 N 0.2155(2) 0.41769(11) 0.39266(17)
O3 O 0.1312(3) 0.36869(11) 0.37305(19)
O4 O 0.3060(3) 0.43594(13) 0.33007(18)
N7 N 0.54698(14) 0.68306(7) 0.99897(11)
C13 C 0.6390(2) 0.74094(11) 1.04680(18)
C14 C 0.7778(2) 0.71309(16) 1.1134(2)
O5 O 0.86181(15) 0.67108(11) 1.04582(16)
C15 C 0.7726(2) 0.61397(15) 1.0000(3)
C16 C 0.6340(2) 0.63977(11) 0.92951(18)
N8 N 0.4856(2) 0.68843(10) 1.37304(14)
O6 O 0.4647(3) 0.65756(14) 1.45398(16)
O7 O 0.5875(3) 0.72788(17) 1.36971(19)
N9 N 0.4635(2) 0.57824(9) 1.17602(15)
O8 O 0.5700(2) 0.57225(12) 1.24768(17)
O9 O 0.4326(2) 0.53839(8) 1.09758(16)
H1 H 0.121(3) 0.7411(13) 1.115(2)
H2 H 0.206(3) 0.5790(13) 1.008(2)
H3 H 0.104(3) 0.6484(13) 0.979(2)
H4 H 0.371(2) 0.7485(10) 0.9772(16)
H5 H 0.435(2) 0.7302(10) 0.8578(17)
H6 H 0.130(3) 0.5591(11) 0.8327(19)
H7 H 0.055(3) 0.3988(13) 0.5556(18)
H8 H 0.360(3) 0.5293(13) 0.464(2)
H9 H 0.351(3) 0.5942(12) 0.6306(19)
H10 H 0.663(2) 0.7742(12) 0.9842(19)
H11 H 0.586(3) 0.7672(12) 1.0971(19)
H12 H 0.753(3) 0.6824(12) 1.180(2)
H13 H 0.838(3) 0.7492(14) 1.147(2)
H14 H 0.832(3) 0.5897(14) 0.945(2)
H15 H 0.745(3) 0.5818(15) 1.063(2)
H16 H 0.578(2) 0.6009(11) 0.9030(17)
H17 H 0.650(3) 0.6671(11) 0.8631(19)
#END
