
#######################################################################
#
#                 Cambridge Crystallographic Data Centre
#                                CCDC
#
#######################################################################
#
# If this CIF has been generated from an entry in the Cambridge
# Structural Database, then it will include bibliographic, chemical,
# crystal, experimental, refinement or atomic coordinate data resulting
# from the CCDC's data processing and validation procedures.
#
#######################################################################

data_CSD_CIF_QIKDUJ
_audit_creation_date 2001-06-22
_audit_creation_method CSD-ConQuest-V1
_database_code_CSD QIKDUJ
_database_code_depnum_ccdc_archive 'CCDC 163932'
_chemical_formula_sum 'C20 H25 N9 O8'
_chemical_formula_moiety
;
C20 H25 N9 O8
;
_journal_coeditor_code "IUCr JZ1436"
_journal_coden_Cambridge 591
_journal_volume 57
_journal_year 2001
_journal_page_first 462
_journal_name_full 'Acta Crystallogr.,Sect.C:Cryst.Struct.Commun. '
loop_
_publ_author_name
"A.Gzella"
"U.Wrzeciono"
"W.Poppel"
_chemical_name_systematic
;
(Z)-1-(4-(Morpholin-4-yl)-5-nitroimidazol-1-yl)-3-(morpholin-4-yl)propan-2-one
 (2,4-dinitrophenyl)hydrazone
;
_chemical_melting_point 434
_cell_volume   1172.551
_exptl_crystal_colour 'orange-brown'
_exptl_crystal_density_diffrn 1.471
_exptl_special_details
;
Melting point range 434-436K

;
_exptl_crystal_description 'prism'
_exptl_crystal_preparation 'tetrahydrofuran/methanol'
_diffrn_ambient_temperature ?
_diffrn_special_details
;
The study was carried out at room temperature,in the range 283-303K

;
#These two values have been output from a single CSD field.
_refine_ls_R_factor_gt 0.036
_refine_ls_wR_factor_gt 0.036
_symmetry_cell_setting triclinic
_symmetry_space_group_name_H-M 'P -1'
_symmetry_Int_Tables_number 2
loop_
_symmetry_equiv_pos_site_id
_symmetry_equiv_pos_as_xyz
1 x,y,z
2 -x,-y,-z
_cell_length_a 8.0664(6)
_cell_length_b 12.3698(10)
_cell_length_c 13.2280(13)
_cell_angle_alpha 111.282(8)
_cell_angle_beta 106.037(7)
_cell_angle_gamma 90.735(6)
_cell_formula_units_Z 2
loop_
_atom_type_symbol
_atom_type_radius_bond
C 0.68
H 0.23
N 0.68
O 0.68
loop_
_atom_site_label
_atom_site_type_symbol
_atom_site_fract_x
_atom_site_fract_y
_atom_site_fract_z
N1 N 0.73219(17) 1.07067(11) 0.30647(11)
C1 C 0.6685(2) 1.11499(15) 0.22835(15)
N2 N 0.67492(19) 1.22982(12) 0.26953(12)
C2 C 0.75053(19) 1.26521(14) 0.38352(13)
C3 C 0.79154(19) 1.16700(14) 0.40960(13)
C4 C 0.7411(2) 0.94624(14) 0.28057(15)
C5 C 0.5930(2) 0.88658(14) 0.29834(13)
C6 C 0.4642(2) 0.95597(15) 0.34888(14)
N3 N 0.56507(18) 0.77586(12) 0.26820(12)
N4 N 0.67787(19) 0.70925(12) 0.21650(12)
C7 C 0.6358(2) 0.59151(14) 0.17102(13)
C8 C 0.7496(2) 0.51144(14) 0.13154(13)
C9 C 0.7023(2) 0.39187(15) 0.08657(14)
C10 C 0.5388(2) 0.34943(14) 0.07772(13)
C11 C 0.4218(2) 0.42414(15) 0.11317(15)
C12 C 0.4690(2) 0.54187(15) 0.15885(15)
N5 N 0.92190(19) 0.55118(14) 0.13470(13)
O1 O 0.9583(2) 0.65417(13) 0.15356(15)
O2 O 1.02297(19) 0.47958(15) 0.11587(17)
N6 N 0.4870(2) 0.22401(13) 0.02960(12)
O3 O 0.5888(2) 0.15919(12) -0.00444(13)
O4 O 0.3422(2) 0.18844(13) 0.02456(15)
N7 N 0.34041(16) 0.98898(12) 0.26465(12)
C13 C 0.2622(3) 1.09188(16) 0.31848(18)
C14 C 0.1331(3) 1.1214(2) 0.2287(2)
O5 O 0.00152(17) 1.02646(14) 0.15767(13)
C15 C 0.0784(3) 0.9277(2) 0.1037(2)
C16 C 0.2033(2) 0.89255(17) 0.19029(16)
N8 N 0.77156(18) 1.38129(12) 0.45242(12)
C17 C 0.7001(3) 1.45843(15) 0.39385(16)
C18 C 0.7593(3) 1.58446(17) 0.47139(19)
O6 O 0.71433(18) 1.61231(11) 0.57372(12)
C19 C 0.7967(3) 1.54175(19) 0.63176(18)
C20 C 0.7386(3) 1.41346(18) 0.56284(16)
N9 N 0.88102(17) 1.15388(13) 0.50996(12)
O7 O 0.97978(18) 1.23815(13) 0.58793(12)
O8 O 0.85794(18) 1.05837(12) 0.51830(11)
H1 H 0.621(3) 1.0625(18) 0.1504(18)
H2 H 0.739(2) 0.9113(15) 0.2004(16)
H3 H 0.854(3) 0.9345(17) 0.3272(17)
H4 H 0.404(2) 0.9072(16) 0.3772(15)
H5 H 0.525(2) 1.0270(16) 0.4113(16)
H6 H 0.787(3) 0.738(2) 0.227(2)
H7 H 0.784(3) 0.3422(16) 0.0594(16)
H8 H 0.304(3) 0.3929(17) 0.1039(17)
H9 H 0.392(3) 0.5946(17) 0.1850(17)
H10 H 0.352(3) 1.156(2) 0.3630(19)
H11 H 0.202(3) 1.0778(18) 0.3721(18)
H12 H 0.192(3) 1.140(2) 0.183(2)
H13 H 0.081(4) 1.189(2) 0.264(2)
H14 H 0.144(3) 0.950(2) 0.062(2)
H15 H -0.018(4) 0.864(2) 0.057(2)
H16 H 0.251(3) 0.8224(17) 0.1480(17)
H17 H 0.141(3) 0.8710(18) 0.2378(19)
H18 H 0.743(3) 1.4382(16) 0.3261(17)
H19 H 0.573(3) 1.4442(17) 0.3670(17)
H20 H 0.886(3) 1.6000(19) 0.4900(19)
H21 H 0.697(3) 1.6353(19) 0.4332(18)
H22 H 0.762(3) 1.563(2) 0.702(2)
H23 H 0.926(3) 1.557(2) 0.653(2)
H24 H 0.801(3) 1.367(2) 0.604(2)
H25 H 0.609(3) 1.3981(18) 0.5514(18)
#END
