
#######################################################################
#
#                 Cambridge Crystallographic Data Centre
#                                CCDC
#
#######################################################################
#
# If this CIF has been generated from an entry in the Cambridge
# Structural Database, then it will include bibliographic, chemical,
# crystal, experimental, refinement or atomic coordinate data resulting
# from the CCDC's data processing and validation procedures.
#
#######################################################################

data_CSD_CIF_QIKDET
_audit_creation_date 2001-06-22
_audit_creation_method CSD-ConQuest-V1
_database_code_CSD QIKDET
_database_code_depnum_ccdc_archive 'CCDC 163929'
_chemical_formula_sum 'C6 H5 N3 O4'
_chemical_formula_moiety
;
C6 H5 N3 O4
;
_journal_coeditor_code "IUCr SK1454"
_journal_coden_Cambridge 591
_journal_volume 57
_journal_year 2001
_journal_page_first 455
_journal_name_full 'Acta Crystallogr.,Sect.C:Cryst.Struct.Commun. '
loop_
_publ_author_name
"C.Glidewell"
"D.Cannon"
"A.Quesada"
"J.N.Low"
"S.A.McWilliam"
"J.M.S.Skakle"
"J.L.Wardell"
_chemical_name_systematic
;
3,5-Dinitroaniline
;
_cell_volume   1519.956
_exptl_crystal_colour 'yellow'
_exptl_crystal_density_diffrn 1.601
_exptl_crystal_description 'prism'
_exptl_crystal_preparation 'ethanol'
_diffrn_ambient_temperature ?
_diffrn_special_details
;
The study was carried out at room temperature,in the range 283-303K

;
#These two values have been output from a single CSD field.
_refine_ls_R_factor_gt 0.0464
_refine_ls_wR_factor_gt 0.0464
_symmetry_cell_setting monoclinic
_symmetry_space_group_name_H-M 'P 21/n'
_symmetry_Int_Tables_number 14
loop_
_symmetry_equiv_pos_site_id
_symmetry_equiv_pos_as_xyz
1 x,y,z
2 1/2+x,1/2-y,1/2+z
3 -x,-y,-z
4 -1/2-x,-1/2+y,-1/2-z
_cell_length_a 8.5377(6)
_cell_length_b 14.0119(9)
_cell_length_c 12.7071(8)
_cell_angle_alpha 90
_cell_angle_beta 90.899(2)
_cell_angle_gamma 90
_cell_formula_units_Z 8
loop_
_atom_type_symbol
_atom_type_radius_bond
C 0.68
H 0.23
N 0.68
O 0.68
loop_
_atom_site_label
_atom_site_type_symbol
_atom_site_fract_x
_atom_site_fract_y
_atom_site_fract_z
C1 C -0.09505(19) 0.13604(11) 0.47681(11)
C2 C -0.1625(2) 0.0479(1) 0.45248(11)
C3 C -0.26199(19) 0.00621(10) 0.5230(1)
C4 C -0.30029(19) 0.04585(10) 0.61777(11)
C5 C -0.23384(18) 0.13373(10) 0.63817(10)
C6 C -0.1337(2) 0.1788(1) 0.57155(11)
N1 N 0.00886(19) 0.17716(11) 0.41055(11)
N2 N -0.3320(2) -0.08635(10) 0.49576(11)
O1 O -0.2935(2) -0.12460(9) 0.41392(10)
O2 O -0.42577(18) -0.12016(9) 0.55607(11)
N3 N -0.27376(19) 0.1818(1) 0.73685(11)
O3 O -0.35455(19) 0.13944(9) 0.79966(10)
O4 O -0.2283(2) 0.2635(1) 0.74954(12)
C7 C 0.3283(2) 0.66764(11) 0.63478(12)
C8 C 0.4020(2) 0.66837(11) 0.53746(12)
C9 C 0.37386(19) 0.59562(11) 0.46827(10)
C10 C 0.27794(19) 0.51921(10) 0.48800(11)
C11 C 0.20854(19) 0.52036(10) 0.58532(11)
C12 C 0.2305(2) 0.59156(11) 0.65818(12)
N4 N 0.3533(2) 0.73912(11) 0.70591(12)
N5 N 0.45294(18) 0.59746(12) 0.36608(11)
O5 O 0.42878(18) 0.53376(10) 0.30377(9)
O6 O 0.5414(2) 0.66359(11) 0.34857(11)
N6 N 0.10897(18) 0.43916(10) 0.61347(12)
O7 O 0.0862(2) 0.37794(10) 0.54882(12)
O8 O 0.05576(19) 0.43639(9) 0.70161(11)
H1 H -0.14050 0.01770 0.38930
H2 H -0.36630 0.01570 0.66490
H3 H -0.09150 0.23790 0.58960
H4 H 0.05210 0.23070 0.42700
H5 H 0.03130 0.14960 0.35220
H6 H 0.46940 0.71780 0.52000
H7 H 0.26110 0.47040 0.43950
H8 H 0.18040 0.58890 0.72260
H9 H 0.30840 0.73740 0.76600
H10 H 0.41410 0.78590 0.69070
#END
