
#######################################################################
#
#                 Cambridge Crystallographic Data Centre
#                                CCDC
#
#######################################################################
#
# If this CIF has been generated from an entry in the Cambridge
# Structural Database, then it will include bibliographic, chemical,
# crystal, experimental, refinement or atomic coordinate data resulting
# from the CCDC's data processing and validation procedures.
#
#######################################################################

data_CSD_CIF_QIKDAP
_audit_creation_date 2001-06-22
_audit_creation_method CSD-ConQuest-V1
_database_code_CSD QIKDAP
_database_code_depnum_ccdc_archive 'CCDC 163928'
_chemical_formula_sum 'C6 H7 N3 O2'
_chemical_formula_moiety
;
C6 H7 N3 O2
;
_journal_coeditor_code "IUCr SK1454"
_journal_coden_Cambridge 591
_journal_volume 57
_journal_year 2001
_journal_page_first 455
_journal_name_full 'Acta Crystallogr.,Sect.C:Cryst.Struct.Commun. '
loop_
_publ_author_name
"C.Glidewell"
"D.Cannon"
"A.Quesada"
"J.N.Low"
"S.A.McWilliam"
"J.M.S.Skakle"
"J.L.Wardell"
_chemical_name_systematic
;
1,3-Diamino-4-nitrobenzene
;
_cell_volume    655.439
_exptl_crystal_colour 'brown'
_exptl_crystal_density_diffrn 1.552
_exptl_crystal_description 'block'
_exptl_crystal_preparation 'ethanol'
_diffrn_ambient_temperature ?
_diffrn_special_details
;
The study was carried out at room temperature,in the range 283-303K

;
#These two values have been output from a single CSD field.
_refine_ls_R_factor_gt 0.0587
_refine_ls_wR_factor_gt 0.0587
_symmetry_cell_setting monoclinic
_symmetry_space_group_name_H-M 'P 21/n'
_symmetry_Int_Tables_number 14
loop_
_symmetry_equiv_pos_site_id
_symmetry_equiv_pos_as_xyz
1 x,y,z
2 1/2+x,1/2-y,1/2+z
3 -x,-y,-z
4 -1/2-x,-1/2+y,-1/2-z
_cell_length_a 4.4772(3)
_cell_length_b 11.1379(7)
_cell_length_c 13.1891(9)
_cell_angle_alpha 90
_cell_angle_beta 94.748(1)
_cell_angle_gamma 90
_cell_formula_units_Z 4
loop_
_atom_type_symbol
_atom_type_radius_bond
C 0.68
H 0.23
N 0.68
O 0.68
loop_
_atom_site_label
_atom_site_type_symbol
_atom_site_fract_x
_atom_site_fract_y
_atom_site_fract_z
C1 C -0.2039(3) 0.93040(11) 0.26603(10)
C2 C 0.0065(3) 0.83905(12) 0.27917(9)
C3 C 0.1184(3) 0.77840(11) 0.20173(9)
C4 C 0.0054(3) 0.81338(11) 0.10629(9)
C5 C -0.2021(3) 0.90755(13) 0.09345(10)
C6 C -0.3065(4) 0.96587(13) 0.17012(11)
N1 N -0.3070(3) 0.98801(11) 0.34336(10)
N2 N 0.3192(3) 0.68807(10) 0.22111(9)
N3 N 0.0990(3) 0.75681(13) 0.02295(9)
O1 O 0.2722(3) 0.66839(12) 0.03080(9)
O2 O 0.0053(4) 0.79532(12) -0.05838(8)
H1 H 0.07500 0.81810 0.34530
H2 H -0.26960 0.93000 0.02760
H3 H -0.44350 1.02830 0.15940
H4 H -0.43390 1.04550 0.33240
H5 H -0.24740 0.96810 0.40470
H6 H 0.37610 0.66900 0.28290
H7 H 0.38930 0.65000 0.17160
#END
