
#######################################################################
#
#                 Cambridge Crystallographic Data Centre
#                                CCDC
#
#######################################################################
#
# If this CIF has been generated from an entry in the Cambridge
# Structural Database, then it will include bibliographic, chemical,
# crystal, experimental, refinement or atomic coordinate data resulting
# from the CCDC's data processing and validation procedures.
#
#######################################################################

data_CSD_CIF_QIKXEP
_audit_creation_date 2013-10-26
_audit_creation_method CSD-ConQuest-V1
_database_code_CSD QIKXEP
_database_code_depnum_ccdc_archive 'CCDC 932873'
_chemical_formula_sum 'C17 H11 N1 O4'
_chemical_formula_moiety
;
C17 H11 N1 O4
;
_journal_coden_Cambridge 35
_journal_volume 77
_journal_year 2012
_journal_page_first 3609
_journal_name_full 'J.Org.Chem. '
loop_
_publ_author_name
"Le Chang"
"Hao Jiang"
"Junkai Fu"
"Bin Liu"
"Chuang-chuang Li"
"Zhen Yang"
_chemical_name_systematic
;
3-Benzoyl-3a-hydroxy[1,2]oxazolo[3,2-a]isoindol-8(3aH)-one
;
_cell_volume   1356.128
_exptl_crystal_density_diffrn 1.436
_diffrn_ambient_temperature 293
#These two values have been output from a single CSD field.
_refine_ls_R_factor_gt 0.0573
_refine_ls_wR_factor_gt 0.0573
_symmetry_cell_setting monoclinic
_symmetry_space_group_name_H-M 'P 21/c'
_symmetry_Int_Tables_number 14
loop_
_symmetry_equiv_pos_site_id
_symmetry_equiv_pos_as_xyz
1 x,y,z
2 -x,1/2+y,1/2-z
3 -x,-y,-z
4 x,-1/2-y,-1/2+z
_cell_length_a 9.6810(19)
_cell_length_b 18.950(4)
_cell_length_c 7.6540(15)
_cell_angle_alpha 90
_cell_angle_beta 105.03(3)
_cell_angle_gamma 90
_cell_formula_units_Z 4
loop_
_atom_type_symbol
_atom_type_radius_bond
C 0.68
H 0.23
N 0.68
O 0.68
loop_
_atom_site_label
_atom_site_type_symbol
_atom_site_fract_x
_atom_site_fract_y
_atom_site_fract_z
N1 N 0.2497(3) 0.05152(11) 0.7780(3)
O1 O 0.2345(2) 0.26529(11) 0.9490(3)
C1 C 0.4666(4) 0.34692(15) 0.8879(4)
H1 H 0.37760 0.36660 0.83480
O2 O 0.3861(2) 0.06174(10) 0.7343(3)
C2 C 0.5898(5) 0.38744(18) 0.9091(5)
H2 H 0.58400 0.43370 0.86730
O3 O 0.3401(3) -0.04527(12) 0.9601(3)
C3 C 0.7203(4) 0.3581(2) 0.9929(6)
H3 H 0.80290 0.38510 1.00860
O4 O 0.0912(2) 0.14858(10) 0.6707(3)
H4 H 0.12880 0.17270 0.60690
C4 C 0.7302(4) 0.2899(2) 1.0535(5)
H5 H 0.81920 0.27110 1.11070
C5 C 0.6096(3) 0.24870(17) 1.0303(4)
H6 H 0.61690 0.20220 1.07080
C6 C 0.4763(3) 0.27735(14) 0.9457(3)
C7 C 0.3410(3) 0.23672(14) 0.9209(3)
C8 C 0.3329(3) 0.16413(13) 0.8566(3)
C9 C 0.4288(3) 0.12699(14) 0.7966(4)
H7 H 0.51860 0.14480 0.79780
C10 C 0.1966(3) 0.12192(14) 0.8168(3)
C11 C 0.2682(3) 0.00746(16) 0.9341(4)
C12 C 0.1813(3) 0.03964(16) 1.0448(4)
C13 C 0.1344(3) 0.10539(15) 0.9751(4)
C14 C 0.1475(4) 0.01335(18) 1.1985(4)
H8 H 0.18080 -0.03050 1.24600
C15 C 0.0633(4) 0.0544(2) 1.2775(5)
H9 H 0.04030 0.03860 1.38150
C16 C 0.0126(4) 0.1189(2) 1.2041(5)
H10 H -0.04590 0.14520 1.25840
C17 C 0.0465(3) 0.14547(17) 1.0512(4)
H11 H 0.01110 0.18880 1.00200
#END
