
#######################################################################
#
#                 Cambridge Crystallographic Data Centre
#                                CCDC
#
#######################################################################
#
# If this CIF has been generated from an entry in the Cambridge
# Structural Database, then it will include bibliographic, chemical,
# crystal, experimental, refinement or atomic coordinate data resulting
# from the CCDC's data processing and validation procedures.
#
#######################################################################

data_CSD_CIF_QIMGAU
_audit_creation_date 2001-06-21
_audit_creation_method CSD-ConQuest-V1
_database_code_CSD QIMGAU
_database_code_depnum_ccdc_archive 'CCDC 164667'
_chemical_formula_sum 'C7 H5 N1 O4'
_chemical_formula_moiety
;
C7 H5 N1 O4
;
_journal_coeditor_code "IUCr FR1319"
_journal_coden_Cambridge 591
_journal_volume 57
_journal_year 2001
_journal_page_first 611
_journal_name_full 'Acta Crystallogr.,Sect.C:Cryst.Struct.Commun. '
loop_
_publ_author_name
"K.Kubo"
"E.Yamamoto"
"A.Mori"
_chemical_name_systematic
;
2-hydroxy-5-nitro-2,4,6-cycloheptatrien-1-one
;
_chemical_name_common
;
5-nitrotropolone
;
_cell_volume    686.613
_exptl_crystal_colour 'yellow'
_exptl_crystal_density_diffrn 1.617
_exptl_special_details
;
P-1 polymorph

;
_exptl_crystal_description 'prism'
_exptl_crystal_preparation 'chloroform'
_diffrn_ambient_temperature ?
_diffrn_special_details
;
The study was carried out at room temperature,in the range 283-303K

;
#These two values have been output from a single CSD field.
_refine_ls_R_factor_gt 0.0388
_refine_ls_wR_factor_gt 0.0388
_symmetry_cell_setting triclinic
_symmetry_space_group_name_H-M 'P -1'
_symmetry_Int_Tables_number 2
loop_
_symmetry_equiv_pos_site_id
_symmetry_equiv_pos_as_xyz
1 x,y,z
2 -x,-y,-z
_cell_length_a 7.5701(10)
_cell_length_b 14.496(3)
_cell_length_c 6.4945(7)
_cell_angle_alpha 90.751(14)
_cell_angle_beta 104.796(8)
_cell_angle_gamma 94.410(13)
_cell_formula_units_Z 4
loop_
_atom_type_symbol
_atom_type_radius_bond
C 0.68
H 0.23
N 0.68
O 0.68
loop_
_atom_site_label
_atom_site_type_symbol
_atom_site_fract_x
_atom_site_fract_y
_atom_site_fract_z
N1 N -0.25178(18) 0.30941(10) 0.1946(2)
O1 O 0.28301(16) 0.47812(9) 0.94339(18)
O2 O 0.48839(15) 0.4321(1) 0.70233(19)
H1 H 0.50940 0.45550 0.82270
O3 O -0.23379(19) 0.28045(13) 0.0255(2)
O4 O -0.40023(17) 0.31145(12) 0.2321(2)
C1 C 0.1988(2) 0.43735(10) 0.7734(2)
C2 C 0.30936(19) 0.41137(11) 0.6274(2)
C3 C 0.2522(2) 0.37069(11) 0.4275(2)
H2 H 0.34550 0.36120 0.36200
C4 C 0.0752(2) 0.34116(10) 0.3061(2)
H3 H 0.06710 0.31580 0.17140
C5 C -0.08634(19) 0.34488(10) 0.3604(2)
C6 C -0.1194(2) 0.37814(10) 0.5509(2)
H4 H -0.24100 0.37240 0.55770
C7 C 0.0037(2) 0.41758(11) 0.7260(2)
H5 H -0.04790 0.43490 0.83470
N2 N 0.13714(17) 0.18383(9) 0.7945(2)
O5 O 0.31610(16) 0.02160(9) 0.05243(17)
O6 O 0.63329(15) 0.08343(10) 0.28423(19)
H6 H 0.59730 0.05560 0.16850
O7 O -0.02239(17) 0.15694(10) 0.7807(2)
O8 O 0.22838(18) 0.23618(9) 0.9379(2)
C8 C 0.31226(19) 0.06151(10) 0.2222(2)
C9 C 0.49053(19) 0.09777(11) 0.3617(2)
C10 C 0.52839(19) 0.14325(11) 0.5555(2)
H7 H 0.65190 0.16090 0.61510
C11 C 0.4102(2) 0.16753(10) 0.6789(2)
H8 H 0.46520 0.19850 0.80840
C12 C 0.22434(19) 0.15096(9) 0.6306(2)
C13 C 0.10273(18) 0.10841(10) 0.4486(2)
H9 H -0.02070 0.10520 0.44760
C14 C 0.14100(19) 0.07114(11) 0.2729(2)
H10 H 0.03840 0.04800 0.16780
#END
