
#######################################################################
#
#                 Cambridge Crystallographic Data Centre
#                                CCDC
#
#######################################################################
#
# If this CIF has been generated from an entry in the Cambridge
# Structural Database, then it will include bibliographic, chemical,
# crystal, experimental, refinement or atomic coordinate data resulting
# from the CCDC's data processing and validation procedures.
#
#######################################################################

data_CSD_CIF_QIMGOI
_audit_creation_date 2001-06-21
_audit_creation_method CSD-ConQuest-V1
_database_code_CSD QIMGOI
_database_code_depnum_ccdc_archive 'CCDC 164670'
_chemical_formula_sum 'C16 H15 N3 O5'
_chemical_formula_moiety
;
C16 H15 N3 O5
;
_journal_coeditor_code "IUCr BM1442"
_journal_coden_Cambridge 591
_journal_volume 57
_journal_year 2001
_journal_page_first 616
_journal_name_full 'Acta Crystallogr.,Sect.C:Cryst.Struct.Commun. '
loop_
_publ_author_name
"V.N.Nesterov"
"E.A.Viltchinskaia"
_chemical_name_systematic
;
2-amino-5-ethoxycarbonyl-6-methyl-4-(3-nitrophenyl)-4H-pyrano-3-carbonitrile
;
_chemical_name_common
;
ethyl 6-amino-5-cyano-2-methyl-4-(3-nitrophenyl)-4H-pyran-3-carboxylate
;
_chemical_melting_point 457
_cell_volume    795.461
_exptl_crystal_colour 'colorless'
_exptl_crystal_density_diffrn 1.375
_exptl_crystal_description 'rhombohedral prism'
_exptl_crystal_preparation 'ethanol'
_diffrn_ambient_temperature ?
_diffrn_special_details
;
The study was carried out at room temperature,in the range 283-303K

;
#These two values have been output from a single CSD field.
_refine_ls_R_factor_gt 0.0579
_refine_ls_wR_factor_gt 0.0579
_symmetry_cell_setting triclinic
_symmetry_space_group_name_H-M 'P -1'
_symmetry_Int_Tables_number 2
loop_
_symmetry_equiv_pos_site_id
_symmetry_equiv_pos_as_xyz
1 x,y,z
2 -x,-y,-z
_cell_length_a 8.455(1)
_cell_length_b 8.475(1)
_cell_length_c 12.073(2)
_cell_angle_alpha 83.05(2)
_cell_angle_beta 71.33(2)
_cell_angle_gamma 76.35(2)
_cell_formula_units_Z 2
loop_
_atom_type_symbol
_atom_type_radius_bond
C 0.68
H 0.23
N 0.68
O 0.68
loop_
_atom_site_label
_atom_site_type_symbol
_atom_site_fract_x
_atom_site_fract_y
_atom_site_fract_z
O1 O 0.42683(16) 0.72685(15) 0.66604(12)
O2 O 0.4589(2) 1.27563(17) 0.63437(16)
O3 O 0.20256(19) 1.22029(17) 0.72605(14)
O4 O 0.7001(4) 1.3820(4) 0.8855(3)
O5 O 0.7751(5) 1.2557(4) 1.0301(2)
N1 N 0.6440(2) 0.52577(19) 0.59401(16)
H1 H 0.74980 0.48200 0.56320
H2 H 0.56740 0.46840 0.60920
N2 N 1.0204(2) 0.7037(2) 0.49837(19)
N3 N 0.7329(4) 1.2585(4) 0.9430(2)
C1 C 0.5988(2) 0.6821(2) 0.61807(15)
C2 C 0.7002(2) 0.7906(2) 0.60051(15)
C3 C 0.6320(2) 0.9550(2) 0.65293(15)
H3 H 0.68620 1.03460 0.59680
C4 C 0.4407(2) 1.0016(2) 0.67051(15)
C5 C 0.3494(2) 0.8905(2) 0.67722(15)
C6 C 0.1637(3) 0.9081(3) 0.6947(2)
H4 H 0.11750 1.01610 0.66960
H5 H 0.10620 0.88910 0.77620
H6 H 0.14760 0.83050 0.64970
C7 C 0.3702(2) 1.1780(2) 0.67468(16)
C8 C 0.1247(3) 1.3945(3) 0.7246(2)
H7 H 0.00980 1.40960 0.71970
H8 H 0.19060 1.44930 0.65630
C9 C 0.1194(4) 1.4657(3) 0.8315(2)
H9 H 0.05660 1.57620 0.83400
H10 H 0.23360 1.46320 0.83110
H11 H 0.06440 1.40410 0.89900
C10 C 0.6699(2) 0.9597(2) 0.76780(15)
C11 C 0.6902(3) 1.1026(3) 0.80095(17)
H12 H 0.68410 1.19640 0.75250
C12 C 0.7194(3) 1.1041(3) 0.90676(19)
C13 C 0.7329(3) 0.9690(4) 0.9805(2)
H13 H 0.75480 0.97310 1.05070
C14 C 0.7131(3) 0.8278(4) 0.9478(2)
H14 H 0.72100 0.73430 0.99650
C15 C 0.6812(3) 0.8224(3) 0.84249(18)
H15 H 0.66730 0.72550 0.82180
C16 C 0.8771(2) 0.7416(2) 0.54422(17)
#END
