
#######################################################################
#
#                 Cambridge Crystallographic Data Centre
#                                CCDC
#
#######################################################################
#
# If this CIF has been generated from an entry in the Cambridge
# Structural Database, then it will include bibliographic, chemical,
# crystal, experimental, refinement or atomic coordinate data resulting
# from the CCDC's data processing and validation procedures.
#
#######################################################################

data_CSD_CIF_QIMGIC
_audit_creation_date 2001-06-22
_audit_creation_method CSD-ConQuest-V1
_database_code_CSD QIMGIC
_database_code_depnum_ccdc_archive 'CCDC 164669'
_chemical_formula_sum 'C15 H13 N3 O4'
_chemical_formula_moiety
;
C15 H13 N3 O4
;
_journal_coeditor_code "IUCr BM1442"
_journal_coden_Cambridge 591
_journal_volume 57
_journal_year 2001
_journal_page_first 616
_journal_name_full 'Acta Crystallogr.,Sect.C:Cryst.Struct.Commun. '
loop_
_publ_author_name
"V.N.Nesterov"
"E.A.Viltchinskaia"
_chemical_name_systematic
;
5-acetyl-2-amino-6-methyl-4-(3-nitrophenyl)-4H-pyran-3-carbonitrile
;
_chemical_melting_point 492
_cell_volume    704.327
_exptl_crystal_colour 'colorless'
_exptl_crystal_density_diffrn 1.411
_exptl_special_details
;
possible biological activity

;
_exptl_crystal_description 'parallelepiped prism'
_exptl_crystal_preparation 'ethanol'
_diffrn_ambient_temperature ?
_diffrn_special_details
;
The study was carried out at room temperature,in the range 283-303K

;
#These two values have been output from a single CSD field.
_refine_ls_R_factor_gt 0.0552
_refine_ls_wR_factor_gt 0.0552
_symmetry_cell_setting triclinic
_symmetry_space_group_name_H-M 'P -1'
_symmetry_Int_Tables_number 2
loop_
_symmetry_equiv_pos_site_id
_symmetry_equiv_pos_as_xyz
1 x,y,z
2 -x,-y,-z
_cell_length_a 8.1470(16)
_cell_length_b 8.4120(17)
_cell_length_c 11.149(2)
_cell_angle_alpha 98.46(3)
_cell_angle_beta 108.69(3)
_cell_angle_gamma 96.93(3)
_cell_formula_units_Z 2
loop_
_atom_type_symbol
_atom_type_radius_bond
C 0.68
H 0.23
N 0.68
O 0.68
loop_
_atom_site_label
_atom_site_type_symbol
_atom_site_fract_x
_atom_site_fract_y
_atom_site_fract_z
O1 O 0.40336(19) 0.49394(16) 0.30002(15)
O2 O 0.4262(2) 1.05888(19) 0.3402(2)
O3 O 0.7438(3) 1.2880(3) 0.1398(3)
O4 O 0.8359(4) 1.1941(3) -0.0112(3)
N1 N 0.6282(3) 0.3812(2) 0.4021(2)
H1 H 0.73650 0.38140 0.44570
H2 H 0.55200 0.29240 0.37950
N2 N 1.0069(3) 0.7102(3) 0.5306(2)
N3 N 0.7720(3) 1.1754(3) 0.0712(2)
C1 C 0.5783(3) 0.5187(2) 0.3696(2)
C2 C 0.6797(3) 0.6685(2) 0.39678(19)
C3 C 0.6050(3) 0.8074(2) 0.34073(19)
H3 H 0.65700 0.90780 0.40630
C4 C 0.4070(3) 0.7779(2) 0.31246(19)
C5 C 0.3164(3) 0.6254(2) 0.2869(2)
C6 C 0.1242(3) 0.5591(3) 0.2389(3)
H4 H 0.06220 0.62660 0.18430
H5 H 0.08390 0.55810 0.31080
H6 H 0.10230 0.44980 0.19040
C7 C 0.3291(3) 0.9282(2) 0.3171(2)
C8 C 0.1404(3) 0.9291(3) 0.2999(3)
H7 H 0.12090 1.03980 0.31060
H8 H 0.11040 0.87740 0.36320
H9 H 0.06810 0.87080 0.21490
C9 C 0.6480(3) 0.8320(2) 0.2202(2)
C10 C 0.6887(3) 0.9885(3) 0.1993(2)
H10 H 0.68980 1.07930 0.25840
C11 C 0.7275(3) 1.0080(3) 0.0906(2)
C12 C 0.7290(3) 0.8787(3) -0.0005(2)
H11 H 0.75610 0.89550 -0.07320
C13 C 0.6886(4) 0.7225(3) 0.0207(3)
H12 H 0.68750 0.63230 -0.03900
C14 C 0.6500(3) 0.6998(3) 0.1292(2)
H13 H 0.62480 0.59420 0.14210
C15 C 0.8596(3) 0.6910(2) 0.4715(2)
#END
