
#######################################################################
#
#                 Cambridge Crystallographic Data Centre
#                                CCDC
#
#######################################################################
#
# If this CIF has been generated from an entry in the Cambridge
# Structural Database, then it will include bibliographic, chemical,
# crystal, experimental, refinement or atomic coordinate data resulting
# from the CCDC's data processing and validation procedures.
#
#######################################################################

data_CSD_CIF_QIMGAU02
_audit_creation_date 2014-12-05
_audit_creation_method CSD-ConQuest-V1
_database_code_CSD QIMGAU02
_database_code_depnum_ccdc_archive 'CCDC 963830'
_chemical_formula_sum 'C7 H5 N1 O4'
_chemical_formula_moiety
;
C7 H5 N1 O4
;
_journal_coden_Cambridge 41
_journal_volume 59
_journal_year 2014
_journal_page_first 1013
_journal_name_full 'Kristallografiya(Russ.)(Crystallogr.Rep.) '
loop_
_publ_author_name
"K.Lyczko"
"M.Lyczko"
_chemical_name_systematic
;
2-hydroxy-5-nitrocyclohepta-2,4,6-trien-1-one
;
_chemical_name_common
;
5-nitrotropolone
;
_cell_volume    664.029
_exptl_crystal_colour 'yellow orange'
_exptl_crystal_density_diffrn 1.672
_exptl_special_details
;
P-1 polymorph

;
_exptl_crystal_description 'block'
_diffrn_ambient_temperature 100
#These two values have been output from a single CSD field.
_refine_ls_R_factor_gt 0.0357
_refine_ls_wR_factor_gt 0.0357
_symmetry_cell_setting triclinic
_symmetry_space_group_name_H-M 'P -1'
_symmetry_Int_Tables_number 2
loop_
_symmetry_equiv_pos_site_id
_symmetry_equiv_pos_as_xyz
1 x,y,z
2 -x,-y,-z
_cell_length_a 6.4661(6)
_cell_length_b 7.5418(5)
_cell_length_c 14.1217(13)
_cell_angle_alpha 84.996(6)
_cell_angle_beta 89.662(7)
_cell_angle_gamma 75.479(6)
_cell_formula_units_Z 4
loop_
_atom_type_symbol
_atom_type_radius_bond
C 0.68
H 0.23
N 0.68
O 0.68
loop_
_atom_site_label
_atom_site_type_symbol
_atom_site_fract_x
_atom_site_fract_y
_atom_site_fract_z
O1 O 0.44409(18) 0.21721(16) 0.47887(8)
N1 N -0.3091(2) 0.7516(2) 0.30916(10)
O2 O -0.4788(2) 0.73120(18) 0.28003(10)
C1 C -0.1954(3) 0.4227(2) 0.34199(11)
H1 H -0.33350 0.43000 0.31680
O3 O -0.2710(2) 0.90282(17) 0.31093(10)
C2 C -0.1415(3) 0.5861(2) 0.34438(11)
C3 C 0.2267(3) 0.4971(2) 0.41618(11)
H2 H 0.33850 0.55040 0.43260
C4 C 0.1282(3) 0.1885(2) 0.41224(12)
C5 C 0.0500(3) 0.6205(2) 0.37643(11)
H3 H 0.05700 0.74530 0.36950
C6 C 0.2736(2) 0.3011(2) 0.43756(11)
C7 C -0.0732(3) 0.2455(2) 0.37190(11)
H4 H -0.14020 0.14950 0.36290
O4 O 0.2039(2) 0.00919(17) 0.43293(9)
H5 H 0.334(4) -0.008(3) 0.4580(17)
O5 O 1.44950(18) 0.81538(17) 0.97859(8)
N2 N 0.7045(2) 0.6361(2) 0.81724(10)
O6 O 0.71569(19) 0.47572(17) 0.84660(9)
O7 O 0.56246(19) 0.72807(17) 0.76256(8)
C8 C 1.0523(3) 0.6003(2) 0.89160(11)
H6 H 1.05270 0.47390 0.89510
C9 C 1.1409(3) 0.9910(2) 0.90122(11)
C10 C 0.8210(3) 0.9107(2) 0.83232(11)
H7 H 0.68820 0.96690 0.80100
C11 C 1.2289(3) 0.6390(2) 0.92812(11)
H8 H 1.33720 0.53380 0.95080
C12 C 1.2802(2) 0.8115(2) 0.93831(11)
C13 C 0.8691(3) 0.7240(2) 0.84934(11)
C14 C 0.9453(3) 1.0292(2) 0.85584(11)
H9 H 0.88470 1.15580 0.83750
O8 O 1.2189(2) 1.13421(17) 0.91484(9)
H10 H 1.339(4) 1.089(3) 0.9462(17)
#END
