
#######################################################################
#
#                 Cambridge Crystallographic Data Centre
#                                CCDC
#
#######################################################################
#
# If this CIF has been generated from an entry in the Cambridge
# Structural Database, then it will include bibliographic, chemical,
# crystal, experimental, refinement or atomic coordinate data resulting
# from the CCDC's data processing and validation procedures.
#
#######################################################################

data_CSD_CIF_QIMGAU01
_audit_creation_date 2014-12-05
_audit_creation_method CSD-ConQuest-V1
_database_code_CSD QIMGAU01
_database_code_depnum_ccdc_archive 'CCDC 963829'
_chemical_formula_sum 'C7 H5 N1 O4'
_chemical_formula_moiety
;
C7 H5 N1 O4
;
_journal_coden_Cambridge 41
_journal_volume 59
_journal_year 2014
_journal_page_first 1013
_journal_name_full 'Kristallografiya(Russ.)(Crystallogr.Rep.) '
loop_
_publ_author_name
"K.Lyczko"
"M.Lyczko"
_chemical_name_systematic
;
2-hydroxy-5-nitrocyclohepta-2,4,6-trien-1-one
;
_cell_volume    668.784
_exptl_crystal_colour 'yellow'
_exptl_crystal_density_diffrn 1.66
_exptl_special_details
;
P21/n polymorph

;
_exptl_crystal_description 'plate'
_diffrn_ambient_temperature 100
#These two values have been output from a single CSD field.
_refine_ls_R_factor_gt 0.0403
_refine_ls_wR_factor_gt 0.0403
_symmetry_cell_setting monoclinic
_symmetry_space_group_name_H-M 'P 21/n'
_symmetry_Int_Tables_number 14
loop_
_symmetry_equiv_pos_site_id
_symmetry_equiv_pos_as_xyz
1 x,y,z
2 1/2-x,1/2+y,1/2-z
3 -x,-y,-z
4 -1/2+x,-1/2-y,-1/2+z
_cell_length_a 5.6283(7)
_cell_length_b 5.0018(6)
_cell_length_c 23.810(3)
_cell_angle_alpha 90
_cell_angle_beta 93.842(11)
_cell_angle_gamma 90
_cell_formula_units_Z 4
loop_
_atom_type_symbol
_atom_type_radius_bond
C 0.68
H 0.23
N 0.68
O 0.68
loop_
_atom_site_label
_atom_site_type_symbol
_atom_site_fract_x
_atom_site_fract_y
_atom_site_fract_z
O1 O 0.8312(2) 1.2549(2) 0.01255(5)
O2 O 0.9749(2) 0.4301(3) 0.23564(5)
O3 O 0.6145(2) 0.4102(3) 0.19820(5)
N1 N 0.8172(3) 0.5022(3) 0.20087(6)
C1 C 0.7046(3) 0.9090(4) 0.06907(7)
H1 H 0.57310 0.88880 0.04230
C2 C 0.7036(3) 0.7371(3) 0.11354(7)
H2 H 0.57150 0.61880 0.11340
C3 C 0.8691(3) 1.1151(3) 0.05560(7)
C4 C 1.0896(3) 1.1716(4) 0.09060(7)
C5 C 0.8725(3) 0.7117(3) 0.15958(7)
C6 C 1.0786(3) 0.8487(4) 0.17149(7)
H3 H 1.16850 0.79820 0.20500
C7 C 1.1743(3) 1.0554(4) 0.14027(7)
H4 H 1.32070 1.12640 0.15590
O4 O 1.2241(2) 1.3647(3) 0.07045(5)
H5 H 1.138(5) 1.437(5) 0.0403(13)
#END
