
#######################################################################
#
#                 Cambridge Crystallographic Data Centre
#                                CCDC
#
#######################################################################
#
# If this CIF has been generated from an entry in the Cambridge
# Structural Database, then it will include bibliographic, chemical,
# crystal, experimental, refinement or atomic coordinate data resulting
# from the CCDC's data processing and validation procedures.
#
#######################################################################

data_CSD_CIF_QIQBID
_audit_creation_date 2013-10-30
_audit_creation_method CSD-ConQuest-V1
_database_code_CSD QIQBID
_database_code_depnum_ccdc_archive 'CCDC 969353'
_chemical_formula_sum 'C22 H19 N3 O4'
_chemical_formula_moiety
;
C22 H19 N3 O4
;
_journal_coeditor_code "IUCr hb7133"
_journal_coden_Cambridge 1370
_journal_volume 69
_journal_year 2013
_journal_page_first o1528
_journal_name_full 'Acta Crystallogr.,Sect.E:Struct.Rep.Online '
loop_
_publ_author_name
"N.Vinutha"
"S.Madan Kumar"
"B.S.Vidyashree Jois"
"K.Balakrishna"
"N.K.Lokanath"
"D.Revannasiddaiah"
_chemical_name_systematic
;
1-(3-(4-Methylphenyl)-5-[5-(2-nitrophenyl)furan-2-yl]-4,5-dihydro-1H-pyrazol-1
-yl)ethanone
;
_cell_volume    961.778
_exptl_crystal_colour 'brown'
_exptl_crystal_density_diffrn 1.345
_exptl_crystal_description 'block'
_diffrn_ambient_temperature 296
#These two values have been output from a single CSD field.
_refine_ls_R_factor_gt 0.0839
_refine_ls_wR_factor_gt 0.0839
_symmetry_cell_setting triclinic
_symmetry_space_group_name_H-M 'P -1'
_symmetry_Int_Tables_number 2
loop_
_symmetry_equiv_pos_site_id
_symmetry_equiv_pos_as_xyz
1 x,y,z
2 -x,-y,-z
_cell_length_a 7.6235(3)
_cell_length_b 10.5652(4)
_cell_length_c 13.1177(4)
_cell_angle_alpha 103.344(2)
_cell_angle_beta 95.025(2)
_cell_angle_gamma 108.221(2)
_cell_formula_units_Z 2
loop_
_atom_type_symbol
_atom_type_radius_bond
C 0.68
H 0.23
N 0.68
O 0.68
loop_
_atom_site_label
_atom_site_type_symbol
_atom_site_fract_x
_atom_site_fract_y
_atom_site_fract_z
O1 O 0.2462(4) 0.4170(3) 0.8072(2)
O2 O 0.0362(6) 0.3831(5) 0.6738(2)
O3 O 0.1066(3) 0.1532(2) 0.82063(14)
O4 O 0.0746(4) -0.2396(2) 0.77708(19)
N1 N 0.0831(5) 0.3916(3) 0.7666(2)
N2 N 0.1731(4) -0.0929(2) 0.67816(18)
N3 N 0.1833(4) -0.0661(2) 0.57957(19)
C1 C -0.2096(5) 0.2889(3) 0.9665(3)
C2 C -0.3242(5) 0.3645(4) 0.9620(3)
C3 C -0.3090(5) 0.4456(4) 0.8924(3)
C4 C -0.1778(5) 0.4506(3) 0.8273(3)
C5 C -0.0621(4) 0.3744(3) 0.8330(2)
C6 C -0.0729(4) 0.2910(3) 0.9021(2)
C7 C 0.0452(4) 0.2079(3) 0.9105(2)
C8 C 0.2155(4) 0.0806(3) 0.8501(2)
C9 C 0.2212(5) 0.0893(3) 0.9544(2)
C10 C 0.1110(5) 0.1697(3) 0.9934(2)
C11 C 0.3075(4) 0.0204(3) 0.7665(2)
C12 C 0.0708(5) -0.2192(3) 0.6880(2)
C13 C -0.0432(5) -0.3260(3) 0.5893(3)
C14 C 0.3124(4) 0.0530(3) 0.5932(2)
C15 C 0.4090(4) 0.1216(3) 0.7063(2)
C16 C 0.3564(4) 0.1109(3) 0.5040(2)
C17 C 0.2619(4) 0.0440(3) 0.4011(3)
C18 C 0.3054(5) 0.1030(3) 0.3190(3)
C19 C 0.4428(5) 0.2314(4) 0.3360(3)
C20 C 0.5380(5) 0.2980(4) 0.4389(3)
C21 C 0.4980(5) 0.2405(3) 0.5222(3)
C22 C 0.4863(6) 0.2965(5) 0.2462(4)
H1 H -0.22270 0.23450 1.01380
H2 H -0.41350 0.36140 1.00620
H3 H -0.38780 0.49690 0.88980
H4 H -0.16700 0.50470 0.77980
H5 H 0.28560 0.04970 0.99370
H6 H 0.08830 0.19190 1.06270
H7 H 0.39680 -0.01490 0.79860
H8 H -0.08350 -0.41510 0.60300
H9 H 0.03140 -0.32780 0.53400
H10 H -0.15080 -0.30380 0.56720
H11 H 0.39530 0.21130 0.73180
H12 H 0.54140 0.13360 0.71370
H13 H 0.16790 -0.04200 0.38710
H14 H 0.24060 0.05540 0.25040
H15 H 0.63170 0.38400 0.45230
H16 H 0.56480 0.28760 0.59050
H17 H 0.37170 0.28030 0.20040
H18 H 0.56460 0.25620 0.20630
H19 H 0.55040 0.39440 0.27470
#END
