
#######################################################################
#
#                 Cambridge Crystallographic Data Centre
#                                CCDC
#
#######################################################################
#
# If this CIF has been generated from an entry in the Cambridge
# Structural Database, then it will include bibliographic, chemical,
# crystal, experimental, refinement or atomic coordinate data resulting
# from the CCDC's data processing and validation procedures.
#
#######################################################################

data_CSD_CIF_QIRCEZ
_audit_creation_date 2001-07-02
_audit_creation_method CSD-ConQuest-V1
_database_code_CSD QIRCEZ
_chemical_formula_sum 'C16 H18 N3 O2'
_chemical_formula_moiety
;
C16 H18 N3 O2
;
_journal_coden_Cambridge 191
_journal_volume 200
_journal_year 1992
_journal_page_first 235
_journal_name_full 'Chem.Phys.Lett. '
loop_
_publ_author_name
"T.Sugano"
"M.Tamura"
"M.Kinoshita"
"Y.Sakai"
"Y.Ohashi"
_chemical_name_systematic
;
2-(3-Quinolyl)-4,4,5,5-tetramethyl-4,5-dihydro-1H-imidazolyl-1-oxyl-3-oxide
;
_chemical_name_common
;
3-Quinolyl nitronyl nitroxide
;
_cell_volume    709.833
_exptl_crystal_colour 'black'
_exptl_crystal_density_diffrn 1.33
_exptl_crystal_preparation 'benzene'
_diffrn_ambient_temperature ?
_diffrn_special_details
;
The study was carried out at room temperature,in the range 283-303K

;
#These two values have been output from a single CSD field.
_refine_ls_R_factor_gt 0.062
_refine_ls_wR_factor_gt 0.062
_symmetry_cell_setting monoclinic
_symmetry_space_group_name_H-M 'P 21'
_symmetry_Int_Tables_number 4
loop_
_symmetry_equiv_pos_site_id
_symmetry_equiv_pos_as_xyz
1 x,y,z
2 -x,1/2+y,-z
_cell_length_a 10.5356(8)
_cell_length_b 11.0273(7)
_cell_length_c 6.1267(5)
_cell_angle_alpha 90
_cell_angle_beta 94.255(6)
_cell_angle_gamma 90
_cell_formula_units_Z 2
loop_
_atom_type_symbol
_atom_type_radius_bond
C 0.68
N 0.68
O 0.68
loop_
_atom_site_label
_atom_site_type_symbol
_atom_site_fract_x
_atom_site_fract_y
_atom_site_fract_z
O1 O 0.3103(5) -0.06330 0.548(1)
O2 O 0.0840(6) 0.2168(7) 0.106(1)
N1 N 0.2303(6) -0.0158(8) 0.402(1)
N2 N 0.1237(6) 0.1172(8) 0.195(1)
N3 N 0.3829(6) 0.2726(8) 0.825(1)
C1 C 0.3293(8) 0.187(1) 0.701(1)
C2 C 0.2794(7) 0.204(1) 0.478(1)
C3 C 0.2880(7) 0.318(1) 0.387(1)
C4 C 0.3446(7) 0.4115(9) 0.516(1)
C5 C 0.3906(7) 0.386(1) 0.735(1)
C6 C 0.3510(8) 0.534(1) 0.437(1)
C7 C 0.4015(8) 0.6223(9) 0.579(1)
C8 C 0.4486(8) 0.596(1) 0.791(1)
C9 C 0.4423(8) 0.481(1) 0.872(1)
C10 C 0.2147(7) 0.105(1) 0.356(1)
C11 C 0.1504(7) -0.0940(9) 0.245(1)
C12 C 0.0549(7) -0.0002(9) 0.138(1)
C13 C 0.0328(9) -0.008(1) -0.107(1)
C14 C -0.0701(8) 0.006(1) 0.243(1)
C15 C 0.0892(8) -0.195(1) 0.366(1)
C16 C 0.2420(9) -0.148(1) 0.081(1)
#END
