
#######################################################################
#
#                 Cambridge Crystallographic Data Centre
#                                CCDC
#
#######################################################################
#
# If this CIF has been generated from an entry in the Cambridge
# Structural Database, then it will include bibliographic, chemical,
# crystal, experimental, refinement or atomic coordinate data resulting
# from the CCDC's data processing and validation procedures.
#
#######################################################################

data_CSD_CIF_QIRCID
_audit_creation_date 2001-07-02
_audit_creation_method CSD-ConQuest-V1
_database_code_CSD QIRCID
_database_code_depnum_ccdc_archive 'CCDC 158184'
_chemical_formula_sum 'C17 H19 N2 O2'
_chemical_formula_moiety
;
C17 H19 N2 O2
;
_journal_coden_Cambridge 208
_journal_volume 145
_journal_year 1999
_journal_page_first 427
_journal_name_full 'J.Solid State Chem. '
loop_
_publ_author_name
"T.Sugano"
"M.Kurmoo"
"H.Uekusa"
"Y.Ohashi"
"P.Day"
_chemical_name_systematic
;
2-(1-Naphthyl)-4,4,5,5-tetramethyl-4,5-dihydro-1H-imidazolyl-1-oxyl-3-oxide
;
_chemical_name_common
;
1-Naphthyl nitronyl nitroxide
;
_cell_volume   1515.934
_exptl_crystal_colour 'black'
_exptl_crystal_density_diffrn 1.24
_exptl_crystal_description 'plate'
_exptl_crystal_preparation 'methanol'
_diffrn_ambient_temperature ?
_diffrn_special_details
;
The study was carried out at room temperature,in the range 283-303K

;
#These two values have been output from a single CSD field.
_refine_ls_R_factor_gt 0.062
_refine_ls_wR_factor_gt 0.062
_symmetry_cell_setting monoclinic
_symmetry_space_group_name_H-M 'C c'
_symmetry_Int_Tables_number 9
loop_
_symmetry_equiv_pos_site_id
_symmetry_equiv_pos_as_xyz
1 x,y,z
2 x,-y,1/2+z
3 1/2+x,1/2+y,z
4 1/2+x,1/2-y,1/2+z
_cell_length_a 12.492(4)
_cell_length_b 7.676(4)
_cell_length_c 15.925(3)
_cell_angle_alpha 90
_cell_angle_beta 96.91(2)
_cell_angle_gamma 90
_cell_formula_units_Z 4
loop_
_atom_type_symbol
_atom_type_radius_bond
C 0.68
H 0.23
N 0.68
O 0.68
loop_
_atom_site_label
_atom_site_type_symbol
_atom_site_fract_x
_atom_site_fract_y
_atom_site_fract_z
O1 O 0.12410 0.596(1) 0.57930
O2 O -0.013(1) 0.245(1) 0.7758(7)
N1 N 0.097(1) 0.541(1) 0.6489(7)
N2 N 0.031(1) 0.376(1) 0.7409(8)
C1 C 0.051(1) 0.382(2) 0.6600(8)
C2 C 0.022(1) 0.248(1) 0.5986(9)
C3 C 0.106(1) 0.170(1) 0.5551(9)
C4 C 0.216(1) 0.205(1) 0.5719(9)
C5 C 0.289(1) 0.124(2) 0.5267(10)
C6 C 0.255(2) -0.001(2) 0.463(1)
C7 C 0.146(2) -0.036(2) 0.4479(10)
C8 C 0.071(2) 0.041(2) 0.4908(8)
C9 C -0.038(2) -0.002(2) 0.4720(9)
C10 C -0.114(1) 0.076(1) 0.5165(10)
C11 C -0.079(1) 0.201(2) 0.5778(10)
C12 C 0.047(2) 0.549(2) 0.7857(9)
C13 C 0.116(2) 0.641(2) 0.7316(10)
C14 C 0.072(2) 0.532(2) 0.873(1)
C15 C -0.065(2) 0.657(3) 0.763(2)
C16 C 0.121(3) 0.817(2) 0.719(1)
C17 C 0.240(2) 0.576(3) 0.770(2)
H1 H 0.24480 0.28960 0.61650
H2 H 0.37070 0.15140 0.53530
H3 H 0.30250 -0.06120 0.42940
H4 H 0.12010 -0.12420 0.40140
H5 H -0.05510 -0.09020 0.42840
H6 H -0.18800 0.03740 0.50640
H7 H -0.13170 0.26410 0.60570
H8 H 0.01910 0.46800 0.89900
H9 H 0.14140 0.46060 0.88830
H10 H 0.08730 0.63780 0.90420
H11 H -0.05520 0.77270 0.77730
H12 H -0.09020 0.63780 0.70660
H13 H -0.11600 0.60460 0.79820
H14 H 0.13760 0.87450 0.77160
H15 H 0.18550 0.84100 0.68780
H16 H 0.06110 0.85790 0.68770
H17 H 0.25060 0.45720 0.78330
H18 H 0.29860 0.60700 0.73400
H19 H 0.26930 0.63940 0.82470
#END
