
#######################################################################
#
#                 Cambridge Crystallographic Data Centre
#                                CCDC
#
#######################################################################
#
# If this CIF has been generated from an entry in the Cambridge
# Structural Database, then it will include bibliographic, chemical,
# crystal, experimental, refinement or atomic coordinate data resulting
# from the CCDC's data processing and validation procedures.
#
#######################################################################

data_CSD_CIF_QIRCUP
_audit_creation_date 2001-07-02
_audit_creation_method CSD-ConQuest-V1
_database_code_CSD QIRCUP
_database_code_depnum_ccdc_archive 'CCDC 158186'
_chemical_formula_sum 'C16 H18 N3 O2'
_chemical_formula_moiety
;
C16 H18 N3 O2
;
_journal_coden_Cambridge 208
_journal_volume 145
_journal_year 1999
_journal_page_first 427
_journal_name_full 'J.Solid State Chem. '
loop_
_publ_author_name
"T.Sugano"
"M.Kurmoo"
"H.Uekusa"
"Y.Ohashi"
"P.Day"
_chemical_name_systematic
;
2-(2-Quinolyl)-4,4,5,5-tetramethyl-4,5-dihydro-1H-imidazolyl-1-oxyl-3-oxide
;
_chemical_name_common
;
2-Quinolyl nitronyl nitroxide
;
_cell_volume   1521.034
_exptl_crystal_colour 'black'
_exptl_crystal_density_diffrn 1.24
_exptl_crystal_description 'plate'
_exptl_crystal_preparation 'benzene'
_diffrn_ambient_temperature ?
_diffrn_special_details
;
The study was carried out at room temperature,in the range 283-303K

;
#These two values have been output from a single CSD field.
_refine_ls_R_factor_gt 0.076
_refine_ls_wR_factor_gt 0.076
_symmetry_cell_setting monoclinic
_symmetry_space_group_name_H-M 'C c'
_symmetry_Int_Tables_number 9
loop_
_symmetry_equiv_pos_site_id
_symmetry_equiv_pos_as_xyz
1 x,y,z
2 x,-y,1/2+z
3 1/2+x,1/2+y,z
4 1/2+x,1/2-y,1/2+z
_cell_length_a 6.575(4)
_cell_length_b 20.332(5)
_cell_length_c 11.409(5)
_cell_angle_alpha 90
_cell_angle_beta 94.23(4)
_cell_angle_gamma 90
_cell_formula_units_Z 4
loop_
_atom_type_symbol
_atom_type_radius_bond
C 0.68
H 0.23
N 0.68
O 0.68
loop_
_atom_site_label
_atom_site_type_symbol
_atom_site_fract_x
_atom_site_fract_y
_atom_site_fract_z
O1 O 0.62830 0.4524(4) 0.24210
O2 O 0.151(2) 0.3393(4) 0.440(1)
N1 N 0.530(2) 0.4289(4) 0.324(1)
N2 N 0.298(2) 0.3761(4) 0.420(1)
N3 N 0.371(2) 0.3386(4) 0.124(1)
C1 C 0.270(2) 0.3222(5) 0.019(1)
C2 C 0.389(3) 0.2865(5) -0.063(1)
C3 C 0.294(3) 0.2706(7) -0.170(1)
C4 C 0.095(3) 0.2836(7) -0.199(1)
C5 C -0.029(3) 0.3145(7) -0.120(1)
C6 C 0.067(3) 0.3334(5) -0.008(1)
C7 C -0.050(2) 0.3649(6) 0.078(1)
C8 C 0.049(2) 0.3811(6) 0.182(1)
C9 C 0.263(2) 0.3689(5) 0.201(1)
C10 C 0.371(2) 0.3916(6) 0.311(1)
C11 C 0.561(2) 0.4543(5) 0.448(1)
C12 C 0.447(2) 0.4031(6) 0.518(1)
C13 C 0.790(2) 0.4622(8) 0.483(1)
C14 C 0.459(3) 0.5231(6) 0.444(1)
C15 C 0.572(3) 0.3463(7) 0.564(1)
C16 C 0.321(3) 0.4318(9) 0.613(1)
H1 H 0.53(2) 0.275(6) -0.05(1)
H2 H 0.38(2) 0.232(6) -0.21(1)
H3 H 0.02(2) 0.262(6) -0.28(1)
H4 H -0.16(2) 0.321(7) -0.14(1)
H5 H -0.21(2) 0.373(5) 0.07(1)
H6 H -0.01(2) 0.395(6) 0.24(1)
H7 H 0.86(2) 0.419(7) 0.47(1)
H8 H 0.85(2) 0.493(7) 0.43(1)
H9 H 0.81(2) 0.468(7) 0.55(1)
H10 H 0.54(2) 0.537(6) 0.52(1)
H11 H 0.56(2) 0.546(6) 0.40(1)
H12 H 0.31(2) 0.529(6) 0.44(1)
H13 H 0.50(2) 0.307(7) 0.57(1)
H14 H 0.71(2) 0.336(7) 0.51(1)
H15 H 0.71(2) 0.374(7) 0.61(1)
H16 H 0.40(2) 0.465(7) 0.68(1)
H17 H 0.20(2) 0.467(6) 0.57(1)
H18 H 0.21(2) 0.412(7) 0.63(1)
#END
