
#######################################################################
#
#                 Cambridge Crystallographic Data Centre
#                                CCDC
#
#######################################################################
#
# If this CIF has been generated from an entry in the Cambridge
# Structural Database, then it will include bibliographic, chemical,
# crystal, experimental, refinement or atomic coordinate data resulting
# from the CCDC's data processing and validation procedures.
#
#######################################################################

data_CSD_CIF_QIRDAW
_audit_creation_date 2001-07-02
_audit_creation_method CSD-ConQuest-V1
_database_code_CSD QIRDAW
_database_code_depnum_ccdc_archive 'CCDC 158187'
_chemical_formula_sum 'C16 H18 N3 O2'
_chemical_formula_moiety
;
C16 H18 N3 O2
;
_journal_coden_Cambridge 208
_journal_volume 145
_journal_year 1999
_journal_page_first 427
_journal_name_full 'J.Solid State Chem. '
loop_
_publ_author_name
"T.Sugano"
"M.Kurmoo"
"H.Uekusa"
"Y.Ohashi"
"P.Day"
_chemical_name_systematic
;
2-(4-Quinolyl)-4,4,5,5-tetramethyl-4,5-dihydro-1H-imidazolyl-1-oxyl-3-oxide
;
_chemical_name_common
;
4-Quinolyl nitronyl nitroxide
;
_cell_volume    731.814
_exptl_crystal_colour 'black'
_exptl_crystal_density_diffrn 1.29
_exptl_special_details
;
x(N3) is 0.7606, not 0.7666

;
_exptl_crystal_description 'plate'
_exptl_crystal_preparation 'benzene'
_diffrn_ambient_temperature ?
_diffrn_special_details
;
The study was carried out at room temperature,in the range 283-303K

;
#These two values have been output from a single CSD field.
_refine_ls_R_factor_gt 0.062
_refine_ls_wR_factor_gt 0.062
_symmetry_cell_setting triclinic
_symmetry_space_group_name_H-M 'P -1'
_symmetry_Int_Tables_number 2
loop_
_symmetry_equiv_pos_site_id
_symmetry_equiv_pos_as_xyz
1 x,y,z
2 -x,-y,-z
_cell_length_a 10.44(1)
_cell_length_b 10.678(7)
_cell_length_c 7.302(3)
_cell_angle_alpha 102.29(4)
_cell_angle_beta 102.41(7)
_cell_angle_gamma 68.55(8)
_cell_formula_units_Z 2
loop_
_atom_type_symbol
_atom_type_radius_bond
C 0.68
H 0.23
N 0.68
O 0.68
loop_
_atom_site_label
_atom_site_type_symbol
_atom_site_fract_x
_atom_site_fract_y
_atom_site_fract_z
O1 O 1.0083(4) -0.0474(4) 0.7437(7)
O2 O 0.5422(4) 0.1126(4) 0.8034(6)
N1 N 0.8863(5) -0.0411(5) 0.7516(6)
N2 N 0.6661(5) 0.0342(4) 0.7890(6)
N3 N 0.7606(6) 0.4803(5) 0.8394(8)
C1 C 0.7769(6) 0.0686(6) 0.7905(8)
C2 C 0.7764(6) 0.2110(6) 0.8163(9)
C3 C 0.8276(7) 0.2483(6) 0.686(1)
C4 C 0.8204(7) 0.3842(7) 0.706(1)
C5 C 0.7178(6) 0.4443(6) 0.972(1)
C6 C 0.7206(6) 0.3097(6) 0.9690(9)
C7 C 0.6761(6) 0.2796(6) 1.119(1)
C8 C 0.6223(7) 0.3802(7) 1.258(1)
C9 C 0.6132(7) 0.5141(7) 1.258(1)
C10 C 0.6579(7) 0.5460(6) 1.119(1)
C11 C 0.8421(6) -0.1671(5) 0.6940(8)
C12 C 0.7098(6) -0.1173(6) 0.7907(8)
C13 C 0.8114(7) -0.1849(7) 0.477(1)
C14 C 0.9568(7) -0.2898(6) 0.761(1)
C15 C 0.5942(7) -0.1712(6) 0.688(1)
C16 C 0.7438(7) -0.1371(6) 0.999(1)
H1 H 0.86500 0.18370 0.58360
H2 H 0.85860 0.40810 0.61640
H3 H 0.68210 0.18910 1.12210
H4 H 0.59120 0.35980 1.35770
H5 H 0.57430 0.58380 1.35640
H6 H 0.64930 0.63830 1.11910
H7 H 0.73770 -0.10510 0.43830
H8 H 0.89150 -0.19490 0.42630
H9 H 0.78270 -0.26150 0.42970
H10 H 0.92750 -0.36650 0.72260
H11 H 1.03730 -0.30460 0.70730
H12 H 0.97740 -0.27370 0.89520
H13 H 0.51490 -0.12630 0.74920
H14 H 0.57410 -0.15590 0.56100
H15 H 0.62490 -0.26630 0.69310
H16 H 0.77080 -0.23040 1.00930
H17 H 0.81720 -0.10320 1.06150
H18 H 0.66340 -0.08770 1.06020
#END
