
#######################################################################
#
#                 Cambridge Crystallographic Data Centre
#                                CCDC
#
#######################################################################
#
# If this CIF has been generated from an entry in the Cambridge
# Structural Database, then it will include bibliographic, chemical,
# crystal, experimental, refinement or atomic coordinate data resulting
# from the CCDC's data processing and validation procedures.
#
#######################################################################

data_CSD_CIF_QIRQOZ
_audit_creation_date 2013-10-31
_audit_creation_method CSD-ConQuest-V1
_database_code_CSD QIRQOZ
_database_code_depnum_ccdc_archive 'CCDC 968632'
_chemical_formula_sum 'C11 H10 N4 O3'
_chemical_formula_moiety
;
C11 H10 N4 O3
;
_journal_coeditor_code "is5313"
_journal_coden_Cambridge 1370
_journal_volume 69
_journal_year 2013
_journal_page_first o1724
_journal_name_full 'Acta Crystallogr.,Sect.E:Struct.Rep.Online '
loop_
_publ_author_name
"N.Vinutha"
"S.Madan Kumar"
"Nithinchandra"
"K.Balakrishna"
"N.K.Lokanath"
"D.Revannasiddaiah"
_chemical_name_systematic
;
1-(5-Methyl-1-(4-nitrophenyl)-1H-1,2,3-triazol-4-yl)ethanone
;
_cell_volume   2279.510
_exptl_crystal_colour 'red'
_exptl_crystal_density_diffrn 1.435
_exptl_crystal_description 'block'
_exptl_crystal_preparation 'ethanol'
_diffrn_ambient_temperature 296
#These two values have been output from a single CSD field.
_refine_ls_R_factor_gt 0.0457
_refine_ls_wR_factor_gt 0.0457
_symmetry_cell_setting orthorhombic
_symmetry_space_group_name_H-M 'P c a 21'
_symmetry_Int_Tables_number 29
loop_
_symmetry_equiv_pos_site_id
_symmetry_equiv_pos_as_xyz
1 x,y,z
2 -x,-y,1/2+z
3 1/2-x,y,1/2+z
4 1/2+x,-y,z
_cell_length_a 7.2786(10)
_cell_length_b 11.5055(16)
_cell_length_c 27.220(4)
_cell_angle_alpha 90
_cell_angle_beta 90
_cell_angle_gamma 90
_cell_formula_units_Z 8
loop_
_atom_type_symbol
_atom_type_radius_bond
C 0.68
H 0.23
N 0.68
O 0.68
loop_
_atom_site_label
_atom_site_type_symbol
_atom_site_fract_x
_atom_site_fract_y
_atom_site_fract_z
O1 O 0.1681(6) 0.7317(4) 0.30010(16)
O2 O 0.5412(8) 0.8545(4) 0.64933(16)
O3 O 0.467(1) 1.0325(5) 0.64815(18)
N1 N 0.4033(6) 0.9759(4) 0.35049(15)
N2 N 0.4450(6) 0.9990(4) 0.39568(14)
N3 N 0.3707(5) 0.9122(3) 0.42410(12)
N4 N 0.4913(7) 0.9402(4) 0.62761(15)
C1 C 0.2812(6) 0.8331(4) 0.39621(15)
C2 C 0.3036(6) 0.8752(4) 0.34871(16)
C3 C 0.2316(7) 0.8288(5) 0.30239(18)
C4 C 0.2355(10) 0.9058(6) 0.2585(2)
C5 C 0.1735(7) 0.7346(4) 0.41484(19)
C6 C 0.3986(6) 0.9188(4) 0.47594(15)
C7 C 0.3940(7) 1.0257(4) 0.49864(17)
C8 C 0.4254(7) 1.0344(4) 0.54869(16)
C9 C 0.4592(7) 0.9331(4) 0.57459(16)
C10 C 0.4634(7) 0.8257(4) 0.55236(16)
C11 C 0.4341(6) 0.8185(4) 0.50253(16)
H1 H 0.24880 0.66610 0.41530
H2 H 0.36970 1.09220 0.48030
H3 H 0.06950 0.72180 0.39380
H4 H 0.42390 1.10620 0.56440
H5 H 0.13180 0.75140 0.44750
H6 H 0.17180 0.86890 0.23190
H7 H 0.48560 0.75900 0.57070
H8 H 0.36060 0.92010 0.24920
H9 H 0.43810 0.74690 0.48680
H10 H 0.17660 0.97820 0.26620
O4 O -0.0706(6) 0.3153(4) 0.04016(14)
O5 O 0.0771(8) 0.4308(5) 0.40221(15)
O6 O 0.1969(7) 0.2600(5) 0.40198(14)
N5 N 0.3210(5) 0.4147(4) 0.10651(14)
N6 N 0.3525(5) 0.4112(4) 0.15379(13)
N7 N 0.1961(5) 0.3690(3) 0.17486(12)
N8 N 0.1456(6) 0.3479(5) 0.38102(15)
C12 C 0.0636(6) 0.3448(4) 0.14185(17)
C13 C 0.1480(6) 0.3740(4) 0.09745(16)
C14 C 0.0683(7) 0.3710(4) 0.04782(15)
C15 C 0.1636(9) 0.4365(6) 0.00848(19)
C16 C -0.1210(8) 0.3025(5) 0.1540(2)
C17 C 0.1834(6) 0.3626(4) 0.22757(15)
C18 C 0.2290(8) 0.2619(4) 0.25147(17)
C19 C 0.2177(7) 0.2566(4) 0.30211(19)
C20 C 0.1605(6) 0.3519(5) 0.32681(16)
C21 C 0.1174(7) 0.4558(5) 0.30392(19)
C22 C 0.1287(8) 0.4607(5) 0.25360(18)
H11 H -0.13290 0.22300 0.14380
H12 H -0.21100 0.34910 0.13740
H13 H -0.13980 0.30770 0.18890
H14 H 0.28300 0.40340 0.00310
H15 H 0.17640 0.51630 0.01820
H16 H 0.09310 0.43210 -0.02130
H17 H 0.26730 0.19720 0.23370
H18 H 0.24890 0.18890 0.31880
H19 H 0.08170 0.52040 0.32210
H20 H 0.10010 0.52910 0.23710
#END
