
#######################################################################
#
#                 Cambridge Crystallographic Data Centre
#                                CCDC
#
#######################################################################
#
# If this CIF has been generated from an entry in the Cambridge
# Structural Database, then it will include bibliographic, chemical,
# crystal, experimental, refinement or atomic coordinate data resulting
# from the CCDC's data processing and validation procedures.
#
#######################################################################

data_CSD_CIF_QIRQOZ01
_audit_creation_date 2017-02-09
_audit_creation_method CSD-ConQuest-V1
_database_code_CSD QIRQOZ01
_database_code_depnum_ccdc_archive 'CCDC 995523'
_chemical_formula_sum 'C11 H10 N4 O3'
_chemical_formula_moiety
;
C11 H10 N4 O3
;
_journal_coden_Cambridge 1078
_journal_year 2016
_journal_name_full 'CSD Communication(Private Communication) '
loop_
_publ_author_name
"M.Bolte"
_chemical_name_systematic
;
1-(5-methyl-1-(4-nitrophenyl)-1H-1,2,3-triazol-4-yl)ethanone
;
_cell_volume   2209.043
_exptl_crystal_colour 'colorless'
_exptl_crystal_density_diffrn 1.481
_exptl_crystal_description 'needle'
_diffrn_ambient_temperature 173
#These two values have been output from a single CSD field.
_refine_ls_R_factor_gt 0.0571
_refine_ls_wR_factor_gt 0.0571
_symmetry_cell_setting orthorhombic
_symmetry_space_group_name_H-M 'P c a 21'
_symmetry_Int_Tables_number 29
loop_
_symmetry_equiv_pos_site_id
_symmetry_equiv_pos_as_xyz
1 x,y,z
2 -x,-y,1/2+z
3 1/2-x,y,1/2+z
4 1/2+x,-y,z
_cell_length_a 7.1223(16)
_cell_length_b 11.453(3)
_cell_length_c 27.081(4)
_cell_angle_alpha 90
_cell_angle_beta 90
_cell_angle_gamma 90
_cell_formula_units_Z 8
loop_
_atom_type_symbol
_atom_type_radius_bond
C 0.68
H 0.23
N 0.68
O 0.68
loop_
_atom_site_label
_atom_site_type_symbol
_atom_site_fract_x
_atom_site_fract_y
_atom_site_fract_z
O1 O 0.1707(6) 0.7301(3) 0.29936(17)
O2 O 0.5469(7) 0.8510(4) 0.64947(15)
O3 O 0.4626(9) 1.0310(4) 0.64882(16)
N1 N 0.4041(6) 0.9783(4) 0.34967(16)
N2 N 0.4459(6) 1.0005(4) 0.39506(16)
N3 N 0.3728(5) 0.9130(3) 0.42349(15)
N4 N 0.4921(7) 0.9394(4) 0.62807(16)
C1 C 0.2837(7) 0.8337(4) 0.39495(19)
C2 C 0.3052(6) 0.8755(4) 0.34794(18)
C3 C 0.2320(7) 0.8296(4) 0.3015(2)
C4 C 0.2354(9) 0.9074(5) 0.2570(2)
H1 H 0.16670 0.87000 0.22990
H2 H 0.36580 0.92090 0.24690
H3 H 0.17600 0.98220 0.26510
C5 C 0.1748(8) 0.7336(4) 0.4142(2)
H4 H 0.25420 0.66370 0.41450
H5 H 0.06550 0.71990 0.39300
H6 H 0.13260 0.75080 0.44790
C6 C 0.4006(6) 0.9182(4) 0.47516(17)
C7 C 0.3971(7) 1.0280(4) 0.49859(19)
H7 H 0.37380 1.09680 0.48000
C8 C 0.4277(7) 1.0343(4) 0.54843(18)
H8 H 0.42700 1.10780 0.56470
C9 C 0.4596(7) 0.9326(4) 0.57498(19)
C10 C 0.4635(7) 0.8242(4) 0.55212(18)
H9 H 0.48580 0.75550 0.57090
C11 C 0.4349(7) 0.8172(4) 0.50217(19)
H10 H 0.43850 0.74360 0.48600
O4 O -0.0697(6) 0.3133(3) 0.04009(14)
O5 O 0.0791(7) 0.4313(4) 0.40346(16)
O6 O 0.2003(6) 0.2592(4) 0.40304(14)
N5 N 0.3259(6) 0.4166(3) 0.10648(15)
N6 N 0.3581(6) 0.4135(3) 0.15354(16)
N7 N 0.2007(5) 0.3695(3) 0.17529(14)
N8 N 0.1477(6) 0.3472(4) 0.38186(16)
C12 C 0.0700(7) 0.3441(4) 0.14153(18)
C13 C 0.1522(7) 0.3748(4) 0.09756(18)
C14 C 0.0704(7) 0.3702(4) 0.04729(18)
C15 C 0.1625(9) 0.4392(5) 0.0082(2)
H11 H 0.28850 0.40800 0.00210
H12 H 0.17210 0.52080 0.01880
H13 H 0.08820 0.43460 -0.02220
C16 C -0.1208(8) 0.2994(5) 0.1540(2)
H14 H -0.12620 0.21520 0.14770
H15 H -0.21460 0.33930 0.13360
H16 H -0.14720 0.31430 0.18900
C17 C 0.1896(6) 0.3630(4) 0.22781(17)
C18 C 0.2315(8) 0.2595(4) 0.2519(2)
H17 H 0.26930 0.19280 0.23350
C19 C 0.2180(8) 0.2539(4) 0.3025(2)
H18 H 0.24460 0.18340 0.31960
C20 C 0.1649(7) 0.3530(5) 0.32768(18)
C21 C 0.1247(8) 0.4572(4) 0.3049(2)
H19 H 0.08920 0.52380 0.32360
C22 C 0.1373(8) 0.4627(4) 0.2537(2)
H20 H 0.11070 0.53330 0.23670
#END
