
#######################################################################
#
#                 Cambridge Crystallographic Data Centre
#                                CCDC
#
#######################################################################
#
# If this CIF has been generated from an entry in the Cambridge
# Structural Database, then it will include bibliographic, chemical,
# crystal, experimental, refinement or atomic coordinate data resulting
# from the CCDC's data processing and validation procedures.
#
#######################################################################

data_CSD_CIF_QISPAJ
_audit_creation_date 2001-07-19
_audit_creation_method CSD-ConQuest-V1
_database_code_CSD QISPAJ
_chemical_formula_sum 'C13 H21 N1 O3'
_chemical_formula_moiety
;
C13 H21 N1 O3
;
_journal_coden_Cambridge 4
_journal_volume 122
_journal_year 2000
_journal_page_first 4583
_journal_name_full 'J.Am.Chem.Soc. '
loop_
_publ_author_name
"H.Abe"
"S.Aoyagi"
"C.Kibayashi"
_chemical_name_systematic
;
3-(Hydroxymethyl)-8,8a,9,10,11,12-hexahydro-3H-(1,2)oxazino(3,2-j)quinolin-6(7
H)-one
;
_cell_volume   1232.963
_exptl_crystal_colour 'colorless'
_exptl_crystal_density_diffrn 1.289
_exptl_crystal_description 'cube'
_diffrn_ambient_temperature ?
_diffrn_special_details
;
The study was carried out at room temperature,in the range 283-303K

;
#These two values have been output from a single CSD field.
_refine_ls_R_factor_gt 0.043
_refine_ls_wR_factor_gt 0.043
_symmetry_cell_setting monoclinic
_symmetry_space_group_name_H-M 'P 21/a'
_symmetry_Int_Tables_number 14
loop_
_symmetry_equiv_pos_site_id
_symmetry_equiv_pos_as_xyz
1 x,y,z
2 1/2-x,1/2+y,-z
3 -x,-y,-z
4 -1/2+x,-1/2-y,z
_cell_length_a 12.823(3)
_cell_length_b 7.745(1)
_cell_length_c 12.514(2)
_cell_angle_alpha 90
_cell_angle_beta 97.22(1)
_cell_angle_gamma 90
_cell_formula_units_Z 4
loop_
_atom_type_symbol
_atom_type_radius_bond
C 0.68
H 0.23
N 0.68
O 0.68
loop_
_atom_site_label
_atom_site_type_symbol
_atom_site_fract_x
_atom_site_fract_y
_atom_site_fract_z
O1 O 0.32190(3) 0.22929(5) 0.71833(3)
O2 O 0.19484(3) 0.13997(7) 0.52262(4)
O3 O 0.23438(3) -0.07984(6) 0.70090(4)
N1 N 0.37909(3) 0.08051(5) 0.75286(4)
C1 C 0.30417(5) 0.16467(9) 0.52452(5)
C2 C 0.34836(5) 0.28623(8) 0.61413(5)
C3 C 0.46604(5) 0.31631(8) 0.61896(5)
C4 C 0.53130(4) 0.16657(8) 0.67193(4)
C5 C 0.49293(4) 0.11337(7) 0.77853(4)
C6 C 0.51054(5) 0.25627(7) 0.86413(5)
C7 C 0.62761(5) 0.28730(9) 0.89856(3)
C8 C 0.68643(5) 0.12245(10) 0.93487(6)
C9 C 0.66269(5) -0.02554(9) 0.85522(5)
C10 C 0.54460(4) -0.05132(7) 0.82847(4)
C11 C 0.51078(5) -0.20978(8) 0.76161(6)
C12 C 0.39295(5) -0.23377(8) 0.75745(6)
C13 C 0.32818(4) -0.07203(7) 0.73381(5)
H1 H 0.47814 0.22227 0.92603
H2 H 0.48314 0.33061 0.54696
H3 H 0.51560 -0.07762 0.89367
H4 H 0.31707 0.21217 0.45662
H5 H 0.69189 0.00176 0.78932
H6 H 0.33917 0.05517 0.53462
H7 H 0.66623 0.08755 1.00297
H8 H 0.37905 -0.27907 0.82565
H9 H 0.63521 0.36910 0.95666
H10 H 0.31996 0.39953 0.59893
H11 H 0.54708 -0.30988 0.79271
H12 H 0.37075 -0.31657 0.70215
H13 H 0.52550 0.06957 0.62383
H14 H 0.47864 0.36107 0.83493
H15 H 0.60370 0.20077 0.68583
H16 H 0.52868 -0.19458 0.69001
H17 H 0.69409 -0.12984 0.88592
H18 H 0.48394 0.41951 0.65966
H19 H 0.76053 0.14555 0.94247
H20 H 0.18624 0.07597 0.58162
H21 H 0.65781 0.33439 0.83847
#END
