
#######################################################################
#
#                 Cambridge Crystallographic Data Centre
#                                CCDC
#
#######################################################################
#
# If this CIF has been generated from an entry in the Cambridge
# Structural Database, then it will include bibliographic, chemical,
# crystal, experimental, refinement or atomic coordinate data resulting
# from the CCDC's data processing and validation procedures.
#
#######################################################################

data_CSD_CIF_QITJAG
_audit_creation_date 2014-03-18
_audit_creation_method CSD-ConQuest-V1
_database_code_CSD QITJAG
_database_code_depnum_ccdc_archive 'CCDC 937934'
_chemical_formula_sum 'C18 H13 N1 O4'
_chemical_formula_moiety
;
C18 H13 N1 O4
;
_journal_coden_Cambridge 9
_journal_volume 53
_journal_year 2014
_journal_page_first 2996
_journal_name_full 'Inorg.Chem. '
loop_
_publ_author_name
"T.J.Morsing"
"J.Bendix"
"Hgni Weihe"
"Anders Dssing"
_chemical_name_systematic
;
3-acetyl-3a-hydroxy-2-phenyl[1,2]oxazolo[3,2-a]isoindol-8(3aH)-one
;
_cell_volume   3038.547
_exptl_crystal_density_diffrn 1.343
_diffrn_ambient_temperature 293
#These two values have been output from a single CSD field.
_refine_ls_R_factor_gt 0.0673
_refine_ls_wR_factor_gt 0.0673
_symmetry_cell_setting monoclinic
_symmetry_space_group_name_H-M 'P 21/c'
_symmetry_Int_Tables_number 14
loop_
_symmetry_equiv_pos_site_id
_symmetry_equiv_pos_as_xyz
1 x,y,z
2 -x,1/2+y,1/2-z
3 -x,-y,-z
4 x,-1/2-y,-1/2+z
_cell_length_a 20.856(4)
_cell_length_b 7.7770(16)
_cell_length_c 18.734(4)
_cell_angle_alpha 90
_cell_angle_beta 90.34(3)
_cell_angle_gamma 90
_cell_formula_units_Z 8
loop_
_atom_type_symbol
_atom_type_radius_bond
C 0.68
H 0.23
N 0.68
O 0.68
loop_
_atom_site_label
_atom_site_type_symbol
_atom_site_fract_x
_atom_site_fract_y
_atom_site_fract_z
O1 O 0.33652(13) 0.2899(4) 0.24123(14)
N1 N 0.34096(16) 0.3924(4) 0.17757(17)
C1 C 0.4239(2) 0.2026(6) 0.3826(2)
H1 H 0.46040 0.20970 0.35440
O2 O 0.22994(16) 0.4090(5) 0.16808(19)
C2 C 0.4257(3) 0.1096(7) 0.4450(3)
H2 H 0.46340 0.05550 0.45950
O3 O 0.44852(12) 0.4792(4) 0.15289(14)
H3 H 0.46930 0.41120 0.17720
C3 C 0.3721(3) 0.0978(7) 0.4853(3)
H4 H 0.37320 0.03540 0.52760
O4 O 0.47141(15) 0.7459(4) 0.27499(16)
C4 C 0.3165(3) 0.1765(7) 0.4644(2)
H5 H 0.28000 0.16660 0.49230
C5 C 0.3142(2) 0.2708(6) 0.4018(2)
H6 H 0.27640 0.32380 0.38730
C6 C 0.36897(19) 0.2847(5) 0.3615(2)
C7 C 0.36918(18) 0.3774(5) 0.2931(2)
C8 C 0.39965(17) 0.5172(5) 0.26895(19)
C9 C 0.39207(17) 0.5220(5) 0.18833(19)
C10 C 0.36352(18) 0.6780(5) 0.1510(2)
C11 C 0.3917(2) 0.8283(6) 0.1318(2)
H7 H 0.43390 0.85190 0.14470
C12 C 0.3558(3) 0.9463(7) 0.0923(3)
H8 H 0.37410 1.04990 0.07850
C13 C 0.2923(3) 0.9095(8) 0.0734(3)
H9 H 0.26910 0.98940 0.04690
C14 C 0.2635(2) 0.7589(8) 0.0930(2)
H10 H 0.22120 0.73500 0.08040
C15 C 0.29976(19) 0.6435(6) 0.1322(2)
C16 C 0.2820(2) 0.4744(6) 0.1601(2)
C17 C 0.4393(2) 0.6403(6) 0.3078(2)
C18 C 0.4400(2) 0.6424(7) 0.3884(2)
H11 H 0.46850 0.73080 0.40490
H12 H 0.45430 0.53290 0.40590
H13 H 0.39750 0.66490 0.40550
O5 O 0.13133(12) 0.9764(3) 0.12990(14)
O6 O 0.17452(15) 1.1406(5) 0.00687(16)
O7 O -0.01061(11) 1.1510(4) 0.13813(14)
H14 H -0.01450 1.07180 0.16670
O8 O 0.03256(14) 1.3819(4) 0.26691(15)
N2 N 0.09194(15) 1.0897(4) 0.08737(17)
C19 C 0.23601(19) 0.9710(6) 0.2512(2)
H15 H 0.25510 1.04700 0.21950
C20 C 0.2729(2) 0.8840(6) 0.3009(3)
H16 H 0.31690 0.90300 0.30290
C21 C 0.2457(3) 0.7716(7) 0.3466(3)
H17 H 0.27110 0.71370 0.37980
C22 C 0.1805(3) 0.7422(6) 0.3446(3)
H18 H 0.16170 0.66480 0.37600
C23 C 0.1432(2) 0.8302(6) 0.2948(3)
H19 H 0.09930 0.81080 0.29270
C24 C 0.17054(18) 0.9446(5) 0.2490(2)
C25 C 0.12990(17) 1.0424(5) 0.1977(2)
C26 C 0.08993(17) 1.1764(5) 0.20511(19)
C27 C 0.05397(18) 1.2018(5) 0.1355(2)
C28 C 0.05879(19) 1.3746(5) 0.0988(2)
C29 C 0.0258(2) 1.5251(6) 0.1123(2)
H20 H -0.00450 1.53080 0.14850
C30 C 0.0389(2) 1.6665(6) 0.0706(3)
H21 H 0.01720 1.76890 0.07890
C31 C 0.0838(2) 1.6596(6) 0.0166(3)
H22 H 0.09200 1.75710 -0.01060
C32 C 0.10262(19) 1.3663(6) 0.0448(2)
C33 C 0.1161(2) 1.5112(6) 0.0029(2)
H23 H 0.14630 1.50610 -0.03330
C34 C 0.1298(2) 1.1954(6) 0.0410(2)
C35 C 0.0784(2) 1.2836(6) 0.2675(2)
C36 C 0.1240(2) 1.2777(6) 0.3295(2)
H24 H 0.10950 1.35460 0.36610
H25 H 0.16590 1.31210 0.31400
H26 H 0.12590 1.16280 0.34800
#END
