
#######################################################################
#
#                 Cambridge Crystallographic Data Centre
#                                CCDC
#
#######################################################################
#
# If this CIF has been generated from an entry in the Cambridge
# Structural Database, then it will include bibliographic, chemical,
# crystal, experimental, refinement or atomic coordinate data resulting
# from the CCDC's data processing and validation procedures.
#
#######################################################################

data_CSD_CIF_QITKAG
_audit_creation_date 2008-05-08
_audit_creation_method CSD-ConQuest-V1
_database_code_CSD QITKAG
_database_code_depnum_ccdc_archive 'CCDC 659200'
_chemical_formula_sum 'C21 H22 N4 O6'
_chemical_formula_moiety
;
C21 H22 N4 O6
;
_journal_coden_Cambridge 1336
_journal_volume 10
_journal_year 2008
_journal_page_first 13
_journal_name_full 'Org.Lett. '
loop_
_publ_author_name
"Sun-Liang Cui"
"Jing Wang"
"Yan-Guang Wang"
_chemical_name_systematic
;
Ethyl 
5-((ethoxycarbonyl)amino)-3-(3-nitrophenyl)-5-phenyl-4,5-dihydro-1H-pyrazole-1
-carboxylate
;
_chemical_melting_point 387.15
_cell_volume   2163.770
_exptl_crystal_colour 'yellow'
_exptl_crystal_density_diffrn 1.309
_exptl_special_details
;
Melting point range 387.15-388.15K

;
_exptl_crystal_description 'chunk'
_diffrn_ambient_temperature 296
#These two values have been output from a single CSD field.
_refine_ls_R_factor_gt 0.0689
_refine_ls_wR_factor_gt 0.0689
_symmetry_cell_setting triclinic
_symmetry_space_group_name_H-M 'P -1'
_symmetry_Int_Tables_number 2
loop_
_symmetry_equiv_pos_site_id
_symmetry_equiv_pos_as_xyz
1 x,y,z
2 -x,-y,-z
_cell_length_a 10.0212(7)
_cell_length_b 11.0094(8)
_cell_length_c 20.3173(16)
_cell_angle_alpha 89.994(2)
_cell_angle_beta 85.467(2)
_cell_angle_gamma 75.5870(17)
_cell_formula_units_Z 4
loop_
_atom_type_symbol
_atom_type_radius_bond
C 0.68
H 0.23
N 0.68
O 0.68
loop_
_atom_site_label
_atom_site_type_symbol
_atom_site_fract_x
_atom_site_fract_y
_atom_site_fract_z
O1 O 0.4609(4) -0.3177(2) 0.5913(2)
O2 O 0.4928(4) -0.1669(3) 0.5304(2)
O3 O 0.4524(2) 0.2661(2) 0.70655(14)
O4 O 0.5825(2) 0.4050(2) 0.69445(14)
O5 O 0.1626(2) 0.6064(2) 0.72310(12)
O6 O 0.0442(2) 0.4867(2) 0.77862(13)
O7 O 0.7900(5) -0.6210(4) 0.9865(2)
O8 O 0.6632(4) -0.7508(2) 0.99247(19)
O9 O 0.6703(3) -0.1865(2) 0.70828(18)
O10 O 0.6516(3) -0.0044(2) 0.65476(16)
O11 O 0.6979(2) 0.0817(2) 0.83632(14)
O12 O 0.8321(2) -0.0906(2) 0.88060(12)
N1 N 0.4320(4) -0.2078(3) 0.5752(2)
N2 N 0.3921(2) 0.4386(2) 0.64356(13)
N3 N 0.1383(2) 0.2976(2) 0.69490(13)
N4 N 0.1661(2) 0.4144(2) 0.68351(13)
N5 N 0.6897(5) -0.6555(3) 0.9718(2)
N6 N 0.5263(2) -0.0037(2) 0.74860(14)
N7 N 0.6424(2) -0.2177(2) 0.87079(13)
N8 N 0.6257(2) -0.0961(2) 0.84767(14)
C1 C 0.2042(3) 0.2226(2) 0.64857(17)
C2 C 0.2065(3) 0.0892(2) 0.64839(17)
C3 C 0.1131(4) 0.0428(3) 0.6885(2)
C4 C 0.1239(5) -0.0850(3) 0.6904(2)
C5 C 0.2266(5) -0.1674(3) 0.6536(2)
C6 C 0.3181(4) -0.1206(3) 0.6143(2)
C7 C 0.3094(3) 0.0055(2) 0.61029(18)
C8 C 0.2842(3) 0.2808(2) 0.59765(17)
C9 C 0.2638(3) 0.4154(2) 0.62537(17)
C10 C 0.2026(3) 0.5110(2) 0.57491(18)
C11 C 0.2850(4) 0.5258(3) 0.5194(2)
C12 C 0.2313(5) 0.6050(5) 0.4693(2)
C13 C 0.0971(6) 0.6708(4) 0.4751(2)
C14 C 0.0140(5) 0.6563(3) 0.5293(2)
C15 C 0.0657(3) 0.5761(3) 0.5794(2)
C16 C 0.4745(3) 0.3613(3) 0.6841(2)
C17 C 0.6842(5) 0.3250(6) 0.7333(2)
C18 C 0.7904(6) 0.3813(9) 0.7401(4)
C19 C 0.1265(3) 0.5105(3) 0.72918(19)
C20 C -0.0234(6) 0.5933(4) 0.8232(2)
C21 C -0.0114(5) 0.5630(5) 0.8890(2)
C22 C 0.5424(3) -0.2606(2) 0.85216(17)
C23 C 0.5277(3) -0.3846(2) 0.87019(18)
C24 C 0.4252(3) -0.4322(3) 0.8444(2)
C25 C 0.4111(4) -0.5500(3) 0.8606(2)
C26 C 0.4954(4) -0.6228(3) 0.9023(2)
C27 C 0.5962(4) -0.5760(3) 0.9277(2)
C28 C 0.6147(3) -0.4593(3) 0.91308(18)
C29 C 0.4455(3) -0.1718(2) 0.81179(19)
C30 C 0.4966(3) -0.0496(2) 0.81346(18)
C31 C 0.3929(3) 0.0501(2) 0.85439(17)
C32 C 0.2855(3) 0.1329(2) 0.82573(18)
C33 C 0.1832(4) 0.2160(3) 0.8636(2)
C34 C 0.1848(4) 0.2202(3) 0.9305(2)
C35 C 0.2908(4) 0.1402(4) 0.9601(2)
C36 C 0.3925(4) 0.0553(3) 0.92237(19)
C37 C 0.6207(4) -0.0752(4) 0.7044(2)
C38 C 0.7562(6) -0.0691(6) 0.6050(3)
C39 C 0.8079(8) 0.0168(7) 0.5669(3)
C40 C 0.7182(3) -0.0257(3) 0.85423(18)
C41 C 0.9311(4) -0.0174(4) 0.8921(2)
C42 C 1.0541(4) -0.0982(4) 0.9125(3)
H1 H 0.04280 0.09770 0.71420
H2 H 0.06000 -0.11500 0.71720
H3 H 0.23420 -0.25320 0.65530
H4 H 0.37200 0.03450 0.58220
H5 H 0.37770 0.48240 0.51540
H6 H 0.28770 0.61280 0.43180
H7 H 0.06200 0.72550 0.44220
H8 H -0.07830 0.70060 0.53300
H9 H 0.00750 0.56650 0.61590
H10 H 0.24700 0.28170 0.55490
H11 H 0.38120 0.23660 0.59370
H12 H 0.36600 -0.38370 0.81610
H13 H 0.34280 -0.58040 0.84280
H14 H 0.48520 -0.70210 0.91340
H15 H 0.68360 -0.43040 0.93130
H16 H 0.28290 0.13190 0.78010
H17 H 0.11220 0.27000 0.84330
H18 H 0.11510 0.27640 0.95600
H19 H 0.29380 0.14350 1.00570
H20 H 0.46210 0.00040 0.94310
H21 H 0.41690 0.50310 0.62820
H22 H 0.71990 0.24420 0.71100
H23 H 0.64120 0.31330 0.77650
H24 H 0.82470 0.40290 0.69740
H25 H 0.86350 0.32440 0.76060
H26 H 0.75720 0.45590 0.76710
H27 H -0.12070 0.61910 0.81560
H28 H 0.01920 0.66200 0.81360
H29 H -0.05390 0.49540 0.89910
H30 H 0.08460 0.53770 0.89710
H31 H -0.05660 0.63490 0.91630
H32 H 0.48300 0.07050 0.73810
H33 H 0.45100 -0.20360 0.76690
H34 H 0.35110 -0.15710 0.83120
H35 H 0.83120 -0.12370 0.62640
H36 H 0.71600 -0.11880 0.57670
H37 H 0.83580 0.07400 0.59530
H38 H 0.73730 0.06280 0.54060
H39 H 0.88600 -0.02710 0.53840
H40 H 0.95230 0.02340 0.85170
H41 H 0.89190 0.04570 0.92640
H42 H 1.10900 -0.04910 0.93140
H43 H 1.10580 -0.14540 0.87500
H44 H 1.03080 -0.15470 0.94490
#END
