
#######################################################################
#
#                 Cambridge Crystallographic Data Centre
#                                CCDC
#
#######################################################################
#
# If this CIF has been generated from an entry in the Cambridge
# Structural Database, then it will include bibliographic, chemical,
# crystal, experimental, refinement or atomic coordinate data resulting
# from the CCDC's data processing and validation procedures.
#
#######################################################################

data_CSD_CIF_QIWXOJ
_audit_creation_date 2001-07-19
_audit_creation_method CSD-ConQuest-V1
_database_code_CSD QIWXOJ
_database_code_depnum_ccdc_archive 'CCDC 162324'
_chemical_formula_sum 'C24 H23 N1 O1'
_chemical_formula_moiety
;
C24 H23 N1 O1
;
_journal_coden_Cambridge 241
_journal_year 2000
_journal_page_first 1102
_journal_name_full 'Chem.Lett. '
loop_
_publ_author_name
"G.Yamamoto"
"F.Nakajo"
"N.Endo"
"Y.Mazaki"
_chemical_name_systematic
;
N,O-Diethyl-N-9-triptycylhydroxylamine
;
_chemical_melting_point 475.15
_cell_volume   1854.175
_exptl_crystal_colour 'colorless'
_exptl_crystal_density_diffrn 1.223
_exptl_special_details
;
Melting point range 475.15-477.15K

;
_exptl_crystal_description 'prisms'
_diffrn_ambient_temperature ?
_diffrn_special_details
;
The study was carried out at room temperature,in the range 283-303K

;
#These two values have been output from a single CSD field.
_refine_ls_R_factor_gt 0.0498
_refine_ls_wR_factor_gt 0.0498
_symmetry_cell_setting triclinic
_symmetry_space_group_name_H-M 'P -1'
_symmetry_Int_Tables_number 2
loop_
_symmetry_equiv_pos_site_id
_symmetry_equiv_pos_as_xyz
1 x,y,z
2 -x,-y,-z
_cell_length_a 13.583(3)
_cell_length_b 15.575(5)
_cell_length_c 8.954(3)
_cell_angle_alpha 91.45(3)
_cell_angle_beta 90.20(2)
_cell_angle_gamma 101.71(2)
_cell_formula_units_Z 4
loop_
_atom_type_symbol
_atom_type_radius_bond
C 0.68
H 0.23
N 0.68
O 0.68
loop_
_atom_site_label
_atom_site_type_symbol
_atom_site_fract_x
_atom_site_fract_y
_atom_site_fract_z
N1 N 0.13543(9) 0.79658(8) 0.00879(13)
O1 O 0.08039(8) 0.82908(7) 0.13034(11)
C1 C -0.01541(11) 0.80594(9) -0.16161(15)
C2 C 0.10121(12) 0.70814(9) -0.2299(2)
C3 C 0.05638(11) 0.75100(9) -0.09516(15)
C4 C 0.02717(13) 0.66318(10) -0.3286(2)
C5 C -0.08751(12) 0.75822(10) -0.2602(2)
C6 C -0.08533(12) 0.62523(10) -0.1244(2)
C7 C -0.01181(11) 0.67063(9) -0.0252(2)
C8 C -0.01644(12) 0.89382(10) -0.1325(2)
C9 C -0.07947(13) 0.66298(10) -0.2802(2)
C10 C 0.20076(14) 0.70570(11) -0.2555(2)
C11 C -0.1414(2) 0.51732(12) 0.0587(2)
C12 C -0.00206(13) 0.63695(10) 0.1144(2)
C13 C 0.20416(12) 0.87406(10) -0.0549(2)
C14 C -0.08642(14) 0.93299(12) -0.2033(2)
C15 C 0.13395(15) 0.83172(13) 0.2685(2)
C16 C 0.0543(2) 0.62015(11) -0.4548(2)
C17 C -0.0675(2) 0.55995(12) 0.1550(2)
C18 C -0.1565(2) 0.88528(13) -0.3011(2)
C19 C -0.15741(14) 0.79694(13) -0.3305(2)
C20 C 0.1541(2) 0.62044(13) -0.4822(2)
C21 C 0.2272(2) 0.66190(13) -0.3831(2)
C22 C -0.15114(14) 0.55008(11) -0.0825(2)
C23 C 0.0633(2) 0.8401(2) 0.3923(2)
C24 C 0.3116(2) 0.8840(2) 0.0009(3)
H1 H 0.0324(14) 0.9271(13) -0.0597(22)
H2 H -0.1307(14) 0.6287(12) -0.3503(21)
H3 H 0.1633(15) 0.7800(14) 0.2757(22)
H4 H 0.0519(14) 0.6646(12) 0.1801(20)
H5 H 0.1763(15) 0.9277(14) -0.0278(22)
H6 H 0.2038(15) 0.8687(13) -0.1634(24)
H7 H -0.2050(17) 0.5191(15) -0.1548(25)
H8 H -0.0601(16) 0.5360(15) 0.2554(26)
H9 H -0.0856(17) 0.9953(16) -0.1778(26)
H10 H -0.2069(17) 0.9129(15) -0.3476(25)
H11 H 0.2518(16) 0.7338(14) -0.1836(24)
H12 H 0.2972(18) 0.6608(15) -0.4027(26)
H13 H -0.1854(16) 0.4654(15) 0.0910(25)
H14 H -0.2022(16) 0.7636(15) -0.3969(25)
H15 H -0.0010(17) 0.5919(15) -0.5144(26)
H16 H 0.1703(18) 0.5887(16) -0.5709(28)
H17 H 0.1009(21) 0.8411(19) 0.4892(33)
H18 H 0.0000(21) 0.7905(19) 0.3915(30)
H19 H 0.1951(19) 0.8808(17) 0.2673(28)
H20 H 0.3534(21) 0.9330(19) -0.0548(31)
H21 H 0.3409(20) 0.8315(19) -0.0270(32)
H22 H 0.0344(21) 0.891(2) 0.3936(31)
H23 H 0.3142(25) 0.9005(23) 0.103(4)
N2 N 0.49775(9) 0.20483(8) 0.49735(14)
C25 C 0.34215(11) 0.19493(9) 0.6653(2)
C26 C 0.50446(12) 0.29328(9) 0.7353(2)
O2 O 0.42784(8) 0.17082(7) 0.37587(12)
C27 C 0.43968(10) 0.25037(9) 0.60014(15)
C28 C 0.29248(12) 0.24194(10) 0.7640(2)
C29 C 0.35549(12) 0.37534(10) 0.6291(2)
C30 C 0.60568(13) 0.29677(11) 0.7606(2)
C31 C 0.45109(13) 0.3375(1) 0.8342(2)
C32 C 0.40825(11) 0.33049(9) 0.5303(2)
C33 C 0.34436(13) 0.33723(10) 0.7849(2)
C34 C 0.4984(2) 0.38064(12) 0.9605(2)
C35 C 0.29949(12) 0.1075(1) 0.6327(2)
C36 C 0.43293(13) 0.36419(11) 0.3910(2)
C37 C 0.4025(2) 0.44084(12) 0.3503(2)
C38 C 0.53135(13) 0.12857(11) 0.5626(2)
C39 C 0.6527(2) 0.34058(12) 0.8884(2)
C40 C 0.3484(2) 0.48299(12) 0.4460(2)
C41 C 0.5986(2) 0.38126(13) 0.9883(2)
C42 C 0.16309(15) 0.11546(14) 0.8001(2)
C43 C 0.21029(14) 0.06828(12) 0.7012(2)
C44 C 0.20407(14) 0.20318(13) 0.8323(2)
C45 C 0.4793(2) 0.1691(2) 0.2376(2)
C46 C 0.32421(14) 0.45011(11) 0.5871(2)
C47 C 0.6333(2) 0.1178(2) 0.5060(3)
C48 C 0.4042(3) 0.1534(3) 0.1151(3)
H24 H 0.3092(14) 0.3691(12) 0.8552(21)
H25 H 0.4727(14) 0.3353(12) 0.3234(21)
H26 H 0.3332(15) 0.0741(14) 0.5639(23)
H27 H 0.1691(15) 0.2371(13) 0.8993(23)
H28 H 0.2861(15) 0.4801(13) 0.6559(23)
H29 H 0.6460(14) 0.2678(13) 0.6888(22)
H30 H 0.4566(15) 0.4075(14) 1.0197(24)
H31 H 0.3255(16) 0.5356(15) 0.4172(25)
H32 H 0.0998(18) 0.0881(16) 0.8446(26)
H33 H 0.5337(16) 0.1347(14) 0.6726(26)
H34 H 0.7231(18) 0.3409(15) 0.9086(25)
H35 H 0.4229(17) 0.4653(16) 0.2525(27)
H36 H 0.6293(18) 0.4102(17) 1.0777(28)
H37 H 0.4781(16) 0.0753(15) 0.5413(24)
H38 H 0.533(2) 0.2229(18) 0.2308(29)
H39 H 0.1787(18) 0.0049(17) 0.6756(28)
H40 H 0.6585(22) 0.0692(20) 0.5585(33)
H41 H 0.5159(25) 0.1148(23) 0.2366(36)
H42 H 0.3579(29) 0.2070(27) 0.1343(43)
H43 H 0.3573(29) 0.0947(28) 0.1328(42)
H44 H 0.4386(23) 0.1508(21) 0.0142(38)
H45 H 0.6268(20) 0.1005(18) 0.3960(33)
H46 H 0.6864(20) 0.1712(18) 0.5234(29)
#END
