
#######################################################################
#
#                 Cambridge Crystallographic Data Centre
#                                CCDC
#
#######################################################################
#
# If this CIF has been generated from an entry in the Cambridge
# Structural Database, then it will include bibliographic, chemical,
# crystal, experimental, refinement or atomic coordinate data resulting
# from the CCDC's data processing and validation procedures.
#
#######################################################################

data_CSD_CIF_QIXRAR
_audit_creation_date 2008-05-08
_audit_creation_method CSD-ConQuest-V1
_database_code_CSD QIXRAR
_database_code_depnum_ccdc_archive 'CCDC 670377'
_chemical_formula_sum 'C26 H38 N4 O4'
_chemical_formula_moiety
;
C26 H38 N4 O4
;
_journal_coeditor_code "IUCr HG2359"
_journal_coden_Cambridge 1370
_journal_volume 64
_journal_year 2008
_journal_page_first o659
_journal_name_full 'Acta Crystallogr.,Sect.E:Struct.Rep.Online '
loop_
_publ_author_name
"G.-L.Liu"
"X.Chen"
"X.-N.He"
"W.-K.Dong"
_chemical_name_systematic
;
5,5'-bis(diethylamino)-2,2'-[butane-1,4-diyldioxybis(nitrilomethylidyne)]diphe
nol
;
_cell_volume   1312.988
_exptl_crystal_colour 'colorless'
_exptl_crystal_density_diffrn 1.19
_exptl_crystal_description 'block'
_exptl_crystal_preparation 'acetone/chloroform'
_diffrn_ambient_temperature 298
_refine_special_details
;
Ethyl groups are disordered over two sites with occupancies 0.546: 0.454 and 
0.525:0.475.
;
#These two values have been output from a single CSD field.
_refine_ls_R_factor_gt 0.0509
_refine_ls_wR_factor_gt 0.0509
_symmetry_cell_setting monoclinic
_symmetry_space_group_name_H-M 'P 21/c'
_symmetry_Int_Tables_number 14
loop_
_symmetry_equiv_pos_site_id
_symmetry_equiv_pos_as_xyz
1 x,y,z
2 -x,1/2+y,1/2-z
3 -x,-y,-z
4 x,-1/2-y,-1/2+z
_cell_length_a 7.6888(9)
_cell_length_b 13.777(2)
_cell_length_c 12.6547(19)
_cell_angle_alpha 90
_cell_angle_beta 101.627(2)
_cell_angle_gamma 90
_cell_formula_units_Z 2
loop_
_atom_type_symbol
_atom_type_radius_bond
C 0.68
H 0.23
N 0.68
O 0.68
loop_
_atom_site_label
_atom_site_type_symbol
_atom_site_fract_x
_atom_site_fract_y
_atom_site_fract_z
N1 N 0.4824(3) 0.15042(16) 0.05037(19)
N2 N 1.2014(4) 0.3925(2) 0.0621(2)
O1 O 0.3420(3) 0.10682(14) 0.08908(15)
O2 O 0.6803(3) 0.21500(17) -0.08246(16)
H1 H 0.59620 0.18740 -0.06470
C1 C 0.2185(4) 0.0666(2) 0.0010(2)
H2 H 0.27630 0.01800 -0.03540
H3 H 0.17250 0.11710 -0.05050
C2 C 0.0702(3) 0.0215(2) 0.0445(2)
H4 H 0.01620 0.07030 0.08280
H5 H 0.11780 -0.02910 0.09540
C3 C 0.5929(4) 0.1909(2) 0.1266(2)
H6 H 0.57270 0.18770 0.19650
C4 C 0.7474(3) 0.24132(19) 0.1074(2)
C5 C 0.7878(4) 0.2523(2) 0.0062(2)
C6 C 0.9367(4) 0.3015(2) -0.0082(2)
H7 H 0.95850 0.30770 -0.07760
C7 C 1.0547(4) 0.3419(2) 0.0766(2)
C8 C 1.0136(4) 0.3313(3) 0.1787(2)
H8 H 1.08930 0.35720 0.23870
C9 C 0.8640(4) 0.2835(3) 0.1913(2)
H9 H 0.83970 0.27920 0.26020
C10 C 1.2063(14) 0.4298(8) -0.0475(9)
H10 H 1.27050 0.49080 -0.04040
H11 H 1.08570 0.44280 -0.08520
C11 C 1.2923(12) 0.3612(8) -0.1148(11)
H12 H 1.41150 0.34740 -0.07790
H13 H 1.29460 0.39080 -0.18320
H14 H 1.22540 0.30200 -0.12610
C12 C 1.3562(12) 0.3955(8) 0.1481(10)
H15 H 1.46520 0.39430 0.12050
H16 H 1.35690 0.34250 0.19860
C13 C 1.3294(17) 0.4919(10) 0.1982(10)
H17 H 1.31610 0.54170 0.14410
H18 H 1.43040 0.50630 0.25420
H19 H 1.22450 0.48940 0.22840
C14? C 1.2900(15) 0.3771(9) -0.0279(11)
H20? H 1.27140 0.31110 -0.05420
H21? H 1.41670 0.38800 -0.00510
C15? C 1.2124(14) 0.4477(10) -0.1155(12)
H22? H 1.08560 0.44080 -0.13220
H23? H 1.25940 0.43460 -0.17880
H24? H 1.24270 0.51270 -0.09130
C16? C 1.298(2) 0.4652(12) 0.1485(10)
H25? H 1.35260 0.51580 0.11280
H26? H 1.21130 0.49560 0.18380
C17? C 1.4401(12) 0.4176(7) 0.2334(9)
H27? H 1.38990 0.36320 0.26400
H28? H 1.48460 0.46370 0.28910
H29? H 1.53550 0.39570 0.20070
N1B N -0.4824(3) -0.15042(16) -0.05037(19)
N2B N -1.2014(4) -0.3925(2) -0.0621(2)
O1B O -0.3420(3) -0.10682(14) -0.08908(15)
O2B O -0.6803(3) -0.21500(17) 0.08246(16)
H1B H -0.59620 -0.18740 0.06470
C1B C -0.2185(4) -0.0666(2) -0.0010(2)
H2B H -0.27630 -0.01800 0.03540
H3B H -0.17250 -0.11710 0.05050
C2B C -0.0702(3) -0.0215(2) -0.0445(2)
H4B H -0.01620 -0.07030 -0.08280
H5B H -0.11780 0.02910 -0.09540
C3B C -0.5929(4) -0.1909(2) -0.1266(2)
H6B H -0.57270 -0.18770 -0.19650
C4B C -0.7474(3) -0.24132(19) -0.1074(2)
C5B C -0.7878(4) -0.2523(2) -0.0062(2)
C6B C -0.9367(4) -0.3015(2) 0.0082(2)
H7B H -0.95850 -0.30770 0.07760
C7B C -1.0547(4) -0.3419(2) -0.0766(2)
C8B C -1.0136(4) -0.3313(3) -0.1787(2)
H8B H -1.08930 -0.35720 -0.23870
C9B C -0.8640(4) -0.2835(3) -0.1913(2)
H9B H -0.83970 -0.27920 -0.26020
C10B C -1.2063(14) -0.4298(8) 0.0475(9)
H10B H -1.27050 -0.49080 0.04040
H11B H -1.08570 -0.44280 0.08520
C11B C -1.2923(12) -0.3612(8) 0.1148(11)
H12B H -1.41150 -0.34740 0.07790
H13B H -1.29460 -0.39080 0.18320
H14B H -1.22540 -0.30200 0.12610
C12B C -1.3562(12) -0.3955(8) -0.1481(10)
H15B H -1.46520 -0.39430 -0.12050
H16B H -1.35690 -0.34250 -0.19860
C13B C -1.3294(17) -0.4919(10) -0.1982(10)
H17B H -1.31610 -0.54170 -0.14410
H18B H -1.43040 -0.50630 -0.25420
H19B H -1.22450 -0.48940 -0.22840
#END
