
#######################################################################
#
#                 Cambridge Crystallographic Data Centre
#                                CCDC
#
#######################################################################
#
# If this CIF has been generated from an entry in the Cambridge
# Structural Database, then it will include bibliographic, chemical,
# crystal, experimental, refinement or atomic coordinate data resulting
# from the CCDC's data processing and validation procedures.
#
#######################################################################

data_CSD_CIF_QIXSAS
_audit_creation_date 2008-05-08
_audit_creation_method CSD-ConQuest-V1
_database_code_CSD QIXSAS
_database_code_depnum_ccdc_archive 'CCDC 679156'
_chemical_formula_sum 'C7 H6 N4 O4'
_chemical_formula_moiety
;
C7 H6 N4 O4
;
_journal_coeditor_code "IUCr FJ2106"
_journal_coden_Cambridge 1370
_journal_volume 64
_journal_year 2008
_journal_page_first o745
_journal_name_full 'Acta Crystallogr.,Sect.E:Struct.Rep.Online '
loop_
_publ_author_name
"Nan Zhang"
"Ruji Wang"
"Chunyan Tan"
"Yuyang Jiang"
"Yufen Zhao"
_chemical_name_systematic
;
2,4-Dinitrobenzaldehyde hydrazone
;
_cell_volume    432.656
_exptl_crystal_colour 'yellow'
_exptl_crystal_density_diffrn 1.613
_exptl_crystal_description 'prism'
_exptl_crystal_preparation 'ethanol'
_diffrn_ambient_temperature 295
#These two values have been output from a single CSD field.
_refine_ls_R_factor_gt 0.048
_refine_ls_wR_factor_gt 0.048
_symmetry_cell_setting triclinic
_symmetry_space_group_name_H-M 'P -1'
_symmetry_Int_Tables_number 2
loop_
_symmetry_equiv_pos_site_id
_symmetry_equiv_pos_as_xyz
1 x,y,z
2 -x,-y,-z
_cell_length_a 4.5839(7)
_cell_length_b 9.6840(16)
_cell_length_c 9.9287(15)
_cell_angle_alpha 90.785(12)
_cell_angle_beta 96.149(11)
_cell_angle_gamma 98.955(13)
_cell_formula_units_Z 2
loop_
_atom_type_symbol
_atom_type_radius_bond
C 0.68
H 0.23
N 0.68
O 0.68
loop_
_atom_site_label
_atom_site_type_symbol
_atom_site_fract_x
_atom_site_fract_y
_atom_site_fract_z
O1 O 0.7840(6) 0.1234(3) 0.5319(2)
O2 O 0.4576(6) 0.2314(2) 0.6030(2)
O3 O 0.0003(6) 0.5548(2) 0.3362(3)
O4 O 0.1241(6) 0.5961(3) 0.1351(3)
N1 N 0.9783(6) -0.0870(3) 0.1463(3)
H1 H 1.01670 -0.13640 0.22040
H2 H 1.05810 -0.10430 0.07000
N2 N 0.8489(5) 0.0275(2) 0.1456(2)
N3 N 0.5907(6) 0.1955(2) 0.5116(2)
N4 N 0.1273(6) 0.5291(3) 0.2381(3)
C1 C 0.7626(6) 0.0654(3) 0.2571(3)
H3 H 0.79840 0.01690 0.33580
C2 C 0.6075(6) 0.1858(3) 0.2585(3)
C3 C 0.5165(6) 0.2445(3) 0.3752(3)
C4 C 0.3552(6) 0.3540(3) 0.3687(3)
H4 H 0.29180 0.38850 0.44660
C5 C 0.2906(6) 0.4105(3) 0.2464(3)
C6 C 0.3755(6) 0.3582(3) 0.1277(3)
H5 H 0.33020 0.39780 0.04480
C7 C 0.5269(6) 0.2473(3) 0.1360(3)
H6 H 0.57910 0.21080 0.05650
#END
