
#######################################################################
#
#                 Cambridge Crystallographic Data Centre
#                                CCDC
#
#######################################################################
#
# If this CIF has been generated from an entry in the Cambridge
# Structural Database, then it will include bibliographic, chemical,
# crystal, experimental, refinement or atomic coordinate data resulting
# from the CCDC's data processing and validation procedures.
#
#######################################################################

data_CSD_CIF_QIXTEW
_audit_creation_date 2001-07-19
_audit_creation_method CSD-ConQuest-V1
_database_code_CSD QIXTEW
_database_code_depnum_ccdc_archive 'CCDC 151137'
_chemical_formula_sum 'C17 H23 N2 O5'
_chemical_formula_moiety
;
C17 H23 N2 O5
;
_journal_coden_Cambridge 188
_journal_year 2001
_journal_page_first 670
_journal_name_full 'J.Chem.Soc.,Perkin Trans.2 '
loop_
_publ_author_name
"M.Minguet"
"D.B.Amabilino"
"K.Wurst"
"J.Veciana"
_chemical_name_systematic
;
(R)-Methyl 
(3-(4,4,5,5-tetramethyl-4,5-dihydro-1H-imidazolyl-1-oxy-3-oxide)phenoxy)-2-pro
pionate
;
_cell_volume   1760.252
_exptl_crystal_colour 'dark blue'
_exptl_crystal_density_diffrn 1.266
_exptl_special_details
;
pseudo-eclipsed MP conformer

;
_exptl_crystal_description 'prism'
_exptl_crystal_preparation 'acetone/hexane'
_diffrn_ambient_temperature 218
#These two values have been output from a single CSD field.
_refine_ls_R_factor_gt 0.0319
_refine_ls_wR_factor_gt 0.0319
_symmetry_cell_setting orthorhombic
_symmetry_space_group_name_H-M 'P 21 21 21'
_symmetry_Int_Tables_number 19
loop_
_symmetry_equiv_pos_site_id
_symmetry_equiv_pos_as_xyz
1 x,y,z
2 1/2-x,-y,1/2+z
3 -x,1/2+y,1/2-z
4 1/2+x,1/2-y,-z
_cell_length_a 10.559(2)
_cell_length_b 11.894(2)
_cell_length_c 14.016(9)
_cell_angle_alpha 90
_cell_angle_beta 90
_cell_angle_gamma 90
_cell_formula_units_Z 4
loop_
_atom_type_symbol
_atom_type_radius_bond
C 0.68
H 0.23
N 0.68
O 0.68
loop_
_atom_site_label
_atom_site_type_symbol
_atom_site_fract_x
_atom_site_fract_y
_atom_site_fract_z
O1 O 1.0120(2) 0.4995(2) -0.14862(12)
O2 O 1.0344(2) 0.2091(2) 0.07104(14)
O3 O 0.8748(2) 0.73434(14) 0.11593(12)
O4 O 0.6387(2) 0.6511(2) 0.04408(15)
O5 O 0.7292(2) 0.6641(2) -0.09984(13)
N1 N 1.0165(2) 0.4011(2) -0.11097(15)
N2 N 1.0312(2) 0.2639(2) -0.0077(2)
C1 C 1.0232(2) 0.3769(2) -0.0165(2)
C2 C 1.0007(3) 0.2982(2) -0.1713(2)
C3 C 1.0463(3) 0.2063(2) -0.1019(2)
C4 C 1.0194(2) 0.4583(2) 0.0615(2)
C5 C 0.9507(2) 0.5579(2) 0.0483(2)
H1 H 0.90970 0.57190 -0.01000
C6 C 0.9437(2) 0.6355(2) 0.1216(2)
C7 C 1.0080(3) 0.6177(2) 0.2069(2)
H2 H 1.00420 0.67150 0.25600
C8 C 1.0771(3) 0.5206(2) 0.2190(2)
H3 H 1.12180 0.50930 0.27620
C9 C 1.0820(3) 0.4388(2) 0.1478(2)
H4 H 1.12690 0.37150 0.15770
C10 C 0.8273(3) 0.7652(2) 0.0236(2)
H5 H 0.89670 0.76250 -0.02380
C11 C 0.7774(3) 0.8841(2) 0.0319(2)
H6 H 0.7431(16) 0.9077(6) -0.0291(4)
H7 H 0.8459(5) 0.9341(3) 0.0501(13)
H8 H 0.7114(12) 0.8868(4) 0.0799(10)
C12 C 0.7206(3) 0.6866(2) -0.0070(2)
C13 C 0.6356(3) 0.5885(3) -0.1395(2)
H9 H 0.6538(11) 0.5759(13) -0.2065(4)
H10 H 0.5521(3) 0.6216(8) -0.1331(12)
H11 H 0.6382(13) 0.5175(6) -0.1056(9)
C14 C 1.0720(3) 0.3075(3) -0.2642(2)
H12 H 1.0663(17) 0.2368(7) -0.2984(7)
H13 H 1.1601(5) 0.3246(17) -0.2513(2)
H14 H 1.0353(13) 0.3670(12) -0.3026(7)
C15 C 0.8572(3) 0.2928(3) -0.1933(2)
H15 H 0.8399(4) 0.2281(11) -0.2334(13)
H16 H 0.8315(5) 0.3608(9) -0.2263(13)
H17 H 0.8102(3) 0.2860(18) -0.1341(3)
C16 C 1.1864(4) 0.1799(4) -0.1099(3)
H18 H 1.2027(5) 0.1415(21) -0.1697(9)
H19 H 1.2117(7) 0.1321(19) -0.0571(11)
H20 H 1.2346(4) 0.2493(4) -0.1079(20)
C17 C 0.9675(4) 0.0982(3) -0.1039(3)
H21 H 1.0023(17) 0.0447(9) -0.0587(15)
H22 H 0.9697(22) 0.0662(13) -0.1675(6)
H23 H 0.8807(7) 0.1153(5) -0.0867(19)
#END
