
#######################################################################
#
#                 Cambridge Crystallographic Data Centre
#                                CCDC
#
#######################################################################
#
# If this CIF has been generated from an entry in the Cambridge
# Structural Database, then it will include bibliographic, chemical,
# crystal, experimental, refinement or atomic coordinate data resulting
# from the CCDC's data processing and validation procedures.
#
#######################################################################

data_CSD_CIF_QIYJIR
_audit_creation_date 2001-07-19
_audit_creation_method CSD-ConQuest-V1
_database_code_CSD QIYJIR
_database_code_depnum_ccdc_archive 'CCDC 161290'
_chemical_formula_sum 'C14 H12 N2 O4'
_chemical_formula_moiety
;
C14 H12 N2 O4
;
_journal_coden_Cambridge 35
_journal_volume 66
_journal_year 2001
_journal_page_first 2171
_journal_name_full 'J.Org.Chem. '
loop_
_publ_author_name
"F.F.Fleming"
"Qunzhao Wang"
"O.W.Steward"
_chemical_name_systematic
;
2-(2-Hydroxycyclopentylidene)ethanenitrile p-nitrobenzoate
;
_chemical_melting_point 340
_cell_volume   1312.570
_exptl_crystal_colour 'colorless'
_exptl_crystal_density_diffrn 1.378
_exptl_special_details
;
Melting point range 340-342K

;
_exptl_crystal_description 'plate'
_exptl_crystal_preparation 'ethyl acetate'
_diffrn_ambient_temperature ?
_diffrn_special_details
;
The study was carried out at room temperature,in the range 283-303K

;
#These two values have been output from a single CSD field.
_refine_ls_R_factor_gt 0.0451
_refine_ls_wR_factor_gt 0.0451
_symmetry_cell_setting monoclinic
_symmetry_space_group_name_H-M 'P 21'
_symmetry_Int_Tables_number 4
loop_
_symmetry_equiv_pos_site_id
_symmetry_equiv_pos_as_xyz
1 x,y,z
2 -x,1/2+y,-z
_cell_length_a 10.123(1)
_cell_length_b 6.087(2)
_cell_length_c 21.693(1)
_cell_angle_alpha 90
_cell_angle_beta 100.902(8)
_cell_angle_gamma 90
_cell_formula_units_Z 4
loop_
_atom_type_symbol
_atom_type_radius_bond
C 0.68
H 0.23
N 0.68
O 0.68
loop_
_atom_site_label
_atom_site_type_symbol
_atom_site_fract_x
_atom_site_fract_y
_atom_site_fract_z
O1 O 0.0036(7) -0.084(4) 0.6065(4)
O2 O 0.1075(7) 0.238(4) 0.6109(3)
O3 O 0.553(1) -0.590(4) 0.7715(5)
O4 O 0.681(1) -0.310(4) 0.7648(5)
O5 O 0.4996(7) -0.138(4) 0.8945(4)
O6 O 0.383(1) -0.445(4) 0.9018(6)
O7 O -0.051(1) 0.360(4) 0.7231(6)
O8 O -0.174(1) 0.092(4) 0.7380(5)
N1 N -0.423(1) -0.605(4) 0.6124(6)
N2 N 0.571(1) -0.406(4) 0.7540(5)
N3 N 0.913(1) 0.374(4) 0.8856(5)
N4 N -0.0675(9) 0.182(4) 0.7465(4)
C1 C -0.340(1) -0.468(4) 0.6161(5)
C2 C -0.228(2) -0.318(4) 0.6154(7)
C3 C -0.230(1) -0.151(4) 0.5766(6)
C4 C -0.347(1) -0.088(4) 0.5206(5)
C5 C -0.294(1) 0.077(5) 0.4902(5)
C6 C -0.145(1) 0.104(5) 0.5180(8)
C7 C -0.120(1) 0.005(4) 0.5754(7)
C8 C 0.111(1) 0.035(4) 0.6166(6)
C9 C 0.2308(9) -0.086(4) 0.6504(5)
C10 C 0.221(1) -0.286(4) 0.6739(5)
C11 C 0.334(1) -0.394(4) 0.7083(5)
C12 C 0.453(1) -0.285(4) 0.7164(6)
C13 C 0.4695(9) -0.089(4) 0.6932(5)
C14 C 0.362(1) 0.024(4) 0.6608(6)
C15 C 0.832(1) 0.260(4) 0.8861(6)
C16 C 0.732(1) 0.090(4) 0.8780(5)
C17 C 0.737(1) -0.066(4) 0.9212(5)
C18 C 0.837(1) -0.101(4) 0.9734(7)
C19 C 0.795(1) -0.315(5) 1.0114(6)
C20 C 0.643(1) -0.310(4) 0.9893(5)
C21 C 0.6309(8) -0.242(4) 0.9200(4)
C22 C 0.388(1) -0.275(4) 0.8808(5)
C23 C 0.268(1) -0.141(4) 0.8488(5)
C24 C 0.283(1) 0.071(4) 0.8265(6)
C25 C 0.172(1) 0.176(4) 0.7946(5)
C26 C 0.047(1) 0.074(4) 0.7837(5)
C27 C 0.031(1) -0.136(4) 0.8079(7)
C28 C 0.149(1) -0.232(4) 0.8425(4)
H1 H -0.14170 -0.33730 0.64440
H2 H -0.42670 -0.03070 0.53400
H3 H -0.36830 -0.19920 0.49260
H4 H -0.34270 0.22380 0.49490
H5 H -0.30430 0.05860 0.44670
H6 H -0.12770 0.27050 0.52010
H7 H -0.09690 0.04260 0.49410
H8 H -0.13880 0.14910 0.60720
H9 H 0.13790 -0.34590 0.66850
H10 H 0.32730 -0.52270 0.72590
H11 H 0.55780 -0.01570 0.69890
H12 H 0.37170 0.18400 0.64700
H13 H 0.66570 0.10000 0.84220
H14 H 0.84890 0.03440 0.99900
H15 H 0.91760 -0.12180 0.95810
H16 H 0.82980 -0.43530 0.99840
H17 H 0.81790 -0.28420 1.05460
H18 H 0.59850 -0.19440 1.01260
H19 H 0.60040 -0.43800 0.99170
H20 H 0.64790 -0.34280 0.89500
H21 H 0.37080 0.15370 0.83480
H22 H 0.18040 0.33520 0.78030
H23 H -0.05230 -0.20020 0.80090
H24 H 0.14220 -0.35110 0.86430
#END
