
#######################################################################
#
#                 Cambridge Crystallographic Data Centre
#                                CCDC
#
#######################################################################
#
# If this CIF has been generated from an entry in the Cambridge
# Structural Database, then it will include bibliographic, chemical,
# crystal, experimental, refinement or atomic coordinate data resulting
# from the CCDC's data processing and validation procedures.
#
#######################################################################

data_CSD_CIF_QIYRUN
_audit_creation_date 2014-03-20
_audit_creation_method CSD-ConQuest-V1
_database_code_CSD QIYRUN
_database_code_depnum_ccdc_archive 'CCDC 896096'
_chemical_formula_sum 'C29 H47 N1 O4'
_chemical_formula_moiety
;
C29 H47 N1 O4
;
_journal_coden_Cambridge 119
_journal_volume 1063
_journal_year 2014
_journal_page_first 219
_journal_name_full 'J.Mol.Struct. '
loop_
_publ_author_name
"Shamsuzzaman"
"A.Mashrai"
"Hena Khanam"
"Y.N.Mabkhot"
"Wolfgang Frey"
_chemical_name_systematic
;
6-nitrocholest-5-en-3-yl acetate
;
_cell_volume   2762.584
_exptl_crystal_colour 'colorless'
_exptl_crystal_density_diffrn 1.139
_exptl_crystal_description 'plates'
_diffrn_ambient_temperature 100
#These two values have been output from a single CSD field.
_refine_ls_R_factor_gt 0.0386
_refine_ls_wR_factor_gt 0.0386
_symmetry_cell_setting monoclinic
_symmetry_space_group_name_H-M 'P 21'
_symmetry_Int_Tables_number 4
loop_
_symmetry_equiv_pos_site_id
_symmetry_equiv_pos_as_xyz
1 x,y,z
2 -x,1/2+y,-z
_cell_length_a 15.7729(13)
_cell_length_b 9.8933(8)
_cell_length_c 17.8070(14)
_cell_angle_alpha 90
_cell_angle_beta 96.176(4)
_cell_angle_gamma 90
_cell_formula_units_Z 4
loop_
_atom_type_symbol
_atom_type_radius_bond
C 0.68
H 0.23
N 0.68
O 0.68
loop_
_atom_site_label
_atom_site_type_symbol
_atom_site_fract_x
_atom_site_fract_y
_atom_site_fract_z
O1 O 0.09962(9) -0.14705(16) 0.18980(9)
N1 N 0.11054(10) -0.04815(17) 0.15159(9)
C1 C 0.19534(11) -0.02669(19) 0.12496(11)
C2 C 0.26182(12) -0.0022(2) 0.17571(11)
O2 O 0.05463(10) 0.0305(2) 0.13037(12)
O3 O 0.29578(9) 0.13857(16) 0.37381(8)
C3 C 0.25523(12) 0.0064(2) 0.25995(11)
H1 H 0.28570 -0.07090 0.28580
H2 H 0.19460 0.00120 0.26930
O4 O 0.15735(9) 0.19593(16) 0.36379(9)
C4 C 0.29375(13) 0.1386(2) 0.29205(11)
H3 H 0.25830 0.21610 0.27080
C5 C 0.38404(13) 0.1569(2) 0.27397(12)
H4 H 0.42050 0.08450 0.29850
H5 H 0.40630 0.24490 0.29380
C6 C 0.38716(13) 0.1517(2) 0.18859(12)
H6 H 0.44720 0.16190 0.17810
H7 H 0.35480 0.22970 0.16540
C7 C 0.35071(12) 0.0204(2) 0.15017(11)
C8 C 0.34573(12) 0.0394(2) 0.06320(11)
H8 H 0.32240 0.13230 0.05240
C9 C 0.43403(12) 0.0361(2) 0.03346(11)
H9 H 0.47020 0.10760 0.05920
H10 H 0.46140 -0.05200 0.04670
C10 C 0.43061(13) 0.0566(2) -0.05188(11)
H11 H 0.48890 0.05070 -0.06730
H12 H 0.40790 0.14780 -0.06530
C11 C 0.37387(11) -0.0505(2) -0.09419(11)
C12 C 0.34971(11) -0.0309(2) -0.18055(11)
H13 H 0.33590 0.06680 -0.18940
C13 C 0.26522(12) -0.1119(2) -0.19605(11)
H14 H 0.22440 -0.06250 -0.23220
H15 H 0.27630 -0.20150 -0.21770
C14 C 0.22838(12) -0.1287(2) -0.11946(11)
H16 H 0.16820 -0.09850 -0.12310
H17 H 0.23170 -0.22400 -0.10250
C15 C 0.28522(11) -0.0383(2) -0.06580(11)
H18 H 0.26570 0.05660 -0.07680
C16 C 0.28329(11) -0.0589(2) 0.01882(10)
H19 H 0.30110 -0.15370 0.03200
C17 C 0.19340(11) -0.0357(2) 0.04133(11)
H20 H 0.16980 0.04900 0.01800
H21 H 0.15580 -0.11120 0.02230
C18 C 0.40705(13) -0.1011(2) 0.17699(12)
H22 H 0.40140 -0.11910 0.23030
H23 H 0.46670 -0.08060 0.17090
H24 H 0.38890 -0.18080 0.14680
C19 C 0.41247(12) -0.1923(2) -0.07951(12)
H25 H 0.47130 -0.19290 -0.09240
H26 H 0.37870 -0.25860 -0.11080
H27 H 0.41190 -0.21550 -0.02610
C20 C 0.22256(13) 0.1706(2) 0.40239(12)
C21 C 0.23255(15) 0.1661(3) 0.48736(12)
H28 H 0.19250 0.22970 0.50670
H29 H 0.29100 0.19120 0.50640
H30 H 0.22060 0.07450 0.50430
C22 C 0.41518(12) -0.0715(2) -0.23491(11)
H31 H 0.42940 -0.16890 -0.22540
C23 C 0.49867(13) 0.0091(3) -0.22031(12)
H32 H 0.53540 -0.01130 -0.25990
H33 H 0.52800 -0.01610 -0.17100
H34 H 0.48580 0.10600 -0.22070
C24 C 0.37845(13) -0.0583(2) -0.31829(11)
H35 H 0.32010 -0.09650 -0.32450
H36 H 0.37420 0.03870 -0.33180
C25 C 0.43222(13) -0.1301(3) -0.37277(11)
H37 H 0.48780 -0.08330 -0.37170
H38 H 0.44350 -0.22370 -0.35480
C26 C 0.39096(13) -0.1349(2) -0.45385(11)
H39 H 0.33910 -0.19170 -0.45580
H40 H 0.37270 -0.04230 -0.46930
C27 C 0.44740(16) -0.1892(3) -0.51034(13)
H41 H 0.49790 -0.12780 -0.50910
C28 C 0.40142(16) -0.1828(3) -0.59026(13)
H42 H 0.43860 -0.21930 -0.62600
H43 H 0.38720 -0.08870 -0.60330
H44 H 0.34890 -0.23640 -0.59270
C29 C 0.4803(2) -0.3260(4) -0.49407(15)
H45 H 0.51790 -0.32540 -0.44660
H46 H 0.51230 -0.35620 -0.53520
H47 H 0.43250 -0.38780 -0.48960
O5 O 0.72159(10) -0.01174(19) -1.43244(9)
N2 N 0.78163(11) 0.0645(2) -1.41536(10)
C30 C 0.83888(13) 0.0299(2) -1.34658(11)
C31 C 0.92000(12) -0.0015(2) -1.35332(11)
O6 O 0.79524(11) 0.16794(19) -1.44994(9)
C32 C 0.95775(13) 0.0032(2) -1.42760(11)
H48 H 0.99650 0.08190 -1.42790
H49 H 0.91140 0.01520 -1.46920
O7 O 1.04777(9) -0.10692(16) -1.50988(8)
O8 O 0.92663(11) -0.16962(18) -1.57966(9)
C33 C 1.00686(13) -0.1250(2) -1.44105(12)
H50 H 0.96690 -0.20370 -1.44690
C34 C 1.07538(13) -0.1509(2) -1.37674(13)
H51 H 1.11620 -0.07460 -1.37210
H52 H 1.10710 -0.23430 -1.38660
C35 C 1.03364(13) -0.1662(2) -1.30368(12)
H53 H 1.07890 -0.18200 -1.26160
H54 H 0.99680 -0.24740 -1.30800
C36 C 0.97936(12) -0.0438(2) -1.28326(11)
C37 C 0.92577(12) -0.0860(2) -1.21842(11)
H55 H 0.89590 -0.17190 -1.23490
C38 C 0.98095(12) -0.1178(2) -1.14396(11)
H56 H 1.01900 -0.19460 -1.15250
H57 H 1.01740 -0.03850 -1.12950
C39 C 0.92948(13) -0.1531(2) -1.07807(12)
H58 H 0.89870 -0.23920 -1.08930
H59 H 0.96910 -0.16620 -1.03160
C40 C 0.86539(12) -0.0426(2) -1.06439(11)
C41 C 0.79577(13) -0.0781(2) -1.01189(11)
H60 H 0.77590 -0.17190 -1.02520
C42 C 0.72090(13) 0.0192(2) -1.03935(11)
H61 H 0.66560 -0.02820 -1.04000
H62 H 0.72060 0.09810 -1.00520
C43 C 0.73536(12) 0.0656(2) -1.11982(11)
H63 H 0.68350 0.05130 -1.15550
H64 H 0.75140 0.16230 -1.12030
C44 C 0.80825(11) -0.0237(2) -1.13992(11)
H65 H 0.78270 -0.11430 -1.15310
C45 C 0.85568(12) 0.0177(2) -1.20617(11)
H66 H 0.88300 0.10760 -1.19480
C46 C 0.79340(12) 0.0301(2) -1.27782(11)
H67 H 0.75270 -0.04630 -1.28030
H68 H 0.76050 0.11500 -1.27590
C47 C 1.03813(13) 0.0778(2) -1.26049(12)
H69 H 1.06240 0.11220 -1.30510
H70 H 1.08430 0.04890 -1.22260
H71 H 1.00490 0.14940 -1.23930
C48 C 0.91116(14) 0.0887(2) -1.03752(12)
H72 H 0.95050 0.07030 -0.99220
H73 H 0.86890 0.15600 -1.02560
H74 H 0.94320 0.12370 -1.07750
C49 C 0.99871(15) -0.1302(2) -1.57556(12)
C50 C 1.04722(18) -0.1003(3) -1.64195(14)
H75 H 1.01190 -0.12340 -1.68890
H76 H 1.09970 -0.15400 -1.63800
H77 H 1.06160 -0.00390 -1.64230
C51 C 0.81990(14) -0.0755(2) -0.92608(11)
H78 H 0.84410 0.01590 -0.91270
C52 C 0.88820(14) -0.1801(2) -0.90017(12)
H79 H 0.90150 -0.17480 -0.84520
H80 H 0.93980 -0.16170 -0.92450
H81 H 0.86710 -0.27070 -0.91420
C53 C 0.74221(15) -0.0948(2) -0.88325(12)
H82 H 0.71850 -0.18610 -0.89450
H83 H 0.69810 -0.02820 -0.90200
C54 C 0.76070(16) -0.0792(3) -0.79758(13)
H84 H 0.79900 -0.15330 -0.77790
H85 H 0.79120 0.00720 -0.78650
C55 C 0.68254(16) -0.0812(3) -0.75684(13)
H86 H 0.64960 -0.16390 -0.77160
H87 H 0.64660 -0.00260 -0.77370
C56 C 0.69962(17) -0.0774(3) -0.67120(13)
H88 H 0.73860 -0.15420 -0.65510
C57 C 0.7435(2) 0.0532(4) -0.64289(15)
H89 H 0.79960 0.05930 -0.66170
H90 H 0.75060 0.05350 -0.58750
H91 H 0.70860 0.13070 -0.66130
C58 C 0.61714(19) -0.0984(4) -0.63613(16)
H92 H 0.57720 -0.02540 -0.65200
H93 H 0.62900 -0.09810 -0.58100
H94 H 0.59200 -0.18540 -0.65280
#END
