
#######################################################################
#
#                 Cambridge Crystallographic Data Centre
#                                CCDC
#
#######################################################################
#
# If this CIF has been generated from an entry in the Cambridge
# Structural Database, then it will include bibliographic, chemical,
# crystal, experimental, refinement or atomic coordinate data resulting
# from the CCDC's data processing and validation procedures.
#
#######################################################################

data_CSD_CIF_QIYYEC
_audit_creation_date 2001-07-30
_audit_creation_method CSD-ConQuest-V1
_database_code_CSD QIYYEC
_database_code_depnum_ccdc_archive 'CCDC 156818'
_chemical_formula_sum 'C17 H25 N1 O5'
_chemical_formula_moiety
;
C17 H25 N1 O5
;
_journal_coden_Cambridge 4
_journal_volume 122
_journal_year 2000
_journal_page_first 8654
_journal_name_full 'J.Am.Chem.Soc. '
loop_
_publ_author_name
"A.B.Smith III"
"T.J.Beauchamp"
"M.J.La Marche"
"M.D.Kaufman"
"Yuping Qiu"
"H.Arimoto"
"D.R.Jones"
"K.Kobayashi"
_chemical_name_systematic
;
4-(N-Methyl-N-methoxycarbamoylethyl)-5-methyl-2-(4-methoxyphenyl)-1,3-dioxane
;
_chemical_melting_point 365.15
_cell_volume   1700.812
_exptl_crystal_density_diffrn 1.263
_exptl_special_details
;
Melting point range 365.15-367.15K

;
_diffrn_ambient_temperature 200
#These two values have been output from a single CSD field.
_refine_ls_R_factor_gt 0.0366
_refine_ls_wR_factor_gt 0.0366
_symmetry_cell_setting orthorhombic
_symmetry_space_group_name_H-M 'P 21 21 21'
_symmetry_Int_Tables_number 19
loop_
_symmetry_equiv_pos_site_id
_symmetry_equiv_pos_as_xyz
1 x,y,z
2 1/2-x,-y,1/2+z
3 1/2+x,1/2-y,-z
4 -x,1/2+y,1/2-z
_cell_length_a 11.3648(2)
_cell_length_b 18.6253(1)
_cell_length_c 8.0351(1)
_cell_angle_alpha 90
_cell_angle_beta 90
_cell_angle_gamma 90
_cell_formula_units_Z 4
loop_
_atom_type_symbol
_atom_type_radius_bond
C 0.68
H 0.23
N 0.68
O 0.68
loop_
_atom_site_label
_atom_site_type_symbol
_atom_site_fract_x
_atom_site_fract_y
_atom_site_fract_z
C1 C 0.4410(2) 0.60896(9) 0.5576(2)
C2 C 0.3137(2) 0.56385(11) 0.3568(3)
C3 C 0.2657(2) 0.63847(10) 0.3207(2)
C4 C 0.3582(2) 0.69317(9) 0.3739(2)
C5 C 0.3175(2) 0.77196(10) 0.3708(2)
C6 C 0.4244(2) 0.82031(9) 0.3937(2)
C7 C 0.2360(2) 0.64381(13) 0.1364(3)
C8 C 0.48807(15) 0.59944(9) 0.7305(2)
C9 C 0.5253(2) 0.65891(10) 0.8230(2)
C10 C 0.5757(2) 0.65019(10) 0.9778(2)
C11 C 0.59021(15) 0.5821(1) 1.0438(2)
C12 C 0.5529(2) 0.52245(10) 0.9553(2)
C13 C 0.5023(2) 0.5319(1) 0.7995(2)
C14 C 0.6635(3) 0.51073(14) 1.2682(3)
C15 C 0.2257(2) 0.78931(12) 0.5027(3)
C16 C 0.6001(2) 0.87372(13) 0.2593(3)
C17 C 0.4073(2) 0.84624(15) -0.0139(3)
N1 N 0.48473(14) 0.83979(9) 0.2542(2)
O1 O 0.35388(11) 0.55643(7) 0.5256(2)
O2 O 0.39459(10) 0.67864(6) 0.54227(14)
O3 O 0.64335(13) 0.57969(8) 1.1971(2)
O4 O 0.45526(13) 0.84370(7) 0.5295(2)
O5 O 0.46347(12) 0.80111(7) 0.1071(2)
H1 H 0.5024(16) 0.6028(9) 0.4695(23)
H2 H 0.3848(20) 0.5523(11) 0.2759(26)
H3 H 0.254(2) 0.5301(11) 0.3433(27)
H4 H 0.1906(18) 0.6446(10) 0.3861(24)
H5 H 0.4308(16) 0.6853(9) 0.2977(22)
H6 H 0.2842(18) 0.7804(11) 0.2565(26)
H7 H 0.1934(25) 0.5995(15) 0.1027(34)
H8 H 0.3061(28) 0.6415(16) 0.0655(36)
H9 H 0.1813(25) 0.6874(14) 0.1133(35)
H10 H 0.5134(19) 0.7059(12) 0.7743(25)
H11 H 0.6016(20) 0.6933(12) 1.0431(27)
H12 H 0.5610(19) 0.4755(13) 1.0048(27)
H13 H 0.4767(22) 0.4894(13) 0.7360(29)
H14 H 0.7035(27) 0.5205(14) 1.3854(39)
H15 H 0.7118(29) 0.4791(16) 1.1912(39)
H16 H 0.5810(28) 0.4863(16) 1.2818(37)
H17 H 0.2583(18) 0.7837(10) 0.6152(27)
H18 H 0.1539(23) 0.7600(13) 0.4859(30)
H19 H 0.2061(23) 0.8446(16) 0.5031(32)
H20 H 0.6670(28) 0.8368(17) 0.2515(37)
H21 H 0.6051(22) 0.8994(12) 0.3675(34)
H22 H 0.6057(24) 0.9067(14) 0.1643(33)
H23 H 0.3973(26) 0.8175(14) -0.1055(38)
H24 H 0.4572(24) 0.8915(15) -0.0360(32)
H25 H 0.3295(27) 0.8611(15) 0.0252(33)
#END
