
#######################################################################
#
#                 Cambridge Crystallographic Data Centre
#                                CCDC
#
#######################################################################
#
# If this CIF has been generated from an entry in the Cambridge
# Structural Database, then it will include bibliographic, chemical,
# crystal, experimental, refinement or atomic coordinate data resulting
# from the CCDC's data processing and validation procedures.
#
#######################################################################

data_CSD_CIF_QIYYOO
_audit_creation_date 2014-03-21
_audit_creation_method CSD-ConQuest-V1
_database_code_CSD QIYYOO
_database_code_depnum_ccdc_archive 'CCDC 953180'
_chemical_formula_sum 'C23 H20 N4 O4'
_chemical_formula_moiety
;
C23 H20 N4 O4
;
_journal_coden_Cambridge 24
_journal_volume 55
_journal_year 2014
_journal_page_first 1437
_journal_name_full 'Tetrahedron Lett. '
loop_
_publ_author_name
"S.Mukhopadhyay"
"A.Biswas"
"R.Pandey"
"R.K.Gupta"
"D.S.Pandey"
_chemical_name_systematic
;
N,N'-(2,4,6-trimethyl-1,3-phenylene)bis(1-(4-nitrophenyl)methanimine)
;
_cell_volume   2068.846
_exptl_crystal_colour 'red'
_exptl_crystal_density_diffrn 1.337
_exptl_crystal_description 'block'
_diffrn_ambient_temperature 153
#These two values have been output from a single CSD field.
_refine_ls_R_factor_gt 0.1042
_refine_ls_wR_factor_gt 0.1042
_symmetry_cell_setting monoclinic
_symmetry_space_group_name_H-M 'P 21/c'
_symmetry_Int_Tables_number 14
loop_
_symmetry_equiv_pos_site_id
_symmetry_equiv_pos_as_xyz
1 x,y,z
2 -x,1/2+y,1/2-z
3 -x,-y,-z
4 x,-1/2-y,-1/2+z
_cell_length_a 13.501(2)
_cell_length_b 7.9604(10)
_cell_length_c 20.334(3)
_cell_angle_alpha 90
_cell_angle_beta 108.794(18)
_cell_angle_gamma 90
_cell_formula_units_Z 4
loop_
_atom_type_symbol
_atom_type_radius_bond
C 0.68
H 0.23
N 0.68
O 0.68
loop_
_atom_site_label
_atom_site_type_symbol
_atom_site_fract_x
_atom_site_fract_y
_atom_site_fract_z
N1 N 0.8612(2) 0.1102(3) 0.83096(16)
N2 N 0.5143(2) 0.1371(4) 0.66172(17)
O1 O 0.1068(2) 0.6313(4) 0.45433(18)
O2 O 1.2491(3) 0.5756(4) 1.0644(2)
C1 C 0.6015(3) 0.0400(4) 0.69921(19)
C2 C 0.6906(3) 0.1239(4) 0.74127(18)
O3 O 0.1551(3) 0.5750(5) 0.36647(19)
N3 N 0.1656(3) 0.5663(4) 0.4282(2)
O4 O 1.3168(3) 0.6312(4) 0.98416(19)
C3 C 0.6827(3) -0.2226(4) 0.74043(18)
H1 H 0.68040 -0.33940 0.73960
C4 C 0.7743(3) 0.0307(4) 0.78217(18)
N4 N 1.2514(3) 0.5647(4) 1.0053(2)
C5 C 1.0798(3) 0.3824(5) 0.8398(2)
H2 H 1.07320 0.38230 0.79290
C6 C 0.7727(3) -0.1462(4) 0.78268(17)
C7 C 1.0960(3) 0.3883(5) 0.9789(2)
H3 H 1.10150 0.39250 1.02570
C8 C 0.5965(3) -0.1369(4) 0.69964(19)
C9 C 1.0083(3) 0.2933(4) 0.8623(2)
C10 C 1.1661(3) 0.4724(4) 0.9543(2)
C11 C 0.6922(3) 0.3149(4) 0.7442(2)
H4 H 0.62820 0.35810 0.71260
H5 H 0.75030 0.35610 0.73140
H6 H 0.69930 0.35090 0.79060
C12 C 0.9232(3) 0.1995(4) 0.8121(2)
H7 H 0.91540 0.20680 0.76500
C13 C 1.0169(3) 0.2971(4) 0.9318(2)
H8 H 0.96920 0.23800 0.94720
C14 C 0.2676(3) 0.4583(4) 0.5436(2)
H9 H 0.22240 0.51400 0.56240
C15 C 0.8611(3) -0.2479(5) 0.8275(2)
H10 H 0.91660 -0.17460 0.85310
H11 H 0.88620 -0.32170 0.79900
H12 H 0.83760 -0.31310 0.85940
C16 C 0.3494(3) 0.3614(5) 0.5850(2)
H13 H 0.35960 0.35300 0.63230
C17 C 0.4153(3) 0.2778(4) 0.5572(2)
C18 C 0.5006(3) 0.1727(5) 0.6004(2)
H14 H 0.54790 0.12970 0.58010
C19 C 1.1605(3) 0.4710(5) 0.8858(2)
H15 H 1.20950 0.52800 0.87080
C20 C 0.2552(3) 0.4697(4) 0.4742(2)
C21 C 0.3199(4) 0.3887(6) 0.4448(2)
H16 H 0.30940 0.39700 0.39740
C22 C 0.4991(3) -0.2307(5) 0.6607(2)
H17 H 0.44670 -0.15270 0.63490
H18 H 0.47370 -0.29090 0.69300
H19 H 0.51440 -0.30860 0.62930
C23 C 0.4000(4) 0.2956(6) 0.4868(3)
H20 H 0.44580 0.24250 0.46770
#END
