
#######################################################################
#
#                 Cambridge Crystallographic Data Centre
#                                CCDC
#
#######################################################################
#
# If this CIF has been generated from an entry in the Cambridge
# Structural Database, then it will include bibliographic, chemical,
# crystal, experimental, refinement or atomic coordinate data resulting
# from the CCDC's data processing and validation procedures.
#
#######################################################################

data_CSD_CIF_QIZMAO
_audit_creation_date 2008-09-17
_audit_creation_method CSD-ConQuest-V1
_database_code_CSD QIZMAO
_database_code_depnum_ccdc_archive 'CCDC 649113'
_chemical_formula_sum 'C22 H15 N3 O2'
_chemical_formula_moiety
;
C22 H15 N3 O2
;
_journal_coden_Cambridge 35
_journal_volume 73
_journal_year 2008
_journal_page_first 3005
_journal_name_full 'J.Org.Chem. '
loop_
_publ_author_name
"M.Schmittel"
"J.-P.Steffen"
"D.Rodriguez"
"B.Engelen"
"E.Neumann"
"M.E.Cinar"
_chemical_name_systematic
;
N-(4-Methyl-2-(4-nitrophenylethynyl)phenyl)-N'-phenylcarbodiimide
;
_chemical_melting_point 377.15
_cell_volume    865.563
_exptl_crystal_colour 'yellow'
_exptl_crystal_density_diffrn 1.356
_exptl_special_details
;
s-cis conformer

;
_exptl_crystal_description 'plate'
_exptl_crystal_preparation 'diethyl ether/n-hexane'
_diffrn_ambient_temperature 173
#These two values have been output from a single CSD field.
_refine_ls_R_factor_gt 0.0403
_refine_ls_wR_factor_gt 0.0403
_symmetry_cell_setting triclinic
_symmetry_space_group_name_H-M 'P -1'
_symmetry_Int_Tables_number 2
loop_
_symmetry_equiv_pos_site_id
_symmetry_equiv_pos_as_xyz
1 x,y,z
2 -x,-y,-z
_cell_length_a 8.3612(8)
_cell_length_b 8.4846(7)
_cell_length_c 12.9516(11)
_cell_angle_alpha 76.027(10)
_cell_angle_beta 86.723(11)
_cell_angle_gamma 76.115(11)
_cell_formula_units_Z 2
loop_
_atom_type_symbol
_atom_type_radius_bond
C 0.68
H 0.23
N 0.68
O 0.68
loop_
_atom_site_label
_atom_site_type_symbol
_atom_site_fract_x
_atom_site_fract_y
_atom_site_fract_z
C1 C 0.60217(12) 0.31271(13) 0.37591(7)
C2 C 0.96110(12) 0.84994(13) 0.65196(7)
C3 C 0.92186(11) 0.69495(13) 0.69434(7)
N1 N 0.52343(11) 0.23459(12) 0.30967(7)
C4 C 0.68859(13) 0.31728(14) 0.54703(8)
N2 N 0.92404(12) 0.46268(12) 0.85329(7)
C5 C 0.73921(11) 0.46514(12) 0.50195(7)
C6 C 1.02272(14) 0.69930(15) 0.86497(8)
C7 C 1.03173(12) 0.92915(13) 0.71345(8)
O1 O 0.49332(12) 0.09823(11) 0.35048(7)
C8 C 0.80495(12) 0.54656(14) 0.56887(8)
C9 C 0.65242(12) 0.45746(13) 0.32841(7)
C10 C 0.85675(12) 0.61417(13) 0.62699(7)
C11 C 1.06039(14) 0.85143(15) 0.82101(8)
C12 C 0.95362(12) 0.61915(13) 0.80289(7)
C13 C 0.72170(12) 0.53363(13) 0.39199(8)
C14 C 0.62018(13) 0.23946(14) 0.48389(8)
C15 C 0.56623(14) 0.11433(14) 0.82657(8)
O2 O 0.48946(13) 0.30918(13) 0.21734(7)
C16 C 0.84009(13) 0.37423(13) 0.83435(8)
C17 C 0.62342(13) 0.23122(13) 0.86285(7)
N3 N 0.77821(12) 0.26246(12) 0.82478(8)
C18 C 1.08121(15) 1.09032(14) 0.66518(9)
C19 C 0.41329(15) 0.08390(16) 0.86004(9)
C20 C 0.53139(15) 0.31420(14) 0.93527(8)
C21 C 0.31872(15) 0.16917(16) 0.92980(9)
C22 C 0.37899(16) 0.28287(16) 0.96819(9)
H1 H 0.6366(19) 0.5048(19) 0.2546(12)
H2 H 0.7582(17) 0.6359(19) 0.3584(11)
H3 H 0.9398(18) 0.9019(19) 0.5746(11)
H4 H 0.6989(17) 0.2663(18) 0.6242(11)
H5 H 0.5767(19) 0.393(2) 0.9603(12)
H6 H 0.633(2) 0.054(2) 0.7792(12)
H7 H 0.5815(18) 0.140(2) 0.5153(11)
H8 H 1.107(2) 0.904(2) 0.8675(13)
H9 H 0.376(2) 0.000(2) 0.8375(12)
H10 H 1.011(2) 1.158(2) 0.6060(15)
H11 H 1.078(2) 1.162(3) 0.7148(15)
H12 H 1.193(3) 1.074(3) 0.6365(15)
H13 H 1.0451(18) 0.6428(19) 0.9392(12)
H14 H 0.315(2) 0.339(2) 1.0176(13)
H15 H 0.210(2) 0.144(2) 0.9505(12)
#END
