
#######################################################################
#
#                 Cambridge Crystallographic Data Centre
#                                CCDC
#
#######################################################################
#
# If this CIF has been generated from an entry in the Cambridge
# Structural Database, then it will include bibliographic, chemical,
# crystal, experimental, refinement or atomic coordinate data resulting
# from the CCDC's data processing and validation procedures.
#
#######################################################################

data_CSD_CIF_QIZMAN
_audit_creation_date 2001-07-31
_audit_creation_method CSD-ConQuest-V1
_database_code_CSD QIZMAN
_chemical_formula_sum 'C16 H16 N2 O6'
_chemical_formula_moiety
;
C16 H16 N2 O6
;
_journal_coden_Cambridge 4
_journal_volume 122
_journal_year 2000
_journal_page_first 4219
_journal_name_full 'J.Am.Chem.Soc. '
loop_
_publ_author_name
"Jin Zhu"
"R.D.Parra"
"Huaqiang Zeng"
"E.Skrzypczak-Jankun"
"Xiao Cheng Zeng"
"Bing Gong"
_chemical_name_systematic
;
N-2-methoxyphenyl 2,3-dimethoxy-4-nitrobenzamide
;
_cell_volume    753.179
_exptl_crystal_density_diffrn 1.465
_diffrn_ambient_temperature ?
_diffrn_special_details
;
The study was carried out at room temperature,in the range 283-303K

;
_refine_special_details
;
O atoms of the nitro group are disordered over two positions.

;
#These two values have been output from a single CSD field.
_refine_ls_R_factor_gt 0.0386
_refine_ls_wR_factor_gt 0.0386
_symmetry_cell_setting triclinic
_symmetry_space_group_name_H-M 'P -1'
_symmetry_Int_Tables_number 2
loop_
_symmetry_equiv_pos_site_id
_symmetry_equiv_pos_as_xyz
1 x,y,z
2 -x,-y,-z
_cell_length_a 7.1657(1)
_cell_length_b 8.3342(2)
_cell_length_c 13.2149(2)
_cell_angle_alpha 73.43(1)
_cell_angle_beta 84.69(1)
_cell_angle_gamma 88.50(1)
_cell_formula_units_Z 2
loop_
_atom_type_symbol
_atom_type_radius_bond
C 0.68
H 0.23
N 0.68
O 0.68
loop_
_atom_site_label
_atom_site_type_symbol
_atom_site_fract_x
_atom_site_fract_y
_atom_site_fract_z
C1 C 0.2594(1) 0.4810(1) 0.3804(1)
C2 C 0.2059(1) 0.6410(1) 0.3903(1)
C3 C 0.1615(1) 0.7701(1) 0.3022(1)
C4 C 0.1697(1) 0.7470(1) 0.2012(1)
C5 C 0.2232(1) 0.5872(1) 0.1913(1)
C6 C 0.2657(1) 0.4592(1) 0.2799(1)
C7 C 0.3130(1) 0.3296(1) 0.4668(1)
N1 N 0.3021(1) 0.3463(1) 0.5663(1)
C8 C 0.3423(1) 0.2265(1) 0.6612(1)
C9 C 0.3209(1) 0.2845(1) 0.7527(1)
C10 C 0.3586(2) 0.1790(1) 0.8510(1)
C11 C 0.4156(2) 0.0148(1) 0.8596(1)
C12 C 0.4361(2) -0.0429(1) 0.7704(1)
C13 C 0.3999(1) 0.0622(1) 0.6706(1)
O1 O 0.3609(1) 0.1993(1) 0.4453(1)
O2 O 0.2000(1) 0.6628(1) 0.4885(1)
C14 C 0.1503(2) 0.8232(1) 0.5034(1)
O3 O 0.1295(1) 0.8696(1) 0.1149(1)
C15 C 0.0761(2) 1.0313(1) 0.1280(1)
N2 N 0.2395(1) 0.5475(1) 0.0900(1)
O4 O 0.1774(16) 0.6450(16) 0.0116(10)
O5? O 0.215(4) 0.659(2) 0.0103(9)
O6 O 0.3154(18) 0.4147(16) 0.0883(8)
O7? O 0.275(4) 0.4028(14) 0.0877(8)
O8 O 0.2621(1) 0.4468(1) 0.7342(1)
C16 C 0.2394(2) 0.5138(2) 0.8234(1)
H1 H 0.12580 0.87370 0.31090
H2 H 0.29960 0.35500 0.27130
H3 H 0.26590 0.44260 0.57230
H4 H 0.34600 0.21780 0.91070
H5 H 0.43990 -0.05640 0.92530
H6 H 0.47430 -0.15260 0.77690
H7 H 0.41430 0.02270 0.61130
H8 H 0.15280 0.81760 0.57690
H9 H 0.02660 0.85310 0.48210
H10 H 0.23820 0.90590 0.46130
H11 H 0.05160 1.10650 0.06070
H12 H 0.17600 1.07510 0.15600
H13 H -0.03470 1.01970 0.17630
H14 H 0.19810 0.62800 0.80050
H15 H 0.35700 0.50930 0.85350
H16 H 0.14790 0.44910 0.87570
#END
