
#######################################################################
#
#                 Cambridge Crystallographic Data Centre
#                                CCDC
#
#######################################################################
#
# If this CIF has been generated from an entry in the Cambridge
# Structural Database, then it will include bibliographic, chemical,
# crystal, experimental, refinement or atomic coordinate data resulting
# from the CCDC's data processing and validation procedures.
#
#######################################################################

data_CSD_CIF_QOCLUR
_audit_creation_date 2014-03-26
_audit_creation_method CSD-ConQuest-V1
_database_code_CSD QOCLUR
_database_code_depnum_ccdc_archive 'CCDC 992372'
_chemical_formula_sum 'C12 H13 N1 O3'
_chemical_formula_moiety
;
C12 H13 N1 O3
;
_journal_coeditor_code "IUCr sk3540"
_journal_coden_Cambridge 1777
_journal_volume 70
_journal_year 2014
_journal_page_first 408
_journal_name_full 'Acta Crystallogr.,Sect.C:Cryst.Struct.Chem. '
loop_
_publ_author_name
"S.A.Guerrero"
"C.M.Sanabria"
"A.Palma"
"J.Cobo"
"C.Glidewell"
_chemical_name_systematic
;
methyl 12-oxa-1-azatricyclo[7.2.1.0^2,7^]dodeca-2,4,6-triene-11-carboxylate
;
_cell_volume   1030.944
_exptl_crystal_colour 'colorless'
_exptl_crystal_density_diffrn 1.413
_exptl_crystal_description 'block'
_exptl_crystal_preparation 'heptane'
_diffrn_ambient_temperature 120
#These two values have been output from a single CSD field.
_refine_ls_R_factor_gt 0.0429
_refine_ls_wR_factor_gt 0.0429
_symmetry_cell_setting orthorhombic
_symmetry_space_group_name_H-M 'P 21 21 21'
_symmetry_Int_Tables_number 19
loop_
_symmetry_equiv_pos_site_id
_symmetry_equiv_pos_as_xyz
1 x,y,z
2 1/2-x,-y,1/2+z
3 1/2+x,1/2-y,-z
4 -x,1/2+y,1/2-z
_cell_length_a 6.8549(6)
_cell_length_b 11.4483(12)
_cell_length_c 13.1369(14)
_cell_angle_alpha 90
_cell_angle_beta 90
_cell_angle_gamma 90
_cell_formula_units_Z 4
loop_
_atom_type_symbol
_atom_type_radius_bond
C 0.68
H 0.23
N 0.68
O 0.68
loop_
_atom_site_label
_atom_site_type_symbol
_atom_site_fract_x
_atom_site_fract_y
_atom_site_fract_z
N1 N 0.5882(3) 0.53959(17) 0.62664(15)
C1 C 0.7808(4) 0.4788(2) 0.63363(18)
H1 H 0.80290 0.42830 0.57260
C2 C 0.7668(4) 0.4041(2) 0.73108(18)
H2 H 0.75480 0.32010 0.71440
H3 H 0.88240 0.41580 0.77510
C3 C 0.5806(4) 0.4499(2) 0.78270(18)
H4 H 0.60230 0.46080 0.85740
C4 C 0.4015(4) 0.3748(2) 0.76360(17)
H5 H 0.42940 0.29280 0.78280
H6 H 0.29150 0.40290 0.80590
C5 C 0.3467(4) 0.3809(2) 0.65235(18)
C6 C 0.2051(4) 0.3078(2) 0.61025(19)
H7 H 0.13660 0.25470 0.65280
C7 C 0.1629(4) 0.3117(2) 0.50650(19)
H8 H 0.06500 0.26230 0.47890
C8 C 0.2638(4) 0.3878(2) 0.44358(19)
H9 H 0.23740 0.38910 0.37260
C9 C 0.4031(4) 0.4619(2) 0.48420(18)
H10 H 0.47190 0.51440 0.44130
C10 C 0.4419(4) 0.4592(2) 0.58782(17)
O1 O 0.5459(3) 0.56224(15) 0.73310(12)
C11 C 0.9367(4) 0.5730(2) 0.64079(19)
O2 O 1.0154(3) 0.60550(17) 0.71760(13)
O3 O 0.9732(3) 0.61892(15) 0.54844(12)
C12 C 1.1153(4) 0.7122(2) 0.5470(2)
H11 H 1.06720 0.77800 0.58760
H12 H 1.13660 0.73780 0.47670
H13 H 1.23860 0.68410 0.57570
#END
