
#######################################################################
#
#                 Cambridge Crystallographic Data Centre
#                                CCDC
#
#######################################################################
#
# If this CIF has been generated from an entry in the Cambridge
# Structural Database, then it will include bibliographic, chemical,
# crystal, experimental, refinement or atomic coordinate data resulting
# from the CCDC's data processing and validation procedures.
#
#######################################################################

data_CSD_CIF_QOCNIF02
_audit_creation_date 2013-02-22
_audit_creation_method CSD-ConQuest-V1
_database_code_CSD QOCNIF02
_database_code_depnum_ccdc_archive 'CCDC 908836'
_chemical_formula_sum 'C36 H40 N8 O8'
_chemical_formula_moiety
;
C36 H40 N8 O8
;
_journal_coden_Cambridge 1336
_journal_volume 14
_journal_year 2012
_journal_page_first 4576
_journal_name_full 'Org.Lett. '
loop_
_publ_author_name
"Y.Habata"
"M.Ikeda"
"S.Yamada"
"H.Takahashi"
"S.Ueno"
"T.Suzuki"
"S.Kuwahara"
_chemical_name_systematic
;
1,4,7,10-tetrakis(4-nitrobenzyl)-1,4,7,10-tetraazacyclododecane
;
_cell_volume   1765.454
_exptl_crystal_colour 'yellow'
_exptl_crystal_density_diffrn 1.341
_exptl_special_details
;
P-1 polymorph

;
_exptl_crystal_description 'plate'
_diffrn_ambient_temperature 298
#These two values have been output from a single CSD field.
_refine_ls_R_factor_gt 0.0533
_refine_ls_wR_factor_gt 0.0533
_symmetry_cell_setting triclinic
_symmetry_space_group_name_H-M 'P -1'
_symmetry_Int_Tables_number 2
loop_
_symmetry_equiv_pos_site_id
_symmetry_equiv_pos_as_xyz
1 x,y,z
2 -x,-y,-z
_cell_length_a 11.0721(9)
_cell_length_b 13.0067(11)
_cell_length_c 14.5178(12)
_cell_angle_alpha 94.896(2)
_cell_angle_beta 110.327(2)
_cell_angle_gamma 111.728(2)
_cell_formula_units_Z 2
loop_
_atom_type_symbol
_atom_type_radius_bond
C 0.68
H 0.23
N 0.68
O 0.68
loop_
_atom_site_label
_atom_site_type_symbol
_atom_site_fract_x
_atom_site_fract_y
_atom_site_fract_z
N1 N 0.31544(14) 1.01231(11) 0.99119(10)
N2 N 0.44134(14) 0.82771(12) 1.07666(10)
C1 C 0.29979(17) 1.16312(14) 1.09956(12)
C2 C 0.43919(18) 1.23734(15) 1.12082(13)
H1 H 0.49290 1.21270 1.09540
C3 C 0.4200(2) 1.38187(16) 1.21805(13)
C4 C 0.18199(18) 0.40225(16) 0.97340(14)
C5 C 0.56492(18) 0.93911(15) 1.12579(13)
H2 H 0.59490 0.95260 1.19860
H3 H 0.53740 0.99870 1.10420
C6 C 0.22869(17) 1.04346(15) 1.03423(13)
H4 H 0.20160 0.99050 1.07440
H5 H 0.14190 1.03420 0.97910
C7 C 0.2249(2) 1.20109(16) 1.14244(14)
H6 H 0.13220 1.15170 1.13040
C8 C 0.26345(18) 0.88693(14) 0.96561(13)
H7 H 0.29840 0.86650 0.91750
H8 H 0.16020 0.85280 0.93200
C9 C 0.30583(18) 0.83514(15) 1.05385(14)
H9 H 0.31230 0.88060 1.11340
H10 H 0.23150 0.75910 1.03920
N3 N 0.09489(18) 0.28192(15) 0.91908(13)
C10 C 0.35449(19) 0.62533(16) 1.08222(14)
C11 C 0.49902(19) 1.34728(16) 1.17920(13)
H11 H 0.59180 1.39730 1.19200
C12 C 0.4529(2) 0.74688(16) 1.14036(14)
H12 H 0.43040 0.76500 1.19680
H13 H 0.55030 0.75520 1.16770
O1 O 0.13970(17) 0.23659(13) 0.86955(12)
C13 C 0.31068(18) 1.05458(15) 0.89994(13)
H14 H 0.31270 1.13000 0.91040
H15 H 0.22190 1.00440 0.84320
C14 C 0.2991(2) 0.46346(17) 0.95536(15)
H16 H 0.32020 0.43050 0.90710
C15 C 0.2842(2) 1.30996(17) 1.20223(14)
H17 H 0.23330 1.33400 1.23110
C16 C 0.2348(2) 0.56155(17) 1.09722(15)
H18 H 0.21280 0.59430 1.14500
N4 N 0.4830(2) 1.50082(17) 1.27671(14)
C17 C 0.3840(2) 0.57437(17) 1.01027(15)
H19 H 0.46360 0.61660 0.99890
C18 C 0.1472(2) 0.44983(17) 1.04228(15)
H20 H 0.06600 0.40770 1.05200
O2 O -0.01551(17) 0.23041(14) 0.92709(14)
O3 O 0.58951(19) 1.56954(14) 1.27131(14)
O4 O 0.4235(3) 1.52601(16) 1.32451(16)
N5 N 0.69471(15) 0.03847(12) 0.61164(10)
N6 N 0.59517(15) 0.20224(12) 0.48141(11)
C19 C 0.75030(18) 0.36008(15) 0.43124(13)
C20 C 0.88948(18) 0.42924(16) 0.30722(13)
C21 C 0.5800(2) 0.16977(16) 0.57279(13)
H21 H 0.49520 0.09890 0.55310
H22 H 0.56860 0.22830 0.61030
C22 C 0.7628(2) 0.28153(16) 0.36871(15)
H23 H 0.72420 0.20480 0.36900
C23 C 0.6094(2) -0.03893(16) 0.65640(14)
H24 H 0.53410 -0.01730 0.65550
H25 H 0.66990 -0.02780 0.72680
C24 C 0.7089(2) 0.15482(16) 0.64025(13)
H26 H 0.79350 0.20890 0.63560
H27 H 0.72070 0.17140 0.71010
C25 C 0.4577(2) 0.16467(16) 0.39503(14)
H28 H 0.47100 0.20870 0.34580
H29 H 0.39270 0.18060 0.41820
C26 C 0.87967(19) 0.50918(16) 0.36806(14)
H30 H 0.91990 0.58590 0.36820
N7 N 0.96224(19) 0.46554(18) 0.23985(14)
C27 C 0.9095(2) 0.08716(16) 0.57732(15)
C28 C 1.0380(2) 0.17262(17) 0.45129(16)
C29 C 0.8359(2) 0.03873(18) 0.64360(15)
H31 H 0.82590 -0.03880 0.64160
H32 H 0.89430 0.08350 0.71300
N8 N 1.1028(2) 0.22093(18) 0.38296(17)
C30 C 0.8315(2) 0.31550(17) 0.30614(15)
H33 H 0.83850 0.26220 0.26380
O5 O 1.01930(18) 0.56665(15) 0.24488(13)
C31 C 0.80881(19) 0.47383(15) 0.42942(14)
H34 H 0.80020 0.52750 0.47030
C32 C 1.0459(2) 0.17337(17) 0.61599(16)
H35 H 1.09480 0.20290 0.68580
C33 C 0.6794(2) 0.32515(15) 0.50266(14)
H36 H 0.75230 0.35130 0.57130
H37 H 0.61790 0.36320 0.49910
C34 C 0.9037(2) 0.08459(18) 0.40995(16)
H38 H 0.85680 0.05350 0.34030
C35 C 1.1115(2) 0.21697(17) 0.55374(17)
H39 H 1.20350 0.27510 0.58080
O6 O 1.04099(18) 0.17502(17) 0.29291(14)
C36 C 0.8400(2) 0.04338(18) 0.47288(15)
H40 H 0.74820 -0.01520 0.44520
O7 O 0.9594(2) 0.39245(17) 0.18089(17)
O8 O 1.2171(2) 0.30411(18) 0.42046(16)
N1A N 0.68456(14) 0.98769(11) 1.00881(10)
N2A N 0.55866(14) 1.17229(12) 0.92334(10)
C1A C 0.70021(17) 0.83688(14) 0.90044(12)
C2A C 0.56081(18) 0.76266(15) 0.87918(13)
H1A H 0.50710 0.78730 0.90460
C3A C 0.5800(2) 0.61813(16) 0.78195(13)
C4A C 0.81801(18) 1.59775(16) 1.02660(14)
C5A C 0.43508(18) 1.06089(15) 0.87421(13)
H2A H 0.40510 1.04740 0.80140
H3A H 0.46260 1.00130 0.89580
C6A C 0.77131(17) 0.95654(15) 0.96577(13)
H4A H 0.79840 1.00950 0.92560
H5A H 0.85810 0.96580 1.02090
C7A C 0.7751(2) 0.79891(16) 0.85756(14)
H6A H 0.86780 0.84830 0.86960
C8A C 0.73655(18) 1.11307(14) 1.03439(13)
H7A H 0.70160 1.13350 1.08250
H8A H 0.83980 1.14720 1.06800
C9A C 0.69417(18) 1.16486(15) 0.94615(14)
H9A H 0.68770 1.11940 0.88660
H10A H 0.76850 1.24090 0.96080
N3A N 0.90511(18) 1.71808(15) 1.08092(13)
C10A C 0.64551(19) 1.37467(16) 0.91778(14)
C11A C 0.50098(19) 0.65272(16) 0.82080(13)
H11A H 0.40820 0.60270 0.80800
C12A C 0.5471(2) 1.25312(16) 0.85964(14)
H12A H 0.56960 1.23500 0.80320
H13A H 0.44970 1.24480 0.83230
O1A O 0.86030(17) 1.76341(13) 1.13045(12)
C13A C 0.68932(18) 0.94542(15) 1.10006(13)
H14A H 0.68730 0.87000 1.08960
H15A H 0.77810 0.99560 1.15680
C14A C 0.7009(2) 1.53654(17) 1.04464(15)
H16A H 0.67980 1.56950 1.09290
C15A C 0.7158(2) 0.69004(17) 0.79777(14)
H17A H 0.76670 0.66600 0.76890
C16A C 0.7652(2) 1.43845(17) 0.90278(15)
H18A H 0.78720 1.40570 0.85500
N4A N 0.5170(2) 0.49918(17) 0.72329(14)
C17A C 0.6160(2) 1.42563(17) 0.98973(15)
H19A H 0.53640 1.38340 1.00110
C18A C 0.8528(2) 1.55017(17) 0.95772(15)
H20A H 0.93400 1.59230 0.94800
O2A O 1.01551(17) 1.76959(14) 1.07291(14)
O3A O 0.41049(19) 0.43046(14) 0.72869(14)
O4A O 0.5765(3) 0.47399(16) 0.67549(16)
N5A N 0.30529(15) -0.03847(12) 0.38836(10)
N6A N 0.40483(15) -0.20224(12) 0.51859(11)
C19A C 0.24970(18) -0.36008(15) 0.56876(13)
C20A C 0.11052(18) -0.42924(16) 0.69278(13)
C21A C 0.4200(2) -0.16977(16) 0.42721(13)
H21A H 0.50480 -0.09890 0.44690
H22A H 0.43140 -0.22830 0.38970
C22A C 0.2372(2) -0.28153(16) 0.63129(15)
H23A H 0.27580 -0.20480 0.63100
C23A C 0.3906(2) 0.03893(16) 0.34360(14)
H24A H 0.46590 0.01730 0.34450
H25A H 0.33010 0.02780 0.27320
C24A C 0.2911(2) -0.15482(16) 0.35975(13)
H26A H 0.20650 -0.20890 0.36440
H27A H 0.27930 -0.17140 0.28990
C25A C 0.5423(2) -0.16467(16) 0.60497(14)
H28A H 0.52900 -0.20870 0.65420
H29A H 0.60730 -0.18060 0.58180
C26A C 0.12033(19) -0.50918(16) 0.63194(14)
H30A H 0.08010 -0.58590 0.63180
N7A N 0.03776(19) -0.46554(18) 0.76015(14)
C27A C 0.0905(2) -0.08716(16) 0.42268(15)
C28A C -0.0380(2) -0.17262(17) 0.54871(16)
C29A C 0.1641(2) -0.03873(18) 0.35640(15)
H31A H 0.17410 0.03880 0.35840
H32A H 0.10570 -0.08350 0.28700
N8A N -0.1028(2) -0.22093(18) 0.61704(17)
C30A C 0.1685(2) -0.31550(17) 0.69386(15)
H33A H 0.16150 -0.26220 0.73620
O5A O -0.01930(18) -0.56665(15) 0.75512(13)
C31A C 0.19119(19) -0.47383(15) 0.57058(14)
H34A H 0.19980 -0.52750 0.52970
C32A C -0.0459(2) -0.17337(17) 0.38401(16)
H35A H -0.09480 -0.20290 0.31420
C33A C 0.3206(2) -0.32515(15) 0.49734(14)
H36A H 0.24770 -0.35130 0.42870
H37A H 0.38210 -0.36320 0.50090
C34A C 0.0963(2) -0.08459(18) 0.59005(16)
H38A H 0.14320 -0.05350 0.65970
C35A C -0.1115(2) -0.21697(17) 0.44626(17)
H39A H -0.20350 -0.27510 0.41920
O6A O -0.04099(18) -0.17502(17) 0.70709(14)
C36A C 0.1600(2) -0.04338(18) 0.52712(15)
H40A H 0.25180 0.01520 0.55480
O7A O 0.0406(2) -0.39245(17) 0.81911(17)
O8A O -0.2171(2) -0.30411(18) 0.57954(16)
#END
