
#######################################################################
#
#                 Cambridge Crystallographic Data Centre
#                                CCDC
#
#######################################################################
#
# If this CIF has been generated from an entry in the Cambridge
# Structural Database, then it will include bibliographic, chemical,
# crystal, experimental, refinement or atomic coordinate data resulting
# from the CCDC's data processing and validation procedures.
#
#######################################################################

data_CSD_CIF_QOCWUC
_audit_creation_date 2014-03-26
_audit_creation_method CSD-ConQuest-V1
_database_code_CSD QOCWUC
_database_code_depnum_ccdc_archive 'CCDC 972996'
_chemical_formula_sum 'C22 H17 N3 O3'
_chemical_formula_moiety
;
C22 H17 N3 O3
;
_journal_coden_Cambridge 1500
_journal_volume 4
_journal_year 2014
_journal_page_first 15441
_journal_name_full 'RSC Advances '
loop_
_publ_author_name
"S.Ray"
"A.Bhaumik"
"M.Pramanik"
"C.Mukhopadhyay"
_chemical_name_systematic
;
4,4-Dimethyl-2-(3-nitrophenyl)-4,5-dihydropyrrolo[2,3,4-kl]acridin-1(2H)-one
;
_cell_volume   1797.298
_exptl_crystal_density_diffrn 1.372
_diffrn_ambient_temperature 296
#These two values have been output from a single CSD field.
_refine_ls_R_factor_gt 0.0444
_refine_ls_wR_factor_gt 0.0444
_symmetry_cell_setting monoclinic
_symmetry_space_group_name_H-M 'P 21/c'
_symmetry_Int_Tables_number 14
loop_
_symmetry_equiv_pos_site_id
_symmetry_equiv_pos_as_xyz
1 x,y,z
2 -x,1/2+y,1/2-z
3 -x,-y,-z
4 x,-1/2-y,-1/2+z
_cell_length_a 10.7669(3)
_cell_length_b 9.7880(3)
_cell_length_c 17.8714(6)
_cell_angle_alpha 90
_cell_angle_beta 107.392(1)
_cell_angle_gamma 90
_cell_formula_units_Z 4
loop_
_atom_type_symbol
_atom_type_radius_bond
C 0.68
H 0.23
N 0.68
O 0.68
loop_
_atom_site_label
_atom_site_type_symbol
_atom_site_fract_x
_atom_site_fract_y
_atom_site_fract_z
O1 O 0.62166(16) 0.35658(16) 0.31267(10)
N1 N 1.10884(13) 0.24672(14) 0.01000(8)
O2 O 1.08955(13) 0.66050(13) 0.19314(8)
N2 N 0.91612(13) 0.50658(13) 0.15888(8)
O3 O 0.52583(17) 0.53804(18) 0.33342(11)
C1 C 0.88591(15) 0.38554(15) 0.11350(9)
C2 C 1.43096(18) 0.3982(2) 0.05115(12)
H1 H 1.50760 0.38120 0.03880
C3 C 1.32635(18) 0.31405(19) 0.02210(12)
H2 H 1.33210 0.24120 -0.01010
C4 C 1.20993(16) 0.33692(16) 0.04065(9)
C5 C 1.20463(15) 0.44990(16) 0.09056(9)
C6 C 1.08715(15) 0.46173(15) 0.11004(9)
C7 C 1.03864(16) 0.55843(15) 0.15910(9)
C8 C 0.83373(15) 0.57122(16) 0.19707(9)
C9 C 0.77005(15) 0.49441(16) 0.23964(9)
H3 H 0.78440 0.40100 0.24670
C10 C 0.68463(16) 0.56171(17) 0.27112(9)
N3 N 0.60564(15) 0.47978(17) 0.30894(9)
C11 C 0.66505(19) 0.70056(18) 0.26554(11)
H4 H 0.60800 0.74280 0.28840
C12 C 0.7323(2) 0.77523(19) 0.22509(12)
H5 H 0.72180 0.86950 0.22120
C13 C 0.81524(19) 0.71154(17) 0.19013(11)
H6 H 0.85870 0.76270 0.16190
C14 C 0.99337(15) 0.36631(15) 0.08255(9)
C15 C 1.00234(15) 0.26145(15) 0.03074(9)
C16 C 0.88150(16) 0.17715(16) -0.00104(10)
H7 H 0.90590 0.08730 -0.01480
H8 H 0.82710 0.21960 -0.04860
C17 C 0.80160(16) 0.16067(16) 0.05742(9)
C18 C 0.79182(16) 0.29227(16) 0.10088(10)
H9 H 0.72010 0.30750 0.11860
C19 C 0.66485(19) 0.1106(2) 0.01304(12)
H10 H 0.67070 0.02490 -0.01180
H11 H 0.62280 0.17660 -0.02610
H12 H 0.61510 0.09900 0.04910
C20 C 0.8697(2) 0.05540(19) 0.11904(12)
H13 H 0.82400 0.04730 0.15740
H14 H 0.95750 0.08420 0.14420
H15 H 0.87040 -0.03150 0.09420
C21 C 1.42485(18) 0.5095(2) 0.09906(11)
H16 H 1.49680 0.56620 0.11760
C22 C 1.31383(16) 0.53553(18) 0.11885(10)
H17 H 1.31050 0.60950 0.15090
#END
