
#######################################################################
#
#                 Cambridge Crystallographic Data Centre
#                                CCDC
#
#######################################################################
#
# If this CIF has been generated from an entry in the Cambridge
# Structural Database, then it will include bibliographic, chemical,
# crystal, experimental, refinement or atomic coordinate data resulting
# from the CCDC's data processing and validation procedures.
#
#######################################################################

data_CSD_CIF_QODFIZ
_audit_creation_date 2008-09-17
_audit_creation_method CSD-ConQuest-V1
_database_code_CSD QODFIZ
_database_code_depnum_ccdc_archive 'CCDC 619570'
_chemical_formula_sum 'C25 H17 N1 O6'
_chemical_formula_moiety
;
C25 H17 N1 O6
;
_journal_coden_Cambridge 206
_journal_volume 38
_journal_year 2008
_journal_page_first 583
_journal_name_full 'Synth.Commun. '
loop_
_publ_author_name
"Yongjia Shang"
"Lianbing Ren"
"Jianwei Wu"
_chemical_name_systematic
;
Methyl 4-[5-(1,3-benzodioxol-5-yl)-4-(phenylcarbonyl)isoxazol-3-yl]benzoate
;
_cell_volume   3979.177
_exptl_special_details
;
The structure contains 37% voids

;
_diffrn_ambient_temperature 293
#These two values have been output from a single CSD field.
_refine_ls_R_factor_gt 0.0453
_refine_ls_wR_factor_gt 0.0453
_symmetry_cell_setting monoclinic
_symmetry_space_group_name_H-M 'P 21/c'
_symmetry_Int_Tables_number 14
loop_
_symmetry_equiv_pos_site_id
_symmetry_equiv_pos_as_xyz
1 x,y,z
2 -x,1/2+y,1/2-z
3 -x,-y,-z
4 x,-1/2-y,-1/2+z
_cell_length_a 18.215(3)
_cell_length_b 13.248(2)
_cell_length_c 19.021(2)
_cell_angle_alpha 90
_cell_angle_beta 119.897(11)
_cell_angle_gamma 90
_cell_formula_units_Z 8
loop_
_atom_type_symbol
_atom_type_radius_bond
C 0.68
H 0.23
N 0.68
O 0.68
loop_
_atom_site_label
_atom_site_type_symbol
_atom_site_fract_x
_atom_site_fract_y
_atom_site_fract_z
C1 C 0.0617(9) 0.1094(12) 0.4236(8)
C2 C 0.1081(12) 0.0120(11) 0.4608(10)
N1 N 0.1214(15) -0.0051(11) 0.5286(9)
O1 O 0.0903(10) 0.0829(8) 0.5540(7)
C3 C 0.0549(11) 0.1520(11) 0.4856(9)
C4 C 0.0333(12) 0.1548(12) 0.3432(10)
C5 C 0.080(1) 0.2381(11) 0.3337(9)
C6 C 0.1487(10) 0.2793(11) 0.4043(12)
H1 H 0.16400 0.25500 0.45570
C7 C 0.1943(12) 0.3613(14) 0.3928(14)
H2 H 0.24400 0.38850 0.43470
C8 C 0.1528(15) 0.3989(14) 0.3054(14)
H3 H 0.17650 0.45540 0.29540
C9 C 0.0863(13) 0.3583(13) 0.2427(12)
H4 H 0.06350 0.38160 0.18980
C10 C 0.0544(17) 0.2777(13) 0.2643(15)
H5 H 0.00690 0.24750 0.22190
C11 C 0.1251(12) -0.0644(14) 0.4125(10)
C12 C 0.1430(14) -0.0425(11) 0.3552(12)
H6 H 0.13770 0.02460 0.33890
C13 C 0.1699(16) -0.1136(14) 0.3163(12)
H7 H 0.17500 -0.09860 0.27120
C14 C 0.1882(12) -0.2108(12) 0.3546(10)
C15 C 0.1734(15) -0.2388(13) 0.4238(16)
H8 H 0.18520 -0.30210 0.44820
C16 C 0.1405(14) -0.1602(13) 0.4465(10)
H9 H 0.12770 -0.17200 0.48740
C17 C 0.2141(14) -0.2904(14) 0.3131(12)
C18 C 0.2484(19) -0.338(2) 0.2079(13)
H10 H 0.24870 -0.29680 0.16630
H11 H 0.21400 -0.39630 0.18380
H12 H 0.30530 -0.35820 0.24590
C19 C 0.0196(9) 0.2424(12) 0.4999(9)
C20 C 0.0600(12) 0.2893(14) 0.5753(13)
H13 H 0.11150 0.26730 0.61790
C21 C 0.0164(14) 0.3720(11) 0.5814(11)
C22 C -0.0490(13) 0.4109(12) 0.5197(12)
C23 C -0.0874(12) 0.3659(12) 0.4433(10)
H14 H -0.13880 0.38920 0.40120
C24 C -0.0460(13) 0.2852(17) 0.4329(12)
H15 H -0.06240 0.26070 0.38140
C25 C -0.0365(13) 0.4912(13) 0.6259(10)
H16 H -0.07080 0.46220 0.64670
H17 H -0.02080 0.55940 0.64660
O2 O -0.0274(7) 0.1113(9) 0.2867(6)
O3 O 0.2428(10) -0.3761(10) 0.3578(12)
O4 O 0.2114(11) -0.2748(12) 0.2533(8)
O5 O 0.0419(7) 0.4274(8) 0.6505(6)
O6 O -0.0788(10) 0.4912(11) 0.5449(10)
#END
