
#######################################################################
#
#                 Cambridge Crystallographic Data Centre
#                                CCDC
#
#######################################################################
#
# If this CIF has been generated from an entry in the Cambridge
# Structural Database, then it will include bibliographic, chemical,
# crystal, experimental, refinement or atomic coordinate data resulting
# from the CCDC's data processing and validation procedures.
#
#######################################################################

data_CSD_CIF_QOFHUP
_audit_creation_date 2008-09-16
_audit_creation_method CSD-ConQuest-V1
_database_code_CSD QOFHUP
_database_code_depnum_ccdc_archive 'CCDC 700542'
_chemical_formula_sum 'C19 H27 N1 O1'
_chemical_formula_moiety
;
C19 H27 N1 O1
;
_journal_coeditor_code "IUCr BI2294"
_journal_coden_Cambridge 1370
_journal_volume 64
_journal_year 2008
_journal_page_first o1535
_journal_name_full 'Acta Crystallogr.,Sect.E:Struct.Rep.Online '
loop_
_publ_author_name
"D.Crimmins"
"Ka Wai Choi"
"P.D.W.Boyd"
"M.A.Brimble"
_chemical_name_systematic
;
(+-)-2'-Phenylhexahydro-2'H-spiro[cyclohexane-1,4'-isoxazolo[2,3-a]azepine]
;
_chemical_name_common
;
(+-)-2'-Phenylcyclohexanespiro-4'-(azepano(1,2-b)isoxazolidine); 
rac-8-Aza-14-phenylisoxazolo(2,3-g)spiro(5.6)dodecane; 
8-Aza-14-phenylisoxazolo[2,3-g]spiro[5.6]dodecane
;
_chemical_melting_point 338.8
_cell_volume   1612.342
_exptl_crystal_colour 'white'
_exptl_crystal_density_diffrn 1.176
_exptl_crystal_description 'needles'
_exptl_crystal_preparation 'diethyl ether'
_diffrn_ambient_temperature 85
#These two values have been output from a single CSD field.
_refine_ls_R_factor_gt 0.0839
_refine_ls_wR_factor_gt 0.0839
_symmetry_cell_setting triclinic
_symmetry_space_group_name_H-M 'P -1'
_symmetry_Int_Tables_number 2
loop_
_symmetry_equiv_pos_site_id
_symmetry_equiv_pos_as_xyz
1 x,y,z
2 -x,-y,-z
_cell_length_a 9.8516(1)
_cell_length_b 10.4560(1)
_cell_length_c 16.0957(1)
_cell_angle_alpha 101.058(1)
_cell_angle_beta 92.833(1)
_cell_angle_gamma 96.527(1)
_cell_formula_units_Z 4
loop_
_atom_type_symbol
_atom_type_radius_bond
C 0.68
H 0.23
N 0.68
O 0.68
loop_
_atom_site_label
_atom_site_type_symbol
_atom_site_fract_x
_atom_site_fract_y
_atom_site_fract_z
O1 O 0.6455(2) 0.6154(2) 0.33169(13)
N1 N 0.6590(3) 0.5526(3) 0.24237(15)
C1 C 0.8405(3) 0.4282(3) 0.17312(17)
C2 C 0.9653(3) 0.5340(3) 0.1897(2)
H1 H 0.93460 0.61890 0.18940
H2 H 1.00850 0.53680 0.24560
C3 C 1.0710(3) 0.5099(3) 0.1238(2)
H3 H 1.03130 0.51660 0.06870
H4 H 1.14960 0.57680 0.13900
C4 C 1.1179(3) 0.3742(3) 0.1186(2)
H5 H 1.16780 0.37140 0.17150
H6 H 1.17960 0.35920 0.07350
C5 C 0.9964(3) 0.2656(3) 0.1013(2)
H7 H 1.02880 0.18200 0.10330
H8 H 0.95420 0.26030 0.04480
C6 C 0.8892(3) 0.2914(3) 0.1667(2)
H9 H 0.92800 0.28420 0.22190
H10 H 0.81070 0.22450 0.15110
C7 C 0.7425(3) 0.4433(3) 0.24678(18)
H11 H 0.67980 0.36160 0.23970
C8 C 0.5176(3) 0.5018(3) 0.20965(18)
H12 H 0.45850 0.56900 0.22640
H13 H 0.48650 0.42670 0.23410
C9 C 0.5073(3) 0.4610(3) 0.11317(18)
H14 H 0.41570 0.41690 0.09490
H15 H 0.51860 0.53990 0.08960
C10 C 0.6094(3) 0.3717(3) 0.07546(19)
H16 H 0.58580 0.34370 0.01500
H17 H 0.60100 0.29390 0.10030
C11 C 0.7593(3) 0.4353(3) 0.08922(18)
H18 H 0.76090 0.52720 0.08610
H19 H 0.80800 0.39460 0.04230
C12 C 0.8092(3) 0.4744(3) 0.33864(19)
H20 H 0.76850 0.41390 0.37190
H21 H 0.90710 0.47050 0.33930
C13 C 0.7780(3) 0.6141(3) 0.37195(19)
H22 H 0.84520 0.67750 0.35350
C14 C 0.7717(3) 0.6482(3) 0.46735(19)
C15 C 0.8925(3) 0.6960(3) 0.51785(19)
H23 H 0.97480 0.70750 0.49260
C16 C 0.8910(3) 0.7266(3) 0.60540(19)
H24 H 0.97220 0.75780 0.63870
C17 C 0.7693(4) 0.7109(3) 0.6432(2)
H25 H 0.76830 0.73230 0.70200
C18 C 0.6486(4) 0.6633(4) 0.5938(2)
H26 H 0.56660 0.65290 0.61940
C19 C 0.6496(3) 0.6311(4) 0.5058(2)
H27 H 0.56850 0.59810 0.47280
O2 O 0.8141(2) 0.0639(2) 0.33601(12)
N2 N 0.7585(2) 0.0078(2) 0.24822(14)
C20 C 0.5197(3) -0.0548(3) 0.18622(17)
C21 C 0.4734(3) 0.0835(3) 0.20648(17)
H28 H 0.44260 0.09890 0.26340
H29 H 0.55120 0.14870 0.20510
C22 C 0.3578(3) 0.1009(3) 0.14386(18)
H30 H 0.33220 0.18880 0.15920
H31 H 0.38920 0.08980 0.08700
C23 C 0.2331(3) -0.0004(3) 0.1454(2)
H32 H 0.19800 0.01480 0.20120
H33 H 0.16140 0.00960 0.10450
C24 C 0.2713(3) -0.1402(3) 0.1242(2)
H34 H 0.29400 -0.15930 0.06550
H35 H 0.19300 -0.20190 0.13040
C25 C 0.3936(3) -0.1592(3) 0.18186(19)
H36 H 0.42050 -0.24540 0.16150
H37 H 0.36440 -0.15690 0.23870
C26 C 0.6255(3) -0.0735(3) 0.25610(17)
H38 H 0.64040 -0.16610 0.24610
C27 C 0.8619(3) -0.0742(3) 0.21325(19)
H39 H 0.85820 -0.15160 0.23840
H40 H 0.95250 -0.02530 0.22720
C28 C 0.8360(3) -0.1158(3) 0.11659(18)
H41 H 0.89630 -0.18050 0.09650
H42 H 0.86110 -0.03980 0.09160
C29 C 0.6885(3) -0.1737(3) 0.08409(18)
H43 H 0.66010 -0.24540 0.11220
H44 H 0.68630 -0.20950 0.02370
C30 C 0.5856(3) -0.0725(3) 0.09918(17)
H45 H 0.51240 -0.09760 0.05440
H46 H 0.63190 0.01210 0.09360
C31 C 0.5939(3) -0.0310(3) 0.34989(18)
H47 H 0.50040 -0.01090 0.35430
H48 H 0.60830 -0.09870 0.38180
C32 C 0.6976(4) 0.0927(4) 0.3809(2)
H49 H 0.66200 0.16890 0.36460
C33 C 0.7431(3) 0.1240(3) 0.47534(19)
C34 C 0.8144(4) 0.0435(4) 0.5145(2)
H50 H 0.83050 -0.03710 0.48320
C35 C 0.8617(4) 0.0779(4) 0.5967(3)
H51 H 0.91150 0.02220 0.62090
C36 C 0.8369(4) 0.1928(4) 0.6440(2)
H52 H 0.86910 0.21420 0.70090
C37 C 0.7657(4) 0.2789(4) 0.6110(2)
H53 H 0.74930 0.35750 0.64490
C38 C 0.7168(4) 0.2452(4) 0.5227(2)
H54 H 0.66930 0.30180 0.49790
#END
