
#######################################################################
#
#                 Cambridge Crystallographic Data Centre
#                                CCDC
#
#######################################################################
#
# If this CIF has been generated from an entry in the Cambridge
# Structural Database, then it will include bibliographic, chemical,
# crystal, experimental, refinement or atomic coordinate data resulting
# from the CCDC's data processing and validation procedures.
#
#######################################################################

data_CSD_CIF_QOFHEZ
_audit_creation_date 2008-09-17
_audit_creation_method CSD-ConQuest-V1
_database_code_CSD QOFHEZ
_database_code_depnum_ccdc_archive 'CCDC 700539'
_chemical_formula_sum 'C15 H13 N3 O2'
_chemical_formula_moiety
;
C15 H13 N3 O2
;
_journal_coeditor_code "IUCr HG2421"
_journal_coden_Cambridge 1370
_journal_volume 64
_journal_year 2008
_journal_page_first o1531
_journal_name_full 'Acta Crystallogr.,Sect.E:Struct.Rep.Online '
loop_
_publ_author_name
"Feng-Yu Bao"
_chemical_name_systematic
;
1-(4-Nitrophenyl)-2-(3-phenylallylidene)hydrazine
;
_cell_volume    683.117
_exptl_crystal_colour 'brown'
_exptl_crystal_density_diffrn 1.299
_exptl_crystal_description 'block'
_exptl_crystal_preparation 'dichloromethane'
_diffrn_ambient_temperature 296
#These two values have been output from a single CSD field.
_refine_ls_R_factor_gt 0.0387
_refine_ls_wR_factor_gt 0.0387
_symmetry_cell_setting monoclinic
_symmetry_space_group_name_H-M 'P c'
_symmetry_Int_Tables_number 7
loop_
_symmetry_equiv_pos_site_id
_symmetry_equiv_pos_as_xyz
1 x,y,z
2 x,-y,1/2+z
_cell_length_a 6.1011(3)
_cell_length_b 12.4505(6)
_cell_length_c 9.0076(4)
_cell_angle_alpha 90
_cell_angle_beta 93.273(3)
_cell_angle_gamma 90
_cell_formula_units_Z 2
loop_
_atom_type_symbol
_atom_type_radius_bond
C 0.68
H 0.23
N 0.68
O 0.68
loop_
_atom_site_label
_atom_site_type_symbol
_atom_site_fract_x
_atom_site_fract_y
_atom_site_fract_z
O1 O 1.0954(5) 0.9273(2) -0.0961(4)
O2 O 1.0374(5) 1.0780(3) 0.0100(3)
N1 N 0.9922(5) 0.9832(3) -0.0132(3)
N2 N 0.2734(4) 0.8124(2) 0.2572(3)
N3 N 0.1907(4) 0.7139(2) 0.2171(3)
C1 C 0.8094(5) 0.9377(3) 0.0590(4)
C2 C 0.7374(5) 0.8364(3) 0.0209(4)
H1 H 0.80960 0.79670 -0.04880
C3 C 0.5603(5) 0.7940(3) 0.0852(4)
H2 H 0.51160 0.72550 0.05850
C4 C 0.4516(5) 0.8519(3) 0.1903(4)
C5 C 0.5270(6) 0.9545(3) 0.2290(4)
H3 H 0.45670 0.99410 0.29980
C6 C 0.7040(5) 0.9972(3) 0.1631(4)
H4 H 0.75320 1.06590 0.18820
C7 C 0.0126(6) 0.6853(3) 0.2753(4)
H5 H -0.05110 0.73050 0.34290
C8 C -0.0884(6) 0.5852(3) 0.2375(4)
H6 H -0.01700 0.53930 0.17470
C9 C -0.2781(6) 0.5539(3) 0.2868(4)
H7 H -0.34430 0.60170 0.34970
C10 C -0.3973(6) 0.4540(3) 0.2553(4)
C11 C -0.3260(8) 0.3749(4) 0.1614(5)
H8 H -0.19190 0.38270 0.11840
C12 C -0.4506(11) 0.2854(4) 0.1313(6)
H9 H -0.40120 0.23380 0.06640
C13 C -0.6461(12) 0.2703(5) 0.1945(7)
H10 H -0.73000 0.20940 0.17240
C14 C -0.7170(8) 0.3456(5) 0.2905(7)
H11 H -0.84790 0.33460 0.33630
C15 C -0.5968(7) 0.4385(4) 0.3210(5)
H12 H -0.64880 0.49010 0.38490
H13 H 0.205(5) 0.852(2) 0.323(3)
#END
