
#######################################################################
#
#                 Cambridge Crystallographic Data Centre
#                                CCDC
#
#######################################################################
#
# If this CIF has been generated from an entry in the Cambridge
# Structural Database, then it will include bibliographic, chemical,
# crystal, experimental, refinement or atomic coordinate data resulting
# from the CCDC's data processing and validation procedures.
#
#######################################################################

data_CSD_CIF_QOFLON
_audit_creation_date 2008-09-17
_audit_creation_method CSD-ConQuest-V1
_database_code_CSD QOFLON
_database_code_depnum_ccdc_archive 'CCDC 700556'
_chemical_formula_sum 'C13 H18 N2 O4'
_chemical_formula_moiety
;
C13 H18 N2 O4
;
_journal_coeditor_code "IUCr AT2594"
_journal_coden_Cambridge 1370
_journal_volume 64
_journal_year 2008
_journal_page_first o1550
_journal_name_full 'Acta Crystallogr.,Sect.E:Struct.Rep.Online '
loop_
_publ_author_name
"S.M.M.Maidin"
"A.S.A.Rahim"
"H.Osman"
"R.Kia"
"H.-K.Fun"
_chemical_name_systematic
;
Ethyl 4-(t-butylamino)-3-nitrobenzoate
;
_cell_volume   2722.368
_exptl_crystal_colour 'yellow'
_exptl_crystal_density_diffrn 1.299
_exptl_crystal_description 'plate'
_exptl_crystal_preparation 'hexane'
_diffrn_ambient_temperature 100.00
#These two values have been output from a single CSD field.
_refine_ls_R_factor_gt 0.0465
_refine_ls_wR_factor_gt 0.0465
_symmetry_cell_setting monoclinic
_symmetry_space_group_name_H-M 'P 21/c'
_symmetry_Int_Tables_number 14
loop_
_symmetry_equiv_pos_site_id
_symmetry_equiv_pos_as_xyz
1 x,y,z
2 -x,1/2+y,1/2-z
3 -x,-y,-z
4 x,-1/2-y,-1/2+z
_cell_length_a 16.0471(5)
_cell_length_b 6.6417(2)
_cell_length_c 30.0180(9)
_cell_angle_alpha 90
_cell_angle_beta 121.688(2)
_cell_angle_gamma 90
_cell_formula_units_Z 8
loop_
_atom_type_symbol
_atom_type_radius_bond
C 0.68
H 0.23
N 0.68
O 0.68
loop_
_atom_site_label
_atom_site_type_symbol
_atom_site_fract_x
_atom_site_fract_y
_atom_site_fract_z
O1 O 1.01188(6) 0.50707(13) 0.90700(3)
O2 O 0.87073(6) 0.53054(14) 0.90534(3)
O3 O 0.57249(6) 0.54152(13) 0.73478(3)
O4 O 0.56803(6) 0.54680(13) 0.66152(3)
N1 N 0.61441(6) 0.54228(13) 0.71013(4)
N2 N 0.73120(6) 0.54415(13) 0.66080(3)
H1 H 0.66820 0.54970 0.64440
C1 C 0.76647(7) 0.53258(15) 0.79329(4)
H2 H 0.72810 0.53350 0.80890
C2 C 0.72036(7) 0.53705(15) 0.73898(4)
C3 C 0.77441(7) 0.53716(14) 0.71324(4)
C4 C 0.87825(7) 0.52932(15) 0.74731(4)
H3 H 0.91800 0.52710 0.73250
C5 C 0.92253(7) 0.52490(15) 0.80055(4)
H4 H 0.99200 0.52040 0.82170
C6 C 0.86747(7) 0.52682(15) 0.82473(4)
C7 C 0.91408(8) 0.52224(16) 0.88226(4)
C8 C 1.06291(8) 0.5008(2) 0.96363(4)
H5 H 1.04120 0.38280 0.97510
H6 H 1.04890 0.62420 0.97710
C9 C 1.17025(9) 0.4861(2) 0.98412(5)
H7 H 1.20690 0.48770 1.02250
H8 H 1.19040 0.60060 0.97130
H9 H 1.18370 0.36030 0.97200
C10 C 0.77667(8) 0.54745(16) 0.62878(4)
C11 C 0.83246(8) 0.35165(17) 0.63510(4)
H10 H 0.78770 0.23700 0.62540
H11 H 0.88610 0.33730 0.67160
H12 H 0.85930 0.35550 0.61240
C12 C 0.68959(9) 0.56150(19) 0.57218(4)
H13 H 0.64580 0.44650 0.56470
H14 H 0.71360 0.56000 0.54810
H15 H 0.65370 0.68690 0.56760
C13 C 0.84047(8) 0.73502(17) 0.64034(4)
H16 H 0.89270 0.73590 0.67740
H17 H 0.80000 0.85600 0.63240
H18 H 0.86950 0.73310 0.61860
O5 O 0.49200(5) 0.43211(13) 0.10402(3)
O6 O 0.63293(6) 0.45058(13) 0.10484(3)
O7 O 0.93204(6) 0.47400(13) 0.27341(3)
O8 O 0.93898(6) 0.47557(13) 0.34743(3)
N3 N 0.89147(6) 0.47252(13) 0.29872(4)
N4 N 0.77682(6) 0.47199(14) 0.34950(3)
H19 H 0.84070 0.47670 0.36710
C14 C 0.73817(7) 0.46115(15) 0.21633(4)
H20 H 0.77570 0.46080 0.20020
C15 C 0.78566(7) 0.46722(15) 0.27069(4)
C16 C 0.73273(7) 0.46737(15) 0.29702(4)
C17 C 0.62889(8) 0.46322(16) 0.26366(4)
H21 H 0.59000 0.46450 0.27900
C18 C 0.58317(7) 0.45740(15) 0.21029(4)
H22 H 0.51370 0.45450 0.18950
C19 C 0.63721(7) 0.45564(15) 0.18553(4)
C20 C 0.58976(8) 0.44669(16) 0.12800(4)
C21 C 0.43816(8) 0.4179(2) 0.04737(4)
H23 H 0.37510 0.34840 0.03500
H24 H 0.47620 0.33700 0.03650
C22 C 0.41883(9) 0.6226(2) 0.02271(5)
H25 H 0.38040 0.60890 -0.01550
H26 H 0.48120 0.68880 0.03350
H27 H 0.38220 0.70380 0.03400
C23 C 0.73206(8) 0.46992(16) 0.38189(4)
C24 C 0.67381(8) 0.27595(17) 0.37340(4)
H28 H 0.61890 0.26980 0.33700
H29 H 0.64870 0.27470 0.39690
H30 H 0.71660 0.15930 0.38090
C25 C 0.81999(9) 0.47351(19) 0.43837(4)
H31 H 0.85820 0.59640 0.44410
H32 H 0.86130 0.35550 0.44450
H33 H 0.79660 0.47100 0.46270
C26 C 0.66997(8) 0.65807(18) 0.37269(5)
H34 H 0.71080 0.77840 0.38060
H35 H 0.64330 0.65410 0.39550
H36 H 0.61600 0.66230 0.33600
#END
