
#######################################################################
#
#                 Cambridge Crystallographic Data Centre
#                                CCDC
#
#######################################################################
#
# If this CIF has been generated from an entry in the Cambridge
# Structural Database, then it will include bibliographic, chemical,
# crystal, experimental, refinement or atomic coordinate data resulting
# from the CCDC's data processing and validation procedures.
#
#######################################################################

data_CSD_CIF_QOFQIL
_audit_creation_date 2001-07-31
_audit_creation_method CSD-ConQuest-V1
_database_code_CSD QOFQIL
_database_code_depnum_ccdc_archive 'CCDC 149195 (not 149196 as published)'
_chemical_formula_sum 'C13 H19 N3 O2'
_chemical_formula_moiety
;
C13 H19 N3 O2
;
_journal_coden_Cambridge 1220
_journal_volume 7
_journal_year 2001
_journal_page_first 2007
_journal_name_full 'Chem.-Eur.J. '
loop_
_publ_author_name
"C.Hirel"
"K.E.Vostrikova"
"J.Pecaut"
"V.I.Ovcharenko"
"P.Rey"
_chemical_name_systematic
;
2-(4-Nitrophenyl)-4,4,5,5-tetramethylimidazoline
;
_chemical_melting_point 411.15
_cell_volume   1320.641
_exptl_crystal_colour 'colorless'
_exptl_crystal_density_diffrn 1.254
_exptl_special_details
;
Melting point range 411.15-412.15K

;
_exptl_crystal_preparation 'methanol'
_diffrn_ambient_temperature 223
#These two values have been output from a single CSD field.
_refine_ls_R_factor_gt 0.0404
_refine_ls_wR_factor_gt 0.0404
_symmetry_cell_setting monoclinic
_symmetry_space_group_name_H-M 'P 21/n'
_symmetry_Int_Tables_number 14
loop_
_symmetry_equiv_pos_site_id
_symmetry_equiv_pos_as_xyz
1 x,y,z
2 1/2+x,1/2-y,1/2+z
3 -x,-y,-z
4 -1/2-x,-1/2+y,-1/2-z
_cell_length_a 7.4931(6)
_cell_length_b 8.0383(7)
_cell_length_c 21.9386(18)
_cell_angle_alpha 90
_cell_angle_beta 91.943(2)
_cell_angle_gamma 90
_cell_formula_units_Z 4
loop_
_atom_type_symbol
_atom_type_radius_bond
C 0.68
H 0.23
N 0.68
O 0.68
loop_
_atom_site_label
_atom_site_type_symbol
_atom_site_fract_x
_atom_site_fract_y
_atom_site_fract_z
O1 O 0.26233(16) 0.58448(16) 0.40800(6)
O2 O 0.47151(18) 0.4857(2) 0.35370(6)
N1 N 1.00666(18) 0.73386(18) 0.60651(6)
H1 H 0.915(2) 0.673(2) 0.6169(7)
N2 N 0.8902(2) 1.00518(18) 0.59289(6)
H2 H 0.955(2) 1.089(2) 0.5800(9)
N3 N 0.4205(2) 0.56545(18) 0.39718(7)
C1 C 0.9492(2) 0.8555(2) 0.56051(7)
H3 H 1.054(2) 0.8870(17) 0.5354(7)
C2 C 1.0604(2) 0.8330(2) 0.66098(7)
C3 C 1.0586(4) 0.7242(3) 0.71736(10)
H4 H 1.086(2) 0.792(2) 0.7556(10)
H5 H 0.946(3) 0.670(3) 0.7223(9)
H6 H 1.151(3) 0.640(3) 0.7149(9)
C4 C 1.2508(3) 0.8950(3) 0.65167(11)
H7 H 1.296(2) 0.957(2) 0.6873(9)
H8 H 1.329(3) 0.798(3) 0.6426(9)
H9 H 1.260(2) 0.968(2) 0.6177(9)
C5 C 0.9220(2) 0.9777(2) 0.65945(7)
C6 C 0.7449(3) 0.9272(3) 0.68629(11)
H10 H 0.758(2) 0.916(2) 0.7292(10)
H11 H 0.658(3) 1.015(3) 0.6772(10)
H12 H 0.695(2) 0.820(2) 0.6676(8)
C7 C 0.9847(3) 1.1387(3) 0.68978(10)
H13 H 1.006(2) 1.115(2) 0.7338(9)
H14 H 0.890(3) 1.221(3) 0.6869(9)
H15 H 1.095(3) 1.182(2) 0.6704(8)
C8 C 0.8068(2) 0.78144(18) 0.51743(7)
C9 C 0.6275(2) 0.8211(2) 0.52187(8)
H16 H 0.592(2) 0.8946(19) 0.5503(7)
C10 C 0.5002(2) 0.7498(2) 0.48287(8)
H17 H 0.379(2) 0.773(2) 0.4858(8)
C11 C 0.5551(2) 0.6403(2) 0.43915(7)
C12 C 0.7322(2) 0.5970(2) 0.43332(8)
H18 H 0.769(2) 0.520(2) 0.4031(8)
C13 C 0.8570(2) 0.6690(2) 0.47311(7)
H19 H 0.977(2) 0.644(2) 0.4702(7)
#END
