
#######################################################################
#
#                 Cambridge Crystallographic Data Centre
#                                CCDC
#
#######################################################################
#
# If this CIF has been generated from an entry in the Cambridge
# Structural Database, then it will include bibliographic, chemical,
# crystal, experimental, refinement or atomic coordinate data resulting
# from the CCDC's data processing and validation procedures.
#
#######################################################################

data_CSD_CIF_QOFRAE
_audit_creation_date 2001-07-31
_audit_creation_method CSD-ConQuest-V1
_database_code_CSD QOFRAE
_database_code_depnum_ccdc_archive 'CCDC 152832'
_chemical_formula_sum 'C15 H21 N2 O2'
_chemical_formula_moiety
;
C15 H21 N2 O2
;
_journal_coden_Cambridge 1220
_journal_volume 7
_journal_year 2001
_journal_page_first 2007
_journal_name_full 'Chem.-Eur.J. '
loop_
_publ_author_name
"C.Hirel"
"K.E.Vostrikova"
"J.Pecaut"
"V.I.Ovcharenko"
"P.Rey"
_chemical_name_systematic
;
meso-4,5-Diethyl-4,5-dimethyl-2-phenyl-4,5-dihydro-1H-imidazolyl-1-oxy-3-oxide
;
_chemical_melting_point 343
_cell_volume   1426.559
_exptl_crystal_density_diffrn 1.217
_exptl_special_details
;
Melting point range 343-344K

;
_exptl_crystal_preparation 'petroleum ether'
_diffrn_ambient_temperature 298
#These two values have been output from a single CSD field.
_refine_ls_R_factor_gt 0.0493
_refine_ls_wR_factor_gt 0.0493
loop_
_citation_database_id_CSD
_citation_special_details
PATPAC "is a stereoisomer of this entry"
_symmetry_cell_setting monoclinic
_symmetry_space_group_name_H-M 'P 21/c'
_symmetry_Int_Tables_number 14
loop_
_symmetry_equiv_pos_site_id
_symmetry_equiv_pos_as_xyz
1 x,y,z
2 x,1/2-y,1/2+z
3 -x,-y,-z
4 -x,-1/2+y,-1/2-z
_cell_length_a 10.0602(15)
_cell_length_b 8.7612(13)
_cell_length_c 16.554(3)
_cell_angle_alpha 90
_cell_angle_beta 102.116(3)
_cell_angle_gamma 90
_cell_formula_units_Z 4
loop_
_atom_type_symbol
_atom_type_radius_bond
C 0.68
H 0.23
N 0.68
O 0.68
loop_
_atom_site_label
_atom_site_type_symbol
_atom_site_fract_x
_atom_site_fract_y
_atom_site_fract_z
O1 O 0.15417(14) 0.40313(13) 0.55848(7)
O2 O 0.27536(14) 0.76396(14) 0.38346(8)
N1 N 0.20509(13) 0.52347(14) 0.53227(8)
N2 N 0.25547(13) 0.69544(14) 0.44841(8)
C1 C 0.21388(16) 0.55068(17) 0.45355(10)
C2 C 0.27302(17) 0.64659(17) 0.5891(1)
C3 C 0.25950(16) 0.78133(17) 0.52768(10)
C4 C 0.2023(3) 0.6676(3) 0.66020(14)
H1 H 0.100(2) 0.688(2) 0.6435(12)
H2 H 0.234(2) 0.762(3) 0.6878(14)
H3 H 0.211(2) 0.575(3) 0.6928(14)
C5 C 0.4235(2) 0.5954(3) 0.61855(16)
H4 H 0.475(2) 0.550(2) 0.5773(13)
H5 H 0.4678(19) 0.676(2) 0.6585(13)
C6 C 0.4466(3) 0.4414(4) 0.6590(2)
H6 H 0.553(3) 0.431(3) 0.6700(18)
H7 H 0.381(5) 0.347(6) 0.622(3)
H8 H 0.368(8) 0.479(7) 0.702(4)
C7 C 0.1227(2) 0.8629(3) 0.51493(16)
H9 H 0.121(2) 0.930(2) 0.4696(14)
H10 H 0.116(2) 0.927(2) 0.5624(14)
H11 H 0.048(2) 0.785(2) 0.5050(11)
C8 C 0.3758(2) 0.8962(2) 0.53902(14)
H12 H 0.361(2) 0.961(2) 0.4853(14)
H13 H 0.4608(19) 0.8426(18) 0.5379(11)
C9 C 0.3868(4) 1.0020(4) 0.6122(2)
H14 H 0.463(3) 1.064(3) 0.6172(14)
H15 H 0.398(2) 0.945(3) 0.6629(15)
H16 H 0.307(3) 1.066(3) 0.6076(19)
C10 C 0.18712(16) 0.44108(18) 0.38552(10)
C11 C 0.1384(2) 0.4915(2) 0.30510(11)
H17 H 0.1199(19) 0.598(2) 0.2944(11)
C12 C 0.1173(2) 0.3892(3) 0.24056(13)
H18 H 0.078(2) 0.429(2) 0.1882(14)
C13 C 0.1460(2) 0.2380(3) 0.25469(14)
H19 H 0.133(2) 0.173(2) 0.2137(13)
C14 C 0.1932(2) 0.1864(3) 0.33417(14)
H20 H 0.2136(18) 0.086(2) 0.3443(11)
C15 C 0.21305(19) 0.2869(2) 0.39928(13)
H21 H 0.2458(18) 0.254(2) 0.4517(12)
#END
