
#######################################################################
#
#                 Cambridge Crystallographic Data Centre
#                                CCDC
#
#######################################################################
#
# If this CIF has been generated from an entry in the Cambridge
# Structural Database, then it will include bibliographic, chemical,
# crystal, experimental, refinement or atomic coordinate data resulting
# from the CCDC's data processing and validation procedures.
#
#######################################################################

data_CSD_CIF_QOGGIE
_audit_creation_date 2014-08-12
_audit_creation_method CSD-ConQuest-V1
_database_code_CSD QOGGIE
_database_code_depnum_ccdc_archive 'CCDC 918425'
_chemical_formula_sum 'C20 H20 N2 O3'
_chemical_formula_moiety
;
C20 H20 N2 O3
;
_journal_coden_Cambridge 1137
_journal_volume 26
_journal_year 2013
_journal_page_first 688
_journal_name_full 'J.Phys.Org.Chem. '
loop_
_publ_author_name
"N.Douglas"
"C.J.Neef"
"R.A.Rogers"
"J.A.Stanley"
"J.Armitage"
"B.Martin"
"T.W.Hudnall"
"W.J.Brittain"
_chemical_name_systematic
;
17-methyl-6-nitro-2-oxa-17-azapentacyclo[8.7.4.0^1,10^.0^3,8^.0^11,16^]henicos
a-3,5,7,11,13,15-hexaene
;
_cell_volume   6610.521
_exptl_crystal_colour 'yellow'
_exptl_crystal_density_diffrn 1.352
_exptl_crystal_description 'block'
_diffrn_ambient_temperature 223
#These two values have been output from a single CSD field.
_refine_ls_R_factor_gt 0.0764
_refine_ls_wR_factor_gt 0.0764
_symmetry_cell_setting monoclinic
_symmetry_space_group_name_H-M 'P 21/c'
_symmetry_Int_Tables_number 14
loop_
_symmetry_equiv_pos_site_id
_symmetry_equiv_pos_as_xyz
1 x,y,z
2 -x,1/2+y,1/2-z
3 -x,-y,-z
4 x,-1/2-y,-1/2+z
_cell_length_a 7.3822(5)
_cell_length_b 31.588(2)
_cell_length_c 28.355(2)
_cell_angle_alpha 90
_cell_angle_beta 91.241(6)
_cell_angle_gamma 90
_cell_formula_units_Z 16
loop_
_atom_type_symbol
_atom_type_radius_bond
C 0.68
H 0.23
N 0.68
O 0.68
loop_
_atom_site_label
_atom_site_type_symbol
_atom_site_fract_x
_atom_site_fract_y
_atom_site_fract_z
O1 O 0.1843(4) 0.37637(9) 0.39087(11)
O2 O -0.2812(6) 0.53723(11) 0.35385(16)
O3 O -0.1083(5) 0.54094(11) 0.29359(14)
N1 N -0.1583(6) 0.52359(12) 0.32977(17)
N2 N 0.2768(5) 0.31013(11) 0.36252(13)
C1 C 0.1645(6) 0.30577(14) 0.32229(16)
C2 C 0.1925(6) 0.33969(14) 0.29149(17)
C3 C 0.1059(6) 0.34092(16) 0.24810(17)
H1 H 0.12690 0.36290 0.22720
C4 C -0.0137(7) 0.30853(16) 0.23627(18)
H2 H -0.07390 0.30900 0.20710
C5 C -0.0445(7) 0.27575(16) 0.26696(19)
H3 H -0.12560 0.25440 0.25830
C6 C 0.0443(6) 0.27392(15) 0.31113(17)
H4 H 0.02270 0.25190 0.33210
C7 C 0.5020(6) 0.36224(14) 0.39484(16)
H5 H 0.49080 0.34900 0.42550
H6 H 0.51490 0.39250 0.39970
C8 C 0.6722(6) 0.34516(15) 0.37104(17)
H7 H 0.77850 0.35180 0.39030
H8 H 0.66400 0.31460 0.36820
C9 C 0.6902(6) 0.36483(15) 0.32233(17)
H9 H 0.70000 0.39540 0.32510
H10 H 0.79880 0.35430 0.30760
C10 C 0.5242(6) 0.35335(15) 0.29217(16)
H11 H 0.52170 0.32290 0.28790
H12 H 0.53600 0.36620 0.26130
C11 C 0.3323(6) 0.35382(14) 0.36576(16)
C12 C 0.3399(6) 0.36763(14) 0.31317(16)
C13 C 0.3160(6) 0.41455(14) 0.30669(16)
H13 H 0.42620 0.42870 0.31720
H14 H 0.29860 0.42050 0.27330
C14 C 0.1600(6) 0.43250(14) 0.33282(16)
C15 C 0.1089(6) 0.41281(14) 0.37431(16)
C16 C -0.0269(6) 0.42991(14) 0.40197(17)
H15 H -0.05720 0.41670 0.43000
C17 C -0.1166(6) 0.46619(14) 0.38803(16)
H16 H -0.20720 0.47780 0.40630
C18 C -0.0677(7) 0.48506(14) 0.34579(18)
C19 C 0.0684(6) 0.46859(14) 0.31898(17)
H17 H 0.09920 0.48200 0.29110
C20 C 0.2403(7) 0.28549(15) 0.40495(17)
H18 H 0.24740 0.25580 0.39780
H19 H 0.12120 0.29210 0.41580
H20 H 0.32840 0.29240 0.42910
O4 O 0.5401(4) 0.89843(10) 0.36328(11)
O5 O 1.1196(5) 1.02766(10) 0.43182(12)
O6 O 0.9119(5) 1.04315(10) 0.48125(13)
N3 N 0.9655(6) 1.02291(12) 0.44688(16)
N4 N 0.4680(5) 0.82918(12) 0.38720(13)
C21 C 0.6981(6) 0.78966(14) 0.43653(17)
H21 H 0.72400 0.76970 0.41360
C22 C 0.7796(6) 0.78784(15) 0.48120(18)
H22 H 0.86050 0.76600 0.48810
C23 C 0.7437(7) 0.81740(15) 0.51543(18)
H23 H 0.79850 0.81510 0.54520
C24 C 0.6262(6) 0.85057(15) 0.50571(17)
H24 H 0.60300 0.87090 0.52850
C25 C 0.5437(6) 0.85305(13) 0.46137(16)
C26 C 0.5777(6) 0.82214(13) 0.42747(16)
C27 C 0.4043(6) 0.87226(14) 0.38866(15)
C28 C 0.2290(6) 0.88048(15) 0.36059(17)
H25 H 0.24030 0.86890 0.32910
H26 H 0.21100 0.91080 0.35760
C29 C 0.0642(7) 0.86108(15) 0.38346(17)
H27 H 0.07610 0.83050 0.38420
H28 H -0.04420 0.86810 0.36510
C30 C 0.0477(6) 0.87798(14) 0.43341(17)
H29 H 0.03480 0.90850 0.43260
H30 H -0.05930 0.86620 0.44770
C31 C 0.2146(6) 0.86614(14) 0.46255(16)
H31 H 0.21920 0.83560 0.46540
H32 H 0.20240 0.87770 0.49400
C32 C 0.3959(6) 0.88170(13) 0.44239(15)
C33 C 0.4272(6) 0.92877(13) 0.45288(16)
H33 H 0.32140 0.94470 0.44240
H34 H 0.44150 0.93260 0.48670
C34 C 0.6332(6) 0.93027(14) 0.38486(16)
C35 C 0.5902(6) 0.94590(13) 0.42922(16)
C36 C 0.7755(6) 0.94758(14) 0.35945(17)
H35 H 0.79780 0.93800 0.32910
C37 C 0.8818(6) 0.97852(14) 0.37921(16)
H36 H 0.97680 0.99020 0.36260
C38 C 0.8454(6) 0.99207(13) 0.42439(17)
C39 C 0.7002(6) 0.97689(13) 0.44961(17)
H37 H 0.67690 0.98720 0.47960
C40 C 0.5127(7) 0.80879(16) 0.34297(17)
H38 H 0.41890 0.81440 0.31980
H39 H 0.52290 0.77880 0.34780
H40 H 0.62580 0.81970 0.33210
O7 O -0.0386(4) 0.12894(10) 0.12874(10)
O8 O -0.4646(6) -0.03272(12) 0.06865(17)
O9 O -0.3053(5) -0.02372(12) 0.00555(18)
N5 N -0.3517(6) -0.01339(14) 0.0457(2)
N6 N 0.0485(5) 0.19820(11) 0.11054(13)
C41 C -0.0488(6) 0.07964(14) 0.06329(17)
C42 C 0.1093(6) 0.10100(13) 0.04028(16)
H41 H 0.09470 0.09890 0.00630
H42 H 0.22030 0.08650 0.04940
C43 C -0.1075(6) 0.09388(14) 0.10671(17)
C44 C 0.1243(6) 0.14753(13) 0.05435(15)
C45 C 0.1099(6) 0.15474(14) 0.10829(16)
C46 C -0.0628(6) 0.20558(14) 0.07085(17)
C47 C -0.1894(7) 0.23793(14) 0.06321(18)
H43 H -0.21600 0.25720 0.08680
C48 C -0.2741(7) 0.24021(15) 0.01887(19)
H44 H -0.35810 0.26150 0.01260
C49 C -0.2346(7) 0.21107(15) -0.01581(18)
H45 H -0.29280 0.21310 -0.04510
C50 C -0.1106(6) 0.17900(14) -0.00776(16)
H46 H -0.08490 0.15960 -0.03140
C51 C 0.0034(7) 0.21690(15) 0.15609(17)
H47 H -0.11440 0.20740 0.16510
H48 H 0.00320 0.24720 0.15350
H49 H 0.09170 0.20840 0.17950
C52 C -0.2674(7) 0.02455(15) 0.0674(2)
C53 C -0.3261(7) 0.03770(15) 0.11053(19)
H50 H -0.41650 0.02310 0.12610
C54 C -0.2461(7) 0.07335(15) 0.13009(18)
H51 H -0.28500 0.08360 0.15890
C55 C -0.1309(6) 0.04436(14) 0.04334(18)
H52 H -0.09470 0.03420 0.01420
C56 C 0.3084(6) 0.16527(14) 0.03673(16)
H53 H 0.32440 0.15650 0.00430
H54 H 0.30410 0.19600 0.03720
C57 C 0.4704(6) 0.15048(15) 0.06633(17)
H55 H 0.58080 0.16240 0.05400
H56 H 0.47940 0.11990 0.06500
C58 C 0.4482(7) 0.16445(16) 0.11675(17)
H57 H 0.43940 0.19510 0.11800
H58 H 0.55340 0.15590 0.13550
C59 C 0.2780(7) 0.14479(15) 0.13710(17)
H59 H 0.29320 0.11430 0.13870
H60 H 0.26300 0.15510 0.16900
C60 C -0.0251(6) 0.17625(14) 0.03606(16)
O10 O 0.8184(6) 0.47214(12) 0.20623(14)
O11 O 0.6239(5) 0.47090(12) 0.26207(15)
O12 O 0.2685(5) 0.60391(10) 0.12658(11)
N7 N 0.6756(6) 0.48378(14) 0.22417(18)
N8 N 0.1908(5) 0.67508(12) 0.13884(14)
C61 C 0.4257(7) 0.72030(15) 0.1795(2)
H61 H 0.44730 0.73730 0.15340
C62 C 0.5144(7) 0.72742(16) 0.2233(2)
H62 H 0.59750 0.74940 0.22620
C63 C 0.4800(7) 0.70234(16) 0.26173(19)
H63 H 0.53870 0.70790 0.29040
C64 C 0.3583(6) 0.66866(15) 0.25835(17)
H64 H 0.33470 0.65190 0.28440
C65 C 0.2737(6) 0.66087(14) 0.21534(16)
C66 C 0.3055(6) 0.68704(15) 0.17718(17)
C67 C 0.3605(7) 0.57442(15) 0.15204(16)
C68 C 0.1260(6) 0.62970(14) 0.20201(15)
C69 C 0.1300(6) 0.63251(14) 0.14741(16)
C70 C 0.1558(6) 0.58441(14) 0.21987(16)
H65 H 0.17240 0.58490 0.25390
H66 H 0.04880 0.56770 0.21250
C71 C 0.3176(6) 0.56378(14) 0.19830(16)
C72 C 0.4212(7) 0.53394(14) 0.22191(17)
H67 H 0.39650 0.52670 0.25290
C73 C 0.5637(7) 0.51485(15) 0.19840(18)
C74 C 0.6027(6) 0.52410(14) 0.15232(17)
H68 H 0.69670 0.51040 0.13720
C75 C 0.4995(7) 0.55413(14) 0.12905(16)
H69 H 0.52320 0.56080 0.09780
C76 C 0.2331(7) 0.68922(17) 0.09153(17)
H70 H 0.35000 0.67870 0.08320
H71 H 0.23400 0.71960 0.09060
H72 H 0.14300 0.67870 0.06960
C77 C -0.0557(6) 0.64738(15) 0.22027(17)
H73 H -0.06610 0.63970 0.25320
H74 H -0.05230 0.67800 0.21850
C78 C -0.2241(7) 0.63176(15) 0.19344(17)
H75 H -0.33120 0.64500 0.20610
H76 H -0.23560 0.60140 0.19710
C79 C -0.2086(7) 0.64267(16) 0.14161(18)
H77 H -0.31720 0.63370 0.12460
H78 H -0.19680 0.67310 0.13790
C80 C -0.0440(7) 0.62066(15) 0.12152(17)
H79 H -0.06080 0.59030 0.12340
H80 H -0.03410 0.62810 0.08850
#END
