
#######################################################################
#
#                 Cambridge Crystallographic Data Centre
#                                CCDC
#
#######################################################################
#
# If this CIF has been generated from an entry in the Cambridge
# Structural Database, then it will include bibliographic, chemical,
# crystal, experimental, refinement or atomic coordinate data resulting
# from the CCDC's data processing and validation procedures.
#
#######################################################################

data_CSD_CIF_QOGGUQ
_audit_creation_date 2014-08-12
_audit_creation_method CSD-ConQuest-V1
_database_code_CSD QOGGUQ
_database_code_depnum_ccdc_archive 'CCDC 918011'
_chemical_formula_sum 'C18 H18 N2 O3'
_chemical_formula_moiety
;
C18 H18 N2 O3
;
_journal_coden_Cambridge 1137
_journal_volume 26
_journal_year 2013
_journal_page_first 688
_journal_name_full 'J.Phys.Org.Chem. '
loop_
_publ_author_name
"N.Douglas"
"C.J.Neef"
"R.A.Rogers"
"J.A.Stanley"
"J.Armitage"
"B.Martin"
"T.W.Hudnall"
"W.J.Brittain"
_chemical_name_systematic
;
5a,6,10b-trimethyl-2-nitro-5a,6,10b,11-tetrahydrochromeno[2,3-b]indole
;
_cell_volume   1577.513
_exptl_crystal_colour 'green'
_exptl_crystal_density_diffrn 1.307
_exptl_crystal_description 'needle'
_diffrn_ambient_temperature 298
#These two values have been output from a single CSD field.
_refine_ls_R_factor_gt 0.065
_refine_ls_wR_factor_gt 0.065
_symmetry_cell_setting monoclinic
_symmetry_space_group_name_H-M 'P 21/c'
_symmetry_Int_Tables_number 14
loop_
_symmetry_equiv_pos_site_id
_symmetry_equiv_pos_as_xyz
1 x,y,z
2 -x,1/2+y,1/2-z
3 -x,-y,-z
4 x,-1/2-y,-1/2+z
_cell_length_a 8.6657(17)
_cell_length_b 21.490(4)
_cell_length_c 8.4821(16)
_cell_angle_alpha 90
_cell_angle_beta 92.936(9)
_cell_angle_gamma 90
_cell_formula_units_Z 4
loop_
_atom_type_symbol
_atom_type_radius_bond
C 0.68
H 0.23
N 0.68
O 0.68
loop_
_atom_site_label
_atom_site_type_symbol
_atom_site_fract_x
_atom_site_fract_y
_atom_site_fract_z
O1 O 0.4075(2) 0.40520(8) 0.2326(3)
O2 O 0.4367(3) 0.1152(1) 0.2571(4)
O3 O 0.6261(3) 0.13488(11) 0.1111(4)
N1 N 0.1965(2) 0.45711(9) 0.1043(3)
N2 N 0.5196(3) 0.15202(12) 0.1912(4)
C1 C 0.4300(3) 0.34296(11) 0.2241(3)
C2 C 0.5555(3) 0.32225(13) 0.1447(4)
H1 H 0.61970 0.35080 0.09790
C3 C 0.5859(3) 0.25973(13) 0.1348(4)
H2 H 0.66990 0.24550 0.08110
C4 C 0.4895(3) 0.21841(11) 0.2059(3)
C5 C 0.3641(3) 0.23821(11) 0.2877(3)
H3 H 0.30070 0.20940 0.33440
C6 C 0.3338(3) 0.30126(11) 0.2993(3)
C7 C 0.2031(3) 0.32826(11) 0.3848(3)
H4 H 0.24090 0.34280 0.48790
H5 H 0.12610 0.29630 0.40000
C8 C 0.1291(3) 0.38242(11) 0.2918(3)
C9 C 0.2528(3) 0.43275(11) 0.2550(3)
C10 C 0.0693(3) 0.36518(10) 0.1278(3)
C11 C 0.1110(3) 0.41177(11) 0.0242(3)
C12 C 0.0635(3) 0.40908(13) -0.1346(3)
H6 H 0.09360 0.43940 -0.20500
C13 C -0.0302(3) 0.35994(15) -0.1853(3)
H7 H -0.06520 0.35810 -0.29070
C14 C -0.0726(3) 0.31373(13) -0.0833(3)
H8 H -0.13460 0.28100 -0.12020
C15 C -0.0224(3) 0.31622(12) 0.0749(3)
H9 H -0.05040 0.28520 0.14440
C16 C 0.2797(4) 0.50481(12) 0.0205(4)
H10 H 0.20700 0.53280 -0.03090
H11 H 0.34090 0.48550 -0.05700
H12 H 0.34590 0.52750 0.09420
C17 C 0.2865(5) 0.48245(14) 0.3785(4)
H13 H 0.30230 0.46330 0.48030
H14 H 0.20080 0.51070 0.38000
H15 H 0.37790 0.50490 0.35340
C18 C -0.0027(4) 0.41076(14) 0.3819(3)
H16 H -0.03950 0.44770 0.32890
H17 H 0.03440 0.42110 0.48730
H18 H -0.08550 0.38120 0.38610
#END
