
#######################################################################
#
#                 Cambridge Crystallographic Data Centre
#                                CCDC
#
#######################################################################
#
# If this CIF has been generated from an entry in the Cambridge
# Structural Database, then it will include bibliographic, chemical,
# crystal, experimental, refinement or atomic coordinate data resulting
# from the CCDC's data processing and validation procedures.
#
#######################################################################

data_CSD_CIF_QOGHAX
_audit_creation_date 2014-08-12
_audit_creation_method CSD-ConQuest-V1
_database_code_CSD QOGHAX
_database_code_depnum_ccdc_archive 'CCDC 917881'
_chemical_formula_sum 'C23 H20 N2 O3'
_chemical_formula_moiety
;
C23 H20 N2 O3
;
_journal_coden_Cambridge 1137
_journal_volume 26
_journal_year 2013
_journal_page_first 688
_journal_name_full 'J.Phys.Org.Chem. '
loop_
_publ_author_name
"N.Douglas"
"C.J.Neef"
"R.A.Rogers"
"J.A.Stanley"
"J.Armitage"
"B.Martin"
"T.W.Hudnall"
"W.J.Brittain"
_chemical_name_systematic
;
6,10b-dimethyl-2-nitro-5a-phenyl-5a,6,10b,11-tetrahydrochromeno[2,3-b]indole
;
_cell_volume   5789.285
_exptl_crystal_colour 'yellow'
_exptl_crystal_density_diffrn 1.282
_exptl_crystal_description 'Plate'
_diffrn_ambient_temperature 223
#These two values have been output from a single CSD field.
_refine_ls_R_factor_gt 0.0584
_refine_ls_wR_factor_gt 0.0584
_symmetry_cell_setting orthorhombic
_symmetry_space_group_name_H-M 'P 21 21 21'
_symmetry_Int_Tables_number 19
loop_
_symmetry_equiv_pos_site_id
_symmetry_equiv_pos_as_xyz
1 x,y,z
2 1/2-x,-y,1/2+z
3 1/2+x,1/2-y,-z
4 -x,1/2+y,1/2-z
_cell_length_a 9.3821(6)
_cell_length_b 12.5311(8)
_cell_length_c 49.242(4)
_cell_angle_alpha 90
_cell_angle_beta 90
_cell_angle_gamma 90
_cell_formula_units_Z 12
loop_
_atom_type_symbol
_atom_type_radius_bond
C 0.68
H 0.23
N 0.68
O 0.68
loop_
_atom_site_label
_atom_site_type_symbol
_atom_site_fract_x
_atom_site_fract_y
_atom_site_fract_z
O1 O 1.0024(4) -0.2127(4) 0.44064(8)
N1 N 0.8075(6) -0.1259(4) 0.46146(10)
C1 C 0.7315(7) -0.0820(5) 0.43994(14)
N2 N 1.1178(9) -0.2594(6) 0.33062(15)
C2 C 0.6919(8) 0.0235(6) 0.43557(15)
H1 H 0.71840 0.07710 0.44760
O2 O 1.2217(7) -0.2114(5) 0.32166(11)
O3 O 1.0367(8) -0.3154(6) 0.31743(12)
C3 C 0.6115(8) 0.0459(6) 0.41269(17)
H2 H 0.58440 0.11610 0.40940
C4 C 0.5711(8) -0.0311(7) 0.39491(16)
H3 H 0.51640 -0.01330 0.37980
C5 C 0.6115(7) -0.1372(6) 0.39926(14)
H4 H 0.58440 -0.19020 0.38710
C6 C 0.6918(6) -0.1620(5) 0.42173(12)
C7 C 0.7464(7) -0.2689(5) 0.43256(12)
C8 C 0.8589(7) -0.2295(5) 0.45357(12)
C9 C 0.6201(7) -0.3256(5) 0.44677(13)
H5 H 0.55270 -0.34890 0.43340
H6 H 0.57450 -0.27680 0.45900
H7 H 0.65480 -0.38610 0.45670
C10 C 0.8986(8) -0.0564(6) 0.47845(14)
H8 H 0.84980 0.00950 0.48200
H9 H 0.98620 -0.04190 0.46910
H10 H 0.91900 -0.09160 0.49530
C11 C 1.0208(7) -0.2224(5) 0.41352(14)
C12 C 1.1398(7) -0.1699(5) 0.40264(14)
H11 H 1.19730 -0.12760 0.41360
C13 C 1.1704(8) -0.1822(6) 0.37540(15)
H12 H 1.24890 -0.14820 0.36780
C14 C 1.0840(9) -0.2446(6) 0.35989(14)
C15 C 0.9645(7) -0.2964(5) 0.37021(13)
H13 H 0.90570 -0.33680 0.35900
C16 C 0.9353(7) -0.2858(5) 0.39779(13)
C17 C 0.8118(7) -0.3411(5) 0.41114(12)
H14 H 0.84410 -0.40680 0.41950
H15 H 0.74060 -0.35890 0.39760
C18 C 0.8873(8) -0.3041(6) 0.47690(14)
C19 C 0.9807(9) -0.3886(6) 0.47405(16)
H16 H 1.03490 -0.39590 0.45840
C20 C 0.9924(10) -0.4633(7) 0.4952(2)
H17 H 1.05340 -0.52150 0.49350
C21 C 0.9133(11) -0.4497(9) 0.5184(2)
H18 H 0.92360 -0.49840 0.53250
C22 C 0.8206(10) -0.3674(8) 0.52131(18)
H19 H 0.76740 -0.36070 0.53720
C23 C 0.8051(8) -0.2927(6) 0.50046(15)
H20 H 0.74130 -0.23630 0.50220
N3 N 1.1048(6) 0.3416(4) 0.36794(10)
O4 O 0.8894(4) 0.2720(4) 0.38630(8)
N4 N 0.6914(10) 0.3395(6) 0.49060(17)
O5 O 0.7561(9) 0.2972(6) 0.50915(13)
O6 O 0.5849(8) 0.3951(6) 0.49318(14)
C24 C 1.1690(7) 0.3990(5) 0.38878(14)
C25 C 1.2133(8) 0.5033(6) 0.38903(16)
H21 H 1.19950 0.54700 0.37400
C26 C 1.2793(8) 0.5419(6) 0.41227(18)
H22 H 1.31080 0.61230 0.41270
C27 C 1.2991(8) 0.4786(7) 0.43466(17)
H23 H 1.34250 0.50630 0.45010
C28 C 1.2536(7) 0.3719(6) 0.43428(15)
H24 H 1.26740 0.32850 0.44940
C29 C 1.1882(7) 0.3323(5) 0.41131(14)
C30 C 1.1327(6) 0.2221(5) 0.40498(12)
C31 C 1.0426(6) 0.2454(5) 0.37893(12)
C32 C 1.2581(7) 0.1472(5) 0.39795(13)
H25 H 1.31290 0.13330 0.41400
H26 H 1.31780 0.18060 0.38460
H27 H 1.22180 0.08130 0.39090
C33 C 1.0290(8) 0.3984(5) 0.34628(14)
H28 H 1.08260 0.46030 0.34110
H29 H 0.93680 0.41990 0.35270
H30 H 1.01800 0.35210 0.33090
C34 C 0.8515(7) 0.2922(5) 0.41238(13)
C35 C 0.7321(7) 0.3572(5) 0.41555(14)
H31 H 0.68960 0.38960 0.40060
C36 C 0.6784(8) 0.3724(5) 0.44124(16)
H32 H 0.59720 0.41350 0.44410
C37 C 0.7483(8) 0.3251(6) 0.46235(14)
C38 C 0.8703(8) 0.2621(5) 0.46001(13)
H33 H 0.91610 0.23410 0.47520
C39 C 0.9197(7) 0.2434(4) 0.43393(12)
C40 C 1.0441(6) 0.1728(5) 0.42769(12)
H34 H 1.01040 0.10290 0.42220
H35 H 1.10240 0.16420 0.44380
C41 C 1.0265(7) 0.1571(5) 0.35868(13)
C42 C 0.9241(7) 0.0785(5) 0.36137(14)
H36 H 0.86130 0.08000 0.37600
C43 C 0.9151(8) -0.0030(6) 0.34218(16)
H37 H 0.84600 -0.05560 0.34410
C44 C 1.0071(9) -0.0064(6) 0.32047(16)
H38 H 0.99780 -0.05950 0.30740
C45 C 1.1124(8) 0.0686(6) 0.31814(14)
H39 H 1.17720 0.06430 0.30390
C46 C 1.1236(7) 0.1508(5) 0.33681(13)
H40 H 1.19480 0.20190 0.33490
N5 N 0.6075(6) 0.0048(4) 0.29591(10)
N6 N 0.3849(8) 0.0800(5) 0.15681(12)
O7 O 0.4262(4) 0.0842(3) 0.26929(8)
O8 O 0.4736(7) 0.1317(5) 0.14408(10)
O9 O 0.2916(6) 0.0252(4) 0.14655(10)
C47 C 0.7003(7) -0.0432(5) 0.27733(13)
C48 C 0.7471(8) -0.1484(5) 0.27689(14)
H41 H 0.71320 -0.19830 0.28930
C49 C 0.8472(8) -0.1763(6) 0.25708(15)
H42 H 0.88050 -0.24620 0.25630
C50 C 0.8973(8) -0.1024(6) 0.23873(15)
H43 H 0.96370 -0.12300 0.22570
C51 C 0.8500(7) 0.0028(6) 0.23940(13)
H44 H 0.88440 0.05270 0.22710
C52 C 0.7501(6) 0.0317(5) 0.25889(12)
C53 C 0.6877(6) 0.1394(5) 0.26579(12)
C54 C 0.5605(7) 0.1058(5) 0.28474(12)
C55 C 0.7990(7) 0.2064(5) 0.28136(13)
H45 H 0.87520 0.22560 0.26930
H46 H 0.83630 0.16530 0.29620
H47 H 0.75470 0.26990 0.28820
C56 C 0.5047(8) -0.0606(5) 0.31139(13)
H48 H 0.55060 -0.12470 0.31750
H49 H 0.42550 -0.07860 0.29990
H50 H 0.47130 -0.02090 0.32680
C57 C 0.4232(7) 0.0839(5) 0.24142(12)
C58 C 0.3094(7) 0.0278(5) 0.22992(13)
H51 H 0.24360 -0.00800 0.24070
C59 C 0.2984(7) 0.0274(5) 0.20180(13)
H52 H 0.22530 -0.00990 0.19330
C60 C 0.3970(8) 0.0831(5) 0.18670(13)
C61 C 0.5088(7) 0.1386(5) 0.19814(12)
H53 H 0.57520 0.17350 0.18730
C62 C 0.5200(7) 0.1412(4) 0.22633(12)
C63 C 0.6346(6) 0.2016(4) 0.24110(11)
H54 H 0.59740 0.27010 0.24700
H55 H 0.71370 0.21480 0.22890
C64 C 0.5184(7) 0.1867(5) 0.30558(12)
C65 C 0.4300(7) 0.2711(5) 0.29896(14)
H56 H 0.39020 0.27530 0.28170
C66 C 0.4003(8) 0.3502(6) 0.31819(17)
H57 H 0.33990 0.40660 0.31380
C67 C 0.4607(9) 0.3442(6) 0.34350(18)
H58 H 0.44070 0.39700 0.35620
C68 C 0.5495(8) 0.2624(6) 0.35044(15)
H59 H 0.58970 0.25980 0.36770
C69 C 0.5795(7) 0.1828(5) 0.33147(13)
H60 H 0.64030 0.12700 0.33600
#END
