
#######################################################################
#
#                 Cambridge Crystallographic Data Centre
#                                CCDC
#
#######################################################################
#
# If this CIF has been generated from an entry in the Cambridge
# Structural Database, then it will include bibliographic, chemical,
# crystal, experimental, refinement or atomic coordinate data resulting
# from the CCDC's data processing and validation procedures.
#
#######################################################################

data_CSD_CIF_QOGPUZ
_audit_creation_date 2014-08-13
_audit_creation_method CSD-ConQuest-V1
_database_code_CSD QOGPUZ
_database_code_depnum_ccdc_archive 'CCDC 994069'
_chemical_formula_sum 'C18 H30 N2 O2'
_chemical_formula_moiety
;
C18 H30 N2 O2
;
_journal_coden_Cambridge 1291
_journal_year 2014
_journal_page_first 6017
_journal_name_full 'Eur.J.Org.Chem. '
loop_
_publ_author_name
"Heithem Abda"
"K.Aouadi"
"L.Perrin"
"M.Msaddek"
"J.-P.Praly"
"S.Vidal"
_chemical_name_systematic
;
2-isopropyl-2',5-dimethylhexahydrospiro[cyclohexane-1,3'-cyclopenta[d]imidazo[
1,5-b][1,2]oxazol]-1'(2'H)-one
;
_cell_volume   1690.007
_exptl_crystal_colour 'colorless'
_exptl_crystal_density_diffrn 1.204
_exptl_special_details
;
Absolute configuration

;
_exptl_crystal_description 'block'
_diffrn_ambient_temperature 100
_refine_special_details
;
C11 and C10 disordered over two sites with occupancies 0.5647:0.4353.

;
#These two values have been output from a single CSD field.
_refine_ls_R_factor_gt 0.0582
_refine_ls_wR_factor_gt 0.0582
_symmetry_cell_setting monoclinic
_symmetry_space_group_name_H-M 'C 2'
_symmetry_Int_Tables_number 5
loop_
_symmetry_equiv_pos_site_id
_symmetry_equiv_pos_as_xyz
1 x,y,z
2 1/2+x,1/2+y,z
3 -x,y,-z
4 1/2-x,1/2+y,-z
_cell_length_a 17.805(1)
_cell_length_b 8.2008(4)
_cell_length_c 11.6483(7)
_cell_angle_alpha 90
_cell_angle_beta 96.467(6)
_cell_angle_gamma 90
_cell_formula_units_Z 4
loop_
_atom_type_symbol
_atom_type_radius_bond
C 0.68
H 0.23
N 0.68
O 0.68
loop_
_atom_site_label
_atom_site_type_symbol
_atom_site_fract_x
_atom_site_fract_y
_atom_site_fract_z
O1 O 0.26145(11) 0.3433(3) 0.73398(15)
N1 N 0.28467(12) 0.1685(3) 0.74486(18)
C1 C 0.36672(14) 0.1726(4) 0.7911(2)
N2 N 0.40546(12) 0.1973(3) 0.68677(18)
C2 C 0.36053(15) 0.1731(3) 0.5878(2)
C3 C 0.28325(16) 0.1248(3) 0.6200(2)
C4 C 0.21704(17) 0.2170(4) 0.5562(3)
C5 C 0.19909(15) 0.3464(4) 0.6455(2)
C6 C 0.12392(17) 0.2950(4) 0.6849(3)
C7 C 0.1093(3) 0.1191(4) 0.6389(4)
C8 C 0.14508(19) 0.1214(4) 0.5239(3)
O2 O 0.37803(12) 0.1823(3) 0.48896(17)
C9 C 0.48594(15) 0.2302(4) 0.6878(2)
C10 C 0.39010(15) 0.0101(3) 0.8532(2)
C11 C 0.35177(16) -0.0068(3) 0.9644(2)
C12 C 0.36882(15) 0.1348(3) 1.0453(2)
C13 C 0.34633(14) 0.2976(4) 0.9873(2)
C14 C 0.38488(15) 0.3123(3) 0.8759(2)
C15 C 0.36728(17) 0.4437(4) 1.0664(3)
C16 C 0.38399(15) -0.1467(4) 0.7786(2)
C17 C 0.30823(15) -0.2376(3) 0.7758(2)
C18 C 0.44875(16) -0.2639(4) 0.8204(3)
H1 H 0.27700 0.00440 0.61240
H2 H 0.23320 0.26740 0.48480
H3 H 0.19600 0.45750 0.61430
H4 H 0.13790 0.03780 0.68720
H5 H 0.05590 0.09330 0.62240
H6 H 0.50040 0.22560 0.61000
H7 H 0.49840 0.33520 0.72040
H8 H 0.51460 0.14800 0.73340
H9 H 0.44410 0.02480 0.87780
H10 H 0.36810 -0.10720 1.00390
H11 H 0.29730 -0.01120 0.94590
H12 H 0.42240 0.13850 1.06960
H13 H 0.34120 0.12000 1.11390
H14 H 0.29120 0.29700 0.96630
H15 H 0.43970 0.31030 0.89870
H16 H 0.37320 0.41660 0.83600
H17 H 0.34670 0.54240 1.02990
H18 H 0.42120 0.45590 1.08160
H19 H 0.34730 0.43500 1.13930
H20 H 0.39140 -0.11620 0.69870
H21 H 0.30370 -0.32450 0.72150
H22 H 0.30350 -0.28650 0.84970
H23 H 0.26550 -0.16390 0.76080
H24 H 0.44560 -0.36010 0.77260
H25 H 0.44430 -0.29310 0.89990
H26 H 0.49540 -0.20790 0.81350
H27 H 0.12620 0.29780 0.76950
H28 H 0.08360 0.36720 0.64820
H29 H 0.15520 0.00960 0.49680
H30 H 0.11170 0.17870 0.46260
C19? C 0.0809(2) 0.2120(8) 0.5775(5)
H31? H 0.04210 0.13930 0.59650
H32? H 0.05950 0.29710 0.52520
H33? H 0.13200 0.21910 0.74940
H34? H 0.09630 0.39060 0.71010
H35? H 0.14950 0.01720 0.56370
H36? H 0.13390 0.10570 0.43940
#END
