
#######################################################################
#
#                 Cambridge Crystallographic Data Centre
#                                CCDC
#
#######################################################################
#
# If this CIF has been generated from an entry in the Cambridge
# Structural Database, then it will include bibliographic, chemical,
# crystal, experimental, refinement or atomic coordinate data resulting
# from the CCDC's data processing and validation procedures.
#
#######################################################################

data_CSD_CIF_QOGQIO
_audit_creation_date 2014-08-13
_audit_creation_method CSD-ConQuest-V1
_database_code_CSD QOGQIO
_database_code_depnum_ccdc_archive 'CCDC 994071'
_chemical_formula_sum 'C19 H30 N2 O3'
_chemical_formula_moiety
;
C19 H30 N2 O3
;
_journal_coden_Cambridge 1291
_journal_year 2014
_journal_page_first 6017
_journal_name_full 'Eur.J.Org.Chem. '
loop_
_publ_author_name
"Heithem Abda"
"K.Aouadi"
"L.Perrin"
"M.Msaddek"
"J.-P.Praly"
"S.Vidal"
_chemical_name_systematic
;
(2'S,3S,5aR,5'R,9aR,9bS)-2'-Isopropyl-2,5'-dimethylhexahydro-2H-spiro[benzo[d]
imidazo[1,5-b]isoxazole-3,1'-cyclohexane]-1,9-dione
;
_chemical_melting_point 480.15
_cell_volume   1831.752
_exptl_crystal_colour 'colorless'
_exptl_crystal_density_diffrn 1.213
_exptl_special_details
;
Melting point range 480.15-481.15K
Absolute configuration

;
_exptl_crystal_description 'plate'
_diffrn_ambient_temperature 100
#These two values have been output from a single CSD field.
_refine_ls_R_factor_gt 0.031
_refine_ls_wR_factor_gt 0.031
_symmetry_cell_setting orthorhombic
_symmetry_space_group_name_H-M 'P 21 21 21'
_symmetry_Int_Tables_number 19
loop_
_symmetry_equiv_pos_site_id
_symmetry_equiv_pos_as_xyz
1 x,y,z
2 1/2-x,-y,1/2+z
3 1/2+x,1/2-y,-z
4 -x,1/2+y,1/2-z
_cell_length_a 8.5646(7)
_cell_length_b 12.0765(8)
_cell_length_c 17.710(1)
_cell_angle_alpha 90
_cell_angle_beta 90
_cell_angle_gamma 90
_cell_formula_units_Z 4
loop_
_atom_type_symbol
_atom_type_radius_bond
C 0.68
H 0.23
N 0.68
O 0.68
loop_
_atom_site_label
_atom_site_type_symbol
_atom_site_fract_x
_atom_site_fract_y
_atom_site_fract_z
O1 O 0.48668(11) 0.53850(8) 0.58023(5)
N1 N 0.31944(12) 0.56189(9) 0.57338(6)
C1 C 0.23855(15) 0.54827(11) 0.64803(7)
N2 N 0.16095(12) 0.43908(9) 0.64190(6)
C2 C 0.15366(15) 0.40137(11) 0.57018(8)
C3 C 0.25726(15) 0.47449(11) 0.52203(7)
C4 C 0.40002(15) 0.41160(11) 0.49294(7)
C5 C 0.51267(16) 0.42497(11) 0.55897(8)
C6 C 0.68496(16) 0.40992(12) 0.54172(8)
C7 C 0.73496(16) 0.47282(12) 0.47068(8)
C8 C 0.63236(16) 0.44036(12) 0.40304(8)
C9 C 0.46204(16) 0.46006(11) 0.41931(7)
O2 O 0.37759(12) 0.50968(10) 0.37596(6)
H1 H 0.64640 0.36030 0.39360
H2 H 0.66150 0.48100 0.35640
H3 H 0.84570 0.45460 0.46030
H4 H 0.72780 0.55260 0.47890
H5 H 0.70520 0.33190 0.53470
H6 H 0.74540 0.43380 0.58580
H7 H 0.48420 0.37600 0.60150
H8 H 0.37570 0.33160 0.48510
H9 H 0.20040 0.50750 0.48030
O3 O 0.07881(12) 0.32169(8) 0.54744(6)
C10 C 0.05859(18) 0.39354(12) 0.69977(8)
H10 H 0.04230 0.31720 0.68900
H11 H -0.04320 0.42680 0.69700
H12 H 0.10330 0.40320 0.74930
C11 C 0.11429(15) 0.64116(11) 0.65746(7)
C12 C -0.01486(16) 0.64390(11) 0.59633(8)
C13 C 0.02475(16) 0.71270(12) 0.52640(8)
H13 H -0.05230 0.70200 0.48620
H14 H 0.12730 0.69530 0.50570
H15 H 0.02150 0.79170 0.53860
C14 C -0.16864(16) 0.68468(13) 0.63078(9)
H16 H -0.25420 0.68190 0.59440
H17 H -0.19980 0.64100 0.67450
H18 H -0.15690 0.76150 0.64830
H19 H -0.03180 0.56930 0.58020
C15 C 0.19573(16) 0.75316(11) 0.66845(8)
C16 C 0.30446(17) 0.75271(13) 0.73683(8)
C17 C 0.42846(16) 0.66253(12) 0.72889(8)
C18 C 0.35010(16) 0.55001(12) 0.71568(7)
H20 H 0.43020 0.49100 0.70930
H21 H 0.28840 0.53030 0.76000
C19 C 0.5336(2) 0.65697(15) 0.79850(9)
H22 H 0.61050 0.59690 0.79230
H23 H 0.47460 0.64030 0.84340
H24 H 0.59170 0.72610 0.80660
H25 H 0.49350 0.67900 0.68470
H26 H 0.24230 0.73700 0.78320
H27 H 0.35570 0.82470 0.74210
H28 H 0.25910 0.76980 0.62280
H29 H 0.11420 0.80980 0.67440
H30 H 0.06290 0.62140 0.70510
#END
