
#######################################################################
#
#                 Cambridge Crystallographic Data Centre
#                                CCDC
#
#######################################################################
#
# If this CIF has been generated from an entry in the Cambridge
# Structural Database, then it will include bibliographic, chemical,
# crystal, experimental, refinement or atomic coordinate data resulting
# from the CCDC's data processing and validation procedures.
#
#######################################################################

data_CSD_CIF_QOGQOU
_audit_creation_date 2014-08-13
_audit_creation_method CSD-ConQuest-V1
_database_code_CSD QOGQOU
_database_code_depnum_ccdc_archive 'CCDC 994870'
_chemical_formula_sum 'C20 H32 N2 O2'
_chemical_formula_moiety
;
C20 H32 N2 O2
;
_journal_coden_Cambridge 1291
_journal_year 2014
_journal_page_first 6017
_journal_name_full 'Eur.J.Org.Chem. '
loop_
_publ_author_name
"Heithem Abda"
"K.Aouadi"
"L.Perrin"
"M.Msaddek"
"J.-P.Praly"
"S.Vidal"
_chemical_name_systematic
;
(1S,2S,5R,5a'R,6'R,9'S,9a'R,9b'S)-2-Isopropyl-2',5-dimethylhexahydro-2'H-spiro
[cyclohexane-1,3'-[6,9]methanobenzo[d]imidazo-[1,5-b]isoxazol]-1'(5a'H)-one
;
_chemical_melting_point 394.15
_cell_volume   1950.953
_exptl_crystal_colour 'colorless'
_exptl_crystal_density_diffrn 1.132
_exptl_special_details
;
Melting point range 394.15-395.15K
Absolute configuration

;
_exptl_crystal_description 'block'
_diffrn_ambient_temperature 150
#These two values have been output from a single CSD field.
_refine_ls_R_factor_gt 0.0694
_refine_ls_wR_factor_gt 0.0694
_symmetry_cell_setting monoclinic
_symmetry_space_group_name_H-M 'P 21'
_symmetry_Int_Tables_number 4
loop_
_symmetry_equiv_pos_site_id
_symmetry_equiv_pos_as_xyz
1 x,y,z
2 -x,1/2+y,-z
_cell_length_a 10.4453(4)
_cell_length_b 18.1212(7)
_cell_length_c 10.5386(4)
_cell_angle_alpha 90
_cell_angle_beta 102.030(4)
_cell_angle_gamma 90
_cell_formula_units_Z 4
loop_
_atom_type_symbol
_atom_type_radius_bond
C 0.68
H 0.23
N 0.68
O 0.68
loop_
_atom_site_label
_atom_site_type_symbol
_atom_site_fract_x
_atom_site_fract_y
_atom_site_fract_z
O1 O 0.6309(3) 0.49998(17) 0.4425(3)
N1 N 0.6301(3) 0.46004(19) 0.3199(3)
C1 C 0.6062(4) 0.5209(2) 0.2233(4)
C2 C 0.7405(4) 0.5506(2) 0.2171(4)
O2 O 0.7627(3) 0.60892(17) 0.1656(3)
N2 N 0.8287(3) 0.50140(19) 0.2767(3)
C3 C 0.7692(4) 0.4362(2) 0.3259(4)
C4 C 0.7714(4) 0.3676(2) 0.2388(4)
C5 C 0.7210(5) 0.2992(2) 0.2997(5)
C6 C 0.7908(5) 0.2854(2) 0.4378(5)
C7 C 0.7851(5) 0.3520(2) 0.5233(4)
C8 C 0.8412(4) 0.4192(2) 0.4646(4)
H1 H 0.93350 0.40990 0.46380
H2 H 0.83310 0.46140 0.51780
C9 C 0.8549(5) 0.3400(3) 0.6635(5)
H3 H 0.84620 0.38350 0.71370
H4 H 0.94550 0.33010 0.66490
H5 H 0.81500 0.29910 0.69890
H6 H 0.69440 0.36200 0.52020
H7 H 0.88180 0.27350 0.43980
H8 H 0.74690 0.24430 0.47060
H9 H 0.73200 0.25710 0.24650
H10 H 0.62860 0.30510 0.29740
C10 C 0.7070(4) 0.3764(3) 0.0934(4)
C11 C 0.5602(5) 0.3612(3) 0.0604(5)
H11 H 0.52140 0.38210 -0.02210
H12 H 0.51850 0.38060 0.12710
H13 H 0.54440 0.30830 0.05570
C12 C 0.7762(6) 0.3279(4) 0.0096(5)
H14 H 0.74210 0.33680 -0.08140
H15 H 0.86910 0.33860 0.03030
H16 H 0.76230 0.27740 0.03050
H17 H 0.72210 0.42780 0.07150
H18 H 0.86440 0.35640 0.24110
C13 C 0.9675(4) 0.5098(3) 0.2819(5)
H19 H 1.00000 0.46520 0.25200
H20 H 1.01060 0.51930 0.37000
H21 H 0.97860 0.54980 0.22550
C14 C 0.5171(4) 0.5764(2) 0.2709(4)
C15 C 0.5348(4) 0.5571(2) 0.4165(4)
C16 C 0.3972(4) 0.5347(3) 0.4298(4)
C17 C 0.3181(5) 0.6064(3) 0.4209(5)
C18 C 0.2966(5) 0.6259(3) 0.2733(5)
C19 C 0.3697(4) 0.5648(3) 0.2189(4)
C20 C 0.3411(4) 0.4985(3) 0.2983(5)
H22 H 0.24870 0.48700 0.28440
H23 H 0.38980 0.45510 0.28320
H24 H 0.34580 0.55900 0.12410
H25 H 0.33150 0.67350 0.25990
H26 H 0.20420 0.62530 0.23250
H27 H 0.36780 0.64460 0.47280
H28 H 0.23680 0.59940 0.44840
H29 H 0.39330 0.50490 0.50630
H30 H 0.56430 0.59890 0.47220
H31 H 0.54350 0.62630 0.25550
H32 H 0.56240 0.50080 0.14010
O3 O 0.8966(3) 0.86475(18) 0.8424(3)
C21 C 0.8447(4) 0.8046(2) 0.8093(4)
N3 N 0.8018(4) 0.7561(2) 0.8851(3)
C22 C 0.7456(4) 0.6882(2) 0.8138(4)
N4 N 0.7319(3) 0.70917(19) 0.6742(3)
C23 C 0.8212(4) 0.7720(2) 0.6730(4)
C24 C 0.7556(4) 0.8243(2) 0.5672(4)
C25 C 0.7855(5) 0.8114(3) 0.4308(4)
C26 C 0.7154(6) 0.8726(3) 0.3421(5)
C27 C 0.5706(6) 0.8526(3) 0.3280(5)
C28 C 0.5719(5) 0.7809(3) 0.4076(4)
C29 C 0.6994(5) 0.7442(3) 0.3850(5)
H33 H 0.69680 0.73230 0.29280
H34 H 0.72370 0.70040 0.43850
C30 C 0.6099(4) 0.8042(2) 0.5486(4)
O4 O 0.6007(3) 0.74599(18) 0.6393(3)
H35 H 0.55880 0.84660 0.56390
H36 H 0.49460 0.74970 0.38470
H37 H 0.52320 0.89130 0.36290
H38 H 0.52840 0.84410 0.23830
H39 H 0.73320 0.92160 0.37960
H40 H 0.73880 0.87090 0.25770
H41 H 0.87760 0.80450 0.43150
H42 H 0.77350 0.87610 0.59160
H43 H 0.90500 0.75560 0.65790
C31 C 0.6180(4) 0.6676(2) 0.8510(4)
C32 C 0.5536(4) 0.5980(2) 0.7824(4)
C33 C 0.6481(5) 0.5335(3) 0.8135(5)
C34 C 0.7786(5) 0.5511(2) 0.7778(5)
C35 C 0.8424(4) 0.6222(2) 0.8453(4)
C36 C 0.9822(4) 0.6334(3) 0.8248(5)
C37 C 1.0030(5) 0.6139(3) 0.6894(5)
H44 H 1.08930 0.63170 0.68130
H45 H 0.93470 0.63560 0.62340
H46 H 0.99790 0.56120 0.68100
C38 C 1.0815(5) 0.5918(4) 0.9265(6)
H47 H 1.16670 0.59270 0.90450
H48 H 1.08610 0.61470 1.00960
H49 H 1.05150 0.54150 0.93050
H50 H 1.00110 0.68690 0.83800
H51 H 0.85290 0.61530 0.93940
H52 H 0.83750 0.51000 0.80460
H53 H 0.76470 0.55760 0.68290
H54 H 0.66350 0.52270 0.90580
H55 H 0.60780 0.49050 0.76450
C39 C 0.4242(5) 0.5831(3) 0.8196(6)
H56 H 0.38290 0.54090 0.77360
H57 H 0.43660 0.57510 0.91140
H58 H 0.36590 0.62440 0.79830
H59 H 0.53410 0.60320 0.68790
H60 H 0.63800 0.66020 0.94420
H61 H 0.55620 0.70920 0.82890
C40 C 0.8150(6) 0.7669(3) 1.0235(5)
H62 H 0.72960 0.76960 1.04480
H63 H 0.86360 0.72750 1.06960
H64 H 0.86170 0.81170 1.04620
#END
