
#######################################################################
#
#                 Cambridge Crystallographic Data Centre
#                                CCDC
#
#######################################################################
#
# If this CIF has been generated from an entry in the Cambridge
# Structural Database, then it will include bibliographic, chemical,
# crystal, experimental, refinement or atomic coordinate data resulting
# from the CCDC's data processing and validation procedures.
#
#######################################################################

data_CSD_CIF_QOGYOB
_audit_creation_date 2009-03-02
_audit_creation_method CSD-ConQuest-V1
_database_code_CSD QOGYOB
_database_code_depnum_ccdc_archive 'CCDC 627551'
_chemical_formula_sum 'C17 H12 N2 O3'
_chemical_formula_moiety
;
C17 H12 N2 O3
;
_journal_coden_Cambridge 392
_journal_volume 72
_journal_year 2007
_journal_page_first 363
_journal_name_full 'Heterocycles '
loop_
_publ_author_name
"H.Uoyama"
"N.Ono"
"H.Uno"
_chemical_name_systematic
;
4-(Ethoxycarbonyl)benzocyclobutadieno(5,6-g)quinazoline 1-oxide
;
_chemical_melting_point 479.15
_cell_volume   2657.406
_exptl_crystal_colour 'yellow'
_exptl_crystal_density_diffrn 1.461
_exptl_special_details
;
Melting point range 479.15-481.15K

;
_exptl_crystal_description 'prism'
_diffrn_ambient_temperature 150
#These two values have been output from a single CSD field.
_refine_ls_R_factor_gt 0.1349
_refine_ls_wR_factor_gt 0.1349
_symmetry_cell_setting monoclinic
_symmetry_space_group_name_H-M 'C 2/c'
_symmetry_Int_Tables_number 15
loop_
_symmetry_equiv_pos_site_id
_symmetry_equiv_pos_as_xyz
1 x,y,z
2 1/2+x,1/2+y,z
3 -x,y,1/2-z
4 1/2-x,1/2+y,1/2-z
5 -x,-y,-z
6 -1/2-x,-1/2-y,-z
7 x,-y,-1/2+z
8 -1/2+x,-1/2-y,-1/2+z
_cell_length_a 22.588(15)
_cell_length_b 5.236(3)
_cell_length_c 23.211(19)
_cell_angle_alpha 90
_cell_angle_beta 104.528(7)
_cell_angle_gamma 90
_cell_formula_units_Z 8
loop_
_atom_type_symbol
_atom_type_radius_bond
C 0.68
H 0.23
N 0.68
O 0.68
loop_
_atom_site_label
_atom_site_type_symbol
_atom_site_fract_x
_atom_site_fract_y
_atom_site_fract_z
O1 O 0.27361(16) 0.1544(6) 0.39544(15)
O2 O 0.33479(18) 0.4960(7) 0.41753(17)
O3 O 0.36479(17) -0.1198(7) 0.65757(16)
N1 N 0.35644(19) -0.0156(7) 0.60514(17)
N2 N 0.29990(19) -0.0030(8) 0.50528(17)
C1 C 0.3118(2) -0.1012(9) 0.5589(2)
H1 H 0.28760 -0.24100 0.56570
C2 C 0.3338(2) 0.1923(9) 0.4946(2)
C3 C 0.3825(2) 0.2931(9) 0.5388(2)
C4 C 0.4228(2) 0.4971(8) 0.5290(2)
H2 H 0.41950 0.56840 0.49070
C5 C 0.4647(2) 0.5782(9) 0.5772(2)
C6 C 0.5156(2) 0.7651(9) 0.6028(2)
C7 C 0.5510(3) 0.9639(9) 0.5911(3)
H3 H 0.54760 1.02970 0.55230
C8 C 0.5932(2) 1.0612(10) 0.6425(3)
H4 H 0.61930 1.19760 0.63800
C9 C 0.5974(3) 0.9653(10) 0.6985(2)
H5 H 0.62550 1.04230 0.73140
C10 C 0.5625(2) 0.7608(10) 0.7093(2)
H6 H 0.56690 0.69190 0.74800
C11 C 0.5213(2) 0.6650(9) 0.6603(2)
C12 C 0.4719(2) 0.4760(9) 0.6366(2)
C13 C 0.4379(2) 0.2806(9) 0.6475(2)
H7 H 0.44370 0.20780 0.68600
C14 C 0.3925(2) 0.1893(8) 0.5972(2)
C15 C 0.3155(2) 0.2995(9) 0.4321(2)
C16 C 0.2567(3) 0.252(1) 0.3341(2)
H8 H 0.29350 0.27650 0.31890
H9 H 0.23500 0.41720 0.33220
C17 C 0.2154(3) 0.0519(11) 0.2982(2)
H10 H 0.24010 -0.07240 0.28290
H11 H 0.18620 0.13360 0.26480
H12 H 0.19310 -0.03550 0.32360
#END
