
#######################################################################
#
#                 Cambridge Crystallographic Data Centre
#                                CCDC
#
#######################################################################
#
# If this CIF has been generated from an entry in the Cambridge
# Structural Database, then it will include bibliographic, chemical,
# crystal, experimental, refinement or atomic coordinate data resulting
# from the CCDC's data processing and validation procedures.
#
#######################################################################

data_CSD_CIF_QOGYER
_audit_creation_date 2009-03-02
_audit_creation_method CSD-ConQuest-V1
_database_code_CSD QOGYER
_database_code_depnum_ccdc_archive 'CCDC 627549'
_chemical_formula_sum 'C14 H11 N1 O4'
_chemical_formula_moiety
;
C14 H11 N1 O4
;
_journal_coden_Cambridge 392
_journal_volume 72
_journal_year 2007
_journal_page_first 363
_journal_name_full 'Heterocycles '
loop_
_publ_author_name
"H.Uoyama"
"N.Ono"
"H.Uno"
_chemical_name_systematic
;
10-Nitrobenzo(8)annulen-5-yl acetate
;
_cell_volume   1235.386
_exptl_crystal_colour 'yellow'
_exptl_crystal_density_diffrn 1.383
_exptl_crystal_description 'prism'
_diffrn_ambient_temperature 100
_refine_special_details
;
Most of the molecule is disordered with occupancies 0.858:0.142.

;
#These two values have been output from a single CSD field.
_refine_ls_R_factor_gt 0.0579
_refine_ls_wR_factor_gt 0.0579
_symmetry_cell_setting monoclinic
_symmetry_space_group_name_H-M 'P 21/a'
_symmetry_Int_Tables_number 14
loop_
_symmetry_equiv_pos_site_id
_symmetry_equiv_pos_as_xyz
1 x,y,z
2 1/2-x,1/2+y,-z
3 -x,-y,-z
4 -1/2+x,-1/2-y,z
_cell_length_a 7.5375(16)
_cell_length_b 12.859(3)
_cell_length_c 13.089(3)
_cell_angle_alpha 90
_cell_angle_beta 103.149(2)
_cell_angle_gamma 90
_cell_formula_units_Z 4
loop_
_atom_type_symbol
_atom_type_radius_bond
C 0.68
H 0.23
N 0.68
O 0.68
loop_
_atom_site_label
_atom_site_type_symbol
_atom_site_fract_x
_atom_site_fract_y
_atom_site_fract_z
O1 O 1.0583(2) 0.05938(13) 0.89648(12)
C1 C 1.0102(3) 0.12668(18) 0.94744(17)
C2 C 1.1185(4) 0.1780(2) 1.04313(18)
H1 H 1.07360 0.15570 1.10430
H2 H 1.10650 0.25360 1.03540
H3 H 1.24690 0.15840 1.05290
O2 O 0.8361(3) 0.16194(18) 0.92803(17)
O3 O 0.9697(4) -0.16869(19) 0.7011(2)
O4 O 1.0291(3) -0.02528(18) 0.6324(2)
N1 N 0.9307(2) -0.07932(14) 0.66891(15)
C3 C 0.7200(4) 0.1113(2) 0.5583(2)
H4 H 0.72360 0.06330 0.50360
C4 C 0.7065(4) 0.2169(2) 0.5375(2)
H5 H 0.70120 0.24120 0.46830
C5 C 0.7008(4) 0.2872(2) 0.6163(2)
H6 H 0.69370 0.35970 0.60160
C6 C 0.7053(6) 0.2522(3) 0.7163(3)
H7 H 0.70020 0.30080 0.77030
C7 C 0.7122(3) 0.11139(19) 0.84591(19)
C8 C 0.5915(5) 0.0493(2) 0.8750(2)
H8 H 0.60290 0.04050 0.94820
C9 C 0.4425(4) -0.0069(2) 0.8053(2)
H9 H 0.32260 0.00610 0.81370
C10 C 0.4603(4) -0.0749(2) 0.7308(2)
H10 H 0.35280 -0.10620 0.69040
C11 C 0.6358(4) -0.1045(2) 0.7075(2)
H11 H 0.66700 -0.17620 0.70990
C12 C 0.7525(3) -0.03711(18) 0.68352(18)
C13 C 0.7282(3) 0.07531(18) 0.66049(18)
C14 C 0.7173(3) 0.14606(18) 0.7393(2)
O5? O 0.8546(17) 0.1941(10) 0.9013(10)
O6? O 0.949(3) -0.1502(13) 0.7277(14)
O7? O 1.0354(19) -0.0621(12) 0.5988(11)
N2? N 0.9307(2) -0.07932(14) 0.66891(15)
C15? C 0.561(2) -0.0894(11) 0.7017(12)
H12? H 0.57910 -0.14250 0.65460
C16? C 0.431(2) -0.1031(14) 0.7600(12)
H13? H 0.35680 -0.16370 0.75010
C17? C 0.408(2) -0.0291(12) 0.8322(13)
H14? H 0.31610 -0.03640 0.87090
C18? C 0.524(2) 0.0561(12) 0.8464(12)
H15? H 0.51700 0.10370 0.90090
C19? C 0.7550(19) 0.1718(10) 0.7972(11)
C20? C 0.749(3) 0.2494(19) 0.7280(15)
H16? H 0.81400 0.31120 0.75210
C21? C 0.649(3) 0.2459(15) 0.6177(12)
H17? H 0.56580 0.30110 0.59400
C22? C 0.663(2) 0.1725(15) 0.5471(13)
H18? H 0.58550 0.17880 0.47910
C23? C 0.786(2) 0.0842(13) 0.5662(13)
H19? H 0.86590 0.07530 0.52040
C24? C 0.7953(18) 0.0147(10) 0.6425(11)
C25? C 0.6666(17) 0.0007(9) 0.711(1)
C26? C 0.6489(18) 0.0759(10) 0.7852(11)
#END
