
#######################################################################
#
#                 Cambridge Crystallographic Data Centre
#                                CCDC
#
#######################################################################
#
# If this CIF has been generated from an entry in the Cambridge
# Structural Database, then it will include bibliographic, chemical,
# crystal, experimental, refinement or atomic coordinate data resulting
# from the CCDC's data processing and validation procedures.
#
#######################################################################

data_CSD_CIF_QOHBIZ
_audit_creation_date 2009-03-02
_audit_creation_method CSD-ConQuest-V1
_database_code_CSD QOHBIZ
_database_code_depnum_ccdc_archive 'CCDC 668051'
_chemical_formula_sum 'C46 H46 N2 O12'
_chemical_formula_moiety
;
C46 H46 N2 O12
;
_journal_coden_Cambridge 392
_journal_volume 74
_journal_year 2007
_journal_page_first 743
_journal_name_full 'Heterocycles '
loop_
_publ_author_name
"M.Lager"
"P.Dietrich"
"D.Weinrich"
"K.Ruck-Braun"
_chemical_name_systematic
;
1,2-bis(5-Benzoyl-4-(benzyloxycarbonyl)-5-(ethoxycarbonyl)pent-4-enyl)diazene-
1,2-dioxide
;
_cell_volume   1081.567
_exptl_crystal_density_diffrn 1.251
_exptl_crystal_description 'prism'
_diffrn_ambient_temperature 293
#These two values have been output from a single CSD field.
_refine_ls_R_factor_gt 0.0693
_refine_ls_wR_factor_gt 0.0693
_symmetry_cell_setting triclinic
_symmetry_space_group_name_H-M 'P -1'
_symmetry_Int_Tables_number 2
loop_
_symmetry_equiv_pos_site_id
_symmetry_equiv_pos_as_xyz
1 x,y,z
2 -x,-y,-z
_cell_length_a 10.2847(5)
_cell_length_b 10.5128(5)
_cell_length_c 11.8167(6)
_cell_angle_alpha 69.162(1)
_cell_angle_beta 65.011(2)
_cell_angle_gamma 83.142(2)
_cell_formula_units_Z 1
loop_
_atom_type_symbol
_atom_type_radius_bond
C 0.68
H 0.23
N 0.68
O 0.68
loop_
_atom_site_label
_atom_site_type_symbol
_atom_site_fract_x
_atom_site_fract_y
_atom_site_fract_z
N1 N 0.9666(3) 0.5312(3) 0.4616(3)
O1 O 1.0145(3) 0.2231(3) 0.0352(2)
O2 O 0.5778(2) 0.4481(2) 0.2661(2)
O3 O 0.5989(3) 0.3393(3) 0.4582(2)
O4 O 0.9118(3) 0.6450(2) 0.4643(3)
O5 O 0.6039(2) 0.1344(3) 0.3367(3)
O6 O 0.7952(2) 0.0039(2) 0.2953(2)
C1 C 1.1019(3) 0.1804(3) 0.1992(4)
C2 C 1.0690(4) 0.1503(4) 0.3324(4)
H1 H 0.97410 0.15080 0.39130
C3 C 1.1759(5) 0.1194(5) 0.3791(6)
H2 H 1.15320 0.09830 0.46890
C4 C 1.3145(6) 0.1203(6) 0.2919(8)
H3 H 1.38670 0.10070 0.32280
C5 C 1.3502(5) 0.1495(6) 0.1590(8)
H4 H 1.44550 0.14770 0.10140
C6 C 1.2446(4) 0.1815(5) 0.1109(5)
H5 H 1.26850 0.20340 0.02080
C7 C 0.9901(3) 0.2124(3) 0.1478(3)
C8 C 0.8382(3) 0.2359(3) 0.2366(3)
C9 C 0.7991(3) 0.3550(3) 0.2534(3)
C10 C 0.6466(3) 0.3756(3) 0.3401(3)
C11 C 0.4268(4) 0.4700(4) 0.3423(4)
C12 C 0.3698(3) 0.5675(4) 0.2458(3)
C13 C 0.3220(4) 0.6915(4) 0.2594(4)
H6 H 0.33140 0.71730 0.32320
C14 C 0.2602(5) 0.7776(5) 0.1779(6)
H7 H 0.22540 0.86010 0.18920
C15 C 0.2496(5) 0.7436(6) 0.0824(5)
H8 H 0.20890 0.80330 0.02770
C16 C 0.2981(5) 0.6226(6) 0.0652(4)
H9 H 0.29100 0.59940 -0.00110
C17 C 0.3583(4) 0.5338(5) 0.1484(4)
H10 H 0.39120 0.45070 0.13760
C18 C 0.8959(3) 0.4812(3) 0.1887(3)
H11 H 0.86750 0.54670 0.12200
H12 H 0.99340 0.45690 0.14350
C19 C 0.8946(3) 0.5499(3) 0.2836(3)
H13 H 0.94800 0.63630 0.23270
H14 H 0.79650 0.56800 0.33480
C20 C 0.9595(4) 0.4621(3) 0.3761(3)
H15 H 0.90250 0.37790 0.43080
H16 H 1.05550 0.43920 0.32480
C21 C 0.7309(3) 0.1213(3) 0.2954(3)
C22 C 0.7030(4) -0.1155(4) 0.3433(4)
H17 H 0.61220 -0.10730 0.41310
H18 H 0.74800 -0.19630 0.38050
C23 C 0.6769(5) -0.1298(4) 0.2337(5)
H19 H 0.61530 -0.20840 0.26750
H20 H 0.76670 -0.14010 0.16570
H21 H 0.63200 -0.05000 0.19730
N1A N 1.0334(3) 0.4688(3) 0.5384(3)
O1A O 0.9855(3) 0.7769(3) 0.9648(2)
O2A O 1.4222(2) 0.5519(2) 0.7339(2)
O3A O 1.4011(3) 0.6607(3) 0.5418(2)
O4A O 1.0882(3) 0.3550(2) 0.5357(3)
O5A O 1.3961(2) 0.8656(3) 0.6633(3)
O6A O 1.2048(2) 0.9961(2) 0.7047(2)
C1A C 0.8981(3) 0.8196(3) 0.8008(4)
C2A C 0.9310(4) 0.8497(4) 0.6676(4)
H1A H 1.02590 0.84920 0.60870
C3A C 0.8241(5) 0.8806(5) 0.6209(6)
H2A H 0.84680 0.90170 0.53110
C4A C 0.6855(6) 0.8797(6) 0.7081(8)
H3A H 0.61330 0.89930 0.67720
C5A C 0.6498(5) 0.8505(6) 0.8410(8)
H4A H 0.55450 0.85230 0.89860
C6A C 0.7554(4) 0.8185(5) 0.8891(5)
H5A H 0.73150 0.79660 0.97920
C7A C 1.0099(3) 0.7876(3) 0.8522(3)
C8A C 1.1618(3) 0.7641(3) 0.7634(3)
C9A C 1.2009(3) 0.6450(3) 0.7466(3)
C10A C 1.3534(3) 0.6244(3) 0.6599(3)
C11A C 1.5732(4) 0.5300(4) 0.6577(4)
C12A C 1.6302(3) 0.4325(4) 0.7542(3)
C13A C 1.6780(4) 0.3085(4) 0.7406(4)
H6A H 1.66860 0.28270 0.67680
C14A C 1.7398(5) 0.2224(5) 0.8221(6)
H7A H 1.77460 0.13990 0.81080
C15A C 1.7504(5) 0.2564(6) 0.9176(5)
H8A H 1.79110 0.19670 0.97230
C16A C 1.7019(5) 0.3774(6) 0.9348(4)
H9A H 1.70900 0.40060 1.00110
C17A C 1.6417(4) 0.4662(5) 0.8516(4)
H10A H 1.60880 0.54930 0.86240
C18A C 1.1041(3) 0.5188(3) 0.8113(3)
H11A H 1.13250 0.45330 0.87800
H12A H 1.00660 0.54310 0.85650
C19A C 1.1054(3) 0.4501(3) 0.7164(3)
H13A H 1.05200 0.36370 0.76730
H14A H 1.20350 0.43200 0.66520
C20A C 1.0405(4) 0.5379(3) 0.6239(3)
H15A H 1.09750 0.62210 0.56920
H16A H 0.94450 0.56080 0.67520
C21A C 1.2691(3) 0.8787(3) 0.7046(3)
C22A C 1.2970(4) 1.1155(4) 0.6567(4)
H17A H 1.38780 1.10730 0.58690
H18A H 1.25200 1.19630 0.61950
C23A C 1.3231(5) 1.1298(4) 0.7663(5)
H19A H 1.38470 1.20840 0.73250
H20A H 1.23330 1.14010 0.83430
H21A H 1.36800 1.05000 0.80270
#END
