
#######################################################################
#
#                 Cambridge Crystallographic Data Centre
#                                CCDC
#
#######################################################################
#
# If this CIF has been generated from an entry in the Cambridge
# Structural Database, then it will include bibliographic, chemical,
# crystal, experimental, refinement or atomic coordinate data resulting
# from the CCDC's data processing and validation procedures.
#
#######################################################################

data_CSD_CIF_QOHFOK
_audit_creation_date 2014-08-13
_audit_creation_method CSD-ConQuest-V1
_database_code_CSD QOHFOK
_database_code_depnum_ccdc_archive 'CCDC 951997'
_chemical_formula_sum 'C16 H19 N1 O7'
_chemical_formula_moiety
;
C16 H19 N1 O7
;
_journal_coden_Cambridge 1232
_journal_volume 9
_journal_year 2014
_journal_page_first 643
_journal_name_full 'ACS Chem.Biol. '
loop_
_publ_author_name
"C.Lagisetti"
"M.V.Yermolina"
"L.K.Sharma"
"G.Palacios"
"B.J.Prigaro"
"T.R.Webb"
_chemical_name_systematic
;
(6-(2-methoxy-2-oxoethyl)tetrahydro-2H-pyran-2-yl)methyl 4-nitrobenzoate
;
_cell_volume   1702.706
_exptl_crystal_colour 'colorless'
_exptl_crystal_density_diffrn 1.316
_exptl_special_details
;
Absolute configuration

;
_exptl_crystal_description 'needle'
_diffrn_ambient_temperature 102
#These two values have been output from a single CSD field.
_refine_ls_R_factor_gt 0.0333
_refine_ls_wR_factor_gt 0.0333
_symmetry_cell_setting orthorhombic
_symmetry_space_group_name_H-M 'P 21 21 21'
_symmetry_Int_Tables_number 19
loop_
_symmetry_equiv_pos_site_id
_symmetry_equiv_pos_as_xyz
1 x,y,z
2 1/2-x,-y,1/2+z
3 -x,1/2+y,1/2-z
4 1/2+x,1/2-y,-z
_cell_length_a 5.8374(5)
_cell_length_b 15.6011(12)
_cell_length_c 18.6967(14)
_cell_angle_alpha 90
_cell_angle_beta 90
_cell_angle_gamma 90
_cell_formula_units_Z 4
loop_
_atom_type_symbol
_atom_type_radius_bond
C 0.68
H 0.23
N 0.68
O 0.68
loop_
_atom_site_label
_atom_site_type_symbol
_atom_site_fract_x
_atom_site_fract_y
_atom_site_fract_z
C1 C 0.4514(5) 0.71217(15) 0.43476(14)
H1 H 0.507(4) 0.7260(15) 0.4840(14)
H2 H 0.404(5) 0.7631(17) 0.4138(13)
H3 H 0.563(5) 0.6842(14) 0.4067(12)
O1 O 0.2517(2) 0.65773(8) 0.43999(6)
C2 C 0.2894(3) 0.58004(11) 0.46759(9)
O2 O 0.4766(2) 0.55464(8) 0.48465(7)
C3 C 0.0720(3) 0.52984(11) 0.47631(10)
H4 H 0.026(3) 0.5332(11) 0.5254(10)
H5 H -0.039(3) 0.5557(11) 0.4505(9)
C4 C 0.1026(3) 0.43733(11) 0.45389(9)
H6 H 0.228(3) 0.4091(10) 0.4801(8)
C5 C -0.1119(3) 0.38289(12) 0.46448(10)
H7 H -0.147(3) 0.3823(13) 0.5136(11)
H8 H -0.238(3) 0.4121(12) 0.4385(9)
C6 C -0.0729(4) 0.29309(12) 0.43519(11)
H9 H 0.036(3) 0.2640(12) 0.4628(10)
H10 H -0.215(4) 0.2611(14) 0.4372(11)
C7 C 0.0141(3) 0.29701(11) 0.35837(10)
H11 H 0.063(3) 0.2422(12) 0.3423(9)
H12 H -0.097(4) 0.3184(11) 0.3247(10)
C8 C 0.2179(3) 0.35732(10) 0.35196(9)
H13 H 0.349(3) 0.3325(10) 0.3782(8)
O3 O 0.16347(19) 0.44006(7) 0.37968(6)
C9 C 0.2847(3) 0.36810(11) 0.27556(9)
H14 H 0.323(3) 0.3130(11) 0.2563(9)
H15 H 0.168(3) 0.3976(10) 0.2488(8)
O4 O 0.4867(2) 0.42134(7) 0.27225(6)
C10 C 0.5705(3) 0.43587(11) 0.20697(9)
O5 O 0.4923(2) 0.40501(8) 0.15297(6)
C11 C 0.7725(3) 0.49434(10) 0.20880(9)
C12 C 0.9019(3) 0.50299(11) 0.14679(9)
H16 H 0.859(3) 0.4704(11) 0.1057(10)
C13 C 1.0932(3) 0.55481(11) 0.14625(10)
H17 H 1.183(4) 0.5598(14) 0.1057(12)
C14 C 1.1505(3) 0.59749(10) 0.20845(10)
C15 C 1.0243(3) 0.59083(11) 0.27072(9)
H18 H 1.079(4) 0.6215(12) 0.3132(9)
C16 C 0.8338(3) 0.53833(10) 0.27077(9)
H19 H 0.748(4) 0.5316(11) 0.3135(9)
N1 N 1.3554(3) 0.6530(1) 0.20824(9)
O6 O 1.4662(2) 0.65917(9) 0.15309(7)
O7 O 1.4047(3) 0.69029(9) 0.26367(8)
#END
