
#######################################################################
#
#                 Cambridge Crystallographic Data Centre
#                                CCDC
#
#######################################################################
#
# If this CIF has been generated from an entry in the Cambridge
# Structural Database, then it will include bibliographic, chemical,
# crystal, experimental, refinement or atomic coordinate data resulting
# from the CCDC's data processing and validation procedures.
#
#######################################################################

data_CSD_CIF_QOHROV
_audit_creation_date 2009-03-02
_audit_creation_method CSD-ConQuest-V1
_database_code_CSD QOHROV
_database_code_depnum_ccdc_archive 'CCDC 677701'
_chemical_formula_sum 'C14 H18 N2 O2'
_chemical_formula_moiety
;
C14 H18 N2 O2
;
_journal_coden_Cambridge 16
_journal_volume 64
_journal_year 2008
_journal_page_first 9953
_journal_name_full 'Tetrahedron '
loop_
_publ_author_name
"M.Buchlovic"
"S.Man"
"M.Potacek"
_chemical_name_systematic
;
6,6,7a-trimethyl-1-phenyltetrahydropyrrolo[1,2-b][1,2,4]oxadiazol-2(1H)-one
;
_chemical_melting_point 384.15
_cell_volume    631.409
_exptl_crystal_colour 'white'
_exptl_crystal_density_diffrn 1.306
_exptl_special_details
;
Melting point range 384.15-386.15K

;
_exptl_crystal_description 'planar'
_exptl_crystal_preparation 'diethyl ether'
_diffrn_ambient_temperature 120
#These two values have been output from a single CSD field.
_refine_ls_R_factor_gt 0.0589
_refine_ls_wR_factor_gt 0.0589
_symmetry_cell_setting triclinic
_symmetry_space_group_name_H-M 'P -1'
_symmetry_Int_Tables_number 2
loop_
_symmetry_equiv_pos_site_id
_symmetry_equiv_pos_as_xyz
1 x,y,z
2 -x,-y,-z
_cell_length_a 8.5228(17)
_cell_length_b 8.7348(17)
_cell_length_c 9.5815(19)
_cell_angle_alpha 105.68(3)
_cell_angle_beta 96.35(3)
_cell_angle_gamma 109.48(3)
_cell_formula_units_Z 2
loop_
_atom_type_symbol
_atom_type_radius_bond
C 0.68
H 0.23
N 0.68
O 0.68
loop_
_atom_site_label
_atom_site_type_symbol
_atom_site_fract_x
_atom_site_fract_y
_atom_site_fract_z
O1 O 0.30476(13) 1.10888(12) 0.44234(12)
C1 C 0.26228(16) 0.95788(17) 0.38087(15)
O2 O 0.23893(13) 0.89183(12) 0.23085(11)
N1 N 0.20737(15) 0.71076(15) 0.19147(13)
C2 C 0.37122(19) 0.69049(18) 0.19221(16)
H1 H 0.46260 0.78390 0.27380
H2 H 0.40520 0.68760 0.09630
C3 C 0.3316(2) 0.51848(18) 0.21688(16)
C4 C 0.2269(2) 0.3718(2) 0.07510(18)
H3 H 0.12190 0.38690 0.04130
H4 H 0.19780 0.26230 0.09460
H5 H 0.29340 0.37170 -0.00200
C5 C 0.4924(3) 0.4952(2) 0.2723(2)
H6 H 0.55740 0.48740 0.19420
H7 H 0.46210 0.38950 0.29830
H8 H 0.56200 0.59370 0.36040
C6 C 0.2259(2) 0.53321(18) 0.33534(17)
H9 H 0.13470 0.42050 0.31980
H10 H 0.29920 0.57320 0.43590
C7 C 0.14910(18) 0.66310(17) 0.31837(15)
C8 C -0.0424(2) 0.5990(2) 0.29322(19)
H11 H -0.08110 0.68780 0.27670
H12 H -0.07780 0.57260 0.38070
H13 H -0.09310 0.49500 0.20590
N2 N 0.22865(14) 0.82935(14) 0.43775(12)
C9 C 0.22016(17) 0.85752(16) 0.58942(15)
C10 C 0.34160(17) 0.84065(16) 0.68474(15)
H14 H 0.43000 0.80930 0.64920
C11 C 0.3343(2) 0.86944(18) 0.83217(16)
H15 H 0.41650 0.85540 0.89790
C12 C 0.2089(2) 0.91825(19) 0.88434(16)
H16 H 0.20500 0.93970 0.98630
C13 C 0.0889(2) 0.93594(19) 0.78820(17)
H17 H 0.00250 0.97070 0.82440
C14 C 0.09258(18) 0.90388(18) 0.64054(16)
H18 H 0.00780 0.91360 0.57420
#END
