
#######################################################################
#
#                 Cambridge Crystallographic Data Centre
#                                CCDC
#
#######################################################################
#
# If this CIF has been generated from an entry in the Cambridge
# Structural Database, then it will include bibliographic, chemical,
# crystal, experimental, refinement or atomic coordinate data resulting
# from the CCDC's data processing and validation procedures.
#
#######################################################################

data_CSD_CIF_QOHYAN
_audit_creation_date 2001-08-09
_audit_creation_method CSD-ConQuest-V1
_database_code_CSD QOHYAN
_database_code_depnum_ccdc_archive 'CCDC 159507'
_chemical_formula_sum 'C16 H22 N2 O5'
_chemical_formula_moiety
;
C16 H22 N2 O5
;
_journal_coden_Cambridge 1336
_journal_volume 2
_journal_year 2000
_journal_page_first 3883
_journal_name_full 'Org.Lett. '
loop_
_publ_author_name
"T.Kawabata"
"J.Chen"
"H.Suzuki"
"Y.Nagae"
"T.Kinoshita"
"S.Chancharunee"
"K.Fuji"
_chemical_name_systematic
;
(2R,3S)-N-p-Nitrobenzoyl-\a-methyl-allo-isoleucine ethyl ester
;
_chemical_melting_point 402.15
_cell_volume   1668.725
_exptl_crystal_colour 'colorless'
_exptl_crystal_density_diffrn 1.283
_exptl_special_details
;
Melting point range 402.15-403.15K

;
_exptl_crystal_description 'prismatic'
_exptl_crystal_preparation 'ether/hexane'
_diffrn_ambient_temperature ?
_diffrn_special_details
;
The study was carried out at room temperature,in the range 283-303K

;
#These two values have been output from a single CSD field.
_refine_ls_R_factor_gt 0.0467
_refine_ls_wR_factor_gt 0.0467
_symmetry_cell_setting orthorhombic
_symmetry_space_group_name_H-M 'P 21 21 21'
_symmetry_Int_Tables_number 19
loop_
_symmetry_equiv_pos_site_id
_symmetry_equiv_pos_as_xyz
1 x,y,z
2 1/2-x,-y,1/2+z
3 1/2+x,1/2-y,-z
4 -x,1/2+y,1/2-z
_cell_length_a 11.841(2)
_cell_length_b 19.796(2)
_cell_length_c 7.119(2)
_cell_angle_alpha 90
_cell_angle_beta 90
_cell_angle_gamma 90
_cell_formula_units_Z 4
loop_
_atom_type_symbol
_atom_type_radius_bond
C 0.68
H 0.23
N 0.68
O 0.68
loop_
_atom_site_label
_atom_site_type_symbol
_atom_site_fract_x
_atom_site_fract_y
_atom_site_fract_z
O1 O -0.4979(2) -0.5679(1) -0.9478(4)
O2 O -0.5528(3) -0.5091(1) -1.1771(3)
O3 O -0.7664(2) -0.35550(9) -0.3297(2)
O4 O -0.7941(2) -0.22942(10) -0.0704(2)
O5 O -0.6423(1) -0.22056(9) -0.2579(3)
N1 N -0.5481(2) -0.5200(1) -1.0109(3)
N2 N -0.7722(2) -0.27213(8) -0.5417(3)
C1 C -0.6047(2) -0.4732(1) -0.8811(4)
C2 C -0.6521(2) -0.4149(1) -0.9499(3)
C3 C -0.7011(2) -0.3700(1) -0.8274(3)
C4 C -0.7021(2) -0.38326(9) -0.6353(3)
C5 C -0.6568(2) -0.4436(1) -0.5717(4)
C6 C -0.6081(2) -0.4887(1) -0.6926(4)
C7 C -0.7491(2) -0.3360(1) -0.4895(3)
C8 C -0.8196(2) -0.2227(1) -0.4091(3)
C9 C -0.9437(2) -0.2404(2) -0.3715(5)
C10 C -0.8035(2) -0.1512(1) -0.4945(3)
C11 C -0.8716(3) -0.1414(2) -0.6739(4)
C12 C -0.8327(3) -0.0954(1) -0.3508(4)
C13 C -0.8067(4) -0.0248(1) -0.4185(6)
C14 C -0.7520(2) -0.2260(1) -0.2255(3)
C15 C -0.5672(3) -0.2162(2) -0.0965(6)
C16 C -0.5349(9) -0.1496(3) -0.051(1)
H1 H -0.765(2) -0.256(1) -0.668(4)
H2 H -0.649(3) -0.410(2) -1.078(5)
H3 H -0.723(2) -0.329(1) -0.877(4)
H4 H -0.652(2) -0.453(1) -0.446(4)
H5 H -0.578(2) -0.520(1) -0.635(4)
H6 H -0.980(3) -0.250(2) -0.493(6)
H7 H -0.977(4) -0.201(2) -0.289(7)
H8 H -0.952(2) -0.288(1) -0.327(4)
H9 H -0.720(2) -0.146(1) -0.543(4)
H10 H -0.855(4) -0.115(2) -0.732(6)
H11 H -0.957(3) -0.152(2) -0.625(6)
H12 H -0.856(2) -0.178(1) -0.771(4)
H13 H -0.794(2) -0.096(2) -0.244(5)
H14 H -0.908(3) -0.089(2) -0.306(6)
H15 H -0.728(4) -0.024(2) -0.444(5)
H16 H -0.820(4) 0.002(2) -0.328(6)
H17 H -0.852(4) -0.003(2) -0.550(6)
H18 H -0.501(4) -0.235(2) -0.107(7)
H19 H -0.592(3) -0.232(2) 0.022(6)
H20 H -0.523(4) -0.114(2) -0.135(6)
H21 H -0.496(3) -0.136(2) 0.056(5)
H22 H -0.585(5) -0.131(3) -0.04(1)
#END
