
#######################################################################
#
#                 Cambridge Crystallographic Data Centre
#                                CCDC
#
#######################################################################
#
# If this CIF has been generated from an entry in the Cambridge
# Structural Database, then it will include bibliographic, chemical,
# crystal, experimental, refinement or atomic coordinate data resulting
# from the CCDC's data processing and validation procedures.
#
#######################################################################

data_CSD_CIF_QOJGED
_audit_creation_date 2014-08-14
_audit_creation_method CSD-ConQuest-V1
_database_code_CSD QOJGED
_database_code_depnum_ccdc_archive 'CCDC 1019352'
_chemical_formula_sum 'C20 H25 N1 O6'
_chemical_formula_moiety
;
C20 H25 N1 O6
;
_journal_coden_Cambridge 1078
_journal_year 2014
_journal_name_full 'CSD Communication(Private Communication) '
loop_
_publ_author_name
"Huang-Yi Lin"
"R.Gurubrahamam"
"Kwunmin Chen"
_chemical_name_systematic
;
Ethyl 4-(2-methoxyphenyl)-4-(5-methyl-2-oxocyclohexyl)-3-nitrobut-2-enoate
;
_cell_volume    972.063
_exptl_crystal_colour 'colorless'
_exptl_crystal_density_diffrn 1.283
_exptl_crystal_description 'prism'
_diffrn_ambient_temperature 200
#These two values have been output from a single CSD field.
_refine_ls_R_factor_gt 0.0929
_refine_ls_wR_factor_gt 0.0929
_symmetry_cell_setting triclinic
_symmetry_space_group_name_H-M 'P 1'
_symmetry_Int_Tables_number 1
loop_
_symmetry_equiv_pos_site_id
_symmetry_equiv_pos_as_xyz
1 x,y,z
_cell_length_a 9.2607(19)
_cell_length_b 9.601(2)
_cell_length_c 11.807(3)
_cell_angle_alpha 67.821(15)
_cell_angle_beta 89.778(17)
_cell_angle_gamma 89.44(2)
_cell_formula_units_Z 2
loop_
_atom_type_symbol
_atom_type_radius_bond
C 0.68
H 0.23
N 0.68
O 0.68
loop_
_atom_site_label
_atom_site_type_symbol
_atom_site_fract_x
_atom_site_fract_y
_atom_site_fract_z
C1 C 0.9048(7) 0.7680(7) 0.1041(5)
C2 C 0.9938(7) 0.6945(7) 0.2205(5)
H1 H 0.97320 0.58450 0.24960
C3 C 0.9499(7) 0.7432(8) 0.3291(6)
H2 H 0.99120 0.84480 0.31300
C4 C 0.7869(8) 0.7553(8) 0.3332(6)
C5 C 0.7050(8) 0.6098(9) 0.3956(7)
H3 H 0.70280 0.55390 0.34030
H4 H 0.60400 0.63460 0.40930
C6 C 0.7714(9) 0.5066(9) 0.5199(7)
H5 H 0.75730 0.55320 0.58100
H6 H 0.72220 0.40820 0.55010
C7 C 0.9309(9) 0.4836(9) 0.5044(7)
H7 H 0.94250 0.43160 0.44580
C8 C 0.9947(11) 0.3831(12) 0.6266(8)
H8 H 1.09790 0.36740 0.61670
H9 H 0.94560 0.28600 0.65620
H10 H 0.98180 0.43120 0.68590
C9 C 1.0100(8) 0.6318(9) 0.4534(6)
H11 H 1.11310 0.61130 0.44290
H12 H 1.00460 0.68050 0.51380
C10 C 1.1558(7) 0.7095(7) 0.1912(5)
C11 C 1.2456(7) 0.8120(8) 0.2148(6)
H13 H 1.20490 0.87680 0.25070
C12 C 1.3904(8) 0.8222(8) 0.1878(6)
H14 H 1.44940 0.89020 0.20750
C13 C 1.4494(8) 0.7318(9) 0.1312(6)
H15 H 1.54890 0.74030 0.11010
C14 C 1.3652(8) 0.6290(8) 0.1049(7)
H16 H 1.40770 0.56560 0.06840
C15 C 1.2196(7) 0.6191(7) 0.1319(6)
C16 C 1.1840(9) 0.4340(8) 0.0456(7)
H17 H 1.10800 0.37040 0.03390
H18 H 1.26250 0.37030 0.09420
H19 H 1.22150 0.49970 -0.03430
C17 C 0.8311(8) 0.6987(8) 0.0430(6)
H20 H 0.78840 0.75980 -0.03270
C18 C 0.8114(8) 0.5332(8) 0.0855(7)
C19 C 0.7818(12) 0.337(1) 0.0149(9)
H21 H 0.83020 0.27250 0.09170
H22 H 0.82180 0.31070 -0.05240
C20 C 0.6210(14) 0.3065(15) 0.0258(15)
H23 H 0.60460 0.19960 0.04350
H24 H 0.57340 0.36730 -0.05130
H25 H 0.58110 0.33280 0.09220
N1 N 0.9067(7) 0.9355(6) 0.0475(5)
O1 O 0.9873(6) 1.0005(5) 0.0919(5)
O2 O 0.8269(9) 0.9974(7) -0.0395(7)
O3 O 0.7252(6) 0.8767(6) 0.2905(5)
O4 O 1.1260(5) 0.5235(5) 0.1079(4)
O5 O 0.7936(6) 0.4496(6) 0.1892(5)
O6 O 0.8112(7) 0.4912(6) -0.0085(5)
C21 C 0.3363(7) 0.8372(7) 0.5823(5)
C22 C 0.2491(7) 0.9113(7) 0.6533(5)
H26 H 0.26880 1.02140 0.61330
C23 C 0.2970(7) 0.8650(7) 0.7890(5)
H27 H 0.26030 0.76140 0.83560
C24 C 0.4622(8) 0.8591(8) 0.7979(6)
C25 C 0.5384(8) 1.0057(9) 0.7653(7)
H28 H 0.53340 1.06170 0.67580
H29 H 0.64150 0.98640 0.78850
C26 C 0.4709(9) 1.1018(8) 0.8306(7)
H30 H 0.49020 1.05310 0.91940
H31 H 0.51720 1.20170 0.80050
C27 C 0.3085(9) 1.1224(8) 0.8098(7)
H32 H 0.29010 1.17950 0.72080
C28 C 0.2462(11) 1.2124(10) 0.8821(8)
H33 H 0.14230 1.22790 0.86630
H34 H 0.29400 1.31010 0.85660
H35 H 0.26240 1.15660 0.96970
C29 C 0.2344(7) 0.9696(8) 0.8489(6)
H36 H 0.13050 0.98640 0.82840
H37 H 0.24240 0.91840 0.93880
C30 C 0.0862(7) 0.8944(7) 0.6383(6)
C31 C -0.0001(7) 0.7879(8) 0.7261(6)
H38 H 0.04350 0.72240 0.80000
C32 C -0.1438(8) 0.7750(8) 0.7094(6)
H39 H -0.19970 0.70300 0.77130
C33 C -0.2090(8) 0.8696(10) 0.5990(7)
H40 H -0.30870 0.85930 0.58570
C34 C -0.1292(8) 0.9767(9) 0.5105(7)
H41 H -0.17440 1.04300 0.43780
C35 C 0.0195(7) 0.9876(8) 0.5282(7)
C36 C 0.0423(11) 1.1824(9) 0.3315(7)
H42 H 0.11440 1.25220 0.28020
H43 H -0.03870 1.23970 0.34650
H44 H 0.00710 1.11860 0.28960
C37 C 0.4015(7) 0.8980(8) 0.4756(6)
H45 H 0.45130 0.83060 0.44700
C38 C 0.4063(8) 1.0611(9) 0.3942(7)
C39 C 0.4603(14) 1.3074(10) 0.3841(9)
H46 H 0.56130 1.34140 0.38130
H47 H 0.42820 1.32920 0.29920
C40 C 0.3695(12) 1.3881(10) 0.4387(9)
H48 H 0.37570 1.49640 0.39070
H49 H 0.40180 1.36710 0.52260
H50 H 0.26920 1.35580 0.44000
N2 N 0.3439(7) 0.6703(6) 0.6342(5)
O7 O 0.2556(6) 0.6032(5) 0.7162(5)
O8 O 0.4381(9) 0.6061(6) 0.6000(7)
O9 O 0.5265(6) 0.7398(6) 0.8323(5)
O10 O 0.1063(6) 1.0907(6) 0.4451(4)
O11 O 0.3788(7) 1.1053(6) 0.2875(5)
O12 O 0.4532(7) 1.1459(6) 0.4548(5)
#END
