
#######################################################################
#
#                 Cambridge Crystallographic Data Centre
#                                CCDC
#
#######################################################################
#
# If this CIF has been generated from an entry in the Cambridge
# Structural Database, then it will include bibliographic, chemical,
# crystal, experimental, refinement or atomic coordinate data resulting
# from the CCDC's data processing and validation procedures.
#
#######################################################################

data_CSD_CIF_QOJMIN
_audit_creation_date 2014-08-14
_audit_creation_method CSD-ConQuest-V1
_database_code_CSD QOJMIN
_database_code_depnum_ccdc_archive 'CCDC 999310'
_chemical_formula_sum 'C23 H23 N1 O5'
_chemical_formula_moiety
;
C23 H23 N1 O5
;
_journal_coden_Cambridge 1336
_journal_volume 16
_journal_year 2014
_journal_page_first 3636
_journal_name_full 'Org.Lett. '
loop_
_publ_author_name
"R.Hahn"
"G.Raabe"
"D.Enders"
_chemical_name_systematic
;
1-(2-methoxy-2-methyl-5-nitro-4-phenyl-6-(phenylethynyl)tetrahydro-2H-pyran-3-
yl)ethanone
;
_cell_volume   2046.126
_exptl_crystal_colour 'colorless'
_exptl_crystal_density_diffrn 1.277
_exptl_crystal_description 'irregular'
_diffrn_ambient_temperature 120
#These two values have been output from a single CSD field.
_refine_ls_R_factor_gt 0.033
_refine_ls_wR_factor_gt 0.033
_symmetry_cell_setting orthorhombic
_symmetry_space_group_name_H-M 'P 21 21 21'
_symmetry_Int_Tables_number 19
loop_
_symmetry_equiv_pos_site_id
_symmetry_equiv_pos_as_xyz
1 x,y,z
2 1/2-x,-y,1/2+z
3 1/2+x,1/2-y,-z
4 -x,1/2+y,1/2-z
_cell_length_a 5.7640(2)
_cell_length_b 14.8789(5)
_cell_length_c 23.8582(10)
_cell_angle_alpha 90
_cell_angle_beta 90
_cell_angle_gamma 90
_cell_formula_units_Z 4
loop_
_atom_type_symbol
_atom_type_radius_bond
C 0.68
H 0.23
N 0.68
O 0.68
loop_
_atom_site_label
_atom_site_type_symbol
_atom_site_fract_x
_atom_site_fract_y
_atom_site_fract_z
O1 O -0.2482(2) 0.96880(7) 0.25702(5)
O2 O 0.3202(2) 0.95459(8) 0.44769(5)
C1 C -0.1082(3) 0.69504(12) 0.45523(9)
C2 C 0.1127(3) 1.12834(10) 0.36636(7)
N1 N 0.2873(2) 0.95945(8) 0.39724(6)
C3 C -0.3454(3) 1.04821(12) 0.23190(9)
C4 C 0.0172(3) 0.79504(9) 0.38132(7)
C5 C 0.2842(3) 1.27107(10) 0.41705(7)
C6 C 0.0889(4) 0.64343(11) 0.44788(8)
C7 C -0.1437(3) 0.77064(10) 0.42196(8)
C8 C 0.2381(4) 1.38709(12) 0.48649(9)
C9 C 0.2512(4) 0.66747(10) 0.40795(8)
C10 C -0.0325(3) 0.87830(9) 0.34589(7)
C11 C 0.0060(3) 1.04933(10) 0.34039(7)
C12 C 0.2157(3) 0.74336(10) 0.37437(8)
C13 C -0.0047(3) 0.96426(10) 0.25513(7)
C14 C 0.0673(3) 0.87689(10) 0.28640(7)
C15 C 0.5719(4) 1.38722(12) 0.42642(9)
C16 C 0.1566(3) 1.30982(11) 0.46054(8)
C17 C 0.4441(4) 1.42571(11) 0.46922(9)
C18 C 0.0392(3) 0.96494(10) 0.37724(7)
C19 C 0.4924(3) 1.30966(12) 0.39998(8)
C20 C 0.0910(3) 0.96882(12) 0.19620(7)
C21 C -0.2448(3) 0.75708(12) 0.25771(8)
C22 C 0.1956(3) 1.19152(10) 0.39001(7)
O3 O 0.09533(18) 1.03865(7) 0.28520(5)
O4 O 0.4422(2) 0.95932(8) 0.36223(6)
O5 O 0.1438(2) 0.75623(8) 0.22455(6)
C23 C -0.0009(3) 0.79239(10) 0.25333(7)
H1 H 0.584(5) 1.2848(13) 0.3712(11)
H2 H 0.714(5) 1.4119(13) 0.4164(10)
H3 H 0.503(6) 1.4774(16) 0.4888(13)
H4 H 0.159(5) 1.4128(15) 0.5148(12)
H5 H 0.022(5) 1.2850(13) 0.4726(10)
H6 H 0.234(4) 0.8774(10) 0.2878(8)
H7 H -0.195(4) 0.8853(11) 0.3430(8)
H8 H -0.157(4) 1.0558(12) 0.3395(9)
H9 H 0.259(4) 0.9486(12) 0.1954(9)
H10 H 0.072(4) 1.0290(13) 0.1810(9)
H11 H 0.008(5) 0.9322(15) 0.1719(11)
H12 H -0.341(5) 0.8012(15) 0.2506(10)
H13 H -0.258(5) 0.7102(15) 0.2366(11)
H14 H -0.283(7) 0.7392(19) 0.2946(15)
H15 H -0.211(5) 0.6785(15) 0.4814(11)
H16 H -0.284(4) 0.8034(12) 0.424(1)
H17 H 0.117(4) 0.5907(13) 0.4714(10)
H18 H 0.387(4) 0.6335(13) 0.4052(10)
H19 H 0.322(4) 0.7573(12) 0.3468(9)
H20 H -0.047(3) 0.9709(11) 0.4121(9)
H21 H -0.352(4) 1.0424(13) 0.1892(10)
H22 H -0.253(4) 1.1013(13) 0.2390(9)
H23 H -0.500(5) 1.0546(14) 0.2442(10)
#END
