
#######################################################################
#
#                 Cambridge Crystallographic Data Centre
#                                CCDC
#
#######################################################################
#
# If this CIF has been generated from an entry in the Cambridge
# Structural Database, then it will include bibliographic, chemical,
# crystal, experimental, refinement or atomic coordinate data resulting
# from the CCDC's data processing and validation procedures.
#
#######################################################################

data_CSD_CIF_QOJWAO
_audit_creation_date 2009-03-02
_audit_creation_method CSD-ConQuest-V1
_database_code_CSD QOJWAO
_database_code_depnum_ccdc_archive 'CCDC 693627'
_chemical_formula_sum 'C23 H23 N1 O8'
_chemical_formula_moiety
;
C23 H23 N1 O8
;
_journal_coden_Cambridge 177
_journal_volume 6
_journal_year 2008
_journal_page_first 4012
_journal_name_full 'Org.Biomol.Chem. '
loop_
_publ_author_name
"J.S.Clark"
"J.M.Northall"
"F.Marlin"
"B.Nay"
"C.Wilson"
"A.J.Blake"
"M.J.Waring"
_chemical_name_systematic
;
(4S*,5S*,6R*,7aR*)-5-Hydroxy-9-oxo-4-propyl-5,6,7,7a,9,11-hexahydro-4H-2,8-dio
xadicyclopenta(a,d)cyclononen-6-yl 4-nitobenzoate
;
_chemical_melting_point 445.15
_cell_volume   2156.926
_exptl_crystal_colour 'colorless'
_exptl_crystal_density_diffrn 1.359
_exptl_special_details
;
Melting point range 445.15-448.15K

;
_exptl_crystal_description 'hexagonal plate'
_exptl_crystal_preparation 'dichloromethane/hexane'
_diffrn_ambient_temperature 150
#These two values have been output from a single CSD field.
_refine_ls_R_factor_gt 0.0406
_refine_ls_wR_factor_gt 0.0406
_symmetry_cell_setting monoclinic
_symmetry_space_group_name_H-M 'P 21/c'
_symmetry_Int_Tables_number 14
loop_
_symmetry_equiv_pos_site_id
_symmetry_equiv_pos_as_xyz
1 x,y,z
2 -x,1/2+y,1/2-z
3 -x,-y,-z
4 x,-1/2-y,-1/2+z
_cell_length_a 7.2351(7)
_cell_length_b 25.532(2)
_cell_length_c 12.0626(12)
_cell_angle_alpha 90
_cell_angle_beta 104.539(2)
_cell_angle_gamma 90
_cell_formula_units_Z 4
loop_
_atom_type_symbol
_atom_type_radius_bond
C 0.68
H 0.23
N 0.68
O 0.68
loop_
_atom_site_label
_atom_site_type_symbol
_atom_site_fract_x
_atom_site_fract_y
_atom_site_fract_z
O1 O 0.09095(13) 0.26772(4) -0.07716(8)
N1 N 1.03830(17) 0.03491(5) 0.23048(11)
C1 C 0.17212(18) 0.31907(5) -0.04450(11)
H1 H 0.17340 0.33950 -0.11500
O2 O -0.16000(16) 0.22146(5) -0.05545(9)
C2 C 0.03317(18) 0.34404(5) 0.01448(11)
O3 O 0.49122(15) 0.47403(4) 0.11123(9)
C3 C 0.03885(19) 0.40042(5) 0.04977(12)
H2 H -0.02990 0.42140 -0.01690
H3 H -0.03140 0.40410 0.11000
O4 O 0.67039(13) 0.32996(4) 0.24264(8)
H4 H 0.75170 0.31880 0.30030
C4 C 0.23431(19) 0.42314(5) 0.09385(11)
O5 O 0.51153(13) 0.23679(3) 0.14051(8)
C5 C 0.37749(18) 0.40668(5) 0.19360(11)
O6 O 0.33822(15) 0.18943(4) 0.23541(10)
C6 C 0.36541(18) 0.36097(5) 0.27031(11)
H5 H 0.22900 0.34950 0.25280
O7 O 1.16759(17) 0.04168(5) 0.18372(12)
C7 C 0.48511(18) 0.31390(5) 0.24859(11)
H6 H 0.50080 0.28960 0.31530
O8 O 1.02447(16) -0.00374(4) 0.28757(11)
C8 C 0.39161(18) 0.28296(5) 0.14067(11)
H7 H 0.26140 0.27150 0.14480
C9 C 0.37748(17) 0.31101(5) 0.02639(11)
H8 H 0.44060 0.34560 0.04190
H9 H 0.44770 0.29030 -0.01920
C10 C -0.09863(19) 0.30889(6) 0.02157(12)
H10 H -0.19760 0.31390 0.05950
C11 C -0.0673(2) 0.26146(6) -0.03797(12)
C12 C 0.3102(2) 0.46332(6) 0.04757(12)
H11 H 0.24680 0.48160 -0.01980
C13 C 0.5275(2) 0.43889(5) 0.19951(12)
H12 H 0.64360 0.43730 0.25760
C14 C 0.4261(2) 0.37631(6) 0.39795(12)
H13 H 0.42090 0.34470 0.44480
H14 H 0.56030 0.38850 0.41640
C15 C 0.3029(2) 0.41910(6) 0.43187(13)
H15 H 0.35510 0.42760 0.51380
H16 H 0.31160 0.45110 0.38710
C16 C 0.0945(3) 0.40411(8) 0.41279(16)
H17 H 0.02420 0.43320 0.43620
H18 H 0.08410 0.37300 0.45840
H19 H 0.04060 0.39650 0.33150
C17 C 0.47451(19) 0.19430(5) 0.19592(11)
C18 C 0.62407(18) 0.15313(5) 0.20349(11)
C19 C 0.5919(2) 0.10389(5) 0.24439(12)
H20 H 0.47740 0.09720 0.26690
C20 C 0.7268(2) 0.06457(5) 0.25240(13)
H21 H 0.70630 0.03070 0.27970
C21 C 0.89155(19) 0.07603(5) 0.21957(11)
C22 C 0.92735(19) 0.12453(5) 0.17860(12)
H22 H 1.04210 0.13110 0.15630
C23 C 0.79125(19) 0.16328(5) 0.17103(11)
H23 H 0.81240 0.19700 0.14340
#END
