
#######################################################################
#
#                 Cambridge Crystallographic Data Centre
#                                CCDC
#
#######################################################################
#
# If this CIF has been generated from an entry in the Cambridge
# Structural Database, then it will include bibliographic, chemical,
# crystal, experimental, refinement or atomic coordinate data resulting
# from the CCDC's data processing and validation procedures.
#
#######################################################################

data_CSD_CIF_QOKQUD
_audit_creation_date 2009-03-02
_audit_creation_method CSD-ConQuest-V1
_database_code_CSD QOKQUD
_database_code_depnum_ccdc_archive 'CCDC 709806'
_chemical_formula_sum 'C16 H19 N1 O3'
_chemical_formula_moiety
;
C16 H19 N1 O3
;
_journal_coden_Cambridge 4
_journal_volume 130
_journal_year 2008
_journal_page_first 12276
_journal_name_full 'J.Am.Chem.Soc. '
loop_
_publ_author_name
"J.N.Payette"
"H.Yamamoto"
_chemical_name_systematic
;
Ethyl 2-(hydroxy(phenyl)amino)bicyclo[2.2.1]hept-5-ene-2-carboxylate
;
_cell_volume    698.181
_exptl_crystal_density_diffrn 1.3
_diffrn_ambient_temperature 103
#These two values have been output from a single CSD field.
_refine_ls_R_factor_gt 0.0474
_refine_ls_wR_factor_gt 0.0474
_symmetry_cell_setting triclinic
_symmetry_space_group_name_H-M 'P -1'
_symmetry_Int_Tables_number 2
loop_
_symmetry_equiv_pos_site_id
_symmetry_equiv_pos_as_xyz
1 x,y,z
2 -x,-y,-z
_cell_length_a 9.2966(18)
_cell_length_b 9.4895(18)
_cell_length_c 9.5352(18)
_cell_angle_alpha 104.005(3)
_cell_angle_beta 116.032(3)
_cell_angle_gamma 99.246(3)
_cell_formula_units_Z 2
loop_
_atom_type_symbol
_atom_type_radius_bond
C 0.68
H 0.23
N 0.68
O 0.68
loop_
_atom_site_label
_atom_site_type_symbol
_atom_site_fract_x
_atom_site_fract_y
_atom_site_fract_z
C1 C 0.38810(19) 0.64113(17) 0.16136(19)
H1 H 0.38200 0.58270 0.22780
C2 C 0.52633(19) 0.66735(18) 0.13910(19)
H2 H 0.61620 0.62910 0.19260
C3 C 0.5338(2) 0.74883(19) 0.0394(2)
H3 H 0.62870 0.76700 0.02430
C4 C 0.4023(2) 0.80407(18) -0.0386(2)
H4 H 0.40670 0.85910 -0.10840
C5 C 0.26403(19) 0.77987(17) -0.01586(19)
H5 H 0.17400 0.81760 -0.07010
C6 C 0.25843(18) 0.70015(16) 0.08671(18)
C7 C 0.12355(18) 0.77886(17) 0.25856(18)
C8 C 0.27780(19) 0.79578(18) 0.42678(18)
H6 H 0.38720 0.80500 0.42840
C9 C 0.2082(2) 0.65640(19) 0.4599(2)
H7 H 0.17400 0.55860 0.36980
H8 H 0.28600 0.65240 0.56940
C10 C 0.0590(2) 0.7060(2) 0.4568(2)
H9 H -0.01400 0.64040 0.48310
C11 C 0.1472(2) 0.8680(2) 0.5759(2)
H10 H 0.11560 0.92200 0.64990
C12 C 0.2772(2) 0.92209(19) 0.5591(2)
H11 H 0.35560 1.02170 0.61900
C13 C -0.02740(19) 0.71367(19) 0.2788(2)
H12 H -0.09740 0.61110 0.19370
H13 H -0.09850 0.78200 0.27020
C14 C 0.12383(19) 0.93128(17) 0.23090(18)
C15 C 0.2953(2) 1.15202(17) 0.2405(2)
H14 H 0.20040 1.13540 0.12930
H15 H 0.40090 1.18030 0.23750
C16 C 0.2964(2) 1.28073(18) 0.3696(2)
H16 H 0.18390 1.26280 0.35710
H17 H 0.32870 1.37710 0.35460
H18 H 0.37740 1.28610 0.48120
N1 N 0.11744(15) 0.66530(14) 0.11452(15)
O1 O -0.03315(13) 0.65529(12) -0.03267(13)
H19 H -0.08590 0.56320 -0.09290
O2 O 0.27927(12) 1.01136(11) 0.27561(13)
O3 O 0.00206(13) 0.97403(12) 0.17437(13)
#END
