
#######################################################################
#
#                 Cambridge Crystallographic Data Centre
#                                CCDC
#
#######################################################################
#
# If this CIF has been generated from an entry in the Cambridge
# Structural Database, then it will include bibliographic, chemical,
# crystal, experimental, refinement or atomic coordinate data resulting
# from the CCDC's data processing and validation procedures.
#
#######################################################################

data_CSD_CIF_QOKYAR
_audit_creation_date 2009-03-02
_audit_creation_method CSD-ConQuest-V1
_database_code_CSD QOKYAR
_database_code_depnum_ccdc_archive 'CCDC 658026'
_chemical_formula_sum 'C19 H16 N2 O2'
_chemical_formula_moiety
;
C19 H16 N2 O2
;
_journal_coden_Cambridge 122
_journal_year 2007
_journal_page_first 1390
_journal_name_full 'Khim.Get.Soedin.,SSSR(Russ.)(Chem.Heterocycl.Compd.) '
loop_
_publ_author_name
"S.V.Volkov"
"A.N.Levov"
"A.T.Soldatenkov"
"N.M.Kolyadina"
"O.E.Volkova"
"V.N.Khrustalev"
_chemical_name_systematic
;
2-Methyl-4-nitro-9-phenyl-2,3-dihydro-1H-indeno(2,1-c)pyridine
;
_chemical_melting_point 375.15
_cell_volume   1544.213
_exptl_crystal_colour 'garnet red'
_exptl_crystal_density_diffrn 1.309
_exptl_special_details
;
Melting point range 375.15-376.15K

;
_exptl_crystal_description 'prism'
_exptl_crystal_preparation 'benzene'
_diffrn_ambient_temperature 295
#These two values have been output from a single CSD field.
_refine_ls_R_factor_gt 0.0555
_refine_ls_wR_factor_gt 0.0555
_symmetry_cell_setting monoclinic
_symmetry_space_group_name_H-M 'P 21/c'
_symmetry_Int_Tables_number 14
loop_
_symmetry_equiv_pos_site_id
_symmetry_equiv_pos_as_xyz
1 x,y,z
2 -x,1/2+y,1/2-z
3 -x,-y,-z
4 x,-1/2-y,-1/2+z
_cell_length_a 10.757(2)
_cell_length_b 15.027(3)
_cell_length_c 10.025(2)
_cell_angle_alpha 90
_cell_angle_beta 107.65(2)
_cell_angle_gamma 90
_cell_formula_units_Z 4
loop_
_atom_type_symbol
_atom_type_radius_bond
C 0.68
H 0.23
N 0.68
O 0.68
loop_
_atom_site_label
_atom_site_type_symbol
_atom_site_fract_x
_atom_site_fract_y
_atom_site_fract_z
O1 O -0.1769(2) 0.0823(2) 0.2708(2)
O2 O -0.1112(2) 0.0684(2) 0.0951(2)
N1 N -0.0907(2) 0.07982(15) 0.2189(2)
C1 C 0.3172(2) 0.11312(15) 0.4280(2)
H1 H 0.33050 0.17000 0.38860
H2 H 0.40060 0.09300 0.48970
N2 N 0.2678(2) 0.04922(13) 0.3169(2)
C2 C 0.1408(3) 0.07410(17) 0.2261(2)
H3 H 0.10840 0.02740 0.15750
H4 H 0.14870 0.12800 0.17600
C3 C 0.0451(2) 0.08935(14) 0.3046(2)
C4 C 0.0827(2) 0.11125(13) 0.4424(2)
C5 C 0.0193(2) 0.12858(13) 0.5523(2)
C6 C -0.1077(2) 0.12935(15) 0.5567(3)
H5 H -0.17630 0.11590 0.47710
C7 C -0.1318(3) 0.15052(17) 0.6814(3)
H6 H -0.21750 0.15200 0.68390
C8 C -0.0333(3) 0.16919(16) 0.8002(3)
H7 H -0.05240 0.18310 0.88230
C9 C 0.0962(2) 0.16760(14) 0.7992(2)
H8 H 0.16400 0.18010 0.88000
C10 C 0.1214(2) 0.14715(13) 0.6765(2)
C11 C 0.2477(2) 0.14284(13) 0.6459(2)
C12 C 0.2231(2) 0.12347(13) 0.5085(2)
C13 C 0.3585(3) 0.0346(2) 0.2369(3)
H9 H 0.32240 -0.00820 0.16430
H10 H 0.43970 0.01260 0.29780
H11 H 0.37330 0.08970 0.19560
C14 C 0.3763(2) 0.15807(13) 0.7486(2)
C15 C 0.4657(2) 0.21521(15) 0.7189(2)
H12 H 0.44430 0.24350 0.63230
C16 C 0.5851(2) 0.23071(16) 0.8149(3)
H13 H 0.64320 0.27020 0.79420
C17 C 0.6187(2) 0.18776(17) 0.9418(3)
H14 H 0.69970 0.19810 1.00690
C18 C 0.5332(2) 0.12984(15) 0.9726(2)
H15 H 0.55690 0.10030 1.05810
C19 C 0.4129(2) 0.11510(14) 0.8783(2)
H16 H 0.35510 0.07620 0.90090
#END
