
#######################################################################
#
#                 Cambridge Crystallographic Data Centre
#                                CCDC
#
#######################################################################
#
# If this CIF has been generated from an entry in the Cambridge
# Structural Database, then it will include bibliographic, chemical,
# crystal, experimental, refinement or atomic coordinate data resulting
# from the CCDC's data processing and validation procedures.
#
#######################################################################

data_CSD_CIF_QOLXIY
_audit_creation_date 2001-08-09
_audit_creation_method CSD-ConQuest-V1
_database_code_CSD QOLXIY
_database_code_depnum_ccdc_archive 'CCDC 163410'
_chemical_formula_sum 'C10 H13 N5 O6'
_chemical_formula_moiety
;
C10 H13 N5 O6
;
_journal_coden_Cambridge 35
_journal_volume 66
_journal_year 2001
_journal_page_first 3090
_journal_name_full 'J.Org.Chem. '
loop_
_publ_author_name
"J.E.Saavedra"
"A.Srinivasan"
"C.L.Bonifant"
"Jingxi Chu"
"A.P.Shanklin"
"J.L.Flippen-Anderson"
"W.G.Rice"
"J.A.Turpin"
"K.M.Davies"
"L.K.Keefer"
_chemical_name_systematic
;
2-(2,4-Dinitrophenoxy)-1-(diethylamino)diazene 1-oxide
;
_chemical_melting_point 349.15
_cell_volume   1364.003
_exptl_crystal_colour 'pale yellow'
_exptl_crystal_density_diffrn 1.457
_exptl_special_details
;
Melting point range 349.15-350.15K

;
_exptl_crystal_description 'prism'
_exptl_crystal_preparation 'ethanol'
_diffrn_ambient_temperature ?
_diffrn_special_details
;
The study was carried out at room temperature,in the range 283-303K

;
#These two values have been output from a single CSD field.
_refine_ls_R_factor_gt 0.0592
_refine_ls_wR_factor_gt 0.0592
_symmetry_cell_setting triclinic
_symmetry_space_group_name_H-M 'P -1'
_symmetry_Int_Tables_number 2
loop_
_symmetry_equiv_pos_site_id
_symmetry_equiv_pos_as_xyz
1 x,y,z
2 -x,-y,-z
_cell_length_a 7.341(1)
_cell_length_b 7.748(2)
_cell_length_c 24.434(4)
_cell_angle_alpha 92.52(1)
_cell_angle_beta 93.54(1)
_cell_angle_gamma 99.98(2)
_cell_formula_units_Z 4
loop_
_atom_type_symbol
_atom_type_radius_bond
C 0.68
H 0.23
N 0.68
O 0.68
loop_
_atom_site_label
_atom_site_type_symbol
_atom_site_fract_x
_atom_site_fract_y
_atom_site_fract_z
N1 N 0.3560(4) -0.1191(3) 0.12218(11)
O1 O 0.5225(3) -0.1137(4) 0.11511(10)
C1 C 0.3813(4) 0.0974(4) 0.24502(13)
N2 N 0.2874(4) -0.0426(4) 0.16154(11)
O2 O 0.4404(3) 0.0427(3) 0.19648(9)
C2 C 0.5072(4) 0.2081(4) 0.28151(13)
N3 N 0.7003(4) 0.2702(4) 0.26864(14)
O3 O 0.7539(4) 0.2255(5) 0.22669(15)
O4 O 0.7975(4) 0.3696(5) 0.30095(15)
N4 N 0.2241(4) -0.2282(4) 0.08696(11)
C3 C 0.0307(5) -0.2088(5) 0.09525(14)
H1 H 0.01230 -0.09320 0.08500
H2 H 0.00890 -0.21830 0.13380
C4 C -0.1059(6) -0.3456(6) 0.06191(17)
H3 H -0.22960 -0.32910 0.06830
H4 H -0.08950 -0.46010 0.07240
H5 H -0.08610 -0.33510 0.02360
C5 C 0.2814(5) -0.2378(5) 0.03027(14)
H6 H 0.21100 -0.34340 0.01130
H7 H 0.41120 -0.24860 0.03160
C6 C 0.2559(6) -0.0849(6) -0.00232(16)
H8 H 0.29640 -0.10160 -0.03850
H9 H 0.32770 0.02020 0.01540
H10 H 0.12720 -0.07480 -0.00490
C7 C 0.4552(5) 0.2669(4) 0.33099(14)
H11 H 0.54000 0.34130 0.35500
C8 C 0.2764(5) 0.2143(4) 0.34441(13)
N5 N 0.2222(5) 0.2769(4) 0.39721(13)
O5 O 0.0629(5) 0.2268(4) 0.40872(12)
O6 O 0.3378(5) 0.3746(4) 0.42720(12)
C9 C 0.1496(5) 0.1045(4) 0.30999(14)
H12 H 0.02920 0.06980 0.32010
C10 C 0.2004(4) 0.0457(4) 0.26039(14)
H13 H 0.11410 -0.02900 0.23690
N6 N 0.2944(4) 0.8011(4) 0.38521(11)
O7 O 0.4408(3) 0.9062(3) 0.39590(11)
C11 C 0.3777(4) 0.6287(4) 0.26328(13)
N7 N 0.2563(4) 0.6875(4) 0.34465(12)
O8 O 0.4140(3) 0.7177(3) 0.31289(9)
C12 C 0.5241(4) 0.6358(4) 0.22852(14)
N8 N 0.7075(4) 0.7403(4) 0.24419(13)
O9 O 0.7238(4) 0.8553(5) 0.27974(15)
O10 O 0.8360(4) 0.7100(4) 0.21844(14)
N9 N 0.1482(4) 0.8114(4) 0.41775(12)
C13 C -0.0180(5) 0.6780(6) 0.40447(18)
H14 H 0.00270 0.56760 0.41870
H15 H -0.03930 0.66080 0.36490
C14 C -0.1851(6) 0.7269(7) 0.4275(2)
H16 H -0.29000 0.63590 0.41780
H17 H -0.20780 0.83490 0.41300
H18 H -0.16570 0.74160 0.46680
C15 C 0.2085(6) 0.8691(5) 0.47480(15)
H19 H 0.10250 0.89580 0.49320
H20 H 0.29850 0.97680 0.47510
C16 C 0.2923(7) 0.7401(6) 0.50683(18)
H21 H 0.32760 0.78820 0.54360
H22 H 0.39980 0.71510 0.48970
H23 H 0.20340 0.63380 0.50780
C17 C 0.4999(5) 0.5458(4) 0.17830(14)
H24 H 0.59820 0.54880 0.15590
C18 C 0.3294(5) 0.4520(4) 0.16172(13)
N10 N 0.3021(5) 0.3603(4) 0.10721(13)
O11 O 0.1468(5) 0.2866(4) 0.09124(12)
O12 O 0.4362(5) 0.3642(5) 0.07988(13)
C19 C 0.1822(5) 0.4440(4) 0.19450(14)
H25 H 0.06660 0.38010 0.18220
C20 C 0.2071(4) 0.5303(4) 0.24498(13)
H26 H 0.10840 0.52300 0.26740
#END
