
#######################################################################
#
#                 Cambridge Crystallographic Data Centre
#                                CCDC
#
#######################################################################
#
# If this CIF has been generated from an entry in the Cambridge
# Structural Database, then it will include bibliographic, chemical,
# crystal, experimental, refinement or atomic coordinate data resulting
# from the CCDC's data processing and validation procedures.
#
#######################################################################

data_CSD_CIF_QONMUC
_audit_creation_date 2009-06-25
_audit_creation_method CSD-ConQuest-V1
_database_code_CSD QONMUC
_database_code_depnum_ccdc_archive 'CCDC 642712'
_chemical_formula_sum 'C12 H8 N4 O6'
_chemical_formula_moiety
;
C12 H8 N4 O6
;
_journal_coden_Cambridge 119
_journal_volume 918
_journal_year 2009
_journal_page_first 19
_journal_name_full 'J.Mol.Struct. '
loop_
_publ_author_name
"I.Halasz"
"I.Biljan"
"P.Novak"
"E.Mestrovic"
"J.Plavec"
"G.Mali"
"V.Smrecki"
"H.Vancik"
_chemical_name_systematic
;
1,2-bis(4-Nitrophenyl)diazene 1,2-dioxide
;
_cell_volume   1228.767
_exptl_crystal_colour 'yellow'
_exptl_crystal_density_diffrn 1.644
_exptl_crystal_description 'needles'
_diffrn_ambient_temperature 150
#These two values have been output from a single CSD field.
_refine_ls_R_factor_gt 0.0905
_refine_ls_wR_factor_gt 0.0905
_symmetry_cell_setting orthorhombic
_symmetry_space_group_name_H-M 'P c a 21'
_symmetry_Int_Tables_number 29
loop_
_symmetry_equiv_pos_site_id
_symmetry_equiv_pos_as_xyz
1 x,y,z
2 -x,-y,1/2+z
3 1/2-x,y,1/2+z
4 1/2+x,-y,z
_cell_length_a 14.603(2)
_cell_length_b 3.6666(7)
_cell_length_c 22.949(5)
_cell_angle_alpha 90
_cell_angle_beta 90
_cell_angle_gamma 90
_cell_formula_units_Z 4
loop_
_atom_type_symbol
_atom_type_radius_bond
C 0.68
H 0.23
N 0.68
O 0.68
loop_
_atom_site_label
_atom_site_type_symbol
_atom_site_fract_x
_atom_site_fract_y
_atom_site_fract_z
C1 C 0.9428(4) 0.763(2) 0.6981(3)
C2 C 0.9184(5) 0.623(3) 0.7522(3)
H1 H 0.85780 0.56270 0.76030
C3 C 0.9864(4) 0.573(3) 0.7939(4)
H2 H 0.97250 0.47750 0.83040
C4 C 1.0751(5) 0.671(2) 0.7797(3)
C5 C 1.0991(5) 0.808(3) 0.7245(3)
H3 H 1.15970 0.86270 0.71590
C6 C 1.0314(4) 0.859(2) 0.6833(4)
H4 H 1.04500 0.95510 0.64680
N1 N 0.8683(5) 0.832(2) 0.6577(3)
N2 N 1.1478(5) 0.613(3) 0.8228(4)
O1 O 0.8019(4) 1.027(2) 0.6712(4)
O2 O 1.1292(6) 0.436(3) 0.8664(4)
O3 O 1.2230(4) 0.741(2) 0.8130(4)
C7 C 0.7998(5) 0.737(2) 0.5636(4)
C8 C 0.8233(5) 0.878(3) 0.5096(4)
H5 H 0.88400 0.93430 0.50100
C9 C 0.7552(5) 0.935(3) 0.4686(4)
H6 H 0.76900 1.02920 0.43200
C10 C 0.6658(4) 0.847(2) 0.4836(3)
C11 C 0.6425(6) 0.693(2) 0.5378(3)
H7 H 0.58280 0.62080 0.54580
C12 C 0.7113(5) 0.653(2) 0.5784(4)
H8 H 0.69790 0.56900 0.61570
N3 N 0.8745(4) 0.6820(18) 0.6042(3)
N4 N 0.5932(5) 0.906(3) 0.4406(4)
O4 O 0.9414(4) 0.4885(16) 0.5898(5)
O5 O 0.5170(5) 0.781(2) 0.4505(4)
O6 O 0.6138(6) 1.080(3) 0.3973(4)
#END
