
#######################################################################
#
#                 Cambridge Crystallographic Data Centre
#                                CCDC
#
#######################################################################
#
# If this CIF has been generated from an entry in the Cambridge
# Structural Database, then it will include bibliographic, chemical,
# crystal, experimental, refinement or atomic coordinate data resulting
# from the CCDC's data processing and validation procedures.
#
#######################################################################

data_CSD_CIF_QONRAO
_audit_creation_date 2014-08-16
_audit_creation_method CSD-ConQuest-V1
_database_code_CSD QONRAO
_database_code_depnum_ccdc_archive 'CCDC 956913'
_chemical_formula_sum 'C1 H4 N2 O2'
_chemical_formula_moiety
;
C1 H4 N2 O2
;
_journal_coden_Cambridge 1290
_journal_year 2014
_journal_page_first 4756
_journal_name_full 'Eur.J.Inorg.Chem. '
loop_
_publ_author_name
"M.A.Kettner"
"T.M.Klapotke"
"T.G.Muller"
"M.Suceska"
_chemical_name_systematic
;
N-Nitromethanamine
;
_chemical_name_common
;
Methylnitramine
;
_cell_volume    669.884
_exptl_crystal_colour 'colorless'
_exptl_crystal_density_diffrn 1.508
_exptl_crystal_description 'needle'
_diffrn_ambient_temperature 100
#These two values have been output from a single CSD field.
_refine_ls_R_factor_gt 0.0453
_refine_ls_wR_factor_gt 0.0453
_symmetry_cell_setting orthorhombic
_symmetry_space_group_name_H-M 'P b c a'
_symmetry_Int_Tables_number 61
loop_
_symmetry_equiv_pos_site_id
_symmetry_equiv_pos_as_xyz
1 x,y,z
2 1/2-x,-y,1/2+z
3 1/2+x,1/2-y,-z
4 -x,1/2+y,1/2-z
5 -x,-y,-z
6 -1/2+x,y,-1/2-z
7 -1/2-x,-1/2+y,z
8 x,-1/2-y,-1/2+z
_cell_length_a 8.865(4)
_cell_length_b 6.673(3)
_cell_length_c 11.324(6)
_cell_angle_alpha 90
_cell_angle_beta 90
_cell_angle_gamma 90
_cell_formula_units_Z 8
loop_
_atom_type_symbol
_atom_type_radius_bond
C 0.68
H 0.23
N 0.68
O 0.68
loop_
_atom_site_label
_atom_site_type_symbol
_atom_site_fract_x
_atom_site_fract_y
_atom_site_fract_z
O1 O 0.18804(15) 0.1650(2) 0.16552(13)
O2 O 0.30045(17) 0.0619(3) 0.32538(12)
N1 N 0.4349(2) 0.1544(3) 0.17213(17)
N2 N 0.30313(19) 0.1271(3) 0.22346(15)
C1 C 0.4439(3) 0.2353(4) 0.0548(2)
H1 H 0.547(3) 0.236(4) 0.039(2)
H2 H 0.389(3) 0.149(4) 0.001(2)
H3 H 0.397(3) 0.364(4) 0.0523(19)
H4 H 0.510(3) 0.153(4) 0.216(2)
#END
