
#######################################################################
#
#                 Cambridge Crystallographic Data Centre
#                                CCDC
#
#######################################################################
#
# If this CIF has been generated from an entry in the Cambridge
# Structural Database, then it will include bibliographic, chemical,
# crystal, experimental, refinement or atomic coordinate data resulting
# from the CCDC's data processing and validation procedures.
#
#######################################################################

data_CSD_CIF_QONRUI
_audit_creation_date 2014-08-16
_audit_creation_method CSD-ConQuest-V1
_database_code_CSD QONRUI
_database_code_depnum_ccdc_archive 'CCDC 957102'
_chemical_formula_sum 'C2 H6 N2 O3'
_chemical_formula_moiety
;
C2 H6 N2 O3
;
_journal_coden_Cambridge 1290
_journal_year 2014
_journal_page_first 4756
_journal_name_full 'Eur.J.Inorg.Chem. '
loop_
_publ_author_name
"M.A.Kettner"
"T.M.Klapotke"
"T.G.Muller"
"M.Suceska"
_chemical_name_systematic
;
2-Nitro-2-azapropylhydroxide
;
_chemical_name_common
;
(Methyl(nitro)amino)methanol
;
_cell_volume   1380.250
_exptl_crystal_colour 'colorless'
_exptl_crystal_density_diffrn 1.531
_exptl_crystal_description 'needle'
_diffrn_ambient_temperature 293
#These two values have been output from a single CSD field.
_refine_ls_R_factor_gt 0.0334
_refine_ls_wR_factor_gt 0.0334
_symmetry_cell_setting monoclinic
_symmetry_space_group_name_H-M 'P 21/c'
_symmetry_Int_Tables_number 14
loop_
_symmetry_equiv_pos_site_id
_symmetry_equiv_pos_as_xyz
1 x,y,z
2 -x,1/2+y,1/2-z
3 -x,-y,-z
4 x,-1/2-y,-1/2+z
_cell_length_a 6.0253(3)
_cell_length_b 19.4045(9)
_cell_length_c 11.9558(7)
_cell_angle_alpha 90
_cell_angle_beta 99.101(5)
_cell_angle_gamma 90
_cell_formula_units_Z 12
loop_
_atom_type_symbol
_atom_type_radius_bond
C 0.68
H 0.23
N 0.68
O 0.68
loop_
_atom_site_label
_atom_site_type_symbol
_atom_site_fract_x
_atom_site_fract_y
_atom_site_fract_z
O1 O 0.45978(18) 0.21958(5) 0.47451(10)
O2 O 0.55264(19) 0.30597(6) 0.58838(10)
O3 O 0.96738(19) 0.37006(5) 0.47374(10)
N1 N 0.8053(2) 0.25998(6) 0.49420(11)
N2 N 0.5951(2) 0.26259(6) 0.51965(11)
C1 C 0.8460(3) 0.21309(9) 0.40478(16)
C2 C 0.9679(3) 0.31125(8) 0.54179(13)
H1 H 0.929(3) 0.3230(8) 0.6163(14)
H2 H 1.110(3) 0.2901(8) 0.5481(12)
H3 H 0.764(3) 0.2259(9) 0.3343(16)
H4 H 0.813(3) 0.1655(9) 0.4231(14)
H5 H 0.998(3) 0.2155(9) 0.3987(14)
H6 H 1.061(3) 0.3625(10) 0.4313(16)
O4 O -0.00390(17) 0.08046(6) 0.29121(9)
O5 O -0.05817(17) 0.00564(5) 0.15346(9)
O6 O 0.38577(19) -0.05292(6) 0.12644(10)
N3 N 0.27794(19) 0.05231(6) 0.20322(10)
N4 N 0.06217(19) 0.04574(6) 0.21647(10)
C3 C 0.4219(3) 0.09347(11) 0.28556(16)
C4 C 0.3508(3) 0.01769(8) 0.10829(13)
H7 H 0.237(3) 0.0269(7) 0.0434(13)
H8 H 0.495(3) 0.0372(8) 0.1008(12)
H9 H 0.568(3) 0.0887(8) 0.2685(13)
H10 H 0.374(3) 0.1399(11) 0.2826(16)
H11 H 0.275(3) -0.0732(9) 0.0970(15)
H12 H 0.427(3) 0.0732(9) 0.3546(16)
O7 O -0.20230(18) 0.42718(7) 0.09865(10)
O8 O -0.18089(18) 0.33689(6) 0.20784(10)
O9 O 0.28223(18) 0.35533(6) 0.33868(9)
N5 N 0.12503(19) 0.37472(7) 0.14560(11)
N6 N -0.0969(2) 0.38022(7) 0.15212(11)
C5 C 0.2253(3) 0.43208(11) 0.09310(16)
C6 C 0.2571(3) 0.33022(9) 0.22762(14)
H13 H 0.382(3) 0.4223(9) 0.0972(14)
H14 H 0.393(3) 0.3271(8) 0.2002(13)
H15 H 0.188(3) 0.2866(8) 0.2277(13)
H16 H 0.156(3) 0.4363(9) 0.0168(16)
H17 H 0.211(3) 0.4727(10) 0.1336(17)
H18 H 0.375(3) 0.3865(9) 0.3451(15)
#END
