
#######################################################################
#
#                 Cambridge Crystallographic Data Centre
#                                CCDC
#
#######################################################################
#
# If this CIF has been generated from an entry in the Cambridge
# Structural Database, then it will include bibliographic, chemical,
# crystal, experimental, refinement or atomic coordinate data resulting
# from the CCDC's data processing and validation procedures.
#
#######################################################################

data_CSD_CIF_QONSAP
_audit_creation_date 2014-08-16
_audit_creation_method CSD-ConQuest-V1
_database_code_CSD QONSAP
_database_code_depnum_ccdc_archive 'CCDC 958074'
_chemical_formula_sum 'C5 H11 N5 O6'
_chemical_formula_moiety
;
C5 H11 N5 O6
;
_journal_coden_Cambridge 1290
_journal_year 2014
_journal_page_first 4756
_journal_name_full 'Eur.J.Inorg.Chem. '
loop_
_publ_author_name
"M.A.Kettner"
"T.M.Klapotke"
"T.G.Muller"
"M.Suceska"
_chemical_name_systematic
;
(Methyl(nitro)amino)methyl ((methyl(nitro)amino)methyl)carbamate
;
_chemical_name_common
;
bis(2-Nitro-2-azapropyl)carbamate
;
_cell_volume    993.826
_exptl_crystal_colour 'colorless'
_exptl_crystal_density_diffrn 1.585
_exptl_crystal_description 'block'
_diffrn_ambient_temperature 173
#These two values have been output from a single CSD field.
_refine_ls_R_factor_gt 0.0716
_refine_ls_wR_factor_gt 0.0716
_symmetry_cell_setting triclinic
_symmetry_space_group_name_H-M 'P -1'
_symmetry_Int_Tables_number 2
loop_
_symmetry_equiv_pos_site_id
_symmetry_equiv_pos_as_xyz
1 x,y,z
2 -x,-y,-z
_cell_length_a 8.2688(12)
_cell_length_b 11.4521(19)
_cell_length_c 11.6600(16)
_cell_angle_alpha 68.896(14)
_cell_angle_beta 80.785(12)
_cell_angle_gamma 75.387(13)
_cell_formula_units_Z 4
loop_
_atom_type_symbol
_atom_type_radius_bond
C 0.68
H 0.23
N 0.68
O 0.68
loop_
_atom_site_label
_atom_site_type_symbol
_atom_site_fract_x
_atom_site_fract_y
_atom_site_fract_z
O1 O 0.4751(3) 0.5952(2) 0.1061(2)
O2 O 0.8151(3) 0.1984(3) 0.0888(2)
O3 O 0.7663(4) 0.0890(3) 0.2823(3)
O4 O 0.1207(3) 0.5681(3) 0.1521(2)
O5 O 0.6608(3) 0.5454(3) 0.2485(3)
N1 N 0.7220(5) 0.4654(3) 0.0920(4)
N2 N 0.2716(4) 0.5940(3) 0.2778(3)
O6 O 0.0948(4) 0.4627(3) 0.3484(3)
N3 N 0.8116(4) 0.1798(3) 0.2009(3)
C1 C 0.8788(5) 0.3857(4) 0.1368(4)
H1 H 0.93410 0.43380 0.16880
H2 H 0.95240 0.36710 0.06700
C2 C 0.3568(5) 0.6699(3) 0.1712(4)
H3 H 0.41670 0.72000 0.19700
H4 H 0.27290 0.73130 0.11450
N4 N 0.8632(4) 0.2657(3) 0.2332(3)
N5 N 0.1572(4) 0.5381(3) 0.2588(3)
C3 C 0.8442(6) 0.2508(4) 0.3639(4)
H5 H 0.83620 0.16240 0.41300
H6 H 0.74210 0.30960 0.38100
H7 H 0.94160 0.27040 0.38570
C4 C 0.3206(5) 0.5535(4) 0.4046(4)
H8 H 0.24400 0.50220 0.46160
H9 H 0.31520 0.62930 0.42670
H10 H 0.43530 0.50210 0.40980
C5 C 0.6225(5) 0.5341(3) 0.1574(4)
H11 H 0.699(5) 0.453(4) 0.052(4)
O7 O 0.4871(3) 0.1032(3) 0.1048(2)
O8 O 0.4941(3) -0.1077(3) 0.2110(3)
N6 N 0.7195(4) -0.0419(3) 0.0892(3)
O9 O 1.0666(3) -0.0641(3) 0.1522(3)
O10 O 0.4143(4) 0.2216(3) 0.4000(3)
O11 O 0.4203(4) 0.3173(3) 0.2009(3)
O12 O 1.0532(4) -0.1528(3) 0.3533(3)
N7 N 0.3228(4) 0.1388(3) 0.2837(3)
N8 N 0.8986(4) -0.1997(3) 0.2453(3)
N9 N 1.0115(4) -0.1355(3) 0.2507(3)
N10 N 0.3892(4) 0.2310(3) 0.2953(4)
C6 C 0.3232(5) 0.1364(4) 0.1610(4)
H12 H 0.25710 0.07410 0.16420
H13 H 0.26680 0.22200 0.10850
C7 C 0.8309(5) -0.1648(4) 0.1260(3)
H14 H 0.92540 -0.16570 0.06210
H15 H 0.77040 -0.23060 0.12980
C8 C 0.5620(5) -0.0239(4) 0.1421(3)
C9 C 0.8128(5) -0.2655(4) 0.3616(4)
H16 H 0.87870 -0.27990 0.43010
H17 H 0.80040 -0.34790 0.36050
H18 H 0.70180 -0.21270 0.37220
C10 C 0.3031(6) 0.0304(4) 0.3950(4)
H19 H 0.30570 0.05360 0.46770
H20 H 0.39470 -0.04300 0.39450
H21 H 0.19560 0.00760 0.39770
H22 H 0.753(6) 0.014(4) 0.069(4)
#END
