
#######################################################################
#
#                 Cambridge Crystallographic Data Centre
#                                CCDC
#
#######################################################################
#
# If this CIF has been generated from an entry in the Cambridge
# Structural Database, then it will include bibliographic, chemical,
# crystal, experimental, refinement or atomic coordinate data resulting
# from the CCDC's data processing and validation procedures.
#
#######################################################################

data_CSD_CIF_QOPWEZ
_audit_creation_date 2014-08-18
_audit_creation_method CSD-ConQuest-V1
_database_code_CSD QOPWEZ
_database_code_depnum_ccdc_archive 'CCDC 993488'
_chemical_formula_sum 'C22 H20 N2 O2'
_chemical_formula_moiety
;
C22 H20 N2 O2
;
_journal_coden_Cambridge 1500
_journal_volume 4
_journal_year 2014
_journal_page_first 35635
_journal_name_full 'RSC Advances '
loop_
_publ_author_name
"Ya-Jun Tan"
"Ze Zhang"
"Fang-Jian Wang"
"Hao-Hao Wu"
"Qing-Hai Li"
_chemical_name_systematic
;
6-methyl-2-(3-nitrophenyl)-4-phenyl-1,2,3,4-tetrahydroquinoline unknown 
solvate
;
_cell_volume   2055.474
_exptl_crystal_colour 'yellow'
_exptl_crystal_density_diffrn 1.113
_exptl_crystal_description 'block'
_diffrn_ambient_temperature 293
_refine_special_details
;
The SQUEEZE/PLATON program has been used to model some disorder.

;
#These two values have been output from a single CSD field.
_refine_ls_R_factor_gt 0.0494
_refine_ls_wR_factor_gt 0.0494
_symmetry_cell_setting monoclinic
_symmetry_space_group_name_H-M 'P 21/n'
_symmetry_Int_Tables_number 14
loop_
_symmetry_equiv_pos_site_id
_symmetry_equiv_pos_as_xyz
1 x,y,z
2 1/2-x,1/2+y,1/2-z
3 -x,-y,-z
4 -1/2+x,-1/2-y,-1/2+z
_cell_length_a 15.3627(13)
_cell_length_b 9.0461(8)
_cell_length_c 15.4985(13)
_cell_angle_alpha 90
_cell_angle_beta 107.385(1)
_cell_angle_gamma 90
_cell_formula_units_Z 4
loop_
_atom_type_symbol
_atom_type_radius_bond
C 0.68
H 0.23
N 0.68
O 0.68
loop_
_atom_site_label
_atom_site_type_symbol
_atom_site_fract_x
_atom_site_fract_y
_atom_site_fract_z
C1 C 0.66163(8) 0.83021(13) 0.23651(8)
C2 C 0.57388(9) 0.79234(16) 0.18406(10)
H1 H 0.53100 0.76330 0.21220
C3 C 0.54977(9) 0.79736(16) 0.09095(9)
H2 H 0.49070 0.77170 0.05730
C4 C 0.61176(10) 0.83982(15) 0.04647(9)
C5 C 0.70026(9) 0.87202(14) 0.09953(8)
H3 H 0.74340 0.89740 0.07090
C6 C 0.72682(8) 0.86788(12) 0.19360(8)
C7 C 0.82305(8) 0.91231(14) 0.24873(8)
H4 H 0.82590 1.02040 0.24620
C8 C 0.84202(8) 0.87060(15) 0.34816(8)
H5 H 0.85380 0.76530 0.35530
H6 H 0.89620 0.92210 0.38390
C9 C 0.76208(8) 0.90970(14) 0.38292(8)
H7 H 0.74870 1.01540 0.37310
C10 C 0.78492(8) 0.87669(14) 0.48270(8)
C11 C 0.83709(10) 0.97866(17) 0.54355(9)
H8 H 0.85560 1.06510 0.52170
C12 C 0.86204(12) 0.9545(2) 0.63578(10)
H9 H 0.89630 1.02500 0.67520
C13 C 0.83659(11) 0.8280(2) 0.6690(1)
H10 H 0.85340 0.81050 0.73090
C14 C 0.78539(10) 0.72626(18) 0.60887(10)
C15 C 0.75882(9) 0.74838(16) 0.51565(9)
H11 H 0.72420 0.67790 0.47650
C16 C 0.89678(8) 0.85312(14) 0.21109(8)
C17 C 0.92598(9) 0.70805(16) 0.22439(9)
H12 H 0.89710 0.64280 0.25330
C18 C 0.99804(11) 0.6585(2) 0.19501(11)
H13 H 1.01800 0.56120 0.20560
C19 C 1.03954(11) 0.7531(2) 0.15046(12)
H14 H 1.08820 0.72020 0.13150
C20 C 1.00962(11) 0.8954(2) 0.13388(11)
H15 H 1.03680 0.95840 0.10200
C21 C 0.93877(9) 0.94641(17) 0.16445(9)
H16 H 0.91930 1.04390 0.15360
C22 C 0.58479(12) 0.85413(19) -0.05528(10)
H17 H 0.55880 0.95010 -0.07280
H18 H 0.54070 0.77940 -0.08230
H19 H 0.63770 0.84200 -0.07530
N1 N 0.68336(7) 0.82504(13) 0.33101(7)
N2 N 0.75813(11) 0.5884(2) 0.64290(11)
O1 O 0.70921(11) 0.50308(16) 0.58992(10)
O2 O 0.78606(14) 0.5632(2) 0.72387(10)
H20 H 0.6340(12) 0.8280(18) 0.3489(11)
#END
