
#######################################################################
#
#                 Cambridge Crystallographic Data Centre
#                                CCDC
#
#######################################################################
#
# If this CIF has been generated from an entry in the Cambridge
# Structural Database, then it will include bibliographic, chemical,
# crystal, experimental, refinement or atomic coordinate data resulting
# from the CCDC's data processing and validation procedures.
#
#######################################################################

data_CSD_CIF_QOQPIW
_audit_creation_date 2009-06-25
_audit_creation_method CSD-ConQuest-V1
_database_code_CSD QOQPIW
_database_code_depnum_ccdc_archive 'CCDC 697836'
_chemical_formula_sum 'C34 H34 N4 O4'
_chemical_formula_moiety
;
C34 H34 N4 O4
;
_journal_coden_Cambridge 179
_journal_volume 47
_journal_year 2008
_journal_page_first 8678
_journal_name_full 'Angew.Chem.,Int.Ed. '
loop_
_publ_author_name
"Hyunwoo Kim"
"Yen Nguyen"
"A.J.Lough"
"Jik Chin"
_chemical_name_systematic
;
(R,R)-N,N'-bis(mesitylmethylene)-1,2-bis(4-nitrophenyl)-1,2-ethanediamine
;
_cell_volume   3042.421
_exptl_crystal_colour 'colorless'
_exptl_crystal_density_diffrn 1.228
_exptl_crystal_description 'needle'
_diffrn_ambient_temperature 150
#These two values have been output from a single CSD field.
_refine_ls_R_factor_gt 0.048
_refine_ls_wR_factor_gt 0.048
_symmetry_cell_setting monoclinic
_symmetry_space_group_name_H-M 'C 2'
_symmetry_Int_Tables_number 5
loop_
_symmetry_equiv_pos_site_id
_symmetry_equiv_pos_as_xyz
1 x,y,z
2 -x,y,-z
3 1/2+x,1/2+y,z
4 1/2-x,1/2+y,-z
_cell_length_a 27.2150(16)
_cell_length_b 8.7120(3)
_cell_length_c 14.1740(9)
_cell_angle_alpha 90
_cell_angle_beta 115.134(2)
_cell_angle_gamma 90
_cell_formula_units_Z 4
loop_
_atom_type_symbol
_atom_type_radius_bond
C 0.68
H 0.23
N 0.68
O 0.68
loop_
_atom_site_label
_atom_site_type_symbol
_atom_site_fract_x
_atom_site_fract_y
_atom_site_fract_z
O1 O 0.18755(11) -0.0777(3) 0.05861(18)
O2 O 0.20873(11) 0.0599(3) -0.0454(2)
O3 O 0.41882(10) 0.4761(4) 0.34723(19)
O4 O 0.41390(12) 0.7096(5) 0.2948(3)
N1 N 0.08317(9) 0.5763(3) 0.18206(17)
N2 N 0.16584(9) 0.7926(3) 0.31022(17)
N3 N 0.1924(1) 0.0465(3) 0.02289(19)
N4 N 0.39458(12) 0.5975(5) 0.3179(2)
C1 C 0.13527(10) 0.5953(3) 0.1756(2)
H1 H 0.13240 0.68160 0.12700
C2 C 0.17798(11) 0.6373(3) 0.2879(2)
H2 H 0.17420 0.56450 0.33900
C3 C 0.14939(11) 0.4490(3) 0.1355(2)
C4 C 0.17897(12) 0.4577(4) 0.0758(2)
H3 H 0.18970 0.55500 0.06080
C5 C 0.19271(11) 0.3254(4) 0.0383(2)
H4 H 0.21230 0.33100 -0.00330
C6 C 0.17749(11) 0.1862(3) 0.0623(2)
C7 C 0.14912(11) 0.1727(4) 0.1232(2)
H5 H 0.13970 0.07480 0.14010
C8 C 0.13493(11) 0.3057(3) 0.1584(2)
H6 H 0.11490 0.29910 0.19910
C9 C 0.23547(11) 0.6298(3) 0.2973(2)
C10 C 0.25922(12) 0.7549(3) 0.2723(2)
H7 H 0.23960 0.84840 0.25120
C11 C 0.31116(13) 0.7453(4) 0.2778(3)
H8 H 0.32730 0.83040 0.25980
C12 C 0.33876(12) 0.6083(4) 0.3102(2)
C13 C 0.31703(12) 0.4835(4) 0.3364(2)
H9 H 0.33710 0.39090 0.35850
C14 C 0.26501(12) 0.4946(3) 0.3300(2)
H10 H 0.24930 0.40880 0.34820
C15 C 0.14538(10) 0.8089(3) 0.3750(2)
H11 H 0.13990 0.72030 0.40850
C16 C 0.12978(11) 0.9603(3) 0.40044(19)
C17 C 0.08083(11) 0.9707(3) 0.4119(2)
C18 C 0.06310(12) 1.1142(4) 0.4273(2)
H12 H 0.02940 1.12210 0.43200
C19 C 0.09305(15) 1.2453(3) 0.4360(2)
C20 C 0.14244(14) 1.2319(3) 0.4303(2)
H13 H 0.16400 1.32120 0.43940
C21 C 0.16155(11) 1.0923(3) 0.4118(2)
C22 C 0.21695(12) 1.0869(4) 0.4109(2)
H14 H 0.23460 0.98920 0.44030
H15 H 0.23920 1.17190 0.45270
H16 H 0.21290 1.09630 0.33900
C23 C 0.0727(2) 1.4003(4) 0.4533(4)
H17 H 0.06900 1.46980 0.39630
H18 H 0.09870 1.44350 0.51960
H19 H 0.03740 1.38760 0.45520
C24 C 0.04799(11) 0.8294(4) 0.4095(2)
H20 H 0.01180 0.86040 0.40160
H21 H 0.06640 0.77200 0.47460
H22 H 0.04450 0.76430 0.35050
C25 C 0.04625(11) 0.6751(3) 0.1355(2)
H23 H 0.05330 0.75420 0.09680
C26 C -0.00692(11) 0.6712(3) 0.1394(2)
C27 C -0.03137(11) 0.5333(3) 0.1483(2)
C28 C -0.08023(12) 0.5394(4) 0.1586(2)
H24 H -0.09650 0.44620 0.16560
C29 C -0.10559(12) 0.6769(4) 0.1589(2)
C30 C -0.08177(12) 0.8106(4) 0.1471(2)
H25 H -0.09950 0.90540 0.14480
C31 C -0.03269(11) 0.8121(4) 0.1383(2)
C32 C -0.00836(16) 0.9649(4) 0.1328(3)
H26 H -0.02680 1.04630 0.15320
H27 H -0.01280 0.98310 0.06130
H28 H 0.03040 0.96490 0.18010
C33 C -0.15819(13) 0.6791(5) 0.1712(3)
H29 H -0.17490 0.78090 0.15270
H30 H -0.15070 0.65590 0.24370
H31 H -0.18300 0.60180 0.12520
C34 C -0.00903(14) 0.3763(4) 0.1444(3)
H32 H -0.03860 0.30100 0.12140
H33 H 0.01830 0.34850 0.21400
H34 H 0.00770 0.37750 0.09540
#END
