
#######################################################################
#
#                 Cambridge Crystallographic Data Centre
#                                CCDC
#
#######################################################################
#
# If this CIF has been generated from an entry in the Cambridge
# Structural Database, then it will include bibliographic, chemical,
# crystal, experimental, refinement or atomic coordinate data resulting
# from the CCDC's data processing and validation procedures.
#
#######################################################################

data_CSD_CIF_QOQPOB
_audit_creation_date 2001-08-17
_audit_creation_method CSD-ConQuest-V1
_database_code_CSD QOQPOB
_database_code_depnum_ccdc_archive 'CCDC 165645'
_chemical_formula_sum 'C33 H26 N2 O4'
_chemical_formula_moiety
;
C33 H26 N2 O4
;
_journal_coeditor_code "IUCr NA6058"
_journal_coden_Cambridge 1370
_journal_volume 57
_journal_year 2001
_journal_page_first o399
_journal_name_full 'Acta Crystallogr.,Sect.E:Struct.Rep.Online '
loop_
_publ_author_name
"G.Bruno"
"F.Nicolo"
"A.Rotondo"
"F.Foti"
"F.Risitano"
"G.Grassi"
"C.Bilardo"
_chemical_name_systematic
;
9-(2-Methoxybenzylidene)-6-(2-methoxyphenyl)-4,8-diphenyl-2-oxa-3,7-diazaspiro
(4.4)nona-3,7-dien-1-one
;
_cell_volume   1314.599
_exptl_crystal_colour 'colorless'
_exptl_crystal_density_diffrn 1.3
_exptl_crystal_description 'irregular'
_diffrn_ambient_temperature ?
_diffrn_special_details
;
The study was carried out at room temperature,in the range 283-303K

;
#These two values have been output from a single CSD field.
_refine_ls_R_factor_gt 0.0414
_refine_ls_wR_factor_gt 0.0414
_symmetry_cell_setting triclinic
_symmetry_space_group_name_H-M 'P -1'
_symmetry_Int_Tables_number 2
loop_
_symmetry_equiv_pos_site_id
_symmetry_equiv_pos_as_xyz
1 x,y,z
2 -x,-y,-z
_cell_length_a 9.127(2)
_cell_length_b 10.450(3)
_cell_length_c 14.632(3)
_cell_angle_alpha 99.172(19)
_cell_angle_beta 101.131(17)
_cell_angle_gamma 101.239(18)
_cell_formula_units_Z 2
loop_
_atom_type_symbol
_atom_type_radius_bond
C 0.68
H 0.23
N 0.68
O 0.68
loop_
_atom_site_label
_atom_site_type_symbol
_atom_site_fract_x
_atom_site_fract_y
_atom_site_fract_z
O1 O -0.10977(17) 0.19704(15) 0.05703(10)
O2 O 0.06428(19) 0.08620(16) 0.10916(11)
O3 O -0.44275(16) 0.06542(16) 0.18440(11)
O4 O 0.13162(16) 0.62202(13) 0.38007(11)
N1 N -0.1893(2) 0.28770(18) 0.09999(12)
N2 N -0.01940(19) 0.05973(15) 0.33299(11)
C1 C -0.0554(2) 0.20630(18) 0.22057(13)
C2 C -0.1566(2) 0.29628(19) 0.19064(14)
C3 C -0.0222(2) 0.1529(2) 0.12636(15)
C4 C -0.1401(2) 0.08823(18) 0.26221(13)
H1 H -0.21030 0.12370 0.29680
C5 C 0.1027(2) 0.15468(18) 0.35306(13)
C6 C 0.0927(2) 0.26075(18) 0.29690(13)
C7 C -0.2340(2) -0.03312(19) 0.18993(14)
C8 C -0.1717(3) -0.1378(2) 0.16066(17)
H2 H -0.06860 -0.13290 0.18570
C9 C -0.2581(4) -0.2496(3) 0.0953(2)
H3 H -0.21350 -0.31890 0.07580
C10 C -0.4097(4) -0.2574(3) 0.0596(2)
H4 H -0.46890 -0.33290 0.01570
C11 C -0.4760(3) -0.1553(3) 0.08741(18)
H5 H -0.57960 -0.16180 0.06260
C12 C -0.3888(3) -0.0427(2) 0.15233(16)
C13 C -0.5991(3) 0.0641(3) 0.1489(2)
H6 H -0.62060 0.14550 0.17750
H7 H -0.66330 -0.01010 0.16400
H8 H -0.61920 0.05580 0.08110
C14 C -0.2262(2) 0.38041(18) 0.25122(15)
C15 C -0.3275(3) 0.4497(2) 0.21214(18)
H9 H -0.35020 0.44490 0.14670
C16 C -0.3958(3) 0.5264(3) 0.2692(3)
H10 H -0.46380 0.57290 0.24180
C17 C -0.3644(3) 0.5347(2) 0.3659(2)
H11 H -0.41250 0.58470 0.40380
C18 C -0.2614(3) 0.4686(2) 0.40581(19)
H12 H -0.23760 0.47490 0.47130
C19 C -0.1932(3) 0.3928(2) 0.34877(16)
H13 H -0.12290 0.34880 0.37670
C20 C 0.2378(2) 0.15512(17) 0.42693(13)
C21 C 0.3866(2) 0.19547(19) 0.41597(15)
H14 H 0.40240 0.22410 0.36090
C22 C 0.5108(2) 0.1935(2) 0.48570(17)
H15 H 0.60980 0.21970 0.47710
C23 C 0.4892(3) 0.1531(2) 0.56798(17)
H16 H 0.57320 0.15370 0.61570
C24 C 0.3423(3) 0.1118(2) 0.57934(15)
H17 H 0.32710 0.08290 0.63440
C25 C 0.2183(2) 0.11304(17) 0.50995(14)
H18 H 0.11970 0.08520 0.51860
C26 C 0.1870(2) 0.38002(18) 0.31301(13)
H19 H 0.26790 0.40260 0.36660
C27 C 0.1740(2) 0.48004(19) 0.25258(15)
C28 C 0.1902(2) 0.4540(2) 0.15946(16)
H20 H 0.20970 0.37290 0.13480
C29 C 0.1778(3) 0.5481(3) 0.10244(18)
H21 H 0.18790 0.53010 0.03990
C30 C 0.1504(3) 0.6678(3) 0.1399(2)
H22 H 0.14100 0.73060 0.10200
C31 C 0.1365(2) 0.6964(2) 0.23166(18)
H23 H 0.11970 0.77870 0.25620
C32 C 0.1475(2) 0.6025(2) 0.28819(16)
C33 C 0.0652(3) 0.7288(2) 0.41123(17)
H24 H 0.06040 0.73200 0.47650
H25 H -0.03660 0.71500 0.37260
H26 H 0.12700 0.81150 0.40560
#END
