
#######################################################################
#
#                 Cambridge Crystallographic Data Centre
#                                CCDC
#
#######################################################################
#
# If this CIF has been generated from an entry in the Cambridge
# Structural Database, then it will include bibliographic, chemical,
# crystal, experimental, refinement or atomic coordinate data resulting
# from the CCDC's data processing and validation procedures.
#
#######################################################################

data_CSD_CIF_QOQSUM
_audit_creation_date 2014-08-19
_audit_creation_method CSD-ConQuest-V1
_database_code_CSD QOQSUM
_database_code_depnum_ccdc_archive 'CCDC 988007'
_chemical_formula_sum 'C25 H26 N2 O7'
_chemical_formula_moiety
;
C25 H26 N2 O7
;
_journal_coden_Cambridge 1336
_journal_volume 16
_journal_year 2014
_journal_page_first 3954
_journal_name_full 'Org.Lett. '
loop_
_publ_author_name
"R.Talukdar"
"D.P.Tiwari"
"A.Saha"
"M.K.Ghorai"
_chemical_name_systematic
;
dimethyl 
4-(4-methoxyphenyl)-9-methyl-1-(nitromethyl)-1,3,4,9-tetrahydro-2H-carbazole-2
,2-dicarboxylate
;
_cell_volume   2231.282
_exptl_crystal_colour 'colorless'
_exptl_crystal_density_diffrn 1.389
_exptl_crystal_description 'block'
_diffrn_ambient_temperature 100
#These two values have been output from a single CSD field.
_refine_ls_R_factor_gt 0.0433
_refine_ls_wR_factor_gt 0.0433
_symmetry_cell_setting monoclinic
_symmetry_space_group_name_H-M 'P 21/n'
_symmetry_Int_Tables_number 14
loop_
_symmetry_equiv_pos_site_id
_symmetry_equiv_pos_as_xyz
1 x,y,z
2 1/2-x,1/2+y,1/2-z
3 -x,-y,-z
4 -1/2+x,-1/2-y,-1/2+z
_cell_length_a 8.398(5)
_cell_length_b 23.088(5)
_cell_length_c 12.083(5)
_cell_angle_alpha 90
_cell_angle_beta 107.750(5)
_cell_angle_gamma 90
_cell_formula_units_Z 4
loop_
_atom_type_symbol
_atom_type_radius_bond
C 0.68
H 0.23
N 0.68
O 0.68
loop_
_atom_site_label
_atom_site_type_symbol
_atom_site_fract_x
_atom_site_fract_y
_atom_site_fract_z
O1 O 0.62015(16) 0.33300(6) 1.11195(11)
C1 C -0.3612(2) 0.30264(9) 0.82426(17)
H1 H -0.39780 0.26460 0.82330
C2 C -0.2496(3) 0.41857(9) 0.82461(17)
H2 H -0.21380 0.45660 0.82380
C3 C 0.2359(3) 0.53145(9) 0.73966(17)
H3 H 0.27050 0.56970 0.73870
O2 O 0.21573(18) 0.51627(6) 0.53567(11)
O3 O 0.31612(17) 0.42461(6) 1.24329(11)
O4 O 0.17092(17) 0.34291(6) 1.24167(12)
O5 O 0.52589(19) 0.19331(7) 0.98137(15)
O6 O 0.57066(17) 0.32683(6) 1.28370(12)
N1 N -0.06213(19) 0.28374(7) 0.94081(14)
O7 O 0.4818(2) 0.21475(7) 1.14377(14)
C4 C 0.2014(2) 0.49783(9) 0.64032(17)
C5 C -0.1952(2) 0.31768(9) 0.87872(16)
C6 C -0.0744(3) 0.22436(8) 0.97780(17)
H4 H -0.01370 0.19920 0.94180
H5 H -0.18970 0.21290 0.95530
H6 H -0.02790 0.22180 1.06070
C7 C 0.3429(2) 0.35166(8) 1.11260(16)
C8 C -0.4150(3) 0.40405(10) 0.77244(18)
H7 H -0.49130 0.43280 0.73740
C9 C 0.0388(2) 0.37446(9) 0.94091(16)
C10 C 0.0773(2) 0.31911(9) 0.97807(16)
C11 C 0.3396(2) 0.39994(9) 1.02337(16)
H8 H 0.40790 0.43200 1.06330
H9 H 0.38950 0.38520 0.96640
C12 C 0.2444(2) 0.29734(8) 1.05088(17)
H10 H 0.22780 0.27110 1.11020
C13 C 0.2635(2) 0.37144(9) 1.20523(16)
N2 N 0.4546(2) 0.22062(8) 1.03891(16)
C14 C 0.2182(2) 0.50749(9) 0.84165(17)
H11 H 0.24150 0.53020 0.90830
C15 C 0.1324(2) 0.41816(9) 0.74407(17)
H12 H 0.09760 0.38000 0.74470
C16 C 0.1669(2) 0.45093(9) 0.84567(16)
C17 C 0.3253(2) 0.26365(9) 0.97425(17)
H13 H 0.23880 0.24320 0.91540
H14 H 0.37740 0.29080 0.93470
C18 C 0.1489(2) 0.44109(9) 0.64291(17)
H15 H 0.12470 0.41840 0.57620
C19 C 0.1627(2) 0.42282(9) 0.95919(16)
H16 H 0.13320 0.45250 1.00760
C20 C -0.1368(2) 0.37503(9) 0.87866(16)
C21 C -0.4693(3) 0.34670(9) 0.77155(17)
H17 H -0.58110 0.33800 0.73460
C22 C 0.5224(2) 0.33563(8) 1.18011(18)
C23 C 0.7934(2) 0.31687(10) 1.16889(18)
H18 H 0.83650 0.33910 1.23880
H19 H 0.85870 0.32450 1.11760
H20 H 0.79930 0.27640 1.18790
C24 C 0.2609(3) 0.44583(10) 1.33877(18)
H21 H 0.14260 0.45280 1.31170
H22 H 0.31820 0.48130 1.36800
H23 H 0.28540 0.41750 1.39970
C25 C 0.2631(3) 0.57497(9) 0.52788(18)
H24 H 0.18580 0.60010 0.54880
H25 H 0.26170 0.58320 0.44970
H26 H 0.37360 0.58120 0.57990
#END
