
#######################################################################
#
#                 Cambridge Crystallographic Data Centre
#                                CCDC
#
#######################################################################
#
# If this CIF has been generated from an entry in the Cambridge
# Structural Database, then it will include bibliographic, chemical,
# crystal, experimental, refinement or atomic coordinate data resulting
# from the CCDC's data processing and validation procedures.
#
#######################################################################

data_CSD_CIF_QOQTIZ
_audit_creation_date 2001-08-17
_audit_creation_method CSD-ConQuest-V1
_database_code_CSD QOQTIZ
_database_code_depnum_ccdc_archive 'CCDC 165664'
_chemical_formula_sum 'C21 H21 N1 O6'
_chemical_formula_moiety
;
C21 H21 N1 O6
;
_journal_coeditor_code "IUCr CV6018"
_journal_coden_Cambridge 1370
_journal_volume 57
_journal_year 2001
_journal_page_first o444
_journal_name_full 'Acta Crystallogr.,Sect.E:Struct.Rep.Online '
loop_
_publ_author_name
"S.Russi"
"A.W.Mombru"
"D.Gamenara"
"E.Dias"
"H.Heinzen"
"P.Moyna"
"R.Faccio"
"L.Suescun"
"R.A.Mariezcurrena"
_chemical_name_systematic
;
4,5,6,9-Tetramethoxy-11-phenyl-10-oxa-11-aza-tricyclo(7.2.2.0^2,7^)trideca-2(7
),3,5,12-tetraen-8-one
;
_chemical_melting_point 387
_cell_volume   1878.799
_exptl_crystal_colour 'colorless'
_exptl_crystal_density_diffrn 1.355
_exptl_special_details
;
Melting point range 387-388K

;
_exptl_crystal_description 'prismatic'
_exptl_crystal_preparation 'methanol'
_diffrn_ambient_temperature ?
_diffrn_special_details
;
The study was carried out at room temperature,in the range 283-303K

;
#These two values have been output from a single CSD field.
_refine_ls_R_factor_gt 0.043
_refine_ls_wR_factor_gt 0.043
_symmetry_cell_setting monoclinic
_symmetry_space_group_name_H-M 'P 21/n'
_symmetry_Int_Tables_number 14
loop_
_symmetry_equiv_pos_site_id
_symmetry_equiv_pos_as_xyz
1 x,y,z
2 1/2+x,1/2-y,1/2+z
3 -x,-y,-z
4 -1/2-x,-1/2+y,-1/2-z
_cell_length_a 13.495(2)
_cell_length_b 10.2178(18)
_cell_length_c 15.154(3)
_cell_angle_alpha 90
_cell_angle_beta 115.956(14)
_cell_angle_gamma 90
_cell_formula_units_Z 4
loop_
_atom_type_symbol
_atom_type_radius_bond
C 0.68
H 0.23
N 0.68
O 0.68
loop_
_atom_site_label
_atom_site_type_symbol
_atom_site_fract_x
_atom_site_fract_y
_atom_site_fract_z
C1 C 0.00563(15) 0.77843(19) 0.14866(14)
C2 C -0.08759(15) 0.7929(2) 0.16777(15)
C3 C -0.07709(16) 0.8316(2) 0.25884(16)
C4 C 0.02604(17) 0.8594(2) 0.33397(16)
C5 C 0.11862(16) 0.8433(2) 0.31717(14)
H1 H 0.18800 0.85980 0.36770
C6 C 0.10964(14) 0.80323(18) 0.22696(14)
C7 C 0.21776(14) 0.78348(18) 0.21972(13)
H2 H 0.27860 0.78960 0.28580
C8 C 0.22504(15) 0.65380(18) 0.17618(15)
H3 H 0.26810 0.58580 0.21480
C9 C 0.16764(15) 0.64135(19) 0.08099(15)
H4 H 0.17280 0.56670 0.04820
C10 C 0.09356(15) 0.75240(19) 0.02756(13)
O1 O 0.14043(10) 0.88179(12) 0.06203(9)
N1 N 0.22991(11) 0.89065(15) 0.15848(10)
C11 C 0.33517(14) 0.89093(18) 0.15450(13)
C12 C 0.42359(15) 0.9407(2) 0.23617(15)
H5 H 0.41350 0.96860 0.29010
C13 C 0.52644(17) 0.9491(2) 0.23794(18)
H6 H 0.58550 0.98180 0.29320
C14 C 0.54176(18) 0.9092(3) 0.15815(19)
H7 H 0.61100 0.91550 0.15920
C15 C 0.4545(2) 0.8600(3) 0.07699(19)
H8 H 0.46520 0.83260 0.02320
C16 C 0.35047(17) 0.8505(2) 0.07421(15)
H9 H 0.29170 0.81720 0.01890
O2 O -0.09261(12) 0.69348(19) -0.01466(12)
C17 C -0.24770(18) 0.8769(2) 0.04003(18)
H10 H -0.31990 0.85140 -0.00750
H11 H -0.20660 0.91030 0.00680
H12 H -0.25400 0.94360 0.08190
C18 C -0.2104(2) 0.7344(3) 0.2982(2)
H13 H -0.27460 0.75470 0.30750
H14 H -0.15460 0.69820 0.35760
H15 H -0.22930 0.67190 0.24600
C19 C 0.12584(19) 0.9639(3) 0.48911(18)
H16 H 0.11710 0.98600 0.54690
H17 H 0.13690 1.04230 0.45970
H18 H 0.18850 0.90750 0.50670
C20 C 0.0061(2) 0.8511(2) -0.13090(16)
H19 H -0.00720 0.83620 -0.19770
H20 H 0.04660 0.93110 -0.10780
H21 H -0.06300 0.85760 -0.12730
C21 C -0.00847(15) 0.7393(2) 0.04852(15)
O3 O -0.19195(10) 0.76589(15) 0.09787(11)
O4 O -0.16999(12) 0.85037(17) 0.27366(13)
O5 O 0.02894(13) 0.89809(19) 0.42060(12)
O6 O 0.06864(12) 0.74409(14) -0.07090(9)
#END
