
#######################################################################
#
#                 Cambridge Crystallographic Data Centre
#                                CCDC
#
#######################################################################
#
# If this CIF has been generated from an entry in the Cambridge
# Structural Database, then it will include bibliographic, chemical,
# crystal, experimental, refinement or atomic coordinate data resulting
# from the CCDC's data processing and validation procedures.
#
#######################################################################

data_CSD_CIF_QORRAR
_audit_creation_date 2009-06-25
_audit_creation_method CSD-ConQuest-V1
_database_code_CSD QORRAR
_database_code_depnum_ccdc_archive 'CCDC 699137'
_chemical_formula_sum 'C3 H2 N6 O8'
_chemical_formula_moiety
;
C3 H2 N6 O8
;
_journal_coden_Cambridge 1367
_journal_volume 19
_journal_year 2009
_journal_page_first 347
_journal_name_full 'Adv.Funct.Mater. '
loop_
_publ_author_name
"M.Gobel"
"T.M.Klapotke"
_chemical_name_systematic
;
2,2,2-Trinitroethyl azidoformate
;
_chemical_name_common
;
2,2,2-Trinitroethyl carbonazidoate
;
_cell_volume   1793.464
_exptl_crystal_colour 'colorless'
_exptl_crystal_density_diffrn 1.853
_exptl_crystal_description 'cuboid'
_diffrn_ambient_temperature 100
#These two values have been output from a single CSD field.
_refine_ls_R_factor_gt 0.083
_refine_ls_wR_factor_gt 0.083
_symmetry_cell_setting monoclinic
_symmetry_space_group_name_H-M 'P 21/c'
_symmetry_Int_Tables_number 14
loop_
_symmetry_equiv_pos_site_id
_symmetry_equiv_pos_as_xyz
1 x,y,z
2 -x,1/2+y,1/2-z
3 -x,-y,-z
4 x,-1/2-y,-1/2+z
_cell_length_a 7.3139(3)
_cell_length_b 13.0430(6)
_cell_length_c 18.8050(7)
_cell_angle_alpha 90
_cell_angle_beta 91.273(4)
_cell_angle_gamma 90
_cell_formula_units_Z 8
loop_
_atom_type_symbol
_atom_type_radius_bond
C 0.68
H 0.23
N 0.68
O 0.68
loop_
_atom_site_label
_atom_site_type_symbol
_atom_site_fract_x
_atom_site_fract_y
_atom_site_fract_z
C1 C 0.6296(6) 1.0188(3) 0.3754(2)
C2 C 0.4519(6) 0.8792(4) 0.4114(2)
C3 C 0.2481(6) 0.8672(3) 0.3983(2)
C4 C 0.7968(6) 0.6236(3) 0.4334(2)
C5 C 0.8472(7) 0.6553(4) 0.5557(2)
C6 C 0.7288(6) 0.6056(3) 0.6115(2)
N1 N 0.6705(5) 1.0726(3) 0.31353(18)
N2 N 0.7916(5) 1.1397(3) 0.32691(18)
N3 N 0.9000(6) 1.1995(3) 0.3320(2)
N4 N 0.1548(5) 0.9686(3) 0.38118(19)
N5 N 0.2008(5) 0.7937(3) 0.3370(2)
N6 N 0.1572(5) 0.8228(3) 0.46351(18)
N7 N 0.6738(5) 0.6540(3) 0.37909(18)
N8 N 0.7150(5) 0.6155(3) 0.3198(2)
N9 N 0.7353(6) 0.5868(3) 0.2642(2)
N10 N 0.5405(5) 0.6557(3) 0.61571(18)
N11 N 0.8217(5) 0.6177(3) 0.68456(19)
N12 N 0.6981(5) 0.4915(3) 0.5993(2)
O1 O 0.6823(4) 1.0360(2) 0.43511(15)
O2 O 0.5183(4) 0.9415(2) 0.35533(14)
O3 O 0.2157(4) 1.0421(2) 0.41333(16)
O4 O 0.0284(4) 0.9668(2) 0.33830(16)
O5 O 0.3122(4) 0.7891(3) 0.29039(16)
O6 O 0.0563(4) 0.7477(2) 0.34063(16)
O7 O 0.0109(4) 0.8592(3) 0.48005(16)
O8 O 0.2404(5) 0.7526(2) 0.49173(16)
O9 O 0.9269(4) 0.5684(2) 0.42973(15)
O10 O 0.7386(4) 0.6720(2) 0.49252(14)
O11 O 0.5416(5) 0.7486(2) 0.61354(17)
O12 O 0.4094(4) 0.5990(3) 0.62214(17)
O13 O 0.7323(5) 0.6531(3) 0.73238(16)
O14 O 0.9806(4) 0.5900(2) 0.68673(16)
O15 O 0.7054(4) 0.4361(2) 0.65129(16)
O16 O 0.6656(4) 0.4676(2) 0.53817(16)
H1 H 0.469(6) 0.913(4) 0.456(3)
H2 H 0.507(6) 0.813(4) 0.411(2)
H3 H 0.880(6) 0.724(3) 0.576(2)
H4 H 0.953(7) 0.613(4) 0.547(2)
#END
