
#######################################################################
#
#                 Cambridge Crystallographic Data Centre
#                                CCDC
#
#######################################################################
#
# If this CIF has been generated from an entry in the Cambridge
# Structural Database, then it will include bibliographic, chemical,
# crystal, experimental, refinement or atomic coordinate data resulting
# from the CCDC's data processing and validation procedures.
#
#######################################################################

data_CSD_CIF_QORRUK
_audit_creation_date 2001-08-17
_audit_creation_method CSD-ConQuest-V1
_database_code_CSD QORRUK
_database_code_depnum_ccdc_archive 'CCDC 148940'
_chemical_formula_sum 'C18 H24 N6 O2'
_chemical_formula_moiety
;
C18 H24 N6 O2
;
_journal_coden_Cambridge 9
_journal_volume 39
_journal_year 2000
_journal_page_first 3205
_journal_name_full 'Inorg.Chem. '
loop_
_publ_author_name
"M.Boca"
"P.Baran"
"R.Boca"
"H.Fuess"
"G.Kickelbick"
"W.Linert"
"F.Renz"
"I.Svoboda"
_chemical_name_systematic
;
2,2'-((1,2-Ethanediyl)-bis(1,3-diazolidin-2-yl))-bis(1-oxopyridine)
;
_chemical_melting_point 439.15
_cell_volume    439.479
_exptl_crystal_colour 'colorless'
_exptl_crystal_density_diffrn 1.347
_exptl_special_details
;
Melting point range 439.15-440.15K

;
_exptl_crystal_preparation 'dimethylsulfoxide/methanol'
_diffrn_ambient_temperature ?
_diffrn_special_details
;
The study was carried out at room temperature,in the range 283-303K

;
#These two values have been output from a single CSD field.
_refine_ls_R_factor_gt 0.0473
_refine_ls_wR_factor_gt 0.0473
_symmetry_cell_setting triclinic
_symmetry_space_group_name_H-M 'P -1'
_symmetry_Int_Tables_number 2
loop_
_symmetry_equiv_pos_site_id
_symmetry_equiv_pos_as_xyz
1 x,y,z
2 -x,-y,-z
_cell_length_a 5.229(1)
_cell_length_b 7.014(1)
_cell_length_c 12.473(2)
_cell_angle_alpha 87.68(2)
_cell_angle_beta 85.98(2)
_cell_angle_gamma 74.43(2)
_cell_formula_units_Z 1
loop_
_atom_type_symbol
_atom_type_radius_bond
C 0.68
H 0.23
N 0.68
O 0.68
loop_
_atom_site_label
_atom_site_type_symbol
_atom_site_fract_x
_atom_site_fract_y
_atom_site_fract_z
C1 C 0.2151(8) 0.6519(6) 0.0660(3)
H1 H 0.0823(81) 0.6396(56) 0.0144(33)
C2 C 0.3127(9) 0.8132(7) 0.0714(4)
H2 H 0.2565(90) 0.9138(65) 0.0218(38)
C3 C 0.5010(9) 0.8164(6) 0.1429(3)
H3 H 0.5744(80) 0.9343(62) 0.1474(32)
C4 C 0.5833(9) 0.6530(6) 0.2079(3)
H4 H 0.7006(78) 0.6463(54) 0.2577(32)
C5 C 0.4830(7) 0.4916(5) 0.2050(3)
C6 C 0.5639(8) 0.3122(5) 0.2761(3)
H5 H 0.3984(72) 0.2610(49) 0.2895(27)
C7 C 0.9078(12) 0.0431(7) 0.3206(4)
H6 H 0.850(11) -0.0888(81) 0.3282(42)
H7 H 1.096(12) -0.0074(81) 0.2976(46)
C8 C 0.8172(11) 0.1711(7) 0.4191(4)
H8 H 0.7083(95) 0.1192(65) 0.4725(39)
H9 H 0.961(12) 0.2005(82) 0.4554(48)
C9 C 0.4452(9) 0.4606(6) 0.4537(3)
H10 H 0.3313(69) 0.5800(51) 0.4100(28)
H11 H 0.3406(84) 0.3765(61) 0.4806(33)
N1 N 0.2999(6) 0.4924(4) 0.1319(2)
N2 N 0.7875(7) 0.1625(5) 0.2282(3)
H12 H 0.9091(81) 0.2281(56) 0.1966(32)
N3 N 0.6577(6) 0.3606(4) 0.3777(2)
O1 O 0.2052(6) 0.3382(4) 0.1242(2)
C9A C 0.5548(9) 0.5394(6) 0.5463(3)
H10A H 0.6687(69) 0.4200(51) 0.5900(28)
H11A H 0.6594(84) 0.6235(61) 0.5194(33)
N3A N 0.3423(6) 0.6394(4) 0.6223(2)
C6A C 0.4361(8) 0.6878(5) 0.7239(3)
C5A C 0.5170(7) 0.5084(5) 0.7950(3)
C4A C 0.4167(9) 0.3470(6) 0.7921(3)
C3A C 0.4990(9) 0.1836(6) 0.8571(3)
C2A C 0.6873(9) 0.1868(7) 0.9286(4)
C1A C 0.7849(8) 0.3481(6) 0.9340(3)
H1A H 0.9177(81) 0.3604(56) 0.9856(33)
N1A N 0.7001(6) 0.5076(4) 0.8681(2)
O1A O 0.7948(6) 0.6618(4) 0.8758(2)
H2A H 0.7435(90) 0.0862(65) 0.9782(38)
H3A H 0.4256(80) 0.0657(62) 0.8526(32)
H4A H 0.2994(78) 0.3537(54) 0.7423(32)
H5A H 0.6016(72) 0.7390(49) 0.7105(27)
N2A N 0.2125(7) 0.8375(5) 0.7718(3)
C7A C 0.0922(12) 0.9569(7) 0.6794(4)
H6A H 0.150(11) 1.0888(81) 0.6718(42)
H7A H -0.096(12) 1.0074(81) 0.7024(46)
C8A C 0.1828(11) 0.8289(7) 0.5809(4)
H8A H 0.2917(95) 0.8808(65) 0.5275(39)
H9A H 0.039(12) 0.7995(82) 0.5446(48)
H12A H 0.0909(81) 0.7719(56) 0.8034(32)
#END
