
#######################################################################
#
#                 Cambridge Crystallographic Data Centre
#                                CCDC
#
#######################################################################
#
# If this CIF has been generated from an entry in the Cambridge
# Structural Database, then it will include bibliographic, chemical,
# crystal, experimental, refinement or atomic coordinate data resulting
# from the CCDC's data processing and validation procedures.
#
#######################################################################

data_CSD_CIF_QORRUL
_audit_creation_date 2009-06-25
_audit_creation_method CSD-ConQuest-V1
_database_code_CSD QORRUL
_database_code_depnum_ccdc_archive 'CCDC 699141'
_chemical_formula_sum 'C6 H6 N12 O12'
_chemical_formula_moiety
;
C6 H6 N12 O12
;
_journal_coden_Cambridge 1367
_journal_volume 19
_journal_year 2009
_journal_page_first 347
_journal_name_full 'Adv.Funct.Mater. '
loop_
_publ_author_name
"M.Gobel"
"T.M.Klapotke"
_chemical_name_systematic
;
N^3^,N^6^-bis(2,2,2-Trinitroethyl)-1,2,4,5-tetrazine-3,6-diamine
;
_cell_volume   1543.516
_exptl_crystal_colour 'red'
_exptl_crystal_density_diffrn 1.886
_exptl_special_details
;
high explosive; BAM (Bundesanstalt fur Materialprufung) classification as a 
sensitive material
electrostatic-, friction- and impact-sensitive
;
_exptl_crystal_description 'block'
_diffrn_ambient_temperature 100
#These two values have been output from a single CSD field.
_refine_ls_R_factor_gt 0.0269
_refine_ls_wR_factor_gt 0.0269
_symmetry_cell_setting orthorhombic
_symmetry_space_group_name_H-M 'P n a 21'
_symmetry_Int_Tables_number 33
loop_
_symmetry_equiv_pos_site_id
_symmetry_equiv_pos_as_xyz
1 x,y,z
2 -x,-y,1/2+z
3 1/2-x,1/2+y,1/2+z
4 1/2+x,1/2-y,z
_cell_length_a 23.3824(8)
_cell_length_b 5.9271(2)
_cell_length_c 11.1373(3)
_cell_angle_alpha 90
_cell_angle_beta 90
_cell_angle_gamma 90
_cell_formula_units_Z 4
loop_
_atom_type_symbol
_atom_type_radius_bond
C 0.68
H 0.23
N 0.68
O 0.68
loop_
_atom_site_label
_atom_site_type_symbol
_atom_site_fract_x
_atom_site_fract_y
_atom_site_fract_z
C1 C 0.08540(7) 0.3762(3) 0.26970(15)
C2 C 0.16191(7) 0.6842(3) 0.24707(15)
C3 C 0.26219(7) 0.7936(3) 0.23759(16)
H1 H 0.26660 0.63250 0.25910
H2 H 0.28090 0.88450 0.30100
C4 C 0.29219(7) 0.8374(3) 0.11771(16)
C5 C -0.01441(7) 0.2637(3) 0.28092(16)
H3 H -0.03320 0.17190 0.21800
H4 H -0.01900 0.42450 0.25890
C6 C -0.04430(7) 0.2210(3) 0.40170(15)
N1 N 0.06816(6) 0.5912(3) 0.27176(13)
N2 N 0.10710(6) 0.7510(2) 0.26001(13)
N3 N 0.17919(6) 0.4679(2) 0.24388(14)
N4 N 0.14031(6) 0.3084(2) 0.25505(13)
N5 N 0.04532(6) 0.2096(3) 0.28394(14)
N6 N 0.20220(6) 0.8489(3) 0.23350(14)
N7 N 0.31185(7) 1.0825(3) 0.10406(16)
N8 N 0.34577(6) 0.6934(3) 0.10264(14)
N9 N 0.25309(7) 0.7899(3) 0.01203(15)
N10 N -0.06512(6) -0.0222(3) 0.41507(15)
N11 N -0.00535(6) 0.2662(3) 0.50816(15)
N12 N -0.09708(6) 0.3664(3) 0.41484(13)
O1 O 0.28426(6) 1.2193(2) 0.16072(15)
O2 O 0.35255(7) 1.1184(3) 0.03824(15)
O3 O 0.37072(6) 0.6498(3) 0.19572(14)
O4 O 0.35943(6) 0.6371(3) 0.00209(13)
O5 O 0.23988(6) 0.5926(3) 0.00022(14)
O6 O 0.23674(6) 0.9488(3) -0.04663(14)
O7 O -0.03564(6) -0.1629(2) 0.36627(14)
O8 O -0.10841(6) -0.0516(3) 0.47330(16)
O9 O 0.00289(6) 0.1126(3) 0.57779(13)
O10 O 0.01429(6) 0.4556(2) 0.51217(13)
O11 O -0.10759(6) 0.4470(2) 0.51223(13)
O12 O -0.12501(6) 0.3851(3) 0.32323(13)
H5 H 0.0529(12) 0.071(5) 0.282(3)
H6 H 0.1911(9) 0.991(4) 0.245(2)
#END
