
#######################################################################
#
#                 Cambridge Crystallographic Data Centre
#                                CCDC
#
#######################################################################
#
# If this CIF has been generated from an entry in the Cambridge
# Structural Database, then it will include bibliographic, chemical,
# crystal, experimental, refinement or atomic coordinate data resulting
# from the CCDC's data processing and validation procedures.
#
#######################################################################

data_CSD_CIF_QORROF
_audit_creation_date 2009-06-25
_audit_creation_method CSD-ConQuest-V1
_database_code_CSD QORROF
_database_code_depnum_ccdc_archive 'CCDC 699140'
_chemical_formula_sum 'C3 H5 N9 O6'
_chemical_formula_moiety
;
C3 H5 N9 O6
;
_journal_coden_Cambridge 1367
_journal_volume 19
_journal_year 2009
_journal_page_first 347
_journal_name_full 'Adv.Funct.Mater. '
loop_
_publ_author_name
"M.Gobel"
"T.M.Klapotke"
_chemical_name_systematic
;
N^1^-(2,2,2-Trinitroethyl)-1H-tetrazole-1,5-diamine
;
_cell_volume    955.451
_exptl_crystal_colour 'colorless'
_exptl_crystal_density_diffrn 1.829
_exptl_special_details
;
high explosive; BAM (Bundesanstalt fur Materialprufung) classification as a 
sensitive material
electrostatic-, friction- and impact-sensitive
;
_exptl_crystal_description 'plate'
_diffrn_ambient_temperature 100
#These two values have been output from a single CSD field.
_refine_ls_R_factor_gt 0.0354
_refine_ls_wR_factor_gt 0.0354
_symmetry_cell_setting orthorhombic
_symmetry_space_group_name_H-M 'P n a 21'
_symmetry_Int_Tables_number 33
loop_
_symmetry_equiv_pos_site_id
_symmetry_equiv_pos_as_xyz
1 x,y,z
2 -x,-y,1/2+z
3 1/2-x,1/2+y,1/2+z
4 1/2+x,1/2-y,z
_cell_length_a 14.9692(6)
_cell_length_b 10.0155(5)
_cell_length_c 6.3729(3)
_cell_angle_alpha 90
_cell_angle_beta 90
_cell_angle_gamma 90
_cell_formula_units_Z 4
loop_
_atom_type_symbol
_atom_type_radius_bond
C 0.68
H 0.23
N 0.68
O 0.68
loop_
_atom_site_label
_atom_site_type_symbol
_atom_site_fract_x
_atom_site_fract_y
_atom_site_fract_z
C1 C 0.76337(14) 0.0421(2) 0.8938(4)
C2 C 0.90771(14) 0.2150(2) 0.5640(3)
H1 H 0.90790 0.27730 0.44340
H2 H 0.91900 0.12380 0.51020
C3 C 0.98103(14) 0.2540(2) 0.7178(4)
N1 N 0.78294(13) 0.09537(17) 0.7043(3)
N2 N 0.76612(13) 0.00330(19) 0.5505(3)
N3 N 0.73883(13) -0.10153(19) 0.6479(3)
N4 N 0.73584(12) -0.08209(18) 0.8621(3)
N5 N 0.77380(15) 0.1059(2) 1.0756(4)
N6 N 0.82094(12) 0.21943(19) 0.6680(3)
N7 N 0.97403(13) 0.1767(2) 0.9215(3)
N8 N 0.98013(13) 0.40269(19) 0.7728(4)
N9 N 1.07418(12) 0.2285(2) 0.6296(3)
O1 O 0.96845(11) 0.05587(17) 0.8981(3)
O2 O 0.97330(13) 0.2392(2) 1.0845(3)
O3 O 1.05115(13) 0.4532(2) 0.8183(4)
O4 O 0.90843(11) 0.45771(17) 0.7662(4)
O5 O 1.08505(11) 0.26527(18) 0.4511(3)
O6 O 1.12935(11) 0.17746(18) 0.7458(3)
H3 H 0.7743(19) 0.188(3) 1.071(5)
H4 H 0.7561(17) 0.067(3) 1.180(4)
H5 H 0.7918(17) 0.270(3) 0.605(4)
#END
