
#######################################################################
#
#                 Cambridge Crystallographic Data Centre
#                                CCDC
#
#######################################################################
#
# If this CIF has been generated from an entry in the Cambridge
# Structural Database, then it will include bibliographic, chemical,
# crystal, experimental, refinement or atomic coordinate data resulting
# from the CCDC's data processing and validation procedures.
#
#######################################################################

data_CSD_CIF_QOTGEL03
_audit_creation_date 2013-10-30
_audit_creation_method CSD-ConQuest-V1
_database_code_CSD QOTGEL03
_database_code_depnum_ccdc_archive 'CCDC 942520'
_chemical_formula_sum 'C13 H19 N3 O2'
_chemical_formula_moiety
;
C13 H19 N3 O2
;
_journal_coden_Cambridge 1500
_journal_volume 3
_journal_year 2013
_journal_page_first 25145
_journal_name_full 'RSC Advances '
loop_
_publ_author_name
"H.Aboulfadl"
"M.Bonin"
"M.Burgner"
"K.Brahimi"
"J.Hulliger"
_chemical_name_systematic
;
N-Cyclooctyl-5-nitropyridin-2-amine
;
_cell_volume   1296.865
_exptl_crystal_colour 'yellow'
_exptl_crystal_density_diffrn 1.277
_exptl_crystal_description 'prismatic'
_exptl_crystal_preparation 'ethanol/water'
_diffrn_ambient_temperature 100
#These two values have been output from a single CSD field.
_refine_ls_R_factor_gt 0.0308
_refine_ls_wR_factor_gt 0.0308
_symmetry_cell_setting orthorhombic
_symmetry_space_group_name_H-M 'P c a 21'
_symmetry_Int_Tables_number 29
loop_
_symmetry_equiv_pos_site_id
_symmetry_equiv_pos_as_xyz
1 x,y,z
2 -x,-y,1/2+z
3 1/2+x,-y,z
4 1/2-x,y,1/2+z
_cell_length_a 26.010(5)
_cell_length_b 6.6360(13)
_cell_length_c 7.5136(15)
_cell_angle_alpha 90
_cell_angle_beta 90
_cell_angle_gamma 90
_cell_formula_units_Z 4
loop_
_atom_type_symbol
_atom_type_radius_bond
C 0.68
H 0.23
N 0.68
O 0.68
loop_
_atom_site_label
_atom_site_type_symbol
_atom_site_fract_x
_atom_site_fract_y
_atom_site_fract_z
C1 C 0.67464(6) 0.3919(3) 0.8275(2)
C2 C 0.72815(6) 0.3949(3) 0.7906(2)
H1 H 0.7480(4) 0.502(2) 0.8258(8)
C3 C 0.74946(7) 0.2378(2) 0.7026(2)
H2 H 0.7829(8) 0.2345(2) 0.6799(5)
C4 C 0.71713(6) 0.0805(3) 0.6484(2)
C5 C 0.66516(6) 0.0897(3) 0.6857(2)
H3 H 0.6440(5) -0.017(2) 0.6458(9)
C6 C 0.60081(6) 0.5495(2) 0.9867(2)
H4 H 0.5787(5) 0.5032(10) 0.8951(19)
C7 C 0.58841(6) 0.7703(3) 1.0234(2)
H5 H 0.6127(4) 0.8196(8) 1.1158(14)
H6 H 0.59551(13) 0.8479(12) 0.9127(16)
C8 C 0.53404(6) 0.8217(3) 1.0843(2)
H7 H 0.5101(4) 0.7683(8) 0.9958(14)
H8 H 0.53054(9) 0.968(2) 1.0830(2)
C9 C 0.51677(6) 0.7463(3) 1.2678(3)
H9 H 0.50680(16) 0.604(2) 1.2572(3)
H10 H 0.4862(4) 0.8221(10) 1.3038(6)
C10 C 0.55749(7) 0.7649(3) 1.4161(3)
H11 H 0.5822(4) 0.8682(17) 1.3811(6)
H12 H 0.5404(3) 0.8117(8) 1.5240(17)
C11 C 0.58702(7) 0.5734(3) 1.4603(2)
H13 H 0.5612(4) 0.4679(18) 1.4966(6)
H14 H 0.6090(4) 0.6023(5) 1.5679(18)
C12 C 0.62181(6) 0.4801(3) 1.3180(2)
H15 H 0.6401(3) 0.3634(16) 1.3720(8)
H16 H 0.6483(4) 0.5814(14) 1.2847(5)
C13 C 0.59537(6) 0.4074(3) 1.1467(2)
H17 H 0.6095(2) 0.2773(19) 1.1146(5)
H18 H 0.5591(5) 0.3885(4) 1.1711(4)
N1 N 0.64343(5) 0.2398(2) 0.77469(18)
N2 N 0.65364(5) 0.5442(2) 0.92037(17)
H19 H 0.6728(4) 0.647(2) 0.9426(5)
N3 N 0.73801(5) -0.0916(2) 0.56015(19)
O1 O 0.78527(4) -0.10379(19) 0.54566(18)
O2 O 0.70882(5) -0.2205(2) 0.5011(2)
#END
