
#######################################################################
#
#                 Cambridge Crystallographic Data Centre
#                                CCDC
#
#######################################################################
#
# If this CIF has been generated from an entry in the Cambridge
# Structural Database, then it will include bibliographic, chemical,
# crystal, experimental, refinement or atomic coordinate data resulting
# from the CCDC's data processing and validation procedures.
#
#######################################################################

data_CSD_CIF_QOTGEL
_audit_creation_date 2001-08-16
_audit_creation_method CSD-ConQuest-V1
_database_code_CSD QOTGEL
_database_code_depnum_ccdc_archive 'CCDC 167092'
_database_code_depnum_ccdc_journal 1145/263
_chemical_formula_sum 'C13 H19 N3 O2'
_chemical_formula_moiety
;
C13 H19 N3 O2
;
_journal_coden_Cambridge 1145
_journal_volume 11
_journal_year 2001
_journal_page_first 351
_journal_name_full 'J.Mater.Chem. '
loop_
_publ_author_name
"M.Yu.Antipin"
"T.V.Timofeeva"
"R.D.Clark"
"V.N.Nesterov"
"F.M.Dolgushin"
"J.Wu"
"A.Leyderman"
_chemical_name_systematic
;
2-(Cyclo-octylamino)-5-nitropyridine
;
_cell_volume   1308.670
_exptl_crystal_colour 'yellow'
_exptl_crystal_density_diffrn 1.265
_exptl_special_details
;
isostructural with the adamantyl Pca21 complex

;
_exptl_crystal_description 'prism'
_exptl_crystal_preparation 'acetonitrile'
_diffrn_ambient_temperature 167
#These two values have been output from a single CSD field.
_refine_ls_R_factor_gt 0.0592
_refine_ls_wR_factor_gt 0.0592
_symmetry_cell_setting orthorhombic
_symmetry_space_group_name_H-M 'P c a 21'
_symmetry_Int_Tables_number 29
loop_
_symmetry_equiv_pos_site_id
_symmetry_equiv_pos_as_xyz
1 x,y,z
2 -x,-y,1/2+z
3 1/2+x,-y,z
4 1/2-x,y,1/2+z
_cell_length_a 26.099(5)
_cell_length_b 6.637(2)
_cell_length_c 7.555(2)
_cell_angle_alpha 90
_cell_angle_beta 90
_cell_angle_gamma 90
_cell_formula_units_Z 4
loop_
_atom_type_symbol
_atom_type_radius_bond
C 0.68
H 0.23
N 0.68
O 0.68
loop_
_atom_site_label
_atom_site_type_symbol
_atom_site_fract_x
_atom_site_fract_y
_atom_site_fract_z
O1 O 0.21452(11) 0.3980(4) 0.3630(4)
O2 O 0.29037(12) 0.2811(5) 0.3174(5)
N1 N 0.35612(10) 0.7405(5) 0.5898(4)
N2 N 0.34621(10) 1.0442(4) 0.7356(4)
H1 H 0.32667(10) 1.1489(4) 0.7589(4)
N3 N 0.26187(13) 0.4114(5) 0.3754(4)
C1 C 0.32538(13) 0.8939(5) 0.6425(4)
C2 C 0.27190(12) 0.8945(5) 0.6073(5)
H2 H 0.25123(12) 1.0037(5) 0.6462(5)
C3 C 0.2506(2) 0.7391(5) 0.5184(5)
H3 H 0.2150(2) 0.7368(5) 0.4929(5)
C4 C 0.28262(14) 0.5819(5) 0.4653(5)
C5 C 0.33446(14) 0.5917(5) 0.5008(5)
H4 H 0.35572(14) 0.4858(5) 0.4589(5)
C6 C 0.39916(14) 1.0488(5) 0.8022(5)
H5 H 0.42225(14) 0.9984(5) 0.7062(5)
C7 C 0.41202(14) 1.2693(6) 0.8362(6)
H6 H 0.40564(14) 1.3450(6) 0.7255(6)
H7 H 0.38776(14) 1.3210(6) 0.9261(6)
C8 C 0.4660(2) 1.3182(7) 0.8982(6)
H8 H 0.4702(2) 1.4663(7) 0.8938(6)
H9 H 0.4903(2) 1.2599(7) 0.8113(6)
C9 C 0.48228(14) 1.2475(8) 1.0818(6)
H10 H 0.49297(14) 1.1047(8) 1.0730(6)
H11 H 0.51273(14) 1.3263(8) 1.1180(6)
C10 C 0.4426(2) 1.2642(8) 1.2264(7)
H12 H 0.4599(2) 1.3116(8) 1.3352(7)
H13 H 0.4177(2) 1.3695(8) 1.1915(7)
C11 C 0.4132(2) 1.0764(7) 1.2713(6)
H14 H 0.3919(2) 1.1062(7) 1.3767(6)
H15 H 0.4383(2) 0.9722(7) 1.3067(6)
C12 C 0.37795(15) 0.9832(7) 1.1306(6)
H16 H 0.35194(15) 1.0849(7) 1.0971(6)
H17 H 0.35956(15) 0.8684(7) 1.1850(6)
C13 C 0.40425(14) 0.9080(6) 0.9605(5)
H18 H 0.44111(14) 0.8874(6) 0.9855(5)
H19 H 0.38950(14) 0.7755(6) 0.9284(5)
#END
