
#######################################################################
#
#                 Cambridge Crystallographic Data Centre
#                                CCDC
#
#######################################################################
#
# If this CIF has been generated from an entry in the Cambridge
# Structural Database, then it will include bibliographic, chemical,
# crystal, experimental, refinement or atomic coordinate data resulting
# from the CCDC's data processing and validation procedures.
#
#######################################################################

data_CSD_CIF_QOTGEL01
_audit_creation_date 2001-08-16
_audit_creation_method CSD-ConQuest-V1
_database_code_CSD QOTGEL01
_database_code_depnum_ccdc_archive 'CCDC 167091'
_database_code_depnum_ccdc_journal 1145/263
_chemical_formula_sum 'C13 H19 N3 O2'
_chemical_formula_moiety
;
C13 H19 N3 O2
;
_journal_coden_Cambridge 1145
_journal_volume 11
_journal_year 2001
_journal_page_first 351
_journal_name_full 'J.Mater.Chem. '
loop_
_publ_author_name
"M.Yu.Antipin"
"T.V.Timofeeva"
"R.D.Clark"
"V.N.Nesterov"
"F.M.Dolgushin"
"J.Wu"
"A.Leyderman"
_chemical_name_systematic
;
2-(Cyclo-octylamino)-5-nitropyridine
;
_cell_volume   1333.261
_exptl_crystal_colour 'yellow'
_exptl_crystal_density_diffrn 1.242
_exptl_special_details
;
isostructural with the adamantyl analogue

;
_exptl_crystal_description 'prism'
_exptl_crystal_preparation 'acetonitrile'
_diffrn_ambient_temperature ?
_diffrn_special_details
;
The study was carried out at room temperature,in the range 283-303K

;
#These two values have been output from a single CSD field.
_refine_ls_R_factor_gt 0.0736
_refine_ls_wR_factor_gt 0.0736
_symmetry_cell_setting orthorhombic
_symmetry_space_group_name_H-M 'P c a 21'
_symmetry_Int_Tables_number 29
loop_
_symmetry_equiv_pos_site_id
_symmetry_equiv_pos_as_xyz
1 x,y,z
2 -x,-y,1/2+z
3 1/2+x,-y,z
4 1/2-x,y,1/2+z
_cell_length_a 26.285(5)
_cell_length_b 6.647(1)
_cell_length_c 7.631(2)
_cell_angle_alpha 90
_cell_angle_beta 90
_cell_angle_gamma 90
_cell_formula_units_Z 4
loop_
_atom_type_symbol
_atom_type_radius_bond
C 0.68
H 0.23
N 0.68
O 0.68
loop_
_atom_site_label
_atom_site_type_symbol
_atom_site_fract_x
_atom_site_fract_y
_atom_site_fract_z
O1 O 0.2151(2) 0.4011(6) 0.3679(7)
O2 O 0.2899(2) 0.2865(7) 0.3206(9)
N1 N 0.35537(15) 0.7420(6) 0.5890(6)
N2 N 0.3467(2) 1.0441(6) 0.7352(6)
H1 H 0.3281(2) 1.1480(6) 0.7559(6)
N3 N 0.2612(2) 0.4142(7) 0.3797(7)
C1 C 0.3252(2) 0.8925(8) 0.6437(6)
C2 C 0.2724(2) 0.8953(8) 0.6112(7)
H2 H 0.2525(2) 1.0020(8) 0.6505(7)
C3 C 0.2507(2) 0.7403(7) 0.5217(7)
H3 H 0.2161(2) 0.7392(7) 0.4969(7)
C4 C 0.2822(2) 0.5843(8) 0.4690(7)
C5 C 0.3337(2) 0.5940(7) 0.5022(7)
H4 H 0.3542(2) 0.4902(7) 0.4611(7)
C6 C 0.3984(2) 1.0467(8) 0.8018(9)
H5 H 0.4204(2) 0.9935(8) 0.7090(9)
C7 C 0.4130(2) 1.2649(9) 0.8291(11)
H6 H 0.4085(2) 1.3348(9) 0.7186(11)
H7 H 0.3893(2) 1.3232(9) 0.9120(11)
C8 C 0.4660(3) 1.3074(13) 0.8933(12)
H8 H 0.4891(3) 1.2304(13) 0.8205(12)
H9 H 0.4729(3) 1.4483(13) 0.8704(12)
C9 C 0.4797(3) 1.2691(24) 1.0739(16)
H10 H 0.5049(3) 1.3697(24) 1.1052(16)
H11 H 0.4971(3) 1.1404(24) 1.0754(16)
C10 C 0.4423(3) 1.2640(19) 1.2186(12)
H12 H 0.4606(3) 1.3001(19) 1.3244(12)
H13 H 0.4183(3) 1.3718(19) 1.1965(12)
C11 C 0.4128(3) 1.0877(13) 1.2597(11)
H14 H 0.3911(3) 1.1228(13) 1.3580(11)
H15 H 0.4364(3) 0.9866(13) 1.3017(11)
C12 C 0.3789(2) 0.9856(11) 1.1242(10)
H16 H 0.3625(2) 0.8719(11) 1.1804(10)
H17 H 0.3524(2) 1.0797(11) 1.0914(10)
C13 C 0.4040(2) 0.9103(8) 0.9571(9)
H18 H 0.4400(2) 0.8907(8) 0.9797(9)
H19 H 0.3896(2) 0.7802(8) 0.9278(9)
#END
