
#######################################################################
#
#                 Cambridge Crystallographic Data Centre
#                                CCDC
#
#######################################################################
#
# If this CIF has been generated from an entry in the Cambridge
# Structural Database, then it will include bibliographic, chemical,
# crystal, experimental, refinement or atomic coordinate data resulting
# from the CCDC's data processing and validation procedures.
#
#######################################################################

data_CSD_CIF_QOTGOV02
_audit_creation_date 2001-08-17
_audit_creation_method CSD-ConQuest-V1
_database_code_CSD QOTGOV02
_database_code_depnum_ccdc_archive 'CCDC 167095'
_database_code_depnum_ccdc_journal 1145/263
_chemical_formula_sum 'C15 H19 N3 O2'
_chemical_formula_moiety
;
C15 H19 N3 O2
;
_journal_coden_Cambridge 1145
_journal_volume 11
_journal_year 2001
_journal_page_first 351
_journal_name_full 'J.Mater.Chem. '
loop_
_publ_author_name
"M.Yu.Antipin"
"T.V.Timofeeva"
"R.D.Clark"
"V.N.Nesterov"
"F.M.Dolgushin"
"J.Wu"
"A.Leyderman"
_chemical_name_systematic
;
2-(Adamantylamino)-5-nitropyridine
;
_chemical_melting_point 440.15
_cell_volume   1385.925
_exptl_crystal_colour 'light yellow'
_exptl_crystal_density_diffrn 1.31
_exptl_special_details
;
orthorhombic Pna21 polymorph
The space group is Pna21, not Pca21 as published

;
_exptl_crystal_description 'plate'
_exptl_crystal_preparation 'sublimation'
_diffrn_ambient_temperature ?
_diffrn_special_details
;
The study was carried out at room temperature,in the range 283-303K

;
#These two values have been output from a single CSD field.
_refine_ls_R_factor_gt 0.0659
_refine_ls_wR_factor_gt 0.0659
_symmetry_cell_setting orthorhombic
_symmetry_space_group_name_H-M 'P n a 21'
_symmetry_Int_Tables_number 33
loop_
_symmetry_equiv_pos_site_id
_symmetry_equiv_pos_as_xyz
1 x,y,z
2 -x,-y,1/2+z
3 1/2+x,1/2-y,z
4 1/2-x,1/2+y,1/2+z
_cell_length_a 7.991(2)
_cell_length_b 26.326(5)
_cell_length_c 6.5880(13)
_cell_angle_alpha 90
_cell_angle_beta 90
_cell_angle_gamma 90
_cell_formula_units_Z 4
loop_
_atom_type_symbol
_atom_type_radius_bond
C 0.68
H 0.23
N 0.68
O 0.68
loop_
_atom_site_label
_atom_site_type_symbol
_atom_site_fract_x
_atom_site_fract_y
_atom_site_fract_z
O1 O -0.4215(14) 0.7376(4) -0.0728(16)
O2 O -0.3768(15) 0.8118(5) -0.2028(14)
N1 N -0.0959(14) 0.8592(4) 0.2755(20)
N2 N 0.0382(13) 0.8365(4) 0.5712(16)
H1 H 0.0503(13) 0.8142(4) 0.6656(16)
N3 N -0.3548(15) 0.7785(7) -0.0813(23)
C1 C -0.0650(18) 0.8231(5) 0.4283(23)
C2 C -0.1272(17) 0.7734(5) 0.4129(25)
H2 H -0.0947(17) 0.7490(5) 0.5072(25)
C3 C -0.2325(17) 0.7609(6) 0.2643(24)
H3 H -0.2864(17) 0.7295(6) 0.2623(24)
C4 C -0.2590(22) 0.7974(6) 0.1093(25)
C5 C -0.1952(17) 0.8441(6) 0.1183(28)
H4 H -0.2191(17) 0.8671(6) 0.0148(28)
C6 C 0.1369(17) 0.8823(6) 0.600(2)
C7 C 0.2580(16) 0.8905(5) 0.4264(21)
H5 H 0.1954(16) 0.8946(5) 0.3014(21)
H6 H 0.3282(16) 0.8607(5) 0.4122(21)
C8 C 0.3693(17) 0.9371(6) 0.4585(25)
H7 H 0.4440(17) 0.9420(6) 0.3422(25)
C9 C 0.2606(19) 0.9824(6) 0.4872(17)
H8 H 0.1969(19) 0.9884(6) 0.3642(17)
H9 H 0.3300(19) 1.0120(6) 0.5119(17)
C10 C 0.1412(19) 0.9753(6) 0.6636(23)
H10 H 0.0706(19) 1.0055(6) 0.6798(23)
C11 C 0.2488(17) 0.9667(6) 0.8574(18)
H11 H 0.3209(17) 0.9958(6) 0.8803(18)
H12 H 0.1765(17) 0.9628(6) 0.9747(18)
C12 C 0.3508(17) 0.9207(6) 0.8298(18)
H13 H 0.4147(17) 0.9150(6) 0.9547(18)
C13 C 0.2434(18) 0.8742(5) 0.7913(17)
H14 H 0.1710(18) 0.8683(5) 0.9070(17)
H15 H 0.3143(18) 0.8447(5) 0.7737(17)
C14 C 0.4733(14) 0.9281(6) 0.6579(23)
H16 H 0.5433(14) 0.8982(6) 0.6432(23)
H17 H 0.5447(14) 0.9571(6) 0.6849(23)
C15 C 0.0316(14) 0.9278(5) 0.6328(25)
H18 H -0.0384(14) 0.9227(5) 0.7513(25)
H19 H -0.0410(14) 0.9327(5) 0.5164(25)
#END
