
#######################################################################
#
#                 Cambridge Crystallographic Data Centre
#                                CCDC
#
#######################################################################
#
# If this CIF has been generated from an entry in the Cambridge
# Structural Database, then it will include bibliographic, chemical,
# crystal, experimental, refinement or atomic coordinate data resulting
# from the CCDC's data processing and validation procedures.
#
#######################################################################

data_CSD_CIF_QOTGOV
_audit_creation_date 2001-08-17
_audit_creation_method CSD-ConQuest-V1
_database_code_CSD QOTGOV
_database_code_depnum_ccdc_archive 'CCDC 167094'
_database_code_depnum_ccdc_journal 1145/263
_chemical_formula_sum 'C15 H19 N3 O2'
_chemical_formula_moiety
;
C15 H19 N3 O2
;
_journal_coden_Cambridge 1145
_journal_volume 11
_journal_year 2001
_journal_page_first 351
_journal_name_full 'J.Mater.Chem. '
loop_
_publ_author_name
"M.Yu.Antipin"
"T.V.Timofeeva"
"R.D.Clark"
"V.N.Nesterov"
"F.M.Dolgushin"
"J.Wu"
"A.Leyderman"
_chemical_name_systematic
;
2-(Adamantylamino)-5-nitropyridine
;
_chemical_melting_point 438.15
_cell_volume   1399.026
_exptl_crystal_colour 'yellow'
_exptl_crystal_density_diffrn 1.298
_exptl_special_details
;
orthorhombic Pca21 polymorph
isostructural with the cyclo-octyl analogue

;
_exptl_crystal_description 'prism'
_exptl_crystal_preparation 'acetonitrile'
_diffrn_ambient_temperature ?
_diffrn_special_details
;
The study was carried out at room temperature,in the range 283-303K

;
#These two values have been output from a single CSD field.
_refine_ls_R_factor_gt 0.0719
_refine_ls_wR_factor_gt 0.0719
_symmetry_cell_setting orthorhombic
_symmetry_space_group_name_H-M 'P c a 21'
_symmetry_Int_Tables_number 29
loop_
_symmetry_equiv_pos_site_id
_symmetry_equiv_pos_as_xyz
1 x,y,z
2 -x,-y,1/2+z
3 1/2+x,-y,z
4 1/2-x,y,1/2+z
_cell_length_a 28.31(1)
_cell_length_b 6.612(2)
_cell_length_c 7.474(2)
_cell_angle_alpha 90
_cell_angle_beta 90
_cell_angle_gamma 90
_cell_formula_units_Z 4
loop_
_atom_type_symbol
_atom_type_radius_bond
C 0.68
H 0.23
N 0.68
O 0.68
loop_
_atom_site_label
_atom_site_type_symbol
_atom_site_fract_x
_atom_site_fract_y
_atom_site_fract_z
O1 O 0.2338(3) 0.0214(11) -0.1578(12)
O2 O 0.3051(2) -0.0944(11) -0.1562(11)
N1 N 0.3530(3) 0.3870(11) 0.1241(12)
N2 N 0.3357(3) 0.6932(12) 0.2683(11)
H1 H 0.3096(30) 0.809(13) 0.272(13)
N3 N 0.2760(3) 0.0380(13) -0.1205(11)
C1 C 0.3225(3) 0.5357(14) 0.1667(11)
C2 C 0.2747(3) 0.5324(14) 0.1038(14)
H2 H 0.2547(3) 0.6411(14) 0.1263(14)
C3 C 0.2588(3) 0.3703(13) 0.0116(12)
H3 H 0.2275(3) 0.3621(13) -0.0250(12)
C4 C 0.2908(3) 0.2156(14) -0.0272(13)
C5 C 0.3371(3) 0.2373(15) 0.0289(11)
H4 H 0.3585(3) 0.1371(15) -0.0041(11)
C6 C 0.3802(3) 0.7154(12) 0.3703(12)
C7 C 0.3761(3) 0.9213(12) 0.4679(13)
H5 H 0.3731(3) 1.0297(12) 0.3811(13)
H6 H 0.3483(3) 0.9222(12) 0.5437(13)
C8 C 0.4207(3) 0.9532(14) 0.5821(12)
H7 H 0.4180(3) 1.0820(14) 0.6461(12)
C9 C 0.4640(3) 0.9598(13) 0.4626(15)
H8 H 0.4610(3) 1.0682(13) 0.3759(15)
H9 H 0.4921(3) 0.9843(13) 0.5339(15)
C10 C 0.4681(3) 0.7586(13) 0.3676(14)
H10 H 0.4960(3) 0.7618(13) 0.2905(14)
C11 C 0.4239(3) 0.7238(15) 0.2490(13)
H11 H 0.4207(3) 0.8333(15) 0.1634(13)
H12 H 0.4270(3) 0.5980(15) 0.1834(13)
C12 C 0.3857(3) 0.5459(12) 0.5067(14)
H13 H 0.3880(3) 0.4172(12) 0.4451(14)
H14 H 0.3582(3) 0.5419(12) 0.5836(14)
C13 C 0.4303(3) 0.5787(14) 0.6213(14)
H15 H 0.4338(3) 0.4684(14) 0.7079(14)
C14 C 0.4254(3) 0.7815(17) 0.7189(12)
H16 H 0.4529(3) 0.8043(17) 0.7936(12)
H17 H 0.3977(3) 0.7787(17) 0.7954(12)
C15 C 0.4734(3) 0.5881(14) 0.4983(14)
H18 H 0.5017(3) 0.6081(14) 0.5692(14)
H19 H 0.4765(3) 0.4614(14) 0.4341(14)
#END
