
#######################################################################
#
#                 Cambridge Crystallographic Data Centre
#                                CCDC
#
#######################################################################
#
# If this CIF has been generated from an entry in the Cambridge
# Structural Database, then it will include bibliographic, chemical,
# crystal, experimental, refinement or atomic coordinate data resulting
# from the CCDC's data processing and validation procedures.
#
#######################################################################

data_CSD_CIF_QOTMOB
_audit_creation_date 2001-08-17
_audit_creation_method CSD-ConQuest-V1
_database_code_CSD QOTMOB
_database_code_depnum_ccdc_archive 'CCDC 166953'
_chemical_formula_sum 'C21 H24 N2 O3'
_chemical_formula_moiety
;
C21 H24 N2 O3
;
_journal_coden_Cambridge 4
_journal_volume 123
_journal_year 2001
_journal_page_first 5122
_journal_name_full 'J.Am.Chem.Soc. '
loop_
_publ_author_name
"P.Wipf"
"C.Kendall"
"C.R.J.Stephenson"
_chemical_name_systematic
;
1-(N-(p-Nitrobenzoyl)-\a-aminobenzyl)-2-butylcyclopropane
;
_cell_volume   3795.046
_exptl_crystal_density_diffrn 1.234
_diffrn_ambient_temperature 210
#These two values have been output from a single CSD field.
_refine_ls_R_factor_gt 0.0736
_refine_ls_wR_factor_gt 0.0736
_symmetry_cell_setting monoclinic
_symmetry_space_group_name_H-M 'P 21/n'
_symmetry_Int_Tables_number 14
loop_
_symmetry_equiv_pos_site_id
_symmetry_equiv_pos_as_xyz
1 x,y,z
2 1/2+x,1/2-y,1/2+z
3 -x,-y,-z
4 -1/2-x,-1/2+y,-1/2-z
_cell_length_a 10.809(2)
_cell_length_b 23.496(5)
_cell_length_c 15.088(3)
_cell_angle_alpha 90
_cell_angle_beta 97.95(3)
_cell_angle_gamma 90
_cell_formula_units_Z 8
loop_
_atom_type_symbol
_atom_type_radius_bond
C 0.68
H 0.23
N 0.68
O 0.68
loop_
_atom_site_label
_atom_site_type_symbol
_atom_site_fract_x
_atom_site_fract_y
_atom_site_fract_z
O1 O -0.0271(3) 0.73706(14) 1.5552(2)
N1 N 0.0658(4) 0.70492(16) 1.4404(3)
H1 H 0.094(3) 0.7122(16) 1.392(3)
O2 O 0.1718(3) 0.73571(13) 1.2798(2)
N2 N 0.2892(4) 0.77120(17) 1.1801(3)
H2 H 0.331(4) 0.7638(18) 1.141(3)
C1 C 0.2556(4) 0.8756(2) 1.1694(3)
C2 C 0.0224(4) 0.6027(2) 1.4070(3)
O3 O 0.0252(4) 1.00895(15) 1.3775(3)
N3 N -0.0367(5) 0.97019(18) 1.3375(3)
O4 O 0.2245(4) 0.51390(16) 0.9511(3)
N4 N 0.1912(5) 0.51629(19) 1.0262(4)
C3 C -0.0763(5) 0.6172(2) 1.3434(4)
H3 H -0.116(4) 0.6554(17) 1.347(3)
C4 C 0.2014(5) 0.9199(2) 1.2100(5)
H4 H 0.206(5) 0.916(2) 1.276(4)
O5 O -0.1085(4) 0.97738(15) 1.2685(3)
O6 O 0.1573(5) 0.47480(17) 1.0653(3)
C5 C -0.1326(6) 0.5776(3) 1.2827(4)
H5 H -0.192(4) 0.5872(17) 1.241(3)
C6 C 0.1490(6) 0.9665(3) 1.1627(6)
H6 H 0.113(6) 1.002(3) 1.194(4)
C7 C -0.0918(5) 0.5219(3) 1.2847(4)
H7 H -0.129(4) 0.492(2) 1.239(3)
C8 C 0.1510(6) 0.9692(3) 1.0717(6)
H8 H 0.115(5) 1.003(2) 1.035(4)
C9 C 0.0049(6) 0.5071(2) 1.3490(4)
H9 H 0.039(4) 0.468(2) 1.353(3)
C10 C 0.2045(6) 0.9256(3) 1.0282(5)
H10 H 0.208(5) 0.926(2) 0.963(4)
C11 C 0.2548(5) 0.8793(2) 1.0774(4)
H11 H 0.289(3) 0.8512(15) 1.051(2)
C12 C 0.0636(5) 0.5468(2) 1.4092(4)
H12 H 0.133(4) 0.5370(18) 1.460(3)
C13 C 0.0847(4) 0.64637(19) 1.4742(3)
H13 H 0.040(4) 0.6414(17) 1.531(3)
C14 C 0.3147(5) 0.82709(19) 1.2240(3)
H14 H 0.286(4) 0.8241(16) 1.286(3)
C15 C 0.2228(5) 0.6361(2) 1.5023(3)
H15 H 0.276(3) 0.6300(15) 1.452(3)
C16 C 0.4564(5) 0.83328(19) 1.2432(3)
H16 H 0.494(3) 0.8310(16) 1.193(3)
C17 C 0.5223(6) 0.8713(2) 1.3155(4)
H17 H 0.608(4) 0.8941(17) 1.308(3)
H18 H 0.469(3) 0.8882(16) 1.349(3)
C18 C 0.2669(6) 0.6005(2) 1.5855(4)
H19 H 0.201(4) 0.583(2) 1.618(3)
H20 H 0.346(5) 0.574(2) 1.584(3)
C19 C 0.2887(5) 0.6643(2) 1.5850(3)
H21 H 0.236(4) 0.6868(17) 1.618(3)
C20 C 0.5277(5) 0.8067(2) 1.3267(3)
H22 H 0.468(4) 0.7912(16) 1.367(3)
C21 C 0.4171(5) 0.6881(2) 1.5834(4)
H23 H 0.466(3) 0.6902(15) 1.645(3)
H24 H 0.472(4) 0.6593(17) 1.556(3)
C22 C 0.6432(6) 0.7731(3) 1.3183(4)
H25 H 0.691(3) 0.7714(15) 1.377(3)
H26 H 0.707(5) 0.795(2) 1.284(4)
C23 C 0.6142(6) 0.7139(3) 1.2809(4)
H27 H 0.699(4) 0.6925(18) 1.270(3)
H28 H 0.569(4) 0.7219(19) 1.220(3)
C24 C 0.4170(5) 0.7461(2) 1.5395(4)
H29 H 0.366(4) 0.7445(18) 1.478(3)
H30 H 0.501(4) 0.7551(19) 1.528(3)
C25 C 0.3661(6) 0.7939(2) 1.5913(4)
H31 H 0.277(4) 0.7836(16) 1.602(3)
H32 H 0.416(4) 0.7943(19) 1.651(3)
C26 C 0.5426(8) 0.6766(3) 1.3366(5)
H33 H 0.589(5) 0.676(2) 1.397(4)
H34 H 0.469(6) 0.697(3) 1.352(4)
C27 C 0.5161(8) 0.6170(3) 1.3002(7)
H35 H 0.585(4) 0.594(2) 1.293(3)
H36 H 0.465(5) 0.624(2) 1.229(4)
C28 C 0.3666(7) 0.8513(3) 1.5444(5)
H37 H 0.323(4) 0.882(2) 1.578(3)
H38 H 0.312(5) 0.851(2) 1.482(4)
H39 H 0.449(5) 0.861(2) 1.533(4)
C29 C 0.0136(4) 0.7456(2) 1.4832(3)
C30 C 0.2225(4) 0.72970(19) 1.2119(3)
C31 C 0.0054(4) 0.80440(19) 1.4430(3)
C32 C 0.2138(4) 0.67479(19) 1.1611(3)
C33 C 0.2374(4) 0.6710(2) 1.0731(3)
H40 H 0.246(4) 0.706(2) 1.036(3)
C34 C 0.0360(5) 0.8507(2) 1.4983(4)
H41 H 0.069(4) 0.842(2) 1.563(3)
C35 C 0.2275(4) 0.6193(2) 1.0285(4)
H42 H 0.245(3) 0.6151(16) 0.969(3)
C36 C 0.0270(5) 0.9052(2) 1.4635(3)
H43 H 0.055(4) 0.9370(18) 1.498(3)
C37 C -0.0204(4) 0.91230(19) 1.3748(3)
C38 C 0.1981(5) 0.5713(2) 1.0725(4)
C39 C -0.0526(4) 0.8671(2) 1.3181(3)
H44 H -0.087(4) 0.8752(18) 1.253(3)
C40 C 0.1718(5) 0.5739(2) 1.1597(4)
H45 H 0.155(4) 0.541(2) 1.187(3)
C41 C 0.1802(5) 0.6257(2) 1.2030(4)
H46 H 0.161(4) 0.6302(18) 1.267(3)
C42 C -0.0360(4) 0.8124(2) 1.3528(3)
H47 H -0.064(4) 0.7825(17) 1.316(3)
H48 H 0.458(6) 0.599(3) 1.327(4)
#END
