
#######################################################################
#
#                 Cambridge Crystallographic Data Centre
#                                CCDC
#
#######################################################################
#
# If this CIF has been generated from an entry in the Cambridge
# Structural Database, then it will include bibliographic, chemical,
# crystal, experimental, refinement or atomic coordinate data resulting
# from the CCDC's data processing and validation procedures.
#
#######################################################################

data_CSD_CIF_QOTRIB
_audit_creation_date 2009-06-25
_audit_creation_method CSD-ConQuest-V1
_database_code_CSD QOTRIB
_database_code_depnum_ccdc_archive 'CCDC 731224'
_chemical_formula_sum 'C20 H16 N4 O4'
_chemical_formula_moiety
;
C20 H16 N4 O4
;
_journal_coeditor_code "IUCr AT2742"
_journal_coden_Cambridge 1370
_journal_volume 65
_journal_year 2009
_journal_page_first o966
_journal_name_full 'Acta Crystallogr.,Sect.E:Struct.Rep.Online '
loop_
_publ_author_name
"R.Kia"
"H.-K.Fun"
"B.Etemadi"
"H.Kargar"
_chemical_name_systematic
;
N-[1-(Biphenyl-4-yl)ethylidene]-N'-(2,4-dinitrophenyl)hydrazine
;
_cell_volume   3439.607
_exptl_crystal_colour 'red'
_exptl_crystal_density_diffrn 1.454
_exptl_crystal_description 'plate'
_exptl_crystal_preparation 'acetone'
_diffrn_ambient_temperature 100
#These two values have been output from a single CSD field.
_refine_ls_R_factor_gt 0.0698
_refine_ls_wR_factor_gt 0.0698
_symmetry_cell_setting monoclinic
_symmetry_space_group_name_H-M 'P 21/n'
_symmetry_Int_Tables_number 14
loop_
_symmetry_equiv_pos_site_id
_symmetry_equiv_pos_as_xyz
1 x,y,z
2 1/2-x,1/2+y,1/2-z
3 -x,-y,-z
4 -1/2+x,-1/2-y,-1/2+z
_cell_length_a 10.0108(5)
_cell_length_b 14.9422(8)
_cell_length_c 23.3401(14)
_cell_angle_alpha 90
_cell_angle_beta 99.871(4)
_cell_angle_gamma 90
_cell_formula_units_Z 8
loop_
_atom_type_symbol
_atom_type_radius_bond
C 0.68
H 0.23
N 0.68
O 0.68
loop_
_atom_site_label
_atom_site_type_symbol
_atom_site_fract_x
_atom_site_fract_y
_atom_site_fract_z
O1 O 0.76069(14) 0.22620(9) 0.23590(6)
O2 O 0.58648(18) 0.23537(10) 0.16763(8)
O3 O 0.32139(14) -0.01433(9) 0.09644(7)
O4 O 0.37325(14) -0.14680(9) 0.13206(7)
N1 N 0.86347(15) 0.07099(11) 0.26819(7)
H1 H 0.866(2) 0.1289(17) 0.2702(11)
N2 N 0.94751(15) 0.01368(10) 0.30306(7)
N3 N 0.66711(17) 0.19105(10) 0.20141(8)
N4 N 0.39718(16) -0.06641(11) 0.12752(7)
C1 C 0.75102(18) 0.03800(12) 0.23386(8)
C2 C 0.72659(18) -0.05521(12) 0.22963(8)
H2 H 0.78960 -0.09510 0.25150
C3 C 0.61413(19) -0.08917(12) 0.19472(8)
H3 H 0.59960 -0.15200 0.19240
C4 C 0.52048(18) -0.03081(12) 0.16247(8)
C5 C 0.53958(18) 0.06021(12) 0.16430(8)
H4 H 0.47640 0.09900 0.14150
C6 C 0.65363(18) 0.09453(12) 0.20027(9)
C7 C 1.05071(18) 0.04897(12) 0.33658(8)
C8 C 1.13686(18) -0.01546(12) 0.37413(8)
C9 C 1.08960(19) -0.10274(12) 0.37967(8)
H5 H 1.00000 -0.11790 0.36170
C10 C 1.17056(19) -0.16714(12) 0.41074(9)
H6 H 1.13640 -0.22610 0.41320
C11 C 1.30261(18) -0.14688(12) 0.43877(8)
C12 C 1.34820(19) -0.05927(12) 0.43486(8)
H7 H 1.43640 -0.04360 0.45420
C13 C 1.26710(18) 0.00583(12) 0.40313(8)
H8 H 1.30060 0.06500 0.40120
C14 C 1.38924(18) -0.21713(12) 0.47113(8)
C15 C 1.3764(2) -0.30658(13) 0.45349(9)
H9 H 1.31210 -0.32240 0.42020
C16 C 1.4563(2) -0.37248(14) 0.48411(10)
H10 H 1.44570 -0.43300 0.47180
C17 C 1.5511(2) -0.35083(14) 0.53224(10)
H11 H 1.60690 -0.39600 0.55250
C18 C 1.5644(2) -0.26259(14) 0.55081(10)
H12 H 1.62860 -0.24740 0.58430
C19 C 1.4841(2) -0.19649(14) 0.52056(9)
H13 H 1.49380 -0.13630 0.53360
C20 C 1.08413(19) 0.14713(12) 0.33820(9)
H14 H 1.00610 0.18140 0.34640
H15 H 1.10550 0.16560 0.30050
H16 H 1.16250 0.15840 0.36870
O5 O 0.24703(15) 0.26357(9) 0.23255(7)
O6 O 0.4466(2) 0.24962(11) 0.28413(10)
O7 O 0.66656(15) 0.48817(10) 0.39824(7)
O8 O 0.60838(14) 0.62418(9) 0.37192(6)
N5 N 0.13039(16) 0.41932(11) 0.21771(8)
H17 H 0.126(2) 0.3682(15) 0.2101(10)
N6 N 0.03856(15) 0.48109(10) 0.19137(7)
N7 N 0.34763(19) 0.29565(11) 0.26485(9)
N8 N 0.58899(16) 0.54278(11) 0.37022(7)
C21 C 0.24162(18) 0.44779(12) 0.25439(8)
C22 C 0.25660(19) 0.53943(12) 0.27013(9)
H18 H 0.18800 0.58080 0.25430
C23 C 0.36773(19) 0.56955(13) 0.30758(9)
H19 H 0.37630 0.63130 0.31710
C24 C 0.46877(19) 0.50923(12) 0.33182(8)
C25 C 0.46021(19) 0.41996(13) 0.31842(9)
H20 H 0.52930 0.37970 0.33540
C26 C 0.34862(19) 0.38920(12) 0.27952(9)
C27 C -0.06623(19) 0.45005(12) 0.15687(8)
C28 C -0.15944(18) 0.51924(12) 0.12712(8)
C29 C -0.14824(19) 0.60798(12) 0.14622(8)
H21 H -0.08120 0.62350 0.17860
C30 C -0.23311(18) 0.67353(12) 0.11872(8)
H22 H -0.22420 0.73320 0.13300
C31 C -0.33207(18) 0.65396(12) 0.07024(9)
C32 C -0.34157(19) 0.56507(13) 0.05072(9)
H23 H -0.40660 0.54980 0.01750
C33 C -0.25785(19) 0.49892(13) 0.07897(9)
H24 H -0.26770 0.43900 0.06530
C34 C -0.42078(19) 0.72507(13) 0.03980(8)
C35 C -0.3711(2) 0.81216(13) 0.03623(9)
H25 H -0.28140 0.82630 0.05470
C36 C -0.4522(2) 0.87809(14) 0.00587(9)
H26 H -0.41730 0.93680 0.00330
C37 C -0.5834(2) 0.85851(14) -0.02069(9)
H27 H -0.63810 0.90370 -0.04160
C38 C -0.6353(2) 0.77304(14) -0.01678(9)
H28 H -0.72580 0.75980 -0.03450
C39 C -0.5540(2) 0.70702(14) 0.01314(9)
H29 H -0.58970 0.64850 0.01550
C40 C -0.0951(2) 0.35244(12) 0.14521(9)
H30 H -0.06880 0.31840 0.18130
H31 H -0.04320 0.33110 0.11590
H32 H -0.19220 0.34410 0.13080
#END
