
#######################################################################
#
#                 Cambridge Crystallographic Data Centre
#                                CCDC
#
#######################################################################
#
# If this CIF has been generated from an entry in the Cambridge
# Structural Database, then it will include bibliographic, chemical,
# crystal, experimental, refinement or atomic coordinate data resulting
# from the CCDC's data processing and validation procedures.
#
#######################################################################

data_CSD_CIF_QOTSUO
_audit_creation_date 2009-06-25
_audit_creation_method CSD-ConQuest-V1
_database_code_CSD QOTSUO
_database_code_depnum_ccdc_archive 'CCDC 735182'
_database_code_depnum_ccdc_journal 1267/2461
_chemical_formula_sum 'C9 H11 N1 O4'
_chemical_formula_moiety
;
C9 H11 N1 O4
;
_journal_coden_Cambridge 1267
_journal_volume 224
_journal_year 2009
_journal_page_first 183
_journal_name_full 'Z.Kristallogr.-New Cryst.Struct. '
loop_
_publ_author_name
"Chang-Lun Shao"
"Mei-Yan Wei"
"Xiu-Li Zhang"
"Zhen Liu"
"Chang-Yun Wang"
_chemical_name_systematic
;
1,3-bis(Hydroxymethyl)-2-methyl-5-nitrobenzene
;
_cell_volume    907.085
_exptl_crystal_colour 'colorless'
_exptl_crystal_density_diffrn 1.444
_exptl_crystal_description 'block'
_exptl_crystal_preparation 'methanol'
_diffrn_ambient_temperature 273
#These two values have been output from a single CSD field.
_refine_ls_R_factor_gt 0.0444
_refine_ls_wR_factor_gt 0.0444
_chemical_compound_source
;
fermentation broth of the endophytic fungus (no. B60) from the mangrove tree 
Acanthus ilicifolius Linn
;
_symmetry_cell_setting triclinic
_symmetry_space_group_name_H-M 'P -1'
_symmetry_Int_Tables_number 2
loop_
_symmetry_equiv_pos_site_id
_symmetry_equiv_pos_as_xyz
1 x,y,z
2 -x,-y,-z
_cell_length_a 7.8446(14)
_cell_length_b 8.5168(15)
_cell_length_c 14.468(3)
_cell_angle_alpha 88.441(3)
_cell_angle_beta 83.235(3)
_cell_angle_gamma 70.919(3)
_cell_formula_units_Z 4
loop_
_atom_type_symbol
_atom_type_radius_bond
C 0.68
H 0.23
N 0.68
O 0.68
loop_
_atom_site_label
_atom_site_type_symbol
_atom_site_fract_x
_atom_site_fract_y
_atom_site_fract_z
O1 O 0.44070(17) 0.32896(16) 0.46483(10)
O2 O 0.3511(2) 0.40887(19) 0.33164(9)
O3 O -0.1770(2) 0.85588(16) 0.29956(9)
H1 H -0.22980 0.93290 0.26720
O4 O 0.2036(2) 0.69240(16) 0.73762(9)
H2 H 0.23660 0.59060 0.73820
N1 N 0.33958(19) 0.42611(17) 0.41573(10)
C1 C 0.1936(2) 0.56914(18) 0.46050(11)
C2 C 0.0668(2) 0.66826(19) 0.40706(10)
H3 H 0.07630 0.64860 0.34340
C3 C -0.0754(2) 0.79809(19) 0.45027(11)
C4 C -0.0879(2) 0.82735(19) 0.54644(11)
C5 C 0.0461(2) 0.7258(2) 0.59802(11)
C6 C 0.1869(2) 0.5955(2) 0.55435(11)
H4 H 0.27570 0.52680 0.58810
C7 C -0.2455(2) 0.9659(2) 0.59360(13)
H5 H -0.32970 0.91990 0.62830
H6 H -0.30550 1.03990 0.54740
H7 H -0.20170 1.02600 0.63510
C8 C -0.2194(2) 0.9051(2) 0.39424(12)
H8 H -0.33630 0.89490 0.41790
H9 H -0.22760 1.02050 0.40020
C9 C 0.0351(3) 0.7536(3) 0.70200(12)
H10 H -0.01650 0.87180 0.71540
H11 H -0.04670 0.70030 0.73400
O5 O 0.05347(17) 0.67026(16) 1.01979(10)
O6 O 0.1121(2) 0.5705(2) 1.15388(10)
O7 O 0.6367(2) 0.10593(16) 1.19732(8)
H12 H 0.67200 0.17590 1.21930
O8 O 0.3462(2) 0.36089(16) 0.74025(9)
H13 H 0.27660 0.30740 0.73850
N2 N 0.14370(19) 0.56592(18) 1.06978(11)
C10 C 0.2989(2) 0.42957(19) 1.02609(11)
C11 C 0.4155(2) 0.32466(19) 1.08240(11)
H14 H 0.39470 0.33770 1.14680
C12 C 0.5646(2) 0.19930(19) 1.04092(11)
C13 C 0.5938(2) 0.18016(19) 0.94371(11)
C14 C 0.4695(2) 0.28691(19) 0.88918(10)
C15 C 0.3220(2) 0.41303(19) 0.93097(11)
H15 H 0.24000 0.48540 0.89510
C16 C 0.7581(3) 0.0456(2) 0.89824(14)
H16 H 0.72040 -0.01790 0.85590
H17 H 0.81830 -0.02610 0.94520
H18 H 0.84000 0.09540 0.86470
C17 C 0.6980(3) 0.0856(2) 1.10093(13)
H19 H 0.71970 -0.02880 1.08290
H20 H 0.81260 0.10720 1.08950
C18 C 0.4981(3) 0.2664(2) 0.78412(12)
H21 H 0.60200 0.29910 0.75990
H22 H 0.52590 0.15000 0.76850
#END
