
#######################################################################
#
#                 Cambridge Crystallographic Data Centre
#                                CCDC
#
#######################################################################
#
# If this CIF has been generated from an entry in the Cambridge
# Structural Database, then it will include bibliographic, chemical,
# crystal, experimental, refinement or atomic coordinate data resulting
# from the CCDC's data processing and validation procedures.
#
#######################################################################

data_CSD_CIF_QOTVAW
_audit_creation_date 2001-08-28
_audit_creation_method CSD-ConQuest-V1
_database_code_CSD QOTVAW
_chemical_formula_sum 'C14 H12 N8 O2'
_chemical_formula_moiety
;
C14 H12 N8 O2
;
_journal_coden_Cambridge 603
_journal_volume 19
_journal_year 2000
_journal_page_first 259
_journal_name_full 'Jiegou Huaxue(Chin.)(Chin.J.Struct.Chem.) '
loop_
_publ_author_name
"Wei-Qiang Chen"
"Lin-Hong Wen"
"Gui-Yu Jin"
_chemical_name_systematic
;
1-((1-Phenyl-4-cyanopyrazol-5-yl)iminomethyl)-2-(nitroimino)imidazolidine
;
_chemical_melting_point 531.15
_cell_volume   1467.245
_exptl_crystal_density_diffrn 1.477
_exptl_special_details
;
Melting point range 531.15-533.15K

;
_exptl_crystal_preparation 'acetonitrile'
_diffrn_ambient_temperature ?
_diffrn_special_details
;
The study was carried out at room temperature,in the range 283-303K

;
#These two values have been output from a single CSD field.
_refine_ls_R_factor_gt 0.0506
_refine_ls_wR_factor_gt 0.0506
_symmetry_cell_setting monoclinic
_symmetry_space_group_name_H-M 'P 21/n'
_symmetry_Int_Tables_number 14
loop_
_symmetry_equiv_pos_site_id
_symmetry_equiv_pos_as_xyz
1 x,y,z
2 1/2-x,1/2+y,1/2-z
3 -x,-y,-z
4 -1/2+x,-1/2-y,-1/2+z
_cell_length_a 7.310(1)
_cell_length_b 17.218(2)
_cell_length_c 11.669(1)
_cell_angle_alpha 90
_cell_angle_beta 92.552(2)
_cell_angle_gamma 90
_cell_formula_units_Z 4
loop_
_atom_type_symbol
_atom_type_radius_bond
C 0.68
N 0.68
O 0.68
loop_
_atom_site_label
_atom_site_type_symbol
_atom_site_fract_x
_atom_site_fract_y
_atom_site_fract_z
C1 C -0.0018(3) 0.7508(1) 0.9292(2)
C2 C -0.0815(4) 0.7538(1) 0.7353(2)
C3 C 0.0073(4) 0.6755(1) 0.7625(2)
C4 C 0.1328(3) 0.6214(1) 0.9462(2)
C5 C 0.2370(3) 0.4948(1) 0.9500(2)
C6 C 0.2930(3) 0.4769(1) 1.0624(2)
C7 C 0.3545(3) 0.4000(1) 1.0581(2)
C8 C 0.2864(3) 0.5245(1) 1.1611(2)
C9 C 0.2207(3) 0.4151(1) 0.7687(2)
C10 C 0.2635(3) 0.4679(1) 0.6853(2)
C11 C 0.2146(4) 0.4518(2) 0.5730(2)
C12 C 0.1236(4) 0.3838(2) 0.5440(2)
C13 C 0.0840(4) 0.3312(2) 0.6276(2)
C14 C 0.1311(3) 0.3462(1) 0.7407(2)
N1 N -0.0340(3) 0.8297(1) 1.0845(2)
N2 N 0.0352(3) 0.7631(1) 1.0401(2)
N3 N -0.0831(3) 0.7911(1) 0.8466(2)
N4 N 0.0567(3) 0.6815(1) 0.8847(2)
N5 N 0.1615(3) 0.5582(1) 0.8948(2)
N6 N 0.2669(3) 0.4295(1) 0.8879(2)
N7 N 0.3378(3) 0.3715(1) 0.9547(2)
N8 N 0.2822(3) 0.5622(1) 1.2414(2)
O1 O -0.1343(3) 0.8734(1) 1.0288(2)
O2 O 0.0083(3) 0.8415(1) 1.1854(2)
#END
