
#######################################################################
#
#                 Cambridge Crystallographic Data Centre
#                                CCDC
#
#######################################################################
#
# If this CIF has been generated from an entry in the Cambridge
# Structural Database, then it will include bibliographic, chemical,
# crystal, experimental, refinement or atomic coordinate data resulting
# from the CCDC's data processing and validation procedures.
#
#######################################################################

data_CSD_CIF_QOTZOQ
_audit_creation_date 2015-02-04
_audit_creation_method CSD-ConQuest-V1
_database_code_CSD QOTZOQ
_database_code_depnum_ccdc_archive 'CCDC 1019311'
_chemical_formula_sum 'C18 H31 N5 O2'
_chemical_formula_moiety
;
C18 H31 N5 O2
;
_journal_coden_Cambridge 1220
_journal_volume 21
_journal_year 2015
_journal_page_first 4671
_journal_name_full 'Chem.-Eur.J. '
loop_
_publ_author_name
"M.Paurova"
"J.Havlickova"
"A.Pospisilova"
"M.Vetrik"
"I.Cisarova"
"H.Stephan"
"H.-J.Pietzsch"
"M.Hruby"
"P.Hermann"
"Jan Kotek"
_chemical_name_systematic
;
1-methyl-8-(4-nitrobenzyl)-1,4,8,11-tetraazacyclotetradecane
;
_cell_volume   1951.012
_exptl_crystal_colour 'yellow'
_exptl_crystal_density_diffrn 1.19
_exptl_crystal_description 'irregular'
_diffrn_ambient_temperature 150
_refine_special_details
;
C10A,C30A,C5A,C6A,C7A,C9A,N8A and C10B,C30B,C5B,C6B, C7B,C9B,N8B disordered 
over two sites with occupancies 0.800:0.200.
;
#These two values have been output from a single CSD field.
_refine_ls_R_factor_gt 0.0655
_refine_ls_wR_factor_gt 0.0655
_symmetry_cell_setting orthorhombic
_symmetry_space_group_name_H-M 'P 21 21 21'
_symmetry_Int_Tables_number 19
loop_
_symmetry_equiv_pos_site_id
_symmetry_equiv_pos_as_xyz
1 x,y,z
2 1/2+x,1/2-y,-z
3 -x,1/2+y,1/2-z
4 1/2-x,-y,1/2+z
_cell_length_a 9.0984(7)
_cell_length_b 9.7822(6)
_cell_length_c 21.9209(15)
_cell_angle_alpha 90
_cell_angle_beta 90
_cell_angle_gamma 90
_cell_formula_units_Z 4
loop_
_atom_type_symbol
_atom_type_radius_bond
C 0.68
H 0.23
N 0.68
O 0.68
loop_
_atom_site_label
_atom_site_type_symbol
_atom_site_fract_x
_atom_site_fract_y
_atom_site_fract_z
N1 N 0.6699(3) 0.8792(3) 0.38064(11)
C1 C 0.5774(4) 0.9965(4) 0.39894(15)
H1 H 0.49510 0.96270 0.42430
H2 H 0.53490 1.03880 0.36190
C2 C 0.6607(5) 1.1044(4) 0.43428(16)
H3 H 0.59120 1.17490 0.44900
H4 H 0.70780 1.06200 0.47030
N2 N 0.7717(3) 1.1678(3) 0.39669(14)
H5 H 0.84050 1.10590 0.37770
C3 C 0.8740(6) 1.2623(5) 0.4277(3)
H6 H 0.91430 1.21600 0.46420
H7 H 0.81800 1.34300 0.44190
C4 C 1.0007(6) 1.3110(5) 0.3886(3)
H8 H 1.05220 1.38560 0.41040
H9 H 0.96050 1.34970 0.35040
C5 C 1.1128(5) 1.2007(5) 0.3722(3)
H10 H 1.20110 1.24550 0.35500
H11 H 1.14300 1.15340 0.41010
N3 N 1.0598(4) 1.0976(4) 0.3283(2)
C6 C 1.1634(5) 0.9819(5) 0.3253(3)
H12 H 1.26530 1.01730 0.32590
H13 H 1.14890 0.93230 0.28640
C7 C 1.1424(5) 0.8846(5) 0.3777(3)
H14 H 1.22390 0.81750 0.37890
H15 H 1.14150 0.93540 0.41680
N4 N 1.0014(3) 0.8136(3) 0.36890(16)
H16 H 0.92770 0.87270 0.36660
C8 C 0.9675(5) 0.7427(4) 0.42546(19)
H17 H 0.97810 0.80720 0.46000
H18 H 1.03910 0.66770 0.43150
C9 C 0.8152(5) 0.6846(4) 0.42597(18)
H19 H 0.80780 0.61700 0.45950
H20 H 0.79830 0.63540 0.38710
C10 C 0.6955(4) 0.7903(4) 0.43402(15)
H21 H 0.60260 0.74250 0.44390
H22 H 0.72090 0.84870 0.46940
C11 C 0.5933(4) 0.8009(4) 0.33349(14)
H23 H 0.49140 0.78400 0.34740
H24 H 0.64210 0.71090 0.32940
C12 C 0.5873(4) 0.8669(3) 0.27130(13)
C13 C 0.6933(3) 0.9603(3) 0.25130(14)
H25 H 0.76720 0.99120 0.27860
C14 C 0.6906(3) 1.0079(3) 0.19164(13)
H26 H 0.76230 1.07120 0.17780
C15 C 0.5822(3) 0.9616(3) 0.15282(13)
N5 N 0.5822(3) 1.0076(3) 0.08915(11)
O1 O 0.6777(3) 1.0888(3) 0.07366(11)
O2 O 0.4875(3) 0.9652(3) 0.05477(10)
C16 C 0.4747(4) 0.8709(3) 0.17130(14)
H27 H 0.40050 0.84110 0.14390
C17 C 0.4784(4) 0.8248(3) 0.23081(14)
H28 H 0.40490 0.76300 0.24440
C18 C 1.0430(6) 1.1547(6) 0.2682(3)
H29 H 1.13470 1.19940 0.25600
H30 H 0.96310 1.22190 0.26850
H31 H 1.01960 1.08160 0.23920
C19? C 0.821(2) 1.259(2) 0.4498(9)
H32? H 0.84890 1.20500 0.48620
H33? H 0.74510 1.32730 0.46100
C20? C 0.954(3) 1.324(3) 0.4181(12)
H34? H 0.92410 1.35850 0.37750
H35? H 0.98870 1.40280 0.44250
C21? C 1.076(2) 1.226(2) 0.4106(11)
H36? H 1.09260 1.17880 0.44990
H37? H 1.16660 1.27740 0.40070
N6? N 1.052(2) 1.1215(19) 0.3628(9)
C22? C 1.178(2) 1.014(2) 0.3704(10)
H38? H 1.26980 1.05030 0.35280
H39? H 1.19460 0.99640 0.41440
C23? C 1.137(3) 0.880(3) 0.3385(14)
H40? H 1.22120 0.81600 0.34060
H41? H 1.11550 0.89820 0.29500
C24? C 1.018(5) 1.191(5) 0.3080(19)
H42? H 1.10580 1.19740 0.28240
H43? H 0.98280 1.28370 0.31770
H44? H 0.94070 1.14150 0.28610
#END
