
#######################################################################
#
#                 Cambridge Crystallographic Data Centre
#                                CCDC
#
#######################################################################
#
# If this CIF has been generated from an entry in the Cambridge
# Structural Database, then it will include bibliographic, chemical,
# crystal, experimental, refinement or atomic coordinate data resulting
# from the CCDC's data processing and validation procedures.
#
#######################################################################

data_CSD_CIF_QOVBAG
_audit_creation_date 2015-02-04
_audit_creation_method CSD-ConQuest-V1
_database_code_CSD QOVBAG
_database_code_depnum_ccdc_archive 'CCDC 1019313'
_chemical_formula_sum 'C24 H34 N6 O4'
_chemical_formula_moiety
;
C24 H34 N6 O4
;
_journal_coden_Cambridge 1220
_journal_volume 21
_journal_year 2015
_journal_page_first 4671
_journal_name_full 'Chem.-Eur.J. '
loop_
_publ_author_name
"M.Paurova"
"J.Havlickova"
"A.Pospisilova"
"M.Vetrik"
"I.Cisarova"
"H.Stephan"
"H.-J.Pietzsch"
"M.Hruby"
"P.Hermann"
"Jan Kotek"
_chemical_name_systematic
;
1,8-bis(4-nitrobenzyl)-1,4,8,11-tetraazacyclotetradecane
;
_cell_volume   1209.386
_exptl_crystal_colour 'yellow'
_exptl_crystal_density_diffrn 1.292
_exptl_crystal_description 'prism'
_diffrn_ambient_temperature 150
_refine_special_details
;
C52A,C53A,C55A,C56A,C57A,N51A,N54A and C52B,C53B,C55B, C56B,C57B,N51B,N54B 
disordered over two sites with occupancies 0.914:0.086.
;
#These two values have been output from a single CSD field.
_refine_ls_R_factor_gt 0.0425
_refine_ls_wR_factor_gt 0.0425
_symmetry_cell_setting triclinic
_symmetry_space_group_name_H-M 'P -1'
_symmetry_Int_Tables_number 2
loop_
_symmetry_equiv_pos_site_id
_symmetry_equiv_pos_as_xyz
1 x,y,z
2 -x,-y,-z
_cell_length_a 7.4190(3)
_cell_length_b 7.7962(3)
_cell_length_c 21.2206(6)
_cell_angle_alpha 93.533(2)
_cell_angle_beta 90.674(2)
_cell_angle_gamma 99.0923(18)
_cell_formula_units_Z 2
loop_
_atom_type_symbol
_atom_type_radius_bond
C 0.68
H 0.23
N 0.68
O 0.68
loop_
_atom_site_label
_atom_site_type_symbol
_atom_site_fract_x
_atom_site_fract_y
_atom_site_fract_z
N1 N 0.68370(15) 0.84369(15) 0.42197(5)
C1 C 0.7054(2) 0.7030(2) 0.46306(6)
H1 H 0.83270 0.68760 0.46370
H2 H 0.63430 0.59540 0.44520
C2 C 0.6467(2) 0.7358(2) 0.53024(6)
H3 H 0.66280 0.63760 0.55450
H4 H 0.72320 0.83850 0.54950
N2 N 0.45632(15) 0.76072(15) 0.53193(5)
H5 H 0.44560 0.85510 0.50380
C3 C 0.3989(2) 0.80283(19) 0.59601(6)
H6 H 0.48150 0.90290 0.61440
H7 H 0.40730 0.70550 0.62170
C4 C 0.2059(2) 0.8424(2) 0.59754(7)
H8 H 0.17210 0.85890 0.64120
H9 H 0.12440 0.74230 0.57870
C5 C 0.17713(19) 1.0024(2) 0.56328(6)
H10 H 0.17570 0.97350 0.51810
H11 H 0.05840 1.03160 0.57400
C6 C 0.69191(18) 0.78174(19) 0.35605(6)
H12 H 0.79260 0.71650 0.35160
H13 H 0.71820 0.88170 0.33070
C7 C 0.52022(17) 0.66825(17) 0.32998(6)
C8 C 0.35101(18) 0.66859(18) 0.35772(6)
H14 H 0.34270 0.73550 0.39510
C9 C 0.19510(18) 0.57020(18) 0.33014(6)
H15 H 0.08230 0.56910 0.34890
C10 C 0.21036(17) 0.47367(17) 0.27416(6)
N3 N 0.04452(16) 0.37363(15) 0.24372(5)
O1 O -0.10270(14) 0.38160(14) 0.26823(5)
O2 O 0.06076(15) 0.28457(16) 0.19483(5)
C11 C 0.37557(18) 0.47013(18) 0.24559(6)
H16 H 0.38300 0.40460 0.20790
C12 C 0.52949(18) 0.56639(18) 0.27442(6)
H17 H 0.64240 0.56310 0.25620
N4 N 0.7356(2) 0.6967(2) 0.06527(9)
C13 C 0.7698(2) 0.56165(19) 0.10737(7)
H18 H 0.72470 0.58900 0.14890
H19 H 0.90050 0.56390 0.11150
C14 C 0.6807(3) 0.3795(3) 0.08446(12)
H20 H 0.73210 0.34750 0.04440
H21 H 0.70620 0.29760 0.11470
N5 N 0.48410(17) 0.36944(16) 0.07662(6)
H22 H 0.46720 0.44780 0.04300
C15 C 0.3960(3) 0.1949(3) 0.05431(8)
H23 H 0.41280 0.11430 0.08610
H24 H 0.45510 0.15920 0.01630
C16 C 0.1947(2) 0.18422(19) 0.04039(7)
H25 H 0.13540 0.21430 0.07910
H26 H 0.14470 0.06470 0.02710
C17 C 0.14798(18) 0.30184(19) -0.01032(6)
H27 H 0.02220 0.26410 -0.02420
H28 H 0.15730 0.41980 0.00830
C18 C 0.75650(17) 0.86586(17) 0.10093(6)
H29 H 0.76790 0.95710 0.07150
H30 H 0.86840 0.88150 0.12620
C19 C 0.59875(16) 0.88473(15) 0.14374(5)
C20 C 0.42486(17) 0.79154(17) 0.13024(6)
H31 H 0.40640 0.71230 0.09530
C21 C 0.27976(17) 0.81540(17) 0.16808(6)
H32 H 0.16420 0.75230 0.15910
C22 C 0.30907(17) 0.93417(17) 0.21931(6)
N6 N 0.15429(16) 0.95772(17) 0.25986(5)
O3 O 0.00529(14) 0.86997(16) 0.24589(5)
O4 O 0.18096(15) 1.06279(16) 0.30564(5)
C23 C 0.47903(18) 1.03033(17) 0.23380(6)
H33 H 0.49570 1.11150 0.26820
C24 C 0.62342(17) 1.00330(16) 0.19607(5)
H34 H 0.73910 1.06530 0.20580
H35? H 0.79260 0.97580 0.08190
H36? H 0.85880 0.84590 0.12690
N7? N 0.727(4) 0.734(3) 0.0523(12)
C25? C 0.720(2) 0.850(2) -0.0037(8)
H37? H 0.84340 0.89680 -0.01500
H38? H 0.65810 0.94680 0.00890
C26? C 0.615(4) 0.743(3) -0.0641(11)
H39? H 0.62070 0.81550 -0.09970
H40? H 0.67160 0.64170 -0.07580
N8? N 0.4372(18) 0.6923(18) -0.0476(6)
H41? H 0.45410 0.61400 -0.01410
C27? C 0.335(5) 0.594(4) -0.1031(13)
H42? H 0.33160 0.67300 -0.13650
H43? H 0.40210 0.50350 -0.11830
C28? C 0.148(3) 0.514(3) -0.0915(8)
H44? H 0.09270 0.45820 -0.13070
H45? H 0.07820 0.60370 -0.07750
C29? C 0.138(2) 0.382(2) -0.0431(8)
H46? H 0.15640 0.44150 -0.00140
H47? H 0.01680 0.31300 -0.04480
N1A N 0.31630(15) 1.15631(15) 0.57803(5)
C1A C 0.2946(2) 1.2970(2) 0.53694(6)
H1A H 0.16730 1.31240 0.53630
H2A H 0.36570 1.40460 0.55480
C2A C 0.3533(2) 1.2642(2) 0.46976(6)
H3A H 0.33720 1.36240 0.44550
H4A H 0.27680 1.16150 0.45050
N2A N 0.54368(15) 1.23928(15) 0.46807(5)
H5A H 0.55440 1.14490 0.49620
C3A C 0.6011(2) 1.19717(19) 0.40399(6)
H6A H 0.51850 1.09710 0.38560
H7A H 0.59270 1.29450 0.37830
C4A C 0.7941(2) 1.1576(2) 0.40246(7)
H8A H 0.82790 1.14110 0.35880
H9A H 0.87560 1.25770 0.42130
C5A C 0.82287(19) 0.9976(2) 0.43672(6)
H10A H 0.82430 1.02650 0.48190
H11A H 0.94160 0.96840 0.42600
C6A C 0.30809(18) 1.21826(19) 0.64395(6)
H12A H 0.20740 1.28350 0.64840
H13A H 0.28180 1.11830 0.66930
C7A C 0.47978(17) 1.33175(17) 0.67002(6)
C8A C 0.64899(18) 1.33141(18) 0.64228(6)
H14A H 0.65730 1.26450 0.60490
C9A C 0.80490(18) 1.42980(18) 0.66986(6)
H15A H 0.91770 1.43090 0.65110
C10A C 0.78964(17) 1.52633(17) 0.72584(6)
N3A N 0.95548(16) 1.62637(15) 0.75628(5)
O1A O 1.10270(14) 1.61840(14) 0.73177(5)
O2A O 0.93924(15) 1.71543(16) 0.80517(5)
C11A C 0.62443(18) 1.52987(18) 0.75441(6)
H16A H 0.61700 1.59540 0.79210
C12A C 0.47051(18) 1.43361(18) 0.72558(6)
H17A H 0.35760 1.43690 0.74380
N4A N 0.2644(2) 0.3033(2) -0.06527(9)
C13A C 0.2302(2) 0.43835(19) -0.10737(7)
H18A H 0.27530 0.41100 -0.14890
H19A H 0.09950 0.43610 -0.11150
C14A C 0.3193(3) 0.6205(3) -0.08446(12)
H20A H 0.26790 0.65250 -0.04440
H21A H 0.29380 0.70240 -0.11470
N5A N 0.51590(17) 0.63056(16) -0.07662(6)
H22A H 0.53280 0.55220 -0.04300
C15A C 0.6040(3) 0.8051(3) -0.05431(8)
H23A H 0.58720 0.88570 -0.08610
H24A H 0.54490 0.84080 -0.01630
C16A C 0.8053(2) 0.81578(19) -0.04039(7)
H25A H 0.86460 0.78570 -0.07910
H26A H 0.85530 0.93530 -0.02710
C17A C 0.85202(18) 0.69816(19) 0.01032(6)
H27A H 0.97780 0.73590 0.02420
H28A H 0.84270 0.58020 -0.00830
C18A C 0.24350(17) 0.13414(17) -0.10093(6)
H29A H 0.23210 0.04290 -0.07150
H30A H 0.13160 0.11850 -0.12620
C19A C 0.40125(16) 0.11527(15) -0.14374(5)
C20A C 0.57514(17) 0.20846(17) -0.13024(6)
H31A H 0.59360 0.28770 -0.09530
C21A C 0.72024(17) 0.18460(17) -0.16808(6)
H32A H 0.83580 0.24770 -0.15910
C22A C 0.69093(17) 0.06583(17) -0.21931(6)
N6A N 0.84571(16) 0.04228(17) -0.25986(5)
O3A O 0.99471(14) 0.13003(16) -0.24589(5)
O4A O 0.81904(15) -0.06279(16) -0.30564(5)
C23A C 0.52097(18) -0.03033(17) -0.23380(6)
H33A H 0.50430 -0.11150 -0.26820
C24A C 0.37658(17) -0.00330(16) -0.19607(5)
H34A H 0.26090 -0.06530 -0.20580
#END
