
#######################################################################
#
#                 Cambridge Crystallographic Data Centre
#                                CCDC
#
#######################################################################
#
# If this CIF has been generated from an entry in the Cambridge
# Structural Database, then it will include bibliographic, chemical,
# crystal, experimental, refinement or atomic coordinate data resulting
# from the CCDC's data processing and validation procedures.
#
#######################################################################

data_CSD_CIF_QOVLIX
_audit_creation_date 2009-11-17
_audit_creation_method CSD-ConQuest-V1
_database_code_CSD QOVLIX
_database_code_depnum_ccdc_archive 'CCDC 670447'
_chemical_formula_sum 'C13 H16 N2 O4'
_chemical_formula_moiety
;
C13 H16 N2 O4
;
_journal_coden_Cambridge 179
_journal_volume 47
_journal_year 2008
_journal_page_first 10187
_journal_name_full 'Angew.Chem.,Int.Ed. '
loop_
_publ_author_name
"Min Lu"
"Di Zhu"
"Yunpeng Lu"
"Yuxuan Hou"
"Bin Tan"
"Guofu Zhong"
_chemical_name_systematic
;
(3R,6R)-3-((S)-1-Nitroethyl)-2-phenyl-1,2-oxazinane-6-carbaldehyde
;
_cell_volume   1292.806
_exptl_crystal_colour 'colorless'
_exptl_crystal_density_diffrn 1.358
_exptl_crystal_description 'plate'
_diffrn_ambient_temperature 223
#These two values have been output from a single CSD field.
_refine_ls_R_factor_gt 0.0537
_refine_ls_wR_factor_gt 0.0537
_symmetry_cell_setting orthorhombic
_symmetry_space_group_name_H-M 'P 21 21 21'
_symmetry_Int_Tables_number 19
loop_
_symmetry_equiv_pos_site_id
_symmetry_equiv_pos_as_xyz
1 x,y,z
2 1/2-x,-y,1/2+z
3 -x,1/2+y,1/2-z
4 1/2+x,1/2-y,-z
_cell_length_a 6.2303(3)
_cell_length_b 6.8352(4)
_cell_length_c 30.3580(17)
_cell_angle_alpha 90
_cell_angle_beta 90
_cell_angle_gamma 90
_cell_formula_units_Z 4
loop_
_atom_type_symbol
_atom_type_radius_bond
C 0.68
H 0.23
N 0.68
O 0.68
loop_
_atom_site_label
_atom_site_type_symbol
_atom_site_fract_x
_atom_site_fract_y
_atom_site_fract_z
C1 C 0.6639(4) 0.2686(3) 0.04665(7)
H1 H 0.59000 0.20270 0.06920
C2 C 0.6466(4) 0.4902(3) 0.04503(6)
H2 H 0.52410 0.52340 0.02570
C3 C 0.8426(4) 0.5941(3) 0.02720(6)
H3 H 0.80800 0.73190 0.02190
H4 H 0.88420 0.53510 -0.00100
C4 C 1.0302(3) 0.5804(3) 0.05953(6)
H5 H 1.14290 0.67250 0.05070
H6 H 1.09070 0.44810 0.05860
C5 C 0.9572(3) 0.6274(3) 0.10666(6)
H7 H 1.07470 0.59070 0.12700
C6 C 0.9087(3) 0.8480(3) 0.11326(6)
H8 H 0.83160 0.89770 0.08700
C7 C 0.7832(4) 0.9014(3) 0.15394(8)
H9 H 0.84460 0.83570 0.17930
H10 H 0.63490 0.86110 0.15030
H11 H 0.78920 1.04190 0.15840
C8 C 0.7083(3) 0.4459(2) 0.15862(6)
C9 C 0.5004(4) 0.3763(3) 0.16583(7)
H12 H 0.39790 0.38090 0.14310
C10 C 0.4460(5) 0.3001(3) 0.20678(8)
H13 H 0.30680 0.25120 0.21140
C11 C 0.5935(5) 0.2950(4) 0.24074(7)
H14 H 0.55530 0.24270 0.26830
C12 C 0.7962(5) 0.3670(4) 0.23389(7)
H15 H 0.89630 0.36530 0.25710
C13 C 0.8558(4) 0.4426(4) 0.19317(6)
H16 H 0.99530 0.49150 0.18890
N1 N 0.7745(3) 0.4994(2) 0.11554(5)
N2 N 1.1243(4) 0.9466(3) 0.11603(8)
O1 O 0.5961(2) 0.5588(2) 0.08860(4)
O2 O 1.1758(5) 1.0557(5) 0.08639(11)
O3 O 1.2362(4) 0.9111(5) 0.14797(10)
O4 O 0.7651(3) 0.1726(3) 0.02114(6)
#END
