
#######################################################################
#
#                 Cambridge Crystallographic Data Centre
#                                CCDC
#
#######################################################################
#
# If this CIF has been generated from an entry in the Cambridge
# Structural Database, then it will include bibliographic, chemical,
# crystal, experimental, refinement or atomic coordinate data resulting
# from the CCDC's data processing and validation procedures.
#
#######################################################################

data_CSD_CIF_QOVMIX
_audit_creation_date 2001-08-28
_audit_creation_method CSD-ConQuest-V1
_database_code_CSD QOVMIX
_database_code_depnum_ccdc_archive 'CCDC 156825'
_chemical_formula_sum 'C12 H19 N1 O6'
_chemical_formula_moiety
;
C12 H19 N1 O6
;
_journal_coden_Cambridge 16
_journal_volume 57
_journal_year 2001
_journal_page_first 1025
_journal_name_full 'Tetrahedron '
loop_
_publ_author_name
"C.Rodriguez-Garcia"
"J.Ibarzo"
"A.Alvarez-Larena"
"V.Branchadell"
"A.Oliva"
"R.M.Ortuno"
_chemical_name_systematic
;
(3S,4S)-3-Methoxy-5-((4'S)-2',2'-dimethyl-1',3'-dioxol-4'-yl)-4-nitrocyclohexa
ne-1-one
;
_chemical_melting_point 390.15
_cell_volume   1405.716
_exptl_crystal_colour 'white'
_exptl_crystal_density_diffrn 1.291
_exptl_special_details
;
Melting point range 390.15-391.15K

;
_exptl_crystal_preparation 'ethyl acetate/pentane'
_diffrn_ambient_temperature 293
#These two values have been output from a single CSD field.
_refine_ls_R_factor_gt 0.0404
_refine_ls_wR_factor_gt 0.0404
_symmetry_cell_setting orthorhombic
_symmetry_space_group_name_H-M 'P 21 21 21'
_symmetry_Int_Tables_number 19
loop_
_symmetry_equiv_pos_site_id
_symmetry_equiv_pos_as_xyz
1 x,y,z
2 1/2-x,-y,1/2+z
3 1/2+x,1/2-y,-z
4 -x,1/2+y,1/2-z
_cell_length_a 7.561(3)
_cell_length_b 9.571(3)
_cell_length_c 19.425(10)
_cell_angle_alpha 90
_cell_angle_beta 90
_cell_angle_gamma 90
_cell_formula_units_Z 4
loop_
_atom_type_symbol
_atom_type_radius_bond
C 0.68
H 0.23
N 0.68
O 0.68
loop_
_atom_site_label
_atom_site_type_symbol
_atom_site_fract_x
_atom_site_fract_y
_atom_site_fract_z
C1 C 0.0387(4) 0.2204(3) 0.1403(1)
C2 C -0.1366(4) 0.2494(3) 0.1782(2)
C3 C -0.2923(4) 0.2366(3) 0.1315(2)
C4 C -0.2987(4) 0.1078(3) 0.0873(2)
C5 C -0.1218(4) 0.0747(3) 0.0528(2)
C6 C 0.0259(4) 0.0775(3) 0.1055(2)
O1 O -0.4097(3) 0.3226(3) 0.1305(1)
N1 N 0.1961(3) 0.0451(3) 0.0685(1)
O2 O 0.2773(3) -0.0575(3) 0.0864(2)
O3 O 0.2447(3) 0.1245(3) 0.0235(1)
O4 O -0.1210(3) -0.0612(2) 0.0235(1)
C7 C -0.2245(6) -0.0745(4) -0.0359(2)
C8 C 0.1970(4) 0.2299(3) 0.1887(2)
O5 O 0.1725(3) 0.1398(2) 0.2464(1)
C9 C 0.2259(5) 0.2111(3) 0.3066(2)
O6 O 0.1856(3) 0.3545(2) 0.2919(1)
C10 C 0.2200(5) 0.3753(3) 0.2215(2)
C11 C 0.4208(5) 0.1943(5) 0.3183(3)
C12 C 0.1151(7) 0.1630(4) 0.3657(2)
H1 H 0.05310 0.29130 0.10430
H2 H -0.14920 0.18390 0.21600
H3 H -0.13360 0.34290 0.19740
H4 H -0.38810 0.12020 0.05210
H5 H -0.33360 0.02890 0.11560
H6 H -0.09800 0.14400 0.01680
H7 H 0.00400 0.00580 0.14050
H8 H -0.21790 -0.16890 -0.05250
H9 H -0.18150 -0.01190 -0.07060
H10 H -0.34520 -0.05200 -0.02520
H11 H 0.30520 0.20390 0.16400
H12 H 0.33930 0.40980 0.21460
H13 H 0.13710 0.44160 0.20190
H14 H 0.45440 0.24350 0.35940
H15 H 0.48440 0.23160 0.27970
H16 H 0.44830 0.09690 0.32340
H17 H 0.15030 0.21140 0.40670
H18 H 0.13080 0.06430 0.37200
H19 H -0.00710 0.18230 0.35620
#END
