
#######################################################################
#
#                 Cambridge Crystallographic Data Centre
#                                CCDC
#
#######################################################################
#
# If this CIF has been generated from an entry in the Cambridge
# Structural Database, then it will include bibliographic, chemical,
# crystal, experimental, refinement or atomic coordinate data resulting
# from the CCDC's data processing and validation procedures.
#
#######################################################################

data_CSD_CIF_QOVSUQ
_audit_creation_date 2009-11-17
_audit_creation_method CSD-ConQuest-V1
_database_code_CSD QOVSUQ
_database_code_depnum_ccdc_archive 'CCDC 724215'
_chemical_formula_sum 'C22 H38 N4 O4'
_chemical_formula_moiety
;
C22 H38 N4 O4
;
_journal_coeditor_code "IUCr SK3288"
_journal_coden_Cambridge 591
_journal_volume 65
_journal_year 2009
_journal_page_first o76
_journal_name_full 'Acta Crystallogr.,Sect.C:Cryst.Struct.Commun. '
loop_
_publ_author_name
"G.Teng"
"C.P.Walczak"
"P.J.Squattrito"
"D.K.Mohanty"
"W.Scharer"
"M.R.Giolando"
"K.Kirschbaum"
_chemical_name_systematic
;
4,6-Dinitro-N,N'-di-n-octylbenzene-1,3-diamine
;
_chemical_melting_point 355
_cell_volume   1138.493
_exptl_crystal_colour 'yellow'
_exptl_crystal_density_diffrn 1.233
_exptl_crystal_description 'columnar'
_diffrn_ambient_temperature 120
#These two values have been output from a single CSD field.
_refine_ls_R_factor_gt 0.0442
_refine_ls_wR_factor_gt 0.0442
_symmetry_cell_setting triclinic
_symmetry_space_group_name_H-M 'P -1'
_symmetry_Int_Tables_number 2
loop_
_symmetry_equiv_pos_site_id
_symmetry_equiv_pos_as_xyz
1 x,y,z
2 -x,-y,-z
_cell_length_a 4.6679(2)
_cell_length_b 15.5897(6)
_cell_length_c 15.7690(6)
_cell_angle_alpha 83.760(1)
_cell_angle_beta 89.356(1)
_cell_angle_gamma 86.421(1)
_cell_formula_units_Z 2
loop_
_atom_type_symbol
_atom_type_radius_bond
C 0.68
H 0.23
N 0.68
O 0.68
loop_
_atom_site_label
_atom_site_type_symbol
_atom_site_fract_x
_atom_site_fract_y
_atom_site_fract_z
O1 O 0.24260(19) 0.03304(5) -0.05228(5)
O2 O -0.13441(19) 0.07075(5) -0.12928(5)
O3 O -0.5046(2) 0.43627(6) -0.06148(6)
O4 O -0.61719(19) 0.33619(6) -0.13742(6)
N1 N 0.0387(2) 0.08520(6) -0.07503(6)
N2 N -0.4682(2) 0.36181(6) -0.08254(6)
N3 N 0.3564(2) 0.12187(6) 0.07635(6)
H1 H 0.381(3) 0.0744(11) 0.0554(10)
N4 N -0.1209(2) 0.40298(6) 0.06140(6)
H2 H -0.231(4) 0.4384(11) 0.0369(10)
C1 C 0.1660(2) 0.18057(7) 0.03705(7)
C2 C 0.0052(2) 0.16459(7) -0.03638(7)
C3 C -0.1980(2) 0.22544(7) -0.07204(7)
H3 H -0.301(3) 0.2133(9) -0.1194(9)
C4 C -0.2473(2) 0.30464(7) -0.04113(7)
C5 C -0.0861(2) 0.32621(7) 0.03005(7)
C6 C 0.1108(2) 0.26159(7) 0.06710(7)
H4 H 0.210(3) 0.2724(9) 0.1145(10)
C7 C 0.5056(2) 0.13197(7) 0.15491(7)
H5 H 0.587(3) 0.1883(9) 0.1504(9)
H6 H 0.661(3) 0.0902(9) 0.1586(9)
C8 C 0.3171(3) 0.11994(8) 0.23464(7)
H7 H 0.240(3) 0.0634(10) 0.2377(9)
H8 H 0.160(3) 0.1621(10) 0.2295(9)
C9 C 0.4846(3) 0.13000(8) 0.31523(7)
H9 H 0.635(3) 0.0864(10) 0.3215(10)
H10 H 0.575(3) 0.1852(10) 0.3089(10)
C10 C 0.3014(3) 0.12458(8) 0.39606(8)
H11 H 0.203(3) 0.0717(10) 0.4004(9)
H12 H 0.157(4) 0.1726(11) 0.3927(10)
C11 C 0.4762(3) 0.12786(8) 0.47668(8)
H13 H 0.575(3) 0.1812(10) 0.4708(10)
H14 H 0.613(3) 0.0791(10) 0.4814(10)
C12 C 0.2971(3) 0.12325(8) 0.55840(8)
H15 H 0.190(3) 0.0719(10) 0.5628(10)
H16 H 0.157(4) 0.1707(11) 0.5547(11)
C13 C 0.4769(3) 0.12411(9) 0.63837(8)
H17 H 0.585(4) 0.1761(11) 0.6326(10)
H18 H 0.618(4) 0.0739(11) 0.6419(11)
C14 C 0.2988(3) 0.11971(11) 0.72002(9)
H19 H 0.191(4) 0.0675(12) 0.7277(11)
H20 H 0.418(4) 0.1198(13) 0.7693(13)
H21 H 0.170(4) 0.1682(12) 0.7194(11)
C15 C 0.0168(3) 0.42373(7) 0.13836(7)
H22 H 0.216(3) 0.4024(9) 0.1382(9)
H23 H 0.018(3) 0.4851(9) 0.1349(9)
C16 C -0.1350(3) 0.38728(8) 0.21953(8)
H24 H -0.317(3) 0.4188(9) 0.2237(9)
H25 H -0.180(3) 0.3269(10) 0.2159(10)
C17 C 0.0380(3) 0.39281(8) 0.30015(8)
H26 H 0.113(3) 0.4505(10) 0.2980(9)
H27 H 0.199(4) 0.3505(10) 0.3013(10)
C18 C -0.1380(3) 0.37504(8) 0.38158(8)
H28 H -0.222(3) 0.3189(10) 0.3825(10)
H29 H -0.299(3) 0.4187(10) 0.3812(10)
C19 C 0.0344(3) 0.37681(9) 0.46293(8)
H30 H 0.124(3) 0.4308(10) 0.4608(9)
H31 H 0.186(4) 0.3298(11) 0.4656(11)
C20 C -0.1482(3) 0.36597(8) 0.54386(8)
H32 H -0.247(3) 0.3129(10) 0.5456(9)
H33 H -0.300(3) 0.4122(10) 0.5406(9)
C21 C 0.0219(3) 0.36753(9) 0.62564(8)
H34 H 0.118(3) 0.4228(10) 0.6225(10)
H35 H 0.168(4) 0.3210(11) 0.6291(11)
C22 C -0.1640(3) 0.35702(10) 0.70579(9)
H36 H -0.318(4) 0.4024(11) 0.7041(10)
H37 H -0.255(4) 0.3022(12) 0.7105(11)
H38 H -0.048(4) 0.3599(12) 0.7563(12)
#END
