
#######################################################################
#
#                 Cambridge Crystallographic Data Centre
#                                CCDC
#
#######################################################################
#
# If this CIF has been generated from an entry in the Cambridge
# Structural Database, then it will include bibliographic, chemical,
# crystal, experimental, refinement or atomic coordinate data resulting
# from the CCDC's data processing and validation procedures.
#
#######################################################################

data_CSD_CIF_QOVTAX
_audit_creation_date 2009-11-17
_audit_creation_method CSD-ConQuest-V1
_database_code_CSD QOVTAX
_database_code_depnum_ccdc_archive 'CCDC 724216'
_chemical_formula_sum 'C28 H50 N4 O4'
_chemical_formula_moiety
;
C28 H50 N4 O4
;
_journal_coeditor_code "IUCr SK3288"
_journal_coden_Cambridge 591
_journal_volume 65
_journal_year 2009
_journal_page_first o76
_journal_name_full 'Acta Crystallogr.,Sect.C:Cryst.Struct.Commun. '
loop_
_publ_author_name
"G.Teng"
"C.P.Walczak"
"P.J.Squattrito"
"D.K.Mohanty"
"W.Scharer"
"M.R.Giolando"
"K.Kirschbaum"
_chemical_name_systematic
;
4,6-Dinitro-N,N'-di-n-undecylbenzene-1,3-diamine
;
_chemical_melting_point 365
_cell_volume   1459.438
_exptl_crystal_colour 'yellow'
_exptl_crystal_density_diffrn 1.153
_exptl_crystal_description 'thin plate'
_diffrn_ambient_temperature 293
#These two values have been output from a single CSD field.
_refine_ls_R_factor_gt 0.0578
_refine_ls_wR_factor_gt 0.0578
_symmetry_cell_setting triclinic
_symmetry_space_group_name_H-M 'P -1'
_symmetry_Int_Tables_number 2
loop_
_symmetry_equiv_pos_site_id
_symmetry_equiv_pos_as_xyz
1 x,y,z
2 -x,-y,-z
_cell_length_a 4.7349(1)
_cell_length_b 15.6273(3)
_cell_length_c 19.7771(3)
_cell_angle_alpha 87.282(2)
_cell_angle_beta 88.549(2)
_cell_angle_gamma 87.069(2)
_cell_formula_units_Z 2
loop_
_atom_type_symbol
_atom_type_radius_bond
C 0.68
H 0.23
N 0.68
O 0.68
loop_
_atom_site_label
_atom_site_type_symbol
_atom_site_fract_x
_atom_site_fract_y
_atom_site_fract_z
O1 O 1.2446(3) 0.53227(9) -0.04457(7)
O2 O 0.9021(4) 0.56802(9) -0.11043(7)
O3 O 0.5025(3) 0.93061(9) -0.04702(7)
O4 O 0.4193(3) 0.83046(10) -0.11324(7)
N1 N 1.0553(3) 0.58419(9) -0.06443(7)
N2 N 0.5510(3) 0.85734(10) -0.06701(7)
N3 N 1.3537(3) 0.62890(9) 0.05696(7)
H1 H 1.380(5) 0.5784(15) 0.0377(12)
N4 N 0.8726(3) 0.90489(9) 0.05080(7)
H2 H 0.760(4) 0.9369(14) 0.0316(10)
C1 C 1.1659(3) 0.68454(10) 0.02668(7)
C2 C 1.0153(3) 0.66484(10) -0.03255(7)
C3 C 0.8196(3) 0.72344(11) -0.06016(8)
H3 H 0.727(4) 0.7082(12) -0.096(1)
C4 C 0.7642(3) 0.80279(10) -0.03419(7)
C5 C 0.9130(3) 0.82768(10) 0.02370(7)
C6 C 1.1065(3) 0.76601(10) 0.05193(8)
H4 H 1.202(3) 0.7795(10) 0.0906(8)
C7 C 1.4939(4) 0.64278(12) 0.11964(8)
H5 H 1.565(4) 0.7005(12) 0.1171(9)
H6 H 1.649(4) 0.6017(12) 0.1213(9)
C8 C 1.3058(4) 0.63209(12) 0.18266(8)
H7 H 1.139(4) 0.6740(14) 0.1802(10)
H8 H 1.222(4) 0.5762(14) 0.1826(10)
C9 C 1.4671(4) 0.64230(13) 0.24703(9)
H9 H 1.636(4) 0.5993(14) 0.248(1)
H10 H 1.542(4) 0.6985(15) 0.2446(10)
C10 C 1.2885(4) 0.63109(14) 0.31157(9)
H11 H 1.121(5) 0.6754(15) 0.3106(11)
H12 H 1.200(5) 0.5764(16) 0.3134(11)
C11 C 1.4538(4) 0.63680(14) 0.37584(9)
H13 H 1.613(5) 0.5930(14) 0.3763(10)
H14 H 1.535(4) 0.6906(14) 0.3763(10)
C12 C 1.2785(4) 0.62372(14) 0.44052(9)
H15 H 1.116(5) 0.6693(15) 0.4407(11)
H16 H 1.190(5) 0.5682(16) 0.4407(11)
C13 C 1.4469(4) 0.62880(14) 0.50455(9)
H17 H 1.533(5) 0.6852(15) 0.5052(11)
H18 H 1.603(5) 0.5856(15) 0.5046(11)
C14 C 1.2737(4) 0.61541(15) 0.56977(9)
H19 H 1.110(5) 0.6589(15) 0.5704(11)
H20 H 1.199(5) 0.5575(15) 0.5691(11)
C15 C 1.4421(4) 0.62157(15) 0.63345(9)
H21 H 1.601(5) 0.5786(15) 0.6331(11)
H22 H 1.525(5) 0.6773(16) 0.6329(11)
C16 C 1.2739(5) 0.60844(18) 0.69891(10)
H23 H 1.105(6) 0.6518(17) 0.6962(12)
H24 H 1.196(6) 0.552(2) 0.6987(15)
C17 C 1.4439(7) 0.6165(2) 0.76190(12)
H25 H 1.611(7) 0.575(2) 0.7604(15)
H26 H 1.332(7) 0.610(2) 0.8020(18)
H27 H 1.531(7) 0.673(2) 0.7634(15)
C18 C 1.0043(4) 0.92923(11) 0.11203(9)
H28 H 1.207(4) 0.9103(12) 0.1120(9)
H29 H 1.000(4) 0.9895(13) 0.1105(9)
C19 C 0.8557(4) 0.89531(14) 0.17631(9)
H30 H 0.679(5) 0.9302(14) 0.1833(10)
H31 H 0.796(5) 0.8340(15) 0.1711(11)
C20 C 1.0296(4) 0.89875(14) 0.23954(9)
H32 H 1.187(5) 0.8540(15) 0.2384(11)
H33 H 1.120(4) 0.9572(15) 0.2401(10)
C21 C 0.8570(4) 0.88589(16) 0.30481(9)
H34 H 0.742(6) 0.8347(18) 0.3016(13)
H35 H 0.718(5) 0.9354(16) 0.3086(12)
C22 C 1.0291(4) 0.88247(15) 0.36898(9)
H36 H 1.146(4) 0.9369(14) 0.3683(10)
H37 H 1.164(6) 0.8335(18) 0.3688(12)
C23 C 0.8493(5) 0.87836(16) 0.43364(9)
H38 H 0.727(6) 0.8282(18) 0.4328(13)
H39 H 0.720(5) 0.9299(16) 0.4336(11)
C24 C 1.0175(5) 0.87238(15) 0.49816(10)
H40 H 1.146(4) 0.9245(14) 0.4981(10)
H41 H 1.147(5) 0.8223(18) 0.4996(12)
C25 C 0.8357(5) 0.87116(16) 0.56274(10)
H42 H 0.707(5) 0.9234(17) 0.5612(11)
H43 H 0.706(5) 0.8226(18) 0.5616(12)
C26 C 1.0018(5) 0.86311(16) 0.62747(10)
H44 H 1.134(5) 0.9128(17) 0.6279(12)
H45 H 1.121(5) 0.8111(18) 0.6273(12)
C27 C 0.8198(6) 0.86272(19) 0.69160(11)
H46 H 0.699(6) 0.9172(18) 0.6910(13)
H47 H 0.687(6) 0.818(2) 0.6905(14)
C28 C 0.9865(8) 0.8518(2) 0.75613(13)
H48 H 1.091(8) 0.799(3) 0.7564(17)
H49 H 1.139(7) 0.897(2) 0.7576(15)
H50 H 0.860(7) 0.858(2) 0.7948(19)
#END
