
#######################################################################
#
#                 Cambridge Crystallographic Data Centre
#                                CCDC
#
#######################################################################
#
# If this CIF has been generated from an entry in the Cambridge
# Structural Database, then it will include bibliographic, chemical,
# crystal, experimental, refinement or atomic coordinate data resulting
# from the CCDC's data processing and validation procedures.
#
#######################################################################

data_CSD_CIF_QOVTEB
_audit_creation_date 2009-11-17
_audit_creation_method CSD-ConQuest-V1
_database_code_CSD QOVTEB
_database_code_depnum_ccdc_archive 'CCDC 724217'
_chemical_formula_sum 'C20 H24 N6 O8'
_chemical_formula_moiety
;
C20 H24 N6 O8
;
_journal_coeditor_code "IUCr SK3288"
_journal_coden_Cambridge 591
_journal_volume 65
_journal_year 2009
_journal_page_first o76
_journal_name_full 'Acta Crystallogr.,Sect.C:Cryst.Struct.Commun. '
loop_
_publ_author_name
"G.Teng"
"C.P.Walczak"
"P.J.Squattrito"
"D.K.Mohanty"
"W.Scharer"
"M.R.Giolando"
"K.Kirschbaum"
_chemical_name_systematic
;
N,N'-bis(2,4-Dinitrophenyl)octane-1,8-diamine
;
_chemical_melting_point 415
_cell_volume   1069.755
_exptl_crystal_colour 'yellow'
_exptl_crystal_density_diffrn 1.479
_exptl_crystal_description 'parallelepiped'
_diffrn_ambient_temperature 105.0
#These two values have been output from a single CSD field.
_refine_ls_R_factor_gt 0.0441
_refine_ls_wR_factor_gt 0.0441
_symmetry_cell_setting monoclinic
_symmetry_space_group_name_H-M 'P 21/c'
_symmetry_Int_Tables_number 14
loop_
_symmetry_equiv_pos_site_id
_symmetry_equiv_pos_as_xyz
1 x,y,z
2 -x,1/2+y,1/2-z
3 -x,-y,-z
4 x,-1/2-y,-1/2+z
_cell_length_a 4.6740(1)
_cell_length_b 25.7389(8)
_cell_length_c 8.9254(3)
_cell_angle_alpha 90
_cell_angle_beta 94.949(1)
_cell_angle_gamma 90
_cell_formula_units_Z 2
loop_
_atom_type_symbol
_atom_type_radius_bond
C 0.68
H 0.23
N 0.68
O 0.68
loop_
_atom_site_label
_atom_site_type_symbol
_atom_site_fract_x
_atom_site_fract_y
_atom_site_fract_z
O1 O 0.2873(3) 0.52120(4) 0.58095(14)
O2 O -0.0548(3) 0.54337(5) 0.71511(14)
O3 O -0.0743(3) 0.77934(5) 0.70804(16)
O4 O -0.2373(3) 0.71662(6) 0.83856(16)
N1 N 0.1404(3) 0.55469(5) 0.63733(15)
N2 N -0.0882(3) 0.73311(6) 0.74205(17)
N3 N 0.5325(3) 0.59148(5) 0.41903(15)
H1 H 0.517(4) 0.5595(9) 0.438(2)
C1 C 0.3856(3) 0.62460(6) 0.49881(17)
C2 C 0.1972(3) 0.60895(6) 0.60844(18)
C3 C 0.0470(3) 0.64441(7) 0.68846(19)
H2 H -0.069(4) 0.6324(8) 0.758(2)
C4 C 0.0792(3) 0.69653(6) 0.66181(19)
C5 C 0.2608(4) 0.71428(6) 0.55641(19)
H3 H 0.281(4) 0.7495(8) 0.539(2)
C6 C 0.4085(3) 0.67947(6) 0.47726(19)
H4 H 0.526(4) 0.6907(7) 0.409(2)
C7 C 0.7060(4) 0.60578(6) 0.29635(19)
H5 H 0.818(4) 0.6371(8) 0.326(2)
H6 H 0.843(4) 0.5771(8) 0.288(2)
C8 C 0.5231(4) 0.61429(6) 0.1484(2)
H7 H 0.374(5) 0.6418(9) 0.163(2)
H8 H 0.651(5) 0.6267(8) 0.079(2)
C9 C 0.3716(4) 0.56493(7) 0.0863(2)
H9 H 0.214(4) 0.5741(8) 0.010(2)
H10 H 0.264(4) 0.5485(8) 0.165(2)
C10 C 0.5748(4) 0.52520(7) 0.0261(2)
H11 H 0.739(5) 0.5172(8) 0.106(2)
H12 H 0.662(5) 0.5433(8) -0.058(3)
O1B O 0.7127(3) 0.47880(4) -0.58095(14)
O2B O 1.0548(3) 0.45663(5) -0.71511(14)
O3B O 1.0743(3) 0.22066(5) -0.70804(16)
O4B O 1.2373(3) 0.28338(6) -0.83856(16)
N1B N 0.8596(3) 0.44531(5) -0.63733(15)
N2B N 1.0882(3) 0.26689(6) -0.74205(17)
N3B N 0.4675(3) 0.40852(5) -0.41903(15)
H1B H 0.483(4) 0.4405(9) -0.438(2)
C1B C 0.6144(3) 0.37540(6) -0.49881(17)
C2B C 0.8028(3) 0.39105(6) -0.60844(18)
C3B C 0.9530(3) 0.35559(7) -0.68846(19)
H2B H 1.069(4) 0.3676(8) -0.758(2)
C4B C 0.9208(3) 0.30347(6) -0.66181(19)
C5B C 0.7392(4) 0.28572(6) -0.55641(19)
H3B H 0.719(4) 0.2505(8) -0.539(2)
C6B C 0.5915(3) 0.32053(6) -0.47726(19)
H4B H 0.474(4) 0.3093(7) -0.409(2)
C7B C 0.2940(4) 0.39422(6) -0.29635(19)
H5B H 0.182(4) 0.3629(8) -0.326(2)
H6B H 0.157(4) 0.4229(8) -0.288(2)
C8B C 0.4769(4) 0.38571(6) -0.1484(2)
H7B H 0.626(5) 0.3582(9) -0.163(2)
H8B H 0.349(5) 0.3733(8) -0.079(2)
C9B C 0.6284(4) 0.43507(7) -0.0863(2)
H9B H 0.786(4) 0.4259(8) -0.010(2)
H10B H 0.736(4) 0.4515(8) -0.165(2)
C10B C 0.4252(4) 0.47480(7) -0.0261(2)
H11B H 0.261(5) 0.4828(8) -0.106(2)
H12B H 0.338(5) 0.4567(8) 0.058(3)
#END
