
#######################################################################
#
#                 Cambridge Crystallographic Data Centre
#                                CCDC
#
#######################################################################
#
# If this CIF has been generated from an entry in the Cambridge
# Structural Database, then it will include bibliographic, chemical,
# crystal, experimental, refinement or atomic coordinate data resulting
# from the CCDC's data processing and validation procedures.
#
#######################################################################

data_CSD_CIF_QOWFUF
_audit_creation_date 2015-02-04
_audit_creation_method CSD-ConQuest-V1
_database_code_CSD QOWFUF
_database_code_depnum_ccdc_archive 'CCDC 1047456'
_chemical_formula_sum 'C6 H13 N3 O3'
_chemical_formula_moiety
;
C6 H13 N3 O3
;
_journal_coden_Cambridge 9
_journal_volume 53
_journal_year 2014
_journal_page_first 11404
_journal_name_full 'Inorg.Chem. '
loop_
_publ_author_name
"P.A.Tziouris"
"C.G.Tsiafoulis"
"M.Vlasiou"
"H.N.Miras"
"M.P.Sigalas"
"A.D.Keramidas"
"T.A.Kabanos"
_chemical_name_systematic
;
3,3'-(hydroxyimino)dipropanamide
;
_chemical_name_common
;
N,N-bis(3-amino-3-oxopropyl)hydroxylamine
;
_cell_volume   1675.388
_exptl_crystal_colour 'colorless'
_exptl_crystal_density_diffrn 1.389
_exptl_crystal_description 'rod'
_diffrn_ambient_temperature 102
#These two values have been output from a single CSD field.
_refine_ls_R_factor_gt 0.0538
_refine_ls_wR_factor_gt 0.0538
_symmetry_cell_setting monoclinic
_symmetry_space_group_name_H-M 'I 2/a'
_symmetry_Int_Tables_number 15
loop_
_symmetry_equiv_pos_site_id
_symmetry_equiv_pos_as_xyz
1 x,y,z
2 1/2-x,y,-z
3 1/2+x,1/2+y,1/2+z
4 -x,1/2+y,1/2-z
5 -x,-y,-z
6 -1/2+x,-y,z
7 -1/2-x,-1/2-y,-1/2-z
8 x,-1/2-y,-1/2+z
_cell_length_a 16.0349(17)
_cell_length_b 4.8622(5)
_cell_length_c 21.490(2)
_cell_angle_alpha 90
_cell_angle_beta 90.552(9)
_cell_angle_gamma 90
_cell_formula_units_Z 8
loop_
_atom_type_symbol
_atom_type_radius_bond
C 0.68
H 0.23
N 0.68
O 0.68
loop_
_atom_site_label
_atom_site_type_symbol
_atom_site_fract_x
_atom_site_fract_y
_atom_site_fract_z
O1 O 0.42132(10) -0.2991(3) 0.23171(7)
O2 O 0.31346(10) 0.3679(3) 0.39512(7)
N1 N 0.41923(10) -0.0007(3) 0.23099(8)
O3 O 0.40364(10) 0.3491(3) 0.04852(7)
C1 C 0.31598(13) 0.1152(4) 0.38658(9)
N2 N 0.39573(12) -0.0807(4) 0.01028(9)
C2 C 0.35576(12) 0.0790(4) 0.27641(9)
H1 H 0.30290 -0.00370 0.26460
H2 H 0.34880 0.27720 0.27530
C3 C 0.37814(13) -0.0084(4) 0.34249(9)
H3 H 0.37700 -0.20730 0.34570
H4 H 0.43390 0.05430 0.35310
C4 C 0.38827(13) 0.0769(4) 0.16879(9)
H5 H 0.38290 0.27540 0.16680
H6 H 0.33320 -0.00130 0.16260
C5 C 0.41350(12) 0.0980(4) 0.05512(9)
N3 N 0.26290(12) -0.0570(4) 0.41364(9)
C6 C 0.44454(13) -0.0187(4) 0.11629(9)
H7 H 0.50120 0.04250 0.12420
H8 H 0.44460 -0.21800 0.11430
H9 H 0.3849(18) -0.019(6) -0.0280(13)
H10 H 0.2644(18) -0.233(7) 0.4064(13)
H11 H 0.4085(19) -0.254(7) 0.0165(14)
H12 H 0.224(2) 0.016(8) 0.4421(16)
H13 H 0.469(2) -0.339(7) 0.2439(16)
#END
