
#######################################################################
#
#                 Cambridge Crystallographic Data Centre
#                                CCDC
#
#######################################################################
#
# If this CIF has been generated from an entry in the Cambridge
# Structural Database, then it will include bibliographic, chemical,
# crystal, experimental, refinement or atomic coordinate data resulting
# from the CCDC's data processing and validation procedures.
#
#######################################################################

data_CSD_CIF_QOXQUQ
_audit_creation_date 2009-11-17
_audit_creation_method CSD-ConQuest-V1
_database_code_CSD QOXQUQ
_database_code_depnum_ccdc_archive 'CCDC 716213'
_chemical_formula_sum 'C23 H24 N2 O5'
_chemical_formula_moiety
;
C23 H24 N2 O5
;
_journal_coden_Cambridge 1220
_journal_volume 15
_journal_year 2009
_journal_page_first 4224
_journal_name_full 'Chem.-Eur.J. '
loop_
_publ_author_name
"C.Kammerer"
"G.Prestat"
"D.Madec"
"G.Poli"
_chemical_name_systematic
;
Methyl 
1-benzyl-4-[2-methyl-1-(4-nitrophenyl)prop-1-en-1-yl]-2-oxopyrrolidine-3-carbo
xylate
;
_cell_volume   1056.539
_exptl_crystal_colour 'colorless'
_exptl_crystal_density_diffrn 1.284
_exptl_crystal_description 'block'
_diffrn_ambient_temperature 200
#These two values have been output from a single CSD field.
_refine_ls_R_factor_gt 0.0541
_refine_ls_wR_factor_gt 0.0541
_symmetry_cell_setting triclinic
_symmetry_space_group_name_H-M 'P -1'
_symmetry_Int_Tables_number 2
loop_
_symmetry_equiv_pos_site_id
_symmetry_equiv_pos_as_xyz
1 x,y,z
2 -x,-y,-z
_cell_length_a 9.739(5)
_cell_length_b 9.916(3)
_cell_length_c 12.837(3)
_cell_angle_alpha 89.85(3)
_cell_angle_beta 71.99(4)
_cell_angle_gamma 64.99(3)
_cell_formula_units_Z 2
loop_
_atom_type_symbol
_atom_type_radius_bond
C 0.68
H 0.23
N 0.68
O 0.68
loop_
_atom_site_label
_atom_site_type_symbol
_atom_site_fract_x
_atom_site_fract_y
_atom_site_fract_z
C1 C 0.3235(2) 0.8287(2) 0.30252(14)
C2 C 0.4495(3) 0.7023(2) 0.31516(16)
C3 C 0.4192(3) 0.6129(2) 0.39525(19)
C4 C 0.2632(4) 0.6489(3) 0.46259(18)
C5 C 0.1373(3) 0.7737(3) 0.45021(19)
C6 C 0.1670(2) 0.8640(2) 0.37080(17)
C7 C 0.3578(3) 0.9253(2) 0.21524(16)
C8 C 0.2529(2) 0.8557(2) 0.07357(15)
C9 C 0.3405(2) 0.7567(2) -0.04147(15)
C10 C 0.4927(2) 0.78268(19) -0.08791(14)
C11 C 0.5224(2) 0.8213(2) 0.01673(15)
C12 C 0.6366(2) 0.6485(2) -0.16524(15)
C13 C 0.8678(3) 0.5741(3) -0.3261(2)
C14 C 0.2395(2) 0.78179(19) -0.11718(14)
C15 C 0.1552(2) 0.7024(2) -0.11551(16)
C16 C 0.1491(3) 0.5872(3) -0.0383(2)
C17 C 0.0550(3) 0.7202(3) -0.18872(19)
C18 C 0.2434(2) 0.89374(19) -0.19709(14)
C19 C 0.3061(3) 0.8454(2) -0.31151(16)
C20 C 0.3113(3) 0.9448(3) -0.38823(17)
C21 C 0.2564(2) 1.0945(2) -0.34879(16)
C22 C 0.1957(2) 1.1472(2) -0.23660(17)
C23 C 0.1883(2) 1.0468(2) -0.16059(15)
N1 N 0.38461(19) 0.85954(18) 0.10402(12)
N2 N 0.2638(2) 1.2007(2) -0.42966(17)
O1 O 0.64713(16) 0.82249(16) 0.01956(12)
O2 O 0.72648(16) 0.69263(16) -0.24632(11)
O3 O 0.6671(2) 0.51841(16) -0.15586(14)
O4 O 0.2989(3) 1.1554(3) -0.52836(16)
O5 O 0.2350(2) 1.3290(2) -0.39499(16)
H1 H 0.55690 0.67450 0.26690
H2 H 0.50820 0.52480 0.40360
H3 H 0.24340 0.58830 0.51740
H4 H 0.03050 0.80010 0.49550
H5 H 0.07650 0.95290 0.36360
H6 H 0.45630 0.93190 0.21340
H7 H 0.26760 1.02820 0.23240
H8 H 0.19330 0.81240 0.12740
H9 H 0.17530 0.96270 0.06850
H10 H 0.38050 0.65060 -0.02850
H11 H 0.47020 0.87200 -0.12750
H12 H 0.93580 0.61560 -0.37210
H13 H 0.83780 0.52340 -0.37390
H14 H 0.92590 0.50260 -0.28980
H15 H 0.03890 0.60950 -0.00320
H16 H 0.20450 0.48690 -0.07890
H17 H 0.19320 0.58810 0.02200
H18 H 0.10260 0.62980 -0.24110
H19 H 0.04540 0.80370 -0.23170
H20 H -0.05380 0.73760 -0.14410
H21 H 0.34490 0.74150 -0.33700
H22 H 0.35350 0.90920 -0.46800
H23 H 0.15810 1.25160 -0.21090
H24 H 0.14370 1.08440 -0.08150
#END
