
#######################################################################
#
#                 Cambridge Crystallographic Data Centre
#                                CCDC
#
#######################################################################
#
# If this CIF has been generated from an entry in the Cambridge
# Structural Database, then it will include bibliographic, chemical,
# crystal, experimental, refinement or atomic coordinate data resulting
# from the CCDC's data processing and validation procedures.
#
#######################################################################

data_CSD_CIF_QOXRAW
_audit_creation_date 2001-08-28
_audit_creation_method CSD-ConQuest-V1
_database_code_CSD QOXRAW
_database_code_depnum_ccdc_archive 'CCDC 159938'
_chemical_formula_sum 'C27 H32 N2 O2'
_chemical_formula_moiety
;
C27 H32 N2 O2
;
_journal_coden_Cambridge 644
_journal_volume 56
_journal_year 2001
_journal_page_first 354
_journal_name_full 'Z.Naturforsch.,B:Chem.Sci. '
loop_
_publ_author_name
"T.Borowiak"
"I.Wolska"
"H.Mayr"
"J.Baran"
_chemical_name_systematic
;
6(E)-(2(Z)-(Hydroxyimino)-2-phenylethylidene)-7,7,8,8,9,9-hexamethyl-3-phenyl-
1,2-oxazaspiro(4,4)non-2-ene
;
_cell_volume   4727.211
_exptl_crystal_colour 'colorless'
_exptl_crystal_density_diffrn 1.171
_exptl_crystal_description 'plate'
_exptl_crystal_preparation 'methanol'
_diffrn_ambient_temperature ?
_diffrn_special_details
;
The study was carried out at room temperature,in the range 283-303K

;
#These two values have been output from a single CSD field.
_refine_ls_R_factor_gt 0.0626
_refine_ls_wR_factor_gt 0.0626
_symmetry_cell_setting orthorhombic
_symmetry_space_group_name_H-M 'P b c a'
_symmetry_Int_Tables_number 61
loop_
_symmetry_equiv_pos_site_id
_symmetry_equiv_pos_as_xyz
1 x,y,z
2 1/2+x,y,1/2-z
3 x,1/2-y,1/2+z
4 1/2-x,1/2+y,z
5 -x,-y,-z
6 -1/2-x,-y,-1/2+z
7 -x,-1/2+y,-1/2-z
8 -1/2+x,-1/2-y,-z
_cell_length_a 13.698(2)
_cell_length_b 11.836(2)
_cell_length_c 29.157(4)
_cell_angle_alpha 90
_cell_angle_beta 90
_cell_angle_gamma 90
_cell_formula_units_Z 8
loop_
_atom_type_symbol
_atom_type_radius_bond
C 0.68
H 0.23
N 0.68
O 0.68
loop_
_atom_site_label
_atom_site_type_symbol
_atom_site_fract_x
_atom_site_fract_y
_atom_site_fract_z
C1 C 0.8558(2) 0.3923(3) 0.71494(10)
C2 C 0.8276(2) 0.3928(3) 0.66234(10)
C3 C 0.9053(2) 0.3189(2) 0.63943(9)
C4 C 0.9623(2) 0.2587(2) 0.67650(9)
C5 C 0.9602(2) 0.3422(3) 0.71668(10)
C6 C 0.9255(2) 0.3063(2) 0.59551(10)
H1 H 0.9746(21) 0.2576(24) 0.5876(10)
C7 C 0.8847(2) 0.3625(2) 0.55466(9)
N1 N 0.9364(2) 0.4291(2) 0.53016(8)
O1 O 1.0282(2) 0.4496(2) 0.54970(8)
H2 H 1.0508(26) 0.4893(32) 0.5304(13)
C8 C 0.7850(2) 0.3399(2) 0.53745(9)
C9 C 0.7349(2) 0.4190(3) 0.51170(11)
H3 H 0.7636(21) 0.4848(26) 0.504(1)
C10 C 0.6412(3) 0.3984(3) 0.49705(13)
H4 H 0.6119(26) 0.4509(30) 0.4811(12)
C11 C 0.5959(3) 0.2998(4) 0.50766(13)
H5 H 0.5343(27) 0.2928(29) 0.4987(12)
C12 C 0.6444(3) 0.2194(4) 0.53279(14)
H6 H 0.6176(25) 0.1531(29) 0.5396(12)
C13 C 0.7384(3) 0.2394(3) 0.54738(11)
H7 H 0.7668(28) 0.1811(34) 0.5630(13)
C14 C 1.0611(2) 0.2098(3) 0.66352(12)
H8 H 1.0976(22) 0.2420(26) 0.6426(11)
H9 H 1.1057(23) 0.2147(26) 0.6869(11)
C15 C 1.0358(2) 0.0908(2) 0.65248(9)
N2 N 0.9509(2) 0.0625(2) 0.66704(9)
O2 O 0.90681(14) 0.1558(2) 0.68841(7)
C16 C 1.0989(2) 0.0077(3) 0.62977(10)
C17 C 1.1976(3) 0.0262(4) 0.62535(13)
H10 H 1.2220(23) 0.0909(27) 0.6365(11)
C18 C 1.2571(3) -0.0531(5) 0.6046(2)
H11 H 1.3200(33) -0.0364(37) 0.6018(15)
C19 C 1.2177(5) -0.1500(5) 0.5877(2)
H12 H 1.2556(32) -0.1929(36) 0.5746(14)
C20 C 1.1205(4) -0.1700(4) 0.5916(2)
H13 H 1.0888(31) -0.243(4) 0.5796(15)
C21 C 1.0602(3) -0.0922(3) 0.61244(13)
H14 H 0.9976(27) -0.1113(31) 0.6172(12)
C22 C 0.9906(3) 0.2900(3) 0.76200(11)
H15 H 0.9854(18) 0.3454(7) 0.7859(2)
H16 H 1.0570(6) 0.2643(19) 0.7599(3)
H17 H 0.9488(12) 0.2271(14) 0.7689(4)
C23 C 1.0369(3) 0.4361(3) 0.70584(14)
H18 H 1.0208(11) 0.4717(15) 0.6773(5)
H19 H 1.1007(4) 0.4028(4) 0.7037(9)
H20 H 1.0365(14) 0.4914(12) 0.7299(5)
C24 C 0.7869(3) 0.3150(3) 0.74375(13)
H21 H 0.7929(15) 0.2384(5) 0.7334(6)
H22 H 0.7206(3) 0.3397(14) 0.7400(7)
H23 H 0.8047(13) 0.3195(18) 0.7755(2)
C25 C 0.8456(3) 0.5071(3) 0.73784(12)
H24 H 0.7789(5) 0.5318(10) 0.7359(8)
H25 H 0.8870(14) 0.5607(6) 0.7226(6)
H26 H 0.8643(18) 0.5013(5) 0.7695(2)
C26 C 0.7243(2) 0.3422(3) 0.65465(13)
H27 H 0.6767(3) 0.3877(13) 0.6703(8)
H28 H 0.7223(6) 0.2666(9) 0.6665(8)
H29 H 0.7099(8) 0.3412(21) 0.62242(15)
C27 C 0.8246(3) 0.5084(3) 0.64072(13)
H30 H 0.7764(15) 0.5538(8) 0.6560(6)
H31 H 0.808(2) 0.5014(4) 0.6089(3)
H32 H 0.8874(7) 0.5436(10) 0.6436(8)
#END
