
#######################################################################
#
#                 Cambridge Crystallographic Data Centre
#                                CCDC
#
#######################################################################
#
# If this CIF has been generated from an entry in the Cambridge
# Structural Database, then it will include bibliographic, chemical,
# crystal, experimental, refinement or atomic coordinate data resulting
# from the CCDC's data processing and validation procedures.
#
#######################################################################

data_CSD_CIF_QOYCUD
_audit_creation_date 2009-11-17
_audit_creation_method CSD-ConQuest-V1
_database_code_CSD QOYCUD
_database_code_depnum_ccdc_archive 'CCDC 730795'
_chemical_formula_sum 'C27 H25 N3 O4'
_chemical_formula_moiety
;
C27 H25 N3 O4
;
_journal_coden_Cambridge 35
_journal_volume 74
_journal_year 2009
_journal_page_first 2771
_journal_name_full 'J.Org.Chem. '
loop_
_publ_author_name
"H.J.Kumpaty"
"M.L.Van Linn"
"M.S.Kabir"
"F.H.Forsterling"
"J.R.Deschamps"
"J.M.Cook"
_chemical_name_systematic
;
cis-Ethyl 
2-benzyl-1-(4-nitrophenyl)-2,3,4,9-tetrahydro-1H-\b-carboline-3-carboxylate
;
_chemical_melting_point 439.15
_cell_volume   2239.130
_exptl_crystal_colour 'pale yellow'
_exptl_crystal_density_diffrn 1.351
_exptl_special_details
;
Melting point range 439.15-443.15K

;
_exptl_crystal_description 'plate'
_diffrn_ambient_temperature 103
#These two values have been output from a single CSD field.
_refine_ls_R_factor_gt 0.0342
_refine_ls_wR_factor_gt 0.0342
_symmetry_cell_setting monoclinic
_symmetry_space_group_name_H-M 'P 21'
_symmetry_Int_Tables_number 4
loop_
_symmetry_equiv_pos_site_id
_symmetry_equiv_pos_as_xyz
1 x,y,z
2 -x,1/2+y,-z
_cell_length_a 7.7011(5)
_cell_length_b 7.6079(5)
_cell_length_c 38.271(3)
_cell_angle_alpha 90
_cell_angle_beta 93.031(1)
_cell_angle_gamma 90
_cell_formula_units_Z 4
loop_
_atom_type_symbol
_atom_type_radius_bond
C 0.68
H 0.23
N 0.68
O 0.68
loop_
_atom_site_label
_atom_site_type_symbol
_atom_site_fract_x
_atom_site_fract_y
_atom_site_fract_z
C1 C 0.53218(19) 0.2457(2) 0.88836(4)
H1 H 0.65920 0.23090 0.89450
N1 N 0.45265(16) 0.06945(19) 0.88925(3)
C2 C 0.26662(18) 0.0572(2) 0.89549(4)
H2 H 0.24030 -0.07110 0.89720
C3 C 0.2277(2) 0.1360(2) 0.93098(4)
H3 H 0.10100 0.15500 0.93220
H4 H 0.26560 0.05360 0.94990
C4 C 0.32122(19) 0.3068(2) 0.93589(4)
C5 C 0.29551(19) 0.4465(2) 0.96016(4)
C6 C 0.17905(19) 0.4739(2) 0.98674(4)
H5 H 0.09220 0.38920 0.99110
C7 C 0.1931(2) 0.6254(2) 1.00625(4)
H6 H 0.11520 0.64440 1.02430
C8 C 0.3202(2) 0.7529(2) 1.00008(4)
H7 H 0.32670 0.85620 1.01400
C9 C 0.4362(2) 0.7298(2) 0.97396(4)
H8 H 0.52200 0.81580 0.96970
C10 C 0.42220(19) 0.5759(2) 0.95418(4)
N2 N 0.52012(17) 0.5166(2) 0.92721(3)
H9 H 0.608(2) 0.575(3) 0.9181(5)
C11 C 0.45864(19) 0.3531(2) 0.91683(4)
O1 O 0.01311(14) 0.21517(19) 0.87097(3)
C12 C 0.14156(19) 0.1296(2) 0.86638(4)
O2 O 0.18893(14) 0.07759(17) 0.83480(3)
C13 C 0.0737(2) 0.1308(3) 0.80529(4)
H10 H 0.04240 0.25650 0.80740
H11 H -0.03440 0.06020 0.80460
C14 C 0.1707(2) 0.1005(3) 0.77273(4)
H12 H 0.09510 0.12890 0.75210
H13 H 0.20630 -0.02300 0.77170
H14 H 0.27400 0.17590 0.77320
C15 C 0.51541(19) 0.3394(2) 0.85291(4)
C16 C 0.63931(19) 0.3069(2) 0.82835(4)
H15 H 0.73360 0.23000 0.83420
C17 C 0.6270(2) 0.3850(2) 0.79570(4)
H16 H 0.70920 0.35920 0.77880
C18 C 0.4920(2) 0.5015(2) 0.78824(4)
N3 N 0.48133(18) 0.5892(2) 0.75398(4)
O3 O 0.57191(18) 0.5338(2) 0.73093(3)
O4 O 0.38129(17) 0.71428(19) 0.74984(3)
C19 C 0.3679(2) 0.5406(2) 0.81212(4)
H17 H 0.27730 0.62220 0.80650
C20 C 0.38016(19) 0.4571(2) 0.84431(4)
H18 H 0.29530 0.48010 0.86090
C21 C 0.51713(19) -0.0579(2) 0.86476(4)
H19 H 0.52860 0.00050 0.84190
H20 H 0.43030 -0.15320 0.86140
C22 C 0.69141(19) -0.1387(2) 0.87637(4)
C23 C 0.7773(2) -0.2411(2) 0.85226(4)
H21 H 0.73540 -0.24430 0.82850
C24 C 0.9235(2) -0.3378(3) 0.86291(5)
H22 H 0.97960 -0.40890 0.84650
C25 C 0.9878(2) -0.3313(3) 0.89741(5)
H23 H 1.08580 -0.40020 0.90480
C26 C 0.9085(2) -0.2237(2) 0.92099(4)
H24 H 0.95510 -0.21510 0.94440
C27 C 0.76034(19) -0.1278(2) 0.91053(4)
H25 H 0.70640 -0.05460 0.92690
C28 C 0.20069(19) 0.6389(2) 0.61185(4)
H26 H 0.21060 0.51100 0.60620
N4 N 0.37527(16) 0.71713(19) 0.60845(3)
C29 C 0.3862(2) 0.9061(2) 0.60129(4)
H27 H 0.51120 0.92990 0.59720
C30 C 0.2848(2) 0.9574(2) 0.56733(4)
H28 H 0.26290 1.08560 0.56720
H29 H 0.35430 0.92860 0.54710
C31 C 0.11567(19) 0.8610(2) 0.56427(4)
C32 C -0.0338(2) 0.8888(2) 0.54082(4)
C33 C -0.0743(2) 1.0105(3) 0.51424(4)
H30 H 0.00600 1.10010 0.50890
C34 C -0.2342(2) 0.9978(3) 0.49580(4)
H31 H -0.26300 1.07880 0.47750
C35 C -0.3528(2) 0.8671(3) 0.50391(4)
H32 H -0.46120 0.86120 0.49090
C36 C -0.3175(2) 0.7458(3) 0.53029(4)
H33 H -0.39970 0.65810 0.53570
C37 C -0.1561(2) 0.7577(2) 0.54854(4)
N5 N -0.08417(17) 0.6555(2) 0.57537(3)
H34 H -0.130(2) 0.563(3) 0.5840(5)
C38 C 0.08104(19) 0.7186(2) 0.58409(4)
O5 O 0.22865(15) 1.13670(18) 0.63100(3)
C39 C 0.3404(2) 1.0268(2) 0.63178(4)
O6 O 0.44737(16) 0.99493(18) 0.65997(3)
C40 C 0.4201(2) 1.0984(3) 0.69097(5)
H35 H 0.31060 1.06270 0.70140
H36 H 0.41200 1.22470 0.68490
C41 C 0.5713(2) 1.0669(3) 0.71633(5)
H37 H 0.54940 1.12290 0.73870
H38 H 0.67670 1.11690 0.70700
H39 H 0.58710 0.94020 0.71990
C42 C 0.12697(19) 0.6512(2) 0.64815(4)
C43 C 0.1588(2) 0.5136(2) 0.67170(4)
H40 H 0.22270 0.41400 0.66470
C44 C 0.0988(2) 0.5195(3) 0.70510(4)
H41 H 0.12180 0.42590 0.72110
C45 C 0.0049(2) 0.6647(3) 0.71459(4)
N6 N -0.05540(18) 0.6728(2) 0.75037(4)
O7 O -0.01622(17) 0.5521(2) 0.77047(3)
O8 O -0.14171(18) 0.8009(2) 0.75857(3)
C46 C -0.0331(2) 0.8022(3) 0.69175(4)
H42 H -0.09960 0.90000 0.69880
C47 C 0.0283(2) 0.7937(2) 0.65835(4)
H43 H 0.00260 0.88630 0.64220
C48 C 0.5102(2) 0.6487(2) 0.63303(4)
H44 H 0.45960 0.63180 0.65600
H45 H 0.60340 0.73790 0.63610
C49 C 0.59095(19) 0.4769(2) 0.62219(4)
C50 C 0.7204(2) 0.4046(2) 0.64491(4)
H46 H 0.74250 0.45430 0.66750
C51 C 0.8167(2) 0.2612(2) 0.63477(4)
H47 H 0.90460 0.21390 0.65040
C52 C 0.7858(2) 0.1866(2) 0.60212(4)
H48 H 0.85420 0.09040 0.59500
C53 C 0.6537(2) 0.2536(2) 0.57984(4)
H49 H 0.62960 0.20080 0.55760
C54 C 0.5565(2) 0.3973(2) 0.58983(4)
H50 H 0.46590 0.44150 0.57450
#END
