
#######################################################################
#
#                 Cambridge Crystallographic Data Centre
#                                CCDC
#
#######################################################################
#
# If this CIF has been generated from an entry in the Cambridge
# Structural Database, then it will include bibliographic, chemical,
# crystal, experimental, refinement or atomic coordinate data resulting
# from the CCDC's data processing and validation procedures.
#
#######################################################################

data_CSD_CIF_QOYGUH
_audit_creation_date 2009-11-17
_audit_creation_method CSD-ConQuest-V1
_database_code_CSD QOYGUH
_database_code_depnum_ccdc_archive 'CCDC 689888'
_chemical_formula_sum 'C14 H13 N3 O3'
_chemical_formula_moiety
;
C14 H13 N3 O3
;
_journal_coden_Cambridge 643
_journal_volume 224
_journal_year 2009
_journal_page_first 213
_journal_name_full 'Z.Krist.Cryst.Mater. '
loop_
_publ_author_name
"T.C.Baddeley"
"L.F.de S.Franca"
"R.A.Howie"
"G.M.de Lima"
"J.M.S.Skakle"
"J.D.de Souza"
"J.L.Wardell"
"S.M.S.V.Wardell"
_chemical_name_systematic
;
2-Hydroxyacetophenone 2-nitrophenylhydrazone
;
_chemical_melting_point 434.15
_cell_volume   2488.236
_exptl_crystal_colour 'red'
_exptl_crystal_density_diffrn 1.448
_exptl_special_details
;
Melting point range 434.15-435.15K
orthorhombic polymorph

;
_exptl_crystal_description 'rod'
_exptl_crystal_preparation 'DMSO'
_diffrn_ambient_temperature 120
#These two values have been output from a single CSD field.
_refine_ls_R_factor_gt 0.0726
_refine_ls_wR_factor_gt 0.0726
_symmetry_cell_setting orthorhombic
_symmetry_space_group_name_H-M 'P b c a'
_symmetry_Int_Tables_number 61
loop_
_symmetry_equiv_pos_site_id
_symmetry_equiv_pos_as_xyz
1 x,y,z
2 1/2-x,-y,1/2+z
3 -x,1/2+y,1/2-z
4 1/2+x,1/2-y,-z
5 -x,-y,-z
6 -1/2+x,y,-1/2-z
7 x,-1/2-y,-1/2+z
8 -1/2-x,-1/2+y,z
_cell_length_a 7.0741(3)
_cell_length_b 14.1205(8)
_cell_length_c 24.9098(13)
_cell_angle_alpha 90
_cell_angle_beta 90
_cell_angle_gamma 90
_cell_formula_units_Z 8
loop_
_atom_type_symbol
_atom_type_radius_bond
C 0.68
H 0.23
N 0.68
O 0.68
loop_
_atom_site_label
_atom_site_type_symbol
_atom_site_fract_x
_atom_site_fract_y
_atom_site_fract_z
O1 O 0.2539(3) 0.62596(14) 0.51381(7)
H1 H 0.29000 0.60460 0.48400
O2 O 0.5015(3) 0.35425(14) 0.32193(8)
O3 O 0.6441(3) 0.40422(14) 0.25028(8)
N1 N 0.3695(3) 0.47341(16) 0.39141(8)
H2 H 0.37670 0.41300 0.38290
N2 N 0.3132(3) 0.49882(16) 0.44197(8)
N3 N 0.5529(3) 0.42009(17) 0.29173(9)
C1 C 0.4146(4) 0.54015(19) 0.35389(10)
C2 C 0.5051(4) 0.51647(19) 0.30501(10)
C3 C 0.5577(4) 0.5862(2) 0.26801(10)
H3 H 0.62280 0.56880 0.23610
C4 C 0.5159(4) 0.6795(2) 0.27746(11)
H4 H 0.55210 0.72690 0.25240
C5 C 0.4193(4) 0.7038(2) 0.32449(11)
H5 H 0.38600 0.76810 0.33060
C6 C 0.3716(4) 0.63652(19) 0.36198(11)
H6 H 0.30860 0.65530 0.39390
C7 C 0.2695(4) 0.43112(19) 0.47481(10)
C8 C 0.2127(4) 0.45768(19) 0.52984(10)
C9 C 0.2056(4) 0.5530(2) 0.54643(10)
C10 C 0.1482(4) 0.5765(2) 0.59823(11)
H7 H 0.14400 0.64100 0.60900
C11 C 0.0974(4) 0.5064(2) 0.63405(11)
H8 H 0.05600 0.52300 0.66910
C12 C 0.1064(4) 0.4124(2) 0.61925(11)
H9 H 0.07410 0.36420 0.64430
C13 C 0.1626(4) 0.3886(2) 0.56792(11)
H10 H 0.16760 0.32370 0.55800
C14 C 0.2749(5) 0.3288(2) 0.45808(12)
H11 H 0.20900 0.32130 0.42370
H12 H 0.21270 0.29000 0.48550
H13 H 0.40670 0.30850 0.45410
#END
