
#######################################################################
#
#                 Cambridge Crystallographic Data Centre
#                                CCDC
#
#######################################################################
#
# If this CIF has been generated from an entry in the Cambridge
# Structural Database, then it will include bibliographic, chemical,
# crystal, experimental, refinement or atomic coordinate data resulting
# from the CCDC's data processing and validation procedures.
#
#######################################################################

data_CSD_CIF_QOYGUH01
_audit_creation_date 2009-11-17
_audit_creation_method CSD-ConQuest-V1
_database_code_CSD QOYGUH01
_database_code_depnum_ccdc_archive 'CCDC 689889'
_chemical_formula_sum 'C14 H13 N3 O3'
_chemical_formula_moiety
;
C14 H13 N3 O3
;
_journal_coden_Cambridge 643
_journal_volume 224
_journal_year 2009
_journal_page_first 213
_journal_name_full 'Z.Krist.Cryst.Mater. '
loop_
_publ_author_name
"T.C.Baddeley"
"L.F.de S.Franca"
"R.A.Howie"
"G.M.de Lima"
"J.M.S.Skakle"
"J.D.de Souza"
"J.L.Wardell"
"S.M.S.V.Wardell"
_chemical_name_systematic
;
2-Hydroxyacetophenone 2-nitrophenylhydrazone
;
_chemical_melting_point 436.15
_cell_volume   1244.656
_exptl_crystal_colour 'dark orange'
_exptl_crystal_density_diffrn 1.448
_exptl_special_details
;
Melting point range 436.15-437.15K
triclinic polymorph

;
_exptl_crystal_description 'block'
_exptl_crystal_preparation 'ethanol'
_diffrn_ambient_temperature 120
#These two values have been output from a single CSD field.
_refine_ls_R_factor_gt 0.1875
_refine_ls_wR_factor_gt 0.1875
_symmetry_cell_setting triclinic
_symmetry_space_group_name_H-M 'P -1'
_symmetry_Int_Tables_number 2
loop_
_symmetry_equiv_pos_site_id
_symmetry_equiv_pos_as_xyz
1 x,y,z
2 -x,-y,-z
_cell_length_a 7.4131(11)
_cell_length_b 12.370(2)
_cell_length_c 14.343(3)
_cell_angle_alpha 107.287(7)
_cell_angle_beta 91.755(1)
_cell_angle_gamma 96.583(1)
_cell_formula_units_Z 4
loop_
_atom_type_symbol
_atom_type_radius_bond
C 0.68
H 0.23
N 0.68
O 0.68
loop_
_atom_site_label
_atom_site_type_symbol
_atom_site_fract_x
_atom_site_fract_y
_atom_site_fract_z
O1 O 0.2383(9) 0.6637(5) -0.0770(4)
H1 H 0.25260 0.60040 -0.06930
O2 O 0.3101(9) 0.2663(5) 0.1161(5)
O3 O 0.4084(10) 0.1051(6) 0.0465(5)
N1 N 0.2831(8) 0.4132(6) 0.0237(5)
H2 H 0.27590 0.39930 0.08030
N2 N 0.2444(9) 0.5159(6) 0.0166(5)
N3 N 0.3621(10) 0.1955(7) 0.0425(6)
C1 C 0.3329(10) 0.3311(7) -0.0554(6)
C2 C 0.3726(11) 0.2244(7) -0.0476(6)
C3 C 0.4194(10) 0.1409(7) -0.1280(7)
H3 H 0.44340 0.06980 -0.12090
C4 C 0.4318(11) 0.1587(8) -0.2170(7)
H4 H 0.46190 0.10060 -0.27220
C5 C 0.3984(11) 0.2668(7) -0.2251(6)
H5 H 0.41140 0.28200 -0.28580
C6 C 0.3483(11) 0.3484(7) -0.1475(6)
H6 H 0.32310 0.41880 -0.15560
C7 C 0.1809(11) 0.5837(7) 0.0933(6)
C8 C 0.1505(10) 0.6968(7) 0.0898(6)
C9 C 0.1788(10) 0.7314(7) 0.0053(7)
C10 C 0.1529(12) 0.8421(7) 0.0061(7)
H7 H 0.17630 0.86630 -0.04980
C11 C 0.0936(13) 0.9152(8) 0.0878(7)
H8 H 0.07410 0.98970 0.08740
C12 C 0.0617(11) 0.8831(7) 0.1701(8)
H9 H 0.02150 0.93530 0.22610
C13 C 0.0883(11) 0.7744(8) 0.1714(7)
H10 H 0.06400 0.75220 0.22820
C14 C 0.1520(12) 0.5491(7) 0.1846(7)
H11 H 0.06920 0.47740 0.16840
H12 H 0.09880 0.60890 0.23280
H13 H 0.26900 0.53850 0.21200
O4 O 0.3398(9) 0.6540(5) 0.4176(5)
H14 H 0.28900 0.59470 0.42790
O5 O 0.0833(8) 0.2730(5) 0.6205(5)
O6 O -0.0842(10) 0.1123(6) 0.5486(5)
N4 N 0.1761(9) 0.4141(6) 0.5245(5)
H15 H 0.17620 0.40250 0.58220
N5 N 0.2637(9) 0.5144(6) 0.5164(5)
N6 N -0.0019(10) 0.2033(7) 0.5465(6)
C15 C 0.0884(11) 0.3314(7) 0.4452(6)
C16 C 0.0002(11) 0.2262(7) 0.4525(7)
C17 C -0.0903(11) 0.1445(7) 0.3719(7)
H16 H -0.14880 0.07490 0.37850
C18 C -0.0959(11) 0.1633(7) 0.2829(6)
H17 H -0.15700 0.10690 0.22730
C19 C -0.0116(11) 0.2655(7) 0.2742(6)
H18 H -0.01490 0.27880 0.21220
C20 C 0.0753(10) 0.3466(7) 0.3529(6)
H19 H 0.12940 0.41650 0.34500
C21 C 0.3513(11) 0.5826(8) 0.5963(7)
C22 C 0.4392(11) 0.6930(7) 0.5878(6)
C23 C 0.4296(11) 0.7231(7) 0.5007(7)
C24 C 0.5139(12) 0.8294(7) 0.4988(7)
H20 H 0.50900 0.84860 0.43940
C25 C 0.6028(12) 0.9059(8) 0.5804(8)
H21 H 0.65920 0.97780 0.57780
C26 C 0.6105(12) 0.8786(8) 0.6668(8)
H22 H 0.67070 0.93280 0.72400
C27 C 0.5332(11) 0.7751(7) 0.6714(7)
H23 H 0.54210 0.75760 0.73140
C28 C 0.3671(13) 0.5521(8) 0.6899(6)
H24 H 0.24530 0.53150 0.70900
H25 H 0.42990 0.61780 0.74160
H26 H 0.43660 0.48730 0.68010
#END
