
#######################################################################
#
#                 Cambridge Crystallographic Data Centre
#                                CCDC
#
#######################################################################
#
# If this CIF has been generated from an entry in the Cambridge
# Structural Database, then it will include bibliographic, chemical,
# crystal, experimental, refinement or atomic coordinate data resulting
# from the CCDC's data processing and validation procedures.
#
#######################################################################

data_CSD_CIF_QOYHAO
_audit_creation_date 2009-11-17
_audit_creation_method CSD-ConQuest-V1
_database_code_CSD QOYHAO
_database_code_depnum_ccdc_archive 'CCDC 689890'
_chemical_formula_sum 'C14 H13 N3 O3'
_chemical_formula_moiety
;
C14 H13 N3 O3
;
_journal_coden_Cambridge 643
_journal_volume 224
_journal_year 2009
_journal_page_first 213
_journal_name_full 'Z.Krist.Cryst.Mater. '
loop_
_publ_author_name
"T.C.Baddeley"
"L.F.de S.Franca"
"R.A.Howie"
"G.M.de Lima"
"J.M.S.Skakle"
"J.D.de Souza"
"J.L.Wardell"
"S.M.S.V.Wardell"
_chemical_name_systematic
;
2-Hydroxyacetophenone 3-nitrophenylhydrazone
;
_chemical_melting_point 466.15
_cell_volume   1275.947
_exptl_crystal_colour 'orange'
_exptl_crystal_density_diffrn 1.412
_exptl_special_details
;
Melting point range 466.15-467.15K

;
_exptl_crystal_description 'plate'
_exptl_crystal_preparation 'ethanol'
_diffrn_ambient_temperature 120
#These two values have been output from a single CSD field.
_refine_ls_R_factor_gt 0.0457
_refine_ls_wR_factor_gt 0.0457
_symmetry_cell_setting monoclinic
_symmetry_space_group_name_H-M 'P 21/n'
_symmetry_Int_Tables_number 14
loop_
_symmetry_equiv_pos_site_id
_symmetry_equiv_pos_as_xyz
1 x,y,z
2 1/2-x,1/2+y,1/2-z
3 -x,-y,-z
4 -1/2+x,-1/2-y,-1/2+z
_cell_length_a 5.4396(1)
_cell_length_b 16.2702(5)
_cell_length_c 14.4207(4)
_cell_angle_alpha 90
_cell_angle_beta 91.3107(17)
_cell_angle_gamma 90
_cell_formula_units_Z 4
loop_
_atom_type_symbol
_atom_type_radius_bond
C 0.68
H 0.23
N 0.68
O 0.68
loop_
_atom_site_label
_atom_site_type_symbol
_atom_site_fract_x
_atom_site_fract_y
_atom_site_fract_z
O1 O 0.13558(19) 0.64740(7) 0.65077(7)
H1 H 0.05780 0.66320 0.69720
O2 O -0.4828(2) 0.78588(7) 0.58796(7)
O3 O -0.8050(2) 0.85664(8) 0.62204(9)
N1 N -0.1194(2) 0.68956(7) 0.88828(8)
H2 H -0.071(3) 0.6902(10) 0.9471(13)
N2 N 0.0326(2) 0.65798(7) 0.82311(8)
N3 N -0.6217(2) 0.81674(7) 0.64465(9)
C1 C -0.3055(2) 0.74295(8) 0.85974(10)
C2 C -0.3664(2) 0.75451(8) 0.76608(10)
H3 H -0.27530 0.72850 0.71890
C3 C -0.5640(3) 0.80516(8) 0.74405(10)
C4 C -0.7039(3) 0.84546(9) 0.80854(11)
H4 H -0.83930 0.87920 0.79040
C5 C -0.6369(3) 0.83423(9) 0.90127(11)
H5 H -0.72680 0.86160 0.94780
C6 C -0.4415(3) 0.78393(9) 0.92714(10)
H6 H -0.39930 0.77710 0.99100
C7 C 0.2019(2) 0.60528(8) 0.84714(10)
C8 C 0.3605(2) 0.57488(8) 0.77326(10)
C9 C 0.3198(3) 0.59633(9) 0.67873(10)
C10 C 0.4736(3) 0.56634(10) 0.61052(11)
H7 H 0.44160 0.58000 0.54730
C11 C 0.6721(3) 0.51693(10) 0.63393(12)
H8 H 0.77680 0.49720 0.58700
C12 C 0.7182(3) 0.49618(9) 0.72615(13)
H9 H 0.85510 0.46250 0.74250
C13 C 0.5648(3) 0.52467(8) 0.79409(11)
H10 H 0.59830 0.50990 0.85680
C14 C 0.2377(3) 0.57512(9) 0.94539(10)
H11 H 0.36150 0.60920 0.97750
H12 H 0.29340 0.51780 0.94470
H13 H 0.08170 0.57880 0.97780
#END
