
#######################################################################
#
#                 Cambridge Crystallographic Data Centre
#                                CCDC
#
#######################################################################
#
# If this CIF has been generated from an entry in the Cambridge
# Structural Database, then it will include bibliographic, chemical,
# crystal, experimental, refinement or atomic coordinate data resulting
# from the CCDC's data processing and validation procedures.
#
#######################################################################

data_CSD_CIF_QOYJOD08
_audit_creation_date 2006-12-18
_audit_creation_method CSD-ConQuest-V1
_database_code_CSD QOYJOD08
_database_code_depnum_ccdc_archive 'CCDC 623559'
_chemical_formula_sum 'C2 H2 N4 O3'
_chemical_formula_moiety
;
C2 H2 N4 O3
;
_journal_coden_Cambridge 1277
_journal_volume 110
_journal_year 2006
_journal_page_first 9816
_journal_name_full 'J.Phys.Chem.A '
loop_
_publ_author_name
"R.I.Hiyoshi"
"Y.Kohno"
"O.Takahashi"
"J.Nakamura"
"Y.Yamaguchi"
"S.Matsumoto"
"N.Azuma"
"K.Ueda"
_chemical_name_systematic
;
5-nitro-2,4-dihydro-3H-1,2,4-triazol-3-one
;
_cell_volume    907.864
_exptl_crystal_colour 'colorless'
_exptl_crystal_density_diffrn 1.903
_exptl_special_details
;
explosive
alpha polymorph

;
_exptl_crystal_description 'prismatic'
_exptl_crystal_preparation 'acetonitrile'
_diffrn_ambient_temperature 223.2
#These two values have been output from a single CSD field.
_refine_ls_R_factor_gt 0.0637
_refine_ls_wR_factor_gt 0.0637
_symmetry_cell_setting triclinic
_symmetry_space_group_name_H-M 'P -1'
_symmetry_Int_Tables_number 2
loop_
_symmetry_equiv_pos_site_id
_symmetry_equiv_pos_as_xyz
1 x,y,z
2 -x,-y,-z
_cell_length_a 5.1343(6)
_cell_length_b 10.338(1)
_cell_length_c 18.023(2)
_cell_angle_alpha 106.577(9)
_cell_angle_beta 97.61(1)
_cell_angle_gamma 90.30(1)
_cell_formula_units_Z 8
loop_
_atom_type_symbol
_atom_type_radius_bond
C 0.68
H 0.23
N 0.68
O 0.68
loop_
_atom_site_label
_atom_site_type_symbol
_atom_site_fract_x
_atom_site_fract_y
_atom_site_fract_z
O1 O 0.6273(5) -1.6691(2) 0.5377(1)
O2 O 1.2978(5) -1.2021(2) 0.6906(1)
O3 O 0.8792(5) -1.1880(2) 0.7046(1)
N1 N 1.2017(5) -1.4643(2) 0.6045(1)
N2 N 1.0659(5) -1.5843(2) 0.5644(1)
N3 N 0.7724(5) -1.4471(2) 0.6121(1)
N4 N 1.0713(5) -1.2477(2) 0.6791(1)
C1 C 1.0172(6) -1.3872(3) 0.6317(2)
C2 C 0.8015(6) -1.5796(3) 0.5671(2)
H1 H 1.148(8) -1.653(4) 0.540(2)
H2 H 0.602(9) -1.408(4) 0.624(2)
O4 O 1.3751(4) -1.2015(2) 0.9628(1)
O5 O 0.7151(5) -0.8961(3) 0.8032(1)
O6 O 1.1365(5) -0.8873(2) 0.7941(1)
N5 N 0.8066(5) -1.0656(2) 0.8925(1)
N6 N 0.9386(5) -1.1444(3) 0.9343(1)
N7 N 1.2373(5) -1.0558(3) 0.8867(1)
N8 N 0.9451(5) -0.9257(2) 0.8174(1)
C3 C 0.9943(5) -1.0158(3) 0.8661(2)
C4 C 1.2041(6) -1.1423(3) 0.9321(2)
H3 H 0.839(9) -1.186(4) 0.956(2)
H4 H 1.381(9) -1.036(4) 0.870(2)
O7 O 0.9090(4) -1.1578(2) 0.5379(1)
O8 O 0.3861(5) -0.6991(2) 0.6991(1)
O9 O 0.8160(5) -0.6773(2) 0.7103(1)
N9 N 0.4033(5) -0.9562(2) 0.6093(1)
N10 N 0.4988(5) -1.0754(2) 0.5670(1)
N11 N 0.8388(5) -0.9380(2) 0.6161(1)
N12 N 0.6045(5) -0.7407(2) 0.6861(1)
C5 C 0.6134(5) -0.8790(3) 0.6370(2)
C6 C 0.7655(6) -1.0691(3) 0.5692(2)
H5 H 0.397(7) -1.151(4) 0.542(2)
H6 H 1.019(9) -0.903(4) 0.635(2)
O10 O 1.0916(5) -0.7024(2) 0.9632(1)
O11 O 1.5908(5) -0.3915(3) 0.8027(2)
O12 O 1.1604(5) -0.3916(2) 0.7944(1)
N13 N 1.5936(5) -0.5655(2) 0.8919(1)
N14 N 1.5012(5) -0.6447(3) 0.9337(1)
N15 N 1.1579(5) -0.5575(2) 0.8868(1)
N16 N 1.3794(5) -0.4261(2) 0.8171(1)
C7 C 1.3808(5) -0.5171(3) 0.8652(2)
C8 C 1.2346(6) -0.6428(3) 0.9322(2)
H7 H 1.620(8) -0.692(4) 0.957(2)
H8 H 0.992(8) -0.544(4) 0.870(2)
#END
