
#######################################################################
#
#                 Cambridge Crystallographic Data Centre
#                                CCDC
#
#######################################################################
#
# If this CIF has been generated from an entry in the Cambridge
# Structural Database, then it will include bibliographic, chemical,
# crystal, experimental, refinement or atomic coordinate data resulting
# from the CCDC's data processing and validation procedures.
#
#######################################################################

data_CSD_CIF_QOYJOD06
_audit_creation_date 2005-11-15
_audit_creation_method CSD-ConQuest-V1
_database_code_CSD QOYJOD06
_database_code_depnum_ccdc_archive 'CCDC 286331'
_chemical_formula_sum 'C2 H2 N4 O3'
_chemical_formula_moiety
;
C2 H2 N4 O3
;
_journal_coeditor_code "IUCr SN5022"
_journal_coden_Cambridge 622
_journal_volume 61
_journal_year 2005
_journal_page_first 577
_journal_name_full 'Acta Crystallogr.,Sect.B:Struct.Sci. '
loop_
_publ_author_name
"N.B.Bolotina"
"K.Kirschbaum"
"A.A.Pinkerton"
_chemical_name_systematic
;
5-Nitro-2,4-dihydro-3H-1,2,4-triazol-3-one
;
_cell_volume    902.060
_exptl_crystal_colour 'colorless'
_exptl_crystal_density_diffrn 1.916
_exptl_special_details
;
crystal 1; explosive
alpha polymorph

;
_exptl_crystal_description 'parallelepiped'
_diffrn_ambient_temperature 293
_diffrn_special_details
;
pseudo-merohedral twin

;
#These two values have been output from a single CSD field.
_refine_ls_R_factor_gt 0.0432
_refine_ls_wR_factor_gt 0.0432
_symmetry_cell_setting triclinic
_symmetry_space_group_name_H-M 'P -1'
_symmetry_Int_Tables_number 2
loop_
_symmetry_equiv_pos_site_id
_symmetry_equiv_pos_as_xyz
1 x,y,z
2 -x,-y,-z
_cell_length_a 5.1233(8)
_cell_length_b 10.3140(16)
_cell_length_c 17.998(3)
_cell_angle_alpha 106.610(2)
_cell_angle_beta 97.810(2)
_cell_angle_gamma 90.130(2)
_cell_formula_units_Z 8
loop_
_atom_type_symbol
_atom_type_radius_bond
C 0.68
H 0.23
N 0.68
O 0.68
loop_
_atom_site_label
_atom_site_type_symbol
_atom_site_fract_x
_atom_site_fract_y
_atom_site_fract_z
N1 N 0.3084(4) -0.06728(18) 0.89274(10)
N2 N 0.4387(4) -0.1449(2) 0.93397(11)
H1 H 0.36210 -0.19070 0.95860
C1 C 0.7044(5) -0.1426(3) 0.93212(13)
O1 O 0.8741(3) -0.20130(18) 0.96269(9)
N3 N 0.7383(4) -0.0578(2) 0.88705(10)
H2 H 0.88420 -0.03460 0.87470
C2 C 0.4949(5) -0.0188(2) 0.86632(11)
N4 N 0.4449(4) 0.0715(2) 0.8175(1)
O2 O 0.6354(4) 0.1093(2) 0.79429(11)
O3 O 0.2172(4) 0.1003(2) 0.80308(11)
N5 N 1.0939(4) 0.43300(19) 0.89177(10)
N6 N 1.0000(4) 0.3554(2) 0.93374(10)
H3 H 1.10040 0.31060 0.95880
C3 C 0.7344(5) 0.3559(2) 0.93208(13)
O4 O 0.5925(4) 0.29716(17) 0.96306(9)
N7 N 0.6593(4) 0.4398(2) 0.88654(10)
H4 H 0.50140 0.46220 0.87410
C4 C 0.8799(5) 0.4801(2) 0.86520(11)
N8 N 0.8821(4) 0.5705(2) 0.81713(11)
O5 O 0.6643(4) 0.6049(2) 0.79464(11)
O6 O 1.0904(4) 0.6061(2) 0.80328(12)
N9 N -0.0965(4) 0.04197(19) 0.60938(10)
N10 N -0.0007(4) -0.07541(19) 0.56712(11)
H5 H -0.09930 -0.14590 0.54150
C5 C 0.2647(5) -0.0701(2) 0.56948(13)
O7 O 0.4089(4) -0.15743(16) 0.53844(9)
N11 N 0.3376(4) 0.0603(2) 0.61626(11)
H6 H 0.49440 0.09680 0.62930
C6 C 0.1129(4) 0.1182(2) 0.63718(12)
N12 N 0.1048(4) 0.2559(2) 0.68601(11)
O8 O 0.3155(4) 0.31856(19) 0.70961(11)
O9 O -0.1129(4) 0.2971(2) 0.69924(11)
N13 N 0.7013(4) 0.53429(19) 0.60426(10)
N14 N 0.5640(4) 0.41422(19) 0.56377(11)
H7 H 0.63790 0.34330 0.53890
C7 C 0.3013(5) 0.4189(2) 0.56700(13)
O10 O 0.1287(4) 0.33027(16) 0.53764(9)
N15 N 0.2754(4) 0.5511(2) 0.61176(11)
H8 H 0.13140 0.58790 0.62460
C8 C 0.5181(5) 0.6103(2) 0.63109(12)
N16 N 0.5689(4) 0.7486(2) 0.67853(11)
O11 O 0.3796(4) 0.80735(19) 0.70440(11)
O12 O 0.7956(4) 0.7932(2) 0.68975(11)
#END
