
#######################################################################
#
#                 Cambridge Crystallographic Data Centre
#                                CCDC
#
#######################################################################
#
# If this CIF has been generated from an entry in the Cambridge
# Structural Database, then it will include bibliographic, chemical,
# crystal, experimental, refinement or atomic coordinate data resulting
# from the CCDC's data processing and validation procedures.
#
#######################################################################

data_CSD_CIF_QOZRAY
_audit_creation_date 2001-08-28
_audit_creation_method CSD-ConQuest-V1
_database_code_CSD QOZRAY
_database_code_depnum_ccdc_archive 'CCDC 166655'
_chemical_formula_sum 'C19 H25 N3 O1'
_chemical_formula_moiety
;
C19 H25 N3 O1
;
_journal_coden_Cambridge 9
_journal_volume 40
_journal_year 2001
_journal_page_first 2892
_journal_name_full 'Inorg.Chem. '
loop_
_publ_author_name
"M.V.Barybin"
"P.L.Diaconescu"
"C.C.Cummins"
_chemical_name_systematic
;
(Z)-(Mesityl)(2-((dimethylamino)methyl)phenyl)amidoxime
;
_chemical_melting_point 443.15
_cell_volume    905.182
_exptl_crystal_colour 'colorless'
_exptl_crystal_density_diffrn 1.143
_exptl_special_details
;
Melting point range 443.15-445.15K

;
_exptl_crystal_preparation 'methanol'
_diffrn_ambient_temperature 183
#These two values have been output from a single CSD field.
_refine_ls_R_factor_gt 0.0482
_refine_ls_wR_factor_gt 0.0482
_symmetry_cell_setting triclinic
_symmetry_space_group_name_H-M 'P -1'
_symmetry_Int_Tables_number 2
loop_
_symmetry_equiv_pos_site_id
_symmetry_equiv_pos_as_xyz
1 x,y,z
2 -x,-y,-z
_cell_length_a 8.9440(13)
_cell_length_b 9.2460(14)
_cell_length_c 11.688(2)
_cell_angle_alpha 79.151(3)
_cell_angle_beta 79.863(3)
_cell_angle_gamma 74.143(2)
_cell_formula_units_Z 2
loop_
_atom_type_symbol
_atom_type_radius_bond
C 0.68
H 0.23
N 0.68
O 0.68
loop_
_atom_site_label
_atom_site_type_symbol
_atom_site_fract_x
_atom_site_fract_y
_atom_site_fract_z
O1 O 0.5085(2) 0.1706(2) 0.94512(14)
N1 N 0.3918(2) 0.1087(2) 0.91677(15)
C1 C 0.1791(2) 0.1538(2) 0.8109(2)
N2 N 0.3296(2) 0.3478(2) 0.8053(2)
C2 C 0.0362(2) 0.1693(2) 0.8844(2)
C3 C 0.0845(2) 0.0354(2) 0.6826(2)
C4 C 0.3068(2) 0.2060(2) 0.8451(2)
C5 C 0.2667(2) 0.4582(2) 0.7140(2)
C6 C 0.2035(2) 0.0890(2) 0.7083(2)
C7 C -0.0795(3) 0.1142(2) 0.8545(2)
N3 N 0.5180(2) 0.5513(2) 0.8051(2)
C8 C 0.3623(2) 0.5523(2) 0.6510(2)
C9 C -0.0580(2) 0.0462(2) 0.7548(2)
C10 C 0.1157(3) 0.4807(3) 0.6866(2)
C11 C -0.1852(4) -0.0146(4) 0.7260(3)
C12 C 0.3041(3) 0.6624(3) 0.5603(2)
C13 C 0.5234(3) 0.5354(3) 0.6824(2)
C14 C 0.1565(3) 0.6806(3) 0.5311(2)
C15 C 0.0623(3) 0.5910(3) 0.5947(2)
C16 C 0.3530(3) 0.0813(4) 0.6246(2)
C17 C 0.0050(3) 0.2494(3) 0.9899(2)
C18 C 0.6753(3) 0.5219(4) 0.8367(3)
C19 C 0.4272(4) 0.7010(3) 0.8298(3)
H1 H 0.1023(24) -0.0077(24) 0.6123(20)
H2 H 0.0479(33) 0.4191(32) 0.7289(24)
H3 H 0.1219(27) 0.7564(28) 0.4655(21)
H4 H -0.0431(29) 0.6025(26) 0.5760(19)
H5 H -0.1771(29) 0.1221(25) 0.9055(20)
H6 H 0.4008(29) 0.3661(26) 0.8317(20)
H7 H 0.5563(29) 0.0919(30) 0.9919(22)
H8 H 0.3710(31) 0.7283(31) 0.5162(23)
H9 H 0.5954(31) 0.4328(31) 0.6661(22)
H10 H 0.5714(28) 0.6170(29) 0.6254(22)
H11 H 0.4817(35) 0.7843(36) 0.7845(27)
H12 H 0.3151(35) 0.7238(30) 0.8071(24)
H13 H 0.4183(38) 0.7063(38) 0.9161(33)
H14 H -0.0802(36) 0.2270(32) 1.0434(26)
H15 H 0.4374(43) 0.0555(39) 0.6601(31)
H16 H 0.0895(35) 0.2183(31) 1.0352(25)
H17 H -0.0146(36) 0.3573(40) 0.9696(27)
H18 H 0.3652(40) 0.0103(43) 0.5671(33)
H19 H 0.3565(38) 0.1780(41) 0.5822(29)
H20 H 0.7341(38) 0.4215(41) 0.8139(28)
H21 H 0.6744(39) 0.5361(38) 0.9254(33)
H22 H 0.7373(36) 0.5956(36) 0.7876(27)
H23 H -0.1682(45) -0.0277(46) 0.6461(40)
H24 H -0.2023(55) -0.0884(61) 0.7823(45)
H25 H -0.2800(64) 0.0570(64) 0.7255(44)
#END
