
#######################################################################
#
#                 Cambridge Crystallographic Data Centre
#                                CCDC
#
#######################################################################
#
# If this CIF has been generated from an entry in the Cambridge
# Structural Database, then it will include bibliographic, chemical,
# crystal, experimental, refinement or atomic coordinate data resulting
# from the CCDC's data processing and validation procedures.
#
#######################################################################

data_CSD_CIF_QOZYUB
_audit_creation_date 2015-02-06
_audit_creation_method CSD-ConQuest-V1
_database_code_CSD QOZYUB
_database_code_depnum_ccdc_archive 'CCDC 1047910'
_chemical_formula_sum 'C24 H25 N3 O2'
_chemical_formula_moiety
;
C24 H25 N3 O2
;
_journal_coden_Cambridge 1748
_journal_volume 3
_journal_year 2016
_journal_page_first 184
_journal_name_full 'Org.Chem.Front. '
loop_
_publ_author_name
"Xiu-Long Yang"
"Yan Long"
"Fei Chen"
"Bing Han"
_chemical_name_systematic
;
4-(5-(2-(1,3-Dimethyl-2-oxo-2,3-dihydro-1H-indol-3-yl)ethyl)-4,4-dimethyl-4,5-
dihydro-1,2-oxazol-3-yl)benzonitrile
;
_cell_volume   1057.316
_exptl_crystal_colour 'colorless'
_exptl_crystal_density_diffrn 1.217
_exptl_crystal_description 'block'
_diffrn_ambient_temperature 293
#These two values have been output from a single CSD field.
_refine_ls_R_factor_gt 0.0566
_refine_ls_wR_factor_gt 0.0566
_symmetry_cell_setting triclinic
_symmetry_space_group_name_H-M 'P -1'
_symmetry_Int_Tables_number 2
loop_
_symmetry_equiv_pos_site_id
_symmetry_equiv_pos_as_xyz
1 x,y,z
2 -x,-y,-z
_cell_length_a 7.1121(7)
_cell_length_b 8.5933(10)
_cell_length_c 18.426(2)
_cell_angle_alpha 94.339(10)
_cell_angle_beta 100.719(10)
_cell_angle_gamma 105.418(10)
_cell_formula_units_Z 2
loop_
_atom_type_symbol
_atom_type_radius_bond
C 0.68
H 0.23
N 0.68
O 0.68
loop_
_atom_site_label
_atom_site_type_symbol
_atom_site_fract_x
_atom_site_fract_y
_atom_site_fract_z
O1 O 0.9918(3) 0.5706(3) 0.39807(12)
O2 O 0.5353(3) 0.3122(2) 0.19359(11)
N1 N 0.8448(3) 0.7530(3) 0.44301(13)
N2 N 0.3777(3) 0.1752(3) 0.15701(13)
N3 N -0.6516(4) -0.3812(3) -0.01038(17)
C1 C 0.7824(4) 0.8846(3) 0.41817(16)
C2 C 0.7059(4) 0.9885(4) 0.45561(18)
H1 H 0.68810 0.97720 0.50390
C3 C 0.6555(5) 1.1125(4) 0.4181(2)
H2 H 0.60560 1.18630 0.44250
C4 C 0.6778(5) 1.1278(4) 0.3468(2)
H3 H 0.64010 1.20900 0.32240
C5 C 0.7571(4) 1.0210(4) 0.31140(17)
H4 H 0.77330 1.03110 0.26290
C6 C 0.8121(4) 0.9008(3) 0.34671(16)
C7 C 0.9095(4) 0.7770(3) 0.32359(15)
C8 C 0.9228(4) 0.6863(4) 0.39125(18)
C9 C 1.1193(4) 0.8538(4) 0.31072(17)
H5 H 1.10930 0.90590 0.26640
H6 H 1.18460 0.77070 0.30500
H7 H 1.19520 0.93310 0.35260
C10 C 0.7862(4) 0.6555(3) 0.25508(15)
H8 H 0.78430 0.71200 0.21140
H9 H 0.85170 0.57150 0.24810
C11 C 0.8249(5) 0.6937(4) 0.51350(17)
H10 H 0.88260 0.78230 0.55320
H11 H 0.89280 0.61150 0.52070
H12 H 0.68600 0.64810 0.51330
C12 C 0.5723(4) 0.5749(3) 0.26043(15)
H13 H 0.57400 0.52330 0.30550
H14 H 0.50470 0.65830 0.26470
C13 C 0.4551(4) 0.4496(3) 0.19501(15)
H15 H 0.47120 0.49930 0.14960
C14 C 0.2329(4) 0.3763(3) 0.18993(14)
C15 C 0.2113(4) 0.2076(3) 0.15221(13)
C16 C 0.1190(4) 0.4781(3) 0.14512(16)
H16 H 0.13400 0.46710 0.09440
H17 H 0.17160 0.59040 0.16640
H18 H -0.01990 0.44060 0.14640
C17 C 0.1754(4) 0.3592(3) 0.26557(15)
H19 H 0.03510 0.30560 0.25810
H20 H 0.20540 0.46530 0.29320
H21 H 0.24970 0.29600 0.29280
C18 C 0.0271(4) 0.0780(3) 0.11835(13)
C19 C -0.1597(4) 0.1003(3) 0.11564(15)
H22 H -0.16900 0.19940 0.13640
C20 C -0.3308(4) -0.0194(3) 0.08323(15)
H23 H -0.45450 -0.00130 0.08210
C21 C -0.3203(4) -0.1660(3) 0.05247(14)
C22 C -0.1362(4) -0.1938(3) 0.05547(15)
H24 H -0.12810 -0.29400 0.03560
C23 C 0.0340(4) -0.0726(3) 0.08796(15)
H25 H 0.15740 -0.09170 0.08970
C24 C -0.5032(5) -0.2879(4) 0.01738(17)
#END
