
#######################################################################
#
#                 Cambridge Crystallographic Data Centre
#                                CCDC
#
#######################################################################
#
# If this CIF has been generated from an entry in the Cambridge
# Structural Database, then it will include bibliographic, chemical,
# crystal, experimental, refinement or atomic coordinate data resulting
# from the CCDC's data processing and validation procedures.
#
#######################################################################

data_CSD_CIF_QOZZUC
_audit_creation_date 2015-02-06
_audit_creation_method CSD-ConQuest-V1
_database_code_CSD QOZZUC
_database_code_depnum_ccdc_archive 'CCDC 1025815'
_chemical_formula_sum 'C46 H37 N5 O4'
_chemical_formula_moiety
;
C46 H37 N5 O4
;
_journal_coden_Cambridge 920
_journal_volume 10
_journal_year 2015
_journal_page_first 989
_journal_name_full 'Chem.Asian J. '
loop_
_publ_author_name
"Wei Shyang Tan"
"Po-Ya Chuang"
"Chia-Huei Chen"
"C.Prabhakar"
"Shing-Jong Huang"
"Shou-Ling Huang"
"Yi-Hung Liu"
"Ying-Chih Lin"
"Shie-Ming Peng"
"Jye-Shane Yang"
_chemical_name_systematic
;
14-((3,5-Dinitrophenyl)diazenyl)-N,N-dipropylnonacyclo[14.6.6.6^5,12^.0^2,15^.
0^4,13^.0^6,11^.0^17,22^.0^23,28^.0^29,34^]tetratriaconta-2(15),3,6,8,10,13,17
,19,21,23,25,27,29,31,33-pentadecaen-3-amine
;
_cell_volume   3743.108
_exptl_crystal_density_diffrn 1.284
_exptl_crystal_description 'columnar'
_diffrn_ambient_temperature 295
#These two values have been output from a single CSD field.
_refine_ls_R_factor_gt 0.0711
_refine_ls_wR_factor_gt 0.0711
_symmetry_cell_setting triclinic
_symmetry_space_group_name_H-M 'P -1'
_symmetry_Int_Tables_number 2
loop_
_symmetry_equiv_pos_site_id
_symmetry_equiv_pos_as_xyz
1 x,y,z
2 -x,-y,-z
_cell_length_a 9.5073(5)
_cell_length_b 11.6556(6)
_cell_length_c 33.9924(16)
_cell_angle_alpha 93.910(4)
_cell_angle_beta 92.460(4)
_cell_angle_gamma 94.297(4)
_cell_formula_units_Z 4
loop_
_atom_type_symbol
_atom_type_radius_bond
C 0.68
H 0.23
N 0.68
O 0.68
loop_
_atom_site_label
_atom_site_type_symbol
_atom_site_fract_x
_atom_site_fract_y
_atom_site_fract_z
O1 O 0.6229(4) 0.2404(4) -0.03382(13)
O2 O 0.5925(4) 0.3417(4) -0.08306(11)
O3 O 0.2844(5) 0.6557(4) -0.06915(13)
O4 O 0.1170(4) 0.6420(3) -0.02924(11)
N1 N 0.1648(3) 0.3813(2) 0.07324(8)
N2 N 0.2168(3) 0.3080(2) 0.05081(9)
N3 N -0.2144(3) 0.2984(3) 0.19310(9)
N4 N 0.5612(4) 0.3104(4) -0.05109(12)
N5 N 0.2221(4) 0.6083(4) -0.04364(11)
C1 C 0.0856(3) 0.3450(3) 0.10514(9)
C2 C 0.0234(3) 0.2346(3) 0.11018(9)
C3 C -0.0707(3) 0.2198(3) 0.14024(9)
C4 C -0.1087(3) 0.3120(3) 0.16507(9)
C5 C -0.0407(3) 0.4205(3) 0.16061(9)
C6 C 0.0552(3) 0.4355(3) 0.13133(9)
C7 C 0.1176(4) 0.5608(3) 0.13058(10)
H1 H 0.18630 0.57100 0.11020
C8 C -0.0092(4) 0.6314(3) 0.12524(10)
C9 C -0.0315(5) 0.7041(3) 0.09552(12)
H2 H 0.03440 0.71400 0.07640
C10 C -0.1545(5) 0.7622(3) 0.09468(14)
H3 H -0.17150 0.81080 0.07470
C11 C -0.2500(5) 0.7479(3) 0.12320(15)
H4 H -0.33090 0.78810 0.12260
C12 C -0.2285(4) 0.6746(3) 0.15302(13)
H5 H -0.29480 0.66470 0.17210
C13 C -0.1075(4) 0.6165(3) 0.15392(11)
C14 C -0.0637(4) 0.5336(3) 0.18421(10)
H6 H -0.13260 0.52360 0.20460
C15 C 0.0813(4) 0.5791(3) 0.20107(11)
C16 C 0.1222(5) 0.6055(3) 0.24042(12)
H7 H 0.05690 0.59780 0.25990
C17 C 0.2619(5) 0.6436(4) 0.25056(13)
H8 H 0.28960 0.66190 0.27700
C18 C 0.3602(5) 0.6546(3) 0.22207(14)
H9 H 0.45370 0.67880 0.22930
C19 C 0.3188(4) 0.6296(3) 0.18271(12)
H10 H 0.38430 0.63810 0.16340
C20 C 0.1809(4) 0.5921(3) 0.17218(10)
C21 C 0.0411(4) 0.1221(3) 0.0853(1)
H11 H 0.10600 0.13260 0.06400
C22 C -0.1070(4) 0.0770(3) 0.07043(11)
C23 C -0.1542(5) 0.0530(3) 0.03143(12)
H12 H -0.09330 0.06400 0.01110
C24 C -0.2935(6) 0.0122(4) 0.02331(16)
H13 H -0.32610 -0.00420 -0.00280
C25 C -0.3849(5) -0.0045(4) 0.05303(17)
H14 H -0.47770 -0.03330 0.04690
C26 C -0.3390(4) 0.0217(3) 0.09225(14)
H15 H -0.40090 0.01270 0.11250
C27 C -0.1998(4) 0.0611(3) 0.10058(11)
C28 C -0.1297(3) 0.0943(3) 0.14115(10)
H16 H -0.19480 0.08330 0.16240
C29 C -0.0020(4) 0.0240(3) 0.14507(10)
C30 C 0.0292(4) -0.0456(3) 0.17483(11)
H17 H -0.03130 -0.05410 0.19540
C31 C 0.1527(5) -0.1034(3) 0.17387(14)
H18 H 0.17400 -0.15150 0.19370
C32 C 0.2429(4) -0.0892(4) 0.14365(14)
H19 H 0.32520 -0.12760 0.14320
C33 C 0.2125(4) -0.0183(3) 0.11388(13)
H20 H 0.27360 -0.00950 0.09350
C34 C 0.0905(3) 0.0393(3) 0.11472(10)
C35 C 0.2761(4) 0.3613(3) 0.01781(10)
C36 C 0.3868(4) 0.3119(3) 0.00005(11)
H21 H 0.42340 0.24670 0.00950
C37 C 0.4418(4) 0.3622(4) -0.03224(11)
C38 C 0.3910(4) 0.4572(4) -0.04768(11)
H22 H 0.42920 0.48890 -0.06960
C39 C 0.2802(4) 0.5034(4) -0.02894(11)
C40 C 0.2217(4) 0.4570(3) 0.00326(10)
H23 H 0.14630 0.48980 0.01510
C41 C -0.3582(4) 0.2748(4) 0.17440(14)
H24 H -0.35530 0.21730 0.15250
H25 H -0.42030 0.24280 0.19350
C42 C -0.4173(5) 0.3775(5) 0.15987(17)
H26 H -0.34940 0.41620 0.14380
H27 H -0.43440 0.43040 0.18210
C43 C -0.5559(5) 0.3463(6) 0.13535(16)
H28 H -0.59170 0.41520 0.12630
H29 H -0.62380 0.30900 0.15140
H30 H -0.53880 0.29510 0.11300
C44 C -0.1831(6) 0.2351(6) 0.22721(17)
H31 H -0.20290 0.15360 0.21950
H32 H -0.08240 0.24760 0.23350
C45 C -0.2552(5) 0.2599(5) 0.26304(14)
H33 H -0.35530 0.24410 0.25640
H34 H -0.22960 0.20310 0.28110
C46 C -0.2396(12) 0.3678(11) 0.2848(3)
H35 H -0.29800 0.36580 0.30720
H36 H -0.26760 0.42670 0.26830
H37 H -0.14270 0.38450 0.29380
O5 O 1.1013(6) -0.2632(5) 0.45223(14)
O6 O 1.0955(4) -0.2729(4) 0.51394(12)
O7 O 0.7894(5) -0.0361(5) 0.58798(10)
O8 O 0.6221(4) 0.0400(4) 0.55752(10)
N6 N 0.6557(3) 0.0694(2) 0.41822(8)
N7 N 0.7114(3) -0.0239(3) 0.41352(9)
N8 N 0.2713(3) 0.2470(3) 0.31129(10)
N9 N 1.0523(4) -0.2391(3) 0.48324(13)
N10 N 0.7259(4) -0.0147(4) 0.55814(11)
C47 C 0.5747(3) 0.1077(3) 0.38688(10)
C48 C 0.5091(3) 0.0416(3) 0.35403(10)
C49 C 0.4152(3) 0.0919(3) 0.32918(10)
C50 C 0.3780(4) 0.2056(3) 0.33608(10)
C51 C 0.4459(4) 0.2705(3) 0.36838(10)
C52 C 0.5427(3) 0.2230(3) 0.39279(10)
C53 C 0.6061(4) 0.3062(3) 0.4268(1)
H38 H 0.67560 0.27200 0.44360
C54 C 0.6672(4) 0.4117(3) 0.40772(11)
C55 C 0.8047(4) 0.4605(4) 0.41255(14)
H39 H 0.87120 0.42720 0.42810
C56 C 0.8414(6) 0.5590(5) 0.39406(18)
H40 H 0.93300 0.59320 0.39760
C57 C 0.7443(6) 0.6077(4) 0.37042(19)
H41 H 0.77130 0.67390 0.35790
C58 C 0.6075(6) 0.5592(4) 0.36508(15)
H42 H 0.54220 0.59210 0.34910
C59 C 0.5685(4) 0.4610(3) 0.38385(12)
C60 C 0.4235(4) 0.3960(3) 0.38230(11)
H43 H 0.35410 0.43020 0.36550
C61 C 0.3821(4) 0.3944(3) 0.42518(12)
C62 C 0.2642(5) 0.4375(4) 0.44126(15)
H44 H 0.19800 0.47050 0.42560
C63 C 0.2465(6) 0.4304(4) 0.48157(17)
H45 H 0.16800 0.45980 0.49280
C64 C 0.3422(6) 0.3811(4) 0.50484(15)
H46 H 0.32780 0.37660 0.53160
C65 C 0.4603(5) 0.3379(3) 0.48883(12)
H47 H 0.52550 0.30430 0.50470
C66 C 0.4806(4) 0.3451(3) 0.44909(11)
C67 C 0.5213(4) -0.0858(3) 0.34249(10)
H48 H 0.58590 -0.12160 0.36030
C68 C 0.5673(4) -0.0902(3) 0.30008(11)
C69 C 0.6854(4) -0.1377(4) 0.28607(13)
H49 H 0.74720 -0.17070 0.30320
C70 C 0.7115(5) -0.1359(4) 0.24639(15)
H50 H 0.79060 -0.16840 0.23670
C71 C 0.6213(5) -0.0865(4) 0.22151(13)
H51 H 0.64010 -0.08540 0.19490
C72 C 0.5019(5) -0.0378(4) 0.23513(12)
H52 H 0.44110 -0.00430 0.21790
C73 C 0.4754(4) -0.0402(3) 0.27474(10)
C74 C 0.3503(4) 0.0076(3) 0.29546(10)
H53 H 0.28580 0.04320 0.27760
C75 C 0.2795(4) -0.0926(3) 0.31522(10)
C76 C 0.1391(4) -0.1331(4) 0.31072(14)
H54 H 0.07740 -0.09990 0.29370
C77 C 0.0916(5) -0.2246(5) 0.33225(17)
H55 H -0.00240 -0.25330 0.32940
C78 C 0.1822(6) -0.2728(4) 0.35765(16)
H56 H 0.14880 -0.33390 0.37180
C79 C 0.3217(5) -0.2320(4) 0.36247(12)
H57 H 0.38240 -0.26480 0.37990
C80 C 0.3711(4) -0.1419(3) 0.34118(10)
C81 C 0.7723(4) -0.0563(3) 0.45008(10)
C82 C 0.8804(4) -0.1295(3) 0.44870(12)
H58 H 0.91410 -0.15610 0.42470
C83 C 0.9365(4) -0.1617(3) 0.48409(12)
C84 C 0.8889(4) -0.1273(4) 0.52014(12)
H59 H 0.92760 -0.15160 0.54350
C85 C 0.1395(7) 0.2512(10) 0.3257(2)
H60 H 0.14040 0.33030 0.33660
H61 H 0.07920 0.24760 0.30180
C86 C 0.0634(8) 0.1973(13) 0.3489(4)
H62 H 0.12690 0.20400 0.37220
H63 H 0.07020 0.11900 0.33790
C87 C 0.7810(4) -0.0550(3) 0.52016(11)
C88 C 0.7209(4) -0.0188(3) 0.48612(11)
H64 H 0.64750 0.02960 0.48710
C89 C 0.3158(6) 0.3399(4) 0.28656(16)
H65 H 0.26910 0.40790 0.29510
H66 H 0.41650 0.35820 0.29150
C90 C 0.2899(16) 0.3194(7) 0.2460(2)
H67 H 0.24050 0.38540 0.23890
H68 H 0.38290 0.33130 0.23560
C91 C 0.2272(7) 0.2324(7) 0.22181(17)
H69 H 0.22830 0.25360 0.19500
H70 H 0.13130 0.21700 0.22890
H71 H 0.27730 0.16450 0.22430
C92 C -0.0636(7) 0.1835(7) 0.3664(2)
H72 H -0.05240 0.14080 0.38940
H73 H -0.13220 0.14210 0.34810
H74 H -0.09500 0.25780 0.37400
#END
