
#######################################################################
#
#                 Cambridge Crystallographic Data Centre
#                                CCDC
#
#######################################################################
#
# If this CIF has been generated from an entry in the Cambridge
# Structural Database, then it will include bibliographic, chemical,
# crystal, experimental, refinement or atomic coordinate data resulting
# from the CCDC's data processing and validation procedures.
#
#######################################################################

data_CSD_CIF_QOZZAI
_audit_creation_date 2015-02-06
_audit_creation_method CSD-ConQuest-V1
_database_code_CSD QOZZAI
_database_code_depnum_ccdc_archive 'CCDC 1047913'
_chemical_formula_sum 'C28 H26 N2 O3'
_chemical_formula_moiety
;
C28 H26 N2 O3
;
_journal_coden_Cambridge 1078
_journal_year 2015
_journal_name_full 'CSD Communication(Private Communication) '
loop_
_publ_author_name
"Xiu-Long Yang"
"Bing Han"
_chemical_name_systematic
;
3-((4,4-Dimethyl-3-phenyl-4,5-dihydro-1,2-oxazol-5-yl)methyl)-1-methyl-4-pheny
l-1-azaspiro[4.5]deca-3,6,9-triene-2,8-dione
;
_chemical_melting_point 427
_cell_volume   2289.020
_exptl_crystal_colour 'pale yellow'
_exptl_crystal_density_diffrn 1.272
_exptl_special_details
;
Melting point range 427-428K

;
_exptl_crystal_description 'plate'
_exptl_crystal_preparation 'dichloromethane/petroleum ether'
_diffrn_ambient_temperature 293.7
#These two values have been output from a single CSD field.
_refine_ls_R_factor_gt 0.0649
_refine_ls_wR_factor_gt 0.0649
_symmetry_cell_setting monoclinic
_symmetry_space_group_name_H-M 'P 21/c'
_symmetry_Int_Tables_number 14
loop_
_symmetry_equiv_pos_site_id
_symmetry_equiv_pos_as_xyz
1 x,y,z
2 -x,1/2+y,1/2-z
3 -x,-y,-z
4 x,-1/2-y,-1/2+z
_cell_length_a 15.8733(11)
_cell_length_b 11.8466(6)
_cell_length_c 12.3385(8)
_cell_angle_alpha 90
_cell_angle_beta 99.402(6)
_cell_angle_gamma 90
_cell_formula_units_Z 4
loop_
_atom_type_symbol
_atom_type_radius_bond
C 0.68
H 0.23
N 0.68
O 0.68
loop_
_atom_site_label
_atom_site_type_symbol
_atom_site_fract_x
_atom_site_fract_y
_atom_site_fract_z
O1 O 0.27093(14) 0.49719(17) 0.01256(19)
O2 O 0.08529(14) 0.75135(18) 0.02174(18)
O3 O -0.18159(15) 0.4284(2) 0.3212(2)
N1 N 0.32364(18) 0.4778(2) -0.0684(2)
N2 N 0.01272(15) 0.6392(2) 0.1271(2)
C1 C 0.4980(2) 0.6288(3) -0.1493(3)
H1 H 0.51230 0.67340 -0.08700
C2 C 0.5522(2) 0.6241(3) -0.2259(4)
H2 H 0.60250 0.66580 -0.21520
C3 C 0.5322(2) 0.5586(3) -0.3173(4)
H3 H 0.56950 0.55440 -0.36800
C4 C 0.4571(3) 0.4987(3) -0.3346(3)
H4 H 0.44320 0.45430 -0.39710
C5 C 0.4023(2) 0.5046(3) -0.2586(3)
H5 H 0.35090 0.46530 -0.27140
C6 C 0.42236(18) 0.5677(3) -0.1640(3)
C7 C 0.36497(17) 0.5680(2) -0.0806(2)
C8 C 0.34897(17) 0.6629(2) -0.0044(3)
C9 C 0.26593(17) 0.6175(2) 0.0260(2)
H6 H 0.21840 0.64590 -0.02790
C10 C 0.42106(19) 0.6691(3) 0.0940(3)
H7 H 0.40690 0.72370 0.14570
H8 H 0.47310 0.69100 0.06950
H9 H 0.42850 0.59640 0.12880
C11 C 0.3349(2) 0.7775(3) -0.0608(3)
H10 H 0.29150 0.77090 -0.12450
H11 H 0.38720 0.80240 -0.08270
H12 H 0.31720 0.83120 -0.01080
C12 C 0.24724(17) 0.6437(2) 0.1395(2)
H13 H 0.28650 0.60130 0.19290
H14 H 0.25770 0.72330 0.15450
C13 C 0.15778(17) 0.6166(2) 0.1545(2)
C14 C 0.08387(19) 0.6786(3) 0.0920(3)
C15 C 0.03204(17) 0.5527(2) 0.2121(2)
C16 C 0.12933(16) 0.5446(2) 0.2225(2)
C17 C -0.07203(19) 0.6835(3) 0.0902(3)
H15 H -0.11090 0.62210 0.06990
H16 H -0.07120 0.73160 0.02780
H17 H -0.09020 0.72600 0.14840
C18 C 0.17895(16) 0.4617(2) 0.2979(2)
C19 C 0.19191(18) 0.4760(3) 0.4105(3)
H18 H 0.16930 0.53870 0.44090
C20 C 0.23870(19) 0.3970(3) 0.4784(3)
H19 H 0.24790 0.40780 0.55400
C21 C 0.27126(19) 0.3037(3) 0.4354(4)
H20 H 0.30200 0.25090 0.48170
C22 C 0.25854(19) 0.2881(3) 0.3237(4)
H21 H 0.28040 0.22440 0.29410
C23 C 0.21331(18) 0.3671(2) 0.2553(3)
H22 H 0.20580 0.35680 0.17960
C24 C 0.00366(18) 0.5927(2) 0.3163(2)
H23 H 0.03380 0.65110 0.35540
C25 C -0.1123(2) 0.4564(3) 0.2979(3)
C26 C -0.06165(19) 0.5491(3) 0.3545(3)
H24 H -0.07620 0.57770 0.41910
C27 C -0.07696(19) 0.4017(3) 0.2104(3)
H25 H -0.10130 0.33480 0.18100
C28 C -0.01099(18) 0.4442(2) 0.1709(3)
H26 H 0.00960 0.40530 0.11520
#END
