
#######################################################################
#
#                 Cambridge Crystallographic Data Centre
#                                CCDC
#
#######################################################################
#
# If this CIF has been generated from an entry in the Cambridge
# Structural Database, then it will include bibliographic, chemical,
# crystal, experimental, refinement or atomic coordinate data resulting
# from the CCDC's data processing and validation procedures.
#
#######################################################################

data_CSD_CIF_QQQAZG03
_audit_creation_date 1985-08-16
_audit_creation_method CSD-ConQuest-V1
_database_code_CSD QQQAZG03
_chemical_formula_sum 'C17 H16 N4 O4'
_chemical_formula_moiety
;
C17 H16 N4 O4
;
_journal_coden_Cambridge 643
_journal_volume 167
_journal_year 1984
_journal_page_first 65
_journal_name_full 'Z.Krist.Cryst.Mater. '
loop_
_publ_author_name
"E.F.Paulus"
_chemical_name_systematic
;
N-Phenyl-2-(4-methyl-2-nitro-phenylhydrazono)-3-oxo-butyramide
;
_chemical_name_common
;
C.I.Pigment Yellow 1.11680
;
_cell_volume   1599.765
_exptl_crystal_colour 'yellow'
_exptl_crystal_density_diffrn 1.413
_exptl_special_details
;
Isomorphous with the (4-chloro-2-nitro-phenylhydrazono) analogue

;
_diffrn_ambient_temperature ?
_diffrn_special_details
;
The study was carried out at room temperature,in the range 283-303K

;
#These two values have been output from a single CSD field.
_refine_ls_R_factor_gt 0.0416
_refine_ls_wR_factor_gt 0.0416
_symmetry_cell_setting monoclinic
_symmetry_space_group_name_H-M 'P 21/n'
_symmetry_Int_Tables_number 14
loop_
_symmetry_equiv_pos_site_id
_symmetry_equiv_pos_as_xyz
1 x,y,z
2 1/2-x,1/2+y,1/2-z
3 -x,-y,-z
4 -1/2+x,-1/2-y,-1/2+z
_cell_length_a 7.598(1)
_cell_length_b 20.375(2)
_cell_length_c 10.440(1)
_cell_angle_alpha 90
_cell_angle_beta 98.18(1)
_cell_angle_gamma 90
_cell_formula_units_Z 4
loop_
_atom_type_symbol
_atom_type_radius_bond
C 0.68
H 0.23
N 0.68
O 0.68
loop_
_atom_site_label
_atom_site_type_symbol
_atom_site_fract_x
_atom_site_fract_y
_atom_site_fract_z
O1 O 0.5980(2) 0.5444(1) 0.3389(2)
O2 O 0.3185(2) 0.4120(1) 0.0770(1)
O3 O 0.0628(2) 0.4220(1) -0.1801(2)
O4 O -0.1062(2) 0.4377(1) -0.3590(2)
N1 N 0.2060(2) 0.5194(1) -0.0410(2)
N2 N 0.3084(2) 0.5512(1) 0.0526(2)
N3 N 0.4957(2) 0.4231(1) 0.2711(2)
N4 N -0.0101(2) 0.4588(1) -0.2642(2)
C1 C 0.1158(3) 0.5572(1) -0.1417(2)
C2 C 0.1257(3) 0.6255(1) -0.1374(2)
C3 C 0.0446(3) 0.6629(1) -0.2380(2)
C4 C -0.0506(3) 0.6352(1) -0.3480(2)
C5 C -0.0660(3) 0.5685(1) -0.3521(2)
C6 C 0.0153(3) 0.5293(1) -0.2507(2)
C7 C 0.4007(3) 0.5196(1) 0.1492(2)
C8 C 0.5072(3) 0.5649(1) 0.2415(2)
C9 C 0.5021(5) 0.6367(1) 0.2114(3)
C10 C 0.4014(3) 0.4468(1) 0.1618(2)
C11 C 0.5217(3) 0.3574(1) 0.3123(2)
C12 C 0.6081(3) 0.3490(1) 0.4383(2)
C13 C 0.6429(3) 0.2869(1) 0.4867(2)
C14 C 0.5938(3) 0.2322(1) 0.4130(2)
C15 C 0.5085(3) 0.2409(1) 0.2872(2)
C16 C 0.4721(3) 0.3029(1) 0.2371(2)
C17 C -0.1307(4) 0.6784(2) -0.4593(3)
H1 H 0.1920(25) 0.644(1) -0.0626(18)
H2 H 0.0530(24) 0.7112(9) -0.2276(17)
H3 H -0.1360(23) 0.5465(9) -0.4184(16)
H4 H 0.5345(34) 0.6452(13) 0.1398(23)
H5 H 0.5644(29) 0.6615(11) 0.283(2)
H6 H 0.3729(36) 0.6535(14) 0.2062(26)
H7 H 0.2005(25) 0.4723(10) -0.0372(18)
H8 H 0.6485(23) 0.3874(9) 0.4887(15)
H9 H 0.7032(27) 0.2837(10) 0.5765(19)
H10 H 0.6165(29) 0.1884(11) 0.4451(20)
H11 H 0.4765(24) 0.2010(9) 0.2338(17)
H12 H 0.4091(23) 0.3081(8) 0.1548(16)
H13 H -0.2303(35) 0.7012(14) -0.4413(26)
H14 H -0.0422(34) 0.7009(11) -0.4924(23)
H15 H -0.2024(34) 0.6537(13) -0.5189(23)
H16 H 0.5432(23) 0.4544(9) 0.3181(17)
#END
