
#######################################################################
#
#                 Cambridge Crystallographic Data Centre
#                                CCDC
#
#######################################################################
#
# If this CIF has been generated from an entry in the Cambridge
# Structural Database, then it will include bibliographic, chemical,
# crystal, experimental, refinement or atomic coordinate data resulting
# from the CCDC's data processing and validation procedures.
#
#######################################################################

data_CSD_CIF_QQQAIY03
_audit_creation_date 2004-12-09
_audit_creation_method CSD-ConQuest-V1
_database_code_CSD QQQAIY03
_database_code_depnum_ccdc_archive 'CCDC 255106'
_chemical_formula_sum 'C13 H10 N2 O2'
_chemical_formula_moiety
;
C13 H10 N2 O2
;
_journal_coeditor_code "IUCr BK5008"
_journal_coden_Cambridge 622
_journal_volume 60
_journal_year 2004
_journal_page_first 589
_journal_name_full 'Acta Crystallogr.,Sect.B:Struct.Sci. '
loop_
_publ_author_name
"J.Harada"
"M.Harakawa"
"K.Ogawa"
_chemical_name_systematic
;
N-(4-Nitrobenzylidene)aniline
;
_chemical_melting_point 362.7
_cell_volume   2199.637
_exptl_crystal_colour 'yellow'
_exptl_crystal_density_diffrn 1.366
_exptl_crystal_description 'block'
_exptl_crystal_preparation 'methanol'
_diffrn_ambient_temperature 90
#These two values have been output from a single CSD field.
_refine_ls_R_factor_gt 0.0391
_refine_ls_wR_factor_gt 0.0391
_symmetry_cell_setting monoclinic
_symmetry_space_group_name_H-M 'P 21/n'
_symmetry_Int_Tables_number 14
loop_
_symmetry_equiv_pos_site_id
_symmetry_equiv_pos_as_xyz
1 x,y,z
2 1/2-x,1/2+y,1/2-z
3 -x,-y,-z
4 -1/2+x,-1/2-y,-1/2+z
_cell_length_a 14.2105(12)
_cell_length_b 10.6596(9)
_cell_length_c 14.8045(12)
_cell_angle_alpha 90
_cell_angle_beta 101.228(2)
_cell_angle_gamma 90
_cell_formula_units_Z 8
loop_
_atom_type_symbol
_atom_type_radius_bond
C 0.68
H 0.23
N 0.68
O 0.68
loop_
_atom_site_label
_atom_site_type_symbol
_atom_site_fract_x
_atom_site_fract_y
_atom_site_fract_z
N1 N 0.02665(6) 0.78597(8) 0.82396(5)
N2 N 0.01711(6) 0.74674(8) 1.25887(6)
O1 O -0.02677(6) 0.83718(7) 1.28125(5)
O2 O 0.04904(7) 0.66109(8) 1.31161(5)
C1 C 0.04987(6) 0.72049(9) 0.98201(6)
C2 C 0.08570(7) 0.62652(9) 1.04481(7)
C3 C 0.07661(7) 0.63512(9) 1.13643(7)
C4 C 0.03078(6) 0.73924(9) 1.16312(6)
C5 C -0.00405(7) 0.83618(9) 1.10289(6)
C6 C 0.00533(7) 0.82592(9) 1.01174(6)
C7 C 0.05929(7) 0.70542(9) 0.88557(6)
C8 C 0.03366(6) 0.75941(9) 0.73156(6)
C9 C 0.05314(7) 0.85862(10) 0.67672(7)
C10 C 0.05887(8) 0.83723(11) 0.58509(7)
C11 C 0.04337(8) 0.71799(12) 0.54722(7)
C12 C 0.02167(8) 0.61985(11) 0.60137(7)
C13 C 0.01695(7) 0.63955(10) 0.69321(7)
H1 H 0.1189(10) 0.5553(13) 1.0259(9)
H2 H 0.1016(11) 0.5703(14) 1.181(1)
H3 H -0.0354(10) 0.9090(14) 1.1229(9)
H4 H -0.0197(10) 0.8893(13) 0.9684(9)
H5 H 0.0927(10) 0.6292(14) 0.8718(10)
H6 H 0.0636(10) 0.9424(14) 0.7033(10)
H7 H 0.0724(11) 0.9063(15) 0.5494(10)
H8 H 0.0468(11) 0.7040(15) 0.4841(10)
H9 H 0.0097(11) 0.5366(15) 0.5772(11)
H10 H 0.0005(10) 0.5717(14) 0.7289(10)
N3 N 0.22998(6) 0.96054(8) 0.14065(6)
N4 N 0.28274(6) 0.95132(8) -0.28501(6)
O3 O 0.24644(6) 1.04503(8) -0.32553(6)
O4 O 0.32478(6) 0.87098(9) -0.32167(6)
C14 C 0.26260(6) 0.89955(9) -0.00668(6)
C15 C 0.29571(7) 0.80304(9) -0.05605(7)
C16 C 0.30336(7) 0.82005(9) -0.14734(7)
C17 C 0.27542(7) 0.93408(9) -0.18822(6)
C18 C 0.24149(8) 1.03233(10) -0.14162(7)
C19 C 0.23630(7) 1.01464(10) -0.05004(7)
C20 C 0.25720(7) 0.87666(9) 0.09003(7)
C21 C 0.23077(6) 0.93227(9) 0.23454(6)
C22 C 0.16985(7) 1.00160(9) 0.27880(7)
C23 C 0.16811(7) 0.97977(10) 0.37099(7)
C24 C 0.22708(7) 0.88906(11) 0.42034(7)
C25 C 0.28840(7) 0.82031(11) 0.37656(7)
C26 C 0.29090(7) 0.84169(9) 0.28469(7)
H11 H 0.3127(10) 0.7240(13) -0.0261(9)
H12 H 0.3274(11) 0.7536(14) -0.1803(10)
H13 H 0.2251(11) 1.1103(15) -0.1698(10)
H14 H 0.2140(11) 1.0801(14) -0.0163(10)
H15 H 0.2728(11) 0.7893(14) 0.1115(10)
H16 H 0.1272(10) 1.0621(13) 0.2446(9)
H17 H 0.1257(10) 1.0291(14) 0.4001(10)
H18 H 0.2253(11) 0.8736(14) 0.4842(10)
H19 H 0.3298(11) 0.7582(14) 0.4099(10)
H20 H 0.3352(10) 0.7958(14) 0.2559(9)
#END
