
#######################################################################
#
#                 Cambridge Crystallographic Data Centre
#                                CCDC
#
#######################################################################
#
# If this CIF has been generated from an entry in the Cambridge
# Structural Database, then it will include bibliographic, chemical,
# crystal, experimental, refinement or atomic coordinate data resulting
# from the CCDC's data processing and validation procedures.
#
#######################################################################

data_CSD_CIF_QQQAIY02
_audit_creation_date 2004-12-09
_audit_creation_method CSD-ConQuest-V1
_database_code_CSD QQQAIY02
_database_code_depnum_ccdc_archive 'CCDC 255105'
_chemical_formula_sum 'C13 H10 N2 O2'
_chemical_formula_moiety
;
C13 H10 N2 O2
;
_journal_coeditor_code "IUCr BK5008"
_journal_coden_Cambridge 622
_journal_volume 60
_journal_year 2004
_journal_page_first 589
_journal_name_full 'Acta Crystallogr.,Sect.B:Struct.Sci. '
loop_
_publ_author_name
"J.Harada"
"M.Harakawa"
"K.Ogawa"
_chemical_name_systematic
;
N-(4-Nitrobenzylidene)aniline
;
_chemical_melting_point 362.7
_cell_volume   2236.507
_exptl_crystal_colour 'yellow'
_exptl_crystal_density_diffrn 1.344
_exptl_crystal_description 'block'
_exptl_crystal_preparation 'methanol'
_diffrn_ambient_temperature 200
#These two values have been output from a single CSD field.
_refine_ls_R_factor_gt 0.0466
_refine_ls_wR_factor_gt 0.0466
_symmetry_cell_setting monoclinic
_symmetry_space_group_name_H-M 'P 21/n'
_symmetry_Int_Tables_number 14
loop_
_symmetry_equiv_pos_site_id
_symmetry_equiv_pos_as_xyz
1 x,y,z
2 1/2-x,1/2+y,1/2-z
3 -x,-y,-z
4 -1/2+x,-1/2-y,-1/2+z
_cell_length_a 14.4053(11)
_cell_length_b 10.7367(8)
_cell_length_c 14.7627(12)
_cell_angle_alpha 90
_cell_angle_beta 101.617(2)
_cell_angle_gamma 90
_cell_formula_units_Z 8
loop_
_atom_type_symbol
_atom_type_radius_bond
C 0.68
H 0.23
N 0.68
O 0.68
loop_
_atom_site_label
_atom_site_type_symbol
_atom_site_fract_x
_atom_site_fract_y
_atom_site_fract_z
N1 N 0.02534(7) 0.78734(10) 0.82414(7)
N2 N 0.01705(9) 0.74483(11) 1.25958(8)
O1 O -0.02553(8) 0.83413(10) 1.28260(7)
O2 O 0.04820(11) 0.65941(12) 1.31176(7)
C1 C 0.04842(8) 0.72145(11) 0.98225(8)
C2 C 0.08396(10) 0.62832(13) 1.04475(9)
C3 C 0.07532(10) 0.63618(13) 1.13645(9)
C4 C 0.02992(8) 0.73828(11) 1.16336(8)
C5 C -0.00472(9) 0.83399(11) 1.10367(8)
C6 C 0.00412(9) 0.82480(11) 1.01219(8)
C7 C 0.05736(9) 0.70758(12) 0.88540(8)
C8 C 0.03241(8) 0.76236(12) 0.73130(8)
C9 C 0.05217(10) 0.86089(15) 0.67791(10)
C10 C 0.05795(12) 0.84085(19) 0.58617(11)
C11 C 0.04255(12) 0.7239(2) 0.54763(11)
C12 C 0.02079(13) 0.62650(19) 0.60028(11)
C13 C 0.01573(11) 0.64443(15) 0.6922(1)
H1 H 0.1164(11) 0.5571(16) 1.0250(11)
H2 H 0.0994(12) 0.5717(17) 1.1801(12)
H3 H -0.0366(11) 0.9045(16) 1.1231(11)
H4 H -0.0205(11) 0.8891(15) 0.9682(11)
H5 H 0.0906(11) 0.6328(16) 0.8721(11)
H6 H 0.0628(12) 0.9434(17) 0.7049(12)
H7 H 0.0722(13) 0.9107(19) 0.5532(13)
H8 H 0.0470(14) 0.7125(19) 0.4840(14)
H9 H 0.0068(15) 0.542(2) 0.5742(14)
H10 H -0.0011(12) 0.5749(17) 0.7278(12)
N3 N 0.23051(8) 0.95963(10) 0.14070(8)
N4 N 0.28359(8) 0.95045(12) -0.28440(8)
O3 O 0.25088(10) 1.04460(11) -0.32452(8)
O4 O 0.32207(10) 0.86931(13) -0.32149(8)
C14 C 0.26260(9) 0.89925(12) -0.00638(9)
C15 C 0.29392(10) 0.80381(13) -0.05569(10)
C16 C 0.30156(10) 0.82055(13) -0.14684(10)
C17 C 0.27614(9) 0.93362(12) -0.18750(9)
C18 C 0.24395(11) 1.03105(14) -0.14101(10)
C19 C 0.23833(11) 1.01342(14) -0.04946(10)
C20 C 0.25703(9) 0.87704(12) 0.09065(9)
C21 C 0.23092(8) 0.93247(12) 0.23496(8)
C22 C 0.17155(10) 1.00211(13) 0.27831(9)
C23 C 0.16971(11) 0.98228(15) 0.37052(10)
C24 C 0.22713(11) 0.89296(16) 0.42069(10)
C25 C 0.28690(11) 0.82406(16) 0.37812(11)
C26 C 0.28945(10) 0.84309(14) 0.28627(10)
H11 H 0.3093(12) 0.7243(16) -0.0246(11)
H12 H 0.3243(13) 0.7543(17) -0.1799(12)
H13 H 0.2302(12) 1.1089(18) -0.1702(12)
H14 H 0.2180(12) 1.0807(17) -0.0165(12)
H15 H 0.2739(12) 0.7903(17) 0.1141(11)
H16 H 0.1315(12) 1.0634(16) 0.2436(11)
H17 H 0.1278(13) 1.0307(17) 0.3986(12)
H18 H 0.2255(13) 0.8799(17) 0.4859(13)
H19 H 0.3256(15) 0.7625(19) 0.4112(14)
H20 H 0.3307(12) 0.7974(17) 0.2561(12)
#END
