
#######################################################################
#
#                 Cambridge Crystallographic Data Centre
#                                CCDC
#
#######################################################################
#
# If this CIF has been generated from an entry in the Cambridge
# Structural Database, then it will include bibliographic, chemical,
# crystal, experimental, refinement or atomic coordinate data resulting
# from the CCDC's data processing and validation procedures.
#
#######################################################################

data_CSD_CIF_QQQAZG21
_audit_creation_date 1986-04-23
_audit_creation_method CSD-ConQuest-V1
_database_code_CSD QQQAZG21
_database_code_depnum_ccdc_archive 'CCDC 1243924'
_chemical_formula_sum 'C17 H16 N4 O4'
_chemical_formula_moiety
;
C17 H16 N4 O4
;
_journal_coden_Cambridge 643
_journal_volume 166
_journal_year 1984
_journal_page_first 177
_journal_name_full 'Z.Krist.Cryst.Mater. '
loop_
_publ_author_name
"A.Whitaker"
_chemical_name_systematic
;
\a-(1-Hydroxyethylidene)-acetanilide-\a-azo-(4'-methyl-2'-nitrobenzene)
;
_cell_volume   1598.742
_exptl_crystal_colour 'yellow'
_exptl_crystal_density_diffrn 1.414
_diffrn_ambient_temperature ?
_diffrn_special_details
;
The study was carried out at room temperature,in the range 283-303K

;
#These two values have been output from a single CSD field.
_refine_ls_R_factor_gt 0.08
_refine_ls_wR_factor_gt 0.08
_symmetry_cell_setting monoclinic
_symmetry_space_group_name_H-M 'P 21/c'
_symmetry_Int_Tables_number 14
loop_
_symmetry_equiv_pos_site_id
_symmetry_equiv_pos_as_xyz
1 x,y,z
2 -x,1/2+y,1/2-z
3 -x,-y,-z
4 x,-1/2-y,-1/2+z
_cell_length_a 7.587(42)
_cell_length_b 20.362(53)
_cell_length_c 12.033(46)
_cell_angle_alpha 90
_cell_angle_beta 120.68(29)
_cell_angle_gamma 90
_cell_formula_units_Z 4
loop_
_atom_type_symbol
_atom_type_radius_bond
C 0.68
H 0.23
N 0.68
O 0.68
loop_
_atom_site_label
_atom_site_type_symbol
_atom_site_fract_x
_atom_site_fract_y
_atom_site_fract_z
C1 C 0.7340(7) 0.4709(2) 0.7496(4)
N1 N 0.7464(6) 0.5414(2) 0.7364(4)
O1 O 0.7571(8) 0.5775(2) 0.8191(4)
O2 O 0.7474(8) 0.5625(2) 0.6421(4)
C2 C 0.7133(8) 0.4323(2) 0.6472(5)
H1 H 0.70710 0.45490 0.56680
C3 C 0.7007(7) 0.3640(2) 0.6511(5)
C4 C 0.6705(11) 0.3223(3) 0.5406(6)
H2 H 0.6006(99) 0.3434(28) 0.4702(61)
H3 H 0.5994(95) 0.2703(28) 0.5428(55)
H4 H 0.798(11) 0.2936(29) 0.5695(58)
C5 C 0.7163(8) 0.3368(2) 0.7610(5)
H5 H 0.71300 0.28550 0.76790
C6 C 0.7362(8) 0.3745(2) 0.8623(5)
H6 H 0.74860 0.35140 0.94400
C7 C 0.7401(7) 0.4432(2) 0.8574(4)
N2 N 0.7528(5) 0.4803(2) 0.9589(3)
H7 H 0.76960 0.53160 0.96140
N3 N 0.7430(5) 0.4487(2) 1.0520(3)
C8 C 0.7484(7) 0.4806(2) 1.1488(4)
C9 C 0.7341(8) 0.4351(2) 1.2418(5)
C10 C 0.7067(11) 0.3637(2) 1.2112(6)
H8 H 0.8343(90) 0.3513(27) 1.2140(51)
H9 H 0.6840(84) 0.3298(26) 1.2740(51)
H10 H 0.5959(92) 0.3676(25) 1.1277(55)
O3 O 0.7405(7) 0.4554(2) 1.3388(4)
C11 C 0.7603(6) 0.5533(2) 1.1620(4)
O4 O 0.7591(6) 0.5881(1) 1.0774(3)
N4 N 0.7755(6) 0.5771(2) 1.2710(4)
H11 H 0.77630 0.54150 1.33440
C12 C 0.7907(7) 0.6429(2) 1.3131(4)
C13 C 0.8277(8) 0.6510(2) 1.4364(4)
H12 H 0.84250 0.60950 1.49230
C14 C 0.8460(9) 0.7130(2) 1.4881(5)
H13 H 0.87960 0.71860 1.58370
C15 C 0.8194(9) 0.7681(2) 1.4121(5)
H14 H 0.82990 0.81550 1.44950
C16 C 0.7790(9) 0.7598(2) 1.2870(5)
H15 H 0.75790 0.80120 1.22940
C17 C 0.7661(9) 0.6970(2) 1.2365(5)
H16 H 0.73830 0.69090 1.14220
#END
