
#######################################################################
#
#                 Cambridge Crystallographic Data Centre
#                                CCDC
#
#######################################################################
#
# If this CIF has been generated from an entry in the Cambridge
# Structural Database, then it will include bibliographic, chemical,
# crystal, experimental, refinement or atomic coordinate data resulting
# from the CCDC's data processing and validation procedures.
#
#######################################################################

data_CSD_CIF_QQQAIY01
_audit_creation_date 2004-12-09
_audit_creation_method CSD-ConQuest-V1
_database_code_CSD QQQAIY01
_database_code_depnum_ccdc_archive 'CCDC 255104'
_chemical_formula_sum 'C13 H10 N2 O2'
_chemical_formula_moiety
;
C13 H10 N2 O2
;
_journal_coeditor_code "IUCr BK5008"
_journal_coden_Cambridge 622
_journal_volume 60
_journal_year 2004
_journal_page_first 589
_journal_name_full 'Acta Crystallogr.,Sect.B:Struct.Sci. '
loop_
_publ_author_name
"J.Harada"
"M.Harakawa"
"K.Ogawa"
_chemical_name_systematic
;
N-(4-Nitrobenzylidene)aniline
;
_chemical_melting_point 362.7
_cell_volume   2280.576
_exptl_crystal_colour 'yellow'
_exptl_crystal_density_diffrn 1.318
_exptl_crystal_description 'block'
_exptl_crystal_preparation 'methanol'
_diffrn_ambient_temperature 300
_refine_special_details
;
A N atom and three C atoms are disordered over two sites with occupancies 
0.90:0.10.
;
#These two values have been output from a single CSD field.
_refine_ls_R_factor_gt 0.0649
_refine_ls_wR_factor_gt 0.0649
_symmetry_cell_setting monoclinic
_symmetry_space_group_name_H-M 'P 21/n'
_symmetry_Int_Tables_number 14
loop_
_symmetry_equiv_pos_site_id
_symmetry_equiv_pos_as_xyz
1 x,y,z
2 1/2-x,1/2+y,1/2-z
3 -x,-y,-z
4 -1/2+x,-1/2-y,-1/2+z
_cell_length_a 14.6363(11)
_cell_length_b 10.8175(8)
_cell_length_c 14.7228(11)
_cell_angle_alpha 90
_cell_angle_beta 101.943(1)
_cell_angle_gamma 90
_cell_formula_units_Z 8
loop_
_atom_type_symbol
_atom_type_radius_bond
C 0.68
H 0.23
N 0.68
O 0.68
loop_
_atom_site_label
_atom_site_type_symbol
_atom_site_fract_x
_atom_site_fract_y
_atom_site_fract_z
N1 N 0.02380(11) 0.78968(16) 0.82394(11)
N2 N 0.01744(14) 0.7417(2) 1.26015(12)
O1 O -0.02393(14) 0.82959(17) 1.28405(11)
O2 O 0.04782(18) 0.6563(2) 1.31135(12)
C1 C 0.04664(12) 0.72254(17) 0.98186(12)
C2 C 0.08161(16) 0.6304(2) 1.04364(15)
C3 C 0.07394(16) 0.6370(2) 1.13535(16)
C4 C 0.02916(13) 0.73635(18) 1.16329(12)
C5 C -0.00515(14) 0.83065(19) 1.10426(14)
C6 C 0.00299(14) 0.82339(18) 1.01254(13)
C7 C 0.05495(14) 0.7107(2) 0.88434(14)
C8 C 0.03092(13) 0.7670(2) 0.73054(13)
C9 C 0.05125(16) 0.8651(3) 0.67911(16)
C10 C 0.0572(2) 0.8474(4) 0.5874(2)
C11 C 0.0413(2) 0.7333(4) 0.5475(2)
C12 C 0.0192(2) 0.6361(4) 0.5983(2)
C13 C 0.01409(18) 0.6515(3) 0.68997(17)
H1 H 0.1131(16) 0.561(2) 1.0233(16)
H2 H 0.0964(16) 0.575(2) 1.1790(16)
H3 H -0.0360(14) 0.8992(19) 1.1239(13)
H4 H -0.0220(15) 0.888(2) 0.9710(14)
H5 H 0.0878(15) 0.638(2) 0.8709(14)
H6 H 0.0640(17) 0.947(2) 0.7075(17)
H7 H 0.072(2) 0.918(3) 0.558(2)
H8 H 0.045(2) 0.723(3) 0.488(3)
H9 H 0.003(2) 0.555(3) 0.572(2)
H10 H -0.0049(18) 0.584(2) 0.7234(17)
N3 N 0.23088(13) 0.9587(2) 0.14032(14)
C14 C 0.26273(16) 0.8968(3) -0.00672(17)
C15 C 0.25692(15) 0.8776(2) 0.09118(16)
H11 H 0.27360 0.80070 0.11770
C16 C 0.23050(19) 0.9338(3) 0.23442(17)
N4 N 0.28500(13) 0.9491(2) -0.28382(13)
O3 O 0.25627(16) 1.04339(19) -0.32413(13)
O4 O 0.31877(16) 0.8663(2) -0.32122(13)
C17 C 0.29165(18) 0.8061(2) -0.05534(17)
C18 C 0.29928(17) 0.8224(2) -0.14587(17)
C19 C 0.27696(13) 0.9341(2) -0.18690(14)
C20 C 0.24731(19) 1.0311(2) -0.14077(18)
C21 C 0.24128(19) 1.0134(3) -0.04900(18)
C22 C 0.17402(15) 1.0016(2) 0.27704(16)
C23 C 0.17214(18) 0.9853(3) 0.36921(17)
C24 C 0.22757(18) 0.8988(3) 0.42102(18)
C25 C 0.28558(19) 0.8292(3) 0.3803(2)
C26 C 0.28819(18) 0.8440(2) 0.28846(18)
H12 H 0.3082(18) 0.724(3) -0.0224(17)
H13 H 0.3203(19) 0.754(3) -0.1793(19)
H14 H 0.2365(17) 1.108(2) -0.1717(17)
H15 H 0.2255(19) 1.081(3) -0.0193(19)
H16 H 0.1351(16) 1.061(2) 0.2409(15)
H17 H 0.1324(18) 1.033(2) 0.3952(18)
H18 H 0.2267(18) 0.887(2) 0.4832(19)
H19 H 0.322(2) 0.772(3) 0.416(2)
H20 H 0.3280(18) 0.794(2) 0.2594(17)
N5? N 0.2502(17) 0.897(2) 0.1526(13)
C27? C 0.2673(18) 0.951(3) -0.0016(15)
C28? C 0.2529(19) 0.977(2) 0.0928(14)
H21? H 0.24530 1.05930 0.10860
C29? C 0.246(2) 0.900(2) 0.2478(14)
#END
