
#######################################################################
#
#                 Cambridge Crystallographic Data Centre
#                                CCDC
#
#######################################################################
#
# If this CIF has been generated from an entry in the Cambridge
# Structural Database, then it will include bibliographic, chemical,
# crystal, experimental, refinement or atomic coordinate data resulting
# from the CCDC's data processing and validation procedures.
#
#######################################################################

data_CSD_CIF_QQQAIY04
_audit_creation_date 2014-02-04
_audit_creation_method CSD-ConQuest-V1
_database_code_CSD QQQAIY04
_database_code_depnum_ccdc_archive 'CCDC 939305'
_chemical_formula_sum 'C13 H10 N2 O2'
_chemical_formula_moiety
;
C13 H10 N2 O2
;
_journal_coden_Cambridge 440
_journal_volume 38
_journal_year 2014
_journal_page_first 1484
_journal_name_full 'New J.Chem. '
loop_
_publ_author_name
"Madhuprasad"
"N.Swathi"
"J.R.Manjunatha"
"U.K.Das"
"A.Nityananda Shetty"
"D.R.Trivedi"
_chemical_name_systematic
;
N-(4-Nitrobenzylidene)aniline
;
_chemical_melting_point 367.5
_cell_volume   2285.099
_exptl_crystal_colour 'yellow'
_exptl_crystal_density_diffrn 1.315
_exptl_crystal_description 'block'
_diffrn_ambient_temperature 296
#These two values have been output from a single CSD field.
_refine_ls_R_factor_gt 0.0685
_refine_ls_wR_factor_gt 0.0685
_symmetry_cell_setting monoclinic
_symmetry_space_group_name_H-M 'P 21/n'
_symmetry_Int_Tables_number 14
loop_
_symmetry_equiv_pos_site_id
_symmetry_equiv_pos_as_xyz
1 x,y,z
2 1/2-x,1/2+y,1/2-z
3 -x,-y,-z
4 -1/2+x,-1/2-y,-1/2+z
_cell_length_a 14.6480(2)
_cell_length_b 10.8265(2)
_cell_length_c 14.7278(2)
_cell_angle_alpha 90
_cell_angle_beta 101.940(1)
_cell_angle_gamma 90
_cell_formula_units_Z 8
loop_
_atom_type_symbol
_atom_type_radius_bond
C 0.68
H 0.23
N 0.68
O 0.68
loop_
_atom_site_label
_atom_site_type_symbol
_atom_site_fract_x
_atom_site_fract_y
_atom_site_fract_z
O1 O 0.47616(15) 0.82962(19) 0.78413(12)
N1 N 0.52383(12) 0.78993(18) 0.32379(13)
N2 N 0.51724(16) 0.7417(2) 0.76008(14)
C1 C 0.54652(14) 0.7227(2) 0.48170(14)
C2 C 0.50310(16) 0.8235(2) 0.51303(16)
O2 O 0.54754(19) 0.6564(2) 0.81114(14)
C3 C 0.52915(15) 0.7367(2) 0.66334(14)
C4 C 0.49451(16) 0.8309(2) 0.60402(16)
C5 C 0.55481(16) 0.7112(3) 0.38445(16)
C6 C 0.53105(14) 0.7670(2) 0.23080(15)
C7 C 0.58163(18) 0.6307(3) 0.54401(18)
C8 C 0.57346(19) 0.6373(3) 0.63501(18)
C9 C 0.55102(18) 0.8650(3) 0.17880(19)
C10 C 0.5141(2) 0.6522(3) 0.18956(19)
C11 C 0.5573(2) 0.8477(5) 0.0876(2)
C12 C 0.5410(2) 0.7340(5) 0.0476(2)
C13 C 0.5192(3) 0.6367(4) 0.0987(2)
H1 H 0.4633(16) 0.900(2) 0.6234(15)
H2 H 0.4777(15) 0.886(2) 0.4708(15)
H3 H 0.5953(16) 0.580(2) 0.6774(16)
H4 H 0.6106(16) 0.565(2) 0.5229(16)
H5 H 0.5863(17) 0.639(2) 0.3718(16)
H6 H 0.5613(18) 0.945(3) 0.2073(18)
H7 H 0.4985(18) 0.586(3) 0.2232(18)
H8 H 0.505(2) 0.556(3) 0.071(2)
H9 H 0.569(2) 0.920(3) 0.056(2)
H10 H 0.542(2) 0.726(3) -0.010(3)
N3 N 0.28534(15) 0.5509(2) -0.28366(15)
N4 N 0.23163(14) 0.5425(2) 0.14042(14)
O3 O 0.31878(17) 0.6337(2) -0.32109(14)
O4 O 0.25665(18) 0.4571(2) -0.32402(14)
C14 C 0.23177(15) 0.5695(2) 0.23567(15)
C15 C 0.27705(15) 0.5663(2) -0.18691(16)
C16 C 0.26315(16) 0.6003(2) -0.00640(16)
C17 C 0.17396(18) 0.4983(2) 0.27713(18)
C18 C 0.25675(18) 0.6221(3) 0.09216(19)
C19 C 0.29909(19) 0.6775(3) -0.14554(19)
C20 C 0.1720(2) 0.5146(3) 0.3691(2)
C21 C 0.28799(19) 0.6558(3) 0.2887(2)
C22 C 0.2276(2) 0.6008(3) 0.4206(2)
C23 C 0.2914(2) 0.6937(3) -0.0559(2)
C24 C 0.2418(2) 0.4871(3) -0.0485(2)
C25 C 0.2859(2) 0.6711(3) 0.3803(2)
C26 C 0.2475(2) 0.4690(3) -0.1405(2)
H11 H 0.225(2) 0.421(3) -0.020(2)
H12 H 0.236(2) 0.394(3) -0.171(2)
H13 H 0.320(2) 0.741(3) -0.179(2)
H14 H 0.276(2) 0.709(3) 0.116(2)
H15 H 0.309(2) 0.773(3) -0.022(2)
H16 H 0.1318(17) 0.439(2) 0.2383(17)
H17 H 0.128(2) 0.468(3) 0.3961(19)
H18 H 0.325(2) 0.733(3) 0.419(2)
H19 H 0.2270(18) 0.611(2) 0.4802(19)
H20 H 0.3291(18) 0.704(2) 0.2610(17)
#END
