
#######################################################################
#
#                 Cambridge Crystallographic Data Centre
#                                CCDC
#
#######################################################################
#
# If this CIF has been generated from an entry in the Cambridge
# Structural Database, then it will include bibliographic, chemical,
# crystal, experimental, refinement or atomic coordinate data resulting
# from the CCDC's data processing and validation procedures.
#
#######################################################################

data_CSD_CIF_QQQCOY10
_audit_creation_date 1984-10-09
_audit_creation_method CSD-ConQuest-V1
_database_code_CSD QQQCOY10
_chemical_formula_sum 'C15 H14 N4 O3'
_chemical_formula_moiety
;
C15 H14 N4 O3
;
_journal_coeditor_code "IUCr A23320"
_journal_coden_Cambridge 591
_journal_volume 40
_journal_year 1984
_journal_page_first 95
_journal_name_full 'Acta Crystallogr.,Sect.C:Cryst.Struct.Commun. '
loop_
_publ_author_name
"C.J.Brown"
"H.R.Yadav"
_chemical_name_systematic
;
\a-(4-Methyl-2-nitrophenylhydrazono)acetanilide
;
_chemical_melting_point 476
_cell_volume   1436.210
_exptl_crystal_colour 'red'
_exptl_crystal_density_diffrn 1.38
_diffrn_ambient_temperature ?
_diffrn_special_details
;
The study was carried out at room temperature,in the range 283-303K

;
#These two values have been output from a single CSD field.
_refine_ls_R_factor_gt 0.045
_refine_ls_wR_factor_gt 0.045
_symmetry_cell_setting monoclinic
_symmetry_space_group_name_H-M 'P 21/a'
_symmetry_Int_Tables_number 14
loop_
_symmetry_equiv_pos_site_id
_symmetry_equiv_pos_as_xyz
1 x,y,z
2 1/2-x,1/2+y,-z
3 -x,-y,-z
4 -1/2+x,-1/2-y,z
_cell_length_a 23.344(15)
_cell_length_b 5.905(8)
_cell_length_c 12.164(12)
_cell_angle_alpha 90
_cell_angle_beta 121.07(10)
_cell_angle_gamma 90
_cell_formula_units_Z 4
loop_
_atom_type_symbol
_atom_type_radius_bond
C 0.68
H 0.23
N 0.68
O 0.68
loop_
_atom_site_label
_atom_site_type_symbol
_atom_site_fract_x
_atom_site_fract_y
_atom_site_fract_z
C1 C 0.13450 -0.24180 0.56300
C2 C 0.20250 -0.12810 0.62620
C3 C 0.25680 -0.22720 0.72970
C4 C 0.32010 -0.12500 0.78740
C5 C 0.33030 0.07780 0.74160
C6 C 0.27310 0.18140 0.63650
C7 C 0.21190 0.07610 0.58140
C8 C 0.45970 0.44960 0.79780
C9 C 0.47490 0.65760 0.75490
C10 C 0.57620 0.89100 0.81310
C11 C 0.64460 0.90490 0.90490
C12 C 0.68320 1.07760 0.89870
C13 C 0.65480 1.23990 0.80460
C14 C 0.58650 1.22480 0.71170
C15 C 0.54780 1.05080 0.71630
N1 N 0.37440 -0.24100 0.89700
N2 N 0.39200 0.18400 0.79400
N3 N 0.39940 0.37690 0.74560
N4 N 0.54220 0.70940 0.82620
O1 O 0.36200 -0.41530 0.93530
O2 O 0.43160 -0.15810 0.94920
O3 O 0.43380 0.77600 0.66720
H1 H 0.13800 -0.40900 0.53100
H2 H 0.09890 -0.14220 0.48180
H3 H 0.11830 -0.25500 0.63140
H4 H 0.25080 -0.38550 0.76700
H5 H 0.27780 0.34280 0.60020
H6 H 0.16950 0.15540 0.50020
H7 H 0.49970 0.35410 0.87480
H8 H 0.66740 0.78070 0.98090
H9 H 0.73620 1.08420 0.96850
H10 H 0.68460 1.37740 0.80220
H11 H 0.56390 1.34950 0.63610
H12 H 0.49530 1.04020 0.64400
H13 H 0.43500 0.10860 0.87590
H14 H 0.57270 0.59260 0.90290
#END
