
#######################################################################
#
#                 Cambridge Crystallographic Data Centre
#                                CCDC
#
#######################################################################
#
# If this CIF has been generated from an entry in the Cambridge
# Structural Database, then it will include bibliographic, chemical,
# crystal, experimental, refinement or atomic coordinate data resulting
# from the CCDC's data processing and validation procedures.
#
#######################################################################

data_CSD_CIF_QQQELA03
_audit_creation_date 1988-04-27
_audit_creation_method CSD-ConQuest-V1
_database_code_CSD QQQELA03
_chemical_formula_sum 'C16 H15 N4 O4'
_chemical_formula_moiety
;
C16 H15 N4 O4
;
_journal_coden_Cambridge 643
_journal_volume 171
_journal_year 1985
_journal_page_first 7
_journal_name_full 'Z.Krist.Cryst.Mater. '
loop_
_publ_author_name
"A.Whitaker"
"N.Walker"
_chemical_name_systematic
;
\a-(4-Nitrobenzenehydrazono)-\a-acetylacetanilide
;
_chemical_name_common
;
C.I.Pigment Yellow 4
;
_cell_volume    759.961
_exptl_crystal_colour 'yellow'
_exptl_crystal_density_diffrn 1.426
_diffrn_ambient_temperature ?
_diffrn_special_details
;
The study was carried out at room temperature,in the range 283-303K

;
#These two values have been output from a single CSD field.
_refine_ls_R_factor_gt 0.054
_refine_ls_wR_factor_gt 0.054
_symmetry_cell_setting triclinic
_symmetry_space_group_name_H-M 'P -1'
_symmetry_Int_Tables_number 2
loop_
_symmetry_equiv_pos_site_id
_symmetry_equiv_pos_as_xyz
1 x,y,z
2 -x,-y,-z
_cell_length_a 7.691(2)
_cell_length_b 10.247(2)
_cell_length_c 11.195(2)
_cell_angle_alpha 109.00(2)
_cell_angle_beta 73.80(2)
_cell_angle_gamma 112.21(2)
_cell_formula_units_Z 2
loop_
_atom_type_symbol
_atom_type_radius_bond
C 0.68
H 0.23
N 0.68
O 0.68
loop_
_atom_site_label
_atom_site_type_symbol
_atom_site_fract_x
_atom_site_fract_y
_atom_site_fract_z
C1 C 0.1618(3) 0.0957(2) 1.1362(2)
H1 H 0.13070 0.06470 1.04340
C2 C 0.1384(3) -0.0091(2) 1.1968(2)
H2 H 0.08520 -0.12000 1.15220
C3 C 0.1853(3) 0.0340(2) 1.3164(2)
N1 N 0.1637(2) -0.0755(2) 1.38090
O1 O 0.0898(2) -0.2032(2) 1.3310(2)
O2 O 0.2187(3) -0.0361(2) 1.48270
C4 C 0.2573(3) 0.1796(2) 1.3783(2)
H3 H 0.29630 0.20920 1.46850
C5 C 0.2767(3) 0.2848(2) 1.3194(2)
H4 H 0.32830 0.39550 1.36530
C6 C 0.2275(2) 0.2428(2) 1.1981(2)
N2 N 0.2425(2) 0.3443(2) 1.1353(1)
H5 H 0.18310 0.31090 1.05220
N3 N 0.3322(2) 0.4827(1) 1.1808(1)
C7 C 0.3491(2) 0.5813(2) 1.1244(2)
C8 C 0.4669(3) 0.7290(2) 1.1855(2)
O3 O 0.5050(2) 0.8334(1) 1.1415(1)
C9 C 0.5431(4) 0.7493(2) 1.3012(2)
H6 H 0.6035(33) 0.8582(26) 1.3321(24)
H7 H 0.6538(32) 0.6993(25) 1.2779(23)
H8 H 0.4367(34) 0.7133(26) 1.3544(25)
C10 C 0.2674(2) 0.5465(2) 1.0065(2)
O4 O 0.1818(2) 0.4195(1) 0.9571(1)
N4 N 0.2980(2) 0.6612(2) 0.9610(1)
H9 H 0.36460 0.76340 1.01740
C11 C 0.2530(2) 0.6628(2) 0.8484(2)
C12 C 0.2990(3) 0.7997(2) 0.8264(2)
H10 H 0.35830 0.89390 0.89460
C13 C 0.2672(3) 0.8120(2) 0.7164(2)
H11 H 0.30390 0.91550 0.70060
C14 C 0.1867(3) 0.6883(2) 0.6253(2)
H12 H 0.16310 0.69720 0.54070
C15 C 0.1387(3) 0.5531(2) 0.6491(2)
H13 H 0.07660 0.45930 0.58180
C16 C 0.1700(3) 0.5385(2) 0.7594(2)
H14 H 0.13200 0.43500 0.77550
#END
