
#######################################################################
#
#                 Cambridge Crystallographic Data Centre
#                                CCDC
#
#######################################################################
#
# If this CIF has been generated from an entry in the Cambridge
# Structural Database, then it will include bibliographic, chemical,
# crystal, experimental, refinement or atomic coordinate data resulting
# from the CCDC's data processing and validation procedures.
#
#######################################################################

data_CSD_CIF_QQQFGG01
_audit_creation_date 2017-03-26
_audit_creation_method CSD-ConQuest-V1
_database_code_CSD QQQFGG01
_database_code_depnum_ccdc_archive 'CCDC 1491536'
_chemical_formula_sum 'C12 H9 N3 O4'
_chemical_formula_moiety
;
C12 H9 N3 O4
;
_journal_coden_Cambridge 119
_journal_volume 1141
_journal_year 2017
_journal_page_first 53
_journal_name_full 'J.Mol.Struct. '
loop_
_publ_author_name
"J.Hernandez-Paredes"
"R.C.Carrillo-Torres"
"O.Hernandez-Negrete"
"R.R.Sotelo-Mundo"
"D.Glossman-Mitnik"
"H.E.Esparza-Ponce"
"M.E.Alvarez-Ramos"
_chemical_name_systematic
;
2,4-dinitro-N-phenylaniline
;
_cell_volume   1157.165
_exptl_crystal_colour 'red'
_exptl_crystal_density_diffrn 1.488
_exptl_crystal_description 'needle'
_exptl_crystal_preparation 'acetone'
_diffrn_ambient_temperature 300
#These two values have been output from a single CSD field.
_refine_ls_R_factor_gt 0.0393
_refine_ls_wR_factor_gt 0.0393
_symmetry_cell_setting monoclinic
_symmetry_space_group_name_H-M 'P 21/n'
_symmetry_Int_Tables_number 14
loop_
_symmetry_equiv_pos_site_id
_symmetry_equiv_pos_as_xyz
1 x,y,z
2 1/2-x,1/2+y,1/2-z
3 -x,-y,-z
4 -1/2+x,-1/2-y,-1/2+z
_cell_length_a 3.8926(5)
_cell_length_b 11.0416(13)
_cell_length_c 26.923(3)
_cell_angle_alpha 90
_cell_angle_beta 90.004(5)
_cell_angle_gamma 90
_cell_formula_units_Z 4
loop_
_atom_type_symbol
_atom_type_radius_bond
C 0.68
H 0.23
N 0.68
O 0.68
loop_
_atom_site_label
_atom_site_type_symbol
_atom_site_fract_x
_atom_site_fract_y
_atom_site_fract_z
O1 O 1.0319(3) 0.58681(9) 0.03718(4)
O2 O 1.0451(4) 0.76492(9) 0.06775(5)
O3 O 0.5545(5) 0.86660(11) 0.22146(5)
O4 O 0.2819(4) 0.73376(12) 0.26418(4)
N1 N 0.7377(3) 0.40731(9) 0.08544(4)
H1 H 0.825(4) 0.4341(16) 0.0570(7)
N2 N 0.9606(3) 0.65919(10) 0.07025(4)
N3 N 0.4523(4) 0.76356(12) 0.22813(5)
C1 C 0.6440(3) 0.28245(11) 0.08849(5)
C2 C 0.7314(4) 0.21191(13) 0.12888(6)
H2 H 0.84830 0.24560 0.15570
C3 C 0.6435(5) 0.09080(14) 0.12908(7)
H3 H 0.69830 0.04300 0.15640
C4 C 0.4759(5) 0.04035(15) 0.08933(9)
H4 H 0.41710 -0.04130 0.08980
C5 C 0.3948(4) 0.11057(16) 0.04886(7)
H5 H 0.28370 0.07600 0.02180
C6 C 0.4773(4) 0.23195(13) 0.04823(6)
H6 H 0.42110 0.27950 0.02090
C7 C 0.6748(3) 0.49364(11) 0.11954(4)
C8 C 0.7755(3) 0.61696(11) 0.11352(4)
C9 C 0.7043(3) 0.70414(11) 0.14917(5)
H7 H 0.77230 0.78400 0.14440
C10 C 0.5331(3) 0.67145(12) 0.19145(5)
C11 C 0.4279(3) 0.55205(12) 0.19927(5)
H8 H 0.31180 0.53110 0.22820
C12 C 0.4965(3) 0.46665(12) 0.16430(5)
H9 H 0.42410 0.38750 0.16980
#END
