
#######################################################################
#
#                 Cambridge Crystallographic Data Centre
#                                CCDC
#
#######################################################################
#
# If this CIF has been generated from an entry in the Cambridge
# Structural Database, then it will include bibliographic, chemical,
# crystal, experimental, refinement or atomic coordinate data resulting
# from the CCDC's data processing and validation procedures.
#
#######################################################################

data_CSD_CIF_QQQFAD01
_audit_creation_date 2002-09-02
_audit_creation_method CSD-ConQuest-V1
_database_code_CSD QQQFAD01
_database_code_depnum_ccdc_archive 'CCDC 186549'
_chemical_formula_sum 'C4 H9 N1 O5'
_chemical_formula_moiety
;
C4 H9 N1 O5
;
_journal_coden_Cambridge 208
_journal_volume 164
_journal_year 2002
_journal_page_first 301
_journal_name_full 'J.Solid State Chem. '
loop_
_publ_author_name
"N.I.Golovina"
"A.V.Raevskii"
"B.S.Fedorov"
"N.V.Chukanov"
"G.V.Shilov"
"L.S.Leonova"
"V.P.Tarasov"
"L.N.Erofeev"
_chemical_name_systematic
;
tris(Hydroxymethyl)nitromethane
;
_cell_volume    351.052
_exptl_crystal_density_diffrn 1.43
_exptl_special_details
;
room temperature triclinic polymorph
phase transition to cubic plastic phase around 343 K
Coordinates for additional hydrogen atoms are given
;
_exptl_crystal_preparation 'isopropanol/chloroform'
_diffrn_ambient_temperature 293
#These two values have been output from a single CSD field.
_refine_ls_R_factor_gt 0.0638
_refine_ls_wR_factor_gt 0.0638
_symmetry_cell_setting triclinic
_symmetry_space_group_name_H-M 'P 1'
_symmetry_Int_Tables_number 1
loop_
_symmetry_equiv_pos_site_id
_symmetry_equiv_pos_as_xyz
1 x,y,z
_cell_length_a 9.820(2)
_cell_length_b 6.105(1)
_cell_length_c 6.219(1)
_cell_angle_alpha 109.61(3)
_cell_angle_beta 89.84(3)
_cell_angle_gamma 91.67(3)
_cell_formula_units_Z 2
loop_
_atom_type_symbol
_atom_type_radius_bond
C 0.68
H 0.23
N 0.68
O 0.47
loop_
_atom_site_label
_atom_site_type_symbol
_atom_site_fract_x
_atom_site_fract_y
_atom_site_fract_z
C1 C 0.1130(6) 0.7784(9) 0.4518(8)
O1 O 0.3583(5) 0.7377(9) 0.4898(8)
N1 N 0.1129(7) 0.7839(12) 0.2063(9)
O2 O 0.0280(6) 1.1725(8) 0.6065(9)
O3 O -0.0436(6) 0.4412(9) 0.3729(9)
C2 C -0.0244(6) 0.6794(12) 0.4972(11)
C3 C 0.1373(7) 1.0301(11) 0.6121(12)
C4 C 0.2292(7) 0.6243(12) 0.4774(11)
O4 O 0.0091(15) 0.735(3) 0.0987(17)
O5 O 0.2019(13) 0.867(5) 0.140(2)
O6 O 0.4971(5) 0.5520(8) 0.1152(8)
C5 C 0.6225(6) 0.1984(9) -0.0505(8)
O7 O 0.4994(6) -0.1740(8) -0.1326(9)
C6 C 0.7502(6) 0.0788(11) -0.0143(10)
N2 N 0.6204(7) 0.1857(10) -0.3007(9)
C7 C 0.4944(6) 0.0684(11) -0.0110(11)
C8 C 0.6225(7) 0.4511(10) 0.1079(10)
O8 O 0.8701(5) 0.200(1) -0.0431(8)
O9 O 0.6703(11) 0.0251(18) -0.4446(11)
O10 O 0.545(2) 0.306(2) -0.3575(15)
H1 H 0.401(11) 0.687(18) 0.382(19)
H2 H -0.005(10) 1.188(17) 0.693(18)
H3 H -0.058(16) 0.34(3) 0.27(3)
H4 H -0.102(12) 0.73(2) 0.453(19)
H5 H -0.027(6) 0.706(11) 0.667(12)
H6 H 0.218(8) 1.097(14) 0.558(13)
H7 H 0.141(8) 1.036(14) 0.731(15)
H8 H 0.247(10) 0.483(19) 0.356(18)
H9 H 0.206(8) 0.604(14) 0.640(14)
H10 H 0.492(13) 0.59(2) 0.04(3)
H11 H 0.479(19) -0.21(4) -0.10(3)
H12 H 0.768(10) -0.081(18) -0.137(18)
H13 H 0.749(10) 0.084(17) 0.125(17)
H14 H 0.407(9) 0.119(15) -0.063(15)
H15 H 0.485(8) 0.124(14) 0.181(14)
H16 H 0.648(9) 0.466(15) 0.291(15)
H17 H 0.688(9) 0.522(16) 0.034(15)
H18 H 0.901(15) 0.10(3) -0.19(3)
H19? H 0.671(14) 0.37(2) -0.32(2)
H20? H 0.120(8) 0.965(12) 0.156(12)
H21? H 0.546(11) 0.10(2) -0.439(19)
H22? H 0.171(4) 0.603(7) 0.083(7)
H23? H 0.704(7) 0.182(15) -0.412(13)
#END
