
#######################################################################
#
#                 Cambridge Crystallographic Data Centre
#                                CCDC
#
#######################################################################
#
# If this CIF has been generated from an entry in the Cambridge
# Structural Database, then it will include bibliographic, chemical,
# crystal, experimental, refinement or atomic coordinate data resulting
# from the CCDC's data processing and validation procedures.
#
#######################################################################

data_CSD_CIF_QQQFNG03
_audit_creation_date 2007-10-17
_audit_creation_method CSD-ConQuest-V1
_database_code_CSD QQQFNG03
_database_code_depnum_ccdc_archive 'CCDC 633313'
_chemical_formula_sum 'C6 H5 N3 O4'
_chemical_formula_moiety
;
C6 H5 N3 O4
;
_journal_coden_Cambridge 1078
_journal_year 2007
_journal_name_full 'CSD Communication(Private Communication) '
loop_
_publ_author_name
"S.Leela"
"K.Ramamurthi"
"H.Stoeckli-Evans"
_chemical_name_systematic
;
2,4-Dinitroaniline
;
_cell_volume    729.153
_exptl_crystal_colour 'pale yellow'
_exptl_crystal_density_diffrn 1.668
_exptl_special_details
;
contribution from Institut de Microtechnique, Universite de Neuchatel, Rue 
Emile-Argand 11, Batiment G, Case postale 158, CH-2009 Neuchatel, Switzerland
;
_exptl_crystal_description 'rod'
_diffrn_ambient_temperature 173
#These two values have been output from a single CSD field.
_refine_ls_R_factor_gt 0.0386
_refine_ls_wR_factor_gt 0.0386
_symmetry_cell_setting monoclinic
_symmetry_space_group_name_H-M 'P 21/c'
_symmetry_Int_Tables_number 14
loop_
_symmetry_equiv_pos_site_id
_symmetry_equiv_pos_as_xyz
1 x,y,z
2 -x,1/2+y,1/2-z
3 -x,-y,-z
4 x,-1/2-y,-1/2+z
_cell_length_a 7.9970(14)
_cell_length_b 12.8749(17)
_cell_length_c 7.4383(12)
_cell_angle_alpha 90
_cell_angle_beta 107.809(18)
_cell_angle_gamma 90
_cell_formula_units_Z 4
loop_
_atom_type_symbol
_atom_type_radius_bond
C 0.68
H 0.23
N 0.68
O 0.68
loop_
_atom_site_label
_atom_site_type_symbol
_atom_site_fract_x
_atom_site_fract_y
_atom_site_fract_z
O1 O 0.3958(2) 0.83297(14) 0.5361(2)
O2 O 0.36517(19) 0.99283(13) 0.6091(2)
O3 O 1.01205(19) 1.06234(10) 1.3056(2)
O4 O 0.79256(18) 1.14789(9) 1.1251(2)
N1 N 1.0434(2) 0.86168(12) 1.2570(2)
N2 N 0.4428(2) 0.90892(15) 0.6391(3)
N3 N 0.8768(2) 1.06643(11) 1.1709(2)
C1 C 0.8978(2) 0.87695(12) 1.1140(2)
C2 C 0.8177(2) 0.79082(13) 1.0005(3)
C3 C 0.6724(3) 0.80080(14) 0.8514(3)
C4 C 0.5964(2) 0.89881(14) 0.8022(3)
C5 C 0.6647(2) 0.98500(13) 0.9072(3)
C6 C 0.8129(2) 0.97445(11) 1.0623(2)
H1 H 0.86860 0.72390 1.03100
H2 H 0.62140 0.74140 0.77960
H3 H 0.61110 1.05100 0.87410
H4 H 1.10080 0.91420 1.33200
H5 H 1.08660 0.80120 1.27270
#END
