
#######################################################################
#
#                 Cambridge Crystallographic Data Centre
#                                CCDC
#
#######################################################################
#
# If this CIF has been generated from an entry in the Cambridge
# Structural Database, then it will include bibliographic, chemical,
# crystal, experimental, refinement or atomic coordinate data resulting
# from the CCDC's data processing and validation procedures.
#
#######################################################################

data_CSD_CIF_QQQFGG02
_audit_creation_date 2017-03-26
_audit_creation_method CSD-ConQuest-V1
_database_code_CSD QQQFGG02
_database_code_depnum_ccdc_archive 'CCDC 1491537'
_chemical_formula_sum 'C12 H9 N3 O4'
_chemical_formula_moiety
;
C12 H9 N3 O4
;
_journal_coden_Cambridge 119
_journal_volume 1141
_journal_year 2017
_journal_page_first 53
_journal_name_full 'J.Mol.Struct. '
loop_
_publ_author_name
"J.Hernandez-Paredes"
"R.C.Carrillo-Torres"
"O.Hernandez-Negrete"
"R.R.Sotelo-Mundo"
"D.Glossman-Mitnik"
"H.E.Esparza-Ponce"
"M.E.Alvarez-Ramos"
_chemical_name_systematic
;
2,4-dinitro-N-phenylaniline
;
_cell_volume   1113.870
_exptl_crystal_colour 'red'
_exptl_crystal_density_diffrn 1.546
_exptl_crystal_description 'needle'
_exptl_crystal_preparation 'acetone'
_diffrn_ambient_temperature 100
_diffrn_special_details
;
pseudo-merohedral twinning

;
#These two values have been output from a single CSD field.
_refine_ls_R_factor_gt 0.0489
_refine_ls_wR_factor_gt 0.0489
_symmetry_cell_setting monoclinic
_symmetry_space_group_name_H-M 'P 21/n'
_symmetry_Int_Tables_number 14
loop_
_symmetry_equiv_pos_site_id
_symmetry_equiv_pos_as_xyz
1 x,y,z
2 1/2-x,1/2+y,1/2-z
3 -x,-y,-z
4 -1/2+x,-1/2-y,-1/2+z
_cell_length_a 3.7626(2)
_cell_length_b 11.0374(5)
_cell_length_c 26.8216(12)
_cell_angle_alpha 90
_cell_angle_beta 90.273(2)
_cell_angle_gamma 90
_cell_formula_units_Z 4
loop_
_atom_type_symbol
_atom_type_radius_bond
C 0.68
H 0.23
N 0.68
O 0.68
loop_
_atom_site_label
_atom_site_type_symbol
_atom_site_fract_x
_atom_site_fract_y
_atom_site_fract_z
O1 O -0.0338(7) 0.41219(17) 0.46433(7)
N1 N 0.2615(7) 0.5915(2) 0.41488(9)
C1 C 0.3542(8) 0.7171(2) 0.41142(11)
H1 H 0.181(11) 0.569(3) 0.4421(14)
O2 O -0.0359(7) 0.23030(17) 0.43431(8)
N2 N 0.0422(7) 0.3379(2) 0.43111(9)
C2 C 0.2611(8) 0.7868(3) 0.37044(11)
H2 H 0.13890 0.75130 0.34300
O3 O 0.4447(7) 0.12957(18) 0.27864(8)
N3 N 0.5532(7) 0.2334(2) 0.27184(9)
C3 C 0.3482(9) 0.9090(3) 0.36988(13)
H3 H 0.28930 0.95700 0.34160
O4 O 0.7330(7) 0.26382(19) 0.23558(7)
C4 C 0.5199(9) 0.9613(3) 0.41005(12)
H4 H 0.57860 1.04500 0.40940
C5 C 0.6068(9) 0.8918(3) 0.45142(12)
H5 H 0.72310 0.92800 0.47920
C6 C 0.5235(9) 0.7692(3) 0.45217(11)
H6 H 0.58220 0.72130 0.48050
C7 C 0.3257(8) 0.5046(2) 0.38078(11)
C8 C 0.2270(8) 0.3804(2) 0.38726(10)
C9 C 0.2979(8) 0.2929(3) 0.35147(10)
H7 H 0.22900 0.21110 0.35670
C10 C 0.4680(8) 0.3258(2) 0.30859(10)
C11 C 0.5718(8) 0.4462(3) 0.30016(10)
H8 H 0.68900 0.46780 0.27010
C12 C 0.5034(8) 0.5321(2) 0.33539(10)
H9 H 0.57680 0.61310 0.32950
#END
