
#######################################################################
#
#                 Cambridge Crystallographic Data Centre
#                                CCDC
#
#######################################################################
#
# If this CIF has been generated from an entry in the Cambridge
# Structural Database, then it will include bibliographic, chemical,
# crystal, experimental, refinement or atomic coordinate data resulting
# from the CCDC's data processing and validation procedures.
#
#######################################################################

data_CSD_CIF_QQQFNG02
_audit_creation_date 1982-07-05
_audit_creation_method CSD-ConQuest-V1
_database_code_CSD QQQFNG02
_chemical_formula_sum 'C6 H5 N3 O4'
_chemical_formula_moiety
;
C6 H5 N3 O4
;
_journal_coeditor_code "IUCr A20956"
_journal_coden_Cambridge 107
_journal_volume 38
_journal_year 1982
_journal_page_first 674
_journal_name_full 'Acta Crystallogr.,Sect.B:Struct.Crystallogr.Cryst.Chem. '
loop_
_publ_author_name
"L.Prasad"
"E.J.Gabe"
"Y.Le Page"
_chemical_name_systematic
;
2,4-Dinitroaniline
;
_cell_volume    747.337
_exptl_crystal_colour 'pale yellow'
_exptl_crystal_density_diffrn 1.63
_diffrn_ambient_temperature ?
_diffrn_special_details
;
The study was carried out at room temperature,in the range 283-303K

;
#These two values have been output from a single CSD field.
_refine_ls_R_factor_gt 0.053
_refine_ls_wR_factor_gt 0.053
_symmetry_cell_setting monoclinic
_symmetry_space_group_name_H-M 'P 21/c'
_symmetry_Int_Tables_number 14
loop_
_symmetry_equiv_pos_site_id
_symmetry_equiv_pos_as_xyz
1 x,y,z
2 -x,1/2+y,1/2-z
3 -x,-y,-z
4 x,-1/2-y,-1/2+z
_cell_length_a 8.171(1)
_cell_length_b 12.863(1)
_cell_length_c 7.513(2)
_cell_angle_alpha 90
_cell_angle_beta 108.84(1)
_cell_angle_gamma 90
_cell_formula_units_Z 4
loop_
_atom_type_symbol
_atom_type_radius_bond
C 0.68
H 0.23
N 0.68
O 0.68
loop_
_atom_site_label
_atom_site_type_symbol
_atom_site_fract_x
_atom_site_fract_y
_atom_site_fract_z
N1 N 0.53640 0.64100 0.25370
N2 N 0.37750 0.43500 0.16680
N3 N -0.06390 0.58840 -0.36190
C1 C 0.38950 0.62410 0.10900
C2 C 0.30900 0.52710 0.05920
C3 C 0.16170 0.51470 -0.09520
C4 C 0.09270 0.60120 -0.19570
C5 C 0.16470 0.69880 -0.14870
C6 C 0.31160 0.71100 0.00160
O1 O 0.51440 0.44040 0.30290
O2 O 0.29810 0.35308 0.12400
O3 O -0.11180 0.66520 -0.45850
O4 O -0.13260 0.50310 -0.38850
H1 H 0.11100 0.44320 -0.12900
H2 H 0.11900 0.75500 -0.20600
H3 H 0.36800 0.79620 0.04300
H4 H 0.56600 0.58300 0.31000
H5 H 0.60100 0.71600 0.29000
#END
