
#######################################################################
#
#                 Cambridge Crystallographic Data Centre
#                                CCDC
#
#######################################################################
#
# If this CIF has been generated from an entry in the Cambridge
# Structural Database, then it will include bibliographic, chemical,
# crystal, experimental, refinement or atomic coordinate data resulting
# from the CCDC's data processing and validation procedures.
#
#######################################################################

data_CSD_CIF_QUBHEA
_audit_creation_date 2001-09-02
_audit_creation_method CSD-ConQuest-V1
_database_code_CSD QUBHEA
_database_code_depnum_ccdc_archive 'CCDC 140025'
_chemical_formula_sum 'C18 H33 N3 O4'
_chemical_formula_moiety
;
C18 H33 N3 O4
;
_journal_coden_Cambridge 1088
_journal_volume 2000
_journal_year 2000
_journal_page_first 637
_journal_name_full 'Synlett '
loop_
_publ_author_name
"D.Enders"
"P.Teschner"
"G.Raabe"
_chemical_name_systematic
;
(R,S')-3-((R)-1-(Nitromethyl)propyl)-2'-(1-methoxy-1-ethylpropyl)-2-oxo-1,1'-b
ipyrrolidinyl
;
_chemical_name_common
;
(R,R,S')-3-(1-nitromethyl)propyl-2'-(1-methoxy-1-ethyl)propyl-N,N'-bipyrrolidi
nyl-2-one
;
_chemical_melting_point 348.15
_cell_volume   1946.078
_exptl_crystal_colour 'colorless'
_exptl_crystal_density_diffrn 1.213
_exptl_special_details
;
Melting point range 348.15-349.15K
Absolute configuration

;
_exptl_crystal_preparation 'diethyl ether/pentane'
_diffrn_ambient_temperature 150
#These two values have been output from a single CSD field.
_refine_ls_R_factor_gt 0.049
_refine_ls_wR_factor_gt 0.049
_symmetry_cell_setting orthorhombic
_symmetry_space_group_name_H-M 'P 21 21 21'
_symmetry_Int_Tables_number 19
loop_
_symmetry_equiv_pos_site_id
_symmetry_equiv_pos_as_xyz
1 x,y,z
2 1/2-x,-y,1/2+z
3 1/2+x,1/2-y,-z
4 -x,1/2+y,1/2-z
_cell_length_a 8.3263(3)
_cell_length_b 11.029(1)
_cell_length_c 21.192(3)
_cell_angle_alpha 90
_cell_angle_beta 90
_cell_angle_gamma 90
_cell_formula_units_Z 4
loop_
_atom_type_symbol
_atom_type_radius_bond
C 0.68
H 0.23
N 0.68
O 0.68
loop_
_atom_site_label
_atom_site_type_symbol
_atom_site_fract_x
_atom_site_fract_y
_atom_site_fract_z
O1 O 0.5675(3) 0.3565(2) 0.31861(9)
O2 O 0.0560(3) 0.5736(3) 0.1965(2)
O3 O 0.1976(3) 0.4292(2) 0.1571(1)
O4 O 0.1908(2) 0.6074(2) 0.36805(9)
N1 N 0.5374(3) 0.5479(2) 0.3595(1)
N2 N 0.4734(3) 0.5172(2) 0.41834(9)
N3 N 0.1832(3) 0.5200(2) 0.1897(1)
C1 C 0.5744(3) 0.4680(2) 0.3136(1)
C2 C 0.6160(3) 0.5380(3) 0.2543(1)
C3 C 0.6368(4) 0.6697(3) 0.2775(1)
C4 C 0.5507(4) 0.6756(3) 0.3410(1)
C5 C 0.4848(3) 0.5184(3) 0.2036(1)
C6 C 0.3253(4) 0.5703(3) 0.2254(1)
C7 C 0.5312(4) 0.5721(3) 0.1396(1)
C8 C 0.3224(3) 0.4455(2) 0.4168(1)
C9 C 0.3425(4) 0.3539(3) 0.4712(1)
C10 C 0.4830(4) 0.4023(3) 0.5103(1)
C11 C 0.5905(4) 0.4570(3) 0.4603(1)
C12 C 0.6700(5) 0.5060(4) 0.1082(2)
C13 C 0.1713(3) 0.5267(3) 0.4211(1)
C14 C 0.0201(4) 0.4477(4) 0.4129(2)
C15 C 0.0087(5) 0.3749(5) 0.3529(3)
C16 C 0.0659(5) 0.6937(4) 0.3578(2)
C17 C 0.1570(4) 0.5982(3) 0.4834(1)
C18 C 0.2743(5) 0.7001(3) 0.4946(2)
H1 H 0.753(4) 0.688(3) 0.285(1)
H2 H 0.442(4) 0.712(3) 0.338(1)
H3 H 0.607(4) 0.726(3) 0.373(1)
H4 H 0.042(5) 0.637(3) 0.482(2)
H5 H 0.374(3) 0.275(3) 0.451(1)
H6 H 0.310(4) 0.402(3) 0.377(1)
H7 H 0.597(4) 0.727(3) 0.248(2)
H8 H 0.560(5) 0.663(4) 0.149(2)
H9 H 0.289(4) 0.748(3) 0.457(2)
H10 H 0.246(5) 0.750(4) 0.534(2)
H11 H 0.317(4) 0.669(3) 0.220(1)
H12 H -0.111(6) 0.331(4) 0.347(2)
H13 H 0.249(4) 0.342(3) 0.496(1)
H14 H 0.681(6) 0.536(4) 0.071(2)
H15 H 0.535(4) 0.330(3) 0.538(2)
H16 H 0.656(4) 0.393(3) 0.438(1)
H17 H 0.097(6) 0.314(4) 0.350(2)
H18 H 0.295(4) 0.554(3) 0.267(1)
H19 H 0.100(5) 0.732(4) 0.321(2)
H20 H 0.025(6) 0.412(4) 0.318(2)
H21 H 0.659(4) 0.515(3) 0.476(1)
H22 H 0.705(4) 0.508(3) 0.238(1)
H23 H 0.389(7) 0.693(4) 0.501(2)
H24 H -0.059(5) 0.500(4) 0.416(2)
H25 H 0.004(4) 0.381(3) 0.451(2)
H26 H 0.048(5) 0.741(4) 0.392(2)
H27 H 0.471(4) 0.424(3) 0.197(2)
H28 H 0.434(4) 0.571(3) 0.114(2)
H29 H -0.043(5) 0.667(4) 0.348(2)
H30 H 0.158(4) 0.550(3) 0.517(2)
H31 H 0.452(4) 0.460(3) 0.539(2)
H32 H 0.650(8) 0.395(6) 0.101(3)
H33 H 0.773(5) 0.514(4) 0.132(2)
#END
