
#######################################################################
#
#                 Cambridge Crystallographic Data Centre
#                                CCDC
#
#######################################################################
#
# If this CIF has been generated from an entry in the Cambridge
# Structural Database, then it will include bibliographic, chemical,
# crystal, experimental, refinement or atomic coordinate data resulting
# from the CCDC's data processing and validation procedures.
#
#######################################################################

data_CSD_CIF_QUBMAC
_audit_creation_date 2009-11-17
_audit_creation_method CSD-ConQuest-V1
_database_code_CSD QUBMAC
_database_code_depnum_ccdc_archive 'CCDC 746064'
_chemical_formula_sum 'C21 H15 N3 O2'
_chemical_formula_moiety
;
C21 H15 N3 O2
;
_journal_coeditor_code "IUCr GG3195"
_journal_coden_Cambridge 591
_journal_volume 65
_journal_year 2009
_journal_page_first o365
_journal_name_full 'Acta Crystallogr.,Sect.C:Cryst.Struct.Commun. '
loop_
_publ_author_name
"D.Yanover"
"M.Kaftory"
_chemical_name_systematic
;
2-(2-Nitrophenyl)-4,5-diphenyl-1H-imidazole
;
_cell_volume   1752.612
_exptl_crystal_colour 'yellow'
_exptl_crystal_density_diffrn 1.294
_exptl_crystal_description 'plate'
_exptl_crystal_preparation 'ethanol'
_diffrn_ambient_temperature 293
#These two values have been output from a single CSD field.
_refine_ls_R_factor_gt 0.0426
_refine_ls_wR_factor_gt 0.0426
_symmetry_cell_setting monoclinic
_symmetry_space_group_name_H-M 'C c'
_symmetry_Int_Tables_number 9
loop_
_symmetry_equiv_pos_site_id
_symmetry_equiv_pos_as_xyz
1 x,y,z
2 x,-y,1/2+z
3 1/2+x,1/2+y,z
4 1/2+x,1/2-y,1/2+z
_cell_length_a 10.521(2)
_cell_length_b 19.769(4)
_cell_length_c 9.056(2)
_cell_angle_alpha 90
_cell_angle_beta 111.49(3)
_cell_angle_gamma 90
_cell_formula_units_Z 4
loop_
_atom_type_symbol
_atom_type_radius_bond
C 0.68
H 0.23
N 0.68
O 0.68
loop_
_atom_site_label
_atom_site_type_symbol
_atom_site_fract_x
_atom_site_fract_y
_atom_site_fract_z
O1 O 1.0133(4) 0.07649(19) 0.5894(5)
O2 O 1.0818(5) 0.0473(2) 0.4015(5)
N1 N 0.6824(3) 0.01307(16) 0.6075(3)
H1 H 0.68940 -0.01470 0.68320
N2 N 0.7172(3) 0.05953(16) 0.4034(3)
N3 N 1.0259(5) 0.0362(3) 0.4955(5)
C1 C 0.8504(4) -0.0436(2) 0.5167(4)
C2 C 0.8143(5) -0.1106(3) 0.5325(5)
H2 H 0.73000 -0.11900 0.54770
C3 C 0.8998(8) -0.1628(3) 0.5278(7)
H3 H 0.87450 -0.20850 0.53970
C4 C 1.0185(8) -0.1499(4) 0.5053(8)
H4 H 1.07450 -0.18760 0.50090
C5 C 1.0567(6) -0.0851(4) 0.4913(6)
H5 H 1.13940 -0.07530 0.47380
C6 C 0.9739(5) -0.0324(3) 0.4997(5)
C7 C 0.7540(4) 0.0099(2) 0.5090(4)
C8 C 0.5973(4) 0.0680(2) 0.5649(4)
C9 C 0.6182(4) 0.09628(18) 0.4374(4)
C10 C 0.5523(5) 0.1545(2) 0.3382(4)
C11 C 0.6255(5) 0.1963(2) 0.2735(5)
H6 H 0.71880 0.17850 0.30650
C12 C 0.5661(6) 0.2520(3) 0.1820(5)
H7 H 0.61850 0.28040 0.13950
C13 C 0.4324(7) 0.2668(3) 0.1529(6)
H8 H 0.39090 0.30550 0.08970
C14 C 0.3564(6) 0.2266(3) 0.2127(6)
H9 H 0.26180 0.23670 0.18950
C15 C 0.4170(5) 0.1701(3) 0.3060(5)
H10 H 0.36240 0.14310 0.34810
C16 C 0.5125(4) 0.0873(2) 0.6572(4)
C17 C 0.5084(4) 0.1539(2) 0.7027(5)
H11 H 0.55770 0.18800 0.67040
C18 C 0.4345(6) 0.1718(3) 0.7930(6)
H12 H 0.43050 0.21830 0.82190
C19 C 0.3669(6) 0.1234(4) 0.8429(6)
H13 H 0.31590 0.13550 0.90780
C20 C 0.3687(5) 0.0577(3) 0.7994(6)
H14 H 0.31960 0.02420 0.83410
C21 C 0.4417(5) 0.0395(2) 0.7067(5)
H15 H 0.44340 -0.00700 0.67630
#END
