
#######################################################################
#
#                 Cambridge Crystallographic Data Centre
#                                CCDC
#
#######################################################################
#
# If this CIF has been generated from an entry in the Cambridge
# Structural Database, then it will include bibliographic, chemical,
# crystal, experimental, refinement or atomic coordinate data resulting
# from the CCDC's data processing and validation procedures.
#
#######################################################################

data_CSD_CIF_QUBNAD
_audit_creation_date 2009-11-17
_audit_creation_method CSD-ConQuest-V1
_database_code_CSD QUBNAD
_database_code_depnum_ccdc_archive 'CCDC 746069'
_chemical_formula_sum 'C22 H17 N3 O2'
_chemical_formula_moiety
;
C22 H17 N3 O2
;
_journal_coeditor_code "IUCr GG3195"
_journal_coden_Cambridge 591
_journal_volume 65
_journal_year 2009
_journal_page_first o365
_journal_name_full 'Acta Crystallogr.,Sect.C:Cryst.Struct.Commun. '
loop_
_publ_author_name
"D.Yanover"
"M.Kaftory"
_chemical_name_systematic
;
1-Methyl-2-(4-nitrophenyl)-4,5-diphenyl-1H-imidazole
;
_cell_volume   1788.192
_exptl_crystal_colour 'yellow'
_exptl_crystal_density_diffrn 1.32
_exptl_crystal_description 'prism'
_exptl_crystal_preparation 'ethanol'
_diffrn_ambient_temperature 293
#These two values have been output from a single CSD field.
_refine_ls_R_factor_gt 0.0437
_refine_ls_wR_factor_gt 0.0437
_symmetry_cell_setting triclinic
_symmetry_space_group_name_H-M 'P -1'
_symmetry_Int_Tables_number 2
loop_
_symmetry_equiv_pos_site_id
_symmetry_equiv_pos_as_xyz
1 x,y,z
2 -x,-y,-z
_cell_length_a 11.855(2)
_cell_length_b 12.384(2)
_cell_length_c 14.791(3)
_cell_angle_alpha 111.95(3)
_cell_angle_beta 99.56(3)
_cell_angle_gamma 109.63(3)
_cell_formula_units_Z 4
loop_
_atom_type_symbol
_atom_type_radius_bond
C 0.68
H 0.23
N 0.68
O 0.68
loop_
_atom_site_label
_atom_site_type_symbol
_atom_site_fract_x
_atom_site_fract_y
_atom_site_fract_z
O1 O 0.62167(16) 0.94566(16) 0.69731(11)
O2 O 0.59949(15) 1.03422(16) 0.59954(11)
N1 N 0.85884(13) 0.57836(15) 0.34194(11)
N2 N 0.70651(14) 0.57110(15) 0.22603(11)
N3 N 0.62593(14) 0.95609(15) 0.61876(11)
C1 C 0.73778(16) 0.70946(17) 0.40577(13)
C2 C 0.68118(17) 0.78033(18) 0.37790(13)
H1 H 0.66710 0.77270 0.30950
C3 C 0.64459(17) 0.86116(18) 0.44639(13)
H2 H 0.60620 0.91050 0.42820
C4 C 0.66476(16) 0.87126(17) 0.54479(12)
C5 C 0.72008(18) 0.80324(19) 0.57544(13)
H3 H 0.73370 0.81300 0.64440
C6 C 0.75653(19) 0.72307(19) 0.50591(14)
H4 H 0.79550 0.67550 0.52640
C7 C 0.76783(16) 0.62080(17) 0.32623(13)
C8 C 0.85512(16) 0.49840(18) 0.24490(13)
C9 C 0.76005(16) 0.49490(18) 0.17504(13)
C10 C 0.71068(17) 0.42251(18) 0.06087(13)
C11 C 0.71765(19) 0.3076(2) 0.00647(15)
H5 H 0.75710 0.27340 0.04370
C12 C 0.6692(2) 0.2419(2) -0.10071(16)
H6 H 0.67610 0.16320 -0.13700
C13 C 0.6102(2) 0.2886(3) -0.15481(16)
H7 H 0.57660 0.24310 -0.22900
C14 C 0.6006(2) 0.4011(2) -0.10233(15)
H8 H 0.55950 0.43440 -0.13930
C15 C 0.65086(19) 0.4683(2) 0.00475(14)
H9 H 0.64300 0.54650 0.04080
C16 C 0.94456(17) 0.43948(19) 0.22948(14)
C17 C 0.95771(19) 0.3611(2) 0.27347(17)
H10 H 0.91000 0.34790 0.31800
C18 C 1.0370(3) 0.3016(3) 0.2537(2)
H11 H 1.04540 0.24930 0.28630
C19 C 1.1043(3) 0.3195(3) 0.1898(3)
H12 H 1.15540 0.27350 0.17550
C20 C 1.0947(2) 0.3985(3) 0.1463(2)
H13 H 1.14460 0.41200 0.10330
C21 C 1.0151(2) 0.4588(2) 0.16582(17)
H14 H 1.00700 0.51330 0.13550
C22 C 0.95606(18) 0.6224(2) 0.43956(14)
H15 H 0.97860 0.71140 0.48430
H16 H 1.02990 0.61400 0.42600
H17 H 0.92340 0.57080 0.47230
O3 O 0.60201(18) 0.55568(17) 0.60989(12)
O4 O 0.59878(16) 0.44631(16) 0.69425(12)
N4 N 0.68974(13) 0.07110(14) 0.21385(10)
N5 N 0.82065(14) 0.08117(15) 0.34619(10)
N6 N 0.61307(15) 0.46610(17) 0.62150(12)
C23 C 0.70423(16) 0.21269(17) 0.39443(13)
C24 C 0.67065(18) 0.30358(18) 0.37796(14)
H18 H 0.66830 0.30850 0.31450
C25 C 0.64123(18) 0.38684(19) 0.45237(14)
H19 H 0.61690 0.44760 0.43930
C26 C 0.64727(16) 0.37980(18) 0.54354(13)
C27 C 0.68125(17) 0.29272(19) 0.56329(13)
H20 H 0.68560 0.28940 0.62760
C28 C 0.70952(17) 0.21002(18) 0.48863(13)
H21 H 0.73440 0.14980 0.50210
C29 C 0.73725(16) 0.12227(18) 0.31916(12)
C30 C 0.74718(16) -0.00671(17) 0.17279(12)
C31 C 0.82804(16) 0.00061(18) 0.25551(12)
C32 C 0.91252(17) -0.06312(18) 0.25763(13)
C33 C 0.9414(2) -0.1261(2) 0.17135(16)
H22 H 0.90720 -0.12620 0.10770
C34 C 1.0199(2) -0.1873(3) 0.1764(2)
H23 H 1.03900 -0.22940 0.11590
C35 C 1.0707(2) -0.1862(2) 0.2673(2)
H24 H 1.12280 -0.23040 0.27060
C36 C 1.04414(19) -0.1236(2) 0.35344(18)
H25 H 1.08060 -0.12090 0.41770
C37 C 0.96599(17) -0.0632(2) 0.34841(15)
H26 H 0.94900 -0.01940 0.40960
C38 C 0.71506(17) -0.07747(18) 0.05848(13)
C39 C 0.76997(19) -0.0133(2) 0.00666(14)
H27 H 0.83050 0.07600 0.04480
C40 C 0.7374(2) -0.0775(2) -0.09958(15)
H28 H 0.77580 -0.03270 -0.13520
C41 C 0.6497(2) -0.2045(2) -0.15436(15)
H29 H 0.62650 -0.24830 -0.22830
C42 C 0.5952(2) -0.2689(2) -0.10402(15)
H30 H 0.53480 -0.35820 -0.14260
C43 C 0.62762(19) -0.20544(19) 0.00266(14)
H31 H 0.58900 -0.25030 0.03820
C44 C 0.58548(19) 0.0805(2) 0.15301(14)
H32 H 0.53980 0.00240 0.08880
H33 H 0.61960 0.15260 0.13920
H34 H 0.52890 0.09290 0.19120
#END
