
#######################################################################
#
#                 Cambridge Crystallographic Data Centre
#                                CCDC
#
#######################################################################
#
# If this CIF has been generated from an entry in the Cambridge
# Structural Database, then it will include bibliographic, chemical,
# crystal, experimental, refinement or atomic coordinate data resulting
# from the CCDC's data processing and validation procedures.
#
#######################################################################

data_CSD_CIF_QUBQOV
_audit_creation_date 2015-02-06
_audit_creation_method CSD-ConQuest-V1
_database_code_CSD QUBQOV
_database_code_depnum_ccdc_archive 'CCDC 1048048'
_chemical_formula_sum 'C9 H16 N1 O2'
_chemical_formula_moiety
;
C9 H16 N1 O2
;
_journal_coden_Cambridge 1078
_journal_year 2015
_journal_name_full 'CSD Communication(Private Communication) '
loop_
_publ_author_name
"J.W.Bats"
"D.Margraf"
"T.F.Prisner"
_chemical_name_systematic
;
2,2,5,5-Tetramethyl-3-hydroxymethyl-3-pyrroline-1-oxyl
;
_cell_volume    472.106
_exptl_crystal_colour 'yellow'
_exptl_crystal_density_diffrn 1.197
_exptl_crystal_description 'block'
_diffrn_ambient_temperature 167
#These two values have been output from a single CSD field.
_refine_ls_R_factor_gt 0.0571
_refine_ls_wR_factor_gt 0.0571
_symmetry_cell_setting monoclinic
_symmetry_space_group_name_H-M 'P 21'
_symmetry_Int_Tables_number 4
loop_
_symmetry_equiv_pos_site_id
_symmetry_equiv_pos_as_xyz
1 x,y,z
2 -x,1/2+y,-z
_cell_length_a 5.9127(3)
_cell_length_b 10.3751(5)
_cell_length_c 7.9969(4)
_cell_angle_alpha 90
_cell_angle_beta 105.769(2)
_cell_angle_gamma 90
_cell_formula_units_Z 2
loop_
_atom_type_symbol
_atom_type_radius_bond
C 0.68
H 0.23
N 0.68
O 0.68
loop_
_atom_site_label
_atom_site_type_symbol
_atom_site_fract_x
_atom_site_fract_y
_atom_site_fract_z
O1 O 0.1779(5) 0.4236(3) 0.7023(4)
H1 H 0.232(8) 0.420(5) 0.827(7)
O2 O 0.3313(5) 0.4253(3) 0.0630(3)
C1 C 0.3495(6) 0.4128(4) 0.3670(5)
C2 C 0.2379(7) 0.3119(4) 0.4553(5)
C3 C 0.2657(8) 0.1381(4) 0.0954(6)
H2 H 0.41740 0.12300 0.18040
H3 H 0.29160 0.16300 -0.01610
H4 H 0.17170 0.05890 0.08030
C4 C 0.2710(7) 0.3108(4) 0.6475(5)
H5 H 0.19180 0.23420 0.67950
H6 H 0.44070 0.30450 0.70770
C5 C -0.1066(7) 0.2684(4) 0.0346(5)
H7 H -0.18870 0.33560 0.08140
H8 H -0.19780 0.18830 0.02030
H9 H -0.08870 0.29590 -0.07830
N1 N 0.2753(6) 0.3655(3) 0.1850(4)
C6 C 0.1356(7) 0.2455(4) 0.1599(5)
C7 C 0.2523(8) 0.5491(4) 0.3731(5)
H10 H 0.31150 0.60580 0.29640
H11 H 0.30310 0.58190 0.49230
H12 H 0.08030 0.54680 0.33430
C8 C 0.1243(7) 0.2240(4) 0.3447(5)
H13 H 0.04300 0.15380 0.37790
C9 C 0.6165(7) 0.4128(5) 0.4312(6)
H14 H 0.67570 0.32550 0.42220
H15 H 0.66530 0.44090 0.55280
H16 H 0.68060 0.47190 0.36010
#END
