
#######################################################################
#
#                 Cambridge Crystallographic Data Centre
#                                CCDC
#
#######################################################################
#
# If this CIF has been generated from an entry in the Cambridge
# Structural Database, then it will include bibliographic, chemical,
# crystal, experimental, refinement or atomic coordinate data resulting
# from the CCDC's data processing and validation procedures.
#
#######################################################################

data_CSD_CIF_QUBTEN
_audit_creation_date 2009-11-17
_audit_creation_method CSD-ConQuest-V1
_database_code_CSD QUBTEN
_database_code_depnum_ccdc_archive 'CCDC 746100'
_chemical_formula_sum 'C22 H24 N4 O3'
_chemical_formula_moiety
;
C22 H24 N4 O3
;
_journal_coeditor_code "IUCr FA3197"
_journal_coden_Cambridge 591
_journal_volume 65
_journal_year 2009
_journal_page_first o423
_journal_name_full 'Acta Crystallogr.,Sect.C:Cryst.Struct.Commun. '
loop_
_publ_author_name
"J.C.Castillo"
"R.Abonia"
"J.Cobo"
"C.Glidewell"
_chemical_name_systematic
;
rac-3-t-butyl-7-(4-nitrobenzyl)-1-phenyl-1,4,6,7-tetrahydropyrazolo[3,4-d][1,3
]oxazine
;
_chemical_melting_point 408
_cell_volume   1930.299
_exptl_crystal_colour 'colorless'
_exptl_crystal_density_diffrn 1.35
_exptl_special_details
;
Melting point range 408-409K

;
_exptl_crystal_description 'block'
_exptl_crystal_preparation 'ethanol'
_diffrn_ambient_temperature 120
#These two values have been output from a single CSD field.
_refine_ls_R_factor_gt 0.0498
_refine_ls_wR_factor_gt 0.0498
_symmetry_cell_setting monoclinic
_symmetry_space_group_name_H-M 'P 21/c'
_symmetry_Int_Tables_number 14
loop_
_symmetry_equiv_pos_site_id
_symmetry_equiv_pos_as_xyz
1 x,y,z
2 -x,1/2+y,1/2-z
3 -x,-y,-z
4 x,-1/2-y,-1/2+z
_cell_length_a 19.164(2)
_cell_length_b 8.7781(7)
_cell_length_c 11.7188(12)
_cell_angle_alpha 90
_cell_angle_beta 101.717(10)
_cell_angle_gamma 90
_cell_formula_units_Z 4
loop_
_atom_type_symbol
_atom_type_radius_bond
C 0.68
H 0.23
N 0.68
O 0.68
loop_
_atom_site_label
_atom_site_type_symbol
_atom_site_fract_x
_atom_site_fract_y
_atom_site_fract_z
N1 N 0.17204(8) 0.55410(16) 0.23144(12)
N2 N 0.13203(8) 0.44005(16) 0.17103(12)
C1 C 0.17817(10) 0.33411(19) 0.15485(15)
C2 C 0.24844(10) 0.3789(2) 0.20425(15)
C3 C 0.31945(10) 0.3060(2) 0.21820(18)
H1 H 0.32390 0.22390 0.27720
H2 H 0.32490 0.26000 0.14330
O1 O 0.37385(7) 0.41726(14) 0.25414(12)
C4 C 0.35922(11) 0.5099(2) 0.34553(17)
H3 H 0.40170 0.57280 0.37670
H4 H 0.35030 0.44360 0.40940
N3 N 0.29830(8) 0.60942(17) 0.30890(13)
C5 C 0.24188(10) 0.5184(2) 0.25078(15)
C6 C 0.13728(10) 0.67668(19) 0.27440(15)
C7 C 0.16550(11) 0.7367(2) 0.38298(16)
H5 H 0.20850 0.69720 0.42810
C8 C 0.13052(11) 0.8542(2) 0.42479(17)
H6 H 0.15030 0.89840 0.49820
C9 C 0.06747(11) 0.9080(2) 0.36157(18)
H7 H 0.04320 0.98800 0.39190
C10 C 0.03906(11) 0.8468(2) 0.25416(18)
H8 H -0.00490 0.88400 0.21070
C11 C 0.07437(10) 0.7313(2) 0.20947(17)
H9 H 0.05540 0.69000 0.13470
C12 C 0.15406(10) 0.1929(2) 0.08541(16)
C13 C 0.07403(11) 0.1749(2) 0.06623(18)
H10 H 0.05990 0.16400 0.14160
H11 H 0.05940 0.08400 0.01880
H12 H 0.05090 0.26500 0.02580
C14 C 0.17561(12) 0.2072(2) -0.03238(17)
H13 H 0.15260 0.29690 -0.07350
H14 H 0.16060 0.11570 -0.07890
H15 H 0.22750 0.21810 -0.02050
C15 C 0.18954(11) 0.0537(2) 0.14942(17)
H16 H 0.24120 0.06040 0.15590
H17 H 0.17160 -0.03850 0.10610
H18 H 0.17870 0.04930 0.22750
C16 C 0.31303(11) 0.7374(2) 0.23620(16)
H19 H 0.26730 0.78190 0.19550
H20 H 0.33820 0.69850 0.17620
C17 C 0.35735(10) 0.8601(2) 0.30497(16)
C18 C 0.41127(11) 0.9289(2) 0.26129(17)
H21 H 0.42180 0.89380 0.19000
C19 C 0.44993(10) 1.0475(2) 0.31949(17)
H22 H 0.48700 1.09460 0.28930
C20 C 0.4336(1) 1.0959(2) 0.42199(16)
C21 C 0.38145(11) 1.0289(2) 0.46880(17)
H23 H 0.37170 1.06320 0.54090
C22 C 0.34339(11) 0.9108(2) 0.40930(16)
H24 H 0.30690 0.86320 0.44060
N4 N 0.47224(9) 1.22504(18) 0.48294(14)
O2 O 0.52493(8) 1.27042(17) 0.45079(13)
O3 O 0.44975(8) 1.28234(16) 0.56310(13)
#END
