
#######################################################################
#
#                 Cambridge Crystallographic Data Centre
#                                CCDC
#
#######################################################################
#
# If this CIF has been generated from an entry in the Cambridge
# Structural Database, then it will include bibliographic, chemical,
# crystal, experimental, refinement or atomic coordinate data resulting
# from the CCDC's data processing and validation procedures.
#
#######################################################################

data_CSD_CIF_QUBWUH
_audit_creation_date 2015-02-07
_audit_creation_method CSD-ConQuest-V1
_database_code_CSD QUBWUH
_database_code_depnum_ccdc_archive 'CCDC 1046918'
_chemical_formula_sum 'C20 H16 N2 O5'
_chemical_formula_moiety
;
C20 H16 N2 O5
;
_journal_coeditor_code "hb7345"
_journal_coden_Cambridge 1828
_journal_volume 71
_journal_year 2015
_journal_page_first o158
_journal_name_full 'Acta Crystallogr.,Sect.E:Cryst.Commun. '
loop_
_publ_author_name
"J.Govindaraj"
"Y.AaminaNaaz"
"J.Kamalraja"
"P.T.Perumal"
"A.SubbiahPandi"
_chemical_name_systematic
;
2-Methylamino-4-(4-methylphenyl)-3-nitro-4H,5H-pyrano[3,2-c]chromen-5-one
;
_cell_volume   1664.544
_exptl_crystal_colour 'colorless'
_exptl_crystal_density_diffrn 1.454
_exptl_crystal_description 'block'
_exptl_crystal_preparation 'ethanol'
_diffrn_ambient_temperature 293
#These two values have been output from a single CSD field.
_refine_ls_R_factor_gt 0.0498
_refine_ls_wR_factor_gt 0.0498
_symmetry_cell_setting monoclinic
_symmetry_space_group_name_H-M 'P 21/n'
_symmetry_Int_Tables_number 14
loop_
_symmetry_equiv_pos_site_id
_symmetry_equiv_pos_as_xyz
1 x,y,z
2 1/2-x,1/2+y,1/2-z
3 -x,-y,-z
4 -1/2+x,-1/2-y,-1/2+z
_cell_length_a 10.8336(11)
_cell_length_b 11.7927(11)
_cell_length_c 13.7275(14)
_cell_angle_alpha 90
_cell_angle_beta 108.357(2)
_cell_angle_gamma 90
_cell_formula_units_Z 4
loop_
_atom_type_symbol
_atom_type_radius_bond
C 0.68
H 0.23
N 0.68
O 0.68
loop_
_atom_site_label
_atom_site_type_symbol
_atom_site_fract_x
_atom_site_fract_y
_atom_site_fract_z
C1 C 0.39731(17) 0.29273(15) 0.11931(14)
C2 C 0.3614(2) 0.18037(17) 0.11445(17)
H1 H 0.28020 0.15940 0.11810
C3 C 0.4481(2) 0.09986(18) 0.10411(18)
H2 H 0.42560 0.02350 0.10140
C4 C 0.5677(2) 0.13063(17) 0.09769(17)
H3 H 0.62460 0.07510 0.08950
C5 C 0.60377(19) 0.24263(17) 0.10328(15)
H4 H 0.68490 0.26290 0.09900
C6 C 0.51827(16) 0.32599(14) 0.11533(13)
C7 C 0.54773(16) 0.44453(14) 0.13040(13)
C8 C 0.70721(17) 0.58447(15) 0.13873(13)
C9 C 0.9063(2) 0.5072(2) 0.11560(18)
H5 H 0.98500 0.53860 0.10890
H6 H 0.86260 0.46400 0.05530
H7 H 0.92700 0.45870 0.17470
C10 C 0.62572(17) 0.66705(14) 0.15559(13)
C11 C 0.50320(16) 0.64000(14) 0.18012(13)
H8 H 0.43400 0.69180 0.14220
C12 C 0.46442(16) 0.52058(15) 0.14680(13)
C13 C 0.33590(17) 0.48409(16) 0.14373(14)
C14 C 0.52303(15) 0.65125(14) 0.29503(13)
C15 C 0.60210(17) 0.57475(15) 0.36318(14)
H9 H 0.64100 0.51590 0.33840
C16 C 0.62389(18) 0.58497(16) 0.46753(15)
H10 H 0.67730 0.53280 0.51200
C17 C 0.56764(17) 0.67147(16) 0.50698(14)
C18 C 0.5931(2) 0.6825(2) 0.62041(16)
H11 H 0.65150 0.62360 0.65540
H12 H 0.51270 0.67600 0.63540
H13 H 0.63160 0.75520 0.64310
C19 C 0.48681(18) 0.74572(16) 0.43833(15)
H14 H 0.44660 0.80370 0.46300
C20 C 0.46409(17) 0.73612(15) 0.33388(14)
H15 H 0.40870 0.78720 0.28940
N1 N 0.82208(16) 0.59828(15) 0.12756(13)
H16 H 0.84970 0.66660 0.12730
N2 N 0.66129(17) 0.78014(13) 0.15862(12)
O1 O 0.67089(11) 0.47326(10) 0.13148(10)
O2 O 0.30759(12) 0.37082(11) 0.12920(11)
O3 O 0.25155(13) 0.54490(13) 0.15308(14)
O4 O 0.58643(16) 0.85218(12) 0.17480(12)
O5 O 0.76697(15) 0.80934(12) 0.14575(12)
#END
