
#######################################################################
#
#                 Cambridge Crystallographic Data Centre
#                                CCDC
#
#######################################################################
#
# If this CIF has been generated from an entry in the Cambridge
# Structural Database, then it will include bibliographic, chemical,
# crystal, experimental, refinement or atomic coordinate data resulting
# from the CCDC's data processing and validation procedures.
#
#######################################################################

data_CSD_CIF_QUDNOU
_audit_creation_date 2015-06-05
_audit_creation_method CSD-ConQuest-V1
_database_code_CSD QUDNOU
_database_code_depnum_ccdc_archive 'CCDC 966802'
_chemical_formula_sum 'C2 H2 N8 O1'
_chemical_formula_moiety
;
C2 H2 N8 O1
;
_journal_coden_Cambridge 1271
_journal_volume 39
_journal_year 2014
_journal_page_first 550
_journal_name_full 'Propellants,Explos.,Pyrotech. '
loop_
_publ_author_name
"D.Fischer"
"T.M.Klapotke"
"M.Reymann"
"P.C.Schmid"
"J.Stierstorfer"
"M.Suceska"
_chemical_name_systematic
;
1H,2'H-5,5'-Bitetrazol-1-ol
;
_cell_volume   1128.549
_exptl_crystal_colour 'colorless'
_exptl_crystal_density_diffrn 1.814
_exptl_crystal_description 'block'
_diffrn_ambient_temperature 100
#These two values have been output from a single CSD field.
_refine_ls_R_factor_gt 0.0296
_refine_ls_wR_factor_gt 0.0296
_symmetry_cell_setting orthorhombic
_symmetry_space_group_name_H-M 'P b c a'
_symmetry_Int_Tables_number 61
loop_
_symmetry_equiv_pos_site_id
_symmetry_equiv_pos_as_xyz
1 x,y,z
2 1/2-x,-y,1/2+z
3 1/2+x,1/2-y,-z
4 -x,1/2+y,1/2-z
5 -x,-y,-z
6 -1/2+x,y,-1/2-z
7 -1/2-x,-1/2+y,z
8 x,-1/2-y,-1/2+z
_cell_length_a 9.3433(5)
_cell_length_b 9.6067(5)
_cell_length_c 12.5732(6)
_cell_angle_alpha 90
_cell_angle_beta 90
_cell_angle_gamma 90
_cell_formula_units_Z 8
loop_
_atom_type_symbol
_atom_type_radius_bond
C 0.68
H 0.23
N 0.68
O 0.68
loop_
_atom_site_label
_atom_site_type_symbol
_atom_site_fract_x
_atom_site_fract_y
_atom_site_fract_z
O1 O 0.42566(10) -0.13938(9) 0.46049(7)
N1 N 0.32171(11) -0.05030(11) 0.48427(8)
N2 N 0.22873(12) -0.07238(11) 0.56471(8)
N3 N 0.14458(12) 0.03579(11) 0.56733(9)
N4 N 0.18350(12) 0.12467(11) 0.49004(8)
N5 N 0.36659(12) 0.27237(12) 0.33301(9)
N6 N 0.46307(12) 0.28467(11) 0.25626(9)
N7 N 0.52868(12) 0.16815(11) 0.23041(9)
N8 N 0.47331(12) 0.07069(11) 0.29253(8)
C1 C 0.29402(13) 0.07115(13) 0.43815(9)
C2 C 0.37579(13) 0.13666(13) 0.35362(9)
H1 H 0.486(2) 0.372(2) 0.2279(14)
H2 H 0.370(2) -0.265(2) 0.4781(17)
#END
