
#######################################################################
#
#                 Cambridge Crystallographic Data Centre
#                                CCDC
#
#######################################################################
#
# If this CIF has been generated from an entry in the Cambridge
# Structural Database, then it will include bibliographic, chemical,
# crystal, experimental, refinement or atomic coordinate data resulting
# from the CCDC's data processing and validation procedures.
#
#######################################################################

data_CSD_CIF_QUDQAH
_audit_creation_date 2001-09-02
_audit_creation_method CSD-ConQuest-V1
_database_code_CSD QUDQAH
_database_code_depnum_ccdc_archive 'CCDC 165865'
_chemical_formula_sum 'C17 H13 N1 O5'
_chemical_formula_moiety
;
C17 H13 N1 O5
;
_journal_coden_Cambridge 392
_journal_volume 55
_journal_year 2001
_journal_page_first 569
_journal_name_full 'Heterocycles '
loop_
_publ_author_name
"M.Zaidlewicz"
"A.Chechlowska"
"A.Prewysz-Kwinto"
"A.Wojtczak"
_chemical_name_systematic
;
(S)-1-(benzofuran-3-yl)ethyl 4-nitrobenzoate
;
_chemical_name_common
;
(S)-1-benzofuran-3-yl-(4-nitro-benzoyloxy)ethane
;
_chemical_melting_point 354.15
_cell_volume   1544.490
_exptl_crystal_colour 'colorless'
_exptl_crystal_density_diffrn 1.339
_exptl_special_details
;
Melting point range 354.15-356.15K

;
_exptl_crystal_description 'parallelepiped'
_exptl_crystal_preparation 'ethanol'
_diffrn_ambient_temperature 293
#These two values have been output from a single CSD field.
_refine_ls_R_factor_gt 0.0483
_refine_ls_wR_factor_gt 0.0483
_symmetry_cell_setting monoclinic
_symmetry_space_group_name_H-M 'C 2'
_symmetry_Int_Tables_number 5
loop_
_symmetry_equiv_pos_site_id
_symmetry_equiv_pos_as_xyz
1 x,y,z
2 -x,y,-z
3 1/2+x,1/2+y,z
4 1/2-x,1/2+y,-z
_cell_length_a 31.389(6)
_cell_length_b 7.173(1)
_cell_length_c 6.937(1)
_cell_angle_alpha 90
_cell_angle_beta 98.56(3)
_cell_angle_gamma 90
_cell_formula_units_Z 4
loop_
_atom_type_symbol
_atom_type_radius_bond
C 0.68
H 0.23
N 0.68
O 0.68
loop_
_atom_site_label
_atom_site_type_symbol
_atom_site_fract_x
_atom_site_fract_y
_atom_site_fract_z
O1 O -0.19851(7) -0.6220(4) -0.8291(3)
C1 C -0.16940(9) -0.7264(6) -0.7106(4)
H1 H -0.16020 -0.84340 -0.74490
C2 C -0.15529(8) -0.6445(4) -0.5398(4)
C3 C -0.17735(8) -0.4668(4) -0.5471(4)
C4 C -0.17885(12) -0.3142(6) -0.4234(7)
H2 H -0.16220 -0.31020 -0.30080
C5 C -0.20634(17) -0.1682(7) -0.4911(9)
H3 H -0.20810 -0.06550 -0.41080
C6 C -0.23084(14) -0.1703(8) -0.6712(10)
H4 H -0.24870 -0.06930 -0.70960
C7 C -0.22991(11) -0.3148(7) -0.7950(7)
H5 H -0.24640 -0.31560 -0.91810
C8 C -0.20312(8) -0.4618(6) -0.7285(5)
C9 C -0.12462(8) -0.7268(5) -0.3792(4)
H6 H -0.11550 -0.84980 -0.41910
O2 O -0.08703(5) -0.6017(3) -0.3475(3)
C10 C -0.04898(9) -0.6779(5) -0.2888(4)
O3 O -0.04338(8) -0.8425(4) -0.2606(5)
C11 C -0.01336(8) -0.5385(4) -0.2612(4)
C12 C 0.02906(9) -0.6039(5) -0.2251(4)
H7 H 0.03430 -0.73150 -0.22010
C13 C 0.06300(8) -0.4813(5) -0.1968(4)
H8 H 0.09120 -0.52420 -0.17150
C14 C 0.05419(8) -0.2932(4) -0.2069(4)
C15 C 0.01261(9) -0.2223(4) -0.2442(4)
H9 H 0.00760 -0.09450 -0.25130
C16 C -0.02119(8) -0.3486(4) -0.2704(4)
H10 H -0.04940 -0.30530 -0.29430
C17 C -0.14237(11) -0.7446(7) -0.1896(5)
H11 H -0.12100 -0.80030 -0.09320
H12 H -0.16770 -0.82160 -0.20880
H13 H -0.14970 -0.62330 -0.14620
N1 N 0.09037(8) -0.1607(5) -0.1780(4)
O4 O 0.08424(9) -0.0018(5) -0.2338(6)
O5 O 0.12510(7) -0.2157(6) -0.0991(6)
#END
