
#######################################################################
#
#                 Cambridge Crystallographic Data Centre
#                                CCDC
#
#######################################################################
#
# If this CIF has been generated from an entry in the Cambridge
# Structural Database, then it will include bibliographic, chemical,
# crystal, experimental, refinement or atomic coordinate data resulting
# from the CCDC's data processing and validation procedures.
#
#######################################################################

data_CSD_CIF_QUDQEL
_audit_creation_date 2001-09-02
_audit_creation_method CSD-ConQuest-V1
_database_code_CSD QUDQEL
_database_code_depnum_ccdc_archive 'CCDC 165866'
_chemical_formula_sum 'C17 H13 N1 O5'
_chemical_formula_moiety
;
C17 H13 N1 O5
;
_journal_coden_Cambridge 392
_journal_volume 55
_journal_year 2001
_journal_page_first 569
_journal_name_full 'Heterocycles '
loop_
_publ_author_name
"M.Zaidlewicz"
"A.Chechlowska"
"A.Prewysz-Kwinto"
"A.Wojtczak"
_chemical_name_systematic
;
(S)-1-(Benzofuran-2-yl)ethyl 4-nitrobenzoate
;
_chemical_name_common
;
(S)-1-Benzofuran-2-yl-(4-nitro-benzoyloxy)ethane
;
_chemical_melting_point 332.15
_cell_volume   1466.055
_exptl_crystal_colour 'colorless'
_exptl_crystal_density_diffrn 1.41
_exptl_special_details
;
Melting point range 332.15-333.15K

;
_exptl_crystal_description 'parallelepiped'
_exptl_crystal_preparation 'n-hexane'
_diffrn_ambient_temperature 293
#These two values have been output from a single CSD field.
_refine_ls_R_factor_gt 0.0426
_refine_ls_wR_factor_gt 0.0426
_symmetry_cell_setting orthorhombic
_symmetry_space_group_name_H-M 'P 21 21 21'
_symmetry_Int_Tables_number 19
loop_
_symmetry_equiv_pos_site_id
_symmetry_equiv_pos_as_xyz
1 x,y,z
2 1/2-x,-y,1/2+z
3 -x,1/2+y,1/2-z
4 1/2+x,1/2-y,-z
_cell_length_a 5.861(1)
_cell_length_b 8.708(1)
_cell_length_c 28.725(2)
_cell_angle_alpha 90
_cell_angle_beta 90
_cell_angle_gamma 90
_cell_formula_units_Z 4
loop_
_atom_type_symbol
_atom_type_radius_bond
C 0.68
H 0.23
N 0.68
O 0.68
loop_
_atom_site_label
_atom_site_type_symbol
_atom_site_fract_x
_atom_site_fract_y
_atom_site_fract_z
O1 O -0.1314(3) -0.37472(19) -0.18625(5)
C1 C 0.0756(4) -0.4487(2) -0.18879(6)
C2 C 0.1989(4) -0.4256(3) -0.15030(7)
H1 H 0.34410 -0.46400 -0.14430
C3 C 0.0659(4) -0.3310(3) -0.12002(7)
C4 C 0.0930(6) -0.2668(3) -0.07543(8)
H2 H 0.22530 -0.28370 -0.05830
C5 C -0.0811(7) -0.1783(4) -0.05778(8)
H3 H -0.06580 -0.13590 -0.02820
C6 C -0.2782(6) -0.1507(3) -0.08286(9)
H4 H -0.39190 -0.09010 -0.06980
C7 C -0.3108(5) -0.2112(3) -0.12712(9)
H5 H -0.44220 -0.19210 -0.14430
C8 C -0.1359(4) -0.3011(3) -0.14380(7)
C9 C 0.1179(4) -0.5434(3) -0.23123(6)
H6 H -0.00290 -0.62060 -0.23440
C10 C 0.3468(5) -0.6217(3) -0.23008(8)
H7 H 0.36720 -0.68030 -0.25810
H8 H 0.35410 -0.68880 -0.20360
H9 H 0.46500 -0.54580 -0.22780
O2 O 0.1174(3) -0.44246(18) -0.27192(4)
C11 C -0.0460(3) -0.4638(2) -0.30368(6)
O3 O -0.2068(3) -0.5477(2) -0.29908(6)
C12 C -0.0029(3) -0.3687(2) -0.34600(6)
C13 C -0.1690(4) -0.3661(3) -0.38034(7)
H10 H -0.30310 -0.42180 -0.37640
C14 C -0.1359(5) -0.2809(3) -0.42037(7)
H11 H -0.24650 -0.27770 -0.44360
C15 C 0.0652(5) -0.2009(3) -0.42495(6)
C16 C 0.2310(5) -0.2009(3) -0.39169(7)
H12 H 0.36510 -0.14540 -0.39580
C17 C 0.1947(4) -0.2858(3) -0.35163(7)
H13 H 0.30490 -0.28670 -0.32830
N1 N 0.1021(6) -0.1107(3) -0.46790(7)
O4 O -0.0473(6) -0.1078(3) -0.49672(7)
O5 O 0.2834(6) -0.0452(3) -0.47221(7)
#END
