
#######################################################################
#
#                 Cambridge Crystallographic Data Centre
#                                CCDC
#
#######################################################################
#
# If this CIF has been generated from an entry in the Cambridge
# Structural Database, then it will include bibliographic, chemical,
# crystal, experimental, refinement or atomic coordinate data resulting
# from the CCDC's data processing and validation procedures.
#
#######################################################################

data_CSD_CIF_QUFFIG
_audit_creation_date 2001-09-03
_audit_creation_method CSD-ConQuest-V1
_database_code_CSD QUFFIG
_database_code_depnum_ccdc_archive 'CCDC 167189'
_database_code_depnum_ccdc_journal 1145/270
_chemical_formula_sum 'C20 H28 N4 O5'
_chemical_formula_moiety
;
C20 H28 N4 O5
;
_journal_coden_Cambridge 1145
_journal_volume 11
_journal_year 2001
_journal_page_first 756
_journal_name_full 'J.Mater.Chem. '
loop_
_publ_author_name
"S.Hase"
"D.Shiomi"
"K.Sato"
"T.Takui"
_chemical_name_systematic
;
2,4-bis(1-Oxyl-3-oxide-4,4,5,5-tetramethyl-2-imidazolin-2-yl)phenol
;
_cell_volume   2122.768
_exptl_crystal_colour 'blue'
_exptl_crystal_density_diffrn 1.265
_exptl_crystal_description 'parallelepiped'
_diffrn_ambient_temperature 296
_refine_special_details
;
The hydroxy group is disordered over two sites with occupancies 0.75:0.25.

;
#These two values have been output from a single CSD field.
_refine_ls_R_factor_gt 0.0617
_refine_ls_wR_factor_gt 0.0617
_symmetry_cell_setting monoclinic
_symmetry_space_group_name_H-M 'P 21/n'
_symmetry_Int_Tables_number 14
loop_
_symmetry_equiv_pos_site_id
_symmetry_equiv_pos_as_xyz
1 x,y,z
2 1/2+x,1/2-y,1/2+z
3 -x,-y,-z
4 -1/2-x,-1/2+y,-1/2-z
_cell_length_a 11.806(4)
_cell_length_b 25.330(5)
_cell_length_c 7.337(7)
_cell_angle_alpha 90
_cell_angle_beta 104.65(4)
_cell_angle_gamma 90
_cell_formula_units_Z 4
loop_
_atom_type_symbol
_atom_type_radius_bond
C 0.68
H 0.23
N 0.68
O 0.68
loop_
_atom_site_label
_atom_site_type_symbol
_atom_site_fract_x
_atom_site_fract_y
_atom_site_fract_z
O1 O 0.9268(2) -0.1374(1) 0.9379(4)
O2 O 0.6232(2) -0.22014(9) 1.1112(4)
O3 O 0.4642(2) -0.05038(9) 1.1436(3)
O4 O 0.2450(2) -0.0808(1) 0.5361(3)
O5? O 0.4400(7) -0.0444(4) 0.492(1)
O6 O 0.7808(2) -0.1418(1) 0.6201(4)
N1 N 0.8689(2) -0.1699(1) 1.0162(4)
N2 N 0.7262(2) -0.20821(9) 1.1013(4)
N3 N 0.3780(2) -0.05396(8) 0.9980(3)
N4 N 0.2762(2) -0.06541(9) 0.7073(3)
C1 C 0.6020(3) -0.0985(1) 0.5475(4)
C2 C 0.6855(2) -0.1268(1) 0.6747(4)
C3 C 0.6696(2) -0.1384(1) 0.8545(4)
C4 C 0.5695(2) -0.11932(10) 0.9021(3)
C5 C 0.4872(2) -0.0899(1) 0.7755(3)
C6 C 0.5035(2) -0.0794(1) 0.5949(4)
C7 C 0.7535(2) -0.1709(1) 0.9873(4)
C8 C 0.9305(3) -0.2046(1) 1.1754(5)
C9 C 0.8307(3) -0.2411(1) 1.1908(5)
C10 C 1.0365(3) -0.2294(2) 1.1283(6)
C11 C 0.9712(3) -0.1694(2) 1.3505(5)
C12 C 0.8220(4) -0.2895(2) 1.0547(9)
C13 C 0.8259(3) -0.2599(2) 1.3799(7)
C14 C 0.3835(2) -0.06992(10) 0.8252(3)
C15 C 0.2532(2) -0.0465(1) 1.0073(3)
C16 C 0.1946(2) -0.0357(1) 0.7958(4)
C17 C 0.2161(3) -0.0986(1) 1.0783(4)
C18 C 0.2440(3) -0.0020(1) 1.1398(4)
C19 C 0.0722(3) -0.0567(2) 0.7242(5)
C20 C 0.2034(3) 0.0220(1) 0.7406(5)
H1 H 0.56390 -0.12830 1.02850
H2 H 0.60980 -0.08850 0.41830
H3 H 1.08790 -0.20240 1.10930
H4 H 1.07550 -0.25160 1.22880
H5 H 1.01150 -0.24980 1.01640
H6 H 1.01060 -0.19050 1.45430
H7 H 0.90540 -0.15300 1.37800
H8 H 1.02320 -0.14330 1.32620
H9 H 0.88570 -0.31270 1.10170
H10 H 0.75030 -0.30760 1.04660
H11 H 0.82410 -0.27730 0.93320
H12 H 0.89320 -0.28060 1.43330
H13 H 0.75750 -0.28060 1.36980
H14 H 0.82400 -0.23030 1.45940
H15 H 0.84630 -0.13860 0.71020
H16 H 0.22220 -0.12600 0.99340
H17 H 0.26600 -0.10620 1.19930
H18 H 0.13770 -0.09590 1.08760
H19 H 0.29100 -0.00970 1.26230
H20 H 0.16490 0.00230 1.14380
H21 H 0.27100 0.02990 1.09590
H22 H 0.07130 -0.09330 0.75610
H23 H 0.04870 -0.05330 0.59070
H24 H 0.02040 -0.03800 0.77910
H25 H 0.28170 0.03370 0.78760
H26 H 0.18090 0.02510 0.60810
H27 H 0.15280 0.04260 0.79460
#END
