
#######################################################################
#
#                 Cambridge Crystallographic Data Centre
#                                CCDC
#
#######################################################################
#
# If this CIF has been generated from an entry in the Cambridge
# Structural Database, then it will include bibliographic, chemical,
# crystal, experimental, refinement or atomic coordinate data resulting
# from the CCDC's data processing and validation procedures.
#
#######################################################################

data_CSD_CIF_QUFFUS
_audit_creation_date 2001-09-03
_audit_creation_method CSD-ConQuest-V1
_database_code_CSD QUFFUS
_database_code_depnum_ccdc_archive 'CCDC 159810'
_database_code_depnum_ccdc_journal 1145/276
_chemical_formula_sum 'C19 H18 N2 O4'
_chemical_formula_moiety
;
C19 H18 N2 O4
;
_journal_coden_Cambridge 1145
_journal_volume 11
_journal_year 2001
_journal_page_first 996
_journal_name_full 'J.Mater.Chem. '
loop_
_publ_author_name
"A.J.Kay"
"A.D.Woolhouse"
"G.J.Gainsford"
"T.G.Haskell"
"T.H.Barnes"
"I.T.McKinnie"
"C.P.Wyss"
_chemical_name_systematic
;
4-(2-(1-(2,3-Dihydroxypropyl)pyridin-4(1H)-ylidene)ethylidene)-3-phenylisoxazo
l-5(4H)-one
;
_chemical_melting_point 526.15
_cell_volume    796.289
_exptl_crystal_colour 'yellow'
_exptl_crystal_density_diffrn 1.411
_exptl_special_details
;
Melting point range 526.15-528.15K

;
_exptl_crystal_description 'needle'
_exptl_crystal_preparation 'methanol'
_diffrn_ambient_temperature 173
_refine_special_details
;
One hydroxy group is disordered over two sites with occupancies 0.801:0.199.

;
#These two values have been output from a single CSD field.
_refine_ls_R_factor_gt 0.072
_refine_ls_wR_factor_gt 0.072
_symmetry_cell_setting triclinic
_symmetry_space_group_name_H-M 'P -1'
_symmetry_Int_Tables_number 2
loop_
_symmetry_equiv_pos_site_id
_symmetry_equiv_pos_as_xyz
1 x,y,z
2 -x,-y,-z
_cell_length_a 7.761(6)
_cell_length_b 10.257(7)
_cell_length_c 11.119(8)
_cell_angle_alpha 73.408(12)
_cell_angle_beta 80.744(12)
_cell_angle_gamma 70.240(14)
_cell_formula_units_Z 2
loop_
_atom_type_symbol
_atom_type_radius_bond
C 0.68
H 0.23
N 0.68
O 0.68
loop_
_atom_site_label
_atom_site_type_symbol
_atom_site_fract_x
_atom_site_fract_y
_atom_site_fract_z
O1 O 0.2085(7) 0.2363(5) 0.7902(4)
H1 H 0.25140 0.30340 0.75240
O2 O 0.3454(6) 0.4612(4) -0.2735(4)
N1 N 0.3657(7) 0.3302(5) 0.3858(4)
N2 N 0.0242(6) 0.7906(5) -0.3779(4)
C1 C 0.2855(10) 0.1164(7) 0.7267(5)
H2 H 0.21690 0.04610 0.75700
H3 H 0.41650 0.06690 0.74240
C2 C 0.3950(8) 0.2714(6) 0.5213(5)
H4 H 0.37730 0.35060 0.56090
H5 H 0.52250 0.20720 0.53200
C3 C 0.2380(8) 0.4548(6) 0.3437(5)
H6 H 0.17070 0.50880 0.40210
C4 C 0.2007(7) 0.5069(6) 0.2217(5)
H7 H 0.10540 0.59420 0.19660
C5 C 0.3015(7) 0.4333(6) 0.1318(5)
C6 C 0.4329(7) 0.3034(6) 0.1792(5)
H8 H 0.50280 0.24700 0.12310
C7 C 0.4634(8) 0.2555(6) 0.3031(5)
H9 H 0.55570 0.16730 0.33170
C8 C 0.2735(7) 0.4834(6) 0.0003(5)
H10 H 0.34150 0.42030 -0.05090
C9 C 0.1627(7) 0.6085(6) -0.0581(5)
H11 H 0.09720 0.67260 -0.00740
C10 C 0.1318(7) 0.6566(6) -0.1884(5)
C11 C 0.2266(9) 0.5758(7) -0.2776(5)
O3 O 0.1555(6) 0.6589(4) -0.3919(3)
C12 C 0.0149(8) 0.7865(6) -0.2576(5)
C13 C -0.1056(7) 0.9160(6) -0.2187(5)
C14 C -0.1378(8) 1.0456(6) -0.3038(5)
H12 H -0.08680 1.05090 -0.38800
C15 C -0.2426(8) 1.1680(6) -0.2694(6)
H13 H -0.26370 1.25730 -0.33000
C16 C -0.3170(8) 1.1635(7) -0.1494(6)
H14 H -0.38620 1.24910 -0.12510
C17 C -0.2904(9) 1.0327(7) -0.0638(5)
H15 H -0.34540 1.02810 0.01940
C18 C -0.1848(8) 0.9080(6) -0.0970(5)
H16 H -0.16680 0.81810 -0.03740
C19 C 0.2624(11) 0.1893(7) 0.5858(5)
H17 H 0.13440 0.25610 0.57600
O4 O 0.2808(7) 0.0728(5) 0.5351(5)
H18 H 0.22380 0.10270 0.46950
O5? O 0.101(2) 0.270(2) 0.5684(14)
H19? H 0.05680 0.24610 0.51720
#END
