
#######################################################################
#
#                 Cambridge Crystallographic Data Centre
#                                CCDC
#
#######################################################################
#
# If this CIF has been generated from an entry in the Cambridge
# Structural Database, then it will include bibliographic, chemical,
# crystal, experimental, refinement or atomic coordinate data resulting
# from the CCDC's data processing and validation procedures.
#
#######################################################################

data_CSD_CIF_QUFKAF
_audit_creation_date 2015-06-05
_audit_creation_method CSD-ConQuest-V1
_database_code_CSD QUFKAF
_database_code_depnum_ccdc_archive 'CCDC 1033099'
_chemical_formula_sum 'C16 H19 N1 O3'
_chemical_formula_moiety
;
C16 H19 N1 O3
;
_journal_coden_Cambridge 177
_journal_volume 13
_journal_year 2015
_journal_page_first 7076
_journal_name_full 'Org.Biomol.Chem. '
loop_
_publ_author_name
"U.Nath"
"A.Banerjee"
"Bidhan Ghosh"
"Subhas Chandra Pan"
_chemical_name_systematic
;
4-Nitro-3-phenyloctahydronaphthalen-1(2H)-one
;
_cell_volume   1454.599
_exptl_crystal_colour 'colorless'
_exptl_crystal_density_diffrn 1.248
_exptl_crystal_description 'block'
_diffrn_ambient_temperature 296
#These two values have been output from a single CSD field.
_refine_ls_R_factor_gt 0.0901
_refine_ls_wR_factor_gt 0.0901
_symmetry_cell_setting monoclinic
_symmetry_space_group_name_H-M 'P 21/c'
_symmetry_Int_Tables_number 14
loop_
_symmetry_equiv_pos_site_id
_symmetry_equiv_pos_as_xyz
1 x,y,z
2 -x,1/2+y,1/2-z
3 -x,-y,-z
4 x,-1/2-y,-1/2+z
_cell_length_a 13.9327(12)
_cell_length_b 5.8545(5)
_cell_length_c 18.9127(15)
_cell_angle_alpha 90
_cell_angle_beta 109.456(5)
_cell_angle_gamma 90
_cell_formula_units_Z 4
loop_
_atom_type_symbol
_atom_type_radius_bond
C 0.68
H 0.23
N 0.68
O 0.68
loop_
_atom_site_label
_atom_site_type_symbol
_atom_site_fract_x
_atom_site_fract_y
_atom_site_fract_z
C1 C 0.2735(4) 0.3940(9) 0.0365(3)
H1 H 0.30850 0.24620 0.04600
C2 C 0.2240(4) 0.4251(9) 0.0941(3)
H2 H 0.18880 0.57250 0.08390
C3 C 0.1412(3) 0.2395(9) 0.0829(3)
H3 H 0.17330 0.09130 0.09580
H4 H 0.10250 0.26990 0.11610
C4 C 0.2023(3) 0.3928(9) -0.0448(3)
H5 H 0.16790 0.54130 -0.05290
C5 C 0.1179(3) 0.2134(9) -0.0549(3)
H6 H 0.15150 0.06400 -0.04740
C6 C 0.0437(4) 0.2156(12) -0.1353(3)
H7 H -0.00280 0.08780 -0.14180
H8 H 0.00370 0.35480 -0.14310
C7 C 0.0708(4) 0.2354(10) 0.0036(3)
C8 C 0.1752(4) 0.3797(11) -0.1820(3)
H9 H 0.14460 0.53000 -0.19320
H10 H 0.21160 0.34900 -0.21670
C9 C 0.2501(4) 0.3752(12) -0.1010(3)
H11 H 0.28860 0.23390 -0.09330
H12 H 0.29780 0.50040 -0.09460
C10 C 0.0926(4) 0.2019(12) -0.1920(3)
H13 H 0.04140 0.22100 -0.24100
H14 H 0.12210 0.05110 -0.19030
C11 C 0.2955(3) 0.4328(9) 0.1743(2)
C12 C 0.3634(4) 0.2609(9) 0.2055(3)
H15 H 0.36710 0.13560 0.17630
C13 C 0.2925(4) 0.6180(9) 0.2196(3)
H16 H 0.24690 0.73680 0.20040
C14 C 0.4258(4) 0.2704(11) 0.2788(3)
H17 H 0.47080 0.15130 0.29870
C15 C 0.3581(5) 0.6262(11) 0.2943(3)
H18 H 0.35730 0.75150 0.32430
C16 C 0.4225(4) 0.4500(12) 0.3222(3)
H19 H 0.46500 0.45330 0.37190
O1 O -0.0249(3) 0.2496(7) -0.0109(2)
O2 O 0.4396(3) 0.5124(9) 0.0574(2)
O3 O 0.3274(4) 0.7760(9) 0.0410(2)
N1 N 0.3541(4) 0.5767(11) 0.0453(2)
#END
