
#######################################################################
#
#                 Cambridge Crystallographic Data Centre
#                                CCDC
#
#######################################################################
#
# If this CIF has been generated from an entry in the Cambridge
# Structural Database, then it will include bibliographic, chemical,
# crystal, experimental, refinement or atomic coordinate data resulting
# from the CCDC's data processing and validation procedures.
#
#######################################################################

data_CSD_CIF_QUFPOY
_audit_creation_date 2015-06-06
_audit_creation_method CSD-ConQuest-V1
_database_code_CSD QUFPOY
_database_code_depnum_ccdc_archive 'CCDC 1057560'
_chemical_formula_sum 'C6 H2 N4 O5'
_chemical_formula_moiety
;
C6 H2 N4 O5
;
_journal_coden_Cambridge 1291
_journal_year 2015
_journal_page_first 4311
_journal_name_full 'Eur.J.Org.Chem. '
loop_
_publ_author_name
"T.M.Klapotke"
"A.Preimesser"
"J.Stierstorfer"
_chemical_name_systematic
;
4-diazonio-2,6-dinitrophenolate
;
_chemical_name_common
;
4-diazo-2,6-dinitrophenolate
;
_cell_volume   1530.379
_exptl_crystal_colour 'colorless'
_exptl_crystal_density_diffrn 1.824
_exptl_crystal_description 'needle'
_diffrn_ambient_temperature 173
#These two values have been output from a single CSD field.
_refine_ls_R_factor_gt 0.0571
_refine_ls_wR_factor_gt 0.0571
_symmetry_cell_setting orthorhombic
_symmetry_space_group_name_H-M 'P 21 21 21'
_symmetry_Int_Tables_number 19
loop_
_symmetry_equiv_pos_site_id
_symmetry_equiv_pos_as_xyz
1 x,y,z
2 1/2-x,-y,1/2+z
3 1/2+x,1/2-y,-z
4 -x,1/2+y,1/2-z
_cell_length_a 7.7319(7)
_cell_length_b 12.8856(10)
_cell_length_c 15.3606(12)
_cell_angle_alpha 90
_cell_angle_beta 90
_cell_angle_gamma 90
_cell_formula_units_Z 8
loop_
_atom_type_symbol
_atom_type_radius_bond
C 0.68
H 0.23
N 0.68
O 0.68
loop_
_atom_site_label
_atom_site_type_symbol
_atom_site_fract_x
_atom_site_fract_y
_atom_site_fract_z
O1 O 0.9192(6) 0.5705(3) 0.2814(2)
O2 O 0.7692(6) 0.6471(3) 0.1392(3)
O3 O 0.6537(5) 0.5349(3) 0.0523(3)
O4 O 1.1740(6) 0.4655(4) 0.3799(3)
O5 O 1.0233(7) 0.3295(3) 0.4097(3)
N1 N 0.7520(6) 0.5585(4) 0.1110(3)
N2 N 0.9845(6) 0.2168(4) 0.0911(3)
N3 N 1.0042(7) 0.1471(4) 0.0504(3)
N4 N 1.0720(7) 0.3961(4) 0.3600(3)
C1 C 0.9268(7) 0.4899(4) 0.2383(3)
C2 C 0.8520(7) 0.4751(4) 0.1513(3)
C3 C 0.8710(7) 0.3877(4) 0.1035(4)
C4 C 0.9584(7) 0.3035(4) 0.1410(3)
C5 C 1.0221(7) 0.3052(4) 0.2266(3)
C6 C 1.0040(8) 0.3944(4) 0.2707(3)
H1 H 1.079(8) 0.243(5) 0.249(4)
H2 H 0.814(6) 0.389(4) 0.046(4)
O6 O 0.4591(5) 0.3954(3) 0.2284(2)
O7 O 0.6127(5) 0.1836(3) 0.0764(2)
O8 O 0.3562(6) 0.2418(3) 0.1064(2)
O9 O 0.4947(6) 0.3956(3) 0.4829(3)
O10 O 0.5996(7) 0.4889(3) 0.3779(3)
N5 N 0.5011(7) 0.2146(3) 0.1283(3)
N6 N 0.7045(6) 0.0477(4) 0.3884(3)
N7 N 0.7401(7) -0.0244(4) 0.4226(3)
N8 N 0.5536(6) 0.4068(4) 0.4095(3)
C7 C 0.5204(7) 0.3187(4) 0.2647(3)
C8 C 0.5495(7) 0.2191(4) 0.2205(3)
C9 C 0.6154(7) 0.1328(4) 0.2576(3)
C10 C 0.6553(7) 0.1372(4) 0.3474(3)
C11 C 0.6317(7) 0.2280(4) 0.3964(4)
C12 C 0.5721(7) 0.3133(4) 0.3559(3)
H3 H 0.641(6) 0.071(3) 0.224(3)
H4 H 0.666(7) 0.225(4) 0.455(4)
#END
