
#######################################################################
#
#                 Cambridge Crystallographic Data Centre
#                                CCDC
#
#######################################################################
#
# If this CIF has been generated from an entry in the Cambridge
# Structural Database, then it will include bibliographic, chemical,
# crystal, experimental, refinement or atomic coordinate data resulting
# from the CCDC's data processing and validation procedures.
#
#######################################################################

data_CSD_CIF_QUFPEO
_audit_creation_date 2015-06-06
_audit_creation_method CSD-ConQuest-V1
_database_code_CSD QUFPEO
_database_code_depnum_ccdc_archive 'CCDC 1057559'
_chemical_formula_sum 'C6 H4 N4 O7'
_chemical_formula_moiety
;
C6 H4 N4 O7
;
_journal_coden_Cambridge 1291
_journal_year 2015
_journal_page_first 4311
_journal_name_full 'Eur.J.Org.Chem. '
loop_
_publ_author_name
"T.M.Klapotke"
"A.Preimesser"
"J.Stierstorfer"
_chemical_name_systematic
;
4-amino-2,3,6-trinitrophenol
;
_cell_volume   1763.452
_exptl_crystal_colour 'orange'
_exptl_crystal_density_diffrn 1.839
_exptl_crystal_description 'needle'
_diffrn_ambient_temperature 173
#These two values have been output from a single CSD field.
_refine_ls_R_factor_gt 0.0371
_refine_ls_wR_factor_gt 0.0371
_symmetry_cell_setting orthorhombic
_symmetry_space_group_name_H-M 'P b c a'
_symmetry_Int_Tables_number 61
loop_
_symmetry_equiv_pos_site_id
_symmetry_equiv_pos_as_xyz
1 x,y,z
2 1/2-x,-y,1/2+z
3 1/2+x,1/2-y,-z
4 -x,1/2+y,1/2-z
5 -x,-y,-z
6 -1/2+x,y,-1/2-z
7 -1/2-x,-1/2+y,z
8 x,-1/2-y,-1/2+z
_cell_length_a 12.554(1)
_cell_length_b 10.3306(8)
_cell_length_c 13.5974(9)
_cell_angle_alpha 90
_cell_angle_beta 90
_cell_angle_gamma 90
_cell_formula_units_Z 8
loop_
_atom_type_symbol
_atom_type_radius_bond
C 0.68
H 0.23
N 0.68
O 0.68
loop_
_atom_site_label
_atom_site_type_symbol
_atom_site_fract_x
_atom_site_fract_y
_atom_site_fract_z
O1 O 0.50613(11) 0.28950(13) 0.16623(9)
O2 O 0.72839(10) -0.14748(12) -0.02033(10)
O3 O 0.69187(12) 0.16332(12) 0.24674(10)
O4 O 0.58173(11) 0.00221(15) 0.24113(10)
N1 N 0.71387(12) -0.06607(13) 0.04449(11)
O5 O 0.75194(11) -0.07531(13) 0.12694(10)
C1 C 0.54049(13) 0.22497(16) 0.08614(12)
N2 N 0.62999(12) 0.09183(14) 0.20397(11)
O6 O 0.41395(13) 0.37366(14) -0.12036(10)
O7 O 0.40280(11) 0.42159(12) 0.03366(9)
C2 C 0.62135(14) 0.07585(16) -0.07584(12)
N3 N 0.43827(12) 0.35559(14) -0.03540(11)
N4 N 0.65696(15) 0.01299(19) -0.15657(13)
C3 C 0.55184(13) 0.18148(16) -0.08928(13)
H1 H 0.5315(4) 0.2048(5) -0.1539(13)
C4 C 0.64684(13) 0.04444(15) 0.02243(13)
C5 C 0.60755(13) 0.12108(15) 0.09999(12)
C6 C 0.51305(13) 0.25106(16) -0.01212(12)
H2 H 0.6959(18) -0.058(2) -0.1493(16)
H3 H 0.6398(17) 0.045(2) -0.2151(17)
H4 H 0.4625(19) 0.345(2) 0.1461(18)
#END
