
#######################################################################
#
#                 Cambridge Crystallographic Data Centre
#                                CCDC
#
#######################################################################
#
# If this CIF has been generated from an entry in the Cambridge
# Structural Database, then it will include bibliographic, chemical,
# crystal, experimental, refinement or atomic coordinate data resulting
# from the CCDC's data processing and validation procedures.
#
#######################################################################

data_CSD_CIF_QUFTIW
_audit_creation_date 2015-06-06
_audit_creation_method CSD-ConQuest-V1
_database_code_CSD QUFTIW
_database_code_depnum_ccdc_archive 'CCDC 1404417'
_chemical_formula_sum 'C16 H12 N2 O7'
_chemical_formula_moiety
;
C16 H12 N2 O7
;
_journal_coeditor_code "lh5768"
_journal_coden_Cambridge 1828
_journal_volume 71
_journal_year 2015
_journal_page_first o451
_journal_name_full 'Acta Crystallogr.,Sect.E:Cryst.Commun. '
loop_
_publ_author_name
"R.Moreno-Fuquen"
"A.Azcarate"
"A.R.Kennedy"
_chemical_name_systematic
;
2-methyl-3-nitrobenzoic anhydride
;
_chemical_melting_point 428
_cell_volume   1475.947
_exptl_crystal_colour 'colorless'
_exptl_crystal_density_diffrn 1.549
_exptl_crystal_description 'block'
_diffrn_ambient_temperature 123
#These two values have been output from a single CSD field.
_refine_ls_R_factor_gt 0.0592
_refine_ls_wR_factor_gt 0.0592
_symmetry_cell_setting monoclinic
_symmetry_space_group_name_H-M 'C 2/c'
_symmetry_Int_Tables_number 15
loop_
_symmetry_equiv_pos_site_id
_symmetry_equiv_pos_as_xyz
1 x,y,z
2 -x,y,1/2-z
3 1/2+x,1/2+y,z
4 1/2-x,1/2+y,1/2-z
5 -x,-y,-z
6 x,-y,-1/2+z
7 -1/2-x,-1/2-y,-z
8 -1/2+x,-1/2-y,-1/2+z
_cell_length_a 10.6332(5)
_cell_length_b 11.6961(4)
_cell_length_c 12.7934(6)
_cell_angle_alpha 90
_cell_angle_beta 111.930(6)
_cell_angle_gamma 90
_cell_formula_units_Z 4
loop_
_atom_type_symbol
_atom_type_radius_bond
C 0.68
H 0.23
N 0.68
O 0.68
loop_
_atom_site_label
_atom_site_type_symbol
_atom_site_fract_x
_atom_site_fract_y
_atom_site_fract_z
O1 O -0.22053(15) 0.30472(11) 0.21092(12)
O2 O -0.15352(15) 0.13946(12) 0.17543(12)
O3 O 0.03327(14) 0.37124(12) 0.65687(11)
O4 O 0.00000 0.21684(16) 0.75000
N1 N -0.17462(15) 0.20860(13) 0.23928(13)
C1 C -0.08126(16) 0.24457(15) 0.44518(15)
C2 C -0.14895(17) 0.17107(15) 0.35513(15)
C3 C -0.19730(18) 0.06382(15) 0.36540(16)
H1 H -0.23930 0.01720 0.30090
C4 C -0.18356(18) 0.02561(16) 0.47094(16)
H2 H -0.21500 -0.04820 0.48040
C5 C -0.12307(18) 0.09647(16) 0.56351(15)
H3 H -0.11640 0.07160 0.63610
C6 C -0.07208(17) 0.20339(14) 0.55154(15)
C7 C -0.0176(2) 0.35437(16) 0.42891(16)
H4 H -0.00920 0.35360 0.35520
H5 H 0.07240 0.36230 0.48830
H6 H -0.07470 0.41890 0.43260
C8 C -0.00896(18) 0.27684(16) 0.65334(15)
O1A O 0.22053(15) 0.30472(11) 1.28908(12)
O2A O 0.15352(15) 0.13946(12) 1.32457(12)
O3A O -0.03327(14) 0.37124(12) 0.84313(11)
N1A N 0.17462(15) 0.20860(13) 1.26072(13)
C1A C 0.08126(16) 0.24457(15) 1.05482(15)
C2A C 0.14895(17) 0.17107(15) 1.14487(15)
C3A C 0.19730(18) 0.06382(15) 1.13460(16)
H1A H 0.23930 0.01720 1.19910
C4A C 0.18356(18) 0.02561(16) 1.02906(16)
H2A H 0.21500 -0.04820 1.01960
C5A C 0.12307(18) 0.09647(16) 0.93649(15)
H3A H 0.11640 0.07160 0.86390
C6A C 0.07208(17) 0.20339(14) 0.94846(15)
C7A C 0.0176(2) 0.35437(16) 1.07109(16)
H4A H 0.00920 0.35360 1.14480
H5A H -0.07240 0.36230 1.01170
H6A H 0.07470 0.41890 1.06740
C8A C 0.00896(18) 0.27684(16) 0.84666(15)
#END
