
#######################################################################
#
#                 Cambridge Crystallographic Data Centre
#                                CCDC
#
#######################################################################
#
# If this CIF has been generated from an entry in the Cambridge
# Structural Database, then it will include bibliographic, chemical,
# crystal, experimental, refinement or atomic coordinate data resulting
# from the CCDC's data processing and validation procedures.
#
#######################################################################

data_CSD_CIF_QUINOX
_audit_creation_date 1975-05-16
_audit_creation_method CSD-ConQuest-V1
_database_code_CSD QUINOX
_database_code_depnum_ccdc_archive 'CCDC 1245620'
_chemical_formula_sum 'C6 H5 N1 O2'
_chemical_formula_moiety
;
C6 H5 N1 O2
;
_journal_coden_Cambridge 3
_journal_volume 28
_journal_year 1974
_journal_page_first 910
_journal_name_full 'Acta Chem.Scand. '
loop_
_publ_author_name
"H.J.Talberg"
_chemical_name_systematic
;
p-Benzoquinone 4-oxime
;
_cell_volume   1185.211
_exptl_crystal_density_diffrn 1.38
_exptl_special_details
;
LENGTHS OF A AND C AXES HAVE BEEN INTERCHANGED IN PAPER, SO A SHOULD BE 6.671 
AND C 7.209
;
_diffrn_ambient_temperature ?
_diffrn_special_details
;
The study was carried out at room temperature,in the range 283-303K

;
#These two values have been output from a single CSD field.
_refine_ls_R_factor_gt 0.047
_refine_ls_wR_factor_gt 0.047
_symmetry_cell_setting monoclinic
_symmetry_space_group_name_H-M 'P 21/c'
_symmetry_Int_Tables_number 14
loop_
_symmetry_equiv_pos_site_id
_symmetry_equiv_pos_as_xyz
1 x,y,z
2 -x,1/2+y,1/2-z
3 -x,-y,-z
4 x,-1/2-y,-1/2+z
_cell_length_a 6.671(3)
_cell_length_b 28.14(1)
_cell_length_c 7.209(3)
_cell_angle_alpha 90
_cell_angle_beta 118.86(3)
_cell_angle_gamma 90
_cell_formula_units_Z 8
loop_
_atom_type_symbol
_atom_type_radius_bond
C 0.68
H 0.20
N 0.68
O 0.68
loop_
_atom_site_label
_atom_site_type_symbol
_atom_site_fract_x
_atom_site_fract_y
_atom_site_fract_z
C1 C 0.49883 0.09414 0.24594
C2 C 0.47018 0.04269 0.25472
C3 C 0.62275 0.01233 0.25468
C4 C 0.82401 0.02917 0.24958
C5 C 0.86005 0.08003 0.25286
C6 C 0.70876 0.11070 0.25350
H1 H 0.33620 0.03260 0.25670
H2 H 0.59960 -0.01910 0.25270
H3 H 0.99110 0.09090 0.25310
H4 H 0.72420 0.14460 0.24190
H5 H 1.07290 -0.05950 0.24540
N1 N 0.98096 0.00311 0.24160
O1 O 0.34866 0.12195 0.23468
O2 O 0.93700 -0.04462 0.23582
C7 C -0.35123 0.37461 0.25279
C8 C -0.57331 0.35650 0.21389
C9 C -0.61385 0.31006 0.21485
C10 C -0.43516 0.27620 0.25724
C11 C -0.21326 0.29356 0.30182
C12 C -0.17300 0.33983 0.30151
H6 H -0.68630 0.37970 0.18260
H7 H -0.76250 0.29720 0.18490
H8 H -0.09990 0.27110 0.32800
H9 H -0.02630 0.35200 0.33280
H10 H -0.65880 0.17960 0.20450
N2 N -0.45223 0.22982 0.25803
O3 O -0.31875 0.41747 0.24385
O4 O -0.66576 0.21535 0.21341
#END
