
#######################################################################
#
#                 Cambridge Crystallographic Data Centre
#                                CCDC
#
#######################################################################
#
# If this CIF has been generated from an entry in the Cambridge
# Structural Database, then it will include bibliographic, chemical,
# crystal, experimental, refinement or atomic coordinate data resulting
# from the CCDC's data processing and validation procedures.
#
#######################################################################

data_CSD_CIF_QUISAL
_audit_creation_date 1976-08-18
_audit_creation_method CSD-ConQuest-V1
_database_code_CSD QUISAL
_chemical_formula_sum 'C5 H7 N3 O5'
_chemical_formula_moiety
;
C5 H7 N3 O5
;
_journal_coeditor_code "IUCr A13241"
_journal_coden_Cambridge 107
_journal_volume 32
_journal_year 1976
_journal_page_first 951
_journal_name_full 'Acta Crystallogr.,Sect.B:Struct.Crystallogr.Cryst.Chem. '
loop_
_publ_author_name
"J.L.Flippen"
"R.D.Gilardi"
_chemical_name_systematic
;
Quisqualic acid
;
_cell_volume    379.848
_exptl_crystal_density_diffrn 1.653
_exptl_special_details
;
N6-H7 GIVEN AS 0.84 CALCULATES AT 1.07

;
_diffrn_ambient_temperature ?
_diffrn_special_details
;
The study was carried out at room temperature,in the range 283-303K

;
_symmetry_cell_setting monoclinic
_symmetry_space_group_name_H-M 'P 21'
_symmetry_Int_Tables_number 4
loop_
_symmetry_equiv_pos_site_id
_symmetry_equiv_pos_as_xyz
1 x,y,z
2 -x,1/2+y,-z
_cell_length_a 9.804(6)
_cell_length_b 6.967(6)
_cell_length_c 5.582(5)
_cell_angle_alpha 90
_cell_angle_beta 94.96(10)
_cell_angle_gamma 90
_cell_formula_units_Z 2
loop_
_atom_type_symbol
_atom_type_radius_bond
C 0.68
H 0.23
N 0.68
O 0.68
loop_
_atom_site_label
_atom_site_type_symbol
_atom_site_fract_x
_atom_site_fract_y
_atom_site_fract_z
C1 C 0.38700 0.19270 -0.40630
C2 C 0.39420 0.25120 -0.66430
C3 C 0.29160 0.41200 -0.73200
C4 C 0.06070 0.45540 -0.58720
C5 C -0.05080 0.34520 -0.92720
H1 H 0.49100 0.28200 -0.67500
H2 H 0.28600 0.05000 -0.81300
H3 H 0.44400 -0.00500 -0.78200
H4 H 0.37300 0.10300 -0.98300
H5 H 0.29100 0.53300 -0.62600
H6 H 0.25800 0.45100 -0.95500
H7 H -0.14300 0.47000 -0.61000
N1 N 0.36480 0.08140 -0.82420
N2 N 0.15140 0.34650 -0.70650
N3 N -0.06090 0.44400 -0.72000
O1 O 0.32940 0.03860 -0.36300
O2 O 0.43730 0.30660 -0.24940
O3 O 0.09090 0.53730 -0.39830
O4 O -0.13650 0.30880 -1.09120
O5 O 0.08210 0.29320 -0.93500
#END
