
#######################################################################
#
#                 Cambridge Crystallographic Data Centre
#                                CCDC
#
#######################################################################
#
# If this CIF has been generated from an entry in the Cambridge
# Structural Database, then it will include bibliographic, chemical,
# crystal, experimental, refinement or atomic coordinate data resulting
# from the CCDC's data processing and validation procedures.
#
#######################################################################

data_CSD_CIF_QUJGIL
_audit_creation_date 2001-11-07
_audit_creation_method CSD-ConQuest-V1
_database_code_CSD QUJGIL
_database_code_depnum_ccdc_archive 'CCDC 152286'
_chemical_formula_sum 'C16 H8 N2 O12'
_chemical_formula_moiety
;
C16 H8 N2 O12
;
_journal_coden_Cambridge 98
_journal_volume 66
_journal_year 2001
_journal_page_first 820
_journal_name_full 'Collect.Czech.Chem.Commun. '
loop_
_publ_author_name
"P.Holy"
"J.Zavada"
"J.Zezula"
"I.Cisarova"
"J.Podlaha"
_chemical_name_systematic
;
4,4'-Dinitro-1,1'-biphenyl-2,2',6,6'-tetracarboxylic acid
;
_chemical_melting_point 643.15
_cell_volume   3583.799
_exptl_crystal_colour 'colorless'
_exptl_crystal_density_diffrn 1.558
_exptl_special_details
;
Melts above 643.15K

;
_exptl_crystal_description 'irregular prism'
_exptl_crystal_preparation 'hot water'
_diffrn_ambient_temperature ?
_diffrn_special_details
;
The study was carried out at room temperature,in the range 283-303K

;
#These two values have been output from a single CSD field.
_refine_ls_R_factor_gt 0.0435
_refine_ls_wR_factor_gt 0.0435
_symmetry_cell_setting monoclinic
_symmetry_space_group_name_H-M 'P 21/c'
_symmetry_Int_Tables_number 14
loop_
_symmetry_equiv_pos_site_id
_symmetry_equiv_pos_as_xyz
1 x,y,z
2 x,1/2-y,1/2+z
3 -x,-y,-z
4 -x,-1/2+y,-1/2-z
_cell_length_a 14.684(2)
_cell_length_b 16.993(1)
_cell_length_c 15.470(2)
_cell_angle_alpha 90
_cell_angle_beta 111.812(9)
_cell_angle_gamma 90
_cell_formula_units_Z 8
loop_
_atom_type_symbol
_atom_type_radius_bond
C 0.68
H 0.23
N 0.68
O 0.68
loop_
_atom_site_label
_atom_site_type_symbol
_atom_site_fract_x
_atom_site_fract_y
_atom_site_fract_z
O1 O -0.28121(14) 0.15592(15) 0.09560(15)
H1 H -0.3057(31) 0.1420(25) 0.0429(29)
O2 O -0.14069(13) 0.13187(12) 0.07663(12)
O3 O 0.1334(2) 0.1234(2) 0.51089(14)
H2 H 0.2015(30) 0.1216(24) 0.5448(27)
O4 O 0.17326(14) 0.14354(13) 0.38819(13)
O5 O -0.1738(2) 0.1980(2) 0.5140(2)
O6 O -0.2999(2) 0.2085(2) 0.3870(2)
N1 N -0.2131(2) 0.19497(15) 0.4299(2)
C1 C -0.0353(2) 0.15160(13) 0.2732(2)
C2 C -0.1375(2) 0.15752(14) 0.2286(2)
C3 C -0.1957(2) 0.17137(15) 0.2802(2)
H3 H -0.2632(2) 0.17737(15) 0.2507(2)
C4 C -0.1521(2) 0.1761(2) 0.3755(2)
C5 C -0.0535(2) 0.1636(2) 0.4222(2)
H4 H -0.0268(2) 0.1632(2) 0.4869(2)
C6 C 0.0053(2) 0.15177(14) 0.3711(2)
C7 C -0.1865(2) 0.14806(15) 0.1259(2)
C8 C 0.1125(2) 0.1395(2) 0.4236(2)
O7 O 0.0663(2) 0.35780(12) 0.1840(2)
H5 H 0.0469(28) 0.4026(24) 0.2010(26)
O8 O -0.01627(15) 0.30687(10) 0.26545(15)
O9 O 0.05195(15) -0.05784(11) 0.17295(15)
H6 H 0.0363(25) -0.1077(22) 0.1936(23)
O10 O -0.01722(15) -0.00572(10) 0.26541(15)
O11 O 0.2938(2) 0.08651(14) 0.1041(2)
O12 O 0.2846(2) 0.21270(14) 0.0917(2)
N2 N 0.2562(2) 0.1496(2) 0.1094(2)
C9 C 0.0321(2) 0.14957(14) 0.2197(2)
C10 C 0.0670(2) 0.22051(14) 0.1973(2)
C11 C 0.1385(2) 0.2199(2) 0.1589(2)
H7 H 0.1626(2) 0.2669(2) 0.1452(2)
C12 C 0.1735(2) 0.1493(2) 0.1413(2)
C13 C 0.1355(2) 0.0788(2) 0.1558(2)
H8 H 0.1574(2) 0.0317(2) 0.1396(2)
C14 C 0.0644(2) 0.07836(14) 0.1947(2)
C15 C 0.0344(2) 0.29879(15) 0.2192(2)
C16 C 0.0283(2) 0.00127(15) 0.2143(2)
O13 O 0.4406(2) -0.10385(13) 0.8161(2)
H9 H 0.4555(27) -0.1466(23) 0.8013(25)
O14 O 0.5093(2) -0.05324(10) 0.72360(15)
O15 O 0.4284(2) 0.31091(12) 0.8108(2)
H10 H 0.4567(29) 0.3561(25) 0.8045(27)
O16 O 0.50804(15) 0.25949(10) 0.72711(15)
O17 O 0.2052(2) 0.16034(15) 0.8980(2)
O18 O 0.2152(2) 0.0340(2) 0.9057(2)
N3 N 0.2418(2) 0.0979(2) 0.8884(2)
C17 C 0.4604(2) 0.10384(14) 0.7709(2)
C18 C 0.4284(2) 0.03207(14) 0.7949(2)
C19 C 0.3589(2) 0.0308(2) 0.8355(2)
H11 H 0.3377(2) -0.0168(2) 0.8511(2)
C20 C 0.3214(2) 0.1006(2) 0.8524(2)
C21 C 0.3550(2) 0.1721(2) 0.8352(2)
H12 H 0.3314(2) 0.2187(2) 0.8507(2)
C22 C 0.4244(2) 0.17391(15) 0.7946(2)
C23 C 0.4635(2) -0.04546(15) 0.7744(2)
C24 C 0.4582(2) 0.25207(15) 0.7747(2)
O19 O 0.77380(14) 0.10676(14) 0.89780(14)
H13 H 0.8009(30) 0.1146(25) 0.9550(28)
O20 O 0.63186(13) 0.11702(13) 0.91783(13)
O21 O 0.3613(2) 0.1209(2) 0.47703(13)
H14 H 0.2934(30) 0.1270(23) 0.4435(27)
O22 O 0.32181(14) 0.10850(12) 0.60187(13)
O23 O 0.6764(2) 0.06166(15) 0.48300(15)
O24 O 0.7995(2) 0.0503(2) 0.6118(2)
N4 N 0.7133(2) 0.0640(2) 0.5674(2)
C25 C 0.5283(2) 0.10359(13) 0.7181(2)
C26 C 0.6308(2) 0.10016(14) 0.7643(2)
C27 C 0.6909(2) 0.08888(15) 0.7144(2)
H15 H 0.7585(2) 0.08577(15) 0.7451(2)
C28 C 0.6498(2) 0.0823(2) 0.6192(2)
C29 C 0.5509(2) 0.09168(15) 0.5710(2)
H16 H 0.5251(2) 0.09099(15) 0.5063(2)
C30 C 0.4905(2) 0.10212(14) 0.6205(2)
C31 C 0.6784(2) 0.10809(15) 0.8676(2)
C32 C 0.3827(2) 0.11091(15) 0.5660(2)
#END
