
#######################################################################
#
#                 Cambridge Crystallographic Data Centre
#                                CCDC
#
#######################################################################
#
# If this CIF has been generated from an entry in the Cambridge
# Structural Database, then it will include bibliographic, chemical,
# crystal, experimental, refinement or atomic coordinate data resulting
# from the CCDC's data processing and validation procedures.
#
#######################################################################

data_CSD_CIF_QUKXAV
_audit_creation_date 2001-11-07
_audit_creation_method CSD-ConQuest-V1
_database_code_CSD QUKXAV
_database_code_depnum_ccdc_archive 'CCDC 147090'
_chemical_formula_sum 'C17 H16 N2 O4'
_chemical_formula_moiety
;
C17 H16 N2 O4
;
_journal_coden_Cambridge 1078
_journal_year 2000
_journal_name_full 'CSD Communication(Private Communication) '
loop_
_publ_author_name
"R.P.Kashyap"
"W.H.Watson"
_chemical_name_systematic
;
Spiro(2'-dimethylamino-7'-nitro-1,3-dioxolane-2,9'-fluorene)
;
_cell_volume   3065.929
_exptl_crystal_colour 'red'
_exptl_crystal_density_diffrn 1.35
_exptl_special_details
;
contribution from Department of Chemistry, Texas Christian University, Fort 
Worth, TX 76129, USA
Space group should probably be P21/c (not P21/n)
;
_diffrn_ambient_temperature 298
#These two values have been output from a single CSD field.
_refine_ls_R_factor_gt 0.04
_refine_ls_wR_factor_gt 0.04
_symmetry_cell_setting monoclinic
_symmetry_space_group_name_H-M 'P 21/c'
_symmetry_Int_Tables_number 14
loop_
_symmetry_equiv_pos_site_id
_symmetry_equiv_pos_as_xyz
1 x,y,z
2 -x,1/2+y,1/2-z
3 -x,-y,-z
4 x,-1/2-y,-1/2+z
_cell_length_a 11.771(10)
_cell_length_b 25.034(29)
_cell_length_c 11.308(11)
_cell_angle_alpha 90
_cell_angle_beta 113.06(6)
_cell_angle_gamma 90
_cell_formula_units_Z 8
loop_
_atom_type_symbol
_atom_type_radius_bond
C 0.68
H 0.23
N 0.68
O 0.68
loop_
_atom_site_label
_atom_site_type_symbol
_atom_site_fract_x
_atom_site_fract_y
_atom_site_fract_z
C1 C 0.4179(6) 0.0878(3) 0.9037(6)
C2 C 0.3406(7) 0.0407(3) 0.8336(6)
C3 C 0.2170(8) 0.0335(3) 0.8032(7)
C4 C 0.1673(7) -0.0125(3) 0.7322(7)
C5 C 0.2376(8) -0.0490(3) 0.6978(7)
C6 C 0.3601(8) -0.0401(3) 0.7292(7)
C7 C 0.4148(7) 0.0045(3) 0.7997(7)
C8 C 0.5428(8) 0.0238(3) 0.8486(7)
C9 C 0.6475(8) 0.0044(3) 0.8383(7)
C10 C 0.7551(7) 0.0312(4) 0.8967(7)
C11 C 0.7658(8) 0.0788(3) 0.9671(7)
C12 C 0.6562(7) 0.0986(3) 0.9758(7)
C13 C 0.5471(7) 0.0712(3) 0.9152(6)
O1 O 0.4140(4) 0.0982(2) 1.0242(4)
C14 C 0.3810(12) 0.1509(3) 1.0278(9)
C15 C 0.3930(9) 0.1776(3) 0.9153(7)
O2 O 0.3768(4) 0.1342(2) 0.8289(4)
N1 N 0.0355(7) -0.0222(3) 0.6975(8)
O3 O -0.0095(6) -0.0619(3) 0.6329(7)
O4 O -0.0236(5) 0.0089(2) 0.7337(7)
N2 N 0.8769(5) 0.1049(2) 1.0248(6)
C16 C 0.8898(9) 0.1494(4) 1.1108(9)
C17 C 0.9863(7) 0.0881(5) 1.0052(12)
C18 C -0.3000(7) 0.2887(3) 0.8741(6)
C19 C -0.1629(7) 0.2978(3) 0.9498(7)
C20 C -0.0615(8) 0.2727(3) 0.9436(8)
C21 C 0.0549(7) 0.2885(3) 1.0256(8)
C22 C 0.0711(7) 0.3294(3) 1.1084(7)
C23 C -0.0261(8) 0.3555(3) 1.1187(8)
C24 C -0.1454(7) 0.3396(3) 1.0385(7)
C25 C -0.2668(7) 0.3588(3) 1.0236(8)
C26 C -0.3008(7) 0.3980(3) 1.0886(7)
C27 C -0.4238(8) 0.4084(3) 1.0590(7)
C28 C -0.5175(7) 0.3793(3) 0.9601(7)
C29 C -0.4797(7) 0.3385(3) 0.8959(7)
C30 C -0.3558(7) 0.3298(3) 0.9307(7)
O5 O -0.3309(4) 0.2967(2) 0.7419(4)
C31 C -0.3527(14) 0.2471(3) 0.6818(9)
C32 C -0.3614(12) 0.2086(4) 0.7723(8)
O6 O -0.3357(4) 0.2365(2) 0.8884(4)
N3 N 0.1608(8) 0.2599(3) 1.0230(11)
O7 O 0.2644(5) 0.2707(3) 1.0977(7)
O8 O 0.1408(7) 0.2276(4) 0.9380(11)
N4 N -0.6404(5) 0.3909(3) 0.9289(6)
C33 C -0.7321(7) 0.3582(4) 0.8368(9)
C34 C -0.6798(10) 0.4290(5) 1.0024(11)
H1 H 0.1497(91) 0.0593(37) 0.7967(96)
H2 H 0.1972(50) -0.081(2) 0.6612(48)
H3 H 0.4080(42) -0.0684(17) 0.7146(43)
H4 H 0.6534(42) -0.0331(18) 0.7977(43)
H5 H 0.8334(35) 0.0213(14) 0.9025(34)
H6 H 0.6591(46) 0.1343(18) 1.0246(45)
H7 H 0.29730 0.15310 1.02130
H8 H 0.43500 0.16740 1.10640
H9 H 0.47300 0.19360 0.93880
H10 H 0.33040 0.20430 0.87900
H11 H 0.97320 0.16240 1.14240
H12 H 0.87050 0.13790 1.18170
H13 H 0.83440 0.17750 1.06530
H14 H 1.05430 0.11100 1.05320
H15 H 0.97090 0.09030 0.91540
H16 H 1.00620 0.05190 1.03390
H17 H -0.0508(58) 0.2433(22) 0.8906(55)
H18 H 0.1466(43) 0.3365(17) 1.1659(42)
H19 H -0.0168(38) 0.3832(15) 1.1753(38)
H20 H -0.2352(47) 0.4202(19) 1.1535(48)
H21 H -0.4401(54) 0.4416(21) 1.1085(54)
H22 H -0.5515(59) 0.3115(22) 0.8296(56)
H23 H -0.42850 0.24790 0.60690
H24 H -0.30220 0.18050 0.78490
H25 H -0.44290 0.19360 0.74190
H26 H -0.81270 0.37090 0.82540
H27 H -0.72250 0.32190 0.86680
H28 H -0.72270 0.35980 0.75630
H29 H -0.76830 0.43140 0.96610
H30 H -0.64510 0.46340 0.99960
H31 H -0.65210 0.41720 1.09000
#END
