
#######################################################################
#
#                 Cambridge Crystallographic Data Centre
#                                CCDC
#
#######################################################################
#
# If this CIF has been generated from an entry in the Cambridge
# Structural Database, then it will include bibliographic, chemical,
# crystal, experimental, refinement or atomic coordinate data resulting
# from the CCDC's data processing and validation procedures.
#
#######################################################################

data_CSD_CIF_QULYEB
_audit_creation_date 2001-11-07
_audit_creation_method CSD-ConQuest-V1
_database_code_CSD QULYEB
_database_code_depnum_ccdc_archive 'CCDC 160742'
_chemical_formula_sum 'C16 H22 N4 O4'
_chemical_formula_moiety
;
C16 H22 N4 O4
;
_journal_coden_Cambridge 1078
_journal_year 2001
_journal_name_full 'CSD Communication(Private Communication) '
loop_
_publ_author_name
"C.A.Amezcua"
"M.Krawiec"
"W.B.Smith"
"W.H.Watson"
_chemical_name_systematic
;
N-(2-isopropyl-5-methylcyclohexylideneamino)-2,4-dinitroaniline
;
_cell_volume   3468.031
_exptl_crystal_colour 'orange'
_exptl_crystal_density_diffrn 1.277
_exptl_special_details
;
contribution from Department of Chemistry, Texan Christian University, Fort 
Worth, Texas, USA
It is assumed that there is a proton on the phenylamine group though no 
coordinates are given
;
_exptl_crystal_description 'needle'
_diffrn_ambient_temperature 296
#These two values have been output from a single CSD field.
_refine_ls_R_factor_gt 0.052
_refine_ls_wR_factor_gt 0.052
_symmetry_cell_setting orthorhombic
_symmetry_space_group_name_H-M 'P 21 21 21'
_symmetry_Int_Tables_number 19
loop_
_symmetry_equiv_pos_site_id
_symmetry_equiv_pos_as_xyz
1 x,y,z
2 1/2-x,-y,1/2+z
3 1/2+x,1/2-y,-z
4 -x,1/2+y,1/2-z
_cell_length_a 15.404(3)
_cell_length_b 28.283(5)
_cell_length_c 7.9602(9)
_cell_angle_alpha 90
_cell_angle_beta 90
_cell_angle_gamma 90
_cell_formula_units_Z 8
loop_
_atom_type_symbol
_atom_type_radius_bond
C 0.68
H 0.23
N 0.68
O 0.68
loop_
_atom_site_label
_atom_site_type_symbol
_atom_site_fract_x
_atom_site_fract_y
_atom_site_fract_z
O1 O 0.748(1) 0.3860(7) 0.223(2)
O2 O 0.616(1) 0.3791(7) 0.307(3)
O3 O 0.457(1) 0.2850(7) 0.090(3)
O4 O 0.423(1) 0.2147(7) 0.175(3)
O5 O 0.259(2) 0.3828(9) -0.199(3)
O6 O 0.131(1) 0.3680(8) -0.223(3)
O7 O 0.944(1) 0.2614(7) 0.303(3)
O8 O 0.913(1) 0.2051(9) 0.482(3)
N1 N 0.687(2) 0.362(1) 0.286(4)
N2 N 0.689(1) 0.1619(7) 0.633(3)
N3 N 0.760(1) 0.1855(9) 0.575(3)
N4 N 0.191(1) 0.1566(8) 0.175(3)
N5 N 0.267(1) 0.1885(8) 0.155(3)
N6 N 0.402(1) 0.252(1) 0.112(3)
N7 N 0.205(2) 0.353(1) -0.176(4)
N8 N 0.898(2) 0.238(1) 0.392(4)
C1 C 0.790(2) 0.298(1) 0.353(4)
C2 C 0.710(2) 0.3178(9) 0.359(3)
C3 C 0.639(2) 0.292(1) 0.438(4)
C4 C 0.658(2) 0.251(1) 0.511(3)
C5 C 0.805(2) 0.254(1) 0.420(4)
C6 C 0.699(2) 0.123(1) 0.699(4)
C7 C 0.787(2) 0.100(1) 0.731(3)
C8 C 0.789(2) 0.047(1) 0.660(4)
C9 C 0.704(2) 0.0221(9) 0.722(4)
C10 C 0.624(2) 0.046(1) 0.688(5)
C11 C 0.622(2) 0.0976(9) 0.773(4)
C12 C 0.532(2) 0.122(1) 0.761(4)
C13 C 0.498(1) 0.1206(8) 0.585(4)
C14 C 0.874(2) 0.0251(9) 0.711(5)
C15 C 0.219(3) 0.3144(9) -0.082(4)
C16 C 0.248(2) 0.229(1) 0.078(3)
C17 C 0.164(2) 0.2401(9) 0.019(3)
C18 C 0.153(2) 0.281(1) -0.055(3)
C19 C 0.211(2) 0.118(1) 0.238(4)
C20 C 0.296(2) 0.0964(8) 0.284(4)
C21 C 0.310(2) 0.047(1) 0.198(3)
C22 C 0.234(2) 0.0167(9) 0.238(3)
C23 C 0.151(2) 0.0355(8) 0.183(4)
C24 C 0.133(2) 0.0854(8) 0.270(3)
C25 C 0.045(2) 0.1050(8) 0.236(5)
C26 C 0.020(2) 0.1028(10) 0.052(4)
C27 C -0.021(2) 0.083(1) 0.362(5)
C28 C 0.398(2) 0.0267(9) 0.248(3)
C29 C 0.468(2) 0.102(1) 0.881(4)
C30 C 0.743(2) 0.2276(9) 0.509(3)
C31 C 0.301(2) 0.302(2) -0.027(4)
C32 C 0.319(2) 0.262(1) 0.059(4)
H1 H 0.83720 0.31550 0.29910
H2 H 0.58110 0.30530 0.44040
H3 H 0.61160 0.23820 0.56820
H4 H 0.11950 0.21850 0.03240
H5 H 0.09470 0.28850 -0.09220
H6 H 0.35180 0.32000 -0.05720
H7 H 0.44340 0.13740 0.58340
H8 H 0.53740 0.13840 0.51390
H9 H 0.49100 0.09040 0.54340
H10 H 0.86840 -0.00490 0.66880
H11 H 0.91480 0.04380 0.66230
H12 H 0.86890 0.02760 0.82600
H13 H -0.03380 0.12250 0.05070
H14 H 0.06230 0.12070 -0.00770
H15 H 0.01120 0.07410 0.02060
H16 H -0.07230 0.10180 0.33790
H17 H -0.02660 0.05290 0.33530
H18 H 0.00010 0.09050 0.46730
H19 H 0.39650 0.02530 0.36590
H20 H 0.39960 -0.00360 0.20040
H21 H 0.43930 0.04680 0.20690
H22 H 0.41770 0.12470 0.87320
H23 H 0.45310 0.07340 0.86560
H24 H 0.49080 0.10890 0.99510
H25 H 0.63730 0.09430 0.88630
H26 H 0.54350 0.15260 0.78920
H27 H 0.31160 0.05170 0.07910
H28 H 0.13840 0.07920 0.39170
H29 H 0.05270 0.13720 0.26530
H30 H 0.82990 0.11740 0.68510
H31 H 0.79240 0.09590 0.84900
H32 H 0.70760 -0.00700 0.65430
H33 H 0.71810 0.01630 0.82960
H34 H 0.61050 0.04590 0.57880
H35 H 0.58280 0.02620 0.75270
H36 H 0.34000 0.11800 0.25320
H37 H 0.29450 0.09300 0.40260
H38 H 0.24240 -0.01300 0.18510
H39 H 0.23330 0.01240 0.35700
H40 H 0.15360 0.03980 0.06870
H41 H 0.10850 0.01440 0.21770
H42 H 0.78750 0.05070 0.53230
#END
