
#######################################################################
#
#                 Cambridge Crystallographic Data Centre
#                                CCDC
#
#######################################################################
#
# If this CIF has been generated from an entry in the Cambridge
# Structural Database, then it will include bibliographic, chemical,
# crystal, experimental, refinement or atomic coordinate data resulting
# from the CCDC's data processing and validation procedures.
#
#######################################################################

data_CSD_CIF_QUMKIT
_audit_creation_date 2010-07-07
_audit_creation_method CSD-ConQuest-V1
_database_code_CSD QUMKIT
_database_code_depnum_ccdc_archive 'CCDC 740950'
_chemical_formula_sum 'C42 H48 N4 O12'
_chemical_formula_moiety
;
C42 H48 N4 O12
;
_journal_coden_Cambridge 16
_journal_volume 65
_journal_year 2009
_journal_page_first 9983
_journal_name_full 'Tetrahedron '
loop_
_publ_author_name
"S.Akagi"
"Y.Yasukawa"
"K.Kobayashi"
"H.Konishi"
_chemical_name_systematic
;
1^4^,1^6^,5^4^,5^6^-Tetra-t-butyl-1^2^,5^2^-dimethyl-3^4^,3^6^,7^4^,7^6^-tetra
nitro-2,4,6,8-tetraoxa-1,3,5,7(1,3)-tetrabenzenacyclo-octaphane
;
_chemical_melting_point 523.15
_cell_volume   2061.557
_exptl_crystal_colour 'yellow'
_exptl_crystal_density_diffrn 1.29
_exptl_special_details
;
Melts with decomposition.
1,3-alternate conformer

;
_exptl_crystal_description 'platelet'
_exptl_crystal_preparation 'chloroform/hexane'
_diffrn_ambient_temperature 173.1
#These two values have been output from a single CSD field.
_refine_ls_R_factor_gt 0.0435
_refine_ls_wR_factor_gt 0.0435
_symmetry_cell_setting triclinic
_symmetry_space_group_name_H-M 'P -1'
_symmetry_Int_Tables_number 2
loop_
_symmetry_equiv_pos_site_id
_symmetry_equiv_pos_as_xyz
1 x,y,z
2 -x,-y,-z
_cell_length_a 11.4489(9)
_cell_length_b 13.6872(12)
_cell_length_c 13.8733(9)
_cell_angle_alpha 74.548(4)
_cell_angle_beta 79.697(3)
_cell_angle_gamma 87.711(4)
_cell_formula_units_Z 2
loop_
_atom_type_symbol
_atom_type_radius_bond
C 0.68
H 0.23
N 0.68
O 0.68
loop_
_atom_site_label
_atom_site_type_symbol
_atom_site_fract_x
_atom_site_fract_y
_atom_site_fract_z
O1 O 0.53743(8) 0.40539(7) 0.18554(7)
O2 O 0.67878(9) 0.13068(7) 0.04314(7)
O3 O 0.84978(9) -0.01639(7) 0.34189(7)
O4 O 0.70336(8) 0.25368(8) 0.48587(7)
O5 O 0.29694(11) 0.53765(10) 0.34519(11)
O6 O 0.31306(11) 0.45706(14) 0.22931(10)
O7 O 0.62995(11) -0.00427(9) -0.04693(8)
O8 O 0.58107(18) -0.15237(10) 0.04868(13)
O9 O 0.79138(12) -0.28602(9) 0.33036(10)
O10 O 0.74441(13) -0.19747(9) 0.43870(9)
O11 O 0.53593(14) 0.22802(12) 0.65131(9)
O12 O 0.45463(12) 0.37323(12) 0.64879(9)
N1 N 0.34298(11) 0.47398(11) 0.30320(11)
N2 N 0.62589(12) -0.06912(10) 0.03240(11)
N3 N 0.76438(11) -0.20664(9) 0.35195(10)
N4 N 0.50348(11) 0.31087(12) 0.6067(1)
C1 C 0.62552(11) 0.36649(10) 0.12130(9)
C2 C 0.71119(11) 0.43291(10) 0.05444(9)
C3 C 0.78613(12) 0.39192(10) -0.01494(10)
C4 C 0.78175(12) 0.2920(1) -0.02131(9)
C5 C 0.69458(12) 0.23051(10) 0.04974(10)
C6 C 0.61242(11) 0.26589(10) 0.11948(10)
C7 C 0.70516(11) 0.05096(10) 0.1171(1)
C8 C 0.67671(12) -0.04750(11) 0.11444(11)
C9 C 0.69761(12) -0.13048(11) 0.19163(12)
C10 C 0.74952(12) -0.11757(10) 0.26924(11)
C11 C 0.78580(11) -0.02116(10) 0.27018(10)
C12 C 0.76157(12) 0.06234(10) 0.19472(10)
C13 C 0.87069(12) 0.07815(9) 0.3580(1)
C14 C 0.98613(11) 0.11786(10) 0.33271(9)
C15 C 1.00016(12) 0.20785(10) 0.35884(10)
C16 C 0.90962(12) 0.25815(9) 0.40729(9)
C17 C 0.79767(11) 0.21259(10) 0.42991(9)
C18 C 0.77578(11) 0.12149(10) 0.40905(10)
C19 C 0.61546(11) 0.30159(10) 0.43768(10)
C20 C 0.51807(12) 0.33559(11) 0.49617(10)
C21 C 0.43150(13) 0.39357(12) 0.45063(11)
C22 C 0.43801(12) 0.41290(11) 0.34746(11)
C23 C 0.53319(11) 0.3782(1) 0.28697(10)
C24 C 0.62217(12) 0.32365(10) 0.33333(10)
C25 C 0.71857(13) 0.54613(10) 0.0508(1)
C26 C 0.73645(15) 0.55998(12) 0.15338(12)
C27 C 0.60469(15) 0.59933(12) 0.02036(13)
C28 C 0.82373(16) 0.59919(12) -0.02861(12)
C29 C 0.86282(13) 0.25625(11) -0.10604(10)
C30 C 0.94155(16) 0.16853(14) -0.06082(13)
C31 C 0.78580(17) 0.22381(13) -0.17264(11)
C32 C 0.94510(15) 0.34171(14) -0.17509(12)
C33 C 1.09342(12) 0.06463(10) 0.28558(11)
C34 C 1.07938(15) 0.05647(14) 0.18022(12)
C35 C 1.10724(15) -0.04081(13) 0.35562(13)
C36 C 1.20976(14) 0.12339(15) 0.27127(17)
C37 C 0.93653(13) 0.35241(10) 0.4406(1)
C38 C 0.91731(15) 0.32415(11) 0.55703(11)
C39 C 0.85760(16) 0.44235(11) 0.40141(12)
C40 C 1.06592(15) 0.38669(12) 0.40115(13)
C41 C 0.50910(12) 0.20094(11) 0.18379(11)
C42 C 0.65611(13) 0.06854(12) 0.44705(11)
H1 H 0.8430(14) 0.4363(12) -0.0636(12)
H2 H 0.7843(13) 0.1271(12) 0.1935(11)
H3 H 0.6764(13) -0.1937(12) 0.1923(11)
H4 H 1.0773(15) 0.2367(13) 0.3445(12)
H5 H 0.6924(15) 0.3079(12) 0.2907(12)
H6 H 0.3670(15) 0.4161(13) 0.4900(13)
H7 H 0.66600 0.53570 0.20460
H8 H 0.74960 0.63200 0.14680
H9 H 0.80590 0.52130 0.17420
H10 H 0.59460 0.59020 -0.04530
H11 H 0.60990 0.67160 0.01580
H12 H 0.53600 0.56930 0.07210
H13 H 0.89790 0.56640 -0.01160
H14 H 0.82630 0.67070 -0.02880
H15 H 0.81440 0.59420 -0.09600
H16 H 0.98430 0.18870 -0.01390
H17 H 0.99880 0.15210 -0.11570
H18 H 0.89180 0.10900 -0.02420
H19 H 0.83690 0.20200 -0.22750
H20 H 0.73750 0.28130 -0.20190
H21 H 0.73330 0.16770 -0.13100
H22 H 0.99360 0.36570 -0.13450
H23 H 0.89720 0.39760 -0.20760
H24 H 0.99670 0.31620 -0.22720
H25 H 1.01000 0.01470 0.18590
H26 H 1.15080 0.02550 0.15010
H27 H 1.06970 0.12450 0.13620
H28 H 1.11050 -0.03510 0.42410
H29 H 1.18050 -0.07160 0.32930
H30 H 1.03920 -0.08350 0.35860
H31 H 1.20360 0.19130 0.22700
H32 H 1.27560 0.08730 0.24070
H33 H 1.22360 0.12810 0.33770
H34 H 0.93570 0.38290 0.57960
H35 H 0.96970 0.26790 0.58120
H36 H 0.83450 0.30350 0.58440
H37 H 0.77450 0.42540 0.43190
H38 H 0.86660 0.45700 0.32720
H39 H 0.88140 0.50210 0.41960
H40 H 1.08210 0.40200 0.32690
H41 H 1.11860 0.33230 0.42920
H42 H 1.08020 0.44740 0.42220
H43 H 0.48310 0.15760 0.14550
H44 H 0.44340 0.24450 0.20200
H45 H 0.53340 0.15850 0.24580
H46 H 0.60510 0.09180 0.39580
H47 H 0.61890 0.08440 0.51030
H48 H 0.66700 -0.00490 0.45960
#END
