
#######################################################################
#
#                 Cambridge Crystallographic Data Centre
#                                CCDC
#
#######################################################################
#
# If this CIF has been generated from an entry in the Cambridge
# Structural Database, then it will include bibliographic, chemical,
# crystal, experimental, refinement or atomic coordinate data resulting
# from the CCDC's data processing and validation procedures.
#
#######################################################################

data_CSD_CIF_QUMKOZ
_audit_creation_date 2010-07-07
_audit_creation_method CSD-ConQuest-V1
_database_code_CSD QUMKOZ
_database_code_depnum_ccdc_archive 'CCDC 740951'
_chemical_formula_sum 'C40 H44 N4 O14'
_chemical_formula_moiety
;
C40 H44 N4 O14
;
_journal_coden_Cambridge 16
_journal_volume 65
_journal_year 2009
_journal_page_first 9983
_journal_name_full 'Tetrahedron '
loop_
_publ_author_name
"S.Akagi"
"Y.Yasukawa"
"K.Kobayashi"
"H.Konishi"
_chemical_name_systematic
;
1^4^,1^6^,5^4^,5^6^-Tetra-t-butyl-1^2^,5^2^-dihydroxy-3^4^,3^6^,7^4^,7^6^-tetr
anitro-2,4,6,8-tetraoxa-1,3,5,7(1,3)-tetrabenzenacyclo-octaphane
;
_chemical_melting_point 578.15
_cell_volume   2055.634
_exptl_crystal_colour 'yellow'
_exptl_crystal_density_diffrn 1.3
_exptl_special_details
;
Melts with decomposition.
1,3-alternate conformer

;
_exptl_crystal_description 'block'
_exptl_crystal_preparation 'chloroform/hexane'
_diffrn_ambient_temperature 173.1
#These two values have been output from a single CSD field.
_refine_ls_R_factor_gt 0.0754
_refine_ls_wR_factor_gt 0.0754
_symmetry_cell_setting triclinic
_symmetry_space_group_name_H-M 'P -1'
_symmetry_Int_Tables_number 2
loop_
_symmetry_equiv_pos_site_id
_symmetry_equiv_pos_as_xyz
1 x,y,z
2 -x,-y,-z
_cell_length_a 11.432(3)
_cell_length_b 13.655(5)
_cell_length_c 13.883(5)
_cell_angle_alpha 74.691(12)
_cell_angle_beta 79.555(13)
_cell_angle_gamma 87.490(11)
_cell_formula_units_Z 2
loop_
_atom_type_symbol
_atom_type_radius_bond
C 0.68
H 0.23
N 0.68
O 0.68
loop_
_atom_site_label
_atom_site_type_symbol
_atom_site_fract_x
_atom_site_fract_y
_atom_site_fract_z
O1 O 0.79687(19) 0.74634(17) 0.01425(17)
O2 O 0.65007(19) 1.01652(15) 0.15775(17)
O3 O 0.82115(19) 0.86914(16) 0.45649(17)
O4 O 0.96231(18) 0.59463(16) 0.31457(17)
O5 O 1.0451(2) 0.6265(2) -0.1486(2)
O6 O 0.9636(2) 0.7722(2) -0.1514(2)
O7 O 0.7553(2) 1.19733(19) 0.0613(2)
O8 O 0.7081(2) 1.28588(18) 0.1691(2)
O9 O 0.9180(3) 1.1521(2) 0.4515(2)
O10 O 0.8697(2) 1.0043(2) 0.5468(2)
O11 O 1.1866(2) 0.5426(2) 0.2709(2)
O12 O 1.2027(2) 0.4622(2) 0.1555(2)
O13 O 0.8446(3) 0.9327(2) 0.0502(3)
O14 O 0.9925(2) 0.7988(2) 0.3142(2)
N1 N 0.9968(2) 0.6886(2) -0.1065(2)
N2 N 0.7349(2) 1.2066(2) 0.1481(2)
N3 N 0.8736(2) 1.0691(2) 0.4675(2)
N4 N 1.1569(2) 0.5254(2) 0.1973(2)
C1 C 0.7020(2) 0.7875(2) 0.0700(2)
C2 C 0.5906(2) 0.7417(2) 0.0930(2)
C3 C 0.5005(2) 0.7923(2) 0.1407(2)
C4 C 0.5138(2) 0.8819(2) 0.1674(2)
C5 C 0.6293(2) 0.9218(2) 0.1416(2)
C6 C 0.7251(2) 0.8791(2) 0.0906(2)
C7 C 0.7143(2) 1.0210(2) 0.2298(2)
C8 C 0.7502(2) 1.1177(2) 0.2304(2)
C9 C 0.8022(2) 1.1300(2) 0.3085(2)
C10 C 0.8239(2) 1.0480(2) 0.3845(2)
C11 C 0.7947(2) 0.9487(2) 0.3826(2)
C12 C 0.7381(2) 0.9380(2) 0.3056(2)
C13 C 0.8051(2) 0.7696(2) 0.4506(2)
C14 C 0.7181(2) 0.7080(2) 0.5211(2)
C15 C 0.7138(2) 0.6085(2) 0.5150(2)
C16 C 0.7887(2) 0.5671(2) 0.4458(2)
C17 C 0.8742(2) 0.6335(2) 0.3791(2)
C18 C 0.8872(2) 0.7343(2) 0.3803(2)
C19 C 0.9675(2) 0.6219(2) 0.2126(2)
C20 C 1.0619(2) 0.5870(2) 0.1527(2)
C21 C 1.0681(2) 0.6069(2) 0.0496(2)
C22 C 0.9817(2) 0.6637(2) 0.0039(2)
C23 C 0.8849(2) 0.6981(2) 0.0626(2)
C24 C 0.8776(2) 0.6762(2) 0.1668(2)
C25 C 0.5643(2) 0.6473(2) 0.0595(2)
C26 C 0.6414(3) 0.5580(2) 0.0995(3)
C27 C 0.5831(3) 0.6759(2) -0.0563(2)
C28 C 0.4350(3) 0.6138(2) 0.0986(3)
C29 C 0.4063(2) 0.9351(2) 0.2151(2)
C30 C 0.2908(3) 0.8768(3) 0.2291(3)
C31 C 0.3932(3) 1.0410(2) 0.1439(3)
C32 C 0.4206(3) 0.9433(3) 0.3196(2)
C33 C 0.6370(3) 0.7437(2) 0.6064(2)
C34 C 0.5580(3) 0.8322(3) 0.5616(3)
C35 C 0.7132(3) 0.7760(2) 0.6731(2)
C36 C 0.5544(3) 0.6584(2) 0.6750(2)
C37 C 0.7813(2) 0.4537(2) 0.4495(2)
C38 C 0.6768(3) 0.4005(2) 0.5287(3)
C39 C 0.8955(3) 0.4018(2) 0.4797(3)
C40 C 0.7641(3) 0.4402(2) 0.3470(2)
H1 H 0.42300 0.76340 0.15670
H2 H 0.82320 1.19610 0.30970
H3 H 0.71520 0.87210 0.30500
H4 H 0.65470 0.56530 0.56200
H5 H 1.13250 0.58130 0.00980
H6 H 0.81080 0.69840 0.20710
H7 H 0.62760 0.54140 0.17380
H8 H 0.72530 0.57570 0.07290
H9 H 0.62100 0.49920 0.07780
H10 H 0.53260 0.73390 -0.08000
H11 H 0.56190 0.61800 -0.07910
H12 H 0.66670 0.69410 -0.08390
H13 H 0.32470 1.07560 0.17370
H14 H 0.38110 1.03390 0.07800
H15 H 0.46550 1.08090 0.13480
H16 H 0.35100 0.97720 0.34860
H17 H 0.49240 0.98270 0.31350
H18 H 0.42760 0.87510 0.36400
H19 H 0.50710 0.85400 0.61690
H20 H 0.50830 0.80980 0.52090
H21 H 0.60840 0.88900 0.51870
H22 H 0.66140 0.79900 0.72710
H23 H 0.76650 0.83150 0.63150
H24 H 0.76050 0.71810 0.70310
H25 H 0.89210 0.32950 0.48240
H26 H 0.90330 0.40930 0.54650
H27 H 0.96410 0.43330 0.42940
H28 H 0.75930 0.36770 0.35120
H29 H 0.83160 0.47070 0.29480
H30 H 0.69040 0.47360 0.32940
H31 H 0.88860 0.91520 0.09410
H32 H 1.01460 0.83720 0.34600
H33 H 0.42020 0.55380 0.07630
H34 H 0.38240 0.66890 0.07180
H35 H 0.41920 0.59710 0.17290
H36 H 0.29700 0.80840 0.27320
H37 H 0.27670 0.87190 0.16300
H38 H 0.22440 0.91260 0.26010
H39 H 0.60200 0.60140 0.70620
H40 H 0.50460 0.63560 0.63450
H41 H 0.50360 0.68350 0.72820
H42 H 0.67490 0.32880 0.52880
H43 H 0.60220 0.43300 0.51210
H44 H 0.68620 0.40570 0.59600
H45? H 0.68840 0.53610 0.04260
H46? H 0.59050 0.50190 0.14340
H47? H 0.69490 0.57830 0.13860
H48? H 0.64150 0.63010 -0.08210
H49? H 0.61220 0.74600 -0.08290
H50? H 0.50740 0.66990 -0.07800
H51? H 0.45610 1.05150 0.08390
H52? H 0.39970 1.09290 0.17990
H53? H 0.31540 1.04610 0.12290
H54? H 0.49630 0.91280 0.33570
H55? H 0.35480 0.90740 0.37040
H56? H 0.41970 1.01490 0.32010
H57? H 0.57560 0.84780 0.48740
H58? H 0.57420 0.89220 0.58340
H59? H 0.47410 0.81290 0.58560
H60? H 0.79750 0.76680 0.64730
H61? H 0.69250 0.73430 0.74300
H62? H 0.69830 0.84760 0.67140
H63? H 0.94770 0.45180 0.48990
H64? H 0.93630 0.37210 0.42570
H65? H 0.87560 0.34810 0.54280
H66? H 0.76150 0.50700 0.29900
H67? H 0.68930 0.40400 0.35560
H68? H 0.83050 0.40110 0.32090
#END
