
#######################################################################
#
#                 Cambridge Crystallographic Data Centre
#                                CCDC
#
#######################################################################
#
# If this CIF has been generated from an entry in the Cambridge
# Structural Database, then it will include bibliographic, chemical,
# crystal, experimental, refinement or atomic coordinate data resulting
# from the CCDC's data processing and validation procedures.
#
#######################################################################

data_CSD_CIF_QUMMAN
_audit_creation_date 2010-07-07
_audit_creation_method CSD-ConQuest-V1
_database_code_CSD QUMMAN
_database_code_depnum_ccdc_archive 'CCDC 674814'
_chemical_formula_sum 'C17 H21 N1 O8'
_chemical_formula_moiety
;
C17 H21 N1 O8
;
_journal_coden_Cambridge 16
_journal_volume 65
_journal_year 2009
_journal_page_first 9819
_journal_name_full 'Tetrahedron '
loop_
_publ_author_name
"C.V.Ramana"
"B.Induvadana"
"B.Srinivas"
"K.Yadagiri"
"M.N.Deshmukh"
"R.G.Gonnade"
_chemical_name_systematic
;
1,2-O-Isopropylidene-3-C-(2'-oxo-3'-(4-nitrophenyl)propyl)-\a-D-ribofuranose-(
2'-C,5-O)-hemiketal
;
_chemical_melting_point 422.15
_cell_volume    854.837
_exptl_crystal_colour 'colorless'
_exptl_crystal_density_diffrn 1.427
_exptl_special_details
;
Melting point range 422.15-423.15K

;
_exptl_crystal_description 'plate'
_diffrn_ambient_temperature 297
#These two values have been output from a single CSD field.
_refine_ls_R_factor_gt 0.0355
_refine_ls_wR_factor_gt 0.0355
_symmetry_cell_setting monoclinic
_symmetry_space_group_name_H-M 'P 21'
_symmetry_Int_Tables_number 4
loop_
_symmetry_equiv_pos_site_id
_symmetry_equiv_pos_as_xyz
1 x,y,z
2 -x,1/2+y,-z
_cell_length_a 5.4991(14)
_cell_length_b 17.126(4)
_cell_length_c 9.123(2)
_cell_angle_alpha 90
_cell_angle_beta 95.765(4)
_cell_angle_gamma 90
_cell_formula_units_Z 2
loop_
_atom_type_symbol
_atom_type_radius_bond
C 0.68
H 0.23
N 0.68
O 0.68
loop_
_atom_site_label
_atom_site_type_symbol
_atom_site_fract_x
_atom_site_fract_y
_atom_site_fract_z
O1 O 0.6952(3) 0.22856(9) 0.92229(19)
O2 O 1.0059(2) 0.25506(7) 0.78535(16)
O3 O 1.1033(2) 0.40629(9) 0.73408(19)
O4 O 0.5459(2) 0.35333(8) 0.88626(15)
O5 O 0.5827(3) 0.52515(8) 0.80025(15)
O6 O 0.9374(3) 0.55350(8) 0.68919(17)
O7 O 0.8154(6) 0.92728(15) 0.6911(5)
O8 O 0.4566(6) 0.92618(13) 0.7620(3)
N1 N 0.6295(6) 0.89370(13) 0.7122(3)
C1 C 0.5983(3) 0.28247(11) 0.8173(2)
C2 C 0.8034(3) 0.29817(11) 0.7187(2)
C3 C 0.8553(3) 0.38586(10) 0.7403(2)
C4 C 0.7631(4) 0.40055(11) 0.8913(2)
C5 C 0.7100(5) 0.48544(12) 0.9213(2)
C6 C 0.7101(3) 0.43497(11) 0.6226(2)
C7 C 0.7028(3) 0.52076(11) 0.6690(2)
C8 C 0.5482(4) 0.57069(11) 0.5553(2)
C9 C 0.5618(4) 0.65620(11) 0.5923(2)
C10 C 0.7403(4) 0.70314(13) 0.5408(3)
C11 C 0.7630(5) 0.78054(13) 0.5796(3)
C12 C 0.6021(4) 0.81164(12) 0.6695(2)
C13 C 0.4191(5) 0.76795(14) 0.7201(3)
C14 C 0.3992(4) 0.69020(14) 0.6809(2)
C15 C 0.9183(3) 0.19719(11) 0.8807(2)
C16 C 0.8714(5) 0.12150(14) 0.7985(3)
H1 H 0.79230 0.08540 0.85870
H2 H 1.02390 0.09980 0.77520
H3 H 0.76820 0.13110 0.70900
C17 C 1.0976(4) 0.18997(16) 1.0143(3)
H4 H 1.12080 0.24010 1.06070
H5 H 1.25090 0.17140 0.98610
H6 H 1.03640 0.15380 1.08210
H7 H 0.450(4) 0.2667(13) 0.777(2)
H8 H 0.764(4) 0.2808(11) 0.622(2)
H9 H 1.183(5) 0.3834(16) 0.796(3)
H10 H 0.877(4) 0.3810(11) 0.966(2)
H11 H 1.034(5) 0.5183(18) 0.717(3)
H12 H 0.855(5) 0.6824(19) 0.478(3)
H13 H 0.872(6) 0.810(2) 0.537(4)
H14 H 0.310(4) 0.7913(14) 0.780(3)
H15 H 0.276(5) 0.6604(18) 0.713(3)
H16 H 0.879(5) 0.5130(16) 0.945(3)
H17 H 0.542(4) 0.4165(12) 0.609(2)
H18 H 0.389(5) 0.5517(16) 0.547(3)
H19 H 0.613(4) 0.4924(14) 0.997(3)
H20 H 0.781(4) 0.4294(12) 0.534(2)
H21 H 0.616(4) 0.5630(13) 0.462(2)
#END
