
#######################################################################
#
#                 Cambridge Crystallographic Data Centre
#                                CCDC
#
#######################################################################
#
# If this CIF has been generated from an entry in the Cambridge
# Structural Database, then it will include bibliographic, chemical,
# crystal, experimental, refinement or atomic coordinate data resulting
# from the CCDC's data processing and validation procedures.
#
#######################################################################

data_CSD_CIF_QUMYUU
_audit_creation_date 2015-06-10
_audit_creation_method CSD-ConQuest-V1
_database_code_CSD QUMYUU
_database_code_depnum_ccdc_archive 'CCDC 1013046'
_chemical_formula_sum 'C14 H15 N3 O9'
_chemical_formula_moiety
;
C14 H15 N3 O9
;
_journal_coden_Cambridge 1326
_journal_volume 17
_journal_year 2015
_journal_page_first 16983
_journal_name_full 'Phys.Chem.Chem.Phys.(PCCP) '
loop_
_publ_author_name
"S.Bera"
"D.K.S.Ambast"
"B.Pal"
"D.Haldar"
_chemical_name_systematic
;
dimethyl N-(3,5-dinitrobenzoyl)glutamate
;
_cell_volume   3440.175
_exptl_crystal_colour 'colorless'
_exptl_crystal_density_diffrn 1.426
_exptl_crystal_description 'cubic'
_diffrn_ambient_temperature 100
#These two values have been output from a single CSD field.
_refine_ls_R_factor_gt 0.0501
_refine_ls_wR_factor_gt 0.0501
_symmetry_cell_setting orthorhombic
_symmetry_space_group_name_H-M 'P 21 21 21'
_symmetry_Int_Tables_number 19
loop_
_symmetry_equiv_pos_site_id
_symmetry_equiv_pos_as_xyz
1 x,y,z
2 1/2+x,1/2-y,-z
3 -x,1/2+y,1/2-z
4 1/2-x,-y,1/2+z
_cell_length_a 8.759(4)
_cell_length_b 12.834(5)
_cell_length_c 30.603(13)
_cell_angle_alpha 90
_cell_angle_beta 90
_cell_angle_gamma 90
_cell_formula_units_Z 8
loop_
_atom_type_symbol
_atom_type_radius_bond
C 0.68
H 0.23
N 0.68
O 0.68
loop_
_atom_site_label
_atom_site_type_symbol
_atom_site_fract_x
_atom_site_fract_y
_atom_site_fract_z
O1 O 1.2706(3) 0.7784(2) 0.32837(8)
N1 N 0.8320(3) 0.95545(18) 0.14744(7)
H1 H 0.86410 0.90170 0.13340
O2 O 0.8758(3) 1.1974(3) 0.01280(11)
O3 O 1.0382(4) 0.8302(3) 0.33793(9)
O4 O 1.3716(5) 0.6370(4) 0.18170(13)
O5 O 1.2455(5) 0.6942(3) 0.12729(11)
O6 O 0.5778(3) 0.86387(18) 0.11303(8)
O7 O 1.0889(3) 1.1057(3) 0.01465(12)
O8 O 0.8434(3) 1.0459(2) 0.21138(8)
N2 N 1.1467(3) 0.8079(2) 0.31490(9)
N3 N 1.2744(4) 0.6921(3) 0.16591(12)
O9 O 0.4895(3) 1.01477(19) 0.08752(9)
C1 C 1.1255(3) 0.8171(2) 0.26665(9)
C2 C 1.0214(3) 0.8890(2) 0.25045(9)
H2 H 0.96610 0.93150 0.26930
C3 C 1.0015(3) 0.8961(2) 0.20509(8)
C4 C 0.8868(3) 0.9737(2) 0.18823(9)
C5 C 0.7206(3) 1.0236(2) 0.12661(10)
H3 H 0.67630 1.06640 0.14990
C6 C 0.7950(4) 1.0994(3) 0.09411(12)
H4 H 0.71730 1.14590 0.08270
H5 H 0.86970 1.14150 0.10950
C7 C 0.8712(6) 1.0461(3) 0.05703(13)
H6 H 0.79430 1.01030 0.03990
H7 H 0.94020 0.99380 0.06860
C8 C 0.9610(4) 1.1188(3) 0.02699(12)
C9 C 0.9435(6) 1.2705(4) -0.01830(16)
H8 H 1.01450 1.31490 -0.00330
H9 H 0.86450 1.31220 -0.03120
H10 H 0.99590 1.23250 -0.04080
C10 C 1.2101(3) 0.7508(2) 0.24047(10)
H11 H 1.27780 0.70240 0.25210
C11 C 1.1881(3) 0.7609(2) 0.19586(10)
C12 C 1.0875(3) 0.8321(2) 0.17754(9)
H12 H 1.07730 0.83710 0.14740
C13 C 0.5903(3) 0.9571(2) 0.10831(9)
C14 C 0.3548(4) 0.9620(4) 0.07062(15)
H13 H 0.38330 0.91830 0.04650
H14 H 0.28180 1.01280 0.06090
H15 H 0.31020 0.92010 0.09330
O10 O 0.4679(4) 0.9612(2) 0.21396(10)
O11 O 0.3289(3) 0.4344(2) 0.09424(11)
O12 O 0.3714(3) 0.5560(2) 0.04318(9)
O13 O 0.9010(3) 0.57546(19) 0.18603(6)
O14 O 0.6969(5) 0.7052(2) 0.37431(8)
O15 O 0.8341(4) 0.5892(3) 0.34398(8)
O16 O 0.4432(3) 0.9679(2) 0.28405(9)
O17 O 0.9789(3) 0.65177(19) 0.04218(7)
O18 O 0.9295(3) 0.79108(18) 0.08360(7)
N4 N 0.4954(3) 0.9297(2) 0.25069(10)
N5 N 0.7579(3) 0.67478(19) 0.14143(7)
H16 H 0.69410 0.72560 0.13990
N6 N 0.7518(3) 0.6645(2) 0.34241(8)
C15 C 0.5930(3) 0.8354(2) 0.25520(9)
C16 C 0.6448(3) 0.7873(2) 0.21719(8)
H17 H 0.61730 0.81320 0.18990
C17 C 0.7381(3) 0.70008(19) 0.22043(8)
C18 C 0.8063(3) 0.6438(2) 0.18108(8)
C19 C 0.8091(3) 0.6258(2) 0.10091(8)
H18 H 0.86650 0.56250 0.10800
C20 C 0.6685(4) 0.5958(3) 0.07288(9)
H19 H 0.60730 0.65750 0.06770
H20 H 0.70310 0.56990 0.04480
C21 C 0.5699(4) 0.5132(3) 0.0947(1)
H21 H 0.62070 0.44620 0.09280
H22 H 0.55790 0.53020 0.12540
C22 C 0.4155(4) 0.5056(3) 0.07384(11)
C23 C 0.1749(5) 0.4218(5) 0.0784(2)
H23 H 0.13730 0.48760 0.06800
H24 H 0.11080 0.39740 0.10170
H25 H 0.17400 0.37210 0.05490
C24 C 0.7753(3) 0.6603(2) 0.26170(8)
H26 H 0.83800 0.60220 0.26440
C25 C 0.7163(3) 0.7095(2) 0.29856(8)
C26 C 0.6258(3) 0.7984(2) 0.29675(9)
H27 H 0.58950 0.83110 0.32180
C27 C 0.9123(3) 0.6997(2) 0.07562(9)
C28 C 1.0806(5) 0.7163(4) 0.01563(13)
H28 H 1.02490 0.77480 0.00430
H29 H 1.11990 0.67570 -0.00820
H30 H 1.16370 0.74060 0.03330
#END
