
#######################################################################
#
#                 Cambridge Crystallographic Data Centre
#                                CCDC
#
#######################################################################
#
# If this CIF has been generated from an entry in the Cambridge
# Structural Database, then it will include bibliographic, chemical,
# crystal, experimental, refinement or atomic coordinate data resulting
# from the CCDC's data processing and validation procedures.
#
#######################################################################

data_CSD_CIF_QUMYII
_audit_creation_date 2015-06-10
_audit_creation_method CSD-ConQuest-V1
_database_code_CSD QUMYII
_database_code_depnum_ccdc_archive 'CCDC 1013044'
_chemical_formula_sum 'C12 H13 N3 O7'
_chemical_formula_moiety
;
C12 H13 N3 O7
;
_journal_coden_Cambridge 1326
_journal_volume 17
_journal_year 2015
_journal_page_first 16983
_journal_name_full 'Phys.Chem.Chem.Phys.(PCCP) '
loop_
_publ_author_name
"S.Bera"
"D.K.S.Ambast"
"B.Pal"
"D.Haldar"
_chemical_name_systematic
;
methyl N-(3,5-dinitrobenzoyl)-2-methylalaninate
;
_cell_volume   1397.583
_exptl_crystal_colour 'colorless'
_exptl_crystal_density_diffrn 1.479
_exptl_crystal_description 'needle'
_diffrn_ambient_temperature 100
#These two values have been output from a single CSD field.
_refine_ls_R_factor_gt 0.0889
_refine_ls_wR_factor_gt 0.0889
_symmetry_cell_setting monoclinic
_symmetry_space_group_name_H-M 'P 21/c'
_symmetry_Int_Tables_number 14
loop_
_symmetry_equiv_pos_site_id
_symmetry_equiv_pos_as_xyz
1 x,y,z
2 -x,1/2+y,1/2-z
3 -x,-y,-z
4 x,-1/2-y,-1/2+z
_cell_length_a 10.056(10)
_cell_length_b 15.875(16)
_cell_length_c 9.709(9)
_cell_angle_alpha 90
_cell_angle_beta 115.617(15)
_cell_angle_gamma 90
_cell_formula_units_Z 4
loop_
_atom_type_symbol
_atom_type_radius_bond
C 0.68
H 0.23
N 0.68
O 0.68
loop_
_atom_site_label
_atom_site_type_symbol
_atom_site_fract_x
_atom_site_fract_y
_atom_site_fract_z
O1 O 1.0385(4) 0.1120(3) 1.2511(4)
O2 O 0.4192(6) 0.2756(3) 0.3910(5)
O3 O 0.8165(4) 0.2862(2) 1.0943(3)
O4 O 0.4137(6) 0.5880(3) 0.7681(5)
O5 O 0.6078(5) 0.5668(3) 0.9775(5)
O6 O 0.3123(5) 0.3961(3) 0.3453(4)
O7 O 0.8028(4) 0.0941(3) 1.0838(4)
N1 N 0.8439(4) 0.2206(2) 0.9041(4)
H1 H 0.81090 0.21480 0.80680
N2 N 0.3961(5) 0.3442(3) 0.4312(5)
N3 N 0.5201(5) 0.5458(3) 0.8499(5)
C1 C 1.0122(7) 0.0633(4) 1.3622(7)
H2 H 0.92840 0.08580 1.37270
H3 H 1.09740 0.06600 1.45890
H4 H 0.99330 0.00580 1.32910
C2 C 0.9230(6) 0.1225(3) 1.1157(5)
C3 C 0.9688(5) 0.1684(3) 1.0046(5)
C4 C 0.7800(5) 0.2765(3) 0.9581(5)
C5 C 0.6628(5) 0.3310(3) 0.8425(5)
C6 C 0.5804(5) 0.3094(3) 0.6909(5)
H5 H 0.59230 0.25690 0.65490
C7 C 0.4801(5) 0.3669(3) 0.5934(5)
C8 C 1.1066(6) 0.2222(4) 1.0825(6)
H6 H 1.12870 0.24930 1.00650
H7 H 1.18800 0.18710 1.14550
H8 H 1.09010 0.26410 1.14480
C9 C 0.6409(5) 0.4090(3) 0.8945(5)
H9 H 0.69410 0.42410 0.99640
C10 C 0.5393(5) 0.4634(3) 0.7930(5)
C11 C 0.4556(5) 0.4447(3) 0.6405(5)
H10 H 0.38710 0.48240 0.57400
C12 C 0.9931(6) 0.1016(4) 0.9057(6)
H11 H 0.90610 0.06760 0.85830
H12 H 1.07510 0.06670 0.96800
H13 H 1.01360 0.12840 0.82830
#END
