
#######################################################################
#
#                 Cambridge Crystallographic Data Centre
#                                CCDC
#
#######################################################################
#
# If this CIF has been generated from an entry in the Cambridge
# Structural Database, then it will include bibliographic, chemical,
# crystal, experimental, refinement or atomic coordinate data resulting
# from the CCDC's data processing and validation procedures.
#
#######################################################################

data_CSD_CIF_QUNDUZ
_audit_creation_date 2010-07-16
_audit_creation_method CSD-ConQuest-V1
_database_code_CSD QUNDUZ
_database_code_depnum_ccdc_archive 'CCDC 749563'
_chemical_formula_sum 'C22 H29 N1 O6'
_chemical_formula_moiety
;
C22 H29 N1 O6
;
_journal_coden_Cambridge 24
_journal_volume 50
_journal_year 2009
_journal_page_first 7152
_journal_name_full 'Tetrahedron Lett. '
loop_
_publ_author_name
"E.Marca"
"I.Delso"
"T.Tejero"
"J.T.Vazquez"
"R.L.Dorta"
"P.Merino"
_chemical_name_systematic
;
(2R,4S,6R)-2-Phenyl-6-((3aR,5R,5aS,8aS,8bR)-2,2,7,7-tetramethyl-tetrahydro-3aH
-bis[1,3]dioxolo[4,5-b:4',5'-d]pyran-5-yl)-7-oxa-1-azabicyclo[2.2.1]heptane
;
_cell_volume   1017.967
_exptl_crystal_colour 'colorless'
_exptl_crystal_density_diffrn 1.316
_exptl_special_details
;
Absolute configuration

;
_exptl_crystal_description 'prism'
_diffrn_ambient_temperature 293
#These two values have been output from a single CSD field.
_refine_ls_R_factor_gt 0.0409
_refine_ls_wR_factor_gt 0.0409
_symmetry_cell_setting monoclinic
_symmetry_space_group_name_H-M 'P 21'
_symmetry_Int_Tables_number 4
loop_
_symmetry_equiv_pos_site_id
_symmetry_equiv_pos_as_xyz
1 x,y,z
2 -x,1/2+y,-z
_cell_length_a 10.958
_cell_length_b 8.492
_cell_length_c 12.115
_cell_angle_alpha 90
_cell_angle_beta 115.45
_cell_angle_gamma 90
_cell_formula_units_Z 2
loop_
_atom_type_symbol
_atom_type_radius_bond
C 0.68
H 0.23
N 0.68
O 0.68
loop_
_atom_site_label
_atom_site_type_symbol
_atom_site_fract_x
_atom_site_fract_y
_atom_site_fract_z
N1 N 0.89262(19) -0.3759(2) 0.23702(17)
O1 O 0.93122(15) 0.04119(15) 0.17665(13)
O2 O 1.14985(16) 0.10431(17) 0.21093(14)
O3 O 0.99588(17) -0.43938(16) 0.20304(15)
O4 O 0.87856(16) 0.20015(16) 0.37596(15)
O5 O 1.21337(16) 0.10048(18) 0.41505(14)
O6 O 0.80511(17) -0.05313(17) 0.34619(18)
C1 C 0.6446(3) 0.1547(3) 0.2632(2)
H1 H 0.62140 0.25860 0.27880
H2 H 0.57220 0.08350 0.25230
H3 H 0.65910 0.15590 0.19050
C2 C 0.8627(3) -0.2225(3) 0.1697(2)
H4 H 0.76830 -0.19220 0.14520
C3 C 1.3392(3) 0.2643(3) 0.3353(3)
H5 H 1.37410 0.26640 0.27490
H6 H 1.41260 0.27350 0.41530
H7 H 1.27780 0.35060 0.32160
C4 C 0.7709(2) 0.1017(3) 0.3691(2)
C5 C 0.9966(2) 0.1044(3) 0.4163(2)
H8 H 1.04280 0.10280 0.50580
C6 C 0.7812(2) -0.4908(3) 0.1693(2)
H9 H 0.80760 -0.59080 0.21370
C7 C 1.2654(2) 0.1102(3) 0.3259(2)
C8 C 1.0343(2) 0.1542(3) 0.2264(2)
H10 H 1.00230 0.25500 0.18440
C9 C 0.9205(3) -0.4275(3) 0.0713(2)
H11 H 0.96900 -0.46650 0.02520
C10 C 0.9431(2) -0.0587(2) 0.3672(2)
H12 H 0.99090 -0.13790 0.42980
C11 C 0.6473(3) -0.4465(3) 0.1667(2)
C12 C 0.9571(2) -0.0975(2) 0.2517(2)
H13 H 1.05040 -0.13120 0.27430
C13 C 1.0862(2) 0.1786(3) 0.3639(2)
H14 H 1.09810 0.29110 0.38350
C14 C 0.7587(3) 0.1043(3) 0.4883(2)
H15 H 0.73450 0.20830 0.50270
H16 H 0.84370 0.07520 0.55370
H17 H 0.69030 0.03110 0.48450
C15 C 0.6430(3) -0.3900(3) 0.2727(2)
H18 H 0.72330 -0.37340 0.34210
C16 C 0.8886(3) -0.2524(2) 0.0558(2)
H19 H 0.80910 -0.23030 -0.01940
H20 H 0.96430 -0.19120 0.05790
C17 C 0.5255(3) -0.4707(3) 0.0664(2)
H21 H 0.52540 -0.50930 -0.00540
C18 C 0.4008(3) -0.3834(3) 0.1751(2)
H22 H 0.31880 -0.36300 0.17800
C19 C 0.5214(3) -0.3582(3) 0.2765(3)
H23 H 0.52060 -0.31940 0.34800
C20 C 1.3512(3) -0.0319(3) 0.3387(3)
H24 H 1.38680 -0.02780 0.27890
H25 H 1.29730 -0.12520 0.32620
H26 H 1.42440 -0.03400 0.41910
C21 C 0.7905(3) -0.5157(3) 0.0464(2)
H27 H 0.79750 -0.62640 0.03030
H28 H 0.71370 -0.46990 -0.02150
C22 C 0.4041(3) -0.4390(3) 0.0701(2)
H29 H 0.32360 -0.45540 0.00090
#END
