
#######################################################################
#
#                 Cambridge Crystallographic Data Centre
#                                CCDC
#
#######################################################################
#
# If this CIF has been generated from an entry in the Cambridge
# Structural Database, then it will include bibliographic, chemical,
# crystal, experimental, refinement or atomic coordinate data resulting
# from the CCDC's data processing and validation procedures.
#
#######################################################################

data_CSD_CIF_QUNDIO01
_audit_creation_date 2015-06-10
_audit_creation_method CSD-ConQuest-V1
_database_code_CSD QUNDIO01
_database_code_depnum_ccdc_archive 'CCDC 1401977'
_chemical_formula_sum 'C13 H8 N2 O5'
_chemical_formula_moiety
;
C13 H8 N2 O5
;
_journal_coden_Cambridge 1147
_journal_volume 15
_journal_year 2015
_journal_page_first 3280
_journal_name_full 'Cryst.Growth Des. '
loop_
_publ_author_name
"T.S.Thakur"
"Shiv Shankar Singh"
_chemical_name_systematic
;
3,3'-dinitrobenzophenone
;
_chemical_name_common
;
bis(3-nitrophenyl)methanone
;
_chemical_melting_point 427
_cell_volume    575.150
_exptl_crystal_colour 'colorless'
_exptl_crystal_density_diffrn 1.572
_exptl_special_details
;
polymorph II

;
_exptl_crystal_description 'block'
_exptl_crystal_preparation 'N, N-dimethylformamide'
_diffrn_ambient_temperature 100
_refine_special_details
;
multipole

;
#These two values have been output from a single CSD field.
_refine_ls_R_factor_gt 0.03
_refine_ls_wR_factor_gt 0.03
_symmetry_cell_setting triclinic
_symmetry_space_group_name_H-M 'P -1'
_symmetry_Int_Tables_number 2
loop_
_symmetry_equiv_pos_site_id
_symmetry_equiv_pos_as_xyz
1 x,y,z
2 -x,-y,-z
_cell_length_a 7.509(4)
_cell_length_b 7.967(5)
_cell_length_c 10.623(8)
_cell_angle_alpha 75.53(3)
_cell_angle_beta 83.95(5)
_cell_angle_gamma 69.20(3)
_cell_formula_units_Z 2
loop_
_atom_type_symbol
_atom_type_radius_bond
C 0.68
H 0.23
N 0.68
O 0.68
loop_
_atom_site_label
_atom_site_type_symbol
_atom_site_fract_x
_atom_site_fract_y
_atom_site_fract_z
O1 O 0.58336(7) 1.13156(6) 0.04893(4)
O2 O 1.10354(13) 0.86987(13) -0.23535(6)
O3 O 1.31600(13) 0.60059(12) -0.16827(10)
O4 O 0.37817(10) 0.47986(7) 0.40033(6)
O5 O 0.14096(12) 0.62418(10) 0.51130(8)
N1 N 1.17110(6) 0.72752(6) -0.15210(4)
N2 N 0.27887(5) 0.61829(4) 0.43767(3)
C1 C 0.80725(5) 0.83121(4) 0.11096(3)
C2 C 0.90077(5) 0.84621(4) -0.01023(3)
C3 C 1.07425(5) 0.71134(5) -0.02484(3)
C4 C 1.16060(6) 0.56218(5) 0.07589(4)
C5 C 1.06611(6) 0.54978(5) 0.19600(4)
C6 C 0.89129(5) 0.68322(4) 0.21371(3)
C7 C 0.62591(4) 0.98268(4) 0.12728(3)
C8 C 0.49882(4) 0.95558(4) 0.24307(3)
C9 C 0.45388(5) 0.79445(4) 0.28569(3)
C10 C 0.32838(5) 0.78597(4) 0.39122(3)
C11 C 0.25026(5) 0.92701(4) 0.45685(3)
C12 C 0.29863(5) 1.08566(4) 0.41368(3)
C13 C 0.42012(5) 1.10082(4) 0.30651(3)
H1 H 0.83799 0.96395 -0.08855
H2 H 1.30188 0.46990 0.05831
H3 H 1.12915 0.43611 0.27676
H4 H 0.82375 0.66588 0.30902
H5 H 0.51291 0.68434 0.23456
H6 H 0.15440 0.90963 0.53878
H7 H 0.24626 1.20130 0.45993
H8 H 0.45381 1.22602 0.27088
#END
