
#######################################################################
#
#                 Cambridge Crystallographic Data Centre
#                                CCDC
#
#######################################################################
#
# If this CIF has been generated from an entry in the Cambridge
# Structural Database, then it will include bibliographic, chemical,
# crystal, experimental, refinement or atomic coordinate data resulting
# from the CCDC's data processing and validation procedures.
#
#######################################################################

data_CSD_CIF_QUNFAH
_audit_creation_date 2010-07-16
_audit_creation_method CSD-ConQuest-V1
_database_code_CSD QUNFAH
_database_code_depnum_ccdc_archive 'CCDC 749564'
_chemical_formula_sum 'C19 H25 N1 O5'
_chemical_formula_moiety
;
C19 H25 N1 O5
;
_journal_coden_Cambridge 24
_journal_volume 50
_journal_year 2009
_journal_page_first 7152
_journal_name_full 'Tetrahedron Lett. '
loop_
_publ_author_name
"E.Marca"
"I.Delso"
"T.Tejero"
"J.T.Vazquez"
"R.L.Dorta"
"P.Merino"
_chemical_name_systematic
;
(2S,4R,6R)-2-((3aR,6R,6aR)-6-methoxy-2,2-dimethyltetrahydrofuro[3,4-d][1,3]dio
xol-4-yl)-6-phenyl-7-oxa-1-azabicyclo[2.2.1]heptane
;
_chemical_melting_point 426
_cell_volume   1828.041
_exptl_crystal_colour 'colorless'
_exptl_crystal_density_diffrn 1.262
_exptl_crystal_description 'block'
_diffrn_ambient_temperature 150
#These two values have been output from a single CSD field.
_refine_ls_R_factor_gt 0.0388
_refine_ls_wR_factor_gt 0.0388
loop_
_citation_database_id_CSD
_citation_special_details
QUNFEL "is a stereoisomer of this entry"
QUNFOV "is a stereoisomer of this entry"
_symmetry_cell_setting orthorhombic
_symmetry_space_group_name_H-M 'P 21 21 21'
_symmetry_Int_Tables_number 19
loop_
_symmetry_equiv_pos_site_id
_symmetry_equiv_pos_as_xyz
1 x,y,z
2 1/2-x,-y,1/2+z
3 1/2+x,1/2-y,-z
4 -x,1/2+y,1/2-z
_cell_length_a 10.2044(3)
_cell_length_b 10.3671(3)
_cell_length_c 17.2799(5)
_cell_angle_alpha 90
_cell_angle_beta 90
_cell_angle_gamma 90
_cell_formula_units_Z 4
loop_
_atom_type_symbol
_atom_type_radius_bond
C 0.68
H 0.23
N 0.68
O 0.68
loop_
_atom_site_label
_atom_site_type_symbol
_atom_site_fract_x
_atom_site_fract_y
_atom_site_fract_z
N1 N 1.49059(12) 0.00125(13) 0.87916(8)
O1 O 1.37216(11) -0.02036(12) 0.92451(6)
O2 O 1.73175(11) -0.05158(11) 1.03435(6)
O3 O 1.74723(13) 0.09237(12) 1.13704(7)
O4 O 1.95760(13) 0.1336(2) 0.98014(8)
O5 O 1.80859(12) 0.07593(16) 0.88985(7)
C1 C 1.7082(2) -0.0007(2) 1.19246(12)
H1 H 1.66460 0.04150 1.23470
H2 H 1.78410 -0.04530 1.21150
H3 H 1.64950 -0.06140 1.16880
C2 C 1.81088(18) 0.03847(18) 1.0731(1)
H4 H 1.89380 -0.00120 1.08890
C3 C 1.83527(18) 0.1465(2) 1.01649(11)
H5 H 1.82530 0.23130 1.04090
C4 C 1.73391(17) 0.12520(18) 0.95231(10)
H6 H 1.68590 0.20390 0.93890
C5 C 1.64637(15) 0.02068(16) 0.98452(10)
H7 H 1.57640 0.06000 1.01540
C6 C 1.94078(19) 0.1081(2) 0.90066(11)
C7 C 1.9746(2) 0.2248(2) 0.85457(13)
H8 H 2.06510 0.24610 0.86250
H9 H 1.92070 0.29580 0.87080
H10 H 1.95960 0.20790 0.80070
C8 C 2.0254(3) -0.0055(3) 0.87794(17)
H11 H 2.11610 0.01680 0.88440
H12 H 2.00920 -0.02730 0.82480
H13 H 2.00480 -0.07800 0.91020
C9 C 1.58784(16) -0.07041(16) 0.92689(9)
H14 H 1.65690 -0.10550 0.89360
C10 C 1.50960(16) -0.18128(18) 0.96377(11)
H15 H 1.54580 -0.26480 0.95030
H16 H 1.50540 -0.17310 1.01960
C11 C 1.37833(19) -0.15994(19) 0.92687(11)
H17 H 1.30550 -0.20010 0.95490
C12 C 1.3827(2) -0.19332(17) 0.84206(12)
H18 H 1.29540 -0.19790 0.81990
H19 H 1.42790 -0.27430 0.83310
C13 C 1.46075(16) -0.07773(16) 0.80946(9)
H20 H 1.54300 -0.10910 0.78700
C14 C 1.38624(17) -0.00452(18) 0.74916(9)
C15 C 1.32670(19) 0.11234(19) 0.7631(1)
H21 H 1.33660 0.15190 0.81100
C16 C 1.2525(2) 0.1712(2) 0.70657(12)
H22 H 1.21150 0.24950 0.71690
C17 C 1.2388(2) 0.1157(3) 0.63591(13)
H23 H 1.18790 0.15530 0.59820
C18 C 1.3000(2) 0.0015(3) 0.62026(12)
H24 H 1.29280 -0.03570 0.57150
C19 C 1.3722(2) -0.0581(2) 0.67684(11)
H25 H 1.41260 -0.13650 0.66610
#END
