
#######################################################################
#
#                 Cambridge Crystallographic Data Centre
#                                CCDC
#
#######################################################################
#
# If this CIF has been generated from an entry in the Cambridge
# Structural Database, then it will include bibliographic, chemical,
# crystal, experimental, refinement or atomic coordinate data resulting
# from the CCDC's data processing and validation procedures.
#
#######################################################################

data_CSD_CIF_QUNFOV
_audit_creation_date 2010-07-16
_audit_creation_method CSD-ConQuest-V1
_database_code_CSD QUNFOV
_database_code_depnum_ccdc_archive 'CCDC 749567'
_chemical_formula_sum 'C19 H25 N1 O5'
_chemical_formula_moiety
;
C19 H25 N1 O5
;
_journal_coden_Cambridge 24
_journal_volume 50
_journal_year 2009
_journal_page_first 7152
_journal_name_full 'Tetrahedron Lett. '
loop_
_publ_author_name
"E.Marca"
"I.Delso"
"T.Tejero"
"J.T.Vazquez"
"R.L.Dorta"
"P.Merino"
_chemical_name_systematic
;
(2R,4S,6S)-2-((3aR,6R,6aR)-6-methoxy-2,2-dimethyl-tetrahydrofuro[3,4-d][1,3]di
oxol-4-yl)-6-phenyl-7-oxa-1-azabicyclo[2.2.1]heptane
;
_chemical_melting_point 351
_cell_volume    863.539
_exptl_crystal_colour 'colorless'
_exptl_crystal_density_diffrn 1.336
_exptl_crystal_description 'plate'
_diffrn_ambient_temperature 150
#These two values have been output from a single CSD field.
_refine_ls_R_factor_gt 0.0533
_refine_ls_wR_factor_gt 0.0533
loop_
_citation_database_id_CSD
_citation_special_details
QUNFAH "is a stereoisomer of this entry"
QUNFEL "is a stereoisomer of this entry"
_symmetry_cell_setting monoclinic
_symmetry_space_group_name_H-M 'P 21'
_symmetry_Int_Tables_number 4
loop_
_symmetry_equiv_pos_site_id
_symmetry_equiv_pos_as_xyz
1 x,y,z
2 -x,1/2+y,-z
_cell_length_a 5.7275(2)
_cell_length_b 9.1802(3)
_cell_length_c 16.4767(6)
_cell_angle_alpha 90
_cell_angle_beta 94.607(4)
_cell_angle_gamma 90
_cell_formula_units_Z 2
loop_
_atom_type_symbol
_atom_type_radius_bond
C 0.68
H 0.23
N 0.68
O 0.68
loop_
_atom_site_label
_atom_site_type_symbol
_atom_site_fract_x
_atom_site_fract_y
_atom_site_fract_z
N1 N 0.6508(3) 0.4882(2) 0.25802(11)
O1 O 0.5069(2) 0.79244(17) 0.26245(9)
O2 O 0.2256(3) 0.77549(19) 0.15218(10)
O3 O 0.2338(3) 0.82142(17) 0.41849(9)
O4 O 0.1285(3) 0.98946(17) 0.32384(9)
O5 O 0.7696(3) 0.44946(18) 0.33661(10)
C1 C 0.3079(4) 0.8553(3) 0.22113(14)
H1 H 0.34320 0.95760 0.20520
C2 C 0.1193(4) 0.8551(3) 0.28037(14)
H2 H -0.03980 0.83450 0.25330
C3 C 0.1980(4) 0.7403(3) 0.34441(14)
H3 H 0.08080 0.66040 0.34800
C4 C 0.4326(4) 0.6853(2) 0.31869(14)
H4 H 0.54720 0.68590 0.36780
C5 C 0.3936(5) 0.7676(3) 0.09392(15)
H5 H 0.33010 0.71050 0.04700
H6 H 0.53610 0.72070 0.11830
H7 H 0.43110 0.86610 0.07610
C6 C 0.1119(4) 0.9551(3) 0.40744(14)
C7 C -0.1405(4) 0.9382(3) 0.42577(16)
H8 H -0.14770 0.91360 0.48340
H9 H -0.21350 0.86020 0.39200
H10 H -0.22430 1.02980 0.41390
C8 C 0.2349(4) 1.0706(3) 0.45862(16)
H11 H 0.22490 1.04770 0.51630
H12 H 0.16070 1.16510 0.44630
H13 H 0.39980 1.07480 0.44680
C9 C 0.4197(4) 0.5318(2) 0.28540(14)
H14 H 0.29420 0.52350 0.23980
C10 C 0.3762(4) 0.4240(3) 0.35416(15)
H15 H 0.35070 0.47520 0.40560
H16 H 0.24110 0.35960 0.33910
C11 C 0.6046(4) 0.3404(3) 0.36048(15)
H17 H 0.64620 0.29640 0.41530
C12 C 0.6083(5) 0.2342(3) 0.29076(15)
H18 H 0.46410 0.17440 0.28490
H19 H 0.74700 0.16960 0.29680
C13 C 0.6217(4) 0.3420(2) 0.21878(14)
H20 H 0.46820 0.34020 0.18530
C14 C 0.8136(4) 0.3081(3) 0.16391(14)
C15 C 0.9354(4) 0.4168(3) 0.12780(15)
H21 H 0.90410 0.51600 0.13940
C16 C 1.1027(5) 0.3828(3) 0.07481(16)
H22 H 1.18670 0.45830 0.05060
C17 C 1.1476(5) 0.2391(4) 0.05704(16)
H23 H 1.26150 0.21560 0.02030
C18 C 1.0275(5) 0.1305(3) 0.09244(16)
H24 H 1.05810 0.03150 0.08040
C19 C 0.8622(5) 0.1652(3) 0.14556(15)
H25 H 0.78000 0.08920 0.17010
#END
