
#######################################################################
#
#                 Cambridge Crystallographic Data Centre
#                                CCDC
#
#######################################################################
#
# If this CIF has been generated from an entry in the Cambridge
# Structural Database, then it will include bibliographic, chemical,
# crystal, experimental, refinement or atomic coordinate data resulting
# from the CCDC's data processing and validation procedures.
#
#######################################################################

data_CSD_CIF_QUNRIC01
_audit_creation_date 2016-05-13
_audit_creation_method CSD-ConQuest-V1
_database_code_CSD QUNRIC01
_database_code_depnum_ccdc_archive 'CCDC 1420551'
_chemical_formula_sum 'C12 H10 N4 O7'
_chemical_formula_moiety
;
C12 H10 N4 O7
;
_journal_coden_Cambridge 1220
_journal_volume 22
_journal_year 2016
_journal_page_first 5734
_journal_name_full 'Chem.-Eur.J. '
loop_
_publ_author_name
"A.Schade"
"K.Schreiter"
"T.Ruffer"
"Heinrich Lang"
"Stefan Spange"
_chemical_name_systematic
;
5-(2,4-dinitrophenyl)-1,3-dimethylpyrimidine-2,4,6(1H,3H,5H)-trione
;
_cell_volume   1296.511
_exptl_crystal_colour 'yellow'
_exptl_crystal_density_diffrn 1.651
_exptl_special_details
;
monoclinic polymorph

;
_exptl_crystal_description 'block'
_diffrn_ambient_temperature 115
#These two values have been output from a single CSD field.
_refine_ls_R_factor_gt 0.0335
_refine_ls_wR_factor_gt 0.0335
_symmetry_cell_setting monoclinic
_symmetry_space_group_name_H-M 'P 21/c'
_symmetry_Int_Tables_number 14
loop_
_symmetry_equiv_pos_site_id
_symmetry_equiv_pos_as_xyz
1 x,y,z
2 -x,1/2+y,1/2-z
3 -x,-y,-z
4 x,-1/2-y,-1/2+z
_cell_length_a 8.0585(6)
_cell_length_b 16.316(4)
_cell_length_c 10.532(3)
_cell_angle_alpha 90
_cell_angle_beta 110.567(16)
_cell_angle_gamma 90
_cell_formula_units_Z 4
loop_
_atom_type_symbol
_atom_type_radius_bond
C 0.68
H 0.23
N 0.68
O 0.68
loop_
_atom_site_label
_atom_site_type_symbol
_atom_site_fract_x
_atom_site_fract_y
_atom_site_fract_z
C1 C 0.3985(2) 0.00438(11) 0.69469(17)
C2 C 0.2760(2) 0.02496(11) 0.56976(17)
H1 H 0.27080 -0.00290 0.49140
C3 C 0.1612(2) 0.08871(11) 0.56594(17)
C4 C 0.1651(2) 0.13248(11) 0.68111(16)
C5 C 0.2929(2) 0.10906(11) 0.80374(17)
H2 H 0.30020 0.13710 0.88240
C6 C 0.4093(2) 0.04514(11) 0.81172(17)
H3 H 0.49310 0.03010 0.89460
C7 C 0.0421(2) 0.27163(11) 0.58307(17)
C8 C 0.0453(2) 0.20341(11) 0.68165(16)
H4 H 0.09790 0.22810 0.77180
C9 C -0.1378(2) 0.17557(11) 0.67339(16)
C10 C -0.2396(2) 0.31527(11) 0.60195(16)
C11 C -0.0764(2) 0.41012(11) 0.51212(19)
H5 H -0.17880 0.44210 0.50640
H6 H -0.06900 0.40480 0.42350
H7 H 0.02830 0.43680 0.57140
C12 C -0.4290(2) 0.22170(13) 0.6696(2)
H8 H -0.50100 0.27020 0.64900
H9 H -0.40510 0.20640 0.76240
H10 H -0.49060 0.17790 0.61120
N1 N 0.52281(18) -0.06336(10) 0.70266(16)
N2 N 0.03288(18) 0.10940(9) 0.43114(14)
N3 N -0.09122(17) 0.32830(9) 0.56579(14)
N4 N -0.26100(17) 0.23788(9) 0.64870(14)
O1 O 0.64736(16) -0.07244(9) 0.80892(13)
O2 O 0.49400(17) -0.10677(9) 0.60193(14)
O3 O 0.06826(18) 0.08883(10) 0.33283(13)
O4 O -0.10372(14) 0.14608(8) 0.42375(12)
O5 O 0.15231(14) 0.27845(7) 0.52998(12)
O6 O -0.16897(15) 0.10581(8) 0.69682(12)
O7 O -0.34952(15) 0.36847(8) 0.58634(12)
H11? H 0.03240 0.41370 0.49450
H12? H -0.07730 0.45100 0.57740
H13? H -0.17460 0.41900 0.42940
H14? H -0.43010 0.16620 0.69940
H15? H -0.52600 0.22990 0.58600
H16? H -0.44060 0.25850 0.73720
#END
