
#######################################################################
#
#                 Cambridge Crystallographic Data Centre
#                                CCDC
#
#######################################################################
#
# If this CIF has been generated from an entry in the Cambridge
# Structural Database, then it will include bibliographic, chemical,
# crystal, experimental, refinement or atomic coordinate data resulting
# from the CCDC's data processing and validation procedures.
#
#######################################################################

data_CSD_CIF_QUQWUV
_audit_creation_date 2010-11-24
_audit_creation_method CSD-ConQuest-V1
_database_code_CSD QUQWUV
_database_code_depnum_ccdc_archive 'CCDC 765436'
_chemical_formula_sum 'C18 H27 N1 O4'
_chemical_formula_moiety
;
C18 H27 N1 O4
;
_journal_coden_Cambridge 1220
_journal_volume 16
_journal_year 2010
_journal_page_first 7030
_journal_name_full 'Chem.-Eur.J. '
loop_
_publ_author_name
"Ying-Fang Ting"
"Chihliang Chang"
"R.J.Reddy"
"D.R.Magar"
"Kwunmin Chen"
_chemical_name_systematic
;
6-(2-Hydroxypropan-2-yl)-3-methyl-2-(2-nitro-1-phenylethyl)cyclohexanol
;
_chemical_melting_point 428.15
_cell_volume   5329.129
_exptl_crystal_colour 'colorless'
_exptl_crystal_density_diffrn 1.202
_exptl_crystal_description 'prism'
_diffrn_ambient_temperature 200
#These two values have been output from a single CSD field.
_refine_ls_R_factor_gt 0.0499
_refine_ls_wR_factor_gt 0.0499
_symmetry_cell_setting orthorhombic
_symmetry_space_group_name_H-M 'P 21 21 21'
_symmetry_Int_Tables_number 19
loop_
_symmetry_equiv_pos_site_id
_symmetry_equiv_pos_as_xyz
1 x,y,z
2 1/2-x,-y,1/2+z
3 -x,1/2+y,1/2-z
4 1/2+x,1/2-y,-z
_cell_length_a 9.6849(7)
_cell_length_b 18.6629(11)
_cell_length_c 29.4837(19)
_cell_angle_alpha 90
_cell_angle_beta 90
_cell_angle_gamma 90
_cell_formula_units_Z 12
loop_
_atom_type_symbol
_atom_type_radius_bond
C 0.68
H 0.23
N 0.68
O 0.68
loop_
_atom_site_label
_atom_site_type_symbol
_atom_site_fract_x
_atom_site_fract_y
_atom_site_fract_z
C1 C 0.1426(3) 0.51992(14) 0.61879(10)
H1 H 0.22170 0.52800 0.63940
H2 H 0.07040 0.49350 0.63570
C2 C 0.0857(3) 0.59163(14) 0.60259(10)
H3 H 0.00240 0.58160 0.58360
C3 C 0.1923(3) 0.62928(15) 0.57244(11)
C4 C 0.3248(3) 0.64305(18) 0.58813(13)
H4 H 0.34800 0.63230 0.61870
C5 C 0.4245(4) 0.67273(19) 0.55928(17)
H5 H 0.51500 0.68230 0.57010
C6 C 0.3897(6) 0.6878(2) 0.51500(18)
H6 H 0.45720 0.70680 0.49500
C7 C 0.2587(6) 0.6757(2) 0.49977(15)
H7 H 0.23450 0.68810 0.46960
C8 C 0.1619(4) 0.64564(17) 0.52781(11)
H8 H 0.07220 0.63590 0.51640
C9 C 0.0396(3) 0.63955(14) 0.64278(10)
H9 H 0.12580 0.65970 0.65640
C10 C -0.0472(3) 0.70431(15) 0.62679(11)
H10 H 0.01530 0.73580 0.60850
C11 C -0.1721(4) 0.68690(17) 0.59696(12)
H11 H -0.21910 0.73140 0.58850
H12 H -0.23600 0.65600 0.61380
H13 H -0.14110 0.66210 0.56950
C12 C -0.0939(4) 0.74810(15) 0.66832(11)
H14 H -0.01180 0.76920 0.68320
H15 H -0.15350 0.78800 0.65800
C13 C -0.1727(3) 0.70335(15) 0.70274(11)
H16 H -0.25630 0.68290 0.68840
H17 H -0.20220 0.73400 0.72840
C14 C -0.0808(3) 0.64309(14) 0.72014(10)
H18 H 0.00400 0.66690 0.73230
C15 C -0.0316(3) 0.59599(14) 0.68054(10)
H19 H 0.03840 0.56180 0.69290
C16 C -0.1406(3) 0.59882(15) 0.76006(10)
C17 C -0.1815(4) 0.64687(18) 0.79937(12)
H20 H -0.21800 0.61750 0.82420
H21 H -0.25250 0.68070 0.78930
H22 H -0.10040 0.67340 0.81000
C18 C -0.0369(3) 0.54280(18) 0.77659(12)
H23 H -0.01070 0.51160 0.75130
H24 H -0.07910 0.51390 0.80070
H25 H 0.04540 0.56690 0.78840
N1 N 0.1879(3) 0.47709(14) 0.57893(10)
O1 O 0.1017(3) 0.45613(14) 0.55190(9)
O2 O 0.3107(2) 0.46699(14) 0.57328(9)
O3 O -0.1411(2) 0.55395(10) 0.66102(7)
H26 H -0.21550 0.56300 0.67450
O4 O -0.2608(2) 0.56229(11) 0.74306(7)
H27 H -0.29450 0.53660 0.76370
C19 C 0.4020(3) 0.51076(14) 0.77119(10)
H28 H 0.32050 0.50550 0.79120
H29 H 0.47760 0.53220 0.78930
C20 C 0.4467(3) 0.43660(14) 0.75411(10)
H30 H 0.52760 0.44360 0.73350
C21 C 0.3312(3) 0.40197(15) 0.72631(10)
C22 C 0.3536(4) 0.37908(16) 0.68219(11)
H31 H 0.44200 0.38540 0.66890
C23 C 0.2487(4) 0.34705(17) 0.65712(13)
H32 H 0.26650 0.33030 0.62730
C24 C 0.1205(4) 0.33974(16) 0.67548(13)
H33 H 0.04840 0.31890 0.65810
C25 C 0.0948(4) 0.36240(17) 0.71904(13)
H34 H 0.00520 0.35720 0.73170
C26 C 0.2009(3) 0.39315(15) 0.74457(11)
H35 H 0.18330 0.40810 0.77480
C27 C 0.4936(3) 0.38668(14) 0.79352(10)
H36 H 0.40680 0.36810 0.80760
C28 C 0.5702(3) 0.31982(15) 0.77465(11)
H37 H 0.50170 0.29200 0.75640
C29 C 0.6927(4) 0.3360(2) 0.74328(12)
H38 H 0.73430 0.29100 0.73310
H39 H 0.76170 0.36420 0.75980
H40 H 0.66040 0.36330 0.71690
C30 C 0.6154(4) 0.27188(16) 0.81387(12)
H41 H 0.66810 0.23070 0.80180
H42 H 0.53260 0.25290 0.82950
C31 C 0.7050(4) 0.31251(16) 0.84811(11)
H43 H 0.73580 0.27940 0.87230
H44 H 0.78790 0.33180 0.83270
C32 C 0.6220(3) 0.37392(14) 0.86884(10)
H45 H 0.53620 0.35110 0.88100
C33 C 0.5721(3) 0.42500(14) 0.83171(10)
H46 H 0.50870 0.46090 0.84580
C34 C 0.6886(3) 0.41217(15) 0.91011(10)
C35 C 0.5810(3) 0.45294(19) 0.93630(11)
H47 H 0.53340 0.48630 0.91600
H48 H 0.62550 0.47980 0.96080
H49 H 0.51400 0.41930 0.94920
C36 C 0.7635(5) 0.36080(19) 0.94180(13)
H50 H 0.83330 0.33410 0.92470
H51 H 0.69690 0.32720 0.95500
H52 H 0.80840 0.38800 0.96610
N2 N 0.3667(3) 0.55996(14) 0.73232(11)
O5 O 0.2803(3) 0.60666(13) 0.73988(10)
O6 O 0.4237(3) 0.55209(12) 0.69595(9)
O7 O 0.6881(2) 0.46275(10) 0.81263(7)
H53 H 0.66020 0.49120 0.79250
O8 O 0.7905(2) 0.46193(12) 0.89307(7)
H54 H 0.82640 0.48410 0.91490
C37 C 0.1473(3) 0.49431(14) 0.93321(10)
H55 H 0.21910 0.48860 0.95680
H56 H 0.06020 0.47380 0.94510
C38 C 0.1265(3) 0.57399(14) 0.92331(10)
H57 H 0.05210 0.57880 0.90000
C39 C 0.2571(3) 0.60814(14) 0.90462(10)
C40 C 0.2583(4) 0.63896(16) 0.86158(11)
H58 H 0.17770 0.63690 0.84320
C41 C 0.3769(5) 0.67285(19) 0.84517(14)
H59 H 0.37530 0.69550 0.81630
C42 C 0.4960(4) 0.67344(19) 0.87074(16)
H60 H 0.57740 0.69530 0.85920
C43 C 0.4969(4) 0.64253(18) 0.91281(14)
H61 H 0.57880 0.64330 0.93050
C44 C 0.3786(3) 0.61005(16) 0.92982(12)
H62 H 0.38070 0.58880 0.95910
C45 C 0.0787(3) 0.61375(14) 0.96719(10)
H63 H 0.15860 0.61150 0.98860
C46 C 0.0529(3) 0.69466(14) 0.95819(10)
H64 H 0.14300 0.71580 0.94840
C47 C -0.0519(4) 0.71104(17) 0.92085(11)
H65 H -0.02340 0.68740 0.89270
H66 H -0.05660 0.76290 0.91600
H67 H -0.14300 0.69330 0.92990
C48 C 0.0142(3) 0.73041(14) 1.00260(11)
H68 H -0.00370 0.78190 0.99700
H69 H 0.09300 0.72680 1.02390
C49 C -0.1133(3) 0.69679(14) 1.02455(11)
H70 H -0.19350 0.70170 1.00400
H71 H -0.13500 0.72210 1.05320
C50 C -0.0870(3) 0.61730(14) 1.03434(10)
H72 H -0.00650 0.61570 1.05550
C51 C -0.0416(3) 0.57719(14) 0.99168(10)
H73 H -0.00920 0.52860 1.00130
C52 C -0.2081(3) 0.58049(16) 1.05973(11)
C53 C -0.2442(3) 0.61817(17) 1.10393(11)
H74 H -0.26180 0.66900 1.09790
H75 H -0.16700 0.61360 1.12520
H76 H -0.32690 0.59620 1.11710
C54 C -0.1798(4) 0.50236(17) 1.06930(12)
H77 H -0.15490 0.47800 1.04100
H78 H -0.26270 0.48010 1.08210
H79 H -0.10360 0.49830 1.09100
N3 N 0.1900(3) 0.45387(13) 0.89129(10)
O9 O 0.1450(3) 0.47191(12) 0.85465(8)
O10 O 0.2662(3) 0.40228(13) 0.89625(9)
O11 O -0.1537(2) 0.56689(10) 0.95980(7)
H80 H -0.22010 0.54670 0.97300
O12 O -0.3259(2) 0.58671(12) 1.02924(8)
H81 H -0.39470 0.56650 1.04090
#END
