
#######################################################################
#
#                 Cambridge Crystallographic Data Centre
#                                CCDC
#
#######################################################################
#
# If this CIF has been generated from an entry in the Cambridge
# Structural Database, then it will include bibliographic, chemical,
# crystal, experimental, refinement or atomic coordinate data resulting
# from the CCDC's data processing and validation procedures.
#
#######################################################################

data_CSD_CIF_QURWAB
_audit_creation_date 2002-02-05
_audit_creation_method CSD-ConQuest-V1
_database_code_CSD QURWAB
_database_code_depnum_ccdc_archive 'CCDC 176045'
_chemical_formula_sum 'C15 H28 N4 O4'
_chemical_formula_moiety
;
C15 H28 N4 O4
;
_journal_coeditor_code "IUCr OM6063"
_journal_coden_Cambridge 1370
_journal_volume 57
_journal_year 2001
_journal_page_first o1128
_journal_name_full 'Acta Crystallogr.,Sect.E:Struct.Rep.Online '
loop_
_publ_author_name
"J.L.Flippen-Anderson"
"T.Axenrod"
"Jianguang Sun"
"R.D.Gilardi"
_chemical_name_systematic
;
3,7-Di-t-butyl-1,5-dinitro-3,7-diazabicyclo(3.3.1)nonane
;
_cell_volume   3568.354
_exptl_crystal_colour 'colorless'
_exptl_crystal_density_diffrn 1.223
_exptl_crystal_description 'plate'
_diffrn_ambient_temperature 293
_refine_special_details
;
The O atoms of one nitro group are disordered over two sites with occupancies 
0.66:0.34.
;
#These two values have been output from a single CSD field.
_refine_ls_R_factor_gt 0.064
_refine_ls_wR_factor_gt 0.064
_symmetry_cell_setting monoclinic
_symmetry_space_group_name_H-M 'P 21/n'
_symmetry_Int_Tables_number 14
loop_
_symmetry_equiv_pos_site_id
_symmetry_equiv_pos_as_xyz
1 x,y,z
2 1/2+x,1/2-y,1/2+z
3 -x,-y,-z
4 -1/2-x,-1/2+y,-1/2-z
_cell_length_a 11.9782(2)
_cell_length_b 9.9382(1)
_cell_length_c 30.5174(4)
_cell_angle_alpha 90
_cell_angle_beta 100.812(1)
_cell_angle_gamma 90
_cell_formula_units_Z 8
loop_
_atom_type_symbol
_atom_type_radius_bond
C 0.68
H 0.23
N 0.68
O 0.68
loop_
_atom_site_label
_atom_site_type_symbol
_atom_site_fract_x
_atom_site_fract_y
_atom_site_fract_z
C1 C 0.83944(16) 0.5913(2) 0.14230(7)
N1 N 0.95918(15) 0.5579(2) 0.16679(7)
O1 O 0.97063(15) 0.4675(2) 0.19359(7)
O2 O 1.03794(17) 0.6216(3) 0.15866(10)
C2 C 0.79255(17) 0.4631(2) 0.11731(7)
H1 H 0.83740 0.44000 0.09500
H2 H 0.79570 0.38850 0.13800
N2 N 0.67561(14) 0.48948(16) 0.09611(5)
C3 C 0.67060(19) 0.5974(2) 0.06361(7)
H3 H 0.59260 0.61250 0.04880
H4 H 0.71480 0.57360 0.04120
C4 C 0.71908(19) 0.7253(2) 0.08847(7)
N3 N 0.7107(2) 0.8363(2) 0.05395(7)
O3 O 0.6212(2) 0.8526(3) 0.02938(10)
O4 O 0.7925(2) 0.9024(3) 0.05126(9)
C5 C 0.64818(19) 0.7680(2) 0.12365(7)
H5 H 0.61980 0.85880 0.11730
H6 H 0.58350 0.70840 0.12210
N4 N 0.71785(14) 0.76288(15) 0.16843(5)
C6 C 0.76895(17) 0.63034(19) 0.17792(7)
H7 H 0.70970 0.56410 0.17820
H8 H 0.81770 0.63100 0.20710
C7 C 0.84245(18) 0.7043(2) 0.10969(7)
H9 H 0.88700 0.67950 0.08750
H10 H 0.87440 0.78510 0.12490
C8 C 0.60524(19) 0.3679(2) 0.08069(7)
C9 C 0.4825(2) 0.4118(3) 0.06512(10)
H11 H 0.47620 0.46210 0.03790
H12 H 0.45930 0.46710 0.08760
H13 H 0.43450 0.33380 0.06000
C10 C 0.6482(3) 0.2945(3) 0.04321(11)
H14 H 0.65020 0.35580 0.01910
H15 H 0.59810 0.22110 0.03280
H16 H 0.72330 0.26050 0.05410
C11 C 0.6073(3) 0.2750(3) 0.1208(1)
H17 H 0.68100 0.23440 0.12880
H18 H 0.55090 0.20600 0.11320
H19 H 0.59130 0.32630 0.14550
C12 C 0.66080(17) 0.8145(2) 0.20441(7)
C13 C 0.6188(3) 0.9569(3) 0.19258(10)
H20 H 0.55590 0.95400 0.16800
H21 H 0.67920 1.00920 0.18450
H22 H 0.59490 0.99730 0.21790
C14 C 0.7496(2) 0.8238(3) 0.24764(8)
H23 H 0.81470 0.87270 0.24210
H24 H 0.77240 0.73480 0.25790
H25 H 0.71740 0.86970 0.27000
C15 C 0.5629(2) 0.7257(3) 0.21249(10)
H26 H 0.50970 0.71410 0.18500
H27 H 0.52550 0.76750 0.23420
H28 H 0.59200 0.63950 0.22340
C16 C 0.1409(2) 0.2309(2) 0.08824(7)
N5 N 0.1218(2) 0.3469(3) 0.05507(8)
O5 O 0.1967(4) 0.3735(5) 0.03516(16)
O6 O 0.0296(4) 0.4085(5) 0.05044(17)
O7? O 0.0843(11) 0.4464(13) 0.0648(4)
O8? O 0.1547(10) 0.3387(12) 0.0200(4)
C17 C 0.1493(3) -0.1915(4) 0.03585(12)
H29 H 0.07730 -0.20960 0.04410
H30 H 0.18070 -0.27370 0.02690
H31 H 0.13890 -0.12880 0.01150
C18 C 0.1610(2) 0.1047(2) 0.06200(7)
H32 H 0.09500 0.08670 0.03900
H33 H 0.22610 0.11790 0.04780
N6 N 0.18150(15) -0.00794(17) 0.09286(6)
C19 C 0.08313(17) -0.0312(2) 0.11364(7)
H34 H 0.09670 -0.10780 0.13360
H35 H 0.01650 -0.04980 0.09100
C20 C 0.06445(17) 0.0962(2) 0.13970(7)
N7 N -0.03516(17) 0.0648(2) 0.16273(8)
O9 O -0.02339(17) -0.0237(2) 0.19057(7)
O10 O -0.1221(2) 0.1252(3) 0.15154(12)
C21 C 0.16799(18) 0.1288(2) 0.17632(7)
H36 H 0.14570 0.12720 0.20530
H37 H 0.22630 0.06120 0.17630
N8 N 0.21343(14) 0.26158(16) 0.16863(6)
C22 C 0.24474(19) 0.2660(2) 0.12463(7)
H38 H 0.30550 0.20230 0.12350
H39 H 0.27210 0.35520 0.11920
C23 C 0.03539(19) 0.2131(2) 0.10824(8)
H40 H 0.01980 0.29340 0.12410
H41 H -0.03020 0.19290 0.08530
C24 C 0.2297(2) -0.1321(2) 0.07527(8)
C25 C 0.2563(3) -0.2341(3) 0.11302(12)
H42 H 0.29310 -0.18960 0.13980
H43 H 0.30570 -0.30250 0.10520
H44 H 0.18700 -0.27470 0.11790
C26 C 0.3422(2) -0.0938(3) 0.06174(10)
H45 H 0.38650 -0.04010 0.08480
H46 H 0.32720 -0.04330 0.03450
H47 H 0.38360 -0.17400 0.05750
C27 C 0.30185(17) 0.3110(2) 0.20612(7)
C28 C 0.2497(2) 0.3203(3) 0.24807(8)
H48 H 0.17900 0.36840 0.24130
H49 H 0.30100 0.36690 0.27100
H50 H 0.23620 0.23130 0.25820
C29 C 0.3360(3) 0.4535(3) 0.19522(10)
H51 H 0.26890 0.50610 0.18510
H52 H 0.38080 0.44990 0.17230
H53 H 0.37960 0.49410 0.22150
C30 C 0.4067(2) 0.2201(3) 0.21579(10)
H54 H 0.43690 0.20840 0.18900
H55 H 0.38570 0.13400 0.22600
H56 H 0.46330 0.26070 0.23840
#END
