
#######################################################################
#
#                 Cambridge Crystallographic Data Centre
#                                CCDC
#
#######################################################################
#
# If this CIF has been generated from an entry in the Cambridge
# Structural Database, then it will include bibliographic, chemical,
# crystal, experimental, refinement or atomic coordinate data resulting
# from the CCDC's data processing and validation procedures.
#
#######################################################################

data_CSD_CIF_QUSWAE
_audit_creation_date 2015-11-02
_audit_creation_method CSD-ConQuest-V1
_database_code_CSD QUSWAE
_database_code_depnum_ccdc_archive 'CCDC 1408376'
_chemical_formula_sum 'C16 H22 N2 O10'
_chemical_formula_moiety
;
C16 H22 N2 O10
;
_journal_coden_Cambridge 9
_journal_volume 54
_journal_year 2015
_journal_page_first 9154
_journal_name_full 'Inorg.Chem. '
loop_
_publ_author_name
"T.Makela"
"E.Kalenius"
"K.Rissanen"
_chemical_name_systematic
;
18,19-Dinitro-2,3,5,6,8,9,11,12,14,15-decahydro-1,4,7,10,13,16-benzohexaoxacyc
lo-octadecine
;
_cell_volume   1851.646
_exptl_crystal_colour 'yellow'
_exptl_crystal_density_diffrn 1.443
_exptl_crystal_description 'block'
_diffrn_ambient_temperature 123
#These two values have been output from a single CSD field.
_refine_ls_R_factor_gt 0.0321
_refine_ls_wR_factor_gt 0.0321
_symmetry_cell_setting monoclinic
_symmetry_space_group_name_H-M 'P 21/n'
_symmetry_Int_Tables_number 14
loop_
_symmetry_equiv_pos_site_id
_symmetry_equiv_pos_as_xyz
1 x,y,z
2 1/2-x,1/2+y,1/2-z
3 -x,-y,-z
4 -1/2+x,-1/2-y,-1/2+z
_cell_length_a 8.06956(13)
_cell_length_b 8.80099(14)
_cell_length_c 26.2340(4)
_cell_angle_alpha 90
_cell_angle_beta 96.3681(14)
_cell_angle_gamma 90
_cell_formula_units_Z 4
loop_
_atom_type_symbol
_atom_type_radius_bond
C 0.68
H 0.23
N 0.68
O 0.68
loop_
_atom_site_label
_atom_site_type_symbol
_atom_site_fract_x
_atom_site_fract_y
_atom_site_fract_z
O1 O 0.39637(10) 1.00518(10) 0.21654(3)
O2 O 0.15959(11) 1.05045(12) 0.29220(3)
O3 O 0.21693(10) 0.84747(11) 0.37967(3)
O4 O 0.43952(11) 0.6166(1) 0.41052(3)
O5 O 0.70588(10) 0.68982(11) 0.34383(3)
O6 O 0.6698(1) 0.86774(9) 0.24828(3)
O7 O 0.25729(14) 0.80699(16) 0.03391(4)
O8 O 0.50504(15) 0.83465(15) 0.01066(4)
O9 O 0.61645(14) 0.55917(12) 0.05275(4)
O10 O 0.85763(14) 0.64520(17) 0.08362(5)
N1 N 0.40832(15) 0.81933(13) 0.04297(4)
N2 N 0.70594(14) 0.64390(14) 0.08046(4)
C1 C 0.46484(14) 0.92331(13) 0.18075(5)
C2 C 0.61709(14) 0.84964(13) 0.19804(5)
C3 C 0.69694(14) 0.76311(14) 0.16392(5)
H1 H 0.79720 0.71480 0.17480
C4 C 0.62627(15) 0.74922(14) 0.11357(5)
C5 C 0.47876(15) 0.82168(14) 0.09684(5)
C6 C 0.39619(15) 0.90828(14) 0.13032(5)
H2 H 0.29580 0.95570 0.11900
C7 C 0.22681(15) 1.05684(15) 0.20297(5)
H3 H 0.15410 0.97060 0.19440
H4 H 0.22160 1.12330 0.17330
C8 C 0.17129(16) 1.14076(16) 0.24786(5)
H5 H 0.24890 1.22310 0.25690
H6 H 0.06300 1.18570 0.23750
C9 C 0.31036(16) 1.04123(17) 0.32571(5)
H7 H 0.36730 1.13840 0.32670
H8 H 0.38300 0.96550 0.31310
C10 C 0.27364(18) 0.99915(16) 0.37859(5)
H9 H 0.37370 1.01070 0.40240
H10 H 0.18920 1.06680 0.38930
C11 C 0.23042(16) 0.78670(16) 0.43021(5)
H11 H 0.15110 0.70430 0.43150
H12 H 0.20250 0.86490 0.45390
C12 C 0.40399(16) 0.72832(16) 0.44688(5)
H13 H 0.48420 0.81060 0.44770
H14 H 0.40930 0.68400 0.48090
C13 C 0.60668(16) 0.56367(15) 0.41604(5)
H15 H 0.61160 0.47000 0.39680
H16 H 0.63910 0.54030 0.45190
C14 C 0.73129(16) 0.67412(16) 0.39823(5)
H17 H 0.71890 0.77230 0.41420
H18 H 0.84350 0.63780 0.40850
C15 C 0.82574(15) 0.79005(15) 0.32656(5)
H19 H 0.93660 0.76080 0.34140
H20 H 0.80480 0.89290 0.33750
C16 C 0.81582(14) 0.78426(15) 0.26911(5)
H21 H 0.91510 0.82920 0.25770
H22 H 0.80810 0.67960 0.25750
#END
