
#######################################################################
#
#                 Cambridge Crystallographic Data Centre
#                                CCDC
#
#######################################################################
#
# If this CIF has been generated from an entry in the Cambridge
# Structural Database, then it will include bibliographic, chemical,
# crystal, experimental, refinement or atomic coordinate data resulting
# from the CCDC's data processing and validation procedures.
#
#######################################################################

data_CSD_CIF_QUTNOK
_audit_creation_date 2015-11-03
_audit_creation_method CSD-ConQuest-V1
_database_code_CSD QUTNOK
_database_code_depnum_ccdc_archive 'CCDC 1417040'
_chemical_formula_sum 'C29 H23 N3 O5'
_chemical_formula_moiety
;
C29 H23 N3 O5
;
_journal_coden_Cambridge 1220
_journal_volume 21
_journal_year 2015
_journal_page_first 17200
_journal_name_full 'Chem.-Eur.J. '
loop_
_publ_author_name
"Donghyeon Gwon"
"Heejun Hwang"
"Hye Kyung Kim"
"S.R.Marder"
"Sukbok Chang"
_chemical_name_systematic
;
4,5-bis(((Benzyloxy)carbonyl)amino)acridine 10-oxide
;
_chemical_melting_point 479
_cell_volume   2315.731
_exptl_crystal_colour 'yellow'
_exptl_crystal_density_diffrn 1.415
_exptl_crystal_description 'platy'
_exptl_crystal_preparation 'ethyl acetate'
_diffrn_ambient_temperature 120
#These two values have been output from a single CSD field.
_refine_ls_R_factor_gt 0.0597
_refine_ls_wR_factor_gt 0.0597
_symmetry_cell_setting orthorhombic
_symmetry_space_group_name_H-M 'P n a 21'
_symmetry_Int_Tables_number 33
loop_
_symmetry_equiv_pos_site_id
_symmetry_equiv_pos_as_xyz
1 x,y,z
2 -x,-y,1/2+z
3 1/2+x,1/2-y,z
4 1/2-x,1/2+y,1/2+z
_cell_length_a 31.732(17)
_cell_length_b 5.016(3)
_cell_length_c 14.549(8)
_cell_angle_alpha 90
_cell_angle_beta 90
_cell_angle_gamma 90
_cell_formula_units_Z 4
loop_
_atom_type_symbol
_atom_type_radius_bond
C 0.68
H 0.23
N 0.68
O 0.68
loop_
_atom_site_label
_atom_site_type_symbol
_atom_site_fract_x
_atom_site_fract_y
_atom_site_fract_z
N1 N 0.07619(8) 1.0039(5) 0.26123(17)
N2 N 0.13395(8) 0.5713(6) 0.29669(18)
H1 H 0.13590 0.67410 0.24790
N3 N 0.08413(9) 1.3227(6) 0.0985(2)
H2 H 0.09970 1.18170 0.11020
O1 O 0.10593(7) 0.9466(5) 0.20051(15)
O2 O 0.16402(7) 0.1929(5) 0.35960(17)
O3 O 0.18340(7) 0.3607(4) 0.22138(16)
O4 O 0.07714(8) 1.6540(5) -0.01124(18)
O5 O 0.13185(9) 1.3628(6) -0.00863(19)
C1 C 0.07469(10) 0.8576(6) 0.3416(2)
C2 C 0.10395(10) 0.6475(6) 0.3627(2)
C3 C 0.10135(12) 0.5260(7) 0.4467(2)
H3 H 0.12130 0.39190 0.46210
C4 C 0.07031(13) 0.5932(8) 0.5102(3)
H4 H 0.06970 0.50580 0.56810
C5 C 0.04087(12) 0.7819(7) 0.4909(2)
H5 H 0.01940 0.82020 0.53430
C6 C 0.04203(10) 0.9209(7) 0.4068(2)
C7 C 0.01278(11) 1.1145(7) 0.3853(2)
H6 H -0.00950 1.14890 0.42720
C8 C 0.01483(10) 1.2596(7) 0.3050(2)
C9 C -0.01484(11) 1.4640(7) 0.2850(2)
H7 H -0.03750 1.49690 0.32630
C10 C -0.01115(11) 1.6105(7) 0.2085(2)
H8 H -0.03120 1.74690 0.19630
C11 C 0.02182(11) 1.5661(7) 0.1458(2)
H9 H 0.02380 1.67530 0.09260
C12 C 0.05119(10) 1.3690(6) 0.1594(2)
C13 C 0.04793(10) 1.2060(6) 0.2411(2)
C14 C 0.16041(10) 0.3575(7) 0.2991(2)
C15 C 0.09545(12) 1.4666(8) 0.0230(2)
C16 C 0.21152(12) 0.1346(7) 0.2104(3)
H10 H 0.19560 -0.03460 0.21560
H11 H 0.23370 0.13730 0.25830
C17 C 0.23074(12) 0.1588(8) 0.1172(3)
C18 C 0.26107(14) 0.3464(10) 0.0990(3)
H12 H 0.26980 0.46270 0.14690
C19 C 0.27917(15) 0.3713(11) 0.0138(3)
H13 H 0.30010 0.50320 0.00320
C20 C 0.26693(16) 0.2048(9) -0.0559(3)
H14 H 0.27910 0.22170 -0.11530
C21 C 0.2374(2) 0.0160(11) -0.0393(4)
H15 H 0.22950 -0.10330 -0.08700
C22 C 0.21873(17) -0.0053(9) 0.0459(4)
H16 H 0.19730 -0.13460 0.05560
C23 C 0.15121(14) 1.4919(10) -0.0858(3)
H17 H 0.18210 1.49930 -0.07600
H18 H 0.14070 1.67730 -0.09000
C24 C 0.14222(11) 1.3495(8) -0.1747(3)
C25 C 0.11394(12) 1.1377(8) -0.1833(3)
H19 H 0.09910 1.07550 -0.13090
C26 C 0.10744(12) 1.0175(8) -0.2682(4)
H20 H 0.08830 0.87260 -0.27310
C27 C 0.12817(13) 1.1051(9) -0.3444(4)
H21 H 0.12350 1.02280 -0.40230
C28 C 0.15622(13) 1.3163(9) -0.3362(3)
H22 H 0.17080 1.37800 -0.38920
C29 C 0.16325(11) 1.4374(8) -0.2531(3)
H23 H 0.18250 1.58180 -0.24900
#END
