
#######################################################################
#
#                 Cambridge Crystallographic Data Centre
#                                CCDC
#
#######################################################################
#
# If this CIF has been generated from an entry in the Cambridge
# Structural Database, then it will include bibliographic, chemical,
# crystal, experimental, refinement or atomic coordinate data resulting
# from the CCDC's data processing and validation procedures.
#
#######################################################################

data_CSD_CIF_QUVSOR
_audit_creation_date 2015-11-03
_audit_creation_method CSD-ConQuest-V1
_database_code_CSD QUVSOR
_database_code_depnum_ccdc_archive 'CCDC 1426178'
_chemical_formula_sum 'C14 H8 N4 O5'
_chemical_formula_moiety
;
C14 H8 N4 O5
;
_journal_coden_Cambridge 1291
_journal_year 2015
_journal_page_first 7468
_journal_name_full 'Eur.J.Org.Chem. '
loop_
_publ_author_name
"Zuoquan Wang"
"Hong Zhang"
"F.Jabeen"
"G.Gopinathan-Pillai"
"J.A.Arami"
"B.J.Killian"
"K.D.Stiegler"
"D.S.Yudewitz"
"P.L.Thiemann"
"J.D.Turk"
"Wenfeng Zhou"
"P.J.Steel"
"C.Dennis Hall"
"A.R.Katritzky"
_chemical_name_systematic
;
3,5-bis(2-nitrophenyl)-1,2,4-oxadiazole
;
_cell_volume   1275.376
_exptl_crystal_colour 'colorless'
_exptl_crystal_density_diffrn 1.626
_exptl_crystal_description 'plate'
_diffrn_ambient_temperature 120
_refine_special_details
;
N3,O3 and N3',O3' disordered over two sites with occupancies 0.5:0.5.

;
#These two values have been output from a single CSD field.
_refine_ls_R_factor_gt 0.0348
_refine_ls_wR_factor_gt 0.0348
_symmetry_cell_setting monoclinic
_symmetry_space_group_name_H-M 'P 21/n'
_symmetry_Int_Tables_number 14
loop_
_symmetry_equiv_pos_site_id
_symmetry_equiv_pos_as_xyz
1 x,y,z
2 1/2-x,1/2+y,1/2-z
3 -x,-y,-z
4 -1/2+x,-1/2-y,-1/2+z
_cell_length_a 9.3592(2)
_cell_length_b 12.3392(3)
_cell_length_c 11.0632(3)
_cell_angle_alpha 90
_cell_angle_beta 93.407(2)
_cell_angle_gamma 90
_cell_formula_units_Z 4
loop_
_atom_type_symbol
_atom_type_radius_bond
C 0.68
H 0.23
N 0.68
O 0.68
loop_
_atom_site_label
_atom_site_type_symbol
_atom_site_fract_x
_atom_site_fract_y
_atom_site_fract_z
O1 O 0.91780(13) 0.37142(9) 0.20323(10)
O2 O 0.97351(11) 0.43695(8) 0.38211(10)
O3 O 0.66724(11) 0.60595(8) 0.50504(9)
O4 O 0.83885(10) 0.76725(8) 0.64139(9)
O5 O 0.67609(12) 0.88634(8) 0.59117(10)
N1 N 0.70073(11) 0.51639(8) 0.43153(9)
N2 N 0.90766(12) 0.37426(9) 0.31330(11)
N3 N 0.68252(11) 0.45771(9) 0.62134(10)
N4 N 0.71681(12) 0.80336(9) 0.64265(10)
C1 C 0.81357(14) 0.29418(11) 0.36673(12)
C2 C 0.81921(15) 0.18957(11) 0.32310(13)
H1 H 0.87200 0.17370 0.25670
C3 C 0.74528(15) 0.10854(11) 0.37938(14)
H2 H 0.74870 0.03770 0.35100
C4 C 0.66598(15) 0.13270(11) 0.47813(14)
H3 H 0.61900 0.07770 0.51740
C5 C 0.65692(14) 0.23887(11) 0.51810(13)
H4 H 0.60090 0.25490 0.58250
C6 C 0.73053(14) 0.32196(11) 0.46324(12)
C7 C 0.70833(13) 0.43294(11) 0.50667(12)
C8 C 0.65888(13) 0.56464(11) 0.61472(12)
C9 C 0.60892(13) 0.63143(11) 0.71358(12)
C10 C 0.53099(14) 0.58060(11) 0.80114(12)
H5 H 0.52570 0.50540 0.80300
C11 C 0.46133(14) 0.64119(12) 0.88554(12)
H6 H 0.41320 0.60640 0.94560
C12 C 0.46337(14) 0.75364(12) 0.88053(12)
H7 H 0.41160 0.79380 0.93400
C13 C 0.54244(13) 0.80642(11) 0.79591(12)
H8 H 0.54510 0.88170 0.79280
C14 C 0.61691(13) 0.74485(11) 0.71665(11)
N5? N 0.66724(11) 0.60595(8) 0.50504(9)
O6? O 0.70073(11) 0.51639(8) 0.43153(9)
#END
