
#######################################################################
#
#                 Cambridge Crystallographic Data Centre
#                                CCDC
#
#######################################################################
#
# If this CIF has been generated from an entry in the Cambridge
# Structural Database, then it will include bibliographic, chemical,
# crystal, experimental, refinement or atomic coordinate data resulting
# from the CCDC's data processing and validation procedures.
#
#######################################################################

data_CSD_CIF_QUWLOL
_audit_creation_date 2015-11-04
_audit_creation_method CSD-ConQuest-V1
_database_code_CSD QUWLOL
_database_code_depnum_ccdc_archive 'CCDC 939263'
_chemical_formula_sum 'C18 H24 N2 O1'
_chemical_formula_moiety
;
C18 H24 N2 O1
;
_journal_coden_Cambridge 1336
_journal_volume 17
_journal_year 2015
_journal_page_first 5136
_journal_name_full 'Org.Lett. '
loop_
_publ_author_name
"C.R.Hesp"
"M.J.MacDonald"
"M.Mehdi Zahedi"
"D.A.Bilodeau"
"Shu-Bin Zhao"
"M.Pesant"
"A.M.Beauchemin"
_chemical_name_systematic
;
N^1^-Benzyl-N^2^-hydroxy-N^2^-(1-phenylethyl)propane-1,2-diamine
;
_cell_volume   3265.373
_exptl_crystal_colour 'colorless'
_exptl_crystal_density_diffrn 1.157
_exptl_crystal_description 'block'
_diffrn_ambient_temperature 200
#These two values have been output from a single CSD field.
_refine_ls_R_factor_gt 0.0434
_refine_ls_wR_factor_gt 0.0434
_symmetry_cell_setting monoclinic
_symmetry_space_group_name_H-M 'P 21/c'
_symmetry_Int_Tables_number 14
loop_
_symmetry_equiv_pos_site_id
_symmetry_equiv_pos_as_xyz
1 x,y,z
2 -x,1/2+y,1/2-z
3 -x,-y,-z
4 x,-1/2-y,-1/2+z
_cell_length_a 21.3158(6)
_cell_length_b 9.1395(3)
_cell_length_c 17.5654(5)
_cell_angle_alpha 90
_cell_angle_beta 107.403(2)
_cell_angle_gamma 90
_cell_formula_units_Z 8
loop_
_atom_type_symbol
_atom_type_radius_bond
C 0.68
H 0.23
N 0.68
O 0.68
loop_
_atom_site_label
_atom_site_type_symbol
_atom_site_fract_x
_atom_site_fract_y
_atom_site_fract_z
N1 N 0.13324(5) 0.84145(11) 0.39415(5)
N2 N 0.27240(5) 0.80553(11) 0.43724(5)
H1 H 0.23850 0.75800 0.45680
O1 O 0.13021(4) 0.91688(10) 0.46580(5)
H2 H 0.1549(5) 0.8729(8) 0.5070(8)
C1 C 0.16964(6) 0.93813(13) 0.35434(7)
H3 H 0.16810 0.89170 0.30230
C2 C 0.24188(6) 0.94490(14) 0.40499(7)
H4 H 0.26760 0.98800 0.37210
H5 H 0.24540 1.01230 0.45020
C3 C 0.28560(6) 0.70637(14) 0.37784(7)
H6 H 0.31890 0.75060 0.35580
H7 H 0.24480 0.69110 0.33340
C4 C 0.31035(6) 0.56182(14) 0.41619(7)
C5 C 0.37302(7) 0.51286(17) 0.42349(9)
H8 H 0.40120 0.57000 0.40240
C6 C 0.39547(9) 0.38147(19) 0.46111(11)
H9 H 0.43880 0.34930 0.46530
C7 C 0.35585(9) 0.29722(17) 0.49236(10)
H10 H 0.37150 0.20710 0.51800
C8 C 0.29345(9) 0.34473(18) 0.48609(11)
H11 H 0.26580 0.28790 0.50800
C9 C 0.27079(7) 0.47527(17) 0.44785(10)
H12 H 0.22730 0.50630 0.44320
C10 C 0.06420(6) 0.81819(15) 0.34394(7)
H13 H 0.04300 0.91560 0.32780
C11 C 0.06557(6) 0.73520(15) 0.26971(7)
C12 C 0.03534(6) 0.79063(18) 0.19417(7)
H14 H 0.01420 0.88330 0.18850
C13 C 0.03558(7) 0.7119(2) 0.12659(8)
H15 H 0.01470 0.75130 0.07520
C14 C 0.06561(8) 0.5783(2) 0.13337(10)
H16 H 0.06580 0.52520 0.08690
C15 C 0.09554(8) 0.52140(18) 0.20769(10)
H17 H 0.11630 0.42850 0.21260
C16 C 0.09559(6) 0.59878(15) 0.27564(8)
H18 H 0.11630 0.55820 0.32680
C17 C 0.14253(7) 1.09352(15) 0.33650(9)
H19 H 0.09630 1.08910 0.30420
H20 H 0.16790 1.14660 0.30720
H21 H 0.14600 1.14430 0.38670
C18 C 0.02494(6) 0.73449(18) 0.38873(8)
H22 H 0.02430 0.78970 0.43630
H23 H 0.04530 0.63880 0.40470
H24 H -0.02020 0.72090 0.35410
N3 N 0.36592(5) 0.81964(11) 0.63197(5)
N4 N 0.22904(5) 0.78139(10) 0.59897(5)
H25 H 0.26310 0.72800 0.58170
O2 O 0.37065(4) 0.91467(10) 0.56809(5)
H26 H 0.3466(5) 0.8806(7) 0.5232(9)
C19 C 0.33378(6) 0.90428(13) 0.68101(7)
H27 H 0.33670 0.84550 0.73000
C20 C 0.26075(6) 0.91842(13) 0.63393(7)
H28 H 0.23690 0.95790 0.66990
H29 H 0.25640 0.99030 0.59050
C21 C 0.21226(6) 0.68810(13) 0.65825(6)
H30 H 0.17800 0.73680 0.67680
H31 H 0.25170 0.67500 0.70490
C22 C 0.18770(6) 0.54110(13) 0.62395(7)
C23 C 0.21054(7) 0.41506(15) 0.66607(9)
H32 H 0.24220 0.42090 0.71720
C24 C 0.18752(10) 0.27964(17) 0.63417(13)
H33 H 0.20300 0.19360 0.66430
C25 C 0.14294(10) 0.26792(18) 0.56008(13)
H34 H 0.12770 0.17470 0.53840
C26 C 0.12072(10) 0.3922(2) 0.51797(11)
H35 H 0.09000 0.38550 0.46620
C27 C 0.14230(8) 0.52805(17) 0.54968(9)
H36 H 0.12560 0.61370 0.51980
C28 C 0.43373(6) 0.77239(16) 0.67491(7)
H37 H 0.46160 0.86070 0.69430
C29 C 0.43254(6) 0.67935(14) 0.74579(7)
C30 C 0.47048(7) 0.71717(16) 0.82226(7)
H38 H 0.49770 0.80150 0.83010
C31 C 0.46885(8) 0.6325(2) 0.88749(8)
H39 H 0.49500 0.65960 0.93950
C32 C 0.43007(8) 0.51052(19) 0.87747(10)
H40 H 0.42850 0.45430 0.92240
C33 C 0.39328(7) 0.46971(17) 0.80165(10)
H41 H 0.36700 0.38390 0.79420
C34 C 0.39448(7) 0.55326(16) 0.73622(8)
H42 H 0.36900 0.52400 0.68430
C35 C 0.36309(8) 1.05491(16) 0.70821(9)
H43 H 0.40970 1.04440 0.73820
H44 H 0.33960 1.09990 0.74240
H45 H 0.35880 1.11710 0.66150
C36 C 0.46132(8) 0.6877(2) 0.61816(9)
H46 H 0.46180 0.75040 0.57300
H47 H 0.43380 0.60170 0.59850
H48 H 0.50630 0.65630 0.64620
#END
