
#######################################################################
#
#                 Cambridge Crystallographic Data Centre
#                                CCDC
#
#######################################################################
#
# If this CIF has been generated from an entry in the Cambridge
# Structural Database, then it will include bibliographic, chemical,
# crystal, experimental, refinement or atomic coordinate data resulting
# from the CCDC's data processing and validation procedures.
#
#######################################################################

data_CSD_CIF_QUWWOW
_audit_creation_date 2015-11-04
_audit_creation_method CSD-ConQuest-V1
_database_code_CSD QUWWOW
_database_code_depnum_ccdc_archive 'CCDC 1426217'
_chemical_formula_sum 'C36 H34 N4 O8'
_chemical_formula_moiety
;
C36 H34 N4 O8
;
_journal_coden_Cambridge 182
_journal_volume 52
_journal_year 2016
_journal_page_first 1804
_journal_name_full 'Chem.Commun. '
loop_
_publ_author_name
"Yue-Ming Wang"
"Hong-Hao Zhang"
"Can Li"
"Tao Fan"
"Feng Shi"
_chemical_name_systematic
;
diethyl 
1'-benzyl-1-(4-methoxyphenyl)-5-(4-nitrophenyl)-2'-oxo-1',2'-dihydro-4H-spiro[
imidazolidine-2,3'-indole]-4,4-dicarboxylate
;
_cell_volume   3243.757
_exptl_crystal_colour 'colorless'
_exptl_crystal_density_diffrn 1.332
_exptl_special_details
;
Absolute configuration

;
_exptl_crystal_description 'block'
_diffrn_ambient_temperature 130
#These two values have been output from a single CSD field.
_refine_ls_R_factor_gt 0.0478
_refine_ls_wR_factor_gt 0.0478
_symmetry_cell_setting monoclinic
_symmetry_space_group_name_H-M 'P 21'
_symmetry_Int_Tables_number 4
loop_
_symmetry_equiv_pos_site_id
_symmetry_equiv_pos_as_xyz
1 x,y,z
2 -x,1/2+y,-z
_cell_length_a 7.9612(1)
_cell_length_b 24.5627(4)
_cell_length_c 16.5897(3)
_cell_angle_alpha 90
_cell_angle_beta 90.823(1)
_cell_angle_gamma 90
_cell_formula_units_Z 4
loop_
_atom_type_symbol
_atom_type_radius_bond
C 0.68
H 0.23
N 0.68
O 0.68
loop_
_atom_site_label
_atom_site_type_symbol
_atom_site_fract_x
_atom_site_fract_y
_atom_site_fract_z
O1 O -0.3187(3) 0.01085(13) 0.08142(18)
O2 O 0.0437(5) -0.16301(13) -0.1386(2)
O3 O 0.2895(4) 0.07853(13) 0.22141(19)
O4 O 0.3037(4) 0.15148(13) 0.13988(19)
O5 O -0.0611(4) 0.18165(13) 0.18323(19)
O6 O -0.0623(4) 0.16834(12) 0.05003(18)
O7 O 0.7363(4) 0.09939(15) -0.1454(2)
O8 O 0.5621(4) 0.13654(16) -0.2293(2)
N1 N -0.0466(4) 0.06270(14) 0.18125(19)
H1 H -0.10320 0.07330 0.22360
N2 N 0.0679(4) 0.01026(13) 0.08004(18)
N3 N -0.2576(4) -0.05778(14) 0.1717(2)
N4 N 0.5945(4) 0.11281(15) -0.1661(2)
C1 C -0.2229(5) -0.01160(17) 0.1293(2)
C2 C -0.0419(4) 0.00728(15) 0.1514(2)
C3 C 0.0127(5) -0.03673(16) 0.2101(2)
C4 C 0.1652(5) -0.04535(17) 0.2481(2)
H2 H 0.25480 -0.02010 0.24280
C5 C 0.1845(5) -0.09230(18) 0.2947(2)
H3 H 0.28930 -0.09940 0.32070
C6 C 0.0535(5) -0.12876(18) 0.3036(2)
H4 H 0.06940 -0.16000 0.33660
C7 C -0.1010(5) -0.12052(18) 0.2653(2)
H5 H -0.19120 -0.14550 0.27120
C8 C -0.1173(5) -0.07417(16) 0.2178(2)
C9 C -0.4159(5) -0.08724(18) 0.1663(3)
H6 H -0.49750 -0.06540 0.13440
H7 H -0.46130 -0.09170 0.22110
C10 C -0.3982(5) -0.14248(19) 0.1279(3)
C11 C -0.4661(6) -0.1886(2) 0.1632(3)
H8 H -0.52660 -0.18530 0.21190
C12 C -0.4467(8) -0.2390(2) 0.1285(4)
H9 H -0.49160 -0.27030 0.15390
C13 C -0.3613(8) -0.2443(2) 0.0560(4)
H10 H -0.34930 -0.27910 0.03170
C14 C -0.2947(7) -0.1990(2) 0.0200(3)
H11 H -0.23690 -0.20230 -0.02950
C15 C -0.3121(5) -0.1482(2) 0.0562(3)
H12 H -0.26450 -0.11700 0.03140
C16 C 0.0522(4) -0.03308(16) 0.0219(2)
C17 C 0.1354(5) -0.08154(17) 0.0379(2)
H13 H 0.19840 -0.08540 0.08660
C18 C 0.1277(6) -0.12422(18) -0.0161(3)
H14 H 0.18330 -0.15750 -0.00380
C19 C 0.0384(5) -0.11867(18) -0.0887(3)
C20 C -0.0431(5) -0.07047(18) -0.1060(2)
H15 H -0.10300 -0.06620 -0.15550
C21 C -0.0374(5) -0.02796(17) -0.0504(2)
H16 H -0.09540 0.00500 -0.06200
C22 C -0.0433(8) -0.1597(2) -0.2148(3)
H17 H 0.00750 -0.13110 -0.24770
H18 H -0.16180 -0.15100 -0.20600
H19 H -0.03510 -0.19470 -0.24280
C23 C 0.0562(4) 0.06670(16) 0.0499(2)
H20 H -0.05370 0.07200 0.02100
C24 C 0.0553(5) 0.09855(16) 0.1315(2)
C25 C 0.2313(5) 0.10715(17) 0.1695(3)
C26 C 0.4715(6) 0.1651(2) 0.1715(4)
H21 H 0.55820 0.15220 0.13380
H22 H 0.49050 0.14700 0.22420
C27 C 0.4835(6) 0.2245(2) 0.1811(3)
H23 H 0.47080 0.24200 0.12830
H24 H 0.59330 0.23390 0.20470
H25 H 0.39450 0.23710 0.21670
C28 C -0.0288(5) 0.15373(17) 0.1259(2)
C29 C -0.1354(7) 0.2217(2) 0.0359(3)
H26 H -0.06810 0.25020 0.06350
H27 H -0.25160 0.22300 0.05630
C30 C -0.1346(8) 0.2302(2) -0.0543(3)
H28 H -0.19270 0.19990 -0.08100
H29 H -0.01840 0.23200 -0.07280
H30 H -0.19230 0.26440 -0.06760
C31 C 0.1990(5) 0.07894(15) -0.0069(2)
C32 C 0.1652(5) 0.10528(18) -0.0794(2)
H31 H 0.05320 0.11570 -0.09260
C33 C 0.2934(5) 0.11645(19) -0.1327(2)
H32 H 0.27090 0.13400 -0.18270
C34 C 0.4541(5) 0.10129(17) -0.1109(2)
C35 C 0.4932(5) 0.07553(18) -0.0394(2)
H33 H 0.60590 0.06630 -0.02570
C36 C 0.3621(5) 0.06343(17) 0.0123(2)
H34 H 0.38460 0.04440 0.06110
O9 O -0.1803(3) 0.34732(12) -0.51984(18)
O10 O -0.5510(4) 0.46131(14) -0.83604(18)
O11 O -0.7283(3) 0.26678(13) -0.36561(18)
O12 O -0.5898(3) 0.19494(12) -0.41689(17)
O13 O -0.2582(3) 0.22070(12) -0.48896(18)
O14 O -0.2606(3) 0.25257(12) -0.36184(18)
O15 O -1.2166(4) 0.17745(18) -0.6565(2)
O16 O -1.0516(5) 0.10755(16) -0.6438(2)
N5 N -0.4764(4) 0.33467(13) -0.41005(19)
H35 H -0.40280 0.33780 -0.37190
N6 N -0.5594(4) 0.34960(13) -0.54173(19)
N7 N -0.2375(4) 0.43636(13) -0.4860(2)
N8 N -1.0803(5) 0.15720(19) -0.6424(2)
C37 C -0.2760(5) 0.38281(16) -0.4963(2)
C38 C -0.4628(4) 0.37400(16) -0.4739(2)
C39 C -0.5123(4) 0.43017(15) -0.4470(2)
C40 C -0.6578(5) 0.44827(18) -0.4117(2)
H36 H -0.75180 0.42470 -0.40670
C41 C -0.6647(5) 0.50160(19) -0.3833(3)
H37 H -0.76450 0.51460 -0.35920
C42 C -0.5271(5) 0.53574(19) -0.3898(3)
H38 H -0.53360 0.57200 -0.37020
C43 C -0.3786(5) 0.51759(17) -0.4250(3)
H39 H -0.28380 0.54080 -0.42940
C44 C -0.3746(4) 0.46470(16) -0.4531(2)
C45 C -0.0708(5) 0.45831(17) -0.4975(3)
H40 H 0.01080 0.42790 -0.49750
H41 H -0.04200 0.48230 -0.45140
C46 C -0.0526(5) 0.49033(17) -0.5746(3)
C47 C 0.0566(5) 0.53426(19) -0.5777(3)
H42 H 0.11510 0.54570 -0.53030
C48 C 0.0806(6) 0.5617(2) -0.6502(4)
H43 H 0.15640 0.59160 -0.65220
C49 C -0.0046(6) 0.5459(2) -0.7187(4)
H44 H 0.01230 0.56480 -0.76790
C50 C -0.1152(6) 0.5024(2) -0.7165(3)
H45 H -0.17530 0.49180 -0.76380
C51 C -0.1376(5) 0.47456(19) -0.6449(3)
H46 H -0.21180 0.44430 -0.64370
C52 C -0.5500(4) 0.37596(16) -0.6187(2)
C53 C -0.6366(5) 0.42457(19) -0.6299(3)
H47 H -0.70100 0.43890 -0.58710
C54 C -0.6309(5) 0.45221(19) -0.7018(3)
H48 H -0.68870 0.48590 -0.70750
C55 C -0.5410(5) 0.43137(18) -0.7665(2)
C56 C -0.4562(5) 0.38303(18) -0.7569(2)
H49 H -0.39540 0.36810 -0.80060
C57 C -0.4589(5) 0.35566(18) -0.6830(2)
H50 H -0.39770 0.32270 -0.67660
C58 C -0.4706(7) 0.4392(2) -0.9045(3)
H51 H -0.49960 0.46100 -0.95220
H52 H -0.50800 0.40160 -0.91280
H53 H -0.34860 0.43980 -0.89570
C59 C -0.5259(4) 0.29063(16) -0.5389(2)
H54 H -0.42410 0.28260 -0.57150
C60 C -0.4827(4) 0.28085(15) -0.4475(2)
C61 C -0.6166(5) 0.24693(17) -0.4043(2)
C62 C -0.7070(5) 0.15502(18) -0.3862(3)
H55 H -0.81510 0.15700 -0.41630
H56 H -0.72840 0.16160 -0.32840
C63 C -0.6276(6) 0.10108(19) -0.3975(3)
H57 H -0.60430 0.09560 -0.45480
H58 H -0.70380 0.07250 -0.37890
H59 H -0.52230 0.09950 -0.36630
C64 C -0.3186(5) 0.24866(16) -0.4373(3)
C65 C -0.1112(5) 0.2210(2) -0.3440(3)
H60 H -0.01400 0.23640 -0.37280
H61 H -0.12730 0.18290 -0.36200
C66 C -0.0795(6) 0.2226(2) -0.2556(3)
H62 H 0.02350 0.20240 -0.24270
H63 H -0.17430 0.20600 -0.22780
H64 H -0.06660 0.26050 -0.23810
C67 C -0.6726(5) 0.25779(16) -0.5721(2)
C68 C -0.8355(5) 0.27795(17) -0.5723(2)
H65 H -0.85580 0.31420 -0.55490
C69 C -0.9688(5) 0.24563(18) -0.5977(2)
H66 H -1.08020 0.25950 -0.59890
C70 C -0.9362(5) 0.19277(19) -0.6214(2)
C71 C -0.7753(5) 0.17200(18) -0.6239(2)
H67 H -0.75580 0.13580 -0.64160
C72 C -0.6427(5) 0.20525(17) -0.5999(2)
H68 H -0.53070 0.19200 -0.60240
#END
