
#######################################################################
#
#                 Cambridge Crystallographic Data Centre
#                                CCDC
#
#######################################################################
#
# If this CIF has been generated from an entry in the Cambridge
# Structural Database, then it will include bibliographic, chemical,
# crystal, experimental, refinement or atomic coordinate data resulting
# from the CCDC's data processing and validation procedures.
#
#######################################################################

data_CSD_CIF_QUXBUH
_audit_creation_date 2010-08-16
_audit_creation_method CSD-ConQuest-V1
_database_code_CSD QUXBUH
_database_code_depnum_ccdc_archive 'CCDC 786823'
_chemical_formula_sum 'C10 H15 N3 O2'
_chemical_formula_moiety
;
C10 H15 N3 O2
;
_journal_coeditor_code "IUCr SK3377"
_journal_coden_Cambridge 591
_journal_volume 66
_journal_year 2010
_journal_page_first o369
_journal_name_full 'Acta Crystallogr.,Sect.C:Cryst.Struct.Commun. '
loop_
_publ_author_name
"T.J.Payne"
"C.R.Thurman"
"Hao Yu"
"Qian Sun"
"D.K.Mohanty"
"P.J.Squattrito"
"M.-R.Giolando"
"C.R.Brue"
"K.Kirschbaum"
_chemical_name_systematic
;
N,N'-Diethyl-4-nitrobenzene-1,3-diamine
;
_chemical_melting_point 381
_cell_volume   2172.244
_exptl_crystal_colour 'yellow'
_exptl_crystal_density_diffrn 1.28
_exptl_special_details
;
Melting point range 381-382K

;
_exptl_crystal_description 'thin plate'
_exptl_crystal_preparation 'dichloromethane/ethanol'
_diffrn_ambient_temperature 140
#These two values have been output from a single CSD field.
_refine_ls_R_factor_gt 0.0479
_refine_ls_wR_factor_gt 0.0479
_symmetry_cell_setting monoclinic
_symmetry_space_group_name_H-M 'P 21/c'
_symmetry_Int_Tables_number 14
loop_
_symmetry_equiv_pos_site_id
_symmetry_equiv_pos_as_xyz
1 x,y,z
2 -x,1/2+y,1/2-z
3 -x,-y,-z
4 x,-1/2-y,-1/2+z
_cell_length_a 7.8148(5)
_cell_length_b 20.9889(14)
_cell_length_c 13.2464(9)
_cell_angle_alpha 90
_cell_angle_beta 91.210(2)
_cell_angle_gamma 90
_cell_formula_units_Z 8
loop_
_atom_type_symbol
_atom_type_radius_bond
C 0.68
H 0.23
N 0.68
O 0.68
loop_
_atom_site_label
_atom_site_type_symbol
_atom_site_fract_x
_atom_site_fract_y
_atom_site_fract_z
O1 O 0.63355(16) 0.35444(6) 0.45013(9)
O2 O 0.68500(16) 0.26199(6) 0.38341(9)
O3 O 0.15779(15) 0.37249(5) 0.88626(9)
O4 O 0.13061(14) 0.27486(5) 0.93728(8)
N1 N 0.57409(17) 0.15831(7) 0.4688(1)
H1 H 0.623(2) 0.1747(9) 0.4172(16)
N2 N 0.29478(16) 0.19290(6) 0.78284(10)
H2 H 0.260(2) 0.2209(8) 0.8272(14)
N3 N 0.62171(16) 0.29501(7) 0.45286(10)
N4 N -0.03406(16) 0.24834(6) 1.10349(9)
H3 H 0.029(2) 0.2352(7) 1.0560(13)
N5 N -0.23966(17) 0.42974(6) 1.27911(11)
H4 H -0.275(2) 0.4031(8) 1.3256(14)
N6 N 0.10800(15) 0.33338(6) 0.95034(9)
C1 C 0.51748(17) 0.19849(7) 0.54033(11)
C2 C 0.43502(18) 0.17483(7) 0.62573(12)
H5 H 0.425(2) 0.1302(8) 0.6310(13)
C3 C 0.37305(17) 0.21530(7) 0.70053(11)
C4 C 0.39349(18) 0.28247(7) 0.69040(12)
H6 H 0.357(2) 0.3114(8) 0.7459(13)
C5 C 0.47428(19) 0.30596(8) 0.60924(12)
H7 H 0.489(2) 0.3494(8) 0.6026(12)
C6 C 0.53809(18) 0.26590(7) 0.53286(11)
C7 C 0.5517(2) 0.08965(8) 0.46965(13)
H8 H 0.430(2) 0.0799(8) 0.4721(13)
H9 H 0.608(2) 0.0719(7) 0.5306(14)
C8 C 0.6307(3) 0.06151(11) 0.37664(17)
H10 H 0.578(3) 0.0780(9) 0.3171(17)
H11 H 0.751(3) 0.0719(11) 0.3751(19)
H12 H 0.612(3) 0.0142(11) 0.3727(16)
C9 C 0.2685(2) 0.12618(8) 0.80404(13)
H13 H 0.384(2) 0.1041(7) 0.8120(12)
H14 H 0.206(2) 0.1051(7) 0.7462(13)
C10 C 0.1652(3) 0.11873(9) 0.89908(14)
H15 H 0.235(3) 0.1353(9) 0.9561(16)
H16 H 0.145(2) 0.0720(9) 0.9110(15)
H17 H 0.047(3) 0.1402(10) 0.8899(16)
C11 C -0.04718(17) 0.31209(7) 1.11016(10)
C12 C -0.13377(18) 0.34025(7) 1.19008(11)
H18 H -0.189(2) 0.3130(7) 1.2394(13)
C13 C -0.14897(18) 0.40569(7) 1.20148(11)
C14 C -0.0687(2) 0.44721(7) 1.13121(12)
H19 H -0.066(2) 0.4926(8) 1.1394(12)
C15 C 0.0135(2) 0.42091(8) 1.05125(12)
H20 H 0.067(2) 0.4482(9) 1.0051(15)
C16 C 0.02458(17) 0.35485(7) 1.03691(11)
C17 C -0.0861(2) 0.20518(7) 1.18347(12)
H21 H -0.022(2) 0.2152(7) 1.2466(13)
H22 H -0.208(2) 0.2112(7) 1.1962(11)
C18 C -0.0550(3) 0.13704(8) 1.15234(14)
H23 H 0.066(3) 0.1310(8) 1.1371(15)
H24 H -0.085(2) 0.1086(9) 1.2086(16)
H25 H -0.121(3) 0.1255(9) 1.0945(18)
C19 C -0.2385(2) 0.49620(8) 1.30884(15)
H26 H -0.122(3) 0.5078(9) 1.3259(15)
H27 H -0.273(3) 0.5236(10) 1.2515(18)
C20 C -0.3581(3) 0.50703(9) 1.39423(19)
H28 H -0.354(2) 0.5499(10) 1.4134(15)
H29 H -0.322(3) 0.4814(12) 1.449(2)
H30 H -0.473(4) 0.4959(11) 1.374(2)
#END
