
#######################################################################
#
#                 Cambridge Crystallographic Data Centre
#                                CCDC
#
#######################################################################
#
# If this CIF has been generated from an entry in the Cambridge
# Structural Database, then it will include bibliographic, chemical,
# crystal, experimental, refinement or atomic coordinate data resulting
# from the CCDC's data processing and validation procedures.
#
#######################################################################

data_CSD_CIF_QUXGAT
_audit_creation_date 2015-11-04
_audit_creation_method CSD-ConQuest-V1
_database_code_CSD QUXGAT
_database_code_depnum_ccdc_archive 'CCDC 1403029'
_chemical_formula_sum 'C37 H54 N6 O8'
_chemical_formula_moiety
;
C37 H54 N6 O8
;
_journal_coden_Cambridge 1336
_journal_volume 17
_journal_year 2015
_journal_page_first 4738
_journal_name_full 'Org.Lett. '
loop_
_publ_author_name
"M.G.Kumar"
"H.N.Gopi"
_chemical_name_systematic
;
t-butyl 
(6,14-dibenzyl-9,9,17-trimethyl-13-(nitromethyl)-3,8,11,16-tetraoxo-2,7,10,15-
tetraazaoctadecan-17-yl)carbamate unknown solvate
;
_cell_volume   2093.771
_exptl_crystal_colour 'colorless'
_exptl_crystal_density_diffrn 1.128
_exptl_crystal_description 'rod'
_diffrn_ambient_temperature 100
_refine_special_details
;
The SQUEEZE/PLATON program has been used to model some disorder.

;
#These two values have been output from a single CSD field.
_refine_ls_R_factor_gt 0.0559
_refine_ls_wR_factor_gt 0.0559
_symmetry_cell_setting monoclinic
_symmetry_space_group_name_H-M 'P 21'
_symmetry_Int_Tables_number 4
loop_
_symmetry_equiv_pos_site_id
_symmetry_equiv_pos_as_xyz
1 x,y,z
2 -x,1/2+y,-z
_cell_length_a 11.813(3)
_cell_length_b 9.272(2)
_cell_length_c 19.747(4)
_cell_angle_alpha 90
_cell_angle_beta 104.524(5)
_cell_angle_gamma 90
_cell_formula_units_Z 2
loop_
_atom_type_symbol
_atom_type_radius_bond
C 0.68
H 0.23
N 0.68
O 0.68
loop_
_atom_site_label
_atom_site_type_symbol
_atom_site_fract_x
_atom_site_fract_y
_atom_site_fract_z
O1 O 0.7337(2) 0.6038(3) 0.30267(12)
O2 O 0.43643(19) 0.4222(3) 0.15671(12)
O3 O 0.7864(2) 0.6878(3) 0.14708(12)
O4 O 0.6004(2) 0.1097(3) 0.23173(13)
O5 O 0.8444(2) 0.8971(3) 0.10589(12)
O6 O 0.1876(2) 0.3036(4) 0.30472(15)
N1 N 0.6370(2) 0.8051(3) 0.25418(13)
H1 H 0.64290 0.88990 0.23780
N2 N 0.6339(2) 0.3255(3) 0.28594(13)
H2 H 0.66210 0.41030 0.28370
N3 N 0.6262(2) 0.4539(3) 0.15594(14)
H3 H 0.67840 0.51670 0.15320
N4 N 0.8481(2) 0.8798(3) 0.21803(14)
H4 H 0.86090 0.97120 0.21920
N5 N 0.2438(3) 0.4264(4) 0.22036(17)
H5 H 0.29630 0.43760 0.19750
O7 O 0.3395(4) 0.9393(4) 0.03082(18)
O8 O 0.2221(3) 0.8325(4) 0.0832(2)
N6 N 0.3159(3) 0.8894(4) 0.08249(19)
C1 C 0.7349(3) 0.7281(4) 0.27996(16)
C2 C 0.5164(3) 0.5010(4) 0.14873(17)
C3 C 0.6286(3) 0.2377(4) 0.23205(17)
C4 C 0.8236(3) 0.8101(4) 0.15572(17)
C5 C 0.5956(3) 0.2895(4) 0.34867(16)
H6 H 0.59690 0.18450 0.35430
C6 C 0.6640(3) 0.3031(4) 0.16810(17)
C7 C 0.5221(3) 0.7952(4) 0.37974(18)
C8 C 0.5211(3) 0.7492(4) 0.25322(17)
H7 H 0.53160 0.64950 0.27020
C9 C 0.4403(3) 0.7440(4) 0.17862(17)
H8 H 0.36810 0.69470 0.18110
C10 C 0.4957(3) 0.6577(4) 0.12806(17)
H9 H 0.44450 0.66290 0.08130
H10 H 0.56960 0.70180 0.12690
C11 C 0.8530(3) 0.8027(4) 0.28319(16)
C12 C 0.7992(3) 0.2877(4) 0.43183(18)
C13 C 0.8853(3) 0.3256(4) 0.39811(18)
H11 H 0.86940 0.39580 0.36340
C14 C 0.2617(3) 0.3282(5) 0.27159(19)
C15 C 0.9940(3) 0.2601(5) 0.4155(2)
H12 H 1.05070 0.28710 0.39270
C16 C 0.6138(3) 0.2111(4) 0.10351(19)
H13 H 0.53010 0.20900 0.09450
H14 H 0.64390 0.11470 0.11140
H15 H 0.63590 0.25180 0.06400
C17 C 0.9506(3) 0.6917(4) 0.29800(18)
H16 H 0.93530 0.62010 0.26170
H17 H 0.95460 0.64640 0.34230
H18 H 1.02370 0.73850 0.29940
C18 C 0.4662(3) 0.8338(4) 0.30455(19)
H19 H 0.47540 0.93640 0.29790
H20 H 0.38320 0.81290 0.29420
C19 C 0.8748(3) 0.9149(4) 0.34183(19)
H21 H 0.94910 0.96030 0.34560
H22 H 0.87480 0.86840 0.38530
H23 H 0.81410 0.98630 0.33150
C20 C 0.6266(3) 0.8595(5) 0.4155(2)
H24 H 0.65980 0.93190 0.39410
C21 C 0.3788(3) 0.2545(4) 0.28765(19)
H25 H 0.40380 0.24240 0.24480
H26 H 0.37210 0.15960 0.30700
C22 C 0.8186(4) 0.8480(5) 0.03232(18)
C23 C 0.4706(3) 0.3437(4) 0.34038(18)
H27 H 0.46580 0.44340 0.32510
H28 H 0.45230 0.34070 0.38560
C24 C 0.6793(3) 0.3573(4) 0.41312(17)
H29 H 0.64500 0.34920 0.45270
H30 H 0.68800 0.45910 0.40430
C25 C 0.9338(4) 0.1162(5) 0.5009(2)
H31 H 0.94980 0.04630 0.53570
C26 C 0.8256(3) 0.1816(5) 0.48324(18)
H32 H 0.76920 0.15430 0.50610
C27 C 0.4075(3) 0.8964(4) 0.1500(2)
H33 H 0.37840 0.95180 0.18380
H34 H 0.47630 0.94470 0.14280
C28 C 0.7981(3) 0.3045(5) 0.1848(2)
H35 H 0.82260 0.34050 0.14520
H36 H 0.82720 0.20830 0.19530
H37 H 0.82830 0.36560 0.22450
C29 C 0.4727(4) 0.6916(5) 0.4144(2)
H38 H 0.40160 0.64980 0.39190
C30 C 1.0189(3) 0.1542(5) 0.4670(2)
H39 H 1.09170 0.10940 0.47840
C31 C 0.6815(4) 0.8155(6) 0.4833(2)
H40 H 0.75140 0.85820 0.50700
C32 C 0.5277(4) 0.6499(5) 0.4816(2)
H41 H 0.49310 0.58090 0.50410
C33 C 0.6894(3) 0.8133(6) 0.00623(19)
H42 H 0.67270 0.72480 0.02700
H43 H 0.66970 0.80330 -0.04370
H44 H 0.64410 0.89000 0.01890
C34 C 0.6324(4) 0.7087(6) 0.5155(2)
H45 H 0.67050 0.67710 0.56010
C35 C 0.8976(4) 0.7232(6) 0.0254(2)
H46 H 0.97750 0.74890 0.04630
H47 H 0.88850 0.70170 -0.02330
H48 H 0.87690 0.64010 0.04860
C36 C 0.1382(4) 0.5154(7) 0.2017(3)
H49 H 0.07290 0.45680 0.17870
H50 H 0.14900 0.59120 0.17080
H51 H 0.12360 0.55660 0.24330
C37 C 0.8474(5) 0.9835(7) -0.0039(2)
H52 H 0.79790 1.06120 0.00320
H53 H 0.83470 0.96540 -0.05310
H54 H 0.92780 1.00920 0.01540
#END
