
#######################################################################
#
#                 Cambridge Crystallographic Data Centre
#                                CCDC
#
#######################################################################
#
# If this CIF has been generated from an entry in the Cambridge
# Structural Database, then it will include bibliographic, chemical,
# crystal, experimental, refinement or atomic coordinate data resulting
# from the CCDC's data processing and validation procedures.
#
#######################################################################

data_CSD_CIF_QUXPEG
_audit_creation_date 2015-11-04
_audit_creation_method CSD-ConQuest-V1
_database_code_CSD QUXPEG
_database_code_depnum_ccdc_archive 'CCDC 1008916'
_chemical_formula_sum 'C39 H70 N8 O15'
_chemical_formula_moiety
;
C39 H70 N8 O15
;
_journal_coden_Cambridge 1336
_journal_volume 17
_journal_year 2015
_journal_page_first 4738
_journal_name_full 'Org.Lett. '
loop_
_publ_author_name
"M.G.Kumar"
"H.N.Gopi"
_chemical_name_systematic
;
ethyl 
6,11,16,21-tetraisopropyl-2,2-dimethyl-7,12,17,22-tetrakis(nitromethyl)-4,9,14
,19-tetraoxo-3-oxa-5,10,15,20-tetraazatetracosan-24-oate
;
_cell_volume   2362.076
_exptl_crystal_density_diffrn 1.154
_exptl_crystal_description 'rectangular'
_exptl_crystal_preparation 'Ethyl acetate'
_diffrn_ambient_temperature 100
#These two values have been output from a single CSD field.
_refine_ls_R_factor_gt 0.041
_refine_ls_wR_factor_gt 0.041
_symmetry_cell_setting monoclinic
_symmetry_space_group_name_H-M 'P 21'
_symmetry_Int_Tables_number 4
loop_
_symmetry_equiv_pos_site_id
_symmetry_equiv_pos_as_xyz
1 x,y,z
2 -x,1/2+y,-z
_cell_length_a 9.319(4)
_cell_length_b 23.446(10)
_cell_length_c 11.396(5)
_cell_angle_alpha 90
_cell_angle_beta 108.442(7)
_cell_angle_gamma 90
_cell_formula_units_Z 2
loop_
_atom_type_symbol
_atom_type_radius_bond
C 0.68
H 0.23
N 0.68
O 0.68
loop_
_atom_site_label
_atom_site_type_symbol
_atom_site_fract_x
_atom_site_fract_y
_atom_site_fract_z
O1 O 0.43604(14) 0.59547(5) 0.25540(11)
N1 N 0.50276(14) 0.61069(6) 0.45568(12)
H1 H 0.55030 0.57890 0.46070
O2 O 0.47864(12) 0.76682(5) 0.60214(11)
O3 O 0.20418(12) 0.88214(5) 0.34257(12)
O4 O -0.06212(11) 0.81054(6) 0.51251(12)
O5 O 0.03224(13) 0.95983(6) 0.79650(13)
O6 O 0.28821(13) 0.99825(6) 0.50915(13)
O7 O 0.38892(12) 0.68235(5) 0.32473(11)
C1 C 0.49521(16) 0.63684(7) 0.56958(15)
H2 H 0.42100 0.66780 0.54530
N2 N 0.63904(14) 0.81099(6) 0.51796(14)
H3 H 0.71200 0.80580 0.48800
N3 N 0.19308(14) 0.79027(6) 0.27942(13)
H4 H 0.24570 0.76140 0.27040
N4 N 0.18818(13) 0.81566(6) 0.61802(13)
H5 H 0.27680 0.80430 0.62030
O8 O 0.21665(14) 1.01392(6) 0.92162(13)
O9 O 0.05468(14) 1.00533(6) 0.39604(14)
O10 O -0.15148(15) 0.64007(6) 0.38669(15)
N5 N 0.60492(17) 0.92856(7) 0.20654(16)
O11 O 0.6309(2) 0.90353(8) 0.12232(17)
C2 C 0.2315(2) 0.63656(11) 0.0806(2)
H6 H 0.23670 0.67490 0.11120
H7 H 0.16450 0.61450 0.11160
H8 H 0.19430 0.63700 -0.00820
C3 C 0.38751(18) 0.61022(8) 0.12322(15)
C4 C 0.43879(16) 0.63391(7) 0.34275(16)
C5 C 0.64717(16) 0.66427(7) 0.64376(15)
H9 H 0.63720 0.67930 0.72110
C6 C 0.68742(16) 0.71337(7) 0.57360(17)
H10 H 0.67730 0.70080 0.49030
H11 H 0.79250 0.72350 0.61340
C7 C 0.59050(16) 0.76603(7) 0.56621(15)
C8 C 0.57724(16) 0.86788(7) 0.51256(16)
H12 H 0.48830 0.86530 0.54060
C9 C 0.52191(16) 0.88917(7) 0.37744(16)
H13 H 0.46490 0.92450 0.37460
C10 C 0.41660(17) 0.84542(8) 0.29184(16)
H14 H 0.40270 0.85580 0.20660
H15 H 0.46470 0.80830 0.30630
C11 C 0.26244(16) 0.84114(7) 0.31039(15)
C12 C 0.03159(16) 0.78242(7) 0.26061(16)
H16 H -0.00280 0.81730 0.29070
C13 C -0.00014(17) 0.73326(7) 0.33878(16)
H17 H -0.10580 0.73660 0.33660
C14 C 0.09862(17) 0.73821(7) 0.47387(16)
H18 H 0.08090 0.70530 0.51910
H19 H 0.20420 0.73770 0.47790
C15 C 0.06796(16) 0.79182(7) 0.53536(15)
C16 C 0.17670(16) 0.86006(7) 0.70470(15)
H20 H 0.06880 0.86480 0.69410
C17 C 0.23252(16) 0.91742(7) 0.66765(16)
H21 H 0.32190 0.90920 0.64270
C18 C 0.27845(17) 0.96246(7) 0.76965(17)
H22 H 0.36750 0.94890 0.83390
H23 H 0.30680 0.99690 0.73530
C19 C 0.16009(18) 0.97753(8) 0.82809(17)
C20 C 0.43330(19) 0.59363(8) 0.64271(17)
H24 H 0.49090 0.55810 0.64990
C21 C 0.26669(19) 0.58102(9) 0.5720(2)
H25 H 0.20620 0.61360 0.57610
H26 H 0.23370 0.54880 0.60870
H27 H 0.25590 0.57280 0.48720
C22 C 0.77373(18) 0.61993(7) 0.67647(17)
H28 H 0.74250 0.58660 0.71270
H29 H 0.79530 0.60810 0.60220
N6 N 0.91302(15) 0.64542(7) 0.76681(16)
O12 O 0.90360(15) 0.66268(7) 0.86504(14)
O13 O 1.02747(14) 0.64839(7) 0.73662(16)
C23 C 0.25239(17) 0.83912(8) 0.83857(16)
H30 H 0.23870 0.86890 0.89440
C24 C 0.1724(2) 0.78566(9) 0.86188(19)
H31 H 0.20960 0.77610 0.94810
H32 H 0.19170 0.75470 0.81390
H33 H 0.06550 0.79260 0.83830
C25 C 0.42246(19) 0.82792(9) 0.87129(18)
H34 H 0.43930 0.79800 0.81960
H35 H 0.46240 0.81670 0.95650
H36 H 0.47230 0.86210 0.85830
C26 C 0.10903(17) 0.93830(7) 0.55334(16)
H37 H 0.07220 0.90600 0.49880
H38 H 0.02540 0.95230 0.57860
N7 N 0.15537(15) 0.98430(6) 0.48141(15)
C27 C 0.01894(17) 0.67482(7) 0.28823(17)
H39 H -0.02020 0.67590 0.19860
H40 H 0.12590 0.66590 0.31140
N8 N -0.06026(15) 0.62826(6) 0.33423(15)
O14 O -0.02837(17) 0.57947(6) 0.31541(16)
C28 C -0.05560(18) 0.77920(8) 0.12074(17)
H41 H -0.01030 0.74900 0.08450
C29 C -0.22319(19) 0.76541(10) 0.0944(2)
H42 H -0.26820 0.79340 0.13330
H43 H -0.23320 0.72830 0.12670
H44 H -0.27340 0.76580 0.00670
C30 C -0.0404(2) 0.83566(9) 0.05846(19)
H45 H 0.06470 0.84360 0.07180
H46 H -0.08360 0.86580 0.09320
H47 H -0.09250 0.83300 -0.02870
C31 C 0.65702(18) 0.90234(8) 0.33318(17)
H48 H 0.72500 0.92840 0.39060
H49 H 0.71200 0.86740 0.33110
O15 O 0.5369(2) 0.97345(7) 0.19448(16)
C32 C 0.69407(17) 0.90610(7) 0.60597(16)
H50 H 0.78680 0.90630 0.58280
C33 C 0.64189(19) 0.96713(8) 0.60538(19)
H51 H 0.72230 0.98970 0.65860
H52 H 0.55590 0.96850 0.63450
H53 H 0.61430 0.98200 0.52270
C34 C 0.7328(2) 0.88154(9) 0.73576(19)
H54 H 0.64310 0.88010 0.76000
H55 H 0.80690 0.90530 0.79240
H56 H 0.77270 0.84370 0.73680
C35 C 0.3842(2) 0.55288(9) 0.06231(19)
H57 H 0.32600 0.52660 0.09350
H58 H 0.48560 0.53880 0.08020
H59 H 0.33880 0.55680 -0.02550
C36 C 0.5042(3) 0.64952(12) 0.1012(2)
H60 H 0.60110 0.63110 0.12670
H61 H 0.50940 0.68390 0.14800
H62 H 0.47650 0.65860 0.01470
C37 C 0.1158(2) 1.03218(10) 0.9881(2)
H63 H 0.01280 1.03300 0.93220
H64 H 0.14260 1.07050 1.01960
C38 C 0.1251(3) 0.99259(12) 1.0937(3)
H65 H 0.22840 0.98950 1.14570
H66 H 0.08840 0.95560 1.06190
H67 H 0.06450 1.00730 1.14100
C39 C 0.4480(3) 0.61461(10) 0.7719(2)
H68 H 0.40560 0.65220 0.76710
H69 H 0.55290 0.61570 0.82070
H70 H 0.39470 0.58920 0.80970
#END
