
#######################################################################
#
#                 Cambridge Crystallographic Data Centre
#                                CCDC
#
#######################################################################
#
# If this CIF has been generated from an entry in the Cambridge
# Structural Database, then it will include bibliographic, chemical,
# crystal, experimental, refinement or atomic coordinate data resulting
# from the CCDC's data processing and validation procedures.
#
#######################################################################

data_CSD_CIF_QUXVIQ
_audit_creation_date 2015-11-04
_audit_creation_method CSD-ConQuest-V1
_database_code_CSD QUXVIQ
_database_code_depnum_ccdc_archive 'CCDC 1406157'
_chemical_formula_sum 'C14 H14 N2 O4'
_chemical_formula_moiety
;
C14 H14 N2 O4
;
_journal_coden_Cambridge 177
_journal_volume 14
_journal_year 2016
_journal_page_first 97
_journal_name_full 'Org.Biomol.Chem. '
loop_
_publ_author_name
"S.Burugupalli"
"Sayali Shah"
"P.L.van der Peet"
"S.Arora"
"J.M.White"
"S.J.Williams"
_chemical_name_systematic
;
t-butyl ((benzoyloxy)imino)(cyano)acetate
;
_cell_volume   1391.763
_exptl_crystal_colour 'colorless'
_exptl_crystal_density_diffrn 1.309
_exptl_crystal_description 'rod'
_diffrn_ambient_temperature 130
#These two values have been output from a single CSD field.
_refine_ls_R_factor_gt 0.0392
_refine_ls_wR_factor_gt 0.0392
_symmetry_cell_setting monoclinic
_symmetry_space_group_name_H-M 'P 21/n'
_symmetry_Int_Tables_number 14
loop_
_symmetry_equiv_pos_site_id
_symmetry_equiv_pos_as_xyz
1 x,y,z
2 1/2-x,1/2+y,1/2-z
3 -x,-y,-z
4 -1/2+x,-1/2-y,-1/2+z
_cell_length_a 5.9020(1)
_cell_length_b 21.5230(3)
_cell_length_c 11.2041(2)
_cell_angle_alpha 90
_cell_angle_beta 102.073(2)
_cell_angle_gamma 90
_cell_formula_units_Z 4
loop_
_atom_type_symbol
_atom_type_radius_bond
C 0.68
H 0.23
N 0.68
O 0.68
loop_
_atom_site_label
_atom_site_type_symbol
_atom_site_fract_x
_atom_site_fract_y
_atom_site_fract_z
C1 C -0.1042(2) 0.40798(6) 0.61226(11)
C2 C 0.0546(2) 0.35677(5) 0.58786(10)
C3 C -0.0225(2) 0.32200(6) 0.47602(11)
C4 C 0.5786(2) 0.28516(5) 0.68866(10)
C5 C 0.6803(2) 0.23197(5) 0.63434(10)
C6 C 0.5669(2) 0.20360(6) 0.52577(11)
H1 H 0.41710 0.21540 0.48880
C7 C 0.6799(2) 0.15771(6) 0.47383(11)
H2 H 0.60630 0.13890 0.40130
C8 C 0.9029(2) 0.13966(6) 0.52990(12)
H3 H 0.97850 0.10920 0.49420
C9 C 1.0132(2) 0.16686(6) 0.63873(13)
H4 H 1.16140 0.15410 0.67650
C10 C 0.9028(2) 0.21313(6) 0.69128(11)
H5 H 0.97690 0.23150 0.76420
C11 C -0.1230(2) 0.49807(6) 0.74284(12)
C12 C -0.1849(4) 0.54331(8) 0.63789(18)
H6 H -0.26330 0.57850 0.66300
H7 H -0.04610 0.55690 0.61380
H8 H -0.28460 0.52320 0.57020
C13 C -0.3271(3) 0.47565(8) 0.79249(18)
H9 H -0.40600 0.51060 0.81800
H10 H -0.43160 0.45320 0.73010
H11 H -0.27360 0.44880 0.86100
C14 C 0.0631(3) 0.52502(7) 0.84318(16)
H12 H 0.00400 0.56120 0.87640
H13 H 0.10810 0.49460 0.90640
H14 H 0.19510 0.53630 0.81030
N1 N -0.0777(2) 0.29623(6) 0.38535(10)
N2 N 0.24688(18) 0.34640(5) 0.66298(9)
O1 O -0.29647(18) 0.41224(5) 0.55062(9)
O2 O -0.00125(15) 0.44340(4) 0.70334(8)
O3 O 0.35481(14) 0.29588(4) 0.62116(8)
O4 O 0.66986(16) 0.31684(4) 0.77230(8)
#END
