
#######################################################################
#
#                 Cambridge Crystallographic Data Centre
#                                CCDC
#
#######################################################################
#
# If this CIF has been generated from an entry in the Cambridge
# Structural Database, then it will include bibliographic, chemical,
# crystal, experimental, refinement or atomic coordinate data resulting
# from the CCDC's data processing and validation procedures.
#
#######################################################################

data_CSD_CIF_QUYDAQ
_audit_creation_date 2010-10-12
_audit_creation_method CSD-ConQuest-V1
_database_code_CSD QUYDAQ
_database_code_depnum_ccdc_archive 'CCDC 786493'
_chemical_formula_sum 'C20 H18 N4 O4'
_chemical_formula_moiety
;
C20 H18 N4 O4
;
_journal_coeditor_code "IUCr ZS2040"
_journal_coden_Cambridge 1370
_journal_volume 66
_journal_year 2010
_journal_page_first o1522
_journal_name_full 'Acta Crystallogr.,Sect.E:Struct.Rep.Online '
loop_
_publ_author_name
"Guo-Lun XiaHou"
"Ye-Chun Ding"
"Xiao-Na Fan"
_chemical_name_systematic
;
(E)-N'-(4-Nitrobenzylidene)-4-(quinolin-8-yloxy)butanehydrazide
;
_cell_volume   1835.596
_exptl_crystal_colour 'yellow'
_exptl_crystal_density_diffrn 1.369
_exptl_crystal_description 'prism'
_diffrn_ambient_temperature 296
#These two values have been output from a single CSD field.
_refine_ls_R_factor_gt 0.0435
_refine_ls_wR_factor_gt 0.0435
_symmetry_cell_setting monoclinic
_symmetry_space_group_name_H-M 'P 21/c'
_symmetry_Int_Tables_number 14
loop_
_symmetry_equiv_pos_site_id
_symmetry_equiv_pos_as_xyz
1 x,y,z
2 -x,1/2+y,1/2-z
3 -x,-y,-z
4 x,-1/2-y,-1/2+z
_cell_length_a 9.836(3)
_cell_length_b 10.633(3)
_cell_length_c 17.566(5)
_cell_angle_alpha 90
_cell_angle_beta 92.365(7)
_cell_angle_gamma 90
_cell_formula_units_Z 4
loop_
_atom_type_symbol
_atom_type_radius_bond
C 0.68
H 0.23
N 0.68
O 0.68
loop_
_atom_site_label
_atom_site_type_symbol
_atom_site_fract_x
_atom_site_fract_y
_atom_site_fract_z
O1 O 0.75513(15) 0.53054(15) 0.16112(8)
O2 O 1.05475(15) 0.89991(18) 0.07985(10)
O3 O 0.0388(2) 0.8161(3) -0.16156(15)
O4 O 0.04918(18) 0.6940(2) -0.06516(13)
N1 N 0.50202(18) 0.48897(16) 0.10959(10)
N2 N 0.85327(17) 0.90258(17) 0.01739(10)
H1 H 0.88440 0.95440 -0.01520
N3 N 0.71999(16) 0.86354(16) 0.00912(10)
N4 N 0.0993(2) 0.7717(2) -0.10668(13)
C1 C 0.3767(2) 0.4663(2) 0.08357(15)
H2 H 0.34790 0.50420 0.03800
C2 C 0.2845(2) 0.3894(2) 0.11982(17)
H3 H 0.19620 0.37930 0.09980
C3 C 0.3263(2) 0.3297(2) 0.18475(15)
H4 H 0.26650 0.27770 0.20970
C4 C 0.4606(2) 0.34635(18) 0.21447(11)
C5 C 0.5148(3) 0.2828(2) 0.28008(12)
H5 H 0.46080 0.22710 0.30630
C6 C 0.6447(3) 0.3036(2) 0.30424(12)
H6 H 0.67930 0.26100 0.34710
C7 C 0.7296(2) 0.3877(2) 0.26657(11)
H7 H 0.81840 0.40120 0.28510
C8 C 0.6817(2) 0.44914(18) 0.20301(11)
C9 C 0.5446(2) 0.42934(17) 0.17467(10)
C10 C 0.8940(2) 0.5533(2) 0.18444(13)
H8 H 0.94540 0.47550 0.18420
H9 H 0.89960 0.58790 0.23560
C11 C 0.9503(2) 0.6450(2) 0.12900(15)
H10 H 0.93840 0.61130 0.07790
H11 H 1.04720 0.65500 0.14010
C12 C 0.8825(2) 0.7721(2) 0.13204(13)
H12 H 0.78530 0.76180 0.12250
H13 H 0.89690 0.80700 0.18270
C13 C 0.9360(2) 0.8621(2) 0.07498(13)
C14 C 0.6530(2) 0.90707(19) -0.04826(11)
H14 H 0.69490 0.96080 -0.08180
C15 C 0.5098(2) 0.87299(17) -0.06186(10)
C16 C 0.4388(2) 0.9199(2) -0.12587(12)
H15 H 0.48250 0.97300 -0.15910
C17 C 0.3046(2) 0.8885(2) -0.14041(13)
H16 H 0.25720 0.92030 -0.18310
C18 C 0.2416(2) 0.8095(2) -0.09103(12)
C19 C 0.3084(2) 0.7626(2) -0.02718(12)
H17 H 0.26350 0.71040 0.00600
C20 C 0.4429(2) 0.79389(19) -0.01275(11)
H18 H 0.48920 0.76180 0.03020
#END
