
#######################################################################
#
#                 Cambridge Crystallographic Data Centre
#                                CCDC
#
#######################################################################
#
# If this CIF has been generated from an entry in the Cambridge
# Structural Database, then it will include bibliographic, chemical,
# crystal, experimental, refinement or atomic coordinate data resulting
# from the CCDC's data processing and validation procedures.
#
#######################################################################

data_CSD_CIF_QUYKUR
_audit_creation_date 2010-10-20
_audit_creation_method CSD-ConQuest-V1
_database_code_CSD QUYKUR
_database_code_depnum_ccdc_archive 'CCDC 786522'
_chemical_formula_sum 'C15 H14 N2 O2'
_chemical_formula_moiety
;
C15 H14 N2 O2
;
_journal_coeditor_code "IUCr HB5464"
_journal_coden_Cambridge 1370
_journal_volume 66
_journal_year 2010
_journal_page_first o1561
_journal_name_full 'Acta Crystallogr.,Sect.E:Struct.Rep.Online '
loop_
_publ_author_name
"M.I.Tariq"
"S.Ahmad"
"M.N.Tahir"
"M.Sarfaraz"
"I.Hussain"
_chemical_name_systematic
;
2,3-Dimethyl-N-[(E)-4-nitrobenzylidene]aniline
;
_cell_volume   1305.706
_exptl_crystal_colour 'yellow'
_exptl_crystal_density_diffrn 1.294
_exptl_crystal_description 'needle'
_exptl_crystal_preparation 'diethyl ether'
_diffrn_ambient_temperature 296
#These two values have been output from a single CSD field.
_refine_ls_R_factor_gt 0.0469
_refine_ls_wR_factor_gt 0.0469
_symmetry_cell_setting orthorhombic
_symmetry_space_group_name_H-M 'P 21 21 21'
_symmetry_Int_Tables_number 19
loop_
_symmetry_equiv_pos_site_id
_symmetry_equiv_pos_as_xyz
1 x,y,z
2 1/2-x,-y,1/2+z
3 1/2+x,1/2-y,-z
4 -x,1/2+y,1/2-z
_cell_length_a 7.1969(5)
_cell_length_b 11.8023(7)
_cell_length_c 15.3721(8)
_cell_angle_alpha 90
_cell_angle_beta 90
_cell_angle_gamma 90
_cell_formula_units_Z 4
loop_
_atom_type_symbol
_atom_type_radius_bond
C 0.68
H 0.23
N 0.68
O 0.68
loop_
_atom_site_label
_atom_site_type_symbol
_atom_site_fract_x
_atom_site_fract_y
_atom_site_fract_z
O1 O 0.1409(4) -0.19301(18) 0.70198(14)
O2 O 0.1083(4) -0.06237(19) 0.79842(12)
N1 N 0.1128(3) 0.34130(16) 0.47092(11)
N2 N 0.1253(3) -0.0943(2) 0.72311(16)
C1 C 0.1231(3) 0.42218(18) 0.40278(13)
C2 C 0.1509(3) 0.5351(2) 0.42653(14)
C3 C 0.1581(4) 0.61833(19) 0.36160(15)
C4 C 0.1353(4) 0.5864(2) 0.27595(17)
C5 C 0.1052(4) 0.4755(2) 0.25272(16)
C6 C 0.0972(4) 0.3935(2) 0.31593(14)
C7 C 0.1768(4) 0.5654(2) 0.52133(14)
C8 C 0.1878(5) 0.7409(2) 0.38401(19)
C9 C 0.1573(4) 0.23940(19) 0.45751(14)
C10 C 0.1434(3) 0.15342(18) 0.52625(14)
C11 C 0.1832(3) 0.04156(19) 0.50760(15)
C12 C 0.1753(4) -0.0397(2) 0.57139(15)
C13 C 0.1287(3) -0.0075(2) 0.65402(14)
C14 C 0.0878(3) 0.1021(2) 0.67504(15)
C15 C 0.0953(3) 0.18289(19) 0.61064(14)
H1 H 0.14039 0.64145 0.23274
H2 H 0.09027 0.45617 0.19450
H3 H 0.07448 0.31854 0.30059
H4 H 0.09112 0.62429 0.53696
H5 H 0.30167 0.59128 0.53059
H6 H 0.15399 0.49972 0.55663
H7 H 0.18433 0.78558 0.33184
H8 H 0.30655 0.74981 0.41166
H9 H 0.09161 0.76571 0.42285
H10 H 0.20007 0.21822 0.40278
H11 H 0.21572 0.02105 0.45120
H12 H 0.20116 -0.11509 0.55867
H13 H 0.05543 0.12165 0.73165
H14 H 0.06802 0.25797 0.62382
#END
