
#######################################################################
#
#                 Cambridge Crystallographic Data Centre
#                                CCDC
#
#######################################################################
#
# If this CIF has been generated from an entry in the Cambridge
# Structural Database, then it will include bibliographic, chemical,
# crystal, experimental, refinement or atomic coordinate data resulting
# from the CCDC's data processing and validation procedures.
#
#######################################################################

data_CSD_CIF_QUZBET
_audit_creation_date 2010-09-06
_audit_creation_method CSD-ConQuest-V1
_database_code_CSD QUZBET
_database_code_depnum_ccdc_archive 'CCDC 786589'
_chemical_formula_sum 'C14 H11 N3 O4'
_chemical_formula_moiety
;
C14 H11 N3 O4
;
_journal_coeditor_code "IUCr CI5099"
_journal_coden_Cambridge 1370
_journal_volume 66
_journal_year 2010
_journal_page_first o1652
_journal_name_full 'Acta Crystallogr.,Sect.E:Struct.Rep.Online '
loop_
_publ_author_name
"Shi-Yong Liu"
"Zhonglu You"
_chemical_name_systematic
;
(E)-N'-(4-Hydroxybenzylidene)-2-nitrobenzohydrazide
;
_cell_volume   1326.224
_exptl_crystal_colour 'colorless'
_exptl_crystal_density_diffrn 1.429
_exptl_crystal_description 'block'
_diffrn_ambient_temperature 298
#These two values have been output from a single CSD field.
_refine_ls_R_factor_gt 0.0481
_refine_ls_wR_factor_gt 0.0481
_symmetry_cell_setting orthorhombic
_symmetry_space_group_name_H-M 'P 21 21 21'
_symmetry_Int_Tables_number 19
loop_
_symmetry_equiv_pos_site_id
_symmetry_equiv_pos_as_xyz
1 x,y,z
2 1/2-x,-y,1/2+z
3 -x,1/2+y,1/2-z
4 1/2+x,1/2-y,-z
_cell_length_a 7.720(2)
_cell_length_b 11.398(3)
_cell_length_c 15.072(5)
_cell_angle_alpha 90
_cell_angle_beta 90
_cell_angle_gamma 90
_cell_formula_units_Z 4
loop_
_atom_type_symbol
_atom_type_radius_bond
C 0.68
H 0.23
N 0.68
O 0.68
loop_
_atom_site_label
_atom_site_type_symbol
_atom_site_fract_x
_atom_site_fract_y
_atom_site_fract_z
N1 N 0.1071(5) 0.7318(3) 1.03691(19)
N2 N 0.1251(5) 0.7909(3) 0.9568(2)
N3 N 0.2475(6) 1.1354(4) 0.9364(3)
O1 O 0.1478(4) 0.3516(2) 1.34410(16)
H1 H 0.08260 0.37840 1.38200
O2 O 0.0109(4) 0.9556(2) 1.01482(16)
O3 O 0.3197(5) 1.0807(4) 0.9939(2)
O4 O 0.2255(9) 1.2411(4) 0.9389(3)
C1 C 0.1311(5) 0.5519(3) 1.1159(2)
C2 C 0.0734(5) 0.5986(3) 1.1956(2)
H2 H 0.03060 0.67490 1.19710
C3 C 0.0787(5) 0.5334(3) 1.2728(3)
H3 H 0.04180 0.56570 1.32620
C4 C 0.1396(5) 0.4197(3) 1.2695(2)
C5 C 0.1956(5) 0.3714(3) 1.1908(3)
H4 H 0.23670 0.29480 1.18920
C6 C 0.1902(5) 0.4375(3) 1.1148(2)
H5 H 0.22710 0.40470 1.06160
C7 C 0.1348(6) 0.6220(4) 1.0351(2)
H6 H 0.15790 0.58560 0.98120
C8 C 0.0819(5) 0.9035(3) 0.9539(2)
C9 C 0.1145(5) 0.9615(3) 0.8660(2)
C10 C 0.1817(6) 1.0730(4) 0.8584(3)
C11 C 0.1996(6) 1.1296(4) 0.7788(3)
H7 H 0.24460 1.20520 0.77620
C12 C 0.1495(7) 1.0721(5) 0.7024(3)
H8 H 0.16180 1.10880 0.64770
C13 C 0.0821(6) 0.9617(4) 0.7068(3)
H9 H 0.04950 0.92280 0.65520
C14 C 0.0624(5) 0.9078(4) 0.7889(2)
H10 H 0.01270 0.83360 0.79170
H11 H 0.189(5) 0.755(4) 0.915(2)
#END
