
#######################################################################
#
#                 Cambridge Crystallographic Data Centre
#                                CCDC
#
#######################################################################
#
# If this CIF has been generated from an entry in the Cambridge
# Structural Database, then it will include bibliographic, chemical,
# crystal, experimental, refinement or atomic coordinate data resulting
# from the CCDC's data processing and validation procedures.
#
#######################################################################

data_CSD_CIF_QUZCEU
_audit_creation_date 2010-08-30
_audit_creation_method CSD-ConQuest-V1
_database_code_CSD QUZCEU
_database_code_depnum_ccdc_archive 'CCDC 786594'
_chemical_formula_sum 'C20 H18 N4 O4'
_chemical_formula_moiety
;
C20 H18 N4 O4
;
_journal_coeditor_code "IUCr HB5488"
_journal_coden_Cambridge 1370
_journal_volume 66
_journal_year 2010
_journal_page_first o1659
_journal_name_full 'Acta Crystallogr.,Sect.E:Struct.Rep.Online '
loop_
_publ_author_name
"Li Zeng"
"Xiao-Si Zhou"
"Li-Hua Lv"
"Geng-Xi Li"
_chemical_name_systematic
;
(E)-N'-(3-Nitrobenzylidene)-4-(8-quinolyloxy)butanohydrazide
;
_cell_volume    975.047
_exptl_crystal_colour 'yellow'
_exptl_crystal_density_diffrn 1.289
_exptl_crystal_description 'block'
_exptl_crystal_preparation 'tetrahydrofuran'
_diffrn_ambient_temperature 296
#These two values have been output from a single CSD field.
_refine_ls_R_factor_gt 0.0647
_refine_ls_wR_factor_gt 0.0647
_symmetry_cell_setting triclinic
_symmetry_space_group_name_H-M 'P -1'
_symmetry_Int_Tables_number 2
loop_
_symmetry_equiv_pos_site_id
_symmetry_equiv_pos_as_xyz
1 x,y,z
2 -x,-y,-z
_cell_length_a 8.3664(12)
_cell_length_b 10.4882(15)
_cell_length_c 11.5855(16)
_cell_angle_alpha 100.595(3)
_cell_angle_beta 91.968(3)
_cell_angle_gamma 101.898(4)
_cell_formula_units_Z 2
loop_
_atom_type_symbol
_atom_type_radius_bond
C 0.68
H 0.23
N 0.68
O 0.68
loop_
_atom_site_label
_atom_site_type_symbol
_atom_site_fract_x
_atom_site_fract_y
_atom_site_fract_z
O1 O 0.2886(3) -0.1013(3) 0.68540(19)
O2 O 0.2305(4) -0.0360(3) 1.0959(2)
O3 O 0.8883(6) 0.6809(5) 0.8111(4)
O4 O 0.6888(6) 0.5092(4) 0.7739(3)
N1 N 0.5334(4) -0.2125(3) 0.6100(2)
N2 N 0.4230(4) 0.1503(3) 1.1241(3)
H1 H 0.43670 0.14910 1.19780
N3 N 0.5149(4) 0.2515(3) 1.0792(3)
C1 C 0.6550(6) -0.2666(5) 0.5723(4)
H2 H 0.72150 -0.28940 0.62770
C2 C 0.6912(7) -0.2923(6) 0.4538(4)
H3 H 0.77910 -0.33060 0.43160
C3 C 0.5935(6) -0.2595(5) 0.3724(4)
H4 H 0.61410 -0.27650 0.29330
C4 C 0.4625(5) -0.2005(4) 0.4064(3)
C5 C 0.3618(6) -0.1590(4) 0.3276(3)
H5 H 0.37900 -0.17230 0.24780
C6 C 0.2416(6) -0.1004(4) 0.3671(3)
H6 H 0.17780 -0.07090 0.31470
C7 C 0.2099(5) -0.0826(4) 0.4869(3)
H7 H 0.12210 -0.04560 0.51190
C8 C 0.3055(5) -0.1187(4) 0.5660(3)
C9 C 0.4356(5) -0.1781(4) 0.5281(3)
C10 C 0.1507(5) -0.0514(5) 0.7282(3)
H8 H 0.04960 -0.10980 0.69100
H9 H 0.15520 0.03630 0.71120
C11 C 0.1582(5) -0.0454(4) 0.8588(3)
H10 H 0.05530 -0.02950 0.88780
H11 H 0.17030 -0.13090 0.87400
C12 C 0.2951(5) 0.0599(4) 0.9259(3)
H12 H 0.27620 0.14650 0.91910
H13 H 0.39710 0.05060 0.89130
C13 C 0.3110(5) 0.0523(4) 1.0542(3)
C14 C 0.6227(5) 0.3359(4) 1.1503(3)
H14 H 0.63510 0.32630 1.22820
C15 C 0.7263(5) 0.4469(4) 1.1114(3)
C16 C 0.7079(5) 0.4681(4) 0.9964(3)
H15 H 0.62690 0.41170 0.94280
C17 C 0.8108(5) 0.5730(4) 0.9636(4)
C18 C 0.9289(6) 0.6604(4) 1.0400(5)
H16 H 0.99500 0.73210 1.01600
C19 C 0.9478(6) 0.6398(5) 1.1533(5)
H17 H 1.02920 0.69640 1.20640
C20 C 0.8451(6) 0.5343(5) 1.1875(4)
H18 H 0.85710 0.52240 1.26460
N4 N 0.7921(6) 0.5887(4) 0.8403(4)
#END
