
#######################################################################
#
#                 Cambridge Crystallographic Data Centre
#                                CCDC
#
#######################################################################
#
# If this CIF has been generated from an entry in the Cambridge
# Structural Database, then it will include bibliographic, chemical,
# crystal, experimental, refinement or atomic coordinate data resulting
# from the CCDC's data processing and validation procedures.
#
#######################################################################

data_CSD_CIF_QUZNUV
_audit_creation_date 2010-08-24
_audit_creation_method CSD-ConQuest-V1
_database_code_CSD QUZNUV
_database_code_depnum_ccdc_archive 'CCDC 786642'
_chemical_formula_sum 'C9 H10 N2 O3'
_chemical_formula_moiety
;
C9 H10 N2 O3
;
_journal_coeditor_code "IUCr RZ2462"
_journal_coden_Cambridge 1370
_journal_volume 66
_journal_year 2010
_journal_page_first o1721
_journal_name_full 'Acta Crystallogr.,Sect.E:Struct.Rep.Online '
loop_
_publ_author_name
"Li-Ping He"
"Xiao-Ming Yang"
"Dao-Lin Pang"
"Hui-Zhang Li"
"Fang Li"
_chemical_name_systematic
;
N-(4-Nitrophenethyl)formamide
;
_cell_volume    959.674
_exptl_crystal_colour 'colorless'
_exptl_crystal_density_diffrn 1.344
_exptl_crystal_description 'block'
_exptl_crystal_preparation 'ethyl acetate'
_diffrn_ambient_temperature 296
#These two values have been output from a single CSD field.
_refine_ls_R_factor_gt 0.0498
_refine_ls_wR_factor_gt 0.0498
_symmetry_cell_setting monoclinic
_symmetry_space_group_name_H-M 'P 21/c'
_symmetry_Int_Tables_number 14
loop_
_symmetry_equiv_pos_site_id
_symmetry_equiv_pos_as_xyz
1 x,y,z
2 -x,1/2+y,1/2-z
3 -x,-y,-z
4 x,-1/2-y,-1/2+z
_cell_length_a 4.4754(1)
_cell_length_b 17.6664(5)
_cell_length_c 12.1548(4)
_cell_angle_alpha 90
_cell_angle_beta 93.021(2)
_cell_angle_gamma 90
_cell_formula_units_Z 4
loop_
_atom_type_symbol
_atom_type_radius_bond
C 0.68
H 0.23
N 0.68
O 0.68
loop_
_atom_site_label
_atom_site_type_symbol
_atom_site_fract_x
_atom_site_fract_y
_atom_site_fract_z
O1 O 0.5315(4) 0.72237(8) 0.42543(13)
O2 O 0.4550(3) 0.60396(8) 0.40908(10)
O3 O 0.9148(2) 0.59710(8) 1.14237(8)
N1 N 0.5726(4) 0.65789(9) 0.45577(11)
N2 N 1.3195(3) 0.60193(8) 1.0427(1)
H1 H 1.490(4) 0.6035(9) 1.0442(13)
C1 C 0.7721(3) 0.64453(9) 0.55324(11)
C2 C 0.8835(4) 0.70538(9) 0.61230(13)
H2 H 0.822(4) 0.7538(11) 0.5958(13)
C3 C 1.0705(4) 0.69170(9) 0.70433(12)
H3 H 1.147(4) 0.7334(10) 0.7418(12)
C4 C 1.1450(3) 0.61872(8) 0.73625(10)
C5 C 1.0275(3) 0.55894(8) 0.67502(11)
H4 H 1.082(3) 0.5077(9) 0.6967(12)
C6 C 0.8387(3) 0.57117(9) 0.58309(11)
H5 H 0.757(3) 0.5311(9) 0.5390(13)
C7 C 1.3374(3) 0.60491(10) 0.84010(12)
H6 H 1.495(4) 0.6414(9) 0.8473(12)
H7 H 1.423(4) 0.5531(10) 0.8403(13)
C8 C 1.1484(3) 0.61015(11) 0.93831(12)
H8 H 1.046(4) 0.662(1) 0.9389(14)
H9 H 0.986(4) 0.5736(10) 0.9354(14)
C9 C 1.1853(3) 0.59714(9) 1.13538(12)
H10 H 1.322(3) 0.5926(8) 1.1993(13)
#END
