
#######################################################################
#
#                 Cambridge Crystallographic Data Centre
#                                CCDC
#
#######################################################################
#
# If this CIF has been generated from an entry in the Cambridge
# Structural Database, then it will include bibliographic, chemical,
# crystal, experimental, refinement or atomic coordinate data resulting
# from the CCDC's data processing and validation procedures.
#
#######################################################################

data_CSD_CIF_QUZQUY
_audit_creation_date 2010-08-24
_audit_creation_method CSD-ConQuest-V1
_database_code_CSD QUZQUY
_database_code_depnum_ccdc_archive 'CCDC 786652'
_chemical_formula_sum 'C14 H30 N2 O2'
_chemical_formula_moiety
;
C14 H30 N2 O2
;
_journal_coeditor_code "IUCr DS2034"
_journal_coden_Cambridge 1370
_journal_volume 66
_journal_year 2010
_journal_page_first o1731
_journal_name_full 'Acta Crystallogr.,Sect.E:Struct.Rep.Online '
loop_
_publ_author_name
"A.Lewinska"
_chemical_name_systematic
;
(2-Decanamidoethyl)dimethylamine N-oxide
;
_cell_volume    761.210
_exptl_crystal_colour 'colorless'
_exptl_crystal_density_diffrn 1.127
_exptl_crystal_description 'block'
_exptl_crystal_preparation 'chloroform/hexane'
_diffrn_ambient_temperature 100
#These two values have been output from a single CSD field.
_refine_ls_R_factor_gt 0.0332
_refine_ls_wR_factor_gt 0.0332
_symmetry_cell_setting triclinic
_symmetry_space_group_name_H-M 'P -1'
_symmetry_Int_Tables_number 2
loop_
_symmetry_equiv_pos_site_id
_symmetry_equiv_pos_as_xyz
1 x,y,z
2 -x,-y,-z
_cell_length_a 5.378(2)
_cell_length_b 8.113(4)
_cell_length_c 17.801(5)
_cell_angle_alpha 79.55(4)
_cell_angle_beta 86.38(3)
_cell_angle_gamma 86.36(4)
_cell_formula_units_Z 2
loop_
_atom_type_symbol
_atom_type_radius_bond
C 0.68
H 0.23
N 0.68
O 0.68
loop_
_atom_site_label
_atom_site_type_symbol
_atom_site_fract_x
_atom_site_fract_y
_atom_site_fract_z
O1 O -0.14655(12) 0.29531(8) 0.63607(4)
O2 O 0.61547(12) 0.19768(8) 0.42458(4)
N1 N -0.00050(14) 0.15787(9) 0.61997(4)
N2 N 0.31670(14) 0.39834(10) 0.44253(4)
C1 C 0.11161(17) 0.19110(11) 0.53929(5)
H1 H -0.02450 0.21330 0.50330
H2 H 0.21020 0.08950 0.52910
C2 C 0.27914(17) 0.33925(11) 0.52434(5)
H3 H 0.20150 0.43130 0.54900
H4 H 0.44220 0.30470 0.54680
C3 C 0.48478(16) 0.32380(11) 0.39906(5)
C4 C 0.49927(17) 0.40400(12) 0.31534(5)
H5 H 0.40900 0.51540 0.30940
H6 H 0.41290 0.33400 0.28610
C5 C 0.76504(17) 0.42604(12) 0.28085(5)
H7 H 0.85870 0.48570 0.31280
H8 H 0.85040 0.31440 0.28050
C6 C 0.76453(18) 0.52507(12) 0.19949(5)
H9 H 0.66950 0.63350 0.20000
H10 H 0.67650 0.46200 0.16750
C7 C 1.02383(18) 0.55974(13) 0.16275(6)
H11 H 1.11890 0.45150 0.16170
H12 H 1.11250 0.62270 0.19460
C8 C 1.01841(18) 0.65973(13) 0.08150(5)
H13 H 0.93210 0.59570 0.04960
H14 H 0.92020 0.76680 0.08250
C9 C 1.27600(19) 0.69820(13) 0.04450(6)
H15 H 1.36070 0.76430 0.07590
H16 H 1.37530 0.59110 0.04460
C10 C 1.27329(19) 0.79467(13) -0.03721(6)
H17 H 1.17360 0.90170 -0.03770
H18 H 1.19070 0.72840 -0.06900
C11 C 1.5337(2) 0.83259(13) -0.07251(6)
H19 H 1.61540 0.89980 -0.04090
H20 H 1.63380 0.72560 -0.07140
C12 C 1.5335(2) 0.92734(15) -0.15446(6)
H21 H 1.70550 0.94780 -0.17380
H22 H 1.43830 1.03480 -0.15590
H23 H 1.45660 0.86050 -0.18650
C13 C 0.19656(17) 0.11555(12) 0.67652(5)
H24 H 0.11860 0.09640 0.72840
H25 H 0.30770 0.20870 0.67090
H26 H 0.29310 0.01380 0.66750
C14 C -0.15989(17) 0.01185(11) 0.62702(5)
H27 H -0.24010 -0.01030 0.67860
H28 H -0.05650 -0.08720 0.61790
H29 H -0.28810 0.03690 0.58920
H30 H 0.246(2) 0.4950(17) 0.4221(7)
#END
