
#######################################################################
#
#                 Cambridge Crystallographic Data Centre
#                                CCDC
#
#######################################################################
#
# If this CIF has been generated from an entry in the Cambridge
# Structural Database, then it will include bibliographic, chemical,
# crystal, experimental, refinement or atomic coordinate data resulting
# from the CCDC's data processing and validation procedures.
#
#######################################################################

data_CSD_CIF_QUZREJ
_audit_creation_date 2010-08-24
_audit_creation_method CSD-ConQuest-V1
_database_code_CSD QUZREJ
_database_code_depnum_ccdc_archive 'CCDC 786654'
_chemical_formula_sum 'C17 H14 N2 O4'
_chemical_formula_moiety
;
C17 H14 N2 O4
;
_journal_coeditor_code "IUCr LH5073"
_journal_coden_Cambridge 1370
_journal_volume 66
_journal_year 2010
_journal_page_first o1733
_journal_name_full 'Acta Crystallogr.,Sect.E:Struct.Rep.Online '
loop_
_publ_author_name
"A.M.Asiri"
"S.A.Khan"
"K.W.Tan"
"S.W.Ng"
_chemical_name_systematic
;
trans-3-(3,4-Dimethoxyphenyl)-2-(4-nitrophenyl)prop-2-enenitrile
;
_cell_volume   1453.259
_exptl_crystal_colour 'orange'
_exptl_crystal_density_diffrn 1.418
_exptl_special_details
;
polymorph 1

;
_exptl_crystal_description 'prism'
_exptl_crystal_preparation 'methanol/chloroform'
_diffrn_ambient_temperature 100
#These two values have been output from a single CSD field.
_refine_ls_R_factor_gt 0.0468
_refine_ls_wR_factor_gt 0.0468
_symmetry_cell_setting triclinic
_symmetry_space_group_name_H-M 'P -1'
_symmetry_Int_Tables_number 2
loop_
_symmetry_equiv_pos_site_id
_symmetry_equiv_pos_as_xyz
1 x,y,z
2 -x,-y,-z
_cell_length_a 10.2211(8)
_cell_length_b 11.9460(9)
_cell_length_c 12.2764(10)
_cell_angle_alpha 91.094(1)
_cell_angle_beta 99.542(1)
_cell_angle_gamma 100.156(1)
_cell_formula_units_Z 4
loop_
_atom_type_symbol
_atom_type_radius_bond
C 0.68
H 0.23
N 0.68
O 0.68
loop_
_atom_site_label
_atom_site_type_symbol
_atom_site_fract_x
_atom_site_fract_y
_atom_site_fract_z
O1 O 0.83856(13) 0.82806(10) 0.70740(9)
O2 O 0.77000(13) 0.93616(10) 0.53428(9)
O3 O 1.55559(14) 0.19841(12) 0.52637(11)
O4 O 1.53950(14) 0.26192(12) 0.36149(10)
N1 N 1.05331(17) 0.49336(14) 0.73956(12)
N2 N 1.51106(15) 0.25875(13) 0.45509(12)
C1 C 1.04870(18) 0.72332(15) 0.52312(13)
C2 C 0.99041(17) 0.73654(14) 0.61828(13)
H1 H 1.01320 0.69440 0.68130
C3 C 0.90092(17) 0.80994(14) 0.62037(12)
C4 C 0.86490(17) 0.87172(14) 0.52605(13)
C5 C 0.92618(18) 0.86239(15) 0.43441(13)
H2 H 0.90580 0.90650 0.37230
C6 C 1.01697(18) 0.78904(15) 0.43308(13)
H3 H 1.05830 0.78340 0.36980
C7 C 0.86525(19) 0.76349(16) 0.80335(13)
H4 H 0.81460 0.78430 0.85940
H5 H 0.96200 0.78000 0.83340
H6 H 0.83740 0.68200 0.78280
C8 C 0.72379(19) 0.99399(16) 0.43758(13)
H7 H 0.65620 1.03790 0.45370
H8 H 0.68340 0.93790 0.37660
H9 H 0.80030 1.04550 0.41650
C9 C 1.13862(18) 0.64400(15) 0.51114(13)
H10 H 1.18770 0.65860 0.45210
C10 C 1.16493(18) 0.55272(15) 0.56936(13)
C11 C 1.10295(18) 0.52212(15) 0.66500(13)
C12 C 1.25355(17) 0.47620(14) 0.53921(13)
C13 C 1.29928(17) 0.39916(14) 0.61403(13)
H11 H 1.27270 0.39600 0.68460
C14 C 1.38285(17) 0.32729(15) 0.58691(13)
H12 H 1.41350 0.27490 0.63800
C15 C 1.42069(17) 0.33351(14) 0.48391(13)
C16 C 1.37606(17) 0.40682(15) 0.40728(13)
H13 H 1.40250 0.40850 0.33660
C17 C 1.29240(17) 0.47784(15) 0.43440(13)
H14 H 1.26060 0.52840 0.38180
O5 O 0.70198(12) 0.97785(10) 0.86081(9)
O6 O 0.86075(12) 0.93425(10) 1.03307(9)
O7 O 0.08469(14) 1.67994(12) 1.06765(12)
O8 O 0.21823(14) 1.70388(11) 1.22686(10)
N3 N 0.34748(15) 1.21226(13) 0.81431(11)
N4 N 0.17862(16) 1.65717(13) 1.13420(12)
C18 C 0.61948(17) 1.17523(14) 1.06498(13)
C19 C 0.61639(17) 1.11728(15) 0.96284(13)
H15 H 0.55760 1.13310 0.89890
C20 C 0.69803(17) 1.03785(14) 0.95513(12)
C21 C 0.78556(17) 1.01356(14) 1.04955(13)
C22 C 0.78929(17) 1.07024(15) 1.15006(13)
H16 H 0.84790 1.05410 1.21400
C23 C 0.70765(17) 1.15032(15) 1.15751(13)
H17 H 0.71160 1.18900 1.22670
C24 C 0.62349(19) 1.00501(16) 0.76028(13)
H18 H 0.63510 0.95590 0.69900
H19 H 0.65370 1.08490 0.74540
H20 H 0.52810 0.99290 0.76760
C25 C 0.95890(18) 0.91253(16) 1.12473(13)
H21 H 1.00620 0.85380 1.10210
H22 H 0.91330 0.88630 1.18630
H23 H 1.02410 0.98270 1.14830
C26 C 0.53948(17) 1.26103(15) 1.08144(13)
H24 H 0.55970 1.29650 1.15370
C27 C 0.44121(17) 1.29992(14) 1.01262(12)
C28 C 0.39106(17) 1.24995(14) 0.90229(13)
C29 C 0.37513(17) 1.39410(14) 1.04263(12)
C30 C 0.25478(18) 1.41207(15) 0.97922(13)
H25 H 0.21560 1.36340 0.91580
C31 C 0.19096(18) 1.49957(15) 1.00682(14)
H26 H 0.11050 1.51260 0.96190
C32 C 0.24767(17) 1.56705(14) 1.10128(13)
C33 C 0.36790(18) 1.55373(14) 1.16528(13)
H27 H 0.40580 1.60230 1.22900
C34 C 0.43196(18) 1.46850(14) 1.13491(13)
H28 H 0.51600 1.46000 1.17720
#END
