
#######################################################################
#
#                 Cambridge Crystallographic Data Centre
#                                CCDC
#
#######################################################################
#
# If this CIF has been generated from an entry in the Cambridge
# Structural Database, then it will include bibliographic, chemical,
# crystal, experimental, refinement or atomic coordinate data resulting
# from the CCDC's data processing and validation procedures.
#
#######################################################################

data_CSD_CIF_QUZREJ03
_audit_creation_date 2016-10-24
_audit_creation_method CSD-ConQuest-V1
_database_code_CSD QUZREJ03
_database_code_depnum_ccdc_archive 'CCDC 1456632'
_chemical_formula_sum 'C17 H14 N2 O4'
_chemical_formula_moiety
;
C17 H14 N2 O4
;
_journal_coden_Cambridge 1350
_journal_volume 18
_journal_year 2016
_journal_page_first 8497
_journal_name_full 'CrystEngComm '
loop_
_publ_author_name
"K.K.Jha"
"S.Dutta"
"V.Kumar"
"P.Munshi"
_chemical_name_systematic
;
(Z)-3-(3,4-dimethoxyphenyl)-2-(4-nitrophenyl)acrylonitrile
;
_cell_volume   1462.655
_exptl_crystal_colour 'yellow'
_exptl_crystal_density_diffrn 1.409
_exptl_special_details
;
polymorph 3

;
_exptl_crystal_description 'Prism'
_diffrn_ambient_temperature 100
#These two values have been output from a single CSD field.
_refine_ls_R_factor_gt 0.0457
_refine_ls_wR_factor_gt 0.0457
_symmetry_cell_setting triclinic
_symmetry_space_group_name_H-M 'P -1'
_symmetry_Int_Tables_number 2
loop_
_symmetry_equiv_pos_site_id
_symmetry_equiv_pos_as_xyz
1 x,y,z
2 -x,-y,-z
_cell_length_a 7.6956(2)
_cell_length_b 12.3234(4)
_cell_length_c 15.6647(5)
_cell_angle_alpha 82.079(1)
_cell_angle_beta 86.380(1)
_cell_angle_gamma 84.459(1)
_cell_formula_units_Z 4
loop_
_atom_type_symbol
_atom_type_radius_bond
C 0.68
H 0.23
N 0.68
O 0.68
loop_
_atom_site_label
_atom_site_type_symbol
_atom_site_fract_x
_atom_site_fract_y
_atom_site_fract_z
O1 O 0.54871(17) 0.46896(10) 1.24743(8)
O2 O 0.53181(16) 0.63816(10) 1.13146(8)
O3 O 1.35528(19) 0.27933(13) 0.54913(9)
O4 O 1.2900(2) 0.44311(14) 0.48273(9)
N1 N 0.7351(2) 0.68942(13) 0.82548(10)
N2 N 1.2833(2) 0.37294(15) 0.54644(11)
C1 C 0.7853(2) 0.43875(14) 1.00432(11)
C2 C 0.8871(2) 0.49195(14) 0.84612(11)
C3 C 0.9902(2) 0.46081(14) 0.76849(11)
C4 C 0.6280(2) 0.45291(14) 1.16984(11)
C5 C 0.6192(2) 0.54538(14) 1.10571(11)
C6 C 1.1139(2) 0.36913(14) 0.77408(11)
H1 H 1.13220 0.32640 0.82850
C7 C 0.7931(2) 0.34833(14) 1.06836(12)
H2 H 0.85260 0.28070 1.05580
C8 C 0.6969(2) 0.53850(14) 1.02484(11)
H3 H 0.69100 0.60150 0.98230
C9 C 0.7155(2) 0.35500(14) 1.15031(12)
H4 H 0.72240 0.29230 1.19300
C10 C 0.8021(2) 0.60166(15) 0.83630(11)
C11 C 1.2092(2) 0.33992(15) 0.70221(12)
H5 H 1.29210 0.27730 0.70660
C12 C 0.9686(2) 0.52363(15) 0.68796(12)
H6 H 0.88590 0.58630 0.68290
C13 C 1.0655(2) 0.49617(15) 0.61538(12)
H7 H 1.05200 0.54020 0.56110
C14 C 1.1822(2) 0.40338(16) 0.62348(12)
C15 C 0.8714(2) 0.42317(14) 0.92104(11)
H8 H 0.92700 0.35130 0.91870
C16 C 0.5633(3) 0.37901(16) 1.31578(12)
H9 H 0.50390 0.31780 1.30090
H10 H 0.50910 0.40260 1.36930
H11 H 0.68700 0.35500 1.32390
C17 C 0.5350(3) 0.73779(15) 1.07274(12)
H12 H 0.65650 0.75220 1.05640
H13 H 0.47660 0.79900 1.10050
H14 H 0.47420 0.73040 1.02100
O5 O 0.61805(17) 0.20451(10) 0.72615(8)
O6 O 0.50211(18) 0.03218(10) 0.81304(8)
O7 O 1.1113(2) -0.13688(13) 0.07073(10)
O8 O 1.1911(2) 0.02748(14) 0.03597(9)
N3 N 1.1214(2) -0.04214(14) 0.08605(11)
N4 N 0.9825(2) 0.24048(14) 0.45768(11)
C18 C 0.6247(2) 0.11517(14) 0.68285(12)
C19 C 0.9252(2) 0.16438(15) 0.44047(11)
C20 C 0.5578(2) 0.02140(15) 0.73027(11)
C21 C 0.5556(2) -0.07309(14) 0.69173(12)
H15 H 0.50960 -0.13640 0.72320
C22 C 1.0011(2) 0.11658(15) 0.26973(12)
H16 H 1.01290 0.18770 0.28440
C23 C 0.6201(2) -0.07549(14) 0.60752(12)
H17 H 0.61680 -0.14060 0.58170
C24 C 0.9215(2) 0.03965(14) 0.32968(12)
C25 C 0.8614(2) 0.06711(14) 0.41629(12)
C26 C 0.6900(2) 0.01577(14) 0.55977(12)
C27 C 1.0466(2) -0.01230(16) 0.16927(12)
C28 C 0.6896(2) 0.11216(15) 0.59901(12)
H18 H 0.73450 0.17570 0.56740
C29 C 0.6903(2) 0.30126(15) 0.68230(13)
H19 H 0.81500 0.28430 0.66830
H20 H 0.67560 0.35940 0.71970
H21 H 0.62970 0.32620 0.62900
C30 C 1.0629(2) 0.09114(16) 0.18940(12)
H22 H 1.11580 0.14430 0.14880
C31 C 0.9673(3) -0.08990(16) 0.22631(13)
H23 H 0.95610 -0.16080 0.21100
C32 C 0.7567(2) 0.00488(15) 0.47164(12)
H24 H 0.72030 -0.05660 0.44920
C33 C 0.4363(3) -0.06211(16) 0.86420(12)
H25 H 0.33440 -0.08260 0.83750
H26 H 0.40200 -0.04460 0.92240
H27 H 0.52740 -0.12360 0.86760
C34 C 0.9043(3) -0.06370(15) 0.30604(13)
H28 H 0.84850 -0.11680 0.34540
#END
