
#######################################################################
#
#                 Cambridge Crystallographic Data Centre
#                                CCDC
#
#######################################################################
#
# If this CIF has been generated from an entry in the Cambridge
# Structural Database, then it will include bibliographic, chemical,
# crystal, experimental, refinement or atomic coordinate data resulting
# from the CCDC's data processing and validation procedures.
#
#######################################################################

data_CSD_CIF_QUZREJ02
_audit_creation_date 2016-10-24
_audit_creation_method CSD-ConQuest-V1
_database_code_CSD QUZREJ02
_database_code_depnum_ccdc_archive 'CCDC 1456631'
_chemical_formula_sum 'C17 H14 N2 O4'
_chemical_formula_moiety
;
C17 H14 N2 O4
;
_journal_coden_Cambridge 1350
_journal_volume 18
_journal_year 2016
_journal_page_first 8497
_journal_name_full 'CrystEngComm '
loop_
_publ_author_name
"K.K.Jha"
"S.Dutta"
"V.Kumar"
"P.Munshi"
_chemical_name_systematic
;
(Z)-3-(3,4-dimethoxyphenyl)-2-(4-nitrophenyl)acrylonitrile
;
_cell_volume   1450.147
_exptl_crystal_colour 'yellow'
_exptl_crystal_density_diffrn 1.421
_exptl_special_details
;
polymorph 2

;
_exptl_crystal_description 'Block'
_diffrn_ambient_temperature 100
#These two values have been output from a single CSD field.
_refine_ls_R_factor_gt 0.0628
_refine_ls_wR_factor_gt 0.0628
_symmetry_cell_setting triclinic
_symmetry_space_group_name_H-M 'P -1'
_symmetry_Int_Tables_number 2
loop_
_symmetry_equiv_pos_site_id
_symmetry_equiv_pos_as_xyz
1 x,y,z
2 -x,-y,-z
_cell_length_a 8.6636(4)
_cell_length_b 11.9452(6)
_cell_length_c 14.3305(7)
_cell_angle_alpha 100.527(2)
_cell_angle_beta 90.917(2)
_cell_angle_gamma 95.640(2)
_cell_formula_units_Z 4
loop_
_atom_type_symbol
_atom_type_radius_bond
C 0.68
H 0.23
N 0.68
O 0.68
loop_
_atom_site_label
_atom_site_type_symbol
_atom_site_fract_x
_atom_site_fract_y
_atom_site_fract_z
O1 O 0.4860(2) 0.62570(15) -0.14556(13)
O2 O 0.4460(2) 0.46303(15) -0.28969(12)
O3 O -0.3273(2) 0.25839(18) 0.41307(14)
O4 O -0.2666(3) 0.42857(18) 0.49526(14)
N1 N -0.2592(3) 0.3558(2) 0.42386(17)
N2 N 0.2986(3) 0.6631(2) 0.17925(16)
C1 C 0.3929(3) 0.5325(2) -0.13141(18)
C2 C 0.1281(3) 0.4703(2) 0.12847(18)
C3 C 0.1365(3) 0.4046(2) 0.04218(18)
H1 H 0.07510 0.33490 0.03410
C4 C 0.0246(3) 0.4405(2) 0.20422(18)
C5 C 0.3197(3) 0.5229(2) -0.04835(18)
H2 H 0.33350 0.58300 0.00330
C6 C 0.0396(3) 0.5062(2) 0.29543(18)
H3 H 0.11430 0.56890 0.30830
C7 C -0.1622(3) 0.3851(2) 0.34728(19)
C8 C 0.3716(3) 0.4426(2) -0.21111(18)
C9 C 0.2234(3) 0.4221(2) -0.04093(18)
C10 C 0.2234(3) 0.5779(2) 0.15502(18)
C11 C 0.2789(3) 0.3433(2) -0.20379(19)
H4 H 0.26550 0.28290 -0.25530
C12 C -0.0904(3) 0.3475(2) 0.18602(18)
H5 H -0.10480 0.30460 0.12490
C13 C -0.1829(3) 0.3186(2) 0.25765(19)
H6 H -0.25750 0.25570 0.24560
C14 C -0.0546(3) 0.4799(2) 0.36732(19)
H7 H -0.04540 0.52520 0.42770
C15 C 0.2065(3) 0.3344(2) -0.11968(19)
H8 H 0.14440 0.26740 -0.11580
C16 C 0.4974(3) 0.7255(2) -0.07258(19)
H9 H 0.39560 0.74840 -0.05940
H10 H 0.56040 0.78640 -0.09330
H11 H 0.54380 0.70880 -0.01610
C17 C 0.4248(4) 0.3754(2) -0.37297(19)
H12 H 0.46330 0.30690 -0.36010
H13 H 0.48050 0.40060 -0.42400
H14 H 0.31630 0.36010 -0.39060
O5 O 0.3761(2) 0.20646(15) 0.27899(13)
O6 O 0.5028(2) 0.02938(16) 0.19937(13)
O7 O -0.1430(2) -0.09926(17) 0.96373(14)
O8 O -0.2298(3) 0.06689(19) 0.98424(14)
N3 N -0.1592(3) -0.0074(2) 0.93867(16)
N4 N 0.0042(3) 0.2443(2) 0.52995(17)
C18 C 0.3687(3) 0.1182(2) 0.32796(18)
C19 C 0.3679(3) -0.0709(2) 0.41517(18)
H15 H 0.36920 -0.13390 0.44470
C20 C 0.2939(3) 0.0218(2) 0.45750(18)
C21 C 0.2957(3) 0.1178(2) 0.41222(19)
H16 H 0.24710 0.18110 0.43980
C22 C 0.0537(3) 0.1708(2) 0.55745(18)
C23 C -0.0886(3) 0.0131(2) 0.85052(18)
C24 C -0.1173(3) 0.1111(2) 0.81702(18)
H17 H -0.17970 0.16280 0.85000
C25 C 0.0420(3) 0.0540(2) 0.68275(18)
C26 C -0.0513(3) 0.1303(2) 0.73362(19)
H18 H -0.06960 0.19600 0.71080
C27 C 0.4404(3) -0.0716(2) 0.32938(19)
H19 H 0.48930 -0.13480 0.30190
C28 C 0.4400(3) 0.0221(2) 0.28462(18)
C29 C 0.2188(3) 0.0143(2) 0.54707(19)
H20 H 0.24980 -0.04320 0.57690
C30 C 0.1119(3) 0.0764(2) 0.59433(19)
C31 C 0.0670(3) -0.0448(2) 0.7187(2)
H21 H 0.12820 -0.09760 0.68590
C32 C 0.0017(4) -0.0643(2) 0.80201(19)
H22 H 0.01890 -0.13000 0.82530
C33 C 0.5666(4) -0.0695(2) 0.1495(2)
H23 H 0.65250 -0.08590 0.18620
H24 H 0.60170 -0.05520 0.08920
H25 H 0.48850 -0.13370 0.13980
C34 C 0.3102(4) 0.3076(2) 0.3224(2)
H26 H 0.20170 0.28930 0.33110
H27 H 0.32330 0.36380 0.28230
H28 H 0.36160 0.33760 0.38300
#END
