
#######################################################################
#
#                 Cambridge Crystallographic Data Centre
#                                CCDC
#
#######################################################################
#
# If this CIF has been generated from an entry in the Cambridge
# Structural Database, then it will include bibliographic, chemical,
# crystal, experimental, refinement or atomic coordinate data resulting
# from the CCDC's data processing and validation procedures.
#
#######################################################################

data_CSD_CIF_QUZREJ01
_audit_creation_date 2016-10-24
_audit_creation_method CSD-ConQuest-V1
_database_code_CSD QUZREJ01
_database_code_depnum_ccdc_archive 'CCDC 1456630'
_chemical_formula_sum 'C17 H14 N2 O4'
_chemical_formula_moiety
;
C17 H14 N2 O4
;
_journal_coden_Cambridge 1350
_journal_volume 18
_journal_year 2016
_journal_page_first 8497
_journal_name_full 'CrystEngComm '
loop_
_publ_author_name
"K.K.Jha"
"S.Dutta"
"V.Kumar"
"P.Munshi"
_chemical_name_systematic
;
(Z)-3-(3,4-dimethoxyphenyl)-2-(4-nitrophenyl)acrylonitrile
;
_chemical_name_common
;
3-(3,4-dimethoxyphenyl)-2-(4-nitrophenyl)prop-2-enenitrile
;
_cell_volume   1455.357
_exptl_crystal_colour 'yellow'
_exptl_crystal_density_diffrn 1.416
_exptl_special_details
;
polymorph 1

;
_exptl_crystal_description 'Block'
_diffrn_ambient_temperature 100
#These two values have been output from a single CSD field.
_refine_ls_R_factor_gt 0.0405
_refine_ls_wR_factor_gt 0.0405
_symmetry_cell_setting triclinic
_symmetry_space_group_name_H-M 'P -1'
_symmetry_Int_Tables_number 2
loop_
_symmetry_equiv_pos_site_id
_symmetry_equiv_pos_as_xyz
1 x,y,z
2 -x,-y,-z
_cell_length_a 10.2321(4)
_cell_length_b 11.9576(5)
_cell_length_c 12.2700(5)
_cell_angle_alpha 91.001(1)
_cell_angle_beta 99.561(1)
_cell_angle_gamma 100.188(1)
_cell_formula_units_Z 4
loop_
_atom_type_symbol
_atom_type_radius_bond
C 0.68
H 0.23
N 0.68
O 0.68
loop_
_atom_site_label
_atom_site_type_symbol
_atom_site_fract_x
_atom_site_fract_y
_atom_site_fract_z
O1 O 0.13916(11) 1.06544(10) 0.46693(9)
O2 O 0.29791(11) 1.02189(10) 0.63927(9)
O3 O 0.91534(13) 0.31987(11) 0.43249(11)
O4 O 0.78187(13) 0.29564(11) 0.27314(10)
N1 N 0.65234(14) 0.78768(12) 0.68573(11)
N2 N 0.82145(15) 0.34291(12) 0.36620(12)
C1 C 0.55892(16) 0.69984(13) 0.48751(13)
C2 C 0.30226(16) 0.96179(13) 0.54497(13)
C3 C 0.38343(16) 0.88253(14) 0.53722(13)
H1 H 0.44210 0.86660 0.60130
C4 C 0.63186(16) 0.44606(14) 0.33462(13)
H2 H 0.59390 0.39760 0.27080
C5 C 0.62489(16) 0.60576(13) 0.45725(13)
C6 C 0.21416(16) 0.98619(13) 0.45020(13)
C7 C 0.75246(16) 0.43247(13) 0.39884(14)
C8 C 0.56799(16) 0.53115(14) 0.36499(13)
H3 H 0.48390 0.53950 0.32280
C9 C 0.60907(16) 0.75016(13) 0.59758(13)
C10 C 0.46060(16) 0.73907(14) 0.41856(13)
H4 H 0.44070 0.70400 0.34620
C11 C 0.38059(16) 0.82443(14) 0.43495(13)
C12 C 0.74535(16) 0.58745(14) 0.52085(13)
H5 H 0.78450 0.63570 0.58450
C13 C 0.21099(16) 0.92940(14) 0.34982(13)
H6 H 0.15260 0.94550 0.28570
C14 C 0.80865(17) 0.50053(14) 0.49306(14)
H7 H 0.88930 0.48790 0.53790
C15 C 0.29255(16) 0.84926(14) 0.34258(13)
H8 H 0.28840 0.81060 0.27350
C16 C 0.04121(17) 1.08728(15) 0.37523(14)
H9 H 0.08740 1.11960 0.31600
H10 H -0.01120 1.14120 0.39950
H11 H -0.01940 1.01590 0.34760
C17 C 0.37666(18) 0.99495(15) 0.74008(13)
H12 H 0.35030 0.91410 0.75300
H13 H 0.36100 1.04090 0.80190
H14 H 0.47250 1.01140 0.73420
O5 O 1.16155(12) 0.17203(10) 0.79263(9)
O6 O 1.23059(12) 0.06432(10) 0.96591(9)
O7 O 0.46111(13) 0.73842(11) 1.1386(1)
O8 O 0.44450(13) 0.80172(11) 0.97355(11)
N3 N 0.48940(14) 0.74127(12) 1.04468(12)
N4 N 0.94727(16) 0.50689(13) 0.76041(12)
C18 C 0.70052(16) 0.60077(14) 0.88623(13)
H15 H 0.72700 0.60410 0.81560
C19 C 1.00927(16) 0.26289(13) 0.88152(13)
H16 H 0.98620 0.30480 0.81840
C20 C 0.83535(16) 0.44709(14) 0.93034(13)
C21 C 1.07384(17) 0.13766(14) 1.06564(13)
H17 H 1.09460 0.09400 1.12810
C22 C 0.57932(16) 0.66660(13) 1.01625(13)
C23 C 0.74630(16) 0.52351(14) 0.96054(13)
C24 C 0.61736(16) 0.67268(14) 0.91311(13)
H18 H 0.58700 0.72510 0.86190
C25 C 0.62449(16) 0.59289(14) 1.09282(13)
H19 H 0.59840 0.59110 1.16370
C26 C 0.98284(16) 0.21060(14) 1.06669(13)
H20 H 0.94150 0.21610 1.12990
C27 C 0.95087(16) 0.27613(14) 0.97656(13)
C28 C 0.89735(17) 0.47816(14) 0.83505(13)
C29 C 1.09907(16) 0.18999(13) 0.87942(13)
C30 C 1.13506(16) 0.12794(14) 0.97361(13)
C31 C 0.70781(16) 0.52187(14) 1.06558(13)
H21 H 0.73960 0.47130 1.11820
C32 C 0.86169(16) 0.35572(14) 0.98870(13)
H22 H 0.81310 0.34130 1.04810
C33 C 1.13509(18) 0.23650(15) 0.69634(13)
H23 H 1.03840 0.22010 0.66620
H24 H 1.18570 0.21550 0.64040
H25 H 1.16310 0.31790 0.71670
C34 C 1.27675(18) 0.00641(15) 1.06245(14)
H26 H 1.31180 0.06190 1.12480
H27 H 1.34840 -0.03340 1.04780
H28 H 1.20150 -0.04880 1.08060
#END
