
#######################################################################
#
#                 Cambridge Crystallographic Data Centre
#                                CCDC
#
#######################################################################
#
# If this CIF has been generated from an entry in the Cambridge
# Structural Database, then it will include bibliographic, chemical,
# crystal, experimental, refinement or atomic coordinate data resulting
# from the CCDC's data processing and validation procedures.
#
#######################################################################

data_CSD_CIF_QUZVEN
_audit_creation_date 2011-03-31
_audit_creation_method CSD-ConQuest-V1
_database_code_CSD QUZVEN
_database_code_depnum_ccdc_archive 'CCDC 782616'
_chemical_formula_sum 'C30 H25 N1 O2'
_chemical_formula_moiety
;
C30 H25 N1 O2
;
_journal_coden_Cambridge 392
_journal_volume 81
_journal_year 2010
_journal_page_first 2749
_journal_name_full 'Heterocycles '
loop_
_publ_author_name
"N.Wannassi"
"M.M.Rammah"
"S.Boudriga"
"M.E.B.Rammah"
"K.Monnier-Jobe"
"K.Ciamala"
"M.Knorr"
"M.Enescu"
"Y.Rousselin"
"M.M.Kubicki"
_chemical_name_systematic
;
5'-(4-Methylphenyl)-2',3'-diphenylspiro[indene-2,4'-[1,2]oxazolidin]-1(3H)-one
;
_cell_volume   1114.443
_exptl_crystal_colour 'colorless'
_exptl_crystal_density_diffrn 1.286
_exptl_crystal_description 'prism'
_diffrn_ambient_temperature 115
_refine_special_details
;
C12,C13,C14,C15 disordered over two sites with occupancies 0.61:0.39.

;
#These two values have been output from a single CSD field.
_refine_ls_R_factor_gt 0.0496
_refine_ls_wR_factor_gt 0.0496
_symmetry_cell_setting triclinic
_symmetry_space_group_name_H-M 'P -1'
_symmetry_Int_Tables_number 2
loop_
_symmetry_equiv_pos_site_id
_symmetry_equiv_pos_as_xyz
1 x,y,z
2 -x,-y,-z
_cell_length_a 8.3336(2)
_cell_length_b 9.5701(3)
_cell_length_c 15.3515(4)
_cell_angle_alpha 81.393(2)
_cell_angle_beta 79.535(2)
_cell_angle_gamma 68.349(1)
_cell_formula_units_Z 2
loop_
_atom_type_symbol
_atom_type_radius_bond
C 0.68
H 0.23
N 0.68
O 0.68
loop_
_atom_site_label
_atom_site_type_symbol
_atom_site_fract_x
_atom_site_fract_y
_atom_site_fract_z
C1 C 0.4240(2) 0.27463(17) 0.24615(10)
C2 C 0.5927(2) 0.30616(17) 0.24423(10)
H1 H 0.65520 0.30700 0.18290
H2 H 0.56690 0.40470 0.26710
C3 C 0.6993(2) 0.17876(17) 0.30363(9)
C4 C 0.8641(2) 0.15357(18) 0.32394(10)
H3 H 0.92450 0.22030 0.29900
C5 C 0.9386(2) 0.02899(19) 0.38142(11)
H4 H 1.05160 0.01020 0.39550
C6 C 0.8506(2) -0.0694(2) 0.41892(11)
H5 H 0.90400 -0.15370 0.45840
C7 C 0.6872(2) -0.04532(18) 0.39928(10)
H6 H 0.62640 -0.11150 0.42490
C8 C 0.6135(2) 0.07937(17) 0.34046(10)
C9 C 0.4448(2) 0.12832(17) 0.30751(10)
C10 C 0.2512(2) 0.40062(17) 0.27826(10)
H7 H 0.16110 0.35320 0.30070
C11 C 0.2595(2) 0.48803(19) 0.35078(11)
C12 C 0.2402(6) 0.4402(4) 0.4404(3)
H8 H 0.21200 0.35170 0.45840
C13 C 0.2609(5) 0.5181(4) 0.5061(2)
H9 H 0.24900 0.48160 0.56710
C14 C 0.2984(4) 0.6471(4) 0.4808(2)
H10 H 0.31480 0.69940 0.52450
C15 C 0.3127(5) 0.7025(4) 0.39164(18)
H11 H 0.33580 0.79340 0.37340
C16 C 0.2925(2) 0.62172(19) 0.33208(11)
H12 H 0.30460 0.67060 0.27390
C17 C 0.0216(2) 0.54125(16) 0.18522(9)
C18 C -0.1023(2) 0.63578(18) 0.24513(11)
H13 H -0.06650 0.66700 0.29190
C19 C -0.2773(2) 0.68413(19) 0.23640(11)
H14 H -0.36120 0.74690 0.27810
C20 C -0.3315(2) 0.64231(18) 0.16773(11)
H15 H -0.45180 0.67720 0.16160
C21 C -0.2094(2) 0.54951(18) 0.10828(10)
H16 H -0.24600 0.52030 0.06100
C22 C -0.0332(2) 0.49815(17) 0.1167(1)
H17 H 0.04980 0.43350 0.07560
C23 C 0.3847(2) 0.26440(16) 0.15329(10)
H18 H 0.29340 0.21750 0.16040
C24 C 0.5343(2) 0.18580(17) 0.08526(10)
C25 C 0.5981(2) 0.02909(18) 0.08854(11)
H19 H 0.54960 -0.02760 0.13470
C26 C 0.7317(2) -0.04514(18) 0.02527(11)
H20 H 0.77490 -0.15230 0.02940
C27 C 0.8042(2) 0.03370(18) -0.04419(10)
C28 C 0.9417(2) -0.0457(2) -0.11645(12)
H21 H 0.97580 0.02900 -0.15900
H22 H 0.89510 -0.10180 -0.14730
H23 H 1.04380 -0.11590 -0.09010
C29 C 0.7414(2) 0.19083(18) -0.04646(10)
H24 H 0.79010 0.24750 -0.09250
C30 C 0.6095(2) 0.26561(18) 0.01714(10)
H25 H 0.56970 0.37270 0.01440
N1 N 0.20083(17) 0.49969(14) 0.19555(8)
O1 O 0.31200(14) 0.42052(11) 0.12099(6)
O2 O 0.33706(15) 0.06609(13) 0.32388(8)
C31? C 0.2382(10) 0.4106(7) 0.4357(5)
C32? C 0.2469(7) 0.4755(5) 0.5072(4)
C33? C 0.2839(7) 0.6081(6) 0.4975(3)
C34? C 0.3067(8) 0.6796(7) 0.4139(3)
H26? H 0.21870 0.31760 0.44260
H27? H 0.22710 0.42900 0.56530
H28? H 0.29330 0.64890 0.54830
H29? H 0.33260 0.76950 0.40830
H30? H 0.96730 -0.15480 -0.10530
H31? H 1.04800 -0.02400 -0.11690
H32? H 0.89940 -0.00990 -0.17420
#END
