
#######################################################################
#
#                 Cambridge Crystallographic Data Centre
#                                CCDC
#
#######################################################################
#
# If this CIF has been generated from an entry in the Cambridge
# Structural Database, then it will include bibliographic, chemical,
# crystal, experimental, refinement or atomic coordinate data resulting
# from the CCDC's data processing and validation procedures.
#
#######################################################################

data_CSD_CIF_RABSOY
_audit_creation_date 1996-08-06
_audit_creation_method CSD-ConQuest-V1
_database_code_CSD RABSOY
_chemical_formula_sum 'C8 H8 N6 O5'
_chemical_formula_moiety
;
C8 H8 N6 O5
;
_journal_coden_Cambridge 1186
_journal_volume 3
_journal_year 1993
_journal_page_first 71
_journal_name_full 'Supramol.Chem. '
loop_
_publ_author_name
"L.Chertanova"
"C.Pascard"
"A.Sheremetev"
_chemical_name_systematic
;
Difurazo(3,4-h;3,4-l)-1,4,7,10,11-trioxadiazacyclotridec-10-ene
;
_cell_volume   2326.435
_exptl_crystal_density_diffrn 1.531
_diffrn_ambient_temperature ?
_diffrn_special_details
;
The study was carried out at room temperature,in the range 283-303K

;
#These two values have been output from a single CSD field.
_refine_ls_R_factor_gt 0.055
_refine_ls_wR_factor_gt 0.055
_symmetry_cell_setting orthorhombic
_symmetry_space_group_name_H-M 'P b c a'
_symmetry_Int_Tables_number 61
loop_
_symmetry_equiv_pos_site_id
_symmetry_equiv_pos_as_xyz
1 x,y,z
2 1/2-x,-y,1/2+z
3 1/2+x,1/2-y,-z
4 -x,1/2+y,1/2-z
5 -x,-y,-z
6 -1/2+x,y,-1/2-z
7 -1/2-x,-1/2+y,z
8 x,-1/2-y,-1/2+z
_cell_length_a 13.216(4)
_cell_length_b 11.067(4)
_cell_length_c 15.906(4)
_cell_angle_alpha 90
_cell_angle_beta 90
_cell_angle_gamma 90
_cell_formula_units_Z 8
loop_
_atom_type_symbol
_atom_type_radius_bond
C 0.68
N 0.68
O 0.68
loop_
_atom_site_label
_atom_site_type_symbol
_atom_site_fract_x
_atom_site_fract_y
_atom_site_fract_z
O1 O 0.7737(5) 0.2842(7) 0.3948(4)
O2 O 0.5503(5) 0.1403(7) 0.4778(4)
O3 O 0.4737(4) 0.1340(6) 0.3158(4)
O4 O 0.4031(5) 0.0227(6) 0.1225(4)
O5 O 0.8611(5) 0.3977(6) 0.2090(5)
N1 N 0.6148(5) 0.1924(7) 0.1642(4)
N2 N 0.6417(5) 0.2262(6) 0.2352(4)
N3 N 0.3845(6) 0.0314(7) 0.2093(5)
N4 N 0.4881(6) 0.0837(7) 0.0985(5)
N5 N 0.7775(6) 0.3414(7) 0.1739(5)
N6 N 0.8676(6) 0.3795(8) 0.2969(6)
C1 C 0.4589(6) 0.0976(7) 0.2363(6)
C2 C 0.5233(7) 0.1294(8) 0.1670(5)
C3 C 0.7340(6) 0.2903(7) 0.2383(5)
C4 C 0.7879(6) 0.3132(8) 0.3185(7)
C5 C 0.7051(8) 0.1870(9) 0.4175(6)
C6 C 0.6072(5) 0.2390(9) 0.4457(6)
C7 C 0.4459(8) 0.1477(9) 0.4614(5)
C8 C 0.4174(7) 0.0769(9) 0.3858(6)
#END
