
#######################################################################
#
#                 Cambridge Crystallographic Data Centre
#                                CCDC
#
#######################################################################
#
# If this CIF has been generated from an entry in the Cambridge
# Structural Database, then it will include bibliographic, chemical,
# crystal, experimental, refinement or atomic coordinate data resulting
# from the CCDC's data processing and validation procedures.
#
#######################################################################

data_CSD_CIF_RACKUE
_audit_creation_date 2015-12-04
_audit_creation_method CSD-ConQuest-V1
_database_code_CSD RACKUE
_database_code_depnum_ccdc_archive 'CCDC 1422537'
_chemical_formula_sum 'C17 H15 N1 O1'
_chemical_formula_moiety
;
C17 H15 N1 O1
;
_journal_coden_Cambridge 177
_journal_volume 14
_journal_year 2016
_journal_page_first 1065
_journal_name_full 'Org.Biomol.Chem. '
loop_
_publ_author_name
"B.S.Pilgrim"
"A.E.Gatland"
"C.H.A.Esteves"
"C.T.McTernan"
"G.R.Jones"
"M.R.Tatton"
"P.A.Procopiou"
"T.J.Donohoe"
_chemical_name_systematic
;
1,4-dimethyl-3-phenylisoquinoline 2-oxide
;
_cell_volume   1286.275
_exptl_crystal_colour 'colorless'
_exptl_crystal_density_diffrn 1.287
_exptl_crystal_description 'block'
_diffrn_ambient_temperature 150
#These two values have been output from a single CSD field.
_refine_ls_R_factor_gt 0.04
_refine_ls_wR_factor_gt 0.04
_symmetry_cell_setting monoclinic
_symmetry_space_group_name_H-M 'P 21/c'
_symmetry_Int_Tables_number 14
loop_
_symmetry_equiv_pos_site_id
_symmetry_equiv_pos_as_xyz
1 x,y,z
2 -x,1/2+y,1/2-z
3 -x,-y,-z
4 x,-1/2-y,-1/2+z
_cell_length_a 9.4554(1)
_cell_length_b 10.6808(2)
_cell_length_c 12.7524(2)
_cell_angle_alpha 90
_cell_angle_beta 92.8615(7)
_cell_angle_gamma 90
_cell_formula_units_Z 4
loop_
_atom_type_symbol
_atom_type_radius_bond
C 0.68
H 0.23
N 0.68
O 0.68
loop_
_atom_site_label
_atom_site_type_symbol
_atom_site_fract_x
_atom_site_fract_y
_atom_site_fract_z
O1 O 0.82538(9) 0.77550(8) 0.23630(7)
N1 N 0.81097(9) 0.85285(9) 0.31464(7)
C1 C 0.71840(11) 0.81786(10) 0.39242(9)
C2 C 0.70010(11) 0.89363(10) 0.47674(9)
C3 C 0.77677(11) 1.00917(11) 0.48560(9)
C4 C 0.86624(11) 1.0438(1) 0.40430(9)
C5 C 0.88179(11) 0.96212(11) 0.31799(9)
C6 C 0.97067(13) 0.98702(12) 0.22659(10)
C7 C 0.93946(12) 1.16013(11) 0.41211(10)
C8 C 0.92432(14) 1.23596(12) 0.49730(11)
C9 C 0.83870(14) 1.20042(13) 0.57864(11)
C10 C 0.76605(13) 1.08934(12) 0.57281(10)
C11 C 0.60234(12) 0.85645(12) 0.56078(9)
C12 C 0.64286(12) 0.69679(11) 0.37363(9)
C13 C 0.50719(13) 0.69722(12) 0.32671(10)
C14 C 0.43267(14) 0.58647(13) 0.31187(11)
C15 C 0.49170(15) 0.47404(12) 0.34453(11)
C16 C 0.62713(17) 0.47255(13) 0.39028(14)
C17 C 0.70229(15) 0.58341(12) 0.40487(12)
H1 H 1.02040 1.06790 0.23620
H2 H 1.03900 0.91800 0.22250
H3 H 0.90750 0.98760 0.16290
H4 H 1.00160 1.18510 0.35670
H5 H 0.97440 1.31700 0.50100
H6 H 0.83050 1.25510 0.63940
H7 H 0.70700 1.06440 0.63070
H8 H 0.53530 0.92590 0.57320
H9 H 0.65840 0.83760 0.62530
H10 H 0.54740 0.78090 0.53810
H11 H 0.46500 0.77730 0.30300
H12 H 0.33630 0.58740 0.27690
H13 H 0.43930 0.39530 0.33480
H14 H 0.66770 0.39300 0.41230
H15 H 0.79830 0.58330 0.43620
#END
