
#######################################################################
#
#                 Cambridge Crystallographic Data Centre
#                                CCDC
#
#######################################################################
#
# If this CIF has been generated from an entry in the Cambridge
# Structural Database, then it will include bibliographic, chemical,
# crystal, experimental, refinement or atomic coordinate data resulting
# from the CCDC's data processing and validation procedures.
#
#######################################################################

data_CSD_CIF_RACKUB
_audit_creation_date 1997-07-21
_audit_creation_method CSD-ConQuest-V1
_database_code_CSD RACKUB
_database_code_depnum_ccdc_journal 182/255
_chemical_formula_sum 'C13 H19 N1 O6'
_chemical_formula_moiety
;
C13 H19 N1 O6
;
_journal_coden_Cambridge 182
_journal_year 1996
_journal_page_first 2559
_journal_name_full 'Chem.Commun. '
loop_
_publ_author_name
"M.Node"
"K.Nishide"
"H.Imazato"
"R.Kurosaki"
"T.Inoue"
"T.Ikariya"
_chemical_name_systematic
;
3-(3-Methoxy-2-nitro-5-oxo-cyclohexyl)-3-methyl-pyran-2-one
;
_cell_volume   1364.475
_exptl_crystal_colour 'colorless'
_exptl_crystal_density_diffrn 1.389
_diffrn_ambient_temperature ?
_diffrn_special_details
;
The study was carried out at room temperature,in the range 283-303K

;
#These two values have been output from a single CSD field.
_refine_ls_R_factor_gt 0.029
_refine_ls_wR_factor_gt 0.029
_symmetry_cell_setting monoclinic
_symmetry_space_group_name_H-M 'P 21/c'
_symmetry_Int_Tables_number 14
loop_
_symmetry_equiv_pos_site_id
_symmetry_equiv_pos_as_xyz
1 x,y,z
2 -x,1/2+y,1/2-z
3 -x,-y,-z
4 x,-1/2-y,-1/2+z
_cell_length_a 9.270(3)
_cell_length_b 9.681(2)
_cell_length_c 15.248(2)
_cell_angle_alpha 90
_cell_angle_beta 94.34(2)
_cell_angle_gamma 90
_cell_formula_units_Z 4
loop_
_atom_type_symbol
_atom_type_radius_bond
C 0.68
H 0.23
N 0.68
O 0.68
loop_
_atom_site_label
_atom_site_type_symbol
_atom_site_fract_x
_atom_site_fract_y
_atom_site_fract_z
O1 O 0.7632(2) 0.0340(2) 0.46063(9)
O2 O 1.1507(1) 0.2094(1) 0.31089(9)
O3 O 1.0554(2) 0.0245(2) 0.1495(1)
O4 O 1.0265(2) 0.2376(2) 0.1084(1)
O5 O 0.4069(1) 0.0908(1) 0.13684(9)
O6 O 0.5327(2) -0.0805(1) 0.1924(1)
N1 N 1.0077(2) 0.1408(2) 0.1580(1)
C1 C 0.7797(2) 0.0871(2) 0.2326(1)
C2 C 0.9223(2) 0.1682(2) 0.2362(1)
C3 C 1.0221(2) 0.1316(2) 0.3167(1)
C4 C 0.9511(2) 0.1626(3) 0.4011(1)
C5 C 0.8034(2) 0.1002(2) 0.3995(1)
C6 C 0.7065(2) 0.1241(2) 0.3174(1)
C7 C 1.2768(3) 0.1420(3) 0.3473(2)
C8 C 0.6750(2) 0.1113(2) 0.1488(1)
C9 C 0.6509(2) 0.2655(2) 0.1298(1)
C10 C 0.5174(2) 0.2887(3) 0.0679(2)
C11 C 0.3893(3) 0.2345(2) 0.1093(2)
C12 C 0.5340(2) 0.0353(2) 0.1627(1)
C13 C 0.7298(3) 0.0371(3) 0.0677(1)
H1 H 0.805(2) -0.009(2) 0.234(1)
H2 H 0.906(2) 0.265(2) 0.234(1)
H3 H 1.043(2) 0.031(2) 0.314(1)
H4 H 1.014(2) 0.128(2) 0.451(2)
H5 H 0.940(3) 0.259(3) 0.404(2)
H6 H 0.616(2) 0.073(2) 0.321(1)
H7 H 0.678(2) 0.219(2) 0.317(1)
H8 H 1.264(3) 0.110(3) 0.404(2)
H9 H 1.354(2) 0.201(2) 0.345(1)
H10 H 1.292(3) 0.060(3) 0.310(2)
H11 H 0.734(2) 0.301(2) 0.106(1)
H12 H 0.637(2) 0.316(2) 0.186(1)
H13 H 0.527(2) 0.241(2) 0.012(1)
H14 H 0.505(2) 0.388(2) 0.057(1)
H15 H 0.302(3) 0.233(2) 0.069(1)
H16 H 0.372(2) 0.285(2) 0.166(1)
H17 H 0.655(2) 0.031(2) 0.020(1)
H18 H 0.808(2) 0.089(2) 0.042(1)
H19 H 0.762(2) -0.056(2) 0.082(1)
#END
