
#######################################################################
#
#                 Cambridge Crystallographic Data Centre
#                                CCDC
#
#######################################################################
#
# If this CIF has been generated from an entry in the Cambridge
# Structural Database, then it will include bibliographic, chemical,
# crystal, experimental, refinement or atomic coordinate data resulting
# from the CCDC's data processing and validation procedures.
#
#######################################################################

data_CSD_CIF_RACLAI
_audit_creation_date 1997-07-21
_audit_creation_method CSD-ConQuest-V1
_database_code_CSD RACLAI
_database_code_depnum_ccdc_journal 182/255
_chemical_formula_sum 'C11 H19 N1 O4'
_chemical_formula_moiety
;
C11 H19 N1 O4
;
_journal_coden_Cambridge 182
_journal_year 1996
_journal_page_first 2559
_journal_name_full 'Chem.Commun. '
loop_
_publ_author_name
"M.Node"
"K.Nishide"
"H.Imazato"
"R.Kurosaki"
"T.Inoue"
"T.Ikariya"
_chemical_name_systematic
;
3-t-Butyl-5-methoxy-4-nitrocyclohexanone
;
_cell_volume   1228.341
_exptl_crystal_colour 'colorless'
_exptl_crystal_density_diffrn 1.24
_diffrn_ambient_temperature ?
_diffrn_special_details
;
The study was carried out at room temperature,in the range 283-303K

;
#These two values have been output from a single CSD field.
_refine_ls_R_factor_gt 0.051
_refine_ls_wR_factor_gt 0.051
_symmetry_cell_setting monoclinic
_symmetry_space_group_name_H-M 'P 21/n'
_symmetry_Int_Tables_number 14
loop_
_symmetry_equiv_pos_site_id
_symmetry_equiv_pos_as_xyz
1 x,y,z
2 1/2-x,1/2+y,1/2-z
3 -x,-y,-z
4 -1/2+x,-1/2-y,-1/2+z
_cell_length_a 11.344(4)
_cell_length_b 6.515(2)
_cell_length_c 17.209(2)
_cell_angle_alpha 90
_cell_angle_beta 105.03(2)
_cell_angle_gamma 90
_cell_formula_units_Z 4
loop_
_atom_type_symbol
_atom_type_radius_bond
C 0.68
H 0.23
N 0.68
O 0.68
loop_
_atom_site_label
_atom_site_type_symbol
_atom_site_fract_x
_atom_site_fract_y
_atom_site_fract_z
O1 O -0.3296(3) -0.1670(6) -0.3499(2)
O2 O 0.0658(3) -0.2661(6) -0.3914(2)
O3 O -0.1689(5) 0.1856(7) -0.4159(2)
O4 O -0.3627(6) 0.2279(7) -0.4522(3)
N1 N -0.2721(6) 0.1235(7) -0.4457(2)
C1 C -0.2869(4) -0.0951(7) -0.4739(2)
C2 C -0.2595(4) -0.2347(7) -0.4007(3)
C3 C -0.1234(5) -0.2472(8) -0.3598(3)
C4 C -0.2894(5) -0.1904(8) -0.6199(3)
C5 C -0.2094(4) -0.1344(7) -0.5334(2)
C6 C -0.3747(5) -0.0124(9) -0.6513(3)
C7 C -0.3620(6) -0.382(1) -0.6199(3)
C8 C -0.1079(5) -0.2921(9) -0.5018(3)
C9 C -0.2066(5) -0.2186(9) -0.6757(3)
C10 C -0.0438(5) -0.2648(8) -0.4143(3)
C11 C -0.3409(6) -0.3088(10) -0.2908(3)
H1 H -0.36300 -0.12050 -0.49510
H2 H -0.28770 -0.36270 -0.42340
H3 H -0.11800 -0.36970 -0.32530
H4 H -0.09480 -0.12900 -0.32710
H5 H -0.17760 -0.00210 -0.54060
H6 H -0.43880 0.01360 -0.62100
H7 H -0.33570 0.11460 -0.64650
H8 H -0.42940 -0.39570 -0.58870
H9 H -0.32150 -0.48540 -0.60150
H10 H -0.40770 -0.43400 -0.67490
H11 H -0.14910 -0.41240 -0.51000
H12 H -0.26780 -0.23770 -0.73030
H13 H -0.15210 -0.10520 -0.67250
H14 H -0.39530 -0.26770 -0.26200
H15 H -0.26000 -0.36680 -0.25790
H16 H -0.41510 -0.04350 -0.70590
H17 H -0.15470 -0.34360 -0.66420
H18 H -0.36960 -0.43770 -0.32070
H19 H -0.04400 -0.29250 -0.53020
#END
