
#######################################################################
#
#                 Cambridge Crystallographic Data Centre
#                                CCDC
#
#######################################################################
#
# If this CIF has been generated from an entry in the Cambridge
# Structural Database, then it will include bibliographic, chemical,
# crystal, experimental, refinement or atomic coordinate data resulting
# from the CCDC's data processing and validation procedures.
#
#######################################################################

data_CSD_CIF_RADKAJ
_audit_creation_date 2005-02-17
_audit_creation_method CSD-ConQuest-V1
_database_code_CSD RADKAJ
_database_code_depnum_ccdc_archive 'CCDC 251704'
_chemical_formula_sum 'C24 H20 N2 O9'
_chemical_formula_moiety
;
C24 H20 N2 O9
;
_journal_coden_Cambridge 1336
_journal_volume 6
_journal_year 2004
_journal_page_first 3071
_journal_name_full 'Org.Lett. '
loop_
_publ_author_name
"Chong-Dao Lu"
"Zhi-Yong Chen"
"Hui Liu"
"Wen-Hao Hu"
"Ai-Qiao Mi"
_chemical_name_systematic
;
5-(2,4-Dinitrophenyl)-4-methoxycarbonyl-4-phenyl-2-(4-methoxyphenyl)-1,3-dioxo
lane
;
_cell_volume   2229.203
_exptl_crystal_density_diffrn 1.431
_diffrn_ambient_temperature 302
#These two values have been output from a single CSD field.
_refine_ls_R_factor_gt 0.0365
_refine_ls_wR_factor_gt 0.0365
_symmetry_cell_setting monoclinic
_symmetry_space_group_name_H-M 'P 21/c'
_symmetry_Int_Tables_number 14
loop_
_symmetry_equiv_pos_site_id
_symmetry_equiv_pos_as_xyz
1 x,y,z
2 x,1/2-y,1/2+z
3 -x,-y,-z
4 -x,-1/2+y,-1/2-z
_cell_length_a 10.471(2)
_cell_length_b 9.614(2)
_cell_length_c 22.286(5)
_cell_angle_alpha 90
_cell_angle_beta 96.47(2)
_cell_angle_gamma 90
_cell_formula_units_Z 4
loop_
_atom_type_symbol
_atom_type_radius_bond
C 0.68
H 0.23
N 0.68
O 0.68
loop_
_atom_site_label
_atom_site_type_symbol
_atom_site_fract_x
_atom_site_fract_y
_atom_site_fract_z
O1 O 0.24555(11) 0.13897(12) 0.07084(5)
O2 O 0.11260(11) 0.28337(11) 0.11261(5)
O3 O 0.47443(14) -0.36339(16) 0.26613(7)
O4 O 0.31043(15) -0.49559(15) 0.24292(6)
O5 O 0.00285(13) -0.35384(14) 0.07185(6)
O6 O -0.05657(12) -0.14022(14) 0.08174(6)
O7 O -0.15913(12) 0.16089(16) 0.13554(6)
O8 O -0.10681(12) 0.16042(16) 0.04193(6)
O9 O 0.56767(14) 0.69344(16) 0.08682(7)
N1 N 0.37054(16) -0.38889(18) 0.23742(7)
N2 N 0.02257(14) -0.23548(17) 0.08966(6)
C1 C 0.14516(16) 0.04962(17) 0.08568(7)
H1 H 0.09270 0.01850 0.04890
C2 C 0.06376(16) 0.14830(17) 0.12411(7)
C3 C 0.18989(17) 0.27261(18) 0.06372(7)
H2 H 0.13600 0.27930 0.02490
C4 C 0.20486(15) -0.07319(18) 0.12022(7)
C5 C 0.32405(16) -0.05609(18) 0.15387(8)
H3 H 0.36780 0.02740 0.15100
C6 C 0.37925(17) -0.15852(19) 0.19127(8)
H4 H 0.45840 -0.14400 0.21380
C7 C 0.31550(16) -0.28277(18) 0.19476(7)
C8 C 0.20060(16) -0.30946(18) 0.16038(7)
H5 H 0.16020 -0.39540 0.16170
C9 C 0.14767(15) -0.20315(18) 0.12382(7)
C10 C 0.08655(15) 0.12097(17) 0.19162(7)
C11 C 0.17827(17) 0.1981(2) 0.22660(8)
H6 H 0.21990 0.27070 0.20930
C12 C 0.20855(19) 0.1676(2) 0.28759(9)
H7 H 0.26960 0.22070 0.31090
C13 C 0.14913(19) 0.0601(2) 0.31329(9)
H8 H 0.17060 0.03920 0.35390
C14 C 0.05765(19) -0.0171(2) 0.27916(9)
H9 H 0.01680 -0.08980 0.29680
C15 C 0.02603(17) 0.01297(19) 0.21860(8)
H10 H -0.03630 -0.03960 0.19580
C16 C -0.07694(17) 0.15371(19) 0.09566(9)
C17 C -0.29223(19) 0.1771(3) 0.11162(12)
H11 H -0.34450 0.18140 0.14430
H12 H -0.31840 0.09920 0.08620
H13 H -0.30240 0.26130 0.08850
H14? H -0.29900 0.17990 0.06830
H15? H -0.32510 0.26210 0.12650
H16? H -0.34110 0.10000 0.12420
C18 C 0.29014(16) 0.38392(18) 0.06876(7)
C19 C 0.39608(17) 0.37844(19) 0.11201(8)
H17 H 0.40610 0.30310 0.13830
C20 C 0.48618(18) 0.4824(2) 0.11668(8)
H18 H 0.55690 0.47670 0.14590
C21 C 0.47262(18) 0.5959(2) 0.07821(9)
C22 C 0.36654(19) 0.6042(2) 0.03581(8)
H19 H 0.35510 0.68130 0.01060
C23 C 0.27684(18) 0.49783(19) 0.03080(8)
H20 H 0.20650 0.50320 0.00140
C24 C 0.5627(2) 0.8088(2) 0.04675(11)
H21 H 0.55470 0.77600 0.00580
H22 H 0.64000 0.86250 0.05470
H23 H 0.48990 0.86590 0.05270
#END
