
#######################################################################
#
#                 Cambridge Crystallographic Data Centre
#                                CCDC
#
#######################################################################
#
# If this CIF has been generated from an entry in the Cambridge
# Structural Database, then it will include bibliographic, chemical,
# crystal, experimental, refinement or atomic coordinate data resulting
# from the CCDC's data processing and validation procedures.
#
#######################################################################

data_CSD_CIF_RADSOF
_audit_creation_date 2005-02-17
_audit_creation_method CSD-ConQuest-V1
_database_code_CSD RADSOF
_database_code_depnum_ccdc_archive 'CCDC 252628'
_chemical_formula_sum 'C11 H11 N3 O3'
_chemical_formula_moiety
;
C11 H11 N3 O3
;
_journal_coden_Cambridge 35
_journal_volume 69
_journal_year 2004
_journal_page_first 6371
_journal_name_full 'J.Org.Chem. '
loop_
_publ_author_name
"P.Wiklund"
"M.Rogers-Evans"
"J.Bergman"
_chemical_name_systematic
;
4-Ethyl-1-nitroso-1H-1,4-benzodiazepine-3,5(2H,4H)-dione
;
_chemical_melting_point 391.15
_cell_volume   1088.151
_exptl_crystal_colour 'colorless'
_exptl_crystal_density_diffrn 1.424
_exptl_special_details
;
Melting point range 391.15-392.15K

;
_diffrn_ambient_temperature 293
#These two values have been output from a single CSD field.
_refine_ls_R_factor_gt 0.0461
_refine_ls_wR_factor_gt 0.0461
_symmetry_cell_setting monoclinic
_symmetry_space_group_name_H-M 'P 21/c'
_symmetry_Int_Tables_number 14
loop_
_symmetry_equiv_pos_site_id
_symmetry_equiv_pos_as_xyz
1 x,y,z
2 x,1/2-y,1/2+z
3 -x,-y,-z
4 -x,-1/2+y,-1/2-z
_cell_length_a 8.8931(18)
_cell_length_b 11.851(2)
_cell_length_c 10.408(2)
_cell_angle_alpha 90
_cell_angle_beta 97.25(3)
_cell_angle_gamma 90
_cell_formula_units_Z 4
loop_
_atom_type_symbol
_atom_type_radius_bond
C 0.68
H 0.23
N 0.68
O 0.68
loop_
_atom_site_label
_atom_site_type_symbol
_atom_site_fract_x
_atom_site_fract_y
_atom_site_fract_z
O1 O 0.36432(18) -0.14293(13) 0.92088(15)
O2 O 0.2864(2) 0.19136(15) 0.73790(14)
O3 O 0.01757(19) 0.30348(13) 0.96840(14)
N1 N 0.27785(17) 0.02061(14) 0.83334(14)
N2 N 0.15203(16) 0.15649(12) 1.02778(13)
N3 N 0.02414(19) 0.21561(15) 1.03014(14)
C1 C 0.3060(2) -0.05277(15) 0.93935(17)
C2 C 0.2732(3) -0.0335(2) 0.70378(19)
H1 H 0.20780 0.01070 0.64130
H2 H 0.22840 -0.10790 0.70740
C3 C 0.4260(3) -0.0451(3) 0.6569(2)
H3 H 0.47140 0.02810 0.65280
H4 H 0.41390 -0.07870 0.57230
H5 H 0.49010 -0.09210 0.71570
C4 C 0.2805(2) 0.13742(18) 0.83578(17)
C5 C 0.27791(9) 0.19645(7) 0.96260(7)
H6 H 0.37270 0.18290 1.01750
H7 H 0.26800 0.27710 0.94800
C6 C 0.17024(9) 0.05997(7) 1.10551(7)
C7 C 0.25401(9) -0.03193(7) 1.07161(7)
C8 C 0.27723(9) -0.12400(7) 1.15448(7)
H8 H 0.33330 -0.18550 1.13180
C9 C 0.21667(9) -0.12416(7) 1.27125(7)
H9 H 0.23220 -0.18580 1.32670
C10 C 0.13290(9) -0.03225(7) 1.30514(7)
H10 H 0.09240 -0.03240 1.38330
C11 C 0.10969(9) 0.05981(7) 1.22228(7)
H11 H 0.05360 0.12130 1.24500
#END
