
#######################################################################
#
#                 Cambridge Crystallographic Data Centre
#                                CCDC
#
#######################################################################
#
# If this CIF has been generated from an entry in the Cambridge
# Structural Database, then it will include bibliographic, chemical,
# crystal, experimental, refinement or atomic coordinate data resulting
# from the CCDC's data processing and validation procedures.
#
#######################################################################

data_CSD_CIF_RAFHIP
_audit_creation_date 1997-07-21
_audit_creation_method CSD-ConQuest-V1
_database_code_CSD RAFHIP
_database_code_depnum_ccdc_journal 207/13
_chemical_formula_sum 'C46 H58 N2 O8'
_chemical_formula_moiety
;
C46 H58 N2 O8
;
_journal_coden_Cambridge 207
_journal_year 1996
_journal_page_first 1711
_journal_name_full 'J.Chem.Soc.,Perkin Trans.1 '
loop_
_publ_author_name
"O.Mogck"
"V.Bohmer"
"G.Ferguson"
"W.Vogt"
_chemical_name_systematic
;
11,23-Di-t-butyl-26,28-dihydroxy-5,17-dinitro-25,27-dipentyloxycalix(4)arene
;
_chemical_melting_point 558.15
_cell_volume   2250.247
_exptl_crystal_colour 'colorless'
_exptl_crystal_density_diffrn 1.132
_exptl_special_details
;
Melts with decomposition.

;
_diffrn_ambient_temperature ?
_diffrn_special_details
;
The study was carried out at room temperature,in the range 283-303K

;
_refine_special_details
;
The t-butyl methyl carbon atoms and one carbon of the pentyl chain are 
disordered.
;
#These two values have been output from a single CSD field.
_refine_ls_R_factor_gt 0.0759
_refine_ls_wR_factor_gt 0.0759
_symmetry_cell_setting triclinic
_symmetry_space_group_name_H-M 'P -1'
_symmetry_Int_Tables_number 2
loop_
_symmetry_equiv_pos_site_id
_symmetry_equiv_pos_as_xyz
1 x,y,z
2 -x,-y,-z
_cell_length_a 12.208(2)
_cell_length_b 12.424(2)
_cell_length_c 15.175(2)
_cell_angle_alpha 92.528(10)
_cell_angle_beta 90.816(10)
_cell_angle_gamma 101.789(12)
_cell_formula_units_Z 2
loop_
_atom_type_symbol
_atom_type_radius_bond
C 0.68
H 0.23
N 0.68
O 0.68
loop_
_atom_site_label
_atom_site_type_symbol
_atom_site_fract_x
_atom_site_fract_y
_atom_site_fract_z
O1 O 0.3456(3) -0.3249(3) 0.3312(3)
C1 C 0.3340(4) -0.4063(4) 0.2669(4)
C2 C 0.2512(4) -0.5019(5) 0.2680(4)
C3 C 0.2508(5) -0.5822(4) 0.2028(4)
C4 C 0.3299(5) -0.5685(5) 0.1377(4)
C5 C 0.4092(5) -0.4707(5) 0.1351(4)
C6 C 0.4114(4) -0.3884(4) 0.1997(4)
C7 C 0.4931(4) -0.2793(4) 0.1962(4)
N1 N 0.3346(5) -0.6580(4) 0.0739(3)
O2 O 0.2700(4) -0.7466(4) 0.0812(3)
O3 O 0.4015(4) -0.6433(4) 0.0152(3)
O4 O 0.4693(3) -0.0912(3) 0.3088(2)
C8 C 0.4250(4) -0.0992(5) 0.2221(3)
C9 C 0.4350(4) -0.1887(4) 0.1669(4)
C10 C 0.3886(5) -0.1935(5) 0.0827(4)
C11 C 0.3319(5) -0.1159(5) 0.0532(4)
C12 C 0.3201(4) -0.0306(5) 0.1122(4)
C13 C 0.3654(4) -0.0212(4) 0.1975(3)
C14 C 0.3463(4) 0.0699(4) 0.2606(4)
C15 C 0.2803(6) -0.1251(6) -0.0394(4)
C16 C 0.1749(9) -0.1943(13) -0.0425(6)
C17 C 0.3511(11) -0.1746(10) -0.1044(5)
C18 C 0.2810(11) -0.0164(8) -0.0755(6)
C19 C 0.5841(4) -0.0303(5) 0.3175(3)
C20 C 0.6199(5) -0.0199(5) 0.4135(3)
C21 C 0.6150(6) -0.1285(6) 0.4560(5)
C22 C 0.7134(6) -0.1790(6) 0.4373(6)
C23 C 0.7208(7) -0.2818(7) 0.4857(6)
O5 O 0.2663(3) -0.1012(3) 0.3870(2)
C24 C 0.1961(5) -0.0389(5) 0.3566(3)
C25 C 0.2298(5) 0.0462(4) 0.2987(3)
C26 C 0.1522(5) 0.1067(4) 0.2754(4)
C27 C 0.0466(5) 0.0838(5) 0.3089(4)
C28 C 0.0123(5) 0.0000(5) 0.3648(4)
C29 C 0.0877(5) -0.0637(4) 0.3892(3)
C30 C 0.0507(4) -0.1629(4) 0.4422(3)
N2 N -0.0360(5) 0.1500(5) 0.2842(4)
O6 O -0.0028(4) 0.2335(4) 0.2424(3)
O7 O -0.1332(4) 0.1210(4) 0.3042(3)
O8 O 0.1768(3) -0.3344(3) 0.4592(2)
C31 C 0.0943(4) -0.3482(4) 0.3929(3)
C32 C 0.0329(4) -0.2670(4) 0.3828(3)
C33 C -0.0398(4) -0.2792(5) 0.3104(4)
C34 C -0.0523(4) -0.3666(5) 0.2475(4)
C35 C 0.0111(4) -0.4430(5) 0.2610(4)
C36 C 0.0854(5) -0.4366(4) 0.3316(4)
C37 C 0.1627(4) -0.5186(4) 0.3377(3)
C38 C -0.1297(5) -0.3714(6) 0.1677(4)
C39 C -0.0911(10) -0.4189(13) 0.0898(6)
C40 C -0.1513(12) -0.2644(9) 0.1463(7)
C41 C -0.2415(7) -0.4344(11) 0.1846(7)
C42 C 0.1360(5) -0.3768(5) 0.5423(3)
C43 C 0.2297(6) -0.3428(7) 0.6105(4)
C44 C 0.3287(9) -0.3937(8) 0.5937(6)
C45 C 0.4186(9) -0.3387(8) 0.6633(7)
C46 C 0.5031(10) -0.4089(12) 0.6479(8)
H1 H 0.29120 -0.33610 0.36310
H2 H 0.19640 -0.64670 0.20230
H3 H 0.46050 -0.46090 0.09000
H4 H 0.55170 -0.28700 0.15530
H5 H 0.52770 -0.25880 0.25410
H6 H 0.39590 -0.25180 0.04410
H7 H 0.28090 0.02170 0.09420
H8 H 0.35670 0.13810 0.23010
H9 H 0.40150 0.07980 0.30850
H10 H 0.17990 -0.26320 -0.01820
H11 H 0.14820 -0.20680 -0.10260
H12 H 0.12400 -0.16060 -0.00870
H13 H 0.42490 -0.12920 -0.10450
H14 H 0.31760 -0.17880 -0.16240
H15 H 0.35570 -0.24710 -0.08770
H16 H 0.35560 0.02730 -0.07160
H17 H 0.23190 0.02020 -0.04220
H18 H 0.25600 -0.02610 -0.13610
H19 H 0.58970 0.04220 0.29460
H20 H 0.63270 -0.06850 0.28380
H21 H 0.57230 0.02100 0.44570
H22 H 0.69590 0.02250 0.41890
H23 H 0.60990 -0.11720 0.51930
H24 H 0.54760 -0.17950 0.43520
H25 H 0.78070 -0.12400 0.45140
H26 H 0.71320 -0.19700 0.37440
H27 H 0.78710 -0.30700 0.46870
H28 H 0.65620 -0.33840 0.47090
H29 H 0.72390 -0.26520 0.54820
H30 H 0.32490 -0.08840 0.36000
H31 H 0.17140 0.16320 0.23680
H32 H -0.06010 -0.01380 0.38590
H33 H -0.01860 -0.15800 0.47120
H34 H 0.10690 -0.16560 0.48740
H35 H -0.08260 -0.22610 0.30330
H36 H 0.00410 -0.50270 0.22060
H37 H 0.19880 -0.51020 0.39570
H38 H 0.11850 -0.59290 0.33070
H39 H -0.07630 -0.48990 0.10180
H40 H -0.02370 -0.37190 0.07120
H41 H -0.14750 -0.42690 0.04380
H42 H -0.17770 -0.23040 0.19750
H43 H -0.20700 -0.27380 0.09970
H44 H -0.08340 -0.21850 0.12740
H45 H -0.26950 -0.40440 0.23700
H46 H -0.23780 -0.50990 0.19260
H47 H -0.29050 -0.43050 0.13540
H48 H 0.11370 -0.45640 0.53700
H49 H 0.07150 -0.34710 0.55950
H50 H 0.25390 -0.26330 0.61210
H51 H 0.20100 -0.36290 0.66810
H52 H 0.35550 -0.38000 0.53460
H53 H 0.30930 -0.47260 0.60020
H54 H 0.44840 -0.26220 0.65180
H55 H 0.39030 -0.34380 0.72270
H56 H 0.56620 -0.38420 0.68750
H57 H 0.52750 -0.40330 0.58810
H58 H 0.47000 -0.48410 0.65810
#END
