
#######################################################################
#
#                 Cambridge Crystallographic Data Centre
#                                CCDC
#
#######################################################################
#
# If this CIF has been generated from an entry in the Cambridge
# Structural Database, then it will include bibliographic, chemical,
# crystal, experimental, refinement or atomic coordinate data resulting
# from the CCDC's data processing and validation procedures.
#
#######################################################################

data_CSD_CIF_RAFHOV
_audit_creation_date 1997-07-21
_audit_creation_method CSD-ConQuest-V1
_database_code_CSD RAFHOV
_database_code_depnum_ccdc_journal 207/13
_chemical_formula_sum 'C54 H74 N2 O8'
_chemical_formula_moiety
;
C54 H74 N2 O8
;
_journal_coden_Cambridge 207
_journal_year 1996
_journal_page_first 1711
_journal_name_full 'J.Chem.Soc.,Perkin Trans.1 '
loop_
_publ_author_name
"O.Mogck"
"V.Bohmer"
"G.Ferguson"
"W.Vogt"
_chemical_name_systematic
;
5,11,17,23-Tetra-t-butyl-3,15-dinitro-27,28-dioxo-25,26-bis(pentyloxy)-calix(4
)arene
;
_chemical_melting_point 455.15
_cell_volume   5063.254
_exptl_crystal_colour 'yellow'
_exptl_crystal_density_diffrn 1.153
_exptl_special_details
;
Melts with decomposition.

;
_diffrn_ambient_temperature ?
_diffrn_special_details
;
The study was carried out at room temperature,in the range 283-303K

;
_refine_special_details
;
The t-butyl group at C24 is disordered.

;
#These two values have been output from a single CSD field.
_refine_ls_R_factor_gt 0.0667
_refine_ls_wR_factor_gt 0.0667
_symmetry_cell_setting monoclinic
_symmetry_space_group_name_H-M 'P 21/c'
_symmetry_Int_Tables_number 14
loop_
_symmetry_equiv_pos_site_id
_symmetry_equiv_pos_as_xyz
1 x,y,z
2 x,1/2-y,1/2+z
3 -x,-y,-z
4 -x,-1/2+y,-1/2-z
_cell_length_a 11.5677(15)
_cell_length_b 18.0871(15)
_cell_length_c 24.201(2)
_cell_angle_alpha 90
_cell_angle_beta 90.544(12)
_cell_angle_gamma 90
_cell_formula_units_Z 4
loop_
_atom_type_symbol
_atom_type_radius_bond
C 0.68
H 0.23
N 0.68
O 0.68
loop_
_atom_site_label
_atom_site_type_symbol
_atom_site_fract_x
_atom_site_fract_y
_atom_site_fract_z
O1 O 0.0864(2) 0.98044(13) 0.6230(1)
O2 O 0.0039(2) 0.94279(14) 0.74017(13)
O3 O 0.1617(2) 0.88692(15) 0.7284(2)
O4 O 0.2175(2) 1.18463(12) 0.49937(9)
O5 O 0.4583(2) 1.25675(15) 0.47008(11)
O6 O 0.3613(3) 1.4139(2) 0.40384(13)
O7 O 0.5020(3) 1.4181(2) 0.46195(13)
O8 O 0.3331(2) 1.05454(12) 0.60234(9)
N1 N 0.1046(3) 0.9421(2) 0.72850(13)
N2 N 0.4049(3) 1.4004(2) 0.4482(2)
C1 C 0.1071(3) 1.0311(2) 0.6539(2)
C2 C 0.1586(3) 1.0157(2) 0.71177(13)
C3 C 0.1233(3) 1.0711(2) 0.75379(14)
H1 H 0.1299(3) 1.0588(2) 0.79099(14)
C4 C 0.0829(3) 1.1371(2) 0.74033(13)
C5 C 0.0729(3) 1.1569(2) 0.68133(14)
H2 H 0.0576(3) 1.2060(2) 0.67240(14)
C6 C 0.0843(3) 1.1086(2) 0.63998(14)
C7 C 0.2913(3) 1.0059(2) 0.71085(14)
H3 H 0.3164(3) 0.9868(2) 0.74645(14)
H4 H 0.3100(3) 0.9690(2) 0.68323(14)
C8 C 0.0389(3) 1.1931(2) 0.78227(14)
C9 C 0.0580(4) 1.1649(2) 0.8413(2)
H5 H 0.0197(4) 1.1182(2) 0.8457(2)
H6 H 0.0270(4) 1.1999(2) 0.8670(2)
H7 H 0.1393(4) 1.1588(2) 0.8482(2)
C10 C -0.0903(3) 1.2038(2) 0.7719(2)
H8 H -0.1293(3) 1.1573(2) 0.7760(2)
H9 H -0.1026(3) 1.2222(2) 0.7351(2)
H10 H -0.1202(3) 1.2386(2) 0.7981(2)
C11 C 0.1000(3) 1.2671(2) 0.7757(2)
H11 H 0.1814(3) 1.2608(2) 0.7822(2)
H12 H 0.0697(3) 1.3018(2) 0.8019(2)
H13 H 0.0873(3) 1.2854(2) 0.7389(2)
C12 C 0.1336(3) 1.2294(2) 0.52164(14)
C13 C 0.0550(3) 1.2020(2) 0.55986(14)
C14 C -0.0325(3) 1.2484(2) 0.57732(14)
H14 H -0.0870(3) 1.2294(2) 0.60153(14)
C15 C -0.0437(3) 1.3214(2) 0.56080(14)
C16 C 0.0416(3) 1.3478(2) 0.52555(15)
H15 H 0.0394(3) 1.3973(2) 0.51515(15)
C17 C 0.1302(3) 1.3034(2) 0.50518(13)
C18 C 0.0636(3) 1.1225(2) 0.57859(14)
H16 H 0.1259(3) 1.0992(2) 0.55844(14)
H17 H -0.0074(3) 1.0976(2) 0.56789(14)
C19 C -0.1439(3) 1.3710(2) 0.5788(2)
C20 C -0.2224(7) 1.3337(4) 0.6191(4)
H18 H -0.2487(7) 1.2876(4) 0.6038(4)
H19 H -0.2877(7) 1.3649(4) 0.6261(4)
H20 H -0.1812(7) 1.3247(4) 0.6530(4)
C21 C -0.2176(6) 1.3898(5) 0.5282(3)
H21 H -0.1706(6) 1.4139(5) 0.5011(3)
H22 H -0.2794(6) 1.4222(5) 0.5388(3)
H23 H -0.2493(6) 1.3452(5) 0.5127(3)
C22 C -0.1015(6) 1.4438(4) 0.6019(4)
H24 H -0.0513(6) 1.4671(4) 0.5757(4)
H25 H -0.0598(6) 1.4352(4) 0.6358(4)
H26 H -0.1663(6) 1.4755(4) 0.6089(4)
C23 C 0.1783(4) 1.1433(2) 0.4515(2)
H27 H 0.1209(4) 1.1074(2) 0.4628(2)
H28 H 0.1418(4) 1.1768(2) 0.4254(2)
C24 C 0.2717(5) 1.1057(3) 0.4250(2)
H29 H 0.3121(5) 1.0760(3) 0.4524(2)
H30 H 0.3257(5) 1.1424(3) 0.4115(2)
C25 C 0.2365(6) 1.0563(3) 0.3774(2)
H31 H 0.1527(6) 1.0554(3) 0.3781(2)
H32 H 0.2567(6) 1.0838(3) 0.3444(2)
C26 C 0.2644(8) 0.9940(5) 0.3679(4)
H33 H 0.2407(8) 0.9671(5) 0.4005(4)
H34 H 0.3481(8) 0.9954(5) 0.3698(4)
C27 C 0.2406(5) 0.9434(3) 0.3235(3)
H35 H 0.2791(5) 0.8973(3) 0.3306(3)
H36 H 0.2680(5) 0.9639(3) 0.2894(3)
H37 H 0.1588(5) 0.9351(3) 0.3207(3)
C28? C -0.1385(19) 1.3761(12) 0.6426(8)
H38? H -0.1451(19) 1.3275(12) 0.6581(8)
H39? H -0.2008(19) 1.4065(12) 0.6554(8)
H40? H -0.0661(19) 1.3976(12) 0.6538(8)
C29? C -0.2579(21) 1.3334(15) 0.5599(13)
H41? H -0.2625(21) 1.2849(15) 0.5757(13)
H42? H -0.2593(21) 1.3297(15) 0.5203(13)
H43? H -0.3224(21) 1.3625(15) 0.5718(13)
C30? C -0.1333(22) 1.4477(14) 0.5547(12)
H44? H -0.1971(22) 1.4774(14) 0.5667(12)
H45? H -0.1340(22) 1.4447(14) 0.5151(12)
H46? H -0.0622(22) 1.4697(14) 0.5671(12)
C31 C 0.4083(3) 1.2892(2) 0.50636(15)
C32 C 0.3352(3) 1.3575(2) 0.49186(14)
C33 C 0.3166(3) 1.4098(2) 0.53878(15)
H47 H 0.2962(3) 1.4585(2) 0.53119(15)
C34 C 0.3285(3) 1.3885(2) 0.59085(15)
C35 C 0.3678(3) 1.3131(2) 0.60196(14)
H48 H 0.3652(3) 1.2969(2) 0.63839(14)
C36 C 0.4071(3) 1.2656(2) 0.56443(14)
C37 C 0.2183(3) 1.3343(2) 0.46571(14)
H49 H 0.1848(3) 1.3770(2) 0.44738(14)
H50 H 0.2332(3) 1.2974(2) 0.43755(14)
C38 C 0.3039(3) 1.4380(2) 0.64025(15)
C39 C 0.2494(3) 1.5113(2) 0.6228(2)
H51 H 0.2352(3) 1.5408(2) 0.6550(2)
H52 H 0.1777(3) 1.5020(2) 0.6038(2)
H53 H 0.3011(3) 1.5371(2) 0.5987(2)
C40 C 0.4189(3) 1.4534(2) 0.6704(2)
H54 H 0.4052(3) 1.4845(2) 0.7017(2)
H55 H 0.4710(3) 1.4777(2) 0.6456(2)
H56 H 0.4523(3) 1.4075(2) 0.6826(2)
C41 C 0.2201(3) 1.3987(2) 0.6797(2)
H57 H 0.2049(3) 1.4301(2) 0.7108(2)
H58 H 0.2542(3) 1.3533(2) 0.6924(2)
H59 H 0.1489(3) 1.3881(2) 0.6605(2)
C42 C 0.3800(3) 1.0971(2) 0.64447(14)
C43 C 0.4435(3) 1.1610(2) 0.63377(14)
C44 C 0.4926(3) 1.1991(2) 0.67877(14)
H60 H 0.5398(3) 1.2396(2) 0.67174(14)
C45 C 0.4739(3) 1.1790(2) 0.73310(14)
C46 C 0.4050(3) 1.1170(2) 0.74177(14)
H61 H 0.3890(3) 1.1030(2) 0.77789(14)
C47 C 0.3592(3) 1.0750(2) 0.69872(14)
C48 C 0.4573(3) 1.1894(2) 0.57577(14)
H62 H 0.4210(3) 1.1545(2) 0.55061(14)
H63 H 0.5391(3) 1.1905(2) 0.56738(14)
C49 C 0.5253(3) 1.2223(2) 0.78167(14)
C50 C 0.6067(4) 1.2834(2) 0.7635(2)
H64 H 0.6678(4) 1.2625(2) 0.7420(2)
H65 H 0.6389(4) 1.3074(2) 0.7955(2)
H66 H 0.5647(4) 1.3188(2) 0.7416(2)
C51 C 0.4294(4) 1.2569(3) 0.8157(2)
H67 H 0.3770(4) 1.2190(3) 0.8276(2)
H68 H 0.3882(4) 1.2924(3) 0.7936(2)
H69 H 0.4624(4) 1.2811(3) 0.8475(2)
C52 C 0.5949(4) 1.1701(2) 0.8195(2)
H70 H 0.5458(4) 1.1307(2) 0.8318(2)
H71 H 0.6234(4) 1.1971(2) 0.8510(2)
H72 H 0.6588(4) 1.1499(2) 0.7995(2)
C53 C 0.4152(4) 1.0036(2) 0.5788(2)
H73 H 0.4563(4) 0.9778(2) 0.6081(2)
H74 H 0.4713(4) 1.0306(2) 0.5572(2)
C54 C 0.3529(5) 0.9485(3) 0.5425(2)
H75 H 0.2909(5) 0.9743(3) 0.5233(2)
H76 H 0.4066(5) 0.9313(3) 0.5148(2)
C55 C 0.3041(5) 0.8845(3) 0.5695(2)
H77 H 0.2588(5) 0.9014(3) 0.6006(2)
H78 H 0.3671(5) 0.8548(3) 0.5843(2)
C56 C 0.2298(6) 0.8361(3) 0.5346(2)
H79 H 0.1769(6) 0.8665(3) 0.5131(2)
H80 H 0.2778(6) 0.8088(3) 0.5091(2)
C57 C 0.1645(5) 0.7849(3) 0.5676(2)
H81 H 0.1174(5) 0.7545(3) 0.5438(2)
H82 H 0.1158(5) 0.8118(3) 0.5924(2)
H83 H 0.2166(5) 0.7542(3) 0.5884(2)
#END
