
#######################################################################
#
#                 Cambridge Crystallographic Data Centre
#                                CCDC
#
#######################################################################
#
# If this CIF has been generated from an entry in the Cambridge
# Structural Database, then it will include bibliographic, chemical,
# crystal, experimental, refinement or atomic coordinate data resulting
# from the CCDC's data processing and validation procedures.
#
#######################################################################

data_CSD_CIF_RAFVOJ
_audit_creation_date 1997-07-21
_audit_creation_method CSD-ConQuest-V1
_database_code_CSD RAFVOJ
_database_code_depnum_ccdc_archive 'CCDC 1246278; CCDC 405471'
_database_code_depnum_ccdc_fiz 'CSD 405471'
_chemical_formula_sum 'C29 H22 N2 O3'
_chemical_formula_moiety
;
C29 H22 N2 O3
;
_journal_coden_Cambridge 167
_journal_year 1997
_journal_page_first 441
_journal_name_full 'Liebigs Ann. '
loop_
_publ_author_name
"F.Risitano"
"G.Grassi"
"G.Bruno"
"F.Nicolo"
_chemical_name_systematic
;
4-(1-Phenyl-2-benzoyl-2-(1-pyridinio))-ethyl-3-phenylisoxazol-5-olate
;
_chemical_melting_point 529.15
_cell_volume   2316.604
_exptl_crystal_colour 'yellow'
_exptl_crystal_density_diffrn 1.28
_diffrn_ambient_temperature ?
_diffrn_special_details
;
The study was carried out at room temperature,in the range 283-303K

;
#These two values have been output from a single CSD field.
_refine_ls_R_factor_gt 0.0328
_refine_ls_wR_factor_gt 0.0328
_symmetry_cell_setting monoclinic
_symmetry_space_group_name_H-M 'P 21/c'
_symmetry_Int_Tables_number 14
loop_
_symmetry_equiv_pos_site_id
_symmetry_equiv_pos_as_xyz
1 x,y,z
2 -x,1/2+y,1/2-z
3 -x,-y,-z
4 x,-1/2-y,-1/2+z
_cell_length_a 13.984(3)
_cell_length_b 12.221(3)
_cell_length_c 15.055(4)
_cell_angle_alpha 90
_cell_angle_beta 115.79(2)
_cell_angle_gamma 90
_cell_formula_units_Z 4
loop_
_atom_type_symbol
_atom_type_radius_bond
C 0.68
H 0.23
N 0.68
O 0.68
loop_
_atom_site_label
_atom_site_type_symbol
_atom_site_fract_x
_atom_site_fract_y
_atom_site_fract_z
O1 O 0.0230(2) 0.4081(1) 0.5893(1)
C1 C -0.0067(2) 0.3125(2) 0.5917(2)
O2 O 0.0689(1) 0.2338(1) 0.6412(1)
N1 N 0.0187(2) 0.1294(2) 0.6325(2)
C2 C -0.0828(2) 0.1503(2) 0.5793(2)
C3 C -0.1054(2) 0.2606(2) 0.5532(2)
C4 C -0.1597(2) 0.0577(2) 0.5535(2)
C5 C -0.1516(3) -0.0303(2) 0.4993(2)
C6 C -0.2225(3) -0.1153(3) 0.4752(3)
C7 C -0.3037(3) -0.1130(3) 0.5026(3)
C8 C -0.3140(3) -0.0267(3) 0.5557(3)
C9 C -0.2417(3) 0.0593(3) 0.5812(2)
C10 C -0.2099(2) 0.3088(2) 0.4826(2)
C11 C -0.2614(2) 0.3841(2) 0.5302(2)
C12 C -0.3464(3) 0.3464(3) 0.5454(2)
C13 C -0.3922(3) 0.4104(3) 0.5923(3)
C14 C -0.3548(3) 0.5135(3) 0.6227(3)
C15 C -0.2734(3) 0.5531(3) 0.6063(3)
C16 C -0.2255(3) 0.4887(3) 0.5607(2)
C17 C -0.1997(2) 0.3673(2) 0.3954(2)
N2 N -0.1363(2) 0.2991(2) 0.3585(1)
C18 C -0.0503(2) 0.3431(2) 0.3552(2)
C19 C 0.0129(3) 0.2822(3) 0.3258(2)
C20 C -0.0115(3) 0.1735(3) 0.3011(2)
C21 C -0.0998(3) 0.1294(2) 0.3054(2)
C22 C -0.1610(2) 0.1933(2) 0.3336(2)
C23 C -0.3106(2) 0.3856(2) 0.3107(2)
O3 O -0.3631(2) 0.3058(2) 0.2714(2)
C24 C -0.3522(2) 0.4967(2) 0.2790(2)
C25 C -0.2871(2) 0.5884(2) 0.2978(2)
C26 C -0.3311(3) 0.6885(2) 0.2582(2)
C27 C -0.4392(3) 0.6981(3) 0.2030(3)
C28 C -0.5032(3) 0.6081(3) 0.1853(3)
C29 C -0.4612(2) 0.5079(2) 0.2216(2)
H1 H -0.0327(2) 0.4183(2) 0.3738(2)
H2 H -0.0958(3) -0.0319(2) 0.4784(2)
H3 H 0.0737(3) 0.3148(3) 0.3223(2)
H4 H -0.4501(3) 0.3823(3) 0.6035(3)
H5 H 0.0327(3) 0.1294(3) 0.2813(2)
H6 H -0.2489(3) 0.1201(3) 0.6182(2)
H7 H -0.1180(3) 0.0540(2) 0.2885(2)
H8 H -0.3862(3) 0.5580(3) 0.6555(3)
H9 H -0.2231(2) 0.1626(2) 0.3359(2)
H10 H -0.3537(3) -0.1723(3) 0.4846(3)
H11 H -0.2484(3) 0.6263(3) 0.6263(3)
H12 H -0.2571(2) 0.2475(2) 0.4581(2)
H13 H -0.1672(3) 0.5174(3) 0.5505(2)
H14 H -0.2120(2) 0.5821(2) 0.3381(2)
H15 H -0.2151(3) -0.1767(3) 0.4389(3)
H16 H -0.2862(3) 0.7513(2) 0.2691(2)
H17 H -0.1649(2) 0.4363(2) 0.4184(2)
H18 H -0.4698(3) 0.7680(3) 0.1770(3)
H19 H -0.3708(3) -0.0255(3) 0.5753(3)
H20 H -0.5785(3) 0.6154(3) 0.1468(3)
H21 H -0.3740(3) 0.2745(3) 0.5230(2)
H22 H -0.5067(2) 0.4452(2) 0.2077(2)
#END
