
#######################################################################
#
#                 Cambridge Crystallographic Data Centre
#                                CCDC
#
#######################################################################
#
# If this CIF has been generated from an entry in the Cambridge
# Structural Database, then it will include bibliographic, chemical,
# crystal, experimental, refinement or atomic coordinate data resulting
# from the CCDC's data processing and validation procedures.
#
#######################################################################

data_CSD_CIF_RAGJOY
_audit_creation_date 1997-07-20
_audit_creation_method CSD-ConQuest-V1
_database_code_CSD RAGJOY
_database_code_depnum_ccdc_archive 'CCDC 1246322'
_chemical_formula_sum 'C34 H37 N3 O2'
_chemical_formula_moiety
;
C34 H37 N3 O2
;
_journal_coden_Cambridge 392
_journal_volume 44
_journal_year 1997
_journal_page_first 289
_journal_name_full 'Heterocycles '
loop_
_publ_author_name
"C.Kashima"
"K.Takahashi"
"I.Fukuchi"
"K.Fukusaka"
_chemical_name_systematic
;
2-(5'-Methyl-2',3'-diphenylisoxazolidin-4'-ylcarbonyl)-3-phenyl-l-menthopyrazo
le
;
_cell_volume   1460.525
_exptl_crystal_density_diffrn 1.18
_diffrn_ambient_temperature ?
_diffrn_special_details
;
The study was carried out at room temperature,in the range 283-303K

;
#These two values have been output from a single CSD field.
_refine_ls_R_factor_gt 0.068
_refine_ls_wR_factor_gt 0.068
_symmetry_cell_setting monoclinic
_symmetry_space_group_name_H-M 'P 21'
_symmetry_Int_Tables_number 4
loop_
_symmetry_equiv_pos_site_id
_symmetry_equiv_pos_as_xyz
1 x,y,z
2 -x,1/2+y,-z
_cell_length_a 11.792(5)
_cell_length_b 8.377(2)
_cell_length_c 15.297(6)
_cell_angle_alpha 90
_cell_angle_beta 104.86(1)
_cell_angle_gamma 90
_cell_formula_units_Z 2
loop_
_atom_type_symbol
_atom_type_radius_bond
C 0.68
H 0.23
N 0.68
O 0.68
loop_
_atom_site_label
_atom_site_type_symbol
_atom_site_fract_x
_atom_site_fract_y
_atom_site_fract_z
O1 O 0.5839(6) 0.36500 0.6823(4)
O2 O 0.2781(6) 0.404(1) 0.7839(5)
N1 N 0.2613(6) 0.141(1) 0.7507(5)
N2 N 0.2967(7) 0.022(1) 0.7009(5)
N3 N 0.6143(7) 0.448(1) 0.7670(5)
C1 C 0.4483(7) 0.278(1) 0.7553(6)
C2 C 0.6306(8) 0.613(1) 0.7552(7)
C3 C 0.666(1) 0.874(1) 0.8236(8)
C4 C 0.5808(8) 0.354(1) 0.9101(6)
C5 C 0.2105(8) -0.082(1) 0.6837(6)
C6 C 0.431(1) 0.213(2) 0.5841(7)
C7 C 0.667(1) 0.839(2) 0.6670(8)
C8 C 0.5305(9) 0.407(2) 0.9835(7)
C9 C 0.5214(7) 0.411(1) 0.8154(6)
C10 C 0.644(1) 0.716(1) 0.8311(7)
C11 C 0.1492(8) 0.107(1) 0.7639(6)
C12 C 0.6770(9) 0.260(1) 0.9299(7)
C13 C 0.1161(8) -0.037(1) 0.7226(6)
C14 C 0.3227(8) 0.283(1) 0.7634(6)
C15 C 0.644(1) 0.676(2) 0.6725(7)
C16 C 0.678(1) 0.940(2) 0.7409(8)
C17 C 0.011(1) -0.140(2) 0.7182(8)
C18 C 0.0907(8) 0.210(1) 0.8182(7)
C19 C 0.4599(8) 0.337(1) 0.6619(6)
C20 C 0.084(1) 0.319(2) 0.9620(8)
C21 C 0.677(1) 0.257(2) 1.0896(7)
C22 C -0.0166(9) 0.273(2) 0.7772(8)
C23 C 0.176(1) -0.070(2) 0.4797(8)
C24 C 0.211(1) -0.232(2) 0.6276(7)
C25 C 0.254(1) -0.188(1) 0.5419(7)
C26 C 0.029(1) -0.304(2) 0.685(1)
C27 C -0.020(1) -0.159(2) 0.8113(8)
C28 C 0.142(1) 0.230(2) 0.9093(7)
C29 C 0.5830(9) 0.354(2) 1.0706(7)
C30 C 0.260(1) -0.345(2) 0.4884(8)
C31 C 0.088(1) -0.311(2) 0.6090(9)
C32 C -0.077(1) 0.362(2) 0.8294(9)
C33 C 0.729(1) 0.204(2) 1.0212(7)
C34 C -0.024(1) 0.382(2) 0.9224(9)
H1 H 0.64180 0.60400 0.62510
H2 H 0.66740 0.88320 0.60930
H3 H 0.69530 1.04770 0.73760
H4 H 0.67080 0.94560 0.87200
H5 H 0.63910 0.66900 0.88670
H6 H 0.46290 0.47180 0.96910
H7 H 0.55330 0.38840 1.11920
H8 H 0.70840 0.22530 1.14960
H9 H 0.79440 0.13670 1.03710
H10 H 0.71030 0.22710 0.88050
H11 H -0.04910 0.25820 0.71470
H12 H -0.15130 0.40300 0.80740
H13 H -0.06240 0.44470 0.95650
H14 H 0.11860 0.33260 1.02710
H15 H 0.21620 0.18230 0.93450
H16 H 0.44200 0.26440 0.53140
H17 H 0.48120 0.12480 0.59880
H18 H 0.35180 0.18200 0.57450
H19 H 0.28560 -0.31740 0.43570
H20 H 0.31610 -0.41510 0.52470
H21 H 0.18630 -0.39510 0.47070
H22 H 0.20470 -0.05110 0.42930
H23 H 0.09690 -0.10700 0.46180
H24 H 0.17680 0.02810 0.51300
H25 H -0.03590 -0.06000 0.83320
H26 H -0.08680 -0.22730 0.80270
H27 H 0.04470 -0.20880 0.85260
H28 H 0.47410 0.49560 0.82200
H29 H 0.40780 0.42010 0.64380
H30 H 0.47240 0.16980 0.77020
H31 H 0.26620 -0.30570 0.66170
H32 H 0.09650 -0.41910 0.59310
H33 H 0.03680 -0.25800 0.55910
H34 H 0.08780 -0.35860 0.73910
H35 H -0.03720 -0.36460 0.67440
H36 H -0.05230 -0.08410 0.67890
H37 H 0.32730 -0.14650 0.56290
#END
