
#######################################################################
#
#                 Cambridge Crystallographic Data Centre
#                                CCDC
#
#######################################################################
#
# If this CIF has been generated from an entry in the Cambridge
# Structural Database, then it will include bibliographic, chemical,
# crystal, experimental, refinement or atomic coordinate data resulting
# from the CCDC's data processing and validation procedures.
#
#######################################################################

data_CSD_CIF_RAGKES
_audit_creation_date 2017-01-14
_audit_creation_method CSD-ConQuest-V1
_database_code_CSD RAGKES
_database_code_depnum_ccdc_archive 'CCDC 1515829'
_chemical_formula_sum 'C12 H19 N1 O5'
_chemical_formula_moiety
;
C12 H19 N1 O5
;
_journal_coden_Cambridge 1182
_journal_volume 28
_journal_year 2017
_journal_page_first 909
_journal_name_full 'Chin.Chem.Lett. '
loop_
_publ_author_name
"Qing-Kun Wu"
"Yi-Xian Li"
"Yue-Mei Jia"
"Chu-Yi Yu"
_chemical_name_systematic
;
2,2,6,6-tetramethyl-9-oxo-3a,4,7a,10-tetrahydro-2H,6H-[1,3]dioxolo[5,6][1,3]di
oxepino[4,5-c]pyrrole
;
_cell_volume    662.960
_exptl_crystal_colour 'colorless'
_exptl_crystal_density_diffrn 1.289
_exptl_special_details
;
Absolute configuration

;
_exptl_crystal_description 'block'
_diffrn_ambient_temperature 173.2
#These two values have been output from a single CSD field.
_refine_ls_R_factor_gt 0.0304
_refine_ls_wR_factor_gt 0.0304
_symmetry_cell_setting monoclinic
_symmetry_space_group_name_H-M 'P 21'
_symmetry_Int_Tables_number 4
loop_
_symmetry_equiv_pos_site_id
_symmetry_equiv_pos_as_xyz
1 x,y,z
2 -x,1/2+y,-z
_cell_length_a 8.222(4)
_cell_length_b 8.204(4)
_cell_length_c 10.298(6)
_cell_angle_alpha 90
_cell_angle_beta 107.369(6)
_cell_angle_gamma 90
_cell_formula_units_Z 2
loop_
_atom_type_symbol
_atom_type_radius_bond
C 0.68
H 0.23
N 0.68
O 0.68
loop_
_atom_site_label
_atom_site_type_symbol
_atom_site_fract_x
_atom_site_fract_y
_atom_site_fract_z
O1 O -0.56653(16) -0.48256(15) -0.82401(12)
O2 O -0.55025(17) -0.75654(15) -0.81532(13)
O3 O -0.67470(17) -0.79451(16) -0.58139(13)
O4 O -0.82721(15) -0.55209(16) -0.59912(12)
O5 O -0.9655(2) -0.17145(17) -0.87637(15)
N1 N -0.87560(19) -0.29201(17) -0.81541(15)
C1 C -0.71260(19) -0.4695(2) -0.65649(15)
H1 H -0.59610 -0.46740 -0.59450
C2 C -0.7199(2) -0.5358(2) -0.79894(16)
C3 C -0.7218(2) -0.7212(2) -0.82004(17)
H2 H -0.79660 -0.74630 -0.91140
C4 C -0.7705(3) -0.8285(2) -0.7189(2)
H3 H -0.89070 -0.81370 -0.72910
H4 H -0.75330 -0.94150 -0.73900
C5 C -0.7567(2) -0.6868(2) -0.51269(18)
C6 C -0.7843(2) -0.3026(2) -0.68967(16)
H5 H -0.76570 -0.21700 -0.62780
C7 C -0.8717(2) -0.4444(2) -0.89232(18)
H6 H -0.85430 -0.42120 -0.97960
H7 H -0.97630 -0.50600 -0.90690
C8 C -0.4901(2) -0.6195(3) -0.87017(18)
C9 C -0.5452(3) -0.6243(3) -1.0248(2)
H8 H -0.66730 -0.62990 -1.05860
H9 H -0.49690 -0.71850 -1.05460
H10 H -0.50630 -0.52760 -1.05880
C10 C -0.2999(3) -0.6078(4) -0.8080(3)
H11 H -0.25960 -0.50830 -0.83660
H12 H -0.24630 -0.69900 -0.83700
H13 H -0.27260 -0.60880 -0.71060
C11 C -0.9070(3) -0.7630(3) -0.4803(3)
H14 H -0.99260 -0.79110 -0.56340
H15 H -0.95330 -0.68690 -0.43000
H16 H -0.87060 -0.85960 -0.42680
C12 C -0.6215(3) -0.6337(3) -0.38476(19)
H17 H -0.58340 -0.72640 -0.32670
H18 H -0.66840 -0.55380 -0.33800
H19 H -0.52700 -0.58740 -0.40840
#END
