
#######################################################################
#
#                 Cambridge Crystallographic Data Centre
#                                CCDC
#
#######################################################################
#
# If this CIF has been generated from an entry in the Cambridge
# Structural Database, then it will include bibliographic, chemical,
# crystal, experimental, refinement or atomic coordinate data resulting
# from the CCDC's data processing and validation procedures.
#
#######################################################################

data_CSD_CIF_RAGKUI
_audit_creation_date 2017-01-14
_audit_creation_method CSD-ConQuest-V1
_database_code_CSD RAGKUI
_database_code_depnum_ccdc_archive 'CCDC 1516984'
_chemical_formula_sum 'C19 H13 N3 O3'
_chemical_formula_moiety
;
C19 H13 N3 O3
;
_journal_coden_Cambridge 24
_journal_volume 58
_journal_year 2017
_journal_page_first 755
_journal_name_full 'Tetrahedron Lett. '
loop_
_publ_author_name
"Z.V.Chirkova"
"M.V.Kabanova"
"S.I.Filimonov"
"I.G.Abramov"
"A.V.Samet"
"G.A.Stashina"
"K.Yu.Suponitsky"
_chemical_name_systematic
;
3-acetyl-1-hydroxy-2-(4-methoxyphenyl)-1H-indole-5,6-dicarbonitrile
;
_cell_volume   1606.398
_exptl_crystal_colour 'pale yellow'
_exptl_crystal_density_diffrn 1.37
_exptl_crystal_description 'needle'
_diffrn_ambient_temperature 120
#These two values have been output from a single CSD field.
_refine_ls_R_factor_gt 0.0382
_refine_ls_wR_factor_gt 0.0382
_symmetry_cell_setting monoclinic
_symmetry_space_group_name_H-M 'P 21/c'
_symmetry_Int_Tables_number 14
loop_
_symmetry_equiv_pos_site_id
_symmetry_equiv_pos_as_xyz
1 x,y,z
2 -x,1/2+y,1/2-z
3 -x,-y,-z
4 x,-1/2-y,-1/2+z
_cell_length_a 15.9534(9)
_cell_length_b 7.3983(4)
_cell_length_c 13.6380(8)
_cell_angle_alpha 90
_cell_angle_beta 93.652(3)
_cell_angle_gamma 90
_cell_formula_units_Z 4
loop_
_atom_type_symbol
_atom_type_radius_bond
C 0.68
H 0.23
N 0.68
O 0.68
loop_
_atom_site_label
_atom_site_type_symbol
_atom_site_fract_x
_atom_site_fract_y
_atom_site_fract_z
O1 O 0.30579(6) 0.43108(13) 0.75410(6)
H1 H 0.3159(12) 0.510(3) 0.8104(16)
O2 O 0.34255(6) 0.86586(13) 0.40230(6)
O3 O -0.07359(6) 0.52626(16) 0.64238(8)
N1 N 0.32747(6) 0.53834(14) 0.67782(7)
N2 N 0.69721(7) 0.46635(18) 0.75285(10)
N3 N 0.69438(7) 0.76035(17) 0.50730(9)
C1 C 0.40839(7) 0.57178(16) 0.65727(9)
C2 C 0.48221(8) 0.51465(17) 0.70668(9)
H2 H 0.48190 0.44240 0.76430
C3 C 0.55632(8) 0.56775(17) 0.66818(9)
C4 C 0.55548(8) 0.67573(17) 0.58237(9)
C5 C 0.48089(8) 0.73308(17) 0.53477(9)
H3 H 0.48120 0.80620 0.47750
C6 C 0.40541(8) 0.68123(16) 0.57270(9)
C7 C 0.31842(8) 0.70937(17) 0.54356(9)
C8 C 0.27208(8) 0.61890(17) 0.61210(9)
C9 C 0.18128(7) 0.59815(18) 0.62183(9)
C10 C 0.14301(8) 0.43213(19) 0.60446(10)
H4 H 0.17570 0.33070 0.58780
C11 C 0.05790(9) 0.4138(2) 0.61132(11)
H5 H 0.03190 0.30010 0.59820
C12 C 0.00976(8) 0.5597(2) 0.63714(10)
C13 C 0.04734(9) 0.7245(2) 0.65691(11)
H6 H 0.01470 0.82460 0.67590
C14 C 0.13321(8) 0.7432(2) 0.64884(11)
H7 H 0.15920 0.85690 0.66200
C15 C 0.63487(8) 0.51175(18) 0.71559(10)
C16 C 0.63319(8) 0.72324(18) 0.54137(9)
C17 C 0.28948(8) 0.80468(17) 0.45553(9)
C18 C 0.19822(8) 0.8293(2) 0.42760(11)
H8 H 0.19110 0.87290 0.35970
H9 H 0.17450 0.91780 0.47160
H10 H 0.16910 0.71350 0.43310
C19 C -0.12724(9) 0.6751(3) 0.65674(14)
H11 H -0.18570 0.63380 0.65360
H12 H -0.12020 0.76540 0.60530
H13 H -0.11300 0.72910 0.72130
#END
