
#######################################################################
#
#                 Cambridge Crystallographic Data Centre
#                                CCDC
#
#######################################################################
#
# If this CIF has been generated from an entry in the Cambridge
# Structural Database, then it will include bibliographic, chemical,
# crystal, experimental, refinement or atomic coordinate data resulting
# from the CCDC's data processing and validation procedures.
#
#######################################################################

data_CSD_CIF_RAGNIW
_audit_creation_date 1997-07-21
_audit_creation_method CSD-ConQuest-V1
_database_code_CSD RAGNIW
_database_code_depnum_ccdc_archive 'CCDC 122515'
_chemical_formula_sum 'C12 H12 N2 O1'
_chemical_formula_moiety
;
C12 H12 N2 O1
;
_journal_coden_Cambridge 35
_journal_volume 62
_journal_year 1997
_journal_page_first 2098
_journal_name_full 'J.Org.Chem. '
loop_
_publ_author_name
"I.A.Motorina"
"F.W.Fowler"
"D.S.Grierson"
_chemical_name_systematic
;
2-Cyano-5-methyl-5-phenyl-1-pyrroline 1-oxide
;
_chemical_melting_point 336
_cell_volume   1058.239
_exptl_crystal_colour 'colorless'
_exptl_crystal_density_diffrn 1.26
_exptl_special_details
;
The space group is P21/n, not P21/c

;
_diffrn_ambient_temperature ?
_diffrn_special_details
;
The study was carried out at room temperature,in the range 283-303K

;
#These two values have been output from a single CSD field.
_refine_ls_R_factor_gt 0.04
_refine_ls_wR_factor_gt 0.04
_symmetry_cell_setting monoclinic
_symmetry_space_group_name_H-M 'P 21/n'
_symmetry_Int_Tables_number 14
loop_
_symmetry_equiv_pos_site_id
_symmetry_equiv_pos_as_xyz
1 x,y,z
2 1/2-x,1/2+y,1/2-z
3 -x,-y,-z
4 -1/2+x,-1/2-y,-1/2+z
_cell_length_a 10.988(7)
_cell_length_b 6.512(4)
_cell_length_c 14.791(9)
_cell_angle_alpha 90
_cell_angle_beta 90.84(3)
_cell_angle_gamma 90
_cell_formula_units_Z 4
loop_
_atom_type_symbol
_atom_type_radius_bond
C 0.68
H 0.23
N 0.68
O 0.68
loop_
_atom_site_label
_atom_site_type_symbol
_atom_site_fract_x
_atom_site_fract_y
_atom_site_fract_z
N1 N 0.3588(1) 0.2249(2) 0.6827(1)
C1 C 0.3033(1) 0.0941(2) 0.6286(1)
C2 C 0.3697(2) -0.1045(3) 0.6234(1)
C3 C 0.4548(2) -0.0920(3) 0.7047(1)
C4 C 0.4774(1) 0.1377(2) 0.7205(1)
O1 O 0.3244(1) 0.4061(2) 0.7019(1)
C5 C 0.1928(2) 0.1515(3) 0.5850(1)
N2 N 0.1035(2) 0.1960(3) 0.5495(1)
C6 C 0.4891(2) 0.1998(4) 0.8187(1)
C7 C 0.5828(1) 0.2220(2) 0.6649(1)
C8 C 0.6945(2) 0.1232(3) 0.6686(2)
C9 C 0.7923(2) 0.1950(3) 0.6202(2)
C10 C 0.7810(2) 0.3675(3) 0.5679(1)
C11 C 0.6725(2) 0.4685(3) 0.5651(1)
C12 C 0.5737(2) 0.3969(3) 0.6127(1)
H1 H 0.311(2) -0.220(3) 0.626(1)
H2 H 0.413(2) -0.112(3) 0.566(1)
H3 H 0.411(1) -0.146(3) 0.759(1)
H4 H 0.531(2) -0.165(3) 0.697(1)
H5 H 0.421(2) 0.147(3) 0.854(1)
H6 H 0.564(2) 0.156(3) 0.845(1)
H7 H 0.487(2) 0.348(3) 0.823(1)
H8 H 0.702(2) 0.006(3) 0.706(1)
H9 H 0.869(2) 0.121(3) 0.624(1)
H10 H 0.849(2) 0.416(3) 0.533(1)
H11 H 0.659(2) 0.584(3) 0.528(1)
H12 H 0.500(2) 0.467(3) 0.607(1)
#END
