
#######################################################################
#
#                 Cambridge Crystallographic Data Centre
#                                CCDC
#
#######################################################################
#
# If this CIF has been generated from an entry in the Cambridge
# Structural Database, then it will include bibliographic, chemical,
# crystal, experimental, refinement or atomic coordinate data resulting
# from the CCDC's data processing and validation procedures.
#
#######################################################################

data_CSD_CIF_RAHDEJ
_audit_creation_date 2001-11-02
_audit_creation_method CSD-ConQuest-V1
_database_code_CSD RAHDEJ
_database_code_depnum_ccdc_archive 'CCDC 1246381'
_chemical_formula_sum 'C14 H12 N2 O3'
_chemical_formula_moiety
;
C14 H12 N2 O3
;
_journal_coden_Cambridge 456
_journal_volume 74
_journal_year 2000
_journal_page_first 1491
_journal_name_full 'Pol.J.Chem. '
loop_
_publ_author_name
"E.Luboch"
"Yu.A.Simonov"
"V.E.Zavodnik"
_chemical_name_systematic
;
(E)-7-Oxy-1,4-dioxa-7-azonia-8-azadibenzo(e,i)cyclodeca-5,7,9-triene
;
_cell_volume   2487.935
_exptl_crystal_colour 'pale yellow'
_exptl_crystal_density_diffrn 1.368
_exptl_crystal_preparation '2-propanol'
_diffrn_ambient_temperature ?
_diffrn_special_details
;
The study was carried out at room temperature,in the range 283-303K

;
#These two values have been output from a single CSD field.
_refine_ls_R_factor_gt 0.0297
_refine_ls_wR_factor_gt 0.0297
_symmetry_cell_setting monoclinic
_symmetry_space_group_name_H-M 'P 21/c'
_symmetry_Int_Tables_number 14
loop_
_symmetry_equiv_pos_site_id
_symmetry_equiv_pos_as_xyz
1 x,y,z
2 -x,1/2+y,1/2-z
3 -x,-y,-z
4 x,-1/2-y,-1/2+z
_cell_length_a 9.542(2)
_cell_length_b 17.852(4)
_cell_length_c 14.606(3)
_cell_angle_alpha 90
_cell_angle_beta 90.53(3)
_cell_angle_gamma 90
_cell_formula_units_Z 8
loop_
_atom_type_symbol
_atom_type_radius_bond
C 0.68
N 0.68
O 0.68
loop_
_atom_site_label
_atom_site_type_symbol
_atom_site_fract_x
_atom_site_fract_y
_atom_site_fract_z
O1 O 0.1946(1) 0.7777(1) 0.0763(1)
O2 O -0.0389(1) 0.9206(1) 0.0845(1)
O3 O 0.0849(1) 0.7430(1) -0.0908(1)
N1 N 0.0242(2) 0.8874(1) -0.0533(1)
N2 N 0.0550(2) 0.9048(1) 0.0282(1)
C1 C 0.2604(2) 0.7174(1) 0.0270(2)
C2 C 0.1547(3) 0.6856(1) -0.0388(2)
C3 C 0.1681(2) 0.7959(1) -0.1317(1)
C4 C 0.1397(2) 0.8705(1) -0.1119(1)
C5 C 0.1998(2) 0.9087(1) 0.0634(1)
C6 C 0.2680(2) 0.8426(1) 0.0848(1)
C7 C 0.2107(2) 0.9267(1) -0.1572(2)
C8 C 0.3140(2) 0.9085(2) -0.2195(2)
C9 C 0.3453(2) 0.8349(2) -0.2358(2)
C10 C 0.2733(2) 0.7784(2) -0.1926(2)
C11 C 0.4053(2) 0.8469(1) 0.1160(2)
C12 C 0.4686(3) 0.9156(2) 0.1257(2)
C13 C 0.3972(3) 0.9809(2) 0.1059(2)
C14 C 0.2617(2) 0.9776(1) 0.0743(2)
O4 O 0.5983(2) 0.7068(1) -0.1462(1)
O5 O 0.4272(1) 0.5822(1) -0.0672(1)
O6 O 0.6598(1) 0.7359(1) 0.0317(1)
N3 N 0.5366(2) 0.6010(1) 0.0635(1)
N4 N 0.5384(2) 0.5931(1) -0.0226(1)
C15 C 0.6525(3) 0.7793(2) -0.1205(2)
C16 C 0.7390(2) 0.7769(1) -0.0354(2)
C17 C 0.7312(2) 0.6882(1) 0.0881(1)
C18 C 0.6677(2) 0.6197(1) 0.1054(1)
C19 C 0.6671(2) 0.5920(1) -0.0775(1)
C20 C 0.6914(2) 0.6488(1) -0.1396(2)
C21 C 0.7256(2) 0.5715(1) 0.1701(2)
C22 C 0.8521(3) 0.5897(2) 0.2115(2)
C23 C 0.9189(3) 0.6549(2) 0.1896(2)
C24 C 0.8590(2) 0.7050(2) 0.1289(2)
C25 C 0.8122(3) 0.6438(2) -0.1926(2)
C26 C 0.9021(3) 0.5845(2) -0.1823(2)
C27 C 0.8762(3) 0.5291(2) -0.1209(2)
C28 C 0.7565(2) 0.5322(1) -0.0677(2)
#END
