
#######################################################################
#
#                 Cambridge Crystallographic Data Centre
#                                CCDC
#
#######################################################################
#
# If this CIF has been generated from an entry in the Cambridge
# Structural Database, then it will include bibliographic, chemical,
# crystal, experimental, refinement or atomic coordinate data resulting
# from the CCDC's data processing and validation procedures.
#
#######################################################################

data_CSD_CIF_RAHJAL
_audit_creation_date 2001-11-02
_audit_creation_method CSD-ConQuest-V1
_database_code_CSD RAHJAL
_database_code_depnum_ccdc_journal 182/1816
_chemical_formula_sum 'C19 H21 N3 O4'
_chemical_formula_moiety
;
C19 H21 N3 O4
;
_journal_coden_Cambridge 182
_journal_year 2000
_journal_page_first 1835
_journal_name_full 'Chem.Commun. '
loop_
_publ_author_name
"Kyung-Ho Park"
"M.J.Kurth"
_chemical_name_systematic
;
3''-Benzoyl-1-n-butyl-2,5-dioxo-4'',5''-dihydro-dispiro(imidazolidine-4,1'-cyc
lobutane-3',5''-isoxazole)
;
_cell_volume    866.767
_exptl_crystal_colour 'colorless'
_exptl_crystal_density_diffrn 1.362
_exptl_special_details
;
The space group is P-1 as given in the supplementary data, not P1 as given in 
the paper
;
_exptl_crystal_description 'plate'
_diffrn_ambient_temperature 89
#These two values have been output from a single CSD field.
_refine_ls_R_factor_gt 0.0515
_refine_ls_wR_factor_gt 0.0515
_symmetry_cell_setting triclinic
_symmetry_space_group_name_H-M 'P -1'
_symmetry_Int_Tables_number 2
loop_
_symmetry_equiv_pos_site_id
_symmetry_equiv_pos_as_xyz
1 x,y,z
2 -x,-y,-z
_cell_length_a 6.1496(7)
_cell_length_b 9.6315(11)
_cell_length_c 15.2827(10)
_cell_angle_alpha 93.194(2)
_cell_angle_beta 92.728(2)
_cell_angle_gamma 106.031(2)
_cell_formula_units_Z 2
loop_
_atom_type_symbol
_atom_type_radius_bond
C 0.68
H 0.23
N 0.68
O 0.68
loop_
_atom_site_label
_atom_site_type_symbol
_atom_site_fract_x
_atom_site_fract_y
_atom_site_fract_z
O1 O -0.3678(2) 0.8618(2) 0.3185(1)
O2 O 0.1476(2) 0.8971(2) -0.0483(1)
O3 O 0.5045(2) 0.5623(2) -0.1179(1)
O4 O 0.0000(2) 0.5665(2) 0.1816(1)
N1 N -0.1949(3) 0.6892(2) 0.2677(1)
N2 N -0.1844(3) 0.8767(2) 0.1894(1)
N3 N 0.2965(3) 0.8656(2) -0.1075(1)
C1 C 0.3118(4) 0.7385(3) 0.4907(2)
C2 C 0.1583(3) 0.6677(3) 0.4105(2)
C3 C -0.0898(3) 0.6590(2) 0.4221(2)
C4 C -0.2453(3) 0.5964(2) 0.3408(2)
C5 C -0.2615(3) 0.8177(2) 0.2637(2)
C6 C -0.0672(3) 0.7926(2) 0.1394(1)
C7 C -0.1439(3) 0.7485(2) 0.0420(1)
C8 C 0.1058(3) 0.7914(2) 0.0187(1)
C9 C 0.3354(3) 0.7449(2) -0.0908(1)
C10 C 0.2113(3) 0.6753(2) -0.0162(2)
C11 C 0.1760(3) 0.8643(2) 0.1117(2)
C12 C -0.0794(3) 0.6669(2) 0.1968(1)
C13 C 0.4840(3) 0.6768(2) -0.1427(1)
C14 C 0.6085(3) 0.7452(2) -0.2174(1)
C15 C 0.5557(3) 0.8532(2) -0.2641(2)
C16 C 0.6840(3) 0.9120(2) -0.3321(2)
C17 C 0.8684(3) 0.8630(2) -0.3544(2)
C18 C 0.9206(3) 0.7543(2) -0.3095(2)
C19 C 0.7929(3) 0.6950(2) -0.2415(2)
H1 H -0.206(4) 0.960(3) 0.1717(17)
H2 H 0.303(4) 0.840(3) 0.5037(18)
H3 H 0.271(4) 0.684(3) 0.543(2)
H4 H 0.469(5) 0.747(3) 0.481(2)
H5 H 0.212(4) 0.725(3) 0.3607(18)
H6 H 0.175(4) 0.569(3) 0.3965(16)
H7 H -0.109(3) 0.757(2) 0.4367(16)
H8 H -0.145(4) 0.599(3) 0.4705(19)
H9 H -0.229(3) 0.501(2) 0.3207(16)
H10 H -0.403(4) 0.586(3) 0.3542(17)
H11 H -0.220(3) 0.821(2) 0.0235(16)
H12 H -0.232(4) 0.646(3) 0.0244(16)
H13 H 0.305(4) 0.642(3) 0.0288(19)
H14 H 0.094(4) 0.588(2) -0.0409(17)
H15 H 0.302(4) 0.839(3) 0.1441(19)
H16 H 0.195(4) 0.965(3) 0.1058(17)
H17 H 0.424(4) 0.888(2) -0.2493(17)
H18 H 0.641(3) 0.988(2) -0.3637(14)
H19 H 0.956(4) 0.905(2) -0.4038(18)
H20 H 1.050(4) 0.718(3) -0.3260(18)
H21 H 0.827(4) 0.619(2) -0.2112(16)
#END
