
#######################################################################
#
#                 Cambridge Crystallographic Data Centre
#                                CCDC
#
#######################################################################
#
# If this CIF has been generated from an entry in the Cambridge
# Structural Database, then it will include bibliographic, chemical,
# crystal, experimental, refinement or atomic coordinate data resulting
# from the CCDC's data processing and validation procedures.
#
#######################################################################

data_CSD_CIF_RAHYEF
_audit_creation_date 2005-02-17
_audit_creation_method CSD-ConQuest-V1
_database_code_CSD RAHYEF
_database_code_depnum_ccdc_archive 'CCDC 255127'
_chemical_formula_sum 'C10 H15 N3 O8'
_chemical_formula_moiety
;
C10 H15 N3 O8
;
_journal_coden_Cambridge 35
_journal_volume 69
_journal_year 2004
_journal_page_first 6996
_journal_name_full 'J.Org.Chem. '
loop_
_publ_author_name
"Jinhua Chen"
"T.Sambaiah"
"B.Illarionov"
"M.Fischer"
"A.Bacher"
"M.Cushman"
_chemical_name_systematic
;
5-Nitro-6-C-((D-ribityl)methyl)pyrimidine-2,4-dione
;
_cell_volume   1259.239
_exptl_crystal_colour 'colorless'
_exptl_crystal_density_diffrn 1.61
_exptl_special_details
;
inhibitory activity against B.subtilis lumazine synthase and E.coli 
riboflavin synthase
;
_exptl_crystal_description 'needle'
_diffrn_ambient_temperature 150
#These two values have been output from a single CSD field.
_refine_ls_R_factor_gt 0.042
_refine_ls_wR_factor_gt 0.042
_symmetry_cell_setting monoclinic
_symmetry_space_group_name_H-M 'P 21'
_symmetry_Int_Tables_number 4
loop_
_symmetry_equiv_pos_site_id
_symmetry_equiv_pos_as_xyz
1 x,y,z
2 -x,1/2+y,-z
_cell_length_a 9.230(5)
_cell_length_b 7.452(3)
_cell_length_c 18.389(9)
_cell_angle_alpha 90
_cell_angle_beta 95.39(3)
_cell_angle_gamma 90
_cell_formula_units_Z 4
loop_
_atom_type_symbol
_atom_type_radius_bond
C 0.68
H 0.23
N 0.68
O 0.68
loop_
_atom_site_label
_atom_site_type_symbol
_atom_site_fract_x
_atom_site_fract_y
_atom_site_fract_z
O1 O 0.7021(3) -0.0467(4) 0.28412(12)
O2 O 0.3792(2) 0.4093(3) 0.30166(12)
O3 O 0.3216(3) -0.1440(4) 0.20698(13)
O4 O 0.6642(3) -0.5805(3) 0.19778(12)
O5 O -0.0103(3) -0.1185(3) 0.44769(12)
O6 O -0.0641(2) -0.3219(3) 0.31180(11)
O7 O 0.1443(2) -0.6376(3) 0.42841(11)
O8 O -0.0118(3) -0.8911(3) 0.33762(13)
O9 O 0.6287(3) -0.3518(4) 0.35431(14)
O10 O 0.5695(4) -0.2871(5) 0.46145(15)
O11 O 1.0202(3) -0.0380(4) 0.09051(13)
O12 O 1.0916(3) 0.1825(4) 0.20866(12)
O13 O 0.9150(3) 0.4416(3) 0.05648(11)
O14 O 1.0114(3) 0.6510(3) 0.16854(12)
O15 O 0.3930(3) 0.1649(4) 0.13282(14)
O16 O 0.4247(4) 0.0682(5) 0.02486(14)
N1 N 0.5773(3) -0.2476(4) 0.39733(16)
N2 N 0.5456(3) 0.1820(4) 0.29671(15)
N3 N 0.3620(3) 0.1637(4) 0.37353(14)
N4 N 0.4357(3) 0.0526(4) 0.09149(15)
N5 N 0.4897(3) -0.3639(4) 0.19919(16)
N6 N 0.6803(3) -0.3332(4) 0.12637(14)
C1 C 0.4073(4) 0.0004(5) 0.39824(16)
C2 C 0.5263(4) -0.0750(5) 0.37183(16)
C3 C 0.6008(4) 0.0128(5) 0.31532(18)
C4 C 0.4272(4) 0.2623(5) 0.32204(18)
C5 C 0.6245(4) -0.1785(5) 0.09670(17)
C6 C 0.5018(4) -0.1110(5) 0.12228(17)
C7 C 0.4287(4) -0.1984(5) 0.17887(18)
C8 C 0.6139(4) -0.4349(5) 0.17630(17)
C9 C 0.3035(4) -0.0906(5) 0.44466(16)
C10 C 0.2093(4) -0.2216(5) 0.39566(18)
C11 C 0.0721(4) -0.2736(5) 0.43010(17)
C12 C -0.0255(4) -0.3987(5) 0.38258(16)
C13 C 0.0439(3) -0.5804(5) 0.36909(16)
C14 C -0.0718(4) -0.7197(5) 0.35173(18)
C15 C 0.7101(4) -0.0916(5) 0.04065(17)
C16 C 0.7797(4) 0.0890(5) 0.06432(18)
C17 C 0.9076(4) 0.0638(5) 0.12138(17)
C18 C 0.9750(4) 0.2348(5) 0.15522(18)
C19 C 1.0335(4) 0.3707(5) 0.10271(17)
C20 C 1.1131(4) 0.5259(5) 0.14284(19)
H1 H 0.588(5) 0.263(7) 0.263(2)
H2 H 0.285(5) 0.213(8) 0.388(3)
H3 H 0.461(5) -0.430(7) 0.237(2)
H4 H 0.762(4) -0.381(5) 0.1099(19)
H5 H -0.02050 -0.04970 0.41140
H6 H -0.14700 -0.27520 0.31080
H7 H 0.10040 -0.64960 0.46610
H8 H 0.01680 -0.89170 0.29560
H9 H 0.24100 -0.00030 0.46590
H10 H 0.35820 -0.15670 0.48510
H11 H 0.18240 -0.16480 0.34760
H12 H 0.26650 -0.33090 0.38740
H13 H 0.10240 -0.33800 0.47680
H14 H -0.11660 -0.41950 0.40680
H15 H 0.09920 -0.56760 0.32520
H16 H -0.13210 -0.72980 0.39330
H17 H -0.13600 -0.68090 0.30840
H18 H 1.04030 -0.12940 0.11630
H19 H 1.14960 0.11520 0.18900
H20 H 0.93710 0.44440 0.01320
H21 H 1.01150 0.64130 0.21410
H22 H 0.64480 -0.07290 -0.00460
H23 H 0.78800 -0.17510 0.02890
H24 H 0.81310 0.15040 0.02120
H25 H 0.70590 0.16620 0.08450
H26 H 0.87280 -0.00940 0.16190
H27 H 0.89920 0.29660 0.18160
H28 H 1.10190 0.30830 0.07200
H29 H 1.17710 0.47890 0.18480
H30 H 1.17490 0.58790 0.10950
#END
