
#######################################################################
#
#                 Cambridge Crystallographic Data Centre
#                                CCDC
#
#######################################################################
#
# If this CIF has been generated from an entry in the Cambridge
# Structural Database, then it will include bibliographic, chemical,
# crystal, experimental, refinement or atomic coordinate data resulting
# from the CCDC's data processing and validation procedures.
#
#######################################################################

data_CSD_CIF_RAJFAJ
_audit_creation_date 2001-11-02
_audit_creation_method CSD-ConQuest-V1
_database_code_CSD RAJFAJ
_database_code_depnum_ccdc_archive 'CCDC 161068'
_chemical_formula_sum 'C20 H23 N1 O6'
_chemical_formula_moiety
;
C20 H23 N1 O6
;
_journal_coden_Cambridge 207
_journal_year 2001
_journal_page_first 1458
_journal_name_full 'J.Chem.Soc.,Perkin Trans.1 '
loop_
_publ_author_name
"P.S.Aburel"
"C.Romming"
"Kuangbiao Ma"
"K.Undheim"
_chemical_name_systematic
;
cis-7,7-Ethylenedioxyspiro(5.5)undec-3-en-1-yl p-nitrobenzoate
;
_chemical_melting_point 415.15
_cell_volume   1797.044
_exptl_crystal_density_diffrn 1.38
_exptl_special_details
;
Melting point range 415.15-415.65K

;
_diffrn_ambient_temperature 150
#These two values have been output from a single CSD field.
_refine_ls_R_factor_gt 0.0467
_refine_ls_wR_factor_gt 0.0467
_symmetry_cell_setting monoclinic
_symmetry_space_group_name_H-M 'P 21/n'
_symmetry_Int_Tables_number 14
loop_
_symmetry_equiv_pos_site_id
_symmetry_equiv_pos_as_xyz
1 x,y,z
2 1/2+x,1/2-y,1/2+z
3 -x,-y,-z
4 -1/2-x,-1/2+y,-1/2-z
_cell_length_a 6.8560(7)
_cell_length_b 12.8358(14)
_cell_length_c 20.535(2)
_cell_angle_alpha 90
_cell_angle_beta 96.055(4)
_cell_angle_gamma 90
_cell_formula_units_Z 4
loop_
_atom_type_symbol
_atom_type_radius_bond
C 0.68
H 0.23
N 0.68
O 0.68
loop_
_atom_site_label
_atom_site_type_symbol
_atom_site_fract_x
_atom_site_fract_y
_atom_site_fract_z
O1 O 1.06314(11) 0.42045(6) 0.41197(3)
O2 O 0.98921(11) 0.40375(6) 0.30139(3)
O3 O 0.92139(9) 0.58566(5) 0.23481(3)
O4 O 0.63263(11) 0.52378(8) 0.18736(4)
O5 O 1.42160(13) 0.37469(8) -0.00367(5)
O6 O 1.15999(16) 0.29309(8) -0.04395(5)
N1 N 1.24707(14) 0.35287(7) -0.00410(4)
C1 C 1.12573(18) 0.31865(8) 0.39537(6)
H1 H 1.256(2) 0.3074(13) 0.4169(8)
H2 H 1.032(3) 0.2659(15) 0.4063(9)
C2 C 1.1246(2) 0.32455(12) 0.32170(7)
H3 H 1.094(3) 0.2636(16) 0.3006(10)
H4 H 1.264(3) 0.3468(17) 0.3063(11)
C3 C 0.93053(13) 0.45584(7) 0.35797(4)
C4 C 0.71981(14) 0.42408(8) 0.36718(5)
H5 H 0.716(2) 0.3482(12) 0.3713(7)
H6 H 0.634(2) 0.4433(11) 0.3275(7)
C5 C 0.64695(15) 0.47578(8) 0.42744(5)
H7 H 0.506(2) 0.4572(13) 0.4295(8)
H8 H 0.723(2) 0.4479(12) 0.4665(7)
C6 C 0.67344(14) 0.59389(8) 0.42603(5)
H9 H 0.587(2) 0.6246(11) 0.3899(7)
H10 H 0.635(2) 0.6262(12) 0.4664(8)
C7 C 0.88507(13) 0.62234(7) 0.41675(4)
H11 H 0.900(2) 0.6988(11) 0.4173(7)
H12 H 0.975(2) 0.5947(12) 0.4552(7)
C8 C 0.95566(11) 0.57570(7) 0.35343(4)
C9 C 1.17158(12) 0.60558(7) 0.34990(4)
H13 H 1.233(2) 0.5620(11) 0.3172(7)
H14 H 1.248(2) 0.5926(11) 0.3926(7)
C10 C 1.19569(14) 0.71847(8) 0.33182(5)
H15 H 1.330(2) 0.7468(12) 0.3411(7)
C11 C 1.04957(15) 0.77914(8) 0.30644(5)
H16 H 1.071(2) 0.8536(13) 0.2958(8)
C12 C 0.84314(14) 0.74018(8) 0.29112(5)
H17 H 0.753(2) 0.7698(11) 0.3206(7)
H18 H 0.786(2) 0.7630(12) 0.2479(8)
C13 C 0.83329(12) 0.62194(7) 0.29263(4)
H19 H 0.6966(19) 0.5999(10) 0.2879(6)
C14 C 0.80870(13) 0.53498(7) 0.18872(4)
C15 C 0.92685(13) 0.49105(7) 0.13777(4)
C16 C 0.83294(14) 0.42382(7) 0.09100(4)
H20 H 0.695(2) 0.4085(11) 0.0918(7)
C17 C 0.93732(15) 0.37789(7) 0.04415(5)
H21 H 0.874(2) 0.3316(12) 0.0114(7)
C18 C 1.13487(14) 0.40200(7) 0.04496(4)
C19 C 1.23120(14) 0.47044(8) 0.08973(5)
H22 H 1.362(2) 0.4855(12) 0.0878(8)
C20 C 1.12570(13) 0.51436(7) 0.13704(4)
H23 H 1.193(2) 0.5614(12) 0.1699(7)
#END
