
#######################################################################
#
#                 Cambridge Crystallographic Data Centre
#                                CCDC
#
#######################################################################
#
# If this CIF has been generated from an entry in the Cambridge
# Structural Database, then it will include bibliographic, chemical,
# crystal, experimental, refinement or atomic coordinate data resulting
# from the CCDC's data processing and validation procedures.
#
#######################################################################

data_CSD_CIF_RAJFEN
_audit_creation_date 2001-11-02
_audit_creation_method CSD-ConQuest-V1
_database_code_CSD RAJFEN
_database_code_depnum_ccdc_archive 'CCDC 161069'
_chemical_formula_sum 'C21 H25 N1 O6'
_chemical_formula_moiety
;
C21 H25 N1 O6
;
_journal_coden_Cambridge 207
_journal_year 2001
_journal_page_first 1458
_journal_name_full 'J.Chem.Soc.,Perkin Trans.1 '
loop_
_publ_author_name
"P.S.Aburel"
"C.Romming"
"Kuangbiao Ma"
"K.Undheim"
_chemical_name_systematic
;
cis-1,1-Ethylenedioxyspiro(5.6)dodec-10-en-7-yl p-nitrobenzoate
;
_chemical_melting_point 387.35
_cell_volume   1869.826
_exptl_crystal_density_diffrn 1.376
_exptl_special_details
;
Melting point range 387.35-387.65K

;
_exptl_crystal_description 'thin plates'
_diffrn_ambient_temperature 150
#These two values have been output from a single CSD field.
_refine_ls_R_factor_gt 0.0981
_refine_ls_wR_factor_gt 0.0981
_symmetry_cell_setting triclinic
_symmetry_space_group_name_H-M 'P -1'
_symmetry_Int_Tables_number 2
loop_
_symmetry_equiv_pos_site_id
_symmetry_equiv_pos_as_xyz
1 x,y,z
2 -x,-y,-z
_cell_length_a 8.3205(8)
_cell_length_b 12.5407(11)
_cell_length_c 18.9520(19)
_cell_angle_alpha 99.019(4)
_cell_angle_beta 98.985(4)
_cell_angle_gamma 102.447(4)
_cell_formula_units_Z 4
loop_
_atom_type_symbol
_atom_type_radius_bond
C 0.75
H 0.23
N 0.68
O 0.68
loop_
_atom_site_label
_atom_site_type_symbol
_atom_site_fract_x
_atom_site_fract_y
_atom_site_fract_z
O1 O 1.0808(6) 0.1800(4) 0.0577(2)
O2 O 0.9131(6) 0.2812(4) 0.1071(2)
O3 O 0.6782(5) 0.1788(4) 0.1705(2)
O4 O 0.7961(7) 0.2936(4) 0.2789(3)
O5 O 0.3371(8) 0.5869(5) 0.0541(3)
O6 O 0.3670(8) 0.6708(5) 0.1662(3)
N1 N 0.3822(7) 0.5952(5) 0.1199(4)
C1 C 1.0371(10) 0.2531(7) 0.0094(4)
H1 H 0.929(10) 0.196(6) -0.035(4)
H2 H 1.125(10) 0.276(6) -0.014(4)
C2 C 0.9905(10) 0.3413(6) 0.0583(5)
H3 H 1.089(9) 0.401(6) 0.076(4)
H4 H 0.90(1) 0.373(6) 0.033(4)
C3 C 1.0016(8) 0.1969(5) 0.1193(3)
C4 C 1.1394(9) 0.2395(6) 0.1873(4)
H5 H 1.079(8) 0.255(5) 0.234(4)
H6 H 1.211(14) 0.305(9) 0.177(6)
C5 C 1.2427(9) 0.1544(6) 0.1993(4)
H7 H 1.335(8) 0.140(5) 0.160(4)
H8 H 1.338(11) 0.177(7) 0.238(5)
C6 C 1.1289(9) 0.0427(6) 0.2028(4)
H9 H 1.090(12) 0.040(8) 0.250(6)
H10 H 1.199(12) -0.007(8) 0.199(5)
C7 C 0.9880(9) 0.0028(6) 0.1342(4)
H11 H 0.935(10) -0.063(7) 0.132(4)
H12 H 1.044(9) 0.000(6) 0.094(4)
C8 C 0.8782(8) 0.0853(5) 0.1218(3)
C9 C 0.7535(9) 0.0415(6) 0.0476(4)
H13 H 0.657(13) 0.080(8) 0.041(5)
H14 H 0.819(10) 0.056(7) 0.005(5)
C10 C 0.6608(8) -0.0792(6) 0.0334(4)
H15 H 0.686(11) -0.115(8) -0.010(5)
C11 C 0.5550(9) -0.1245(6) 0.0713(4)
H16 H 0.490(8) -0.205(6) 0.053(3)
C12 C 0.5143(9) -0.0608(7) 0.1383(5)
H17 H 0.434(9) -0.110(6) 0.158(3)
H18 H 0.468(9) -0.002(6) 0.117(4)
C13 C 0.6661(10) -0.0016(7) 0.1984(4)
H19 H 0.735(9) -0.051(6) 0.210(4)
H20 H 0.616(9) 0.025(6) 0.243(4)
C14 C 0.7836(9) 0.1012(6) 0.1855(4)
H21 H 0.874(8) 0.129(5) 0.238(4)
C15 C 0.7057(8) 0.2738(5) 0.2199(4)
C16 C 0.6112(8) 0.3517(5) 0.1918(3)
C17 C 0.5570(8) 0.3446(6) 0.1178(4)
H22 H 0.575(8) 0.285(6) 0.092(4)
C18 C 0.4796(9) 0.4246(6) 0.0939(4)
H23 H 0.451(10) 0.423(7) 0.044(5)
C19 C 0.4601(8) 0.5089(5) 0.1455(4)
C20 C 0.5109(9) 0.5164(6) 0.2199(4)
H24 H 0.492(9) 0.581(6) 0.242(4)
C21 C 0.5887(8) 0.4379(6) 0.2429(4)
H25 H 0.629(7) 0.435(5) 0.295(4)
O7 O 0.6324(5) 0.7495(4) 0.3692(2)
O8 O 0.9031(6) 0.8477(4) 0.4171(3)
O9 O 0.4233(5) 0.6988(4) 0.4553(2)
O10 O 0.4069(6) 0.5188(4) 0.4071(3)
O11 O -0.1418(8) 0.7344(5) 0.1621(3)
O12 O -0.1421(8) 0.5684(5) 0.1084(3)
N2 N -0.0946(8) 0.6475(5) 0.1600(3)
C22 C 0.6974(11) 0.7991(9) 0.3139(5)
H26 H 0.628(11) 0.836(7) 0.297(5)
H27 H 0.730(11) 0.744(8) 0.285(5)
C23 C 0.8412(10) 0.8937(7) 0.3566(5)
H28 H 0.915(11) 0.907(7) 0.323(5)
H29 H 0.809(18) 0.981(12) 0.362(8)
C24 C 0.7708(8) 0.7603(5) 0.4276(3)
C25 C 0.8322(9) 0.6538(6) 0.4199(4)
H30 H 0.864(8) 0.641(5) 0.369(4)
H31 H 0.736(11) 0.587(7) 0.415(4)
C26 C 0.9828(10) 0.6627(7) 0.4808(4)
H32 H 1.005(15) 0.583(10) 0.486(7)
H33 H 1.071(11) 0.722(7) 0.469(5)
C27 C 0.9385(11) 0.6928(8) 0.5550(4)
H34 H 1.028(11) 0.707(6) 0.589(4)
H35 H 0.853(8) 0.631(5) 0.560(3)
C28 C 0.8773(9) 0.7980(7) 0.5613(4)
H36 H 0.965(12) 0.858(7) 0.559(4)
H37 H 0.858(9) 0.824(6) 0.602(4)
C29 C 0.7204(8) 0.7945(6) 0.5024(4)
C30 C 0.6852(10) 0.9110(6) 0.5077(4)
H38 H 0.819(12) 0.964(8) 0.481(5)
H39 H 0.580(9) 0.909(5) 0.473(3)
C31 C 0.6842(10) 0.9705(7) 0.5830(4)
H40 H 0.765(10) 1.056(7) 0.590(4)
C32 C 0.5728(10) 0.9363(7) 0.6229(4)
H41 H 0.615(11) 0.980(7) 0.682(5)
C33 C 0.4423(10) 0.8288(8) 0.6006(5)
H42 H 0.359(12) 0.846(7) 0.563(5)
H43 H 0.393(8) 0.820(5) 0.632(4)
C34 C 0.5066(10) 0.7250(7) 0.5839(4)
H44 H 0.429(8) 0.657(5) 0.587(3)
H45 H 0.626(8) 0.720(5) 0.625(3)
C35 C 0.5678(9) 0.7049(6) 0.5132(3)
H46 H 0.589(7) 0.632(5) 0.505(3)
C36 C 0.3651(8) 0.6048(5) 0.4056(4)
C37 C 0.2414(8) 0.6187(5) 0.3434(4)
C38 C 0.1402(8) 0.5247(6) 0.2955(4)
H47 H 0.146(8) 0.456(6) 0.303(3)
C39 C 0.0304(9) 0.5322(6) 0.2350(4)
H48 H -0.035(9) 0.469(6) 0.200(4)
C40 C 0.0222(8) 0.6384(6) 0.2247(4)
C41 C 0.1187(9) 0.7336(6) 0.2714(4)
H49 H 0.115(9) 0.812(6) 0.265(4)
C42 C 0.2292(9) 0.7246(6) 0.3313(4)
H50 H 0.309(8) 0.790(5) 0.359(3)
#END
