
#######################################################################
#
#                 Cambridge Crystallographic Data Centre
#                                CCDC
#
#######################################################################
#
# If this CIF has been generated from an entry in the Cambridge
# Structural Database, then it will include bibliographic, chemical,
# crystal, experimental, refinement or atomic coordinate data resulting
# from the CCDC's data processing and validation procedures.
#
#######################################################################

data_CSD_CIF_RAJGUG
_audit_creation_date 2012-02-24
_audit_creation_method CSD-ConQuest-V1
_database_code_CSD RAJGUG
_database_code_depnum_ccdc_archive 'CCDC 862323'
_database_code_depnum_ccdc_journal 1267/3603
_chemical_formula_sum 'C6 H7 N1 O1'
_chemical_formula_moiety
;
C6 H7 N1 O1
;
_journal_coden_Cambridge 1267
_journal_volume 226
_journal_year 2011
_journal_page_first 603
_journal_name_full 'Z.Kristallogr.-New Cryst.Struct. '
loop_
_publ_author_name
"R.Betz"
"T.Gerber"
"H.Schalekamp"
_chemical_name_systematic
;
2-methyl-pyridine-N-oxide
;
_chemical_name_common
;
2-picolyl-N-oxide
;
_cell_volume   1116.565
_exptl_crystal_colour 'colorless'
_exptl_crystal_density_diffrn 1.298
_exptl_crystal_description 'block'
_diffrn_ambient_temperature 200
#These two values have been output from a single CSD field.
_refine_ls_R_factor_gt 0.0596
_refine_ls_wR_factor_gt 0.0596
_symmetry_cell_setting orthorhombic
_symmetry_space_group_name_H-M 'P b c a'
_symmetry_Int_Tables_number 61
loop_
_symmetry_equiv_pos_site_id
_symmetry_equiv_pos_as_xyz
1 x,y,z
2 1/2-x,-y,1/2+z
3 1/2+x,1/2-y,-z
4 -x,1/2+y,1/2-z
5 -x,-y,-z
6 -1/2+x,y,-1/2-z
7 -1/2-x,-1/2+y,z
8 x,-1/2-y,-1/2+z
_cell_length_a 5.7327(6)
_cell_length_b 13.3469(14)
_cell_length_c 14.5930(15)
_cell_angle_alpha 90
_cell_angle_beta 90
_cell_angle_gamma 90
_cell_formula_units_Z 8
loop_
_atom_type_symbol
_atom_type_radius_bond
C 0.68
H 0.23
N 0.68
O 0.68
loop_
_atom_site_label
_atom_site_type_symbol
_atom_site_fract_x
_atom_site_fract_y
_atom_site_fract_z
O1 O 0.7427(3) -0.04359(8) 0.07185(9)
N1 N 0.6880(3) 0.04874(9) 0.09229(9)
C1 C 0.4859(3) 0.06826(12) 0.13775(10)
C2 C 0.4334(3) 0.16691(13) 0.15881(11)
H1 H 0.29340 0.18150 0.19100
C3 C 0.5791(4) 0.24430(12) 0.13423(11)
H2 H 0.54100 0.31160 0.14910
C4 C 0.7820(4) 0.22194(12) 0.08742(11)
H3 H 0.88480 0.27410 0.06930
C5 C 0.8344(3) 0.12420(12) 0.06719(11)
H4 H 0.97440 0.10900 0.03530
C6 C 0.3360(4) -0.01881(14) 0.16051(12)
H5 H 0.28470 -0.05140 0.10380
H6 H 0.19950 0.00410 0.19510
H7 H 0.42480 -0.06660 0.19770
#END
