
#######################################################################
#
#                 Cambridge Crystallographic Data Centre
#                                CCDC
#
#######################################################################
#
# If this CIF has been generated from an entry in the Cambridge
# Structural Database, then it will include bibliographic, chemical,
# crystal, experimental, refinement or atomic coordinate data resulting
# from the CCDC's data processing and validation procedures.
#
#######################################################################

data_CSD_CIF_RAJHIT
_audit_creation_date 2001-11-02
_audit_creation_method CSD-ConQuest-V1
_database_code_CSD RAJHIT
_database_code_depnum_ccdc_archive 'CCDC 166104'
_database_code_depnum_ccdc_journal 1145/268 (not 1145/258 as published)
_chemical_formula_sum 'C14 H15 N3 O2'
_chemical_formula_moiety
;
C14 H15 N3 O2
;
_journal_coden_Cambridge 1145
_journal_volume 11
_journal_year 2001
_journal_page_first 1047
_journal_name_full 'J.Mater.Chem. '
loop_
_publ_author_name
"P.J.Langley"
"R.T.Bailey"
"F.R.Cruickshank"
"A.R.Kennedy"
"S.Lochran"
"D.Pugh"
"J.N.Sherwood"
"A.Viikki"
"J.D.Wallis"
_chemical_name_systematic
;
(S)-N-Methyl-5-nitro-N-(1-phenylethyl)pyridine-2-amine
;
_chemical_melting_point 371
_cell_volume   1341.204
_exptl_crystal_colour 'yellow'
_exptl_crystal_density_diffrn 1.274
_exptl_special_details
;
Melting point range 371-373K

;
_exptl_crystal_description 'block'
_exptl_crystal_preparation 'methanol'
_diffrn_ambient_temperature ?
_diffrn_special_details
;
The study was carried out at room temperature,in the range 283-303K

;
#These two values have been output from a single CSD field.
_refine_ls_R_factor_gt 0.0481
_refine_ls_wR_factor_gt 0.0481
_symmetry_cell_setting monoclinic
_symmetry_space_group_name_H-M 'P 21'
_symmetry_Int_Tables_number 4
loop_
_symmetry_equiv_pos_site_id
_symmetry_equiv_pos_as_xyz
1 x,y,z
2 -x,1/2+y,-z
_cell_length_a 8.979(1)
_cell_length_b 15.977(2)
_cell_length_c 9.410(2)
_cell_angle_alpha 90
_cell_angle_beta 96.52(1)
_cell_angle_gamma 90
_cell_formula_units_Z 4
loop_
_atom_type_symbol
_atom_type_radius_bond
C 0.68
H 0.23
N 0.68
O 0.68
loop_
_atom_site_label
_atom_site_type_symbol
_atom_site_fract_x
_atom_site_fract_y
_atom_site_fract_z
O1 O 0.6841(3) -0.0146(2) 0.2447(3)
O2 O 0.6767(3) -0.1322(2) 0.3582(3)
N1 N 0.4435(3) -0.0303(2) 0.6591(3)
N2 N 0.3333(3) 0.08453(14) 0.7540(3)
N3 N 0.6459(3) -0.0580(2) 0.3426(3)
C1 C 0.4061(3) 0.0510(2) 0.6481(3)
C2 C 0.4408(4) 0.0999(2) 0.5323(4)
H1 H 0.4116(4) 0.1557(2) 0.5252(4)
C3 C 0.5183(4) 0.0647(2) 0.4295(3)
H2 H 0.5430(4) 0.0961(2) 0.3523(3)
C4 C 0.5582(3) -0.0181(2) 0.4441(3)
C5 C 0.5182(4) -0.0637(2) 0.5569(3)
H3 H 0.5439(4) -0.1201(2) 0.5632(3)
C6 C 0.2983(4) 0.0351(2) 0.8784(3)
H4 H 0.3299(4) -0.0225(2) 0.8623(3)
C7 C 0.3891(5) 0.0649(3) 1.0161(4)
H5 H 0.4938(5) 0.0646(3) 1.0039(4)
H6 H 0.3716(5) 0.0282(3) 1.0932(4)
H7 H 0.3590(5) 0.1207(3) 1.0377(4)
C8 C 0.2884(4) 0.1716(2) 0.7489(4)
H8 H 0.2388(4) 0.1845(2) 0.8313(4)
H9 H 0.2211(4) 0.1815(2) 0.6637(4)
H10 H 0.3754(4) 0.2064(2) 0.7481(4)
C9 C 0.1294(4) 0.0328(2) 0.8839(3)
C10 C 0.0409(5) -0.0129(3) 0.7810(4)
H11 H 0.0869(5) -0.0411(3) 0.7113(4)
C11 C -0.1092(5) -0.0179(3) 0.7785(5)
H12 H -0.1649(5) -0.0495(3) 0.7083(5)
C12 C -0.1792(5) 0.0233(3) 0.8790(6)
H13 H -0.2829(5) 0.0203(3) 0.8766(6)
C13 C -0.0991(6) 0.0682(3) 0.9815(6)
H14 H -0.1476(6) 0.0958(3) 1.0501(6)
C14 C 0.0571(5) 0.0738(3) 0.9856(4)
H15 H 0.1120(5) 0.1050(3) 1.0568(4)
O3 O 0.2955(3) 0.2937(2) 0.1260(3)
O4 O 0.4551(3) 0.2504(2) 0.2975(3)
N4 N 0.6190(3) 0.3413(2) -0.1293(2)
N5 N 0.8678(3) 0.3355(2) -0.1713(3)
N6 N 0.4247(3) 0.2797(2) 0.1777(3)
C15 C 0.7631(3) 0.3245(2) -0.0797(3)
C16 C 0.8036(4) 0.2969(2) 0.0626(3)
H16 H 0.9037(4) 0.2887(2) 0.0972(3)
C17 C 0.6933(4) 0.2827(2) 0.1480(3)
H17 H 0.7169(4) 0.2637(2) 0.2413(3)
C18 C 0.5459(4) 0.2968(2) 0.0936(3)
C19 C 0.5142(4) 0.3275(2) -0.0429(3)
H18 H 0.4149(4) 0.3391(2) -0.0765(3)
C20 C 0.8261(4) 0.3594(2) -0.3223(3)
H19 H 0.7166(4) 0.3559(2) -0.3409(3)
C21 C 0.8691(5) 0.4497(2) -0.3459(4)
H20 H 0.8239(5) 0.4851(2) -0.2805(4)
H21 H 0.8345(5) 0.4658(2) -0.4424(4)
H22 H 0.9761(5) 0.4553(2) -0.3300(4)
C22 C 1.0261(4) 0.3276(2) -0.1206(3)
H23 H 1.0844(4) 0.3372(2) -0.1985(3)
H24 H 1.0458(4) 0.2723(2) -0.0833(3)
H25 H 1.0527(4) 0.3680(2) -0.0467(3)
C23 C 0.8903(3) 0.2961(2) -0.4193(3)
C24 C 0.9969(4) 0.3158(2) -0.5078(3)
H26 H 1.0328(4) 0.3703(2) -0.5093(3)
C25 C 1.0523(4) 0.2555(3) -0.5955(4)
H27 H 1.1246(4) 0.2699(3) -0.6546(4)
C26 C 1.0000(6) 0.1758(3) -0.5942(5)
H28 H 1.0367(6) 0.1355(3) -0.6526(5)
C27 C 0.8944(6) 0.1544(3) -0.5081(5)
H29 H 0.8587(6) 0.0998(3) -0.5084(5)
C28 C 0.8401(5) 0.2135(3) -0.4203(4)
H30 H 0.7688(5) 0.1980(3) -0.3609(4)
#END
