
#######################################################################
#
#                 Cambridge Crystallographic Data Centre
#                                CCDC
#
#######################################################################
#
# If this CIF has been generated from an entry in the Cambridge
# Structural Database, then it will include bibliographic, chemical,
# crystal, experimental, refinement or atomic coordinate data resulting
# from the CCDC's data processing and validation procedures.
#
#######################################################################

data_CSD_CIF_RAJHEP
_audit_creation_date 2001-11-02
_audit_creation_method CSD-ConQuest-V1
_database_code_CSD RAJHEP
_database_code_depnum_ccdc_archive 'CCDC 166103'
_database_code_depnum_ccdc_journal 1145/268 (not 1145/258 as published)
_chemical_formula_sum 'C14 H15 N3 O2'
_chemical_formula_moiety
;
C14 H15 N3 O2
;
_journal_coden_Cambridge 1145
_journal_volume 11
_journal_year 2001
_journal_page_first 1047
_journal_name_full 'J.Mater.Chem. '
loop_
_publ_author_name
"P.J.Langley"
"R.T.Bailey"
"F.R.Cruickshank"
"A.R.Kennedy"
"S.Lochran"
"D.Pugh"
"J.N.Sherwood"
"A.Viikki"
"J.D.Wallis"
_chemical_name_systematic
;
(S)-5-Nitro-N-(1-phenylethyl)pyridine-2-amine
;
_chemical_melting_point 379
_cell_volume   2017.825
_exptl_crystal_colour 'yellow'
_exptl_crystal_density_diffrn 1.27
_exptl_special_details
;
Melting point range 379-381K

;
_exptl_crystal_description 'thick plate'
_exptl_crystal_preparation 'aqueous ethanol'
_diffrn_ambient_temperature 150
#These two values have been output from a single CSD field.
_refine_ls_R_factor_gt 0.0501
_refine_ls_wR_factor_gt 0.0501
_symmetry_cell_setting monoclinic
_symmetry_space_group_name_H-M 'P 21'
_symmetry_Int_Tables_number 4
loop_
_symmetry_equiv_pos_site_id
_symmetry_equiv_pos_as_xyz
1 x,y,z
2 -x,1/2+y,-z
_cell_length_a 11.4150(7)
_cell_length_b 10.6973(5)
_cell_length_c 16.935(2)
_cell_angle_alpha 90
_cell_angle_beta 102.638(9)
_cell_angle_gamma 90
_cell_formula_units_Z 6
loop_
_atom_type_symbol
_atom_type_radius_bond
C 0.68
H 0.23
N 0.68
O 0.68
loop_
_atom_site_label
_atom_site_type_symbol
_atom_site_fract_x
_atom_site_fract_y
_atom_site_fract_z
O1 O 0.9784(2) 0.8731(2) 0.4425(2)
O2 O 0.8522(2) 0.7376(2) 0.4702(2)
N1 N 0.7356(3) 0.9816(2) 0.6196(2)
N2 N 0.7582(3) 1.1640(3) 0.6916(2)
H1 H 0.6837(3) 1.1505(3) 0.6957(2)
N3 N 0.9027(3) 0.8408(3) 0.4799(2)
C1 C 0.8038(3) 1.0852(3) 0.6442(2)
C2 C 0.9112(3) 1.1081(3) 0.6185(2)
H2 H 0.9602(3) 1.1776(3) 0.6390(2)
C3 C 0.9437(3) 1.0296(3) 0.5639(2)
H3 H 1.0140(3) 1.0449(3) 0.5440(2)
C4 C 0.8716(3) 0.9264(3) 0.5379(2)
C5 C 0.7702(3) 0.9052(3) 0.5676(2)
H4 H 0.7234(3) 0.8329(3) 0.5501(2)
C6 C 0.8202(3) 1.2695(3) 0.7368(2)
H5 H 0.8763(3) 1.3059(3) 0.7051(2)
C7 C 0.7283(4) 1.3682(4) 0.7450(3)
H6 H 0.7690(5) 1.4397(12) 0.7754(15)
H7 H 0.6703(15) 1.3329(8) 0.7738(16)
H8 H 0.6861(19) 1.396(2) 0.6911(3)
C8 C 1.0817(5) 1.1588(5) 1.0677(3)
H9 H 1.1649(10) 1.1880(28) 1.0761(6)
H10 H 1.0810(26) 1.0689(6) 1.0787(6)
H11 H 1.0408(18) 1.2036(25) 1.1044(3)
C9 C 0.8926(3) 1.2327(3) 0.8197(2)
C10 C 0.8618(4) 1.1329(3) 0.8631(3)
H12 H 0.7976(4) 1.0795(3) 0.8384(3)
C11 C 0.9231(4) 1.1093(4) 0.9420(3)
H13 H 0.8995(4) 1.0401(4) 0.9701(3)
C12 C 1.0173(4) 1.1836(4) 0.9808(2)
C13 C 1.0494(4) 1.2807(4) 0.9365(3)
H14 H 1.1156(4) 1.3319(4) 0.9605(3)
C14 C 0.9891(3) 1.3060(4) 0.8588(2)
H15 H 1.0135(3) 1.3750(4) 0.8310(2)
O3 O 0.1504(2) 1.3075(3) 0.7289(2)
O4 O 0.2754(2) 1.4132(2) 0.6763(2)
N4 N 0.4961(3) 1.1183(3) 0.6812(2)
N5 N 0.5453(3) 0.9150(3) 0.7105(2)
H16 H 0.6066(3) 0.9304(3) 0.6882(2)
N6 N 0.2423(3) 1.3149(3) 0.7029(2)
C15 C 0.4663(3) 1.0087(3) 0.7113(2)
C16 C 0.3609(3) 0.9945(3) 0.7404(2)
H17 H 0.3426(3) 0.9171(3) 0.7624(2)
C17 C 0.2857(3) 1.0935(3) 0.7365(2)
H18 H 0.2133(3) 1.0867(3) 0.7553(2)
C18 C 0.3169(3) 1.2055(3) 0.7045(2)
C19 C 0.4211(3) 1.2137(3) 0.6779(2)
H19 H 0.4407(3) 1.2908(3) 0.6561(2)
C20 C 0.5371(3) 0.7907(3) 0.7434(2)
H20 H 0.4552(3) 0.7563(3) 0.7208(2)
C21 C 0.6298(4) 0.7098(4) 0.7143(3)
H21 H 0.6293(20) 0.6254(9) 0.7367(16)
H22 H 0.7098(6) 0.7466(16) 0.7324(16)
H23 H 0.6097(16) 0.7055(24) 0.6551(3)
C22 C 0.6199(7) 0.7784(11) 1.0968(4)
H24 H 0.5547(37) 0.8228(61) 1.1141(5)
H25 H 0.6967(33) 0.8181(61) 1.1211(4)
H26 H 0.6211(65) 0.6910(12) 1.1143(5)
C23 C 0.5590(3) 0.7908(3) 0.8351(2)
C24 C 0.6045(3) 0.8931(4) 0.8814(2)
H27 H 0.6217(3) 0.9677(4) 0.8558(2)
C25 C 0.6251(4) 0.8874(6) 0.9655(3)
H28 H 0.6578(4) 0.9584(6) 0.9963(3)
C26 C 0.5998(5) 0.7836(8) 1.0047(3)
C27 C 0.5549(5) 0.6809(6) 0.9581(4)
H29 H 0.5374(5) 0.6067(6) 0.9841(4)
C28 C 0.5350(4) 0.6840(4) 0.8745(3)
H30 H 0.5044(4) 0.6121(4) 0.8440(3)
O5 O 0.5053(2) 1.4206(3) 0.5463(2)
O6 O 0.6210(3) 1.5721(3) 0.5259(2)
N7 N 0.8167(3) 1.3479(2) 0.4123(2)
N8 N 0.8574(2) 1.1524(3) 0.3688(2)
H31 H 0.8466(2) 1.0710(3) 0.3696(2)
N9 N 0.5907(3) 1.4611(3) 0.5202(2)
C29 C 0.7884(3) 1.2249(3) 0.4051(2)
C30 C 0.6929(3) 1.1738(3) 0.4354(2)
H32 H 0.6747(3) 1.0872(3) 0.4293(2)
C31 C 0.6272(3) 1.2495(3) 0.4735(2)
H33 H 0.5622(3) 1.2173(3) 0.4939(2)
C32 C 0.6576(3) 1.3751(3) 0.4816(2)
C33 C 0.7513(3) 1.4199(3) 0.4505(2)
H34 H 0.7703(3) 1.5064(3) 0.4566(2)
C34 C 0.9483(3) 1.1988(3) 0.3283(2)
H35 H 0.9895(3) 1.2708(3) 0.3606(2)
C35 C 1.0422(3) 1.0979(4) 0.3274(3)
H36 H 1.1006(13) 1.1280(9) 0.2971(13)
H37 H 1.0029(4) 1.0224(9) 0.3015(13)
H38 H 1.0836(15) 1.0785(17) 0.3831(3)
C36 C 0.7433(5) 1.3778(5) 0.0017(3)
H39 H 0.7859(21) 1.3392(26) -0.0365(4)
H40 H 0.7510(28) 1.4689(6) -0.0006(6)
H41 H 0.6583(9) 1.3547(28) -0.0130(8)
C37 C 0.8942(3) 1.2464(3) 0.2435(2)
C38 C 0.9248(3) 1.3615(3) 0.2181(2)
H42 H 0.9799(3) 1.4128(3) 0.2543(2)
C39 C 0.8761(4) 1.4040(4) 0.1400(3)
H43 H 0.8984(4) 1.4841(4) 0.1240(3)
C40 C 0.7969(4) 1.3328(4) 0.0861(3)
C41 C 0.7670(4) 1.2168(5) 0.1114(3)
H44 H 0.7134(4) 1.1648(5) 0.0747(3)
C42 C 0.8138(4) 1.1746(4) 0.1895(2)
H45 H 0.7902(4) 1.0954(4) 0.2059(2)
#END
