
#######################################################################
#
#                 Cambridge Crystallographic Data Centre
#                                CCDC
#
#######################################################################
#
# If this CIF has been generated from an entry in the Cambridge
# Structural Database, then it will include bibliographic, chemical,
# crystal, experimental, refinement or atomic coordinate data resulting
# from the CCDC's data processing and validation procedures.
#
#######################################################################

data_CSD_CIF_RAJHAL
_audit_creation_date 2001-11-02
_audit_creation_method CSD-ConQuest-V1
_database_code_CSD RAJHAL
_database_code_depnum_ccdc_archive 'CCDC 166102'
_database_code_depnum_ccdc_journal 1145/268 (not 1145/258 as published)
_chemical_formula_sum 'C14 H15 N3 O2'
_chemical_formula_moiety
;
C14 H15 N3 O2
;
_journal_coden_Cambridge 1145
_journal_volume 11
_journal_year 2001
_journal_page_first 1047
_journal_name_full 'J.Mater.Chem. '
loop_
_publ_author_name
"P.J.Langley"
"R.T.Bailey"
"F.R.Cruickshank"
"A.R.Kennedy"
"S.Lochran"
"D.Pugh"
"J.N.Sherwood"
"A.Viikki"
"J.D.Wallis"
_chemical_name_systematic
;
(S)-5-Nitro-N-(1-phenylethyl)-3-methylpyridine-2-amine
;
_chemical_melting_point 318
_cell_volume   1335.395
_exptl_crystal_colour 'yellow'
_exptl_crystal_density_diffrn 1.28
_exptl_special_details
;
Melting point range 318-319K

;
_exptl_crystal_description 'rod'
_exptl_crystal_preparation 'aqueous ethanol'
_diffrn_ambient_temperature 150
#These two values have been output from a single CSD field.
_refine_ls_R_factor_gt 0.0573
_refine_ls_wR_factor_gt 0.0573
loop_
_citation_database_id_CSD
_citation_special_details
RAJHOZ "is a racemate of this entry"
_symmetry_cell_setting orthorhombic
_symmetry_space_group_name_H-M 'P 21 21 21'
_symmetry_Int_Tables_number 19
loop_
_symmetry_equiv_pos_site_id
_symmetry_equiv_pos_as_xyz
1 x,y,z
2 1/2-x,-y,1/2+z
3 1/2+x,1/2-y,-z
4 -x,1/2+y,1/2-z
_cell_length_a 5.481(4)
_cell_length_b 6.791(8)
_cell_length_c 35.877(29)
_cell_angle_alpha 90
_cell_angle_beta 90
_cell_angle_gamma 90
_cell_formula_units_Z 4
loop_
_atom_type_symbol
_atom_type_radius_bond
C 0.68
H 0.23
N 0.68
O 0.68
loop_
_atom_site_label
_atom_site_type_symbol
_atom_site_fract_x
_atom_site_fract_y
_atom_site_fract_z
O1 O 0.4808(7) 0.8553(5) 0.03156(8)
O2 O 0.2310(9) 0.8333(5) 0.07802(12)
N1 N 0.5095(7) 0.3103(5) 0.11124(9)
N2 N 0.8045(7) 0.0703(5) 0.10626(9)
N3 N 0.3973(7) 0.7669(5) 0.0584(1)
C1 C 0.7008(8) 0.2361(6) 0.09211(10)
C2 C 0.7973(8) 0.3240(6) 0.0591(1)
C3 C 0.6965(8) 0.5006(6) 0.04797(11)
C4 C 0.5032(9) 0.5794(5) 0.06891(10)
C5 C 0.4123(9) 0.4800(6) 0.09959(11)
C6 C 0.7327(9) -0.0115(6) 0.14235(10)
C7 C 0.8670(11) -0.2073(7) 0.14875(13)
C8 C 0.9973(10) 0.2264(7) 0.03714(12)
C9 C 0.7843(8) 0.1293(6) 0.17431(10)
C10 C 0.6206(8) 0.1401(7) 0.20421(11)
C11 C 0.6678(9) 0.2620(7) 0.23442(11)
C12 C 0.8784(9) 0.3765(7) 0.23536(12)
C13 C 1.0412(9) 0.3666(7) 0.20603(12)
C14 C 0.9955(9) 0.2432(6) 0.17590(12)
H1 H 0.9313(95) 0.0284(59) 0.0954(12)
H2 H 0.7525(76) 0.5720(51) 0.024(1)
H3 H 0.2846(97) 0.5296(63) 0.1118(13)
H4 H 0.5639(86) -0.0296(54) 0.1421(10)
H5 H 1.057(13) -0.1797(76) 0.1501(15)
H6 H 0.8170(97) -0.2672(73) 0.1743(15)
H7 H 0.833(11) -0.2995(84) 0.1286(17)
H8 H 1.0342(76) 0.3013(56) 0.0170(12)
H9 H 1.149(10) 0.2181(78) 0.0544(16)
H10 H 0.958(11) 0.0957(95) 0.0277(16)
H11 H 0.454(11) 0.0684(77) 0.2007(14)
H12 H 0.5461(79) 0.2704(52) 0.2548(11)
H13 H 0.9006(78) 0.4673(62) 0.2561(13)
H14 H 1.1977(98) 0.4339(76) 0.2034(13)
H15 H 1.096(12) 0.2381(92) 0.1587(19)
#END
