
#######################################################################
#
#                 Cambridge Crystallographic Data Centre
#                                CCDC
#
#######################################################################
#
# If this CIF has been generated from an entry in the Cambridge
# Structural Database, then it will include bibliographic, chemical,
# crystal, experimental, refinement or atomic coordinate data resulting
# from the CCDC's data processing and validation procedures.
#
#######################################################################

data_CSD_CIF_RAKBIQ
_audit_creation_date 2012-02-14
_audit_creation_method CSD-ConQuest-V1
_database_code_CSD RAKBIQ
_database_code_depnum_ccdc_archive 'CCDC 833178'
_chemical_formula_sum 'C18 H21 N1 O6'
_chemical_formula_moiety
;
C18 H21 N1 O6
;
_journal_coden_Cambridge 1475
_journal_volume 3
_journal_year 2012
_journal_page_first 121
_journal_name_full 'Chemical Science '
loop_
_publ_author_name
"K.L.Kimmel"
"J.D.Weaver"
"J.A.Ellman"
_chemical_name_systematic
;
3-(2-Nitro-1-phenylpropyl)-1,5-dioxaspiro[5.5]undecane-2,4-dione
;
_cell_volume   1730.442
_exptl_crystal_colour 'colorless'
_exptl_crystal_density_diffrn 1.333
_exptl_special_details
;
Absolute configuration

;
_exptl_crystal_description 'block'
_diffrn_ambient_temperature 93
#These two values have been output from a single CSD field.
_refine_ls_R_factor_gt 0.0562
_refine_ls_wR_factor_gt 0.0562
_symmetry_cell_setting triclinic
_symmetry_space_group_name_H-M 'P 1'
_symmetry_Int_Tables_number 1
loop_
_symmetry_equiv_pos_site_id
_symmetry_equiv_pos_as_xyz
1 x,y,z
_cell_length_a 11.3125(2)
_cell_length_b 12.0218(2)
_cell_length_c 13.7304(10)
_cell_angle_alpha 102.179(7)
_cell_angle_beta 107.108(8)
_cell_angle_gamma 93.227(7)
_cell_formula_units_Z 4
loop_
_atom_type_symbol
_atom_type_radius_bond
C 0.68
H 0.23
N 0.68
O 0.68
loop_
_atom_site_label
_atom_site_type_symbol
_atom_site_fract_x
_atom_site_fract_y
_atom_site_fract_z
O1 O 0.8156(3) 0.9023(2) 0.6085(2)
O2 O 0.9302(3) 1.0559(3) 0.7212(3)
O3 O 0.5203(4) 0.9520(3) 0.7067(3)
O4 O 0.6077(3) 0.8495(3) 0.6017(3)
O5 O 0.8365(5) 1.0374(3) 1.0000(3)
O6 O 0.6498(4) 1.0104(3) 1.0100(3)
O7 O 0.7485(3) 0.9164(2) 1.2823(2)
O8 O 0.6086(3) 0.8108(3) 1.1400(3)
O9 O 1.0358(4) 0.7836(3) 1.2152(3)
O10 O 0.9636(3) 0.9119(2) 1.3146(2)
O11 O 0.8417(3) 0.7863(3) 0.9175(3)
O12 O 0.6439(4) 0.7909(3) 0.8525(3)
O13 O 1.0747(3) 0.4311(3) 0.8037(3)
O14 O 1.0302(4) 0.5501(3) 0.9297(3)
O15 O 1.4246(3) 0.5801(3) 0.8864(3)
O16 O 1.2711(3) 0.4513(2) 0.7794(2)
O17 O 1.3680(4) 0.5914(3) 1.2035(3)
O18 O 1.1711(4) 0.5526(3) 1.1729(3)
O19 O 1.2242(3) 0.4632(2) 1.4685(2)
O20 O 1.0996(3) 0.3241(3) 1.3448(3)
O21 O 1.5225(4) 0.3985(3) 1.3803(3)
O22 O 1.4365(3) 0.5059(3) 1.4846(2)
O23 O 1.0758(6) 0.3064(4) 1.0368(4)
O24 O 1.2755(5) 0.3402(4) 1.0859(3)
N1 N 0.7262(5) 1.0497(3) 0.9741(3)
N2 N 0.7321(4) 0.7558(3) 0.9083(3)
N3 N 1.2612(4) 0.6071(3) 1.1649(3)
N4 N 1.1771(6) 0.2938(4) 1.0902(4)
C1 C 0.7181(5) 0.8072(4) 0.5835(4)
C2 C 0.7624(5) 0.7214(4) 0.6482(4)
C3 C 0.8707(5) 0.6641(4) 0.6190(4)
C4 C 0.8345(6) 0.6113(4) 0.5014(4)
C5 C 0.7933(6) 0.7009(4) 0.4394(4)
C6 C 0.6855(6) 0.7566(4) 0.4668(4)
C7 C 0.8369(5) 0.9872(4) 0.6957(3)
C8 C 0.7447(4) 0.9904(4) 0.7553(3)
C9 C 0.6140(6) 0.9323(4) 0.6872(4)
C10 C 0.7497(5) 1.1156(4) 0.8195(4)
C11 C 0.6798(5) 1.1258(4) 0.8997(3)
C12 C 0.6987(7) 1.2474(4) 0.9668(5)
C13 C 0.7128(5) 1.1998(4) 0.7497(4)
C14 C 0.5936(5) 1.1987(4) 0.6860(4)
C15 C 0.5653(5) 1.2787(5) 0.6243(5)
C16 C 0.6583(5) 1.3592(4) 0.6257(4)
C17 C 0.7758(5) 1.3621(4) 0.6896(4)
C18 C 0.8061(5) 1.2841(4) 0.7528(4)
C19 C 0.8695(4) 0.9847(3) 1.3227(3)
C20 C 0.8937(5) 1.0357(4) 1.4390(4)
C21 C 0.8068(5) 1.1227(4) 1.4576(4)
C22 C 0.8100(6) 1.2156(4) 1.3993(4)
C23 C 0.7805(6) 1.1624(4) 1.2817(4)
C24 C 0.8715(5) 1.0778(4) 1.2634(4)
C25 C 0.7167(5) 0.8444(4) 1.1856(4)
C26 C 0.8197(5) 0.8109(4) 1.1417(4)
C27 C 0.9487(5) 0.8324(4) 1.2244(4)
C28 C 0.7990(5) 0.6856(4) 1.0727(3)
C29 C 0.7021(5) 0.6686(3) 0.9655(3)
C30 C 0.7001(5) 0.5524(4) 0.8939(4)
C31 C 0.7687(5) 0.5968(4) 1.1301(4)
C32 C 0.6489(5) 0.5654(4) 1.1298(4)
C33 C 0.6258(5) 0.4876(4) 1.1860(4)
C34 C 0.7220(5) 0.4392(4) 1.2415(4)
C35 C 0.8426(5) 0.4664(4) 1.2408(4)
C36 C 0.8666(5) 0.5446(4) 1.1845(4)
C37 C 1.1662(5) 0.3702(4) 0.7677(4)
C38 C 1.2066(5) 0.2787(4) 0.8261(4)
C39 C 1.2956(5) 0.2101(4) 0.7797(4)
C40 C 1.2367(5) 0.1579(4) 0.6641(4)
C41 C 1.1948(5) 0.2510(4) 0.6058(4)
C42 C 1.1074(5) 0.3223(4) 0.6509(4)
C43 C 1.1108(5) 0.5130(4) 0.8956(4)
C44 C 1.2469(5) 0.5510(4) 0.9453(4)
C45 C 1.3217(4) 0.5306(4) 0.8711(3)
C46 C 1.2862(5) 0.6756(4) 1.0137(3)
C47 C 1.2373(5) 0.7021(4) 1.1077(4)
C48 C 1.3073(6) 0.8142(4) 1.1867(4)
C49 C 1.2507(5) 0.7662(4) 0.9495(3)
C50 C 1.3454(5) 0.8278(4) 0.9288(4)
C51 C 1.3159(5) 0.9084(4) 0.8685(4)
C52 C 1.1947(5) 0.9277(4) 0.8298(4)
C53 C 1.1018(5) 0.8701(4) 0.8532(4)
C54 C 1.1297(5) 0.7885(4) 0.9120(4)
C55 C 1.3275(5) 0.5539(4) 1.4999(4)
C56 C 1.3540(5) 0.6021(4) 1.6159(4)
C57 C 1.2460(6) 0.6616(4) 1.6393(4)
C58 C 1.2148(6) 0.7547(4) 1.5779(4)
C59 C 1.1859(6) 0.7037(4) 1.4607(4)
C60 C 1.2941(5) 0.6448(4) 1.4378(4)
C61 C 1.1993(5) 0.3834(4) 1.3784(4)
C62 C 1.2972(5) 0.3746(4) 1.3245(4)
C63 C 1.4267(6) 0.4258(4) 1.3968(4)
C64 C 1.3007(5) 0.2518(4) 1.2584(4)
C65 C 1.1834(6) 0.2116(4) 1.1619(4)
C66 C 1.1864(7) 0.0941(5) 1.0939(4)
C67 C 1.3283(5) 0.1611(4) 1.3221(4)
C68 C 1.2379(5) 0.1118(4) 1.3555(4)
C69 C 1.2637(6) 0.0284(4) 1.4144(4)
C70 C 1.3774(6) -0.0054(5) 1.4391(5)
C71 C 1.4669(7) 0.0407(6) 1.4065(9)
C72 C 1.4400(6) 0.1242(5) 1.3473(7)
H1 H 0.69220 0.66170 0.63610
H2 H 0.79090 0.76080 0.72360
H3 H 0.94480 0.72210 0.64030
H4 H 0.89290 0.60360 0.65770
H5 H 0.90660 0.57910 0.48450
H6 H 0.76570 0.54800 0.48130
H7 H 0.76700 0.66420 0.36340
H8 H 0.86450 0.76070 0.45490
H9 H 0.66460 0.81790 0.42880
H10 H 0.61120 0.69840 0.44350
H11 H 0.77490 0.94410 0.80820
H12 H 0.83940 1.14110 0.86100
H13 H 0.58880 1.10200 0.86220
H14 H 0.78740 1.27000 1.00600
H15 H 0.65080 1.25060 1.01610
H16 H 0.67010 1.30000 0.92160
H17 H 0.52930 1.14290 0.68370
H18 H 0.48210 1.27760 0.58140
H19 H 0.64000 1.41200 0.58230
H20 H 0.83920 1.41860 0.69160
H21 H 0.88900 1.28790 0.79750
H22 H 0.88280 0.97330 1.47380
H23 H 0.98100 1.07280 1.47090
H24 H 0.83040 1.15840 1.53370
H25 H 0.72070 1.08320 1.43500
H26 H 0.89360 1.26100 1.42690
H27 H 0.74810 1.26780 1.41030
H28 H 0.69420 1.12230 1.25290
H29 H 0.78630 1.22380 1.24460
H30 H 0.84920 1.04210 1.18740
H31 H 0.95680 1.11940 1.28680
H32 H 0.82350 0.86240 1.09390
H33 H 0.87990 0.67040 1.06020
H34 H 0.61780 0.67590 0.97380
H35 H 0.78200 0.54650 0.88390
H36 H 0.63660 0.54480 0.82580
H37 H 0.68050 0.49120 0.92590
H38 H 0.58140 0.59750 1.09040
H39 H 0.54320 0.46810 1.18590
H40 H 0.70620 0.38680 1.28060
H41 H 0.90890 0.43190 1.27870
H42 H 0.94890 0.56240 1.18320
H43 H 1.13270 0.22660 0.82050
H44 H 1.24900 0.31460 0.90130
H45 H 1.37240 0.26140 0.79090
H46 H 1.31940 0.14840 0.81660
H47 H 1.16390 0.10150 0.65300
H48 H 1.29750 0.11700 0.63590
H49 H 1.26900 0.30210 0.61040
H50 H 1.15170 0.21480 0.53080
H51 H 1.08880 0.38620 0.61580
H52 H 1.02790 0.27380 0.63730
H53 H 1.27630 0.50080 0.99480
H54 H 1.37930 0.68630 1.04260
H55 H 1.14600 0.70780 1.08330
H56 H 1.39660 0.80780 1.21070
H57 H 1.27580 0.82780 1.24690
H58 H 1.29380 0.87840 1.15260
H59 H 1.42970 0.81500 0.95590
H60 H 1.38020 0.94990 0.85410
H61 H 1.17480 0.98090 0.78700
H62 H 1.01840 0.88610 0.82890
H63 H 1.06480 0.74800 0.92650
H64 H 1.43070 0.65780 1.64310
H65 H 1.36870 0.53920 1.65260
H66 H 1.26890 0.69670 1.71550
H67 H 1.17160 0.60410 1.61980
H68 H 1.14190 0.78920 1.59110
H69 H 1.28630 0.81610 1.60230
H70 H 1.16960 0.76530 1.42250
H71 H 1.10980 0.64730 1.43510
H72 H 1.27100 0.60850 1.36190
H73 H 1.36770 0.70270 1.45620
H74 H 1.27500 0.42340 1.27270
H75 H 1.37200 0.25950 1.23010
H76 H 1.10720 0.21060 1.18470
H77 H 1.19490 0.03700 1.13620
H78 H 1.25740 0.09760 1.06700
H79 H 1.10880 0.07250 1.03500
H80 H 1.15690 0.13480 1.33810
H81 H 1.20050 -0.00390 1.43670
H82 H 1.39520 -0.06130 1.47920
H83 H 1.54750 0.01690 1.42360
H84 H 1.50360 0.15520 1.32470
#END
