
#######################################################################
#
#                 Cambridge Crystallographic Data Centre
#                                CCDC
#
#######################################################################
#
# If this CIF has been generated from an entry in the Cambridge
# Structural Database, then it will include bibliographic, chemical,
# crystal, experimental, refinement or atomic coordinate data resulting
# from the CCDC's data processing and validation procedures.
#
#######################################################################

data_CSD_CIF_RAKNIB
_audit_creation_date 2005-08-18
_audit_creation_method CSD-ConQuest-V1
_database_code_CSD RAKNIB
_database_code_depnum_ccdc_archive 'CCDC 247713'
_chemical_formula_sum 'C20 H24 N4 O4'
_chemical_formula_moiety
;
C20 H24 N4 O4
;
_journal_coden_Cambridge 1200
_journal_volume 13
_journal_year 2005
_journal_page_first 3197
_journal_name_full 'Bioorg.Med.Chem. '
loop_
_publ_author_name
"V.J.Aran"
"C.Ochoa"
"L.Boiani"
"P.Buccino"
"H.Cerecetto"
"A.Gerpe"
"M.Gonzalez"
"D.Montero"
"J.J.Nogal"
"A.Gomez-Barrio"
"A.Azqueta"
"A.L.de Cerain"
"O.E.Piro"
"E.E.Castellano"
_chemical_name_systematic
;
N,N-Dimethyl-5-(3-benzyloxy-5-nitro-1H-indazol-1-yl)-3-oxapentylamine
;
_chemical_melting_point 368.15
_cell_volume   2012.042
_exptl_crystal_colour 'yellow'
_exptl_crystal_density_diffrn 1.269
_exptl_special_details
;
Melting point range 368.15-370.15K
trichomonacidal, antichagasic and antineoplastic activities
;
_exptl_crystal_description 'prism'
_diffrn_ambient_temperature 296
#These two values have been output from a single CSD field.
_refine_ls_R_factor_gt 0.0663
_refine_ls_wR_factor_gt 0.0663
_symmetry_cell_setting monoclinic
_symmetry_space_group_name_H-M 'P 21/n'
_symmetry_Int_Tables_number 14
loop_
_symmetry_equiv_pos_site_id
_symmetry_equiv_pos_as_xyz
1 x,y,z
2 1/2-x,1/2+y,1/2-z
3 -x,-y,-z
4 -1/2+x,-1/2-y,-1/2+z
_cell_length_a 6.817(3)
_cell_length_b 13.090(3)
_cell_length_c 22.672(3)
_cell_angle_alpha 90
_cell_angle_beta 96.00(3)
_cell_angle_gamma 90
_cell_formula_units_Z 4
loop_
_atom_type_symbol
_atom_type_radius_bond
C 0.68
H 0.23
N 0.68
O 0.68
loop_
_atom_site_label
_atom_site_type_symbol
_atom_site_fract_x
_atom_site_fract_y
_atom_site_fract_z
O1 O -0.5182(4) -0.3083(2) -0.05921(12)
O2 O -0.2650(4) 0.00933(18) 0.11894(9)
O3 O -0.2249(5) 0.1834(2) -0.15823(13)
O4 O -0.2249(4) 0.2623(2) -0.07485(14)
N1 N -0.2418(4) -0.1816(2) 0.01512(12)
N2 N -0.2535(4) -0.1501(2) 0.07317(12)
N3 N -1.0088(6) -0.3345(3) -0.13537(16)
N4 N -0.2269(5) 0.1837(3) -0.10415(15)
C1 C -0.2197(6) -0.2889(3) 0.00220(17)
H1 H -0.13690 -0.32020 0.03460
H2 H -0.15250 -0.29540 -0.03330
C2 C -0.4095(6) -0.3457(3) -0.00681(18)
H3 H -0.38450 -0.41820 -0.01070
H4 H -0.48400 -0.33560 0.02690
C3 C -0.7018(7) -0.3566(4) -0.0710(2)
H5 H -0.78490 -0.34060 -0.04010
H6 H -0.68420 -0.43010 -0.07200
C4 C -0.7968(7) -0.3196(4) -0.12985(18)
H7 H -0.76830 -0.24750 -0.13410
H8 H -0.74140 -0.35620 -0.16140
C5 C -0.2408(5) -0.1011(3) -0.02165(14)
C6 C -0.2244(5) -0.0971(3) -0.08278(15)
H9 H -0.21630 -0.15630 -0.10510
C7 C -0.2208(5) -0.0034(3) -0.10800(16)
H10 H -0.21010 0.00210 -0.14840
C8 C -0.2331(5) 0.0854(3) -0.07403(15)
C9 C -0.2483(5) 0.0831(3) -0.01435(15)
H11 H -0.25650 0.14280 0.00740
C10 C -0.2511(5) -0.0122(3) 0.01225(14)
C11 C -0.2588(5) -0.0504(3) 0.07090(15)
C12 C -0.2597(6) -0.0460(3) 0.17432(14)
H12 H -0.15130 -0.09430 0.17760
H13 H -0.38170 -0.08360 0.17590
C13 C -0.2336(6) 0.0291(3) 0.22401(15)
C14 C -0.0639(7) 0.0304(3) 0.26215(18)
H14 H 0.03750 -0.01490 0.25630
C15 C -0.0410(9) 0.0981(4) 0.3094(2)
H15 H 0.07460 0.09790 0.33510
C16 C -0.1881(10) 0.1649(4) 0.3180(2)
H16 H -0.17340 0.21040 0.34960
C17 C -0.3572(8) 0.1649(4) 0.2801(2)
H17 H -0.45810 0.21040 0.28590
C18 C -0.3787(7) 0.0972(4) 0.23310(19)
H18 H -0.49400 0.09820 0.20730
C19 C -1.0948(8) -0.2940(5) -0.1910(2)
H19 H -1.05710 -0.22380 -0.19430
H20 H -1.23590 -0.29880 -0.19300
H21 H -1.04900 -0.33250 -0.22290
C20 C -1.0669(8) -0.4394(4) -0.1291(3)
H22 H -1.01580 -0.48000 -0.15920
H23 H -1.20820 -0.44400 -0.13310
H24 H -1.01530 -0.46420 -0.09070
#END
