
#######################################################################
#
#                 Cambridge Crystallographic Data Centre
#                                CCDC
#
#######################################################################
#
# If this CIF has been generated from an entry in the Cambridge
# Structural Database, then it will include bibliographic, chemical,
# crystal, experimental, refinement or atomic coordinate data resulting
# from the CCDC's data processing and validation procedures.
#
#######################################################################

data_CSD_CIF_RAKNAT
_audit_creation_date 2005-08-18
_audit_creation_method CSD-ConQuest-V1
_database_code_CSD RAKNAT
_database_code_depnum_ccdc_archive 'CCDC 251894'
_chemical_formula_sum 'C13 H15 N3 O2'
_chemical_formula_moiety
;
C13 H15 N3 O2
;
_journal_coden_Cambridge 16
_journal_volume 61
_journal_year 2005
_journal_page_first 4221
_journal_name_full 'Tetrahedron '
loop_
_publ_author_name
"V.A.Ozeryanskii"
"A.F.Pozharskii"
"M.G.Koroleva"
"D.A.Shevchuk"
"O.N.Kazheva"
"A.N.Chekhlov"
"G.V.Shilov"
"O.A.Dyachenko"
_chemical_name_systematic
;
1-Dimethylamino-8-methylamino-4-nitronaphthalene
;
_cell_volume   1228.147
_exptl_crystal_colour 'maroon'
_exptl_crystal_density_diffrn 1.327
_diffrn_ambient_temperature 293
#These two values have been output from a single CSD field.
_refine_ls_R_factor_gt 0.0411
_refine_ls_wR_factor_gt 0.0411
_symmetry_cell_setting monoclinic
_symmetry_space_group_name_H-M 'P 21/n'
_symmetry_Int_Tables_number 14
loop_
_symmetry_equiv_pos_site_id
_symmetry_equiv_pos_as_xyz
1 x,y,z
2 1/2-x,1/2+y,1/2-z
3 -x,-y,-z
4 -1/2+x,-1/2-y,-1/2+z
_cell_length_a 10.809(2)
_cell_length_b 11.951(2)
_cell_length_c 9.830(2)
_cell_angle_alpha 90
_cell_angle_beta 104.72(3)
_cell_angle_gamma 90
_cell_formula_units_Z 4
loop_
_atom_type_symbol
_atom_type_radius_bond
C 0.68
H 0.23
N 0.68
O 0.68
loop_
_atom_site_label
_atom_site_type_symbol
_atom_site_fract_x
_atom_site_fract_y
_atom_site_fract_z
O1 O 0.8366(2) 0.70263(17) -0.42304(18)
O2 O 0.8654(3) 0.52955(18) -0.44350(18)
N1 N 0.80164(14) 0.52152(12) 0.17345(16)
N2 N 0.97166(17) 0.68728(16) 0.27053(18)
N3 N 0.85203(18) 0.60837(16) -0.37308(19)
C1 C 0.82774(16) 0.54200(14) 0.04252(19)
C2 C 0.7938(2) 0.46438(17) -0.0643(2)
C3 C 0.8071(2) 0.48838(19) -0.1982(2)
C4 C 0.85087(18) 0.58958(16) -0.22652(19)
C5 C 0.89520(17) 0.67215(15) -0.1204(2)
C6 C 0.88999(16) 0.64386(14) 0.02017(19)
C7 C 0.95504(17) 0.71710(16) 0.1337(2)
C8 C 1.0062(2) 0.81718(18) 0.1007(3)
C9 C 1.0011(2) 0.84444(19) -0.0370(3)
C10 C 0.9502(2) 0.77525(17) -0.1454(3)
C11 C 1.0573(2) 0.7453(2) 0.3854(3)
C12 C 0.7052(2) 0.5972(2) 0.2044(2)
C13 C 0.7789(3) 0.40614(19) 0.2076(3)
H1 H 0.759(3) 0.395(2) -0.048(3)
H2 H 0.781(2) 0.433(2) -0.269(3)
H3 H 1.045(3) 0.868(2) 0.177(3)
H4 H 1.036(2) 0.917(2) -0.061(3)
H5 H 0.949(2) 0.794(2) -0.232(3)
H6 H 0.720(3) 0.672(2) 0.174(3)
H7 H 0.620(3) 0.572(2) 0.152(3)
H8 H 0.715(2) 0.590(2) 0.304(3)
H9 H 0.787(2) 0.404(2) 0.309(3)
H10 H 0.696(3) 0.382(2) 0.149(3)
H11 H 0.849(3) 0.359(2) 0.187(3)
H12 H 0.953(3) 0.616(2) 0.286(3)
H13 H 1.035(2) 0.821(2) 0.401(3)
H14 H 1.148(3) 0.747(2) 0.372(3)
H15 H 1.053(2) 0.704(2) 0.473(3)
#END
