
#######################################################################
#
#                 Cambridge Crystallographic Data Centre
#                                CCDC
#
#######################################################################
#
# If this CIF has been generated from an entry in the Cambridge
# Structural Database, then it will include bibliographic, chemical,
# crystal, experimental, refinement or atomic coordinate data resulting
# from the CCDC's data processing and validation procedures.
#
#######################################################################

data_CSD_CIF_RAKNUP
_audit_creation_date 2017-01-16
_audit_creation_method CSD-ConQuest-V1
_database_code_CSD RAKNUP
_database_code_depnum_ccdc_archive 'CCDC 1481699'
_chemical_formula_sum 'C32 H47 N7 O7'
_chemical_formula_moiety
;
C32 H47 N7 O7
;
_journal_coden_Cambridge 1540
_journal_volume 7
_journal_year 2017
_journal_page_first 40465
_journal_name_full 'Scientific Reports '
loop_
_publ_author_name
"T.Das"
"A.Pramanik"
"D.Haldar"
_chemical_name_systematic
;
1,3,5-tricyclohexyl-2-(cyclohexylamino)-7,9,11-trinitro-4-oxo-1,3,5-triazaspir
o[5.5]undeca-1,8,10-trien-1-ium-7-ide
;
_cell_volume   3233.771
_exptl_crystal_colour 'metallic reddish orange'
_exptl_crystal_density_diffrn 1.318
_exptl_crystal_description 'irregular'
_diffrn_ambient_temperature 100.0
#These two values have been output from a single CSD field.
_refine_ls_R_factor_gt 0.0458
_refine_ls_wR_factor_gt 0.0458
_symmetry_cell_setting monoclinic
_symmetry_space_group_name_H-M 'P 21/n'
_symmetry_Int_Tables_number 14
loop_
_symmetry_equiv_pos_site_id
_symmetry_equiv_pos_as_xyz
1 x,y,z
2 1/2-x,1/2+y,1/2-z
3 -x,-y,-z
4 -1/2+x,-1/2-y,-1/2+z
_cell_length_a 10.9266(6)
_cell_length_b 26.6855(13)
_cell_length_c 11.9495(5)
_cell_angle_alpha 90
_cell_angle_beta 111.858(6)
_cell_angle_gamma 90
_cell_formula_units_Z 4
loop_
_atom_type_symbol
_atom_type_radius_bond
C 0.68
H 0.23
N 0.68
O 0.68
loop_
_atom_site_label
_atom_site_type_symbol
_atom_site_fract_x
_atom_site_fract_y
_atom_site_fract_z
C1 C 0.3166(2) 0.32557(8) 0.58499(18)
C2 C 0.3529(2) 0.28492(8) 0.53682(19)
H1 H 0.30980 0.27770 0.45540
C3 C 0.4549(2) 0.25364(8) 0.6090(2)
C4 C 0.5184(2) 0.26325(8) 0.7318(2)
H2 H 0.58320 0.24140 0.77940
C5 C 0.4861(2) 0.30430(8) 0.78214(18)
C6 C 0.38292(19) 0.34327(7) 0.71435(18)
C7 C 0.5589(2) 0.39083(8) 0.67319(18)
H3 H 0.55650 0.35750 0.63800
C8 C 0.6954(2) 0.39603(8) 0.77263(19)
H4 H 0.70640 0.37090 0.83430
H5 H 0.70390 0.42880 0.80980
C9 C 0.8018(2) 0.38934(9) 0.7194(2)
H6 H 0.88770 0.39490 0.78210
H7 H 0.79930 0.35510 0.69110
C10 C 0.7839(2) 0.42515(9) 0.6154(2)
H8 H 0.84900 0.41780 0.58040
H9 H 0.79790 0.45930 0.64540
C11 C 0.6457(2) 0.42044(9) 0.5184(2)
H10 H 0.63540 0.38750 0.48190
H11 H 0.63480 0.44510 0.45580
C12 C 0.5392(2) 0.42828(8) 0.57130(19)
H12 H 0.54440 0.46220 0.60200
H13 H 0.45270 0.42370 0.50880
C13 C 0.4252(2) 0.43435(8) 0.76861(18)
C14 C 0.2465(2) 0.48120(8) 0.80624(18)
H14 H 0.17240 0.47300 0.83030
C15 C 0.3238(2) 0.52300(8) 0.89079(19)
H15 H 0.39450 0.53460 0.86670
H16 H 0.36240 0.51050 0.97280
C16 C 0.2290(2) 0.56638(8) 0.8843(2)
H17 H 0.16100 0.55490 0.91210
H18 H 0.27700 0.59320 0.93710
C17 C 0.1650(2) 0.58621(9) 0.7556(2)
H19 H 0.10160 0.61200 0.75310
H20 H 0.23210 0.60120 0.73130
C18 C 0.0958(2) 0.54466(8) 0.6677(2)
H21 H 0.06430 0.55790 0.58620
H22 H 0.01980 0.53340 0.68420
C19 C 0.1863(2) 0.49981(8) 0.67579(19)
H23 H 0.13610 0.47300 0.62400
H24 H 0.25600 0.50960 0.64840
C20 C 0.26840(19) 0.38799(7) 0.82907(17)
C21 C 0.2339(2) 0.41622(8) 1.01391(17)
H25 H 0.28400 0.44580 1.00730
C22 C 0.1103(2) 0.43417(8) 1.03191(18)
H26 H 0.05660 0.40560 1.03480
H27 H 0.05880 0.45530 0.96480
C23 C 0.1494(2) 0.46366(8) 1.14929(19)
H28 H 0.19830 0.49330 1.14390
H29 H 0.07060 0.47450 1.16160
C24 C 0.2336(2) 0.43189(8) 1.25591(19)
H30 H 0.18280 0.40340 1.26460
H31 H 0.25900 0.45160 1.32930
C25 C 0.3572(2) 0.41348(9) 1.23752(19)
H32 H 0.40720 0.39190 1.30420
H33 H 0.41220 0.44200 1.23720
C26 C 0.3229(2) 0.38465(8) 1.11923(18)
H34 H 0.40310 0.37620 1.10670
H35 H 0.27830 0.35370 1.12350
C27 C 0.2227(2) 0.29674(7) 0.78029(18)
H36 H 0.25190 0.27440 0.73010
C28 C 0.2698(2) 0.27139(8) 0.90440(19)
H37 H 0.36520 0.27310 0.94190
H38 H 0.23270 0.28840 0.95630
C29 C 0.2248(2) 0.21674(8) 0.8870(2)
H39 H 0.26610 0.19970 0.83860
H40 H 0.25280 0.20030 0.96490
C30 C 0.0751(2) 0.21286(9) 0.8251(2)
H41 H 0.05020 0.17790 0.80950
H42 H 0.03410 0.22600 0.87840
C31 C 0.0244(2) 0.24188(9) 0.70643(19)
H43 H -0.07130 0.24130 0.67410
H44 H 0.05400 0.22530 0.64880
C32 C 0.0716(2) 0.29645(8) 0.72097(19)
H45 H 0.03400 0.31460 0.77090
H46 H 0.04360 0.31270 0.64280
N1 N 0.20578(18) 0.35442(7) 0.50774(15)
N2 N 0.4906(2) 0.21108(8) 0.5565(2)
N3 N 0.55475(17) 0.31299(7) 0.90891(16)
N4 N 0.44882(16) 0.39187(6) 0.71895(15)
N5 N 0.32219(16) 0.43269(6) 0.81420(15)
N6 N 0.19658(17) 0.38755(7) 0.89876(15)
N7 N 0.28406(16) 0.34658(6) 0.77393(14)
O1 O 0.17724(15) 0.39324(6) 0.54910(13)
O2 O 0.14296(17) 0.33936(6) 0.40469(13)
O3 O 0.4294(2) 0.20114(7) 0.44904(16)
O4 O 0.5844(2) 0.18519(9) 0.6209(2)
O5 O 0.63658(16) 0.28173(6) 0.96926(14)
O6 O 0.52934(14) 0.35128(5) 0.95494(12)
O7 O 0.48524(15) 0.47315(5) 0.77449(14)
H47 H 0.159(2) 0.3588(9) 0.9009(19)
#END
