
#######################################################################
#
#                 Cambridge Crystallographic Data Centre
#                                CCDC
#
#######################################################################
#
# If this CIF has been generated from an entry in the Cambridge
# Structural Database, then it will include bibliographic, chemical,
# crystal, experimental, refinement or atomic coordinate data resulting
# from the CCDC's data processing and validation procedures.
#
#######################################################################

data_CSD_CIF_RAKPOL
_audit_creation_date 2017-01-16
_audit_creation_method CSD-ConQuest-V1
_database_code_CSD RAKPOL
_database_code_depnum_ccdc_archive 'CCDC 1504120'
_chemical_formula_sum 'C22 H23 N1 O4'
_chemical_formula_moiety
;
C22 H23 N1 O4
;
_journal_coden_Cambridge 1490
_journal_volume 8
_journal_year 2017
_journal_page_first 13832
_journal_name_full 'Nat.Commun. '
loop_
_publ_author_name
"Wei Shu"
"A.Lorente"
"Enrique Gomez-Bengoa"
"C.Nevado"
_chemical_name_systematic
;
10a-methyl-1,2,3,4,4a,9,10,10a-octahydrophenanthren-9-yl 4-nitrobenzoate
;
_cell_volume   1830.010
_exptl_crystal_colour 'colorless'
_exptl_crystal_density_diffrn 1.326
_exptl_crystal_description 'prism'
_diffrn_ambient_temperature 160
#These two values have been output from a single CSD field.
_refine_ls_R_factor_gt 0.034
_refine_ls_wR_factor_gt 0.034
_symmetry_cell_setting monoclinic
_symmetry_space_group_name_H-M 'P 21/c'
_symmetry_Int_Tables_number 14
loop_
_symmetry_equiv_pos_site_id
_symmetry_equiv_pos_as_xyz
1 x,y,z
2 -x,1/2+y,1/2-z
3 -x,-y,-z
4 x,-1/2-y,-1/2+z
_cell_length_a 13.04096(16)
_cell_length_b 11.42545(11)
_cell_length_c 12.30399(18)
_cell_angle_alpha 90
_cell_angle_beta 93.4225(12)
_cell_angle_gamma 90
_cell_formula_units_Z 4
loop_
_atom_type_symbol
_atom_type_radius_bond
C 0.68
H 0.23
N 0.68
O 0.68
loop_
_atom_site_label
_atom_site_type_symbol
_atom_site_fract_x
_atom_site_fract_y
_atom_site_fract_z
O1 O 0.91644(6) 0.24653(6) 0.86307(6)
O2 O 0.97539(7) 0.06229(7) 0.88670(7)
O3 O 1.26226(9) 0.32687(9) 0.46799(9)
O4 O 1.36594(7) 0.20981(10) 0.55908(8)
N1 N 1.28268(8) 0.25851(9) 0.54295(9)
C1 C 0.83820(8) 0.22323(9) 0.94153(9)
H1 H 0.86760 0.16770 0.99800
C2 C 0.74561(8) 0.16572(9) 0.88265(10)
H2 H 0.76150 0.08250 0.86880
H3 H 0.73140 0.20450 0.81140
C3 C 0.64947(8) 0.17312(9) 0.94881(9)
C4 C 0.55851(9) 0.11003(10) 0.88879(10)
H4 H 0.57980 0.02920 0.87180
H5 H 0.50140 0.10470 0.93810
C5 C 0.51915(9) 0.16936(11) 0.78368(10)
H6 H 0.45880 0.12620 0.75180
H7 H 0.57330 0.16760 0.73060
C6 C 0.48912(9) 0.29581(11) 0.80521(10)
H8 H 0.43050 0.29730 0.85280
H9 H 0.46710 0.33420 0.73560
C7 C 0.57958(9) 0.36294(10) 0.85987(9)
H10 H 0.55700 0.44320 0.87710
H11 H 0.63490 0.36920 0.80850
C8 C 0.62239(8) 0.30333(9) 0.96513(9)
H12 H 0.56770 0.30670 1.01860
C9 C 0.71387(8) 0.37145(9) 1.01312(9)
C10 C 0.69750(9) 0.47221(9) 1.07411(9)
H13 H 0.62920 0.49570 1.08580
C11 C 0.77862(9) 0.53858(10) 1.11782(9)
H14 H 0.76590 0.60620 1.15980
C12 C 0.87870(9) 0.50574(10) 1.09990(9)
H15 H 0.93480 0.55150 1.12870
C13 C 0.89648(9) 0.40607(10) 1.03987(9)
H16 H 0.96510 0.38370 1.02800
C14 C 0.81507(8) 0.33799(9) 0.99645(9)
C15 C 0.66961(10) 0.11484(10) 1.06065(10)
H17 H 0.72370 0.15780 1.10260
H18 H 0.69150 0.03370 1.05070
H19 H 0.60650 0.11590 1.10000
C16 C 0.97894(8) 0.15660(9) 0.84340(9)
C17 C 1.05544(8) 0.18639(9) 0.76203(9)
C18 C 1.04713(8) 0.28606(9) 0.69724(9)
H20 H 0.99110 0.33830 0.70380
C19 C 1.12053(9) 0.30936(10) 0.62297(9)
H21 H 1.11510 0.37630 0.57720
C20 C 1.20176(8) 0.2321(1) 0.61755(9)
C21 C 1.21170(9) 0.13200(11) 0.68026(10)
H22 H 1.26830 0.08060 0.67400
C22 C 1.13702(9) 0.10883(10) 0.75227(10)
H23 H 1.14120 0.03980 0.79540
#END
