
#######################################################################
#
#                 Cambridge Crystallographic Data Centre
#                                CCDC
#
#######################################################################
#
# If this CIF has been generated from an entry in the Cambridge
# Structural Database, then it will include bibliographic, chemical,
# crystal, experimental, refinement or atomic coordinate data resulting
# from the CCDC's data processing and validation procedures.
#
#######################################################################

data_CSD_CIF_RAKWIJ01
_audit_creation_date 2001-11-02
_audit_creation_method CSD-ConQuest-V1
_database_code_CSD RAKWIJ01
_database_code_depnum_ccdc_archive 'CCDC 170328'
_chemical_formula_sum 'C25 H14 N2 O4'
_chemical_formula_moiety
;
C25 H14 N2 O4
;
_journal_coeditor_code "IUCr BS0015"
_journal_coden_Cambridge 622
_journal_volume 57
_journal_year 2001
_journal_page_first 507
_journal_name_full 'Acta Crystallogr.,Sect.B:Struct.Sci. '
loop_
_publ_author_name
"Aibing Xia"
"J.P.Selegue"
"A.Carrillo"
"B.O.Patrick"
"S.Parkin"
"C.P.Brock"
_chemical_name_systematic
;
7b-(2,4-Dinitrophenyl)fluoradene
;
_chemical_melting_point 513
_cell_volume   3851.291
_exptl_crystal_colour 'dark orange'
_exptl_crystal_density_diffrn 1.402
_exptl_special_details
;
polymorph 2

;
_exptl_crystal_description 'prism'
_exptl_crystal_preparation 'hexane'
_diffrn_ambient_temperature 295.0
#These two values have been output from a single CSD field.
_refine_ls_R_factor_gt 0.076
_refine_ls_wR_factor_gt 0.076
_symmetry_cell_setting monoclinic
_symmetry_space_group_name_H-M 'P 21/c'
_symmetry_Int_Tables_number 14
loop_
_symmetry_equiv_pos_site_id
_symmetry_equiv_pos_as_xyz
1 x,y,z
2 x,1/2-y,1/2+z
3 -x,-y,-z
4 -x,-1/2+y,-1/2-z
_cell_length_a 15.444(3)
_cell_length_b 15.513(4)
_cell_length_c 17.111(4)
_cell_angle_alpha 90
_cell_angle_beta 110.04(1)
_cell_angle_gamma 90
_cell_formula_units_Z 8
loop_
_atom_type_symbol
_atom_type_radius_bond
C 0.68
H 0.23
N 0.68
O 0.68
loop_
_atom_site_label
_atom_site_type_symbol
_atom_site_fract_x
_atom_site_fract_y
_atom_site_fract_z
O1 O 0.46216(16) 0.12152(19) 0.2754(2)
O2 O 0.43284(15) 0.22242(18) 0.18622(15)
O3 O 0.09854(14) -0.03613(15) 0.00431(14)
O4 O 0.24077(15) -0.07605(14) 0.05236(14)
N1 N 0.40938(16) 0.16454(18) 0.22171(18)
N2 N 0.17806(17) -0.02773(16) 0.05097(15)
C1 C 0.3605(2) 0.2960(2) 0.3111(2)
C2 C 0.3817(3) 0.3692(3) 0.2779(3)
C3 C 0.4698(4) 0.4053(4) 0.3161(4)
H1 H 0.49010 0.45330 0.29480
C4 C 0.5244(4) 0.3635(5) 0.3883(6)
H2 H 0.58570 0.38040 0.41120
C5 C 0.4949(3) 0.2996(4) 0.4282(4)
H3 H 0.53310 0.27870 0.47930
C6 C 0.4056(2) 0.2663(3) 0.3901(3)
C7 C 0.3348(2) 0.2256(2) 0.4171(2)
C8 C 0.3396(4) 0.1937(3) 0.4948(3)
H4 H 0.39570 0.18810 0.53790
C9 C 0.2586(5) 0.1711(3) 0.5053(3)
H5 H 0.26050 0.15010 0.55680
C10 C 0.1766(4) 0.1780(3) 0.4443(3)
H6 H 0.12330 0.16180 0.45410
C11 C 0.1708(2) 0.2088(2) 0.3674(2)
H7 H 0.11390 0.21250 0.32500
C12 C 0.24891(19) 0.23399(19) 0.35329(17)
C13 C 0.26195(18) 0.26761(18) 0.27326(17)
C14 C 0.2202(2) 0.3491(2) 0.22451(19)
C15 C 0.1296(3) 0.3708(2) 0.1838(2)
H8 H 0.08220 0.33530 0.18670
C16 C 0.1098(4) 0.4485(3) 0.1373(3)
H9 H 0.04910 0.46490 0.10940
C17 C 0.1819(5) 0.4996(3) 0.1340(3)
H10 H 0.16890 0.55000 0.10260
C18 C 0.2719(5) 0.4779(3) 0.1756(3)
H11 H 0.31880 0.51420 0.17310
C19 C 0.2936(3) 0.4031(2) 0.2209(2)
C20 C 0.24410(17) 0.19055(18) 0.21259(16)
C21 C 0.31039(16) 0.14229(18) 0.19344(16)
C22 C 0.29018(17) 0.07039(18) 0.14346(16)
H12 H 0.33680 0.03860 0.13420
C23 C 0.19970(17) 0.04676(17) 0.10768(16)
C24 C 0.13046(18) 0.09200(19) 0.12230(17)
H13 H 0.06920 0.07580 0.09710
C25 C 0.15359(17) 0.16178(19) 0.17493(17)
H14 H 0.10670 0.19130 0.18600
O5 O 0.95052(15) 0.13121(17) 0.29016(18)
O6 O 0.93789(14) 0.21413(18) 0.18638(14)
O7 O 0.60046(14) -0.04062(14) 0.00757(14)
O8 O 0.74365(15) -0.07731(14) 0.05900(14)
N3 N 0.90606(16) 0.16666(17) 0.22590(17)
N4 N 0.67941(17) -0.02955(16) 0.05483(14)
C26 C 0.8465(2) 0.3178(2) 0.2830(2)
C27 C 0.8486(2) 0.3896(2) 0.2365(2)
C28 C 0.9335(3) 0.4335(3) 0.2605(3)
H15 H 0.94320 0.47940 0.22960
C29 C 1.0014(3) 0.4056(3) 0.3315(4)
H16 H 1.05940 0.43040 0.34390
C30 C 0.9913(2) 0.3441(3) 0.3861(3)
H17 H 1.03760 0.33260 0.43650
C31 C 0.9063(2) 0.2997(2) 0.3610(2)
C32 C 0.8527(2) 0.2509(2) 0.4038(2)
C33 C 0.8762(3) 0.2222(3) 0.4835(2)
H18 H 0.93680 0.22580 0.51960
C34 C 0.8085(4) 0.1876(3) 0.5100(2)
H19 H 0.82430 0.16840 0.56460
C35 C 0.7188(3) 0.1810(3) 0.4580(2)
H20 H 0.67470 0.15730 0.47750
C36 C 0.6934(2) 0.2096(2) 0.3760(2)
H21 H 0.63290 0.20450 0.34000
C37 C 0.75959(19) 0.24513(19) 0.34982(17)
C38 C 0.75376(18) 0.27691(18) 0.26266(17)
C39 C 0.6951(2) 0.35206(19) 0.21115(19)
C40 C 0.6014(2) 0.3657(2) 0.1837(2)
H22 H 0.56300 0.32820 0.19900
C41 C 0.5647(3) 0.4360(3) 0.1329(3)
H23 H 0.50150 0.44590 0.11480
C42 C 0.6203(4) 0.4903(3) 0.1094(3)
H24 H 0.59400 0.53590 0.07390
C43 C 0.7141(3) 0.4797(2) 0.1366(3)
H25 H 0.75130 0.51810 0.12080
C44 C 0.7523(2) 0.4101(2) 0.1885(2)
C45 C 0.73797(17) 0.19592(17) 0.20702(16)
C46 C 0.80585(16) 0.14682(18) 0.19175(16)
C47 C 0.78785(18) 0.07284(18) 0.14393(17)
H26 H 0.83550 0.04130 0.13630
C48 C 0.69794(17) 0.04709(17) 0.10803(16)
C49 C 0.62720(18) 0.09246(18) 0.11988(17)
H27 H 0.56640 0.07490 0.09490
C50 C 0.64849(17) 0.16477(18) 0.16970(17)
H28 H 0.60060 0.19440 0.17890
#END
