
#######################################################################
#
#                 Cambridge Crystallographic Data Centre
#                                CCDC
#
#######################################################################
#
# If this CIF has been generated from an entry in the Cambridge
# Structural Database, then it will include bibliographic, chemical,
# crystal, experimental, refinement or atomic coordinate data resulting
# from the CCDC's data processing and validation procedures.
#
#######################################################################

data_CSD_CIF_RAKWIJ03
_audit_creation_date 2001-11-02
_audit_creation_method CSD-ConQuest-V1
_database_code_CSD RAKWIJ03
_database_code_depnum_ccdc_archive 'CCDC 170330'
_chemical_formula_sum 'C25 H14 N2 O4'
_chemical_formula_moiety
;
C25 H14 N2 O4
;
_journal_coeditor_code "IUCr BS0015"
_journal_coden_Cambridge 622
_journal_volume 57
_journal_year 2001
_journal_page_first 507
_journal_name_full 'Acta Crystallogr.,Sect.B:Struct.Sci. '
loop_
_publ_author_name
"Aibing Xia"
"J.P.Selegue"
"A.Carrillo"
"B.O.Patrick"
"S.Parkin"
"C.P.Brock"
_chemical_name_systematic
;
7b-(2,4-Dinitrophenyl)fluoradene
;
_chemical_melting_point 513
_cell_volume   3803.963
_exptl_crystal_colour 'dark orange'
_exptl_crystal_density_diffrn 1.419
_exptl_special_details
;
polymorph 2

;
_exptl_crystal_description 'prism'
_exptl_crystal_preparation 'hexane'
_diffrn_ambient_temperature 250.0
#These two values have been output from a single CSD field.
_refine_ls_R_factor_gt 0.051
_refine_ls_wR_factor_gt 0.051
_symmetry_cell_setting monoclinic
_symmetry_space_group_name_H-M 'P 21/c'
_symmetry_Int_Tables_number 14
loop_
_symmetry_equiv_pos_site_id
_symmetry_equiv_pos_as_xyz
1 x,y,z
2 x,1/2-y,1/2+z
3 -x,-y,-z
4 -x,-1/2+y,-1/2-z
_cell_length_a 15.372(2)
_cell_length_b 15.414(3)
_cell_length_c 17.004(3)
_cell_angle_alpha 90
_cell_angle_beta 109.24(1)
_cell_angle_gamma 90
_cell_formula_units_Z 8
loop_
_atom_type_symbol
_atom_type_radius_bond
C 0.68
H 0.23
N 0.68
O 0.68
loop_
_atom_site_label
_atom_site_type_symbol
_atom_site_fract_x
_atom_site_fract_y
_atom_site_fract_z
O1 O 0.46373(11) 0.11809(13) 0.26953(13)
O2 O 0.43084(10) 0.22564(11) 0.18563(10)
O3 O 0.09763(10) -0.0346(1) 0.00182(9)
O4 O 0.23986(10) -0.07661(9) 0.05007(9)
N1 N 0.40898(11) 0.16439(12) 0.21981(12)
N2 N 0.17718(12) -0.02733(11) 0.04906(10)
C1 C 0.36074(14) 0.29250(14) 0.31558(14)
C2 C 0.38590(15) 0.36746(15) 0.28469(15)
C3 C 0.47497(17) 0.39852(17) 0.32715(18)
H1 H 0.49890 0.44690 0.30760
C4 C 0.52671(17) 0.3549(2) 0.39959(19)
H2 H 0.58900 0.37030 0.42440
C5 C 0.49137(16) 0.29063(18) 0.43653(17)
H3 H 0.52620 0.26770 0.48860
C6 C 0.40257(14) 0.26050(15) 0.39467(14)
C7 C 0.32787(15) 0.22116(14) 0.41944(14)
C8 C 0.32743(18) 0.18865(16) 0.49588(15)
H4 H 0.38290 0.18110 0.54010
C9 C 0.2447(2) 0.16780(17) 0.50550(16)
H5 H 0.24400 0.14590 0.55690
C10 C 0.16319(19) 0.17811(16) 0.44202(15)
H6 H 0.10750 0.16340 0.45040
C11 C 0.16189(15) 0.21001(14) 0.36535(13)
H7 H 0.10580 0.21610 0.32160
C12 C 0.24335(13) 0.23256(13) 0.35412(12)
C13 C 0.26207(13) 0.26650(13) 0.27573(12)
C14 C 0.22417(14) 0.35027(13) 0.22725(12)
C15 C 0.13500(16) 0.37503(14) 0.18447(14)
H8 H 0.08510 0.33980 0.18450
C16 C 0.12017(19) 0.45372(16) 0.14087(15)
H9 H 0.05970 0.47190 0.11200
C17 C 0.1935(2) 0.50477(16) 0.13999(16)
H10 H 0.18220 0.55690 0.10970
C18 C 0.2828(2) 0.48099(16) 0.18249(16)
H11 H 0.33200 0.51680 0.18160
C19 C 0.29960(16) 0.40370(14) 0.22666(14)
C20 C 0.24411(12) 0.19007(13) 0.21367(12)
C21 C 0.31028(12) 0.14155(13) 0.19354(12)
C22 C 0.28984(13) 0.06944(13) 0.14266(12)
H12 H 0.33690 0.03670 0.13300
C23 C 0.19909(12) 0.04682(13) 0.10663(12)
C24 C 0.12926(13) 0.09290(13) 0.12164(12)
H13 H 0.06720 0.07740 0.09580
C25 C 0.15291(13) 0.16219(14) 0.17554(13)
H14 H 0.10560 0.19240 0.18740
O5 O 0.94678(10) 0.13377(11) 0.29044(11)
O6 O 0.93758(10) 0.21497(12) 0.18491(10)
O7 O 0.60115(10) -0.04153(10) 0.00648(9)
O8 O 0.74442(10) -0.07849(9) 0.05950(9)
N3 N 0.90371(11) 0.16849(11) 0.22507(12)
N4 N 0.67969(12) -0.03026(11) 0.05428(10)
C26 C 0.84205(13) 0.32240(14) 0.27816(13)
C27 C 0.84385(15) 0.39395(14) 0.23050(14)
C28 C 0.92764(16) 0.43912(16) 0.25210(17)
H15 H 0.93610 0.48570 0.21960
C29 C 0.99768(17) 0.41257(18) 0.32317(19)
H16 H 1.05620 0.43790 0.33440
C30 C 0.98662(15) 0.35103(17) 0.37868(17)
H17 H 1.03360 0.34030 0.42950
C31 C 0.90327(14) 0.30546(15) 0.35652(14)
C32 C 0.85055(14) 0.25614(14) 0.40066(13)
C33 C 0.87555(18) 0.22678(16) 0.48155(15)
H18 H 0.93690 0.23120 0.51700
C34 C 0.80846(19) 0.19051(17) 0.50992(15)
H19 H 0.82490 0.17060 0.56520
C35 C 0.71881(18) 0.18327(16) 0.45869(15)
H20 H 0.67460 0.15880 0.47930
C36 C 0.69234(15) 0.21183(14) 0.37632(14)
H21 H 0.63110 0.20560 0.34100
C37 C 0.75734(13) 0.24911(13) 0.34786(12)
C38 C 0.74987(13) 0.28047(13) 0.25954(12)
C39 C 0.68988(14) 0.35472(13) 0.20846(13)
C40 C 0.59582(14) 0.36788(14) 0.18259(14)
H22 H 0.55770 0.33000 0.19980
C41 C 0.55805(17) 0.43773(15) 0.13075(16)
H23 H 0.49410 0.44730 0.11340
C42 C 0.61337(19) 0.49308(16) 0.10453(16)
H24 H 0.58650 0.53890 0.06810
C43 C 0.70760(18) 0.48216(15) 0.13096(15)
H25 H 0.74490 0.52080 0.11360
C44 C 0.74668(15) 0.41384(14) 0.18327(14)
C45 C 0.73496(12) 0.19819(12) 0.20466(12)
C46 C 0.80406(12) 0.14857(13) 0.19031(12)
C47 C 0.78690(13) 0.07388(13) 0.14285(12)
H26 H 0.83550 0.04190 0.13510
C48 C 0.69731(13) 0.04753(12) 0.10723(12)
C49 C 0.62532(13) 0.09305(13) 0.11864(12)
H27 H 0.56410 0.07450 0.09380
C50 C 0.64537(12) 0.16654(13) 0.16752(12)
H28 H 0.59640 0.19700 0.17640
#END
