
#######################################################################
#
#                 Cambridge Crystallographic Data Centre
#                                CCDC
#
#######################################################################
#
# If this CIF has been generated from an entry in the Cambridge
# Structural Database, then it will include bibliographic, chemical,
# crystal, experimental, refinement or atomic coordinate data resulting
# from the CCDC's data processing and validation procedures.
#
#######################################################################

data_CSD_CIF_RAKWIJ
_audit_creation_date 2001-11-02
_audit_creation_method CSD-ConQuest-V1
_database_code_CSD RAKWIJ
_database_code_depnum_ccdc_archive 'CCDC 170327'
_chemical_formula_sum 'C25 H14 N2 O4'
_chemical_formula_moiety
;
C25 H14 N2 O4
;
_journal_coeditor_code "IUCr BS0015"
_journal_coden_Cambridge 622
_journal_volume 57
_journal_year 2001
_journal_page_first 507
_journal_name_full 'Acta Crystallogr.,Sect.B:Struct.Sci. '
loop_
_publ_author_name
"Aibing Xia"
"J.P.Selegue"
"A.Carrillo"
"B.O.Patrick"
"S.Parkin"
"C.P.Brock"
_chemical_name_systematic
;
7b-(2,4-Dinitrophenyl)fluoradene
;
_chemical_melting_point 513
_cell_volume   1938.378
_exptl_crystal_colour 'dark orange'
_exptl_crystal_density_diffrn 1.393
_exptl_special_details
;
polymorph 1

;
_exptl_crystal_description 'prism'
_exptl_crystal_preparation 'hexane'
_diffrn_ambient_temperature 293.0
#These two values have been output from a single CSD field.
_refine_ls_R_factor_gt 0.066
_refine_ls_wR_factor_gt 0.066
_symmetry_cell_setting monoclinic
_symmetry_space_group_name_H-M 'P 21/c'
_symmetry_Int_Tables_number 14
loop_
_symmetry_equiv_pos_site_id
_symmetry_equiv_pos_as_xyz
1 x,y,z
2 x,1/2-y,1/2+z
3 -x,-y,-z
4 -x,-1/2+y,-1/2-z
_cell_length_a 7.758(1)
_cell_length_b 15.550(2)
_cell_length_c 17.179(2)
_cell_angle_alpha 90
_cell_angle_beta 110.72(1)
_cell_angle_gamma 90
_cell_formula_units_Z 4
loop_
_atom_type_symbol
_atom_type_radius_bond
C 0.68
H 0.23
N 0.68
O 0.68
loop_
_atom_site_label
_atom_site_type_symbol
_atom_site_fract_x
_atom_site_fract_y
_atom_site_fract_z
O1 O 0.9147(3) 0.12650(17) 0.28536(19)
O2 O 0.8730(3) 0.21699(17) 0.18757(15)
O3 O 0.1991(3) -0.03896(13) 0.00682(13)
O4 O 0.4847(3) -0.07633(12) 0.05596(13)
N1 N 0.8170(3) 0.16511(15) 0.22530(16)
N2 N 0.3576(3) -0.02881(13) 0.05350(13)
C1 C 0.7088(5) 0.3081(2) 0.2956(3)
C2 C 0.7259(7) 0.3817(3) 0.2533(3)
C3 C 0.9022(10) 0.4214(4) 0.2860(6)
H1 H 0.93200 0.46880 0.26030
C4 C 1.0299(12) 0.3856(8) 0.3593(9)
H2 H 1.15020 0.40620 0.37680
C5 C 0.9920(7) 0.3251(5) 0.4051(5)
H3 H 1.07770 0.30960 0.45650
C6 C 0.8200(5) 0.2854(3) 0.3740(3)
C7 C 0.6987(5) 0.2393(2) 0.4107(2)
C8 C 0.7322(10) 0.2108(4) 0.4878(3)
H4 H 0.85190 0.21120 0.52630
C9 C 0.5926(13) 0.1812(4) 0.5101(3)
H5 H 0.61770 0.16250 0.56440
C10 C 0.4122(9) 0.1782(3) 0.4539(3)
H6 H 0.31880 0.15630 0.47040
C11 C 0.3716(5) 0.20824(19) 0.3724(2)
H7 H 0.25220 0.20710 0.33370
C12 C 0.5146(4) 0.23910(17) 0.35241(16)
C13 C 0.5190(3) 0.27172(16) 0.26864(16)
C14 C 0.4156(5) 0.34931(17) 0.21771(19)
C15 C 0.2288(6) 0.3663(2) 0.1834(2)
H8 H 0.14380 0.32940 0.19270
C16 C 0.1702(9) 0.4398(3) 0.1347(3)
H9 H 0.04510 0.45210 0.11090
C17 C 0.2972(15) 0.4940(4) 0.1217(4)
H10 H 0.25600 0.54350 0.09020
C18 C 0.4788(13) 0.4778(3) 0.1530(5)
H11 H 0.56180 0.51390 0.14110
C19 C 0.5407(8) 0.4062(2) 0.2035(3)
C20 C 0.4841(3) 0.19233(15) 0.21065(14)
C21 C 0.6181(3) 0.14429(15) 0.19360(15)
C22 C 0.5795(3) 0.07142(16) 0.14446(15)
H12 H 0.67330 0.04000 0.13600
C23 C 0.3991(3) 0.04663(15) 0.10857(14)
C24 C 0.2594(3) 0.09150(16) 0.12140(15)
H13 H 0.13740 0.07440 0.09610
C25 C 0.3042(3) 0.16266(16) 0.17279(16)
H14 H 0.20970 0.19220 0.18260
#END
