
#######################################################################
#
#                 Cambridge Crystallographic Data Centre
#                                CCDC
#
#######################################################################
#
# If this CIF has been generated from an entry in the Cambridge
# Structural Database, then it will include bibliographic, chemical,
# crystal, experimental, refinement or atomic coordinate data resulting
# from the CCDC's data processing and validation procedures.
#
#######################################################################

data_CSD_CIF_RAKWIJ02
_audit_creation_date 2001-11-02
_audit_creation_method CSD-ConQuest-V1
_database_code_CSD RAKWIJ02
_database_code_depnum_ccdc_archive 'CCDC 170329'
_chemical_formula_sum 'C25 H14 N2 O4'
_chemical_formula_moiety
;
C25 H14 N2 O4
;
_journal_coeditor_code "IUCr BS0015"
_journal_coden_Cambridge 622
_journal_volume 57
_journal_year 2001
_journal_page_first 507
_journal_name_full 'Acta Crystallogr.,Sect.B:Struct.Sci. '
loop_
_publ_author_name
"Aibing Xia"
"J.P.Selegue"
"A.Carrillo"
"B.O.Patrick"
"S.Parkin"
"C.P.Brock"
_chemical_name_systematic
;
7b-(2,4-Dinitrophenyl)fluoradene
;
_chemical_melting_point 513
_cell_volume   3812.453
_exptl_crystal_colour 'dark orange'
_exptl_crystal_density_diffrn 1.416
_exptl_special_details
;
polymorph 2

;
_exptl_crystal_description 'prism'
_exptl_crystal_preparation 'hexane'
_diffrn_ambient_temperature 273.0
#These two values have been output from a single CSD field.
_refine_ls_R_factor_gt 0.052
_refine_ls_wR_factor_gt 0.052
_symmetry_cell_setting monoclinic
_symmetry_space_group_name_H-M 'P 21/c'
_symmetry_Int_Tables_number 14
loop_
_symmetry_equiv_pos_site_id
_symmetry_equiv_pos_as_xyz
1 x,y,z
2 x,1/2-y,1/2+z
3 -x,-y,-z
4 -x,-1/2+y,-1/2-z
_cell_length_a 15.383(2)
_cell_length_b 15.424(3)
_cell_length_c 17.026(3)
_cell_angle_alpha 90
_cell_angle_beta 109.31(1)
_cell_angle_gamma 90
_cell_formula_units_Z 8
loop_
_atom_type_symbol
_atom_type_radius_bond
C 0.68
H 0.23
N 0.68
O 0.68
loop_
_atom_site_label
_atom_site_type_symbol
_atom_site_fract_x
_atom_site_fract_y
_atom_site_fract_z
O1 O 0.46352(11) 0.11861(13) 0.27018(13)
O2 O 0.43109(10) 0.22533(11) 0.18556(11)
O3 O 0.09766(10) -0.03463(10) 0.0022(1)
O4 O 0.23983(10) -0.07647(9) 0.05043(9)
N1 N 0.40902(11) 0.16461(12) 0.21996(12)
N2 N 0.17720(12) -0.02728(11) 0.04922(10)
C1 C 0.36055(14) 0.29256(14) 0.31514(15)
C2 C 0.38563(15) 0.36728(15) 0.28427(15)
C3 C 0.47481(17) 0.39907(18) 0.32658(19)
H1 H 0.49820 0.44710 0.30720
C4 C 0.52651(18) 0.3555(2) 0.3987(2)
H2 H 0.58810 0.37080 0.42310
C5 C 0.49177(16) 0.29097(19) 0.43616(18)
H3 H 0.52650 0.26820 0.48750
C6 C 0.40281(14) 0.26110(15) 0.39444(15)
C7 C 0.32861(15) 0.22171(14) 0.41917(14)
C8 C 0.32818(19) 0.18912(16) 0.49556(15)
H4 H 0.38310 0.18170 0.53920
C9 C 0.2456(2) 0.16807(18) 0.50539(17)
H5 H 0.24520 0.14660 0.55630
C10 C 0.16417(19) 0.17798(17) 0.44214(16)
H6 H 0.10920 0.16320 0.45040
C11 C 0.16274(15) 0.20995(14) 0.36553(14)
H7 H 0.10720 0.21600 0.32230
C12 C 0.24396(13) 0.23265(13) 0.35404(13)
C13 C 0.26202(12) 0.26664(13) 0.27544(12)
C14 C 0.22394(14) 0.35016(13) 0.22704(13)
C15 C 0.13463(16) 0.37465(15) 0.18448(14)
H8 H 0.08540 0.33980 0.18490
C16 C 0.1194(2) 0.45317(17) 0.14055(16)
H9 H 0.05950 0.47100 0.11190
C17 C 0.1928(2) 0.50422(17) 0.13958(16)
H10 H 0.18150 0.55570 0.10950
C18 C 0.2822(2) 0.48054(16) 0.18214(16)
H11 H 0.33080 0.51600 0.18130
C19 C 0.29922(16) 0.40352(14) 0.22613(14)
C20 C 0.24414(12) 0.19012(12) 0.21363(12)
C21 C 0.31028(12) 0.14172(12) 0.19351(12)
C22 C 0.28984(12) 0.06945(13) 0.14277(12)
H12 H 0.33630 0.03700 0.13330
C23 C 0.19900(12) 0.04686(12) 0.10675(12)
C24 C 0.12957(13) 0.09286(13) 0.12172(12)
H13 H 0.06820 0.07750 0.09610
C25 C 0.15302(13) 0.16220(13) 0.17564(13)
H14 H 0.10620 0.19190 0.18740
O5 O 0.94705(10) 0.13353(11) 0.29040(11)
O6 O 0.93773(10) 0.21478(12) 0.18499(10)
O7 O 0.6010(1) -0.04144(10) 0.00653(10)
O8 O 0.74436(10) -0.07840(9) 0.05966(10)
N3 N 0.90383(11) 0.16833(12) 0.22495(12)
N4 N 0.67954(12) -0.03018(11) 0.05442(10)
C26 C 0.84246(13) 0.32208(14) 0.27852(13)
C27 C 0.84432(15) 0.39338(14) 0.23085(14)
C28 C 0.92791(17) 0.43847(17) 0.25281(18)
H15 H 0.93610 0.48470 0.22090
C29 C 0.99789(17) 0.41225(18) 0.32336(19)
H16 H 1.05570 0.43730 0.33430
C30 C 0.98694(15) 0.35055(17) 0.37901(17)
H17 H 1.03340 0.34000 0.42930
C31 C 0.90367(14) 0.30498(15) 0.35669(15)
C32 C 0.85085(14) 0.25565(14) 0.40082(14)
C33 C 0.87581(18) 0.22638(16) 0.48156(15)
H18 H 0.93650 0.23070 0.51670
C34 C 0.8087(2) 0.19029(17) 0.50970(15)
H19 H 0.82500 0.17060 0.56430
C35 C 0.71890(18) 0.18316(16) 0.45855(15)
H20 H 0.67520 0.15910 0.47900
C36 C 0.69252(15) 0.21160(14) 0.37624(14)
H21 H 0.63200 0.20560 0.34120
C37 C 0.75788(13) 0.24863(13) 0.34797(12)
C38 C 0.75026(13) 0.28012(12) 0.25995(12)
C39 C 0.69038(14) 0.35447(13) 0.20863(13)
C40 C 0.59651(14) 0.36754(14) 0.18276(14)
H22 H 0.55880 0.33010 0.19980
C41 C 0.55869(17) 0.43740(15) 0.13081(16)
H23 H 0.49540 0.44670 0.11350
C42 C 0.61378(19) 0.49257(16) 0.10497(17)
H24 H 0.58710 0.53790 0.06900
C43 C 0.70826(18) 0.48189(15) 0.13149(16)
H25 H 0.74520 0.52020 0.11450
C44 C 0.74716(15) 0.41333(14) 0.18374(14)
C45 C 0.73524(12) 0.19797(12) 0.20489(12)
C46 C 0.80389(12) 0.14828(13) 0.19016(12)
C47 C 0.78696(13) 0.07387(13) 0.14284(12)
H26 H 0.83510 0.04230 0.13520
C48 C 0.69730(12) 0.04741(12) 0.10721(12)
C49 C 0.62567(13) 0.09293(13) 0.11882(12)
H27 H 0.56510 0.07460 0.09420
C50 C 0.64569(12) 0.16652(13) 0.16781(12)
H28 H 0.59730 0.19660 0.17660
#END
