
#######################################################################
#
#                 Cambridge Crystallographic Data Centre
#                                CCDC
#
#######################################################################
#
# If this CIF has been generated from an entry in the Cambridge
# Structural Database, then it will include bibliographic, chemical,
# crystal, experimental, refinement or atomic coordinate data resulting
# from the CCDC's data processing and validation procedures.
#
#######################################################################

data_CSD_CIF_RAKXAE
_audit_creation_date 2012-02-14
_audit_creation_method CSD-ConQuest-V1
_database_code_CSD RAKXAE
_database_code_depnum_ccdc_archive 'CCDC 838046'
_chemical_formula_sum 'C20 H17 N3 O5'
_chemical_formula_moiety
;
C20 H17 N3 O5
;
_journal_coden_Cambridge 177
_journal_volume 9
_journal_year 2011
_journal_page_first 8422
_journal_name_full 'Org.Biomol.Chem. '
loop_
_publ_author_name
"K.Brahma"
"A.K.Sasmal"
"C.Chowdhury"
_chemical_name_systematic
;
Ethyl 
3-(2-methyl-4-nitrophenyl)-4H-pyrazolo[5,1-c][1,4]benzoxazine-2-carboxylate
;
_cell_volume    907.851
_exptl_crystal_colour 'colorless'
_exptl_crystal_density_diffrn 1.388
_exptl_crystal_description 'rectangular'
_diffrn_ambient_temperature 296
#These two values have been output from a single CSD field.
_refine_ls_R_factor_gt 0.0477
_refine_ls_wR_factor_gt 0.0477
_symmetry_cell_setting triclinic
_symmetry_space_group_name_H-M 'P -1'
_symmetry_Int_Tables_number 2
loop_
_symmetry_equiv_pos_site_id
_symmetry_equiv_pos_as_xyz
1 x,y,z
2 -x,-y,-z
_cell_length_a 9.3525(4)
_cell_length_b 10.0265(5)
_cell_length_c 10.8420(5)
_cell_angle_alpha 113.426(2)
_cell_angle_beta 96.914(2)
_cell_angle_gamma 97.590(2)
_cell_formula_units_Z 2
loop_
_atom_type_symbol
_atom_type_radius_bond
C 0.68
H 0.23
N 0.68
O 0.68
loop_
_atom_site_label
_atom_site_type_symbol
_atom_site_fract_x
_atom_site_fract_y
_atom_site_fract_z
C1 C 0.93789(19) 0.29022(19) 0.30312(18)
C2 C 0.78203(19) 0.21348(19) 0.25314(17)
C3 C 0.7402(2) 0.0591(2) 0.20249(18)
C4 C 1.01916(19) 0.3625(2) 0.24325(18)
C5 C 0.5918(2) -0.0030(2) 0.16466(19)
H1 H 0.56110 -0.10510 0.13220
C6 C 0.6761(2) 0.2989(2) 0.2566(2)
H2 H 0.70510 0.40080 0.28600
C7 C 1.03567(19) 0.3142(2) 0.42403(18)
C8 C 0.4897(2) 0.0855(2) 0.17495(18)
C9 C 1.2699(2) 0.4959(2) 0.2909(2)
C10 C 1.0120(2) 0.2686(2) 0.5355(2)
C11 C 0.5290(2) 0.2358(2) 0.2172(2)
H3 H 0.45830 0.29330 0.21910
C12 C 1.4008(2) 0.5703(2) 0.3818(2)
H4 H 1.41240 0.57890 0.47130
N1 N 0.3330(2) 0.0171(3) 0.13823(19)
C13 C 1.2486(2) 0.4846(2) 0.1581(2)
C14 C 0.9913(2) 0.3924(3) 0.1192(2)
H5 H 0.91640 0.31280 0.05000
H6 H 0.95480 0.48390 0.14280
C15 C 0.8514(3) -0.0386(2) 0.1874(3)
H7 H 0.88230 -0.04260 0.27340
H8 H 0.93470 0.00090 0.15990
H9 H 0.80820 -0.13670 0.11930
C16 C 1.5139(2) 0.6313(2) 0.3383(3)
H10 H 1.60360 0.67940 0.39750
C17 C 1.4936(3) 0.6208(3) 0.2066(3)
H11 H 1.57000 0.66290 0.17780
C18 C 1.3621(3) 0.5489(3) 0.1164(3)
H12 H 1.34990 0.54380 0.02810
C19 C 0.8373(3) 0.1366(3) 0.6084(3)
H13 H 0.91410 0.08920 0.63070
H14 H 0.82530 0.21530 0.69240
C20 C 0.7018(4) 0.0301(4) 0.5453(3)
H15 H 0.63020 0.07420 0.51200
H16 H 0.66650 -0.00040 0.61150
H17 H 0.71830 -0.05460 0.47040
O1 O 0.87656(15) 0.19677(17) 0.51339(15)
O2 O 1.12197(17) 0.40441(19) 0.06444(15)
O3 O 1.10296(18) 0.2949(2) 0.63343(18)
O4 O 0.2998(2) -0.1170(2) 0.0996(2)
O5 O 0.2431(2) 0.0963(3) 0.1479(2)
N2 N 1.15329(16) 0.42165(17) 0.32542(15)
N3 N 1.16705(16) 0.39328(17) 0.43645(16)
#END
