
#######################################################################
#
#                 Cambridge Crystallographic Data Centre
#                                CCDC
#
#######################################################################
#
# If this CIF has been generated from an entry in the Cambridge
# Structural Database, then it will include bibliographic, chemical,
# crystal, experimental, refinement or atomic coordinate data resulting
# from the CCDC's data processing and validation procedures.
#
#######################################################################

data_CSD_CIF_RALGUH
_audit_creation_date 2005-08-18
_audit_creation_method CSD-ConQuest-V1
_database_code_CSD RALGUH
_database_code_depnum_ccdc_archive 'CCDC 265734'
_chemical_formula_sum 'C16 H14 N6 O14'
_chemical_formula_moiety
;
C16 H14 N6 O14
;
_journal_coden_Cambridge 1078
_journal_year 2005
_journal_name_full 'CSD Communication(Private Communication) '
loop_
_publ_author_name
"J.C.Barnes"
"J.A.Chudek"
"T.J.R.Weakley"
_chemical_name_systematic
;
N,N'-bis(2,6-Dimethoxy-3,5-dinitro-1-nitrosobenzene)
;
_chemical_melting_point 466.15
_cell_volume   1047.494
_exptl_crystal_colour 'yellow'
_exptl_crystal_density_diffrn 1.631
_exptl_special_details
;
Melting point range 466.15-468.15K
contribution from Faculty of Life Sciences, University of Dundee, Perth Road, 
Dundee, DD1 4HN, Scotland
;
_exptl_crystal_description 'block'
_diffrn_ambient_temperature 298
_refine_special_details
;
The structure is disordered.

;
#These two values have been output from a single CSD field.
_refine_ls_R_factor_gt 0.0671
_refine_ls_wR_factor_gt 0.0671
_symmetry_cell_setting monoclinic
_symmetry_space_group_name_H-M 'P 21/c'
_symmetry_Int_Tables_number 14
loop_
_symmetry_equiv_pos_site_id
_symmetry_equiv_pos_as_xyz
1 x,y,z
2 -x,1/2+y,1/2-z
3 -x,-y,-z
4 x,-1/2-y,-1/2+z
_cell_length_a 8.1973(7)
_cell_length_b 13.0373(10)
_cell_length_c 10.1983(12)
_cell_angle_alpha 90
_cell_angle_beta 106.035(9)
_cell_angle_gamma 90
_cell_formula_units_Z 2
loop_
_atom_type_symbol
_atom_type_radius_bond
C 0.68
H 0.23
N 0.68
O 0.68
loop_
_atom_site_label
_atom_site_type_symbol
_atom_site_fract_x
_atom_site_fract_y
_atom_site_fract_z
C1 C 0.2948(4) 0.9361(3) -0.0717(4)
C2 C 0.1756(5) 0.9936(3) -0.1678(4)
C3 C 0.0054(4) 0.9642(3) -0.1873(4)
C4 C -0.0385(5) 0.8844(3) -0.1173(4)
H1 H -0.15220 0.86690 -0.13290
C5 C 0.0837(5) 0.8295(3) -0.0238(4)
C6 C 0.2558(4) 0.8555(3) 0.0019(4)
N1 N 0.4719(4) 0.9632(2) -0.0455(3)
O1 O 0.5679(3) 0.9178(2) -0.1034(3)
O2 O 0.2231(5) 1.0737(3) -0.2297(4)
C7 C 0.3035(8) 1.0584(5) -0.3340(6)
H2 H 0.38200 1.00240 -0.30980
H3 H 0.36350 1.11960 -0.34510
H4 H 0.21960 1.04290 -0.41790
N2 N -0.13760 1.02500 -0.28530
O3 O -0.26010 0.96920 -0.34150
O4 O -0.12490 1.11180 -0.28960
N3 N 0.0277(5) 0.7477(3) 0.0514(4)
O5 O 0.1264(6) 0.6836(4) 0.1072(6)
O6 O -0.1190(4) 0.7459(3) 0.0512(5)
O7 O 0.3810(3) 0.8127(2) 0.1013(3)
C8 C 0.4665(6) 0.7240(4) 0.0660(7)
H5 H 0.38370 0.67410 0.02090
H6 H 0.53950 0.69450 0.14750
H7 H 0.53290 0.74440 0.00630
O8? O -0.26040 0.99660 -0.30940
O9? O -0.07750 1.07660 -0.37370
C1B C 0.7052(4) 1.0639(3) 0.0717(4)
C2B C 0.8244(5) 1.0064(3) 0.1678(4)
C3B C 0.9946(4) 1.0358(3) 0.1873(4)
C4B C 1.0385(5) 1.1156(3) 0.1173(4)
H1B H 1.15220 1.13310 0.13290
C5B C 0.9163(5) 1.1705(3) 0.0238(4)
C6B C 0.7442(4) 1.1445(3) -0.0019(4)
N1B N 0.5281(4) 1.0368(2) 0.0455(3)
O1B O 0.4321(3) 1.0822(2) 0.1034(3)
O2B O 0.7769(5) 0.9263(3) 0.2297(4)
C7B C 0.6965(8) 0.9416(5) 0.3340(6)
H2B H 0.61800 0.99760 0.30980
H3B H 0.63650 0.88040 0.34510
H4B H 0.78040 0.95710 0.41790
N2B N 1.13760 0.97500 0.28530
O3B O 1.26010 1.03080 0.34150
O4B O 1.12490 0.88820 0.28960
N3B N 0.9723(5) 1.2523(3) -0.0514(4)
O5B O 0.8736(6) 1.3164(4) -0.1072(6)
O6B O 1.1190(4) 1.2541(3) -0.0512(5)
O7B O 0.6190(3) 1.1873(2) -0.1013(3)
C8B C 0.5335(6) 1.2760(4) -0.0660(7)
H5B H 0.61630 1.32590 -0.02090
H6B H 0.46050 1.30550 -0.14750
H7B H 0.46710 1.25560 -0.00630
#END
