
#######################################################################
#
#                 Cambridge Crystallographic Data Centre
#                                CCDC
#
#######################################################################
#
# If this CIF has been generated from an entry in the Cambridge
# Structural Database, then it will include bibliographic, chemical,
# crystal, experimental, refinement or atomic coordinate data resulting
# from the CCDC's data processing and validation procedures.
#
#######################################################################

data_CSD_CIF_RALPAW
_audit_creation_date 2005-08-18
_audit_creation_method CSD-ConQuest-V1
_database_code_CSD RALPAW
_database_code_depnum_ccdc_archive 'CCDC 270554'
_chemical_formula_sum 'C20 H20 N4 O4'
_chemical_formula_moiety
;
C20 H20 N4 O4
;
_journal_coeditor_code "IUCr SU6179"
_journal_coden_Cambridge 1370
_journal_volume 61
_journal_year 2005
_journal_page_first o962
_journal_name_full 'Acta Crystallogr.,Sect.E:Struct.Rep.Online '
loop_
_publ_author_name
"Zhao-Di Liu"
"Min-Yu Tan"
"Hai-Liang Zhu"
_chemical_name_systematic
;
N,N'-bis(3-Nitrobenzylidene)-trans-1,2-cyclohexanediamine
;
_cell_volume   3908.416
_exptl_crystal_colour 'white'
_exptl_crystal_density_diffrn 1.293
_exptl_crystal_description 'block'
_exptl_crystal_preparation 'ethanol'
_diffrn_ambient_temperature 298
#These two values have been output from a single CSD field.
_refine_ls_R_factor_gt 0.093
_refine_ls_wR_factor_gt 0.093
_symmetry_cell_setting monoclinic
_symmetry_space_group_name_H-M 'C 2/c'
_symmetry_Int_Tables_number 15
loop_
_symmetry_equiv_pos_site_id
_symmetry_equiv_pos_as_xyz
1 x,y,z
2 1/2+x,1/2+y,z
3 -x,y,1/2-z
4 1/2-x,1/2+y,1/2-z
5 -x,-y,-z
6 -1/2-x,-1/2-y,-z
7 x,-y,-1/2+z
8 -1/2+x,-1/2-y,-1/2+z
_cell_length_a 19.288(4)
_cell_length_b 15.840(3)
_cell_length_c 15.485(3)
_cell_angle_alpha 90
_cell_angle_beta 124.297(3)
_cell_angle_gamma 90
_cell_formula_units_Z 8
loop_
_atom_type_symbol
_atom_type_radius_bond
C 0.68
H 0.23
N 0.68
O 0.68
loop_
_atom_site_label
_atom_site_type_symbol
_atom_site_fract_x
_atom_site_fract_y
_atom_site_fract_z
C1 C 0.1282(2) 0.3010(2) 0.7769(2)
C2 C 0.0451(2) 0.3051(2) 0.6925(2)
H1 H 0.01040 0.25810 0.67230
C3 C 0.0154(2) 0.3796(2) 0.6395(3)
C4 C 0.0643(3) 0.4501(3) 0.6659(3)
H2 H 0.04250 0.49950 0.62730
C5 C 0.1464(3) 0.4465(3) 0.7508(4)
H3 H 0.18040 0.49410 0.77100
C6 C 0.1778(2) 0.3725(3) 0.8054(3)
H4 H 0.23340 0.37040 0.86250
C7 C 0.1641(2) 0.2216(2) 0.8358(2)
H5 H 0.21880 0.22250 0.89520
C8 C 0.1687(2) 0.0786(2) 0.8732(3)
H6 H 0.2233(14) 0.0974(19) 0.9335(19)
C9 C 0.1186(2) 0.0388(2) 0.9103(3)
H7 H 0.0620(14) 0.026(2) 0.8480(19)
C10 C 0.1594(3) -0.0431(3) 0.9693(3)
H8 H 0.12420 -0.06920 0.98830
H9 H 0.21330 -0.03060 1.03320
C11 C 0.1717(3) -0.1047(3) 0.9031(4)
H10 H 0.20060 -0.15460 0.94400
H11 H 0.11730 -0.12200 0.84300
C12 C 0.2216(3) -0.0649(3) 0.8665(4)
H12 H 0.22540 -0.10390 0.82110
H13 H 0.27810 -0.05340 0.92630
C13 C 0.1812(3) 0.0168(2) 0.8080(3)
H14 H 0.12730 0.00430 0.74400
H15 H 0.21650 0.04270 0.78900
C14 C 0.0427(3) 0.1172(2) 0.9591(3)
H16 H -0.00430 0.09330 0.90030
C15 C 0.0296(2) 0.1763(2) 1.0213(3)
C16 C 0.0971(2) 0.2084(2) 1.1145(3)
H17 H 0.15130 0.18970 1.14150
C17 C 0.0824(3) 0.2680(3) 1.1662(3)
C18 C 0.0035(3) 0.2976(3) 1.1298(4)
H18 H -0.00440 0.33840 1.16670
C19 C -0.0630(3) 0.2656(3) 1.0381(4)
H19 H -0.11710 0.28460 1.01200
C20 C -0.0504(3) 0.2052(3) 0.9842(3)
H20 H -0.09610 0.18350 0.92220
N1 N -0.0727(2) 0.3833(3) 0.5472(3)
N2 N 0.12501(17) 0.15320(19) 0.8101(2)
N3 N 0.1136(2) 0.09676(18) 0.9804(2)
N4 N 0.1545(3) 0.3023(3) 1.2646(3)
O1 O -0.0955(2) 0.4457(3) 0.4945(3)
O2 O -0.11755(18) 0.3236(2) 0.5294(2)
O3 O 0.2249(2) 0.2839(2) 1.2909(3)
O4 O 0.1402(2) 0.3495(2) 1.3158(3)
#END
