
#######################################################################
#
#                 Cambridge Crystallographic Data Centre
#                                CCDC
#
#######################################################################
#
# If this CIF has been generated from an entry in the Cambridge
# Structural Database, then it will include bibliographic, chemical,
# crystal, experimental, refinement or atomic coordinate data resulting
# from the CCDC's data processing and validation procedures.
#
#######################################################################

data_CSD_CIF_RALPAW01
_audit_creation_date 2018-03-01
_audit_creation_method CSD-ConQuest-V1
_database_code_CSD RALPAW01
_database_code_depnum_ccdc_archive 'CCDC 1494923'
_chemical_formula_sum 'C20 H20 N4 O4'
_chemical_formula_moiety
;
C20 H20 N4 O4
;
_journal_coden_Cambridge 1740
_journal_volume 6
_journal_year 2017
_journal_page_first 243
_journal_name_full 'Chem.Sci.Trans. '
loop_
_publ_author_name
"K.C.GUILLAUME"
"K.N.JEAN-BAPTISTE"
"K.A.L.CLAUDE"
"B.A.KOUAME"
"K.R.J.FRANCOIS"
"ZIAO NAHOSSE"
"R.PASCAL"
_chemical_name_systematic
;
N,N'-cyclohexane-1,2-diylbis(1-(3-nitrophenyl)methanimine)
;
_chemical_name_common
;
(1RS,2RS)-N,N'-bis(3-nitrophenylmethylene)cyclohexane-1,2-diamine
;
_chemical_melting_point 349
_cell_volume   3915.004
_exptl_crystal_colour 'colorless'
_exptl_crystal_density_diffrn 1.291
_exptl_crystal_description 'parallelepiped'
_exptl_crystal_preparation 'Vapour deposition'
_diffrn_ambient_temperature 293
#These two values have been output from a single CSD field.
_refine_ls_R_factor_gt 0.0653
_refine_ls_wR_factor_gt 0.0653
_symmetry_cell_setting monoclinic
_symmetry_space_group_name_H-M 'I 2/a'
_symmetry_Int_Tables_number 15
loop_
_symmetry_equiv_pos_site_id
_symmetry_equiv_pos_as_xyz
1 x,y,z
2 1/2-x,y,-z
3 1/2+x,1/2+y,1/2+z
4 -x,1/2+y,1/2-z
5 -x,-y,-z
6 -1/2+x,-y,z
7 -1/2-x,-1/2-y,-1/2-z
8 x,-1/2-y,-1/2+z
_cell_length_a 15.498(5)
_cell_length_b 15.844(5)
_cell_length_c 16.598(5)
_cell_angle_alpha 90
_cell_angle_beta 106.14(3)
_cell_angle_gamma 90
_cell_formula_units_Z 8
loop_
_atom_type_symbol
_atom_type_radius_bond
C 0.68
H 0.23
N 0.68
O 0.68
loop_
_atom_site_label
_atom_site_type_symbol
_atom_site_fract_x
_atom_site_fract_y
_atom_site_fract_z
O1 O 0.1468(2) 0.8228(2) 0.61828(17)
N1 N 0.1854(2) 0.6529(2) 0.37531(16)
N2 N 0.3665(2) 0.5964(2) 0.38594(18)
N3 N 0.1195(2) 0.8833(3) 0.5732(2)
O2 O 0.5668(3) 0.7847(2) 0.2755(2)
N4 N 0.6110(3) 0.8034(3) 0.3467(3)
O3 O 0.6761(3) 0.8501(2) 0.3595(2)
C1 C 0.1489(2) 0.8000(2) 0.3722(2)
C2 C 0.1469(2) 0.8053(2) 0.45509(19)
H1 H 0.16080 0.75830 0.48990
C3 C 0.1718(2) 0.7214(2) 0.3353(2)
H2 H 0.17630 0.72240 0.28060
C4 C 0.5178(3) 0.7088(2) 0.4028(2)
H3 H 0.49050 0.69030 0.34840
C5 C 0.1245(2) 0.8794(3) 0.4851(2)
C6 C 0.2037(3) 0.5788(2) 0.3311(2)
H4 H 0.20950 0.59610 0.27620
C7 C 0.4915(3) 0.6757(3) 0.4706(2)
C8 C 0.2916(3) 0.5378(3) 0.3812(2)
H5 H 0.28810 0.52550 0.43810
C9 C 0.5841(3) 0.7683(3) 0.4173(3)
C10 C 0.1272(2) 0.8728(3) 0.3224(2)
H6 H 0.12850 0.87080 0.26680
C11 C 0.4162(3) 0.6173(2) 0.4579(2)
H7 H 0.40370 0.59410 0.50490
O4 O 0.0903(3) 0.9461(2) 0.5966(2)
C12 C 0.1013(3) 0.9507(2) 0.4357(3)
H8 H 0.08440 1.00010 0.45750
C13 C 0.6260(3) 0.7974(3) 0.4974(3)
H9 H 0.67050 0.83850 0.50590
C14 C 0.5334(3) 0.7041(3) 0.5510(3)
H10 H 0.51610 0.68260 0.59630
C15 C 0.3083(3) 0.4560(3) 0.3397(3)
H11 H 0.36280 0.43000 0.37400
H12 H 0.31730 0.46890 0.28550
C16 C 0.1040(3) 0.9467(3) 0.3540(3)
H13 H 0.09000 0.99420 0.31990
C17 C 0.1269(3) 0.5162(3) 0.3186(2)
H14 H 0.11720 0.50340 0.37260
H15 H 0.07250 0.54180 0.28370
C18 C 0.1447(4) 0.4351(3) 0.2782(3)
H16 H 0.14840 0.44700 0.22190
H17 H 0.09510 0.39650 0.27380
C19 C 0.6005(3) 0.7641(3) 0.5644(3)
H18 H 0.62870 0.78220 0.61860
C20 C 0.2309(4) 0.3937(3) 0.3278(3)
H19 H 0.24280 0.34410 0.29830
H20 H 0.22530 0.37590 0.38210
#END
