
#######################################################################
#
#                 Cambridge Crystallographic Data Centre
#                                CCDC
#
#######################################################################
#
# If this CIF has been generated from an entry in the Cambridge
# Structural Database, then it will include bibliographic, chemical,
# crystal, experimental, refinement or atomic coordinate data resulting
# from the CCDC's data processing and validation procedures.
#
#######################################################################

data_CSD_CIF_RAMKIZ
_audit_creation_date 2001-11-02
_audit_creation_method CSD-ConQuest-V1
_database_code_CSD RAMKIZ
_database_code_depnum_ccdc_archive 'CCDC 166867'
_chemical_formula_sum 'C23 H30 N4 O7'
_chemical_formula_moiety
;
C23 H30 N4 O7
;
_journal_coden_Cambridge 24
_journal_volume 42
_journal_year 2001
_journal_page_first 4725
_journal_name_full 'Tetrahedron Lett. '
loop_
_publ_author_name
"T.Gunnlaugsson"
"M.Nieuwenhuyzen"
"L.Richard"
"V.Thoss"
_chemical_name_systematic
;
N-(2-methoxy-4-((4-nitrophenyl)azo)phenyl)-1,4,7,10-tetraoxa-13-azacyclopentad
ecane
;
_cell_volume   2354.803
_exptl_crystal_colour 'red'
_exptl_crystal_density_diffrn 1.338
_exptl_special_details
;
P21/c polymorph

;
_exptl_crystal_description 'block'
_exptl_crystal_preparation 'ethanol'
_diffrn_ambient_temperature 153
_refine_special_details
;
The crown moiety from C28-C30 is disordered over two sites with occupancies 
0.768:0.232.
;
#These two values have been output from a single CSD field.
_refine_ls_R_factor_gt 0.0694
_refine_ls_wR_factor_gt 0.0694
_symmetry_cell_setting monoclinic
_symmetry_space_group_name_H-M 'P 21/c'
_symmetry_Int_Tables_number 14
loop_
_symmetry_equiv_pos_site_id
_symmetry_equiv_pos_as_xyz
1 x,y,z
2 x,1/2-y,1/2+z
3 -x,-y,-z
4 -x,-1/2+y,-1/2-z
_cell_length_a 14.161(5)
_cell_length_b 7.521(3)
_cell_length_c 22.967(9)
_cell_angle_alpha 90
_cell_angle_beta 105.703(8)
_cell_angle_gamma 90
_cell_formula_units_Z 4
loop_
_atom_type_symbol
_atom_type_radius_bond
C 0.68
H 0.23
N 0.68
O 0.68
loop_
_atom_site_label
_atom_site_type_symbol
_atom_site_fract_x
_atom_site_fract_y
_atom_site_fract_z
O1 O -0.0871(4) 1.6132(6) -0.1069(2)
O2 O -0.1546(3) 1.4225(6) -0.1738(2)
N1 N -0.0952(4) 1.4640(7) -0.1269(2)
C1 C -0.0283(4) 1.3282(7) -0.0931(2)
C2 C 0.0505(4) 1.3741(9) -0.0480(3)
H1 H 0.06390 1.49460 -0.03620
C3 C 0.1133(4) 1.2319(13) -0.0184(3)
H2 H 0.16910 1.25420 0.01450
C4 C 0.0885(6) 1.0561(9) -0.0405(4)
C5 C 0.0108(5) 1.0243(10) -0.0846(4)
H3 H -0.00350 0.90570 -0.09830
C6 C -0.0486(4) 1.1545(8) -0.1107(3)
H4 H -0.10600 1.12750 -0.14210
N2 N 0.1596(5) 0.8966(6) -0.0147(3)
N3 N 0.2021(4) 0.9411(9) 0.0318(2)
C7 C 0.2680(4) 0.7771(7) 0.0529(3)
C8 C 0.3103(4) 0.7831(7) 0.1136(3)
H5 H 0.29700 0.87990 0.13670
C9 C 0.3720(4) 0.6494(7) 0.1412(2)
H6 H 0.39950 0.65300 0.18380
C10 C 0.3956(3) 0.5069(6) 0.1080(2)
C11 C 0.3563(3) 0.5105(6) 0.0452(2)
C12 C 0.2908(4) 0.6418(7) 0.0177(2)
H7 H 0.26180 0.63940 -0.02480
O3 O 0.3908(2) 0.3838(4) 0.01345(14)
C13 C 0.3752(4) 0.4122(8) -0.0497(2)
H8 H 0.41640 0.33020 -0.06530
H9 H 0.39250 0.53500 -0.05680
H10 H 0.30610 0.39090 -0.07060
N4 N 0.4601(3) 0.3750(5) 0.13638(16)
C14 C 0.4410(4) 0.1874(6) 0.1186(2)
H11 H 0.37740 0.17930 0.08730
H12 H 0.43530 0.11840 0.15420
C15 C 0.5190(4) 0.1048(7) 0.0943(2)
H13 H 0.50300 -0.02160 0.08420
H14 H 0.52240 0.16710 0.05690
O4 O 0.6109(2) 0.1177(4) 0.13873(15)
C16 C 0.6903(4) 0.0537(7) 0.1185(3)
H15 H 0.68510 0.09920 0.07730
H16 H 0.68820 -0.07780 0.11670
C17 C 0.7837(4) 0.1125(8) 0.1602(3)
H17 H 0.78360 0.08660 0.20250
H18 H 0.83900 0.04730 0.15150
O5 O 0.7955(3) 0.2989(5) 0.15301(16)
C18 C 0.8833(4) 0.3650(11) 0.1916(3)
H19 H 0.94030 0.31740 0.17950
H20 H 0.88920 0.32820 0.23380
C19 C 0.8811(5) 0.5671(10) 0.1869(3)
H21 H 0.94140 0.61370 0.21550
H22 H 0.88390 0.59950 0.14560
O6 O 0.7979(3) 0.6577(6) 0.1986(2)
C20 C 0.8043(5) 0.6717(11) 0.2572(3)
H23? H 0.85310 0.76510 0.27450
H24? H 0.83000 0.55810 0.27700
C21? C 0.8811(5) 0.5671(10) 0.1869(3)
H25? H 0.83060 0.61670 0.15200
H26? H 0.94570 0.62520 0.19280
O7? O 0.8454(12) 0.535(2) 0.2494(7)
C22? C 0.8043(5) 0.6717(11) 0.2572(3)
H27? H 0.79830 0.73890 0.21930
H28? H 0.85500 0.73540 0.28840
C23 C 0.7138(4) 0.7137(8) 0.2727(3)
H29 H 0.73000 0.74720 0.31590
H30 H 0.68310 0.81830 0.24880
O8 O 0.6444(3) 0.5732(5) 0.26233(14)
C24 C 0.5981(3) 0.5386(7) 0.2007(2)
H31 H 0.64650 0.49240 0.18040
H32 H 0.56930 0.64930 0.18000
C25 C 0.5189(3) 0.4028(6) 0.1980(2)
H33 H 0.54920 0.28880 0.21500
H34 H 0.47610 0.44360 0.22310
#END
