
#######################################################################
#
#                 Cambridge Crystallographic Data Centre
#                                CCDC
#
#######################################################################
#
# If this CIF has been generated from an entry in the Cambridge
# Structural Database, then it will include bibliographic, chemical,
# crystal, experimental, refinement or atomic coordinate data resulting
# from the CCDC's data processing and validation procedures.
#
#######################################################################

data_CSD_CIF_RAMRUS
_audit_creation_date 2001-11-02
_audit_creation_method CSD-ConQuest-V1
_database_code_CSD RAMRUS
_database_code_depnum_ccdc_archive 'CCDC 163070'
_chemical_formula_sum 'C12 H12 N2 O5'
_chemical_formula_moiety
;
C12 H12 N2 O5
;
_journal_coden_Cambridge 109
_journal_volume 74
_journal_year 2001
_journal_page_first 667
_journal_name_full 'Croat.Chem.Acta '
loop_
_publ_author_name
"M.Oresic"
"D.Filic"
"B.Prugovecki"
"M.Vinkovic"
"M.Dumic"
_chemical_name_systematic
;
1-(4-Nitrobenzoyl)-1a,2,6,6a-tetrahydro-1H,4H-(1,3)-dioxepino(5,6-b)aziridine
;
_chemical_melting_point 451
_cell_volume   1216.499
_exptl_crystal_density_diffrn 1.443
_exptl_special_details
;
Melting point range 451-453K

;
_exptl_crystal_preparation 'dichloromethane/methanol'
_diffrn_ambient_temperature 293
#These two values have been output from a single CSD field.
_refine_ls_R_factor_gt 0.083
_refine_ls_wR_factor_gt 0.083
_symmetry_cell_setting monoclinic
_symmetry_space_group_name_H-M 'P 21/n'
_symmetry_Int_Tables_number 14
loop_
_symmetry_equiv_pos_site_id
_symmetry_equiv_pos_as_xyz
1 x,y,z
2 1/2+x,1/2-y,1/2+z
3 -x,-y,-z
4 -1/2-x,-1/2+y,-1/2-z
_cell_length_a 4.521(7)
_cell_length_b 22.89(3)
_cell_length_c 11.84(1)
_cell_angle_alpha 90
_cell_angle_beta 96.86(15)
_cell_angle_gamma 90
_cell_formula_units_Z 4
loop_
_atom_type_symbol
_atom_type_radius_bond
C 0.68
H 0.23
N 0.68
O 0.68
loop_
_atom_site_label
_atom_site_type_symbol
_atom_site_fract_x
_atom_site_fract_y
_atom_site_fract_z
O1 O 1.2325(13) 0.2599(2) 0.3236(5)
O2 O 0.9773(13) 0.3784(2) 0.6786(4)
O3 O 0.9034(14) 0.4288(2) 0.5073(5)
O4 O 1.2455(15) -0.0024(3) 0.6160(5)
O5 O 0.9715(18) 0.0360(3) 0.7291(5)
N1 N 1.1184(13) 0.3077(3) 0.4830(6)
N2 N 1.1051(18) 0.0389(3) 0.6490(6)
C1 C 1.1897(19) 0.2579(4) 0.4225(8)
C2 C 1.1591(17) 0.2015(4) 0.4859(6)
C3 C 1.2869(17) 0.1531(4) 0.4407(6)
H1 H 1.38070 0.15630 0.37520
C4 C 1.2720(19) 0.0998(3) 0.4952(7)
H2 H 1.35300 0.06660 0.46570
C5 C 1.1403(18) 0.0962(3) 0.5906(7)
C6 C 1.0113(18) 0.1447(4) 0.6380(6)
H3 H 0.91110 0.14140 0.70180
C7 C 1.0415(18) 0.1981(3) 0.5841(6)
H4 H 0.97860 0.23210 0.61700
C8 C 1.2523(18) 0.3469(3) 0.6870(6)
H5 H 1.23190 0.31200 0.73200
H6 H 1.40620 0.37090 0.72810
C9 C 1.3556(19) 0.3289(3) 0.5760(7)
H7 H 1.53570 0.30470 0.58490
C10 C 0.972(2) 0.4330(3) 0.6231(8)
H8 H 0.82590 0.45790 0.65310
H9 H 1.16520 0.45150 0.63990
C11 C 1.138(2) 0.4180(3) 0.4471(6)
H10 H 1.28000 0.44950 0.46270
H11 H 1.06350 0.42010 0.36690
C12 C 1.3080(17) 0.3601(3) 0.4673(6)
H12 H 1.46310 0.35370 0.41750
#END
