
#######################################################################
#
#                 Cambridge Crystallographic Data Centre
#                                CCDC
#
#######################################################################
#
# If this CIF has been generated from an entry in the Cambridge
# Structural Database, then it will include bibliographic, chemical,
# crystal, experimental, refinement or atomic coordinate data resulting
# from the CCDC's data processing and validation procedures.
#
#######################################################################

data_CSD_CIF_RAMTEH
_audit_creation_date 2017-01-17
_audit_creation_method CSD-ConQuest-V1
_database_code_CSD RAMTEH
_database_code_depnum_ccdc_archive 'CCDC 1440404'
_chemical_formula_sum 'C20 H23 N3 O5'
_chemical_formula_moiety
;
C20 H23 N3 O5
;
_journal_coden_Cambridge 447
_journal_volume 6
_journal_year 2015
_journal_page_first 16
_journal_name_full 'Uzb.Khim.Zh.(Russ.)(Uzbek Journal on Chemistry) '
loop_
_publ_author_name
"U.S.Mahmudov"
"B.Tashkhodjaev"
"Sh.B.Rakhimov"
"V.I.Vinogradova"
_chemical_name_systematic
;
11-(4,5-dimethoxy-2-nitrobenzyl)-7,11-diazatricyclo[7.3.1.0^2,7^]trideca-2,4-d
ien-6-one
;
_chemical_name_common
;
N-(3,4-dimethoxy-6-nitrobenzyl)cytisine
;
_cell_volume    946.292
_exptl_crystal_colour 'colorless'
_exptl_crystal_density_diffrn 1.353
_exptl_crystal_description 'prismatic'
_diffrn_ambient_temperature 293
#These two values have been output from a single CSD field.
_refine_ls_R_factor_gt 0.0398
_refine_ls_wR_factor_gt 0.0398
_symmetry_cell_setting monoclinic
_symmetry_space_group_name_H-M 'P 21'
_symmetry_Int_Tables_number 4
loop_
_symmetry_equiv_pos_site_id
_symmetry_equiv_pos_as_xyz
1 x,y,z
2 -x,1/2+y,-z
_cell_length_a 8.3922(17)
_cell_length_b 12.366(3)
_cell_length_c 9.4322(19)
_cell_angle_alpha 90
_cell_angle_beta 104.82(3)
_cell_angle_gamma 90
_cell_formula_units_Z 2
loop_
_atom_type_symbol
_atom_type_radius_bond
C 0.68
H 0.23
N 0.68
O 0.68
loop_
_atom_site_label
_atom_site_type_symbol
_atom_site_fract_x
_atom_site_fract_y
_atom_site_fract_z
N1 N 0.6329(3) 0.2699(2) 0.8020(3)
C1 C 0.5820(4) 0.3230(3) 0.9138(3)
O1 O 0.5661(4) 0.4227(2) 0.9087(3)
C2 C 0.5526(5) 0.2560(4) 1.0270(4)
H1 H 0.51410 0.28700 1.10180
C3 C 0.5796(5) 0.1485(4) 1.0283(4)
H2 H 0.56120 0.10650 1.10430
C4 C 0.6349(4) 0.1000(3) 0.9164(4)
H3 H 0.65560 0.02600 0.91920
C5 C 0.6586(3) 0.1604(3) 0.8029(3)
C6 C 0.7041(4) 0.1104(3) 0.6734(4)
H4 H 0.76780 0.04450 0.70600
C7 C 0.8086(4) 0.1868(3) 0.6093(4)
H5 H 0.83940 0.15310 0.52730
H6 H 0.90820 0.20630 0.68280
C8 C 0.7031(4) 0.2865(3) 0.5586(4)
H7 H 0.76580 0.33650 0.51300
C9 C 0.6676(4) 0.3419(3) 0.6895(4)
H8 H 0.76150 0.38680 0.73510
H9 H 0.57380 0.38950 0.65510
C10 C 0.5471(4) 0.2536(3) 0.4434(3)
H10 H 0.48150 0.31740 0.40900
H11 H 0.57740 0.22130 0.36030
N2 N 0.4494(3) 0.1769(2) 0.5024(3)
C11 C 0.5477(4) 0.0798(3) 0.5544(4)
H12 H 0.57840 0.04520 0.47290
H13 H 0.48260 0.02890 0.59430
C12 C 0.2958(4) 0.1499(3) 0.3935(3)
H14 H 0.24590 0.08700 0.42610
H15 H 0.31980 0.13220 0.30090
C13 C 0.1767(4) 0.2435(3) 0.3717(3)
C14 C 0.0721(4) 0.2758(3) 0.2384(3)
N3 N 0.0619(4) 0.2146(3) 0.1037(3)
O2 O 0.0319(5) 0.2646(3) -0.0119(3)
O3 O 0.0789(4) 0.1169(3) 0.1112(3)
C15 C -0.0299(4) 0.3661(3) 0.2246(3)
H16 H -0.09500 0.38610 0.13300
C16 C -0.0344(3) 0.4256(3) 0.3469(3)
C17 C 0.0678(3) 0.3946(3) 0.4842(3)
C18 C 0.1715(3) 0.3067(3) 0.4938(3)
H17 H 0.24040 0.28880 0.58460
C19 C -0.2186(5) 0.5568(4) 0.2113(4)
H18 H -0.27520 0.62140 0.22720
H19 H -0.29730 0.50460 0.16040
H20 H -0.14280 0.57370 0.15370
O4 O -0.1304(3) 0.5133(2) 0.3491(2)
C20 C 0.1531(5) 0.4293(4) 0.7411(3)
H21 H 0.12690 0.47660 0.81260
H22 H 0.26730 0.43730 0.74260
H23 H 0.13220 0.35580 0.76380
O5 O 0.0530(3) 0.4563(2) 0.5985(2)
#END
