
#######################################################################
#
#                 Cambridge Crystallographic Data Centre
#                                CCDC
#
#######################################################################
#
# If this CIF has been generated from an entry in the Cambridge
# Structural Database, then it will include bibliographic, chemical,
# crystal, experimental, refinement or atomic coordinate data resulting
# from the CCDC's data processing and validation procedures.
#
#######################################################################

data_CSD_CIF_RANLEA
_audit_creation_date 2017-01-18
_audit_creation_method CSD-ConQuest-V1
_database_code_CSD RANLEA
_database_code_depnum_ccdc_archive 'CCDC 1528202'
_chemical_formula_sum 'C15 H12 N2 O4'
_chemical_formula_moiety
;
C15 H12 N2 O4
;
_journal_coden_Cambridge 1078
_journal_year 2017
_journal_name_full 'CSD Communication(Private Communication) '
loop_
_publ_author_name
"Wenkui Yuan"
_chemical_name_systematic
;
4-(4-methoxyphenyl)-2-phenyl-1,2,4-oxadiazolidine-3,5-dione
;
_chemical_melting_point 417
_cell_volume   1323.315
_exptl_crystal_colour 'colorless'
_exptl_crystal_density_diffrn 1.427
_exptl_crystal_description 'block'
_exptl_crystal_preparation 'ethanol'
_diffrn_ambient_temperature 173
#These two values have been output from a single CSD field.
_refine_ls_R_factor_gt 0.0525
_refine_ls_wR_factor_gt 0.0525
_symmetry_cell_setting monoclinic
_symmetry_space_group_name_H-M 'P 21/n'
_symmetry_Int_Tables_number 14
loop_
_symmetry_equiv_pos_site_id
_symmetry_equiv_pos_as_xyz
1 x,y,z
2 1/2-x,1/2+y,1/2-z
3 -x,-y,-z
4 -1/2+x,-1/2-y,-1/2+z
_cell_length_a 10.308(4)
_cell_length_b 6.682(3)
_cell_length_c 19.230(8)
_cell_angle_alpha 90
_cell_angle_beta 92.449(7)
_cell_angle_gamma 90
_cell_formula_units_Z 4
loop_
_atom_type_symbol
_atom_type_radius_bond
C 0.68
H 0.23
N 0.68
O 0.68
loop_
_atom_site_label
_atom_site_type_symbol
_atom_site_fract_x
_atom_site_fract_y
_atom_site_fract_z
C1 C 0.37405(14) 0.6201(2) 0.43004(8)
N1 N 0.50743(12) 0.5788(2) 0.42342(7)
O1 O 0.59115(10) 0.74502(16) 0.43595(6)
C2 C 0.33440(16) 0.8124(3) 0.44627(8)
H1 H 0.39470 0.91530 0.45200
N2 N 0.69306(12) 0.51561(18) 0.37626(7)
O2 O 0.80050(11) 0.80269(16) 0.41545(7)
C3 C 0.20304(17) 0.8482(3) 0.45374(9)
H2 H 0.17540 0.97610 0.46510
O3 O 0.52430(11) 0.28452(18) 0.36140(7)
C4 C 0.11313(17) 0.6972(3) 0.44452(10)
H3 H 0.02530 0.72340 0.44890
O4 O 1.09125(11) 0.15577(18) 0.23486(6)
C5 C 0.15418(17) 0.5065(3) 0.42868(10)
H4 H 0.09340 0.40450 0.42260
C6 C 0.28475(16) 0.4651(3) 0.42166(9)
H5 H 0.31210 0.33610 0.41150
C7 C 0.56802(15) 0.4405(2) 0.38328(8)
C8 C 0.70783(15) 0.6965(2) 0.40865(8)
C9 C 0.79467(14) 0.4183(2) 0.33983(8)
C10 C 0.84774(15) 0.5120(2) 0.28307(8)
H6 H 0.81680 0.63620 0.26810
C11 C 0.94653(15) 0.4194(2) 0.24918(8)
H7 H 0.98260 0.48140 0.21130
C12 C 0.99245(15) 0.2331(2) 0.27164(8)
C13 C 0.93747(15) 0.1383(2) 0.32735(8)
H8 H 0.96670 0.01260 0.34170
C14 C 0.83835(15) 0.2323(2) 0.36158(8)
H9 H 0.80140 0.16990 0.39920
C15 C 1.15945(18) -0.0129(3) 0.26374(10)
H10 H 1.23250 -0.04250 0.23620
H11 H 1.10240 -0.12640 0.26380
H12 H 1.18920 0.01690 0.31060
#END
