
#######################################################################
#
#                 Cambridge Crystallographic Data Centre
#                                CCDC
#
#######################################################################
#
# If this CIF has been generated from an entry in the Cambridge
# Structural Database, then it will include bibliographic, chemical,
# crystal, experimental, refinement or atomic coordinate data resulting
# from the CCDC's data processing and validation procedures.
#
#######################################################################

data_CSD_CIF_RANWUY
_audit_creation_date 2001-11-22
_audit_creation_method CSD-ConQuest-V1
_database_code_CSD RANWUY
_chemical_formula_sum 'C6 H7 N3 O2'
_chemical_formula_moiety
;
C6 H7 N3 O2
;
_journal_coden_Cambridge 119
_journal_volume 513
_journal_year 1999
_journal_page_first 69
_journal_name_full 'J.Mol.Struct. '
loop_
_publ_author_name
"Z.Daszkiewicz"
"J.B.Kyziol"
"J.Zaleski"
_chemical_name_systematic
;
1,2-Dihydro-1-methyl-2-nitriminopyridine
;
_chemical_melting_point 431.15
_cell_volume    650.803
_exptl_crystal_colour 'white'
_exptl_crystal_density_diffrn 1.563
_exptl_special_details
;
Melting point range 431.15-432.15K

;
_exptl_crystal_description 'needles'
_exptl_crystal_preparation 'methanol'
_diffrn_ambient_temperature 90
#These two values have been output from a single CSD field.
_refine_ls_R_factor_gt 0.0259
_refine_ls_wR_factor_gt 0.0259
_symmetry_cell_setting orthorhombic
_symmetry_space_group_name_H-M 'P n a 21'
_symmetry_Int_Tables_number 33
loop_
_symmetry_equiv_pos_site_id
_symmetry_equiv_pos_as_xyz
1 x,y,z
2 -x,-y,1/2+z
3 1/2-x,1/2+y,1/2+z
4 1/2+x,1/2-y,z
_cell_length_a 7.753(2)
_cell_length_b 13.829(3)
_cell_length_c 6.070(1)
_cell_angle_alpha 90
_cell_angle_beta 90
_cell_angle_gamma 90
_cell_formula_units_Z 4
loop_
_atom_type_symbol
_atom_type_radius_bond
C 0.68
H 0.23
N 0.68
O 0.68
loop_
_atom_site_label
_atom_site_type_symbol
_atom_site_fract_x
_atom_site_fract_y
_atom_site_fract_z
N1 N 0.2096(1) 0.7312(1) 0.4560(1)
C1 C 0.2447(1) 0.8267(1) 0.4201(2)
C2 C 0.1862(1) 0.8937(1) 0.5786(2)
C3 C 0.0926(1) 0.8633(1) 0.7573(2)
C4 C 0.0572(1) 0.7648(1) 0.7871(2)
C5 C 0.1193(1) 0.7006(1) 0.6352(2)
N2 N 0.3473(1) 0.8419(1) 0.2408(1)
N3 N 0.3398(1) 0.9307(1) 0.1511(2)
O1 O 0.2184(1) 0.9881(1) 0.1871(1)
O2 O 0.4558(1) 0.9505(1) 0.0169(1)
C6 C 0.2694(1) 0.6581(1) 0.2967(2)
H1 H 0.2179(22) 0.9594(12) 0.5537(29)
H2 H 0.0560(19) 0.9113(11) 0.8660(26)
H3 H -0.0067(24) 0.7396(13) 0.9042(31)
H4 H 0.1022(22) 0.6338(12) 0.6506(29)
H5 H 0.2238(20) 0.6769(10) 0.1520(28)
H6 H 0.3910(22) 0.6607(11) 0.2862(30)
H7 H 0.2337(23) 0.5943(13) 0.3502(34)
#END
