
#######################################################################
#
#                 Cambridge Crystallographic Data Centre
#                                CCDC
#
#######################################################################
#
# If this CIF has been generated from an entry in the Cambridge
# Structural Database, then it will include bibliographic, chemical,
# crystal, experimental, refinement or atomic coordinate data resulting
# from the CCDC's data processing and validation procedures.
#
#######################################################################

data_CSD_CIF_RANZEM
_audit_creation_date 2005-08-18
_audit_creation_method CSD-ConQuest-V1
_database_code_CSD RANZEM
_database_code_depnum_ccdc_archive 'CCDC 244942'
_chemical_formula_sum 'C7 H9 N3 O2'
_chemical_formula_moiety
;
C7 H9 N3 O2
;
_journal_coden_Cambridge 119
_journal_volume 743
_journal_year 2005
_journal_page_first 209
_journal_name_full 'J.Mol.Struct. '
loop_
_publ_author_name
"M.Kubicki"
_chemical_name_systematic
;
1-Allyl-2-methyl-4-nitroimidazole
;
_cell_volume   1595.191
_exptl_crystal_colour 'colorless'
_exptl_crystal_density_diffrn 1.392
_exptl_crystal_description 'block'
_diffrn_ambient_temperature 100
#These two values have been output from a single CSD field.
_refine_ls_R_factor_gt 0.0353
_refine_ls_wR_factor_gt 0.0353
_symmetry_cell_setting monoclinic
_symmetry_space_group_name_H-M 'P 21/n'
_symmetry_Int_Tables_number 14
loop_
_symmetry_equiv_pos_site_id
_symmetry_equiv_pos_as_xyz
1 x,y,z
2 1/2-x,1/2+y,1/2-z
3 -x,-y,-z
4 -1/2+x,-1/2-y,-1/2+z
_cell_length_a 8.6150(6)
_cell_length_b 11.0715(7)
_cell_length_c 16.7959(11)
_cell_angle_alpha 90
_cell_angle_beta 95.288(5)
_cell_angle_gamma 90
_cell_formula_units_Z 8
loop_
_atom_type_symbol
_atom_type_radius_bond
C 0.68
H 0.23
N 0.68
O 0.68
loop_
_atom_site_label
_atom_site_type_symbol
_atom_site_fract_x
_atom_site_fract_y
_atom_site_fract_z
N1 N 0.49841(11) 0.38276(7) 0.87023(5)
C1 C 0.36174(15) 0.30182(10) 0.86533(7)
H1 H 0.2734(15) 0.349(1) 0.8452(7)
H2 H 0.3841(14) 0.2368(11) 0.8268(7)
C2 C 0.34229(14) 0.2483(1) 0.94602(6)
H3 H 0.3014(16) 0.2985(12) 0.9823(7)
C3 C 0.37691(17) 0.13612(11) 0.96462(7)
H4 H 0.3655(17) 0.1013(11) 1.0182(8)
H5 H 0.4152(19) 0.0800(12) 0.9260(9)
C4 C 0.50188(14) 0.50382(9) 0.89060(6)
C5 C 0.35926(16) 0.57575(11) 0.90070(8)
H6 H 0.2931(19) 0.5831(13) 0.8495(10)
H7 H 0.3871(18) 0.6588(14) 0.9191(9)
H8 H 0.2856(19) 0.5384(13) 0.9360(9)
N2 N 0.64619(12) 0.54480(7) 0.89962(5)
C6 C 0.73560(14) 0.44607(9) 0.88594(6)
N3 N 0.90204(12) 0.45280(8) 0.89404(5)
O1 O 0.97514(10) 0.36049(7) 0.87879(5)
O2 O 0.96456(11) 0.54859(7) 0.91614(5)
C7 C 0.64874(13) 0.34520(9) 0.86764(6)
H9 H 0.6785(15) 0.2632(11) 0.8539(7)
N4 N 0.62921(11) 0.37931(7) 0.66963(5)
C8 C 0.48704(15) 0.30923(10) 0.64517(6)
H10 H 0.4055(15) 0.3409(10) 0.6752(7)
H11 H 0.5129(14) 0.2238(10) 0.6613(6)
C9 C 0.44730(15) 0.31765(10) 0.55642(7)
H12 H 0.5333(17) 0.2920(12) 0.5233(8)
C10 C 0.31385(17) 0.35888(11) 0.52337(8)
H13 H 0.2317(18) 0.3857(12) 0.5557(9)
H14 H 0.2936(17) 0.3640(12) 0.4653(9)
C11 C 0.63698(13) 0.50199(9) 0.68470(6)
C12 C 0.49674(16) 0.58022(11) 0.68175(7)
H15 H 0.4477(18) 0.5887(12) 0.6264(9)
H16 H 0.5277(17) 0.6604(13) 0.6993(8)
H17 H 0.4168(17) 0.5465(11) 0.7136(7)
N5 N 0.78252(12) 0.53803(8) 0.70098(5)
C13 C 0.86782(14) 0.43441(9) 0.69515(6)
N6 N 1.03357(12) 0.43383(9) 0.71025(5)
O3 O 1.10215(10) 0.33745(8) 0.69991(5)
O4 O 1.10069(11) 0.52804(8) 0.73264(5)
C14 C 0.77714(14) 0.33556(10) 0.67584(6)
H18 H 0.8051(16) 0.2529(11) 0.6664(7)
#END
