
#######################################################################
#
#                 Cambridge Crystallographic Data Centre
#                                CCDC
#
#######################################################################
#
# If this CIF has been generated from an entry in the Cambridge
# Structural Database, then it will include bibliographic, chemical,
# crystal, experimental, refinement or atomic coordinate data resulting
# from the CCDC's data processing and validation procedures.
#
#######################################################################

data_CSD_CIF_RAPDOD
_audit_creation_date 2012-02-16
_audit_creation_method CSD-ConQuest-V1
_database_code_CSD RAPDOD
_database_code_depnum_ccdc_archive 'CCDC 838414'
_chemical_formula_sum 'C10 H7 N3 O2'
_chemical_formula_moiety
;
C10 H7 N3 O2
;
_journal_coden_Cambridge 222
_journal_volume 41
_journal_year 2012
_journal_page_first 201
_journal_name_full 'Dalton Trans. '
loop_
_publ_author_name
"P.R.Murray"
"S.Crawford"
"A.Dawson"
"A.Delf"
"C.Findlay"
"L.Jack"
"E.J.L.McInnes"
"S.Al-Musharafi"
"G.S.Nichol"
"I.Oswald"
"L.J.Yellowlees"
_chemical_name_systematic
;
3-Nitro-2,2'-bipyridine
;
_cell_volume    893.248
_exptl_crystal_colour 'beige'
_exptl_crystal_density_diffrn 1.496
_exptl_crystal_description 'block'
_diffrn_ambient_temperature 150
#These two values have been output from a single CSD field.
_refine_ls_R_factor_gt 0.0287
_refine_ls_wR_factor_gt 0.0287
_symmetry_cell_setting orthorhombic
_symmetry_space_group_name_H-M 'P 21 21 21'
_symmetry_Int_Tables_number 19
loop_
_symmetry_equiv_pos_site_id
_symmetry_equiv_pos_as_xyz
1 x,y,z
2 1/2-x,-y,1/2+z
3 -x,1/2+y,1/2-z
4 1/2+x,1/2-y,-z
_cell_length_a 7.4647(3)
_cell_length_b 10.1931(4)
_cell_length_c 11.7396(4)
_cell_angle_alpha 90
_cell_angle_beta 90
_cell_angle_gamma 90
_cell_formula_units_Z 4
loop_
_atom_type_symbol
_atom_type_radius_bond
C 0.68
H 0.23
N 0.68
O 0.68
loop_
_atom_site_label
_atom_site_type_symbol
_atom_site_fract_x
_atom_site_fract_y
_atom_site_fract_z
N1 N -0.1188(2) 0.14138(17) 0.81480(14)
C1 C 0.0518(3) 0.1804(2) 0.80890(17)
C2 C 0.1071(3) 0.2613(2) 0.72006(16)
C3 C -0.0106(3) 0.3016(2) 0.63647(18)
H1 H 0.02880 0.35420 0.57450
C4 C -0.1863(3) 0.2634(2) 0.64559(17)
H2 H -0.27270 0.29060 0.59110
C5 C -0.2342(3) 0.1843(2) 0.73625(17)
H3 H -0.35620 0.15910 0.74310
N2 N 0.2904(2) 0.31268(18) 0.71207(15)
O1 O 0.3771(2) 0.28359(18) 0.62697(13)
O2 O 0.3422(2) 0.38556(16) 0.78785(12)
N3 N 0.3479(2) 0.11583(16) 0.86941(14)
C6 C 0.1752(3) 0.1299(2) 0.89857(17)
C7 C 0.1091(3) 0.0987(2) 1.00588(17)
H4 H -0.01400 0.11100 1.02340
C8 C 0.2262(3) 0.0495(2) 1.08659(17)
H5 H 0.18460 0.02530 1.16010
C9 C 0.4051(3) 0.0364(2) 1.05816(17)
H6 H 0.48910 0.00430 1.11220
C10 C 0.4593(3) 0.0707(2) 0.94979(18)
H7 H 0.58250 0.06180 0.93110
#END
