
#######################################################################
#
#                 Cambridge Crystallographic Data Centre
#                                CCDC
#
#######################################################################
#
# If this CIF has been generated from an entry in the Cambridge
# Structural Database, then it will include bibliographic, chemical,
# crystal, experimental, refinement or atomic coordinate data resulting
# from the CCDC's data processing and validation procedures.
#
#######################################################################

data_CSD_CIF_RAPFIY01
_audit_creation_date 2006-03-02
_audit_creation_method CSD-ConQuest-V1
_database_code_CSD RAPFIY01
_database_code_depnum_ccdc_archive 'CCDC 296342'
_chemical_formula_sum 'C8 H6 N2 O6'
_chemical_formula_moiety
;
C8 H6 N2 O6
;
_journal_coeditor_code "IUCr SK1889"
_journal_coden_Cambridge 591
_journal_volume 62
_journal_year 2006
_journal_page_first o26
_journal_name_full 'Acta Crystallogr.,Sect.C:Cryst.Struct.Commun. '
loop_
_publ_author_name
"T.R.A.Vasconcelos"
"M.V.N.de Souza"
"S.M.S.V.Wardell"
"J.L.Wardell"
"J.N.Low"
"C.Glidewell"
_chemical_name_systematic
;
Methyl 3,5-dinitrobenzoate
;
_cell_volume    907.570
_exptl_crystal_colour 'colorless'
_exptl_crystal_density_diffrn 1.655
_exptl_crystal_description 'lath'
_exptl_crystal_preparation 'ethanol'
_diffrn_ambient_temperature 120
#These two values have been output from a single CSD field.
_refine_ls_R_factor_gt 0.0577
_refine_ls_wR_factor_gt 0.0577
_symmetry_cell_setting monoclinic
_symmetry_space_group_name_H-M 'P 21/n'
_symmetry_Int_Tables_number 14
loop_
_symmetry_equiv_pos_site_id
_symmetry_equiv_pos_as_xyz
1 x,y,z
2 1/2-x,1/2+y,1/2-z
3 -x,-y,-z
4 -1/2+x,-1/2-y,-1/2+z
_cell_length_a 4.5664(4)
_cell_length_b 18.727(2)
_cell_length_c 10.8416(10)
_cell_angle_alpha 90
_cell_angle_beta 101.787(6)
_cell_angle_gamma 90
_cell_formula_units_Z 4
loop_
_atom_type_symbol
_atom_type_radius_bond
C 0.68
H 0.23
N 0.68
O 0.68
loop_
_atom_site_label
_atom_site_type_symbol
_atom_site_fract_x
_atom_site_fract_y
_atom_site_fract_z
O1 O -0.2774(3) 0.67000(9) 0.18351(15)
O2 O -0.0789(4) 0.56667(9) 0.26896(16)
O3 O 0.8123(5) 0.56191(10) 0.58930(19)
O4 O 1.0328(4) 0.65946(10) 0.66327(15)
O5 O 0.6277(4) 0.88672(9) 0.50125(17)
O6 O 0.2069(4) 0.89026(9) 0.36595(17)
N1 N 0.8306(5) 0.62668(11) 0.59376(18)
N2 N 0.4141(4) 0.85809(11) 0.43276(18)
C1 C 0.1600(5) 0.67207(13) 0.3470(2)
C2 C 0.3754(5) 0.63231(13) 0.4289(2)
C3 C 0.6005(5) 0.66864(13) 0.5090(2)
C4 C 0.6224(5) 0.74254(13) 0.5126(2)
C5 C 0.4021(5) 0.77944(13) 0.4308(2)
C6 C 0.1734(5) 0.74635(13) 0.3480(2)
C7 C -0.0892(5) 0.63688(13) 0.2566(2)
C8 C -0.3115(6) 0.52557(14) 0.1862(2)
H1 H 0.36730 0.58160 0.42950
H2 H 0.77990 0.76640 0.56810
H3 H 0.02770 0.77370 0.29260
H4 H -0.50820 0.53980 0.20080
H5 H -0.28030 0.47450 0.20420
H6 H -0.30200 0.53480 0.09820
#END
