
#######################################################################
#
#                 Cambridge Crystallographic Data Centre
#                                CCDC
#
#######################################################################
#
# If this CIF has been generated from an entry in the Cambridge
# Structural Database, then it will include bibliographic, chemical,
# crystal, experimental, refinement or atomic coordinate data resulting
# from the CCDC's data processing and validation procedures.
#
#######################################################################

data_CSD_CIF_RAPHEY
_audit_creation_date 2017-01-18
_audit_creation_method CSD-ConQuest-V1
_database_code_CSD RAPHEY
_database_code_depnum_ccdc_archive 'CCDC 917436'
_chemical_formula_sum 'C19 H14 N2 O4'
_chemical_formula_moiety
;
C19 H14 N2 O4
;
_journal_coden_Cambridge 1267
_journal_volume 232
_journal_year 2017
_journal_page_first 9
_journal_name_full 'Z.Kristallogr.-New Cryst.Struct. '
loop_
_publ_author_name
"Y.Koysal"
"H.Bulbul"
"E.N.Kantar"
"E.Coskun"
"Songul Sahin"
"N.Dege"
_chemical_name_systematic
;
4-nitro-2-(((2-phenoxyphenyl)imino)methyl)phenol
;
_cell_volume   1612.947
_exptl_crystal_density_diffrn 1.377
_diffrn_ambient_temperature 293
#These two values have been output from a single CSD field.
_refine_ls_R_factor_gt 0.0545
_refine_ls_wR_factor_gt 0.0545
_symmetry_cell_setting monoclinic
_symmetry_space_group_name_H-M 'P 21/c'
_symmetry_Int_Tables_number 14
loop_
_symmetry_equiv_pos_site_id
_symmetry_equiv_pos_as_xyz
1 x,y,z
2 -x,1/2+y,1/2-z
3 -x,-y,-z
4 x,-1/2-y,-1/2+z
_cell_length_a 11.8219(12)
_cell_length_b 6.1210(4)
_cell_length_c 22.356(2)
_cell_angle_alpha 90
_cell_angle_beta 94.403(8)
_cell_angle_gamma 90
_cell_formula_units_Z 4
loop_
_atom_type_symbol
_atom_type_radius_bond
C 0.68
H 0.23
N 0.68
O 0.68
loop_
_atom_site_label
_atom_site_type_symbol
_atom_site_fract_x
_atom_site_fract_y
_atom_site_fract_z
C1 C 0.8047(2) -0.0491(5) 0.73546(13)
C2 C 0.8420(2) -0.2497(6) 0.71790(13)
H1 H 0.82870 -0.29520 0.67830
C3 C 0.8991(3) -0.3819(5) 0.75936(15)
H2 H 0.92380 -0.51890 0.74800
C4 C 0.9201(2) -0.3144(6) 0.81707(14)
H3 H 0.96050 -0.40380 0.84470
C5 C 0.8818(3) -0.1150(6) 0.83447(13)
H4 H 0.89510 -0.07020 0.87410
C6 C 0.8238(2) 0.0188(5) 0.79365(13)
H5 H 0.79770 0.15430 0.80540
C7 C 0.6372(2) 0.0844(5) 0.68109(12)
C8 C 0.5681(3) -0.0624(5) 0.70749(12)
H6 H 0.59910 -0.16500 0.73470
C9 C 0.4523(3) -0.0558(5) 0.69308(12)
H7 H 0.40530 -0.15560 0.71050
C10 C 0.4060(2) 0.0961(5) 0.65344(13)
H8 H 0.32800 0.10080 0.64440
C11 C 0.4754(2) 0.2421(5) 0.62691(12)
H9 H 0.44390 0.34340 0.59950
C12 C 0.5913(2) 0.2395(5) 0.64058(10)
C13 C 0.6365(2) 0.5610(5) 0.58892(11)
H10 H 0.56400 0.61330 0.59400
C14 C 0.7114(2) 0.6874(5) 0.55480(11)
C15 C 0.8222(2) 0.6147(5) 0.54657(12)
C16 C 0.8903(3) 0.7376(6) 0.51046(14)
H11 H 0.96330 0.69050 0.50440
C17 C 0.8499(3) 0.9259(5) 0.48426(13)
H12 H 0.89550 1.00660 0.46040
C18 C 0.7414(3) 0.9977(5) 0.49297(12)
C19 C 0.6724(2) 0.8813(5) 0.52782(11)
H13 H 0.59980 0.93150 0.53350
N1 N 0.66793(18) 0.3767(4) 0.61257(9)
N2 N 0.6998(3) 1.1973(4) 0.46373(11)
O1 O 0.86261(19) 0.4311(4) 0.57101(10)
O2 O 0.75297(17) 0.0946(4) 0.69292(9)
O3 O 0.7617(2) 1.2950(4) 0.43087(10)
O4 O 0.6041(2) 1.2610(4) 0.47294(10)
H14 H 0.806(3) 0.368(7) 0.5874(17)
#END
