
#######################################################################
#
#                 Cambridge Crystallographic Data Centre
#                                CCDC
#
#######################################################################
#
# If this CIF has been generated from an entry in the Cambridge
# Structural Database, then it will include bibliographic, chemical,
# crystal, experimental, refinement or atomic coordinate data resulting
# from the CCDC's data processing and validation procedures.
#
#######################################################################

data_CSD_CIF_RAPMOL
_audit_creation_date 2005-08-18
_audit_creation_method CSD-ConQuest-V1
_database_code_CSD RAPMOL
_database_code_depnum_ccdc_archive 'CCDC 277222'
_chemical_formula_sum 'C19 H16 N4 O3'
_chemical_formula_moiety
;
C19 H16 N4 O3
;
_journal_coeditor_code "IUCr CI6587"
_journal_coden_Cambridge 1370
_journal_volume 61
_journal_year 2005
_journal_page_first o2074
_journal_name_full 'Acta Crystallogr.,Sect.E:Struct.Rep.Online '
loop_
_publ_author_name
"Hong Jiang"
"Shu-Jiang Tu"
"Song-Lei Zhu"
_chemical_name_systematic
;
3-Methyl-4-(4-nitrophenyl)-6-oxo-1-phenyl-4,5-dihydropyrazolo(3,4-b)pyridine
;
_cell_volume   1683.254
_exptl_crystal_colour 'yellow'
_exptl_crystal_density_diffrn 1.375
_exptl_crystal_description 'Block'
_exptl_crystal_preparation 'ethanol'
_diffrn_ambient_temperature 193
#These two values have been output from a single CSD field.
_refine_ls_R_factor_gt 0.0616
_refine_ls_wR_factor_gt 0.0616
_symmetry_cell_setting monoclinic
_symmetry_space_group_name_H-M 'P 21/c'
_symmetry_Int_Tables_number 14
loop_
_symmetry_equiv_pos_site_id
_symmetry_equiv_pos_as_xyz
1 x,y,z
2 -x,1/2+y,1/2-z
3 -x,-y,-z
4 x,-1/2-y,-1/2+z
_cell_length_a 7.846(5)
_cell_length_b 16.758(14)
_cell_length_c 12.940(15)
_cell_angle_alpha 90
_cell_angle_beta 98.374(12)
_cell_angle_gamma 90
_cell_formula_units_Z 4
loop_
_atom_type_symbol
_atom_type_radius_bond
C 0.68
H 0.23
N 0.68
O 0.68
loop_
_atom_site_label
_atom_site_type_symbol
_atom_site_fract_x
_atom_site_fract_y
_atom_site_fract_z
O1 O 0.98820(17) 0.54242(9) 0.62102(10)
O2 O 0.0742(3) 0.41329(15) 1.02807(18)
O3 O 0.3037(3) 0.35734(11) 1.10530(14)
N1 N 0.8122(2) 0.44718(9) 0.54238(11)
N2 N 0.60602(19) 0.34421(9) 0.47547(11)
N3 N 0.44634(19) 0.3174(1) 0.49284(12)
N4 N 0.2247(3) 0.39549(12) 1.03321(15)
C1 C 0.6614(2) 0.40376(10) 0.54230(13)
C2 C 0.5411(2) 0.41689(11) 0.60652(13)
C3 C 0.5669(2) 0.48268(11) 0.68675(14)
H1 H 0.51160 0.53220 0.65420
C4 C 0.7619(2) 0.49817(12) 0.71309(14)
H2 H 0.77890 0.55000 0.74980
H3 H 0.81230 0.45640 0.76240
C5 C 0.8614(2) 0.49959(11) 0.62127(14)
C6 C 0.4090(2) 0.36127(11) 0.57273(14)
C7 C 0.6904(2) 0.30902(10) 0.39569(13)
C8 C 0.8600(3) 0.28510(13) 0.42012(16)
H4 H 0.91710 0.28910 0.48990
C9 C 0.9465(3) 0.25533(15) 0.34234(19)
H5 H 1.06380 0.23980 0.35820
C10 C 0.8617(3) 0.24841(14) 0.24228(18)
H6 H 0.92100 0.22830 0.18880
C11 C 0.6915(3) 0.27038(13) 0.21863(15)
H7 H 0.63380 0.26450 0.14920
C12 C 0.6036(3) 0.30103(12) 0.29534(15)
H8 H 0.48610 0.31620 0.27920
C13 C 0.2461(3) 0.34548(14) 0.61605(19)
H9 H 0.18360 0.30160 0.57740
H10 H 0.17430 0.39360 0.60930
H11 H 0.27340 0.33090 0.69000
C14 C 0.4844(2) 0.46347(10) 0.78336(14)
C15 C 0.3325(2) 0.50101(12) 0.79778(15)
H12 H 0.28720 0.54200 0.75090
C16 C 0.2456(3) 0.47983(13) 0.87941(17)
H13 H 0.14040 0.50500 0.88850
C17 C 0.3162(3) 0.42104(12) 0.94724(15)
C18 C 0.4689(3) 0.38406(12) 0.93707(16)
H14 H 0.51640 0.34480 0.98590
C19 C 0.5519(3) 0.40544(12) 0.85402(15)
H15 H 0.65690 0.37990 0.84520
H16 H 0.877(3) 0.4487(15) 0.4870(19)
#END
