
#######################################################################
#
#                 Cambridge Crystallographic Data Centre
#                                CCDC
#
#######################################################################
#
# If this CIF has been generated from an entry in the Cambridge
# Structural Database, then it will include bibliographic, chemical,
# crystal, experimental, refinement or atomic coordinate data resulting
# from the CCDC's data processing and validation procedures.
#
#######################################################################

data_CSD_CIF_RAQRUX
_audit_creation_date 2005-11-21
_audit_creation_method CSD-ConQuest-V1
_database_code_CSD RAQRUX
_database_code_depnum_ccdc_archive 'CCDC 268688'
_chemical_formula_sum 'C12 H11 N5 O6'
_chemical_formula_moiety
;
C12 H11 N5 O6
;
_journal_coden_Cambridge 16
_journal_volume 61
_journal_year 2005
_journal_page_first 8167
_journal_name_full 'Tetrahedron '
loop_
_publ_author_name
"S.Kurbatov"
"R.Goumont"
"S.Lakhdar"
"J.Marrot"
"F.Terrier"
_chemical_name_systematic
;
8,9-Dimethyl-6b-nitro-1,4-dioxy-6b,7,10,10a-tetrahydro[1,2,5]oxadiazolo[3',4':
3,4]naphtho[1,2-c][1,2,5]oxadiazole-1,4-diium
;
_chemical_melting_point 444.15
_cell_volume   1399.766
_exptl_crystal_colour 'colorless'
_exptl_crystal_density_diffrn 1.524
_exptl_special_details
;
Melts with decomposition.

;
_exptl_crystal_description 'parallelepiped'
_diffrn_ambient_temperature 296
#These two values have been output from a single CSD field.
_refine_ls_R_factor_gt 0.0514
_refine_ls_wR_factor_gt 0.0514
_symmetry_cell_setting monoclinic
_symmetry_space_group_name_H-M 'C c'
_symmetry_Int_Tables_number 9
loop_
_symmetry_equiv_pos_site_id
_symmetry_equiv_pos_as_xyz
1 x,y,z
2 x,-y,1/2+z
3 1/2+x,1/2+y,z
4 1/2+x,1/2-y,1/2+z
_cell_length_a 12.0520(5)
_cell_length_b 18.0076(6)
_cell_length_c 6.5433(3)
_cell_angle_alpha 90
_cell_angle_beta 99.702(2)
_cell_angle_gamma 90
_cell_formula_units_Z 4
loop_
_atom_type_symbol
_atom_type_radius_bond
C 0.68
H 0.23
N 0.68
O 0.68
loop_
_atom_site_label
_atom_site_type_symbol
_atom_site_fract_x
_atom_site_fract_y
_atom_site_fract_z
N1 N 1.1477(3) 0.07178(19) 0.7638(5)
O1 O 1.2373(2) 0.1229(2) 0.7266(5)
N2 N 1.1885(3) 0.1779(2) 0.5930(6)
C1 C 0.9947(3) 0.20512(17) 0.4014(5)
C2 C 0.8795(3) 0.20250(18) 0.4753(5)
H1 H 0.82010 0.21620 0.36000
C3 C 0.8580(3) 0.1258(2) 0.5468(5)
C4 C 0.9410(3) 0.07569(18) 0.6435(5)
C5 C 1.0544(3) 0.09782(18) 0.6556(5)
C6 C 1.0826(3) 0.16313(18) 0.5493(5)
C7 C 1.0290(4) 0.28373(19) 0.3516(6)
H2 H 1.10990 0.28460 0.35580
H3 H 0.99380 0.29570 0.21110
C8 C 0.9988(3) 0.34339(18) 0.4947(6)
C9 C 0.9292(3) 0.33213(18) 0.6297(5)
C10 C 0.8790(3) 0.2575(2) 0.6556(6)
H4 H 0.80180 0.26450 0.67550
H5 H 0.91960 0.23510 0.78110
N3 N 0.7593(3) 0.0956(2) 0.5546(5)
O2 O 0.7837(3) 0.02228(16) 0.6611(5)
N4 N 0.8978(3) 0.01448(17) 0.7095(5)
O3 O 1.1737(3) 0.0187(2) 0.8803(5)
N5 N 0.9839(3) 0.16200(17) 0.1899(4)
O4 O 1.0712(3) 0.1458(2) 0.1346(5)
O5 O 0.8903(3) 0.15207(17) 0.0902(4)
C11 C 1.0530(5) 0.4173(2) 0.4581(10)
H6 H 1.03390 0.45340 0.55450
H7 H 1.02590 0.43370 0.31910
H8 H 1.13320 0.41140 0.47770
C12 C 0.8945(4) 0.3917(2) 0.7674(7)
H9 H 0.94220 0.43430 0.76540
H10 H 0.90140 0.37320 0.90670
H11 H 0.81770 0.40550 0.71810
O6 O 0.6610(3) 0.1134(2) 0.5029(6)
#END
