
#######################################################################
#
#                 Cambridge Crystallographic Data Centre
#                                CCDC
#
#######################################################################
#
# If this CIF has been generated from an entry in the Cambridge
# Structural Database, then it will include bibliographic, chemical,
# crystal, experimental, refinement or atomic coordinate data resulting
# from the CCDC's data processing and validation procedures.
#
#######################################################################

data_CSD_CIF_RAQSAE
_audit_creation_date 2005-11-21
_audit_creation_method CSD-ConQuest-V1
_database_code_CSD RAQSAE
_database_code_depnum_ccdc_archive 'CCDC 266344'
_chemical_formula_sum 'C14 H13 N5 O9'
_chemical_formula_moiety
;
C14 H13 N5 O9
;
_journal_coden_Cambridge 16
_journal_volume 61
_journal_year 2005
_journal_page_first 8167
_journal_name_full 'Tetrahedron '
loop_
_publ_author_name
"S.Kurbatov"
"R.Goumont"
"S.Lakhdar"
"J.Marrot"
"F.Terrier"
_chemical_name_systematic
;
8-Acetyl-7-ethoxy-6b-nitro-1,4-dioxy-6b,7,8,9,10,10b-hexahydro[1,2,5]oxadiazol
o[3',4':3,4]naphtho[1,2-c][1,2,5]oxadiazole-1,4-diium-9-one
;
_chemical_melting_point 484.15
_cell_volume   1661.023
_exptl_crystal_colour 'colorless'
_exptl_crystal_density_diffrn 1.577
_exptl_crystal_description 'prism'
_diffrn_ambient_temperature 293
#These two values have been output from a single CSD field.
_refine_ls_R_factor_gt 0.0454
_refine_ls_wR_factor_gt 0.0454
_symmetry_cell_setting monoclinic
_symmetry_space_group_name_H-M 'P 21/a'
_symmetry_Int_Tables_number 14
loop_
_symmetry_equiv_pos_site_id
_symmetry_equiv_pos_as_xyz
1 x,y,z
2 1/2-x,1/2+y,-z
3 -x,-y,-z
4 -1/2+x,-1/2-y,z
_cell_length_a 9.698(4)
_cell_length_b 14.250(3)
_cell_length_c 12.123(4)
_cell_angle_alpha 90
_cell_angle_beta 97.50(3)
_cell_angle_gamma 90
_cell_formula_units_Z 4
loop_
_atom_type_symbol
_atom_type_radius_bond
C 0.68
H 0.23
N 0.68
O 0.68
loop_
_atom_site_label
_atom_site_type_symbol
_atom_site_fract_x
_atom_site_fract_y
_atom_site_fract_z
O1 O 0.4080(2) 0.31208(12) 0.96566(17)
N1 N 0.3695(2) 0.23413(13) 0.93379(15)
O2 O 0.26080(17) 0.18846(11) 0.98869(13)
N2 N 0.23399(19) 0.10281(13) 0.93992(14)
O3 O 0.59219(17) 0.10079(13) 0.53393(14)
N3 N 0.56345(17) 0.13271(12) 0.62114(15)
O4 O 0.64019(16) 0.21610(11) 0.66688(14)
N4 N 0.58820(19) 0.24215(13) 0.76225(16)
C1 C 0.32324(18) 0.01032(12) 0.79051(15)
O5 O 0.54494(18) -0.06480(16) 0.81729(18)
N5 N 0.43771(17) -0.05264(12) 0.85596(15)
C2 C 0.36816(19) 0.03566(13) 0.67612(16)
O6 O 0.41152(18) -0.08452(13) 0.94285(15)
C3 C 0.47378(19) 0.11304(14) 0.69019(16)
O7 O 0.22860(14) -0.12813(9) 0.71600(13)
C4 C 0.49039(19) 0.18179(13) 0.77446(17)
O8 O -0.15779(17) 0.05591(15) 0.68863(16)
C5 C 0.39883(19) 0.17474(13) 0.85767(16)
O9 O 0.00600(16) 0.10278(11) 0.56011(13)
C6 C 0.31424(19) 0.09492(13) 0.86324(15)
C7 C 0.19034(18) -0.04899(13) 0.77638(15)
C8 C 0.07356(19) 0.00717(13) 0.71512(16)
C9 C 0.1002(2) 0.05814(14) 0.62166(16)
C10 C 0.2427(2) 0.06514(18) 0.58974(17)
C11 C 0.1292(3) -0.20216(16) 0.7065(2)
C12 C 0.1780(4) -0.27527(19) 0.6329(3)
C13 C -0.0594(2) 0.00981(16) 0.74755(19)
C14 C -0.1003(2) -0.0354(2) 0.8485(2)
H1 H 0.40990 -0.02200 0.64680
H2 H 0.15590 -0.06840 0.84750
H3 H 0.25750 0.13210 0.56970
H4 H 0.24510 0.02480 0.52230
H5 H 0.12200 -0.22940 0.78190
H6 H 0.03590 -0.17790 0.67380
H7 H 0.11070 -0.32870 0.62400
H8 H 0.27170 -0.29900 0.66580
H9 H 0.18560 -0.24750 0.55770
H10 H -0.20120 -0.02320 0.85290
H11 H -0.04310 -0.01010 0.91630
H12 H -0.08530 -0.10510 0.84440
#END
