
#######################################################################
#
#                 Cambridge Crystallographic Data Centre
#                                CCDC
#
#######################################################################
#
# If this CIF has been generated from an entry in the Cambridge
# Structural Database, then it will include bibliographic, chemical,
# crystal, experimental, refinement or atomic coordinate data resulting
# from the CCDC's data processing and validation procedures.
#
#######################################################################

data_CSD_CIF_RAQSEI
_audit_creation_date 2005-11-21
_audit_creation_method CSD-ConQuest-V1
_database_code_CSD RAQSEI
_database_code_depnum_ccdc_archive 'CCDC 266345'
_chemical_formula_sum 'C16 H13 N5 O8'
_chemical_formula_moiety
;
C16 H13 N5 O8
;
_journal_coden_Cambridge 16
_journal_volume 61
_journal_year 2005
_journal_page_first 8167
_journal_name_full 'Tetrahedron '
loop_
_publ_author_name
"S.Kurbatov"
"R.Goumont"
"S.Lakhdar"
"J.Marrot"
"F.Terrier"
_chemical_name_systematic
;
9-Ethoxy-7-(2-furyl)-6b-nitro-1,4-dioxy-6b,7,10,10b-tetrahydro-[1,2,5]oxadiazo
lo[3',4':3,4]benzo[1,2-c][1,2,5]oxadiazole-1,4-diium
;
_chemical_melting_point 474.15
_cell_volume    855.146
_exptl_crystal_density_diffrn 1.566
_exptl_crystal_description 'block'
_diffrn_ambient_temperature 293
#These two values have been output from a single CSD field.
_refine_ls_R_factor_gt 0.0557
_refine_ls_wR_factor_gt 0.0557
_symmetry_cell_setting triclinic
_symmetry_space_group_name_H-M 'P -1'
_symmetry_Int_Tables_number 2
loop_
_symmetry_equiv_pos_site_id
_symmetry_equiv_pos_as_xyz
1 x,y,z
2 -x,-y,-z
_cell_length_a 8.857(2)
_cell_length_b 9.9944(13)
_cell_length_c 10.9743(19)
_cell_angle_alpha 112.119(11)
_cell_angle_beta 99.61(2)
_cell_angle_gamma 100.422(16)
_cell_formula_units_Z 2
loop_
_atom_type_symbol
_atom_type_radius_bond
C 0.68
H 0.23
N 0.68
O 0.68
loop_
_atom_site_label
_atom_site_type_symbol
_atom_site_fract_x
_atom_site_fract_y
_atom_site_fract_z
C1 C 0.2935(3) 0.3670(3) 0.6338(3)
C2 C 0.4510(3) 0.3711(3) 0.7228(3)
C3 C 0.5516(4) 0.3040(4) 0.6313(3)
C4 C 0.4931(4) 0.1844(4) 0.5025(4)
C5 C 0.3243(4) 0.1339(3) 0.4496(3)
C6 C 0.2258(4) 0.2153(3) 0.5158(3)
C7 C 0.1743(3) 0.4209(3) 0.7168(3)
C8 C 0.1641(4) 0.3534(3) 0.8183(3)
C9 C 0.2731(4) 0.2935(3) 0.8578(3)
C10 C 0.4163(4) 0.2762(4) 0.8029(3)
C11 C 0.2100(4) 0.5884(3) 0.7818(3)
C12 C 0.1551(4) 0.6876(4) 0.7443(4)
C13 C 0.2458(5) 0.8329(4) 0.8408(4)
C14 C 0.3497(6) 0.8130(4) 0.9298(4)
C15 C 0.1451(4) 0.2345(4) 1.0140(4)
C16 C 0.1848(5) 0.1800(4) 1.1216(4)
N1 N 0.2327(4) 0.0133(3) 0.3436(3)
N2 N 0.0760(4) 0.1501(3) 0.4571(3)
N3 N 0.7052(3) 0.3325(3) 0.6608(3)
N4 N 0.6040(4) 0.1350(4) 0.4476(3)
N5 N 0.3326(3) 0.4768(3) 0.5677(3)
O1 O 0.2515(4) -0.0922(3) 0.2523(3)
O2 O 0.0678(3) 0.0219(3) 0.3485(2)
O3 O 0.8147(3) 0.4184(3) 0.7547(3)
O4 O 0.7431(3) 0.2240(3) 0.5415(3)
O5 O 0.4533(3) 0.5781(2) 0.6221(2)
O6 O 0.2344(3) 0.4579(3) 0.4666(2)
O7 O 0.3322(3) 0.6634(3) 0.8969(2)
O8 O 0.2732(3) 0.2325(3) 0.9493(2)
H1 H 0.50700 0.47720 0.78760
H2 H 0.06680 0.38420 0.65170
H3 H 0.07010 0.35420 0.85760
H4 H 0.51090 0.30710 0.88100
H5 H 0.39830 0.16830 0.74080
H6 H 0.06660 0.66360 0.66330
H7 H 0.23380 0.93070 0.84160
H8 H 0.43020 0.89600 1.01020
H9 H 0.13390 0.33880 1.05590
H10 H 0.04350 0.16700 0.94580
H11 H 0.09780 0.17990 1.16900
H12 H 0.28680 0.24770 1.18890
H13 H 0.19640 0.07590 1.07870
#END
