
#######################################################################
#
#                 Cambridge Crystallographic Data Centre
#                                CCDC
#
#######################################################################
#
# If this CIF has been generated from an entry in the Cambridge
# Structural Database, then it will include bibliographic, chemical,
# crystal, experimental, refinement or atomic coordinate data resulting
# from the CCDC's data processing and validation procedures.
#
#######################################################################

data_CSD_CIF_RARHUP
_audit_creation_date 2012-08-21
_audit_creation_method CSD-ConQuest-V1
_database_code_CSD RARHUP
_database_code_depnum_ccdc_archive 'CCDC 864124'
_chemical_formula_sum 'C17 H31 N1 O1'
_chemical_formula_moiety
;
C17 H31 N1 O1
;
_journal_coden_Cambridge 1336
_journal_volume 14
_journal_year 2012
_journal_page_first 2098
_journal_name_full 'Org.Lett. '
loop_
_publ_author_name
"Y.Kurosaki"
"K.Shirokane"
"T.Oishi"
"T.Sato"
"N.Chida"
_chemical_name_systematic
;
9-t-Butyl-1-methoxy-5-vinyl-1-azaspiro[5.5]undecane
;
_chemical_melting_point 315.5
_cell_volume    835.343
_exptl_crystal_colour 'colorless'
_exptl_crystal_density_diffrn 1.055
_exptl_special_details
;
Melting point range 315.5-325.5K

;
_exptl_crystal_description 'needle'
_exptl_crystal_preparation 'dichloromethane'
_diffrn_ambient_temperature 297
#These two values have been output from a single CSD field.
_refine_ls_R_factor_gt 0.062
_refine_ls_wR_factor_gt 0.062
_symmetry_cell_setting triclinic
_symmetry_space_group_name_H-M 'P -1'
_symmetry_Int_Tables_number 2
loop_
_symmetry_equiv_pos_site_id
_symmetry_equiv_pos_as_xyz
1 x,y,z
2 -x,-y,-z
_cell_length_a 7.2083(15)
_cell_length_b 10.233(3)
_cell_length_c 12.003(4)
_cell_angle_alpha 104.74(2)
_cell_angle_beta 93.98(2)
_cell_angle_gamma 100.590(18)
_cell_formula_units_Z 2
loop_
_atom_type_symbol
_atom_type_radius_bond
C 0.68
H 0.23
N 0.68
O 0.68
loop_
_atom_site_label
_atom_site_type_symbol
_atom_site_fract_x
_atom_site_fract_y
_atom_site_fract_z
O1 O 0.0801(4) 0.2309(2) 0.00269(16)
N1 N 0.0141(4) 0.3242(3) 0.09780(18)
C1 C 0.0573(4) 0.2793(3) 0.2035(2)
C2 C -0.0531(5) 0.1298(3) 0.1910(3)
C3 C -0.2654(5) 0.1115(4) 0.1558(3)
C4 C -0.3032(5) 0.1581(4) 0.0479(3)
C5 C -0.1912(5) 0.3038(4) 0.0629(3)
C6 C 0.0067(4) 0.3846(3) 0.3076(3)
C7 C 0.1206(4) 0.5306(3) 0.3273(3)
C8 C 0.3351(4) 0.5389(3) 0.3453(2)
C9 C 0.3898(4) 0.4354(3) 0.2438(3)
C10 C 0.2726(4) 0.2899(3) 0.2241(3)
C11 C 0.4585(5) 0.6874(3) 0.3716(3)
C12 C 0.4088(6) 0.7772(4) 0.4836(3)
C13 C 0.4243(6) 0.7551(4) 0.2730(3)
C14 C 0.6700(5) 0.6849(4) 0.3893(3)
C15 C -0.0257(7) 0.0809(5) 0.2975(4)
C16 C 0.0611(8) -0.0044(5) 0.3137(5)
C17 C 0.1741(7) 0.3106(5) -0.0656(3)
H1 H -0.00650 0.06750 0.12790
H2 H -0.32430 0.01560 0.14670
H3 H -0.31080 0.16980 0.22070
H4 H -0.26150 0.09560 -0.01610
H5 H -0.43870 0.15250 0.03220
H6 H -0.23850 0.36880 0.12220
H7 H -0.20070 0.32990 -0.00920
H8 H -0.12560 0.39040 0.29490
H9 H 0.02880 0.35900 0.37910
H10 H 0.08880 0.56220 0.26020
H11 H 0.08380 0.58910 0.39570
H12 H 0.35950 0.50520 0.41330
H13 H 0.36750 0.46590 0.17480
H14 H 0.52410 0.43640 0.25900
H15 H 0.29660 0.26130 0.29390
H16 H 0.31070 0.22720 0.15880
H17 H 0.50920 0.85730 0.51350
H18 H 0.29240 0.80560 0.46730
H19 H 0.39350 0.72560 0.54010
H20 H 0.29330 0.76210 0.26480
H21 H 0.50410 0.84560 0.29080
H22 H 0.45280 0.69890 0.20180
H23 H 0.71040 0.64300 0.31650
H24 H 0.74210 0.77770 0.41940
H25 H 0.69020 0.63260 0.44330
H26 H -0.07780 0.12630 0.36120
H27 H 0.11670 -0.05350 0.25360
H28 H 0.07130 -0.02140 0.38620
H29 H 0.21750 0.25040 -0.12890
H30 H 0.08820 0.35840 -0.09550
H31 H 0.28100 0.37660 -0.01870
#END
