
#######################################################################
#
#                 Cambridge Crystallographic Data Centre
#                                CCDC
#
#######################################################################
#
# If this CIF has been generated from an entry in the Cambridge
# Structural Database, then it will include bibliographic, chemical,
# crystal, experimental, refinement or atomic coordinate data resulting
# from the CCDC's data processing and validation procedures.
#
#######################################################################

data_CSD_CIF_RARRIN
_audit_creation_date 2012-08-21
_audit_creation_method CSD-ConQuest-V1
_database_code_CSD RARRIN
_database_code_depnum_ccdc_archive 'CCDC 850476'
_chemical_formula_sum 'C25 H29 N1 O6'
_chemical_formula_moiety
;
C25 H29 N1 O6
;
_journal_coden_Cambridge 1366
_journal_volume 354
_journal_year 2012
_journal_page_first 1481
_journal_name_full 'Adv.Synth.Catal. '
loop_
_publ_author_name
"D.Enders"
"G.Urbanietz"
"E.Cassens-Sasse"
"S.Keess"
"G.Raabe"
_chemical_name_systematic
;
t-Butyl 3-formyl-2-hydroxy-2-methyl-5-nitro-4,6-diphenylcyclohexanecarboxylate
;
_chemical_melting_point 480.15
_cell_volume   2299.775
_exptl_crystal_density_diffrn 1.269
_exptl_special_details
;
Study temperature given as 100 K and 293 K in the CIF

;
_diffrn_ambient_temperature 100
#These two values have been output from a single CSD field.
_refine_ls_R_factor_gt 0.037
_refine_ls_wR_factor_gt 0.037
_symmetry_cell_setting orthorhombic
_symmetry_space_group_name_H-M 'P 21 21 21'
_symmetry_Int_Tables_number 19
loop_
_symmetry_equiv_pos_site_id
_symmetry_equiv_pos_as_xyz
1 x,y,z
2 1/2-x,-y,1/2+z
3 1/2+x,1/2-y,-z
4 -x,1/2+y,1/2-z
_cell_length_a 5.7932(6)
_cell_length_b 15.3981(15)
_cell_length_c 25.781(3)
_cell_angle_alpha 90
_cell_angle_beta 90
_cell_angle_gamma 90
_cell_formula_units_Z 4
loop_
_atom_type_symbol
_atom_type_radius_bond
C 0.68
H 0.23
N 0.68
O 0.68
loop_
_atom_site_label
_atom_site_type_symbol
_atom_site_fract_x
_atom_site_fract_y
_atom_site_fract_z
C1 C 0.7686(7) 0.35800(19) 0.92245(10)
C2 C 0.7514(7) 0.48200(18) 0.85819(11)
C3 C 0.7726(8) 0.61020(17) 0.94691(10)
C4 C 0.7053(8) 0.1797(2) 0.93622(11)
C5 C 0.7060(9) 0.5141(2) 0.95556(12)
C6 C 0.9386(8) 0.2991(2) 0.90746(11)
C7 C 0.7301(8) 0.60638(18) 0.79388(11)
C8 C 0.7947(8) 0.57948(19) 0.84897(11)
C9 C 0.6981(9) 0.63910(18) 0.89186(12)
C10 C 0.5225(8) 0.6431(2) 0.78101(13)
C11 C 0.7871(9) 0.7307(2) 0.88049(12)
C12 C 0.8118(9) 0.45440(19) 0.91418(11)
C13 C 0.5365(7) 0.2367(2) 0.95124(11)
C14 C 0.8896(9) 0.5930(2) 0.75508(13)
C15 C 0.9082(8) 0.2104(2) 0.91444(11)
C16 C 0.8441(10) 0.6166(2) 0.70362(13)
C17 C 0.6360(9) 0.6547(2) 0.69147(15)
C18 C 0.4752(9) 0.6685(2) 0.72952(14)
C19 C 0.8266(12) 0.8629(3) 0.79795(19)
C20 C 0.6747(9) 0.8724(2) 0.84488(16)
C21 C 0.7812(13) 0.9256(3) 0.8880(2)
N1 N 0.5062(7) 0.45767(18) 0.84557(10)
O1 O 0.9902(5) 0.74895(13) 0.88465(8)
O2 O 0.3467(5) 0.49660(13) 0.86745(9)
O3 O 0.6191(4) 0.78379(13) 0.86578(8)
O4 O 0.4755(5) 0.39813(15) 0.81483(8)
C22 C 0.5661(7) 0.3264(2) 0.94437(11)
O5 O 1.0207(6) 0.61340(15) 0.95210(9)
C23 C 0.6577(10) 0.6683(2) 0.98753(14)
C24 C 0.4317(11) 0.9031(4) 0.8289(3)
C25 C 0.7969(8) 0.48444(18) 1.00801(12)
O6 O 0.6766(6) 0.46975(13) 1.04424(8)
H1 H 0.964(5) 0.5821(14) 0.8525(8)
H2 H 0.480(6) 0.6539(18) 0.9845(11)
H3 H 0.393(6) 0.2141(18) 0.9642(10)
H4 H 1.074(5) 0.3184(15) 0.8926(9)
H5 H 0.687(6) 0.1117(17) 0.9427(10)
H6 H 0.966(7) 0.610(2) 0.6779(13)
H7 H 1.037(6) 0.5733(16) 0.7624(9)
H8 H 0.313(6) 0.6922(17) 0.7209(10)
H9 H 0.986(6) 0.4655(16) 0.9175(9)
H10 H 0.551(5) 0.5147(15) 0.9528(9)
H11 H 0.97394 0.47378 1.01240
H12 H 0.359(12) 0.856(3) 0.803(2)
H13 H 0.954(9) 0.903(2) 0.8961(14)
H14 H 0.679(7) 0.925(2) 0.9220(13)
H15 H 0.989(9) 0.842(3) 0.8057(16)
H16 H 0.868(7) 0.919(2) 0.7808(12)
H17 H 0.686(6) 0.727(2) 0.9798(11)
H18 H 0.847(6) 0.4451(16) 0.8324(9)
H19 H 0.760(7) 0.827(2) 0.7738(13)
H20 H 0.469(8) 0.960(3) 0.8118(14)
H21 H 0.794(6) 0.980(2) 0.8776(12)
H22 H 1.055(11) 0.649(3) 0.9334(17)
H23 H 0.729(6) 0.6532(19) 1.0217(13)
H24 H 0.618(6) 0.6759(18) 0.6559(12)
H25 H 0.529(6) 0.6412(15) 0.8872(10)
H26 H 0.406(5) 0.6594(15) 0.8059(9)
H27 H 1.036(7) 0.170(2) 0.9063(11)
H28 H 0.446(6) 0.3648(16) 0.9561(10)
H29 H 0.361(7) 0.916(2) 0.8674(14)
#END
