
#######################################################################
#
#                 Cambridge Crystallographic Data Centre
#                                CCDC
#
#######################################################################
#
# If this CIF has been generated from an entry in the Cambridge
# Structural Database, then it will include bibliographic, chemical,
# crystal, experimental, refinement or atomic coordinate data resulting
# from the CCDC's data processing and validation procedures.
#
#######################################################################

data_CSD_CIF_RASDEU
_audit_creation_date 2001-11-22
_audit_creation_method CSD-ConQuest-V1
_database_code_CSD RASDEU
_database_code_depnum_ccdc_archive 'CCDC 1246857'
_chemical_formula_sum 'C9 H7 N1 O5'
_chemical_formula_moiety
;
C9 H7 N1 O5
;
_journal_coden_Cambridge 119
_journal_volume 520
_journal_year 2000
_journal_page_first 191
_journal_name_full 'J.Mol.Struct. '
loop_
_publ_author_name
"A.J.M.Carpy"
"P.P.Haasbroek"
"J.Ouhabi"
"D.W.Oliver"
_chemical_name_systematic
;
o-nitrophenylpyruvic acid
;
_chemical_melting_point 393.15
_cell_volume    900.289
_exptl_crystal_density_diffrn 1.54
_exptl_special_details
;
Melting point range 393.15-395.15K

;
_exptl_crystal_preparation 'benzene'
_diffrn_ambient_temperature 296
#These two values have been output from a single CSD field.
_refine_ls_R_factor_gt 0.061
_refine_ls_wR_factor_gt 0.061
_symmetry_cell_setting monoclinic
_symmetry_space_group_name_H-M 'P 21/c'
_symmetry_Int_Tables_number 14
loop_
_symmetry_equiv_pos_site_id
_symmetry_equiv_pos_as_xyz
1 x,y,z
2 -x,1/2+y,1/2-z
3 -x,-y,-z
4 x,-1/2-y,-1/2+z
_cell_length_a 12.765(5)
_cell_length_b 5.149(12)
_cell_length_c 14.951(3)
_cell_angle_alpha 90
_cell_angle_beta 113.63(1)
_cell_angle_gamma 90
_cell_formula_units_Z 4
loop_
_atom_type_symbol
_atom_type_radius_bond
C 0.68
N 0.68
O 0.68
loop_
_atom_site_label
_atom_site_type_symbol
_atom_site_fract_x
_atom_site_fract_y
_atom_site_fract_z
C1 C 0.6594(3) 0.5544(8) 0.1425(3)
C2 C 0.7317(3) 0.3579(8) 0.1987(3)
C3 C 0.7398(4) 0.3347(9) 0.2940(3)
C4 C 0.6807(4) 0.496(1) 0.3311(3)
C5 C 0.6105(4) 0.6891(9) 0.2734(3)
C6 C 0.5987(3) 0.7161(9) 0.1784(3)
N1 N 0.6433(3) 0.5978(7) 0.0404(2)
O1 O 0.7025(3) 0.4817(8) 0.0068(2)
O2 O 0.5703(3) 0.7529(7) -0.0081(2)
C7 C 0.8008(3) 0.1789(8) 0.1647(3)
C8 C 0.8981(3) 0.3123(8) 0.1526(3)
O3 O 0.9399(3) 0.5148(6) 0.1914(2)
C9 C 0.9480(3) 0.1762(8) 0.0871(3)
O4 O 0.9009(3) -0.0166(6) 0.0413(2)
O5 O 1.0390(3) 0.2833(6) 0.0854(2)
#END
