
#######################################################################
#
#                 Cambridge Crystallographic Data Centre
#                                CCDC
#
#######################################################################
#
# If this CIF has been generated from an entry in the Cambridge
# Structural Database, then it will include bibliographic, chemical,
# crystal, experimental, refinement or atomic coordinate data resulting
# from the CCDC's data processing and validation procedures.
#
#######################################################################

data_CSD_CIF_RASZIU
_audit_creation_date 1997-07-29
_audit_creation_method CSD-ConQuest-V1
_database_code_CSD RASZIU
_database_code_depnum_ccdc_archive 'CCDC 128617'
_chemical_formula_sum 'C11 H17 N3 O3'
_chemical_formula_moiety
;
C11 H17 N3 O3
;
_journal_coeditor_code "IUCr AB1425"
_journal_coden_Cambridge 591
_journal_volume 53
_journal_year 1997
_journal_page_first 640
_journal_name_full 'Acta Crystallogr.,Sect.C:Cryst.Struct.Commun. '
loop_
_publ_author_name
"A.Hazell"
"J.Overgaard"
"S.K.Lausen"
"Hongjuan Hu"
"Lian Ee Khoo"
_chemical_name_systematic
;
2-(2-(Dimethylamino)ethylammoniomethyl)-4-nitrophenolate
;
_chemical_melting_point 431
_cell_volume   2505.651
_exptl_crystal_colour 'yellow'
_exptl_crystal_density_diffrn 1.269
_exptl_special_details
;
Melting point range 431-432K

;
_diffrn_ambient_temperature ?
_diffrn_special_details
;
The study was carried out at room temperature,in the range 283-303K

;
#These two values have been output from a single CSD field.
_refine_ls_R_factor_gt 0.065
_refine_ls_wR_factor_gt 0.065
_symmetry_cell_setting monoclinic
_symmetry_space_group_name_H-M 'C 2/c'
_symmetry_Int_Tables_number 15
loop_
_symmetry_equiv_pos_site_id
_symmetry_equiv_pos_as_xyz
1 x,y,z
2 -x,y,1/2-z
3 1/2+x,1/2+y,z
4 1/2-x,1/2+y,1/2-z
5 -x,-y,-z
6 x,-y,-1/2+z
7 -1/2-x,-1/2-y,-z
8 -1/2+x,-1/2-y,-1/2+z
_cell_length_a 19.818(4)
_cell_length_b 6.676(2)
_cell_length_c 20.035(4)
_cell_angle_alpha 90
_cell_angle_beta 109.044(11)
_cell_angle_gamma 90
_cell_formula_units_Z 8
loop_
_atom_type_symbol
_atom_type_radius_bond
C 0.68
H 0.23
N 0.68
O 0.68
loop_
_atom_site_label
_atom_site_type_symbol
_atom_site_fract_x
_atom_site_fract_y
_atom_site_fract_z
O1 O 0.1777(1) 0.4668(4) 0.2296(1)
O2 O -0.1260(1) 0.4592(4) 0.0074(1)
O3 O -0.0912(1) 0.1613(5) -0.0070(1)
N1 N -0.0801(1) 0.3277(5) 0.0211(1)
N2 N 0.2326(1) 0.1830(5) 0.1694(1)
N3 N 0.3328(1) 0.4737(4) 0.1574(1)
C1 C 0.1172(2) 0.4379(5) 0.1802(2)
C2 C 0.0628(2) 0.5841(5) 0.1608(2)
C3 C -0.0006(2) 0.5485(5) 0.1085(2)
C4 C -0.0121(1) 0.3653(5) 0.0740(1)
C5 C 0.0401(1) 0.2192(5) 0.0905(1)
C6 C 0.1043(1) 0.2523(5) 0.1433(1)
C7 C 0.1613(1) 0.0967(5) 0.1646(1)
C8 C 0.2442(2) 0.2130(5) 0.1010(1)
C9 C 0.3185(2) 0.2951(6) 0.1138(2)
C10 C 0.2927(2) 0.6441(6) 0.1200(2)
C11 C 0.4085(2) 0.5192(7) 0.1817(2)
H1 H 0.233(2) 0.301(6) 0.194(2)
H2 H 0.267(2) 0.108(5) 0.200(2)
H3 H 0.07000 0.70900 0.18500
H4 H -0.03700 0.64900 0.09600
H5 H 0.03200 0.09600 0.06500
H6 H 0.16400 0.04400 0.20900
H7 H 0.15000 -0.00800 0.13100
H8 H 0.21000 0.30500 0.07300
H9 H 0.23900 0.08900 0.07700
H10 H 0.35200 0.19500 0.13700
H11 H 0.32400 0.32700 0.07000
H12 H 0.30200 0.76100 0.14900
H13 H 0.24300 0.61400 0.10600
H14 H 0.30600 0.66800 0.07900
H15 H 0.41800 0.63600 0.21000
H16 H 0.42400 0.54000 0.14200
H17 H 0.43400 0.40900 0.20900
#END
