
#######################################################################
#
#                 Cambridge Crystallographic Data Centre
#                                CCDC
#
#######################################################################
#
# If this CIF has been generated from an entry in the Cambridge
# Structural Database, then it will include bibliographic, chemical,
# crystal, experimental, refinement or atomic coordinate data resulting
# from the CCDC's data processing and validation procedures.
#
#######################################################################

data_CSD_CIF_RATBUJ
_audit_creation_date 1997-07-29
_audit_creation_method CSD-ConQuest-V1
_database_code_CSD RATBUJ
_database_code_depnum_ccdc_archive 'CCDC 128652'
_chemical_formula_sum 'C16 H23 N3 O3'
_chemical_formula_moiety
;
C16 H23 N3 O3
;
_journal_coeditor_code "IUCr KA1198"
_journal_coden_Cambridge 591
_journal_volume 53
_journal_year 1997
_journal_page_first 651
_journal_name_full 'Acta Crystallogr.,Sect.C:Cryst.Struct.Commun. '
loop_
_publ_author_name
"J.Gonzalez-Platas"
"C.Ruiz-Perez"
"M.Torres"
"C.Yanes"
_chemical_name_systematic
;
3-Acetamido-4-(N-cyclo-octylamino)nitrobenzene
;
_chemical_melting_point 448.5
_cell_volume   3250.088
_exptl_crystal_colour 'yellow'
_exptl_crystal_density_diffrn 1.248
_exptl_special_details
;
Melting point range 448.5-449.5K

;
_diffrn_ambient_temperature ?
_diffrn_special_details
;
The study was carried out at room temperature,in the range 283-303K

;
_refine_special_details
;
The cyclo-octane ring is disordered over two positions.

;
#These two values have been output from a single CSD field.
_refine_ls_R_factor_gt 0.0639
_refine_ls_wR_factor_gt 0.0639
_symmetry_cell_setting orthorhombic
_symmetry_space_group_name_H-M 'P c 21 b'
_symmetry_Int_Tables_number 29
loop_
_symmetry_equiv_pos_site_id
_symmetry_equiv_pos_as_xyz
1 x,y,z
2 -x,1/2+y,-z
3 -x,y,1/2+z
4 x,1/2+y,1/2-z
_cell_length_a 9.556(3)
_cell_length_b 18.257(3)
_cell_length_c 18.629(3)
_cell_angle_alpha 90
_cell_angle_beta 90
_cell_angle_gamma 90
_cell_formula_units_Z 8
loop_
_atom_type_symbol
_atom_type_radius_bond
C 0.68
H 0.23
N 0.68
O 0.68
loop_
_atom_site_label
_atom_site_type_symbol
_atom_site_fract_x
_atom_site_fract_y
_atom_site_fract_z
O1 O 0.2068(3) 0.1707(3) -0.1388(2)
O2 O 0.0707(6) -0.1149(4) -0.2932(3)
O3 O 0.0146(5) -0.0002(4) -0.2909(3)
N1 N 0.5754(4) 0.0136(2) -0.1218(3)
H1 H 0.5895(4) 0.0589(2) -0.1113(3)
N2 N 0.4140(4) 0.1278(2) -0.1752(3)
H2 H 0.5001(4) 0.1388(2) -0.1831(3)
N3 N 0.0913(6) -0.0503(4) -0.2759(3)
C1 C 0.4614(5) -0.0026(3) -0.1606(3)
C2 C 0.3745(5) 0.0547(3) -0.1872(3)
C3 C 0.2542(5) 0.0377(3) -0.2239(3)
H3 H 0.1967(5) 0.0749(3) -0.2411(3)
C4 C 0.2189(5) -0.0348(4) -0.2354(3)
C5 C 0.3027(6) -0.0912(4) -0.2111(3)
H4 H 0.2777(6) -0.1396(4) -0.2195(3)
C6 C 0.4223(5) -0.0751(3) -0.1748(3)
H5 H 0.4794(5) -0.1131(3) -0.1590(3)
C7 C 0.6778(5) -0.0399(3) -0.0957(3)
H6 H 0.6269(5) -0.0831(3) -0.0786(3)
C8 C 0.7732(6) -0.0636(4) -0.1575(4)
H7 H 0.7279(6) -0.0511(4) -0.2025(4)
H8 H 0.8594(6) -0.0357(4) -0.1548(4)
H9? H 0.8160(6) -0.0201(4) -0.1778(4)
H10? H 0.7155(6) -0.0854(4) -0.1946(4)
C9 C 0.8092(17) -0.1434(8) -0.1588(9)
H11 H 0.8573(17) -0.1531(8) -0.2036(9)
H12 H 0.7219(17) -0.1705(8) -0.1602(9)
C10? C 0.891(2) -0.1185(14) -0.1383(14)
H13? H 0.925(2) -0.1352(14) -0.1846(14)
H14? H 0.965(2) -0.0876(14) -0.1194(14)
C11 C 0.8969(14) -0.1756(7) -0.0992(7)
H15 H 0.9216(14) -0.2250(7) -0.1138(7)
H16 H 0.9833(14) -0.1478(7) -0.0977(7)
H17? H 0.9947(14) -0.1897(7) -0.0974(7)
H18? H 0.8491(14) -0.2139(7) -0.1258(7)
C12 C 0.8451(12) -0.1804(5) -0.0255(6)
H19 H 0.7474(12) -0.1943(5) -0.0289(6)
H20 H 0.8934(12) -0.2215(5) -0.0036(6)
C13 C 0.8511(18) -0.1249(5) 0.0228(6)
H21 H 0.9270(18) -0.1366(5) 0.0554(6)
H22 H 0.7656(18) -0.1277(5) 0.0507(6)
H23? H 0.9506(18) -0.1182(5) 0.0306(6)
H24? H 0.8161(18) -0.1469(5) 0.0666(6)
C14 C 0.869(2) -0.0472(12) 0.0029(17)
H25 H 0.950(2) -0.0444(12) -0.0286(17)
H26 H 0.893(2) -0.0208(12) 0.0464(17)
C15? C 0.796(3) -0.052(2) 0.0251(18)
H27? H 0.7157(30) -0.0547(20) 0.0565(18)
H28? H 0.8661(30) -0.0237(20) 0.0510(18)
C16 C 0.7541(7) -0.0060(4) -0.0323(4)
H29 H 0.7923(7) 0.0405(4) -0.0482(4)
H30 H 0.6847(7) 0.0049(4) 0.0042(4)
H31? H 0.8370(7) 0.0182(4) -0.0507(4)
H32? H 0.6942(7) 0.0318(4) -0.0124(4)
C17 C 0.3309(5) 0.1822(3) -0.1526(3)
C18 C 0.3969(7) 0.2546(4) -0.1430(4)
H33 H 0.4936(7) 0.2519(4) -0.1568(4)
H34 H 0.3903(7) 0.2689(4) -0.0936(4)
H35 H 0.3498(7) 0.2900(4) -0.1725(4)
O4 O 0.7071(3) 0.1650(2) -0.1458(2)
O5 O 0.5668(5) 0.2434(3) 0.1597(3)
O6 O 0.5206(5) 0.2784(3) 0.0520(3)
N4 N 1.0762(4) 0.1074(2) -0.0017(2)
H36 H 1.0929(4) 0.1103(2) -0.0470(2)
N5 N 0.9182(4) 0.1903(2) -0.0968(2)
H37 H 1.0042(4) 0.2009(2) -0.1057(2)
N6 N 0.5950(5) 0.2467(3) 0.0961(3)
C19 C 0.9618(4) 0.1421(2) 0.0228(3)
C20 C 0.8780(4) 0.1840(3) -0.0246(2)
C21 C 0.7584(5) 0.2178(3) 0.0006(3)
H38 H 0.7032(5) 0.2454(3) -0.0304(3)
C22 C 0.7212(5) 0.2108(3) 0.0712(3)
C23 C 0.8008(6) 0.1712(3) 0.1181(3)
H39 H 0.7744(6) 0.1677(3) 0.1660(3)
C24 C 0.9192(6) 0.1369(3) 0.0946(3)
H40 H 0.9723(6) 0.1096(3) 0.1268(3)
C25 C 1.1748(5) 0.0650(3) 0.0417(3)
H41 H 1.1201(5) 0.0365(3) 0.0764(3)
C26 C 1.2675(7) 0.1168(4) 0.0840(4)
H42 H 1.2087(7) 0.1547(4) 0.1044(4)
H43? H 1.3312(7) 0.1403(4) 0.0507(4)
C27 C 1.3549(9) 0.0827(6) 0.1453(5)
H44 H 1.3929(9) 0.1223(6) 0.1740(5)
H45? H 1.2923(9) 0.0548(6) 0.1758(5)
C28 C 1.4697(8) 0.0352(7) 0.1239(6)
H46 H 1.5502(8) 0.0470(7) 0.1535(6)
H47? H 1.4943(8) 0.0467(7) 0.0747(6)
C29 C 1.4431(13) -0.0480(7) 0.1292(6)
H48 H 1.5195(13) -0.0730(7) 0.1051(6)
H49 H 1.4468(13) -0.0618(7) 0.1794(6)
C30 C 1.3049(10) -0.0769(5) 0.0978(5)
H50 H 1.3013(10) -0.1294(5) 0.1060(5)
H51 H 1.2286(10) -0.0552(5) 0.1246(5)
C31 C 1.2797(9) -0.0640(4) 0.0221(4)
H52 H 1.2007(9) -0.0944(4) 0.0086(4)
H53 H 1.3603(9) -0.0828(4) -0.0036(4)
C32 C 1.2516(6) 0.0107(4) -0.0068(3)
H54 H 1.1975(6) 0.0054(4) -0.0505(3)
H55 H 1.3406(6) 0.0324(4) -0.0200(3)
C33 C 0.8307(4) 0.1810(3) -0.1535(3)
C34 C 0.8967(6) 0.1894(5) -0.2254(3)
H56 H 0.9937(6) 0.2019(5) -0.2197(3)
H57 H 0.8499(6) 0.2276(5) -0.2515(3)
H58 H 0.8892(6) 0.1442(5) -0.2514(3)
#END
