
#######################################################################
#
#                 Cambridge Crystallographic Data Centre
#                                CCDC
#
#######################################################################
#
# If this CIF has been generated from an entry in the Cambridge
# Structural Database, then it will include bibliographic, chemical,
# crystal, experimental, refinement or atomic coordinate data resulting
# from the CCDC's data processing and validation procedures.
#
#######################################################################

data_CSD_CIF_RATBIZ
_audit_creation_date 2012-06-01
_audit_creation_method CSD-ConQuest-V1
_database_code_CSD RATBIZ
_database_code_depnum_ccdc_archive 'CCDC 764733'
_chemical_formula_sum 'C18 H18 N2 O3'
_chemical_formula_moiety
;
C18 H18 N2 O3
;
_journal_coden_Cambridge 1291
_journal_year 2012
_journal_page_first 1418
_journal_name_full 'Eur.J.Org.Chem. '
loop_
_publ_author_name
"P.Quadrelli"
"F.Lunghi"
"B.Bovio"
"W.Gautschi"
"P.Caramella"
_chemical_name_systematic
;
6-Ethoxy-3,7a-diphenyl-7,7a-dihydro-6H-[1,2]oxazolo[2,3-d][1,2,4]oxadiazole
;
_cell_volume   1601.072
_exptl_crystal_colour 'colorless'
_exptl_crystal_density_diffrn 1.29
_exptl_special_details
;
We calculate 31% void space in the structure

;
_exptl_crystal_description 'Prisms'
_diffrn_ambient_temperature 293
#These two values have been output from a single CSD field.
_refine_ls_R_factor_gt 0.0461
_refine_ls_wR_factor_gt 0.0461
_symmetry_cell_setting monoclinic
_symmetry_space_group_name_H-M 'P 21'
_symmetry_Int_Tables_number 4
loop_
_symmetry_equiv_pos_site_id
_symmetry_equiv_pos_as_xyz
1 x,y,z
2 1/2-x,1/2+y,-z
_cell_length_a 12.236(1)
_cell_length_b 7.4646(2)
_cell_length_c 18.130(2)
_cell_angle_alpha 90
_cell_angle_beta 104.79(2)
_cell_angle_gamma 90
_cell_formula_units_Z 4
loop_
_atom_type_symbol
_atom_type_radius_bond
C 0.88
H 0.28
N 0.68
O 0.68
loop_
_atom_site_label
_atom_site_type_symbol
_atom_site_fract_x
_atom_site_fract_y
_atom_site_fract_z
O1 O 0.47119(9) 0.16938(19) 0.84224(6)
N1 N 0.49414(11) 0.15409(21) 0.77010(7)
C1 C 0.40074(13) 0.16957(21) 0.71973(9)
N2 N 0.30278(10) 0.17785(19) 0.74825(7)
O2 O 0.24361(9) 0.34765(17) 0.72642(6)
C2 C 0.29276(16) 0.47412(27) 0.78502(10)
C3 C 0.31680(22) 0.36581(26) 0.85670(11)
C4 C 0.3500(13) 0.18215(23) 0.83214(8)
O3 O 0.39134(10) 0.54811(17) 0.77391(6)
C5 C 0.37317(22) 0.66175(36) 0.70803(14)
C6 C 0.48309(28) 0.70657(42) 0.69252(19)
C7 C 0.39017(13) 0.17004(22) 0.63751(9)
C8 C 0.48118(16) 0.22033(30) 0.60939(11)
C9 C 0.47068(19) 0.21962(39) 0.53170(12)
C10 C 0.37102(19) 0.16938(39) 0.48225(12)
C11 C 0.28144(18) 0.11839(37) 0.50967(11)
C12 C 0.29029(16) 0.11839(29) 0.58713(10)
C13 C 0.31006(13) 0.02519(22) 0.87130(8)
C14 C 0.38500(16) -0.08336(26) 0.92192(10)
C15 C 0.34397(20) -0.21781(28) 0.96024(11)
C16 C 0.23089(19) -0.24788(29) 0.94791(11)
C17 C 0.15580(17) -0.14203(28) 0.89688(11)
C18 C 0.19521(15) -0.00506(27) 0.85911(10)
H1 H 0.2359(15) 0.5608(26) 0.7822(10)
H2 H 0.2483(19) 0.3544(29) 0.8747(12)
H3 H 0.3767(17) 0.4158(29) 0.8955(11)
H4 H 0.3329(22) 0.7693(35) 0.7202(14)
H5 H 0.3219(21) 0.5892(35) 0.6648(14)
H6 H 0.4696(20) 0.7812(33) 0.6466(15)
H7 H 0.5252(22) 0.6004(40) 0.6857(14)
H8 H 0.5244(24) 0.7820(43) 0.7411(18)
H9 H 0.550(13) 0.2555(37) 0.6438(12)
H10 H 0.5328(19) 0.2540(33) 0.5132(13)
H11 H 0.3639(17) 0.1603(27) 0.4274(13)
H12 H 0.2172(19) 0.0718(29) 0.4782(12)
H13 H 0.2260(15) 0.0826(24) 0.6059(10)
H14 H 0.4672(17) -0.0668(25) 0.9318(10)
H15 H 0.3942(17) -0.2891(27) 0.9964(12)
H16 H 0.2035(16) -0.3426(28) 0.9745(11)
H17 H 0.0759(18) -0.1652(28) 0.8867(11)
H18 H 0.1454(15) 0.0651(25) 0.8233(10)
#END
