
#######################################################################
#
#                 Cambridge Crystallographic Data Centre
#                                CCDC
#
#######################################################################
#
# If this CIF has been generated from an entry in the Cambridge
# Structural Database, then it will include bibliographic, chemical,
# crystal, experimental, refinement or atomic coordinate data resulting
# from the CCDC's data processing and validation procedures.
#
#######################################################################

data_CSD_CIF_RATGOJ
_audit_creation_date 2005-11-21
_audit_creation_method CSD-ConQuest-V1
_database_code_CSD RATGOJ
_database_code_depnum_ccdc_archive 'CCDC 277415'
_chemical_formula_sum 'C11 H11 N1 O2'
_chemical_formula_moiety
;
C11 H11 N1 O2
;
_journal_coden_Cambridge 1078
_journal_year 2005
_journal_name_full 'CSD Communication(Private Communication) '
loop_
_publ_author_name
"A.-K.Probst"
"H.Zipse"
"K.Polborn"
_chemical_name_systematic
;
3-Phenyl-3a,5,6,6a-tetrahydrofuro(2,3-d)isoxazole
;
_cell_volume   1900.983
_exptl_crystal_colour 'colorless'
_exptl_crystal_density_diffrn 1.322
_exptl_special_details
;
contribution from Department Chemie, Universitat Munchen, Butenandtstr. 5-13, 
81377 Munchen, Germany
;
_exptl_crystal_description 'platelet'
_diffrn_ambient_temperature 295
#These two values have been output from a single CSD field.
_refine_ls_R_factor_gt 0.0388
_refine_ls_wR_factor_gt 0.0388
_symmetry_cell_setting orthorhombic
_symmetry_space_group_name_H-M 'P c a 21'
_symmetry_Int_Tables_number 29
loop_
_symmetry_equiv_pos_site_id
_symmetry_equiv_pos_as_xyz
1 x,y,z
2 -x,-y,1/2+z
3 1/2-x,y,1/2+z
4 1/2+x,-y,z
_cell_length_a 23.270(4)
_cell_length_b 9.7605(11)
_cell_length_c 8.3697(12)
_cell_angle_alpha 90
_cell_angle_beta 90
_cell_angle_gamma 90
_cell_formula_units_Z 8
loop_
_atom_type_symbol
_atom_type_radius_bond
C 0.68
H 0.23
N 0.68
O 0.68
loop_
_atom_site_label
_atom_site_type_symbol
_atom_site_fract_x
_atom_site_fract_y
_atom_site_fract_z
O1 O -0.36853(11) 0.2276(3) 0.4281(4)
O2 O -0.24949(13) 0.0449(2) 0.4242(6)
N1 N -0.22890(14) 0.1808(3) 0.4251(5)
C1 C -0.26677(15) 0.2608(4) 0.4828(5)
C2 C -0.32153(15) 0.1894(4) 0.5278(6)
H1 H -0.33060 0.20230 0.64110
C3 C -0.3675(2) 0.1367(6) 0.2967(7)
H2 H -0.33990 0.16700 0.21720
H3 H -0.40510 0.13070 0.24720
C4 C -0.3499(2) -0.0003(6) 0.3665(9)
H4 H -0.38240 -0.04730 0.41400
H5 H -0.33250 -0.05880 0.28620
C5 C -0.30684(19) 0.0420(4) 0.4911(8)
H6 H -0.30900 -0.01600 0.58650
C6 C -0.25520(15) 0.4075(3) 0.5006(5)
C7 C -0.20129(17) 0.4605(4) 0.4732(6)
H7 H -0.17170 0.40260 0.44160
C8 C -0.1907(2) 0.5986(5) 0.4923(7)
H8 H -0.15400 0.63310 0.47460
C9 C -0.2340(2) 0.6848(5) 0.5373(7)
H9 H -0.22690 0.77810 0.54800
C10 C -0.2874(2) 0.6347(5) 0.5664(7)
H10 H -0.31670 0.69330 0.59860
C11 C -0.29819(18) 0.4960(5) 0.5479(6)
H11 H -0.33490 0.46220 0.56760
O3 O 0.06567(10) 0.2738(3) 0.1734(4)
O4 O -0.04089(12) 0.4656(3) 0.3015(4)
N2 N -0.06068(13) 0.3311(3) 0.3326(4)
C12 C -0.03538(15) 0.2462(3) 0.2400(5)
C13 C 0.00862(15) 0.3115(3) 0.1321(5)
H12 H 0.00040 0.29320 0.01930
C14 C 0.08551(18) 0.3729(4) 0.2872(6)
H13 H 0.12710 0.37820 0.28720
H14 H 0.07240 0.35030 0.39400
C15 C 0.0593(2) 0.5060(4) 0.2309(6)
H15 H 0.05610 0.57120 0.31790
H16 H 0.08180 0.54640 0.14550
C16 C 0.00136(18) 0.4619(4) 0.1725(6)
H17 H -0.01110 0.51540 0.07980
C17 C -0.04822(14) 0.1000(3) 0.2459(4)
C18 C -0.09338(16) 0.0487(4) 0.3361(5)
H18 H -0.11620 0.10870 0.39460
C19 C -0.10490(17) -0.0890(4) 0.3403(6)
H19 H -0.13520 -0.12170 0.40180
C20 C -0.07170(17) -0.1793(4) 0.2535(6)
H20 H -0.07960 -0.27260 0.25680
C21 C -0.02721(17) -0.1314(4) 0.1628(6)
H21 H -0.00500 -0.19250 0.10400
C22 C -0.01499(16) 0.0083(4) 0.1578(5)
H22 H 0.01530 0.04030 0.09570
#END
