
#######################################################################
#
#                 Cambridge Crystallographic Data Centre
#                                CCDC
#
#######################################################################
#
# If this CIF has been generated from an entry in the Cambridge
# Structural Database, then it will include bibliographic, chemical,
# crystal, experimental, refinement or atomic coordinate data resulting
# from the CCDC's data processing and validation procedures.
#
#######################################################################

data_CSD_CIF_RAVBIZ
_audit_creation_date 1997-07-29
_audit_creation_method CSD-ConQuest-V1
_database_code_CSD RAVBIZ
_database_code_depnum_ccdc_archive 'CCDC 1246972'
_database_code_depnum_ccdc_fiz 'CSD 405748'
_chemical_formula_sum 'C26 H28 N3 O2'
_chemical_formula_moiety
;
C26 H28 N3 O2
;
_journal_coden_Cambridge 167
_journal_year 1997
_journal_page_first 473
_journal_name_full 'Liebigs Ann. '
loop_
_publ_author_name
"M.R.Gleiter"
"B.Kanellakopulos"
"C.Krieger"
"F.A.Neugebauer"
_chemical_name_systematic
;
3,7-Di-t-butyl-10-(4-nitrophenyl)phenazin-5(10H)-yl radical
;
_chemical_melting_point 490.15
_cell_volume   2430.211
_exptl_crystal_colour 'black'
_exptl_crystal_density_diffrn 1.13
_exptl_special_details
;
Melts with decomposition.

;
_diffrn_ambient_temperature ?
_diffrn_special_details
;
The study was carried out at room temperature,in the range 283-303K

;
#These two values have been output from a single CSD field.
_refine_ls_R_factor_gt 0.056
_refine_ls_wR_factor_gt 0.056
_symmetry_cell_setting monoclinic
_symmetry_space_group_name_H-M 'P 21'
_symmetry_Int_Tables_number 4
loop_
_symmetry_equiv_pos_site_id
_symmetry_equiv_pos_as_xyz
1 x,y,z
2 -x,1/2+y,-z
_cell_length_a 12.918(3)
_cell_length_b 12.701(3)
_cell_length_c 15.124(4)
_cell_angle_alpha 90
_cell_angle_beta 101.66(3)
_cell_angle_gamma 90
_cell_formula_units_Z 4
loop_
_atom_type_symbol
_atom_type_radius_bond
C 0.68
H 0.23
N 0.68
O 0.68
loop_
_atom_site_label
_atom_site_type_symbol
_atom_site_fract_x
_atom_site_fract_y
_atom_site_fract_z
C1 C 0.7628(4) 0.21720 0.1916(4)
C2 C 0.6767(4) 0.1872(5) 0.1294(4)
C3 C 0.6659(4) 0.0872(5) 0.0901(4)
C4 C 0.7437(4) 0.0163(4) 0.1203(3)
C5 C 0.8353(4) 0.0423(4) 0.1851(3)
N1 N 0.9117(3) -0.0326(3) 0.2088(3)
C6 C 1.0023(4) -0.0029(4) 0.2666(3)
C7 C 1.0843(4) -0.0746(4) 0.2866(4)
C8 C 1.1833(4) -0.0507(5) 0.3400(4)
C9 C 1.1943(4) 0.0507(5) 0.3769(4)
C10 C 1.1147(4) 0.1239(5) 0.3597(4)
C11 C 1.0189(4) 0.0986(4) 0.3043(3)
N2 N 0.9357(3) 0.1721(3) 0.2827(2)
C12 C 0.8456(3) 0.1449(4) 0.2211(3)
C13 C 0.9522(4) 0.2785(4) 0.3130(3)
C14 C 0.9924(4) 0.3512(5) 0.2633(3)
C15 C 1.0066(5) 0.4537(5) 0.2918(4)
C16 C 0.9802(5) 0.4798(4) 0.3685(4)
C17 C 0.9411(6) 0.4106(5) 0.4195(4)
C18 C 0.9250(5) 0.3088(5) 0.3913(4)
N3 N 0.9950(5) 0.5931(5) 0.4004(4)
O1 O 1.0260(4) 0.6537(4) 0.3542(4)
O2 O 0.9671(7) 0.6170(5) 0.4664(4)
C19 C 0.5669(5) 0.0611(6) 0.0178(5)
C20 C 0.568(1) 0.1284(9) -0.0622(6)
C21 C 0.5626(7) -0.0529(8) -0.0062(6)
C22 C 0.4684(6) 0.082(1) 0.0576(9)
C23 C 1.2740(5) -0.1274(6) 0.3573(6)
C24 C 1.2531(7) -0.2233(9) 0.2925(9)
C25 C 1.3709(5) -0.0773(8) 0.3412(9)
C26 C 1.2886(7) -0.1711(7) 0.4467(7)
H1 H 0.771(3) 0.284(4) 0.216(3)
H2 H 0.630(3) 0.236(4) 0.098(3)
H3 H 0.745(3) -0.056(4) 0.103(3)
H4 H 1.079(3) -0.137(3) 0.259(2)
H5 H 1.257(3) 0.072(3) 0.426(2)
H6 H 1.139(4) 0.191(4) 0.380(3)
H7 H 0.998(3) 0.330(4) 0.207(3)
H8 H 1.058(5) 0.493(6) 0.300(4)
H9 H 0.909(4) 0.442(5) 0.458(3)
H10 H 0.905(3) 0.264(4) 0.420(3)
H11 H 0.50450 0.11600 -0.10560
H12 H 0.56280 0.20120 -0.04050
H13 H 0.62710 0.11910 -0.08300
H14 H 0.49880 -0.07000 -0.05110
H15 H 0.62130 -0.07560 -0.02890
H16 H 0.55780 -0.09680 0.04610
H17 H 0.40560 0.07200 0.01270
H18 H 0.46820 0.04650 0.10910
H19 H 0.46940 0.15990 0.07110
H20 H 1.31420 -0.27220 0.31150
H21 H 1.19350 -0.26330 0.30730
H22 H 1.24410 -0.20740 0.23520
H23 H 1.43050 -0.12420 0.34930
H24 H 1.36270 -0.04690 0.28200
H25 H 1.38840 -0.02120 0.38440
H26 H 1.34250 -0.22150 0.46430
H27 H 1.30670 -0.11150 0.49120
H28 H 1.22400 -0.20010 0.46320
C27 C 0.8283(4) 0.7130(4) 0.1845(3)
C28 C 0.8831(4) 0.6883(5) 0.1198(3)
C29 C 0.8751(4) 0.5889(5) 0.0768(4)
C30 C 0.8075(4) 0.5175(4) 0.1041(3)
C31 C 0.7485(3) 0.5400(4) 0.1701(3)
N4 N 0.6825(3) 0.4648(3) 0.1913(3)
C32 C 0.6234(4) 0.4907(4) 0.2523(3)
C33 C 0.5470(4) 0.4168(4) 0.2692(4)
C34 C 0.4785(4) 0.4377(5) 0.3255(4)
C35 C 0.4892(4) 0.5350(5) 0.3706(4)
C36 C 0.5619(4) 0.6065(5) 0.3552(3)
C37 C 0.6282(4) 0.5890(4) 0.2961(3)
N5 N 0.7004(3) 0.6627(3) 0.2769(3)
C38 C 0.7604(4) 0.6399(4) 0.2114(3)
C39 C 0.7041(4) 0.7663(4) 0.3129(3)
C40 C 0.6330(4) 0.8390(4) 0.2747(4)
C41 C 0.6387(5) 0.9415(5) 0.3075(4)
C42 C 0.7150(4) 0.9645(4) 0.3811(4)
C43 C 0.7865(6) 0.8944(6) 0.4167(5)
C44 C 0.7800(5) 0.7977(6) 0.3833(5)
N6 N 0.7165(5) 1.0765(5) 0.4127(4)
O3 O 0.6550(6) 1.1366(5) 0.3810(5)
O4 O 0.7967(7) 1.0945(5) 0.4759(5)
C45 C 0.9345(5) 0.5646(6) 0.0019(4)
C46 C 0.9012(9) 0.6341(8) -0.0760(5)
C47 C 0.9350(7) 0.4548(8) -0.0221(5)
C48 C 1.0555(7) 0.586(1) 0.0442(6)
C49 C 0.3931(5) 0.3607(6) 0.3367(4)
C50 C 0.4110(7) 0.3180(8) 0.4286(6)
C51 C 0.2890(6) 0.410(1) 0.312(1)
C52 C 0.3877(8) 0.2653(9) 0.2736(8)
H29 H 0.841(3) 0.775(4) 0.222(3)
H30 H 0.926(4) 0.738(5) 0.101(4)
H31 H 0.800(2) 0.447(3) 0.085(2)
H32 H 0.552(3) 0.345(3) 0.241(2)
H33 H 0.431(3) 0.555(3) 0.416(3)
H34 H 0.557(3) 0.654(4) 0.382(3)
H35 H 0.574(3) 0.817(3) 0.226(2)
H36 H 0.590(3) 0.984(3) 0.281(2)
H37 H 0.849(4) 0.922(5) 0.480(4)
H38 H 0.822(2) 0.763(3) 0.385(2)
H39 H 0.94380 0.61830 -0.11940
H40 H 0.83230 0.62980 -0.09710
H41 H 0.92270 0.70500 -0.05300
H42 H 0.97420 0.44040 -0.06700
H43 H 0.97140 0.41360 0.03260
H44 H 0.86660 0.42620 -0.03770
H45 H 1.10000 0.57460 0.00300
H46 H 1.06360 0.65880 0.06450
H47 H 1.07930 0.54300 0.09700
H48 H 0.35940 0.26780 0.43920
H49 H 0.47990 0.28380 0.44670
H50 H 0.41150 0.37410 0.47350
H51 H 0.23280 0.36030 0.31040
H52 H 0.28150 0.46960 0.33980
H53 H 0.28040 0.42810 0.24320
H54 H 0.37890 0.27930 0.21780
H55 H 0.45670 0.22440 0.29570
H56 H 0.33580 0.21450 0.28950
#END
