
#######################################################################
#
#                 Cambridge Crystallographic Data Centre
#                                CCDC
#
#######################################################################
#
# If this CIF has been generated from an entry in the Cambridge
# Structural Database, then it will include bibliographic, chemical,
# crystal, experimental, refinement or atomic coordinate data resulting
# from the CCDC's data processing and validation procedures.
#
#######################################################################

data_CSD_CIF_RAVCUM
_audit_creation_date 1997-07-28
_audit_creation_method CSD-ConQuest-V1
_database_code_CSD RAVCUM
_chemical_formula_sum 'C18 H23 N2 O4'
_chemical_formula_moiety
;
C18 H23 N2 O4
;
_journal_coden_Cambridge 4
_journal_volume 119
_journal_year 1997
_journal_page_first 4136
_journal_name_full 'J.Am.Chem.Soc. '
loop_
_publ_author_name
"M.Crisma"
"G.Valle"
"F.Formaggio"
"C.Toniolo"
"A.Bagno"
_chemical_name_systematic
;
2,2,6,6-Tetramethyl-1-oxypiperidine-4-spiro-4'-(2-benzyloxy-5(4H)-oxazolone)
;
_cell_volume   1828.508
_exptl_crystal_colour 'orange'
_exptl_crystal_density_diffrn 1.204
_diffrn_ambient_temperature ?
_diffrn_special_details
;
The study was carried out at room temperature,in the range 283-303K

;
#These two values have been output from a single CSD field.
_refine_ls_R_factor_gt 0.056
_refine_ls_wR_factor_gt 0.056
_symmetry_cell_setting monoclinic
_symmetry_space_group_name_H-M 'P 21/n'
_symmetry_Int_Tables_number 14
loop_
_symmetry_equiv_pos_site_id
_symmetry_equiv_pos_as_xyz
1 x,y,z
2 1/2-x,1/2+y,1/2-z
3 -x,-y,-z
4 -1/2+x,-1/2-y,-1/2+z
_cell_length_a 11.868(2)
_cell_length_b 12.290(2)
_cell_length_c 12.866(2)
_cell_angle_alpha 90
_cell_angle_beta 103.0(2)
_cell_angle_gamma 90
_cell_formula_units_Z 4
loop_
_atom_type_symbol
_atom_type_radius_bond
C 0.68
H 0.23
N 0.68
O 0.68
loop_
_atom_site_label
_atom_site_type_symbol
_atom_site_fract_x
_atom_site_fract_y
_atom_site_fract_z
O1 O -0.0096(1) 0.5340(1) 0.8778(1)
O2 O 0.1704(1) 0.5743(1) 0.9620(1)
O3 O 0.3644(2) 0.5763(2) 1.0211(2)
O4 O 0.3595(2) 0.1319(1) 0.7913(2)
N1 N 0.1402(2) 0.4116(2) 0.8757(2)
N2 N 0.3451(2) 0.2237(2) 0.8350(2)
C1 C -0.3633(1) 0.6610(2) 0.6242(2)
C2 C -0.3868(1) 0.5751(2) 0.6870(2)
C3 C -0.2965(1) 0.5123(2) 0.7453(2)
C4 C -0.1826(1) 0.5352(2) 0.7407(2)
C5 C -0.1590(1) 0.6211(2) 0.6778(2)
C6 C -0.2494(1) 0.6839(2) 0.6196(2)
C7 C -0.0865(2) 0.4653(2) 0.7994(3)
C8 C 0.0982(2) 0.4989(2) 0.9016(2)
C9 C 0.2797(2) 0.5299(2) 0.9735(2)
C10 C 0.2658(2) 0.4209(2) 0.9156(2)
C11 C 0.3298(2) 0.4249(2) 0.8254(2)
C12 C 0.3253(2) 0.3195(2) 0.7618(2)
C13 C 0.4231(3) 0.3214(3) 0.7014(3)
C14 C 0.2088(3) 0.3050(3) 0.6820(3)
C15 C 0.3166(2) 0.2169(2) 0.9408(2)
C16 C 0.1983(3) 0.1616(3) 0.9289(4)
C17 C 0.4085(4) 0.1470(3) 1.0124(4)
C18 C 0.3189(3) 0.3304(2) 0.9928(2)
H1 H -0.426(5) 0.699(5) 0.574(4)
H2 H -0.482(3) 0.546(3) 0.696(3)
H3 H -0.309(3) 0.445(3) 0.789(3)
H4 H -0.066(4) 0.632(3) 0.685(3)
H5 H -0.228(3) 0.752(3) 0.573(3)
H6 H -0.030(3) 0.440(3) 0.740(3)
H7 H -0.105(3) 0.405(3) 0.845(2)
H8 H 0.299(2) 0.483(2) 0.775(2)
H9 H 0.419(3) 0.443(2) 0.868(2)
H10 H 0.490(3) 0.321(3) 0.747(3)
H11 H 0.430(3) 0.248(3) 0.665(3)
H12 H 0.416(4) 0.381(4) 0.659(3)
H13 H 0.202(3) 0.247(3) 0.632(3)
H14 H 0.137(3) 0.299(3) 0.720(3)
H15 H 0.200(3) 0.365(3) 0.623(3)
H16 H 0.203(2) 0.087(3) 0.891(2)
H17 H 0.131(4) 0.200(4) 0.890(3)
H18 H 0.191(3) 0.145(3) 0.997(3)
H19 H 0.402(4) 0.071(4) 0.986(3)
H20 H 0.385(3) 0.138(3) 1.086(3)
H21 H 0.477(4) 0.182(4) 1.014(4)
H22 H 0.281(2) 0.322(2) 1.048(2)
H23 H 0.397(2) 0.350(2) 1.023(2)
#END
