
#######################################################################
#
#                 Cambridge Crystallographic Data Centre
#                                CCDC
#
#######################################################################
#
# If this CIF has been generated from an entry in the Cambridge
# Structural Database, then it will include bibliographic, chemical,
# crystal, experimental, refinement or atomic coordinate data resulting
# from the CCDC's data processing and validation procedures.
#
#######################################################################

data_CSD_CIF_RAVNAD
_audit_creation_date 1997-07-29
_audit_creation_method CSD-ConQuest-V1
_database_code_CSD RAVNAD
_database_code_depnum_ccdc_archive 'CCDC 128732'
_chemical_formula_sum 'C51 H50 N2 O20'
_chemical_formula_moiety
;
C51 H50 N2 O20
;
_journal_coeditor_code "IUCr FG1246"
_journal_coden_Cambridge 591
_journal_volume 53
_journal_year 1997
_journal_page_first 742
_journal_name_full 'Acta Crystallogr.,Sect.C:Cryst.Struct.Commun. '
loop_
_publ_author_name
"K.A.Abboud"
"S.S.Toporek"
"B.A.Horenstein"
_chemical_name_systematic
;
2,3-Di-O-benzoyl-1-O-p-nitrophenyl-6-O-pivaloyl-4-O-(3',4',6'-tri-O-acetyl-2'-
deoxy-2'-N-phthalimido-\b-D-1'-glucopyranosyl)-\b-D-glucopyranose
;
_chemical_melting_point 473
_cell_volume   2473.578
_exptl_crystal_colour 'colorless'
_exptl_crystal_density_diffrn 1.357
_exptl_special_details
;
Melting point range 473-474K

;
_diffrn_ambient_temperature 173
#These two values have been output from a single CSD field.
_refine_ls_R_factor_gt 0.045
_refine_ls_wR_factor_gt 0.045
_symmetry_cell_setting monoclinic
_symmetry_space_group_name_H-M 'P 21'
_symmetry_Int_Tables_number 4
loop_
_symmetry_equiv_pos_site_id
_symmetry_equiv_pos_as_xyz
1 x,y,z
2 -x,1/2+y,-z
_cell_length_a 7.0923(2)
_cell_length_b 23.1347(5)
_cell_length_c 15.1181(3)
_cell_angle_alpha 90
_cell_angle_beta 94.297(1)
_cell_angle_gamma 90
_cell_formula_units_Z 2
loop_
_atom_type_symbol
_atom_type_radius_bond
C 0.68
H 0.23
N 0.68
O 0.68
loop_
_atom_site_label
_atom_site_type_symbol
_atom_site_fract_x
_atom_site_fract_y
_atom_site_fract_z
O1 O 0.2232(3) 0.6434(1) 0.49531(14)
O2 O 0.1163(3) 0.66886(9) 0.66910(15)
O3 O -0.1798(3) 0.6452(1) 0.6179(2)
O4 O 0.1707(3) 0.57941(9) 0.79354(14)
O5 O 0.7920(3) 0.35748(10) 0.95194(14)
O6 O 0.3525(4) 0.63850(13) 0.8833(2)
O7 O 0.8049(4) 0.28646(13) 0.8521(2)
O8 O 0.5149(3) 0.50840(9) 0.76981(13)
O9 O 0.4328(3) 0.34727(10) 1.02753(14)
O10 O 0.6393(4) 0.35647(14) 1.1474(2)
O11 O 0.3798(3) 0.56435(9) 0.54829(13)
O12 O 0.3907(3) 0.47945(9) 0.89730(13)
O13 O 0.1099(5) 0.48232(15) 1.1784(2)
O14 O 0.6254(3) 0.48050(11) 0.49778(14)
O15 O 0.3215(3) 0.49144(11) 1.07694(14)
O16 O 0.9126(4) 0.48999(12) 0.5696(2)
O17 O 0.8107(6) 0.7241(2) 0.2299(2)
O18 O 0.5568(6) 0.7192(2) 0.1424(2)
O19 O 0.4471(3) 0.34361(10) 0.71877(15)
O20 O 1.0227(3) 0.43038(11) 0.7775(2)
N1 N 0.6421(7) 0.7146(2) 0.2151(3)
N2 N 0.7137(3) 0.39779(12) 0.7622(2)
C1 C 0.3188(4) 0.61954(14) 0.5719(2)
H1 H 0.4267(4) 0.64375(14) 0.5924(2)
C2 C 0.4645(4) 0.45992(13) 0.8175(2)
H2 H 0.3708(4) 0.43654(13) 0.7825(2)
C3 C 0.1835(4) 0.61289(14) 0.6442(2)
H3 H 0.0775(4) 0.58766(14) 0.6246(2)
C4 C 0.6450(4) 0.42463(14) 0.8421(2)
H4 H 0.7428(4) 0.45100(14) 0.8674(2)
C5 C 0.2973(4) 0.58690(14) 0.7248(2)
H5 H 0.3991(4) 0.61345(14) 0.7452(2)
C6 C 0.6117(4) 0.37800(14) 0.9106(2)
H6 H 0.5451(4) 0.34548(14) 0.8808(2)
C7 C 0.3818(4) 0.52879(14) 0.6998(2)
H7 H 0.2807(4) 0.50028(14) 0.6881(2)
C8 C 0.4992(4) 0.39857(14) 0.9858(2)
H8 H 0.5774(4) 0.42215(14) 1.0281(2)
C9 C 0.4929(4) 0.53587(14) 0.6177(2)
H9 H 0.6092(4) 0.55783(14) 0.6326(2)
C10 C 0.3254(4) 0.43229(14) 0.9478(2)
H10 H 0.2483(4) 0.40678(14) 0.9080(2)
C11 C 0.5396(5) 0.4774(2) 0.5811(2)
H11 H 0.6251(5) 0.4574(2) 0.6239(2)
H12 H 0.4245(5) 0.4547(2) 0.5730(2)
C12 C 0.2038(5) 0.4553(2) 1.0172(2)
H13 H 0.0999(5) 0.4777(2) 0.9895(2)
H14 H 0.1517(5) 0.4236(2) 1.0496(2)
C13 C 0.3354(5) 0.65902(14) 0.4277(2)
C14 C 0.2396(5) 0.6739(2) 0.3476(2)
H15 H 0.1084(5) 0.6714(2) 0.3413(2)
C15 C 0.3360(6) 0.6921(2) 0.2776(2)
H16 H 0.2719(6) 0.7019(2) 0.2238(2)
C16 C 0.5316(6) 0.6956(2) 0.2889(3)
C17 C 0.6280(6) 0.6812(2) 0.3678(3)
H17 H 0.7590(6) 0.6844(2) 0.3741(3)
C18 C 0.5308(5) 0.6618(2) 0.4378(2)
H18 H 0.5956(5) 0.6508(2) 0.4909(2)
C19 C -0.0705(5) 0.68013(15) 0.6516(2)
C20 C -0.1238(4) 0.73910(15) 0.6783(2)
C21 C -0.3024(5) 0.7592(2) 0.6478(2)
H19 H -0.3830(5) 0.7355(2) 0.6126(2)
C22 C -0.3606(5) 0.8141(2) 0.6696(3)
H20 H -0.4798(5) 0.8274(2) 0.6492(3)
C23 C -0.2401(5) 0.8492(2) 0.7221(3)
H21 H -0.2791(5) 0.8861(2) 0.7371(3)
C24 C -0.0626(5) 0.8300(2) 0.7523(3)
H22 H 0.0175(5) 0.8539(2) 0.7873(3)
C25 C -0.0038(5) 0.7752(2) 0.7306(2)
H23 H 0.1160(5) 0.7624(2) 0.7508(2)
C26 C 0.2131(5) 0.60978(15) 0.8702(2)
C27 C 0.0647(5) 0.60307(14) 0.9336(2)
C28 C -0.1110(5) 0.5778(2) 0.9103(2)
H24 H -0.1371(5) 0.5631(2) 0.8534(2)
C29 C -0.2460(5) 0.5746(2) 0.9713(3)
H25 H -0.3634(5) 0.5580(2) 0.9559(3)
C30 C -0.2042(6) 0.5962(2) 1.0556(3)
H26 H -0.2943(6) 0.5938(2) 1.0971(3)
C31 C -0.0335(6) 0.6208(2) 1.0792(3)
H27 H -0.0081(6) 0.6350(2) 1.1364(3)
C32 C 0.1032(5) 0.6249(2) 1.0182(2)
H28 H 0.2192(5) 0.6422(2) 1.0340(2)
C33 C 0.2552(6) 0.5019(2) 1.1561(2)
C34 C 0.3862(7) 0.5408(2) 1.2103(3)
H29 H 0.4925(7) 0.5503(2) 1.1773(3)
H30 H 0.4297(7) 0.5215(2) 1.2643(3)
H31 H 0.3207(7) 0.5756(2) 1.2242(3)
C35 C 0.5285(5) 0.3277(2) 1.1038(2)
C36 C 0.4725(6) 0.2670(2) 1.1207(3)
H32 H 0.3805(6) 0.2547(2) 1.0747(3)
H33 H 0.4189(6) 0.2647(2) 1.1770(3)
H34 H 0.5817(6) 0.2425(2) 1.1212(3)
C37 C 0.8627(5) 0.30748(15) 0.9217(2)
C38 C 1.0219(5) 0.2852(2) 0.9815(3)
H35 H 1.0397(5) 0.3098(2) 1.0326(3)
H36 H 1.1353(5) 0.2848(2) 0.9506(3)
H37 H 0.9936(5) 0.2467(2) 1.0000(3)
C39 C 0.6089(4) 0.35808(14) 0.7091(2)
C40 C 0.7341(5) 0.33996(14) 0.6394(2)
C41 C 0.6935(5) 0.30605(15) 0.5655(2)
H38 H 0.5736(5) 0.29054(15) 0.5528(2)
C42 C 0.8389(6) 0.2959(2) 0.5108(3)
H39 H 0.8167(6) 0.2730(2) 0.4605(3)
C43 C 1.0167(6) 0.3196(2) 0.5303(2)
H40 H 1.1125(6) 0.3120(2) 0.4932(2)
C44 C 1.0546(5) 0.3548(2) 0.6046(2)
H41 H 1.1737(5) 0.3708(2) 0.6177(2)
C45 C 0.9088(4) 0.36475(15) 0.6578(2)
C46 C 0.9011(4) 0.40161(15) 0.7386(2)
C47 C 0.8159(5) 0.48519(15) 0.5009(2)
C48 C 0.8865(5) 0.4851(2) 0.4086(2)
C49 C 0.8526(6) 0.5466(2) 0.3704(2)
H42 H 0.8956(6) 0.5484(2) 0.3118(2)
H43 H 0.9213(6) 0.5741(2) 0.4078(2)
H44 H 0.7201(6) 0.5554(2) 0.3680(2)
C50 C 0.7774(5) 0.4412(2) 0.3486(2)
H45 H 0.8244(5) 0.4419(2) 0.2907(2)
H46 H 0.6454(5) 0.4510(2) 0.3440(2)
H47 H 0.7938(5) 0.4032(2) 0.3736(2)
C51 C 1.0964(5) 0.4716(2) 0.4148(2)
H48 H 1.1411(5) 0.4715(2) 0.3564(2)
H49 H 1.1177(5) 0.4343(2) 0.4415(2)
H50 H 1.1633(5) 0.5004(2) 0.4504(2)
#END
