
#######################################################################
#
#                 Cambridge Crystallographic Data Centre
#                                CCDC
#
#######################################################################
#
# If this CIF has been generated from an entry in the Cambridge
# Structural Database, then it will include bibliographic, chemical,
# crystal, experimental, refinement or atomic coordinate data resulting
# from the CCDC's data processing and validation procedures.
#
#######################################################################

data_CSD_CIF_RAVVAO
_audit_creation_date 2017-05-31
_audit_creation_method CSD-ConQuest-V1
_database_code_CSD RAVVAO
_database_code_depnum_ccdc_archive 'CCDC 1477201'
_chemical_formula_sum 'C13 H21 N1 O3'
_chemical_formula_moiety
;
C13 H21 N1 O3
;
_journal_coden_Cambridge 392
_journal_volume 92
_journal_year 2016
_journal_page_first 1479
_journal_name_full 'Heterocycles '
loop_
_publ_author_name
"T.Moriyama"
"T.Kawamoto"
"H.Uno"
"A.Kamimura"
_chemical_name_systematic
;
4-cyclohexyl-3-methyl-5-nitrobicyclo[3.1.0]hexan-2-ol
;
_cell_volume   2586.238
_exptl_crystal_colour 'colorless'
_exptl_crystal_density_diffrn 1.229
_exptl_crystal_description 'block'
_diffrn_ambient_temperature 110
#These two values have been output from a single CSD field.
_refine_ls_R_factor_gt 0.0502
_refine_ls_wR_factor_gt 0.0502
_symmetry_cell_setting orthorhombic
_symmetry_space_group_name_H-M 'P 21 21 21'
_symmetry_Int_Tables_number 19
loop_
_symmetry_equiv_pos_site_id
_symmetry_equiv_pos_as_xyz
1 x,y,z
2 1/2+x,1/2-y,-z
3 -x,1/2+y,1/2-z
4 1/2-x,-y,1/2+z
_cell_length_a 7.316(2)
_cell_length_b 10.722(3)
_cell_length_c 32.97(1)
_cell_angle_alpha 90
_cell_angle_beta 90
_cell_angle_gamma 90
_cell_formula_units_Z 8
loop_
_atom_type_symbol
_atom_type_radius_bond
C 0.68
H 0.23
N 0.68
O 0.68
loop_
_atom_site_label
_atom_site_type_symbol
_atom_site_fract_x
_atom_site_fract_y
_atom_site_fract_z
O1 O 0.9238(2) 1.13698(11) 0.52791(4)
H1 H 1.000(3) 1.1464(3) 0.5076(7)
O2 O 0.3985(2) 0.79461(13) 0.50618(4)
O3 O 0.5627(2) 0.67102(11) 0.54296(4)
N1 N 0.5178(2) 0.77583(14) 0.53196(5)
C1 C 0.6997(3) 0.96925(18) 0.51742(6)
H2 H 0.6862(4) 0.9479(5) 0.4879(7)
C2 C 0.8851(3) 1.00693(16) 0.53338(5)
H3 H 0.981(2) 0.9567(12) 0.5199(3)
C3 C 0.8816(3) 0.97582(18) 0.57892(6)
H4 H 0.8265(14) 1.0459(17) 0.5930(4)
C4 C 0.7516(3) 0.86269(17) 0.58337(5)
H5 H 0.8263(16) 0.7830(17) 0.57652(15)
C5 C 0.6166(3) 0.88351(17) 0.54896(6)
C6 C 0.5345(3) 1.01063(16) 0.54087(6)
H6 H 0.4140(18) 1.01409(18) 0.5261(2)
H7 H 0.5519(3) 1.0773(10) 0.5621(3)
C7 C 1.0706(3) 0.9555(2) 0.59664(7)
H8 H 1.1306(12) 0.8828(13) 0.5827(4)
H9 H 1.0598(3) 0.9376(15) 0.6265(4)
H10 H 1.1466(13) 1.0326(12) 0.5925(4)
C8 C 0.6736(3) 0.84618(17) 0.62654(6)
H11 H 0.776(2) 0.84346(19) 0.6444(4)
C9 C 0.5528(3) 0.95294(18) 0.64125(6)
H12 H 0.4422(18) 0.9570(2) 0.6244(3)
H13 H 0.6189(10) 1.0322(13) 0.63818(8)
C10 C 0.4983(4) 0.9358(2) 0.68563(7)
H14 H 0.4171(14) 1.0037(12) 0.69378(16)
H15 H 0.6073(19) 0.9394(2) 0.7027(3)
C11 C 0.4015(3) 0.8108(2) 0.69198(6)
H16 H 0.3767(6) 0.7985(3) 0.7218(5)
H17 H 0.280(2) 0.8120(2) 0.6774(2)
C12 C 0.5150(3) 0.70345(19) 0.67642(6)
H18 H 0.4419(12) 0.6231(13) 0.67874(7)
H19 H 0.6289(19) 0.6945(3) 0.6939(3)
C13 C 0.5715(3) 0.72315(18) 0.63226(6)
H20 H 0.6521(12) 0.6522(11) 0.62341(15)
H21 H 0.4594(18) 0.72285(18) 0.6146(3)
O4 O 0.6543(2) 0.31816(13) 0.53555(4)
H22 H 0.738(3) 0.265(2) 0.5330(4)
O5 O 1.0060(2) 0.62841(13) 0.65261(5)
O6 O 1.1583(2) 0.62518(14) 0.59627(5)
N2 N 1.0489(2) 0.57950(15) 0.62035(5)
C14 C 0.8806(3) 0.46082(18) 0.56612(6)
H23 H 0.8932(4) 0.5336(17) 0.5497(4)
C15 C 0.6959(3) 0.39873(17) 0.56888(6)
H24 H 0.603(2) 0.4651(15) 0.56935(6)
C16 C 0.6896(3) 0.33184(19) 0.61029(6)
H25 H 0.7274(9) 0.249(2) 0.60639(11)
C17 C 0.8308(3) 0.39676(18) 0.63847(5)
H26 H 0.7670(14) 0.4601(14) 0.6552(4)
C18 C 0.9574(3) 0.46251(17) 0.60882(5)
C19 C 1.0483(3) 0.38634(18) 0.57621(6)
H27 H 1.1690(18) 0.4168(5) 0.56534(17)
H28 H 1.0357(3) 0.2929(14) 0.57767(6)
C20 C 0.4942(3) 0.3299(2) 0.62598(7)
H29 H 0.4494(9) 0.4179(12) 0.6296(4)
H30 H 0.4901(4) 0.2853(14) 0.6528(4)
H31 H 0.4138(12) 0.2853(13) 0.6060(3)
C21 C 0.9325(3) 0.30539(18) 0.66673(6)
H32 H 0.9909(13) 0.2393(14) 0.6490(4)
C22 C 0.8031(3) 0.2388(2) 0.69598(6)
H33 H 0.7043(16) 0.1910(8) 0.6793(3)
H34 H 0.7362(11) 0.3052(11) 0.7137(3)
C23 C 0.9023(3) 0.1465(2) 0.72383(7)
H35 H 0.8085(16) 0.1086(7) 0.7446(3)
H36 H 0.9552(9) 0.0730(13) 0.7063(3)
C24 C 1.0570(3) 0.2086(2) 0.74694(7)
H37 H 1.1270(12) 0.1430(11) 0.7632(3)
H38 H 1.0043(9) 0.2720(11) 0.7669(3)
C25 C 1.1873(3) 0.2743(2) 0.71785(7)
H39 H 1.2892(17) 0.3213(8) 0.7346(3)
H40 H 1.2524(11) 0.2073(11) 0.6993(3)
C26 C 1.0860(3) 0.3675(2) 0.69126(6)
H41 H 1.1752(14) 0.4079(7) 0.6720(3)
H42 H 1.0322(9) 0.4349(11) 0.7089(3)
#END
