
#######################################################################
#
#                 Cambridge Crystallographic Data Centre
#                                CCDC
#
#######################################################################
#
# If this CIF has been generated from an entry in the Cambridge
# Structural Database, then it will include bibliographic, chemical,
# crystal, experimental, refinement or atomic coordinate data resulting
# from the CCDC's data processing and validation procedures.
#
#######################################################################

data_CSD_CIF_RAWNUA
_audit_creation_date 2012-07-11
_audit_creation_method CSD-ConQuest-V1
_database_code_CSD RAWNUA
_database_code_depnum_ccdc_archive 'CCDC 849705'
_chemical_formula_sum 'C17 H15 N1 O2'
_chemical_formula_moiety
;
C17 H15 N1 O2
;
_journal_coden_Cambridge 1336
_journal_volume 14
_journal_year 2012
_journal_page_first 2418
_journal_name_full 'Org.Lett. '
loop_
_publ_author_name
"Liangguang Wang"
"Xiaoqiang Yu"
"Xiujuan Feng"
"Ming Bao"
_chemical_name_systematic
;
5-(4-Methoxybenzyl)-3-phenyl-1,2-oxazole
;
_cell_volume    689.483
_exptl_crystal_colour 'colorless'
_exptl_crystal_density_diffrn 1.278
_exptl_crystal_description 'needle'
_diffrn_ambient_temperature 293
#These two values have been output from a single CSD field.
_refine_ls_R_factor_gt 0.0328
_refine_ls_wR_factor_gt 0.0328
_symmetry_cell_setting monoclinic
_symmetry_space_group_name_H-M 'P 21'
_symmetry_Int_Tables_number 4
loop_
_symmetry_equiv_pos_site_id
_symmetry_equiv_pos_as_xyz
1 x,y,z
2 -x,1/2+y,-z
_cell_length_a 8.6503(5)
_cell_length_b 5.6960(3)
_cell_length_c 14.1476(9)
_cell_angle_alpha 90
_cell_angle_beta 98.468(4)
_cell_angle_gamma 90
_cell_formula_units_Z 2
loop_
_atom_type_symbol
_atom_type_radius_bond
C 0.68
H 0.23
N 0.68
O 0.68
loop_
_atom_site_label
_atom_site_type_symbol
_atom_site_fract_x
_atom_site_fract_y
_atom_site_fract_z
C1 C 0.81923(17) 0.2854(3) 0.4152(1)
C2 C 0.69040(18) 0.5807(3) -0.04946(10)
C3 C 0.75040(17) 0.2756(3) 0.50389(10)
C4 C 0.89249(17) 0.5343(3) 0.12177(11)
N1 N 0.82681(19) 0.0975(3) 0.36351(10)
C5 C 0.6598(2) 0.0867(3) 0.52442(11)
H1 H 0.64330 -0.03810 0.48180
O1 O 0.89774(15) 0.1701(2) 0.28467(8)
C6 C 0.79237(19) 0.3934(3) -0.03494(12)
H2 H 0.79380 0.28160 -0.08270
C7 C 0.6889(2) 0.7448(3) 0.02124(11)
H3 H 0.62060 0.87170 0.01230
C8 C 0.6165(2) 0.2643(4) 0.67085(12)
H4 H 0.57100 0.26110 0.72640
C9 C 0.92893(19) 0.4024(4) 0.29331(12)
C10 C 1.0016(2) 0.5117(4) 0.21532(12)
H5 H 1.09130 0.41850 0.20470
H6 H 1.03930 0.66670 0.23570
C11 C 0.7727(2) 0.4581(3) 0.56909(12)
H7 H 0.83300 0.58670 0.55690
C12 C 0.7903(2) 0.7196(3) 0.10628(12)
H8 H 0.78900 0.83130 0.15410
C13 C 0.89174(19) 0.3711(3) 0.04981(12)
H9 H 0.95960 0.24380 0.05870
C14 C 0.5942(2) 0.0819(4) 0.60696(12)
H10 H 0.53400 -0.04620 0.61970
C15 C 0.7066(2) 0.4511(4) 0.65182(13)
H11 H 0.72320 0.57460 0.69520
C16 C 0.8825(2) 0.4818(3) 0.37284(12)
H12 H 0.89010 0.63480 0.39600
O2 O 0.59680(14) 0.5860(3) -0.13638(8)
C17 C 0.4905(2) 0.7748(5) -0.15585(14)
H13 H 0.43240 0.75630 -0.21860
H14 H 0.54720 0.92020 -0.15260
H15 H 0.41990 0.77610 -0.10950
#END
