
#######################################################################
#
#                 Cambridge Crystallographic Data Centre
#                                CCDC
#
#######################################################################
#
# If this CIF has been generated from an entry in the Cambridge
# Structural Database, then it will include bibliographic, chemical,
# crystal, experimental, refinement or atomic coordinate data resulting
# from the CCDC's data processing and validation procedures.
#
#######################################################################

data_CSD_CIF_RAYDUT
_audit_creation_date 2017-06-01
_audit_creation_method CSD-ConQuest-V1
_database_code_CSD RAYDUT
_database_code_depnum_ccdc_archive 'CCDC 1518391'
_chemical_formula_sum 'C18 H31 N3 O2'
_chemical_formula_moiety
;
C18 H31 N3 O2
;
_journal_coden_Cambridge 423
_journal_volume 41
_journal_year 2017
_journal_page_first 235
_journal_name_full 'J.Chem.Res. '
loop_
_publ_author_name
"M.John Plater"
"W.T.A.Harrison"
"L.M.M.de los Toyos"
"L.Hendry"
_chemical_name_systematic
;
N,N'-dihexyl-4-nitrobenzene-1,3-diamine
;
_chemical_name_common
;
2,4-bis(hexylamino)nitrobenzene
;
_cell_volume   5663.567
_exptl_crystal_colour 'orange'
_exptl_crystal_density_diffrn 1.131
_exptl_crystal_description 'rod'
_diffrn_ambient_temperature 100
_refine_special_details
;
C15Z,C16Z,C17Z,C18Z and C15C,C16C,C17C,C18C disordered over two sites with 
occupancies 0.507:0.493; C18X and C18A disordered over two sites with 
occupancies 0.541:0.459; C18Y and C18B disordered over two sites with 
occupancies 0.561:0.439.
;
#These two values have been output from a single CSD field.
_refine_ls_R_factor_gt 0.0626
_refine_ls_wR_factor_gt 0.0626
_symmetry_cell_setting triclinic
_symmetry_space_group_name_H-M 'P -1'
_symmetry_Int_Tables_number 2
loop_
_symmetry_equiv_pos_site_id
_symmetry_equiv_pos_as_xyz
1 x,y,z
2 -x,-y,-z
_cell_length_a 18.3214(3)
_cell_length_b 18.6127(4)
_cell_length_c 20.0953(4)
_cell_angle_alpha 104.147(2)
_cell_angle_beta 105.226(2)
_cell_angle_gamma 111.987(2)
_cell_formula_units_Z 12
loop_
_atom_type_symbol
_atom_type_radius_bond
C 0.68
H 0.23
N 0.68
O 0.68
loop_
_atom_site_label
_atom_site_type_symbol
_atom_site_fract_x
_atom_site_fract_y
_atom_site_fract_z
C1 C 0.49965(11) 0.26746(11) 0.49664(10)
C2 C 0.53997(11) 0.28653(10) 0.44637(10)
C3 C 0.52493(11) 0.34128(10) 0.41385(10)
H1 H 0.55110 0.35520 0.38060
C4 C 0.47247(11) 0.37566(10) 0.42929(10)
C5 C 0.43412(11) 0.35651(11) 0.48036(10)
H2 H 0.39900 0.38030 0.49170
C6 C 0.44814(11) 0.30431(11) 0.51234(10)
H3 H 0.42260 0.29210 0.54640
C7 C 0.62912(11) 0.26576(11) 0.37693(10)
H4 H 0.66990 0.32600 0.39440
H5 H 0.58490 0.24920 0.32750
C8 C 0.67605(11) 0.21420(11) 0.37023(10)
H6 H 0.63520 0.15450 0.35510
H7 H 0.72100 0.23230 0.41980
C9 C 0.71728(12) 0.22217(12) 0.31421(11)
H8 H 0.75820 0.28190 0.32930
H9 H 0.67240 0.20410 0.26470
C10 C 0.76430(12) 0.17035(12) 0.30754(11)
H10 H 0.80680 0.18630 0.35770
H11 H 0.72260 0.11040 0.29000
C11 C 0.81002(14) 0.18047(14) 0.25517(12)
H12 H 0.85130 0.24040 0.27210
H13 H 0.76760 0.16340 0.20460
C12 C 0.85771(15) 0.12882(16) 0.25095(13)
H14 H 0.88600 0.13770 0.21640
H15 H 0.90070 0.14630 0.30070
H16 H 0.81700 0.06920 0.23310
C13 C 0.49213(12) 0.45469(11) 0.34727(10)
H17 H 0.48270 0.40570 0.30630
H18 H 0.55470 0.49090 0.37490
C14 C 0.45284(12) 0.50351(12) 0.31457(11)
H19 H 0.45970 0.55080 0.35570
H20 H 0.39080 0.46640 0.28500
C15 C 0.49431(14) 0.53752(13) 0.26486(12)
H21 H 0.55630 0.57480 0.29460
H22 H 0.48780 0.49020 0.22400
C16 C 0.45517(15) 0.58615(15) 0.23126(13)
H23 H 0.39260 0.54960 0.20430
H24 H 0.46440 0.63490 0.27240
C17 C 0.49092(18) 0.6175(2) 0.17795(17)
H25 H 0.48670 0.57060 0.14010
H26 H 0.45610 0.63900 0.15300
C18 C 0.5783(4) 0.6665(6) 0.2021(5)
H27 H 0.59130 0.68160 0.16170
H28 H 0.59780 0.71750 0.24510
H29 H 0.60770 0.63490 0.21670
N1 N 0.58919(9) 0.25242(9) 0.42936(8)
H30 H 0.59780 0.21950 0.45180
N2 N 0.45517(9) 0.42624(9) 0.39709(8)
H31 H 0.41890 0.44310 0.40710
N3 N 0.5077(1) 0.21274(9) 0.53086(9)
O1 O 0.55360(8) 0.17769(8) 0.52005(7)
O2 O 0.46937(9) 0.19736(9) 0.57264(8)
C19? C 0.5817(5) 0.7046(7) 0.2300(5)
H32? H 0.60720 0.72720 0.19780
H33? H 0.57050 0.74600 0.26030
H34? H 0.62140 0.69240 0.26290
C20 C 0.24384(11) 0.51751(10) 0.47932(10)
C21 C 0.22672(11) 0.5695(1) 0.44206(9)
C22 C 0.17178(11) 0.60089(10) 0.4583(1)
H35 H 0.15870 0.63480 0.43380
C23 C 0.13592(11) 0.58365(10) 0.50934(10)
C24 C 0.15412(11) 0.53167(11) 0.5454(1)
H36 H 0.12970 0.51910 0.58000
C25 C 0.20624(11) 0.50018(11) 0.5304(1)
H37 H 0.21790 0.46560 0.55480
C26 C 0.25056(11) 0.64335(11) 0.35626(10)
H38 H 0.27200 0.70000 0.39380
H39 H 0.18900 0.62140 0.32630
C27 C 0.29952(11) 0.64849(11) 0.3059(1)
H40 H 0.27880 0.59130 0.26970
H41 H 0.36100 0.67080 0.33660
C28 C 0.28995(12) 0.70377(11) 0.26334(10)
H42 H 0.31150 0.76120 0.29950
H43 H 0.22840 0.68200 0.23340
C29 C 0.33789(12) 0.70789(11) 0.21172(10)
H44 H 0.40000 0.73390 0.24230
H45 H 0.31970 0.65010 0.17840
C30 C 0.32324(12) 0.75718(12) 0.16420(11)
H46 H 0.26120 0.73140 0.13370
H47 H 0.34180 0.81520 0.19740
C31 C 0.37098(14) 0.76030(13) 0.11279(12)
H48 H 0.35920 0.79280 0.08360
H49 H 0.43260 0.78700 0.14260
H50 H 0.35200 0.70310 0.07890
C32 C 0.05779(12) 0.66571(11) 0.49288(11)
H51 H 0.02410 0.63260 0.43870
H52 H 0.10880 0.71550 0.49910
C33 C 0.00387(12) 0.69402(12) 0.52716(11)
H53 H 0.04030 0.73490 0.57910
H54 H -0.04150 0.64510 0.52870
C34 C -0.03755(15) 0.73453(14) 0.48247(14)
H55 H 0.00820 0.78300 0.48080
H56 H -0.07350 0.69340 0.43050
C35 C -0.09169(16) 0.76394(16) 0.51393(15)
H57 H -0.05500 0.80680 0.56510
H58 H -0.13570 0.71600 0.51770
C36 C -0.13645(19) 0.80116(18) 0.46836(16)
H59 H -0.16180 0.82670 0.49680
H60 H -0.09400 0.84510 0.46100
C37 C -0.1897(6) 0.7498(5) 0.3852(4)
H61 H -0.21450 0.78110 0.36320
H62 H -0.15310 0.73880 0.36080
H63 H -0.23580 0.69640 0.37830
N4 N 0.26171(9) 0.58823(9) 0.39358(8)
H64 H 0.29380 0.56530 0.38370
N5 N 0.08518(9) 0.61509(9) 0.52747(8)
H65 H 0.06760 0.60430 0.56240
N6 N 0.29733(9) 0.48255(9) 0.46836(8)
O3 O 0.33179(8) 0.49388(8) 0.42247(7)
O4 O 0.31069(8) 0.43945(8) 0.50408(7)
C38? C -0.2210(5) 0.7277(4) 0.4031(4)
H66? H -0.25040 0.75080 0.37340
H67? H -0.20700 0.69030 0.37130
H68? H -0.25840 0.69600 0.42390
C39 C -0.01624(11) 0.53000(11) 0.73028(10)
C40 C -0.06624(11) 0.56902(10) 0.74911(10)
C41 C -0.09715(11) 0.55376(11) 0.80399(10)
H69 H -0.13060 0.57880 0.81730
C42 C -0.07978(11) 0.50257(11) 0.83941(10)
C43 C -0.02995(11) 0.46441(11) 0.81948(11)
H70 H -0.01790 0.42950 0.84330
C44 C 0.00014(11) 0.47797(11) 0.76659(10)
H71 H 0.03300 0.45200 0.75350
C45 C -0.13787(12) 0.65634(11) 0.72788(11)
H72 H -0.11400 0.69420 0.78090
H73 H -0.19580 0.61180 0.71590
C46 C -0.14347(12) 0.70543(11) 0.67817(10)
H74 H -0.16650 0.66710 0.62540
H75 H -0.08520 0.74930 0.69030
C47 C -0.19998(12) 0.74648(12) 0.68695(11)
H76 H -0.17800 0.78320 0.74000
H77 H -0.25870 0.70230 0.67320
C48 C -0.20386(12) 0.79822(12) 0.63925(11)
H78 H -0.14480 0.83930 0.64990
H79 H -0.23030 0.76060 0.58590
C49 C -0.25451(13) 0.84496(12) 0.65282(12)
H80 H -0.31300 0.80410 0.64370
H81 H -0.22690 0.88400 0.70580
C50 C -0.26070(14) 0.89428(13) 0.60346(13)
H82 H -0.29390 0.92300 0.61460
H83 H -0.20300 0.93580 0.61300
H84 H -0.28920 0.85590 0.55090
C51 C -0.16192(12) 0.51790(11) 0.91774(11)
H85 H -0.21570 0.49930 0.87510
H86 H -0.13130 0.58000 0.93900
C52 C -0.18275(13) 0.48650(14) 0.97650(11)
H87 H -0.12980 0.50270 1.01700
H88 H -0.21450 0.42570 0.95490
C53 C -0.2502(3) 0.4974(3) 1.0017(2)
H89 H -0.26840 0.45980 1.02810
H90 H -0.30110 0.48310 0.95800
C54 C -0.2114(3) 0.5892(3) 1.0543(2)
H91 H -0.16160 0.60180 1.09800
H92 H -0.19020 0.62580 1.02800
C55 C -0.2735(3) 0.6106(3) 1.0817(3)
H93 H -0.32400 0.59720 1.03810
H94 H -0.29360 0.57540 1.10940
C56 C -0.2337(4) 0.7010(4) 1.1312(4)
H95 H -0.27590 0.71180 1.14740
H96 H -0.18440 0.71430 1.17500
H97 H -0.21480 0.73610 1.10370
N7 N -0.08309(10) 0.61903(9) 0.71585(9)
H98 H -0.05910 0.62990 0.68440
N8 N -0.10906(10) 0.48619(9) 0.89187(9)
H99 H -0.09490 0.45380 0.91190
N9 N 0.01926(10) 0.54134(9) 0.67775(9)
O5 O 0.01032(8) 0.58954(8) 0.64519(7)
O6 O 0.06090(8) 0.50425(8) 0.66327(8)
C57? C -0.2232(3) 0.5407(3) 1.0106(2)
H100? H -0.18460 0.60110 1.02580
H101? H -0.27890 0.52590 0.97240
C58? C -0.2360(3) 0.5239(3) 1.0770(3)
H102? H -0.18030 0.53670 1.11380
H103? H -0.27510 0.46340 1.06090
C59? C -0.2727(3) 0.5746(3) 1.1150(3)
H104? H -0.29050 0.55130 1.15070
H105? H -0.32490 0.56640 1.07650
C60? C -0.2134(5) 0.6687(5) 1.1568(5)
H106? H -0.24340 0.69500 1.17890
H107? H -0.16220 0.67820 1.19630
H108? H -0.19670 0.69340 1.12190
C61 C -0.02870(11) 0.27671(11) 0.98556(10)
C62 C -0.06580(11) 0.26006(11) 1.03785(10)
C63 C -0.04785(11) 0.20775(11) 1.07227(10)
H109 H -0.07150 0.19600 1.10750
C64 C 0.00381(11) 0.17274(11) 1.05588(10)
C65 C 0.03969(12) 0.19056(12) 1.00322(11)
H110 H 0.07490 0.16710 0.99170
C66 C 0.02361(12) 0.24079(12) 0.96975(11)
H111 H 0.04790 0.25230 0.93480
C67 C -0.15210(12) 0.28358(11) 1.10987(11)
H112 H -0.10560 0.30200 1.15860
H113 H -0.19310 0.22410 1.09540
C68 C -0.19745(12) 0.33700(11) 1.11658(11)
H114 H -0.24490 0.31670 1.06800
H115 H -0.15670 0.39570 1.12800
C69 C -0.23321(13) 0.33527(12) 1.17675(11)
H116 H -0.18690 0.34980 1.22430
H117 H -0.27840 0.27760 1.16260
C70 C -0.27063(14) 0.39580(14) 1.18895(12)
H118 H -0.22530 0.45340 1.20320
H119 H -0.31670 0.38130 1.14130
C71 C -0.30666(16) 0.39440(16) 1.24855(13)
H120 H -0.26200 0.40430 1.29520
H121 H -0.35530 0.33810 1.23240
C72 C -0.3371(2) 0.4600(2) 1.26443(16)
H122 H -0.35980 0.45640 1.30330
H123 H -0.28900 0.51600 1.28150
H124 H -0.38220 0.44970 1.21870
C73 C -0.01147(11) 0.09760(11) 1.14093(10)
H125 H -0.07470 0.07200 1.11870
H126 H 0.01000 0.14790 1.18630
C74 C 0.01410(12) 0.03536(11) 1.16263(11)
H127 H 0.07720 0.06210 1.18810
H128 H -0.00400 -0.01330 1.11700
C75 C -0.02679(13) 0.00515(12) 1.21424(11)
H129 H -0.00810 0.05400 1.25990
H130 H -0.08980 -0.02060 1.18880
C76 C -0.00346(14) -0.05838(14) 1.23648(13)
H131 H 0.05960 -0.03250 1.26150
H132 H -0.02220 -0.10710 1.19070
C77 C -0.04327(16) -0.08979(15) 1.28853(14)
H133 H -0.10590 -0.11090 1.26570
H134 H -0.03340 -0.13740 1.29320
C78 C -0.00783(17) -0.02341(18) 1.36561(15)
H135 H -0.03580 -0.04750 1.39590
H136 H 0.05400 -0.00310 1.38920
H137 H -0.01870 0.02340 1.36170
N10 N -0.11685(10) 0.29221(9) 1.05383(9)
H138 H -0.12990 0.32090 1.02810
N11 N 0.02207(10) 0.12265(9) 1.08816(9)
H139 H 0.05650 0.10410 1.07640
N12 N -0.04028(10) 0.32887(10) 0.94867(9)
O7 O -0.08690(9) 0.36255(8) 0.95927(8)
O8 O -0.00468(9) 0.34167(9) 0.90486(8)
C79 C 0.22927(11) 0.02790(11) 1.00505(10)
C80 C 0.24838(11) -0.02281(11) 1.04297(10)
C81 C 0.30114(11) -0.05592(11) 1.02425(10)
H140 H 0.31540 -0.08920 1.04900
C82 C 0.33311(11) -0.04142(11) 0.97044(10)
C83 C 0.31268(12) 0.00941(11) 0.93351(11)
H141 H 0.33400 0.01980 0.89670
C84 C 0.26285(11) 0.04256(11) 0.95128(10)
H142 H 0.25010 0.07670 0.92690
C85 C 0.23068(11) -0.09170(11) 1.13353(10)
H143 H 0.29240 -0.06940 1.16300
H144 H 0.20900 -0.14870 1.09660
C86 C 0.18276(11) -0.09552(11) 1.18478(10)
H145 H 0.12220 -0.11270 1.15530
H146 H 0.20760 -0.03870 1.22340
C87 C 0.18562(12) -0.15594(11) 1.22313(11)
H147 H 0.24530 -0.13460 1.25800
H148 H 0.16790 -0.21110 1.18510
C88 C 0.12775(12) -0.16753(12) 1.26617(11)
H149 H 0.14740 -0.11280 1.30580
H150 H 0.06870 -0.18580 1.23170
C89 C 0.12618(13) -0.23080(13) 1.30161(12)
H151 H 0.18460 -0.21100 1.33810
H152 H 0.10940 -0.28480 1.26250
C90 C 0.06470(16) -0.24514(15) 1.34098(14)
H153 H 0.06640 -0.28650 1.36280
H154 H 0.08160 -0.19220 1.38060
H155 H 0.00650 -0.26600 1.30490
C91 C 0.40768(12) -0.12625(11) 0.98388(10)
H156 H 0.35580 -0.17480 0.97800
H157 H 0.44230 -0.09370 1.03800
C92 C 0.45917(12) -0.15790(11) 0.94869(11)
H158 H 0.51170 -0.10960 0.95520
H159 H 0.42490 -0.19030 0.89450
C93 C 0.48377(13) -0.21349(12) 0.98453(11)
H160 H 0.51960 -0.18010 1.03830
H161 H 0.43110 -0.26000 0.98010
C94 C 0.53253(13) -0.25000(13) 0.94901(12)
H162 H 0.58230 -0.20360 0.94940
H163 H 0.49470 -0.28710 0.89620
C95 C 0.56462(16) -0.30003(15) 0.98799(15)
H164 H 0.60230 -0.31440 0.96610
H165 H 0.59960 -0.26390 1.04150
C96 C 0.4948(2) -0.37932(18) 0.98206(18)
H166 H 0.52010 -0.40770 1.00820
H167 H 0.45790 -0.36580 1.00480
H168 H 0.46060 -0.41630 0.92930
N13 N 0.21843(9) -0.03771(9) 1.09529(8)
H169 H 0.18890 -0.01250 1.10730
N14 N 0.38237(10) -0.07382(9) 0.95079(9)
H170 H 0.40010 -0.06260 0.91610
N15 N 0.17705(10) 0.06394(10) 1.01807(9)
O9 O 0.14259(8) 0.05161(8) 1.06383(8)
O10 O 0.16480(9) 0.10879(9) 0.98386(8)
C97 C 0.48386(11) 0.01491(11) 0.7519(1)
C98 C 0.53157(11) -0.02651(10) 0.73164(10)
C99 C 0.56277(11) -0.01106(11) 0.67718(10)
H171 H 0.59440 -0.03780 0.66270
C100 C 0.54860(11) 0.04262(11) 0.64358(10)
C101 C 0.49945(12) 0.08164(11) 0.66382(10)
H172 H 0.48850 0.11740 0.64070
C102 C 0.46877(11) 0.06743(11) 0.71585(10)
H173 H 0.43600 0.09350 0.72880
C103 C 0.59606(11) -0.12059(11) 0.74853(10)
H174 H 0.65490 -0.07850 0.75980
H175 H 0.56980 -0.15800 0.69510
C104 C 0.59884(11) -0.17168(11) 0.79701(10)
H176 H 0.61840 -0.13500 0.84970
H177 H 0.54030 -0.21690 0.78180
C105 C 0.65803(12) -0.21046(11) 0.7914(1)
H178 H 0.63700 -0.24910 0.73910
H179 H 0.71600 -0.16540 0.80440
C106 C 0.66405(12) -0.25832(11) 0.84234(11)
H180 H 0.60710 -0.30660 0.82620
H181 H 0.67970 -0.22110 0.89390
C107 C 0.72928(13) -0.29030(12) 0.84248(12)
H182 H 0.78650 -0.24200 0.85950
H183 H 0.71430 -0.32690 0.79090
C108 C 0.73333(14) -0.33930(14) 0.89282(13)
H184 H 0.77610 -0.35850 0.89100
H185 H 0.74940 -0.30300 0.94420
H186 H 0.67710 -0.38790 0.87560
C109 C 0.63221(12) 0.02660(11) 0.56796(10)
H187 H 0.59750 -0.03490 0.54080
H188 H 0.68080 0.03750 0.61200
C110 C 0.66667(12) 0.06523(11) 0.51733(11)
H189 H 0.70170 0.12670 0.54440
H190 H 0.61830 0.05440 0.47310
C111 C 0.72112(13) 0.02876(12) 0.49192(11)
H191 H 0.76730 0.03690 0.53650
H192 H 0.68500 -0.03230 0.46300
C112 C 0.76103(13) 0.06835(13) 0.44415(12)
H193 H 0.79720 0.12940 0.47330
H194 H 0.71470 0.06060 0.40000
C113 C 0.81564(15) 0.03236(15) 0.41746(14)
H195 H 0.84910 0.06920 0.39670
H196 H 0.85670 0.03250 0.46090
C114 C 0.76342(19) -0.05571(19) 0.35900(18)
H197 H 0.80170 -0.07520 0.34420
H198 H 0.73120 -0.09290 0.37950
H199 H 0.72350 -0.05620 0.31530
N16 N 0.54593(9) -0.07862(9) 0.76351(8)
H200 H 0.52310 -0.08790 0.79600
N17 N 0.58005(10) 0.06023(9) 0.59282(8)
H201 H 0.56820 0.09420 0.57360
N18 N 0.45029(9) 0.00597(9) 0.80600(9)
O11 O 0.45996(8) -0.04170(8) 0.83939(7)
O12 O 0.41139(9) 0.04537(9) 0.82213(8)
#END
