
#######################################################################
#
#                 Cambridge Crystallographic Data Centre
#                                CCDC
#
#######################################################################
#
# If this CIF has been generated from an entry in the Cambridge
# Structural Database, then it will include bibliographic, chemical,
# crystal, experimental, refinement or atomic coordinate data resulting
# from the CCDC's data processing and validation procedures.
#
#######################################################################

data_CSD_CIF_RAYFAB
_audit_creation_date 2017-06-01
_audit_creation_method CSD-ConQuest-V1
_database_code_CSD RAYFAB
_database_code_depnum_ccdc_archive 'CCDC 1518392'
_chemical_formula_sum 'C20 H35 N3 O2'
_chemical_formula_moiety
;
C20 H35 N3 O2
;
_journal_coden_Cambridge 423
_journal_volume 41
_journal_year 2017
_journal_page_first 235
_journal_name_full 'J.Chem.Res. '
loop_
_publ_author_name
"M.John Plater"
"W.T.A.Harrison"
"L.M.M.de los Toyos"
"L.Hendry"
_chemical_name_systematic
;
N,N'-diheptyl-4-nitrobenzene-1,3-diamine
;
_chemical_name_common
;
2,4-bis(heptylamino)nitrobenzene
;
_cell_volume   9484.036
_exptl_crystal_colour 'orange'
_exptl_crystal_density_diffrn 1.102
_exptl_crystal_description 'block'
_diffrn_ambient_temperature 100
_refine_special_details
;
C19B,C20B and C19Q,C20Q disordered over two sites with occupancies 0.5:0.5; 
C19T,C20T and C19E,C20E disordered over two sites with occupancies 0.5:0.5; 
C20C and C20R disordered over two sites with occupancies 0.5:0.5; C20D and 
C20S disordered over two sites with occupancies 0.5:0.5.
;
#These two values have been output from a single CSD field.
_refine_ls_R_factor_gt 0.094
_refine_ls_wR_factor_gt 0.094
_symmetry_cell_setting triclinic
_symmetry_space_group_name_H-M 'P -1'
_symmetry_Int_Tables_number 2
loop_
_symmetry_equiv_pos_site_id
_symmetry_equiv_pos_as_xyz
1 x,y,z
2 -x,-y,-z
_cell_length_a 11.2731(3)
_cell_length_b 30.5744(7)
_cell_length_c 31.0881(8)
_cell_angle_alpha 62.603(2)
_cell_angle_beta 85.518(2)
_cell_angle_gamma 87.659(2)
_cell_formula_units_Z 18
loop_
_atom_type_symbol
_atom_type_radius_bond
C 0.68
H 0.23
N 0.68
O 0.68
loop_
_atom_site_label
_atom_site_type_symbol
_atom_site_fract_x
_atom_site_fract_y
_atom_site_fract_z
C1 C 0.7116(3) 0.13094(14) 0.32057(13)
C2 C 0.7594(3) 0.09641(13) 0.30479(13)
C3 C 0.7963(3) 0.11452(14) 0.25563(13)
H1 H 0.82870 0.09220 0.24430
C4 C 0.7870(3) 0.16470(14) 0.22239(13)
C5 C 0.7406(3) 0.19813(14) 0.23979(14)
H2 H 0.73490 0.23230 0.21800
C6 C 0.7048(3) 0.18136(14) 0.28699(14)
H3 H 0.67410 0.20410 0.29800
C7 C 0.8156(3) 0.01200(13) 0.32009(14)
H4 H 0.89820 0.02100 0.30610
H5 H 0.76750 0.01250 0.29460
C8 C 0.8146(3) -0.03955(13) 0.36246(14)
H6 H 0.86480 -0.04010 0.38750
H7 H 0.73230 -0.04780 0.37720
C9 C 0.8599(4) -0.07828(14) 0.34739(14)
H8 H 0.80690 -0.07880 0.32370
H9 H 0.94020 -0.06870 0.33080
C10 C 0.8664(4) -0.12965(14) 0.38944(14)
H10 H 0.78660 -0.13870 0.40660
H11 H 0.92130 -0.12930 0.41260
C11 C 0.9083(4) -0.16870(14) 0.37437(14)
H12 H 0.98780 -0.15950 0.35700
H13 H 0.85290 -0.16940 0.35150
C12 C 0.9157(4) -0.22013(14) 0.41714(15)
H14 H 0.96770 -0.21900 0.44080
H15 H 0.83530 -0.23000 0.43350
C13 C 0.9636(4) -0.25890(16) 0.40257(17)
H16 H 0.96610 -0.29090 0.43150
H17 H 0.91150 -0.26090 0.37970
H18 H 1.04400 -0.24990 0.38710
C14 C 0.8676(4) 0.15064(14) 0.15415(14)
H19 H 0.81010 0.12400 0.16170
H20 H 0.94220 0.13510 0.16940
C15 C 0.8929(4) 0.17857(14) 0.09965(14)
H21 H 0.94990 0.20540 0.09190
H22 H 0.81830 0.19370 0.08410
C16 C 0.9447(4) 0.14437(14) 0.07926(14)
H23 H 1.01710 0.12840 0.09620
H24 H 0.88630 0.11810 0.08690
C17 C 0.9764(4) 0.16878(15) 0.02534(14)
H25 H 1.03160 0.19630 0.01710
H26 H 0.90330 0.18280 0.00800
C18 C 1.0337(4) 0.13370(16) 0.00806(15)
H27 H 0.97700 0.10690 0.01540
H28 H 1.10460 0.11860 0.02660
C19 C 1.0716(5) 0.15749(18) -0.04589(16)
H29 H 1.12860 0.18420 -0.05320
H30 H 1.00080 0.17270 -0.06440
C20 C 1.1289(6) 0.1220(2) -0.06335(19)
H31 H 1.15070 0.13990 -0.09830
H32 H 1.20040 0.10740 -0.04590
H33 H 1.07240 0.09590 -0.05720
N1 N 0.7684(3) 0.04765(11) 0.33507(12)
H34 H 0.74400 0.03710 0.36580
N2 N 0.8200(3) 0.18195(12) 0.17481(11)
H35 H 0.81210 0.21370 0.15550
N3 N 0.6677(3) 0.11700(12) 0.36855(12)
O1 O 0.6742(3) 0.0723(1) 0.40052(9)
O2 O 0.6222(3) 0.14808(11) 0.37975(10)
C21 C 0.7432(3) 0.36677(13) 0.07021(13)
C22 C 0.7757(3) 0.38152(14) 0.02025(14)
C23 C 0.7511(3) 0.43038(13) -0.01357(14)
H36 H 0.77360 0.44110 -0.04700
C24 C 0.6944(3) 0.46367(13) 0.00076(14)
C25 C 0.6612(3) 0.44783(14) 0.05078(14)
H37 H 0.62230 0.47000 0.06100
C26 C 0.6855(3) 0.40065(14) 0.08403(14)
H38 H 0.66300 0.39030 0.11740
C27 C 0.8667(3) 0.36462(14) -0.04590(14)
H39 H 0.92310 0.39250 -0.05890
H40 H 0.79570 0.37550 -0.06520
C28 C 0.9250(4) 0.32118(14) -0.05075(14)
H41 H 0.86640 0.29430 -0.04000
H42 H 0.99200 0.30870 -0.02940
C29 C 0.9708(4) 0.33587(14) -0.10299(14)
H43 H 0.90360 0.34880 -0.12430
H44 H 1.02950 0.36270 -0.11350
C30 C 1.0286(4) 0.29312(14) -0.10903(14)
H45 H 0.96980 0.26630 -0.09830
H46 H 1.09560 0.28030 -0.08770
C31 C 1.0747(4) 0.30696(15) -0.16088(14)
H47 H 1.13280 0.33400 -0.17160
H48 H 1.00740 0.31960 -0.18210
C32 C 1.1338(4) 0.26480(15) -0.16761(14)
H49 H 1.07650 0.23740 -0.15620
H50 H 1.20260 0.25270 -0.14710
C33 C 1.1764(4) 0.27923(16) -0.21996(15)
H51 H 1.21360 0.25070 -0.22200
H52 H 1.10850 0.29050 -0.24040
H53 H 1.23460 0.30580 -0.23130
C34 C 0.6945(4) 0.53013(14) -0.08329(14)
H54 H 0.65680 0.50880 -0.09450
H55 H 0.78140 0.52970 -0.09070
C35 C 0.6480(4) 0.58245(14) -0.11073(15)
H56 H 0.69110 0.60440 -0.10190
H57 H 0.56260 0.58350 -0.10110
C36 C 0.6635(4) 0.60107(16) -0.16537(16)
H58 H 0.74900 0.59920 -0.17460
H59 H 0.61990 0.57900 -0.17390
C37 C 0.6203(5) 0.65331(16) -0.19488(16)
H60 H 0.66690 0.67580 -0.18790
H61 H 0.53590 0.65580 -0.18470
C38 C 0.6314(7) 0.66976(19) -0.24927(18)
H62 H 0.71130 0.66080 -0.25850
H63 H 0.57150 0.65240 -0.25740
C39 C 0.6127(10) 0.7251(4) -0.2780(4)
H64 H 0.53250 0.73380 -0.26880
H65 H 0.67170 0.74220 -0.26920
C40 C 0.6247(12) 0.7435(5) -0.3325(5)
H66 H 0.61180 0.77920 -0.34900
H67 H 0.70460 0.73580 -0.34210
H68 H 0.56530 0.72730 -0.34170
N4 N 0.8317(3) 0.35106(11) 0.00463(11)
H69 H 0.84830 0.32100 0.02650
N5 N 0.6707(3) 0.51055(11) -0.03162(11)
H70 H 0.63870 0.53040 -0.02040
N6 N 0.7646(3) 0.31980(12) 0.10721(12)
O3 O 0.8130(3) 0.28702(10) 0.09716(10)
O4 O 0.7377(3) 0.30971(10) 0.15026(10)
C41? C 0.559(1) 0.7195(3) -0.2801(3)
H71? H 0.47610 0.71560 -0.26580
H72? H 0.59490 0.74680 -0.27700
C42? C 0.5563(10) 0.7335(4) -0.3329(4)
H73? H 0.51060 0.76410 -0.34900
H74? H 0.63770 0.73840 -0.34780
H75? H 0.51870 0.70710 -0.33660
C43 C 0.4744(3) 0.60921(14) 0.05817(14)
C44 C 0.4601(3) 0.65962(14) 0.02241(14)
C45 C 0.4115(3) 0.69280(14) 0.03872(14)
H76 H 0.40340 0.72650 0.01590
C46 C 0.3747(3) 0.67797(14) 0.08715(14)
C47 C 0.3859(4) 0.62683(15) 0.12178(14)
H77 H 0.35850 0.61580 0.15480
C48 C 0.4356(3) 0.59487(15) 0.10690(14)
H78 H 0.44490 0.56140 0.13020
C49 C 0.4788(4) 0.72499(14) -0.06244(14)
H79 H 0.52480 0.74730 -0.05500
H80 H 0.39400 0.73500 -0.06310
C50 C 0.5225(4) 0.72986(15) -0.11157(14)
H81 H 0.47320 0.70900 -0.11970
H82 H 0.60560 0.71780 -0.11020
C51 C 0.5171(4) 0.78264(15) -0.15104(14)
H83 H 0.56670 0.80320 -0.14270
H84 H 0.43400 0.79470 -0.15180
C52 C 0.5590(4) 0.78948(14) -0.20144(14)
H85 H 0.63990 0.77530 -0.20030
H86 H 0.50550 0.77110 -0.21110
C53 C 0.5614(4) 0.84316(15) -0.23960(14)
H87 H 0.61590 0.86130 -0.23000
H88 H 0.48080 0.85740 -0.24000
C54 C 0.6007(4) 0.85156(15) -0.29075(14)
H89 H 0.68320 0.83930 -0.29110
H90 H 0.54880 0.83240 -0.30010
C55 C 0.5953(4) 0.90553(15) -0.32774(15)
H91 H 0.62130 0.90910 -0.36000
H92 H 0.51350 0.91770 -0.32800
H93 H 0.64780 0.92460 -0.31900
C56 C 0.3179(4) 0.76185(15) 0.07320(15)
H94 H 0.26960 0.76860 0.04550
H95 H 0.39860 0.77510 0.05990
C57 C 0.2625(4) 0.78767(15) 0.10113(16)
H96 H 0.30180 0.77620 0.13190
H97 H 0.17720 0.77890 0.10930
C58 C 0.2741(5) 0.84336(16) 0.07211(18)
H98 H 0.35920 0.85150 0.06210
H99 H 0.23100 0.85460 0.04220
C59 C 0.2271(6) 0.87187(17) 0.09894(19)
H100 H 0.26680 0.85980 0.12970
H101 H 0.14070 0.86570 0.10720
C60 C 0.2475(7) 0.92713(19) 0.0692(2)
H102 H 0.33280 0.93280 0.05800
H103 H 0.20120 0.93960 0.04000
C61 C 0.2136(7) 0.9558(2) 0.0960(2)
H104 H 0.24100 0.93810 0.12920
H105 H 0.12580 0.95870 0.09860
C62 C 0.2701(11) 1.0098(4) 0.0694(4)
H106 H 0.24600 1.02760 0.08800
H107 H 0.35710 1.00710 0.06730
H108 H 0.24190 1.02770 0.03670
N7 N 0.4914(3) 0.67489(11) -0.02486(11)
H109 H 0.52160 0.65290 -0.03360
N8 N 0.3260(3) 0.70937(12) 0.10319(12)
H110 H 0.29760 0.69710 0.13360
N9 N 0.5255(3) 0.57311(12) 0.04697(12)
O5 O 0.5591(2) 0.58337(10) 0.0036(1)
O6 O 0.5379(2) 0.53011(10) 0.08031(10)
C63? C 0.2110(11) 1.0099(4) 0.0650(4)
H111? H 0.18800 1.02620 0.08510
H112? H 0.29010 1.02110 0.04890
H113? H 0.15310 1.01810 0.04040
C64 C 0.2017(3) 0.61969(14) 0.29091(14)
C65 C 0.1479(3) 0.65461(14) 0.30581(14)
C66 C 0.1160(3) 0.63728(14) 0.35560(14)
H114 H 0.07910 0.65940 0.36630
C67 C 0.1368(3) 0.58866(14) 0.38969(14)
C68 C 0.1888(3) 0.55506(15) 0.37348(15)
H115 H 0.20140 0.52170 0.39630
C69 C 0.2200(3) 0.57043(14) 0.32606(14)
H116 H 0.25510 0.54760 0.31600
C70 C 0.0800(4) 0.73889(14) 0.28718(14)
H117 H 0.13100 0.74150 0.31040
H118 H -0.00040 0.72880 0.30340
C71 C 0.0726(4) 0.78884(14) 0.24252(14)
H119 H 0.15250 0.79810 0.22550
H120 H 0.01900 0.78640 0.22000
C72 C 0.0266(4) 0.82856(14) 0.25595(14)
H121 H 0.08060 0.83070 0.27850
H122 H -0.05280 0.81880 0.27330
C73 C 0.0167(4) 0.87926(14) 0.21257(15)
H123 H -0.03370 0.87700 0.18900
H124 H 0.09680 0.89010 0.19630
C74 C -0.0366(4) 0.91778(14) 0.22715(15)
H125 H -0.11700 0.90700 0.24310
H126 H 0.01320 0.91950 0.25120
C75 C -0.0459(4) 0.96916(15) 0.18436(15)
H127 H 0.03390 0.97950 0.16750
H128 H -0.09880 0.96790 0.16100
C76 C -0.0941(4) 1.00720(16) 0.20010(17)
H129 H -0.09850 1.03950 0.17150
H130 H -0.17380 0.99750 0.21620
H131 H -0.04120 1.00910 0.22270
C77 C 0.0616(4) 0.60222(14) 0.45956(14)
H132 H -0.01760 0.61480 0.44730
H133 H 0.11410 0.63090 0.44990
C78 C 0.0494(4) 0.57337(15) 0.51468(14)
H134 H -0.00110 0.54420 0.52400
H135 H 0.12910 0.56140 0.52670
C79 C -0.0041(4) 0.60312(15) 0.53914(15)
H136 H -0.08670 0.61250 0.52970
H137 H 0.04200 0.63380 0.52760
C80 C -0.0048(4) 0.57494(16) 0.59420(15)
H138 H 0.07860 0.56900 0.60340
H139 H -0.04160 0.54240 0.60490
C81 C -0.0702(5) 0.60006(19) 0.62174(18)
H140 H -0.04530 0.58440 0.65550
H141 H -0.04640 0.63510 0.60630
C82 C -0.2052(6) 0.5974(3) 0.6231(3)
H142 H -0.23420 0.56320 0.63590
H143 H -0.23720 0.61860 0.59120
C83 C -0.231(2) 0.6196(10) 0.6618(10)
H144 H -0.31700 0.62130 0.66840
H145 H -0.19420 0.59820 0.69210
H146 H -0.19720 0.65270 0.64800
N10 N 0.1287(3) 0.70212(12) 0.27364(12)
H147 H 0.14700 0.71120 0.24270
N11 N 0.1104(3) 0.57202(12) 0.43781(12)
H148 H 0.12380 0.54070 0.45720
N12 N 0.2379(3) 0.63266(13) 0.24231(12)
O7 O 0.2252(3) 0.67614(10) 0.20921(10)
O8 O 0.2843(3) 0.60032(11) 0.23233(10)
C84? C -0.2835(12) 0.6105(5) 0.6553(4)
H149? H -0.36660 0.60630 0.65080
H150? H -0.26620 0.58900 0.68910
H151? H -0.27000 0.64490 0.64750
C85 C 0.2654(3) 0.39218(14) 0.54125(14)
C86 C 0.2458(3) 0.37787(14) 0.59203(15)
C87 C 0.2723(3) 0.32860(14) 0.62485(15)
H152 H 0.25970 0.31820 0.65870
C88 C 0.3160(3) 0.29494(14) 0.60909(14)
C89 C 0.3346(3) 0.31061(14) 0.55815(14)
H153 H 0.36430 0.28790 0.54690
C90 C 0.3104(3) 0.35720(14) 0.52620(15)
H154 H 0.32380 0.36700 0.49250
C91 C 0.1788(4) 0.39677(15) 0.65933(15)
H155 H 0.25280 0.38600 0.67660
H156 H 0.12170 0.36910 0.67420
C92 C 0.1264(4) 0.44078(15) 0.66439(15)
H157 H 0.05740 0.45350 0.64410
H158 H 0.18670 0.46720 0.65210
C93 C 0.0866(4) 0.42812(15) 0.71675(15)
H159 H 0.02980 0.40040 0.72960
H160 H 0.15660 0.41700 0.73660
C94 C 0.0277(4) 0.47114(15) 0.72226(15)
H161 H 0.08660 0.49780 0.71200
H162 H -0.03820 0.48400 0.70040
C95 C -0.0206(4) 0.45745(16) 0.77365(15)
H163 H -0.07660 0.42970 0.78440
H164 H 0.04610 0.44590 0.79530
C96 C -0.0841(5) 0.49925(18) 0.77927(17)
H165 H -0.02630 0.52580 0.77150
H166 H -0.14600 0.51290 0.75550
C97 C -0.1412(5) 0.48407(19) 0.82925(18)
H167 H -0.18070 0.51260 0.83060
H168 H -0.20010 0.45840 0.83690
H169 H -0.08020 0.47130 0.85290
C98 C 0.3197(4) 0.22731(14) 0.69270(14)
H170 H 0.23470 0.23120 0.70100
H171 H 0.36740 0.24580 0.70430
C99 C 0.3535(4) 0.17334(14) 0.71802(14)
H172 H 0.43880 0.16960 0.71000
H173 H 0.30680 0.15500 0.70590
C100 C 0.3309(4) 0.15124(16) 0.77321(15)
H174 H 0.37380 0.17100 0.78480
H175 H 0.24480 0.15370 0.78100
C101 C 0.3695(4) 0.09800(17) 0.80037(15)
H176 H 0.45520 0.09540 0.79210
H177 H 0.32540 0.07810 0.78940
C102 C 0.3487(5) 0.0766(3) 0.85538(18)
H178 H 0.27010 0.08890 0.86180
H179 H 0.34190 0.04040 0.86900
C103 C 0.4247(10) 0.0849(4) 0.8809(4)
H180 H 0.41290 0.11910 0.87600
H181 H 0.50620 0.08260 0.86760
C104 C 0.4181(11) 0.0490(5) 0.9368(4)
H182 H 0.47800 0.05840 0.95220
H183 H 0.33880 0.05100 0.95110
H184 H 0.43350 0.01520 0.94200
N13 N 0.2044(3) 0.40955(12) 0.60862(12)
H185 H 0.19210 0.44030 0.58710
N14 N 0.3398(3) 0.24762(12) 0.64039(12)
H186 H 0.36900 0.22810 0.62840
N15 N 0.2422(3) 0.43949(12) 0.50502(13)
O9 O 0.1971(3) 0.47193(10) 0.51613(10)
O10 O 0.2634(3) 0.44986(11) 0.46159(10)
H187? H 0.37770 0.09940 0.86460
H188? H 0.26050 0.07380 0.86230
C105? C 0.3911(9) 0.0330(4) 0.8862(3)
H189? H 0.47820 0.03310 0.87890
H190? H 0.35760 0.00790 0.87880
C106? C 0.368(1) 0.0151(4) 0.9408(4)
H191? H 0.40460 -0.01740 0.95850
H192? H 0.40260 0.03850 0.94970
H193? H 0.28210 0.01290 0.94910
C107 C 0.4929(3) 0.14115(14) 0.55889(14)
C108 C 0.5066(3) 0.09030(14) 0.59309(14)
C109 C 0.5479(3) 0.05799(14) 0.57409(14)
H194 H 0.55620 0.02390 0.59560
C110 C 0.5770(3) 0.07475(14) 0.52451(14)
C111 C 0.5654(3) 0.12578(14) 0.49189(14)
H195 H 0.58700 0.13760 0.45830
C112 C 0.5234(3) 0.15740(15) 0.50896(14)
H196 H 0.51430 0.19130 0.48690
C113 C 0.4956(3) 0.02226(14) 0.67661(14)
H197 H 0.57840 0.01100 0.67420
H198 H 0.44180 0.00160 0.67000
C114 C 0.4652(4) 0.01648(15) 0.72762(14)
H199 H 0.38340 0.02900 0.72930
H200 H 0.52040 0.03670 0.73420
C115 C 0.4732(4) -0.03692(15) 0.76665(14)
H201 H 0.41490 -0.05680 0.76100
H202 H 0.55360 -0.04990 0.76370
C116 C 0.4494(4) -0.04290(16) 0.81798(14)
H203 H 0.50890 -0.02360 0.82380
H204 H 0.36990 -0.02900 0.82060
C117 C 0.4542(4) -0.09581(17) 0.85711(15)
H205 H 0.53460 -0.10940 0.85540
H206 H 0.39650 -0.11550 0.85090
C118 C 0.4257(5) -0.1008(2) 0.90843(17)
H207 H 0.49220 -0.08650 0.91680
H208 H 0.35350 -0.08100 0.90790
C119 C 0.4070(7) -0.1495(3) 0.9452(3)
H209 H 0.38950 -0.14930 0.97650
H210 H 0.33980 -0.16370 0.93790
H211 H 0.47870 -0.16920 0.94680
C120 C 0.6332(3) -0.00824(14) 0.53624(13)
H212 H 0.55530 -0.02310 0.55210
H213 H 0.68660 -0.01360 0.56210
C121 C 0.6852(3) -0.03401(14) 0.50737(14)
H214 H 0.76370 -0.01960 0.49180
H215 H 0.63220 -0.02870 0.48140
C122 C 0.6995(4) -0.08884(14) 0.53978(14)
H216 H 0.62070 -0.10270 0.55550
H217 H 0.75180 -0.09360 0.56580
C123 C 0.7511(4) -0.11781(14) 0.51368(14)
H218 H 0.70080 -0.11220 0.48690
H219 H 0.83170 -0.10520 0.49920
C124 C 0.7593(4) -0.17296(15) 0.54705(15)
H220 H 0.80950 -0.17850 0.57380
H221 H 0.67870 -0.18540 0.56160
C125 C 0.8101(5) -0.20218(15) 0.52180(16)
H222 H 0.89190 -0.19070 0.50850
H223 H 0.76170 -0.19560 0.49420
C126 C 0.8135(7) -0.25750(18) 0.5548(2)
H224 H 0.84720 -0.27420 0.53630
H225 H 0.86280 -0.26450 0.58190
H226 H 0.73250 -0.26940 0.56760
N16 N 0.4832(3) 0.07320(12) 0.64120(11)
H227 H 0.45880 0.09440 0.65180
N17 N 0.6176(3) 0.04385(11) 0.50652(11)
H228 H 0.63540 0.05620 0.47510
N18 N 0.4501(3) 0.17650(13) 0.57297(13)
O11 O 0.4254(3) 0.16469(10) 0.61738(10)
O12 O 0.4376(3) 0.21997(11) 0.54131(11)
C127 C 0.2163(3) 1.00844(14) 0.23127(14)
C128 C 0.1937(3) 0.99365(14) 0.28238(14)
C129 C 0.2113(3) 0.94366(14) 0.31471(14)
H229 H 0.19650 0.93290 0.34860
C130 C 0.2497(3) 0.90954(14) 0.29862(14)
C131 C 0.2715(3) 0.92521(14) 0.24804(14)
H230 H 0.29790 0.90220 0.23670
C132 C 0.2546(3) 0.97323(14) 0.21583(15)
H231 H 0.26900 0.98330 0.18210
C133 C 0.1276(4) 1.01310(14) 0.34965(14)
H232 H 0.20020 1.00160 0.36790
H233 H 0.06950 0.98580 0.36360
C134 C 0.0751(4) 1.05714(14) 0.35485(14)
H234 H 0.13600 1.08330 0.34340
H235 H 0.00720 1.07050 0.33400
C135 C 0.0328(4) 1.04386(15) 0.40695(15)
H236 H 0.09990 1.02910 0.42790
H237 H -0.03050 1.01880 0.41780
C136 C -0.0150(4) 1.08801(15) 0.41324(15)
H238 H -0.08500 1.10170 0.39370
H239 H 0.04670 1.11390 0.40070
C137 C -0.0510(4) 1.07504(16) 0.46602(15)
H240 H 0.01850 1.06030 0.48560
H241 H -0.11430 1.04990 0.47820
C138 C -0.0956(4) 1.11901(16) 0.47355(16)
H242 H -0.03490 1.14530 0.45920
H243 H -0.16890 1.13220 0.45610
C139 C -0.1220(4) 1.10600(18) 0.52685(16)
H244 H -0.15030 1.13540 0.52950
H245 H -0.18350 1.08050 0.54110
H246 H -0.04940 1.09360 0.54420
C140 C 0.2499(4) 0.84098(14) 0.38227(14)
H247 H 0.16570 0.84550 0.39120
H248 H 0.30010 0.85890 0.39360
C141 C 0.2813(4) 0.78672(14) 0.40724(14)
H249 H 0.36640 0.78250 0.39920
H250 H 0.23360 0.76910 0.39470
C142 C 0.2588(4) 0.76394(16) 0.46216(15)
H251 H 0.30840 0.78090 0.47470
H252 H 0.17440 0.76920 0.47010
C143 C 0.2863(5) 0.70928(17) 0.48747(16)
H253 H 0.36990 0.70420 0.47840
H254 H 0.23510 0.69250 0.47520
C144 C 0.2685(6) 0.6846(2) 0.54292(18)
H255 H 0.19430 0.69760 0.55220
H256 H 0.25810 0.64880 0.55490
C145 C 0.3683(10) 0.6923(4) 0.5675(3)
H257 H 0.36480 0.72580 0.56490
H258 H 0.44600 0.68780 0.55280
C146 C 0.3511(13) 0.6520(5) 0.6225(3)
H259 H 0.41450 0.65520 0.64080
H260 H 0.27370 0.65690 0.63640
H261 H 0.35440 0.61910 0.62440
N19 N 0.1570(3) 1.02624(12) 0.29883(12)
H262 H 0.15050 1.05740 0.27740
N20 N 0.2675(3) 0.86169(12) 0.32964(12)
H263 H 0.29110 0.84170 0.31730
N21 N 0.2011(3) 1.05678(12) 0.19576(12)
O13 O 0.1708(3) 1.09043(10) 0.20713(10)
O14 O 0.2160(3) 1.06663(11) 0.1520(1)
C147 C 0.4276(3) 0.75708(14) 0.24478(14)
C148 C 0.4414(3) 0.70656(14) 0.28002(14)
C149 C 0.4899(3) 0.67401(15) 0.26265(14)
H264 H 0.49790 0.64010 0.28490
C150 C 0.5265(3) 0.68969(14) 0.21398(14)
C151 C 0.5138(3) 0.74033(15) 0.18023(14)
H265 H 0.53940 0.75160 0.14700
C152 C 0.4653(3) 0.77220(15) 0.19563(14)
H266 H 0.45630 0.80580 0.17270
C153 C 0.4311(4) 0.64057(14) 0.36452(14)
H267 H 0.51540 0.63100 0.36220
H268 H 0.38120 0.61780 0.35920
C154 C 0.3993(4) 0.63624(15) 0.41463(14)
H269 H 0.44680 0.66020 0.41900
H270 H 0.31420 0.64490 0.41690
C155 C 0.4213(4) 0.58515(16) 0.45499(15)
H271 H 0.50390 0.57500 0.45040
H272 H 0.36690 0.56170 0.45280
C156 C 0.4028(4) 0.58227(16) 0.50509(15)
H273 H 0.45310 0.60740 0.50630
H274 H 0.31880 0.59040 0.51030
C157 C 0.4321(4) 0.53233(17) 0.54605(15)
H275 H 0.51300 0.52240 0.53890
H276 H 0.37560 0.50780 0.54720
C158 C 0.4268(4) 0.53109(18) 0.59585(15)
H277 H 0.47940 0.55700 0.59430
H278 H 0.34450 0.53860 0.60410
C159 C 0.4642(5) 0.48181(19) 0.63553(17)
H279 H 0.45920 0.48300 0.66660
H280 H 0.41130 0.45610 0.63780
H281 H 0.54620 0.47440 0.62790
C160 C 0.5870(4) 0.60622(14) 0.22785(14)
H282 H 0.50750 0.59170 0.24140
H283 H 0.63510 0.60050 0.25530
C161 C 0.6467(4) 0.58050(15) 0.19976(14)
H284 H 0.60480 0.58950 0.17000
H285 H 0.73020 0.59170 0.18990
C162 C 0.6445(4) 0.52474(15) 0.23080(15)
H286 H 0.56150 0.51440 0.24320
H287 H 0.69190 0.51590 0.25920
C163 C 0.6930(4) 0.49629(16) 0.20374(16)
H288 H 0.77650 0.50610 0.19170
H289 H 0.64610 0.50510 0.17520
C164 C 0.6883(5) 0.44044(17) 0.23589(18)
H290 H 0.74000 0.43160 0.26300
H291 H 0.60590 0.43120 0.25000
C165 C 0.7268(6) 0.41089(18) 0.20959(19)
H292 H 0.80840 0.42080 0.19470
H293 H 0.67360 0.41900 0.18300
C166 C 0.7253(7) 0.3556(2) 0.2418(2)
H294 H 0.75120 0.33880 0.22230
H295 H 0.77930 0.34700 0.26770
H296 H 0.64440 0.34520 0.25600
N22 N 0.4129(3) 0.69044(12) 0.32754(11)
H297 H 0.38080 0.71170 0.33680
N23 N 0.5742(3) 0.65869(12) 0.19746(11)
H298 H 0.59880 0.67100 0.16660
N24 N 0.3784(3) 0.79263(13) 0.25684(12)
O15 O 0.3467(3) 0.7823(1) 0.30073(10)
O16 O 0.3661(3) 0.83602(10) 0.22426(11)
C167 C 0.7078(3) 0.74982(15) 0.01309(14)
C168 C 0.7583(3) 0.71543(14) -0.00229(14)
C169 C 0.7997(3) 0.73370(14) -0.05145(14)
H299 H 0.83470 0.71150 -0.06250
C170 C 0.7904(3) 0.78347(15) -0.08428(14)
C171 C 0.7406(4) 0.81718(15) -0.06817(15)
H300 H 0.73460 0.85120 -0.09030
C172 C 0.7014(4) 0.80030(15) -0.02070(14)
H301 H 0.66890 0.82300 -0.01000
C173 C 0.8197(4) 0.63091(14) 0.01453(14)
H302 H 0.90020 0.64190 -0.00120
H303 H 0.77060 0.62860 -0.00940
C174 C 0.8284(4) 0.58056(15) 0.05810(15)
H304 H 0.87440 0.58330 0.08260
H305 H 0.74750 0.56910 0.07300
C175 C 0.8878(4) 0.54305(14) 0.04420(15)
H306 H 0.96680 0.55560 0.02760
H307 H 0.83940 0.53940 0.02080
C176 C 0.9038(4) 0.49266(15) 0.08712(15)
H308 H 0.95050 0.49640 0.11090
H309 H 0.82470 0.47960 0.10320
C177 C 0.9661(4) 0.45568(15) 0.07320(15)
H310 H 1.04430 0.46910 0.05640
H311 H 0.91830 0.45140 0.05000
C178 C 0.9853(4) 0.40533(15) 0.11629(16)
H312 H 1.03410 0.40950 0.13930
H313 H 0.90730 0.39200 0.13340
C179 C 1.0462(4) 0.36842(17) 0.10196(18)
H314 H 1.05590 0.33700 0.13110
H315 H 0.99760 0.36340 0.07980
H316 H 1.12450 0.38090 0.08570
C180 C 0.8768(4) 0.77013(15) -0.15287(14)
H317 H 0.82010 0.74340 -0.14560
H318 H 0.95160 0.75480 -0.13770
C181 C 0.9019(4) 0.79860(15) -0.20733(13)
H319 H 0.96170 0.82440 -0.21480
H320 H 0.82810 0.81500 -0.22270
C182 C 0.9481(4) 0.76424(16) -0.22791(15)
H321 H 0.88800 0.73850 -0.22000
H322 H 1.02130 0.74770 -0.21210
C183 C 0.9756(4) 0.79059(16) -0.28295(15)
H323 H 1.03180 0.81780 -0.29120
H324 H 0.90140 0.80510 -0.29910
C184 C 1.0301(5) 0.7554(2) -0.30230(18)
H325 H 1.10240 0.74010 -0.28490
H326 H 0.97250 0.72870 -0.29420
C185 C 1.0617(7) 0.7778(3) -0.3540(2)
H327 H 1.11670 0.80550 -0.36250
H328 H 0.98890 0.79160 -0.37160
C186 C 1.1219(9) 0.7409(4) -0.3711(4)
H329 H 1.14120 0.75810 -0.40620
H330 H 1.19500 0.72770 -0.35430
H331 H 1.06720 0.71380 -0.36340
N25 N 0.7673(3) 0.66698(12) 0.02856(12)
H332 H 0.73970 0.65670 0.05890
N26 N 0.8279(3) 0.80085(12) -0.13166(11)
H333 H 0.82210 0.83270 -0.15070
N27 N 0.6647(3) 0.73668(13) 0.06104(12)
O17 O 0.6678(3) 0.69219(11) 0.09284(10)
O18 O 0.6225(3) 0.76891(12) 0.07156(10)
#END
