
#######################################################################
#
#                 Cambridge Crystallographic Data Centre
#                                CCDC
#
#######################################################################
#
# If this CIF has been generated from an entry in the Cambridge
# Structural Database, then it will include bibliographic, chemical,
# crystal, experimental, refinement or atomic coordinate data resulting
# from the CCDC's data processing and validation procedures.
#
#######################################################################

data_CSD_CIF_RAYFEF
_audit_creation_date 2017-06-01
_audit_creation_method CSD-ConQuest-V1
_database_code_CSD RAYFEF
_database_code_depnum_ccdc_archive 'CCDC 1518393'
_chemical_formula_sum 'C22 H39 N3 O2'
_chemical_formula_moiety
;
C22 H39 N3 O2
;
_journal_coden_Cambridge 423
_journal_volume 41
_journal_year 2017
_journal_page_first 235
_journal_name_full 'J.Chem.Res. '
loop_
_publ_author_name
"M.John Plater"
"W.T.A.Harrison"
"L.M.M.de los Toyos"
"L.Hendry"
_chemical_name_systematic
;
4-nitro-N,N'-dioctylbenzene-1,3-diamine
;
_chemical_name_common
;
2,4-bis(octylamino)nitrobenzene
;
_cell_volume  13533.990
_exptl_crystal_colour 'orange'
_exptl_crystal_density_diffrn 1.112
_exptl_crystal_description 'block'
_diffrn_ambient_temperature 100
#These two values have been output from a single CSD field.
_refine_ls_R_factor_gt 0.2038
_refine_ls_wR_factor_gt 0.2038
_symmetry_cell_setting triclinic
_symmetry_space_group_name_H-M 'P -1'
_symmetry_Int_Tables_number 2
loop_
_symmetry_equiv_pos_site_id
_symmetry_equiv_pos_as_xyz
1 x,y,z
2 -x,-y,-z
_cell_length_a 21.8346(12)
_cell_length_b 24.4599(11)
_cell_length_c 25.5751(12)
_cell_angle_alpha 97.386(4)
_cell_angle_beta 92.123(4)
_cell_angle_gamma 90.780(4)
_cell_formula_units_Z 24
loop_
_atom_type_symbol
_atom_type_radius_bond
C 0.68
H 0.23
N 0.68
O 0.68
loop_
_atom_site_label
_atom_site_type_symbol
_atom_site_fract_x
_atom_site_fract_y
_atom_site_fract_z
C1 C 0.1529(2) 0.37890(15) 0.39340(18)
C2 C 0.12074(18) 0.36109(18) 0.34622(19)
C3 C 0.13844(19) 0.31376(19) 0.31478(15)
H1 H 0.11650 0.30160 0.28250
C4 C 0.1883(2) 0.28423(15) 0.33052(17)
C5 C 0.22045(18) 0.30204(18) 0.37769(19)
H2 H 0.25450 0.28190 0.38840
C6 C 0.2028(2) 0.3494(2) 0.40913(15)
H3 H 0.22470 0.36150 0.44140
C7 C 0.0345(3) 0.3766(3) 0.2816(3)
H4 H 0.01520 0.33970 0.28110
H5 H 0.06190 0.37510 0.25140
C8 C -0.0148(3) 0.4190(3) 0.2759(3)
H6 H -0.04020 0.42170 0.30740
H7 H 0.00530 0.45540 0.27530
C9 C -0.0558(3) 0.4068(3) 0.2280(3)
H8 H -0.07500 0.36990 0.22820
H9 H -0.03050 0.40500 0.19650
C10 C -0.1062(3) 0.4480(3) 0.2224(3)
H10 H -0.13310 0.44880 0.25280
H11 H -0.08750 0.48520 0.22340
C11 C -0.1450(3) 0.4349(3) 0.1719(3)
H12 H -0.16590 0.39870 0.17190
H13 H -0.11800 0.43190 0.14150
C12 C -0.1937(4) 0.4793(3) 0.1652(3)
H14 H -0.22310 0.48020 0.19390
H15 H -0.17330 0.51600 0.16790
C13 C -0.2280(4) 0.4669(3) 0.1120(3)
H16 H -0.24730 0.42970 0.10930
H17 H -0.19840 0.46650 0.08360
C14 C -0.2780(4) 0.5092(4) 0.1036(4)
H18 H -0.29860 0.49930 0.06890
H19 H -0.30810 0.50920 0.13110
H20 H -0.25910 0.54600 0.10550
C15 C 0.1780(4) 0.2132(3) 0.2524(3)
H21 H 0.18220 0.23890 0.22570
H22 H 0.13370 0.20740 0.25730
C16 C 0.2062(3) 0.1586(3) 0.2324(3)
H23 H 0.19960 0.13210 0.25800
H24 H 0.25090 0.16390 0.22960
C17 C 0.1784(3) 0.1345(3) 0.1785(3)
H25 H 0.13320 0.13350 0.18030
H26 H 0.18900 0.15910 0.15220
C18 C 0.2002(4) 0.0768(3) 0.1599(3)
H27 H 0.24520 0.07870 0.15680
H28 H 0.19180 0.05320 0.18760
C19 C 0.1726(4) 0.0486(4) 0.1083(3)
H29 H 0.12860 0.05740 0.10600
H30 H 0.17570 0.00820 0.10790
C20 C 0.2037(4) 0.0654(4) 0.0592(4)
H31 H 0.19950 0.10560 0.05890
H32 H 0.24800 0.05750 0.06190
C21 C 0.1769(4) 0.0356(4) 0.0077(4)
H33 H 0.13410 0.04730 0.00230
H34 H 0.17630 -0.00460 0.00920
C22 C 0.2145(5) 0.0483(5) -0.0383(4)
H35 H 0.19650 0.02870 -0.07130
H36 H 0.21450 0.08800 -0.04020
H37 H 0.25670 0.03620 -0.03320
N1 N 0.0701(3) 0.3907(2) 0.3304(2)
H38 H 0.05940 0.41990 0.35170
N2 N 0.2073(3) 0.2377(2) 0.3022(2)
H39 H 0.23930 0.22110 0.31450
N3 N 0.1382(3) 0.4246(3) 0.4290(3)
O1 O 0.0922(2) 0.4549(2) 0.4190(2)
O2 O 0.1682(3) 0.4375(2) 0.4712(2)
C23 C 0.38689(19) 0.14010(19) 0.3949(2)
C24 C 0.4020(2) 0.0911(2) 0.36471(15)
C25 C 0.4474(2) 0.05824(15) 0.38285(18)
H40 H 0.45780 0.02480 0.36220
C26 C 0.47784(18) 0.07432(18) 0.43121(19)
C27 C 0.4628(2) 0.1233(2) 0.46144(15)
H41 H 0.48350 0.13430 0.49450
C28 C 0.4173(2) 0.15618(15) 0.44330(18)
H42 H 0.40700 0.18960 0.46400
C29 C 0.3859(4) 0.0234(3) 0.2815(3)
H43 H 0.38000 -0.00930 0.30000
H44 H 0.42900 0.02450 0.27110
C30 C 0.3432(3) 0.0188(3) 0.2324(3)
H45 H 0.30030 0.01640 0.24310
H46 H 0.34770 0.05260 0.21520
C31 C 0.3564(3) -0.0309(3) 0.1933(3)
H47 H 0.35250 -0.06460 0.21060
H48 H 0.39920 -0.02820 0.18220
C32 C 0.3123(3) -0.0360(3) 0.1435(3)
H49 H 0.26980 -0.04030 0.15480
H50 H 0.31470 -0.00120 0.12760
C33 C 0.3253(4) -0.0833(3) 0.1017(3)
H51 H 0.36720 -0.07840 0.08930
H52 H 0.32430 -0.11810 0.11770
C34 C 0.2805(3) -0.0882(3) 0.0551(3)
H53 H 0.28480 -0.05500 0.03690
H54 H 0.23830 -0.08890 0.06800
C35 C 0.2891(4) -0.1397(3) 0.0151(3)
H55 H 0.33210 -0.14040 0.00400
H56 H 0.28170 -0.17290 0.03250
C36 C 0.2476(4) -0.1420(4) -0.0326(3)
H57 H 0.25520 -0.17560 -0.05650
H58 H 0.20490 -0.14220 -0.02210
H59 H 0.25530 -0.10970 -0.05060
C37 C 0.5461(4) -0.0065(3) 0.4226(3)
H60 H 0.55890 -0.00020 0.38710
H61 H 0.51220 -0.03410 0.41810
C38 C 0.5998(3) -0.0288(3) 0.4525(3)
H62 H 0.63380 -0.00110 0.45680
H63 H 0.58700 -0.03450 0.48820
C39 C 0.6226(4) -0.0826(3) 0.4246(3)
H64 H 0.63110 -0.07800 0.38760
H65 H 0.59030 -0.11150 0.42400
C40 C 0.6815(4) -0.1012(3) 0.4521(3)
H66 H 0.71220 -0.07080 0.45520
H67 H 0.67180 -0.10790 0.48820
C41 C 0.7099(4) -0.1527(4) 0.4243(4)
H68 H 0.70720 -0.15130 0.38580
H69 H 0.75390 -0.15280 0.43510
C42 C 0.6813(5) -0.2043(4) 0.4352(5)
H70 H 0.63820 -0.20570 0.42150
H71 H 0.68090 -0.20430 0.47380
C43 C 0.7148(5) -0.2584(5) 0.4097(5)
H72 H 0.70680 -0.26270 0.37110
H73 H 0.75960 -0.25270 0.41630
C44 C 0.6975(6) -0.3082(6) 0.4284(6)
H74 H 0.72050 -0.33880 0.41050
H75 H 0.70640 -0.30520 0.46660
H76 H 0.65350 -0.31520 0.42120
N4 N 0.3730(3) 0.0727(2) 0.3163(2)
H77 H 0.34350 0.09340 0.30570
N5 N 0.5241(3) 0.0454(2) 0.4505(2)
H78 H 0.54190 0.05840 0.48110
N6 N 0.3422(3) 0.1755(3) 0.3789(3)
O3 O 0.3117(2) 0.1651(2) 0.3353(2)
O4 O 0.3322(2) 0.2206(2) 0.4079(2)
C45 C 0.6166(2) 0.1319(2) 0.63448(15)
C46 C 0.6673(2) 0.10309(15) 0.64967(18)
C47 C 0.69921(18) 0.12073(19) 0.6970(2)
H79 H 0.73390 0.10110 0.70740
C48 C 0.6804(2) 0.1672(2) 0.72917(15)
C49 C 0.6297(2) 0.19593(15) 0.71398(18)
H80 H 0.61680 0.22770 0.73600
C50 C 0.59778(18) 0.17828(19) 0.66663(19)
H81 H 0.56310 0.19800 0.65620
C51 C 0.7354(4) 0.0208(3) 0.6324(3)
H82 H 0.72830 0.00820 0.66700
H83 H 0.77450 0.04210 0.63550
C52 C 0.7403(3) -0.0289(3) 0.5909(3)
H84 H 0.69960 -0.04750 0.58520
H85 H 0.75110 -0.01590 0.55720
C53 C 0.7867(3) -0.0706(3) 0.6041(3)
H86 H 0.82750 -0.05210 0.60960
H87 H 0.77600 -0.08350 0.63780
C54 C 0.7913(4) -0.1197(3) 0.5631(3)
H88 H 0.80080 -0.10670 0.52920
H89 H 0.75070 -0.13870 0.55830
C55 C 0.8399(4) -0.1625(3) 0.5754(3)
H90 H 0.88080 -0.14410 0.57910
H91 H 0.83120 -0.17520 0.60960
C56 C 0.8418(4) -0.2121(3) 0.5336(3)
H92 H 0.84520 -0.19920 0.49860
H93 H 0.80280 -0.23330 0.53310
C57 C 0.8949(4) -0.2499(3) 0.5426(3)
H94 H 0.93360 -0.22820 0.54370
H95 H 0.89100 -0.26270 0.57740
C58 C 0.8987(4) -0.2987(3) 0.5020(3)
H96 H 0.93390 -0.32080 0.51060
H97 H 0.86110 -0.32110 0.50120
H98 H 0.90380 -0.28650 0.46730
C59 C 0.7662(3) 0.1612(3) 0.7943(3)
H99 H 0.79890 0.16300 0.76870
H100 H 0.75750 0.12180 0.79680
C60 C 0.7890(4) 0.1895(3) 0.8479(3)
H101 H 0.75650 0.18740 0.87360
H102 H 0.79750 0.22900 0.84550
C61 C 0.8468(4) 0.1634(4) 0.8676(3)
H103 H 0.83920 0.12330 0.86720
H104 H 0.88020 0.16820 0.84340
C62 C 0.8668(5) 0.1878(4) 0.9220(4)
H105 H 0.83050 0.19050 0.94420
H106 H 0.88250 0.22570 0.92070
C63 C 0.9198(8) 0.1534(7) 0.9504(7)
H107 H 0.91280 0.15500 0.98860
H108 H 0.91880 0.11420 0.93460
C64 C 0.9713(7) 0.1756(6) 0.9434(6)
H109 H 0.97010 0.21560 0.95590
H110 H 0.97910 0.17120 0.90520
C65 C 1.0294(9) 0.1470(8) 0.9760(8)
H111 H 1.01580 0.14290 1.01190
H112 H 1.03580 0.10950 0.95770
C66 C 1.0882(9) 0.1761(8) 0.9815(8)
H113 H 1.11760 0.15550 1.00090
H114 H 1.10340 0.17930 0.94640
H115 H 1.08340 0.21290 1.00080
N7 N 0.6863(3) 0.0560(2) 0.6196(3)
H116 H 0.66610 0.04640 0.58930
N8 N 0.7117(3) 0.1861(3) 0.7752(3)
H117 H 0.69770 0.21530 0.79440
N9 N 0.5812(3) 0.1181(3) 0.5880(3)
O5 O 0.5936(2) 0.0760(2) 0.5547(2)
O6 O 0.5365(3) 0.1473(2) 0.5779(2)
C67 C 0.6185(2) 0.36723(15) 0.87093(17)
C68 C 0.64977(18) 0.38387(17) 0.91880(18)
C69 C 0.63239(19) 0.43119(18) 0.95042(14)
H118 H 0.65370 0.44260 0.98310
C70 C 0.5838(2) 0.46188(14) 0.93418(16)
C71 C 0.55254(17) 0.44525(18) 0.88631(18)
H119 H 0.51930 0.46620 0.87520
C72 C 0.5699(2) 0.39792(19) 0.85468(14)
H120 H 0.54860 0.38660 0.82200
C73 C 0.7337(3) 0.3672(3) 0.9853(3)
H121 H 0.70620 0.36860 1.01540
H122 H 0.75360 0.40390 0.98620
C74 C 0.7823(3) 0.3238(3) 0.9901(3)
H123 H 0.76160 0.28760 0.99080
H124 H 0.80740 0.32090 0.95840
C75 C 0.8239(3) 0.3361(3) 1.0385(3)
H125 H 0.79890 0.33760 1.07020
H126 H 0.84330 0.37290 1.03850
C76 C 0.8734(3) 0.2943(3) 1.0422(3)
H127 H 0.89840 0.29290 1.01050
H128 H 0.85390 0.25740 1.04200
C77 C 0.9156(3) 0.3067(3) 1.0915(3)
H129 H 0.93570 0.34320 1.09120
H130 H 0.89040 0.30910 1.12310
C78 C 0.9654(3) 0.2640(3) 1.0968(3)
H131 H 0.99260 0.26310 1.06650
H132 H 0.94590 0.22710 1.09540
C79 C 1.0046(4) 0.2766(4) 1.1487(3)
H133 H 1.02400 0.31360 1.15030
H134 H 0.97760 0.27710 1.17900
C80 C 1.0549(4) 0.2334(4) 1.1533(4)
H135 H 1.07860 0.24280 1.18660
H136 H 1.03580 0.19680 1.15240
H137 H 1.08220 0.23330 1.12370
C81 C 0.5934(3) 0.5337(3) 1.0117(3)
H138 H 0.63820 0.53740 1.00790
H139 H 0.58660 0.50890 1.03870
C82 C 0.5676(4) 0.5898(3) 1.0299(3)
H140 H 0.52290 0.58600 1.03410
H141 H 0.57390 0.61440 1.00250
C83 C 0.5981(4) 0.6163(3) 1.0825(3)
H142 H 0.58780 0.59400 1.11070
H143 H 0.64320 0.61620 1.07950
C84 C 0.5778(4) 0.6751(3) 1.0978(3)
H144 H 0.53290 0.67470 1.10190
H145 H 0.58620 0.69660 1.06850
C85 C 0.6091(4) 0.7051(4) 1.1494(4)
H146 H 0.65310 0.69580 1.15050
H147 H 0.60620 0.74540 1.14940
C86 C 0.5797(5) 0.6890(4) 1.1976(4)
H148 H 0.58500 0.64910 1.19890
H149 H 0.53520 0.69610 1.19540
C87 C 0.6089(5) 0.7224(5) 1.2495(4)
H150 H 0.65180 0.71100 1.25430
H151 H 0.60940 0.76220 1.24560
C88 C 0.5747(6) 0.7137(5) 1.2971(5)
H152 H 0.59450 0.73530 1.32830
H153 H 0.53240 0.72570 1.29290
H154 H 0.57480 0.67450 1.30150
N10 N 0.6986(3) 0.3537(2) 0.9366(2)
H155 H 0.70870 0.32380 0.91610
N11 N 0.5653(3) 0.5100(2) 0.9625(2)
H156 H 0.53430 0.52720 0.94960
N12 N 0.6335(3) 0.3209(3) 0.8354(3)
O7 O 0.6781(2) 0.2898(2) 0.8465(2)
O8 O 0.6030(3) 0.3088(2) 0.7934(2)
C89 C 0.38581(19) 0.60817(19) 0.87353(19)
C90 C 0.3716(2) 0.6580(2) 0.90270(15)
C91 C 0.3255(2) 0.69022(14) 0.88452(17)
H157 H 0.31580 0.72430 0.90440
C92 C 0.29357(17) 0.67260(17) 0.83717(18)
C93 C 0.3078(2) 0.62276(19) 0.80801(14)
H158 H 0.28600 0.61070 0.77570
C94 C 0.3539(2) 0.59055(15) 0.82619(18)
H159 H 0.36360 0.55650 0.80630
C95 C 0.3916(3) 0.7269(3) 0.9841(3)
H160 H 0.34850 0.72680 0.99470
H161 H 0.39790 0.75880 0.96460
C96 C 0.4334(3) 0.7328(3) 1.0325(3)
H162 H 0.42990 0.69890 1.04960
H163 H 0.47620 0.73600 1.02160
C97 C 0.4201(4) 0.7815(3) 1.0719(3)
H164 H 0.37770 0.77800 1.08360
H165 H 0.42290 0.81550 1.05480
C98 C 0.4643(4) 0.7871(3) 1.1202(3)
H166 H 0.46140 0.75300 1.13710
H167 H 0.50670 0.79010 1.10820
C99 C 0.4530(4) 0.8362(3) 1.1615(3)
H168 H 0.41120 0.83240 1.17450
H169 H 0.45440 0.87020 1.14430
C100 C 0.4988(4) 0.8427(3) 1.2088(3)
H170 H 0.49460 0.80990 1.22760
H171 H 0.54070 0.84260 1.19530
C101 C 0.4927(4) 0.8935(3) 1.2482(3)
H172 H 0.49980 0.92630 1.23000
H173 H 0.45000 0.89490 1.25990
C102 C 0.5337(4) 0.8976(4) 1.2948(3)
H174 H 0.52610 0.93190 1.31770
H175 H 0.52630 0.86610 1.31400
H176 H 0.57630 0.89760 1.28400
C103 C 0.2276(3) 0.7545(3) 0.8442(3)
H177 H 0.26160 0.78200 0.84630
H178 H 0.21680 0.75000 0.88060
C104 C 0.1722(4) 0.7765(3) 0.8157(3)
H179 H 0.18250 0.78000 0.77890
H180 H 0.13770 0.74970 0.81460
C105 C 0.1525(3) 0.8307(3) 0.8416(3)
H181 H 0.18580 0.85830 0.84000
H182 H 0.14590 0.82800 0.87930
C106 C 0.0933(4) 0.8512(3) 0.8164(3)
H183 H 0.06200 0.82120 0.81330
H184 H 0.10190 0.85860 0.78020
C107 C 0.0654(5) 0.9042(5) 0.8467(5)
H185 H 0.02090 0.90500 0.83800
H186 H 0.07100 0.90350 0.88510
C108 C 0.0925(6) 0.9494(5) 0.8336(5)
H187 H 0.08900 0.94910 0.79480
H188 H 0.13650 0.94980 0.84420
C109 C 0.0596(7) 1.0061(6) 0.8634(6)
H189 H 0.01440 1.00180 0.86060
H190 H 0.07250 1.01230 0.90130
C110 C 0.0807(8) 1.0558(7) 0.8350(7)
H191 H 0.06220 1.08980 0.85150
H192 H 0.12540 1.05970 0.83810
H193 H 0.06760 1.04920 0.79760
N13 N 0.4029(3) 0.6766(2) 0.9498(2)
H194 H 0.43250 0.65570 0.95990
N14 N 0.2484(3) 0.7022(2) 0.8182(2)
H195 H 0.23010 0.68890 0.78790
N15 N 0.4306(3) 0.5710(2) 0.8893(3)
O9 O 0.4623(2) 0.5839(2) 0.9319(2)
O10 O 0.4385(2) 0.5266(2) 0.8619(2)
C111 C 0.1565(2) 0.6111(2) 0.63434(15)
C112 C 0.1050(2) 0.63918(16) 0.61976(18)
C113 C 0.07330(18) 0.62181(18) 0.57227(19)
H196 H 0.03810 0.64100 0.56230
C114 C 0.0931(2) 0.57635(19) 0.53935(15)
C115 C 0.1446(2) 0.54826(15) 0.55392(18)
H197 H 0.15820 0.51720 0.53140
C116 C 0.17633(18) 0.56563(19) 0.60142(19)
H198 H 0.21150 0.54640 0.61140
C117 C 0.0340(3) 0.7214(3) 0.6376(3)
H199 H -0.00490 0.69970 0.63430
H200 H 0.04100 0.73480 0.60340
C118 C 0.0294(3) 0.7694(3) 0.6798(3)
H201 H 0.07000 0.78830 0.68560
H202 H 0.01900 0.75560 0.71320
C119 C -0.0183(4) 0.8113(3) 0.6671(3)
H203 H -0.00830 0.82460 0.63340
H204 H -0.05890 0.79260 0.66200
C120 C -0.0221(3) 0.8600(3) 0.7088(3)
H205 H 0.01900 0.87790 0.71450
H206 H -0.03280 0.84650 0.74230
C121 C -0.0678(4) 0.9030(3) 0.6971(3)
H207 H -0.10900 0.88530 0.69200
H208 H -0.05750 0.91620 0.66340
C122 C -0.0706(4) 0.9527(3) 0.7396(3)
H209 H -0.07780 0.93930 0.77380
H210 H -0.03040 0.97220 0.74270
C123 C -0.1197(4) 0.9930(3) 0.7292(3)
H211 H -0.16000 0.97370 0.72740
H212 H -0.11340 1.00520 0.69430
C124 C -0.1214(5) 1.0436(3) 0.7703(4)
H213 H -0.15440 1.06760 0.76080
H214 H -0.12880 1.03210 0.80490
H215 H -0.08210 1.06370 0.77190
C125 C 0.0063(3) 0.5818(3) 0.4752(3)
H216 H 0.01480 0.62090 0.47110
H217 H -0.02530 0.58080 0.50180
C126 C -0.0176(3) 0.5513(3) 0.4228(3)
H218 H -0.02470 0.51180 0.42590
H219 H 0.01230 0.55420 0.39510
C127 C -0.0786(4) 0.5784(3) 0.4085(3)
H220 H -0.10790 0.57400 0.43640
H221 H -0.07080 0.61840 0.40880
C128 C -0.1086(4) 0.5558(4) 0.3557(3)
H222 H -0.11190 0.51510 0.35250
H223 H -0.08360 0.56580 0.32670
C129 C -0.1747(4) 0.5814(4) 0.3521(4)
H224 H -0.19890 0.57120 0.38150
H225 H -0.17060 0.62210 0.35630
C130 C -0.2079(4) 0.5627(4) 0.3021(4)
H226 H -0.21550 0.52240 0.29940
H227 H -0.18200 0.56970 0.27260
C131 C -0.2704(5) 0.5920(5) 0.2964(5)
H228 H -0.29590 0.58520 0.32620
H229 H -0.26250 0.63230 0.29930
C132 C -0.3059(6) 0.5745(6) 0.2466(6)
H230 H -0.34420 0.59490 0.24640
H231 H -0.28180 0.58210 0.21670
H232 H -0.31530 0.53490 0.24360
N16 N 0.0850(3) 0.6858(2) 0.6506(2)
H233 H 0.10480 0.69520 0.68110
N17 N 0.0623(3) 0.5570(2) 0.4933(2)
H234 H 0.07680 0.52820 0.47370
N18 N 0.1916(3) 0.6243(3) 0.6812(3)
O11 O 0.1774(2) 0.6662(2) 0.7144(2)
O12 O 0.2368(2) 0.5968(2) 0.6922(2)
C133 C 0.84483(19) 0.12076(19) 0.3385(2)
C134 C 0.8287(2) 0.1696(2) 0.36846(15)
C135 C 0.7814(2) 0.20079(15) 0.35078(18)
H235 H 0.77040 0.23410 0.37130
C136 C 0.75013(18) 0.18320(18) 0.30313(19)
C137 C 0.7662(2) 0.1344(2) 0.27316(15)
H236 H 0.74480 0.12240 0.24060
C138 C 0.8136(2) 0.10317(15) 0.29084(19)
H237 H 0.82450 0.06980 0.27040
C139 C 0.8466(4) 0.2357(3) 0.4527(3)
H238 H 0.80390 0.23360 0.46430
H239 H 0.85070 0.26860 0.43420
C140 C 0.8897(3) 0.2410(3) 0.4996(3)
H240 H 0.93210 0.24430 0.48780
H241 H 0.88690 0.20710 0.51680
C141 C 0.8768(4) 0.2905(3) 0.5397(3)
H242 H 0.88070 0.32440 0.52270
H243 H 0.83390 0.28760 0.55060
C142 C 0.9193(4) 0.2956(3) 0.5885(3)
H244 H 0.91430 0.26200 0.60600
H245 H 0.96210 0.29710 0.57740
C143 C 0.9085(4) 0.3455(3) 0.6282(3)
H246 H 0.86570 0.34360 0.63940
H247 H 0.91260 0.37880 0.61030
C144 C 0.9509(4) 0.3523(3) 0.6772(3)
H248 H 0.99370 0.35440 0.66620
H249 H 0.94670 0.31910 0.69540
C145 C 0.9387(4) 0.4034(4) 0.7167(4)
H250 H 0.94060 0.43620 0.69780
H251 H 0.89630 0.40030 0.72870
C146 C 0.9808(4) 0.4135(4) 0.7644(4)
H252 H 0.96880 0.44700 0.78660
H253 H 0.97850 0.38200 0.78440
H254 H 1.02300 0.41810 0.75350
C147 C 0.6828(4) 0.2657(3) 0.3108(3)
H255 H 0.71670 0.29320 0.31270
H256 H 0.67180 0.26170 0.34730
C148 C 0.6272(3) 0.2868(3) 0.2814(3)
H257 H 0.63780 0.29030 0.24460
H258 H 0.59280 0.25980 0.28010
C149 C 0.6072(3) 0.3420(3) 0.3080(3)
H259 H 0.64130 0.36920 0.30790
H260 H 0.59870 0.33870 0.34520
C150 C 0.5503(4) 0.3636(3) 0.2815(3)
H261 H 0.51720 0.33530 0.27980
H262 H 0.55970 0.36850 0.24480
C151 C 0.5266(5) 0.4183(4) 0.3091(4)
H263 H 0.48330 0.42220 0.29760
H264 H 0.52780 0.41700 0.34770
C152 C 0.5602(5) 0.4654(5) 0.2989(5)
H265 H 0.56120 0.46590 0.26030
H266 H 0.60300 0.46310 0.31260
C153 C 0.5315(7) 0.5212(7) 0.3254(6)
H267 H 0.50340 0.51120 0.35230
H268 H 0.56550 0.54340 0.34460
C154 C 0.5047(9) 0.5504(8) 0.3001(8)
H269 H 0.49060 0.58240 0.32320
H270 H 0.53170 0.56270 0.27410
H271 H 0.46930 0.53030 0.28180
N19 N 0.8593(3) 0.1867(3) 0.4171(3)
H272 H 0.88890 0.16570 0.42690
N20 N 0.7035(3) 0.2129(2) 0.2852(2)
H273 H 0.68420 0.19910 0.25560
N21 N 0.8914(3) 0.0860(3) 0.3521(3)
O13 O 0.9214(2) 0.0975(2) 0.3959(2)
O14 O 0.9034(3) 0.0430(2) 0.3234(2)
C155 C 0.6058(2) 0.11873(19) 0.10481(15)
C156 C 0.5569(2) 0.14943(15) 0.08920(18)
C157 C 0.52399(18) 0.13212(18) 0.04229(19)
H274 H 0.49060 0.15310 0.03160
C158 C 0.5400(2) 0.0841(2) 0.01100(15)
C159 C 0.5889(2) 0.05341(15) 0.02662(18)
H275 H 0.59990 0.02060 0.00520
C160 C 0.62185(18) 0.07072(18) 0.07352(19)
H276 H 0.65530 0.04970 0.08420
C161 C 0.4900(3) 0.2339(3) 0.1046(3)
H277 H 0.45060 0.21300 0.10210
H278 H 0.49720 0.24570 0.06970
C162 C 0.4864(4) 0.2838(3) 0.1453(3)
H279 H 0.47720 0.27160 0.17970
H280 H 0.52690 0.30290 0.14930
C163 C 0.4387(4) 0.3239(3) 0.1319(3)
H281 H 0.39820 0.30480 0.12850
H282 H 0.44750 0.33540 0.09720
C164 C 0.4352(4) 0.3747(3) 0.1718(3)
H283 H 0.47430 0.39580 0.17220
H284 H 0.43140 0.36290 0.20720
C165 C 0.3830(4) 0.4130(3) 0.1625(3)
H285 H 0.34380 0.39240 0.16320
H286 H 0.38600 0.42400 0.12670
C166 C 0.3812(4) 0.4652(3) 0.2023(3)
H287 H 0.37740 0.45420 0.23800
H288 H 0.42080 0.48540 0.20210
C167 C 0.3306(4) 0.5038(3) 0.1930(4)
H289 H 0.33560 0.51660 0.15810
H290 H 0.29110 0.48330 0.19150
C168 C 0.3278(5) 0.5531(4) 0.2337(4)
H291 H 0.29370 0.57620 0.22480
H292 H 0.32170 0.54110 0.26830
H293 H 0.36630 0.57440 0.23490
C169 C 0.4553(3) 0.0900(3) -0.0560(3)
H294 H 0.46470 0.12910 -0.05950
H295 H 0.42250 0.08950 -0.03030
C170 C 0.4317(3) 0.0608(3) -0.1092(3)
H296 H 0.42720 0.02090 -0.10680
H297 H 0.46240 0.06550 -0.13590
C171 C 0.3704(4) 0.0825(4) -0.1272(4)
H298 H 0.33990 0.07820 -0.10030
H299 H 0.37510 0.12240 -0.12980
C172 C 0.3463(5) 0.0531(5) -0.1802(4)
H300 H 0.35350 0.01310 -0.18200
H301 H 0.36810 0.06720 -0.20910
C173 C 0.2779(6) 0.0634(8) -0.1862(7)
H302 H 0.25670 0.03080 -0.20620
H303 H 0.25980 0.07080 -0.15110
C174 C 0.2715(7) 0.1123(9) -0.2152(9)
H304 H 0.31380 0.12470 -0.22090
H305 H 0.25390 0.14160 -0.19010
C175 C 0.2364(11) 0.114(3) -0.2668(9)
H306 H 0.24980 0.08290 -0.29280
H307 H 0.24560 0.14860 -0.28060
C176 C 0.1678(9) 0.1081(15) -0.2605(11)
H308 H 0.14630 0.10900 -0.29470
H309 H 0.15850 0.07310 -0.24750
H310 H 0.15420 0.13870 -0.23530
N22 N 0.5397(3) 0.1982(2) 0.1186(2)
H311 H 0.56050 0.20850 0.14840
N23 N 0.5102(3) 0.0650(3) -0.0354(3)
H312 H 0.52470 0.03570 -0.05430
N24 N 0.6422(3) 0.1320(3) 0.1508(3)
O15 O 0.6310(2) 0.1763(2) 0.1833(2)
O16 O 0.6860(3) 0.1035(2) 0.1624(2)
C177 C 0.6011(2) -0.11391(15) -0.13465(18)
C178 C 0.57004(18) -0.13050(19) -0.1826(2)
C179 C 0.5878(2) -0.1776(2) -0.21440(15)
H313 H 0.56660 -0.18890 -0.24720
C180 C 0.6366(2) -0.20806(15) -0.19821(17)
C181 C 0.66769(18) -0.19146(18) -0.15024(19)
H314 H 0.70110 -0.21230 -0.13920
C182 C 0.6499(2) -0.14439(19) -0.11846(15)
H315 H 0.67110 -0.13300 -0.08570
C183 C 0.4844(3) -0.1149(3) -0.2493(3)
H316 H 0.46470 -0.15160 -0.24930
H317 H 0.51140 -0.11680 -0.27970
C184 C 0.4357(3) -0.0722(3) -0.2546(3)
H318 H 0.40900 -0.07080 -0.22400
H319 H 0.45590 -0.03560 -0.25330
C185 C 0.3969(4) -0.0833(3) -0.3041(3)
H320 H 0.37590 -0.11960 -0.30500
H321 H 0.42370 -0.08550 -0.33470
C186 C 0.3488(3) -0.0394(3) -0.3097(3)
H322 H 0.32190 -0.03700 -0.27920
H323 H 0.36960 -0.00310 -0.30920
C187 C 0.3096(4) -0.0520(3) -0.3605(3)
H324 H 0.29100 -0.08930 -0.36170
H325 H 0.33650 -0.05250 -0.39090
C188 C 0.2582(3) -0.0104(3) -0.3663(3)
H326 H 0.23100 -0.01020 -0.33610
H327 H 0.27670 0.02700 -0.36470
C189 C 0.2200(4) -0.0233(4) -0.4175(3)
H328 H 0.24750 -0.02400 -0.44740
H329 H 0.20160 -0.06070 -0.41870
C190 C 0.1694(4) 0.0165(4) -0.4250(4)
H330 H 0.14730 0.00510 -0.45880
H331 H 0.14100 0.01680 -0.39620
H332 H 0.18710 0.05360 -0.42490
C191 C 0.6282(3) -0.2782(3) -0.2787(3)
H333 H 0.63660 -0.25300 -0.30510
H334 H 0.58320 -0.28180 -0.27640
C192 C 0.6544(3) -0.3342(3) -0.2965(3)
H335 H 0.64680 -0.35910 -0.26980
H336 H 0.69920 -0.33040 -0.29970
C193 C 0.6252(4) -0.3594(3) -0.3500(3)
H337 H 0.58000 -0.35670 -0.34840
H338 H 0.63860 -0.33750 -0.37760
C194 C 0.6414(4) -0.4190(4) -0.3655(4)
H339 H 0.62860 -0.44050 -0.33740
H340 H 0.68660 -0.42130 -0.36710
C195 C 0.6131(5) -0.4467(4) -0.4182(4)
H341 H 0.61310 -0.48710 -0.41820
H342 H 0.56990 -0.43540 -0.42130
C196 C 0.6451(5) -0.4332(5) -0.4645(4)
H343 H 0.68900 -0.44180 -0.46010
H344 H 0.64220 -0.39310 -0.46610
C197 C 0.6199(6) -0.4640(5) -0.5163(5)
H345 H 0.61460 -0.50340 -0.51210
H346 H 0.57890 -0.44960 -0.52420
C198 C 0.6592(6) -0.4596(5) -0.5623(5)
H347 H 0.63990 -0.48050 -0.59410
H348 H 0.66380 -0.42080 -0.56760
H349 H 0.69960 -0.47470 -0.55540
N25 N 0.5204(3) -0.1006(3) -0.2009(2)
H350 H 0.51050 -0.07030 -0.18090
N26 N 0.6548(3) -0.2546(2) -0.2275(2)
H351 H 0.68550 -0.27220 -0.21450
N27 N 0.5869(3) -0.0680(3) -0.0999(3)
O17 O 0.5426(2) -0.0359(2) -0.1107(2)
O18 O 0.6166(3) -0.0560(2) -0.0569(2)
C199 C 0.83888(19) -0.34979(19) -0.13612(19)
C200 C 0.8539(2) -0.3991(2) -0.16589(15)
C201 C 0.9000(2) -0.43130(15) -0.14785(18)
H352 H 0.91030 -0.46500 -0.16820
C202 C 0.93124(18) -0.41427(18) -0.10004(19)
C203 C 0.9163(2) -0.3650(2) -0.07027(15)
H353 H 0.93760 -0.35340 -0.03760
C204 C 0.8701(2) -0.33276(15) -0.08831(18)
H354 H 0.85980 -0.29910 -0.06800
C205 C 0.8343(3) -0.4666(3) -0.2483(3)
H355 H 0.82820 -0.49900 -0.22920
H356 H 0.87740 -0.46620 -0.25910
C206 C 0.7912(3) -0.4714(3) -0.2969(3)
H357 H 0.74830 -0.47250 -0.28570
H358 H 0.79650 -0.43830 -0.31500
C207 C 0.8027(4) -0.5222(3) -0.3350(3)
H359 H 0.79820 -0.55510 -0.31660
H360 H 0.84550 -0.52070 -0.34640
C208 C 0.7590(4) -0.5287(3) -0.3844(3)
H361 H 0.71640 -0.53120 -0.37280
H362 H 0.76250 -0.49500 -0.40190
C209 C 0.7703(4) -0.5779(3) -0.4244(3)
H363 H 0.76770 -0.61170 -0.40690
H364 H 0.81240 -0.57490 -0.43690
C210 C 0.7254(4) -0.5837(4) -0.4716(3)
H365 H 0.68330 -0.58490 -0.45850
H366 H 0.72910 -0.55030 -0.48940
C211 C 0.7331(4) -0.6336(4) -0.5120(4)
H367 H 0.77600 -0.63370 -0.52340
H368 H 0.72680 -0.66710 -0.49470
C212 C 0.6931(5) -0.6373(4) -0.5582(4)
H369 H 0.70180 -0.67090 -0.58170
H370 H 0.65040 -0.63860 -0.54770
H371 H 0.69970 -0.60510 -0.57650
C213 C 0.9979(3) -0.4961(3) -0.1097(3)
H372 H 1.01220 -0.48960 -0.14470
H373 H 0.96340 -0.52320 -0.11550
C214 C 1.0504(3) -0.5203(3) -0.0788(3)
H374 H 1.08400 -0.49240 -0.07120
H375 H 1.03550 -0.52900 -0.04470
C215 C 1.0745(3) -0.5708(3) -0.1086(3)
H376 H 1.08880 -0.56180 -0.14290
H377 H 1.04070 -0.59840 -0.11610
C216 C 1.1279(4) -0.5965(3) -0.0793(3)
H378 H 1.15960 -0.56760 -0.06860
H379 H 1.11230 -0.60870 -0.04670
C217 C 1.1574(4) -0.6446(3) -0.1105(4)
H380 H 1.17140 -0.63340 -0.14400
H381 H 1.19380 -0.65540 -0.09030
C218 C 1.1148(6) -0.6927(5) -0.1225(5)
H382 H 1.08380 -0.68470 -0.14970
H383 H 1.09280 -0.69780 -0.09020
C219 C 1.1486(7) -0.7504(6) -0.1436(6)
H384 H 1.16770 -0.76680 -0.11370
H385 H 1.18070 -0.74380 -0.16860
C220 C 1.093(1) -0.7917(8) -0.1736(8)
H386 H 1.11020 -0.82720 -0.18730
H387 H 1.06160 -0.79750 -0.14840
H388 H 1.07450 -0.77460 -0.20290
N28 N 0.8226(3) -0.4171(2) -0.2140(2)
H389 H 0.79320 -0.39600 -0.22420
N29 N 0.9761(3) -0.4442(2) -0.0819(3)
H390 H 0.99390 -0.43190 -0.05120
N30 N 0.7926(3) -0.3139(3) -0.1521(3)
O19 O 0.7606(3) -0.3263(2) -0.1943(2)
O20 O 0.7847(3) -0.2682(2) -0.1246(2)
C221 C 1.0800(2) -0.3554(2) 0.09516(15)
C222 C 1.1298(2) -0.38456(15) 0.11173(17)
C223 C 1.16015(18) -0.36708(18) 0.15983(19)
H391 H 1.19410 -0.38700 0.17120
C224 C 1.1408(2) -0.32046(19) 0.19136(15)
C225 C 1.0910(2) -0.29131(15) 0.17479(18)
H392 H 1.07780 -0.25940 0.19630
C226 C 1.06067(18) -0.30879(19) 0.12670(19)
H393 H 1.02670 -0.28890 0.11540
C227 C 1.1986(4) -0.4684(3) 0.0960(3)
H394 H 1.18920 -0.48290 0.12920
H395 H 1.23790 -0.44730 0.10170
C228 C 1.2042(3) -0.5149(3) 0.0527(3)
H396 H 1.21550 -0.49970 0.02030
H397 H 1.16360 -0.53350 0.04550
C229 C 1.2504(4) -0.5574(3) 0.0639(3)
H398 H 1.24180 -0.56980 0.09830
H399 H 1.29170 -0.53980 0.06710
C230 C 1.2509(4) -0.6076(3) 0.0221(3)
H400 H 1.26310 -0.59570 -0.01170
H401 H 1.20880 -0.62340 0.01660
C231 C 1.2942(4) -0.6524(3) 0.0364(3)
H402 H 1.33680 -0.63770 0.03810
H403 H 1.28480 -0.66130 0.07200
C232 C 1.2901(4) -0.7050(3) -0.0022(4)
H404 H 1.29970 -0.69640 -0.03780
H405 H 1.24760 -0.72000 -0.00400
C233 C 1.3348(5) -0.7496(4) 0.0138(4)
H406 H 1.37770 -0.73670 0.01190
H407 H 1.32790 -0.75640 0.05050
C234 C 1.3235(6) -0.8027(5) -0.0239(5)
H408 H 1.35140 -0.83110 -0.01410
H409 H 1.28100 -0.81540 -0.02160
H410 H 1.33070 -0.79580 -0.06000
C235 C 1.2247(3) -0.3257(3) 0.2573(3)
H411 H 1.25690 -0.32560 0.23100
H412 H 1.21560 -0.36460 0.26160
C236 C 1.2494(4) -0.2961(3) 0.3092(3)
H413 H 1.21790 -0.29660 0.33610
H414 H 1.25880 -0.25720 0.30540
C237 C 1.3072(4) -0.3234(3) 0.3277(3)
H415 H 1.29760 -0.36310 0.32800
H416 H 1.33860 -0.32090 0.30110
C238 C 1.3356(5) -0.3011(4) 0.3812(4)
H417 H 1.30890 -0.31020 0.40940
H418 H 1.34000 -0.26040 0.38410
C239 C 1.4008(6) -0.3277(5) 0.3876(5)
H419 H 1.39510 -0.36820 0.38400
H420 H 1.42590 -0.31920 0.35810
C240 C 1.4332(6) -0.3113(6) 0.4337(6)
H421 H 1.40920 -0.32020 0.46370
H422 H 1.43970 -0.27080 0.43780
C241 C 1.4963(7) -0.3399(6) 0.4352(6)
H423 H 1.49000 -0.38040 0.43010
H424 H 1.52100 -0.32990 0.40600
C242 C 1.5293(7) -0.3234(6) 0.4851(6)
H425 H 1.56880 -0.34190 0.48510
H426 H 1.53620 -0.28340 0.48990
H427 H 1.50520 -0.33380 0.51390
N31 N 1.1499(3) -0.4322(2) 0.0818(2)
H428 H 1.13110 -0.44160 0.05090
N32 N 1.1702(3) -0.3021(3) 0.2368(3)
H429 H 1.15520 -0.27330 0.25600
N33 N 1.0456(3) -0.3688(3) 0.0478(3)
O21 O 1.0579(2) -0.4122(2) 0.0162(2)
O22 O 1.0036(3) -0.3391(2) 0.0340(2)
C243 C 1.0717(2) -0.12645(16) 0.33457(19)
C244 C 1.10574(18) -0.10565(19) 0.3799(2)
C245 C 1.08860(19) -0.05701(19) 0.40960(15)
H430 H 1.11190 -0.04280 0.44060
C246 C 1.0374(2) -0.02917(15) 0.39389(18)
C247 C 1.00335(18) -0.0500(2) 0.34853(19)
H431 H 0.96840 -0.03090 0.33780
C248 C 1.0205(2) -0.0986(2) 0.31887(16)
H432 H 0.99720 -0.11280 0.28790
C249 C 1.1934(3) -0.1198(3) 0.4461(3)
H433 H 1.16640 -0.11920 0.47640
H434 H 1.21150 -0.08240 0.44670
C250 C 1.2430(3) -0.1599(3) 0.4512(3)
H435 H 1.22430 -0.19710 0.45020
H436 H 1.26930 -0.16050 0.42050
C251 C 1.2820(4) -0.1478(3) 0.5001(3)
H437 H 1.25530 -0.14550 0.53080
H438 H 1.30200 -0.11120 0.50030
C252 C 1.3321(4) -0.1904(3) 0.5072(3)
H439 H 1.31240 -0.22730 0.50600
H440 H 1.35970 -0.19190 0.47730
C253 C 1.3697(4) -0.1783(3) 0.5578(3)
H441 H 1.34200 -0.17630 0.58770
H442 H 1.39000 -0.14170 0.55870
C254 C 1.4191(4) -0.2212(4) 0.5653(3)
H443 H 1.44810 -0.22220 0.53630
H444 H 1.39930 -0.25810 0.56310
C255 C 1.4553(4) -0.2089(4) 0.6186(4)
H445 H 1.47530 -0.17200 0.62070
H446 H 1.42630 -0.20760 0.64750
C256 C 1.5029(4) -0.2504(4) 0.6264(4)
H447 H 1.52420 -0.24040 0.66070
H448 H 1.48330 -0.28690 0.62520
H449 H 1.53240 -0.25120 0.59830
C257 C 1.0530(4) 0.0433(3) 0.4705(3)
H450 H 1.09620 0.05050 0.46260
H451 H 1.05280 0.01680 0.49660
C258 C 1.0254(3) 0.0962(3) 0.4942(3)
H452 H 0.98250 0.08920 0.50290
H453 H 1.02530 0.12290 0.46820
C259 C 1.0617(4) 0.1203(3) 0.5438(3)
H454 H 1.06160 0.09250 0.56870
H455 H 1.10470 0.12530 0.53410
C260 C 1.0415(4) 0.1741(3) 0.5730(3)
H456 H 1.00020 0.16950 0.58670
H457 H 1.03950 0.20260 0.54880
C261 C 1.0885(5) 0.1924(4) 0.6197(4)
H458 H 1.09180 0.16270 0.64250
H459 H 1.12930 0.19810 0.60550
C262 C 1.0704(6) 0.2424(5) 0.6506(5)
H460 H 1.03130 0.23630 0.66750
H461 H 1.06460 0.27180 0.62780
C263 C 1.1222(6) 0.2598(5) 0.6938(5)
H462 H 1.16120 0.26530 0.67650
H463 H 1.12790 0.23000 0.71620
C264 C 1.1049(6) 0.3166(6) 0.7305(6)
H464 H 1.13790 0.32660 0.75720
H465 H 1.09990 0.34620 0.70840
H466 H 1.06660 0.31090 0.74800
N34 N 1.1574(3) -0.1346(2) 0.3971(2)
H467 H 1.16850 -0.16390 0.37630
N35 N 1.0203(3) 0.0180(3) 0.4217(3)
H468 H 0.98800 0.03470 0.41030
N36 N 1.0868(3) -0.1735(3) 0.3001(3)
O23 O 1.1334(3) -0.2013(2) 0.3099(2)
O24 O 1.0537(3) -0.1885(3) 0.2592(3)
#END
