
#######################################################################
#
#                 Cambridge Crystallographic Data Centre
#                                CCDC
#
#######################################################################
#
# If this CIF has been generated from an entry in the Cambridge
# Structural Database, then it will include bibliographic, chemical,
# crystal, experimental, refinement or atomic coordinate data resulting
# from the CCDC's data processing and validation procedures.
#
#######################################################################

data_CSD_CIF_RAYFUV
_audit_creation_date 2017-06-01
_audit_creation_method CSD-ConQuest-V1
_database_code_CSD RAYFUV
_database_code_depnum_ccdc_archive 'CCDC 1538677'
_chemical_formula_sum 'C30 H28 N2 O8'
_chemical_formula_moiety
;
C30 H28 N2 O8
;
_journal_coden_Cambridge 1291
_journal_year 2017
_journal_page_first 3009
_journal_name_full 'Eur.J.Org.Chem. '
loop_
_publ_author_name
"H.K.Kotapati"
"J.D.Robinson"
"D.R.Lawrence"
"K.R.Fortner"
"C.W.Stanford"
"D.R.Powell"
"R.Wardenga"
"U.T.Bornscheuer"
"D.S.Masterson"
_chemical_name_systematic
;
(2S,4S)-ethyl (4-nitrophenyl)methyl 
[2-(1,3-dioxo-1,3-dihydro-2H-isoindol-2-yl)-3-phenylpropyl](methyl)propanedioa
te
;
_chemical_name_common
;
(S)-1-ethyl 3-(4-nitrobenzyl) 2-((S)-2-(1, 
3-dioxoisoindolin-2-yl)-3-phenylpropyl)-2-methylmalonate
;
_chemical_melting_point 398
_cell_volume   2684.810
_exptl_crystal_colour 'colorless'
_exptl_crystal_density_diffrn 1.347
_exptl_special_details
;
Absolute configuration
, Hygroscopic

;
_exptl_crystal_description 'block'
_exptl_crystal_preparation 'dichloromethane/diethyl ether/hexanes'
_diffrn_ambient_temperature 100
#These two values have been output from a single CSD field.
_refine_ls_R_factor_gt 0.0313
_refine_ls_wR_factor_gt 0.0313
_symmetry_cell_setting orthorhombic
_symmetry_space_group_name_H-M 'P 21 21 21'
_symmetry_Int_Tables_number 19
loop_
_symmetry_equiv_pos_site_id
_symmetry_equiv_pos_as_xyz
1 x,y,z
2 1/2-x,-y,1/2+z
3 -x,1/2+y,1/2-z
4 1/2+x,1/2-y,-z
_cell_length_a 8.5572(3)
_cell_length_b 14.4690(6)
_cell_length_c 21.6842(9)
_cell_angle_alpha 90
_cell_angle_beta 90
_cell_angle_gamma 90
_cell_formula_units_Z 4
loop_
_atom_type_symbol
_atom_type_radius_bond
C 0.68
H 0.23
N 0.68
O 0.68
loop_
_atom_site_label
_atom_site_type_symbol
_atom_site_fract_x
_atom_site_fract_y
_atom_site_fract_z
O1 O 0.05256(11) 0.68625(7) 0.29464(5)
O2 O 0.06156(13) 0.54059(7) 0.25815(5)
O3 O 0.18883(11) 0.60108(6) 0.41163(4)
O4 O 0.35721(13) 0.71601(7) 0.38871(5)
O5 O -0.15944(14) 0.45655(9) 0.70153(5)
O6 O -0.16755(16) 0.33918(9) 0.63925(6)
O7 O 0.71303(12) 0.61550(7) 0.39900(5)
O8 O 0.33864(12) 0.39580(7) 0.43856(4)
N1 N -0.13188(14) 0.41934(9) 0.65163(6)
N2 N 0.51814(13) 0.50334(7) 0.40228(5)
C1 C -0.16795(18) 0.78698(11) 0.28948(8)
H1 H -0.16840 0.79050 0.33460
H2 H -0.27470 0.79490 0.27400
H3 H -0.10100 0.83590 0.27280
C2 C -0.10613(16) 0.69421(10) 0.26965(7)
H4 H -0.17320 0.64410 0.28590
H5 H -0.10410 0.68980 0.22410
C3 C 0.12128(15) 0.60459(9) 0.28468(6)
C4 C 0.28971(15) 0.60474(9) 0.30936(6)
C5 C 0.38737(17) 0.66605(10) 0.26627(7)
H6 H 0.34720 0.72950 0.26750
H7 H 0.38050 0.64230 0.22400
H8 H 0.49670 0.66550 0.27980
C6 C 0.28602(14) 0.64799(9) 0.37351(6)
C7 C 0.16346(18) 0.64599(10) 0.47021(6)
H9 H 0.09550 0.70060 0.46420
H10 H 0.26470 0.66770 0.48690
C8 C 0.08871(15) 0.58159(9) 0.51545(6)
C9 C 0.07890(15) 0.61329(10) 0.57641(6)
H11 H 0.12110 0.67190 0.58690
C10 C 0.00842(16) 0.55994(10) 0.62127(6)
H12 H 0.00050 0.58140 0.66260
C11 C -0.05060(16) 0.47424(10) 0.60450(6)
C12 C -0.04168(17) 0.44050(9) 0.54475(6)
H13 H -0.08250 0.38130 0.53470
C13 C 0.02851(16) 0.49537(9) 0.49984(6)
H14 H 0.03530 0.47390 0.45850
C14 C 0.34574(16) 0.50332(9) 0.31027(6)
H15 H 0.26980 0.46700 0.33470
H16 H 0.34190 0.47960 0.26750
C15 C 0.50913(15) 0.48395(9) 0.33596(6)
H17 H 0.58520 0.52500 0.31420
C16 C 0.55235(17) 0.38240(9) 0.32162(6)
H18 H 0.46290 0.34250 0.33300
H19 H 0.56870 0.37620 0.27660
C17 C 0.69616(16) 0.34764(9) 0.35442(6)
C18 C 0.68179(17) 0.29080(9) 0.40625(7)
H20 H 0.58080 0.27410 0.42060
C19 C 0.8136(2) 0.25819(10) 0.43716(7)
H21 H 0.80200 0.22030 0.47260
C20 C 0.96157(19) 0.28115(11) 0.41606(8)
H22 H 1.05160 0.25830 0.43670
C21 C 0.97757(18) 0.33765(12) 0.36465(8)
H23 H 1.07890 0.35350 0.35020
C22 C 0.84587(18) 0.37128(10) 0.33422(7)
H24 H 0.85800 0.41060 0.29950
C23 C 0.62382(15) 0.56728(8) 0.42789(6)
C24 C 0.66877(16) 0.61298(9) 0.54269(6)
H25 H 0.74800 0.65720 0.53430
C25 C 0.61825(17) 0.59519(10) 0.60294(6)
H26 H 0.66280 0.62880 0.63620
C26 C 0.50375(18) 0.52905(10) 0.61510(6)
H27 H 0.47250 0.51810 0.65650
C27 C 0.43416(17) 0.47853(9) 0.56747(6)
H28 H 0.35650 0.43320 0.57560
C28 C 0.43286(15) 0.45659(8) 0.44794(6)
C29 C 0.59807(15) 0.56311(9) 0.49590(6)
C30 C 0.48348(15) 0.49743(9) 0.50790(6)
#END
