
#######################################################################
#
#                 Cambridge Crystallographic Data Centre
#                                CCDC
#
#######################################################################
#
# If this CIF has been generated from an entry in the Cambridge
# Structural Database, then it will include bibliographic, chemical,
# crystal, experimental, refinement or atomic coordinate data resulting
# from the CCDC's data processing and validation procedures.
#
#######################################################################

data_CSD_CIF_RAYMOT
_audit_creation_date 1997-08-26
_audit_creation_method CSD-ConQuest-V1
_database_code_CSD RAYMOT
_chemical_formula_sum 'C11 H17 N1 O5'
_chemical_formula_moiety
;
C11 H17 N1 O5
;
_journal_coden_Cambridge 35
_journal_volume 61
_journal_year 1996
_journal_page_first 8677
_journal_name_full 'J.Org.Chem. '
loop_
_publ_author_name
"M.R.Iesce"
"F.Cermola"
"A.Guitto"
"F.Giordano"
"R.Scarpati"
_chemical_name_systematic
;
(Z)-1-Hydroperoxy-N-((Z)-3-(methoxycarbonyl)-2-propenylidene)cyclohexylamine 
N-oxide
;
_chemical_melting_point 349.15
_cell_volume   2452.737
_exptl_crystal_density_diffrn 1.32
_exptl_special_details
;
Melting point range 349.15-351.15K

;
_diffrn_ambient_temperature ?
_diffrn_special_details
;
The study was carried out at room temperature,in the range 283-303K

;
#These two values have been output from a single CSD field.
_refine_ls_R_factor_gt 0.043
_refine_ls_wR_factor_gt 0.043
_symmetry_cell_setting monoclinic
_symmetry_space_group_name_H-M 'C c'
_symmetry_Int_Tables_number 9
loop_
_symmetry_equiv_pos_site_id
_symmetry_equiv_pos_as_xyz
1 x,y,z
2 x,-y,1/2+z
3 1/2+x,1/2+y,z
4 1/2+x,1/2-y,1/2+z
_cell_length_a 13.295(3)
_cell_length_b 13.127(3)
_cell_length_c 14.476(3)
_cell_angle_alpha 90
_cell_angle_beta 103.87(2)
_cell_angle_gamma 90
_cell_formula_units_Z 8
loop_
_atom_type_symbol
_atom_type_radius_bond
C 0.68
H 0.23
N 0.68
O 0.68
loop_
_atom_site_label
_atom_site_type_symbol
_atom_site_fract_x
_atom_site_fract_y
_atom_site_fract_z
O1 O 1.26800 0.1681(2) 0.21100
O2 O 1.2921(2) 0.2132(2) 0.3063(2)
O3 O 1.0401(2) 0.3038(2) 0.0998(2)
O4 O 1.0577(2) 0.0283(2) 0.3615(2)
O5 O 0.8974(2) -0.0061(2) 0.3751(2)
N1 N 1.0998(2) 0.2384(2) 0.1538(2)
C1 C 1.2119(2) 0.2374(3) 0.1441(2)
C2 C 1.2109(3) 0.1891(3) 0.0483(3)
C3 C 1.3189(3) 0.1909(3) 0.0288(3)
C4 C 1.3646(3) 0.2989(3) 0.0396(3)
C5 C 1.3634(3) 0.3451(3) 0.1359(3)
C6 C 1.2544(3) 0.3448(3) 0.1527(3)
C7 C 1.0650(3) 0.1717(3) 0.2062(2)
C8 C 0.9569(3) 0.1634(3) 0.2012(3)
C9 C 0.9116(3) 0.1047(3) 0.2556(3)
C10 C 0.9658(3) 0.0402(3) 0.3351(3)
C11 C 0.9392(4) -0.0711(4) 0.4558(3)
O6 O 1.6089(2) 0.0063(2) 0.2366(2)
O7 O 1.5379(2) 0.0085(2) 0.1423(2)
O8 O 1.5040(2) 0.2062(2) 0.3503(2)
O9 O 1.7255(2) 0.2556(2) 0.1056(2)
O10 O 1.7456(2) 0.4218(2) 0.0817(2)
N2 N 1.5569(2) 0.1612(2) 0.2979(2)
C12 C 1.5608(2) 0.0450(2) 0.3052(2)
C13 C 1.6365(3) 0.0203(3) 0.3997(2)
C14 C 1.6404(3) -0.0946(3) 0.4191(3)
C15 C 1.5334(3) -0.1377(3) 0.4127(3)
C16 C 1.4597(3) -0.1121(3) 0.3176(3)
C17 C 1.4535(3) 0.0032(3) 0.3003(3)
C18 C 1.6121(3) 0.2100(3) 0.2485(2)
C19 C 1.6221(3) 0.3193(3) 0.2553(3)
C20 C 1.6690(3) 0.3784(3) 0.2032(3)
C21 C 1.7146(3) 0.3428(3) 0.1260(3)
C22 C 1.7878(4) 0.3970(4) 0.0018(3)
H1 H 1.16200 0.22700 -0.00300
H2 H 1.18800 0.11700 0.04800
H3 H 1.31400 0.16700 -0.03800
H4 H 1.36600 0.14500 0.07400
H5 H 1.32300 0.34300 -0.01200
H6 H 1.43800 0.29600 0.03200
H7 H 1.39000 0.41700 0.13800
H8 H 1.41100 0.30400 0.18700
H9 H 1.25700 0.37200 0.21800
H10 H 1.20900 0.38900 0.10400
H11 H 1.11300 0.12800 0.24800
H12 H 0.91200 0.20300 0.15400
H13 H 0.83800 0.10600 0.24200
H14 H 0.88100 -0.10200 0.47900
H15 H 0.98000 -0.12700 0.43600
H16 H 0.98400 -0.03100 0.50800
H17 H 1.37500 0.20800 0.31200
H18 H 1.61500 0.05600 0.45300
H19 H 1.70800 0.04400 0.39800
H20 H 1.67100 -0.12900 0.37100
H21 H 1.68500 -0.10800 0.48400
H22 H 1.53900 -0.21300 0.42000
H23 H 1.50600 -0.10800 0.46500
H24 H 1.48400 -0.14500 0.26500
H25 H 1.38900 -0.13800 0.31700
H26 H 1.40800 0.01700 0.23600
H27 H 1.42400 0.03600 0.35000
H28 H 1.64600 0.17300 0.20800
H29 H 1.59300 0.35200 0.30100
H30 H 1.67300 0.44900 0.21700
H31 H 1.80900 0.46100 -0.02700
H32 H 1.85000 0.35200 0.02200
H33 H 1.73400 0.36000 -0.04800
H34 H 1.54100 -0.06200 0.12500
#END
