
#######################################################################
#
#                 Cambridge Crystallographic Data Centre
#                                CCDC
#
#######################################################################
#
# If this CIF has been generated from an entry in the Cambridge
# Structural Database, then it will include bibliographic, chemical,
# crystal, experimental, refinement or atomic coordinate data resulting
# from the CCDC's data processing and validation procedures.
#
#######################################################################

data_CSD_CIF_RAYTAM
_audit_creation_date 1997-08-26
_audit_creation_method CSD-ConQuest-V1
_database_code_CSD RAYTAM
_database_code_depnum_ccdc_archive 'CCDC 1247266'
_chemical_formula_sum 'C14 H16 N3 O2'
_chemical_formula_moiety
;
C14 H16 N3 O2
;
_journal_coden_Cambridge 440
_journal_volume 20
_journal_year 1996
_journal_page_first 919
_journal_name_full 'New J.Chem. '
loop_
_publ_author_name
"F.M.Romero"
"R.Ziessel"
"A.De Cian"
"J.Fischer"
"P.Turek"
_chemical_name_systematic
;
6-Ethynyl-2-(4,4',5,5'-tetramethylimidazoline-1-oxyl-3-oxide)pyridine radical
;
_cell_volume   1350.475
_exptl_crystal_colour 'purple'
_exptl_crystal_density_diffrn 1.27
_diffrn_ambient_temperature ?
_diffrn_special_details
;
The study was carried out at room temperature,in the range 283-303K

;
#These two values have been output from a single CSD field.
_refine_ls_R_factor_gt 0.037
_refine_ls_wR_factor_gt 0.037
_symmetry_cell_setting monoclinic
_symmetry_space_group_name_H-M 'P 21/n'
_symmetry_Int_Tables_number 14
loop_
_symmetry_equiv_pos_site_id
_symmetry_equiv_pos_as_xyz
1 x,y,z
2 1/2-x,1/2+y,1/2-z
3 -x,-y,-z
4 -1/2+x,-1/2-y,-1/2+z
_cell_length_a 6.348(1)
_cell_length_b 12.076(3)
_cell_length_c 17.640(5)
_cell_angle_alpha 90
_cell_angle_beta 92.94(2)
_cell_angle_gamma 90
_cell_formula_units_Z 4
loop_
_atom_type_symbol
_atom_type_radius_bond
C 0.68
H 0.23
N 0.68
O 0.68
loop_
_atom_site_label
_atom_site_type_symbol
_atom_site_fract_x
_atom_site_fract_y
_atom_site_fract_z
N1 N 0.4196(2) 0.1032(1) 0.90742(7)
C1 C 0.5186(3) 0.1448(2) 0.97046(9)
C2 C 0.7364(3) 0.1417(2) 0.9836(1)
C3 C 0.8580(3) 0.0959(2) 0.9296(1)
C4 C 0.7600(3) 0.0548(2) 0.8642(1)
C5 C 0.5431(3) 0.0591(1) 0.85581(9)
C6 C 0.3863(3) 0.1945(2) 1.0254(1)
C7 C 0.2890(4) 0.2370(2) 1.0718(1)
C8 C 0.4367(3) 0.0118(1) 0.78698(9)
N2 N 0.4978(3) 0.0269(1) 0.71641(8)
C9 C 0.3561(3) -0.0319(2) 0.6583(1)
C10 C 0.2483(3) -0.1170(2) 0.7092(1)
N3 N 0.2756(2) -0.0610(1) 0.78552(8)
O1 O 0.6449(2) 0.0925(1) 0.69694(7)
C11 C 0.2064(4) 0.0559(2) 0.6236(1)
C12 C 0.4878(4) -0.0818(2) 0.5976(1)
C13 C 0.0164(3) -0.1380(2) 0.6900(1)
C14 C 0.3665(4) -0.2260(2) 0.7186(1)
O2 O 0.1781(2) -0.0958(1) 0.84200(7)
H1 H 0.80000 0.17080 1.02920
H2 H 1.00710 0.09250 0.93730
H3 H 0.84040 0.02400 0.82540
H4 H 0.11330 0.02240 0.58640
H5 H 0.12680 0.08750 0.66230
H6 H 0.28590 0.11210 0.60050
H7 H 0.39800 -0.11880 0.56100
H8 H 0.56250 -0.02470 0.57340
H9 H 0.58530 -0.13320 0.62020
H10 H 0.00030 -0.17320 0.64190
H11 H -0.03900 -0.18430 0.72760
H12 H -0.05740 -0.06950 0.68840
H13 H 0.35570 -0.26590 0.67210
H14 H 0.51070 -0.21170 0.73200
H15 H 0.30670 -0.26850 0.75730
H16 H 0.21160 0.27730 1.11310
#END
