
#######################################################################
#
#                 Cambridge Crystallographic Data Centre
#                                CCDC
#
#######################################################################
#
# If this CIF has been generated from an entry in the Cambridge
# Structural Database, then it will include bibliographic, chemical,
# crystal, experimental, refinement or atomic coordinate data resulting
# from the CCDC's data processing and validation procedures.
#
#######################################################################

data_CSD_CIF_RAZLIP
_audit_creation_date 2012-08-21
_audit_creation_method CSD-ConQuest-V1
_database_code_CSD RAZLIP
_database_code_depnum_ccdc_archive 'CCDC 714818'
_chemical_formula_sum 'C18 H23 N1 O8'
_chemical_formula_moiety
;
C18 H23 N1 O8
;
_journal_coden_Cambridge 1291
_journal_year 2012
_journal_page_first 2969
_journal_name_full 'Eur.J.Org.Chem. '
loop_
_publ_author_name
"J.M.Otero"
"F.Fernandez"
"J.C.Estevez"
"R.Nash"
"R.J.Estevez"
_chemical_name_systematic
;
(1R,2R,3S,4S,5S,6R)-Methyl 
3-(benzyloxy)-2-hydroxy-4,5-isopropylidendioxy-6-nitrocyclohexanecarboxylate
;
_chemical_name_common
;
(3aS,4R,5R,6R,7S,7aS)-Methyl 
7-(benzyloxy)-6-hydroxy-2,2-dimethyl-4-nitrohexahydro-1,3-benzodioxole-5-carbo
xylate
;
_chemical_melting_point 399.15
_cell_volume   1895.460
_exptl_crystal_colour 'colorless'
_exptl_crystal_density_diffrn 1.336
_exptl_special_details
;
Melting point range 399.15-401.15K

;
_exptl_crystal_description 'prism'
_diffrn_ambient_temperature 293
_refine_special_details
;
C23,C26,O24,O25 and C23B,C26B,O24B,O25B disordered over two sites with 
occupancies 0.7:0.3.
;
#These two values have been output from a single CSD field.
_refine_ls_R_factor_gt 0.0381
_refine_ls_wR_factor_gt 0.0381
_symmetry_cell_setting orthorhombic
_symmetry_space_group_name_H-M 'P 21 21 21'
_symmetry_Int_Tables_number 19
loop_
_symmetry_equiv_pos_site_id
_symmetry_equiv_pos_as_xyz
1 x,y,z
2 1/2-x,-y,1/2+z
3 1/2+x,1/2-y,-z
4 -x,1/2+y,1/2-z
_cell_length_a 6.017(5)
_cell_length_b 9.417(5)
_cell_length_c 33.452(5)
_cell_angle_alpha 90
_cell_angle_beta 90
_cell_angle_gamma 90
_cell_formula_units_Z 4
loop_
_atom_type_symbol
_atom_type_radius_bond
C 0.68
H 0.23
N 0.68
O 0.68
loop_
_atom_site_label
_atom_site_type_symbol
_atom_site_fract_x
_atom_site_fract_y
_atom_site_fract_z
C1 C 0.2643(5) 0.4485(3) 0.65377(10)
H1 H 0.21500 0.53780 0.66590
C2 C 0.3531(5) 0.3512(3) 0.68617(9)
H2 H 0.49880 0.38610 0.69480
C3 C 0.3718(6) 0.1932(3) 0.67638(10)
H3 H 0.51010 0.17360 0.66190
C4 C 0.1704(6) 0.1432(3) 0.65214(10)
H4 H 0.03720 0.14960 0.66890
C5 C 0.1378(6) 0.2340(3) 0.61545(10)
H5 H 0.27250 0.23540 0.59900
C6 C 0.0744(5) 0.3854(4) 0.62912(10)
H6 H 0.04860 0.44500 0.60560
O1 O 0.4477(4) 0.4759(2) 0.62786(7)
C7 C 0.4543(7) 0.6171(4) 0.61259(11)
H7 H 0.48970 0.68310 0.63390
H8 H 0.31050 0.64260 0.60160
C8 C 0.6278(6) 0.6245(3) 0.58069(9)
C9 C 0.6266(7) 0.5363(4) 0.54824(11)
H9 H 0.51620 0.46770 0.54600
C10 C 0.7861(9) 0.5472(5) 0.51876(12)
H10 H 0.78440 0.48510 0.49710
C11 C 0.9461(8) 0.6491(5) 0.52139(13)
H11 H 1.05200 0.65800 0.50130
C12 C 0.9509(8) 0.7376(4) 0.55341(13)
H12 H 1.06130 0.80640 0.55540
C13 C 0.7922(7) 0.7261(4) 0.58310(11)
H13 H 0.79630 0.78730 0.60490
O2 O 0.2090(4) 0.3476(2) 0.71954(6)
C14 C 0.2717(7) 0.2273(4) 0.74291(10)
O3 O 0.3773(5) 0.1314(2) 0.71483(7)
C15 C 0.0662(8) 0.1598(6) 0.75977(13)
H14 H -0.00830 0.22630 0.77690
H15 H 0.10650 0.07700 0.77480
H16 H -0.03120 0.13300 0.73830
C16 C 0.4406(10) 0.2674(6) 0.77442(13)
H17 H 0.56640 0.31150 0.76190
H18 H 0.48800 0.18370 0.78840
H19 H 0.37450 0.33260 0.79300
N1 N 0.2078(7) -0.0102(3) 0.64070(12)
O4 O 0.1292(9) -0.0999(3) 0.66221(12)
O5 O 0.3152(7) -0.0353(3) 0.61089(12)
C17 C -0.058(2) 0.1670(11) 0.5925(4)
O6 O -0.1976(9) 0.0886(7) 0.6061(2)
O7 O -0.0585(12) 0.2071(6) 0.5547(2)
C18 C -0.2448(16) 0.1531(10) 0.5318(2)
H20 H -0.22990 0.05220 0.52870
H21 H -0.24700 0.19740 0.50600
H22 H -0.38080 0.17380 0.54570
O8 O -0.1203(4) 0.3821(3) 0.65263(9)
H23 H -0.222(10) 0.405(7) 0.6370(16)
C19? C 0.030(3) 0.2043(17) 0.5759(7)
C20? C -0.302(3) 0.092(2) 0.5540(4)
H24? H -0.38430 0.17300 0.54490
H25? H -0.40330 0.02140 0.56390
H26? H -0.21840 0.05290 0.53210
O9? O 0.085(3) 0.2298(15) 0.5432(4)
O10? O -0.150(3) 0.135(2) 0.5859(5)
#END
