
#######################################################################
#
#                 Cambridge Crystallographic Data Centre
#                                CCDC
#
#######################################################################
#
# If this CIF has been generated from an entry in the Cambridge
# Structural Database, then it will include bibliographic, chemical,
# crystal, experimental, refinement or atomic coordinate data resulting
# from the CCDC's data processing and validation procedures.
#
#######################################################################

data_CSD_CIF_RAZWEU
_audit_creation_date 1997-08-26
_audit_creation_method CSD-ConQuest-V1
_database_code_CSD RAZWEU
_chemical_formula_sum 'C27 H33 N1 O7'
_chemical_formula_moiety
;
C27 H33 N1 O7
;
_journal_coden_Cambridge 16
_journal_volume 52
_journal_year 1996
_journal_page_first 14103
_journal_name_full 'Tetrahedron '
loop_
_publ_author_name
"P.Magnus"
"J.Booth"
"L.Diorazio"
"T.Donohoe"
"V.Lynch"
"N.Magnus"
"J.Mendoza"
"P.Pye"
"J.Tarrant"
_chemical_name_systematic
;
12H\b-11H\b,4H\b-20-Tetrahydro-4\a-(4-nitrobenzoyl)oxymethyl-3\a,10\a-oxido-ta
xane-2,13-dione
;
_chemical_melting_point 457.15
_cell_volume   2424.291
_exptl_crystal_colour 'colorless'
_exptl_crystal_density_diffrn 1.32
_exptl_special_details
;
Melting point range 457.15-459.15K

;
_diffrn_ambient_temperature 173.15
#These two values have been output from a single CSD field.
_refine_ls_R_factor_gt 0.0609
_refine_ls_wR_factor_gt 0.0609
_symmetry_cell_setting monoclinic
_symmetry_space_group_name_H-M 'P 21'
_symmetry_Int_Tables_number 4
loop_
_symmetry_equiv_pos_site_id
_symmetry_equiv_pos_as_xyz
1 x,y,z
2 -x,1/2+y,-z
_cell_length_a 7.653(1)
_cell_length_b 13.07(1)
_cell_length_c 24.356(2)
_cell_angle_alpha 90
_cell_angle_beta 95.668(6)
_cell_angle_gamma 90
_cell_formula_units_Z 4
loop_
_atom_type_symbol
_atom_type_radius_bond
C 0.68
H 0.23
N 0.68
O 0.68
loop_
_atom_site_label
_atom_site_type_symbol
_atom_site_fract_x
_atom_site_fract_y
_atom_site_fract_z
C1 C 0.4915(6) 0.8981(3) 0.4568(2)
C2 C 0.4398(5) 0.7853(4) 0.4505(2)
C3 C 0.2730(6) 0.7504(3) 0.4139(2)
C4 C 0.1525(6) 0.6895(4) 0.4500(2)
C5 C -0.0052(6) 0.6394(4) 0.4174(2)
C6 C 0.0505(7) 0.5732(4) 0.3713(2)
C7 C 0.1471(7) 0.6389(4) 0.3336(2)
C8 C 0.3166(6) 0.6895(4) 0.3605(2)
C9 C 0.3598(6) 0.7775(4) 0.3226(2)
C10 C 0.2736(6) 0.8723(4) 0.3448(2)
C11 C 0.3872(5) 0.9655(3) 0.3612(2)
C12 C 0.5523(5) 0.9471(3) 0.4040(2)
O1 O 0.1818(4) 0.8381(2) 0.39103(11)
C13 C 0.2678(6) 1.0466(4) 0.3842(2)
C14 C 0.2148(6) 1.0148(3) 0.4398(2)
C15 C 0.3547(6) 0.9674(4) 0.4801(2)
O2 O 0.5310(4) 0.7211(3) 0.47558(12)
C16 C 0.0817(6) 0.7528(4) 0.4959(2)
O3 O 0.2241(4) 0.7716(2) 0.53931(11)
C17 C 0.1759(6) 0.8068(4) 0.5873(2)
O4 O 0.0264(4) 0.8207(3) 0.59623(13)
C18 C 0.3317(6) 0.8264(4) 0.6277(2)
C19 C 0.3012(6) 0.8574(4) 0.6809(2)
C20 C 0.4397(6) 0.8769(4) 0.7201(2)
C21 C 0.6078(6) 0.8655(4) 0.7055(2)
C22 C 0.6427(6) 0.8332(4) 0.6537(2)
C23 C 0.5039(6) 0.8142(4) 0.6149(2)
N1 N 0.7553(6) 0.8863(4) 0.7469(2)
O5 O 0.9038(5) 0.8684(4) 0.73648(14)
O6 O 0.7236(5) 0.9251(5) 0.7908(2)
C24 C 0.4631(7) 0.6106(4) 0.3693(2)
C25 C 0.6413(6) 1.0494(4) 0.4192(2)
C26 C 0.6977(6) 0.8824(4) 0.3817(2)
C27 C 0.1087(6) 1.0788(4) 0.3440(2)
O7 O 0.0701(4) 1.0333(3) 0.45398(14)
C28 C 0.5212(6) 0.7963(4) 0.0824(2)
C29 C 0.5702(6) 0.6896(4) 0.0612(2)
C30 C 0.7378(6) 0.6309(4) 0.0858(2)
C31 C 0.8498(6) 0.6084(4) 0.0371(2)
C32 C 1.0072(7) 0.5392(4) 0.0529(2)
C33 C 0.9553(8) 0.4413(5) 0.0799(2)
C34 C 0.8665(7) 0.4689(4) 0.1306(2)
C35 C 0.6974(7) 0.5334(4) 0.1200(2)
C36 C 0.6665(7) 0.5817(4) 0.1759(2)
C37 C 0.7535(6) 0.6873(4) 0.1764(2)
C38 C 0.6451(6) 0.7842(4) 0.1825(2)
C39 C 0.4742(6) 0.7979(5) 0.1428(2)
O8 O 0.8345(4) 0.6945(3) 0.12501(11)
C40 C 0.7680(6) 0.8763(4) 0.1774(2)
C41 C 0.8085(6) 0.8918(4) 0.1177(2)
C42 C 0.6555(6) 0.8808(4) 0.0730(2)
O9 O 0.4786(4) 0.6510(3) 0.02323(13)
C43 C 0.9060(7) 0.7092(4) 0.0131(2)
O10 O 1.0291(4) 0.6931(3) -0.02828(12)
C44 C 0.9560(6) 0.6773(5) -0.0802(2)
O11 O 0.8012(4) 0.6722(4) -0.09250(14)
C45 C 1.0904(6) 0.6720(4) -0.1198(2)
C46 C 1.2708(6) 0.6732(4) -0.1026(2)
C47 C 1.3895(6) 0.6667(4) -0.1410(2)
C48 C 1.3274(6) 0.6582(4) -0.1961(2)
C49 C 1.1520(6) 0.6596(4) -0.2143(2)
C50 C 1.0329(6) 0.6667(4) -0.1753(2)
N2 N 1.4546(6) 0.6458(3) -0.2371(2)
O12 O 1.6093(5) 0.6601(4) -0.22295(14)
O13 O 1.3976(5) 0.6223(3) -0.28409(14)
C51 C 0.5455(7) 0.4667(5) 0.0955(2)
C52 C 0.3284(6) 0.7182(5) 0.1493(2)
C53 C 0.3867(6) 0.9006(5) 0.1548(2)
C54 C 0.9345(6) 0.8759(5) 0.2174(2)
O14 O 0.9505(5) 0.9197(3) 0.1060(2)
H1 H 0.59270 0.89920 0.48340
H2 H 0.22030 0.63530 0.46820
H3 H -0.08070 0.69260 0.40160
H4 H -0.07040 0.59910 0.44130
H5 H -0.04820 0.53890 0.35200
H6 H 0.13140 0.52230 0.38680
H7 H 0.06810 0.69250 0.32040
H8 H 0.17530 0.59940 0.30250
H9 H 0.31780 0.76270 0.28500
H10 H 0.48450 0.78760 0.32500
H11 H 0.18590 0.89460 0.31640
H12 H 0.42890 0.99330 0.32840
H13 H 0.33900 1.10680 0.39050
H14 H 0.41250 1.02100 0.50180
H15 H 0.29510 0.92510 0.50450
H16 H -0.01360 0.71840 0.51100
H17 H 0.03960 0.81680 0.48050
H18 H 0.18240 0.86620 0.68960
H19 H 0.41940 0.89800 0.75670
H20 H 0.76240 0.82590 0.64570
H21 H 0.52420 0.79110 0.57860
H22 H 0.48180 0.57780 0.33510
H23 H 0.56920 0.64410 0.38400
H24 H 0.43060 0.56030 0.39520
H25 H 0.74250 1.03820 0.44500
H26 H 0.67670 1.08160 0.38660
H27 H 0.55960 1.09280 0.43560
H28 H 0.79460 0.87540 0.40970
H29 H 0.65080 0.81600 0.37200
H30 H 0.73730 0.91440 0.34970
H31 H 0.04180 1.13070 0.36040
H32 H 0.14810 1.10450 0.31040
H33 H 0.03640 1.01960 0.33600
H34 H 0.41450 0.81420 0.06040
H35 H 0.77690 0.57470 0.00830
H36 H 1.08740 0.57600 0.07860
H37 H 1.06610 0.52430 0.02080
H38 H 1.05650 0.39880 0.08860
H39 H 0.87240 0.40460 0.05510
H40 H 0.94830 0.50920 0.15390
H41 H 0.84180 0.40790 0.15030
H42 H 0.71720 0.54020 0.20590
H43 H 0.54310 0.58910 0.17910
H44 H 0.84650 0.68760 0.20590
H45 H 0.61110 0.78410 0.21940
H46 H 0.70240 0.93520 0.18680
H47 H 0.59310 0.94460 0.07060
H48 H 0.70110 0.86950 0.03810
H49 H 0.96210 0.74870 0.04300
H50 H 0.80560 0.74640 -0.00300
H51 H 1.30900 0.67620 -0.06390
H52 H 1.51330 0.66970 -0.12990
H53 H 1.11350 0.65500 -0.25290
H54 H 0.90890 0.66580 -0.18630
H55 H 0.57370 0.43890 0.06100
H56 H 0.52330 0.41200 0.12010
H57 H 0.44280 0.50900 0.08940
H58 H 0.22760 0.73220 0.12370
H59 H 0.37510 0.65230 0.14140
H60 H 0.29450 0.71880 0.18620
H61 H 0.28210 0.90770 0.12990
H62 H 0.35700 0.90400 0.19210
H63 H 0.46680 0.95490 0.14840
H64 H 1.00060 0.93670 0.21170
H65 H 0.90720 0.87330 0.25500
H66 H 1.00260 0.81690 0.20960
#END
