
#######################################################################
#
#                 Cambridge Crystallographic Data Centre
#                                CCDC
#
#######################################################################
#
# If this CIF has been generated from an entry in the Cambridge
# Structural Database, then it will include bibliographic, chemical,
# crystal, experimental, refinement or atomic coordinate data resulting
# from the CCDC's data processing and validation procedures.
#
#######################################################################

data_CSD_CIF_RCXPYO01
_audit_creation_date 1997-05-05
_audit_creation_method CSD-ConQuest-V1
_database_code_CSD RCXPYO01
_chemical_formula_sum 'C9 H16 N1 O3'
_chemical_formula_moiety
;
C9 H16 N1 O3
;
_journal_coden_Cambridge 1003
_journal_volume 25
_journal_year 1995
_journal_page_first 845
_journal_name_full 'J.Chem.Cryst. '
loop_
_publ_author_name
"P.J.Cox"
"S.Blaney"
"S.W.Love"
"N.Shankland"
"D.B.Sheen"
_chemical_name_systematic
;
rac-3-Carboxy-2,2,5,5-tetramethyl-1-pyrrolidinyl-1-oxyl
;
_chemical_name_common
;
rac-3-Carboxyproxyl
;
_chemical_melting_point 469.15
_cell_volume    993.974
_exptl_crystal_colour 'bright yellow'
_exptl_crystal_density_diffrn 1.244
_exptl_special_details
;
Melts with decomposition.

;
_diffrn_ambient_temperature 150
_refine_special_details
;
S and R enantiomers overlap on each site and each of the O atoms of the 
carboxy group are disordered over two positions. Two of the methyl groups are 
also disordered; occupancy factors are all 0.5.
;
#These two values have been output from a single CSD field.
_refine_ls_R_factor_gt 0.0547
_refine_ls_wR_factor_gt 0.0547
loop_
_citation_database_id_CSD
_citation_special_details
CXPYRO "is a stereoisomer of this entry"
_symmetry_cell_setting orthorhombic
_symmetry_space_group_name_H-M 'P n m a'
_symmetry_Int_Tables_number 62
loop_
_symmetry_equiv_pos_site_id
_symmetry_equiv_pos_as_xyz
1 x,y,z
2 1/2-x,-y,1/2+z
3 1/2+x,1/2-y,1/2-z
4 -x,1/2+y,-z
5 -x,-y,-z
6 -1/2+x,y,-1/2-z
7 -1/2-x,-1/2+y,-1/2+z
8 x,-1/2-y,z
_cell_length_a 8.023(2)
_cell_length_b 10.030(3)
_cell_length_c 12.352(2)
_cell_angle_alpha 90
_cell_angle_beta 90
_cell_angle_gamma 90
_cell_formula_units_Z 4
loop_
_atom_type_symbol
_atom_type_radius_bond
C 0.68
N 0.68
O 0.68
loop_
_atom_site_label
_atom_site_type_symbol
_atom_site_fract_x
_atom_site_fract_y
_atom_site_fract_z
O1 O 0.0080(2) 0.75000 0.5957(2)
O2 O 0.6896(7) 0.6751(10) 0.562(1)
O3? O 0.6909(31) 0.6623(37) 0.5493(35)
O4 O 0.6474(7) 0.8672(8) 0.4829(14)
O5? O 0.6603(20) 0.8089(44) 0.4207(24)
N1 N 0.1418(2) 0.75000 0.5394(2)
C1 C 0.3073(3) 0.75000 0.5933(2)
C2 C 0.4184(4) 0.7118(3) 0.4940(3)
C3 C 0.3289(4) 0.7780(6) 0.3985(3)
C4 C 0.1435(3) 0.75000 0.4195(2)
C5 C 0.0573(3) 0.6262(2) 0.3774(2)
C6 C 0.3230(3) 0.8728(2) 0.6628(2)
C7 C 0.5960(4) 0.75000 0.5066(3)
C2G C 0.4184(4) 0.7882(3) 0.4940(3)
C6G C 0.3230(3) 0.6272(2) 0.6628(2)
C3G C 0.3289(4) 0.7220(6) 0.3985(3)
O2G O 0.6896(7) 0.8249(10) 0.562(1)
O4G O 0.6474(7) 0.6328(8) 0.4829(14)
C5G C 0.0573(3) 0.8738(2) 0.3774(2)
#END
