
#######################################################################
#
#                 Cambridge Crystallographic Data Centre
#                                CCDC
#
#######################################################################
#
# If this CIF has been generated from an entry in the Cambridge
# Structural Database, then it will include bibliographic, chemical,
# crystal, experimental, refinement or atomic coordinate data resulting
# from the CCDC's data processing and validation procedures.
#
#######################################################################

data_CSD_CIF_REBHEN
_audit_creation_date 2012-08-03
_audit_creation_method CSD-ConQuest-V1
_database_code_CSD REBHEN
_database_code_depnum_ccdc_archive 'CCDC 737503'
_chemical_formula_sum 'C19 H22 N6 O4'
_chemical_formula_moiety
;
C19 H22 N6 O4
;
_journal_coden_Cambridge 34
_journal_volume 47
_journal_year 2010
_journal_page_first 893
_journal_name_full 'J.Heterocycl.Chem. '
loop_
_publ_author_name
"M.A.Bastrakov"
"A.M.Starosotnikov"
"S.Y.Pechenkin"
"V.V.Kachala"
"I.V.Glukhov"
"S.A.Shevelev"
_chemical_name_systematic
;
5,8-Dimethyl-3b,6b-dinitro-1-phenyl-3b,4,5,6,6a,6b,7,8,9,9a-decahydro-1H-dipyr
rolo[3,4-e:3',4'-g]indazole
;
_cell_volume   3725.728
_exptl_crystal_colour 'orange'
_exptl_crystal_density_diffrn 1.421
_exptl_crystal_description 'prism'
_diffrn_ambient_temperature 110
#These two values have been output from a single CSD field.
_refine_ls_R_factor_gt 0.0566
_refine_ls_wR_factor_gt 0.0566
_symmetry_cell_setting orthorhombic
_symmetry_space_group_name_H-M 'P b c n'
_symmetry_Int_Tables_number 60
loop_
_symmetry_equiv_pos_site_id
_symmetry_equiv_pos_as_xyz
1 x,y,z
2 1/2-x,1/2-y,1/2+z
3 -x,y,1/2-z
4 1/2+x,1/2-y,-z
5 -x,-y,-z
6 -1/2+x,-1/2+y,-1/2-z
7 x,-y,-1/2+z
8 -1/2-x,-1/2+y,z
_cell_length_a 15.691(4)
_cell_length_b 8.5090(19)
_cell_length_c 27.905(6)
_cell_angle_alpha 90
_cell_angle_beta 90
_cell_angle_gamma 90
_cell_formula_units_Z 8
loop_
_atom_type_symbol
_atom_type_radius_bond
C 0.68
H 0.23
N 0.68
O 0.68
loop_
_atom_site_label
_atom_site_type_symbol
_atom_site_fract_x
_atom_site_fract_y
_atom_site_fract_z
O1 O 1.05518(12) 0.0854(3) 0.44059(7)
N1 N 0.87837(15) 0.2430(3) 0.30841(8)
O2 O 1.08965(13) 0.3313(2) 0.43941(7)
N2 N 0.89783(14) 0.0879(3) 0.31434(9)
O3 O 0.80181(14) 0.7326(2) 0.40273(7)
C1 C 0.92273(17) 0.0762(4) 0.35964(10)
H1 H 0.93950 -0.01920 0.37460
O4 O 0.90566(13) 0.7752(2) 0.45194(7)
C2 C 0.92101(17) 0.2234(3) 0.38259(10)
C3 C 0.94175(17) 0.2667(4) 0.43301(10)
C4 C 0.88963(19) 0.1758(3) 0.47071(10)
H2 H 0.83750 0.13020 0.45640
H3 H 0.92390 0.09060 0.48530
N3 N 0.86843(15) 0.2963(3) 0.50613(8)
C5 C 0.84735(17) 0.4320(3) 0.47721(10)
H4 H 0.84110 0.52770 0.49710
H5 H 0.79450 0.41490 0.45860
C6 C 0.92544(17) 0.4419(3) 0.44462(10)
H6 H 0.97410 0.47830 0.46490
C7 C 0.92019(17) 0.5534(3) 0.40189(10)
C8 C 1.00534(17) 0.6176(3) 0.38523(10)
H7 H 1.03170 0.68590 0.40980
H8 H 1.04540 0.53210 0.37680
N4 N 0.98003(14) 0.7065(3) 0.34343(8)
C9 C 0.92589(19) 0.6005(4) 0.31598(10)
H9 H 0.96050 0.53290 0.29470
H10 H 0.88470 0.66030 0.29630
C10 C 0.87890(18) 0.5002(3) 0.35448(10)
H11 H 0.81660 0.52530 0.35450
C11 C 0.89207(17) 0.3280(3) 0.3491(1)
N5 N 1.03693(16) 0.2249(3) 0.43928(8)
C12 C 0.80070(19) 0.2488(4) 0.53884(11)
H12 H 0.79130 0.33180 0.56260
H13 H 0.81720 0.15150 0.55520
H14 H 0.74810 0.23120 0.52070
N6 N 0.87120(17) 0.7001(3) 0.42003(9)
C13 C 1.05118(19) 0.7693(4) 0.31636(11)
H15 H 1.08600 0.83610 0.33720
H16 H 1.02960 0.83160 0.28940
H17 H 1.08600 0.68250 0.30410
C14 C 0.84922(18) 0.2933(3) 0.26254(10)
C15 C 0.77778(18) 0.3852(3) 0.25827(11)
H18 H 0.74740 0.41810 0.28600
C16 C 0.7506(2) 0.4292(4) 0.21300(13)
H19 H 0.70200 0.49480 0.20970
C17 C 0.7932(2) 0.3787(4) 0.17299(13)
H20 H 0.77390 0.40900 0.14210
C18 C 0.8632(2) 0.2853(4) 0.17742(11)
H21 H 0.89190 0.24930 0.14960
C19 C 0.89265(19) 0.2427(4) 0.22225(10)
H22 H 0.94220 0.17920 0.22540
#END
