
#######################################################################
#
#                 Cambridge Crystallographic Data Centre
#                                CCDC
#
#######################################################################
#
# If this CIF has been generated from an entry in the Cambridge
# Structural Database, then it will include bibliographic, chemical,
# crystal, experimental, refinement or atomic coordinate data resulting
# from the CCDC's data processing and validation procedures.
#
#######################################################################

data_CSD_CIF_REBLER
_audit_creation_date 2012-08-03
_audit_creation_method CSD-ConQuest-V1
_database_code_CSD REBLER
_database_code_depnum_ccdc_archive 'CCDC 845605'
_chemical_formula_sum 'C19 H14 N4 O3'
_chemical_formula_moiety
;
C19 H14 N4 O3
;
_journal_coden_Cambridge 493
_journal_volume 50
_journal_year 2012
_journal_page_first 163
_journal_name_full 'Eur.J.Med.Chem. '
loop_
_publ_author_name
"A.A.R.Despaigne"
"G.L.Parrilha"
"J.B.Izidoro"
"P.R.da Costa"
"R.G.dos Santos"
"O.E.Piro"
"E.E.Castellano"
"W.R.Rocha"
"H.Beraldo"
_chemical_name_systematic
;
4-Nitro-N'-(phenyl(pyridin-2-yl)methylene)benzohydrazide
;
_cell_volume   1626.904
_exptl_crystal_colour 'yellow'
_exptl_crystal_density_diffrn 1.414
_exptl_crystal_description 'prism'
_diffrn_ambient_temperature 296
#These two values have been output from a single CSD field.
_refine_ls_R_factor_gt 0.0492
_refine_ls_wR_factor_gt 0.0492
_symmetry_cell_setting monoclinic
_symmetry_space_group_name_H-M 'P 21/a'
_symmetry_Int_Tables_number 14
loop_
_symmetry_equiv_pos_site_id
_symmetry_equiv_pos_as_xyz
1 x,y,z
2 1/2-x,1/2+y,-z
3 -x,-y,-z
4 -1/2+x,-1/2-y,z
_cell_length_a 13.9892(5)
_cell_length_b 7.4240(4)
_cell_length_c 15.6813(6)
_cell_angle_alpha 90
_cell_angle_beta 92.611(3)
_cell_angle_gamma 90
_cell_formula_units_Z 4
loop_
_atom_type_symbol
_atom_type_radius_bond
C 0.68
H 0.23
N 0.68
O 0.68
loop_
_atom_site_label
_atom_site_type_symbol
_atom_site_fract_x
_atom_site_fract_y
_atom_site_fract_z
C1 C 0.44495(10) 0.5920(2) 0.21060(9)
C2 C 0.46768(11) 0.5015(2) 0.13689(10)
H1 H 0.42070 0.47950 0.09420
C3 C 0.56016(13) 0.4443(3) 0.12720(11)
H2 H 0.57620 0.38480 0.07770
C4 C 0.62830(12) 0.4756(3) 0.19085(12)
H3 H 0.69120 0.43800 0.18550
C5 C 0.60137(12) 0.5643(3) 0.26319(12)
H4 H 0.64740 0.58490 0.30670
C6 C 0.34547(10) 0.6529(2) 0.22435(9)
C7 C 0.33673(12) 0.7862(2) 0.43973(10)
C8 C 0.41205(11) 0.7989(2) 0.51126(9)
C9 C 0.38740(13) 0.8857(3) 0.58541(11)
H5 H 0.32620 0.93280 0.58940
C10 C 0.45325(14) 0.9027(4) 0.65340(11)
H6 H 0.43710 0.96260 0.70280
C11 C 0.54241(13) 0.8302(2) 0.64693(9)
C12 C 0.57048(13) 0.7477(3) 0.57409(11)
H7 H 0.63220 0.70290 0.57040
C13 C 0.50439(12) 0.7332(3) 0.50637(10)
H8 H 0.52220 0.67800 0.45630
C14 C 0.27351(10) 0.6463(2) 0.15129(9)
C15 C 0.18764(11) 0.5574(3) 0.16051(11)
H9 H 0.17700 0.49610 0.21090
C16 C 0.11743(13) 0.5589(3) 0.09548(12)
H10 H 0.05950 0.50070 0.10270
C17 C 0.13328(13) 0.6467(3) 0.02002(11)
H11 H 0.08620 0.64720 -0.02380
C18 C 0.21858(13) 0.7335(3) 0.00966(11)
H12 H 0.22950 0.79160 -0.04150
C19 C 0.28838(11) 0.7347(2) 0.07503(10)
H13 H 0.34570 0.79520 0.06780
N1 N 0.51229(9) 0.6220(2) 0.27370(8)
N2 N 0.31013(9) 0.7092(2) 0.29460(8)
N3 N 0.37043(9) 0.7224(2) 0.36558(7)
H14 H 0.42920 0.68960 0.36340
N4 N 0.61185(14) 0.8422(2) 0.72055(9)
O1 O 0.25430(8) 0.8310(2) 0.44838(8)
O2 O 0.58719(12) 0.9223(3) 0.78423(8)
O3 O 0.68889(12) 0.7692(3) 0.71516(10)
#END
