
#######################################################################
#
#                 Cambridge Crystallographic Data Centre
#                                CCDC
#
#######################################################################
#
# If this CIF has been generated from an entry in the Cambridge
# Structural Database, then it will include bibliographic, chemical,
# crystal, experimental, refinement or atomic coordinate data resulting
# from the CCDC's data processing and validation procedures.
#
#######################################################################

data_CSD_CIF_REBPAS
_audit_creation_date 2017-06-02
_audit_creation_method CSD-ConQuest-V1
_database_code_CSD REBPAS
_database_code_depnum_ccdc_archive 'CCDC 1042139'
_chemical_formula_sum 'C4 H5 N7 O10'
_chemical_formula_moiety
;
C4 H5 N7 O10
;
_journal_coden_Cambridge 440
_journal_volume 41
_journal_year 2017
_journal_page_first 4797
_journal_name_full 'New J.Chem. '
loop_
_publ_author_name
"Qiong Yu"
"Guangbin Cheng"
"Xuehai Ju"
"Chunxu Lu"
"Hongwei Yang"
_chemical_name_systematic
;
N-nitro-N'-(2,2,2-trinitroethyl)dicarbonimidic diamide
;
_cell_volume    560.340
_exptl_crystal_colour 'colorless'
_exptl_crystal_density_diffrn 1.844
_exptl_crystal_description 'block'
_diffrn_ambient_temperature 173
#These two values have been output from a single CSD field.
_refine_ls_R_factor_gt 0.0444
_refine_ls_wR_factor_gt 0.0444
_symmetry_cell_setting monoclinic
_symmetry_space_group_name_H-M 'P 21'
_symmetry_Int_Tables_number 4
loop_
_symmetry_equiv_pos_site_id
_symmetry_equiv_pos_as_xyz
1 x,y,z
2 -x,1/2+y,-z
_cell_length_a 7.1401(11)
_cell_length_b 7.8040(13)
_cell_length_c 10.6428(19)
_cell_angle_alpha 90
_cell_angle_beta 109.113(3)
_cell_angle_gamma 90
_cell_formula_units_Z 2
loop_
_atom_type_symbol
_atom_type_radius_bond
C 0.68
H 0.23
N 0.68
O 0.68
loop_
_atom_site_label
_atom_site_type_symbol
_atom_site_fract_x
_atom_site_fract_y
_atom_site_fract_z
C1 C -0.3802(8) 1.1770(7) 0.7154(5)
C2 C -0.0271(8) 1.1471(6) 0.7362(5)
C3 C 0.1815(7) 0.9297(7) 0.8740(5)
H1 H 0.21100 0.93060 0.97160
H2 H 0.28380 0.99930 0.85360
C4 C 0.1918(7) 0.7475(7) 0.8282(5)
N1 N -0.5540(6) 1.2655(6) 0.6492(5)
H3 H -0.651(7) 1.240(8) 0.668(5)
N2 N -0.2121(6) 1.2282(6) 0.6924(4)
H4 H -0.219(8) 1.308(7) 0.643(6)
N3 N -0.0106(6) 1.0062(6) 0.8109(4)
H5 H -0.105(8) 0.970(7) 0.831(5)
N4 N -0.5845(7) 1.3940(6) 0.5571(4)
N5 N 0.1078(7) 0.7290(6) 0.6787(4)
N6 N 0.4064(7) 0.6882(6) 0.8729(5)
N7 N 0.0822(7) 0.6204(7) 0.8886(5)
O1 O -0.4424(5) 1.4552(6) 0.5323(4)
O2 O -0.7559(6) 1.4414(6) 0.5079(4)
O3 O -0.3917(5) 1.0622(5) 0.7892(4)
O4 O 0.1058(5) 1.2101(5) 0.7040(4)
O5 O -0.0278(6) 0.6278(6) 0.6337(4)
O6 O 0.1841(6) 0.8224(6) 0.6179(4)
O7 O 0.4586(6) 0.5970(6) 0.7981(4)
O8 O 0.5074(6) 0.7346(6) 0.9824(4)
O9 O 0.1512(6) 0.4785(5) 0.9148(4)
O10 O -0.0679(7) 0.6757(6) 0.9040(5)
#END
