
#######################################################################
#
#                 Cambridge Crystallographic Data Centre
#                                CCDC
#
#######################################################################
#
# If this CIF has been generated from an entry in the Cambridge
# Structural Database, then it will include bibliographic, chemical,
# crystal, experimental, refinement or atomic coordinate data resulting
# from the CCDC's data processing and validation procedures.
#
#######################################################################

data_CSD_CIF_REBPEU
_audit_creation_date 2006-06-06
_audit_creation_method CSD-ConQuest-V1
_database_code_CSD REBPEU
_database_code_depnum_ccdc_archive 'CCDC 295881'
_chemical_formula_sum 'C12 H17 N5 O3'
_chemical_formula_moiety
;
C12 H17 N5 O3
;
_journal_coden_Cambridge 1135
_journal_year 2006
_journal_page_first 26
_journal_name_full 'Mendeleev Commun. '
loop_
_publ_author_name
"G.L.Rusinov"
"P.A.Slepukhin"
"V.N.Charushin"
"O.A.Dyachenko"
"O.N.Kazheva"
"A.N.Chekhlov"
"E.V.Verbitsky"
"M.I.Kodess"
"O.N.Chupakhin"
_chemical_name_systematic
;
(5R*,6R*,10S*)-2,3-dicyano-1-ethyl-5-(1-nitro-n-propyl)-6-methoxy-1,4,5,6-tetr
ahydropyrazine
;
_chemical_melting_point 421.15
_cell_volume   1411.575
_exptl_crystal_colour 'yellow'
_exptl_crystal_density_diffrn 1.314
_exptl_special_details
;
Melting point range 421.15-422.15K

;
_exptl_crystal_preparation 'methanol'
_diffrn_ambient_temperature 293
#These two values have been output from a single CSD field.
_refine_ls_R_factor_gt 0.0341
_refine_ls_wR_factor_gt 0.0341
loop_
_citation_database_id_CSD
_citation_special_details
XEDTAC "is a stereoisomer of this entry"
_symmetry_cell_setting triclinic
_symmetry_space_group_name_H-M 'P -1'
_symmetry_Int_Tables_number 2
loop_
_symmetry_equiv_pos_site_id
_symmetry_equiv_pos_as_xyz
1 x,y,z
2 -x,-y,-z
_cell_length_a 8.790(1)
_cell_length_b 11.962(2)
_cell_length_c 13.724(3)
_cell_angle_alpha 86.27(2)
_cell_angle_beta 88.66(2)
_cell_angle_gamma 78.62(2)
_cell_formula_units_Z 4
loop_
_atom_type_symbol
_atom_type_radius_bond
C 0.68
H 0.23
N 0.68
O 0.68
loop_
_atom_site_label
_atom_site_type_symbol
_atom_site_fract_x
_atom_site_fract_y
_atom_site_fract_z
O1 O 0.50919(9) 0.33749(7) 0.53996(6)
O2 O 0.9506(11) 0.4429(3) 0.2429(3)
O3 O 0.856(1) 0.5563(2) 0.3542(3)
N1 N 0.64110(12) 0.19965(8) 0.43535(7)
N2 N 0.4771(2) 0.07280(15) 0.25721(14)
N3 N 0.34467(17) 0.39321(15) 0.1636(1)
N4 N 0.57655(11) 0.42924(8) 0.35399(7)
N5 N 0.88699(12) 0.46234(9) 0.32139(7)
C1 C 0.51517(18) 0.14365(13) 0.29671(11)
C2 C 0.56219(14) 0.23154(11) 0.34795(9)
C3 C 0.52210(13) 0.34208(11) 0.31321(8)
C4 C 0.42421(15) 0.37081(13) 0.22967(9)
C5 C 0.69137(13) 0.39507(10) 0.42994(8)
C6 C 0.65211(13) 0.29366(10) 0.49419(8)
C7 C 0.46395(17) 0.25923(13) 0.61267(10)
C8 C 0.85438(13) 0.36233(10) 0.38548(8)
C9 C 0.98432(15) 0.33276(13) 0.46046(10)
C10 C 1.14640(17) 0.31917(17) 0.41749(12)
O4 O -0.19387(10) 0.57203(7) 0.05451(6)
O5 O 0.2218(9) 0.7366(7) -0.1371(6)
O6 O 0.2154(7) 0.8746(7) -0.0424(6)
N6 N -0.21199(12) 0.75722(9) 0.11325(7)
N7 N -0.11430(18) 0.84278(11) 0.33634(9)
N8 N 0.2676(15) 0.6240(11) 0.2808(11)
N9 N 0.08968(12) 0.64063(9) 0.05872(8)
N10 N 0.15445(16) 0.80495(12) -0.08038(10)
C11 C -0.10346(16) 0.79819(11) 0.26461(9)
C12 C -0.08480(14) 0.74381(10) 0.17372(8)
C13 C 0.05518(14) 0.6801(1) 0.15098(9)
C14 C 0.17285(17) 0.65162(13) 0.22383(11)
C15 C -0.02615(15) 0.68459(11) -0.01501(8)
C16 C -0.18985(14) 0.68764(10) 0.02942(8)
C17 C -0.34069(18) 0.55316(13) 0.09080(12)
C18 C -0.01233(16) 0.80513(11) -0.05529(9)
C19 C -0.1085(2) 0.84715(15) -0.14591(11)
C20 C -0.0883(3) 0.96367(19) -0.18848(15)
C21 C 0.7439(9) 0.0897(5) 0.4441(5)
H1 H 0.69630 0.03650 0.41090
H2 H 0.83880 0.09640 0.40870
C22 C 0.7861(6) 0.0397(4) 0.5390(4)
H3 H 0.85360 -0.03330 0.53340
H4 H 0.69450 0.02980 0.57520
H5 H 0.83890 0.08870 0.57240
C23 C -0.3263(3) 0.8659(2) 0.1095(2)
H6 H -0.30090 0.91450 0.05470
H7 H -0.31830 0.90450 0.16860
C24 C -0.4892(3) 0.8510(2) 0.0997(2)
H8 H -0.55750 0.92440 0.09790
H9 H -0.51620 0.80440 0.15450
H10 H -0.49890 0.81460 0.04050
H11 H 0.51060 0.49160 0.36420
H12 H 0.13210 0.56870 0.05450
H13 H 0.68650 0.45840 0.46840
H14 H -0.00380 0.62860 -0.06250
H15 H 0.73520 0.26810 0.54290
H16 H -0.27230 0.72020 -0.01900
H17 H 0.55220 0.22940 0.65720
H18 H -0.42090 0.58420 0.04440
H19 H 0.44180 0.19230 0.58460
H20 H -0.36230 0.58960 0.14960
H21 H 0.37040 0.29950 0.64180
H22 H -0.33650 0.47390 0.09520
H23 H 0.86420 0.30110 0.34030
H24 H -0.03930 0.85780 -0.00500
H25 H 0.96150 0.39420 0.50250
H26 H -0.07750 0.78800 -0.19190
H27 H 0.97380 0.26210 0.49500
H28 H -0.22730 0.85330 -0.12500
H29 H 1.16040 0.39210 0.38930
H30 H 0.01850 0.95900 -0.20450
H31 H 1.21540 0.29580 0.46770
H32 H -0.15890 0.99540 -0.23990
H33 H 1.16500 0.25540 0.37560
H34 H -0.11370 1.02930 -0.13910
#END
