
#######################################################################
#
#                 Cambridge Crystallographic Data Centre
#                                CCDC
#
#######################################################################
#
# If this CIF has been generated from an entry in the Cambridge
# Structural Database, then it will include bibliographic, chemical,
# crystal, experimental, refinement or atomic coordinate data resulting
# from the CCDC's data processing and validation procedures.
#
#######################################################################

data_CSD_CIF_RECTIE
_audit_creation_date 2013-02-22
_audit_creation_method CSD-ConQuest-V1
_database_code_CSD RECTIE
_database_code_depnum_ccdc_archive 'CCDC 818996'
_chemical_formula_sum 'C26 H21 N3 O3'
_chemical_formula_moiety
;
C26 H21 N3 O3
;
_journal_coden_Cambridge 1220
_journal_volume 18
_journal_year 2012
_journal_page_first 14255
_journal_name_full 'Chem.-Eur.J. '
loop_
_publ_author_name
"Feng Li"
"Long Sun"
"Yuou Teng"
"Peng Yu"
"J.C.-G.Zhao"
"Jun-An Ma"
_chemical_name_systematic
;
4-(1-(9-Anthryl)-2-nitroethyl)-3-methyl-1-phenyl-1H-pyrazol-5-ol
;
_cell_volume   2205.132
_exptl_crystal_colour 'colorless'
_exptl_crystal_density_diffrn 1.276
_exptl_crystal_description 'block'
_diffrn_ambient_temperature 298
#These two values have been output from a single CSD field.
_refine_ls_R_factor_gt 0.0456
_refine_ls_wR_factor_gt 0.0456
_symmetry_cell_setting orthorhombic
_symmetry_space_group_name_H-M 'P 21 21 21'
_symmetry_Int_Tables_number 19
loop_
_symmetry_equiv_pos_site_id
_symmetry_equiv_pos_as_xyz
1 x,y,z
2 1/2-x,-y,1/2+z
3 -x,1/2+y,1/2-z
4 1/2+x,1/2-y,-z
_cell_length_a 10.437(9)
_cell_length_b 10.582(9)
_cell_length_c 19.966(16)
_cell_angle_alpha 90
_cell_angle_beta 90
_cell_angle_gamma 90
_cell_formula_units_Z 4
loop_
_atom_type_symbol
_atom_type_radius_bond
C 0.68
H 0.23
N 0.68
O 0.68
loop_
_atom_site_label
_atom_site_type_symbol
_atom_site_fract_x
_atom_site_fract_y
_atom_site_fract_z
C1 C 1.0528(6) 0.0587(11) 1.1890(5)
H1 H 1.06490 0.01800 1.22980
C2 C 1.0455(7) -0.0100(9) 1.1312(5)
H2 H 1.05140 -0.09760 1.13290
C3 C 1.0295(6) 0.0494(6) 1.0703(4)
H3 H 1.02640 0.00260 1.03090
C4 C 1.0179(5) 0.1796(5) 1.0688(3)
C5 C 1.0245(5) 0.2514(7) 1.1262(3)
H4 H 1.01740 0.33890 1.12460
C6 C 1.0422(6) 0.1884(10) 1.1867(3)
H5 H 1.04690 0.23460 1.22630
C7 C 0.9307(4) 0.2577(5) 0.9020(2)
C8 C 1.0241(4) 0.3460(4) 0.9097(2)
C9 C 1.0731(4) 0.3344(4) 0.9759(2)
C10 C 0.8512(5) 0.2251(6) 0.8426(3)
H6 H 0.80000 0.15200 0.85260
H7 H 0.90590 0.20720 0.80520
H8 H 0.79610 0.29490 0.83190
C11 C 1.0677(4) 0.4352(4) 0.8543(2)
H9 H 1.08530 0.38200 0.81520
C12 C 1.1952(5) 0.4997(6) 0.8724(3)
H10 H 1.18140 0.55880 0.90890
H11 H 1.25610 0.43650 0.88740
C13 C 0.9646(4) 0.5302(4) 0.8323(2)
C14 C 0.9137(5) 0.6199(5) 0.8781(3)
C15 C 0.9497(7) 0.6255(5) 0.9470(3)
H12 H 1.00950 0.56850 0.96380
C16 C 0.8965(9) 0.7146(7) 0.9888(4)
H13 H 0.91840 0.71570 1.03400
C17 C 0.8084(9) 0.8052(8) 0.9634(5)
H14 H 0.77610 0.86720 0.99180
C18 C 0.7716(7) 0.8024(7) 0.9000(5)
H15 H 0.71270 0.86180 0.88480
C19 C 0.8203(6) 0.7104(5) 0.8546(4)
C20 C 0.7807(5) 0.7072(5) 0.7885(4)
H16 H 0.72110 0.76640 0.77400
C21 C 0.8263(5) 0.6194(5) 0.7434(3)
C22 C 0.7817(6) 0.6159(7) 0.6756(3)
H17 H 0.72210 0.67560 0.66160
C23 C 0.8236(7) 0.5287(7) 0.6314(3)
H18 H 0.79250 0.52790 0.58770
C24 C 0.9139(6) 0.4399(6) 0.6520(3)
H19 H 0.94230 0.37940 0.62170
C25 C 0.9613(5) 0.4400(5) 0.7153(3)
H20 H 1.02300 0.38030 0.72670
C26 C 0.9202(4) 0.5283(5) 0.7652(3)
N1 N 0.9982(4) 0.2427(4) 1.0062(2)
N2 N 0.9162(4) 0.1880(4) 0.9594(2)
N3 N 1.2486(4) 0.5684(4) 0.8133(3)
O1 O 1.2813(6) 0.6770(4) 0.8222(3)
O2 O 1.2606(4) 0.5122(4) 0.7606(2)
O3 O 1.1639(3) 0.3893(3) 1.00523(16)
H21 H 1.20190 0.34700 1.04350
#END
