
#######################################################################
#
#                 Cambridge Crystallographic Data Centre
#                                CCDC
#
#######################################################################
#
# If this CIF has been generated from an entry in the Cambridge
# Structural Database, then it will include bibliographic, chemical,
# crystal, experimental, refinement or atomic coordinate data resulting
# from the CCDC's data processing and validation procedures.
#
#######################################################################

data_CSD_CIF_RECWIF
_audit_creation_date 1997-09-01
_audit_creation_method CSD-ConQuest-V1
_database_code_CSD RECWIF
_chemical_formula_sum 'C19 H25 N1 O7'
_chemical_formula_moiety
;
C19 H25 N1 O7
;
_journal_coden_Cambridge 35
_journal_volume 61
_journal_year 1996
_journal_page_first 7646
_journal_name_full 'J.Org.Chem. '
loop_
_publ_author_name
"M.M.Claffey"
"C.H.Heathcock"
_chemical_name_systematic
;
(2R,4R,6S,8R,10R)-10-Hydroxy-2,8,10-trimethyl-1,7-dioxaspiro(5.5)undec-4-yl 
4-nitrobenzoate
;
_cell_volume   1893.585
_exptl_crystal_colour 'colorless'
_exptl_crystal_density_diffrn 1.33
_diffrn_ambient_temperature 145.15
#These two values have been output from a single CSD field.
_refine_ls_R_factor_gt 0.031
_refine_ls_wR_factor_gt 0.031
_symmetry_cell_setting orthorhombic
_symmetry_space_group_name_H-M 'P 21 21 21'
_symmetry_Int_Tables_number 19
loop_
_symmetry_equiv_pos_site_id
_symmetry_equiv_pos_as_xyz
1 x,y,z
2 1/2-x,-y,1/2+z
3 1/2+x,1/2-y,-z
4 -x,1/2+y,1/2-z
_cell_length_a 8.2712(1)
_cell_length_b 9.6142(1)
_cell_length_c 23.8124(2)
_cell_angle_alpha 90
_cell_angle_beta 90
_cell_angle_gamma 90
_cell_formula_units_Z 4
loop_
_atom_type_symbol
_atom_type_radius_bond
C 0.68
H 0.23
N 0.68
O 0.68
loop_
_atom_site_label
_atom_site_type_symbol
_atom_site_fract_x
_atom_site_fract_y
_atom_site_fract_z
O1 O 0.1304(2) 0.2610(2) 0.35827(7)
O2 O -0.0815(2) 0.1581(2) 0.40897(7)
O3 O -0.1810(2) 0.4230(2) 0.43884(8)
O4 O 0.2384(3) -0.0123(2) 0.33600(8)
O5 O 0.2917(3) -0.2383(2) 0.31929(9)
O6 O 0.4435(4) 0.1844(3) 0.07305(10)
O7 O 0.5516(3) -0.0157(3) 0.05603(9)
N1 N 0.4813(3) 0.0665(3) 0.0866(1)
C1 C 0.0343(3) 0.3779(3) 0.3388(1)
C2 C 0.0442(3) 0.4962(3) 0.3805(1)
C3 C -0.0103(3) 0.4511(3) 0.4395(1)
C4 C 0.0833(3) 0.3207(3) 0.4564(1)
C5 C 0.0818(4) 0.2078(3) 0.4117(1)
C6 C 0.1969(4) 0.0893(3) 0.4261(1)
C7 C 0.1732(4) -0.0417(3) 0.3920(1)
C8 C -0.0044(4) -0.0778(3) 0.3870(1)
C9 C -0.1054(4) 0.0454(3) 0.3692(1)
C10 C 0.0987(4) 0.4161(3) 0.2816(1)
C11 C 0.0143(4) 0.5696(3) 0.4813(1)
C12 C -0.2857(4) 0.0162(3) 0.3682(1)
C13 C 0.2909(4) -0.1180(3) 0.3050(1)
C14 C 0.3452(3) -0.0677(3) 0.2487(1)
C15 C 0.4247(4) -0.1574(3) 0.2130(1)
C16 C 0.4735(4) -0.1144(3) 0.1600(1)
C17 C 0.4360(3) 0.0205(3) 0.1440(1)
C18 C 0.3584(4) 0.1114(3) 0.1786(1)
C19 C 0.3138(4) 0.0681(3) 0.2316(1)
H1 H -0.07520 0.34940 0.33530
H2 H 0.15290 0.52790 0.38240
H3 H -0.02340 0.56990 0.36800
H4 H 0.03650 0.28420 0.48970
H5 H 0.19240 0.34620 0.46360
H6 H 0.18240 0.06650 0.46460
H7 H 0.30430 0.12110 0.42020
H8 H 0.23050 -0.11670 0.40860
H9 H -0.01650 -0.14970 0.36000
H10 H -0.04190 -0.10960 0.42250
H11 H -0.07190 0.07500 0.33290
H12 H -0.21440 0.33020 0.43070
H13 H 0.07480 0.34360 0.25570
H14 H 0.21250 0.42860 0.28370
H15 H 0.04940 0.49990 0.26930
H16 H 0.12520 0.59500 0.48210
H17 H -0.04880 0.64750 0.47010
H18 H -0.01840 0.54020 0.51760
H19 H -0.30760 -0.05670 0.34240
H20 H -0.32040 -0.01080 0.40470
H21 H -0.34200 0.09770 0.35700
H22 H 0.44650 -0.24990 0.22480
H23 H 0.53050 -0.17520 0.13550
H24 H 0.33530 0.20340 0.16640
H25 H 0.26160 0.13100 0.25650
#END
