
#######################################################################
#
#                 Cambridge Crystallographic Data Centre
#                                CCDC
#
#######################################################################
#
# If this CIF has been generated from an entry in the Cambridge
# Structural Database, then it will include bibliographic, chemical,
# crystal, experimental, refinement or atomic coordinate data resulting
# from the CCDC's data processing and validation procedures.
#
#######################################################################

data_CSD_CIF_REFGEO
_audit_creation_date 1997-09-01
_audit_creation_method CSD-ConQuest-V1
_database_code_CSD REFGEO
_database_code_depnum_ccdc_journal 188/36
_chemical_formula_sum 'C17 H18 N4 O2'
_chemical_formula_moiety
;
C17 H18 N4 O2
;
_journal_coden_Cambridge 188
_journal_year 1997
_journal_page_first 79
_journal_name_full 'J.Chem.Soc.,Perkin Trans.2 '
loop_
_publ_author_name
"R.Centore"
"C.Garzillo"
_chemical_name_systematic
;
(E,E)-4-Dimethylaminobenzaldehyde ((4-nitrophenyl)ethylidene) hydrazone
;
_chemical_melting_point 478.15
_cell_volume   3180.683
_exptl_crystal_colour 'orange'
_exptl_crystal_density_diffrn 1.296
_diffrn_ambient_temperature ?
_diffrn_special_details
;
The study was carried out at room temperature,in the range 283-303K

;
#These two values have been output from a single CSD field.
_refine_ls_R_factor_gt 0.064
_refine_ls_wR_factor_gt 0.064
_symmetry_cell_setting orthorhombic
_symmetry_space_group_name_H-M 'P b c a'
_symmetry_Int_Tables_number 61
loop_
_symmetry_equiv_pos_site_id
_symmetry_equiv_pos_as_xyz
1 x,y,z
2 1/2-x,-y,1/2+z
3 1/2+x,1/2-y,-z
4 -x,1/2+y,1/2-z
5 -x,-y,-z
6 -1/2+x,y,-1/2-z
7 -1/2-x,-1/2+y,z
8 x,-1/2-y,-1/2+z
_cell_length_a 37.654(5)
_cell_length_b 11.343(4)
_cell_length_c 7.447(5)
_cell_angle_alpha 90
_cell_angle_beta 90
_cell_angle_gamma 90
_cell_formula_units_Z 8
loop_
_atom_type_symbol
_atom_type_radius_bond
C 0.68
H 0.23
N 0.68
O 0.68
loop_
_atom_site_label
_atom_site_type_symbol
_atom_site_fract_x
_atom_site_fract_y
_atom_site_fract_z
O1 O 0.66869(8) 0.2455(4) 0.4501(6)
O2 O 0.68629(8) 0.0917(4) 0.5869(6)
N1 N 0.29141(8) 0.1040(3) 0.7988(5)
N2 N 0.46132(8) 0.0890(3) 0.7309(5)
N3 N 0.49594(8) 0.1211(3) 0.6805(5)
N4 N 0.66313(9) 0.1585(3) 0.5383(6)
C1 C 0.2775(1) 0.0069(5) 0.9021(9)
C2 C 0.2665(1) 0.1893(5) 0.7254(7)
C3 C 0.3267(1) 0.1116(3) 0.7567(6)
C4 C 0.3396(1) 0.2010(3) 0.6446(6)
C5 C 0.3757(1) 0.2101(3) 0.6109(6)
C6 C 0.4003(1) 0.1321(3) 0.6846(5)
C7 C 0.3874(1) 0.0403(3) 0.7908(6)
C8 C 0.3514(1) 0.0293(3) 0.8263(6)
C9 C 0.4378(1) 0.1497(3) 0.6501(5)
C10 C 0.5198(1) 0.0429(3) 0.7183(6)
C11 C 0.5119(1) -0.0766(4) 0.7973(7)
C12 C 0.5569(1) 0.0748(3) 0.6748(5)
C13 C 0.5643(1) 0.1739(4) 0.5696(6)
C14 C 0.5992(1) 0.2028(4) 0.5256(6)
C15 C 0.6263(1) 0.1307(4) 0.5881(6)
C16 C 0.6196(1) 0.0332(4) 0.6917(7)
C17 C 0.5849(1) 0.0050(3) 0.7352(6)
H1 H 0.250(2) 0.028(6) 0.89(1)
H2 H 0.282(2) -0.060(6) 0.80(1)
H3 H 0.290(2) -0.019(6) 1.02(1)
H4 H 0.268(1) 0.185(5) 0.592(9)
H5 H 0.240(2) 0.167(6) 0.751(8)
H6 H 0.280(1) 0.263(6) 0.760(9)
H7 H 0.321(1) 0.254(5) 0.567(8)
H8 H 0.384(1) 0.280(4) 0.530(7)
H9 H 0.405(1) -0.029(4) 0.840(8)
H10 H 0.339(1) -0.043(4) 0.916(8)
H11 H 0.445(1) 0.217(4) 0.554(7)
H12 H 0.523(1) -0.142(5) 0.720(8)
H13 H 0.529(1) -0.079(5) 0.921(8)
H14 H 0.483(1) -0.095(5) 0.813(8)
H15 H 0.541(1) 0.233(5) 0.519(8)
H16 H 0.606(1) 0.278(5) 0.433(8)
H17 H 0.638(1) -0.026(5) 0.730(8)
H18 H 0.577(1) -0.069(4) 0.811(8)
#END
