
#######################################################################
#
#                 Cambridge Crystallographic Data Centre
#                                CCDC
#
#######################################################################
#
# If this CIF has been generated from an entry in the Cambridge
# Structural Database, then it will include bibliographic, chemical,
# crystal, experimental, refinement or atomic coordinate data resulting
# from the CCDC's data processing and validation procedures.
#
#######################################################################

data_CSD_CIF_REFRID
_audit_creation_date 1997-09-01
_audit_creation_method CSD-ConQuest-V1
_database_code_CSD REFRID
_database_code_depnum_ccdc_archive 'CCDC 1247879'
_database_code_depnum_ccdc_fiz 'CSD 404062'
_chemical_formula_sum 'C16 H16 N4 O1'
_chemical_formula_moiety
;
C16 H16 N4 O1
;
_journal_coden_Cambridge 167
_journal_year 1995
_journal_page_first 2189
_journal_name_full 'Liebigs Ann. '
loop_
_publ_author_name
"F.Hintermaier"
"L.B.Volodarsky"
"K.Polborn"
"W.Beck"
_chemical_name_systematic
;
2',5'-Dihydro-1'-hydroxy-4',5',5'-trimethyl-spiro(4,5-diazafluoren-9,2'-imidaz
ole)
;
_chemical_melting_point 539.15
_cell_volume   1447.362
_exptl_crystal_colour 'colorless'
_exptl_crystal_density_diffrn 1.29
_exptl_special_details
;
Melting point range 539.15-543.15K

;
_diffrn_ambient_temperature ?
_diffrn_special_details
;
The study was carried out at room temperature,in the range 283-303K

;
_refine_special_details
;
C6 and several H atoms are disordered. The hydroxylamine O atom is 
crystallographically disordered.
;
#These two values have been output from a single CSD field.
_refine_ls_R_factor_gt 0.041
_refine_ls_wR_factor_gt 0.041
_symmetry_cell_setting orthorhombic
_symmetry_space_group_name_H-M 'P b c m'
_symmetry_Int_Tables_number 57
loop_
_symmetry_equiv_pos_site_id
_symmetry_equiv_pos_as_xyz
1 x,y,z
2 -x,-y,1/2+z
3 x,1/2-y,-z
4 -x,1/2+y,1/2-z
5 -x,-y,-z
6 x,y,-1/2-z
7 -x,-1/2+y,z
8 x,-1/2-y,-1/2+z
_cell_length_a 9.565(1)
_cell_length_b 11.311(3)
_cell_length_c 13.378(4)
_cell_angle_alpha 90
_cell_angle_beta 90
_cell_angle_gamma 90
_cell_formula_units_Z 4
loop_
_atom_type_symbol
_atom_type_radius_bond
C 0.68
H 0.23
N 0.68
O 0.68
loop_
_atom_site_label
_atom_site_type_symbol
_atom_site_fract_x
_atom_site_fract_y
_atom_site_fract_z
O1 O 1.0304(3) 0.3187(2) 0.1834(2)
N1 N 1.0752(2) 0.2356(2) 0.25000
N2 N 1.0888(2) 0.0279(2) 0.25000
N3 N 0.6403(2) 0.0958(2) 0.3645(1)
C1 C 0.9886(3) 0.1265(2) 0.25000
C2 C 1.2240(3) 0.2012(2) 0.250(2)
C3 C 1.2130(3) 0.0690(2) 0.25000
C4 C 1.2819(3) 0.2382(5) 0.1389(4)
C5 C 1.3380(3) -0.0097(3) 0.25000
C6 C 0.8888(2) 0.1166(2) 0.3382(1)
C7 C 0.9150(2) 0.1142(2) 0.4387(1)
C8 C 0.8015(2) 0.1025(2) 0.5017(2)
C9 C 0.6700(2) 0.0947(2) 0.4624(2)
C10 C 0.7513(2) 0.1064(2) 0.3052(1)
H1 H 1.29440 0.32100 0.13170
H2 H 1.36800 0.19900 0.12630
H3 H 1.21360 0.21160 0.09250
H4 H 1.33580 -0.05810 0.30790
H5 H 1.00670 0.12020 0.46430
H6 H 0.81210 0.10450 0.57560
H7 H 0.59510 0.08810 0.50800
H8 H 1.02170 0.38860 0.25000
C11? C 1.3156(4) 0.2519(5) 0.1787(4)
H9? H 1.31850 0.33530 0.18670
H10? H 1.40760 0.22080 0.18310
H11? H 1.27700 0.23320 0.11510
H12? H 1.42120 0.03610 0.25000
H13? H 1.30510 -0.10430 0.25000
H14? H 1.39230 0.01270 0.18550
O1E O 1.0304(3) 0.3187(2) 0.3166(2)
C4E C 1.2819(3) 0.2382(5) 0.3611(4)
H1E H 1.29440 0.32100 0.36830
H2E H 1.36800 0.19900 0.37370
H3E H 1.21360 0.21160 0.40750
H4E H 1.33580 -0.05810 0.19210
C10E C 0.7513(2) 0.1064(2) 0.1948(1)
N3E N 0.6403(2) 0.0958(2) 0.1355(1)
C9E C 0.6700(2) 0.0947(2) 0.0376(2)
C8E C 0.8015(2) 0.1025(2) -0.0017(2)
C7E C 0.9150(2) 0.1142(2) 0.0613(1)
C6E C 0.8888(2) 0.1166(2) 0.1618(1)
H5E H 1.00670 0.12020 0.03570
H6E H 0.81210 0.10450 -0.07560
H7E H 0.59510 0.08810 -0.00800
#END
