
#######################################################################
#
#                 Cambridge Crystallographic Data Centre
#                                CCDC
#
#######################################################################
#
# If this CIF has been generated from an entry in the Cambridge
# Structural Database, then it will include bibliographic, chemical,
# crystal, experimental, refinement or atomic coordinate data resulting
# from the CCDC's data processing and validation procedures.
#
#######################################################################

data_CSD_CIF_REFROJ
_audit_creation_date 1997-09-01
_audit_creation_method CSD-ConQuest-V1
_database_code_CSD REFROJ
_database_code_depnum_ccdc_archive 'CCDC 1247880; CCDC 404063'
_database_code_depnum_ccdc_fiz 'CSD 404063'
_chemical_formula_sum 'C10 H17 N2 O3'
_chemical_formula_moiety
;
C10 H17 N2 O3
;
_journal_coden_Cambridge 167
_journal_year 1995
_journal_page_first 2189
_journal_name_full 'Liebigs Ann. '
loop_
_publ_author_name
"F.Hintermaier"
"L.B.Volodarsky"
"K.Polborn"
"W.Beck"
_chemical_name_systematic
;
2-Acetoxymethyl-2,5-dihydro-2,4,5,5-tetramethylimidazole-1-oxide
;
_chemical_melting_point 325.65
_cell_volume    604.571
_exptl_crystal_colour 'orange'
_exptl_crystal_density_diffrn 1.17
_exptl_special_details
;
Melting point range 325.65-326.65K

;
_diffrn_ambient_temperature ?
_diffrn_special_details
;
The study was carried out at room temperature,in the range 283-303K

;
#These two values have been output from a single CSD field.
_refine_ls_R_factor_gt 0.048
_refine_ls_wR_factor_gt 0.048
_symmetry_cell_setting triclinic
_symmetry_space_group_name_H-M 'P -1'
_symmetry_Int_Tables_number 2
loop_
_symmetry_equiv_pos_site_id
_symmetry_equiv_pos_as_xyz
1 x,y,z
2 -x,-y,-z
_cell_length_a 6.608(3)
_cell_length_b 8.547(4)
_cell_length_c 11.386(5)
_cell_angle_alpha 104.97(2)
_cell_angle_beta 95.01(2)
_cell_angle_gamma 100.55(2)
_cell_formula_units_Z 2
loop_
_atom_type_symbol
_atom_type_radius_bond
C 0.68
H 0.23
N 0.68
O 0.68
loop_
_atom_site_label
_atom_site_type_symbol
_atom_site_fract_x
_atom_site_fract_y
_atom_site_fract_z
O1 O 0.8107(3) 1.1082(3) 0.6728(2)
O2 O 0.3363(3) 0.8911(2) 0.7114(2)
O3 O 0.2617(5) 0.6229(3) 0.6669(3)
N1 N 0.6809(3) 1.1536(3) 0.7419(2)
N2 N 0.4797(3) 1.1759(3) 0.8965(2)
C1 C 0.6254(4) 1.0818(3) 0.8419(2)
C2 C 0.5668(4) 1.2826(3) 0.7316(2)
C3 C 0.4474(4) 1.2785(3) 0.8371(2)
C4 C 0.8162(5) 1.1008(4) 0.9319(3)
C5 C 0.4292(5) 1.2335(4) 0.6089(3)
C6 C 0.7197(5) 1.4466(4) 0.7515(3)
C7 C 0.2965(5) 1.3877(4) 0.8685(3)
C8 C 0.5225(4) 0.9008(3) 0.7903(3)
C9 C 0.2150(5) 0.7466(3) 0.6572(3)
C10 C 0.0317(5) 0.7576(4) 0.5803(3)
H1 H 0.77770 1.05340 0.99570
H2 H 0.91440 1.04660 0.89120
H3 H 0.87630 1.21540 0.96600
H4 H 0.51520 1.23890 0.54680
H5 H 0.35060 1.12350 0.59300
H6 H 0.33740 1.30710 0.60910
H7 H 0.79110 1.44260 0.68220
H8 H 0.64640 1.53390 0.76200
H9 H 0.81710 1.46560 0.82280
H10 H 0.23640 1.36790 0.93740
H11 H 0.36640 1.50060 0.88770
H12 H 0.19030 1.36380 0.80060
H13 H 0.61190 0.84280 0.74370
H14 H 0.48990 0.85320 0.85480
H15 H -0.05160 0.64980 0.54350
H16 H -0.04690 0.82430 0.62940
H17 H 0.07500 0.80620 0.51800
#END
