
#######################################################################
#
#                 Cambridge Crystallographic Data Centre
#                                CCDC
#
#######################################################################
#
# If this CIF has been generated from an entry in the Cambridge
# Structural Database, then it will include bibliographic, chemical,
# crystal, experimental, refinement or atomic coordinate data resulting
# from the CCDC's data processing and validation procedures.
#
#######################################################################

data_CSD_CIF_REGCUB
_audit_creation_date 1997-09-01
_audit_creation_method CSD-ConQuest-V1
_database_code_CSD REGCUB
_database_code_depnum_ccdc_archive 'CCDC 1247917'
_database_code_depnum_ccdc_fiz 'CSD 400857'
_chemical_formula_sum 'C11 H9 N5 O2'
_chemical_formula_moiety
;
C11 H9 N5 O2
;
_journal_coden_Cambridge 167
_journal_year 1994
_journal_page_first 1037
_journal_name_full 'Liebigs Ann. '
loop_
_publ_author_name
"K.Kirschke"
"E.Wolff"
"M.Ramm"
"G.Lutze"
"B.Schulz"
_chemical_name_systematic
;
6-Methyl-3-(3-nitrophenyl)pyrazolo(5,1-c)(1,2,4)triazole
;
_cell_volume    522.771
_exptl_crystal_colour 'light yellow'
_exptl_crystal_density_diffrn 1.55
_diffrn_ambient_temperature ?
_diffrn_special_details
;
The study was carried out at room temperature,in the range 283-303K

;
#These two values have been output from a single CSD field.
_refine_ls_R_factor_gt 0.034
_refine_ls_wR_factor_gt 0.034
_symmetry_cell_setting triclinic
_symmetry_space_group_name_H-M 'P -1'
_symmetry_Int_Tables_number 2
loop_
_symmetry_equiv_pos_site_id
_symmetry_equiv_pos_as_xyz
1 x,y,z
2 -x,-y,-z
_cell_length_a 6.3213(6)
_cell_length_b 6.9531(6)
_cell_length_c 12.5594(12)
_cell_angle_alpha 78.05(1)
_cell_angle_beta 82.49(1)
_cell_angle_gamma 76.31(1)
_cell_formula_units_Z 2
loop_
_atom_type_symbol
_atom_type_radius_bond
C 0.68
H 0.23
N 0.68
O 0.68
loop_
_atom_site_label
_atom_site_type_symbol
_atom_site_fract_x
_atom_site_fract_y
_atom_site_fract_z
O1 O -0.4006(4) 0.2909(4) -0.1726(2)
O2 O -0.1223(4) 0.2081(4) -0.0781(2)
N1 N -0.2027(4) 0.2447(4) -0.1652(2)
N2 N -0.0038(4) 0.2843(3) -0.6643(2)
N3 N -0.3205(4) 0.3079(3) -0.5660(2)
N4 N -0.3496(4) 0.3297(4) -0.6742(2)
N5 N 0.2058(4) 0.2613(3) -0.7146(2)
C1 C -0.0107(4) 0.2493(4) -0.4578(2)
C2 C 0.2138(5) 0.1898(4) -0.4515(3)
C3 C 0.3005(5) 0.1536(5) -0.3517(3)
C4 C 0.1653(5) 0.1727(5) -0.2571(3)
C5 C -0.0568(5) 0.2310(4) -0.2653(2)
C6 C -0.1470(5) 0.2705(4) -0.3627(2)
C7 C -0.1095(4) 0.2813(4) -0.5606(2)
C8 C -0.1554(5) 0.3117(4) -0.7363(2)
C9 C -0.0481(5) 0.3082(5) -0.8379(3)
C10 C 0.1715(5) 0.2762(4) -0.8203(3)
C11 C 0.3611(5) 0.2565(5) -0.9039(3)
H1 H 0.312(4) 0.180(4) -0.519(2)
H2 H 0.458(5) 0.105(4) -0.348(2)
H3 H 0.215(5) 0.152(4) -0.185(2)
H4 H -0.473(5) 0.322(4) -0.694(2)
H5 H -0.302(4) 0.313(4) -0.364(2)
H6 H -0.102(5) 0.318(4) -0.904(2)
H7 H 0.31120 0.27070 -0.97380
H8 H 0.44100 0.35680 -0.90520
H9 H 0.45290 0.12690 -0.88560
#END
