
#######################################################################
#
#                 Cambridge Crystallographic Data Centre
#                                CCDC
#
#######################################################################
#
# If this CIF has been generated from an entry in the Cambridge
# Structural Database, then it will include bibliographic, chemical,
# crystal, experimental, refinement or atomic coordinate data resulting
# from the CCDC's data processing and validation procedures.
#
#######################################################################

data_CSD_CIF_REGRUR
_audit_creation_date 2006-06-21
_audit_creation_method CSD-ConQuest-V1
_database_code_CSD REGRUR
_database_code_depnum_ccdc_archive 'CCDC 606584'
_chemical_formula_sum 'C11 H17 N3 O6'
_chemical_formula_moiety
;
C11 H17 N3 O6
;
_journal_coden_Cambridge 388
_journal_volume 41
_journal_year 2005
_journal_page_first 1717
_journal_name_full 'Zh.Org.Khim.(Russ.)(Russ.J.Org.Chem.) '
loop_
_publ_author_name
"Yu.M.Atroshchenko"
"I.V.Shakhkel'dyan"
"O.Ya.Borbulevych"
"A.N.Shchukin"
"M.Yu.Antipin"
"V.N.Khrustalev"
_chemical_name_systematic
;
7-Methyl-3,5-dinitrospiro((7-azabicyclo(3.3.1)nonane)-2,2'-((1,3)dioxolane))
;
_chemical_name_common
;
3-Methyl-6,6-(ethylenedioxy)-1,7-dinitro-3-azabicyclo(3.3.1)nonane
;
_chemical_melting_point 98
_cell_volume   1256.173
_exptl_crystal_colour 'colorless'
_exptl_crystal_density_diffrn 1.519
_exptl_special_details
;
Melting point range 98-99K

;
_exptl_crystal_description 'prism'
_exptl_crystal_preparation 'ethanol'
_diffrn_ambient_temperature 110
#These two values have been output from a single CSD field.
_refine_ls_R_factor_gt 0.0581
_refine_ls_wR_factor_gt 0.0581
_symmetry_cell_setting orthorhombic
_symmetry_space_group_name_H-M 'P 21 21 21'
_symmetry_Int_Tables_number 19
loop_
_symmetry_equiv_pos_site_id
_symmetry_equiv_pos_as_xyz
1 x,y,z
2 1/2-x,-y,1/2+z
3 -x,1/2+y,1/2-z
4 1/2+x,1/2-y,-z
_cell_length_a 7.7162(6)
_cell_length_b 11.0922(8)
_cell_length_c 14.6767(12)
_cell_angle_alpha 90
_cell_angle_beta 90
_cell_angle_gamma 90
_cell_formula_units_Z 4
loop_
_atom_type_symbol
_atom_type_radius_bond
C 0.68
H 0.23
N 0.68
O 0.68
loop_
_atom_site_label
_atom_site_type_symbol
_atom_site_fract_x
_atom_site_fract_y
_atom_site_fract_z
O1 O 0.5802(2) -0.08978(18) -0.17230(11)
O2 O 0.5385(2) -0.15614(17) -0.03690(12)
O3 O 0.33961(19) 0.16280(13) 0.14518(9)
O4 O 0.09736(19) 0.25595(13) 0.12782(9)
O5 O -0.13496(15) 0.10930(12) 0.02117(8)
O6 O 0.03505(16) -0.02866(11) 0.09509(8)
N1 N 0.49409(19) -0.09717(15) -0.10316(12)
N2 N 0.20872(19) 0.18569(13) 0.10154(9)
N3 N 0.13056(18) 0.10540(13) -0.18251(9)
C1 C 0.3240(2) -0.02608(14) -0.09674(10)
C2 C 0.2939(2) 0.03756(15) -0.18721(11)
C3 C -0.0176(2) 0.02808(16) -0.15956(11)
C4 C 0.0123(2) -0.04022(15) -0.07009(11)
C5 C 0.0216(2) 0.04157(14) 0.01453(10)
C6 C 0.1820(2) 0.12505(14) 0.00977(10)
C7 C 0.3475(2) 0.05757(15) -0.01430(11)
C8 C 0.1782(2) -0.11509(15) -0.07722(11)
C9 C 0.1003(3) 0.16606(17) -0.26945(12)
C10 C -0.1387(2) -0.04253(17) 0.12845(11)
C11 C -0.2165(2) 0.07909(18) 0.10670(12)
H1 H 0.296(4) -0.020(2) -0.2340(17)
H2 H 0.388(3) 0.092(2) -0.2002(16)
H3 H -0.050(4) -0.031(2) -0.2090(18)
H4 H -0.119(4) 0.074(3) -0.1525(18)
H5 H -0.096(4) -0.093(3) -0.063(2)
H6 H 0.159(3) 0.193(2) -0.0275(18)
H7 H 0.390(4) 0.009(2) 0.0417(18)
H8 H 0.432(4) 0.114(3) -0.0245(19)
H9 H 0.174(5) -0.172(3) -0.125(2)
H10 H 0.210(5) -0.159(3) -0.019(2)
H11 H 0.084(3) 0.109(2) -0.3197(17)
H12 H 0.001(4) 0.212(3) -0.269(2)
H13 H 0.196(4) 0.213(3) -0.2856(18)
H14 H -0.136(4) -0.059(3) 0.1908(17)
H15 H -0.195(4) -0.104(3) 0.0947(18)
H16 H -0.352(5) 0.079(3) 0.099(2)
H17 H -0.192(4) 0.136(3) 0.1544(19)
#END
