
#######################################################################
#
#                 Cambridge Crystallographic Data Centre
#                                CCDC
#
#######################################################################
#
# If this CIF has been generated from an entry in the Cambridge
# Structural Database, then it will include bibliographic, chemical,
# crystal, experimental, refinement or atomic coordinate data resulting
# from the CCDC's data processing and validation procedures.
#
#######################################################################

data_CSD_CIF_REHKOE
_audit_creation_date 1997-09-01
_audit_creation_method CSD-ConQuest-V1
_database_code_CSD REHKOE
_database_code_depnum_ccdc_archive 'CCDC 1248018; CCDC 401677'
_database_code_depnum_ccdc_fiz 'CSD 401677'
_chemical_formula_sum 'C4 H6 N2 O1'
_chemical_formula_moiety
;
C4 H6 N2 O1
;
_journal_coden_Cambridge 167
_journal_year 1995
_journal_page_first 1563
_journal_name_full 'Liebigs Ann. '
loop_
_publ_author_name
"W.Reuther"
"U.Baus"
_chemical_name_systematic
;
3-Methyl-N-hydroxy-pyrazole
;
_chemical_melting_point 319.15
_cell_volume   2097.736
_exptl_crystal_colour 'white'
_exptl_crystal_density_diffrn 1.243
_diffrn_ambient_temperature ?
_diffrn_special_details
;
The study was carried out at room temperature,in the range 283-303K

;
#These two values have been output from a single CSD field.
_refine_ls_R_factor_gt 0.0444
_refine_ls_wR_factor_gt 0.0444
_symmetry_cell_setting monoclinic
_symmetry_space_group_name_H-M 'P 21/c'
_symmetry_Int_Tables_number 14
loop_
_symmetry_equiv_pos_site_id
_symmetry_equiv_pos_as_xyz
1 x,y,z
2 -x,1/2+y,1/2-z
3 -x,-y,-z
4 x,-1/2-y,-1/2+z
_cell_length_a 18.171(5)
_cell_length_b 7.370(1)
_cell_length_c 15.743(3)
_cell_angle_alpha 90
_cell_angle_beta 95.74
_cell_angle_gamma 90
_cell_formula_units_Z 16
loop_
_atom_type_symbol
_atom_type_radius_bond
C 0.68
H 0.23
N 0.68
O 0.68
loop_
_atom_site_label
_atom_site_type_symbol
_atom_site_fract_x
_atom_site_fract_y
_atom_site_fract_z
C1 C 0.1179(3) 0.0559(6) 0.3112(3)
H1 H 0.1458(3) 0.0460(6) 0.3638(3)
C2 C 0.0462(3) -0.0003(6) 0.2906(3)
H2 H 0.0156(3) -0.0556(6) 0.3268(3)
C3 C 0.0287(2) 0.0421(5) 0.2049(3)
N1 N 0.0870(2) 0.1208(4) 0.1730(2)
N2 N 0.1391(2) 0.1277(4) 0.2394(2)
O1 O 0.20548(14) 0.2054(3) 0.2288(2)
H3 H 0.2429(15) 0.1177(39) 0.2226(26)
C4 C -0.0419(2) 0.0115(5) 0.1479(3)
H4 H -0.0831(3) 0.055(4) 0.1759(9)
H5 H -0.0479(9) -0.1158(7) 0.1364(17)
H6 H -0.0396(8) 0.0759(36) 0.0953(9)
C5 C 0.1001(2) 0.6296(6) 0.0442(2)
H7 H 0.0524(2) 0.6679(6) 0.0514(2)
C6 C 0.1608(2) 0.7347(6) 0.0381(2)
H8 H 0.1628(2) 0.8606(6) 0.0412(2)
C7 C 0.2187(2) 0.6204(5) 0.0263(2)
N3 N 0.19518(14) 0.4482(4) 0.0245(2)
N4 N 0.1239(2) 0.4598(5) 0.0378(2)
O2 O 0.08097(12) 0.3055(4) 0.0293(2)
H9 H 0.0883(22) 0.2395(47) 0.0813(13)
C8 C 0.2974(2) 0.6649(5) 0.0142(2)
H10 H 0.3091(5) 0.7837(16) 0.0366(16)
H11 H 0.3039(4) 0.6623(37) -0.0455(2)
H12 H 0.3295(2) 0.5773(22) 0.0438(15)
C9 C 0.3382(3) 0.2165(5) -0.0941(3)
H13 H 0.3038(3) 0.2184(5) -0.1420(3)
C10 C 0.4112(2) 0.2537(5) -0.0925(3)
H14 H 0.4371(2) 0.2867(5) -0.1382(3)
C11 C 0.4390(2) 0.2319(5) -0.0078(2)
N5 N 0.3850(2) 0.1866(4) 0.0392(2)
N6 N 0.3244(2) 0.1771(4) -0.0158(2)
O3 O 0.25919(15) 0.1295(4) 0.0118(2)
H15 H 0.2303(18) 0.2362(29) 0.0151(27)
C12 C 0.5163(2) 0.2532(5) 0.0310(2)
H16 H 0.5497(2) 0.2147(37) -0.0089(7)
H17 H 0.5238(5) 0.1804(31) 0.0817(11)
H18 H 0.5255(5) 0.3783(8) 0.0454(17)
C13 C 0.4166(3) -0.1726(8) 0.2306(3)
H19 H 0.4674(3) -0.1765(8) 0.2274(3)
C14 C 0.3713(3) -0.3124(8) 0.2485(3)
H20 H 0.3856(3) -0.4321(8) 0.2592(3)
C15 C 0.3007(2) -0.2445(6) 0.2479(2)
N7 N 0.3014(2) -0.0652(4) 0.2304(2)
N8 N 0.3725(2) -0.0309(6) 0.2190(2)
O4 O 0.39184(14) 0.1465(5) 0.2050(2)
H21 H 0.3917(23) 0.1404(69) 0.1447(3)
C16 C 0.2300(2) -0.3345(5) 0.2651(2)
H22 H 0.2296(7) -0.4571(13) 0.2446(17)
H23 H 0.1890(2) -0.2694(24) 0.2364(15)
H24 H 0.2259(8) -0.3346(36) 0.3255(3)
#END
