
#######################################################################
#
#                 Cambridge Crystallographic Data Centre
#                                CCDC
#
#######################################################################
#
# If this CIF has been generated from an entry in the Cambridge
# Structural Database, then it will include bibliographic, chemical,
# crystal, experimental, refinement or atomic coordinate data resulting
# from the CCDC's data processing and validation procedures.
#
#######################################################################

data_CSD_CIF_REHLAR
_audit_creation_date 1997-09-01
_audit_creation_method CSD-ConQuest-V1
_database_code_CSD REHLAR
_database_code_depnum_ccdc_archive 'CCDC 1248019'
_database_code_depnum_ccdc_fiz 'CSD 400396'
_chemical_formula_sum 'C25 H31 N3 O7'
_chemical_formula_moiety
;
C25 H31 N3 O7
;
_journal_coden_Cambridge 1234
_journal_volume 258
_journal_year 1995
_journal_page_first 27
_journal_name_full 'Mol.Cryst.Liq.Cryst.Sci.Technol.,Sect.A '
loop_
_publ_author_name
"F.Hoffmann"
"A.Boehme"
"H.Hartung"
_chemical_name_systematic
;
Diethyl 6-(4-(4'-nitrophenylazo)phenoxy)hexylmalonate
;
_chemical_melting_point 389.15
_cell_volume   1266.036
_exptl_crystal_colour 'orange'
_exptl_crystal_density_diffrn 1.274
_diffrn_ambient_temperature ?
_diffrn_special_details
;
The study was carried out at room temperature,in the range 283-303K

;
#These two values have been output from a single CSD field.
_refine_ls_R_factor_gt 0.068
_refine_ls_wR_factor_gt 0.068
_symmetry_cell_setting triclinic
_symmetry_space_group_name_H-M 'P -1'
_symmetry_Int_Tables_number 2
loop_
_symmetry_equiv_pos_site_id
_symmetry_equiv_pos_as_xyz
1 x,y,z
2 -x,-y,-z
_cell_length_a 7.995(2)
_cell_length_b 10.699(2)
_cell_length_c 15.021(4)
_cell_angle_alpha 95.04(2)
_cell_angle_beta 96.54(2)
_cell_angle_gamma 94.72(3)
_cell_formula_units_Z 2
loop_
_atom_type_symbol
_atom_type_radius_bond
C 0.68
H 0.23
N 0.68
O 0.68
loop_
_atom_site_label
_atom_site_type_symbol
_atom_site_fract_x
_atom_site_fract_y
_atom_site_fract_z
C1 C 0.00574(59) -0.41101(42) 0.77694(31)
C2 C -0.10950(56) -0.32916(44) 0.75094(30)
H1 H -0.22004(56) -0.36055(44) 0.70356(30)
C3 C -0.07948(54) -0.20561(42) 0.78728(30)
H2 H -0.16687(54) -0.13849(42) 0.76731(30)
C4 C 0.05895(52) -0.16651(39) 0.84819(28)
C5 C 0.17107(53) -0.25198(41) 0.87544(30)
H3 H 0.27837(53) -0.22200(41) 0.92532(30)
C6 C 0.14459(58) -0.37473(42) 0.83865(33)
H4 H 0.23212(58) -0.44204(42) 0.85801(33)
C7 C 0.21263(52) 0.12887(37) 0.96817(28)
C8 C 0.09407(50) 0.21129(40) 0.93975(29)
H5 H -0.01359(50) 0.17712(40) 0.89111(29)
C9 C 0.11534(52) 0.33420(39) 0.97382(29)
H6 H 0.02444(52) 0.39773(39) 0.95171(29)
C10 C 0.25281(50) 0.37893(37) 1.03669(28)
C11 C 0.36955(50) 0.29855(38) 1.06634(29)
H7 H 0.47587(50) 0.33248(38) 1.11592(29)
C12 C 0.34681(52) 0.17348(40) 1.03076(29)
H8 H 0.43721(52) 0.10973(40) 1.05311(29)
C13 C 0.39966(53) 0.56084(36) 1.12773(29)
H9 H 0.40298(53) 0.51825(36) 1.19041(29)
H10 H 0.51690(53) 0.55012(36) 1.09981(29)
C14 C 0.37307(52) 0.69794(36) 1.14306(29)
H11 H 0.37453(52) 0.73836(36) 1.07972(29)
H12 H 0.25099(52) 0.70521(36) 1.16634(29)
C15 C 0.50614(50) 0.77353(35) 1.21171(28)
H13 H 0.62979(50) 0.76163(35) 1.19162(28)
H14 H 0.49865(50) 0.73917(35) 1.27676(28)
C16 C 0.47911(52) 0.91204(36) 1.21843(28)
H15 H 0.49269(52) 0.94590(36) 1.15375(28)
H16 H 0.35214(52) 0.92177(36) 1.23430(28)
C17 C 0.60134(51) 0.99437(37) 1.28944(29)
H17 H 0.72838(51) 0.99078(37) 1.27205(29)
H18 H 0.59380(51) 0.95898(37) 1.35416(29)
C18 C 0.55829(52) 1.12993(36) 1.29479(29)
H19 H 0.56538(52) 1.16373(36) 1.22953(29)
H20 H 0.43066(52) 1.13190(36) 1.31157(29)
C19 C 0.67483(49) 1.21907(36) 1.36466(27)
H21 H 0.80313(49) 1.21141(36) 1.35031(27)
C20 C 0.63325(59) 1.35386(42) 1.35999(34)
C21 C 0.69542(67) 1.56438(41) 1.42719(38)
H22 H 0.57100(67) 1.57297(41) 1.44719(38)
H23 H 0.70187(67) 1.60080(41) 1.36273(38)
C22 C 0.82000(77) 1.63315(51) 1.49291(44)
H24 H 0.79675(77) 1.73138(51) 1.49870(44)
H25 H 0.94414(77) 1.62397(51) 1.47270(44)
H26 H 0.81327(77) 1.59614(51) 1.55716(44)
C23 C 0.65459(61) 1.18268(37) 1.45906(33)
C24 C 0.77830(61) 1.10898(49) 1.58857(32)
H27 H 0.77986(61) 1.01105(49) 1.60070(32)
H28 H 0.83838(61) 1.16763(49) 1.64761(32)
C25 C 0.95243(67) 1.07544(60) 1.62594(39)
H29 H 0.96742(67) 1.0511(6) 1.69449(39)
H30 H 1.04876(67) 1.14916(60) 1.61807(39)
H31 H 0.96447(67) 0.99345(60) 1.58060(39)
N1 N -0.02353(68) -0.54433(41) 0.73827(32)
N2 N 0.07369(43) -0.03679(32) 0.88058(24)
N3 N 0.20072(42) -0.00092(31) 0.93696(23)
O1 O 0.08142(59) -0.61493(35) 0.76066(28)
O2 O -0.15103(57) -0.57505(35) 0.68690(31)
O3 O 0.25968(33) 0.50299(25) 1.06536(19)
O4 O 0.52774(45) 1.38692(30) 1.30739(26)
O5 O 0.73030(41) 1.43150(28) 1.42080(22)
O6 O 0.52512(45) 1.18292(32) 1.49082(23)
O7 O 0.79595(34) 1.14696(26) 1.49942(19)
#END
