
#######################################################################
#
#                 Cambridge Crystallographic Data Centre
#                                CCDC
#
#######################################################################
#
# If this CIF has been generated from an entry in the Cambridge
# Structural Database, then it will include bibliographic, chemical,
# crystal, experimental, refinement or atomic coordinate data resulting
# from the CCDC's data processing and validation procedures.
#
#######################################################################

data_CSD_CIF_REHLEV
_audit_creation_date 1997-09-01
_audit_creation_method CSD-ConQuest-V1
_database_code_CSD REHLEV
_database_code_depnum_ccdc_archive 'CCDC 1248020'
_database_code_depnum_ccdc_fiz 'CSD 400397'
_chemical_formula_sum 'C25 H31 N3 O7'
_chemical_formula_moiety
;
C25 H31 N3 O7
;
_journal_coden_Cambridge 1234
_journal_volume 258
_journal_year 1995
_journal_page_first 27
_journal_name_full 'Mol.Cryst.Liq.Cryst.Sci.Technol.,Sect.A '
loop_
_publ_author_name
"F.Hoffmann"
"A.Boehme"
"H.Hartung"
_chemical_name_systematic
;
Diethyl 6-(4-(2'-nitrophenylazo)phenoxy)hexylmalonate
;
_chemical_melting_point 346.15
_cell_volume   1299.134
_exptl_crystal_colour 'orange'
_exptl_crystal_density_diffrn 1.241
_diffrn_ambient_temperature ?
_diffrn_special_details
;
The study was carried out at room temperature,in the range 283-303K

;
#These two values have been output from a single CSD field.
_refine_ls_R_factor_gt 0.0714
_refine_ls_wR_factor_gt 0.0714
_symmetry_cell_setting triclinic
_symmetry_space_group_name_H-M 'P -1'
_symmetry_Int_Tables_number 2
loop_
_symmetry_equiv_pos_site_id
_symmetry_equiv_pos_as_xyz
1 x,y,z
2 -x,-y,-z
_cell_length_a 8.912(2)
_cell_length_b 9.664(2)
_cell_length_c 16.064(4)
_cell_angle_alpha 98.68(2)
_cell_angle_beta 97.54(1)
_cell_angle_gamma 105.11(1)
_cell_formula_units_Z 2
loop_
_atom_type_symbol
_atom_type_radius_bond
C 0.68
H 0.23
N 0.68
O 0.68
loop_
_atom_site_label
_atom_site_type_symbol
_atom_site_fract_x
_atom_site_fract_y
_atom_site_fract_z
C1 C 0.54459(52) 0.37820(49) 0.21409(29)
C2 C 0.63661(48) 0.42016(46) 0.29534(29)
C3 C 0.59950(54) 0.32808(53) 0.35232(33)
H1 H 0.66856(54) 0.35528(53) 0.41609(33)
C4 C 0.47878(62) 0.20075(56) 0.32848(37)
H2 H 0.45170(62) 0.13064(56) 0.37413(37)
C5 C 0.38995(58) 0.16113(54) 0.24765(39)
H3 H 0.29656(58) 0.05948(54) 0.22940(39)
C6 C 0.42026(53) 0.25240(53) 0.18924(32)
H4 H 0.34885(53) 0.22557(53) 0.12609(32)
C7 C 0.95691(49) 0.71301(47) 0.41171(29)
C8 C 1.04774(52) 0.73895(50) 0.49172(28)
H5 H 1.02878(52) 0.65537(50) 0.53005(28)
C9 C 1.16270(53) 0.86890(51) 0.52379(28)
H6 H 1.23056(53) 0.88938(51) 0.58750(28)
C10 C 1.18990(49) 0.97341(48) 0.47378(29)
C11 C 1.09805(53) 0.94951(50) 0.39261(29)
H7 H 1.11768(53) 1.03322(50) 0.35438(29)
C12 C 0.98188(49) 0.81971(49) 0.36145(28)
H8 H 0.91071(49) 0.80086(49) 0.29876(28)
C13 C 1.40367(51) 1.14043(49) 0.57823(29)
H9 H 1.33645(51) 1.14925(49) 0.62905(29)
H10 H 1.46328(51) 1.05760(49) 0.58478(29)
C14 C 1.52222(53) 1.28444(50) 0.58108(30)
H11 H 1.58483(53) 1.27289(50) 0.52845(30)
H12 H 1.45901(53) 1.3645(5) 0.57387(30)
C15 C 1.64324(53) 1.33935(49) 0.66349(29)
H13 H 1.70909(53) 1.26128(49) 0.67071(29)
H14 H 1.58192(53) 1.35049(49) 0.71670(29)
C16 C 1.75625(52) 1.48529(48) 0.66316(29)
H15 H 1.81741(52) 1.47215(48) 0.61005(29)
H16 H 1.68843(52) 1.56129(48) 0.65412(29)
C17 C 1.87753(51) 1.54988(46) 0.74414(29)
H17 H 1.94806(51) 1.47601(46) 0.75304(29)
H18 H 1.81771(51) 1.56250(46) 0.79785(29)
C18 C 1.98678(51) 1.69787(46) 0.73975(29)
H19 H 2.05025(51) 1.68349(46) 0.68777(29)
H20 H 1.91480(51) 1.76926(46) 0.72726(29)
C19 C 2.10659(49) 1.77048(47) 0.82144(27)
C20 C 2.20759(60) 1.91642(56) 0.81103(37)
C21 C 2.41453(75) 2.12879(61) 0.87991(40)
H21 H 2.34407(75) 2.20245(61) 0.87018(40)
H22 H 2.48013(75) 2.12011(61) 0.82836(40)
C22 C 2.51808(79) 2.18057(74) 0.95586(48)
H23 H 2.59425(79) 2.28702(74) 0.95449(48)
H24 H 2.58874(79) 2.10709(74) 0.96567(48)
H25 H 2.45268(79) 2.18943(74) 1.00749(48)
C23 C 2.02033(58) 1.79880(54) 0.89425(32)
C24 C 1.96700(89) 1.74064(90) 1.02604(42)
H26 H 1.85441(89) 1.6577(9) 1.01112(42)
H27 H 1.94803(89) 1.8474(9) 1.03527(42)
C25 C 2.05085(95) 1.72669(99) 1.10055(44)
H28 H 1.98475(95) 1.73856(99) 1.15161(44)
H29 H 2.16346(95) 1.80963(99) 1.11644(44)
H30 H 2.06984(95) 1.61993(99) 1.09229(44)
N1 N 0.57589(61) 0.47311(46) 0.15174(27)
N2 N 0.75184(42) 0.55899(38) 0.31752(24)
N3 N 0.84332(43) 0.5748(4) 0.38617(24)
O1 O 0.46364(55) 0.50642(49) 0.11720(29)
O2 O 0.70601(51) 0.51013(46) 0.13640(26)
O3 O 1.30215(35) 1.10406(33) 0.49608(20)
O4 O 2.20401(54) 1.96478(46) 0.74684(28)
O5 O 2.31029(40) 1.98404(37) 0.88077(22)
O6 O 1.93277(43) 1.87511(41) 0.89641(23)
O7 O 2.04925(42) 1.72669(41) 0.95473(23)
#END
