
#######################################################################
#
#                 Cambridge Crystallographic Data Centre
#                                CCDC
#
#######################################################################
#
# If this CIF has been generated from an entry in the Cambridge
# Structural Database, then it will include bibliographic, chemical,
# crystal, experimental, refinement or atomic coordinate data resulting
# from the CCDC's data processing and validation procedures.
#
#######################################################################

data_CSD_CIF_REHLUL01
_audit_creation_date 1997-09-01
_audit_creation_method CSD-ConQuest-V1
_database_code_CSD REHLUL01
_database_code_depnum_ccdc_archive 'CCDC 109240'
_database_code_depnum_ccdc_fiz 'CSD 400897'
_chemical_formula_sum 'C32 H27 N1 O10'
_chemical_formula_moiety
;
C32 H27 N1 O10
;
_journal_coden_Cambridge 1234
_journal_volume 281
_journal_year 1996
_journal_page_first 205
_journal_name_full 'Mol.Cryst.Liq.Cryst.Sci.Technol.,Sect.A '
loop_
_publ_author_name
"F.Hoffmann"
"H.Hartung"
"W.Weissflog"
"P.G.Jones"
"A.Chrapkowski"
_chemical_name_systematic
;
4-Nitrobenzyl 2,5-bis(4-ethoxybenzoyloxy)benzoate
;
_chemical_melting_point 457
_cell_volume   1381.888
_exptl_crystal_colour 'colorless'
_exptl_crystal_density_diffrn 1.407
_diffrn_ambient_temperature 173
#These two values have been output from a single CSD field.
_refine_ls_R_factor_gt 0.043
_refine_ls_wR_factor_gt 0.043
_symmetry_cell_setting triclinic
_symmetry_space_group_name_H-M 'P -1'
_symmetry_Int_Tables_number 2
loop_
_symmetry_equiv_pos_site_id
_symmetry_equiv_pos_as_xyz
1 x,y,z
2 -x,-y,-z
_cell_length_a 9.547(3)
_cell_length_b 12.294(4)
_cell_length_c 13.536(5)
_cell_angle_alpha 68.67(3)
_cell_angle_beta 75.15(3)
_cell_angle_gamma 70.98(3)
_cell_formula_units_Z 2
loop_
_atom_type_symbol
_atom_type_radius_bond
C 0.68
H 0.23
N 0.68
O 0.68
loop_
_atom_site_label
_atom_site_type_symbol
_atom_site_fract_x
_atom_site_fract_y
_atom_site_fract_z
C1 C -0.4033(2) 1.0547(2) 0.5712(2)
H1 H -0.5121(3) 1.0743(8) 0.5989(5)
H2 H -0.3864(12) 1.0339(4) 0.5043(4)
H3 H -0.3644(10) 1.1256(4) 0.5561(8)
C2 C -0.3228(2) 0.9492(2) 0.6536(2)
H4 H -0.3391(2) 0.9687(2) 0.7212(2)
H5 H -0.3603(2) 0.8776(2) 0.6693(2)
O1 O -0.16598(15) 0.92535(12) 0.60932(11)
C3 C -0.0682(2) 0.8306(2) 0.6681(2)
C4 C -0.1106(2) 0.7555(2) 0.7693(2)
H6 H -0.2117(2) 0.7691(2) 0.8017(2)
C5 C -0.0028(2) 0.6603(2) 0.8219(2)
H7 H -0.0312(2) 0.6097(2) 0.8906(2)
C6 C 0.1465(2) 0.6388(2) 0.77437(15)
C7 C 0.1874(2) 0.7160(2) 0.6733(2)
H8 H 0.2886(2) 0.7030(2) 0.6409(2)
C8 C 0.0812(2) 0.8110(2) 0.6204(2)
H9 H 0.1097(2) 0.8623(2) 0.5522(2)
C9 C 0.2638(2) 0.5373(2) 0.82661(15)
O2 O 0.39355(15) 0.50951(12) 0.78699(11)
O3 O 0.21153(14) 0.47561(11) 0.92876(10)
C10 C 0.3212(2) 0.3837(2) 0.98493(14)
C11 C 0.3696(2) 0.2673(2) 0.97544(15)
C12 C 0.4814(2) 0.1824(2) 1.03436(15)
H10 H 0.5165(2) 0.1033(2) 1.02984(15)
C13 C 0.5394(2) 0.2160(2) 1.09887(15)
C14 C 0.4858(2) 0.3287(2) 1.1122(2)
H11 H 0.5228(2) 0.3479(2) 1.1600(2)
C15 C 0.3764(2) 0.4134(2) 1.0539(2)
H12 H 0.3396(2) 0.4913(2) 1.0612(2)
O4 O 0.65291(15) 0.13058(12) 1.15657(10)
C16 C 0.7967(2) 0.1312(2) 1.1050(2)
O5 O 0.8223(2) 0.1977(2) 1.01617(12)
C17 C 0.9093(2) 0.0410(2) 1.17093(15)
C18 C 0.8722(2) -0.0183(2) 1.2795(2)
H13 H 0.7720(2) -0.0007(2) 1.3134(2)
C19 C 0.9813(2) -0.1024(2) 1.3377(2)
H14 H 0.9559(2) -0.1410(2) 1.4113(2)
C20 C 1.1291(2) -0.1302(2) 1.2873(2)
C21 C 1.1685(2) -0.0708(2) 1.1798(2)
H15 H 1.2687(2) -0.0885(2) 1.1461(2)
C22 C 1.0583(2) 0.0150(2) 1.1225(2)
H16 H 1.0847(2) 0.0562(2) 1.0498(2)
O6 O 1.2266(2) -0.21813(13) 1.35160(11)
C23 C 1.3780(2) -0.2610(2) 1.3040(2)
H17 H 1.4304(2) -0.1959(2) 1.2768(2)
H18 H 1.3793(2) -0.2883(2) 1.2434(2)
C24 C 1.4532(3) -0.3647(2) 1.3906(2)
H19 H 1.5561(6) -0.4013(9) 1.3598(3)
H20 H 1.3951(9) -0.4263(7) 1.4209(8)
H21 H 1.4579(15) -0.3348(3) 1.4481(6)
C25 C 0.3104(2) 0.2227(2) 0.9092(2)
O7 O 0.3501(2) 0.11970(13) 0.90804(14)
O8 O 0.2071(2) 0.30791(12) 0.85281(11)
C26 C 0.1423(3) 0.2678(2) 0.7899(2)
H22 H 0.0925(3) 0.2036(2) 0.8373(2)
H23 H 0.2214(3) 0.2353(2) 0.7368(2)
C27 C 0.0297(2) 0.3766(2) 0.7336(2)
C28 C -0.1223(2) 0.3873(2) 0.7683(2)
H24 H -0.1548(2) 0.3270(2) 0.8279(2)
C29 C -0.2274(2) 0.4861(2) 0.7159(2)
H25 H -0.3308(2) 0.4933(2) 0.7390(2)
C30 C -0.1759(2) 0.5735(2) 0.62890(15)
C31 C -0.0256(2) 0.5662(2) 0.5923(2)
H26 H 0.0064(2) 0.6267(2) 0.5327(2)
C32 C 0.0769(2) 0.4671(2) 0.6459(2)
H27 H 0.1801(2) 0.4607(2) 0.6228(2)
N1 N -0.2866(2) 0.6773(2) 0.57222(14)
O9 O -0.2439(2) 0.7438(2) 0.48616(14)
O10 O -0.4179(2) 0.6930(2) 0.61391(15)
#END
