
#######################################################################
#
#                 Cambridge Crystallographic Data Centre
#                                CCDC
#
#######################################################################
#
# If this CIF has been generated from an entry in the Cambridge
# Structural Database, then it will include bibliographic, chemical,
# crystal, experimental, refinement or atomic coordinate data resulting
# from the CCDC's data processing and validation procedures.
#
#######################################################################

data_CSD_CIF_REHMEW
_audit_creation_date 1997-09-01
_audit_creation_method CSD-ConQuest-V1
_database_code_CSD REHMEW
_database_code_depnum_ccdc_archive 'CCDC 1248024; CCDC 401080'
_database_code_depnum_ccdc_fiz 'CSD 401080'
_chemical_formula_sum 'C30 H31 N1 O9'
_chemical_formula_moiety
;
C30 H31 N1 O9
;
_journal_coden_Cambridge 1234
_journal_volume 275
_journal_year 1996
_journal_page_first 75
_journal_name_full 'Mol.Cryst.Liq.Cryst.Sci.Technol.,Sect.A '
loop_
_publ_author_name
"W.Weissflog"
"E.Dietzmann"
"C.Stutzer"
"M.Drewello"
"F.Hoffmann"
"H.Hartung"
_chemical_name_systematic
;
3-(4-Nitrobenzyloxycarbonyl)-4-(4-n-octyloxybenzoyloxy)benzoic acid
;
_chemical_melting_point 445.15
_cell_volume   2835.649
_exptl_crystal_colour 'colorless'
_exptl_crystal_density_diffrn 1.287
_exptl_special_details
;
Melting point range 445.15-446.65K
Isostructural with the 4-cyano analogue

;
_diffrn_ambient_temperature ?
_diffrn_special_details
;
The study was carried out at room temperature,in the range 283-303K

;
#These two values have been output from a single CSD field.
_refine_ls_R_factor_gt 0.0705
_refine_ls_wR_factor_gt 0.0705
_symmetry_cell_setting monoclinic
_symmetry_space_group_name_H-M 'P 21/n'
_symmetry_Int_Tables_number 14
loop_
_symmetry_equiv_pos_site_id
_symmetry_equiv_pos_as_xyz
1 x,y,z
2 1/2-x,1/2+y,1/2-z
3 -x,-y,-z
4 -1/2+x,-1/2-y,-1/2+z
_cell_length_a 15.575(2)
_cell_length_b 7.6988(7)
_cell_length_c 23.847(3)
_cell_angle_alpha 90
_cell_angle_beta 97.40(1)
_cell_angle_gamma 90
_cell_formula_units_Z 4
loop_
_atom_type_symbol
_atom_type_radius_bond
C 0.68
H 0.23
N 0.68
O 0.68
loop_
_atom_site_label
_atom_site_type_symbol
_atom_site_fract_x
_atom_site_fract_y
_atom_site_fract_z
C1 C -0.6412(8) 1.6592(14) 0.2275(4)
H1 H -0.6362(8) 1.7485(14) 0.2559(4)
H2 H -0.6957(8) 1.6704(14) 0.2040(4)
H3 H -0.5949(8) 1.6706(14) 0.2048(4)
C2 C -0.6366(10) 1.5029(17) 0.2526(5)
H4 H -0.6823(10) 1.4990(17) 0.2766(5)
H5 H -0.5822(10) 1.4993(17) 0.2775(5)
C3 C -0.6422(7) 1.3435(15) 0.2203(4)
H6 H -0.6592(7) 1.2524(15) 0.2447(4)
H7 H -0.6893(7) 1.3571(15) 0.1898(4)
C4 C -0.5713(6) 1.2833(16) 0.1966(4)
H8 H -0.5234(6) 1.2715(16) 0.2267(4)
H9 H -0.5552(6) 1.3718(16) 0.1709(4)
C5 C -0.5805(5) 1.1193(13) 0.1658(4)
H10 H -0.6352(5) 1.1192(13) 0.1412(4)
H11 H -0.5818(5) 1.0248(13) 0.1926(4)
C6 C -0.5059(6) 1.0877(14) 0.1298(4)
H12 H -0.5277(6) 1.0129(14) 0.0985(4)
H13 H -0.4915(6) 1.1983(14) 0.1139(4)
C7 C -0.4380(4) 1.0228(13) 0.1534(4)
H14 H -0.4511(4) 0.9128(13) 0.1703(4)
H15 H -0.4132(4) 1.0991(13) 0.1836(4)
C8 C -0.3686(4) 0.9914(9) 0.1108(3)
H16 H -0.3866(4) 0.8985(9) 0.0844(3)
H17 H -0.3593(4) 1.0962(9) 0.0898(3)
C9 C -0.2202(3) 0.9061(6) 0.1249(2)
C10 C -0.2133(3) 0.9128(6) 0.0679(2)
H18 H -0.2603(3) 0.9474(6) 0.0423(2)
C11 C -0.1358(3) 0.8676(6) 0.0491(2)
H19 H -0.1308(3) 0.8723(6) 0.0107(2)
C12 C -0.0658(3) 0.8156(5) 0.0869(2)
C13 C -0.0739(3) 0.8118(6) 0.1440(2)
H20 H -0.0270(3) 0.7787(6) 0.1699(2)
C14 C -0.1502(3) 0.8559(6) 0.1626(2)
H21 H -0.1549(3) 0.8522(6) 0.2011(2)
C15 C 0.0138(3) 0.7667(6) 0.0647(2)
C16 C 0.1590(3) 0.6911(6) 0.0886(2)
C17 C 0.1794(2) 0.5174(5) 0.0838(2)
C18 C 0.2583(3) 0.4777(6) 0.0654(2)
H22 H 0.2735(3) 0.3619(6) 0.0616(2)
C19 C 0.3146(3) 0.6054(6) 0.0527(2)
C20 C 0.2936(3) 0.7788(6) 0.0597(2)
H23 H 0.3319(3) 0.8659(6) 0.0521(2)
C21 C 0.2158(3) 0.8206(6) 0.0778(2)
H24 H 0.2015(3) 0.9364(6) 0.0828(2)
C22 C 0.3966(3) 0.5598(7) 0.0306(2)
C23 C 0.1252(3) 0.3662(6) 0.0972(2)
C24 C -0.0062(3) 0.2604(6) 0.1212(2)
H25 H 0.0203(3) 0.1972(6) 0.1542(2)
H26 H -0.0125(3) 0.1820(6) 0.0891(2)
C25 C -0.0931(3) 0.3295(5) 0.1313(2)
C26 C -0.1502(3) 0.3917(6) 0.0872(2)
H27 H -0.1342(3) 0.3926(6) 0.0509(2)
C27 C -0.2302(3) 0.4526(6) 0.0956(2)
H28 H -0.2686(3) 0.4940(6) 0.0655(2)
C28 C -0.2522(3) 0.4510(6) 0.1491(2)
C29 C -0.1975(3) 0.3916(7) 0.1944(2)
H29 H -0.2136(3) 0.3930(7) 0.2307(2)
C30 C -0.1177(3) 0.3294(6) 0.1847(2)
H30 H -0.0798(3) 0.2866(6) 0.2148(2)
N1 N -0.3376(3) 0.5178(6) 0.1586(2)
O1 O -0.2936(2) 0.9451(5) 0.1476(2)
O2 O 0.0813(2) 0.7437(3) 0.10662(11)
O3 O 0.0225(2) 0.7460(5) 0.01600(13)
O4 O 0.4447(2) 0.6815(5) 0.01827(14)
O5 O 0.4132(2) 0.4004(4) 0.02430(14)
H31 H 0.4783(35) 0.3672(67) 0.0041(21)
O6 O 0.1506(2) 0.2190(4) 0.09630(14)
O7 O 0.0473(2) 0.4081(4) 0.11016(12)
O8 O -0.3904(2) 0.5493(6) 0.1174(2)
O9 O -0.3529(2) 0.5405(6) 0.2065(2)
#END
