
#######################################################################
#
#                 Cambridge Crystallographic Data Centre
#                                CCDC
#
#######################################################################
#
# If this CIF has been generated from an entry in the Cambridge
# Structural Database, then it will include bibliographic, chemical,
# crystal, experimental, refinement or atomic coordinate data resulting
# from the CCDC's data processing and validation procedures.
#
#######################################################################

data_CSD_CIF_REJPUS
_audit_creation_date 2006-10-20
_audit_creation_method CSD-ConQuest-V1
_database_code_CSD REJPUS
_database_code_depnum_ccdc_archive 'CCDC 616953'
_chemical_formula_sum 'C13 H21 N4 O2'
_chemical_formula_moiety
;
C13 H21 N4 O2
;
_journal_coden_Cambridge 9
_journal_volume 45
_journal_year 2006
_journal_page_first 5338
_journal_name_full 'Inorg.Chem. '
loop_
_publ_author_name
"V.Ovcharenko"
"E.Fursova"
"G.Romanenko"
"I.Eremenko"
"E.Tretyakov"
"V.Ikorskii"
_chemical_name_systematic
;
2-(1-Isopropyl-1H-pyrazol-4-yl)-4,4,5,5-tetramethylimidazoline-1-oxyl-3-oxide
;
_chemical_melting_point 419.15
_cell_volume   1475.583
_exptl_crystal_density_diffrn 1.194
_exptl_special_details
;
Melting point range 419.15-420.15K

;
_exptl_crystal_preparation 'benzene/hexane'
_diffrn_ambient_temperature 298
#These two values have been output from a single CSD field.
_refine_ls_R_factor_gt 0.0499
_refine_ls_wR_factor_gt 0.0499
_symmetry_cell_setting monoclinic
_symmetry_space_group_name_H-M 'P 21/c'
_symmetry_Int_Tables_number 14
loop_
_symmetry_equiv_pos_site_id
_symmetry_equiv_pos_as_xyz
1 x,y,z
2 -x,1/2+y,1/2-z
3 -x,-y,-z
4 x,-1/2-y,-1/2+z
_cell_length_a 7.4150(9)
_cell_length_b 12.3788(15)
_cell_length_c 16.445(2)
_cell_angle_alpha 90
_cell_angle_beta 102.163(3)
_cell_angle_gamma 90
_cell_formula_units_Z 4
loop_
_atom_type_symbol
_atom_type_radius_bond
C 0.68
H 0.23
N 0.68
O 0.68
loop_
_atom_site_label
_atom_site_type_symbol
_atom_site_fract_x
_atom_site_fract_y
_atom_site_fract_z
N1 N 0.2863(4) 0.5196(2) 0.38772(17)
O1 O 0.2039(4) 0.47124(16) 0.43881(14)
N2 N 0.3774(4) 0.6461(2) 0.31317(16)
N3 N -0.0046(4) 0.7785(2) 0.48048(17)
C1 C 0.3850(5) 0.4581(3) 0.3317(2)
C2 C 0.1731(5) 0.7038(3) 0.40717(19)
C3 C 0.2761(5) 0.6259(3) 0.37080(19)
N4 N 0.0536(5) 0.8617(2) 0.4395(2)
C4 C -0.1328(6) 0.7989(3) 0.5375(2)
H1 H -0.160(4) 0.722(2) 0.5584(18)
C5 C 0.1614(6) 0.8155(3) 0.3955(3)
H2 H 0.218(4) 0.851(2) 0.3580(17)
C6 C 0.4869(5) 0.5510(3) 0.2968(2)
O2 O 0.3976(4) 0.7408(2) 0.28337(15)
C7 C 0.0624(5) 0.6833(3) 0.4628(2)
H3 H 0.039(4) 0.617(2) 0.4883(16)
C8 C -0.2969(7) 0.8630(5) 0.4931(4)
H4 H -0.364(6) 0.828(3) 0.445(2)
H5 H -0.251(6) 0.937(3) 0.478(3)
H6 H -0.387(5) 0.871(3) 0.531(2)
C9 C 0.2382(7) 0.4029(4) 0.2677(3)
H7 H 0.161(5) 0.351(3) 0.294(2)
H8 H 0.292(4) 0.355(3) 0.2299(18)
H9 H 0.150(5) 0.456(3) 0.233(2)
C10 C 0.4858(10) 0.5432(5) 0.2041(3)
H10 H 0.543(5) 0.610(3) 0.191(2)
H11 H 0.370(5) 0.543(3) 0.169(2)
H12 H 0.553(6) 0.473(3) 0.196(3)
C11 C -0.0273(8) 0.8537(5) 0.6153(3)
H13 H 0.076(5) 0.804(3) 0.640(2)
H14 H -0.100(5) 0.855(3) 0.658(2)
H15 H -0.001(5) 0.929(3) 0.595(2)
C12 C 0.5104(7) 0.3751(4) 0.3824(3)
H16 H 0.429(5) 0.319(3) 0.406(2)
H17 H 0.596(4) 0.407(2) 0.4291(19)
H18 H 0.574(5) 0.334(3) 0.347(2)
C13 C 0.6831(7) 0.5713(5) 0.3447(4)
H19 H 0.718(5) 0.641(3) 0.325(2)
H20 H 0.759(6) 0.503(3) 0.336(2)
H21 H 0.700(6) 0.569(3) 0.406(2)
#END
