
#######################################################################
#
#                 Cambridge Crystallographic Data Centre
#                                CCDC
#
#######################################################################
#
# If this CIF has been generated from an entry in the Cambridge
# Structural Database, then it will include bibliographic, chemical,
# crystal, experimental, refinement or atomic coordinate data resulting
# from the CCDC's data processing and validation procedures.
#
#######################################################################

data_CSD_CIF_REJQED
_audit_creation_date 2006-10-20
_audit_creation_method CSD-ConQuest-V1
_database_code_CSD REJQED
_database_code_depnum_ccdc_archive 'CCDC 616955'
_chemical_formula_sum 'C11 H17 N4 O2'
_chemical_formula_moiety
;
C11 H17 N4 O2
;
_journal_coden_Cambridge 9
_journal_volume 45
_journal_year 2006
_journal_page_first 5338
_journal_name_full 'Inorg.Chem. '
loop_
_publ_author_name
"V.Ovcharenko"
"E.Fursova"
"G.Romanenko"
"I.Eremenko"
"E.Tretyakov"
"V.Ikorskii"
_chemical_name_systematic
;
4,4,5,5-Tetramethyl-2-(1-methyl-1H-imidazol-4-yl)-4,5-dihydro-1H-imidazole-3-o
xide-1-oxyl
;
_chemical_melting_point 441.15
_cell_volume   1264.656
_exptl_crystal_density_diffrn 1.246
_exptl_special_details
;
Melting point range 441.15-442.15K

;
_exptl_crystal_preparation 'benzene/heptane'
_diffrn_ambient_temperature 298
#These two values have been output from a single CSD field.
_refine_ls_R_factor_gt 0.0488
_refine_ls_wR_factor_gt 0.0488
_symmetry_cell_setting orthorhombic
_symmetry_space_group_name_H-M 'P 21 21 21'
_symmetry_Int_Tables_number 19
loop_
_symmetry_equiv_pos_site_id
_symmetry_equiv_pos_as_xyz
1 x,y,z
2 1/2-x,-y,1/2+z
3 -x,1/2+y,1/2-z
4 1/2+x,1/2-y,-z
_cell_length_a 7.0316(7)
_cell_length_b 9.4201(9)
_cell_length_c 19.0925(18)
_cell_angle_alpha 90
_cell_angle_beta 90
_cell_angle_gamma 90
_cell_formula_units_Z 4
loop_
_atom_type_symbol
_atom_type_radius_bond
C 0.68
H 0.23
N 0.68
O 0.68
loop_
_atom_site_label
_atom_site_type_symbol
_atom_site_fract_x
_atom_site_fract_y
_atom_site_fract_z
O1 O -0.0788(4) 0.0772(3) 0.02342(14)
N1 N -0.0048(4) 0.1258(2) 0.08023(12)
C1 C -0.0748(4) 0.2630(3) 0.11009(17)
C2 C -0.2733(7) 0.2350(9) 0.1361(4)
H1 H -0.35660 0.22070 0.09690
H2 H -0.31660 0.31480 0.16290
H3 H -0.27330 0.15160 0.16500
C3 C -0.0675(11) 0.3721(6) 0.0532(3)
H4 H -0.189(10) 0.353(8) 0.025(4)
H5 H 0.094(9) 0.373(6) 0.051(3)
H6 H -0.080(7) 0.457(6) 0.069(2)
C4 C 0.0727(5) 0.2871(3) 0.17017(17)
C5 C -0.0012(9) 0.3222(7) 0.2412(2)
H7 H 0.128(6) 0.343(5) 0.277(2)
H8 H -0.116(3) 0.223(2) 0.2430(9)
H9 H -0.025(7) 0.423(5) 0.217(2)
C6 C 0.2257(8) 0.4017(5) 0.1497(3)
H10 H 0.16530 0.49250 0.14480
H11 H 0.28440 0.37560 0.10620
H12 H 0.32080 0.40680 0.18570
N2 N 0.1777(3) 0.1546(2) 0.17086(11)
O2 O 0.3070(4) 0.1307(3) 0.21657(11)
C7 C 0.1355(3) 0.0679(3) 0.11708(12)
C8 C 0.2347(4) -0.0628(3) 0.10298(12)
N3 N 0.1754(4) -0.1581(3) 0.05313(13)
C9 C 0.3066(6) -0.2573(4) 0.05449(17)
H13 H 0.309(5) -0.346(4) 0.025(2)
N4 N 0.4402(4) -0.2341(3) 0.10188(12)
C10 C 0.6053(8) -0.3241(6) 0.1150(2)
H14 H 0.613(6) -0.342(5) 0.158(2)
H15 H 0.726(8) -0.250(6) 0.107(3)
H16 H 0.597(7) -0.408(5) 0.077(2)
C11 C 0.3971(4) -0.1094(3) 0.13317(15)
H17 H 0.473(4) -0.073(3) 0.1684(16)
#END
