
#######################################################################
#
#                 Cambridge Crystallographic Data Centre
#                                CCDC
#
#######################################################################
#
# If this CIF has been generated from an entry in the Cambridge
# Structural Database, then it will include bibliographic, chemical,
# crystal, experimental, refinement or atomic coordinate data resulting
# from the CCDC's data processing and validation procedures.
#
#######################################################################

data_CSD_CIF_REJQAZ
_audit_creation_date 2006-10-20
_audit_creation_method CSD-ConQuest-V1
_database_code_CSD REJQAZ
_database_code_depnum_ccdc_archive 'CCDC 616954'
_chemical_formula_sum 'C11 H17 N4 O2'
_chemical_formula_moiety
;
C11 H17 N4 O2
;
_journal_coden_Cambridge 9
_journal_volume 45
_journal_year 2006
_journal_page_first 5338
_journal_name_full 'Inorg.Chem. '
loop_
_publ_author_name
"V.Ovcharenko"
"E.Fursova"
"G.Romanenko"
"I.Eremenko"
"E.Tretyakov"
"V.Ikorskii"
_chemical_name_systematic
;
4,4,5,5-Tetramethyl-2-(1-methyl-1H-imidazol-5-yl)-4,5-dihydro-1H-imidazole-3-o
xide-1-oxyl
;
_chemical_melting_point 438.15
_cell_volume   1195.633
_exptl_crystal_colour 'dark blue'
_exptl_crystal_density_diffrn 1.318
_exptl_special_details
;
Melting point range 438.15-439.15K

;
_exptl_crystal_preparation 'ethyl acetate'
_diffrn_ambient_temperature 240
#These two values have been output from a single CSD field.
_refine_ls_R_factor_gt 0.0315
_refine_ls_wR_factor_gt 0.0315
_symmetry_cell_setting monoclinic
_symmetry_space_group_name_H-M 'P 21/n'
_symmetry_Int_Tables_number 14
loop_
_symmetry_equiv_pos_site_id
_symmetry_equiv_pos_as_xyz
1 x,y,z
2 1/2-x,1/2+y,1/2-z
3 -x,-y,-z
4 -1/2+x,-1/2-y,-1/2+z
_cell_length_a 6.9064(7)
_cell_length_b 15.3562(16)
_cell_length_c 11.6709(12)
_cell_angle_alpha 90
_cell_angle_beta 104.993(2)
_cell_angle_gamma 90
_cell_formula_units_Z 4
loop_
_atom_type_symbol
_atom_type_radius_bond
C 0.68
H 0.23
N 0.68
O 0.68
loop_
_atom_site_label
_atom_site_type_symbol
_atom_site_fract_x
_atom_site_fract_y
_atom_site_fract_z
O1 O 0.16893(16) 0.92788(7) 0.96459(9)
N1 N 0.05803(17) 0.87966(8) 1.00972(10)
C1 C -0.0524(2) 0.80205(10) 0.94666(13)
C2 C -0.1376(3) 0.82099(14) 0.81630(15)
H1 H -0.030(3) 0.8285(13) 0.7771(17)
H2 H -0.217(3) 0.7724(13) 0.7821(16)
H3 H -0.221(3) 0.8742(14) 0.8041(16)
C3 C 0.0999(3) 0.72818(12) 0.96366(17)
H4 H 0.036(3) 0.6764(12) 0.9239(16)
H5 H 0.203(3) 0.7443(13) 0.9258(17)
H6 H 0.158(3) 0.7160(12) 1.0495(18)
C4 C -0.2105(2) 0.78967(10) 1.01801(13)
C5 C -0.3933(3) 0.84806(14) 0.97550(19)
H7 H -0.473(3) 0.8256(12) 0.9016(18)
H8 H -0.354(2) 0.9090(13) 0.9661(15)
H9 H -0.472(3) 0.8460(13) 1.0323(19)
C6 C -0.2725(3) 0.69644(12) 1.03166(18)
H10 H -0.367(3) 0.6969(13) 1.0784(18)
H11 H -0.157(3) 0.6597(13) 1.0720(17)
H12 H -0.337(3) 0.6729(14) 0.953(2)
N2 N -0.09537(18) 0.82506(8) 1.13619(11)
O2 O -0.13583(18) 0.80412(8) 1.23373(10)
C7 C 0.0427(2) 0.88314(9) 1.12294(12)
C8 C 0.1715(2) 0.93393(9) 1.21575(12)
C9 C 0.3733(2) 0.94719(11) 1.23942(14)
H13 H 0.459(2) 0.9268(11) 1.1940(14)
N3 N 0.44221(19) 0.99311(9) 1.34188(11)
C10 C 0.2809(2) 1.00827(11) 1.37847(14)
H14 H 0.276(2) 1.0384(11) 1.4468(16)
N4 N 0.11251(18) 0.97478(8) 1.30633(11)
C11 C -0.0913(3) 0.98897(14) 1.31611(18)
H15 H -0.167(3) 1.0130(13) 1.2471(18)
H16 H -0.087(3) 1.0276(14) 1.3822(19)
H17 H -0.152(3) 0.9343(14) 1.3328(18)
#END
