
#######################################################################
#
#                 Cambridge Crystallographic Data Centre
#                                CCDC
#
#######################################################################
#
# If this CIF has been generated from an entry in the Cambridge
# Structural Database, then it will include bibliographic, chemical,
# crystal, experimental, refinement or atomic coordinate data resulting
# from the CCDC's data processing and validation procedures.
#
#######################################################################

data_CSD_CIF_REJROQ
_audit_creation_date 2017-10-11
_audit_creation_method CSD-ConQuest-V1
_database_code_CSD REJROQ
_database_code_depnum_ccdc_archive 'CCDC 1477790'
_chemical_formula_sum 'C10 H4 N16 O20'
_chemical_formula_moiety
;
C10 H4 N16 O20
;
_journal_coden_Cambridge 222
_journal_volume 46
_journal_year 2017
_journal_page_first 14301
_journal_name_full 'Dalton Trans. '
loop_
_publ_author_name
"Qiong Yu"
"Guangbin Cheng"
"Xuehai Ju"
"Chunxu Lu"
"Qiuhan Lin"
"Hongwei Yang"
_chemical_name_systematic
;
N-nitro-4-(6-(4-(nitro(2,2,2-trinitroethyl)amino)-1,2,5-oxadiazol-3-yl)-1,4,2,
5-dioxadiazin-3-yl)-N-(2,2,2-trinitroethyl)-1,2,5-oxadiazol-3-amine
;
_cell_volume   2275.376
_exptl_crystal_density_diffrn 1.951
_exptl_crystal_description 'needle'
_diffrn_ambient_temperature 173
#These two values have been output from a single CSD field.
_refine_ls_R_factor_gt 0.0607
_refine_ls_wR_factor_gt 0.0607
_symmetry_cell_setting monoclinic
_symmetry_space_group_name_H-M 'P 21/c'
_symmetry_Int_Tables_number 14
loop_
_symmetry_equiv_pos_site_id
_symmetry_equiv_pos_as_xyz
1 x,y,z
2 -x,1/2+y,1/2-z
3 -x,-y,-z
4 x,-1/2-y,-1/2+z
_cell_length_a 17.477(3)
_cell_length_b 6.0354(7)
_cell_length_c 21.647(3)
_cell_angle_alpha 90
_cell_angle_beta 94.787(6)
_cell_angle_gamma 90
_cell_formula_units_Z 4
loop_
_atom_type_symbol
_atom_type_radius_bond
C 0.68
H 0.23
N 0.68
O 0.68
loop_
_atom_site_label
_atom_site_type_symbol
_atom_site_fract_x
_atom_site_fract_y
_atom_site_fract_z
C1 C 0.2588(3) 0.3294(7) 0.2868(2)
C2 C 0.2465(3) 0.6454(7) 0.2082(2)
C3 C 0.2298(2) 0.0870(7) 0.3805(2)
C4 C 0.2680(3) 0.1383(7) 0.3276(2)
C5 C 0.1020(2) 0.1065(7) 0.4237(2)
H1 H 0.09180 0.14880 0.46640
H2 H 0.10710 -0.05670 0.42230
C6 C 0.0350(3) 0.1774(7) 0.3793(2)
C7 C 0.2729(3) 0.8761(7) 0.1111(2)
C8 C 0.2362(3) 0.8337(7) 0.1657(2)
C9 C 0.3987(2) 0.8270(6) 0.0678(2)
H3 H 0.39880 0.99070 0.07050
H4 H 0.40730 0.78610 0.02460
C10 C 0.4650(3) 0.7357(6) 0.1114(2)
N1 N 0.2050(2) 0.4634(5) 0.29584(18)
N2 N 0.2988(2) 0.5099(5) 0.19860(18)
N3 N 0.2505(2) -0.1084(6) 0.40122(19)
N4 N 0.3141(2) -0.0224(6) 0.31662(19)
N5 N 0.1733(2) 0.2067(5) 0.40869(18)
N6 N 0.2017(2) 0.3902(6) 0.44568(19)
N7 N 0.0506(2) 0.1482(7) 0.3118(2)
N8 N -0.0352(2) 0.0350(7) 0.3886(2)
N9 N 0.0109(3) 0.4150(7) 0.3892(2)
N10 N 0.2528(2) 1.0702(6) 0.08975(19)
N11 N 0.1925(2) 1.0022(6) 0.17777(19)
N12 N 0.3248(2) 0.7461(5) 0.08176(17)
N13 N 0.2918(3) 0.5744(6) 0.04317(19)
N14 N 0.5371(2) 0.8625(7) 0.1007(2)
N15 N 0.4813(3) 0.4902(6) 0.1007(2)
N16 N 0.4525(2) 0.7655(6) 0.1791(2)
O1 O 0.19848(18) 0.6487(5) 0.25360(16)
O2 O 0.30915(18) 0.3337(5) 0.24327(16)
O3 O 0.30353(18) -0.1782(4) 0.36232(16)
O4 O 0.1545(2) 0.4852(5) 0.47379(17)
O5 O 0.26890(19) 0.4321(4) 0.44231(15)
O6 O 0.0954(2) 0.0011(5) 0.30219(16)
O7 O 0.0164(2) 0.2673(6) 0.27408(18)
O8 O -0.0825(2) 0.0109(6) 0.3452(2)
O9 O -0.0372(2) -0.0461(7) 0.43937(19)
O10 O -0.0435(2) 0.4403(6) 0.4189(2)
O11 O 0.0506(2) 0.5554(5) 0.36929(18)
O12 O 0.20321(19) 1.1508(5) 0.13025(16)
O13 O 0.22339(19) 0.5443(4) 0.04645(15)
O14 O 0.3355(2) 0.4733(5) 0.01337(16)
O15 O 0.5481(2) 0.8946(6) 0.04701(19)
O16 O 0.5774(2) 0.9232(6) 0.1455(2)
O17 O 0.4327(2) 0.3654(5) 0.11667(18)
O18 O 0.5383(2) 0.4440(5) 0.07641(19)
O19 O 0.41196(19) 0.9219(5) 0.19032(15)
O20 O 0.4836(2) 0.6339(6) 0.21531(17)
#END
