
#######################################################################
#
#                 Cambridge Crystallographic Data Centre
#                                CCDC
#
#######################################################################
#
# If this CIF has been generated from an entry in the Cambridge
# Structural Database, then it will include bibliographic, chemical,
# crystal, experimental, refinement or atomic coordinate data resulting
# from the CCDC's data processing and validation procedures.
#
#######################################################################

data_CSD_CIF_REJRIK
_audit_creation_date 2017-10-11
_audit_creation_method CSD-ConQuest-V1
_database_code_CSD REJRIK
_database_code_depnum_ccdc_archive 'CCDC 1042140'
_chemical_formula_sum 'C10 H6 N14 O16'
_chemical_formula_moiety
;
C10 H6 N14 O16
;
_journal_coden_Cambridge 222
_journal_volume 46
_journal_year 2017
_journal_page_first 14301
_journal_name_full 'Dalton Trans. '
loop_
_publ_author_name
"Qiong Yu"
"Guangbin Cheng"
"Xuehai Ju"
"Chunxu Lu"
"Qiuhan Lin"
"Hongwei Yang"
_chemical_name_systematic
;
4,4'-(1,4,2,5-dioxadiazine-3,6-diyl)bis(N-(2,2,2-trinitroethyl)-1,2,5-oxadiazo
l-3-amine)
;
_cell_volume    988.663
_exptl_crystal_density_diffrn 1.943
_diffrn_ambient_temperature 173
#These two values have been output from a single CSD field.
_refine_ls_R_factor_gt 0.0514
_refine_ls_wR_factor_gt 0.0514
_symmetry_cell_setting monoclinic
_symmetry_space_group_name_H-M 'P 21/n'
_symmetry_Int_Tables_number 14
loop_
_symmetry_equiv_pos_site_id
_symmetry_equiv_pos_as_xyz
1 x,y,z
2 1/2-x,1/2+y,1/2-z
3 -x,-y,-z
4 -1/2+x,-1/2-y,-1/2+z
_cell_length_a 6.0094(9)
_cell_length_b 29.742(5)
_cell_length_c 6.0976(10)
_cell_angle_alpha 90
_cell_angle_beta 114.883(6)
_cell_angle_gamma 90
_cell_formula_units_Z 2
loop_
_atom_type_symbol
_atom_type_radius_bond
C 0.68
H 0.23
N 0.68
O 0.68
loop_
_atom_site_label
_atom_site_type_symbol
_atom_site_fract_x
_atom_site_fract_y
_atom_site_fract_z
C1 C 0.0495(6) 0.03841(11) 0.2514(6)
C2 C -0.0116(6) 0.08369(11) 0.1746(6)
C3 C 0.2914(6) 0.01884(12) 0.3860(6)
C4 C 0.0594(6) 0.16251(11) 0.1192(6)
H1 H 0.15420 0.18520 0.24180
H2 H -0.11490 0.16530 0.09050
C5 C 0.0830(6) 0.17217(11) -0.1141(6)
N1 N -0.1510(5) 0.01444(10) 0.1797(5)
N2 N -0.2483(5) 0.08721(10) 0.0553(5)
N3 N 0.4702(5) 0.04626(9) 0.4648(5)
N4 N 0.1460(5) 0.11854(10) 0.2108(5)
H3 H 0.296(6) 0.1138(12) 0.291(6)
N5 N 0.3499(5) 0.17813(9) -0.0778(6)
N6 N -0.0478(5) 0.21577(10) -0.2349(6)
N7 N -0.0260(6) 0.13464(11) -0.2959(5)
O1 O -0.3376(4) 0.04372(8) 0.0581(4)
O2 O 0.2925(4) -0.02640(7) 0.4059(4)
O3 O 0.5033(4) 0.17627(8) 0.1294(5)
O4 O 0.3872(5) 0.18412(10) -0.2556(5)
O5 O -0.1077(4) 0.23976(8) -0.1069(5)
O6 O -0.0779(5) 0.22285(9) -0.4411(5)
O7 O -0.2456(5) 0.13644(9) -0.4128(5)
O8 O 0.1139(5) 0.10497(9) -0.2931(5)
C1B C 0.9505(6) -0.03841(11) 0.7486(6)
C2B C 1.0116(6) -0.08369(11) 0.8254(6)
C3B C 0.7086(6) -0.01884(12) 0.6140(6)
C4B C 0.9406(6) -0.16251(11) 0.8808(6)
H1B H 0.84580 -0.18520 0.75820
H2B H 1.11490 -0.16530 0.90950
C5B C 0.9170(6) -0.17217(11) 1.1141(6)
N1B N 1.1510(5) -0.01444(10) 0.8203(5)
N2B N 1.2483(5) -0.08721(10) 0.9447(5)
N3B N 0.5298(5) -0.04626(9) 0.5352(5)
N4B N 0.8540(5) -0.11854(10) 0.7892(5)
H3B H 0.704(6) -0.1138(12) 0.709(6)
N5B N 0.6501(5) -0.17813(9) 1.0778(6)
N6B N 1.0478(5) -0.21577(10) 1.2349(6)
N7B N 1.0260(6) -0.13464(11) 1.2959(5)
O1B O 1.3376(4) -0.04372(8) 0.9419(4)
O2B O 0.7075(4) 0.02640(7) 0.5941(4)
O3B O 0.4967(4) -0.17627(8) 0.8706(5)
O4B O 0.6128(5) -0.18412(10) 1.2556(5)
O5B O 1.1077(4) -0.23976(8) 1.1069(5)
O6B O 1.0779(5) -0.22285(9) 1.4411(5)
O7B O 1.2456(5) -0.13644(9) 1.4128(5)
O8B O 0.8861(5) -0.10497(9) 1.2931(5)
#END
