
#######################################################################
#
#                 Cambridge Crystallographic Data Centre
#                                CCDC
#
#######################################################################
#
# If this CIF has been generated from an entry in the Cambridge
# Structural Database, then it will include bibliographic, chemical,
# crystal, experimental, refinement or atomic coordinate data resulting
# from the CCDC's data processing and validation procedures.
#
#######################################################################

data_CSD_CIF_REJZIP
_audit_creation_date 1997-09-09
_audit_creation_method CSD-ConQuest-V1
_database_code_CSD REJZIP
_database_code_depnum_ccdc_archive 'CCDC 1248162'
_chemical_formula_sum 'C9 H10 N4 O9'
_chemical_formula_moiety
;
C9 H10 N4 O9
;
_journal_coden_Cambridge 3
_journal_volume 51
_journal_year 1997
_journal_page_first 73
_journal_name_full 'Acta Chem.Scand. '
loop_
_publ_author_name
"C.P.Butts"
"L.Eberson"
"M.P.Hartshorn"
"W.T.Robinson"
"D.J.Timmerman-Vaughan"
_chemical_name_systematic
;
1-Methoxy-6-methyl-c-6-nitro-r-3-trinitromethylcyclohexa-1,4-diene
;
_chemical_melting_point 348.15
_cell_volume    668.035
_exptl_crystal_colour 'colorless'
_exptl_crystal_density_diffrn 1.582
_exptl_special_details
;
Melts with decomposition.

;
_diffrn_ambient_temperature 166
#These two values have been output from a single CSD field.
_refine_ls_R_factor_gt 0.0504
_refine_ls_wR_factor_gt 0.0504
_symmetry_cell_setting triclinic
_symmetry_space_group_name_H-M 'P -1'
_symmetry_Int_Tables_number 2
loop_
_symmetry_equiv_pos_site_id
_symmetry_equiv_pos_as_xyz
1 x,y,z
2 -x,-y,-z
_cell_length_a 6.097(2)
_cell_length_b 10.290(2)
_cell_length_c 11.188(2)
_cell_angle_alpha 73.23(1)
_cell_angle_beta 86.80(2)
_cell_angle_gamma 83.91(3)
_cell_formula_units_Z 2
loop_
_atom_type_symbol
_atom_type_radius_bond
C 0.68
H 0.23
N 0.68
O 0.68
loop_
_atom_site_label
_atom_site_type_symbol
_atom_site_fract_x
_atom_site_fract_y
_atom_site_fract_z
O1 O 0.1790(3) -0.0071(2) 0.1508(2)
O2 O 0.4674(4) 0.5055(2) 0.3291(3)
O3 O 0.1182(4) 0.5465(2) 0.3658(2)
O4 O 0.2796(5) 0.2995(3) 0.5673(2)
O5 O 0.4419(5) 0.1414(2) 0.4960(2)
O6 O -0.0694(4) 0.2266(3) 0.4380(2)
O7 O -0.0888(3) 0.3822(3) 0.2623(2)
O8 O -0.1855(4) 0.2002(3) 0.1070(2)
O9 O -0.1357(3) 0.2999(2) -0.0875(2)
N1 N 0.2799(5) 0.4760(2) 0.3481(2)
N2 N 0.3328(4) 0.2482(2) 0.4847(2)
N3 N 0.0073(4) 0.3126(2) 0.3535(2)
N4 N -0.0664(4) 0.2408(2) 0.0158(2)
C1 C 0.2333(4) 0.1167(2) 0.1539(2)
C2 C 0.3205(4) 0.1420(2) 0.2498(2)
C3 C 0.3760(4) 0.2816(2) 0.2476(2)
C4 C 0.3341(4) 0.3858(3) 0.1238(2)
C5 C 0.2526(4) 0.3582(3) 0.0282(2)
C6 C 0.1876(4) 0.2206(3) 0.0308(2)
C7 C 0.1786(7) -0.1106(3) 0.2684(3)
C8 C 0.2515(4) 0.3279(3) 0.3540(2)
C9 C 0.2916(5) 0.1748(3) -0.0793(2)
H1 H 0.3492(4) 0.0688(2) 0.3231(2)
H2 H 0.5373(4) 0.2749(2) 0.2631(2)
H3 H 0.2339(4) 0.4298(3) -0.0472(2)
H4 H 0.3682(4) 0.4763(3) 0.1140(2)
H5 H 0.2628(27) 0.2475(8) -0.1570(3)
H6 H 0.2277(23) 0.0927(11) -0.0831(11)
H7 H 0.4513(6) 0.1547(19) -0.0685(9)
H8 H 0.3298(8) -0.1350(16) 0.2981(10)
H9 H 0.1188(36) -0.1913(9) 0.2582(5)
H10 H 0.0867(30) -0.0760(9) 0.3294(6)
#END
