
#######################################################################
#
#                 Cambridge Crystallographic Data Centre
#                                CCDC
#
#######################################################################
#
# If this CIF has been generated from an entry in the Cambridge
# Structural Database, then it will include bibliographic, chemical,
# crystal, experimental, refinement or atomic coordinate data resulting
# from the CCDC's data processing and validation procedures.
#
#######################################################################

data_CSD_CIF_REKHIB
_audit_creation_date 2017-10-11
_audit_creation_method CSD-ConQuest-V1
_database_code_CSD REKHIB
_database_code_depnum_ccdc_archive 'CCDC 1530533'
_chemical_formula_sum 'C28 H19 N3 O2'
_chemical_formula_moiety
;
C28 H19 N3 O2
;
_journal_coden_Cambridge 1366
_journal_volume 359
_journal_year 2017
_journal_page_first 3388
_journal_name_full 'Adv.Synth.Catal. '
loop_
_publ_author_name
"T.U.Thikekar"
"Chung-Ming Sun"
_chemical_name_systematic
;
6-(4-nitrophenyl)-7-phenyl-7H-indolo[1,2-a][1,5]benzodiazepine
;
_cell_volume   2125.523
_exptl_crystal_colour 'yellow'
_exptl_crystal_density_diffrn 1.342
_diffrn_ambient_temperature 100
#These two values have been output from a single CSD field.
_refine_ls_R_factor_gt 0.0387
_refine_ls_wR_factor_gt 0.0387
_symmetry_cell_setting monoclinic
_symmetry_space_group_name_H-M 'P 21/n'
_symmetry_Int_Tables_number 14
loop_
_symmetry_equiv_pos_site_id
_symmetry_equiv_pos_as_xyz
1 x,y,z
2 1/2-x,1/2+y,1/2-z
3 -x,-y,-z
4 -1/2+x,-1/2-y,-1/2+z
_cell_length_a 10.0299(9)
_cell_length_b 21.711(2)
_cell_length_c 10.4075(9)
_cell_angle_alpha 90
_cell_angle_beta 110.303(4)
_cell_angle_gamma 90
_cell_formula_units_Z 4
loop_
_atom_type_symbol
_atom_type_radius_bond
C 0.68
H 0.23
N 0.68
O 0.68
loop_
_atom_site_label
_atom_site_type_symbol
_atom_site_fract_x
_atom_site_fract_y
_atom_site_fract_z
O1 O 0.49918(17) 0.49209(7) 0.34958(17)
O2 O 0.72155(16) 0.46959(7) 0.41094(17)
N1 N 0.51069(12) 0.15312(5) 0.86052(12)
N2 N 0.59957(17) 0.45750(7) 0.40107(15)
N3 N 0.59468(12) 0.18431(6) 0.62086(12)
C1 C 0.65649(17) 0.12601(9) 1.23727(16)
H1 H 0.71010 0.09820 1.30640
C2 C 0.63406(16) 0.11248(8) 1.10182(16)
H2 H 0.67220 0.07630 1.07660
C3 C 0.55306(14) 0.15410(7) 1.00336(14)
C4 C 0.43363(13) 0.20673(6) 0.81059(14)
C5 C 0.37372(14) 0.21754(6) 0.65900(14)
H3 H 0.32230 0.25780 0.64450
C6 C 0.50105(14) 0.22581(7) 0.61207(14)
C7 C 0.52304(14) 0.28639(7) 0.55537(14)
C8 C 0.66006(15) 0.30384(7) 0.56646(16)
H4 H 0.73710 0.27680 0.60920
C9 C 0.68608(16) 0.35958(7) 0.51674(17)
H5 H 0.78000 0.37140 0.52550
C10 C 0.57225(16) 0.39775(7) 0.45382(15)
C11 C 0.41091(15) 0.32585(7) 0.48939(17)
H6 H 0.31660 0.31420 0.47960
C12 C 0.43504(16) 0.38198(8) 0.43772(17)
H7 H 0.35840 0.40880 0.39230
C13 C 0.58785(14) 0.12412(7) 0.66979(14)
C14 C 0.63664(18) 0.07764(8) 0.60444(17)
H8 H 0.67070 0.08840 0.53280
C15 C 0.6367(2) 0.01684(8) 0.64097(18)
H9 H 0.67040 -0.01390 0.59490
C16 C 0.58777(19) 0.00062(8) 0.74471(18)
H10 H 0.58520 -0.04150 0.76880
C17 C 0.54250(17) 0.04568(7) 0.81336(17)
H11 H 0.50880 0.03430 0.88480
C18 C 0.54529(14) 0.10758(7) 0.77991(14)
C19 C 0.60247(16) 0.17937(9) 1.27529(16)
H12 H 0.61780 0.18670 1.36930
C20 C 0.52744(15) 0.22146(8) 1.17884(16)
H13 H 0.49340 0.25830 1.20580
C21 C 0.50174(14) 0.20936(7) 1.04000(15)
C22 C 0.42738(14) 0.24160(7) 0.91594(15)
H14 H 0.38190 0.28050 0.90890
C23 C 0.26663(14) 0.16891(7) 0.57803(14)
C24 C 0.24287(17) 0.15771(8) 0.44109(16)
H15 H 0.29810 0.17880 0.39700
C25 C 0.13977(19) 0.11626(8) 0.36711(18)
H16 H 0.12520 0.10910 0.27320
C26 C 0.05883(18) 0.08565(8) 0.42840(19)
H17 H -0.01150 0.05700 0.37780
C27 C 0.0803(2) 0.09672(9) 0.5641(2)
H18 H 0.02400 0.07590 0.60730
C28 C 0.18360(17) 0.13805(9) 0.63842(17)
H19 H 0.19740 0.14520 0.73220
#END
