
#######################################################################
#
#                 Cambridge Crystallographic Data Centre
#                                CCDC
#
#######################################################################
#
# If this CIF has been generated from an entry in the Cambridge
# Structural Database, then it will include bibliographic, chemical,
# crystal, experimental, refinement or atomic coordinate data resulting
# from the CCDC's data processing and validation procedures.
#
#######################################################################

data_CSD_CIF_REKHOH
_audit_creation_date 2017-10-11
_audit_creation_method CSD-ConQuest-V1
_database_code_CSD REKHOH
_database_code_depnum_ccdc_archive 'CCDC 1530534'
_chemical_formula_sum 'C29 H21 N3 O3'
_chemical_formula_moiety
;
C29 H21 N3 O3
;
_journal_coden_Cambridge 1366
_journal_volume 359
_journal_year 2017
_journal_page_first 3388
_journal_name_full 'Adv.Synth.Catal. '
loop_
_publ_author_name
"T.U.Thikekar"
"Chung-Ming Sun"
_chemical_name_systematic
;
6-(4-methoxyphenyl)-7-(4-nitrophenyl)-7H-indolo[1,2-a][1,5]benzodiazepine
;
_cell_volume   2286.127
_exptl_crystal_colour 'pale yellow'
_exptl_crystal_density_diffrn 1.335
_exptl_crystal_description 'Acicular'
_diffrn_ambient_temperature 100
_diffrn_special_details
;
twin

;
#These two values have been output from a single CSD field.
_refine_ls_R_factor_gt 0.0674
_refine_ls_wR_factor_gt 0.0674
_symmetry_cell_setting monoclinic
_symmetry_space_group_name_H-M 'P c'
_symmetry_Int_Tables_number 7
loop_
_symmetry_equiv_pos_site_id
_symmetry_equiv_pos_as_xyz
1 x,y,z
2 x,-y,1/2+z
_cell_length_a 10.035(3)
_cell_length_b 23.988(7)
_cell_length_c 11.339(3)
_cell_angle_alpha 90
_cell_angle_beta 123.117(18)
_cell_angle_gamma 90
_cell_formula_units_Z 4
loop_
_atom_type_symbol
_atom_type_radius_bond
C 0.68
H 0.23
N 0.68
O 0.68
loop_
_atom_site_label
_atom_site_type_symbol
_atom_site_fract_x
_atom_site_fract_y
_atom_site_fract_z
C1 C 0.8792(7) 0.3488(2) 0.5267(6)
C2 C 0.9960(7) 0.3620(2) 0.6642(6)
H1 H 1.09760 0.34470 0.71050
C3 C 0.9603(7) 0.4013(2) 0.7326(6)
H2 H 1.03890 0.41050 0.82750
C4 C 0.8109(6) 0.4278(2) 0.6657(5)
C5 C 0.6976(7) 0.4135(2) 0.5258(6)
H3 H 0.59600 0.43090 0.47810
C6 C 0.7318(8) 0.3740(3) 0.4554(7)
H4 H 0.65480 0.36480 0.36000
C7 C 0.7813(6) 0.4727(2) 0.7425(5)
H5 H 0.81800 0.50880 0.72560
C8 C 0.8717(6) 0.4640(2) 0.8977(6)
C9 C 0.9862(6) 0.4960(2) 1.0046(6)
H6 H 1.02330 0.53120 0.99560
C10 C 1.0403(6) 0.4665(2) 1.1336(6)
C11 C 1.1590(6) 0.4783(3) 1.2745(6)
H7 H 1.21850 0.51200 1.29910
C12 C 1.1874(7) 0.4400(3) 1.3763(6)
H8 H 1.26930 0.44670 1.47180
C13 C 1.0956(7) 0.3909(3) 1.3395(6)
H9 H 1.11740 0.36510 1.41150
C14 C 0.9746(7) 0.3792(2) 1.2017(6)
H10 H 0.91010 0.34690 1.17860
C15 C 0.9518(6) 0.4166(2) 1.0994(6)
C16 C 0.7318(6) 0.3740(2) 0.8711(5)
C17 C 0.7678(7) 0.3178(2) 0.9125(6)
H11 H 0.86990 0.30810 0.99140
C18 C 0.6557(7) 0.2764(2) 0.8394(6)
H12 H 0.68080 0.23860 0.86890
C19 C 0.5068(7) 0.2900(2) 0.7230(6)
H13 H 0.43040 0.26170 0.67130
C20 C 0.4712(7) 0.3447(2) 0.6834(6)
H14 H 0.36790 0.35380 0.60540
C21 C 0.5818(6) 0.3877(2) 0.7538(6)
C22 C 0.6075(6) 0.4803(2) 0.6946(5)
C23 C 0.5302(6) 0.5360(2) 0.6439(6)
C24 C 0.5735(7) 0.5736(2) 0.5757(6)
H15 H 0.65420 0.56370 0.55970
C25 C 0.4990(7) 0.6252(3) 0.5313(6)
H16 H 0.52760 0.65020 0.48370
C26 C 0.3822(7) 0.6402(2) 0.5565(6)
C27 C 0.3373(7) 0.6033(2) 0.6231(6)
H17 H 0.25790 0.61350 0.64040
C28 C 0.4102(6) 0.5514(2) 0.6642(6)
H18 H 0.37730 0.52570 0.70730
C29 C 0.2111(9) 0.7118(3) 0.5488(10)
H19 H 0.17480 0.74950 0.51170
H20 H 0.11940 0.68660 0.50820
H21 H 0.26500 0.71230 0.65150
N1 N 0.9146(8) 0.3049(2) 0.4547(6)
N2 N 0.8462(5) 0.41567(18) 0.9521(4)
N3 N 0.5234(5) 0.44184(19) 0.7040(5)
O1 O 1.0437(6) 0.2826(2) 0.5207(6)
O2 O 0.8093(7) 0.2937(2) 0.3328(5)
O3 O 0.3199(5) 0.69263(18) 0.5121(5)
C30 C 0.9908(8) 0.1658(3) 0.3235(7)
C31 C 0.8347(10) 0.1409(3) 0.2491(8)
H22 H 0.75640 0.15110 0.15480
C32 C 0.8033(7) 0.1019(3) 0.3194(6)
H23 H 0.70000 0.08590 0.27290
C33 C 0.9157(8) 0.0850(3) 0.4549(7)
C34 C 1.0639(9) 0.1089(3) 0.5256(8)
H24 H 1.14140 0.09880 0.62020
C35 C 1.0986(8) 0.1484(3) 0.4559(8)
H25 H 1.20270 0.16380 0.50370
C36 C 0.8787(8) 0.0387(3) 0.5271(7)
H26 H 0.91270 0.00250 0.50760
C37 C 0.9635(8) 0.0443(3) 0.6823(7)
C38 C 1.0723(8) 0.0124(3) 0.7898(7)
H27 H 1.10830 -0.02280 0.77940
C39 C 1.1253(8) 0.0381(3) 0.9191(8)
C40 C 1.2381(7) 0.0272(3) 1.0621(7)
H28 H 1.29770 -0.00640 1.08700
C41 C 1.2649(9) 0.0622(3) 1.1643(8)
H29 H 1.34480 0.05420 1.25970
C42 C 1.1731(9) 0.1114(3) 1.1291(8)
H30 H 1.19090 0.13580 1.20220
C43 C 1.0550(8) 0.1251(3) 0.9873(8)
H31 H 0.99130 0.15760 0.96460
C44 C 1.0365(7) 0.0896(3) 0.8845(7)
C45 C 0.8280(8) 0.1369(3) 0.6551(7)
C46 C 0.8716(9) 0.1918(3) 0.7019(7)
H32 H 0.97320 0.19940 0.78400
C47 C 0.7674(9) 0.2349(3) 0.6288(7)
H33 H 0.79760 0.27200 0.66170
C48 C 0.6185(9) 0.2246(3) 0.5075(9)
H34 H 0.54730 0.25440 0.45680
C49 C 0.5768(8) 0.1703(3) 0.4627(8)
H35 H 0.47490 0.16260 0.38100
C50 C 0.6823(8) 0.1259(3) 0.5357(8)
C51 C 0.7033(7) 0.0331(2) 0.4749(6)
C52 C 0.6275(6) -0.0224(2) 0.4258(6)
C53 C 0.5214(7) -0.0399(2) 0.4613(7)
H36 H 0.50100 -0.01620 0.51680
C54 C 0.4446(8) -0.0912(2) 0.4174(7)
H37 H 0.37350 -0.10280 0.44340
C55 C 0.4738(7) -0.1250(2) 0.3354(7)
C56 C 0.5780(7) -0.1080(2) 0.2968(6)
H38 H 0.59530 -0.13110 0.23830
C57 C 0.6561(7) -0.0573(2) 0.3437(6)
H39 H 0.72950 -0.04640 0.31980
C58 C 0.3130(11) -0.1981(3) 0.3344(11)
H40 H 0.26860 -0.23420 0.28930
H41 H 0.38210 -0.20320 0.43660
H42 H 0.22620 -0.17250 0.31260
N4 N 0.9376(7) 0.0926(2) 0.7393(6)
N5 N 1.034(1) 0.2084(3) 0.2606(8)
N6 N 0.6203(6) 0.0719(2) 0.4835(6)
O4 O 1.1657(9) 0.2284(2) 0.3290(8)
O5 O 0.9293(9) 0.2195(3) 0.1340(7)
O6 O 0.4028(5) -0.17555(18) 0.2835(5)
#END
