
#######################################################################
#
#                 Cambridge Crystallographic Data Centre
#                                CCDC
#
#######################################################################
#
# If this CIF has been generated from an entry in the Cambridge
# Structural Database, then it will include bibliographic, chemical,
# crystal, experimental, refinement or atomic coordinate data resulting
# from the CCDC's data processing and validation procedures.
#
#######################################################################

data_CSD_CIF_REKZAL
_audit_creation_date 2017-10-12
_audit_creation_method CSD-ConQuest-V1
_database_code_CSD REKZAL
_database_code_depnum_ccdc_archive 'CCDC 1579489'
_chemical_formula_sum 'C28 H23 N3 O4'
_chemical_formula_moiety
;
C28 H23 N3 O4
;
_journal_coden_Cambridge 1078
_journal_year 2017
_journal_name_full 'CSD Communication(Private Communication) '
loop_
_publ_author_name
"Yuxuan Hu"
_chemical_name_systematic
;
9-butyl-3,6-bis(4-nitrophenyl)-9H-carbazole
;
_cell_volume   4564.071
_exptl_crystal_colour 'reddish orange'
_exptl_crystal_density_diffrn 1.355
_exptl_crystal_description 'block'
_diffrn_ambient_temperature 298
_refine_special_details
;
C54A,C55A and C54B,C55B disordered over two sites with occupancies 
0.569:0.431.
;
#These two values have been output from a single CSD field.
_refine_ls_R_factor_gt 0.0455
_refine_ls_wR_factor_gt 0.0455
_symmetry_cell_setting monoclinic
_symmetry_space_group_name_H-M 'P 21/c'
_symmetry_Int_Tables_number 14
loop_
_symmetry_equiv_pos_site_id
_symmetry_equiv_pos_as_xyz
1 x,y,z
2 -x,1/2+y,1/2-z
3 -x,-y,-z
4 x,-1/2-y,-1/2+z
_cell_length_a 15.199(3)
_cell_length_b 20.520(4)
_cell_length_c 15.498(3)
_cell_angle_alpha 90
_cell_angle_beta 109.223(3)
_cell_angle_gamma 90
_cell_formula_units_Z 8
loop_
_atom_type_symbol
_atom_type_radius_bond
C 0.68
H 0.23
N 0.68
O 0.68
loop_
_atom_site_label
_atom_site_type_symbol
_atom_site_fract_x
_atom_site_fract_y
_atom_site_fract_z
O1 O 0.56300(15) 0.59787(13) 0.43721(14)
C1 C 0.60344(16) 0.53649(12) 0.60058(16)
H1 H 0.54287 0.53323 0.56014
C2 C 0.62788(15) 0.50680(12) 0.68437(16)
H2 H 0.58353 0.48252 0.69972
C3 C 0.67590(15) 0.46466(11) 0.87674(15)
H3 H 0.61397 0.47600 0.84742
C4 C 0.55590(15) 0.41012(11) 1.00835(15)
H4 H 0.51354 0.43125 0.95890
O2 O 0.11086(15) 0.35255(14) 1.08994(18)
O3 O 0.70421(15) 0.62921(12) 0.46550(13)
C5 C 0.83612(15) 0.46157(12) 0.88367(16)
H5 H 0.88133 0.47142 0.85731
C6 C 0.59192(16) 0.34905(12) 1.14703(16)
H6 H 0.57202 0.32852 1.19083
C7 C 0.88859(16) 0.36027(12) 1.15044(16)
H7 H 0.93521 0.35425 1.12088
H8 H 0.87869 0.31866 1.17548
O4 O 0.08036(15) 0.39032(15) 0.9544(2)
C8 C 0.71688(14) 0.51204(11) 0.74668(15)
C9 C 0.74270(14) 0.47946(11) 0.83650(15)
C10 C 0.70110(14) 0.43309(10) 0.96032(15)
C11 C 0.64963(14) 0.4096(1) 1.01716(14)
C12 C 0.52461(15) 0.37942(11) 1.07264(15)
C13 C 0.35700(16) 0.40273(13) 0.98460(18)
H9 H 0.37612 0.42130 0.93897
N1 N 0.13525(18) 0.37191(14) 1.0279(2)
C14 C 0.86269(15) 0.43071(12) 0.96559(15)
H10 H 0.92479 0.41996 0.99523
C15 C 0.79462(15) 0.41561(11) 1.00394(15)
C16 C 0.68523(16) 0.34823(12) 1.15814(16)
H11 H 0.72788 0.32798 1.20827
C17 C 0.71374(14) 0.37869(11) 1.09193(15)
N2 N 0.80188(12) 0.38219(9) 1.08353(12)
C18 C 0.39108(19) 0.35157(15) 1.12855(19)
H12 H 0.43344 0.33497 1.18196
N3 N 0.64387(17) 0.60163(12) 0.48779(15)
C19 C 0.66919(16) 0.57098(12) 0.57717(15)
C20 C 0.42428(16) 0.37804(11) 1.06241(16)
C21 C 0.26353(17) 0.40058(13) 0.97300(19)
H13 H 0.22012 0.41725 0.92027
C22 C 0.23532(17) 0.37374(13) 1.0397(2)
C23 C 0.78103(16) 0.54886(13) 0.72109(16)
H14 H 0.84110 0.55375 0.76205
C24 C 0.75808(16) 0.57813(13) 0.63707(17)
H15 H 0.80197 0.60239 0.62095
C25 C 0.9237(6) 0.4101(5) 1.2278(6)
H16 H 0.87902 0.41244 1.26021
H17 H 0.98193 0.39426 1.27054
C26 C 0.9391(5) 0.4769(3) 1.1989(6)
H18 H 0.88122 0.49379 1.15688
H19 H 0.98457 0.47556 1.16737
C27 C 0.9736(2) 0.52175(18) 1.2810(2)
H20 H 0.97648 0.56562 1.26061
H21 H 1.03451 0.50817 1.31881
H22 H 0.93153 0.51984 1.31555
C28 C 0.2972(2) 0.34925(15) 1.1171(2)
H23 H 0.27664 0.33108 1.16205
H24? H 0.92082 0.33282 1.11955
H25? H 0.87356 0.33342 1.19519
H26? H 0.98096 0.54467 1.22983
H27? H 1.03328 0.50689 1.32009
H28? H 0.94684 0.55043 1.31460
C29? C 0.9063(6) 0.4606(5) 1.2452(6)
H29? H 0.89344 0.43965 1.29588
H30? H 0.84766 0.47474 1.20142
C30? C 0.9543(7) 0.4131(6) 1.2004(8)
H31? H 0.97743 0.43633 1.15772
H32? H 1.00721 0.39359 1.24667
O5 O 0.08437(16) 0.30203(17) 0.72812(19)
C31 C 0.67704(15) 0.35570(11) 0.62758(16)
H33 H 0.61480 0.36472 0.59580
O6 O 0.71750(17) 0.53381(13) 0.23039(16)
O7 O 0.11347(17) 0.23863(17) 0.8410(2)
C32 C 0.59510(17) 0.26337(12) 0.91361(17)
H34 H 0.57647 0.25000 0.96227
C33 C 0.68822(17) 0.26159(12) 0.92387(17)
H35 H 0.73175 0.24665 0.97773
C34 C 0.83807(16) 0.35656(12) 0.63866(18)
H36 H 0.88371 0.36652 0.61289
O8 O 0.57210(16) 0.51484(12) 0.20477(15)
C35 C 0.61108(17) 0.43671(12) 0.35527(18)
H37 H 0.55139 0.43379 0.31296
C36 C 0.63384(16) 0.40318(12) 0.43609(17)
H38 H 0.58936 0.37645 0.44725
C37 C 0.92273(16) 0.20236(12) 0.91544(16)
H39 H 0.93368 0.19426 0.85816
H40 H 0.87416 0.17285 0.91893
N4 N 0.13844(18) 0.27132(16) 0.7892(2)
C38 C 0.42610(16) 0.28226(11) 0.82369(16)
C39 C 0.52670(15) 0.28436(11) 0.83329(15)
C40 C 0.55587(15) 0.30630(11) 0.76214(15)
H41 H 0.51222 0.32140 0.70846
C41 C 0.70128(14) 0.32575(11) 0.71215(16)
C42 C 0.78578(17) 0.44794(13) 0.48171(18)
H42 H 0.84487 0.45252 0.52465
C43 C 0.71542(16) 0.28267(11) 0.85179(16)
N5 N 0.80333(12) 0.28617(10) 0.84395(14)
C44 C 0.79530(15) 0.31267(11) 0.76008(17)
C45 C 1.01070(17) 0.18852(14) 0.99348(18)
H43 H 1.05884 0.21832 0.98972
H44 H 0.99942 0.19713 1.05049
C46 C 0.3936(2) 0.25152(14) 0.8861(2)
H45 H 0.43636 0.23252 0.93728
C47 C 0.23760(17) 0.27555(14) 0.80203(19)
C48 C 0.26612(18) 0.30770(16) 0.73882(19)
H46 H 0.22283 0.32711 0.68832
C49 C 0.35968(18) 0.31097(15) 0.75083(18)
H47 H 0.37884 0.33348 0.70804
C50 C 0.64953(15) 0.30578(10) 0.77080(15)
C51 C 0.74521(15) 0.37239(12) 0.58984(16)
C52 C 0.72147(15) 0.40801(11) 0.50182(16)
C53 C 0.76487(18) 0.48087(14) 0.40047(19)
H48 H 0.80932 0.50703 0.38822
C54 C 0.67747(18) 0.47465(13) 0.33756(18)
N6 N 0.6539(2) 0.51025(12) 0.25182(17)
C55 C 0.86465(16) 0.32695(12) 0.72298(18)
H49 H 0.92672 0.31688 0.75394
C56 C 0.89032(16) 0.27101(13) 0.91651(17)
H50 H 0.88215 0.27933 0.97502
H51 H 0.93848 0.30020 0.91121
C57 C 1.0460(2) 0.11988(16) 0.9954(2)
H52 H 0.99938 0.08994 1.00054
H53 H 1.10175 0.11462 1.04693
H54 H 1.05928 0.11124 0.94013
C58 C 0.3002(2) 0.24778(15) 0.8757(2)
H55 H 0.28055 0.22636 0.91901
#END
