
#######################################################################
#
#                 Cambridge Crystallographic Data Centre
#                                CCDC
#
#######################################################################
#
# If this CIF has been generated from an entry in the Cambridge
# Structural Database, then it will include bibliographic, chemical,
# crystal, experimental, refinement or atomic coordinate data resulting
# from the CCDC's data processing and validation procedures.
#
#######################################################################

data_CSD_CIF_RELFEV
_audit_creation_date 2013-02-22
_audit_creation_method CSD-ConQuest-V1
_database_code_CSD RELFEV
_database_code_depnum_ccdc_archive 'CCDC 911470'
_chemical_formula_sum 'C20 H25 N1 O10'
_chemical_formula_moiety
;
C20 H25 N1 O10
;
_journal_coden_Cambridge 35
_journal_volume 77
_journal_year 2012
_journal_page_first 1675
_journal_name_full 'J.Org.Chem. '
loop_
_publ_author_name
"A.Baba"
"T.Yoshioka"
_chemical_name_systematic
;
2,3,6-Tri-O-acetyl-\b-D-glucopyranoside N-phenylacetohydroxamate
;
_cell_volume   1061.057
_exptl_crystal_colour 'colorless'
_exptl_crystal_density_diffrn 1.375
_exptl_crystal_description 'block'
_diffrn_ambient_temperature 93
#These two values have been output from a single CSD field.
_refine_ls_R_factor_gt 0.068
_refine_ls_wR_factor_gt 0.068
_symmetry_cell_setting triclinic
_symmetry_space_group_name_H-M 'P 1'
_symmetry_Int_Tables_number 1
loop_
_symmetry_equiv_pos_site_id
_symmetry_equiv_pos_as_xyz
1 x,y,z
_cell_length_a 8.655(3)
_cell_length_b 11.543(4)
_cell_length_c 12.702(4)
_cell_angle_alpha 63.88(3)
_cell_angle_beta 70.64(3)
_cell_angle_gamma 89.42(3)
_cell_formula_units_Z 2
loop_
_atom_type_symbol
_atom_type_radius_bond
C 0.68
H 0.23
N 0.68
O 0.68
loop_
_atom_site_label
_atom_site_type_symbol
_atom_site_fract_x
_atom_site_fract_y
_atom_site_fract_z
O1 O 0.0135(11) 0.7584(8) 0.4151(9)
O2 O -0.2098(11) 0.5008(8) 0.7320(9)
O3 O -0.2629(11) 0.3045(8) 0.7424(9)
O4 O 0.1095(11) 0.4098(8) 0.6522(9)
O5 O 0.1094(11) 0.3967(8) 0.8351(9)
O6 O 0.3716(11) 0.6298(9) 0.4919(10)
O7 O 0.2480(11) 0.9869(8) 0.2636(9)
O8 O 0.2506(11) 1.0068(8) 0.0777(9)
O9 O -0.2657(11) 0.6826(8) 0.5111(9)
O10 O -0.5952(11) 0.8494(8) 0.5713(9)
O11 O 1.0870(11) 0.2654(8) 0.3879(9)
O12 O 0.7336(11) 0.0779(8) 0.6713(8)
O13 O 0.6375(11) -0.1265(8) 0.7169(9)
O14 O 1.0015(11) -0.0986(8) 0.6795(8)
O15 O 0.8895(11) -0.1126(8) 0.8738(9)
O16 O 1.3169(11) 0.0697(8) 0.5793(9)
O17 O 1.3941(11) 0.4366(8) 0.2750(9)
O18 O 1.6281(11) 0.4489(8) 0.1218(9)
O19 O 0.8120(11) 0.2690(8) 0.4199(9)
O20 O 0.6295(11) 0.5492(8) 0.3636(9)
N1 N -0.3425(11) 0.7963(8) 0.4943(9)
N2 N 0.8085(11) 0.4051(9) 0.3680(9)
C1 C -0.1173(12) 0.6932(9) 0.5347(10)
C2 C -0.0913(12) 0.5534(9) 0.6047(9)
C3 C 0.0845(12) 0.5456(9) 0.6064(10)
C4 C 0.2177(12) 0.6283(9) 0.4764(10)
C5 C 0.1738(12) 0.7656(9) 0.4260(9)
C6 C -0.2930(12) 0.3755(10) 0.7917(10)
C7 C -0.4165(12) 0.3441(9) 0.916(1)
C8 C 0.1130(11) 0.3462(9) 0.7705(9)
C9 C 0.1252(11) 0.2031(9) 0.8062(9)
C10 C 0.2943(12) 0.8573(9) 0.2992(10)
C11 C 0.2239(12) 1.0470(9) 0.1538(10)
C12 C 0.1537(12) 1.1696(9) 0.1430(9)
C13 C -0.4992(12) 0.7657(9) 0.5881(10)
C14 C -0.5413(11) 0.6430(9) 0.7059(9)
C15 C -0.3033(11) 0.8924(9) 0.3673(9)
C16 C -0.3250(11) 1.0191(9) 0.3398(9)
C17 C -0.2931(11) 1.1124(9) 0.2163(10)
C18 C -0.2395(12) 1.0800(9) 0.1186(10)
C19 C -0.2145(12) 0.9518(9) 0.1461(10)
C20 C -0.2496(12) 0.8583(9) 0.2688(10)
C21 C 0.9285(12) 0.2364(9) 0.4825(10)
C22 C 0.8839(12) 0.0892(9) 0.5703(9)
C23 C 1.0223(12) 0.0437(9) 0.6216(9)
C24 C 1.1954(12) 0.0925(9) 0.5211(10)
C25 C 1.2161(12) 0.2414(9) 0.4404(9)
C26 C 0.6203(11) -0.0329(10) 0.7362(9)
C27 C 0.4753(12) -0.0223(10) 0.835(1)
C28 C 0.9295(12) -0.1645(9) 0.8073(9)
C29 C 0.9107(12) -0.3078(9) 0.8516(9)
C30 C 1.3780(12) 0.2956(9) 0.329(1)
C31 C 1.5265(12) 0.5031(9) 0.1688(10)
C32 C 1.5380(11) 0.6477(10) 0.1168(10)
C33 C 0.6574(11) 0.4374(9) 0.4197(10)
C34 C 0.5434(12) 0.3370(9) 0.5423(10)
C35 C 0.9304(12) 0.4853(9) 0.2484(10)
C36 C 0.9895(11) 0.4423(8) 0.1585(9)
C37 C 1.1144(12) 0.5207(9) 0.0451(10)
C38 C 1.1805(12) 0.6438(9) 0.0181(9)
C39 C 1.1216(12) 0.6898(9) 0.1075(10)
C40 C 1.0013(11) 0.6086(9) 0.2226(9)
H1 H -0.12719 0.73527 0.58484
H2 H -0.11287 0.50059 0.56845
H3 H 0.09487 0.57212 0.66485
H4 H 0.22009 0.58881 0.42372
H5 H 0.16796 0.79539 0.48543
H6 H 0.43734 0.61494 0.44715
H7 H -0.44946 0.24848 0.96632
H8 H -0.36988 0.37215 0.96029
H9 H -0.51086 0.38069 0.90840
H10 H 0.21038 0.19337 0.74196
H11 H 0.02223 0.15556 0.82261
H12 H 0.14972 0.16034 0.88293
H13 H 0.29189 0.82551 0.24204
H14 H 0.40249 0.85615 0.30381
H15 H 0.16619 1.22082 0.06002
H16 H 0.21078 1.21070 0.17211
H17 H 0.03899 1.14399 0.19659
H18 H -0.64314 0.63926 0.76759
H19 H -0.55268 0.56756 0.69206
H20 H -0.45590 0.63204 0.74097
H21 H -0.36220 1.03951 0.40790
H22 H 1.33612 0.00364 0.59248
H23 H -0.30865 1.19627 0.20072
H24 H -0.22038 1.14018 0.03673
H25 H -0.17328 0.92536 0.08201
H26 H -0.23774 0.76674 0.28915
H27 H 0.92330 0.28050 0.53019
H28 H 0.86519 0.03885 0.53104
H29 H 1.01490 0.06761 0.68542
H30 H 1.21248 0.04645 0.47205
H31 H 1.20577 0.28103 0.49268
H32 H 0.43074 -0.10989 0.90749
H33 H 0.51058 0.03123 0.86332
H34 H 0.39211 0.00780 0.80345
H35 H 0.85814 -0.35572 0.94295
H36 H 0.84439 -0.33421 0.81711
H37 H 1.01664 -0.33578 0.82988
H38 H 1.37604 0.26474 0.27110
H39 H 1.46761 0.26303 0.35798
H40 H 1.60251 0.68486 0.03164
H41 H 1.58824 0.67287 0.16117
H42 H 1.42947 0.66655 0.13144
H43 H 0.45393 0.37110 0.57769
H44 H 0.50090 0.26496 0.53426
H45 H 0.60096 0.29917 0.60081
H46 H 0.94364 0.35529 0.17709
H47 H 1.15559 0.48619 -0.01313
H48 H 1.26524 0.69347 -0.05860
H49 H 1.16338 0.77141 0.09124
H50 H 0.96530 0.63293 0.28786
#END
