
#######################################################################
#
#                 Cambridge Crystallographic Data Centre
#                                CCDC
#
#######################################################################
#
# If this CIF has been generated from an entry in the Cambridge
# Structural Database, then it will include bibliographic, chemical,
# crystal, experimental, refinement or atomic coordinate data resulting
# from the CCDC's data processing and validation procedures.
#
#######################################################################

data_CSD_CIF_RELFAR
_audit_creation_date 2013-02-22
_audit_creation_method CSD-ConQuest-V1
_database_code_CSD RELFAR
_database_code_depnum_ccdc_archive 'CCDC 911469'
_chemical_formula_sum 'C20 H25 N1 O10'
_chemical_formula_moiety
;
C20 H25 N1 O10
;
_journal_coden_Cambridge 35
_journal_volume 77
_journal_year 2012
_journal_page_first 1675
_journal_name_full 'J.Org.Chem. '
loop_
_publ_author_name
"A.Baba"
"T.Yoshioka"
_chemical_name_systematic
;
2,3,4-Tri-O-acetyl-\b-D-glucopyranoside N-phenylacetohydroxamate
;
_cell_volume   2158.049
_exptl_crystal_colour 'colorless'
_exptl_crystal_density_diffrn 1.352
_exptl_crystal_description 'needle'
_diffrn_ambient_temperature 93
#These two values have been output from a single CSD field.
_refine_ls_R_factor_gt 0.051
_refine_ls_wR_factor_gt 0.051
_symmetry_cell_setting orthorhombic
_symmetry_space_group_name_H-M 'P 21 21 21'
_symmetry_Int_Tables_number 19
loop_
_symmetry_equiv_pos_site_id
_symmetry_equiv_pos_as_xyz
1 x,y,z
2 1/2+x,1/2-y,-z
3 -x,1/2+y,1/2-z
4 1/2-x,-y,1/2+z
_cell_length_a 5.5058(19)
_cell_length_b 11.098(4)
_cell_length_c 35.318(12)
_cell_angle_alpha 90
_cell_angle_beta 90
_cell_angle_gamma 90
_cell_formula_units_Z 4
loop_
_atom_type_symbol
_atom_type_radius_bond
C 0.68
H 0.23
N 0.68
O 0.68
loop_
_atom_site_label
_atom_site_type_symbol
_atom_site_fract_x
_atom_site_fract_y
_atom_site_fract_z
O1 O 0.1526(5) 0.6230(2) 0.33691(7)
O2 O -0.0157(5) 0.8468(3) 0.40745(7)
O3 O -0.4282(5) 0.8512(3) 0.40458(8)
O4 O -0.0727(5) 0.6187(3) 0.44669(7)
O5 O 0.2075(5) 0.6328(3) 0.49300(8)
O6 O 0.3289(5) 0.4536(3) 0.42135(7)
O7 O 0.0253(6) 0.3312(3) 0.44054(10)
O8 O 0.1250(7) 0.3574(3) 0.33645(8)
O9 O -0.0141(6) 0.8108(2) 0.32957(7)
O10 O 0.0854(6) 0.8686(3) 0.23420(8)
N1 N 0.1182(7) 0.8486(3) 0.29731(9)
C1 C 0.1317(9) 0.7378(4) 0.35356(11)
C2 C -0.0109(9) 0.7285(3) 0.39009(11)
C3 C 0.1081(7) 0.6411(4) 0.41712(10)
C4 C 0.1649(8) 0.5230(4) 0.39757(11)
C5 C 0.2985(8) 0.5437(4) 0.36014(11)
C6 C -0.2362(9) 0.8984(4) 0.41188(11)
C7 C -0.2069(9) 1.0255(4) 0.42724(11)
C8 C 0.0023(9) 0.6136(4) 0.48355(11)
C9 C -0.2043(9) 0.5778(4) 0.50808(11)
C10 C 0.2378(9) 0.3595(5) 0.44128(12)
C11 C 0.4288(9) 0.3022(4) 0.46441(11)
C12 C 0.3408(9) 0.4273(4) 0.33843(11)
C13 C 0.0189(9) 0.8164(4) 0.26307(13)
C14 C -0.1620(9) 0.7155(4) 0.26373(12)
C15 C 0.2825(8) 0.9478(4) 0.30392(12)
C16 C 0.2511(9) 1.0212(4) 0.33535(11)
C17 C 0.4218(9) 1.1111(4) 0.34239(11)
C18 C 0.6172(9) 1.1295(5) 0.31864(14)
C19 C 0.6446(9) 1.0568(5) 0.28695(14)
C20 C 0.478007(9) 0.9659(4) 0.27891(12)
H1 H 0.28634 0.77296 0.35777
H2 H -0.17273 0.70309 0.38486
H3 H 0.25139 0.67484 0.42761
H4 H 0.01926 0.47887 0.39311
H5 H 0.45012 0.58115 0.36525
H6 H -0.32540 1.07656 0.41620
H7 H -0.04908 1.05430 0.42120
H8 H -0.22692 1.02437 0.45395
H9 H 0.05792 0.36238 0.31630
H10 H -0.34730 0.62050 0.50072
H11 H -0.16808 0.59622 0.53374
H12 H -0.23323 0.49367 0.50568
H13 H 0.57840 0.30460 0.45113
H14 H 0.38584 0.22087 0.46947
H15 H 0.44558 0.34439 0.48780
H16 H 0.46376 0.38228 0.35086
H17 H 0.39243 0.44660 0.31348
H18 H -0.09176 0.64742 0.27576
H19 H -0.30236 0.74016 0.27730
H20 H -0.20593 0.69519 0.23851
H21 H 0.11776 1.01014 0.35178
H22 H 0.40283 1.16112 0.36404
H23 H 0.73076 1.19131 0.32379
H24 H 0.77931 1.06851 0.27073
H25 H 0.49596 0.91710 0.25686
#END
