
#######################################################################
#
#                 Cambridge Crystallographic Data Centre
#                                CCDC
#
#######################################################################
#
# If this CIF has been generated from an entry in the Cambridge
# Structural Database, then it will include bibliographic, chemical,
# crystal, experimental, refinement or atomic coordinate data resulting
# from the CCDC's data processing and validation procedures.
#
#######################################################################

data_CSD_CIF_RELQUW
_audit_creation_date 2013-02-22
_audit_creation_method CSD-ConQuest-V1
_database_code_CSD RELQUW
_database_code_depnum_ccdc_archive 'CCDC 911534'
_chemical_formula_sum 'C14 H11 N3 O2'
_chemical_formula_moiety
;
C14 H11 N3 O2
;
_journal_coden_Cambridge 35
_journal_volume 77
_journal_year 2012
_journal_page_first 2024
_journal_name_full 'J.Org.Chem. '
loop_
_publ_author_name
"Ru-Long Yan"
"Hao Yan"
"Chao Ma"
"Zhi-Yong Ren"
"Xi-Ai Gao"
"Guo-Sheng Huang"
"Yong-Min Liang"
_chemical_name_systematic
;
8-Methyl-3-nitro-2-phenylimidazo[1,2-a]pyridine
;
_cell_volume   2410.400
_exptl_crystal_colour 'colorless'
_exptl_crystal_density_diffrn 1.396
_exptl_crystal_description 'block'
_diffrn_ambient_temperature 296
#These two values have been output from a single CSD field.
_refine_ls_R_factor_gt 0.0505
_refine_ls_wR_factor_gt 0.0505
_symmetry_cell_setting monoclinic
_symmetry_space_group_name_H-M 'C 2/c'
_symmetry_Int_Tables_number 15
loop_
_symmetry_equiv_pos_site_id
_symmetry_equiv_pos_as_xyz
1 x,y,z
2 -x,y,1/2-z
3 1/2+x,1/2+y,z
4 1/2-x,1/2+y,1/2-z
5 -x,-y,-z
6 x,-y,-1/2+z
7 -1/2-x,-1/2-y,-z
8 -1/2+x,-1/2-y,-1/2+z
_cell_length_a 20.247(7)
_cell_length_b 7.550(3)
_cell_length_c 18.304(10)
_cell_angle_alpha 90
_cell_angle_beta 120.519(3)
_cell_angle_gamma 90
_cell_formula_units_Z 8
loop_
_atom_type_symbol
_atom_type_radius_bond
C 0.68
H 0.23
N 0.68
O 0.68
loop_
_atom_site_label
_atom_site_type_symbol
_atom_site_fract_x
_atom_site_fract_y
_atom_site_fract_z
N1 N 0.08274(8) 0.3831(2) 0.02444(10)
N2 N 0.13888(9) 0.6447(2) 0.08273(10)
C1 C 0.10822(10) 0.5443(3) 0.01230(12)
C2 C 0.16709(10) 0.6199(3) 0.22850(12)
O1 O 0.0416(1) 0.1238(2) 0.09842(11)
C3 C 0.13467(11) 0.5486(3) 0.14228(12)
N3 N 0.07542(10) 0.2529(2) 0.14220(12)
C4 C 0.09941(11) 0.3871(3) 0.10823(12)
C5 C 0.15252(12) 0.7952(3) 0.23844(14)
H1 H 0.12030 0.86270 0.19090
O2 O 0.08771(11) 0.2711(2) 0.21467(11)
C6 C 0.10221(11) 0.5829(3) -0.06614(12)
C7 C 0.05240(12) 0.2564(3) -0.03784(14)
H2 H 0.03550 0.14840 -0.02890
C8 C 0.21672(11) 0.5231(3) 0.30005(13)
H3 H 0.22760 0.40580 0.29460
C9 C 0.25005(13) 0.6002(4) 0.37934(14)
H4 H 0.28360 0.53490 0.42710
C10 C 0.07230(11) 0.4551(3) -0.12702(13)
H5 H 0.06810 0.47630 -0.17920
C11 C 0.12925(15) 0.7585(3) -0.07818(15)
H6 H 0.18410 0.76430 -0.04390
H7 H 0.10700 0.85100 -0.06160
H8 H 0.11400 0.77310 -0.13680
C12 C 0.04779(12) 0.2932(3) -0.11270(14)
H9 H 0.02780 0.20860 -0.15550
C13 C 0.23377(14) 0.7729(4) 0.38790(16)
H10 H 0.25580 0.82380 0.44150
C14 C 0.18517(13) 0.8701(3) 0.31772(15)
H11 H 0.17420 0.98710 0.32370
#END
