
#######################################################################
#
#                 Cambridge Crystallographic Data Centre
#                                CCDC
#
#######################################################################
#
# If this CIF has been generated from an entry in the Cambridge
# Structural Database, then it will include bibliographic, chemical,
# crystal, experimental, refinement or atomic coordinate data resulting
# from the CCDC's data processing and validation procedures.
#
#######################################################################

data_CSD_CIF_RELQIJ
_audit_creation_date 2006-10-20
_audit_creation_method CSD-ConQuest-V1
_database_code_CSD RELQIJ
_database_code_depnum_ccdc_archive 'CCDC 617907'
_chemical_formula_sum 'C17 H27 N3 O3'
_chemical_formula_moiety
;
C17 H27 N3 O3
;
_journal_coden_Cambridge 9
_journal_volume 45
_journal_year 2006
_journal_page_first 5886
_journal_name_full 'Inorg.Chem. '
loop_
_publ_author_name
"I.Binyamin"
"S.Pailloux"
"E.N.Duesler"
"B.M.Rapko"
"R.T.Paine"
_chemical_name_systematic
;
2,6-bis(N-t-Butylacetamide)pyridine-N-oxide
;
_cell_volume    925.987
_exptl_crystal_colour 'colorless'
_exptl_crystal_density_diffrn 1.153
_exptl_crystal_description 'prism'
_diffrn_ambient_temperature 293
#These two values have been output from a single CSD field.
_refine_ls_R_factor_gt 0.0425
_refine_ls_wR_factor_gt 0.0425
_symmetry_cell_setting triclinic
_symmetry_space_group_name_H-M 'P -1'
_symmetry_Int_Tables_number 2
loop_
_symmetry_equiv_pos_site_id
_symmetry_equiv_pos_as_xyz
1 x,y,z
2 -x,-y,-z
_cell_length_a 7.0703(6)
_cell_length_b 9.373(1)
_cell_length_c 14.355(3)
_cell_angle_alpha 94.016(13)
_cell_angle_beta 102.593(11)
_cell_angle_gamma 90.140(9)
_cell_formula_units_Z 2
loop_
_atom_type_symbol
_atom_type_radius_bond
C 0.68
H 0.23
N 0.68
O 0.68
loop_
_atom_site_label
_atom_site_type_symbol
_atom_site_fract_x
_atom_site_fract_y
_atom_site_fract_z
O1 O 0.00733(15) 0.26047(12) -0.00527(9)
O2 O -0.23785(19) 0.20536(11) -0.22264(8)
O3 O 0.01989(18) 0.29323(11) 0.22489(8)
N1 N -0.17187(16) 0.25017(12) 0.00241(8)
N2 N -0.0529(2) 0.39330(14) -0.24264(10)
H1 H -0.033(2) 0.482(2) -0.2257(12)
N3 N 0.2261(2) 0.10782(14) 0.2478(1)
H2 H 0.234(3) 0.025(2) 0.2332(13)
C1 C -0.3082(2) 0.32888(15) -0.05298(10)
C2 C -0.4990(3) 0.3172(2) -0.04284(15)
H3 H -0.588(4) 0.373(2) -0.0813(17)
C3 C -0.5490(3) 0.2292(3) 0.02018(17)
H4 H -0.683(4) 0.222(2) 0.0251(17)
C4 C -0.4085(3) 0.1507(2) 0.07283(15)
H5 H -0.440(3) 0.084(2) 0.1193(16)
C5 C -0.2198(2) 0.16035(15) 0.06488(11)
C6 C -0.2403(3) 0.41813(17) -0.12034(13)
H6 H -0.349(3) 0.477(2) -0.1504(14)
H7 H -0.137(3) 0.478(2) -0.0882(16)
C7 C -0.1741(3) 0.32747(15) -0.19970(11)
C8 C 0.0125(3) 0.33672(16) -0.32886(12)
C9 C 0.1151(4) 0.1952(2) -0.3109(2)
H8 H 0.020(4) 0.120(3) -0.3031(17)
H9 H 0.167(4) 0.163(2) -0.3686(18)
H10 H 0.218(4) 0.203(3) -0.251(2)
C10 C 0.1559(4) 0.4468(3) -0.3474(2)
H11 H 0.089(4) 0.540(3) -0.3567(18)
H12 H 0.196(3) 0.418(2) -0.4074(18)
H13 H 0.272(5) 0.458(3) -0.287(2)
C11 C -0.1601(4) 0.3178(3) -0.41280(16)
H14 H -0.267(4) 0.251(3) -0.4009(18)
H15 H -0.217(4) 0.412(3) -0.4254(18)
H16 H -0.118(4) 0.282(3) -0.474(2)
C12 C -0.0582(3) 0.07936(18) 0.12111(13)
H17 H -0.113(4) 0.003(3) 0.1486(18)
H18 H 0.034(4) 0.038(3) 0.0795(19)
C13 C 0.0677(2) 0.17198(15) 0.20284(10)
C14 C 0.3610(2) 0.16547(16) 0.33627(11)
C15 C 0.2564(4) 0.1823(3) 0.41744(15)
H19 H 0.141(4) 0.248(2) 0.4028(17)
H20 H 0.345(3) 0.215(2) 0.4764(17)
H21 H 0.204(3) 0.090(3) 0.4297(17)
C16 C 0.5213(4) 0.0566(2) 0.3582(2)
H22 H 0.472(3) -0.035(3) 0.3663(16)
H23 H 0.617(4) 0.088(2) 0.4199(18)
H24 H 0.586(4) 0.048(3) 0.304(2)
C17 C 0.4491(4) 0.3078(2) 0.31967(18)
H25 H 0.345(3) 0.383(2) 0.3083(15)
H26 H 0.542(4) 0.339(2) 0.3791(18)
H27 H 0.515(4) 0.298(3) 0.266(2)
#END
