
#######################################################################
#
#                 Cambridge Crystallographic Data Centre
#                                CCDC
#
#######################################################################
#
# If this CIF has been generated from an entry in the Cambridge
# Structural Database, then it will include bibliographic, chemical,
# crystal, experimental, refinement or atomic coordinate data resulting
# from the CCDC's data processing and validation procedures.
#
#######################################################################

data_CSD_CIF_REMKEC
_audit_creation_date 2017-10-12
_audit_creation_method CSD-ConQuest-V1
_database_code_CSD REMKEC
_database_code_depnum_ccdc_archive 'CCDC 1552189'
_chemical_formula_sum 'C19 H17 N1 O4'
_chemical_formula_moiety
;
C19 H17 N1 O4
;
_journal_coden_Cambridge 35
_journal_volume 82
_journal_year 2017
_journal_page_first 10388
_journal_name_full 'J.Org.Chem. '
loop_
_publ_author_name
"Xing Yang"
"Shuai Pang"
"Feng Cheng"
"Yue Zhang"
"Ya-Wei Lin"
"Quan Yuan"
"Fang-Lin Zhang"
"Yi-Yong Huang"
_chemical_name_systematic
;
2-((1S,3S)-3-Allyl-1,3-dihydroisobenzofuran-1-yl)-1-(3-nitrophenyl)ethanone
;
_chemical_melting_point 341.65
_cell_volume   1657.999
_exptl_crystal_colour 'colorless'
_exptl_crystal_density_diffrn 1.295
_exptl_special_details
;
Melting point range 341.65-342.85K

;
_exptl_crystal_description 'needle'
_diffrn_ambient_temperature 293
#These two values have been output from a single CSD field.
_refine_ls_R_factor_gt 0.0628
_refine_ls_wR_factor_gt 0.0628
_symmetry_cell_setting monoclinic
_symmetry_space_group_name_H-M 'C 2'
_symmetry_Int_Tables_number 5
loop_
_symmetry_equiv_pos_site_id
_symmetry_equiv_pos_as_xyz
1 x,y,z
2 -x,y,-z
3 1/2+x,1/2+y,z
4 1/2-x,1/2+y,-z
_cell_length_a 21.23(3)
_cell_length_b 4.782(7)
_cell_length_c 16.45(3)
_cell_angle_alpha 90
_cell_angle_beta 96.883(19)
_cell_angle_gamma 90
_cell_formula_units_Z 4
loop_
_atom_type_symbol
_atom_type_radius_bond
C 0.68
H 0.23
N 0.68
O 0.68
loop_
_atom_site_label
_atom_site_type_symbol
_atom_site_fract_x
_atom_site_fract_y
_atom_site_fract_z
C1 C 0.3593(4) 0.6659(19) 0.9968(4)
C2 C 0.3187(4) 0.780(2) 1.0496(5)
H1 H 0.28890 0.91380 1.03010
C3 C 0.3226(5) 0.696(3) 1.1287(6)
H2 H 0.29580 0.77460 1.16320
C4 C 0.3659(6) 0.495(3) 1.1585(6)
H3 H 0.36770 0.43380 1.21230
C5 C 0.4071(4) 0.386(2) 1.1065(5)
C6 C 0.4036(4) 0.4653(18) 1.0270(4)
H4 H 0.43060 0.38610 0.99280
C7 C 0.3528(4) 0.7670(18) 0.9099(4)
C8 C 0.3838(3) 0.6107(18) 0.8474(4)
H5 H 0.37660 0.41240 0.85460
H6 H 0.42920 0.64250 0.85740
C9 C 0.3616(3) 0.6861(19) 0.7602(4)
H7 H 0.36630 0.88810 0.75280
C10 C 0.3944(3) 0.5347(16) 0.6981(4)
C11 C 0.3522(3) 0.3603(18) 0.6516(4)
C12 C 0.2882(3) 0.392(2) 0.6795(4)
H8 H 0.27770 0.21780 0.70630
C13 C 0.3712(4) 0.199(2) 0.5892(4)
H9 H 0.34250 0.08260 0.55810
C14 C 0.4334(4) 0.214(2) 0.5742(5)
H10 H 0.44690 0.10540 0.53260
C15 C 0.4755(4) 0.383(2) 0.6190(5)
H11 H 0.51730 0.38900 0.60740
C16 C 0.4574(4) 0.546(2) 0.6815(5)
H12 H 0.48660 0.66180 0.71200
C17 C 0.2357(3) 0.459(2) 0.6150(4)
H13 H 0.24520 0.63530 0.59000
H14 H 0.23420 0.31620 0.57300
C18 C 0.1722(4) 0.480(3) 0.6427(5)
H15 H 0.16660 0.61720 0.68130
C19 C 0.1236(5) 0.324(2) 0.6179(6)
H16 H 0.12710 0.18440 0.57930
H17 H 0.08520 0.35200 0.63870
N1 N 0.4526(5) 0.173(2) 1.1388(6)
O1 O 0.4512(4) 0.0848(19) 1.2071(4)
O2 O 0.4921(4) 0.101(2) 1.0956(6)
O3 O 0.3232(3) 0.9779(15) 0.8912(4)
O4 O 0.2957(2) 0.6100(14) 0.7403(3)
#END
