
#######################################################################
#
#                 Cambridge Crystallographic Data Centre
#                                CCDC
#
#######################################################################
#
# If this CIF has been generated from an entry in the Cambridge
# Structural Database, then it will include bibliographic, chemical,
# crystal, experimental, refinement or atomic coordinate data resulting
# from the CCDC's data processing and validation procedures.
#
#######################################################################

data_CSD_CIF_REMQAE
_audit_creation_date 2017-10-12
_audit_creation_method CSD-ConQuest-V1
_database_code_CSD REMQAE
_database_code_depnum_ccdc_archive 'CCDC 1497836'
_chemical_formula_sum 'C11 H10 N2 O1'
_chemical_formula_moiety
;
C11 H10 N2 O1
;
_journal_coden_Cambridge 35
_journal_volume 82
_journal_year 2017
_journal_page_first 10742
_journal_name_full 'J.Org.Chem. '
loop_
_publ_author_name
"Fei Meng"
"Honglin Zhang"
"Kang Guo"
"Jiayue Dong"
"Ai-Min Lu"
"Yingguang Zhu"
_chemical_name_systematic
;
(3-phenyl-4,5-dihydro-1,2-oxazol-5-yl)acetonitrile
;
_cell_volume    980.570
_exptl_crystal_colour 'colorless'
_exptl_crystal_density_diffrn 1.261
_exptl_crystal_description 'block'
_diffrn_ambient_temperature 296
#These two values have been output from a single CSD field.
_refine_ls_R_factor_gt 0.0481
_refine_ls_wR_factor_gt 0.0481
_symmetry_cell_setting orthorhombic
_symmetry_space_group_name_H-M 'P 21 21 21'
_symmetry_Int_Tables_number 19
loop_
_symmetry_equiv_pos_site_id
_symmetry_equiv_pos_as_xyz
1 x,y,z
2 1/2+x,1/2-y,-z
3 -x,1/2+y,1/2-z
4 1/2-x,-y,1/2+z
_cell_length_a 5.608(2)
_cell_length_b 8.703(3)
_cell_length_c 20.091(7)
_cell_angle_alpha 90
_cell_angle_beta 90
_cell_angle_gamma 90
_cell_formula_units_Z 4
loop_
_atom_type_symbol
_atom_type_radius_bond
C 0.68
H 0.23
N 0.68
O 0.68
loop_
_atom_site_label
_atom_site_type_symbol
_atom_site_fract_x
_atom_site_fract_y
_atom_site_fract_z
C1 C 0.6880(4) 0.6886(2) 0.22696(11)
C2 C 0.8902(5) 0.7778(3) 0.23757(13)
H1 H 0.94990 0.83870 0.20340
C3 C 1.0020(5) 0.7764(3) 0.29848(15)
H2 H 1.13850 0.83520 0.30510
C4 C 0.9136(6) 0.6892(3) 0.34914(15)
H3 H 0.98960 0.68930 0.39030
C5 C 0.7168(6) 0.6029(3) 0.34002(14)
H4 H 0.65750 0.54410 0.37500
C6 C 0.6025(5) 0.6010(3) 0.27901(12)
H5 H 0.46750 0.54040 0.27300
C7 C 0.5663(4) 0.6872(3) 0.16238(12)
C8 C 0.3645(5) 0.5853(3) 0.14387(11)
H6 H 0.22620 0.60410 0.17170
H7 H 0.40880 0.47780 0.14710
C9 C 0.3176(5) 0.6312(3) 0.07253(13)
H8 H 0.15440 0.67050 0.06860
C10 C 0.3575(4) 0.5083(3) 0.02074(12)
H9 H 0.23640 0.42940 0.02550
H10 H 0.34130 0.55300 -0.02330
C11 C 0.5899(5) 0.4393(3) 0.02687(12)
N1 N 0.6313(5) 0.7776(2) 0.11617(11)
N2 N 0.7724(5) 0.3862(3) 0.03275(13)
O1 O 0.4861(5) 0.7561(2) 0.06012(9)
#END
