
#######################################################################
#
#                 Cambridge Crystallographic Data Centre
#                                CCDC
#
#######################################################################
#
# If this CIF has been generated from an entry in the Cambridge
# Structural Database, then it will include bibliographic, chemical,
# crystal, experimental, refinement or atomic coordinate data resulting
# from the CCDC's data processing and validation procedures.
#
#######################################################################

data_CSD_CIF_REMTUB
_audit_creation_date 2017-10-12
_audit_creation_method CSD-ConQuest-V1
_database_code_CSD REMTUB
_database_code_depnum_ccdc_archive 'CCDC 1560536'
_chemical_formula_sum 'C26 H23 N1 O5'
_chemical_formula_moiety
;
C26 H23 N1 O5
;
_journal_coden_Cambridge 35
_journal_volume 82
_journal_year 2017
_journal_page_first 10680
_journal_name_full 'J.Org.Chem. '
loop_
_publ_author_name
"Pan-Lin Shao"
"Zi-Rui Li"
"Zhi-Peng Wang"
"Ming-Hui Zhou"
"Qi Wu"
"Ping Hu"
"Yun He"
_chemical_name_systematic
;
3-(benzyloxy)-5,5-dimethyl-3''-phenyl-4H-dispiro[1,3-oxazolidine-2,3'-[1]benzo
furan-2',2''-oxiran]-4-one
;
_cell_volume   2323.642
_exptl_crystal_colour 'colorless'
_exptl_crystal_density_diffrn 1.228
_exptl_crystal_description 'block'
_diffrn_ambient_temperature 293
#These two values have been output from a single CSD field.
_refine_ls_R_factor_gt 0.0581
_refine_ls_wR_factor_gt 0.0581
_symmetry_cell_setting triclinic
_symmetry_space_group_name_H-M 'P -1'
_symmetry_Int_Tables_number 2
loop_
_symmetry_equiv_pos_site_id
_symmetry_equiv_pos_as_xyz
1 x,y,z
2 -x,-y,-z
_cell_length_a 11.6822(7)
_cell_length_b 11.7363(11)
_cell_length_c 17.1486(12)
_cell_angle_alpha 87.187(6)
_cell_angle_beta 89.117(5)
_cell_angle_gamma 81.697(6)
_cell_formula_units_Z 4
loop_
_atom_type_symbol
_atom_type_radius_bond
C 0.68
H 0.23
N 0.68
O 0.68
loop_
_atom_site_label
_atom_site_type_symbol
_atom_site_fract_x
_atom_site_fract_y
_atom_site_fract_z
O1 O 0.59400(13) 0.34711(14) 0.64235(9)
O2 O 0.58254(17) 0.56650(16) 0.56137(11)
O3 O 0.36338(15) 0.55403(14) 0.70357(10)
O4 O 0.32379(17) 0.28017(17) 0.74857(11)
O5 O 0.25211(15) 0.38691(16) 0.63554(13)
N1 N 0.52182(16) 0.44816(17) 0.65869(11)
C1 C 0.7545(3) 0.1364(3) 0.70154(19)
H1 H 0.69452 0.14055 0.73802
C2 C 0.8197(4) 0.0317(4) 0.6888(3)
H2 H 0.80364 -0.03424 0.71671
C3 C 0.9068(4) 0.0242(4) 0.6361(3)
H3 H 0.95077 -0.04686 0.62803
C4 C 0.9308(3) 0.1193(4) 0.5948(2)
H4 H 0.99071 0.11367 0.55825
C5 C 0.8652(2) 0.2256(3) 0.60762(18)
H5 H 0.88155 0.29112 0.57944
C6 C 0.7765(2) 0.2345(2) 0.66144(15)
C7 C 0.7076(2) 0.3486(2) 0.67529(17)
H6 H 0.70116 0.36105 0.73079
H7 H 0.74431 0.40995 0.65010
C8 C 0.5154(2) 0.5457(2) 0.61282(15)
C9 C 0.4099(2) 0.6236(2) 0.64124(16)
C10 C 0.4443(3) 0.7289(2) 0.67705(18)
H8 H 0.37712 0.77342 0.69890
H9 H 0.47779 0.77493 0.63751
H10 H 0.49985 0.70506 0.71745
C11 C 0.3225(3) 0.6528(3) 0.57653(18)
H11 H 0.30330 0.58300 0.55666
H12 H 0.35485 0.69677 0.53526
H13 H 0.25393 0.69733 0.59662
C12 C 0.4225(2) 0.4400(2) 0.70934(15)
C13 C 0.4459(2) 0.4005(2) 0.79172(15)
C14 C 0.5105(2) 0.4408(3) 0.84821(17)
H14 H 0.55411 0.49967 0.83600
C15 C 0.5094(3) 0.3922(3) 0.92334(18)
H15 H 0.55400 0.41701 0.96181
C16 C 0.4419(3) 0.3070(3) 0.94114(19)
H16 H 0.43931 0.27723 0.99232
C17 C 0.3788(3) 0.2651(3) 0.88528(19)
H17 H 0.33470 0.20655 0.89732
C18 C 0.3833(2) 0.3130(2) 0.81065(16)
C19 C 0.3473(2) 0.3505(2) 0.68238(15)
C20 C 0.3487(2) 0.3061(2) 0.60449(15)
H18 H 0.39833 0.34243 0.56715
C21 C 0.3262(2) 0.1913(2) 0.58286(18)
C22 C 0.2568(3) 0.1245(3) 0.6237(2)
H19 H 0.22111 0.15029 0.66972
C23 C 0.2393(4) 0.0182(4) 0.5970(3)
H20 H 0.19299 -0.02713 0.62555
C24 C 0.2898(4) -0.0190(3) 0.5295(3)
H21 H 0.27708 -0.08942 0.51134
C25 C 0.3589(4) 0.0459(3) 0.4883(2)
H22 H 0.39360 0.02017 0.44194
C26 C 0.3771(3) 0.1502(3) 0.5156(2)
H23 H 0.42548 0.19391 0.48747
O6 O 0.04417(13) 0.62636(14) 0.86277(9)
O7 O 0.09159(15) 0.40808(16) 0.94611(11)
O8 O -0.13687(14) 0.42459(14) 0.81249(10)
O9 O -0.23577(16) 0.69888(16) 0.75256(11)
O10 O -0.29014(15) 0.61457(16) 0.87175(12)
N2 N -0.00374(16) 0.52727(16) 0.85135(11)
C27 C 0.1211(3) 0.8317(3) 0.7967(2)
H24 H 0.05505 0.81998 0.77042
C28 C 0.1471(5) 0.9402(4) 0.8003(3)
H25 H 0.09901 1.00203 0.77679
C29 C 0.2429(5) 0.9582(4) 0.8380(3)
H26 H 0.26051 1.03268 0.84052
C30 C 0.3144(4) 0.8681(5) 0.8726(3)
H27 H 0.38095 0.88090 0.89780
C31 C 0.2865(3) 0.7561(3) 0.86962(17)
H28 H 0.33355 0.69416 0.89382
C32 C 0.1899(2) 0.7389(2) 0.83103(15)
C33 C 0.1580(2) 0.6209(2) 0.82631(16)
H29 H 0.15539 0.60028 0.77236
H30 H 0.21361 0.56442 0.85398
C34 C 0.0161(2) 0.4314(2) 0.89734(15)
C35 C -0.0715(2) 0.3564(2) 0.87382(16)
C36 C -0.0120(3) 0.2461(3) 0.8399(2)
H31 H -0.06925 0.20290 0.82163
H32 H 0.03369 0.20083 0.87949
H33 H 0.03711 0.26458 0.79717
C37 C -0.1511(3) 0.3357(3) 0.94236(18)
H34 H -0.18376 0.40827 0.96251
H35 H -0.10771 0.28942 0.98257
H36 H -0.21207 0.29630 0.92530
C38 C -0.1031(2) 0.5354(2) 0.80100(14)
C39 C -0.0815(2) 0.5666(2) 0.71730(14)
C40 C 0.0009(2) 0.5181(3) 0.66494(16)
H37 H 0.05492 0.45512 0.68008
C41 C 0.0005(3) 0.5655(3) 0.59032(19)
H38 H 0.05578 0.53508 0.55445
C42 C -0.0816(3) 0.6585(3) 0.56781(19)
H39 H -0.08143 0.68827 0.51656
C43 C -0.1628(3) 0.7073(3) 0.61938(18)
H40 H -0.21709 0.77028 0.60445
C44 C -0.1606(2) 0.6593(2) 0.69388(16)
C45 C -0.1997(2) 0.6346(2) 0.82184(15)
C46 C -0.2112(2) 0.6932(2) 0.89520(15)
H41 H -0.15524 0.66157 0.93546
C47 C -0.2553(2) 0.8167(2) 0.89960(15)
C48 C -0.3568(2) 0.8688(3) 0.86682(18)
H42 H -0.40256 0.82546 0.84003
C49 C -0.3916(3) 0.9856(3) 0.8734(2)
H43 H -0.46093 1.02002 0.85114
C50 C -0.3257(4) 1.0509(3) 0.9119(2)
H44 H -0.34980 1.12942 0.91621
C51 C -0.2242(4) 1.0002(3) 0.9442(2)
H45 H -0.17780 1.04440 0.96969
C52 C -0.1900(3) 0.8832(3) 0.93903(18)
H46 H -0.12170 0.84877 0.96265
#END
