
#######################################################################
#
#                 Cambridge Crystallographic Data Centre
#                                CCDC
#
#######################################################################
#
# If this CIF has been generated from an entry in the Cambridge
# Structural Database, then it will include bibliographic, chemical,
# crystal, experimental, refinement or atomic coordinate data resulting
# from the CCDC's data processing and validation procedures.
#
#######################################################################

data_CSD_CIF_REMVAJ
_audit_creation_date 2017-10-12
_audit_creation_method CSD-ConQuest-V1
_database_code_CSD REMVAJ
_database_code_depnum_ccdc_archive 'CCDC 1560971'
_chemical_formula_sum 'C19 H19 N1 O4'
_chemical_formula_moiety
;
C19 H19 N1 O4
;
_journal_coden_Cambridge 35
_journal_volume 82
_journal_year 2017
_journal_page_first 10680
_journal_name_full 'J.Org.Chem. '
loop_
_publ_author_name
"Pan-Lin Shao"
"Zi-Rui Li"
"Zhi-Peng Wang"
"Ming-Hui Zhou"
"Qi Wu"
"Ping Hu"
"Yun He"
_chemical_name_systematic
;
2-benzyl-3'-hydroxy-5',5'-dimethyl-2H,4'H-spiro[1-benzofuran-3,2'-[1,3]oxazoli
din]-4'-one
;
_cell_volume   9628.164
_exptl_crystal_density_diffrn 1.01
_exptl_special_details
;
We calculate 27 percent void space in the structure

;
_diffrn_ambient_temperature 293
#These two values have been output from a single CSD field.
_refine_ls_R_factor_gt 0.0929
_refine_ls_wR_factor_gt 0.0929
_symmetry_cell_setting rhombohedral
_symmetry_space_group_name_H-M 'R -3'
_symmetry_Int_Tables_number 148
loop_
_symmetry_equiv_pos_site_id
_symmetry_equiv_pos_as_xyz
1 x,y,z
2 -y,x-y,z
3 -x+y,-x,z
4 2/3+x,1/3+y,1/3+z
5 2/3-y,1/3+x-y,1/3+z
6 2/3-x+y,1/3-x,1/3+z
7 1/3+x,2/3+y,2/3+z
8 1/3-y,2/3+x-y,2/3+z
9 1/3-x+y,2/3-x,2/3+z
10 -x,-y,-z
11 y,-x+y,-z
12 x-y,x,-z
13 -2/3-x,-1/3-y,-1/3-z
14 -2/3+y,-1/3-x+y,-1/3-z
15 -2/3+x-y,-1/3+x,-1/3-z
16 -1/3-x,-2/3-y,-2/3-z
17 -1/3+y,-2/3-x+y,-2/3-z
18 -1/3+x-y,-2/3+x,-2/3-z
_cell_length_a 35.153(2)
_cell_length_b 35.153(2)
_cell_length_c 8.9968(5)
_cell_angle_alpha 90
_cell_angle_beta 90
_cell_angle_gamma 120
_cell_formula_units_Z 18
loop_
_atom_type_symbol
_atom_type_radius_bond
C 0.68
H 0.23
N 0.68
O 0.68
loop_
_atom_site_label
_atom_site_type_symbol
_atom_site_fract_x
_atom_site_fract_y
_atom_site_fract_z
O1 O 0.60110(7) 0.68248(7) 0.4588(2)
H1 H 0.60650 0.66680 0.40570
O2 O 0.67769(8) 0.70927(7) 0.6311(2)
O3 O 0.68231(8) 0.79449(7) 0.4112(3)
O4 O 0.57909(9) 0.75754(9) 0.2498(3)
N1 N 0.63763(8) 0.72399(8) 0.4662(3)
C1 C 0.67256(10) 0.73421(10) 0.5488(3)
C2 C 0.63694(11) 0.74571(11) 0.2068(4)
C3 C 0.64112(10) 0.75846(10) 0.3677(3)
C4 C 0.74774(12) 0.79106(13) 0.4606(5)
H2 H 0.74260 0.77320 0.37400
H3 H 0.76280 0.78380 0.53420
H4 H 0.76540 0.82150 0.43410
C5 C 0.60549(11) 0.77191(11) 0.3845(4)
H5 H 0.62050 0.80410 0.38700
C6 C 0.70432(11) 0.78282(10) 0.5227(4)
C7 C 0.60085(12) 0.74646(11) 0.1492(4)
C8 C 0.70956(15) 0.80878(12) 0.6634(5)
H6 H 0.72470 0.83960 0.64070
H7 H 0.72610 0.80280 0.73500
H8 H 0.68110 0.80040 0.70340
C9 C 0.64836(15) 0.72093(14) -0.0261(4)
H9 H 0.66400 0.71210 -0.08620
C10 C 0.66065(13) 0.73243(13) 0.1213(4)
H10 H 0.68440 0.73120 0.16130
C11 C 0.57641(13) 0.75515(13) 0.5198(4)
H11 H 0.55620 0.72390 0.50830
H12 H 0.59440 0.75920 0.60650
C12 C 0.61278(16) 0.72275(14) -0.0826(4)
H13 H 0.60510 0.71530 -0.18170
C13 C 0.58808(14) 0.73522(13) 0.0028(4)
H14 H 0.56400 0.73600 -0.03640
C14 C 0.55071(14) 0.77822(14) 0.5445(5)
C15 C 0.56983(18) 0.81924(16) 0.6099(5)
H15 H 0.59890 0.83240 0.64130
C16 C 0.5083(2) 0.7610(2) 0.4912(10)
H16 H 0.49500 0.73390 0.44370
C17 C 0.5468(2) 0.8411(2) 0.6297(6)
H17 H 0.55980 0.86780 0.67940
C18 C 0.5053(3) 0.8236(3) 0.5768(8)
H18 H 0.49010 0.83880 0.58740
C19 C 0.4853(3) 0.7829(3) 0.5066(11)
H19 H 0.45680 0.77060 0.47050
#END
