
#######################################################################
#
#                 Cambridge Crystallographic Data Centre
#                                CCDC
#
#######################################################################
#
# If this CIF has been generated from an entry in the Cambridge
# Structural Database, then it will include bibliographic, chemical,
# crystal, experimental, refinement or atomic coordinate data resulting
# from the CCDC's data processing and validation procedures.
#
#######################################################################

data_CSD_CIF_REMZEQ
_audit_creation_date 2013-02-22
_audit_creation_method CSD-ConQuest-V1
_database_code_CSD REMZEQ
_database_code_depnum_ccdc_archive 'CCDC 904078'
_chemical_formula_sum 'C25 H22 N2 O3'
_chemical_formula_moiety
;
C25 H22 N2 O3
;
_journal_coden_Cambridge 1336
_journal_volume 14
_journal_year 2012
_journal_page_first 5180
_journal_name_full 'Org.Lett. '
loop_
_publ_author_name
"Dong-Liang Mo"
"D.A.Wink"
"L.L.Anderson"
_chemical_name_systematic
;
4'-Butyl-3'-(4-nitrophenyl)-4'H-spiro[fluorene-9,5'-[1,2]oxazole]
;
_chemical_melting_point 383.15
_cell_volume   2136.670
_exptl_crystal_colour 'yellow'
_exptl_crystal_density_diffrn 1.239
_exptl_special_details
;
Melting point range 383.15-385.15K

;
_exptl_crystal_description 'prism'
_diffrn_ambient_temperature 298
_refine_special_details
;
C20,C21 and C22,C23 disordered over two sites with occupancies 0.567:0.433; 
C70,C71 and C72,C73 disordered over two sites with occupancies 0.568:0.432.
;
#These two values have been output from a single CSD field.
_refine_ls_R_factor_gt 0.0745
_refine_ls_wR_factor_gt 0.0745
_symmetry_cell_setting triclinic
_symmetry_space_group_name_H-M 'P -1'
_symmetry_Int_Tables_number 2
loop_
_symmetry_equiv_pos_site_id
_symmetry_equiv_pos_as_xyz
1 x,y,z
2 -x,-y,-z
_cell_length_a 12.4131(19)
_cell_length_b 12.868(2)
_cell_length_c 13.645(2)
_cell_angle_alpha 94.697(3)
_cell_angle_beta 97.648(3)
_cell_angle_gamma 96.324(3)
_cell_formula_units_Z 4
loop_
_atom_type_symbol
_atom_type_radius_bond
C 0.68
H 0.23
N 0.68
O 0.68
loop_
_atom_site_label
_atom_site_type_symbol
_atom_site_fract_x
_atom_site_fract_y
_atom_site_fract_z
C1 C 0.6530(4) 0.5948(3) 0.4432(3)
H1 H 0.59700 0.63210 0.41870
C2 C 0.6429(5) 0.4862(4) 0.4243(4)
H2 H 0.57950 0.45000 0.38760
C3 C 0.7267(6) 0.4329(4) 0.4601(5)
H3 H 0.71980 0.36040 0.44610
C4 C 0.8208(5) 0.4836(4) 0.5162(4)
H4 H 0.87730 0.44620 0.53970
C5 C 1.0098(4) 0.6519(4) 0.6612(3)
H5 H 1.03300 0.58580 0.66360
C6 C 1.0685(4) 0.7370(6) 0.7181(4)
H6 H 1.13320 0.72830 0.75780
C7 C 1.0351(4) 0.8342(5) 0.7184(3)
H7 H 1.07520 0.88990 0.76000
C8 C 0.9408(3) 0.8508(3) 0.6565(3)
H8 H 0.91790 0.91720 0.65580
C9 C 0.7776(3) 0.7619(3) 0.5240(2)
C10 C 0.7458(3) 0.6455(3) 0.4979(3)
C11 C 0.8297(4) 0.5912(3) 0.5369(3)
C12 C 0.9144(3) 0.6658(3) 0.5993(3)
C13 C 0.8820(3) 0.7658(3) 0.5961(2)
O1 O 0.69544(19) 0.80826(19) 0.57664(17)
N1 N 0.6613(2) 0.8937(2) 0.5302(2)
C14 C 0.7067(2) 0.9051(2) 0.4522(2)
C15 C 0.7824(3) 0.8249(3) 0.4313(2)
H9 H 0.74680 0.77830 0.37300
C16 C 0.8949(3) 0.8665(3) 0.4108(3)
H10 H 0.93770 0.90020 0.47200
H11 H 0.88800 0.91910 0.36410
C17 C 0.9550(3) 0.7801(4) 0.3685(4)
H12 H 0.91690 0.74970 0.30410
H13 H 0.95950 0.72490 0.41270
C18 C 1.0785(9) 0.8355(10) 0.3579(10)
H14 H 1.07370 0.88510 0.30810
H15 H 1.11250 0.87350 0.42080
C19 C 1.1464(7) 0.7511(7) 0.3282(6)
H16 H 1.21790 0.78280 0.32000
H17 H 1.11150 0.71300 0.26670
H18 H 1.15290 0.70380 0.37890
C20 C 0.6764(2) 0.9876(2) 0.3889(2)
C21 C 0.6173(3) 1.0666(3) 0.4238(3)
H19 H 0.59880 1.06720 0.48760
C22 C 0.5868(3) 1.1426(3) 0.3651(3)
H20 H 0.54820 1.19510 0.38870
C23 C 0.6143(3) 1.1401(2) 0.2706(2)
N2 N 0.5829(2) 1.2218(2) 0.2076(3)
O2 O 0.5460(3) 1.2960(2) 0.2435(2)
C24 C 0.6705(3) 1.0638(3) 0.2336(2)
H21 H 0.68810 1.06380 0.16950
O3 O 0.5937(3) 1.2112(3) 0.1204(3)
C25 C 0.7005(3) 0.9870(3) 0.2925(2)
H22 H 0.73740 0.93400 0.26730
C26 C 0.7052(5) 0.6763(4) 1.1138(4)
H23 H 0.65550 0.72480 1.10410
C27 C 0.6790(6) 0.5868(6) 1.1600(6)
H24 H 0.61080 0.57340 1.18060
C28 C 0.7552(7) 0.5183(5) 1.1746(5)
H25 H 0.73590 0.45750 1.20400
C29 C 0.8585(6) 0.5341(4) 1.1484(4)
H26 H 0.90960 0.48750 1.16150
C30 C 1.0860(5) 0.6260(4) 1.0663(4)
H27 H 1.09830 0.56170 1.08940
C31 C 1.1679(4) 0.6884(6) 1.0290(4)
H28 H 1.23570 0.66450 1.02730
C32 C 1.1519(4) 0.7797(6) 0.9962(4)
H29 H 1.20850 0.81880 0.97230
C33 C 1.0524(4) 0.8184(4) 0.9968(3)
H30 H 1.04190 0.88290 0.97330
C34 C 0.8520(3) 0.7838(3) 1.0346(3)
C35 C 0.8036(4) 0.6915(3) 1.0835(3)
C36 C 0.8820(4) 0.6230(3) 1.1016(3)
C37 C 0.9834(4) 0.6651(3) 1.0674(3)
C38 C 0.9687(3) 0.7599(3) 1.0328(2)
O4 O 0.8508(2) 0.88034(19) 1.10094(17)
N3 N 0.7845(2) 0.9470(2) 1.0521(2)
C39 C 0.7524(3) 0.9092(3) 0.9625(2)
C40 C 0.7958(3) 0.8092(3) 0.9329(3)
H31 H 0.85430 0.82760 0.89350
C41 C 0.7165(3) 0.7254(3) 0.8707(3)
H32 H 0.65760 0.70580 0.90820
H33 H 0.68470 0.75530 0.81210
C42 C 0.7618(4) 0.6282(3) 0.8376(3)
H34 H 0.79310 0.59570 0.89470
H35 H 0.81890 0.64490 0.79720
C43 C 0.6587(14) 0.546(1) 0.771(1)
H36 H 0.60330 0.58490 0.73950
H37 H 0.68530 0.50270 0.72010
C44 C 0.6275(12) 0.5006(11) 0.8220(11)
H38 H 0.56570 0.45310 0.78920
H39 H 0.60480 0.54520 0.87330
H40 H 0.68280 0.46110 0.85070
C45 C 0.6884(3) 0.9721(2) 0.8963(2)
C46 C 0.6189(3) 1.0382(3) 0.9343(3)
H41 H 0.60600 1.03580 0.99980
C47 C 0.5692(3) 1.1066(3) 0.8767(3)
H42 H 0.52400 1.15150 0.90280
C48 C 0.5873(3) 1.1075(3) 0.7800(2)
N4 N 0.5371(2) 1.1829(2) 0.7185(3)
O5 O 0.5601(2) 1.1888(2) 0.6351(2)
C49 C 0.6511(3) 1.0407(3) 0.7389(3)
H43 H 0.66050 1.04140 0.67250
O6 O 0.4730(2) 1.2350(2) 0.7521(2)
C50 C 0.7013(3) 0.9726(3) 0.7970(3)
H44 H 0.74420 0.92640 0.76950
C51? C 1.0528(10) 0.7983(11) 0.3328(9)
C52? C 1.1343(9) 0.8220(9) 0.4263(9)
C53? C 0.7126(11) 0.5564(8) 0.7598(8)
C54? C 0.6873(9) 0.4471(9) 0.7416(8)
H45? H 1.05350 0.85740 0.29310
H46? H 1.06750 0.73680 0.29310
H47? H 1.20680 0.83460 0.40910
H48? H 1.12980 0.76340 0.46530
H49? H 1.11810 0.88330 0.46390
H50? H 0.75400 0.57370 0.70660
H51? H 0.64220 0.58120 0.74210
H52? H 0.64940 0.42950 0.67520
H53? H 0.64150 0.42210 0.78820
H54? H 0.75370 0.41490 0.74880
#END
