
#######################################################################
#
#                 Cambridge Crystallographic Data Centre
#                                CCDC
#
#######################################################################
#
# If this CIF has been generated from an entry in the Cambridge
# Structural Database, then it will include bibliographic, chemical,
# crystal, experimental, refinement or atomic coordinate data resulting
# from the CCDC's data processing and validation procedures.
#
#######################################################################

data_CSD_CIF_REMZAM
_audit_creation_date 2013-02-22
_audit_creation_method CSD-ConQuest-V1
_database_code_CSD REMZAM
_database_code_depnum_ccdc_archive 'CCDC 904077'
_chemical_formula_sum 'C21 H19 N1 O3'
_chemical_formula_moiety
;
C21 H19 N1 O3
;
_journal_coden_Cambridge 1336
_journal_volume 14
_journal_year 2012
_journal_page_first 5180
_journal_name_full 'Org.Lett. '
loop_
_publ_author_name
"Dong-Liang Mo"
"D.A.Wink"
"L.L.Anderson"
_chemical_name_systematic
;
N-1,4-Dioxaspiro[4.5]dec-7-en-8-yl-N-9H-fluoren-9-ylideneamine oxide
;
_chemical_melting_point 453.15
_cell_volume   1667.524
_exptl_crystal_colour 'yellow'
_exptl_crystal_density_diffrn 1.328
_exptl_special_details
;
Melting point range 453.15-454.15K

;
_exptl_crystal_description 'block'
_exptl_crystal_preparation 'dichloromethane/ethanol'
_diffrn_ambient_temperature 296
#These two values have been output from a single CSD field.
_refine_ls_R_factor_gt 0.0548
_refine_ls_wR_factor_gt 0.0548
_symmetry_cell_setting monoclinic
_symmetry_space_group_name_H-M 'P 21/c'
_symmetry_Int_Tables_number 14
loop_
_symmetry_equiv_pos_site_id
_symmetry_equiv_pos_as_xyz
1 x,y,z
2 -x,1/2+y,1/2-z
3 -x,-y,-z
4 x,-1/2-y,-1/2+z
_cell_length_a 12.1767(7)
_cell_length_b 13.3547(7)
_cell_length_c 10.3670(6)
_cell_angle_alpha 90
_cell_angle_beta 98.454(1)
_cell_angle_gamma 90
_cell_formula_units_Z 4
loop_
_atom_type_symbol
_atom_type_radius_bond
C 0.68
H 0.23
N 0.68
O 0.68
loop_
_atom_site_label
_atom_site_type_symbol
_atom_site_fract_x
_atom_site_fract_y
_atom_site_fract_z
N1 N 0.40021(11) 0.20036(10) 0.55481(12)
O1 O 0.39820(11) 0.27206(10) 0.47076(13)
C1 C 0.29631(12) 0.07418(11) 0.67382(14)
C2 C 0.30828(12) 0.15947(11) 0.58504(14)
C3 C 0.19700(13) 0.19323(12) 0.52958(15)
C4 C 0.51099(12) 0.16972(11) 0.61216(14)
C5 C 0.58041(13) 0.12988(13) 0.51784(15)
H1 H 0.57570 0.17450 0.44340
H2 H 0.55220 0.06490 0.48680
C6 C 0.12037(13) 0.13272(12) 0.58320(15)
O2 O 0.82037(10) 0.05703(11) 0.77063(14)
C7 C 0.16020(15) 0.26889(14) 0.44165(16)
H3 H 0.21030 0.30910 0.40590
C8 C 0.70158(13) 0.11949(13) 0.58001(17)
H4 H 0.74040 0.07580 0.52700
H5 H 0.73730 0.18460 0.58420
C9 C 0.18140(13) 0.05983(12) 0.67134(15)
C10 C 0.70814(13) 0.07656(13) 0.71581(17)
C11 C 0.37012(14) 0.01086(12) 0.74889(15)
H6 H 0.44620 0.01870 0.75070
C12 C 0.54315(14) 0.18230(14) 0.73832(16)
H7 H 0.49570 0.21350 0.78840
C13 C 0.00734(14) 0.14749(16) 0.54891(19)
H8 H -0.04340 0.10730 0.58370
C14 C 0.65475(16) 0.14720(17) 0.80208(18)
H9 H 0.64690 0.11350 0.88310
H10 H 0.70270 0.20470 0.82290
C15 C -0.02863(16) 0.22298(17) 0.4622(2)
H11 H -0.10440 0.23400 0.43920
C16 C 0.14162(15) -0.01530(14) 0.74438(19)
H12 H 0.06560 -0.02410 0.74240
C17 C 0.32948(17) -0.06412(14) 0.82105(18)
H13 H 0.37890 -0.10680 0.87110
C18 C 0.21615(18) -0.07673(15) 0.8200(2)
H14 H 0.19050 -0.12670 0.87040
C19 C 0.04612(16) 0.28269(16) 0.40870(18)
H15 H 0.01970 0.33280 0.34990
O3 O 0.65384(11) -0.01772(10) 0.70306(14)
C20 C 0.71489(17) -0.08345(17) 0.7940(2)
H16 H 0.71220 -0.15150 0.76110
H17 H 0.68660 -0.08240 0.87670
C21 C 0.82974(19) -0.0428(2) 0.8081(3)
H18 H 0.86550 -0.04840 0.89780
H19 H 0.87350 -0.07940 0.75290
#END
