
#######################################################################
#
#                 Cambridge Crystallographic Data Centre
#                                CCDC
#
#######################################################################
#
# If this CIF has been generated from an entry in the Cambridge
# Structural Database, then it will include bibliographic, chemical,
# crystal, experimental, refinement or atomic coordinate data resulting
# from the CCDC's data processing and validation procedures.
#
#######################################################################

data_CSD_CIF_RENDOF
_audit_creation_date 2013-02-22
_audit_creation_method CSD-ConQuest-V1
_database_code_CSD RENDOF
_database_code_depnum_ccdc_archive 'CCDC 911984'
_chemical_formula_sum 'C19 H24 N2 O6'
_chemical_formula_moiety
;
C19 H24 N2 O6
;
_journal_coden_Cambridge 1336
_journal_volume 14
_journal_year 2012
_journal_page_first 5298
_journal_name_full 'Org.Lett. '
loop_
_publ_author_name
"Y.Mukaeda"
"T.Kato"
"S.Hosokawa"
_chemical_name_systematic
;
syn-3-(5-Hydroxy-2,4-dimethyl-5-(4-nitrophenyl)pent-2-enoyl)-4-isopropyl-1,3-o
xazolidin-2-one
;
_chemical_melting_point 425.15
_cell_volume   1888.046
_exptl_crystal_colour 'colorless'
_exptl_crystal_density_diffrn 1.324
_exptl_crystal_description 'prism'
_diffrn_ambient_temperature 123
#These two values have been output from a single CSD field.
_refine_ls_R_factor_gt 0.0397
_refine_ls_wR_factor_gt 0.0397
_symmetry_cell_setting monoclinic
_symmetry_space_group_name_H-M 'C 2'
_symmetry_Int_Tables_number 5
loop_
_symmetry_equiv_pos_site_id
_symmetry_equiv_pos_as_xyz
1 x,y,z
2 -x,y,-z
3 1/2+x,1/2+y,z
4 1/2-x,1/2+y,-z
_cell_length_a 24.9420(5)
_cell_length_b 6.13836(11)
_cell_length_c 12.4356(3)
_cell_angle_alpha 90
_cell_angle_beta 97.4055(9)
_cell_angle_gamma 90
_cell_formula_units_Z 4
loop_
_atom_type_symbol
_atom_type_radius_bond
C 0.68
H 0.23
N 0.68
O 0.68
loop_
_atom_site_label
_atom_site_type_symbol
_atom_site_fract_x
_atom_site_fract_y
_atom_site_fract_z
O1 O 0.37083(6) 0.2347(3) 0.37580(11)
O2 O 0.22139(5) -0.0748(3) 0.44646(11)
O3 O 0.28556(6) -0.0694(3) 0.58900(11)
O4 O 0.52449(6) 0.3607(3) 0.65393(12)
O5 O 0.62949(9) -0.2818(4) 1.12691(15)
O6 O 0.66756(7) 0.0338(4) 1.14023(13)
N1 N 0.63579(7) -0.0981(4) 1.09355(15)
N2 N 0.30505(7) 0.0059(3) 0.41433(13)
C1 C 0.27267(8) -0.0484(4) 0.49348(16)
C2 C 0.21797(8) -0.0516(5) 0.32930(16)
C3 C 0.35598(8) 0.1033(4) 0.43917(16)
C4 C 0.57890(8) 0.2375(4) 0.85581(16)
C5 C 0.54500(8) 0.0876(4) 0.79643(16)
C6 C 0.45034(8) 0.1577(4) 0.70793(16)
C7 C 0.43904(9) 0.3345(5) 0.78847(17)
C8 C 0.41545(8) 0.1916(4) 0.60101(16)
C9 C 0.60875(8) 0.1784(4) 0.95392(17)
C10 C 0.57064(9) -0.1844(4) 0.93424(18)
C11 C 0.29694(8) -0.0719(5) 0.21461(16)
C12 C 0.54195(9) -0.1240(4) 0.83634(18)
C13 C 0.39002(8) 0.0336(4) 0.54065(17)
C14 C 0.51069(8) 0.1523(4) 0.69136(17)
C15 C 0.27289(8) 0.0396(4) 0.30769(15)
C16 C 0.60386(8) -0.0312(5) 0.99111(17)
C17 C 0.3958(1) -0.2056(4) 0.5652(2)
C18 C 0.26037(10) -0.0232(5) 0.10930(18)
C19 C 0.30667(10) -0.3147(5) 0.2310(2)
H1 H 0.55460 0.35380 0.63050
H2 H 0.18840 0.04960 0.30190
H3 H 0.21100 -0.19450 0.29320
H4 H 0.58170 0.38150 0.82900
H5 H 0.44080 0.01350 0.73780
H6 H 0.44930 0.47680 0.76190
H7 H 0.46010 0.30500 0.85910
H8 H 0.40040 0.33500 0.79620
H9 H 0.41120 0.33650 0.57450
H10 H 0.63200 0.28020 0.99430
H11 H 0.56770 -0.32750 0.96190
H12 H 0.33270 -0.00230 0.20920
H13 H 0.51980 -0.22830 0.79540
H14 H 0.51570 0.04160 0.63450
H15 H 0.26930 0.19940 0.29270
H16 H 0.37040 -0.28780 0.51380
H17 H 0.38790 -0.23300 0.63920
H18 H 0.43280 -0.25190 0.55870
H19 H 0.22500 -0.09090 0.11160
H20 H 0.27670 -0.08210 0.04790
H21 H 0.25590 0.13480 0.10080
H22 H 0.32470 -0.37230 0.17150
H23 H 0.27200 -0.38910 0.23220
H24 H 0.32970 -0.33910 0.30000
#END
