
#######################################################################
#
#                 Cambridge Crystallographic Data Centre
#                                CCDC
#
#######################################################################
#
# If this CIF has been generated from an entry in the Cambridge
# Structural Database, then it will include bibliographic, chemical,
# crystal, experimental, refinement or atomic coordinate data resulting
# from the CCDC's data processing and validation procedures.
#
#######################################################################

data_CSD_CIF_REPXUG
_audit_creation_date 2007-02-05
_audit_creation_method CSD-ConQuest-V1
_database_code_CSD REPXUG
_database_code_depnum_ccdc_archive 'CCDC 294739'
_chemical_formula_sum 'C8 H7 N3 O1'
_chemical_formula_moiety
;
C8 H7 N3 O1
;
_journal_coden_Cambridge 1003
_journal_volume 36
_journal_year 2006
_journal_page_first 557
_journal_name_full 'J.Chem.Cryst. '
loop_
_publ_author_name
"V.Junnotula"
"U.Sarkar"
"C.L.Barnes"
"P.K.Thallapally"
"K.S.Gates"
_chemical_name_systematic
;
3-Methyl-1,2,4-benzotriazine 2-oxide
;
_cell_volume    727.154
_exptl_crystal_colour 'yellow'
_exptl_crystal_density_diffrn 1.472
_exptl_crystal_description 'prism'
_exptl_crystal_preparation 'ethyl acetate/hexane'
_diffrn_ambient_temperature 173
#These two values have been output from a single CSD field.
_refine_ls_R_factor_gt 0.0379
_refine_ls_wR_factor_gt 0.0379
_symmetry_cell_setting monoclinic
_symmetry_space_group_name_H-M 'P 21/c'
_symmetry_Int_Tables_number 14
loop_
_symmetry_equiv_pos_site_id
_symmetry_equiv_pos_as_xyz
1 x,y,z
2 -x,1/2+y,1/2-z
3 -x,-y,-z
4 x,-1/2-y,-1/2+z
_cell_length_a 5.7193(4)
_cell_length_b 9.3774(7)
_cell_length_c 13.8427(11)
_cell_angle_alpha 90
_cell_angle_beta 101.637(1)
_cell_angle_gamma 90
_cell_formula_units_Z 4
loop_
_atom_type_symbol
_atom_type_radius_bond
C 0.68
H 0.23
N 0.68
O 0.68
loop_
_atom_site_label
_atom_site_type_symbol
_atom_site_fract_x
_atom_site_fract_y
_atom_site_fract_z
O1 O 0.65156(17) 0.58772(9) 0.14368(7)
N1 N 0.58363(18) 0.71719(10) 0.13454(7)
C1 C 0.3426(2) 0.74552(12) 0.08641(8)
N2 N 0.73468(18) 0.81828(11) 0.16929(7)
C2 C 0.6503(2) 0.95519(13) 0.15616(8)
N3 N 0.26180(17) 0.87372(10) 0.07434(7)
C3 C 0.4126(2) 0.98459(12) 0.10819(8)
C4 C 0.3332(2) 1.12631(13) 0.09484(9)
H1 H 0.17380 1.14630 0.06250
C5 C 0.4870(2) 1.23541(13) 0.12878(9)
H2 H 0.43430 1.33140 0.11950
C6 C 0.7245(2) 1.20601(13) 0.17772(9)
H3 H 0.82880 1.28270 0.20150
C7 C 0.8059(2) 1.06887(14) 0.19128(9)
H4 H 0.96560 1.05040 0.22400
C8 C 0.1956(2) 0.61866(13) 0.05119(10)
H5 H 0.03350 0.64900 0.02080
H6 H 0.18950 0.55550 0.10710
H7 H 0.26650 0.56750 0.00240
#END
