
#######################################################################
#
#                 Cambridge Crystallographic Data Centre
#                                CCDC
#
#######################################################################
#
# If this CIF has been generated from an entry in the Cambridge
# Structural Database, then it will include bibliographic, chemical,
# crystal, experimental, refinement or atomic coordinate data resulting
# from the CCDC's data processing and validation procedures.
#
#######################################################################

data_CSD_CIF_REPXOA
_audit_creation_date 2007-02-05
_audit_creation_method CSD-ConQuest-V1
_database_code_CSD REPXOA
_database_code_depnum_ccdc_archive 'CCDC 294738'
_chemical_formula_sum 'C8 H7 N3 O1'
_chemical_formula_moiety
;
C8 H7 N3 O1
;
_journal_coden_Cambridge 1003
_journal_volume 36
_journal_year 2006
_journal_page_first 557
_journal_name_full 'J.Chem.Cryst. '
loop_
_publ_author_name
"V.Junnotula"
"U.Sarkar"
"C.L.Barnes"
"P.K.Thallapally"
"K.S.Gates"
_chemical_name_systematic
;
3-Methyl-1,2,4-benzotriazine 1-oxide
;
_cell_volume    748.783
_exptl_crystal_colour 'pale yellow'
_exptl_crystal_density_diffrn 1.43
_exptl_crystal_description 'prism'
_exptl_crystal_preparation 'ethyl acetate/hexane'
_diffrn_ambient_temperature 173
#These two values have been output from a single CSD field.
_refine_ls_R_factor_gt 0.0403
_refine_ls_wR_factor_gt 0.0403
_symmetry_cell_setting monoclinic
_symmetry_space_group_name_H-M 'P 21/c'
_symmetry_Int_Tables_number 14
loop_
_symmetry_equiv_pos_site_id
_symmetry_equiv_pos_as_xyz
1 x,y,z
2 -x,1/2+y,1/2-z
3 -x,-y,-z
4 x,-1/2-y,-1/2+z
_cell_length_a 9.0466(7)
_cell_length_b 10.5959(8)
_cell_length_c 7.8981(6)
_cell_angle_alpha 90
_cell_angle_beta 98.494(1)
_cell_angle_gamma 90
_cell_formula_units_Z 4
loop_
_atom_type_symbol
_atom_type_radius_bond
C 0.68
H 0.23
N 0.68
O 0.68
loop_
_atom_site_label
_atom_site_type_symbol
_atom_site_fract_x
_atom_site_fract_y
_atom_site_fract_z
O1 O -0.02543(11) 0.24251(10) -0.24317(13)
N1 N 0.11175(12) 0.08706(10) -0.11676(13)
C1 C 0.23743(14) 0.05336(13) -0.00840(15)
N2 N 0.08691(12) 0.20896(11) -0.13999(13)
C2 C 0.18174(13) 0.30033(12) -0.05392(15)
N3 N 0.33624(11) 0.12926(10) 0.07734(12)
C3 C 0.30748(13) 0.25550(12) 0.05552(15)
C4 C 0.40489(15) 0.34501(13) 0.14380(16)
H1 H 0.49120 0.31790 0.21820
C5 C 0.37497(17) 0.47164(14) 0.12225(18)
H2 H 0.44050 0.53170 0.18310
C6 C 0.24842(17) 0.51336(13) 0.01118(19)
H3 H 0.22970 0.60130 -0.00200
C7 C 0.15206(15) 0.42942(13) -0.07801(16)
H4 H 0.06740 0.45770 -0.15420
C8 C 0.26011(17) -0.08627(13) 0.00847(18)
H5 H 0.36590 -0.10610 0.00830
H6 H 0.19960 -0.12890 -0.08790
H7 H 0.22970 -0.11510 0.11610
#END
