
#######################################################################
#
#                 Cambridge Crystallographic Data Centre
#                                CCDC
#
#######################################################################
#
# If this CIF has been generated from an entry in the Cambridge
# Structural Database, then it will include bibliographic, chemical,
# crystal, experimental, refinement or atomic coordinate data resulting
# from the CCDC's data processing and validation procedures.
#
#######################################################################

data_CSD_CIF_REQRIP
_audit_creation_date 2007-02-05
_audit_creation_method CSD-ConQuest-V1
_database_code_CSD REQRIP
_database_code_depnum_ccdc_archive 'CCDC 260688'
_chemical_formula_sum 'C18 H24 N2 O2'
_chemical_formula_moiety
;
C18 H24 N2 O2
;
_journal_coden_Cambridge 34
_journal_volume 43
_journal_year 2006
_journal_page_first 277
_journal_name_full 'J.Heterocycl.Chem. '
loop_
_publ_author_name
"S.A.Popov"
"N.V.Chukanov"
"G.V.Romanenko"
"T.V.Rybalova"
"Yu.V.Gatilov"
"V.A.Reznikov"
_chemical_name_systematic
;
1,2,2,3,3,7a-Hexamethyl-6-phenyl-1,2,3,7a-tetrahydroimidazo(1,2-b)isoxazole-7-
carbaldehyde
;
_chemical_melting_point 383.15
_cell_volume    821.270
_exptl_crystal_colour 'colorless'
_exptl_crystal_density_diffrn 1.215
_exptl_special_details
;
Melting point range 383.15-384.15K

;
_diffrn_ambient_temperature 240
#These two values have been output from a single CSD field.
_refine_ls_R_factor_gt 0.0411
_refine_ls_wR_factor_gt 0.0411
_symmetry_cell_setting triclinic
_symmetry_space_group_name_H-M 'P -1'
_symmetry_Int_Tables_number 2
loop_
_symmetry_equiv_pos_site_id
_symmetry_equiv_pos_as_xyz
1 x,y,z
2 -x,-y,-z
_cell_length_a 6.747(2)
_cell_length_b 10.585(4)
_cell_length_c 12.164(4)
_cell_angle_alpha 86.834(6)
_cell_angle_beta 76.813(6)
_cell_angle_gamma 76.165(5)
_cell_formula_units_Z 2
loop_
_atom_type_symbol
_atom_type_radius_bond
C 0.68
H 0.23
N 0.68
O 0.68
loop_
_atom_site_label
_atom_site_type_symbol
_atom_site_fract_x
_atom_site_fract_y
_atom_site_fract_z
C1 C 0.7860(3) 0.94367(17) 0.02814(14)
O1 O 0.47002(15) 0.91754(9) 0.30812(8)
O2 O 0.92652(19) 0.87707(12) -0.04025(10)
C2 C 0.7004(2) 0.90394(14) 0.14063(12)
N1 N 0.56969(18) 0.77588(11) 0.29027(10)
C3 C 0.5453(2) 0.98045(14) 0.21465(12)
N2 N 0.93857(18) 0.73002(11) 0.23713(10)
C4 C 0.7489(2) 0.76787(14) 0.19019(12)
C5 C 0.8836(2) 0.75793(14) 0.35900(12)
C6 C 0.6635(2) 0.72785(13) 0.38973(12)
C7 C 0.4464(2) 1.12002(14) 0.21304(13)
C8 C 0.2320(3) 1.16290(17) 0.24932(14)
C9 C 0.6764(3) 0.58142(16) 0.39156(17)
C10 C 0.8840(3) 0.89682(16) 0.38901(16)
C11 C 0.5659(3) 1.20967(17) 0.17424(16)
C12 C 0.1373(4) 1.29322(17) 0.24504(16)
C13 C 1.1215(3) 0.7695(2) 0.17123(16)
C14 C 1.0403(3) 0.66536(19) 0.41668(16)
C15 C 0.7496(3) 0.66415(18) 0.10819(15)
C16 C 0.4678(4) 1.34068(18) 0.17089(18)
C17 C 0.5240(3) 0.78611(18) 0.49954(14)
C18 C 0.2551(4) 1.38152(19) 0.20505(17)
H1 H 0.502(3) 0.8819(19) 0.5046(16)
H2 H 0.718(3) 0.5444(17) 0.4608(17)
H3 H 0.776(4) 0.539(2) 0.328(2)
H4 H 0.722(3) 1.0348(19) 0.0061(16)
H5 H 0.536(3) 0.5657(16) 0.3916(14)
H6 H 0.388(3) 0.7693(16) 0.5090(14)
H7 H 0.838(3) 0.9078(17) 0.4728(17)
H8 H 0.713(3) 1.1823(16) 0.1534(15)
H9 H 1.030(3) 0.9076(17) 0.3631(15)
H10 H 0.873(3) 0.6536(17) 0.0464(17)
H11 H 0.994(3) 0.6751(16) 0.4999(18)
H12 H 0.627(3) 0.6873(18) 0.0749(18)
H13 H 0.789(3) 0.9668(19) 0.3513(17)
H14 H 1.173(3) 0.6907(18) 0.3926(16)
H15 H 1.102(3) 0.866(2) 0.1661(17)
H16 H 0.747(3) 0.581(2) 0.1450(18)
H17 H 1.156(3) 0.7297(18) 0.0915(18)
H18 H 0.583(3) 0.749(2) 0.5654(19)
H19 H 1.063(3) 0.5749(19) 0.3954(16)
H20 H 1.239(3) 0.7393(18) 0.2084(17)
H21 H 0.148(3) 1.1033(18) 0.2768(16)
H22 H 0.562(3) 1.395(2) 0.1390(19)
H23 H -0.013(3) 1.3221(19) 0.2699(18)
H24 H 0.183(4) 1.473(2) 0.204(2)
#END
