
#######################################################################
#
#                 Cambridge Crystallographic Data Centre
#                                CCDC
#
#######################################################################
#
# If this CIF has been generated from an entry in the Cambridge
# Structural Database, then it will include bibliographic, chemical,
# crystal, experimental, refinement or atomic coordinate data resulting
# from the CCDC's data processing and validation procedures.
#
#######################################################################

data_CSD_CIF_REQRAH
_audit_creation_date 2007-02-05
_audit_creation_method CSD-ConQuest-V1
_database_code_CSD REQRAH
_database_code_depnum_ccdc_archive 'CCDC 260355'
_chemical_formula_sum 'C23 H26 N2 O2'
_chemical_formula_moiety
;
C23 H26 N2 O2
;
_journal_coden_Cambridge 34
_journal_volume 43
_journal_year 2006
_journal_page_first 277
_journal_name_full 'J.Heterocycl.Chem. '
loop_
_publ_author_name
"S.A.Popov"
"N.V.Chukanov"
"G.V.Romanenko"
"T.V.Rybalova"
"Yu.V.Gatilov"
"V.A.Reznikov"
_chemical_name_systematic
;
6,7a-diphenyl-1,2,2,3,3-pentamethyl-1,2,3,7a-tetrahydroimidazo(1,2-b)isoxazole
-7-carbaldehyde
;
_chemical_melting_point 402
_cell_volume   2018.780
_exptl_crystal_colour 'colorless'
_exptl_crystal_density_diffrn 1.193
_exptl_special_details
;
Melting point range 402-403K

;
_exptl_crystal_description 'plate'
_exptl_crystal_preparation 'hexane'
_diffrn_ambient_temperature 296
#These two values have been output from a single CSD field.
_refine_ls_R_factor_gt 0.0537
_refine_ls_wR_factor_gt 0.0537
_symmetry_cell_setting triclinic
_symmetry_space_group_name_H-M 'P -1'
_symmetry_Int_Tables_number 2
loop_
_symmetry_equiv_pos_site_id
_symmetry_equiv_pos_as_xyz
1 x,y,z
2 -x,-y,-z
_cell_length_a 11.330(2)
_cell_length_b 13.739(3)
_cell_length_c 14.905(3)
_cell_angle_alpha 66.659(10)
_cell_angle_beta 80.891(13)
_cell_angle_gamma 71.500(15)
_cell_formula_units_Z 4
loop_
_atom_type_symbol
_atom_type_radius_bond
C 0.68
H 0.23
N 0.68
O 0.68
loop_
_atom_site_label
_atom_site_type_symbol
_atom_site_fract_x
_atom_site_fract_y
_atom_site_fract_z
C1 C 0.2700(3) 0.3808(2) 0.1137(2)
C2 C 0.2432(3) 0.2678(2) 0.1696(2)
N1 N 0.24996(19) 0.23142(16) 0.08639(15)
C3 C 0.3328(2) 0.28237(19) 0.00659(18)
N2 N 0.36167(19) 0.36558(16) 0.03387(16)
C4 C 0.4621(2) 0.20742(19) -0.00161(18)
C5 C 0.5414(2) 0.2267(2) 0.04342(19)
O1 O 0.48836(16) 0.30974(15) 0.07633(13)
C6 C 0.1565(3) 0.4705(3) 0.0585(3)
H1 H 0.115(3) 0.444(3) 0.020(2)
H2 H 0.185(3) 0.536(3) 0.009(2)
H3 H 0.100(3) 0.489(3) 0.108(3)
C7 C 0.3172(4) 0.4265(3) 0.1751(3)
H4 H 0.392(4) 0.379(3) 0.208(3)
H5 H 0.246(3) 0.434(3) 0.229(3)
H6 H 0.339(4) 0.497(3) 0.132(3)
C8 C 0.3361(4) 0.1867(3) 0.2500(3)
H7 H 0.428(3) 0.172(3) 0.221(3)
H8 H 0.317(3) 0.112(3) 0.274(3)
H9 H 0.325(3) 0.220(3) 0.299(3)
C9 C 0.1117(3) 0.2771(4) 0.2173(3)
H10 H 0.048(3) 0.323(3) 0.169(3)
H11 H 0.103(4) 0.311(3) 0.266(3)
H12 H 0.105(3) 0.200(3) 0.255(3)
C10 C 0.2656(3) 0.1141(3) 0.1106(3)
H13 H 0.254(3) 0.101(3) 0.045(3)
H14 H 0.198(3) 0.089(3) 0.166(3)
H15 H 0.355(3) 0.065(3) 0.140(2)
C11 C 0.2673(2) 0.3425(2) -0.09072(18)
C12 C 0.3122(3) 0.4219(2) -0.1658(2)
H16 H 0.383(3) 0.445(2) -0.1567(19)
C13 C 0.2540(3) 0.4786(3) -0.2541(2)
H17 H 0.283(3) 0.540(2) -0.307(2)
C14 C 0.1490(3) 0.4570(3) -0.2677(3)
H18 H 0.106(3) 0.503(2) -0.333(2)
C15 C 0.1049(3) 0.3781(3) -0.1943(3)
H19 H 0.032(3) 0.361(2) -0.203(2)
C16 C 0.1627(3) 0.3204(3) -0.1053(2)
H20 H 0.135(2) 0.259(2) -0.053(2)
C17 C 0.6747(2) 0.1752(2) 0.0620(2)
C18 C 0.7540(3) 0.2395(3) 0.0487(3)
H21 H 0.715(3) 0.321(3) 0.028(2)
C19 C 0.8796(3) 0.1908(4) 0.0642(3)
H22 H 0.930(3) 0.242(3) 0.048(3)
C20 C 0.9261(3) 0.0785(4) 0.0937(3)
H23 H 1.012(4) 0.041(3) 0.106(3)
C21 C 0.8496(3) 0.0132(4) 0.1093(3)
H24 H 0.880(3) -0.068(3) 0.125(3)
C22 C 0.7238(3) 0.0608(3) 0.0933(3)
H25 H 0.670(3) 0.017(3) 0.107(2)
C23 C 0.4991(3) 0.1348(2) -0.0553(2)
H26 H 0.595(3) 0.097(2) -0.0577(19)
O2 O 0.4293(2) 0.11581(16) -0.09665(15)
C24 C 0.2263(2) 0.5819(2) 0.42259(19)
C25 C 0.2634(2) 0.6691(2) 0.32677(19)
N3 N 0.27669(18) 0.74745(17) 0.36676(15)
C26 C 0.1856(2) 0.75395(19) 0.44723(18)
N4 N 0.14801(17) 0.64853(16) 0.48141(15)
C27 C 0.0612(2) 0.84144(19) 0.42161(19)
C28 C -0.0268(2) 0.7930(2) 0.42729(19)
O3 O 0.01606(15) 0.68240(14) 0.45386(13)
C29 C 0.1583(3) 0.5093(3) 0.4097(3)
H27 H 0.131(3) 0.460(3) 0.477(2)
H28 H 0.215(3) 0.467(3) 0.377(2)
H29 H 0.084(3) 0.551(3) 0.370(2)
C30 C 0.3380(3) 0.5074(3) 0.4857(2)
H30 H 0.306(3) 0.461(3) 0.549(2)
H31 H 0.384(3) 0.554(3) 0.498(2)
H32 H 0.396(3) 0.463(3) 0.454(2)
C31 C 0.3885(3) 0.6225(3) 0.2813(3)
H33 H 0.399(3) 0.684(3) 0.218(3)
H34 H 0.386(3) 0.550(3) 0.277(2)
H35 H 0.457(3) 0.607(3) 0.321(2)
C32 C 0.1662(3) 0.7196(3) 0.2474(2)
H36 H 0.184(3) 0.784(3) 0.194(2)
H37 H 0.081(3) 0.750(3) 0.277(2)
H38 H 0.167(3) 0.662(3) 0.218(2)
C33 C 0.2963(3) 0.8516(3) 0.2970(2)
H39 H 0.313(3) 0.895(3) 0.334(2)
H40 H 0.221(3) 0.903(3) 0.249(2)
H41 H 0.371(3) 0.834(3) 0.255(2)
C34 C 0.2450(2) 0.7563(2) 0.53164(19)
C35 C 0.1706(3) 0.7716(2) 0.6110(2)
H42 H 0.078(3) 0.787(2) 0.6106(19)
C36 C 0.2214(3) 0.7710(3) 0.6896(2)
H43 H 0.165(3) 0.782(2) 0.744(2)
C37 C 0.3473(4) 0.7545(3) 0.6903(3)
H44 H 0.376(3) 0.751(3) 0.746(2)
C38 C 0.4220(3) 0.7399(3) 0.6124(3)
H45 H 0.510(3) 0.727(3) 0.612(2)
C39 C 0.3717(3) 0.7413(2) 0.5322(2)
H46 H 0.424(3) 0.729(2) 0.478(2)
C40 C -0.1606(2) 0.8358(2) 0.4082(2)
C41 C -0.2103(3) 0.7921(3) 0.3580(3)
H47 H -0.158(3) 0.730(3) 0.340(2)
C42 C -0.3346(4) 0.8327(4) 0.3365(3)
H48 H -0.368(3) 0.797(3) 0.300(3)
C43 C -0.4096(4) 0.9155(4) 0.3671(4)
H49 H -0.490(4) 0.946(3) 0.347(3)
C44 C -0.3616(4) 0.9578(3) 0.4170(4)
H50 H -0.417(4) 1.017(3) 0.440(3)
C45 C -0.2385(3) 0.9183(3) 0.4383(3)
H51 H -0.203(3) 0.943(3) 0.479(2)
C46 C 0.0394(3) 0.9587(2) 0.3950(2)
H52 H -0.045(3) 1.001(2) 0.380(2)
O4 O 0.1152(2) 1.00376(16) 0.39788(17)
#END
