
#######################################################################
#
#                 Cambridge Crystallographic Data Centre
#                                CCDC
#
#######################################################################
#
# If this CIF has been generated from an entry in the Cambridge
# Structural Database, then it will include bibliographic, chemical,
# crystal, experimental, refinement or atomic coordinate data resulting
# from the CCDC's data processing and validation procedures.
#
#######################################################################

data_CSD_CIF_REQYES
_audit_creation_date 2007-02-05
_audit_creation_method CSD-ConQuest-V1
_database_code_CSD REQYES
_database_code_depnum_ccdc_archive 'CCDC 235744'
_chemical_formula_sum 'C10 H4 N14 O6'
_chemical_formula_moiety
;
C10 H4 N14 O6
;
_journal_coden_Cambridge 34
_journal_volume 42
_journal_year 2005
_journal_page_first 803
_journal_name_full 'J.Heterocycl.Chem. '
loop_
_publ_author_name
"A.B.Sheremetev"
"E.A.Ivanova"
"D.E.Dmitriev"
"V.O.Kulagina"
"B.B.Averkiev"
"M.Yu.Antipin"
_chemical_name_systematic
;
tetrakis(Furazano)(3,4-b:3',4'-f:3'',4''-j:3''',4'''-n)(1,16,4,5,8,9,12,13)dio
xahexa-azacyclooctadecene
;
_cell_volume   3239.494
_exptl_crystal_colour 'orange'
_exptl_crystal_density_diffrn 1.707
_exptl_crystal_description 'needle'
_exptl_crystal_preparation 'chloroform'
_diffrn_ambient_temperature 110
_refine_special_details
;
An azo group is disordered equally over two sites.

;
#These two values have been output from a single CSD field.
_refine_ls_R_factor_gt 0.0381
_refine_ls_wR_factor_gt 0.0381
_symmetry_cell_setting orthorhombic
_symmetry_space_group_name_H-M 'A b a 2'
_symmetry_Int_Tables_number 41
loop_
_symmetry_equiv_pos_site_id
_symmetry_equiv_pos_as_xyz
1 x,y,z
2 -x,-y,z
3 1/2+x,1/2-y,z
4 1/2-x,1/2+y,z
5 x,1/2+y,1/2+z
6 -x,1/2-y,1/2+z
7 1/2+x,-y,1/2+z
8 1/2-x,y,1/2+z
_cell_length_a 25.549(3)
_cell_length_b 20.022(3)
_cell_length_c 6.3328(8)
_cell_angle_alpha 90
_cell_angle_beta 90
_cell_angle_gamma 90
_cell_formula_units_Z 8
loop_
_atom_type_symbol
_atom_type_radius_bond
C 0.68
H 0.23
N 0.68
O 0.68
loop_
_atom_site_label
_atom_site_type_symbol
_atom_site_fract_x
_atom_site_fract_y
_atom_site_fract_z
C1 C 0.61614(11) 0.22981(14) 0.8414(5)
O1 O 0.58909(7) 0.18800(8) 0.9918(3)
C2 C 0.53823(11) 0.18228(14) 0.9608(5)
N1 N 0.51107(9) 0.21546(13) 0.8227(4)
O2 O 0.45983(8) 0.19398(12) 0.8503(4)
N2 N 0.45624(11) 0.14842(15) 1.0088(6)
C3 C 0.50330(11) 0.14013(16) 1.0780(5)
N3 N 0.51045(9) 0.09404(12) 1.2437(4)
N4 N 0.55774(9) 0.08448(12) 1.2817(4)
C4 C 0.5654(1) 0.04042(14) 1.4544(4)
N5 N 0.54613(10) 0.05137(12) 1.6383(4)
O3 O 0.56607(9) -0.00014(12) 1.7628(4)
N6 N 0.59733(14) -0.04217(16) 1.6438(8)
C5 C 0.59679(12) -0.0163(2) 1.4573(8)
N7 N 0.62464(17) -0.0651(2) 1.3623(8)
N8 N 0.6300(2) -0.0397(3) 1.1849(9)
C6 C 0.66508(12) -0.0891(2) 1.0433(5)
N9 N 0.66562(12) -0.15204(16) 0.9924(5)
O4 O 0.69882(9) -0.15504(9) 0.8227(4)
N10 N 0.71994(8) -0.09383(10) 0.7736(4)
C7 C 0.69883(9) -0.05349(12) 0.9092(5)
N11 N 0.70993(8) 0.01626(9) 0.9133(4)
N12 N 0.75833(8) 0.02575(9) 0.8910(4)
C8 C 0.77219(10) 0.09345(11) 0.8950(5)
N13 N 0.82202(8) 0.10648(10) 0.9012(4)
O5 O 0.82581(7) 0.17415(8) 0.9067(3)
N14 N 0.77636(8) 0.20446(10) 0.9046(4)
C9 C 0.74321(10) 0.15521(11) 0.8961(4)
O6 O 0.69193(6) 0.16178(7) 0.8862(3)
C10 C 0.67251(10) 0.23055(12) 0.8971(5)
H1 H 0.6780(8) 0.2459(13) 1.038(5)
H2 H 0.6899(9) 0.2617(12) 0.784(4)
H3 H 0.6020(11) 0.2704(16) 0.845(5)
H4 H 0.6095(10) 0.2095(13) 0.693(5)
N15? N 0.62763(19) -0.0259(3) 1.2417(9)
N16? N 0.63890(15) -0.0873(2) 1.2301(7)
#END
