
#######################################################################
#
#                 Cambridge Crystallographic Data Centre
#                                CCDC
#
#######################################################################
#
# If this CIF has been generated from an entry in the Cambridge
# Structural Database, then it will include bibliographic, chemical,
# crystal, experimental, refinement or atomic coordinate data resulting
# from the CCDC's data processing and validation procedures.
#
#######################################################################

data_CSD_CIF_RERWIW
_audit_creation_date 2013-05-19
_audit_creation_method CSD-ConQuest-V1
_database_code_CSD RERWIW
_database_code_depnum_ccdc_archive 'CCDC 912760'
_chemical_formula_sum 'C29 H29 N1 O6'
_chemical_formula_moiety
;
C29 H29 N1 O6
;
_journal_coden_Cambridge 1336
_journal_volume 15
_journal_year 2013
_journal_page_first 350
_journal_name_full 'Org.Lett. '
loop_
_publ_author_name
"E.O.Gorbacheva"
"A.A.Tabolin"
"R.A.Novikov"
"Y.A.Khomutova"
"Y.V.Nelyubina"
"Y.V.Tomilov"
"S.L.Ioffe"
_chemical_name_systematic
;
Dimethyl 
2,5,7-triphenylhexahydro-4H-[1,2]oxazino[2,3-b][1,2]oxazine-4,4-dicarboxylate
;
_cell_volume   2404.219
_exptl_crystal_colour 'colorless'
_exptl_crystal_density_diffrn 1.347
_exptl_crystal_description 'prism'
_diffrn_ambient_temperature 100
#These two values have been output from a single CSD field.
_refine_ls_R_factor_gt 0.0433
_refine_ls_wR_factor_gt 0.0433
loop_
_citation_database_id_CSD
_citation_special_details
RERWOC "is a stereoisomer of this entry"
_symmetry_cell_setting triclinic
_symmetry_space_group_name_H-M 'P -1'
_symmetry_Int_Tables_number 2
loop_
_symmetry_equiv_pos_site_id
_symmetry_equiv_pos_as_xyz
1 x,y,z
2 -x,-y,-z
_cell_length_a 11.3123(5)
_cell_length_b 13.5731(7)
_cell_length_c 16.6509(8)
_cell_angle_alpha 78.645(1)
_cell_angle_beta 73.569(1)
_cell_angle_gamma 86.820(1)
_cell_formula_units_Z 4
loop_
_atom_type_symbol
_atom_type_radius_bond
C 0.68
H 0.23
N 0.68
O 0.68
loop_
_atom_site_label
_atom_site_type_symbol
_atom_site_fract_x
_atom_site_fract_y
_atom_site_fract_z
N1 N 0.34516(9) 0.32042(8) 0.89606(6)
O1 O 0.22617(8) 0.35127(6) 0.89325(6)
O2 O 0.34393(8) 0.31181(7) 0.98606(5)
O3 O 0.68592(8) 0.31791(7) 0.80368(6)
O4 O 0.54610(8) 0.30818(7) 0.73287(6)
O5 O 0.59933(10) 0.03820(7) 0.89989(6)
O6 O 0.54545(9) 0.08903(7) 0.77840(6)
C1 C 0.12957(11) 0.27329(9) 0.92175(8)
H1 H 0.11920 0.25080 0.87040
C2 C 0.16363(11) 0.18274(9) 0.98053(8)
H2 H 0.09700 0.13210 0.99810
H3 H 0.17160 0.20360 1.03250
C3 C 0.28678(11) 0.13477(9) 0.93612(8)
H4 H 0.32660 0.10190 0.98110
C4 C 0.37385(11) 0.21869(9) 0.87530(8)
H5 H 0.36680 0.22120 0.81640
C5 C 0.47179(11) 0.31165(9) 0.98469(8)
H6 H 0.51350 0.37060 0.94170
C6 C 0.53227(11) 0.21546(9) 0.95794(8)
H7 H 0.49630 0.15670 1.00230
H8 H 0.62170 0.21720 0.95230
C7 C 0.51238(11) 0.20478(9) 0.87229(8)
C8 C 0.01246(11) 0.32512(9) 0.96240(8)
C9 C -0.08304(12) 0.33865(9) 0.92425(8)
H9 H -0.07390 0.31670 0.87210
C10 C -0.19279(12) 0.38453(10) 0.96233(9)
H10 H -0.25820 0.39310 0.93630
C11 C -0.20619(12) 0.41757(10) 1.03814(9)
H11 H -0.28080 0.44860 1.06410
C12 C -0.11032(13) 0.40510(11) 1.07583(9)
H12 H -0.11920 0.42810 1.12750
C13 C -0.00091(12) 0.35901(10) 1.03837(9)
H13 H 0.06450 0.35070 1.06450
C14 C 0.25959(11) 0.05382(9) 0.89218(8)
C15 C 0.24131(12) -0.0447(1) 0.93859(8)
H14 H 0.25490 -0.06020 0.99340
C16 C 0.20340(12) -0.12038(10) 0.90559(9)
H15 H 0.19040 -0.18660 0.93830
C17 C 0.18461(12) -0.09911(10) 0.82518(9)
H16 H 0.15840 -0.15050 0.80270
C18 C 0.20442(12) -0.00231(10) 0.77782(8)
H17 H 0.19290 0.01240 0.72240
C19 C 0.24114(12) 0.07344(10) 0.81110(8)
H18 H 0.25390 0.13950 0.77810
C20 C 0.47233(11) 0.32590(9) 1.07253(8)
C21 C 0.41899(12) 0.41361(10) 1.09945(8)
H19 H 0.38410 0.46140 1.06270
C22 C 0.41651(12) 0.43148(10) 1.17916(9)
H20 H 0.38030 0.49140 1.19670
C23 C 0.46700(13) 0.36166(11) 1.23334(9)
H21 H 0.46490 0.37350 1.28810
C24 C 0.52044(13) 0.27462(10) 1.20718(9)
H22 H 0.55530 0.22690 1.24400
C25 C 0.52296(12) 0.25706(10) 1.12689(8)
H23 H 0.55970 0.19740 1.10930
C26 C 0.59173(11) 0.28375(9) 0.79988(8)
C27 C 0.61949(13) 0.37817(10) 0.66107(8)
H24 H 0.57590 0.39500 0.61700
H25 H 0.69900 0.34740 0.63770
H26 H 0.63320 0.43950 0.68000
C28 C 0.55767(11) 0.10034(9) 0.85337(8)
C29 C 0.58573(17) -0.00682(11) 0.75396(10)
H27 H 0.55760 -0.01340 0.70470
H28 H 0.55090 -0.06140 0.80170
H29 H 0.67590 -0.01040 0.73890
N2 N 0.18546(9) 0.18651(8) 0.59914(6)
O7 O 0.30300(8) 0.16033(7) 0.60727(6)
O8 O 0.19588(8) 0.19274(7) 0.50802(5)
O9 O -0.09056(9) 0.45780(7) 0.59361(6)
O10 O -0.01931(9) 0.41398(7) 0.70885(6)
O11 O -0.15635(9) 0.17955(7) 0.67826(6)
O12 O -0.02605(8) 0.19284(7) 0.75556(6)
C30 C 0.40100(11) 0.23729(9) 0.57232(8)
H30 H 0.42010 0.25950 0.62110
C31 C 0.36387(11) 0.32925(9) 0.51606(8)
H31 H 0.36100 0.31080 0.46200
H32 H 0.42760 0.38180 0.50200
C32 C 0.23658(11) 0.37331(9) 0.55840(8)
H33 H 0.19830 0.40300 0.51180
C33 C 0.15049(11) 0.28772(9) 0.61820(8)
H34 H 0.15260 0.28710 0.67790
C34 C 0.07151(11) 0.19089(9) 0.50220(8)
H35 H 0.02850 0.13010 0.54160
C35 C 0.00282(11) 0.28533(9) 0.52845(8)
H36 H -0.08520 0.28030 0.53100
H37 H 0.03790 0.34520 0.48530
C36 C 0.01382(11) 0.29730(9) 0.61631(8)
C37 C 0.51155(11) 0.18120(9) 0.52769(8)
C38 C 0.60921(12) 0.15762(10) 0.56304(8)
H38 H 0.60990 0.18190 0.61270
C39 C 0.70658(12) 0.09832(10) 0.52607(9)
H39 H 0.77340 0.08250 0.55040
C40 C 0.70532(12) 0.0626(1) 0.45370(9)
H40 H 0.77080 0.02150 0.42890
C41 C 0.60838(13) 0.08685(11) 0.41760(9)
H41 H 0.60830 0.06310 0.36760
C42 C 0.51135(12) 0.14575(10) 0.45441(9)
H42 H 0.44490 0.16190 0.42970
C43 C 0.24965(11) 0.45716(9) 0.60384(8)
C44 C 0.22793(12) 0.55634(9) 0.56865(8)
H43 H 0.20290 0.57000 0.51770
C45 C 0.24236(13) 0.63555(10) 0.60710(9)
H44 H 0.22740 0.70260 0.58220
C46 C 0.27857(13) 0.6166(1) 0.68172(9)
H45 H 0.28840 0.67050 0.70810
C47 C 0.30043(12) 0.51807(10) 0.71760(9)
H46 H 0.32540 0.50470 0.76860
C48 C 0.28590(12) 0.43919(10) 0.67913(8)
H47 H 0.30080 0.37220 0.70430
C49 C 0.08333(11) 0.18158(9) 0.41130(8)
C50 C 0.15861(13) 0.24673(10) 0.34273(9)
H48 H 0.20140 0.29920 0.35290
C51 C 0.17137(14) 0.23529(11) 0.25947(9)
H49 H 0.22340 0.27950 0.21310
C52 C 0.10834(14) 0.15949(12) 0.24404(9)
H50 H 0.11610 0.15240 0.18710
C53 C 0.03410(14) 0.09411(12) 0.31175(9)
H51 H -0.00870 0.04180 0.30140
C54 C 0.02214(12) 0.10507(10) 0.39507(9)
H52 H -0.02840 0.05970 0.44130
C55 C -0.03881(11) 0.39951(9) 0.63668(8)
C56 C -0.05927(13) 0.51022(10) 0.73268(9)
H53 H -0.03560 0.51540 0.78400
H54 H -0.14900 0.51570 0.74430
H55 H -0.02010 0.56450 0.68590
C57 C -0.06654(11) 0.21572(9) 0.68613(8)
C58 C -0.09972(13) 0.12051(10) 0.82510(9)
H56 H -0.05540 0.09960 0.86840
H57 H -0.11520 0.06180 0.80350
H58 H -0.17840 0.15130 0.85050
#END
