
#######################################################################
#
#                 Cambridge Crystallographic Data Centre
#                                CCDC
#
#######################################################################
#
# If this CIF has been generated from an entry in the Cambridge
# Structural Database, then it will include bibliographic, chemical,
# crystal, experimental, refinement or atomic coordinate data resulting
# from the CCDC's data processing and validation procedures.
#
#######################################################################

data_CSD_CIF_RERWIW03
_audit_creation_date 2018-03-05
_audit_creation_method CSD-ConQuest-V1
_database_code_CSD RERWIW03
_database_code_depnum_ccdc_archive 'CCDC 917300'
_chemical_formula_sum 'C29 H29 N1 O6'
_chemical_formula_moiety
;
C29 H29 N1 O6
;
_journal_coden_Cambridge 1277
_journal_volume 117
_journal_year 2013
_journal_page_first 3084
_journal_name_full 'J.Phys.Chem.A '
loop_
_publ_author_name
"Y.V.Nelyubina"
"K.A.Lyssenko"
_chemical_name_systematic
;
Dimethyl 
2,5,7-triphenylhexahydro-4H-[1,2]oxazino[2,3-b][1,2]oxazine-4,4-dicarboxylate
;
_cell_volume   2398.314
_exptl_crystal_colour 'colorless'
_exptl_crystal_density_diffrn 1.35
_exptl_crystal_description 'prism'
_diffrn_ambient_temperature 100
#These two values have been output from a single CSD field.
_refine_ls_R_factor_gt 0.0464
_refine_ls_wR_factor_gt 0.0464
_symmetry_cell_setting triclinic
_symmetry_space_group_name_H-M 'P -1'
_symmetry_Int_Tables_number 2
loop_
_symmetry_equiv_pos_site_id
_symmetry_equiv_pos_as_xyz
1 x,y,z
2 -x,-y,-z
_cell_length_a 11.3043(2)
_cell_length_b 13.5609(2)
_cell_length_c 16.6403(3)
_cell_angle_alpha 78.660(1)
_cell_angle_beta 73.517(1)
_cell_angle_gamma 86.791(1)
_cell_formula_units_Z 4
loop_
_atom_type_symbol
_atom_type_radius_bond
C 0.68
H 0.23
N 0.68
O 0.68
loop_
_atom_site_label
_atom_site_type_symbol
_atom_site_fract_x
_atom_site_fract_y
_atom_site_fract_z
N1 N 0.65526(3) 0.67978(3) 0.10368(2)
O1 O 0.77370(3) 0.64901(3) 0.10666(2)
O2 O 0.65595(3) 0.68810(3) 0.01416(2)
O3 O 0.31396(4) 0.68204(3) 0.19634(3)
O4 O 0.45366(3) 0.69176(3) 0.26731(2)
O5 O 0.40015(6) 0.96186(3) 0.10008(3)
O6 O 0.45453(4) 0.91103(3) 0.22170(3)
C1 C 0.87013(4) 0.72651(3) 0.07841(3)
C2 C 0.83618(4) 0.81739(3) 0.01950(3)
C3 C 0.71305(4) 0.86520(3) 0.06394(3)
C4 C 0.62617(4) 0.78120(3) 0.12473(3)
C5 C 0.52813(4) 0.68834(3) 0.01525(3)
C6 C 0.46770(4) 0.78450(3) 0.04211(3)
C7 C 0.48763(4) 0.79532(3) 0.12766(3)
C8 C 0.98705(4) 0.67515(3) 0.03775(3)
C9 C 1.08313(4) 0.66146(4) 0.07599(3)
C10 C 1.19298(5) 0.61552(4) 0.03793(4)
C11 C 1.20658(5) 0.58228(4) -0.03814(4)
C12 C 1.11025(5) 0.59487(5) -0.07614(4)
C13 C 1.00075(5) 0.64100(4) -0.03841(3)
C14 C 0.74028(4) 0.94616(3) 0.10778(3)
C15 C 0.75886(5) 1.04473(3) 0.06122(3)
C16 C 0.79664(6) 1.12066(4) 0.09417(4)
C17 C 0.81552(5) 1.09940(4) 0.17501(4)
C18 C 0.79553(5) 1.00215(4) 0.22248(3)
C19 C 0.75885(5) 0.92626(3) 0.18898(3)
C20 C 0.52789(4) 0.67405(3) -0.07241(3)
C21 C 0.58113(5) 0.58613(4) -0.09920(3)
C22 C 0.58358(5) 0.56817(4) -0.17924(4)
C23 C 0.53291(6) 0.63826(5) -0.23361(3)
C24 C 0.47924(6) 0.72552(4) -0.20725(3)
C25 C 0.47665(5) 0.74313(4) -0.12676(3)
C26 C 0.40833(4) 0.71636(3) 0.20015(3)
C27 C 0.38062(5) 0.62197(4) 0.33888(3)
C28 C 0.44224(4) 0.89951(3) 0.14694(3)
C29 C 0.41367(10) 1.00657(5) 0.24609(5)
H1 H 0.8790(11) 0.7465(8) 0.1312(7)
H2 H 0.9034(12) 0.8665(9) 0.0031(8)
H3 H 0.8300(11) 0.7974(9) -0.0319(8)
H4 H 0.6752(11) 0.8965(9) 0.0199(8)
H5 H 0.6337(11) 0.7719(9) 0.1832(7)
H6 H 0.4881(11) 0.6313(9) 0.0569(7)
H7 H 0.5031(11) 0.8427(9) 0.0010(7)
H8 H 0.3794(12) 0.7822(9) 0.0470(8)
H9 H 1.0740(11) 0.6844(9) 0.1299(8)
H10 H 1.2598(13) 0.6089(10) 0.0664(9)
H11 H 1.2836(13) 0.5523(10) -0.0652(9)
H12 H 1.1178(14) 0.5668(11) -0.1268(10)
H13 H 0.9307(13) 0.6462(10) -0.0630(9)
H14 H 0.7422(12) 1.0592(10) 0.0059(8)
H15 H 0.8099(12) 1.1863(10) 0.0612(8)
H16 H 0.8439(13) 1.1522(10) 0.1983(9)
H17 H 0.8087(13) 0.9851(10) 0.2789(9)
H18 H 0.7439(12) 0.8588(10) 0.2236(8)
H19 H 0.6191(12) 0.537(1) -0.0616(8)
H20 H 0.6214(13) 0.5058(10) -0.1951(9)
H21 H 0.5363(12) 0.6265(10) -0.2909(8)
H22 H 0.4422(13) 0.7745(10) -0.2449(8)
H23 H 0.4377(12) 0.8041(10) -0.1104(8)
H24 H 0.2998(14) 0.6517(11) 0.3635(9)
H25 H 0.4274(12) 0.6062(10) 0.3789(8)
H26 H 0.3666(16) 0.5603(13) 0.3256(11)
H27 H 0.4431(16) 1.0106(13) 0.2933(11)
H28 H 0.442(2) 1.0614(16) 0.2008(14)
H29 H 0.3199(19) 1.0112(15) 0.2626(12)
N2 N 0.81397(3) 0.81320(3) 0.40123(2)
O7 O 0.69717(3) 0.83954(3) 0.39283(2)
O8 O 0.80434(3) 0.80729(3) 0.49180(2)
O9 O 1.09075(4) 0.54213(3) 0.40649(3)
O10 O 1.01935(4) 0.58587(3) 0.29112(2)
O11 O 1.15650(4) 0.82049(4) 0.32175(3)
O12 O 1.02622(4) 0.80719(3) 0.24436(2)
C30 C 0.59906(4) 0.76281(3) 0.42764(3)
C31 C 0.63614(4) 0.67073(3) 0.48393(3)
C32 C 0.76345(4) 0.62668(3) 0.44168(3)
C33 C 0.84952(4) 0.71226(3) 0.38183(3)
C34 C 0.92849(4) 0.80916(3) 0.49781(3)
C35 C 0.99716(4) 0.71459(3) 0.47150(3)
C36 C 0.98634(4) 0.70260(3) 0.38369(3)
C37 C 0.48881(4) 0.81862(4) 0.47221(3)
C38 C 0.39070(5) 0.84230(4) 0.43671(3)
C39 C 0.29317(5) 0.90164(4) 0.47382(4)
C40 C 0.29431(5) 0.93765(4) 0.54637(4)
C41 C 0.39181(5) 0.91320(5) 0.58260(4)
C42 C 0.48875(5) 0.85417(4) 0.54570(3)
C43 C 0.75029(4) 0.54294(3) 0.39616(3)
C44 C 0.77214(5) 0.44363(3) 0.43156(3)
C45 C 0.75777(6) 0.36408(4) 0.39298(4)
C46 C 0.72136(6) 0.38320(4) 0.31822(4)
C47 C 0.69963(6) 0.48190(4) 0.28210(3)
C48 C 0.71412(5) 0.56101(4) 0.32078(3)
C49 C 0.91651(4) 0.81839(3) 0.58852(3)
C50 C 0.84114(6) 0.75311(4) 0.65717(3)
C51 C 0.82814(7) 0.76444(5) 0.74069(4)
C52 C 0.89133(7) 0.84071(6) 0.75620(4)
C53 C 0.96587(6) 0.90647(6) 0.68821(4)
C54 C 0.97778(5) 0.89534(4) 0.60481(3)
C55 C 1.03872(4) 0.60050(3) 0.36315(3)
C56 C 1.05928(6) 0.48998(4) 0.26730(4)
C57 C 1.06630(4) 0.78404(3) 0.31389(3)
C58 C 1.09984(6) 0.87926(4) 0.17499(4)
H30 H 0.5831(11) 0.7446(8) 0.3781(7)
H31 H 0.5720(12) 0.6192(9) 0.4961(8)
H32 H 0.6391(12) 0.6866(9) 0.5376(8)
H33 H 0.7994(11) 0.5981(9) 0.4869(8)
H34 H 0.8440(11) 0.7178(9) 0.3234(7)
H35 H 0.9709(11) 0.8685(9) 0.4591(8)
H36 H 0.9640(12) 0.6579(9) 0.5119(8)
H37 H 1.0842(12) 0.7215(9) 0.4694(8)
H38 H 0.3932(12) 0.8183(10) 0.3832(8)
H39 H 0.2247(13) 0.9203(10) 0.4473(9)
H40 H 0.2285(13) 0.981(1) 0.5727(9)
H41 H 0.3928(13) 0.9422(10) 0.6317(9)
H42 H 0.5609(13) 0.8428(10) 0.5688(9)
H43 H 0.8028(12) 0.4308(9) 0.4822(8)
H44 H 0.7748(14) 0.2948(11) 0.4172(9)
H45 H 0.7133(13) 0.3267(10) 0.2900(9)
H46 H 0.6751(13) 0.4969(11) 0.2304(9)
H47 H 0.6979(12) 0.6286(10) 0.2938(8)
H48 H 0.7954(14) 0.7018(11) 0.6485(9)
H49 H 0.7764(13) 0.722(1) 0.7853(9)
H50 H 0.8823(13) 0.8477(10) 0.8141(9)
H51 H 1.0112(13) 0.9611(10) 0.6984(9)
H52 H 1.0318(12) 0.9420(9) 0.5578(8)
H53 H 1.1501(15) 0.4868(12) 0.2529(10)
H54 H 1.0172(14) 0.4366(11) 0.3145(9)
H55 H 1.0314(15) 0.4884(12) 0.2154(10)
H56 H 1.1786(14) 0.8494(11) 0.1495(9)
H57 H 1.0517(12) 0.897(1) 0.1345(8)
H58 H 1.1127(15) 0.9396(12) 0.1937(10)
#END
