
#######################################################################
#
#                 Cambridge Crystallographic Data Centre
#                                CCDC
#
#######################################################################
#
# If this CIF has been generated from an entry in the Cambridge
# Structural Database, then it will include bibliographic, chemical,
# crystal, experimental, refinement or atomic coordinate data resulting
# from the CCDC's data processing and validation procedures.
#
#######################################################################

data_CSD_CIF_RERWIV
_audit_creation_date 2007-02-05
_audit_creation_method CSD-ConQuest-V1
_database_code_CSD RERWIV
_database_code_depnum_ccdc_archive 'CCDC 607826'
_chemical_formula_sum 'C19 H22 N2 O3'
_chemical_formula_moiety
;
C19 H22 N2 O3
;
_journal_coden_Cambridge 4
_journal_volume 128
_journal_year 2006
_journal_page_first 12923
_journal_name_full 'J.Am.Chem.Soc. '
loop_
_publ_author_name
"O.Kitagawa"
"M.Yoshikawa"
"H.Tanabe"
"T.Morita"
"M.Takahashi"
"Y.Dobashi"
"T.Taguchi"
_chemical_name_systematic
;
N-(2-t-butylphenyl)-N-(4-nitrophenyl)propanamide
;
_cell_volume   1710.218
_exptl_crystal_colour 'colorless'
_exptl_crystal_density_diffrn 1.268
_exptl_crystal_description 'prism'
_diffrn_ambient_temperature 100
#These two values have been output from a single CSD field.
_refine_ls_R_factor_gt 0.0417
_refine_ls_wR_factor_gt 0.0417
_symmetry_cell_setting triclinic
_symmetry_space_group_name_H-M 'P -1'
_symmetry_Int_Tables_number 2
loop_
_symmetry_equiv_pos_site_id
_symmetry_equiv_pos_as_xyz
1 x,y,z
2 -x,-y,-z
_cell_length_a 8.4270(4)
_cell_length_b 12.1600(5)
_cell_length_c 16.8370(7)
_cell_angle_alpha 95.477(2)
_cell_angle_beta 91.773(2)
_cell_angle_gamma 94.758(3)
_cell_formula_units_Z 4
loop_
_atom_type_symbol
_atom_type_radius_bond
C 0.68
H 0.23
N 0.68
O 0.68
loop_
_atom_site_label
_atom_site_type_symbol
_atom_site_fract_x
_atom_site_fract_y
_atom_site_fract_z
C1 C 0.70824(16) 0.10694(10) 0.43088(8)
C2 C 0.62731(17) 0.21384(10) 0.43013(8)
H1 H 0.51810 0.20220 0.44960
H2 H 0.61860 0.23380 0.37460
C3 C 0.71894(18) 0.30874(11) 0.48216(8)
H3 H 0.73320 0.28750 0.53650
H4 H 0.65920 0.37460 0.48360
H5 H 0.82350 0.32520 0.46000
C4 C 0.67300(15) -0.09686(10) 0.39427(7)
C5 C 0.56138(15) -0.18575(10) 0.36617(8)
H6 H 0.45940 -0.17090 0.34630
C6 C 0.59830(15) -0.29452(10) 0.36716(8)
H7 H 0.52330 -0.35400 0.34700
C7 C 0.74566(15) -0.31552(10) 0.39788(7)
C8 C 0.85567(15) -0.22981(10) 0.42933(7)
H8 H 0.95450 -0.24560 0.45240
C9 C 0.81981(14) -0.12091(10) 0.42678(7)
H9 H 0.89550 -0.06200 0.44730
C10 C 0.48663(14) 0.02404(10) 0.33932(7)
C11 C 0.34782(16) 0.02582(11) 0.38180(8)
H10 H 0.35410 0.02380 0.43810
C12 C 0.20054(16) 0.03049(11) 0.34389(8)
H11 H 0.10660 0.03300 0.37350
C13 C 0.19384(15) 0.03138(10) 0.26199(8)
H12 H 0.09400 0.03320 0.23460
C14 C 0.33217(15) 0.02962(10) 0.21935(8)
H13 H 0.32380 0.03000 0.16300
C15 C 0.48415(14) 0.02727(9) 0.25582(7)
C16 C 0.63196(15) 0.0278(1) 0.20377(7)
C17 C 0.71335(19) -0.08063(12) 0.20446(8)
H14 H 0.79630 -0.08200 0.16490
H15 H 0.63410 -0.14390 0.19120
H16 H 0.76160 -0.08510 0.25760
C18 C 0.75346(18) 0.12674(13) 0.23173(10)
H17 H 0.70070 0.19570 0.23320
H18 H 0.84050 0.12980 0.19450
H19 H 0.79650 0.11770 0.28520
C19 C 0.58701(18) 0.03994(13) 0.11619(8)
H20 H 0.53640 0.10910 0.11280
H21 H 0.51260 -0.02300 0.09490
H22 H 0.68330 0.04140 0.08500
C20 C 0.52843(15) 0.47057(10) 0.10441(7)
C21 C 0.62516(15) 0.56171(12) 0.15816(8)
H23 H 0.59990 0.63490 0.14240
H24 H 0.59410 0.55730 0.21410
C22 C 0.80271(16) 0.55265(14) 0.15343(9)
H25 H 0.82880 0.48140 0.17080
H26 H 0.86010 0.61320 0.18820
H27 H 0.83420 0.55740 0.09820
C23 C 0.25892(15) 0.37744(10) 0.07393(7)
C24 C 0.30621(16) 0.2748(1) 0.04154(8)
H28 H 0.41510 0.26010 0.04490
C25 C 0.19337(17) 0.19512(11) 0.00463(8)
H29 H 0.22450 0.12560 -0.01720
C26 C 0.03571(17) 0.21745(11) -0.00023(7)
C27 C -0.01471(16) 0.31876(11) 0.03009(8)
H30 H -0.12370 0.33290 0.02610
C28 C 0.09905(15) 0.39843(11) 0.06637(7)
H31 H 0.06750 0.46860 0.08650
C29 C 0.29848(14) 0.53728(10) 0.17535(7)
C30 C 0.28429(15) 0.64188(10) 0.14891(7)
H32 H 0.31730 0.65570 0.09710
C31 C 0.22289(15) 0.72557(10) 0.19714(8)
H33 H 0.21640 0.79700 0.17950
C32 C 0.17124(15) 0.70283(10) 0.27159(7)
H34 H 0.12760 0.75880 0.30530
C33 C 0.18305(14) 0.59867(10) 0.29702(7)
H35 H 0.14460 0.58500 0.34790
C34 C 0.24907(13) 0.51212(9) 0.25130(7)
C35 C 0.25295(15) 0.39954(10) 0.28741(7)
C36 C 0.38527(16) 0.32855(10) 0.25630(8)
H36 H 0.39030 0.26480 0.28750
H37 H 0.48790 0.37340 0.26160
H38 H 0.36190 0.30230 0.20000
C37 C 0.08952(16) 0.33377(11) 0.27062(9)
H39 H 0.07170 0.31530 0.21290
H40 H 0.00570 0.37880 0.29110
H41 H 0.08700 0.26530 0.29710
C38 C 0.28217(17) 0.41820(11) 0.37910(8)
H42 H 0.29110 0.34660 0.40040
H43 H 0.19280 0.45400 0.40320
H44 H 0.38110 0.46580 0.39170
N1 N 0.63214(12) 0.01304(8) 0.38623(6)
N2 N 0.78855(13) -0.42975(9) 0.39550(6)
N3 N 0.36635(12) 0.45770(8) 0.11877(6)
N4 N -0.08292(16) 0.13198(10) -0.03838(7)
O1 O 0.83093(13) 0.10311(8) 0.47044(7)
O2 O 0.91012(11) -0.44860(8) 0.43230(6)
O3 O 0.70106(12) -0.50249(8) 0.35520(6)
O4 O 0.58941(11) 0.41302(8) 0.05256(6)
O5 O -0.03420(15) 0.04885(9) -0.07487(6)
O6 O -0.22459(14) 0.14737(10) -0.03294(6)
#END
