
#######################################################################
#
#                 Cambridge Crystallographic Data Centre
#                                CCDC
#
#######################################################################
#
# If this CIF has been generated from an entry in the Cambridge
# Structural Database, then it will include bibliographic, chemical,
# crystal, experimental, refinement or atomic coordinate data resulting
# from the CCDC's data processing and validation procedures.
#
#######################################################################

data_CSD_CIF_RERXES
_audit_creation_date 2007-02-05
_audit_creation_method CSD-ConQuest-V1
_database_code_CSD RERXES
_database_code_depnum_ccdc_archive 'CCDC 608994'
_chemical_formula_sum 'C23 H21 N2 O1'
_chemical_formula_moiety
;
C23 H21 N2 O1
;
_journal_coden_Cambridge 4
_journal_volume 128
_journal_year 2006
_journal_page_first 13058
_journal_name_full 'J.Am.Chem.Soc. '
loop_
_publ_author_name
"Ying Wang"
"Hongmei Wang"
"Yunqi Liu"
"Chong-an Di"
"Yanming Sun"
"Weiping Wu"
"Gui Yu"
"Deqing Zhang"
"Daoben Zhu"
_chemical_name_systematic
;
2-(pyrenyl)-4,4,5,5-tetramethylimidazoline-1-oxyl-3-oxide
;
_chemical_name_common
;
1-imino nitroxide pyrene
;
_cell_volume   1803.974
_diffrn_ambient_temperature 293
#These two values have been output from a single CSD field.
_refine_ls_R_factor_gt 0.1017
_refine_ls_wR_factor_gt 0.1017
_symmetry_cell_setting monoclinic
_symmetry_space_group_name_H-M 'P 21/n'
_symmetry_Int_Tables_number 14
loop_
_symmetry_equiv_pos_site_id
_symmetry_equiv_pos_as_xyz
1 x,y,z
2 1/2-x,1/2+y,1/2-z
3 -x,-y,-z
4 -1/2+x,-1/2-y,-1/2+z
_cell_length_a 10.392(2)
_cell_length_b 7.2494(14)
_cell_length_c 24.220(5)
_cell_angle_alpha 90
_cell_angle_beta 98.63(3)
_cell_angle_gamma 90
_cell_formula_units_Z 4
loop_
_atom_type_symbol
_atom_type_radius_bond
C 0.68
H 0.23
N 0.68
O 0.68
loop_
_atom_site_label
_atom_site_type_symbol
_atom_site_fract_x
_atom_site_fract_y
_atom_site_fract_z
C1 C 0.1516(3) 1.0140(5) 0.12053(11)
H1 H 0.16820 1.09100 0.15310
H2 H 0.14180 0.88840 0.13170
H3 H 0.07320 1.05400 0.09760
C2 C 0.1971(3) 1.0059(4) -0.0205(1)
H4 H 0.19210 0.91990 -0.05090
H5 H 0.25410 1.10560 -0.02670
H6 H 0.11190 1.05370 -0.01820
C3 C 0.1774(3) 0.7274(4) 0.03878(13)
H7 H 0.17130 0.66040 0.00430
H8 H 0.09150 0.75290 0.04690
H9 H 0.22400 0.65480 0.06840
C4 C 1.0900(3) 1.0147(5) 0.27955(11)
H10 H 1.15430 1.06670 0.30580
C5 C 0.2923(3) 1.2299(3) 0.07635(11)
H11 H 0.30070 1.29790 0.11070
H12 H 0.22160 1.27970 0.05050
H13 H 0.37160 1.23950 0.06070
C6 C 1.0267(3) 0.5774(4) 0.19856(13)
H14 H 1.10170 0.51040 0.21110
C7 C 1.1064(3) 0.8393(4) 0.26004(11)
H15 H 1.18160 0.77420 0.27350
C8 C 0.9791(3) 1.1141(4) 0.26058(10)
H16 H 0.96950 1.23270 0.27400
C9 C 0.9356(3) 0.5019(4) 0.16049(12)
H17 H 0.94960 0.38510 0.14670
C10 C 0.2651(2) 1.0277(3) 0.08761(9)
C11 C 0.7175(3) 0.5173(3) 0.10294(11)
H18 H 0.72900 0.39970 0.08910
C12 C 0.2498(2) 0.9090(3) 0.03365(9)
C13 C 1.0125(2) 0.7572(3) 0.22045(10)
C14 C 0.6031(2) 0.6099(3) 0.08604(10)
H19 H 0.53860 0.55400 0.06070
C15 C 0.7631(2) 1.1339(3) 0.20122(9)
H20 H 0.75190 1.25340 0.21370
C16 C 0.8808(2) 1.0384(3) 0.22135(9)
C17 C 0.6679(2) 1.0572(3) 0.16493(9)
H21 H 0.59240 1.12420 0.15330
C18 C 0.5814(2) 0.7859(3) 0.10602(9)
C19 C 0.8163(2) 0.5970(3) 0.14033(10)
C20 C 0.4533(2) 0.8714(3) 0.08934(9)
C21 C 0.7980(2) 0.7767(3) 0.16121(8)
C22 C 0.6796(2) 0.8738(3) 0.14359(8)
C23 C 0.8977(2) 0.8581(3) 0.20058(8)
N1 N 0.38882(18) 0.8584(3) 0.03429(7)
N2 N 0.38496(19) 0.9548(3) 0.12195(7)
O1 O 0.43362(18) 0.7929(3) -0.00746(7)
#END
