
#######################################################################
#
#                 Cambridge Crystallographic Data Centre
#                                CCDC
#
#######################################################################
#
# If this CIF has been generated from an entry in the Cambridge
# Structural Database, then it will include bibliographic, chemical,
# crystal, experimental, refinement or atomic coordinate data resulting
# from the CCDC's data processing and validation procedures.
#
#######################################################################

data_CSD_CIF_RERXES02
_audit_creation_date 2012-04-25
_audit_creation_method CSD-ConQuest-V1
_database_code_CSD RERXES02
_database_code_depnum_ccdc_archive 'CCDC 840778'
_chemical_formula_sum 'C23 H21 N2 O1'
_chemical_formula_moiety
;
C23 H21 N2 O1
;
_journal_coden_Cambridge 1350
_journal_volume 14
_journal_year 2012
_journal_page_first 1515
_journal_name_full 'CrystEngComm '
loop_
_publ_author_name
"H.Akpinar"
"J.T.Mague"
"M.A.Novak"
"J.A.Friedman"
"P.M.Lahti"
_chemical_name_systematic
;
2-(1-Pyrenyl)-4,4,5,5-tetramethyl-4,5-dihydro-1H-imidazole-1-oxyl
;
_cell_volume   1783.522
_exptl_crystal_colour 'orange'
_exptl_crystal_density_diffrn 1.272
_exptl_crystal_description 'block'
_diffrn_ambient_temperature 293
_refine_special_details
;
C1,C10,C11,C12,C13,C14,C15,C16,C17,C18,C19,C2,C20,C21, 
C22,C23,C3,C4,C5,C6,C7,C8,C9,N1,N2,O1 and C10A,C11A,C12A,C13A,C14A, C15A, 
C16A,C17A,C18A,C19A,C1A,C20A,C21A,C22A,C23A,C2A,C3A,C4A,C5A,C6A, C7A,C8A, 
C9A,N1A,N2A,O1A disordered over two sites with occupancies 0.6345:0.3655; 
C24,C25,C26,C27,C28,C29,C30,C31,C32,C33,C34,C35,C36,C37, 
C38,C39,C40,C41,C42,C43,C44,C45,C46,N3,N4,O2 and C24A,C25A,C26A,C27A, 
C28A,C29A,C30A,C31A,C32A,C33A,C34A,C35A,C36A,C37A,C38A,C39A,C40A,C41A, 
C42A,C43A,C44A,C45A,C46A,N3A,N4A,O2A disordered over two sites with 
occupancies 0.5395:0.4605.
;
#These two values have been output from a single CSD field.
_refine_ls_R_factor_gt 0.0989
_refine_ls_wR_factor_gt 0.0989
_symmetry_cell_setting monoclinic
_symmetry_space_group_name_H-M 'P 21'
_symmetry_Int_Tables_number 4
loop_
_symmetry_equiv_pos_site_id
_symmetry_equiv_pos_as_xyz
1 x,y,z
2 -x,1/2+y,-z
_cell_length_a 7.6366(7)
_cell_length_b 15.5557(14)
_cell_length_c 15.0141(14)
_cell_angle_alpha 90
_cell_angle_beta 90.395(1)
_cell_angle_gamma 90
_cell_formula_units_Z 4
loop_
_atom_type_symbol
_atom_type_radius_bond
C 0.68
H 0.23
N 0.68
O 0.68
loop_
_atom_site_label
_atom_site_type_symbol
_atom_site_fract_x
_atom_site_fract_y
_atom_site_fract_z
C1 C 0.99496(14) 0.600(11) 0.05133(7)
O1 O 1.21604(17) 0.519(11) -0.02515(8)
N1 N 1.10730(16) 0.581(11) -0.01987(7)
N2 N 0.89789(15) 0.667(11) 0.03622(6)
C2 C 1.10844(18) 0.657(11) -0.08156(8)
C3 C 0.92637(18) 0.695(11) -0.05771(7)
C4 C 1.26173(18) 0.714(11) -0.05101(9)
H1 H 1.24350 0.73170 0.01080
H2 H 1.26840 0.76480 -0.08920
H3 H 1.37130 0.68130 -0.05510
C5 C 1.1328(2) 0.628(11) -0.17685(8)
H4 H 1.03370 0.59220 -0.19510
H5 H 1.24170 0.59540 -0.18160
H6 H 1.13880 0.67890 -0.21570
C6 C 0.77818(19) 0.656(11) -0.11356(6)
H7 H 0.78480 0.59310 -0.11020
H8 H 0.78990 0.67420 -0.17570
H9 H 0.66510 0.67530 -0.09050
C7 C 0.9173(2) 0.793(11) -0.06252(8)
H10 H 1.01240 0.81760 -0.02670
H11 H 0.80450 0.81240 -0.03940
H12 H 0.92930 0.81130 -0.12460
C8 C 1.00452(12) 0.552(11) 0.13545(7)
C9 C 1.16460(12) 0.549(11) 0.18094(8)
H13 H 1.25670 0.58630 0.16380
C10 C 1.19054(12) 0.492(11) 0.25057(8)
H14 H 1.30000 0.49140 0.28100
C11 C 1.05856(13) 0.436(11) 0.27701(7)
C12 C 1.08017(15) 0.378(11) 0.35085(8)
H15 H 1.18990 0.37520 0.38100
C13 C 0.94783(17) 0.327(11) 0.37841(8)
H16 H 0.96540 0.29050 0.42860
C14 C 0.78171(17) 0.326(11) 0.33363(8)
C15 C 0.64310(19) 0.273(11) 0.36018(8)
H17 H 0.65780 0.23700 0.41040
C16 C 0.48523(19) 0.274(11) 0.31467(9)
H18 H 0.39300 0.23710 0.33380
C17 C 0.46017(17) 0.326(11) 0.24117(8)
H19 H 0.35150 0.32550 0.21000
C18 C 0.59400(15) 0.381(11) 0.21274(7)
C19 C 0.57254(14) 0.439(11) 0.13851(6)
H20 H 0.46520 0.43810 0.10610
C20 C 0.70079(13) 0.493(11) 0.11334(6)
H21 H 0.68050 0.53090 0.06450
C21 C 0.86733(13) 0.496(11) 0.15894(6)
C22 C 0.89459(13) 0.437(11) 0.23099(7)
C23 C 0.75739(15) 0.381(11) 0.25855(7)
C24 C 0.39357(14) 0.578(11) 0.47515(6)
O2 O 0.63983(16) 0.670(11) 0.50640(6)
N3 N 0.55317(16) 0.600(11) 0.51635(6)
N4 N 0.33677(15) 0.504(11) 0.49992(7)
C25 C 0.62739(17) 0.521(11) 0.55951(6)
C26 C 0.45370(18) 0.470(11) 0.57265(6)
C27 C 0.74804(15) 0.480(11) 0.49017(6)
H22 H 0.67990 0.46580 0.43670
H23 H 0.80020 0.42770 0.51500
H24 H 0.84110 0.52070 0.47460
C28 C 0.7288(2) 0.544(11) 0.64295(6)
H25 H 0.64950 0.57030 0.68630
H26 H 0.82180 0.58510 0.62810
H27 H 0.78080 0.49210 0.66850
C29 C 0.3645(2) 0.493(11) 0.66070(7)
H28 H 0.35290 0.55550 0.66560
H29 H 0.43530 0.47130 0.71050
H30 H 0.24810 0.46650 0.66230
C30 C 0.47232(19) 0.374(11) 0.56432(7)
H31 H 0.52950 0.35970 0.50790
H32 H 0.35610 0.34690 0.56570
H33 H 0.54340 0.35180 0.61400
C31 C 0.29242(13) 0.634(11) 0.41676(7)
C32 C 0.12021(14) 0.653(11) 0.44084(8)
H34 H 0.06900 0.62370 0.48980
C33 C 0.02339(14) 0.713(11) 0.39425(9)
H35 H -0.09310 0.72540 0.41210
C34 C 0.09384(14) 0.757(11) 0.32135(9)
C35 C -0.00194(16) 0.822(11) 0.27352(10)
H36 H -0.11960 0.83350 0.28950
C36 C 0.07174(18) 0.866(11) 0.20625(10)
H37 H 0.00590 0.90990 0.17720
C37 C 0.24682(17) 0.849(11) 0.17780(9)
C38 C 0.32559(19) 0.894(11) 0.10768(9)
H38 H 0.26220 0.93770 0.07790
C39 C 0.49393(19) 0.874(11) 0.08095(8)
H39 H 0.54470 0.90540 0.03310
C40 C 0.58961(16) 0.810(11) 0.12346(7)
H40 H 0.70480 0.79730 0.10410
C41 C 0.51743(14) 0.765(11) 0.19467(7)
C42 C 0.61298(12) 0.699(11) 0.24198(6)
H41 H 0.72790 0.68520 0.22320
C43 C 0.54408(12) 0.658(11) 0.31262(6)
H42 H 0.61250 0.61560 0.34280
C44 C 0.36939(13) 0.676(11) 0.34313(7)
C45 C 0.26895(14) 0.738(11) 0.29519(7)
C46 C 0.34390(15) 0.783(11) 0.22221(8)
C47? C 0.52629(14) 0.456(11) 0.10559(6)
C48? C 0.59644(14) 0.411(11) 0.17842(6)
C49? C 0.50002(16) 0.346(11) 0.22492(8)
C50? C 0.57337(18) 0.301(11) 0.29214(8)
C51? C 0.74874(17) 0.317(11) 0.32187(8)
C52? C 0.82719(19) 0.271(11) 0.39197(8)
C53? C 0.99584(19) 0.290(11) 0.41996(9)
C54? C 1.09217(16) 0.354(11) 0.37877(8)
C55? C 1.02032(14) 0.401(11) 0.30764(8)
C56? C 1.11651(12) 0.466(11) 0.26165(8)
C57? C 0.89817(15) 0.589(11) 0.02664(6)
C58? C 1.04790(12) 0.509(11) 0.19107(7)
C59? C 0.87290(13) 0.492(11) 0.15927(6)
C60? C 0.77185(14) 0.429(11) 0.20589(6)
C61? C 0.84648(15) 0.383(11) 0.27881(7)
C62? C 0.49312(14) 0.568(11) 0.45123(6)
C63? C 0.60771(18) 0.508(11) 0.58324(6)
C64? C 0.42295(17) 0.472(11) 0.55911(7)
C65? C 0.75702(18) 0.450(11) 0.55176(6)
C66? C 0.6365(2) 0.535(11) 0.67886(5)
C67? C 0.27862(19) 0.513(11) 0.61565(7)
C68? C 1.13233(17) 0.643(11) -0.05764(8)
C69? C 0.40896(19) 0.375(11) 0.56266(8)
C70? C 0.50338(12) 0.616(11) 0.36698(6)
C71? C 0.66301(11) 0.618(11) 0.32214(5)
C72? C 0.68869(12) 0.674(11) 0.25197(6)
C73? C 0.55692(13) 0.730(11) 0.22431(6)
C74? C 0.57824(15) 0.787(11) 0.14989(7)
C75? C 0.44605(17) 0.838(11) 0.12117(8)
C76? C 0.28041(17) 0.840(11) 0.16524(8)
C77? C 0.14197(19) 0.892(11) 0.13749(10)
C78? C -0.01541(19) 0.893(11) 0.18232(11)
C79? C 0.96208(18) 0.698(11) -0.06881(7)
C80? C -0.04014(17) 0.841(11) 0.25633(11)
C81? C 0.09352(15) 0.786(11) 0.28596(9)
C82? C 0.07236(14) 0.730(11) 0.36077(9)
C83? C 0.20040(13) 0.675(11) 0.38711(8)
C84? C 0.36643(12) 0.672(11) 0.34226(7)
C85? C 0.39342(13) 0.730(11) 0.26965(7)
C86? C 0.25642(15) 0.786(11) 0.24085(8)
C87? C 1.25915(16) 0.681(11) 0.01196(9)
C88? C 1.2282(2) 0.620(11) -0.14206(9)
C89? C 0.8672(2) 0.679(11) -0.15687(6)
C90? C 0.9884(2) 0.794(11) -0.05848(8)
C91? C 0.79621(14) 0.534(11) 0.08565(6)
C92? C 0.62370(14) 0.516(11) 0.06029(6)
H43? H 0.40960 0.44400 0.08690
H44? H 0.38210 0.33480 0.20800
H45? H 0.50710 0.25680 0.32030
H46? H 0.76330 0.22720 0.42080
H47? H 1.04630 0.25810 0.46780
H48? H 1.20750 0.36650 0.39900
H49? H 1.23160 0.47990 0.28140
H50? H 1.11670 0.55100 0.16180
H51? H 0.73590 0.43270 0.48970
H52? H 0.76220 0.39810 0.58930
H53? H 0.86830 0.48070 0.55620
H54? H 0.54000 0.57220 0.69770
H55? H 0.74730 0.56660 0.68390
H56? H 0.64110 0.48400 0.71700
H57? H 0.28840 0.57550 0.61310
H58? H 0.29130 0.49360 0.67750
H59? H 0.16380 0.49510 0.59250
H60? H 0.50160 0.34930 0.52640
H61? H 0.29440 0.35690 0.53940
H62? H 0.42190 0.35540 0.62450
H63? H 0.75500 0.58040 0.34010
H64? H 0.79790 0.67400 0.22200
H65? H 0.68760 0.78930 0.12020
H66? H 0.46340 0.87390 0.07060
H67? H 0.15650 0.92830 0.08690
H68? H -0.10750 0.92960 0.16240
H69? H -0.14850 0.84260 0.28700
H70? H -0.03460 0.73090 0.39270
H71? H 0.18040 0.63810 0.43630
H72? H 1.19460 0.69540 0.06610
H73? H 1.31410 0.73280 -0.01200
H74? H 1.34970 0.63830 0.02620
H75? H 1.14500 0.59660 -0.18560
H76? H 1.31860 0.57750 -0.12860
H77? H 1.28300 0.67200 -0.16670
H78? H 0.85070 0.61640 -0.16310
H79? H 0.93750 0.69990 -0.20660
H80? H 0.75290 0.70720 -0.15730
H81? H 1.04910 0.80560 -0.00210
H82? H 0.87430 0.82270 -0.05870
H83? H 1.05890 0.81540 -0.10800
H84? H 0.57270 0.54600 0.01130
N5? N 1.05411(16) 0.565(11) -0.01582(7)
N6? N 0.84599(16) 0.665(11) 0.00377(6)
N7? N 0.60861(16) 0.584(11) 0.52253(5)
N8? N 0.39306(14) 0.502(11) 0.46560(6)
O3? O 1.13584(17) 0.494(11) -0.00783(8)
O4? O 0.72073(17) 0.645(11) 0.52849(6)
#END
