
#######################################################################
#
#                 Cambridge Crystallographic Data Centre
#                                CCDC
#
#######################################################################
#
# If this CIF has been generated from an entry in the Cambridge
# Structural Database, then it will include bibliographic, chemical,
# crystal, experimental, refinement or atomic coordinate data resulting
# from the CCDC's data processing and validation procedures.
#
#######################################################################

data_CSD_CIF_RERXAQ
_audit_creation_date 2018-02-20
_audit_creation_method CSD-ConQuest-V1
_database_code_CSD RERXAQ
_database_code_depnum_ccdc_archive 'CCDC 969531'
_chemical_formula_sum 'C9 H15 N1 O4'
_chemical_formula_moiety
;
C9 H15 N1 O4
;
_journal_coden_Cambridge 16
_journal_volume 74
_journal_year 2018
_journal_page_first 1435
_journal_name_full 'Tetrahedron '
loop_
_publ_author_name
"A.M.Foley"
"D.P.Gavin"
"R.E.Deasy"
"S.E.Milner"
"T.S.Moody"
"K.S.Eccles"
"S.E.Lawrence"
"A.R.Maguire"
_chemical_name_systematic
;
(1R,2S)-2-methyl-2-nitrocyclohexyl acetate
;
_cell_volume   1002.870
_exptl_crystal_colour 'colorless'
_exptl_crystal_density_diffrn 1.333
_exptl_special_details
;
Absolute configuration

;
_exptl_crystal_description 'Block'
_diffrn_ambient_temperature 100
#These two values have been output from a single CSD field.
_refine_ls_R_factor_gt 0.0259
_refine_ls_wR_factor_gt 0.0259
loop_
_citation_database_id_CSD
_citation_special_details
RERXEU "is a racemate of this entry"
_symmetry_cell_setting orthorhombic
_symmetry_space_group_name_H-M 'P 21 21 21'
_symmetry_Int_Tables_number 19
loop_
_symmetry_equiv_pos_site_id
_symmetry_equiv_pos_as_xyz
1 x,y,z
2 1/2-x,-y,1/2+z
3 -x,1/2+y,1/2-z
4 1/2+x,1/2-y,-z
_cell_length_a 6.0502(2)
_cell_length_b 10.5734(3)
_cell_length_c 15.6769(5)
_cell_angle_alpha 90
_cell_angle_beta 90
_cell_angle_gamma 90
_cell_formula_units_Z 4
loop_
_atom_type_symbol
_atom_type_radius_bond
C 0.68
H 0.23
N 0.68
O 0.68
loop_
_atom_site_label
_atom_site_type_symbol
_atom_site_fract_x
_atom_site_fract_y
_atom_site_fract_z
C1 C 0.8399(3) 0.01676(15) 0.84229(10)
H1 H 1.00450 0.01240 0.84770
C2 C 0.7350(3) -0.09891(15) 0.88493(9)
C3 C 0.4850(3) -0.10360(15) 0.87203(10)
H2 H 0.41500 -0.03130 0.90170
H3 H 0.42530 -0.18270 0.89680
C4 C 0.4303(3) -0.09810(16) 0.7765(1)
H4 H 0.49220 -0.17350 0.74770
H5 H 0.26790 -0.09910 0.76870
C5 C 0.5257(3) 0.02119(16) 0.73622(11)
H6 H 0.45700 0.09660 0.76260
H7 H 0.49100 0.02230 0.67450
C6 C 0.7756(3) 0.02639(16) 0.74861(10)
H8 H 0.84510 -0.04390 0.71670
H9 H 0.83270 0.10680 0.72500
C7 C 0.8489(3) -0.22075(15) 0.85768(11)
H10 H 0.78460 -0.29220 0.88880
H11 H 1.00710 -0.21510 0.87040
H12 H 0.82820 -0.23340 0.79630
N1 N 0.7872(2) -0.08594(13) 0.98056(9)
O1 O 0.6380(2) -0.09523(13) 1.03228(7)
O2 O 0.9814(2) -0.06971(13) 1.00016(8)
O3 O 0.75691(18) 0.12627(11) 0.88839(7)
C8 C 0.8912(3) 0.22838(16) 0.89041(10)
O4 O 1.0685(2) 0.23174(12) 0.85614(8)
C9 C 0.7893(3) 0.33289(17) 0.94117(11)
H13 H 0.79970 0.31300 1.00210
H14 H 0.63360 0.34210 0.92510
H15 H 0.86780 0.41210 0.92960
#END
