
#######################################################################
#
#                 Cambridge Crystallographic Data Centre
#                                CCDC
#
#######################################################################
#
# If this CIF has been generated from an entry in the Cambridge
# Structural Database, then it will include bibliographic, chemical,
# crystal, experimental, refinement or atomic coordinate data resulting
# from the CCDC's data processing and validation procedures.
#
#######################################################################

data_CSD_CIF_RESKUV
_audit_creation_date 1997-10-02
_audit_creation_method CSD-ConQuest-V1
_database_code_CSD RESKUV
_database_code_depnum_ccdc_archive 'CCDC 129006'
_chemical_formula_sum 'C14 H17 N3 O2'
_chemical_formula_moiety
;
C14 H17 N3 O2
;
_journal_coeditor_code "IUCr SK1102"
_journal_coden_Cambridge 591
_journal_volume 53
_journal_year 1997
_journal_page_first 1091
_journal_name_full 'Acta Crystallogr.,Sect.C:Cryst.Struct.Commun. '
loop_
_publ_author_name
"K.Frydenvang"
"I.K.Larsen"
_chemical_name_systematic
;
1-(1-Cyanocyclohexyl)-1-hydroxy-3-phenylurea
;
_chemical_melting_point 411
_cell_volume   1367.382
_exptl_crystal_colour 'colorless'
_exptl_crystal_density_diffrn 1.26
_exptl_special_details
;
Melting point range 411-413K

;
_diffrn_ambient_temperature ?
_diffrn_special_details
;
The study was carried out at room temperature,in the range 283-303K

;
#These two values have been output from a single CSD field.
_refine_ls_R_factor_gt 0.0703
_refine_ls_wR_factor_gt 0.0703
_symmetry_cell_setting triclinic
_symmetry_space_group_name_H-M 'P -1'
_symmetry_Int_Tables_number 2
loop_
_symmetry_equiv_pos_site_id
_symmetry_equiv_pos_as_xyz
1 x,y,z
2 -x,-y,-z
_cell_length_a 10.0301(6)
_cell_length_b 11.7403(7)
_cell_length_c 11.7660(7)
_cell_angle_alpha 95.559(5)
_cell_angle_beta 90.617(5)
_cell_angle_gamma 97.323(5)
_cell_formula_units_Z 4
loop_
_atom_type_symbol
_atom_type_radius_bond
C 0.68
H 0.23
N 0.68
O 0.68
loop_
_atom_site_label
_atom_site_type_symbol
_atom_site_fract_x
_atom_site_fract_y
_atom_site_fract_z
C1 C 0.1871(1) 0.1842(1) 0.7722(1)
C2 C 0.2238(2) 0.2604(1) 0.8840(1)
H1 H 0.1457(2) 0.2586(1) 0.9320(1)
H2 H 0.2939(2) 0.2295(1) 0.9243(1)
C3 C 0.2723(2) 0.3848(2) 0.8635(2)
H3 H 0.3572(2) 0.3880(2) 0.8245(2)
H4 H 0.2875(2) 0.4312(2) 0.9364(2)
C4 C 0.1706(2) 0.4350(2) 0.7923(2)
H5 H 0.0893(2) 0.4406(2) 0.8352(2)
H6 H 0.2073(2) 0.5122(2) 0.7764(2)
C5 C 0.1365(2) 0.3606(2) 0.6807(2)
H7 H 0.2159(2) 0.3616(2) 0.6343(2)
H8 H 0.0682(2) 0.3924(2) 0.6390(2)
C6 C 0.0854(1) 0.2369(1) 0.7008(1)
H9 H 0.0690(1) 0.1908(1) 0.6278(1)
H10 H 0.0008(1) 0.2350(1) 0.7402(1)
C7 C 0.3079(1) 0.1778(1) 0.7026(1)
N1 N 0.3995(1) 0.1837(2) 0.6459(1)
N2 N 0.1310(1) 0.0646(1) 0.7915(1)
O1 O 0.00068(9) 0.0623(1) 0.8368(1)
H11 H -0.0554(1) 0.035(2) 0.7869(5)
C8 C 0.2112(1) 0.0001(1) 0.8506(1)
O2 O 0.33480(9) 0.0158(1) 0.84145(9)
N3 N 0.1450(1) -0.0801(1) 0.9094(1)
H12 H 0.0587(1) -0.0851(1) 0.9086(1)
C9 C 0.2044(1) -0.1576(1) 0.9729(1)
C10 C 0.3207(2) -0.1234(2) 1.0386(1)
H13 H 0.3651(2) -0.0489(2) 1.0385(1)
C11 C 0.3702(2) -0.2003(2) 1.1043(2)
H14 H 0.4485(2) -0.1775(2) 1.1480(2)
C12 C 0.3048(2) -0.3107(2) 1.1059(2)
H15 H 0.3386(2) -0.3619(2) 1.1507(2)
C13 C 0.1891(2) -0.3447(2) 1.0406(2)
H16 H 0.1446(2) -0.4192(2) 1.0414(2)
C14 C 0.1390(2) -0.2685(1) 0.9740(2)
H17 H 0.0611(2) -0.2919(1) 0.9298(2)
C15 C -0.3695(1) -0.1855(1) 0.7255(1)
C16 C -0.4860(1) -0.2377(1) 0.7959(1)
H18 H -0.4867(1) -0.1922(1) 0.8692(1)
H19 H -0.5706(1) -0.2345(1) 0.7563(1)
C17 C -0.4739(2) -0.3623(2) 0.8151(2)
H20 H -0.3931(2) -0.3651(2) 0.8603(2)
H21 H -0.5505(2) -0.3932(2) 0.8573(2)
C18 C -0.4681(2) -0.4356(2) 0.7026(2)
H22 H -0.5521(2) -0.4382(2) 0.6602(2)
H23 H -0.4568(2) -0.5137(2) 0.7170(2)
C19 C -0.3526(2) -0.3872(2) 0.6316(2)
H24 H -0.3552(2) -0.4326(2) 0.5580(2)
H25 H -0.2680(2) -0.3935(2) 0.6698(2)
C20 C -0.3592(2) -0.2617(1) 0.6133(1)
H26 H -0.4366(2) -0.2571(1) 0.5647(1)
H27 H -0.2793(2) -0.2323(1) 0.5742(1)
C21 C -0.2455(1) -0.1799(1) 0.7962(1)
N4 N -0.1558(1) -0.1852(2) 0.8540(1)
N5 N -0.3889(1) -0.0658(1) 0.7067(1)
O3 O -0.51890(9) -0.0617(1) 0.6611(1)
H28 H -0.5664(6) -0.037(2) 0.7116(5)
C22 C -0.2895(1) -0.0007(1) 0.6490(1)
O4 O -0.17114(9) -0.0184(1) 0.65787(9)
N6 N -0.3310(1) 0.0816(1) 0.5922(1)
H29 H -0.4154(1) 0.0885(1) 0.5930(1)
C23 C -0.2464(1) 0.1591(1) 0.5303(1)
C24 C -0.1482(2) 0.1213(1) 0.4600(1)
H30 H -0.1333(2) 0.0444(1) 0.4552(1)
C25 C -0.0723(2) 0.1979(2) 0.3970(2)
H31 H -0.0061(2) 0.1722(2) 0.3499(2)
C26 C -0.0935(2) 0.3116(2) 0.4031(2)
H32 H -0.0426(2) 0.3627(2) 0.3599(2)
C27 C -0.1905(2) 0.3492(2) 0.4735(2)
H33 H -0.2046(2) 0.4263(2) 0.4787(2)
C28 C -0.2677(2) 0.2729(2) 0.5369(2)
H34 H -0.3338(2) 0.2988(2) 0.5839(2)
#END
