
#######################################################################
#
#                 Cambridge Crystallographic Data Centre
#                                CCDC
#
#######################################################################
#
# If this CIF has been generated from an entry in the Cambridge
# Structural Database, then it will include bibliographic, chemical,
# crystal, experimental, refinement or atomic coordinate data resulting
# from the CCDC's data processing and validation procedures.
#
#######################################################################

data_CSD_CIF_RESKAC
_audit_creation_date 2007-02-05
_audit_creation_method CSD-ConQuest-V1
_database_code_CSD RESKAC
_database_code_depnum_ccdc_archive 'CCDC 614025'
_chemical_formula_sum 'C27 H19 N3 O8'
_chemical_formula_moiety
;
C27 H19 N3 O8
;
_journal_coden_Cambridge 471
_journal_volume 22
_journal_year 2006
_journal_page_first x259
_journal_name_full 'Anal.Sci.:X-Ray Struct.Anal.Online '
loop_
_publ_author_name
"F.Dumitrascu"
"M.R.Caira"
"C.Draghici"
"D.Dumitrescu"
_chemical_name_systematic
;
Diethyl 
10-(4-nitrobenzoyl)pyrrolo(1,2-a)(4,5)diazafluoren-5-one-8,9-dicarboxylate
;
_chemical_melting_point 530
_cell_volume   2316.977
_exptl_crystal_colour 'red'
_exptl_crystal_density_diffrn 1.472
_exptl_special_details
;
Melting point range 530-532K

;
_exptl_crystal_description 'plate'
_diffrn_ambient_temperature 113
#These two values have been output from a single CSD field.
_refine_ls_R_factor_gt 0.051
_refine_ls_wR_factor_gt 0.051
_symmetry_cell_setting monoclinic
_symmetry_space_group_name_H-M 'P 21/c'
_symmetry_Int_Tables_number 14
loop_
_symmetry_equiv_pos_site_id
_symmetry_equiv_pos_as_xyz
1 x,y,z
2 -x,1/2+y,1/2-z
3 -x,-y,-z
4 x,-1/2-y,-1/2+z
_cell_length_a 7.9340(2)
_cell_length_b 31.0480(7)
_cell_length_c 9.4411(2)
_cell_angle_alpha 90
_cell_angle_beta 94.956(1)
_cell_angle_gamma 90
_cell_formula_units_Z 4
loop_
_atom_type_symbol
_atom_type_radius_bond
C 0.68
H 0.23
N 0.68
O 0.68
loop_
_atom_site_label
_atom_site_type_symbol
_atom_site_fract_x
_atom_site_fract_y
_atom_site_fract_z
N1 N 0.48120(18) 0.53407(5) 0.70798(14)
C1 C 0.3409(2) 0.52815(6) 0.60865(18)
C2 C 0.2995(2) 0.48625(6) 0.56065(18)
H1 H 0.20680 0.48200 0.49140
C3 C 0.3914(2) 0.45176(7) 0.61295(19)
H2 H 0.36830 0.42370 0.57640
C4 C 0.6264(2) 0.42742(7) 0.81204(19)
C5 C 0.8261(3) 0.44351(7) 1.0446(2)
H3 H 0.85780 0.41450 1.06560
C6 C 0.8828(2) 0.47747(7) 1.13213(19)
H4 H 0.95700 0.47200 1.21460
C7 C 0.8319(2) 0.51914(7) 1.10008(19)
H5 H 0.87200 0.54140 1.16340
N2 N 0.72806(18) 0.53042(5) 0.98360(15)
C8 C 0.6792(2) 0.49758(6) 0.90002(18)
C9 C 0.7209(2) 0.45421(7) 0.92485(19)
C10 C 0.5608(2) 0.49934(6) 0.77070(18)
C11 C 0.5214(2) 0.45860(6) 0.72232(18)
O1 O 0.63125(18) 0.38851(5) 0.79801(15)
C12 C 0.5079(2) 0.57809(6) 0.73497(18)
C13 C 0.3755(2) 0.59968(6) 0.65964(17)
C14 C 0.2738(2) 0.56933(6) 0.57892(18)
C15 C 0.1343(2) 0.57794(7) 0.47149(19)
O2 O 0.07609(17) 0.55166(5) 0.38471(14)
O3 O 0.08018(16) 0.61878(5) 0.47831(14)
C16 C -0.0488(3) 0.63309(7) 0.3698(2)
H6 H -0.11750 0.60830 0.33250
H7 H 0.00460 0.64660 0.28980
C17 C -0.1571(3) 0.66468(8) 0.4360(2)
H8 H -0.20630 0.65130 0.51700
H9 H -0.24800 0.67410 0.36600
H10 H -0.08890 0.68960 0.46910
C18 C 0.3425(2) 0.64693(7) 0.6618(2)
O4 O 0.26765(18) 0.66402(4) 0.75212(14)
O5 O 0.40349(18) 0.66682(4) 0.55271(14)
C19 C 0.3520(3) 0.71213(7) 0.5349(2)
H11 H 0.23230 0.71540 0.55520
H12 H 0.42250 0.73040 0.60240
C20 C 0.3722(4) 0.72557(8) 0.3902(3)
H13 H 0.30930 0.70600 0.32370
H14 H 0.49240 0.72490 0.37360
H15 H 0.32870 0.75490 0.37570
C21 C 0.6832(2) 0.59356(6) 0.77246(18)
O6 O 0.79916(16) 0.57464(4) 0.72222(12)
C22 C 0.7154(2) 0.63223(6) 0.86287(18)
C23 C 0.8710(2) 0.65287(6) 0.86202(19)
H16 H 0.94920 0.64360 0.79760
C24 C 0.9129(3) 0.68661(6) 0.9537(2)
H17 H 1.01940 0.70070 0.95420
C25 C 0.7943(3) 0.69925(6) 1.04487(19)
C26 C 0.6382(3) 0.67982(7) 1.04761(19)
H18 H 0.55960 0.68950 1.11100
C27 C 0.5992(2) 0.64586(6) 0.95578(19)
H19 H 0.49290 0.63180 0.95610
N3 N 0.8384(3) 0.73469(6) 1.14514(19)
O7 O 0.9875(2) 0.74489(5) 1.16706(17)
O8 O 0.7241(2) 0.75193(5) 1.20305(18)
#END
