
#######################################################################
#
#                 Cambridge Crystallographic Data Centre
#                                CCDC
#
#######################################################################
#
# If this CIF has been generated from an entry in the Cambridge
# Structural Database, then it will include bibliographic, chemical,
# crystal, experimental, refinement or atomic coordinate data resulting
# from the CCDC's data processing and validation procedures.
#
#######################################################################

data_CSD_CIF_RETSEP
_audit_creation_date 2007-02-05
_audit_creation_method CSD-ConQuest-V1
_database_code_CSD RETSEP
_database_code_depnum_ccdc_archive 'CCDC 282465'
_chemical_formula_sum 'C19 H27 N5 O4'
_chemical_formula_moiety
;
C19 H27 N5 O4
;
_journal_coden_Cambridge 1145
_journal_volume 16
_journal_year 2006
_journal_page_first 4146
_journal_name_full 'J.Mater.Chem. '
loop_
_publ_author_name
"K.Hayakawa"
"D.Shiomi"
"T.Ise"
"K.Sato"
"T.Takui"
_chemical_name_systematic
;
3,5-bis(1-oxyl-3-oxide-4,4,5,5-tetramethyl-2-imidazolin-2-yl)pyridine 
biradical
;
_cell_volume   1972.705
_exptl_crystal_colour 'blue'
_exptl_crystal_density_diffrn 1.311
_exptl_crystal_description 'platelet'
_exptl_crystal_preparation 'ethyl acetate/heptane'
_diffrn_ambient_temperature 143.1
#These two values have been output from a single CSD field.
_refine_ls_R_factor_gt 0.0665
_refine_ls_wR_factor_gt 0.0665
_symmetry_cell_setting triclinic
_symmetry_space_group_name_H-M 'P -1'
_symmetry_Int_Tables_number 2
loop_
_symmetry_equiv_pos_site_id
_symmetry_equiv_pos_as_xyz
1 x,y,z
2 -x,-y,-z
_cell_length_a 11.275(4)
_cell_length_b 11.242(4)
_cell_length_c 17.688(6)
_cell_angle_alpha 108.566(3)
_cell_angle_beta 110.869(3)
_cell_angle_gamma 89.344(3)
_cell_formula_units_Z 4
loop_
_atom_type_symbol
_atom_type_radius_bond
C 0.68
H 0.23
N 0.68
O 0.68
loop_
_atom_site_label
_atom_site_type_symbol
_atom_site_fract_x
_atom_site_fract_y
_atom_site_fract_z
O1 O 0.28119(13) 0.51209(16) -0.00582(8)
O2 O 0.28550(11) 0.49328(11) 0.25253(6)
O3 O -0.20307(14) -0.00352(12) -0.03335(8)
O4 O 0.03326(11) 0.27340(11) 0.23834(6)
O5 O 1.05960(14) 0.76853(14) 0.52347(8)
O6 O 0.78222(12) 0.76795(12) 0.25733(6)
O7 O 0.52884(13) 1.22779(12) 0.51482(8)
O8 O 0.56466(11) 1.00557(11) 0.25519(6)
N1 N -0.04503(14) 0.29164(16) -0.06842(10)
N2 N 0.31215(13) 0.53026(13) 0.07362(9)
N3 N 0.31411(12) 0.52260(12) 0.19668(8)
N4 N -0.16224(13) 0.05626(13) 0.04727(9)
N5 N -0.04822(12) 0.18584(12) 0.17632(8)
N6 N 0.76565(16) 0.96359(16) 0.56482(10)
N7 N 0.99981(14) 0.73837(14) 0.44272(9)
N8 N 0.87090(12) 0.74099(12) 0.31673(9)
N9 N 0.51517(12) 1.18882(12) 0.43582(9)
N10 N 0.53287(12) 1.08398(12) 0.31291(8)
C1 C 0.06167(16) 0.37174(17) -0.02193(11)
C2 C 0.13547(14) 0.38682(14) 0.06376(10)
C3 C 0.09477(14) 0.31419(13) 0.10307(10)
C4 C -0.01646(14) 0.22949(14) 0.05463(10)
C5 C -0.08214(17) 0.22175(18) -0.03086(11)
C6 C 0.25077(14) 0.47755(14) 0.11045(10)
C7 C 0.43950(16) 0.60070(16) 0.13783(10)
C8 C 0.41734(14) 0.62808(14) 0.22292(10)
C9 C 0.46714(19) 0.71709(18) 0.11772(12)
C10 C 0.53816(18) 0.5090(2) 0.12849(12)
C11 C 0.35988(17) 0.75181(16) 0.24926(11)
C12 C 0.53335(16) 0.62185(17) 0.29842(11)
C13 C -0.07066(14) 0.15693(14) 0.09226(10)
C14 C -0.22859(16) 0.03358(17) 0.10251(11)
C15 C -0.12380(16) 0.09429(16) 0.19320(11)
C16 C -0.34612(18) 0.1052(2) 0.08583(14)
C17 C -0.2680(2) -0.1068(2) 0.07677(13)
C18 C -0.17340(19) 0.1659(2) 0.26254(12)
C19 C -0.03331(19) 0.00308(18) 0.22330(12)
C20 C 0.83776(18) 0.89441(18) 0.52645(11)
C21 C 0.82756(14) 0.88197(14) 0.44323(10)
C22 C 0.74069(14) 0.94899(14) 0.39916(10)
C23 C 0.66518(14) 1.02286(13) 0.43938(10)
C24 C 0.68018(17) 1.02532(17) 0.52220(11)
C25 C 0.89938(14) 0.79237(14) 0.40153(10)
C26 C 1.02210(19) 0.62208(18) 0.38024(11)
C27 C 0.96378(14) 0.65079(14) 0.29538(10)
C28 C 0.9462(3) 0.5124(2) 0.38212(16)
C29 C 1.1625(2) 0.6073(2) 0.40829(13)
C30 C 0.89315(18) 0.53734(18) 0.21704(11)
C31 C 1.0574(2) 0.7217(2) 0.27654(16)
C32 C 0.57286(14) 1.09609(13) 0.39681(10)
C33 C 0.44603(16) 1.26113(14) 0.37771(10)
C34 C 0.42565(14) 1.16278(14) 0.28846(10)
C35 C 0.32449(17) 1.29959(18) 0.39184(12)
C36 C 0.53871(19) 1.37715(17) 0.40264(12)
C37 C 0.30145(14) 1.07415(16) 0.24919(11)
C38 C 0.43951(17) 1.21721(17) 0.22330(11)
H1 H 0.08900 0.42150 -0.04850
H2 H 0.14170 0.32210 0.16130
H3 H -0.15720 0.16360 -0.06380
H4 H 0.38890 0.74660 0.09150
H5 H 0.51190 0.69580 0.07960
H6 H 0.51780 0.78150 0.16940
H7 H 0.51010 0.45260 0.07090
H8 H 0.54810 0.46230 0.16620
H9 H 0.61770 0.55480 0.14250
H10 H 0.32060 0.77720 0.20050
H11 H 0.29780 0.73930 0.27170
H12 H 0.42570 0.81560 0.29190
H13 H 0.52460 0.67010 0.35070
H14 H 0.60830 0.65510 0.29580
H15 H 0.53960 0.53650 0.29600
H16 H -0.41270 0.06330 0.09240
H17 H -0.32480 0.18880 0.12570
H18 H -0.37400 0.10780 0.02900
H19 H -0.26770 -0.12570 0.12550
H20 H -0.35140 -0.12880 0.03360
H21 H -0.20950 -0.15380 0.05510
H22 H -0.25140 0.12210 0.25360
H23 H -0.18740 0.24830 0.26000
H24 H -0.11220 0.17200 0.31730
H25 H 0.05150 0.04460 0.25190
H26 H -0.05760 -0.02470 0.26170
H27 H -0.03720 -0.06760 0.17510
H28 H 0.89930 0.85140 0.55720
H29 H 0.73300 0.94470 0.34310
H30 H 0.62710 1.07300 0.54900
H31 H 0.85770 0.52180 0.36160
H32 H 0.97260 0.51190 0.43940
H33 H 0.96100 0.43510 0.34650
H34 H 1.19610 0.61900 0.46790
H35 H 1.17410 0.52510 0.37690
H36 H 1.20580 0.66850 0.39770
H37 H 0.85930 0.56310 0.16800
H38 H 0.82540 0.50110 0.22560
H39 H 0.95050 0.47660 0.20830
H40 H 1.11010 0.66470 0.25510
H41 H 1.01160 0.75870 0.23490
H42 H 1.10920 0.78610 0.32780
H43 H 0.27920 1.34050 0.35240
H44 H 0.27270 1.22670 0.38300
H45 H 0.34530 1.35580 0.44890
H46 H 0.52590 1.44400 0.44690
H47 H 0.52400 1.40250 0.35400
H48 H 0.62400 1.35730 0.42260
H49 H 0.29670 1.03650 0.28920
H50 H 0.23080 1.12080 0.23560
H51 H 0.29970 1.01010 0.19840
H52 H 0.38060 1.27740 0.21520
H53 H 0.52410 1.25700 0.24360
H54 H 0.42240 1.15100 0.17020
#END
