
#######################################################################
#
#                 Cambridge Crystallographic Data Centre
#                                CCDC
#
#######################################################################
#
# If this CIF has been generated from an entry in the Cambridge
# Structural Database, then it will include bibliographic, chemical,
# crystal, experimental, refinement or atomic coordinate data resulting
# from the CCDC's data processing and validation procedures.
#
#######################################################################

data_CSD_CIF_RETXUM
_audit_creation_date 2018-02-21
_audit_creation_method CSD-ConQuest-V1
_database_code_CSD RETXUM
_database_code_depnum_ccdc_archive 'CCDC 1573425'
_chemical_formula_sum 'C21 H22 N2 O3'
_chemical_formula_moiety
;
C21 H22 N2 O3
;
_journal_coden_Cambridge 35
_journal_volume 83
_journal_year 2018
_journal_page_first 2324
_journal_name_full 'J.Org.Chem. '
loop_
_publ_author_name
"A.Peneau"
"P.Retailleau"
"C.Guillou"
"L.Chabaud"
_chemical_name_systematic
;
5-benzyl-7-methoxy-4,5,6,7-tetrahydro-2H-2a,6-methanofuro[4,3,2-gh][2,4]benzod
iazonin-8(3H)-one
;
_cell_volume   1825.289
_exptl_crystal_colour 'colorless'
_exptl_crystal_density_diffrn 1.275
_exptl_crystal_description 'stick'
_exptl_crystal_preparation 'Re-crystallisation from solvent'
_diffrn_ambient_temperature 293
#These two values have been output from a single CSD field.
_refine_ls_R_factor_gt 0.0455
_refine_ls_wR_factor_gt 0.0455
_symmetry_cell_setting monoclinic
_symmetry_space_group_name_H-M 'P 21/c'
_symmetry_Int_Tables_number 14
loop_
_symmetry_equiv_pos_site_id
_symmetry_equiv_pos_as_xyz
1 x,y,z
2 -x,1/2+y,1/2-z
3 -x,-y,-z
4 x,-1/2-y,-1/2+z
_cell_length_a 19.3193(14)
_cell_length_b 5.7445(4)
_cell_length_c 17.4580(12)
_cell_angle_alpha 90
_cell_angle_beta 109.594(6)
_cell_angle_gamma 90
_cell_formula_units_Z 4
loop_
_atom_type_symbol
_atom_type_radius_bond
C 0.68
H 0.23
N 0.68
O 0.68
loop_
_atom_site_label
_atom_site_type_symbol
_atom_site_fract_x
_atom_site_fract_y
_atom_site_fract_z
C1 C 0.77834(8) 0.2696(2) 0.79834(8)
H1 H 0.77919 0.12463 0.82823
N1 N 0.71349(6) 0.3937(2) 0.79881(7)
O1 O 0.76763(7) 0.5170(2) 0.52829(6)
C2 C 0.77034(9) 0.1981(2) 0.71202(8)
H2 H 0.81531 0.12309 0.71197
H3 H 0.73078 0.08570 0.69289
N2 N 0.84917(6) 0.3882(2) 0.84073(7)
O2 O 0.92571(7) 0.6930(2) 0.87735(7)
C3 C 0.75432(8) 0.4039(2) 0.65412(8)
O3 O 0.86460(6) 0.3624(2) 0.92541(6)
C4 C 0.82054(8) 0.5567(2) 0.66663(8)
C5 C 0.87391(7) 0.6397(2) 0.73606(9)
C6 C 0.88278(8) 0.5809(3) 0.82269(9)
C7 C 0.73976(11) 0.3310(3) 0.56537(9)
H4 H 0.76484 0.18620 0.56311
H5 H 0.68754 0.30949 0.53741
C8 C 0.82233(9) 0.6215(3) 0.59061(9)
C9 C 0.87311(10) 0.7728(4) 0.57970(12)
H6 H 0.87266 0.81496 0.52811
C10 C 0.92492(10) 0.8594(4) 0.64911(13)
H7 H 0.95996 0.96387 0.64420
C11 C 0.92601(9) 0.7947(3) 0.72548(12)
H8 H 0.96204 0.85523 0.77095
C12 C 0.70014(8) 0.6042(3) 0.74953(8)
H9 H 0.74161 0.70909 0.77014
H10 H 0.65678 0.68269 0.75284
C13 C 0.68918(8) 0.5437(3) 0.66203(8)
H11 H 0.68345 0.68591 0.63054
H12 H 0.64450 0.45326 0.63990
C14 C 0.92785(10) 0.2196(3) 0.95956(10)
H13 H 0.92089 0.07391 0.93106
H14 H 0.93504 0.19188 1.01593
H15 H 0.97023 0.29702 0.95469
C15 C 0.70842(8) 0.4329(4) 0.87948(9)
H16 H 0.73574 0.57215 0.90286
H17 H 0.73064 0.30265 0.91446
C16 C 0.62996(9) 0.4598(3) 0.87636(9)
C17 C 0.57840(11) 0.2954(4) 0.83787(14)
H18 H 0.59182 0.17155 0.81151
C18 C 0.50742(13) 0.3105(6) 0.8376(2)
H19 H 0.47336 0.19728 0.81128
C19 C 0.48676(13) 0.4898(7) 0.87562(19)
H20 H 0.43854 0.50057 0.87497
C20 C 0.53678(16) 0.6535(6) 0.91455(19)
H21 H 0.52295 0.77582 0.94120
C21 C 0.60890(12) 0.6389(5) 0.91474(14)
H22 H 0.64286 0.75218 0.94126
#END
