
#######################################################################
#
#                 Cambridge Crystallographic Data Centre
#                                CCDC
#
#######################################################################
#
# If this CIF has been generated from an entry in the Cambridge
# Structural Database, then it will include bibliographic, chemical,
# crystal, experimental, refinement or atomic coordinate data resulting
# from the CCDC's data processing and validation procedures.
#
#######################################################################

data_CSD_CIF_REVDII
_audit_creation_date 2018-02-21
_audit_creation_method CSD-ConQuest-V1
_database_code_CSD REVDII
_database_code_depnum_ccdc_archive 'CCDC 1813314'
_chemical_formula_sum 'C22 H16 N4 O3'
_chemical_formula_moiety
;
C22 H16 N4 O3
;
_journal_coden_Cambridge 35
_journal_volume 83
_journal_year 2018
_journal_page_first 2341
_journal_name_full 'J.Org.Chem. '
loop_
_publ_author_name
"Meng Sun"
"Zi-Qi Zhu"
"Ling Gu"
"Xiao Wan"
"Guang-Jian Mei"
"Feng Shi"
_chemical_name_systematic
;
4-(benzenecarbonyl)-1-ethenyl-8b-nitro-1,3a,4,8b-tetrahydrocyclopenta[b]indole
-3,3(2H)-dicarbonitrile
;
_cell_volume   1868.066
_exptl_crystal_colour 'colorless'
_exptl_crystal_density_diffrn 1.367
_exptl_special_details
;
Absolute configuration

;
_exptl_crystal_description 'prism'
_diffrn_ambient_temperature 170.0
#These two values have been output from a single CSD field.
_refine_ls_R_factor_gt 0.046
_refine_ls_wR_factor_gt 0.046
loop_
_citation_database_id_CSD
_citation_special_details
DATGAJ "is a racemate of this entry"
_symmetry_cell_setting monoclinic
_symmetry_space_group_name_H-M 'P 21'
_symmetry_Int_Tables_number 4
loop_
_symmetry_equiv_pos_site_id
_symmetry_equiv_pos_as_xyz
1 x,y,z
2 -x,1/2+y,-z
_cell_length_a 14.8423(7)
_cell_length_b 6.5103(5)
_cell_length_c 19.3939(16)
_cell_angle_alpha 90
_cell_angle_beta 94.557(5)
_cell_angle_gamma 90
_cell_formula_units_Z 4
loop_
_atom_type_symbol
_atom_type_radius_bond
C 0.68
H 0.23
N 0.68
O 0.68
loop_
_atom_site_label
_atom_site_type_symbol
_atom_site_fract_x
_atom_site_fract_y
_atom_site_fract_z
O1 O -0.89716(18) -0.3577(6) -0.88833(14)
O2 O -0.96647(19) -0.6362(5) -0.61691(17)
O3 O -0.83170(17) -0.5995(4) -0.64796(14)
N1 N -0.98398(17) -0.3220(5) -0.80050(14)
N2 N -0.9383(2) 0.1770(5) -0.79187(18)
N3 N -0.6995(2) -0.1883(6) -0.83008(19)
N4 N -0.9093(2) -0.5423(5) -0.64558(16)
C1 C -0.9017(2) -0.3336(5) -0.75324(17)
H1 H -0.86780 -0.46280 -0.76150
C2 C -0.9352(2) -0.3344(5) -0.68024(16)
C3 C -0.8827(2) -0.1605(6) -0.63835(18)
H2 H -0.92100 -0.03410 -0.64260
C4 C -0.8000(2) -0.1218(6) -0.67859(18)
H3 H -0.75230 -0.22520 -0.66680
H4 H -0.77490 0.01700 -0.66890
C5 C -0.8372(2) -0.1416(6) -0.75527(17)
C6 C -0.8915(2) 0.0413(6) -0.77718(19)
C7 C -0.7622(2) -0.1692(6) -0.80012(19)
C8 C -0.8617(3) -0.2011(7) -0.56239(19)
H5 H -0.82210 -0.31130 -0.54900
C9 C -0.8950(4) -0.0927(8) -0.5141(2)
H6 H -0.93470 0.01830 -0.52620
H7 H -0.87960 -0.12460 -0.46690
C10 C -1.0352(2) -0.3139(5) -0.69149(17)
C11 C -1.0974(2) -0.2968(6) -0.6422(2)
H8 H -1.07830 -0.28860 -0.59440
C12 C -1.1886(2) -0.2920(6) -0.6647(2)
H9 H -1.23280 -0.28230 -0.63200
C13 C -1.2153(2) -0.3012(6) -0.7345(2)
H10 H -1.27790 -0.30000 -0.74890
C14 C -1.1529(2) -0.3124(6) -0.7842(2)
H11 H -1.17210 -0.31720 -0.83210
C15 C -1.0617(2) -0.3161(5) -0.76194(18)
C16 C -0.9735(2) -0.3354(6) -0.86994(18)
C17 C -1.0529(2) -0.3066(7) -0.92085(19)
C18 C -1.0957(3) -0.1171(7) -0.9272(2)
H12 H -1.07920 -0.00990 -0.89540
C19 C -1.1625(3) -0.0852(9) -0.9802(2)
H13 H -1.19170 0.04440 -0.98500
C20 C -1.1864(3) -0.2415(10) -1.0259(2)
H14 H -1.23190 -0.21910 -1.06240
C21 C -1.1447(3) -0.4302(9) -1.0190(2)
H15 H -1.16270 -0.53840 -1.04990
C22 C -1.0763(3) -0.4633(8) -0.9670(2)
H16 H -1.04610 -0.59190 -0.96310
O4 O -0.56700(17) -0.9109(5) -0.65348(14)
O5 O -0.49864(17) -1.1321(4) -0.88385(14)
O6 O -0.35353(18) -1.1621(5) -0.87394(15)
N5 N -0.4229(2) -1.0727(5) -0.86344(15)
N6 N -0.43870(18) -0.8581(4) -0.70407(14)
N7 N -0.4674(2) -0.3448(6) -0.72890(17)
N8 N -0.7163(2) -0.6891(6) -0.76559(19)
C23 C -0.4895(2) -0.8598(5) -0.77199(16)
H17 H -0.52880 -0.98460 -0.77690
C24 C -0.4168(2) -0.8663(5) -0.82475(17)
C25 C -0.4404(2) -0.6924(5) -0.87895(17)
H18 H -0.40500 -0.56800 -0.86310
C26 C -0.5402(2) -0.6463(6) -0.87011(17)
H19 H -0.58010 -0.74830 -0.89500
H20 H -0.55690 -0.50700 -0.88720
C27 C -0.5464(2) -0.6620(5) -0.79053(17)
C28 C -0.5040(2) -0.4809(5) -0.75548(19)
C29 C -0.6410(2) -0.6781(5) -0.77382(18)
C30 C -0.4202(3) -0.7335(6) -0.95231(19)
H21 H -0.45370 -0.83710 -0.97750
C31 C -0.3581(3) -0.6325(8) -0.9834(2)
H22 H -0.32370 -0.52820 -0.95930
H23 H -0.34770 -0.66390 -1.02990
C32 C -0.3290(2) -0.8441(5) -0.78246(17)
C33 C -0.2425(2) -0.8244(6) -0.80373(19)
H24 H -0.23260 -0.82650 -0.85150
C34 C -0.1706(2) -0.8017(6) -0.7540(2)
H25 H -0.11070 -0.79110 -0.76750
C35 C -0.1866(2) -0.7945(6) -0.6846(2)
H26 H -0.13680 -0.77880 -0.65110
C36 C -0.2732(2) -0.8095(6) -0.66256(19)
H27 H -0.28340 -0.79990 -0.61490
C37 C -0.3439(2) -0.8387(5) -0.71223(17)
C38 C -0.4847(2) -0.9033(6) -0.64772(18)
C39 C -0.4322(2) -0.9439(6) -0.57954(18)
C40 C -0.4324(2) -0.7977(7) -0.52723(19)
H28 H -0.46070 -0.66820 -0.53560
C41 C -0.3904(3) -0.8444(8) -0.4623(2)
H29 H -0.38960 -0.74540 -0.42630
C42 C -0.3503(3) -1.0320(8) -0.4500(2)
H30 H -0.32270 -1.06280 -0.40530
C43 C -0.3498(3) -1.1770(8) -0.5023(2)
H31 H -0.32150 -1.30630 -0.49340
C44 C -0.3906(2) -1.1336(7) -0.5676(2)
H32 H -0.39020 -1.23220 -0.60370
#END
