
#######################################################################
#
#                 Cambridge Crystallographic Data Centre
#                                CCDC
#
#######################################################################
#
# If this CIF has been generated from an entry in the Cambridge
# Structural Database, then it will include bibliographic, chemical,
# crystal, experimental, refinement or atomic coordinate data resulting
# from the CCDC's data processing and validation procedures.
#
#######################################################################

data_CSD_CIF_REVRIV
_audit_creation_date 2013-05-19
_audit_creation_method CSD-ConQuest-V1
_database_code_CSD REVRIV
_database_code_depnum_ccdc_archive 'CCDC 911158'
_chemical_formula_sum 'C9 H9 N3 O2'
_chemical_formula_moiety
;
C9 H9 N3 O2
;
_journal_coden_Cambridge 1200
_journal_volume 20
_journal_year 2012
_journal_page_first 5296
_journal_name_full 'Bioorg.Med.Chem. '
loop_
_publ_author_name
"E.Lohou"
"J.S.O.Santos"
"P.Schumann-Bard"
"M.Boulouard"
"Silvia Stiebing"
"S.Rault"
"V.Collot"
_chemical_name_systematic
;
1-Ethyl-4-nitro-1H-indazole
;
_chemical_melting_point 392
_cell_volume    908.708
_exptl_crystal_colour 'colorless'
_exptl_crystal_density_diffrn 1.398
_exptl_crystal_description 'plate'
_diffrn_ambient_temperature 296
#These two values have been output from a single CSD field.
_refine_ls_R_factor_gt 0.0468
_refine_ls_wR_factor_gt 0.0468
_symmetry_cell_setting monoclinic
_symmetry_space_group_name_H-M 'P 21/c'
_symmetry_Int_Tables_number 14
loop_
_symmetry_equiv_pos_site_id
_symmetry_equiv_pos_as_xyz
1 x,y,z
2 -x,1/2+y,1/2-z
3 -x,-y,-z
4 x,-1/2-y,-1/2+z
_cell_length_a 7.8594(3)
_cell_length_b 16.2383(6)
_cell_length_c 7.1227(2)
_cell_angle_alpha 90
_cell_angle_beta 91.506(2)
_cell_angle_gamma 90
_cell_formula_units_Z 4
loop_
_atom_type_symbol
_atom_type_radius_bond
C 0.68
H 0.23
N 0.68
O 0.68
loop_
_atom_site_label
_atom_site_type_symbol
_atom_site_fract_x
_atom_site_fract_y
_atom_site_fract_z
N1 N 1.30979(18) 0.29687(10) 0.3616(2)
N2 N 0.86989(15) 0.11556(8) 0.18998(18)
N3 N 1.00847(18) 0.07027(9) 0.2386(2)
C1 C 1.13429(18) 0.28511(9) 0.29650(19)
C2 C 1.07130(17) 0.20506(9) 0.27098(18)
C3 C 0.8652(2) 0.34183(11) 0.2018(2)
C4 C 1.0343(2) 0.35229(11) 0.2619(2)
C5 C 0.7957(2) 0.26541(10) 0.1736(2)
C6 C 0.90091(17) 0.19758(9) 0.20780(18)
C7 C 1.1286(2) 0.12298(10) 0.2868(2)
C8 C 0.7121(2) 0.07448(13) 0.1336(3)
C9 C 0.6114(3) 0.04775(16) 0.2997(4)
O1 O 1.39120(15) 0.23672(9) 0.4108(2)
O2 O 1.36835(19) 0.36595(10) 0.3668(3)
H1 H 0.682(2) 0.2606(9) 0.135(2)
H2 H 1.240(2) 0.1020(11) 0.326(2)
H3 H 0.651(2) 0.1123(12) 0.055(3)
H4 H 0.508(3) 0.0199(14) 0.261(3)
H5 H 0.797(2) 0.3887(11) 0.181(2)
H6 H 0.578(3) 0.0958(15) 0.381(3)
H7 H 0.742(3) 0.0263(14) 0.055(3)
H8 H 0.683(3) 0.0091(15) 0.377(3)
H9 H 1.077(2) 0.4060(12) 0.284(2)
#END
