
#######################################################################
#
#                 Cambridge Crystallographic Data Centre
#                                CCDC
#
#######################################################################
#
# If this CIF has been generated from an entry in the Cambridge
# Structural Database, then it will include bibliographic, chemical,
# crystal, experimental, refinement or atomic coordinate data resulting
# from the CCDC's data processing and validation procedures.
#
#######################################################################

data_CSD_CIF_REVTIW
_audit_creation_date 2007-05-15
_audit_creation_method CSD-ConQuest-V1
_database_code_CSD REVTIW
_database_code_depnum_ccdc_archive 'CCDC 632294'
_chemical_formula_sum 'C10 H19 N1 O1'
_chemical_formula_moiety
;
C10 H19 N1 O1
;
_journal_coden_Cambridge 1078
_journal_year 2007
_journal_name_full 'CSD Communication(Private Communication) '
loop_
_publ_author_name
"H.Kooijman"
"A.L.Spek"
"F.de Vos"
"A.W.Marsman"
"L.W.Jenneskens"
_chemical_name_systematic
;
4-t-Butylcyclohexanone oxime
;
_cell_volume   1042.280
_exptl_crystal_colour 'colorless'
_exptl_crystal_density_diffrn 1.079
_exptl_special_details
;
contribution from Bijvoet Center for Biomolecular Research, Crystal and 
Structural Chemistry, Utrecht University, Padualaan 8, 3584 CH Utrecht, The 
Netherlands
;
_exptl_crystal_description 'plate'
_diffrn_ambient_temperature 153
_refine_special_details
;
The hydroxy O atom is disordered over two sites with occupancy 0.703:0.297.

;
#These two values have been output from a single CSD field.
_refine_ls_R_factor_gt 0.0588
_refine_ls_wR_factor_gt 0.0588
_symmetry_cell_setting monoclinic
_symmetry_space_group_name_H-M 'P 21/c'
_symmetry_Int_Tables_number 14
loop_
_symmetry_equiv_pos_site_id
_symmetry_equiv_pos_as_xyz
1 x,y,z
2 -x,1/2+y,1/2-z
3 -x,-y,-z
4 x,-1/2-y,-1/2+z
_cell_length_a 11.314(2)
_cell_length_b 8.870(2)
_cell_length_c 10.399(2)
_cell_angle_alpha 90
_cell_angle_beta 92.875(14)
_cell_angle_gamma 90
_cell_formula_units_Z 4
loop_
_atom_type_symbol
_atom_type_radius_bond
C 0.68
H 0.23
N 0.68
O 0.68
loop_
_atom_site_label
_atom_site_type_symbol
_atom_site_fract_x
_atom_site_fract_y
_atom_site_fract_z
O1 O -0.03980(15) 0.1729(2) 0.50665(16)
N1 N 0.05118(13) 0.12276(16) 0.42180(13)
C1 C 0.08715(16) 0.2273(2) 0.34899(16)
C2 C 0.17630(17) 0.1919(2) 0.25170(18)
C3 C 0.27800(16) 0.30581(19) 0.25968(19)
C4 C 0.23370(14) 0.46879(18) 0.25093(16)
C5 C 0.15041(15) 0.4957(2) 0.36001(17)
C6 C 0.04626(16) 0.3860(2) 0.35375(18)
C7 C 0.33383(15) 0.5878(2) 0.24383(17)
C8 C 0.40380(19) 0.5589(2) 0.1235(2)
C9 C 0.41867(18) 0.5831(3) 0.3624(2)
C10 C 0.28028(19) 0.7462(2) 0.2309(2)
O2? O 0.1122(4) -0.0288(5) 0.4121(4)
H1 H -0.059(3) 0.077(4) 0.547(3)
H2 H 0.13730 0.19420 0.16370
H3 H 0.20820 0.08850 0.26740
H4 H 0.18460 0.47700 0.16880
H5 H 0.32350 0.29200 0.34040
H6 H 0.19570 0.48390 0.44490
H7 H 0.11960 0.60170 0.35459
H8 H -0.00050 0.40020 0.42940
H9 H -0.00470 0.40770 0.27720
H10 H 0.46230 0.64360 0.11280
H11 H 0.34740 0.55420 0.04510
H12 H 0.44780 0.46010 0.13340
H13 H 0.48130 0.66570 0.35550
H14 H 0.45930 0.47990 0.36810
H15 H 0.37240 0.60050 0.44340
H16 H 0.23900 0.77240 0.31220
H17 H 0.22100 0.74890 0.15460
H18 H 0.34550 0.82210 0.21730
H19 H 0.33010 0.28690 0.19010
#END
