
#######################################################################
#
#                 Cambridge Crystallographic Data Centre
#                                CCDC
#
#######################################################################
#
# If this CIF has been generated from an entry in the Cambridge
# Structural Database, then it will include bibliographic, chemical,
# crystal, experimental, refinement or atomic coordinate data resulting
# from the CCDC's data processing and validation procedures.
#
#######################################################################

data_CSD_CIF_REWCOL
_audit_creation_date 1997-10-09
_audit_creation_method CSD-ConQuest-V1
_database_code_CSD REWCOL
_chemical_formula_sum 'C17 H19 N3 O7'
_chemical_formula_moiety
;
C17 H19 N3 O7
;
_journal_coden_Cambridge 151
_journal_volume 38
_journal_year 1995
_journal_page_first 119
_journal_name_full 'J.Med.Chem. '
loop_
_publ_author_name
"G.C.Rovnyak"
"S.D.Kimball"
"B.Beyer"
"G.Cucinotta"
"J.D.Di Marco"
"J.Gougoutas"
"A.Hedberg"
"M.Malley"
"J.P.McCarthy"
"Rongan Zhang"
"S.Moreland"
_chemical_name_systematic
;
Diethyl 
1,4-dihydro-6-methyl-4-(3'-nitrophenyl)-2-oxo-3,5-pyrimidinedicarboxylate
;
_cell_volume   3589.560
_exptl_crystal_density_diffrn 1.396
_diffrn_ambient_temperature ?
_diffrn_special_details
;
The study was carried out at room temperature,in the range 283-303K

;
#These two values have been output from a single CSD field.
_refine_ls_R_factor_gt 0.052
_refine_ls_wR_factor_gt 0.052
_symmetry_cell_setting monoclinic
_symmetry_space_group_name_H-M 'C 2/c'
_symmetry_Int_Tables_number 15
loop_
_symmetry_equiv_pos_site_id
_symmetry_equiv_pos_as_xyz
1 x,y,z
2 -x,y,1/2-z
3 1/2+x,1/2+y,z
4 1/2-x,1/2+y,1/2-z
5 -x,-y,-z
6 x,-y,-1/2+z
7 -1/2-x,-1/2-y,-z
8 -1/2+x,-1/2-y,-1/2+z
_cell_length_a 28.07(1)
_cell_length_b 9.806(1)
_cell_length_c 13.964(4)
_cell_angle_alpha 90
_cell_angle_beta 110.95(2)
_cell_angle_gamma 90
_cell_formula_units_Z 8
loop_
_atom_type_symbol
_atom_type_radius_bond
C 0.68
H 0.23
N 0.68
O 0.68
loop_
_atom_site_label
_atom_site_type_symbol
_atom_site_fract_x
_atom_site_fract_y
_atom_site_fract_z
N1 N 0.9583(1) 0.9744(4) 0.5828(3)
C1 C 0.9745(2) 0.8455(5) 0.5729(4)
O1 O 1.0033(1) 0.8238(3) 0.5264(2)
N2 N 0.9553(1) 0.7450(4) 0.6191(3)
C2 C 0.9097(2) 0.7677(5) 0.6468(3)
C3 C 0.9099(2) 0.9134(5) 0.6830(3)
C4 C 0.9313(2) 1.0098(5) 0.6458(4)
C5 C 0.8608(2) 0.7281(5) 0.5612(3)
C6 C 0.8300(2) 0.6301(5) 0.5782(4)
C7 C 0.7859(2) 0.5923(6) 0.4998(4)
N3 N 0.7530(2) 0.4882(5) 0.5197(4)
O2 O 0.7144(1) 0.4536(5) 0.4499(4)
O3 O 0.7656(2) 0.4427(5) 0.6064(4)
C8 C 0.7721(2) 0.6478(6) 0.4037(4)
C9 C 0.8033(2) 0.7459(6) 0.3872(4)
C10 C 0.8470(2) 0.7858(5) 0.4653(4)
C11 C 0.9698(2) 0.6056(5) 0.6249(3)
O4 O 0.9416(1) 0.5171(4) 0.6314(2)
O5 O 1.0169(1) 0.5878(3) 0.6274(2)
C12 C 1.0319(2) 0.4437(5) 0.6345(4)
C13 C 1.0865(2) 0.4380(6) 0.6439(4)
C14 C 0.8862(2) 0.9442(6) 0.7589(4)
O6 O 0.8859(1) 1.0519(4) 0.7991(3)
O7 O 0.8644(1) 0.8313(4) 0.7798(2)
C15 C 0.8421(2) 0.8471(6) 0.8576(4)
C16 C 0.8235(2) 0.7141(7) 0.8772(5)
C17 C 0.9303(2) 1.1612(6) 0.6612(4)
H1 H 0.96630 1.04730 0.54360
H2 H 0.91010 0.70880 0.70490
H3 H 0.83750 0.58870 0.64610
H4 H 0.74130 0.61820 0.34860
H5 H 0.79440 0.78290 0.31710
H6 H 0.86790 0.85850 0.45170
H7 H 1.00990 0.38880 0.57720
H8 H 1.02770 0.39670 0.69580
H9 H 1.09990 0.34720 0.64840
H10 H 1.10760 0.48800 0.70250
H11 H 1.08980 0.48010 0.58390
H12 H 0.81550 0.91380 0.84570
H13 H 0.86850 0.87830 0.92650
H14 H 0.80960 0.70820 0.92770
H15 H 0.85160 0.64590 0.89310
H16 H 0.79860 0.68140 0.81230
H17 H 0.94680 1.21200 0.62530
H18 H 0.94380 1.18670 0.73280
H19 H 0.89410 1.19620 0.63710
#END
