
#######################################################################
#
#                 Cambridge Crystallographic Data Centre
#                                CCDC
#
#######################################################################
#
# If this CIF has been generated from an entry in the Cambridge
# Structural Database, then it will include bibliographic, chemical,
# crystal, experimental, refinement or atomic coordinate data resulting
# from the CCDC's data processing and validation procedures.
#
#######################################################################

data_CSD_CIF_REWCEB
_audit_creation_date 1997-10-09
_audit_creation_method CSD-ConQuest-V1
_database_code_CSD REWCEB
_chemical_formula_sum 'C17 H22 N4 O6'
_chemical_formula_moiety
;
C17 H22 N4 O6
;
_journal_coden_Cambridge 151
_journal_volume 38
_journal_year 1995
_journal_page_first 119
_journal_name_full 'J.Med.Chem. '
loop_
_publ_author_name
"G.C.Rovnyak"
"S.D.Kimball"
"B.Beyer"
"G.Cucinotta"
"J.D.Di Marco"
"J.Gougoutas"
"A.Hedberg"
"M.Malley"
"J.P.McCarthy"
"Rongan Zhang"
"S.Moreland"
_chemical_name_systematic
;
Diethyl 
1,4-dihydro-2-amino-6-methyl-4-(3'-nitrophenyl)-3,5-pyrimidinedicarboxylate
;
_cell_volume   3643.492
_exptl_crystal_density_diffrn 1.369
_diffrn_ambient_temperature ?
_diffrn_special_details
;
The study was carried out at room temperature,in the range 283-303K

;
#These two values have been output from a single CSD field.
_refine_ls_R_factor_gt 0.059
_refine_ls_wR_factor_gt 0.059
_symmetry_cell_setting monoclinic
_symmetry_space_group_name_H-M 'C 2/c'
_symmetry_Int_Tables_number 15
loop_
_symmetry_equiv_pos_site_id
_symmetry_equiv_pos_as_xyz
1 x,y,z
2 -x,y,1/2-z
3 1/2+x,1/2+y,z
4 1/2-x,1/2+y,1/2-z
5 -x,-y,-z
6 x,-y,-1/2+z
7 -1/2-x,-1/2-y,-z
8 -1/2+x,-1/2-y,-1/2+z
_cell_length_a 24.09(2)
_cell_length_b 8.457(4)
_cell_length_c 18.35(1)
_cell_angle_alpha 90
_cell_angle_beta 102.94(6)
_cell_angle_gamma 90
_cell_formula_units_Z 8
loop_
_atom_type_symbol
_atom_type_radius_bond
C 0.68
H 0.23
N 0.68
O 0.68
loop_
_atom_site_label
_atom_site_type_symbol
_atom_site_fract_x
_atom_site_fract_y
_atom_site_fract_z
N1 N 0.0855(2) 0.8414(6) 0.7476(3)
C1 C 0.1092(3) 0.8542(7) 0.8182(3)
N2 N 0.1208(2) 0.7218(6) 0.8664(3)
C2 C 0.1293(3) 0.5693(7) 0.8297(3)
C3 C 0.0871(2) 0.5589(8) 0.7554(3)
C4 C 0.0679(3) 0.6945(8) 0.7186(3)
C5 C 0.1909(3) 0.5512(7) 0.8256(3)
C6 C 0.2273(3) 0.4654(8) 0.8792(3)
C7 C 0.2838(3) 0.4537(8) 0.8768(3)
N3 N 0.3233(2) 0.3604(7) 0.9341(3)
O1 O 0.3698(2) 0.3267(7) 0.9235(3)
O2 O 0.3077(2) 0.3233(6) 0.9906(3)
C8 C 0.3059(3) 0.5255(8) 0.8218(4)
C9 C 0.2695(3) 0.6104(8) 0.7689(4)
C10 C 0.2126(3) 0.6241(8) 0.7702(3)
N4 N 0.1237(3) 0.9970(6) 0.8476(3)
C11 C 0.1312(3) 0.7336(8) 0.9434(4)
O3 O 0.1320(3) 0.8546(5) 0.9782(2)
O4 O 0.1383(2) 0.5906(5) 0.9750(2)
C12 C 0.1527(4) 0.5855(9) 1.0567(4)
C13 C 0.2154(4) 0.588(1) 1.0821(4)
C14 C 0.0750(3) 0.3961(8) 0.7313(3)
O5 O 0.0984(2) 0.2844(5) 0.7669(3)
O6 O 0.0366(2) 0.3767(5) 0.6671(2)
C15 C 0.0233(4) 0.2147(9) 0.6420(4)
C16 C -0.0148(5) 0.219(1) 0.5682(5)
C17 C 0.0273(3) 0.7078(9) 0.6443(4)
H1 H 0.12140 0.47410 0.85860
H2 H 0.21320 0.41630 0.92070
H3 H 0.34560 0.50900 0.81840
H4 H 0.28250 0.66350 0.72960
H5 H 0.18710 0.68600 0.73220
H6 H 0.14310 0.49340 1.07850
H7 H 0.14170 0.67670 1.08060
H8 H 0.22850 0.58790 1.13740
H9 H 0.23210 0.68440 1.06670
H10 H 0.23340 0.50110 1.06460
H11 H 0.00560 0.15630 0.67700
H12 H 0.05710 0.15660 0.63910
H13 H -0.02570 0.11630 0.55040
H14 H 0.00190 0.27500 0.53530
H15 H -0.04950 0.27480 0.57320
H16 H 0.01420 0.60740 0.62440
H17 H 0.04360 0.76350 0.60950
H18 H -0.00640 0.76750 0.64980
H19 H 0.15120 1.02110 0.89990
H20 H 0.10910 1.09040 0.81910
#END
