
#######################################################################
#
#                 Cambridge Crystallographic Data Centre
#                                CCDC
#
#######################################################################
#
# If this CIF has been generated from an entry in the Cambridge
# Structural Database, then it will include bibliographic, chemical,
# crystal, experimental, refinement or atomic coordinate data resulting
# from the CCDC's data processing and validation procedures.
#
#######################################################################

data_CSD_CIF_REWDAY
_audit_creation_date 1997-10-09
_audit_creation_method CSD-ConQuest-V1
_database_code_CSD REWDAY
_chemical_formula_sum 'C17 H20 N4 O6'
_chemical_formula_moiety
;
C17 H20 N4 O6
;
_journal_coden_Cambridge 151
_journal_volume 38
_journal_year 1995
_journal_page_first 119
_journal_name_full 'J.Med.Chem. '
loop_
_publ_author_name
"G.C.Rovnyak"
"S.D.Kimball"
"B.Beyer"
"G.Cucinotta"
"J.D.Di Marco"
"J.Gougoutas"
"A.Hedberg"
"M.Malley"
"J.P.McCarthy"
"Rongan Zhang"
"S.Moreland"
_chemical_name_systematic
;
Isopropyl 
1,4-dihydro-6-methyl-3-(N-methylamido)-4-(3'-nitrophenyl)-2-oxo-5-pyrimidineca
rboxylate
;
_cell_volume   1836.031
_exptl_crystal_density_diffrn 1.362
_diffrn_ambient_temperature ?
_diffrn_special_details
;
The study was carried out at room temperature,in the range 283-303K

;
#These two values have been output from a single CSD field.
_refine_ls_R_factor_gt 0.057
_refine_ls_wR_factor_gt 0.057
_symmetry_cell_setting monoclinic
_symmetry_space_group_name_H-M 'P 21/c'
_symmetry_Int_Tables_number 14
loop_
_symmetry_equiv_pos_site_id
_symmetry_equiv_pos_as_xyz
1 x,y,z
2 -x,1/2+y,1/2-z
3 -x,-y,-z
4 x,-1/2-y,-1/2+z
_cell_length_a 7.386(1)
_cell_length_b 28.489(5)
_cell_length_c 9.230(2)
_cell_angle_alpha 90
_cell_angle_beta 109.03(2)
_cell_angle_gamma 90
_cell_formula_units_Z 4
loop_
_atom_type_symbol
_atom_type_radius_bond
C 0.68
H 0.23
N 0.68
O 0.68
loop_
_atom_site_label
_atom_site_type_symbol
_atom_site_fract_x
_atom_site_fract_y
_atom_site_fract_z
N1 N 1.0366(4) 0.3827(1) 0.6323(4)
C1 C 0.9368(5) 0.3646(1) 0.7206(4)
N2 N 0.7395(4) 0.3712(1) 0.6629(3)
C2 C 0.6445(5) 0.3823(1) 0.4988(4)
C3 C 0.7694(5) 0.4137(1) 0.4397(4)
C4 C 0.9613(5) 0.4123(1) 0.5075(4)
C5 C 0.5828(5) 0.3377(1) 0.4051(4)
C6 C 0.3914(5) 0.3292(2) 0.3276(5)
C7 C 0.3403(6) 0.2893(2) 0.2416(5)
N3 N 0.1349(6) 0.2815(2) 0.1573(6)
O1 O 0.0949(6) 0.2468(2) 0.0747(7)
O2 O 0.0198(4) 0.3102(2) 0.1702(4)
C8 C 0.4696(8) 0.2563(2) 0.2305(6)
C9 C 0.6617(7) 0.2642(1) 0.3091(6)
C10 C 0.7156(6) 0.3046(1) 0.3934(5)
O3 O 1.0185(4) 0.3448(1) 0.8408(3)
C11 C 0.6145(5) 0.3649(1) 0.7502(4)
O4 O 0.4420(3) 0.3705(1) 0.6859(3)
N4 N 0.6912(4) 0.3541(1) 0.8969(4)
C12 C 0.5705(7) 0.3489(2) 0.9921(5)
C13 C 0.6785(5) 0.4440(1) 0.3079(4)
O5 O 0.7574(4) 0.4683(1) 0.2405(4)
O6 O 0.4851(3) 0.44068(9) 0.2650(3)
C14 C 0.3747(6) 0.4688(2) 0.1336(5)
C15 C 0.1905(7) 0.4432(2) 0.0581(6)
C16 C 0.3446(8) 0.5169(2) 0.1864(7)
C17 C 1.1093(5) 0.4395(2) 0.4645(5)
H1 H 0.83390 0.34570 0.94530
H2 H 1.16790 0.37430 0.65830
H3 H 0.52990 0.39940 0.48790
H4 H 0.29590 0.35090 0.33410
H5 H 0.42870 0.22860 0.17100
H6 H 0.75540 0.24190 0.30440
H7 H 0.84790 0.31000 0.44610
H8 H 0.64650 0.34120 1.09360
H9 H 0.50580 0.37780 0.99220
H10 H 0.47960 0.32480 0.95120
H11 H 0.44000 0.47310 0.06100
H12 H 0.11450 0.46050 -0.02840
H13 H 0.21780 0.41310 0.02560
H14 H 0.12280 0.43960 0.12880
H15 H 0.46530 0.53140 0.23230
H16 H 0.27150 0.53490 0.10020
H17 H 0.27830 0.51460 0.25780
H18 H 1.04810 0.45880 0.37860
H19 H 1.18010 0.45840 0.54820
H20 H 1.19330 0.41820 0.43860
#END
