
#######################################################################
#
#                 Cambridge Crystallographic Data Centre
#                                CCDC
#
#######################################################################
#
# If this CIF has been generated from an entry in the Cambridge
# Structural Database, then it will include bibliographic, chemical,
# crystal, experimental, refinement or atomic coordinate data resulting
# from the CCDC's data processing and validation procedures.
#
#######################################################################

data_CSD_CIF_REWFAA
_audit_creation_date 1997-10-09
_audit_creation_method CSD-ConQuest-V1
_database_code_CSD REWFAA
_chemical_formula_sum 'C18 H22 N4 O6'
_chemical_formula_moiety
;
C18 H22 N4 O6
;
_journal_coden_Cambridge 151
_journal_volume 38
_journal_year 1995
_journal_page_first 119
_journal_name_full 'J.Med.Chem. '
loop_
_publ_author_name
"G.C.Rovnyak"
"S.D.Kimball"
"B.Beyer"
"G.Cucinotta"
"J.D.Di Marco"
"J.Gougoutas"
"A.Hedberg"
"M.Malley"
"J.P.McCarthy"
"Rongan Zhang"
"S.Moreland"
_chemical_name_systematic
;
Isopropyl 
1,4-dihydro-6-methyl-2-oxo-4-(3'-nitrophenyl)-3-(N,N-dimethylamido)-5-pyrimidi
necarboxylate
;
_cell_volume   1040.684
_exptl_crystal_density_diffrn 1.243
_diffrn_ambient_temperature ?
_diffrn_special_details
;
The study was carried out at room temperature,in the range 283-303K

;
#These two values have been output from a single CSD field.
_refine_ls_R_factor_gt 0.051
_refine_ls_wR_factor_gt 0.051
_symmetry_cell_setting triclinic
_symmetry_space_group_name_H-M 'P -1'
_symmetry_Int_Tables_number 2
loop_
_symmetry_equiv_pos_site_id
_symmetry_equiv_pos_as_xyz
1 x,y,z
2 -x,-y,-z
_cell_length_a 9.931(1)
_cell_length_b 10.680(1)
_cell_length_c 11.040(1)
_cell_angle_alpha 82.40(1)
_cell_angle_beta 63.81(1)
_cell_angle_gamma 84.64(1)
_cell_formula_units_Z 2
loop_
_atom_type_symbol
_atom_type_radius_bond
C 0.68
H 0.23
N 0.68
O 0.68
loop_
_atom_site_label
_atom_site_type_symbol
_atom_site_fract_x
_atom_site_fract_y
_atom_site_fract_z
N1 N 0.3413(2) 0.3990(2) 0.6171(2)
C1 C 0.3552(3) 0.3817(2) 0.4919(2)
N2 N 0.2487(2) 0.3107(2) 0.4914(2)
C2 C 0.1553(2) 0.2259(2) 0.6123(2)
C3 C 0.1174(3) 0.2905(2) 0.7381(2)
C4 C 0.2139(3) 0.3713(2) 0.7365(2)
C5 C 0.2262(3) 0.0942(2) 0.6198(2)
C6 C 0.1736(3) -0.0059(3) 0.5875(3)
C7 C 0.2316(3) -0.1264(2) 0.6030(3)
N3 N 0.1736(3) -0.2314(2) 0.5683(3)
O1 O 0.1996(3) -0.3381(2) 0.6048(3)
O2 O 0.1039(3) -0.2082(3) 0.5027(3)
C8 C 0.3404(3) -0.1515(3) 0.6485(3)
C9 C 0.3963(3) -0.0516(3) 0.6764(3)
C10 C 0.3386(3) 0.0702(3) 0.6632(2)
O3 O 0.4561(2) 0.4292(2) 0.3869(2)
C11 C 0.2493(3) 0.2921(3) 0.3639(2)
N4 N 0.2208(2) 0.3951(2) 0.2962(2)
O4 O 0.2700(3) 0.1863(2) 0.3287(2)
C12 C 0.2259(4) 0.3810(4) 0.1647(3)
C13 C 0.1838(4) 0.5207(3) 0.3407(3)
C14 C -0.0197(3) 0.2531(3) 0.8603(3)
O5 O -0.0686(3) 0.2954(2) 0.9679(2)
O6 O -0.0856(2) 0.1618(2) 0.8371(2)
C15 C -0.2176(4) 0.1064(4) 0.9499(4)
C16 C -0.3515(6) 0.1745(7) 0.9486(8)
C17 C -0.2079(7) -0.0286(5) 0.9374(6)
C18 C 0.2044(4) 0.4361(3) 0.8524(3)
H1 H 0.42540 0.43310 0.62210
H2 H 0.06450 0.21310 0.60530
H3 H 0.09830 0.00840 0.55350
H4 H 0.37690 -0.23710 0.66130
H5 H 0.47530 -0.06670 0.70450
H6 H 0.37580 0.14010 0.68570
H7 H 0.25230 0.29400 0.14440
H8 H 0.13320 0.40360 0.16180
H9 H 0.30270 0.43190 0.09360
H10 H 0.18220 0.52010 0.42800
H11 H 0.25720 0.57840 0.27810
H12 H 0.08780 0.55010 0.34640
H13 H -0.22470 0.11570 1.04100
H14 H -0.35360 0.26250 0.95990
H15 H -0.35300 0.16980 0.86270
H16 H -0.44210 0.13940 1.01840
H17 H -0.11480 -0.06770 0.94130
H18 H -0.28840 -0.07280 1.00650
H19 H -0.19940 -0.04250 0.85080
H20 H 0.28740 0.48870 0.82370
H21 H 0.11360 0.48740 0.88700
H22 H 0.20400 0.37520 0.92420
#END
