
#######################################################################
#
#                 Cambridge Crystallographic Data Centre
#                                CCDC
#
#######################################################################
#
# If this CIF has been generated from an entry in the Cambridge
# Structural Database, then it will include bibliographic, chemical,
# crystal, experimental, refinement or atomic coordinate data resulting
# from the CCDC's data processing and validation procedures.
#
#######################################################################

data_CSD_CIF_REWKOW
_audit_creation_date 2018-02-22
_audit_creation_method CSD-ConQuest-V1
_database_code_CSD REWKOW
_database_code_depnum_ccdc_archive 'CCDC 1529109'
_chemical_formula_sum 'C9 H8 N2 O1'
_chemical_formula_moiety
;
C9 H8 N2 O1
;
_journal_coden_Cambridge 440
_journal_volume 42
_journal_year 2018
_journal_page_first 4757
_journal_name_full 'New J.Chem. '
loop_
_publ_author_name
"J.B.Baruah"
"A.Tarai"
_chemical_name_systematic
;
N-hydroxy-1-(1H-indol-3-yl)methanimine
;
_chemical_name_common
;
1H-indole-3-carbaldehyde oxime
;
_cell_volume   1583.362
_exptl_crystal_colour 'colorless'
_exptl_crystal_density_diffrn 1.344
_exptl_crystal_description 'Block'
_diffrn_ambient_temperature 296
#These two values have been output from a single CSD field.
_refine_ls_R_factor_gt 0.036
_refine_ls_wR_factor_gt 0.036
_symmetry_cell_setting orthorhombic
_symmetry_space_group_name_H-M 'P n a 21'
_symmetry_Int_Tables_number 33
loop_
_symmetry_equiv_pos_site_id
_symmetry_equiv_pos_as_xyz
1 x,y,z
2 -x,-y,1/2+z
3 1/2+x,1/2-y,z
4 1/2-x,1/2+y,1/2+z
_cell_length_a 8.6883(10)
_cell_length_b 11.8246(16)
_cell_length_c 15.412(3)
_cell_angle_alpha 90
_cell_angle_beta 90
_cell_angle_gamma 90
_cell_formula_units_Z 8
loop_
_atom_type_symbol
_atom_type_radius_bond
C 0.68
H 0.23
N 0.68
O 0.68
loop_
_atom_site_label
_atom_site_type_symbol
_atom_site_fract_x
_atom_site_fract_y
_atom_site_fract_z
C1 C 0.0823(3) 0.3848(2) 0.28190(19)
C2 C 0.0151(3) 0.3357(2) 0.20579(18)
C3 C 0.0524(3) 0.3679(3) 0.1177(2)
H1 H 0.13830 0.41440 0.11230
C4 C 0.0254(3) 0.3249(2) 0.3534(2)
C5 C 0.1834(3) 0.4743(3) 0.2967(2)
H2 H 0.22000 0.51760 0.25070
C6 C -0.0781(3) 0.2498(3) 0.2340(2)
H3 H -0.13620 0.20290 0.19830
C7 C 0.0671(4) 0.3491(3) 0.4377(2)
H4 H 0.02730 0.30860 0.48430
C8 C 0.2278(4) 0.4973(3) 0.3802(2)
H5 H 0.29790 0.55520 0.39050
C9 C 0.1707(4) 0.4360(3) 0.4496(2)
H6 H 0.20290 0.45390 0.50550
N1 N -0.0134(3) 0.3429(2) 0.04620(16)
N2 N -0.0730(3) 0.2436(3) 0.32116(17)
O1 O -0.1481(3) 0.2810(2) 0.05951(14)
H7 H -0.17990 0.25730 0.01280
H8 H -0.122(4) 0.190(3) 0.351(3)
C10 C 0.4863(3) 0.3838(2) 0.69612(18)
C11 C 0.3757(3) 0.3936(2) 0.76639(19)
C12 C 0.4587(3) 0.4735(2) 0.63862(18)
C13 C 0.3684(4) 0.3181(3) 0.8389(2)
H9 H 0.44700 0.26480 0.84080
C14 C 0.5449(4) 0.4895(3) 0.5643(2)
H10 H 0.52470 0.54880 0.52630
C15 C 0.6041(4) 0.3080(3) 0.6778(2)
H11 H 0.62320 0.24700 0.71430
C16 C 0.2876(4) 0.4870(3) 0.7472(2)
H12 H 0.20680 0.51380 0.78100
C17 C 0.6621(4) 0.4135(3) 0.5489(3)
H13 H 0.72270 0.42210 0.49960
C18 C 0.6918(4) 0.3247(3) 0.6050(2)
H14 H 0.77260 0.27550 0.59310
N3 N 0.2726(3) 0.3116(2) 0.90140(17)
N4 N 0.3364(3) 0.5344(2) 0.67132(19)
O2 O 0.1577(3) 0.39360(19) 0.89531(15)
H15 H 0.10070 0.38910 0.93760
H16 H 0.301(4) 0.597(3) 0.648(2)
#END
