
#######################################################################
#
#                 Cambridge Crystallographic Data Centre
#                                CCDC
#
#######################################################################
#
# If this CIF has been generated from an entry in the Cambridge
# Structural Database, then it will include bibliographic, chemical,
# crystal, experimental, refinement or atomic coordinate data resulting
# from the CCDC's data processing and validation procedures.
#
#######################################################################

data_CSD_CIF_REXQIX
_audit_creation_date 2018-02-22
_audit_creation_method CSD-ConQuest-V1
_database_code_CSD REXQIX
_database_code_depnum_ccdc_archive 'CCDC 1525433'
_chemical_formula_sum 'C12 H15 N3 O2'
_chemical_formula_moiety
;
C12 H15 N3 O2
;
_journal_coden_Cambridge 119
_journal_volume 1161
_journal_year 2018
_journal_page_first 477
_journal_name_full 'J.Mol.Struct. '
loop_
_publ_author_name
"S.Karadeniz"
"C.Y.Ataol"
"O.Sahin"
"O.Idil"
"H.Bati"
_chemical_name_systematic
;
N'-[3-(hydroxyimino)butan-2-ylidene]-2-phenylacetohydrazide
;
_cell_volume    620.623
_exptl_crystal_density_diffrn 1.248
_diffrn_ambient_temperature 293
#These two values have been output from a single CSD field.
_refine_ls_R_factor_gt 0.0604
_refine_ls_wR_factor_gt 0.0604
_symmetry_cell_setting triclinic
_symmetry_space_group_name_H-M 'P -1'
_symmetry_Int_Tables_number 2
loop_
_symmetry_equiv_pos_site_id
_symmetry_equiv_pos_as_xyz
1 x,y,z
2 -x,-y,-z
_cell_length_a 4.5754(7)
_cell_length_b 10.817(2)
_cell_length_c 12.624(2)
_cell_angle_alpha 84.906(10)
_cell_angle_beta 87.167(9)
_cell_angle_gamma 86.618(9)
_cell_formula_units_Z 2
loop_
_atom_type_symbol
_atom_type_radius_bond
C 0.68
H 0.23
N 0.68
O 0.68
loop_
_atom_site_label
_atom_site_type_symbol
_atom_site_fract_x
_atom_site_fract_y
_atom_site_fract_z
N1 N 0.7179(5) 0.0851(2) 0.6010(2)
H1 H 0.68660 0.09540 0.53400
O1 O 0.4231(5) -0.0737(2) 0.62355(17)
O2 O 1.5160(5) 0.4793(2) 0.63034(18)
H2 H 1.60200 0.52810 0.58800
N2 N 0.8951(5) 0.1630(2) 0.64503(19)
N3 N 1.3435(6) 0.4063(2) 0.5748(2)
C1 C 1.2031(7) 0.3282(3) 0.6368(2)
C2 C 1.0201(6) 0.2475(3) 0.5828(2)
C3 C 0.5923(7) -0.0080(3) 0.6626(2)
C4 C 0.6785(8) -0.0286(3) 0.7763(3)
H3 H 0.88920 -0.04480 0.77730
H4 H 0.63090 0.04730 0.81070
C5 C 0.5333(8) -0.1335(3) 0.8397(3)
C6 C 0.2722(14) -0.3251(6) 0.9608(5)
H5 H 0.18310 -0.38950 1.00150
C7 C 0.9949(8) 0.2674(3) 0.4648(2)
H6 H 1.10840 0.33590 0.43730
H7 H 1.06680 0.19370 0.43270
H8 H 0.79310 0.28550 0.44870
C8 C 0.5968(10) -0.2547(4) 0.8192(3)
H9 H 0.72980 -0.27210 0.76370
C9 C 0.3350(9) -0.1121(4) 0.9221(3)
H10 H 0.28580 -0.03070 0.93720
C10 C 1.2191(9) 0.3167(4) 0.7547(3)
H11 H 1.09630 0.25240 0.78480
H12 H 1.41790 0.29610 0.77360
H13 H 1.15340 0.39420 0.78190
C11 C 0.4674(14) -0.3516(4) 0.8793(4)
H14 H 0.51240 -0.43340 0.86450
C12 C 0.2081(11) -0.2075(6) 0.9826(4)
H15 H 0.07710 -0.19060 1.03880
#END
