
#######################################################################
#
#                 Cambridge Crystallographic Data Centre
#                                CCDC
#
#######################################################################
#
# If this CIF has been generated from an entry in the Cambridge
# Structural Database, then it will include bibliographic, chemical,
# crystal, experimental, refinement or atomic coordinate data resulting
# from the CCDC's data processing and validation procedures.
#
#######################################################################

data_CSD_CIF_REXSOE
_audit_creation_date 2013-05-19
_audit_creation_method CSD-ConQuest-V1
_database_code_CSD REXSOE
_database_code_depnum_ccdc_archive 'CCDC 910150'
_chemical_formula_sum 'C17 H23 N3 O1'
_chemical_formula_moiety
;
C17 H23 N3 O1
;
_journal_coden_Cambridge 1291
_journal_year 2013
_journal_page_first 4026
_journal_name_full 'Eur.J.Org.Chem. '
loop_
_publ_author_name
"S.Samai"
"Tanmoy Chanda"
"H.Ila"
"Maya Shankar Singh"
_chemical_name_systematic
;
1-(5-t-Butyl-1,2-oxazol-3-yl)-4-phenylpiperazine
;
_cell_volume   1599.092
_exptl_crystal_density_diffrn 1.181
_diffrn_ambient_temperature 293
#These two values have been output from a single CSD field.
_refine_ls_R_factor_gt 0.0626
_refine_ls_wR_factor_gt 0.0626
_symmetry_cell_setting triclinic
_symmetry_space_group_name_H-M 'P 1'
_symmetry_Int_Tables_number 1
loop_
_symmetry_equiv_pos_site_id
_symmetry_equiv_pos_as_xyz
1 x,y,z
_cell_length_a 6.018(5)
_cell_length_b 15.961(5)
_cell_length_c 17.825(5)
_cell_angle_alpha 107.525(5)
_cell_angle_beta 95.457(5)
_cell_angle_gamma 98.111(5)
_cell_formula_units_Z 4
loop_
_atom_type_symbol
_atom_type_radius_bond
C 0.68
H 0.23
N 0.68
O 0.68
loop_
_atom_site_label
_atom_site_type_symbol
_atom_site_fract_x
_atom_site_fract_y
_atom_site_fract_z
O1 O 0.1141(11) 0.5949(4) 0.3001(5)
N1 N 0.5283(12) 0.9540(5) 0.2489(5)
C1 C 0.3389(14) 0.7072(6) 0.2885(5)
N2 N 0.1295(14) 0.6866(6) 0.2999(5)
N3 N 0.4206(13) 0.7938(5) 0.2865(5)
C2 C 0.3161(15) 0.5713(6) 0.2885(5)
C3 C 0.3264(16) 0.4735(6) 0.2833(6)
C4 C 0.2560(17) 0.8460(7) 0.2819(8)
H1 H 0.15730 0.84320 0.32140
H2 H 0.16410 0.82160 0.22990
C5 C 0.7433(18) 1.2071(8) 0.2281(7)
H3 H 0.78920 1.26310 0.22310
C6 C 0.5663(16) 0.4612(6) 0.2794(7)
H4 H 0.61660 0.47610 0.23470
H5 H 0.57670 0.40020 0.27350
H6 H 0.66010 0.49950 0.32740
C7 C 0.4784(16) 1.1069(7) 0.2664(7)
H7 H 0.34380 1.09630 0.28640
C8 C 0.5930(14) 0.8017(7) 0.2367(6)
H8 H 0.52560 0.77590 0.18130
H9 H 0.70910 0.76820 0.24640
C9 C 0.4661(16) 0.6338(6) 0.2802(6)
H10 H 0.61550 0.63230 0.27120
C10 C 0.231(2) 0.4549(8) 0.3514(7)
H11 H 0.07820 0.46600 0.35050
H12 H 0.32140 0.49310 0.40020
H13 H 0.23130 0.39360 0.34750
C11 C 0.3566(16) 0.9420(7) 0.2953(7)
H14 H 0.23630 0.97270 0.28370
H15 H 0.41900 0.96970 0.35100
C12 C 0.7944(15) 1.0589(7) 0.2119(6)
H16 H 0.88260 1.01540 0.19470
C13 C 0.6037(16) 1.0375(7) 0.2432(6)
C14 C 0.7003(14) 0.8970(6) 0.2523(5)
H17 H 0.79190 0.91940 0.30430
H18 H 0.79970 0.90020 0.21310
C15 C 0.8616(18) 1.1414(7) 0.2047(7)
H19 H 0.99300 1.15200 0.18290
C16 C 0.167(2) 0.4087(8) 0.2054(7)
H20 H 0.22360 0.41790 0.15940
H21 H 0.01580 0.42110 0.20630
H22 H 0.16600 0.34780 0.20330
C17 C 0.548(2) 1.1878(8) 0.2603(8)
H23 H 0.46380 1.23240 0.27810
O2 O 0.6893(11) 0.6883(5) 0.0154(5)
N4 N 1.1322(12) 1.0652(6) 0.0159(5)
N5 N 1.0013(12) 0.8815(5) -0.0031(5)
N6 N 0.7007(13) 0.7726(6) 0.0081(6)
C18 C 0.8315(15) 0.9373(7) -0.0085(6)
H24 H 0.70150 0.90160 -0.04680
H25 H 0.78030 0.95850 0.04270
C19 C 1.2103(14) 0.9327(6) 0.0454(5)
H26 H 1.32060 0.89370 0.04460
H27 H 1.18340 0.95690 0.09990
C20 C 0.9135(15) 0.5791(7) 0.0320(5)
C21 C 0.9218(15) 0.8021(6) 0.0092(5)
C22 C 1.4294(17) 1.1954(7) 0.0398(6)
H28 H 1.53200 1.16740 0.06130
C23 C 0.9003(15) 0.6678(7) 0.0250(6)
C24 C 1.2073(16) 1.1513(7) 0.0096(6)
C25 C 1.499(2) 1.2841(7) 0.0377(7)
H29 H 1.64660 1.31450 0.05750
C26 C 1.1640(16) 0.5694(7) 0.0444(6)
H30 H 1.24280 0.61640 0.09070
H31 H 1.23230 0.57290 -0.00130
H32 H 1.17300 0.51270 0.05170
C27 C 0.7852(18) 0.5073(7) -0.0405(6)
H33 H 0.79260 0.44990 -0.03460
H34 H 0.85120 0.51140 -0.08650
H35 H 0.62960 0.51460 -0.04690
C28 C 0.9205(17) 1.0137(7) -0.0324(7)
H36 H 0.80850 1.05240 -0.02890
H37 H 0.94450 0.99260 -0.08750
C29 C 0.8027(18) 0.5704(8) 0.1058(6)
H38 H 0.88150 0.61650 0.15280
H39 H 0.81240 0.51300 0.11140
H40 H 0.64630 0.57650 0.09860
C30 C 1.0483(16) 0.7364(7) 0.0207(6)
H41 H 1.20490 0.74070 0.02460
C31 C 1.0602(17) 1.1949(8) -0.0234(7)
H42 H 0.91130 1.16680 -0.04420
C32 C 1.344(2) 1.3229(7) 0.0059(7)
H43 H 1.38430 1.38140 0.00600
C33 C 1.1351(19) 1.2789(8) -0.0251(8)
H44 H 1.03630 1.30640 -0.04900
C34 C 1.3068(16) 1.0091(8) 0.0164(8)
H45 H 1.44320 1.04420 0.05160
H46 H 1.34500 0.98570 -0.03670
N7 N 0.3196(12) 0.7967(6) 0.7829(5)
C35 C 0.0241(14) 0.6673(7) 0.7606(7)
H47 H -0.03560 0.68400 0.81070
H48 H -0.10120 0.63170 0.72020
C36 C 0.2607(14) 0.9385(6) 0.7605(5)
H49 H 0.10370 0.93280 0.75620
N8 N 0.1819(13) 0.6115(6) 0.7667(5)
N9 N 0.6094(13) 0.9010(6) 0.7732(6)
C37 C 0.3963(15) 1.0967(6) 0.7474(6)
C38 C 0.1083(17) 0.5261(7) 0.7704(6)
C39 C 0.4109(16) 1.0070(7) 0.7574(6)
O3 O 0.6263(11) 0.9891(5) 0.7633(5)
C40 C 0.3928(14) 0.6616(7) 0.8151(7)
H50 H 0.50490 0.62300 0.81080
H51 H 0.36970 0.68240 0.87030
C41 C 0.177(2) 0.3941(8) 0.8036(8)
H52 H 0.27930 0.36510 0.82400
C42 C 0.3948(15) 0.8776(7) 0.7717(5)
C43 C -0.1827(18) 0.3981(9) 0.7431(7)
H53 H -0.33230 0.37090 0.72220
C44 C -0.0492(18) 0.3512(7) 0.7759(7)
H54 H -0.10460 0.29530 0.77950
C45 C 0.2479(18) 0.4794(8) 0.8008(7)
H55 H 0.39810 0.50650 0.82050
C46 C 0.5236(18) 1.1702(7) 0.8237(6)
H56 H 0.51140 1.22790 0.81920
H57 H 0.68060 1.16480 0.83010
H58 H 0.45770 1.16340 0.86890
C47 C 0.4810(14) 0.7411(7) 0.7896(7)
H59 H 0.61100 0.77710 0.82770
H60 H 0.53310 0.71940 0.73860
C48 C -0.1145(17) 0.4791(8) 0.7388(7)
H61 H -0.21550 0.50540 0.71460
C49 C 0.1486(17) 1.1059(8) 0.7367(8)
H62 H 0.13770 1.16300 0.73080
H63 H 0.08250 1.10090 0.78240
H64 H 0.06910 1.05950 0.69010
C50 C 0.5023(16) 1.1067(7) 0.6763(6)
H65 H 0.48680 1.16360 0.67050
H66 H 0.42710 1.05990 0.62930
H67 H 0.66020 1.10300 0.68410
C51 C 0.0964(14) 0.7498(7) 0.7420(7)
H68 H 0.09700 0.73510 0.68510
H69 H -0.01280 0.78900 0.75650
C52 C 0.7135(14) 0.6381(7) 0.5361(6)
N10 N 0.8954(13) 0.8878(6) 0.4956(5)
C53 C 0.9937(16) 1.2020(7) 0.5002(6)
N11 N 1.1824(12) 0.9929(5) 0.4828(5)
O4 O 1.2038(11) 1.0806(5) 0.4817(4)
C54 C 0.8584(16) 1.0394(7) 0.5013(6)
H70 H 0.70800 1.03810 0.50980
C55 C 0.5157(17) 0.6201(7) 0.5701(6)
H71 H 0.42850 0.66420 0.58610
N12 N 0.7872(13) 0.7262(5) 0.5347(5)
C56 C 1.0004(16) 1.1107(7) 0.4941(6)
C57 C 0.4511(19) 0.5379(9) 0.5799(7)
H72 H 0.32250 0.52750 0.60320
C58 C 0.6277(18) 0.7815(7) 0.5316(8)
H73 H 0.53240 0.77980 0.57220
H74 H 0.53120 0.75660 0.48050
C59 C 1.0620(17) 0.8274(7) 0.4976(7)
H75 H 1.16190 0.83050 0.45850
H76 H 1.15430 0.84850 0.54960
C60 C 0.767(2) 0.4862(8) 0.5208(8)
H77 H 0.85190 0.44130 0.50370
C61 C 0.7192(16) 0.8754(6) 0.5425(7)
H78 H 0.59610 0.90390 0.52890
H79 H 0.77880 0.90530 0.59820
C62 C 0.9563(16) 0.7348(6) 0.4816(6)
H80 H 1.07230 0.70020 0.48850
H81 H 0.88290 0.71050 0.42680
C63 C 1.140(2) 1.2616(7) 0.5753(7)
H82 H 1.13380 1.32280 0.58020
H83 H 1.29340 1.25210 0.57370
H84 H 1.08540 1.24820 0.62000
C64 C 0.578(2) 0.4706(8) 0.5550(7)
H85 H 0.53400 0.41530 0.56160
C65 C 1.0743(18) 1.2260(8) 0.4268(7)
H86 H 1.06470 1.28720 0.43280
H87 H 0.97910 1.18790 0.37900
H88 H 1.22850 1.21770 0.42370
C66 C 0.834(2) 0.5705(8) 0.5118(8)
H89 H 0.96320 0.58060 0.48880
C67 C 0.7468(18) 1.2224(8) 0.5024(9)
H90 H 0.74880 1.28390 0.50640
H91 H 0.68950 1.21110 0.54750
H92 H 0.65090 1.18480 0.45450
C68 C 0.9730(16) 0.9713(7) 0.4940(6)
#END
