
#######################################################################
#
#                 Cambridge Crystallographic Data Centre
#                                CCDC
#
#######################################################################
#
# If this CIF has been generated from an entry in the Cambridge
# Structural Database, then it will include bibliographic, chemical,
# crystal, experimental, refinement or atomic coordinate data resulting
# from the CCDC's data processing and validation procedures.
#
#######################################################################

data_CSD_CIF_REZBOO
_audit_creation_date 2007-05-15
_audit_creation_method CSD-ConQuest-V1
_database_code_CSD REZBOO
_database_code_depnum_ccdc_archive 'CCDC 640331'
_chemical_formula_sum 'C17 H18 N2 O7'
_chemical_formula_moiety
;
C17 H18 N2 O7
;
_journal_coeditor_code "IUCr FL2103"
_journal_coden_Cambridge 1370
_journal_volume 63
_journal_year 2007
_journal_page_first o1523
_journal_name_full 'Acta Crystallogr.,Sect.E:Struct.Rep.Online '
loop_
_publ_author_name
"S.J.Shanley"
"C.J.Scholfield"
"S.J.Coles"
"D.J.Watkin"
"D.S.Fischer"
_chemical_name_systematic
;
4-Nitrobenzyl 5-oxo-2-(2-oxopiperidin-1-yl)tetrahydrofuran-2-carboxylate
;
_chemical_melting_point 390
_cell_volume   1664.280
_exptl_crystal_colour 'colorless'
_exptl_crystal_density_diffrn 1.446
_exptl_special_details
;
Melting point range 390-391K

;
_exptl_crystal_description 'thin plate'
_exptl_crystal_preparation 'methanol'
_diffrn_ambient_temperature 200
_diffrn_special_details
;
twin

;
_refine_special_details
;
Two C atoms of the piperidine ring are disordered over two sites, with 
occupancies 0.665:0.335.
;
#These two values have been output from a single CSD field.
_refine_ls_R_factor_gt 0.1355
_refine_ls_wR_factor_gt 0.1355
_symmetry_cell_setting triclinic
_symmetry_space_group_name_H-M 'P -1'
_symmetry_Int_Tables_number 2
loop_
_symmetry_equiv_pos_site_id
_symmetry_equiv_pos_as_xyz
1 x,y,z
2 -x,-y,-z
_cell_length_a 9.2366(9)
_cell_length_b 12.0658(10)
_cell_length_c 15.0535(15)
_cell_angle_alpha 88.416(3)
_cell_angle_beta 82.933(3)
_cell_angle_gamma 89.663(7)
_cell_formula_units_Z 4
loop_
_atom_type_symbol
_atom_type_radius_bond
C 0.68
H 0.23
N 0.68
O 0.68
loop_
_atom_site_label
_atom_site_type_symbol
_atom_site_fract_x
_atom_site_fract_y
_atom_site_fract_z
C1 C 1.1211(5) 1.1478(3) 0.3709(3)
C2 C 1.1137(5) 1.2094(3) 0.2928(3)
C3 C 1.0633(5) 1.1573(3) 0.2220(3)
C4 C 1.0230(4) 1.0467(3) 0.2283(2)
C5 C 1.0328(5) 0.9877(3) 0.3086(3)
C6 C 1.0818(5) 1.0383(3) 0.3799(3)
C7 C 0.9688(5) 0.9961(3) 0.1490(3)
O1 O 0.9525(3) 0.8785(2) 0.16551(18)
C8 C 0.8977(4) 0.8250(3) 0.1015(3)
O2 O 0.8672(3) 0.8660(2) 0.0324(2)
C9 C 0.9033(4) 0.6984(3) 0.1178(2)
N1 N 0.8532(4) 0.6651(3) 0.2090(2)
C10 C 0.7255(5) 0.7145(4) 0.2461(3)
C11 C 0.6619(6) 0.6772(5) 0.3391(3)
C12 C 0.6997(7) 0.5576(6) 0.3637(4)
C13 C 0.8603(7) 0.5442(6) 0.3454(4)
C14 C 0.9129(6) 0.5628(4) 0.2466(3)
O3 O 0.6694(4) 0.7894(3) 0.2053(2)
C15 C 1.0584(4) 0.6620(3) 0.0798(3)
C16 C 1.0447(5) 0.6530(4) -0.0199(3)
C17 C 0.8875(5) 0.6341(3) -0.0234(3)
O4 O 0.8094(3) 0.6504(2) 0.05860(18)
O5 O 0.8271(4) 0.6076(3) -0.0857(2)
N2 N 1.1773(5) 1.1992(3) 0.4472(3)
O6 O 1.1686(6) 1.1484(3) 0.5184(2)
O7 O 1.2341(5) 1.2893(3) 0.4362(3)
H1 H 1.14190 1.28390 0.28880
H2 H 1.05730 1.19780 0.16860
H3 H 1.00590 0.91300 0.31370
H4 H 1.08870 0.99870 0.43390
H5 H 1.03720 1.01170 0.09490
H6 H 0.87470 1.02860 0.13920
H7 H 0.69850 0.72490 0.38100
H8 H 0.55630 0.68440 0.34190
H9 H 0.66660 0.54230 0.42590
H10 H 0.65420 0.50720 0.32550
H11 H 0.90700 0.59850 0.37930
H12 H 0.88860 0.46900 0.36380
H13 H 1.01870 0.56730 0.23990
H14 H 0.88200 0.50210 0.21080
H15 H 1.13110 0.71580 0.09230
H16 H 1.08440 0.58950 0.10450
H17 H 1.07130 0.72300 -0.05040
H18 H 1.10190 0.59520 -0.04930
N3 N 0.1649(5) 0.7142(3) 0.4458(3)
O8 O 0.0978(6) 0.6609(3) 0.5068(3)
O9 O 0.1849(7) 0.8156(3) 0.4474(3)
C18 C 0.2346(5) 0.6562(3) 0.3672(3)
C19 C 0.2574(5) 0.5439(3) 0.3747(3)
C20 C 0.3308(5) 0.4893(3) 0.3028(3)
C21 C 0.3788(4) 0.5476(3) 0.2239(3)
C22 C 0.4643(5) 0.4938(3) 0.1450(3)
O10 O 0.4762(3) 0.3770(2) 0.16513(18)
C23 C 0.5603(4) 0.3223(3) 0.1028(3)
C24 C 0.5518(4) 0.1965(3) 0.1211(2)
N4 N 0.5677(4) 0.1641(3) 0.2127(2)
C25 C 0.6698(5) 0.2216(4) 0.2520(3)
O11 O 0.7412(4) 0.2956(3) 0.2108(2)
C26 C 0.6893(6) 0.1921(5) 0.3482(3)
C27 C 0.5015(6) 0.0592(4) 0.2490(3)
O12 O 0.6692(3) 0.1476(2) 0.06104(18)
C28 C 0.6230(5) 0.1312(3) -0.0202(3)
C29 C 0.4627(5) 0.1489(4) -0.0147(3)
C30 C 0.4120(4) 0.1582(3) 0.0856(3)
O13 O 0.7076(4) 0.1051(2) -0.0832(2)
O14 O 0.6195(3) 0.3617(2) 0.03365(19)
C31 C 0.3497(5) 0.6606(3) 0.2169(3)
C32 C 0.2788(5) 0.7162(3) 0.2889(3)
H19 H 0.22400 0.50560 0.42720
H20 H 0.34970 0.41290 0.30720
H21 H 0.56020 0.52570 0.13370
H22 H 0.41470 0.50530 0.09260
H23 H 0.65170 0.25220 0.38540
H24 H 0.79270 0.18510 0.35410
H25 H 0.39610 0.06340 0.25050
H26 H 0.53720 0.00040 0.20920
H27 H 0.44470 0.21780 -0.04710
H28 H 0.41820 0.08800 -0.04110
H29 H 0.37990 0.08610 0.11120
H30 H 0.33290 0.21120 0.09820
H31 H 0.37930 0.69920 0.16220
H32 H 0.26230 0.79280 0.28540
C33 C 0.5793(10) 0.1121(7) 0.3972(5)
C34 C 0.5749(11) 0.0176(6) 0.3322(5)
H33 H 0.60950 0.08650 0.45380
H34 H 0.48480 0.14840 0.40690
H35 H 0.51800 -0.04290 0.36170
H36 H 0.67280 -0.00780 0.31340
C35? C 0.6519(17) 0.0660(9) 0.3702(11)
C36? C 0.4986(17) 0.0390(14) 0.3510(7)
H37? H 0.66040 0.04960 0.43280
H38? H 0.72010 0.02000 0.33290
H39? H 0.42860 0.08820 0.38350
H40? H 0.47350 -0.03720 0.36790
#END
