
#######################################################################
#
#                 Cambridge Crystallographic Data Centre
#                                CCDC
#
#######################################################################
#
# If this CIF has been generated from an entry in the Cambridge
# Structural Database, then it will include bibliographic, chemical,
# crystal, experimental, refinement or atomic coordinate data resulting
# from the CCDC's data processing and validation procedures.
#
#######################################################################

data_CSD_CIF_REZGEL
_audit_creation_date 2018-02-23
_audit_creation_method CSD-ConQuest-V1
_database_code_CSD REZGEL
_database_code_depnum_ccdc_archive 'CCDC 1465270'
_chemical_formula_sum 'C15 H14 N2 O4'
_chemical_formula_moiety
;
C15 H14 N2 O4
;
_journal_coden_Cambridge 119
_journal_volume 1156
_journal_year 2018
_journal_page_first 62
_journal_name_full 'J.Mol.Struct. '
loop_
_publ_author_name
"P.Prabukanthan"
"R.Lakshmi"
"G.Harichandran"
"C.Sudarsana Kumar"
_chemical_name_systematic
;
4-methoxy-N-methyl-N-(4-nitrophenyl)benzamide
;
_cell_volume   2804.068
_exptl_crystal_colour 'colorless'
_exptl_crystal_density_diffrn 1.356
_exptl_crystal_description 'block'
_diffrn_ambient_temperature 273
#These two values have been output from a single CSD field.
_refine_ls_R_factor_gt 0.035
_refine_ls_wR_factor_gt 0.035
_symmetry_cell_setting orthorhombic
_symmetry_space_group_name_H-M 'P b c a'
_symmetry_Int_Tables_number 61
loop_
_symmetry_equiv_pos_site_id
_symmetry_equiv_pos_as_xyz
1 x,y,z
2 1/2-x,-y,1/2+z
3 -x,1/2+y,1/2-z
4 1/2+x,1/2-y,-z
5 -x,-y,-z
6 -1/2+x,y,-1/2-z
7 x,-1/2-y,-1/2+z
8 -1/2-x,-1/2+y,z
_cell_length_a 12.2938(11)
_cell_length_b 12.9502(12)
_cell_length_c 17.6127(16)
_cell_angle_alpha 90
_cell_angle_beta 90
_cell_angle_gamma 90
_cell_formula_units_Z 8
loop_
_atom_type_symbol
_atom_type_radius_bond
C 0.68
H 0.23
N 0.68
O 0.68
loop_
_atom_site_label
_atom_site_type_symbol
_atom_site_fract_x
_atom_site_fract_y
_atom_site_fract_z
O1 O 0.24665(12) 0.09017(10) 0.11513(8)
O2 O 0.05430(11) 0.47590(11) 0.28566(9)
N1 N 0.22525(12) 0.49628(11) 0.32943(8)
O3 O 0.65808(12) 0.34222(13) 0.48556(10)
N2 N 0.56521(15) 0.31215(15) 0.4951(1)
C1 C 0.31258(13) 0.44721(13) 0.36915(9)
C2 C 0.47736(14) 0.35976(14) 0.45109(10)
O4 O 0.54170(14) 0.24434(17) 0.54057(11)
C3 C 0.29195(14) 0.36289(13) 0.41490(9)
H1 H 0.22190 0.33600 0.41770
C4 C 0.17810(14) 0.34525(13) 0.25032(10)
C5 C 0.41650(15) 0.48791(15) 0.36522(10)
H2 H 0.42990 0.54540 0.33500
C6 C 0.37479(15) 0.31834(13) 0.45653(10)
H3 H 0.36140 0.26160 0.48750
C7 C 0.28068(14) 0.32824(15) 0.21921(10)
H4 H 0.33640 0.37500 0.22880
C8 C 0.14686(15) 0.44199(15) 0.29075(10)
C9 C 0.50029(15) 0.44369(15) 0.40583(10)
H5 H 0.57060 0.46990 0.40270
C10 C 0.21901(15) 0.17176(14) 0.16042(10)
C11 C 0.11724(15) 0.18636(15) 0.19182(11)
H6 H 0.06230 0.13820 0.18370
C12 C 0.30079(15) 0.24318(16) 0.17441(10)
H7 H 0.36950 0.23360 0.15340
C13 C 0.09765(14) 0.27322(15) 0.23551(11)
H8 H 0.02850 0.28350 0.25550
C14 C 0.19561(18) 0.59932(14) 0.35667(12)
H9 H 0.15810 0.63600 0.31720
H10 H 0.26020 0.63640 0.37050
H11 H 0.14910 0.59310 0.40020
C15 C 0.16037(18) 0.02968(17) 0.08395(13)
H12 H 0.11860 -0.00030 0.12440
H13 H 0.19030 -0.02420 0.05290
H14 H 0.11420 0.07290 0.05360
#END
