
#######################################################################
#
#                 Cambridge Crystallographic Data Centre
#                                CCDC
#
#######################################################################
#
# If this CIF has been generated from an entry in the Cambridge
# Structural Database, then it will include bibliographic, chemical,
# crystal, experimental, refinement or atomic coordinate data resulting
# from the CCDC's data processing and validation procedures.
#
#######################################################################

data_CSD_CIF_REZHUB
_audit_creation_date 2013-05-19
_audit_creation_method CSD-ConQuest-V1
_database_code_CSD REZHUB
_database_code_depnum_ccdc_archive 'CCDC 909293'
_chemical_formula_sum 'C12 H12 N2 O3'
_chemical_formula_moiety
;
C12 H12 N2 O3
;
_journal_coden_Cambridge 1499
_journal_volume 3
_journal_year 2013
_journal_page_first 178
_journal_name_full 'ACS Catalysis '
loop_
_publ_author_name
"Qilun Liu"
"Pinhong Cheng"
"Gousheng Liu"
_chemical_name_systematic
;
2-(1-Nitrobutylidene)-1,2-dihydro-3H-indol-3-one
;
_cell_volume   1134.989
_exptl_crystal_colour 'red'
_exptl_crystal_density_diffrn 1.359
_exptl_crystal_description 'prismatic'
_diffrn_ambient_temperature 293
_refine_special_details
;
H11A,H11B and H11C,H11D disordered over two sites with occupancies 0.70:0.30; 
C12,C13 and C12',C13' disordered over two sites with occupancies 0.70:0.30.
;
#These two values have been output from a single CSD field.
_refine_ls_R_factor_gt 0.0408
_refine_ls_wR_factor_gt 0.0408
_symmetry_cell_setting monoclinic
_symmetry_space_group_name_H-M 'P 21/n'
_symmetry_Int_Tables_number 14
loop_
_symmetry_equiv_pos_site_id
_symmetry_equiv_pos_as_xyz
1 x,y,z
2 1/2-x,1/2+y,1/2-z
3 -x,-y,-z
4 -1/2+x,-1/2-y,-1/2+z
_cell_length_a 13.773(3)
_cell_length_b 5.5536(13)
_cell_length_c 15.115(4)
_cell_angle_alpha 90
_cell_angle_beta 100.977(5)
_cell_angle_gamma 90
_cell_formula_units_Z 4
loop_
_atom_type_symbol
_atom_type_radius_bond
C 0.68
H 0.23
N 0.68
O 0.68
loop_
_atom_site_label
_atom_site_type_symbol
_atom_site_fract_x
_atom_site_fract_y
_atom_site_fract_z
N1 N 0.40413(10) 0.1566(2) 0.94045(9)
N2 N 0.36393(10) 0.4192(3) 1.09712(10)
O1 O 0.2188(1) -0.2438(2) 0.96665(9)
O2 O 0.42770(9) 0.5011(2) 1.05782(8)
O3 O 0.34259(11) 0.5178(3) 1.1629(1)
C1 C 0.40618(11) -0.0031(3) 0.87004(10)
C2 C 0.46443(13) 0.0043(3) 0.80615(11)
H1 H 0.51040 0.12660 0.80540
C3 C 0.45182(14) -0.1785(3) 0.74258(12)
H2 H 0.49030 -0.17860 0.69820
C4 C 0.38331(15) -0.3614(3) 0.74333(13)
H3 H 0.37700 -0.48230 0.70000
C5 C 0.32506(13) -0.3654(3) 0.80720(13)
H4 H 0.27870 -0.48690 0.80770
C6 C 0.33695(11) -0.1835(3) 0.87110(11)
C7 C 0.28663(12) -0.1349(3) 0.94511(11)
C8 C 0.33579(11) 0.0944(3) 0.99020(11)
C9 C 0.31244(11) 0.2018(3) 1.06360(11)
C10 C 0.23549(14) 0.1200(4) 1.11297(15)
H5 H 0.25460 0.15960 1.17640
H6 H 0.22730 -0.05320 1.10740
C11 C 0.1350(3) 0.2513(8) 1.0709(3)
H7 H 0.14210 0.42320 1.08160
H8 H 0.12020 0.22500 1.00630
C12 C 0.0534(3) 0.1588(7) 1.1114(3)
H9 H 0.04560 -0.01070 1.09970
H10 H -0.00670 0.24090 1.08550
H11 H 0.06790 0.18600 1.17520
H12 H 0.4407(12) 0.281(3) 0.9504(11)
H13? H 0.26870 0.08650 1.17340
H14? H 0.21100 -0.03110 1.08700
C13? C 0.1439(7) 0.275(2) 1.1232(6)
H15? H 0.10750 0.20260 1.16540
H16? H 0.16280 0.43750 1.14230
C14? C 0.0845(7) 0.269(2) 1.0268(7)
H17? H 0.11870 0.35960 0.98820
H18? H 0.02040 0.33830 1.02560
H19? H 0.07710 0.10520 1.00620
#END
