
#######################################################################
#
#                 Cambridge Crystallographic Data Centre
#                                CCDC
#
#######################################################################
#
# If this CIF has been generated from an entry in the Cambridge
# Structural Database, then it will include bibliographic, chemical,
# crystal, experimental, refinement or atomic coordinate data resulting
# from the CCDC's data processing and validation procedures.
#
#######################################################################

data_CSD_CIF_REZNAN
_audit_creation_date 2013-07-16
_audit_creation_method CSD-ConQuest-V1
_database_code_CSD REZNAN
_database_code_depnum_ccdc_archive 'CCDC 950379'
_chemical_formula_sum 'C13 H11 N5 O3'
_chemical_formula_moiety
;
C13 H11 N5 O3
;
_journal_coeditor_code "IUCr SK3484"
_journal_coden_Cambridge 591
_journal_volume 69
_journal_year 2013
_journal_page_first 549
_journal_name_full 'Acta Crystallogr.,Sect.C:Cryst.Struct.Commun. '
loop_
_publ_author_name
"L.R.Gomes"
"J.N.Low"
"A.S.M.C.Rodrigues"
"J.L.Wardell"
"C.H.da S.Lima"
"M.V.N.de Souza"
_chemical_name_systematic
;
N-Methyl-N'-(2-nitrobenzylidene)pyrazine-2-carbohydrazide
;
_cell_volume   1261.326
_exptl_crystal_colour 'yellow'
_exptl_crystal_density_diffrn 1.502
_exptl_crystal_description 'lath'
_diffrn_ambient_temperature 120
#These two values have been output from a single CSD field.
_refine_ls_R_factor_gt 0.0802
_refine_ls_wR_factor_gt 0.0802
_symmetry_cell_setting monoclinic
_symmetry_space_group_name_H-M 'P 21/c'
_symmetry_Int_Tables_number 14
loop_
_symmetry_equiv_pos_site_id
_symmetry_equiv_pos_as_xyz
1 x,y,z
2 -x,1/2+y,1/2-z
3 -x,-y,-z
4 x,-1/2-y,-1/2+z
_cell_length_a 3.7974(2)
_cell_length_b 33.3126(17)
_cell_length_c 10.0959(5)
_cell_angle_alpha 90
_cell_angle_beta 99.027(2)
_cell_angle_gamma 90
_cell_formula_units_Z 4
loop_
_atom_type_symbol
_atom_type_radius_bond
C 0.68
H 0.23
N 0.68
O 0.68
loop_
_atom_site_label
_atom_site_type_symbol
_atom_site_fract_x
_atom_site_fract_y
_atom_site_fract_z
O1 O 0.3911(7) 0.65099(7) 0.7717(2)
O2 O 1.0540(8) 0.51292(8) 0.3594(3)
O3 O 0.7448(8) 0.49513(8) 0.1686(3)
N1 N 0.6819(7) 0.62022(8) 0.4785(3)
N2 N 0.5626(7) 0.61611(8) 0.5997(3)
N3 N 0.9002(8) 0.52058(9) 0.2455(3)
C1 C 0.7285(8) 0.58864(10) 0.4111(3)
H1 H 0.69220 0.56260 0.44520
C2 C 0.4829(9) 0.65095(10) 0.6602(3)
C3 C 0.8402(8) 0.59398(10) 0.2788(3)
C4 C 0.9069(8) 0.56205(10) 0.1962(3)
C5 C 0.9867(9) 0.56702(11) 0.0685(3)
H2 H 1.02230 0.54430 0.01520
C6 C 1.0141(9) 0.60516(11) 0.0193(3)
H3 H 1.07370 0.60920 -0.06760
C7 C 0.9528(10) 0.63778(11) 0.0990(4)
H4 H 0.97420 0.66430 0.06630
C8 C 0.8617(9) 0.63219(10) 0.2247(4)
H5 H 0.81250 0.65490 0.27550
N4 N 0.3203(8) 0.69483(10) 0.4634(3)
C9 C 0.5046(9) 0.69004(10) 0.5885(3)
C10 C 0.6829(9) 0.7210(1) 0.6577(3)
H6 H 0.80810 0.71630 0.74540
N5 N 0.6860(9) 0.7579(1) 0.6050(3)
C11 C 0.4941(11) 0.76297(12) 0.4819(4)
H7 H 0.47940 0.78900 0.44300
C12 C 0.3203(10) 0.73189(12) 0.4112(4)
H8 H 0.19690 0.73660 0.32320
C13 C 0.5144(9) 0.57723(10) 0.6605(3)
H9 H 0.43520 0.58120 0.74740
H10 H 0.74100 0.56260 0.67350
H11 H 0.33450 0.56170 0.60150
#END
