
#######################################################################
#
#                 Cambridge Crystallographic Data Centre
#                                CCDC
#
#######################################################################
#
# If this CIF has been generated from an entry in the Cambridge
# Structural Database, then it will include bibliographic, chemical,
# crystal, experimental, refinement or atomic coordinate data resulting
# from the CCDC's data processing and validation procedures.
#
#######################################################################

data_CSD_CIF_REZYED
_audit_creation_date 2018-07-04
_audit_creation_method CSD-ConQuest-V1
_database_code_CSD REZYED
_database_code_depnum_ccdc_archive 'CCDC 1445217'
_chemical_formula_sum 'C25 H27 N1 O6'
_chemical_formula_moiety
;
C25 H27 N1 O6
;
_journal_coden_Cambridge 95
_journal_volume 65
_journal_year 2016
_journal_page_first 2243
_journal_name_full 'Izv.Akad.Nauk SSSR,Ser.Khim.(Russ.)(Russ.Chem.Bull.) '
loop_
_publ_author_name
"A.Tabolin"
"E.O.Gorbacheva"
"S.Ioffe"
"Yu.Nelyubina"
_chemical_name_systematic
;
methyl 
3-(4-(4-methoxyphenyl)-6,6-dimethyl-5,6-dihydro-4H-1,2-oxazin-3-yl)-2-oxo-5-ph
enyltetrahydrofuran-3-carboxylate
;
_cell_volume   2279.022
_exptl_crystal_colour 'colorless'
_exptl_crystal_density_diffrn 1.275
_exptl_crystal_description 'prism'
_diffrn_ambient_temperature 100
#These two values have been output from a single CSD field.
_refine_ls_R_factor_gt 0.0402
_refine_ls_wR_factor_gt 0.0402
loop_
_citation_database_id_CSD
_citation_special_details
REZYIH "is a racemate of this entry"
_symmetry_cell_setting orthorhombic
_symmetry_space_group_name_H-M 'P 21 21 21'
_symmetry_Int_Tables_number 19
loop_
_symmetry_equiv_pos_site_id
_symmetry_equiv_pos_as_xyz
1 x,y,z
2 1/2-x,-y,1/2+z
3 -x,1/2+y,1/2-z
4 1/2+x,1/2-y,-z
_cell_length_a 11.9593(13)
_cell_length_b 12.7603(14)
_cell_length_c 14.9342(16)
_cell_angle_alpha 90
_cell_angle_beta 90
_cell_angle_gamma 90
_cell_formula_units_Z 4
loop_
_atom_type_symbol
_atom_type_radius_bond
C 0.68
H 0.23
N 0.68
O 0.68
loop_
_atom_site_label
_atom_site_type_symbol
_atom_site_fract_x
_atom_site_fract_y
_atom_site_fract_z
N1 N 0.96407(13) 0.00878(12) 0.37664(10)
O1 O 0.93338(11) -0.01395(11) 0.46569(8)
O2 O 0.88822(11) 0.00415(10) 0.17299(9)
O3 O 0.95923(13) 0.15754(10) 0.21676(9)
O4 O 1.23457(13) 0.03379(13) 0.15701(10)
O5 O 1.19609(12) 0.12812(11) 0.28135(10)
O6 O 1.58919(12) -0.08319(14) 0.29289(12)
C1 C 1.05090(14) -0.03432(13) 0.34211(11)
C2 C 1.12610(15) -0.11671(14) 0.38585(12)
H1 H 1.10240 -0.18630 0.36170
C3 C 1.10192(16) -0.11829(15) 0.48748(12)
H2 H 1.13150 -0.18400 0.51360
H3 H 1.14080 -0.05880 0.51650
C4 C 0.97662(17) -0.11075(15) 0.50631(12)
C5 C 0.9090(2) -0.20282(17) 0.46917(16)
H4 H 0.82970 -0.19260 0.48290
H5 H 0.93510 -0.26810 0.49670
H6 H 0.91910 -0.20670 0.40410
C6 C 0.9543(2) -0.09425(18) 0.60633(13)
H7 H 0.99240 -0.03050 0.62660
H8 H 0.98250 -0.15460 0.64010
H9 H 0.87370 -0.08710 0.61640
C7 C 1.06713(14) -0.00566(13) 0.24256(11)
C8 C 0.96734(16) 0.06443(14) 0.21214(11)
C9 C 0.92234(15) -0.10632(13) 0.17319(11)
H10 H 0.89060 -0.14150 0.22740
C10 C 1.04991(15) -0.10168(14) 0.18185(11)
H11 H 1.08590 -0.09160 0.12280
H12 H 1.07980 -0.16610 0.21000
C11 C 0.87865(16) -0.16057(14) 0.09013(12)
C12 C 0.93303(18) -0.25097(16) 0.06027(14)
H13 H 0.99800 -0.27500 0.09050
C13 C 0.8927(2) -0.30610(16) -0.01356(14)
H14 H 0.93070 -0.36700 -0.03380
C14 C 0.79674(18) -0.27207(17) -0.05771(13)
H15 H 0.76860 -0.31030 -0.10740
C15 C 0.7427(2) -0.18240(19) -0.02881(16)
H16 H 0.67790 -0.15850 -0.05940
C16 C 0.78305(17) -0.12641(18) 0.04554(14)
H17 H 0.74510 -0.06520 0.06540
C17 C 1.17682(16) 0.05230(14) 0.22161(12)
C18 C 1.29550(18) 0.19072(18) 0.26410(18)
H18 H 1.30640 0.24070 0.31310
H19 H 1.28620 0.22900 0.20770
H20 H 1.36080 0.14460 0.25980
C19 C 1.25047(15) -0.10461(15) 0.36433(12)
C20 C 1.31793(17) -0.02923(17) 0.40519(13)
H21 H 1.28590 0.01660 0.44830
C21 C 1.43166(17) -0.01945(17) 0.38420(15)
H22 H 1.47630 0.03180 0.41340
C22 C 1.47889(16) -0.08591(17) 0.31985(14)
C23 C 1.41296(17) -0.16165(16) 0.27885(13)
H23 H 1.44470 -0.20680 0.23510
C24 C 1.30049(16) -0.17163(15) 0.30171(13)
H24 H 1.25690 -0.22490 0.27430
C25 C 1.6601(2) -0.0071(2) 0.3348(2)
H25 H 1.73560 -0.01220 0.30970
H26 H 1.66280 -0.02020 0.39940
H27 H 1.63020 0.06330 0.32390
#END
