
#######################################################################
#
#                 Cambridge Crystallographic Data Centre
#                                CCDC
#
#######################################################################
#
# If this CIF has been generated from an entry in the Cambridge
# Structural Database, then it will include bibliographic, chemical,
# crystal, experimental, refinement or atomic coordinate data resulting
# from the CCDC's data processing and validation procedures.
#
#######################################################################

data_CSD_CIF_REZZAA
_audit_creation_date 2018-07-04
_audit_creation_method CSD-ConQuest-V1
_database_code_CSD REZZAA
_database_code_depnum_ccdc_archive 'CCDC 1453991'
_chemical_formula_sum 'C17 H24 N3 O4'
_chemical_formula_moiety
;
C17 H24 N3 O4
;
_journal_coden_Cambridge 95
_journal_volume 65
_journal_year 2016
_journal_page_first 1644
_journal_name_full 'Izv.Akad.Nauk SSSR,Ser.Khim.(Russ.)(Russ.Chem.Bull.) '
loop_
_publ_author_name
"S.E.Tolstikov"
"I.V.Obsharova"
"G.V.Romanenko"
"A.S.Bogomyakov"
"V.I.Ovcharenko"
_chemical_name_systematic
;
2-(3-t-butyl-2-hydroxy-5-nitrophenyl)-4,4,5,5-tetramethyl-4,5-dihydro-1H-imida
zol-1-ol
;
_cell_volume   1732.305
_exptl_crystal_colour 'pink'
_exptl_crystal_density_diffrn 1.282
_exptl_crystal_description 'box'
_diffrn_ambient_temperature 296
_diffrn_special_details
;
twin

;
#These two values have been output from a single CSD field.
_refine_ls_R_factor_gt 0.0679
_refine_ls_wR_factor_gt 0.0679
_symmetry_cell_setting monoclinic
_symmetry_space_group_name_H-M 'P 21/n'
_symmetry_Int_Tables_number 14
loop_
_symmetry_equiv_pos_site_id
_symmetry_equiv_pos_as_xyz
1 x,y,z
2 1/2-x,1/2+y,1/2-z
3 -x,-y,-z
4 -1/2+x,-1/2-y,-1/2+z
_cell_length_a 7.1288(6)
_cell_length_b 21.1550(18)
_cell_length_c 11.4868(9)
_cell_angle_alpha 90
_cell_angle_beta 90.250(5)
_cell_angle_gamma 90
_cell_formula_units_Z 4
loop_
_atom_type_symbol
_atom_type_radius_bond
C 0.68
H 0.23
N 0.68
O 0.68
loop_
_atom_site_label
_atom_site_type_symbol
_atom_site_fract_x
_atom_site_fract_y
_atom_site_fract_z
O1 O 0.2593(6) 0.07959(10) 0.22152(18)
C1 C 0.2337(5) 0.07636(13) 0.6049(2)
N1 N 0.2332(4) 0.12651(11) 0.2879(2)
C2 C 0.2417(6) 0.19299(14) 0.2449(2)
C3 C 0.1338(8) 0.19858(18) 0.1335(3)
H1 H 0.13950 0.24140 0.10610
H2 H 0.18730 0.17090 0.07630
H3 H 0.00540 0.18700 0.14650
C4 C 0.4521(7) 0.20512(18) 0.2192(4)
H4 H 0.46780 0.24750 0.19100
H5 H 0.52390 0.19970 0.28940
H6 H 0.49460 0.17570 0.16140
C5 C 0.1754(6) 0.22865(14) 0.3529(3)
C6 C -0.0380(7) 0.24410(17) 0.3450(4)
H7 H -0.05930 0.27420 0.28380
H8 H -0.10680 0.20610 0.32860
H9 H -0.07940 0.26150 0.41770
C7 C 0.2793(8) 0.28787(16) 0.3871(3)
H10 H 0.26880 0.31850 0.32580
H11 H 0.22610 0.30480 0.45710
H12 H 0.40910 0.27800 0.40020
N2 N 0.1938(5) 0.18173(11) 0.4499(2)
C8 C 0.2197(5) 0.12585(13) 0.4088(2)
C9 C 0.2333(5) 0.06897(12) 0.4822(2)
O2 O 0.2199(4) 0.1340(1) 0.65284(18)
H13 H 0.214(8) 0.166(2) 0.591(5)
C10 C 0.2482(5) 0.02325(13) 0.6809(2)
C11 C 0.2465(5) 0.03038(13) 0.8143(2)
C12 C 0.2566(6) -0.03371(15) 0.8743(2)
H14 H 0.15090 -0.05890 0.85100
H15 H 0.37050 -0.05470 0.85250
H16 H 0.25470 -0.02790 0.95710
C13 C 0.0640(6) 0.06237(18) 0.8529(3)
H17 H 0.05350 0.10300 0.81640
H18 H -0.04100 0.03660 0.83050
H19 H 0.06520 0.06750 0.93590
C14 C 0.4176(7) 0.06825(16) 0.8546(3)
H20 H 0.41610 0.10920 0.81840
H21 H 0.41420 0.07310 0.93770
H22 H 0.53000 0.04620 0.83310
C15 C 0.2664(4) -0.03493(13) 0.6292(2)
H23 H 0.27930 -0.07060 0.67590
C16 C 0.2659(4) -0.04192(12) 0.5090(2)
N3 N 0.2879(4) -0.10437(12) 0.4594(2)
O3 O 0.3291(5) -0.14837(10) 0.5238(2)
O4 O 0.2680(5) -0.11177(11) 0.3555(2)
C17 C 0.2501(5) 0.00904(12) 0.4349(2)
H24 H 0.25060 0.00330 0.35460
#END
