
#######################################################################
#
#                 Cambridge Crystallographic Data Centre
#                                CCDC
#
#######################################################################
#
# If this CIF has been generated from an entry in the Cambridge
# Structural Database, then it will include bibliographic, chemical,
# crystal, experimental, refinement or atomic coordinate data resulting
# from the CCDC's data processing and validation procedures.
#
#######################################################################

data_CSD_CIF_RICCIQ
_audit_creation_date 2007-08-13
_audit_creation_method CSD-ConQuest-V1
_database_code_CSD RICCIQ
_database_code_depnum_ccdc_archive 'CCDC 647174'
_chemical_formula_sum 'C18 H17 N3 O3'
_chemical_formula_moiety
;
C18 H17 N3 O3
;
_journal_coeditor_code "IUCr CV2195"
_journal_coden_Cambridge 1370
_journal_volume 63
_journal_year 2007
_journal_page_first o2618
_journal_name_full 'Acta Crystallogr.,Sect.E:Struct.Rep.Online '
loop_
_publ_author_name
"Huan-Mei Guo"
"Fang-Fang Jian"
"Pu-Su Zhao"
"Xiao-Zheng Sun"
"Cui-Hua Lin"
_chemical_name_systematic
;
1-Acetyl-5-(4-methylphenyl)-3-(4-nitrophenyl)-2-pyrazoline
;
_cell_volume   3260.303
_exptl_crystal_colour 'colorless'
_exptl_crystal_density_diffrn 1.318
_exptl_crystal_description 'block'
_exptl_crystal_preparation 'ethanol'
_diffrn_ambient_temperature 293
#These two values have been output from a single CSD field.
_refine_ls_R_factor_gt 0.052
_refine_ls_wR_factor_gt 0.052
_symmetry_cell_setting monoclinic
_symmetry_space_group_name_H-M 'C 2/c'
_symmetry_Int_Tables_number 15
loop_
_symmetry_equiv_pos_site_id
_symmetry_equiv_pos_as_xyz
1 x,y,z
2 1/2+x,1/2+y,z
3 -x,y,1/2-z
4 1/2-x,1/2+y,1/2-z
5 -x,-y,-z
6 -1/2-x,-1/2-y,-z
7 x,-y,-1/2+z
8 -1/2+x,-1/2-y,-1/2+z
_cell_length_a 24.072(5)
_cell_length_b 11.905(2)
_cell_length_c 11.759(2)
_cell_angle_alpha 90
_cell_angle_beta 104.65(3)
_cell_angle_gamma 90
_cell_formula_units_Z 8
loop_
_atom_type_symbol
_atom_type_radius_bond
C 0.68
H 0.23
N 0.68
O 0.68
loop_
_atom_site_label
_atom_site_type_symbol
_atom_site_fract_x
_atom_site_fract_y
_atom_site_fract_z
O1 O 0.03391(13) 0.5988(2) -0.3818(2)
O2 O 0.08314(11) 0.71195(17) -0.25086(19)
O3 O 0.25580(7) 0.02692(15) 0.28221(13)
N1 N 0.07003(11) 0.6177(2) -0.2897(2)
N2 N 0.19433(6) 0.24609(14) 0.09101(12)
N3 N 0.21343(6) 0.14006(14) 0.13298(13)
C1 C 0.15193(9) 0.44364(17) -0.03989(16)
H1 H 0.17110 0.45280 0.03880
C2 C 0.1274(1) 0.53559(19) -0.10484(19)
H2 H 0.13040 0.60670 -0.07110
C3 C 0.09803(9) 0.51989(18) -0.22177(18)
C4 C 0.09414(9) 0.41633(19) -0.27530(17)
H3 H 0.07470 0.40810 -0.35390
C5 C 0.11970(8) 0.32453(17) -0.21019(15)
H4 H 0.11790 0.25440 -0.24580
C6 C 0.14832(7) 0.33655(16) -0.09085(14)
C7 C 0.17311(7) 0.23763(16) -0.02183(14)
C8 C 0.17864(8) 0.12170(15) -0.06924(15)
H5 H 0.20890 0.11870 -0.11030
H6 H 0.14280 0.09700 -0.12170
C9 C 0.19404(7) 0.05070(16) 0.04449(15)
H7 H 0.22550 -0.00130 0.04370
C10 C 0.24136(8) 0.1222(2) 0.24872(17)
C11 C 0.25167(11) 0.2239(2) 0.32705(17)
H8 H 0.27090 0.20170 0.40570
H9 H 0.21560 0.25820 0.32700
H10 H 0.27510 0.27660 0.29860
C12 C 0.14194(7) -0.01266(15) 0.06316(14)
C13 C 0.11059(8) 0.02378(16) 0.14034(15)
H11 H 0.12340 0.08530 0.18860
C14 C 0.06035(8) -0.03024(17) 0.14645(15)
H12 H 0.03990 -0.00350 0.19820
C15 C 0.03977(7) -0.12352(16) 0.07714(15)
C16 C 0.07169(8) -0.16014(17) -0.00005(16)
H13 H 0.05900 -0.22190 -0.04800
C17 C 0.12169(8) -0.10632(17) -0.00646(16)
H14 H 0.14220 -0.13300 -0.05810
C18 C -0.01491(8) -0.1824(2) 0.08309(18)
H15 H -0.03110 -0.14560 0.13980
H16 H -0.00660 -0.25930 0.10590
H17 H -0.04180 -0.17990 0.00730
#END
