
#######################################################################
#
#                 Cambridge Crystallographic Data Centre
#                                CCDC
#
#######################################################################
#
# If this CIF has been generated from an entry in the Cambridge
# Structural Database, then it will include bibliographic, chemical,
# crystal, experimental, refinement or atomic coordinate data resulting
# from the CCDC's data processing and validation procedures.
#
#######################################################################

data_CSD_CIF_RICTAZ
_audit_creation_date 2007-08-13
_audit_creation_method CSD-ConQuest-V1
_database_code_CSD RICTAZ
_database_code_depnum_ccdc_archive 'CCDC 619511'
_chemical_formula_sum 'C20 H17 N3 O5'
_chemical_formula_moiety
;
C20 H17 N3 O5
;
_journal_coden_Cambridge 644
_journal_volume 62
_journal_year 2007
_journal_page_first 705
_journal_name_full 'Z.Naturforsch.,B:Chem.Sci. '
loop_
_publ_author_name
"A.Souldozi"
"J.Khalafy"
"A.P.Marjani"
"K.Slepokura"
"T.Lis"
"A.Ramazani"
_chemical_name_systematic
;
Ethyl 
2-(1,3-benzoxazol-2-yl)-3-(p-tolylamino)-5-oxo-2,5-dihydroisoxazole-4-carboxyl
ate
;
_chemical_melting_point 403.95
_cell_volume   1798.395
_exptl_crystal_colour 'colorless'
_exptl_crystal_density_diffrn 1.401
_exptl_crystal_description 'block needle'
_exptl_crystal_preparation 'n-hexane/1,4-dioxane'
_diffrn_ambient_temperature 120
#These two values have been output from a single CSD field.
_refine_ls_R_factor_gt 0.0378
_refine_ls_wR_factor_gt 0.0378
_symmetry_cell_setting monoclinic
_symmetry_space_group_name_H-M 'P 21/n'
_symmetry_Int_Tables_number 14
loop_
_symmetry_equiv_pos_site_id
_symmetry_equiv_pos_as_xyz
1 x,y,z
2 1/2-x,1/2+y,1/2-z
3 -x,-y,-z
4 -1/2+x,-1/2-y,-1/2+z
_cell_length_a 8.907(2)
_cell_length_b 13.136(3)
_cell_length_c 15.780(3)
_cell_angle_alpha 90
_cell_angle_beta 103.08(3)
_cell_angle_gamma 90
_cell_formula_units_Z 4
loop_
_atom_type_symbol
_atom_type_radius_bond
C 0.68
H 0.23
N 0.68
O 0.68
loop_
_atom_site_label
_atom_site_type_symbol
_atom_site_fract_x
_atom_site_fract_y
_atom_site_fract_z
O1 O 0.55616(10) 0.44358(7) 0.69821(6)
O2 O 0.62464(10) 0.39552(8) 0.57592(6)
O3 O 0.12864(10) 0.43658(7) 0.46907(6)
O4 O 0.34188(10) 0.36399(7) 0.44000(6)
O5 O 0.52197(11) 0.43973(7) 0.86799(6)
N1 N 0.41379(12) 0.46993(8) 0.72285(7)
N2 N 0.31553(12) 0.34265(8) 0.80713(7)
N3 N 0.14957(12) 0.47956(8) 0.64841(7)
H1 H 0.082(2) 0.4762(14) 0.5947(12)
C1 C 0.51967(15) 0.41825(9) 0.60884(8)
C2 C 0.35662(14) 0.42963(9) 0.57842(8)
C3 C 0.29510(14) 0.45900(9) 0.64744(8)
C4 C 0.26425(14) 0.41233(9) 0.49111(8)
C5 C 0.25307(17) 0.33649(12) 0.35407(9)
H2 H 0.202(2) 0.3972(15) 0.3282(12)
H3 H 0.182(2) 0.2841(16) 0.3649(13)
C6 C 0.36307(19) 0.29366(12) 0.30412(10)
H4 H 0.438(2) 0.3478(17) 0.2911(13)
H5 H 0.307(2) 0.2687(15) 0.2456(14)
H6 H 0.422(3) 0.2387(17) 0.3370(14)
C7 C 0.40923(14) 0.41373(9) 0.79770(8)
C8 C 0.49564(14) 0.37345(10) 0.93171(8)
C9 C 0.58004(17) 0.36370(11) 1.01602(9)
H7 H 0.670(2) 0.4079(15) 1.0399(12)
C10 C 0.52803(16) 0.28876(11) 1.06494(9)
H8 H 0.586(2) 0.2777(14) 1.1285(12)
C11 C 0.39961(15) 0.22842(11) 1.03020(9)
H9 H 0.3661(18) 0.1764(13) 1.0681(10)
C12 C 0.31626(15) 0.24043(10) 0.94507(8)
H10 H 0.227(2) 0.1977(14) 0.9218(11)
C13 C 0.36738(14) 0.3146(1) 0.89534(8)
C14 C 0.09411(14) 0.51449(9) 0.72193(8)
C15 C 0.14245(14) 0.60714(10) 0.76101(8)
H11 H 0.217(2) 0.6490(13) 0.7394(11)
C16 C 0.08159(15) 0.64107(10) 0.82986(9)
H12 H 0.115(2) 0.7099(15) 0.8554(12)
C17 C -0.02623(15) 0.58373(10) 0.86098(8)
C18 C -0.07405(16) 0.49121(10) 0.81987(9)
H13 H -0.156(2) 0.4501(14) 0.8395(11)
C19 C -0.01467(15) 0.45669(10) 0.75096(8)
H14 H -0.051(2) 0.3922(15) 0.7201(12)
C20 C -0.0908(2) 0.62084(14) 0.93591(11)
H15 H -0.031(3) 0.597(2) 0.992(2)
H16 H -0.199(3) 0.597(2) 0.9327(17)
H17 H -0.092(3) 0.692(2) 0.9422(15)
#END
