
#######################################################################
#
#                 Cambridge Crystallographic Data Centre
#                                CCDC
#
#######################################################################
#
# If this CIF has been generated from an entry in the Cambridge
# Structural Database, then it will include bibliographic, chemical,
# crystal, experimental, refinement or atomic coordinate data resulting
# from the CCDC's data processing and validation procedures.
#
#######################################################################

data_CSD_CIF_RICVIJ
_audit_creation_date 2007-08-13
_audit_creation_method CSD-ConQuest-V1
_database_code_CSD RICVIJ
_database_code_depnum_ccdc_archive 'CCDC 628866'
_chemical_formula_sum 'C26 H17 N1 O10'
_chemical_formula_moiety
;
C26 H17 N1 O10
;
_journal_coden_Cambridge 644
_journal_volume 62
_journal_year 2007
_journal_page_first 737
_journal_name_full 'Z.Naturforsch.,B:Chem.Sci. '
loop_
_publ_author_name
"S.Stanchev"
"C.Maichle-Mossmer"
"I.Manolov"
_chemical_name_systematic
;
3,3'-((4-Hydroxy-3-methoxy-5-nitrophenyl)methylene)-bis(4-hydroxy-2H-1-benzopy
ran-2-one)
;
_cell_volume   2588.772
_exptl_crystal_colour 'yellow'
_exptl_crystal_density_diffrn 1.292
_exptl_crystal_description 'plate'
_exptl_crystal_preparation 'acetone'
_diffrn_ambient_temperature 213
#These two values have been output from a single CSD field.
_refine_ls_R_factor_gt 0.0879
_refine_ls_wR_factor_gt 0.0879
_symmetry_cell_setting monoclinic
_symmetry_space_group_name_H-M 'P 21/n'
_symmetry_Int_Tables_number 14
loop_
_symmetry_equiv_pos_site_id
_symmetry_equiv_pos_as_xyz
1 x,y,z
2 1/2-x,1/2+y,1/2-z
3 -x,-y,-z
4 -1/2+x,-1/2-y,-1/2+z
_cell_length_a 16.859(4)
_cell_length_b 6.1624(15)
_cell_length_c 25.164(4)
_cell_angle_alpha 90
_cell_angle_beta 98.019(19)
_cell_angle_gamma 90
_cell_formula_units_Z 4
loop_
_atom_type_symbol
_atom_type_radius_bond
C 0.68
H 0.23
N 0.68
O 0.68
loop_
_atom_site_label
_atom_site_type_symbol
_atom_site_fract_x
_atom_site_fract_y
_atom_site_fract_z
C1 C 0.8252(2) 0.2520(7) 0.96917(19)
C2 C 0.8779(3) 0.2409(7) 0.9325(2)
H1 H 0.866(3) 0.246(7) 0.8947(19)
C3 C 0.9612(2) 0.2418(7) 0.95104(19)
C4 C 0.9907(3) 0.2534(7) 1.0042(2)
C5 C 0.9361(3) 0.2670(7) 1.04142(19)
C6 C 0.8550(3) 0.2668(8) 1.0225(2)
H2 H 0.829(3) 0.271(8) 1.0443(18)
C7 C 0.7336(3) 0.2653(8) 0.9541(2)
H3 H 0.728(3) 0.386(10) 0.971(2)
C8 C 0.6899(3) 0.1213(8) 0.9893(2)
C9 C 0.7195(3) -0.1005(8) 1.0012(2)
O1 O 0.6888(2) -0.2219(6) 1.03855(15)
C10 C 0.6269(3) -0.1445(9) 1.0636(2)
C11 C 0.5899(3) 0.0552(9) 1.0500(2)
C12 C 0.6238(3) 0.1840(8) 1.0110(2)
C13 C 0.6017(3) -0.2748(10) 1.1036(2)
H4 H 0.62620 -0.40750 1.11270
C14 C 0.5410(4) -0.2035(13) 1.1285(3)
H5 H 0.52400 -0.28800 1.15540
C15 C 0.5033(4) -0.0069(13) 1.1151(3)
H6 H 0.46120 0.03850 1.13270
C16 C 0.5274(3) 0.1172(11) 1.0768(2)
H7 H 0.50160 0.24820 1.06800
C17 C 0.7012(3) 0.2544(8) 0.8959(2)
C18 C 0.6463(3) 0.4390(9) 0.8768(2)
O2 O 0.6209(2) 0.4527(6) 0.82497(16)
C19 C 0.6365(3) 0.2923(10) 0.7892(2)
C20 C 0.6789(3) 0.1084(9) 0.8050(2)
C21 C 0.7120(3) 0.0952(9) 0.8618(2)
C22 C 0.6050(3) 0.3340(13) 0.7358(3)
H8 H 0.572(4) 0.482(11) 0.725(2)
C23 C 0.6179(4) 0.1738(17) 0.6981(3)
H9 H 0.602(4) 0.158(10) 0.665(3)
C24 C 0.6586(3) -0.0177(12) 0.7156(2)
H10 H 0.66550 -0.12670 0.69110
C25 C 0.6877(3) -0.0437(12) 0.7677(2)
H11 H 0.71490 -0.17110 0.77850
N1 N 1.0135(2) 0.2279(6) 0.91039(17)
O3 O 0.9858(2) 0.2145(6) 0.86291(14)
O4 O 1.08743(17) 0.2275(5) 0.92560(14)
O5 O 1.06879(17) 0.2545(5) 1.02676(13)
H12 H 1.09750 0.24930 1.00310
O6 O 0.96820(19) 0.2796(5) 1.09375(13)
C26 C 0.9149(4) 0.2791(12) 1.1326(2)
H13 H 0.881(4) 0.417(11) 1.130(2)
H14 H 0.942(3) 0.293(8) 1.165(2)
H15 H 0.884(3) 0.143(10) 1.130(2)
O7 O 0.7689(2) -0.1899(6) 0.97850(15)
O8 O 0.5861(2) 0.3711(6) 0.99907(17)
H16 H 0.60890 0.43820 0.97750
O9 O 0.6214(2) 0.5649(6) 0.90690(16)
O10 O 0.7530(2) -0.0871(6) 0.87529(16)
H17 H 0.764(2) -0.130(6) 0.9154(17)
#END
