
#######################################################################
#
#                 Cambridge Crystallographic Data Centre
#                                CCDC
#
#######################################################################
#
# If this CIF has been generated from an entry in the Cambridge
# Structural Database, then it will include bibliographic, chemical,
# crystal, experimental, refinement or atomic coordinate data resulting
# from the CCDC's data processing and validation procedures.
#
#######################################################################

data_CSD_CIF_RICXIM
_audit_creation_date 2013-07-16
_audit_creation_method CSD-ConQuest-V1
_database_code_CSD RICXIM
_database_code_depnum_ccdc_archive 'CCDC 933064'
_chemical_formula_sum 'C11 H10 N4 O8'
_chemical_formula_moiety
;
C11 H10 N4 O8
;
_journal_coden_Cambridge 1350
_journal_volume 15
_journal_year 2013
_journal_page_first 6448
_journal_name_full 'CrystEngComm '
loop_
_publ_author_name
"A.Bialonska"
"Z.Ciunik"
_chemical_name_systematic
;
N^2^-(3,5-Dinitrobenzoyl)-D-asparagine
;
_cell_volume   1335.008
_exptl_crystal_colour 'colorless'
_exptl_crystal_density_diffrn 1.623
_exptl_crystal_description 'plate'
_diffrn_ambient_temperature 100
#These two values have been output from a single CSD field.
_refine_ls_R_factor_gt 0.0423
_refine_ls_wR_factor_gt 0.0423
loop_
_citation_database_id_CSD
_citation_special_details
RICXEI "is a stereoisomer of this entry"
RICXAE "is a racemate of this entry"
_symmetry_cell_setting orthorhombic
_symmetry_space_group_name_H-M 'P 21 21 21'
_symmetry_Int_Tables_number 19
loop_
_symmetry_equiv_pos_site_id
_symmetry_equiv_pos_as_xyz
1 x,y,z
2 1/2-x,-y,1/2+z
3 -x,1/2+y,1/2-z
4 1/2+x,1/2-y,-z
_cell_length_a 6.371(2)
_cell_length_b 9.260(2)
_cell_length_c 22.629(4)
_cell_angle_alpha 90
_cell_angle_beta 90
_cell_angle_gamma 90
_cell_formula_units_Z 4
loop_
_atom_type_symbol
_atom_type_radius_bond
C 0.68
H 0.23
N 0.68
O 0.68
loop_
_atom_site_label
_atom_site_type_symbol
_atom_site_fract_x
_atom_site_fract_y
_atom_site_fract_z
O1 O 0.3738(3) 1.1482(2) 0.25826(11)
H1 H 0.28310 1.20660 0.27060
O2 O 0.5845(3) 1.2651(2) 0.32139(10)
O3 O 0.9188(3) 0.8239(2) 0.20715(10)
O4 O 0.8779(3) 0.8207(2) 0.34447(10)
O5 O 1.3137(4) 1.3785(3) 0.43783(12)
O6 O 1.6265(5) 1.3043(3) 0.46156(15)
O7 O 1.7480(4) 0.7895(3) 0.47580(11)
O8 O 1.5651(4) 0.6493(2) 0.41866(12)
N1 N 1.0929(4) 0.9989(3) 0.15938(12)
H2 H 1.18860 0.93770 0.14680
H3 H 1.10150 1.09080 0.14980
N2 N 0.8802(4) 1.0542(3) 0.31519(12)
H4 H 0.94230 1.13840 0.31930
N3 N 1.4456(5) 1.2833(3) 0.44479(13)
N4 N 1.6006(4) 0.7650(3) 0.44218(13)
C1 C 0.5492(5) 1.1647(3) 0.28871(15)
C2 C 0.7048(4) 1.0446(3) 0.27522(15)
H5 H 0.63430 0.94890 0.28020
C3 C 0.7742(5) 1.0626(3) 0.21067(15)
H6 H 0.65020 1.05300 0.18460
H7 H 0.83230 1.16080 0.20520
C4 C 0.9369(5) 0.9531(3) 0.19255(14)
C5 C 0.9545(5) 0.9423(3) 0.34660(15)
C6 C 1.1458(5) 0.9738(3) 0.38320(15)
C7 C 1.1998(5) 1.1132(3) 0.40059(15)
H8 H 1.10950 1.19240 0.39230
C8 C 1.3859(5) 1.1341(3) 0.42993(15)
C9 C 1.5204(5) 1.0229(4) 0.44466(15)
H9 H 1.64840 1.03980 0.46510
C10 C 1.4594(5) 0.8874(3) 0.42830(15)
C11 C 1.2741(5) 0.8596(3) 0.39862(15)
H10 H 1.23560 0.76330 0.38900
#END
