
#######################################################################
#
#                 Cambridge Crystallographic Data Centre
#                                CCDC
#
#######################################################################
#
# If this CIF has been generated from an entry in the Cambridge
# Structural Database, then it will include bibliographic, chemical,
# crystal, experimental, refinement or atomic coordinate data resulting
# from the CCDC's data processing and validation procedures.
#
#######################################################################

data_CSD_CIF_RIDBOW
_audit_creation_date 2007-08-13
_audit_creation_method CSD-ConQuest-V1
_database_code_CSD RIDBOW
_database_code_depnum_ccdc_archive 'CCDC 606772'
_chemical_formula_sum 'C33 H33 N1 O6'
_chemical_formula_moiety
;
C33 H33 N1 O6
;
_journal_coden_Cambridge 179
_journal_volume 46
_journal_year 2007
_journal_page_first 3252
_journal_name_full 'Angew.Chem.,Int.Ed. '
loop_
_publ_author_name
"K.Suzuki"
"H.Takikawa"
"Y.Hachisu"
"J.W.Bode"
_chemical_name_systematic
;
5a-Ethenyl-10-benzyloxy-4,5,5a,6-tetrahydro-3H-anthra[9,1-cd]isoxazol-6-yl 
camphanate
;
_chemical_melting_point 485.15
_cell_volume   1402.880
_exptl_crystal_colour 'colorless'
_exptl_crystal_density_diffrn 1.277
_exptl_special_details
;
Melting point range 485.15-488.15K

;
_exptl_crystal_preparation 'ethyl acetate/hexane/dichloromethane'
_diffrn_ambient_temperature 223.2
#These two values have been output from a single CSD field.
_refine_ls_R_factor_gt 0.1216
_refine_ls_wR_factor_gt 0.1216
_symmetry_cell_setting monoclinic
_symmetry_space_group_name_H-M 'P 21'
_symmetry_Int_Tables_number 4
loop_
_symmetry_equiv_pos_site_id
_symmetry_equiv_pos_as_xyz
1 x,y,z
2 -x,1/2+y,-z
_cell_length_a 12.84(3)
_cell_length_b 6.72(2)
_cell_length_c 16.28(4)
_cell_angle_alpha 90
_cell_angle_beta 92.93(9)
_cell_angle_gamma 90
_cell_formula_units_Z 2
loop_
_atom_type_symbol
_atom_type_radius_bond
C 0.68
H 0.23
N 0.68
O 0.68
loop_
_atom_site_label
_atom_site_type_symbol
_atom_site_fract_x
_atom_site_fract_y
_atom_site_fract_z
O1 O 1.0747(5) -0.122(3) 0.2744(4)
O2 O 1.0538(5) 0.426(3) 0.3985(4)
O3 O 0.6613(4) 0.199(3) 0.1994(3)
O4 O 0.5833(5) -0.091(3) 0.2231(5)
O5 O 0.4339(5) 0.021(3) 0.1030(4)
O6 O 0.2675(6) -0.006(4) 0.0514(5)
N1 N 1.0585(6) 0.056(3) 0.3253(4)
C1 C 0.9834(7) -0.305(3) 0.1580(5)
C2 C 0.9966(7) -0.131(3) 0.2163(5)
C3 C 0.9296(6) 0.017(3) 0.2233(4)
C4 C 0.9711(6) 0.130(3) 0.2923(5)
C5 C 0.9106(6) 0.303(3) 0.3193(5)
C6 C 0.9524(7) 0.455(3) 0.3702(5)
C7 C 0.8903(7) 0.617(3) 0.3877(5)
C8 C 0.7891(7) 0.629(3) 0.3539(5)
C9 C 0.7445(7) 0.481(4) 0.3046(5)
C10 C 0.8070(6) 0.317(3) 0.2871(5)
C11 C 0.7595(6) 0.134(3) 0.2394(5)
C12 C 0.8327(6) 0.054(3) 0.1746(5)
C13 C 0.7979(6) -0.155(3) 0.1390(5)
C14 C 0.8870(7) -0.258(3) 0.0984(5)
C15 C 1.0964(7) 0.578(4) 0.4512(5)
C16 C 1.2091(7) 0.516(3) 0.4729(5)
C17 C 1.2708(7) 0.653(4) 0.5204(6)
C18 C 1.3715(8) 0.597(4) 0.5474(7)
C19 C 1.4105(7) 0.415(4) 0.5286(6)
C20 C 1.3507(7) 0.281(4) 0.4811(6)
C21 C 1.2489(7) 0.331(4) 0.4542(5)
C22 C 0.8411(6) 0.196(3) 0.1026(5)
C23 C 0.9293(7) 0.238(4) 0.0668(6)
C24 C 0.5809(7) 0.076(3) 0.1958(6)
C25 C 0.4881(7) 0.175(4) 0.1536(5)
C26 C 0.5019(7) 0.345(4) 0.0949(6)
C27 C 0.3878(8) 0.429(4) 0.0802(7)
C28 C 0.3245(8) 0.286(3) 0.1329(7)
C29 C 0.3305(8) 0.079(4) 0.0918(6)
C30 C 0.4013(7) 0.237(4) 0.2109(6)
C31 C 0.3625(8) 0.080(4) 0.2672(6)
C32 C 0.4310(8) 0.429(4) 0.2619(6)
C33 C 0.2135(9) 0.354(4) 0.1478(9)
H1 H 1.05040 -0.33070 0.12650
H2 H 0.97510 -0.43940 0.18930
H3 H 0.91730 0.71770 0.42360
H4 H 0.74410 0.73730 0.36860
H5 H 0.67020 0.48150 0.27950
H6 H 0.74330 0.01670 0.27760
H7 H 0.77540 -0.25150 0.18560
H8 H 0.73740 -0.15030 0.09910
H9 H 0.91110 -0.17790 0.05370
H10 H 0.86250 -0.39390 0.07280
H11 H 1.09590 0.70000 0.42080
H12 H 1.05650 0.58370 0.50040
H13 H 1.23900 0.76570 0.54140
H14 H 1.41810 0.68480 0.57840
H15 H 1.48440 0.37020 0.54690
H16 H 1.37850 0.12940 0.47000
H17 H 1.20490 0.22790 0.41800
H18 H 0.55330 0.43580 0.11710
H19 H 0.52960 0.28500 0.04100
H20 H 0.38480 0.56080 0.10250
H21 H 0.36370 0.42040 0.02280
H22 H 0.29730 0.12030 0.29210
H23 H 0.34340 -0.05290 0.23540
H24 H 0.41410 0.03710 0.31160
H25 H 0.48470 0.38910 0.30790
H26 H 0.45950 0.52600 0.22770
H27 H 0.36790 0.47260 0.28850
H28 H 0.21700 0.47720 0.17810
H29 H 0.17440 0.36610 0.09490
H30 H 0.17870 0.24840 0.18160
H31 H 0.77610 0.25320 0.07980
H32 H 0.99670 0.16380 0.08560
H33 H 0.93070 0.32100 0.01830
#END
