
#######################################################################
#
#                 Cambridge Crystallographic Data Centre
#                                CCDC
#
#######################################################################
#
# If this CIF has been generated from an entry in the Cambridge
# Structural Database, then it will include bibliographic, chemical,
# crystal, experimental, refinement or atomic coordinate data resulting
# from the CCDC's data processing and validation procedures.
#
#######################################################################

data_CSD_CIF_RIDSIH
_audit_creation_date 2007-08-12
_audit_creation_method CSD-ConQuest-V1
_database_code_CSD RIDSIH
_database_code_depnum_ccdc_archive 'CCDC 291467'
_chemical_formula_sum 'C20 H20 N2 O1'
_chemical_formula_moiety
;
C20 H20 N2 O1
;
_journal_coden_Cambridge 16
_journal_volume 62
_journal_year 2006
_journal_page_first 7370
_journal_name_full 'Tetrahedron '
loop_
_publ_author_name
"P.Quadrelli"
"A.Piccanello"
"N.V.Martinez"
"B.Bovio"
"M.Mella"
"P.Caramella"
_chemical_name_systematic
;
9-Benzyl-5-phenyl-3-oxa-4,9-diazatricyclo(5.2.1.0^2,6^)dec-4-ene
;
_chemical_melting_point 392.15
_cell_volume   1623.080
_exptl_crystal_colour 'colorless'
_exptl_crystal_density_diffrn 1.246
_exptl_special_details
;
Melting point range 392.15-394.15K

;
_exptl_crystal_description 'Needles'
_exptl_crystal_preparation 'ethanol'
_diffrn_ambient_temperature 293
#These two values have been output from a single CSD field.
_refine_ls_R_factor_gt 0.064
_refine_ls_wR_factor_gt 0.064
_symmetry_cell_setting monoclinic
_symmetry_space_group_name_H-M 'P 21/n'
_symmetry_Int_Tables_number 14
loop_
_symmetry_equiv_pos_site_id
_symmetry_equiv_pos_as_xyz
1 x,y,z
2 1/2-x,1/2+y,1/2-z
3 -x,-y,-z
4 -1/2+x,-1/2-y,-1/2+z
_cell_length_a 12.622(2)
_cell_length_b 9.687(1)
_cell_length_c 13.348(1)
_cell_angle_alpha 90
_cell_angle_beta 96.01(1)
_cell_angle_gamma 90
_cell_formula_units_Z 4
loop_
_atom_type_symbol
_atom_type_radius_bond
C 0.68
H 0.23
N 0.68
O 0.68
loop_
_atom_site_label
_atom_site_type_symbol
_atom_site_fract_x
_atom_site_fract_y
_atom_site_fract_z
C1 C 0.2403(2) -0.0033(2) 0.5799(2)
H1 H 0.218(1) 0.037(2) 0.640(1)
C2 C 0.1837(2) 0.0507(2) 0.4815(2)
H2 H 0.105(2) 0.023(2) 0.467(1)
O1 O 0.1862(1) 0.2005(2) 0.4752(1)
N1 N 0.2527(2) 0.2410(2) 0.4009(1)
C3 C 0.2897(2) 0.1338(2) 0.3609(2)
C4 C 0.2557(2) -0.0001(2) 0.4034(2)
H3 H 0.220(2) -0.056(2) 0.350(1)
C5 C 0.3449(2) -0.0775(2) 0.4683(2)
H4 H 0.412(2) -0.092(2) 0.430(2)
C6 C 0.2955(3) -0.2078(3) 0.5073(3)
H5 H 0.349(2) -0.271(3) 0.541(2)
H6 H 0.259(2) -0.261(3) 0.454(2)
N2 N 0.2190(2) -0.1536(2) 0.5759(2)
C7 C 0.3577(2) 0.0100(3) 0.5635(2)
H7 H 0.378(2) 0.108(2) 0.550(1)
H8 H 0.406(2) -0.031(2) 0.614(2)
C8 C 0.3609(2) 0.1487(2) 0.2818(2)
C9 C 0.4212(2) 0.2674(3) 0.2747(2)
H9 H 0.419(2) 0.343(2) 0.329(2)
C10 C 0.4850(2) 0.2815(4) 0.1976(3)
H10 H 0.525(2) 0.362(3) 0.193(2)
C11 C 0.4904(2) 0.1801(4) 0.1271(3)
H11 H 0.537(2) 0.193(3) 0.072(2)
C12 C 0.4323(3) 0.0618(4) 0.1346(2)
H12 H 0.436(2) -0.004(3) 0.086(2)
C13 C 0.3680(2) 0.0451(3) 0.2111(2)
H13 H 0.324(2) -0.040(3) 0.215(2)
C14 C 0.2290(4) -0.2243(4) 0.6705(3)
H14 H 0.222(2) -0.326(3) 0.660(2)
H15 H 0.303(2) -0.203(3) 0.694(2)
C15 C 0.1491(2) -0.1805(2) 0.7402(2)
C16 C 0.0405(3) -0.1990(3) 0.7176(2)
H16 H 0.014(2) -0.233(3) 0.649(2)
C17 C -0.0297(3) -0.1653(3) 0.7862(3)
H17 H -0.102(2) -0.179(3) 0.771(2)
C18 C 0.0078(3) -0.1125(3) 0.8772(2)
H18 H -0.040(2) -0.084(3) 0.929(2)
C19 C 0.1144(3) -0.0917(3) 0.8998(2)
H19 H 0.145(2) -0.056(3) 0.966(2)
C20 C 0.1831(2) -0.1250(3) 0.8312(2)
H20 H 0.257(2) -0.106(3) 0.848(2)
#END
