
#######################################################################
#
#                 Cambridge Crystallographic Data Centre
#                                CCDC
#
#######################################################################
#
# If this CIF has been generated from an entry in the Cambridge
# Structural Database, then it will include bibliographic, chemical,
# crystal, experimental, refinement or atomic coordinate data resulting
# from the CCDC's data processing and validation procedures.
#
#######################################################################

data_CSD_CIF_RIFWUY
_audit_creation_date 1997-10-21
_audit_creation_method CSD-ConQuest-V1
_database_code_CSD RIFWUY
_database_code_depnum_ccdc_fiz 'CSD 400541'
_chemical_formula_sum 'C15 H14 N4 O2'
_chemical_formula_moiety
;
C15 H14 N4 O2
;
_journal_coden_Cambridge 493
_journal_volume 29
_journal_year 1994
_journal_page_first 175
_journal_name_full 'Eur.J.Med.Chem. '
loop_
_publ_author_name
"E.Klauschenz"
"V.Hagen"
"B.Wiesner"
"A.Hagen"
"G.Reck"
"E.G.Krause"
_chemical_name_systematic
;
5-Cyano-6-morpholino-(3,4'-bipyridine)-1'-oxide
;
_chemical_name_common
;
AWD 122-239
;
_chemical_melting_point 506.15
_cell_volume   2691.331
_exptl_crystal_colour 'colorless'
_exptl_crystal_density_diffrn 1.393
_exptl_special_details
;
Melting point range 506.15-508.15K
potent positive inotropic activity

;
_diffrn_ambient_temperature ?
_diffrn_special_details
;
The study was carried out at room temperature,in the range 283-303K

;
#These two values have been output from a single CSD field.
_refine_ls_R_factor_gt 0.05
_refine_ls_wR_factor_gt 0.05
_symmetry_cell_setting monoclinic
_symmetry_space_group_name_H-M 'P 21/c'
_symmetry_Int_Tables_number 14
loop_
_symmetry_equiv_pos_site_id
_symmetry_equiv_pos_as_xyz
1 x,y,z
2 -x,1/2+y,1/2-z
3 -x,-y,-z
4 x,-1/2-y,-1/2+z
_cell_length_a 13.819(6)
_cell_length_b 26.060(6)
_cell_length_c 7.5910(6)
_cell_angle_alpha 90
_cell_angle_beta 100.10(5)
_cell_angle_gamma 90
_cell_formula_units_Z 8
loop_
_atom_type_symbol
_atom_type_radius_bond
C 0.68
H 0.23
N 0.68
O 0.68
loop_
_atom_site_label
_atom_site_type_symbol
_atom_site_fract_x
_atom_site_fract_y
_atom_site_fract_z
O1 O -0.6218(2) 0.0588(1) 0.8995(4)
O2 O 0.2563(2) 0.1867(1) 0.9744(4)
N1 N -0.0686(2) 0.1041(2) 0.8967(4)
N2 N -0.5317(2) 0.0741(1) 0.9019(4)
N3 N -0.0652(3) 0.2812(1) 1.0591(6)
N4 N 0.0603(2) 0.1593(1) 0.9804(4)
C1 C -0.0376(2) 0.1498(1) 0.9630(5)
C2 C -0.1064(3) 0.1864(1) 1.0025(5)
C3 C -0.2038(3) 0.1719(1) 0.9902(5)
C4 C -0.2346(2) 0.1236(1) 0.9314(4)
C5 C -0.1631(3) 0.0923(1) 0.8803(5)
C6 C -0.3376(2) 0.1066(1) 0.9182(4)
C7 C -0.4109(3) 0.1391(1) 0.9575(5)
C8 C -0.5056(3) 0.1224(2) 0.9484(5)
C9 C -0.4634(3) 0.0416(2) 0.8571(5)
C10 C -0.3682(3) 0.0569(2) 0.8665(5)
C11 C -0.0820(3) 0.2385(2) 1.0375(6)
C12 C 0.1156(3) 0.1905(2) 1.1227(5)
C13 C 0.1926(3) 0.2194(2) 1.0501(6)
C14 C 0.2020(3) 0.1552(2) 0.8406(6)
C15 C 0.1246(3) 0.1242(2) 0.9052(6)
O3 O 0.1375(2) 0.4764(1) 0.7527(5)
O4 O -0.7147(2) 0.3568(2) 0.9389(5)
N5 N -0.4049(2) 0.4374(1) 0.8572(4)
N6 N 0.0515(2) 0.4643(1) 0.7858(4)
N7 N -0.3524(3) 0.2696(1) 1.1249(5)
N8 N -0.5172(2) 0.3781(2) 0.9187(5)
C16 C -0.4216(3) 0.3895(2) 0.9111(5)
C17 C -0.3422(3) 0.3560(1) 0.9644(5)
C18 C -0.2485(3) 0.3713(1) 0.9450(5)
C19 C -0.2325(2) 0.4195(1) 0.8792(5)
C20 C -0.3140(3) 0.4513(1) 0.8433(5)
C21 C -0.1338(2) 0.4360(1) 0.8511(5)
C22 C -0.0507(3) 0.4069(1) 0.9108(5)
C23 C 0.0395(3) 0.4213(2) 0.8784(6)
C24 C -0.0274(3) 0.4937(2) 0.7286(6)
C25 C -0.1189(3) 0.4805(2) 0.7586(5)
C26 C -0.3501(3) 0.3075(2) 1.0507(5)
C27 C -0.5579(3) 0.3268(2) 0.8821(7)
C28 C -0.6408(4) 0.3191(2) 0.9849(7)
C29 C -0.6761(3) 0.4065(3) 0.9721(7)
C30 C -0.5934(3) 0.4180(2) 0.8750(6)
H1 H -0.25640 0.19940 1.02970
H2 H -0.18670 0.05530 0.81930
H3 H -0.39160 0.17890 0.99750
H4 H -0.56150 0.14900 0.98200
H5 H -0.48520 0.00180 0.81570
H6 H -0.31440 0.02990 0.83060
H7 H 0.15120 0.16600 1.23340
H8 H 0.06710 0.21680 1.17790
H9 H 0.23650 0.24250 1.15600
H10 H 0.15670 0.24610 0.94790
H11 H 0.25140 0.13030 0.78470
H12 H 0.16510 0.18030 0.73230
H13 H 0.15990 0.09740 1.00820
H14 H 0.08290 0.10180 0.79740
H15 H -0.18650 0.34500 0.98110
H16 H -0.30330 0.49050 0.79890
H17 H -0.05790 0.37190 0.98880
H18 H 0.10440 0.39710 0.92920
H19 H -0.01750 0.52880 0.65100
H20 H -0.18260 0.50560 0.71020
H21 H -0.49960 0.29780 0.92530
H22 H -0.58340 0.32110 0.74020
H23 H -0.61350 0.32030 1.12870
H24 H -0.67550 0.28120 0.95510
H25 H -0.73910 0.43360 0.93060
H26 H -0.65370 0.41260 1.11720
H27 H -0.56090 0.45640 0.91580
H28 H -0.61960 0.42030 0.73120
#END
