
#######################################################################
#
#                 Cambridge Crystallographic Data Centre
#                                CCDC
#
#######################################################################
#
# If this CIF has been generated from an entry in the Cambridge
# Structural Database, then it will include bibliographic, chemical,
# crystal, experimental, refinement or atomic coordinate data resulting
# from the CCDC's data processing and validation procedures.
#
#######################################################################

data_CSD_CIF_RIFXEJ
_audit_creation_date 1997-10-21
_audit_creation_method CSD-ConQuest-V1
_database_code_CSD RIFXEJ
_database_code_depnum_ccdc_fiz 'CSD 400823'
_chemical_formula_sum 'C15 H17 N1 O5'
_chemical_formula_moiety
;
C15 H17 N1 O5
;
_journal_coden_Cambridge 180
_journal_volume 337
_journal_year 1995
_journal_page_first 23
_journal_name_full 'J.Prakt.Chem.-Chem.-Zeitung '
loop_
_publ_author_name
"J.Deutsch"
"H.-J.Niclas"
"M.Ramm"
_chemical_name_systematic
;
Methyl (RS)-1-((SR)-2-nitro-1-phenylethyl)-2-oxocyclopentanecarboxylate
;
_chemical_melting_point 403.15
_cell_volume   1463.572
_exptl_crystal_colour 'colorless'
_exptl_crystal_density_diffrn 1.322
_exptl_special_details
;
Melting point range 403.15-406.15K

;
_diffrn_ambient_temperature ?
_diffrn_special_details
;
The study was carried out at room temperature,in the range 283-303K

;
#These two values have been output from a single CSD field.
_refine_ls_R_factor_gt 0.05
_refine_ls_wR_factor_gt 0.05
_symmetry_cell_setting monoclinic
_symmetry_space_group_name_H-M 'P 21/c'
_symmetry_Int_Tables_number 14
loop_
_symmetry_equiv_pos_site_id
_symmetry_equiv_pos_as_xyz
1 x,y,z
2 -x,1/2+y,1/2-z
3 -x,-y,-z
4 x,-1/2-y,-1/2+z
_cell_length_a 9.614(3)
_cell_length_b 13.350(2)
_cell_length_c 12.083(2)
_cell_angle_alpha 90
_cell_angle_beta 109.31(2)
_cell_angle_gamma 90
_cell_formula_units_Z 4
loop_
_atom_type_symbol
_atom_type_radius_bond
C 0.68
H 0.23
N 0.68
O 0.68
loop_
_atom_site_label
_atom_site_type_symbol
_atom_site_fract_x
_atom_site_fract_y
_atom_site_fract_z
O1 O 0.2557(2) 0.00152(17) 0.54837(18)
O2 O 0.30819(18) 0.05700(14) 0.72250(15)
O3 O -0.11651(16) 0.11981(13) 0.74076(13)
O4 O -0.29650(16) 0.20517(13) 0.61740(16)
O5 O -0.00607(17) 0.35963(12) 0.79659(12)
N1 N 0.22772(19) 0.05105(14) 0.62338(17)
C1 C 0.2122(2) 0.27427(16) 0.63914(17)
C2 C 0.2355(2) 0.28698(17) 0.53216(18)
C3 C 0.3463(2) 0.34880(19) 0.52132(19)
C4 C 0.4361(2) 0.39780(18) 0.6162(2)
C5 C 0.4156(3) 0.38539(19) 0.7230(2)
C6 C 0.3052(2) 0.32460(18) 0.73447(19)
C7 C 0.0954(2) 0.20468(15) 0.65619(16)
C8 C 0.0853(2) 0.10539(16) 0.59053(17)
C9 C -0.0595(2) 0.25264(15) 0.62386(16)
C10 C -0.0517(2) 0.35328(17) 0.69198(17)
C11 C -0.1098(3) 0.43680(18) 0.6076(2)
C12 C -0.2019(3) 0.38606(19) 0.49732(19)
C13 C -0.1276(2) 0.28426(17) 0.49617(17)
C14 C -0.1576(2) 0.18347(17) 0.66855(18)
C15 C -0.4011(3) 0.1429(2) 0.6518(3)
H1 H 0.1758(19) 0.2517(15) 0.4669(15)
H2 H 0.359(2) 0.3542(16) 0.4471(17)
H3 H 0.511(2) 0.4380(17) 0.6090(19)
H4 H 0.478(2) 0.4166(17) 0.7878(18)
H5 H 0.291(2) 0.3131(16) 0.8109(16)
H6 H 0.1233(16) 0.1878(13) 0.7381(13)
H7 H 0.0594(19) 0.1120(15) 0.5085(14)
H8 H 0.018(2) 0.0596(15) 0.6109(17)
H9 H -0.155(3) 0.483(2) 0.636(2)
H10 H -0.021(3) 0.4636(18) 0.594(2)
H11 H -0.209(2) 0.4248(17) 0.4282(18)
H12 H -0.302(2) 0.3730(18) 0.5037(19)
H13 H -0.190(2) 0.2346(15) 0.4473(16)
H14 H -0.052(2) 0.2914(15) 0.4625(17)
H15 H -0.372(3) 0.074(3) 0.644(3)
H16 H -0.381(4) 0.146(3) 0.731(3)
H17 H -0.479(3) 0.163(2) 0.607(3)
#END
