
#######################################################################
#
#                 Cambridge Crystallographic Data Centre
#                                CCDC
#
#######################################################################
#
# If this CIF has been generated from an entry in the Cambridge
# Structural Database, then it will include bibliographic, chemical,
# crystal, experimental, refinement or atomic coordinate data resulting
# from the CCDC's data processing and validation procedures.
#
#######################################################################

data_CSD_CIF_RIGHUK08
_audit_creation_date 2006-01-09
_audit_creation_method CSD-ConQuest-V1
_database_code_CSD RIGHUK08
_database_code_depnum_ccdc_archive 'CCDC 285678'
_chemical_formula_sum 'C13 H11 N3 O4'
_chemical_formula_moiety
;
C13 H11 N3 O4
;
_journal_coden_Cambridge 1147
_journal_volume 5
_journal_year 2005
_journal_page_first 1699
_journal_name_full 'Cryst.Growth Des. '
loop_
_publ_author_name
"P.Naumov"
"K.Sakurai"
_chemical_name_systematic
;
3-Methyl-2-(2',4'-dinitrobenzyl)pyridine
;
_cell_volume   1302.858
_exptl_crystal_colour 'colorless'
_exptl_special_details
;
photochromic
monoclinic P21/c polymorph B
light-sensitive
reversible phase transition between polymorph A and polymorph B upon 
heating/cooling
;
_exptl_crystal_description 'prism'
_diffrn_ambient_temperature 329
#These two values have been output from a single CSD field.
_refine_ls_R_factor_gt 0.0463
_refine_ls_wR_factor_gt 0.0463
_symmetry_cell_setting monoclinic
_symmetry_space_group_name_H-M 'P 21/c'
_symmetry_Int_Tables_number 14
loop_
_symmetry_equiv_pos_site_id
_symmetry_equiv_pos_as_xyz
1 x,y,z
2 -x,1/2+y,1/2-z
3 -x,-y,-z
4 x,-1/2-y,-1/2+z
_cell_length_a 11.5668(7)
_cell_length_b 15.3271(10)
_cell_length_c 7.6407(5)
_cell_angle_alpha 90
_cell_angle_beta 105.885(2)
_cell_angle_gamma 90
_cell_formula_units_Z 4
loop_
_atom_type_symbol
_atom_type_radius_bond
C 0.68
H 0.23
N 0.68
O 0.68
loop_
_atom_site_label
_atom_site_type_symbol
_atom_site_fract_x
_atom_site_fract_y
_atom_site_fract_z
O1 O 0.60067(11) 1.15220(9) 0.86364(18)
O2 O 1.04432(15) 1.37526(10) 1.1411(2)
N1 N 0.76754(12) 1.03400(8) 0.67251(18)
C1 C 0.99339(14) 1.22976(10) 1.1432(2)
C2 C 0.83649(13) 1.09104(9) 1.03212(18)
N2 N 1.07399(17) 1.30397(13) 1.2070(3)
C3 C 0.88170(14) 1.24551(10) 1.0284(2)
H1 H 0.85830 1.30170 0.98770
C4 C 1.03031(15) 1.14764(11) 1.2030(2)
H2 H 1.10660 1.13810 1.28060
C5 C 0.71787(12) 0.98914(9) 0.7818(2)
C6 C 0.95213(14) 1.07967(10) 1.1456(2)
H3 H 0.97740 1.02360 1.18420
C7 C 0.63839(13) 0.92065(11) 0.7226(2)
N3 N 0.68488(13) 1.19661(11) 0.8557(2)
O3 O 0.67747(13) 1.25830(12) 0.7551(2)
C8 C 0.75556(15) 1.01281(10) 0.9822(2)
H4 H 0.68370 1.02340 1.02100
H5 H 0.79630 0.96300 1.05020
C9 C 0.80544(13) 1.17604(9) 0.97535(19)
O4 O 1.16590(18) 1.29076(12) 1.3244(3)
C10 C 0.61064(16) 0.89992(12) 0.5406(3)
H6 H 0.55700 0.85480 0.49510
C11 C 0.5842(2) 0.87111(15) 0.8521(3)
H7 H 0.53240 0.82600 0.78690
H8 H 0.53850 0.91050 0.90490
H9 H 0.64720 0.84540 0.94680
C12 C 0.73867(19) 1.01102(12) 0.4974(2)
H10 H 0.77330 1.04170 0.41960
C13 C 0.66119(19) 0.94501(13) 0.4268(3)
H11 H 0.64320 0.93110 0.30380
#END
