
#######################################################################
#
#                 Cambridge Crystallographic Data Centre
#                                CCDC
#
#######################################################################
#
# If this CIF has been generated from an entry in the Cambridge
# Structural Database, then it will include bibliographic, chemical,
# crystal, experimental, refinement or atomic coordinate data resulting
# from the CCDC's data processing and validation procedures.
#
#######################################################################

data_CSD_CIF_RIGHUK06
_audit_creation_date 2006-01-09
_audit_creation_method CSD-ConQuest-V1
_database_code_CSD RIGHUK06
_database_code_depnum_ccdc_archive 'CCDC 285676'
_chemical_formula_sum 'C13 H11 N3 O4'
_chemical_formula_moiety
;
C13 H11 N3 O4
;
_journal_coden_Cambridge 1147
_journal_volume 5
_journal_year 2005
_journal_page_first 1699
_journal_name_full 'Cryst.Growth Des. '
loop_
_publ_author_name
"P.Naumov"
"K.Sakurai"
_chemical_name_systematic
;
3-Methyl-2-(2',4'-dinitrobenzyl)pyridine
;
_cell_volume   1291.391
_exptl_crystal_colour 'colorless'
_exptl_special_details
;
photochromic
monoclinic P21/c polymorph A
light-sensitive
reversible phase transition between polymorph A and polymorph B upon 
heating/cooling
;
_exptl_crystal_description 'prism'
_exptl_crystal_preparation 'ethanol'
_diffrn_ambient_temperature 320
#These two values have been output from a single CSD field.
_refine_ls_R_factor_gt 0.0459
_refine_ls_wR_factor_gt 0.0459
_symmetry_cell_setting monoclinic
_symmetry_space_group_name_H-M 'P 21/c'
_symmetry_Int_Tables_number 14
loop_
_symmetry_equiv_pos_site_id
_symmetry_equiv_pos_as_xyz
1 x,y,z
2 -x,1/2+y,1/2-z
3 -x,-y,-z
4 x,-1/2-y,-1/2+z
_cell_length_a 11.3860(7)
_cell_length_b 15.422(1)
_cell_length_c 7.6580(5)
_cell_angle_alpha 90
_cell_angle_beta 106.188(2)
_cell_angle_gamma 90
_cell_formula_units_Z 4
loop_
_atom_type_symbol
_atom_type_radius_bond
C 0.68
H 0.23
N 0.68
O 0.68
loop_
_atom_site_label
_atom_site_type_symbol
_atom_site_fract_x
_atom_site_fract_y
_atom_site_fract_z
N1 N 0.23996(13) 0.04745(10) -0.28994(19)
N2 N 0.15932(15) 0.14410(11) -0.0248(2)
N3 N 0.53181(18) 0.22831(14) 0.4268(3)
C1 C 0.43792(16) 0.01618(12) 0.2039(2)
H1 H 0.47030 -0.03930 0.20520
O1 O 0.07428(12) 0.09448(10) -0.03755(19)
C2 C 0.21266(14) -0.02801(11) -0.2265(2)
C3 C 0.34812(16) 0.18287(11) 0.1961(2)
H2 H 0.31870 0.23930 0.19110
C4 C 0.50659(16) 0.07853(13) 0.3157(2)
H3 H 0.58290 0.06520 0.39380
C5 C 0.28052(14) 0.11793(11) 0.0896(2)
C6 C 0.15145(14) -0.09522(11) -0.3392(2)
C7 C 0.32210(15) 0.03287(11) 0.0893(2)
C8 C 0.25073(17) -0.04064(11) -0.0225(2)
H4 H 0.29990 -0.09290 0.00500
H5 H 0.17760 -0.05030 0.01640
O2 O 0.15090(14) 0.21517(10) -0.0992(2)
C9 C 0.45977(16) 0.16096(12) 0.3092(2)
O3 O 0.49945(17) 0.30355(12) 0.3980(3)
C10 C 0.14437(17) -0.00151(15) -0.5910(3)
H6 H 0.12140 0.00950 -0.71540
C11 C 0.20489(18) 0.05940(14) -0.4704(3)
H7 H 0.22280 0.11220 -0.51570
C12 C 0.11835(16) -0.07936(14) -0.5243(3)
H8 H 0.07790 -0.12210 -0.60440
C13 C 0.1209(2) -0.17880(15) -0.2616(4)
O4 O 0.61802(18) 0.20555(14) 0.5510(3)
H9 H 0.069(4) -0.175(3) -0.171(6)
H10 H 0.191(4) -0.212(3) -0.193(7)
H11 H 0.084(4) -0.217(3) -0.348(7)
#END
