
#######################################################################
#
#                 Cambridge Crystallographic Data Centre
#                                CCDC
#
#######################################################################
#
# If this CIF has been generated from an entry in the Cambridge
# Structural Database, then it will include bibliographic, chemical,
# crystal, experimental, refinement or atomic coordinate data resulting
# from the CCDC's data processing and validation procedures.
#
#######################################################################

data_CSD_CIF_RIGHUK04
_audit_creation_date 2000-05-08
_audit_creation_method CSD-ConQuest-V1
_database_code_CSD RIGHUK04
_database_code_depnum_ccdc_archive 'CCDC 140700'
_chemical_formula_sum 'C13 H11 N3 O4'
_chemical_formula_moiety
;
C13 H11 N3 O4
;
_journal_coden_Cambridge 4
_journal_volume 121
_journal_year 1999
_journal_page_first 11291
_journal_name_full 'J.Am.Chem.Soc. '
loop_
_publ_author_name
"A.Schmidt"
"S.Kababya"
"M.Appel"
"S.Khatib"
"M.Botoshansky"
"Y.Eichen"
_chemical_name_systematic
;
2-(2,4-Dinitrobenzyl)-3-methylpyridine
;
_cell_volume   2510.178
_exptl_crystal_colour 'colorless'
_exptl_crystal_density_diffrn 1.446
_exptl_special_details
;
monoclinic Cc polymorph C

;
_exptl_crystal_description 'needle'
_exptl_crystal_preparation 'hexane/ether'
_diffrn_ambient_temperature ?
_diffrn_special_details
;
The study was carried out at room temperature,in the range 283-303K

;
#These two values have been output from a single CSD field.
_refine_ls_R_factor_gt 0.0627
_refine_ls_wR_factor_gt 0.0627
_symmetry_cell_setting monoclinic
_symmetry_space_group_name_H-M 'C c'
_symmetry_Int_Tables_number 9
loop_
_symmetry_equiv_pos_site_id
_symmetry_equiv_pos_as_xyz
1 x,y,z
2 x,-y,1/2+z
3 1/2+x,1/2+y,z
4 1/2+x,1/2-y,1/2+z
_cell_length_a 23.756(6)
_cell_length_b 7.175(2)
_cell_length_c 15.078(4)
_cell_angle_alpha 90
_cell_angle_beta 102.39(3)
_cell_angle_gamma 90
_cell_formula_units_Z 8
loop_
_atom_type_symbol
_atom_type_radius_bond
C 0.68
H 0.23
N 0.68
O 0.68
loop_
_atom_site_label
_atom_site_type_symbol
_atom_site_fract_x
_atom_site_fract_y
_atom_site_fract_z
O1 O 0.1701(4) 0.5232(13) 0.3116(6)
O2 O 0.2510(4) 0.4426(17) 0.3985(6)
O3 O 0.4188(3) 0.3364(12) 0.2871(5)
O4 O 0.4133(3) 0.2949(13) 0.1442(6)
N1 N 0.1406(4) 0.1035(13) 0.2003(7)
N2 N 0.2197(4) 0.4643(15) 0.3246(7)
N3 N 0.3901(4) 0.3244(13) 0.2082(8)
C1 C 0.2096(4) 0.3885(16) 0.1596(8)
C2 C 0.2452(5) 0.4094(15) 0.2453(8)
C3 C 0.3038(5) 0.3888(17) 0.2645(9)
C4 C 0.3291(4) 0.3461(16) 0.1916(8)
C5 C 0.2975(5) 0.3279(17) 0.1074(8)
C6 C 0.2380(5) 0.349(2) 0.0889(8)
C7 C 0.1442(5) 0.405(2) 0.1335(11)
C8 C 0.1120(4) 0.2551(17) 0.1746(7)
C9 C 0.0539(4) 0.2872(15) 0.1788(7)
C10 C 0.0272(5) 0.139(2) 0.2100(7)
C11 C 0.0550(5) -0.0280(19) 0.2368(9)
C12 C 0.1129(5) -0.0357(17) 0.2338(10)
C13 C 0.0234(5) 0.4695(19) 0.1522(8)
H1 H 0.04920 0.55450 0.13190
H2 H 0.01130 0.52160 0.20370
H3 H -0.00970 0.44840 0.10410
O5 O -0.1216(3) 0.0708(12) 0.4453(6)
O6 O -0.0571(4) -0.1299(15) 0.5030(6)
O7 O 0.1340(5) -0.082(2) 0.4696(9)
O8 O 0.1717(4) 0.197(2) 0.4810(9)
N4 N -0.1064(4) 0.3340(13) 0.2458(6)
N5 N -0.0728(4) 0.0177(17) 0.4684(7)
N6 N 0.1307(6) 0.092(3) 0.4691(9)
C14 C -0.0372(4) 0.3274(18) 0.4188(7)
C15 C -0.0269(5) 0.1469(19) 0.4499(7)
C16 C 0.0273(5) 0.065(2) 0.4672(8)
C17 C 0.0725(4) 0.171(2) 0.4513(7)
C18 C 0.0644(6) 0.350(2) 0.4203(10)
C19 C 0.0092(6) 0.427(2) 0.4033(9)
C20 C -0.0939(6) 0.423(2) 0.4030(9)
C21 C -0.1341(5) 0.3859(14) 0.3116(8)
C22 C -0.1924(4) 0.4112(15) 0.2969(8)
C23 C -0.2248(5) 0.3877(16) 0.2096(9)
C24 C -0.1981(5) 0.3328(17) 0.1403(9)
C25 C -0.1387(5) 0.3072(17) 0.1637(9)
C26 C -0.2209(6) 0.468(2) 0.3734(10)
H4 H -0.26170 0.47830 0.35080
H5 H -0.20570 0.58560 0.39760
H6 H -0.21330 0.37510 0.42040
H7 H -0.013(4) 0.151(13) 0.213(6)
H8 H 0.037(5) -0.134(17) 0.231(9)
H9 H 0.136(4) -0.144(12) 0.226(6)
H10 H 0.128(4) 0.422(15) 0.061(8)
H11 H 0.129(4) 0.510(14) 0.140(7)
H12 H 0.338(4) 0.384(12) 0.328(6)
H13 H 0.312(3) 0.329(12) 0.049(6)
H14 H 0.221(4) 0.373(16) 0.039(8)
H15 H -0.269(5) 0.405(15) 0.199(7)
H16 H -0.222(4) 0.296(14) 0.080(7)
H17 H -0.123(4) 0.241(14) 0.107(7)
H18 H -0.118(4) 0.392(12) 0.439(6)
H19 H -0.086(4) 0.554(14) 0.431(6)
H20 H 0.039(3) -0.066(11) 0.486(5)
H21 H 0.086(5) 0.426(15) 0.419(9)
H22 H 0.007(4) 0.546(14) 0.383(7)
#END
