
#######################################################################
#
#                 Cambridge Crystallographic Data Centre
#                                CCDC
#
#######################################################################
#
# If this CIF has been generated from an entry in the Cambridge
# Structural Database, then it will include bibliographic, chemical,
# crystal, experimental, refinement or atomic coordinate data resulting
# from the CCDC's data processing and validation procedures.
#
#######################################################################

data_CSD_CIF_RIGHUK07
_audit_creation_date 2006-01-09
_audit_creation_method CSD-ConQuest-V1
_database_code_CSD RIGHUK07
_database_code_depnum_ccdc_archive 'CCDC 285677'
_chemical_formula_sum 'C13 H11 N3 O4'
_chemical_formula_moiety
;
C13 H11 N3 O4
;
_journal_coden_Cambridge 1147
_journal_volume 5
_journal_year 2005
_journal_page_first 1699
_journal_name_full 'Cryst.Growth Des. '
loop_
_publ_author_name
"P.Naumov"
"K.Sakurai"
_chemical_name_systematic
;
3-Methyl-2-(2',4'-dinitrobenzyl)pyridine
;
_cell_volume   1292.965
_exptl_crystal_colour 'colorless'
_exptl_special_details
;
photochromic
monoclinic P21/c polymorph A
light-sensitive
reversible phase transition between polymorph A and polymorph B upon 
heating/cooling
;
_exptl_crystal_description 'prism'
_exptl_crystal_preparation 'ethanol'
_diffrn_ambient_temperature 324.0
#These two values have been output from a single CSD field.
_refine_ls_R_factor_gt 0.0457
_refine_ls_wR_factor_gt 0.0457
_symmetry_cell_setting monoclinic
_symmetry_space_group_name_H-M 'P 21/c'
_symmetry_Int_Tables_number 14
loop_
_symmetry_equiv_pos_site_id
_symmetry_equiv_pos_as_xyz
1 x,y,z
2 -x,1/2+y,1/2-z
3 -x,-y,-z
4 x,-1/2-y,-1/2+z
_cell_length_a 11.3931(5)
_cell_length_b 15.4265(7)
_cell_length_c 7.6611(3)
_cell_angle_alpha 90
_cell_angle_beta 106.208(1)
_cell_angle_gamma 90
_cell_formula_units_Z 4
loop_
_atom_type_symbol
_atom_type_radius_bond
C 0.68
H 0.23
N 0.68
O 0.68
loop_
_atom_site_label
_atom_site_type_symbol
_atom_site_fract_x
_atom_site_fract_y
_atom_site_fract_z
N1 N 0.74007(13) 0.04751(10) -0.2902(2)
N2 N 0.65940(15) 0.14410(11) -0.0248(2)
N3 N 1.03190(18) 0.22829(14) 0.4263(3)
C1 C 0.93772(16) 0.01621(12) 0.2039(2)
H1 H 0.97010 -0.03920 0.20530
O1 O 0.57427(12) 0.09441(11) -0.0377(2)
C2 C 0.71263(14) -0.02804(11) -0.2264(2)
C3 C 0.84844(16) 0.18304(12) 0.1958(2)
H2 H 0.81920 0.23960 0.19020
C4 C 0.78071(14) 0.11793(11) 0.0897(2)
C5 C 0.75083(17) -0.04060(11) -0.0225(2)
H3 H 0.80010 -0.09270 0.00490
H4 H 0.67780 -0.05040 0.01630
C6 C 1.00635(16) 0.07872(13) 0.3153(3)
H5 H 1.08270 0.06540 0.39320
C7 C 0.65158(14) -0.09508(11) -0.3387(2)
C8 C 0.82200(15) 0.03295(11) 0.0896(2)
O2 O 0.65086(15) 0.21498(10) -0.0989(2)
C9 C 0.95976(16) 0.16106(12) 0.3089(2)
O3 O 0.99950(17) 0.30347(12) 0.3977(3)
C10 C 0.61829(16) -0.07950(15) -0.5242(3)
H6 H 0.57780 -0.12230 -0.60410
C11 C 0.70494(18) 0.05935(14) -0.4706(3)
H7 H 0.72280 0.11210 -0.51620
C12 C 0.64444(18) -0.00178(16) -0.5907(3)
H8 H 0.62150 0.00910 -0.71510
C13 C 0.62107(19) -0.17893(14) -0.2622(3)
H9 H 0.57130 -0.16750 -0.18220
H10 H 0.69520 -0.20720 -0.19570
H11 H 0.57720 -0.21580 -0.35960
O4 O 1.11822(19) 0.20543(15) 0.5507(3)
#END
