
#######################################################################
#
#                 Cambridge Crystallographic Data Centre
#                                CCDC
#
#######################################################################
#
# If this CIF has been generated from an entry in the Cambridge
# Structural Database, then it will include bibliographic, chemical,
# crystal, experimental, refinement or atomic coordinate data resulting
# from the CCDC's data processing and validation procedures.
#
#######################################################################

data_CSD_CIF_RIGJAV
_audit_creation_date 2018-07-06
_audit_creation_method CSD-ConQuest-V1
_database_code_CSD RIGJAV
_database_code_depnum_ccdc_archive 'CCDC 1558392'
_chemical_formula_sum 'C17 H14 N2 O2'
_chemical_formula_moiety
;
C17 H14 N2 O2
;
_journal_coden_Cambridge 388
_journal_volume 54
_journal_year 2018
_journal_page_first 78
_journal_name_full 'Zh.Org.Khim.(Russ.)(Russ.J.Org.Chem.) '
loop_
_publ_author_name
"L.M.Gornostaev"
"T.A.Rukovets"
"E.V.Arnold"
"Yu.G.Khalyavina"
"Yu.V.Gatilov"
_chemical_name_systematic
;
4-(hydroxyimino)-2-[(4-methylphenyl)amino]naphthalen-1(4H)-one
;
_chemical_name_common
;
(4E)-2-[(4-methylphenyl)amino]naphthoquinone-4-oxime
;
_chemical_melting_point 517
_cell_volume   2734.026
_exptl_crystal_colour 'red'
_exptl_crystal_density_diffrn 1.352
_exptl_special_details
;
Melting point range 517-518K

;
_exptl_crystal_description 'prism'
_exptl_crystal_preparation 'Re-crystallisation from solvent'
_diffrn_ambient_temperature 296
#These two values have been output from a single CSD field.
_refine_ls_R_factor_gt 0.0794
_refine_ls_wR_factor_gt 0.0794
_symmetry_cell_setting monoclinic
_symmetry_space_group_name_H-M 'P 21/n'
_symmetry_Int_Tables_number 14
loop_
_symmetry_equiv_pos_site_id
_symmetry_equiv_pos_as_xyz
1 x,y,z
2 1/2-x,1/2+y,1/2-z
3 -x,-y,-z
4 -1/2+x,-1/2-y,-1/2+z
_cell_length_a 15.8398(11)
_cell_length_b 7.6654(6)
_cell_length_c 22.5750(17)
_cell_angle_alpha 90
_cell_angle_beta 94.094(3)
_cell_angle_gamma 90
_cell_formula_units_Z 8
loop_
_atom_type_symbol
_atom_type_radius_bond
C 0.68
H 0.23
N 0.68
O 0.68
loop_
_atom_site_label
_atom_site_type_symbol
_atom_site_fract_x
_atom_site_fract_y
_atom_site_fract_z
O1 O -0.02201(16) 0.8096(6) 0.53440(13)
N1 N 0.30942(18) 0.7695(6) 0.50037(13)
C1 C 0.0530(2) 0.8082(7) 0.52520(16)
O2 O 0.32959(15) 0.6870(5) 0.44857(12)
H1 H 0.38120 0.67800 0.44830
N2 N 0.01567(18) 0.6793(7) 0.43202(13)
H2 H -0.03210 0.67050 0.44760
C2 C 0.0812(2) 0.7350(7) 0.46954(16)
C3 C 0.1650(2) 0.7217(7) 0.46111(16)
H3 H 0.18180 0.67100 0.42640
C4 C 0.2284(2) 0.7844(7) 0.50465(16)
C5 C 0.2612(3) 0.9406(9) 0.60235(19)
H4 H 0.31890 0.93450 0.59720
C6 C 0.2341(3) 1.0187(11) 0.6520(2)
H5 H 0.27370 1.06300 0.68040
C7 C 0.1485(3) 1.0333(11) 0.6608(2)
H6 H 0.13080 1.09020 0.69420
C8 C 0.0902(3) 0.9620(9) 0.61932(18)
H7 H 0.03280 0.96760 0.62520
C9 C 0.1172(2) 0.8819(8) 0.56864(16)
C10 C 0.2034(2) 0.8697(7) 0.55922(17)
C11 C 0.0144(2) 0.6338(7) 0.37144(15)
C12 C -0.0468(2) 0.5173(7) 0.34926(17)
H8 H -0.08340 0.46670 0.37470
C13 C -0.0539(2) 0.4757(7) 0.28930(18)
H9 H -0.09600 0.39900 0.27510
C14 C 0.0000(2) 0.5450(7) 0.25045(16)
C15 C 0.0613(2) 0.6609(7) 0.27359(16)
H10 H 0.09810 0.71110 0.24820
C16 C 0.0692(2) 0.7037(7) 0.33314(16)
H11 H 0.11150 0.78000 0.34740
C17 C -0.0077(3) 0.5014(8) 0.18510(18)
H12 H 0.00330 0.37940 0.17990
H13 H 0.03260 0.56880 0.16500
H14 H -0.06380 0.52830 0.16890
O3 O 0.17300(16) 0.3502(7) 0.54528(13)
N3 N 0.50266(18) 0.2674(5) 0.51136(13)
O4 O 0.51993(15) 0.1848(5) 0.45880(12)
H15 H 0.57120 0.17270 0.45770
N4 N 0.20645(17) 0.2017(6) 0.44481(13)
H16 H 0.15810 0.20640 0.45980
C18 C 0.2484(2) 0.3306(8) 0.53767(17)
C19 C 0.2741(2) 0.2477(7) 0.48233(15)
C20 C 0.3574(2) 0.2299(6) 0.47390(16)
H17 H 0.37290 0.17880 0.43900
C21 C 0.4225(2) 0.2871(6) 0.51695(16)
C22 C 0.4595(3) 0.4376(7) 0.61488(18)
H18 H 0.51680 0.42620 0.60920
C23 C 0.4358(3) 0.5168(8) 0.6649(2)
H19 H 0.47680 0.55800 0.69300
C24 C 0.3513(3) 0.5365(10) 0.6741(2)
H20 H 0.33490 0.59040 0.70840
C25 C 0.2918(3) 0.476(1) 0.6325(2)
H21 H 0.23470 0.48940 0.63860
C26 C 0.3147(2) 0.3951(8) 0.58132(16)
C27 C 0.4000(2) 0.3728(6) 0.57184(16)
C28 C 0.2043(2) 0.1479(7) 0.38532(15)
C29 C 0.1368(2) 0.2051(7) 0.34691(16)
H22 H 0.09480 0.27470 0.36140
C30 C 0.1319(2) 0.1593(7) 0.28772(16)
H23 H 0.08640 0.19860 0.26300
C31 C 0.1933(2) 0.0557(6) 0.26398(15)
C32 C 0.2587(2) -0.0047(6) 0.30286(16)
H24 H 0.30020 -0.07570 0.28850
C33 C 0.2635(2) 0.0387(6) 0.36283(16)
H25 H 0.30720 -0.00640 0.38810
C34 C 0.1909(3) 0.0139(7) 0.19851(17)
H26 H 0.13700 0.04710 0.17980
H27 H 0.19930 -0.10900 0.19330
H28 H 0.23490 0.07720 0.18080
#END
