
#######################################################################
#
#                 Cambridge Crystallographic Data Centre
#                                CCDC
#
#######################################################################
#
# If this CIF has been generated from an entry in the Cambridge
# Structural Database, then it will include bibliographic, chemical,
# crystal, experimental, refinement or atomic coordinate data resulting
# from the CCDC's data processing and validation procedures.
#
#######################################################################

data_CSD_CIF_RIHHOF
_audit_creation_date 1997-11-11
_audit_creation_method CSD-ConQuest-V1
_database_code_CSD RIHHOF
_database_code_depnum_ccdc_archive 'CCDC 1249857'
_chemical_formula_sum 'C20 H15 N3 O3'
_chemical_formula_moiety
;
C20 H15 N3 O3
;
_journal_coden_Cambridge 1234
_journal_volume 264
_journal_year 1995
_journal_page_first 215
_journal_name_full 'Mol.Cryst.Liq.Cryst.Sci.Technol.,Sect.A '
loop_
_publ_author_name
"S.M.Aldoshin"
"I.I.Chuev"
"O.A.Kozina"
_chemical_name_systematic
;
o-Benzamido-N-(o-nitrobenzilidine)aniline
;
_cell_volume   1664.581
_exptl_crystal_colour 'yellow'
_exptl_crystal_density_diffrn 1.377
_diffrn_ambient_temperature ?
_diffrn_special_details
;
The study was carried out at room temperature,in the range 283-303K

;
#These two values have been output from a single CSD field.
_refine_ls_R_factor_gt 0.082
_refine_ls_wR_factor_gt 0.082
_symmetry_cell_setting orthorhombic
_symmetry_space_group_name_H-M 'P 21 21 21'
_symmetry_Int_Tables_number 19
loop_
_symmetry_equiv_pos_site_id
_symmetry_equiv_pos_as_xyz
1 x,y,z
2 1/2-x,-y,1/2+z
3 1/2+x,1/2-y,-z
4 -x,1/2+y,1/2-z
_cell_length_a 18.007(15)
_cell_length_b 18.287(13)
_cell_length_c 5.055(3)
_cell_angle_alpha 90
_cell_angle_beta 90
_cell_angle_gamma 90
_cell_formula_units_Z 4
loop_
_atom_type_symbol
_atom_type_radius_bond
C 0.68
H 0.27
N 0.68
O 0.68
loop_
_atom_site_label
_atom_site_type_symbol
_atom_site_fract_x
_atom_site_fract_y
_atom_site_fract_z
O1 O 0.2362(2) 0.0863(3) 0.0190(9)
O2 O 0.3075(4) 0.4648(4) 1.3932(2)
O3 O 0.3414(4) 0.4214(3) 1.0139(2)
N1 N 0.2558(3) 0.1218(2) 0.4121(1)
N2 N 0.2804(3) 0.2463(3) 0.6796(1)
N3 N 0.3011(4) 0.4222(3) 1.2087(2)
C1 C 0.2161(3) 0.0920(3) 0.2083(1)
C2 C 0.1391(3) 0.0666(3) 0.2970(1)
C3 C 0.1049(4) 0.0134(3) 0.1319(1)
C4 C 0.0356(4) 0.0115(4) 0.1750(2)
C5 C 0.0038(4) 0.0166(4) 0.3858(2)
C6 C 0.0267(4) 0.0694(4) 0.5418(2)
C7 C 0.0988(4) 0.0947(3) 0.5000(2)
C8 C 0.3245(3) 0.1600(3) 0.3639(1)
C9 C 0.3765(3) 0.1357(3) 0.1747(1)
C10 C 0.4422(4) 0.1757(3) 0.1462(1)
C11 C 0.4556(4) 0.2394(3) 0.2877(1)
C12 C 0.4041(3) 0.2614(3) 0.4693(1)
C13 C 0.3381(3) 0.2225(3) 0.5063(1)
C14 C 0.2936(3) 0.2882(4) 0.8721(2)
C15 C 0.2331(3) 0.3111(3) 1.0415(1)
C16 C 0.1691(3) 0.2683(3) 1.0625(1)
C17 C 0.1107(4) 0.2848(4) 1.2358(1)
C18 C 0.1174(4) 0.3453(4) 1.4030(2)
C19 C 0.1778(4) 0.3889(3) 1.3881(2)
C20 C 0.2344(3) 0.3706(3) 1.2175(1)
H1 H 0.211(6) 0.124(5) 0.625(4)
H2 H 0.133(6) 0.001(5) 0.013(4)
H3 H 0.007(6) 0.044(5) 0.029(4)
H4 H -0.058(6) 0.009(4) 0.409(4)
H5 H 0.003(6) 0.088(5) 0.700(4)
H6 H 0.123(6) 0.129(5) 0.611(4)
H7 H 0.360(6) 0.092(5) 0.069(4)
H8 H 0.478(6) 0.159(5) 0.008(4)
H9 H 0.502(6) 0.274(5) 0.223(4)
H10 H 0.408(6) 0.313(5) 0.555(4)
H11 H 0.340(6) 0.310(5) 0.820(4)
H12 H 0.169(6) 0.214(5) 0.951(4)
H13 H 0.058(6) 0.255(5) 1.281(4)
H14 H 0.085(6) 0.351(5) 1.533(4)
H15 H 0.191(6) 0.428(5) 1.535(4)
#END
