
#######################################################################
#
#                 Cambridge Crystallographic Data Centre
#                                CCDC
#
#######################################################################
#
# If this CIF has been generated from an entry in the Cambridge
# Structural Database, then it will include bibliographic, chemical,
# crystal, experimental, refinement or atomic coordinate data resulting
# from the CCDC's data processing and validation procedures.
#
#######################################################################

data_CSD_CIF_RIHJAT
_audit_creation_date 1997-11-11
_audit_creation_method CSD-ConQuest-V1
_database_code_CSD RIHJAT
_database_code_depnum_ccdc_archive 'CCDC 1249859'
_chemical_formula_sum 'C24 H25 N3 O3'
_chemical_formula_moiety
;
C24 H25 N3 O3
;
_journal_coden_Cambridge 1234
_journal_volume 264
_journal_year 1995
_journal_page_first 215
_journal_name_full 'Mol.Cryst.Liq.Cryst.Sci.Technol.,Sect.A '
loop_
_publ_author_name
"S.M.Aldoshin"
"I.I.Chuev"
"O.A.Kozina"
_chemical_name_systematic
;
o-(Adamantanecarbamido)-N-(m-nitrobenzilidene)aniline
;
_cell_volume   2010.565
_exptl_crystal_colour 'yellow'
_exptl_crystal_density_diffrn 1.341
_exptl_special_details
;
z coordinate of H151 should probably be negative

;
_diffrn_ambient_temperature ?
_diffrn_special_details
;
The study was carried out at room temperature,in the range 283-303K

;
#These two values have been output from a single CSD field.
_refine_ls_R_factor_gt 0.049
_refine_ls_wR_factor_gt 0.049
_symmetry_cell_setting orthorhombic
_symmetry_space_group_name_H-M 'P n a 21'
_symmetry_Int_Tables_number 33
loop_
_symmetry_equiv_pos_site_id
_symmetry_equiv_pos_as_xyz
1 x,y,z
2 -x,-y,1/2+z
3 1/2-x,1/2+y,1/2+z
4 1/2+x,1/2-y,z
_cell_length_a 13.104(4)
_cell_length_b 22.630(11)
_cell_length_c 6.780(2)
_cell_angle_alpha 90
_cell_angle_beta 90
_cell_angle_gamma 90
_cell_formula_units_Z 4
loop_
_atom_type_symbol
_atom_type_radius_bond
C 0.76
H 0.32
N 0.68
O 0.68
loop_
_atom_site_label
_atom_site_type_symbol
_atom_site_fract_x
_atom_site_fract_y
_atom_site_fract_z
O1 O 0.1161(1) 0.3058(1) 0.79320
O2 O 0.3303(2) 0.5989(1) 0.7975(14)
O3 O 0.3438(2) 0.6918(1) 0.8115(19)
N1 N 0.0745(2) 0.4026(1) 0.7950(9)
N2 N -0.0164(2) 0.5065(1) 0.7950(9)
N3 N 0.2936(2) 0.6479(1) 0.8011(13)
C1 C 0.1422(2) 0.3573(1) 0.8029(14)
C2 C -0.0490(2) 0.5583(1) 0.7986(12)
C3 C -0.0332(2) 0.4013(1) 0.8024(10)
C4 C -0.0903(2) 0.3494(1) 0.7975(10)
C5 C -0.1951(2) 0.3529(1) 0.7998(13)
C6 C -0.2445(2) 0.4067(1) 0.8031(12)
C7 C -0.1884(2) 0.4583(1) 0.7973(14)
C8 C -0.0821(2) 0.4565(1) 0.7956(11)
C9 C 0.0177(2) 0.6103(1) 0.7970(11)
C10 C -0.0246(2) 0.6663(1) 0.7947(13)
C11 C 0.0364(2) 0.7158(1) 0.7955(14)
C12 C 0.1410(2) 0.7107(1) 0.7994(14)
C13 C 0.1821(2) 0.6542(1) 0.7972(11)
C14 C 0.1228(2) 0.6040(1) 0.7875(10)
C15 C 0.2547(2) 0.3751(1) 0.8017(12)
C16 C 0.2753(2) 0.4416(1) 0.7878(16)
C17 C 0.3935(2) 0.4529(1) 0.8064(18)
C18 C 0.4386(6) 0.4246(5) 0.9852(15)
C19 C 0.4242(7) 0.3624(3) 0.9826(16)
C20 C 0.3076(5) 0.3489(2) 0.9780(12)
C21 C 0.4341(7) 0.4279(5) 0.6233(14)
C22 C 0.4199(5) 0.3573(5) 0.6235(16)
C23 C 0.2991(6) 0.3489(5) 0.6112(14)
C24 C 0.4667(3) 0.3331(2) 0.7995(31)
H1 H 0.092(2) 0.435(1) 0.837(6)
H2 H -0.126(2) 0.569(1) 0.855(5)
H3 H -0.051(2) 0.309(1) 0.836(6)
H4 H -0.241(2) 0.318(1) 0.808(9)
H5 H -0.315(2) 0.410(1) 0.828(7)
H6 H -0.221(2) 0.499(1) 0.773(8)
H7 H -0.099(2) 0.674(1) 0.828(6)
H8 H 0.002(2) 0.757(1) 0.811(9)
H9 H 0.191(2) 0.748(1) 0.747(6)
H10 H 0.161(2) 0.562(1) 0.784(9)
H11 H 0.250(3) 0.472(2) 0.813(6)
H12 H 0.236(3) 0.450(2) 0.652(6)
H13 H 0.403(2) 0.499(1) 0.768(7)
H14 H 0.536(3) 0.436(2) 0.993(7)
H15 H 0.434(3) 0.460(2) 1.107(6)
H16 H 0.438(3) 0.384(2) 1.186(6)
H17 H 0.267(3) 0.384(2) 1.121(6)
H18 H 0.320(3) 0.308(1) 0.866(7)
H19 H 0.389(3) 0.439(2) 0.496(6)
H20 H 0.506(3) 0.426(2) 0.621(7)
H21 H 0.441(3) 0.339(2) 0.524(6)
H22 H 0.264(3) 0.352(2) 0.502(7)
H23 H 0.276(3) 0.299(2) 0.623(5)
H24 H 0.547(3) 0.340(1) 0.735(5)
H25 H 0.453(2) 0.290(1) 0.850(5)
#END
