
#######################################################################
#
#                 Cambridge Crystallographic Data Centre
#                                CCDC
#
#######################################################################
#
# If this CIF has been generated from an entry in the Cambridge
# Structural Database, then it will include bibliographic, chemical,
# crystal, experimental, refinement or atomic coordinate data resulting
# from the CCDC's data processing and validation procedures.
#
#######################################################################

data_CSD_CIF_RIHJIB
_audit_creation_date 1997-11-11
_audit_creation_method CSD-ConQuest-V1
_database_code_CSD RIHJIB
_database_code_depnum_ccdc_journal 188/37
_chemical_formula_sum 'C2 H7 N1 O1'
_chemical_formula_moiety
;
C2 H7 N1 O1
;
_journal_coden_Cambridge 188
_journal_year 1996
_journal_page_first 2727
_journal_name_full 'J.Chem.Soc.,Perkin Trans.2 '
loop_
_publ_author_name
"N.W.Mitzel"
"B.A.Smart"
"S.Parsons"
"H.E.Robertson"
"D.W.H.Rankin"
_chemical_name_systematic
;
N,N-Dimethylhydroxylamine
;
_cell_volume   1489.259
_exptl_crystal_density_diffrn 1.09
_diffrn_ambient_temperature 140
#These two values have been output from a single CSD field.
_refine_ls_R_factor_gt 0.05
_refine_ls_wR_factor_gt 0.05
_symmetry_cell_setting orthorhombic
_symmetry_space_group_name_H-M 'P b c a'
_symmetry_Int_Tables_number 61
loop_
_symmetry_equiv_pos_site_id
_symmetry_equiv_pos_as_xyz
1 x,y,z
2 1/2-x,-y,1/2+z
3 1/2+x,1/2-y,-z
4 -x,1/2+y,1/2-z
5 -x,-y,-z
6 -1/2+x,y,-1/2-z
7 -1/2-x,-1/2+y,z
8 x,-1/2-y,-1/2+z
_cell_length_a 9.924(2)
_cell_length_b 14.399(3)
_cell_length_c 10.422(3)
_cell_angle_alpha 90
_cell_angle_beta 90
_cell_angle_gamma 90
_cell_formula_units_Z 16
loop_
_atom_type_symbol
_atom_type_radius_bond
C 0.68
H 0.23
N 0.68
O 0.68
loop_
_atom_site_label
_atom_site_type_symbol
_atom_site_fract_x
_atom_site_fract_y
_atom_site_fract_z
O1 O 0.6693(2) 0.4415(1) 0.1943(2)
N1 N 0.5270(2) 0.4439(1) 0.2266(2)
C1 C 0.4618(3) 0.3905(2) 0.1265(3)
C2 C 0.5136(3) 0.3977(2) 0.3491(3)
O2 O 0.9198(2) 0.6215(1) 0.2546(2)
N2 N 0.7739(2) 0.6152(1) 0.2537(2)
C3 C 0.7326(3) 0.6823(2) 0.1570(3)
C4 C 0.7308(3) 0.6447(2) 0.3805(3)
H1 H 0.6937(29) 0.4965(23) 0.2181(28)
H2 H 0.4743(27) 0.4205(19) 0.0407(27)
H3 H 0.3649(28) 0.3857(18) 0.1451(26)
H4 H 0.5007(28) 0.3288(20) 0.1214(27)
H5 H 0.4192(29) 0.3960(18) 0.3706(25)
H6 H 0.5572(28) 0.4398(20) 0.4162(28)
H7 H 0.5473(27) 0.3315(20) 0.3458(28)
H8 H 0.9424(26) 0.5679(20) 0.2619(26)
H9 H 0.6335(27) 0.6849(17) 0.1599(26)
H10 H 0.7667(30) 0.6589(20) 0.0726(29)
H11 H 0.7682(27) 0.7470(22) 0.1759(26)
H12 H 0.7599(30) 0.6012(19) 0.4433(26)
H13 H 0.6302(26) 0.6458(17) 0.3810(23)
H14 H 0.7697(30) 0.7111(21) 0.3983(27)
#END
