
#######################################################################
#
#                 Cambridge Crystallographic Data Centre
#                                CCDC
#
#######################################################################
#
# If this CIF has been generated from an entry in the Cambridge
# Structural Database, then it will include bibliographic, chemical,
# crystal, experimental, refinement or atomic coordinate data resulting
# from the CCDC's data processing and validation procedures.
#
#######################################################################

data_CSD_CIF_RIJBIY
_audit_creation_date 2018-07-06
_audit_creation_method CSD-ConQuest-V1
_database_code_CSD RIJBIY
_database_code_depnum_ccdc_archive 'CCDC 1825398'
_chemical_formula_sum 'C15 H11 N3 O3'
_chemical_formula_moiety
;
C15 H11 N3 O3
;
_journal_coden_Cambridge 177
_journal_volume 16
_journal_year 2018
_journal_page_first 5113
_journal_name_full 'Org.Biomol.Chem. '
loop_
_publ_author_name
"A.Murugan"
"K.R.Gorantla"
"B.S.Mallik"
"D.S.Sharada"
_chemical_name_systematic
;
1-[3-(3-nitro-2H-indazol-2-yl)phenyl]ethan-1-one
;
_chemical_melting_point 443.15
_cell_volume    651.859
_exptl_crystal_colour 'yellow'
_exptl_crystal_density_diffrn 1.433
_exptl_crystal_description 'irregular'
_exptl_crystal_preparation 'Re-crystallisation from solvent'
_diffrn_ambient_temperature 293
#These two values have been output from a single CSD field.
_refine_ls_R_factor_gt 0.0643
_refine_ls_wR_factor_gt 0.0643
_symmetry_cell_setting triclinic
_symmetry_space_group_name_H-M 'P -1'
_symmetry_Int_Tables_number 2
loop_
_symmetry_equiv_pos_site_id
_symmetry_equiv_pos_as_xyz
1 x,y,z
2 -x,-y,-z
_cell_length_a 7.8053(18)
_cell_length_b 8.2606(17)
_cell_length_c 11.869(2)
_cell_angle_alpha 91.064(17)
_cell_angle_beta 108.89(2)
_cell_angle_gamma 113.92(2)
_cell_formula_units_Z 2
loop_
_atom_type_symbol
_atom_type_radius_bond
C 0.68
H 0.23
N 0.68
O 0.68
loop_
_atom_site_label
_atom_site_type_symbol
_atom_site_fract_x
_atom_site_fract_y
_atom_site_fract_z
O1 O 0.3558(3) 0.0615(3) 0.1410(2)
O2 O 0.3098(3) 0.0455(3) -0.05037(19)
O3 O 0.7393(3) -0.1307(3) 0.4200(2)
N1 N 0.8513(3) 0.5365(3) 0.1870(2)
N2 N 0.7081(3) 0.3774(3) 0.19185(19)
N3 N 0.4061(3) 0.1197(3) 0.0567(2)
C1 C 0.5823(4) 0.2836(3) 0.0784(2)
C2 C 0.6427(4) 0.3823(3) -0.0053(2)
C3 C 0.5797(4) 0.3627(4) -0.1320(3)
C4 C 0.6886(5) 0.4990(5) -0.1796(3)
C5 C 0.8564(5) 0.6553(4) -0.1064(3)
C6 C 0.9197(4) 0.6779(4) 0.0155(3)
C7 C 0.8101(4) 0.5397(3) 0.0670(3)
C8 C 0.7191(4) 0.3377(3) 0.3112(2)
C9 C 0.7306(4) 0.1823(3) 0.3439(2)
C10 C 0.7503(4) 0.1528(3) 0.4616(2)
C11 C 0.7572(4) 0.2800(4) 0.5427(2)
C12 C 0.7461(4) 0.4350(4) 0.5081(3)
C13 C 0.7286(4) 0.4655(3) 0.3918(3)
C14 C 0.7662(4) -0.0144(4) 0.4964(3)
C15 C 0.8166(5) -0.0378(4) 0.6269(3)
H1 H 0.46860 0.26010 -0.18190
H2 H 0.65000 0.48850 -0.26380
H3 H 0.92480 0.74510 -0.14340
H4 H 1.03140 0.78070 0.06320
H5 H 0.72450 0.09820 0.28800
H6 H 0.77090 0.26100 0.62140
H7 H 0.75010 0.51960 0.56280
H8 H 0.72330 0.57070 0.36840
H9 H 0.94610 0.05790 0.67500
H10 H 0.82110 -0.15090 0.63500
H11 H 0.71670 -0.03190 0.65560
#END
