
#######################################################################
#
#                 Cambridge Crystallographic Data Centre
#                                CCDC
#
#######################################################################
#
# If this CIF has been generated from an entry in the Cambridge
# Structural Database, then it will include bibliographic, chemical,
# crystal, experimental, refinement or atomic coordinate data resulting
# from the CCDC's data processing and validation procedures.
#
#######################################################################

data_CSD_CIF_RIJLUT
_audit_creation_date 2013-07-17
_audit_creation_method CSD-ConQuest-V1
_database_code_CSD RIJLUT
_database_code_depnum_ccdc_archive 'CCDC 887715'
_chemical_formula_sum 'C8 H6 N2 O1'
_chemical_formula_moiety
;
C8 H6 N2 O1
;
_journal_coden_Cambridge 1220
_journal_volume 19
_journal_year 2013
_journal_page_first 4223
_journal_name_full 'Chem.-Eur.J. '
loop_
_publ_author_name
"D.Scott Bohle"
"Zhijie Chua"
"I.Perepichka"
"K.Rosadiuk"
_chemical_name_systematic
;
(E/Z)-(Hydroxyimino)(phenyl)acetonitrile
;
_cell_volume   1454.943
_exptl_crystal_colour 'colorless'
_exptl_crystal_density_diffrn 1.334
_exptl_crystal_description 'block'
_diffrn_ambient_temperature 100
_refine_special_details
;
Disordered combination of the (E)- and (Z)- isomers, with N1A,O1A and N1B,O1B 
disordered over two sites with occupancies 0.523:0.477.
;
#These two values have been output from a single CSD field.
_refine_ls_R_factor_gt 0.0605
_refine_ls_wR_factor_gt 0.0605
loop_
_citation_database_id_CSD
_citation_special_details
DUGMUN "is a stereoisomer of this entry"
_symmetry_cell_setting orthorhombic
_symmetry_space_group_name_H-M 'P b c a'
_symmetry_Int_Tables_number 61
loop_
_symmetry_equiv_pos_site_id
_symmetry_equiv_pos_as_xyz
1 x,y,z
2 1/2-x,-y,1/2+z
3 -x,1/2+y,1/2-z
4 1/2+x,1/2-y,-z
5 -x,-y,-z
6 -1/2+x,y,-1/2-z
7 x,-1/2-y,-1/2+z
8 -1/2-x,-1/2+y,z
_cell_length_a 12.077(3)
_cell_length_b 6.8924(14)
_cell_length_c 17.479(4)
_cell_angle_alpha 90
_cell_angle_beta 90
_cell_angle_gamma 90
_cell_formula_units_Z 8
loop_
_atom_type_symbol
_atom_type_radius_bond
C 0.68
H 0.23
N 0.68
O 0.68
loop_
_atom_site_label
_atom_site_type_symbol
_atom_site_fract_x
_atom_site_fract_y
_atom_site_fract_z
O1 O 0.7996(5) 0.2136(5) 0.5818(2)
N1 N 0.6947(5) 0.2179(6) 0.5527(5)
N2 N 0.4415(2) 0.2329(3) 0.54093(12)
C1 C 0.62240(16) 0.1922(3) 0.69868(13)
C2 C 0.52765(17) 0.2497(3) 0.73785(13)
H1 H 0.46670 0.29510 0.71070
C3 C 0.5232(2) 0.2401(3) 0.81603(13)
H2 H 0.45950 0.27940 0.84160
C4 C 0.6124(2) 0.1726(3) 0.85704(15)
H3 H 0.60940 0.16750 0.91020
C5 C 0.7063(2) 0.1125(3) 0.81899(16)
H4 H 0.76630 0.06500 0.84660
C6 C 0.71219(17) 0.1221(3) 0.74070(16)
H5 H 0.77610 0.08190 0.71560
C7 C 0.62600(18) 0.2076(3) 0.61533(14)
C8 C 0.5222(2) 0.2208(3) 0.57384(13)
H6 H 0.819(4) 0.234(6) 0.518(3)
O2? O 0.7239(5) 0.2221(7) 0.5142(4)
N3? N 0.7289(7) 0.2086(6) 0.5934(3)
#END
