
#######################################################################
#
#                 Cambridge Crystallographic Data Centre
#                                CCDC
#
#######################################################################
#
# If this CIF has been generated from an entry in the Cambridge
# Structural Database, then it will include bibliographic, chemical,
# crystal, experimental, refinement or atomic coordinate data resulting
# from the CCDC's data processing and validation procedures.
#
#######################################################################

data_CSD_CIF_RIJMOM
_audit_creation_date 1997-11-11
_audit_creation_method CSD-ConQuest-V1
_database_code_CSD RIJMOM
_database_code_depnum_ccdc_archive 'CCDC 100467'
_chemical_formula_sum 'C13 H14 N2 O5'
_chemical_formula_moiety
;
C13 H14 N2 O5
;
_journal_coden_Cambridge 70
_journal_volume 270
_journal_year 1997
_journal_page_first 426
_journal_name_full 'J.Mol.Biol. '
loop_
_publ_author_name
"D.Loakes"
"F.Hill"
"D.M.Brown"
"S.A.Salisbury"
_chemical_name_systematic
;
5-Nitroindole 2'-deoxyriboside
;
_cell_volume   1277.325
_exptl_crystal_density_diffrn 1.447
_diffrn_ambient_temperature ?
_diffrn_special_details
;
The study was carried out at room temperature,in the range 283-303K

;
#These two values have been output from a single CSD field.
_refine_ls_R_factor_gt 0.0281
_refine_ls_wR_factor_gt 0.0281
_symmetry_cell_setting orthorhombic
_symmetry_space_group_name_H-M 'P 21 21 21'
_symmetry_Int_Tables_number 19
loop_
_symmetry_equiv_pos_site_id
_symmetry_equiv_pos_as_xyz
1 x,y,z
2 1/2-x,-y,1/2+z
3 1/2+x,1/2-y,-z
4 -x,1/2+y,1/2-z
_cell_length_a 12.4737(13)
_cell_length_b 21.834(3)
_cell_length_c 4.6900(3)
_cell_angle_alpha 90
_cell_angle_beta 90
_cell_angle_gamma 90
_cell_formula_units_Z 4
loop_
_atom_type_symbol
_atom_type_radius_bond
C 0.68
H 0.23
N 0.68
O 0.68
loop_
_atom_site_label
_atom_site_type_symbol
_atom_site_fract_x
_atom_site_fract_y
_atom_site_fract_z
O1 O 0.53036(10) 0.08221(6) 0.7106(3)
O2 O 0.37802(11) 0.19002(6) 0.6779(4)
H1 H 0.31819(11) 0.18360(6) 0.7440(4)
O3 O 0.29283(11) 0.02108(6) 0.3534(3)
H2 H 0.25797(11) 0.01608(6) 0.4998(3)
O4 O 1.17170(13) 0.13297(10) 0.7994(7)
O5 O 1.11833(14) 0.20848(9) 1.0505(8)
N1 N 1.10053(14) 0.16633(9) 0.8879(7)
N2 N 0.69124(12) 0.11536(6) 0.5085(3)
C1 C 0.8688(2) 0.09852(8) 0.5115(5)
C2 C 0.4029(2) 0.14430(8) 0.4748(5)
H3 H 0.3492(2) 0.14225(8) 0.3226(5)
C3 C 0.4027(2) 0.02801(9) 0.4233(5)
H4 H 0.4440(2) 0.03331(9) 0.2498(5)
H5 H 0.4280(2) -0.00876(9) 0.5178(5)
C4 C 0.78599(14) 0.13439(7) 0.6310(4)
C5 C 0.58516(14) 0.13447(8) 0.5936(4)
H6 H 0.59155(14) 0.16592(8) 0.7417(4)
C6 C 0.5133(2) 0.15808(9) 0.3600(5)
H7 H 0.5262(2) 0.13672(9) 0.1819(5)
H8 H 0.5232(2) 0.20168(9) 0.3307(5)
C7 C 0.7136(2) 0.06894(8) 0.3175(5)
H9 H 0.6627(2) 0.04860(8) 0.2076(5)
C8 C 0.9910(2) 0.15400(9) 0.7967(6)
C9 C 0.9742(2) 0.10943(8) 0.5965(6)
H10 H 1.0310(2) 0.08725(8) 0.5200(6)
C10 C 0.9090(2) 0.18927(8) 0.9153(5)
H11 H 0.9248(2) 0.21914(8) 1.0502(5)
C11 C 0.80543(15) 0.17965(8) 0.8319(5)
H12 H 0.74964(15) 0.20276(8) 0.9076(5)
C12 C 0.8201(2) 0.05736(8) 0.3133(5)
H13 H 0.8549(2) 0.02817(8) 0.2026(5)
C13 C 0.41996(14) 0.08251(8) 0.6159(4)
H14 H 0.37261(14) 0.07909(8) 0.7819(4)
#END
