
#######################################################################
#
#                 Cambridge Crystallographic Data Centre
#                                CCDC
#
#######################################################################
#
# If this CIF has been generated from an entry in the Cambridge
# Structural Database, then it will include bibliographic, chemical,
# crystal, experimental, refinement or atomic coordinate data resulting
# from the CCDC's data processing and validation procedures.
#
#######################################################################

data_CSD_CIF_RIJNAZ
_audit_creation_date 1997-11-11
_audit_creation_method CSD-ConQuest-V1
_database_code_CSD RIJNAZ
_database_code_depnum_ccdc_archive 'CCDC 100658'
_chemical_formula_sum 'C9 H15 N1 O6'
_chemical_formula_moiety
;
C9 H15 N1 O6
;
_journal_coden_Cambridge 1078
_journal_year 1997
_journal_name_full 'CSD Communication(Private Communication) '
loop_
_publ_author_name
"A.Linden"
"W.Brade"
"A.Vasella"
_chemical_name_systematic
;
1,6-Dideoxy-3,4-O-isopropylidene-1-nitro-\a-L-galactopyranose
;
_chemical_melting_point 363
_cell_volume   2344.568
_exptl_crystal_colour 'colorless'
_exptl_crystal_density_diffrn 1.321
_exptl_special_details
;
Melting point range 363-364K

;
_diffrn_ambient_temperature ?
_diffrn_special_details
;
The study was carried out at room temperature,in the range 283-303K

;
#These two values have been output from a single CSD field.
_refine_ls_R_factor_gt 0.0516
_refine_ls_wR_factor_gt 0.0516
_symmetry_cell_setting orthorhombic
_symmetry_space_group_name_H-M 'P 21 21 21'
_symmetry_Int_Tables_number 19
loop_
_symmetry_equiv_pos_site_id
_symmetry_equiv_pos_as_xyz
1 x,y,z
2 1/2-x,-y,1/2+z
3 1/2+x,1/2-y,-z
4 -x,1/2+y,1/2-z
_cell_length_a 8.294(5)
_cell_length_b 11.440(8)
_cell_length_c 24.71(2)
_cell_angle_alpha 90
_cell_angle_beta 90
_cell_angle_gamma 90
_cell_formula_units_Z 8
loop_
_atom_type_symbol
_atom_type_radius_bond
C 0.68
H 0.23
N 0.68
O 0.68
loop_
_atom_site_label
_atom_site_type_symbol
_atom_site_fract_x
_atom_site_fract_y
_atom_site_fract_z
O1 O 0.1637(7) -0.9142(4) -0.3720(2)
O2 O 0.1564(7) -0.6553(4) -0.4093(2)
O3 O -0.1978(7) -0.8261(5) -0.3843(2)
O4 O -0.1106(7) -0.9658(5) -0.4405(3)
O5 O 0.4145(8) -0.7993(6) -0.3366(3)
O6 O 0.2704(8) -0.6854(5) -0.2878(3)
N1 N 0.2859(10) -0.7626(6) -0.3215(3)
C1 C 0.1287(10) -0.8131(7) -0.3446(4)
C2 C 0.0454(10) -0.7153(7) -0.3777(3)
C3 C -0.0751(10) -0.7698(7) -0.4158(3)
C4 C -0.0039(9) -0.8708(7) -0.4490(3)
C5 C 0.1647(11) -0.9051(7) -0.4313(3)
C6 C 0.2149(11) -1.0249(7) -0.4512(3)
C7 C -0.2511(11) -0.9255(7) -0.4129(4)
C8 C -0.3812(11) -0.8934(8) -0.4540(3)
C9 C -0.3036(12) -1.0187(7) -0.3742(4)
O7 O 0.1430(7) -0.2039(5) -0.3418(2)
O8 O 0.2535(8) -0.2473(4) -0.2232(2)
O9 O 0.4664(7) -0.3204(5) -0.3462(2)
O10 O 0.2634(7) -0.4431(5) -0.3712(2)
O11 O 0.0277(9) -0.0562(6) -0.2689(3)
O12 O 0.2643(10) 0.0153(5) -0.2517(3)
N2 N 0.1719(11) -0.0545(7) -0.2730(3)
C10 C 0.2534(11) -0.1488(6) -0.3089(3)
C11 C 0.3494(11) -0.2281(7) -0.2699(3)
C12 C 0.3750(11) -0.3435(7) -0.2980(3)
C13 C 0.2192(11) -0.3992(7) -0.3183(4)
C14 C 0.0816(11) -0.3130(7) -0.3217(3)
C15 C -0.0528(11) -0.3479(8) -0.3601(4)
C16 C 0.4226(11) -0.4058(7) -0.3857(4)
C17 C 0.4216(14) -0.3469(8) -0.4396(3)
C18 C 0.5354(11) -0.5096(7) -0.3828(4)
H1 H 0.0439(10) -0.8400(7) -0.3138(4)
H2 H -0.0115(10) -0.6557(7) -0.3497(3)
H3 H -0.1157(10) -0.6998(7) -0.4418(3)
H4 H 0.0059(9) -0.8456(7) -0.4910(3)
H5 H 0.2460(11) -0.8396(7) -0.4470(3)
H6 H 0.2475(7) -0.5935(4) -0.4032(2)
H7 H 0.2236(11) -1.0247(7) -0.4948(3)
H8 H 0.3318(11) -1.0435(7) -0.4340(3)
H9 H 0.1300(11) -1.0911(7) -0.4385(3)
H10 H -0.4853(11) -0.8598(8) -0.4329(3)
H11 H -0.3357(11) -0.8275(8) -0.4813(3)
H12 H -0.4151(11) -0.9702(8) -0.4768(3)
H13 H -0.4101(12) -0.9915(7) -0.3525(4)
H14 H -0.3301(12) -1.0966(7) -0.3972(4)
H15 H -0.2079(12) -1.0368(7) -0.3458(4)
H16 H 0.3361(11) -0.1125(6) -0.3381(3)
H17 H 0.4634(11) -0.1883(7) -0.2596(3)
H18 H 0.4311(11) -0.4017(7) -0.2693(3)
H19 H 0.1743(11) -0.4660(7) -0.2914(4)
H20 H 0.0329(11) -0.3076(7) -0.2813(3)
H21 H -0.1036(11) -0.4300(8) -0.3468(4)
H22 H -0.1451(11) -0.2813(8) -0.3596(4)
H23 H -0.0067(11) -0.3575(8) -0.4007(4)
H24 H 0.3840(14) -0.4084(8) -0.4702(3)
H25 H 0.3382(14) -0.2744(8) -0.4384(3)
H26 H 0.5409(14) -0.3149(8) -0.4491(3)
H27 H 0.6534(11) -0.4802(7) -0.3953(4)
H28 H 0.5421(11) -0.5449(7) -0.3424(4)
H29 H 0.4937(11) -0.5766(7) -0.4103(4)
#END
