
#######################################################################
#
#                 Cambridge Crystallographic Data Centre
#                                CCDC
#
#######################################################################
#
# If this CIF has been generated from an entry in the Cambridge
# Structural Database, then it will include bibliographic, chemical,
# crystal, experimental, refinement or atomic coordinate data resulting
# from the CCDC's data processing and validation procedures.
#
#######################################################################

data_CSD_CIF_RIJXEQ
_audit_creation_date 2018-07-07
_audit_creation_method CSD-ConQuest-V1
_database_code_CSD RIJXEQ
_database_code_depnum_ccdc_archive 'CCDC 1816975'
_chemical_formula_sum 'C13 H13 N5 O7'
_chemical_formula_moiety
;
C13 H13 N5 O7
;
_journal_coden_Cambridge 119
_journal_volume 1173
_journal_year 2018
_journal_page_first 291
_journal_name_full 'J.Mol.Struct. '
loop_
_publ_author_name
"M.Bem"
"R.Baratoiu"
"C.Radutiu"
"C.Lete"
"S.Mocanu"
"G.Ionita"
"S.Lupu"
"M.T.Caproiu"
"A.M.Madalan"
"B.Patrascu"
"I.Zarafu"
"P.Ionita"
_chemical_name_systematic
;
N-(3,4-dimethyl-1,2-oxazol-5-yl)-4-(methoxyamino)-3,5-dinitrobenzamide
;
_cell_volume   1506.798
_exptl_crystal_colour 'yellow'
_exptl_crystal_density_diffrn 1.549
_exptl_crystal_description 'needle'
_diffrn_ambient_temperature 173
#These two values have been output from a single CSD field.
_refine_ls_R_factor_gt 0.0431
_refine_ls_wR_factor_gt 0.0431
_symmetry_cell_setting monoclinic
_symmetry_space_group_name_H-M 'P 21/n'
_symmetry_Int_Tables_number 14
loop_
_symmetry_equiv_pos_site_id
_symmetry_equiv_pos_as_xyz
1 x,y,z
2 1/2-x,1/2+y,1/2-z
3 -x,-y,-z
4 -1/2+x,-1/2-y,-1/2+z
_cell_length_a 8.7041(7)
_cell_length_b 20.8209(14)
_cell_length_c 9.1162(7)
_cell_angle_alpha 90
_cell_angle_beta 114.210(6)
_cell_angle_gamma 90
_cell_formula_units_Z 4
loop_
_atom_type_symbol
_atom_type_radius_bond
C 0.68
H 0.23
N 0.68
O 0.68
loop_
_atom_site_label
_atom_site_type_symbol
_atom_site_fract_x
_atom_site_fract_y
_atom_site_fract_z
C1 C 0.3931(3) 0.14628(11) -0.1716(2)
C2 C 0.2766(3) 0.09680(11) -0.2450(2)
C3 C 0.2626(3) 0.05126(12) -0.1354(2)
C4 C 0.3642(3) 0.05328(12) 0.0284(2)
H1 H 0.35340 0.02080 0.09680
C5 C 0.4801(3) 0.10158(11) 0.0928(2)
C6 C 0.4934(3) 0.14897(11) -0.0097(2)
H2 H 0.57180 0.18310 0.03250
C7 C 0.1693(4) 0.14946(15) -0.6334(3)
H3 H 0.09340 0.11850 -0.70990
H4 H 0.23500 0.17170 -0.68320
H5 H 0.10310 0.18080 -0.60370
C8 C 0.5940(3) 0.09905(12) 0.2687(2)
C9 C 0.7456(3) 0.16644(11) 0.5009(2)
C10 C 0.7786(3) 0.13562(11) 0.6410(2)
C11 C 0.8993(3) 0.17640(12) 0.7554(2)
C12 C 0.7000(3) 0.07683(12) 0.6760(3)
H6 H 0.58300 0.07320 0.59700
H7 H 0.70260 0.08010 0.78420
H8 H 0.76300 0.03870 0.66960
C13 C 0.9785(3) 0.16820(13) 0.9345(2)
H9 H 1.07030 0.19930 0.98190
H10 H 1.02330 0.12450 0.96100
H11 H 0.89360 0.17550 0.97760
N1 N 0.4099(2) 0.20109(9) -0.2653(2)
N2 N 0.1424(3) -0.00067(11) -0.1908(2)
N3 N 0.1892(2) 0.09309(11) -0.4071(2)
N4 N 0.6358(2) 0.15744(10) 0.3410(2)
N5 N 0.9348(2) 0.22698(10) 0.6905(2)
O1 O 0.5499(2) 0.21373(9) -0.25605(19)
O2 O 0.2833(2) 0.23265(9) -0.34005(19)
O3 O 0.0335(2) 0.00149(9) -0.32878(18)
O4 O 0.1521(3) -0.04476(11) -0.0987(2)
O5 O 0.2816(2) 0.11618(9) -0.49192(17)
O6 O 0.6439(2) 0.04826(8) 0.33630(17)
O7 O 0.83728(19) 0.22096(8) 0.52414(16)
H12 H 0.144(3) 0.0576(16) -0.447(3)
H13 H 0.592(3) 0.1916(13) 0.288(3)
#END
