
#######################################################################
#
#                 Cambridge Crystallographic Data Centre
#                                CCDC
#
#######################################################################
#
# If this CIF has been generated from an entry in the Cambridge
# Structural Database, then it will include bibliographic, chemical,
# crystal, experimental, refinement or atomic coordinate data resulting
# from the CCDC's data processing and validation procedures.
#
#######################################################################

data_CSD_CIF_RIKNOO
_audit_creation_date 1997-11-11
_audit_creation_method CSD-ConQuest-V1
_database_code_CSD RIKNOO
_database_code_depnum_ccdc_archive 'CCDC 124927'
_chemical_formula_sum 'C3 H3 N3 O2'
_chemical_formula_moiety
;
C3 H3 N3 O2
;
_journal_coden_Cambridge 1137
_journal_volume 10
_journal_year 1997
_journal_page_first 637
_journal_name_full 'J.Phys.Org.Chem. '
loop_
_publ_author_name
"C.Foces-Foces"
"A.L.Llamas-Saiz"
"M.Menendez"
"N.Jagerovic"
"J.Elguero"
_chemical_name_systematic
;
3-Nitropyrazole
;
_cell_volume   1427.238
_exptl_crystal_colour 'colorless'
_exptl_crystal_density_diffrn 1.566
_diffrn_ambient_temperature ?
_diffrn_special_details
;
The study was carried out at room temperature,in the range 283-303K

;
#These two values have been output from a single CSD field.
_refine_ls_R_factor_gt 0.038
_refine_ls_wR_factor_gt 0.038
_symmetry_cell_setting triclinic
_symmetry_space_group_name_H-M 'P -1'
_symmetry_Int_Tables_number 2
loop_
_symmetry_equiv_pos_site_id
_symmetry_equiv_pos_as_xyz
1 x,y,z
2 -x,-y,-z
_cell_length_a 10.1023(12)
_cell_length_b 12.5014(20)
_cell_length_c 13.1190(17)
_cell_angle_alpha 100.257(13)
_cell_angle_beta 104.407(12)
_cell_angle_gamma 111.315(13)
_cell_formula_units_Z 12
loop_
_atom_type_symbol
_atom_type_radius_bond
C 0.68
H 0.23
N 0.68
O 0.68
loop_
_atom_site_label
_atom_site_type_symbol
_atom_site_fract_x
_atom_site_fract_y
_atom_site_fract_z
N1 N 0.68010(37) 0.73315(27) 0.93344(24)
N2 N 0.69001(28) 0.80638(23) 0.86958(22)
C1 C 0.55030(34) 0.79558(29) 0.83486(27)
C2 C 0.45342(43) 0.71962(33) 0.87361(31)
C3 C 0.54273(43) 0.68064(36) 0.93827(32)
N3 N 0.51835(34) 0.86262(28) 0.75982(25)
O1 O 0.62257(30) 0.93638(27) 0.74489(25)
O2 O 0.38684(28) 0.83823(27) 0.71349(23)
N4 N 0.94322(32) 0.97345(25) 0.82621(24)
N5 N 1.06559(29) 0.95721(24) 0.87221(22)
C4 C 1.16550(36) 1.02514(30) 0.83604(28)
C5 C 1.11215(45) 1.08383(34) 0.76892(33)
C6 C 0.96924(46) 1.04878(33) 0.76472(34)
N6 N 1.31337(34) 1.02721(31) 0.86801(28)
O3 O 1.33778(32) 0.96559(34) 0.92565(28)
O4 O 1.40413(31) 1.08989(28) 0.83343(28)
N7 N 1.10092(33) 0.79591(29) 1.00313(24)
N8 N 0.97133(30) 0.72520(25) 1.00971(22)
C7 C 1.00854(41) 0.65729(32) 1.06844(27)
C8 C 1.16055(47) 0.68543(41) 1.10016(32)
C9 C 1.21677(47) 0.77498(43) 1.05681(33)
N9 N 0.89299(41) 0.56961(29) 1.09186(25)
O5 O 0.76554(34) 0.56129(28) 1.06020(25)
O6 O 0.92890(36) 0.50572(26) 1.14341(24)
N10 N 0.78224(33) 0.64595(25) 0.66318(23)
N11 N 0.79574(28) 0.72067(23) 0.60144(22)
C10 C 0.93802(33) 0.75906(27) 0.60840(25)
C11 C 1.01569(41) 0.71129(32) 0.67356(30)
C12 C 0.91208(40) 0.63838(34) 0.70694(31)
N12 N 0.99225(34) 0.84159(25) 0.54902(25)
O7 O 0.90161(29) 0.86291(23) 0.48533(23)
O8 O 1.12710(28) 0.88469(23) 0.56505(25)
N13 N 0.34996(30) 0.55021(25) 0.59514(23)
N14 N 0.46832(28) 0.53260(23) 0.64631(21)
C13 C 0.41191(36) 0.45502(28) 0.69770(26)
C14 C 0.26139(40) 0.42163(32) 0.68012(30)
C15 C 0.22527(41) 0.48579(33) 0.61293(30)
N15 N 0.51219(39) 0.41793(26) 0.76525(24)
O9 O 0.64328(33) 0.45954(25) 0.77194(23)
O10 O 0.45866(36) 0.34685(27) 0.81212(25)
N16 N 0.57383(31) 0.79068(26) 0.47872(24)
N17 N 0.43709(28) 0.72510(24) 0.47858(22)
C16 C 0.35364(34) 0.76906(28) 0.42071(26)
C17 C 0.43321(42) 0.85984(34) 0.38460(32)
C18 C 0.57629(43) 0.87164(34) 0.42380(33)
N18 N 0.19552(31) 0.71683(27) 0.40236(25)
O11 O 0.14507(26) 0.63737(24) 0.44332(23)
O12 O 0.11909(28) 0.75560(26) 0.34600(23)
H1 H 0.7517(46) 0.7229(36) 0.9577(34)
H2 H 0.3470(46) 0.6993(34) 0.8631(32)
H3 H 0.520(4) 0.6266(34) 0.9815(31)
H4 H 0.8561(46) 0.9317(35) 0.8454(32)
H5 H 1.1592(36) 1.1331(30) 0.7384(26)
H6 H 0.8908(48) 1.0606(37) 0.7288(35)
H7 H 1.1093(37) 0.8519(31) 0.9645(28)
H8 H 1.2129(46) 0.6484(37) 1.1414(34)
H9 H 1.3084(39) 0.8210(29) 1.0564(26)
H10 H 0.6893(38) 0.6066(28) 0.6640(26)
H11 H 1.1145(41) 0.7248(30) 0.6865(28)
H12 H 0.9089(36) 0.587(3) 0.7529(28)
H13 H 0.3656(38) 0.6041(32) 0.5580(28)
H14 H 0.1986(38) 0.3666(32) 0.7073(28)
H15 H 0.1209(46) 0.4852(34) 0.5774(32)
H16 H 0.6476(39) 0.7756(30) 0.5118(28)
H17 H 0.3967(43) 0.9022(35) 0.3474(32)
H18 H 0.6620(39) 0.9233(31) 0.4174(27)
#END
