
#######################################################################
#
#                 Cambridge Crystallographic Data Centre
#                                CCDC
#
#######################################################################
#
# If this CIF has been generated from an entry in the Cambridge
# Structural Database, then it will include bibliographic, chemical,
# crystal, experimental, refinement or atomic coordinate data resulting
# from the CCDC's data processing and validation procedures.
#
#######################################################################

data_CSD_CIF_RIKZOD
_audit_creation_date 2018-07-09
_audit_creation_method CSD-ConQuest-V1
_database_code_CSD RIKZOD
_database_code_depnum_ccdc_archive 'CCDC 1018901'
_chemical_formula_sum 'C7 H4 N8 O7'
_chemical_formula_moiety
;
C7 H4 N8 O7
;
_journal_coden_Cambridge 29
_journal_volume 644
_journal_year 2018
_journal_page_first 598
_journal_name_full 'Z.Anorg.Allg.Chem. '
loop_
_publ_author_name
"Gu-Dan Zhang"
"Zhen Wang"
"Xin Yin"
"Jian-Guo Zhang"
_chemical_name_systematic
;
1-((2,4,6-trinitrophenyl)amino)-1,4-dihydro-5H-tetrazol-5-one
;
_cell_volume   1210.622
_exptl_crystal_density_diffrn 1.713
_diffrn_ambient_temperature 298
#These two values have been output from a single CSD field.
_refine_ls_R_factor_gt 0.1435
_refine_ls_wR_factor_gt 0.1435
_symmetry_cell_setting monoclinic
_symmetry_space_group_name_H-M 'P 21/c'
_symmetry_Int_Tables_number 14
loop_
_symmetry_equiv_pos_site_id
_symmetry_equiv_pos_as_xyz
1 x,y,z
2 -x,1/2+y,1/2-z
3 -x,-y,-z
4 x,-1/2-y,-1/2+z
_cell_length_a 12.390(1)
_cell_length_b 8.5600(7)
_cell_length_c 11.4401(9)
_cell_angle_alpha 90
_cell_angle_beta 93.821(2)
_cell_angle_gamma 90
_cell_formula_units_Z 4
loop_
_atom_type_symbol
_atom_type_radius_bond
C 0.68
H 0.23
N 0.68
O 0.68
loop_
_atom_site_label
_atom_site_type_symbol
_atom_site_fract_x
_atom_site_fract_y
_atom_site_fract_z
O1 O 0.5372(5) 0.1478(7) 0.2608(7)
O2 O 0.3906(6) 0.5709(9) 0.5119(7)
O3 O 0.2431(7) 0.6945(10) 0.5416(8)
O4 O 0.0085(9) 0.8268(13) 0.2154(11)
O5 O -0.0057(8) 0.6752(12) 0.0639(12)
O6 O 0.2189(6) 0.1839(8) 0.0866(8)
O7 O 0.3751(6) 0.2938(9) 0.0989(7)
N1 N 0.3692(5) 0.1846(7) 0.3362(6)
N2 N 0.2884(6) 0.0894(9) 0.3695(8)
N3 N 0.3140(7) -0.0485(8) 0.3455(8)
N4 N 0.4113(6) -0.0465(8) 0.3000(8)
H1 H 0.44420 -0.12880 0.27790
N5 N 0.3732(6) 0.3408(7) 0.3585(7)
H2 H 0.42600 0.38110 0.40080
N6 N 0.2984(7) 0.6125(9) 0.4838(7)
N7 N 0.0327(7) 0.7135(11) 0.1643(10)
N8 N 0.2819(7) 0.2831(9) 0.1225(7)
C1 C 0.4533(8) 0.0986(10) 0.2945(9)
C2 C 0.2899(6) 0.4339(9) 0.3085(8)
C3 C 0.2486(7) 0.5622(9) 0.3690(8)
C4 C 0.1648(8) 0.6547(10) 0.3224(10)
H3 H 0.13990 0.73920 0.36410
C5 C 0.1195(7) 0.6188(10) 0.2139(10)
C6 C 0.1570(7) 0.4915(10) 0.1490(9)
H4 H 0.12630 0.46720 0.07480
C7 C 0.2397(7) 0.4066(9) 0.1996(8)
#END
