
#######################################################################
#
#                 Cambridge Crystallographic Data Centre
#                                CCDC
#
#######################################################################
#
# If this CIF has been generated from an entry in the Cambridge
# Structural Database, then it will include bibliographic, chemical,
# crystal, experimental, refinement or atomic coordinate data resulting
# from the CCDC's data processing and validation procedures.
#
#######################################################################

data_CSD_CIF_RILMEH
_audit_creation_date 2018-07-09
_audit_creation_method CSD-ConQuest-V1
_database_code_CSD RILMEH
_database_code_depnum_ccdc_archive 'CCDC 1854663'
_chemical_formula_sum 'C19 H17 N3 O3'
_chemical_formula_moiety
;
C19 H17 N3 O3
;
_journal_coden_Cambridge 4
_journal_volume 140
_journal_year 2018
_journal_page_first 7292
_journal_name_full 'J.Am.Chem.Soc. '
loop_
_publ_author_name
"Y.Hoshimoto"
"T.Kinoshita"
"S.Hazra"
"M.Ohashi"
"S.Ogoshi"
_chemical_name_systematic
;
5-(4-(benzylamino)phenoxy)-2-nitroaniline
;
_cell_volume   1626.528
_exptl_crystal_colour 'yellow'
_exptl_crystal_density_diffrn 1.369
_exptl_crystal_description 'plate'
_diffrn_ambient_temperature 123
#These two values have been output from a single CSD field.
_refine_ls_R_factor_gt 0.0495
_refine_ls_wR_factor_gt 0.0495
_symmetry_cell_setting triclinic
_symmetry_space_group_name_H-M 'P -1'
_symmetry_Int_Tables_number 2
loop_
_symmetry_equiv_pos_site_id
_symmetry_equiv_pos_as_xyz
1 x,y,z
2 -x,-y,-z
_cell_length_a 8.1093(2)
_cell_length_b 12.3368(3)
_cell_length_c 16.6982(3)
_cell_angle_alpha 86.580(2)
_cell_angle_beta 77.534(2)
_cell_angle_gamma 86.696(2)
_cell_formula_units_Z 4
loop_
_atom_type_symbol
_atom_type_radius_bond
C 0.68
H 0.23
N 0.68
O 0.68
loop_
_atom_site_label
_atom_site_type_symbol
_atom_site_fract_x
_atom_site_fract_y
_atom_site_fract_z
O1 O 0.13520(15) 0.81028(9) 0.50227(8)
O2 O 0.47738(16) 1.24811(9) 0.40979(8)
O3 O 0.66249(18) 1.15283(11) 0.32604(9)
N1 N 0.53200(19) 1.15867(12) 0.38076(9)
N2 N 0.6283(2) 0.94305(12) 0.31756(10)
H1 H 0.65168 0.87918 0.29898
H2 H 0.69295 0.99543 0.29792
N3 N 0.19312(19) 0.39896(12) 0.37430(9)
H3 H 0.27032 0.35458 0.38690
C1 C 0.1743(2) 0.50065(13) 0.40654(10)
C2 C 0.2996(2) 1.07680(13) 0.47511(11)
H4 H 0.27114 1.14455 0.49712
C3 C 0.4910(2) 0.96097(13) 0.3772(1)
C4 C 0.3863(2) 0.87393(13) 0.4087(1)
H5 H 0.41307 0.80555 0.38754
C5 C 0.2457(2) 0.88907(13) 0.47008(10)
C6 C 0.2027(2) 0.99101(13) 0.50562(11)
H6 H 0.11003 0.99926 0.54900
C7 C 0.1554(2) 0.70772(13) 0.46719(11)
C8 C 0.2752(2) 0.52582(14) 0.46054(11)
H7 H 0.34961 0.47275 0.47631
C9 C 0.0607(2) 0.58155(14) 0.38539(11)
H8 H -0.00972 0.56602 0.35078
C10 C 0.4421(2) 1.06430(13) 0.41084(10)
C11 C 0.2656(2) 0.62882(14) 0.49091(11)
H9 H 0.33290 0.64461 0.52692
C12 C 0.0521(2) 0.68492(14) 0.41560(11)
H10 H -0.02321 0.73831 0.40098
C13 C 0.1788(2) 0.26309(14) 0.27834(11)
C14 C 0.0913(2) 0.36214(14) 0.32065(11)
H11 H 0.07670 0.41944 0.28006
H12 H -0.01946 0.34419 0.35241
C15 C 0.1280(3) 0.15928(15) 0.30379(12)
H13 H 0.03508 0.14892 0.34674
C16 C 0.3176(3) 0.27567(18) 0.21363(13)
H14 H 0.35295 0.34519 0.19623
C17 C 0.2175(3) 0.06939(17) 0.26436(15)
H15 H 0.18458 -0.00064 0.28168
C18 C 0.3540(3) 0.0848(2) 0.20013(15)
H16 H 0.41233 0.02517 0.17399
C19 C 0.4039(3) 0.1873(2) 0.17468(15)
H17 H 0.49592 0.19750 0.13123
O4 O 0.97494(17) 0.3235(1) 0.05878(8)
O5 O 0.82928(18) 0.7496(1) 0.24236(9)
O6 O 0.64815(18) 0.65538(11) 0.32939(8)
N4 N 0.76013(19) 0.66169(12) 0.26532(9)
N5 N 0.6122(2) 0.44933(13) 0.30538(10)
H18 H 0.56940 0.38647 0.31475
H19 H 0.57644 0.50020 0.33875
N6 N 0.7521(2) -0.09887(12) 0.09294(10)
H20 H 0.77315 -0.13765 0.13441
C20 C 0.8122(2) 0.56924(13) 0.21822(10)
C21 C 0.7345(2) 0.46797(14) 0.23892(10)
C22 C 0.7915(2) 0.38275(13) 0.18473(11)
H21 H 0.74209 0.31576 0.19545
C23 C 0.8084(2) 0.00567(14) 0.08149(10)
C24 C 0.9109(2) 0.21854(14) 0.06942(11)
C25 C 0.7722(2) 0.07886(15) 0.01946(11)
H22 H 0.71445 0.05607 -0.01852
C26 C 0.9184(2) 0.39822(14) 0.11684(11)
C27 C 1.0012(2) 0.49730(14) 0.09991(11)
H23 H 1.09219 0.50484 0.05558
C28 C 0.8226(2) 0.18621(15) 0.01443(11)
H24 H 0.79628 0.23520 -0.02598
C29 C 0.9020(2) 0.04117(14) 0.13533(11)
H25 H 0.93003 -0.00701 0.17582
C30 C 0.5623(2) -0.24108(14) 0.08613(11)
C31 C 0.9461(2) 0.58135(14) 0.14927(11)
H26 H 0.99722 0.64766 0.13742
C32 C 0.9534(2) 0.14645(15) 0.12930(11)
H27 H 1.01619 0.16895 0.16525
C33 C 0.6608(2) -0.14752(15) 0.04047(12)
H28 H 0.73949 -0.17369 -0.00755
H29 H 0.58363 -0.09343 0.02210
C34 C 0.5775(3) -0.34328(16) 0.05467(13)
H30 H 0.65031 -0.35605 0.00459
C35 C 0.4829(3) -0.42734(17) 0.09841(15)
H31 H 0.49270 -0.49592 0.07709
C36 C 0.3759(3) -0.40932(18) 0.17255(15)
H32 H 0.31287 -0.46547 0.20111
C37 C 0.4564(3) -0.22599(17) 0.16170(15)
H33 H 0.44843 -0.15836 0.18439
C38 C 0.3619(3) -0.3089(2) 0.20446(15)
H34 H 0.28918 -0.29646 0.25464
#END
