
#######################################################################
#
#                 Cambridge Crystallographic Data Centre
#                                CCDC
#
#######################################################################
#
# If this CIF has been generated from an entry in the Cambridge
# Structural Database, then it will include bibliographic, chemical,
# crystal, experimental, refinement or atomic coordinate data resulting
# from the CCDC's data processing and validation procedures.
#
#######################################################################

data_CSD_CIF_RILWAN
_audit_creation_date 2018-07-09
_audit_creation_method CSD-ConQuest-V1
_database_code_CSD RILWAN
_database_code_depnum_ccdc_archive 'CCDC 1581118'
_chemical_formula_sum 'C25 H21 N3 O5'
_chemical_formula_moiety
;
C25 H21 N3 O5
;
_journal_coden_Cambridge 1220
_journal_volume 24
_journal_year 2018
_journal_page_first 7217
_journal_name_full 'Chem.-Eur.J. '
loop_
_publ_author_name
"J.Izquierdo"
"J.Etxabe"
"E.Dunabeitia"
"A.Landa"
"M.Oiarbide"
"C.Palomo"
_chemical_name_systematic
;
1-benzoyl-5-benzyl-5-(2-nitro-1-phenylethyl)imidazolidine-2,4-dione
;
_cell_volume   1111.200
_exptl_crystal_colour 'colorless'
_exptl_crystal_density_diffrn 1.325
_exptl_special_details
;
Absolute configuration

;
_exptl_crystal_description 'plate'
_diffrn_ambient_temperature 150
_refine_special_details
;
C10,C5,C6,C7,C8,C9 and C10B,C5B,C6B,C7B,C8B,C9B disordered over two sites 
with occupancies 0.59:0.41; C12,C13,C14,C15,C16,C17 and 
C12B,C13B,C14B,C15B,C16B,C17B disordered over two sites with occupancies 
0.51:0.49.
;
#These two values have been output from a single CSD field.
_refine_ls_R_factor_gt 0.0263
_refine_ls_wR_factor_gt 0.0263
_symmetry_cell_setting monoclinic
_symmetry_space_group_name_H-M 'P 21'
_symmetry_Int_Tables_number 4
loop_
_symmetry_equiv_pos_site_id
_symmetry_equiv_pos_as_xyz
1 x,y,z
2 -x,1/2+y,-z
_cell_length_a 11.11149(10)
_cell_length_b 7.85798(8)
_cell_length_c 12.72821(13)
_cell_angle_alpha 90
_cell_angle_beta 90.9379(9)
_cell_angle_gamma 90
_cell_formula_units_Z 2
loop_
_atom_type_symbol
_atom_type_radius_bond
C 0.68
H 0.23
N 0.68
O 0.68
loop_
_atom_site_label
_atom_site_type_symbol
_atom_site_fract_x
_atom_site_fract_y
_atom_site_fract_z
O1 O 0.33846(13) 0.52552(17) 0.27606(11)
O2 O 0.48535(12) 0.10323(18) 0.48425(9)
O3 O 0.25260(12) 0.07302(18) 0.12223(10)
O4 O 0.59433(14) -0.2586(2) 0.14044(11)
O5 O 0.73785(13) -0.2346(2) 0.25595(14)
N1 N 0.32021(12) 0.22809(18) 0.26068(10)
N2 N 0.41684(14) 0.3394(2) 0.39887(12)
H1 H 0.447(2) 0.414(3) 0.4384(16)
N3 N 0.63311(14) -0.2168(2) 0.22653(13)
C1 C 0.37766(15) 0.0815(2) 0.31482(13)
C2 C 0.43241(16) 0.1710(2) 0.41072(13)
C3 C 0.35473(16) 0.3822(2) 0.30622(13)
C4 C 0.25286(15) 0.2091(2) 0.16712(13)
C5 C 0.28756(16) -0.0574(2) 0.34746(14)
H2 H 0.27156 -0.13310 0.28664
H3 H 0.32465 -0.12713 0.40410
C6 C 0.47974(15) 0.0062(2) 0.24514(13)
H4 H 0.43865 -0.04628 0.18261
C7 C 0.56460(15) 0.1397(2) 0.20277(14)
C8 C 0.65339(16) 0.2176(3) 0.26525(14)
H5 H 0.66190 0.18686 0.33718
C9 C 0.72934(18) 0.3395(3) 0.22312(17)
H6 H 0.78895 0.39238 0.26638
C10 C 0.71817(18) 0.3839(3) 0.11826(17)
H7 H 0.76987 0.46737 0.08939
C11 C 0.63171(18) 0.3064(3) 0.05584(16)
H8 H 0.62444 0.33626 -0.01631
C12 C 0.55550(17) 0.1857(3) 0.09736(14)
H9 H 0.49622 0.13360 0.05343
C13 C 0.54722(16) -0.1388(2) 0.30181(14)
H10 H 0.59168 -0.09372 0.36385
H11 H 0.48935 -0.22552 0.32609
C14 C 0.1824(6) 0.3588(10) 0.1289(6)
C15 C 0.0966(7) 0.4497(12) 0.1840(6)
H12 H 0.08291 0.42442 0.25581
C16 C 0.0308(7) 0.5775(11) 0.1340(9)
H13 H -0.02778 0.63959 0.17168
C17 C 0.0509(8) 0.6144(10) 0.0290(9)
H14 H 0.00592 0.70177 -0.00521
C18 C 0.1366(9) 0.5235(13) -0.0261(6)
H15 H 0.15032 0.54878 -0.09796
C19 C 0.2024(8) 0.3957(11) 0.0238(6)
H16 H 0.26102 0.33360 -0.01382
C20 C 0.1690(8) 0.0131(17) 0.3855(9)
C21 C 0.1554(10) 0.0867(18) 0.4839(9)
H17 H 0.22290 0.09772 0.53016
C22 C 0.0430(13) 0.1441(15) 0.5147(13)
H18 H 0.03370 0.19433 0.58192
C23 C -0.0558(9) 0.1279(14) 0.4470(16)
H19 H -0.13263 0.16711 0.46801
C24 C -0.0422(8) 0.0543(16) 0.3486(14)
H20 H -0.10974 0.04328 0.30234
C25 C 0.0702(10) -0.0030(17) 0.3178(9)
H21 H 0.07946 -0.05332 0.25057
H22? H 0.26818 -0.12819 0.28510
H23? H 0.32754 -0.13197 0.40013
C26? C 0.1802(11) 0.3506(16) 0.1271(11)
C27? C 0.1030(12) 0.4247(17) 0.1988(11)
H24? H 0.10020 0.38300 0.26872
C28? C 0.0298(11) 0.5599(16) 0.1680(16)
H25? H -0.02298 0.61054 0.21692
C29? C 0.0339(13) 0.6209(15) 0.0656(17)
H26? H -0.01615 0.71328 0.04457
C30? C 0.1111(16) 0.547(2) -0.0060(12)
H27? H 0.11386 0.58848 -0.07598
C31? C 0.1843(14) 0.4116(19) 0.0248(10)
H28? H 0.23704 0.36095 -0.02418
C32? C 0.1705(8) 0.0064(18) 0.3930(9)
C33? C 0.1729(11) 0.0654(19) 0.4959(9)
H29? H 0.24592 0.06288 0.53581
C34? C 0.0685(14) 0.1280(16) 0.5406(12)
H30? H 0.07017 0.16823 0.61098
C35? C -0.0383(11) 0.1316(14) 0.4823(15)
H31? H -0.10966 0.17436 0.51278
C36? C -0.0407(8) 0.0727(17) 0.3793(14)
H32? H -0.11375 0.07514 0.33942
C37? C 0.0637(10) 0.0101(18) 0.3346(10)
H33? H 0.06200 -0.03021 0.26426
#END
