
#######################################################################
#
#                 Cambridge Crystallographic Data Centre
#                                CCDC
#
#######################################################################
#
# If this CIF has been generated from an entry in the Cambridge
# Structural Database, then it will include bibliographic, chemical,
# crystal, experimental, refinement or atomic coordinate data resulting
# from the CCDC's data processing and validation procedures.
#
#######################################################################

data_CSD_CIF_RILYIW
_audit_creation_date 2013-11-29
_audit_creation_method CSD-ConQuest-V1
_database_code_CSD RILYIW
_database_code_depnum_ccdc_archive 'CCDC 909198'
_chemical_formula_sum 'C24 H29 N1 O7'
_chemical_formula_moiety
;
C24 H29 N1 O7
;
_journal_coden_Cambridge 469
_journal_volume 76
_journal_year 2013
_journal_page_first 750
_journal_name_full 'J.Nat.Prod. '
loop_
_publ_author_name
"A.Haga"
"H.Tamoto"
"M.Ishino"
"E.Kimura"
"T.Sugita"
"K.Kinoshita"
"K.Takahashi"
"M.Shiro"
"K.Koyama"
_chemical_name_systematic
;
3-((2,6-Dimethyl-1,2,4a,5,6,7,8,8a-octahydronaphthalen-1-yl)carbonyl)-1,4-dihy
droxy-5-(2-hydroxy-5-oxo-7-oxabicyclo[4.1.0]hept-2-yl)pyridin-2(1H)-one
;
_chemical_name_common
;
Didymellamide A
;
_cell_volume   2199.536
_exptl_crystal_colour 'colorless'
_exptl_crystal_density_diffrn 1.339
_exptl_special_details
;
Absolute configuration

;
_exptl_crystal_description 'platelet'
_diffrn_ambient_temperature 153
#These two values have been output from a single CSD field.
_refine_ls_R_factor_gt 0.0518
_refine_ls_wR_factor_gt 0.0518
_chemical_compound_source
;
Stagonosporopsis cucurbitacearum
;
_symmetry_cell_setting monoclinic
_symmetry_space_group_name_H-M 'P 21'
_symmetry_Int_Tables_number 4
loop_
_symmetry_equiv_pos_site_id
_symmetry_equiv_pos_as_xyz
1 x,y,z
2 -x,1/2+y,-z
_cell_length_a 7.5649(7)
_cell_length_b 9.7850(11)
_cell_length_c 29.716(3)
_cell_angle_alpha 90
_cell_angle_beta 90.594(7)
_cell_angle_gamma 90
_cell_formula_units_Z 4
loop_
_atom_type_symbol
_atom_type_radius_bond
C 0.68
H 0.23
N 0.68
O 0.68
loop_
_atom_site_label
_atom_site_type_symbol
_atom_site_fract_x
_atom_site_fract_y
_atom_site_fract_z
O1 O 1.1434(3) 0.3253(3) 0.21472(5)
O2 O 1.2558(2) 0.4538(2) 0.28750(5)
O3 O 0.8255(2) 0.20969(19) 0.37272(5)
O4 O 1.0026(3) 0.38043(19) 0.41199(6)
O5 O 0.7128(3) -0.0006(2) 0.25161(6)
O6 O 0.6774(3) -0.0653(2) 0.36884(6)
O7 O 0.3907(3) -0.2415(3) 0.29365(6)
N1 N 1.0721(3) 0.2978(3) 0.25664(6)
C1 C 1.1346(3) 0.3714(3) 0.29349(8)
C2 C 1.0447(3) 0.3406(3) 0.33510(8)
C3 C 0.9085(3) 0.2423(3) 0.33553(7)
C4 C 0.8548(3) 0.1724(3) 0.29564(8)
C5 C 0.9412(3) 0.2046(3) 0.25741(8)
C6 C 1.0896(3) 0.4100(3) 0.37766(8)
C7 C 1.2394(3) 0.5112(3) 0.38318(7)
C8 C 1.1981(3) 0.6213(3) 0.41826(8)
C9 C 1.0280(3) 0.6995(3) 0.40706(8)
C10 C 0.9953(3) 0.8154(3) 0.44066(8)
C11 C 1.1502(4) 0.9129(3) 0.44518(8)
C12 C 1.3184(4) 0.8339(3) 0.45600(8)
C13 C 1.3511(3) 0.7228(3) 0.42099(8)
C14 C 1.5233(3) 0.6494(4) 0.42730(9)
C15 C 1.5488(3) 0.5198(3) 0.41520(9)
C16 C 1.4117(3) 0.4287(3) 0.39490(8)
C17 C 1.3851(4) 0.3049(3) 0.42576(10)
C18 C 1.1134(4) 1.0249(3) 0.47959(9)
C19 C 0.7142(3) 0.0592(3) 0.29546(8)
C20 C 0.7681(4) -0.0548(3) 0.32728(9)
C21 C 0.6361(4) -0.1657(4) 0.33464(8)
C22 C 0.4641(4) -0.1450(3) 0.31184(8)
C23 C 0.3905(4) -0.0027(3) 0.31305(8)
C24 C 0.5298(3) 0.1139(3) 0.30759(8)
H1 H 1.25410 0.32850 0.21690
H2 H 0.86760 0.25500 0.39430
H3 H 0.61500 0.01470 0.23900
H4 H 0.90830 0.16000 0.23020
H5 H 1.25720 0.55760 0.35360
H6 H 1.18480 0.57640 0.44830
H7 H 0.92670 0.63550 0.40740
H8 H 1.03630 0.73810 0.37640
H9 H 0.88940 0.86740 0.43090
H10 H 0.97030 0.77530 0.47050
H11 H 1.16650 0.95810 0.41530
H12 H 1.30850 0.79150 0.48610
H13 H 1.42010 0.89760 0.45680
H14 H 1.35640 0.76950 0.39110
H15 H 1.61940 0.69780 0.44060
H16 H 1.66340 0.48250 0.41990
H17 H 1.45990 0.39370 0.36590
H18 H 1.30930 0.23770 0.41050
H19 H 1.32910 0.33450 0.45370
H20 H 1.50000 0.26330 0.43280
H21 H 1.09370 0.98330 0.50910
H22 H 1.00790 1.07620 0.47030
H23 H 1.21490 1.08690 0.48140
H24 H 0.89550 -0.08210 0.32740
H25 H 0.68000 -0.26130 0.33890
H26 H 0.32950 0.01030 0.34200
H27 H 0.30080 0.00630 0.28880
H28 H 0.48900 0.17740 0.28370
H29 H 0.53850 0.16610 0.33610
O8 O 0.6087(3) 0.4586(3) 0.28579(5)
O9 O 0.4971(3) 0.3348(3) 0.21150(5)
O10 O 0.9460(3) 0.5731(3) 0.13077(5)
O11 O 0.7430(3) 0.4307(3) 0.08769(6)
O12 O 1.0590(3) 0.7780(3) 0.25274(6)
O13 O 1.2828(3) 0.7047(2) 0.14922(6)
O14 O 1.3962(3) 1.0108(3) 0.20814(6)
N2 N 0.6786(3) 0.4910(3) 0.24410(6)
C25 C 0.6194(3) 0.4175(3) 0.20653(8)
C26 C 0.7122(3) 0.4505(3) 0.16575(8)
C27 C 0.8538(3) 0.5449(3) 0.16693(8)
C28 C 0.9029(3) 0.6144(3) 0.20716(8)
C29 C 0.8106(3) 0.5837(3) 0.24464(8)
C30 C 0.6635(4) 0.3906(3) 0.12168(8)
C31 C 0.5318(4) 0.2758(4) 0.11567(8)
C32 C 0.4406(4) 0.2809(3) 0.06907(8)
C33 C 0.3460(4) 0.4165(4) 0.05957(10)
C34 C 0.2590(4) 0.4144(4) 0.01253(10)
C35 C 0.1330(4) 0.2939(4) 0.00619(9)
C36 C 0.2243(4) 0.1598(4) 0.01818(9)
C37 C 0.3075(4) 0.1627(4) 0.06530(9)
C38 C 0.3894(4) 0.0292(4) 0.07889(9)
C39 C 0.5326(4) 0.0183(4) 0.10472(9)
C40 C 0.6343(4) 0.1390(4) 0.12341(9)
C41 C 0.8197(4) 0.1373(4) 0.10371(11)
C42 C 0.0573(5) 0.2888(5) -0.04173(10)
C43 C 1.0438(4) 0.7278(3) 0.20793(8)
C44 C 1.2250(4) 0.6750(4) 0.19359(9)
C45 C 1.3623(4) 0.7803(4) 0.18640(9)
C46 C 1.3032(4) 0.9223(4) 0.19006(8)
C47 C 1.1252(4) 0.9576(4) 0.17206(12)
C48 C 0.9851(4) 0.8449(3) 0.17778(9)
H30 H 0.49810 0.45370 0.28360
H31 H 0.90480 0.52920 0.10880
H32 H 1.15330 0.74910 0.26450
H33 H 0.83970 0.62860 0.27210
H34 H 0.43940 0.28450 0.13930
H35 H 0.53280 0.26760 0.04560
H36 H 0.43210 0.49250 0.06140
H37 H 0.25450 0.43220 0.08260
H38 H 0.19290 0.50070 0.00780
H39 H 0.35250 0.40960 -0.01050
H40 H 0.03220 0.30650 0.02730
H41 H 0.31750 0.14100 -0.00410
H42 H 0.13700 0.08460 0.01650
H43 H 0.21040 0.18200 0.08700
H44 H 0.33530 -0.05260 0.06840
H45 H 0.57400 -0.07080 0.11190
H46 H 0.64660 0.12530 0.15660
H47 H 0.89450 0.20300 0.11990
H48 H 0.81350 0.16230 0.07180
H49 H 0.87020 0.04550 0.10680
H50 H 0.15430 0.28360 -0.06330
H51 H -0.01250 0.37140 -0.04760
H52 H -0.01850 0.20810 -0.04510
H53 H 1.26510 0.58640 0.20700
H54 H 1.48690 0.75830 0.19530
H55 H 1.13550 0.97890 0.13960
H56 H 1.08350 1.04140 0.18730
H57 H 0.87710 0.88620 0.19050
H58 H 0.95390 0.80780 0.14770
#END
