
#######################################################################
#
#                 Cambridge Crystallographic Data Centre
#                                CCDC
#
#######################################################################
#
# If this CIF has been generated from an entry in the Cambridge
# Structural Database, then it will include bibliographic, chemical,
# crystal, experimental, refinement or atomic coordinate data resulting
# from the CCDC's data processing and validation procedures.
#
#######################################################################

data_CSD_CIF_RIMHUQ
_audit_creation_date 1997-11-11
_audit_creation_method CSD-ConQuest-V1
_database_code_CSD RIMHUQ
_chemical_formula_sum 'C23 H25 N3 O1'
_chemical_formula_moiety
;
C23 H25 N3 O1
;
_journal_coden_Cambridge 41
_journal_volume 42
_journal_year 1997
_journal_page_first 442
_journal_name_full 'Kristallografiya(Russ.)(Crystallogr.Rep.) '
loop_
_publ_author_name
"V.I.Sokol"
"V.V.Davydov"
"Yu.V.Shklyayev"
"I.V.Kartashova"
"V.S.Sergienko"
"B.E.Zaitsev"
_chemical_name_systematic
;
bis(3,3-Dimethyl-3,4-dihydroisoquinolyl)ketonoxime
;
_cell_volume   2020.074
_exptl_crystal_density_diffrn 1.18
_diffrn_ambient_temperature ?
_diffrn_special_details
;
The study was carried out at room temperature,in the range 283-303K

;
#These two values have been output from a single CSD field.
_refine_ls_R_factor_gt 0.043
_refine_ls_wR_factor_gt 0.043
_symmetry_cell_setting monoclinic
_symmetry_space_group_name_H-M 'P n'
_symmetry_Int_Tables_number 7
loop_
_symmetry_equiv_pos_site_id
_symmetry_equiv_pos_as_xyz
1 x,y,z
2 1/2+x,-y,1/2+z
_cell_length_a 10.327(4)
_cell_length_b 9.070(5)
_cell_length_c 21.62(1)
_cell_angle_alpha 90
_cell_angle_beta 94.02(3)
_cell_angle_gamma 90
_cell_formula_units_Z 4
loop_
_atom_type_symbol
_atom_type_radius_bond
C 0.68
H 0.25
N 0.66
O 0.68
loop_
_atom_site_label
_atom_site_type_symbol
_atom_site_fract_x
_atom_site_fract_y
_atom_site_fract_z
O1 O 0.7809(7) 0.352(1) 0.4113(4)
N1 N 0.586(1) -0.080(1) 0.3469(6)
N2 N 0.6982(8) 0.243(1) 0.4290(5)
N3 N 0.8678(9) 0.040(1) 0.3322(4)
C1 C 0.606(1) 0.007(1) 0.3938(6)
C2 C 0.558(1) -0.023(2) 0.4545(6)
C3 C 0.617(2) 0.033(2) 0.5123(8)
C4 C 0.559(2) 0.013(2) 0.5681(8)
C5 C 0.442(1) -0.065(2) 0.5695(7)
C6 C 0.385(1) -0.124(2) 0.5134(9)
C7 C 0.469(2) -0.123(3) 0.459(1)
C8 C 0.424(1) -0.152(2) 0.3913(8)
C9 C 0.507(1) -0.197(2) 0.3429(7)
C10 C 0.580(1) -0.325(2) 0.3674(7)
C11 C 0.428(2) -0.228(2) 0.2844(8)
C12 C 0.701(1) 0.133(2) 0.3919(6)
C13 C 0.777(1) 0.124(1) 0.3330(6)
C14 C 0.747(1) 0.230(2) 0.2829(7)
C15 C 0.627(1) 0.307(2) 0.2753(8)
C16 C 0.604(2) 0.403(2) 0.2314(9)
C17 C 0.687(1) 0.415(2) 0.1853(7)
C18 C 0.821(2) 0.336(1) 0.1876(6)
C19 C 0.850(1) 0.240(1) 0.2384(6)
C20 C 0.969(1) 0.164(2) 0.2511(7)
C21 C 0.944(1) 0.020(1) 0.2814(6)
C22 C 0.869(2) -0.091(2) 0.2393(7)
C23 C 1.071(1) -0.063(2) 0.2952(7)
H1 H 0.78(1) 0.43(1) 0.463(7)
O2 O 0.8727(9) 0.846(1) 0.4308(5)
N4 N 0.792(1) 0.525(1) 0.5087(5)
N5 N 0.962(1) 0.731(1) 0.4215(5)
N6 N 1.0840(9) 0.443(1) 0.5020(5)
C24 C 0.883(1) 0.635(1) 0.5138(5)
C25 C 0.916(1) 0.733(1) 0.5659(5)
C26 C 1.026(1) 0.816(1) 0.5673(5)
C27 C 1.054(1) 0.909(2) 0.6212(6)
C28 C 0.960(2) 0.929(2) 0.6652(8)
C29 C 0.849(2) 0.850(2) 0.6546(7)
C30 C 0.838(1) 0.751(1) 0.6116(6)
C31 C 0.728(1) 0.652(1) 0.6036(5)
C32 C 0.720(1) 0.513(1) 0.5657(6)
C33 C 0.5810(9) 0.470(1) 0.5416(6)
C34 C 0.796(1) 0.402(1) 0.6110(6)
C35 C 0.967(1) 0.631(1) 0.4611(5)
C36 C 1.054(1) 0.507(2) 0.4501(6)
C37 C 1.123(1) 0.479(1) 0.3945(6)
C38 C 1.072(1) 0.523(1) 0.3337(6)
C39 C 1.138(1) 0.491(1) 0.2817(6)
C40 C 1.253(2) 0.400(2) 0.295(1)
C41 C 1.314(2) 0.352(2) 0.3459(8)
C42 C 1.240(1) 0.397(1) 0.3973(6)
C43 C 1.278(1) 0.324(2) 0.4473(8)
C44 C 1.178(1) 0.327(1) 0.4909(6)
C45 C 1.211(2) 0.274(2) 0.5585(8)
C46 C 1.101(1) 0.186(2) 0.4777(7)
H2 H 0.90(1) 0.94(2) 0.412(7)
#END
