
#######################################################################
#
#                 Cambridge Crystallographic Data Centre
#                                CCDC
#
#######################################################################
#
# If this CIF has been generated from an entry in the Cambridge
# Structural Database, then it will include bibliographic, chemical,
# crystal, experimental, refinement or atomic coordinate data resulting
# from the CCDC's data processing and validation procedures.
#
#######################################################################

data_CSD_CIF_RIMSAJ
_audit_creation_date 2013-11-29
_audit_creation_method CSD-ConQuest-V1
_database_code_CSD RIMSAJ
_database_code_depnum_ccdc_archive 'CCDC 922841'
_chemical_formula_sum 'C29 H30 N4 O7'
_chemical_formula_moiety
;
C29 H30 N4 O7
;
_journal_coden_Cambridge 469
_journal_volume 76
_journal_year 2013
_journal_page_first 1133
_journal_name_full 'J.Nat.Prod. '
loop_
_publ_author_name
"Jixing Peng"
"Tao Lin"
"Wei Wang"
"Zhihong Xin"
"Tianjiao Zhu"
"Qianqun Gu"
"Dehai Li"
_chemical_name_systematic
;
1-(3-(1'-Hydroxy-2',2'-dimethyl-3',5-dioxo-1',2',3',4,5,9a'-hexahydro-3H-spiro
[furan-2,9'-imidazo[1,2-a]indol]-4-yl)-4-oxo-3,4-dihydroquinazolin-2-yl)-2-met
hylpropyl acetate
;
_chemical_name_common
;
Tryptoquivaline
;
_cell_volume   2764.081
_exptl_crystal_density_diffrn 1.313
_exptl_special_details
;
Absolute configuration

;
_diffrn_ambient_temperature 290
#These two values have been output from a single CSD field.
_refine_ls_R_factor_gt 0.0281
_refine_ls_wR_factor_gt 0.0281
_chemical_compound_source
;
culture of the mangrove-derived fungus Cladosporium sp. PJX-41
;
_symmetry_cell_setting orthorhombic
_symmetry_space_group_name_H-M 'P 21 21 21'
_symmetry_Int_Tables_number 19
loop_
_symmetry_equiv_pos_site_id
_symmetry_equiv_pos_as_xyz
1 x,y,z
2 1/2-x,-y,1/2+z
3 1/2+x,1/2-y,-z
4 -x,1/2+y,1/2-z
_cell_length_a 9.5810(1)
_cell_length_b 10.9360(1)
_cell_length_c 26.3804(2)
_cell_angle_alpha 90
_cell_angle_beta 90
_cell_angle_gamma 90
_cell_formula_units_Z 4
loop_
_atom_type_symbol
_atom_type_radius_bond
C 0.68
H 0.23
N 0.68
O 0.68
loop_
_atom_site_label
_atom_site_type_symbol
_atom_site_fract_x
_atom_site_fract_y
_atom_site_fract_z
O1 O 0.64631(8) 0.01742(8) 0.61319(3)
O2 O -0.02728(10) 0.30646(12) 0.77465(4)
H1 H 0.02990 0.33510 0.75480
O3 O 0.31779(9) 0.27282(8) 0.80423(3)
O4 O 0.46040(11) 0.37441(9) 0.75203(4)
N1 N 0.37093(10) 0.19422(10) 0.67715(3)
N2 N 0.03804(11) 0.28629(11) 0.82297(4)
O5 O 0.18707(10) 0.31239(10) 0.70077(3)
O6 O 0.46352(13) -0.10911(11) 0.61555(5)
N3 N 0.43953(11) 0.17136(10) 0.59160(4)
N4 N 0.09496(11) 0.13505(11) 0.87806(4)
O7 O -0.00565(13) 0.21930(15) 0.94886(4)
C1 C 0.70524(13) 0.16257(12) 0.67695(5)
H2 H 0.66330 0.21640 0.70240
C2 C 0.09805(13) 0.16358(12) 0.82416(5)
H3 H 0.03970 0.10620 0.80510
C3 C 0.23340(12) 0.29182(11) 0.61257(4)
C4 C 0.39437(13) 0.28452(11) 0.76182(4)
C5 C 0.32362(13) 0.23904(11) 0.57733(4)
C6 C 0.46017(12) 0.15171(11) 0.63900(4)
C7 C 0.57155(15) -0.07982(12) 0.59678(5)
C8 C 0.38969(13) 0.16657(11) 0.73127(4)
H4 H 0.47860 0.12360 0.73560
C9 C 0.27479(13) 0.09104(11) 0.75578(4)
H5 H 0.30310 0.00630 0.75940
H6 H 0.18960 0.09450 0.73590
C10 C -0.07184(14) 0.28646(15) 0.86302(6)
C11 C 0.3973(2) 0.00828(15) 0.94865(6)
H7 H 0.42550 -0.01930 0.98040
C12 C 0.58874(12) 0.08121(11) 0.65566(4)
H8 H 0.56150 0.02160 0.68160
C13 C 0.25748(13) 0.26996(11) 0.66610(5)
C14 C 0.45379(15) 0.05063(14) 0.86118(6)
H9 H 0.51740 0.05100 0.83460
C15 C 0.31823(14) 0.08948(11) 0.85385(5)
C16 C 0.00626(15) 0.21339(15) 0.90347(6)
C17 C 0.29866(16) 0.25878(15) 0.52542(5)
H10 H 0.35650 0.22290 0.50130
C18 C 0.81274(17) 0.08280(16) 0.70386(7)
H11 H 0.76910 0.04120 0.73170
H12 H 0.88720 0.13320 0.71630
H13 H 0.84950 0.02380 0.68050
C19 C 0.49352(18) 0.01085(15) 0.90915(6)
H14 H 0.58490 -0.01420 0.91490
C20 C 0.22392(14) 0.08692(12) 0.89384(5)
C21 C 0.77175(18) 0.24305(16) 0.63702(7)
H15 H 0.82210 0.19310 0.61330
H16 H 0.83490 0.29930 0.65300
H17 H 0.70040 0.28780 0.61940
C22 C 0.12258(14) 0.36644(13) 0.59666(5)
H18 H 0.06360 0.40220 0.62040
C23 C 0.25407(13) 0.15151(11) 0.80816(4)
C24 C 0.18911(18) 0.33083(17) 0.51033(6)
H19 H 0.17260 0.34310 0.47600
C25 C 0.26102(17) 0.04578(15) 0.94173(5)
H20 H 0.19670 0.04350 0.96810
C26 C 0.10190(16) 0.38615(15) 0.54621(6)
H21 H 0.02950 0.43660 0.53560
C27 C -0.20588(15) 0.21813(19) 0.84854(7)
H22 H -0.25080 0.25970 0.82100
H23 H -0.26760 0.21570 0.87720
H24 H -0.18310 0.13620 0.83840
C28 C 0.6443(2) -0.14029(17) 0.55343(6)
H25 H 0.60610 -0.22050 0.54840
H26 H 0.74210 -0.14680 0.56080
H27 H 0.63150 -0.09240 0.52330
C29 C -0.1018(2) 0.41615(18) 0.88020(7)
H28 H -0.01660 0.45430 0.89100
H29 H -0.16680 0.41450 0.90790
H30 H -0.14120 0.46180 0.85260
#END
