
#######################################################################
#
#                 Cambridge Crystallographic Data Centre
#                                CCDC
#
#######################################################################
#
# If this CIF has been generated from an entry in the Cambridge
# Structural Database, then it will include bibliographic, chemical,
# crystal, experimental, refinement or atomic coordinate data resulting
# from the CCDC's data processing and validation procedures.
#
#######################################################################

data_CSD_CIF_RINWUG
_audit_creation_date 1997-11-21
_audit_creation_method CSD-ConQuest-V1
_database_code_CSD RINWUG
_chemical_formula_sum 'C11 H8 N4 O4'
_chemical_formula_moiety
;
C11 H8 N4 O4
;
_journal_coden_Cambridge 95
_journal_year 1996
_journal_page_first 2263
_journal_name_full 'Izv.Akad.Nauk SSSR,Ser.Khim.(Russ.)(Russ.Chem.Bull.) '
loop_
_publ_author_name
"S.M.Aldoshin"
"L.A.Nikonova"
"E.G.Atovmyan"
"A.N.Utenyshev"
"D.B.Frolov"
_chemical_name_systematic
;
N'-(5-Nitrofurfurylidene) isonicotinohydrazide
;
_cell_volume   1112.216
_exptl_crystal_colour 'red'
_exptl_crystal_density_diffrn 1.552
_exptl_special_details
;
The unit cell lengths have been interchanged: a to c, b to a and c to b

;
_diffrn_ambient_temperature ?
_diffrn_special_details
;
The study was carried out at room temperature,in the range 283-303K

;
#These two values have been output from a single CSD field.
_refine_ls_R_factor_gt 0.058
_refine_ls_wR_factor_gt 0.058
_symmetry_cell_setting monoclinic
_symmetry_space_group_name_H-M 'P 21/n'
_symmetry_Int_Tables_number 14
loop_
_symmetry_equiv_pos_site_id
_symmetry_equiv_pos_as_xyz
1 x,y,z
2 1/2-x,1/2+y,1/2-z
3 -x,-y,-z
4 -1/2+x,-1/2-y,-1/2+z
_cell_length_a 7.518(1)
_cell_length_b 10.864(2)
_cell_length_c 13.735(3)
_cell_angle_alpha 90
_cell_angle_beta 97.5(2)
_cell_angle_gamma 90
_cell_formula_units_Z 4
loop_
_atom_type_symbol
_atom_type_radius_bond
C 0.68
H 0.23
N 0.68
O 0.67
loop_
_atom_site_label
_atom_site_type_symbol
_atom_site_fract_x
_atom_site_fract_y
_atom_site_fract_z
O1 O 0.0448(5) 0.2191(3) 0.9538(2)
O2 O 0.1319(4) 0.5774(2) 0.7877(2)
O3 O -0.0341(7) 0.5264(3) 0.6125(3)
O4 O 0.0229(5) 0.7215(3) 0.5645(2)
N1 N 0.1954(5) 0.3750(3) 1.0371(2)
N2 N 0.1807(5) 0.4443(3) 0.9528(2)
N3 N 0.1727(5) 0.0265(3) 1.2851(2)
N4 N 0.0347(6) 0.6383(4) 0.6257(3)
C1 C 0.1219(6) 0.2607(4) 1.0306(3)
C2 C 0.1422(5) 0.1854(3) 1.1229(3)
C3 C 0.0384(6) 0.0784(4) 1.1221(3)
C4 C 0.0589(6) 0.0040(4) 1.2041(3)
C5 C 0.2717(7) 0.1300(4) 1.2849(3)
C6 C 0.2583(6) 0.2103(4) 1.2064(3)
C7 C 0.2569(6) 0.5493(3) 0.9564(3)
C8 C 0.2396(6) 0.6234(3) 0.8689(3)
C9 C 0.3067(6) 0.7345(4) 0.8469(3)
C10 C 0.2410(7) 0.7617(4) 0.7480(3)
C11 C 0.1380(6) 0.6649(4) 0.7175(3)
H1 H -0.037(6) 0.054(4) 1.067(3)
H2 H -0.003(6) -0.076(4) 1.199(3)
H3 H 0.351(7) 0.146(4) 1.350(4)
H4 H 0.323(6) 0.284(4) 1.218(3)
H5 H 0.321(5) 0.587(3) 1.009(3)
H6 H 0.386(6) 0.790(4) 0.892(3)
H7 H 0.264(6) 0.837(4) 0.714(3)
H8 H 0.235(5) 0.407(3) 1.086(3)
#END
