
#######################################################################
#
#                 Cambridge Crystallographic Data Centre
#                                CCDC
#
#######################################################################
#
# If this CIF has been generated from an entry in the Cambridge
# Structural Database, then it will include bibliographic, chemical,
# crystal, experimental, refinement or atomic coordinate data resulting
# from the CCDC's data processing and validation procedures.
#
#######################################################################

data_CSD_CIF_RIPWOD
_audit_creation_date 2008-03-06
_audit_creation_method CSD-ConQuest-V1
_database_code_CSD RIPWOD
_database_code_depnum_ccdc_archive 'CCDC 668292'
_chemical_formula_sum 'C14 H13 N1 O3'
_chemical_formula_moiety
;
C14 H13 N1 O3
;
_journal_coden_Cambridge 35
_journal_volume 72
_journal_year 2007
_journal_page_first 8459
_journal_name_full 'J.Org.Chem. '
loop_
_publ_author_name
"Bor-Cherng Hong"
"Ming-Fun Wu"
"Hsing-Chang Tseng"
"Guo-Fong Huang"
"Cheng-Feng Su"
"Ju-Hsiou Liao"
_chemical_name_systematic
;
4-methyl-6-(2-nitrophenyl)cyclohexa-1,3-dienecarbaldehyde
;
_cell_volume   2480.807
_exptl_crystal_colour 'brown'
_exptl_crystal_density_diffrn 1.303
_exptl_crystal_description 'rod'
_diffrn_ambient_temperature 294
#These two values have been output from a single CSD field.
_refine_ls_R_factor_gt 0.1066
_refine_ls_wR_factor_gt 0.1066
_symmetry_cell_setting orthorhombic
_symmetry_space_group_name_H-M 'P b c a'
_symmetry_Int_Tables_number 61
loop_
_symmetry_equiv_pos_site_id
_symmetry_equiv_pos_as_xyz
1 x,y,z
2 1/2-x,-y,1/2+z
3 -x,1/2+y,1/2-z
4 1/2+x,1/2-y,-z
5 -x,-y,-z
6 -1/2+x,y,-1/2-z
7 x,-1/2-y,-1/2+z
8 -1/2-x,-1/2+y,z
_cell_length_a 8.4574(13)
_cell_length_b 15.167(2)
_cell_length_c 19.340(3)
_cell_angle_alpha 90
_cell_angle_beta 90
_cell_angle_gamma 90
_cell_formula_units_Z 8
loop_
_atom_type_symbol
_atom_type_radius_bond
C 0.68
H 0.23
N 0.68
O 0.68
loop_
_atom_site_label
_atom_site_type_symbol
_atom_site_fract_x
_atom_site_fract_y
_atom_site_fract_z
O1 O 1.1609(4) 0.5279(3) 0.73293(17)
O2 O 0.9738(4) 0.4756(2) 0.67070(18)
O3 O 1.1107(4) 0.6375(2) 0.48324(16)
N1 N 1.0441(5) 0.5377(3) 0.69585(18)
C1 C 0.8931(4) 0.6494(2) 0.62702(19)
C2 C 0.8403(5) 0.7356(2) 0.6251(2)
H1 H 0.77650 0.75310 0.58840
C3 C 0.8779(6) 0.7968(3) 0.6752(2)
H2 H 0.83670 0.85350 0.67270
C4 C 0.9759(6) 0.7742(3) 0.7287(2)
H3 H 1.00490 0.81590 0.76160
C5 C 1.0303(6) 0.6898(3) 0.7331(2)
H4 H 1.09660 0.67360 0.76940
C6 C 0.9873(5) 0.6283(3) 0.68397(19)
C7 C 0.8474(4) 0.5853(2) 0.56941(19)
H5 H 0.93150 0.54110 0.56590
C8 C 0.6928(5) 0.5363(2) 0.5866(2)
H6 H 0.69530 0.47900 0.56440
H7 H 0.68830 0.52670 0.63610
C9 C 0.5449(5) 0.5831(3) 0.5646(2)
C10 C 0.5492(5) 0.6365(3) 0.5103(2)
H8 H 0.45630 0.66290 0.49510
C11 C 0.6939(6) 0.6539(3) 0.4748(2)
H9 H 0.69020 0.68270 0.43240
C12 C 0.8347(5) 0.6303(2) 0.50036(18)
C13 C 0.3975(5) 0.5614(3) 0.6036(2)
H10 H 0.30710 0.58050 0.57760
H11 H 0.39890 0.59090 0.64750
H12 H 0.39170 0.49890 0.61080
C14 C 0.9775(6) 0.6524(3) 0.4627(2)
H13 H 0.96650 0.67980 0.42000
#END
