
#######################################################################
#
#                 Cambridge Crystallographic Data Centre
#                                CCDC
#
#######################################################################
#
# If this CIF has been generated from an entry in the Cambridge
# Structural Database, then it will include bibliographic, chemical,
# crystal, experimental, refinement or atomic coordinate data resulting
# from the CCDC's data processing and validation procedures.
#
#######################################################################

data_CSD_CIF_RIRGAA
_audit_creation_date 1997-11-21
_audit_creation_method CSD-ConQuest-V1
_database_code_CSD RIRGAA
_database_code_depnum_ccdc_archive 'CCDC 1250456'
_chemical_formula_sum 'C4 H2 N6 O2'
_chemical_formula_moiety
;
C4 H2 N6 O2
;
_journal_coden_Cambridge 122
_journal_year 1997
_journal_page_first 250
_journal_name_full 'Khim.Get.Soedin.,SSSR(Russ.)(Chem.Heterocycl.Compd.) '
loop_
_publ_author_name
"I.B.Starchenkov"
"V.G.Andrianov"
"A.F.Mishnev"
_chemical_name_systematic
;
4,8-Dihydrodifurazano(3,4-b,e)pyrazine
;
_cell_volume    276.602
_exptl_crystal_density_diffrn 2.008
_diffrn_ambient_temperature ?
_diffrn_special_details
;
The study was carried out at room temperature,in the range 283-303K

;
#These two values have been output from a single CSD field.
_refine_ls_R_factor_gt 0.098
_refine_ls_wR_factor_gt 0.098
_symmetry_cell_setting monoclinic
_symmetry_space_group_name_H-M 'P c'
_symmetry_Int_Tables_number 7
loop_
_symmetry_equiv_pos_site_id
_symmetry_equiv_pos_as_xyz
1 x,y,z
2 x,-y,1/2+z
_cell_length_a 5.178(1)
_cell_length_b 4.544(1)
_cell_length_c 12.757(1)
_cell_angle_alpha 90
_cell_angle_beta 112.85(1)
_cell_angle_gamma 90
_cell_formula_units_Z 2
loop_
_atom_type_symbol
_atom_type_radius_bond
C 0.68
N 0.68
O 0.68
loop_
_atom_site_label
_atom_site_type_symbol
_atom_site_fract_x
_atom_site_fract_y
_atom_site_fract_z
N1 N 1.00000 0.84900 0.41670
C1 C 0.80170 0.64990 0.37890
N2 N 0.71130 0.50000 0.27690
O1 O 0.51850 0.28890 0.28730
N3 N 0.48110 0.32130 0.39090
C2 C 0.64330 0.52220 0.43770
N4 N 0.69110 0.63670 0.55300
C3 C 0.89010 0.86810 0.58720
N5 N 0.95840 1.00830 0.67610
O2 O 1.17350 1.19550 0.67770
N6 N 1.22220 1.17280 0.57750
C4 C 1.04180 0.95350 0.51400
#END
