
#######################################################################
#
#                 Cambridge Crystallographic Data Centre
#                                CCDC
#
#######################################################################
#
# If this CIF has been generated from an entry in the Cambridge
# Structural Database, then it will include bibliographic, chemical,
# crystal, experimental, refinement or atomic coordinate data resulting
# from the CCDC's data processing and validation procedures.
#
#######################################################################

data_CSD_CIF_RIRRIT
_audit_creation_date 1997-11-21
_audit_creation_method CSD-ConQuest-V1
_database_code_CSD RIRRIT
_database_code_depnum_ccdc_archive 'CCDC 122514'
_chemical_formula_sum 'C31 H26 N4 O3'
_chemical_formula_moiety
;
C31 H26 N4 O3
;
_journal_coden_Cambridge 35
_journal_volume 62
_journal_year 1997
_journal_page_first 5619
_journal_name_full 'J.Org.Chem. '
loop_
_publ_author_name
"M.Gdaniec"
"M.Pham"
"T.Polonski"
_chemical_name_systematic
;
N,N'-Dinitroso-2,4,6,8-tetraphenyl-3,7-diazabicyclo(3.3.1)nonan-9-one
;
_chemical_melting_point 441.15
_cell_volume   5054.488
_exptl_crystal_colour 'yellow'
_exptl_crystal_density_diffrn 1.321
_exptl_special_details
;
Melts with decomposition.

;
_diffrn_ambient_temperature ?
_diffrn_special_details
;
The study was carried out at room temperature,in the range 283-303K

;
_refine_special_details
;
The nitroso groups are disordered.

;
#These two values have been output from a single CSD field.
_refine_ls_R_factor_gt 0.0433
_refine_ls_wR_factor_gt 0.0433
_symmetry_cell_setting monoclinic
_symmetry_space_group_name_H-M 'P 21/n'
_symmetry_Int_Tables_number 14
loop_
_symmetry_equiv_pos_site_id
_symmetry_equiv_pos_as_xyz
1 x,y,z
2 1/2-x,1/2+y,1/2-z
3 -x,-y,-z
4 -1/2+x,-1/2-y,-1/2+z
_cell_length_a 11.403(2)
_cell_length_b 13.875(3)
_cell_length_c 31.948(6)
_cell_angle_alpha 90
_cell_angle_beta 90.53(3)
_cell_angle_gamma 90
_cell_formula_units_Z 8
loop_
_atom_type_symbol
_atom_type_radius_bond
C 0.68
H 0.23
N 0.68
O 0.68
loop_
_atom_site_label
_atom_site_type_symbol
_atom_site_fract_x
_atom_site_fract_y
_atom_site_fract_z
N1 N 0.3937(5) 0.1284(3) 0.26027(10)
N2? N 0.4026(21) 0.0988(9) 0.2585(4)
O1 O 0.3414(2) 0.0606(2) 0.24395(7)
O2? O 0.3591(9) 0.1748(7) 0.2458(2)
N3 N 0.7510(5) 0.0531(3) 0.3192(2)
N4? N 0.7565(25) 0.0769(7) 0.3202(11)
O3 O 0.8066(2) 0.1233(2) 0.30704(7)
O4? O 0.7937(7) -0.0035(7) 0.3106(3)
O5 O 0.37830(13) 0.10007(11) 0.41383(4)
C1 C 0.5073(2) 0.1812(2) 0.36619(6)
H1 H 0.4903(2) 0.2363(2) 0.38324(6)
C2 C 0.4443(2) 0.1956(2) 0.32329(6)
H2 H 0.3633(2) 0.2079(2) 0.32919(6)
N5 N 0.4463(2) 0.10540(13) 0.29778(5)
C3 C 0.4180(2) 0.0123(2) 0.31805(6)
H3 H 0.3348(2) 0.0126(2) 0.32221(6)
C4 C 0.4760(2) 0.0037(2) 0.36236(6)
H4 H 0.4388(2) -0.0486(2) 0.37671(6)
C5 C 0.6085(2) -0.01238(15) 0.36407(6)
H5 H 0.6259(2) -0.06541(15) 0.34586(6)
N6 N 0.66703(14) 0.07296(12) 0.34729(5)
C6 C 0.6405(2) 0.17046(15) 0.36371(6)
H6 H 0.6680(2) 0.21600(15) 0.34341(6)
C7 C 0.4470(2) 0.0953(2) 0.38563(6)
C8 C 0.4881(2) 0.2833(2) 0.29992(6)
C9 C 0.4317(2) 0.3696(2) 0.30677(8)
H7 H 0.3618(2) 0.3702(2) 0.32327(8)
C10 C 0.4725(3) 0.4554(2) 0.28938(9)
H8 H 0.4342(3) 0.5156(2) 0.29487(9)
C11 C 0.5708(3) 0.4535(2) 0.26507(9)
H9 H 0.6013(3) 0.5119(2) 0.25335(9)
C12 C 0.6255(2) 0.3679(2) 0.25728(8)
H10 H 0.6926(2) 0.3668(2) 0.23934(8)
C13 C 0.5853(2) 0.2819(2) 0.27450(7)
H11 H 0.6254(2) 0.2224(2) 0.26904(7)
C14 C 0.4443(2) -0.0746(2) 0.29087(6)
C15 C 0.3665(2) -0.1514(2) 0.29193(8)
H12 H 0.2978(2) -0.1472(2) 0.30899(8)
C16 C 0.3869(3) -0.2338(2) 0.26894(9)
H13 H 0.3323(3) -0.2864(2) 0.26979(9)
C17 C 0.4842(3) -0.2407(2) 0.24483(9)
H14 H 0.4992(3) -0.2986(2) 0.22935(9)
C18 C 0.5613(2) -0.1649(2) 0.24278(8)
H15 H 0.6292(2) -0.1694(2) 0.22537(8)
C19 C 0.5418(2) -0.0819(2) 0.26586(7)
H16 H 0.5952(2) -0.0286(2) 0.26400(7)
C20 C 0.6576(2) -0.03679(14) 0.40773(6)
C21 C 0.7778(2) -0.0419(2) 0.41318(7)
H17 H 0.8278(2) -0.0317(2) 0.38958(7)
C22 C 0.8264(2) -0.0601(2) 0.45231(8)
H18 H 0.9101(2) -0.0631(2) 0.45537(8)
C23 C 0.7556(3) -0.0738(2) 0.48624(8)
H19 H 0.7903(3) -0.0858(2) 0.51324(8)
C24 C 0.6371(3) -0.0712(2) 0.48104(7)
H20 H 0.5874(3) -0.0811(2) 0.50475(7)
C25 C 0.5868(2) -0.0533(2) 0.44196(6)
H21 H 0.5030(2) -0.0516(2) 0.43885(6)
C26 C 0.7074(2) 0.19040(15) 0.40453(7)
C27 C 0.6570(2) 0.1847(2) 0.44348(7)
H22 H 0.5745(2) 0.1719(2) 0.44540(7)
C28 C 0.7238(3) 0.1968(2) 0.47934(8)
H23 H 0.6866(3) 0.1902(2) 0.50601(8)
C29 C 0.8406(3) 0.2172(2) 0.47687(9)
H24 H 0.8875(3) 0.2252(2) 0.50174(9)
C30 C 0.8909(3) 0.2267(2) 0.43857(10)
H25 H 0.9725(3) 0.2430(2) 0.43682(10)
C31 C 0.8254(2) 0.2131(2) 0.40226(8)
H26 H 0.8623(2) 0.2200(2) 0.37553(8)
N7 N 0.2852(3) 0.1416(4) 0.1502(4)
N8? N 0.2843(9) 0.1126(11) 0.1497(12)
O6 O 0.2237(2) 0.0693(2) 0.15489(8)
O7? O 0.2412(6) 0.1875(7) 0.1629(3)
N9? N 0.5469(23) 0.1295(7) 0.0427(4)
N10 N 0.5457(16) 0.1544(5) 0.0453(3)
O8? O 0.5502(4) 0.2114(4) 0.02825(13)
O9 O 0.5058(3) 0.0896(2) 0.02291(9)
O10 O 0.68468(14) 0.07627(12) 0.19994(5)
C32 C 0.6044(2) 0.1900(2) 0.15072(6)
H27 H 0.6458(2) 0.2359(2) 0.16777(6)
C33 C 0.4703(2) 0.2038(2) 0.15662(6)
H28 H 0.4583(2) 0.2081(2) 0.18626(6)
N11 N 0.40040(14) 0.11915(13) 0.14186(6)
C34 C 0.4447(2) 0.0193(2) 0.14795(7)
H29 H 0.4321(2) 0.0029(2) 0.17675(7)
C35 C 0.5795(2) 0.0134(2) 0.14025(6)
H30 H 0.6073(2) -0.0477(2) 0.15040(6)
C36 C 0.6123(2) 0.02126(14) 0.09395(6)
H31 H 0.5553(2) -0.01575(14) 0.07857(6)
N12 N 0.59772(14) 0.12232(11) 0.08071(5)
C37 C 0.6472(2) 0.20130(14) 0.10565(6)
H32 H 0.6151(2) 0.26040(14) 0.09489(6)
C38 C 0.6338(2) 0.0906(2) 0.16715(6)
C39 C 0.4293(2) 0.2989(2) 0.13863(7)
C40 C 0.4528(2) 0.3810(2) 0.16172(8)
H33 H 0.4880(2) 0.3747(2) 0.18900(8)
C41 C 0.4251(2) 0.4714(2) 0.14603(10)
H34 H 0.4450(2) 0.5277(2) 0.16201(10)
C42 C 0.3705(2) 0.4805(2) 0.10784(10)
H35 H 0.3490(2) 0.5432(2) 0.0977(1)
C43 C 0.3450(2) 0.3994(2) 0.08507(9)
H36 H 0.3087(2) 0.4062(2) 0.05800(9)
C44 C 0.3745(2) 0.3092(2) 0.09986(7)
H37 H 0.3556(2) 0.2530(2) 0.08361(7)
C45 C 0.3796(2) -0.0547(2) 0.12165(7)
C46 C 0.3740(2) -0.1481(2) 0.13707(8)
H38 H 0.4048(2) -0.1626(2) 0.16441(8)
C47 C 0.3210(3) -0.2202(2) 0.11275(10)
H39 H 0.3178(3) -0.2852(2) 0.12297(10)
C48 C 0.2753(3) -0.1999(2) 0.07439(10)
H40 H 0.2385(3) -0.2503(2) 0.05838(10)
C49 C 0.2811(2) -0.1080(2) 0.05911(9)
H41 H 0.2507(2) -0.0938(2) 0.03168(9)
C50 C 0.3320(2) -0.0356(2) 0.08262(7)
H42 H 0.3340(2) 0.0295(2) 0.07243(7)
C51 C 0.7327(2) -0.01677(14) 0.08205(7)
C52 C 0.7489(2) -0.0397(2) 0.04014(7)
H43 H 0.6831(2) -0.0372(2) 0.02121(7)
C53 C 0.8578(2) -0.0660(2) 0.02573(9)
H44 H 0.8684(2) -0.0811(2) -0.00331(9)
C54 C 0.9511(2) -0.0701(2) 0.05277(10)
H45 H 1.0276(2) -0.0867(2) 0.04274(10)
C55 C 0.9370(2) -0.0504(2) 0.09411(9)
H46 H 1.0032(2) -0.0555(2) 0.11279(9)
C56 C 0.8268(2) -0.0242(2) 0.10933(8)
H47 H 0.8161(2) -0.0115(2) 0.13858(8)
C57 C 0.7802(2) 0.20607(14) 0.10083(7)
C58 C 0.8581(2) 0.2128(2) 0.13446(8)
H48 H 0.8275(2) 0.2172(2) 0.16229(8)
C59 C 0.9788(2) 0.2139(2) 0.12723(11)
H49 H 1.0327(2) 0.2170(2) 0.15046(11)
C60 C 1.0208(2) 0.2096(2) 0.08743(11)
H50 H 1.1040(2) 0.2105(2) 0.08299(11)
C61 C 0.9447(2) 0.2046(2) 0.05424(9)
H51 H 0.9755(2) 0.2021(2) 0.02639(9)
C62 C 0.8254(2) 0.20340(15) 0.06078(7)
H52 H 0.7725(2) 0.20081(15) 0.03726(7)
#END
