
#######################################################################
#
#                 Cambridge Crystallographic Data Centre
#                                CCDC
#
#######################################################################
#
# If this CIF has been generated from an entry in the Cambridge
# Structural Database, then it will include bibliographic, chemical,
# crystal, experimental, refinement or atomic coordinate data resulting
# from the CCDC's data processing and validation procedures.
#
#######################################################################

data_CSD_CIF_RIRZAU
_audit_creation_date 2008-03-06
_audit_creation_method CSD-ConQuest-V1
_database_code_CSD RIRZAU
_database_code_depnum_ccdc_archive 'CCDC 672857'
_chemical_formula_sum 'C15 H17 N1 O6'
_chemical_formula_moiety
;
C15 H17 N1 O6
;
_journal_coeditor_code "IUCr XU2357"
_journal_coden_Cambridge 1370
_journal_volume 63
_journal_year 2007
_journal_page_first o4595
_journal_name_full 'Acta Crystallogr.,Sect.E:Struct.Rep.Online '
loop_
_publ_author_name
"Long He"
_chemical_name_systematic
;
Methyl 2-hydroxy-3-(2-nitrophenyl)-2-(2-oxocyclopentyl)propanoate
;
_cell_volume   1461.314
_exptl_crystal_colour 'colorless'
_exptl_crystal_density_diffrn 1.397
_exptl_crystal_description 'block'
_exptl_crystal_preparation 'ethanol'
_diffrn_ambient_temperature 292
#These two values have been output from a single CSD field.
_refine_ls_R_factor_gt 0.076
_refine_ls_wR_factor_gt 0.076
_symmetry_cell_setting monoclinic
_symmetry_space_group_name_H-M 'P 21/c'
_symmetry_Int_Tables_number 14
loop_
_symmetry_equiv_pos_site_id
_symmetry_equiv_pos_as_xyz
1 x,y,z
2 -x,1/2+y,1/2-z
3 -x,-y,-z
4 x,-1/2-y,-1/2+z
_cell_length_a 14.556(4)
_cell_length_b 5.540(2)
_cell_length_c 18.194(6)
_cell_angle_alpha 90
_cell_angle_beta 95.12(3)
_cell_angle_gamma 90
_cell_formula_units_Z 4
loop_
_atom_type_symbol
_atom_type_radius_bond
C 0.68
H 0.23
N 0.68
O 0.68
loop_
_atom_site_label
_atom_site_type_symbol
_atom_site_fract_x
_atom_site_fract_y
_atom_site_fract_z
O1 O 0.0421(3) 0.2211(8) 0.2122(3)
O2 O 0.1788(3) 0.1796(7) 0.0950(2)
H1 H 0.22850 0.20590 0.07850
O3 O 0.2303(2) -0.0964(6) 0.27028(19)
O4 O 0.2620(3) 0.2696(7) 0.2269(2)
O5 O 0.3485(4) 0.3703(9) 0.0026(3)
O6 O 0.2893(3) 0.0276(9) -0.0299(2)
N1 N 0.3379(4) 0.1526(11) 0.0124(3)
C1 C 0.0238(4) 0.0522(11) 0.1718(3)
C2 C -0.0695(4) -0.0067(12) 0.1355(3)
H2 H -0.09090 0.11950 0.10120
H3 H -0.11370 -0.02520 0.17200
C3 C -0.0574(4) -0.2430(12) 0.0950(3)
H4 H -0.07130 -0.37970 0.12540
H5 H -0.09730 -0.24870 0.04940
C4 C 0.0428(4) -0.2444(11) 0.0796(3)
H6 H 0.05230 -0.14890 0.03630
H7 H 0.06430 -0.40770 0.07230
C5 C 0.0921(3) -0.1321(10) 0.1492(3)
H8 H 0.09810 -0.25720 0.18740
C6 C 0.1875(4) -0.0227(9) 0.1435(3)
C7 C 0.2303(4) 0.0695(10) 0.2176(3)
C8 C 0.2536(4) -0.2062(10) 0.1124(3)
H9 H 0.24850 -0.35810 0.13820
H10 H 0.23340 -0.23420 0.06080
C9 C 0.3530(4) -0.1341(10) 0.1178(3)
C10 C 0.4123(4) -0.2346(10) 0.1729(3)
H11 H 0.38880 -0.34790 0.20390
C11 C 0.5037(4) -0.1768(12) 0.1844(3)
H12 H 0.54130 -0.25550 0.22080
C12 C 0.5397(4) -0.0019(12) 0.1417(3)
H13 H 0.60160 0.04080 0.14970
C13 C 0.4844(4) 0.1078(11) 0.0880(3)
H14 H 0.50830 0.22770 0.05950
C14 C 0.3933(4) 0.0434(10) 0.0753(3)
C15 C 0.2697(4) -0.0246(11) 0.3430(3)
H15 H 0.33550 -0.01100 0.34290
H16 H 0.25530 -0.14370 0.37850
H17 H 0.24450 0.12840 0.35570
#END
