
#######################################################################
#
#                 Cambridge Crystallographic Data Centre
#                                CCDC
#
#######################################################################
#
# If this CIF has been generated from an entry in the Cambridge
# Structural Database, then it will include bibliographic, chemical,
# crystal, experimental, refinement or atomic coordinate data resulting
# from the CCDC's data processing and validation procedures.
#
#######################################################################

data_CSD_CIF_RITCAZ
_audit_creation_date 2008-03-06
_audit_creation_method CSD-ConQuest-V1
_database_code_CSD RITCAZ
_database_code_depnum_ccdc_archive 'CCDC 674509'
_chemical_formula_sum 'C24 H27 N3 O4'
_chemical_formula_moiety
;
C24 H27 N3 O4
;
_journal_coeditor_code "IUCr SJ2396"
_journal_coden_Cambridge 1370
_journal_volume 64
_journal_year 2008
_journal_page_first o192
_journal_name_full 'Acta Crystallogr.,Sect.E:Struct.Rep.Online '
loop_
_publ_author_name
"Na Fu"
"Xiao-Mao Zou"
"Da-Yong Lin"
"You-Quan Zhu"
"Hua-Zheng Yang"
_chemical_name_systematic
;
t-Butyl 
4-((((E)-1,3-dimethyl-5-phenoxypyrazol-4-yl)methylene)amino-oxymethyl)benzoate

;
_chemical_name_common
;
Fenpyroximate
;
_cell_volume   1121.989
_exptl_crystal_colour 'colorless'
_exptl_crystal_density_diffrn 1.248
_exptl_special_details
;
acaricide

;
_exptl_crystal_description 'Prism'
_exptl_crystal_preparation 'ethyl acetate/petroleum ether'
_diffrn_ambient_temperature 294
#These two values have been output from a single CSD field.
_refine_ls_R_factor_gt 0.0546
_refine_ls_wR_factor_gt 0.0546
_symmetry_cell_setting triclinic
_symmetry_space_group_name_H-M 'P -1'
_symmetry_Int_Tables_number 2
loop_
_symmetry_equiv_pos_site_id
_symmetry_equiv_pos_as_xyz
1 x,y,z
2 -x,-y,-z
_cell_length_a 9.672(3)
_cell_length_b 9.908(3)
_cell_length_c 13.179(3)
_cell_angle_alpha 72.487(5)
_cell_angle_beta 71.614(5)
_cell_angle_gamma 74.494(4)
_cell_formula_units_Z 2
loop_
_atom_type_symbol
_atom_type_radius_bond
C 0.68
H 0.23
N 0.68
O 0.68
loop_
_atom_site_label
_atom_site_type_symbol
_atom_site_fract_x
_atom_site_fract_y
_atom_site_fract_z
O1 O 0.26628(19) 1.1772(2) -0.00386(14)
O2 O 0.3962(2) 0.6532(2) 0.19530(16)
O3 O 1.0760(3) 0.3688(3) 0.34012(19)
O4 O 0.9545(2) 0.2420(2) 0.49895(15)
N1 N 0.3522(3) 1.2674(3) 0.1062(2)
N2 N 0.4285(3) 1.2208(3) 0.1845(2)
N3 N 0.4010(3) 0.7806(3) 0.2206(2)
C1 C 0.1138(3) 1.1919(3) 0.0179(2)
C2 C 0.0642(3) 1.1915(3) -0.0686(2)
H1 H 0.13070 1.18120 -0.13560
C3 C -0.0863(4) 1.2068(4) -0.0544(3)
H2 H -0.12130 1.20640 -0.11240
C4 C -0.1839(4) 1.2223(3) 0.0431(3)
H3 H -0.28500 1.23180 0.05200
C5 C -0.1329(3) 1.2238(3) 0.1279(3)
H4 H -0.20000 1.23490 0.19450
C6 C 0.0167(3) 1.2090(3) 0.1166(2)
H5 H 0.05100 1.21060 0.17460
C7 C 0.3276(3) 1.1573(3) 0.0806(2)
C8 C 0.3863(3) 1.0308(3) 0.1450(2)
C9 C 0.4502(3) 1.0776(3) 0.2080(2)
C10 C 0.5368(4) 0.9888(4) 0.2888(3)
H6 H 0.57430 1.05070 0.31320
H7 H 0.61830 0.92350 0.25450
H8 H 0.47380 0.93480 0.35070
C11 C 0.3029(4) 1.4211(3) 0.0637(3)
H9 H 0.37300 1.45490 -0.00360
H10 H 0.29590 1.47270 0.11680
H11 H 0.20740 1.43700 0.04990
C12 C 0.3833(3) 0.8883(3) 0.1411(2)
H12 H 0.36810 0.87470 0.07900
C13 C 0.3981(3) 0.5385(3) 0.2913(3)
H13 H 0.36800 0.45830 0.28160
H14 H 0.32580 0.57060 0.35360
C14 C 0.5472(3) 0.4862(3) 0.3174(2)
C15 C 0.5588(3) 0.3798(3) 0.4126(3)
H15 H 0.47540 0.34290 0.45800
C16 C 0.6917(3) 0.3281(3) 0.4406(2)
H16 H 0.69690 0.25820 0.50550
C17 C 0.8173(3) 0.3792(3) 0.3734(2)
C18 C 0.8060(3) 0.4847(3) 0.2779(2)
H17 H 0.89000 0.52000 0.23150
C19 C 0.6725(3) 0.5377(3) 0.2510(2)
H18 H 0.66670 0.60930 0.18720
C20 C 0.9636(3) 0.3290(3) 0.4004(2)
C21 C 1.0809(3) 0.1863(3) 0.5491(2)
C22 C 1.2093(4) 0.1033(5) 0.4795(3)
H19 H 1.17750 0.02730 0.46680
H20 H 1.28710 0.06260 0.51670
H21 H 1.24560 0.16680 0.41030
C23 C 1.0184(5) 0.0865(5) 0.6550(3)
H22 H 0.93390 0.13950 0.69790
H23 H 1.09270 0.04460 0.69550
H24 H 0.98860 0.01150 0.63940
C24 C 1.1218(5) 0.3089(4) 0.5687(4)
H25 H 1.16170 0.37020 0.49940
H26 H 1.19490 0.27260 0.61040
H27 H 1.03520 0.36300 0.60900
#END
