
#######################################################################
#
#                 Cambridge Crystallographic Data Centre
#                                CCDC
#
#######################################################################
#
# If this CIF has been generated from an entry in the Cambridge
# Structural Database, then it will include bibliographic, chemical,
# crystal, experimental, refinement or atomic coordinate data resulting
# from the CCDC's data processing and validation procedures.
#
#######################################################################

data_CSD_CIF_RITMAK01
_audit_creation_date 2014-09-30
_audit_creation_method CSD-ConQuest-V1
_database_code_CSD RITMAK01
_database_code_depnum_ccdc_archive 'CCDC 1024203'
_chemical_formula_sum 'C12 H8 N2 O2'
_chemical_formula_moiety
;
C12 H8 N2 O2
;
_journal_coeditor_code "IUCr ky3061"
_journal_coden_Cambridge 1777
_journal_volume 70
_journal_year 2014
_journal_page_first 987
_journal_name_full 'Acta Crystallogr.,Sect.C:Cryst.Struct.Chem. '
loop_
_publ_author_name
"K.Gajda"
"B.Zarychta"
"K.Kopka"
"Z.Daszkiewicz"
"K.Ejsmont"
_chemical_name_systematic
;
1-nitro-9H-carbazole
;
_cell_volume    941.737
_exptl_crystal_colour 'yellow'
_exptl_crystal_density_diffrn 1.497
_exptl_special_details
;
recrytalization from ethanol

;
_exptl_crystal_description 'plate'
_diffrn_ambient_temperature 100
#These two values have been output from a single CSD field.
_refine_ls_R_factor_gt 0.0526
_refine_ls_wR_factor_gt 0.0526
_symmetry_cell_setting monoclinic
_symmetry_space_group_name_H-M 'P 21/n'
_symmetry_Int_Tables_number 14
loop_
_symmetry_equiv_pos_site_id
_symmetry_equiv_pos_as_xyz
1 x,y,z
2 1/2-x,1/2+y,1/2-z
3 -x,-y,-z
4 -1/2+x,-1/2-y,-1/2+z
_cell_length_a 10.4341(9)
_cell_length_b 5.3101(4)
_cell_length_c 17.2566(14)
_cell_angle_alpha 90
_cell_angle_beta 99.951(8)
_cell_angle_gamma 90
_cell_formula_units_Z 4
loop_
_atom_type_symbol
_atom_type_radius_bond
C 0.68
H 0.23
N 0.68
O 0.68
loop_
_atom_site_label
_atom_site_type_symbol
_atom_site_fract_x
_atom_site_fract_y
_atom_site_fract_z
C1 C 0.7341(2) 0.0698(4) 0.01740(14)
C2 C 0.8384(2) -0.0852(5) 0.01118(14)
H1 H 0.88750 -0.05640 -0.02810
C3 C 0.8699(2) -0.2831(5) 0.06321(14)
H2 H 0.94170 -0.38370 0.05980
C4 C 0.7948(2) -0.3320(5) 0.12047(14)
H3 H 0.81580 -0.46660 0.15480
C5 C 0.6891(2) -0.1816(4) 0.12669(13)
C6 C 0.5949(2) -0.1797(4) 0.17898(13)
C7 C 0.5699(2) -0.3344(5) 0.24004(14)
H4 H 0.62110 -0.47560 0.25460
C8 C 0.4688(3) -0.2761(5) 0.27848(15)
H5 H 0.45120 -0.37980 0.31880
C9 C 0.3924(3) -0.0627(5) 0.25766(15)
H6 H 0.32600 -0.02410 0.28540
C10 C 0.4133(2) 0.0919(5) 0.19678(14)
H7 H 0.36120 0.23210 0.18230
C11 C 0.5140(2) 0.0311(4) 0.15823(13)
N1 N 0.55472(18) 0.1503(4) 0.09503(11)
H8 H 0.51940 0.28290 0.07200
C12 C 0.6585(2) 0.0272(4) 0.07485(14)
N2 N 0.7050(2) 0.2799(4) -0.03676(12)
O1 O 0.60697(16) 0.4037(3) -0.03166(10)
O2 O 0.77789(18) 0.3239(3) -0.08412(10)
#END
