
#######################################################################
#
#                 Cambridge Crystallographic Data Centre
#                                CCDC
#
#######################################################################
#
# If this CIF has been generated from an entry in the Cambridge
# Structural Database, then it will include bibliographic, chemical,
# crystal, experimental, refinement or atomic coordinate data resulting
# from the CCDC's data processing and validation procedures.
#
#######################################################################

data_CSD_CIF_RITMAK
_audit_creation_date 2013-12-06
_audit_creation_method CSD-ConQuest-V1
_database_code_CSD RITMAK
_database_code_depnum_ccdc_archive 'CCDC 974754'
_chemical_formula_sum 'C12 H8 N2 O2'
_chemical_formula_moiety
;
C12 H8 N2 O2
;
_journal_coeditor_code "IUCr ff2123"
_journal_coden_Cambridge 1370
_journal_volume 70
_journal_year 2014
_journal_page_first o28
_journal_name_full 'Acta Crystallogr.,Sect.E:Struct.Rep.Online '
loop_
_publ_author_name
"P.Kautny"
"B.Stoger"
_chemical_name_systematic
;
1-Nitro-9H-carbazole
;
_cell_volume    944.083
_exptl_crystal_colour 'dark yellow'
_exptl_crystal_density_diffrn 1.493
_exptl_crystal_description 'plate'
_diffrn_ambient_temperature 100
#These two values have been output from a single CSD field.
_refine_ls_R_factor_gt 0.0399
_refine_ls_wR_factor_gt 0.0399
_symmetry_cell_setting monoclinic
_symmetry_space_group_name_H-M 'P 21/n'
_symmetry_Int_Tables_number 14
loop_
_symmetry_equiv_pos_site_id
_symmetry_equiv_pos_as_xyz
1 x,y,z
2 1/2-x,1/2+y,1/2-z
3 -x,-y,-z
4 -1/2+x,-1/2-y,-1/2+z
_cell_length_a 10.4400(3)
_cell_length_b 5.3148(2)
_cell_length_c 17.2638(6)
_cell_angle_alpha 90
_cell_angle_beta 99.7460(16)
_cell_angle_gamma 90
_cell_formula_units_Z 4
loop_
_atom_type_symbol
_atom_type_radius_bond
C 0.68
H 0.23
N 0.68
O 0.68
loop_
_atom_site_label
_atom_site_type_symbol
_atom_site_fract_x
_atom_site_fract_y
_atom_site_fract_z
O1 O 0.89295(6) 0.40415(13) 0.03186(4)
O2 O 0.72187(8) 0.32391(14) 0.08415(4)
N1 N 0.94574(7) 0.15206(14) -0.09492(4)
N2 N 0.79470(7) 0.27907(15) 0.03678(4)
C1 C 0.84182(8) 0.02688(16) -0.07504(5)
C2 C 0.76585(8) 0.07065(16) -0.01702(5)
C3 C 0.66091(8) -0.08542(18) -0.01060(5)
C4 C 0.62951(9) -0.28368(19) -0.06284(6)
C5 C 0.70463(9) -0.33376(17) -0.12071(6)
C6 C 0.81094(8) -0.18269(16) -0.12662(5)
C7 C 0.90505(8) -0.17966(16) -0.17915(5)
C8 C 0.92934(10) -0.33696(17) -0.24006(5)
C9 C 1.03157(10) -0.27687(19) -0.27885(6)
C10 C 1.10889(9) -0.06296(19) -0.25785(6)
C11 C 1.08747(9) 0.09238(17) -0.19688(6)
C12 C 0.98542(8) 0.03034(16) -0.15802(5)
H1 H 1.1422(11) 0.232(3) -0.1779(8)
H2 H 0.6817(11) -0.477(2) -0.1571(7)
H3 H 0.5546(13) -0.390(2) -0.0614(8)
H4 H 0.8730(12) -0.480(2) -0.2542(8)
H5 H 1.0526(14) -0.384(3) -0.3211(10)
H6 H 0.6077(12) -0.069(2) 0.0296(8)
H7 H 1.1776(11) -0.026(2) -0.2858(7)
H8 H 0.9851(12) 0.275(3) -0.0690(9)
#END
