
#######################################################################
#
#                 Cambridge Crystallographic Data Centre
#                                CCDC
#
#######################################################################
#
# If this CIF has been generated from an entry in the Cambridge
# Structural Database, then it will include bibliographic, chemical,
# crystal, experimental, refinement or atomic coordinate data resulting
# from the CCDC's data processing and validation procedures.
#
#######################################################################

data_CSD_CIF_RIVBAZ
_audit_creation_date 1997-12-10
_audit_creation_method CSD-ConQuest-V1
_database_code_CSD RIVBAZ
_database_code_depnum_ccdc_journal 188/59
_chemical_formula_sum 'C11 H19 N3 O1'
_chemical_formula_moiety
;
C11 H19 N3 O1
;
_journal_coden_Cambridge 188
_journal_year 1997
_journal_page_first 721
_journal_name_full 'J.Chem.Soc.,Perkin Trans.2 '
loop_
_publ_author_name
"D.A.Fletcher"
"B.G.Gowenlock"
"K.G.Orrell"
"V.Sik"
"D.E.Hibbs"
"M.B.Hursthouse"
"K.M.Abdul Malik"
_chemical_name_systematic
;
3,5-Di-t-butyl-4-nitrosopyrazole
;
_cell_volume   1207.655
_exptl_crystal_density_diffrn 1.151
_diffrn_ambient_temperature 150
_refine_special_details
;
N1 and O1 were refined over two positions with occupancies 0.669:0.331.

;
#These two values have been output from a single CSD field.
_refine_ls_R_factor_gt 0.0409
_refine_ls_wR_factor_gt 0.0409
_symmetry_cell_setting monoclinic
_symmetry_space_group_name_H-M 'P 21/c'
_symmetry_Int_Tables_number 14
loop_
_symmetry_equiv_pos_site_id
_symmetry_equiv_pos_as_xyz
1 x,y,z
2 -x,1/2+y,1/2-z
3 -x,-y,-z
4 x,-1/2-y,-1/2+z
_cell_length_a 10.758(1)
_cell_length_b 9.771(1)
_cell_length_c 12.214
_cell_angle_alpha 90
_cell_angle_beta 109.844(5)
_cell_angle_gamma 90
_cell_formula_units_Z 4
loop_
_atom_type_symbol
_atom_type_radius_bond
C 0.68
H 0.23
N 0.68
O 0.68
loop_
_atom_site_label
_atom_site_type_symbol
_atom_site_fract_x
_atom_site_fract_y
_atom_site_fract_z
C1 C -0.1388(2) 0.2912(2) 0.8225(2)
N1 N -0.1916(14) 0.3946(7) 0.7414(7)
O1 O -0.2844(3) 0.4432(4) 0.7162(2)
N2? N -0.1635(18) 0.4195(7) 0.7703(8)
O2? O -0.1540(5) 0.4614(6) 0.6945(5)
C2 C -0.0031(2) 0.2580(2) 0.8739(2)
N3 N -0.0002(2) 0.1444(2) 0.9345(1)
N4 N -0.1245(2) 0.1021(2) 0.9273(1)
C3 C -0.2108(2) 0.1893(2) 0.8606(2)
C4 C 0.1199(2) 0.3269(2) 0.8693(2)
C5 C 0.2421(2) 0.2577(2) 0.9519(2)
C6 C 0.1207(2) 0.4775(2) 0.9031(2)
C7 C 0.1234(2) 0.3159(2) 0.7443(2)
C8 C -0.3579(2) 0.1732(2) 0.8364(2)
C9 C -0.3847(2) 0.0460(2) 0.8969(2)
C10 C -0.4303(2) 0.1588(2) 0.7050(2)
C11 C -0.4088(2) 0.2987(2) 0.8834(2)
H1 H 0.0712(2) 0.1023(2) 0.9738(1)
H2? H -0.1429(2) 0.0311(2) 0.9606(1)
H3 H 0.3197(2) 0.3037(9) 0.9489(9)
H4 H 0.2441(7) 0.1638(4) 0.9295(7)
H5 H 0.2400(7) 0.2618(12) 1.0298(2)
H6 H 0.1996(7) 0.5204(4) 0.8999(13)
H7 H 0.1182(15) 0.4841(2) 0.9808(5)
H8 H 0.0447(8) 0.5225(4) 0.8501(8)
H9 H 0.2017(7) 0.3597(13) 0.7405(3)
H10 H 0.0468(7) 0.3599(13) 0.6912(2)
H11 H 0.1238(14) 0.2212(2) 0.7235(5)
H12 H -0.4782(2) 0.0360(8) 0.8796(9)
H13 H -0.3420(11) 0.0550(6) 0.9795(2)
H14 H -0.3509(12) -0.0332(3) 0.8699(9)
H15 H -0.5235(2) 0.1495(14) 0.6901(2)
H16 H -0.3983(10) 0.0793(8) 0.6767(3)
H17 H -0.4145(11) 0.2387(6) 0.6658(2)
H18 H -0.5024(3) 0.2902(7) 0.8667(11)
H19 H -0.3910(13) 0.3798(3) 0.8469(9)
H20 H -0.3650(11) 0.3048(9) 0.9660(3)
#END
