
#######################################################################
#
#                 Cambridge Crystallographic Data Centre
#                                CCDC
#
#######################################################################
#
# If this CIF has been generated from an entry in the Cambridge
# Structural Database, then it will include bibliographic, chemical,
# crystal, experimental, refinement or atomic coordinate data resulting
# from the CCDC's data processing and validation procedures.
#
#######################################################################

data_CSD_CIF_RIVBED
_audit_creation_date 1997-12-10
_audit_creation_method CSD-ConQuest-V1
_database_code_CSD RIVBED
_database_code_depnum_ccdc_journal 188/59
_chemical_formula_sum 'C6 H9 N3 O1'
_chemical_formula_moiety
;
C6 H9 N3 O1
;
_journal_coden_Cambridge 188
_journal_year 1997
_journal_page_first 721
_journal_name_full 'J.Chem.Soc.,Perkin Trans.2 '
loop_
_publ_author_name
"D.A.Fletcher"
"B.G.Gowenlock"
"K.G.Orrell"
"V.Sik"
"D.E.Hibbs"
"M.B.Hursthouse"
"K.M.Abdul Malik"
_chemical_name_systematic
;
1,3,5-Trimethyl-4-nitrosopyrazole
;
_cell_volume   1516.247
_exptl_crystal_density_diffrn 1.219
_diffrn_ambient_temperature ?
_diffrn_special_details
;
The study was carried out at room temperature,in the range 283-303K

;
_refine_special_details
;
The NO group of one of the independent molecules is disordered with 
occupancies of 0.84:0.16 for O1:O1' which correspond to trans:cis forms. The 
H atoms are also disordered over two positions.
;
#These two values have been output from a single CSD field.
_refine_ls_R_factor_gt 0.0425
_refine_ls_wR_factor_gt 0.0425
_symmetry_cell_setting orthorhombic
_symmetry_space_group_name_H-M 'C m c 21'
_symmetry_Int_Tables_number 36
loop_
_symmetry_equiv_pos_site_id
_symmetry_equiv_pos_as_xyz
1 x,y,z
2 -x,-y,1/2+z
3 -x,y,z
4 x,-y,1/2+z
5 1/2+x,1/2+y,z
6 1/2-x,1/2-y,1/2+z
7 1/2-x,1/2+y,z
8 1/2+x,1/2-y,1/2+z
_cell_length_a 6.833(2)
_cell_length_b 17.089(1)
_cell_length_c 12.985(3)
_cell_angle_alpha 90
_cell_angle_beta 90
_cell_angle_gamma 90
_cell_formula_units_Z 8
loop_
_atom_type_symbol
_atom_type_radius_bond
C 0.68
H 0.23
N 0.68
O 0.68
loop_
_atom_site_label
_atom_site_type_symbol
_atom_site_fract_x
_atom_site_fract_y
_atom_site_fract_z
O1 O 0.00000 0.1183(4) 0.1299(5)
O2? O 0.00000 0.0128(10) 0.1796(31)
N1 N 0.00000 0.0797(5) 0.2079(6)
N2 N 0.00000 0.1330(5) 0.4677(8)
N3 N 0.00000 0.2061(4) 0.4247(5)
N4 N 0.00000 0.4261(5) 0.9632(5)
O3 O 0.00000 0.3864(5) 1.0401(6)
N5 N 0.00000 0.2939(5) 0.7443(7)
N6 N 0.00000 0.3704(4) 0.7070(5)
C1 C 0.00000 0.1203(6) 0.3010(6)
C2 C 0.00000 0.0792(7) 0.3968(7)
C3 C 0.00000 0.1986(6) 0.3266(9)
C4 C 0.00000 -0.0095(5) 0.413(1)
C5 C 0.00000 0.1210(6) 0.5775(6)
C6 C 0.00000 0.2650(5) 0.2581(8)
C7 C 0.00000 0.3861(4) 0.869(1)
C8 C 0.00000 0.3025(4) 0.8480(7)
C9 C 0.00000 0.4253(6) 0.7800(7)
C10 C 0.00000 0.2323(5) 0.9201(11)
C11 C 0.00000 0.3754(6) 0.5909(8)
C12 C 0.00000 0.5084(5) 0.7538(11)
H1? H 0.078(11) -0.0222(6) 0.4721(43)
H2? H 0.053(12) -0.0347(6) 0.3532(30)
H3 H -0.1317(14) -0.0273(9) 0.4239(67)
H4? H 0.0578(85) 0.1655(18) 0.6108(7)
H5? H 0.0743(78) 0.0749(22) 0.5937(8)
H6 H -0.1321(7) 0.1146(37) 0.6012(9)
H7? H -0.1324(3) 0.2786(24) 0.2411(40)
H8 H 0.0699(78) 0.2519(12) 0.1963(20)
H9? H 0.0625(81) 0.3085(11) 0.2913(19)
H10 H -0.085(10) 0.2425(22) 0.9773(36)
H11? H 0.1304(23) 0.2233(32) 0.9448(56)
H12? H -0.045(12) 0.1869(12) 0.8836(21)
H13? H -0.031(15) 0.4279(16) 0.5701(8)
H14? H -0.096(11) 0.3400(46) 0.5635(9)
H15 H 0.1271(45) 0.3616(61) 0.5651(9)
H16? H 0.058(11) 0.5378(7) 0.8091(30)
H17? H -0.1321(9) 0.5257(14) 0.7430(66)
H18 H 0.075(10) 0.5164(8) 0.6920(38)
H8B H -0.0699(78) 0.2519(12) 0.1963(20)
H6B H 0.1321(7) 0.1146(37) 0.6012(9)
H3B H 0.1317(14) -0.0273(9) 0.4239(67)
H18B H -0.075(10) 0.5164(8) 0.6920(38)
H15B H -0.1271(45) 0.3616(61) 0.5651(9)
H10B H 0.085(10) 0.2425(22) 0.9773(36)
#END
