
#######################################################################
#
#                 Cambridge Crystallographic Data Centre
#                                CCDC
#
#######################################################################
#
# If this CIF has been generated from an entry in the Cambridge
# Structural Database, then it will include bibliographic, chemical,
# crystal, experimental, refinement or atomic coordinate data resulting
# from the CCDC's data processing and validation procedures.
#
#######################################################################

data_CSD_CIF_RIWCOQ
_audit_creation_date 2008-07-03
_audit_creation_method CSD-ConQuest-V1
_database_code_CSD RIWCOQ
_database_code_depnum_ccdc_archive 'CCDC 650719'
_chemical_formula_sum 'C20 H15 N1 O2'
_chemical_formula_moiety
;
C20 H15 N1 O2
;
_journal_coden_Cambridge 692
_journal_volume 2008
_journal_year 2008
_journal_page_first 711
_journal_name_full 'Synthesis '
loop_
_publ_author_name
"T.Liaskopoulos"
"S.Skoulika"
"P.G.Tsoungas"
"G.Varvounis"
_chemical_name_systematic
;
(+-)-3-Phenyl-3a,4-dihydro-3H-benzo(5,6)chromeno(4,3-c)isoxazole
;
_chemical_melting_point 474.15
_cell_volume   2989.758
_exptl_crystal_colour 'colorless'
_exptl_special_details
;
Melting point range 474.15-475.15K

;
_exptl_crystal_description 'prismatic'
_diffrn_ambient_temperature 293
#These two values have been output from a single CSD field.
_refine_ls_R_factor_gt 0.0961
_refine_ls_wR_factor_gt 0.0961
_symmetry_cell_setting monoclinic
_symmetry_space_group_name_H-M 'C c'
_symmetry_Int_Tables_number 9
loop_
_symmetry_equiv_pos_site_id
_symmetry_equiv_pos_as_xyz
1 x,y,z
2 x,-y,1/2+z
3 1/2+x,1/2+y,z
4 1/2+x,1/2-y,1/2+z
_cell_length_a 22.043(1)
_cell_length_b 9.267(1)
_cell_length_c 17.811(1)
_cell_angle_alpha 90
_cell_angle_beta 124.74
_cell_angle_gamma 90
_cell_formula_units_Z 8
loop_
_atom_type_symbol
_atom_type_radius_bond
C 0.68
H 0.23
N 0.68
O 0.68
loop_
_atom_site_label
_atom_site_type_symbol
_atom_site_fract_x
_atom_site_fract_y
_atom_site_fract_z
N1 N 0.1460(14) 0.632(3) 0.5130(17)
O1 O 0.0919(11) 0.743(2) 0.4546(13)
C1 C 0.1362(15) 0.862(3) 0.4680(17)
H1 H 0.14820 0.85720 0.42290
C2 C 0.0944(17) 1.009(4) 0.454(2)
C3 C 0.0837(16) 1.106(5) 0.392(2)
H2 H 0.10380 1.09290 0.35890
C4 C 0.041(2) 1.232(3) 0.378(3)
H3 H 0.03220 1.29850 0.33440
C5 C 0.0128(17) 1.255(4) 0.428(2)
H4 H -0.01090 1.34130 0.42290
C6 C 0.0208(13) 1.148(3) 0.4846(15)
H5 H -0.00150 1.15920 0.51550
C7 C 0.0595(14) 1.025(2) 0.4990(17)
H6 H 0.06280 0.95290 0.53770
C8 C 0.2079(16) 0.847(4) 0.563(2)
H7 H 0.20300 0.89440 0.60850
C9 C 0.2818(13) 0.893(4) 0.5768(16)
H8 H 0.28490 0.85100 0.52930
H9 H 0.28310 0.99760 0.57240
O2 O 0.3411(10) 0.848(2) 0.6619(14)
C10 C 0.3397(15) 0.701(3) 0.6831(19)
C11 C 0.4117(11) 0.656(3) 0.7512(17)
H10 H 0.45290 0.71480 0.77640
C12 C 0.415(2) 0.509(4) 0.778(2)
H11 H 0.46090 0.47210 0.82370
C13 C 0.3555(18) 0.417(4) 0.741(2)
C14 C 0.3597(17) 0.272(3) 0.7717(19)
H12 H 0.40540 0.23600 0.81900
C15 C 0.3007(19) 0.185(4) 0.735(2)
H13 H 0.30510 0.08840 0.75170
C16 C 0.230(2) 0.249(4) 0.669(2)
H14 H 0.18780 0.19510 0.64760
C17 C 0.2239(19) 0.384(4) 0.6382(18)
H15 H 0.17740 0.41830 0.59240
C18 C 0.2853(17) 0.475(4) 0.6728(18)
C19 C 0.2761(14) 0.623(3) 0.6396(16)
C20 C 0.2090(13) 0.694(3) 0.5728(15)
N2 N 0.3544(13) 0.639(3) 0.4845(18)
O3 O 0.4026(12) 0.528(2) 0.5400(17)
C21 C 0.3629(14) 0.389(4) 0.5304(17)
H16 H 0.35110 0.38890 0.57580
C22 C 0.4088(12) 0.267(3) 0.5461(17)
C23 C 0.4148(18) 0.157(3) 0.606(2)
H17 H 0.39240 0.17090 0.63650
C24 C 0.4525(18) 0.033(4) 0.619(2)
H18 H 0.45660 -0.03780 0.65850
C25 C 0.4849(17) 0.016(3) 0.572(2)
H19 H 0.51090 -0.06850 0.58030
C26 C 0.4804(17) 0.118(4) 0.513(2)
H20 H 0.50360 0.10440 0.48300
C27 C 0.4395(15) 0.242(4) 0.499(2)
H21 H 0.43310 0.31060 0.45650
C28 C 0.2912(14) 0.415(3) 0.4352(18)
H22 H 0.29510 0.36920 0.38850
C29 C 0.2220(14) 0.367(3) 0.424(2)
H23 H 0.22040 0.26290 0.42480
H24 H 0.22040 0.40430 0.47360
O4 O 0.1585(10) 0.422(3) 0.3366(15)
C30 C 0.1593(18) 0.563(4) 0.317(2)
C31 C 0.0892(19) 0.630(5) 0.248(2)
H25 H 0.04630 0.57530 0.22070
C32 C 0.0845(15) 0.756(4) 0.2234(19)
H26 H 0.03800 0.79300 0.18010
C33 C 0.1498(17) 0.850(3) 0.2602(19)
C34 C 0.1399(19) 0.994(4) 0.232(2)
H27 H 0.09270 1.03110 0.19190
C35 C 0.2002(18) 1.078(4) 0.264(2)
H28 H 0.19400 1.17070 0.24040
C36 C 0.2701(17) 1.032(4) 0.331(2)
H29 H 0.31040 1.09360 0.35650
C37 C 0.2786(18) 0.892(4) 0.360(2)
H30 H 0.32650 0.85750 0.39930
C38 C 0.2189(18) 0.795(4) 0.3325(18)
C39 C 0.2244(12) 0.649(4) 0.3561(17)
C40 C 0.2928(18) 0.579(3) 0.427(2)
#END
