
#######################################################################
#
#                 Cambridge Crystallographic Data Centre
#                                CCDC
#
#######################################################################
#
# If this CIF has been generated from an entry in the Cambridge
# Structural Database, then it will include bibliographic, chemical,
# crystal, experimental, refinement or atomic coordinate data resulting
# from the CCDC's data processing and validation procedures.
#
#######################################################################

data_CSD_CIF_RIWNUG
_audit_creation_date 2001-11-22
_audit_creation_method CSD-ConQuest-V1
_database_code_CSD RIWNUG
_database_code_depnum_ccdc_archive 'CCDC 134180'
_chemical_formula_sum 'C28 H28 N2 O4'
_chemical_formula_moiety
;
C28 H28 N2 O4
;
_journal_coden_Cambridge 35
_journal_volume 65
_journal_year 2000
_journal_page_first 6553
_journal_name_full 'J.Org.Chem. '
loop_
_publ_author_name
"J.-F.Poisson"
"J.F.Normant"
_chemical_name_systematic
;
4-N-Benzylamino-5-p-nitrobenzoyloxy-5-phenyl-3-n-propylpent-1-yne
;
_chemical_melting_point 357.15
_cell_volume   1243.032
_exptl_crystal_colour 'yellow'
_exptl_crystal_density_diffrn 1.22
_exptl_crystal_description 'parallelepiped'
_exptl_crystal_preparation 'pentane/ether(4'
_diffrn_ambient_temperature 295
#These two values have been output from a single CSD field.
_refine_ls_R_factor_gt 0.0562
_refine_ls_wR_factor_gt 0.0562
_symmetry_cell_setting triclinic
_symmetry_space_group_name_H-M 'P -1'
_symmetry_Int_Tables_number 2
loop_
_symmetry_equiv_pos_site_id
_symmetry_equiv_pos_as_xyz
1 x,y,z
2 -x,-y,-z
_cell_length_a 8.02
_cell_length_b 9.584
_cell_length_c 16.892
_cell_angle_alpha 85.89
_cell_angle_beta 78.29
_cell_angle_gamma 78.01
_cell_formula_units_Z 2
loop_
_atom_type_symbol
_atom_type_radius_bond
C 0.68
H 0.23
N 0.68
O 0.68
loop_
_atom_site_label
_atom_site_type_symbol
_atom_site_fract_x
_atom_site_fract_y
_atom_site_fract_z
C1 C 0.5678(5) 0.2806(5) 0.2418(3)
C2 C 0.5032(5) 0.1487(4) 0.2226(3)
C3 C 0.3629(5) 0.1826(5) 0.1696(3)
C4 C 0.3483(6) 0.0468(5) 0.1307(3)
C5 C 0.2472(7) 0.0773(6) 0.0627(4)
C6 C 0.2285(8) -0.0538(7) 0.0246(4)
C7 C 0.1922(6) 0.2508(5) 0.2145(3)
C8 C 0.0542(7) 0.3044(7) 0.2487(4)
C9 C 0.5774(8) 0.0031(6) 0.3415(3)
C10 C 0.7295(7) -0.0990(5) 0.2948(3)
C11 C 0.7034(7) -0.2097(6) 0.2551(4)
C12 C 0.4742(8) 0.4450(5) 0.3486(3)
C13 C 0.841(1) -0.3030(7) 0.2130(4)
C14 C 1.002(1) -0.288(1) 0.2097(5)
C15 C 1.0371(9) -0.182(1) 0.2487(6)
C16 C 0.898(1) -0.0837(7) 0.2915(4)
C17 C 0.7738(6) 0.3184(5) 0.1152(3)
C18 C 0.8255(7) 0.3927(6) 0.0440(3)
C19 C 0.7280(8) 0.5200(7) 0.0254(4)
C20 C 0.5766(8) 0.5729(6) 0.0777(4)
C21 C 0.5222(6) 0.4997(6) 0.1490(4)
C22 C 0.6214(5) 0.3684(4) 0.1677(3)
C23 C 0.3179(8) 0.5411(5) 0.3936(3)
C24 C 0.1524(8) 0.5354(6) 0.3836(3)
C25 C 0.0108(8) 0.6280(7) 0.4254(4)
C26 C 0.039(1) 0.7212(7) 0.4760(4)
C27 C 0.199(1) 0.7284(7) 0.4872(4)
C28 C 0.3427(9) 0.6367(7) 0.4455(4)
O1 O -0.260(1) 0.8084(9) 0.5108(4)
O2 O -0.087(1) 0.8995(6) 0.5657(4)
O3 O 0.6207(6) 0.4430(4) 0.3548(2)
O4 O 0.4282(4) 0.3652(3) 0.2979(2)
N1 N 0.4451(5) 0.0602(4) 0.2928(2)
N2 N -0.118(1) 0.8148(8) 0.5213(5)
H1 H 0.67140 0.25090 0.26770
H2 H 0.61100 0.08750 0.19320
H3 H 0.39600 0.25530 0.12700
H4 H 0.46840 -0.00630 0.10850
H5 H 0.28920 -0.01390 0.17340
H6 H 0.30780 0.13700 0.02010
H7 H 0.12810 0.13180 0.08520
H8 H 0.16020 -0.02500 -0.01960
H9 H 0.34620 -0.10920 0.00100
H10 H 0.16650 -0.11440 0.06610
H11 H -0.06330 0.34920 0.27840
H12 H 0.62040 0.08440 0.35870
H13 H 0.52250 -0.04830 0.39030
H14 H 0.57840 -0.22280 0.25750
H15 H 0.81520 -0.38640 0.18390
H16 H 1.10120 -0.35540 0.17780
H17 H 1.15970 -0.17440 0.24620
H18 H 0.92260 -0.00400 0.31980
H19 H 0.84940 0.22640 0.12890
H20 H 0.93530 0.35160 0.00590
H21 H 0.76540 0.57420 -0.02590
H22 H 0.50440 0.66670 0.06430
H23 H 0.41170 0.54050 0.18640
H24 H 0.13520 0.46480 0.34670
H25 H -0.10950 0.62770 0.41800
H26 H 0.21660 0.79760 0.52510
H27 H 0.46260 0.64010 0.45250
#END
