
#######################################################################
#
#                 Cambridge Crystallographic Data Centre
#                                CCDC
#
#######################################################################
#
# If this CIF has been generated from an entry in the Cambridge
# Structural Database, then it will include bibliographic, chemical,
# crystal, experimental, refinement or atomic coordinate data resulting
# from the CCDC's data processing and validation procedures.
#
#######################################################################

data_CSD_CIF_RIWPIW
_audit_creation_date 1997-12-10
_audit_creation_method CSD-ConQuest-V1
_database_code_CSD RIWPIW
_database_code_depnum_ccdc_archive 'CCDC 129084'
_chemical_formula_sum 'C9 H6 N2 O2'
_chemical_formula_moiety
;
C9 H6 N2 O2
;
_journal_coeditor_code "IUCr FR1032"
_journal_coden_Cambridge 591
_journal_volume 53
_journal_year 1997
_journal_page_first 1324
_journal_name_full 'Acta Crystallogr.,Sect.C:Cryst.Struct.Commun. '
loop_
_publ_author_name
"N.Okabe"
"M.Akita"
_chemical_name_systematic
;
5-Hydroxyimino-8-quinolone
;
_cell_volume    774.112
_exptl_crystal_colour 'light yellow'
_exptl_crystal_density_diffrn 1.494
_diffrn_ambient_temperature ?
_diffrn_special_details
;
The study was carried out at room temperature,in the range 283-303K

;
#These two values have been output from a single CSD field.
_refine_ls_R_factor_gt 0.058
_refine_ls_wR_factor_gt 0.058
_symmetry_cell_setting monoclinic
_symmetry_space_group_name_H-M 'P 21/n'
_symmetry_Int_Tables_number 14
loop_
_symmetry_equiv_pos_site_id
_symmetry_equiv_pos_as_xyz
1 x,y,z
2 1/2-x,1/2+y,1/2-z
3 -x,-y,-z
4 -1/2+x,-1/2-y,-1/2+z
_cell_length_a 7.946(2)
_cell_length_b 7.190(3)
_cell_length_c 13.593(2)
_cell_angle_alpha 90
_cell_angle_beta 94.58(1)
_cell_angle_gamma 90
_cell_formula_units_Z 4
loop_
_atom_type_symbol
_atom_type_radius_bond
C 0.68
H 0.23
N 0.68
O 0.68
loop_
_atom_site_label
_atom_site_type_symbol
_atom_site_fract_x
_atom_site_fract_y
_atom_site_fract_z
O1 O 0.3540(3) 0.1844(4) -0.1000(2)
O2 O 0.1217(3) 0.0821(4) 0.3119(2)
N1 N -0.1409(3) 0.2459(4) 0.2016(2)
N2 N 0.1951(4) 0.2201(4) -0.0730(2)
C1 C -0.2689(5) 0.3131(7) 0.1439(3)
C2 C -0.2639(5) 0.3353(6) 0.0431(3)
C3 C -0.1187(5) 0.2940(6) 0.0006(2)
C4 C 0.1832(4) 0.1844(5) 0.0205(2)
C5 C 0.3187(5) 0.1142(6) 0.0880(2)
C6 C 0.3004(5) 0.0847(6) 0.1831(3)
C7 C 0.1402(4) 0.1186(5) 0.2260(2)
C8 C 0.0211(4) 0.2257(4) 0.0594(2)
C9 C 0.0022(4) 0.1990(5) 0.1596(2)
H1 H -0.372(4) 0.357(4) 0.176(2)
H2 H -0.355(5) 0.381(5) 0.005(3)
H3 H -0.109(4) 0.315(4) -0.066(2)
H4 H 0.343(6) 0.227(8) -0.171(4)
H5 H 0.421(4) 0.092(5) 0.061(2)
H6 H 0.394(4) 0.032(5) 0.229(2)
#END
