
#######################################################################
#
#                 Cambridge Crystallographic Data Centre
#                                CCDC
#
#######################################################################
#
# If this CIF has been generated from an entry in the Cambridge
# Structural Database, then it will include bibliographic, chemical,
# crystal, experimental, refinement or atomic coordinate data resulting
# from the CCDC's data processing and validation procedures.
#
#######################################################################

data_CSD_CIF_RIWQET
_audit_creation_date 1997-12-10
_audit_creation_method CSD-ConQuest-V1
_database_code_CSD RIWQET
_database_code_depnum_ccdc_archive 'CCDC 129088'
_chemical_formula_sum 'C13 H12 N4 O4'
_chemical_formula_moiety
;
C13 H12 N4 O4
;
_journal_coeditor_code "IUCr NA1281"
_journal_coden_Cambridge 591
_journal_volume 53
_journal_year 1997
_journal_page_first 1331
_journal_name_full 'Acta Crystallogr.,Sect.C:Cryst.Struct.Commun. '
loop_
_publ_author_name
"J.M.Cole"
"J.A.K.Howard"
"J.A.H.MacBride"
_chemical_name_systematic
;
3,5-Dinitro-2-(((R)-(-)-1-phenylethyl)amino)pyridine
;
_cell_volume    641.716
_exptl_crystal_colour 'yellow'
_exptl_crystal_density_diffrn 1.492
_diffrn_ambient_temperature 100
#These two values have been output from a single CSD field.
_refine_ls_R_factor_gt 0.0449
_refine_ls_wR_factor_gt 0.0449
_symmetry_cell_setting monoclinic
_symmetry_space_group_name_H-M 'P 21'
_symmetry_Int_Tables_number 4
loop_
_symmetry_equiv_pos_site_id
_symmetry_equiv_pos_as_xyz
1 x,y,z
2 -x,1/2+y,-z
_cell_length_a 8.389(1)
_cell_length_b 8.580(1)
_cell_length_c 8.934(1)
_cell_angle_alpha 90
_cell_angle_beta 93.689(2)
_cell_angle_gamma 90
_cell_formula_units_Z 2
loop_
_atom_type_symbol
_atom_type_radius_bond
C 0.68
H 0.23
N 0.68
O 0.68
loop_
_atom_site_label
_atom_site_type_symbol
_atom_site_fract_x
_atom_site_fract_y
_atom_site_fract_z
O1 O -0.1566(3) 0.9649(4) 0.7299(3)
O2 O -0.0182(3) 1.0684(4) 0.5592(3)
O3 O 0.5153(3) 0.8907(4) 0.4943(3)
O4 O 0.6102(3) 0.6964(4) 0.6283(3)
N1 N -0.0816(4) 0.6743(4) 0.8228(4)
H1 H -0.1506(54) 0.7390(59) 0.8077(48)
N2 N 0.1773(3) 0.6038(4) 0.7886(3)
N3 N -0.0391(4) 0.9658(4) 0.6528(3)
N4 N 0.4996(4) 0.7843(4) 0.5843(3)
C1 C -0.2451(4) 0.5561(5) 1.0062(4)
C2 C -0.3860(4) 0.4728(5) 1.0004(4)
H2 H -0.4038(49) 0.3969(57) 0.9338(47)
C3 C -0.5051(5) 0.5040(5) 1.0990(4)
H3 H -0.6096(49) 0.4372(53) 1.0889(43)
C4 C -0.4795(5) 0.6182(5) 1.2074(4)
H4 H -0.5689(50) 0.6433(52) 1.2831(46)
C5 C -0.3371(5) 0.7024(5) 1.2167(4)
H5 H -0.3087(49) 0.7798(57) 1.2979(48)
C6 C -0.2224(5) 0.6731(5) 1.1147(4)
H6 H -0.1284(51) 0.7324(54) 1.1211(45)
C7 C -0.1131(5) 0.5259(5) 0.8989(4)
H7 H -0.0147(48) 0.5051(52) 0.9610(42)
C8 C -0.1526(5) 0.3981(5) 0.7838(4)
H8 H -0.1610(53) 0.2936(62) 0.8460(51)
H9 H -0.0685(55) 0.3845(60) 0.7128(49)
H10 H -0.2534(56) 0.4225(59) 0.7202(49)
C9 C 0.0574(4) 0.7090(5) 0.7635(4)
C10 C 0.0824(4) 0.8462(5) 0.6760(4)
C11 C 0.2243(4) 0.8695(5) 0.6132(4)
H11 H 0.2433(45) 0.9690(59) 0.5588(44)
C12 C 0.3437(4) 0.7593(5) 0.6420(4)
C13 C 0.3165(5) 0.6315(5) 0.7310(4)
H12 H 0.4075(47) 0.5478(53) 0.7521(43)
#END
