
#######################################################################
#
#                 Cambridge Crystallographic Data Centre
#                                CCDC
#
#######################################################################
#
# If this CIF has been generated from an entry in the Cambridge
# Structural Database, then it will include bibliographic, chemical,
# crystal, experimental, refinement or atomic coordinate data resulting
# from the CCDC's data processing and validation procedures.
#
#######################################################################

data_CSD_CIF_RIXQOG
_audit_creation_date 2014-05-14
_audit_creation_method CSD-ConQuest-V1
_database_code_CSD RIXQOG
_database_code_depnum_ccdc_archive 'CCDC 988361'
_chemical_formula_sum 'C24 H26 N2 O9'
_chemical_formula_moiety
;
C24 H26 N2 O9
;
_journal_coden_Cambridge 4
_journal_volume 136
_journal_year 2014
_journal_page_first 5799
_journal_name_full 'J.Am.Chem.Soc. '
loop_
_publ_author_name
"S.J.McKerrall"
"L.Jrgensen"
"C.A.Kuttruff"
"Felix Ungeheuer"
"P.S.Baran"
_chemical_name_systematic
;
2-hydroxy-6,6-dimethyl-15-oxo-14-oxapentacyclo[10.2.2.0^1,13^.0^2,8^.0^5,7^]he
xadec-9-yl 3,5-dinitrobenzoate
;
_cell_volume   2275.042
_exptl_crystal_colour 'colorless'
_exptl_crystal_density_diffrn 1.42
_exptl_crystal_description 'Block'
_diffrn_ambient_temperature 100
#These two values have been output from a single CSD field.
_refine_ls_R_factor_gt 0.0438
_refine_ls_wR_factor_gt 0.0438
_symmetry_cell_setting orthorhombic
_symmetry_space_group_name_H-M 'P 21 21 21'
_symmetry_Int_Tables_number 19
loop_
_symmetry_equiv_pos_site_id
_symmetry_equiv_pos_as_xyz
1 x,y,z
2 1/2+x,1/2-y,-z
3 -x,1/2+y,1/2-z
4 1/2-x,-y,1/2+z
_cell_length_a 7.3627(3)
_cell_length_b 16.7402(6)
_cell_length_c 18.4583(6)
_cell_angle_alpha 90
_cell_angle_beta 90
_cell_angle_gamma 90
_cell_formula_units_Z 4
loop_
_atom_type_symbol
_atom_type_radius_bond
C 0.68
H 0.23
N 0.68
O 0.68
loop_
_atom_site_label
_atom_site_type_symbol
_atom_site_fract_x
_atom_site_fract_y
_atom_site_fract_z
O1 O -1.2039(3) -0.21935(12) -0.65658(12)
O2 O -1.0162(3) -0.05729(14) -0.57851(12)
O3 O -0.7566(2) -0.20107(12) -0.79257(11)
O4 O -1.1105(3) -0.15390(12) -0.79999(11)
H1 H -1.21800 -0.17040 -0.79730
O5 O -0.4622(3) -0.22526(13) -0.81768(12)
O6 O -1.2174(3) -0.29248(15) -0.95640(13)
O7 O -1.1508(4) -0.37870(15) -1.03971(13)
O8 O -0.6064(4) -0.53797(15) -1.00422(14)
O9 O -0.3881(4) -0.49112(15) -0.93731(13)
N1 N -1.1136(4) -0.33929(16) -0.98597(14)
N2 N -0.5406(4) -0.48711(16) -0.96445(15)
C1 C -1.0195(4) -0.24208(17) -0.67258(16)
H2 H -0.99360 -0.26730 -0.72060
C2 C -1.0681(4) -0.15803(18) -0.67109(16)
C3 C -1.0100(4) -0.1260(2) -0.59758(17)
C4 C -0.9421(5) -0.1965(2) -0.55364(17)
H3 H -1.03770 -0.21600 -0.52040
H4 H -0.83390 -0.18150 -0.52490
C5 C -0.8938(5) -0.26054(19) -0.61016(16)
H5 H -0.91380 -0.31570 -0.59090
C6 C -0.7000(4) -0.25025(18) -0.64075(16)
H6 H -0.61310 -0.26540 -0.60220
H7 H -0.68460 -0.28900 -0.68080
C7 C -0.6442(4) -0.16730(17) -0.66928(16)
H8 H -0.50990 -0.16630 -0.67070
H9 H -0.68200 -0.12780 -0.63230
C8 C -0.7121(4) -0.13563(17) -0.74369(16)
H10 H -0.60610 -0.10750 -0.76600
C9 C -0.8713(4) -0.07595(16) -0.74653(15)
H11 H -0.85050 -0.03750 -0.70590
C10 C -1.0698(4) -0.10651(18) -0.73765(16)
C11 C -1.2030(4) -0.03424(18) -0.73241(17)
H12 H -1.30510 -0.04320 -0.76630
H13 H -1.25390 -0.03230 -0.68280
C12 C -1.1161(4) 0.04669(18) -0.74957(16)
H14 H -1.21270 0.08680 -0.75760
H15 H -1.04230 0.06430 -0.70770
C13 C -0.9962(4) 0.04201(17) -0.81640(17)
H16 H -1.05910 0.05150 -0.86370
C14 C -0.8633(4) -0.02717(17) -0.81525(15)
H17 H -0.85060 -0.05790 -0.86140
C15 C -0.7929(4) 0.05741(18) -0.81615(17)
C16 C -0.7084(5) 0.08420(19) -0.88698(17)
H18 H -0.77100 0.05820 -0.92750
H19 H -0.57960 0.06940 -0.88760
H20 H -0.72000 0.14230 -0.89160
C17 C -0.6984(4) 0.09308(18) -0.75090(17)
H21 H -0.57470 0.07180 -0.74760
H22 H -0.76580 0.07930 -0.70690
H23 H -0.69340 0.15130 -0.75600
C18 C -0.6221(4) -0.23717(16) -0.82675(14)
C19 C -0.6958(4) -0.29817(17) -0.87849(15)
C20 C -0.8720(4) -0.29132(17) -0.90464(15)
H24 H -0.95000 -0.24970 -0.88860
C21 C -0.9304(4) -0.34739(18) -0.95516(16)
C22 C -0.8245(5) -0.41091(18) -0.97737(15)
H25 H -0.86760 -0.44880 -1.01160
C23 C -0.6534(4) -0.41668(17) -0.94752(15)
C24 C -0.5845(4) -0.36014(18) -0.90000(15)
H26 H -0.46340 -0.36400 -0.88260
#END
