
#######################################################################
#
#                 Cambridge Crystallographic Data Centre
#                                CCDC
#
#######################################################################
#
# If this CIF has been generated from an entry in the Cambridge
# Structural Database, then it will include bibliographic, chemical,
# crystal, experimental, refinement or atomic coordinate data resulting
# from the CCDC's data processing and validation procedures.
#
#######################################################################

data_CSD_CIF_RIYHEO
_audit_creation_date 2014-05-14
_audit_creation_method CSD-ConQuest-V1
_database_code_CSD RIYHEO
_database_code_depnum_ccdc_archive 'CCDC 965228'
_chemical_formula_sum 'C22 H29 N1 O5'
_chemical_formula_moiety
;
C22 H29 N1 O5
;
_journal_coden_Cambridge 4
_journal_volume 136
_journal_year 2014
_journal_page_first 6943
_journal_name_full 'J.Am.Chem.Soc. '
loop_
_publ_author_name
"S.P.Morcillo"
"D.Miguel"
"S.Resa"
"A.Martin-Lasanta"
"A.Millan"
"D.Choquesillo-Lazarte"
"J.M.Garcia-Ruiz"
"A.J.Mota"
"J.Justicia"
"J.M.Cuerva"
_chemical_name_systematic
;
1,1,4a,5,6-pentamethyl-7-oxodecahydronaphthalen-2-yl 4-nitrobenzoate
;
_cell_volume   4063.019
_exptl_crystal_colour 'colorless'
_exptl_crystal_density_diffrn 1.267
_exptl_crystal_description 'plate'
_diffrn_ambient_temperature 120
_diffrn_special_details
;
twin

;
#These two values have been output from a single CSD field.
_refine_ls_R_factor_gt 0.058
_refine_ls_wR_factor_gt 0.058
_symmetry_cell_setting monoclinic
_symmetry_space_group_name_H-M 'C 2/c'
_symmetry_Int_Tables_number 15
loop_
_symmetry_equiv_pos_site_id
_symmetry_equiv_pos_as_xyz
1 x,y,z
2 -x,y,1/2-z
3 1/2+x,1/2+y,z
4 1/2-x,1/2+y,1/2-z
5 -x,-y,-z
6 x,-y,-1/2+z
7 -1/2-x,-1/2-y,-z
8 -1/2+x,-1/2-y,-1/2+z
_cell_length_a 40.770(2)
_cell_length_b 8.0162(5)
_cell_length_c 12.5151(9)
_cell_angle_alpha 90
_cell_angle_beta 96.608(3)
_cell_angle_gamma 90
_cell_formula_units_Z 8
loop_
_atom_type_symbol
_atom_type_radius_bond
C 0.68
H 0.23
N 0.68
O 0.68
loop_
_atom_site_label
_atom_site_type_symbol
_atom_site_fract_x
_atom_site_fract_y
_atom_site_fract_z
C1 C 0.10098(8) 0.1214(4) 0.2232(3)
H1 H 0.10270 0.14690 0.30100
H2 H 0.09600 0.00100 0.21410
C2 C 0.13379(9) 0.1572(4) 0.1830(3)
H3 H 0.15120 0.08750 0.22260
H4 H 0.13260 0.12920 0.10560
C3 C 0.14227(8) 0.3384(4) 0.1993(3)
H5 H 0.14480 0.36210 0.27830
C4 C 0.11669(8) 0.4606(4) 0.1437(3)
C5 C 0.08202(8) 0.4097(4) 0.1740(3)
H6 H 0.08260 0.43710 0.25210
C6 C 0.05387(8) 0.5167(4) 0.1174(3)
H7 H 0.03510 0.51390 0.16070
H8 H 0.06150 0.63380 0.11550
C7 C 0.04192(8) 0.4634(4) 0.0053(3)
C8 C 0.03774(8) 0.2788(4) -0.0170(3)
H9 H 0.01630 0.24590 0.00880
C9 C 0.06465(8) 0.1686(4) 0.0451(3)
H10 H 0.08540 0.18460 0.01060
C10 C 0.07231(8) 0.2219(4) 0.1649(3)
C11 C 0.05488(10) -0.0153(4) 0.0312(3)
H11 H 0.03470 -0.03580 0.06480
H12 H 0.07270 -0.08560 0.06560
H13 H 0.05100 -0.04210 -0.04560
C12 C 0.03402(10) 0.2450(5) -0.1376(3)
H14 H 0.05580 0.24830 -0.16360
H15 H 0.01970 0.33020 -0.17480
H16 H 0.02410 0.13460 -0.15190
C13 C 0.04187(9) 0.1929(5) 0.2244(3)
H17 H 0.02250 0.24440 0.18380
H18 H 0.04560 0.24300 0.29620
H19 H 0.03810 0.07280 0.23110
C14 C 0.12538(10) 0.6359(4) 0.1907(3)
H20 H 0.12260 0.63700 0.26740
H21 H 0.11070 0.71890 0.15290
H22 H 0.14830 0.66260 0.18140
C15 C 0.11956(8) 0.4700(5) 0.0222(3)
H23 H 0.13990 0.52920 0.01040
H24 H 0.10050 0.52990 -0.01400
H25 H 0.12020 0.35690 -0.00720
C16 C 0.20139(9) 0.3518(4) 0.2227(3)
C17 C 0.23070(8) 0.3879(4) 0.1655(3)
C18 C 0.26188(8) 0.3432(4) 0.2143(3)
H26 H 0.26390 0.28610 0.28120
C19 C 0.28989(9) 0.3808(4) 0.1666(3)
H27 H 0.31110 0.34820 0.19920
C20 C 0.28624(8) 0.4671(5) 0.0703(3)
C21 C 0.25564(8) 0.5116(5) 0.0199(3)
H28 H 0.25380 0.56930 -0.04690
C22 C 0.22771(8) 0.4716(5) 0.0673(3)
H29 H 0.20650 0.50120 0.03300
N1 N 0.31600(7) 0.5184(5) 0.0233(3)
O1 O 0.17360(5) 0.3741(3) 0.15826(19)
O2 O 0.03337(6) 0.5671(3) -0.0640(2)
O3 O 0.20308(6) 0.3092(3) 0.31578(19)
O4 O 0.31242(7) 0.6054(4) -0.0577(2)
O5 O 0.34284(6) 0.4738(4) 0.0678(2)
#END
