
#######################################################################
#
#                 Cambridge Crystallographic Data Centre
#                                CCDC
#
#######################################################################
#
# If this CIF has been generated from an entry in the Cambridge
# Structural Database, then it will include bibliographic, chemical,
# crystal, experimental, refinement or atomic coordinate data resulting
# from the CCDC's data processing and validation procedures.
#
#######################################################################

data_CSD_CIF_RIYNIX
_audit_creation_date 2008-07-04
_audit_creation_method CSD-ConQuest-V1
_database_code_CSD RIYNIX
_database_code_depnum_ccdc_archive 'CCDC 671467'
_chemical_formula_sum 'C20 H18 N2 O5'
_chemical_formula_moiety
;
C20 H18 N2 O5
;
_journal_coden_Cambridge 24
_journal_volume 49
_journal_year 2008
_journal_page_first 2124
_journal_name_full 'Tetrahedron Lett. '
loop_
_publ_author_name
"Y.Nishigaichi"
"K.Tamura"
"N.Ueda"
"H.Iwamoto"
"A.Takuwa"
_chemical_name_systematic
;
syn-2-(5-Hydroxy-3-methylene-5-(4-nitrophenyl)pentan-2-yl)-1H-isoindole-1,3(2H
)-dione
;
_cell_volume   1782.798
_exptl_crystal_colour 'colorless'
_exptl_crystal_density_diffrn 1.359
_exptl_crystal_description 'platelet'
_diffrn_ambient_temperature 293.2
#These two values have been output from a single CSD field.
_refine_ls_R_factor_gt 0.0456
_refine_ls_wR_factor_gt 0.0456
_symmetry_cell_setting monoclinic
_symmetry_space_group_name_H-M 'P 21/n'
_symmetry_Int_Tables_number 14
loop_
_symmetry_equiv_pos_site_id
_symmetry_equiv_pos_as_xyz
1 x,y,z
2 1/2-x,1/2+y,1/2-z
3 -x,-y,-z
4 -1/2+x,-1/2-y,-1/2+z
_cell_length_a 14.9076(8)
_cell_length_b 7.8762(4)
_cell_length_c 15.7625(8)
_cell_angle_alpha 90
_cell_angle_beta 105.575(2)
_cell_angle_gamma 90
_cell_formula_units_Z 4
loop_
_atom_type_symbol
_atom_type_radius_bond
C 0.68
H 0.23
N 0.68
O 0.68
loop_
_atom_site_label
_atom_site_type_symbol
_atom_site_fract_x
_atom_site_fract_y
_atom_site_fract_z
O1 O 0.6150(2) 0.7571(4) 0.4267(2)
O2 O 0.5698(3) 0.5675(4) 0.3279(2)
O3 O 0.7051(2) -0.0553(3) 0.6469(1)
O4 O 0.6154(2) 0.4187(3) 0.8885(2)
O5 O 0.4110(2) -0.0263(3) 0.8401(2)
N1 N 0.5985(2) 0.6109(5) 0.4040(2)
N2 N 0.5318(2) 0.1684(3) 0.8629(2)
C1 C 0.6514(3) 0.4014(5) 0.6227(2)
C2 C 0.6352(3) 0.5285(5) 0.5600(2)
C3 C 0.6128(2) 0.4782(5) 0.4723(2)
C4 C 0.6050(3) 0.3093(5) 0.4454(3)
C5 C 0.6235(3) 0.1859(4) 0.5116(2)
C6 C 0.6470(2) 0.2304(5) 0.6000(2)
C7 C 0.6671(3) 0.0952(5) 0.6722(2)
C8 C 0.5782(3) 0.0574(5) 0.6986(2)
C9 C 0.5941(2) -0.0476(5) 0.7823(2)
C10 C 0.6106(2) 0.0520(4) 0.8674(2)
C11 C 0.6306(4) -0.0498(7) 0.9520(3)
C12 C 0.5966(3) -0.2153(5) 0.7807(3)
C13 C 0.5421(3) 0.3438(5) 0.8760(2)
C14 C 0.4473(3) 0.4100(5) 0.8710(2)
C15 C 0.4168(4) 0.5729(6) 0.8774(3)
C16 C 0.3241(3) 0.5958(6) 0.8685(3)
C17 C 0.2616(3) 0.4627(6) 0.8528(3)
C18 C 0.2923(3) 0.2974(5) 0.8452(3)
C19 C 0.3861(3) 0.2770(5) 0.8560(2)
C20 C 0.4392(3) 0.1182(5) 0.8513(2)
H1 H 0.669(2) 0.439(4) 0.681(2)
H2 H 0.647(2) 0.668(5) 0.571(2)
H3 H 0.599(3) 0.270(5) 0.370(2)
H4 H 0.61790 0.06260 0.49530
H5 H 0.71190 0.14220 0.72550
H6 H 0.534(3) 0.180(5) 0.709(2)
H7 H 0.54060 -0.01490 0.64960
H8 H 0.66630 0.12450 0.87070
H9 H 0.641(3) 0.044(5) 1.007(3)
H10 H 0.562(3) -0.124(5) 0.953(2)
H11 H 0.675(2) -0.132(4) 0.957(2)
H12 H 0.592(2) -0.272(4) 0.732(2)
H13 H 0.604(2) -0.287(4) 0.844(2)
H14 H 0.455(2) 0.656(4) 0.889(2)
H15 H 0.296(3) 0.721(5) 0.866(2)
H16 H 0.19370 0.48470 0.84650
H17 H 0.254(3) 0.197(5) 0.826(2)
#END
