
#######################################################################
#
#                 Cambridge Crystallographic Data Centre
#                                CCDC
#
#######################################################################
#
# If this CIF has been generated from an entry in the Cambridge
# Structural Database, then it will include bibliographic, chemical,
# crystal, experimental, refinement or atomic coordinate data resulting
# from the CCDC's data processing and validation procedures.
#
#######################################################################

data_CSD_CIF_RIYRAT
_audit_creation_date 2008-07-04
_audit_creation_method CSD-ConQuest-V1
_database_code_CSD RIYRAT
_database_code_depnum_ccdc_archive 'CCDC 690878'
_chemical_formula_sum 'C16 H13 N1 O3'
_chemical_formula_moiety
;
C16 H13 N1 O3
;
_journal_coeditor_code "IUCr CI2586"
_journal_coden_Cambridge 1370
_journal_volume 64
_journal_year 2008
_journal_page_first o954
_journal_name_full 'Acta Crystallogr.,Sect.E:Struct.Rep.Online '
loop_
_publ_author_name
"H.-K.Fun"
"S.Chantrapromma"
"P.S.Patil"
"E.D.D'Silva"
"S.M.Dharmaprakash"
_chemical_name_systematic
;
3-(4-methylphenyl)-1-(4-nitrophenyl)prop-2-en-1-one
;
_cell_volume   1260.065
_exptl_crystal_colour 'yellow'
_exptl_crystal_density_diffrn 1.409
_exptl_crystal_description 'Block'
_exptl_crystal_preparation 'N,N-dimethylformamide'
_diffrn_ambient_temperature 100.00
#These two values have been output from a single CSD field.
_refine_ls_R_factor_gt 0.0469
_refine_ls_wR_factor_gt 0.0469
_symmetry_cell_setting triclinic
_symmetry_space_group_name_H-M 'P -1'
_symmetry_Int_Tables_number 2
loop_
_symmetry_equiv_pos_site_id
_symmetry_equiv_pos_as_xyz
1 x,y,z
2 -x,-y,-z
_cell_length_a 5.8857(1)
_cell_length_b 7.8800(1)
_cell_length_c 27.4745(4)
_cell_angle_alpha 88.793(1)
_cell_angle_beta 85.665(1)
_cell_angle_gamma 82.645(1)
_cell_formula_units_Z 4
loop_
_atom_type_symbol
_atom_type_radius_bond
C 0.68
H 0.23
N 0.68
O 0.68
loop_
_atom_site_label
_atom_site_type_symbol
_atom_site_fract_x
_atom_site_fract_y
_atom_site_fract_z
O1 O 0.21638(17) 0.20887(14) 0.77198(4)
O2 O 0.88278(19) -0.18446(17) 0.96280(4)
O3 O 0.52447(19) -0.18264(14) 0.98705(4)
N1 N 0.6782(2) -0.14787(16) 0.95730(4)
C1 C 0.7223(2) 0.03671(18) 0.83164(5)
H1 H 0.83400 0.04630 0.80630
C2 C 0.7813(2) -0.04744(18) 0.87474(5)
H2 H 0.93190 -0.09550 0.87850
C3 C 0.6122(2) -0.05826(17) 0.91193(5)
C4 C 0.3867(2) 0.00997(18) 0.90810(5)
H3 H 0.27610 0.00090 0.93370
C5 C 0.3298(2) 0.09255(18) 0.86483(5)
H4 H 0.17860 0.13940 0.86130
C6 C 0.4958(2) 0.10657(17) 0.82647(5)
C7 C 0.4201(2) 0.19297(17) 0.77999(5)
C8 C 0.5949(2) 0.25902(17) 0.74603(5)
H5 H 0.74500 0.25550 0.75480
C9 C 0.5374(2) 0.32427(17) 0.70247(5)
H6 H 0.38910 0.31560 0.69410
C10 C 0.6854(2) 0.40782(17) 0.66680(5)
C11 C 0.6179(2) 0.43784(17) 0.61919(5)
H7 H 0.48110 0.40260 0.61090
C12 C 0.7501(2) 0.51888(17) 0.58421(5)
H8 H 0.70270 0.53500 0.55270
C13 C 0.9536(2) 0.57638(17) 0.59585(5)
C14 C 1.0189(2) 0.54932(17) 0.64355(5)
H9 H 1.15250 0.58870 0.65210
C15 C 0.8900(2) 0.46549(17) 0.67837(5)
H10 H 0.93960 0.44740 0.70960
C16 C 1.0971(2) 0.66602(19) 0.55834(5)
H11 H 0.99970 0.75090 0.54140
H12 H 1.17530 0.58410 0.53540
H13 H 1.20790 0.72030 0.57430
O4 O -0.02096(17) 0.84372(13) 0.73497(4)
O5 O 0.65858(19) 1.10645(15) 0.52474(4)
O6 O 0.3249(2) 1.25845(15) 0.52514(4)
N2 N 0.4637(2) 1.14949(16) 0.54285(4)
C17 C 0.4905(2) 0.88516(18) 0.65652(5)
H14 H 0.59790 0.81230 0.67260
C18 C 0.5542(2) 0.95813(18) 0.61183(5)
H15 H 0.70300 0.93390 0.59760
C19 C 0.3911(2) 1.06743(17) 0.58920(5)
C20 C 0.1681(2) 1.10666(18) 0.60879(5)
H16 H 0.06250 1.18170 0.59280
C21 C 0.1060(2) 1.03113(18) 0.65291(5)
H17 H -0.04410 1.05410 0.66650
C22 C 0.2662(2) 0.92085(17) 0.67722(5)
C23 C 0.1851(2) 0.84063(17) 0.72448(5)
C24 C 0.3587(2) 0.75994(18) 0.75670(5)
H18 H 0.51390 0.75410 0.74660
C25 C 0.2950(2) 0.69516(17) 0.80024(5)
H19 H 0.13800 0.70500 0.80890
C26 C 0.4455(2) 0.61059(17) 0.83569(5)
C27 C 0.3559(2) 0.57945(18) 0.88324(5)
H20 H 0.20140 0.61410 0.89190
C28 C 0.4946(2) 0.49752(18) 0.91766(5)
H21 H 0.43200 0.47920 0.94910
C29 C 0.7260(2) 0.44249(18) 0.90559(5)
C30 C 0.8147(2) 0.47184(18) 0.85790(5)
H22 H 0.96840 0.43480 0.84900
C31 C 0.6776(2) 0.55527(18) 0.82360(5)
H23 H 0.74080 0.57460 0.79220
C32 C 0.8747(3) 0.3557(2) 0.94323(5)
H24 H 0.84750 0.41840 0.97310
H25 H 1.03340 0.35200 0.93170
H26 H 0.83850 0.24130 0.94890
#END
