
#######################################################################
#
#                 Cambridge Crystallographic Data Centre
#                                CCDC
#
#######################################################################
#
# If this CIF has been generated from an entry in the Cambridge
# Structural Database, then it will include bibliographic, chemical,
# crystal, experimental, refinement or atomic coordinate data resulting
# from the CCDC's data processing and validation procedures.
#
#######################################################################

data_CSD_CIF_RIYVOL
_audit_creation_date 2008-07-04
_audit_creation_method CSD-ConQuest-V1
_database_code_CSD RIYVOL
_database_code_depnum_ccdc_archive 'CCDC 690896'
_chemical_formula_sum 'C18 H21 N3 O5'
_chemical_formula_moiety
;
C18 H21 N3 O5
;
_journal_coeditor_code "IUCr LH2602"
_journal_coden_Cambridge 1370
_journal_volume 64
_journal_year 2008
_journal_page_first o978
_journal_name_full 'Acta Crystallogr.,Sect.E:Struct.Rep.Online '
loop_
_publ_author_name
"A.Mai"
"G.S.Khan"
"G.R.Clark"
"D.Barker"
_chemical_name_systematic
;
N-(3-(bis(2-hydroxyethyl)aminomethyl)-5-nitrophenyl)benzamide
;
_chemical_melting_point 385
_cell_volume   3413.536
_exptl_crystal_colour 'yellow'
_exptl_crystal_density_diffrn 1.399
_exptl_special_details
;
Melting point range 385-387K

;
_exptl_crystal_description 'needle'
_exptl_crystal_preparation 'ethyl acetate'
_diffrn_ambient_temperature 90
#These two values have been output from a single CSD field.
_refine_ls_R_factor_gt 0.0581
_refine_ls_wR_factor_gt 0.0581
_symmetry_cell_setting monoclinic
_symmetry_space_group_name_H-M 'P 21/c'
_symmetry_Int_Tables_number 14
loop_
_symmetry_equiv_pos_site_id
_symmetry_equiv_pos_as_xyz
1 x,y,z
2 -x,1/2+y,1/2-z
3 -x,-y,-z
4 x,-1/2-y,-1/2+z
_cell_length_a 22.7867(3)
_cell_length_b 11.0879(1)
_cell_length_c 13.5106(1)
_cell_angle_alpha 90
_cell_angle_beta 90.114(1)
_cell_angle_gamma 90
_cell_formula_units_Z 8
loop_
_atom_type_symbol
_atom_type_radius_bond
C 0.68
H 0.23
N 0.68
O 0.68
loop_
_atom_site_label
_atom_site_type_symbol
_atom_site_fract_x
_atom_site_fract_y
_atom_site_fract_z
O1 O 0.75115(7) 0.40282(14) 0.38171(13)
O2 O 0.49791(7) 0.27802(15) 0.31865(13)
O3 O 0.56436(7) 0.41672(15) 0.30441(13)
O4 O 0.74524(7) -0.35100(16) 0.37188(13)
H1 H 0.7493(15) -0.433(3) 0.384(2)
O5 O 0.67682(7) -0.03575(15) 0.58394(12)
H2 H 0.7008(14) -0.098(3) 0.574(2)
N1 N 0.75628(7) 0.19893(16) 0.37317(13)
H3 H 0.78000 0.13870 0.37340
N2 N 0.54971(8) 0.31179(18) 0.31848(14)
N3 N 0.63691(8) -0.19644(16) 0.41918(13)
C1 C 0.62210(9) 0.0133(2) 0.35151(15)
C2 C 0.68029(9) 0.0499(2) 0.36241(15)
H4 H 0.70940 -0.00810 0.37080
C3 C 0.69585(9) 0.1717(2) 0.36096(15)
C4 C 0.65270(9) 0.2599(2) 0.34618(15)
H5 H 0.66210 0.34150 0.34400
C5 C 0.59536(9) 0.2201(2) 0.33495(15)
C6 C 0.57860(9) 0.1005(2) 0.33811(15)
H6 H 0.53940 0.07860 0.33150
C7 C 0.60623(9) -0.1185(2) 0.34772(16)
H7 H 0.56430 -0.12610 0.35870
H8 H 0.61430 -0.14820 0.28160
C8 C 0.78069(9) 0.3098(2) 0.38447(15)
C9 C 0.84602(9) 0.3155(2) 0.39933(14)
C10 C 0.88212(9) 0.2143(2) 0.40848(15)
H9 H 0.86590 0.13740 0.40610
C11 C 0.94201(10) 0.2282(2) 0.42108(16)
H10 H 0.96580 0.16030 0.42690
C12 C 0.96711(10) 0.3422(2) 0.42520(16)
H11 H 1.00740 0.35080 0.43320
C13 C 0.93159(10) 0.4429(2) 0.41722(17)
H12 H 0.94810 0.51950 0.42020
C14 C 0.87147(10) 0.4300(2) 0.40483(16)
H13 H 0.84790 0.49820 0.40010
C15 C 0.63902(10) -0.3212(2) 0.38016(16)
H14 H 0.60360 -0.33710 0.34240
H15 H 0.64020 -0.37750 0.43510
C16 C 0.69204(10) -0.3417(2) 0.31475(17)
H16 H 0.68650 -0.41520 0.27690
H17 H 0.69560 -0.27530 0.26840
C17 C 0.61045(10) -0.1931(2) 0.51788(16)
H18 H 0.62800 -0.25640 0.55780
H19 H 0.56890 -0.21100 0.51160
C18 C 0.61714(10) -0.0742(2) 0.57241(17)
H20 H 0.59570 -0.01240 0.53670
H21 H 0.59950 -0.08190 0.63740
O6 O 0.75199(7) 0.42678(15) 0.63678(14)
O7 O 1.00570(7) 0.29674(15) 0.68363(12)
O8 O 0.93973(7) 0.43732(15) 0.69510(13)
O9 O 0.75112(7) -0.22469(16) 0.54787(15)
H22 H 0.7437(17) -0.269(4) 0.482(3)
O10 O 0.81384(7) -0.05141(15) 0.39894(13)
H23 H 0.7984(15) -0.080(3) 0.455(3)
N4 N 0.74752(7) 0.22275(16) 0.62409(13)
H24 H 0.72400 0.16310 0.61500
N5 N 0.95413(8) 0.33162(17) 0.68277(13)
N6 N 0.87113(8) -0.15414(16) 0.55811(13)
C19 C 0.88035(9) 0.0342(2) 0.65113(15)
C20 C 0.82249(9) 0.0722(2) 0.63819(15)
H25 H 0.79330 0.01470 0.62860
C21 C 0.80713(9) 0.1941(2) 0.63923(14)
C22 C 0.85090(9) 0.2812(2) 0.65427(15)
H26 H 0.84210 0.36310 0.65550
C23 C 0.90790(9) 0.2400(2) 0.66727(15)
C24 C 0.92402(9) 0.1200(2) 0.66600(15)
H27 H 0.96300 0.09720 0.67480
C25 C 0.8940(1) -0.0993(2) 0.64869(16)
H28 H 0.93610 -0.11110 0.65200
H29 H 0.87650 -0.13830 0.70580
C26 C 0.72308(9) 0.3357(2) 0.62235(16)
C27 C 0.65804(9) 0.3421(2) 0.60460(15)
C28 C 0.62171(9) 0.2426(2) 0.59274(16)
H30 H 0.63760 0.16530 0.59350
C29 C 0.56166(10) 0.2582(2) 0.57970(17)
H31 H 0.53750 0.19120 0.57180
C30 C 0.53755(10) 0.3727(2) 0.57847(16)
H32 H 0.49730 0.38260 0.56990
C31 C 0.57351(10) 0.4725(2) 0.59003(17)
H33 H 0.55740 0.54960 0.58940
C32 C 0.63358(10) 0.4578(2) 0.60249(16)
H34 H 0.65760 0.52510 0.60950
C33 C 0.8539(1) -0.2800(2) 0.56934(18)
H35 H 0.88100 -0.32050 0.61380
H36 H 0.85560 -0.32020 0.50560
C34 C 0.7919(1) -0.2881(2) 0.6105(2)
H37 H 0.78030 -0.37210 0.61520
H38 H 0.79100 -0.25370 0.67650
C35 C 0.90493(9) -0.1255(2) 0.46962(16)
H39 H 0.93540 -0.18560 0.46030
H40 H 0.92370 -0.04760 0.47770
C36 C 0.86478(10) -0.1229(2) 0.37859(17)
H41 H 0.88580 -0.08910 0.32270
H42 H 0.85300 -0.20440 0.36160
#END
