
#######################################################################
#
#                 Cambridge Crystallographic Data Centre
#                                CCDC
#
#######################################################################
#
# If this CIF has been generated from an entry in the Cambridge
# Structural Database, then it will include bibliographic, chemical,
# crystal, experimental, refinement or atomic coordinate data resulting
# from the CCDC's data processing and validation procedures.
#
#######################################################################

data_CSD_CIF_RIZCOS
_audit_creation_date 1997-12-19
_audit_creation_method CSD-ConQuest-V1
_database_code_CSD RIZCOS
_database_code_depnum_ccdc_journal 207/91
_chemical_formula_sum 'C25 H18 N2 O4'
_chemical_formula_moiety
;
C25 H18 N2 O4
;
_journal_coden_Cambridge 207
_journal_year 1997
_journal_page_first 1233
_journal_name_full 'J.Chem.Soc.,Perkin Trans.1 '
loop_
_publ_author_name
"K.Kishikawa"
"K.Yoshizaki"
"S.Kohmoto"
"M.Yamamoto"
"K.Yamaguchi"
"K.Yamada"
_chemical_name_systematic
;
N-(2'-Methyl-4'-nitrophenyl)-9,10-dihydro-9,10-ethanoanthracene-11,12-dicarbox
imide
;
_chemical_melting_point 488.15
_cell_volume   2018.520
_exptl_crystal_colour 'colorless'
_exptl_crystal_density_diffrn 1.35
_exptl_special_details
;
Melting point range 488.15-490.15K

;
_diffrn_ambient_temperature ?
_diffrn_special_details
;
The study was carried out at room temperature,in the range 283-303K

;
#These two values have been output from a single CSD field.
_refine_ls_R_factor_gt 0.067
_refine_ls_wR_factor_gt 0.067
_symmetry_cell_setting monoclinic
_symmetry_space_group_name_H-M 'P 21/n'
_symmetry_Int_Tables_number 14
loop_
_symmetry_equiv_pos_site_id
_symmetry_equiv_pos_as_xyz
1 x,y,z
2 1/2-x,1/2+y,1/2-z
3 -x,-y,-z
4 -1/2+x,-1/2-y,-1/2+z
_cell_length_a 11.283(2)
_cell_length_b 16.103(2)
_cell_length_c 11.391(1)
_cell_angle_alpha 90
_cell_angle_beta 102.76(1)
_cell_angle_gamma 90
_cell_formula_units_Z 4
loop_
_atom_type_symbol
_atom_type_radius_bond
C 0.68
H 0.23
N 0.68
O 0.68
loop_
_atom_site_label
_atom_site_type_symbol
_atom_site_fract_x
_atom_site_fract_y
_atom_site_fract_z
O1 O -0.1156(5) -0.1702(3) -0.8183(4)
O2 O -0.2486(5) -0.0755(4) -0.8843(4)
O3 O -0.0227(4) 0.0071(3) -0.2503(3)
O4 O -0.4164(4) -0.0794(3) -0.3556(4)
N1 N -0.1828(5) -0.1139(4) -0.8029(5)
N2 N -0.2164(4) -0.0406(3) -0.3292(4)
C1 C -0.2452(5) 0.1255(4) -0.0130(5)
C2 C -0.2004(6) 0.1596(4) 0.0989(5)
C3 C -0.2792(7) 0.1672(4) 0.1792(5)
C4 C -0.3969(7) 0.1420(4) 0.1451(6)
C5 C -0.4419(6) 0.1085(4) 0.0314(5)
C6 C -0.3648(5) 0.1007(3) -0.0484(5)
C7 C -0.3979(5) 0.0646(4) -0.1731(5)
C8 C -0.3632(5) 0.1274(4) -0.2582(5)
C9 C -0.4368(6) 0.1561(4) -0.3627(6)
C10 C -0.3900(8) 0.2116(5) -0.4335(6)
C11 C -0.2712(8) 0.2380(5) -0.3973(7)
C12 C -0.1966(6) 0.2093(4) -0.2935(5)
C13 C -0.2440(5) 0.1532(4) -0.2242(5)
C14 C -0.1745(5) 0.1117(4) -0.1104(5)
C15 C -0.1803(5) 0.0172(4) -0.1335(5)
C16 C -0.3128(5) -0.0118(4) -0.1706(4)
C17 C -0.3281(5) -0.0489(4) -0.2945(5)
C18 C -0.1251(5) -0.0050(4) -0.2416(5)
C19 C -0.2023(5) -0.0595(4) -0.4494(5)
C20 C -0.1284(5) -0.1229(4) -0.4673(5)
C21 C -0.1203(6) -0.1383(4) -0.5862(5)
C22 C -0.1868(5) -0.0927(4) -0.6775(5)
C23 C -0.2602(6) -0.0298(4) -0.6596(5)
C24 C -0.2675(5) -0.0116(4) -0.5421(5)
C25 C -0.0550(7) -0.1726(5) -0.3684(6)
H1 H -0.11450 0.22700 -0.27010
H2 H -0.11890 0.17750 0.12260
H3 H -0.24900 0.18950 0.25630
H4 H -0.44920 0.14870 0.19960
H5 H -0.52410 0.09140 0.00860
H6 H -0.51800 0.13870 -0.38520
H7 H -0.44040 0.23110 -0.50530
H8 H -0.24180 0.27700 -0.44630
H9 H -0.48030 0.04980 -0.19570
H10 H -0.09270 0.13160 -0.08680
H11 H -0.14040 -0.01130 -0.06490
H12 H -0.32830 -0.05130 -0.11550
H13 H -0.06700 -0.18010 -0.60270
H14 H -0.30240 0.00200 -0.72470
H15 H -0.31960 0.03270 -0.52640
H16 H -0.07330 -0.23120 -0.38320
H17 H 0.03090 -0.16660 -0.36970
H18 H -0.06680 -0.15770 -0.29380
#END
