
#######################################################################
#
#                 Cambridge Crystallographic Data Centre
#                                CCDC
#
#######################################################################
#
# If this CIF has been generated from an entry in the Cambridge
# Structural Database, then it will include bibliographic, chemical,
# crystal, experimental, refinement or atomic coordinate data resulting
# from the CCDC's data processing and validation procedures.
#
#######################################################################

data_CSD_CIF_ROBCOC
_audit_creation_date 2014-05-14
_audit_creation_method CSD-ConQuest-V1
_database_code_CSD ROBCOC
_database_code_depnum_ccdc_archive 'CCDC 971822'
_chemical_formula_sum 'C30 H32 N4 O6'
_chemical_formula_moiety
;
C30 H32 N4 O6
;
_journal_coden_Cambridge 4
_journal_volume 136
_journal_year 2014
_journal_page_first 2851
_journal_name_full 'J.Am.Chem.Soc. '
loop_
_publ_author_name
"D.Nitsch"
"S.M.Huber"
"A.Pothig"
"A.Narayanan"
"G.A.Olah"
"G.K.Surya Prakash"
"T.Bach"
_chemical_name_systematic
;
1-(2,4-Dinitrophenyl)-2-(4-methoxy-3-((4-methoxyphenyl)ethynyl)-5,5-dimethyl-1
-phenylhexylidene)hydrazine
;
_cell_volume   2777.669
_exptl_crystal_colour 'red'
_exptl_crystal_density_diffrn 1.302
_diffrn_ambient_temperature 123
#These two values have been output from a single CSD field.
_refine_ls_R_factor_gt 0.0329
_refine_ls_wR_factor_gt 0.0329
_symmetry_cell_setting triclinic
_symmetry_space_group_name_H-M 'P -1'
_symmetry_Int_Tables_number 2
loop_
_symmetry_equiv_pos_site_id
_symmetry_equiv_pos_as_xyz
1 x,y,z
2 -x,-y,-z
_cell_length_a 11.2246(4)
_cell_length_b 13.3972(4)
_cell_length_c 20.0794(6)
_cell_angle_alpha 72.726(1)
_cell_angle_beta 74.475(1)
_cell_angle_gamma 86.383(2)
_cell_formula_units_Z 4
loop_
_atom_type_symbol
_atom_type_radius_bond
C 0.68
H 0.23
N 0.68
O 0.68
loop_
_atom_site_label
_atom_site_type_symbol
_atom_site_fract_x
_atom_site_fract_y
_atom_site_fract_z
O1 O 0.47290(8) 0.31825(7) 1.32709(5)
O2 O 1.12784(9) 0.52130(7) 1.40396(6)
O3 O 0.74056(8) 0.58116(7) 1.20006(5)
O4 O 0.79769(8) 0.74243(7) 1.17288(5)
O5 O 1.20574(8) 0.86144(7) 1.05069(5)
O6 O 1.33216(8) 0.76895(7) 0.99167(5)
N1 N 0.91326(10) 0.36267(8) 1.11970(5)
N2 N 0.88044(10) 0.45415(8) 1.13660(6)
N3 N 0.8193(1) 0.65289(8) 1.16968(6)
N4 N 1.23201(10) 0.78139(8) 1.03209(6)
C1 C 0.32047(12) 0.14248(11) 1.36061(8)
C2 C 0.46184(11) 0.1365(1) 1.33761(7)
C3 C 0.51304(11) 0.24481(9) 1.28756(6)
C4 C 0.65637(11) 0.24798(9) 1.25563(6)
C5 C 0.69295(11) 0.30270(9) 1.17286(6)
C6 C 0.82781(11) 0.29217(9) 1.13754(6)
C7 C 0.87042(12) 0.19388(9) 1.11911(6)
C8 C 0.99308(12) 0.18492(10) 1.08168(7)
C9 C 1.03270(13) 0.09393(10) 1.06404(7)
C10 C 0.95164(14) 0.00999(10) 1.08381(7)
C11 C 0.83020(14) 0.01771(10) 1.12057(7)
C12 C 0.78959(13) 0.10916(10) 1.13769(7)
C13 C 0.49560(13) 0.05471(11) 1.29640(8)
C14 C 0.51227(12) 0.10474(11) 1.40429(7)
C15 C 0.46537(14) 0.42227(10) 1.28311(8)
C16 C 0.72528(11) 0.29476(9) 1.29168(6)
C17 C 0.79088(12) 0.3337(1) 1.31556(7)
C18 C 0.87383(12) 0.38221(10) 1.34076(6)
C19 C 0.84229(12) 0.47275(10) 1.36119(7)
C20 C 0.92444(12) 0.52179(10) 1.38263(7)
C21 C 1.04024(12) 0.47986(10) 1.38369(7)
C22 C 1.07273(12) 0.38863(10) 1.36426(8)
C23 C 0.99070(12) 0.34037(10) 1.34328(7)
C24 C 1.09804(14) 0.61568(10) 1.42385(8)
C25 C 0.96410(11) 0.53401(9) 1.11133(6)
C26 C 0.93927(11) 0.63033(9) 1.12813(6)
C27 C 1.02757(11) 0.71010(9) 1.10279(6)
C28 C 1.14068(11) 0.69671(9) 1.05918(6)
C29 C 1.16790(11) 0.60462(10) 1.03931(6)
C30 C 1.08156(12) 0.52559(9) 1.06469(6)
H1 H 0.28880 0.16460 1.31760
H2 H 0.29680 0.19310 1.38820
H3 H 0.28550 0.07350 1.39070
H4 H 0.8123(15) 0.4611(12) 1.1695(9)
H5 H 0.47420 0.26320 1.24620
H6 H 0.68320 0.17380 1.26270
H7 H 0.64230 0.27230 1.15000
H8 H 0.67350 0.37790 1.16410
H9 H 1.04960 0.24170 1.06830
H10 H 1.11610 0.08890 1.03820
H11 H 0.97960 -0.05260 1.07210
H12 H 0.77440 -0.03970 1.13420
H13 H 0.70550 0.11420 1.16240
H14 H 0.47380 0.08040 1.25020
H15 H 0.45000 -0.01060 1.32520
H16 H 0.58460 0.04210 1.28750
H17 H 0.60260 0.10140 1.38930
H18 H 0.47800 0.03600 1.43540
H19 H 0.48850 0.15640 1.43100
H20 H 0.54890 0.45050 1.25700
H21 H 0.42350 0.46580 1.31360
H22 H 0.41850 0.42220 1.24840
H23 H 0.76300 0.50160 1.36050
H24 H 0.90150 0.58370 1.39650
H25 H 1.15180 0.35960 1.36550
H26 H 1.01350 0.27780 1.33030
H27 H 1.08430 0.67140 1.38230
H28 H 1.16660 0.63610 1.43900
H29 H 1.02290 0.60430 1.46380
H30 H 1.00990 0.77330 1.11550
H31 H 1.24610 0.59710 1.00830
H32 H 1.10070 0.46340 1.05080
O7 O 1.03712(8) 0.17361(6) 0.67259(4)
O8 O 0.36780(9) 0.38816(8) 0.54817(5)
O9 O 0.82691(9) 0.28543(7) 0.76395(5)
O10 O 0.76515(9) 0.42753(7) 0.79155(5)
O11 O 0.37187(9) 0.46366(7) 0.93617(5)
O12 O 0.23548(8) 0.33737(8) 0.97621(5)
N5 N 0.66496(10) 0.01009(8) 0.84184(5)
N6 N 0.69037(10) 0.11500(8) 0.82450(6)
N7 N 0.74751(10) 0.33652(8) 0.79529(6)
N8 N 0.34038(10) 0.37345(8) 0.94421(6)
C31 C 1.13274(13) -0.04136(11) 0.58406(8)
C32 C 1.11584(11) 0.07129(10) 0.58747(7)
C33 C 1.04772(11) 0.07048(9) 0.66538(7)
C34 C 0.91626(11) 0.02051(9) 0.69588(6)
C35 C 0.88495(11) -0.00779(9) 0.77935(6)
C36 C 0.75509(11) -0.04733(9) 0.81961(6)
C37 C 0.72511(11) -0.16041(9) 0.83874(6)
C38 C 0.61102(11) -0.20209(10) 0.88494(7)
C39 C 0.58406(12) -0.30759(10) 0.90320(7)
C40 C 0.66932(12) -0.37374(10) 0.87521(7)
C41 C 0.78205(13) -0.3340(1) 0.82878(7)
C42 C 0.81022(12) -0.2285(1) 0.81123(7)
C43 C 1.04714(13) 0.13266(12) 0.53237(7)
C44 C 1.24352(12) 0.12240(12) 0.56951(8)
C45 C 1.10945(13) 0.19634(11) 0.71491(8)
C46 C 0.82212(11) 0.08847(9) 0.66755(6)
C47 C 0.74332(11) 0.14223(9) 0.64601(7)
C48 C 0.64871(11) 0.20653(9) 0.61920(7)
C49 C 0.65217(12) 0.23527(10) 0.54619(7)
C50 C 0.56036(12) 0.29588(10) 0.52011(7)
C51 C 0.46347(12) 0.32869(10) 0.56766(7)
C52 C 0.45882(12) 0.30135(11) 0.64063(7)
C53 C 0.55040(12) 0.24087(10) 0.66608(7)
C54 C 0.36974(15) 0.41888(12) 0.47330(8)
C55 C 0.60658(11) 0.17730(9) 0.85354(6)
C56 C 0.62986(11) 0.28584(9) 0.83939(6)
C57 C 0.54285(12) 0.34858(10) 0.86976(6)
C58 C 0.43131(11) 0.30586(10) 0.91384(7)
C59 C 0.40436(12) 0.19959(10) 0.92969(7)
C60 C 0.49044(12) 0.13708(10) 0.90054(7)
H33 H 0.7585(14) 0.1450(12) 0.7946(8)
H34 H 1.18920 -0.04220 0.53760
H35 H 1.05250 -0.07150 0.58890
H36 H 1.16740 -0.08260 0.62350
H37 H 1.09940 0.03020 0.69760
H38 H 0.91790 -0.04570 0.68230
H39 H 0.94310 -0.06180 0.79640
H40 H 0.89990 0.05510 0.79250
H41 H 0.55140 -0.15730 0.90400
H42 H 0.50660 -0.33490 0.93510
H43 H 0.65040 -0.44620 0.88790
H44 H 0.84020 -0.37900 0.80890
H45 H 0.88850 -0.20210 0.78000
H46 H 1.09650 0.13510 0.48360
H47 H 1.03360 0.20400 0.53610
H48 H 0.96720 0.09830 0.54200
H49 H 1.29180 0.11900 0.52170
H50 H 1.28670 0.08520 0.60590
H51 H 1.23360 0.19560 0.56940
H52 H 1.19740 0.19500 0.69040
H53 H 1.09170 0.14390 0.76240
H54 H 1.08890 0.26580 0.72110
H55 H 0.71870 0.21300 0.51350
H56 H 0.56390 0.31470 0.47010
H57 H 0.39260 0.32430 0.67310
H58 H 0.54660 0.22230 0.71610
H59 H 0.44420 0.46150 0.44500
H60 H 0.29620 0.45970 0.46630
H61 H 0.37020 0.35640 0.45730
H62 H 0.56040 0.42070 0.86010
H63 H 0.32670 0.17100 0.96050
H64 H 0.47200 0.06470 0.91210
#END
