
#######################################################################
#
#                 Cambridge Crystallographic Data Centre
#                                CCDC
#
#######################################################################
#
# If this CIF has been generated from an entry in the Cambridge
# Structural Database, then it will include bibliographic, chemical,
# crystal, experimental, refinement or atomic coordinate data resulting
# from the CCDC's data processing and validation procedures.
#
#######################################################################

data_CSD_CIF_ROBQUW
_audit_creation_date 2014-05-14
_audit_creation_method CSD-ConQuest-V1
_database_code_CSD ROBQUW
_database_code_depnum_ccdc_archive 'CCDC 983642'
_chemical_formula_sum 'C12 H13 N1 O5'
_chemical_formula_moiety
;
C12 H13 N1 O5
;
_journal_coden_Cambridge 4
_journal_volume 136
_journal_year 2014
_journal_page_first 4153
_journal_name_full 'J.Am.Chem.Soc. '
loop_
_publ_author_name
"Zhipeng Yu"
"Qing Lin"
_chemical_name_systematic
;
1-(((Spiro[2.3]hex-1-en-5-ylmethoxy)carbonyl)oxy)pyrrolidine-2,5-dione
;
_cell_volume   2472.586
_exptl_crystal_colour 'colorless'
_exptl_crystal_density_diffrn 1.35
_exptl_crystal_description 'plate'
_diffrn_ambient_temperature 173
_refine_special_details
;
C1,C2,C3,C4,C5,C6,C7,C8,O1,O2 and C1',C2',C3',C4',C5', C6',C7',C8',O1',O2' 
disordered over two sites with occupancies 0.835:0.165.
;
#These two values have been output from a single CSD field.
_refine_ls_R_factor_gt 0.0445
_refine_ls_wR_factor_gt 0.0445
_symmetry_cell_setting monoclinic
_symmetry_space_group_name_H-M 'I 2/a'
_symmetry_Int_Tables_number 15
loop_
_symmetry_equiv_pos_site_id
_symmetry_equiv_pos_as_xyz
1 x,y,z
2 1/2-x,y,-z
3 1/2+x,1/2+y,1/2+z
4 -x,1/2+y,1/2-z
5 -x,-y,-z
6 -1/2+x,-y,z
7 -1/2-x,-1/2-y,-1/2-z
8 x,-1/2-y,-1/2+z
_cell_length_a 18.5189(17)
_cell_length_b 6.1174(6)
_cell_length_c 21.937(3)
_cell_angle_alpha 90
_cell_angle_beta 95.7725(14)
_cell_angle_gamma 90
_cell_formula_units_Z 8
loop_
_atom_type_symbol
_atom_type_radius_bond
C 0.68
H 0.23
N 0.68
O 0.68
loop_
_atom_site_label
_atom_site_type_symbol
_atom_site_fract_x
_atom_site_fract_y
_atom_site_fract_z
O1 O 0.43066(5) 0.24155(17) 0.33385(4)
O2 O 0.49164(5) 0.24131(18) 0.22242(5)
O3 O 0.29266(6) 0.0558(2) 0.31634(6)
N1 N 0.39940(6) 0.15082(19) 0.27997(5)
O4 O 0.36440(14) 0.5484(4) 0.31041(8)
C1 C 0.4066(4) 0.4519(6) 0.34454(19)
O5 O 0.44162(9) 0.5117(4) 0.39695(10)
C2 C 0.42915(12) 0.7369(3) 0.41517(10)
H1 H 0.42580 0.83130 0.37830
H2 H 0.47120 0.78710 0.44310
C3 C 0.36169(10) 0.7628(3) 0.44640(8)
H3 H 0.31680 0.72450 0.41930
C4 C 0.35778(15) 0.9944(3) 0.47584(9)
H4 H 0.39930 1.09010 0.46890
H5 H 0.31100 1.07050 0.46510
C5 C 0.36414(12) 0.8870(6) 0.53893(16)
C6 C 0.36371(15) 0.6577(5) 0.51142(16)
H6 H 0.31980 0.57170 0.51780
H7 H 0.40840 0.57290 0.52360
C7 C 0.3341(3) 0.9595(7) 0.5956(2)
H8 H 0.29230 0.98360 0.61650
C8 C 0.4027(3) 0.9675(13) 0.59719(18)
H9 H 0.44770 1.00140 0.61990
C9 C 0.43485(7) 0.1513(2) 0.22720(7)
C10 C 0.38787(8) 0.0194(3) 0.18171(7)
H10 H 0.41320 -0.11600 0.17120
H11 H 0.37540 0.10440 0.14370
C11 C 0.31932(8) -0.0357(3) 0.21203(7)
H12 H 0.27610 0.03180 0.18920
H13 H 0.31200 -0.19590 0.21330
C12 C 0.33131(8) 0.0557(2) 0.27553(7)
O6? O 0.3561(9) 0.525(3) 0.2940(6)
C13? C 0.400(2) 0.450(3) 0.3328(15)
O7? O 0.4202(6) 0.511(3) 0.3881(7)
C14? C 0.3968(7) 0.7403(19) 0.3996(5)
H14? H 0.41730 0.84210 0.37070
H15? H 0.34320 0.75150 0.39370
C15? C 0.4240(5) 0.7960(15) 0.4638(4)
H16? H 0.47810 0.78710 0.47000
C16? C 0.3973(7) 1.020(2) 0.4843(5)
H17? H 0.43520 1.13470 0.48830
H18? H 0.35250 1.07270 0.46030
C17? C 0.3843(9) 0.908(4) 0.5451(10)
C18? C 0.3909(9) 0.680(3) 0.5136(10)
H19? H 0.42410 0.57660 0.53720
H20? H 0.34370 0.60980 0.50040
C19? C 0.3436(15) 0.996(5) 0.5944(13)
H21? H 0.29830 1.04240 0.60670
C20? C 0.4108(17) 0.967(7) 0.6089(12)
H22? H 0.45080 0.97650 0.63960
#END
