
#######################################################################
#
#                 Cambridge Crystallographic Data Centre
#                                CCDC
#
#######################################################################
#
# If this CIF has been generated from an entry in the Cambridge
# Structural Database, then it will include bibliographic, chemical,
# crystal, experimental, refinement or atomic coordinate data resulting
# from the CCDC's data processing and validation procedures.
#
#######################################################################

data_CSD_CIF_ROBXEN
_audit_creation_date 2014-05-14
_audit_creation_method CSD-ConQuest-V1
_database_code_CSD ROBXEN
_database_code_depnum_ccdc_archive 'CCDC 1002626'
_chemical_formula_sum 'C16 H18 N4 O3'
_chemical_formula_moiety
;
C16 H18 N4 O3
;
_journal_coden_Cambridge 4
_journal_volume 136
_journal_year 2014
_journal_page_first 2757
_journal_name_full 'J.Am.Chem.Soc. '
loop_
_publ_author_name
"N.K.Nath"
"L.Pejov"
"S.M.Nichols"
"Chunhua Hu"
"N.Saleh"
"B.Kahr"
"P.Naumov"
_chemical_name_systematic
;
2-(ethyl(4-((4-nitrophenyl)diazenyl)phenyl)amino)ethanol
;
_cell_volume   3043.610
_exptl_crystal_colour 'red'
_exptl_crystal_density_diffrn 1.372
_exptl_crystal_description 'plate'
_diffrn_ambient_temperature 100
_refine_special_details
;
C14,C16,O3 and C14',C16',O3' disordered over two sites with occupancies 
0.711:0.289; C30A,C32A,O6A and C30C,C32C,O6C and C30D,C32D,O6D and 
C30B,C32B,O6B disordered over four sites with occupancies 
0.3231:0.2571:0.2266:0.1931.
;
#These two values have been output from a single CSD field.
_refine_ls_R_factor_gt 0.0706
_refine_ls_wR_factor_gt 0.0706
_symmetry_cell_setting monoclinic
_symmetry_space_group_name_H-M 'P 21/n'
_symmetry_Int_Tables_number 14
loop_
_symmetry_equiv_pos_site_id
_symmetry_equiv_pos_as_xyz
1 x,y,z
2 1/2-x,1/2+y,1/2-z
3 -x,-y,-z
4 -1/2+x,-1/2-y,-1/2+z
_cell_length_a 10.152(2)
_cell_length_b 7.7688(17)
_cell_length_c 38.639(8)
_cell_angle_alpha 90
_cell_angle_beta 92.863(3)
_cell_angle_gamma 90
_cell_formula_units_Z 8
loop_
_atom_type_symbol
_atom_type_radius_bond
C 0.68
H 0.23
N 0.68
O 0.68
loop_
_atom_site_label
_atom_site_type_symbol
_atom_site_fract_x
_atom_site_fract_y
_atom_site_fract_z
O1 O 0.91000(18) 0.5856(2) 0.64596(5)
O2 O 1.05614(19) 0.7895(3) 0.64490(5)
N1 N 0.9781(2) 0.6891(3) 0.63000(6)
N2 N 0.9286(2) 0.7195(3) 0.48459(6)
N3 N 0.83547(19) 0.6327(3) 0.46950(6)
N4 N 0.8081(2) 0.6327(3) 0.32427(6)
C1 C 0.9636(2) 0.6927(3) 0.59238(7)
C2 C 0.8662(2) 0.5921(3) 0.57552(7)
H1 H 0.81100 0.52070 0.58850
C3 C 0.8509(2) 0.5971(3) 0.54011(7)
H2 H 0.78430 0.53030 0.52840
C4 C 0.9350(2) 0.7026(3) 0.52123(7)
C5 C 1.0320(2) 0.8013(3) 0.53873(7)
H3 H 1.08800 0.87300 0.52600
C6 C 1.0470(3) 0.7953(3) 0.57412(7)
H4 H 1.11400 0.86090 0.58600
C7 C 0.8306(2) 0.6439(3) 0.43312(7)
C8 C 0.7357(2) 0.5451(3) 0.41518(7)
H5 H 0.67600 0.47880 0.42790
C9 C 0.7259(2) 0.5406(3) 0.37940(7)
H6 H 0.65980 0.47160 0.36800
C10 C 0.8128(2) 0.6371(3) 0.35962(7)
C11 C 0.9084(2) 0.7389(3) 0.37854(7)
H7 H 0.96750 0.80760 0.36620
C12 C 0.9178(2) 0.7406(3) 0.41379(7)
H8 H 0.98420 0.80810 0.42550
C13 C 0.7021(3) 0.5435(3) 0.30413(7)
H9 H 0.68890 0.60120 0.28140
H10 H 0.61930 0.55550 0.31640
C14 C 0.9087(3) 0.7139(3) 0.30380(8)
H11 H 0.91550 0.65100 0.28170
H12 H 0.99540 0.70750 0.31660
O3 O 0.8473(3) 0.3235(4) 0.28194(7)
H13 H 0.85590 0.21770 0.27810
C15 C 0.7275(4) 0.3523(5) 0.29801(12)
H14 H 0.72960 0.29110 0.32050
H15 H 0.65390 0.30420 0.28320
C16 C 0.8738(5) 0.9029(5) 0.29627(12)
H16 H 0.94210 0.95480 0.28260
H17 H 0.86840 0.96540 0.31820
H18 H 0.78850 0.90900 0.28330
O4? O 0.9732(6) 0.9709(9) 0.27683(17)
H19? H 0.95300 1.07150 0.27060
C17? C 0.7256(13) 0.3528(7) 0.2976(3)
H20? H 0.64650 0.30220 0.28610
H21? H 0.74530 0.29430 0.31970
H22? H 0.80030 0.33940 0.28270
C18? C 0.8714(8) 0.9012(7) 0.2963(3)
H23? H 0.78590 0.90740 0.28280
H24? H 0.86390 0.96580 0.31810
O5 O 0.69780(19) 0.2835(2) 0.63402(5)
O6 O 0.81051(17) 0.0518(2) 0.62432(5)
N5 N 0.7349(2) 0.1694(3) 0.61443(6)
N6 N 0.5565(2) 0.2119(3) 0.47425(5)
N7 N 0.6110(2) 0.1109(3) 0.45285(5)
N8 N 0.4143(2) 0.1189(3) 0.31466(5)
C19 C 0.6873(2) 0.1740(3) 0.57826(7)
C20 C 0.7375(2) 0.0564(3) 0.55507(7)
H25 H 0.79910 -0.02880 0.56290
C21 C 0.6963(2) 0.0654(3) 0.52036(7)
H26 H 0.73050 -0.01290 0.50420
C22 C 0.6035(2) 0.1908(3) 0.50906(7)
C23 C 0.5505(2) 0.3000(3) 0.53310(7)
H27 H 0.48480 0.38090 0.52570
C24 C 0.5920(3) 0.2929(3) 0.56772(7)
H28 H 0.55550 0.36860 0.58400
C25 C 0.5619(2) 0.1246(3) 0.41847(7)
C26 C 0.6144(2) 0.0150(3) 0.39423(7)
H29 H 0.68350 -0.06120 0.40150
C27 C 0.5697(2) 0.0134(3) 0.36021(7)
H30 H 0.60960 -0.06160 0.34440
C28 C 0.4644(2) 0.1224(3) 0.34820(7)
C29 C 0.4123(2) 0.2365(3) 0.37319(7)
H31 H 0.34390 0.31420 0.36610
C30 C 0.4584(2) 0.2361(3) 0.40690(7)
H32 H 0.42060 0.31200 0.42290
C31 C 0.2898(3) 0.2057(3) 0.30419(7)
H33 H 0.22980 0.20210 0.32360
H34 H 0.24670 0.14380 0.28430
C32 C 0.4665(3) 0.0077(3) 0.28808(7)
H35 H 0.56300 -0.00100 0.29270
H36 H 0.45180 0.06640 0.26550
O7 O 0.3893(5) 0.4041(7) 0.26431(11)
H37 H 0.39960 0.50820 0.25930
C33 C 0.3131(8) 0.3915(7) 0.29409(17)
H38 H 0.22710 0.44910 0.28930
H39 H 0.35940 0.45210 0.31370
C34 C 0.4121(8) -0.1750(7) 0.2842(2)
H40 H 0.45620 -0.23450 0.26570
H41 H 0.31700 -0.17010 0.27840
H42 H 0.42800 -0.23760 0.30600
O8? O 0.1649(6) 0.4486(13) 0.2892(3)
H43? H 0.12970 0.38740 0.27340
C35? C 0.2979(7) 0.3961(8) 0.2957(4)
H44? H 0.33920 0.46080 0.31550
H45? H 0.35000 0.41500 0.27510
C36? C 0.4079(12) -0.1729(9) 0.2892(4)
H46? H 0.44240 -0.24260 0.27060
H47? H 0.31170 -0.16590 0.28620
H48? H 0.43220 -0.22620 0.31160
O9? O 0.4625(7) -0.2515(9) 0.25913(14)
H49? H 0.43420 -0.35270 0.25700
C37? C 0.3106(14) 0.3929(8) 0.2946(3)
H50? H 0.22570 0.44450 0.28720
H51? H 0.37110 0.39960 0.27570
H52? H 0.34820 0.45530 0.31480
C38? C 0.4090(9) -0.1738(7) 0.2886(2)
H53? H 0.43730 -0.23530 0.31010
H54? H 0.31140 -0.17130 0.28640
O10? O 0.2684(5) -0.1879(12) 0.2907(2)
H55? H 0.24780 -0.29230 0.29200
C39? C 0.3097(17) 0.3925(8) 0.2942(4)
H56? H 0.22440 0.44380 0.28710
H57? H 0.36870 0.39850 0.27490
H58? H 0.34880 0.45580 0.31410
C40? C 0.4079(6) -0.1718(8) 0.2921(4)
H59? H 0.44190 -0.24570 0.27370
H60? H 0.44220 -0.21910 0.31450
#END
