
#######################################################################
#
#                 Cambridge Crystallographic Data Centre
#                                CCDC
#
#######################################################################
#
# If this CIF has been generated from an entry in the Cambridge
# Structural Database, then it will include bibliographic, chemical,
# crystal, experimental, refinement or atomic coordinate data resulting
# from the CCDC's data processing and validation procedures.
#
#######################################################################

data_CSD_CIF_ROCMOM
_audit_creation_date 2008-11-06
_audit_creation_method CSD-ConQuest-V1
_database_code_CSD ROCMOM
_database_code_depnum_ccdc_archive 'CCDC 679402'
_chemical_formula_sum 'C14 H14 N2 O3'
_chemical_formula_moiety
;
C14 H14 N2 O3
;
_journal_coden_Cambridge 177
_journal_volume 6
_journal_year 2008
_journal_page_first 2574
_journal_name_full 'Org.Biomol.Chem. '
loop_
_publ_author_name
"C.Berini"
"F.Minassian"
"N.Pelloux-Leon"
"J.-N.Denis"
"Y.Vallee"
"C.Philouze"
_chemical_name_systematic
;
(3R,5R)-4-Hydroxy-5-phenyl-3-(1H-pyrrol-2-yl)morpholin-2-one
;
_chemical_melting_point 321.15
_cell_volume   2615.961
_exptl_crystal_colour 'colorless'
_exptl_crystal_density_diffrn 1.311
_exptl_special_details
;
Melting point range 321.15-322.15K
Absolute configuration

;
_exptl_crystal_description 'platelet'
_diffrn_ambient_temperature 293
#These two values have been output from a single CSD field.
_refine_ls_R_factor_gt 0.048
_refine_ls_wR_factor_gt 0.048
_symmetry_cell_setting orthorhombic
_symmetry_space_group_name_H-M 'P 21 21 21'
_symmetry_Int_Tables_number 19
loop_
_symmetry_equiv_pos_site_id
_symmetry_equiv_pos_as_xyz
1 x,y,z
2 1/2-x,-y,1/2+z
3 1/2+x,1/2-y,-z
4 -x,1/2+y,1/2-z
_cell_length_a 11.014(1)
_cell_length_b 13.240(2)
_cell_length_c 17.939(2)
_cell_angle_alpha 90
_cell_angle_beta 90
_cell_angle_gamma 90
_cell_formula_units_Z 8
loop_
_atom_type_symbol
_atom_type_radius_bond
C 0.68
H 0.23
N 0.68
O 0.68
loop_
_atom_site_label
_atom_site_type_symbol
_atom_site_fract_x
_atom_site_fract_y
_atom_site_fract_z
O1 O 0.7904(2) 0.6053(1) 0.1440(1)
O2 O 0.7741(1) 0.1377(1) 0.14211(9)
O3 O 0.6930(2) 0.4145(1) 0.06922(9)
O4 O 0.5878(1) 0.2332(1) 0.0272(1)
O5 O 0.9720(2) 0.5890(1) 0.0970(1)
O6 O 0.9214(2) 0.1906(1) 0.0713(1)
N1 N 0.9455(2) 0.3088(2) 0.2248(1)
N2 N 0.7149(2) -0.0433(2) -0.0560(1)
N3 N 0.6146(2) 0.1270(1) 0.0161(1)
N4 N 0.7525(2) 0.3933(1) 0.1395(1)
C1 C 0.5716(2) 0.4086(2) 0.2209(1)
C2 C 0.4450(2) 0.0713(2) 0.0962(1)
C3 C 0.5744(2) 0.3384(2) 0.2787(1)
C4 C 0.9495(2) 0.4053(2) 0.1982(1)
C5 C 0.8203(2) 0.1555(2) 0.0749(1)
C6 C 0.7873(2) 0.0195(2) -0.0150(1)
C7 C 0.8822(2) 0.5479(2) 0.1217(1)
C8 C 0.3823(2) -0.0154(2) 0.0759(1)
C9 C 0.7482(2) 0.1238(2) 0.0060(1)
C10 C 0.4701(3) 0.2970(2) 0.3074(2)
C11 C 0.8939(2) -0.0323(2) 0.0004(1)
C12 C 0.8766(2) 0.4334(2) 0.1308(1)
C13 C 1.0191(2) 0.4614(2) 0.2470(2)
C14 C 0.2567(3) -0.0210(2) 0.0851(2)
C15 C 1.0568(2) 0.3958(3) 0.3044(2)
C16 C 0.3574(2) 0.3249(2) 0.2788(2)
C17 C 0.8823(3) -0.1297(2) -0.0321(2)
C18 C 0.1929(2) 0.0597(3) 0.1148(2)
C19 C 0.3522(2) 0.3933(2) 0.2203(2)
C20 C 0.5813(2) 0.0751(2) 0.0862(1)
C21 C 0.7708(3) -0.1340(3) -0.0660(2)
C22 C 0.6892(2) 0.4552(2) 0.1964(1)
C23 C 1.0108(3) 0.3026(3) 0.2898(2)
C24 C 0.2537(2) 0.1459(3) 0.1345(2)
C25 C 0.4589(2) 0.4353(2) 0.1914(1)
C26 C 0.6761(2) 0.5629(2) 0.1696(2)
C27 C 0.6439(2) 0.1226(2) 0.1530(1)
C28 C 0.3800(2) 0.1528(2) 0.1253(2)
H1 H 0.66840 0.35630 0.05760
H2 H 0.53210 0.24870 -0.00300
H3 H 0.90380 0.25420 0.20190
H4 H 0.63680 -0.02620 -0.07460
H5 H 0.91260 0.40290 0.08820
H6 H 0.76880 0.16810 -0.03360
H7 H 0.74050 0.45700 0.23900
H8 H 0.60930 0.00740 0.08250
H9 H 0.64640 0.60300 0.20950
H10 H 0.60750 0.18630 0.16250
H11 H 0.61970 0.56430 0.12960
H12 H 0.63250 0.07980 0.19490
H13 H 1.03800 0.53110 0.24270
H14 H 0.96160 -0.00740 0.02750
H15 H 1.10580 0.41350 0.34590
H16 H 0.94100 -0.18220 -0.03060
H17 H 1.02180 0.24370 0.31930
H18 H 0.73830 -0.19030 -0.09200
H19 H 0.65050 0.31860 0.29890
H20 H 0.42530 -0.07120 0.05560
H21 H 0.47480 0.24920 0.34680
H22 H 0.21470 -0.08070 0.07100
H23 H 0.28490 0.29740 0.29920
H24 H 0.10750 0.05530 0.12140
H25 H 0.27580 0.41180 0.19980
H26 H 0.21010 0.20150 0.15460
H27 H 0.45460 0.48210 0.15140
H28 H 0.42130 0.21300 0.13880
#END
