
#######################################################################
#
#                 Cambridge Crystallographic Data Centre
#                                CCDC
#
#######################################################################
#
# If this CIF has been generated from an entry in the Cambridge
# Structural Database, then it will include bibliographic, chemical,
# crystal, experimental, refinement or atomic coordinate data resulting
# from the CCDC's data processing and validation procedures.
#
#######################################################################

data_CSD_CIF_ROCMIG
_audit_creation_date 2008-11-06
_audit_creation_method CSD-ConQuest-V1
_database_code_CSD ROCMIG
_database_code_depnum_ccdc_archive 'CCDC 679401'
_chemical_formula_sum 'C17 H22 N2 O3'
_chemical_formula_moiety
;
C17 H22 N2 O3
;
_journal_coden_Cambridge 177
_journal_volume 6
_journal_year 2008
_journal_page_first 2574
_journal_name_full 'Org.Biomol.Chem. '
loop_
_publ_author_name
"C.Berini"
"F.Minassian"
"N.Pelloux-Leon"
"J.-N.Denis"
"Y.Vallee"
"C.Philouze"
_chemical_name_systematic
;
N-Benzyl-N-((S)-((S)-2,2-dimethyl-1,3-dioxolan-4-yl)(1H-pyrrol-2-yl)methyl)-N-
hydroxylamine
;
_chemical_melting_point 345.15
_cell_volume   3434.721
_exptl_crystal_colour 'colorless'
_exptl_crystal_density_diffrn 1.169
_exptl_special_details
;
Melting point range 345.15-346.15K
Absolute configuration

;
_exptl_crystal_description 'prism'
_diffrn_ambient_temperature 293.0
#These two values have been output from a single CSD field.
_refine_ls_R_factor_gt 0.0454
_refine_ls_wR_factor_gt 0.0454
_symmetry_cell_setting tetragonal
_symmetry_space_group_name_H-M 'P 43 21 2'
_symmetry_Int_Tables_number 96
loop_
_symmetry_equiv_pos_site_id
_symmetry_equiv_pos_as_xyz
1 x,y,z
2 -x,-y,1/2+z
3 1/2-y,1/2+x,3/4+z
4 1/2+y,1/2-x,1/4+z
5 y,x,-z
6 -y,-x,1/2-z
7 1/2-x,1/2+y,3/4-z
8 1/2+x,1/2-y,1/4-z
_cell_length_a 9.198(2)
_cell_length_b 9.198(2)
_cell_length_c 40.598(8)
_cell_angle_alpha 90
_cell_angle_beta 90
_cell_angle_gamma 90
_cell_formula_units_Z 8
loop_
_atom_type_symbol
_atom_type_radius_bond
C 0.68
H 0.23
N 0.68
O 0.68
loop_
_atom_site_label
_atom_site_type_symbol
_atom_site_fract_x
_atom_site_fract_y
_atom_site_fract_z
O1 O -1.0008(2) -0.2269(2) -0.90401(4)
O2 O -0.9460(2) -0.0026(1) -0.92307(3)
O3 O -0.5850(1) 0.0074(1) -0.86043(3)
N1 N -0.8076(2) 0.3525(2) -0.90016(5)
N2 N -0.7286(2) 0.0545(2) -0.84883(4)
C1 C -0.6529(2) 0.1317(2) -0.79351(5)
C2 C -0.7448(2) 0.2181(2) -0.89892(5)
C3 C -1.0187(2) -0.1330(2) -0.93155(6)
C4 C -0.7346(3) 0.0352(3) -0.77540(6)
C5 C -0.6254(2) 0.2243(2) -0.91871(5)
C6 C -0.6961(3) -0.0064(3) -0.74448(6)
C7 C -0.6181(3) 0.3635(3) -0.93291(7)
C8 C -0.8396(2) -0.0372(2) -0.89887(5)
C9 C -0.5701(3) 0.0453(3) -0.73081(6)
C10 C -0.9120(3) -0.1591(2) -0.88007(5)
C11 C -0.7318(3) 0.4401(3) -0.92087(7)
C12 C -0.4849(3) 0.1393(3) -0.74849(6)
C13 C -1.1758(3) -0.0988(3) -0.93599(8)
C14 C -0.5249(3) 0.1816(3) -0.77989(5)
C15 C -0.9503(4) -0.2020(3) -0.96095(6)
C16 C -0.8096(2) 0.0983(2) -0.87860(5)
C17 C -0.7021(2) 0.1786(2) -0.82696(5)
H1 H -0.57220 -0.10050 -0.85160
H2 H -0.89200 0.38050 -0.88830
H3 H -0.75290 -0.07070 -0.90910
H4 H -0.84180 -0.22510 -0.87160
H5 H -0.96890 -0.12200 -0.86250
H6 H -1.21460 -0.06290 -0.91590
H7 H -1.18660 -0.02730 -0.95270
H8 H -1.22650 -0.18450 -0.94220
H9 H -0.99560 -0.29300 -0.96510
H10 H -0.84960 -0.21660 -0.95690
H11 H -0.96220 -0.14040 -0.97950
H12 H -0.90140 0.13270 -0.87120
H13 H -0.78960 0.23260 -0.82480
H14 H -0.62920 0.23850 -0.83650
H15 H -0.55830 0.14740 -0.92230
H16 H -0.54700 0.39730 -0.94800
H17 H -0.75470 0.53820 -0.92600
H18 H -0.82090 -0.00360 -0.78480
H19 H -0.75640 -0.07110 -0.73240
H20 H -0.54210 0.01610 -0.70930
H21 H -0.39760 0.17580 -0.73910
H22 H -0.46410 0.24520 -0.79210
#END
