
#######################################################################
#
#                 Cambridge Crystallographic Data Centre
#                                CCDC
#
#######################################################################
#
# If this CIF has been generated from an entry in the Cambridge
# Structural Database, then it will include bibliographic, chemical,
# crystal, experimental, refinement or atomic coordinate data resulting
# from the CCDC's data processing and validation procedures.
#
#######################################################################

data_CSD_CIF_RODCUI
_audit_creation_date 1997-12-19
_audit_creation_method CSD-ConQuest-V1
_database_code_CSD RODCUI
_chemical_formula_sum 'C33 H36 N4 O16'
_chemical_formula_moiety
;
C33 H36 N4 O16
;
_journal_coden_Cambridge 4
_journal_volume 119
_journal_year 1997
_journal_page_first 7928
_journal_name_full 'J.Am.Chem.Soc. '
loop_
_publ_author_name
"L.R.Cook"
"H.Oinuma"
"M.A.Semones"
"Y.Kishi"
_chemical_name_systematic
;
(2,8a-Dimethyl-3-(3,5-dinitrobenzoato)-1,5-dioxaheptahydronaphthalen-2-yl)-6-(
3,5-dinitrobenzoatomethyl)-1,5-dioxaheptahydro-2-naphthalene
;
_cell_volume   1725.687
_exptl_crystal_colour 'colorless'
_exptl_crystal_density_diffrn 1.433
_diffrn_ambient_temperature 213
#These two values have been output from a single CSD field.
_refine_ls_R_factor_gt 0.0896
_refine_ls_wR_factor_gt 0.0896
_symmetry_cell_setting monoclinic
_symmetry_space_group_name_H-M 'P 21'
_symmetry_Int_Tables_number 4
loop_
_symmetry_equiv_pos_site_id
_symmetry_equiv_pos_as_xyz
1 x,y,z
2 -x,1/2+y,-z
_cell_length_a 13.6105(13)
_cell_length_b 6.0850(6)
_cell_length_c 20.975(2)
_cell_angle_alpha 90
_cell_angle_beta 96.585(1)
_cell_angle_gamma 90
_cell_formula_units_Z 2
loop_
_atom_type_symbol
_atom_type_radius_bond
C 0.68
H 0.23
N 0.68
O 0.68
loop_
_atom_site_label
_atom_site_type_symbol
_atom_site_fract_x
_atom_site_fract_y
_atom_site_fract_z
O1 O 0.1005(5) 0.7236(13) 0.3185(3)
O2 O -0.1547(4) 0.6628(12) 0.3574(3)
O3 O -0.3570(4) 0.6548(11) 0.3622(3)
O4 O -0.2098(4) 0.6381(11) 0.5195(3)
O5 O -0.4500(5) 0.7621(12) 0.5733(3)
O6 O 0.1685(5) 0.7761(15) 0.1579(4)
O7 O 0.2643(7) 0.4761(21) 0.1698(4)
O8 O 0.0303(8) 0.8174(18) -0.1302(4)
O9 O 0.0463(5) 1.0455(16) -0.0504(4)
O10 O 0.2300(6) 0.1584(18) -0.1178(4)
O11 O 0.3300(9) 0.1061(21) -0.0301(4)
O12 O -0.4064(6) 0.9921(15) 0.3266(3)
O13 O -0.6185(6) 0.9652(18) 0.1174(4)
O14 O -0.5807(7) 0.7319(20) 0.0453(4)
O15 O -0.3792(6) 0.1076(16) 0.1133(4)
O16 O -0.2724(7) 0.1486(17) 0.1990(4)
N1 N 0.0615(7) 0.8702(20) -0.0771(5)
N2 N 0.2640(8) 0.1976(20) -0.0620(6)
N3 N -0.5735(8) 0.8099(23) 0.0995(6)
N4 N -0.3449(7) 0.2028(18) 0.1625(5)
C1 C 0.2388(8) 0.4065(23) 0.0361(5)
H1 H 0.2767(8) 0.3007(23) 0.0606(5)
C2 C 0.2209(8) 0.3903(21) -0.0304(5)
C3 C 0.1627(8) 0.534(2) -0.0683(5)
H2 H 0.1487(8) 0.5141(20) -0.1129(5)
C4 C 0.1265(7) 0.7078(22) -0.0372(5)
C5 C 0.1403(7) 0.7415(21) 0.0282(5)
H3 H 0.1124(7) 0.8625(21) 0.0473(5)
C6 C 0.1983(7) 0.5857(23) 0.0646(5)
C7 C 0.2158(9) 0.6060(29) 0.1358(6)
C8 C 0.1763(8) 0.8046(24) 0.2266(5)
H4 H 0.1794(8) 0.9612(24) 0.2376(5)
H5 H 0.2362(8) 0.7329(24) 0.2471(5)
C9 C 0.0839(7) 0.6993(23) 0.2494(5)
H6 H 0.0804(7) 0.5417(23) 0.2377(5)
C10 C -0.0109(7) 0.8170(21) 0.2217(4)
H7 H -0.0232(7) 0.7895(21) 0.1755(4)
H8 H -0.0032(7) 0.9758(21) 0.2283(4)
C11 C -0.0995(7) 0.7333(22) 0.2550(4)
H9 H -0.1584(7) 0.8214(22) 0.2413(4)
H10 H -0.1138(7) 0.5799(22) 0.2431(4)
C12 C -0.0738(6) 0.7519(19) 0.3260(4)
H11 H -0.0649(6) 0.9088(19) 0.3377(4)
C13 C 0.0189(6) 0.6298(19) 0.3485(4)
H12 H 0.0107(6) 0.4737(19) 0.3357(4)
C14 C 0.0446(6) 0.6431(20) 0.4200(4)
H13 H 0.0620(6) 0.7944(20) 0.4326(4)
H14 H 0.1015(6) 0.5484(20) 0.4334(4)
C15 C -0.0437(6) 0.5693(18) 0.4514(4)
H15 H -0.0308(6) 0.5955(18) 0.4977(4)
H16 H -0.0528(6) 0.4108(18) 0.4448(4)
C16 C -0.1392(6) 0.6877(21) 0.4254(4)
H17 H -0.1325(6) 0.8460(21) 0.4359(4)
C17 C -0.2327(7) 0.5984(17) 0.4508(5)
C18 C -0.3232(6) 0.7337(16) 0.4265(4)
H18 H -0.3037(6) 0.8899(16) 0.4240(4)
C19 C -0.4093(6) 0.7164(20) 0.4654(4)
H19 H -0.4367(6) 0.5674(20) 0.4626(4)
H20 H -0.4614(6) 0.8201(20) 0.4494(4)
C20 C -0.3700(6) 0.7711(17) 0.5353(4)
H21 H -0.3442(6) 0.9234(17) 0.5366(4)
C21 C -0.2865(7) 0.6190(18) 0.5607(5)
C22 C -0.2449(7) 0.7088(20) 0.6263(4)
H22 H -0.2152(7) 0.8535(20) 0.6211(4)
H23 H -0.1931(7) 0.6103(20) 0.6460(4)
C23 C -0.3284(7) 0.7284(20) 0.6704(5)
H24 H -0.3485(7) 0.5811(20) 0.6826(5)
H25 H -0.3033(7) 0.8071(20) 0.7097(5)
C24 C -0.4171(7) 0.8491(20) 0.6374(5)
H26 H -0.4717(7) 0.8387(20) 0.6639(5)
H27 H -0.4004(7) 1.0048(20) 0.6336(5)
C25 C -0.3933(7) 0.7965(22) 0.3183(5)
C26 C -0.4191(7) 0.6887(21) 0.2542(5)
C27 C -0.3746(7) 0.4944(19) 0.2402(5)
H28 H -0.3297(7) 0.4247(19) 0.2711(5)
C28 C -0.3973(8) 0.4028(21) 0.1797(5)
C29 C -0.4627(8) 0.5002(23) 0.1334(5)
H29 H -0.4779(8) 0.4370(23) 0.0925(5)
C30 C -0.5065(8) 0.7024(23) 0.1503(6)
C31 C -0.4842(7) 0.7944(21) 0.2086(5)
H30 H -0.5126(7) 0.9295(21) 0.2182(5)
C32 C -0.2477(7) 0.3518(19) 0.4345(5)
H31 H -0.1887(7) 0.2707(19) 0.4507(5)
H32 H -0.2600(7) 0.3338(19) 0.3883(5)
H33 H -0.3038(7) 0.2963(19) 0.4543(5)
C33 C -0.3205(6) 0.3829(17) 0.5685(5)
H34 H -0.2644(6) 0.2929(17) 0.5848(5)
H35 H -0.3489(6) 0.3264(17) 0.5272(5)
H36 H -0.3698(6) 0.3790(17) 0.5984(5)
#END
