
#######################################################################
#
#                 Cambridge Crystallographic Data Centre
#                                CCDC
#
#######################################################################
#
# If this CIF has been generated from an entry in the Cambridge
# Structural Database, then it will include bibliographic, chemical,
# crystal, experimental, refinement or atomic coordinate data resulting
# from the CCDC's data processing and validation procedures.
#
#######################################################################

data_CSD_CIF_RODJEA
_audit_creation_date 2008-11-06
_audit_creation_method CSD-ConQuest-V1
_database_code_CSD RODJEA
_database_code_depnum_ccdc_archive 'CCDC 632001'
_chemical_formula_sum 'C12 H20 N2 O4'
_chemical_formula_moiety
;
C12 H20 N2 O4
;
_journal_coden_Cambridge 95
_journal_year 2007
_journal_page_first 1165
_journal_name_full 'Izv.Akad.Nauk SSSR,Ser.Khim.(Russ.)(Russ.Chem.Bull.) '
loop_
_publ_author_name
"K.S.Bekker"
"G.I.Roshchupkina"
"T.V.Rybalova"
"Yu.V.Gatilov"
"V.A.Reznikov"
_chemical_name_systematic
;
(2E)-Ethyl 
2-(1-hydroxy-2,2,5,5,-tetramethylimidazolidin-4-ylidene)-3-oxopropanoate
;
_chemical_melting_point 406.15
_cell_volume   2692.223
_exptl_crystal_colour 'colorless'
_exptl_crystal_density_diffrn 1.265
_exptl_special_details
;
Melting point range 406.15-409.15K

;
_exptl_crystal_description 'pyramid'
_exptl_crystal_preparation 'hexane/ethyl acetate'
_diffrn_ambient_temperature 295
#These two values have been output from a single CSD field.
_refine_ls_R_factor_gt 0.0465
_refine_ls_wR_factor_gt 0.0465
_symmetry_cell_setting orthorhombic
_symmetry_space_group_name_H-M 'P b c a'
_symmetry_Int_Tables_number 61
loop_
_symmetry_equiv_pos_site_id
_symmetry_equiv_pos_as_xyz
1 x,y,z
2 1/2-x,-y,1/2+z
3 -x,1/2+y,1/2-z
4 1/2+x,1/2-y,-z
5 -x,-y,-z
6 -1/2+x,y,-1/2-z
7 x,-1/2-y,-1/2+z
8 -1/2-x,-1/2+y,z
_cell_length_a 12.686(1)
_cell_length_b 9.820(1)
_cell_length_c 21.611(2)
_cell_angle_alpha 90
_cell_angle_beta 90
_cell_angle_gamma 90
_cell_formula_units_Z 8
loop_
_atom_type_symbol
_atom_type_radius_bond
C 0.68
H 0.23
N 0.68
O 0.68
loop_
_atom_site_label
_atom_site_type_symbol
_atom_site_fract_x
_atom_site_fract_y
_atom_site_fract_z
C1 C 0.69825(14) 0.1744(2) 0.38643(9)
C2 C 0.79972(13) 0.12120(19) 0.40714(8)
C3 C 0.80246(16) 0.0443(2) 0.46306(10)
H1 H 0.733(2) 0.034(3) 0.4832(11)
N1 N 1.03062(12) 0.18094(15) 0.30419(7)
C4 C 1.08003(14) 0.14561(19) 0.36365(8)
N2 N 0.98625(11) 0.10672(15) 0.39846(7)
H2 H 0.9900(17) 0.066(2) 0.4355(11)
C5 C 0.89522(13) 0.14555(17) 0.37529(8)
C6 C 0.91691(14) 0.21863(18) 0.31411(8)
O1 O 0.68145(11) 0.23915(19) 0.33981(7)
O2 O 0.61946(10) 0.14559(15) 0.42585(6)
C7 C 0.51666(17) 0.1999(3) 0.40941(13)
H3 H 0.522(2) 0.296(3) 0.4098(13)
H4 H 0.497(2) 0.149(3) 0.3693(16)
C8 C 0.4405(2) 0.1577(4) 0.45796(15)
H5 H 0.374(3) 0.195(3) 0.4482(14)
H6 H 0.435(3) 0.052(4) 0.4601(17)
H7 H 0.466(3) 0.204(4) 0.4977(19)
O3 O 0.88138(11) -0.00343(18) 0.48842(7)
O4 O 1.08683(12) 0.29019(16) 0.27537(7)
H8 H 1.105(2) 0.248(3) 0.2345(14)
C9 C 1.1375(2) 0.2610(3) 0.39679(12)
H9 H 1.1555(18) 0.231(2) 0.4378(12)
H10 H 1.095(2) 0.345(3) 0.3986(12)
H11 H 1.203(2) 0.287(3) 0.3713(13)
C10 C 1.1522(2) 0.0236(3) 0.35555(12)
H12 H 1.1109(18) -0.046(3) 0.3333(11)
H13 H 1.208(2) 0.053(3) 0.3298(13)
H14 H 1.178(2) -0.008(3) 0.3947(14)
C11 C 0.8984(2) 0.3716(2) 0.32139(12)
H15 H 0.9276(19) 0.403(2) 0.3586(11)
H16 H 0.930(2) 0.418(3) 0.2868(12)
H17 H 0.828(2) 0.390(3) 0.3236(12)
C12 C 0.8584(2) 0.1593(3) 0.25861(10)
H18 H 0.865(2) 0.066(3) 0.2583(13)
H19 H 0.890(2) 0.203(3) 0.2184(16)
H20 H 0.789(2) 0.190(3) 0.2587(13)
#END
