
#######################################################################
#
#                 Cambridge Crystallographic Data Centre
#                                CCDC
#
#######################################################################
#
# If this CIF has been generated from an entry in the Cambridge
# Structural Database, then it will include bibliographic, chemical,
# crystal, experimental, refinement or atomic coordinate data resulting
# from the CCDC's data processing and validation procedures.
#
#######################################################################

data_CSD_CIF_RODJAW
_audit_creation_date 2008-11-06
_audit_creation_method CSD-ConQuest-V1
_database_code_CSD RODJAW
_database_code_depnum_ccdc_archive 'CCDC 632002'
_chemical_formula_sum 'C16 H28 N3 O2'
_chemical_formula_moiety
;
C16 H28 N3 O2
;
_journal_coden_Cambridge 95
_journal_year 2007
_journal_page_first 1165
_journal_name_full 'Izv.Akad.Nauk SSSR,Ser.Khim.(Russ.)(Russ.Chem.Bull.) '
loop_
_publ_author_name
"K.S.Bekker"
"G.I.Roshchupkina"
"T.V.Rybalova"
"Yu.V.Gatilov"
"V.A.Reznikov"
_chemical_name_systematic
;
(1Z)-1-Dimethylamino-2-(1-oxyl-2,2,5,5-tetramethyl-2,5-dihydro-1H-imidazol-4-y
l)-4,4-dimethylpent-1-en-3-one
;
_chemical_melting_point 415.15
_cell_volume   3524.343
_exptl_crystal_colour 'yellow'
_exptl_crystal_density_diffrn 1.11
_exptl_special_details
;
Melting point range 415.15-417.15K

;
_exptl_crystal_description 'plate'
_exptl_crystal_preparation 'hexane/ethyl acetate'
_diffrn_ambient_temperature 295
#These two values have been output from a single CSD field.
_refine_ls_R_factor_gt 0.0468
_refine_ls_wR_factor_gt 0.0468
_symmetry_cell_setting monoclinic
_symmetry_space_group_name_H-M 'C 2/c'
_symmetry_Int_Tables_number 15
loop_
_symmetry_equiv_pos_site_id
_symmetry_equiv_pos_as_xyz
1 x,y,z
2 1/2+x,1/2+y,z
3 -x,y,1/2-z
4 1/2-x,1/2+y,1/2-z
5 -x,-y,-z
6 -1/2-x,-1/2-y,-z
7 x,-y,-1/2+z
8 -1/2+x,-1/2-y,-1/2+z
_cell_length_a 27.466(5)
_cell_length_b 11.072(2)
_cell_length_c 12.867(3)
_cell_angle_alpha 90
_cell_angle_beta 115.75(1)
_cell_angle_gamma 90
_cell_formula_units_Z 8
loop_
_atom_type_symbol
_atom_type_radius_bond
C 0.68
H 0.23
N 0.68
O 0.68
loop_
_atom_site_label
_atom_site_type_symbol
_atom_site_fract_x
_atom_site_fract_y
_atom_site_fract_z
N1 N 0.42109(8) 0.10894(14) 0.48368(15)
C1 C 0.41825(8) -0.01072(17) 0.46638(17)
H1 H 0.4361(8) -0.0548(17) 0.5388(18)
C2 C 0.39233(7) -0.07868(15) 0.36925(14)
C3 C 0.36675(7) -0.02920(15) 0.24921(15)
C4 C 0.30654(8) -0.05179(18) 0.16686(17)
C5 C 0.27875(13) 0.0724(3) 0.1378(3)
H2 H 0.2989(13) 0.131(3) 0.111(2)
H3 H 0.2803(14) 0.109(3) 0.213(3)
H4 H 0.2413(15) 0.061(3) 0.080(3)
N2 N 0.40006(8) -0.40639(13) 0.42673(14)
C6 C 0.39251(8) -0.39973(15) 0.30666(15)
N3 N 0.38955(6) -0.27046(12) 0.28518(12)
C7 C 0.39664(6) -0.20980(15) 0.37609(13)
C8 C 0.40680(8) -0.28679(15) 0.48175(14)
C9 C 0.45456(17) 0.1543(3) 0.6008(3)
H5 H 0.4811(14) 0.208(3) 0.602(3)
H6 H 0.4679(16) 0.091(4) 0.657(3)
H7 H 0.431(2) 0.202(5) 0.617(4)
C10 C 0.38973(14) 0.1959(2) 0.3975(3)
H8 H 0.3493(13) 0.169(3) 0.359(2)
H9 H 0.4038(13) 0.204(3) 0.338(3)
H10 H 0.3929(12) 0.270(3) 0.439(3)
O1 O 0.39325(6) 0.03370(13) 0.21496(12)
C11 C 0.27659(10) -0.1290(3) 0.2179(3)
H11 H 0.2808(9) -0.098(2) 0.298(2)
H12 H 0.2388(12) -0.129(2) 0.168(2)
H13 H 0.2882(11) -0.215(3) 0.227(2)
C12 C 0.30397(13) -0.1086(3) 0.0561(2)
H14 H 0.2665(13) -0.123(3) 0.005(3)
H15 H 0.3237(13) -0.191(3) 0.074(3)
H16 H 0.3220(14) -0.051(3) 0.020(3)
O2 O 0.40404(10) -0.50473(13) 0.48029(16)
C13 C 0.44019(11) -0.4552(2) 0.2943(3)
H17 H 0.4361(10) -0.447(2) 0.209(3)
H18 H 0.4394(9) -0.538(2) 0.3064(19)
H19 H 0.4733(11) -0.414(2) 0.346(2)
C14 C 0.34042(11) -0.4627(2) 0.2272(2)
H20 H 0.3444(11) -0.549(3) 0.248(2)
H21 H 0.3093(11) -0.426(2) 0.237(2)
H22 H 0.3367(12) -0.450(3) 0.145(3)
C15 C 0.36440(12) -0.2702(2) 0.5260(2)
H23 H 0.3677(9) -0.189(2) 0.559(2)
H24 H 0.3689(10) -0.334(2) 0.584(2)
H25 H 0.3278(15) -0.273(3) 0.463(3)
C16 C 0.46364(12) -0.2805(3) 0.5807(2)
H26 H 0.4692(11) -0.344(3) 0.629(2)
H27 H 0.4664(11) -0.208(3) 0.627(2)
H28 H 0.4909(15) -0.274(3) 0.553(3)
#END
