
#######################################################################
#
#                 Cambridge Crystallographic Data Centre
#                                CCDC
#
#######################################################################
#
# If this CIF has been generated from an entry in the Cambridge
# Structural Database, then it will include bibliographic, chemical,
# crystal, experimental, refinement or atomic coordinate data resulting
# from the CCDC's data processing and validation procedures.
#
#######################################################################

data_CSD_CIF_RODLIG01
_audit_creation_date 2008-11-06
_audit_creation_method CSD-ConQuest-V1
_database_code_CSD RODLIG01
_database_code_depnum_ccdc_archive 'CCDC 698195'
_chemical_formula_sum 'C16 H27 N4 O3'
_chemical_formula_moiety
;
C16 H27 N4 O3
;
_journal_coden_Cambridge 95
_journal_year 2007
_journal_page_first 1975
_journal_name_full 'Izv.Akad.Nauk SSSR,Ser.Khim.(Russ.)(Russ.Chem.Bull.) '
loop_
_publ_author_name
"E.V.Tret'yakov"
"V.I.Ovcharenko"
"R.Z.Sagdeev"
"D.V.Stas'"
"G.V.Romanenko"
"A.V.Mareev"
"A.S.Medvedeva"
_chemical_name_systematic
;
4,4,5,5-Tetramethyl-2-(2-oxo-1-(4,4,5,5-tetramethylimidazolidin-2-ylidene)ethy
l)-4,5-dihydro-1H-imidazole-3-oxide-1-oxyl
;
_chemical_melting_point 453.15
_cell_volume   3661.683
_exptl_crystal_colour 'light blue'
_exptl_crystal_density_diffrn 1.17
_exptl_special_details
;
Melting point range 453.15-455.15K
monoclinic polymorph
The authors have supplied the correct cell values and space group in their 
cif, rather than the published values a 10.933, b 26.898, c 12.657, beta 
93.499 and sg Pc
;
_exptl_crystal_description 'sphere'
_exptl_crystal_preparation 'toluene/CH2Cl2'
_diffrn_ambient_temperature 240
#These two values have been output from a single CSD field.
_refine_ls_R_factor_gt 0.1142
_refine_ls_wR_factor_gt 0.1142
_symmetry_cell_setting monoclinic
_symmetry_space_group_name_H-M 'P 21/c'
_symmetry_Int_Tables_number 14
loop_
_symmetry_equiv_pos_site_id
_symmetry_equiv_pos_as_xyz
1 x,y,z
2 -x,1/2+y,1/2-z
3 -x,-y,-z
4 x,-1/2-y,-1/2+z
_cell_length_a 10.8816(13)
_cell_length_b 26.813(3)
_cell_length_c 12.5715(15)
_cell_angle_alpha 90
_cell_angle_beta 93.354(2)
_cell_angle_gamma 90
_cell_formula_units_Z 8
loop_
_atom_type_symbol
_atom_type_radius_bond
C 0.68
H 0.23
N 0.68
O 0.68
loop_
_atom_site_label
_atom_site_type_symbol
_atom_site_fract_x
_atom_site_fract_y
_atom_site_fract_z
O1 O 0.0520(4) 0.13107(18) 0.1857(4)
N1 N 0.1002(5) 0.1003(2) 0.1224(4)
C1 C 0.1381(6) 0.1155(3) 0.0152(5)
C2 C 0.2002(13) 0.1647(3) 0.0225(9)
H1 H 0.27440 0.16210 0.06730
H2 H 0.14630 0.18870 0.05220
H3 H 0.21990 0.17540 -0.04740
C3 C 0.0163(11) 0.1186(6) -0.0561(8)
H4 H -0.02970 0.14740 -0.03650
H5 H -0.03170 0.08910 -0.04620
H6 H 0.03530 0.12110 -0.12950
C4 C 0.2155(6) 0.0708(3) -0.0150(5)
C5 C 0.2006(10) 0.0529(4) -0.1285(6)
H7 H 0.11490 0.04750 -0.14750
H8 H 0.24480 0.02220 -0.13540
H9 H 0.23270 0.07750 -0.17490
C6 C 0.3532(8) 0.0767(4) 0.0168(8)
H10 H 0.39650 0.04730 -0.00320
H11 H 0.36410 0.08140 0.09250
H12 H 0.38510 0.10510 -0.01900
N2 N 0.1698(5) 0.0322(2) 0.0584(4)
O2 O 0.1962(5) -0.01503(19) 0.0451(4)
C7 C 0.1159(5) 0.0511(2) 0.1415(5)
C8 C 0.0858(5) 0.0258(2) 0.2389(5)
C9 C -0.0240(6) 0.0393(2) 0.2884(6)
H13 H -0.07650 0.06160 0.25190
O3 O -0.0554(4) 0.02421(19) 0.3737(4)
C10 C 0.1675(5) -0.0086(2) 0.2894(5)
N3 N 0.2764(6) -0.0217(2) 0.2555(6)
H14 H 0.276(4) -0.0236(18) 0.205(4)
C11 C 0.3228(5) -0.0669(2) 0.3128(5)
C12 C 0.4627(6) -0.0675(4) 0.3217(7)
H15 H 0.49220 -0.03920 0.36250
H16 H 0.49350 -0.06600 0.25180
H17 H 0.49090 -0.09760 0.35660
C13 C 0.2806(8) -0.1123(3) 0.2496(7)
H18 H 0.19240 -0.11230 0.24040
H19 H 0.30740 -0.14190 0.28720
H20 H 0.31530 -0.11170 0.18120
C14 C 0.2587(5) -0.0599(2) 0.4182(5)
C15 C 0.2224(7) -0.1082(3) 0.4707(7)
H21 H 0.17680 -0.12860 0.41950
H22 H 0.17230 -0.10100 0.52910
H23 H 0.29520 -0.12570 0.49650
C16 C 0.3317(6) -0.0283(3) 0.4994(6)
H24 H 0.28750 -0.02570 0.56310
H25 H 0.34350 0.00440 0.47070
H26 H 0.41030 -0.04350 0.51600
N4 N 0.1508(5) -0.0321(2) 0.3784(5)
H27 H 0.103(4) -0.0268(16) 0.413(4)
O4 O 0.1692(6) 0.2996(3) 0.1744(6)
N5 N 0.2394(6) 0.3139(3) 0.0982(5)
C17 C 0.1862(6) 0.3423(2) 0.0110(6)
C18 C 0.1605(9) 0.3940(3) 0.0446(8)
H28 H 0.09730 0.39370 0.09480
H29 H 0.13350 0.41340 -0.01650
H30 H 0.23410 0.40840 0.07740
C19 C 0.0640(9) 0.3215(5) -0.0340(11)
H31 H 0.00330 0.32500 0.01790
H32 H 0.07360 0.28690 -0.05100
H33 H 0.03810 0.33950 -0.09740
C20 C 0.2901(7) 0.3370(3) -0.0705(6)
C21 C 0.3233(9) 0.3842(4) -0.1258(8)
H34 H 0.38590 0.37730 -0.17450
H35 H 0.35360 0.40820 -0.07400
H36 H 0.25170 0.39730 -0.16440
C22 C 0.2715(11) 0.2963(4) -0.1542(8)
H37 H 0.33900 0.29670 -0.20010
H38 H 0.19590 0.30220 -0.19560
H39 H 0.26790 0.26450 -0.11980
N6 N 0.3950(5) 0.3213(3) 0.0054(5)
O5 O 0.5075(5) 0.3244(3) -0.0242(5)
C23 C 0.3628(5) 0.3066(2) 0.1002(5)
C24 C 0.4422(5) 0.2905(2) 0.1866(4)
C25 C 0.4228(7) 0.3102(3) 0.2866(5)
H40 H 0.36550 0.33590 0.28810
O6 O 0.4706(6) 0.2982(2) 0.3709(5)
C26 C 0.5403(6) 0.2565(3) 0.1751(5)
N7 N 0.5731(7) 0.2352(4) 0.0858(5)
H41? H 0.602(3) 0.2818(13) -0.003(3)
C27 C 0.6873(7) 0.2067(3) 0.1008(5)
C28 C 0.6886(16) 0.1600(6) 0.0393(10)
H42 H 0.68130 0.16750 -0.03550
H43 H 0.62090 0.13930 0.05750
H44 H 0.76460 0.14260 0.05570
C29 C 0.7872(13) 0.2381(6) 0.0670(15)
H45 H 0.77910 0.24240 -0.00890
H46 H 0.86460 0.22240 0.08640
H47 H 0.78360 0.27000 0.10120
C30 C 0.6976(9) 0.2007(4) 0.2208(6)
C31 C 0.7995(11) 0.1916(6) 0.2809(8)
H48 H 0.85360 0.21980 0.27890
H49 H 0.83980 0.16270 0.25440
H50 H 0.77880 0.18570 0.35310
C32 C 0.6180(15) 0.1440(5) 0.2457(15)
H51 H 0.62190 0.13740 0.32090
H52 H 0.65580 0.11700 0.20950
H53 H 0.53350 0.14700 0.22000
N8 N 0.6135(5) 0.2394(2) 0.2543(4)
H54 H 0.597(3) 0.2381(13) 0.343(3)
#END
