
#######################################################################
#
#                 Cambridge Crystallographic Data Centre
#                                CCDC
#
#######################################################################
#
# If this CIF has been generated from an entry in the Cambridge
# Structural Database, then it will include bibliographic, chemical,
# crystal, experimental, refinement or atomic coordinate data resulting
# from the CCDC's data processing and validation procedures.
#
#######################################################################

data_CSD_CIF_RODLUS
_audit_creation_date 2008-11-06
_audit_creation_method CSD-ConQuest-V1
_database_code_CSD RODLUS
_database_code_depnum_ccdc_archive 'CCDC 698225'
_chemical_formula_sum 'C5 H3 N5 O4'
_chemical_formula_moiety
;
C5 H3 N5 O4
;
_journal_coden_Cambridge 95
_journal_year 2007
_journal_page_first 2004
_journal_name_full 'Izv.Akad.Nauk SSSR,Ser.Khim.(Russ.)(Russ.Chem.Bull.) '
loop_
_publ_author_name
"A.A.Zaitsev"
"T.I.Cherkasova"
"I.L.Dalinger"
"V.V.Kachala"
"Yu.A.Strelenko"
"I.V.Fedyanin"
"V.N.Solkan"
"T.K.Shkineva"
"G.P.Popova"
"S.A.Shevelev"
_chemical_name_systematic
;
1-Methyl-3,5-dinitro-4-cyanopyrazole
;
_cell_volume    762.252
_exptl_crystal_colour 'yellow'
_exptl_crystal_density_diffrn 1.718
_exptl_crystal_description 'prism'
_diffrn_ambient_temperature 100
#These two values have been output from a single CSD field.
_refine_ls_R_factor_gt 0.0322
_refine_ls_wR_factor_gt 0.0322
_symmetry_cell_setting monoclinic
_symmetry_space_group_name_H-M 'P 21/n'
_symmetry_Int_Tables_number 14
loop_
_symmetry_equiv_pos_site_id
_symmetry_equiv_pos_as_xyz
1 x,y,z
2 1/2-x,1/2+y,1/2-z
3 -x,-y,-z
4 -1/2+x,-1/2-y,-1/2+z
_cell_length_a 5.4800(3)
_cell_length_b 8.8687(4)
_cell_length_c 15.7014(8)
_cell_angle_alpha 90
_cell_angle_beta 92.694(1)
_cell_angle_gamma 90
_cell_formula_units_Z 4
loop_
_atom_type_symbol
_atom_type_radius_bond
C 0.68
H 0.23
N 0.68
O 0.68
loop_
_atom_site_label
_atom_site_type_symbol
_atom_site_fract_x
_atom_site_fract_y
_atom_site_fract_z
O1 O 0.04057(13) 0.31393(8) 0.35318(5)
O2 O 0.31696(15) 0.16506(9) 0.41208(5)
O3 O 0.89702(13) 0.00419(9) 0.15265(5)
O4 O 0.71035(15) 0.09206(9) 0.03739(5)
N1 N 0.35768(14) 0.22208(8) 0.13608(5)
N2 N 0.22032(14) 0.26743(8) 0.19953(5)
N3 N 0.22007(15) 0.23184(9) 0.35105(5)
N4 N 0.73175(15) 0.07327(9) 0.11447(5)
N5 N 0.81280(18) -0.02118(11) 0.36190(6)
C1 C 0.28565(19) 0.26954(11) 0.04858(6)
H1 H 0.14940 0.34090 0.05010
H2 H 0.23500 0.18110 0.01480
H3 H 0.42460 0.31820 0.02270
C2 C 0.69049(17) 0.04277(10) 0.31307(6)
C3 C 0.32597(16) 0.20829(10) 0.26939(6)
C4 C 0.53490(16) 0.12358(9) 0.25414(6)
C5 C 0.54736(16) 0.13724(9) 0.16648(6)
#END
