
#######################################################################
#
#                 Cambridge Crystallographic Data Centre
#                                CCDC
#
#######################################################################
#
# If this CIF has been generated from an entry in the Cambridge
# Structural Database, then it will include bibliographic, chemical,
# crystal, experimental, refinement or atomic coordinate data resulting
# from the CCDC's data processing and validation procedures.
#
#######################################################################

data_CSD_CIF_RODLIG
_audit_creation_date 2008-11-06
_audit_creation_method CSD-ConQuest-V1
_database_code_CSD RODLIG
_database_code_depnum_ccdc_archive 'CCDC 698194'
_chemical_formula_sum 'C16 H27 N4 O3'
_chemical_formula_moiety
;
C16 H27 N4 O3
;
_journal_coden_Cambridge 95
_journal_year 2007
_journal_page_first 1975
_journal_name_full 'Izv.Akad.Nauk SSSR,Ser.Khim.(Russ.)(Russ.Chem.Bull.) '
loop_
_publ_author_name
"E.V.Tret'yakov"
"V.I.Ovcharenko"
"R.Z.Sagdeev"
"D.V.Stas'"
"G.V.Romanenko"
"A.V.Mareev"
"A.S.Medvedeva"
_chemical_name_systematic
;
4,4,5,5-Tetramethyl-2-(2-oxo-1-(4,4,5,5-tetramethylimidazolidin-2-ylidene)ethy
l)-4,5-dihydro-1H-imidazole-3-oxide-1-oxyl
;
_chemical_melting_point 453.15
_cell_volume   2717.622
_exptl_crystal_colour 'light blue'
_exptl_crystal_density_diffrn 1.186
_exptl_special_details
;
Melting point range 453.15-455.15K
triclinic polymorph

;
_exptl_crystal_description 'plate'
_exptl_crystal_preparation 'heptane/CH2Cl2'
_diffrn_ambient_temperature 240
#These two values have been output from a single CSD field.
_refine_ls_R_factor_gt 0.076
_refine_ls_wR_factor_gt 0.076
_symmetry_cell_setting triclinic
_symmetry_space_group_name_H-M 'P -1'
_symmetry_Int_Tables_number 2
loop_
_symmetry_equiv_pos_site_id
_symmetry_equiv_pos_as_xyz
1 x,y,z
2 -x,-y,-z
_cell_length_a 9.672(5)
_cell_length_b 15.212(7)
_cell_length_c 20.782(10)
_cell_angle_alpha 69.303(9)
_cell_angle_beta 80.487(9)
_cell_angle_gamma 72.189(10)
_cell_formula_units_Z 6
loop_
_atom_type_symbol
_atom_type_radius_bond
C 0.68
H 0.23
N 0.68
O 0.68
loop_
_atom_site_label
_atom_site_type_symbol
_atom_site_fract_x
_atom_site_fract_y
_atom_site_fract_z
N1 N -0.0797(4) 1.0086(3) 0.29581(18)
O1 O 0.0505(3) 0.9748(3) 0.27406(16)
C1 C -0.2988(5) 1.0120(4) 0.3629(2)
O2 O -0.4226(3) 1.1694(2) 0.28203(14)
N2 N -0.3015(4) 1.1013(3) 0.30078(17)
C2 C -0.3783(8) 0.9535(5) 0.3430(4)
H1 H -0.488(7) 0.992(5) 0.334(3)
H2 H -0.380(6) 0.898(4) 0.387(3)
H3 H -0.328(6) 0.923(4) 0.306(3)
O3 O -0.0499(3) 1.1432(2) 0.08039(14)
N3 N -0.2232(5) 1.3061(3) 0.21758(19)
H4 H -0.263(6) 1.279(4) 0.259(3)
C3 C -0.3802(8) 1.0414(6) 0.4256(3)
H5 H -0.489(8) 1.078(5) 0.417(3)
H6 H -0.334(6) 1.090(4) 0.435(3)
H7 H -0.377(5) 0.986(4) 0.460(3)
N4 N -0.1793(4) 1.3167(3) 0.10834(19)
H8 H -0.133(4) 1.292(3) 0.0775(19)
C4 C -0.1338(5) 0.9659(4) 0.3685(2)
C5 C -0.085(1) 0.8553(5) 0.3905(4)
H9 H 0.015(8) 0.837(5) 0.388(3)
H10 H -0.109(5) 0.832(4) 0.361(2)
H11 H -0.149(7) 0.831(5) 0.441(3)
C6 C -0.0645(9) 1.0021(8) 0.4118(3)
H12 H 0.031(6) 0.982(4) 0.405(3)
H13 H -0.097(5) 0.973(4) 0.459(3)
H14 H -0.105(9) 1.077(6) 0.398(4)
C7 C -0.1776(5) 1.0908(3) 0.2603(2)
C8 C -0.1502(5) 1.1525(3) 0.1907(2)
C9 C -0.0829(5) 1.1036(4) 0.1424(2)
H15 H -0.069(4) 1.029(3) 0.1598(19)
C10 C -0.1851(5) 1.2536(3) 0.1739(2)
C11 C -0.2732(6) 1.4116(3) 0.1799(2)
C12 C -0.2283(9) 1.4696(5) 0.2173(3)
H16 H -0.296(7) 1.462(5) 0.263(3)
H17 H -0.249(6) 1.543(5) 0.186(3)
H18 H -0.111(7) 1.449(5) 0.219(3)
C13 C -0.4376(7) 1.4388(6) 0.1782(4)
H19 H -0.478(6) 1.423(4) 0.225(3)
H20 H -0.471(7) 1.409(5) 0.148(3)
H21 H -0.473(6) 1.511(4) 0.155(3)
C14 C -0.1896(5) 1.4149(3) 0.1085(2)
C15 C -0.2699(8) 1.4931(4) 0.0464(3)
H22 H -0.204(6) 1.481(4) 0.004(3)
H23 H -0.277(5) 1.552(4) 0.051(2)
H24 H -0.372(6) 1.481(4) 0.044(3)
C16 C -0.0339(7) 1.4245(5) 0.1038(3)
H25 H 0.009(5) 1.412(4) 0.055(3)
H26 H 0.022(4) 1.372(3) 0.145(2)
H27 H -0.036(6) 1.486(4) 0.103(3)
O4 O -0.3098(4) 1.1707(3) 0.56929(16)
N5 N -0.4102(4) 1.2464(3) 0.57292(18)
C17 C -0.4270(5) 1.2862(4) 0.6314(2)
N6 N -0.5942(4) 1.3766(3) 0.54488(17)
O5 O -0.6981(4) 1.4472(2) 0.51068(15)
C18 C -0.3050(7) 1.3334(5) 0.6211(4)
H28 H -0.229(6) 1.291(4) 0.620(2)
H29 H -0.326(7) 1.364(5) 0.658(4)
H30 H -0.299(5) 1.392(4) 0.576(3)
N7 N -0.7537(4) 1.3285(3) 0.44899(19)
H31 H -0.766(5) 1.373(3) 0.475(2)
O6 O -0.3149(3) 1.2659(3) 0.36391(16)
C19 C -0.4146(7) 1.2021(5) 0.6993(3)
H32 H -0.324(6) 1.158(4) 0.704(2)
H33 H -0.490(5) 1.159(4) 0.707(2)
H34 H -0.434(6) 1.227(4) 0.738(3)
N8 N -0.6133(4) 1.2904(3) 0.36247(18)
H35 H -0.517(5) 1.259(4) 0.338(2)
C20 C -0.5803(5) 1.3594(4) 0.6195(2)
C21 C -0.7087(7) 1.3185(6) 0.6581(3)
H36 H -0.804(7) 1.382(5) 0.638(3)
H37 H -0.717(5) 1.316(3) 0.704(2)
H38 H -0.687(7) 1.256(5) 0.652(3)
C22 C -0.5935(10) 1.4558(6) 0.6288(5)
H39 H -0.671(7) 1.498(5) 0.620(3)
H40 H -0.512(7) 1.488(5) 0.595(3)
H41 H -0.567(9) 1.439(6) 0.678(4)
C23 C -0.5011(5) 1.3074(3) 0.5213(2)
C24 C -0.4894(5) 1.2958(3) 0.4540(2)
C25 C -0.3484(5) 1.2767(4) 0.4216(3)
H42 H -0.263(4) 1.277(3) 0.4460(19)
C26 C -0.6152(5) 1.3053(3) 0.4223(2)
C27 C -0.8547(5) 1.3573(4) 0.3929(2)
C28 C -0.9999(6) 1.3366(6) 0.4234(3)
H43 H -1.050(6) 1.389(4) 0.454(3)
H44 H -0.993(6) 1.268(4) 0.454(3)
H45 H -1.057(6) 1.333(4) 0.388(3)
C29 C -0.8798(8) 1.4660(4) 0.3554(3)
H46 H -0.913(5) 1.501(3) 0.392(2)
H47 H -0.947(5) 1.490(3) 0.319(2)
H48 H -0.788(6) 1.481(4) 0.334(2)
C30 C -0.7604(5) 1.2921(4) 0.3498(2)
C31 C -0.7765(8) 1.1882(5) 0.3763(4)
H49 H -0.700(6) 1.143(4) 0.346(3)
H50 H -0.871(7) 1.187(4) 0.367(3)
H51 H -0.760(5) 1.160(3) 0.427(2)
C32 C -0.7822(8) 1.3340(5) 0.2725(3)
H52 H -0.714(6) 1.289(4) 0.245(3)
H53 H -0.770(5) 1.405(4) 0.248(2)
H54 H -0.879(6) 1.333(4) 0.268(3)
N9 N -0.0987(4) 0.7970(3) 0.13873(17)
O7 O -0.1880(4) 0.8469(3) 0.17461(17)
C33 C 0.0629(5) 0.7860(4) 0.1334(2)
O8 O -0.0023(3) 0.6622(2) 0.02759(15)
N10 N -0.0108(4) 0.7104(3) 0.06950(17)
C34 C 0.1145(7) 0.7711(6) 0.2028(3)
H55 H 0.063(6) 0.833(5) 0.221(3)
H56 H 0.222(7) 0.759(5) 0.201(3)
H57 H 0.086(5) 0.712(3) 0.238(2)
O9 O -0.5150(4) 0.7549(3) 0.13330(16)
N11 N -0.2405(4) 0.8303(3) -0.04799(18)
H58 H -0.145(6) 0.841(4) -0.054(3)
C35 C 0.0890(8) 0.8793(5) 0.0798(3)
H59 H 0.034(5) 0.928(3) 0.096(2)
H60 H 0.050(6) 0.890(4) 0.031(3)
H61 H 0.186(7) 0.888(4) 0.069(3)
N12 N -0.4613(4) 0.8272(3) -0.00512(19)
H62 H -0.524(5) 0.804(3) 0.028(2)
C36 C 0.1186(5) 0.6984(3) 0.1057(2)
C37 C 0.1391(7) 0.5992(4) 0.1630(3)
H63 H 0.153(5) 0.547(4) 0.142(2)
H64 H 0.051(6) 0.597(4) 0.197(2)
H65 H 0.226(5) 0.598(3) 0.186(2)
C38 C 0.2540(6) 0.6986(5) 0.0564(3)
H66 H 0.294(5) 0.636(4) 0.045(2)
H67 H 0.339(6) 0.696(4) 0.087(3)
H68 H 0.231(5) 0.756(4) 0.020(2)
C39 C -0.1354(5) 0.7612(3) 0.0944(2)
C40 C -0.2814(5) 0.7721(3) 0.0794(2)
C41 C -0.3838(5) 0.7505(4) 0.1352(2)
H69 H -0.348(3) 0.720(2) 0.1859(17)
C42 C -0.3246(5) 0.8080(3) 0.0106(2)
C43 C -0.3317(5) 0.8861(4) -0.1081(2)
C44 C -0.2581(7) 0.8591(7) -0.1729(3)
H70 H -0.170(6) 0.890(4) -0.185(3)
H71 H -0.329(6) 0.889(4) -0.210(3)
H72 H -0.221(7) 0.781(5) -0.151(3)
C45 C -0.3537(9) 0.9942(5) -0.1203(4)
H73 H -0.271(6) 1.007(4) -0.134(3)
H74 H -0.417(13) 1.019(9) -0.071(6)
H75 H -0.426(6) 1.035(4) -0.155(3)
C46 C -0.4738(5) 0.8528(4) -0.0793(2)
C47 C -0.4719(8) 0.7593(5) -0.0945(3)
H76 H -0.564(7) 0.741(5) -0.063(3)
H77 H -0.352(7) 0.709(4) -0.089(3)
H78 H -0.487(5) 0.780(4) -0.147(3)
C48 C -0.6146(7) 0.9324(6) -0.1033(4)
H79 H -0.699(7) 0.906(4) -0.077(3)
H80 H -0.618(6) 0.941(4) -0.147(3)
H81 H -0.601(6) 0.987(4) -0.079(3)
#END
