
#######################################################################
#
#                 Cambridge Crystallographic Data Centre
#                                CCDC
#
#######################################################################
#
# If this CIF has been generated from an entry in the Cambridge
# Structural Database, then it will include bibliographic, chemical,
# crystal, experimental, refinement or atomic coordinate data resulting
# from the CCDC's data processing and validation procedures.
#
#######################################################################

data_CSD_CIF_ROFGAV
_audit_creation_date 2008-11-06
_audit_creation_method CSD-ConQuest-V1
_database_code_CSD ROFGAV
_database_code_depnum_ccdc_archive 'CCDC 706038'
_chemical_formula_sum 'C8 H6 N2 O2'
_chemical_formula_moiety
;
C8 H6 N2 O2
;
_journal_coeditor_code "IUCr WK2090"
_journal_coden_Cambridge 1370
_journal_volume 64
_journal_year 2008
_journal_page_first o1898
_journal_name_full 'Acta Crystallogr.,Sect.E:Struct.Rep.Online '
loop_
_publ_author_name
"Li-Jing Cui"
"Jing Dai"
_chemical_name_systematic
;
4-Methyl-3-nitrobenzonitrile
;
_cell_volume    776.420
_exptl_crystal_colour 'colorless'
_exptl_crystal_density_diffrn 1.387
_exptl_crystal_description 'block'
_exptl_crystal_preparation 'chloroform'
_diffrn_ambient_temperature 298
#These two values have been output from a single CSD field.
_refine_ls_R_factor_gt 0.0676
_refine_ls_wR_factor_gt 0.0676
_symmetry_cell_setting monoclinic
_symmetry_space_group_name_H-M 'P 21/c'
_symmetry_Int_Tables_number 14
loop_
_symmetry_equiv_pos_site_id
_symmetry_equiv_pos_as_xyz
1 x,y,z
2 -x,1/2+y,1/2-z
3 -x,-y,-z
4 x,-1/2-y,-1/2+z
_cell_length_a 3.9088(8)
_cell_length_b 13.576(3)
_cell_length_c 14.819(4)
_cell_angle_alpha 90
_cell_angle_beta 99.13(3)
_cell_angle_gamma 90
_cell_formula_units_Z 4
loop_
_atom_type_symbol
_atom_type_radius_bond
C 0.68
H 0.23
N 0.68
O 0.68
loop_
_atom_site_label
_atom_site_type_symbol
_atom_site_fract_x
_atom_site_fract_y
_atom_site_fract_z
O1 O 1.0921(7) 0.79875(18) 0.59741(14)
O2 O 1.3658(7) 0.89476(18) 0.52048(17)
N1 N 1.1627(5) 0.82762(16) 0.52533(14)
N2 N 0.5214(8) 0.45178(18) 0.38967(18)
C1 C 1.0021(5) 0.77768(15) 0.44045(14)
C2 C 0.6195(7) 0.53049(18) 0.38358(16)
C3 C 0.9631(5) 0.82620(16) 0.35611(15)
C4 C 0.8914(6) 0.68242(16) 0.45126(14)
H1 H 0.91850 0.65350 0.50880
C5 C 0.6963(6) 0.67560(17) 0.28898(15)
H2 H 0.59420 0.64120 0.23740
C6 C 0.7388(6) 0.63055(16) 0.37444(15)
C7 C 0.8057(7) 0.77130(18) 0.28090(16)
H3 H 0.77380 0.80040 0.22340
C8 C 1.0660(8) 0.93151(18) 0.3406(2)
H4 H 1.17000 0.96010 0.39760
H5 H 0.86410 0.96870 0.31570
H6 H 1.22930 0.93260 0.29850
#END
