
#######################################################################
#
#                 Cambridge Crystallographic Data Centre
#                                CCDC
#
#######################################################################
#
# If this CIF has been generated from an entry in the Cambridge
# Structural Database, then it will include bibliographic, chemical,
# crystal, experimental, refinement or atomic coordinate data resulting
# from the CCDC's data processing and validation procedures.
#
#######################################################################

data_CSD_CIF_ROFJEB
_audit_creation_date 1998-01-15
_audit_creation_method CSD-ConQuest-V1
_database_code_CSD ROFJEB
_chemical_formula_sum 'C19 H19 N1 O5'
_chemical_formula_moiety
;
C19 H19 N1 O5
;
_journal_coden_Cambridge 35
_journal_volume 61
_journal_year 1996
_journal_page_first 9548
_journal_name_full 'J.Org.Chem. '
loop_
_publ_author_name
"P.Crotti"
"V.Di Bussolo"
"L.Favero"
"M.Pineschi"
"M.Pasero"
_chemical_name_systematic
;
syn-2-Methyl-4-(p-nitrobenzoyloxy)-1-phenyl-1-pentanone
;
_chemical_melting_point 355.15
_cell_volume   2041.629
_exptl_crystal_density_diffrn 1.11
_exptl_special_details
;
Melting point range 355.15-356.15K

;
_diffrn_ambient_temperature ?
_diffrn_special_details
;
The study was carried out at room temperature,in the range 283-303K

;
#These two values have been output from a single CSD field.
_refine_ls_R_factor_gt 0.0559
_refine_ls_wR_factor_gt 0.0559
_symmetry_cell_setting monoclinic
_symmetry_space_group_name_H-M 'P 21/c'
_symmetry_Int_Tables_number 14
loop_
_symmetry_equiv_pos_site_id
_symmetry_equiv_pos_as_xyz
1 x,y,z
2 -x,1/2+y,1/2-z
3 -x,-y,-z
4 x,-1/2-y,-1/2+z
_cell_length_a 18.616(5)
_cell_length_b 14.544(5)
_cell_length_c 7.542(2)
_cell_angle_alpha 90
_cell_angle_beta 91.10(2)
_cell_angle_gamma 90
_cell_formula_units_Z 4
loop_
_atom_type_symbol
_atom_type_radius_bond
C 0.68
N 0.68
O 0.68
loop_
_atom_site_label
_atom_site_type_symbol
_atom_site_fract_x
_atom_site_fract_y
_atom_site_fract_z
C1 C 0.6500(3) -0.0244(4) 0.5531(8)
O1 O 0.6057(2) 0.0260(3) 0.6356(5)
C2 C 0.6371(3) -0.0468(4) 0.3467(8)
C3 C 0.5866(3) 0.0267(5) 0.2509(9)
C4 C 0.6161(3) 0.1273(5) 0.2349(10)
C5 C 0.5609(5) 0.1967(7) 0.1436(12)
C6 C 0.6037(5) -0.1487(5) 0.3339(12)
O2 O 0.6822(2) 0.1264(3) 0.1169(5)
C7 C 0.7494(4) 0.1272(4) 0.2006(10)
O3 O 0.7599(2) 0.1277(3) 0.3665(6)
C8 C 0.8112(3) 0.1265(4) 0.0624(8)
C9 C 0.7977(4) 0.1318(4) -0.1274(9)
C10 C 0.8572(4) 0.1312(4) -0.2460(9)
C11 C 0.9292(4) 0.1241(5) -0.1751(9)
N1 N 0.9922(3) 0.1258(5) -0.3065(9)
O4 O 1.0550(3) 0.1234(5) -0.2423(6)
O5 O 0.9793(3) 0.1296(5) -0.4687(7)
C12 C 0.9440(4) 0.1179(5) 0.0121(10)
C13 C 0.8848(4) 0.1186(5) 0.1303(10)
C14 C 0.7140(3) -0.0722(4) 0.6527(9)
C15 C 0.7823(4) -0.0920(4) 0.5727(10)
C16 C 0.8405(4) -0.1330(5) 0.6732(11)
C17 C 0.8290(4) -0.1583(4) 0.8548(11)
C18 C 0.7620(5) -0.1403(5) 0.9379(11)
C19 C 0.7059(4) -0.0960(4) 0.8379(9)
#END
