
#######################################################################
#
#                 Cambridge Crystallographic Data Centre
#                                CCDC
#
#######################################################################
#
# If this CIF has been generated from an entry in the Cambridge
# Structural Database, then it will include bibliographic, chemical,
# crystal, experimental, refinement or atomic coordinate data resulting
# from the CCDC's data processing and validation procedures.
#
#######################################################################

data_CSD_CIF_ROFMAC
_audit_creation_date 2014-05-15
_audit_creation_method CSD-ConQuest-V1
_database_code_CSD ROFMAC
_database_code_depnum_ccdc_archive 'CCDC 894706'
_chemical_formula_sum 'C18 H16 N6 O5'
_chemical_formula_moiety
;
C18 H16 N6 O5
;
_journal_coden_Cambridge 1003
_journal_volume 44
_journal_year 2014
_journal_page_first 220
_journal_name_full 'J.Chem.Cryst. '
loop_
_publ_author_name
"Tze Shyang Chia"
"Ching Kheng Quah"
"Wan-Sin Loh"
"N.Chandra"
"B.Kalluraya"
"Hoong-Kun Fun"
_chemical_name_systematic
;
(E)-N'-(4-Hydroxy-3-methoxybenzylidene)-5-methyl-1-(4-nitrophenyl)-1H-1,2,3-tr
iazole-4-carbohydrazide
;
_cell_volume   1709.664
_exptl_crystal_colour 'yellow'
_exptl_crystal_density_diffrn 1.54
_exptl_crystal_description 'plate'
_diffrn_ambient_temperature 100
#These two values have been output from a single CSD field.
_refine_ls_R_factor_gt 0.034
_refine_ls_wR_factor_gt 0.034
_symmetry_cell_setting monoclinic
_symmetry_space_group_name_H-M 'P 21/c'
_symmetry_Int_Tables_number 14
loop_
_symmetry_equiv_pos_site_id
_symmetry_equiv_pos_as_xyz
1 x,y,z
2 -x,1/2+y,1/2-z
3 -x,-y,-z
4 x,-1/2-y,-1/2+z
_cell_length_a 11.1644(10)
_cell_length_b 16.3508(15)
_cell_length_c 9.7313(9)
_cell_angle_alpha 90
_cell_angle_beta 105.757(1)
_cell_angle_gamma 90
_cell_formula_units_Z 4
loop_
_atom_type_symbol
_atom_type_radius_bond
C 0.68
H 0.23
N 0.68
O 0.68
loop_
_atom_site_label
_atom_site_type_symbol
_atom_site_fract_x
_atom_site_fract_y
_atom_site_fract_z
O1 O 1.36533(9) 0.16573(6) -0.82919(10)
O2 O 1.4972(1) 0.07459(7) -0.71818(11)
O3 O 1.14232(9) 0.02394(6) 0.11446(9)
O4 O 0.72793(9) 0.10414(6) 0.72704(9)
H1 H 0.7680(18) 0.0647(13) 0.773(2)
O5 O 0.63806(8) 0.23022(5) 0.56210(9)
N1 N 1.41078(10) 0.12207(7) -0.72516(11)
N2 N 1.19213(9) 0.13090(6) -0.26686(10)
N3 N 1.09358(9) 0.18361(6) -0.27942(11)
N4 N 1.04955(10) 0.17068(6) -0.17084(11)
N5 N 0.99884(10) 0.12664(7) 0.07812(11)
H2 H 0.9676(14) 0.1696(10) 0.0256(17)
N6 N 0.96124(10) 0.10583(6) 0.19743(11)
C1 C 1.18722(11) 0.16187(8) -0.51120(13)
H3 H 1.1047(14) 0.1830(9) -0.5221(16)
C2 C 1.24094(12) 0.16092(8) -0.62355(13)
H4 H 1.1975(14) 0.1818(9) -0.7169(17)
C3 C 1.35819(11) 0.12685(8) -0.60229(13)
C4 C 1.42556(12) 0.09716(8) -0.47109(13)
H5 H 1.5056(14) 0.0745(9) -0.4592(15)
C5 C 1.37342(11) 0.10091(8) -0.35685(13)
H6 H 1.4203(14) 0.0824(9) -0.2631(16)
C6 C 1.25299(11) 0.13089(7) -0.37881(12)
C7 C 1.20897(11) 0.08329(7) -0.14767(12)
C8 C 1.11690(11) 0.10998(7) -0.08845(12)
C9 C 1.08842(11) 0.08185(7) 0.04327(12)
C10 C 0.88543(11) 0.15584(8) 0.23159(13)
H7 H 0.8584(14) 0.2057(10) 0.1778(16)
C11 C 0.84095(11) 0.13983(8) 0.35732(12)
C12 C 0.88053(11) 0.07062(8) 0.44152(13)
H8 H 0.9342(14) 0.0317(10) 0.4161(16)
C13 C 0.84381(11) 0.05792(8) 0.56492(13)
H9 H 0.8715(14) 0.0121(9) 0.6252(16)
C14 C 0.76484(11) 0.11320(7) 0.60471(12)
C15 C 0.71961(11) 0.18107(7) 0.51691(13)
C16 C 0.75918(11) 0.19496(8) 0.39555(13)
H10 H 0.7314(14) 0.2417(10) 0.3362(16)
C17 C 1.30472(12) 0.01837(8) -0.09916(14)
H11 H 1.3155(14) -0.0151(10) -0.1787(17)
H12 H 1.2806(14) -0.0162(10) -0.0275(17)
H13 H 1.3868(16) 0.0439(10) -0.0486(17)
C18 C 0.58457(13) 0.29687(9) 0.47120(15)
H14 H 0.5420(14) 0.2786(10) 0.3748(17)
H15 H 0.6472(16) 0.3362(11) 0.4613(17)
H16 H 0.5261(17) 0.3229(11) 0.5119(19)
#END
