
#######################################################################
#
#                 Cambridge Crystallographic Data Centre
#                                CCDC
#
#######################################################################
#
# If this CIF has been generated from an entry in the Cambridge
# Structural Database, then it will include bibliographic, chemical,
# crystal, experimental, refinement or atomic coordinate data resulting
# from the CCDC's data processing and validation procedures.
#
#######################################################################

data_CSD_CIF_ROFQAG
_audit_creation_date 2014-05-15
_audit_creation_method CSD-ConQuest-V1
_database_code_CSD ROFQAG
_database_code_depnum_ccdc_archive 'CCDC 875333'
_chemical_formula_sum 'C13 H16 N2 O3'
_chemical_formula_moiety
;
C13 H16 N2 O3
;
_journal_coden_Cambridge 1088
_journal_volume 25
_journal_year 2014
_journal_page_first 969
_journal_name_full 'Synlett '
loop_
_publ_author_name
"B.Fante"
"Yaya Soro"
"S.Siaka"
"J.Marrot"
"J.-M.Coustard"
_chemical_name_systematic
;
1-(hydroxyimino)-3-(3-hydroxypropyl)-1,3,4,5-tetrahydro-2H-3-benzazepin-2-one
;
_cell_volume   1284.725
_exptl_crystal_colour 'yellow'
_exptl_crystal_density_diffrn 1.284
_exptl_crystal_description 'parallelepiped'
_diffrn_ambient_temperature 293
#These two values have been output from a single CSD field.
_refine_ls_R_factor_gt 0.0344
_refine_ls_wR_factor_gt 0.0344
_symmetry_cell_setting orthorhombic
_symmetry_space_group_name_H-M 'P 21 21 21'
_symmetry_Int_Tables_number 19
loop_
_symmetry_equiv_pos_site_id
_symmetry_equiv_pos_as_xyz
1 x,y,z
2 1/2-x,-y,1/2+z
3 -x,1/2+y,1/2-z
4 1/2+x,1/2-y,-z
_cell_length_a 8.6139(4)
_cell_length_b 11.7492(5)
_cell_length_c 12.6941(6)
_cell_angle_alpha 90
_cell_angle_beta 90
_cell_angle_gamma 90
_cell_formula_units_Z 4
loop_
_atom_type_symbol
_atom_type_radius_bond
C 0.68
H 0.23
N 0.68
O 0.68
loop_
_atom_site_label
_atom_site_type_symbol
_atom_site_fract_x
_atom_site_fract_y
_atom_site_fract_z
C1 C 0.8531(2) 0.83297(17) 0.49849(18)
C2 C 0.8256(3) 0.7521(2) 0.4201(2)
H1 H 0.76540 0.68880 0.43630
C3 C 0.8840(3) 0.7626(2) 0.3203(2)
H2 H 0.86360 0.70700 0.27000
C4 C 0.9732(3) 0.8559(2) 0.29472(18)
H3 H 1.01480 0.86300 0.22750
C5 C 1.0002(3) 0.93846(19) 0.36952(15)
H4 H 1.05930 1.00190 0.35190
C6 C 0.9406(2) 0.92846(15) 0.47110(14)
C7 C 0.9767(2) 1.01949(15) 0.54839(14)
C8 C 1.0483(2) 0.98777(15) 0.65270(14)
N1 N 0.95532(19) 0.92973(14) 0.71665(12)
C9 C 0.7945(2) 0.90583(19) 0.68587(18)
H5 H 0.74850 0.97440 0.65700
H6 H 0.73550 0.88470 0.74790
C10 C 0.7832(3) 0.8116(2) 0.6055(2)
H7 H 0.83240 0.74450 0.63490
H8 H 0.67420 0.79370 0.59570
N2 N 0.9585(2) 1.12760(14) 0.53870(13)
O1 O 0.8905(2) 1.15814(12) 0.44358(12)
H9 H 0.86710 1.22580 0.44510
O2 O 1.18363(16) 1.01221(13) 0.67399(11)
C11 C 1.0096(3) 0.89204(16) 0.82021(15)
H10 H 1.11800 0.87050 0.81540
H11 H 0.95110 0.82540 0.84160
C12 C 0.9914(3) 0.98391(19) 0.90252(17)
H12 H 1.06850 1.04260 0.89030
H13 H 0.88970 1.01840 0.89520
C13 C 1.0093(3) 0.9395(2) 1.01296(16)
H14 H 1.00670 1.00270 1.06210
H15 H 0.92300 0.88950 1.02930
O3 O 1.15064(17) 0.87909(12) 1.02528(12)
H16 H 1.20770 0.91390 1.06570
#END
