
#######################################################################
#
#                 Cambridge Crystallographic Data Centre
#                                CCDC
#
#######################################################################
#
# If this CIF has been generated from an entry in the Cambridge
# Structural Database, then it will include bibliographic, chemical,
# crystal, experimental, refinement or atomic coordinate data resulting
# from the CCDC's data processing and validation procedures.
#
#######################################################################

data_CSD_CIF_ROFQIO
_audit_creation_date 2014-05-15
_audit_creation_method CSD-ConQuest-V1
_database_code_CSD ROFQIO
_database_code_depnum_ccdc_archive 'CCDC 865299'
_chemical_formula_sum 'C7 H9 N3 O5'
_chemical_formula_moiety
;
C7 H9 N3 O5
;
_journal_coden_Cambridge 692
_journal_volume 46
_journal_year 2014
_journal_page_first 1107
_journal_name_full 'Synthesis '
loop_
_publ_author_name
"E.B.Averina"
"Y.V.Samoilichenko"
"V.B.Rybakov"
"T.S.Kuznetsova"
"N.S.Zefirov"
_chemical_name_systematic
;
N-hydroxy-3-nitro-N-(tetrahydrofuran-2-yl)-1,2-oxazol-5-amine
;
_cell_volume   1867.804
_exptl_crystal_colour 'yellow'
_exptl_crystal_density_diffrn 1.53
_exptl_special_details
;
CHCl~3~

;
_exptl_crystal_description 'Prism'
_diffrn_ambient_temperature 295
#These two values have been output from a single CSD field.
_refine_ls_R_factor_gt 0.0565
_refine_ls_wR_factor_gt 0.0565
_symmetry_cell_setting orthorhombic
_symmetry_space_group_name_H-M 'P n a 21'
_symmetry_Int_Tables_number 33
loop_
_symmetry_equiv_pos_site_id
_symmetry_equiv_pos_as_xyz
1 x,y,z
2 -x,-y,1/2+z
3 1/2-x,1/2+y,1/2+z
4 1/2+x,1/2-y,z
_cell_length_a 20.259(3)
_cell_length_b 5.0309(7)
_cell_length_c 18.326(3)
_cell_angle_alpha 90
_cell_angle_beta 90
_cell_angle_gamma 90
_cell_formula_units_Z 8
loop_
_atom_type_symbol
_atom_type_radius_bond
C 0.68
H 0.23
N 0.68
O 0.68
loop_
_atom_site_label
_atom_site_type_symbol
_atom_site_fract_x
_atom_site_fract_y
_atom_site_fract_z
N1 N 0.5394(6) 0.166(2) 0.0260(7)
O1 O 0.5877(4) 0.2465(18) 0.0770(5)
C1 C 0.5625(6) 0.461(3) 0.1134(6)
C2 C 0.5036(6) 0.517(3) 0.0899(6)
H1 H 0.47620 0.65570 0.10420
C3 C 0.4921(6) 0.333(3) 0.0420(7)
N2 N 0.4382(5) 0.302(3) -0.0089(7)
O2 O 0.3915(4) 0.458(2) -0.0025(5)
O3 O 0.4360(4) 0.126(2) -0.0542(6)
N3 N 0.6043(5) 0.562(2) 0.1631(5)
O4 O 0.5696(4) 0.7109(15) 0.2153(5)
H2 H 0.58680 0.85770 0.21960
C4 C 0.6565(6) 0.392(3) 0.1983(6)
H3 H 0.68210 0.29990 0.16060
O5 O 0.6244(4) 0.2019(15) 0.2434(5)
C5 C 0.6414(8) 0.245(3) 0.3190(7)
H4 H 0.60200 0.27890 0.34750
H5 H 0.66310 0.08840 0.33880
C6 C 0.6841(7) 0.465(3) 0.3219(8)
H6 H 0.72340 0.41860 0.34930
H7 H 0.66230 0.61080 0.34670
C7 C 0.7027(5) 0.547(3) 0.2474(8)
H8 H 0.74840 0.50280 0.23720
H9 H 0.69660 0.73690 0.24090
N4 N 0.7292(5) 0.910(2) 0.0766(5)
O6 O 0.6798(4) 0.8518(17) 0.0209(4)
C8 C 0.7001(6) 0.640(3) -0.0193(7)
C9 C 0.7587(5) 0.558(2) 0.0031(7)
H10 H 0.78520 0.42450 -0.01650
C10 C 0.7716(7) 0.723(3) 0.0650(6)
N5 N 0.8323(6) 0.723(3) 0.1107(7)
O7 O 0.8684(5) 0.5388(19) 0.1007(5)
O8 O 0.8365(5) 0.888(2) 0.1561(5)
N6 N 0.6535(5) 0.557(2) -0.0697(5)
O9 O 0.6890(4) 0.4166(16) -0.1237(5)
H11 H 0.67370 0.26630 -0.12770
C11 C 0.6083(6) 0.751(3) -0.0962(6)
H12 H 0.58890 0.84720 -0.05490
O10 O 0.6359(4) 0.9316(16) -0.1444(4)
C12 C 0.6111(7) 0.890(3) -0.2166(7)
H13 H 0.64100 0.77820 -0.24440
H14 H 0.60590 1.05770 -0.24190
C13 C 0.5480(7) 0.760(3) -0.2077(10)
H15 H 0.53910 0.64300 -0.24860
H16 H 0.51290 0.89020 -0.20440
C14 C 0.5530(7) 0.604(3) -0.1383(8)
H17 H 0.56510 0.42050 -0.14780
H18 H 0.51170 0.60730 -0.11150
#END
