
#######################################################################
#
#                 Cambridge Crystallographic Data Centre
#                                CCDC
#
#######################################################################
#
# If this CIF has been generated from an entry in the Cambridge
# Structural Database, then it will include bibliographic, chemical,
# crystal, experimental, refinement or atomic coordinate data resulting
# from the CCDC's data processing and validation procedures.
#
#######################################################################

data_CSD_CIF_ROFWEO
_audit_creation_date 2001-11-22
_audit_creation_method CSD-ConQuest-V1
_database_code_CSD ROFWEO
_database_code_depnum_ccdc_archive 'CCDC 149763'
_chemical_formula_sum 'C27 H41 N1 O5'
_chemical_formula_moiety
;
C27 H41 N1 O5
;
_journal_coden_Cambridge 1291
_journal_year 2001
_journal_page_first 3333
_journal_name_full 'Eur.J.Org.Chem. '
loop_
_publ_author_name
"U.Jahn"
"P.Hartmann"
"I.Dix"
"P.G.Jones"
_chemical_name_systematic
;
Diethyl 
2-(phenyl-(2,2,6,6-tetramethylpiperidin-1-yloxy)methyl)-cyclopentane-1,1-dicar
boxylate
;
_chemical_melting_point 358.15
_cell_volume   1273.822
_exptl_crystal_colour 'colorless'
_exptl_crystal_density_diffrn 1.198
_exptl_special_details
;
Melting point range 358.15-360.15K

;
_exptl_crystal_description 'tablet'
_diffrn_ambient_temperature 143
#These two values have been output from a single CSD field.
_refine_ls_R_factor_gt 0.0443
_refine_ls_wR_factor_gt 0.0443
_symmetry_cell_setting triclinic
_symmetry_space_group_name_H-M 'P -1'
_symmetry_Int_Tables_number 2
loop_
_symmetry_equiv_pos_site_id
_symmetry_equiv_pos_as_xyz
1 x,y,z
2 -x,-y,-z
_cell_length_a 10.776(4)
_cell_length_b 10.987(5)
_cell_length_c 11.253(5)
_cell_angle_alpha 99.85(3)
_cell_angle_beta 98.33(3)
_cell_angle_gamma 99.53(3)
_cell_formula_units_Z 2
loop_
_atom_type_symbol
_atom_type_radius_bond
C 0.68
H 0.23
N 0.68
O 0.68
loop_
_atom_site_label
_atom_site_type_symbol
_atom_site_fract_x
_atom_site_fract_y
_atom_site_fract_z
O1 O 0.66082(12) 0.80609(12) 0.56529(11)
O2 O 0.85579(11) 0.83090(12) 0.51398(11)
O3 O 0.71060(13) 0.73233(14) 0.16551(12)
O4 O 0.71439(12) 0.63162(11) 0.32293(11)
O5 O 0.33528(11) 0.83305(11) 0.23671(10)
N1 N 0.23546(13) 0.77614(13) 0.13040(12)
C1 C 0.68546(16) 0.84316(16) 0.36225(15)
C2 C 0.76451(18) 0.96717(18) 0.34313(19)
H1 H 0.85260 0.98390 0.39040
H2 H 0.76850 0.96410 0.25540
C3 C 0.69143(18) 1.06612(17) 0.39059(19)
H3 H 0.71750 1.14570 0.36260
H4 H 0.70400 1.08350 0.48120
C4 C 0.55403(17) 1.00434(16) 0.33402(17)
H5 H 0.53510 1.01210 0.24720
H6 H 0.49380 1.04380 0.37920
C5 C 0.54303(15) 0.86466(16) 0.34428(15)
H7 H 0.50920 0.85420 0.42090
C6 C 0.44922(15) 0.77759(16) 0.23603(15)
H8 H 0.48240 0.78720 0.15900
C7 C 0.70539(16) 0.73129(17) 0.27138(16)
C8 C 0.72094(19) 0.51554(18) 0.24248(18)
H9 H 0.79910 0.52670 0.20560
H10 H 0.64550 0.49070 0.17560
C9 C 0.7236(2) 0.4169(2) 0.3189(2)
H11 H 0.79990 0.44150 0.38320
H12 H 0.72570 0.33620 0.26700
H13 H 0.64690 0.40830 0.35650
C10 C 0.72914(16) 0.82396(15) 0.49236(16)
C11 C 0.91149(18) 0.79854(19) 0.62720(17)
H14 H 0.85060 0.80100 0.68510
H15 H 0.99050 0.86090 0.66570
C12 C 0.9417(3) 0.6712(2) 0.6018(2)
H16 H 0.86280 0.60930 0.56670
H17 H 0.98130 0.65120 0.67820
H18 H 1.00100 0.66870 0.54350
C13 C 0.23706(18) 0.86535(17) 0.04329(17)
C14 C 0.35739(19) 0.8638(2) -0.01365(18)
H19 H 0.43230 0.91040 0.04670
H20 H 0.34980 0.90340 -0.08540
H21 H 0.36730 0.77650 -0.03880
C15 C 0.2356(2) 1.00246(19) 0.0989(2)
H22 H 0.14960 1.00940 0.11420
H23 H 0.25970 1.05640 0.04170
H24 H 0.29670 1.02920 0.17630
C16 C 0.12233(19) 0.8103(2) -0.06172(18)
H25 H 0.11680 0.87050 -0.11750
H26 H 0.13780 0.73140 -0.10910
C17 C -0.00423(18) 0.7827(2) -0.01915(18)
H27 H -0.02560 0.86200 0.02130
H28 H -0.07290 0.74300 -0.09020
C18 C 0.00625(18) 0.69509(19) 0.06979(18)
H29 H 0.02020 0.61370 0.02600
H30 H -0.07570 0.67860 0.09970
C19 C 0.11474(17) 0.74673(18) 0.18024(17)
C20 C 0.12736(18) 0.6422(2) 0.2521(2)
H31 H 0.15410 0.57280 0.20160
H32 H 0.04470 0.61150 0.27400
H33 H 0.19140 0.67530 0.32690
C21 C 0.0829(2) 0.8572(2) 0.26651(18)
H34 H 0.16130 0.90510 0.32120
H35 H 0.02170 0.82460 0.31540
H36 H 0.04540 0.91240 0.21790
C22 C 0.42258(15) 0.63947(16) 0.24064(15)
C23 C 0.41914(16) 0.59598(17) 0.34951(16)
H37 H 0.43670 0.65460 0.42530
C24 C 0.39032(17) 0.46816(17) 0.34845(17)
H38 H 0.38830 0.43960 0.42330
C25 C 0.36452(18) 0.38206(18) 0.23864(18)
H39 H 0.34450 0.29450 0.23830
C26 C 0.36783(18) 0.42300(18) 0.12963(18)
H40 H 0.34990 0.36400 0.05410
C27 C 0.39762(17) 0.55119(17) 0.13143(16)
H41 H 0.40100 0.57920 0.05640
#END
