
#######################################################################
#
#                 Cambridge Crystallographic Data Centre
#                                CCDC
#
#######################################################################
#
# If this CIF has been generated from an entry in the Cambridge
# Structural Database, then it will include bibliographic, chemical,
# crystal, experimental, refinement or atomic coordinate data resulting
# from the CCDC's data processing and validation procedures.
#
#######################################################################

data_CSD_CIF_ROGDEX
_audit_creation_date 2008-11-06
_audit_creation_method CSD-ConQuest-V1
_database_code_CSD ROGDEX
_database_code_depnum_ccdc_archive 'CCDC 706141'
_chemical_formula_sum 'C14 H12 N2 O3'
_chemical_formula_moiety
;
C14 H12 N2 O3
;
_journal_coeditor_code "IUCr AT2599"
_journal_coden_Cambridge 1370
_journal_volume 64
_journal_year 2008
_journal_page_first o2027
_journal_name_full 'Acta Crystallogr.,Sect.E:Struct.Rep.Online '
loop_
_publ_author_name
"Xiao-Yan Ren"
"Fang-Fang Jian"
_chemical_name_systematic
;
4-Methoxy-N-(2-nitrobenzylidene)aniline
;
_cell_volume   1268.897
_exptl_crystal_colour 'yellow'
_exptl_crystal_density_diffrn 1.341
_exptl_crystal_description 'block'
_exptl_crystal_preparation 'acetone'
_diffrn_ambient_temperature 293
#These two values have been output from a single CSD field.
_refine_ls_R_factor_gt 0.0517
_refine_ls_wR_factor_gt 0.0517
_symmetry_cell_setting orthorhombic
_symmetry_space_group_name_H-M 'P 21 21 21'
_symmetry_Int_Tables_number 19
loop_
_symmetry_equiv_pos_site_id
_symmetry_equiv_pos_as_xyz
1 x,y,z
2 1/2-x,-y,1/2+z
3 -x,1/2+y,1/2-z
4 1/2+x,1/2-y,-z
_cell_length_a 4.0010(8)
_cell_length_b 7.8410(16)
_cell_length_c 40.447(8)
_cell_angle_alpha 90
_cell_angle_beta 90
_cell_angle_gamma 90
_cell_formula_units_Z 4
loop_
_atom_type_symbol
_atom_type_radius_bond
C 0.68
H 0.23
N 0.68
O 0.68
loop_
_atom_site_label
_atom_site_type_symbol
_atom_site_fract_x
_atom_site_fract_y
_atom_site_fract_z
O1 O 0.5842(9) 0.0957(4) 0.02919(6)
C1 C 0.8225(12) -0.3220(5) 0.08753(10)
N1 N 0.9205(10) -0.4713(4) 0.10536(8)
C2 C 0.6562(12) -0.0364(5) 0.05006(10)
C3 C 1.0942(12) -0.5998(5) 0.15664(10)
C4 C 0.8984(13) -0.3162(5) 0.05408(9)
H1 H 1.00360 -0.40830 0.04400
C5 C 0.8172(13) -0.1730(5) 0.03578(10)
H2 H 0.87230 -0.16890 0.01350
C6 C 1.2227(13) -0.5869(5) 0.18867(9)
C7 C 0.6573(12) -0.1861(5) 0.10172(10)
H3 H 0.60330 -0.18990 0.12410
O2 O 1.4501(11) -0.3130(4) 0.18665(8)
C8 C 0.5695(12) -0.0423(5) 0.08302(10)
H4 H 0.45430 0.04770 0.09270
N2 N 1.2977(13) -0.4173(5) 0.20309(10)
C9 C 1.1071(14) -0.9039(5) 0.16521(12)
H5 H 1.07070 -1.01300 0.15690
C10 C 1.0088(11) -0.4530(5) 0.1354(1)
H6 H 1.01990 -0.34360 0.14420
C11 C 1.0397(13) -0.7655(5) 0.14548(10)
H7 H 0.95600 -0.78280 0.12430
C12 C 0.4282(15) 0.2451(5) 0.04323(11)
H8 H 0.39410 0.32870 0.02620
H9 H 0.57010 0.29180 0.06010
H10 H 0.21670 0.21430 0.05270
C13 C 1.2840(15) -0.7234(6) 0.20893(11)
H11 H 1.36240 -0.70740 0.23030
O3 O 1.2071(14) -0.3908(5) 0.23092(9)
C14 C 1.2268(16) -0.8852(6) 0.19681(12)
H12 H 1.26890 -0.98040 0.20990
#END
