
#######################################################################
#
#                 Cambridge Crystallographic Data Centre
#                                CCDC
#
#######################################################################
#
# If this CIF has been generated from an entry in the Cambridge
# Structural Database, then it will include bibliographic, chemical,
# crystal, experimental, refinement or atomic coordinate data resulting
# from the CCDC's data processing and validation procedures.
#
#######################################################################

data_CSD_CIF_ROGTUD
_audit_creation_date 2009-03-24
_audit_creation_method CSD-ConQuest-V1
_database_code_CSD ROGTUD
_database_code_depnum_ccdc_archive 'CCDC 708548'
_chemical_formula_sum 'C48 H55 N3 O13'
_chemical_formula_moiety
;
C48 H55 N3 O13
;
_journal_coden_Cambridge 1336
_journal_volume 10
_journal_year 2008
_journal_page_first 4125
_journal_name_full 'Org.Lett. '
loop_
_publ_author_name
"M.C.Jones"
"S.P.Marsden"
_chemical_name_systematic
;
(2R,4'R,5'R)-3-Benzyloxy-2-benzyloxycarbonylamino-2-(2',2'-dimethyl-5'-(2''-(3
''',5'''-dinitrobenzoyloxy)ethyl)-(1',3')dioxolan-4'-yl)propionic acid 
(-)-8-phenylmenthyl ester
;
_chemical_melting_point 331.45
_cell_volume   4505.831
_exptl_crystal_colour 'colorless'
_exptl_crystal_density_diffrn 1.3
_exptl_special_details
;
Melting point range 331.45-332.65K

;
_exptl_crystal_description 'needles'
_diffrn_ambient_temperature 150
#These two values have been output from a single CSD field.
_refine_ls_R_factor_gt 0.0354
_refine_ls_wR_factor_gt 0.0354
_symmetry_cell_setting orthorhombic
_symmetry_space_group_name_H-M 'P 21 21 21'
_symmetry_Int_Tables_number 19
loop_
_symmetry_equiv_pos_site_id
_symmetry_equiv_pos_as_xyz
1 x,y,z
2 1/2+x,1/2-y,-z
3 -x,1/2+y,1/2-z
4 1/2-x,-y,1/2+z
_cell_length_a 13.2060(1)
_cell_length_b 16.9160(2)
_cell_length_c 20.1700(3)
_cell_angle_alpha 90
_cell_angle_beta 90
_cell_angle_gamma 90
_cell_formula_units_Z 4
loop_
_atom_type_symbol
_atom_type_radius_bond
C 0.68
H 0.23
N 0.68
O 0.68
loop_
_atom_site_label
_atom_site_type_symbol
_atom_site_fract_x
_atom_site_fract_y
_atom_site_fract_z
C1 C 0.79295(15) 0.17431(12) 1.00860(9)
C2 C 0.77273(15) 0.10081(12) 0.9653(1)
H1 H 0.74850 0.11800 0.92060
C3 C 0.8950(2) -0.05700(16) 0.89564(16)
H2 H 0.96760 -0.04550 0.89300
H3 H 0.86030 -0.03320 0.85760
H4 H 0.88460 -0.11440 0.89520
C4 C 0.85251(17) -0.02290(13) 0.95928(13)
C5 C 0.8993(2) -0.05663(17) 1.02124(16)
H5 H 0.97140 -0.04310 1.02260
H6 H 0.89160 -0.11430 1.02120
H7 H 0.86520 -0.03450 1.06020
C6 C 0.70325(16) 0.03632(12) 0.99188(11)
H8 H 0.71280 0.03140 1.04090
C7 C 0.59033(16) 0.04105(14) 0.97623(11)
H9 H 0.55600 -0.00340 0.99890
H10 H 0.56350 0.09060 0.99550
C8 C 0.56173(19) 0.03877(13) 0.90387(12)
H11 H 0.60590 0.00090 0.88010
H12 H 0.49080 0.02070 0.89920
C9 C 0.56432(19) 0.11995(14) 0.80892(12)
C10 C 0.56722(17) 0.20336(13) 0.78253(11)
C11 C 0.56649(16) 0.26892(13) 0.82404(11)
H13 H 0.56530 0.26300 0.87090
C12 C 0.56750(16) 0.34327(12) 0.7950(1)
C13 C 0.56463(16) 0.35527(13) 0.72730(11)
H14 H 0.56290 0.40680 0.70870
C14 C 0.56434(17) 0.28844(14) 0.68821(11)
C15 C 0.56673(17) 0.21274(14) 0.71393(11)
H15 H 0.56800 0.16800 0.68540
C16 C 0.77591(16) 0.13782(12) 1.12818(10)
C17 C 0.79476(18) 0.11511(14) 1.24445(10)
H16 H 0.82790 0.07190 1.26940
H17 H 0.72210 0.10180 1.23970
C18 C 0.80516(16) 0.19107(14) 1.28246(10)
C19 C 0.80840(17) 0.18884(15) 1.35168(11)
H18 H 0.80520 0.13960 1.37420
C20 C 0.81637(19) 0.25870(17) 1.38767(12)
H19 H 0.81730 0.25680 1.43470
C21 C 0.8230(2) 0.33048(16) 1.35595(13)
H20 H 0.82950 0.37780 1.38090
C22 C 0.8201(2) 0.33339(15) 1.28773(13)
H21 H 0.82460 0.38290 1.26570
C23 C 0.81079(17) 0.26419(14) 1.25103(11)
H22 H 0.80820 0.26680 1.20400
C24 C 0.70129(15) 0.22958(12) 1.01085(10)
H23 H 0.67610 0.23990 0.96540
H24 H 0.64600 0.20540 1.03700
C25 C 0.66780(16) 0.36460(13) 1.02402(11)
H25 H 0.59750 0.35040 1.03610
H26 H 0.67020 0.37340 0.97550
C26 C 0.69739(16) 0.43954(13) 1.05937(11)
C27 C 0.73887(18) 0.43866(14) 1.12249(11)
H27 H 0.75650 0.38980 1.14270
C28 C 0.7546(2) 0.50912(16) 1.15624(12)
H28 H 0.78280 0.50820 1.19960
C29 C 0.72972(19) 0.58036(15) 1.12751(14)
H29 H 0.73930 0.62830 1.15120
C30 C 0.6909(2) 0.58163(15) 1.06420(15)
H30 H 0.67430 0.63070 1.04400
C31 C 0.67587(19) 0.51151(15) 1.02971(13)
H31 H 0.65070 0.51290 0.98560
C32 C 0.87843(15) 0.22187(11) 0.97487(10)
C33 C 0.91491(15) 0.29774(12) 0.87694(10)
H32 H 0.98760 0.29150 0.88970
C34 C 0.87646(17) 0.37768(13) 0.89981(11)
H33 H 0.88600 0.38200 0.94840
H34 H 0.80290 0.38120 0.89070
C35 C 0.9296(2) 0.44665(13) 0.86626(12)
H35 H 1.00320 0.44510 0.87780
C36 C 0.9180(2) 0.43633(14) 0.79117(12)
H36 H 0.84570 0.44190 0.77900
H37 H 0.95630 0.47850 0.76820
C37 C 0.95645(19) 0.35582(13) 0.76802(11)
H38 H 1.03010 0.35240 0.77690
H39 H 0.94660 0.35160 0.71950
C38 C 0.90320(15) 0.28527(12) 0.80194(10)
H40 H 0.82940 0.28920 0.79140
C39 C 0.94189(17) 0.20373(13) 0.77417(10)
C40 C 0.93866(17) 0.20623(13) 0.69798(11)
C41 C 1.02611(19) 0.22114(15) 0.66027(11)
H41 H 1.08820 0.23160 0.68240
C42 C 1.0238(2) 0.22094(16) 0.59182(13)
H42 H 1.08390 0.23160 0.56750
C43 C 0.9357(2) 0.20550(18) 0.55902(13)
H43 H 0.93510 0.20360 0.51190
C44 C 0.8480(2) 0.1927(2) 0.59384(14)
H44 H 0.78630 0.18350 0.57090
C45 C 0.8493(2) 0.19321(17) 0.66329(13)
H45 H 0.78820 0.18450 0.68700
C46 C 0.8855(3) 0.52448(15) 0.88925(15)
H46 H 0.92240 0.56820 0.86840
H47 H 0.89170 0.52850 0.93760
H48 H 0.81390 0.52720 0.87670
C47 C 1.0482(2) 0.18522(17) 0.79916(12)
H49 H 1.07410 0.13810 0.77650
H50 H 1.04600 0.17550 0.84700
H51 H 1.09290 0.23020 0.79000
C48 C 0.8721(2) 0.13534(15) 0.79676(13)
H52 H 0.88390 0.08900 0.76860
H53 H 0.80120 0.15180 0.79300
H54 H 0.88710 0.12190 0.84300
N1 N 0.57109(14) 0.41369(11) 0.83773(9)
N2 N 0.56105(15) 0.29943(12) 0.61549(9)
N3 N 0.83122(14) 0.1533(1) 1.07389(8)
H55 H 0.891(2) 0.1488(15) 1.0768(13)
O1 O 0.86835(11) 0.06149(8) 0.95865(8)
O2 O 0.74456(12) -0.03231(8) 0.95969(8)
O3 O 0.57280(12) 0.11749(9) 0.87479(8)
O4 O 0.55491(19) 0.06311(11) 0.77423(9)
O5 O 0.54395(12) 0.40677(9) 0.89563(7)
O6 O 0.60350(16) 0.47497(10) 0.81375(9)
O7 O 0.53722(13) 0.3642(1) 0.59427(8)
O8 O 0.58298(17) 0.24239(12) 0.58097(9)
O9 O 0.68398(11) 0.13722(11) 1.13303(8)
O10 O 0.84025(11) 0.12147(10) 1.17949(7)
O11 O 0.73377(11) 0.30124(8) 1.04102(7)
O12 O 0.95629(11) 0.24112(9) 1.00176(7)
O13 O 0.85297(11) 0.23863(8) 0.91226(7)
#END
