
#######################################################################
#
#                 Cambridge Crystallographic Data Centre
#                                CCDC
#
#######################################################################
#
# If this CIF has been generated from an entry in the Cambridge
# Structural Database, then it will include bibliographic, chemical,
# crystal, experimental, refinement or atomic coordinate data resulting
# from the CCDC's data processing and validation procedures.
#
#######################################################################

data_CSD_CIF_ROGTOY
_audit_creation_date 2014-05-15
_audit_creation_method CSD-ConQuest-V1
_database_code_CSD ROGTOY
_database_code_depnum_ccdc_archive 'CCDC 970809'
_chemical_formula_sum 'C9 H14 N2 O10'
_chemical_formula_moiety
;
C9 H14 N2 O10
;
_journal_coden_Cambridge 16
_journal_volume 70
_journal_year 2014
_journal_page_first 1910
_journal_name_full 'Tetrahedron '
loop_
_publ_author_name
"T.Gubica"
"L.Szeleszczuk"
"D.M.Pisklak"
"D.K.Stepien"
"M.K.Cyranski"
"M.Kanska"
_chemical_name_systematic
;
6-Methoxy-2-methylhexahydropyrano[3,2-d][1,3]dioxine-7,8-diyl dinitrate
;
_cell_volume   1289.694
_exptl_crystal_density_diffrn 1.598
_diffrn_ambient_temperature 100
#These two values have been output from a single CSD field.
_refine_ls_R_factor_gt 0.029
_refine_ls_wR_factor_gt 0.029
loop_
_citation_database_id_CSD
_citation_special_details
TABFAD "is a stereoisomer of this entry"
TABFEH "is a stereoisomer of this entry"
_symmetry_cell_setting orthorhombic
_symmetry_space_group_name_H-M 'P 21 21 21'
_symmetry_Int_Tables_number 19
loop_
_symmetry_equiv_pos_site_id
_symmetry_equiv_pos_as_xyz
1 x,y,z
2 1/2-x,-y,1/2+z
3 -x,1/2+y,1/2-z
4 1/2+x,1/2-y,-z
_cell_length_a 7.5729(3)
_cell_length_b 9.0044(3)
_cell_length_c 18.9134(7)
_cell_angle_alpha 90
_cell_angle_beta 90
_cell_angle_gamma 90
_cell_formula_units_Z 4
loop_
_atom_type_symbol
_atom_type_radius_bond
C 0.68
H 0.23
N 0.68
O 0.68
loop_
_atom_site_label
_atom_site_type_symbol
_atom_site_fract_x
_atom_site_fract_y
_atom_site_fract_z
C1 C 0.4353(2) 0.64058(19) 0.94671(9)
O1 O 0.32443(17) 0.51797(14) 0.95045(6)
C2 C 0.2907(3) 0.4706(2) 1.02179(10)
H1 H 0.21210 0.38410 1.02120
H2 H 0.23450 0.55160 1.04810
H3 H 0.40230 0.44390 1.04470
C3 C 0.4421(2) 0.68825(19) 0.86889(9)
O2 O 0.26454(16) 0.70624(13) 0.84187(7)
N1 N 0.1855(2) 0.84421(17) 0.86169(8)
O3 O 0.02818(19) 0.84071(17) 0.85764(8)
O4 O 0.28154(19) 0.94448(14) 0.87826(7)
C4 C 0.5314(2) 0.5728(2) 0.82193(9)
O5 O 0.56328(17) 0.64261(15) 0.75364(6)
N2 N 0.4470(2) 0.60369(18) 0.69860(8)
O6 O 0.34202(19) 0.50471(17) 0.70808(7)
O7 O 0.4728(2) 0.67667(16) 0.64637(7)
C5 C 0.7108(3) 0.5379(2) 0.85355(9)
C6 C 0.6871(2) 0.4917(2) 0.93093(9)
O8 O 0.61042(17) 0.61129(14) 0.97029(7)
O9 O 0.79502(18) 0.42079(14) 0.81599(6)
C7 C 0.9643(3) 0.3891(2) 0.84727(10)
C8 C 1.0497(3) 0.2642(2) 0.80822(10)
H4 H 1.06610 0.29250 0.75860
H5 H 0.97430 0.17590 0.81090
H6 H 1.16470 0.24230 0.82950
O10 O 0.94394(17) 0.34269(14) 0.91839(6)
C9 C 0.8663(3) 0.4556(2) 0.96126(10)
H7 H 0.392(3) 0.720(3) 0.9773(11)
H8 H 0.508(3) 0.780(3) 0.8651(12)
H9 H 0.461(3) 0.485(3) 0.8186(11)
H10 H 0.778(3) 0.628(2) 0.8511(11)
H11 H 0.612(3) 0.402(3) 0.9333(12)
H12 H 1.029(3) 0.482(3) 0.8452(11)
H13 H 0.944(3) 0.548(3) 0.9614(11)
H14 H 0.858(3) 0.418(2) 1.0100(12)
#END
