
#######################################################################
#
#                 Cambridge Crystallographic Data Centre
#                                CCDC
#
#######################################################################
#
# If this CIF has been generated from an entry in the Cambridge
# Structural Database, then it will include bibliographic, chemical,
# crystal, experimental, refinement or atomic coordinate data resulting
# from the CCDC's data processing and validation procedures.
#
#######################################################################

data_CSD_CIF_ROHBAR
_audit_creation_date 1998-01-15
_audit_creation_method CSD-ConQuest-V1
_database_code_CSD ROHBAR
_database_code_depnum_ccdc_archive 'CCDC 129198'
_chemical_formula_sum 'C13 H10 N4 O3'
_chemical_formula_moiety
;
C13 H10 N4 O3
;
_journal_coeditor_code "IUCr MU1325"
_journal_coden_Cambridge 591
_journal_volume 53
_journal_year 1997
_journal_page_first 1452
_journal_name_full 'Acta Crystallogr.,Sect.C:Cryst.Struct.Commun. '
loop_
_publ_author_name
"Hoong-Kun Fun"
"Zhong-Lin Lu"
"Chun-Ying Duan"
"Yu-Peng Tian"
"Xiao-Zeng You"
"Yu-Mei Guo"
"Xiao-Yang Gong"
_chemical_name_systematic
;
p-Nitrobenzaldehyde isonicotinoylhydrazone
;
_cell_volume   1245.372
_exptl_crystal_colour 'yellow'
_exptl_crystal_density_diffrn 1.441
_exptl_crystal_description 'rectangular slab'
_diffrn_ambient_temperature ?
_diffrn_special_details
;
The study was carried out at room temperature,in the range 283-303K

;
#These two values have been output from a single CSD field.
_refine_ls_R_factor_gt 0.0407
_refine_ls_wR_factor_gt 0.0407
_symmetry_cell_setting monoclinic
_symmetry_space_group_name_H-M 'P 21/c'
_symmetry_Int_Tables_number 14
loop_
_symmetry_equiv_pos_site_id
_symmetry_equiv_pos_as_xyz
1 x,y,z
2 -x,1/2+y,1/2-z
3 -x,-y,-z
4 x,-1/2-y,-1/2+z
_cell_length_a 7.957(1)
_cell_length_b 10.677(1)
_cell_length_c 14.909(2)
_cell_angle_alpha 90
_cell_angle_beta 100.51(1)
_cell_angle_gamma 90
_cell_formula_units_Z 4
loop_
_atom_type_symbol
_atom_type_radius_bond
C 0.68
H 0.23
N 0.68
O 0.68
loop_
_atom_site_label
_atom_site_type_symbol
_atom_site_fract_x
_atom_site_fract_y
_atom_site_fract_z
O1 O 0.4608(2) 0.28119(11) 1.02738(7)
O2 O -0.1058(2) -0.47950(13) 1.14317(10)
O3 O -0.0470(2) -0.35466(14) 1.25639(8)
N1 N 0.6081(2) 0.48531(12) 0.74999(8)
N2 N 0.3683(2) 0.13455(12) 0.92030(8)
N3 N 0.3055(2) 0.06088(12) 0.98285(8)
N4 N -0.0498(2) -0.38059(14) 1.17689(9)
C1 C 0.5946(2) 0.43081(15) 0.90462(10)
C2 C 0.6445(2) 0.5075(2) 0.83986(10)
C3 C 0.5178(2) 0.38198(15) 0.72371(10)
C4 C 0.4624(2) 0.30032(15) 0.78382(10)
C5 C 0.5014(2) 0.32426(13) 0.87689(9)
C6 C 0.4428(2) 0.24493(14) 0.94882(9)
C7 C 0.2277(2) -0.03750(15) 0.95135(10)
C8 C 0.1537(2) -0.12283(14) 1.01085(9)
C9 C 0.0730(2) -0.23116(15) 0.97372(10)
C10 C 0.0032(2) -0.3144(2) 1.02756(10)
C11 C 0.0175(2) -0.28889(14) 1.11882(10)
C12 C 0.0938(2) -0.1809(2) 1.15772(10)
C13 C 0.1621(2) -0.0980(2) 1.10336(10)
H1 H 0.622(2) 0.4493(16) 0.9670(11)
H2 H 0.7119(20) 0.5832(16) 0.8571(11)
H3 H 0.4904(20) 0.3664(15) 0.6596(11)
H4 H 0.3984(22) 0.2345(17) 0.7597(11)
H5 H 0.2112(19) -0.0585(15) 0.8874(11)
H6 H 0.0659(22) -0.2453(17) 0.9096(12)
H7 H -0.0519(20) -0.3864(16) 1.0027(11)
H8 H 0.0995(20) -0.1658(15) 1.2192(11)
H9 H 0.2133(20) -0.0236(15) 1.1284(10)
H10 H 0.3669(22) 0.1032(17) 0.8637(12)
#END
