
#######################################################################
#
#                 Cambridge Crystallographic Data Centre
#                                CCDC
#
#######################################################################
#
# If this CIF has been generated from an entry in the Cambridge
# Structural Database, then it will include bibliographic, chemical,
# crystal, experimental, refinement or atomic coordinate data resulting
# from the CCDC's data processing and validation procedures.
#
#######################################################################

data_CSD_CIF_ROHBAR02
_audit_creation_date 2006-02-13
_audit_creation_method CSD-ConQuest-V1
_database_code_CSD ROHBAR02
_database_code_depnum_ccdc_archive 'CCDC 294326'
_chemical_formula_sum 'C13 H10 N4 O3'
_chemical_formula_moiety
;
C13 H10 N4 O3
;
_journal_coeditor_code "IUCr SK1873"
_journal_coden_Cambridge 591
_journal_volume 61
_journal_year 2005
_journal_page_first o683
_journal_name_full 'Acta Crystallogr.,Sect.C:Cryst.Struct.Commun. '
loop_
_publ_author_name
"S.M.S.V.Wardell"
"M.V.N.de Souza"
"J.L.Wardell"
"J.N.Low"
"C.Glidewell"
_chemical_name_systematic
;
4-nitrobenzaldehyde isonicotinoylhydrazone
;
_chemical_melting_point 553
_cell_volume   1209.796
_exptl_crystal_colour 'yellow'
_exptl_crystal_density_diffrn 1.484
_exptl_special_details
;
Melting point range 553-555K

;
_exptl_crystal_description 'block'
_exptl_crystal_preparation 'methanol'
_diffrn_ambient_temperature 120
#These two values have been output from a single CSD field.
_refine_ls_R_factor_gt 0.0513
_refine_ls_wR_factor_gt 0.0513
_symmetry_cell_setting monoclinic
_symmetry_space_group_name_H-M 'P 21/c'
_symmetry_Int_Tables_number 14
loop_
_symmetry_equiv_pos_site_id
_symmetry_equiv_pos_as_xyz
1 x,y,z
2 -x,1/2+y,1/2-z
3 -x,-y,-z
4 x,-1/2-y,-1/2+z
_cell_length_a 7.7821(3)
_cell_length_b 10.6633(4)
_cell_length_c 14.8417(6)
_cell_angle_alpha 90
_cell_angle_beta 100.799(2)
_cell_angle_gamma 90
_cell_formula_units_Z 4
loop_
_atom_type_symbol
_atom_type_radius_bond
C 0.68
H 0.23
N 0.68
O 0.68
loop_
_atom_site_label
_atom_site_type_symbol
_atom_site_fract_x
_atom_site_fract_y
_atom_site_fract_z
O1 O 0.53700(16) 0.21852(11) 0.47092(8)
O2 O 1.10742(18) 0.98498(12) 0.35702(9)
O3 O 1.04779(16) 0.85858(12) 0.24169(8)
N1 N 1.05125(18) 0.88479(14) 0.32258(10)
N2 N 0.39030(18) 0.01128(13) 0.74976(9)
N3 N 0.63095(17) 0.36522(12) 0.57953(9)
N4 N 0.69412(17) 0.43935(13) 0.51673(9)
C1 C 0.4819(2) 0.11547(16) 0.77683(11)
C2 C 0.5381(2) 0.19787(16) 0.71665(11)
C3 C 0.4974(2) 0.17409(15) 0.62267(11)
C4 C 0.4027(2) 0.06623(15) 0.59397(11)
C5 C 0.3528(2) -0.01163(16) 0.65923(11)
C6 C 0.5551(2) 0.25445(15) 0.55039(11)
C7 C 0.8477(2) 0.62469(15) 0.48943(11)
C8 C 0.9307(2) 0.73385(16) 0.52716(11)
C9 C 1.0001(2) 0.81825(16) 0.47304(11)
C10 C 0.9846(2) 0.79239(15) 0.38075(11)
C11 C 0.9066(2) 0.68334(16) 0.34084(11)
C12 C 0.8388(2) 0.59960(16) 0.39608(11)
C13 C 0.7741(2) 0.53896(16) 0.54928(11)
H1 H 0.50950 0.13350 0.84060
H2 H 0.60400 0.27010 0.73910
H3 H 0.37260 0.04620 0.53060
H4 H 0.28860 -0.08530 0.63880
H5 H 0.63090 0.39210 0.63560
H6 H 0.93950 0.75030 0.59080
H7 H 1.05710 0.89230 0.49870
H8 H 0.90020 0.66690 0.27740
H9 H 0.78560 0.52430 0.37050
H10 H 0.78580 0.55740 0.61280
#END
