
#######################################################################
#
#                 Cambridge Crystallographic Data Centre
#                                CCDC
#
#######################################################################
#
# If this CIF has been generated from an entry in the Cambridge
# Structural Database, then it will include bibliographic, chemical,
# crystal, experimental, refinement or atomic coordinate data resulting
# from the CCDC's data processing and validation procedures.
#
#######################################################################

data_CSD_CIF_ROHBAR01
_audit_creation_date 2002-11-27
_audit_creation_method CSD-ConQuest-V1
_database_code_CSD ROHBAR01
_database_code_depnum_ccdc_archive 'CCDC 196688'
_chemical_formula_sum 'C13 H10 N4 O3'
_chemical_formula_moiety
;
C13 H10 N4 O3
;
_journal_coden_Cambridge 95
_journal_year 2002
_journal_page_first 96
_journal_name_full 'Izv.Akad.Nauk SSSR,Ser.Khim.(Russ.)(Russ.Chem.Bull.) '
loop_
_publ_author_name
"E.G.Atovmyan"
"L.A.Nikonova"
"O.S.Filipenko"
"T.N.Fedotova"
"S.M.Aldoshin"
_chemical_name_systematic
;
Isonicotinic acid (p-nitrobenzylidene)hydrazide
;
_chemical_melting_point 563.15
_cell_volume   1246.245
_exptl_crystal_density_diffrn 1.44
_exptl_special_details
;
Melting point range 563.15-564.15K

;
_exptl_crystal_preparation 'ethanol/water'
_diffrn_ambient_temperature 293
#These two values have been output from a single CSD field.
_refine_ls_R_factor_gt 0.0338
_refine_ls_wR_factor_gt 0.0338
_symmetry_cell_setting monoclinic
_symmetry_space_group_name_H-M 'P 21/c'
_symmetry_Int_Tables_number 14
loop_
_symmetry_equiv_pos_site_id
_symmetry_equiv_pos_as_xyz
1 x,y,z
2 x,1/2-y,1/2+z
3 -x,-y,-z
4 -x,-1/2+y,-1/2-z
_cell_length_a 7.970(2)
_cell_length_b 10.672(2)
_cell_length_c 14.905(3)
_cell_angle_alpha 90
_cell_angle_beta 100.57(3)
_cell_angle_gamma 90
_cell_formula_units_Z 4
loop_
_atom_type_symbol
_atom_type_radius_bond
C 0.68
H 0.23
N 0.68
O 0.68
loop_
_atom_site_label
_atom_site_type_symbol
_atom_site_fract_x
_atom_site_fract_y
_atom_site_fract_z
O1 O -0.4604(3) -0.28083(15) 0.47262(10)
O2 O 0.1050(3) 0.47958(18) 0.35706(14)
O3 O 0.0470(3) 0.3543(2) 0.24354(12)
N1 N -0.3680(2) -0.13439(16) 0.57972(11)
N2 N -0.3053(2) -0.06095(16) 0.51712(11)
N3 N -0.6078(3) -0.48498(16) 0.74995(11)
N4 N 0.0501(3) 0.3807(2) 0.32316(13)
C1 C -0.4432(3) -0.2453(2) 0.55116(13)
C2 C -0.5009(3) -0.32387(17) 0.62332(12)
C3 C -0.4626(3) -0.3006(2) 0.71626(14)
C4 C -0.5184(3) -0.3816(2) 0.77616(14)
C5 C -0.6444(3) -0.5074(2) 0.66020(14)
C6 C -0.5946(3) -0.4307(2) 0.59552(13)
C7 C -0.2273(3) 0.0376(2) 0.54897(14)
C8 C -0.1545(3) 0.1227(2) 0.48915(13)
C9 C -0.0723(3) 0.2310(2) 0.52644(14)
C10 C -0.0033(3) 0.3142(2) 0.47270(14)
C11 C -0.0171(3) 0.2885(2) 0.38108(13)
C12 C -0.0944(3) 0.1811(2) 0.34212(14)
C13 C -0.1623(3) 0.0977(2) 0.39656(13)
H1 H -0.364(4) -0.101(3) 0.638(2)
H2 H -0.710(3) -0.579(2) 0.6409(16)
H3 H -0.619(3) -0.452(2) 0.5320(17)
H4 H -0.400(3) -0.234(2) 0.7365(17)
H5 H -0.495(3) -0.365(3) 0.8391(19)
H6 H -0.210(3) 0.057(2) 0.6138(16)
H7 H -0.215(3) 0.021(2) 0.3693(15)
H8 H -0.100(3) 0.166(2) 0.2790(17)
H9 H 0.048(3) 0.388(3) 0.4980(19)
H10 H -0.065(3) 0.250(2) 0.5897(15)
#END
