
#######################################################################
#
#                 Cambridge Crystallographic Data Centre
#                                CCDC
#
#######################################################################
#
# If this CIF has been generated from an entry in the Cambridge
# Structural Database, then it will include bibliographic, chemical,
# crystal, experimental, refinement or atomic coordinate data resulting
# from the CCDC's data processing and validation procedures.
#
#######################################################################

data_CSD_CIF_ROHCIA
_audit_creation_date 1998-01-15
_audit_creation_method CSD-ConQuest-V1
_database_code_CSD ROHCIA
_database_code_depnum_ccdc_archive 'CCDC 129190'
_chemical_formula_sum 'C9 H9 N1 O4'
_chemical_formula_moiety
;
C9 H9 N1 O4
;
_journal_coeditor_code "IUCr KA1235"
_journal_coden_Cambridge 591
_journal_volume 53
_journal_year 1997
_journal_page_first 1464
_journal_name_full 'Acta Crystallogr.,Sect.C:Cryst.Struct.Commun. '
loop_
_publ_author_name
"M.Bolte"
"R.Marx"
"M.Scholtyssik"
_chemical_name_systematic
;
2-(3-Nitrophenyl)-1,3-dioxolane
;
_chemical_melting_point 330
_cell_volume   1702.373
_exptl_crystal_colour 'colorless'
_exptl_crystal_density_diffrn 1.523
_exptl_special_details
;
Melting point range 330-331K

;
_exptl_crystal_description 'block'
_diffrn_ambient_temperature 133
#These two values have been output from a single CSD field.
_refine_ls_R_factor_gt 0.0286
_refine_ls_wR_factor_gt 0.0286
_symmetry_cell_setting orthorhombic
_symmetry_space_group_name_H-M 'P b c a'
_symmetry_Int_Tables_number 61
loop_
_symmetry_equiv_pos_site_id
_symmetry_equiv_pos_as_xyz
1 x,y,z
2 1/2-x,-y,1/2+z
3 -x,1/2+y,1/2-z
4 1/2+x,1/2-y,-z
5 -x,-y,-z
6 -1/2+x,y,-1/2-z
7 x,-1/2-y,-1/2+z
8 -1/2-x,-1/2+y,z
_cell_length_a 7.8931(2)
_cell_length_b 11.9354(3)
_cell_length_c 18.0705(4)
_cell_angle_alpha 90
_cell_angle_beta 90
_cell_angle_gamma 90
_cell_formula_units_Z 8
loop_
_atom_type_symbol
_atom_type_radius_bond
C 0.68
H 0.23
N 0.68
O 0.68
loop_
_atom_site_label
_atom_site_type_symbol
_atom_site_fract_x
_atom_site_fract_y
_atom_site_fract_z
C1 C 0.16521(14) 0.46519(9) 0.36598(6)
H1 H 0.21730 0.52680 0.39580
O1 O 0.2692(1) 0.36916(7) 0.36850(4)
C2 C 0.23165(15) 0.31609(10) 0.43777(6)
H2 H 0.31790 0.33550 0.47550
H3 H 0.22800 0.23360 0.43210
C3 C 0.05784(15) 0.36168(10) 0.45976(6)
H4 H -0.02450 0.30000 0.46670
H5 H 0.06500 0.40570 0.50610
O2 O 0.00973(10) 0.43177(7) 0.39840(4)
C4 C 0.13721(13) 0.50411(9) 0.28760(6)
C5 C 0.15693(13) 0.43039(9) 0.22868(6)
H6 H 0.18940 0.35470 0.23680
C6 C 0.12802(13) 0.47025(9) 0.15793(6)
N1 N 0.14532(11) 0.39243(8) 0.09512(5)
O3 O 0.16040(11) 0.29167(7) 0.10824(5)
O4 O 0.14278(11) 0.43145(7) 0.03203(4)
C7 C 0.08056(14) 0.57985(9) 0.14330(6)
H7 H 0.06260 0.60470 0.09400
C8 C 0.05998(15) 0.65235(9) 0.20265(6)
H8 H 0.02660 0.72770 0.19420
C9 C 0.08817(14) 0.61486(9) 0.27449(6)
H9 H 0.07400 0.66490 0.31490
#END
