
#######################################################################
#
#                 Cambridge Crystallographic Data Centre
#                                CCDC
#
#######################################################################
#
# If this CIF has been generated from an entry in the Cambridge
# Structural Database, then it will include bibliographic, chemical,
# crystal, experimental, refinement or atomic coordinate data resulting
# from the CCDC's data processing and validation procedures.
#
#######################################################################

data_CSD_CIF_ROHGEA
_audit_creation_date 1998-01-15
_audit_creation_method CSD-ConQuest-V1
_database_code_CSD ROHGEA
_database_code_depnum_ccdc_archive 'CCDC 129158'
_chemical_formula_sum 'C46 H70 N4 O12'
_chemical_formula_moiety
;
C46 H70 N4 O12
;
_journal_coeditor_code "IUCr CF1074"
_journal_coden_Cambridge 591
_journal_volume 53
_journal_year 1997
_journal_page_first 1488
_journal_name_full 'Acta Crystallogr.,Sect.C:Cryst.Struct.Commun. '
loop_
_publ_author_name
"K.Griesar"
"W.Haase"
"I.Svoboda"
"H.Fuess"
_chemical_name_systematic
;
4,4,',4'',4'''-(1,2,4,5-Benzenetetrayltetrakis(carbonyloxy))tetrakis 
(2,2,6,6-tetramethyl-1-piperidinyloxy) radical
;
_cell_volume   2411.130
_exptl_crystal_colour 'orange'
_exptl_crystal_density_diffrn 1.2
_exptl_crystal_description 'needle'
_diffrn_ambient_temperature ?
_diffrn_special_details
;
The study was carried out at room temperature,in the range 283-303K

;
#These two values have been output from a single CSD field.
_refine_ls_R_factor_gt 0.0374
_refine_ls_wR_factor_gt 0.0374
_symmetry_cell_setting monoclinic
_symmetry_space_group_name_H-M 'P 21/c'
_symmetry_Int_Tables_number 14
loop_
_symmetry_equiv_pos_site_id
_symmetry_equiv_pos_as_xyz
1 x,y,z
2 -x,1/2+y,1/2-z
3 -x,-y,-z
4 x,-1/2-y,-1/2+z
_cell_length_a 11.799(2)
_cell_length_b 8.155(2)
_cell_length_c 25.063(3)
_cell_angle_alpha 90
_cell_angle_beta 91.11(1)
_cell_angle_gamma 90
_cell_formula_units_Z 2
loop_
_atom_type_symbol
_atom_type_radius_bond
C 0.68
H 0.23
N 0.68
O 0.68
loop_
_atom_site_label
_atom_site_type_symbol
_atom_site_fract_x
_atom_site_fract_y
_atom_site_fract_z
N1 N 0.9955(2) 0.7305(2) 0.80066(7)
N2 N 0.46715(15) 0.3398(2) 0.85092(7)
O1 O 0.9917(2) 0.8515(2) 0.76822(7)
O2 O 1.01327(13) 0.3467(2) 0.91157(6)
O3 O 0.88384(14) 0.4104(2) 0.97307(6)
O4 O 0.74495(12) 0.1340(2) 0.93240(6)
O5 O 0.69224(15) 0.0656(3) 1.01483(7)
O6 O 0.3820(2) 0.4015(3) 0.82551(7)
C1 C 1.0863(2) 0.1012(3) 0.98353(8)
H1 H 1.1444(2) 0.1692(3) 0.97222(8)
C2 C 0.9745(2) 0.1490(3) 0.97575(8)
C3 C 0.8872(2) 0.0471(3) 0.99198(8)
C4 C 0.7641(2) 0.0849(3) 0.98229(9)
C5 C 0.6280(2) 0.1703(3) 0.91578(8)
H2 H 0.5749(2) 0.0982(3) 0.93408(8)
C6 C 0.6229(2) 0.1412(3) 0.85654(8)
H3 H 0.6420(2) 0.0276(3) 0.84951(8)
H4 H 0.6791(2) 0.2094(3) 0.83966(8)
C7 C 0.5067(2) 0.1782(3) 0.83161(9)
C8 C 0.4854(2) 0.4013(3) 0.90652(9)
C9 C 0.6022(2) 0.3472(3) 0.92716(9)
H5 H 0.6595(2) 0.4152(3) 0.91090(9)
H6 H 0.6068(2) 0.3650(3) 0.96541(9)
C10 C 0.9499(2) 0.3169(3) 0.95381(8)
C11 C 1.0030(2) 0.5077(3) 0.88685(8)
H7 H 0.9993(2) 0.5934(3) 0.91415(8)
C12 C 1.1059(2) 0.5295(3) 0.85366(10)
H8 H 1.1081(2) 0.4428(3) 0.8272(1)
H9 H 1.1730(2) 0.5193(3) 0.8764(1)
C13 C 1.1083(2) 0.6957(3) 0.82525(9)
C14 C 0.8860(2) 0.6795(3) 0.82336(9)
C15 C 0.8998(2) 0.5135(3) 0.85081(9)
H10 H 0.8330(2) 0.4911(3) 0.87158(9)
H11 H 0.9055(2) 0.4286(3) 0.82391(9)
C16 C 0.4195(2) 0.0471(4) 0.84468(12)
H12 H 0.4123(2) 0.0393(4) 0.8827(1)
H13 H 0.4437(2) -0.0566(4) 0.8308(1)
H14 H 0.3475(2) 0.0761(4) 0.8288(1)
C17 C 0.5184(2) 0.1910(4) 0.77141(9)
H15 H 0.4457(2) 0.2145(4) 0.75529(9)
H16 H 0.5464(2) 0.0891(4) 0.75773(9)
H17 H 0.5704(2) 0.2775(4) 0.76322(9)
C18 C 0.3905(2) 0.3385(4) 0.94160(11)
H18 H 0.3931(2) 0.2209(4) 0.9430(1)
H19 H 0.3186(2) 0.3728(4) 0.9269(1)
H20 H 0.4000(2) 0.3821(4) 0.9770(1)
C19 C 0.4817(3) 0.5881(3) 0.90381(14)
H21 H 0.4085(3) 0.6227(3) 0.8908(1)
H22 H 0.5389(3) 0.6266(3) 0.8802(1)
H23 H 0.4953(3) 0.6327(3) 0.9388(1)
C20 C 0.8008(2) 0.6632(4) 0.77719(13)
H24 H 0.8264(2) 0.5810(4) 0.7528(1)
H25 H 0.7940(2) 0.7663(4) 0.7590(1)
H26 H 0.7284(2) 0.6320(4) 0.7907(1)
C21 C 0.8464(2) 0.8099(3) 0.86218(12)
H27 H 0.9004(2) 0.8196(3) 0.8912(1)
H28 H 0.7740(2) 0.7793(3) 0.8759(1)
H29 H 0.8398(2) 0.9132(3) 0.8440(1)
C22 C 1.1393(2) 0.8343(4) 0.86379(12)
H30 H 1.0851(2) 0.8383(4) 0.8918(1)
H31 H 1.1388(2) 0.9367(4) 0.8449(1)
H32 H 1.2135(2) 0.8150(4) 0.8789(1)
C23 C 1.1929(2) 0.6873(4) 0.78060(12)
H33 H 1.1723(2) 0.5999(4) 0.7566(1)
H34 H 1.2673(2) 0.6671(4) 0.7954(1)
H35 H 1.1927(2) 0.7893(4) 0.7615(1)
C3B C 1.1128(2) -0.0471(3) 1.00802(8)
C2B C 1.0255(2) -0.1490(3) 1.02425(8)
C1B C 0.9137(2) -0.1012(3) 1.01647(8)
H1B H 0.8556(2) -0.1692(3) 1.02778(8)
C10B C 1.0501(2) -0.3169(3) 1.04619(8)
O2B O 0.98673(13) -0.3467(2) 1.08843(6)
C11B C 0.9970(2) -0.5077(3) 1.11315(8)
H7B H 1.0007(2) -0.5934(3) 1.08585(8)
C12B C 0.8941(2) -0.5295(3) 1.14634(10)
H8B H 0.8919(2) -0.4428(3) 1.1728(1)
H9B H 0.8270(2) -0.5193(3) 1.1236(1)
C13B C 0.8917(2) -0.6957(3) 1.17475(9)
N1B N 1.0045(2) -0.7305(2) 1.19934(7)
O1B O 1.0083(2) -0.8515(2) 1.23178(7)
C14B C 1.1140(2) -0.6795(3) 1.17664(9)
C15B C 1.1002(2) -0.5135(3) 1.14919(9)
H10B H 1.1670(2) -0.4911(3) 1.12842(9)
H11B H 1.0945(2) -0.4286(3) 1.17609(9)
C20B C 1.1992(2) -0.6632(4) 1.22281(13)
H24B H 1.1736(2) -0.5810(4) 1.2472(1)
H25B H 1.2060(2) -0.7663(4) 1.2410(1)
H26B H 1.2716(2) -0.6320(4) 1.2093(1)
C21B C 1.1536(2) -0.8099(3) 1.13782(12)
H27B H 1.0996(2) -0.8196(3) 1.1088(1)
H28B H 1.2260(2) -0.7793(3) 1.1241(1)
H29B H 1.1602(2) -0.9132(3) 1.1560(1)
C22B C 0.8607(2) -0.8343(4) 1.13621(12)
H30B H 0.9149(2) -0.8383(4) 1.1082(1)
H31B H 0.8612(2) -0.9367(4) 1.1551(1)
H32B H 0.7865(2) -0.8150(4) 1.1211(1)
C23B C 0.8071(2) -0.6873(4) 1.21940(12)
H33B H 0.8277(2) -0.5999(4) 1.2434(1)
H34B H 0.7327(2) -0.6671(4) 1.2046(1)
H35B H 0.8073(2) -0.7893(4) 1.2385(1)
O3B O 1.11616(14) -0.4104(2) 1.02693(6)
C4B C 1.2359(2) -0.0849(3) 1.01771(9)
O4B O 1.25505(12) -0.1340(2) 1.06760(6)
C5B C 1.3720(2) -0.1703(3) 1.08422(8)
H2B H 1.4251(2) -0.0982(3) 1.06592(8)
C6B C 1.3771(2) -0.1412(3) 1.14346(8)
H3B H 1.3580(2) -0.0276(3) 1.15049(8)
H4B H 1.3209(2) -0.2094(3) 1.16034(8)
C7B C 1.4933(2) -0.1782(3) 1.16839(9)
N2B N 1.53285(15) -0.3398(2) 1.14908(7)
O6B O 1.6180(2) -0.4015(3) 1.17449(7)
C8B C 1.5146(2) -0.4013(3) 1.09348(9)
C9B C 1.3978(2) -0.3472(3) 1.07284(9)
H5B H 1.3405(2) -0.4152(3) 1.08910(9)
H6B H 1.3932(2) -0.3650(3) 1.03459(9)
C18B C 1.6095(2) -0.3385(4) 1.05840(11)
H18B H 1.6069(2) -0.2209(4) 1.0570(1)
H19B H 1.6814(2) -0.3728(4) 1.0731(1)
H20B H 1.6000(2) -0.3821(4) 1.0230(1)
C19B C 1.5183(3) -0.5881(3) 1.09619(14)
H21B H 1.5915(3) -0.6227(3) 1.1092(1)
H22B H 1.4611(3) -0.6266(3) 1.1198(1)
H23B H 1.5047(3) -0.6327(3) 1.0612(1)
C16B C 1.5805(2) -0.0471(4) 1.15532(12)
H12B H 1.5877(2) -0.0393(4) 1.1173(1)
H13B H 1.5563(2) 0.0566(4) 1.1692(1)
H14B H 1.6525(2) -0.0761(4) 1.1712(1)
C17B C 1.4816(2) -0.1910(4) 1.22859(9)
H15B H 1.5543(2) -0.2145(4) 1.24471(9)
H16B H 1.4536(2) -0.0891(4) 1.24227(9)
H17B H 1.4296(2) -0.2775(4) 1.23678(9)
O5B O 1.30776(15) -0.0656(3) 0.98517(7)
#END
