
#######################################################################
#
#                 Cambridge Crystallographic Data Centre
#                                CCDC
#
#######################################################################
#
# If this CIF has been generated from an entry in the Cambridge
# Structural Database, then it will include bibliographic, chemical,
# crystal, experimental, refinement or atomic coordinate data resulting
# from the CCDC's data processing and validation procedures.
#
#######################################################################

data_CSD_CIF_ROHGAY
_audit_creation_date 2014-05-15
_audit_creation_method CSD-ConQuest-V1
_database_code_CSD ROHGAY
_database_code_depnum_ccdc_archive 'CCDC 1003437'
_chemical_formula_sum 'C20 H27 N1 O5'
_chemical_formula_moiety
;
C20 H27 N1 O5
;
_journal_coden_Cambridge 4
_journal_volume 136
_journal_year 2014
_journal_page_first 6586
_journal_name_full 'J.Am.Chem.Soc. '
loop_
_publ_author_name
"Bijie Li"
"M.Driess"
"J.F.Hartwig"
_chemical_name_systematic
;
2-(cyclohexyl(hydroxy)methyl)cyclohexyl 4-nitrobenzoate
;
_cell_volume   1844.860
_exptl_crystal_colour 'colorless'
_exptl_crystal_density_diffrn 1.301
_exptl_crystal_description 'prism'
_diffrn_ambient_temperature 100
#These two values have been output from a single CSD field.
_refine_ls_R_factor_gt 0.0357
_refine_ls_wR_factor_gt 0.0357
_symmetry_cell_setting monoclinic
_symmetry_space_group_name_H-M 'P 21/c'
_symmetry_Int_Tables_number 14
loop_
_symmetry_equiv_pos_site_id
_symmetry_equiv_pos_as_xyz
1 x,y,z
2 -x,1/2+y,1/2-z
3 -x,-y,-z
4 x,-1/2-y,-1/2+z
_cell_length_a 16.3011(3)
_cell_length_b 7.7470(1)
_cell_length_c 14.8991(3)
_cell_angle_alpha 90
_cell_angle_beta 101.330(1)
_cell_angle_gamma 90
_cell_formula_units_Z 4
loop_
_atom_type_symbol
_atom_type_radius_bond
C 0.68
H 0.23
N 0.68
O 0.68
loop_
_atom_site_label
_atom_site_type_symbol
_atom_site_fract_x
_atom_site_fract_y
_atom_site_fract_z
C1 C 0.81322(8) 0.08719(16) 0.53926(8)
H1 H 0.82400 -0.00790 0.49770
C2 C 0.74827(8) 0.20729(17) 0.48287(9)
H2 H 0.69540 0.14310 0.46200
H3 H 0.73660 0.30430 0.52170
C3 C 0.77938(8) 0.27847(18) 0.39975(9)
H4 H 0.78580 0.18230 0.35790
H5 H 0.73740 0.35970 0.36620
C4 C 0.86293(8) 0.37152(18) 0.42823(9)
H6 H 0.85470 0.47760 0.46250
H7 H 0.88380 0.40620 0.37280
C5 C 0.92797(8) 0.25685(18) 0.48806(9)
H8 H 0.97930 0.32510 0.51040
H9 H 0.94290 0.16050 0.45070
C6 C 0.89577(8) 0.18337(17) 0.57011(8)
H10 H 0.93800 0.10350 0.60440
H11 H 0.88750 0.27870 0.61170
C7 C 0.77899(8) 0.00370(16) 0.61738(8)
H12 H 0.72760 -0.06310 0.59030
C8 C 0.84048(8) -0.11900(16) 0.67755(8)
H13 H 0.88900 -0.04740 0.70820
C9 C 0.87566(8) -0.25956(16) 0.62315(8)
H14 H 0.82900 -0.33090 0.58990
H15 H 0.90370 -0.20450 0.57730
C10 C 0.93826(8) -0.37577(16) 0.68556(9)
H16 H 0.95790 -0.46730 0.64850
H17 H 0.98740 -0.30660 0.71460
C11 C 0.89861(8) -0.45857(16) 0.75983(8)
H18 H 0.85290 -0.53690 0.73130
H19 H 0.94110 -0.52770 0.80130
C12 C 0.86383(8) -0.31937(16) 0.81466(8)
H20 H 0.83530 -0.37520 0.85990
H21 H 0.91070 -0.24980 0.84880
C13 C 0.80253(8) -0.20102(16) 0.75370(8)
H22 H 0.78300 -0.10870 0.79150
C14 C 0.65442(8) -0.24867(17) 0.70281(8)
C15 C 0.58999(8) -0.38167(17) 0.66705(9)
C16 C 0.61115(8) -0.55499(18) 0.66162(10)
H23 H 0.66790 -0.59010 0.67860
C17 C 0.54954(9) -0.67592(19) 0.63145(11)
H24 H 0.56300 -0.79480 0.62850
C18 C 0.46793(9) -0.61933(19) 0.60573(9)
C19 C 0.44546(8) -0.4481(2) 0.6083(1)
H25 H 0.38890 -0.41320 0.58890
C20 C 0.50735(8) -0.32861(19) 0.63987(9)
H26 H 0.49340 -0.21000 0.64300
N1 N 0.40143(8) -0.74746(19) 0.57512(10)
O1 O 0.75546(6) 0.13940(11) 0.67297(6)
H27 H 0.71940 0.10230 0.70150
O2 O 0.73177(5) -0.31171(11) 0.71299(6)
O3 O 0.63712(6) -0.10156(12) 0.72073(6)
O4 O 0.42117(9) -0.89797(18) 0.57534(16)
O5 O 0.32975(7) -0.69711(17) 0.55099(9)
#END
