
#######################################################################
#
#                 Cambridge Crystallographic Data Centre
#                                CCDC
#
#######################################################################
#
# If this CIF has been generated from an entry in the Cambridge
# Structural Database, then it will include bibliographic, chemical,
# crystal, experimental, refinement or atomic coordinate data resulting
# from the CCDC's data processing and validation procedures.
#
#######################################################################

data_CSD_CIF_ROJZIB
_audit_creation_date 2014-10-09
_audit_creation_method CSD-ConQuest-V1
_database_code_CSD ROJZIB
_database_code_depnum_ccdc_archive 'CCDC 1012918'
_chemical_formula_sum 'C22 H29 N1 O9'
_chemical_formula_moiety
;
C22 H29 N1 O9
;
_journal_coden_Cambridge 1291
_journal_year 2014
_journal_page_first 7364
_journal_name_full 'Eur.J.Org.Chem. '
loop_
_publ_author_name
"M.Richard"
"A.-S.Felten"
"C.Didierjean"
"M.Ruiz-Lopez"
"Y.Chapleur"
"N.Pellegrini-Moise"
_chemical_name_systematic
;
methyl 
(6-(2,2-dimethyl-1,3-dioxolan-4-yl)-2,2-dimethyl-4-(nitromethyl)tetrahydrofuro
[3,4-d][1,3]dioxol-4-yl)(phenyl)acetate
;
_cell_volume   1144.187
_exptl_crystal_density_diffrn 1.31
_diffrn_ambient_temperature 100
#These two values have been output from a single CSD field.
_refine_ls_R_factor_gt 0.0387
_refine_ls_wR_factor_gt 0.0387
_symmetry_cell_setting triclinic
_symmetry_space_group_name_H-M 'P 1'
_symmetry_Int_Tables_number 1
loop_
_symmetry_equiv_pos_site_id
_symmetry_equiv_pos_as_xyz
1 x,y,z
_cell_length_a 9.0778(6)
_cell_length_b 9.2242(6)
_cell_length_c 14.1404(9)
_cell_angle_alpha 101.934(2)
_cell_angle_beta 98.452(2)
_cell_angle_gamma 91.271(2)
_cell_formula_units_Z 2
loop_
_atom_type_symbol
_atom_type_radius_bond
C 0.68
H 0.23
N 0.68
O 0.68
loop_
_atom_site_label
_atom_site_type_symbol
_atom_site_fract_x
_atom_site_fract_y
_atom_site_fract_z
O1 O 0.39212(17) 0.10728(18) 0.02536(12)
O2 O 0.27307(15) 0.25238(16) 0.13636(10)
O3 O 0.44914(16) 0.13575(15) 0.29048(10)
O4 O 0.71611(16) 0.33200(18) 0.26394(10)
O5 O 0.80640(16) 0.20795(16) 0.37958(11)
O6 O 0.21577(17) 0.2011(2) 0.44217(12)
O7 O 0.39942(19) 0.36394(17) 0.49379(12)
O8 O 0.85012(17) -0.13279(17) 0.38154(11)
O9 O 0.74836(18) -0.01357(18) 0.50916(11)
N1 N 0.3483(2) 0.23504(19) 0.46524(12)
C1 C 0.2600(2) 0.1859(2) 0.03529(15)
C2 C 0.1272(3) 0.0777(3) 0.00771(19)
H1 H 0.12270 0.02450 -0.06030
H2 H 0.03610 0.13140 0.01470
H3 H 0.13610 0.00660 0.05080
C3 C 0.2517(3) 0.3055(3) -0.02512(17)
H4 H 0.25350 0.25950 -0.09390
H5 H 0.33710 0.37710 -0.00090
H6 H 0.15900 0.35690 -0.01940
C4 C 0.5072(2) 0.1775(2) 0.10214(14)
C5 C 0.4283(2) 0.2904(2) 0.17075(14)
C6 C 0.4578(2) 0.2862(2) 0.27848(14)
C7 C 0.6640(2) 0.2519(2) 0.40185(14)
C8 C 0.6107(2) 0.3521(2) 0.33040(15)
C9 C 0.5475(2) 0.1180(2) 0.37611(14)
C10 C 0.4549(2) 0.1139(2) 0.45860(15)
C11 C 0.8525(2) 0.2980(2) 0.31697(15)
C12 C 0.9369(3) 0.4381(3) 0.37775(18)
H7 H 0.96100 0.50280 0.33460
H8 H 1.02940 0.41200 0.41410
H9 H 0.87510 0.49010 0.42380
C13 C 0.9407(3) 0.2067(3) 0.24636(18)
H10 H 0.96800 0.26570 0.20070
H11 H 0.88020 0.11800 0.20970
H12 H 1.03130 0.17690 0.28270
C14 C 0.6175(2) -0.0331(2) 0.34497(14)
C15 C 0.7442(2) -0.0560(2) 0.42251(15)
C16 C 0.9812(3) -0.1505(3) 0.44888(19)
H13 H 1.05140 -0.21000 0.41300
H14 H 0.95230 -0.20070 0.49860
H15 H 1.02880 -0.05270 0.48080
C17 C 0.5007(2) -0.1619(2) 0.31757(14)
C18 C 0.4634(2) -0.2407(2) 0.38584(15)
C19 C 0.3485(3) -0.3502(2) 0.36017(16)
C20 C 0.2709(2) -0.3836(2) 0.26589(17)
C21 C 0.3094(2) -0.3077(2) 0.19721(16)
C22 C 0.4232(2) -0.1973(2) 0.22265(15)
H16 H 0.583(3) 0.225(3) 0.0759(18)
H17 H 0.547(3) 0.099(3) 0.1330(19)
H18 H 0.456(3) 0.390(3) 0.1669(18)
H19 H 0.384(3) 0.345(3) 0.3099(19)
H20 H 0.674(3) 0.297(3) 0.4700(19)
H21 H 0.610(3) 0.454(3) 0.3603(19)
H22 H 0.390(3) 0.026(3) 0.4462(18)
H23 H 0.522(3) 0.128(3) 0.5230(19)
H24 H 0.665(3) -0.032(3) 0.2844(19)
H25 H 0.512(3) -0.218(3) 0.450(2)
H26 H 0.325(3) -0.404(3) 0.4076(19)
H27 H 0.194(3) -0.458(3) 0.2485(18)
H28 H 0.255(3) -0.329(3) 0.133(2)
H29 H 0.454(3) -0.146(3) 0.1733(19)
O10 O 0.78351(18) 1.03473(16) 0.85235(10)
O11 O 0.59943(16) 1.05631(14) 0.73174(11)
O12 O 0.57883(15) 0.75318(15) 0.81975(10)
O13 O 0.6904(2) 0.82995(18) 1.08283(12)
O14 O 0.78550(17) 0.65879(16) 0.97247(10)
O15 O 0.6373(2) 0.47368(18) 0.66575(12)
O16 O 0.67966(18) 0.61550(18) 0.56789(12)
O17 O 0.25964(18) 1.09595(16) 0.73366(11)
O18 O 0.31292(17) 0.93925(16) 0.59981(10)
N2 N 0.6071(2) 0.57716(19) 0.62590(12)
C23 C 0.7665(2) 0.6963(2) 1.07235(15)
C24 C 0.6768(3) 0.5767(3) 1.0973(2)
H30 H 0.72950 0.48440 1.08750
H31 H 0.57960 0.56150 1.05500
H32 H 0.66220 0.60520 1.16580
C25 C 0.9206(3) 0.7277(3) 1.13657(19)
H33 H 0.97460 0.63620 1.13060
H34 H 0.90810 0.76380 1.20500
H35 H 0.97740 0.80310 1.11500
C26 C 0.7224(2) 0.9062(2) 1.01018(15)
C27 C 0.8019(2) 0.7949(2) 0.94074(14)
C28 C 0.7385(2) 0.7695(2) 0.83294(14)
C29 C 0.7756(2) 0.8957(2) 0.78485(14)
C30 C 0.6363(2) 0.9050(2) 0.70985(14)
C31 C 0.7224(2) 1.1388(2) 0.79754(15)
C32 C 0.8366(2) 1.1884(2) 0.74065(16)
H36 H 0.79490 1.26350 0.70610
H37 H 0.86190 1.10290 0.69310
H38 H 0.92670 1.23060 0.78600
C33 C 0.6629(3) 1.2645(3) 0.86493(18)
H39 H 0.61230 1.33110 0.82650
H40 H 0.74560 1.31980 0.91180
H41 H 0.59200 1.22460 0.90030
C34 C 0.5163(2) 0.7995(2) 0.73261(13)
C35 C 0.4735(2) 0.6615(2) 0.64954(15)
C36 C 0.3746(2) 0.8801(2) 0.75962(14)
C37 C 0.3146(2) 0.9725(2) 0.68719(15)
C38 C 0.2135(3) 1.2025(3) 0.67482(18)
H42 H 0.16820 1.28470 0.71420
H43 H 0.14040 1.15430 0.61830
H44 H 0.30040 1.24070 0.65200
C39 C 0.2548(2) 0.7737(2) 0.77539(15)
C40 C 0.2574(2) 0.7442(2) 0.86838(16)
C41 C 0.1540(3) 0.6418(3) 0.88431(19)
C42 C 0.0487(3) 0.5681(2) 0.8082(2)
C43 C 0.0439(3) 0.5969(3) 0.7158(2)
C44 C 0.1463(2) 0.7007(2) 0.69956(17)
H45 H 0.786(3) 0.997(3) 1.0409(19)
H46 H 0.629(3) 0.935(3) 0.980(2)
H47 H 0.907(3) 0.823(3) 0.948(2)
H48 H 0.779(3) 0.675(3) 0.8007(19)
H49 H 0.867(3) 0.877(3) 0.757(2)
H50 H 0.653(3) 0.875(3) 0.643(2)
H51 H 0.407(3) 0.592(3) 0.6698(19)
H52 H 0.430(3) 0.687(3) 0.588(2)
H53 H 0.406(3) 0.947(3) 0.820(2)
H54 H 0.331(3) 0.796(3) 0.923(2)
H55 H 0.157(3) 0.622(3) 0.955(2)
H56 H -0.020(3) 0.497(3) 0.8191(19)
H57 H -0.025(3) 0.547(3) 0.659(2)
H58 H 0.143(3) 0.721(3) 0.637(2)
#END
