
#######################################################################
#
#                 Cambridge Crystallographic Data Centre
#                                CCDC
#
#######################################################################
#
# If this CIF has been generated from an entry in the Cambridge
# Structural Database, then it will include bibliographic, chemical,
# crystal, experimental, refinement or atomic coordinate data resulting
# from the CCDC's data processing and validation procedures.
#
#######################################################################

data_CSD_CIF_ROJZEX
_audit_creation_date 2014-10-09
_audit_creation_method CSD-ConQuest-V1
_database_code_CSD ROJZEX
_database_code_depnum_ccdc_archive 'CCDC 1012892'
_chemical_formula_sum 'C10 H15 N1 O7'
_chemical_formula_moiety
;
C10 H15 N1 O7
;
_journal_coden_Cambridge 1291
_journal_year 2014
_journal_page_first 7364
_journal_name_full 'Eur.J.Org.Chem. '
loop_
_publ_author_name
"M.Richard"
"A.-S.Felten"
"C.Didierjean"
"M.Ruiz-Lopez"
"Y.Chapleur"
"N.Pellegrini-Moise"
_chemical_name_systematic
;
(2,2-dimethyl-4-(nitromethyl)tetrahydrofuro[3,4-d][1,3]dioxol-4-yl)acetic acid
;
_cell_volume   2418.681
_exptl_crystal_density_diffrn 1.435
_diffrn_ambient_temperature 100
#These two values have been output from a single CSD field.
_refine_ls_R_factor_gt 0.0314
_refine_ls_wR_factor_gt 0.0314
_symmetry_cell_setting orthorhombic
_symmetry_space_group_name_H-M 'P 21 21 21'
_symmetry_Int_Tables_number 19
loop_
_symmetry_equiv_pos_site_id
_symmetry_equiv_pos_as_xyz
1 x,y,z
2 1/2+x,1/2-y,-z
3 -x,1/2+y,1/2-z
4 1/2-x,-y,1/2+z
_cell_length_a 5.8449(3)
_cell_length_b 18.8290(11)
_cell_length_c 21.9773(12)
_cell_angle_alpha 90
_cell_angle_beta 90
_cell_angle_gamma 90
_cell_formula_units_Z 8
loop_
_atom_type_symbol
_atom_type_radius_bond
C 0.68
H 0.23
N 0.68
O 0.68
loop_
_atom_site_label
_atom_site_type_symbol
_atom_site_fract_x
_atom_site_fract_y
_atom_site_fract_z
O1 O 0.5576(2) 0.66049(6) 0.84385(5)
O2 O 0.32476(19) 0.57562(6) 0.87845(5)
O3 O 0.4749(2) 0.64190(5) 1.01369(4)
O4 O 0.6532(2) 0.61646(6) 1.10184(5)
O5 O 0.85403(18) 0.52434(5) 1.00429(5)
O6 O 0.7860(2) 0.36226(6) 0.95285(5)
O7 O 0.8345(2) 0.43716(6) 0.87941(5)
N1 N 0.7388(2) 0.41714(6) 0.92586(6)
C1 C 0.5094(3) 0.60596(7) 0.87935(6)
C2 C 0.7068(2) 0.58501(7) 0.91902(6)
C3 C 0.6462(2) 0.53486(7) 0.97093(6)
C4 C 0.4739(2) 0.56668(7) 1.01692(6)
C5 C 0.5128(3) 0.66858(7) 1.07378(6)
C6 C 0.2865(3) 0.67671(10) 1.10680(8)
H1 H 0.19260 0.71220 1.08590
H2 H 0.31470 0.69210 1.14870
H3 H 0.20610 0.63110 1.10710
C7 C 0.6450(3) 0.73695(8) 1.06980(8)
H4 H 0.55760 0.77160 1.04600
H5 H 0.79250 0.72820 1.05000
H6 H 0.67110 0.75560 1.11080
C8 C 0.5812(3) 0.54905(7) 1.07962(6)
C9 C 0.7889(3) 0.50403(8) 1.06490(7)
C10 C 0.5512(2) 0.46227(7) 0.95050(6)
H7 H 0.443(4) 0.6680(11) 0.8202(9)
H8 H 0.819(3) 0.5626(10) 0.8946(9)
H9 H 0.770(4) 0.6269(10) 0.9358(9)
H10 H 0.327(4) 0.5495(10) 1.0102(8)
H11 H 0.472(3) 0.526(1) 1.1071(9)
H12 H 0.761(4) 0.453(1) 1.0674(8)
H13 H 0.919(4) 0.515(1) 1.0907(9)
H14 H 0.443(4) 0.4683(10) 0.9186(9)
H15 H 0.483(4) 0.4367(10) 0.9824(9)
O8 O -0.2066(2) 0.18407(6) 0.73214(5)
O9 O -0.0158(2) 0.08455(6) 0.71013(5)
O10 O 0.23410(19) 0.29720(5) 0.76925(4)
O11 O 0.45801(18) 0.33729(6) 0.84445(4)
O12 O 0.24954(18) 0.19365(5) 0.88478(4)
O13 O -0.2348(3) 0.12395(10) 0.94753(7)
O14 O -0.2413(3) 0.08189(7) 0.85586(8)
N2 N -0.2165(2) 0.13057(8) 0.89241(7)
C11 C -0.0491(3) 0.14304(7) 0.74170(6)
C12 C 0.1295(3) 0.15367(7) 0.78974(6)
C13 C 0.0767(2) 0.20718(7) 0.83972(6)
C14 C 0.1022(2) 0.28688(7) 0.82277(6)
C15 C 0.3939(2) 0.35280(7) 0.78297(6)
C16 C 0.2802(3) 0.42534(8) 0.77805(7)
H16 H 0.22960 0.43320 0.73610
H17 H 0.38990 0.46230 0.78950
H18 H 0.14780 0.42720 0.80540
C17 C 0.5986(3) 0.34707(8) 0.74219(6)
H19 H 0.55240 0.35580 0.70000
H20 H 0.66420 0.29930 0.74550
H21 H 0.71320 0.38230 0.75440
C18 C 0.2819(3) 0.25765(8) 0.91914(6)
C19 C 0.2504(2) 0.31833(7) 0.87467(6)
C20 C -0.1643(3) 0.20220(7) 0.86779(6)
H22 H -0.114(4) 0.0821(11) 0.6793(10)
H23 H 0.161(4) 0.1081(10) 0.8087(9)
H24 H 0.263(4) 0.1672(11) 0.7702(9)
H25 H -0.039(4) 0.3085(10) 0.8203(9)
H26 H 0.169(4) 0.2609(10) 0.9516(9)
H27 H 0.428(4) 0.2576(10) 0.9365(9)
H28 H 0.181(4) 0.3584(10) 0.8937(9)
H29 H -0.268(4) 0.211(1) 0.8381(9)
H30 H -0.176(4) 0.2358(10) 0.9002(9)
#END
