
#######################################################################
#
#                 Cambridge Crystallographic Data Centre
#                                CCDC
#
#######################################################################
#
# If this CIF has been generated from an entry in the Cambridge
# Structural Database, then it will include bibliographic, chemical,
# crystal, experimental, refinement or atomic coordinate data resulting
# from the CCDC's data processing and validation procedures.
#
#######################################################################

data_CSD_CIF_ROKGOO
_audit_creation_date 2009-03-24
_audit_creation_method CSD-ConQuest-V1
_database_code_CSD ROKGOO
_database_code_depnum_ccdc_archive 'CCDC 687264'
_chemical_formula_sum 'C22 H15 N1 O2'
_chemical_formula_moiety
;
C22 H15 N1 O2
;
_journal_coden_Cambridge 579
_journal_volume 27
_journal_year 2008
_journal_page_first 5173
_journal_name_full 'Organometallics '
loop_
_publ_author_name
"Jean-Ho Chu"
"Chin-Chau Chen"
"Ming-Jung Wu"
_chemical_name_systematic
;
3-(4'-Formylbiphenyl-2-yl)-5-phenylisoxazole
;
_chemical_melting_point 383.15
_cell_volume   1670.175
_exptl_crystal_colour 'pale yellow'
_exptl_crystal_density_diffrn 1.294
_exptl_special_details
;
Melting point range 383.15-385.15K

;
_exptl_crystal_description 'prism'
_diffrn_ambient_temperature 200
#These two values have been output from a single CSD field.
_refine_ls_R_factor_gt 0.0513
_refine_ls_wR_factor_gt 0.0513
_symmetry_cell_setting triclinic
_symmetry_space_group_name_H-M 'P -1'
_symmetry_Int_Tables_number 2
loop_
_symmetry_equiv_pos_site_id
_symmetry_equiv_pos_as_xyz
1 x,y,z
2 -x,-y,-z
_cell_length_a 10.4372(2)
_cell_length_b 11.7904(3)
_cell_length_c 14.1541(4)
_cell_angle_alpha 76.651(1)
_cell_angle_beta 80.236(2)
_cell_angle_gamma 87.845(1)
_cell_formula_units_Z 4
loop_
_atom_type_symbol
_atom_type_radius_bond
C 0.68
H 0.23
N 0.68
O 0.68
loop_
_atom_site_label
_atom_site_type_symbol
_atom_site_fract_x
_atom_site_fract_y
_atom_site_fract_z
O1 O 0.19198(14) 1.07865(13) 0.40545(10)
O2 O 0.69003(19) 0.72824(14) 0.06036(14)
O3 O 0.34966(14) 0.56862(13) 0.40698(11)
O4 O -0.0462(2) 0.23661(14) 0.09852(13)
N1 N 0.23910(18) 1.17745(15) 0.33170(13)
N2 N 0.32698(18) 0.66832(15) 0.33493(13)
C1 C 0.2948(2) 1.01073(18) 0.43044(14)
C2 C 0.2646(2) 0.90204(19) 0.50383(15)
C3 C 0.1416(3) 0.8775(2) 0.55899(17)
H1 H 0.07620 0.93310 0.55170
C4 C 0.1153(3) 0.7720(3) 0.62418(19)
H2 H 0.03230 0.75630 0.66040
C5 C 0.2116(3) 0.6895(3) 0.63603(19)
H3 H 0.19350 0.61810 0.68030
C6 C 0.3344(3) 0.7121(2) 0.58271(19)
H4 H 0.39940 0.65630 0.59120
C7 C 0.3611(3) 0.8176(2) 0.51663(17)
H5 H 0.44420 0.83250 0.48030
C8 C 0.4048(2) 1.06112(18) 0.37609(15)
H6 H 0.48920 1.03350 0.37790
C9 C 0.3656(2) 1.16489(17) 0.31569(14)
C10 C 0.4462(2) 1.25711(17) 0.24330(15)
C11 C 0.4362(2) 1.36989(18) 0.25772(17)
H7 H 0.37740 1.38540 0.31040
C12 C 0.5110(2) 1.45902(19) 0.19601(17)
H8 H 0.50290 1.53390 0.20710
C13 C 0.5978(2) 1.43745(19) 0.11798(17)
H9 H 0.64810 1.49770 0.07550
C14 C 0.6101(2) 1.32588(18) 0.10293(16)
H10 H 0.67020 1.31170 0.05040
C15 C 0.5351(2) 1.23364(17) 0.16403(15)
C16 C 0.5491(2) 1.11578(17) 0.14285(14)
C17 C 0.6727(2) 1.06996(18) 0.11808(15)
H11 H 0.74640 1.11340 0.11530
C18 C 0.6859(2) 0.96091(19) 0.09773(16)
H12 H 0.76850 0.93170 0.08100
C19 C 0.5770(2) 0.89381(17) 0.10187(14)
C20 C 0.4547(2) 0.93934(18) 0.12542(14)
H13 H 0.38130 0.89580 0.12800
C21 C 0.4408(2) 1.04908(17) 0.14515(14)
H14 H 0.35790 1.07880 0.16020
C22 C 0.5894(3) 0.77702(19) 0.08053(16)
H15 H 0.51290 0.73770 0.08290
C23 C 0.2384(2) 0.50399(17) 0.43712(14)
C24 C 0.2445(2) 0.39657(18) 0.51183(14)
C25 C 0.3397(2) 0.3794(2) 0.57188(17)
H16 H 0.40040 0.43770 0.56510
C26 C 0.3445(3) 0.2766(3) 0.64113(19)
H17 H 0.40830 0.26600 0.68090
C27 C 0.2553(3) 0.1890(2) 0.65196(18)
H18 H 0.25910 0.11980 0.69880
C28 C 0.1608(3) 0.2047(2) 0.59304(17)
H19 H 0.10070 0.14580 0.60010
C29 C 0.1548(2) 0.30796(19) 0.52329(16)
H20 H 0.09050 0.31810 0.48390
C30 C 0.1461(2) 0.55670(17) 0.38571(14)
H21 H 0.06180 0.53090 0.39000
C31 C 0.2054(2) 0.65955(17) 0.32410(14)
C32 C 0.14813(19) 0.75659(17) 0.25644(14)
C33 C 0.1529(2) 0.86831(18) 0.27298(15)
H22 H 0.19490 0.88000 0.32290
C34 C 0.0964(2) 0.96180(17) 0.21682(16)
H23 H 0.10000 1.03580 0.22890
C35 C 0.0347(2) 0.94466(18) 0.14263(16)
H24 H -0.00340 1.00720 0.10420
C36 C 0.0295(2) 0.83431(17) 0.12542(15)
H25 H -0.01230 0.82390 0.07500
C37 C 0.08496(19) 0.73852(16) 0.18116(14)
C38 C 0.0767(2) 0.62121(16) 0.15964(13)
C39 C -0.0415(2) 0.57834(17) 0.14995(15)
H26 H -0.11590 0.62380 0.15630
C40 C -0.0502(2) 0.46991(18) 0.13111(15)
H27 H -0.13020 0.44260 0.12500
C41 C 0.0597(2) 0.40096(17) 0.12123(13)
C42 C 0.1780(2) 0.44400(18) 0.12830(15)
H28 H 0.25260 0.39920 0.12020
C43 C 0.1867(2) 0.55281(17) 0.14733(14)
H29 H 0.26710 0.58060 0.15200
C44 C 0.0516(3) 0.2831(2) 0.10430(16)
H30 H 0.12860 0.24120 0.09750
#END
