
#######################################################################
#
#                 Cambridge Crystallographic Data Centre
#                                CCDC
#
#######################################################################
#
# If this CIF has been generated from an entry in the Cambridge
# Structural Database, then it will include bibliographic, chemical,
# crystal, experimental, refinement or atomic coordinate data resulting
# from the CCDC's data processing and validation procedures.
#
#######################################################################

data_CSD_CIF_ROKYIZ
_audit_creation_date 1998-01-15
_audit_creation_method CSD-ConQuest-V1
_database_code_CSD ROKYIZ
_database_code_depnum_ccdc_archive 'CCDC 129338'
_chemical_formula_sum 'C19 H27 N1 O6'
_chemical_formula_moiety
;
C19 H27 N1 O6
;
_journal_coeditor_code "IUCr NA1319"
_journal_coden_Cambridge 591
_journal_volume 53
_journal_year 1997
_journal_page_first 1703
_journal_name_full 'Acta Crystallogr.,Sect.C:Cryst.Struct.Commun. '
loop_
_publ_author_name
"P.Merino"
"F.L.Merchan"
"T.Tejero"
"S.Franco"
_chemical_name_systematic
;
1-(N-Benzyl-N-hydroxyamino)-2:3;4:5-di-O-isopropylidene-\a-D-mannofuranose
;
_chemical_melting_point 389
_cell_volume   1890.940
_exptl_crystal_colour 'colorless'
_exptl_crystal_density_diffrn 1.284
_exptl_crystal_description 'block'
_diffrn_ambient_temperature 173
#These two values have been output from a single CSD field.
_refine_ls_R_factor_gt 0.069
_refine_ls_wR_factor_gt 0.069
_symmetry_cell_setting orthorhombic
_symmetry_space_group_name_H-M 'P 21 21 21'
_symmetry_Int_Tables_number 19
loop_
_symmetry_equiv_pos_site_id
_symmetry_equiv_pos_as_xyz
1 x,y,z
2 1/2-x,-y,1/2+z
3 -x,1/2+y,1/2-z
4 1/2+x,1/2-y,-z
_cell_length_a 5.470(1)
_cell_length_b 18.310(4)
_cell_length_c 18.880(4)
_cell_angle_alpha 90
_cell_angle_beta 90
_cell_angle_gamma 90
_cell_formula_units_Z 4
loop_
_atom_type_symbol
_atom_type_radius_bond
C 0.68
H 0.23
N 0.68
O 0.68
loop_
_atom_site_label
_atom_site_type_symbol
_atom_site_fract_x
_atom_site_fract_y
_atom_site_fract_z
N1 N -0.1514(7) 0.7317(2) 0.1900(2)
O1 O -0.2899(6) 0.7906(2) 0.1594(2)
H1 H -0.4398(8) 0.7829(23) 0.1654(39)
O2 O 0.2043(6) 0.8111(2) 0.1963(2)
O3 O 0.0070(7) 0.7852(2) 0.3620(2)
O4 O 0.2417(6) 0.8831(2) 0.3345(2)
O5 O 0.2827(7) 1.0073(2) 0.2121(2)
O6 O 0.5326(8) 1.0120(2) 0.1148(2)
C1 C 0.0343(8) 0.7641(2) 0.2343(3)
H2 H 0.1307(8) 0.7235(2) 0.2562(3)
C2 C -0.0733(9) 0.8103(2) 0.2946(2)
H3 H -0.2557(9) 0.8127(2) 0.2918(2)
C3 C 0.0423(9) 0.8858(3) 0.2853(2)
H4 H -0.0742(9) 0.9266(3) 0.2951(2)
C4 C 0.1368(9) 0.8856(3) 0.2097(2)
H5 H 0.0000(9) 0.8993(3) 0.1771(2)
C5 C 0.3532(9) 0.9346(3) 0.1948(3)
H6 H 0.4963(9) 0.9193(3) 0.2243(3)
C6 C 0.4274(11) 0.9412(3) 0.1184(3)
H7 H 0.5480(11) 0.9032(3) 0.1055(3)
H8 H 0.2839(11) 0.9371(3) 0.0867(3)
C7 C 0.3967(10) 1.0564(3) 0.1628(3)
C8 C 0.1552(9) 0.8410(3) 0.3931(2)
C9 C 0.5755(13) 1.1053(4) 0.2011(4)
H9 H 0.4868(13) 1.1366(4) 0.2345(4)
H10 H 0.6623(13) 1.1358(4) 0.1667(4)
H11 H 0.6935(13) 1.0752(4) 0.2271(4)
C10 C 0.1982(14) 1.0984(4) 0.1256(4)
H12 H 0.1091(14) 1.1282(4) 0.1602(4)
H13 H 0.0850(14) 1.0642(4) 0.1029(4)
H14 H 0.2711(14) 1.1303(4) 0.0896(4)
C11 C 0.0035(12) 0.8878(3) 0.4428(3)
H15 H -0.0539(12) 0.8580(3) 0.4826(3)
H16 H -0.1373(12) 0.9076(3) 0.4171(3)
H17 H 0.1039(12) 0.9281(3) 0.4608(3)
C12 C 0.3704(11) 0.8063(4) 0.4300(3)
H18 H 0.3125(11) 0.7774(4) 0.4703(3)
H19 H 0.4814(11) 0.8446(4) 0.4469(3)
H20 H 0.4574(11) 0.7745(4) 0.3967(3)
C13 C -0.0477(9) 0.6895(3) 0.1301(2)
H21 H 0.0815(9) 0.6563(3) 0.1479(2)
H22 H 0.0274(9) 0.7234(3) 0.0956(2)
C14 C -0.2454(9) 0.6454(3) 0.0941(2)
C15 C -0.3681(11) 0.6720(3) 0.0354(3)
H23 H -0.3241(11) 0.7181(3) 0.0162(3)
C16 C -0.5551(11) 0.6317(3) 0.0042(3)
H24 H -0.6391(11) 0.6509(3) -0.0358(3)
C17 C -0.6191(11) 0.5647(3) 0.0307(3)
H25 H -0.7469(11) 0.5375(3) 0.0092(3)
C18 C -0.4971(13) 0.5365(3) 0.0892(3)
H26 H -0.5410(13) 0.4901(3) 0.1078(3)
C19 C -0.3087(11) 0.5771(3) 0.1203(3)
H27 H -0.2231(11) 0.5576(3) 0.1598(3)
#END
