
#######################################################################
#
#                 Cambridge Crystallographic Data Centre
#                                CCDC
#
#######################################################################
#
# If this CIF has been generated from an entry in the Cambridge
# Structural Database, then it will include bibliographic, chemical,
# crystal, experimental, refinement or atomic coordinate data resulting
# from the CCDC's data processing and validation procedures.
#
#######################################################################

data_CSD_CIF_ROKZUM
_audit_creation_date 1998-01-15
_audit_creation_method CSD-ConQuest-V1
_database_code_CSD ROKZUM
_database_code_depnum_ccdc_archive 'CCDC 129265'
_chemical_formula_sum 'C11 H10 N2 O3'
_chemical_formula_moiety
;
C11 H10 N2 O3
;
_journal_coeditor_code "IUCr BK1319"
_journal_coden_Cambridge 591
_journal_volume 53
_journal_year 1997
_journal_page_first 1717
_journal_name_full 'Acta Crystallogr.,Sect.C:Cryst.Struct.Commun. '
loop_
_publ_author_name
"Kin-Shan Huang"
"J.G.Stowell"
"S.R.Byrn"
_chemical_name_systematic
;
3-(4-Nitroanilino)-2-cyclopenten-1-one
;
_chemical_melting_point 513
_cell_volume   1040.126
_exptl_crystal_colour 'yellow'
_exptl_crystal_density_diffrn 1.393
_exptl_crystal_description 'needle'
_diffrn_ambient_temperature ?
_diffrn_special_details
;
The study was carried out at room temperature,in the range 283-303K

;
#These two values have been output from a single CSD field.
_refine_ls_R_factor_gt 0.045
_refine_ls_wR_factor_gt 0.045
_symmetry_cell_setting monoclinic
_symmetry_space_group_name_H-M 'P 21/c'
_symmetry_Int_Tables_number 14
loop_
_symmetry_equiv_pos_site_id
_symmetry_equiv_pos_as_xyz
1 x,y,z
2 -x,1/2+y,1/2-z
3 -x,-y,-z
4 x,-1/2-y,-1/2+z
_cell_length_a 8.2725(7)
_cell_length_b 13.273(1)
_cell_length_c 9.5548(7)
_cell_angle_alpha 90
_cell_angle_beta 97.510(6)
_cell_angle_gamma 90
_cell_formula_units_Z 4
loop_
_atom_type_symbol
_atom_type_radius_bond
C 0.68
H 0.23
N 0.68
O 0.68
loop_
_atom_site_label
_atom_site_type_symbol
_atom_site_fract_x
_atom_site_fract_y
_atom_site_fract_z
O1 O 1.1632(2) 1.0213(2) 0.9481(2)
O2 O 1.1043(3) 1.1778(2) 0.9300(2)
O3 O 0.4924(3) 0.6940(1) 0.2404(2)
N1 N 0.6582(2) 1.0235(1) 0.3940(2)
N2 N 1.0910(3) 1.0919(2) 0.8878(2)
C1 C 0.7663(2) 1.0338(1) 0.5172(2)
C2 C 0.8086(3) 1.1321(2) 0.5587(2)
C3 C 0.9147(3) 1.1511(2) 0.6785(3)
C4 C 0.9795(2) 1.0720(2) 0.7583(2)
C5 C 0.9418(3) 0.9748(2) 0.7204(2)
C6 C 0.8344(3) 0.9552(2) 0.6001(2)
C7 C 0.5962(2) 0.9407(1) 0.3227(2)
C8 C 0.6108(3) 0.8414(1) 0.3513(2)
C9 C 0.5156(3) 0.7852(2) 0.2421(2)
C10 C 0.4432(3) 0.8562(1) 0.1281(2)
C11 C 0.4896(3) 0.9604(1) 0.1856(2)
H1 H 0.624(3) 1.080(2) 0.355(2)
H2 H 0.7641(3) 1.1857(2) 0.5041(2)
H3 H 0.9421(3) 1.2170(2) 0.7050(3)
H4 H 0.9882(3) 0.9218(2) 0.7754(2)
H5 H 0.8078(3) 0.8890(2) 0.5748(2)
H6 H 0.6731(3) 0.8137(1) 0.4299(2)
H7 H 0.3256(3) 0.8487(1) 0.1107(2)
H8 H 0.4881(3) 0.8440(1) 0.0409(2)
H9 H 0.5487(3) 0.9974(1) 0.1210(2)
H10 H 0.3935(3) 0.9985(1) 0.2011(2)
#END
