
#######################################################################
#
#                 Cambridge Crystallographic Data Centre
#                                CCDC
#
#######################################################################
#
# If this CIF has been generated from an entry in the Cambridge
# Structural Database, then it will include bibliographic, chemical,
# crystal, experimental, refinement or atomic coordinate data resulting
# from the CCDC's data processing and validation procedures.
#
#######################################################################

data_CSD_CIF_ROLVIZ
_audit_creation_date 2014-10-10
_audit_creation_method CSD-ConQuest-V1
_database_code_CSD ROLVIZ
_database_code_depnum_ccdc_archive 'CCDC 861650'
_chemical_formula_sum 'C9 H8 N2 O1'
_chemical_formula_moiety
;
C9 H8 N2 O1
;
_journal_coeditor_code "IUCr su2793"
_journal_coden_Cambridge 1370
_journal_volume 70
_journal_year 2014
_journal_page_first 322
_journal_name_full 'Acta Crystallogr.,Sect.E:Struct.Rep.Online '
loop_
_publ_author_name
"A.Rajapakse"
"R.Hillebrand"
"S.M.Lewis"
"Z.D.Parsons"
"C.L.Barnes"
"K.S.Gates"
_chemical_name_systematic
;
N-hydroxyquinolin-6-amine
;
_cell_volume   1578.827
_exptl_crystal_colour 'yellow'
_exptl_crystal_density_diffrn 1.348
_exptl_crystal_description 'Prism'
_diffrn_ambient_temperature 173
_diffrn_special_details
;
twin

;
#These two values have been output from a single CSD field.
_refine_ls_R_factor_gt 0.0742
_refine_ls_wR_factor_gt 0.0742
_symmetry_cell_setting triclinic
_symmetry_space_group_name_H-M 'P -1'
_symmetry_Int_Tables_number 2
loop_
_symmetry_equiv_pos_site_id
_symmetry_equiv_pos_as_xyz
1 x,y,z
2 -x,-y,-z
_cell_length_a 9.3730(15)
_cell_length_b 9.7117(16)
_cell_length_c 18.937(3)
_cell_angle_alpha 84.855(2)
_cell_angle_beta 83.043(2)
_cell_angle_gamma 67.477(2)
_cell_formula_units_Z 8
loop_
_atom_type_symbol
_atom_type_radius_bond
C 0.68
H 0.23
N 0.68
O 0.68
loop_
_atom_site_label
_atom_site_type_symbol
_atom_site_fract_x
_atom_site_fract_y
_atom_site_fract_z
O1 O 0.5904(3) 0.2741(3) 0.13946(17)
H1 H 0.57050 0.36260 0.12390
N1 N 0.0069(3) 0.1121(3) 0.12381(13)
C1 C -0.0514(3) 0.1592(4) 0.06231(16)
H2 H -0.13190 0.13010 0.05150
N2 N 0.4790(3) 0.2709(4) 0.19701(17)
C2 C -0.0015(3) 0.2493(4) 0.01207(16)
H3 H -0.04680 0.27990 -0.03180
C3 C 0.1137(3) 0.2929(3) 0.02709(15)
H4 H 0.14890 0.35470 -0.00630
C4 C 0.1803(3) 0.2457(3) 0.09231(14)
C5 C 0.3032(3) 0.2823(3) 0.11080(15)
H5 H 0.34410 0.34180 0.07870
C6 C 0.3633(3) 0.2317(3) 0.17532(15)
C7 C 0.3028(4) 0.1425(4) 0.22270(16)
H6 H 0.34330 0.10930 0.26750
C8 C 0.1871(4) 0.1032(4) 0.20521(16)
H7 H 0.14980 0.04100 0.23730
C9 C 0.1224(3) 0.1541(3) 0.13994(14)
H8 H 0.521(5) 0.215(4) 0.227(2)
O2 O 0.8871(3) 0.9329(3) 0.20442(14)
H9 H 0.93520 0.98520 0.18430
N3 N 0.5281(3) 0.5673(4) 0.1053(2)
C10 C 0.3984(5) 0.6582(5) 0.0806(3)
H10 H 0.32880 0.61610 0.06850
N4 N 0.9495(3) 0.7941(3) 0.17819(17)
C11 C 0.3559(5) 0.8113(5) 0.0709(4)
H11 H 0.25980 0.87120 0.05300
C12 C 0.4536(5) 0.8747(4) 0.0874(3)
H12 H 0.42780 0.97910 0.07950
C13 C 0.5933(3) 0.7849(4) 0.11611(18)
C14 C 0.6977(3) 0.8430(4) 0.13731(17)
H13 H 0.67240 0.94780 0.13540
C15 C 0.8354(3) 0.7477(4) 0.16065(16)
C16 C 0.8759(4) 0.5891(4) 0.16110(18)
H14 H 0.97530 0.52340 0.17370
C17 C 0.7744(4) 0.5321(4) 0.14376(18)
H15 H 0.80100 0.42710 0.14610
C18 C 0.6279(3) 0.6292(4) 0.12197(17)
H16 H 1.008(4) 0.742(4) 0.209(2)
O3 O 0.6927(4) -0.0383(4) 0.39244(18)
H17 H 0.61570 -0.06360 0.39750
N5 N 0.8919(3) 0.5060(3) 0.38596(13)
C19 C 0.8513(4) 0.5683(3) 0.44833(17)
H18 H 0.88990 0.64230 0.45630
N6 N 0.6800(4) 0.0668(3) 0.33013(15)
C20 C 0.7559(4) 0.5330(3) 0.50310(16)
H19 H 0.73040 0.58170 0.54680
C21 C 0.6997(3) 0.4265(3) 0.49252(15)
H20 H 0.63540 0.39990 0.52940
C22 C 0.7365(3) 0.3563(3) 0.42747(14)
C23 C 0.6859(3) 0.2431(3) 0.41290(15)
H21 H 0.62390 0.21040 0.44860
C24 C 0.7249(3) 0.1798(3) 0.34798(15)
C25 C 0.8151(4) 0.2316(3) 0.29446(15)
H22 H 0.83720 0.19240 0.24840
C26 C 0.8702(4) 0.3363(3) 0.30816(15)
H23 H 0.93450 0.36560 0.27230
C27 C 0.8333(3) 0.4017(3) 0.37463(14)
H24 H 0.748(4) 0.008(4) 0.301(2)
O4 O 0.1032(3) 0.5575(3) 0.28275(14)
H25 H 0.04520 0.54040 0.31690
N7 N 0.4155(3) 0.9499(3) 0.40248(15)
C28 C 0.3083(4) 1.0657(3) 0.43441(18)
H26 H 0.34110 1.13350 0.45450
N8 N 0.2499(4) 0.5174(4) 0.30317(17)
C29 C 0.1504(4) 1.0939(4) 0.4402(2)
H27 H 0.07830 1.17950 0.46340
C30 C 0.1000(4) 0.9987(4) 0.41264(18)
H28 H -0.00770 1.01710 0.41630
C31 C 0.2084(3) 0.8717(3) 0.37835(14)
C32 C 0.1665(4) 0.7640(3) 0.35065(15)
H29 H 0.06020 0.77810 0.35190
C33 C 0.2797(4) 0.6380(3) 0.32161(15)
C34 C 0.4385(4) 0.6209(4) 0.31648(18)
H30 H 0.51580 0.53560 0.29520
C35 C 0.4805(4) 0.7250(3) 0.34159(17)
H31 H 0.58670 0.71260 0.33730
C36 C 0.3671(3) 0.8519(3) 0.37414(15)
H32 H 0.315(5) 0.465(5) 0.269(2)
#END
