
#######################################################################
#
#                 Cambridge Crystallographic Data Centre
#                                CCDC
#
#######################################################################
#
# If this CIF has been generated from an entry in the Cambridge
# Structural Database, then it will include bibliographic, chemical,
# crystal, experimental, refinement or atomic coordinate data resulting
# from the CCDC's data processing and validation procedures.
#
#######################################################################

data_CSD_CIF_ROMCOM
_audit_creation_date 2009-03-24
_audit_creation_method CSD-ConQuest-V1
_database_code_CSD ROMCOM
_database_code_depnum_ccdc_archive 'CCDC 722042'
_chemical_formula_sum 'C13 H9 N3 O6'
_chemical_formula_moiety
;
C13 H9 N3 O6
;
_journal_coeditor_code "IUCr HG2463"
_journal_coden_Cambridge 1370
_journal_volume 65
_journal_year 2009
_journal_page_first o291
_journal_name_full 'Acta Crystallogr.,Sect.E:Struct.Rep.Online '
loop_
_publ_author_name
"Y.M.Hijji"
"B.Barare"
"R.J.Butcher"
"J.P.Jasinski"
_chemical_name_systematic
;
2-(((E)-(2-hydroxy-5-nitrophenyl)methylidene)ammonio)-4-nitrophenolate
;
_chemical_melting_point 591
_cell_volume   1297.113
_exptl_crystal_colour 'orange-brown'
_exptl_crystal_density_diffrn 1.553
_exptl_special_details
;
Melting point range 591-593K

;
_exptl_crystal_description 'prism'
_exptl_crystal_preparation 'ethanol'
_diffrn_ambient_temperature 296
_refine_special_details
;
A proton atom is disordered over two sites with occupancies of 0.64:0.34.

;
#These two values have been output from a single CSD field.
_refine_ls_R_factor_gt 0.0413
_refine_ls_wR_factor_gt 0.0413
_symmetry_cell_setting monoclinic
_symmetry_space_group_name_H-M 'P 21/c'
_symmetry_Int_Tables_number 14
loop_
_symmetry_equiv_pos_site_id
_symmetry_equiv_pos_as_xyz
1 x,y,z
2 -x,1/2+y,1/2-z
3 -x,-y,-z
4 x,-1/2-y,-1/2+z
_cell_length_a 7.9649(1)
_cell_length_b 8.6110(1)
_cell_length_c 19.1190(3)
_cell_angle_alpha 90
_cell_angle_beta 98.433(2)
_cell_angle_gamma 90
_cell_formula_units_Z 4
loop_
_atom_type_symbol
_atom_type_radius_bond
C 0.68
H 0.23
N 0.68
O 0.68
loop_
_atom_site_label
_atom_site_type_symbol
_atom_site_fract_x
_atom_site_fract_y
_atom_site_fract_z
O1 O 0.03590(18) 0.47993(15) 0.16546(7)
H1 H 0.00380 0.54170 0.19340
O2 O 0.11482(19) 0.12327(15) 0.24445(7)
H2? H 0.08210 0.07520 0.27690
O3 O 0.1437(2) 0.91245(18) -0.08314(9)
O4 O 0.32836(18) 0.73565(16) -0.09586(7)
O5 O 0.57970(19) -0.17153(18) 0.04796(7)
O6 O 0.5900(2) -0.35343(18) 0.12493(8)
N1 N 0.22628(18) 0.25045(16) 0.13638(7)
H3 H 0.15890 0.29150 0.16240
N2 N 0.2182(2) 0.79148(18) -0.06471(8)
N3 N 0.54401(19) -0.22526(18) 0.10334(8)
C1 C 0.0787(2) 0.5537(2) 0.11302(9)
C2 C 0.0151(2) 0.7055(2) 0.09352(10)
H4 H -0.05870 0.75350 0.12020
C3 C 0.0605(2) 0.7798(2) 0.03718(9)
H5 H 0.01730 0.87820 0.02530
C4 C 0.1732(2) 0.70949(19) -0.00398(9)
C5 C 0.2393(2) 0.56601(19) 0.01239(9)
H6 H 0.31390 0.52160 -0.01500
C6 C 0.1948(2) 0.48596(18) 0.07028(8)
C7 C 0.2629(2) 0.3352(2) 0.08516(9)
H7 H 0.33760 0.29560 0.05650
C8 C 0.2832(2) 0.09769(19) 0.15516(8)
C9 C 0.2213(2) 0.0350(2) 0.21425(8)
C10 C 0.2737(3) -0.1128(2) 0.23769(9)
H8 H 0.23480 -0.15510 0.27710
C11 C 0.3830(2) -0.1967(2) 0.20269(9)
H9 H 0.41960 -0.29470 0.21870
C12 C 0.4378(2) -0.1335(2) 0.14340(8)
C13 C 0.3896(2) 0.01318(19) 0.11899(8)
H10 H 0.42810 0.05390 0.07920
#END
