
#######################################################################
#
#                 Cambridge Crystallographic Data Centre
#                                CCDC
#
#######################################################################
#
# If this CIF has been generated from an entry in the Cambridge
# Structural Database, then it will include bibliographic, chemical,
# crystal, experimental, refinement or atomic coordinate data resulting
# from the CCDC's data processing and validation procedures.
#
#######################################################################

data_CSD_CIF_ROMNIR
_audit_creation_date 2009-03-24
_audit_creation_method CSD-ConQuest-V1
_database_code_CSD ROMNIR
_database_code_depnum_ccdc_archive 'CCDC 722246'
_chemical_formula_sum 'C18 H18 N4 O2'
_chemical_formula_moiety
;
C18 H18 N4 O2
;
_journal_coeditor_code "IUCr HK2611"
_journal_coden_Cambridge 1370
_journal_volume 65
_journal_year 2009
_journal_page_first o344
_journal_name_full 'Acta Crystallogr.,Sect.E:Struct.Rep.Online '
loop_
_publ_author_name
"Ran-zhe Lu"
"Lu-na Han"
"Min Zhang"
"Bin Wang"
"Hai-bo Wang"
_chemical_name_systematic
;
4-(4-(4-Nitrophenyldiazenyl)phenyl)hexanenitrile
;
_cell_volume   1630.550
_exptl_crystal_colour 'red'
_exptl_crystal_density_diffrn 1.313
_exptl_crystal_description 'block'
_exptl_crystal_preparation 'ethanol'
_diffrn_ambient_temperature 293
#These two values have been output from a single CSD field.
_refine_ls_R_factor_gt 0.0718
_refine_ls_wR_factor_gt 0.0718
_symmetry_cell_setting monoclinic
_symmetry_space_group_name_H-M 'P 21/c'
_symmetry_Int_Tables_number 14
loop_
_symmetry_equiv_pos_site_id
_symmetry_equiv_pos_as_xyz
1 x,y,z
2 -x,1/2+y,1/2-z
3 -x,-y,-z
4 x,-1/2-y,-1/2+z
_cell_length_a 20.113(4)
_cell_length_b 10.590(2)
_cell_length_c 7.6820(15)
_cell_angle_alpha 90
_cell_angle_beta 94.78(3)
_cell_angle_gamma 90
_cell_formula_units_Z 4
loop_
_atom_type_symbol
_atom_type_radius_bond
C 0.68
H 0.23
N 0.68
O 0.68
loop_
_atom_site_label
_atom_site_type_symbol
_atom_site_fract_x
_atom_site_fract_y
_atom_site_fract_z
N1 N 0.4653(3) -0.1899(5) 0.4255(7)
C1 C 0.4327(3) -0.1281(7) 0.4966(8)
O1 O -0.27421(18) 0.0779(4) 0.7659(5)
O2 O -0.25317(17) 0.2141(3) 0.9614(5)
N2 N 0.07709(17) 0.1393(3) 0.8661(4)
N3 N 0.03734(18) 0.0691(3) 0.7775(4)
N4 N -0.2356(2) 0.1355(4) 0.8566(6)
C2 C 0.3903(2) -0.0199(5) 0.5602(7)
H1 H 0.41420 0.05970 0.56070
H2 H 0.34930 -0.01130 0.48530
C3 C 0.3747(2) -0.0512(5) 0.7350(7)
H3 H 0.41430 -0.08220 0.80220
H4 H 0.34110 -0.11710 0.73090
C4 C 0.4104(3) 0.0772(6) 1.1039(8)
H5 H 0.44470 0.12280 1.17190
H6 H 0.42390 -0.00910 1.09200
H7 H 0.36980 0.08010 1.16130
C5 C 0.3989(2) 0.1368(5) 0.9246(7)
H8 H 0.38510 0.22400 0.93600
H9 H 0.44000 0.13580 0.86710
C6 C 0.3485(2) 0.0682(5) 0.8228(7)
H10 H 0.35200 0.12080 0.71900
C7 C 0.2832(2) 0.0858(4) 0.8230(6)
C8 C 0.2566(2) 0.1767(4) 0.9332(5)
H11 H 0.28570 0.22810 1.00170
C9 C 0.1910(2) 0.1910(4) 0.9421(5)
H12 H 0.17630 0.25210 1.01690
C10 C 0.1431(2) 0.1179(4) 0.8435(5)
C11 C 0.1685(2) 0.0266(4) 0.7336(5)
H13 H 0.13900 -0.02630 0.66870
C12 C 0.2337(2) 0.0142(4) 0.7206(5)
H14 H 0.24790 -0.04390 0.64080
C13 C -0.0292(2) 0.0918(4) 0.8074(5)
C14 C -0.0524(2) 0.1820(4) 0.9173(5)
H15 H -0.02230 0.23520 0.97980
C15 C -0.1198(2) 0.1937(4) 0.9352(6)
H16 H -0.13480 0.25400 1.01080
C16 C -0.1639(2) 0.1184(4) 0.8440(5)
C17 C -0.1442(2) 0.0243(4) 0.7373(6)
H17 H -0.17530 -0.02890 0.67830
C18 C -0.0770(2) 0.0112(4) 0.7203(5)
H18 H -0.06270 -0.05280 0.64930
#END
