
#######################################################################
#
#                 Cambridge Crystallographic Data Centre
#                                CCDC
#
#######################################################################
#
# If this CIF has been generated from an entry in the Cambridge
# Structural Database, then it will include bibliographic, chemical,
# crystal, experimental, refinement or atomic coordinate data resulting
# from the CCDC's data processing and validation procedures.
#
#######################################################################

data_CSD_CIF_ROMYEY
_audit_creation_date 2009-03-24
_audit_creation_method CSD-ConQuest-V1
_database_code_CSD ROMYEY
_database_code_depnum_ccdc_archive 'CCDC 723042'
_chemical_formula_sum 'C17 H24 N2 O6'
_chemical_formula_moiety
;
C17 H24 N2 O6
;
_journal_coeditor_code "IUCr HB2910"
_journal_coden_Cambridge 1370
_journal_volume 65
_journal_year 2009
_journal_page_first o558
_journal_name_full 'Acta Crystallogr.,Sect.E:Struct.Rep.Online '
loop_
_publ_author_name
"Min Zhang"
"Ran-Zhe Lu"
"Lu-Na Han"
"Wen-Bin Wei"
"Hai-Bo Wang"
_chemical_name_systematic
;
Methyl 5-methoxy-2-nitro-4-(3-(piperidin-1-yl)propoxy)benzoate
;
_cell_volume   1799.059
_exptl_crystal_colour 'yellow'
_exptl_crystal_density_diffrn 1.301
_exptl_crystal_description 'block'
_exptl_crystal_preparation 'methanol'
_diffrn_ambient_temperature 293
#These two values have been output from a single CSD field.
_refine_ls_R_factor_gt 0.0683
_refine_ls_wR_factor_gt 0.0683
_symmetry_cell_setting monoclinic
_symmetry_space_group_name_H-M 'P 21/n'
_symmetry_Int_Tables_number 14
loop_
_symmetry_equiv_pos_site_id
_symmetry_equiv_pos_as_xyz
1 x,y,z
2 1/2-x,1/2+y,1/2-z
3 -x,-y,-z
4 -1/2+x,-1/2-y,-1/2+z
_cell_length_a 10.073(2)
_cell_length_b 11.140(2)
_cell_length_c 16.161(3)
_cell_angle_alpha 90
_cell_angle_beta 97.23(3)
_cell_angle_gamma 90
_cell_formula_units_Z 4
loop_
_atom_type_symbol
_atom_type_radius_bond
C 0.68
H 0.23
N 0.68
O 0.68
loop_
_atom_site_label
_atom_site_type_symbol
_atom_site_fract_x
_atom_site_fract_y
_atom_site_fract_z
O1 O 1.0523(2) 0.3714(2) 0.40317(15)
O2 O 1.0082(3) 0.1757(2) 0.38640(16)
O3 O 0.7178(3) 0.5462(3) 0.32890(18)
O4 O 0.7681(3) 0.3835(3) 0.39767(17)
O5 O 0.8037(2) 0.4291(2) 0.03763(13)
O6 O 0.9697(2) 0.2550(2) 0.05972(14)
N1 N 0.7693(3) 0.4455(3) 0.33404(18)
N2 N 0.6436(2) 0.7187(2) -0.17424(16)
C1 C 1.1303(4) 0.3499(4) 0.4829(2)
H1 H 1.16460 0.42470 0.50610
H2 H 1.20350 0.29730 0.47560
H3 H 1.07480 0.31340 0.51990
C2 C 0.9964(3) 0.2764(3) 0.3627(2)
C3 C 0.9287(3) 0.3122(3) 0.27838(19)
C4 C 0.9752(3) 0.2621(3) 0.20979(19)
H4 H 1.03910 0.20150 0.21740
C5 C 0.9293(3) 0.2995(3) 0.13026(19)
C6 C 0.8349(3) 0.3941(3) 0.1185(2)
C7 C 0.7857(3) 0.4424(3) 0.18563(19)
H5 H 0.72290 0.50390 0.17820
C8 C 0.8291(3) 0.4000(3) 0.26530(19)
C9 C 1.0556(4) 0.1520(3) 0.0662(2)
H6 H 1.07620 0.13030 0.01180
H7 H 1.01120 0.08630 0.08960
H8 H 1.13680 0.17060 0.10160
C10 C 0.7202(3) 0.5334(3) 0.0212(2)
H9 H 0.75560 0.59990 0.05600
H10 H 0.63010 0.51650 0.03320
C11 C 0.7190(3) 0.5643(3) -0.0687(2)
H11 H 0.68790 0.49570 -0.10270
H12 H 0.80940 0.58270 -0.07960
C12 C 0.6288(3) 0.6713(3) -0.0931(2)
H13 H 0.53640 0.64740 -0.09220
H14 H 0.64880 0.73430 -0.05190
C13 C 0.5908(4) 0.6370(3) -0.2416(2)
H15 H 0.49570 0.62580 -0.24010
H16 H 0.63400 0.55950 -0.23260
C14 C 0.6130(5) 0.6835(4) -0.3253(2)
H17 H 0.57130 0.62940 -0.36790
H18 H 0.70830 0.68480 -0.32930
C15 C 0.5571(4) 0.8070(4) -0.3413(2)
H19 H 0.46020 0.80420 -0.34710
H20 H 0.58370 0.83820 -0.39280
C16 C 0.6085(4) 0.8881(3) -0.2698(2)
H21 H 0.56610 0.96610 -0.27790
H22 H 0.70410 0.89910 -0.26910
C17 C 0.5809(4) 0.8370(3) -0.1868(2)
H23 H 0.61630 0.89050 -0.14210
H24 H 0.48510 0.82990 -0.18600
#END
