
#######################################################################
#
#                 Cambridge Crystallographic Data Centre
#                                CCDC
#
#######################################################################
#
# If this CIF has been generated from an entry in the Cambridge
# Structural Database, then it will include bibliographic, chemical,
# crystal, experimental, refinement or atomic coordinate data resulting
# from the CCDC's data processing and validation procedures.
#
#######################################################################

data_CSD_CIF_ROQPAQ
_audit_creation_date 2014-10-14
_audit_creation_method CSD-ConQuest-V1
_database_code_CSD ROQPAQ
_database_code_depnum_ccdc_archive 'CCDC 997091'
_chemical_formula_sum 'C19 H22 N4 O6'
_chemical_formula_moiety
;
C19 H22 N4 O6
;
_journal_coden_Cambridge 1147
_journal_volume 14
_journal_year 2014
_journal_page_first 3975
_journal_name_full 'Cryst.Growth Des. '
loop_
_publ_author_name
"K.A.Krasnov"
"V.N.Khrustalev"
_chemical_name_systematic
;
1'-butyl-8-nitro-1,2,4,4a-tetrahydro-2'H,6H-spiro[1,4-oxazino[4,3-a]quinoline-
5,5'-pyrimidine]-2',4',6'(1'H,3'H)-trione
;
_cell_volume    939.357
_exptl_crystal_colour 'yellow'
_exptl_crystal_density_diffrn 1.423
_exptl_crystal_description 'prism'
_diffrn_ambient_temperature 100
#These two values have been output from a single CSD field.
_refine_ls_R_factor_gt 0.0397
_refine_ls_wR_factor_gt 0.0397
_symmetry_cell_setting triclinic
_symmetry_space_group_name_H-M 'P -1'
_symmetry_Int_Tables_number 2
loop_
_symmetry_equiv_pos_site_id
_symmetry_equiv_pos_as_xyz
1 x,y,z
2 -x,-y,-z
_cell_length_a 6.7833(3)
_cell_length_b 11.0656(5)
_cell_length_c 13.3501(6)
_cell_angle_alpha 70.288(1)
_cell_angle_beta 87.062(1)
_cell_angle_gamma 84.885(1)
_cell_formula_units_Z 2
loop_
_atom_type_symbol
_atom_type_radius_bond
C 0.68
H 0.23
N 0.68
O 0.68
loop_
_atom_site_label
_atom_site_type_symbol
_atom_site_fract_x
_atom_site_fract_y
_atom_site_fract_z
N1 N 0.28551(14) 0.61421(9) 0.54757(8)
C1 C 0.49154(17) 0.61374(11) 0.54850(9)
O1 O 0.58602(13) 0.55068(9) 0.62614(7)
N2 N 0.58116(15) 0.6864(1) 0.45597(8)
H1 H 0.705(2) 0.6832(15) 0.4574(12)
C2 C 0.49354(17) 0.74770(11) 0.35875(9)
O2 O 0.59494(13) 0.78222(9) 0.27811(7)
C3 C 0.26927(17) 0.76985(11) 0.36004(9)
C4 C 0.17153(17) 0.68533(11) 0.46215(9)
O3 O -0.00814(13) 0.68238(9) 0.46832(7)
C5 C 0.18508(18) 0.53728(11) 0.64693(9)
H2 H 0.27160 0.45950 0.68360
H3 H 0.06110 0.50890 0.62920
C6 C 0.1376(2) 0.61496(12) 0.72065(10)
H4 H 0.05260 0.69330 0.68340
H5 H 0.26190 0.64260 0.73880
C7 C 0.0316(2) 0.53749(13) 0.82321(11)
H6 H -0.01450 0.59570 0.86340
H7 H -0.08660 0.50400 0.80440
C8 C 0.1608(3) 0.42536(15) 0.89458(12)
H8 H 0.08710 0.38300 0.96040
H9 H 0.28040 0.45730 0.91170
H10 H 0.19800 0.36350 0.85770
C9 C 0.18571(18) 0.74230(11) 0.26543(9)
H11 H 0.24590 0.65840 0.26320
H12 H 0.04110 0.73580 0.27640
C10 C 0.22506(17) 0.84477(11) 0.16083(9)
C11 C 0.22586(18) 0.81381(12) 0.06867(10)
H13 H 0.21720 0.72700 0.07290
C12 C 0.23936(18) 0.90956(13) -0.03006(10)
N3 N 0.23515(17) 0.87415(12) -0.12518(9)
O4 O 0.21437(15) 0.95986(11) -0.21196(7)
O5 O 0.2523(2) 0.75891(11) -0.11519(9)
C13 C 0.25529(17) 1.03658(12) -0.03931(10)
H14 H 0.26090 1.10140 -0.10730
C14 C 0.26285(18) 1.06721(12) 0.05268(10)
H15 H 0.27550 1.15400 0.04720
C15 C 0.25215(17) 0.97263(11) 0.15434(9)
N4 N 0.27489(15) 1.00095(9) 0.24679(8)
C16 C 0.2607(2) 1.13695(12) 0.23916(10)
H16 H 0.12110 1.17220 0.22800
H17 H 0.34020 1.18610 0.17680
C17 C 0.3337(2) 1.15394(13) 0.33836(11)
H18 H 0.47720 1.12810 0.34520
H19 H 0.31380 1.24580 0.33230
O6 O 0.23047(15) 1.07817(9) 0.43086(7)
C18 C 0.2744(2) 0.94643(12) 0.44231(10)
H20 H 0.21110 0.89250 0.50890
H21 H 0.41930 0.92590 0.44830
C19 C 0.20258(18) 0.91304(11) 0.34835(9)
H22 H 0.05460 0.92300 0.34910
#END
