
#######################################################################
#
#                 Cambridge Crystallographic Data Centre
#                                CCDC
#
#######################################################################
#
# If this CIF has been generated from an entry in the Cambridge
# Structural Database, then it will include bibliographic, chemical,
# crystal, experimental, refinement or atomic coordinate data resulting
# from the CCDC's data processing and validation procedures.
#
#######################################################################

data_CSD_CIF_ROQWUP
_audit_creation_date 1998-01-27
_audit_creation_method CSD-ConQuest-V1
_database_code_CSD ROQWUP
_database_code_depnum_ccdc_archive 'CCDC 1252014'
_chemical_formula_sum 'C15 H25 N3 O3'
_chemical_formula_moiety
;
C15 H25 N3 O3
;
_journal_coden_Cambridge 692
_journal_year 1997
_journal_page_first 1049
_journal_name_full 'Synthesis '
loop_
_publ_author_name
"T.Kalai"
"J.Jeko"
"Z.Szabo"
"L.Parkanyi"
"K.Hideg"
_chemical_name_systematic
;
2-(1-oxanidyl-2,2,5,5-tetramethyl-2,5-dihydro-1H-pyrrol-3-yl)-4,4,5,5-tetramet
hyl-4,5-dihydro-1H-imidazol-3-ium-1-yloxanidyl 3-oxide diradical
;
_chemical_name_common
;
2-(1-oxyl-2,5-dihydro-2,2,5,5-tetramethyl-1H-pyrrol-3-yl)-4,4,5,5- 
tetramethyl-4,5-dihydro-1H-imidazol-1-yloxyl-3-oxide radical
;
_chemical_melting_point 443.15
_cell_volume    816.816
_exptl_crystal_colour 'dark green'
_exptl_crystal_density_diffrn 1.201
_exptl_crystal_description 'block'
_diffrn_ambient_temperature 293
#These two values have been output from a single CSD field.
_refine_ls_R_factor_gt 0.0461
_refine_ls_wR_factor_gt 0.0461
_symmetry_cell_setting triclinic
_symmetry_space_group_name_H-M 'P -1'
_symmetry_Int_Tables_number 2
loop_
_symmetry_equiv_pos_site_id
_symmetry_equiv_pos_as_xyz
1 x,y,z
2 -x,-y,-z
_cell_length_a 7.181(1)
_cell_length_b 11.032(2)
_cell_length_c 11.945(2)
_cell_angle_alpha 106.71(1)
_cell_angle_beta 105.93(1)
_cell_angle_gamma 104.02(1)
_cell_formula_units_Z 2
loop_
_atom_type_symbol
_atom_type_radius_bond
C 0.68
H 0.23
N 0.68
O 0.68
loop_
_atom_site_label
_atom_site_type_symbol
_atom_site_fract_x
_atom_site_fract_y
_atom_site_fract_z
O1 O -0.0920(2) 0.49231(13) 0.16033(15)
O2 O 0.6165(2) 0.61703(14) 0.34210(15)
O3 O 0.3007(3) 0.0769(2) 0.2389(2)
N1 N 0.1006(2) 0.55967(14) 0.20678(14)
C1 C 0.2559(2) 0.5169(2) 0.2541(2)
N2 N 0.4360(2) 0.61737(14) 0.29042(14)
C2 C 0.4077(3) 0.7319(2) 0.2523(2)
C3 C 0.1765(3) 0.7069(2) 0.2303(2)
C4 C 0.2220(3) 0.3845(2) 0.2604(2)
C5 C 0.0413(3) 0.3075(2) 0.2521(2)
H1 H -0.0758(3) 0.3353(2) 0.2502(2)
C6 C 0.0316(3) 0.1694(2) 0.2457(2)
N3 N 0.2357(2) 0.1747(2) 0.2411(2)
C7 C 0.3759(3) 0.3099(2) 0.2628(2)
C8 C 0.5563(3) 0.8652(2) 0.3568(2)
H2 H 0.6996(3) 0.8805(2) 0.3703(2)
H3 H 0.5208(3) 0.9380(2) 0.3391(2)
H4 H 0.5321(3) 0.8607(2) 0.4309(2)
C9 C 0.4574(4) 0.7116(3) 0.1340(2)
H5 H 0.3715(4) 0.6271(3) 0.0659(2)
H6 H 0.4348(4) 0.7844(3) 0.1103(2)
H7 H 0.5999(4) 0.7199(3) 0.1531(2)
C10 C 0.1367(4) 0.7787(2) 0.3458(2)
H8 H -0.0100(4) 0.7577(2) 0.3208(2)
H9 H 0.1843(4) 0.7469(2) 0.4113(2)
H10 H 0.2042(4) 0.8747(2) 0.3763(2)
C11 C 0.0572(3) 0.7304(2) 0.1170(2)
H11 H 0.0760(3) 0.6910(2) 0.0399(2)
H12 H -0.0843(3) 0.6908(2) 0.1064(2)
H13 H 0.0916(3) 0.8260(2) 0.1387(2)
C12 C -0.1384(4) 0.0588(2) 0.1269(2)
H14 H -0.1147(4) 0.0835(2) 0.0599(2)
H15 H -0.1223(4) -0.0269(2) 0.1186(2)
H16 H -0.2760(4) 0.0523(2) 0.1228(2)
C13 C 0.0122(4) 0.1466(2) 0.3630(2)
H17 H 0.1147(4) 0.2179(2) 0.4386(2)
H18 H -0.1230(4) 0.1416(2) 0.3632(2)
H19 H 0.0307(4) 0.0624(2) 0.3589(2)
C14 C 0.5534(3) 0.3579(2) 0.3883(2)
H20 H 0.6483(3) 0.4442(2) 0.4035(2)
H21 H 0.4969(3) 0.3668(2) 0.4532(2)
H22 H 0.6248(3) 0.2948(2) 0.3887(2)
C15 C 0.4518(3) 0.2997(2) 0.1549(2)
H23 H 0.3385(3) 0.2677(2) 0.0761(2)
H24 H 0.5474(3) 0.3846(2) 0.1674(2)
H25 H 0.5208(3) 0.2351(2) 0.1539(2)
#END
