
#######################################################################
#
#                 Cambridge Crystallographic Data Centre
#                                CCDC
#
#######################################################################
#
# If this CIF has been generated from an entry in the Cambridge
# Structural Database, then it will include bibliographic, chemical,
# crystal, experimental, refinement or atomic coordinate data resulting
# from the CCDC's data processing and validation procedures.
#
#######################################################################

data_CSD_CIF_ROQXAW
_audit_creation_date 1998-01-27
_audit_creation_method CSD-ConQuest-V1
_database_code_CSD ROQXAW
_database_code_depnum_ccdc_archive 'CCDC 1252015'
_chemical_formula_sum 'C15 H25 N3 O2'
_chemical_formula_moiety
;
C15 H25 N3 O2
;
_journal_coden_Cambridge 692
_journal_year 1997
_journal_page_first 1049
_journal_name_full 'Synthesis '
loop_
_publ_author_name
"T.Kalai"
"J.Jeko"
"Z.Szabo"
"L.Parkanyi"
"K.Hideg"
_chemical_name_systematic
;
2-(1-oxidanyl-2,2,5,5-tetramethyl-2,5-dihydro-1H-pyrrol-3-yl)-4,4,5,5-tetramet
hyl-4,5-dihydro-1H-imidazol-1-yloxidanyl diradical
;
_chemical_name_common
;
2-(1-oxyl-2,5-dihydro-2,2,5,5-tetramethyl-1H-pyrrol-3-yl)-4,4,5,5- 
tetramethyl-4,5-dihydro-1H-imidazol-yloxyl radical
;
_chemical_melting_point 430.15
_cell_volume   1617.851
_exptl_crystal_colour 'red'
_exptl_crystal_density_diffrn 1.147
_exptl_crystal_description 'block'
_diffrn_ambient_temperature 293
_refine_special_details
;
O1 and O1X are disordered with occupancies 0.898:0.102.

;
#These two values have been output from a single CSD field.
_refine_ls_R_factor_gt 0.0467
_refine_ls_wR_factor_gt 0.0467
_symmetry_cell_setting monoclinic
_symmetry_space_group_name_H-M 'P 21/c'
_symmetry_Int_Tables_number 14
loop_
_symmetry_equiv_pos_site_id
_symmetry_equiv_pos_as_xyz
1 x,y,z
2 -x,1/2+y,1/2-z
3 -x,-y,-z
4 x,-1/2-y,-1/2+z
_cell_length_a 6.206(1)
_cell_length_b 13.389(1)
_cell_length_c 19.523(1)
_cell_angle_alpha 90
_cell_angle_beta 94.20(1)
_cell_angle_gamma 90
_cell_formula_units_Z 4
loop_
_atom_type_symbol
_atom_type_radius_bond
C 0.68
H 0.23
N 0.68
O 0.68
loop_
_atom_site_label
_atom_site_type_symbol
_atom_site_fract_x
_atom_site_fract_y
_atom_site_fract_z
O1 O 0.2697(7) 0.0914(2) -0.04286(13)
O2 O 0.5733(3) 0.26005(12) 0.24803(7)
N1 N 0.1782(3) 0.17547(11) -0.03680(7)
C1 C 0.2060(3) 0.24028(12) 0.01870(8)
N2 N 0.1049(3) 0.32323(11) 0.00794(7)
C2 C 0.0058(3) 0.32439(14) -0.06377(9)
C3 C 0.0044(3) 0.21474(14) -0.08661(9)
C4 C 0.3345(3) 0.21424(12) 0.08192(8)
C5 C 0.4191(3) 0.12574(13) 0.09824(9)
H1 H 0.4006(3) 0.06821(13) 0.06905(9)
C6 C 0.5386(3) 0.12375(13) 0.16771(9)
N3 N 0.5009(3) 0.22677(11) 0.18985(7)
C7 C 0.3862(3) 0.29185(12) 0.13746(8)
C8 C -0.2141(4) 0.3732(2) -0.06555(13)
H2 H -0.2003(6) 0.4391(5) -0.0465(9)
H3 H -0.3078(10) 0.3341(7) -0.0391(8)
H4 H -0.2741(14) 0.3773(13) -0.11220(15)
C9 C 0.1526(5) 0.3898(2) -0.10375(14)
H5 H 0.2909(12) 0.3582(7) -0.1054(9)
H6 H 0.1704(25) 0.4535(5) -0.0815(6)
H7 H 0.0890(16) 0.3991(12) -0.1496(3)
C10 C -0.1993(5) 0.1582(2) -0.0715(2)
H8 H -0.1768(13) 0.0879(3) -0.0776(11)
H9 H -0.3174(9) 0.1801(12) -0.1024(8)
H10 H -0.2324(20) 0.1709(13) -0.0250(4)
C11 C 0.0599(5) 0.1943(2) -0.15927(11)
H11 H 0.0552(32) 0.1237(3) -0.1677(4)
H12 H 0.2024(15) 0.2189(14) -0.1655(3)
H13 H -0.0425(21) 0.2274(13) -0.19081(11)
C12 C 0.7800(4) 0.1055(2) 0.16331(14)
H14 H 0.8382(6) 0.1557(7) 0.1348(7)
H15 H 0.8017(4) 0.0408(5) 0.1438(8)
H16 H 0.8519(5) 0.1086(12) 0.2085(2)
C13 C 0.4415(5) 0.0509(2) 0.21658(11)
H17 H 0.2887(7) 0.0623(9) 0.2164(7)
H18 H 0.5071(22) 0.0608(9) 0.2622(2)
H19 H 0.4673(24) -0.0162(2) 0.2021(5)
C14 C 0.1912(3) 0.33850(14) 0.16771(9)
H20 H 0.0972(11) 0.28670(14) 0.1819(6)
H21 H 0.1148(12) 0.3795(8) 0.1337(2)
H22 H 0.2384(4) 0.3787(8) 0.2067(4)
C15 C 0.5405(3) 0.37232(14) 0.11529(10)
H23 H 0.6620(11) 0.34139(14) 0.0961(6)
H24 H 0.5900(17) 0.4117(6) 0.1544(2)
H25 H 0.4668(7) 0.4145(6) 0.0814(5)
O3? O 0.1539(41) 0.0753(12) -0.023(1)
#END
