
#######################################################################
#
#                 Cambridge Crystallographic Data Centre
#                                CCDC
#
#######################################################################
#
# If this CIF has been generated from an entry in the Cambridge
# Structural Database, then it will include bibliographic, chemical,
# crystal, experimental, refinement or atomic coordinate data resulting
# from the CCDC's data processing and validation procedures.
#
#######################################################################

data_CSD_CIF_RORVID
_audit_creation_date 1998-01-27
_audit_creation_method CSD-ConQuest-V1
_database_code_CSD RORVID
_database_code_depnum_ccdc_archive 'CCDC 1252089; CCDC 402488'
_database_code_depnum_ccdc_fiz 'CSD 402488'
_chemical_formula_sum 'C19 H26 N2 O4'
_chemical_formula_moiety
;
C19 H26 N2 O4
;
_journal_coden_Cambridge 643
_journal_volume 212
_journal_year 1997
_journal_page_first 323
_journal_name_full 'Z.Krist.Cryst.Mater. '
loop_
_publ_author_name
"P.Merino"
"A.Lanaspa"
"F.L.Merchan"
"T.Tejero"
_chemical_name_systematic
;
(1R,2S)-N-Benzyl-N-(2-(t-butoxycarbonylamino)-1-(furan-2-yl)-1-propyl)hydroxyl
amine
;
_chemical_melting_point 398
_cell_volume   1838.176
_exptl_crystal_colour 'colorless'
_exptl_crystal_density_diffrn 1.252
_exptl_crystal_description 'block'
_exptl_crystal_preparation 'diethyl ether/hexane'
_diffrn_ambient_temperature 173
#These two values have been output from a single CSD field.
_refine_ls_R_factor_gt 0.0735
_refine_ls_wR_factor_gt 0.0735
_symmetry_cell_setting orthorhombic
_symmetry_space_group_name_H-M 'P 21 21 21'
_symmetry_Int_Tables_number 19
loop_
_symmetry_equiv_pos_site_id
_symmetry_equiv_pos_as_xyz
1 x,y,z
2 1/2-x,-y,1/2+z
3 -x,1/2+y,1/2-z
4 1/2+x,1/2-y,-z
_cell_length_a 9.585(2)
_cell_length_b 10.463(2)
_cell_length_c 18.329(4)
_cell_angle_alpha 90
_cell_angle_beta 90
_cell_angle_gamma 90
_cell_formula_units_Z 4
loop_
_atom_type_symbol
_atom_type_radius_bond
C 0.68
H 0.23
N 0.68
O 0.68
loop_
_atom_site_label
_atom_site_type_symbol
_atom_site_fract_x
_atom_site_fract_y
_atom_site_fract_z
O1 O 0.5656(4) 0.4400(3) 0.2345(2)
O2 O 0.4674(4) 0.5469(3) 0.1057(2)
H1 H 0.5081(59) 0.5108(53) 0.1494(31)
N1 N 0.4656(4) 0.2564(4) 0.1921(2)
H2 H 0.4704(4) 0.1724(4) 0.1931(2)
N2 N 0.4986(4) 0.4294(4) 0.0666(2)
O3 O 0.5115(4) 0.1495(3) 0.0483(2)
O4 O 0.6670(3) 0.2446(3) 0.2492(2)
C1 C 0.3484(5) 0.3163(4) 0.1551(2)
H3 H 0.3301(5) 0.3999(4) 0.1798(2)
C2 C 0.4125(5) 0.5384(4) -0.0505(2)
C3 C 0.4002(4) 0.2273(4) 0.0293(2)
C4 C 0.3766(5) 0.6638(5) -0.0346(2)
H4 H 0.4242(5) 0.7081(5) 0.0032(2)
C5 C 0.7824(5) 0.2932(5) 0.2946(2)
C6 C 0.3766(4) 0.3445(5) 0.0740(2)
H5 H 0.2935(4) 0.3901(5) 0.0538(2)
C7 C 0.3435(5) 0.4789(5) -0.1081(2)
H6 H 0.3671(5) 0.3933(5) -0.1202(2)
C8 C 0.5675(5) 0.3247(5) 0.2251(2)
C9 C 0.5120(6) 0.0497(5) 0.0001(3)
H7 H 0.5784(6) -0.0177(5) -0.0002(3)
C10 C 0.5272(5) 0.4708(4) -0.0086(2)
H8 H 0.5547(5) 0.3943(4) -0.0369(2)
H9 H 0.6091(5) 0.5284(4) -0.0072(2)
C11 C 0.3321(5) 0.1756(5) -0.0274(3)
H10 H 0.2510(5) 0.2085(5) -0.0505(3)
C12 C 0.2043(6) 0.6636(5) -0.1298(3)
H11 H 0.1325(6) 0.7059(5) -0.1561(3)
C13 C 0.2725(6) 0.7248(5) -0.0730(3)
H12 H 0.2471(6) 0.8097(5) -0.0604(3)
C14 C 0.2196(5) 0.2346(5) 0.1644(3)
H13 H 0.2041(5) 0.2181(5) 0.2164(3)
H14 H 0.2326(5) 0.1533(5) 0.1387(3)
H15 H 0.1387(5) 0.2793(5) 0.1441(3)
C15 C 0.2425(6) 0.5402(5) -0.1477(3)
H16 H 0.1987(6) 0.4980(5) -0.1875(3)
C16 C 0.4059(6) 0.0607(5) -0.0465(3)
H17 H 0.3833(6) 0.0035(5) -0.0849(3)
C17 C 0.7238(6) 0.3500(6) 0.3641(3)
H18 H 0.6676(6) 0.2856(6) 0.3894(3)
H19 H 0.6652(6) 0.4238(6) 0.3521(3)
H20 H 0.8007(6) 0.3773(6) 0.3957(3)
C18 C 0.8703(6) 0.3869(6) 0.2524(3)
H21 H 0.8158(6) 0.4642(6) 0.2426(3)
H22 H 0.8992(6) 0.3481(6) 0.2061(3)
H23 H 0.9531(6) 0.4092(6) 0.2811(3)
C19 C 0.8643(6) 0.1731(6) 0.3104(4)
H24 H 0.8058(6) 0.1132(6) 0.3378(4)
H25 H 0.9471(6) 0.1946(6) 0.3392(4)
H26 H 0.8932(6) 0.1335(6) 0.2643(4)
#END
