
#######################################################################
#
#                 Cambridge Crystallographic Data Centre
#                                CCDC
#
#######################################################################
#
# If this CIF has been generated from an entry in the Cambridge
# Structural Database, then it will include bibliographic, chemical,
# crystal, experimental, refinement or atomic coordinate data resulting
# from the CCDC's data processing and validation procedures.
#
#######################################################################

data_CSD_CIF_ROSHIQ
_audit_creation_date 2001-11-22
_audit_creation_method CSD-ConQuest-V1
_database_code_CSD ROSHIQ
_database_code_depnum_ccdc_archive 'CCDC 147944'
_chemical_formula_sum 'C18 H24 N4 O2'
_chemical_formula_moiety
;
C18 H24 N4 O2
;
_journal_coden_Cambridge 9
_journal_volume 39
_journal_year 2000
_journal_page_first 2891
_journal_name_full 'Inorg.Chem. '
loop_
_publ_author_name
"A.Sakane"
"H.Kumada"
"S.Karasawa"
"N.Koga"
"H.Iwamura"
_chemical_name_systematic
;
4,4'-bis(N-t-butyl-N-oxyamino)-2,2'-bipyridine
;
_chemical_melting_point 434.15
_cell_volume    431.042
_exptl_crystal_colour 'orange'
_exptl_crystal_density_diffrn 1.273
_exptl_special_details
;
Melting point range 434.15-435.15K

;
_exptl_crystal_description 'prismatic'
_diffrn_ambient_temperature 298.2
#These two values have been output from a single CSD field.
_refine_ls_R_factor_gt 0.0463
_refine_ls_wR_factor_gt 0.0463
_symmetry_cell_setting triclinic
_symmetry_space_group_name_H-M 'P -1'
_symmetry_Int_Tables_number 2
loop_
_symmetry_equiv_pos_site_id
_symmetry_equiv_pos_as_xyz
1 x,y,z
2 -x,-y,-z
_cell_length_a 8.349(2)
_cell_length_b 9.068(2)
_cell_length_c 6.700(1)
_cell_angle_alpha 108.29(2)
_cell_angle_beta 109.18(2)
_cell_angle_gamma 100.57(2)
_cell_formula_units_Z 1
loop_
_atom_type_symbol
_atom_type_radius_bond
C 0.68
H 0.23
N 0.68
O 0.68
loop_
_atom_site_label
_atom_site_type_symbol
_atom_site_fract_x
_atom_site_fract_y
_atom_site_fract_z
O1 O 0.0646(3) 0.5232(3) 0.3513(4)
N1 N 0.0199(4) 0.3759(3) 0.3420(5)
N2 N -0.4765(4) 0.0711(3) -0.2138(5)
C1 C -0.4319(5) 0.0610(4) -0.0084(6)
C2 C -0.2703(4) 0.1563(4) 0.1789(6)
C3 C -0.1490(5) 0.2678(4) 0.1525(6)
C4 C -0.1944(5) 0.2807(4) -0.0578(6)
C5 C -0.3577(5) 0.1797(5) -0.2331(6)
C6 C 0.1692(5) 0.3086(4) 0.4218(7)
C7 C 0.1071(6) 0.1655(6) 0.476(1)
C8 C 0.3209(6) 0.4437(5) 0.6342(8)
C9 C 0.2276(7) 0.2554(7) 0.225(1)
H1 H -0.24280 0.14540 0.32190
H2 H -0.11510 0.35690 -0.08040
H3 H -0.38810 0.18850 -0.37770
H4 H 0.01220 0.08120 0.34050
H5 H 0.06650 0.19890 0.59390
H6 H 0.20380 0.12510 0.52540
H7 H 0.27980 0.48150 0.75140
H8 H 0.41600 0.40290 0.68790
H9 H 0.36200 0.53180 0.59640
H10 H 0.32220 0.21130 0.26720
H11 H 0.26730 0.34700 0.19340
H12 H 0.12910 0.17380 0.09060
C1A C -0.5681(5) -0.0610(4) 0.0084(6)
N2A N -0.5235(4) -0.0711(3) 0.2138(5)
C5A C -0.6423(5) -0.1797(5) 0.2331(6)
C4A C -0.8056(5) -0.2807(4) 0.0578(6)
C3A C -0.8510(5) -0.2678(4) -0.1525(6)
N1A N -1.0199(4) -0.3759(3) -0.3420(5)
O1A O -1.0646(3) -0.5232(3) -0.3513(4)
C6A C -1.1692(5) -0.3086(4) -0.4218(7)
C7A C -1.1071(6) -0.1655(6) -0.476(1)
H4A H -1.01220 -0.08120 -0.34050
H5A H -1.06650 -0.19890 -0.59390
H6A H -1.20380 -0.12510 -0.52540
C8A C -1.3209(6) -0.4437(5) -0.6342(8)
H7A H -1.27980 -0.48150 -0.75140
H8A H -1.41600 -0.40290 -0.68790
H9A H -1.36200 -0.53180 -0.59640
C9A C -1.2276(7) -0.2554(7) -0.225(1)
H10A H -1.32220 -0.21130 -0.26720
H11A H -1.26730 -0.34700 -0.19340
H12A H -1.12910 -0.17380 -0.09060
C2A C -0.7297(4) -0.1563(4) -0.1789(6)
H1A H -0.75720 -0.14540 -0.32190
H2A H -0.88490 -0.35690 0.08040
H3A H -0.61190 -0.18850 0.37770
#END
