
#######################################################################
#
#                 Cambridge Crystallographic Data Centre
#                                CCDC
#
#######################################################################
#
# If this CIF has been generated from an entry in the Cambridge
# Structural Database, then it will include bibliographic, chemical,
# crystal, experimental, refinement or atomic coordinate data resulting
# from the CCDC's data processing and validation procedures.
#
#######################################################################

data_CSD_CIF_ROTCEK
_audit_creation_date 2014-10-16
_audit_creation_method CSD-ConQuest-V1
_database_code_CSD ROTCEK
_database_code_depnum_ccdc_archive 'CCDC 1012318'
_chemical_formula_sum 'C29 H19 N3 O2'
_chemical_formula_moiety
;
C29 H19 N3 O2
;
_journal_coden_Cambridge 1500
_journal_volume 4
_journal_year 2014
_journal_page_first 51268
_journal_name_full 'RSC Advances '
loop_
_publ_author_name
"Weitao Gong"
"Peng Gao"
"Gang Li"
"H.Mehdi"
"Guiling Ning"
"Jingjie Yu"
_chemical_name_systematic
;
8-Nitro-1,3,4-triphenylpyrido[1,2-a]benzimidazole
;
_cell_volume   1103.327
_exptl_crystal_colour 'yellow'
_exptl_crystal_density_diffrn 1.329
_exptl_crystal_description 'block'
_diffrn_ambient_temperature 273
#These two values have been output from a single CSD field.
_refine_ls_R_factor_gt 0.0574
_refine_ls_wR_factor_gt 0.0574
_symmetry_cell_setting triclinic
_symmetry_space_group_name_H-M 'P -1'
_symmetry_Int_Tables_number 2
loop_
_symmetry_equiv_pos_site_id
_symmetry_equiv_pos_as_xyz
1 x,y,z
2 -x,-y,-z
_cell_length_a 7.9933(15)
_cell_length_b 11.481(2)
_cell_length_c 12.651(2)
_cell_angle_alpha 86.659(14)
_cell_angle_beta 72.316(13)
_cell_angle_gamma 86.751(14)
_cell_formula_units_Z 2
loop_
_atom_type_symbol
_atom_type_radius_bond
C 0.68
H 0.23
N 0.68
O 0.68
loop_
_atom_site_label
_atom_site_type_symbol
_atom_site_fract_x
_atom_site_fract_y
_atom_site_fract_z
C1 C -0.0907(3) 0.75285(18) 0.41914(17)
C2 C -0.1677(3) 0.82677(19) 0.50030(18)
H1 H -0.26310 0.87390 0.49410
C3 C -0.1093(3) 0.83615(18) 0.59584(17)
C4 C 0.0273(3) 0.76396(19) 0.60810(17)
C5 C 0.1042(3) 0.68010(18) 0.52585(17)
C6 C 0.2638(3) 0.54813(18) 0.42529(17)
C7 C 0.3855(3) 0.4575(2) 0.38212(18)
H2 H 0.45610 0.42310 0.42270
C8 C 0.3987(3) 0.4202(2) 0.27858(19)
H3 H 0.47670 0.35880 0.24900
C9 C 0.2947(3) 0.47460(19) 0.21809(17)
C10 C 0.1705(3) 0.56277(19) 0.25763(17)
H4 H 0.10270 0.59770 0.21550
C11 C 0.1534(3) 0.59589(18) 0.36396(17)
C12 C -0.1398(3) 0.74693(18) 0.31510(17)
C13 C -0.2369(3) 0.6570(2) 0.2982(2)
H5 H -0.27860 0.60020 0.35410
C14 C -0.2711(4) 0.6525(2) 0.1984(2)
H6 H -0.33730 0.59270 0.18760
C15 C -0.2093(4) 0.7340(2) 0.1152(2)
H7 H -0.23090 0.72870 0.04740
C16 C -0.1153(4) 0.8244(2) 0.1312(2)
H8 H -0.07520 0.88130 0.07500
C17 C -0.0804(3) 0.8304(2) 0.23102(18)
H9 H -0.01630 0.89130 0.24170
C18 C -0.2026(3) 0.92557(19) 0.67802(18)
C19 C -0.2576(3) 1.0336(2) 0.6409(2)
H10 H -0.23450 1.05010 0.56510
C20 C -0.3462(4) 1.1166(2) 0.7153(2)
H11 H -0.38430 1.18750 0.68930
C21 C -0.3779(4) 1.0944(2) 0.8275(2)
H12 H -0.43460 1.15100 0.87730
C22 C -0.3253(4) 0.9879(3) 0.8659(2)
H13 H -0.34710 0.97240 0.94170
C23 C -0.2402(3) 0.9043(2) 0.79146(19)
H14 H -0.20750 0.83220 0.81820
C24 C 0.1119(3) 0.77200(19) 0.69759(17)
C25 C 0.1993(4) 0.8706(2) 0.7037(2)
H15 H 0.20890 0.93090 0.65000
C26 C 0.2722(4) 0.8810(2) 0.7879(2)
H16 H 0.33330 0.94710 0.78960
C27 C 0.2557(4) 0.7951(3) 0.8688(2)
H17 H 0.30100 0.80380 0.92730
C28 C 0.1713(4) 0.6949(3) 0.8636(2)
H18 H 0.16080 0.63570 0.91830
C29 C 0.1026(3) 0.6827(2) 0.77757(19)
H19 H 0.04950 0.61390 0.77310
N1 N 0.0464(2) 0.67993(15) 0.43183(14)
N2 N 0.2335(3) 0.60158(15) 0.52391(15)
N3 N 0.3178(3) 0.43753(18) 0.10542(16)
O1 O 0.4210(3) 0.35651(18) 0.07084(16)
O2 O 0.2309(3) 0.48744(16) 0.05123(14)
#END
