
#######################################################################
#
#                 Cambridge Crystallographic Data Centre
#                                CCDC
#
#######################################################################
#
# If this CIF has been generated from an entry in the Cambridge
# Structural Database, then it will include bibliographic, chemical,
# crystal, experimental, refinement or atomic coordinate data resulting
# from the CCDC's data processing and validation procedures.
#
#######################################################################

data_CSD_CIF_ROVMAS
_audit_creation_date 2014-10-16
_audit_creation_method CSD-ConQuest-V1
_database_code_CSD ROVMAS
_database_code_depnum_ccdc_archive 'CCDC 1011693'
_chemical_formula_sum 'C30 H23 N5 O16'
_chemical_formula_moiety
;
C30 H23 N5 O16
;
_journal_coden_Cambridge 177
_journal_volume 12
_journal_year 2014
_journal_page_first 9324
_journal_name_full 'Org.Biomol.Chem. '
loop_
_publ_author_name
"J.A.S.Coelho"
"A.F.Trindade"
"V.Andre"
"M.Teresa Duarte"
"L.F.Veiros"
"C.A.M.Afonso"
_chemical_name_systematic
;
(5-(2-((3,5-dinitrobenzoyl)oxy)-2-(5-formyl-2-furyl)-1-(morpholin-4-yl)ethyl)-
2-furyl)methyl 3,5-dinitrobenzoate
;
_cell_volume   1566.122
_exptl_crystal_colour 'colorless'
_exptl_crystal_density_diffrn 1.505
_exptl_crystal_description 'block'
_diffrn_ambient_temperature 150
#These two values have been output from a single CSD field.
_refine_ls_R_factor_gt 0.0544
_refine_ls_wR_factor_gt 0.0544
_symmetry_cell_setting monoclinic
_symmetry_space_group_name_H-M 'P 21'
_symmetry_Int_Tables_number 4
loop_
_symmetry_equiv_pos_site_id
_symmetry_equiv_pos_as_xyz
1 x,y,z
2 -x,1/2+y,-z
_cell_length_a 6.462(3)
_cell_length_b 21.405(2)
_cell_length_c 11.722(4)
_cell_angle_alpha 90
_cell_angle_beta 105.001(1)
_cell_angle_gamma 90
_cell_formula_units_Z 2
loop_
_atom_type_symbol
_atom_type_radius_bond
C 0.68
H 0.23
N 0.68
O 0.68
loop_
_atom_site_label
_atom_site_type_symbol
_atom_site_fract_x
_atom_site_fract_y
_atom_site_fract_z
C1 C 0.0565(6) 0.20799(15) 0.7443(3)
C2 C 0.3482(5) 0.42239(15) 0.6712(3)
C3 C 0.3570(5) 0.50246(15) 0.3914(3)
C4 C 0.0695(5) 0.45729(15) 0.9019(3)
C5 C 0.7037(5) 0.62059(16) 0.7017(3)
H1 H 0.74600 0.58460 0.74610
C6 C 0.5348(6) 0.65607(16) 0.7178(3)
C7 C 0.2416(5) 0.37191(16) 1.0885(3)
H2 H 0.21150 0.41420 1.10920
H3 H 0.37870 0.37190 1.06910
C8 C 0.2756(5) 0.44536(15) 0.5482(3)
C9 C 0.0222(5) 0.45435(15) 0.3615(3)
C10 C 0.2460(5) 0.54537(15) 0.9569(3)
C11 C -0.0746(5) 0.49887(15) 0.9186(3)
H4 H -0.22030 0.49210 0.90890
C12 C 0.2266(5) 0.36585(14) 0.8188(3)
H5 H 0.36920 0.37810 0.86600
C13 C 0.8086(6) 0.63923(18) 0.6189(3)
C14 C 0.4210(5) 0.48126(15) 0.5052(3)
H6 H 0.55680 0.49030 0.55270
C15 C 0.4406(5) 0.58323(15) 0.9864(3)
H7 H 0.54930 0.56150 1.04570
H8 H 0.41030 0.62240 1.02060
C16 C 0.3757(6) 0.25404(16) 0.8076(3)
H9 H 0.52270 0.26090 0.83060
C17 C 0.2192(5) 0.29675(15) 0.8003(3)
C18 C 0.4663(7) 0.70861(16) 0.6474(3)
H10 H 0.34870 0.73180 0.65460
C19 C 0.0769(5) 0.43218(16) 0.4752(3)
H11 H -0.02010 0.40830 0.50290
C20 C 0.1630(5) 0.49036(15) 0.3166(3)
H12 H 0.12580 0.50530 0.23950
C21 C -0.1247(6) 0.16759(18) 0.7015(3)
H13 H -0.09430 0.12560 0.69310
C22 C 0.2684(6) 0.19606(16) 0.7726(3)
H14 H 0.33260 0.15740 0.76990
C23 C 0.0408(5) 0.55619(16) 0.9545(3)
H15 H -0.01650 0.59360 0.97260
C24 C 0.4240(6) 0.64204(15) 0.8119(3)
C25 C 0.2507(7) 0.32881(19) 1.1917(3)
H16 H 0.28900 0.28710 1.17190
H17 H 0.36130 0.34320 1.25940
C26 C -0.1079(7) 0.3054(2) 1.1238(4)
H18 H -0.24370 0.30370 1.14460
H19 H -0.07340 0.26340 1.10360
C27 C 0.5794(8) 0.72487(16) 0.5667(3)
C28 C 0.0565(5) 0.38800(14) 0.8794(3)
H20 H -0.08410 0.37930 0.82580
C29 C -0.1303(5) 0.34721(17) 1.0182(3)
H21 H -0.23940 0.33070 0.95200
H22 H -0.17400 0.38860 1.03600
C30 C 0.7527(7) 0.69213(18) 0.5509(3)
H23 H 0.82810 0.70490 0.49730
N1 N 0.9899(5) 0.6006(2) 0.6035(3)
N2 N 0.5146(11) 0.78293(17) 0.4968(4)
N3 N 0.5082(5) 0.54090(13) 0.3433(3)
N4 N 0.0744(4) 0.35086(12) 0.9871(2)
N5 N -0.1892(5) 0.44124(14) 0.2836(3)
O1 O 0.2697(3) 0.48352(9) 0.92542(19)
O2 O 0.5258(3) 0.59682(10) 0.8846(2)
O3 O 0.1816(3) 0.39621(10) 0.7048(2)
O4 O 0.0213(3) 0.27083(10) 0.7599(2)
O5 O 1.0300(5) 0.55206(16) 0.6585(3)
O6 O 1.0916(5) 0.62050(17) 0.5355(3)
O7 O 0.3440(9) 0.80632(17) 0.4982(3)
O8 O 0.6412(8) 0.80239(15) 0.4431(3)
O9 O 0.0523(5) 0.32641(12) 1.2219(2)
O10 O -0.3083(4) 0.40770(14) 0.3220(2)
O11 O -0.2376(4) 0.46465(13) 0.1855(2)
O12 O 0.6852(4) 0.55120(12) 0.4077(2)
O13 O 0.4481(4) 0.55821(12) 0.2417(2)
O14 O 0.2661(4) 0.66850(12) 0.8224(2)
O15 O 0.5257(4) 0.42619(12) 0.7323(2)
O16 O -0.3115(4) 0.18189(12) 0.6753(3)
#END
