
#######################################################################
#
#                 Cambridge Crystallographic Data Centre
#                                CCDC
#
#######################################################################
#
# If this CIF has been generated from an entry in the Cambridge
# Structural Database, then it will include bibliographic, chemical,
# crystal, experimental, refinement or atomic coordinate data resulting
# from the CCDC's data processing and validation procedures.
#
#######################################################################

data_CSD_CIF_ROVTON
_audit_creation_date 2015-03-11
_audit_creation_method CSD-ConQuest-V1
_database_code_CSD ROVTON
_database_code_depnum_ccdc_archive 'CCDC 973097'
_chemical_formula_sum 'C13 H15 N3 O2'
_chemical_formula_moiety
;
C13 H15 N3 O2
;
_journal_coden_Cambridge 16
_journal_volume 71
_journal_year 2015
_journal_page_first 2306
_journal_name_full 'Tetrahedron '
loop_
_publ_author_name
"Fu-Chao Yu"
"Xiao-Pan Hao"
"Rong Huang"
"Sheng-Jiao Yan"
"Jun Lin"
_chemical_name_systematic
;
1-(4-methylphenyl)-2-nitroso-2-(tetrahydropyrimidin-2(1H)-ylidene)ethanone
;
_cell_volume   1235.427
_exptl_crystal_colour 'red'
_exptl_crystal_density_diffrn 1.319
_exptl_crystal_description 'block'
_diffrn_ambient_temperature 298
#These two values have been output from a single CSD field.
_refine_ls_R_factor_gt 0.0606
_refine_ls_wR_factor_gt 0.0606
_symmetry_cell_setting monoclinic
_symmetry_space_group_name_H-M 'P 21/c'
_symmetry_Int_Tables_number 14
loop_
_symmetry_equiv_pos_site_id
_symmetry_equiv_pos_as_xyz
1 x,y,z
2 -x,1/2+y,1/2-z
3 -x,-y,-z
4 x,-1/2-y,-1/2+z
_cell_length_a 16.323(3)
_cell_length_b 6.6421(12)
_cell_length_c 12.123(2)
_cell_angle_alpha 90
_cell_angle_beta 109.958(2)
_cell_angle_gamma 90
_cell_formula_units_Z 4
loop_
_atom_type_symbol
_atom_type_radius_bond
C 0.68
H 0.23
N 0.68
O 0.68
loop_
_atom_site_label
_atom_site_type_symbol
_atom_site_fract_x
_atom_site_fract_y
_atom_site_fract_z
N1 N 0.31918(18) 0.4981(4) 0.6304(2)
H1 H 0.28370 0.41250 0.58550
N2 N 0.39914(17) 0.5958(4) 0.8160(2)
H2 H 0.41440 0.57360 0.89020
N3 N 0.34344(17) 0.2427(4) 0.9069(2)
O1 O 0.22429(17) 0.1628(4) 0.6128(2)
O2 O 0.40648(16) 0.3420(4) 0.9795(2)
C1 C 0.3473(3) 0.6693(5) 0.5753(3)
H3 H 0.35660 0.62460 0.50420
H4 H 0.30210 0.77130 0.55390
C2 C 0.4348(2) 0.7722(5) 0.7773(3)
H5 H 0.40390 0.89150 0.78780
H6 H 0.49570 0.78740 0.82510
C3 C 0.34492(18) 0.4683(4) 0.7441(3)
C4 C 0.31335(18) 0.2968(4) 0.7940(2)
C5 C 0.2438(2) 0.1661(4) 0.7200(3)
C6 C 0.19560(18) 0.0306(4) 0.7747(2)
C7 C 0.16499(19) 0.0954(5) 0.8623(3)
H7 H 0.17840 0.22410 0.89340
C8 C 0.1143(2) -0.0317(6) 0.9036(3)
H8 H 0.09290 0.01480 0.96090
C9 C 0.0949(2) -0.2272(5) 0.8612(3)
C10 C 0.1259(2) -0.2884(5) 0.7739(3)
H9 H 0.11380 -0.41830 0.74400
C11 C 0.1742(2) -0.1621(4) 0.7299(3)
H10 H 0.19270 -0.20640 0.66960
C12 C 0.0413(3) -0.3667(7) 0.9080(3)
H11 H 0.01010 -0.45990 0.84770
H12 H 0.00050 -0.28920 0.93180
H13 H 0.07910 -0.43960 0.97420
C13 C 0.4271(3) 0.7547(6) 0.6548(4)
H14 H 0.43400 0.88800 0.62640
H15 H 0.47530 0.67330 0.65070
#END
