
#######################################################################
#
#                 Cambridge Crystallographic Data Centre
#                                CCDC
#
#######################################################################
#
# If this CIF has been generated from an entry in the Cambridge
# Structural Database, then it will include bibliographic, chemical,
# crystal, experimental, refinement or atomic coordinate data resulting
# from the CCDC's data processing and validation procedures.
#
#######################################################################

data_CSD_CIF_ROXKIA
_audit_creation_date 2015-03-11
_audit_creation_method CSD-ConQuest-V1
_database_code_CSD ROXKIA
_database_code_depnum_ccdc_archive 'CCDC 995673'
_chemical_formula_sum 'C20 H24 N4 O2'
_chemical_formula_moiety
;
C20 H24 N4 O2
;
_journal_coden_Cambridge 1500
_journal_volume 5
_journal_year 2015
_journal_page_first 25806
_journal_name_full 'RSC Advances '
loop_
_publ_author_name
"J.Staron"
"D.Warszycki"
"J.Kalinowska-Tluscik"
"G.Satala"
"A.J.Bojarski"
_chemical_name_systematic
;
2-(5-(4-Methylpiperazin-1-yl)-2-nitrophenyl)-1,2,3,4-tetrahydroisoquinoline
;
_cell_volume   1762.750
_exptl_crystal_colour 'orange'
_exptl_crystal_density_diffrn 1.328
_exptl_special_details
;
5-HT!6$ receptor ligand activity

;
_exptl_crystal_description 'plate'
_exptl_crystal_preparation 'acetone'
_diffrn_ambient_temperature 110
#These two values have been output from a single CSD field.
_refine_ls_R_factor_gt 0.0385
_refine_ls_wR_factor_gt 0.0385
_symmetry_cell_setting monoclinic
_symmetry_space_group_name_H-M 'P 21/c'
_symmetry_Int_Tables_number 14
loop_
_symmetry_equiv_pos_site_id
_symmetry_equiv_pos_as_xyz
1 x,y,z
2 -x,1/2+y,1/2-z
3 -x,-y,-z
4 x,-1/2-y,-1/2+z
_cell_length_a 14.6428(3)
_cell_length_b 7.5669(1)
_cell_length_c 16.1976(3)
_cell_angle_alpha 90
_cell_angle_beta 100.828(2)
_cell_angle_gamma 90
_cell_formula_units_Z 4
loop_
_atom_type_symbol
_atom_type_radius_bond
C 0.68
H 0.23
N 0.68
O 0.68
loop_
_atom_site_label
_atom_site_type_symbol
_atom_site_fract_x
_atom_site_fract_y
_atom_site_fract_z
O1 O 0.25397(7) 0.03838(14) 0.58501(6)
N1 N 0.24337(7) 0.29203(14) 0.45361(7)
N2 N -0.08373(7) 0.35051(15) 0.33044(7)
N3 N 0.18341(8) 0.11209(15) 0.60006(7)
C1 C -0.01580(9) 0.31397(17) 0.39890(8)
C2 C 0.07999(9) 0.32656(17) 0.39585(8)
H1 H 0.09680 0.37330 0.34640
C3 C 0.15090(9) 0.27460(16) 0.46102(8)
C4 C 0.36515(9) 0.30521(17) 0.36814(8)
N4 N -0.22814(7) 0.42453(15) 0.18861(7)
C5 C -0.13597(9) 0.37004(18) 0.17738(8)
H2 H -0.12180 0.42550 0.12590
H3 H -0.13490 0.24020 0.17010
C6 C 0.12304(9) 0.20606(18) 0.53420(8)
C7 C -0.2986(1) 0.37980(19) 0.11542(9)
H4 H -0.28320 0.43660 0.06540
H5 H -0.35950 0.42140 0.12400
H6 H -0.30050 0.25130 0.10760
C8 C 0.43127(9) 0.27222(17) 0.44034(8)
C9 C -0.24931(9) 0.3420(2) 0.26388(9)
H7 H -0.24880 0.21190 0.25770
H8 H -0.31220 0.37800 0.27140
C10 C 0.26387(9) 0.33861(17) 0.37139(8)
H9 H 0.24930 0.46500 0.35980
H10 H 0.22410 0.26770 0.32730
C11 C 0.02955(10) 0.2087(2) 0.54084(9)
H11 H 0.01300 0.17290 0.59230
C12 C 0.40556(9) 0.28160(19) 0.52630(8)
H12 H 0.45350 0.34970 0.56460
H13 H 0.40400 0.16070 0.54940
C13 C 0.31148(9) 0.36869(18) 0.52235(8)
H14 H 0.29030 0.35110 0.57630
H15 H 0.31680 0.49730 0.51320
C14 C 0.52131(9) 0.22470(19) 0.43170(9)
H16 H 0.56660 0.20040 0.48060
C15 C -0.06252(9) 0.42262(19) 0.25209(8)
H17 H -0.00120 0.37840 0.24410
H18 H -0.05910 0.55310 0.25600
C16 C 0.48063(10) 0.2526(2) 0.28206(10)
H19 H 0.49750 0.24840 0.22830
C17 C 0.54574(10) 0.2124(2) 0.35386(10)
H20 H 0.60680 0.17670 0.34920
C18 C 0.39097(10) 0.2988(2) 0.28965(9)
H21 H 0.34650 0.32650 0.24070
C19 C -0.17905(9) 0.3958(2) 0.33975(9)
H22 H -0.18330 0.52490 0.34830
H23 H -0.19340 0.33590 0.39010
O2 O 0.16095(7) 0.10165(15) 0.67015(6)
C20 C -0.03855(9) 0.2603(2) 0.47685(9)
H24 H -0.10150 0.26070 0.48400
#END
