
#######################################################################
#
#                 Cambridge Crystallographic Data Centre
#                                CCDC
#
#######################################################################
#
# If this CIF has been generated from an entry in the Cambridge
# Structural Database, then it will include bibliographic, chemical,
# crystal, experimental, refinement or atomic coordinate data resulting
# from the CCDC's data processing and validation procedures.
#
#######################################################################

data_CSD_CIF_ROXKEW
_audit_creation_date 2015-03-11
_audit_creation_method CSD-ConQuest-V1
_database_code_CSD ROXKEW
_database_code_depnum_ccdc_archive 'CCDC 995672'
_chemical_formula_sum 'C19 H22 N4 O2'
_chemical_formula_moiety
;
C19 H22 N4 O2
;
_journal_coden_Cambridge 1500
_journal_volume 5
_journal_year 2015
_journal_page_first 25806
_journal_name_full 'RSC Advances '
loop_
_publ_author_name
"J.Staron"
"D.Warszycki"
"J.Kalinowska-Tluscik"
"G.Satala"
"A.J.Bojarski"
_chemical_name_systematic
;
2-[5-(4-Methylpiperazin-1-yl)-2-nitrophenyl]-2,3-dihydro-1H-isoindole
;
_cell_volume   1674.185
_exptl_crystal_colour 'orange'
_exptl_crystal_density_diffrn 1.343
_exptl_special_details
;
5-HT!6$ receptor ligand activity

;
_exptl_crystal_description 'prism'
_exptl_crystal_preparation 'acetone'
_diffrn_ambient_temperature 100
#These two values have been output from a single CSD field.
_refine_ls_R_factor_gt 0.0378
_refine_ls_wR_factor_gt 0.0378
_symmetry_cell_setting monoclinic
_symmetry_space_group_name_H-M 'P 21/c'
_symmetry_Int_Tables_number 14
loop_
_symmetry_equiv_pos_site_id
_symmetry_equiv_pos_as_xyz
1 x,y,z
2 -x,1/2+y,1/2-z
3 -x,-y,-z
4 x,-1/2-y,-1/2+z
_cell_length_a 9.2516(3)
_cell_length_b 18.4177(5)
_cell_length_c 12.6426(3)
_cell_angle_alpha 90
_cell_angle_beta 128.998(2)
_cell_angle_gamma 90
_cell_formula_units_Z 4
loop_
_atom_type_symbol
_atom_type_radius_bond
C 0.68
H 0.23
N 0.68
O 0.68
loop_
_atom_site_label
_atom_site_type_symbol
_atom_site_fract_x
_atom_site_fract_y
_atom_site_fract_z
O1 O 0.76415(11) 0.57053(4) 0.34491(9)
O2 O 0.77599(12) 0.68826(4) 0.34494(9)
N1 N 0.72049(13) 0.63095(5) 0.36002(10)
N2 N 0.16305(14) 0.66356(5) 0.69297(10)
N3 N 0.36698(13) 0.64753(5) 0.59267(10)
N4 N 0.39228(13) 0.53471(5) 0.25874(9)
C1 C 0.66428(16) 0.68795(6) 0.50099(12)
H1 H 0.75950 0.72100 0.52520
C2 C 0.60818(15) 0.63508(6) 0.40271(11)
C3 C 0.27133(15) 0.48007(6) 0.05267(11)
C4 C 0.24812(15) 0.48336(6) 0.22858(11)
H2 H 0.13780 0.50930 0.20550
H3 H 0.29680 0.45040 0.30630
C5 C 0.46212(15) 0.58604(6) 0.35983(11)
C6 C 0.10612(16) 0.37804(6) 0.05096(12)
H4 H 0.06000 0.35240 0.08940
C7 C 0.24541(16) 0.45342(7) -0.06120(12)
H5 H 0.29330 0.47890 -0.09850
C8 C 0.44241(15) 0.64498(6) 0.52671(11)
C9 C 0.37314(16) 0.54692(6) 0.13511(11)
H6 H 0.49620 0.55080 0.15710
H7 H 0.30030 0.59140 0.08660
C10 C 0.07806(16) 0.35156(6) -0.06423(12)
H8 H 0.01070 0.30770 -0.10530
C11 C 0.21829(16) 0.59671(6) 0.55232(12)
H9 H 0.24800 0.54800 0.53760
H10 H 0.10000 0.61300 0.46550
C12 C 0.20286(15) 0.44267(6) 0.10802(11)
C13 C 0.34692(18) 0.71812(6) 0.63593(13)
H11 H 0.23710 0.74370 0.55640
H12 H 0.45820 0.74820 0.67270
C14 C 0.58632(16) 0.69365(6) 0.56379(11)
H13 H 0.62820 0.72970 0.63120
C15 C 0.38314(15) 0.59341(6) 0.42499(11)
H14 H 0.28440 0.56170 0.39860
C16 C 0.32421(16) 0.70888(6) 0.74375(12)
H15 H 0.43750 0.68620 0.82570
H16 H 0.30830 0.75710 0.77000
C17 C 0.14761(16) 0.38859(7) -0.11950(12)
H17 H 0.12850 0.36970 -0.19740
C18 C 0.19545(17) 0.59218(6) 0.66104(12)
H18 H 0.08940 0.55990 0.62910
H19 H 0.30890 0.57060 0.74460
C19 C 0.1373(2) 0.65729(7) 0.79500(13)
H20 H 0.02860 0.62680 0.75960
H21 H 0.11770 0.70560 0.81640
H22 H 0.24810 0.63520 0.87770
#END
