
#######################################################################
#
#                 Cambridge Crystallographic Data Centre
#                                CCDC
#
#######################################################################
#
# If this CIF has been generated from an entry in the Cambridge
# Structural Database, then it will include bibliographic, chemical,
# crystal, experimental, refinement or atomic coordinate data resulting
# from the CCDC's data processing and validation procedures.
#
#######################################################################

data_CSD_CIF_ROXSUU
_audit_creation_date 2015-03-11
_audit_creation_method CSD-ConQuest-V1
_database_code_CSD ROXSUU
_database_code_depnum_ccdc_archive 'CCDC 995671'
_chemical_formula_sum 'C18 H22 N4 O2'
_chemical_formula_moiety
;
C18 H22 N4 O2
;
_journal_coden_Cambridge 1500
_journal_volume 5
_journal_year 2015
_journal_page_first 25806
_journal_name_full 'RSC Advances '
loop_
_publ_author_name
"J.Staron"
"D.Warszycki"
"J.Kalinowska-Tluscik"
"G.Satala"
"A.J.Bojarski"
_chemical_name_systematic
;
N-benzyl-5-(4-methylpiperazin-1-yl)-2-nitroaniline
;
_cell_volume   1652.179
_exptl_crystal_colour 'orange'
_exptl_crystal_density_diffrn 1.312
_exptl_crystal_description 'plate'
_exptl_crystal_preparation 'acetone/n-hexane'
_diffrn_ambient_temperature 100
#These two values have been output from a single CSD field.
_refine_ls_R_factor_gt 0.0469
_refine_ls_wR_factor_gt 0.0469
_symmetry_cell_setting monoclinic
_symmetry_space_group_name_H-M 'P 21/c'
_symmetry_Int_Tables_number 14
loop_
_symmetry_equiv_pos_site_id
_symmetry_equiv_pos_as_xyz
1 x,y,z
2 -x,1/2+y,1/2-z
3 -x,-y,-z
4 x,-1/2-y,-1/2+z
_cell_length_a 14.8320(4)
_cell_length_b 4.8941(2)
_cell_length_c 23.9340(7)
_cell_angle_alpha 90
_cell_angle_beta 108.015(2)
_cell_angle_gamma 90
_cell_formula_units_Z 4
loop_
_atom_type_symbol
_atom_type_radius_bond
C 0.68
H 0.23
N 0.68
O 0.68
loop_
_atom_site_label
_atom_site_type_symbol
_atom_site_fract_x
_atom_site_fract_y
_atom_site_fract_z
O1 O -0.04386(7) 0.2526(2) 0.01672(4)
O2 O -0.12087(7) 0.5929(2) 0.03823(4)
N1 N 0.11651(8) 0.0838(2) 0.09251(5)
C1 C 0.19853(9) -0.0951(3) 0.11084(6)
H1 H 0.19440 -0.22910 0.07920
H2 H 0.19640 -0.19810 0.14600
C2 C 0.09242(9) 0.2619(3) 0.12866(6)
N2 N -0.05408(7) 0.4277(2) 0.05213(5)
C3 C 0.04941(9) 0.6412(3) 0.20668(6)
H3 H 0.03500 0.76990 0.23240
N3 N 0.32672(8) 0.6521(2) 0.39174(5)
C4 C 0.29322(9) 0.0517(3) 0.12512(6)
N4 N 0.18672(7) 0.4770(2) 0.28592(5)
C5 C 0.01147(9) 0.4360(3) 0.11019(5)
C6 C 0.12934(9) 0.4663(3) 0.22735(5)
C7 C -0.00668(9) 0.6227(3) 0.14939(6)
H4 H -0.05980 0.74100 0.13590
C8 C 0.14907(9) 0.2843(3) 0.18797(5)
H5 H 0.20320 0.16980 0.20160
C9 C 0.34005(10) 0.3990(3) 0.36339(6)
H6 H 0.31620 0.24340 0.38120
H7 H 0.40850 0.36960 0.36950
C10 C 0.16825(9) 0.7007(3) 0.32170(6)
H8 H 0.10010 0.70170 0.31840
H9 H 0.18310 0.87690 0.30620
C11 C 0.30835(10) 0.2569(3) 0.08876(6)
H10 H 0.25850 0.30970 0.05480
C12 C 0.2263(1) 0.6755(3) 0.38574(6)
H11 H 0.21580 0.83810 0.40750
H12 H 0.20560 0.51220 0.40290
C13 C 0.46975(10) 0.3087(3) 0.15141(6)
H13 H 0.52970 0.39620 0.16030
C14 C 0.28748(9) 0.4106(3) 0.29812(6)
H14 H 0.31740 0.55010 0.27960
H15 H 0.29320 0.23160 0.28020
C15 C 0.36737(9) -0.0225(3) 0.17465(6)
H16 H 0.35780 -0.16180 0.19990
C16 C 0.45506(10) 0.1048(3) 0.18760(6)
H17 H 0.50510 0.05160 0.22140
C17 C 0.39614(10) 0.3849(3) 0.10198(7)
H18 H 0.40590 0.52540 0.07710
C18 C 0.38434(11) 0.6559(4) 0.45341(6)
H19 H 0.37400 0.82810 0.47140
H20 H 0.45150 0.63970 0.45620
H21 H 0.36630 0.50240 0.47400
H22 H 0.0770(11) 0.076(4) 0.0564(8)
#END
