
#######################################################################
#
#                 Cambridge Crystallographic Data Centre
#                                CCDC
#
#######################################################################
#
# If this CIF has been generated from an entry in the Cambridge
# Structural Database, then it will include bibliographic, chemical,
# crystal, experimental, refinement or atomic coordinate data resulting
# from the CCDC's data processing and validation procedures.
#
#######################################################################

data_CSD_CIF_ROYVIM
_audit_creation_date 2015-03-11
_audit_creation_method CSD-ConQuest-V1
_database_code_CSD ROYVIM
_database_code_depnum_ccdc_archive 'CCDC 864055'
_chemical_formula_sum 'C25 H23 N3 O4'
_chemical_formula_moiety
;
C25 H23 N3 O4
;
_journal_coden_Cambridge 1839
_journal_volume 4
_journal_year 2014
_journal_page_first 197
_journal_name_full 'J.Pharm.Anal. '
loop_
_publ_author_name
"Jian Shen"
"Jiping Yang"
"W.Heyse"
"H.Schweitzer"
"N.Nagel"
"D.Andert"
"Chengyue Zhu"
"V.Morrison"
"G.A.Nemeth"
"Teng-Man Chen"
"Zhicheng Zhao"
"T.A.Ayers"
"Yong-Mi Choi"
_chemical_name_systematic
;
Methyl 
(R,R)-2-(3-cyanobenzyl)-3-((4-(1-hydroxy-1\l^5^-pyridin-4-yl)benzoyl)amino)but
anoate
;
_cell_volume   2187.472
_exptl_crystal_colour 'colorless'
_exptl_crystal_density_diffrn 1.304
_exptl_special_details
;
Absolute configuration

;
_exptl_crystal_description 'needle'
_exptl_crystal_preparation 'ethyl acetate/diethyl ether'
_diffrn_ambient_temperature 293
_refine_special_details
;
O01,O02 and O011,O021 disordered over two sites with occupancies 0.50:0.50.

;
#These two values have been output from a single CSD field.
_refine_ls_R_factor_gt 0.0309
_refine_ls_wR_factor_gt 0.0309
_symmetry_cell_setting monoclinic
_symmetry_space_group_name_H-M 'C 2'
_symmetry_Int_Tables_number 5
loop_
_symmetry_equiv_pos_site_id
_symmetry_equiv_pos_as_xyz
1 x,y,z
2 -x,y,-z
3 1/2+x,1/2+y,z
4 1/2-x,1/2+y,-z
_cell_length_a 26.1795(7)
_cell_length_b 5.2642(2)
_cell_length_c 16.1978(5)
_cell_angle_alpha 90
_cell_angle_beta 101.500(2)
_cell_angle_gamma 90
_cell_formula_units_Z 4
loop_
_atom_type_symbol
_atom_type_radius_bond
C 0.68
H 0.23
N 0.68
O 0.68
loop_
_atom_site_label
_atom_site_type_symbol
_atom_site_fract_x
_atom_site_fract_y
_atom_site_fract_z
O1 O 0.5286(8) 0.124(5) -0.3301(14)
O2 O 0.5008(8) 0.471(3) -0.4041(9)
O3 O 0.45955(6) 0.0205(3) -0.11617(9)
O4 O 0.18009(8) 0.3296(5) 0.24797(13)
C1 C 0.49998(10) 0.3327(5) -0.34876(14)
N1 N 0.32544(14) 0.6745(7) -0.67932(18)
N2 N 0.46746(6) 0.4419(4) -0.1347(1)
N3 N 0.21760(8) 0.3338(4) 0.20723(12)
C2 C 0.46562(8) 0.3678(4) -0.28537(12)
C3 C 0.42470(9) 0.5745(5) -0.31500(14)
C4 C 0.38277(8) 0.4789(5) -0.38612(13)
C5 C 0.37628(9) 0.5761(5) -0.46609(15)
C6 C 0.33779(10) 0.4811(5) -0.53093(15)
C7 C 0.30604(10) 0.2809(6) -0.5158(2)
C8 C 0.31234(11) 0.1864(7) -0.4365(2)
C9 C 0.35002(10) 0.2823(6) -0.37156(18)
C10 C 0.56064(15) 0.0615(9) -0.3937(2)
H1 H 0.57620 -0.10280 -0.38150
H2 H 0.58750 0.18680 -0.39160
H3 H 0.53880 0.06010 -0.44890
C11 C 0.50040(8) 0.4135(4) -0.19721(12)
C12 C 0.53712(10) 0.6369(5) -0.19276(15)
C13 C 0.33090(12) 0.5877(7) -0.61395(19)
C14 C 0.44819(8) 0.2398(4) -0.10082(12)
C15 C 0.41195(7) 0.2887(4) -0.04218(12)
C16 C 0.41080(8) 0.1121(5) 0.02117(13)
C17 C 0.37526(8) 0.1330(5) 0.07309(13)
C18 C 0.33848(7) 0.3257(4) 0.06316(11)
C19 C 0.34065(8) 0.5047(4) 0.00056(13)
C20 C 0.37681(8) 0.4877(4) -0.05086(13)
C21 C 0.29781(7) 0.3349(4) 0.11499(11)
C22 C 0.29475(9) 0.1523(5) 0.17666(15)
C23 C 0.25546(10) 0.1569(5) 0.22123(15)
C24 C 0.21993(9) 0.5136(5) 0.14898(15)
C25 C 0.25848(8) 0.5149(5) 0.10345(13)
H4 H 0.4589(8) 0.599(5) -0.1224(12)
H5 H 0.4487(6) 0.213(4) -0.2839(10)
H6 H 0.4072(8) 0.627(5) -0.2669(13)
H7 H 0.4423(9) 0.730(5) -0.3312(14)
H8 H 0.3997(9) 0.715(6) -0.4781(15)
H9 H 0.2792(12) 0.203(7) -0.5609(19)
H10 H 0.2898(12) 0.060(7) -0.4214(18)
H11 H 0.3543(9) 0.221(5) -0.3120(15)
H12 H 0.5192(8) 0.267(4) -0.1808(12)
H13 H 0.5619(8) 0.600(5) -0.2301(14)
H14 H 0.5573(10) 0.655(6) -0.1344(16)
H15 H 0.5187(10) 0.794(6) -0.2074(16)
H16 H 0.4351(9) -0.015(6) 0.0293(14)
H17 H 0.3762(8) 0.005(5) 0.1136(13)
H18 H 0.3154(8) 0.645(5) -0.0099(12)
H19 H 0.3755(8) 0.600(5) -0.0932(12)
H20 H 0.3209(10) 0.012(5) 0.1902(15)
H21 H 0.2537(8) 0.028(5) 0.2657(13)
H22 H 0.1928(10) 0.640(6) 0.1444(15)
H23 H 0.2560(8) 0.638(5) 0.0635(13)
O5? O 0.5179(13) 0.108(4) -0.351(2)
O6? O 0.513(1) 0.489(2) -0.3952(10)
#END
