
#######################################################################
#
#                 Cambridge Crystallographic Data Centre
#                                CCDC
#
#######################################################################
#
# If this CIF has been generated from an entry in the Cambridge
# Structural Database, then it will include bibliographic, chemical,
# crystal, experimental, refinement or atomic coordinate data resulting
# from the CCDC's data processing and validation procedures.
#
#######################################################################

data_CSD_CIF_ROZMOJ
_audit_creation_date 2010-01-21
_audit_creation_method CSD-ConQuest-V1
_database_code_CSD ROZMOJ
_database_code_depnum_ccdc_archive 'CCDC 715910'
_chemical_formula_sum 'C25 H23 N1 O3'
_chemical_formula_moiety
;
C25 H23 N1 O3
;
_journal_coden_Cambridge 179
_journal_volume 48
_journal_year 2009
_journal_page_first 3288
_journal_name_full 'Angew.Chem.,Int.Ed. '
loop_
_publ_author_name
"H.Andersson"
"M.Gustafsson"
"D.Bostrom"
"R.Olsson"
"F.Almqvist"
_chemical_name_systematic
;
4-(Benzyloxy)-3-(hydroxy(phenyl)methyl)-2-phenyl-2,3-dihydropyridine 1-oxide
;
_cell_volume   1997.127
_exptl_crystal_colour 'colorless'
_exptl_crystal_density_diffrn 1.282
_exptl_special_details
;
Cell parameters for this structure are published associated with the other 
structure in the paper
;
_exptl_crystal_description 'prism'
_diffrn_ambient_temperature 150
#These two values have been output from a single CSD field.
_refine_ls_R_factor_gt 0.0663
_refine_ls_wR_factor_gt 0.0663
_symmetry_cell_setting triclinic
_symmetry_space_group_name_H-M 'P -1'
_symmetry_Int_Tables_number 2
loop_
_symmetry_equiv_pos_site_id
_symmetry_equiv_pos_as_xyz
1 x,y,z
2 -x,-y,-z
_cell_length_a 12.6060(2)
_cell_length_b 12.7430(2)
_cell_length_c 13.5770(2)
_cell_angle_alpha 80.5110(8)
_cell_angle_beta 88.3720(8)
_cell_angle_gamma 68.2780(8)
_cell_formula_units_Z 4
loop_
_atom_type_symbol
_atom_type_radius_bond
C 0.68
H 0.23
N 0.68
O 0.68
loop_
_atom_site_label
_atom_site_type_symbol
_atom_site_fract_x
_atom_site_fract_y
_atom_site_fract_z
O1 O 0.02885(12) 0.07113(11) 0.72345(10)
C1 C -0.02596(15) 0.25474(15) 0.77307(13)
H1 H -0.07710 0.22600 0.81210
N1 N -0.02002(13) 0.41311(13) 0.64472(11)
O2 O -0.03829(13) 0.52363(11) 0.62900(11)
C2 C 0.02707(15) 0.17831(15) 0.69714(14)
C3 C -0.20352(16) 0.38485(16) 0.66792(15)
O3 O 0.01786(15) 0.31910(13) 0.92194(11)
H2 H -0.04260 0.38580 0.89880
C4 C -0.09331(15) 0.37603(15) 0.71817(13)
H3 H -0.11480 0.42590 0.76720
C5 C 0.05485(16) 0.33980(16) 0.59766(14)
H4 H 0.10170 0.36490 0.54980
C6 C 0.06745(17) 0.25406(17) 0.84578(14)
H5 H 0.11620 0.28700 0.80790
C7 C 0.13713(17) 0.13383(18) 0.89648(15)
C8 C -0.22097(18) 0.40395(18) 0.56534(16)
H6 H -0.16330 0.41580 0.52230
C9 C 0.08297(17) -0.12338(17) 0.69940(15)
C10 C 0.07118(16) 0.22017(16) 0.61525(14)
H7 H 0.11260 0.17020 0.57000
C11 C 0.07819(18) -0.16107(18) 0.80075(16)
H8 H 0.08380 -0.11520 0.84840
C12 C 0.09798(18) 0.08560(19) 0.98219(15)
H9 H 0.02640 0.12850 1.00850
C13 C -0.28989(19) 0.37173(19) 0.72912(17)
H10 H -0.27990 0.36080 0.80040
C14 C 0.06512(19) -0.29546(19) 0.66377(18)
H11 H 0.06250 -0.34310 0.61680
C15 C 0.09551(19) -0.01089(17) 0.66256(16)
H12 H 0.17430 -0.01970 0.66710
H13 H 0.06800 0.01590 0.59430
C16 C 0.07671(18) -0.19105(18) 0.63087(16)
H14 H 0.08010 -0.16520 0.56080
C17 C 0.0658(2) -0.26591(19) 0.83316(17)
H15 H 0.06240 -0.29190 0.90320
C18 C 0.05894(19) -0.33214(18) 0.76413(19)
H16 H 0.04870 -0.40330 0.78610
C19 C 0.24003(19) 0.0687(2) 0.85882(18)
H17 H 0.26790 0.10040 0.79930
C20 C -0.3901(2) 0.3738(2) 0.6883(2)
H18 H -0.44880 0.36430 0.73120
C21 C -0.3219(2) 0.4063(2) 0.52454(19)
H19 H -0.33330 0.41960 0.45330
C22 C 0.1603(2) -0.0242(2) 1.03039(18)
H20 H 0.13280 -0.05570 1.09030
C23 C -0.4055(2) 0.3905(2) 0.5853(2)
H21 H -0.47400 0.38990 0.55670
C24 C 0.2620(2) -0.0881(2) 0.9929(2)
H22 H 0.30500 -0.16440 1.02590
C25 C 0.3017(2) -0.0422(2) 0.9067(2)
H23 H 0.37250 -0.08660 0.88010
O4 O 0.43949(12) 0.03157(12) 0.22919(10)
O5 O 0.17806(15) 0.48128(14) 0.10263(12)
C26 C 0.34658(17) 0.22003(17) 0.26742(14)
H24 H 0.41500 0.19430 0.30860
C27 C 0.24677(18) 0.22176(19) 0.33783(15)
H25 H 0.17690 0.24830 0.29850
C28 C 0.26739(17) 0.10372(19) 0.39530(15)
C29 C 0.32629(18) 0.33996(18) 0.20859(15)
H26 H 0.30100 0.39260 0.25510
N2 N 0.23642(15) 0.37086(16) 0.12905(13)
C30 C 0.22389(19) 0.2920(2) 0.08584(16)
H27 H 0.16480 0.31260 0.03520
C31 C 0.29649(18) 0.1727(2) 0.11164(15)
H28 H 0.29720 0.11950 0.06890
O6 O 0.23811(15) 0.29972(14) 0.40428(12)
H29 H 0.17320 0.35680 0.38700
C32 C 0.4449(2) -0.05609(19) 0.17230(17)
H30 H 0.37250 -0.06490 0.17300
H31 H 0.46270 -0.03400 0.10470
C33 C 0.36211(16) 0.13732(18) 0.19628(15)
C34 C 0.56317(18) -0.19422(19) 0.31942(16)
H32 H 0.52240 -0.14150 0.36290
C35 C 0.43531(18) 0.35027(17) 0.16486(17)
C36 C 0.6485(2) -0.2972(2) 0.35846(18)
H33 H 0.66760 -0.31550 0.42880
C37 C 0.53665(18) -0.16642(18) 0.21762(15)
C38 C 0.7064(2) -0.3749(2) 0.29629(19)
H34 H 0.76560 -0.44610 0.32370
C39 C 0.5955(2) -0.2444(2) 0.15546(17)
H35 H 0.57770 -0.22590 0.08490
C40 C 0.6791(2) -0.3483(2) 0.19465(19)
H36 H 0.71810 -0.40240 0.15170
C41 C 0.33597(18) 0.0636(2) 0.48211(16)
H37 H 0.36750 0.11240 0.50720
C42 C 0.4542(2) 0.36164(18) 0.06299(17)
H38 H 0.39600 0.36550 0.01700
C43 C 0.22203(19) 0.0309(2) 0.36142(18)
H39 H 0.17370 0.05720 0.30200
C44 C 0.5202(2) 0.3472(2) 0.2298(2)
H40 H 0.50800 0.34170 0.30030
C45 C 0.5562(2) 0.3681(2) 0.0279(2)
H41 H 0.56920 0.37540 -0.04250
C46 C 0.3593(2) -0.0459(2) 0.53396(18)
H42 H 0.40680 -0.07210 0.59380
C47 C 0.2460(2) -0.0795(2) 0.4132(2)
H43 H 0.21500 -0.12940 0.38920
C48 C 0.3145(2) -0.1177(2) 0.4999(2)
H44 H 0.33120 -0.19370 0.53610
C49 C 0.6221(2) 0.3531(2) 0.1941(2)
H45 H 0.68040 0.34880 0.24030
C50 C 0.6403(2) 0.3639(2) 0.0924(2)
H46 H 0.71030 0.36860 0.06670
#END
