
#######################################################################
#
#                 Cambridge Crystallographic Data Centre
#                                CCDC
#
#######################################################################
#
# If this CIF has been generated from an entry in the Cambridge
# Structural Database, then it will include bibliographic, chemical,
# crystal, experimental, refinement or atomic coordinate data resulting
# from the CCDC's data processing and validation procedures.
#
#######################################################################

data_CSD_CIF_RTMPRO
_audit_creation_date 1975-08-29
_audit_creation_method CSD-ConQuest-V1
_database_code_CSD RTMPRO
_chemical_formula_sum 'C9 H17 N2 O2'
_chemical_formula_moiety
;
C9 H17 N2 O2
;
_journal_coeditor_code "IUCr A12173"
_journal_coden_Cambridge 107
_journal_volume 31
_journal_year 1975
_journal_page_first 1430
_journal_name_full 'Acta Crystallogr.,Sect.B:Struct.Crystallogr.Cryst.Chem. '
loop_
_publ_author_name
"B.Chion"
"J.Lajzerowicz"
_chemical_name_systematic
;
rac-2,2,5,5-Tetramethyl-pyrrolidine-3-carboxamide 1-oxyl
;
_cell_volume   2162.491
_exptl_crystal_density_diffrn 1.14
_exptl_special_details
;
x(C2') (C(2B)) is 0.9799, not 0.7799

;
_diffrn_ambient_temperature ?
_diffrn_special_details
;
The study was carried out at room temperature,in the range 283-303K

;
#These two values have been output from a single CSD field.
_refine_ls_R_factor_gt 0.07
_refine_ls_wR_factor_gt 0.07
loop_
_citation_database_id_CSD
_citation_special_details
TMPYRO "is a stereoisomer of this entry"
_symmetry_cell_setting monoclinic
_symmetry_space_group_name_H-M 'P 21/c'
_symmetry_Int_Tables_number 14
loop_
_symmetry_equiv_pos_site_id
_symmetry_equiv_pos_as_xyz
1 x,y,z
2 -x,1/2+y,1/2-z
3 -x,-y,-z
4 x,-1/2-y,-1/2+z
_cell_length_a 7.983(2)
_cell_length_b 10.840(3)
_cell_length_c 25.349(5)
_cell_angle_alpha 90
_cell_angle_beta 99.66(1)
_cell_angle_gamma 90
_cell_formula_units_Z 8
loop_
_atom_type_symbol
_atom_type_radius_bond
C 0.68
H 0.23
N 0.68
O 0.68
loop_
_atom_site_label
_atom_site_type_symbol
_atom_site_fract_x
_atom_site_fract_y
_atom_site_fract_z
C1 C 0.27100 0.25850 0.18230
C2 C 0.07210 0.23110 0.42550
C3 C 0.17020 0.18290 0.21580
C4 C 0.15820 0.36030 0.15320
C5 C 0.65240 0.38440 0.17510
C6 C 0.70120 0.25000 0.25590
C7 C 0.36050 0.18640 0.14340
C8 C -0.02010 0.12740 0.45000
C9 C 0.22000 0.28150 0.46510
C10 C 0.12790 0.19380 0.37310
C11 C -0.36100 0.27270 0.39550
C12 C -0.25270 0.41580 0.47130
C13 C 0.53110 0.16020 0.17280
C14 C -0.15280 0.19290 0.47760
C15 C 0.58400 0.28060 0.20490
C16 C -0.21520 0.30350 0.44040
C17 C 0.66690 0.11830 0.14070
C18 C -0.29720 0.10610 0.48630
H1 H 0.13300 0.25000 0.24100
H2 H 0.25000 0.36700 0.45000
H3 H 0.81700 0.21700 0.25000
H4 H -0.28400 0.48300 0.44900
H5 H 0.72500 0.33000 0.28200
H6 H -0.33400 0.39900 0.49100
H7 H 0.64500 0.17600 0.27800
H8 H -0.13400 0.44900 0.49100
H9 H 0.29200 0.09900 0.13100
H10 H 0.07100 0.07600 0.47900
H11 H 0.37200 0.24500 0.10800
H12 H -0.08500 0.06700 0.41700
H13 H 0.51200 0.08700 0.20100
H14 H -0.08700 0.19300 0.51900
H15 H 0.86600 0.00000 0.15000
H16 H -0.47500 0.06900 0.53400
H17 H 0.73300 0.00000 0.20000
H18 H -0.33400 0.20500 0.55300
H19 H 0.25800 0.11800 0.24100
H20 H 0.21600 0.30000 0.50800
H21 H 0.05800 0.14000 0.19200
H22 H 0.31600 0.20000 0.46700
H23 H 0.08300 0.39100 0.17000
H24 H 0.03300 0.16700 0.34200
H25 H 0.23700 0.44200 0.14400
H26 H 0.18300 0.26700 0.35800
H27 H 0.09300 0.33200 0.11300
H28 H 0.21600 0.13300 0.38300
H29 H 0.66700 0.46700 0.20000
H30 H -0.33400 0.19900 0.37400
H31 H 0.77400 0.36300 0.16300
H32 H -0.38400 0.36600 0.37400
H33 H 0.55900 0.40800 0.13800
H34 H -0.46700 0.26600 0.41600
N1 N 0.41460 0.31680 0.21600
N2 N -0.06100 0.32470 0.41540
N3 N 0.74970 0.01880 0.16030
N4 N -0.36930 0.13000 0.52840
O1 O 0.39760 0.39890 0.24990
O2 O -0.04710 0.42120 0.38760
O3 O 0.69780 0.16830 0.10110
O4 O -0.34030 0.01920 0.45610
#END
