
#######################################################################
#
#                 Cambridge Crystallographic Data Centre
#                                CCDC
#
#######################################################################
#
# If this CIF has been generated from an entry in the Cambridge
# Structural Database, then it will include bibliographic, chemical,
# crystal, experimental, refinement or atomic coordinate data resulting
# from the CCDC's data processing and validation procedures.
#
#######################################################################

data_CSD_CIF_RUBHON
_audit_creation_date 2015-03-12
_audit_creation_method CSD-ConQuest-V1
_database_code_CSD RUBHON
_database_code_depnum_ccdc_archive 'CCDC 1048200'
_chemical_formula_sum 'C50 H40 N6 O6'
_chemical_formula_moiety
;
C50 H40 N6 O6
;
_journal_coden_Cambridge 1500
_journal_volume 5
_journal_year 2015
_journal_page_first 25642
_journal_name_full 'RSC Advances '
loop_
_publ_author_name
"H.Behbehani"
"H.M.Ibrahim"
"K.M.Dawood"
_chemical_name_systematic
;
Bis-[1'-phenyl-4'-(4-nitrophenyl)-1-oxo-spiro-benzosuberane-2,5'-pyrazoline]
;
_cell_volume   2025.869
_exptl_crystal_colour 'yellow'
_exptl_crystal_density_diffrn 1.346
_exptl_crystal_description 'Block'
_diffrn_ambient_temperature 293
#These two values have been output from a single CSD field.
_refine_ls_R_factor_gt 0.0664
_refine_ls_wR_factor_gt 0.0664
_symmetry_cell_setting monoclinic
_symmetry_space_group_name_H-M 'P 21/c'
_symmetry_Int_Tables_number 14
loop_
_symmetry_equiv_pos_site_id
_symmetry_equiv_pos_as_xyz
1 x,y,z
2 -x,1/2+y,1/2-z
3 -x,-y,-z
4 x,-1/2-y,-1/2+z
_cell_length_a 13.204(5)
_cell_length_b 9.770(4)
_cell_length_c 16.496(6)
_cell_angle_alpha 90
_cell_angle_beta 107.826(8)
_cell_angle_gamma 90
_cell_formula_units_Z 2
loop_
_atom_type_symbol
_atom_type_radius_bond
C 0.68
H 0.23
N 0.68
O 0.68
loop_
_atom_site_label
_atom_site_type_symbol
_atom_site_fract_x
_atom_site_fract_y
_atom_site_fract_z
O1 O -0.5009(3) 0.7036(5) 0.1779(3)
O2 O -0.4693(3) 0.4899(6) 0.1687(3)
O3 O 0.16002(18) 0.7851(3) 0.54937(16)
N1 N 0.1222(2) 0.6088(3) 0.39932(18)
N2 N 0.1043(2) 0.5101(3) 0.45399(18)
N3 N -0.4441(3) 0.6043(6) 0.1976(3)
C1 C 0.0207(3) 0.5446(4) 0.4743(2)
C2 C -0.0286(3) 0.6795(4) 0.4375(2)
C3 C 0.0607(3) 0.7381(4) 0.4043(2)
C4 C -0.1378(3) 0.6591(4) 0.3723(2)
C5 C -0.2173(3) 0.7550(5) 0.3664(3)
C6 C -0.3173(3) 0.7386(5) 0.3078(3)
C7 C -0.3370(3) 0.6232(6) 0.2587(3)
C8 C -0.2615(3) 0.5250(5) 0.2642(3)
C9 C -0.1613(3) 0.5437(5) 0.3216(3)
C10 C 0.1375(3) 0.8263(4) 0.4761(3)
C11 C 0.1851(3) 0.9558(4) 0.4568(3)
C12 C 0.2942(3) 0.9753(5) 0.4905(3)
C13 C 0.3395(4) 1.0963(5) 0.4771(3)
C14 C 0.2760(4) 1.1997(5) 0.4324(3)
C15 C 0.1662(4) 1.1818(5) 0.4002(3)
C16 C 0.1204(3) 1.0583(4) 0.4109(3)
C17 C 0.0003(3) 1.0372(4) 0.3784(3)
C18 C -0.0344(3) 0.9363(4) 0.3048(3)
C19 C 0.0310(3) 0.8054(4) 0.3172(2)
C20 C 0.2321(3) 0.6195(4) 0.4012(3)
C21 C 0.2542(3) 0.6424(5) 0.3251(3)
C22 C 0.3580(4) 0.6587(5) 0.3258(4)
C23 C 0.4394(4) 0.6527(6) 0.4009(5)
C24 C 0.4178(4) 0.6296(5) 0.4755(4)
C25 C 0.3146(3) 0.6104(4) 0.4771(3)
H1 H -0.03600 0.73780 0.48380
H2 H -0.20340 0.83090 0.40210
H3 H -0.36970 0.80470 0.30210
H4 H -0.27720 0.44730 0.23010
H5 H -0.10910 0.47780 0.32610
H6 H 0.33670 0.90620 0.52230
H7 H 0.41280 1.10830 0.49810
H8 H 0.30650 1.28200 0.42370
H9 H 0.12350 1.25310 0.37140
H10 H -0.02380 1.00420 0.42490
H11 H -0.03390 1.12460 0.36010
H12 H -0.03040 0.98150 0.25350
H13 H -0.10820 0.91220 0.29610
H14 H -0.00830 0.73910 0.27560
H15 H 0.09630 0.82530 0.30410
H16 H 0.19910 0.64670 0.27400
H17 H 0.37300 0.67400 0.27510
H18 H 0.50940 0.66420 0.40100
H19 H 0.47340 0.62680 0.52630
H20 H 0.30080 0.59180 0.52800
O1B O 0.5009(3) 0.2964(5) 0.8221(3)
O2B O 0.4693(3) 0.5101(6) 0.8313(3)
O3B O -0.16002(18) 0.2149(3) 0.45063(16)
N1B N -0.1222(2) 0.3912(3) 0.60068(18)
N2B N -0.1043(2) 0.4899(3) 0.54601(18)
N3B N 0.4441(3) 0.3957(6) 0.8024(3)
C1B C -0.0207(3) 0.4554(4) 0.5257(2)
C2B C 0.0286(3) 0.3205(4) 0.5625(2)
C3B C -0.0607(3) 0.2619(4) 0.5957(2)
C4B C 0.1378(3) 0.3409(4) 0.6277(2)
C5B C 0.2173(3) 0.2450(5) 0.6336(3)
C6B C 0.3173(3) 0.2614(5) 0.6922(3)
C7B C 0.3370(3) 0.3768(6) 0.7413(3)
C8B C 0.2615(3) 0.4750(5) 0.7358(3)
C9B C 0.1613(3) 0.4563(5) 0.6784(3)
C10B C -0.1375(3) 0.1737(4) 0.5239(3)
C11B C -0.1851(3) 0.0442(4) 0.5432(3)
C12B C -0.2942(3) 0.0247(5) 0.5095(3)
C13B C -0.3395(4) -0.0963(5) 0.5229(3)
C14B C -0.2760(4) -0.1997(5) 0.5676(3)
C15B C -0.1662(4) -0.1818(5) 0.5998(3)
C16B C -0.1204(3) -0.0583(4) 0.5891(3)
C17B C -0.0003(3) -0.0372(4) 0.6216(3)
C18B C 0.0344(3) 0.0637(4) 0.6952(3)
C19B C -0.0310(3) 0.1946(4) 0.6828(2)
C20B C -0.2321(3) 0.3805(4) 0.5988(3)
C21B C -0.2542(3) 0.3576(5) 0.6749(3)
C22B C -0.3580(4) 0.3413(5) 0.6742(4)
C23B C -0.4394(4) 0.3473(6) 0.5991(5)
C24B C -0.4178(4) 0.3704(5) 0.5245(4)
C25B C -0.3146(3) 0.3896(4) 0.5229(3)
H1B H 0.03600 0.26220 0.51620
H2B H 0.20340 0.16910 0.59790
H3B H 0.36970 0.19530 0.69790
H4B H 0.27720 0.55270 0.76990
H5B H 0.10910 0.52220 0.67390
H6B H -0.33670 0.09380 0.47770
H7B H -0.41280 -0.10830 0.50190
H8B H -0.30650 -0.28200 0.57630
H9B H -0.12350 -0.25310 0.62860
H10B H 0.02380 -0.00420 0.57510
H11B H 0.03390 -0.12460 0.63990
H12B H 0.03040 0.01850 0.74650
H13B H 0.10820 0.08780 0.70390
H14B H 0.00830 0.26090 0.72440
H15B H -0.09630 0.17470 0.69590
H16B H -0.19910 0.35330 0.72600
H17B H -0.37300 0.32600 0.72490
H18B H -0.50940 0.33580 0.59900
H19B H -0.47340 0.37320 0.47370
H20B H -0.30080 0.40820 0.47200
#END
