
#######################################################################
#
#                 Cambridge Crystallographic Data Centre
#                                CCDC
#
#######################################################################
#
# If this CIF has been generated from an entry in the Cambridge
# Structural Database, then it will include bibliographic, chemical,
# crystal, experimental, refinement or atomic coordinate data resulting
# from the CCDC's data processing and validation procedures.
#
#######################################################################

data_CSD_CIF_RUCPIQ
_audit_creation_date 2015-03-12
_audit_creation_method CSD-ConQuest-V1
_database_code_CSD RUCPIQ
_database_code_depnum_ccdc_archive 'CCDC 1017940'
_chemical_formula_sum 'C27 H20 N2 O7'
_chemical_formula_moiety
;
C27 H20 N2 O7
;
_journal_coden_Cambridge 1336
_journal_volume 17
_journal_year 2015
_journal_page_first 1114
_journal_name_full 'Org.Lett. '
loop_
_publ_author_name
"Huayou Hu"
"Guodong Li"
"Weiming Hu"
"Yun Liu"
"Xiang Wang"
"Yuhe Kan"
"Min Ji"
_chemical_name_systematic
;
dimethyl 
3-(4-methoxyphenyl)-4-(4-nitrophenyl)pyrrolo[2,1,5-cd]indolizine-1,2-dicarboxy
late
;
_cell_volume   1121.073
_exptl_crystal_colour 'yellow'
_exptl_crystal_density_diffrn 1.435
_exptl_special_details
;
Luminescent

;
_exptl_crystal_preparation 'chloroform/petroleum ether'
_diffrn_ambient_temperature 296
#These two values have been output from a single CSD field.
_refine_ls_R_factor_gt 0.0526
_refine_ls_wR_factor_gt 0.0526
_symmetry_cell_setting triclinic
_symmetry_space_group_name_H-M 'P -1'
_symmetry_Int_Tables_number 2
loop_
_symmetry_equiv_pos_site_id
_symmetry_equiv_pos_as_xyz
1 x,y,z
2 -x,-y,-z
_cell_length_a 8.331(11)
_cell_length_b 11.659(14)
_cell_length_c 12.623(16)
_cell_angle_alpha 66.52(2)
_cell_angle_beta 85.56(3)
_cell_angle_gamma 88.99(2)
_cell_formula_units_Z 2
loop_
_atom_type_symbol
_atom_type_radius_bond
C 0.68
H 0.23
N 0.68
O 0.68
loop_
_atom_site_label
_atom_site_type_symbol
_atom_site_fract_x
_atom_site_fract_y
_atom_site_fract_z
O1 O 0.5617(3) 1.0304(2) 0.20585(18)
O2 O 0.7779(3) 0.8857(2) 0.09128(18)
O3 O 0.5218(3) 0.8294(2) 0.09696(19)
O4 O 0.7976(3) 0.4064(2) -0.04504(19)
O5 O 0.5880(3) 1.0182(2) 0.3842(2)
C1 C 0.9019(5) 0.3102(4) -0.0505(3)
H1 H 1.01190 0.33670 -0.05620
H2 H 0.88250 0.29390 -0.11710
H3 H 0.88170 0.23550 0.01830
O6 O 1.0546(4) -0.0702(2) 0.7636(2)
O7 O 0.8896(4) -0.1330(3) 0.6781(3)
N1 N 0.9518(4) -0.0512(3) 0.6960(3)
N2 N 0.6806(3) 0.6406(2) 0.4492(2)
C2 C 0.6836(4) 0.6472(3) 0.3396(3)
C3 C 0.9049(4) 0.0792(3) 0.6322(3)
C4 C 0.8121(4) 0.3224(3) 0.5177(3)
C5 C 0.7597(4) 0.4530(3) 0.4621(3)
C6 C 0.6385(4) 0.8323(3) 0.1446(3)
C7 C 0.9159(4) 0.2915(3) 0.6047(3)
H4 H 0.95590 0.35410 0.62400
C8 C 0.7575(4) 0.4933(3) 0.2442(2)
C9 C 0.7344(4) 0.5263(3) 0.3457(3)
C10 C 0.6471(4) 0.7726(3) 0.2715(2)
C11 C 0.9612(4) 0.1695(3) 0.6634(3)
H5 H 1.02900 0.14910 0.72340
C12 C 0.8783(4) 0.4136(3) 0.2335(3)
H6 H 0.94880 0.38050 0.29160
C13 C 0.7243(4) 0.5277(3) 0.5282(3)
C14 C 0.6240(4) 0.8371(3) 0.3458(3)
C15 C 0.6802(4) 0.5180(3) 0.0572(3)
H7 H 0.61540 0.55580 -0.00390
C16 C 0.6460(4) 0.7497(3) 0.4609(3)
C17 C 0.6610(4) 0.5461(3) 0.1531(3)
H8 H 0.58150 0.60170 0.15680
C18 C 0.7957(4) 0.4335(3) 0.0509(3)
C19 C 0.6463(4) 0.7430(3) 0.5726(3)
H9 H 0.62360 0.81290 0.58900
C20 C 0.7582(4) 0.2272(3) 0.4885(3)
H10 H 0.69000 0.24650 0.42890
C21 C 0.5898(4) 0.9690(3) 0.3164(3)
C22 C 0.8035(4) 0.1051(3) 0.5459(3)
H11 H 0.76590 0.04190 0.52640
C23 C 0.7200(4) 0.5225(3) 0.6398(3)
H12 H 0.74270 0.44840 0.70110
C24 C 0.8958(4) 0.3828(3) 0.1387(3)
H13 H 0.97550 0.32770 0.13430
C25 C 0.6812(4) 0.6301(3) 0.6592(3)
H14 H 0.67870 0.62520 0.73460
C26 C 0.5378(5) 1.1629(3) 0.1697(3)
H15 H 0.43710 1.17700 0.20470
H16 H 0.53640 1.20130 0.08690
H17 H 0.62390 1.19870 0.19340
C27 C 0.7788(5) 0.9521(4) -0.0327(3)
H18 H 0.75780 0.89440 -0.06710
H19 H 0.88220 0.99150 -0.06290
H20 H 0.69710 1.01470 -0.05060
#END
