
#######################################################################
#
#                 Cambridge Crystallographic Data Centre
#                                CCDC
#
#######################################################################
#
# If this CIF has been generated from an entry in the Cambridge
# Structural Database, then it will include bibliographic, chemical,
# crystal, experimental, refinement or atomic coordinate data resulting
# from the CCDC's data processing and validation procedures.
#
#######################################################################

data_CSD_CIF_RUCRIS
_audit_creation_date 2015-03-12
_audit_creation_method CSD-ConQuest-V1
_database_code_CSD RUCRIS
_database_code_depnum_ccdc_archive 'CCDC 1034191'
_chemical_formula_sum 'C26 H18 N2 O6'
_chemical_formula_moiety
;
C26 H18 N2 O6
;
_journal_coden_Cambridge 1336
_journal_volume 17
_journal_year 2015
_journal_page_first 1114
_journal_name_full 'Org.Lett. '
loop_
_publ_author_name
"Huayou Hu"
"Guodong Li"
"Weiming Hu"
"Yun Liu"
"Xiang Wang"
"Yuhe Kan"
"Min Ji"
_chemical_name_systematic
;
Dimethyl 
4-(4-nitrophenyl)-3-phenylpyrrolo[2,1,5-cd]indolizine-1,2-dicarboxylate
;
_cell_volume   2179.673
_exptl_crystal_colour 'yellow'
_exptl_crystal_density_diffrn 1.442
_exptl_special_details
;
Luminescent

;
_diffrn_ambient_temperature 296
#These two values have been output from a single CSD field.
_refine_ls_R_factor_gt 0.0455
_refine_ls_wR_factor_gt 0.0455
_symmetry_cell_setting monoclinic
_symmetry_space_group_name_H-M 'P 21/c'
_symmetry_Int_Tables_number 14
loop_
_symmetry_equiv_pos_site_id
_symmetry_equiv_pos_as_xyz
1 x,y,z
2 -x,1/2+y,1/2-z
3 -x,-y,-z
4 x,-1/2-y,-1/2+z
_cell_length_a 9.544(2)
_cell_length_b 24.286(7)
_cell_length_c 9.795(3)
_cell_angle_alpha 90
_cell_angle_beta 106.247(5)
_cell_angle_gamma 90
_cell_formula_units_Z 4
loop_
_atom_type_symbol
_atom_type_radius_bond
C 0.68
H 0.23
N 0.68
O 0.68
loop_
_atom_site_label
_atom_site_type_symbol
_atom_site_fract_x
_atom_site_fract_y
_atom_site_fract_z
C1 C 0.5189(3) 0.35836(14) 0.1351(3)
C2 C 0.5832(3) 0.30663(13) 0.1759(3)
C3 C 0.4522(3) 0.20896(13) 0.0749(3)
C4 C 0.3178(3) 0.20588(13) -0.0289(3)
C5 C 0.1469(3) 0.28979(14) -0.1484(3)
H1 H 0.06800 0.27120 -0.20790
C6 C 0.1481(3) 0.34732(14) -0.1417(3)
H2 H 0.06820 0.36620 -0.19880
C7 C 0.2611(3) 0.37809(13) -0.0553(3)
H3 H 0.25650 0.41630 -0.05490
C8 C 0.4863(3) 0.26587(13) 0.1028(3)
C9 C 0.2652(3) 0.26100(13) -0.0648(3)
C10 C 0.3813(3) 0.35043(13) 0.0309(3)
C11 C 0.5883(4) 0.41031(14) 0.1899(4)
C12 C 0.5608(4) 0.50697(13) 0.2024(4)
H4 H 0.48950 0.53520 0.16740
H5 H 0.64560 0.51410 0.17080
H6 H 0.58760 0.50670 0.30440
C13 C 0.7325(4) 0.29853(13) 0.2711(4)
C14 C 0.8791(3) 0.30315(14) 0.5082(3)
H7 H 0.86950 0.30680 0.60270
H8 H 0.93530 0.33340 0.48840
H9 H 0.92760 0.26910 0.50060
C15 C 0.5508(3) 0.16430(13) 0.1477(4)
C16 C 0.6183(3) 0.16850(13) 0.2931(4)
H10 H 0.59640 0.19790 0.34450
C17 C 0.7185(3) 0.12878(15) 0.3617(4)
H11 H 0.76180 0.13120 0.45920
C18 C 0.7537(4) 0.08598(15) 0.2858(4)
H12 H 0.82300 0.06020 0.33140
C19 C 0.6866(4) 0.08121(14) 0.1423(4)
H13 H 0.70960 0.05190 0.09140
C20 C 0.5847(3) 0.12007(14) 0.0734(3)
H14 H 0.53870 0.11640 -0.02330
C21 C 0.2336(3) 0.15671(13) -0.0909(4)
C22 C 0.1617(3) 0.15515(13) -0.2360(3)
H15 H 0.17170 0.18460 -0.29320
C23 C 0.0758(3) 0.11080(14) -0.2967(3)
H16 H 0.02650 0.11070 -0.39310
C24 C 0.0648(3) 0.06720(14) -0.2126(4)
C25 C 0.1341(3) 0.06653(13) -0.0688(4)
H17 H 0.12410 0.03660 -0.01300
C26 C 0.2192(3) 0.11150(14) -0.0088(3)
H18 H 0.26730 0.11140 0.08800
N1 N 0.3718(3) 0.29411(11) 0.0179(3)
N2 N -0.0282(3) 0.02012(13) -0.2755(3)
O1 O 0.7110(2) 0.41476(9) 0.2664(3)
O2 O 0.4997(2) 0.45388(10) 0.1488(2)
O3 O 0.8358(2) 0.28833(10) 0.2300(2)
O4 O 0.7357(2) 0.30335(9) 0.4069(2)
O5 O -0.0362(3) -0.0191(1) -0.1995(3)
O6 O -0.0927(3) 0.02198(10) -0.4016(3)
#END
