
#######################################################################
#
#                 Cambridge Crystallographic Data Centre
#                                CCDC
#
#######################################################################
#
# If this CIF has been generated from an entry in the Cambridge
# Structural Database, then it will include bibliographic, chemical,
# crystal, experimental, refinement or atomic coordinate data resulting
# from the CCDC's data processing and validation procedures.
#
#######################################################################

data_CSD_CIF_RUCTUF
_audit_creation_date 2010-01-21
_audit_creation_method CSD-ConQuest-V1
_database_code_CSD RUCTUF
_database_code_depnum_ccdc_archive 'CCDC 716902'
_chemical_formula_sum 'C18 H15 N1 O8'
_chemical_formula_moiety
;
C18 H15 N1 O8
;
_journal_coden_Cambridge 16
_journal_volume 65
_journal_year 2009
_journal_page_first 4099
_journal_name_full 'Tetrahedron '
loop_
_publ_author_name
"M.Adeel"
"M.Nawaz"
"A.Villinger"
"H.Reinke"
"C.Fischer"
"P.Langer"
_chemical_name_systematic
;
Ethyl 3-acetyl-5-(5-nitro-2-hydroxybenzoyl)-2-hydroxybenzoate
;
_chemical_melting_point 380.15
_cell_volume    828.417
_exptl_crystal_colour 'colorless'
_exptl_crystal_density_diffrn 1.497
_exptl_special_details
;
Melting point range 380.15-382.15K

;
_exptl_crystal_description 'block'
_diffrn_ambient_temperature 173
#These two values have been output from a single CSD field.
_refine_ls_R_factor_gt 0.0407
_refine_ls_wR_factor_gt 0.0407
_symmetry_cell_setting triclinic
_symmetry_space_group_name_H-M 'P -1'
_symmetry_Int_Tables_number 2
loop_
_symmetry_equiv_pos_site_id
_symmetry_equiv_pos_as_xyz
1 x,y,z
2 -x,-y,-z
_cell_length_a 7.1158(14)
_cell_length_b 9.5538(19)
_cell_length_c 12.574(3)
_cell_angle_alpha 81.23(3)
_cell_angle_beta 80.71(3)
_cell_angle_gamma 82.26(3)
_cell_formula_units_Z 2
loop_
_atom_type_symbol
_atom_type_radius_bond
C 0.68
H 0.23
N 0.68
O 0.68
loop_
_atom_site_label
_atom_site_type_symbol
_atom_site_fract_x
_atom_site_fract_y
_atom_site_fract_z
O1 O 0.20278(11) 1.12310(8) 1.10806(6)
H1 H 0.160(3) 1.066(2) 1.1679(16)
O2 O 0.09417(11) 0.90101(8) 1.23308(6)
O3 O 0.09992(11) 0.69865(8) 1.16236(6)
O4 O 0.45112(13) 1.28935(9) 0.80313(7)
O5 O 0.43718(13) 0.65207(8) 0.80912(6)
O6 O 0.51329(14) 0.57785(9) 0.62195(7)
H2 H 0.496(3) 0.571(2) 0.6944(17)
N1 N 0.18213(12) 1.10954(10) 0.45455(7)
O7 O 0.11196(13) 1.19720(9) 0.51566(7)
O8 O 0.18829(14) 1.13323(9) 0.35525(7)
C1 C 0.23729(13) 1.04361(10) 1.02684(8)
C2 C 0.20422(13) 0.89835(10) 1.04469(7)
C3 C 0.24646(14) 0.81737(10) 0.95971(8)
H3 H 0.22660 0.71950 0.97300
C4 C 0.31766(14) 0.87672(10) 0.85487(8)
C5 C 0.34894(14) 1.01967(10) 0.83787(8)
H4 H 0.39760 1.06090 0.76680
C6 C 0.31142(13) 1.10451(10) 0.92145(8)
C7 C 0.37488(15) 0.77498(10) 0.77326(8)
C8 C 0.35874(14) 0.81159(10) 0.65688(8)
C9 C 0.27066(14) 0.94323(10) 0.61203(8)
H5 H 0.21530 1.01330 0.65750
C10 C 0.26521(13) 0.96987(10) 0.50176(8)
C11 C 0.33883(15) 0.86834(12) 0.43257(8)
H6 H 0.33130 0.88900 0.35700
C12 C 0.42224(16) 0.73828(12) 0.47490(9)
H7 H 0.47290 0.66860 0.42830
C13 C 0.43319(15) 0.70745(11) 0.58641(9)
C14 C 0.12852(14) 0.8340(1) 1.15532(8)
C15 C 0.03956(19) 0.62754(12) 1.27234(9)
H8 H -0.08440 0.67550 1.30400
H9 H 0.13630 0.63100 1.32000
C16 C 0.0199(2) 0.47620(14) 1.26259(12)
H10 H -0.08200 0.47400 1.21910
H11 H -0.01250 0.42390 1.33520
H12 H 0.14120 0.43160 1.22710
C17 C 0.35878(15) 1.25617(11) 0.89156(8)
C18 C 0.29238(19) 1.36402(11) 0.9685(1)
H13 H 0.31980 1.45870 0.93180
H14 H 0.35980 1.33930 1.03200
H15 H 0.15410 1.36450 0.99200
#END
