
#######################################################################
#
#                 Cambridge Crystallographic Data Centre
#                                CCDC
#
#######################################################################
#
# If this CIF has been generated from an entry in the Cambridge
# Structural Database, then it will include bibliographic, chemical,
# crystal, experimental, refinement or atomic coordinate data resulting
# from the CCDC's data processing and validation procedures.
#
#######################################################################

data_CSD_CIF_RUDXAR
_audit_creation_date 2015-03-13
_audit_creation_method CSD-ConQuest-V1
_database_code_CSD RUDXAR
_database_code_depnum_ccdc_archive 'CCDC 1009964'
_chemical_formula_sum 'C33 H42 N3 O9'
_chemical_formula_moiety
;
C33 H42 N3 O9
;
_journal_coden_Cambridge 35
_journal_volume 79
_journal_year 2014
_journal_page_first 8313
_journal_name_full 'J.Org.Chem. '
loop_
_publ_author_name
"S.Valera"
"J.E.Taylor"
"D.S.B.Daniels"
"D.M.Dawson"
"K.S.A.Arachchige"
"S.E.Ashbrook"
"A.M.Z.Slawin"
"B.E.Bode"
_chemical_name_systematic
;
benzene-1,3,5-triyl 
tris(1-oxy-2,2,5,5-tetramethyl-2,5-dihydro-1H-pyrrole-3-carboxylate) 
triradical
;
_cell_volume   3393.454
_exptl_crystal_colour 'yellow'
_exptl_crystal_density_diffrn 1.223
_exptl_crystal_description 'prism'
_diffrn_ambient_temperature 93
_refine_special_details
;
C70A,O70B,O75A and C70B,O70A,O75B disordered over two sites with occupancies 
0.5000:0.5000.
;
#These two values have been output from a single CSD field.
_refine_ls_R_factor_gt 0.1029
_refine_ls_wR_factor_gt 0.1029
_symmetry_cell_setting triclinic
_symmetry_space_group_name_H-M 'P -1'
_symmetry_Int_Tables_number 2
loop_
_symmetry_equiv_pos_site_id
_symmetry_equiv_pos_as_xyz
1 x,y,z
2 -x,-y,-z
_cell_length_a 12.594(3)
_cell_length_b 15.145(2)
_cell_length_c 19.256(5)
_cell_angle_alpha 78.32(3)
_cell_angle_beta 76.694(19)
_cell_angle_gamma 73.73(3)
_cell_formula_units_Z 4
loop_
_atom_type_symbol
_atom_type_radius_bond
C 0.68
H 0.23
N 0.68
O 0.68
loop_
_atom_site_label
_atom_site_type_symbol
_atom_site_fract_x
_atom_site_fract_y
_atom_site_fract_z
O1 O -0.0863(4) 1.0585(3) 0.1674(3)
O2 O 0.0943(6) 0.7636(3) 0.3504(3)
O3 O 0.7462(3) 0.7132(3) 0.5608(3)
O4 O 0.4095(4) 0.5964(3) 0.4552(3)
O5 O -0.1920(5) 0.3696(3) 0.8418(3)
O6 O -0.1070(4) 0.7329(3) 0.6986(2)
O7 O 0.0179(3) 0.8445(3) 0.4419(2)
O8 O 0.3480(3) 0.6868(3) 0.54303(19)
O9 O -0.0004(3) 0.6066(2) 0.64727(18)
N1 N -0.0718(4) 1.0201(3) 0.2309(3)
N2 N 0.6887(4) 0.6826(3) 0.5294(3)
N3 N -0.1889(5) 0.4544(3) 0.8173(3)
C1 C -0.0070(5) 0.9224(4) 0.2465(4)
C2 C -0.0162(5) 0.9172(4) 0.3267(3)
C3 C -0.0762(5) 0.9974(4) 0.3515(4)
C4 C -0.1200(6) 1.0708(4) 0.2938(4)
C5 C -0.0664(8) 0.8573(5) 0.2277(4)
C6 C 0.1114(6) 0.9102(5) 0.2046(4)
C7 C -0.2464(6) 1.0990(5) 0.3051(5)
C8 C -0.0721(7) 1.1566(4) 0.2831(5)
C9 C 0.0388(5) 0.8341(4) 0.3719(4)
C10 C 0.5646(5) 0.6932(4) 0.5542(3)
C11 C 0.5420(5) 0.6486(3) 0.4983(3)
C12 C 0.6346(5) 0.6176(4) 0.4513(3)
C13 C 0.7372(5) 0.6377(4) 0.4641(3)
C14 C 0.7838(6) 0.7067(4) 0.4034(4)
C15 C 0.8285(5) 0.5514(4) 0.4808(4)
C16 C 0.5082(6) 0.7975(4) 0.5490(5)
C17 C 0.5430(6) 0.6429(6) 0.6299(4)
C18 C 0.4309(5) 0.6389(4) 0.4940(3)
C19 C -0.1076(5) 0.4782(4) 0.7511(3)
C20 C -0.1363(5) 0.5828(4) 0.7512(3)
C21 C -0.2164(5) 0.6097(4) 0.8066(3)
C22 C -0.2551(6) 0.5318(4) 0.8560(3)
C23 C -0.3802(6) 0.5403(5) 0.8620(5)
C24 C -0.2247(8) 0.5178(5) 0.9300(4)
C25 C -0.1374(6) 0.4530(4) 0.6863(4)
C26 C 0.0113(6) 0.4271(4) 0.7612(4)
C27 C -0.0838(5) 0.6504(4) 0.6976(3)
C28 C 0.0727(5) 0.7725(3) 0.4902(3)
C29 C 0.1873(5) 0.7602(4) 0.4869(3)
C30 C 0.2351(5) 0.6960(4) 0.5401(3)
C31 C 0.1736(5) 0.6466(3) 0.5953(3)
C32 C 0.0605(5) 0.6616(3) 0.5944(3)
C33 C 0.0071(5) 0.7242(3) 0.5425(3)
H1 H -0.08890 1.00600 0.40060
H2 H -0.07130 0.87250 0.17640
H3 H -0.14230 0.86500 0.25680
H4 H -0.02360 0.79280 0.23780
H5 H 0.14800 0.95180 0.21800
H6 H 0.10990 0.92510 0.15280
H7 H 0.15350 0.84560 0.21560
H8 H -0.27560 1.04340 0.31450
H9 H -0.27000 1.13900 0.26180
H10 H -0.27580 1.13310 0.34640
H11 H -0.09070 1.19750 0.23890
H12 H 0.00990 1.13660 0.27910
H13 H -0.10490 1.19030 0.32450
H14 H 0.63510 0.58580 0.41340
H15 H 0.84240 0.72590 0.41820
H16 H 0.72300 0.76140 0.39310
H17 H 0.81600 0.67700 0.35990
H18 H 0.86690 0.52590 0.43610
H19 H 0.79480 0.50490 0.51500
H20 H 0.88300 0.56760 0.50200
H21 H 0.42660 0.80700 0.55510
H22 H 0.53670 0.82930 0.50160
H23 H 0.52540 0.82280 0.58690
H24 H 0.59160 0.57960 0.63250
H25 H 0.46390 0.63990 0.64320
H26 H 0.55930 0.67620 0.66320
H27 H -0.24580 0.67290 0.81370
H28 H -0.39890 0.48240 0.88820
H29 H -0.39820 0.55210 0.81360
H30 H -0.42400 0.59200 0.88820
H31 H -0.14490 0.51610 0.92450
H32 H -0.23900 0.45900 0.95740
H33 H -0.27070 0.56920 0.95570
H34 H -0.21390 0.48820 0.68070
H35 H -0.13330 0.38630 0.69400
H36 H -0.08420 0.46840 0.64260
H37 H 0.01770 0.35990 0.77060
H38 H 0.02840 0.44630 0.80220
H39 H 0.06470 0.44200 0.71740
H40 H 0.23060 0.79430 0.44980
H41 H 0.20770 0.60430 0.63220
H42 H -0.07080 0.73330 0.54300
O10 O 0.3185(5) 0.4967(3) -0.3001(3)
O11 O 0.5494(4) 0.2328(3) -0.1205(2)
O12 O 0.3662(4) -0.1269(3) 0.3869(3)
O13 O 0.4477(4) 0.2312(3) 0.22994(19)
O14 O 1.2913(5) 0.2371(3) 0.0054(3)
O15 O 0.5023(3) 0.3324(2) -0.03887(18)
O16 O 0.5335(3) 0.1048(2) 0.17427(18)
N4 N 0.3540(5) 0.4731(3) -0.2406(3)
N5 N 0.3691(4) -0.0435(3) 0.3599(3)
N6 N 1.2140(4) 0.2004(3) 0.0039(3)
C34 C 0.4278(6) 0.3783(4) -0.2220(3)
C35 C 0.4318(5) 0.3853(3) -0.1460(3)
C36 C 0.3698(5) 0.4653(4) -0.1251(3)
C37 C 0.3080(6) 0.5284(4) -0.1807(3)
C38 C 0.3691(7) 0.3049(4) -0.2279(4)
C39 C 0.5410(7) 0.3693(5) -0.2721(4)
C40 C 0.1810(6) 0.5406(5) -0.1600(5)
C41 C 0.3345(6) 0.6227(4) -0.2021(4)
C42 C 0.4997(5) 0.3077(4) -0.1026(3)
C43 C 0.4424(5) -0.0212(3) 0.2897(3)
C44 C 0.4142(5) 0.0843(3) 0.2872(3)
C45 C 0.3363(5) 0.1138(3) 0.3417(3)
C46 C 0.2935(5) 0.0377(3) 0.3933(3)
C47 C 0.4062(5) -0.0513(4) 0.2296(4)
C48 C 0.5641(5) -0.0703(4) 0.2970(3)
C49 C 0.1721(5) 0.0425(4) 0.3931(4)
C50 C 0.3135(6) 0.0303(4) 0.4700(3)
C51 C 0.4651(5) 0.1489(4) 0.2292(3)
C52 C 1.0952(6) 0.2466(5) 0.0268(4)
C53 C 1.0370(6) 0.1812(7) 0.0155(6)
C54 C 1.1097(8) 0.1078(7) -0.0045(4)
C55 C 1.2364(6) 0.1064(4) -0.0135(4)
C56 C 1.0659(8) 0.3376(6) -0.0223(5)
C57 C 1.0747(9) 0.2571(6) 0.1046(4)
C58 C 1.3044(8) 0.1045(6) -0.0898(5)
C59 C 1.2995(8) 0.0347(5) 0.0408(5)
C60 C 0.5690(5) 0.2669(4) 0.0066(3)
C61 C 0.5163(5) 0.2190(3) 0.0663(3)
C62 C 0.5820(5) 0.1608(3) 0.1134(3)
C63 C 0.6966(5) 0.1507(4) 0.1025(3)
C64 C 0.7466(4) 0.2016(5) 0.0412(4)
C65 C 0.6835(5) 0.2596(4) -0.0087(3)
H43 H 0.36530 0.48090 -0.07900
H44 H 0.35490 0.31350 -0.27710
H45 H 0.29740 0.31160 -0.19370
H46 H 0.41730 0.24270 -0.21670
H47 H 0.57690 0.41610 -0.26580
H48 H 0.53050 0.37880 -0.32210
H49 H 0.58900 0.30700 -0.26060
H50 H 0.16420 0.47950 -0.14370
H51 H 0.14620 0.57160 -0.20200
H52 H 0.15080 0.57860 -0.12100
H53 H 0.30220 0.65550 -0.24470
H54 H 0.41620 0.61480 -0.21330
H55 H 0.30210 0.65900 -0.16220
H56 H 0.30970 0.17750 0.34770
H57 H 0.32800 -0.01840 0.22700
H58 H 0.41270 -0.11850 0.23980
H59 H 0.45480 -0.03650 0.18350
H60 H 0.61320 -0.06430 0.24960
H61 H 0.56940 -0.13630 0.31560
H62 H 0.58770 -0.04180 0.33040
H63 H 0.15290 -0.01470 0.42050
H64 H 0.16150 0.04930 0.34330
H65 H 0.12330 0.09610 0.41540
H66 H 0.39200 0.02990 0.46830
H67 H 0.29770 -0.02740 0.49880
H68 H 0.26360 0.08360 0.49220
H69 H 1.08710 0.05690 -0.01330
H70 H 1.07830 0.32570 -0.07200
H71 H 1.11370 0.37750 -0.01950
H72 H 0.98670 0.36880 -0.00720
H73 H 1.12230 0.29500 0.11110
H74 H 1.09300 0.19570 0.13360
H75 H 0.99540 0.28770 0.12010
H76 H 1.37490 0.12160 -0.09240
H77 H 1.26090 0.14900 -0.12370
H78 H 1.32120 0.04190 -0.10230
H79 H 1.25360 0.03670 0.08930
H80 H 1.37100 0.04910 0.04000
H81 H 1.31430 -0.02760 0.02790
H82 H 0.43730 0.22560 0.07500
H83 H 0.74030 0.11020 0.13580
H84 H 0.71770 0.29270 -0.05130
C66 C 0.9124(6) 0.2234(6) 0.0340(7)
O17 O 0.8581(6) 0.2941(5) 0.0578(5)
O18 O 0.8636(5) 0.1632(5) 0.0168(5)
O19? O 0.9110(7) 0.0863(6) -0.0065(5)
C67? C 0.9365(7) 0.1475(6) 0.0132(6)
O20? O 0.8541(5) 0.2189(6) 0.0392(5)
#END
