
#######################################################################
#
#                 Cambridge Crystallographic Data Centre
#                                CCDC
#
#######################################################################
#
# If this CIF has been generated from an entry in the Cambridge
# Structural Database, then it will include bibliographic, chemical,
# crystal, experimental, refinement or atomic coordinate data resulting
# from the CCDC's data processing and validation procedures.
#
#######################################################################

data_CSD_CIF_RUFDAY
_audit_creation_date 2010-01-21
_audit_creation_method CSD-ConQuest-V1
_database_code_CSD RUFDAY
_database_code_depnum_ccdc_archive 'CCDC 754230'
_chemical_formula_sum 'C16 H25 N1 O3'
_chemical_formula_moiety
;
C16 H25 N1 O3
;
_journal_coeditor_code "IUCr NG2644"
_journal_coden_Cambridge 1370
_journal_volume 65
_journal_year 2009
_journal_page_first o2627
_journal_name_full 'Acta Crystallogr.,Sect.E:Struct.Rep.Online '
loop_
_publ_author_name
"Xi-Gui Yue"
_chemical_name_systematic
;
1-(Decyloxy)-4-nitrobenzene
;
_cell_volume   1627.378
_exptl_crystal_colour 'colorless'
_exptl_crystal_density_diffrn 1.14
_exptl_crystal_description 'block'
_exptl_crystal_preparation '95% ethanol'
_diffrn_ambient_temperature 291
#These two values have been output from a single CSD field.
_refine_ls_R_factor_gt 0.0519
_refine_ls_wR_factor_gt 0.0519
_symmetry_cell_setting triclinic
_symmetry_space_group_name_H-M 'P -1'
_symmetry_Int_Tables_number 2
loop_
_symmetry_equiv_pos_site_id
_symmetry_equiv_pos_as_xyz
1 x,y,z
2 -x,-y,-z
_cell_length_a 5.642(3)
_cell_length_b 16.065(8)
_cell_length_c 19.135(7)
_cell_angle_alpha 107.410(16)
_cell_angle_beta 90.610(16)
_cell_angle_gamma 99.780(18)
_cell_formula_units_Z 4
loop_
_atom_type_symbol
_atom_type_radius_bond
C 0.68
H 0.23
N 0.68
O 0.68
loop_
_atom_site_label
_atom_site_type_symbol
_atom_site_fract_x
_atom_site_fract_y
_atom_site_fract_z
C1 C 1.0435(3) -0.10617(12) 0.41928(9)
C2 C 0.8180(4) -0.14170(12) 0.38389(10)
H1 H 0.74140 -0.19820 0.38260
C3 C 0.7089(4) -0.09201(13) 0.35064(10)
H2 H 0.55830 -0.11550 0.32580
C4 C 0.8218(3) -0.00675(12) 0.35376(9)
C5 C 1.0481(3) 0.02798(12) 0.38982(9)
H3 H 1.12450 0.08480 0.39200
C6 C 1.1591(3) -0.02269(13) 0.42251(9)
H4 H 1.31120 -0.00020 0.44650
C7 C 0.7923(4) 0.12696(13) 0.32581(11)
H5 H 0.94860 0.13130 0.30520
H6 H 0.81150 0.16280 0.37700
C8 C 0.6180(4) 0.15878(14) 0.28437(10)
H7 H 0.66850 0.22210 0.29340
H8 H 0.46030 0.14940 0.30330
C9 C 0.5963(4) 0.11315(13) 0.20197(9)
H9 H 0.75390 0.12210 0.18280
H10 H 0.54390 0.04990 0.19270
C10 C 0.4209(4) 0.14703(13) 0.16135(10)
H11 H 0.47050 0.21070 0.17240
H12 H 0.26270 0.13630 0.17970
C11 C 0.4007(4) 0.10524(13) 0.07868(10)
H13 H 0.35070 0.04160 0.06740
H14 H 0.55840 0.11610 0.06000
C12 C 0.2237(4) 0.14028(13) 0.03955(10)
H15 H 0.06590 0.12860 0.05790
H16 H 0.27240 0.20410 0.05190
C13 C 0.2023(4) 0.10103(14) -0.04315(10)
H17 H 0.15370 0.03720 -0.05570
H18 H 0.35950 0.11300 -0.06180
C14 C 0.0239(4) 0.13677(14) -0.08081(10)
H19 H -0.13330 0.12410 -0.06240
H20 H 0.07150 0.20070 -0.06730
C15 C 0.0008(4) 0.10000(17) -0.16340(11)
H21 H 0.15770 0.11280 -0.18200
H22 H -0.04710 0.03600 -0.17710
C16 C -0.1776(5) 0.13638(19) -0.19974(12)
H23 H -0.33620 0.11980 -0.18490
H24 H -0.17570 0.11270 -0.25210
H25 H -0.13490 0.19990 -0.18540
C17 C 1.6603(3) 0.61062(12) 0.48056(9)
C18 C 1.7118(3) 0.52982(12) 0.44104(9)
H26 H 1.84240 0.50940 0.45590
C19 C 1.5682(3) 0.47936(12) 0.37915(9)
H27 H 1.60150 0.42460 0.35180
C20 C 1.3741(3) 0.51059(12) 0.35782(9)
C21 C 1.3281(4) 0.59306(12) 0.3976(1)
H28 H 1.20020 0.61450 0.38240
C22 C 1.4712(3) 0.64329(12) 0.45951(10)
H29 H 1.44020 0.69850 0.48670
C23 C 1.2354(4) 0.37683(12) 0.2594(1)
H30 H 1.23080 0.34120 0.29240
H31 H 1.38610 0.37570 0.23550
C24 C 1.0252(4) 0.34081(13) 0.20304(10)
H32 H 0.87760 0.34850 0.22780
H33 H 1.01930 0.27760 0.18100
C25 C 1.0330(4) 0.38395(13) 0.14233(9)
H34 H 1.04120 0.44730 0.16410
H35 H 1.17860 0.37520 0.11670
C26 C 0.8174(4) 0.34758(13) 0.08732(10)
H36 H 0.80710 0.28400 0.06670
H37 H 0.67250 0.35750 0.11300
C27 C 0.8234(4) 0.38781(14) 0.02524(10)
H38 H 0.96630 0.37660 -0.00120
H39 H 0.83770 0.45160 0.04590
C28 C 0.6052(4) 0.35306(15) -0.02876(11)
H40 H 0.59150 0.28930 -0.04950
H41 H 0.46250 0.36400 -0.00220
C29 C 0.6087(4) 0.39286(17) -0.09064(11)
H42 H 0.74860 0.38020 -0.11810
H43 H 0.62820 0.45680 -0.06990
C30 C 0.3882(4) 0.36084(16) -0.14327(11)
H44 H 0.36880 0.29690 -0.16390
H45 H 0.24850 0.37350 -0.11570
C31 C 0.3896(5) 0.3997(2) -0.20473(15)
H46 H 0.52280 0.38340 -0.23430
H47 H 0.42060 0.46380 -0.18420
C32 C 0.1645(5) 0.3727(2) -0.25393(14)
H48 H 0.12620 0.30920 -0.27270
H49 H 0.18840 0.39690 -0.29400
H50 H 0.03440 0.39470 -0.22670
N1 N 1.1571(3) -0.15848(12) 0.45537(9)
N2 N 1.8046(3) 0.66154(12) 0.54848(8)
O1 O 1.0497(3) -0.23246(12) 0.45217(11)
O2 O 1.3531(3) -0.12644(11) 0.48909(9)
O3 O 0.6957(2) 0.03615(9) 0.31962(7)
O4 O 1.9796(3) 0.63492(11) 0.56572(8)
O5 O 1.7400(3) 0.72868(11) 0.58678(8)
O6 O 1.2164(2) 0.46592(9) 0.29918(7)
#END
