
#######################################################################
#
#                 Cambridge Crystallographic Data Centre
#                                CCDC
#
#######################################################################
#
# If this CIF has been generated from an entry in the Cambridge
# Structural Database, then it will include bibliographic, chemical,
# crystal, experimental, refinement or atomic coordinate data resulting
# from the CCDC's data processing and validation procedures.
#
#######################################################################

data_CSD_CIF_RUGGIJ
_audit_creation_date 1998-02-12
_audit_creation_method CSD-ConQuest-V1
_database_code_CSD RUGGIJ
_chemical_formula_sum 'C26 H24 N1 O1'
_chemical_formula_moiety
;
C26 H24 N1 O1
;
_journal_coden_Cambridge 35
_journal_volume 61
_journal_year 1996
_journal_page_first 1194
_journal_name_full 'J.Org.Chem. '
loop_
_publ_author_name
"S.D.Rychnovsky"
"T.L.McLernon"
"H.Rajapakse"
_chemical_name_systematic
;
(S)-3,5-Dihydro-3,3,5,5-tetramethyl-4H-dinaphth(2,1-c:1',2'-e)azepine-N-oxyl 
radical
;
_cell_volume   1921.378
_exptl_crystal_colour 'orange'
_exptl_crystal_density_diffrn 1.267
_exptl_crystal_description 'needle'
_diffrn_ambient_temperature ?
_diffrn_special_details
;
The study was carried out at room temperature,in the range 283-303K

;
_refine_special_details
;
The nitroxide O atom is equally disordered over two positions.

;
#These two values have been output from a single CSD field.
_refine_ls_R_factor_gt 0.048
_refine_ls_wR_factor_gt 0.048
_symmetry_cell_setting tetragonal
_symmetry_space_group_name_H-M 'I 41'
_symmetry_Int_Tables_number 80
loop_
_symmetry_equiv_pos_site_id
_symmetry_equiv_pos_as_xyz
1 x,y,z
2 -y,1/2+x,1/4+z
3 1/2-x,1/2-y,1/2+z
4 1/2+y,-x,3/4+z
5 1/2+x,1/2+y,1/2+z
6 1/2-y,x,3/4+z
7 -x,-y,z
8 y,1/2-x,1/4+z
_cell_length_a 11.926(3)
_cell_length_b 11.926(3)
_cell_length_c 13.509(3)
_cell_angle_alpha 90
_cell_angle_beta 90
_cell_angle_gamma 90
_cell_formula_units_Z 4
loop_
_atom_type_symbol
_atom_type_radius_bond
C 0.68
H 0.23
N 0.68
O 0.68
loop_
_atom_site_label
_atom_site_type_symbol
_atom_site_fract_x
_atom_site_fract_y
_atom_site_fract_z
N1 N 0.00000 0.00000 0.09420
O1 O -0.0408(5) -0.0056(7) 0.0039(6)
C1 C -0.0095(3) 0.1122(3) 0.1454(4)
C2 C -0.0594(4) 0.1947(4) 0.0701(5)
C3 C 0.1071(4) 0.1594(4) 0.1715(5)
C4 C -0.0870(3) 0.0958(3) 0.2355(4)
C5 C -0.0563(3) 0.0277(3) 0.3142(4)
C6 C -0.1362(3) 0.0017(3) 0.3908(4)
C7 C -0.1147(3) -0.0756(3) 0.4682(4)
C8 C -0.1942(3) -0.1003(3) 0.5376(4)
C9 C -0.2988(3) -0.0485(3) 0.5363(4)
C10 C -0.3238(3) 0.0257(3) 0.4626(4)
C11 C -0.2440(3) 0.0520(3) 0.3875(4)
C12 C -0.2698(3) 0.1242(3) 0.3090(4)
C13 C -0.1949(3) 0.1440(3) 0.2357(4)
H1 H -0.06590 0.26670 0.09960
H2 H -0.01180 0.19910 0.01390
H3 H -0.13150 0.16930 0.05030
H4 H 0.14300 0.11100 0.21740
H5 H 0.15120 0.16460 0.11310
H6 H 0.09910 0.23180 0.19990
H7 H -0.04340 -0.11100 0.47190
H8 H -0.17790 -0.15380 0.58770
H9 H -0.35240 -0.06460 0.58630
H10 H -0.39550 0.06040 0.46140
H11 H -0.34100 0.15980 0.30710
H12 H -0.21590 0.19200 0.18260
O1F O 0.0408(5) 0.0056(7) 0.0039(6)
C5F C 0.0563(3) -0.0277(3) 0.3142(4)
C4F C 0.0870(3) -0.0958(3) 0.2355(4)
C1F C 0.0095(3) -0.1122(3) 0.1454(4)
C2F C 0.0594(4) -0.1947(4) 0.0701(5)
H1F H 0.06590 -0.26670 0.09960
H2F H 0.01180 -0.19910 0.01390
H3F H 0.13150 -0.16930 0.05030
C3F C -0.1071(4) -0.1594(4) 0.1715(5)
H4F H -0.14300 -0.11100 0.21740
H5F H -0.15120 -0.16460 0.11310
H6F H -0.09910 -0.23180 0.19990
C13F C 0.1949(3) -0.1440(3) 0.2357(4)
C12F C 0.2698(3) -0.1242(3) 0.3090(4)
C11F C 0.2440(3) -0.0520(3) 0.3875(4)
C6F C 0.1362(3) -0.0017(3) 0.3908(4)
C7F C 0.1147(3) 0.0756(3) 0.4682(4)
C8F C 0.1942(3) 0.1003(3) 0.5376(4)
C9F C 0.2988(3) 0.0485(3) 0.5363(4)
C10F C 0.3238(3) -0.0257(3) 0.4626(4)
H10F H 0.39550 -0.06040 0.46140
H9F H 0.35240 0.06460 0.58630
H8F H 0.17790 0.15380 0.58770
H7F H 0.04340 0.11100 0.47190
H11F H 0.34100 -0.15980 0.30710
H12F H 0.21590 -0.19200 0.18260
#END
