
#######################################################################
#
#                 Cambridge Crystallographic Data Centre
#                                CCDC
#
#######################################################################
#
# If this CIF has been generated from an entry in the Cambridge
# Structural Database, then it will include bibliographic, chemical,
# crystal, experimental, refinement or atomic coordinate data resulting
# from the CCDC's data processing and validation procedures.
#
#######################################################################

data_CSD_CIF_RUGHAE
_audit_creation_date 2015-03-13
_audit_creation_method CSD-ConQuest-V1
_database_code_CSD RUGHAE
_database_code_depnum_ccdc_archive 'CCDC 1053924'
_chemical_formula_sum 'C20 H25 N1 O3'
_chemical_formula_moiety
;
C20 H25 N1 O3
;
_journal_coden_Cambridge 35
_journal_volume 79
_journal_year 2014
_journal_page_first 9451
_journal_name_full 'J.Org.Chem. '
loop_
_publ_author_name
"T.R.Porter"
"W.Kaminsky"
"J.M.Mayer"
_chemical_name_systematic
;
3,5-di-t-butyl-4'-nitrobiphenyl-4-ol
;
_cell_volume   1729.670
_exptl_crystal_colour 'purple'
_exptl_crystal_density_diffrn 1.257
_exptl_crystal_description 'prism'
_diffrn_ambient_temperature 100
#These two values have been output from a single CSD field.
_refine_ls_R_factor_gt 0.0364
_refine_ls_wR_factor_gt 0.0364
_symmetry_cell_setting monoclinic
_symmetry_space_group_name_H-M 'P 21/n'
_symmetry_Int_Tables_number 14
loop_
_symmetry_equiv_pos_site_id
_symmetry_equiv_pos_as_xyz
1 x,y,z
2 1/2-x,1/2+y,1/2-z
3 -x,-y,-z
4 -1/2+x,-1/2-y,-1/2+z
_cell_length_a 11.2752(4)
_cell_length_b 10.1733(4)
_cell_length_c 15.1181(5)
_cell_angle_alpha 90
_cell_angle_beta 94.113(2)
_cell_angle_gamma 90
_cell_formula_units_Z 4
loop_
_atom_type_symbol
_atom_type_radius_bond
C 0.68
H 0.23
N 0.68
O 0.68
loop_
_atom_site_label
_atom_site_type_symbol
_atom_site_fract_x
_atom_site_fract_y
_atom_site_fract_z
C1 C 0.77677(9) 0.99916(10) 0.07486(6)
C2 C 0.70748(9) 0.88409(9) 0.06439(6)
C3 C 0.59408(9) 0.8877(1) 0.09554(6)
H1 H 0.54510 0.81180 0.08880
C4 C 0.55004(9) 0.99854(10) 0.13619(6)
C5 C 0.62121(9) 1.11084(10) 0.14425(6)
H2 H 0.59090 1.18720 0.17090
C6 C 0.73536(9) 1.11450(9) 0.11447(6)
C7 C 0.43257(9) 0.99389(9) 0.17435(6)
C8 C 0.33994(9) 0.91595(10) 0.13644(7)
H3 H 0.35170 0.86720 0.08420
C9 C 0.23145(9) 0.90879(10) 0.17389(7)
H4 H 0.16920 0.85530 0.14800
C10 C 0.21552(9) 0.98101(10) 0.24970(7)
C11 C 0.30441(9) 1.05992(10) 0.28897(7)
H5 H 0.29150 1.10920 0.34080
C12 C 0.41262(9) 1.06547(10) 0.25115(7)
H6 H 0.47450 1.11880 0.27770
C13 C 0.81324(9) 1.23816(9) 0.12740(7)
C14 C 0.74771(9) 1.35032(10) 0.17135(7)
H7 H 0.67600 1.37350 0.13420
H8 H 0.80000 1.42720 0.17810
H9 H 0.72540 1.32190 0.22980
C15 C 0.92432(9) 1.20573(11) 0.18873(7)
H10 H 0.97380 1.28450 0.19710
H11 H 0.96990 1.13610 0.16190
H12 H 0.89990 1.17590 0.24630
C16 C 0.84892(10) 1.29083(10) 0.03734(7)
H13 H 0.77730 1.31510 0.00040
H14 H 0.89230 1.22250 0.00730
H15 H 0.89980 1.36830 0.04710
C17 C 0.75522(9) 0.75527(9) 0.02634(7)
C18 C 0.85985(9) 0.70432(10) 0.08849(7)
H16 H 0.83120 0.68240 0.14640
H17 H 0.92110 0.77260 0.09590
H18 H 0.89370 0.62570 0.06260
C19 C 0.79366(10) 0.77178(10) -0.06895(7)
H19 H 0.82260 0.68750 -0.09020
H20 H 0.85720 0.83740 -0.06930
H21 H 0.72550 0.80090 -0.10790
C20 C 0.66018(10) 0.64675(10) 0.02107(7)
H22 H 0.59170 0.67550 -0.01770
H23 H 0.63470 0.62910 0.08050
H24 H 0.69350 0.56650 -0.00300
N1 N 0.10133(8) 0.97344(9) 0.29024(6)
O1 O 0.89044(7) 1.00482(8) 0.04686(5)
O2 O 0.02898(7) 0.89057(9) 0.26134(7)
O3 O 0.08348(7) 1.04987(9) 0.35079(5)
H25 H 0.9086(17) 0.9447(17) 0.0298(9)
#END
