
#######################################################################
#
#                 Cambridge Crystallographic Data Centre
#                                CCDC
#
#######################################################################
#
# If this CIF has been generated from an entry in the Cambridge
# Structural Database, then it will include bibliographic, chemical,
# crystal, experimental, refinement or atomic coordinate data resulting
# from the CCDC's data processing and validation procedures.
#
#######################################################################

data_CSD_CIF_RUGJUZ
_audit_creation_date 2010-01-21
_audit_creation_method CSD-ConQuest-V1
_database_code_CSD RUGJUZ
_database_code_depnum_ccdc_archive 'CCDC 758282'
_chemical_formula_sum 'C4 H4 N4 O4'
_chemical_formula_moiety
;
C4 H4 N4 O4
;
_journal_coeditor_code "IUCr LX2116"
_journal_coden_Cambridge 1370
_journal_volume 65
_journal_year 2009
_journal_page_first o3073
_journal_name_full 'Acta Crystallogr.,Sect.E:Struct.Rep.Online '
loop_
_publ_author_name
"Yong-Xiang Li"
"Xiao-Jun Wang"
"Jian-Long Wang"
_chemical_name_systematic
;
1-Methyl-4,5-dinitro-1H-imidazole
;
_cell_volume    698.160
_exptl_crystal_colour 'colorless'
_exptl_crystal_density_diffrn 1.637
_exptl_crystal_description 'block'
_exptl_crystal_preparation 'methanol'
_diffrn_ambient_temperature 293
#These two values have been output from a single CSD field.
_refine_ls_R_factor_gt 0.046
_refine_ls_wR_factor_gt 0.046
_symmetry_cell_setting orthorhombic
_symmetry_space_group_name_H-M 'P n a 21'
_symmetry_Int_Tables_number 33
loop_
_symmetry_equiv_pos_site_id
_symmetry_equiv_pos_as_xyz
1 x,y,z
2 -x,-y,1/2+z
3 1/2-x,1/2+y,1/2+z
4 1/2+x,1/2-y,z
_cell_length_a 8.412(2)
_cell_length_b 12.646(3)
_cell_length_c 6.563(1)
_cell_angle_alpha 90
_cell_angle_beta 90
_cell_angle_gamma 90
_cell_formula_units_Z 4
loop_
_atom_type_symbol
_atom_type_radius_bond
C 0.68
H 0.23
N 0.68
O 0.68
loop_
_atom_site_label
_atom_site_type_symbol
_atom_site_fract_x
_atom_site_fract_y
_atom_site_fract_z
C1 C 0.2730(4) 0.7411(2) 0.2853(6)
H1 H 0.32510 0.77510 0.17890
C2 C 0.1370(3) 0.7145(2) 0.5486(5)
C3 C 0.1843(3) 0.61741(19) 0.4808(5)
C4 C 0.3530(4) 0.5610(3) 0.1731(6)
H2 H 0.39550 0.59880 0.05850
H3 H 0.27800 0.50920 0.12620
H4 H 0.43770 0.52640 0.24470
N1 N 0.2728(2) 0.63562(17) 0.3106(4)
N2 N 0.1915(4) 0.79129(19) 0.4271(5)
N3 N 0.1551(3) 0.51403(18) 0.5576(4)
N4 N 0.0529(3) 0.7419(2) 0.7316(5)
O1 O 0.2496(3) 0.44510(19) 0.5115(6)
O2 O 0.0370(3) 0.5008(2) 0.6601(5)
O3 O 0.0716(4) 0.6874(3) 0.8832(5)
O4 O -0.0300(3) 0.8211(2) 0.7273(6)
#END
