
#######################################################################
#
#                 Cambridge Crystallographic Data Centre
#                                CCDC
#
#######################################################################
#
# If this CIF has been generated from an entry in the Cambridge
# Structural Database, then it will include bibliographic, chemical,
# crystal, experimental, refinement or atomic coordinate data resulting
# from the CCDC's data processing and validation procedures.
#
#######################################################################

data_CSD_CIF_RUGMEM
_audit_creation_date 2010-01-21
_audit_creation_method CSD-ConQuest-V1
_database_code_CSD RUGMEM
_database_code_depnum_ccdc_archive 'CCDC 758296'
_chemical_formula_sum 'C21 H15 N3 O4'
_chemical_formula_moiety
;
C21 H15 N3 O4
;
_journal_coeditor_code "IUCr FJ2257"
_journal_coden_Cambridge 1370
_journal_volume 65
_journal_year 2009
_journal_page_first o3088
_journal_name_full 'Acta Crystallogr.,Sect.E:Struct.Rep.Online '
loop_
_publ_author_name
"J.H.Goh"
"H.-K.Fun"
"Nithinchandra"
"B.Kalluraya"
_chemical_name_systematic
;
(4-Methylphenyl)(3-(5-nitro-2-furyl)-1-phenyl-1H-pyrazol-4-yl)methanone
;
_cell_volume   1730.168
_exptl_crystal_colour 'brown'
_exptl_crystal_density_diffrn 1.433
_exptl_crystal_description 'block'
_exptl_crystal_preparation 'dimethylformamide/ethanol'
_diffrn_ambient_temperature 100
#These two values have been output from a single CSD field.
_refine_ls_R_factor_gt 0.0671
_refine_ls_wR_factor_gt 0.0671
_symmetry_cell_setting monoclinic
_symmetry_space_group_name_H-M 'P 21/c'
_symmetry_Int_Tables_number 14
loop_
_symmetry_equiv_pos_site_id
_symmetry_equiv_pos_as_xyz
1 x,y,z
2 -x,1/2+y,1/2-z
3 -x,-y,-z
4 x,-1/2-y,-1/2+z
_cell_length_a 11.3859(2)
_cell_length_b 7.5746(2)
_cell_length_c 21.0008(4)
_cell_angle_alpha 90
_cell_angle_beta 107.202(1)
_cell_angle_gamma 90
_cell_formula_units_Z 4
loop_
_atom_type_symbol
_atom_type_radius_bond
C 0.68
H 0.23
N 0.68
O 0.68
loop_
_atom_site_label
_atom_site_type_symbol
_atom_site_fract_x
_atom_site_fract_y
_atom_site_fract_z
O1 O -0.26961(11) 0.68826(17) -0.02101(6)
O2 O 0.05600(11) 0.98467(18) 0.11675(6)
O3 O -0.56846(12) 0.7483(2) -0.01746(8)
O4 O -0.49541(13) 0.5852(2) -0.08230(8)
N1 N 0.04825(13) 0.6498(2) -0.06270(7)
N2 N -0.06690(14) 0.6518(2) -0.05573(8)
N3 N -0.48241(15) 0.6877(2) -0.03543(9)
C1 C 0.33869(18) 0.7702(3) 0.12408(9)
H1 H 0.30850 0.66240 0.10490
C2 C 0.46370(18) 0.7905(3) 0.15579(10)
H2 H 0.51600 0.69460 0.15850
C3 C 0.51237(18) 0.9510(3) 0.18361(10)
C4 C 0.43195(18) 1.0917(3) 0.17911(9)
H3 H 0.46280 1.20090 0.19650
C5 C 0.30696(18) 1.0725(3) 0.14930(9)
H4 H 0.25460 1.16750 0.14800
C6 C 0.25869(17) 0.9108(3) 0.12104(9)
C7 C 0.12233(17) 0.8988(2) 0.09159(9)
C8 C 0.06949(16) 0.7914(2) 0.03174(9)
C9 C -0.05508(16) 0.7393(2) 0.00105(9)
C10 C -0.16698(17) 0.7701(2) 0.01993(9)
C11 C -0.19765(17) 0.8688(3) 0.06673(10)
H5 H -0.14430 0.93380 0.10070
C12 C -0.32650(18) 0.8533(3) 0.05368(10)
H6 H -0.37520 0.90680 0.07670
C13 C -0.36327(17) 0.7451(3) 0.00098(10)
C14 C 0.13067(17) 0.7302(2) -0.01160(9)
H7 H 0.21430 0.74250 -0.00640
C15 C 0.06792(17) 0.5688(2) -0.12035(9)
C16 C -0.02628(18) 0.4746(3) -0.16354(9)
H8 H -0.10250 0.46640 -0.15590
C17 C -0.00643(19) 0.3924(3) -0.21841(10)
H9 H -0.06930 0.32750 -0.24730
C18 C 0.10610(19) 0.4062(3) -0.23042(10)
H10 H 0.11900 0.35160 -0.26740
C19 C 0.19937(19) 0.5017(3) -0.18716(10)
H11 H 0.27510 0.51110 -0.19530
C20 C 0.18140(18) 0.5839(3) -0.1317(1)
H12 H 0.24450 0.64810 -0.10260
C21 C 0.64761(18) 0.9736(3) 0.21836(11)
H13 H 0.67680 1.07840 0.20220
H14 H 0.69160 0.87290 0.20950
H15 H 0.66070 0.98380 0.26550
#END
