
#######################################################################
#
#                 Cambridge Crystallographic Data Centre
#                                CCDC
#
#######################################################################
#
# If this CIF has been generated from an entry in the Cambridge
# Structural Database, then it will include bibliographic, chemical,
# crystal, experimental, refinement or atomic coordinate data resulting
# from the CCDC's data processing and validation procedures.
#
#######################################################################

data_CSD_CIF_RUGNIR
_audit_creation_date 2010-01-21
_audit_creation_method CSD-ConQuest-V1
_database_code_CSD RUGNIR
_database_code_depnum_ccdc_archive 'CCDC 758302'
_chemical_formula_sum 'C8 H7 N1 O4'
_chemical_formula_moiety
;
C8 H7 N1 O4
;
_journal_coeditor_code "IUCr ZS2018"
_journal_coden_Cambridge 1370
_journal_volume 65
_journal_year 2009
_journal_page_first o3096
_journal_name_full 'Acta Crystallogr.,Sect.E:Struct.Rep.Online '
loop_
_publ_author_name
"H.Wu"
"M.-H.Xie"
"P.Zou"
"Y.-L.Liu"
"Y.-J.He"
_chemical_name_systematic
;
Methyl 4-nitrobenzoate
;
_chemical_melting_point 369
_cell_volume    783.583
_exptl_crystal_colour 'colorless'
_exptl_crystal_density_diffrn 1.536
_exptl_crystal_description 'plate'
_exptl_crystal_preparation 'methanol/water'
_diffrn_ambient_temperature 93
#These two values have been output from a single CSD field.
_refine_ls_R_factor_gt 0.0342
_refine_ls_wR_factor_gt 0.0342
_symmetry_cell_setting monoclinic
_symmetry_space_group_name_H-M 'P 21/c'
_symmetry_Int_Tables_number 14
loop_
_symmetry_equiv_pos_site_id
_symmetry_equiv_pos_as_xyz
1 x,y,z
2 -x,1/2+y,1/2-z
3 -x,-y,-z
4 x,-1/2-y,-1/2+z
_cell_length_a 7.109(3)
_cell_length_b 17.092(6)
_cell_length_c 7.193(3)
_cell_angle_alpha 90
_cell_angle_beta 116.292(4)
_cell_angle_gamma 90
_cell_formula_units_Z 4
loop_
_atom_type_symbol
_atom_type_radius_bond
C 0.68
H 0.23
N 0.68
O 0.68
loop_
_atom_site_label
_atom_site_type_symbol
_atom_site_fract_x
_atom_site_fract_y
_atom_site_fract_z
O1 O 0.35100(15) 0.66883(5) 0.67509(14)
O2 O 0.30933(15) 0.59510(5) 0.91414(14)
O3 O 0.14128(16) 0.28185(5) 0.23700(16)
O4 O 0.14076(17) 0.36321(6) 0.00524(15)
N1 N 0.15702(17) 0.34819(6) 0.17881(17)
C1 C 0.25319(19) 0.54972(7) 0.39808(19)
H1 H 0.26380 0.60160 0.35630
C2 C 0.21513(19) 0.48826(7) 0.2601(2)
H2 H 0.20070 0.49710 0.12400
C3 C 0.19872(19) 0.41347(7) 0.3264(2)
C4 C 0.21927(19) 0.39748(7) 0.5240(2)
H3 H 0.20650 0.34560 0.56430
C5 C 0.25907(19) 0.45958(7) 0.6606(2)
H4 H 0.27490 0.45030 0.79700
C6 C 0.27592(18) 0.53560(7) 0.59852(19)
C7 C 0.31372(19) 0.60132(7) 0.7484(2)
C8 C 0.3760(2) 0.73724(8) 0.8036(2)
H5 H 0.25320 0.74250 0.83100
H6 H 0.38900 0.78400 0.73130
H7 H 0.50250 0.73140 0.93510
#END
