
#######################################################################
#
#                 Cambridge Crystallographic Data Centre
#                                CCDC
#
#######################################################################
#
# If this CIF has been generated from an entry in the Cambridge
# Structural Database, then it will include bibliographic, chemical,
# crystal, experimental, refinement or atomic coordinate data resulting
# from the CCDC's data processing and validation procedures.
#
#######################################################################

data_CSD_CIF_RUHHOR
_audit_creation_date 1998-02-12
_audit_creation_method CSD-ConQuest-V1
_database_code_CSD RUHHOR
_database_code_depnum_ccdc_archive 'CCDC 1252408; CCDC 403061'
_database_code_depnum_ccdc_fiz 'CSD 403061'
_chemical_formula_sum 'C12 H8 N2 O6'
_chemical_formula_moiety
;
C12 H8 N2 O6
;
_journal_coden_Cambridge 643
_journal_volume 212
_journal_year 1997
_journal_page_first 226
_journal_name_full 'Z.Krist.Cryst.Mater. '
loop_
_publ_author_name
"P.Vojtisek"
"I.Cisarova"
"J.Podlaha"
"Z.Zak"
"S.Bohm"
"M.Tichy"
"J.Zavada"
_chemical_name_systematic
;
(S)-2,2'-Bipyridine-3,3'-dicarboxylic acid 1,1'-dioxide
;
_cell_volume   2340.350
_exptl_crystal_colour 'colorless'
_exptl_crystal_density_diffrn 1.568
_exptl_special_details
;
Absolute configuration

;
_exptl_crystal_description 'parallelepipeds'
_diffrn_ambient_temperature ?
_diffrn_special_details
;
The study was carried out at room temperature,in the range 283-303K

;
#These two values have been output from a single CSD field.
_refine_ls_R_factor_gt 0.0282
_refine_ls_wR_factor_gt 0.0282
loop_
_citation_database_id_CSD
_citation_special_details
RUHHEH "is a racemate of this entry"
_symmetry_cell_setting orthorhombic
_symmetry_space_group_name_H-M 'C 2 2 21'
_symmetry_Int_Tables_number 20
loop_
_symmetry_equiv_pos_site_id
_symmetry_equiv_pos_as_xyz
1 x,y,z
2 -x,-y,1/2+z
3 x,-y,-z
4 -x,y,1/2-z
5 1/2+x,1/2+y,z
6 1/2-x,1/2-y,1/2+z
7 1/2+x,1/2-y,-z
8 1/2-x,1/2+y,1/2-z
_cell_length_a 8.274(1)
_cell_length_b 13.608(3)
_cell_length_c 20.786(2)
_cell_angle_alpha 90
_cell_angle_beta 90
_cell_angle_gamma 90
_cell_formula_units_Z 8
loop_
_atom_type_symbol
_atom_type_radius_bond
C 0.68
H 0.23
N 0.68
O 0.68
loop_
_atom_site_label
_atom_site_type_symbol
_atom_site_fract_x
_atom_site_fract_y
_atom_site_fract_z
O1 O 0.2271(4) -0.1327(3) 0.47335(12)
N1 N 0.1488(4) -0.0702(3) 0.4358(2)
C1 C 0.0588(5) 0.0012(3) 0.4644(2)
C2 C -0.0180(6) 0.0704(3) 0.4264(2)
C3 C -0.1138(6) 0.1498(3) 0.4591(2)
O2 O -0.1321(5) 0.2255(3) 0.4217(2)
O3 O -0.1715(4) 0.1405(2) 0.51151(15)
H1 H -0.1877(65) 0.2742(40) 0.4438(23)
C4 C -0.0036(6) 0.0659(4) 0.3604(2)
H2 H -0.0557(41) 0.1147(30) 0.3320(19)
C5 C 0.0860(5) -0.0084(3) 0.3330(2)
H3 H 0.1027(46) -0.0147(31) 0.2809(20)
C6 C 0.1612(6) -0.0768(3) 0.3712(2)
H4 H 0.2247(42) -0.1358(29) 0.3516(19)
O4 O -0.1662(4) 0.4616(2) 0.22080(14)
N2 N -0.0801(4) 0.5215(3) 0.1847(2)
C7 C 0.0055(5) 0.5928(3) 0.2150(2)
C8 C 0.0942(5) 0.6588(3) 0.1776(2)
C9 C 0.1898(6) 0.7377(3) 0.2101(2)
O5 O 0.2300(5) 0.8072(3) 0.17139(15)
H5 H 0.2952(73) 0.8617(50) 0.1914(27)
O6 O 0.2233(4) 0.7362(2) 0.2655(2)
C10 C 0.0917(6) 0.6513(3) 0.1113(2)
H6 H 0.1361(49) 0.6973(30) 0.0847(18)
C11 C 0.0036(6) 0.5770(3) 0.0832(2)
H7 H -0.0062(49) 0.5688(26) 0.0406(19)
C12 C -0.0821(5) 0.5119(3) 0.1199(2)
H8 H -0.1413(52) 0.4565(35) 0.1045(19)
C1B C 0.0588(5) -0.0012(3) 0.5356(2)
N1B N 0.1488(4) 0.0702(3) 0.5642(2)
O1B O 0.2271(4) 0.1327(3) 0.52665(12)
C6B C 0.1612(6) 0.0768(3) 0.6288(2)
C5B C 0.0860(5) 0.0084(3) 0.6670(2)
C4B C -0.0036(6) -0.0659(4) 0.6396(2)
C2B C -0.0180(6) -0.0704(3) 0.5736(2)
C3B C -0.1138(6) -0.1498(3) 0.5409(2)
O2B O -0.1321(5) -0.2255(3) 0.5783(2)
H1B H -0.1877(65) -0.2742(40) 0.5562(23)
O3B O -0.1715(4) -0.1405(2) 0.48849(15)
H2B H -0.0557(41) -0.1147(30) 0.6680(19)
H3B H 0.1027(46) 0.0147(31) 0.7191(20)
H4B H 0.2247(42) 0.1358(29) 0.6484(19)
C7C C -0.0055(5) 0.5928(3) 0.2850(2)
N2C N 0.0801(4) 0.5215(3) 0.3153(2)
O4C O 0.1662(4) 0.4616(2) 0.27920(14)
C12C C 0.0821(5) 0.5119(3) 0.3801(2)
C11C C -0.0036(6) 0.5770(3) 0.4168(2)
C10C C -0.0917(6) 0.6513(3) 0.3887(2)
C8C C -0.0942(5) 0.6588(3) 0.3224(2)
C9C C -0.1898(6) 0.7377(3) 0.2899(2)
O5C O -0.2300(5) 0.8072(3) 0.32861(15)
H5C H -0.2952(73) 0.8617(50) 0.3086(27)
O6C O -0.2233(4) 0.7362(2) 0.2345(2)
H6C H -0.1361(49) 0.6973(30) 0.4153(18)
H7C H 0.0062(49) 0.5688(26) 0.4594(19)
H8C H 0.1413(52) 0.4565(35) 0.3955(19)
#END
