
#######################################################################
#
#                 Cambridge Crystallographic Data Centre
#                                CCDC
#
#######################################################################
#
# If this CIF has been generated from an entry in the Cambridge
# Structural Database, then it will include bibliographic, chemical,
# crystal, experimental, refinement or atomic coordinate data resulting
# from the CCDC's data processing and validation procedures.
#
#######################################################################

data_CSD_CIF_RUJBAA
_audit_creation_date 2010-03-10
_audit_creation_method CSD-ConQuest-V1
_database_code_CSD RUJBAA
_database_code_depnum_ccdc_archive 'CCDC 722554'
_chemical_formula_sum 'C26 H17 N1 O3'
_chemical_formula_moiety
;
C26 H17 N1 O3
;
_journal_coden_Cambridge 35
_journal_volume 74
_journal_year 2009
_journal_page_first 4763
_journal_name_full 'J.Org.Chem. '
loop_
_publ_author_name
"S.Hayashi"
"T.Nakamoto"
"M.Minoura"
"W.Nakanishi"
_chemical_name_systematic
;
1-(4-Nitrophenoxy)pentacyclo-[6.6.6.0^2,7^.0^9,14^.0^15,20^]icosa-2,4,6,9,11,1
3,15,17,19-nonaene
;
_chemical_name_common
;
9-(p-Nitrophenoxy)triptycene
;
_chemical_melting_point 553.15
_cell_volume   1929.050
_exptl_crystal_colour 'colorless'
_exptl_crystal_density_diffrn 1.348
_exptl_special_details
;
Melting point range 553.15-554.15K

;
_exptl_crystal_description 'plate'
_exptl_crystal_preparation 'dichloromethane/n-hexane'
_diffrn_ambient_temperature 233
#These two values have been output from a single CSD field.
_refine_ls_R_factor_gt 0.038
_refine_ls_wR_factor_gt 0.038
_symmetry_cell_setting monoclinic
_symmetry_space_group_name_H-M 'P 21/n'
_symmetry_Int_Tables_number 14
loop_
_symmetry_equiv_pos_site_id
_symmetry_equiv_pos_as_xyz
1 x,y,z
2 1/2-x,1/2+y,1/2-z
3 -x,-y,-z
4 -1/2+x,-1/2-y,-1/2+z
_cell_length_a 11.5872(6)
_cell_length_b 13.3959(7)
_cell_length_c 12.7941(7)
_cell_angle_alpha 90
_cell_angle_beta 103.744(1)
_cell_angle_gamma 90
_cell_formula_units_Z 4
loop_
_atom_type_symbol
_atom_type_radius_bond
C 0.68
H 0.23
N 0.68
O 0.68
loop_
_atom_site_label
_atom_site_type_symbol
_atom_site_fract_x
_atom_site_fract_y
_atom_site_fract_z
C1 C 0.24020(9) 0.15977(8) 0.06029(9)
C2 C 0.31710(9) 0.10305(8) 0.15570(9)
C3 C 0.38624(10) 0.02014(9) 0.14932(11)
H1 H 0.38720 -0.00810 0.08310
C4 C 0.45457(12) -0.01999(10) 0.24482(12)
H2 H 0.50120 -0.07600 0.24220
C5 C 0.45383(13) 0.02213(12) 0.34269(12)
H3 H 0.50050 -0.00540 0.40540
C6 C 0.38402(12) 0.10548(11) 0.34891(11)
H4 H 0.38360 0.13370 0.41520
C7 C 0.31531(10) 0.14568(9) 0.25509(9)
C8 C 0.2359(1) 0.23775(9) 0.24496(9)
H5 H 0.23420 0.26740 0.31460
C9 C 0.28431(10) 0.30847(9) 0.17246(9)
C10 C 0.32765(11) 0.40366(9) 0.19970(11)
H6 H 0.32460 0.43120 0.26570
C11 C 0.37574(12) 0.45759(10) 0.12748(13)
H7 H 0.40340 0.52220 0.14450
C12 C 0.38260(11) 0.41574(10) 0.03060(12)
H8 H 0.41550 0.45230 -0.01690
C13 C 0.3409(1) 0.31958(9) 0.00307(10)
H9 H 0.34750 0.29110 -0.06160
C14 C 0.28943(9) 0.26685(8) 0.07333(9)
C15 C 0.11529(10) 0.16187(8) 0.08140(9)
C16 C 0.01251(11) 0.12292(9) 0.01589(11)
H10 H 0.01330 0.09590 -0.05090
C17 C -0.09207(11) 0.12491(10) 0.05164(13)
H11 H -0.16180 0.09930 0.00830
C18 C -0.09281(11) 0.16458(10) 0.15094(12)
H12 H -0.16290 0.16450 0.17430
C19 C 0.00983(11) 0.20467(10) 0.21652(11)
H13 H 0.00850 0.23210 0.28300
C20 C 0.11428(10) 0.20330(8) 0.18152(10)
C21 C 0.20513(10) 0.14399(9) -0.13595(9)
C22 C 0.24228(12) 0.08994(10) -0.21537(10)
H14 H 0.28760 0.03240 -0.19720
C23 C 0.21176(12) 0.12183(11) -0.32071(11)
H15 H 0.23660 0.08670 -0.37410
C24 C 0.14356(11) 0.20705(11) -0.34553(10)
C25 C 0.10178(11) 0.25915(10) -0.26878(10)
H16 H 0.05410 0.31520 -0.28800
C26 C 0.13189(10) 0.22686(9) -0.16305(10)
H17 H 0.10340 0.26030 -0.11060
O1 O 0.24864(7) 0.10784(6) -0.03449(6)
N1 N 0.11867(12) 0.24505(12) -0.45523(10)
O2 O 0.14712(13) 0.19362(12) -0.52417(9)
O3 O 0.07193(12) 0.32688(11) -0.47411(10)
#END
