
#######################################################################
#
#                 Cambridge Crystallographic Data Centre
#                                CCDC
#
#######################################################################
#
# If this CIF has been generated from an entry in the Cambridge
# Structural Database, then it will include bibliographic, chemical,
# crystal, experimental, refinement or atomic coordinate data resulting
# from the CCDC's data processing and validation procedures.
#
#######################################################################

data_CSD_CIF_RUJHAG
_audit_creation_date 2010-03-10
_audit_creation_method CSD-ConQuest-V1
_database_code_CSD RUJHAG
_database_code_depnum_ccdc_archive 'CCDC 758201'
_chemical_formula_sum 'C16 H19 N1 O2'
_chemical_formula_moiety
;
C16 H19 N1 O2
;
_journal_coeditor_code "IUCr DN2504"
_journal_coden_Cambridge 1370
_journal_volume 65
_journal_year 2009
_journal_page_first o2971
_journal_name_full 'Acta Crystallogr.,Sect.E:Struct.Rep.Online '
loop_
_publ_author_name
"O.Khalil"
"K.Bougrin"
"R.Benhida"
"M.Soufiaoui"
"L.E.Ammari"
_chemical_name_systematic
;
1-(3-p-Tolylisoxazol-5-yl)cyclohexanol
;
_cell_volume   2860.881
_exptl_crystal_colour 'colorless'
_exptl_crystal_density_diffrn 1.195
_exptl_crystal_description 'block'
_exptl_crystal_preparation 'ethanol'
_diffrn_ambient_temperature 298
#These two values have been output from a single CSD field.
_refine_ls_R_factor_gt 0.0385
_refine_ls_wR_factor_gt 0.0385
_symmetry_cell_setting orthorhombic
_symmetry_space_group_name_H-M 'P c a 21'
_symmetry_Int_Tables_number 29
loop_
_symmetry_equiv_pos_site_id
_symmetry_equiv_pos_as_xyz
1 x,y,z
2 -x,-y,1/2+z
3 1/2-x,y,1/2+z
4 1/2+x,-y,z
_cell_length_a 10.9404(3)
_cell_length_b 9.7136(3)
_cell_length_c 26.9207(7)
_cell_angle_alpha 90
_cell_angle_beta 90
_cell_angle_gamma 90
_cell_formula_units_Z 8
loop_
_atom_type_symbol
_atom_type_radius_bond
C 0.68
H 0.23
N 0.68
O 0.68
loop_
_atom_site_label
_atom_site_type_symbol
_atom_site_fract_x
_atom_site_fract_y
_atom_site_fract_z
O1 O 0.06445(8) 0.00823(10) 0.57893(4)
H1 H 0.09300 0.08320 0.58670
O2 O 0.11978(9) -0.17692(11) 0.65818(4)
N1 N 0.17299(11) -0.19192(14) 0.70537(4)
C1 C 0.26673(12) -0.03462(16) 0.54425(5)
H2 H 0.33250 -0.10150 0.54380
H3 H 0.29740 0.04890 0.55950
C2 C 0.22715(16) -0.0037(2) 0.49105(6)
H4 H 0.16610 0.06880 0.49130
H5 H 0.29700 0.02870 0.47220
C3 C 0.17463(17) -0.1307(2) 0.46633(6)
H6 H 0.23770 -0.20040 0.46340
H7 H 0.14680 -0.10750 0.43320
C4 C 0.06776(16) -0.18753(18) 0.49661(6)
H8 H 0.00140 -0.12140 0.49640
H9 H 0.03840 -0.27170 0.48130
C5 C 0.10482(13) -0.21730(13) 0.55016(6)
H10 H 0.16360 -0.29210 0.55070
H11 H 0.03350 -0.24630 0.56880
C6 C 0.16095(10) -0.09053(12) 0.57496(5)
C7 C 0.20414(11) -0.12361(12) 0.62677(5)
C8 C 0.31007(12) -0.10441(14) 0.65116(5)
H12 H 0.38300 -0.06990 0.63850
C9 C 0.28579(12) -0.14860(13) 0.70052(5)
C10 C 0.36790(13) -0.14279(14) 0.74392(5)
C11 C 0.46620(14) -0.05373(16) 0.74405(5)
H13 H 0.48170 0.00030 0.71620
C12 C 0.54184(16) -0.04399(19) 0.78505(6)
H14 H 0.60740 0.01690 0.78440
C13 C 0.52180(16) -0.12314(19) 0.82699(6)
C14 C 0.42354(18) -0.2130(2) 0.82669(6)
H15 H 0.40870 -0.26770 0.85440
C15 C 0.34695(16) -0.22311(18) 0.78595(6)
H16 H 0.28120 -0.28380 0.78660
C16 C 0.6071(2) -0.1127(3) 0.87111(8)
H17 H 0.69010 -0.12220 0.86010
H18 H 0.58850 -0.18450 0.89440
H19 H 0.59680 -0.02470 0.88680
O3 O 0.13845(8) 0.27957(9) 0.59456(4)
H20 H 0.08330 0.32170 0.58060
O4 O 0.37614(10) 0.53575(12) 0.59082(4)
N2 N 0.43241(12) 0.59158(15) 0.54833(5)
C17 C 0.30531(13) 0.29329(15) 0.65160(6)
H21 H 0.34000 0.21650 0.63340
H22 H 0.37210 0.35180 0.66240
C18 C 0.23731(17) 0.23905(17) 0.69701(6)
H23 H 0.17800 0.17070 0.68650
H24 H 0.29490 0.19440 0.71920
C19 C 0.1719(2) 0.35391(19) 0.72487(6)
H25 H 0.12690 0.31530 0.75260
H26 H 0.23160 0.41820 0.73800
C20 C 0.08429(16) 0.42955(17) 0.69051(6)
H27 H 0.02110 0.36680 0.67930
H28 H 0.04530 0.50410 0.70850
C21 C 0.15192(13) 0.48696(13) 0.64607(5)
H29 H 0.20970 0.55610 0.65730
H30 H 0.09390 0.53160 0.62410
C22 C 0.22078(11) 0.37544(12) 0.61712(5)
C23 C 0.29290(11) 0.44198(13) 0.57612(5)
C24 C 0.29195(13) 0.43498(14) 0.52616(5)
H31 H 0.24310 0.37920 0.50630
C25 C 0.38164(12) 0.53111(14) 0.51042(5)
C26 C 0.41837(14) 0.56858(16) 0.45954(6)
C27 C 0.49890(17) 0.6774(2) 0.45147(7)
H32 H 0.52830 0.72840 0.47810
C28 C 0.53507(19) 0.7092(3) 0.40341(8)
H33 H 0.58870 0.78220 0.39840
C29 C 0.4935(2) 0.6354(2) 0.36267(7)
C30 C 0.4112(3) 0.5332(3) 0.37146(8)
H34 H 0.37920 0.48470 0.34460
C31 C 0.3732(3) 0.4987(2) 0.41912(7)
H35 H 0.31700 0.42800 0.42370
C32 C 0.5363(3) 0.6679(4) 0.31036(9)
H36 H 0.58100 0.75290 0.31050
H37 H 0.46680 0.67610 0.28880
H38 H 0.58830 0.59510 0.29870
#END
