
#######################################################################
#
#                 Cambridge Crystallographic Data Centre
#                                CCDC
#
#######################################################################
#
# If this CIF has been generated from an entry in the Cambridge
# Structural Database, then it will include bibliographic, chemical,
# crystal, experimental, refinement or atomic coordinate data resulting
# from the CCDC's data processing and validation procedures.
#
#######################################################################

data_CSD_CIF_RUJSEV
_audit_creation_date 2010-03-10
_audit_creation_method CSD-ConQuest-V1
_database_code_CSD RUJSEV
_database_code_depnum_ccdc_archive 'CCDC 758398'
_chemical_formula_sum 'C16 H16 N2 O6'
_chemical_formula_moiety
;
C16 H16 N2 O6
;
_journal_coeditor_code "IUCr IM2156"
_journal_coden_Cambridge 1370
_journal_volume 65
_journal_year 2009
_journal_page_first o3217
_journal_name_full 'Acta Crystallogr.,Sect.E:Struct.Rep.Online '
loop_
_publ_author_name
"P.Elizondo"
"C.Rodriguez de Barbarin"
"B.Najera"
"N.Perez"
_chemical_name_systematic
;
1,4-bis(2-nitrophenoxy)butane
;
_chemical_melting_point 442
_cell_volume    776.437
_exptl_crystal_colour 'colorless'
_exptl_crystal_density_diffrn 1.421
_exptl_special_details
;
Melting point range 442-443K

;
_exptl_crystal_description 'block'
_exptl_crystal_preparation 'acetonitrile'
_diffrn_ambient_temperature 296
#These two values have been output from a single CSD field.
_refine_ls_R_factor_gt 0.0478
_refine_ls_wR_factor_gt 0.0478
_symmetry_cell_setting monoclinic
_symmetry_space_group_name_H-M 'P 21/c'
_symmetry_Int_Tables_number 14
loop_
_symmetry_equiv_pos_site_id
_symmetry_equiv_pos_as_xyz
1 x,y,z
2 -x,1/2+y,1/2-z
3 -x,-y,-z
4 x,-1/2-y,-1/2+z
_cell_length_a 7.7977(8)
_cell_length_b 13.888(2)
_cell_length_c 7.6729(8)
_cell_angle_alpha 90
_cell_angle_beta 110.866(6)
_cell_angle_gamma 90
_cell_formula_units_Z 2
loop_
_atom_type_symbol
_atom_type_radius_bond
C 0.68
H 0.23
N 0.68
O 0.68
loop_
_atom_site_label
_atom_site_type_symbol
_atom_site_fract_x
_atom_site_fract_y
_atom_site_fract_z
O1 O 0.19481(19) 0.21566(10) 0.9250(3)
O2 O 0.32880(19) 0.33983(9) 0.8740(2)
O3 O 0.28310(12) 0.07009(6) 0.74649(13)
N1 N 0.32195(16) 0.25370(9) 0.89929(17)
C1 C 0.47947(16) 0.19562(9) 0.90340(16)
C2 C 0.65074(18) 0.23662(10) 0.98583(19)
H1 H 0.66180 0.29790 1.03760
C3 C 0.80442(19) 0.18694(12) 0.9912(2)
H2 H 0.92050 0.21360 1.04780
C4 C 0.7837(2) 0.09688(12) 0.9114(2)
H3 H 0.88740 0.06340 0.91260
C5 C 0.61331(19) 0.05505(10) 0.8296(2)
H4 H 0.60380 -0.00600 0.77720
C6 C 0.45534(16) 0.10362(9) 0.82495(16)
C7 C 0.2563(2) -0.01938(9) 0.6464(2)
H5 H 0.31920 -0.07120 0.72940
H6 H 0.30440 -0.01510 0.54620
C8 C 0.0531(2) -0.03792(10) 0.5688(2)
H7 H 0.00810 -0.04180 0.66990
H8 H 0.03150 -0.09910 0.50630
O1B O -0.19481(19) -0.21566(10) 0.0750(3)
O2B O -0.32880(19) -0.33983(9) 0.1260(2)
O3B O -0.28310(12) -0.07009(6) 0.25351(13)
N1B N -0.32195(16) -0.25370(9) 0.10071(17)
C1B C -0.47947(16) -0.19562(9) 0.09660(16)
C2B C -0.65074(18) -0.23662(10) 0.01417(19)
H1B H -0.66180 -0.29790 -0.03760
C3B C -0.80442(19) -0.18694(12) 0.0088(2)
H2B H -0.92050 -0.21360 -0.04780
C4B C -0.7837(2) -0.09688(12) 0.0886(2)
H3B H -0.88740 -0.06340 0.08740
C5B C -0.61331(19) -0.05505(10) 0.1704(2)
H4B H -0.60380 0.00600 0.22280
C6B C -0.45534(16) -0.10362(9) 0.17505(16)
C7B C -0.2563(2) 0.01938(9) 0.3536(2)
H5B H -0.31920 0.07120 0.27060
H6B H -0.30440 0.01510 0.45380
C8B C -0.0531(2) 0.03792(10) 0.4312(2)
H7B H -0.00810 0.04180 0.33010
H8B H -0.03150 0.09910 0.49370
#END
