
#######################################################################
#
#                 Cambridge Crystallographic Data Centre
#                                CCDC
#
#######################################################################
#
# If this CIF has been generated from an entry in the Cambridge
# Structural Database, then it will include bibliographic, chemical,
# crystal, experimental, refinement or atomic coordinate data resulting
# from the CCDC's data processing and validation procedures.
#
#######################################################################

data_CSD_CIF_RUJVUP
_audit_creation_date 2015-08-06
_audit_creation_method CSD-ConQuest-V1
_database_code_CSD RUJVUP
_database_code_depnum_ccdc_archive 'CCDC 1416826; not CCDC 14168264 as published'
_chemical_formula_sum 'C32 H29 N3 O7'
_chemical_formula_moiety
;
C32 H29 N3 O7
;
_journal_coden_Cambridge 1291
_journal_year 2015
_journal_page_first 7571
_journal_name_full 'Eur.J.Org.Chem. '
loop_
_publ_author_name
"Jing Zhang"
"Wen-Juan Yang"
"Jing Sun"
"Chao-Guo Yan"
_chemical_name_systematic
;
3-ethyl 5-methyl 
3-cyano-1-(4-methoxyphenyl)-4-(4-nitrophenyl)-2-(2-phenylvinyl)-1,2,3,4-tetrah
ydropyridine-3,5-dicarboxylate
;
_cell_volume   5707.434
_exptl_crystal_colour 'colorless'
_exptl_crystal_density_diffrn 1.321
_exptl_crystal_description 'block'
_diffrn_ambient_temperature 296
#These two values have been output from a single CSD field.
_refine_ls_R_factor_gt 0.0544
_refine_ls_wR_factor_gt 0.0544
_symmetry_cell_setting orthorhombic
_symmetry_space_group_name_H-M 'P b c a'
_symmetry_Int_Tables_number 61
loop_
_symmetry_equiv_pos_site_id
_symmetry_equiv_pos_as_xyz
1 x,y,z
2 1/2-x,-y,1/2+z
3 -x,1/2+y,1/2-z
4 1/2+x,1/2-y,-z
5 -x,-y,-z
6 -1/2+x,y,-1/2-z
7 x,-1/2-y,-1/2+z
8 -1/2-x,-1/2+y,z
_cell_length_a 12.1099(13)
_cell_length_b 19.485(2)
_cell_length_c 24.188(3)
_cell_angle_alpha 90
_cell_angle_beta 90
_cell_angle_gamma 90
_cell_formula_units_Z 8
loop_
_atom_type_symbol
_atom_type_radius_bond
C 0.68
H 0.23
N 0.68
O 0.68
loop_
_atom_site_label
_atom_site_type_symbol
_atom_site_fract_x
_atom_site_fract_y
_atom_site_fract_z
C1 C -0.32699(18) 0.93332(12) 0.36074(11)
H1 H -0.36090 0.92070 0.39370
C2 C -0.3896(2) 0.96102(13) 0.31892(13)
H2 H -0.46500 0.96750 0.32390
C3 C -0.3412(3) 0.97906(12) 0.27015(13)
H3 H -0.38380 0.99710 0.24170
C4 C -0.2296(3) 0.97059(12) 0.26308(10)
H4 H -0.19660 0.98360 0.23000
C5 C -0.16622(19) 0.94287(11) 0.30488(9)
H5 H -0.09070 0.93690 0.29970
C6 C -0.21466(16) 0.9239(1) 0.35466(8)
C7 C -0.14944(16) 0.89055(10) 0.39824(8)
H6 H -0.18430 0.85620 0.41840
C8 C -0.04617(15) 0.90464(9) 0.41152(7)
H7 H -0.01290 0.94300 0.39580
C9 C 0.01953(14) 0.86175(9) 0.45070(7)
H8 H -0.02890 0.82560 0.46500
C10 C -0.09978(15) 0.88012(9) 0.55444(7)
H9 H -0.14170 0.87490 0.52250
C11 C -0.14952(16) 0.8727(1) 0.60563(8)
H10 H -0.22410 0.86150 0.60790
C12 C -0.08932(18) 0.88176(9) 0.65297(7)
C13 C -0.2434(2) 0.85645(14) 0.71038(10)
H11 H -0.28780 0.89120 0.69310
H12 H -0.26270 0.85300 0.74880
H13 H -0.25630 0.81320 0.69260
C14 C 0.02095(19) 0.89874(10) 0.64918(8)
H14 H 0.06140 0.90650 0.68120
C15 C 0.07175(16) 0.90427(9) 0.59850(7)
H15 H 0.14680 0.91410 0.59650
C16 C 0.01117(14) 0.89513(8) 0.55029(7)
C17 C 0.15608(14) 0.93818(8) 0.48956(7)
H16 H 0.17510 0.96990 0.51670
C18 C 0.22177(14) 0.93347(8) 0.44499(7)
C19 C 0.30840(15) 0.98436(8) 0.43557(8)
C20 C 0.4157(2) 1.07310(12) 0.47514(11)
H17 H 0.48240 1.05270 0.46130
H18 H 0.42990 1.09400 0.51040
H19 H 0.39040 1.10740 0.44960
C21 C 0.20540(14) 0.87994(8) 0.40047(7)
H20 H 0.17530 0.90320 0.36790
C22 C 0.31312(14) 0.84554(8) 0.38326(7)
C23 C 0.39292(15) 0.82800(9) 0.42209(7)
H21 H 0.37940 0.83640 0.45930
C24 C 0.49130(15) 0.79860(9) 0.40661(7)
H22 H 0.54380 0.78640 0.43290
C25 C 0.51004(16) 0.78773(9) 0.35127(8)
C26 C 0.43294(18) 0.80341(10) 0.31163(8)
H23 H 0.44710 0.79490 0.27450
C27 C 0.33437(16) 0.83199(9) 0.32801(7)
H24 H 0.28110 0.84240 0.30160
C28 C 0.11868(14) 0.82617(8) 0.41986(7)
C29 C 0.16669(15) 0.77639(9) 0.45882(7)
C30 C 0.06804(15) 0.78936(10) 0.36948(8)
C31 C -0.0488(2) 0.69885(13) 0.34081(11)
H25 H -0.10360 0.73080 0.32680
H26 H -0.00230 0.68440 0.31030
C32 C -0.1025(3) 0.64003(15) 0.36546(17)
H27 H -0.04850 0.60540 0.37340
H28 H -0.15640 0.62200 0.34020
H29 H -0.13830 0.65370 0.39910
N1 N 0.20174(15) 0.73886(9) 0.49008(7)
N2 N 0.61851(18) 0.76071(10) 0.33459(9)
N3 N 0.06373(12) 0.89987(7) 0.49789(6)
O1 O 0.33241(11) 1.02091(7) 0.48127(5)
O2 O 0.35498(12) 0.99341(7) 0.39225(6)
O3 O 0.06800(13) 0.81283(9) 0.32410(6)
O4 O 0.01879(12) 0.73211(7) 0.38416(6)
O5 O -0.13014(15) 0.87416(8) 0.70547(6)
O6 O 0.6316(2) 0.74602(14) 0.28689(9)
O7 O 0.68882(15) 0.75327(10) 0.36947(9)
#END
