
#######################################################################
#
#                 Cambridge Crystallographic Data Centre
#                                CCDC
#
#######################################################################
#
# If this CIF has been generated from an entry in the Cambridge
# Structural Database, then it will include bibliographic, chemical,
# crystal, experimental, refinement or atomic coordinate data resulting
# from the CCDC's data processing and validation procedures.
#
#######################################################################

data_CSD_CIF_RUJXAW
_audit_creation_date 2010-03-10
_audit_creation_method CSD-ConQuest-V1
_database_code_CSD RUJXAW
_database_code_depnum_ccdc_archive 'CCDC 680700'
_chemical_formula_sum 'C29 H43 N1 O5'
_chemical_formula_moiety
;
C29 H43 N1 O5
;
_journal_coden_Cambridge 82
_journal_volume 50
_journal_year 2009
_journal_page_first 393
_journal_name_full 'Zh.Strukt.Khim.(Russ.)(J.Struct.Chem.) '
loop_
_publ_author_name
"I.E.Smirnova"
"E.V.Tret'yakova"
"O.B.Kazakova"
"Z.A.Starikova"
_chemical_name_systematic
;
Methyl 
17'-(anti-hydroxyimino)-20'-isopropyl-5',9'-dimethylspiro[1,3-dioxolane-2,14'-
pentacyclo[10.6.2.0^1,10^.0^4,9^.0^13,18^]icos-19-ene]-5'-carboxylate
;
_chemical_name_common
;
Methyl 1-ethylenketal-4-hydroxyimino-2,3-dihydroquinopimarate
;
_chemical_melting_point 416.15
_cell_volume   1385.917
_exptl_crystal_colour 'colorless'
_exptl_crystal_density_diffrn 1.164
_exptl_special_details
;
Melting point range 416.15-418.15K

;
_exptl_crystal_description 'needle'
_exptl_crystal_preparation 'methanol'
_diffrn_ambient_temperature 295
#These two values have been output from a single CSD field.
_refine_ls_R_factor_gt 0.0607
_refine_ls_wR_factor_gt 0.0607
_symmetry_cell_setting monoclinic
_symmetry_space_group_name_H-M 'P 21'
_symmetry_Int_Tables_number 4
loop_
_symmetry_equiv_pos_site_id
_symmetry_equiv_pos_as_xyz
1 x,y,z
2 -x,1/2+y,-z
_cell_length_a 13.785(13)
_cell_length_b 7.302(7)
_cell_length_c 13.817(13)
_cell_angle_alpha 90
_cell_angle_beta 94.799(19)
_cell_angle_gamma 90
_cell_formula_units_Z 2
loop_
_atom_type_symbol
_atom_type_radius_bond
C 0.68
H 0.23
N 0.68
O 0.68
loop_
_atom_site_label
_atom_site_type_symbol
_atom_site_fract_x
_atom_site_fract_y
_atom_site_fract_z
O1 O 0.0993(3) 0.2110(6) 0.4573(3)
O2 O 0.2421(3) 0.3513(7) 0.5138(3)
O3 O 0.0553(3) -0.2839(5) 0.3019(3)
H1 H 0.00590 -0.32740 0.27370
O4 O 0.1099(3) 0.1476(7) -0.1847(3)
O5 O 0.2164(3) -0.0452(7) -0.2318(3)
N1 N 0.0729(4) -0.1064(7) 0.2632(3)
C1 C 0.2012(4) 0.2197(9) 0.4458(4)
C2 C 0.2154(4) 0.2874(8) 0.3434(4)
H2 H 0.17590 0.39850 0.33360
C3 C 0.2439(4) 0.0344(9) 0.4677(4)
H3 H 0.23000 -0.00170 0.53270
H4 H 0.31410 0.04090 0.46630
C4 C 0.2036(4) -0.1111(8) 0.3950(4)
H5 H 0.25720 -0.18310 0.37420
H6 H 0.16120 -0.19310 0.42730
C5 C 0.2508(4) 0.1221(7) 0.1880(4)
C6 C 0.1752(4) 0.1479(7) 0.2646(4)
H7 H 0.11580 0.19950 0.23150
C7 C 0.1493(4) -0.0328(8) 0.3098(4)
C8 C 0.2116(3) -0.0115(6) 0.1107(4)
H8 H 0.21920 -0.13470 0.13650
H9 H 0.14240 0.01070 0.09690
C9 C 0.2582(3) 0.1929(7) -0.0233(4)
H10 H 0.19050 0.23300 -0.02140
C10 C 0.2594(3) -0.0020(7) 0.0167(4)
H11 H 0.22550 -0.08270 -0.03060
H12 H 0.32620 -0.04400 0.02750
C11 C 0.2770(4) 0.2019(8) -0.1318(4)
C12 C 0.2683(4) 0.4072(8) -0.1642(4)
H13 H 0.28740 0.41870 -0.22990
H14 H 0.20110 0.44610 -0.16420
C13 C 0.3326(4) 0.5321(8) -0.0967(4)
H15 H 0.40040 0.49900 -0.10030
H16 H 0.32440 0.65800 -0.11810
C14 C 0.3175(3) 0.3217(7) 0.0497(4)
C15 C 0.2641(3) 0.3193(7) 0.1454(4)
H17 H 0.19870 0.36860 0.12910
C16 C 0.3074(4) 0.5167(7) 0.0065(4)
H18 H 0.24080 0.55750 0.01000
H19 H 0.34910 0.59870 0.04640
C17 C 0.3118(4) 0.4395(7) 0.2273(4)
H20 H 0.37650 0.47450 0.21170
H21 H 0.27380 0.55030 0.23260
C18 C 0.3185(4) 0.3394(8) 0.3229(4)
H22 H 0.34760 0.41880 0.37460
C19 C 0.3810(3) 0.1746(9) 0.3123(4)
C20 C 0.3443(3) 0.0637(8) 0.2421(4)
H23 H 0.37530 -0.04470 0.22730
C21 C 0.4775(4) 0.1458(10) 0.3760(4)
H24 H 0.46320 0.16730 0.44330
C22 C 0.5147(5) -0.0525(10) 0.3709(5)
H25 H 0.57460 -0.06450 0.41120
H26 H 0.52570 -0.08200 0.30500
H27 H 0.46710 -0.13470 0.39340
C23 C 0.5520(4) 0.2883(11) 0.3523(5)
H28 H 0.52440 0.40840 0.35690
H29 H 0.57030 0.26860 0.28760
H30 H 0.60850 0.27800 0.39760
C24 C 0.4243(3) 0.2730(8) 0.0637(4)
H31 H 0.45180 0.27600 0.00210
H32 H 0.43140 0.15230 0.09090
H33 H 0.45750 0.35970 0.10690
C25 C 0.3758(3) 0.1297(9) -0.1558(4)
H34 H 0.38240 0.00400 -0.13590
H35 H 0.42650 0.20120 -0.12220
H36 H 0.38090 0.13820 -0.22450
C26 C 0.1948(5) 0.1028(10) -0.1833(4)
C27 C 0.1376(6) -0.1506(10) -0.2791(5)
H37 H 0.16360 -0.25340 -0.31170
H38 H 0.10070 -0.07510 -0.32560
H39 H 0.09610 -0.19360 -0.23150
C28 C 0.1639(7) 0.4293(11) 0.5562(5)
H40 H 0.16840 0.56180 0.55390
H41 H 0.16510 0.39230 0.62370
C29 C 0.0732(6) 0.3685(11) 0.5033(5)
H42 H 0.02370 0.34350 0.54750
H43 H 0.04870 0.46000 0.45660
#END
