
#######################################################################
#
#                 Cambridge Crystallographic Data Centre
#                                CCDC
#
#######################################################################
#
# If this CIF has been generated from an entry in the Cambridge
# Structural Database, then it will include bibliographic, chemical,
# crystal, experimental, refinement or atomic coordinate data resulting
# from the CCDC's data processing and validation procedures.
#
#######################################################################

data_CSD_CIF_RUKLUF
_audit_creation_date 2010-03-10
_audit_creation_method CSD-ConQuest-V1
_database_code_CSD RUKLUF
_database_code_depnum_ccdc_archive 'CCDC 677330'
_chemical_formula_sum 'C15 H19 N5 O4'
_chemical_formula_moiety
;
C15 H19 N5 O4
;
_journal_coden_Cambridge 122
_journal_year 2009
_journal_page_first 743
_journal_name_full 'Khim.Get.Soedin.,SSSR(Russ.)(Chem.Heterocycl.Compd.) '
loop_
_publ_author_name
"V.V.Bakharev"
"E.V.Peresedova"
"D.B.Krivolapov"
"E.V.Mironova"
"I.A.Litvinov"
_chemical_name_systematic
;
Ethyl 
3-(4-methoxy-6-(pyrrolidin-1-yl)-1,3,5-triazin-2-yl)-5-methyl-1,2-oxazole-4-ca
rboxylate
;
_chemical_melting_point 394.15
_cell_volume   1657.440
_exptl_crystal_colour 'colorless'
_exptl_crystal_density_diffrn 1.336
_exptl_special_details
;
Melting point range 394.15-396.15K

;
_exptl_crystal_description 'prism'
_exptl_crystal_preparation 'acetone'
_diffrn_ambient_temperature 295
#These two values have been output from a single CSD field.
_refine_ls_R_factor_gt 0.0887
_refine_ls_wR_factor_gt 0.0887
_symmetry_cell_setting triclinic
_symmetry_space_group_name_H-M 'P -1'
_symmetry_Int_Tables_number 2
loop_
_symmetry_equiv_pos_site_id
_symmetry_equiv_pos_as_xyz
1 x,y,z
2 -x,-y,-z
_cell_length_a 8.6299(6)
_cell_length_b 11.9384(8)
_cell_length_c 16.774(1)
_cell_angle_alpha 89.504(1)
_cell_angle_beta 85.945(1)
_cell_angle_gamma 74.057(1)
_cell_formula_units_Z 4
loop_
_atom_type_symbol
_atom_type_radius_bond
C 0.68
H 0.23
N 0.68
O 0.68
loop_
_atom_site_label
_atom_site_type_symbol
_atom_site_fract_x
_atom_site_fract_y
_atom_site_fract_z
O1 O 0.8286(3) 0.6603(3) 0.17886(18)
O2 O 1.0878(4) 0.5609(3) 0.17514(19)
C1 C 1.0689(6) 0.5313(5) 0.2623(3)
H1 H 1.16780 0.52680 0.28790
H2 H 0.98160 0.59040 0.28960
C2 C 1.0342(8) 0.4224(6) 0.2653(5)
H3 H 1.02160 0.40030 0.32000
H4 H 1.12140 0.36480 0.23790
H5 H 0.93610 0.42810 0.23990
C3 C 0.5869(4) 0.9808(3) 0.10621(17)
C4 C 0.7182(4) 0.8141(3) 0.04278(18)
C5 C 0.4521(4) 0.8599(3) 0.06266(18)
N1 N 0.5862(3) 0.7826(2) 0.03138(17)
N2 N 0.4429(3) 0.9577(2) 0.10062(16)
N3 N 0.7306(3) 0.9093(2) 0.07818(16)
O3 O 0.3173(3) 0.8295(2) 0.05277(16)
C6 C 0.8774(4) 0.7333(3) 0.0133(2)
C7 C 0.9879(4) 0.6514(3) 0.0581(2)
C8 C 1.1176(4) 0.6087(3) 0.0056(2)
O4 O 1.0884(4) 0.6592(3) -0.06509(18)
N4 N 0.9326(4) 0.7397(4) -0.0598(2)
C9 C 1.2807(5) 0.5268(4) 0.0107(3)
H6 H 1.33880 0.51920 -0.04090
H7 H 1.27040 0.45200 0.02750
H8 H 1.33850 0.55620 0.04860
C10 C 0.9569(5) 0.6250(4) 0.1421(3)
C11 C 0.1671(4) 0.9070(4) 0.0844(3)
H9 H 0.07960 0.87550 0.07340
H10 H 0.15180 0.98180 0.05990
H11 H 0.16960 0.91520 0.14120
N5 N 0.5878(3) 1.0795(2) 0.14137(17)
C12 C 0.4429(5) 1.1670(3) 0.1735(2)
H12 H 0.40100 1.14250 0.22380
H13 H 0.35910 1.18300 0.13600
C13 C 0.7359(5) 1.1139(3) 0.1513(2)
H14 H 0.78400 1.13030 0.10010
H15 H 0.81410 1.05310 0.17730
C14 C 0.5060(6) 1.2722(4) 0.1849(3)
H16 H 0.49790 1.31860 0.13680
H17 H 0.44570 1.32060 0.22900
C15 C 0.6808(6) 1.2216(4) 0.2027(3)
H18 H 0.74370 1.27580 0.18860
H19 H 0.68980 1.20260 0.25880
N6 N 0.4949(4) 0.1566(2) 0.40436(17)
N7 N 0.5926(3) 0.1620(2) 0.53338(16)
N8 N 0.6984(3) -0.0056(2) 0.44777(16)
C16 C 0.5004(4) 0.2059(3) 0.47443(19)
C17 C 0.5982(4) 0.0494(3) 0.39609(19)
C18 C 0.6912(4) 0.0542(3) 0.51695(19)
C19 C 0.3866(4) 0.3241(3) 0.48774(19)
C20 C 0.2477(4) 0.5068(3) 0.4783(2)
C21 C 0.3802(4) 0.4273(3) 0.44383(18)
O5 O 0.1792(3) 0.4560(2) 0.53746(15)
N9 N 0.2686(4) 0.3390(3) 0.54321(19)
C22 C 0.1691(5) 0.6325(3) 0.4662(2)
H20 H 0.15000 0.67270 0.51680
H21 H 0.06810 0.64130 0.44280
H22 H 0.23830 0.66460 0.43120
C23 C 0.4993(4) 0.4442(3) 0.38120(19)
O6 O 0.6342(3) 0.3808(3) 0.37102(18)
O7 O 0.4399(4) 0.5380(3) 0.33845(19)
C24 C 0.5490(6) 0.5695(5) 0.2772(3)
H23 H 0.62460 0.60280 0.30210
H24 H 0.61000 0.50070 0.24700
C25 C 0.4546(8) 0.6529(7) 0.2250(4)
H25 H 0.52510 0.67510 0.18490
H26 H 0.39410 0.72040 0.25550
H27 H 0.38160 0.61880 0.19990
C26 C 0.6972(6) -0.1167(3) 0.3110(2)
H28 H 0.68070 -0.14280 0.25910
H29 H 0.67200 -0.16840 0.35090
H30 H 0.80800 -0.11630 0.31300
C27 C 0.9007(5) -0.1145(3) 0.5617(2)
H31 H 0.98750 -0.11510 0.52150
H32 H 0.84480 -0.17030 0.54640
C28 C 0.7930(5) 0.0525(4) 0.6510(2)
H33 H 0.68860 0.06770 0.68070
H34 H 0.82480 0.12430 0.64660
C29 C 0.9626(11) -0.1404(6) 0.6409(4)
H35 H 0.92040 -0.20080 0.66550
H36 H 1.07950 -0.16910 0.63540
C30 C 0.9173(8) -0.0407(5) 0.6894(3)
H37 H 1.01120 -0.01350 0.69740
H38 H 0.87370 -0.05910 0.74120
N10 N 0.7897(4) 0.0018(3) 0.57176(18)
O8 O 0.5939(4) -0.0010(2) 0.32611(14)
#END
