
#######################################################################
#
#                 Cambridge Crystallographic Data Centre
#                                CCDC
#
#######################################################################
#
# If this CIF has been generated from an entry in the Cambridge
# Structural Database, then it will include bibliographic, chemical,
# crystal, experimental, refinement or atomic coordinate data resulting
# from the CCDC's data processing and validation procedures.
#
#######################################################################

data_CSD_CIF_RULCUY
_audit_creation_date 2015-08-06
_audit_creation_method CSD-ConQuest-V1
_database_code_CSD RULCUY
_database_code_depnum_ccdc_archive 'CCDC 1408102'
_chemical_formula_sum 'C15 H19 N1 O4'
_chemical_formula_moiety
;
C15 H19 N1 O4
;
_journal_coden_Cambridge 182
_journal_volume 51
_journal_year 2015
_journal_page_first 13976
_journal_name_full 'Chem.Commun. '
loop_
_publ_author_name
"I.Ramakrishna"
"G.S.Grandhi"
"H.Sahoo"
"M.Baidya"
_chemical_name_systematic
;
t-Butyl hydroxy(1-oxo-1,2,3,4-tetrahydronaphthalen-2-yl)carbamate
;
_cell_volume   1474.085
_exptl_crystal_colour 'pale yellow'
_exptl_crystal_density_diffrn 1.25
_exptl_crystal_description 'block'
_diffrn_ambient_temperature 296
#These two values have been output from a single CSD field.
_refine_ls_R_factor_gt 0.0448
_refine_ls_wR_factor_gt 0.0448
_symmetry_cell_setting orthorhombic
_symmetry_space_group_name_H-M 'P c a 21'
_symmetry_Int_Tables_number 29
loop_
_symmetry_equiv_pos_site_id
_symmetry_equiv_pos_as_xyz
1 x,y,z
2 -x,-y,1/2+z
3 1/2+x,-y,z
4 1/2-x,y,1/2+z
_cell_length_a 11.5083(8)
_cell_length_b 13.3657(9)
_cell_length_c 9.5834(6)
_cell_angle_alpha 90
_cell_angle_beta 90
_cell_angle_gamma 90
_cell_formula_units_Z 4
loop_
_atom_type_symbol
_atom_type_radius_bond
C 0.68
H 0.23
N 0.68
O 0.68
loop_
_atom_site_label
_atom_site_type_symbol
_atom_site_fract_x
_atom_site_fract_y
_atom_site_fract_z
C1 C 0.2789(5) 0.4313(4) 0.1923(6)
H1 H 0.21960 0.44370 0.25600
C2 C 0.3069(7) 0.3345(4) 0.1571(10)
H2 H 0.26560 0.28110 0.19460
C3 C 0.3975(8) 0.3177(5) 0.0650(9)
H3 H 0.41700 0.25220 0.04170
C4 C 0.4587(6) 0.3947(5) 0.0077(6)
H4 H 0.51940 0.38110 -0.05340
C5 C 0.4312(4) 0.4935(4) 0.0397(5)
C6 C 0.4971(4) 0.5779(4) -0.0244(5)
H5 H 0.46850 0.58890 -0.11840
H6 H 0.57840 0.55940 -0.03110
C7 C 0.4871(4) 0.6752(3) 0.0575(5)
H7 H 0.52840 0.66920 0.14540
H8 H 0.52160 0.72950 0.00480
C8 C 0.3594(3) 0.6971(3) 0.0848(4)
H9 H 0.31970 0.69770 -0.00560
C9 C 0.3062(4) 0.6144(3) 0.1709(5)
C10 C 0.3395(4) 0.5108(3) 0.1325(5)
N1 N 0.3421(3) 0.7945(2) 0.1485(3)
C11 C 0.2386(4) 0.8423(3) 0.1355(4)
C12 C 0.1199(3) 0.9763(3) 0.2379(4)
C13 C 0.1410(4) 1.0378(4) 0.3680(5)
H10 H 0.14940 0.99410 0.44680
H11 H 0.07640 1.08200 0.38300
H12 H 0.21070 1.07650 0.35660
C14 C 0.1202(4) 1.0424(4) 0.1109(5)
H13 H 0.19260 1.07800 0.10600
H14 H 0.05730 1.08930 0.11690
H15 H 0.11110 1.00200 0.02880
C15 C 0.0121(4) 0.9153(4) 0.2503(6)
H16 H -0.00050 0.87920 0.16500
H17 H -0.05290 0.95850 0.26780
H18 H 0.02030 0.86880 0.32600
O1 O 0.2248(2) 0.91089(19) 0.2344(3)
O2 O 0.2394(3) 0.6334(2) 0.2649(4)
O3 O 0.1722(2) 0.8251(2) 0.0392(3)
O4 O 0.4078(2) 0.8080(2) 0.2712(3)
H19 H 0.361(3) 0.805(3) 0.342(5)
#END
