
#######################################################################
#
#                 Cambridge Crystallographic Data Centre
#                                CCDC
#
#######################################################################
#
# If this CIF has been generated from an entry in the Cambridge
# Structural Database, then it will include bibliographic, chemical,
# crystal, experimental, refinement or atomic coordinate data resulting
# from the CCDC's data processing and validation procedures.
#
#######################################################################

data_CSD_CIF_RULHOX
_audit_creation_date 2015-08-06
_audit_creation_method CSD-ConQuest-V1
_database_code_CSD RULHOX
_database_code_depnum_ccdc_archive 'CCDC 1064084'
_chemical_formula_sum 'C13 H17 N1 O7'
_chemical_formula_moiety
;
C13 H17 N1 O7
;
_journal_coden_Cambridge 4
_journal_volume 137
_journal_year 2015
_journal_page_first 8050
_journal_name_full 'J.Am.Chem.Soc. '
loop_
_publ_author_name
"A.M.Mfuh"
"Yu Zhang"
"D.E.Stephens"
"A.X.T.Vo"
"H.D.Arman"
"O.V.Larionov"
_chemical_name_systematic
;
(4aS*,7R*,8aS*)-ethyl 
4a-hydroxy-7-methoxycarboxy-4a,7,8,8a-tetrahydro-4H-benzo[e][1,2]oxazine-3-car
boxylate
;
_chemical_name_common
;
ethyl 
4a-hydroxy-7-((methoxycarbonyl)oxy)-4a,7,8,8a-tetrahydro-4H-1,2-benzoxazine-3-
carboxylate
;
_cell_volume   1390.997
_exptl_crystal_colour 'colorless'
_exptl_crystal_density_diffrn 1.429
_diffrn_ambient_temperature 98
#These two values have been output from a single CSD field.
_refine_ls_R_factor_gt 0.0671
_refine_ls_wR_factor_gt 0.0671
_symmetry_cell_setting orthorhombic
_symmetry_space_group_name_H-M 'P 21 21 21'
_symmetry_Int_Tables_number 19
loop_
_symmetry_equiv_pos_site_id
_symmetry_equiv_pos_as_xyz
1 x,y,z
2 1/2-x,-y,1/2+z
3 -x,1/2+y,1/2-z
4 1/2+x,1/2-y,-z
_cell_length_a 8.837(3)
_cell_length_b 9.595(3)
_cell_length_c 16.405(6)
_cell_angle_alpha 90
_cell_angle_beta 90
_cell_angle_gamma 90
_cell_formula_units_Z 4
loop_
_atom_type_symbol
_atom_type_radius_bond
C 0.68
H 0.23
N 0.68
O 0.68
loop_
_atom_site_label
_atom_site_type_symbol
_atom_site_fract_x
_atom_site_fract_y
_atom_site_fract_z
O1 O 0.1764(2) 0.0601(3) 0.01157(14)
O2 O 0.5004(3) 0.2120(3) 0.23285(13)
N1 N 0.6327(3) 0.2885(3) 0.21478(17)
O3 O -0.0142(3) 0.0407(3) -0.06840(15)
O4 O 0.6714(2) -0.0488(3) 0.20535(14)
H1 H 0.62480 -0.11600 0.22330
O5 O 0.8530(3) 0.4522(3) 0.17779(15)
C1 C 0.7147(3) 0.2455(4) 0.1547(2)
C2 C 0.4507(4) 0.0982(4) 0.18135(19)
C3 C 0.3381(4) 0.1449(4) 0.1173(2)
C4 C 0.2647(4) 0.0162(4) 0.08218(19)
C5 C 0.5824(3) 0.0186(4) 0.14345(19)
C6 C 0.0559(4) -0.0189(4) -0.00454(18)
C7 C 0.6889(4) 0.1228(4) 0.1020(2)
H2 H 0.78490 0.07780 0.09050
H3 H 0.64520 0.15270 0.05060
O6 O 0.0164(3) -0.1208(3) 0.03176(14)
C8 C 0.5225(4) -0.0877(4) 0.0835(2)
C9 C 0.3810(4) -0.0892(4) 0.0559(2)
O7 O 0.9554(3) 0.2896(3) 0.09624(15)
C10 C 0.8545(4) 0.3320(4) 0.1391(2)
C11 C 0.9898(4) 0.5397(5) 0.1666(2)
C12 C -0.1452(4) -0.0311(5) -0.0956(2)
H4 H -0.18840 0.01740 -0.14110
H5 H -0.21780 -0.03550 -0.05210
H6 H -0.11800 -0.12390 -0.11180
C13 C 0.9565(5) 0.6775(5) 0.2003(3)
H7 H 1.04350 0.73650 0.19430
H8 H 0.93180 0.66870 0.25710
H9 H 0.87230 0.71760 0.17170
H10 H 0.390(5) 0.182(6) 0.073(3)
H11 H 1.011(5) 0.566(5) 0.111(3)
H12 H 0.343(5) -0.152(6) 0.021(3)
H13 H 1.066(5) 0.472(6) 0.206(3)
H14 H 0.254(5) 0.208(6) 0.145(3)
H15 H 0.403(5) 0.051(6) 0.221(3)
H16 H 0.592(5) -0.145(6) 0.072(3)
H17 H 0.194(5) -0.031(6) 0.124(3)
#END
