
#######################################################################
#
#                 Cambridge Crystallographic Data Centre
#                                CCDC
#
#######################################################################
#
# If this CIF has been generated from an entry in the Cambridge
# Structural Database, then it will include bibliographic, chemical,
# crystal, experimental, refinement or atomic coordinate data resulting
# from the CCDC's data processing and validation procedures.
#
#######################################################################

data_CSD_CIF_RULKIS
_audit_creation_date 1998-03-04
_audit_creation_method CSD-ConQuest-V1
_database_code_CSD RULKIS
_database_code_depnum_ccdc_journal 207/101
_chemical_formula_sum 'C12 H13 N3 O2'
_chemical_formula_moiety
;
C12 H13 N3 O2
;
_journal_coden_Cambridge 207
_journal_year 1997
_journal_page_first 1559
_journal_name_full 'J.Chem.Soc.,Perkin Trans.1 '
loop_
_publ_author_name
"S.A.Hewlins"
"J.A.Murphy"
"Jian Lin"
"D.E.Hibbs"
"M.B.Hursthouse"
_chemical_name_systematic
;
2-(5-Methyl-1,2,4-oxadiazol-3-yl)propanilide
;
_chemical_melting_point 378.15
_cell_volume   1204.483
_exptl_crystal_colour 'white'
_exptl_crystal_density_diffrn 1.275
_exptl_special_details
;
Melting point range 378.15-380.15K

;
_exptl_crystal_description 'needles'
_exptl_crystal_preparation 'dichloromethane/ethyl acetate'
_diffrn_ambient_temperature ?
_diffrn_special_details
;
The study was carried out at room temperature,in the range 283-303K

;
#These two values have been output from a single CSD field.
_refine_ls_R_factor_gt 0.0489
_refine_ls_wR_factor_gt 0.0489
_symmetry_cell_setting monoclinic
_symmetry_space_group_name_H-M 'P 21/a'
_symmetry_Int_Tables_number 14
loop_
_symmetry_equiv_pos_site_id
_symmetry_equiv_pos_as_xyz
1 x,y,z
2 1/2-x,1/2+y,-z
3 -x,-y,-z
4 -1/2+x,-1/2-y,z
_cell_length_a 9.2294(11)
_cell_length_b 11.7100(11)
_cell_length_c 11.1879(9)
_cell_angle_alpha 90
_cell_angle_beta 95.034(13)
_cell_angle_gamma 90
_cell_formula_units_Z 4
loop_
_atom_type_symbol
_atom_type_radius_bond
C 0.68
H 0.23
N 0.68
O 0.68
loop_
_atom_site_label
_atom_site_type_symbol
_atom_site_fract_x
_atom_site_fract_y
_atom_site_fract_z
N1 N 0.0519(2) 0.1515(2) 0.4736(2)
N2 N -0.1750(2) 0.1281(2) 0.3870(2)
N3 N 0.0378(2) 0.3772(2) 0.2192(2)
O1 O -0.0462(2) 0.1251(2) 0.5610(2)
O2 O -0.1651(2) 0.2808(1) 0.1499(2)
C1 C -0.3003(3) 0.0818(3) 0.5694(3)
C2 C -0.1764(3) 0.1129(2) 0.5004(2)
C3 C -0.0310(2) 0.1520(2) 0.3740(2)
C4 C 0.0261(2) 0.1732(2) 0.2550(2)
C5 C -0.0055(3) 0.0718(2) 0.1722(2)
C6 C -0.0430(2) 0.2821(2) 0.2022(2)
C7 C 0.0023(2) 0.4905(2) 0.1850(2)
C8 C 0.0959(3) 0.5760(2) 0.2298(2)
C9 C 0.0668(3) 0.6879(2) 0.1996(3)
C10 C -0.0539(3) 0.7170(2) 0.1256(3)
C11 C -0.1452(3) 0.6319(2) 0.0804(2)
C12 C -0.1183(2) 0.5192(2) 0.1090(2)
H1 H 0.1227(2) 0.3677(2) 0.2560(2)
H2 H -0.3163(13) 0.1415(8) 0.6256(12)
H3 H -0.2788(9) 0.0118(9) 0.6120(14)
H4 H -0.3861(5) 0.0721(16) 0.5154(3)
H5 H 0.1317(2) 0.1841(2) 0.2672(2)
H6 H 0.0352(15) 0.0854(6) 0.0974(6)
H7 H -0.1088(3) 0.0617(9) 0.1579(12)
H8 H 0.0372(15) 0.0042(3) 0.2089(7)
H9 H 0.1781(3) 0.5577(2) 0.2802(2)
H10 H 0.1300(3) 0.7449(2) 0.2298(3)
H11 H -0.0736(3) 0.7930(2) 0.1064(3)
H12 H -0.2267(3) 0.6508(2) 0.0294(2)
H13 H -0.1810(2) 0.4625(2) 0.0772(2)
#END
