
#######################################################################
#
#                 Cambridge Crystallographic Data Centre
#                                CCDC
#
#######################################################################
#
# If this CIF has been generated from an entry in the Cambridge
# Structural Database, then it will include bibliographic, chemical,
# crystal, experimental, refinement or atomic coordinate data resulting
# from the CCDC's data processing and validation procedures.
#
#######################################################################

data_CSD_CIF_RULLEP
_audit_creation_date 1998-03-04
_audit_creation_method CSD-ConQuest-V1
_database_code_CSD RULLEP
_chemical_formula_sum 'C12 H23 N5 O6'
_chemical_formula_moiety
;
C12 H23 N5 O6
;
_journal_coden_Cambridge 154
_journal_volume 50
_journal_year 1997
_journal_page_first 241
_journal_name_full 'Aust.J.Chem. '
loop_
_publ_author_name
"M.Rossignoli"
"T.W.Hambley"
"G.A.Lawrance"
"M.Maeder"
_chemical_name_systematic
;
6-Methyl-6-nitro-1,4-bis(2'-nitropropan-1'-yl)-1,4-diazacycloheptane
;
_cell_volume   3431.202
_exptl_crystal_colour 'white'
_exptl_crystal_density_diffrn 1.29
_diffrn_ambient_temperature ?
_diffrn_special_details
;
The study was carried out at room temperature,in the range 283-303K

;
#These two values have been output from a single CSD field.
_refine_ls_R_factor_gt 0.039
_refine_ls_wR_factor_gt 0.039
_symmetry_cell_setting orthorhombic
_symmetry_space_group_name_H-M 'P b c a'
_symmetry_Int_Tables_number 61
loop_
_symmetry_equiv_pos_site_id
_symmetry_equiv_pos_as_xyz
1 x,y,z
2 1/2-x,-y,1/2+z
3 1/2+x,1/2-y,-z
4 -x,1/2+y,1/2-z
5 -x,-y,-z
6 -1/2+x,y,-1/2-z
7 -1/2-x,-1/2+y,z
8 x,-1/2-y,-1/2+z
_cell_length_a 11.131(2)
_cell_length_b 14.919(3)
_cell_length_c 20.662(4)
_cell_angle_alpha 90
_cell_angle_beta 90
_cell_angle_gamma 90
_cell_formula_units_Z 8
loop_
_atom_type_symbol
_atom_type_radius_bond
C 0.68
H 0.23
N 0.68
O 0.68
loop_
_atom_site_label
_atom_site_type_symbol
_atom_site_fract_x
_atom_site_fract_y
_atom_site_fract_z
O1 O 0.2935(4) 0.1953(4) 0.2825(2)
O2 O 0.4690(4) 0.1684(4) 0.2604(2)
O3 O 0.5712(4) -0.0335(3) 0.2577(2)
O4 O 0.4740(4) -0.1288(3) 0.2047(2)
O5 O 0.1099(4) 0.3078(3) 0.0182(2)
O6 O 0.0994(4) 0.1835(3) -0.0331(2)
N1 N 0.4635(3) 0.0670(2) 0.127(2)
N2 N 0.2050(3) 0.1041(2) 0.0977(2)
N3 N 0.3712(4) 0.1838(3) 0.2443(2)
N4 N 0.5470(4) -0.0724(3) 0.2088(2)
N5 N 0.0832(4) 0.2289(3) 0.0138(2)
C1 C 0.4018(5) 0.0319(3) 0.0709(2)
C2 C 0.2683(5) 0.0215(3) 0.0794(2)
C3 C 0.4451(4) 0.1627(3) 0.1325(2)
C4 C 0.3378(4) 0.1899(3) 0.1723(2)
C5 C 0.2303(4) 0.1271(3) 0.1655(2)
C6 C 0.3054(5) 0.2866(3) 0.1595(2)
C7 C 0.5911(4) 0.0431(3) 0.1288(2)
C8 C 0.6139(5) -0.0498(4) 0.1481(3)
C9 C 0.7474(5) -0.0704(4) 0.1581(3)
C10 C 0.0753(4) 0.0976(3) 0.0857(2)
C11 C 0.0210(4) 0.1873(3) 0.0718(2)
C12 C -0.1131(4) 0.1820(4) 0.0561(3)
H1 H 0.41540 0.07150 0.03570
H2 H 0.43470 -0.02530 0.06110
H3 H 0.25470 -0.02200 0.11220
H4 H 0.23570 0.00060 0.03970
H5 H 0.51480 0.18820 0.15170
H6 H 0.43520 0.18630 0.09000
H7 H 0.16150 0.15570 0.18340
H8 H 0.24650 0.07360 0.18880
H9 H 0.37260 0.32380 0.16850
H10 H 0.28290 0.29350 0.11530
H11 H 0.24000 0.30360 0.18640
H12 H 0.62370 0.05200 0.08680
H13 H 0.63040 0.08150 0.15870
H14 H 0.58450 -0.08790 0.11470
H15 H 0.75610 -0.13230 0.16960
H16 H 0.78950 -0.05990 0.11890
H17 H 0.77840 -0.03420 0.19140
H18 H 0.06230 0.05960 0.04950
H19 H 0.03770 0.07290 0.12280
H20 H 0.03210 0.22530 0.10840
H21 H -0.14330 0.24050 0.04840
H22 H -0.12430 0.14620 0.01860
H23 H -0.15450 0.15580 0.09150
#END
