
#######################################################################
#
#                 Cambridge Crystallographic Data Centre
#                                CCDC
#
#######################################################################
#
# If this CIF has been generated from an entry in the Cambridge
# Structural Database, then it will include bibliographic, chemical,
# crystal, experimental, refinement or atomic coordinate data resulting
# from the CCDC's data processing and validation procedures.
#
#######################################################################

data_CSD_CIF_RUMGUC
_audit_creation_date 2010-03-19
_audit_creation_method CSD-ConQuest-V1
_database_code_CSD RUMGUC
_database_code_depnum_ccdc_archive 'CCDC 714387'
_chemical_formula_sum 'C25 H20 N2 O3'
_chemical_formula_moiety
;
C25 H20 N2 O3
;
_journal_coden_Cambridge 24
_journal_volume 50
_journal_year 2009
_journal_page_first 4037
_journal_name_full 'Tetrahedron Lett. '
loop_
_publ_author_name
"C.Ramesh"
"V.Kavala"
"B.R.Raju"
"Chun-Wei Kuo"
"Ching-Fa Yao"
_chemical_name_systematic
;
4-(2-Nitrophenyl)-3-((2-phenyl-1H-indol-3-yl)methyl)-3-buten-2-one
;
_chemical_melting_point 407.15
_cell_volume   1938.490
_exptl_crystal_colour 'orange'
_exptl_crystal_density_diffrn 1.358
_exptl_special_details
;
Melting point range 407.15-408.15K

;
_exptl_crystal_description 'prism'
_diffrn_ambient_temperature 200
#These two values have been output from a single CSD field.
_refine_ls_R_factor_gt 0.0443
_refine_ls_wR_factor_gt 0.0443
_symmetry_cell_setting triclinic
_symmetry_space_group_name_H-M 'P -1'
_symmetry_Int_Tables_number 2
loop_
_symmetry_equiv_pos_site_id
_symmetry_equiv_pos_as_xyz
1 x,y,z
2 -x,-y,-z
_cell_length_a 10.7195(4)
_cell_length_b 14.4598(5)
_cell_length_c 14.7384(5)
_cell_angle_alpha 64.132(1)
_cell_angle_beta 73.980(1)
_cell_angle_gamma 73.287(1)
_cell_formula_units_Z 4
loop_
_atom_type_symbol
_atom_type_radius_bond
C 0.68
H 0.23
N 0.68
O 0.68
loop_
_atom_site_label
_atom_site_type_symbol
_atom_site_fract_x
_atom_site_fract_y
_atom_site_fract_z
C1 C 0.54588(18) 0.84535(14) -0.14787(13)
C2 C 0.66952(19) 0.86612(15) -0.16392(14)
H1 H 0.67930 0.93430 -0.17720
C3 C 0.77846(19) 0.78719(16) -0.16057(14)
H2 H 0.86450 0.80080 -0.17280
C4 C 0.76255(19) 0.68844(16) -0.13946(14)
H3 H 0.83790 0.63400 -0.13820
C5 C 0.63764(18) 0.66814(15) -0.12005(14)
H4 H 0.62860 0.59900 -0.10410
C6 C 0.52478(17) 0.74542(14) -0.12302(13)
C7 C 0.39274(18) 0.71892(14) -0.10032(14)
H5 H 0.34500 0.74710 -0.15520
C8 C 0.33614(17) 0.65854(13) -0.00867(13)
C9 C 0.20772(17) 0.63104(14) 0.00147(15)
C10 C 0.12980(19) 0.68689(17) -0.08453(16)
H6 H 0.04890 0.65900 -0.06500
H7 H 0.18330 0.67610 -0.14610
H8 H 0.10650 0.76200 -0.09860
C11 C 0.39409(18) 0.61165(14) 0.08897(14)
H9 H 0.32320 0.58830 0.14830
H10 H 0.46250 0.54890 0.08860
C12 C 0.45507(17) 0.68495(14) 0.10364(13)
C13 C 0.59197(17) 0.66544(14) 0.10992(13)
C14 C 0.69684(19) 0.58067(15) 0.11428(14)
H11 H 0.68370 0.51880 0.11340
C15 C 0.81960(19) 0.58803(16) 0.11986(15)
H12 H 0.89150 0.53070 0.12260
C16 C 0.84022(19) 0.67834(16) 0.12153(15)
H13 H 0.92580 0.68100 0.12590
C17 C 0.73942(18) 0.76342(15) 0.11696(14)
H14 H 0.75360 0.82490 0.11790
C18 C 0.61554(17) 0.75574(14) 0.11089(13)
C19 C 0.39933(17) 0.78269(14) 0.10477(13)
C20 C 0.26281(18) 0.84166(15) 0.10933(13)
C21 C 0.15624(18) 0.79009(17) 0.15216(15)
H15 H 0.17170 0.71620 0.17350
C22 C 0.0279(2) 0.8454(2) 0.16391(17)
H16 H -0.04370 0.80910 0.19340
C23 C 0.0031(2) 0.9523(2) 0.13335(17)
H17 H -0.08510 0.98980 0.14170
C24 C 0.1077(2) 1.00524(18) 0.09017(17)
H18 H 0.09130 1.07920 0.06900
C25 C 0.23571(19) 0.95043(16) 0.07794(15)
H19 H 0.30670 0.98740 0.04760
C26 C 0.47839(18) 0.24525(14) 0.63080(13)
C27 C 0.59258(19) 0.25124(15) 0.65182(14)
H20 H 0.59410 0.30730 0.66850
C28 C 0.7043(2) 0.17582(16) 0.64856(15)
H21 H 0.78320 0.17900 0.66380
C29 C 0.70097(19) 0.09573(16) 0.62310(14)
H22 H 0.77810 0.04370 0.62010
C30 C 0.58594(18) 0.09071(15) 0.60181(14)
H23 H 0.58560 0.03470 0.58460
C31 C 0.47067(17) 0.16509(14) 0.60486(13)
C32 C 0.34991(17) 0.15372(13) 0.58375(14)
H24 H 0.27610 0.14360 0.63800
C33 C 0.33503(16) 0.15635(13) 0.49583(13)
C34 C 0.20922(17) 0.13630(14) 0.48988(14)
C35 C 0.08906(19) 0.13849(19) 0.57185(17)
H25 H 0.01610 0.12360 0.55560
H26 H 0.06320 0.20790 0.57510
H27 H 0.10980 0.08540 0.63810
C36 C 0.43771(18) 0.17677(14) 0.39882(14)
H28 H 0.50260 0.11080 0.40480
H29 H 0.39320 0.19590 0.34070
C37 C 0.51190(17) 0.26159(14) 0.37385(13)
C38 C 0.46222(17) 0.36312(14) 0.36648(13)
C39 C 0.32714(17) 0.42480(14) 0.37101(13)
C40 C 0.22997(18) 0.40677(16) 0.33848(15)
H30 H 0.24980 0.35170 0.31490
C41 C 0.1049(2) 0.46796(18) 0.33999(17)
H31 H 0.03960 0.45480 0.31710
C42 C 0.0732(2) 0.54754(18) 0.37410(18)
H32 H -0.01310 0.58950 0.37460
C43 C 0.1682(2) 0.56592(17) 0.40767(17)
H33 H 0.14690 0.62030 0.43230
C44 C 0.29351(19) 0.50584(15) 0.40574(15)
H34 H 0.35830 0.51980 0.42840
C45 C 0.68256(17) 0.33783(14) 0.35298(14)
C46 C 0.81092(18) 0.34788(16) 0.34515(15)
H35 H 0.82930 0.41150 0.33790
C47 C 0.90949(19) 0.26230(17) 0.34835(16)
H36 H 0.99800 0.26650 0.34380
C48 C 0.8828(2) 0.16903(17) 0.35818(15)
H37 H 0.95350 0.11120 0.35970
C49 C 0.75585(19) 0.15941(15) 0.36567(14)
H38 H 0.73880 0.09570 0.37200
C50 C 0.65214(17) 0.24502(14) 0.36378(13)
N1 N 0.43421(16) 0.93362(12) -0.15836(12)
N2 N 0.49805(14) 0.82628(12) 0.10592(11)
H39 H 0.48690 0.88990 0.10380
N3 N 0.36294(17) 0.32868(13) 0.63382(12)
N4 N 0.56601(14) 0.40821(12) 0.35497(12)
H40 H 0.55830 0.47250 0.34970
O1 O 0.44423(14) 1.00913(11) -0.14572(11)
O2 O 0.33548(15) 0.93010(11) -0.18194(13)
O3 O 0.16555(12) 0.56311(11) 0.07959(11)
O4 O 0.25387(14) 0.31519(11) 0.63721(11)
O5 O 0.38001(16) 0.40937(11) 0.63274(12)
O6 O 0.20264(12) 0.11900(11) 0.41786(11)
#END
