
#######################################################################
#
#                 Cambridge Crystallographic Data Centre
#                                CCDC
#
#######################################################################
#
# If this CIF has been generated from an entry in the Cambridge
# Structural Database, then it will include bibliographic, chemical,
# crystal, experimental, refinement or atomic coordinate data resulting
# from the CCDC's data processing and validation procedures.
#
#######################################################################

data_CSD_CIF_RUPCEL
_audit_creation_date 2010-03-19
_audit_creation_method CSD-ConQuest-V1
_database_code_CSD RUPCEL
_database_code_depnum_ccdc_archive 'CCDC 715689'
_chemical_formula_sum 'C18 H18 N2 O6'
_chemical_formula_moiety
;
C18 H18 N2 O6
;
_journal_coden_Cambridge 16
_journal_volume 65
_journal_year 2009
_journal_page_first 5402
_journal_name_full 'Tetrahedron '
loop_
_publ_author_name
"M.F.A.Adamo"
"S.Suresh"
"L.Piras"
_chemical_name_systematic
;
1-Acetyl-2-(3-methyl-4-nitro-isoxazol-5-yl)-3-p-tolyl-cyclopropanecarboxylic 
acid methyl ester
;
_chemical_name_common
;
Methyl 
1-acetyl-2-(3-methyl-4-nitro-1,2-oxazol-5-yl)-3-(4-methylphenyl)cyclopropaneca
rboxylate
;
_chemical_melting_point 388.15
_cell_volume   1732.315
_exptl_crystal_colour 'colorless'
_exptl_crystal_density_diffrn 1.374
_exptl_crystal_description 'plate'
_diffrn_ambient_temperature 108
#These two values have been output from a single CSD field.
_refine_ls_R_factor_gt 0.089
_refine_ls_wR_factor_gt 0.089
_symmetry_cell_setting triclinic
_symmetry_space_group_name_H-M 'P -1'
_symmetry_Int_Tables_number 2
loop_
_symmetry_equiv_pos_site_id
_symmetry_equiv_pos_as_xyz
1 x,y,z
2 -x,-y,-z
_cell_length_a 7.862(5)
_cell_length_b 14.893(10)
_cell_length_c 14.896(10)
_cell_angle_alpha 85.447(13)
_cell_angle_beta 88.38(3)
_cell_angle_gamma 85.27(3)
_cell_formula_units_Z 4
loop_
_atom_type_symbol
_atom_type_radius_bond
C 0.68
H 0.23
N 0.68
O 0.68
loop_
_atom_site_label
_atom_site_type_symbol
_atom_site_fract_x
_atom_site_fract_y
_atom_site_fract_z
O1 O -0.0676(4) 0.6075(2) 0.2295(2)
O2 O 0.2389(4) 0.4488(2) 0.4080(2)
O3 O 0.2325(5) 0.3487(2) 0.3103(2)
O4 O 0.3053(4) 0.7242(2) 0.5241(2)
O5 O 0.1568(4) 0.6044(2) 0.5639(2)
O6 O 0.3208(4) 0.6440(2) 0.2652(2)
N1 N -0.0534(5) 0.5474(3) 0.1591(3)
N2 N 0.1896(5) 0.4240(3) 0.3363(3)
C1 C -0.2326(6) 0.9254(3) 0.5205(3)
C2 C -0.1422(6) 0.9483(3) 0.4412(3)
H1 H -0.13910 1.01000 0.41970
C3 C -0.2349(6) 0.8347(3) 0.5490(3)
H2 H -0.29420 0.81820 0.60350
C4 C -0.1538(6) 0.7672(3) 0.5008(3)
H3 H -0.16170 0.70560 0.52110
C5 C -0.0598(5) 0.7897(3) 0.4218(3)
C6 C -0.0558(6) 0.8807(3) 0.3929(3)
H4 H 0.00670 0.89730 0.33950
C7 C 0.0349(5) 0.7220(3) 0.3682(3)
H5 H 0.05440 0.74440 0.30390
C8 C 0.1860(5) 0.6570(3) 0.4070(3)
C9 C 0.0202(5) 0.6215(3) 0.3804(3)
H6 H -0.05520 0.60100 0.43190
C10 C 0.0177(5) 0.5696(3) 0.3011(3)
C11 C 0.0841(5) 0.4854(3) 0.2809(3)
C12 C 0.3396(6) 0.6420(3) 0.3458(3)
C13 C 0.0792(6) 0.3997(3) 0.1324(3)
H7 H 0.02830 0.41500 0.07330
H8 H 0.03350 0.34460 0.16030
H9 H 0.20340 0.38960 0.12510
C14 C 0.0375(6) 0.4749(3) 0.1908(3)
C15 C 0.2120(6) 0.6569(3) 0.5069(3)
C16 C -0.3220(7) 0.9984(3) 0.5746(3)
H10 H -0.24230 1.01730 0.61750
H11 H -0.42040 0.97460 0.60750
H12 H -0.36090 1.05040 0.53370
C17 C 0.5138(6) 0.6210(4) 0.3866(3)
H13 H 0.59510 0.59910 0.34060
H14 H 0.50690 0.57450 0.43660
H15 H 0.55220 0.67590 0.40900
C18 C 0.3470(7) 0.7292(4) 0.6166(4)
H16 H 0.24290 0.72680 0.65420
H17 H 0.39820 0.78600 0.62340
H18 H 0.42820 0.67820 0.63540
O7 O 0.2820(4) 1.1556(2) 0.2135(2)
O8 O 0.4529(4) 1.0406(2) 0.1793(2)
O9 O 0.0051(4) 0.9391(2) 0.1089(2)
O10 O 0.6480(4) 0.8964(2) 0.0082(2)
O11 O 0.7018(4) 0.7646(2) 0.0915(2)
O12 O 0.3029(4) 0.8525(2) 0.2623(2)
N3 N 0.3098(5) 1.0799(2) 0.1863(2)
N4 N -0.1070(5) 1.0024(3) 0.1531(3)
C19 C 0.3014(5) 0.6466(3) 0.0314(3)
H19 H 0.26030 0.62820 0.09000
C20 C 0.3353(6) 0.5826(3) -0.0312(3)
H20 H 0.31420 0.52140 -0.01530
C21 C 0.4001(5) 0.6071(3) -0.1171(3)
C22 C 0.4255(6) 0.6973(3) -0.1377(3)
H21 H 0.46990 0.71530 -0.19580
C23 C 0.3887(5) 0.7628(3) -0.0769(3)
H22 H 0.40560 0.82440 -0.09390
C24 C 0.3265(5) 0.7373(3) 0.0097(3)
C25 C 0.4424(5) 0.8485(3) 0.1206(3)
C26 C 0.2977(5) 0.9021(3) 0.0691(3)
H23 H 0.32940 0.92620 0.00680
C27 C 0.2950(5) 0.8006(3) 0.0817(3)
H24 H 0.21020 0.78020 0.12870
C28 C 0.1656(5) 1.0343(3) 0.1624(3)
C29 C 0.1677(5) 0.9591(3) 0.1158(3)
C30 C -0.0883(6) 1.1338(3) 0.2379(3)
H25 H -0.21030 1.12640 0.24770
H26 H -0.07360 1.19200 0.20430
H27 H -0.03260 1.13180 0.29610
C31 C -0.0088(6) 1.0586(3) 0.1848(3)
C32 C 0.4398(6) 0.8490(3) 0.2217(3)
C33 C 0.6066(5) 0.8411(3) 0.0680(3)
C34 C 0.6062(6) 0.8455(3) 0.2678(3)
H28 H 0.58550 0.85050 0.33250
H29 H 0.67070 0.89570 0.24290
H30 H 0.67180 0.78810 0.25840
C35 C 0.4436(6) 0.5366(3) -0.1831(3)
H31 H 0.39240 0.55680 -0.24130
H32 H 0.39870 0.47950 -0.16010
H33 H 0.56780 0.52760 -0.19090
C36 C 0.8542(6) 0.7499(3) 0.0375(3)
H34 H 0.82420 0.75150 -0.02610
H35 H 0.91180 0.69070 0.05610
H36 H 0.93050 0.79730 0.04560
#END
