
#######################################################################
#
#                 Cambridge Crystallographic Data Centre
#                                CCDC
#
#######################################################################
#
# If this CIF has been generated from an entry in the Cambridge
# Structural Database, then it will include bibliographic, chemical,
# crystal, experimental, refinement or atomic coordinate data resulting
# from the CCDC's data processing and validation procedures.
#
#######################################################################

data_CSD_CIF_RUPCAH
_audit_creation_date 2010-03-19
_audit_creation_method CSD-ConQuest-V1
_database_code_CSD RUPCAH
_database_code_depnum_ccdc_archive 'CCDC 715688'
_chemical_formula_sum 'C17 H16 N2 O6'
_chemical_formula_moiety
;
C17 H16 N2 O6
;
_journal_coden_Cambridge 16
_journal_volume 65
_journal_year 2009
_journal_page_first 5402
_journal_name_full 'Tetrahedron '
loop_
_publ_author_name
"M.F.A.Adamo"
"S.Suresh"
"L.Piras"
_chemical_name_systematic
;
trans-2-Methyl-5-(3-methyl-4-nitro-isoxazol-5-yl)-4-phenyl-4,5-dihydrofuran-3-
carboxylic acid methyl ester
;
_chemical_name_common
;
trans-Methyl 
2-methyl-5-(3-methyl-4-nitro-1,2-oxazol-5-yl)-4-phenyl-4,5-dihydro-3-furancarb
oxylate
;
_cell_volume    802.108
_exptl_crystal_colour 'pale yellow'
_exptl_crystal_density_diffrn 1.426
_exptl_crystal_preparation 'methanol'
_diffrn_ambient_temperature 108
#These two values have been output from a single CSD field.
_refine_ls_R_factor_gt 0.1266
_refine_ls_wR_factor_gt 0.1266
_symmetry_cell_setting triclinic
_symmetry_space_group_name_H-M 'P -1'
_symmetry_Int_Tables_number 2
loop_
_symmetry_equiv_pos_site_id
_symmetry_equiv_pos_as_xyz
1 x,y,z
2 -x,-y,-z
_cell_length_a 5.589(4)
_cell_length_b 11.938(9)
_cell_length_c 13.384(9)
_cell_angle_alpha 65.739(18)
_cell_angle_beta 80.22(3)
_cell_angle_gamma 87.13(4)
_cell_formula_units_Z 2
loop_
_atom_type_symbol
_atom_type_radius_bond
C 0.68
H 0.23
N 0.68
O 0.68
loop_
_atom_site_label
_atom_site_type_symbol
_atom_site_fract_x
_atom_site_fract_y
_atom_site_fract_z
O1 O 0.2257(5) -0.1440(2) 0.2352(2)
O2 O 0.4984(4) 0.0222(2) 0.2373(2)
O3 O 0.3443(6) 0.2865(3) -0.0852(2)
O4 O 0.0236(5) 0.3187(2) 0.0283(2)
O5 O -0.4607(5) -0.1794(2) 0.4752(2)
O6 O -0.2136(5) -0.0289(2) 0.4515(2)
N1 N 0.0728(6) -0.2434(3) 0.2469(3)
N2 N -0.2670(5) -0.1169(3) 0.4321(3)
C1 C -0.0314(7) 0.2624(3) 0.3423(3)
H1 H -0.17370 0.21200 0.36530
C2 C -0.0184(7) 0.3537(3) 0.3816(3)
H2 H -0.14970 0.36370 0.43230
C3 C 0.1907(7) 0.4310(3) 0.3455(3)
H3 H 0.19850 0.49480 0.37000
C4 C 0.3859(7) 0.4129(3) 0.2736(3)
H4 H 0.52790 0.46350 0.25040
C5 C 0.3736(7) 0.3205(3) 0.2353(3)
H5 H 0.50690 0.30890 0.18620
C6 C 0.1629(6) 0.2446(3) 0.2696(3)
C7 C 0.2543(6) 0.0206(3) 0.2978(3)
H6 H 0.25950 0.01330 0.37460
C8 C 0.1415(6) 0.1446(3) 0.2274(3)
H7 H -0.03280 0.13080 0.22630
C9 C 0.1207(6) -0.0889(3) 0.3007(3)
C10 C 0.4911(7) 0.0976(3) 0.1267(3)
C11 C 0.2932(6) 0.1688(3) 0.1135(3)
C12 C 0.6976(7) 0.0817(4) 0.0481(3)
H8 H 0.68740 0.14180 -0.02750
H9 H 0.69070 -0.00160 0.05120
H10 H 0.85090 0.09440 0.06860
C13 C 0.2317(7) 0.2625(3) 0.0083(3)
C14 C -0.1208(6) -0.2450(3) 0.3192(3)
C15 C -0.0994(6) -0.1495(3) 0.3564(3)
C16 C -0.3200(7) -0.3392(3) 0.3512(3)
H11 H -0.27270 -0.39520 0.31480
H12 H -0.46940 -0.29780 0.32760
H13 H -0.34790 -0.38590 0.43190
C17 C -0.0660(9) 0.4084(4) -0.0704(4)
H14 H 0.05290 0.47620 -0.11040
H15 H -0.22070 0.44050 -0.04760
H16 H -0.09000 0.36850 -0.11900
#END
