
#######################################################################
#
#                 Cambridge Crystallographic Data Centre
#                                CCDC
#
#######################################################################
#
# If this CIF has been generated from an entry in the Cambridge
# Structural Database, then it will include bibliographic, chemical,
# crystal, experimental, refinement or atomic coordinate data resulting
# from the CCDC's data processing and validation procedures.
#
#######################################################################

data_CSD_CIF_RUPFEO
_audit_creation_date 2010-03-19
_audit_creation_method CSD-ConQuest-V1
_database_code_CSD RUPFEO
_database_code_depnum_ccdc_archive 'CCDC 726779'
_chemical_formula_sum 'C9 H18 N2 O2'
_chemical_formula_moiety
;
C9 H18 N2 O2
;
_journal_coden_Cambridge 1090
_journal_volume 20
_journal_year 2009
_journal_page_first 1308
_journal_name_full 'Tetrahedron:Asymm. '
loop_
_publ_author_name
"T.Olszewska"
"M.Gdaniec"
"T.Polonski"
_chemical_name_systematic
;
N-Nitroso-4-hydroxy-2,2,6,6-tetramethylpiperidine
;
_chemical_name_common
;
2,2,6,6-Tetramethyl-1-nitroso-4-piperidinol
;
_chemical_melting_point 369.15
_cell_volume    739.936
_exptl_crystal_colour 'colorless'
_exptl_crystal_density_diffrn 1.254
_exptl_special_details
;
Melting point range 369.15-370.15K
The compound undergoes spontaneous resolution to a racemic conglomerate
;
_exptl_crystal_description 'needle'
_exptl_crystal_preparation 'methanol/water'
_diffrn_ambient_temperature 100
#These two values have been output from a single CSD field.
_refine_ls_R_factor_gt 0.0482
_refine_ls_wR_factor_gt 0.0482
_symmetry_cell_setting hexagonal
_symmetry_space_group_name_H-M 'P 32'
_symmetry_Int_Tables_number 145
loop_
_symmetry_equiv_pos_site_id
_symmetry_equiv_pos_as_xyz
1 x,y,z
2 -y,x-y,2/3+z
3 -x+y,-x,1/3+z
_cell_length_a 12.133(3)
_cell_length_b 12.133(3)
_cell_length_c 5.804(2)
_cell_angle_alpha 90
_cell_angle_beta 90
_cell_angle_gamma 120
_cell_formula_units_Z 3
loop_
_atom_type_symbol
_atom_type_radius_bond
C 0.68
H 0.23
N 0.68
O 0.68
loop_
_atom_site_label
_atom_site_type_symbol
_atom_site_fract_x
_atom_site_fract_y
_atom_site_fract_z
O1 O 0.1632(2) 0.8445(3) 0.1464(5)
H1 H -0.307(4) 0.417(4) 0.732(7)
N1 N 0.0393(3) 0.6707(3) 0.3407(5)
O2 O -0.2469(3) 0.4434(2) 0.8296(5)
N2 N 0.1397(3) 0.7364(3) 0.2049(5)
C1 C -0.1549(3) 0.6217(3) 0.5644(6)
H2 H -0.18980 0.66240 0.65990
H3 H -0.21920 0.57010 0.45160
C2 C -0.1307(3) 0.5346(3) 0.7149(7)
H4 H -0.06620 0.58530 0.83060
C3 C -0.0816(3) 0.4674(3) 0.5637(6)
H5 H -0.14650 0.41670 0.45110
H6 H -0.06770 0.40950 0.65840
C4 C 0.0423(3) 0.5561(3) 0.4356(6)
C5 C -0.0903(4) 0.7718(4) 0.2401(6)
H7 H -0.14220 0.70160 0.14020
H8 H -0.02090 0.83710 0.15370
H9 H -0.14060 0.80520 0.30380
C6 C 0.0450(4) 0.8367(3) 0.5986(7)
H10 H 0.07720 0.80670 0.71960
H11 H -0.00530 0.86970 0.66420
H12 H 0.11480 0.90290 0.51420
C7 C 0.0532(4) 0.4791(3) 0.2372(7)
H13 H -0.01840 0.45150 0.13610
H14 H 0.05460 0.40620 0.29790
H15 H 0.13030 0.53130 0.15320
C8 C 0.1557(4) 0.6016(3) 0.5994(6)
H16 H 0.23290 0.65640 0.51780
H17 H 0.15930 0.52950 0.65810
H18 H 0.14610 0.64750 0.72520
C9 C -0.0379(3) 0.7262(4) 0.4352(7)
#END
