
#######################################################################
#
#                 Cambridge Crystallographic Data Centre
#                                CCDC
#
#######################################################################
#
# If this CIF has been generated from an entry in the Cambridge
# Structural Database, then it will include bibliographic, chemical,
# crystal, experimental, refinement or atomic coordinate data resulting
# from the CCDC's data processing and validation procedures.
#
#######################################################################

data_CSD_CIF_RUPQIC
_audit_creation_date 1998-03-04
_audit_creation_method CSD-ConQuest-V1
_database_code_CSD RUPQIC
_chemical_formula_sum 'C20 H20 N2 O6'
_chemical_formula_moiety
;
C20 H20 N2 O6
;
_journal_coden_Cambridge 24
_journal_volume 38
_journal_year 1997
_journal_page_first 5273
_journal_name_full 'Tetrahedron Lett. '
loop_
_publ_author_name
"M.T.Reetz"
"C.Merk"
"G.Naberfeld"
"J.Rudolph"
"N.Griebenow"
"R.Goddard"
_chemical_name_systematic
;
rac-2,2'-Dihydroxy-5,5',6,6',7,7',8,8'-octahydro-3,3'-dinitrobinaphthyl
;
_cell_volume   3632.750
_exptl_crystal_colour 'yellow'
_exptl_crystal_density_diffrn 1.406
_exptl_crystal_description 'prism'
_diffrn_ambient_temperature ?
_diffrn_special_details
;
The study was carried out at room temperature,in the range 283-303K

;
#These two values have been output from a single CSD field.
_refine_ls_R_factor_gt 0.0672
_refine_ls_wR_factor_gt 0.0672
_symmetry_cell_setting orthorhombic
_symmetry_space_group_name_H-M 'P b c a'
_symmetry_Int_Tables_number 61
loop_
_symmetry_equiv_pos_site_id
_symmetry_equiv_pos_as_xyz
1 x,y,z
2 1/2-x,-y,1/2+z
3 1/2+x,1/2-y,-z
4 -x,1/2+y,1/2-z
5 -x,-y,-z
6 -1/2+x,y,-1/2-z
7 -1/2-x,-1/2+y,z
8 x,-1/2-y,-1/2+z
_cell_length_a 12.6402(13)
_cell_length_b 21.7827(13)
_cell_length_c 13.1938(13)
_cell_angle_alpha 90
_cell_angle_beta 90
_cell_angle_gamma 90
_cell_formula_units_Z 8
loop_
_atom_type_symbol
_atom_type_radius_bond
C 0.68
H 0.23
N 0.68
O 0.68
loop_
_atom_site_label
_atom_site_type_symbol
_atom_site_fract_x
_atom_site_fract_y
_atom_site_fract_z
C1 C 0.1277(2) 0.40707(13) 0.8821(2)
C2 C 0.0458(3) 0.43290(14) 0.8260(2)
C3 C 0.0340(2) 0.49706(15) 0.8268(2)
C4 C 0.1014(3) 0.53302(15) 0.8839(3)
H1 H 0.0933(3) 0.57544(15) 0.8827(3)
C5 C 0.1797(3) 0.50805(14) 0.9421(3)
C6 C 0.2500(4) 0.5484(2) 1.0065(3)
H2 H 0.2799(4) 0.5800(2) 0.9634(3)
H3 H 0.2060(4) 0.5688(2) 1.0566(3)
C7 C 0.3353(5) 0.5185(2) 1.0587(5)
H4 H 0.4000(5) 0.5310(2) 1.0250(5)
H5 H 0.3376(5) 0.5359(2) 1.1263(5)
C8 C 0.3405(5) 0.4568(2) 1.0698(5)
H6 H 0.3167(5) 0.4475(2) 1.1380(5)
H7 H 0.4147(5) 0.4456(2) 1.0665(5)
C9 C 0.2828(3) 0.4150(2) 1.0002(3)
H8 H 0.2537(3) 0.3815(2) 1.0398(3)
H9 H 0.3333(3) 0.3975(2) 0.9529(3)
C10 C 0.1942(2) 0.44404(13) 0.9403(3)
C11 C 0.1422(2) 0.33898(14) 0.8754(2)
C12 C 0.2082(3) 0.3164(2) 0.7997(3)
C13 C 0.2203(3) 0.2525(2) 0.7902(3)
C14 C 0.1672(3) 0.2135(2) 0.8551(3)
H10 H 0.1760(3) 0.1714(2) 0.8476(3)
C15 C 0.1018(3) 0.23487(15) 0.9302(3)
C16 C 0.0460(4) 0.1915(2) 1.0017(4)
H11 H 0.0068(4) 0.1619(2) 0.9616(4)
H12 H 0.0991(4) 0.1690(2) 1.0397(4)
C17 C -0.0264(5) 0.2198(2) 1.0731(4)
H13 H -0.0970(5) 0.2166(2) 1.0449(4)
H14 H -0.0255(5) 0.1952(2) 1.1344(4)
C18 C -0.0110(6) 0.2805(2) 1.1013(5)
H15 H 0.0432(6) 0.2812(2) 1.1533(5)
H16 H -0.0760(6) 0.2950(2) 1.1323(5)
C19 C 0.0198(3) 0.3256(2) 1.0217(3)
H17 H 0.0557(3) 0.3598(2) 1.0537(3)
H18 H -0.0438(3) 0.3414(2) 0.9899(3)
C20 C 0.0901(3) 0.29953(14) 0.9414(3)
N1 N -0.0473(3) 0.52639(14) 0.7677(2)
N2 N 0.2870(3) 0.2270(2) 0.7124(3)
O1 O -0.0175(2) 0.39466(11) 0.7731(2)
O2 O -0.1095(2) 0.49453(14) 0.7180(2)
O3 O -0.0529(3) 0.58247(13) 0.7671(3)
O4 O 0.2577(2) 0.35762(12) 0.7386(2)
O5 O 0.3331(4) 0.2620(2) 0.6532(3)
O6 O 0.2984(3) 0.1717(2) 0.7081(3)
H19 H -0.0678(38) 0.4173(21) 0.7448(35)
H20 H 0.2879(44) 0.3238(27) 0.6797(41)
#END
