
#######################################################################
#
#                 Cambridge Crystallographic Data Centre
#                                CCDC
#
#######################################################################
#
# If this CIF has been generated from an entry in the Cambridge
# Structural Database, then it will include bibliographic, chemical,
# crystal, experimental, refinement or atomic coordinate data resulting
# from the CCDC's data processing and validation procedures.
#
#######################################################################

data_CSD_CIF_RURSII
_audit_creation_date 2015-08-12
_audit_creation_method CSD-ConQuest-V1
_database_code_CSD RURSII
_database_code_depnum_ccdc_archive 'CCDC 1416085'
_chemical_formula_sum 'C23 H16 N2 O7'
_chemical_formula_moiety
;
C23 H16 N2 O7
;
_journal_coeditor_code "su5172"
_journal_coden_Cambridge 1828
_journal_volume 71
_journal_year 2015
_journal_page_first o645
_journal_name_full 'Acta Crystallogr.,Sect.E:Cryst.Commun. '
loop_
_publ_author_name
"R.Raja"
"S.Kandhasamy"
"P.T.Perumal"
"A.SubbiahPandi"
_chemical_name_systematic
;
2-Methylamino-4-(6-methyl-4-oxo-4H-chromen-3-yl)-3-nitro-4H,5H-pyrano[3,2-c]ch
romen-5-one unknown solvate
;
_cell_volume   1096.758
_exptl_crystal_colour 'colorless'
_exptl_crystal_density_diffrn 1.309
_exptl_crystal_description 'Block'
_diffrn_ambient_temperature 293
_refine_special_details
;
Disordered solvent molecules were not modelled and the disordered density was 
taken into account using the SQUEEZE/PLATON procedure.
;
#These two values have been output from a single CSD field.
_refine_ls_R_factor_gt 0.0444
_refine_ls_wR_factor_gt 0.0444
_symmetry_cell_setting triclinic
_symmetry_space_group_name_H-M 'P -1'
_symmetry_Int_Tables_number 2
loop_
_symmetry_equiv_pos_site_id
_symmetry_equiv_pos_as_xyz
1 x,y,z
2 -x,-y,-z
_cell_length_a 8.0828(2)
_cell_length_b 11.2035(3)
_cell_length_c 13.4718(3)
_cell_angle_alpha 68.580(1)
_cell_angle_beta 78.877(1)
_cell_angle_gamma 76.578(1)
_cell_formula_units_Z 2
loop_
_atom_type_symbol
_atom_type_radius_bond
C 0.68
H 0.23
N 0.68
O 0.68
loop_
_atom_site_label
_atom_site_type_symbol
_atom_site_fract_x
_atom_site_fract_y
_atom_site_fract_z
C1 C 0.0694(2) 0.51857(18) 0.78511(14)
C2 C 0.2157(2) 0.32971(17) 0.91324(14)
C3 C 0.2648(2) 0.19541(18) 0.94755(16)
H1 H 0.24120 0.14660 0.91070
C4 C 0.3494(3) 0.13584(18) 1.03749(17)
H2 H 0.38210 0.04570 1.06180
C5 C 0.3865(2) 0.20740(19) 1.09226(16)
H3 H 0.44440 0.16530 1.15250
C6 C 0.3380(2) 0.34104(18) 1.05799(14)
H4 H 0.36270 0.38900 1.09520
C7 C 0.2513(2) 0.40433(16) 0.96706(13)
C8 C 0.1979(2) 0.54278(16) 0.92247(13)
C9 C 0.1178(2) 0.59925(16) 0.83416(13)
C10 C 0.0759(2) 0.74462(16) 0.78257(13)
H5 H -0.04270 0.76760 0.76610
C11 C 0.0886(2) 0.80769(16) 0.86107(13)
C12 C 0.1690(2) 0.74174(16) 0.95340(13)
C13 C 0.2594(3) 0.7133(2) 1.12655(16)
H6 H 0.25850 0.77020 1.16550
H7 H 0.37500 0.67250 1.11130
H8 H 0.19200 0.64780 1.16900
C14 C 0.1920(2) 0.79154(16) 0.67790(13)
C15 C 0.1217(2) 0.86432(18) 0.58849(14)
H9 H 0.00270 0.88430 0.59400
C16 C 0.3843(2) 0.87622(17) 0.47969(14)
C17 C 0.4691(3) 0.9150(2) 0.37663(15)
H10 H 0.40920 0.96650 0.31870
C18 C 0.6426(3) 0.8761(2) 0.36163(16)
H11 H 0.70000 0.90220 0.29250
C19 C 0.7366(3) 0.7983(2) 0.44682(16)
C20 C 0.9251(3) 0.7457(3) 0.4270(2)
H12 H 0.96370 0.77900 0.35170
H13 H 0.94300 0.65230 0.45030
H14 H 0.98840 0.77220 0.46630
C21 C 0.6498(2) 0.76466(19) 0.54935(15)
H15 H 0.71080 0.71600 0.60740
C22 C 0.4719(2) 0.80227(16) 0.56768(13)
C23 C 0.3775(2) 0.75983(16) 0.67571(13)
N1 N 0.0117(2) 0.93706(14) 0.83773(12)
N2 N 0.1876(2) 0.78827(16) 1.02652(12)
O1 O -0.01634(19) 0.55805(14) 0.71221(11)
O2 O 0.12479(17) 0.38573(12) 0.82583(10)
O3 O 0.23490(15) 0.61246(11) 0.97862(9)
O4 O 0.0280(2) 1.00121(13) 0.89445(11)
O5 O -0.07417(19) 0.98938(13) 0.76059(11)
O6 O 0.20862(17) 0.91158(14) 0.49046(10)
O7 O 0.44855(17) 0.70098(15) 0.75704(10)
H16 H 0.138(3) 0.8717(17) 1.012(2)
#END
