
#######################################################################
#
#                 Cambridge Crystallographic Data Centre
#                                CCDC
#
#######################################################################
#
# If this CIF has been generated from an entry in the Cambridge
# Structural Database, then it will include bibliographic, chemical,
# crystal, experimental, refinement or atomic coordinate data resulting
# from the CCDC's data processing and validation procedures.
#
#######################################################################

data_CSD_CIF_RUSCOZ
_audit_creation_date 2015-08-12
_audit_creation_method CSD-ConQuest-V1
_database_code_CSD RUSCOZ
_database_code_depnum_ccdc_archive 'CCDC 1045501'
_chemical_formula_sum 'C18 H12 N4 O2'
_chemical_formula_moiety
;
C18 H12 N4 O2
;
_journal_coeditor_code "hb7432"
_journal_coden_Cambridge 1828
_journal_volume 71
_journal_year 2015
_journal_page_first o635
_journal_name_full 'Acta Crystallogr.,Sect.E:Cryst.Commun. '
loop_
_publ_author_name
"T.Yu"
"M.-D.Yang"
"J.Pi"
"Y.-B.Zhang"
"J.-H.Yu"
_chemical_name_systematic
;
3-(4-(1H-imidazol-1-yl)phenyl)-2-(4-nitrophenyl)acrylonitrile
;
_cell_volume   1483.219
_exptl_crystal_colour 'red'
_exptl_crystal_density_diffrn 1.416
_exptl_crystal_description 'block'
_diffrn_ambient_temperature 296
#These two values have been output from a single CSD field.
_refine_ls_R_factor_gt 0.036
_refine_ls_wR_factor_gt 0.036
_symmetry_cell_setting monoclinic
_symmetry_space_group_name_H-M 'P 21/c'
_symmetry_Int_Tables_number 14
loop_
_symmetry_equiv_pos_site_id
_symmetry_equiv_pos_as_xyz
1 x,y,z
2 -x,1/2+y,1/2-z
3 -x,-y,-z
4 x,-1/2-y,-1/2+z
_cell_length_a 7.1792(16)
_cell_length_b 16.512(4)
_cell_length_c 12.771(3)
_cell_angle_alpha 90
_cell_angle_beta 101.557(3)
_cell_angle_gamma 90
_cell_formula_units_Z 4
loop_
_atom_type_symbol
_atom_type_radius_bond
C 0.68
H 0.23
N 0.68
O 0.68
loop_
_atom_site_label
_atom_site_type_symbol
_atom_site_fract_x
_atom_site_fract_y
_atom_site_fract_z
N1 N 0.33343(18) 0.36839(7) 0.53687(9)
C1 C 0.2512(2) 0.49937(9) 0.03244(11)
C2 C 0.1639(2) 0.65848(9) -0.23484(11)
C3 C 0.2711(2) 0.47837(9) 0.23353(10)
C4 C 0.2517(2) 0.52940(9) -0.15944(11)
H1 H 0.29170 0.47650 -0.16690
C5 C 0.3390(2) 0.36047(9) 0.34742(11)
H2 H 0.37090 0.30590 0.35570
C6 C 0.3103(2) 0.40518(9) 0.43461(10)
C7 C 0.2195(2) 0.55534(8) -0.06072(11)
C8 C 0.2614(2) 0.48643(9) 0.42196(11)
H3 H 0.24160 0.51670 0.48020
C9 C 0.2475(2) 0.52285(9) 0.13288(11)
H4 H 0.22570 0.57800 0.13950
C10 C 0.2421(2) 0.52205(9) 0.32260(11)
H5 H 0.20910 0.57650 0.31470
C11 C 0.3203(2) 0.39658(9) 0.24824(11)
H6 H 0.34080 0.36610 0.19040
N2 N 0.1372(2) 0.7131(1) -0.32681(11)
C12 C 0.1554(2) 0.63447(9) -0.05281(11)
H7 H 0.13080 0.65270 0.01200
C13 C 0.2251(2) 0.58088(10) -0.24634(11)
H8 H 0.24840 0.56320 -0.31170
O1 O 0.0835(2) 0.78255(8) -0.3150(1)
O2 O 0.1702(2) 0.68742(9) -0.41145(10)
C14 C 0.1280(2) 0.68607(9) -0.13928(12)
H9 H 0.08590 0.73880 -0.13310
N3 N 0.3111(3) 0.35246(9) -0.02129(11)
C15 C 0.2850(2) 0.41644(10) 0.00623(11)
N4 N 0.4589(2) 0.29296(8) 0.67745(10)
C16 C 0.4684(2) 0.31340(9) 0.57988(12)
H10 H 0.55790 0.29260 0.54360
C17 C 0.2306(3) 0.38325(10) 0.61467(12)
H11 H 0.12810 0.41840 0.61030
C18 C 0.3083(3) 0.33654(10) 0.69857(12)
H12 H 0.26530 0.33420 0.76250
#END
