
#######################################################################
#
#                 Cambridge Crystallographic Data Centre
#                                CCDC
#
#######################################################################
#
# If this CIF has been generated from an entry in the Cambridge
# Structural Database, then it will include bibliographic, chemical,
# crystal, experimental, refinement or atomic coordinate data resulting
# from the CCDC's data processing and validation procedures.
#
#######################################################################

data_CSD_CIF_RUSHES
_audit_creation_date 1998-03-12
_audit_creation_method CSD-ConQuest-V1
_database_code_CSD RUSHES
_chemical_formula_sum 'C6 H8 N8 O4'
_chemical_formula_moiety
;
C6 H8 N8 O4
;
_journal_coden_Cambridge 35
_journal_volume 62
_journal_year 1997
_journal_page_first 1872
_journal_name_full 'J.Org.Chem. '
loop_
_publ_author_name
"G.K.S.Prakash"
"J.J.Struckhoff Junior"
"K.Weber"
"A.Schreiber"
"R.Bau"
"G.A.Olah"
_chemical_name_systematic
;
trans-1,4-Dinitro-1,4-diazidocyclohexane
;
_chemical_melting_point 411.15
_cell_volume    525.684
_exptl_crystal_colour 'colorless'
_exptl_crystal_density_diffrn 1.619
_exptl_special_details
;
Melts with decomposition.

;
_exptl_crystal_description 'needles'
_exptl_crystal_preparation 'ethyl acetate'
_diffrn_ambient_temperature 173
#These two values have been output from a single CSD field.
_refine_ls_R_factor_gt 0.0533
_refine_ls_wR_factor_gt 0.0533
_symmetry_cell_setting monoclinic
_symmetry_space_group_name_H-M 'P 21/n'
_symmetry_Int_Tables_number 14
loop_
_symmetry_equiv_pos_site_id
_symmetry_equiv_pos_as_xyz
1 x,y,z
2 1/2-x,1/2+y,1/2-z
3 -x,-y,-z
4 -1/2+x,-1/2-y,-1/2+z
_cell_length_a 5.988(2)
_cell_length_b 13.791(2)
_cell_length_c 6.616(2)
_cell_angle_alpha 90
_cell_angle_beta 105.81(2)
_cell_angle_gamma 90
_cell_formula_units_Z 2
loop_
_atom_type_symbol
_atom_type_radius_bond
C 0.68
H 0.23
N 0.68
O 0.68
loop_
_atom_site_label
_atom_site_type_symbol
_atom_site_fract_x
_atom_site_fract_y
_atom_site_fract_z
O1 O 0.2814(7) 0.3224(3) 0.9174(5)
O2 O 0.2495(6) 0.4658(3) 1.0319(5)
N1 N 0.2395(6) 0.4085(3) 0.8903(6)
N2 N 0.3303(6) 0.4037(3) 0.5576(6)
N3 N 0.2962(6) 0.3159(3) 0.5010(6)
N4 N 0.2891(8) 0.2382(3) 0.4408(7)
C1 C 0.1630(7) 0.4434(3) 0.6596(6)
C2 C 0.1866(7) 0.5537(3) 0.6537(6)
C3 C -0.0863(7) 0.4108(3) 0.5734(6)
H1 H -0.09280 0.34120 0.57820
H2 H -0.17800 0.43590 0.65940
H3 H 0.34680 0.57230 0.70380
H4 H 0.10410 0.58380 0.74250
C3B C 0.0863(7) 0.5892(3) 0.4266(6)
C1B C -0.1630(7) 0.5566(3) 0.3404(6)
N1B N -0.2395(6) 0.5915(3) 0.1097(6)
O1B O -0.2814(7) 0.6776(3) 0.0826(5)
O2B O -0.2495(6) 0.5342(3) -0.0319(5)
N2B N -0.3303(6) 0.5963(3) 0.4424(6)
N3B N -0.2962(6) 0.6841(3) 0.4990(6)
N4B N -0.2891(8) 0.7618(3) 0.5592(7)
C2B C -0.1866(7) 0.4463(3) 0.3463(6)
H3B H -0.34680 0.42770 0.29620
H4B H -0.10410 0.41620 0.25750
H1B H 0.09280 0.65880 0.42180
H2B H 0.17800 0.56410 0.34060
#END
