
#######################################################################
#
#                 Cambridge Crystallographic Data Centre
#                                CCDC
#
#######################################################################
#
# If this CIF has been generated from an entry in the Cambridge
# Structural Database, then it will include bibliographic, chemical,
# crystal, experimental, refinement or atomic coordinate data resulting
# from the CCDC's data processing and validation procedures.
#
#######################################################################

data_CSD_CIF_RUSHIW
_audit_creation_date 1998-03-12
_audit_creation_method CSD-ConQuest-V1
_database_code_CSD RUSHIW
_chemical_formula_sum 'C7 H8 N8 O4'
_chemical_formula_moiety
;
C7 H8 N8 O4
;
_journal_coden_Cambridge 35
_journal_volume 62
_journal_year 1997
_journal_page_first 1872
_journal_name_full 'J.Org.Chem. '
loop_
_publ_author_name
"G.K.S.Prakash"
"J.J.Struckhoff Junior"
"K.Weber"
"A.Schreiber"
"R.Bau"
"G.A.Olah"
_chemical_name_systematic
;
trans-2,5-Diazido-2,5-dinitrobicyclo(2.2.1)heptane
;
_chemical_melting_point 367.15
_cell_volume    565.085
_exptl_crystal_colour 'colorless'
_exptl_crystal_density_diffrn 1.576
_exptl_special_details
;
Melting point range 367.15-369.15K
Space group should be P-1 (not P1)

;
_exptl_crystal_preparation 'ethyl acetate'
_diffrn_ambient_temperature ?
_diffrn_special_details
;
The study was carried out at room temperature,in the range 283-303K

;
#These two values have been output from a single CSD field.
_refine_ls_R_factor_gt 0.0628
_refine_ls_wR_factor_gt 0.0628
_symmetry_cell_setting triclinic
_symmetry_space_group_name_H-M 'P -1'
_symmetry_Int_Tables_number 2
loop_
_symmetry_equiv_pos_site_id
_symmetry_equiv_pos_as_xyz
1 x,y,z
2 -x,-y,-z
_cell_length_a 6.554(3)
_cell_length_b 7.030(5)
_cell_length_c 13.568(5)
_cell_angle_alpha 78.37(4)
_cell_angle_beta 80.85(3)
_cell_angle_gamma 67.94(4)
_cell_formula_units_Z 2
loop_
_atom_type_symbol
_atom_type_radius_bond
C 0.68
H 0.23
N 0.68
O 0.68
loop_
_atom_site_label
_atom_site_type_symbol
_atom_site_fract_x
_atom_site_fract_y
_atom_site_fract_z
O1 O -0.1353(7) 1.3560(7) 1.1736(4)
O2 O -0.2718(7) 1.1196(7) 1.1862(4)
O3 O 0.0227(7) 0.4658(7) 1.3483(4)
O4 O -0.1727(7) 0.7512(7) 1.3934(4)
N1 N 0.1965(7) 1.1052(7) 1.0525(4)
N2 N 0.2529(7) 1.2551(7) 1.0482(4)
N3 N 0.3176(8) 1.3868(7) 1.0329(5)
N4 N 0.3445(7) 0.5788(6) 1.4165(4)
N5 N 0.4403(7) 0.3924(7) 1.4082(4)
N6 N 0.5380(8) 0.2226(7) 1.4107(5)
N7 N 0.0001(7) 0.6385(7) 1.3614(4)
N8 N -0.1195(7) 1.1782(7) 1.1732(4)
C1 C 0.3059(7) 0.6749(7) 1.2297(4)
C2 C 0.2020(7) 0.7009(7) 1.3378(4)
C3 C 0.1501(7) 0.9330(7) 1.3407(4)
C4 C 0.2600(7) 1.0053(7) 1.2380(4)
C5 C 0.1190(7) 1.0248(7) 1.1540(4)
C6 C 0.1318(7) 0.8041(7) 1.1550(4)
C7 C 0.4509(7) 0.8043(7) 1.2186(4)
H1 H 0.56010 0.75500 1.26680
H2 H 0.53050 0.81600 1.15210
H3 H 0.38420 0.53210 1.21920
H4 H 0.30270 1.12590 1.23630
H5 H 0.20830 0.95140 1.39770
H6 H -0.00740 1.00750 1.34710
H7 H -0.00800 0.78820 1.17790
H8 H 0.17600 0.76430 1.08890
#END
