
#######################################################################
#
#                 Cambridge Crystallographic Data Centre
#                                CCDC
#
#######################################################################
#
# If this CIF has been generated from an entry in the Cambridge
# Structural Database, then it will include bibliographic, chemical,
# crystal, experimental, refinement or atomic coordinate data resulting
# from the CCDC's data processing and validation procedures.
#
#######################################################################

data_CSD_CIF_RUSJUL
_audit_creation_date 2010-03-26
_audit_creation_method CSD-ConQuest-V1
_database_code_CSD RUSJUL
_database_code_depnum_ccdc_archive 'CCDC 751909'
_chemical_formula_sum 'C11 H10 N2 O3'
_chemical_formula_moiety
;
C11 H10 N2 O3
;
_journal_coden_Cambridge 1336
_journal_volume 11
_journal_year 2009
_journal_page_first 2643
_journal_name_full 'Org.Lett. '
loop_
_publ_author_name
"Xiaoxun Li"
"Yunfei Du"
"Zhidan Liang"
"Xiangke Li"
"Yan Pan"
"Kang Zhao"
_chemical_name_systematic
;
1-(3-Methyl-2-(4-nitrophenyl)-2H-aziren-2-yl)ethanone
;
_chemical_melting_point 395.15
_cell_volume    507.213
_exptl_crystal_colour 'white'
_exptl_crystal_density_diffrn 1.429
_exptl_special_details
;
Melting point range 395.15-396.15K

;
_diffrn_ambient_temperature 113
#These two values have been output from a single CSD field.
_refine_ls_R_factor_gt 0.0366
_refine_ls_wR_factor_gt 0.0366
_symmetry_cell_setting triclinic
_symmetry_space_group_name_H-M 'P -1'
_symmetry_Int_Tables_number 2
loop_
_symmetry_equiv_pos_site_id
_symmetry_equiv_pos_as_xyz
1 x,y,z
2 -x,-y,-z
_cell_length_a 6.9189(14)
_cell_length_b 7.0620(14)
_cell_length_c 11.947(2)
_cell_angle_alpha 74.48(3)
_cell_angle_beta 74.71(3)
_cell_angle_gamma 66.39(3)
_cell_formula_units_Z 2
loop_
_atom_type_symbol
_atom_type_radius_bond
C 0.68
H 0.23
N 0.68
O 0.68
loop_
_atom_site_label
_atom_site_type_symbol
_atom_site_fract_x
_atom_site_fract_y
_atom_site_fract_z
O1 O 0.15358(16) 1.02404(17) 0.72154(8)
O2 O 0.14328(18) 1.32647(17) 0.61294(9)
O3 O 0.23056(16) 1.10878(15) 0.07898(8)
N1 N 0.17235(18) 1.1391(2) 0.62484(10)
N2 N 0.41820(19) 0.55244(18) 0.22965(10)
C1 C 0.3167(2) 0.7584(2) 0.42596(11)
H1 H 0.33890 0.61750 0.43170
C2 C 0.2647(2) 0.8393(2) 0.52793(11)
H2 H 0.25220 0.75410 0.60180
C3 C 0.2318(2) 1.0490(2) 0.51781(11)
C4 C 0.2523(2) 1.1780(2) 0.40931(11)
H3 H 0.23000 1.31860 0.40450
C5 C 0.3062(2) 1.0957(2) 0.30804(11)
H4 H 0.32260 1.18130 0.23470
C6 C 0.33667(19) 0.8850(2) 0.31411(11)
C7 C 0.3904(2) 0.7917(2) 0.20623(11)
C8 C 0.2985(2) 0.9177(2) 0.09722(11)
C9 C 0.2967(2) 0.7982(2) 0.01084(13)
H5 H 0.23320 0.89550 -0.05420
H6 H 0.21480 0.70910 0.04930
H7 H 0.44100 0.71370 -0.01780
C10 C 0.5826(2) 0.5993(2) 0.19191(11)
C11 C 0.8170(2) 0.5157(2) 0.15820(11)
H8 H 0.86510 0.36640 0.16310
H9 H 0.88070 0.54540 0.21070
H10 H 0.85830 0.58050 0.07880
#END
