
#######################################################################
#
#                 Cambridge Crystallographic Data Centre
#                                CCDC
#
#######################################################################
#
# If this CIF has been generated from an entry in the Cambridge
# Structural Database, then it will include bibliographic, chemical,
# crystal, experimental, refinement or atomic coordinate data resulting
# from the CCDC's data processing and validation procedures.
#
#######################################################################

data_CSD_CIF_RUSKAS
_audit_creation_date 2010-03-26
_audit_creation_method CSD-ConQuest-V1
_database_code_CSD RUSKAS
_database_code_depnum_ccdc_archive 'CCDC 751923'
_chemical_formula_sum 'C26 H25 N3 O3'
_chemical_formula_moiety
;
C26 H25 N3 O3
;
_journal_coden_Cambridge 1336
_journal_volume 11
_journal_year 2009
_journal_page_first 2671
_journal_name_full 'Org.Lett. '
loop_
_publ_author_name
"Hao Li"
"R.A.Widenhoefer"
_chemical_name_systematic
;
1-Methyl-2-(4-nitrophenyl)-6,6-diphenylhexahydroimidazo-(1,5-a)pyridine-3-one
;
_cell_volume   4261.272
_exptl_crystal_density_diffrn 1.333
_diffrn_ambient_temperature 296
#These two values have been output from a single CSD field.
_refine_ls_R_factor_gt 0.0664
_refine_ls_wR_factor_gt 0.0664
_symmetry_cell_setting monoclinic
_symmetry_space_group_name_H-M 'P 21/n'
_symmetry_Int_Tables_number 14
loop_
_symmetry_equiv_pos_site_id
_symmetry_equiv_pos_as_xyz
1 x,y,z
2 1/2-x,1/2+y,1/2-z
3 -x,-y,-z
4 -1/2+x,-1/2-y,-1/2+z
_cell_length_a 11.7900(4)
_cell_length_b 24.9598(8)
_cell_length_c 14.4867(5)
_cell_angle_alpha 90
_cell_angle_beta 91.673(2)
_cell_angle_gamma 90
_cell_formula_units_Z 8
loop_
_atom_type_symbol
_atom_type_radius_bond
C 0.68
N 0.68
O 0.68
loop_
_atom_site_label
_atom_site_type_symbol
_atom_site_fract_x
_atom_site_fract_y
_atom_site_fract_z
N1 N 0.3581(2) 0.0446(1) 0.9576(1)
N2 N 0.3442(2) -0.0162(1) 0.8470(1)
N3 N 0.2804(2) -0.2068(1) 0.6482(2)
O1 O 0.2985(2) -0.0392(1) 0.9974(1)
O2 O 0.2939(2) -0.2496(1) 0.6879(2)
O3 O 0.2578(2) -0.2030(1) 0.5648(2)
C1 C 0.4813(2) 0.0243(1) 0.7389(2)
C2 C 0.3790(2) 0.0330(1) 0.7987(2)
C3 C 0.4063(2) 0.0711(1) 0.8785(2)
C4 C 0.3586(2) 0.1268(1) 0.8713(2)
C5 C 0.3770(2) 0.1558(1) 0.9631(2)
C6 C 0.3232(2) 0.1271(1) 1.0457(2)
C7 C 0.3590(1) 0.1546(1) 1.1383(1)
C8 C 0.3458(2) 0.1270(1) 1.2206(1)
C9 C 0.3749(2) 0.1513(1) 1.3042(1)
C10 C 0.4173(2) 0.2033(1) 1.3055(1)
C11 C 0.4305(2) 0.2309(1) 1.2232(1)
C12 C 0.4014(2) 0.2065(1) 1.1396(1)
C13 C 0.1912(1) 0.1285(1) 1.0386(1)
C14 C 0.1393(1) 0.1777(1) 1.0220(1)
C15 C 0.0217(1) 0.1816(1) 1.0200(1)
C16 C -0.0441(1) 0.1363(1) 1.0345(1)
C17 C 0.0078(1) 0.0871(1) 1.0510(1)
C18 C 0.1255(1) 0.0832(1) 1.0531(1)
C19 C 0.3709(2) 0.0691(1) 1.0473(2)
C20 C 0.3309(2) -0.0071(1) 0.9411(2)
C21 C 0.3174(1) -0.0638(1) 0.8007(1)
C22 C 0.3269(1) -0.1130(1) 0.8453(1)
C23 C 0.3117(1) -0.1602(1) 0.7956(1)
C24 C 0.2870(1) -0.1582(1) 0.7012(1)
C25 C 0.2775(1) -0.1091(1) 0.6566(1)
C26 C 0.2927(1) -0.0619(1) 0.7063(1)
N4 N 0.3636(2) -0.2347(1) 1.1500(1)
N5 N 0.3931(2) -0.2939(1) 1.0404(1)
N6 N 0.2242(2) -0.0526(1) 1.3428(2)
O4 O 0.2986(2) -0.2174(1) 0.9991(1)
O5 O 0.2219(2) -0.0097(1) 1.3023(2)
O6 O 0.2073(2) -0.0573(1) 1.4263(2)
C27 C 0.5220(2) -0.2625(1) 1.2584(2)
C28 C 0.4202(2) -0.2797(1) 1.1990(2)
C29 C 0.4555(2) -0.3159(1) 1.1199(2)
C30 C 0.4301(2) -0.3744(1) 1.1267(2)
C31 C 0.4490(2) -0.4020(1) 1.0345(2)
C32 C 0.3774(2) -0.3779(1) 0.9530(2)
C33 C 0.4089(2) -0.4043(1) 0.8606(1)
C34 C 0.4279(2) -0.4592(1) 0.8574(1)
C35 C 0.4556(2) -0.4835(1) 0.7747(1)
C36 C 0.4643(2) -0.4528(1) 0.6952(1)
C37 C 0.4453(2) -0.3979(1) 0.6983(1)
C38 C 0.4176(2) -0.3736(1) 0.7810(1)
C39 C 0.2488(1) -0.3857(1) 0.9651(1)
C40 C 0.2120(2) -0.4342(1) 1.0005(1)
C41 C 0.0967(2) -0.4438(1) 1.0093(1)
C42 C 0.0182(1) -0.4048(1) 0.9827(2)
C43 C 0.0550(1) -0.3562(1) 0.9474(2)
C44 C 0.1703(2) -0.3467(1) 0.9386(1)
C45 C 0.4087(2) -0.3177(1) 0.9509(2)
C46 C 0.3469(2) -0.2456(1) 1.0561(2)
C47 C 0.3190(1) -0.1902(1) 1.1954(1)
C48 C 0.3012(1) -0.1420(1) 1.1491(1)
C49 C 0.2662(1) -0.0970(1) 1.1971(1)
C50 C 0.2489(1) -0.1003(1) 1.2915(1)
C51 C 0.2667(1) -0.1485(1) 1.3378(1)
C52 C 0.3017(1) -0.1934(1) 1.2897(1)
#END
