
#######################################################################
#
#                 Cambridge Crystallographic Data Centre
#                                CCDC
#
#######################################################################
#
# If this CIF has been generated from an entry in the Cambridge
# Structural Database, then it will include bibliographic, chemical,
# crystal, experimental, refinement or atomic coordinate data resulting
# from the CCDC's data processing and validation procedures.
#
#######################################################################

data_CSD_CIF_RUSNEY
_audit_creation_date 1998-03-12
_audit_creation_method CSD-ConQuest-V1
_database_code_CSD RUSNEY
_chemical_formula_sum 'C22 H30 N2 O6'
_chemical_formula_moiety
;
C22 H30 N2 O6
;
_journal_coden_Cambridge 35
_journal_volume 62
_journal_year 1997
_journal_page_first 3994
_journal_name_full 'J.Org.Chem. '
loop_
_publ_author_name
"S.Harada"
"H.Kiyono"
"R.Nishio"
"T.Taguchi"
"Y.Hanzawa"
"M.Shiro"
_chemical_name_systematic
;
(3R*,6R*)-(E)-6-Cyclohexyl-2,3-dimethyl-2-((3,5-dinitrobenzoyl)oxy)-4-heptene
;
_chemical_melting_point 356.25
_cell_volume   2298.813
_exptl_crystal_colour 'colorless'
_exptl_crystal_density_diffrn 1.209
_exptl_special_details
;
Melting point range 356.25-359.45K

;
_exptl_crystal_description 'prism'
_exptl_crystal_preparation 'hexane/ethyl acetate'
_diffrn_ambient_temperature ?
_diffrn_special_details
;
The study was carried out at room temperature,in the range 283-303K

;
#These two values have been output from a single CSD field.
_refine_ls_R_factor_gt 0.064
_refine_ls_wR_factor_gt 0.064
_symmetry_cell_setting monoclinic
_symmetry_space_group_name_H-M 'P 21/n'
_symmetry_Int_Tables_number 14
loop_
_symmetry_equiv_pos_site_id
_symmetry_equiv_pos_as_xyz
1 x,y,z
2 1/2-x,1/2+y,1/2-z
3 -x,-y,-z
4 -1/2+x,-1/2-y,-1/2+z
_cell_length_a 6.321(4)
_cell_length_b 9.721(6)
_cell_length_c 37.452(3)
_cell_angle_alpha 90
_cell_angle_beta 92.66(2)
_cell_angle_gamma 90
_cell_formula_units_Z 4
loop_
_atom_type_symbol
_atom_type_radius_bond
C 0.68
H 0.23
N 0.68
O 0.68
loop_
_atom_site_label
_atom_site_type_symbol
_atom_site_fract_x
_atom_site_fract_y
_atom_site_fract_z
O1 O -0.2106(4) 0.6741(3) 0.17520(7)
O2 O 0.0220(4) 0.7908(3) 0.21081(8)
O3 O -0.124(1) 0.8271(6) 0.3365(1)
O4 O -0.4268(10) 0.7644(5) 0.3548(1)
O5 O -0.9006(6) 0.4976(4) 0.2775(1)
O6 O -0.8107(6) 0.4526(5) 0.2236(1)
N1 N -0.301(1) 0.7745(5) 0.3323(1)
N2 N -0.7823(6) 0.5081(5) 0.2529(2)
C1 C 0.2269(7) 1.1359(5) 0.0431(1)
C2 C 0.0472(10) 1.2324(7) 0.0486(2)
C3 C 0.114(2) 1.3820(9) 0.0390(3)
C4 C 0.316(1) 1.4234(8) 0.0601(3)
C5 C 0.486(1) 1.3319(8) 0.0551(2)
C6 C 0.4216(8) 1.1849(6) 0.0643(2)
C7 C 0.1621(7) 0.9876(5) 0.0495(1)
C8 C 0.3277(10) 0.8857(6) 0.0384(2)
C9 C 0.1056(6) 0.9603(5) 0.0874(1)
C10 C -0.0664(6) 0.8987(5) 0.0970(1)
C11 C -0.1228(6) 0.8627(4) 0.1347(1)
C12 C -0.3376(7) 0.9220(6) 0.1424(1)
C13 C -0.1099(6) 0.7080(4) 0.1411(1)
C14 C 0.1173(7) 0.6537(5) 0.1432(1)
C15 C -0.2472(8) 0.6254(5) 0.1141(1)
C16 C -0.1368(6) 0.7242(4) 0.2059(1)
C17 C -0.2806(5) 0.6904(4) 0.2360(1)
C18 C -0.2253(7) 0.7409(4) 0.2696(1)
C19 C -0.3569(8) 0.7167(4) 0.2967(1)
C20 C -0.5441(8) 0.6432(5) 0.2917(1)
C21 C -0.5889(6) 0.5899(4) 0.2587(1)
C22 C -0.4640(6) 0.6123(4) 0.2301(1)
H1 H 0.26040 1.14530 0.01820
H2 H -0.07510 1.20430 0.03490
H3 H 0.01670 1.23400 0.07320
H4 H 0.14560 1.38350 0.01210
H5 H 0.00000 1.44650 0.04000
H6 H 0.34810 1.51770 0.05460
H7 H 0.27760 1.42020 0.08460
H8 H 0.51870 1.33750 0.02920
H9 H 0.60930 1.36480 0.06780
H10 H 0.39110 1.18360 0.08970
H11 H 0.53650 1.12300 0.06140
H12 H 0.03160 0.97050 0.03480
H13 H 0.28400 0.79210 0.04010
H14 H 0.36110 0.89910 0.01290
H15 H 0.45850 0.89740 0.05160
H16 H 0.21060 0.98790 0.10720
H17 H -0.17170 0.87640 0.07780
H18 H -0.01650 0.90920 0.15100
H19 H -0.34390 1.02080 0.13800
H20 H -0.44470 0.88100 0.12680
H21 H -0.37480 0.90730 0.16640
H22 H 0.12120 0.55590 0.14670
H23 H 0.18700 0.67230 0.12120
H24 H 0.19740 0.69640 0.16210
H25 H -0.39260 0.65740 0.11360
H26 H -0.20040 0.63630 0.08990
H27 H -0.24830 0.52940 0.11920
H28 H -0.09120 0.79080 0.27390
H29 H -0.63770 0.62780 0.31220
H30 H -0.49880 0.57290 0.20650
#END
