
#######################################################################
#
#                 Cambridge Crystallographic Data Centre
#                                CCDC
#
#######################################################################
#
# If this CIF has been generated from an entry in the Cambridge
# Structural Database, then it will include bibliographic, chemical,
# crystal, experimental, refinement or atomic coordinate data resulting
# from the CCDC's data processing and validation procedures.
#
#######################################################################

data_CSD_CIF_RUSWAF
_audit_creation_date 2015-11-27
_audit_creation_method CSD-ConQuest-V1
_database_code_CSD RUSWAF
_database_code_depnum_ccdc_archive 'CCDC 1432348'
_chemical_formula_sum 'C19 H24 N2 O8'
_chemical_formula_moiety
;
C19 H24 N2 O8
;
_journal_coden_Cambridge 177
_journal_volume 14
_journal_year 2016
_journal_page_first 5494
_journal_name_full 'Org.Biomol.Chem. '
loop_
_publ_author_name
"A.Suresh Kumar"
"T.Prabhakar Reddy"
"R.Madhavachary"
"D.B.Ramachary"
_chemical_name_systematic
;
methyl 
3-(1-(2-((t-butoxycarbonyl)amino)phenyl)-2-nitroethyl)-2-oxotetrahydrofuran-3-
carboxylate
;
_cell_volume   2147.422
_exptl_crystal_density_diffrn 1.263
_diffrn_ambient_temperature 293
#These two values have been output from a single CSD field.
_refine_ls_R_factor_gt 0.0562
_refine_ls_wR_factor_gt 0.0562
_symmetry_cell_setting orthorhombic
_symmetry_space_group_name_H-M 'P 21 21 21'
_symmetry_Int_Tables_number 19
loop_
_symmetry_equiv_pos_site_id
_symmetry_equiv_pos_as_xyz
1 x,y,z
2 1/2-x,-y,1/2+z
3 1/2+x,1/2-y,-z
4 -x,1/2+y,1/2-z
_cell_length_a 7.8240(5)
_cell_length_b 13.3590(5)
_cell_length_c 20.5454(9)
_cell_angle_alpha 90
_cell_angle_beta 90
_cell_angle_gamma 90
_cell_formula_units_Z 4
loop_
_atom_type_symbol
_atom_type_radius_bond
C 0.68
H 0.23
N 0.68
O 0.68
loop_
_atom_site_label
_atom_site_type_symbol
_atom_site_fract_x
_atom_site_fract_y
_atom_site_fract_z
C1 C 0.6926(7) 0.1230(3) 0.2046(2)
C2 C 0.7844(7) 0.1791(4) 0.2504(3)
H1 H 0.84200 0.23630 0.23690
C3 C 0.7911(8) 0.1516(4) 0.3143(3)
H2 H 0.85150 0.19010 0.34410
C4 C 0.7074(8) 0.0661(4) 0.3343(3)
H3 H 0.71240 0.04600 0.37760
C5 C 0.6159(8) 0.0106(4) 0.2894(2)
H4 H 0.55850 -0.04630 0.30350
C6 C 0.6063(7) 0.0366(3) 0.2240(2)
C7 C 0.6725(7) 0.2536(3) 0.1212(2)
C8 C 0.6955(13) 0.3623(5) 0.0269(3)
C9 C 0.8421(17) 0.4228(7) 0.0541(5)
H5 H 0.81750 0.44100 0.09830
H6 H 0.85720 0.48220 0.02850
H7 H 0.94490 0.38350 0.05280
C10 C 0.5233(14) 0.4116(6) 0.0358(4)
H8 H 0.43450 0.36380 0.02740
H9 H 0.51280 0.46660 0.00600
H10 H 0.51330 0.43580 0.07960
C11 C 0.7190(16) 0.3376(5) -0.0447(3)
H11 H 0.82410 0.30170 -0.05050
H12 H 0.72240 0.39850 -0.06950
H13 H 0.62520 0.29710 -0.05930
C12 C 0.4993(7) -0.0228(3) 0.1757(2)
H14 H 0.47820 0.02060 0.13800
C13 C 0.3255(7) -0.0505(3) 0.2046(2)
H15 H 0.25760 -0.08460 0.17190
H16 H 0.34190 -0.09610 0.24080
C14 C 0.5890(7) -0.1190(3) 0.1502(2)
C15 C 0.7688(8) -0.0927(3) 0.1264(3)
C16 C 0.8112(10) -0.2039(7) 0.2082(5)
H17 H 0.84180 -0.17840 0.25090
H18 H 0.85320 -0.27200 0.20470
C17 C 0.6251(7) -0.2025(3) 0.2004(3)
H19 H 0.56940 -0.18780 0.24150
H20 H 0.58420 -0.26660 0.18450
C18 C 0.4948(8) -0.1591(3) 0.0904(3)
C19 C 0.5011(11) -0.2802(5) 0.0066(3)
H21 H 0.46160 -0.22780 -0.02160
H22 H 0.40640 -0.32170 0.01900
H23 H 0.58480 -0.31990 -0.01570
N1 N 0.6900(6) 0.1560(3) 0.13922(19)
H24 H 0.70010 0.11180 0.10900
N2 N 0.2320(7) 0.0400(4) 0.2275(2)
O1 O 0.6363(6) 0.3197(2) 0.15840(17)
O2 O 0.6964(6) 0.2623(2) 0.05808(17)
O3 O 0.2456(7) 0.1170(3) 0.1984(2)
O4 O 0.1478(10) 0.0326(5) 0.2758(3)
O5 O 0.8038(6) -0.0341(3) 0.0851(2)
O6 O 0.8876(6) -0.1424(3) 0.1583(2)
O7 O 0.3628(6) -0.1263(3) 0.06946(19)
O8 O 0.5778(6) -0.2361(3) 0.06482(19)
#END
