
#######################################################################
#
#                 Cambridge Crystallographic Data Centre
#                                CCDC
#
#######################################################################
#
# If this CIF has been generated from an entry in the Cambridge
# Structural Database, then it will include bibliographic, chemical,
# crystal, experimental, refinement or atomic coordinate data resulting
# from the CCDC's data processing and validation procedures.
#
#######################################################################

data_CSD_CIF_RUTNAX
_audit_creation_date 2015-11-28
_audit_creation_method CSD-ConQuest-V1
_database_code_CSD RUTNAX
_database_code_depnum_ccdc_archive 'CCDC 1437500'
_chemical_formula_sum 'C15 H14 N6 O4'
_chemical_formula_moiety
;
C15 H14 N6 O4
;
_journal_coeditor_code "fp3020"
_journal_coden_Cambridge 1777
_journal_volume 71
_journal_year 2015
_journal_page_first 1106
_journal_name_full 'Acta Crystallogr.,Sect.C:Cryst.Struct.Chem. '
loop_
_publ_author_name
"C.Bustos"
"L.Alvarez-Thon"
"R.Baggio"
_chemical_name_systematic
;
2,2'-propane-1,2-diylidenebis(1-(2-nitrophenyl)hydrazine)
;
_cell_volume   1507.734
_exptl_crystal_colour 'red'
_exptl_crystal_density_diffrn 1.508
_exptl_crystal_description 'Polyhedron'
_diffrn_ambient_temperature 150
#These two values have been output from a single CSD field.
_refine_ls_R_factor_gt 0.0377
_refine_ls_wR_factor_gt 0.0377
_symmetry_cell_setting monoclinic
_symmetry_space_group_name_H-M 'P 21/c'
_symmetry_Int_Tables_number 14
loop_
_symmetry_equiv_pos_site_id
_symmetry_equiv_pos_as_xyz
1 x,y,z
2 -x,1/2+y,1/2-z
3 -x,-y,-z
4 x,-1/2-y,-1/2+z
_cell_length_a 7.9382(16)
_cell_length_b 7.3484(15)
_cell_length_c 25.847(5)
_cell_angle_alpha 90
_cell_angle_beta 90.05(3)
_cell_angle_gamma 90
_cell_formula_units_Z 4
loop_
_atom_type_symbol
_atom_type_radius_bond
C 0.68
H 0.23
N 0.68
O 0.68
loop_
_atom_site_label
_atom_site_type_symbol
_atom_site_fract_x
_atom_site_fract_y
_atom_site_fract_z
O1 O 0.30892(12) 0.20393(13) 0.26910(4)
O2 O 0.49328(15) 0.41876(16) 0.26383(4)
O3 O 1.11253(13) 1.39299(13) 0.47028(4)
O4 O 1.22167(13) 1.66213(14) 0.46602(4)
N1 N 0.60264(15) 0.57642(16) 0.34966(4)
H1 H 0.5994(18) 0.5906(19) 0.3166(3)
N2 N 0.68109(14) 0.70148(15) 0.38056(4)
N3 N 0.86691(14) 1.12670(15) 0.36312(4)
N4 N 0.95062(15) 1.25696(15) 0.39075(4)
H2 H 0.9728(17) 1.2425(19) 0.4227(4)
N5 N 0.41343(15) 0.30492(16) 0.28948(4)
N6 N 1.14979(15) 1.53197(16) 0.44560(4)
C1 C 0.53689(16) 0.42342(18) 0.37167(5)
C2 C 0.44424(17) 0.29060(18) 0.34426(5)
C3 C 0.37566(17) 0.13959(19) 0.36908(6)
H3 H 0.31470 0.05470 0.35000
C4 C 0.39677(19) 0.11451(19) 0.42111(6)
H4 H 0.35130 0.01320 0.43750
C5 C 0.48780(18) 0.24393(19) 0.44908(6)
H5 H 0.50260 0.22820 0.48450
C6 C 0.55555(17) 0.39336(18) 0.42543(5)
H6 H 0.61530 0.47720 0.44520
C7 C 0.73489(17) 0.84686(18) 0.35836(5)
H7 H 0.71870 0.86400 0.32310
C8 C 0.82108(17) 0.98371(18) 0.38888(5)
C9 C 1.01205(16) 1.40734(17) 0.36605(5)
C10 C 1.10995(16) 1.54146(18) 0.39096(5)
C11 C 1.17754(18) 1.68724(19) 0.36358(5)
H8 H 1.24310 1.77300 0.38070
C12 C 1.1485(2) 1.7056(2) 0.31161(6)
H9 H 1.19580 1.80160 0.29320
C13 C 1.04659(19) 1.5778(2) 0.28672(6)
H10 H 1.02410 1.59080 0.25160
C14 C 0.97949(17) 1.43429(18) 0.31305(5)
H11 H 0.91060 1.35230 0.29560
C15 C 0.85593(19) 0.9528(2) 0.44505(5)
H12 H 0.97510 0.94020 0.45030
H13 H 0.80000 0.84380 0.45620
H14 H 0.81510 1.05440 0.46470
#END
