
#######################################################################
#
#                 Cambridge Crystallographic Data Centre
#                                CCDC
#
#######################################################################
#
# If this CIF has been generated from an entry in the Cambridge
# Structural Database, then it will include bibliographic, chemical,
# crystal, experimental, refinement or atomic coordinate data resulting
# from the CCDC's data processing and validation procedures.
#
#######################################################################

data_CSD_CIF_RUTVIL
_audit_creation_date 1998-03-12
_audit_creation_method CSD-ConQuest-V1
_database_code_CSD RUTVIL
_chemical_formula_sum 'C24 H18 N2 O4'
_chemical_formula_moiety
;
C24 H18 N2 O4
;
_journal_coden_Cambridge 9
_journal_volume 36
_journal_year 1997
_journal_page_first 5826
_journal_name_full 'Inorg.Chem. '
loop_
_publ_author_name
"M.del Rosario Benites"
"F.R.Fronczek"
"R.P.Hammer"
"A.W.Maverick"
_chemical_name_systematic
;
1,8-bis(3,5-Dimethylisoxazol-4-yl)-anthraquinone
;
_cell_volume   3986.035
_exptl_crystal_colour 'yellow-orange'
_exptl_crystal_density_diffrn 1.328
_exptl_crystal_preparation 'hot isopropanol'
_diffrn_ambient_temperature ?
_diffrn_special_details
;
The study was carried out at room temperature,in the range 283-303K

;
_refine_special_details
;
The N and O atoms were not distinguished and were modelled as half N and half 
O.
;
#These two values have been output from a single CSD field.
_refine_ls_R_factor_gt 0.057
_refine_ls_wR_factor_gt 0.057
_symmetry_cell_setting orthorhombic
_symmetry_space_group_name_H-M 'P b c a'
_symmetry_Int_Tables_number 61
loop_
_symmetry_equiv_pos_site_id
_symmetry_equiv_pos_as_xyz
1 x,y,z
2 1/2-x,-y,1/2+z
3 1/2+x,1/2-y,-z
4 -x,1/2+y,1/2-z
5 -x,-y,-z
6 -1/2+x,y,-1/2-z
7 -1/2-x,-1/2+y,z
8 x,-1/2-y,-1/2+z
_cell_length_a 14.351(2)
_cell_length_b 11.932(1)
_cell_length_c 23.278(2)
_cell_angle_alpha 90
_cell_angle_beta 90
_cell_angle_gamma 90
_cell_formula_units_Z 8
loop_
_atom_type_symbol
_atom_type_radius_bond
C 0.68
H 0.23
N 0.68
O 0.68
loop_
_atom_site_label
_atom_site_type_symbol
_atom_site_fract_x
_atom_site_fract_y
_atom_site_fract_z
O1 O 0.4470(1) 0.6033(2) 0.33172(8)
O2 O 0.7499(2) 0.8153(2) 0.4003(1)
N1 N 0.4416(2) 0.3506(2) 0.21574(8)
O3 O 0.4367(2) 0.3066(2) 0.27233(9)
N2 N 0.2069(2) 0.6082(2) 0.3940(1)
O4 O 0.2309(2) 0.5277(2) 0.43665(9)
C1 C 0.6198(2) 0.5209(2) 0.2869(1)
C2 C 0.7059(2) 0.5079(3) 0.2604(1)
C3 C 0.7811(2) 0.5749(3) 0.2730(1)
C4 C 0.7727(2) 0.6552(3) 0.3148(1)
C5 C 0.5947(2) 0.8355(2) 0.4705(1)
C6 C 0.5162(2) 0.8421(3) 0.5036(1)
C7 C 0.4381(2) 0.7802(3) 0.4899(1)
C8 C 0.4348(2) 0.7119(2) 0.4413(1)
C9 C 0.5159(2) 0.7044(2) 0.4073(1)
C10 C 0.5956(2) 0.7658(2) 0.4223(1)
C11 C 0.6109(2) 0.6049(2) 0.3290(1)
C12 C 0.6891(2) 0.6699(2) 0.3434(1)
C13 C 0.5185(2) 0.6335(2) 0.3543(1)
C14 C 0.6830(2) 0.7566(3) 0.3890(1)
C15 C 0.5194(2) 0.4952(3) 0.1622(1)
C16 C 0.5055(2) 0.4320(2) 0.2162(1)
C17 C 0.5440(2) 0.4438(2) 0.2699(1)
C18 C 0.4974(2) 0.3642(2) 0.3032(1)
C19 C 0.5048(2) 0.3380(3) 0.3655(1)
C20 C 0.2727(2) 0.7727(3) 0.3502(1)
C21 C 0.2773(2) 0.6790(3) 0.3915(1)
C22 C 0.3477(2) 0.6499(2) 0.4299(1)
C23 C 0.3152(2) 0.5565(3) 0.4568(1)
C24 C 0.3537(3) 0.4849(3) 0.5031(2)
H1 H 0.71300 0.45050 0.23240
H2 H 0.83820 0.56560 0.25290
H3 H 0.82470 0.70100 0.32420
H4 H 0.64830 0.87810 0.48020
H5 H 0.51550 0.88970 0.53630
H6 H 0.38500 0.78430 0.51430
H7 H 0.46780 0.54370 0.15600
H8 H 0.52440 0.44420 0.13100
H9 H 0.57480 0.53840 0.16490
H10 H 0.48950 0.26150 0.37170
H11 H 0.46280 0.38420 0.38640
H12 H 0.56670 0.35170 0.37820
H13 H 0.21830 0.76550 0.32730
H14 H 0.32630 0.77140 0.32620
H15 H 0.27060 0.84170 0.37060
H16 H 0.41560 0.50790 0.51160
H17 H 0.35410 0.40900 0.49090
H18 H 0.31620 0.49190 0.53650
#END
