
#######################################################################
#
#                 Cambridge Crystallographic Data Centre
#                                CCDC
#
#######################################################################
#
# If this CIF has been generated from an entry in the Cambridge
# Structural Database, then it will include bibliographic, chemical,
# crystal, experimental, refinement or atomic coordinate data resulting
# from the CCDC's data processing and validation procedures.
#
#######################################################################

data_CSD_CIF_RUVNIH
_audit_creation_date 2015-11-30
_audit_creation_method CSD-ConQuest-V1
_database_code_CSD RUVNIH
_database_code_depnum_ccdc_archive 'CCDC 1439609'
_chemical_formula_sum 'C23 H27 N3 O3'
_chemical_formula_moiety
;
C23 H27 N3 O3
;
_journal_coden_Cambridge 24
_journal_volume 57
_journal_year 2016
_journal_page_first 1143
_journal_name_full 'Tetrahedron Lett. '
loop_
_publ_author_name
"Xia Zhang"
"Xiaoyan Wang"
"Yanyang He"
"Ying Liu"
"Jie Liu"
"Jianyou Shi"
_chemical_name_systematic
;
3-t-butyl-2-methyl-6-nitro-5,7-diphenylhexahydro-1H-pyrrolo[1,2-c]imidazol-1-o
ne
;
_cell_volume   4214.350
_exptl_crystal_colour 'colorless'
_exptl_crystal_density_diffrn 1.243
_diffrn_ambient_temperature 291.6
#These two values have been output from a single CSD field.
_refine_ls_R_factor_gt 0.0545
_refine_ls_wR_factor_gt 0.0545
_symmetry_cell_setting monoclinic
_symmetry_space_group_name_H-M 'C 2/c'
_symmetry_Int_Tables_number 15
loop_
_symmetry_equiv_pos_site_id
_symmetry_equiv_pos_as_xyz
1 x,y,z
2 -x,y,1/2-z
3 1/2+x,1/2+y,z
4 1/2-x,1/2+y,1/2-z
5 -x,-y,-z
6 x,-y,-1/2+z
7 -1/2-x,-1/2-y,-z
8 -1/2+x,-1/2-y,-1/2+z
_cell_length_a 15.1037(4)
_cell_length_b 16.1625(3)
_cell_length_c 17.2660(5)
_cell_angle_alpha 90
_cell_angle_beta 90.895(3)
_cell_angle_gamma 90
_cell_formula_units_Z 8
loop_
_atom_type_symbol
_atom_type_radius_bond
C 0.68
H 0.23
N 0.68
O 0.68
loop_
_atom_site_label
_atom_site_type_symbol
_atom_site_fract_x
_atom_site_fract_y
_atom_site_fract_z
O1 O 0.43870(9) 0.46906(8) 0.42100(9)
N1 N 0.57936(8) 0.29585(8) 0.45310(8)
N2 N 0.43435(9) 0.33787(9) 0.47078(9)
N3 N 0.67042(10) 0.31307(9) 0.25741(9)
C1 C 0.67711(11) 0.47807(10) 0.35782(10)
O2 O 0.60686(12) 0.30439(13) 0.21524(9)
C2 C 0.61955(11) 0.17081(10) 0.37359(10)
C3 C 0.70247(12) 0.14573(10) 0.39930(11)
H1 H 0.74140 0.18430 0.42070
C4 C 0.57293(10) 0.38688(9) 0.44063(10)
H2 H 0.60450 0.41680 0.48200
C5 C 0.65631(10) 0.32234(9) 0.34237(10)
H3 H 0.71310 0.31730 0.37020
O3 O 0.74609(10) 0.31436(11) 0.23469(10)
C6 C 0.56230(12) 0.11161(11) 0.34394(13)
H4 H 0.50610 0.12720 0.32670
C7 C 0.75238(13) 0.48136(11) 0.40416(12)
H5 H 0.76360 0.43910 0.43950
C8 C 0.49517(10) 0.26969(10) 0.48829(11)
H6 H 0.47380 0.22040 0.46080
C9 C 0.66167(14) 0.54184(11) 0.30576(12)
H7 H 0.61150 0.54060 0.27390
C10 C 0.61392(10) 0.40592(9) 0.36123(10)
H8 H 0.56560 0.41580 0.32380
C11 C 0.58767(16) 0.02952(12) 0.33965(16)
H9 H 0.54810 -0.00980 0.32050
C12 C 0.47458(11) 0.40525(10) 0.44267(10)
C13 C 0.59076(10) 0.26034(9) 0.37466(10)
H10 H 0.53470 0.26540 0.34580
C14 C 0.67068(15) 0.00605(12) 0.36349(14)
H11 H 0.68820 -0.04890 0.35940
C15 C 0.50642(13) 0.24750(11) 0.57494(12)
C16 C 0.72806(13) 0.06391(11) 0.39351(12)
H12 H 0.78440 0.04800 0.41000
C17 C 0.72009(17) 0.60732(13) 0.30078(14)
H13 H 0.70860 0.65000 0.26600
C18 C 0.53861(16) 0.32132(14) 0.62183(12)
H14 H 0.59560 0.33830 0.60390
H15 H 0.54320 0.30620 0.67550
H16 H 0.49740 0.36610 0.61580
C19 C 0.81130(14) 0.54659(13) 0.39869(15)
H17 H 0.86200 0.54790 0.42990
C20 C 0.41808(16) 0.21698(16) 0.60743(16)
H18 H 0.37740 0.26250 0.61040
H19 H 0.42790 0.19430 0.65820
H20 H 0.39370 0.17510 0.57390
C21 C 0.33842(12) 0.33152(14) 0.47060(14)
H21 H 0.32130 0.27500 0.46180
H22 H 0.31400 0.36570 0.43010
H23 H 0.31660 0.34960 0.51970
C22 C 0.57299(17) 0.17679(15) 0.58108(15)
H24 H 0.55190 0.13050 0.55120
H25 H 0.58000 0.16060 0.63430
H26 H 0.62900 0.19470 0.56160
C23 C 0.79443(17) 0.60976(13) 0.34652(16)
H27 H 0.83370 0.65380 0.34270
#END
