
#######################################################################
#
#                 Cambridge Crystallographic Data Centre
#                                CCDC
#
#######################################################################
#
# If this CIF has been generated from an entry in the Cambridge
# Structural Database, then it will include bibliographic, chemical,
# crystal, experimental, refinement or atomic coordinate data resulting
# from the CCDC's data processing and validation procedures.
#
#######################################################################

data_CSD_CIF_RUVSEG
_audit_creation_date 1998-03-12
_audit_creation_method CSD-ConQuest-V1
_database_code_CSD RUVSEG
_database_code_depnum_ccdc_archive 'CCDC 129468'
_chemical_formula_sum 'C9 H11 N1 O5'
_chemical_formula_moiety
;
C9 H11 N1 O5
;
_journal_coeditor_code "IUCr MU1333"
_journal_coden_Cambridge 591
_journal_volume 53
_journal_year 1997
_journal_page_first 1859
_journal_name_full 'Acta Crystallogr.,Sect.C:Cryst.Struct.Commun. '
loop_
_publ_author_name
"Hoong-Kun Fun"
"K.Chinnakali"
"K.Sivakumar"
"Teng-Wah Sam"
"Siew-Eng How"
_chemical_name_systematic
;
1,2,3-Trimethoxy-5-nitrobenzene
;
_cell_volume    997.986
_exptl_crystal_colour 'colorless'
_exptl_crystal_density_diffrn 1.419
_exptl_crystal_description 'needle'
_exptl_crystal_preparation 'ethanol'
_diffrn_ambient_temperature ?
_diffrn_special_details
;
The study was carried out at room temperature,in the range 283-303K

;
#These two values have been output from a single CSD field.
_refine_ls_R_factor_gt 0.0408
_refine_ls_wR_factor_gt 0.0408
_symmetry_cell_setting monoclinic
_symmetry_space_group_name_H-M 'P 21/n'
_symmetry_Int_Tables_number 14
loop_
_symmetry_equiv_pos_site_id
_symmetry_equiv_pos_as_xyz
1 x,y,z
2 1/2-x,1/2+y,1/2-z
3 -x,-y,-z
4 -1/2+x,-1/2-y,-1/2+z
_cell_length_a 7.025(1)
_cell_length_b 13.890(2)
_cell_length_c 10.356(1)
_cell_angle_alpha 90
_cell_angle_beta 99.03(1)
_cell_angle_gamma 90
_cell_formula_units_Z 4
loop_
_atom_type_symbol
_atom_type_radius_bond
C 0.68
H 0.23
N 0.68
O 0.68
loop_
_atom_site_label
_atom_site_type_symbol
_atom_site_fract_x
_atom_site_fract_y
_atom_site_fract_z
O1 O 0.2119(2) 0.47627(6) 0.87253(8)
O2 O 0.2155(2) 0.64515(7) 0.74945(9)
O3 O 0.2876(2) 0.80956(7) 0.87986(9)
O4 O 0.3073(2) 0.71771(9) 1.35032(10)
O5 O 0.3151(2) 0.56334(9) 1.34948(10)
N1 N 0.3048(2) 0.64084(9) 1.29341(11)
C1 C 0.2875(2) 0.64137(9) 1.15001(12)
C2 C 0.2603(2) 0.55438(9) 1.08566(12)
C3 C 0.2391(2) 0.55574(9) 0.94967(12)
C4 C 0.2447(2) 0.64317(9) 0.88342(11)
C5 C 0.2773(2) 0.72949(9) 0.95337(12)
C6 C 0.2984(2) 0.72885(9) 1.08930(12)
C7 C 0.2293(3) 0.38433(10) 0.9355(2)
C8 C 0.3864(3) 0.63333(14) 0.6943(2)
C9 C 0.3354(4) 0.89772(12) 0.9471(2)
H1 H 0.2514(19) 0.4954(10) 1.1329(13)
H2 H 0.3261(22) 0.7837(12) 1.1411(14)
H3 H 0.2222(24) 0.3368(12) 0.8674(16)
H4 H 0.3490(24) 0.3785(11) 0.9880(15)
H5 H 0.1266(23) 0.3753(10) 0.9890(16)
H6 H 0.3562(28) 0.6400(13) 0.6093(20)
H7 H 0.4717(28) 0.6846(14) 0.7283(18)
H8 H 0.4303(27) 0.5687(15) 0.7139(18)
H9 H 0.2275(29) 0.9134(15) 0.9936(21)
H10 H 0.3442(28) 0.9433(14) 0.879(2)
H11 H 0.4423(31) 0.8935(16) 1.0066(23)
#END
