
#######################################################################
#
#                 Cambridge Crystallographic Data Centre
#                                CCDC
#
#######################################################################
#
# If this CIF has been generated from an entry in the Cambridge
# Structural Database, then it will include bibliographic, chemical,
# crystal, experimental, refinement or atomic coordinate data resulting
# from the CCDC's data processing and validation procedures.
#
#######################################################################

data_CSD_CIF_RUVTAD
_audit_creation_date 1998-03-12
_audit_creation_method CSD-ConQuest-V1
_database_code_CSD RUVTAD
_database_code_depnum_ccdc_archive 'CCDC 129393'
_chemical_formula_sum 'C12 H16 N2 O3'
_chemical_formula_moiety
;
C12 H16 N2 O3
;
_journal_coeditor_code "IUCr BM1172"
_journal_coden_Cambridge 591
_journal_volume 53
_journal_year 1997
_journal_page_first 1865
_journal_name_full 'Acta Crystallogr.,Sect.C:Cryst.Struct.Commun. '
loop_
_publ_author_name
"K.Chinnakali"
"Hoong-Kun Fun"
"K.Sriraghavan"
"V.T.Ramakrishnan"
_chemical_name_systematic
;
N-4-Nitrophenyl-trans-2-aminocyclohexanol
;
_cell_volume   2363.187
_exptl_crystal_colour 'light brown'
_exptl_crystal_density_diffrn 1.328
_exptl_crystal_description 'rectangular slab'
_exptl_crystal_preparation '1'
_diffrn_ambient_temperature ?
_diffrn_special_details
;
The study was carried out at room temperature,in the range 283-303K

;
#These two values have been output from a single CSD field.
_refine_ls_R_factor_gt 0.0387
_refine_ls_wR_factor_gt 0.0387
_symmetry_cell_setting monoclinic
_symmetry_space_group_name_H-M 'C 2/c'
_symmetry_Int_Tables_number 15
loop_
_symmetry_equiv_pos_site_id
_symmetry_equiv_pos_as_xyz
1 x,y,z
2 1/2+x,1/2+y,z
3 -x,y,1/2-z
4 1/2-x,1/2+y,1/2-z
5 -x,-y,-z
6 -1/2-x,-1/2-y,-z
7 x,-y,-1/2+z
8 -1/2+x,-1/2-y,-1/2+z
_cell_length_a 18.703(2)
_cell_length_b 9.955(1)
_cell_length_c 15.016(1)
_cell_angle_alpha 90
_cell_angle_beta 122.30(1)
_cell_angle_gamma 90
_cell_formula_units_Z 8
loop_
_atom_type_symbol
_atom_type_radius_bond
C 0.68
H 0.23
N 0.68
O 0.68
loop_
_atom_site_label
_atom_site_type_symbol
_atom_site_fract_x
_atom_site_fract_y
_atom_site_fract_z
O1 O 0.55110(11) 0.78292(15) 0.18416(14)
O2 O 0.66733(10) 0.72308(14) 0.19641(11)
O3 O 0.38367(8) -0.00163(14) -0.10058(10)
N1 N 0.47893(9) 0.1702(2) 0.07768(11)
N2 N 0.59687(13) 0.6959(2) 0.18090(12)
C1 C 0.50649(10) 0.2979(2) 0.10521(11)
C2 C 0.45457(12) 0.4030(2) 0.10046(14)
C3 C 0.48485(12) 0.5320(2) 0.12665(14)
C4 C 0.56722(12) 0.5597(2) 0.15780(12)
C5 C 0.62051(13) 0.4578(2) 0.16507(14)
C6 C 0.59123(11) 0.3293(2) 0.14005(13)
C7 C 0.39488(10) 0.1237(2) 0.04712(13)
C8 C 0.38561(12) 0.1073(3) 0.14173(15)
C9 C 0.29795(12) 0.0604(3) 0.1099(2)
C10 C 0.27535(14) -0.0684(2) 0.0472(2)
C11 C 0.28524(12) -0.0536(2) -0.0461(2)
C12 C 0.37379(10) -0.0080(2) -0.01273(13)
H1 H 0.3988(11) 0.3864(18) 0.0820(13)
H2 H 0.4514(11) 0.6046(18) 0.1255(13)
H3 H 0.6752(11) 0.4800(17) 0.1866(13)
H4 H 0.6276(10) 0.2569(17) 0.1468(13)
H5 H 0.3533(9) 0.1909(15) -0.0006(11)
H6 H 0.4258(12) 0.0416(19) 0.1871(15)
H7 H 0.4012(12) 0.195(2) 0.1821(16)
H8 H 0.2927(13) 0.0456(21) 0.1709(18)
H9 H 0.2573(12) 0.128(2) 0.0651(15)
H10 H 0.2149(13) -0.0987(20) 0.0208(14)
H11 H 0.3148(12) -0.1448(20) 0.0930(15)
H12 H 0.2433(11) 0.0157(19) -0.0973(14)
H13 H 0.2727(11) -0.1378(19) -0.0858(13)
H14 H 0.4158(9) -0.0749(15) 0.0368(12)
H15 H 0.5159(11) 0.1077(19) 0.0875(14)
H16 H 0.3719(14) 0.0771(26) -0.1308(19)
#END
