
#######################################################################
#
#                 Cambridge Crystallographic Data Centre
#                                CCDC
#
#######################################################################
#
# If this CIF has been generated from an entry in the Cambridge
# Structural Database, then it will include bibliographic, chemical,
# crystal, experimental, refinement or atomic coordinate data resulting
# from the CCDC's data processing and validation procedures.
#
#######################################################################

data_CSD_CIF_RUVTAD01
_audit_creation_date 2009-02-26
_audit_creation_method CSD-ConQuest-V1
_database_code_CSD RUVTAD01
_database_code_depnum_ccdc_archive 'CCDC 622916'
_chemical_formula_sum 'C12 H16 N2 O3'
_chemical_formula_moiety
;
C12 H16 N2 O3
;
_journal_coden_Cambridge 182
_journal_year 2007
_journal_page_first 867
_journal_name_full 'Chem.Commun. '
loop_
_publ_author_name
"E.A.Jaseer"
"A.B.Naidu"
"S.S.Kumar"
"R.K.Rao"
"K.G.Thakur"
"G.Sekar"
_chemical_name_systematic
;
trans-2-(4-Nitrophenylamino)cyclohexanol
;
_cell_volume   2355.076
_exptl_crystal_colour 'brown'
_exptl_crystal_density_diffrn 1.333
_exptl_special_details
;
chair conformer

;
_exptl_crystal_description 'prismatic'
_diffrn_ambient_temperature 273
#These two values have been output from a single CSD field.
_refine_ls_R_factor_gt 0.0526
_refine_ls_wR_factor_gt 0.0526
_symmetry_cell_setting monoclinic
_symmetry_space_group_name_H-M 'C 2/c'
_symmetry_Int_Tables_number 15
loop_
_symmetry_equiv_pos_site_id
_symmetry_equiv_pos_as_xyz
1 x,y,z
2 1/2+x,1/2+y,z
3 -x,y,1/2-z
4 1/2-x,1/2+y,1/2-z
5 -x,-y,-z
6 -1/2-x,-1/2-y,-z
7 x,-y,-1/2+z
8 -1/2+x,-1/2-y,-1/2+z
_cell_length_a 18.6930(18)
_cell_length_b 9.9424(8)
_cell_length_c 14.9984(16)
_cell_angle_alpha 90
_cell_angle_beta 122.342(10)
_cell_angle_gamma 90
_cell_formula_units_Z 8
loop_
_atom_type_symbol
_atom_type_radius_bond
C 0.68
H 0.23
N 0.68
O 0.68
loop_
_atom_site_label
_atom_site_type_symbol
_atom_site_fract_x
_atom_site_fract_y
_atom_site_fract_z
N1 N 0.02113(6) 0.66982(10) 0.42215(8)
H1 H -0.01320 0.61160 0.42140
N2 N -0.09668(9) 1.19667(12) 0.31892(10)
C1 C -0.06761(9) 1.06012(13) 0.34195(10)
C2 C -0.12120(9) 0.95824(14) 0.33454(10)
H2 H -0.17690 0.97760 0.31270
C3 C -0.09163(8) 0.82864(13) 0.35955(10)
H3 H -0.12790 0.76020 0.35340
C4 C -0.00669(7) 0.79787(12) 0.39460(9)
C5 C 0.04557(8) 0.90343(14) 0.39946(10)
H4 H 0.10130 0.88530 0.42050
C6 C 0.01543(9) 1.03252(13) 0.37363(11)
H5 H 0.05060 1.10140 0.37740
C7 C 0.10516(7) 0.62425(12) 0.45291(9)
H6 H 0.14630 0.69180 0.50000
C8 C 0.12606(8) 0.49135(11) 0.51285(10)
H7 H 0.08630 0.42350 0.46410
C9 C 0.21493(8) 0.44657(15) 0.54656(11)
H8 H 0.22720 0.36120 0.58330
H9 H 0.25550 0.51210 0.59520
C10 C 0.22489(9) 0.43131(17) 0.45280(13)
H10 H 0.28300 0.40750 0.47770
H11 H 0.18860 0.35930 0.40760
C11 C 0.20202(9) 0.56045(19) 0.39012(13)
H12 H 0.20390 0.54620 0.32740
H13 H 0.24300 0.62960 0.43230
C12 C 0.11416(8) 0.60675(17) 0.35831(10)
H14 H 0.07290 0.54140 0.31030
H15 H 0.10190 0.69170 0.32100
O1 O 0.11673(7) 0.49809(9) 0.60083(8)
H16 H 0.12830 0.57420 0.62580
O2 O -0.16719(8) 1.22366(12) 0.30363(10)
O3 O -0.05126(10) 1.28356(13) 0.31526(12)
#END
