
#######################################################################
#
#                 Cambridge Crystallographic Data Centre
#                                CCDC
#
#######################################################################
#
# If this CIF has been generated from an entry in the Cambridge
# Structural Database, then it will include bibliographic, chemical,
# crystal, experimental, refinement or atomic coordinate data resulting
# from the CCDC's data processing and validation procedures.
#
#######################################################################

data_CSD_CIF_RUWCIV
_audit_creation_date 1998-03-12
_audit_creation_method CSD-ConQuest-V1
_database_code_CSD RUWCIV
_database_code_depnum_ccdc_archive 'CCDC 129383'
_chemical_formula_sum 'C13 H11 N3 O4'
_chemical_formula_moiety
;
C13 H11 N3 O4
;
_journal_coeditor_code "IUCr BM1140"
_journal_coden_Cambridge 591
_journal_volume 53
_journal_year 1997
_journal_page_first 1930
_journal_name_full 'Acta Crystallogr.,Sect.C:Cryst.Struct.Commun. '
loop_
_publ_author_name
"J.Ellena"
"G.Punte"
"N.S.Nudelman"
_chemical_name_systematic
;
2,4-Dinitro-N,N-methylphenylaniline
;
_chemical_melting_point 439
_cell_volume   1254.523
_exptl_crystal_colour 'yellow'
_exptl_crystal_density_diffrn 1.447
_exptl_crystal_description 'rectangular prism'
_exptl_crystal_preparation 'ethanol'
_diffrn_ambient_temperature ?
_diffrn_special_details
;
The study was carried out at room temperature,in the range 283-303K

;
#These two values have been output from a single CSD field.
_refine_ls_R_factor_gt 0.0449
_refine_ls_wR_factor_gt 0.0449
_symmetry_cell_setting monoclinic
_symmetry_space_group_name_H-M 'P 21/a'
_symmetry_Int_Tables_number 14
loop_
_symmetry_equiv_pos_site_id
_symmetry_equiv_pos_as_xyz
1 x,y,z
2 1/2-x,1/2+y,-z
3 -x,-y,-z
4 -1/2+x,-1/2-y,z
_cell_length_a 7.027(4)
_cell_length_b 12.436(3)
_cell_length_c 14.390(4)
_cell_angle_alpha 90
_cell_angle_beta 93.95(4)
_cell_angle_gamma 90
_cell_formula_units_Z 4
loop_
_atom_type_symbol
_atom_type_radius_bond
C 0.68
H 0.23
N 0.68
O 0.68
loop_
_atom_site_label
_atom_site_type_symbol
_atom_site_fract_x
_atom_site_fract_y
_atom_site_fract_z
N1 N 0.0627(3) 0.4272(2) 0.76204(15)
N2 N 0.1058(3) 0.6471(2) 0.8372(2)
N3 N -0.1599(3) 0.7835(2) 0.5427(2)
O1 O 0.0421(3) 0.5956(2) 0.89993(13)
O2 O 0.2198(3) 0.7204(2) 0.84939(14)
O3 O -0.2468(4) 0.7658(2) 0.4671(2)
O4 O -0.1199(3) 0.8742(2) 0.5706(2)
C1 C 0.0020(3) 0.5146(2) 0.7117(2)
C2 C 0.0344(3) 0.6219(2) 0.7417(2)
C3 C -0.0152(4) 0.7094(2) 0.6869(2)
C4 C -0.1075(4) 0.6922(2) 0.6009(2)
C5 C -0.1557(4) 0.5892(2) 0.5710(2)
C6 C -0.1011(4) 0.5032(2) 0.6249(2)
C7 C -0.0161(6) 0.3217(2) 0.7355(3)
C8 C 0.2410(4) 0.4260(2) 0.8159(2)
C9 C 0.2585(5) 0.3730(2) 0.9012(2)
C10 C 0.4328(5) 0.3668(3) 0.9498(2)
C11 C 0.5904(5) 0.4146(3) 0.9165(2)
C12 C 0.5729(4) 0.4690(3) 0.8337(2)
C13 C 0.4002(4) 0.4737(2) 0.7823(2)
H1 H 0.0089(37) 0.7787(24) 0.7104(18)
H2 H -0.1331(4) 0.4345(2) 0.6036(2)
H3 H -0.2270(41) 0.5818(22) 0.5138(20)
H4 H 0.0112(45) 0.2772(28) 0.7854(23)
H5 H -0.1583(52) 0.3276(25) 0.7269(21)
H6 H 0.0398(52) 0.2954(30) 0.6796(26)
H7 H 0.1520(5) 0.3418(2) 0.9252(2)
H8 H 0.4428(42) 0.3276(23) 1.0064(23)
H9 H 0.7133(55) 0.4134(27) 0.9520(25)
H10 H 0.6812(48) 0.5041(27) 0.8106(22)
H11 H 0.3871(40) 0.5065(24) 0.7248(20)
#END
