
#######################################################################
#
#                 Cambridge Crystallographic Data Centre
#                                CCDC
#
#######################################################################
#
# If this CIF has been generated from an entry in the Cambridge
# Structural Database, then it will include bibliographic, chemical,
# crystal, experimental, refinement or atomic coordinate data resulting
# from the CCDC's data processing and validation procedures.
#
#######################################################################

data_CSD_CIF_RUWNEC
_audit_creation_date 1998-03-12
_audit_creation_method CSD-ConQuest-V1
_database_code_CSD RUWNEC
_database_code_depnum_ccdc_archive 'CCDC 129488'
_chemical_formula_sum 'C12 H14 N2 O2'
_chemical_formula_moiety
;
C12 H14 N2 O2
;
_journal_coeditor_code "IUCr QB0027"
_journal_data_validation_number IUC9700032
_journal_coden_Cambridge 591
_journal_volume 53
_journal_year 1997
_journal_page_first 9700032
_journal_name_full 'Acta Crystallogr.,Sect.C:Cryst.Struct.Commun. '
loop_
_publ_author_name
"K.Chinnakali"
"H.-K.Fun"
"K.Sriraghavan"
"V.T.Ramakrishnan"
_chemical_name_systematic
;
7-(4-Nitrophenyl)-7-azabicyclo(4.1.0)heptane
;
_cell_volume   2241.271
_exptl_crystal_colour 'light yellow'
_exptl_crystal_density_diffrn 1.293
_exptl_special_details
;
possible pharmacological activity

;
_exptl_crystal_description 'rectangular slab'
_diffrn_ambient_temperature ?
_diffrn_special_details
;
The study was carried out at room temperature,in the range 283-303K

;
_refine_special_details
;
One of the cyclohexane rings is disordered with C10A and associated atoms 
refined over two positions.
;
#These two values have been output from a single CSD field.
_refine_ls_R_factor_gt 0.0453
_refine_ls_wR_factor_gt 0.0453
_symmetry_cell_setting monoclinic
_symmetry_space_group_name_H-M 'P 21/c'
_symmetry_Int_Tables_number 14
loop_
_symmetry_equiv_pos_site_id
_symmetry_equiv_pos_as_xyz
1 x,y,z
2 -x,1/2+y,1/2-z
3 -x,-y,-z
4 x,-1/2-y,-1/2+z
_cell_length_a 10.7990(16)
_cell_length_b 12.6741(12)
_cell_length_c 16.3797(13)
_cell_angle_alpha 90
_cell_angle_beta 91.303(10)
_cell_angle_gamma 90
_cell_formula_units_Z 8
loop_
_atom_type_symbol
_atom_type_radius_bond
C 0.68
H 0.23
N 0.68
O 0.68
loop_
_atom_site_label
_atom_site_type_symbol
_atom_site_fract_x
_atom_site_fract_y
_atom_site_fract_z
N1 N 0.3799(3) 1.1505(2) -0.06879(14)
N2 N 0.36593(15) 0.71052(13) -0.10967(10)
O1 O 0.4703(2) 1.1974(2) -0.09334(14)
O2 O 0.2937(2) 1.1937(2) -0.03526(14)
C1 C 0.3757(2) 1.0359(2) -0.07962(13)
C2 C 0.4734(2) 0.9862(2) -0.11599(13)
H1 H 0.5402(2) 1.0250(2) -0.13453(13)
C3 C 0.4705(2) 0.8781(2) -0.12451(13)
H2 H 0.5361(2) 0.8437(2) -0.14909(13)
C4 C 0.3710(2) 0.8197(2) -0.09683(12)
C5 C 0.2734(2) 0.8723(2) -0.06100(12)
H3 H 0.2059(2) 0.8340(2) -0.04289(12)
C6 C 0.2751(2) 0.9806(2) -0.05186(13)
H4 H 0.2098(2) 1.0155(2) -0.02750(13)
C7 C 0.4738(2) 0.6449(2) -0.08879(13)
H5 H 0.5436(2) 0.6813(2) -0.06188(13)
C8 C 0.5073(2) 0.5604(2) -0.14985(15)
H6 H 0.4974(2) 0.5889(2) -0.20457(15)
H7 H 0.5939(2) 0.5418(2) -0.14163(15)
C9 C 0.4299(2) 0.4621(2) -0.1433(2)
H8 H 0.4369(2) 0.4220(2) -0.1934(2)
H9 H 0.4635(2) 0.4191(2) -0.0991(2)
C10 C 0.2984(2) 0.4817(2) -0.1287(2)
H10 H 0.2554(2) 0.4146(2) -0.1264(2)
H11 H 0.2633(2) 0.5212(2) -0.1744(2)
C11 C 0.2762(2) 0.5422(2) -0.05051(13)
H12 H 0.1905(2) 0.5651(2) -0.05012(13)
H13 H 0.2898(2) 0.4954(2) -0.00431(13)
C12 C 0.3590(2) 0.6368(2) -0.04077(13)
H14 H 0.3626(2) 0.6686(2) 0.01376(13)
N3 N 0.1384(2) 0.8942(2) 0.12864(13)
N4 N 0.13620(15) 0.45321(13) 0.16219(10)
O3 O 0.2219(2) 0.94442(14) 0.16219(12)
O4 O 0.0556(2) 0.93510(14) 0.08693(12)
C13 C 0.1375(2) 0.7789(2) 0.13876(13)
C14 C 0.2266(2) 0.7322(2) 0.18784(14)
H15 H 0.2870(2) 0.7728(2) 0.21431(14)
C15 C 0.2250(2) 0.6241(2) 0.19714(13)
H16 H 0.2848(2) 0.5914(2) 0.23009(13)
C16 C 0.1342(2) 0.5634(2) 0.15750(12)
C17 C 0.0464(2) 0.6140(2) 0.10784(12)
H17 H -0.0134(2) 0.5740(2) 0.08028(12)
C18 C 0.0462(2) 0.7217(2) 0.09865(13)
H18 H -0.0138(2) 0.7551(2) 0.06629(13)
C19 C 0.1373(2) 0.3989(2) 0.24111(13)
H19 H 0.1332(2) 0.4443(2) 0.28944(13)
C20 C 0.2165(2) 0.3025(2) 0.2499(2)
H20 H 0.2004(2) 0.2693(2) 0.3019(2)
H21 H 0.3029(2) 0.3234(2) 0.2502(2)
C21 C 0.1941(3) 0.2239(2) 0.1828(2)
H22 H 0.2289(3) 0.2504(2) 0.1327(2)
H23 H 0.2358(3) 0.1584(2) 0.1967(2)
C22 C 0.0616(4) 0.2034(4) 0.1693(3)
H24 H 0.0269(4) 0.1787(4) 0.2200(3)
H25 H 0.0519(4) 0.1473(4) 0.1294(3)
C23 C -0.0115(2) 0.2988(2) 0.13970(14)
H26 H 0.0036(2) 0.3103(2) 0.08223(14)
H27 H -0.0993(2) 0.2854(2) 0.14559(14)
C24 C 0.0242(2) 0.3967(2) 0.18719(12)
H28 H -0.0447(2) 0.4411(2) 0.20449(12)
C25? C 0.0906(15) 0.2165(15) 0.1270(7)
H29? H 0.0545(15) 0.1467(15) 0.1319(7)
H30? H 0.1204(15) 0.2234(15) 0.0719(7)
#END
