
#######################################################################
#
#                 Cambridge Crystallographic Data Centre
#                                CCDC
#
#######################################################################
#
# If this CIF has been generated from an entry in the Cambridge
# Structural Database, then it will include bibliographic, chemical,
# crystal, experimental, refinement or atomic coordinate data resulting
# from the CCDC's data processing and validation procedures.
#
#######################################################################

data_CSD_CIF_RUWTAF
_audit_creation_date 2011-02-04
_audit_creation_method CSD-ConQuest-V1
_database_code_CSD RUWTAF
_database_code_depnum_ccdc_archive 'CCDC 790046'
_chemical_formula_sum 'C23 H38 N2 O2'
_chemical_formula_moiety
;
C23 H38 N2 O2
;
_journal_coden_Cambridge 35
_journal_volume 74
_journal_year 2009
_journal_page_first 9274
_journal_name_full 'J.Org.Chem. '
loop_
_publ_author_name
"T.Tsujihara"
"T.Shinohara"
"K.Takenaka"
"S.Takizawa"
"K.Onitsuka"
"M.Hatanaka"
"H.Sasai"
_chemical_name_systematic
;
3,3,3',3'-Tetraisopropyl-3,3',3a,3a',4,4',5,5'-octahydro-6,6'-spirobi[cyclopen
ta[c][1,2]oxazole]
;
_cell_volume   2204.125
_exptl_crystal_colour 'colorless'
_exptl_crystal_density_diffrn 1.129
_exptl_crystal_description 'prismatic'
_diffrn_ambient_temperature 198.1
#These two values have been output from a single CSD field.
_refine_ls_R_factor_gt 0.0652
_refine_ls_wR_factor_gt 0.0652
_symmetry_cell_setting orthorhombic
_symmetry_space_group_name_H-M 'P c c n'
_symmetry_Int_Tables_number 56
loop_
_symmetry_equiv_pos_site_id
_symmetry_equiv_pos_as_xyz
1 x,y,z
2 1/2-x,1/2-y,z
3 1/2+x,-y,1/2-z
4 -x,1/2+y,1/2-z
5 -x,-y,-z
6 -1/2+x,-1/2+y,-z
7 -1/2-x,y,-1/2+z
8 x,-1/2-y,-1/2+z
_cell_length_a 6.996(6)
_cell_length_b 26.305(4)
_cell_length_c 11.977(6)
_cell_angle_alpha 90
_cell_angle_beta 90
_cell_angle_gamma 90
_cell_formula_units_Z 4
loop_
_atom_type_symbol
_atom_type_radius_bond
C 0.68
H 0.23
N 0.68
O 0.68
loop_
_atom_site_label
_atom_site_type_symbol
_atom_site_fract_x
_atom_site_fract_y
_atom_site_fract_z
O1 O 0.2997(2) 0.63936(5) 0.46460(12)
N1 N 0.2358(2) 0.69061(6) 0.48220(13)
C1 C 0.25000 0.75000 0.6471(2)
C2 C 0.4356(3) 0.74713(10) 0.72059(18)
C3 C 0.4897(3) 0.69023(10) 0.73199(17)
C4 C 0.3550(2) 0.66074(8) 0.65371(17)
C5 C 0.4148(3) 0.62289(8) 0.56200(17)
C6 C 0.2651(2) 0.70113(6) 0.58412(16)
C7 C 0.6276(3) 0.62651(10) 0.52701(19)
C8 C 0.6823(4) 0.58742(13) 0.4382(2)
C9 C 0.6831(3) 0.67920(11) 0.4840(2)
C10 C 0.3509(4) 0.56775(10) 0.5877(2)
C11 C 0.1370(4) 0.56287(12) 0.6070(3)
C12 C 0.4593(5) 0.54634(12) 0.6882(2)
H1 H 0.53650 0.76520 0.68550
H2 H 0.41180 0.76130 0.79220
H3 H 0.61900 0.68510 0.71050
H4 H 0.47270 0.67930 0.80690
H5 H 0.25810 0.64530 0.69780
H6 H 0.70280 0.61980 0.59140
H7 H 0.72400 0.55700 0.47350
H8 H 0.78240 0.60070 0.39320
H9 H 0.57430 0.58030 0.39270
H10 H 0.66410 0.68060 0.40550
H11 H 0.81370 0.68550 0.50050
H12 H 0.60580 0.70420 0.51920
H13 H 0.38240 0.54740 0.52480
H14 H 0.11010 0.56700 0.68420
H15 H 0.09520 0.53030 0.58320
H16 H 0.07200 0.58840 0.56560
H17 H 0.57400 0.53060 0.66340
H18 H 0.38190 0.52190 0.72520
H19 H 0.48940 0.57320 0.73830
O1A O 0.2003(2) 0.86064(5) 0.46460(12)
N1A N 0.2642(2) 0.80939(6) 0.48220(13)
C2A C 0.0644(3) 0.75287(10) 0.72059(18)
C3A C 0.0103(3) 0.80977(10) 0.73199(17)
C4A C 0.1450(2) 0.83926(8) 0.65371(17)
C5A C 0.0852(3) 0.87711(8) 0.56200(17)
C6A C 0.2349(2) 0.79887(6) 0.58412(16)
C7A C -0.1276(3) 0.87349(10) 0.52701(19)
C8A C -0.1823(4) 0.91258(13) 0.4382(2)
C9A C -0.1831(3) 0.82080(11) 0.4840(2)
C10A C 0.1491(4) 0.93225(10) 0.5877(2)
C11A C 0.3630(4) 0.93713(12) 0.6070(3)
C12A C 0.0407(5) 0.95366(12) 0.6882(2)
H1A H -0.03650 0.73480 0.68550
H2A H 0.08820 0.73870 0.79220
H3A H -0.11900 0.81490 0.71050
H4A H 0.02730 0.82070 0.80690
H5A H 0.24190 0.85470 0.69780
H6A H -0.20280 0.88020 0.59140
H7A H -0.22400 0.94300 0.47350
H8A H -0.28240 0.89930 0.39320
H9A H -0.07430 0.91970 0.39270
H10A H -0.16410 0.81940 0.40550
H11A H -0.31370 0.81450 0.50050
H12A H -0.10580 0.79580 0.51920
H13A H 0.11760 0.95260 0.52480
H14A H 0.38990 0.93300 0.68420
H15A H 0.40480 0.96970 0.58320
H16A H 0.42800 0.91160 0.56560
H17A H -0.07400 0.96940 0.66340
H18A H 0.11810 0.97810 0.72520
H19A H 0.01060 0.92680 0.73830
#END
