
#######################################################################
#
#                 Cambridge Crystallographic Data Centre
#                                CCDC
#
#######################################################################
#
# If this CIF has been generated from an entry in the Cambridge
# Structural Database, then it will include bibliographic, chemical,
# crystal, experimental, refinement or atomic coordinate data resulting
# from the CCDC's data processing and validation procedures.
#
#######################################################################

data_CSD_CIF_RUWYEP
_audit_creation_date 2015-12-01
_audit_creation_method CSD-ConQuest-V1
_database_code_CSD RUWYEP
_database_code_depnum_ccdc_archive 'CCDC 1429194'
_chemical_formula_sum 'C23 H34 N2 O1'
_chemical_formula_moiety
;
C23 H34 N2 O1
;
_journal_coden_Cambridge 1475
_journal_volume 7
_journal_year 2016
_journal_page_first 1508
_journal_name_full 'Chemical Science '
loop_
_publ_author_name
"N.J.Race"
"A.Faulkner"
"M.H.Shaw"
"J.F.Bower"
_chemical_name_systematic
;
2-phenyl-7-((2,2,6,6-tetramethylpiperidin-1-yl)oxy)-3a,4,5,6,7,7a-hexahydro-3H
-indole
;
_cell_volume    996.504
_exptl_crystal_colour 'colorless'
_exptl_crystal_density_diffrn 1.182
_exptl_crystal_description 'block'
_diffrn_ambient_temperature 100
#These two values have been output from a single CSD field.
_refine_ls_R_factor_gt 0.037
_refine_ls_wR_factor_gt 0.037
_symmetry_cell_setting triclinic
_symmetry_space_group_name_H-M 'P -1'
_symmetry_Int_Tables_number 2
loop_
_symmetry_equiv_pos_site_id
_symmetry_equiv_pos_as_xyz
1 x,y,z
2 -x,-y,-z
_cell_length_a 6.1983(1)
_cell_length_b 9.7636(3)
_cell_length_c 17.0724(4)
_cell_angle_alpha 75.866(2)
_cell_angle_beta 84.107(1)
_cell_angle_gamma 87.755(1)
_cell_formula_units_Z 2
loop_
_atom_type_symbol
_atom_type_radius_bond
C 0.68
H 0.23
N 0.68
O 0.68
loop_
_atom_site_label
_atom_site_type_symbol
_atom_site_fract_x
_atom_site_fract_y
_atom_site_fract_z
N1 N 0.69384(14) 0.01303(9) 0.15771(5)
N2 N 0.87925(13) 0.32225(8) 0.30989(5)
O1 O 0.70973(11) 0.22284(7) 0.30974(4)
C1 C 0.53737(16) -0.05858(10) 0.14484(6)
C2 C 0.32563(16) -0.04764(11) 0.19667(6)
H1 H 0.25710 -0.14100 0.21820
H2 H 0.22180 0.01890 0.16610
C3 C 0.40699(16) 0.00927(10) 0.26472(6)
H3 H 0.29720 0.07460 0.28390
C4 C 0.46150(16) -0.11481(10) 0.33512(6)
H4 H 0.32660 -0.14590 0.37030
H5 H 0.51860 -0.19490 0.31270
C5 C 0.62773(17) -0.07798(10) 0.38675(6)
H6 H 0.66200 -0.16260 0.42930
H7 H 0.56720 -0.00400 0.41370
C6 C 0.83405(16) -0.0249(1) 0.33236(6)
H8 H 0.94640 -0.00850 0.36620
H9 H 0.89030 -0.09750 0.30360
C7 C 0.78812(16) 0.11202(10) 0.27054(6)
H10 H 0.92350 0.14340 0.23440
C8 C 0.60946(16) 0.09076(10) 0.21911(6)
H11 H 0.55970 0.18630 0.18950
C9 C 0.56439(17) -0.14365(10) 0.08361(6)
C10 C 0.76595(17) -0.15055(11) 0.03921(6)
H12 H 0.88460 -0.09910 0.04790
C11 C 0.79349(19) -0.23207(12) -0.01746(6)
H13 H 0.93050 -0.23600 -0.04740
C12 C 0.6206(2) -0.30800(11) -0.03039(6)
H14 H 0.64010 -0.36460 -0.06870
C13 C 0.41988(19) -0.30093(11) 0.01267(7)
H15 H 0.30170 -0.35230 0.00360
C14 C 0.39120(18) -0.21866(11) 0.06925(6)
H16 H 0.25300 -0.21360 0.09820
C15 C 0.88264(16) 0.33233(10) 0.39592(6)
C16 C 1.04925(17) 0.44536(11) 0.39430(6)
H17 H 1.05640 0.45570 0.45020
H18 H 1.19410 0.41350 0.37490
C17 C 0.99548(19) 0.58847(11) 0.34010(7)
H19 H 1.10760 0.65760 0.34070
H20 H 0.85350 0.62370 0.36000
C18 C 0.98766(17) 0.57101(11) 0.25423(7)
H21 H 1.13550 0.54770 0.23290
H22 H 0.94300 0.66230 0.21940
C19 C 0.83171(16) 0.45586(10) 0.24782(6)
C20 C 0.96875(18) 0.19145(11) 0.44502(6)
H23 H 0.85980 0.11840 0.45160
H24 H 0.99900 0.20160 0.49850
H25 H 1.10250 0.16430 0.41630
C21 C 0.66194(17) 0.36311(11) 0.43922(6)
H26 H 0.61790 0.46130 0.41690
H27 H 0.67480 0.34820 0.49750
H28 H 0.55280 0.29950 0.43080
C22 C 0.88762(19) 0.42629(11) 0.16377(6)
H29 H 1.03310 0.38360 0.16090
H30 H 0.88390 0.51510 0.12200
H31 H 0.78160 0.36130 0.15470
C23 C 0.59464(17) 0.50851(11) 0.25314(7)
H32 H 0.49740 0.42860 0.26080
H33 H 0.56850 0.57810 0.20280
H34 H 0.56710 0.55240 0.29910
#END
