
#######################################################################
#
#                 Cambridge Crystallographic Data Centre
#                                CCDC
#
#######################################################################
#
# If this CIF has been generated from an entry in the Cambridge
# Structural Database, then it will include bibliographic, chemical,
# crystal, experimental, refinement or atomic coordinate data resulting
# from the CCDC's data processing and validation procedures.
#
#######################################################################

data_CSD_CIF_RUXGOI
_audit_creation_date 2015-12-01
_audit_creation_method CSD-ConQuest-V1
_database_code_CSD RUXGOI
_database_code_depnum_ccdc_archive 'CCDC 1439858'
_chemical_formula_sum 'C16 H21 N1 O5'
_chemical_formula_moiety
;
C16 H21 N1 O5
;
_journal_coden_Cambridge 177
_journal_volume 14
_journal_year 2016
_journal_page_first 2905
_journal_name_full 'Org.Biomol.Chem. '
loop_
_publ_author_name
"A.O.Chagarovskiy"
"E.M.Budynina"
"O.A.Ivanova"
"V.B.Rybakov"
"I.V.Trushkov"
"M.Ya Melnikov"
_chemical_name_systematic
;
2-(3,5-dimethyl-1,2-oxazol-4-yl)-2-(3,4,5-trimethoxyphenyl)ethanol
;
_chemical_name_common
;
2-(3,4,5-trimethoxyphenyl)-2-(3,5-dimethylpyrazol-4-yl)ethanol
;
_cell_volume    788.580
_exptl_crystal_colour 'colorless'
_exptl_crystal_density_diffrn 1.294
_exptl_special_details
;
petroleum ether
antitumour activity

;
_exptl_crystal_description 'Prism'
_diffrn_ambient_temperature 295
#These two values have been output from a single CSD field.
_refine_ls_R_factor_gt 0.0526
_refine_ls_wR_factor_gt 0.0526
_symmetry_cell_setting triclinic
_symmetry_space_group_name_H-M 'P -1'
_symmetry_Int_Tables_number 2
loop_
_symmetry_equiv_pos_site_id
_symmetry_equiv_pos_as_xyz
1 x,y,z
2 -x,-y,-z
_cell_length_a 7.7056(4)
_cell_length_b 10.9002(4)
_cell_length_c 11.0359(4)
_cell_angle_alpha 65.488(3)
_cell_angle_beta 72.568(3)
_cell_angle_gamma 72.725(3)
_cell_formula_units_Z 2
loop_
_atom_type_symbol
_atom_type_radius_bond
C 0.68
H 0.23
N 0.68
O 0.68
loop_
_atom_site_label
_atom_site_type_symbol
_atom_site_fract_x
_atom_site_fract_y
_atom_site_fract_z
O1 O 0.38817(17) 0.32821(12) 0.5289(1)
N1 N 0.3001(2) 0.46083(15) 0.45779(12)
C1 C 0.2190(2) 0.52068(16) 0.54659(14)
C2 C 0.2494(2) 0.43177(14) 0.67867(13)
C3 C 0.3559(2) 0.31345(15) 0.66086(13)
C4 C 0.1118(3) 0.66387(19) 0.50271(19)
H1 H 0.10670 0.69410 0.40860
H2 H 0.17110 0.72300 0.51450
H3 H -0.01190 0.66720 0.55670
C5 C 0.1839(2) 0.47093(13) 0.80102(14)
H4 H 0.06770 0.53870 0.78930
C6 C 0.1378(2) 0.34906(13) 0.93589(13)
C7 C 0.0063(2) 0.28077(14) 0.94320(13)
H5 H -0.05180 0.30970 0.87050
C8 C -0.0379(2) 0.16885(14) 1.05988(13)
C9 C 0.0474(2) 0.12615(13) 1.16911(13)
C10 C 0.1770(2) 0.19656(14) 1.16151(13)
C11 C 0.2216(2) 0.30750(15) 1.04519(13)
H6 H 0.30800 0.35420 1.04060
C12 C 0.3220(3) 0.54383(15) 0.80947(15)
H7 H 0.33130 0.62700 0.72960
H8 H 0.27280 0.57090 0.88850
O2 O 0.50139(18) 0.46257(12) 0.81822(11)
H9 H 0.570(3) 0.486(2) 0.734(2)
O3 O -0.16565(16) 0.09602(11) 1.07656(10)
C13 C -0.2527(3) 0.13501(17) 0.96515(17)
H10 H -0.31990 0.22830 0.94550
H11 H -0.33680 0.07540 0.98830
H12 H -0.15980 0.12760 0.88670
O4 O 0.01489(16) 0.00971(10) 1.28086(10)
C14 C -0.1503(3) 0.0251(2) 1.37588(17)
H13 H -0.15930 -0.06140 1.44930
H14 H -0.25420 0.05470 1.33260
H15 H -0.15040 0.09240 1.41080
O5 O 0.24992(17) 0.14922(12) 1.27427(10)
C15 C 0.3752(3) 0.2207(2) 1.27362(17)
H16 H 0.48640 0.20940 1.20720
H17 H 0.40520 0.18470 1.36190
H18 H 0.31960 0.31660 1.25120
C16 C 0.4363(3) 0.17827(17) 0.75154(17)
H19 H 0.35590 0.11510 0.77780
H20 H 0.44960 0.18710 0.83120
H21 H 0.55580 0.14440 0.70490
#END
