
#######################################################################
#
#                 Cambridge Crystallographic Data Centre
#                                CCDC
#
#######################################################################
#
# If this CIF has been generated from an entry in the Cambridge
# Structural Database, then it will include bibliographic, chemical,
# crystal, experimental, refinement or atomic coordinate data resulting
# from the CCDC's data processing and validation procedures.
#
#######################################################################

data_CSD_CIF_RUXJID
_audit_creation_date 2003-07-18
_audit_creation_method CSD-ConQuest-V1
_database_code_CSD RUXJID
_database_code_depnum_ccdc_archive 'CCDC 207361'
_chemical_formula_sum 'C17 H17 N1 O5'
_chemical_formula_moiety
;
C17 H17 N1 O5
;
_journal_coden_Cambridge 1336
_journal_volume 5
_journal_year 2003
_journal_page_first 391
_journal_name_full 'Org.Lett. '
loop_
_publ_author_name
"J.W.Bode"
"Y.Hachisu"
"T.Matsuura"
"K.Suzuki"
_chemical_name_systematic
;
5-(Ethoxycarbonyl)-3-(2-hydroxyphenyl)-6-methyl-6,7-dihydro-1,2-benzisoxazol-4
(5H)-one
;
_chemical_melting_point 391.15
_cell_volume   1510.853
_exptl_crystal_colour 'colorless'
_exptl_crystal_density_diffrn 1.386
_exptl_special_details
;
Melting point range 391.15-392.15K

;
_exptl_crystal_description 'prism'
_diffrn_ambient_temperature 223
#These two values have been output from a single CSD field.
_refine_ls_R_factor_gt 0.0451
_refine_ls_wR_factor_gt 0.0451
_symmetry_cell_setting monoclinic
_symmetry_space_group_name_H-M 'C c'
_symmetry_Int_Tables_number 9
loop_
_symmetry_equiv_pos_site_id
_symmetry_equiv_pos_as_xyz
1 x,y,z
2 x,-y,1/2+z
3 1/2+x,1/2+y,z
4 1/2+x,1/2-y,1/2+z
_cell_length_a 11.7495(16)
_cell_length_b 15.552(3)
_cell_length_c 8.5599(11)
_cell_angle_alpha 90
_cell_angle_beta 104.998(6)
_cell_angle_gamma 90
_cell_formula_units_Z 4
loop_
_atom_type_symbol
_atom_type_radius_bond
C 0.68
H 0.23
N 0.68
O 0.68
loop_
_atom_site_label
_atom_site_type_symbol
_atom_site_fract_x
_atom_site_fract_y
_atom_site_fract_z
O1 O 0.9702(3) 0.8737(2) 1.4008(4)
H1 H 0.962(6) 0.936(4) 1.396(8)
O2 O 0.8395(2) 1.09277(16) 1.2169(3)
O3 O 0.5856(2) 0.94128(15) 0.8110(3)
O4 O 0.4648(3) 1.08184(19) 0.5802(3)
O5 O 0.3328(2) 1.05882(18) 0.7234(3)
N1 N 0.8756(3) 1.0065(2) 1.2440(4)
C1 C 0.8979(3) 0.8279(3) 1.2797(4)
C2 C 0.9069(4) 0.7384(3) 1.2926(6)
H2 H 0.96250 0.71340 1.38010
C3 C 0.8362(4) 0.6872(3) 1.1799(6)
H3 H 0.84300 0.62720 1.19020
C4 C 0.7546(4) 0.7222(2) 1.0506(6)
H4 H 0.70490 0.68630 0.97420
C5 C 0.7461(3) 0.8104(2) 1.0335(5)
H5 H 0.69190 0.83390 0.94310
C6 C 0.8162(3) 0.8657(2) 1.1475(4)
C7 C 0.8011(3) 0.9591(2) 1.1358(4)
C8 C 0.7132(3) 1.0144(2) 1.0332(4)
C9 C 0.7429(3) 1.0948(2) 1.0940(4)
C10 C 0.6834(3) 1.1766(2) 1.0447(5)
H6 H 0.74190 1.22100 1.04180
H7 H 0.64050 1.19400 1.12360
C11 C 0.5980(3) 1.1681(2) 0.8787(4)
H8 H 0.64440 1.16530 0.79730
C12 C 0.5284(3) 1.0833(2) 0.8702(4)
H9 H 0.48520 1.08430 0.95530
C13 C 0.6097(3) 1.0044(2) 0.8974(4)
C14 C 0.5156(4) 1.2455(3) 0.8392(6)
H10 H 0.46240 1.23820 0.73260
H11 H 0.56170 1.29740 0.84090
H12 H 0.47040 1.25000 0.91890
C15 C 0.4403(3) 1.0737(2) 0.7079(4)
C16 C 0.2411(4) 1.0545(3) 0.5700(5)
H13 H 0.24370 1.10600 0.50510
H14 H 0.25340 1.00400 0.50780
C17 C 0.1274(4) 1.0486(4) 0.6089(7)
H15 H 0.06490 1.04510 0.50970
H16 H 0.11580 1.09910 0.66950
H17 H 0.12590 0.99750 0.67350
#END
