
#######################################################################
#
#                 Cambridge Crystallographic Data Centre
#                                CCDC
#
#######################################################################
#
# If this CIF has been generated from an entry in the Cambridge
# Structural Database, then it will include bibliographic, chemical,
# crystal, experimental, refinement or atomic coordinate data resulting
# from the CCDC's data processing and validation procedures.
#
#######################################################################

data_CSD_CIF_RUXLEC
_audit_creation_date 2011-02-04
_audit_creation_method CSD-ConQuest-V1
_database_code_CSD RUXLEC
_database_code_depnum_ccdc_archive 'CCDC 739132'
_chemical_formula_sum 'C22 H22 N4 O5'
_chemical_formula_moiety
;
C22 H22 N4 O5
;
_journal_coden_Cambridge 35
_journal_volume 74
_journal_year 2009
_journal_page_first 9452
_journal_name_full 'J.Org.Chem. '
loop_
_publ_author_name
"M.Cakici"
"S.Karabuga"
"H.Kilic"
"S.Ulukanli"
"E.Sahin"
"F.Sevin"
_chemical_name_systematic
;
1-(1-(2-Ethyl-4-oxoquinazolin-3(4H)-yl)-3-methylaziridin-2-yl)ethyl 
4-nitrobenzoate
;
_cell_volume   1029.191
_exptl_crystal_colour 'pale yellow'
_exptl_crystal_density_diffrn 1.363
_exptl_crystal_description 'needle'
_diffrn_ambient_temperature 293
#These two values have been output from a single CSD field.
_refine_ls_R_factor_gt 0.0801
_refine_ls_wR_factor_gt 0.0801
_symmetry_cell_setting triclinic
_symmetry_space_group_name_H-M 'P -1'
_symmetry_Int_Tables_number 2
loop_
_symmetry_equiv_pos_site_id
_symmetry_equiv_pos_as_xyz
1 x,y,z
2 -x,-y,-z
_cell_length_a 9.277(5)
_cell_length_b 10.250(5)
_cell_length_c 11.192(5)
_cell_angle_alpha 83.586(5)
_cell_angle_beta 88.685(5)
_cell_angle_gamma 76.696(5)
_cell_formula_units_Z 2
loop_
_atom_type_symbol
_atom_type_radius_bond
C 0.68
H 0.23
N 0.68
O 0.68
loop_
_atom_site_label
_atom_site_type_symbol
_atom_site_fract_x
_atom_site_fract_y
_atom_site_fract_z
O1 O 1.26384(18) -0.31971(15) 0.16021(14)
O2 O 1.04298(18) -0.16250(15) 0.30869(14)
N1 N 1.22346(18) -0.37254(16) 0.44169(16)
N2 N 1.09383(18) -0.28969(16) 0.49128(15)
N3 N 0.9657(2) -0.22567(18) 0.66770(16)
O3 O 1.4991(2) -0.3485(2) 0.0976(2)
O4 O 1.2534(3) 0.2585(2) -0.25897(19)
O5 O 1.1056(3) 0.3256(2) -0.1161(2)
C1 C 0.8867(2) -0.10133(19) 0.47364(18)
C2 C 1.3248(3) -0.1453(2) 0.03157(19)
C3 C 0.8648(2) -0.1300(2) 0.59621(19)
C4 C 1.1862(2) -0.4352(2) 0.3361(2)
H1 H 1.08180 -0.41080 0.31150
C5 C 0.7901(2) 0.0052(2) 0.4066(2)
H2 H 0.80680 0.02500 0.32500
C6 C 1.0120(2) -0.18177(19) 0.41437(19)
N4 N 1.1983(3) 0.2406(3) -0.1603(2)
C7 C 1.0772(2) -0.2978(2) 0.61629(19)
C8 C 1.3749(3) -0.2817(2) 0.0993(2)
C9 C 1.2194(2) -0.51873(19) 0.4529(2)
H3 H 1.13270 -0.54010 0.49520
C10 C 1.2020(3) -0.0540(2) 0.0670(2)
H4 H 1.14610 -0.07850 0.13210
C11 C 1.2976(3) -0.4481(2) 0.2355(2)
H5 H 1.39840 -0.46610 0.26790
C12 C 1.3624(3) -0.6187(2) 0.4839(2)
H6 H 1.35720 -0.70490 0.46080
H7 H 1.37950 -0.62660 0.56900
H8 H 1.44220 -0.58860 0.44180
C13 C 1.1968(3) -0.3921(2) 0.6918(2)
H9 H 1.29220 -0.38640 0.65710
H10 H 1.18600 -0.48380 0.68960
C14 C 1.2437(3) 0.1060(2) -0.0920(2)
C15 C 0.7401(3) -0.0532(2) 0.6502(2)
H11 H 0.72170 -0.07270 0.73150
C16 C 0.6710(3) 0.0802(2) 0.4615(2)
H12 H 0.60690 0.15140 0.41730
C17 C 1.4085(3) -0.1090(3) -0.0662(2)
H13 H 1.49280 -0.16980 -0.08870
C18 C 1.1617(3) 0.0743(3) 0.0058(2)
H14 H 1.08080 0.13740 0.03050
C19 C 0.6457(3) 0.0501(3) 0.5833(2)
H15 H 0.56370 0.10060 0.61970
C20 C 1.3664(3) 0.0167(3) -0.1295(2)
H16 H 1.41990 0.04090 -0.19630
C21 C 1.2816(4) -0.5587(3) 0.1612(3)
H17 H 1.18330 -0.53870 0.12840
H18 H 1.29920 -0.64330 0.21120
H19 H 1.35230 -0.56440 0.09690
C22 C 1.1949(4) -0.3628(3) 0.8215(3)
H20 H 1.20230 -0.27140 0.82450
H21 H 1.27720 -0.42300 0.86380
H22 H 1.10410 -0.37550 0.85860
#END
