
#######################################################################
#
#                 Cambridge Crystallographic Data Centre
#                                CCDC
#
#######################################################################
#
# If this CIF has been generated from an entry in the Cambridge
# Structural Database, then it will include bibliographic, chemical,
# crystal, experimental, refinement or atomic coordinate data resulting
# from the CCDC's data processing and validation procedures.
#
#######################################################################

data_CSD_CIF_RUXNEF
_audit_creation_date 2015-12-01
_audit_creation_method CSD-ConQuest-V1
_database_code_CSD RUXNEF
_database_code_depnum_ccdc_archive 'CCDC 1424023'
_chemical_formula_sum 'C17 H16 N4 O7'
_chemical_formula_moiety
;
C17 H16 N4 O7
;
_journal_coden_Cambridge 1488
_journal_volume 31
_journal_year 2015
_journal_page_first 55
_journal_name_full 'X-ray.Str.Anal.Online. '
loop_
_publ_author_name
"M.Mikuriya"
"Yuko Naka"
"D.Yoshioka"
_chemical_name_systematic
;
2,2'-((2-hydroxypropane-1,3-diyl)bis(iminiomethylylidene))bis(4-nitrophenolate
)
;
_cell_volume   3343.013
_exptl_crystal_colour 'yellow'
_exptl_crystal_density_diffrn 1.543
_exptl_crystal_description 'plate'
_diffrn_ambient_temperature 90
#These two values have been output from a single CSD field.
_refine_ls_R_factor_gt 0.0909
_refine_ls_wR_factor_gt 0.0909
_symmetry_cell_setting monoclinic
_symmetry_space_group_name_H-M 'C 2/c'
_symmetry_Int_Tables_number 15
loop_
_symmetry_equiv_pos_site_id
_symmetry_equiv_pos_as_xyz
1 x,y,z
2 -x,y,1/2-z
3 1/2+x,1/2+y,z
4 1/2-x,1/2+y,1/2-z
5 -x,-y,-z
6 x,-y,-1/2+z
7 -1/2-x,-1/2-y,-z
8 -1/2+x,-1/2-y,-1/2+z
_cell_length_a 18.388(5)
_cell_length_b 10.355(3)
_cell_length_c 19.159(5)
_cell_angle_alpha 90
_cell_angle_beta 113.596(6)
_cell_angle_gamma 90
_cell_formula_units_Z 8
loop_
_atom_type_symbol
_atom_type_radius_bond
C 0.68
H 0.23
N 0.68
O 0.68
loop_
_atom_site_label
_atom_site_type_symbol
_atom_site_fract_x
_atom_site_fract_y
_atom_site_fract_z
O1 O 0.04173(13) 0.4658(2) 0.58214(13)
O2 O 0.36517(15) 0.2203(3) 0.78947(15)
O3 O 0.30681(15) 0.2217(2) 0.86774(14)
O4 O 0.19646(14) 0.3248(2) 0.41899(14)
H1 H 0.24070 0.36070 0.43060
O5 O 0.15446(13) 0.1068(2) 0.53375(14)
O6 O -0.15528(16) 0.1322(3) 0.59087(17)
O7 O -0.09088(17) -0.0196(3) 0.66945(16)
N1 N 0.30756(17) 0.2449(3) 0.80488(17)
N2 N 0.13025(17) 0.4999(3) 0.50054(16)
H2 H 0.083(2) 0.504(4) 0.500(2)
N3 N 0.06424(16) 0.2540(3) 0.42242(16)
H3 H 0.110(2) 0.215(4) 0.446(2)
N4 N -0.09521(19) 0.0649(3) 0.62256(18)
C1 C 0.10257(19) 0.4172(3) 0.63370(18)
C2 C 0.17794(19) 0.4095(3) 0.62655(18)
C3 C 0.24420(19) 0.3529(3) 0.68349(19)
H4 H 0.29310 0.34850 0.67780
C4 C 0.23854(19) 0.3038(3) 0.74727(19)
C5 C 0.1670(2) 0.3106(3) 0.7579(2)
H5 H 0.16430 0.27720 0.80290
C6 C 0.1018(2) 0.3656(3) 0.7029(2)
H6 H 0.05410 0.36990 0.71080
C7 C 0.18690(19) 0.4538(3) 0.56026(19)
H7 H 0.23830 0.44910 0.55980
C8 C 0.13987(19) 0.5324(3) 0.43043(19)
H8 H 0.19170 0.57590 0.44360
H9 H 0.09770 0.59380 0.40040
C9 C 0.13595(19) 0.4132(3) 0.38150(19)
H10 H 0.14140 0.44230 0.33410
C10 C 0.0596(2) 0.3349(3) 0.35866(19)
H11 H 0.01350 0.39380 0.34450
H12 H 0.05250 0.28020 0.31400
C11 C 0.01101(19) 0.2422(3) 0.44946(19)
H13 H -0.03830 0.28520 0.42470
C12 C 0.09883(19) 0.1048(3) 0.55766(19)
C13 C 0.02354(19) 0.1666(3) 0.51560(18)
C14 C -0.03853(19) 0.1558(3) 0.53929(19)
H14 H -0.08790 0.19700 0.51140
C15 C -0.0280(2) 0.0855(3) 0.6030(2)
C16 C 0.0453(2) 0.0276(3) 0.6473(2)
H15 H 0.05150 -0.01950 0.69190
C17 C 0.1073(2) 0.0394(3) 0.62606(19)
H16 H 0.15730 0.00340 0.65740
#END
