
#######################################################################
#
#                 Cambridge Crystallographic Data Centre
#                                CCDC
#
#######################################################################
#
# If this CIF has been generated from an entry in the Cambridge
# Structural Database, then it will include bibliographic, chemical,
# crystal, experimental, refinement or atomic coordinate data resulting
# from the CCDC's data processing and validation procedures.
#
#######################################################################

data_CSD_CIF_RUZYIV
_audit_creation_date 2011-02-15
_audit_creation_method CSD-ConQuest-V1
_database_code_CSD RUZYIV
_database_code_depnum_ccdc_archive 'CCDC 612151'
_chemical_formula_sum 'C22 H27 N5 O6'
_chemical_formula_moiety
;
C22 H27 N5 O6
;
_journal_coden_Cambridge 119
_journal_volume 980
_journal_year 2010
_journal_page_first 51
_journal_name_full 'J.Mol.Struct. '
loop_
_publ_author_name
"I.G.Smilovic"
"K.Molcanov"
"V.Vinkovic"
"B.Kojic-Prodic"
"A.Lesac"
_chemical_name_systematic
;
(R)-4-(n-Butylamino)-N-(1-((3,5-dimethylphenyl)amino)-1-oxopropan-2-yl)-3,5-di
nitrobenzamide
;
_cell_volume   1160.872
_exptl_crystal_colour 'yellow'
_exptl_crystal_density_diffrn 1.309
_exptl_crystal_description 'plate'
_diffrn_ambient_temperature 293
#These two values have been output from a single CSD field.
_refine_ls_R_factor_gt 0.067
_refine_ls_wR_factor_gt 0.067
loop_
_citation_database_id_CSD
_citation_special_details
RUZYER "is a racemate of this entry"
_symmetry_cell_setting triclinic
_symmetry_space_group_name_H-M 'P 1'
_symmetry_Int_Tables_number 1
loop_
_symmetry_equiv_pos_site_id
_symmetry_equiv_pos_as_xyz
1 x,y,z
_cell_length_a 7.0890(6)
_cell_length_b 7.9496(5)
_cell_length_c 20.8571(13)
_cell_angle_alpha 89.211(5)
_cell_angle_beta 89.838(6)
_cell_angle_gamma 81.018(6)
_cell_formula_units_Z 2
loop_
_atom_type_symbol
_atom_type_radius_bond
C 0.68
H 0.23
N 0.68
O 0.68
loop_
_atom_site_label
_atom_site_type_symbol
_atom_site_fract_x
_atom_site_fract_y
_atom_site_fract_z
O1 O 0.9938(6) 0.0847(5) 0.79935(17)
N1 N 1.0156(7) -0.0437(6) 1.1987(2)
O2 O 0.5608(9) 0.6472(8) 0.5135(2)
C1 C 0.4314(15) 1.2628(13) 0.4175(4)
H1 H 0.30060 1.32100 0.41940
H2 H 0.51120 1.33590 0.43740
O3 O 0.2908(7) 0.7873(6) 0.4859(2)
C2 C 0.9014(8) 0.3195(7) 0.5023(2)
H3 H 0.92990 0.24730 0.46590
H4 H 1.00070 0.38750 0.50770
H5 H 0.78180 0.39270 0.49550
C3 C 0.9763(14) 0.0109(11) 1.2631(3)
H6 H 0.85390 0.08440 1.26590
H7 H 1.07500 0.07140 1.27890
C4 C 0.9480(7) -0.2578(5) 0.6101(3)
H8 H 0.93830 -0.30420 0.65250
H9 H 1.07310 -0.29640 0.59320
H10 H 0.85380 -0.29490 0.58300
C5 C 0.929(2) -0.3220(17) 1.3944(7)
H11 H 0.97360 -0.32800 1.43800
H12 H 1.00690 -0.40780 1.36980
H13 H 0.79890 -0.34060 1.39340
C6 C 0.472(2) 1.4113(19) 0.3177(6)
H14 H 0.50840 1.39260 0.27370
H15 H 0.55700 1.47830 0.33760
H16 H 0.34380 1.47060 0.31990
C7 C 0.944(3) -0.149(2) 1.3664(8)
H17 H 0.82640 -0.07190 1.37500
H18 H 1.04790 -0.10410 1.38670
C8 C 0.485(3) 1.2448(19) 0.3519(5)
H19 H 0.40210 1.17630 0.33080
H20 H 0.61470 1.18500 0.34920
C9 C 0.974(2) -0.1583(16) 1.3015(5)
H21 H 0.87590 -0.21530 1.28310
H22 H 1.09550 -0.23070 1.29450
O4 O 0.2371(5) 0.9769(4) 0.91607(17)
C10 C 0.3510(7) 0.7128(5) 0.8646(2)
H23 H 0.46970 0.63120 0.86700
C11 C 0.1803(10) 0.6178(8) 0.8713(3)
H24 H 0.18380 0.53620 0.83770
H25 H 0.06410 0.69760 0.86840
H26 H 0.18600 0.55990 0.91210
H27 H 0.948(9) -0.017(8) 0.518(3)
H28 H 0.943(7) -0.016(6) 0.988(2)
H29 H 0.454(10) 1.090(8) 1.188(3)
H30 H 0.358(8) 1.082(7) 0.731(3)
H31 H 0.430(7) 1.124(7) 0.994(3)
H32 H 0.869(6) -0.046(6) 0.708(2)
H33 H 0.769(6) 0.415(5) 0.8431(18)
H34 H 0.871(7) 0.413(8) 1.078(2)
H35 H 1.031(11) -0.151(3) 1.188(4)
H36 H 0.842(7) 0.406(7) 0.625(2)
H37 H 0.374(10) 1.249(3) 0.530(3)
H38 H 0.448(10) 0.668(10) 0.634(3)
C12 C 0.4500(5) 0.7735(5) 0.63464(19)
C13 C 0.3708(5) 1.0293(4) 0.6933(2)
C14 C 0.3902(5) 1.0470(5) 0.5749(2)
C15 C 0.8502(6) 0.2879(5) 0.62027(19)
C16 C 0.3593(6) 1.1224(5) 0.6365(2)
C17 C 0.8449(5) 0.1887(5) 0.67572(19)
C18 C 0.8884(6) 0.2115(5) 0.5615(2)
C19 C 0.4209(5) 0.8539(4) 0.69328(18)
C20 C 0.4289(5) 0.8660(5) 0.57833(19)
N2 N 0.8024(5) 0.2716(4) 0.73468(16)
H39 H 0.72920 0.36870 0.73380
O5 O 0.3102(7) 1.4013(4) 0.5966(2)
N3 N 0.3154(6) 1.3073(4) 0.6446(2)
N4 N 0.3859(7) 1.1415(6) 0.5208(2)
C21 C 0.9822(5) -0.0407(5) 1.0833(2)
C22 C 0.9145(5) -0.0660(5) 0.6128(2)
O6 O 0.2860(9) 1.3633(5) 0.6979(2)
C23 C 0.4666(6) 1.0531(5) 1.1401(2)
C24 C 0.4428(6) 1.0629(5) 1.0262(2)
C25 C 0.4395(5) 1.1475(5) 1.0846(2)
O7 O 1.0153(8) -0.2905(4) 1.0266(2)
O8 O 1.0521(8) -0.3138(5) 1.1279(2)
N5 N 1.0173(5) -0.2264(4) 1.0783(2)
N6 N 0.9681(6) 0.3322(5) 1.19211(19)
C26 C 0.9483(5) 0.2231(5) 1.13639(18)
C27 C 0.4452(5) 0.7469(4) 0.75314(18)
O9 O 0.7150(5) 0.4537(3) 0.96680(15)
C28 C 0.8945(5) 0.2207(4) 1.02293(17)
N7 N 0.8695(5) 0.2395(4) 0.90760(16)
H40 H 0.96240 0.15590 0.90600
N8 N 0.4706(5) 0.7968(4) 0.96652(17)
H41 H 0.55500 0.70750 0.96190
C29 C 0.8224(5) 0.3149(5) 0.96344(18)
C30 C 0.8772(6) 0.0122(5) 0.6724(2)
N9 N 0.4306(6) 0.7618(5) 0.52055(18)
C31 C 0.4452(12) 1.0984(9) 0.4576(3)
H42 H 0.36410 1.02370 0.43940
H43 H 0.57570 1.03930 0.45780
O10 O 0.5595(5) 0.6122(4) 0.75365(16)
C32 C 0.8981(5) 0.3084(5) 1.07996(19)
C33 C 0.4069(7) 1.3400(5) 1.0849(3)
H44 H 0.39070 1.38280 1.04170
H45 H 0.51500 1.37930 1.10380
H46 H 0.29430 1.38010 1.10930
C34 C 0.5000(6) 0.7942(5) 1.0817(2)
H47 H 0.52240 0.67580 1.08040
C35 C 0.5636(7) 0.2552(7) 0.8517(2)
H48 H 0.49670 0.31130 0.88740
H49 H 0.56890 0.13430 0.85650
H50 H 0.49780 0.29320 0.81270
O11 O 1.1202(7) 0.3139(7) 1.2190(2)
C36 C 0.9206(6) 0.0345(5) 0.5589(2)
C37 C 0.4710(5) 0.8868(5) 1.0252(2)
C38 C 0.9851(5) 0.0415(5) 1.1430(2)
C39 C 0.9385(5) 0.0452(5) 1.0251(2)
C40 C 0.8688(6) 0.2090(5) 0.7925(2)
N10 N 0.3430(5) 0.8044(5) 0.80356(17)
H51 H 0.26840 0.90040 0.80020
C41 C 0.4963(6) 0.8758(5) 1.1407(2)
C42 C 0.3477(6) 0.8415(5) 0.9180(2)
O12 O 0.8366(8) 0.4391(7) 1.2047(2)
C43 C 0.7650(6) 0.2975(5) 0.84911(18)
C44 C 0.5148(10) 0.7736(8) 1.2021(3)
H52 H 0.53490 0.65440 1.19250
H53 H 0.40010 0.80100 1.22690
H54 H 0.62140 0.80000 1.22610
#END
