
#######################################################################
#
#                 Cambridge Crystallographic Data Centre
#                                CCDC
#
#######################################################################
#
# If this CIF has been generated from an entry in the Cambridge
# Structural Database, then it will include bibliographic, chemical,
# crystal, experimental, refinement or atomic coordinate data resulting
# from the CCDC's data processing and validation procedures.
#
#######################################################################

data_CSD_CIF_RUZYER
_audit_creation_date 2011-02-15
_audit_creation_method CSD-ConQuest-V1
_database_code_CSD RUZYER
_database_code_depnum_ccdc_archive 'CCDC 612150'
_chemical_formula_sum 'C22 H27 N5 O6'
_chemical_formula_moiety
;
C22 H27 N5 O6
;
_journal_coden_Cambridge 119
_journal_volume 980
_journal_year 2010
_journal_page_first 51
_journal_name_full 'J.Mol.Struct. '
loop_
_publ_author_name
"I.G.Smilovic"
"K.Molcanov"
"V.Vinkovic"
"B.Kojic-Prodic"
"A.Lesac"
_chemical_name_systematic
;
rac-4-(n-butylamino)-N-(1-((3,5-dimethylphenyl)amino)-1-oxopropan-2-yl)-3,5-di
nitrobenzamide
;
_cell_volume   1121.419
_exptl_crystal_colour 'yellow'
_exptl_crystal_density_diffrn 1.355
_exptl_crystal_description 'prism'
_diffrn_ambient_temperature 293
#These two values have been output from a single CSD field.
_refine_ls_R_factor_gt 0.0619
_refine_ls_wR_factor_gt 0.0619
loop_
_citation_database_id_CSD
_citation_special_details
RUZYIV "is a stereoisomer of this entry"
_symmetry_cell_setting triclinic
_symmetry_space_group_name_H-M 'P -1'
_symmetry_Int_Tables_number 2
loop_
_symmetry_equiv_pos_site_id
_symmetry_equiv_pos_as_xyz
1 x,y,z
2 -x,-y,-z
_cell_length_a 8.0181(9)
_cell_length_b 10.5113(9)
_cell_length_c 14.405(2)
_cell_angle_alpha 75.441(10)
_cell_angle_beta 80.807(11)
_cell_angle_gamma 73.472(8)
_cell_formula_units_Z 2
loop_
_atom_type_symbol
_atom_type_radius_bond
C 0.68
H 0.23
N 0.68
O 0.68
loop_
_atom_site_label
_atom_site_type_symbol
_atom_site_fract_x
_atom_site_fract_y
_atom_site_fract_z
H1 H 1.185(4) 0.488(3) 0.2747(19)
H2 H 0.731(4) -0.126(3) 0.682(2)
H3 H 0.423(4) -0.099(3) 0.939(2)
H4 H 0.418(3) 0.247(3) 0.7251(19)
H5 H 0.801(4) 1.051(3) 0.2629(19)
H6 H 0.946(4) 1.100(3) 0.296(2)
H7 H 0.807(4) 0.212(3) 0.444(2)
H8 H 0.720(4) 0.075(3) 0.570(2)
H9 H 0.684(4) 0.485(3) 0.431(2)
H10 H 0.782(4) 0.653(3) 0.458(2)
H11 H 1.139(5) 0.934(3) 0.187(2)
H12 H 0.890(5) 1.126(4) 0.092(3)
H13 H 1.059(5) 1.156(3) 0.115(2)
H14 H 0.607(5) 0.320(4) 0.324(3)
H15 H 0.533(5) 0.212(4) 0.408(3)
H16 H 0.456(5) 0.378(4) 0.404(3)
H17 H 0.870(5) 1.367(4) 0.170(3)
H18 H 0.631(8) -0.309(6) 0.918(5)
H19 H 0.621(7) -0.333(5) 0.819(4)
H20 H 0.788(8) -0.315(5) 0.836(4)
H21 H 0.704(6) 1.303(5) 0.165(3)
O1 O 0.9227(2) 0.95819(18) 0.43616(14)
N1 N 0.6510(3) 0.12827(19) 0.60085(15)
O2 O 0.5395(3) 0.35378(17) 0.59423(14)
C1 C 0.8725(3) 0.6615(2) 0.40268(17)
C2 C 0.6256(3) 0.2592(2) 0.55751(18)
O3 O 1.0407(2) 0.31046(17) 0.38161(16)
N2 N 0.8325(3) 0.88698(19) 0.42515(14)
O4 O 0.6842(2) 0.8934(2) 0.46361(15)
N3 N 0.7627(3) 0.4095(2) 0.43055(17)
C3 C 0.9256(3) 0.4125(2) 0.39361(17)
N4 N 1.0456(3) 0.9351(2) 0.23744(17)
C4 C 1.0318(3) 0.8111(2) 0.28581(17)
C5 C 0.5815(3) 0.0696(2) 0.69284(17)
C6 C 0.9636(3) 0.5495(2) 0.36442(17)
N5 N 1.2789(3) 0.6928(2) 0.18043(18)
C7 C 1.1023(3) 0.5650(3) 0.29549(19)
C8 C 0.9113(3) 0.7855(2) 0.36772(17)
C9 C 0.6429(3) -0.0704(2) 0.7251(2)
C10 C 1.1349(3) 0.6900(3) 0.25704(18)
O5 O 1.2816(3) 0.8002(2) 0.12181(17)
C11 C 0.5858(4) -0.1343(3) 0.8168(2)
C12 C 0.4584(3) 0.1454(3) 0.75130(18)
O6 O 1.3908(3) 0.5878(2) 0.1766(2)
C13 C 0.7034(3) 0.2857(2) 0.45314(19)
C14 C 0.3992(3) 0.0819(3) 0.84209(19)
C15 C 0.4645(4) -0.0570(3) 0.8740(2)
C16 C 0.9324(4) 1.1590(3) 0.1391(2)
C17 C 0.9247(4) 1.0671(3) 0.2392(2)
C18 C 0.2665(5) 0.1649(4) 0.9047(2)
H22 H 0.23910 0.10660 0.96480
H23 H 0.16230 0.20810 0.87260
H24 H 0.31360 0.23300 0.91680
C19 C 0.5651(5) 0.2987(4) 0.3877(2)
C20 C 0.8221(8) 1.3940(5) 0.0404(4)
H25 H 0.75270 1.48350 0.04500
H26 H 0.77190 1.35930 -0.00100
H27 H 0.93890 1.39810 0.01430
C21 C 0.8268(5) 1.3026(3) 0.1381(3)
C22 C 0.6567(6) -0.2853(3) 0.8524(3)
#END
