
#######################################################################
#
#                 Cambridge Crystallographic Data Centre
#                                CCDC
#
#######################################################################
#
# If this CIF has been generated from an entry in the Cambridge
# Structural Database, then it will include bibliographic, chemical,
# crystal, experimental, refinement or atomic coordinate data resulting
# from the CCDC's data processing and validation procedures.
#
#######################################################################

data_CSD_CIF_RUZYIV01
_audit_creation_date 2011-02-15
_audit_creation_method CSD-ConQuest-V1
_database_code_CSD RUZYIV01
_database_code_depnum_ccdc_archive 'CCDC 771093'
_chemical_formula_sum 'C22 H27 N5 O6'
_chemical_formula_moiety
;
C22 H27 N5 O6
;
_journal_coden_Cambridge 119
_journal_volume 980
_journal_year 2010
_journal_page_first 51
_journal_name_full 'J.Mol.Struct. '
loop_
_publ_author_name
"I.G.Smilovic"
"K.Molcanov"
"V.Vinkovic"
"B.Kojic-Prodic"
"A.Lesac"
_chemical_name_systematic
;
(R)-4-(n-Butylamino)-N-(1-((3,5-dimethylphenyl)amino)-1-oxopropan-2-yl)-3,5-di
nitrobenzamide
;
_cell_volume   1098.238
_exptl_crystal_colour 'yellow'
_exptl_crystal_density_diffrn 1.383
_exptl_crystal_description 'plate'
_diffrn_ambient_temperature 100
#These two values have been output from a single CSD field.
_refine_ls_R_factor_gt 0.0706
_refine_ls_wR_factor_gt 0.0706
loop_
_citation_database_id_CSD
_citation_special_details
RUZYER "is a racemate of this entry"
_symmetry_cell_setting triclinic
_symmetry_space_group_name_H-M 'P 1'
_symmetry_Int_Tables_number 1
loop_
_symmetry_equiv_pos_site_id
_symmetry_equiv_pos_as_xyz
1 x,y,z
_cell_length_a 6.8906(8)
_cell_length_b 7.8604(17)
_cell_length_c 20.768(4)
_cell_angle_alpha 82.544(16)
_cell_angle_beta 82.555(13)
_cell_angle_gamma 82.377(14)
_cell_formula_units_Z 2
loop_
_atom_type_symbol
_atom_type_radius_bond
C 0.68
H 0.23
N 0.68
O 0.68
loop_
_atom_site_label
_atom_site_type_symbol
_atom_site_fract_x
_atom_site_fract_y
_atom_site_fract_z
H1 H 0.355(9) -0.083(8) 1.379(3)
H2 H 0.888(8) -0.671(8) 0.803(3)
H3 H 0.954(12) -0.978(11) 1.102(4)
H4 H 0.503(12) -0.441(11) 1.160(4)
C1 C 0.4353(6) 0.0523(5) 0.8151(2)
O1 O 0.3969(5) 0.3367(4) 0.76649(16)
C2 C 0.8845(6) -1.1368(6) 1.3441(2)
N1 N 0.9510(5) -1.3914(5) 1.28023(17)
C3 C 0.9165(6) -0.7911(6) 0.8097(2)
O2 O 0.3749(6) 0.2904(5) 0.87117(17)
O3 O 0.9673(5) -1.4443(4) 1.22683(16)
C4 C 0.5178(6) -0.2026(6) 0.7621(2)
N2 N 0.5010(5) 0.0791(5) 0.69562(18)
H5 H 0.43760 0.18120 0.69380
C5 C 0.4242(6) -0.2572(5) 1.2197(2)
C6 C 1.0057(6) -1.0408(6) 0.7524(2)
H6 H 1.04300 -1.08880 0.71340
O4 O 0.9663(5) -1.4921(4) 1.33147(16)
C7 C 0.8226(6) -0.8523(6) 1.2786(2)
H7 H 0.79070 -0.73330 1.27770
C8 C 0.4071(6) -0.2956(6) 1.3379(2)
N3 N 0.8385(5) -0.8217(5) 0.92701(17)
H8 H 0.76330 -0.72510 0.92470
C9 C 0.3643(6) -0.0076(5) 1.2791(2)
C10 C 0.8905(6) -1.1054(6) 1.2241(2)
H9 H 0.90820 -1.15820 1.18590
N4 N 0.8491(5) -0.8575(5) 1.39404(19)
C11 C 0.9306(6) -1.0777(6) 0.8691(2)
H10 H 0.91570 -1.14900 0.90840
N5 N 0.3996(5) 0.2369(5) 0.81815(18)
N6 N 0.8866(6) -1.2339(5) 1.40341(18)
H11 H 0.95820 -1.33230 1.40450
O5 O 0.4002(5) -0.2780(5) 0.67212(16)
O6 O 0.9943(5) -0.8818(5) 1.42238(16)
C12 C 0.9948(7) -0.7441(6) 0.6882(2)
H12 H 0.86970 -0.68050 0.68030
H13 H 1.04230 -0.81210 0.65300
H14 H 1.08730 -0.66490 0.69110
N7 N 0.5367(5) -0.2997(5) 0.70580(18)
C13 C 0.5191(6) -0.3027(6) 0.8219(2)
H15 H 0.55200 -0.42170 0.82360
C14 C 0.9118(6) -1.2060(5) 1.2839(2)
C15 C 0.4718(6) -0.2268(6) 0.8792(2)
O7 O 0.6844(5) -0.4037(5) 0.69742(18)
C16 C 0.9715(6) -0.8616(6) 0.7516(2)
O8 O 0.7030(5) -0.7542(5) 1.40690(17)
O9 O 0.5914(4) -0.4795(4) 0.94474(15)
C17 C 0.7938(6) -0.8188(6) 1.1594(2)
O10 O 0.6856(4) -0.6799(4) 1.16236(15)
C18 C 0.8489(6) -0.9525(6) 1.3375(2)
C19 C 0.4795(6) -0.3432(5) 0.9427(2)
N8 N 0.8565(5) -0.8824(5) 1.10314(17)
C20 C 0.9846(6) -1.1491(6) 0.8112(2)
O11 O 0.2188(5) -0.1461(4) 1.10956(15)
N9 N 0.3631(5) -0.2905(5) 0.99496(17)
H16 H 0.29330 -0.19130 0.99120
C21 C 0.8982(6) -0.8982(6) 0.8688(2)
C22 C 1.0780(8) -1.3045(8) 1.5656(3)
H17 H 1.20450 -1.36090 1.57580
H18 H 1.00000 -1.27290 1.60490
H19 H 1.09540 -1.20250 1.53560
C23 C 1.0177(7) -1.3430(6) 0.8124(3)
H20 H 1.14740 -1.38490 0.82390
H21 H 1.00520 -1.37360 0.77000
H22 H 0.92140 -1.39380 0.84410
C24 C 0.7738(7) -1.3500(6) 1.5146(2)
H23 H 0.68590 -1.32220 1.55320
H24 H 0.72010 -1.43750 1.49570
O12 O 1.0165(5) -1.0142(5) 0.99474(16)
C25 C 0.8916(6) -0.8899(6) 0.9865(2)
N10 N 0.4459(5) -0.3353(5) 1.16089(17)
C26 C 0.8433(5) -0.9278(6) 1.2211(2)
C27 C 0.4344(6) -0.3649(6) 1.2787(2)
H25 H 0.45960 -0.48400 1.27830
C28 C 0.4838(6) -0.0181(6) 0.7545(2)
C29 C 0.7794(6) -1.1879(6) 1.4653(2)
H26 H 0.64620 -1.13770 1.45860
H27 H 0.84410 -1.10310 1.48190
C30 C 0.6143(7) 0.0310(6) 0.6351(2)
H28 H 0.55300 -0.05620 0.61860
H29 H 0.74660 -0.01790 0.64350
C31 C 0.3282(7) 0.1852(6) 1.2799(2)
H30 H 0.42760 0.23870 1.25040
H31 H 0.33320 0.21270 1.32330
H32 H 0.20070 0.22740 1.26650
C32 C 0.5574(6) -0.8473(6) 1.0473(2)
H33 H 0.48660 -0.81600 1.08780
H34 H 0.55530 -0.96820 1.04510
H35 H 0.49630 -0.78150 1.01150
C33 C 0.3519(6) -0.3971(6) 1.0581(2)
H36 H 0.47170 -0.47900 1.06050
C34 C 0.7706(6) -0.8090(5) 1.04326(19)
H37 H 0.77470 -0.68380 1.03680
C35 C 0.4274(7) 0.2660(6) 0.5605(2)
H38 H 0.34150 0.30870 0.59720
H39 H 0.44920 0.36410 0.52810
C36 C 0.4267(6) -0.0501(6) 0.8756(2)
H40 H 0.39000 0.00180 0.91380
C37 C 0.9758(7) -1.4243(6) 1.5352(2)
H41 H 0.96010 -1.52670 1.56600
H42 H 1.05990 -1.46010 1.49700
C38 C 0.4118(7) -0.4133(6) 1.4012(2)
H43 H 0.54580 -0.45790 1.40710
H44 H 0.33710 -0.50740 1.40000
H45 H 0.35560 -0.34960 1.43690
C39 C 0.3728(6) -0.1169(6) 1.3376(2)
C40 C 0.1715(7) -0.4961(6) 1.0681(2)
H46 H 0.18010 -0.56960 1.03410
H47 H 0.05400 -0.41570 1.06670
H48 H 0.16720 -0.56530 1.10980
C41 C 0.6245(6) 0.1886(6) 0.5839(2)
H49 H 0.67920 0.27700 0.60200
H50 H 0.71450 0.15600 0.54640
C42 C 0.3234(7) 0.1418(7) 0.5312(3)
H51 H 0.20000 0.19940 0.51860
H52 H 0.29990 0.04450 0.56300
H53 H 0.40430 0.10290 0.49350
C43 C 0.3904(6) -0.0796(6) 1.2207(2)
H54 H 0.38520 -0.00770 1.18150
C44 C 0.3338(6) -0.2807(6) 1.1114(2)
#END
