
#######################################################################
#
#                 Cambridge Crystallographic Data Centre
#                                CCDC
#
#######################################################################
#
# If this CIF has been generated from an entry in the Cambridge
# Structural Database, then it will include bibliographic, chemical,
# crystal, experimental, refinement or atomic coordinate data resulting
# from the CCDC's data processing and validation procedures.
#
#######################################################################

data_CSD_CIF_SABDUX
_audit_creation_date 2015-12-25
_audit_creation_method CSD-ConQuest-V1
_database_code_CSD SABDUX
_database_code_depnum_ccdc_archive 'CCDC 1422500'
_chemical_formula_sum 'C27 H17 N1 O8'
_chemical_formula_moiety
;
C27 H17 N1 O8
;
_journal_coden_Cambridge 1147
_journal_volume 16
_journal_year 2016
_journal_page_first 821
_journal_name_full 'Cryst.Growth Des. '
loop_
_publ_author_name
"H.W.H.Lai"
"R.A.Wiscons"
"C.A.Zentner"
"M.Zeller"
"J.L.C.Rowsell"
_chemical_name_systematic
;
2,4,6-tris(4-Carboxypheny)nitrobenzene unknown solvate
;
_cell_volume  13608.573
_exptl_crystal_colour 'colorless'
_exptl_crystal_density_diffrn 0.944
_exptl_crystal_description 'block'
_diffrn_ambient_temperature 100
_refine_special_details
;
N1B,O1B,O2B and N1C,O1C,O2C disordered over two sites with occupancies 
0.538:0.462. The SQUEEZE/PLATON program was model some disordered solvent.
;
#These two values have been output from a single CSD field.
_refine_ls_R_factor_gt 0.1095
_refine_ls_wR_factor_gt 0.1095
_symmetry_cell_setting orthorhombic
_symmetry_space_group_name_H-M 'I b a 2'
_symmetry_Int_Tables_number 45
loop_
_symmetry_equiv_pos_site_id
_symmetry_equiv_pos_as_xyz
1 x,y,z
2 -x,-y,z
3 1/2+x,1/2-y,z
4 1/2-x,1/2+y,z
5 1/2+x,1/2+y,1/2+z
6 1/2-x,1/2-y,1/2+z
7 x,-y,1/2+z
8 -x,y,1/2+z
_cell_length_a 14.692(9)
_cell_length_b 29.009(18)
_cell_length_c 31.930(19)
_cell_angle_alpha 90
_cell_angle_beta 90
_cell_angle_gamma 90
_cell_formula_units_Z 16
loop_
_atom_type_symbol
_atom_type_radius_bond
C 0.68
H 0.23
N 0.68
O 0.68
loop_
_atom_site_label
_atom_site_type_symbol
_atom_site_fract_x
_atom_site_fract_y
_atom_site_fract_z
C1 C 0.7734(5) 0.3441(3) -0.0505(4)
O1 O 0.6177(5) 0.3298(3) -0.0583(4)
N1 N 0.6907(7) 0.3122(4) -0.0551(4)
C2 C 0.8057(7) 0.3566(4) -0.0136(3)
O2 O 0.7074(5) 0.2699(3) -0.0531(5)
C3 C 0.8831(8) 0.3893(3) -0.0141(3)
H1 H 0.90690 0.40140 0.01130
O3 O 0.6437(10) 0.3303(4) 0.1681(3)
C4 C 0.9194(5) 0.4016(2) -0.0517(4)
O4 O 0.6648(9) 0.2578(4) 0.1512(3)
H2 H 0.65450 0.25420 0.17690
C5 C 0.8772(8) 0.3850(3) -0.0878(4)
H3 H 0.90390 0.39290 -0.11400
O5 O 0.6626(9) 0.2558(5) -0.2604(3)
C6 C 0.8050(9) 0.3597(4) -0.0887(4)
O6 O 0.6422(10) 0.3297(5) -0.2795(4)
H4 H 0.64750 0.31890 -0.30380
C7 C 0.7672(8) 0.3409(5) 0.0243(4)
O7 O 1.2792(7) 0.5174(4) -0.0867(4)
H5 H 1.32630 0.53360 -0.08450
C8 C 0.7625(9) 0.2950(5) 0.0341(4)
H6 H 0.78090 0.27240 0.01430
O8 O 1.2827(7) 0.5211(4) -0.0157(4)
C9 C 0.7305(9) 0.2816(6) 0.0736(4)
H7 H 0.72830 0.24990 0.08100
C10 C 0.7011(9) 0.3160(6) 0.1027(4)
C11 C 0.7045(9) 0.3608(6) 0.0934(4)
H8 H 0.68280 0.38280 0.11300
C12 C 0.7404(10) 0.3758(5) 0.0545(4)
H9 H 0.74680 0.40770 0.04840
C13 C 0.6682(11) 0.2994(7) 0.1431(4)
C14 C 0.7653(9) 0.3424(6) -0.1336(4)
C15 C 0.7597(10) 0.2991(6) -0.1435(4)
H10 H 0.78160 0.27670 -0.12430
C16 C 0.7220(12) 0.2841(6) -0.1819(6)
H11 H 0.71340 0.25200 -0.18670
C17 C 0.6992(12) 0.3132(8) -0.2104(6)
C18 C 0.7065(14) 0.3611(7) -0.1992(5)
H12 H 0.68860 0.38430 -0.21840
C19 C 0.7393(13) 0.3729(6) -0.1605(5)
H13 H 0.74310 0.40460 -0.15330
C20 C 0.6625(15) 0.2984(10) -0.2524(6)
C21 C 1.0026(3) 0.4303(2) -0.0507(3)
C22 C 1.0404(6) 0.4438(4) -0.0887(3)
H14 H 1.01210 0.43510 -0.11430
C23 C 1.1195(6) 0.4701(4) -0.0893(3)
H15 H 1.14530 0.47930 -0.11520
C24 C 1.1608(3) 0.4829(2) -0.0519(4)
C25 C 1.1231(6) 0.4694(4) -0.0139(3)
H16 H 1.15130 0.47810 0.01170
C26 C 1.0440(6) 0.4431(4) -0.0133(3)
H17 H 1.01820 0.43380 0.01270
C27 C 1.2447(6) 0.5105(3) -0.0499(7)
N2 N 0.3060(12) 0.1589(7) 0.3701(5)
O9 O 0.2594(14) 0.1867(6) 0.3508(6)
O10 O 0.3136(16) 0.1213(7) 0.3522(7)
C28 C 0.3557(7) 0.1739(4) 0.4079(3)
C29 C 0.4377(7) 0.1991(3) 0.4086(3)
C30 C 0.4776(5) 0.2130(3) 0.4470(5)
H18 H 0.53210 0.23070 0.44670
O11 O 0.5962(8) 0.3023(4) 0.2460(3)
H19 H 0.60830 0.30770 0.22080
C31 C 0.4398(9) 0.2017(5) 0.4833(4)
O12 O 0.6051(8) 0.2297(4) 0.2239(3)
C32 C 0.3580(8) 0.1753(4) 0.4830(4)
H20 H 0.33110 0.16590 0.50870
O13 O -0.0564(8) 0.0530(5) 0.4138(4)
C33 C 0.3157(5) 0.1628(3) 0.4437(5)
O14 O -0.0705(9) 0.0685(5) 0.4817(5)
H21 H -0.12540 0.06110 0.47860
O15 O 0.6019(9) 0.2301(4) 0.6686(4)
H22 H 0.63880 0.23940 0.68690
O16 O 0.5882(9) 0.3038(5) 0.6489(4)
C34 C 0.4791(6) 0.2144(3) 0.36796(18)
C35 C 0.4941(7) 0.1831(2) 0.3358(2)
H23 H 0.48030 0.15140 0.33980
C36 C 0.5293(7) 0.1981(3) 0.2977(2)
H24 H 0.53960 0.17660 0.27580
C37 C 0.5495(6) 0.2444(3) 0.2919(2)
C38 C 0.5345(6) 0.2758(2) 0.3241(3)
H25 H 0.54820 0.30750 0.32000
C39 C 0.4993(6) 0.2608(3) 0.3621(2)
H26 H 0.48900 0.28220 0.38410
C40 C 0.5857(9) 0.2575(5) 0.2515(4)
C41 C 0.2264(6) 0.1385(3) 0.4445(4)
C42 C 0.2065(8) 0.1060(5) 0.4168(4)
H27 H 0.25100 0.09810 0.39640
C43 C 0.1243(9) 0.0829(4) 0.4161(5)
H28 H 0.11070 0.06080 0.39500
C44 C 0.0628(6) 0.0933(4) 0.4475(5)
C45 C 0.0773(9) 0.1271(4) 0.4732(5)
H29 H 0.03120 0.13500 0.49270
C46 C 0.1584(8) 0.1522(4) 0.4731(4)
H30 H 0.16740 0.17750 0.49150
C47 C -0.0281(8) 0.0692(4) 0.4432(6)
C48 C 0.4794(7) 0.2157(5) 0.5244(4)
C49 C 0.5044(13) 0.2607(6) 0.5311(5)
H31 H 0.49970 0.28210 0.50870
C50 C 0.5363(11) 0.2757(6) 0.5695(6)
H32 H 0.54810 0.30760 0.57390
C51 C 0.5510(8) 0.2448(6) 0.6012(4)
C52 C 0.5311(8) 0.1999(5) 0.5938(3)
H33 H 0.54240 0.17770 0.61500
C53 C 0.4935(8) 0.1854(5) 0.5546(4)
H34 H 0.47850 0.15390 0.55030
C54 C 0.5823(11) 0.2645(9) 0.6423(5)
H35? H 0.32930 0.16490 0.38200
N3? N 0.3156(13) 0.1662(9) 0.5243(6)
O17? O 0.2756(17) 0.1972(8) 0.5431(6)
O18? O 0.3211(17) 0.1226(8) 0.5369(7)
#END
