
#######################################################################
#
#                 Cambridge Crystallographic Data Centre
#                                CCDC
#
#######################################################################
#
# If this CIF has been generated from an entry in the Cambridge
# Structural Database, then it will include bibliographic, chemical,
# crystal, experimental, refinement or atomic coordinate data resulting
# from the CCDC's data processing and validation procedures.
#
#######################################################################

data_CSD_CIF_SABDAC
_audit_creation_date 2010-09-21
_audit_creation_method CSD-ConQuest-V1
_database_code_CSD SABDAC
_database_code_depnum_ccdc_archive 'CCDC 792493'
_chemical_formula_sum 'C12 H10 N2 O4'
_chemical_formula_moiety
;
C12 H10 N2 O4
;
_journal_coeditor_code "IUCr HB5614"
_journal_coden_Cambridge 1370
_journal_volume 66
_journal_year 2010
_journal_page_first o2428
_journal_name_full 'Acta Crystallogr.,Sect.E:Struct.Rep.Online '
loop_
_publ_author_name
"S.B.Nasir"
"Z.Abdullah"
"Z.A.Fairuz"
"S.W.Ng"
"E.R.T.Tiekink"
_chemical_name_systematic
;
2-(4-Methoxyphenoxy)-3-nitropyridine
;
_cell_volume   2348.873
_exptl_crystal_colour 'colorless'
_exptl_crystal_density_diffrn 1.393
_exptl_crystal_description 'block'
_diffrn_ambient_temperature 293
#These two values have been output from a single CSD field.
_refine_ls_R_factor_gt 0.04
_refine_ls_wR_factor_gt 0.04
_symmetry_cell_setting orthorhombic
_symmetry_space_group_name_H-M 'P b c a'
_symmetry_Int_Tables_number 61
loop_
_symmetry_equiv_pos_site_id
_symmetry_equiv_pos_as_xyz
1 x,y,z
2 1/2-x,-y,1/2+z
3 -x,1/2+y,1/2-z
4 1/2+x,1/2-y,-z
5 -x,-y,-z
6 -1/2+x,y,-1/2-z
7 x,-1/2-y,-1/2+z
8 -1/2-x,-1/2+y,z
_cell_length_a 7.4737(10)
_cell_length_b 12.8128(17)
_cell_length_c 24.529(3)
_cell_angle_alpha 90
_cell_angle_beta 90
_cell_angle_gamma 90
_cell_formula_units_Z 8
loop_
_atom_type_symbol
_atom_type_radius_bond
C 0.68
H 0.23
N 0.68
O 0.68
loop_
_atom_site_label
_atom_site_type_symbol
_atom_site_fract_x
_atom_site_fract_y
_atom_site_fract_z
O1 O 0.6185(3) 0.61280(14) 0.47253(8)
O2 O 0.4138(3) 0.73025(14) 0.47339(9)
O3 O 0.56918(18) 0.47091(11) 0.39640(7)
O4 O 0.8030(2) 0.16173(11) 0.25569(7)
N1 N 0.2758(2) 0.42013(14) 0.38381(8)
N2 N 0.4665(3) 0.64262(14) 0.46264(8)
C1 C 0.3912(3) 0.48503(15) 0.40591(9)
C2 C 0.3378(3) 0.57022(15) 0.43811(8)
C3 C 0.1573(3) 0.58629(19) 0.44736(9)
H1 H 0.11810 0.64240 0.46820
C4 C 0.0362(3) 0.5166(2) 0.42471(11)
H2 H -0.08610 0.52450 0.43030
C5 C 0.1010(3) 0.4359(2) 0.39382(10)
H3 H 0.01920 0.38920 0.37890
C6 C 0.6196(3) 0.39115(16) 0.35921(10)
C7 C 0.6735(3) 0.29624(17) 0.37948(9)
H4 H 0.66840 0.28260 0.41670
C8 C 0.7358(3) 0.22109(16) 0.34344(9)
H5 H 0.77390 0.15670 0.35660
C9 C 0.7416(3) 0.24148(15) 0.28798(9)
C10 C 0.6896(3) 0.33849(16) 0.26848(10)
H6 H 0.69600 0.35310 0.23140
C11 C 0.6281(3) 0.41331(16) 0.30457(10)
H7 H 0.59260 0.47840 0.29180
C12 C 0.7750(4) 0.1697(2) 0.19822(10)
H8 H 0.81730 0.10740 0.18070
H9 H 0.83930 0.22890 0.18430
H10 H 0.64960 0.17830 0.19100
#END
