
#######################################################################
#
#                 Cambridge Crystallographic Data Centre
#                                CCDC
#
#######################################################################
#
# If this CIF has been generated from an entry in the Cambridge
# Structural Database, then it will include bibliographic, chemical,
# crystal, experimental, refinement or atomic coordinate data resulting
# from the CCDC's data processing and validation procedures.
#
#######################################################################

data_CSD_CIF_SABGAG
_audit_creation_date 2015-12-25
_audit_creation_method CSD-ConQuest-V1
_database_code_CSD SABGAG
_database_code_depnum_ccdc_archive 'CCDC 1444234'
_chemical_formula_sum 'C19 H20 N4 O3'
_chemical_formula_moiety
;
C19 H20 N4 O3
;
_journal_coden_Cambridge 1078
_journal_year 2015
_journal_name_full 'CSD Communication(Private Communication) '
loop_
_publ_author_name
"S.Vishwakarma"
_chemical_name_systematic
;
9-(((4-nitrophenyl)hydrazono)methyl)-2,3,6,7-tetrahydro-1H,5H-pyrido[3,2,1-ij]
quinolin-8-ol
;
_cell_volume   1642.071
_exptl_crystal_colour 'dark brown'
_exptl_crystal_density_diffrn 1.425
_exptl_crystal_description 'cube'
_diffrn_ambient_temperature 273
#These two values have been output from a single CSD field.
_refine_ls_R_factor_gt 0.0401
_refine_ls_wR_factor_gt 0.0401
_symmetry_cell_setting monoclinic
_symmetry_space_group_name_H-M 'P 21/n'
_symmetry_Int_Tables_number 14
loop_
_symmetry_equiv_pos_site_id
_symmetry_equiv_pos_as_xyz
1 x,y,z
2 1/2-x,1/2+y,1/2-z
3 -x,-y,-z
4 -1/2+x,-1/2-y,-1/2+z
_cell_length_a 9.4989(4)
_cell_length_b 13.9582(6)
_cell_length_c 13.1205(7)
_cell_angle_alpha 90
_cell_angle_beta 109.278(1)
_cell_angle_gamma 90
_cell_formula_units_Z 4
loop_
_atom_type_symbol
_atom_type_radius_bond
C 0.68
H 0.23
N 0.68
O 0.68
loop_
_atom_site_label
_atom_site_type_symbol
_atom_site_fract_x
_atom_site_fract_y
_atom_site_fract_z
C1 C 0.89048(15) 0.54165(10) 0.57530(11)
C2 C 1.11275(15) 0.6300(1) 0.68179(12)
C3 C 0.76473(16) 0.53322(10) 0.47751(12)
H1 H 0.75530 0.57610 0.42140
C4 C 0.91357(15) 0.47805(10) 0.66270(11)
C5 C 0.22426(15) 0.25667(10) 0.30621(11)
C6 C 0.44543(16) 0.32577(10) 0.42866(11)
H2 H 0.52250 0.32500 0.49450
C7 C 0.44030(15) 0.39787(10) 0.35267(11)
C8 C 0.21579(15) 0.32805(10) 0.23039(11)
H3 H 0.13870 0.32800 0.16450
C9 C 0.99322(15) 0.61668(10) 0.58879(12)
H4 H 0.98000 0.65960 0.53210
C10 C 0.33689(16) 0.25656(10) 0.40586(11)
H5 H 0.33870 0.20980 0.45680
C11 C 1.03169(15) 0.48865(10) 0.75812(11)
C12 C 0.32227(15) 0.39845(10) 0.25379(11)
H6 H 0.31650 0.44700 0.20400
C13 C 1.13304(15) 0.56504(10) 0.76834(11)
C14 C 1.04228(16) 0.42056(11) 0.84957(11)
H7 H 1.06240 0.35660 0.82880
H8 H 0.94690 0.41890 0.86160
C15 C 1.22011(16) 0.71216(11) 0.69154(12)
H9 H 1.16470 0.76900 0.65900
H10 H 1.28780 0.69650 0.65250
C16 C 1.29582(16) 0.49089(11) 0.93210(12)
H11 H 1.37210 0.50770 0.99960
H12 H 1.33770 0.44440 0.89520
C17 C 1.16319(17) 0.44784(12) 0.95462(12)
H13 H 1.12360 0.49370 0.99360
H14 H 1.19440 0.39140 0.99950
C18 C 1.30990(17) 0.73297(11) 0.80915(12)
H15 H 1.39140 0.77610 0.81250
H16 H 1.24660 0.76400 0.84400
C19 C 1.37123(16) 0.64077(11) 0.86754(12)
H17 H 1.43570 0.61020 0.83330
H18 H 1.43010 0.65480 0.94180
N1 N 1.24966(13) 0.57618(9) 0.86518(10)
N2 N 0.66495(13) 0.46773(9) 0.46590(9)
N3 N 0.54693(13) 0.46739(9) 0.37138(10)
H19 H 0.54000 0.51110 0.32370
N4 N 0.11564(13) 0.18117(9) 0.28046(10)
O1 O 0.81875(11) 0.40385(7) 0.65853(8)
H20 H 0.75050 0.40490 0.60060
O2 O 0.12086(12) 0.11905(8) 0.34883(9)
O3 O 0.01962(11) 0.17930(8) 0.18961(8)
#END
