
#######################################################################
#
#                 Cambridge Crystallographic Data Centre
#                                CCDC
#
#######################################################################
#
# If this CIF has been generated from an entry in the Cambridge
# Structural Database, then it will include bibliographic, chemical,
# crystal, experimental, refinement or atomic coordinate data resulting
# from the CCDC's data processing and validation procedures.
#
#######################################################################

data_CSD_CIF_SABHUB
_audit_creation_date 2015-12-28
_audit_creation_method CSD-ConQuest-V1
_database_code_CSD SABHUB
_database_code_depnum_ccdc_archive 'CCDC 1444550'
_chemical_formula_sum 'C29 H34 N2 O2'
_chemical_formula_moiety
;
C29 H34 N2 O2
;
_journal_coden_Cambridge 1078
_journal_year 2015
_journal_name_full 'CSD Communication(Private Communication) '
loop_
_publ_author_name
"S.Eryilmaz"
"E.Inkaya"
_chemical_name_systematic
;
5,11-bis(4-t-butylphenyl)-3,9-dioxa-4,10-diazatetracyclo[5.5.1.0^2,6^.0^8,12^]
trideca-4,10-diene
;
_cell_volume   2506.246
_exptl_crystal_colour 'colorless'
_exptl_crystal_density_diffrn 1.173
_exptl_crystal_description 'prism'
_diffrn_ambient_temperature 296
#These two values have been output from a single CSD field.
_refine_ls_R_factor_gt 0.0759
_refine_ls_wR_factor_gt 0.0759
_symmetry_cell_setting monoclinic
_symmetry_space_group_name_H-M 'C 2/c'
_symmetry_Int_Tables_number 15
loop_
_symmetry_equiv_pos_site_id
_symmetry_equiv_pos_as_xyz
1 x,y,z
2 -x,y,1/2-z
3 1/2+x,1/2+y,z
4 1/2-x,1/2+y,1/2-z
5 -x,-y,-z
6 x,-y,-1/2+z
7 -1/2-x,-1/2-y,-z
8 -1/2+x,-1/2-y,-1/2+z
_cell_length_a 20.634(4)
_cell_length_b 11.179(2)
_cell_length_c 11.0690(17)
_cell_angle_alpha 90
_cell_angle_beta 101.012(5)
_cell_angle_gamma 90
_cell_formula_units_Z 4
loop_
_atom_type_symbol
_atom_type_radius_bond
C 0.68
H 0.23
N 0.68
O 0.68
loop_
_atom_site_label
_atom_site_type_symbol
_atom_site_fract_x
_atom_site_fract_y
_atom_site_fract_z
N1 N 0.36321(17) 0.6443(3) 0.0586(3)
O1 O 0.42452(13) 0.6221(3) 0.0235(2)
C1 C 0.1560(3) 0.6250(5) 0.5426(4)
H1 H 0.18000 0.69780 0.56480
H2 H 0.11760 0.62360 0.57970
H3 H 0.18370 0.55780 0.57120
C2 C 0.0973(3) 0.5031(5) 0.3708(6)
H4 H 0.05960 0.50190 0.40980
H5 H 0.08290 0.49760 0.28320
H6 H 0.12550 0.43660 0.39930
C3 C 0.0897(3) 0.7261(5) 0.3661(5)
H7 H 0.11440 0.79850 0.38670
H8 H 0.07260 0.72420 0.27920
H9 H 0.05380 0.72330 0.40980
C4 C 0.13481(18) 0.6184(3) 0.4021(4)
C5 C 0.19436(18) 0.6199(3) 0.3401(3)
C6 C 0.1992(2) 0.6894(4) 0.2384(3)
H10 H 0.16440 0.73990 0.20630
C7 C 0.2532(2) 0.6866(4) 0.1833(3)
H11 H 0.25400 0.73500 0.11520
C8 C 0.30658(18) 0.6134(3) 0.2268(3)
C9 C 0.30311(18) 0.5434(3) 0.3283(3)
H12 H 0.33820 0.49340 0.36030
C10 C 0.24823(19) 0.5467(3) 0.3828(3)
H13 H 0.24730 0.49800 0.45050
C11 C 0.36439(18) 0.6068(3) 0.1684(3)
C12 C 0.46749(18) 0.5574(3) 0.1213(3)
H14 H 0.47860 0.47740 0.09520
C13 C 0.42902(17) 0.5528(3) 0.2274(3)
H15 H 0.42400 0.47090 0.25590
C14 C 0.47148(17) 0.6305(3) 0.3268(3)
H16 H 0.44810 0.66370 0.38840
C15 C 0.50000 0.7233(4) 0.25000
H17 H 0.53370 0.77290 0.29900
H18? H 0.53370 0.77290 0.29900
H17A H 0.46630 0.77290 0.20100
N1A N 0.63679(17) 0.6443(3) 0.4414(3)
O1A O 0.57548(13) 0.6221(3) 0.4765(2)
C1A C 0.8440(3) 0.6250(5) -0.0426(4)
H1A H 0.82000 0.69780 -0.06480
H2A H 0.88240 0.62360 -0.07970
H3A H 0.81630 0.55780 -0.07120
C2A C 0.9027(3) 0.5031(5) 0.1292(6)
H4A H 0.94040 0.50190 0.09020
H5A H 0.91710 0.49760 0.21680
H6A H 0.87450 0.43660 0.10070
C3A C 0.9103(3) 0.7261(5) 0.1339(5)
H7A H 0.88560 0.79850 0.11330
H8A H 0.92740 0.72420 0.22080
H9A H 0.94620 0.72330 0.09020
C4A C 0.86519(18) 0.6184(3) 0.0979(4)
C5A C 0.80564(18) 0.6199(3) 0.1599(3)
C6A C 0.8008(2) 0.6894(4) 0.2616(3)
H10A H 0.83560 0.73990 0.29370
C7A C 0.7468(2) 0.6866(4) 0.3167(3)
H11A H 0.74600 0.73500 0.38480
C8A C 0.69342(18) 0.6134(3) 0.2732(3)
C9A C 0.69689(18) 0.5434(3) 0.1717(3)
H12A H 0.66180 0.49340 0.13970
C10A C 0.75177(19) 0.5467(3) 0.1172(3)
H13A H 0.75270 0.49800 0.04950
C11A C 0.63561(18) 0.6068(3) 0.3316(3)
C12A C 0.53251(18) 0.5574(3) 0.3787(3)
H14A H 0.52140 0.47740 0.40480
C13A C 0.57098(17) 0.5528(3) 0.2726(3)
H15A H 0.57600 0.47090 0.24410
C14A C 0.52852(17) 0.6305(3) 0.1732(3)
H16A H 0.55190 0.66370 0.11160
#END
