
#######################################################################
#
#                 Cambridge Crystallographic Data Centre
#                                CCDC
#
#######################################################################
#
# If this CIF has been generated from an entry in the Cambridge
# Structural Database, then it will include bibliographic, chemical,
# crystal, experimental, refinement or atomic coordinate data resulting
# from the CCDC's data processing and validation procedures.
#
#######################################################################

data_CSD_CIF_SABPOB
_audit_creation_date 2004-12-07
_audit_creation_method CSD-ConQuest-V1
_database_code_CSD SABPOB
_database_code_depnum_ccdc_archive 'CCDC 246003'
_chemical_formula_sum 'C7 H9 N3 O3'
_chemical_formula_moiety
;
C7 H9 N3 O3
;
_journal_coden_Cambridge 9
_journal_volume 43
_journal_year 2004
_journal_page_first 3894
_journal_name_full 'Inorg.Chem. '
loop_
_publ_author_name
"D.Eddings"
"C.Barnes"
"N.Gerasimchuk"
"P.Durham"
"K.Domasevich"
_chemical_name_systematic
;
trans-anti-2-Cyano-2-isonitroso-N-morpholinylacetamide
;
_chemical_melting_point 428.15
_cell_volume   5783.385
_exptl_crystal_colour 'colorless'
_exptl_crystal_density_diffrn 1.473
_exptl_special_details
;
Melting point range 428.15-433.15K

;
_exptl_crystal_description 'needles'
_exptl_crystal_preparation 'acetone'
_diffrn_ambient_temperature 173
#These two values have been output from a single CSD field.
_refine_ls_R_factor_gt 0.0727
_refine_ls_wR_factor_gt 0.0727
_symmetry_cell_setting orthorhombic
_symmetry_space_group_name_H-M 'P 21 21 21'
_symmetry_Int_Tables_number 19
loop_
_symmetry_equiv_pos_site_id
_symmetry_equiv_pos_as_xyz
1 x,y,z
2 1/2-x,-y,1/2+z
3 1/2+x,1/2-y,-z
4 -x,1/2+y,1/2-z
_cell_length_a 7.3098(7)
_cell_length_b 14.4350(14)
_cell_length_c 54.810(5)
_cell_angle_alpha 90
_cell_angle_beta 90
_cell_angle_gamma 90
_cell_formula_units_Z 28
loop_
_atom_type_symbol
_atom_type_radius_bond
C 0.68
H 0.23
N 0.68
O 0.68
loop_
_atom_site_label
_atom_site_type_symbol
_atom_site_fract_x
_atom_site_fract_y
_atom_site_fract_z
O1 O 0.4582(6) 0.9614(3) 0.97508(7)
O2 O 0.4255(6) 1.0604(3) 0.89127(7)
O3 O 0.4232(7) 1.3583(3) 0.91479(7)
H1 H 0.44450 1.39750 0.92580
N1 N 0.4991(7) 1.0651(3) 0.93137(8)
N2 N 0.4550(7) 1.2705(3) 0.92374(9)
N3 N 0.3068(9) 1.2561(4) 0.86453(8)
C1 C 0.5310(9) 0.9647(4) 0.93201(10)
H2 H 0.66200 0.95220 0.93520
H3 H 0.49910 0.93720 0.91600
C2 C 0.4140(8) 0.9210(4) 0.95202(10)
H4 H 0.28280 0.93110 0.94840
H5 H 0.43650 0.85340 0.95260
C3 C 0.4179(9) 1.0592(4) 0.97455(9)
H6 H 0.44460 1.08650 0.99070
H7 H 0.28610 1.06820 0.97110
C4 C 0.5291(9) 1.1082(4) 0.95539(10)
H8 H 0.49350 1.17430 0.95470
H9 H 0.66060 1.10480 0.95970
C5 C 0.4524(8) 1.1045(4) 0.91023(9)
C6 C 0.4241(8) 1.2085(4) 0.90756(9)
C7 C 0.3625(9) 1.2344(4) 0.88323(10)
O4 O 0.4903(5) 0.4726(3) 0.80913(7)
O5 O 0.4434(6) 0.5639(3) 0.89294(7)
O6 O 0.4013(6) 0.8622(3) 0.87047(7)
H10 H 0.42350 0.90310 0.86000
N4 N 0.5201(6) 0.5748(3) 0.85302(8)
N5 N 0.4546(7) 0.7768(3) 0.86166(8)
N6 N 0.2688(8) 0.7520(3) 0.91893(9)
C8 C 0.5663(8) 0.4739(4) 0.85198(10)
H11 H 0.53910 0.44450 0.86790
H12 H 0.69830 0.46600 0.84860
C9 C 0.4558(8) 0.4285(4) 0.83226(9)
H13 H 0.48840 0.36200 0.83120
H14 H 0.32400 0.43300 0.83630
C10 C 0.4318(8) 0.5683(4) 0.81012(9)
H15 H 0.29950 0.57110 0.81390
H16 H 0.45140 0.59780 0.79400
C11 C 0.5373(9) 0.6202(4) 0.82932(9)
H17 H 0.66800 0.62320 0.82460
H18 H 0.49040 0.68440 0.83050
C12 C 0.4662(8) 0.6109(4) 0.87437(9)
C13 C 0.4221(7) 0.7122(3) 0.87738(9)
C14 C 0.3378(8) 0.7332(4) 0.90064(10)
O7 O 0.4505(6) -0.0289(3) 0.83207(6)
O8 O 0.5080(5) 0.0774(3) 0.74903(6)
O9 O 0.3986(6) 0.3692(2) 0.77176(7)
H19 H 0.42080 0.40950 0.78240
N7 N 0.4915(6) 0.0830(3) 0.79030(7)
N8 N 0.4483(7) 0.2833(3) 0.78042(8)
N9 N 0.2912(8) 0.2576(3) 0.72158(9)
C15 C 0.5808(8) -0.0081(3) 0.79229(9)
H20 H 0.70620 -0.00010 0.79880
H21 H 0.59030 -0.03640 0.77590
C16 C 0.4745(9) -0.0712(4) 0.80882(9)
H22 H 0.35350 -0.08450 0.80150
H23 H 0.54070 -0.13060 0.81070
C17 C 0.3435(9) 0.0553(4) 0.82956(10)
H24 H 0.31950 0.08210 0.84590
H25 H 0.22430 0.04080 0.82190
C18 C 0.4466(8) 0.1250(4) 0.81395(9)
H26 H 0.37030 0.18080 0.81140
H27 H 0.56040 0.14400 0.82240
C19 C 0.4766(7) 0.1198(3) 0.76809(8)
C20 C 0.4163(7) 0.2189(4) 0.76469(9)
C21 C 0.3463(8) 0.2401(4) 0.74043(10)
O10 O 0.0247(5) 0.0399(3) 0.76158(6)
O11 O 0.0132(6) -0.0596(3) 0.67767(7)
O12 O 0.0515(7) -0.3528(2) 0.70082(7)
H28 H 0.02090 -0.39130 0.71160
N10 N 0.0824(6) -0.0577(3) 0.71771(7)
N11 N 0.0299(6) -0.2647(3) 0.70976(8)
N12 N 0.1930(8) -0.2510(4) 0.65069(9)
C22 C 0.0835(8) 0.0440(3) 0.71825(9)
H29 H 0.03730 0.06840 0.70250
H30 H 0.21020 0.06660 0.72050
C23 C -0.0355(8) 0.0785(4) 0.73884(9)
H31 H -0.02940 0.14690 0.73960
H32 H -0.16430 0.06060 0.73580
C24 C 0.0170(9) -0.0594(4) 0.76121(10)
H33 H -0.11040 -0.07980 0.75830
H34 H 0.05660 -0.08410 0.77720
C25 C 0.1403(8) -0.0970(4) 0.74127(9)
H35 H 0.26900 -0.07990 0.74460
H36 H 0.13180 -0.16540 0.74070
C26 C 0.0526(8) -0.1003(4) 0.69648(9)
C27 C 0.0758(8) -0.2037(4) 0.69375(9)
C28 C 0.1377(8) -0.2309(3) 0.6695(1)
O13 O 0.4453(6) 0.4661(3) 0.95309(7)
O14 O 0.4486(7) 0.5665(3) 1.03722(7)
O15 O 0.3615(6) 0.8572(3) 1.01227(7)
H37 H 0.38420 0.89530 1.00110
N13 N 0.3761(7) 0.5611(3) 0.99715(8)
N14 N 0.3976(7) 0.7685(3) 1.00414(9)
N15 N 0.2585(8) 0.7549(3) 1.06420(9)
C29 C 0.3986(9) 0.4587(4) 0.99672(10)
H38 H 0.27770 0.42870 0.99490
H39 H 0.45310 0.43750 1.01230
C30 C 0.5195(10) 0.4322(4) 0.97600(11)
H40 H 0.64310 0.45840 0.97860
H41 H 0.53080 0.36390 0.97530
C31 C 0.4315(11) 0.5656(4) 0.95376(10)
H42 H 0.38390 0.58820 0.93790
H43 H 0.55470 0.59250 0.95620
C32 C 0.3073(9) 0.5975(4) 0.97390(9)
H44 H 0.30410 0.66600 0.97440
H45 H 0.18150 0.57470 0.97100
C33 C 0.4029(8) 0.6059(4) 1.01832(10)
C34 C 0.3643(8) 0.7089(4) 1.02088(9)
C35 C 0.3072(9) 0.7345(4) 1.04512(9)
O16 O 0.9556(6) 0.5257(3) 0.88057(7)
O17 O 0.9623(6) 0.4306(3) 0.96464(7)
O18 O 1.0252(6) 0.1332(3) 0.94255(7)
H46 H 0.99190 0.09220 0.93260
N16 N 0.9200(7) 0.4191(3) 0.92381(8)
N17 N 0.9711(7) 0.2189(3) 0.93421(8)
N18 N 1.1853(8) 0.2477(4) 0.98962(10)
C36 C 0.8484(9) 0.5142(4) 0.92226(10)
H47 H 0.85570 0.54400 0.93850
H48 H 0.71820 0.51240 0.91730
C37 C 0.9554(9) 0.5699(4) 0.90419(10)
H49 H 0.90110 0.63250 0.90280
H50 H 1.08290 0.57690 0.91000
C38 C 1.0393(8) 0.4356(4) 0.88241(9)
H51 H 1.16620 0.44220 0.88850
H52 H 1.04430 0.40650 0.86610
C39 C 0.9309(9) 0.3737(4) 0.89974(9)
H53 H 0.80630 0.36350 0.89320
H54 H 0.99200 0.31280 0.90130
C40 C 0.9640(8) 0.3847(4) 0.94569(10)
C41 C 1.0188(7) 0.2843(4) 0.94895(10)
C42 C 1.1115(8) 0.2647(4) 0.97169(10)
O19 O 0.9315(6) 0.0256(3) 0.90577(6)
O20 O 0.9621(6) -0.0683(3) 0.82139(7)
O21 O 1.0309(6) -0.3637(3) 0.84377(7)
H55 H 1.00310 -0.40500 0.85390
N19 N 0.9045(7) -0.0790(3) 0.86202(8)
N20 N 0.9721(7) -0.2791(3) 0.85219(9)
N21 N 1.1804(7) -0.2496(3) 0.79696(8)
C43 C 0.8385(9) 0.0178(4) 0.86315(10)
H56 H 0.70630 0.01830 0.86700
H57 H 0.85540 0.04770 0.84710
C44 C 0.9418(9) 0.0717(4) 0.88236(10)
H58 H 1.07140 0.07790 0.87740
H59 H 0.88930 0.13470 0.88380
C45 C 1.0114(8) -0.0662(4) 0.90396(9)
H60 H 1.00960 -0.09640 0.92020
H61 H 1.14050 -0.06100 0.89860
C46 C 0.9055(9) -0.1253(4) 0.88577(9)
H62 H 0.96360 -0.18700 0.88430
H63 H 0.77840 -0.13410 0.89160
C47 C 0.9565(7) -0.1129(4) 0.84040(9)
C48 C 1.0117(7) -0.2139(4) 0.83733(9)
C49 C 1.1030(8) -0.2332(3) 0.81426(9)
#END
