
#######################################################################
#
#                 Cambridge Crystallographic Data Centre
#                                CCDC
#
#######################################################################
#
# If this CIF has been generated from an entry in the Cambridge
# Structural Database, then it will include bibliographic, chemical,
# crystal, experimental, refinement or atomic coordinate data resulting
# from the CCDC's data processing and validation procedures.
#
#######################################################################

data_CSD_CIF_SABPOA
_audit_creation_date 1989-07-11
_audit_creation_method CSD-ConQuest-V1
_database_code_CSD SABPOA
_chemical_formula_sum 'C12 H16 N2 O5'
_chemical_formula_moiety
;
C12 H16 N2 O5
;
_journal_coden_Cambridge 35
_journal_volume 53
_journal_year 1988
_journal_page_first 5930
_journal_name_full 'J.Org.Chem. '
loop_
_publ_author_name
"S.F.Nelsen"
"M.F.Teasley"
"M.Kaftory"
_chemical_name_systematic
;
2-Nitroxy-7-nitrotetracyclo(6.2.1.1^3,6^.0^2,7^)dodecane
;
_chemical_melting_point 393.15
_cell_volume    599.315
_exptl_crystal_density_diffrn 1.487
_exptl_special_details
;
Melts with decomposition.

;
_diffrn_ambient_temperature ?
_diffrn_special_details
;
The study was carried out at room temperature,in the range 283-303K

;
#These two values have been output from a single CSD field.
_refine_ls_R_factor_gt 0.051
_refine_ls_wR_factor_gt 0.051
_symmetry_cell_setting triclinic
_symmetry_space_group_name_H-M 'P -1'
_symmetry_Int_Tables_number 2
loop_
_symmetry_equiv_pos_site_id
_symmetry_equiv_pos_as_xyz
1 x,y,z
2 -x,-y,-z
_cell_length_a 11.639(6)
_cell_length_b 7.678(4)
_cell_length_c 7.384(4)
_cell_angle_alpha 114.47(3)
_cell_angle_beta 90.40(3)
_cell_angle_gamma 93.22(3)
_cell_formula_units_Z 2
loop_
_atom_type_symbol
_atom_type_radius_bond
C 0.68
H 0.23
N 0.68
O 0.68
loop_
_atom_site_label
_atom_site_type_symbol
_atom_site_fract_x
_atom_site_fract_y
_atom_site_fract_z
O1 O 0.8286(2) 0.2569(3) -0.0405(3)
O2 O 1.0043(2) 0.2059(4) 0.0501(4)
O3 O 0.9522(2) 0.1112(4) -0.2601(4)
O4 O 0.5919(2) 0.2058(4) -0.1695(3)
O5 O 0.6172(2) 0.5074(4) -0.0814(4)
N1 N 0.9386(2) 0.1855(4) -0.0834(5)
N2 N 0.6237(2) 0.3654(4) -0.0482(4)
C1 C 0.6668(2) 0.3903(4) 0.1643(4)
C2 C 0.5960(3) 0.2297(4) 0.1993(4)
C3 C 0.6031(3) 0.2513(5) 0.4137(5)
C4 C 0.7302(3) 0.2159(5) 0.4402(5)
C5 C 0.7792(3) 0.1650(4) 0.2322(4)
C6 C 0.7959(2) 0.3336(4) 0.1700(4)
C7 C 0.8637(3) 0.5290(4) 0.2825(5)
C8 C 0.8439(4) 0.6218(6) 0.5048(6)
C9 C 0.7162(4) 0.6698(5) 0.5135(5)
C10 C 0.6798(3) 0.6087(4) 0.2930(5)
C11 C 0.6722(3) 0.0582(4) 0.1036(5)
C12 C 0.7947(3) 0.6586(5) 0.2159(7)
H1 H 0.517(3) 0.211(3) 0.150(5)
H2 H 0.549(3) 0.152(3) 0.421(4)
H3 H 0.578(3) 0.370(5) 0.505(5)
H4 H 0.764(3) 0.322(4) 0.548(4)
H5 H 0.729(3) 0.100(5) 0.465(5)
H6 H 0.846(2) 0.099(4) 0.210(4)
H7 H 0.945(3) 0.524(5) 0.244(5)
H8 H 0.890(3) 0.738(6) 0.553(6)
H9 H 0.859(3) 0.536(6) 0.578(6)
H10 H 0.712(3) 0.814(3) 0.582(5)
H11 H 0.673(3) 0.606(3) 0.576(5)
H12 H 0.620(3) 0.668(4) 0.277(4)
H13 H 0.683(2) 0.022(4) -0.034(4)
H14 H 0.645(3) -0.053(5) 0.126(5)
H15 H 0.820(3) 0.785(6) 0.288(3)
#END
