
#######################################################################
#
#                 Cambridge Crystallographic Data Centre
#                                CCDC
#
#######################################################################
#
# If this CIF has been generated from an entry in the Cambridge
# Structural Database, then it will include bibliographic, chemical,
# crystal, experimental, refinement or atomic coordinate data resulting
# from the CCDC's data processing and validation procedures.
#
#######################################################################

data_CSD_CIF_SACXAW
_audit_creation_date 2004-12-07
_audit_creation_method CSD-ConQuest-V1
_database_code_CSD SACXAW
_database_code_depnum_ccdc_archive 'CCDC 232801'
_chemical_formula_sum 'C15 H14 N4 O2'
_chemical_formula_moiety
;
C15 H14 N4 O2
;
_journal_coden_Cambridge 9
_journal_volume 43
_journal_year 2004
_journal_page_first 4278
_journal_name_full 'Inorg.Chem. '
loop_
_publ_author_name
"H.Grove"
"T.L.Kelly"
"L.K.Thompson"
"Liang Zhao"
"Zhiqiang Xu"
"T.S.M.Abedin"
"D.O.Miller"
"A.E.Goeta"
"C.Wilson"
"J.A.K.Howard"
_chemical_name_systematic
;
N-(2-(Hydroxyimino)-1-phenylpropylidene)pyridine-2-carbohydrazide
;
_cell_volume   1412.235
_exptl_crystal_colour 'colorless'
_exptl_crystal_density_diffrn 1.328
_exptl_crystal_description 'irregular'
_diffrn_ambient_temperature 299.2
#These two values have been output from a single CSD field.
_refine_ls_R_factor_gt 0.044
_refine_ls_wR_factor_gt 0.044
_symmetry_cell_setting orthorhombic
_symmetry_space_group_name_H-M 'P n a 21'
_symmetry_Int_Tables_number 33
loop_
_symmetry_equiv_pos_site_id
_symmetry_equiv_pos_as_xyz
1 x,y,z
2 -x,-y,1/2+z
3 1/2-x,1/2+y,1/2+z
4 1/2+x,1/2-y,z
_cell_length_a 7.834(3)
_cell_length_b 11.797(4)
_cell_length_c 15.281(3)
_cell_angle_alpha 90
_cell_angle_beta 90
_cell_angle_gamma 90
_cell_formula_units_Z 4
loop_
_atom_type_symbol
_atom_type_radius_bond
C 0.68
H 0.23
N 0.68
O 0.68
loop_
_atom_site_label
_atom_site_type_symbol
_atom_site_fract_x
_atom_site_fract_y
_atom_site_fract_z
O1 O -0.1542(5) -0.9441(3) -0.89130
O2 O -0.2942(6) -0.6354(3) -1.2899(3)
N1 N 0.0017(7) -0.6995(4) -0.7834(4)
N2 N -0.1208(7) -0.7603(4) -0.9342(4)
N3 N -0.1685(6) -0.7765(3) -1.0194(4)
N4 N -0.2545(7) -0.6118(4) -1.2024(4)
C1 C 0.0809(9) -0.6662(6) -0.7118(5)
C2 C 0.1429(9) -0.7414(7) -0.6492(5)
C3 C 0.1206(9) -0.8534(7) -0.6610(5)
C4 C 0.0383(8) -0.8907(5) -0.7349(5)
C5 C -0.0207(6) -0.8114(4) -0.7943(4)
C6 C -0.1052(7) -0.8477(5) -0.8774(4)
C7 C -0.1921(7) -0.6872(4) -1.0654(4)
C8 C -0.2336(7) -0.7032(4) -1.1582(4)
C9 C -0.2498(8) -0.8200(5) -1.1947(4)
C10 C -0.1784(7) -0.5690(4) -1.0271(4)
C11 C -0.3255(8) -0.5109(5) -1.0061(4)
C12 C -0.315(1) -0.4110(5) -0.9601(5)
C13 C -0.159(1) -0.3673(4) -0.9353(4)
C14 C -0.0121(9) -0.4238(5) -0.9583(5)
C15 C -0.0197(8) -0.5252(5) -1.0033(5)
H1 H -0.084(8) -0.688(5) -0.923(5)
H2 H -0.290(8) -0.566(5) -1.311(4)
H3 H 0.09640 -0.58730 -0.70240
H4 H 0.20040 -0.71400 -0.59880
H5 H 0.16120 -0.90590 -0.61880
H6 H 0.02220 -0.96950 -0.74500
H7 H -0.25920 -0.87290 -1.14810
H8 H -0.34880 -0.82430 -1.23050
H9 H -0.15180 -0.83720 -1.22880
H10 H -0.43370 -0.53970 -1.02340
H11 H -0.41650 -0.37160 -0.94500
H12 H -0.15290 -0.29880 -0.90260
H13 H 0.09580 -0.39270 -0.94320
H14 H 0.08200 -0.56470 -1.01780
#END
