
#######################################################################
#
#                 Cambridge Crystallographic Data Centre
#                                CCDC
#
#######################################################################
#
# If this CIF has been generated from an entry in the Cambridge
# Structural Database, then it will include bibliographic, chemical,
# crystal, experimental, refinement or atomic coordinate data resulting
# from the CCDC's data processing and validation procedures.
#
#######################################################################

data_CSD_CIF_SADHOU
_audit_creation_date 1989-07-19
_audit_creation_method CSD-ConQuest-V1
_database_code_CSD SADHOU
_chemical_formula_sum 'C12 H22 N2 O2'
_chemical_formula_moiety
;
C12 H22 N2 O2
;
_journal_coden_Cambridge 188
_journal_year 1988
_journal_page_first 2093
_journal_name_full 'J.Chem.Soc.,Perkin Trans.2 '
loop_
_publ_author_name
"A.J.Boyd"
"D.R.Boyd"
"M.G.Burnett"
"J.F.Malone"
"W.B.Jennings"
_chemical_name_systematic
;
rac-3-Hydroxyimino-N,N'-(2,2,4,4-tetramethylcyclobutylidene)-t-butylamine 
N-oxide
;
_cell_volume   1364.841
_exptl_crystal_colour 'colorless'
_exptl_crystal_density_diffrn 1.1
_diffrn_ambient_temperature ?
_diffrn_special_details
;
The study was carried out at room temperature,in the range 283-303K

;
#These two values have been output from a single CSD field.
_refine_ls_R_factor_gt 0.096
_refine_ls_wR_factor_gt 0.096
_symmetry_cell_setting triclinic
_symmetry_space_group_name_H-M 'P -1'
_symmetry_Int_Tables_number 2
loop_
_symmetry_equiv_pos_site_id
_symmetry_equiv_pos_as_xyz
1 x,y,z
2 -x,-y,-z
_cell_length_a 13.190(13)
_cell_length_b 13.204(13)
_cell_length_c 7.840(8)
_cell_angle_alpha 90.9(1)
_cell_angle_beta 91.4(1)
_cell_angle_gamma 90.1(1)
_cell_formula_units_Z 4
loop_
_atom_type_symbol
_atom_type_radius_bond
C 0.68
H 0.23
N 0.68
O 0.68
loop_
_atom_site_label
_atom_site_type_symbol
_atom_site_fract_x
_atom_site_fract_y
_atom_site_fract_z
C1 C 0.3436(4) 0.2052(4) 0.6762(8)
C2 C 0.4174(4) 0.2010(4) 0.8292(8)
C3 C 0.4986(4) 0.2094(4) 0.7048(10)
C4 C 0.4283(4) 0.2187(5) 0.5487(10)
C5 C 0.4183(5) 0.0996(5) 0.9195(10)
C6 C 0.4126(5) 0.2908(5) 0.9598(9)
C7 C 0.4361(5) 0.3233(6) 0.4717(11)
C8 C 0.4447(6) 0.1333(6) 0.4191(11)
C9 C 0.1670(5) 0.1915(4) 0.5450(9)
C10 C 0.1350(9) 0.0853(7) 0.5256(15)
C11 C 0.2035(8) 0.2224(11) 0.3822(15)
C12 C 0.0828(7) 0.2571(9) 0.5939(14)
N1 N 0.2460(3) 0.1953(3) 0.6901(7)
N2 N 0.5946(4) 0.2067(4) 0.7397(8)
O1 O 0.2076(3) 0.1816(3) 0.8399(6)
O2 O 0.6508(3) 0.2142(4) 0.5917(8)
C13 C 0.1959(4) 0.5167(4) 0.9468(9)
C14 C 0.1892(4) 0.5687(4) 1.1189(8)
C15 C 0.1958(4) 0.6663(4) 1.0205(8)
C16 C 0.2116(4) 0.6123(4) 0.8484(8)
C17 C 0.2794(5) 0.5463(4) 1.2414(9)
C18 C 0.0892(4) 0.5523(4) 1.2067(10)
C19 C 0.1329(5) 0.6254(5) 0.7020(9)
C20 C 0.3197(4) 0.6175(5) 0.7781(10)
C21 C 0.1716(5) 0.8538(4) 0.9842(10)
C22 C 0.0604(5) 0.8569(5) 0.9211(11)
C23 C 0.2469(5) 0.8575(5) 0.8440(12)
C24 C 0.1901(6) 0.9425(4) 1.1136(11)
N3 N 0.1815(3) 0.7551(3) 1.0867(7)
N4 N 0.1909(3) 0.4274(3) 0.8822(7)
O3 O 0.1687(3) 0.7654(3) 1.2505(6)
O4 O 0.1719(3) 0.3559(3) 1.0091(6)
H1 H 0.35700 0.09830 1.00830
H2 H 0.48970 0.09140 0.98820
H3 H 0.40900 0.03790 0.82820
H4 H 0.41190 0.36180 0.89340
H5 H 0.47760 0.28860 1.04610
H6 H 0.34400 0.28380 1.03140
H7 H 0.38510 0.32730 0.36230
H8 H 0.51290 0.33640 0.43220
H9 H 0.41570 0.38040 0.56500
H10 H 0.39260 0.14300 0.31220
H11 H 0.43100 0.06100 0.47670
H12 H 0.52160 0.13610 0.37540
H13 H 0.10880 0.06270 0.64880
H14 H 0.19680 0.03700 0.48790
H15 H 0.07360 0.07860 0.43250
H16 H 0.26590 0.17550 0.34240
H17 H 0.22880 0.30000 0.39610
H18 H 0.14290 0.21770 0.28740
H19 H 0.05450 0.23240 0.71450
H20 H 0.02280 0.25230 0.49780
H21 H 0.10880 0.33450 0.60650
H22 H 0.34920 0.55880 1.17570
H23 H 0.27600 0.46860 1.28190
H24 H 0.27650 0.59630 1.35160
H25 H 0.02750 0.56820 1.11830
H26 H 0.08460 0.60230 1.31660
H27 H 0.08420 0.47470 1.24700
H28 H 0.05720 0.62100 0.75140
H29 H 0.14310 0.56560 0.60840
H30 H 0.14340 0.69800 0.64320
H31 H 0.37410 0.60900 0.88190
H32 H 0.33050 0.69000 0.71940
H33 H 0.33020 0.55770 0.68460
H34 H 0.04710 0.92360 0.84580
H35 H 0.01220 0.85870 1.03050
H36 H 0.04360 0.79010 0.84430
H37 H 0.23230 0.79610 0.75390
H38 H 0.32260 0.85020 0.89780
H39 H 0.24020 0.92890 0.77950
H40 H 0.18390 1.01400 1.04900
H41 H 0.26550 0.93500 1.16840
H42 H 0.13530 0.93990 1.21360
H43 H 0.71940 0.22190 0.65140
H44 H 0.18530 0.29030 0.94580
#END
