
#######################################################################
#
#                 Cambridge Crystallographic Data Centre
#                                CCDC
#
#######################################################################
#
# If this CIF has been generated from an entry in the Cambridge
# Structural Database, then it will include bibliographic, chemical,
# crystal, experimental, refinement or atomic coordinate data resulting
# from the CCDC's data processing and validation procedures.
#
#######################################################################

data_CSD_CIF_SADLAM
_audit_creation_date 2011-01-20
_audit_creation_method CSD-ConQuest-V1
_database_code_CSD SADLAM
_database_code_depnum_ccdc_archive 'CCDC 745589'
_chemical_formula_sum 'C17 H17 N3 O6'
_chemical_formula_moiety
;
C17 H17 N3 O6
;
_journal_coden_Cambridge 1096
_journal_volume 22
_journal_year 2010
_journal_page_first 2720
_journal_name_full 'Chem.Mater. '
loop_
_publ_author_name
"K.Schreiter"
"K.Hofmann"
"A.Seifert"
"A.Oehlke"
"K.Ladewig"
"T.Rueffer"
"H.Lang"
"S.Spange"
_chemical_name_systematic
;
2-((2-Nitro-4-(2-(4-nitrophenyl)vinyl)phenyl)amino)propane-1,3-diol
;
_cell_volume   1591.899
_exptl_crystal_colour 'red'
_exptl_crystal_density_diffrn 1.499
_exptl_crystal_description 'needle'
_diffrn_ambient_temperature 100
#These two values have been output from a single CSD field.
_refine_ls_R_factor_gt 0.0821
_refine_ls_wR_factor_gt 0.0821
_symmetry_cell_setting monoclinic
_symmetry_space_group_name_H-M 'P 21/n'
_symmetry_Int_Tables_number 14
loop_
_symmetry_equiv_pos_site_id
_symmetry_equiv_pos_as_xyz
1 x,y,z
2 1/2-x,1/2+y,1/2-z
3 -x,-y,-z
4 -1/2+x,-1/2-y,-1/2+z
_cell_length_a 6.6544(3)
_cell_length_b 14.0082(5)
_cell_length_c 17.2852(7)
_cell_angle_alpha 90
_cell_angle_beta 98.891(4)
_cell_angle_gamma 90
_cell_formula_units_Z 4
loop_
_atom_type_symbol
_atom_type_radius_bond
C 0.68
H 0.23
N 0.68
O 0.68
loop_
_atom_site_label
_atom_site_type_symbol
_atom_site_fract_x
_atom_site_fract_y
_atom_site_fract_z
C1 C 0.8049(5) 0.2529(3) -0.2880(2)
C2 C 0.8203(5) 0.1838(3) -0.2304(2)
H1 H 0.82690 0.11960 -0.24350
C3 C 0.8259(5) 0.2108(3) -0.1530(2)
H2 H 0.83720 0.16430 -0.11420
C4 C 0.8148(5) 0.3069(3) -0.1322(2)
C5 C 0.8003(5) 0.3754(3) -0.1918(2)
H3 H 0.79250 0.43970 -0.17920
C6 C 0.7973(5) 0.3486(3) -0.2701(2)
H4 H 0.79040 0.39460 -0.30920
C7 C 0.8149(5) 0.3309(2) -0.0496(2)
H5 H 0.84290 0.28210 -0.01290
C8 C 0.7780(5) 0.4170(3) -0.0235(2)
H6 H 0.75710 0.46520 -0.06080
C9 C 0.7660(5) 0.4452(2) 0.0571(2)
C10 C 0.7880(5) 0.3811(2) 0.1218(2)
H7 H 0.81290 0.31690 0.11330
C11 C 0.7735(5) 0.4109(2) 0.1959(2)
H8 H 0.79030 0.36650 0.23640
C12 C 0.7337(5) 0.5074(3) 0.2132(2)
C13 C 0.7162(5) 0.5711(2) 0.1481(2)
C14 C 0.7300(5) 0.5396(2) 0.0727(2)
H9 H 0.71450 0.58350 0.03180
C15 C 0.9663(6) 0.4624(2) 0.3871(2)
H10 H 1.03690 0.43950 0.34570
H11 H 1.02240 0.52420 0.40400
C16 C 0.6215(6) 0.5152(3) 0.4152(2)
H12 H 0.47740 0.50960 0.39550
H13 H 0.64950 0.47920 0.46360
C17 C 0.7422(5) 0.4730(3) 0.3558(2)
H14 H 0.68660 0.40980 0.34050
N1 N 0.8016(5) 0.2245(2) -0.3693(2)
N2 N 0.7147(5) 0.5346(2) 0.28659(18)
N3 N 0.6897(4) 0.6716(2) 0.15690(19)
O1 O 0.7805(4) 0.1396(2) -0.38578(16)
O2 O 0.8217(5) 0.2875(2) -0.41723(18)
O3 O 0.9987(4) 0.39736(18) 0.45137(15)
O4 O 0.6700(4) 0.6126(2) 0.43070(17)
O5 O 0.6754(4) 0.70497(17) 0.22294(16)
O6 O 0.6820(4) 0.72370(17) 0.09876(16)
H15 H 0.695(7) 0.591(4) 0.302(3)
H16 H 0.934(6) 0.339(3) 0.439(2)
H17 H 0.774(6) 0.614(3) 0.461(2)
#END
