
#######################################################################
#
#                 Cambridge Crystallographic Data Centre
#                                CCDC
#
#######################################################################
#
# If this CIF has been generated from an entry in the Cambridge
# Structural Database, then it will include bibliographic, chemical,
# crystal, experimental, refinement or atomic coordinate data resulting
# from the CCDC's data processing and validation procedures.
#
#######################################################################

data_CSD_CIF_SADNET
_audit_creation_date 2015-12-31
_audit_creation_method CSD-ConQuest-V1
_database_code_CSD SADNET
_database_code_depnum_ccdc_archive 'CCDC 1410471'
_chemical_formula_sum 'C24 H22 N2 O1'
_chemical_formula_moiety
;
C24 H22 N2 O1
;
_journal_coden_Cambridge 16
_journal_volume 72
_journal_year 2016
_journal_page_first 900
_journal_name_full 'Tetrahedron '
loop_
_publ_author_name
"Gagandeep Singh"
"S.Sharma"
"V.Gupta"
"T.Raj"
"P.Singh"
"M.P.S.Ishar"
_chemical_name_systematic
;
3-(5-Methyl-2,5-diphenyl-1,2-oxazolidin-3-yl)-1H-indole
;
_cell_volume   1926.734
_exptl_crystal_colour 'white'
_exptl_crystal_density_diffrn 1.222
_exptl_crystal_description 'block'
_diffrn_ambient_temperature 293
#These two values have been output from a single CSD field.
_refine_ls_R_factor_gt 0.0458
_refine_ls_wR_factor_gt 0.0458
_symmetry_cell_setting monoclinic
_symmetry_space_group_name_H-M 'P 21/n'
_symmetry_Int_Tables_number 14
loop_
_symmetry_equiv_pos_site_id
_symmetry_equiv_pos_as_xyz
1 x,y,z
2 1/2-x,1/2+y,1/2-z
3 -x,-y,-z
4 -1/2+x,-1/2-y,-1/2+z
_cell_length_a 11.3715(6)
_cell_length_b 10.4415(7)
_cell_length_c 16.2275(9)
_cell_angle_alpha 90
_cell_angle_beta 90.398(6)
_cell_angle_gamma 90
_cell_formula_units_Z 4
loop_
_atom_type_symbol
_atom_type_radius_bond
C 0.68
H 0.23
N 0.68
O 0.68
loop_
_atom_site_label
_atom_site_type_symbol
_atom_site_fract_x
_atom_site_fract_y
_atom_site_fract_z
O1 O 0.36564(11) 0.82238(14) 0.06368(8)
N1 N 0.35714(13) 0.82293(17) -0.02604(10)
C1 C 0.46383(16) 0.76921(19) -0.05618(13)
C2 C 0.18364(17) 0.9252(2) -0.16533(13)
C3 C 0.1668(2) 0.9841(2) -0.24245(14)
C4 C 0.28451(17) 0.9827(2) -0.12811(14)
C5 C 0.66461(18) 0.6551(2) -0.11975(15)
H1 H 0.73180 0.61680 -0.14080
C6 C 0.10292(18) 0.8314(2) -0.14093(15)
H2 H 0.11210 0.78960 -0.09070
C7 C 0.33295(16) 0.96100(19) -0.04373(13)
H3 H 0.40560 1.01040 -0.03680
C8 C 0.15616(17) 0.7962(2) 0.09081(13)
N2 N 0.25517(19) 1.0729(2) -0.25130(14)
C9 C 0.24707(17) 0.9959(2) 0.02542(13)
H4 H 0.16700 0.99980 0.00450
H5 H 0.26720 1.07820 0.04940
C10 C 0.49172(18) 0.7828(2) -0.13894(14)
H6 H 0.44260 0.82970 -0.17360
C11 C 0.53684(18) 0.6971(2) -0.00636(14)
H7 H 0.51900 0.68620 0.04900
C12 C 0.26033(17) 0.8882(2) 0.08947(13)
C13 C 0.59225(18) 0.7267(2) -0.16982(15)
H8 H 0.61110 0.73760 -0.22510
C14 C 0.04347(18) 0.8430(2) 0.10295(14)
H9 H 0.03170 0.93090 0.10730
C15 C 0.32433(19) 1.0724(2) -0.18240(15)
H10 H 0.38900 1.12530 -0.17370
C16 C 0.28770(17) 0.9363(2) 0.17598(13)
H11 H 0.30320 0.86460 0.21150
H12 H 0.22160 0.98350 0.19650
H13 H 0.35550 0.99090 0.17460
C17 C 0.0745(2) 0.9537(2) -0.29462(15)
H14 H 0.06580 0.99340 -0.34560
C18 C -0.0035(2) 0.8632(3) -0.26858(17)
H15 H -0.06690 0.84160 -0.30230
C19 C 0.1714(2) 0.6660(2) 0.08476(16)
H16 H 0.24630 0.63280 0.07670
C20 C 0.0100(2) 0.8020(2) -0.19215(17)
H17 H -0.04460 0.74080 -0.17590
C21 C 0.0764(2) 0.5841(2) 0.09050(18)
H18 H 0.08790 0.49620 0.08590
C22 C -0.0516(2) 0.7612(3) 0.10871(17)
H19 H -0.12660 0.79430 0.11650
C23 C 0.63639(19) 0.6409(2) -0.03858(15)
H20 H 0.68510 0.59260 -0.00440
C24 C -0.0354(2) 0.6317(3) 0.10296(18)
H21 H -0.09910 0.57630 0.10740
H22 H 0.257(2) 1.118(2) -0.2918(15)
#END
