
#######################################################################
#
#                 Cambridge Crystallographic Data Centre
#                                CCDC
#
#######################################################################
#
# If this CIF has been generated from an entry in the Cambridge
# Structural Database, then it will include bibliographic, chemical,
# crystal, experimental, refinement or atomic coordinate data resulting
# from the CCDC's data processing and validation procedures.
#
#######################################################################

data_CSD_CIF_SADNAP
_audit_creation_date 2015-12-31
_audit_creation_method CSD-ConQuest-V1
_database_code_CSD SADNAP
_database_code_depnum_ccdc_archive 'CCDC 1410260'
_chemical_formula_sum 'C15 H12 N2 O1'
_chemical_formula_moiety
;
C15 H12 N2 O1
;
_journal_coden_Cambridge 16
_journal_volume 72
_journal_year 2016
_journal_page_first 900
_journal_name_full 'Tetrahedron '
loop_
_publ_author_name
"Gagandeep Singh"
"S.Sharma"
"V.Gupta"
"T.Raj"
"P.Singh"
"M.P.S.Ishar"
_chemical_name_systematic
;
N-(1H-Indol-3-ylmethylene)-N-phenylimine oxide
;
_cell_volume   5002.467
_exptl_crystal_colour 'white'
_exptl_crystal_density_diffrn 1.255
_exptl_crystal_description 'block'
_diffrn_ambient_temperature 293
#These two values have been output from a single CSD field.
_refine_ls_R_factor_gt 0.0375
_refine_ls_wR_factor_gt 0.0375
_symmetry_cell_setting tetragonal
_symmetry_space_group_name_H-M 'I -4'
_symmetry_Int_Tables_number 82
loop_
_symmetry_equiv_pos_site_id
_symmetry_equiv_pos_as_xyz
1 x,y,z
2 -x,-y,z
3 y,-x,-z
4 -y,x,-z
5 1/2+x,1/2+y,1/2+z
6 1/2-x,1/2-y,1/2+z
7 1/2+y,1/2-x,1/2-z
8 1/2-y,1/2+x,1/2-z
_cell_length_a 17.6144(6)
_cell_length_b 17.6144(6)
_cell_length_c 16.1231(8)
_cell_angle_alpha 90
_cell_angle_beta 90
_cell_angle_gamma 90
_cell_formula_units_Z 16
loop_
_atom_type_symbol
_atom_type_radius_bond
C 0.68
H 0.23
N 0.68
O 0.68
loop_
_atom_site_label
_atom_site_type_symbol
_atom_site_fract_x
_atom_site_fract_y
_atom_site_fract_z
N1 N 0.63079(13) 0.29244(14) 0.06563(16)
C1 C 0.61464(17) 0.35808(16) -0.06541(19)
C2 C 0.62138(17) 0.29229(17) -0.01530(19)
H1 H 0.61900 0.24540 -0.04170
C3 C 0.64219(17) 0.22351(17) 0.1135(2)
N2 N 0.61084(14) 0.47824(16) -0.11114(18)
C4 C 0.61408(17) 0.35707(17) -0.15537(19)
C5 C 0.61258(18) 0.43308(18) -0.1814(2)
C6 C 0.61317(16) 0.43390(17) -0.0430(2)
H2 H 0.61370 0.45170 0.01130
C7 C 0.61721(19) 0.30033(19) -0.21503(19)
H3 H 0.61760 0.24940 -0.19970
C8 C 0.6145(2) 0.45409(19) -0.2640(2)
H4 H 0.61330 0.50480 -0.27990
C9 C 0.6197(2) 0.3210(2) -0.2975(2)
H5 H 0.62220 0.28340 -0.33790
C10 C 0.6185(2) 0.3965(2) -0.3215(2)
H6 H 0.62030 0.40850 -0.37770
C11 C 0.6655(3) 0.0970(2) 0.2104(2)
H7 H 0.67310 0.05410 0.24310
C12 C 0.66937(19) 0.15843(19) 0.07790(19)
H8 H 0.67980 0.15670 0.02140
C13 C 0.6812(2) 0.0953(2) 0.1270(2)
H9 H 0.70000 0.05100 0.10330
C14 C 0.6275(2) 0.2263(2) 0.1966(2)
H10 H 0.61010 0.27090 0.22090
C15 C 0.6388(3) 0.1623(2) 0.2443(2)
H11 H 0.62790 0.16400 0.30070
O1 O 0.62962(11) 0.35674(12) 0.10856(11)
H12 H 0.6177(18) 0.534(2) -0.112(2)
C16 C 0.64611(17) 0.10828(16) -0.31241(18)
N3 N 0.71429(13) 0.12753(14) -0.18335(17)
N4 N 0.52602(16) 0.10802(14) -0.35687(19)
C17 C 0.71312(16) 0.11748(17) -0.2635(2)
H13 H 0.75950 0.11620 -0.29100
C18 C 0.64621(17) 0.09232(17) -0.39993(19)
C19 C 0.78432(17) 0.13957(18) -0.13765(18)
C20 C 0.57102(18) 0.11685(17) -0.2902(2)
H14 H 0.55400 0.12720 -0.23680
C21 C 0.57036(17) 0.09298(16) -0.4257(2)
C22 C 0.70212(18) 0.07638(18) -0.4587(2)
H15 H 0.75310 0.07650 -0.44360
C23 C 0.54842(19) 0.07814(18) -0.5065(2)
H16 H 0.49770 0.07940 -0.52240
C24 C 0.6814(2) 0.0605(2) -0.5387(2)
H17 H 0.71860 0.04910 -0.57770
C25 C 0.6053(2) 0.06131(19) -0.5624(2)
H18 H 0.59260 0.05020 -0.61710
C26 C 0.9131(2) 0.1626(3) -0.0459(2)
H19 H 0.95720 0.17060 -0.01540
C27 C 0.8603(2) 0.2192(2) -0.0521(2)
H20 H 0.86810 0.26520 -0.02510
C28 C 0.7951(2) 0.20803(19) -0.0986(2)
H21 H 0.75910 0.24640 -0.10330
C29 C 0.83708(19) 0.08305(19) -0.1315(2)
H22 H 0.82970 0.03720 -0.15890
C30 C 0.9017(2) 0.0947(2) -0.0841(2)
H23 H 0.93720 0.05600 -0.07840
O2 O 0.65146(12) 0.12915(11) -0.13778(12)
H24 H 0.4754(17) 0.1151(15) -0.3578(18)
#END
