
#######################################################################
#
#                 Cambridge Crystallographic Data Centre
#                                CCDC
#
#######################################################################
#
# If this CIF has been generated from an entry in the Cambridge
# Structural Database, then it will include bibliographic, chemical,
# crystal, experimental, refinement or atomic coordinate data resulting
# from the CCDC's data processing and validation procedures.
#
#######################################################################

data_CSD_CIF_SADVAW
_audit_creation_date 2012-01-25
_audit_creation_method CSD-ConQuest-V1
_database_code_CSD SADVAW
_database_code_depnum_ccdc_archive 'CCDC 862243'
_chemical_formula_sum 'C7 H12 N4 O2'
_chemical_formula_moiety
;
C7 H12 N4 O2
;
_journal_coeditor_code "IUCr UK3034"
_journal_coden_Cambridge 591
_journal_volume 67
_journal_year 2011
_journal_page_first o505
_journal_name_full 'Acta Crystallogr.,Sect.C:Cryst.Struct.Commun. '
loop_
_publ_author_name
"A.Rivera"
"D.Quiroga"
"J.Rios-Motta"
"K.Fejfarova"
"M.Dusek"
_chemical_name_systematic
;
(3aRS,7aRS)-1,3-dinitroso-2,3,3a,4,5,6,7,7a-octahydro-1H-benzimidazole
;
_chemical_name_common
;
1,3-Dinitrosooctahydro-1H-benzimidazole
;
_cell_volume    878.196
_exptl_crystal_colour 'colorless'
_exptl_crystal_density_diffrn 1.393
_exptl_crystal_description 'plate'
_diffrn_ambient_temperature 120
_refine_special_details
;
C5A,C6A,C7A,C8A,N3A,N4A,O2A and C5B,C6B,C7B,C8B,N3B, N4B,O2B disordered over 
two sites with occupancies 0.747:0.253.
;
#These two values have been output from a single CSD field.
_refine_ls_R_factor_gt 0.0403
_refine_ls_wR_factor_gt 0.0403
_symmetry_cell_setting monoclinic
_symmetry_space_group_name_H-M 'P 2/c'
_symmetry_Int_Tables_number 13
loop_
_symmetry_equiv_pos_site_id
_symmetry_equiv_pos_as_xyz
1 x,y,z
2 -x,y,1/2-z
3 -x,-y,-z
4 x,-y,-1/2+z
_cell_length_a 10.8128(8)
_cell_length_b 8.4293(4)
_cell_length_c 10.9321(9)
_cell_angle_alpha 90
_cell_angle_beta 118.192(8)
_cell_angle_gamma 90
_cell_formula_units_Z 4
loop_
_atom_type_symbol
_atom_type_radius_bond
C 0.68
H 0.23
N 0.68
O 0.68
loop_
_atom_site_label
_atom_site_type_symbol
_atom_site_fract_x
_atom_site_fract_y
_atom_site_fract_z
O1 O 0.82871(14) 0.35148(13) 0.49054(13)
N1 N 0.94408(6) 0.53528(13) 0.63361(13)
N2 N 0.85648(16) 0.49615(16) 0.50649(14)
C1 C 1.00000 0.42468(12) 0.75000
C2 C 0.9961(2) 0.69770(18) 0.67919(16)
C3 C 0.9105(2) 0.83710(17) 0.59407(18)
C4 C 0.9873(2) 0.98577(19) 0.67535(19)
H1 H 0.92437 0.36529 0.75027
H2 H 1.08054 0.71528 0.67274
H3 H 0.81844 0.83312 0.58667
H4 H 0.90876 0.83685 0.50547
H5 H 0.93458 1.07845 0.62850
H6 H 1.07528 0.99570 0.67444
O2 O 0.6431(4) 0.35254(17) 0.1192(5)
N3 N 0.58317(10) 0.5367(3) 0.21626(10)
N4 N 0.6542(4) 0.4976(3) 0.1525(4)
C5 C 0.50000 0.42546(18) 0.25000
C6 C 0.5741(2) 0.6984(3) 0.2605(2)
C7 C 0.6020(3) 0.8380(3) 0.1913(3)
C8 C 0.5719(3) 0.9873(3) 0.2520(3)
H7 H 0.44171 0.36344 0.16945
H8 H 0.64917 0.71467 0.35273
H9 H 0.53986 0.83401 0.09321
H10 H 0.69874 0.83745 0.21197
H11 H 0.64415 1.00130 0.34602
H12 H 0.58124 1.07909 0.20499
C9? C 0.50000 0.4180(4) 0.25000
C10? C 0.5001(2) 0.6909(5) 0.1811(2)
C11? C 0.5787(4) 0.8305(5) 0.1663(3)
C12? C 0.5089(3) 0.9799(5) 0.1844(2)
H13? H 0.57766 0.35597 0.31529
H14? H 0.41243 0.70720 0.09875
H15? H 0.67465 0.82654 0.23782
H16? H 0.57134 0.82998 0.07529
H17? H 0.41888 0.99382 0.10434
H18? H 0.56083 1.07162 0.18310
N5? N 0.54902(11) 0.5292(5) 0.17961(9)
N6? N 0.6284(4) 0.4901(5) 0.1249(3)
O3? O 0.6626(5) 0.3451(4) 0.1401(4)
O1A O 1.17129(14) 0.35148(13) 1.00946(13)
N1A N 1.05592(6) 0.53528(13) 0.86639(13)
N2A N 1.14352(16) 0.49615(16) 0.99351(14)
C2A C 1.0039(2) 0.69770(18) 0.82081(16)
C3A C 1.0895(2) 0.83710(17) 0.90593(18)
C4A C 1.0127(2) 0.98577(19) 0.82465(19)
H1A H 1.07563 0.36529 0.74973
H2A H 0.91946 0.71528 0.82726
H3A H 1.18155 0.83312 0.91333
H4A H 1.09124 0.83685 0.99453
H5A H 1.06542 1.07845 0.87150
H6A H 0.92472 0.99570 0.82556
O2A O 0.3569(4) 0.35254(17) 0.3808(5)
N3A N 0.41683(10) 0.5367(3) 0.28374(10)
N4A N 0.3458(4) 0.4976(3) 0.3475(4)
C6A C 0.4259(2) 0.6984(3) 0.2395(2)
C7A C 0.3980(3) 0.8380(3) 0.3087(3)
C8A C 0.4281(3) 0.9873(3) 0.2480(3)
H7A H 0.55829 0.36344 0.33055
H8A H 0.35083 0.71467 0.14727
H9A H 0.46014 0.83401 0.40679
H10A H 0.30126 0.83745 0.28803
H11A H 0.35585 1.00130 0.15398
H12A H 0.41876 1.07909 0.29501
#END
