
#######################################################################
#
#                 Cambridge Crystallographic Data Centre
#                                CCDC
#
#######################################################################
#
# If this CIF has been generated from an entry in the Cambridge
# Structural Database, then it will include bibliographic, chemical,
# crystal, experimental, refinement or atomic coordinate data resulting
# from the CCDC's data processing and validation procedures.
#
#######################################################################

data_CSD_CIF_SAFFIR
_audit_creation_date 2015-12-31
_audit_creation_method CSD-ConQuest-V1
_database_code_CSD SAFFIR
_database_code_depnum_ccdc_archive 'CCDC 1047200'
_chemical_formula_sum 'C16 H22 N2 O1'
_chemical_formula_moiety
;
C16 H22 N2 O1
;
_journal_coden_Cambridge 1220
_journal_volume 21
_journal_year 2015
_journal_page_first 16059
_journal_name_full 'Chem.-Eur.J. '
loop_
_publ_author_name
"Yiming Li"
"Weisi Xie"
"Xuefeng Jiang"
_chemical_name_systematic
;
4-((2,2,6,6-Tetramethylpiperidin-1-yl)oxy)benzonitrile
;
_cell_volume   1488.204
_exptl_crystal_colour 'colorless'
_exptl_crystal_density_diffrn 1.153
_exptl_crystal_description 'block'
_diffrn_ambient_temperature 296
#These two values have been output from a single CSD field.
_refine_ls_R_factor_gt 0.0448
_refine_ls_wR_factor_gt 0.0448
_symmetry_cell_setting monoclinic
_symmetry_space_group_name_H-M 'P 21/c'
_symmetry_Int_Tables_number 14
loop_
_symmetry_equiv_pos_site_id
_symmetry_equiv_pos_as_xyz
1 x,y,z
2 -x,1/2+y,1/2-z
3 -x,-y,-z
4 x,-1/2-y,-1/2+z
_cell_length_a 10.9860(4)
_cell_length_b 17.7562(7)
_cell_length_c 7.6511(3)
_cell_angle_alpha 90
_cell_angle_beta 94.347(1)
_cell_angle_gamma 90
_cell_formula_units_Z 4
loop_
_atom_type_symbol
_atom_type_radius_bond
C 0.68
H 0.23
N 0.68
O 0.68
loop_
_atom_site_label
_atom_site_type_symbol
_atom_site_fract_x
_atom_site_fract_y
_atom_site_fract_z
O1 O 0.60883(9) 0.08462(6) 0.82731(16)
N1 N 0.71787(11) 0.11273(7) 0.75098(17)
N2 N 0.11386(16) 0.30752(11) 0.7723(3)
C1 C 0.30522(14) 0.22285(10) 0.7977(2)
C2 C 0.30140(15) 0.1495(1) 0.8596(3)
H1 H 0.22860 0.12990 0.89480
C3 C 0.40471(14) 0.10577(10) 0.8692(2)
H2 H 0.40200 0.05690 0.91250
C4 C 0.51297(13) 0.13416(9) 0.8146(2)
C5 C 0.51808(14) 0.20728(10) 0.7541(2)
H3 H 0.59090 0.22670 0.71860
C6 C 0.41463(15) 0.25113(10) 0.7469(2)
H4 H 0.41820 0.30050 0.70730
C7 C 0.81586(14) 0.11523(9) 0.8962(2)
C8 C 0.93177(15) 0.13939(12) 0.8138(3)
H5 H 0.92210 0.19100 0.77330
H6 H 0.99950 0.13820 0.90280
C9 C 0.96250(18) 0.09052(14) 0.6623(3)
H7 H 0.97920 0.03950 0.70270
H8 H 1.03480 0.10970 0.61200
C10 C 0.85599(18) 0.09061(13) 0.5257(3)
H9 H 0.87520 0.05800 0.42990
H10 H 0.84530 0.14120 0.47920
C11 C 0.73496(17) 0.06449(10) 0.5944(2)
C12 C 0.7345(2) -0.02068(11) 0.6270(3)
H11 H 0.65750 -0.03530 0.66830
H12 H 0.79910 -0.03340 0.71340
H13 H 0.74650 -0.04670 0.51960
C13 C 0.6306(2) 0.08405(13) 0.4587(3)
H14 H 0.55460 0.06790 0.50040
H15 H 0.64310 0.05900 0.35030
H16 H 0.62860 0.13750 0.44020
C14 C 0.78076(19) 0.17669(12) 1.0221(3)
H17 H 0.76700 0.22300 0.95900
H18 H 0.84560 0.18340 1.11210
H19 H 0.70760 0.16230 1.07450
C15 C 0.83699(16) 0.04250(11) 1.0018(2)
H20 H 0.85940 0.00280 0.92530
H21 H 0.76340 0.02890 1.05420
H22 H 0.90140 0.05020 1.09200
C16 C 0.19756(17) 0.26995(11) 0.7851(3)
#END
