
#######################################################################
#
#                 Cambridge Crystallographic Data Centre
#                                CCDC
#
#######################################################################
#
# If this CIF has been generated from an entry in the Cambridge
# Structural Database, then it will include bibliographic, chemical,
# crystal, experimental, refinement or atomic coordinate data resulting
# from the CCDC's data processing and validation procedures.
#
#######################################################################

data_CSD_CIF_SAFJIT
_audit_creation_date 2004-12-07
_audit_creation_method CSD-ConQuest-V1
_database_code_CSD SAFJIT
_database_code_depnum_ccdc_archive 'CCDC 232911'
_chemical_formula_sum 'C13 H16 N5 O2'
_chemical_formula_moiety
;
C13 H16 N5 O2
;
_journal_coden_Cambridge 35
_journal_volume 69
_journal_year 2004
_journal_page_first 5247
_journal_name_full 'J.Org.Chem. '
loop_
_publ_author_name
"P.R.Serwinski"
"B.Esat"
"P.M.Lahti"
"Yi Liao"
"R.Walton"
"Jiang Lan"
_chemical_name_systematic
;
2-(3-Azidophenyl)-4,4,5,5-tetramethyl-1H-imidazoline-1-oxide-3-oxyl
;
_chemical_melting_point 353.15
_cell_volume   1389.610
_exptl_crystal_colour 'deep blue'
_exptl_crystal_density_diffrn 1.311
_exptl_special_details
;
Melting point range 353.15-354.15K
alpha orthorhombic polymorph

;
_exptl_crystal_description 'irregular needles'
_diffrn_ambient_temperature 298
#These two values have been output from a single CSD field.
_refine_ls_R_factor_gt 0.0349
_refine_ls_wR_factor_gt 0.0349
_symmetry_cell_setting orthorhombic
_symmetry_space_group_name_H-M 'P 21 21 21'
_symmetry_Int_Tables_number 19
loop_
_symmetry_equiv_pos_site_id
_symmetry_equiv_pos_as_xyz
1 x,y,z
2 1/2-x,-y,1/2+z
3 1/2+x,1/2-y,-z
4 -x,1/2+y,1/2-z
_cell_length_a 6.0831(2)
_cell_length_b 11.3917(5)
_cell_length_c 20.053(1)
_cell_angle_alpha 90
_cell_angle_beta 90
_cell_angle_gamma 90
_cell_formula_units_Z 4
loop_
_atom_type_symbol
_atom_type_radius_bond
C 0.68
H 0.23
N 0.68
O 0.68
loop_
_atom_site_label
_atom_site_type_symbol
_atom_site_fract_x
_atom_site_fract_y
_atom_site_fract_z
O1 O 1.0211(4) 0.0151(2) 0.40369(13)
O2 O 0.6047(5) 0.2707(2) 0.27826(12)
N1 N 0.8901(4) 0.0558(2) 0.35936(14)
N2 N 0.6938(4) 0.1764(2) 0.30079(13)
N3 N 0.6948(5) 0.5542(3) 0.44242(18)
N4 N 0.7380(5) 0.6336(3) 0.4815(2)
N5 N 0.7573(7) 0.7127(3) 0.5160(2)
C1 C 0.7503(5) -0.0248(3) 0.31761(16)
C2 C 0.6585(5) 0.0630(3) 0.26513(16)
C3 C 0.8365(5) 0.1693(3) 0.35115(16)
C4 C 0.9139(5) 0.2681(3) 0.39153(15)
C5 C 0.7789(5) 0.3655(3) 0.39961(16)
C6 C 0.8488(6) 0.4596(3) 0.43753(16)
C7 C 1.0561(6) 0.4604(3) 0.46570(16)
C8 C 1.1909(5) 0.3637(4) 0.45747(16)
C9 C 1.1215(5) 0.2680(3) 0.42071(16)
C10 C 0.5776(6) -0.0757(3) 0.36288(17)
C11 C 0.8917(6) -0.1233(3) 0.28934(18)
C12 C 0.4160(5) 0.0515(3) 0.24933(19)
C13 C 0.7899(6) 0.0704(3) 0.20060(18)
H1 H 0.63390 0.36910 0.38090
H2 H 1.10970 0.52590 0.49020
H3 H 1.32890 0.36500 0.47990
H4 H 1.22180 0.20300 0.41540
H5 H 0.48750 -0.01390 0.38000
H6 H 0.65010 -0.11490 0.39960
H7 H 0.49100 -0.13070 0.33870
H8 H 0.99930 -0.09010 0.26040
H9 H 0.80170 -0.17800 0.26510
H10 H 0.96080 -0.16220 0.32600
H11 H 0.34000 0.04660 0.29060
H12 H 0.39330 -0.02010 0.22420
H13 H 0.36670 0.11680 0.22380
H14 H 0.94280 0.08000 0.21250
H15 H 0.74370 0.13790 0.17540
H16 H 0.77030 0.00100 0.17570
#END
