
#######################################################################
#
#                 Cambridge Crystallographic Data Centre
#                                CCDC
#
#######################################################################
#
# If this CIF has been generated from an entry in the Cambridge
# Structural Database, then it will include bibliographic, chemical,
# crystal, experimental, refinement or atomic coordinate data resulting
# from the CCDC's data processing and validation procedures.
#
#######################################################################

data_CSD_CIF_SAFJAL
_audit_creation_date 2004-12-07
_audit_creation_method CSD-ConQuest-V1
_database_code_CSD SAFJAL
_database_code_depnum_ccdc_archive 'CCDC 232910'
_chemical_formula_sum 'C13 H16 N5 O2'
_chemical_formula_moiety
;
C13 H16 N5 O2
;
_journal_coden_Cambridge 35
_journal_volume 69
_journal_year 2004
_journal_page_first 5247
_journal_name_full 'J.Org.Chem. '
loop_
_publ_author_name
"P.R.Serwinski"
"B.Esat"
"P.M.Lahti"
"Yi Liao"
"R.Walton"
"Jiang Lan"
_chemical_name_systematic
;
2-(4-Azidophenyl)-4,4,5,5-tetramethyl-4,5-dihydro-1H-imidazole-3-oxide-1-oxyl
;
_chemical_melting_point 393.15
_cell_volume   1358.105
_exptl_crystal_colour 'dark blue'
_exptl_crystal_density_diffrn 1.342
_exptl_special_details
;
Melting point range 393.15-396.15K

;
_exptl_crystal_description 'prism'
_diffrn_ambient_temperature ?
_diffrn_special_details
;
The study was carried out at room temperature,in the range 283-303K

;
#These two values have been output from a single CSD field.
_refine_ls_R_factor_gt 0.0431
_refine_ls_wR_factor_gt 0.0431
_symmetry_cell_setting monoclinic
_symmetry_space_group_name_H-M 'P 21/c'
_symmetry_Int_Tables_number 14
loop_
_symmetry_equiv_pos_site_id
_symmetry_equiv_pos_as_xyz
1 x,y,z
2 x,1/2-y,1/2+z
3 -x,-y,-z
4 -x,-1/2+y,-1/2-z
_cell_length_a 9.730(1)
_cell_length_b 9.960(1)
_cell_length_c 14.294(1)
_cell_angle_alpha 90
_cell_angle_beta 101.36(1)
_cell_angle_gamma 90
_cell_formula_units_Z 4
loop_
_atom_type_symbol
_atom_type_radius_bond
C 0.68
H 0.23
N 0.68
O 0.68
loop_
_atom_site_label
_atom_site_type_symbol
_atom_site_fract_x
_atom_site_fract_y
_atom_site_fract_z
O1 O 0.42292(13) 0.77587(14) 0.29511(10)
N1 N 0.29863(15) 0.76728(16) 0.31115(11)
C1 C 0.23492(18) 0.85484(19) 0.36182(12)
O2 O 0.00948(14) 0.86349(15) 0.39943(11)
N2 N 0.10551(15) 0.80574(17) 0.36367(11)
C2 C 0.0888(2) 0.6647(2) 0.32782(14)
C3 C -0.0612(2) 0.6401(3) 0.27645(18)
H1 H -0.12240 0.64340 0.32160
H2 H -0.06780 0.55330 0.24660
H3 H -0.08830 0.70790 0.22870
C4 C 0.1266(3) 0.5761(2) 0.41590(17)
H4 H 0.05420 0.58190 0.45260
H5 H 0.21380 0.60590 0.45400
H6 H 0.13590 0.48480 0.39670
C5 C 0.1986(2) 0.6618(2) 0.26293(14)
C6 C 0.1422(2) 0.7142(2) 0.16174(15)
H7 H 0.21510 0.71040 0.12530
H8 H 0.11150 0.80530 0.16490
H9 H 0.06480 0.65950 0.13160
C7 C 0.2725(2) 0.5292(2) 0.25906(17)
H10 H 0.33890 0.53720 0.21780
H11 H 0.20490 0.46120 0.23490
H12 H 0.32070 0.50500 0.32200
C8 C 0.29154(18) 0.98163(19) 0.40296(12)
C9 C 0.2382(2) 1.0422(2) 0.47648(13)
H13 H 0.16810 0.99940 0.50120
C10 C 0.2885(2) 1.1649(2) 0.51272(13)
H14 H 0.25390 1.20390 0.56250
C11 C 0.39093(19) 1.23003(19) 0.47468(13)
C12 C 0.4435(2) 1.1722(2) 0.40117(14)
H15 H 0.51120 1.21690 0.37520
C13 C 0.39550(19) 1.0483(2) 0.36640(13)
H16 H 0.43280 1.00870 0.31800
N3 N 0.44717(18) 1.35843(18) 0.50593(12)
N4 N 0.39613(17) 1.41376(18) 0.56913(12)
N5 N 0.3574(2) 1.4755(2) 0.62474(14)
#END
