
#######################################################################
#
#                 Cambridge Crystallographic Data Centre
#                                CCDC
#
#######################################################################
#
# If this CIF has been generated from an entry in the Cambridge
# Structural Database, then it will include bibliographic, chemical,
# crystal, experimental, refinement or atomic coordinate data resulting
# from the CCDC's data processing and validation procedures.
#
#######################################################################

data_CSD_CIF_SAFMAQ
_audit_creation_date 2015-12-31
_audit_creation_method CSD-ConQuest-V1
_database_code_CSD SAFMAQ
_database_code_depnum_ccdc_archive 'CCDC 1413351'
_chemical_formula_sum 'C6 H3 N5 O4'
_chemical_formula_moiety
;
C6 H3 N5 O4
;
_journal_coden_Cambridge 1220
_journal_volume 21
_journal_year 2015
_journal_page_first 16073
_journal_name_full 'Chem.-Eur.J. '
loop_
_publ_author_name
"D.Ehlers"
"T.M.Klapotke"
"C.Pfluger"
_chemical_name_systematic
;
5,7-dinitro-1H-benzotriazole
;
_chemical_name_common
;
5,7-dinitrobenzo-1,2,3-triazole
;
_cell_volume    844.462
_exptl_crystal_colour 'yellow'
_exptl_crystal_density_diffrn 1.645
_exptl_crystal_description 'block'
_diffrn_ambient_temperature 293
#These two values have been output from a single CSD field.
_refine_ls_R_factor_gt 0.045
_refine_ls_wR_factor_gt 0.045
_symmetry_cell_setting orthorhombic
_symmetry_space_group_name_H-M 'P n a 21'
_symmetry_Int_Tables_number 33
loop_
_symmetry_equiv_pos_site_id
_symmetry_equiv_pos_as_xyz
1 x,y,z
2 -x,-y,1/2+z
3 1/2-x,1/2+y,1/2+z
4 1/2+x,1/2-y,z
_cell_length_a 14.7952(18)
_cell_length_b 6.3830(7)
_cell_length_c 8.9420(9)
_cell_angle_alpha 90
_cell_angle_beta 90
_cell_angle_gamma 90
_cell_formula_units_Z 4
loop_
_atom_type_symbol
_atom_type_radius_bond
C 0.68
H 0.23
N 0.68
O 0.68
loop_
_atom_site_label
_atom_site_type_symbol
_atom_site_fract_x
_atom_site_fract_y
_atom_site_fract_z
O1 O 0.4348(2) 0.0513(5) 0.7283(3)
N1 N 0.4634(2) 0.4887(5) 0.2988(4)
N2 N 0.3944(2) -0.0554(6) 0.6366(4)
O2 O 0.3603(2) -0.2278(5) 0.6627(4)
N3 N 0.4751(3) 0.3623(6) 0.5227(4)
O3 O 0.2745(2) -0.0442(6) -0.0056(4)
N4 N 0.4970(3) 0.5252(6) 0.4302(4)
C1 C 0.3725(3) 0.1918(6) 0.1894(5)
H1 H 0.36730 0.24480 0.09290
C2 C 0.3364(3) 0.0021(6) 0.2310(5)
C3 C 0.4178(3) 0.2986(6) 0.3033(4)
C4 C 0.3429(3) -0.0818(7) 0.3751(5)
H2 H 0.31670 -0.21070 0.39680
N5 N 0.2898(3) -0.1221(7) 0.1164(5)
C5 C 0.3878(3) 0.0262(6) 0.4837(4)
C6 C 0.4262(2) 0.2192(6) 0.4476(4)
O4 O 0.2706(3) -0.3037(7) 0.1459(6)
H3 H 0.492(3) 0.367(7) 0.615(7)
#END
