
#######################################################################
#
#                 Cambridge Crystallographic Data Centre
#                                CCDC
#
#######################################################################
#
# If this CIF has been generated from an entry in the Cambridge
# Structural Database, then it will include bibliographic, chemical,
# crystal, experimental, refinement or atomic coordinate data resulting
# from the CCDC's data processing and validation procedures.
#
#######################################################################

data_CSD_CIF_SAFQOH
_audit_creation_date 2012-01-25
_audit_creation_method CSD-ConQuest-V1
_database_code_CSD SAFQOH
_database_code_depnum_ccdc_archive 'CCDC 861740'
_chemical_formula_sum 'C14 H11 N3 O4'
_chemical_formula_moiety
;
C14 H11 N3 O4
;
_journal_coeditor_code "IUCr RZ2676"
_journal_coden_Cambridge 1370
_journal_volume 68
_journal_year 2012
_journal_page_first o20
_journal_name_full 'Acta Crystallogr.,Sect.E:Struct.Rep.Online '
loop_
_publ_author_name
"Xu-Feng Meng"
"Dong-Yue Wang"
"Jing-Jun Ma"
_chemical_name_systematic
;
(E)-N'-(4-Hydroxybenzylidene)-3-nitrobenzohydrazide
;
_cell_volume   1320.382
_exptl_crystal_colour 'yellow'
_exptl_crystal_density_diffrn 1.435
_exptl_crystal_description 'block'
_diffrn_ambient_temperature 298
#These two values have been output from a single CSD field.
_refine_ls_R_factor_gt 0.0432
_refine_ls_wR_factor_gt 0.0432
_symmetry_cell_setting monoclinic
_symmetry_space_group_name_H-M 'P 21/n'
_symmetry_Int_Tables_number 14
loop_
_symmetry_equiv_pos_site_id
_symmetry_equiv_pos_as_xyz
1 x,y,z
2 1/2-x,1/2+y,1/2-z
3 -x,-y,-z
4 -1/2+x,-1/2-y,-1/2+z
_cell_length_a 10.362(2)
_cell_length_b 12.178(3)
_cell_length_c 10.468(2)
_cell_angle_alpha 90
_cell_angle_beta 91.666(2)
_cell_angle_gamma 90
_cell_formula_units_Z 4
loop_
_atom_type_symbol
_atom_type_radius_bond
C 0.68
H 0.23
N 0.68
O 0.68
loop_
_atom_site_label
_atom_site_type_symbol
_atom_site_fract_x
_atom_site_fract_y
_atom_site_fract_z
N1 N 0.05181(12) 0.48482(12) 0.34202(13)
N2 N 0.14827(13) 0.55140(12) 0.39294(14)
N3 N 0.56139(14) 0.71802(15) 0.60566(14)
O1 O -0.27851(12) 0.07966(10) 0.13367(13)
H1 H -0.35100 0.10640 0.12730
O2 O 0.01462(11) 0.6968(1) 0.38555(12)
O3 O 0.57302(14) 0.61913(14) 0.62040(16)
O4 O 0.64912(12) 0.78320(13) 0.62796(14)
C1 C 0.01449(16) 0.19488(15) 0.27428(16)
H2 H 0.09460 0.17030 0.30470
C2 C -0.07416(16) 0.12048(15) 0.22597(17)
H3 H -0.05390 0.04610 0.22400
C3 C -0.19415(15) 0.15658(14) 0.18014(15)
C4 C -0.22330(16) 0.26705(14) 0.18248(16)
H4 H -0.30300 0.29160 0.15100
C5 C -0.13454(15) 0.34089(14) 0.23140(15)
H5 H -0.15520 0.41520 0.23330
C6 C -0.01402(15) 0.30600(14) 0.27822(14)
C7 C 0.07926(15) 0.38382(14) 0.33207(15)
H6 H 0.16030 0.35900 0.35960
C8 C 0.12135(15) 0.65778(14) 0.41169(14)
C9 C 0.22883(15) 0.72875(14) 0.46301(14)
C10 C 0.34487(15) 0.68786(14) 0.51232(14)
H7 H 0.36010 0.61260 0.51550
C11 C 0.43746(15) 0.76159(15) 0.55668(15)
C12 C 0.41881(18) 0.87291(16) 0.55569(17)
H8 H 0.48240 0.92020 0.58750
C13 C 0.30287(19) 0.91322(16) 0.5062(2)
H9 H 0.28800 0.98850 0.50380
C14 C 0.20934(17) 0.84119(15) 0.46041(17)
H10 H 0.13170 0.86890 0.42720
H11 H 0.2202(14) 0.5183(17) 0.4207(19)
#END
