
#######################################################################
#
#                 Cambridge Crystallographic Data Centre
#                                CCDC
#
#######################################################################
#
# If this CIF has been generated from an entry in the Cambridge
# Structural Database, then it will include bibliographic, chemical,
# crystal, experimental, refinement or atomic coordinate data resulting
# from the CCDC's data processing and validation procedures.
#
#######################################################################

data_CSD_CIF_SAFQUO
_audit_creation_date 2016-01-04
_audit_creation_method CSD-ConQuest-V1
_database_code_CSD SAFQUO
_database_code_depnum_ccdc_archive 'CCDC 1403763'
_chemical_formula_sum 'C30 H36 N2 O9'
_chemical_formula_moiety
;
C30 H36 N2 O9
;
_journal_coden_Cambridge 6
_journal_volume 528
_journal_year 2015
_journal_page_first 493
_journal_name_full 'Nature (London) '
loop_
_publ_author_name
"C.J.Marth"
"G.M.Gallego"
"Jack Chang Hung Lee"
"T.P.Lebold"
"S.Kulyk"
"K.G.M.Kou"
"Jason Qin"
"Ryan Lilien"
"R.Sarpong"
_chemical_name_systematic
;
methyl 
2,19,19-trimethoxy-18-((4-nitrobenzoyl)oxy)-7-azahexacyclo[7.6.2.2^10,13^.0^1,
8^.0^5,16^.0^10,15^]nonadec-11-ene-7-carboxylate
;
_cell_volume   5525.300
_exptl_crystal_colour 'colorless'
_exptl_crystal_density_diffrn 1.367
_exptl_crystal_description 'plate'
_diffrn_ambient_temperature 100
_diffrn_special_details
;
twin

;
#These two values have been output from a single CSD field.
_refine_ls_R_factor_gt 0.1549
_refine_ls_wR_factor_gt 0.1549
_symmetry_cell_setting monoclinic
_symmetry_space_group_name_H-M 'P 21/a'
_symmetry_Int_Tables_number 14
loop_
_symmetry_equiv_pos_site_id
_symmetry_equiv_pos_as_xyz
1 x,y,z
2 1/2-x,1/2+y,-z
3 -x,-y,-z
4 -1/2+x,-1/2-y,z
_cell_length_a 9.0579(6)
_cell_length_b 51.983(3)
_cell_length_c 11.7360(8)
_cell_angle_alpha 90
_cell_angle_beta 90.896(4)
_cell_angle_gamma 90
_cell_formula_units_Z 8
loop_
_atom_type_symbol
_atom_type_radius_bond
C 0.68
H 0.23
N 0.68
O 0.68
loop_
_atom_site_label
_atom_site_type_symbol
_atom_site_fract_x
_atom_site_fract_y
_atom_site_fract_z
C1 C -0.0197(8) 0.08826(11) 1.4473(7)
C2 C -0.0164(8) 0.11815(11) 1.4264(6)
H1 H 0.01730 0.12590 1.50030
C3 C -0.1526(9) 0.13389(11) 1.3879(7)
H2 H -0.20160 0.14160 1.45460
H3 H -0.22460 0.12280 1.34690
C4 C -0.0941(9) 0.15525(11) 1.3078(7)
H4 H -0.17290 0.16820 1.29060
C5 C 0.0402(9) 0.16806(11) 1.3656(7)
H5 H 0.01530 0.17300 1.44530
C6 C 0.1799(8) 0.14952(10) 1.3672(6)
C7 C 0.1132(8) 0.12211(10) 1.3427(7)
C8 C 0.1984(8) 0.09655(11) 1.3617(7)
H6 H 0.28030 0.09360 1.30700
C9 C 0.2420(8) 0.09247(11) 1.4878(7)
H7 H 0.27630 0.10880 1.52300
H8 H 0.32110 0.07940 1.49560
C10 C 0.0966(9) 0.08292(11) 1.5435(7)
H9 H 0.07430 0.09300 1.61380
C11 C 0.1012(9) 0.05406(12) 1.5684(6)
H10 H 0.17360 0.05120 1.63230
C12 C -0.0492(10) 0.04481(12) 1.6073(7)
H11 H -0.07740 0.05430 1.67680
H12 H -0.04360 0.02630 1.62660
C13 C -0.1662(9) 0.04895(13) 1.5142(7)
H13 H -0.26410 0.04410 1.54390
H14 H -0.14490 0.03760 1.44890
C14 C -0.1712(9) 0.07694(12) 1.4732(7)
H15 H -0.21780 0.08770 1.53360
C15 C 0.0658(8) 0.07761(11) 1.3478(7)
H16 H 0.01140 0.08100 1.27460
C16 C 0.1570(9) 0.03948(12) 1.4636(7)
H17 H 0.26630 0.03960 1.46500
H18 H 0.12420 0.02130 1.46790
C17 C -0.0472(10) 0.14176(12) 1.2007(7)
H19 H -0.08670 0.14540 1.12710
C18 C 0.0565(9) 0.12401(11) 1.2212(7)
H20 H 0.09250 0.11320 1.16260
C19 C 0.0626(10) 0.21374(12) 1.3562(7)
C20 C 0.1186(9) 0.23511(12) 1.2832(7)
C21 C 0.0784(10) 0.26014(12) 1.3164(7)
H21 H 0.01810 0.26270 1.38100
C22 C 0.1278(10) 0.28107(12) 1.2539(8)
H22 H 0.10080 0.29810 1.27400
C23 C 0.2166(10) 0.27649(13) 1.1625(7)
C24 C 0.2621(11) 0.25220(13) 1.1297(8)
H23 H 0.32670 0.24980 1.06760
C25 C 0.2086(10) 0.23115(12) 1.1924(8)
H24 H 0.23510 0.21410 1.17140
C26 C 0.4064(10) 0.14356(13) 1.2673(8)
H25 H 0.44920 0.13880 1.34160
H26 H 0.47800 0.15380 1.22490
H27 H 0.38170 0.12800 1.22420
C27 C 0.3104(11) 0.17374(12) 1.5105(7)
H28 H 0.38780 0.17910 1.45820
H29 H 0.35240 0.17200 1.58760
H30 H 0.23150 0.18660 1.51050
C28 C 0.1274(9) 0.03783(12) 1.2561(7)
C29 C 0.1944(12) -0.00204(14) 1.1787(9)
H31 H 0.10020 -0.00340 1.13680
H32 H 0.22670 -0.01920 1.20260
H33 H 0.26890 0.00560 1.12930
C30 C -0.4120(9) 0.07976(13) 1.3936(8)
H34 H -0.44010 0.06460 1.43820
H35 H -0.46880 0.08000 1.32180
H36 H -0.43280 0.09540 1.43710
N1 N 0.1047(7) 0.05049(10) 1.3562(6)
N2 N 0.266(1) 0.29889(12) 1.0952(7)
O1 O 0.0757(7) 0.19097(8) 1.3007(5)
O2 O 0.0148(9) 0.21662(9) 1.4492(6)
O3 O 0.2035(8) 0.31925(9) 1.1098(6)
O4 O 0.3684(11) 0.29569(12) 1.0311(7)
O5 O 0.2753(6) 0.15842(8) 1.2839(5)
O6 O 0.2512(6) 0.14942(8) 1.4741(4)
O7 O 0.1046(7) 0.04635(9) 1.1611(5)
O8 O 0.1761(7) 0.01381(9) 1.2768(6)
O9 O -0.2617(6) 0.07864(9) 1.3703(5)
C31 C 0.5923(8) 0.09021(11) 0.9471(6)
C32 C 0.5788(9) 0.11993(11) 0.9293(7)
H37 H 0.54420 0.12730 1.00300
C33 C 0.7094(9) 0.13662(11) 0.8919(7)
H38 H 0.78280 0.12610 0.85130
H39 H 0.75840 0.14470 0.95890
C34 C 0.6440(9) 0.15738(11) 0.8121(7)
H40 H 0.71870 0.17110 0.79660
C35 C 0.5053(9) 0.16902(10) 0.8663(6)
H41 H 0.53030 0.17380 0.94680
C36 C 0.3722(9) 0.14953(11) 0.8677(7)
C37 C 0.4454(8) 0.12275(11) 0.8406(7)
C38 C 0.3688(8) 0.0966(1) 0.8581(7)
H42 H 0.28690 0.09290 0.80240
C39 C 0.3295(9) 0.09186(12) 0.9817(7)
H43 H 0.25460 0.07810 0.98780
H44 H 0.29090 0.10770 1.01730
C40 C 0.4787(9) 0.08354(11) 1.0390(6)
H45 H 0.49830 0.09360 1.11030
C41 C 0.4838(10) 0.05429(11) 1.0631(7)
H46 H 0.41270 0.05050 1.12530
C42 C 0.6387(10) 0.04667(12) 1.1057(7)
H47 H 0.66300 0.05620 1.17650
H48 H 0.64070 0.02810 1.12340
C43 C 0.7536(9) 0.05264(12) 1.0159(7)
H49 H 0.85320 0.04920 1.04830
H50 H 0.73820 0.04090 0.95020
C44 C 0.7479(9) 0.08031(12) 0.9738(7)
H51 H 0.79460 0.09170 1.03290
C45 C 0.5084(8) 0.07937(11) 0.8432(7)
H52 H 0.56020 0.08380 0.77120
C46 C 0.4338(9) 0.03918(11) 0.9569(7)
H53 H 0.47550 0.02160 0.96090
H54 H 0.32490 0.03770 0.95640
C47 C 0.5988(9) 0.14402(11) 0.7041(6)
H55 H 0.63660 0.14820 0.63140
C48 C 0.4989(9) 0.12545(11) 0.7215(7)
H56 H 0.46410 0.11460 0.66160
C49 C 0.4821(10) 0.21472(12) 0.8577(8)
C50 C 0.4281(9) 0.23651(11) 0.7859(7)
C51 C 0.336(1) 0.23290(12) 0.6912(7)
H57 H 0.30650 0.21600 0.67020
C52 C 0.2864(11) 0.25386(14) 0.6269(8)
H58 H 0.22180 0.25170 0.56310
C53 C 0.3363(10) 0.27828(13) 0.6608(7)
C54 C 0.4289(10) 0.28225(12) 0.7523(8)
H59 H 0.46180 0.29910 0.77110
C55 C 0.4739(10) 0.26131(13) 0.8171(8)
H60 H 0.53560 0.26380 0.88240
C56 C 0.2384(11) 0.17248(13) 1.0094(7)
H61 H 0.31590 0.18480 1.03080
H62 H 0.17630 0.16910 1.07530
H63 H 0.17770 0.17970 0.94730
C57 C 0.1465(10) 0.14260(13) 0.7610(7)
H64 H 0.17490 0.12780 0.71470
H65 H 0.07070 0.15260 0.72020
H66 H 0.10710 0.13660 0.83360
C58 C 0.4710(9) 0.03886(11) 0.7490(7)
C59 C 0.4328(13) -0.00128(13) 0.6587(8)
H67 H 0.36190 0.00620 0.60410
H68 H 0.40400 -0.01900 0.67570
H69 H 0.53160 -0.00120 0.62580
C60 C 0.9824(10) 0.08221(14) 0.8924(8)
H70 H 1.00970 0.09720 0.93900
H71 H 1.03450 0.08290 0.81990
H72 H 1.00990 0.06640 0.93310
N3 N 0.4805(7) 0.05154(9) 0.8494(6)
N4 N 0.2890(9) 0.30070(12) 0.5914(7)
O10 O 0.4638(7) 0.19228(8) 0.8047(5)
O11 O 0.5312(10) 0.21766(9) 0.9528(6)
O12 O 0.1849(9) 0.29806(11) 0.5263(7)
O13 O 0.3545(8) 0.32078(9) 0.6070(6)
O14 O 0.3048(6) 0.14892(8) 0.9722(5)
O15 O 0.2731(6) 0.15848(8) 0.7824(5)
O16 O 0.4914(7) 0.04808(8) 0.6551(5)
O17 O 0.4340(7) 0.01379(9) 0.7631(5)
O18 O 0.8297(6) 0.08236(8) 0.8713(5)
#END
