
#######################################################################
#
#                 Cambridge Crystallographic Data Centre
#                                CCDC
#
#######################################################################
#
# If this CIF has been generated from an entry in the Cambridge
# Structural Database, then it will include bibliographic, chemical,
# crystal, experimental, refinement or atomic coordinate data resulting
# from the CCDC's data processing and validation procedures.
#
#######################################################################

data_CSD_CIF_SAFQOI
_audit_creation_date 2016-01-04
_audit_creation_method CSD-ConQuest-V1
_database_code_CSD SAFQOI
_database_code_depnum_ccdc_archive 'CCDC 1402820'
_chemical_formula_sum 'C31 H42 N2 O7'
_chemical_formula_moiety
;
C31 H42 N2 O7
;
_journal_coden_Cambridge 6
_journal_volume 528
_journal_year 2015
_journal_page_first 493
_journal_name_full 'Nature (London) '
loop_
_publ_author_name
"C.J.Marth"
"G.M.Gallego"
"Jack Chang Hung Lee"
"T.P.Lebold"
"S.Kulyk"
"K.G.M.Kou"
"Jason Qin"
"Ryan Lilien"
"R.Sarpong"
_chemical_name_systematic
;
8-ethoxy-20-ethyl-1,16-dimethoxyaconitan-14-yl 4-nitrobenzoate
;
_cell_volume   2846.502
_exptl_crystal_colour 'yellow'
_exptl_crystal_density_diffrn 1.294
_exptl_crystal_description 'prism'
_diffrn_ambient_temperature 100
#These two values have been output from a single CSD field.
_refine_ls_R_factor_gt 0.0425
_refine_ls_wR_factor_gt 0.0425
_symmetry_cell_setting triclinic
_symmetry_space_group_name_H-M 'P -1'
_symmetry_Int_Tables_number 2
loop_
_symmetry_equiv_pos_site_id
_symmetry_equiv_pos_as_xyz
1 x,y,z
2 -x,-y,-z
_cell_length_a 12.1886(4)
_cell_length_b 16.0833(6)
_cell_length_c 16.2622(6)
_cell_angle_alpha 70.955(2)
_cell_angle_beta 82.179(2)
_cell_angle_gamma 70.930(2)
_cell_formula_units_Z 4
loop_
_atom_type_symbol
_atom_type_radius_bond
C 0.68
H 0.23
N 0.68
O 0.68
loop_
_atom_site_label
_atom_site_type_symbol
_atom_site_fract_x
_atom_site_fract_y
_atom_site_fract_z
C1 C -0.17087(12) 0.26306(10) 0.11254(10)
H1 H -0.16580 0.20680 0.16370
C2 C -0.08189(13) 0.31058(10) 0.12048(10)
H2 H -0.11400 0.35070 0.15920
C3 C 0.03544(13) 0.23891(10) 0.15343(10)
C4 C 0.02424(14) 0.17313(11) 0.2464(1)
H3 H 0.07820 0.17810 0.28360
H4 H -0.05540 0.19690 0.26940
C5 C 0.04727(13) 0.06912(11) 0.25892(10)
H5 H -0.02770 0.05440 0.27690
C6 C 0.09638(13) 0.03947(10) 0.17802(10)
H6 H 0.13800 -0.02820 0.19410
C7 C -0.00078(13) 0.06566(10) 0.11453(10)
H7 H -0.07670 0.06960 0.14630
H8 H 0.01480 0.01900 0.08360
C8 C -0.00161(13) 0.16185(10) 0.04845(10)
H9 H 0.03140 0.15100 -0.00820
C9 C -0.12327(12) 0.23492(10) 0.03027(9)
C10 C -0.19757(13) 0.19692(10) -0.00967(9)
H10 H -0.14700 0.16990 -0.05410
C11 C -0.30830(13) 0.26428(11) -0.05456(10)
H11 H -0.33340 0.23660 -0.09200
H12 H -0.37060 0.27510 -0.00990
C12 C -0.29142(14) 0.35605(12) -0.10974(11)
H13 H -0.36730 0.40070 -0.13090
H14 H -0.24010 0.34760 -0.16100
C13 C -0.23754(14) 0.39336(11) -0.0559(1)
H15 H -0.23130 0.45500 -0.09300
C14 C -0.30984(14) 0.40643(11) 0.02682(11)
H16 H -0.29000 0.45310 0.04440
H17 H -0.39310 0.43100 0.01290
C15 C -0.06439(14) 0.36909(10) 0.02613(10)
H18 H 0.01900 0.36220 0.01160
H19 H -0.10680 0.43510 0.01770
C16 C -0.11449(13) 0.33007(10) -0.03047(10)
H20 H -0.06340 0.32350 -0.08300
C17 C 0.08843(12) 0.18872(10) 0.08478(10)
H21 H 0.12680 0.22750 0.03620
C18 C 0.17490(13) 0.09454(11) 0.12409(10)
H22 H 0.21630 0.06740 0.07700
C19 C -0.34699(14) 0.34193(12) 0.18080(11)
H23 H -0.31670 0.38760 0.19130
H24 H -0.32580 0.28490 0.23050
C20 C -0.47875(17) 0.37975(14) 0.17644(13)
H25 H -0.50050 0.44190 0.13490
H26 H -0.51230 0.38240 0.23420
H27 H -0.50820 0.33930 0.15750
C21 C 0.09321(15) 0.35000(12) 0.19806(12)
H28 H 0.05160 0.32870 0.25370
H29 H 0.04240 0.40960 0.16290
C22 C 0.20530(16) 0.36118(13) 0.21501(13)
H30 H 0.25210 0.30310 0.25370
H31 H 0.18820 0.41010 0.24260
H32 H 0.24840 0.37770 0.15980
C23 C 0.07565(18) 0.01158(14) 0.41020(11)
H33 H 0.04360 0.07450 0.41440
H34 H 0.13410 -0.02490 0.45440
H35 H 0.01310 -0.01670 0.41980
C24 C -0.24809(17) 0.05791(13) 0.02467(12)
H36 H -0.32360 0.08450 -0.00290
H37 H -0.24830 0.00210 0.07280
H38 H -0.18680 0.04220 -0.01830
C25 C 0.35084(13) 0.11927(10) 0.14237(10)
C26 C 0.43109(13) 0.10974(10) 0.20898(10)
C27 C 0.53352(13) 0.13202(11) 0.1798(1)
H39 H 0.54900 0.15500 0.11910
C28 C 0.61305(14) 0.12097(11) 0.23857(11)
H40 H 0.68400 0.13480 0.21910
C29 C 0.58674(13) 0.08932(11) 0.32621(10)
C30 C 0.48574(14) 0.06628(12) 0.35725(11)
H41 H 0.47020 0.04430 0.41800
C31 C 0.40764(14) 0.07601(12) 0.29773(10)
H42 H 0.33830 0.05970 0.31750
N1 N -0.29236(11) 0.32161(9) 0.10105(8)
N2 N 0.66973(12) 0.07966(10) 0.38929(9)
O1 O 0.12198(10) 0.28371(8) 0.15227(8)
O2 O 0.12798(10) 0.01434(9) 0.32618(7)
O3 O -0.22741(9) 0.12249(7) 0.05696(7)
O4 O 0.25801(9) 0.09363(7) 0.18022(7)
O5 O 0.37001(10) 0.14346(8) 0.06500(7)
O6 O 0.76004(10) 0.09868(9) 0.36080(8)
O7 O 0.64418(12) 0.05439(11) 0.46703(8)
C32 C 1.24866(12) 0.3471(1) 0.70083(10)
H43 H 1.28550 0.31080 0.65940
C33 C 1.11700(13) 0.3947(1) 0.68281(10)
H44 H 1.10480 0.45320 0.63350
C34 C 1.05905(13) 0.33020(11) 0.6657(1)
C35 C 1.10629(14) 0.30380(12) 0.58114(10)
H45 H 1.03880 0.31610 0.54650
H46 H 1.15100 0.34600 0.54700
C36 C 1.18404(14) 0.20393(12) 0.58983(11)
H47 H 1.26630 0.20460 0.57660
C37 C 1.17807(14) 0.13487(11) 0.67983(11)
H48 H 1.19570 0.07120 0.67550
C38 C 1.26118(14) 0.13734(11) 0.74163(11)
H49 H 1.32720 0.15720 0.70830
H50 H 1.29200 0.07550 0.78370
C39 C 1.18775(13) 0.20832(10) 0.79022(10)
H51 H 1.17620 0.17200 0.85190
C40 C 1.24303(12) 0.28166(10) 0.79322(9)
C41 C 1.35738(13) 0.23001(10) 0.84345(10)
H52 H 1.34050 0.18170 0.89600
C42 C 1.41267(14) 0.28629(11) 0.87476(11)
H53 H 1.46980 0.24400 0.91940
H54 H 1.45500 0.31910 0.82520
C43 C 1.32334(15) 0.35605(12) 0.91300(11)
H55 H 1.36080 0.39680 0.92500
H56 H 1.29040 0.32360 0.96860
C44 C 1.22656(14) 0.41360(11) 0.84875(11)
H57 H 1.17110 0.46090 0.87420
C45 C 1.27093(14) 0.46469(11) 0.75971(11)
H58 H 1.20670 0.51950 0.73180
H59 H 1.33360 0.48690 0.76910
C46 C 1.06533(13) 0.41476(10) 0.76874(10)
H60 H 0.99210 0.39850 0.78580
H61 H 1.04960 0.48080 0.76310
C47 C 1.15944(13) 0.35336(10) 0.83614(10)
H62 H 1.12460 0.32250 0.89250
C48 C 1.06800(13) 0.24662(10) 0.74779(9)
H63 H 1.00500 0.26300 0.79120
C49 C 1.06182(13) 0.16270(11) 0.72636(10)
H64 H 1.05640 0.11250 0.78120
C50 C 1.33608(15) 0.46613(12) 0.61276(11)
H65 H 1.26380 0.51650 0.59260
H66 H 1.35720 0.42840 0.57230
C51 C 1.43297(18) 0.50750(15) 0.61060(14)
H67 H 1.40770 0.55190 0.64380
H68 H 1.45120 0.53890 0.55020
H69 H 1.50230 0.45820 0.63640
C52 C 0.88959(15) 0.46076(12) 0.60030(12)
H70 H 0.91450 0.45820 0.54040
H71 H 0.91830 0.50670 0.61180
C53 C 0.75926(15) 0.48648(14) 0.61087(13)
H72 H 0.73170 0.44270 0.59560
H73 H 0.72500 0.54890 0.57250
H74 H 0.73620 0.48450 0.67140
C54 C 1.1882(2) 0.20908(19) 0.44333(13)
H75 H 1.14240 0.27420 0.42320
H76 H 1.17630 0.17660 0.40530
H77 H 1.27070 0.20420 0.44160
C55 C 1.52224(17) 0.10181(13) 0.83818(14)
H78 H 1.56570 0.11710 0.87470
H79 H 1.57630 0.07240 0.79820
H80 H 1.48070 0.05930 0.87520
C56 C 0.86141(13) 0.20013(10) 0.70398(10)
C57 C 0.77362(13) 0.22177(11) 0.63859(10)
C58 C 0.80507(14) 0.22360(12) 0.55239(11)
H81 H 0.88410 0.21380 0.53310
C59 C 0.72119(15) 0.23967(12) 0.49524(11)
H82 H 0.74140 0.24130 0.43630
C60 C 0.60696(14) 0.25342(11) 0.52575(11)
C61 C 0.57344(14) 0.25267(12) 0.61046(11)
H83 H 0.49430 0.26260 0.62950
C62 C 0.65816(14) 0.23710(12) 0.66678(11)
H84 H 0.63720 0.23690 0.72530
N3 N 1.31536(11) 0.40885(9) 0.69991(8)
N4 N 0.51696(12) 0.26991(10) 0.46549(9)
O8 O 0.93371(9) 0.37252(8) 0.66168(7)
O9 O 1.15292(12) 0.16929(10) 0.52882(8)
O10 O 1.44174(9) 0.18317(7) 0.78993(7)
O11 O 0.96946(9) 0.18151(8) 0.66951(7)
O12 O 0.83779(10) 0.19726(8) 0.77915(7)
O13 O 0.41586(11) 0.28393(10) 0.49291(9)
O14 O 0.54657(11) 0.26983(10) 0.39075(8)
#END
