
#######################################################################
#
#                 Cambridge Crystallographic Data Centre
#                                CCDC
#
#######################################################################
#
# If this CIF has been generated from an entry in the Cambridge
# Structural Database, then it will include bibliographic, chemical,
# crystal, experimental, refinement or atomic coordinate data resulting
# from the CCDC's data processing and validation procedures.
#
#######################################################################

data_CSD_CIF_SAGLOD
_audit_creation_date 2012-02-03
_audit_creation_method CSD-ConQuest-V1
_database_code_CSD SAGLOD
_database_code_depnum_ccdc_archive 'CCDC 861825'
_chemical_formula_sum 'C16 H13 N3 O7'
_chemical_formula_moiety
;
C16 H13 N3 O7
;
_journal_coeditor_code "IUCr FK2047"
_journal_coden_Cambridge 1370
_journal_volume 68
_journal_year 2012
_journal_page_first o129
_journal_name_full 'Acta Crystallogr.,Sect.E:Struct.Rep.Online '
loop_
_publ_author_name
"S.Saeed"
"N.Rashid"
"R.Hussain"
"W.-T.Wong"
_chemical_name_systematic
;
Ethyl 2-((3,5-dinitrobenzoyl)amino)benzoate
;
_chemical_name_common
;
Ethyl 2-(3,5-dinitrobenzamido)benzoate
;
_cell_volume   1631.486
_exptl_crystal_colour 'colorless'
_exptl_crystal_density_diffrn 1.463
_exptl_crystal_description 'block'
_exptl_crystal_preparation 'ethyl acetate'
_diffrn_ambient_temperature 296
#These two values have been output from a single CSD field.
_refine_ls_R_factor_gt 0.0487
_refine_ls_wR_factor_gt 0.0487
_symmetry_cell_setting monoclinic
_symmetry_space_group_name_H-M 'P 21/c'
_symmetry_Int_Tables_number 14
loop_
_symmetry_equiv_pos_site_id
_symmetry_equiv_pos_as_xyz
1 x,y,z
2 -x,1/2+y,1/2-z
3 -x,-y,-z
4 x,-1/2-y,-1/2+z
_cell_length_a 12.4662(4)
_cell_length_b 17.7213(5)
_cell_length_c 7.4352(2)
_cell_angle_alpha 90
_cell_angle_beta 96.658(2)
_cell_angle_gamma 90
_cell_formula_units_Z 4
loop_
_atom_type_symbol
_atom_type_radius_bond
C 0.68
H 0.23
N 0.68
O 0.68
loop_
_atom_site_label
_atom_site_type_symbol
_atom_site_fract_x
_atom_site_fract_y
_atom_site_fract_z
O1 O 0.66429(15) 0.10807(11) 0.9056(3)
O2 O 0.49758(15) 0.11624(11) 0.7638(3)
O3 O 0.29471(18) -0.10623(12) 0.5275(3)
O4 O -0.03437(19) -0.05325(16) 0.1499(3)
O5 O -0.11189(19) 0.05489(17) 0.1563(4)
O6 O 0.0466(2) 0.24889(16) 0.5560(5)
O7 O 0.19530(19) 0.22737(13) 0.7234(4)
N1 N 0.40070(16) -0.01091(13) 0.6539(3)
H1 H 0.40200 0.03740 0.66540
N2 N -0.0365(2) 0.01221(19) 0.2005(3)
N3 N 0.1241(2) 0.20962(15) 0.6060(4)
C1 C 0.5738(2) 0.07809(15) 0.8276(3)
C2 C 0.57853(19) -0.00579(14) 0.8223(3)
C3 C 0.6705(2) -0.04275(16) 0.9032(4)
H2 H 0.72670 -0.01470 0.96340
C4 C 0.6794(2) -0.12038(17) 0.8952(4)
H3 H 0.74080 -0.14460 0.95020
C5 C 0.5968(3) -0.16112(17) 0.8055(5)
H4 H 0.60320 -0.21330 0.79880
C6 C 0.5043(2) -0.12685(16) 0.7246(4)
H5 H 0.44910 -0.15590 0.66480
C7 C 0.4936(2) -0.04870(15) 0.7326(3)
C8 C 0.3099(2) -0.03932(16) 0.5632(4)
C9 C 0.22294(19) 0.01719(15) 0.5044(3)
C10 C 0.1393(2) -0.00719(16) 0.3779(3)
H6 H 0.14050 -0.05550 0.32930
C11 C 0.0544(2) 0.04096(18) 0.3248(3)
C12 C 0.0482(2) 0.11277(17) 0.3938(4)
H7 H -0.00950 0.14460 0.35680
C13 C 0.1312(2) 0.13480(15) 0.5197(4)
C14 C 0.2185(2) 0.08975(15) 0.5764(4)
H8 H 0.27360 0.10730 0.66110
C15 C 0.6721(3) 0.19029(18) 0.9047(6)
H9 H 0.65050 0.20960 0.78380
H10 H 0.62510 0.21190 0.98630
C16 C 0.7843(3) 0.2102(2) 0.9632(9)
H11 H 0.79250 0.26400 0.95940
H12 H 0.83020 0.18700 0.88410
H13 H 0.80390 0.19260 1.08470
#END
