
#######################################################################
#
#                 Cambridge Crystallographic Data Centre
#                                CCDC
#
#######################################################################
#
# If this CIF has been generated from an entry in the Cambridge
# Structural Database, then it will include bibliographic, chemical,
# crystal, experimental, refinement or atomic coordinate data resulting
# from the CCDC's data processing and validation procedures.
#
#######################################################################

data_CSD_CIF_SAGLIW
_audit_creation_date 2004-12-07
_audit_creation_method CSD-ConQuest-V1
_database_code_CSD SAGLIW
_database_code_depnum_ccdc_archive 'CCDC 248548'
_chemical_formula_sum 'C16 H17 N1 O6'
_chemical_formula_moiety
;
C16 H17 N1 O6
;
_journal_coden_Cambridge 4
_journal_volume 126
_journal_year 2004
_journal_page_first 9926
_journal_name_full 'J.Am.Chem.Soc. '
loop_
_publ_author_name
"C.Spino"
"H.Rezaei"
"K.Dupont-Gaudet"
"F.Belanger"
_chemical_name_systematic
;
(6a-Methoxy-3,3a,6,6a-tetrahydro-2H-cyclopenta(b)furan-6-yl)methyl 
4-nitrobenzoate
;
_cell_volume   1537.933
_exptl_crystal_colour 'colorless'
_exptl_crystal_density_diffrn 1.379
_exptl_crystal_description 'needles'
_diffrn_ambient_temperature 293
#These two values have been output from a single CSD field.
_refine_ls_R_factor_gt 0.0858
_refine_ls_wR_factor_gt 0.0858
_symmetry_cell_setting monoclinic
_symmetry_space_group_name_H-M 'P 21/a'
_symmetry_Int_Tables_number 14
loop_
_symmetry_equiv_pos_site_id
_symmetry_equiv_pos_as_xyz
1 x,y,z
2 1/2+x,1/2-y,z
3 -x,-y,-z
4 -1/2-x,-1/2+y,-z
_cell_length_a 14.136(2)
_cell_length_b 7.047(3)
_cell_length_c 15.439(3)
_cell_angle_alpha 90
_cell_angle_beta 90.434(13)
_cell_angle_gamma 90
_cell_formula_units_Z 4
loop_
_atom_type_symbol
_atom_type_radius_bond
C 0.68
H 0.23
N 0.68
O 0.68
loop_
_atom_site_label
_atom_site_type_symbol
_atom_site_fract_x
_atom_site_fract_y
_atom_site_fract_z
C1 C 1.2506(4) 0.0792(11) 0.2730(4)
H1 H 1.24070 0.20420 0.24990
H2 H 1.27840 -0.00020 0.22950
H3 H 1.29220 0.08630 0.32230
O1 O 1.1627(3) 0.0013(5) 0.2985(2)
H4 H 0.836(3) 0.060(6) -0.112(3)
H5 H 0.940(3) 0.281(5) 0.157(2)
H6 H 1.031(4) -0.079(8) 0.427(4)
H7 H 1.092(3) 0.338(6) 0.278(3)
H8 H 0.950(4) 0.447(8) 0.400(3)
H9 H 0.903(4) 0.146(8) 0.409(3)
H10 H 1.137(5) 0.538(10) 0.409(4)
H11 H 1.030(4) -0.224(9) 0.294(4)
H12 H 0.896(4) 0.492(8) 0.042(4)
H13 H 0.869(4) -0.141(8) 0.006(3)
H14 H 0.927(4) -0.180(7) 0.321(3)
H15 H 1.228(4) 0.449(7) 0.365(3)
C2 C 1.1113(3) 0.1063(7) 0.3614(3)
C3 C 1.0187(4) 0.0027(8) 0.3767(3)
C4 C 0.9578(5) 0.1741(10) 0.3961(3)
C5 C 0.9902(4) 0.3319(11) 0.3755(4)
C6 C 1.0947(4) 0.3149(7) 0.3404(3)
C7 C 1.1646(5) 0.4267(10) 0.3936(4)
C8 C 1.1796(4) 0.3001(8) 0.4716(3)
H16 H 1.24300 0.31580 0.49510
H17 H 1.13420 0.32890 0.51650
C9 C 0.9844(6) -0.1219(8) 0.3054(3)
C10 C 0.9305(3) -0.0834(7) 0.1611(3)
C11 C 0.9059(3) 0.0503(6) 0.0921(3)
C12 C 0.8751(4) -0.0174(8) 0.0128(3)
C13 C 0.8531(4) 0.1022(7) -0.0538(3)
C14 C 0.8632(3) 0.2948(6) -0.0409(2)
C15 C 0.8930(4) 0.3673(7) 0.0378(3)
C16 C 0.9150(3) 0.2463(6) 0.1038(3)
N1 N 0.8415(3) 0.4248(6) -0.1117(2)
O2 O 0.8082(3) 0.3623(5) -0.1785(2)
O3 O 0.8558(3) 0.5932(5) -0.1014(2)
O4 O 0.9245(3) -0.2555(5) 0.1546(2)
O5 O 0.9608(2) -0.0009(4) 0.23241(18)
O6 O 1.1661(3) 0.1095(5) 0.4394(2)
#END
