
#######################################################################
#
#                 Cambridge Crystallographic Data Centre
#                                CCDC
#
#######################################################################
#
# If this CIF has been generated from an entry in the Cambridge
# Structural Database, then it will include bibliographic, chemical,
# crystal, experimental, refinement or atomic coordinate data resulting
# from the CCDC's data processing and validation procedures.
#
#######################################################################

data_CSD_CIF_SAGNAS
_audit_creation_date 2016-01-04
_audit_creation_method CSD-ConQuest-V1
_database_code_CSD SAGNAS
_database_code_depnum_ccdc_archive 'CCDC 1445189'
_chemical_formula_sum 'C24 H17 N3 O3'
_chemical_formula_moiety
;
C24 H17 N3 O3
;
_journal_coden_Cambridge 35
_journal_volume 80
_journal_year 2015
_journal_page_first 12379
_journal_name_full 'J.Org.Chem. '
loop_
_publ_author_name
"R.Parella"
"S.A.Babu"
_chemical_name_systematic
;
3-(3-Nitrophenyl)-3-phenyl-N-(quinolin-8-yl)acrylamide
;
_cell_volume   1937.941
_exptl_crystal_colour 'colorless'
_exptl_crystal_density_diffrn 1.355
_exptl_crystal_description 'plate'
_diffrn_ambient_temperature 293
#These two values have been output from a single CSD field.
_refine_ls_R_factor_gt 0.1155
_refine_ls_wR_factor_gt 0.1155
_symmetry_cell_setting triclinic
_symmetry_space_group_name_H-M 'P -1'
_symmetry_Int_Tables_number 2
loop_
_symmetry_equiv_pos_site_id
_symmetry_equiv_pos_as_xyz
1 x,y,z
2 -x,-y,-z
_cell_length_a 6.1038(9)
_cell_length_b 16.2799(19)
_cell_length_c 19.802(3)
_cell_angle_alpha 86.770(11)
_cell_angle_beta 89.290(14)
_cell_angle_gamma 80.555(17)
_cell_formula_units_Z 4
loop_
_atom_type_symbol
_atom_type_radius_bond
C 0.68
H 0.23
N 0.68
O 0.68
loop_
_atom_site_label
_atom_site_type_symbol
_atom_site_fract_x
_atom_site_fract_y
_atom_site_fract_z
O1 O -0.3691(6) 0.1807(2) 0.4273(2)
O2 O -0.1771(6) 0.1132(3) 0.6661(2)
N1 N -0.3400(6) 0.3093(3) 0.3836(2)
H1 H -0.40670 0.36020 0.38210
N2 N -0.1677(6) 0.4421(2) 0.3379(2)
N3 N -0.2554(7) 0.0552(3) 0.6439(2)
O3 O -0.1765(7) -0.0176(3) 0.6555(3)
C1 C -0.4522(7) 0.0745(3) 0.6006(2)
C2 C -0.0589(7) 0.3674(3) 0.3207(2)
C3 C -0.5092(7) 0.1558(3) 0.5751(2)
H2 H -0.42580 0.19630 0.58560
C4 C -0.7569(7) 0.2633(3) 0.5066(2)
C5 C -0.5723(8) 0.0133(3) 0.5883(2)
H3 H -0.53010 -0.04090 0.60640
C6 C 0.1390(8) 0.3572(3) 0.2825(2)
C7 C -0.6933(7) 0.1755(3) 0.5337(2)
C8 C -0.8194(8) 0.1156(3) 0.5218(2)
H4 H -0.94730 0.12930 0.49580
C9 C -0.9564(7) 0.3128(3) 0.5369(2)
C10 C -0.1447(8) 0.2950(3) 0.3444(2)
C11 C -0.0844(9) 0.5087(4) 0.3165(3)
H5 H -0.15850 0.56060 0.32810
C12 C -1.0470(8) 0.2854(3) 0.5963(2)
H6 H -0.98190 0.23520 0.61790
C13 C -0.0393(9) 0.2169(3) 0.3292(3)
H7 H -0.09730 0.16970 0.34410
C14 C -0.4394(8) 0.2552(3) 0.4233(2)
C15 C -1.2353(9) 0.3316(4) 0.6248(3)
H8 H -1.29510 0.31190 0.66470
C16 C -0.6364(8) 0.2973(3) 0.4590(2)
H9 H -0.68170 0.35360 0.44720
C17 C -0.7570(9) 0.0342(3) 0.5484(3)
H10 H -0.84150 -0.00640 0.53900
C18 C 0.1558(10) 0.2094(4) 0.2911(3)
H11 H 0.22750 0.15660 0.28100
C19 C 0.1093(10) 0.5059(4) 0.2772(3)
H12 H 0.16010 0.55480 0.26280
C20 C -1.0598(8) 0.3887(3) 0.5061(3)
H13 H -1.00330 0.40860 0.46570
C21 C 0.2205(9) 0.4311(4) 0.2609(2)
H14 H 0.35040 0.42790 0.23540
C22 C 0.2449(10) 0.2778(4) 0.2679(3)
H15 H 0.37540 0.27110 0.24270
C23 C -1.3316(9) 0.4055(4) 0.5942(4)
H16 H -1.45610 0.43650 0.61340
C24 C -1.2444(9) 0.4341(4) 0.5350(4)
H17 H -1.31030 0.48460 0.51410
O4 O -0.1155(6) 0.3265(2) -0.0715(2)
O5 O -0.3119(6) 0.3612(3) 0.1682(2)
N4 N -0.1485(6) 0.2042(3) -0.1156(2)
H18 H -0.08560 0.15310 -0.11720
N5 N -0.2350(7) 0.4218(3) 0.1453(2)
N6 N -0.3185(7) 0.0810(3) -0.1653(2)
O6 O -0.3165(7) 0.4926(3) 0.1580(3)
C25 C 0.2032(7) 0.3165(3) 0.0340(2)
C26 C 0.0196(7) 0.3315(3) 0.0761(2)
H19 H -0.06340 0.28940 0.08670
C27 C 0.2679(7) 0.2330(3) 0.0066(2)
C28 C -0.0393(7) 0.4076(3) 0.1018(2)
C29 C -0.4309(8) 0.1582(3) -0.1788(2)
C30 C 0.0749(8) 0.4726(3) 0.0880(2)
H20 H 0.02910 0.52480 0.10490
C31 C -0.3426(8) 0.2273(3) -0.1537(2)
C32 C 0.4648(7) 0.1790(3) 0.0373(2)
C33 C -0.0465(8) 0.2530(3) -0.0762(2)
C34 C 0.3244(8) 0.3804(3) 0.0209(3)
H21 H 0.45030 0.37150 -0.00630
C35 C 0.1463(8) 0.2055(3) -0.0408(2)
H22 H 0.18940 0.15060 -0.05230
C36 C 0.2618(9) 0.4564(3) 0.0475(3)
H23 H 0.34670 0.49820 0.03820
C37 C 0.5535(8) 0.1981(3) 0.0978(3)
H24 H 0.48940 0.24600 0.11880
C38 C -0.6278(9) 0.1740(4) -0.2175(2)
C39 C 0.5691(8) 0.1072(3) 0.0069(3)
H25 H 0.51620 0.09260 -0.03380
C40 C 0.7345(10) 0.1475(4) 0.1273(3)
H26 H 0.78940 0.16070 0.16820
C41 C -0.4013(10) 0.0161(4) -0.1879(3)
H27 H -0.32770 -0.03760 -0.17730
C42 C -0.4535(9) 0.3056(4) -0.1668(3)
H28 H -0.39780 0.35060 -0.15060
C43 C 0.8325(10) 0.0783(4) 0.0963(4)
H29 H 0.95640 0.04460 0.11550
C44 C -0.7093(10) 0.1049(5) -0.2403(3)
H30 H -0.84110 0.11230 -0.26460
C45 C -0.6487(11) 0.3199(5) -0.2038(3)
H31 H -0.72240 0.37420 -0.21190
C46 C -0.5948(11) 0.0269(5) -0.2268(3)
H32 H -0.64490 -0.01910 -0.24320
C47 C 0.7483(9) 0.0586(4) 0.0372(3)
H33 H 0.81490 0.01070 0.01680
C48 C -0.7344(10) 0.2549(5) -0.2287(3)
H34 H -0.86570 0.26560 -0.25330
#END
