
#######################################################################
#
#                 Cambridge Crystallographic Data Centre
#                                CCDC
#
#######################################################################
#
# If this CIF has been generated from an entry in the Cambridge
# Structural Database, then it will include bibliographic, chemical,
# crystal, experimental, refinement or atomic coordinate data resulting
# from the CCDC's data processing and validation procedures.
#
#######################################################################

data_CSD_CIF_SAGPIZ
_audit_creation_date 1989-08-09
_audit_creation_method CSD-ConQuest-V1
_database_code_CSD SAGPIZ
_chemical_formula_sum 'C10 H11 N1 O4'
_chemical_formula_moiety
;
C10 H11 N1 O4
;
_journal_coeditor_code "IUCr AN0192"
_journal_coden_Cambridge 591
_journal_volume 45
_journal_year 1989
_journal_page_first 239
_journal_name_full 'Acta Crystallogr.,Sect.C:Cryst.Struct.Commun. '
loop_
_publ_author_name
"P.G.Jones"
"A.J.Kirby"
"H.Ryder"
_chemical_name_systematic
;
2-(4-Nitrophenoxy)tetrahydrofuran
;
_chemical_melting_point 351
_cell_volume    993.343
_exptl_crystal_colour 'pale yellow'
_exptl_crystal_density_diffrn 1.4
_exptl_special_details
;
Melting point range 351-352K

;
_diffrn_ambient_temperature ?
_diffrn_special_details
;
The study was carried out at room temperature,in the range 283-303K

;
#These two values have been output from a single CSD field.
_refine_ls_R_factor_gt 0.052
_refine_ls_wR_factor_gt 0.052
_symmetry_cell_setting monoclinic
_symmetry_space_group_name_H-M 'P 21/c'
_symmetry_Int_Tables_number 14
loop_
_symmetry_equiv_pos_site_id
_symmetry_equiv_pos_as_xyz
1 x,y,z
2 -x,1/2+y,1/2-z
3 -x,-y,-z
4 x,-1/2-y,-1/2+z
_cell_length_a 9.767(2)
_cell_length_b 11.942(2)
_cell_length_c 8.522(2)
_cell_angle_alpha 90
_cell_angle_beta 92.06(2)
_cell_angle_gamma 90
_cell_formula_units_Z 4
loop_
_atom_type_symbol
_atom_type_radius_bond
C 0.68
H 0.23
N 0.68
O 0.68
loop_
_atom_site_label
_atom_site_type_symbol
_atom_site_fract_x
_atom_site_fract_y
_atom_site_fract_z
O1 O 0.6472(1) 0.7257(1) 0.4961(2)
C1 C 0.5526(2) 0.7934(2) 0.4148(2)
C2 C 0.6242(2) 0.9013(2) 0.3796(2)
C3 C 0.7219(2) 0.9134(2) 0.5208(3)
C4 C 0.7600(2) 0.7940(2) 0.5571(3)
O2 O 0.4404(1) 0.8213(1) 0.5123(2)
C5 C 0.3494(2) 0.7408(2) 0.5510(2)
C6 C 0.2378(2) 0.7777(2) 0.6332(2)
C7 C 0.1403(2) 0.7039(2) 0.6797(2)
C8 C 0.1532(2) 0.5919(2) 0.6420(2)
C9 C 0.2633(2) 0.5529(2) 0.5613(2)
C10 C 0.3626(2) 0.6273(2) 0.5159(2)
N1 N 0.0485(2) 0.5131(2) 0.6896(2)
O3 O 0.0593(2) 0.4148(1) 0.6519(2)
O4 O -0.0471(2) 0.5483(2) 0.7629(3)
H1 H 0.51930 0.75500 0.32210
H2 H 0.67290 0.89630 0.28390
H3 H 0.56070 0.96260 0.37250
H4 H 0.67730 0.94740 0.60730
H5 H 0.80080 0.95680 0.49570
H6 H 0.77270 0.78360 0.66840
H7 H 0.84280 0.77450 0.50630
H8 H 0.22910 0.85580 0.65760
H9 H 0.06410 0.72950 0.73810
H10 H 0.27100 0.47480 0.53680
H11 H 0.44030 0.60110 0.46060
#END
