
#######################################################################
#
#                 Cambridge Crystallographic Data Centre
#                                CCDC
#
#######################################################################
#
# If this CIF has been generated from an entry in the Cambridge
# Structural Database, then it will include bibliographic, chemical,
# crystal, experimental, refinement or atomic coordinate data resulting
# from the CCDC's data processing and validation procedures.
#
#######################################################################

data_CSD_CIF_SAGQUP
_audit_creation_date 2016-01-04
_audit_creation_method CSD-ConQuest-V1
_database_code_CSD SAGQUP
_database_code_depnum_ccdc_archive 'CCDC 1419344'
_chemical_formula_sum 'C20 H18 N4 O4'
_chemical_formula_moiety
;
C20 H18 N4 O4
;
_journal_coden_Cambridge 1500
_journal_volume 6
_journal_year 2016
_journal_page_first 1792
_journal_name_full 'RSC Advances '
loop_
_publ_author_name
"G.Kaur"
"Amanpreet Singh"
"P.Venugopalan"
"N.Kaur"
"N.Singh"
_chemical_name_systematic
;
ethyl 
2-methyl-4-(2-nitrophenyl)-1,4-dihydropyrimido[1,2-a]benzimidazole-3-carboxyla
te
;
_cell_volume    878.506
_exptl_crystal_colour 'yellow'
_exptl_crystal_density_diffrn 1.43
_exptl_crystal_description 'block'
_diffrn_ambient_temperature 293
#These two values have been output from a single CSD field.
_refine_ls_R_factor_gt 0.0578
_refine_ls_wR_factor_gt 0.0578
_symmetry_cell_setting triclinic
_symmetry_space_group_name_H-M 'P -1'
_symmetry_Int_Tables_number 2
loop_
_symmetry_equiv_pos_site_id
_symmetry_equiv_pos_as_xyz
1 x,y,z
2 -x,-y,-z
_cell_length_a 7.8274(3)
_cell_length_b 11.2215(5)
_cell_length_c 11.4253(5)
_cell_angle_alpha 71.279(2)
_cell_angle_beta 72.2245(18)
_cell_angle_gamma 71.6451(19)
_cell_formula_units_Z 2
loop_
_atom_type_symbol
_atom_type_radius_bond
C 0.68
H 0.23
N 0.68
O 0.68
loop_
_atom_site_label
_atom_site_type_symbol
_atom_site_fract_x
_atom_site_fract_y
_atom_site_fract_z
O1 O 0.2127(3) 0.2341(3) 0.50965(19)
O2 O -0.0733(3) 0.3002(2) 0.61791(18)
O3 O -0.5165(4) 0.4521(4) 0.7710(4)
O4 O -0.4136(3) 0.2751(3) 0.8892(3)
N1 N 0.2590(2) 0.04875(18) 1.09026(17)
N2 N 0.0543(2) 0.14823(16) 0.96551(16)
N3 N 0.3677(2) 0.09024(19) 0.86624(17)
H1 H 0.48090 0.05630 0.87150
N4 N -0.4056(3) 0.3840(3) 0.8324(3)
C1 C 0.0805(3) 0.0766(2) 1.1659(2)
C2 C 0.0216(4) 0.0527(3) 1.2969(2)
H2 H 0.10490 0.01040 1.34900
C3 C -0.1654(4) 0.0939(3) 1.3478(2)
H3 H -0.20710 0.08000 1.43530
C4 C -0.2916(3) 0.1549(3) 1.2721(3)
H4 H -0.41610 0.18080 1.30970
C5 C -0.2357(3) 0.1781(2) 1.1411(2)
H5 H -0.32000 0.21850 1.08960
C6 C -0.0484(3) 0.13845(19) 1.0905(2)
C7 C 0.2329(3) 0.0945(2) 0.9743(2)
C8 C -0.0099(3) 0.2188(2) 0.8482(2)
H6 H -0.10980 0.18510 0.84570
C9 C 0.1510(3) 0.1972(2) 0.7356(2)
C10 C 0.3262(3) 0.1392(2) 0.7489(2)
C11 C 0.4939(4) 0.1196(3) 0.6435(3)
H7 H 0.53480 0.02950 0.64310
H8 H 0.59060 0.14640 0.65600
H9 H 0.46380 0.17020 0.56380
C12 C -0.0833(3) 0.3634(2) 0.84679(19)
C13 C -0.2607(3) 0.4381(2) 0.8382(2)
C14 C -0.3123(4) 0.5688(3) 0.8337(3)
H10 H -0.43200 0.61580 0.82780
C15 C -0.1897(5) 0.6288(3) 0.8379(3)
H11 H -0.22500 0.71650 0.83630
C16 C -0.0122(5) 0.5585(3) 0.8447(3)
H12 H 0.07350 0.59910 0.84640
C17 C 0.0388(3) 0.4288(2) 0.8488(2)
H13 H 0.15950 0.38320 0.85310
C18 C 0.1074(4) 0.2435(3) 0.6098(2)
C19 C -0.1260(6) 0.3548(5) 0.4972(4)
H14 H -0.02680 0.38860 0.43320
H15 H -0.14790 0.28800 0.47080
C20 C -0.2908(13) 0.4573(9) 0.5088(8)
H16 H -0.38780 0.42390 0.57350
H17 H -0.32770 0.49140 0.42940
H18 H -0.26700 0.52500 0.53140
#END
