
#######################################################################
#
#                 Cambridge Crystallographic Data Centre
#                                CCDC
#
#######################################################################
#
# If this CIF has been generated from an entry in the Cambridge
# Structural Database, then it will include bibliographic, chemical,
# crystal, experimental, refinement or atomic coordinate data resulting
# from the CCDC's data processing and validation procedures.
#
#######################################################################

data_CSD_CIF_SAGQIB
_audit_creation_date 2004-12-07
_audit_creation_method CSD-ConQuest-V1
_database_code_CSD SAGQIB
_database_code_depnum_ccdc_archive 'CCDC 189652'
_chemical_formula_sum 'C22 H23 N1 O5'
_chemical_formula_moiety
;
C22 H23 N1 O5
;
_journal_coden_Cambridge 471
_journal_volume 20
_journal_year 2004
_journal_page_first x103
_journal_name_full 'Anal.Sci.:X-Ray Struct.Anal.Online '
loop_
_publ_author_name
"S.M.M.Sony"
"M.Kuppayee"
"M.N.Ponnuswamy"
"V.Padmavathi"
"D.B.Reddy"
_chemical_name_systematic
;
dimethyl 4-hydroxyimino-2,6-diphenylcyclohexane-1,1-dicarboxylate
;
_cell_volume   3964.551
_exptl_crystal_colour 'colorless'
_exptl_crystal_density_diffrn 1.278
_exptl_crystal_preparation 'methanol'
_diffrn_ambient_temperature 293
#These two values have been output from a single CSD field.
_refine_ls_R_factor_gt 0.0626
_refine_ls_wR_factor_gt 0.0626
_symmetry_cell_setting monoclinic
_symmetry_space_group_name_H-M 'C 2/c'
_symmetry_Int_Tables_number 15
loop_
_symmetry_equiv_pos_site_id
_symmetry_equiv_pos_as_xyz
1 x,y,z
2 1/2+x,1/2+y,z
3 -x,y,1/2-z
4 1/2-x,1/2+y,1/2-z
5 -x,-y,-z
6 -1/2-x,-1/2-y,-z
7 x,-y,-1/2+z
8 -1/2+x,-1/2-y,-1/2+z
_cell_length_a 30.812(4)
_cell_length_b 10.840(2)
_cell_length_c 12.401(2)
_cell_angle_alpha 90
_cell_angle_beta 106.83(1)
_cell_angle_gamma 90
_cell_formula_units_Z 8
loop_
_atom_type_symbol
_atom_type_radius_bond
C 0.68
H 0.23
N 0.68
O 0.68
loop_
_atom_site_label
_atom_site_type_symbol
_atom_site_fract_x
_atom_site_fract_y
_atom_site_fract_z
C1 C 0.12316(8) 0.2286(2) 0.7773(2)
C2 C 0.07479(8) 0.2831(2) 0.7694(2)
H1 H 0.05350 0.24360 0.70410
C3 C 0.05951(9) 0.2463(2) 0.8723(2)
H2 H 0.08160 0.27510 0.94040
H3 H 0.03070 0.28530 0.86770
C4 C 0.05464(9) 0.1090(3) 0.8778(2)
C5 C 0.08174(9) 0.0341(3) 0.8195(3)
H4 H 0.06580 0.02800 0.73990
H5 H 0.08600 -0.04860 0.85070
C6 C 0.12824(8) 0.0966(2) 0.8358(2)
H6 H 0.14060 0.11150 0.91680
C7 C 0.16199(9) 0.0119(3) 0.8033(2)
C8 C 0.14797(11) -0.0766(3) 0.7193(3)
H7 H 0.11730 -0.08390 0.68070
C9 C 0.17927(14) -0.1544(3) 0.6922(3)
H8 H 0.16940 -0.21340 0.63600
C10 C 0.22448(14) -0.1441(4) 0.7482(4)
H9 H 0.24530 -0.19590 0.72980
C11 C 0.23905(12) -0.0575(4) 0.8314(4)
H10 H 0.26980 -0.05090 0.86960
C12 C 0.20781(11) 0.0210(4) 0.8588(3)
H11 H 0.21790 0.08000 0.91500
C13 C 0.06946(9) 0.4215(2) 0.7495(2)
C14 C 0.07729(11) 0.5059(3) 0.8377(3)
H12 H 0.08790 0.47760 0.91150
C15 C 0.06967(13) 0.6309(3) 0.8181(3)
H13 H 0.07530 0.68560 0.87830
C16 C 0.05382(12) 0.6737(3) 0.7099(3)
H14 H 0.04840 0.75750 0.69620
C17 C 0.04596(12) 0.5910(3) 0.6209(3)
H15 H 0.03550 0.61980 0.54730
C18 C 0.05356(10) 0.4666(3) 0.6406(3)
H16 H 0.04790 0.41230 0.58010
C19 C 0.15874(9) 0.3181(3) 0.8474(2)
O1 O 0.17530(9) 0.3096(2) 0.94744(18)
O2 O 0.16602(7) 0.41199(18) 0.78673(16)
C20 C 0.19202(13) 0.5141(3) 0.8484(4)
H17 H 0.19550 0.57620 0.79630
H18 H 0.22140 0.48520 0.89150
H19 H 0.17640 0.54850 0.89810
C21 C 0.12734(9) 0.2107(2) 0.6577(2)
O3 O 0.09609(7) 0.1867(2) 0.57707(16)
O4 O 0.17030(6) 0.21526(19) 0.65556(15)
C22 C 0.17844(13) 0.1773(4) 0.5513(3)
H20 H 0.21020 0.18420 0.55830
H21 H 0.16160 0.22940 0.49110
H22 H 0.16890 0.09330 0.53530
N1 N 0.02941(8) 0.0567(2) 0.9296(2)
O5 O 0.00778(8) 0.1432(2) 0.9829(2)
H23 H -0.00770 0.19040 0.93550
#END
