
#######################################################################
#
#                 Cambridge Crystallographic Data Centre
#                                CCDC
#
#######################################################################
#
# If this CIF has been generated from an entry in the Cambridge
# Structural Database, then it will include bibliographic, chemical,
# crystal, experimental, refinement or atomic coordinate data resulting
# from the CCDC's data processing and validation procedures.
#
#######################################################################

data_CSD_CIF_SAGRAT01
_audit_creation_date 2006-07-12
_audit_creation_method CSD-ConQuest-V1
_database_code_CSD SAGRAT01
_database_code_depnum_ccdc_archive 'CCDC 609430'
_chemical_formula_sum 'C14 H11 N1 O4'
_chemical_formula_moiety
;
C14 H11 N1 O4
;
_journal_coeditor_code "IUCr SK3011"
_journal_coden_Cambridge 591
_journal_volume 62
_journal_year 2006
_journal_page_first o295
_journal_name_full 'Acta Crystallogr.,Sect.C:Cryst.Struct.Commun. '
loop_
_publ_author_name
"M.V.N.de Souza"
"T.R.A.Vasconcelos"
"S.M.S.V.Wardell"
"J.L.Wardell"
"J.N.Low"
"C.Glidewell"
_chemical_name_systematic
;
Benzyl 4-nitrobenzoate
;
_cell_volume   1206.041
_exptl_crystal_colour 'colorless'
_exptl_crystal_density_diffrn 1.417
_exptl_crystal_description 'plate'
_exptl_crystal_preparation 'ethanol'
_diffrn_ambient_temperature 120
#These two values have been output from a single CSD field.
_refine_ls_R_factor_gt 0.0553
_refine_ls_wR_factor_gt 0.0553
_symmetry_cell_setting monoclinic
_symmetry_space_group_name_H-M 'P 21/n'
_symmetry_Int_Tables_number 14
loop_
_symmetry_equiv_pos_site_id
_symmetry_equiv_pos_as_xyz
1 x,y,z
2 1/2-x,1/2+y,1/2-z
3 -x,-y,-z
4 -1/2+x,-1/2-y,-1/2+z
_cell_length_a 6.1574(6)
_cell_length_b 7.4487(6)
_cell_length_c 26.341(3)
_cell_angle_alpha 90
_cell_angle_beta 93.362(3)
_cell_angle_gamma 90
_cell_formula_units_Z 4
loop_
_atom_type_symbol
_atom_type_radius_bond
C 0.68
H 0.23
N 0.68
O 0.68
loop_
_atom_site_label
_atom_site_type_symbol
_atom_site_fract_x
_atom_site_fract_y
_atom_site_fract_z
C1 C 1.1386(3) 0.1688(3) 0.44838(7)
C2 C 0.9277(3) 0.2336(3) 0.43893(7)
C3 C 0.8139(3) 0.3011(3) 0.47862(7)
C4 C 0.9128(3) 0.2994(3) 0.52699(7)
N1 N 0.7922(3) 0.3687(2) 0.56955(6)
O1 O 0.6106(2) 0.4329(2) 0.55980(6)
O2 O 0.8790(3) 0.3594(2) 0.61266(5)
C5 C 1.1214(3) 0.2354(3) 0.53756(7)
C6 C 1.2341(3) 0.1701(3) 0.49756(7)
C7 C 1.2672(3) 0.0901(3) 0.40727(7)
O3 O 1.4438(2) 0.0215(2) 0.41525(6)
O4 O 1.1642(2) 0.1022(2) 0.36149(5)
C8 C 1.2718(4) 0.0186(3) 0.31951(8)
C9 C 1.1031(3) -0.0140(3) 0.27737(8)
C10 C 1.1441(4) 0.0230(3) 0.22716(8)
C11 C 0.9863(4) -0.0105(3) 0.18803(8)
C12 C 0.7881(4) -0.0802(3) 0.19883(9)
C13 C 0.7466(4) -0.1201(3) 0.24858(9)
C14 C 0.9023(4) -0.0893(3) 0.28737(8)
H1 H 0.86200 0.23150 0.40540
H2 H 0.67100 0.34760 0.47260
H3 H 1.18530 0.23640 0.57130
H4 H 1.37790 0.12580 0.50370
H5 H 1.33960 -0.09630 0.33070
H6 H 1.38690 0.09860 0.30780
H7 H 1.28080 0.07160 0.21930
H8 H 1.01640 0.01510 0.15380
H9 H 0.67990 -0.10090 0.17230
H10 H 0.60970 -0.16920 0.25610
H11 H 0.87260 -0.11960 0.32130
#END
