
#######################################################################
#
#                 Cambridge Crystallographic Data Centre
#                                CCDC
#
#######################################################################
#
# If this CIF has been generated from an entry in the Cambridge
# Structural Database, then it will include bibliographic, chemical,
# crystal, experimental, refinement or atomic coordinate data resulting
# from the CCDC's data processing and validation procedures.
#
#######################################################################

data_CSD_CIF_SAGSEB
_audit_creation_date 2016-01-04
_audit_creation_method CSD-ConQuest-V1
_database_code_CSD SAGSEB
_database_code_depnum_ccdc_archive 'CCDC 1422944'
_chemical_formula_sum 'C27 H21 N3 O4'
_chemical_formula_moiety
;
C27 H21 N3 O4
;
_journal_coden_Cambridge 1366
_journal_volume 357
_journal_year 2015
_journal_page_first 3986
_journal_name_full 'Adv.Synth.Catal. '
loop_
_publ_author_name
"Jun-Hua Li"
"Da-Ming Du"
_chemical_name_systematic
;
6-Benzylidene-4-methyl-9-(2-nitrophenyl)- 
2-phenyl-2,3-diazaspiro[4.4]non-3-ene-1,7-dione
;
_chemical_melting_point 471
_cell_volume   1097.392
_exptl_crystal_colour 'white'
_exptl_crystal_density_diffrn 1.366
_exptl_special_details
;
Melting point range 471-475K
Light-sensitive

;
_exptl_crystal_description 'Prism'
_exptl_crystal_preparation 'acetone/n-hexane'
_diffrn_ambient_temperature 293
_refine_special_details
;
O3',O4' and O3,O4 disordered over two sites with occupancies 0.601:0.399.

;
#These two values have been output from a single CSD field.
_refine_ls_R_factor_gt 0.0469
_refine_ls_wR_factor_gt 0.0469
_symmetry_cell_setting triclinic
_symmetry_space_group_name_H-M 'P -1'
_symmetry_Int_Tables_number 2
loop_
_symmetry_equiv_pos_site_id
_symmetry_equiv_pos_as_xyz
1 x,y,z
2 -x,-y,-z
_cell_length_a 9.7885(17)
_cell_length_b 10.179(2)
_cell_length_c 12.287(3)
_cell_angle_alpha 82.479(9)
_cell_angle_beta 74.430(8)
_cell_angle_gamma 68.617(8)
_cell_formula_units_Z 2
loop_
_atom_type_symbol
_atom_type_radius_bond
C 0.68
H 0.23
N 0.68
O 0.68
loop_
_atom_site_label
_atom_site_type_symbol
_atom_site_fract_x
_atom_site_fract_y
_atom_site_fract_z
O1 O 1.20417(10) 0.42526(11) 0.11076(9)
O2 O 0.74174(10) 0.77771(9) 0.10227(7)
O3 O 0.6937(9) 0.6285(9) 0.5794(6)
O4 O 0.8910(5) 0.6594(6) 0.5929(6)
N1 N 0.55842(12) 0.62808(11) 0.34274(9)
N2 N 0.56222(12) 0.73300(11) 0.25517(9)
N3 N 0.77930(16) 0.69284(14) 0.55539(10)
C1 C 1.08118(14) 0.50004(13) 0.16130(11)
C2 C 0.93492(14) 0.47999(13) 0.17011(11)
C3 C 0.80923(14) 0.58911(12) 0.24736(10)
C4 C 0.89914(15) 0.64723(13) 0.30937(11)
H1 H 0.92180 0.58120 0.37310
C5 C 1.04983(15) 0.63008(14) 0.22413(12)
H2 H 1.04220 0.71210 0.17290
H3 H 1.12900 0.61680 0.26230
C6 C 0.70589(14) 0.71136(12) 0.18801(10)
C7 C 0.69461(15) 0.54303(13) 0.33586(11)
C8 C 0.73102(17) 0.41352(15) 0.41068(14)
H4 H 0.64120 0.41270 0.46630
H5 H 0.80590 0.41320 0.44780
H6 H 0.76940 0.33140 0.36610
C9 C 0.93576(14) 0.37632(13) 0.11191(11)
H7 H 1.03190 0.32240 0.07310
C10 C 0.81582(14) 0.33144(13) 0.09743(11)
C11 C 0.66275(15) 0.41432(15) 0.12117(13)
H8 H 0.63190 0.50270 0.15110
C12 C 0.55632(17) 0.36712(16) 0.10098(13)
H9 H 0.45460 0.42290 0.11880
C13 C 0.60074(18) 0.23710(17) 0.05439(13)
H10 H 0.52920 0.20620 0.03970
C14 C 0.75174(19) 0.15308(16) 0.02966(13)
H11 H 0.78180 0.06540 -0.00130
C15 C 0.85813(16) 0.19979(15) 0.05106(12)
H12 H 0.95940 0.14270 0.03430
C16 C 0.42317(14) 0.83938(13) 0.24586(10)
C17 C 0.42080(16) 0.96283(14) 0.18060(11)
H13 H 0.51050 0.97420 0.13860
C18 C 0.28267(17) 1.06877(15) 0.17909(13)
H14 H 0.28020 1.15130 0.13580
C19 C 0.14900(17) 1.05241(16) 0.24145(14)
H15 H 0.05720 1.12420 0.24080
C20 C 0.15222(16) 0.92874(16) 0.30485(14)
H16 H 0.06230 0.91770 0.34650
C21 C 0.28860(15) 0.82132(14) 0.30664(12)
H17 H 0.29020 0.73780 0.34810
C22 C 0.81509(15) 0.79274(14) 0.35790(11)
C23 C 0.79194(17) 0.91623(14) 0.28891(12)
H18 H 0.82860 0.90870 0.21100
C24 C 0.71613(17) 1.04902(15) 0.33322(13)
H19 H 0.70080 1.12870 0.28500
C25 C 0.6632(2) 1.06383(16) 0.44856(14)
H20 H 0.61330 1.15310 0.47820
C26 C 0.6848(2) 0.94544(17) 0.51931(13)
H21 H 0.64950 0.95390 0.59720
C27 C 0.75944(17) 0.81391(14) 0.47343(11)
O5? O 0.9024(5) 0.6090(7) 0.5582(4)
O6? O 0.6608(4) 0.6879(5) 0.6204(4)
#END
