
#######################################################################
#
#                 Cambridge Crystallographic Data Centre
#                                CCDC
#
#######################################################################
#
# If this CIF has been generated from an entry in the Cambridge
# Structural Database, then it will include bibliographic, chemical,
# crystal, experimental, refinement or atomic coordinate data resulting
# from the CCDC's data processing and validation procedures.
#
#######################################################################

data_CSD_CIF_SAGSAV
_audit_creation_date 2004-12-07
_audit_creation_method CSD-ConQuest-V1
_database_code_CSD SAGSAV
_database_code_depnum_ccdc_archive 'CCDC 201161'
_chemical_formula_sum 'C20 H31 N7 O7'
_chemical_formula_moiety
;
C20 H31 N7 O7
;
_journal_coden_Cambridge 1291
_journal_year 2004
_journal_page_first 3408
_journal_name_full 'Eur.J.Org.Chem. '
loop_
_publ_author_name
"R.O.Al-Kaysi"
"G.Guirado"
"E.J.Valente"
_chemical_name_systematic
;
1,3,5-Tri-isopropyl-4-oxo-6-(isopropyliminio)-2',4',6'-trinitro-spiro(2H-1,3,5
-triazine-2,1'-cyclohexadienylide)
;
_chemical_melting_point 476.15
_cell_volume   2362.544
_exptl_crystal_colour 'orange'
_exptl_crystal_density_diffrn 1.354
_exptl_special_details
;
Melts with decomposition.
fluorescent

;
_exptl_crystal_description 'prism'
_exptl_crystal_preparation 'hexane/ethyl acetate'
_diffrn_ambient_temperature 293
#These two values have been output from a single CSD field.
_refine_ls_R_factor_gt 0.0978
_refine_ls_wR_factor_gt 0.0978
_symmetry_cell_setting orthorhombic
_symmetry_space_group_name_H-M 'P n a 21'
_symmetry_Int_Tables_number 33
loop_
_symmetry_equiv_pos_site_id
_symmetry_equiv_pos_as_xyz
1 x,y,z
2 -x,-y,1/2+z
3 1/2+x,1/2-y,z
4 1/2-x,1/2+y,1/2+z
_cell_length_a 24.12(4)
_cell_length_b 9.011(19)
_cell_length_c 10.87(2)
_cell_angle_alpha 90
_cell_angle_beta 90
_cell_angle_gamma 90
_cell_formula_units_Z 4
loop_
_atom_type_symbol
_atom_type_radius_bond
C 0.68
H 0.23
N 0.68
O 0.68
loop_
_atom_site_label
_atom_site_type_symbol
_atom_site_fract_x
_atom_site_fract_y
_atom_site_fract_z
O1 O 0.1229(5) 0.3354(14) 0.0559(9)
O2 O 0.1968(5) 0.2031(15) 0.0176(11)
O3 O 0.3760(5) 0.3778(16) 0.1161(11)
O4 O 0.3875(5) 0.5910(16) 0.2090(11)
O5 O 0.1510(5) 0.8071(13) 0.3055(10)
O6 O 0.2347(5) 0.8927(15) 0.3215(11)
O7 O 0.0588(4) 0.4574(13) 0.3715(8)
N1 N 0.1404(5) 0.4968(16) 0.2792(10)
N2 N 0.1738(6) 0.3109(18) 0.0610(12)
N3 N 0.0578(5) 0.5862(15) 0.1926(10)
N4 N 0.3553(6) 0.490(2) 0.1650(13)
N5 N 0.1422(5) 0.6361(14) 0.0897(9)
N6 N 0.2006(6) 0.791(2) 0.2875(12)
N7 N 0.0597(5) 0.7465(14) 0.0230(9)
H1 H 0.06420 0.73070 -0.05440
C1 C 0.1784(5) 0.5523(16) 0.1782(14)
C2 C 0.2071(6) 0.4285(19) 0.1224(14)
C3 C 0.2632(6) 0.4073(19) 0.1205(13)
H2 H 0.27820 0.32180 0.08600
C4 C 0.2985(6) 0.5173(18) 0.1719(13)
C5 C 0.2757(6) 0.6404(18) 0.2254(12)
H3 H 0.29920 0.71150 0.25890
C6 C 0.2222(7) 0.6620(18) 0.2315(12)
C7 C 0.0874(7) 0.512(2) 0.2866(17)
C8 C 0.0896(6) 0.6638(18) 0.0993(13)
C9 C 0.1642(7) 0.494(2) 0.5083(12)
H4 H 0.17530 0.59590 0.50390
H5 H 0.18630 0.44340 0.56880
H6 H 0.12580 0.48800 0.53100
C10 C 0.1728(7) 0.4178(19) 0.3785(13)
H7 H 0.21220 0.42570 0.35760
C11 C 0.1580(7) 0.255(2) 0.3806(14)
H8 H 0.16480 0.21230 0.30100
H9 H 0.11950 0.24360 0.40130
H10 H 0.18030 0.20490 0.44090
C12 C -0.0095(6) 0.3836(19) 0.1562(13)
H11 H 0.01210 0.34720 0.08850
H12 H -0.04790 0.36130 0.14250
H13 H 0.00260 0.33680 0.23090
C13 C -0.0022(6) 0.547(2) 0.1668(14)
H14 H -0.01360 0.59340 0.08950
C14 C -0.0364(6) 0.6156(19) 0.2752(13)
H15 H -0.03080 0.72100 0.27710
H16 H -0.02440 0.57310 0.35170
H17 H -0.07510 0.59490 0.26320
C15 C -0.0048(8) 0.925(2) -0.0605(14)
H18 H -0.02130 0.84680 -0.10790
H19 H 0.02390 0.97190 -0.10790
H20 H -0.03270 0.99720 -0.03990
C16 C 0.0199(6) 0.8612(17) 0.0572(13)
H21 H -0.01000 0.81470 0.10450
C17 C 0.0450(8) 0.985(2) 0.1348(13)
H22 H 0.06020 0.94410 0.20890
H23 H 0.01670 1.05600 0.15540
H24 H 0.07380 1.03370 0.08900
C18 C 0.1782(6) 0.871(2) -0.0141(13)
H25 H 0.18890 0.90460 0.06630
H26 H 0.14260 0.91170 -0.03480
H27 H 0.20520 0.90320 -0.07330
C19 C 0.1750(6) 0.7052(18) -0.0148(12)
H28 H 0.21320 0.67340 0.00070
C20 C 0.1613(6) 0.6390(17) -0.1408(11)
H29 H 0.18440 0.68410 -0.20230
H30 H 0.12310 0.65750 -0.16000
H31 H 0.16790 0.53400 -0.13930
#END
