
#######################################################################
#
#                 Cambridge Crystallographic Data Centre
#                                CCDC
#
#######################################################################
#
# If this CIF has been generated from an entry in the Cambridge
# Structural Database, then it will include bibliographic, chemical,
# crystal, experimental, refinement or atomic coordinate data resulting
# from the CCDC's data processing and validation procedures.
#
#######################################################################

data_CSD_CIF_SAGVUT
_audit_creation_date 2012-02-03
_audit_creation_method CSD-ConQuest-V1
_database_code_CSD SAGVUT
_database_code_depnum_ccdc_archive 'CCDC 861868'
_chemical_formula_sum 'C10 H11 N3 O2'
_chemical_formula_moiety
;
C10 H11 N3 O2
;
_journal_coeditor_code "IUCr ZS2168"
_journal_coden_Cambridge 1370
_journal_volume 68
_journal_year 2012
_journal_page_first o183
_journal_name_full 'Acta Crystallogr.,Sect.E:Struct.Rep.Online '
loop_
_publ_author_name
"Hong-sheng Jia"
_chemical_name_systematic
;
4-(Isopropylamino)-3-nitrobenzonitrile
;
_cell_volume   1046.460
_exptl_crystal_colour 'yellow'
_exptl_crystal_density_diffrn 1.303
_exptl_crystal_description 'block'
_exptl_crystal_preparation 'ethanol'
_diffrn_ambient_temperature 293
#These two values have been output from a single CSD field.
_refine_ls_R_factor_gt 0.0502
_refine_ls_wR_factor_gt 0.0502
_symmetry_cell_setting monoclinic
_symmetry_space_group_name_H-M 'P 21/n'
_symmetry_Int_Tables_number 14
loop_
_symmetry_equiv_pos_site_id
_symmetry_equiv_pos_as_xyz
1 x,y,z
2 1/2-x,1/2+y,1/2-z
3 -x,-y,-z
4 -1/2+x,-1/2-y,-1/2+z
_cell_length_a 6.6640(13)
_cell_length_b 20.678(4)
_cell_length_c 7.8900(16)
_cell_angle_alpha 90
_cell_angle_beta 105.74(3)
_cell_angle_gamma 90
_cell_formula_units_Z 4
loop_
_atom_type_symbol
_atom_type_radius_bond
C 0.68
H 0.23
N 0.68
O 0.68
loop_
_atom_site_label
_atom_site_type_symbol
_atom_site_fract_x
_atom_site_fract_y
_atom_site_fract_z
C1 C 0.3856(4) 0.06884(12) 0.1995(3)
H1 H 0.34290 0.05820 0.08050
O1 O 0.6054(3) 0.10761(14) -0.0153(2)
N1 N -0.0699(4) -0.01652(13) 0.2024(3)
O2 O 0.8456(3) 0.15107(10) 0.1884(2)
N2 N 0.6789(3) 0.12211(12) 0.1391(2)
C2 C 0.5671(3) 0.10375(11) 0.2650(3)
N3 N 0.8123(3) 0.15551(10) 0.5144(2)
H2 H 0.88800 0.16520 0.44540
C3 C 0.6395(3) 0.12144(11) 0.4461(3)
C4 C 0.5119(4) 0.10035(12) 0.5527(3)
H3 H 0.55160 0.11070 0.67190
C5 C 0.3355(4) 0.06600(12) 0.4889(3)
H4 H 0.25760 0.05290 0.56440
C6 C 0.2680(3) 0.04974(12) 0.3092(3)
C7 C 0.0803(4) 0.01312(14) 0.2466(3)
C8 C 0.8847(4) 0.17789(13) 0.6982(3)
H5 H 0.86990 0.14220 0.77570
C9 C 1.1128(5) 0.19404(18) 0.7342(4)
H6 H 1.18730 0.15680 0.71130
H7 H 1.16660 0.20670 0.85510
H8 H 1.13000 0.22890 0.65910
C10 C 0.7585(5) 0.23444(15) 0.7327(4)
H9 H 0.61490 0.22190 0.70960
H10 H 0.77040 0.26970 0.65700
H11 H 0.80980 0.24760 0.85330
#END
