
#######################################################################
#
#                 Cambridge Crystallographic Data Centre
#                                CCDC
#
#######################################################################
#
# If this CIF has been generated from an entry in the Cambridge
# Structural Database, then it will include bibliographic, chemical,
# crystal, experimental, refinement or atomic coordinate data resulting
# from the CCDC's data processing and validation procedures.
#
#######################################################################

data_CSD_CIF_SAHBEK
_audit_creation_date 2012-02-16
_audit_creation_method CSD-ConQuest-V1
_database_code_CSD SAHBEK
_database_code_depnum_ccdc_archive 'CCDC 861890'
_chemical_formula_sum 'C8 H7 N3 O5'
_chemical_formula_moiety
;
C8 H7 N3 O5
;
_journal_coeditor_code "IUCr XU5409"
_journal_coden_Cambridge 1370
_journal_volume 68
_journal_year 2012
_journal_page_first o209
_journal_name_full 'Acta Crystallogr.,Sect.E:Struct.Rep.Online '
loop_
_publ_author_name
"Gui-Ming Deng"
"Chao-Run Wang"
"Zhen Chen"
"He-Ming Zhang"
_chemical_name_systematic
;
N-Methyl-3,5-dinitrobenzamide
;
_cell_volume   3890.634
_exptl_crystal_colour 'yellow'
_exptl_crystal_density_diffrn 1.538
_exptl_crystal_description 'block'
_diffrn_ambient_temperature 293
#These two values have been output from a single CSD field.
_refine_ls_R_factor_gt 0.0669
_refine_ls_wR_factor_gt 0.0669
_symmetry_cell_setting orthorhombic
_symmetry_space_group_name_H-M 'P b c a'
_symmetry_Int_Tables_number 61
loop_
_symmetry_equiv_pos_site_id
_symmetry_equiv_pos_as_xyz
1 x,y,z
2 1/2-x,-y,1/2+z
3 -x,1/2+y,1/2-z
4 1/2+x,1/2-y,-z
5 -x,-y,-z
6 -1/2+x,y,-1/2-z
7 x,-1/2-y,-1/2+z
8 -1/2-x,-1/2+y,z
_cell_length_a 10.716(2)
_cell_length_b 10.057(2)
_cell_length_c 36.101(7)
_cell_angle_alpha 90
_cell_angle_beta 90
_cell_angle_gamma 90
_cell_formula_units_Z 16
loop_
_atom_type_symbol
_atom_type_radius_bond
C 0.68
H 0.23
N 0.68
O 0.68
loop_
_atom_site_label
_atom_site_type_symbol
_atom_site_fract_x
_atom_site_fract_y
_atom_site_fract_z
N1 N 1.1588(3) 0.7222(4) 0.65015(10)
C1 C 0.9707(3) 0.8426(4) 0.67035(11)
H1 H 0.92210 0.77950 0.65820
O1 O 1.0927(3) 0.6404(3) 0.63547(10)
O2 O 1.2734(2) 0.7187(3) 0.64960(8)
C2 C 1.0989(3) 0.8326(4) 0.67030(11)
N2 N 1.1949(4) 1.1247(4) 0.72609(10)
N3 N 0.7009(3) 0.8718(3) 0.68582(10)
H2 H 0.73140 0.79270 0.68500
O3 O 1.3077(3) 1.1073(3) 0.72618(9)
C3 C 1.1751(3) 0.9227(4) 0.68860(12)
H3 H 1.26160 0.91480 0.68850
O4 O 1.1423(3) 1.2198(3) 0.74015(10)
C4 C 1.1155(3) 1.0243(4) 0.70688(12)
O5 O 0.7395(2) 1.0907(2) 0.68914(9)
C5 C 0.9889(3) 1.0400(4) 0.70711(11)
H4 H 0.95270 1.11140 0.71940
C6 C 0.9151(3) 0.9481(3) 0.68874(10)
C7 C 0.7776(3) 0.9749(4) 0.68801(11)
C8 C 0.5670(3) 0.8895(4) 0.68472(14)
H5 H 0.52720 0.80420 0.68320
H6 H 0.54500 0.94160 0.66340
H7 H 0.54010 0.93440 0.70680
O6 O 0.3317(3) 0.2716(3) 0.39302(10)
O7 O 0.1844(3) 0.1345(4) 0.40663(10)
O8 O 0.2726(3) -0.2445(4) 0.48397(10)
O9 O 0.4620(4) -0.2891(4) 0.49911(11)
O10 O 0.7598(2) 0.1750(2) 0.42863(8)
N4 N 0.2939(3) 0.1676(4) 0.40662(11)
N5 N 0.3840(4) -0.2228(4) 0.48302(11)
N6 N 0.8109(3) -0.0414(3) 0.43239(9)
H8 H 0.78430 -0.12120 0.43560
C9 C 0.5097(3) 0.1061(4) 0.42133(11)
H9 H 0.53640 0.18060 0.40830
C10 C 0.3841(3) 0.0788(4) 0.42467(12)
C11 C 0.3408(4) -0.0288(4) 0.44465(12)
H10 H 0.25580 -0.04600 0.44690
C12 C 0.4279(3) -0.1087(4) 0.46088(11)
C13 C 0.5549(3) -0.0875(3) 0.45744(11)
H11 H 0.61160 -0.14570 0.46830
C14 C 0.5960(3) 0.0213(3) 0.43772(11)
C15 C 0.7307(3) 0.0574(3) 0.43282(11)
C16 C 0.9431(3) -0.0190(4) 0.42662(15)
H12 H 0.98630 -0.10250 0.42700
H13 H 0.97480 0.03720 0.44600
H14 H 0.95570 0.02340 0.40310
#END
