
#######################################################################
#
#                 Cambridge Crystallographic Data Centre
#                                CCDC
#
#######################################################################
#
# If this CIF has been generated from an entry in the Cambridge
# Structural Database, then it will include bibliographic, chemical,
# crystal, experimental, refinement or atomic coordinate data resulting
# from the CCDC's data processing and validation procedures.
#
#######################################################################

data_CSD_CIF_SAHCEL
_audit_creation_date 2012-02-16
_audit_creation_method CSD-ConQuest-V1
_database_code_CSD SAHCEL
_database_code_depnum_ccdc_archive 'CCDC 861895'
_chemical_formula_sum 'C15 H21 N2 O5'
_chemical_formula_moiety
;
C15 H21 N2 O5
;
_journal_coeditor_code "IUCr IS5030"
_journal_coden_Cambridge 1370
_journal_volume 68
_journal_year 2012
_journal_page_first o218
_journal_name_full 'Acta Crystallogr.,Sect.E:Struct.Rep.Online '
loop_
_publ_author_name
"H.-P.Ma"
"L.-L.Jing"
"L.He"
"P.-C.Fan"
"Z.-P.Jia"
_chemical_name_systematic
;
2-[3-Hydroxy-4-(2-hydroxyethoxy)phenyl]-4,4,5,5-tetramethyl-2-imidazoline-1-ox
yl 3-oxide
;
_cell_volume   1513.562
_exptl_crystal_colour 'blue'
_exptl_crystal_density_diffrn 1.358
_exptl_crystal_description 'block'
_exptl_crystal_preparation 'hexane/dichloromethane'
_diffrn_ambient_temperature 296
#These two values have been output from a single CSD field.
_refine_ls_R_factor_gt 0.0376
_refine_ls_wR_factor_gt 0.0376
_symmetry_cell_setting monoclinic
_symmetry_space_group_name_H-M 'P 21/c'
_symmetry_Int_Tables_number 14
loop_
_symmetry_equiv_pos_site_id
_symmetry_equiv_pos_as_xyz
1 x,y,z
2 -x,1/2+y,1/2-z
3 -x,-y,-z
4 x,-1/2-y,-1/2+z
_cell_length_a 9.787(4)
_cell_length_b 9.302(3)
_cell_length_c 16.657(6)
_cell_angle_alpha 90
_cell_angle_beta 93.525(3)
_cell_angle_gamma 90
_cell_formula_units_Z 4
loop_
_atom_type_symbol
_atom_type_radius_bond
C 0.68
H 0.23
N 0.68
O 0.68
loop_
_atom_site_label
_atom_site_type_symbol
_atom_site_fract_x
_atom_site_fract_y
_atom_site_fract_z
C1 C 0.84569(17) 0.65658(17) 0.96445(9)
C2 C 0.90504(16) 0.61269(17) 0.89405(9)
C3 C 0.86536(16) 0.48613(17) 0.85697(9)
H1 H 0.90520 0.45770 0.81030
C4 C 0.76514(16) 0.39970(17) 0.88925(9)
C5 C 0.70732(19) 0.44374(19) 0.95909(10)
H2 H 0.64090 0.38700 0.98120
C6 C 0.74747(19) 0.57120(19) 0.99621(10)
H3 H 0.70780 0.59950 1.04300
C7 C 0.71796(16) 0.26786(17) 0.84938(9)
C8 C 0.69965(17) 0.06957(17) 0.7602(1)
C9 C 0.58253(17) 0.06193(17) 0.81818(10)
C10 C 0.7809(2) -0.0678(2) 0.75295(14)
H4 H 0.85280 -0.05260 0.71720
H5 H 0.72140 -0.14280 0.73200
H6 H 0.81990 -0.09520 0.80500
C11 C 0.6547(2) 0.1276(2) 0.67686(11)
H7 H 0.60490 0.21560 0.68240
H8 H 0.59720 0.05820 0.64870
H9 H 0.73400 0.14560 0.64710
C12 C 0.6080(2) -0.0420(2) 0.88796(12)
H10 H 0.69640 -0.02350 0.91410
H11 H 0.60500 -0.13890 0.86810
H12 H 0.53870 -0.02940 0.92570
C13 C 0.44130(18) 0.0385(2) 0.77753(12)
H13 H 0.37530 0.03080 0.81760
H14 H 0.44110 -0.04840 0.74640
H15 H 0.41810 0.11830 0.74280
C14 C 0.8384(2) 0.83103(19) 1.06967(10)
H16 H 0.86550 0.76400 1.11230
H17 H 0.73920 0.83470 1.06440
C15 C 0.8949(2) 0.9769(2) 1.08947(11)
H18 H 0.88170 0.99930 1.14530
H19 H 0.99240 0.97840 1.08190
N1 N 0.78767(13) 0.18428(14) 0.80059(8)
N2 N 0.59145(14) 0.20965(14) 0.85370(8)
O1 O 0.91259(12) 0.20380(13) 0.78261(7)
O2 O 0.49072(13) 0.26599(15) 0.88724(9)
O3 O 1.00204(13) 0.70239(14) 0.86708(8)
H20 H 1.02050 0.67810 0.82170
O4 O 0.89083(12) 0.78448(12) 0.99533(7)
O5 O 0.82812(16) 1.08039(14) 1.03935(10)
H21 H 0.87530 1.15320 1.03850
#END
