
#######################################################################
#
#                 Cambridge Crystallographic Data Centre
#                                CCDC
#
#######################################################################
#
# If this CIF has been generated from an entry in the Cambridge
# Structural Database, then it will include bibliographic, chemical,
# crystal, experimental, refinement or atomic coordinate data resulting
# from the CCDC's data processing and validation procedures.
#
#######################################################################

data_CSD_CIF_SAHCOV
_audit_creation_date 2012-02-16
_audit_creation_method CSD-ConQuest-V1
_database_code_CSD SAHCOV
_database_code_depnum_ccdc_archive 'CCDC 861897'
_chemical_formula_sum 'C16 H16 N2 O4'
_chemical_formula_moiety
;
C16 H16 N2 O4
;
_journal_coeditor_code "IUCr PK2377"
_journal_coden_Cambridge 1370
_journal_volume 68
_journal_year 2012
_journal_page_first o220
_journal_name_full 'Acta Crystallogr.,Sect.E:Struct.Rep.Online '
loop_
_publ_author_name
"Zhong-Ming Yang"
"Deng-Cheng Su"
"Hai-Liang Zhu"
_chemical_name_systematic
;
(E)-4-[(3,5-Dimethylphenyl)iminomethyl]-2-methoxy-3-nitrophenol
;
_cell_volume   1513.491
_exptl_crystal_colour 'yellow'
_exptl_crystal_density_diffrn 1.318
_exptl_crystal_description 'column'
_diffrn_ambient_temperature 296
#These two values have been output from a single CSD field.
_refine_ls_R_factor_gt 0.0464
_refine_ls_wR_factor_gt 0.0464
_symmetry_cell_setting monoclinic
_symmetry_space_group_name_H-M 'P 21/c'
_symmetry_Int_Tables_number 14
loop_
_symmetry_equiv_pos_site_id
_symmetry_equiv_pos_as_xyz
1 x,y,z
2 -x,1/2+y,1/2-z
3 -x,-y,-z
4 x,-1/2-y,-1/2+z
_cell_length_a 8.616(9)
_cell_length_b 9.690(11)
_cell_length_c 18.29(2)
_cell_angle_alpha 90
_cell_angle_beta 97.631(11)
_cell_angle_gamma 90
_cell_formula_units_Z 4
loop_
_atom_type_symbol
_atom_type_radius_bond
C 0.68
H 0.23
N 0.68
O 0.68
loop_
_atom_site_label
_atom_site_type_symbol
_atom_site_fract_x
_atom_site_fract_y
_atom_site_fract_z
N1 N 0.9369(2) 0.4869(2) 0.39259(10)
N2 N 0.50451(19) 0.63346(16) 0.41616(8)
O1 O 0.98163(17) 0.29564(16) 0.28424(8)
O2 O 0.73798(16) 0.18585(15) 0.19443(8)
H1 H 0.65850 0.16950 0.16580
O3 O 1.0325(2) 0.4118(2) 0.42663(10)
O4 O 0.9417(2) 0.61258(19) 0.3956(1)
C1 C 0.8322(2) 0.33311(19) 0.29183(11)
C2 C 0.7044(2) 0.27628(19) 0.24588(10)
C3 C 0.5541(2) 0.3148(2) 0.25587(11)
H2 H 0.46930 0.27780 0.22540
C4 C 0.5275(2) 0.4069(2) 0.31015(11)
H3 H 0.42510 0.43090 0.31550
C5 C 0.6504(2) 0.46491(19) 0.35722(10)
C6 C 0.8019(2) 0.42449(19) 0.34604(10)
C7 C 0.6243(2) 0.5559(2) 0.41790(11)
H4 H 0.69850 0.55730 0.45980
C8 C 0.4898(2) 0.72319(19) 0.47734(10)
C9 C 0.3404(2) 0.7652(2) 0.48727(11)
H5 H 0.25450 0.73240 0.45590
C10 C 0.3177(2) 0.8561(2) 0.54361(12)
C11 C 0.4476(3) 0.9040(2) 0.58903(11)
H6 H 0.43340 0.96550 0.62660
C12 C 0.5983(2) 0.86339(19) 0.58038(11)
C13 C 0.6190(2) 0.77377(19) 0.52390(11)
H7 H 0.71950 0.74690 0.51680
C14 C 0.1558(3) 0.9054(3) 0.55369(15)
H8 H 0.07920 0.85360 0.52200
H9 H 0.14600 1.00160 0.54140
H10 H 0.13920 0.89240 0.60410
C15 C 0.7379(3) 0.9183(2) 0.63073(13)
H11 H 0.82730 0.86090 0.62690
H12 H 0.71530 0.91800 0.68070
H13 H 0.75990 1.01090 0.61650
C16 C 1.0488(3) 0.3650(3) 0.22692(16)
H14 H 0.98570 0.34850 0.18040
H15 H 1.15280 0.33080 0.22510
H16 H 1.05310 0.46240 0.23680
#END
