
#######################################################################
#
#                 Cambridge Crystallographic Data Centre
#                                CCDC
#
#######################################################################
#
# If this CIF has been generated from an entry in the Cambridge
# Structural Database, then it will include bibliographic, chemical,
# crystal, experimental, refinement or atomic coordinate data resulting
# from the CCDC's data processing and validation procedures.
#
#######################################################################

data_CSD_CIF_SAHCIQ
_audit_creation_date 2017-02-07
_audit_creation_method CSD-ConQuest-V1
_database_code_CSD SAHCIQ
_database_code_depnum_ccdc_archive 'CCDC 1514951'
_chemical_formula_sum 'C12 H14 N1 O9'
_chemical_formula_moiety
;
C12 H14 N1 O9
;
_journal_coden_Cambridge 35
_journal_volume 82
_journal_year 2017
_journal_page_first 1538
_journal_name_full 'J.Org.Chem. '
loop_
_publ_author_name
"Shengdian Huang"
"J.T.Paletta"
"H.Elajaili"
"K.Huber"
"M.Pink"
"S.Rajca"
"G.R.Eaton"
"S.S.Eaton"
"A.Rajca"
_chemical_name_systematic
;
2,2,5,5-tetrakis(methoxycarbonyl)-2,5-dihydro-1H-pyrrol-1-oxyl radical
;
_cell_volume   1432.486
_exptl_crystal_colour 'colorless'
_exptl_crystal_density_diffrn 1.466
_exptl_crystal_description 'block'
_diffrn_ambient_temperature 150
#These two values have been output from a single CSD field.
_refine_ls_R_factor_gt 0.0324
_refine_ls_wR_factor_gt 0.0324
_symmetry_cell_setting monoclinic
_symmetry_space_group_name_H-M 'P 21/c'
_symmetry_Int_Tables_number 14
loop_
_symmetry_equiv_pos_site_id
_symmetry_equiv_pos_as_xyz
1 x,y,z
2 -x,1/2+y,1/2-z
3 -x,-y,-z
4 x,-1/2-y,-1/2+z
_cell_length_a 16.1787(15)
_cell_length_b 7.8957(7)
_cell_length_c 11.6365(10)
_cell_angle_alpha 90
_cell_angle_beta 105.489(5)
_cell_angle_gamma 90
_cell_formula_units_Z 4
loop_
_atom_type_symbol
_atom_type_radius_bond
C 0.68
H 0.23
N 0.68
O 0.68
loop_
_atom_site_label
_atom_site_type_symbol
_atom_site_fract_x
_atom_site_fract_y
_atom_site_fract_z
O1 O 0.23564(6) 0.05643(12) 0.63987(8)
O2 O 0.31704(6) -0.13470(12) 0.38467(8)
O3 O 0.37357(7) -0.15609(13) 0.58249(9)
O4 O 0.37285(6) 0.32540(13) 0.64419(9)
O5 O 0.46696(7) 0.18535(16) 0.56881(11)
O6 O 0.17540(6) 0.49504(11) 0.52475(8)
O7 O 0.08593(7) 0.32156(13) 0.58680(9)
O8 O 0.02904(6) 0.17181(12) 0.34216(8)
O9 O 0.10348(7) -0.06493(13) 0.41039(10)
N1 N 0.24082(6) 0.12244(14) 0.54309(9)
C1 C 0.31854(8) 0.11333(16) 0.49937(11)
C2 C 0.28835(8) 0.20650(16) 0.38275(11)
H1 H 0.32220 0.22080 0.32810
C3 C 0.20978(8) 0.26603(16) 0.36475(10)
H2 H 0.18230 0.33580 0.29920
C4 C 0.16879(8) 0.21031(15) 0.46045(10)
C5 C 0.34154(8) -0.07523(17) 0.49474(11)
C6 C 0.32929(10) -0.31582(19) 0.37344(14)
H3 H 0.31380 -0.34700 0.28890
H4 H 0.29280 -0.37780 0.41400
H5 H 0.38950 -0.34470 0.40990
C7 C 0.39594(8) 0.20919(17) 0.57734(11)
C8 C 0.44069(10) 0.4401(2) 0.70719(15)
H6 H 0.41660 0.52470 0.75080
H7 H 0.46560 0.49740 0.64950
H8 H 0.48540 0.37540 0.76350
C9 C 0.13680(8) 0.34896(16) 0.53076(10)
C10 C 0.15411(11) 0.62996(18) 0.59714(13)
H9 H 0.18760 0.73130 0.59090
H10 H 0.16760 0.59340 0.68060
H11 H 0.09280 0.65600 0.56870
C11 C 0.09621(8) 0.08531(16) 0.40451(11)
C12 C -0.04175(9) 0.07195(19) 0.27092(13)
H12 H -0.08470 0.14750 0.22110
H13 H -0.06790 0.00680 0.32370
H14 H -0.02030 -0.00580 0.21980
#END
