
#######################################################################
#
#                 Cambridge Crystallographic Data Centre
#                                CCDC
#
#######################################################################
#
# If this CIF has been generated from an entry in the Cambridge
# Structural Database, then it will include bibliographic, chemical,
# crystal, experimental, refinement or atomic coordinate data resulting
# from the CCDC's data processing and validation procedures.
#
#######################################################################

data_CSD_CIF_SAHDUD
_audit_creation_date 2017-02-07
_audit_creation_method CSD-ConQuest-V1
_database_code_CSD SAHDUD
_database_code_depnum_ccdc_archive 'CCDC 1443173'
_chemical_formula_sum 'C11 H13 N3 O1'
_chemical_formula_moiety
;
C11 H13 N3 O1
;
_journal_coden_Cambridge 35
_journal_volume 82
_journal_year 2017
_journal_page_first 1666
_journal_name_full 'J.Org.Chem. '
loop_
_publ_author_name
"D.A.Safin"
"M.P.Mitoraj"
"M.G.Babashkina"
"P.Kubisiak"
"K.Robeyns"
"Y.Filinchuk"
_chemical_name_systematic
;
3,3-dimethyl-6-phenyl-2,3-dihydro-1,2,4-triazine 4-oxide
;
_cell_volume   2075.222
_exptl_crystal_colour 'pale yellow'
_exptl_crystal_density_diffrn 1.301
_exptl_crystal_description 'rod'
_diffrn_ambient_temperature 297
_diffrn_special_details
;
twin

;
#These two values have been output from a single CSD field.
_refine_ls_R_factor_gt 0.06
_refine_ls_wR_factor_gt 0.06
_symmetry_cell_setting monoclinic
_symmetry_space_group_name_H-M 'P 21'
_symmetry_Int_Tables_number 4
loop_
_symmetry_equiv_pos_site_id
_symmetry_equiv_pos_as_xyz
1 x,y,z
2 -x,1/2+y,-z
_cell_length_a 5.9648(3)
_cell_length_b 34.2029(15)
_cell_length_c 10.1737(6)
_cell_angle_alpha 90
_cell_angle_beta 91.052(5)
_cell_angle_gamma 90
_cell_formula_units_Z 8
loop_
_atom_type_symbol
_atom_type_radius_bond
C 0.68
H 0.23
N 0.68
O 0.68
loop_
_atom_site_label
_atom_site_type_symbol
_atom_site_fract_x
_atom_site_fract_y
_atom_site_fract_z
O1 O 0.8555(6) 0.29844(13) 1.1789(5)
N1 N 0.6891(6) 0.28168(13) 1.1178(4)
C1 C 0.7088(9) 0.25154(14) 1.0391(5)
H1 H 0.84960 0.24100 1.02350
C2 C 0.5139(8) 0.23491(13) 0.9774(5)
N2 N 0.3139(7) 0.24258(13) 1.0198(5)
N3 N 0.3086(7) 0.26830(14) 1.1211(5)
H2 H 0.186(6) 0.2766(16) 1.144(6)
C3 C 0.4631(7) 0.30057(15) 1.1287(5)
C4 C 0.4375(11) 0.32935(17) 1.0168(6)
H3 H 0.45370 0.31590 0.93460
H4 H 0.55070 0.34920 1.02510
H5 H 0.29190 0.34120 1.01940
C5 C 0.4402(10) 0.31958(17) 1.2617(5)
H6 H 0.28810 0.32800 1.27250
H7 H 0.53870 0.34170 1.26790
H8 H 0.47920 0.30110 1.32920
C6 C 0.5380(8) 0.20611(13) 0.8690(5)
C7 C 0.3566(9) 0.19798(15) 0.7859(5)
H9 H 0.22080 0.21070 0.79810
C8 C 0.3764(11) 0.17096(16) 0.6848(5)
H10 H 0.25520 0.16600 0.62840
C9 C 0.5769(11) 0.15160(17) 0.6684(6)
H11 H 0.58930 0.13310 0.60190
C10 C 0.7582(11) 0.15935(18) 0.7492(6)
H12 H 0.89300 0.14630 0.73720
C11 C 0.7399(10) 0.18680(17) 0.8491(6)
H13 H 0.86350 0.19230 0.90300
O2 O 0.5332(6) 0.29801(13) 0.6734(5)
N4 N 0.6958(7) 0.28200(13) 0.6143(5)
C12 C 0.6732(9) 0.25162(15) 0.5362(5)
H14 H 0.53160 0.24110 0.51990
C13 C 0.8665(8) 0.23436(14) 0.4753(5)
N5 N 1.0678(7) 0.24251(12) 0.5168(4)
N6 N 1.0787(7) 0.26829(13) 0.6196(4)
H15 H 1.215(5) 0.2715(17) 0.634(6)
C14 C 0.9224(8) 0.30027(16) 0.6263(5)
C15 C 0.9469(12) 0.32960(17) 0.5159(6)
H16 H 1.09600 0.34020 0.51820
H17 H 0.84030 0.35030 0.52640
H18 H 0.91990 0.31680 0.43300
C16 C 0.9516(10) 0.31898(18) 0.7601(5)
H19 H 0.91910 0.30010 0.82700
H20 H 0.85110 0.34080 0.76710
H21 H 1.10340 0.32790 0.77110
C17 C 0.8384(9) 0.20537(14) 0.3676(5)
C18 C 1.0176(9) 0.19728(17) 0.2870(6)
H22 H 1.15160 0.21080 0.29920
C19 C 1.0006(11) 0.16942(19) 0.1887(7)
H23 H 1.12230 0.16430 0.13550
C20 C 0.8026(12) 0.14932(19) 0.1700(7)
H24 H 0.79020 0.13050 0.10440
C21 C 0.6243(12) 0.15721(19) 0.2483(6)
H25 H 0.49020 0.14370 0.23550
C22 C 0.6420(11) 0.18511(17) 0.3464(6)
H26 H 0.51920 0.19020 0.39870
O3 O 0.5344(6) 0.43827(13) 0.0680(4)
N7 N 0.6993(6) 0.45470(13) 0.1309(5)
C23 C 0.6820(8) 0.48527(15) 0.2055(5)
H27 H 0.54150 0.49620 0.21900
C24 C 0.8764(8) 0.50252(14) 0.2675(5)
N8 N 1.0757(7) 0.49467(12) 0.2288(5)
N9 N 1.0830(8) 0.46840(14) 0.1253(5)
H28 H 1.226(11) 0.4642(17) 0.102(6)
C25 C 0.9272(8) 0.43605(15) 0.1199(5)
C26 C 0.9534(11) 0.40718(18) 0.2325(6)
H29 H 1.10180 0.39630 0.23240
H30 H 0.84520 0.38660 0.22200
H31 H 0.92990 0.42040 0.31430
C27 C 0.9500(9) 0.41679(17) -0.0137(5)
H32 H 0.90730 0.43500 -0.08140
H33 H 0.85440 0.39430 -0.01870
H34 H 1.10290 0.40890 -0.02530
C28 C 0.8482(9) 0.53258(15) 0.3725(5)
C29 C 1.0228(10) 0.55795(17) 0.4055(7)
H35 H 1.15820 0.55600 0.36220
C30 C 0.9976(12) 0.58612(19) 0.5023(8)
H36 H 1.11600 0.60270 0.52400
C31 C 0.7983(11) 0.58939(17) 0.5656(7)
H37 H 0.78160 0.60810 0.63120
C32 C 0.6227(10) 0.56514(17) 0.5324(6)
H38 H 0.48620 0.56770 0.57440
C33 C 0.6492(9) 0.53686(17) 0.4365(6)
H39 H 0.52970 0.52040 0.41500
O4 O 0.8514(6) 0.43663(14) 0.5728(5)
N10 N 0.6895(6) 0.45374(13) 0.6321(5)
C34 C 0.7140(8) 0.48358(15) 0.7108(5)
H40 H 0.85630 0.49360 0.72840
C35 C 0.5221(8) 0.50101(14) 0.7705(5)
N11 N 0.3227(7) 0.49448(14) 0.7273(5)
N12 N 0.3093(7) 0.46891(15) 0.6229(5)
H41 H 0.166(11) 0.4663(17) 0.590(6)
C36 C 0.4599(8) 0.43563(15) 0.6187(5)
C37 C 0.4326(11) 0.40662(17) 0.7301(6)
H42 H 0.45690 0.41970 0.81270
H43 H 0.53980 0.38590 0.72140
H44 H 0.28370 0.39600 0.72660
C38 C 0.4318(10) 0.41672(17) 0.4842(6)
H45 H 0.27810 0.40920 0.47060
H46 H 0.52590 0.39400 0.47960
H47 H 0.47360 0.43500 0.41750
C39 C 0.5553(8) 0.53029(14) 0.8777(5)
C40 C 0.3809(10) 0.53866(17) 0.9606(6)
H48 H 0.24420 0.52590 0.94980
C41 C 0.4091(11) 0.56632(18) 1.0609(6)
H49 H 0.29130 0.57170 1.11670
C42 C 0.6105(12) 0.58562(17) 1.0776(6)
H50 H 0.62800 0.60420 1.14360
C43 C 0.7856(12) 0.5772(2) 0.9961(7)
H51 H 0.92260 0.58980 1.00770
C44 C 0.7573(11) 0.54970(18) 0.8962(7)
H52 H 0.87590 0.54430 0.84100
#END
