
#######################################################################
#
#                 Cambridge Crystallographic Data Centre
#                                CCDC
#
#######################################################################
#
# If this CIF has been generated from an entry in the Cambridge
# Structural Database, then it will include bibliographic, chemical,
# crystal, experimental, refinement or atomic coordinate data resulting
# from the CCDC's data processing and validation procedures.
#
#######################################################################

data_CSD_CIF_SAHFAL
_audit_creation_date 2017-02-07
_audit_creation_method CSD-ConQuest-V1
_database_code_CSD SAHFAL
_database_code_depnum_ccdc_archive 'CCDC 1443175'
_chemical_formula_sum 'C16 H15 N3 O1'
_chemical_formula_moiety
;
C16 H15 N3 O1
;
_journal_coden_Cambridge 35
_journal_volume 82
_journal_year 2017
_journal_page_first 1666
_journal_name_full 'J.Org.Chem. '
loop_
_publ_author_name
"D.A.Safin"
"M.P.Mitoraj"
"M.G.Babashkina"
"P.Kubisiak"
"K.Robeyns"
"Y.Filinchuk"
_chemical_name_systematic
;
N-hydroxy-2-{[(4-methylphenyl)methylidene]hydrazinylidene}-2-phenylethan-1-imi
ne
;
_cell_volume   2913.472
_exptl_crystal_colour 'yellow'
_exptl_crystal_density_diffrn 1.21
_exptl_crystal_description 'block'
_diffrn_ambient_temperature 297
#These two values have been output from a single CSD field.
_refine_ls_R_factor_gt 0.0469
_refine_ls_wR_factor_gt 0.0469
_symmetry_cell_setting monoclinic
_symmetry_space_group_name_H-M 'P 21/c'
_symmetry_Int_Tables_number 14
loop_
_symmetry_equiv_pos_site_id
_symmetry_equiv_pos_as_xyz
1 x,y,z
2 -x,1/2+y,1/2-z
3 -x,-y,-z
4 x,-1/2-y,-1/2+z
_cell_length_a 13.9058(9)
_cell_length_b 15.9471(7)
_cell_length_c 14.5652(12)
_cell_angle_alpha 90
_cell_angle_beta 115.575(9)
_cell_angle_gamma 90
_cell_formula_units_Z 8
loop_
_atom_type_symbol
_atom_type_radius_bond
C 0.68
H 0.23
N 0.68
O 0.68
loop_
_atom_site_label
_atom_site_type_symbol
_atom_site_fract_x
_atom_site_fract_y
_atom_site_fract_z
C1 C 0.56875(15) 0.45097(12) 0.74661(18)
H1 H 0.54720 0.42340 0.79080
C2 C 0.58550(17) 0.53661(13) 0.7551(2)
H2 H 0.57720 0.56600 0.80640
C3 C 0.61419(17) 0.57838(13) 0.6890(2)
H3 H 0.62430 0.63610 0.69460
C4 C 0.62791(17) 0.53538(13) 0.6148(2)
H4 H 0.64700 0.56400 0.56950
C5 C 0.61352(14) 0.44884(11) 0.60603(16)
H5 H 0.62370 0.41980 0.55560
C6 C 0.58398(12) 0.40607(10) 0.67260(14)
C7 C 0.57342(12) 0.31347(10) 0.66538(13)
C8 C 0.48619(12) 0.27093(10) 0.67683(15)
H6 H 0.49200 0.21420 0.69300
N1 N 0.40271(10) 0.31056(8) 0.66491(12)
O1 O 0.33001(10) 0.25751(7) 0.67604(12)
H7 H 0.2710(18) 0.2856(8) 0.6646(4)
N2 N 0.64523(10) 0.27249(8) 0.64960(11)
N3 N 0.62694(11) 0.18566(8) 0.63636(12)
C9 C 0.70595(13) 0.14539(10) 0.63649(13)
H8 H 0.76720 0.17460 0.64530
C10 C 0.70309(13) 0.05485(10) 0.62322(13)
C11 C 0.61713(16) 0.00695(12) 0.61559(18)
H9 H 0.55910 0.03280 0.61960
C12 C 0.61635(18) -0.07850(13) 0.60210(19)
H10 H 0.55740 -0.10920 0.59690
C13 C 0.70003(19) -0.11959(12) 0.59613(15)
C14 C 0.78645(18) -0.07194(12) 0.60541(16)
H11 H 0.84490 -0.09830 0.60270
C15 C 0.78849(16) 0.01418(11) 0.61859(16)
H12 H 0.84780 0.04480 0.62440
C16 C 0.6976(2) -0.21374(13) 0.5824(2)
H13 H 0.73830 -0.22860 0.54570
H14 H 0.62520 -0.23190 0.54480
H15 H 0.72780 -0.24050 0.64780
C17 C 0.06447(14) 0.16276(11) 0.73991(16)
H16 H 0.04610 0.19130 0.78570
C18 C 0.07819(16) 0.07676(12) 0.74777(19)
H17 H 0.07090 0.04810 0.80000
C19 C 0.10232(16) 0.03351(12) 0.6796(2)
H18 H 0.11060 -0.02440 0.68500
C20 C 0.11431(16) 0.07564(12) 0.60352(19)
H19 H 0.13000 0.04620 0.55650
C21 C 0.10325(14) 0.1618(1) 0.59607(15)
H20 H 0.11290 0.19000 0.54480
C22 C 0.07795(12) 0.20666(10) 0.66405(13)
C23 C 0.06901(11) 0.29956(10) 0.65645(13)
C24 C -0.01666(12) 0.3428(1) 0.66982(14)
H21 H -0.01320 0.40060 0.67910
N4 N -0.09547(10) 0.30281(8) 0.66897(11)
O2 O -0.16663(9) 0.35653(7) 0.68183(11)
H22 H -0.2229(15) 0.3273(8) 0.67889(14)
N5 N 0.14035(10) 0.33906(8) 0.63877(11)
N6 N 0.12477(10) 0.42605(8) 0.62757(11)
C25 C 0.20099(13) 0.46439(10) 0.62020(14)
H23 H 0.25860 0.43370 0.62200
C26 C 0.20077(13) 0.55509(10) 0.60904(13)
C27 C 0.11751(14) 0.60469(11) 0.60676(15)
H24 H 0.05940 0.57970 0.61150
C28 C 0.12050(16) 0.69032(11) 0.59753(15)
H25 H 0.06460 0.72250 0.59740
C29 C 0.20450(16) 0.72998(11) 0.58836(14)
C30 C 0.28675(16) 0.68079(12) 0.59093(16)
H26 H 0.34440 0.70600 0.58540
C31 C 0.28574(15) 0.59465(11) 0.60155(15)
H27 H 0.34280 0.56290 0.60370
C32 C 0.2035(2) 0.82358(12) 0.57456(18)
H28 H 0.26550 0.84010 0.56590
H29 H 0.20400 0.85080 0.63350
H30 H 0.14050 0.83950 0.51550
#END
