
#######################################################################
#
#                 Cambridge Crystallographic Data Centre
#                                CCDC
#
#######################################################################
#
# If this CIF has been generated from an entry in the Cambridge
# Structural Database, then it will include bibliographic, chemical,
# crystal, experimental, refinement or atomic coordinate data resulting
# from the CCDC's data processing and validation procedures.
#
#######################################################################

data_CSD_CIF_SAHFIT
_audit_creation_date 2017-02-07
_audit_creation_method CSD-ConQuest-V1
_database_code_CSD SAHFIT
_database_code_depnum_ccdc_archive 'CCDC 1443172'
_chemical_formula_sum 'C14 H12 N4 O1'
_chemical_formula_moiety
;
C14 H12 N4 O1
;
_journal_coden_Cambridge 35
_journal_volume 82
_journal_year 2017
_journal_page_first 1666
_journal_name_full 'J.Org.Chem. '
loop_
_publ_author_name
"D.A.Safin"
"M.P.Mitoraj"
"M.G.Babashkina"
"P.Kubisiak"
"K.Robeyns"
"Y.Filinchuk"
_chemical_name_systematic
;
6-phenyl-3-(pyridin-2-yl)-2,3-dihydro-1,2,4-triazine 4-oxide
;
_cell_volume   2435.373
_exptl_crystal_colour 'pale yellow'
_exptl_crystal_density_diffrn 1.376
_exptl_crystal_description 'rod'
_diffrn_ambient_temperature 150
_refine_special_details
;
C63,C74,C76,C77,C78,C79,N62,N64,N75,O61 and 
C63B,C74B,C76B,C77B,C78B,C79B,N62B,N64B,N75B,O61B disordered over two sites 
with occupancies 0.754:0.246.
;
#These two values have been output from a single CSD field.
_refine_ls_R_factor_gt 0.0709
_refine_ls_wR_factor_gt 0.0709
_symmetry_cell_setting monoclinic
_symmetry_space_group_name_H-M 'P n'
_symmetry_Int_Tables_number 7
loop_
_symmetry_equiv_pos_site_id
_symmetry_equiv_pos_as_xyz
1 x,y,z
2 1/2+x,-y,1/2+z
_cell_length_a 5.8539(6)
_cell_length_b 27.248(2)
_cell_length_c 15.506(3)
_cell_angle_alpha 90
_cell_angle_beta 100.049(13)
_cell_angle_gamma 90
_cell_formula_units_Z 8
loop_
_atom_type_symbol
_atom_type_radius_bond
C 0.68
H 0.23
N 0.68
O 0.68
loop_
_atom_site_label
_atom_site_type_symbol
_atom_site_fract_x
_atom_site_fract_y
_atom_site_fract_z
O1 O -0.3489(16) -0.0049(3) 0.6804(7)
N1 N -0.1818(17) 0.0270(3) 0.6780(7)
C1 C 0.055(2) 0.0095(4) 0.7059(9)
H1 H 0.05340 -0.02650 0.69350
N2 N 0.2008(19) 0.0314(3) 0.6517(8)
H2 H 0.363(9) 0.016(3) 0.662(7)
N3 N 0.1912(19) 0.0832(3) 0.6478(8)
C2 C -0.016(2) 0.1026(4) 0.6490(8)
C3 C -0.211(2) 0.0730(3) 0.6569(9)
H3 H -0.36250 0.08680 0.64670
C4 C -0.041(2) 0.1566(4) 0.6401(8)
C5 C 0.149(2) 0.1874(4) 0.6653(8)
H4 H 0.29650 0.17370 0.68820
C6 C 0.123(3) 0.2384(4) 0.6571(8)
H5 H 0.25100 0.25960 0.67520
C7 C -0.095(2) 0.2576(5) 0.6219(10)
H6 H -0.11440 0.29210 0.61770
C8 C -0.278(2) 0.2279(5) 0.5937(10)
H7 H -0.42310 0.24120 0.56710
C9 C -0.248(2) 0.1776(4) 0.6044(9)
H8 H -0.37790 0.15680 0.58630
C10 C 0.131(2) 0.0153(4) 0.8055(9)
N4 N -0.015(2) 0.0387(4) 0.8471(7)
C11 C 0.056(3) 0.0433(5) 0.9359(8)
H9 H -0.04540 0.05980 0.96780
C12 C 0.258(3) 0.0264(4) 0.9817(10)
H10 H 0.29720 0.03140 1.04310
C13 C 0.407(3) 0.0014(6) 0.9365(10)
H11 H 0.55270 -0.01050 0.96590
C14 C 0.338(2) -0.0056(5) 0.8484(10)
H12 H 0.43070 -0.02460 0.81640
O2 O 0.0999(14) 0.8985(2) 0.6240(6)
N5 N 0.2676(15) 0.8660(3) 0.6288(6)
C15 C 0.5049(19) 0.8835(4) 0.6596(8)
H13 H 0.50730 0.91950 0.64740
N6 N 0.6468(18) 0.8593(3) 0.6032(7)
H14 H 0.805(10) 0.876(3) 0.615(6)
N7 N 0.6340(17) 0.8087(3) 0.5992(7)
C16 C 0.434(2) 0.7905(3) 0.6021(8)
C17 C 0.236(2) 0.8197(3) 0.6055(8)
H15 H 0.08390 0.80630 0.59120
C18 C 0.4071(19) 0.7352(3) 0.5923(8)
C19 C 0.5750(19) 0.7077(4) 0.5615(7)
H16 H 0.70770 0.72360 0.54710
C20 C 0.552(2) 0.6568(3) 0.5512(7)
H17 H 0.66430 0.63840 0.52750
C21 C 0.359(2) 0.6335(4) 0.5766(10)
H18 H 0.33920 0.59900 0.57020
C22 C 0.198(2) 0.6610(4) 0.6108(8)
H19 H 0.06980 0.64490 0.62820
C23 C 0.219(2) 0.7123(3) 0.6206(8)
H20 H 0.10930 0.73070 0.64560
C24 C 0.5713(18) 0.8767(4) 0.7557(7)
N8 N 0.4184(17) 0.8598(3) 0.7993(6)
C25 C 0.490(2) 0.8555(5) 0.8883(9)
H21 H 0.38550 0.84040 0.92060
C26 C 0.695(2) 0.8708(4) 0.9342(7)
H22 H 0.73160 0.86870 0.99630
C27 C 0.848(2) 0.8898(5) 0.8843(10)
H23 H 0.99720 0.90070 0.91190
C28 C 0.785(2) 0.8930(4) 0.7956(8)
H24 H 0.88980 0.90650 0.76140
O3 O 1.3392(13) 0.6004(2) 0.3337(6)
N9 N 1.1759(16) 0.6327(3) 0.3326(6)
C29 C 0.9374(18) 0.6147(3) 0.3007(8)
H25 H 0.93100 0.57880 0.31330
N10 N 0.7916(15) 0.6400(3) 0.3499(6)
H26 H 0.628(8) 0.628(2) 0.353(5)
N11 N 0.7974(15) 0.6896(3) 0.3565(6)
C30 C 1.0006(18) 0.7101(3) 0.3527(7)
C31 C 1.2025(18) 0.6789(3) 0.3502(6)
H27 H 1.35390 0.69260 0.36140
C32 C 1.0255(18) 0.7629(3) 0.3611(6)
C33 C 1.2147(19) 0.7875(3) 0.3371(8)
H28 H 1.33150 0.76920 0.31590
C34 C 1.234(2) 0.8375(4) 0.3437(8)
H29 H 1.36220 0.85360 0.32590
C35 C 1.073(2) 0.8640(4) 0.3755(8)
H30 H 1.08700 0.89870 0.37920
C36 C 0.890(2) 0.8413(4) 0.4022(9)
H31 H 0.77740 0.86030 0.42470
C37 C 0.867(2) 0.7915(3) 0.3968(8)
H32 H 0.74170 0.77600 0.41760
C38 C 0.8651(16) 0.6230(3) 0.1993(5)
N12 N 1.0231(15) 0.6424(3) 0.1541(6)
C39 C 0.9588(17) 0.6464(4) 0.0673(7)
H33 H 1.06770 0.65870 0.03390
C40 C 0.745(2) 0.6335(5) 0.0252(8)
H34 H 0.70580 0.63880 -0.03620
C41 C 0.5808(18) 0.6129(4) 0.0692(7)
H35 H 0.43490 0.60180 0.03890
C42 C 0.6409(16) 0.6094(4) 0.1604(7)
H36 H 0.53240 0.59810 0.19480
O4 O 0.796(2) 0.4971(4) 0.2422(10)
N13 N 0.655(3) 0.4692(4) 0.279(3)
C43 C 0.471(2) 0.4940(4) 0.3195(10)
H37 H 0.43760 0.52720 0.29280
N14 N 0.268(2) 0.4632(3) 0.2995(11)
H38 H 0.108(8) 0.478(2) 0.299(7)
N15 N 0.2650(17) 0.4148(3) 0.3067(7)
C44 C 0.465(2) 0.3950(4) 0.3044(8)
C45 C 0.659(2) 0.4227(4) 0.2879(8)
H39 H 0.79860 0.40570 0.28350
C46 C 0.4896(19) 0.3411(4) 0.3180(8)
C47 C 0.298(2) 0.3106(4) 0.2901(8)
H40 H 0.15330 0.32410 0.26330
C48 C 0.323(2) 0.2610(4) 0.3021(9)
H41 H 0.19210 0.24040 0.28500
C49 C 0.530(2) 0.2401(4) 0.3377(8)
H42 H 0.54210 0.20560 0.34510
C50 C 0.724(2) 0.2704(5) 0.3633(8)
H43 H 0.86930 0.25620 0.38730
C51 C 0.705(2) 0.3196(4) 0.3538(8)
H44 H 0.83730 0.33990 0.37130
C52 C 0.5572(15) 0.4988(2) 0.4127(5)
N16 N 0.7782(14) 0.5160(2) 0.4329(6)
C53 C 0.8640(17) 0.5226(3) 0.5179(8)
H45 H 1.01810 0.53460 0.53390
C54 C 0.740(2) 0.5130(4) 0.5819(8)
H46 H 0.81000 0.51840 0.64120
C55 C 0.514(2) 0.4954(4) 0.5634(8)
H47 H 0.42760 0.48870 0.60860
C56 C 0.4192(16) 0.4881(3) 0.4751(7)
H48 H 0.26550 0.47620 0.45810
O5? O 0.788(4) 0.5041(9) 0.2814(15)
N17? N 0.630(6) 0.4693(6) 0.283(6)
C57? C 0.402(5) 0.4946(11) 0.252(2)
H49? H 0.39100 0.52910 0.27270
N18? N 0.232(6) 0.4603(8) 0.276(3)
H50? H 0.063(9) 0.465(4) 0.245(11)
C58? C 0.329(3) 0.4870(7) 0.1563(10)
N19? N 0.466(3) 0.4588(6) 0.1104(12)
C59? C 0.396(3) 0.4510(7) 0.0211(12)
H51? H 0.48970 0.43180 -0.01020
C60? C 0.190(4) 0.4713(8) -0.0223(10)
H52? H 0.14260 0.46590 -0.08340
C61? C 0.053(3) 0.4994(7) 0.0235(12)
H53? H -0.08740 0.51330 -0.00610
C62? C 0.123(3) 0.5073(7) 0.1128(12)
H54? H 0.02960 0.52650 0.14420
#END
