
#######################################################################
#
#                 Cambridge Crystallographic Data Centre
#                                CCDC
#
#######################################################################
#
# If this CIF has been generated from an entry in the Cambridge
# Structural Database, then it will include bibliographic, chemical,
# crystal, experimental, refinement or atomic coordinate data resulting
# from the CCDC's data processing and validation procedures.
#
#######################################################################

data_CSD_CIF_SAHLEU
_audit_creation_date 2012-02-16
_audit_creation_method CSD-ConQuest-V1
_database_code_CSD SAHLEU
_database_code_depnum_ccdc_archive 'CCDC 854775'
_chemical_formula_sum 'C13 H10 N2 O4'
_chemical_formula_moiety
;
C13 H10 N2 O4
;
_journal_coeditor_code "IUCr IM2343"
_journal_coden_Cambridge 1370
_journal_volume 68
_journal_year 2012
_journal_page_first o213
_journal_name_full 'Acta Crystallogr.,Sect.E:Struct.Rep.Online '
loop_
_publ_author_name
"Xiao-Lin Zhu"
"Lu Shi"
"Peng Jiang"
"Tian-Hao Zhu"
"Hong-Jun Zhu"
_chemical_name_systematic
;
2-((2-Nitrophenyl)amino)benzoic acid
;
_chemical_name_common
;
2-(2-Nitroanilino)benzoic acid
;
_chemical_melting_point 490
_cell_volume   1198.813
_exptl_crystal_colour 'yellow'
_exptl_crystal_density_diffrn 1.431
_exptl_crystal_description 'block'
_exptl_crystal_preparation 'acetone'
_diffrn_ambient_temperature 293
#These two values have been output from a single CSD field.
_refine_ls_R_factor_gt 0.0565
_refine_ls_wR_factor_gt 0.0565
_symmetry_cell_setting monoclinic
_symmetry_space_group_name_H-M 'P 21/c'
_symmetry_Int_Tables_number 14
loop_
_symmetry_equiv_pos_site_id
_symmetry_equiv_pos_as_xyz
1 x,y,z
2 -x,1/2+y,1/2-z
3 -x,-y,-z
4 x,-1/2-y,-1/2+z
_cell_length_a 7.1840(14)
_cell_length_b 21.546(4)
_cell_length_c 7.9070(16)
_cell_angle_alpha 90
_cell_angle_beta 101.62(3)
_cell_angle_gamma 90
_cell_formula_units_Z 4
loop_
_atom_type_symbol
_atom_type_radius_bond
C 0.68
H 0.23
N 0.68
O 0.68
loop_
_atom_site_label
_atom_site_type_symbol
_atom_site_fract_x
_atom_site_fract_y
_atom_site_fract_z
N1 N 0.3630(3) 0.63169(9) 0.8669(2)
H1 H 0.29750 0.60830 0.78890
O1 O 0.6904(2) 0.49333(8) 0.6877(2)
H2 H 0.64780 0.47990 0.59060
C1 C 0.5770(4) 0.62113(12) 1.1447(3)
H3 H 0.51170 0.65270 1.18820
O2 O 0.4326(2) 0.55260(8) 0.6238(2)
N2 N -0.0301(3) 0.66483(11) 0.7232(3)
C2 C 0.7255(4) 0.59204(13) 1.2522(3)
H4 H 0.75940 0.60400 1.36730
O3 O 0.0167(3) 0.61293(10) 0.6871(3)
C3 C 0.8248(4) 0.54511(14) 1.1905(3)
H5 H 0.92600 0.52570 1.26290
C4 C 0.7721(3) 0.52775(12) 1.0218(3)
H6 H 0.83760 0.49570 0.98090
O4 O -0.1970(3) 0.68049(12) 0.6926(4)
C5 C 0.6226(3) 0.55667(10) 0.9083(3)
C6 C 0.5225(3) 0.60428(11) 0.9718(3)
C7 C 0.5730(3) 0.53451(11) 0.7287(3)
C8 C 0.2996(3) 0.69134(11) 0.8744(3)
C9 C 0.1125(3) 0.70950(11) 0.8017(3)
C10 C 0.0547(4) 0.77113(13) 0.8017(3)
H7 H -0.06980 0.78170 0.75190
C11 C 0.1794(4) 0.81632(13) 0.8742(4)
H8 H 0.14140 0.85760 0.87230
C12 C 0.3632(4) 0.79945(11) 0.9505(3)
H9 H 0.44780 0.82960 1.00350
C13 C 0.4222(3) 0.73919(11) 0.9492(3)
H10 H 0.54730 0.72950 0.99930
#END
