
#######################################################################
#
#                 Cambridge Crystallographic Data Centre
#                                CCDC
#
#######################################################################
#
# If this CIF has been generated from an entry in the Cambridge
# Structural Database, then it will include bibliographic, chemical,
# crystal, experimental, refinement or atomic coordinate data resulting
# from the CCDC's data processing and validation procedures.
#
#######################################################################

data_CSD_CIF_SAHSID
_audit_creation_date 1989-08-09
_audit_creation_method CSD-ConQuest-V1
_database_code_CSD SAHSID
_chemical_formula_sum 'C10 H6 N2 O4'
_chemical_formula_moiety
;
C10 H6 N2 O4
;
_journal_coden_Cambridge 35
_journal_volume 54
_journal_year 1989
_journal_page_first 548
_journal_name_full 'J.Org.Chem. '
loop_
_publ_author_name
"G.L.Squadrito"
"F.R.Fronczek"
"D.F.Church"
"W.A.Pryor"
_chemical_name_systematic
;
2,3-Dinitronaphthalene
;
_cell_volume    972.036
_exptl_crystal_colour 'pale yellow'
_exptl_crystal_density_diffrn 1.491
_diffrn_ambient_temperature ?
_diffrn_special_details
;
The study was carried out at room temperature,in the range 283-303K

;
#These two values have been output from a single CSD field.
_refine_ls_R_factor_gt 0.072
_refine_ls_wR_factor_gt 0.072
_symmetry_cell_setting monoclinic
_symmetry_space_group_name_H-M 'P 21/n'
_symmetry_Int_Tables_number 14
loop_
_symmetry_equiv_pos_site_id
_symmetry_equiv_pos_as_xyz
1 x,y,z
2 1/2-x,1/2+y,1/2-z
3 -x,-y,-z
4 -1/2+x,-1/2-y,-1/2+z
_cell_length_a 6.879(2)
_cell_length_b 14.802(2)
_cell_length_c 9.5511(11)
_cell_angle_alpha 90
_cell_angle_beta 91.81(2)
_cell_angle_gamma 90
_cell_formula_units_Z 4
loop_
_atom_type_symbol
_atom_type_radius_bond
C 0.68
H 0.23
N 0.68
O 0.68
loop_
_atom_site_label
_atom_site_type_symbol
_atom_site_fract_x
_atom_site_fract_y
_atom_site_fract_z
O1 O 0.2661(5) 0.4186(2) 0.0672(2)
O2 O 0.1006(4) 0.3008(2) 0.1216(2)
O3 O 0.1772(5) 0.1654(2) 0.4159(3)
O4 O 0.3919(4) 0.2067(2) 0.2722(3)
N1 N 0.2022(4) 0.3668(2) 0.1512(2)
N2 N 0.2665(4) 0.2231(2) 0.3583(3)
C1 C 0.2375(3) 0.4751(2) 0.3407(2)
C2 C 0.2342(4) 0.3870(2) 0.2999(2)
C3 C 0.2427(3) 0.3173(1) 0.4001(3)
C4 C 0.2499(4) 0.3366(2) 0.5383(3)
C5 C 0.2631(4) 0.4499(2) 0.7287(3)
C6 C 0.2703(4) 0.5377(2) 0.7689(3)
C7 C 0.2665(4) 0.6073(2) 0.6698(3)
C8 C 0.2558(4) 0.5885(2) 0.5302(3)
C9 C 0.2488(3) 0.4978(1) 0.4838(2)
C10 C 0.2531(3) 0.4273(2) 0.5852(2)
H1 H 0.237(3) 0.521(2) 0.273(3)
H2 H 0.253(3) 0.290(2) 0.605(3)
H3 H 0.270(4) 0.397(2) 0.796(3)
H4 H 0.277(4) 0.554(2) 0.855(3)
H5 H 0.270(4) 0.667(2) 0.696(3)
H6 H 0.259(3) 0.635(2) 0.465(2)
#END
