
#######################################################################
#
#                 Cambridge Crystallographic Data Centre
#                                CCDC
#
#######################################################################
#
# If this CIF has been generated from an entry in the Cambridge
# Structural Database, then it will include bibliographic, chemical,
# crystal, experimental, refinement or atomic coordinate data resulting
# from the CCDC's data processing and validation procedures.
#
#######################################################################

data_CSD_CIF_SAKDOZ
_audit_creation_date 2012-02-03
_audit_creation_method CSD-ConQuest-V1
_database_code_CSD SAKDOZ
_database_code_depnum_ccdc_archive 'CCDC 844753'
_chemical_formula_sum 'C9 H7 N1 O5'
_chemical_formula_moiety
;
C9 H7 N1 O5
;
_journal_coden_Cambridge 182
_journal_volume 47
_journal_year 2011
_journal_page_first 12700
_journal_name_full 'Chem.Commun. '
loop_
_publ_author_name
"Yan-Ping Zhu"
"Qing-He Gao"
"Mi Lian"
"Jing-Jing Yuan"
"Mei-Cai Liu"
"Qin Zhao"
"Yan Yang"
"An-Xin Wu"
_chemical_name_systematic
;
2-(4-Nitrophenyl)-2-oxoethyl formate
;
_cell_volume    927.016
_exptl_crystal_colour 'colorless'
_exptl_crystal_density_diffrn 1.499
_exptl_crystal_description 'block'
_diffrn_ambient_temperature 298
#These two values have been output from a single CSD field.
_refine_ls_R_factor_gt 0.0539
_refine_ls_wR_factor_gt 0.0539
_symmetry_cell_setting monoclinic
_symmetry_space_group_name_H-M 'P 21/c'
_symmetry_Int_Tables_number 14
loop_
_symmetry_equiv_pos_site_id
_symmetry_equiv_pos_as_xyz
1 x,y,z
2 -x,1/2+y,1/2-z
3 -x,-y,-z
4 x,-1/2-y,-1/2+z
_cell_length_a 9.679(1)
_cell_length_b 15.1737(15)
_cell_length_c 6.3703(6)
_cell_angle_alpha 90
_cell_angle_beta 97.759(2)
_cell_angle_gamma 90
_cell_formula_units_Z 4
loop_
_atom_type_symbol
_atom_type_radius_bond
C 0.68
H 0.23
N 0.68
O 0.68
loop_
_atom_site_label
_atom_site_type_symbol
_atom_site_fract_x
_atom_site_fract_y
_atom_site_fract_z
C1 C 0.59429(14) 0.86120(9) -0.0868(2)
C2 C 0.46180(15) 0.83962(9) -0.1802(2)
H1 H 0.44730 0.81320 -0.31320
C3 C 0.35112(14) 0.85815(9) -0.0717(2)
H2 H 0.26090 0.84360 -0.13120
C4 C 0.37382(14) 0.89862(8) 0.1275(2)
C5 C 0.50976(14) 0.91837(9) 0.2177(2)
H3 H 0.52540 0.94460 0.35080
C6 C 0.62092(14) 0.89941(9) 0.1115(2)
H4 H 0.71170 0.91200 0.17170
C7 C 0.25772(15) 0.92483(8) 0.2455(2)
C8 C 0.11207(15) 0.89698(11) 0.1550(2)
H5 H 0.08800 0.92330 0.01610
H6 H 0.10930 0.83340 0.13820
C9 C 0.01385(19) 0.87702(13) 0.4655(3)
H7 H -0.05160 0.89120 0.55440
N1 N 0.71245(14) 0.84328(9) -0.2036(2)
O1 O 0.68900(14) 0.81188(9) -0.3802(2)
O2 O 0.82801(13) 0.86375(13) -0.1197(2)
O3 O 0.27868(12) 0.96835(9) 0.40546(19)
O4 O 0.01206(11) 0.92306(8) 0.28849(18)
O5 O 0.09352(17) 0.8186(1) 0.5191(2)
#END
