
#######################################################################
#
#                 Cambridge Crystallographic Data Centre
#                                CCDC
#
#######################################################################
#
# If this CIF has been generated from an entry in the Cambridge
# Structural Database, then it will include bibliographic, chemical,
# crystal, experimental, refinement or atomic coordinate data resulting
# from the CCDC's data processing and validation procedures.
#
#######################################################################

data_CSD_CIF_SAKDIR
_audit_creation_date 1989-09-22
_audit_creation_method CSD-ConQuest-V1
_database_code_CSD SAKDIR
_chemical_formula_sum 'C10 H15 N1 O4'
_chemical_formula_moiety
;
C10 H15 N1 O4
;
_journal_coden_Cambridge 16
_journal_volume 44
_journal_year 1988
_journal_page_first 6921
_journal_name_full 'Tetrahedron '
loop_
_publ_author_name
"F.Felluga"
"G.Nardin"
"P.Nitti"
"G.Pitacco"
"E.Valentin"
_chemical_name_systematic
;
(1R*-(1\a,3a\b,7a\b))-1-Hydroxy-1-methyl-7a-nitro-octahydro-2H-inden-2-one
;
_chemical_melting_point 372.15
_cell_volume   1065.329
_exptl_crystal_colour 'colorless'
_exptl_crystal_density_diffrn 1.329
_exptl_special_details
;
Melting point range 372.15-373.15K
H1 deleted; attached to O1 instead of O4

;
_diffrn_ambient_temperature ?
_diffrn_special_details
;
The study was carried out at room temperature,in the range 283-303K

;
#These two values have been output from a single CSD field.
_refine_ls_R_factor_gt 0.069
_refine_ls_wR_factor_gt 0.069
_symmetry_cell_setting orthorhombic
_symmetry_space_group_name_H-M 'P 21 21 21'
_symmetry_Int_Tables_number 19
loop_
_symmetry_equiv_pos_site_id
_symmetry_equiv_pos_as_xyz
1 x,y,z
2 1/2+x,1/2-y,-z
3 -x,1/2+y,1/2-z
4 1/2-x,-y,1/2+z
_cell_length_a 7.238(1)
_cell_length_b 10.269(1)
_cell_length_c 14.333(3)
_cell_angle_alpha 90
_cell_angle_beta 90
_cell_angle_gamma 90
_cell_formula_units_Z 4
loop_
_atom_type_symbol
_atom_type_radius_bond
C 0.68
H 0.23
N 0.68
O 0.68
loop_
_atom_site_label
_atom_site_type_symbol
_atom_site_fract_x
_atom_site_fract_y
_atom_site_fract_z
O1 O 0.0441(8) 0.2248(5) 0.4920(4)
O2 O -0.232(1) -0.2096(7) 0.3144(7)
O3 O -0.050(1) -0.2788(6) 0.4201(6)
O4 O -0.2467(8) 0.0968(5) 0.3988(4)
N1 N -0.104(1) -0.1941(7) 0.3671(6)
C1 C -0.092(1) 0.0292(7) 0.4380(5)
C2 C 0.062(1) 0.1197(7) 0.4579(5)
C3 C 0.239(1) 0.056(1) 0.4305(6)
C4 C 0.187(1) -0.0819(8) 0.3996(6)
C5 C 0.321(1) -0.144(1) 0.3262(7)
C6 C 0.302(2) -0.0820(9) 0.2311(7)
C7 C 0.091(2) -0.082(1) 0.1992(7)
C8 C -0.018(1) -0.0063(8) 0.2679(5)
C9 C -0.0074(9) -0.0637(7) 0.3641(5)
C10 C -0.140(1) -0.037(1) 0.5313(7)
H1 H 0.33020 0.05650 0.48270
H2 H 0.30320 0.10280 0.38050
H3 H 0.19040 -0.14490 0.45230
H4 H 0.29720 -0.23700 0.32200
H5 H 0.44740 -0.13610 0.34910
H6 H 0.37670 -0.12990 0.18690
H7 H 0.34910 0.00450 0.23410
H8 H 0.03910 -0.17000 0.19950
H9 H 0.07270 -0.04730 0.13870
H10 H -0.14360 0.00030 0.24800
H11 H 0.03310 0.08090 0.26840
H12 H -0.19230 0.02290 0.57350
H13 H -0.22850 -0.10620 0.52040
H14 H -0.03240 -0.07530 0.55800
#END
