
#######################################################################
#
#                 Cambridge Crystallographic Data Centre
#                                CCDC
#
#######################################################################
#
# If this CIF has been generated from an entry in the Cambridge
# Structural Database, then it will include bibliographic, chemical,
# crystal, experimental, refinement or atomic coordinate data resulting
# from the CCDC's data processing and validation procedures.
#
#######################################################################

data_CSD_CIF_SAKWEH
_audit_creation_date 2005-03-24
_audit_creation_method CSD-ConQuest-V1
_database_code_CSD SAKWEH
_database_code_depnum_ccdc_archive 'CCDC 243201'
_chemical_formula_sum 'C21 H33 N2 O2'
_chemical_formula_moiety
;
C21 H33 N2 O2
;
_journal_coden_Cambridge 182
_journal_year 2004
_journal_page_first 2686
_journal_name_full 'Chem.Commun. '
loop_
_publ_author_name
"P.Taylor"
"P.M.Lahti"
_chemical_name_systematic
;
2-(3,5-Di-t-butyl-4-hydroxyphenyl)-4,4,5,5-tetramethyl-4,5-dihydro-1H-imidazol
e-1-oxyl radical
;
_chemical_melting_point 463.15
_cell_volume   6259.117
_exptl_crystal_colour 'red-brown'
_exptl_crystal_density_diffrn 1.1
_exptl_special_details
;
Melting point range 463.15-465.15K

;
_exptl_crystal_description 'block'
_exptl_crystal_preparation 'hexanes/ethyl acetate'
_diffrn_ambient_temperature 173
_refine_special_details
;
An O atom from one of the molecules is disordered over two sites with 
occupancies 0.65:0.35 and an imidazole group from a second molecule is 
disordered equally over two sites.
;
#These two values have been output from a single CSD field.
_refine_ls_R_factor_gt 0.068
_refine_ls_wR_factor_gt 0.068
_symmetry_cell_setting orthorhombic
_symmetry_space_group_name_H-M 'P 21 21 21'
_symmetry_Int_Tables_number 19
loop_
_symmetry_equiv_pos_site_id
_symmetry_equiv_pos_as_xyz
1 x,y,z
2 1/2-x,-y,1/2+z
3 1/2+x,1/2-y,-z
4 -x,1/2+y,1/2-z
_cell_length_a 11.8548(1)
_cell_length_b 17.1035(2)
_cell_length_c 30.8698(4)
_cell_angle_alpha 90
_cell_angle_beta 90
_cell_angle_gamma 90
_cell_formula_units_Z 12
loop_
_atom_type_symbol
_atom_type_radius_bond
C 0.68
H 0.23
N 0.68
O 0.68
loop_
_atom_site_label
_atom_site_type_symbol
_atom_site_fract_x
_atom_site_fract_y
_atom_site_fract_z
O1 O 0.0902(3) 0.76102(15) 1.02613(9)
O2 O 0.4891(3) 0.64274(19) 0.90534(11)
N1 N 0.4748(3) 0.70265(19) 0.88139(11)
N2 N 0.4048(3) 0.8151(2) 0.85817(11)
C1 C 0.1617(4) 0.7635(2) 0.99158(14)
C2 C 0.1977(3) 0.8364(2) 0.97243(13)
C3 C 0.2741(3) 0.8319(2) 0.93938(13)
H1 H 0.30110 0.87900 0.92680
C4 C 0.3138(3) 0.7610(2) 0.92355(12)
C5 C 0.2740(3) 0.6909(2) 0.94141(13)
H2 H 0.30000 0.64250 0.93010
C6 C 0.1978(3) 0.6909(2) 0.97522(13)
C7 C 0.3970(3) 0.7601(2) 0.88743(13)
C8 C 0.5409(3) 0.7144(3) 0.84146(13)
C9 C 0.5003(4) 0.7969(3) 0.82907(13)
C10 C 0.1562(4) 0.9149(2) 0.99013(15)
C11 C 0.1519(4) 0.6126(2) 0.99330(14)
C12 C 0.2000(4) 0.9289(3) 1.03626(15)
H3 H 0.17200 0.97930 1.04690
H4 H 0.28270 0.92940 1.03600
H5 H 0.17330 0.88700 1.05530
C13 C 0.0264(3) 0.9209(2) 0.98760(15)
H6 H 0.00210 0.97160 0.99910
H7 H -0.00750 0.87880 1.00480
H8 H 0.00230 0.91600 0.95730
C14 C 0.2000(4) 0.9820(2) 0.96068(16)
H9 H 0.17290 1.03230 0.97180
H10 H 0.17190 0.97440 0.93110
H11 H 0.28260 0.98170 0.96050
C15 C 0.1909(4) 0.6048(3) 1.04103(15)
H12 H 0.16140 0.64880 1.05790
H13 H 0.27350 0.60500 1.04220
H14 H 0.16250 0.55560 1.05310
C16 C 0.0218(4) 0.6098(3) 0.99021(17)
H15 H -0.01030 0.65450 1.00580
H16 H -0.00580 0.56110 1.00320
H17 H -0.00100 0.61210 0.95970
C17 C 0.1980(4) 0.5429(2) 0.96983(16)
H18 H 0.17470 0.54480 0.93940
H19 H 0.16910 0.49500 0.98320
H20 H 0.28060 0.54330 0.97150
C18 C 0.5907(4) 0.8622(3) 0.83893(15)
H21 H 0.56040 0.91340 0.83080
H22 H 0.65940 0.85170 0.82220
H23 H 0.60860 0.86200 0.86990
C19 C 0.4605(4) 0.8047(3) 0.78227(13)
H24 H 0.43540 0.85850 0.77700
H25 H 0.39780 0.76860 0.77710
H26 H 0.52290 0.79210 0.76260
C20 C 0.6639(3) 0.7055(3) 0.85202(17)
H27 H 0.68720 0.74760 0.87160
H28 H 0.70830 0.70830 0.82530
H29 H 0.67650 0.65490 0.86600
C21 C 0.5108(6) 0.6513(3) 0.81102(17)
H30 H 0.43100 0.65600 0.80310
H31 H 0.52380 0.60050 0.82480
H32 H 0.55750 0.65550 0.78490
O3 O -0.4043(3) 0.75266(18) 0.63937(10)
H33 H -0.436(3) 0.807(3) 0.6310(12)
O4 O -0.0056(4) 0.6393(2) 0.75916(13)
O5? O -0.1413(5) 0.8643(4) 0.8119(2)
N3 N -0.0213(3) 0.69402(18) 0.78282(11)
N4 N -0.0902(3) 0.8068(2) 0.80819(11)
C22 C -0.3343(4) 0.7538(3) 0.67499(14)
C23 C -0.2954(3) 0.8249(2) 0.68997(14)
C24 C -0.2206(3) 0.8227(2) 0.72518(13)
H34 H -0.19580 0.87060 0.73750
C25 C -0.1817(3) 0.7527(2) 0.74256(13)
C26 C -0.2254(3) 0.6829(2) 0.72625(13)
H35 H -0.20030 0.63490 0.73840
C27 C -0.3038(4) 0.6807(2) 0.69301(14)
C28 C -0.0977(4) 0.7532(2) 0.77809(13)
C29 C 0.0443(4) 0.7066(3) 0.82302(13)
C30 C 0.0073(4) 0.7906(3) 0.83713(12)
C31 C -0.3340(4) 0.9054(3) 0.67230(16)
C32 C -0.3520(4) 0.6034(3) 0.67602(17)
C33 C -0.4626(4) 0.9126(3) 0.67261(17)
H36 H -0.49560 0.86850 0.65680
H37 H -0.48480 0.96170 0.65860
H38 H -0.48980 0.91220 0.70260
C34 C -0.2895(5) 0.9121(4) 0.62489(18)
H39 H -0.31870 0.86840 0.60770
H40 H -0.20680 0.91050 0.62500
H41 H -0.31490 0.96160 0.61220
C35 C -0.2852(5) 0.9727(3) 0.69649(19)
H42 H -0.20270 0.96870 0.69650
H43 H -0.31300 0.97210 0.72640
H44 H -0.30780 1.02170 0.68250
C36 C -0.4791(4) 0.6013(3) 0.68054(17)
H45 H -0.50780 0.55180 0.66900
H46 H -0.51220 0.64490 0.66440
H47 H -0.49960 0.60570 0.71120
C37 C -0.3157(5) 0.5870(3) 0.62932(18)
H48 H -0.34910 0.53760 0.61960
H49 H -0.23330 0.58320 0.62790
H50 H -0.34140 0.62960 0.61050
C38 C -0.3061(4) 0.5340(3) 0.70393(18)
H51 H -0.33700 0.48470 0.69290
H52 H -0.32910 0.54110 0.73420
H53 H -0.22360 0.53270 0.70220
C39 C 0.0018(6) 0.6415(3) 0.85504(17)
H54 H -0.07870 0.64910 0.86090
H55 H 0.04410 0.64480 0.88220
H56 H 0.01340 0.58990 0.84190
C40 C 0.1687(4) 0.6972(3) 0.81252(19)
H57 H 0.18360 0.64310 0.80370
H58 H 0.21380 0.70980 0.83820
H59 H 0.18920 0.73260 0.78880
C41 C -0.0322(4) 0.7978(3) 0.88372(13)
H60 H -0.09000 0.75820 0.88960
H61 H -0.06410 0.85000 0.88840
H62 H 0.03190 0.79000 0.90330
C42 C 0.0945(4) 0.8509(3) 0.82939(18)
H63 H 0.12070 0.84750 0.79940
H64 H 0.15810 0.84230 0.84910
H65 H 0.06230 0.90280 0.83460
O6 O 0.0959(3) 0.74215(18) 0.69315(10)
H66 H 0.072(3) 0.6908(19) 0.7014(10)
O7 O 0.4948(5) 0.8527(3) 0.57044(19)
O8? O 0.357(2) 0.6319(16) 0.5198(8)
O9? O 0.4976(10) 0.6348(7) 0.5729(4)
O10? O 0.3703(12) 0.8642(9) 0.5277(5)
N5 N 0.4079(5) 0.6810(4) 0.5262(2)
N6 N 0.4750(6) 0.7967(4) 0.5469(2)
N7? N 0.4802(6) 0.6909(4) 0.5502(2)
N8? N 0.4160(5) 0.8041(4) 0.5270(2)
C43 C 0.1681(4) 0.7394(3) 0.65766(13)
C44 C 0.2040(3) 0.8130(2) 0.64183(14)
C45 C 0.2822(3) 0.8119(3) 0.60816(13)
H67 H 0.31020 0.86020 0.59730
C46 C 0.3203(3) 0.7428(2) 0.59003(15)
C47 C 0.2771(3) 0.6729(2) 0.60518(12)
H68 H 0.30050 0.62550 0.59190
C48 C 0.1997(3) 0.6696(2) 0.63956(13)
C49 C 0.4016(4) 0.7413(2) 0.55505(13)
C50 C 0.5082(7) 0.6946(5) 0.4955(3)
C51? C 0.5480(8) 0.7026(5) 0.5094(3)
C52 C 0.5447(8) 0.7812(5) 0.5072(3)
C53? C 0.5106(9) 0.7856(6) 0.4956(3)
C54 C 0.1661(4) 0.8893(3) 0.66323(16)
C55 C 0.1531(4) 0.5886(3) 0.65442(14)
C56 C 0.2042(5) 0.8963(3) 0.70962(17)
H69 H 0.17710 0.94590 0.72170
H70 H 0.28680 0.89500 0.71080
H71 H 0.17350 0.85270 0.72650
C57 C 0.0367(4) 0.8978(3) 0.6601(2)
H72 H 0.01340 0.94680 0.67400
H73 H 0.00060 0.85360 0.67480
H74 H 0.01400 0.89850 0.62960
C58 C 0.2131(4) 0.9618(3) 0.63785(18)
H75 H 0.18750 1.01000 0.65190
H76 H 0.18540 0.96050 0.60790
H77 H 0.29570 0.96010 0.63780
C59 C 0.1947(4) 0.5699(3) 0.70074(16)
H78 H 0.17110 0.61170 0.72050
H79 H 0.27720 0.56600 0.70080
H80 H 0.16210 0.52010 0.71030
C60 C 0.0229(4) 0.5876(3) 0.65258(18)
H81 H -0.00710 0.63050 0.67010
H82 H -0.00490 0.53770 0.66400
H83 H -0.00190 0.59380 0.62250
C61 C 0.1954(4) 0.5221(3) 0.62696(17)
H84 H 0.17170 0.53010 0.59690
H85 H 0.16400 0.47280 0.63770
H86 H 0.27790 0.52010 0.62840
C62 C 0.5871(10) 0.6310(7) 0.5009(4)
C63 C 0.4577(10) 0.6823(7) 0.4500(4)
C64? C 0.5137(10) 0.6399(7) 0.4785(4)
C65? C 0.6687(8) 0.6916(6) 0.5207(3)
C66 C 0.6672(10) 0.7884(7) 0.5220(4)
C67 C 0.5133(10) 0.8406(7) 0.4702(4)
C68? C 0.6007(8) 0.8526(6) 0.5061(3)
C69? C 0.4674(9) 0.7964(6) 0.4497(3)
#END
