
#######################################################################
#
#                 Cambridge Crystallographic Data Centre
#                                CCDC
#
#######################################################################
#
# If this CIF has been generated from an entry in the Cambridge
# Structural Database, then it will include bibliographic, chemical,
# crystal, experimental, refinement or atomic coordinate data resulting
# from the CCDC's data processing and validation procedures.
#
#######################################################################

data_CSD_CIF_SAKWAD
_audit_creation_date 2005-03-24
_audit_creation_method CSD-ConQuest-V1
_database_code_CSD SAKWAD
_database_code_depnum_ccdc_archive 'CCDC 243200'
_chemical_formula_sum 'C21 H33 N2 O3'
_chemical_formula_moiety
;
C21 H33 N2 O3
;
_journal_coden_Cambridge 182
_journal_year 2004
_journal_page_first 2686
_journal_name_full 'Chem.Commun. '
loop_
_publ_author_name
"P.Taylor"
"P.M.Lahti"
_chemical_name_systematic
;
2-(3,5-Di-t-butyl-4-hydroxyphenyl)-4,4,5,5-tetramethyl-4,5-dihydro-1H-imidazol
e-3-oxide-1-oxyl radical
;
_chemical_melting_point 457.15
_cell_volume   6511.950
_exptl_crystal_colour 'deep blue'
_exptl_crystal_density_diffrn 1.106
_exptl_special_details
;
Melting point range 457.15-458.15K

;
_exptl_crystal_description 'prism'
_exptl_crystal_preparation 'dichloromethane'
_diffrn_ambient_temperature 298
#These two values have been output from a single CSD field.
_refine_ls_R_factor_gt 0.0779
_refine_ls_wR_factor_gt 0.0779
_symmetry_cell_setting monoclinic
_symmetry_space_group_name_H-M 'P 21/c'
_symmetry_Int_Tables_number 14
loop_
_symmetry_equiv_pos_site_id
_symmetry_equiv_pos_as_xyz
1 x,y,z
2 x,1/2-y,1/2+z
3 -x,-y,-z
4 -x,-1/2+y,-1/2-z
_cell_length_a 17.3092(2)
_cell_length_b 30.9285(3)
_cell_length_c 12.1652(1)
_cell_angle_alpha 90
_cell_angle_beta 90.8163(5)
_cell_angle_gamma 90
_cell_formula_units_Z 12
loop_
_atom_type_symbol
_atom_type_radius_bond
C 0.68
H 0.23
N 0.68
O 0.68
loop_
_atom_site_label
_atom_site_type_symbol
_atom_site_fract_x
_atom_site_fract_y
_atom_site_fract_z
O1 O 0.25352(10) 0.27837(6) 0.89075(16)
O2 O 0.13337(12) 0.10483(7) 0.64989(16)
O3 O 0.35618(11) 0.15764(6) 0.49675(15)
O4 O 0.74165(10) 0.05620(6) 0.10423(15)
O5 O 0.63175(12) 0.23172(6) 0.34637(15)
O6 O 0.85311(10) 0.17406(6) 0.50149(14)
O7 O 0.75814(10) 0.11029(6) -0.39309(15)
O8 O 0.86950(13) -0.06562(7) -0.15164(17)
O9 O 0.64769(11) -0.01001(7) -0.00102(15)
N1 N 0.29857(12) 0.13287(7) 0.51946(16)
N2 N 0.19254(12) 0.10847(7) 0.58937(16)
N3 N 0.69123(12) 0.22655(6) 0.40811(16)
N4 N 0.79602(11) 0.19969(6) 0.47980(16)
N5 N 0.81136(13) -0.06018(7) -0.08989(17)
N6 N 0.70564(12) -0.03514(7) -0.02253(17)
C1 C 0.25462(14) 0.24314(8) 0.82377(19)
C2 C 0.32412(14) 0.22331(7) 0.7927(2)
C3 C 0.18034(14) 0.19380(8) 0.71426(18)
C4 C 0.31860(14) 0.18988(8) 0.71770(19)
C5 C 0.24806(13) 0.17498(7) 0.67654(18)
C6 C 0.24666(13) 0.13980(8) 0.59746(18)
C7 C 0.20518(16) 0.07871(9) 0.4944(2)
C8 C 0.28705(15) 0.09091(9) 0.4599(2)
C9 C 0.10593(15) 0.24948(9) 0.8234(2)
C10 C 0.40402(14) 0.23818(8) 0.8365(2)
C11 C 0.1017(2) 0.29571(12) 0.7765(3)
C12 C 0.03521(16) 0.22597(12) 0.7777(3)
C13 C 0.18133(14) 0.22801(8) 0.78697(19)
C14 C 0.09931(18) 0.24968(12) 0.9491(2)
C15 C 0.46845(15) 0.20837(11) 0.7956(3)
C16 C 0.42315(18) 0.28365(10) 0.7936(3)
C17 C 0.40789(17) 0.23658(10) 0.9624(2)
C18 C 0.1416(2) 0.08983(18) 0.4121(3)
C19 C 0.1960(3) 0.03233(11) 0.5360(4)
C20 C 0.2957(2) 0.09994(12) 0.3381(2)
C21 C 0.3506(2) 0.06122(12) 0.5007(4)
C22 C 0.73795(14) 0.09081(8) 0.1728(2)
C23 C 0.80994(14) 0.10883(8) 0.20486(19)
C24 C 0.66710(14) 0.10770(8) 0.20953(19)
C25 C 0.67018(13) 0.14193(8) 0.28268(18)
C26 C 0.80867(13) 0.14224(8) 0.28057(18)
C27 C 0.74046(13) 0.15909(7) 0.32083(18)
C28 C 0.74188(13) 0.19394(7) 0.40052(18)
C29 C 0.70510(15) 0.25502(8) 0.5053(2)
C30 C 0.78761(14) 0.24105(8) 0.5403(2)
C31 C 0.88687(14) 0.09118(9) 0.1617(2)
C32 C 0.58820(15) 0.08891(9) 0.1717(2)
C33 C 0.52088(16) 0.11515(13) 0.2181(3)
C34 C 0.5788(2) 0.04258(11) 0.2140(3)
C35 C 0.57927(16) 0.0908(1) 0.0455(2)
C36 C 0.88877(17) 0.09305(12) 0.0362(2)
C37 C 0.9002(2) 0.04503(11) 0.2041(3)
C38 C 0.95538(16) 0.11837(12) 0.2039(3)
C39 C 0.8515(2) 0.27075(11) 0.4972(3)
C40 C 0.7984(2) 0.23291(11) 0.6622(2)
C41 C 0.6967(3) 0.30199(10) 0.4691(3)
C42 C 0.6429(2) 0.24348(16) 0.5857(3)
C43 C 0.76128(14) 0.07547(8) -0.32532(19)
C44 C 0.68938(13) 0.05916(8) -0.29139(19)
C45 C 0.83219(13) 0.05637(7) -0.29183(19)
C46 C 0.68963(13) 0.02529(8) -0.21761(18)
C47 C 0.82815(13) 0.02221(7) -0.21854(18)
C48 C 0.75867(13) 0.00654(7) -0.17895(17)
C49 C 0.75768(13) -0.02861(8) -0.09974(18)
C50 C 0.71804(16) -0.07622(9) 0.0406(2)
C51 C 0.79957(16) -0.08851(9) 0.0070(2)
C52 C 0.61288(14) 0.07936(9) -0.3319(2)
C53 C 0.91095(14) 0.07284(8) -0.3309(2)
C54 C 0.92707(17) 0.11851(9) -0.2856(2)
C55 C 0.91596(16) 0.07204(10) -0.4570(2)
C56 C 0.97694(15) 0.04389(11) -0.2882(3)
C57 C 0.54284(16) 0.05474(12) -0.2879(3)
C58 C 0.60646(18) 0.07747(12) -0.4580(3)
C59 C 0.6067(2) 0.12579(11) -0.2903(3)
C60 C 0.6549(2) -0.10682(13) 0.0035(4)
C61 C 0.7096(3) -0.06582(12) 0.1619(3)
C62 C 0.8101(3) -0.13505(11) -0.0286(4)
C63 C 0.8632(2) -0.07574(18) 0.0883(3)
H1 H 0.29790 0.28520 0.90760
H2 H 0.69780 0.04770 0.08980
H3 H 0.80210 0.11760 -0.40890
H4 H 0.13300 0.18300 0.68970
H5 H 0.36380 0.17680 0.69380
H6 H 0.05450 0.30920 0.79910
H7 H 0.10290 0.29460 0.69770
H8 H 0.14500 0.31220 0.80350
H9 H -0.01070 0.24050 0.80100
H10 H 0.03500 0.19680 0.80440
H11 H 0.03680 0.22580 0.69880
H12 H 0.05210 0.26370 0.96940
H13 H 0.14240 0.26500 0.98080
H14 H 0.09930 0.22050 0.97580
H15 H 0.45950 0.17940 0.82100
H16 H 0.51740 0.21840 0.82340
H17 H 0.46870 0.20860 0.71670
H18 H 0.38490 0.30380 0.81830
H19 H 0.42340 0.28330 0.71470
H20 H 0.47310 0.29230 0.82100
H21 H 0.36850 0.25490 0.99190
H22 H 0.45770 0.24640 0.98740
H23 H 0.39990 0.20740 0.98660
H24 H 0.14810 0.11910 0.38730
H25 H 0.09220 0.08690 0.44640
H26 H 0.14420 0.07050 0.35040
H27 H 0.14330 0.02750 0.55630
H28 H 0.22920 0.02790 0.59890
H29 H 0.20970 0.01250 0.47890
H30 H 0.25510 0.11890 0.31350
H31 H 0.29280 0.07330 0.29790
H32 H 0.34480 0.11340 0.32570
H33 H 0.34420 0.05580 0.57780
H34 H 0.39980 0.07460 0.48910
H35 H 0.34810 0.03440 0.46120
H36 H 0.62420 0.15390 0.30720
H37 H 0.85530 0.15380 0.30540
H38 H 0.52400 0.14450 0.19260
H39 H 0.52370 0.11470 0.29700
H40 H 0.47280 0.10270 0.19380
H41 H 0.58410 0.04230 0.29270
H42 H 0.61780 0.02450 0.18270
H43 H 0.52860 0.03190 0.19320
H44 H 0.58460 0.12020 0.02120
H45 H 0.52920 0.08010 0.02420
H46 H 0.61850 0.07330 0.01250
H47 H 0.87980 0.12220 0.01220
H48 H 0.84930 0.07450 0.00600
H49 H 0.93840 0.08360 0.01140
H50 H 0.94830 0.03430 0.17680
H51 H 0.85880 0.02670 0.17910
H52 H 0.90190 0.04520 0.28300
H53 H 0.94910 0.14780 0.17990
H54 H 1.00260 0.10690 0.17540
H55 H 0.95730 0.11750 0.28280
H56 H 0.90090 0.26030 0.52220
H57 H 0.84370 0.29960 0.52410
H58 H 0.84980 0.27090 0.41830
H59 H 0.85090 0.22440 0.67700
H60 H 0.76410 0.21030 0.68480
H61 H 0.78710 0.25890 0.70210
H62 H 0.73650 0.30890 0.41790
H63 H 0.70110 0.32060 0.53210
H64 H 0.64700 0.30610 0.43450
H65 H 0.59370 0.25320 0.55780
H66 H 0.65370 0.25720 0.65510
H67 H 0.64160 0.21270 0.59550
H68 H 0.64280 0.01460 -0.19280
H69 H 0.87390 0.00920 -0.19480
H70 H 0.97640 0.12830 -0.31070
H71 H 0.92740 0.11770 -0.20670
H72 H 0.88740 0.13790 -0.31100
H73 H 0.90630 0.04320 -0.48310
H74 H 0.96660 0.08100 -0.47860
H75 H 0.87810 0.09140 -0.48790
H76 H 0.96960 0.01500 -0.31510
H77 H 0.97710 0.04370 -0.20930
H78 H 1.02540 0.05490 -0.31360
H79 H 0.54440 0.02530 -0.31300
H80 H 0.49620 0.06830 -0.31410
H81 H 0.54420 0.05520 -0.20890
H82 H 0.61060 0.04800 -0.48190
H83 H 0.64730 0.09420 -0.48940
H84 H 0.55750 0.08910 -0.48140
H85 H 0.64980 0.14230 -0.31600
H86 H 0.60680 0.12580 -0.21140
H87 H 0.55950 0.13850 -0.31750
H88 H 0.60600 -0.09640 0.02870
H89 H 0.66460 -0.13500 0.03370
H90 H 0.65400 -0.10850 -0.07530
H91 H 0.74980 -0.04630 0.18460
H92 H 0.71340 -0.09200 0.20400
H93 H 0.66020 -0.05260 0.17370
H94 H 0.86290 -0.13970 -0.04850
H95 H 0.77690 -0.14100 -0.09070
H96 H 0.79710 -0.15400 0.03090
H97 H 0.91230 -0.08480 0.06070
H98 H 0.85430 -0.08940 0.15770
H99 H 0.86320 -0.04490 0.09760
#END
