
#######################################################################
#
#                 Cambridge Crystallographic Data Centre
#                                CCDC
#
#######################################################################
#
# If this CIF has been generated from an entry in the Cambridge
# Structural Database, then it will include bibliographic, chemical,
# crystal, experimental, refinement or atomic coordinate data resulting
# from the CCDC's data processing and validation procedures.
#
#######################################################################

data_CSD_CIF_SALGUK
_audit_creation_date 2017-02-09
_audit_creation_method CSD-ConQuest-V1
_database_code_CSD SALGUK
_database_code_depnum_ccdc_archive 'CCDC 1521390'
_chemical_formula_sum 'C18 H15 N5 O2'
_chemical_formula_moiety
;
C18 H15 N5 O2
;
_journal_coden_Cambridge 177
_journal_volume 15
_journal_year 2017
_journal_page_first 1965
_journal_name_full 'Org.Biomol.Chem. '
loop_
_publ_author_name
"R.Matsubara"
"Shuhei Eguchi"
"A.Ando"
"M.Hayashi"
_chemical_name_systematic
;
4-(1-benzyl-1H-1,2,3-triazol-4-yl)-3-(4-methylphenyl)-2-oxo-1,2\l^5^,5-oxadiaz
ole
;
_cell_volume   3156.426
_exptl_crystal_density_diffrn 1.403
_exptl_special_details
;
Atom N13 appears to be mis-assigned as a nitrogen atom; we have changed this 
to a carbon atom
;
_diffrn_ambient_temperature 90
#These two values have been output from a single CSD field.
_refine_ls_R_factor_gt 0.1137
_refine_ls_wR_factor_gt 0.1137
_symmetry_cell_setting triclinic
_symmetry_space_group_name_H-M 'P -1'
_symmetry_Int_Tables_number 2
loop_
_symmetry_equiv_pos_site_id
_symmetry_equiv_pos_as_xyz
1 x,y,z
2 -x,-y,-z
_cell_length_a 11.050(16)
_cell_length_b 15.17(2)
_cell_length_c 18.83(3)
_cell_angle_alpha 90
_cell_angle_beta 90
_cell_angle_gamma 90.198(18)
_cell_formula_units_Z 8
loop_
_atom_type_symbol
_atom_type_radius_bond
C 0.68
H 0.23
N 0.68
O 0.68
loop_
_atom_site_label
_atom_site_type_symbol
_atom_site_fract_x
_atom_site_fract_y
_atom_site_fract_z
O1 O -0.3700(6) 0.9368(5) 0.8307(4)
O2 O -0.5089(6) 0.8889(5) 0.7492(4)
N1 N -0.5074(7) 0.8457(6) 0.6851(5)
N2 N -0.2764(7) 0.6980(6) 0.5294(5)
N3 N -0.3917(8) 0.7113(6) 0.5085(5)
N4 N -0.3861(8) 0.8993(6) 0.7739(5)
N5 N -0.4426(7) 0.7642(6) 0.5551(5)
C1 C 0.0701(9) 0.8792(7) 0.7377(6)
C2 C -0.2531(9) 0.7391(7) 0.5905(6)
C3 C 0.2058(8) 0.8821(7) 0.7431(6)
C4 C -0.1161(8) 0.9049(7) 0.6738(6)
C5 C -0.3140(9) 0.8637(7) 0.7251(5)
C6 C -0.2168(9) 0.5433(7) 0.5163(6)
C7 C 0.0033(9) 0.8428(7) 0.7935(6)
C8 C 0.0096(8) 0.9087(7) 0.6801(6)
C9 C -0.2522(10) 0.3728(8) 0.5660(6)
C10 C -0.3602(9) 0.7821(7) 0.6075(6)
C11 C -0.1825(9) 0.8704(7) 0.7309(6)
C12 C -0.3227(9) 0.4968(7) 0.5011(6)
C13 C -0.1434(9) 0.4171(8) 0.5809(6)
C14 C -0.1218(9) 0.8378(8) 0.7904(6)
C15 C -0.2002(9) 0.6354(7) 0.4904(6)
C16 C -0.1278(9) 0.5027(8) 0.5564(6)
C17 C -0.3406(9) 0.4143(8) 0.5269(6)
C18 C -0.3913(9) 0.8314(7) 0.6708(6)
H1 H -0.18120 0.73900 0.61610
H2 H 0.22880 0.91060 0.78660
H3 H 0.23830 0.91440 0.70360
H4 H 0.23690 0.82310 0.74270
H5 H -0.15480 0.92460 0.63290
H6 H 0.04340 0.82160 0.83340
H7 H 0.05400 0.93260 0.64280
H8 H -0.26450 0.31560 0.58240
H9 H -0.38180 0.52260 0.47280
H10 H -0.08270 0.38950 0.60680
H11 H -0.16510 0.81300 0.82780
H12 H -0.11590 0.65230 0.49560
H13 H -0.22020 0.63800 0.44020
H14 H -0.05690 0.53310 0.56700
H15 H -0.41350 0.38550 0.51820
O3 O -0.0104(6) 1.3897(5) 0.7503(4)
O4 O 0.1279(6) 1.4356(5) 0.6687(4)
N6 N 0.1048(7) 1.2137(6) 0.9927(5)
N7 N 0.2241(7) 1.1963(6) 0.9710(5)
N8 N 0.0583(7) 1.2654(6) 0.9431(5)
N9 N -0.0068(7) 1.3456(6) 0.8157(5)
N10 N 0.1143(7) 1.4001(6) 0.7257(5)
C19 C 0.1761(9) 0.9971(7) 0.9981(6)
C20 C 0.5695(9) 1.3777(7) 0.7616(6)
C21 C 0.5080(9) 1.4080(7) 0.8195(6)
C22 C 0.2988(9) 1.1357(7) 1.0108(6)
C23 C 0.3175(9) 1.3692(7) 0.7692(6)
C24 C 0.2461(9) 1.2391(7) 0.9095(6)
C25 C 0.1843(9) 1.3641(7) 0.7754(6)
C26 C 0.3779(9) 1.3377(7) 0.7095(6)
C27 C 0.2490(9) 0.8734(7) 0.9343(6)
C28 C 0.1404(9) 1.2825(7) 0.8934(6)
C29 C 0.2825(9) 1.0438(7) 0.9838(6)
C30 C 0.3713(9) 1.0019(8) 0.9433(6)
C31 C 0.5018(9) 1.3439(7) 0.7069(6)
C32 C 0.7056(8) 1.3829(7) 0.7571(6)
C33 C 0.1601(9) 0.9142(8) 0.9720(6)
C34 C 0.3833(10) 1.4029(7) 0.8252(6)
C35 C 0.3549(9) 0.9170(8) 0.9189(6)
C36 C 0.1083(9) 1.3314(7) 0.8293(6)
H16 H 0.11590 1.02280 1.02570
H17 H 0.55170 1.43310 0.85660
H18 H 0.27690 1.13800 1.06070
H19 H 0.38310 1.15280 1.00650
H20 H 0.31760 1.23920 0.88340
H21 H 0.33490 1.31290 0.67200
H22 H 0.23800 0.81570 0.91890
H23 H 0.44270 1.03170 0.93250
H24 H 0.54150 1.32420 0.66640
H25 H 0.73780 1.39970 0.80250
H26 H 0.72830 1.42590 0.72210
H27 H 0.73710 1.32640 0.74390
H28 H 0.08730 0.88490 0.98000
H29 H 0.34450 1.42190 0.86620
H30 H 0.41480 0.88960 0.89230
O5 O -0.5125(6) 1.1114(5) 0.7511(4)
O6 O -0.3729(6) 1.0636(5) 0.6694(4)
N11 N -0.2763(7) 1.3029(6) 0.9697(5)
N12 N -0.5098(7) 1.1547(6) 0.8146(5)
C37 C -0.3932(9) 1.1667(7) 0.8298(6)
N13 N -0.4432(7) 1.2352(6) 0.9441(5)
N14 N -0.3868(7) 1.1016(6) 0.7276(5)
N15 N -0.3928(7) 1.2871(6) 0.9923(5)
C38 C -0.3130(8) 1.1352(7) 0.7758(6)
C39 C -0.1173(9) 1.0954(7) 0.8251(6)
C40 C -0.2548(9) 1.2612(7) 0.9097(6)
C41 C -0.1224(10) 1.1614(6) 0.7105(6)
C42 C 0.0714(9) 1.1207(7) 0.7610(6)
C43 C 0.0096(9) 1.0898(7) 0.8199(6)
C44 C -0.1279(9) 1.4957(8) 0.9444(6)
C45 C -0.2156(9) 1.4564(7) 0.9840(6)
C46 C -0.1831(9) 1.1296(7) 0.7706(6)
C47 C 0.2047(8) 1.1170(7) 0.7563(6)
C48 C -0.2002(8) 1.3648(7) 1.0099(6)
C49 C 0.0015(9) 1.1562(7) 0.7052(6)
C50 C -0.3231(8) 1.5024(7) 0.9983(6)
C51 C -0.3396(9) 1.5848(7) 0.9737(6)
C52 C -0.2511(10) 1.6272(8) 0.9335(6)
C53 C -0.3606(9) 1.2186(7) 0.8944(6)
C54 C -0.1464(9) 1.5815(8) 0.9184(6)
H31 H -0.15630 1.07550 0.86590
H32 H -0.18340 1.26090 0.88360
H33 H -0.16660 1.18630 0.67360
H34 H 0.05300 1.06480 0.85700
H35 H -0.05630 1.46610 0.93460
H36 H 0.23660 1.09120 0.79890
H37 H 0.23660 1.17550 0.75080
H38 H 0.22770 1.08170 0.71620
H39 H -0.11600 1.34780 1.00520
H40 H -0.22150 1.36190 1.05980
H41 H 0.03980 1.17630 0.66420
H42 H -0.38360 1.47550 1.02510
H43 H -0.41140 1.61400 0.98380
H44 H -0.26220 1.68450 0.91720
H45 H -0.08690 1.60800 0.89070
O7 O -0.0091(6) 0.6119(5) 0.7490(4)
O8 O 0.1280(6) 0.5637(5) 0.8302(4)
N16 N 0.1155(7) 0.6007(6) 0.7741(5)
N17 N 0.0581(7) 0.7352(6) 0.5551(5)
N18 N 0.2233(7) 0.8029(6) 0.5297(5)
N19 N -0.0074(7) 0.6543(6) 0.6851(5)
N20 N 0.1086(8) 0.7877(6) 0.5087(5)
C55 C 0.3834(9) 0.5961(7) 0.6743(6)
C56 C 0.1858(9) 0.6355(7) 0.7238(6)
C57 C 0.5107(9) 0.5903(7) 0.6780(6)
C58 C 0.5697(10) 0.6208(7) 0.7386(7)
C59 C 0.1385(9) 0.7183(7) 0.6083(6)
C60 C 0.3166(9) 0.6303(7) 0.7303(6)
C61 C 0.2848(9) 0.9570(7) 0.5164(6)
C62 C 0.2483(9) 0.7611(7) 0.5907(6)
C63 C 0.502(1) 0.6566(7) 0.7941(6)
C64 C 0.1578(9) 1.0861(7) 0.5272(5)
C65 C 0.7055(9) 0.6164(7) 0.7427(6)
C66 C 0.3003(8) 0.8648(7) 0.4899(6)
C67 C 0.3712(9) 0.9981(8) 0.5562(6)
C68 C 0.2474(10) 1.1255(8) 0.5667(6)
C69 C 0.3789(10) 0.6611(7) 0.7890(6)
C70 C 0.1773(9) 1.0023(8) 0.5009(6)
C71 C 0.3556(10) 1.0825(8) 0.5818(6)
C72 C 0.1080(9) 0.6683(7) 0.6697(6)
H46 H 0.34360 0.57670 0.63370
H47 H 0.55450 0.56660 0.64050
H48 H 0.32100 0.76040 0.61560
H49 H 0.54070 0.67750 0.83460
H50 H 0.08550 1.11530 0.51830
H51 H 0.73590 0.58390 0.70270
H52 H 0.72890 0.58750 0.78590
H53 H 0.73840 0.67510 0.74200
H54 H 0.27940 0.86230 0.43990
H55 H 0.38430 0.84760 0.49470
H56 H 0.44260 0.96850 0.56620
H57 H 0.23550 1.18240 0.58380
H58 H 0.33540 0.68570 0.82630
H59 H 0.11870 0.97550 0.47270
H60 H 0.41580 1.10990 0.60850
#END
