
#######################################################################
#
#                 Cambridge Crystallographic Data Centre
#                                CCDC
#
#######################################################################
#
# If this CIF has been generated from an entry in the Cambridge
# Structural Database, then it will include bibliographic, chemical,
# crystal, experimental, refinement or atomic coordinate data resulting
# from the CCDC's data processing and validation procedures.
#
#######################################################################

data_CSD_CIF_SALGOE
_audit_creation_date 2017-02-09
_audit_creation_method CSD-ConQuest-V1
_database_code_CSD SALGOE
_database_code_depnum_ccdc_archive 'CCDC 1520634'
_chemical_formula_sum 'C20 H14 N4 O4'
_chemical_formula_moiety
;
C20 H14 N4 O4
;
_journal_coden_Cambridge 177
_journal_volume 15
_journal_year 2017
_journal_page_first 1965
_journal_name_full 'Org.Biomol.Chem. '
loop_
_publ_author_name
"R.Matsubara"
"Shuhei Eguchi"
"A.Ando"
"M.Hayashi"
_chemical_name_systematic
;
3,3'-(ethyne-1,2-diyl)bis[4-(4-methylphenyl)-5-oxo-1,2,5\l^5^-oxadiazole]
;
_cell_volume    437.011
_exptl_crystal_density_diffrn 1.422
_diffrn_ambient_temperature 90
#These two values have been output from a single CSD field.
_refine_ls_R_factor_gt 0.0438
_refine_ls_wR_factor_gt 0.0438
_symmetry_cell_setting triclinic
_symmetry_space_group_name_H-M 'P -1'
_symmetry_Int_Tables_number 2
loop_
_symmetry_equiv_pos_site_id
_symmetry_equiv_pos_as_xyz
1 x,y,z
2 -x,-y,-z
_cell_length_a 4.673(4)
_cell_length_b 7.018(6)
_cell_length_c 13.709(12)
_cell_angle_alpha 77.037(11)
_cell_angle_beta 86.712(11)
_cell_angle_gamma 86.883(12)
_cell_formula_units_Z 1
loop_
_atom_type_symbol
_atom_type_radius_bond
C 0.68
H 0.23
N 0.68
O 0.68
loop_
_atom_site_label
_atom_site_type_symbol
_atom_site_fract_x
_atom_site_fract_y
_atom_site_fract_z
O1 O 0.2486(3) 0.43915(14) 0.60527(7)
O2 O 0.4823(3) 0.28211(14) 0.74504(8)
N1 N 0.4524(3) 0.43709(17) 0.68217(9)
N2 N 0.2457(3) 0.62041(17) 0.54276(9)
C1 C 0.7616(3) 0.66839(19) 0.73242(10)
C2 C 0.5597(3) 0.61441(19) 0.66594(10)
C3 C 1.0805(3) 0.5841(2) 0.87045(10)
C4 C 1.0035(3) 0.9199(2) 0.78784(11)
C5 C 1.1354(3) 0.7808(2) 0.86309(10)
C6 C 0.8965(3) 0.5275(2) 0.80716(10)
C7 C 0.8193(3) 0.86583(19) 0.72354(10)
C8 C 0.4285(3) 0.7241(2) 0.57733(10)
C9 C 0.4790(3) 0.9190(2) 0.52386(10)
C10 C 1.3268(4) 0.8413(3) 0.93503(11)
H1 H 1.16940 0.48880 0.91900
H2 H 1.03960 1.05140 0.78060
H3 H 0.86230 0.39560 0.81420
H4 H 0.73360 0.96140 0.67430
H5 H 1.22430 0.83460 0.99830
H6 H 1.38350 0.97290 0.90820
H7 H 1.49430 0.75490 0.94420
O1A O 0.7514(3) 1.56085(14) 0.39473(7)
O2A O 0.5177(3) 1.71789(14) 0.25496(8)
N1A N 0.5476(3) 1.56291(17) 0.31783(9)
N2A N 0.7543(3) 1.37959(17) 0.45724(9)
C1A C 0.2384(3) 1.33161(19) 0.26758(10)
C2A C 0.4403(3) 1.38559(19) 0.33406(10)
C3A C -0.0805(3) 1.4159(2) 0.12955(10)
C4A C -0.0035(3) 1.0801(2) 0.21216(11)
C5A C -0.1354(3) 1.2192(2) 0.13691(10)
C6A C 0.1035(3) 1.4725(2) 0.19284(10)
C7A C 0.1807(3) 1.13417(19) 0.27646(10)
C8A C 0.5715(3) 1.2759(2) 0.42267(10)
C9A C 0.5210(3) 1.0810(2) 0.47614(10)
C10A C -0.3268(4) 1.1587(3) 0.06497(11)
H1A H -0.16940 1.51120 0.08100
H2A H -0.03960 0.94860 0.21940
H3A H 0.13770 1.60440 0.18580
H4A H 0.26640 1.03860 0.32570
H5A H -0.22430 1.16540 0.00170
H6A H -0.38350 1.02710 0.09180
H7A H -0.49430 1.24510 0.05580
#END
