
#######################################################################
#
#                 Cambridge Crystallographic Data Centre
#                                CCDC
#
#######################################################################
#
# If this CIF has been generated from an entry in the Cambridge
# Structural Database, then it will include bibliographic, chemical,
# crystal, experimental, refinement or atomic coordinate data resulting
# from the CCDC's data processing and validation procedures.
#
#######################################################################

data_CSD_CIF_SALHXA
_audit_creation_date 1978-06-15
_audit_creation_method CSD-ConQuest-V1
_database_code_CSD SALHXA
_database_code_depnum_ccdc_archive 'CCDC 1254505'
_chemical_formula_sum 'C7 H7 N1 O3'
_chemical_formula_moiety
;
C7 H7 N1 O3
;
_journal_coeditor_code "IUCr A15912"
_journal_coden_Cambridge 107
_journal_volume 34
_journal_year 1978
_journal_page_first 962
_journal_name_full 'Acta Crystallogr.,Sect.B:Struct.Crystallogr.Cryst.Chem. '
loop_
_publ_author_name
"I.K.Larsen"
_chemical_name_systematic
;
Salicylohydroxamic acid
;
_chemical_name_common
;
PDB Chemical Component code: SHA
;
_chemical_melting_point 441.15
_cell_volume   1369.397
_exptl_crystal_density_diffrn 1.485
_exptl_special_details
;
Melting point range 441.15-443.15K

;
_diffrn_ambient_temperature ?
_diffrn_special_details
;
The study was carried out at room temperature,in the range 283-303K

;
#These two values have been output from a single CSD field.
_refine_ls_R_factor_gt 0.037
_refine_ls_wR_factor_gt 0.037
_symmetry_cell_setting monoclinic
_symmetry_space_group_name_H-M 'C 2/c'
_symmetry_Int_Tables_number 15
loop_
_symmetry_equiv_pos_site_id
_symmetry_equiv_pos_as_xyz
1 x,y,z
2 1/2+x,1/2+y,z
3 -x,y,1/2-z
4 1/2-x,1/2+y,1/2-z
5 -x,-y,-z
6 -1/2-x,-1/2-y,-z
7 x,-y,-1/2+z
8 -1/2+x,-1/2-y,-1/2+z
_cell_length_a 23.783(5)
_cell_length_b 4.608(1)
_cell_length_c 12.575(3)
_cell_angle_alpha 90
_cell_angle_beta 96.45(2)
_cell_angle_gamma 90
_cell_formula_units_Z 8
loop_
_atom_type_symbol
_atom_type_radius_bond
C 0.68
H 0.23
N 0.68
O 0.68
loop_
_atom_site_label
_atom_site_type_symbol
_atom_site_fract_x
_atom_site_fract_y
_atom_site_fract_z
C1 C -0.38430 0.02430 -0.35840
C2 C -0.34680 0.15660 -0.27970
C3 C -0.30700 0.35190 -0.30410
C4 C -0.30360 0.42560 -0.41030
C5 C -0.34020 0.30020 -0.48990
C6 C -0.38040 0.10160 -0.46510
O1 O -0.41610 -0.02820 -0.54240
C7 C -0.42550 -0.18890 -0.32340
O2 O -0.42730 -0.24520 -0.22590
N1 N -0.46000 -0.31960 -0.39730
O3 O -0.49550 -0.54220 -0.37120
H1 H -0.35000 0.10700 -0.20700
H2 H -0.28200 0.44200 -0.25100
H3 H -0.27500 0.57100 -0.43100
H4 H -0.33800 0.34100 -0.56200
H5 H -0.41600 0.04600 -0.59500
H6 H -0.46200 -0.28500 -0.46600
H7 H -0.52100 -0.45700 -0.33600
#END
