
#######################################################################
#
#                 Cambridge Crystallographic Data Centre
#                                CCDC
#
#######################################################################
#
# If this CIF has been generated from an entry in the Cambridge
# Structural Database, then it will include bibliographic, chemical,
# crystal, experimental, refinement or atomic coordinate data resulting
# from the CCDC's data processing and validation procedures.
#
#######################################################################

data_CSD_CIF_SALLUN
_audit_creation_date 2005-03-24
_audit_creation_method CSD-ConQuest-V1
_database_code_CSD SALLUN
_database_code_depnum_ccdc_archive 'CCDC 248699'
_chemical_formula_sum 'C15 H15 N1 O1'
_chemical_formula_moiety
;
C15 H15 N1 O1
;
_journal_coden_Cambridge 16
_journal_volume 61
_journal_year 2005
_journal_page_first 493
_journal_name_full 'Tetrahedron '
loop_
_publ_author_name
"Ming-Chang P.Yeh"
"Chi-Fen Jou"
"Wei-Tzou Yeh"
"Da-Yu Chiu"
"N.R.K.Reddy"
_chemical_name_systematic
;
cis,cis-2a,5,6,6a,7,11c-Hexahydrobenzo(g)cyclohepta(cd)(2,1)benzisoxazole
;
_chemical_melting_point 392.15
_cell_volume    572.027
_exptl_crystal_colour 'colorless'
_exptl_crystal_density_diffrn 1.308
_exptl_special_details
;
Melting point range 392.15-394.15K

;
_exptl_crystal_description 'cube'
_exptl_crystal_preparation 'ethyl acetate/hexanes'
_diffrn_ambient_temperature 298
#These two values have been output from a single CSD field.
_refine_ls_R_factor_gt 0.119
_refine_ls_wR_factor_gt 0.119
loop_
_citation_database_id_CSD
_citation_special_details
SALMAU "is a stereoisomer of this entry"
_symmetry_cell_setting triclinic
_symmetry_space_group_name_H-M 'P -1'
_symmetry_Int_Tables_number 2
loop_
_symmetry_equiv_pos_site_id
_symmetry_equiv_pos_as_xyz
1 x,y,z
2 -x,-y,-z
_cell_length_a 7.2805(2)
_cell_length_b 8.9175(3)
_cell_length_c 10.3774(4)
_cell_angle_alpha 72.0461(14)
_cell_angle_beta 71.2449(14)
_cell_angle_gamma 66.418(3)
_cell_formula_units_Z 2
loop_
_atom_type_symbol
_atom_type_radius_bond
C 0.68
H 0.23
N 0.68
O 0.68
loop_
_atom_site_label
_atom_site_type_symbol
_atom_site_fract_x
_atom_site_fract_y
_atom_site_fract_z
O1 O 1.3488(5) 0.1523(5) 0.1436(4)
N1 N 1.2295(5) 0.2237(5) 0.2609(4)
C1 C 1.2210(6) 0.0967(6) 0.0957(5)
C2 C 1.1849(8) 0.2086(8) -0.0398(5)
C3 C 1.0194(8) 0.3063(7) -0.0876(5)
C4 C 0.7970(7) 0.3409(6) -0.0183(5)
C5 C 0.7391(6) 0.3123(6) 0.1374(5)
C6 C 0.8229(6) 0.1333(5) 0.2151(5)
C7 C 1.0476(6) 0.0822(5) 0.2229(5)
C8 C 1.0638(6) 0.1864(5) 0.3044(4)
C9 C 0.9007(6) 0.2401(5) 0.4239(4)
C10 C 0.9180(7) 0.3311(6) 0.5060(5)
C11 C 0.7582(8) 0.3828(6) 0.6146(5)
C12 C 0.5832(8) 0.3423(6) 0.6446(5)
C13 C 0.5671(7) 0.2513(6) 0.5664(5)
C14 C 0.7227(6) 0.1997(5) 0.4536(4)
C15 C 0.7008(6) 0.1049(6) 0.3646(5)
H1 H 1.29495 -0.01014 0.07008
H2 H 1.29930 0.21985 -0.11580
H3 H 1.06050 0.35988 -0.18241
H4 H 0.81408 0.06367 0.16443
H5 H 1.09445 -0.03366 0.26722
H6 H 1.04148 0.35670 0.48699
H7 H 0.77085 0.44756 0.66797
H8 H 0.47348 0.37780 0.72173
H9 H 0.44443 0.22314 0.59042
H10 H 0.75345 0.27089 -0.04784
H11 H 0.72945 0.45609 -0.05584
H12 H 0.59149 0.34971 0.16429
H13 H 0.78909 0.38241 0.16139
H14 H 0.74582 -0.01279 0.40370
H15 H 0.55862 0.14201 0.36180
#END
