
#######################################################################
#
#                 Cambridge Crystallographic Data Centre
#                                CCDC
#
#######################################################################
#
# If this CIF has been generated from an entry in the Cambridge
# Structural Database, then it will include bibliographic, chemical,
# crystal, experimental, refinement or atomic coordinate data resulting
# from the CCDC's data processing and validation procedures.
#
#######################################################################

data_CSD_CIF_SALLIA
_audit_creation_date 1989-10-10
_audit_creation_method CSD-ConQuest-V1
_database_code_CSD SALLIA
_chemical_formula_sum 'C13 H13 N1 O4'
_chemical_formula_moiety
;
C13 H13 N1 O4
;
_journal_coden_Cambridge 603
_journal_volume 7
_journal_year 1988
_journal_page_first 262
_journal_name_full 'Jiegou Huaxue(Chin.)(Chin.J.Struct.Chem.) '
loop_
_publ_author_name
"Liang Dongcai"
"Li Mi"
"Liu Chengguo"
"Huang Jinke"
"Zhong Zengpei"
"Qiu Ruhui"
_chemical_name_systematic
;
6-p-Nitrophenylcyclohex-2-enecarboxylic acid
;
_chemical_melting_point 461.85
_cell_volume    590.138
_exptl_special_details
;
Melting point range 461.85-462.15K

;
_diffrn_ambient_temperature ?
_diffrn_special_details
;
The study was carried out at room temperature,in the range 283-303K

;
#These two values have been output from a single CSD field.
_refine_ls_R_factor_gt 0.073
_refine_ls_wR_factor_gt 0.073
_symmetry_cell_setting triclinic
_symmetry_space_group_name_H-M 'P -1'
_symmetry_Int_Tables_number 2
loop_
_symmetry_equiv_pos_site_id
_symmetry_equiv_pos_as_xyz
1 x,y,z
2 -x,-y,-z
_cell_length_a 10.3
_cell_length_b 8.062
_cell_length_c 7.804
_cell_angle_alpha 71.39
_cell_angle_beta 80.4
_cell_angle_gamma 74.77
_cell_formula_units_Z 2
loop_
_atom_type_symbol
_atom_type_radius_bond
C 0.68
N 0.68
O 0.68
loop_
_atom_site_label
_atom_site_type_symbol
_atom_site_fract_x
_atom_site_fract_y
_atom_site_fract_z
O1 O 0.53750 0.27070 0.48420
O2 O 0.36840 0.51000 0.40220
O3 O -0.21420 -0.09860 0.27660
O4 O -0.03740 -0.30270 0.26240
N1 N -0.09240 -0.15070 0.26350
C1 C 0.37430 0.24010 0.32250
C2 C 0.47880 0.20030 0.17140
C3 C 0.45540 0.25880 -0.00090
C4 C 0.32610 0.38010 -0.06990
C5 C 0.24210 0.46620 0.06940
C6 C 0.23300 0.33290 0.25810
C7 C 0.42440 0.35620 0.40660
C8 C 0.15130 0.19910 0.25960
C9 C 0.20960 0.02890 0.24260
C10 C 0.13090 -0.08670 0.24110
C11 C -0.00800 -0.02780 0.25890
C12 C -0.07040 0.14030 0.27590
C13 C 0.01030 0.25330 0.27670
#END
