
#######################################################################
#
#                 Cambridge Crystallographic Data Centre
#                                CCDC
#
#######################################################################
#
# If this CIF has been generated from an entry in the Cambridge
# Structural Database, then it will include bibliographic, chemical,
# crystal, experimental, refinement or atomic coordinate data resulting
# from the CCDC's data processing and validation procedures.
#
#######################################################################

data_CSD_CIF_SALLOH
_audit_creation_date 2005-03-24
_audit_creation_method CSD-ConQuest-V1
_database_code_CSD SALLOH
_database_code_depnum_ccdc_archive 'CCDC 248698'
_chemical_formula_sum 'C11 H15 N1 O1'
_chemical_formula_moiety
;
C11 H15 N1 O1
;
_journal_coden_Cambridge 16
_journal_volume 61
_journal_year 2005
_journal_page_first 493
_journal_name_full 'Tetrahedron '
loop_
_publ_author_name
"Ming-Chang P.Yeh"
"Chi-Fen Jou"
"Wei-Tzou Yeh"
"Da-Yu Chiu"
"N.R.K.Reddy"
_chemical_name_systematic
;
cis,cis-3,4,5,5a,6,7,9a,9b-Octahydrocyclohepta(cd)(2,1)benzisoxazole
;
_chemical_melting_point 339.15
_cell_volume    960.896
_exptl_crystal_colour 'colorless'
_exptl_crystal_density_diffrn 1.225
_exptl_special_details
;
Melting point range 339.15-341.15K

;
_exptl_crystal_description 'equant'
_exptl_crystal_preparation 'ethyl acetate/hexanes'
_diffrn_ambient_temperature 296
#These two values have been output from a single CSD field.
_refine_ls_R_factor_gt 0.0404
_refine_ls_wR_factor_gt 0.0404
_symmetry_cell_setting monoclinic
_symmetry_space_group_name_H-M 'P 21/c'
_symmetry_Int_Tables_number 14
loop_
_symmetry_equiv_pos_site_id
_symmetry_equiv_pos_as_xyz
1 x,y,z
2 x,1/2-y,1/2+z
3 -x,-y,-z
4 -x,-1/2+y,-1/2-z
_cell_length_a 13.7122(14)
_cell_length_b 7.1245(8)
_cell_length_c 10.2422(11)
_cell_angle_alpha 90
_cell_angle_beta 106.192(2)
_cell_angle_gamma 90
_cell_formula_units_Z 4
loop_
_atom_type_symbol
_atom_type_radius_bond
C 0.68
H 0.23
N 0.68
O 0.68
loop_
_atom_site_label
_atom_site_type_symbol
_atom_site_fract_x
_atom_site_fract_y
_atom_site_fract_z
O1 O 0.82747(7) 0.05349(15) 0.69754(8)
N1 N 0.72810(9) 0.12670(16) 0.64115(12)
C1 C 0.79192(8) 0.05522(15) 0.45794(11)
C2 C 0.71005(10) 0.13248(16) 0.51239(13)
C3 C 0.60974(11) 0.1799(2) 0.41828(15)
C4 C 0.57047(10) 0.0063(2) 0.33153(16)
C5 C 0.65136(10) -0.07339(19) 0.27028(13)
C6 C 0.75105(9) -0.12337(15) 0.37641(11)
C7 C 0.73919(10) -0.28411(17) 0.46998(13)
C8 C 0.83419(12) -0.40112(19) 0.52176(14)
C9 C 0.93070(11) -0.3010(2) 0.58900(14)
C10 C 0.94916(10) -0.1214(2) 0.61621(13)
C11 C 0.87816(10) 0.04227(18) 0.58903(12)
H1 H 0.80740 0.14780 0.39850
H2 H 0.61920 0.28220 0.35940
H3 H 0.56300 0.21690 0.46970
H4 H 0.55350 -0.09460 0.39040
H5 H 0.50940 0.04180 0.26100
H6 H 0.62250 -0.19110 0.21740
H7 H 0.66530 0.02540 0.20560
H8 H 0.80040 -0.16530 0.32760
H9 H 0.68570 -0.36790 0.41510
H10 H 0.71660 -0.22950 0.54570
H11 H 0.82460 -0.49590 0.58540
H12 H 0.84880 -0.46460 0.44600
H13 H 0.98800 -0.38620 0.61630
H14 H 1.01720 -0.08810 0.66040
H15 H 0.92120 0.15900 0.59690
#END
