
#######################################################################
#
#                 Cambridge Crystallographic Data Centre
#                                CCDC
#
#######################################################################
#
# If this CIF has been generated from an entry in the Cambridge
# Structural Database, then it will include bibliographic, chemical,
# crystal, experimental, refinement or atomic coordinate data resulting
# from the CCDC's data processing and validation procedures.
#
#######################################################################

data_CSD_CIF_SALMIC
_audit_creation_date 2005-03-24
_audit_creation_method CSD-ConQuest-V1
_database_code_CSD SALMIC
_database_code_depnum_ccdc_archive 'CCDC 248702'
_chemical_formula_sum 'C11 H13 N1 O1'
_chemical_formula_moiety
;
C11 H13 N1 O1
;
_journal_coden_Cambridge 16
_journal_volume 61
_journal_year 2005
_journal_page_first 493
_journal_name_full 'Tetrahedron '
loop_
_publ_author_name
"Ming-Chang P.Yeh"
"Chi-Fen Jou"
"Wei-Tzou Yeh"
"Da-Yu Chiu"
"N.R.K.Reddy"
_chemical_name_systematic
;
cis,trans-3,4,5,5a,9a,9b-Hexahydrocyclohepta(cd)(2,1)benzisoxazole
;
_chemical_melting_point 339.15
_cell_volume    921.384
_exptl_crystal_colour 'colorless'
_exptl_crystal_density_diffrn 1.263
_exptl_special_details
;
Melting point range 339.15-341.15K

;
_exptl_crystal_preparation 'ethyl acetate/hexanes'
_diffrn_ambient_temperature 293
#These two values have been output from a single CSD field.
_refine_ls_R_factor_gt 0.055
_refine_ls_wR_factor_gt 0.055
_symmetry_cell_setting monoclinic
_symmetry_space_group_name_H-M 'P 21/c'
_symmetry_Int_Tables_number 14
loop_
_symmetry_equiv_pos_site_id
_symmetry_equiv_pos_as_xyz
1 x,y,z
2 x,1/2-y,1/2+z
3 -x,-y,-z
4 -x,-1/2+y,-1/2-z
_cell_length_a 8.3195(21)
_cell_length_b 7.503(4)
_cell_length_c 14.917(7)
_cell_angle_alpha 90
_cell_angle_beta 98.30(4)
_cell_angle_gamma 90
_cell_formula_units_Z 4
loop_
_atom_type_symbol
_atom_type_radius_bond
C 0.68
H 0.23
N 0.68
O 0.68
loop_
_atom_site_label
_atom_site_type_symbol
_atom_site_fract_x
_atom_site_fract_y
_atom_site_fract_z
O1 O 0.5291(4) 0.0548(6) 0.8473(3)
N1 N 0.5613(5) 0.0593(6) 0.7561(4)
C1 C 0.4319(6) 0.1071(7) 0.7046(4)
C2 C 0.4140(7) 0.1052(9) 0.6045(4)
C3 C 0.2796(7) -0.0288(9) 0.5692(4)
C4 C 0.1264(6) 0.0035(8) 0.6126(3)
C5 C 0.1564(5) -0.0046(7) 0.7157(3)
C6 C 0.2875(5) 0.1350(7) 0.7523(4)
C7 C 0.3623(6) 0.1193(7) 0.8501(4)
C8 C 0.2871(7) 0.0037(9) 0.9136(4)
C9 C 0.1292(7) -0.0377(8) 0.9126(4)
C10 C -0.0039(6) 0.0117(8) 0.8441(4)
C11 C 0.0055(6) 0.0264(7) 0.7570(4)
H1 H 0.20200 -0.13600 0.73700
H2 H 0.23600 0.26900 0.73500
H3 H 0.36400 0.25200 0.88300
H4 H 0.35800 -0.06500 0.96300
H5 H 0.10700 -0.10300 0.96800
H6 H -0.11100 0.02800 0.86600
H7 H -0.09400 0.06900 0.71700
H8 H 0.37900 0.24100 0.57900
H9 H 0.52900 0.06200 0.58500
H10 H 0.32600 -0.16200 0.58700
H11 H 0.24900 -0.01300 0.49600
H12 H 0.03900 -0.09900 0.58700
H13 H 0.07900 0.13700 0.59100
#END
