
#######################################################################
#
#                 Cambridge Crystallographic Data Centre
#                                CCDC
#
#######################################################################
#
# If this CIF has been generated from an entry in the Cambridge
# Structural Database, then it will include bibliographic, chemical,
# crystal, experimental, refinement or atomic coordinate data resulting
# from the CCDC's data processing and validation procedures.
#
#######################################################################

data_CSD_CIF_SALMEY
_audit_creation_date 2005-03-24
_audit_creation_method CSD-ConQuest-V1
_database_code_CSD SALMEY
_database_code_depnum_ccdc_archive 'CCDC 248701'
_chemical_formula_sum 'C10 H11 N1 O1'
_chemical_formula_moiety
;
C10 H11 N1 O1
;
_journal_coden_Cambridge 16
_journal_volume 61
_journal_year 2005
_journal_page_first 493
_journal_name_full 'Tetrahedron '
loop_
_publ_author_name
"Ming-Chang P.Yeh"
"Chi-Fen Jou"
"Wei-Tzou Yeh"
"Da-Yu Chiu"
"N.R.K.Reddy"
_chemical_name_systematic
;
cis,trans-4,4a,8a,8b-Tetrahydro-3H-azuleno(1,8-cd)isoxazole
;
_chemical_melting_point 357.15
_cell_volume    820.723
_exptl_crystal_colour 'colorless'
_exptl_crystal_density_diffrn 1.305
_exptl_special_details
;
Melting point range 357.15-359.15K

;
_exptl_crystal_description 'cube'
_exptl_crystal_preparation 'ethyl acetate/hexanes'
_diffrn_ambient_temperature 298
#These two values have been output from a single CSD field.
_refine_ls_R_factor_gt 0.0502
_refine_ls_wR_factor_gt 0.0502
_symmetry_cell_setting monoclinic
_symmetry_space_group_name_H-M 'P 21/c'
_symmetry_Int_Tables_number 14
loop_
_symmetry_equiv_pos_site_id
_symmetry_equiv_pos_as_xyz
1 x,y,z
2 x,1/2-y,1/2+z
3 -x,-y,-z
4 -x,-1/2+y,-1/2-z
_cell_length_a 8.2968(4)
_cell_length_b 5.6797(2)
_cell_length_c 17.6542(10)
_cell_angle_alpha 90
_cell_angle_beta 99.413(2)
_cell_angle_gamma 90
_cell_formula_units_Z 4
loop_
_atom_type_symbol
_atom_type_radius_bond
C 0.68
H 0.23
N 0.68
O 0.68
loop_
_atom_site_label
_atom_site_type_symbol
_atom_site_fract_x
_atom_site_fract_y
_atom_site_fract_z
O1 O 0.92766(19) -0.2435(2) 0.68761(9)
N1 N 1.0261(2) -0.1162(3) 0.64267(11)
C1 C 0.9665(2) 0.0905(3) 0.63142(12)
C2 C 0.9860(3) 0.2631(4) 0.56924(14)
C3 C 0.8049(3) 0.3230(4) 0.53848(13)
C4 C 0.7018(2) 0.1571(3) 0.58018(11)
C5 C 0.5304(3) 0.2187(4) 0.58553(14)
C6 C 0.4399(3) 0.0824(4) 0.62279(15)
C7 C 0.4889(3) -0.1401(4) 0.65992(14)
C8 C 0.6361(3) -0.2199(4) 0.69067(13)
C9 C 0.7939(2) -0.0906(3) 0.70460(12)
C10 C 0.8093(2) 0.1282(3) 0.65899(11)
H1 H 1.05080 0.39420 0.59080
H2 H 1.03950 0.18670 0.53160
H3 H 0.77760 0.30050 0.48400
H4 H 0.78110 0.48230 0.55110
H5 H 0.69130 0.00890 0.55370
H6 H 0.48390 0.36110 0.56210
H7 H 0.33040 0.12600 0.62790
H8 H 0.39460 -0.23840 0.65940
H9 H 0.63280 -0.38190 0.70590
H10 H 0.80860 -0.05420 0.75840
H11 H 0.79570 0.26270 0.69030
#END
