
#######################################################################
#
#                 Cambridge Crystallographic Data Centre
#                                CCDC
#
#######################################################################
#
# If this CIF has been generated from an entry in the Cambridge
# Structural Database, then it will include bibliographic, chemical,
# crystal, experimental, refinement or atomic coordinate data resulting
# from the CCDC's data processing and validation procedures.
#
#######################################################################

data_CSD_CIF_SALOXM08
_audit_creation_date 2007-01-05
_audit_creation_method CSD-ConQuest-V1
_database_code_CSD SALOXM08
_database_code_depnum_ccdc_archive 'CCDC 629863'
_chemical_formula_sum 'C7 H7 N1 O2'
_chemical_formula_moiety
;
C7 H7 N1 O2
;
_journal_coeditor_code "IUCr SO5004"
_journal_coden_Cambridge 622
_journal_volume 62
_journal_year 2006
_journal_page_first 1099
_journal_name_full 'Acta Crystallogr.,Sect.B:Struct.Sci. '
loop_
_publ_author_name
"P.A.Wood"
"R.S.Forgan"
"D.Henderson"
"S.Parsons"
"E.Pidcock"
"P.A.Tasker"
"J.E.Warren"
_chemical_name_systematic
;
2-hydroxybenzaldehyde oxime
;
_chemical_name_common
;
salicylaldoxime
;
_chemical_melting_point 332
_cell_volume    513.198
_exptl_crystal_colour 'colorless'
_exptl_crystal_density_diffrn 1.775
_exptl_special_details
;
Melting point range 332-334K
polymorph I
phase transition at 5.93 Gpa

;
_exptl_crystal_description 'block'
_diffrn_ambient_temperature 293
_diffrn_ambient_pressure 5250000.0
_diffrn_radiation_probe x-ray
_diffrn_source synchrotron
#These two values have been output from a single CSD field.
_refine_ls_R_factor_gt 0.0406
_refine_ls_wR_factor_gt 0.0406
_symmetry_cell_setting monoclinic
_symmetry_space_group_name_H-M 'P 21/n'
_symmetry_Int_Tables_number 14
loop_
_symmetry_equiv_pos_site_id
_symmetry_equiv_pos_as_xyz
1 x,y,z
2 1/2-x,1/2+y,1/2-z
3 -x,-y,-z
4 -1/2+x,-1/2-y,-1/2+z
_cell_length_a 9.513(2)
_cell_length_b 4.9319(4)
_cell_length_c 11.630(2)
_cell_angle_alpha 90
_cell_angle_beta 109.859(14)
_cell_angle_gamma 90
_cell_formula_units_Z 4
loop_
_atom_type_symbol
_atom_type_radius_bond
C 0.68
H 0.23
N 0.68
O 0.68
loop_
_atom_site_label
_atom_site_type_symbol
_atom_site_fract_x
_atom_site_fract_y
_atom_site_fract_z
O1 O 0.7473(6) 1.0528(4) 0.6898(2)
N1 N 0.6921(7) 0.8817(5) 0.5895(3)
C1 C 0.7887(8) 0.7084(6) 0.5843(3)
C2 C 0.7549(8) 0.5041(6) 0.4876(3)
C3 C 0.6116(8) 0.4911(6) 0.3990(3)
O2 O 0.5017(6) 0.6740(4) 0.3973(2)
C4 C 0.5766(9) 0.2837(6) 0.3130(3)
C5 C 0.6809(9) 0.1029(6) 0.3139(3)
C6 C 0.8277(8) 0.1164(6) 0.3986(3)
C7 C 0.8587(8) 0.3161(6) 0.4865(3)
H1 H 0.678(4) 1.160(9) 0.678(4)
H2 H 0.88440 0.70750 0.64440
H3 H 0.536(9) 0.793(6) 0.448(3)
H4 H 0.48130 0.27030 0.25600
H5 H 0.65670 -0.03500 0.25520
H6 H 0.90140 -0.00940 0.39720
H7 H 0.95370 0.31860 0.54740
#END
