
#######################################################################
#
#                 Cambridge Crystallographic Data Centre
#                                CCDC
#
#######################################################################
#
# If this CIF has been generated from an entry in the Cambridge
# Structural Database, then it will include bibliographic, chemical,
# crystal, experimental, refinement or atomic coordinate data resulting
# from the CCDC's data processing and validation procedures.
#
#######################################################################

data_CSD_CIF_SALOXM
_audit_creation_date 1974-03-25
_audit_creation_method CSD-ConQuest-V1
_database_code_CSD SALOXM
_database_code_depnum_ccdc_archive 'CCDC 1254552'
_chemical_formula_sum 'C7 H7 N1 O2'
_chemical_formula_moiety
;
C7 H7 N1 O2
;
_journal_coeditor_code "IUCr A10339"
_journal_coden_Cambridge 107
_journal_volume 29
_journal_year 1973
_journal_page_first 2608
_journal_name_full 'Acta Crystallogr.,Sect.B:Struct.Crystallogr.Cryst.Chem. '
loop_
_publ_author_name
"C.E.Pfluger"
"R.L.Harlow"
_chemical_name_systematic
;
Salicylaldoxime
;
_cell_volume    662.261
_exptl_crystal_density_diffrn 1.375
_exptl_special_details
;
polymorph I
C5-H13 GIVEN AS 1.01 CALCULATES TO 1.15A

;
_diffrn_ambient_temperature ?
_diffrn_special_details
;
The study was carried out at room temperature,in the range 283-303K

;
#These two values have been output from a single CSD field.
_refine_ls_R_factor_gt 0.077
_refine_ls_wR_factor_gt 0.077
_symmetry_cell_setting monoclinic
_symmetry_space_group_name_H-M 'P 21/c'
_symmetry_Int_Tables_number 14
loop_
_symmetry_equiv_pos_site_id
_symmetry_equiv_pos_as_xyz
1 x,y,z
2 -x,1/2+y,1/2-z
3 -x,-y,-z
4 x,-1/2-y,-1/2+z
_cell_length_a 10.41(1)
_cell_length_b 5.078(5)
_cell_length_c 13.60(1)
_cell_angle_alpha 90
_cell_angle_beta 112.9(2)
_cell_angle_gamma 90
_cell_formula_units_Z 4
loop_
_atom_type_symbol
_atom_type_radius_bond
C 0.68
H 0.20
N 0.68
O 0.68
loop_
_atom_site_label
_atom_site_type_symbol
_atom_site_fract_x
_atom_site_fract_y
_atom_site_fract_z
C1 C 0.25030 0.48070 0.00930
C2 C 0.20490 0.47740 0.09450
C3 C 0.26140 0.65500 0.17810
C4 C 0.36410 0.82730 0.18080
C5 C 0.41220 0.83160 0.09850
C6 C 0.35360 0.66000 0.01410
C7 C 0.19170 0.30370 -0.08190
H1 H 0.22000 0.65500 0.22800
H2 H 0.39300 0.98400 0.22700
H3 H 0.49000 0.99500 0.10200
H4 H 0.39600 0.63900 -0.03900
H5 H 0.23800 0.30800 -0.14100
H6 H 0.00900 -0.13700 -0.16600
H7 H 0.08500 0.20000 0.04000
N1 N 0.10060 0.13170 -0.08730
O1 O 0.10450 0.30760 0.09540
O2 O 0.05920 -0.02020 -0.18090
#END
