
#######################################################################
#
#                 Cambridge Crystallographic Data Centre
#                                CCDC
#
#######################################################################
#
# If this CIF has been generated from an entry in the Cambridge
# Structural Database, then it will include bibliographic, chemical,
# crystal, experimental, refinement or atomic coordinate data resulting
# from the CCDC's data processing and validation procedures.
#
#######################################################################

data_CSD_CIF_SALOXM02
_audit_creation_date 2006-10-05
_audit_creation_method CSD-ConQuest-V1
_database_code_CSD SALOXM02
_database_code_depnum_ccdc_archive 'CCDC 620699'
_chemical_formula_sum 'C7 H7 N1 O2'
_chemical_formula_moiety
;
C7 H7 N1 O2
;
_journal_coeditor_code "IUCr BT2170"
_journal_coden_Cambridge 1370
_journal_volume 62
_journal_year 2006
_journal_page_first o3944
_journal_name_full 'Acta Crystallogr.,Sect.E:Struct.Rep.Online '
loop_
_publ_author_name
"P.A.Wood"
"R.S.Forgan"
"S.Parsons"
"E.Pidcock"
"P.A.Tasker"
_chemical_name_systematic
;
2-Hydroxybenzaldehyde oxime
;
_chemical_name_common
;
Salicylaldoxime
;
_chemical_melting_point 332
_cell_volume   1303.398
_exptl_crystal_colour 'colorless'
_exptl_crystal_density_diffrn 1.398
_exptl_special_details
;
Melting point range 332-334K
polymorph III

;
_exptl_crystal_description 'block'
_exptl_crystal_preparation 'hexane/chloroform'
_diffrn_ambient_temperature 150
#These two values have been output from a single CSD field.
_refine_ls_R_factor_gt 0.0333
_refine_ls_wR_factor_gt 0.0333
_symmetry_cell_setting orthorhombic
_symmetry_space_group_name_H-M 'P 21 21 21'
_symmetry_Int_Tables_number 19
loop_
_symmetry_equiv_pos_site_id
_symmetry_equiv_pos_as_xyz
1 x,y,z
2 1/2-x,-y,1/2+z
3 1/2+x,1/2-y,-z
4 -x,1/2+y,1/2-z
_cell_length_a 7.6691(2)
_cell_length_b 12.7162(3)
_cell_length_c 13.3652(3)
_cell_angle_alpha 90
_cell_angle_beta 90
_cell_angle_gamma 90
_cell_formula_units_Z 8
loop_
_atom_type_symbol
_atom_type_radius_bond
C 0.68
H 0.23
N 0.68
O 0.68
loop_
_atom_site_label
_atom_site_type_symbol
_atom_site_fract_x
_atom_site_fract_y
_atom_site_fract_z
O1 O 0.2811(2) 0.27564(10) 0.02463(9)
N1 N 0.2508(2) 0.22621(10) 0.11662(10)
C1 C 0.1828(2) 0.13549(13) 0.10589(12)
C2 C 0.1437(2) 0.07010(13) 0.19232(12)
C3 C 0.1779(2) 0.10191(12) 0.29136(12)
O2 O 0.24867(17) 0.19816(9) 0.31221(9)
C4 C 0.1421(2) 0.03505(14) 0.37079(12)
C5 C 0.0716(2) -0.06313(14) 0.35366(14)
C6 C 0.0356(2) -0.09565(14) 0.25657(15)
C7 C 0.0725(2) -0.02997(13) 0.17736(13)
H1 H 0.315(3) 0.3334(17) 0.0410(18)
H2 H 0.15800 0.10960 0.04270
H3 H 0.270(3) 0.2251(17) 0.2545(15)
H4 H 0.16670 0.05730 0.43650
H5 H 0.04820 -0.10610 0.40910
H6 H -0.01410 -0.16340 0.24580
H7 H 0.05440 -0.05230 0.11010
O3 O 0.7865(2) 0.25663(11) 0.48433(10)
N2 N 0.7161(2) 0.16559(10) 0.44076(11)
C8 C 0.7209(2) 0.17066(12) 0.34528(13)
C9 C 0.6555(2) 0.08496(13) 0.28352(12)
C10 C 0.5891(2) -0.00828(12) 0.32393(11)
O4 O 0.58579(17) -0.02492(9) 0.42557(8)
C11 C 0.5244(2) -0.08673(13) 0.26243(13)
C12 C 0.5285(2) -0.07423(14) 0.15954(13)
C13 C 0.5959(2) 0.01694(14) 0.11784(12)
C14 C 0.6577(2) 0.09598(13) 0.17902(12)
H8 H 0.768(3) 0.2501(18) 0.5479(17)
H9 H 0.76540 0.23050 0.31300
H10 H 0.624(3) 0.0323(16) 0.4501(15)
H11 H 0.47610 -0.14870 0.29230
H12 H 0.47910 -0.12600 0.11800
H13 H 0.59490 0.02600 0.04720
H14 H 0.70260 0.15810 0.15080
#END
