
#######################################################################
#
#                 Cambridge Crystallographic Data Centre
#                                CCDC
#
#######################################################################
#
# If this CIF has been generated from an entry in the Cambridge
# Structural Database, then it will include bibliographic, chemical,
# crystal, experimental, refinement or atomic coordinate data resulting
# from the CCDC's data processing and validation procedures.
#
#######################################################################

data_CSD_CIF_SALTII
_audit_creation_date 1989-10-10
_audit_creation_method CSD-ConQuest-V1
_database_code_CSD SALTII
_chemical_formula_sum 'C21 H26 N2 O4'
_chemical_formula_moiety
;
C21 H26 N2 O4
;
_journal_coden_Cambridge 24
_journal_volume 30
_journal_year 1989
_journal_page_first 1177
_journal_name_full 'Tetrahedron Lett. '
loop_
_publ_author_name
"Long-Ze Lin"
"G.A.Cordell"
"Chou-Zhou Ni"
"J.Clardy"
_chemical_name_systematic
;
11-Methoxygelsemamide
;
_chemical_melting_point 413.15
_cell_volume   1892.608
_diffrn_ambient_temperature ?
_diffrn_special_details
;
The study was carried out at room temperature,in the range 283-303K

;
#These two values have been output from a single CSD field.
_refine_ls_R_factor_gt 0.057
_refine_ls_wR_factor_gt 0.057
_chemical_compound_source
;
Gelsemium elegans
;
_symmetry_cell_setting orthorhombic
_symmetry_space_group_name_H-M 'P 21 21 21'
_symmetry_Int_Tables_number 19
loop_
_symmetry_equiv_pos_site_id
_symmetry_equiv_pos_as_xyz
1 x,y,z
2 1/2+x,1/2-y,-z
3 -x,1/2+y,1/2-z
4 1/2-x,-y,1/2+z
_cell_length_a 9.694(1)
_cell_length_b 10.120(1)
_cell_length_c 19.292(2)
_cell_angle_alpha 90
_cell_angle_beta 90
_cell_angle_gamma 90
_cell_formula_units_Z 4
loop_
_atom_type_symbol
_atom_type_radius_bond
C 0.68
H 0.23
N 0.68
O 0.68
loop_
_atom_site_label
_atom_site_type_symbol
_atom_site_fract_x
_atom_site_fract_y
_atom_site_fract_z
N1 N 0.5287(4) 0.7889(4) 0.5810(2)
C1 C 0.4292(5) 0.5625(5) 0.6761(2)
C2 C 0.5593(5) 0.4749(4) 0.5752(2)
N2 N 0.3789(4) 0.4461(4) 0.7012(2)
C3 C 0.4847(5) 0.3411(5) 0.6999(2)
C4 C 0.6144(5) 0.4247(5) 0.7032(2)
C5 C 0.5758(5) 0.5372(5) 0.6518(2)
C6 C 0.6815(5) 0.6494(5) 0.6488(2)
C7 C 0.8129(5) 0.6304(5) 0.6746(2)
C8 C 0.9201(5) 0.7203(5) 0.6665(3)
C9 C 0.8943(5) 0.8356(5) 0.6299(2)
C10 C 0.7625(5) 0.8605(5) 0.6048(2)
C11 C 0.6575(5) 0.7697(4) 0.6121(2)
C12 C 0.4127(5) 0.4352(4) 0.5521(2)
C13 C 0.3563(5) 0.3079(5) 0.5866(2)
C14 C 0.4693(5) 0.2532(5) 0.6351(2)
C15 C 0.6027(5) 0.2414(5) 0.5935(3)
C16 C -0.0274(6) 0.2748(7) 0.6442(3)
C17 C 0.1071(5) 0.2659(5) 0.6083(3)
C18 C 0.2237(5) 0.3251(5) 0.6265(2)
C19 C 0.2349(5) 0.4083(5) 0.6920(3)
C20 C 1.1295(7) 0.9041(7) 0.6339(4)
C21 C 0.4586(8) 0.9332(6) 0.4966(3)
O1 O 0.3582(4) 0.6636(3) 0.6720(2)
O2 O 0.6521(3) 0.3667(3) 0.5671(2)
O3 O 0.9911(4) 0.9308(3) 0.6158(2)
O4 O 0.5037(4) 0.9246(3) 0.5635(2)
H1 H 0.46850 0.72330 0.57230
H2 H 0.58930 0.54210 0.54350
H3 H 0.47810 0.28830 0.74110
H4 H 0.69250 0.37640 0.68610
H5 H 0.63380 0.45650 0.74910
H6 H 0.83030 0.55090 0.70030
H7 H 1.01050 0.70260 0.68460
H8 H 0.74530 0.94090 0.57980
H9 H 0.35100 0.50620 0.56340
H10 H 0.41080 0.42410 0.50270
H11 H 0.33910 0.24490 0.55040
H12 H 0.44230 0.16610 0.64950
H13 H 0.58660 0.18490 0.55440
H14 H 0.67320 0.20140 0.62150
H15 H -0.09390 0.22250 0.61950
H16 H -0.05790 0.36500 0.64580
H17 H -0.01790 0.24150 0.69050
H18 H 0.11110 0.21290 0.56710
H19 H 0.20320 0.35940 0.73150
H20 H 0.17820 0.48550 0.68710
H21 H 1.18380 0.98020 0.62230
H22 H 1.15920 0.83010 0.60660
H23 H 1.14100 0.88390 0.68220
H24 H 0.44210 1.02350 0.48390
H25 H 0.37550 0.88290 0.49060
H26 H 0.53000 0.89720 0.46770
#END
