
#######################################################################
#
#                 Cambridge Crystallographic Data Centre
#                                CCDC
#
#######################################################################
#
# If this CIF has been generated from an entry in the Cambridge
# Structural Database, then it will include bibliographic, chemical,
# crystal, experimental, refinement or atomic coordinate data resulting
# from the CCDC's data processing and validation procedures.
#
#######################################################################

data_CSD_CIF_SALWUA
_audit_creation_date 2017-02-09
_audit_creation_method CSD-ConQuest-V1
_database_code_CSD SALWUA
_database_code_depnum_ccdc_archive 'CCDC 1440714'
_chemical_formula_sum 'C21 H15 N3 O4'
_chemical_formula_moiety
;
C21 H15 N3 O4
;
_journal_coden_Cambridge 1291
_journal_year 2017
_journal_page_first 1004
_journal_name_full 'Eur.J.Org.Chem. '
loop_
_publ_author_name
"J.Ahmed"
"S.C.Sau"
"Sreejyothi P."
"P.K.Hota"
"P.K.Vardhanapu"
"G.Vijaykumar"
"S.K.Mandal"
_chemical_name_systematic
;
1-methyl-2,3-bis(4-nitrophenyl)-1H-indole
;
_cell_volume    900.640
_exptl_crystal_colour 'yellow'
_exptl_crystal_density_diffrn 1.377
_exptl_crystal_description 'block'
_diffrn_ambient_temperature 296.2
#These two values have been output from a single CSD field.
_refine_ls_R_factor_gt 0.0726
_refine_ls_wR_factor_gt 0.0726
_symmetry_cell_setting triclinic
_symmetry_space_group_name_H-M 'P -1'
_symmetry_Int_Tables_number 2
loop_
_symmetry_equiv_pos_site_id
_symmetry_equiv_pos_as_xyz
1 x,y,z
2 -x,-y,-z
_cell_length_a 8.3574(7)
_cell_length_b 10.4044(8)
_cell_length_c 11.7348(10)
_cell_angle_alpha 113.674(8)
_cell_angle_beta 102.831(7)
_cell_angle_gamma 92.651(7)
_cell_formula_units_Z 2
loop_
_atom_type_symbol
_atom_type_radius_bond
C 0.68
H 0.23
N 0.68
O 0.68
loop_
_atom_site_label
_atom_site_type_symbol
_atom_site_fract_x
_atom_site_fract_y
_atom_site_fract_z
C1 C 0.2071(4) 0.5288(3) 0.1108(2)
C2 C 0.1103(4) 0.5632(3) 0.1967(3)
H1 H 0.04410 0.49270 0.20220
N1 N 0.1808(3) 1.0559(2) 0.2926(2)
C3 C 0.2135(3) 0.8103(2) 0.2663(2)
C4 C 0.2843(3) 0.9724(2) 0.5751(2)
C5 C 0.3805(3) 0.8623(3) 0.5587(2)
H2 H 0.41740 0.82400 0.48450
C6 C 0.1917(4) 1.1890(3) 0.3902(3)
C7 C 0.2137(3) 0.9614(2) 0.3480(2)
C8 C 0.1139(4) 0.7047(3) 0.2746(2)
H3 H 0.04920 0.72990 0.33310
C9 C 0.3110(4) 0.7708(3) 0.1804(2)
H4 H 0.37970 0.84040 0.17580
C10 C 0.4208(4) 0.8104(3) 0.6501(3)
H5 H 0.48300 0.73640 0.63780
C11 C 0.2421(3) 1.0310(2) 0.4802(2)
N2 N 0.1997(4) 0.3787(3) 0.0240(3)
O1 O 0.2752(4) 0.3508(3) -0.0601(2)
C12 C 0.3083(4) 0.6301(3) 0.1016(3)
H6 H 0.37340 0.60440 0.04350
C13 C 0.3671(4) 0.8704(3) 0.7615(3)
C14 C 0.2302(3) 1.1783(3) 0.5081(3)
C15 C 0.2325(4) 1.0281(3) 0.6885(3)
H7 H 0.16720 1.10010 0.70090
O2 O 0.1196(4) 0.2888(2) 0.0376(3)
N3 N 0.4140(5) 0.8162(4) 0.8591(3)
C16 C 0.1721(4) 1.3165(3) 0.3800(4)
H8 H 0.14320 1.31970 0.30000
C17 C 0.1338(5) 1.0264(3) 0.1569(3)
H9 H 0.04530 1.07770 0.14090
H10 H 0.09740 0.92650 0.10620
H11 H 0.22770 1.05560 0.13360
C18 C 0.2605(4) 1.3049(3) 0.6210(3)
H12 H 0.29290 1.30410 0.70180
C19 C 0.2755(4) 0.9795(3) 0.7815(3)
H13 H 0.24300 1.02000 0.85760
C20 C 0.1967(5) 1.4356(3) 0.4907(4)
H14 H 0.18350 1.52220 0.48690
C21 C 0.2413(5) 1.4305(3) 0.6093(4)
H15 H 0.25880 1.51440 0.68370
O3 O 0.3547(7) 0.8552(5) 0.9491(4)
O4 O 0.5097(5) 0.7308(4) 0.8471(3)
#END
