
#######################################################################
#
#                 Cambridge Crystallographic Data Centre
#                                CCDC
#
#######################################################################
#
# If this CIF has been generated from an entry in the Cambridge
# Structural Database, then it will include bibliographic, chemical,
# crystal, experimental, refinement or atomic coordinate data resulting
# from the CCDC's data processing and validation procedures.
#
#######################################################################

data_CSD_CIF_SALXEJ
_audit_creation_date 2005-03-24
_audit_creation_method CSD-ConQuest-V1
_database_code_CSD SALXEJ
_database_code_depnum_ccdc_archive 'CCDC 226261'
_chemical_formula_sum 'C9 H8 N4 O4'
_chemical_formula_moiety
;
C9 H8 N4 O4
;
_journal_coden_Cambridge 154
_journal_volume 57
_journal_year 2004
_journal_page_first 1103
_journal_name_full 'Aust.J.Chem. '
loop_
_publ_author_name
"G.P.A.Yap"
"I.Alkorta"
"N.Jagerovic"
"J.Elguero"
_chemical_name_systematic
;
1-(2',4'-Dinitrophenyl)-2-pyrazoline
;
_cell_volume   1041.126
_exptl_crystal_colour 'orange'
_exptl_crystal_density_diffrn 1.507
_exptl_crystal_description 'block'
_exptl_crystal_preparation 'bromobenzene'
_diffrn_ambient_temperature 298
#These two values have been output from a single CSD field.
_refine_ls_R_factor_gt 0.0662
_refine_ls_wR_factor_gt 0.0662
_symmetry_cell_setting triclinic
_symmetry_space_group_name_H-M 'P -1'
_symmetry_Int_Tables_number 2
loop_
_symmetry_equiv_pos_site_id
_symmetry_equiv_pos_as_xyz
1 x,y,z
2 -x,-y,-z
_cell_length_a 8.0211(14)
_cell_length_b 10.3927(19)
_cell_length_c 13.296(3)
_cell_angle_alpha 76.261(8)
_cell_angle_beta 86.133(14)
_cell_angle_gamma 75.246(9)
_cell_formula_units_Z 4
loop_
_atom_type_symbol
_atom_type_radius_bond
C 0.68
H 0.23
N 0.68
O 0.68
loop_
_atom_site_label
_atom_site_type_symbol
_atom_site_fract_x
_atom_site_fract_y
_atom_site_fract_z
N1 N 0.3319(3) 0.3970(3) -0.03471(19)
N2 N 0.2987(3) 0.4727(3) 0.0418(2)
N3 N 0.4148(3) 0.2244(3) 0.17565(19)
N4 N 0.8533(3) -0.0896(3) 0.0233(2)
N5 N 0.2243(3) 0.7244(3) 0.3443(2)
N6 N 0.3849(4) 0.6499(3) 0.3836(2)
N7 N 0.4423(3) 0.8882(3) 0.4018(2)
N8 N -0.0679(4) 1.2576(3) 0.3937(2)
O1 O 0.2596(3) 0.2340(3) 0.18147(18)
O2 O 0.5004(3) 0.2309(3) 0.24571(19)
O3 O 0.8762(3) -0.1651(3) 0.1098(2)
O4 O 0.9426(3) -0.1118(3) -0.0529(2)
O5 O 0.5326(3) 0.8885(3) 0.3237(2)
O6 O 0.4953(3) 0.8552(3) 0.4888(2)
O7 O 0.0153(4) 1.3122(3) 0.4376(3)
O8 O -0.2139(4) 1.3130(3) 0.3618(2)
C1 C 0.2741(4) 0.4827(3) -0.1370(3)
H1 H 0.21250 0.43830 -0.17310
H2 H 0.37000 0.50580 -0.17960
C2 C 0.1547(4) 0.6084(4) -0.1077(3)
H3 H 0.17740 0.69220 -0.14990
H4 H 0.03450 0.60990 -0.11420
C3 C 0.2010(4) 0.5885(3) 0.0014(3)
H5 H 0.16140 0.65620 0.03820
C4 C 0.5054(3) 0.1948(3) 0.0809(2)
C5 C 0.6366(3) 0.0775(3) 0.0949(2)
H6 H 0.67170 0.02790 0.16120
C6 C 0.7156(4) 0.0346(3) 0.0085(2)
C7 C 0.6620(4) 0.1065(3) -0.0901(2)
H7 H 0.71380 0.07500 -0.14730
C8 C 0.5328(4) 0.2241(3) -0.1038(2)
H8 H 0.49700 0.27100 -0.17050
C9 C 0.4527(3) 0.2757(3) -0.0187(2)
C10 C 0.1231(5) 0.6344(4) 0.3199(4)
H9 H 0.07040 0.67130 0.25210
H10 H 0.03440 0.62020 0.37160
C11 C 0.2621(6) 0.5038(4) 0.3222(4)
H11 H 0.22470 0.42460 0.36150
H12 H 0.29470 0.49170 0.25280
C12 C 0.4040(6) 0.5270(4) 0.3738(3)
H13 H 0.50100 0.45760 0.39770
C13 C 0.2547(4) 0.9346(3) 0.3860(2)
C14 C 0.1822(4) 1.0639(3) 0.4003(2)
H14 H 0.24850 1.11280 0.42310
C15 C 0.0099(4) 1.1196(3) 0.3802(2)
C16 C -0.0906(4) 1.0473(4) 0.3473(2)
H15 H -0.20650 1.08720 0.33250
C17 C -0.0183(4) 0.9163(4) 0.3365(2)
H16 H -0.08720 0.86760 0.31590
C18 C 0.1573(4) 0.8542(3) 0.3560(2)
#END
