
#######################################################################
#
#                 Cambridge Crystallographic Data Centre
#                                CCDC
#
#######################################################################
#
# If this CIF has been generated from an entry in the Cambridge
# Structural Database, then it will include bibliographic, chemical,
# crystal, experimental, refinement or atomic coordinate data resulting
# from the CCDC's data processing and validation procedures.
#
#######################################################################

data_CSD_CIF_SAMCUH
_audit_creation_date 2017-02-09
_audit_creation_method CSD-ConQuest-V1
_database_code_CSD SAMCUH
_database_code_depnum_ccdc_archive 'CCDC 746385'
_chemical_formula_sum 'C16 H16 N2 O4'
_chemical_formula_moiety
;
C16 H16 N2 O4
;
_journal_coden_Cambridge 1078
_journal_year 2016
_journal_name_full 'CSD Communication(Private Communication) '
loop_
_publ_author_name
"Z.Akhter"
"M.Bolte"
_chemical_name_systematic
;
N-(4-(4-nitrophenoxy)phenyl)butanamide
;
_cell_volume   1516.980
_exptl_crystal_colour 'light brown'
_exptl_crystal_density_diffrn 1.315
_exptl_crystal_description 'block'
_diffrn_ambient_temperature 173
#These two values have been output from a single CSD field.
_refine_ls_R_factor_gt 0.0483
_refine_ls_wR_factor_gt 0.0483
_symmetry_cell_setting monoclinic
_symmetry_space_group_name_H-M 'P 21/n'
_symmetry_Int_Tables_number 14
loop_
_symmetry_equiv_pos_site_id
_symmetry_equiv_pos_as_xyz
1 x,y,z
2 1/2-x,1/2+y,1/2-z
3 -x,-y,-z
4 -1/2+x,-1/2-y,-1/2+z
_cell_length_a 17.9122(18)
_cell_length_b 4.8858(6)
_cell_length_c 18.9291(18)
_cell_angle_alpha 90
_cell_angle_beta 113.691(7)
_cell_angle_gamma 90
_cell_formula_units_Z 4
loop_
_atom_type_symbol
_atom_type_radius_bond
C 0.68
H 0.23
N 0.68
O 0.68
loop_
_atom_site_label
_atom_site_type_symbol
_atom_site_fract_x
_atom_site_fract_y
_atom_site_fract_z
N1 N 0.61756(9) 0.5800(3) 0.11302(10)
H1 H 0.6057(12) 0.398(5) 0.1147(12)
N2 N 1.15553(9) 0.1849(4) 0.10545(11)
O1 O 0.56814(8) 1.0138(3) 0.10258(9)
O2 O 0.94234(9) 0.8482(3) 0.17793(11)
O3 O 1.22824(8) 0.1952(4) 0.14894(10)
O4 O 1.12868(9) 0.0362(4) 0.0486(1)
C1 C 0.55720(11) 0.7653(4) 0.10162(11)
C2 C 0.47440(11) 0.6453(4) 0.08629(14)
H2 H 0.44010 0.65920 0.03040
H3 H 0.48120 0.44840 0.09970
C3 C 0.43063(14) 0.7761(5) 0.12899(17)
H4 H 0.42770 0.97580 0.11930
H5 H 0.46200 0.74680 0.18500
C4 C 0.34444(13) 0.6654(6) 0.10623(17)
H6 H 0.31860 0.75800 0.13650
H7 H 0.34680 0.46820 0.11630
H8 H 0.31250 0.69900 0.05120
C5 C 0.69988(11) 0.6466(4) 0.12691(11)
C6 C 0.76219(12) 0.5032(5) 0.18219(12)
H9 H 0.74970 0.36040 0.20970
C7 C 0.84296(13) 0.5642(5) 0.19826(13)
H10 H 0.88580 0.46600 0.23690
C8 C 0.86005(12) 0.7689(4) 0.15743(14)
C9 C 0.79937(14) 0.9081(5) 0.10057(16)
H11 H 0.81230 1.04530 0.07170
C10 C 0.71867(13) 0.8477(5) 0.08517(14)
H12 H 0.67610 0.94460 0.04590
C11 C 0.99191(11) 0.6757(4) 0.15800(12)
C12 C 0.96172(11) 0.4849(4) 0.09962(11)
H13 H 0.90460 0.46380 0.07180
C13 C 1.01558(10) 0.3247(4) 0.08199(11)
H14 H 0.99590 0.19250 0.04190
C14 C 1.09879(10) 0.3597(4) 0.12367(11)
C15 C 1.12912(12) 0.5499(5) 0.18203(12)
H15 H 1.18620 0.57000 0.21020
C16 C 1.07516(12) 0.7106(5) 0.19888(13)
H16 H 1.09490 0.84490 0.23840
#END
