
#######################################################################
#
#                 Cambridge Crystallographic Data Centre
#                                CCDC
#
#######################################################################
#
# If this CIF has been generated from an entry in the Cambridge
# Structural Database, then it will include bibliographic, chemical,
# crystal, experimental, refinement or atomic coordinate data resulting
# from the CCDC's data processing and validation procedures.
#
#######################################################################

data_CSD_CIF_SANQAA
_audit_creation_date 2005-03-24
_audit_creation_method CSD-ConQuest-V1
_database_code_CSD SANQAA
_database_code_depnum_ccdc_archive 'CCDC 264050'
_chemical_formula_sum 'C10 H9 N3 O2'
_chemical_formula_moiety
;
C10 H9 N3 O2
;
_journal_coden_Cambridge 444
_journal_volume 74
_journal_year 2004
_journal_page_first 1198
_journal_name_full 'Zh.Obshch.Khim.(Russ.)(Russ.J.Gen.Chem.) '
loop_
_publ_author_name
"V.M.Berestovitskaya"
"E.A.Ishmaeva"
"I.A.Litvinov"
"O.S.Vasil'eva"
"Ya.A.Vereshchagina"
"E.S.Ostroglyadov"
"G.R.Fattakhova"
"D.V.Beskrovnyi"
"S.M.Aleksandrova"
_chemical_name_systematic
;
2-(1-Methylbenzimidazol-2-yl)-1-nitroethene
;
_chemical_melting_point 410.15
_cell_volume    976.620
_exptl_crystal_colour 'yellow'
_exptl_crystal_density_diffrn 1.38
_exptl_special_details
;
Melting point range 410.15-412.15K

;
_exptl_crystal_description 'prism'
_diffrn_ambient_temperature 295
#These two values have been output from a single CSD field.
_refine_ls_R_factor_gt 0.069
_refine_ls_wR_factor_gt 0.069
_symmetry_cell_setting monoclinic
_symmetry_space_group_name_H-M 'P 21/c'
_symmetry_Int_Tables_number 14
loop_
_symmetry_equiv_pos_site_id
_symmetry_equiv_pos_as_xyz
1 x,y,z
2 -x,1/2+y,1/2-z
3 -x,-y,-z
4 x,-1/2-y,-1/2+z
_cell_length_a 9.715(4)
_cell_length_b 7.632(3)
_cell_length_c 13.261(9)
_cell_angle_alpha 90
_cell_angle_beta 96.65(5)
_cell_angle_gamma 90
_cell_formula_units_Z 4
loop_
_atom_type_symbol
_atom_type_radius_bond
C 0.68
H 0.23
N 0.68
O 0.68
loop_
_atom_site_label
_atom_site_type_symbol
_atom_site_fract_x
_atom_site_fract_y
_atom_site_fract_z
O1 O 0.9646(4) 0.6275(6) 1.2627(3)
O2 O 1.0302(4) 0.5289(7) 1.1246(3)
N1 N 0.5842(4) 0.2649(5) 0.9570(2)
N2 N 0.5247(4) 0.3333(5) 1.1102(3)
N3 N 0.9410(4) 0.5511(5) 1.1810(3)
C1 C 0.6235(5) 0.3351(5) 1.0474(3)
C2 C 0.4158(4) 0.2552(5) 1.0538(3)
C3 C 0.4487(5) 0.2087(5) 0.9563(4)
C4 C 0.3606(6) 0.1266(7) 0.8840(5)
C5 C 0.2275(7) 0.0890(7) 0.9143(6)
C6 C 0.1930(6) 0.1402(8) 1.0110(5)
C7 C 0.2818(5) 0.2206(8) 1.0789(4)
C8 C 0.7629(5) 0.4038(6) 1.0712(3)
C9 C 0.8031(5) 0.4827(7) 1.1592(4)
C10 C 0.6607(6) 0.2552(9) 0.8682(4)
H1 H 0.390(9) 0.09(1) 0.815(8)
H2 H 0.164(6) 0.032(9) 0.856(5)
H3 H 0.10(1) 0.12(2) 1.02(1)
H4 H 0.26(2) 0.25(3) 1.15(2)
H5 H 0.830(9) 0.39(1) 1.022(7)
H6 H 0.734(7) 0.49(1) 1.207(6)
H7 H 0.747(5) 0.294(6) 0.868(4)
H8 H 0.65(2) 0.13(3) 0.84(2)
H9 H 0.604(7) 0.321(9) 0.806(6)
#END
