
#######################################################################
#
#                 Cambridge Crystallographic Data Centre
#                                CCDC
#
#######################################################################
#
# If this CIF has been generated from an entry in the Cambridge
# Structural Database, then it will include bibliographic, chemical,
# crystal, experimental, refinement or atomic coordinate data resulting
# from the CCDC's data processing and validation procedures.
#
#######################################################################

data_CSD_CIF_SANREG
_audit_creation_date 2012-02-24
_audit_creation_method CSD-ConQuest-V1
_database_code_CSD SANREG
_database_code_depnum_ccdc_archive 'CCDC 839157'
_chemical_formula_sum 'C19 H15 N1 O5'
_chemical_formula_moiety
;
C19 H15 N1 O5
;
_journal_coden_Cambridge 1336
_journal_volume 13
_journal_year 2011
_journal_page_first 5758
_journal_name_full 'Org.Lett. '
loop_
_publ_author_name
"Bor-Cherng Hong"
"P.Kotame"
"Gene-Hsiang Lee"
_chemical_name_systematic
;
(+)-4-(Nitromethyl)-3',4'-dihydro-1'H,4H-spiro[chromene-3,2'-naphthalene]-1',2
-dione
;
_cell_volume   1613.993
_exptl_crystal_colour 'colorless'
_exptl_crystal_density_diffrn 1.388
_exptl_special_details
;
Absolute configuration

;
_exptl_crystal_description 'block'
_diffrn_ambient_temperature 295
#These two values have been output from a single CSD field.
_refine_ls_R_factor_gt 0.0356
_refine_ls_wR_factor_gt 0.0356
_symmetry_cell_setting orthorhombic
_symmetry_space_group_name_H-M 'P 21 21 21'
_symmetry_Int_Tables_number 19
loop_
_symmetry_equiv_pos_site_id
_symmetry_equiv_pos_as_xyz
1 x,y,z
2 1/2-x,-y,1/2+z
3 -x,1/2+y,1/2-z
4 1/2+x,1/2-y,-z
_cell_length_a 9.6671(2)
_cell_length_b 10.0197(2)
_cell_length_c 16.6629(4)
_cell_angle_alpha 90
_cell_angle_beta 90
_cell_angle_gamma 90
_cell_formula_units_Z 4
loop_
_atom_type_symbol
_atom_type_radius_bond
C 0.68
H 0.23
N 0.68
O 0.68
loop_
_atom_site_label
_atom_site_type_symbol
_atom_site_fract_x
_atom_site_fract_y
_atom_site_fract_z
O1 O 0.08356(16) 1.13625(12) 0.58362(7)
O2 O 0.11250(12) 0.98590(12) 0.34485(6)
O3 O 0.24177(13) 0.96510(13) 0.45172(8)
O4 O 0.13747(12) 1.25942(12) 0.41452(8)
O5 O 0.07590(15) 1.42385(12) 0.48875(9)
N1 N 0.05366(15) 1.31583(13) 0.45731(9)
C1 C -0.00015(15) 1.00031(16) 0.47660(9)
C2 C 0.05332(18) 1.02368(17) 0.56234(9)
C3 C 0.07264(16) 0.90854(16) 0.61685(9)
C4 C 0.1178(2) 0.93328(19) 0.69519(10)
H1 H 0.13280 1.02050 0.71210
C5 C 0.1402(2) 0.8292(2) 0.74726(11)
H2 H 0.16910 0.84590 0.79950
C6 C 0.1194(2) 0.6994(2) 0.72144(13)
H3 H 0.13670 0.62870 0.75620
C7 C 0.0735(2) 0.67437(19) 0.64492(11)
H4 H 0.05760 0.58680 0.62890
C8 C 0.05065(17) 0.77704(15) 0.59134(10)
C9 C 0.00471(19) 0.75027(18) 0.50699(11)
H5 H -0.05090 0.66970 0.50600
H6 H 0.08530 0.73530 0.47350
C10 C -0.07884(17) 0.86498(15) 0.47273(10)
H7 H -0.16480 0.87290 0.50240
H8 H -0.10170 0.84540 0.41730
C11 C 0.12879(17) 0.98585(15) 0.42532(9)
C12 C -0.09873(15) 1.10993(15) 0.44469(9)
H9 H -0.19040 1.08310 0.46390
C13 C -0.10852(16) 1.09999(15) 0.35378(9)
C14 C -0.22104(19) 1.15251(18) 0.31242(10)
H10 H -0.29160 1.19420 0.34090
C15 C -0.2297(2) 1.1439(2) 0.23034(11)
H11 H -0.30450 1.18130 0.20340
C16 C -0.1277(3) 1.0799(2) 0.18848(11)
H12 H -0.13430 1.07310 0.13290
C17 C -0.0161(2) 1.0256(2) 0.22721(10)
H13 H 0.05280 0.98140 0.19870
C18 C -0.00809(18) 1.03806(16) 0.30973(9)
C19 C -0.08306(16) 1.25397(17) 0.47266(10)
H14 H -0.15330 1.30750 0.44630
H15 H -0.10110 1.25730 0.52990
#END
