
#######################################################################
#
#                 Cambridge Crystallographic Data Centre
#                                CCDC
#
#######################################################################
#
# If this CIF has been generated from an entry in the Cambridge
# Structural Database, then it will include bibliographic, chemical,
# crystal, experimental, refinement or atomic coordinate data resulting
# from the CCDC's data processing and validation procedures.
#
#######################################################################

data_CSD_CIF_SANWEL
_audit_creation_date 2012-02-24
_audit_creation_method CSD-ConQuest-V1
_database_code_CSD SANWEL
_database_code_depnum_ccdc_archive 'CCDC 819925'
_chemical_formula_sum 'C30 H25 N5 O6'
_chemical_formula_moiety
;
C30 H25 N5 O6
;
_journal_coden_Cambridge 24
_journal_volume 52
_journal_year 2011
_journal_page_first 6805
_journal_name_full 'Tetrahedron Lett. '
loop_
_publ_author_name
"E.Yamuna"
"M.Zeller"
"K.J.R.Prasad"
_chemical_name_systematic
;
Dimethyl 
6-amino-5-cyano-1-(9-ethyl-9H-carbazol-3-yl)-4-(3-nitrophenyl)-1,4-dihydropyri
dine-2,3-dicarboxylate
;
_chemical_melting_point 543.15
_cell_volume   2626.114
_exptl_crystal_colour 'colorless'
_exptl_crystal_density_diffrn 1.395
_exptl_crystal_description 'block'
_diffrn_ambient_temperature 100
#These two values have been output from a single CSD field.
_refine_ls_R_factor_gt 0.0764
_refine_ls_wR_factor_gt 0.0764
_symmetry_cell_setting monoclinic
_symmetry_space_group_name_H-M 'P 21/n'
_symmetry_Int_Tables_number 14
loop_
_symmetry_equiv_pos_site_id
_symmetry_equiv_pos_as_xyz
1 x,y,z
2 1/2-x,1/2+y,1/2-z
3 -x,-y,-z
4 -1/2+x,-1/2-y,-1/2+z
_cell_length_a 13.147(4)
_cell_length_b 13.598(4)
_cell_length_c 15.907(4)
_cell_angle_alpha 90
_cell_angle_beta 112.561(4)
_cell_angle_gamma 90
_cell_formula_units_Z 4
loop_
_atom_type_symbol
_atom_type_radius_bond
C 0.68
H 0.23
N 0.68
O 0.68
loop_
_atom_site_label
_atom_site_type_symbol
_atom_site_fract_x
_atom_site_fract_y
_atom_site_fract_z
C1 C 1.0309(3) 0.6667(2) 0.3683(2)
C2 C 1.0068(3) 0.7504(2) 0.4086(2)
H1 H 1.04040 0.81200 0.40780
C3 C 0.9320(3) 0.7395(3) 0.4496(3)
H2 H 0.91490 0.79470 0.47820
C4 C 0.8807(3) 0.6499(3) 0.4502(3)
H3 H 0.82810 0.64570 0.47760
C5 C 0.9054(3) 0.5675(2) 0.4117(2)
H4 H 0.87090 0.50630 0.41250
C6 C 0.9821(2) 0.5762(2) 0.3714(2)
C7 C 1.0272(2) 0.5069(2) 0.32487(19)
C8 C 1.0154(2) 0.4057(2) 0.30970(19)
H5 H 0.96810 0.36810 0.32980
C9 C 1.0741(2) 0.3623(2) 0.26483(18)
C10 C 1.1422(2) 0.4164(2) 0.2325(2)
H6 H 1.18020 0.38380 0.20040
C11 C 1.1544(2) 0.5164(2) 0.2468(2)
H7 H 1.20020 0.55350 0.22470
C12 C 1.0978(2) 0.5619(2) 0.29456(19)
C13 C 1.1616(3) 0.7377(2) 0.3030(2)
H8 H 1.22700 0.71060 0.29450
H9 H 1.18800 0.78330 0.35550
C14 C 1.0928(3) 0.7937(3) 0.2193(3)
H10 H 1.07180 0.75010 0.16620
H11 H 1.13520 0.84930 0.21070
H12 H 1.02630 0.81820 0.22620
C15 C 1.1274(2) 0.1912(2) 0.32128(18)
C16 C 1.1013(2) 0.0941(2) 0.31543(18)
C17 C 0.9951(2) 0.0548(2) 0.24403(19)
H13 H 1.00890 -0.01330 0.22720
C18 C 0.9657(2) 0.1195(2) 0.16074(19)
C19 C 0.9951(2) 0.2146(2) 0.16968(18)
C20 C 1.1703(2) 0.0260(2) 0.3793(2)
C21 C 0.9017(2) 0.0794(2) 0.0701(2)
C22 C 0.8193(3) -0.0643(3) -0.0107(2)
H14 H 0.74370 -0.03900 -0.03410
H15 H 0.81840 -0.13540 -0.00090
H16 H 0.85290 -0.05090 -0.05490
C23 C 0.9578(2) 0.2868(2) 0.09249(19)
C24 C 1.0127(3) 0.3706(3) -0.0126(3)
H17 H 1.07710 0.37630 -0.02890
H18 H 0.99990 0.43350 0.01190
H19 H 0.94790 0.35340 -0.06680
C25 C 0.9024(2) 0.0505(2) 0.27944(19)
C26 C 0.8546(3) -0.0385(3) 0.2866(2)
H20 H 0.87810 -0.09750 0.26760
C27 C 0.7726(3) -0.0418(3) 0.3216(2)
H21 H 0.74090 -0.10310 0.32700
C28 C 0.7372(3) 0.0429(3) 0.3483(2)
H22 H 0.68090 0.04110 0.37180
C29 C 0.7847(3) 0.1306(3) 0.3403(2)
C30 C 0.8662(2) 0.1360(2) 0.3062(2)
H23 H 0.89720 0.19780 0.30100
N1 N 1.1010(2) 0.65748(18) 0.32309(18)
N2 N 1.06589(18) 0.25530(17) 0.25177(15)
N3 N 1.2140(2) 0.2320(2) 0.38968(18)
N4 N 1.2248(2) -0.0323(2) 0.42801(19)
H24 H 1.231(3) 0.2944(15) 0.391(3)
H25 H 1.243(3) 0.193(2) 0.4361(19)
N5 N 0.7476(3) 0.2234(3) 0.3668(2)
O1 O 0.87372(16) 0.33343(16) 0.07121(14)
O2 O 1.03217(16) 0.29472(15) 0.05557(14)
O3 O 0.86948(16) 0.12538(15) -0.00060(13)
O4 O 0.88265(18) -0.01629(15) 0.07468(15)
O5 O 0.7967(2) 0.2994(2) 0.3666(2)
O6 O 0.6686(3) 0.2194(3) 0.3895(3)
H26? H 0.93950 0.39910 -0.02700
H27? H 1.01670 0.34200 -0.06780
H28? H 1.06870 0.42210 0.01090
#END
