
#######################################################################
#
#                 Cambridge Crystallographic Data Centre
#                                CCDC
#
#######################################################################
#
# If this CIF has been generated from an entry in the Cambridge
# Structural Database, then it will include bibliographic, chemical,
# crystal, experimental, refinement or atomic coordinate data resulting
# from the CCDC's data processing and validation procedures.
#
#######################################################################

data_CSD_CIF_SANXOV
_audit_creation_date 2005-10-13
_audit_creation_method CSD-ConQuest-V1
_database_code_CSD SANXOV
_database_code_depnum_ccdc_archive 'CCDC 272099'
_chemical_formula_sum 'C17 H16 N2 O3'
_chemical_formula_moiety
;
C17 H16 N2 O3
;
_journal_coeditor_code "IUCr RZ6066"
_journal_coden_Cambridge 1370
_journal_volume 61
_journal_year 2005
_journal_page_first o1419
_journal_name_full 'Acta Crystallogr.,Sect.E:Struct.Rep.Online '
loop_
_publ_author_name
"K.Ravikumar"
"B.Sridhar"
"M.Mahesh"
"V.V.N.Reddy"
_chemical_name_systematic
;
4-(4-Nitrophenyl)-2,3,3a,4,5,9b-hexahydrofuro(3,2-c)quinoline
;
_cell_volume    727.279
_exptl_crystal_colour 'yellow'
_exptl_crystal_density_diffrn 1.353
_exptl_crystal_description 'block'
_exptl_crystal_preparation 'methanol/water'
_diffrn_ambient_temperature 273
#These two values have been output from a single CSD field.
_refine_ls_R_factor_gt 0.056
_refine_ls_wR_factor_gt 0.056
_symmetry_cell_setting triclinic
_symmetry_space_group_name_H-M 'P -1'
_symmetry_Int_Tables_number 2
loop_
_symmetry_equiv_pos_site_id
_symmetry_equiv_pos_as_xyz
1 x,y,z
2 -x,-y,-z
_cell_length_a 9.109(1)
_cell_length_b 9.2626(10)
_cell_length_c 9.7553(11)
_cell_angle_alpha 103.411(2)
_cell_angle_beta 102.791(2)
_cell_angle_gamma 107.081(2)
_cell_formula_units_Z 2
loop_
_atom_type_symbol
_atom_type_radius_bond
C 0.68
H 0.23
N 0.68
O 0.68
loop_
_atom_site_label
_atom_site_type_symbol
_atom_site_fract_x
_atom_site_fract_y
_atom_site_fract_z
O1 O 0.79382(18) 0.13712(16) 1.02054(14)
O2 O -0.04776(18) 0.2998(2) 0.43917(18)
O3 O -0.0843(2) 0.3557(2) 0.6527(2)
N1 N 0.4235(2) -0.10150(18) 0.69462(19)
H1 H 0.325(3) -0.156(3) 0.669(2)
N2 N -0.01463(18) 0.30655(18) 0.56938(19)
C1 C 0.7428(3) -0.3391(3) 0.7726(2)
H2 H 0.81440 -0.39200 0.78710
C2 C 0.7970(2) -0.1759(2) 0.82518(19)
H3 H 0.90620 -0.11870 0.87560
C3 C 0.6920(2) -0.0941(2) 0.80481(17)
C4 C 0.7526(2) 0.0834(2) 0.8606(2)
H4 H 0.85000 0.12550 0.83320
C5 C 0.8002(3) 0.2959(3) 1.0618(3)
H5 H 0.91100 0.36900 1.09030
H6 H 0.76030 0.31650 1.14580
C6 C 0.6990(3) 0.3204(2) 0.9338(3)
H7 H 0.76320 0.40500 0.90500
H8 H 0.61090 0.34770 0.95820
C7 C 0.6340(2) 0.1611(2) 0.80886(19)
H9 H 0.63990 0.17870 0.71460
C8 C 0.4617(2) 0.0576(2) 0.79315(18)
H10 H 0.45720 0.05050 0.89090
C9 C 0.5283(2) -0.1806(2) 0.72604(18)
C10 C 0.4746(3) -0.3465(2) 0.6739(2)
H11 H 0.36590 -0.40510 0.62250
C11 C 0.5801(3) -0.4241(2) 0.6976(2)
H12 H 0.54220 -0.53490 0.66300
C12 C 0.3386(2) 0.12581(19) 0.73454(17)
C13 C 0.2921(2) 0.1153(2) 0.58588(18)
H13 H 0.33830 0.06670 0.52200
C14 C 0.1780(2) 0.1761(2) 0.53161(19)
H14 H 0.14660 0.16820 0.43190
C15 C 0.11203(19) 0.24836(18) 0.62823(18)
C16 C 0.1573(2) 0.2634(2) 0.77661(19)
H15 H 0.11250 0.31430 0.84040
C17 C 0.2705(2) 0.2015(2) 0.82872(18)
H16 H 0.30180 0.21050 0.92870
#END
