
#######################################################################
#
#                 Cambridge Crystallographic Data Centre
#                                CCDC
#
#######################################################################
#
# If this CIF has been generated from an entry in the Cambridge
# Structural Database, then it will include bibliographic, chemical,
# crystal, experimental, refinement or atomic coordinate data resulting
# from the CCDC's data processing and validation procedures.
#
#######################################################################

data_CSD_CIF_SANXEM
_audit_creation_date 2012-02-24
_audit_creation_method CSD-ConQuest-V1
_database_code_CSD SANXEM
_database_code_depnum_ccdc_archive 'CCDC 826503'
_chemical_formula_sum 'C13 H14 N2 O6'
_chemical_formula_moiety
;
C13 H14 N2 O6
;
_journal_coden_Cambridge 24
_journal_volume 52
_journal_year 2011
_journal_page_first 6713
_journal_name_full 'Tetrahedron Lett. '
loop_
_publ_author_name
"Y.G.Gololobov"
"A.S.Peregudov"
"S.V.Barabanov"
"P.V.Petrovskii"
"V.N.Khrustalev"
_chemical_name_systematic
;
Dimethyl 1-methyl-6-nitro-1,2-dihydro-3H-indole-3,3-dicarboxylate
;
_chemical_melting_point 409.15
_cell_volume    667.413
_exptl_crystal_colour 'orange'
_exptl_crystal_density_diffrn 1.464
_exptl_special_details
;
Melting point range 409.15-410.15K

;
_exptl_crystal_description 'plate'
_diffrn_ambient_temperature 100
#These two values have been output from a single CSD field.
_refine_ls_R_factor_gt 0.0427
_refine_ls_wR_factor_gt 0.0427
_symmetry_cell_setting triclinic
_symmetry_space_group_name_H-M 'P -1'
_symmetry_Int_Tables_number 2
loop_
_symmetry_equiv_pos_site_id
_symmetry_equiv_pos_as_xyz
1 x,y,z
2 -x,-y,-z
_cell_length_a 7.9087(10)
_cell_length_b 8.4151(11)
_cell_length_c 10.9627(14)
_cell_angle_alpha 78.626(2)
_cell_angle_beta 73.000(2)
_cell_angle_gamma 74.755(2)
_cell_formula_units_Z 2
loop_
_atom_type_symbol
_atom_type_radius_bond
C 0.68
H 0.23
N 0.68
O 0.68
loop_
_atom_site_label
_atom_site_type_symbol
_atom_site_fract_x
_atom_site_fract_y
_atom_site_fract_z
O1 O 0.17757(15) 0.81684(13) 0.28144(10)
O2 O 0.38681(14) 0.71700(13) 0.11009(10)
O3 O 0.20167(15) 0.51407(14) -0.03011(10)
O4 O 0.06036(16) 0.77905(14) -0.00377(10)
O5 O 0.21798(16) -0.05841(14) 0.55967(11)
O6 O 0.47434(15) -0.11881(13) 0.41927(11)
N1 N -0.07927(17) 0.51414(15) 0.37215(12)
N2 N 0.32798(18) -0.02456(16) 0.45887(13)
C1 C -0.2541(2) 0.4814(2) 0.44540(15)
H1 H -0.23990 0.40220 0.52220
H2 H -0.30420 0.43450 0.39230
H3 H -0.33650 0.58530 0.47130
C2 C -0.0753(2) 0.63989(19) 0.25889(14)
H4 H -0.11510 0.75310 0.28440
H5 H -0.15530 0.62730 0.20850
C3 C 0.1255(2) 0.60838(18) 0.17946(14)
C4 C 0.2043(2) 0.43588(18) 0.23823(14)
C5 C 0.3743(2) 0.33600(19) 0.20176(14)
H6 H 0.46160 0.37110 0.12810
C6 C 0.4157(2) 0.18254(19) 0.27492(15)
H7 H 0.53160 0.11050 0.25240
C7 C 0.2830(2) 0.13782(18) 0.38163(14)
C8 C 0.1127(2) 0.23570(18) 0.42232(14)
H8 H 0.02620 0.20020 0.49630
C9 C 0.0743(2) 0.38970(18) 0.34888(14)
C10 C 0.2283(2) 0.72868(18) 0.19835(14)
C11 C 0.5052(2) 0.8140(2) 0.12301(16)
H9 H 0.61880 0.79510 0.05570
H10 H 0.53110 0.78050 0.20770
H11 H 0.44610 0.93210 0.11440
C12 C 0.1365(2) 0.62366(19) 0.03629(15)
C13 C 0.0557(3) 0.8140(2) -0.13739(15)
H12 H 0.01910 0.93430 -0.16080
H13 H -0.03160 0.75920 -0.15040
H14 H 0.17630 0.77230 -0.19150
#END
