
#######################################################################
#
#                 Cambridge Crystallographic Data Centre
#                                CCDC
#
#######################################################################
#
# If this CIF has been generated from an entry in the Cambridge
# Structural Database, then it will include bibliographic, chemical,
# crystal, experimental, refinement or atomic coordinate data resulting
# from the CCDC's data processing and validation procedures.
#
#######################################################################

data_CSD_CIF_SANXAI
_audit_creation_date 2012-02-24
_audit_creation_method CSD-ConQuest-V1
_database_code_CSD SANXAI
_database_code_depnum_ccdc_archive 'CCDC 826502'
_chemical_formula_sum 'C13 H13 N3 O8'
_chemical_formula_moiety
;
C13 H13 N3 O8
;
_journal_coden_Cambridge 24
_journal_volume 52
_journal_year 2011
_journal_page_first 6713
_journal_name_full 'Tetrahedron Lett. '
loop_
_publ_author_name
"Y.G.Gololobov"
"A.S.Peregudov"
"S.V.Barabanov"
"P.V.Petrovskii"
"V.N.Khrustalev"
_chemical_name_systematic
;
Dimethyl 1-methyl-4,6-dinitro-1,2-dihydro-3H-indole-3,3-dicarboxylate
;
_chemical_melting_point 428.15
_cell_volume   2885.580
_exptl_crystal_colour 'orange'
_exptl_crystal_density_diffrn 1.562
_exptl_special_details
;
Melting point range 428.15-429.15K

;
_exptl_crystal_description 'plate'
_diffrn_ambient_temperature 100
#These two values have been output from a single CSD field.
_refine_ls_R_factor_gt 0.0385
_refine_ls_wR_factor_gt 0.0385
_symmetry_cell_setting monoclinic
_symmetry_space_group_name_H-M 'C c'
_symmetry_Int_Tables_number 9
loop_
_symmetry_equiv_pos_site_id
_symmetry_equiv_pos_as_xyz
1 x,y,z
2 x,-y,1/2+z
3 1/2+x,1/2+y,z
4 1/2+x,1/2-y,1/2+z
_cell_length_a 8.6174(8)
_cell_length_b 13.5254(13)
_cell_length_c 24.858(2)
_cell_angle_alpha 90
_cell_angle_beta 95.154(2)
_cell_angle_gamma 90
_cell_formula_units_Z 8
loop_
_atom_type_symbol
_atom_type_radius_bond
C 0.68
H 0.23
N 0.68
O 0.68
loop_
_atom_site_label
_atom_site_type_symbol
_atom_site_fract_x
_atom_site_fract_y
_atom_site_fract_z
O1 O 0.4031(2) 0.71136(13) 0.37948(7)
O2 O 0.2963(2) 0.74867(13) 0.45584(7)
O3 O 0.2073(2) 0.91096(13) 0.36030(7)
O4 O 0.3522(2) 1.03590(12) 0.39806(7)
O5 O 0.1824(2) 0.93859(14) 0.47718(7)
O6 O 0.2057(2) 0.9518(2) 0.56305(8)
O7 O 0.6904(2) 0.98603(15) 0.66202(7)
O8 O 0.9057(2) 0.97479(16) 0.62403(8)
N1 N 0.7170(2) 0.86807(16) 0.43149(8)
N2 N 0.2609(2) 0.93987(17) 0.52014(9)
N3 N 0.7636(3) 0.97129(17) 0.62296(9)
C1 C 0.5932(3) 0.8821(2) 0.3882(1)
H1 H 0.59600 0.82970 0.36040
H2 H 0.60180 0.94740 0.37080
C2 C 0.4421(3) 0.87507(18) 0.41773(9)
C3 C 0.5015(3) 0.90582(18) 0.47528(10)
C4 C 0.4302(3) 0.93143(19) 0.52047(10)
C5 C 0.5150(3) 0.95302(19) 0.56935(10)
H3 H 0.46450 0.97050 0.60040
C6 C 0.6755(3) 0.94806(19) 0.57094(10)
C7 C 0.7551(3) 0.92173(17) 0.52713(10)
H4 H 0.86570 0.91900 0.52980
C8 C 0.6665(3) 0.89950(18) 0.47907(10)
C9 C 0.8794(3) 0.8747(2) 0.41988(11)
H5 H 0.94560 0.84260 0.44890
H6 H 0.90920 0.94440 0.41740
H7 H 0.89260 0.84160 0.38550
C10 C 0.3804(3) 0.76832(19) 0.41475(10)
C11 C 0.2246(4) 0.6512(2) 0.45415(12)
H8 H 0.16070 0.64410 0.48460
H9 H 0.30600 0.60040 0.45650
H10 H 0.15870 0.64350 0.42020
C12 C 0.3181(3) 0.94171(19) 0.38931(10)
C13 C 0.2414(3) 1.1062(2) 0.37325(11)
H11 H 0.27110 1.17310 0.38520
H12 H 0.13720 1.09100 0.38380
H13 H 0.24080 1.10210 0.33390
O9 O 0.5021(2) 0.93219(13) 0.77542(7)
O10 O 0.3589(2) 0.89504(13) 0.69811(7)
O11 O 0.3322(2) 0.72273(13) 0.79076(7)
O12 O 0.46772(19) 0.60587(12) 0.75002(7)
O13 O 0.2492(2) 0.70444(14) 0.67230(7)
O14 O 0.2337(3) 0.7106(3) 0.58632(10)
O15 O 0.6767(2) 0.66102(15) 0.49228(8)
O16 O 0.9083(2) 0.68485(19) 0.53112(8)
N4 N 0.8063(2) 0.77917(16) 0.72394(8)
N5 N 0.3083(3) 0.71177(17) 0.63015(9)
N6 N 0.7673(3) 0.68102(17) 0.53177(9)
C14 C 0.6990(3) 0.7674(2) 0.76547(10)
H14 H 0.71280 0.82130 0.79240
H15 H 0.71580 0.70320 0.78420
C15 C 0.5700(3) 0.74345(18) 0.67776(10)
C16 C 0.5349(3) 0.77178(19) 0.73469(10)
C17 C 0.4779(3) 0.71950(19) 0.63104(11)
C18 C 0.5423(3) 0.6985(2) 0.58289(11)
H16 H 0.47840 0.68150 0.55110
C19 C 0.7019(3) 0.70339(19) 0.58307(10)
C20 C 0.7334(3) 0.74936(18) 0.67511(10)
C21 C 0.8011(3) 0.72782(19) 0.62773(11)
H17 H 0.91080 0.72990 0.62620
C22 C 0.9719(3) 0.7630(2) 0.73806(11)
H18 H 1.03150 0.79300 0.71050
H19 H 0.99310 0.69190 0.74000
H20 H 1.00270 0.79330 0.77320
C23 C 0.4661(3) 0.87635(19) 0.7395(1)
C24 C 0.2833(3) 0.9904(2) 0.70033(12)
H21 H 0.19840 0.99470 0.67140
H22 H 0.35930 1.04290 0.69570
H23 H 0.24100 0.99820 0.73540
C25 C 0.4292(3) 0.69833(19) 0.76144(10)
C26 C 0.3827(3) 0.5290(2) 0.77505(10)
H24 H 0.39450 0.46650 0.75590
H25 H 0.27210 0.54680 0.77330
H26 H 0.42380 0.52170 0.81290
#END
