
#######################################################################
#
#                 Cambridge Crystallographic Data Centre
#                                CCDC
#
#######################################################################
#
# If this CIF has been generated from an entry in the Cambridge
# Structural Database, then it will include bibliographic, chemical,
# crystal, experimental, refinement or atomic coordinate data resulting
# from the CCDC's data processing and validation procedures.
#
#######################################################################

data_CSD_CIF_SANYAJ
_audit_creation_date 2012-02-24
_audit_creation_method CSD-ConQuest-V1
_database_code_CSD SANYAJ
_database_code_depnum_ccdc_archive 'CCDC 834588'
_chemical_formula_sum 'C28 H32 N2 O8'
_chemical_formula_moiety
;
C28 H32 N2 O8
;
_journal_coden_Cambridge 1336
_journal_volume 13
_journal_year 2011
_journal_page_first 6200
_journal_name_full 'Org.Lett. '
loop_
_publ_author_name
"Ying-Mei Li"
"Xiang Li"
"Fang-Zhi Peng"
"Ze-Qian Li"
"Shou-Tao Wu"
"Zhong-Wen Sun"
"Hong-Bin Zhang"
"Zhi-Hui Shao"
_chemical_name_systematic
;
t-Butyl 
(1S,2R,3R,4S)-4-(2-ethoxy-2-oxoethyl)-5'-methoxy-3-nitro-2'-oxo-2-phenylspiro[
cyclopentane-1,3'-indole]-1'(2'H)-carboxylate
;
_cell_volume   4022.286
_exptl_crystal_colour 'colorless'
_exptl_crystal_density_diffrn 1.299
_exptl_special_details
;
Absolute configuration

;
_exptl_crystal_description 'cone'
_diffrn_ambient_temperature 100
#These two values have been output from a single CSD field.
_refine_ls_R_factor_gt 0.0248
_refine_ls_wR_factor_gt 0.0248
_symmetry_cell_setting hexagonal
_symmetry_space_group_name_H-M 'P 61'
_symmetry_Int_Tables_number 169
loop_
_symmetry_equiv_pos_site_id
_symmetry_equiv_pos_as_xyz
1 x,y,z
2 x-y,x,1/6+z
3 y,-x+y,5/6+z
4 -y,x-y,1/3+z
5 -x+y,-x,2/3+z
6 -x,-y,1/2+z
_cell_length_a 12.5407(2)
_cell_length_b 12.5407(2)
_cell_length_c 29.5324(5)
_cell_angle_alpha 90
_cell_angle_beta 90
_cell_angle_gamma 120
_cell_formula_units_Z 6
loop_
_atom_type_symbol
_atom_type_radius_bond
C 0.68
H 0.23
N 0.68
O 0.68
loop_
_atom_site_label
_atom_site_type_symbol
_atom_site_fract_x
_atom_site_fract_y
_atom_site_fract_z
O1 O 0.53136(9) -0.08899(9) 0.01488(3)
O2 O 0.97706(8) 0.61112(8) 0.09539(3)
O3 O 0.46561(10) -0.00256(11) 0.06571(4)
O4 O 1.03776(9) 0.67778(8) 0.16718(3)
O5 O 0.92315(9) 0.37485(8) 0.08490(3)
O6 O 0.63516(8) 0.24586(8) 0.30261(3)
O7 O 0.86573(11) -0.03524(10) 0.12990(5)
O8 O 0.69976(11) -0.15829(9) 0.16611(4)
N1 N 0.91779(9) 0.47247(9) 0.15133(4)
C1 C 0.78558(11) 0.30394(11) 0.19393(4)
C2 C 0.43973(14) -0.17251(13) -0.05649(5)
H1 H 0.52000 -0.12220 -0.07100
H2 H 0.37430 -0.18550 -0.07770
H3 H 0.43020 -0.25220 -0.04780
C3 C 0.43166(14) -0.10769(15) -0.01518(5)
H4 H 0.43980 -0.02750 -0.02360
H5 H 0.35120 -0.15810 0.00000
C4 C 0.53636(12) -0.03546(12) 0.05431(5)
C5 C 0.64206(12) -0.02213(12) 0.08283(5)
H6 H 0.72040 0.02930 0.06650
H7 H 0.63310 -0.10430 0.08780
C6 C 0.64658(11) 0.03656(11) 0.12836(4)
H8 H 0.56490 -0.01130 0.14370
C7 C 0.67886(12) 0.17296(12) 0.12295(5)
H9 H 0.68980 0.19620 0.09050
H10 H 0.61160 0.18400 0.13530
C8 C 0.79983(11) 0.25478(11) 0.14925(4)
C9 C 0.88667(11) 0.37221(11) 0.12283(4)
C10 C 0.98626(11) 0.59924(11) 0.13908(4)
C11 C 1.03359(12) 0.73545(12) 0.07414(5)
C12 C 0.99452(16) 0.70338(15) 0.02544(5)
H11 H 1.02800 0.65340 0.01330
H12 H 1.02570 0.77920 0.00770
H13 H 0.90440 0.65670 0.02370
C13 C 0.86006(11) 0.43192(11) 0.19437(4)
C14 C 0.97821(16) 0.80735(15) 0.09484(6)
H14 H 0.88820 0.75750 0.09380
H15 H 1.00530 0.88350 0.07770
H16 H 1.00530 0.82750 0.12640
C15 C 1.17244(13) 0.79998(13) 0.07904(5)
H17 H 1.19480 0.81990 0.11100
H18 H 1.21000 0.87600 0.06120
H19 H 1.20230 0.74570 0.06820
C16 C 0.86451(11) 0.50060(11) 0.23161(4)
H20 H 0.91630 0.58750 0.23180
C17 C 0.79100(12) 0.43914(12) 0.26895(4)
H21 H 0.79400 0.48440 0.29520
C18 C 0.71316(11) 0.31182(12) 0.26806(4)
C19 C 0.61664(14) 0.31457(14) 0.33696(5)
H22 H 0.69290 0.36200 0.35430
H23 H 0.55080 0.25810 0.35730
H24 H 0.59350 0.37100 0.32300
C20 C 0.71053(11) 0.24340(11) 0.23042(4)
H25 H 0.65800 0.15660 0.22990
C21 C 0.86044(11) 0.17239(11) 0.15222(4)
H26 H 0.89320 0.17120 0.12150
C22 C 0.74883(12) 0.04609(11) 0.16026(4)
H27 H 0.72110 0.04100 0.19230
N2 N 0.77536(11) -0.05643(11) 0.15170(4)
C23 C 0.96644(12) 0.21651(11) 0.18526(4)
C24 C 1.08201(12) 0.30931(12) 0.17158(5)
H28 H 1.09310 0.34190 0.14180
C25 C 1.18153(13) 0.35481(13) 0.20111(5)
H29 H 1.26010 0.41830 0.19140
C26 C 1.16673(13) 0.30834(14) 0.24433(5)
H30 H 1.23490 0.33940 0.26440
C27 C 1.05192(14) 0.21609(15) 0.25836(5)
H31 H 1.04100 0.18420 0.28820
C28 C 0.95273(13) 0.17019(14) 0.22874(5)
H32 H 0.87440 0.10620 0.23840
#END
