
#######################################################################
#
#                 Cambridge Crystallographic Data Centre
#                                CCDC
#
#######################################################################
#
# If this CIF has been generated from an entry in the Cambridge
# Structural Database, then it will include bibliographic, chemical,
# crystal, experimental, refinement or atomic coordinate data resulting
# from the CCDC's data processing and validation procedures.
#
#######################################################################

data_CSD_CIF_SAPXUC
_audit_creation_date 1989-12-21
_audit_creation_method CSD-ConQuest-V1
_database_code_CSD SAPXUC
_chemical_formula_sum 'C24 H34 N2 O2'
_chemical_formula_moiety
;
C24 H34 N2 O2
;
_journal_coden_Cambridge 188
_journal_year 1989
_journal_page_first 551
_journal_name_full 'J.Chem.Soc.,Perkin Trans.2 '
loop_
_publ_author_name
"B.G.Gowenlock"
"K.J.McCullough"
_chemical_name_systematic
;
trans-2,2',6,6'-Tetraisopropyl-azodioxybenzene
;
_cell_volume   1135.600
_exptl_crystal_colour 'colorless'
_exptl_crystal_density_diffrn 1.119
_exptl_special_details
;
H12A deleted; suspected coordinate error. The space group is P21/c, not P21/n

;
_diffrn_ambient_temperature ?
_diffrn_special_details
;
The study was carried out at room temperature,in the range 283-303K

;
#These two values have been output from a single CSD field.
_refine_ls_R_factor_gt 0.057
_refine_ls_wR_factor_gt 0.057
_symmetry_cell_setting monoclinic
_symmetry_space_group_name_H-M 'P 21/c'
_symmetry_Int_Tables_number 14
loop_
_symmetry_equiv_pos_site_id
_symmetry_equiv_pos_as_xyz
1 x,y,z
2 -x,1/2+y,1/2-z
3 -x,-y,-z
4 x,-1/2-y,-1/2+z
_cell_length_a 8.5854(10)
_cell_length_b 10.9497(11)
_cell_length_c 12.1135(14)
_cell_angle_alpha 90
_cell_angle_beta 94.27(1)
_cell_angle_gamma 90
_cell_formula_units_Z 2
loop_
_atom_type_symbol
_atom_type_radius_bond
C 0.68
H 0.23
N 0.68
O 0.68
loop_
_atom_site_label
_atom_site_type_symbol
_atom_site_fract_x
_atom_site_fract_y
_atom_site_fract_z
N1 N 0.97724(14) 0.02769(12) 0.95302(11)
O1 O 1.07571(14) 0.06166(14) 0.88644(11)
C1 C 0.80918(17) 0.04433(15) 0.92594(14)
C2 C 0.73181(20) -0.04577(16) 0.86215(14)
C3 C 0.57138(21) -0.02839(19) 0.83663(17)
C4 C 0.49567(21) 0.07339(21) 0.87243(18)
C5 C 0.57866(22) 0.16311(19) 0.93114(17)
C6 C 0.73902(19) 0.15211(16) 0.95868(14)
C7 C 0.82648(22) 0.25415(17) 1.02066(16)
C8 C 0.7828(3) 0.2612(3) 1.13980(21)
C9 C 0.8037(4) 0.37636(23) 0.9611(3)
C10 C 0.81248(21) -0.15573(17) 0.81809(16)
C11 C 0.7515(3) -0.27552(21) 0.86234(22)
C12 C 0.8010(4) -0.15591(25) 0.69172(21)
H1 H 0.382(3) 0.0782(23) 0.8592(22)
H2 H 0.675(3) 0.292(3) 1.1420(24)
H3 H 0.847(3) 0.323(3) 1.181(3)
H4 H 0.792(3) 0.173(3) 1.182(3)
H5 H 0.689(4) 0.404(3) 0.967(3)
H6 H 0.823(4) 0.367(3) 0.880(3)
H7 H 0.870(4) 0.439(3) 1.001(3)
H8 H 0.632(4) -0.285(3) 0.839(3)
H9 H 0.768(4) -0.275(3) 0.947(3)
H10 H 0.816(3) -0.347(3) 0.8391(24)
H11 H 0.864(3) -0.231(3) 0.667(3)
H12 H 0.843(4) -0.083(3) 0.6693(25)
H13 H 0.5102(25) -0.0946(22) 0.7931(19)
H14 H 0.521(3) 0.2336(22) 0.9546(23)
H15 H 0.937(3) 0.2371(19) 1.0208(19)
H16 H 0.921(3) -0.1442(18) 0.8350(18)
N1B N 1.02276(14) -0.02769(12) 1.04698(11)
O1B O 0.92429(14) -0.06166(14) 1.11356(11)
C1B C 1.19082(17) -0.04433(15) 1.07406(14)
C2B C 1.26819(20) 0.04577(16) 1.13785(14)
C3B C 1.42862(21) 0.02839(19) 1.16337(17)
C4B C 1.50433(21) -0.07339(21) 1.12757(18)
C5B C 1.42134(22) -0.16311(19) 1.06886(17)
C6B C 1.26098(19) -0.15211(16) 1.04132(14)
C7B C 1.17352(22) -0.25415(17) 0.97934(16)
C8B C 1.2172(3) -0.2612(3) 0.86020(21)
H2B H 1.325(3) -0.292(3) 0.8580(24)
H3B H 1.153(3) -0.323(3) 0.819(3)
H4B H 1.208(3) -0.173(3) 0.818(3)
C9B C 1.1963(4) -0.37636(23) 1.0389(3)
H5B H 1.311(4) -0.404(3) 1.033(3)
H6B H 1.177(4) -0.367(3) 1.120(3)
H7B H 1.130(4) -0.439(3) 0.999(3)
H15B H 1.063(3) -0.2371(19) 0.9792(19)
H14B H 1.479(3) -0.2336(22) 1.0454(23)
H1B H 1.618(3) -0.0782(23) 1.1408(22)
H13B H 1.4898(25) 0.0946(22) 1.2069(19)
C10B C 1.18752(21) 0.15573(17) 1.18191(16)
C11B C 1.2485(3) 0.27552(21) 1.13766(22)
H8B H 1.368(4) 0.285(3) 1.161(3)
H9B H 1.232(4) 0.275(3) 1.053(3)
H10B H 1.184(3) 0.347(3) 1.1609(24)
C12B C 1.1990(4) 0.15591(25) 1.30828(21)
H11B H 1.136(3) 0.231(3) 1.333(3)
H12B H 1.157(4) 0.083(3) 1.3307(25)
H16B H 1.079(3) 0.1442(18) 1.1650(18)
#END
