
#######################################################################
#
#                 Cambridge Crystallographic Data Centre
#                                CCDC
#
#######################################################################
#
# If this CIF has been generated from an entry in the Cambridge
# Structural Database, then it will include bibliographic, chemical,
# crystal, experimental, refinement or atomic coordinate data resulting
# from the CCDC's data processing and validation procedures.
#
#######################################################################

data_CSD_CIF_SAPYEN
_audit_creation_date 1989-12-21
_audit_creation_method CSD-ConQuest-V1
_database_code_CSD SAPYEN
_chemical_formula_sum 'C11 H11 N1 O4'
_chemical_formula_moiety
;
C11 H11 N1 O4
;
_journal_coden_Cambridge 188
_journal_year 1989
_journal_page_first 527
_journal_name_full 'J.Chem.Soc.,Perkin Trans.2 '
loop_
_publ_author_name
"J.Emsley"
"L.Y.Y.Ma"
"P.A.Bates"
"M.Motevalli"
"M.B.Hursthouse"
_chemical_name_systematic
;
3-(4-Nitrophenyl)pentane-2,4-dione
;
_chemical_melting_point 381.15
_cell_volume   1056.399
_exptl_crystal_colour 'yellow'
_exptl_crystal_density_diffrn 1.391
_exptl_special_details
;
Melting point range 381.15-383.15K

;
_diffrn_ambient_temperature ?
_diffrn_special_details
;
The study was carried out at room temperature,in the range 283-303K

;
#These two values have been output from a single CSD field.
_refine_ls_R_factor_gt 0.045
_refine_ls_wR_factor_gt 0.045
_symmetry_cell_setting monoclinic
_symmetry_space_group_name_H-M 'P 21/c'
_symmetry_Int_Tables_number 14
loop_
_symmetry_equiv_pos_site_id
_symmetry_equiv_pos_as_xyz
1 x,y,z
2 -x,1/2+y,1/2-z
3 -x,-y,-z
4 x,-1/2-y,-1/2+z
_cell_length_a 10.249(1)
_cell_length_b 7.621(1)
_cell_length_c 13.525(2)
_cell_angle_alpha 90
_cell_angle_beta 90.21(1)
_cell_angle_gamma 90
_cell_formula_units_Z 4
loop_
_atom_type_symbol
_atom_type_radius_bond
C 0.68
H 0.23
N 0.68
O 0.68
loop_
_atom_site_label
_atom_site_type_symbol
_atom_site_fract_x
_atom_site_fract_y
_atom_site_fract_z
O1 O 0.1099(2) 0.4747(3) 0.6879(2)
O2 O 0.0539(2) 0.2158(3) 0.5898(2)
O3 O 0.5721(3) -0.3257(3) 0.9609(2)
O4 O 0.4418(2) -0.2592(3) 1.0805(2)
N1 N 0.4759(3) -0.2493(4) 0.9942(2)
C1 C 0.2439(4) 0.4691(5) 0.8293(3)
C2 C 0.1767(3) 0.3724(5) 0.7471(2)
C3 C 0.1845(3) 0.1937(4) 0.7324(2)
C4 C 0.1200(3) 0.1197(5) 0.6481(2)
C5 C 0.1268(3) -0.0720(4) 0.6254(3)
C6 C 0.2596(3) 0.0782(4) 0.8014(2)
C7 C 0.3727(3) -0.0051(4) 0.7699(2)
C8 C 0.4432(3) -0.1134(4) 0.8324(2)
C9 C 0.3996(3) -0.1349(4) 0.9276(2)
C10 C 0.2883(3) -0.0559(4) 0.9617(2)
C11 C 0.2182(3) 0.0519(4) 0.8987(2)
H1 H 0.3118(4) 0.4054(5) 0.8627(3)
H2 H 0.1808(4) 0.5086(5) 0.8767(3)
H3 H 0.2808(4) 0.5686(5) 0.7960(3)
H4 H 0.1133(3) -0.1395(4) 0.6844(3)
H5 H 0.2102(3) -0.1008(4) 0.5977(3)
H6 H 0.0593(3) -0.0985(4) 0.5783(3)
H7 H 0.4025(3) 0.0131(4) 0.7035(2)
H8 H 0.5205(3) -0.1719(4) 0.8099(2)
H9 H 0.2597(3) -0.0753(4) 1.0283(2)
H10 H 0.1405(3) 0.1088(4) 0.9219(2)
H11 H 0.0617(45) 0.3781(63) 0.6347(33)
#END
