
#######################################################################
#
#                 Cambridge Crystallographic Data Centre
#                                CCDC
#
#######################################################################
#
# If this CIF has been generated from an entry in the Cambridge
# Structural Database, then it will include bibliographic, chemical,
# crystal, experimental, refinement or atomic coordinate data resulting
# from the CCDC's data processing and validation procedures.
#
#######################################################################

data_CSD_CIF_SAQMIG
_audit_creation_date 1999-01-22
_audit_creation_method CSD-ConQuest-V1
_database_code_CSD SAQMIG
_database_code_depnum_ccdc_archive 'CCDC 1255066'
_chemical_formula_sum 'C19 H20 N4 O8'
_chemical_formula_moiety
;
C19 H20 N4 O8
;
_journal_coden_Cambridge 3
_journal_volume 52
_journal_year 1998
_journal_page_first 761
_journal_name_full 'Acta Chem.Scand. '
loop_
_publ_author_name
"U.Berg"
"C.P.Butts"
"L.Eberson"
"M.P.Hartshorn"
"O.Persson"
_chemical_name_systematic
;
5-Methyl-2-(2'-nitromethyl-1'-phenyl)ethoxy-3,3-dinitro-5-phenylisoxazolidine
;
_chemical_melting_point 390.15
_cell_volume   1997.379
_exptl_crystal_colour 'colorless'
_exptl_crystal_density_diffrn 1.438
_exptl_special_details
;
Melting point range 390.15-391.15K

;
_exptl_crystal_preparation 'dichloromethane pentane'
_diffrn_ambient_temperature ?
_diffrn_special_details
;
The study was carried out at room temperature,in the range 283-303K

;
#These two values have been output from a single CSD field.
_refine_ls_R_factor_gt 0.0527
_refine_ls_wR_factor_gt 0.0527
_symmetry_cell_setting triclinic
_symmetry_space_group_name_H-M 'P -1'
_symmetry_Int_Tables_number 2
loop_
_symmetry_equiv_pos_site_id
_symmetry_equiv_pos_as_xyz
1 x,y,z
2 -x,-y,-z
_cell_length_a 9.6356(12)
_cell_length_b 9.7619(14)
_cell_length_c 23.710(5)
_cell_angle_alpha 87.91(2)
_cell_angle_beta 82.49(2)
_cell_angle_gamma 64.631(9)
_cell_formula_units_Z 4
loop_
_atom_type_symbol
_atom_type_radius_bond
C 0.68
H 0.23
N 0.68
O 0.68
loop_
_atom_site_label
_atom_site_type_symbol
_atom_site_fract_x
_atom_site_fract_y
_atom_site_fract_z
O1 O 0.3421(3) 0.4637(3) 0.3724(1)
O2 O 0.5383(3) 0.4190(3) 0.2981(1)
O3 O 0.3967(3) 0.8336(5) 0.2581(1)
O4 O 0.3590(4) 0.6558(4) 0.2204(1)
O5 O 0.1967(3) 0.7938(3) 0.3994(1)
O6 O 0.1035(3) 0.7977(4) 0.3203(1)
O7 O 0.2030(4) 0.1060(4) 0.3321(2)
O8 O 0.4101(4) -0.0096(4) 0.3718(1)
N1 N 0.3773(3) 0.5016(4) 0.3142(1)
N2 N 0.3763(3) 0.7196(5) 0.2605(1)
N3 N 0.2084(3) 0.7589(4) 0.3496(1)
N4 N 0.3232(4) 0.0980(5) 0.3466(1)
C1 C 0.5033(4) 0.6388(5) 0.3502(1)
C2 C 0.6265(4) 0.4790(5) 0.3297(1)
C3 C 0.7522(4) 0.4855(5) 0.2847(2)
C4 C 0.3659(4) 0.2258(6) 0.3338(1)
C5 C 0.2641(4) 0.3633(5) 0.3748(1)
C6 C 0.1031(4) 0.4493(5) 0.3570(2)
C7 C 0.3686(4) 0.6535(5) 0.3205(1)
C8 C 0.6954(3) 0.3716(5) 0.3766(1)
C9 C 0.6923(4) 0.4232(5) 0.4309(1)
C10 C 0.7563(4) 0.3194(5) 0.4732(2)
C11 C 0.8246(4) 0.1664(5) 0.4610(2)
C12 C 0.8315(4) 0.1147(5) 0.4065(2)
C13 C 0.7675(4) 0.2171(5) 0.3644(2)
C14 C 0.2675(4) 0.3101(5) 0.4363(1)
C15 C 0.4074(4) 0.2546(5) 0.4595(1)
C16 C 0.4160(4) 0.1945(5) 0.5139(1)
C17 C 0.2869(5) 0.1908(5) 0.5456(2)
C18 C 0.1486(5) 0.2463(5) 0.5230(2)
C19 C 0.1382(4) 0.3070(5) 0.4685(2)
H1 H 0.4767(4) 0.6443(5) 0.3921(1)
H2 H 0.5388(4) 0.7180(5) 0.3382(1)
H3 H 0.816(2) 0.5234(29) 0.3023(3)
H4 H 0.7040(4) 0.5537(25) 0.2545(6)
H5 H 0.8175(19) 0.3837(8) 0.2685(8)
H6 H 0.3514(4) 0.2566(6) 0.2940(1)
H7 H 0.4765(4) 0.1929(6) 0.3380(1)
H8 H 0.0525(12) 0.3810(9) 0.3573(11)
H9 H 0.1118(4) 0.4879(25) 0.3186(5)
H10 H 0.0415(11) 0.5344(18) 0.3837(7)
H11 H 0.6468(4) 0.5290(5) 0.4394(1)
H12 H 0.7524(4) 0.3549(5) 0.5104(2)
H13 H 0.8672(4) 0.0961(5) 0.4898(2)
H14 H 0.8801(4) 0.0090(5) 0.3979(2)
H15 H 0.7733(4) 0.1809(5) 0.3272(2)
H16 H 0.4965(4) 0.2580(5) 0.4382(1)
H17 H 0.5116(4) 0.1557(5) 0.5292(1)
H18 H 0.2932(5) 0.1505(5) 0.5827(2)
H19 H 0.0598(5) 0.2432(5) 0.5445(2)
H20 H 0.0421(4) 0.3463(5) 0.4536(2)
O9 O 0.6903(2) 0.0819(3) 0.1322(1)
O10 O 0.8001(3) 0.1331(3) 0.2052(1)
O11 O 0.9242(3) -0.2945(4) 0.2556(1)
O12 O 0.7432(4) -0.0798(4) 0.2893(1)
O13 O 0.8586(4) -0.2496(4) 0.1100(1)
O14 O 0.6833(4) -0.2318(4) 0.1807(1)
O15 O 0.2212(3) 0.3985(4) 0.2044(1)
O16 O 0.2639(4) 0.5145(4) 0.1290(1)
N5 N 0.7159(3) 0.0528(4) 0.1913(1)
N6 N 0.8317(4) -0.1630(4) 0.2512(1)
N7 N 0.7890(4) -0.2054(4) 0.1571(1)
N8 N 0.3074(4) 0.4202(4) 0.1658(1)
C20 C 0.4778(4) 0.3225(5) 0.1639(1)
C21 C 0.5244(4) 0.1775(5) 0.1281(1)
C22 C 0.4312(4) 0.0907(5) 0.1494(2)
C23 C 0.9896(4) -0.1045(5) 0.1679(2)
C24 C 0.9627(4) 0.0600(5) 0.1761(1)
C25 C 1.0603(4) 0.0758(6) 0.2190(2)
C26 C 0.8353(4) -0.1037(5) 0.1902(1)
C27 C 0.9771(4) 0.1446(5) 0.1218(1)
C28 C 0.9090(5) 0.3009(5) 0.1238(2)
C29 C 0.9182(5) 0.3838(6) 0.0754(2)
C30 C 0.9988(5) 0.3073(6) 0.0243(2)
C31 C 1.0686(5) 0.1527(6) 0.0220(2)
C32 C 1.0592(4) 0.0700(5) 0.0707(2)
C33 C 0.5261(4) 0.2117(5) 0.0645(1)
C34 C 0.6298(4) 0.2645(5) 0.0379(2)
C35 C 0.6291(5) 0.3038(5) -0.0192(2)
C36 C 0.5241(5) 0.2879(6) -0.0501(2)
C37 C 0.4223(6) 0.2349(6) -0.0245(2)
C38 C 0.4221(5) 0.1954(6) 0.0328(2)
H21 H 0.5037(4) 0.2951(5) 0.2030(1)
H22 H 0.5365(4) 0.3794(5) 0.1471(1)
H23 H 0.3214(5) 0.1538(12) 0.1467(10)
H24 H 0.4452(24) 0.0638(26) 0.1891(4)
H25 H 0.4667(21) -0.0020(16) 0.1262(7)
H26 H 1.0188(4) -0.1359(5) 0.1272(2)
H27 H 1.0719(4) -0.1739(5) 0.1898(2)
H28 H 1.1703(4) 0.0231(29) 0.2041(6)
H29 H 1.0402(25) 0.0312(29) 0.2550(4)
H30 H 1.0331(24) 0.1835(6) 0.2253(9)
H31 H 0.8551(5) 0.3529(5) 0.1586(2)
H32 H 0.8700(5) 0.4914(6) 0.0772(2)
H33 H 1.0050(5) 0.3630(6) -0.0089(2)
H34 H 1.1237(5) 0.1009(6) -0.0127(2)
H35 H 1.1091(4) -0.0376(5) 0.0690(2)
H36 H 0.7028(4) 0.2741(5) 0.0589(2)
H37 H 0.7001(5) 0.3411(5) -0.0368(2)
H38 H 0.5231(5) 0.3140(6) -0.0891(2)
H39 H 0.3503(6) 0.2246(6) -0.0459(2)
H40 H 0.3513(5) 0.1575(6) 0.0500(2)
#END
