
#######################################################################
#
#                 Cambridge Crystallographic Data Centre
#                                CCDC
#
#######################################################################
#
# If this CIF has been generated from an entry in the Cambridge
# Structural Database, then it will include bibliographic, chemical,
# crystal, experimental, refinement or atomic coordinate data resulting
# from the CCDC's data processing and validation procedures.
#
#######################################################################

data_CSD_CIF_SAQVIS01
_audit_creation_date 2017-02-12
_audit_creation_method CSD-ConQuest-V1
_database_code_CSD SAQVIS01
_database_code_depnum_ccdc_archive 'CCDC 1486183'
_chemical_formula_sum 'C15 H13 N3 O3'
_chemical_formula_moiety
;
C15 H13 N3 O3
;
_journal_coden_Cambridge 574
_journal_volume 141
_journal_year 2017
_journal_page_first 333
_journal_name_full 'Dyes Pigm. '
loop_
_publ_author_name
"P.Szlachcic"
"A.A.Fedorchuk"
"A.Danel"
"B.Jarosz"
"A.M.El Naggar"
"A.A.Albassam"
"A.Wojciechowski"
"E.Gondek"
"T.Uchacz"
"K.Stadnicka"
"G.Lakshminarayana"
"I.V.Kityk"
_chemical_name_systematic
;
N,N-dimethyl-4-(5-nitro-1,3-benzoxazol-2-yl)aniline
;
_cell_volume    637.854
_exptl_crystal_colour 'yellow'
_exptl_crystal_density_diffrn 1.475
_exptl_crystal_description 'plate'
_diffrn_ambient_temperature 110
#These two values have been output from a single CSD field.
_refine_ls_R_factor_gt 0.0456
_refine_ls_wR_factor_gt 0.0456
_symmetry_cell_setting triclinic
_symmetry_space_group_name_H-M 'P -1'
_symmetry_Int_Tables_number 2
loop_
_symmetry_equiv_pos_site_id
_symmetry_equiv_pos_as_xyz
1 x,y,z
2 -x,-y,-z
_cell_length_a 6.3310(5)
_cell_length_b 8.7110(7)
_cell_length_c 12.0120(9)
_cell_angle_alpha 78.053(3)
_cell_angle_beta 83.523(3)
_cell_angle_gamma 80.968(4)
_cell_formula_units_Z 2
loop_
_atom_type_symbol
_atom_type_radius_bond
C 0.68
H 0.23
N 0.68
O 0.68
loop_
_atom_site_label
_atom_site_type_symbol
_atom_site_fract_x
_atom_site_fract_y
_atom_site_fract_z
O1 O 0.27720(12) 0.16340(9) 0.94074(7)
C1 C 0.05554(17) 0.20410(12) 0.94831(9)
N1 N -0.04177(15) 0.16196(11) 0.87196(8)
C2 C 0.12415(17) 0.08562(12) 0.80719(9)
C3 C 0.11967(18) 0.01408(13) 0.71411(9)
H1 H -0.00990 0.01160 0.68200
C4 C 0.31782(18) -0.05329(13) 0.67163(9)
C5 C 0.51269(18) -0.04994(13) 0.71408(10)
H2 H 0.64270 -0.09730 0.68010
C6 C 0.51620(18) 0.02302(13) 0.8064(1)
H3 H 0.64590 0.02820 0.83740
C7 C 0.31894(18) 0.08732(12) 0.85004(9)
N2 N 0.32292(17) -0.13564(11) 0.57619(8)
O2 O 0.15219(16) -0.14540(12) 0.54035(8)
O3 O 0.49912(16) -0.19277(11) 0.53660(8)
C8 C -0.03504(17) 0.28696(12) 1.03920(9)
C9 C 0.09515(17) 0.32112(12) 1.11481(9)
H4 H 0.24560 0.28850 1.10670
C10 C 0.00993(17) 0.40122(13) 1.20107(9)
H5 H 0.10170 0.42050 1.25250
C11 C -0.21265(17) 0.45489(12) 1.21366(9)
C12 C -0.34379(17) 0.41722(13) 1.13806(9)
H6 H -0.49440 0.44920 1.14570
C13 C -0.25676(17) 0.33458(13) 1.05309(9)
H7 H -0.34820 0.30990 1.00370
N3 N -0.29650(15) 0.54205(12) 1.29538(8)
C14 C -0.52842(18) 0.57876(14) 1.31697(10)
H8 H -0.59060 0.63250 1.24560
H9 H -0.56050 0.64810 1.37310
H10 H -0.59000 0.48040 1.34670
C15 C -0.16353(19) 0.55675(14) 1.38268(10)
H11 H -0.11660 0.45140 1.42690
H12 H -0.24660 0.62280 1.43360
H13 H -0.03770 0.60590 1.34630
#END
