
#######################################################################
#
#                 Cambridge Crystallographic Data Centre
#                                CCDC
#
#######################################################################
#
# If this CIF has been generated from an entry in the Cambridge
# Structural Database, then it will include bibliographic, chemical,
# crystal, experimental, refinement or atomic coordinate data resulting
# from the CCDC's data processing and validation procedures.
#
#######################################################################

data_CSD_CIF_SAQVAG
_audit_creation_date 2001-11-29
_audit_creation_method CSD-ConQuest-V1
_database_code_CSD SAQVAG
_database_code_depnum_ccdc_archive 'CCDC 173381'
_chemical_formula_sum 'C13 H12 N2 O4'
_chemical_formula_moiety
;
C13 H12 N2 O4
;
_journal_coeditor_code "IUCr DA1198"
_journal_coden_Cambridge 591
_journal_volume 57
_journal_year 2001
_journal_page_first 1089
_journal_name_full 'Acta Crystallogr.,Sect.C:Cryst.Struct.Commun. '
loop_
_publ_author_name
"J.Zukerman-Schpector"
"M.Vega"
"I.Caracelli"
"L.C.Dias"
"A.M.A.P.Fernandes"
_chemical_name_systematic
;
6-Methyl-N-(4-nitrobenzoyl)-5,6-dihydropyridin-2(1H)-one
;
_cell_volume   1246.976
_exptl_crystal_colour 'colorless'
_exptl_crystal_density_diffrn 1.386
_exptl_crystal_description 'irregular'
_diffrn_ambient_temperature 293
#These two values have been output from a single CSD field.
_refine_ls_R_factor_gt 0.037
_refine_ls_wR_factor_gt 0.037
_symmetry_cell_setting orthorhombic
_symmetry_space_group_name_H-M 'P 21 21 21'
_symmetry_Int_Tables_number 19
loop_
_symmetry_equiv_pos_site_id
_symmetry_equiv_pos_as_xyz
1 x,y,z
2 1/2+x,1/2-y,-z
3 -x,1/2+y,1/2-z
4 1/2-x,-y,1/2+z
_cell_length_a 7.3677(9)
_cell_length_b 10.054(1)
_cell_length_c 16.834(2)
_cell_angle_alpha 90
_cell_angle_beta 90
_cell_angle_gamma 90
_cell_formula_units_Z 4
loop_
_atom_type_symbol
_atom_type_radius_bond
C 0.68
H 0.23
N 0.68
O 0.68
loop_
_atom_site_label
_atom_site_type_symbol
_atom_site_fract_x
_atom_site_fract_y
_atom_site_fract_z
N1 N 0.5453(3) 0.1671(2) 0.83740(12)
N2 N 1.1771(4) 0.2742(3) 0.57630(15)
O1 O 0.7820(3) 0.3077(2) 0.85977(13)
O2 O 1.3167(4) 0.2123(3) 0.56791(18)
O3 O 0.6113(3) -0.04085(18) 0.79363(12)
O4 O 1.1468(4) 0.3809(3) 0.54371(14)
C1 C 0.6204(4) 0.2863(3) 0.86503(15)
C2 C 0.4942(4) 0.3845(3) 0.89955(17)
H1 H 0.53470 0.47050 0.90960
C3 C 0.3192(5) 0.3512(4) 0.9169(3)
H2 H 0.25130 0.40090 0.95280
C4 C 0.2397(4) 0.2321(4) 0.8765(2)
H3 H 0.20300 0.25630 0.82310
H4 H 0.13240 0.20340 0.90510
C5 C 0.3731(4) 0.1191(3) 0.87248(15)
H5 H 0.32290 0.05120 0.83690
C6 C 0.4086(5) 0.0540(3) 0.95254(17)
H6 H 0.49900 -0.01400 0.94660
H7 H 0.29830 0.01520 0.97210
H8 H 0.45110 0.11980 0.98950
C7 C 0.6457(4) 0.0776(3) 0.79180(14)
C8 C 0.7840(4) 0.1313(2) 0.73602(14)
C9 C 0.7464(4) 0.2396(3) 0.68826(16)
H9 H 0.63460 0.28210 0.69210
C10 C 0.8738(4) 0.2845(3) 0.63531(15)
H10 H 0.84950 0.35740 0.60300
C11 C 1.0369(4) 0.2204(2) 0.63066(15)
C12 C 1.0743(4) 0.1105(3) 0.67511(17)
H11 H 1.18490 0.06680 0.67000
C13 C 0.9459(4) 0.0654(3) 0.72753(17)
H12 H 0.96880 -0.01040 0.75760
#END
