
#######################################################################
#
#                 Cambridge Crystallographic Data Centre
#                                CCDC
#
#######################################################################
#
# If this CIF has been generated from an entry in the Cambridge
# Structural Database, then it will include bibliographic, chemical,
# crystal, experimental, refinement or atomic coordinate data resulting
# from the CCDC's data processing and validation procedures.
#
#######################################################################

data_CSD_CIF_SAQVIS
_audit_creation_date 2017-02-12
_audit_creation_method CSD-ConQuest-V1
_database_code_CSD SAQVIS
_database_code_depnum_ccdc_archive 'CCDC 1486182'
_chemical_formula_sum 'C15 H13 N3 O3'
_chemical_formula_moiety
;
C15 H13 N3 O3
;
_journal_coden_Cambridge 574
_journal_volume 141
_journal_year 2017
_journal_page_first 333
_journal_name_full 'Dyes Pigm. '
loop_
_publ_author_name
"P.Szlachcic"
"A.A.Fedorchuk"
"A.Danel"
"B.Jarosz"
"A.M.El Naggar"
"A.A.Albassam"
"A.Wojciechowski"
"E.Gondek"
"T.Uchacz"
"K.Stadnicka"
"G.Lakshminarayana"
"I.V.Kityk"
_chemical_name_systematic
;
N,N-dimethyl-4-(5-nitro-1,3-benzoxazol-2-yl)aniline
;
_cell_volume    660.240
_exptl_crystal_colour 'yellow'
_exptl_crystal_density_diffrn 1.425
_exptl_crystal_description 'plate'
_diffrn_ambient_temperature 293
#These two values have been output from a single CSD field.
_refine_ls_R_factor_gt 0.0551
_refine_ls_wR_factor_gt 0.0551
_symmetry_cell_setting triclinic
_symmetry_space_group_name_H-M 'P -1'
_symmetry_Int_Tables_number 2
loop_
_symmetry_equiv_pos_site_id
_symmetry_equiv_pos_as_xyz
1 x,y,z
2 -x,-y,-z
_cell_length_a 6.4187(9)
_cell_length_b 8.7402(13)
_cell_length_c 12.144(2)
_cell_angle_alpha 79.993(8)
_cell_angle_beta 85.030(8)
_cell_angle_gamma 80.335(9)
_cell_formula_units_Z 2
loop_
_atom_type_symbol
_atom_type_radius_bond
C 0.68
H 0.23
N 0.68
O 0.68
loop_
_atom_site_label
_atom_site_type_symbol
_atom_site_fract_x
_atom_site_fract_y
_atom_site_fract_z
O1 O 0.2727(2) 0.16185(19) -0.56030(13)
C1 C 0.0542(3) 0.2013(3) -0.55274(19)
N1 N -0.0420(3) 0.1574(2) -0.62930(17)
C2 C 0.1232(4) 0.0813(3) -0.6938(2)
C3 C 0.1185(4) 0.0089(3) -0.7863(2)
H1 H -0.00710 0.00450 -0.81760
C4 C 0.3140(4) -0.0563(3) -0.8287(2)
C5 C 0.5043(4) -0.0505(3) -0.7864(2)
H2 H 0.63040 -0.09590 -0.81950
C6 C 0.5078(4) 0.0229(3) -0.6942(2)
H3 H 0.63340 0.02960 -0.66380
C7 C 0.3139(4) 0.0850(3) -0.65087(19)
N2 N 0.3207(5) -0.1386(3) -0.9253(2)
O2 O 0.1519(4) -0.1492(3) -0.96136(19)
O3 O 0.4935(4) -0.1943(3) -0.96465(19)
C8 C -0.0351(3) 0.2847(3) -0.46277(18)
C9 C 0.0912(4) 0.3220(3) -0.3870(2)
H4 H 0.23710 0.29150 -0.39400
C10 C 0.0061(4) 0.4028(3) -0.3021(2)
H5 H 0.09540 0.42490 -0.25260
C11 C -0.2124(4) 0.4528(3) -0.28861(19)
C12 C -0.3395(4) 0.4127(3) -0.3651(2)
H6 H -0.48560 0.44240 -0.35820
C13 C -0.2537(4) 0.3314(3) -0.4491(2)
H7 H -0.34230 0.30680 -0.49790
N3 N -0.2972(3) 0.5375(3) -0.20606(17)
C14 C -0.5257(4) 0.5773(3) -0.1875(2)
H8 H -0.58560 0.62980 -0.25640
H9 H -0.55660 0.64540 -0.13220
H10 H -0.58540 0.48290 -0.16170
C15 C -0.1659(4) 0.5580(3) -0.1197(2)
H11 H -0.11690 0.45740 -0.07650
H12 H -0.24750 0.62480 -0.07140
H13 H -0.04670 0.60530 -0.15400
#END
