
#######################################################################
#
#                 Cambridge Crystallographic Data Centre
#                                CCDC
#
#######################################################################
#
# If this CIF has been generated from an entry in the Cambridge
# Structural Database, then it will include bibliographic, chemical,
# crystal, experimental, refinement or atomic coordinate data resulting
# from the CCDC's data processing and validation procedures.
#
#######################################################################

data_CSD_CIF_SAQWAL
_audit_creation_date 2017-02-12
_audit_creation_method CSD-ConQuest-V1
_database_code_CSD SAQWAL
_database_code_depnum_ccdc_archive 'CCDC 1486185'
_chemical_formula_sum 'C22 H17 N3 O3'
_chemical_formula_moiety
;
C22 H17 N3 O3
;
_journal_coden_Cambridge 574
_journal_volume 141
_journal_year 2017
_journal_page_first 333
_journal_name_full 'Dyes Pigm. '
loop_
_publ_author_name
"P.Szlachcic"
"A.A.Fedorchuk"
"A.Danel"
"B.Jarosz"
"A.M.El Naggar"
"A.A.Albassam"
"A.Wojciechowski"
"E.Gondek"
"T.Uchacz"
"K.Stadnicka"
"G.Lakshminarayana"
"I.V.Kityk"
_chemical_name_systematic
;
1-(4-(5-nitro-1,3-benzoxazol-2-yl)phenyl)-1,2,3,4-tetrahydroquinoline
;
_cell_volume   3454.591
_exptl_crystal_colour 'light orange'
_exptl_crystal_density_diffrn 1.428
_exptl_crystal_description 'plate'
_diffrn_ambient_temperature 110
#These two values have been output from a single CSD field.
_refine_ls_R_factor_gt 0.0588
_refine_ls_wR_factor_gt 0.0588
_symmetry_cell_setting monoclinic
_symmetry_space_group_name_H-M 'I 2/a'
_symmetry_Int_Tables_number 15
loop_
_symmetry_equiv_pos_site_id
_symmetry_equiv_pos_as_xyz
1 x,y,z
2 1/2-x,y,-z
3 1/2+x,1/2+y,1/2+z
4 -x,1/2+y,1/2-z
5 -x,-y,-z
6 -1/2+x,-y,z
7 -1/2-x,-1/2-y,-1/2-z
8 x,-1/2-y,-1/2+z
_cell_length_a 13.3825(7)
_cell_length_b 6.5061(3)
_cell_length_c 39.9550(17)
_cell_angle_alpha 90
_cell_angle_beta 96.763(4)
_cell_angle_gamma 90
_cell_formula_units_Z 8
loop_
_atom_type_symbol
_atom_type_radius_bond
C 0.68
H 0.23
N 0.68
O 0.68
loop_
_atom_site_label
_atom_site_type_symbol
_atom_site_fract_x
_atom_site_fract_y
_atom_site_fract_z
O1 O 0.12485(12) -0.3643(2) 0.48953(4)
C1 C 0.12525(16) -0.1550(3) 0.48229(5)
N1 N 0.12225(14) -0.0355(3) 0.50806(4)
C2 C 0.11833(17) -0.1699(3) 0.53514(5)
C3 C 0.11433(17) -0.1330(3) 0.56915(5)
H1 H 0.11330 0.00240 0.57800
C4 C 0.11198(17) -0.3041(3) 0.58937(5)
C5 C 0.11382(18) -0.5064(3) 0.57764(6)
H2 H 0.11180 -0.61800 0.59290
C6 C 0.11869(18) -0.5439(3) 0.54355(6)
H3 H 0.12080 -0.67910 0.53470
C7 C 0.12025(17) -0.3715(3) 0.52359(5)
N2 N 0.10794(16) -0.2722(3) 0.62555(5)
O2 O 0.11253(14) -0.0950(3) 0.63625(4)
O3 O 0.09984(17) -0.4229(3) 0.64357(4)
C8 C 0.13051(17) -0.1012(3) 0.44733(5)
C9 C 0.12490(17) -0.2529(3) 0.42220(5)
H4 H 0.11840 -0.39310 0.42830
C10 C 0.12861(17) -0.2021(3) 0.38893(5)
H5 H 0.12450 -0.30780 0.37240
C11 C 0.13835(17) 0.0040(3) 0.37889(5)
C12 C 0.14632(17) 0.1543(3) 0.40458(5)
H6 H 0.15470 0.29440 0.39880
C13 C 0.14228(17) 0.1031(3) 0.43789(6)
H7 H 0.14750 0.20790 0.45460
N3 N 0.14381(14) 0.0575(3) 0.34561(4)
C14 C 0.1838(2) 0.2620(3) 0.33870(6)
H8 H 0.24500 0.28800 0.35460
H9 H 0.13330 0.36750 0.34280
C15 C 0.20981(19) 0.2840(3) 0.30260(6)
H10 H 0.26110 0.39290 0.30170
H11 H 0.14890 0.32460 0.28750
C16 C 0.25034(18) 0.0802(3) 0.29049(6)
H12 H 0.27130 0.09590 0.26770
H13 H 0.30900 0.03350 0.30610
C17 C 0.11120(17) -0.0741(3) 0.31800(5)
C18 C 0.02541(17) -0.1975(3) 0.31765(5)
H14 H -0.01290 -0.19580 0.33620
C19 C -0.00327(18) -0.3223(3) 0.28997(6)
H15 H -0.05960 -0.41100 0.29020
C20 C 0.04903(17) -0.3195(3) 0.26202(6)
H16 H 0.02830 -0.40390 0.24310
C21 C 0.13169(17) -0.1922(3) 0.26210(5)
H17 H 0.16650 -0.18700 0.24270
C22 C 0.16504(16) -0.0713(3) 0.28995(5)
#END
