
#######################################################################
#
#                 Cambridge Crystallographic Data Centre
#                                CCDC
#
#######################################################################
#
# If this CIF has been generated from an entry in the Cambridge
# Structural Database, then it will include bibliographic, chemical,
# crystal, experimental, refinement or atomic coordinate data resulting
# from the CCDC's data processing and validation procedures.
#
#######################################################################

data_CSD_CIF_SAQYAK
_audit_creation_date 1999-01-22
_audit_creation_method CSD-ConQuest-V1
_database_code_CSD SAQYAK
_database_code_depnum_ccdc_journal 207/224
_chemical_formula_sum 'C15 H12 N2 O6'
_chemical_formula_moiety
;
C15 H12 N2 O6
;
_journal_coden_Cambridge 207
_journal_year 1998
_journal_page_first 2151
_journal_name_full 'J.Chem.Soc.,Perkin Trans.1 '
loop_
_publ_author_name
"D.M.Hodgson"
"G.P.Lee"
"R.E.Marriott"
"A.J.Thompson"
"R.Wisedale"
"J.Witherington"
_chemical_name_systematic
;
endo-Tricyclo(3.2.1.0^2,7^)oct-3-en-6-yl 3,5-dinitrobenzoate
;
_chemical_melting_point 418.15
_cell_volume   2871.885
_exptl_crystal_colour 'pale yellow'
_exptl_crystal_density_diffrn 1.463
_exptl_special_details
;
Melts with decomposition.

;
_exptl_crystal_description 'plate'
_diffrn_ambient_temperature ?
_diffrn_special_details
;
The study was carried out at room temperature,in the range 283-303K

;
#These two values have been output from a single CSD field.
_refine_ls_R_factor_gt 0.079
_refine_ls_wR_factor_gt 0.079
_symmetry_cell_setting monoclinic
_symmetry_space_group_name_H-M 'C 2/c'
_symmetry_Int_Tables_number 15
loop_
_symmetry_equiv_pos_site_id
_symmetry_equiv_pos_as_xyz
1 x,y,z
2 -x,y,1/2-z
3 1/2+x,1/2+y,z
4 1/2-x,1/2+y,1/2-z
5 -x,-y,-z
6 x,-y,-1/2+z
7 -1/2-x,-1/2-y,-z
8 -1/2+x,-1/2-y,-1/2+z
_cell_length_a 24.581(1)
_cell_length_b 6.537(1)
_cell_length_c 18.055(5)
_cell_angle_alpha 90
_cell_angle_beta 98.15(3)
_cell_angle_gamma 90
_cell_formula_units_Z 8
loop_
_atom_type_symbol
_atom_type_radius_bond
C 0.68
H 0.23
N 0.68
O 0.68
loop_
_atom_site_label
_atom_site_type_symbol
_atom_site_fract_x
_atom_site_fract_y
_atom_site_fract_z
O1 O 0.8766(4) -0.224(1) 0.1521(4)
O2 O 0.7372(3) 0.214(1) 0.2368(4)
O3 O 0.6956(3) 0.417(1) 0.1541(4)
O4 O 0.8066(3) 0.707(1) -0.0317(5)
O5 O 0.9260(4) -0.097(1) 0.0754(5)
C1 C 0.8242(3) 0.394(1) 0.0319(4)
C2 C 0.7773(3) 0.279(1) 0.1305(5)
O6 O 0.8675(3) 0.503(1) -0.0676(4)
C3 C 0.8097(3) 0.109(1) 0.1417(4)
C4 C 0.7827(3) 0.426(1) 0.0760(5)
N1 N 0.7325(4) 0.303(1) 0.1769(5)
N2 N 0.8870(4) -0.095(1) 0.1099(5)
C5 C 0.8591(3) 0.228(1) 0.0423(5)
C6 C 0.8318(4) 0.554(2) -0.0259(6)
C7 C 0.8499(4) 0.088(1) 0.0979(5)
C8 C 0.8749(5) 0.632(2) -0.1342(7)
C9 C 0.9181(6) 0.781(2) -0.1110(6)
C10 C 0.9266(5) 0.653(2) -0.2350(7)
C11 C 0.9852(6) 0.521(3) -0.1175(9)
C12 C 0.9505(8) 0.465(2) -0.183(1)
C13 C 0.9310(5) 0.838(2) -0.1935(7)
C14 C 0.8935(5) 0.509(2) -0.1926(6)
C15 C 0.9692(6) 0.693(3) -0.0761(7)
H1 H 0.80360 0.00470 0.18000
H2 H 0.75830 0.54720 0.06850
H3 H 0.88990 0.20990 0.01300
H4 H 0.83910 0.70150 -0.15700
H5 H 1.02130 0.44320 -0.09930
H6 H 0.86170 0.40710 -0.20440
H7 H 0.99090 0.74720 -0.02830
H8 H 0.92830 0.72440 -0.28530
H9 H 0.97210 0.33140 -0.18690
H10 H 0.90440 0.87370 -0.07010
H11 H 0.97010 0.90120 -0.18850
H12 H 0.90540 0.95170 -0.21640
#END
