
#######################################################################
#
#                 Cambridge Crystallographic Data Centre
#                                CCDC
#
#######################################################################
#
# If this CIF has been generated from an entry in the Cambridge
# Structural Database, then it will include bibliographic, chemical,
# crystal, experimental, refinement or atomic coordinate data resulting
# from the CCDC's data processing and validation procedures.
#
#######################################################################

data_CSD_CIF_SARXOA
_audit_creation_date 2012-08-20
_audit_creation_method CSD-ConQuest-V1
_database_code_CSD SARXOA
_database_code_depnum_ccdc_archive 'CCDC 881081'
_chemical_formula_sum 'C35 H35 N5 O11'
_chemical_formula_moiety
;
C35 H35 N5 O11
;
_journal_coden_Cambridge 1336
_journal_volume 14
_journal_year 2012
_journal_page_first 1704
_journal_name_full 'Org.Lett. '
loop_
_publ_author_name
"C.D.Weatherly"
"J.W.Rigoli"
"J.M.Schomaker"
_chemical_name_systematic
;
1-[5,5-dimethyl-3-(4-nitrobenzoyl)-2-oxo-1,3-oxazinan-4-yl]-2-[(1,3-dioxo-1,3-
dihydro-2H-isoindol-2-yl)amino]heptyl 4-nitrobenzoate
;
_cell_volume   1635.596
_exptl_crystal_density_diffrn 1.425
_diffrn_ambient_temperature 100
#These two values have been output from a single CSD field.
_refine_ls_R_factor_gt 0.0441
_refine_ls_wR_factor_gt 0.0441
_symmetry_cell_setting triclinic
_symmetry_space_group_name_H-M 'P -1'
_symmetry_Int_Tables_number 2
loop_
_symmetry_equiv_pos_site_id
_symmetry_equiv_pos_as_xyz
1 x,y,z
2 -x,-y,-z
_cell_length_a 11.5843(11)
_cell_length_b 12.0276(13)
_cell_length_c 12.9101(15)
_cell_angle_alpha 73.125(7)
_cell_angle_beta 78.428(9)
_cell_angle_gamma 73.353(5)
_cell_formula_units_Z 2
loop_
_atom_type_symbol
_atom_type_radius_bond
C 0.68
H 0.23
N 0.68
O 0.68
loop_
_atom_site_label
_atom_site_type_symbol
_atom_site_fract_x
_atom_site_fract_y
_atom_site_fract_z
O1 O 0.58916(16) 0.57478(15) 0.33854(14)
O2 O 0.50621(14) 0.37162(14) 0.12357(13)
O3 O 0.28133(13) 0.57021(13) 0.17800(12)
O4 O 0.26580(14) 0.49068(13) 0.04402(13)
O5 O 0.10081(16) 0.09885(15) 0.56167(14)
O6 O 0.13877(16) -0.00048(15) 0.43787(14)
O7 O -0.03138(14) 0.71195(15) 0.15404(13)
O8 O -0.06301(15) 0.74095(16) -0.01540(14)
O9 O 0.23941(14) 0.83855(14) -0.13647(13)
O10 O 0.13387(19) 0.61014(16) -0.51597(14)
O11 O 0.10870(17) 0.45186(15) -0.39087(14)
N1 N 0.53425(17) 0.50051(17) 0.21304(16)
N2 N 0.53182(17) 0.60178(17) 0.12498(17)
H1 H 0.548(2) 0.575(2) 0.064(2)
N3 N 0.13408(17) 0.08933(17) 0.46708(17)
N4 N 0.12032(16) 0.75668(15) 0.01058(14)
N5 N 0.12043(18) 0.55459(18) -0.41999(16)
C1 C 0.5687(2) 0.4935(2) 0.3136(2)
C2 C 0.5725(2) 0.3690(2) 0.3788(2)
C3 C 0.5974(2) 0.3136(2) 0.4849(2)
H2 H 0.61080 0.35720 0.53020
C4 C 0.6021(2) 0.1921(2) 0.5226(2)
H3 H 0.61870 0.15180 0.59500
C5 C 0.5827(2) 0.1286(2) 0.4559(2)
H4 H 0.58760 0.04530 0.48330
C6 C 0.5564(2) 0.1848(2) 0.3494(2)
H5 H 0.54280 0.14160 0.30390
C7 C 0.5509(2) 0.3057(2) 0.3132(2)
C8 C 0.5269(2) 0.3900(2) 0.2050(2)
C9 C 0.4211(2) 0.6997(2) 0.12617(19)
H6 H 0.40010 0.71480 0.20070
C10 C 0.4526(2) 0.8120(2) 0.0439(2)
H7 H 0.46080 0.80210 -0.03090
H8 H 0.38430 0.88230 0.05090
C11 C 0.5687(2) 0.8374(2) 0.0589(2)
H9 H 0.58380 0.90870 0.00150
H10 H 0.63770 0.76860 0.04920
C12 C 0.5647(2) 0.8593(2) 0.1701(2)
H11 H 0.49270 0.92480 0.18180
H12 H 0.55480 0.78610 0.22740
C13 C 0.6773(2) 0.8920(2) 0.1825(2)
H13 H 0.67520 0.97550 0.14030
H14 H 0.75010 0.83910 0.15160
C14 C 0.6876(3) 0.8805(3) 0.3008(2)
H15 H 0.75740 0.90940 0.30420
H16 H 0.69890 0.79630 0.34130
H17 H 0.61320 0.92830 0.33330
C15 C 0.3106(2) 0.67499(19) 0.09588(19)
H18 H 0.33690 0.65180 0.02480
C16 C 0.26115(19) 0.4851(2) 0.13974(19)
C17 C 0.23017(19) 0.38303(19) 0.22932(19)
C18 C 0.2140(2) 0.2876(2) 0.1972(2)
H19 H 0.22300 0.28970 0.12190
C19 C 0.1848(2) 0.1905(2) 0.2753(2)
H20 H 0.17470 0.12450 0.25470
C20 C 0.1705(2) 0.19088(19) 0.38411(19)
C21 C 0.1842(2) 0.2845(2) 0.4185(2)
H21 H 0.17250 0.28280 0.49390
C22 C 0.2157(2) 0.3810(2) 0.33949(19)
H22 H 0.22750 0.44590 0.36070
C23 C 0.19449(19) 0.7794(2) 0.08160(18)
H23 H 0.22300 0.85250 0.03870
C24 C 0.1114(2) 0.81324(19) 0.18280(18)
C25 C 0.1824(2) 0.8145(2) 0.27069(19)
H24 H 0.22940 0.73310 0.30010
H25 H 0.12540 0.84390 0.32960
H26 H 0.23770 0.86730 0.23840
C26 C 0.0273(2) 0.9389(2) 0.1475(2)
H27 H 0.07650 0.99740 0.11450
H28 H -0.02620 0.96050 0.21150
H29 H -0.02200 0.93850 0.09420
C27 C 0.0349(2) 0.7232(2) 0.23333(19)
H30 H 0.08820 0.64420 0.26330
H31 H -0.02340 0.74860 0.29440
C28 C 0.0050(2) 0.7368(2) 0.04626(19)
C29 C 0.16502(19) 0.77933(19) -0.10197(18)
C30 C 0.13228(19) 0.72317(19) -0.17867(18)
C31 C 0.13117(19) 0.7878(2) -0.28772(18)
H32 H 0.13590 0.86900 -0.30770
C32 C 0.1233(2) 0.7344(2) -0.36701(19)
H33 H 0.12110 0.77820 -0.44110
C33 C 0.1186(2) 0.6152(2) -0.33509(18)
C34 C 0.1177(2) 0.5492(2) -0.22720(19)
H34 H 0.11330 0.46790 -0.20770
C35 C 0.1233(2) 0.6045(2) -0.14860(19)
H35 H 0.12110 0.56160 -0.07410
#END
