
#######################################################################
#
#                 Cambridge Crystallographic Data Centre
#                                CCDC
#
#######################################################################
#
# If this CIF has been generated from an entry in the Cambridge
# Structural Database, then it will include bibliographic, chemical,
# crystal, experimental, refinement or atomic coordinate data resulting
# from the CCDC's data processing and validation procedures.
#
#######################################################################

data_CSD_CIF_SARXUE
_audit_creation_date 1990-01-22
_audit_creation_method CSD-ConQuest-V1
_database_code_CSD SARXUE
_database_code_depnum_ccdc_archive 'CCDC 1255211'
_chemical_formula_sum 'C22 H18 N4 O8'
_chemical_formula_moiety
;
C22 H18 N4 O8
;
_journal_coden_Cambridge 683
_journal_volume 4
_journal_year 1988
_journal_page_first 200
_journal_name_full 'Wuli Huaxue Xuebao(Chin.)(Acta Phys.-Chim.Sin) '
loop_
_publ_author_name
"Yang Qingchuan"
"Hu Yonglin"
"Tang Youqi"
"Yang Dilun"
"Liu Youcheng"
_chemical_name_systematic
;
meso-Diethyl 2,3-dicyano-2,3-di-p-nitrophenylsuccinate
;
_cell_volume    551.275
_exptl_crystal_density_diffrn 1.405
_exptl_special_details
;
X(O1)=0.6182 not 0.6102

;
_diffrn_ambient_temperature ?
_diffrn_special_details
;
The study was carried out at room temperature,in the range 283-303K

;
#These two values have been output from a single CSD field.
_refine_ls_R_factor_gt 0.064
_refine_ls_wR_factor_gt 0.064
_symmetry_cell_setting triclinic
_symmetry_space_group_name_H-M 'P -1'
_symmetry_Int_Tables_number 2
loop_
_symmetry_equiv_pos_site_id
_symmetry_equiv_pos_as_xyz
1 x,y,z
2 -x,-y,-z
_cell_length_a 7.860(3)
_cell_length_b 8.350(2)
_cell_length_c 9.303(3)
_cell_angle_alpha 89.29(2)
_cell_angle_beta 65.49(2)
_cell_angle_gamma 83.27(2)
_cell_formula_units_Z 1
loop_
_atom_type_symbol
_atom_type_radius_bond
C 0.68
N 0.68
O 0.68
loop_
_atom_site_label
_atom_site_type_symbol
_atom_site_fract_x
_atom_site_fract_y
_atom_site_fract_z
C1 C 0.5196(3) 0.5849(2) 0.4573(2)
C2 C 0.7041(3) 0.6248(3) 0.4415(3)
C3 C 0.5303(3) 0.5666(3) 0.2874(3)
C4 C 0.6366(4) 0.6861(4) 0.0355(3)
C5 C 0.8110(5) 0.5878(5) -0.0696(4)
C6 C 0.3632(3) 0.7218(3) 0.5479(3)
C7 C 0.1933(3) 0.7347(3) 0.5335(3)
C8 C 0.0495(4) 0.8533(3) 0.6198(4)
C9 C 0.0790(4) 0.9584(3) 0.7179(3)
C10 C 0.2459(4) 0.9524(3) 0.7297(3)
C11 C 0.3897(4) 0.8341(3) 0.6442(3)
N1 N 0.8457(3) 0.6594(3) 0.4247(3)
N2 N -0.0791(4) 1.0795(3) 0.8166(3)
O1 O 0.6182(3) 0.6816(2) 0.1996(6)
O2 O 0.4595(3) 0.4685(2) 0.2481(2)
O3 O -0.2243(5) 1.0870(4) 0.7992(2)
O4 O -0.0524(4) 1.1657(3) 0.9098(3)
C1A C 0.4804(3) 0.4151(2) 0.5427(2)
C2A C 0.2959(3) 0.3752(3) 0.5585(3)
C3A C 0.4697(3) 0.4334(3) 0.7126(3)
C6A C 0.6368(3) 0.2782(3) 0.4521(3)
N1A N 0.1543(3) 0.3406(3) 0.5753(3)
O1A O 0.3818(3) 0.3184(2) 0.8004(6)
O2A O 0.5405(3) 0.5315(2) 0.7519(2)
C7A C 0.8067(3) 0.2653(3) 0.4665(3)
C11A C 0.6103(4) 0.1659(3) 0.3558(3)
C4A C 0.3634(4) 0.3139(4) 0.9645(3)
C8A C 0.9505(4) 0.1467(3) 0.3802(4)
C10A C 0.7541(4) 0.0476(3) 0.2703(3)
C5A C 0.1890(5) 0.4122(5) 1.0696(4)
C9A C 0.9210(4) 0.0416(3) 0.2821(3)
N2A N 1.0791(4) -0.0795(3) 0.1834(3)
O3A O 1.2243(5) -0.0870(4) 0.2008(2)
O4A O 1.0524(4) -0.1657(3) 0.0902(3)
#END
