
#######################################################################
#
#                 Cambridge Crystallographic Data Centre
#                                CCDC
#
#######################################################################
#
# If this CIF has been generated from an entry in the Cambridge
# Structural Database, then it will include bibliographic, chemical,
# crystal, experimental, refinement or atomic coordinate data resulting
# from the CCDC's data processing and validation procedures.
#
#######################################################################

data_CSD_CIF_SASCEW
_audit_creation_date 2012-08-21
_audit_creation_method CSD-ConQuest-V1
_database_code_CSD SASCEW
_database_code_depnum_ccdc_archive 'CCDC 881094'
_chemical_formula_sum 'C24 H26 N2 O6'
_chemical_formula_moiety
;
C24 H26 N2 O6
;
_journal_coden_Cambridge 1336
_journal_volume 14
_journal_year 2012
_journal_page_first 1834
_journal_name_full 'Org.Lett. '
loop_
_publ_author_name
"K.Albertshofer"
"Bin Tan"
"C.F.Barbas III"
_chemical_name_systematic
;
t-Butyl 
4-hydroxy-4-methyl-3-nitro-2'-oxo-2-phenylspiro[cyclopentane-1,3'-indole]-1'(2
'H)-carboxylate
;
_cell_volume   1131.406
_exptl_crystal_colour 'colorless'
_exptl_crystal_density_diffrn 1.287
_exptl_crystal_description 'block'
_diffrn_ambient_temperature 100
#These two values have been output from a single CSD field.
_refine_ls_R_factor_gt 0.0311
_refine_ls_wR_factor_gt 0.0311
_symmetry_cell_setting monoclinic
_symmetry_space_group_name_H-M 'P 21'
_symmetry_Int_Tables_number 4
loop_
_symmetry_equiv_pos_site_id
_symmetry_equiv_pos_as_xyz
1 x,y,z
2 -x,1/2+y,-z
_cell_length_a 10.0860(2)
_cell_length_b 10.0695(2)
_cell_length_c 11.2217(2)
_cell_angle_alpha 90
_cell_angle_beta 96.911(1)
_cell_angle_gamma 90
_cell_formula_units_Z 2
loop_
_atom_type_symbol
_atom_type_radius_bond
C 0.68
H 0.23
N 0.68
O 0.68
loop_
_atom_site_label
_atom_site_type_symbol
_atom_site_fract_x
_atom_site_fract_y
_atom_site_fract_z
O1 O 0.44669(10) 0.32722(10) 0.48775(9)
H1 H 0.43450 0.35360 0.55660
O2 O 0.61245(10) -0.08159(10) 0.29425(9)
O3 O 0.65884(14) 0.14732(14) 0.72796(10)
O4 O 0.71980(12) 0.32191(12) 0.6363(1)
O5 O 0.79661(12) 0.01547(11) -0.00866(10)
O6 O 0.78515(11) -0.1340(1) 0.14105(9)
N1 N 0.66939(12) 0.21113(12) 0.63695(10)
N2 N 0.67431(11) 0.05926(12) 0.14574(10)
C1 C 0.67620(13) 0.20170(13) 0.41347(12)
H2 H 0.67420 0.30090 0.41730
C2 C 0.61157(14) 0.14973(14) 0.52024(12)
H3 H 0.62130 0.05100 0.52510
C3 C 0.46119(13) 0.18673(14) 0.48881(12)
C4 C 0.43806(14) 0.13970(14) 0.35749(12)
H4 H 0.36650 0.19290 0.31200
H5 H 0.41080 0.04520 0.35380
C5 C 0.57083(13) 0.15762(13) 0.30299(12)
C6 C 0.62028(13) 0.02825(14) 0.25152(12)
C7 C 0.63899(13) 0.19337(14) 0.11115(13)
C8 C 0.57403(13) 0.25164(15) 0.20034(12)
C9 C 0.52524(14) 0.38032(14) 0.18738(13)
H6 H 0.47990 0.41980 0.24790
C10 C 0.54425(15) 0.45033(15) 0.08368(14)
H7 H 0.51310 0.53910 0.07360
C11 C 0.60869(15) 0.39070(15) -0.00506(13)
H8 H 0.62030 0.43980 -0.07540
C12 C 0.65697(13) 0.26046(15) 0.00613(12)
H9 H 0.70000 0.21980 -0.05520
C13 C 0.81842(14) 0.16145(15) 0.40138(12)
C14 C 0.89450(15) 0.24610(16) 0.33823(13)
H10 H 0.86040 0.33090 0.31330
C15 C 1.02023(17) 0.20714(19) 0.31143(16)
H11 H 1.07110 0.26480 0.26770
C16 C 1.07082(16) 0.0838(2) 0.34884(16)
H12 H 1.15560 0.05630 0.32900
C17 C 0.99825(16) 0.00065(19) 0.41494(15)
H13 H 1.03410 -0.08270 0.44220
C18 C 0.87219(15) 0.03962(16) 0.44141(13)
H14 H 0.82270 -0.01740 0.48710
C19 C 0.36942(14) 0.12249(14) 0.57023(13)
H15 H 0.39440 0.15230 0.65300
H16 H 0.37790 0.02570 0.56630
H17 H 0.27680 0.14810 0.54380
C20 C 0.75810(14) -0.02130(14) 0.08292(13)
C21 C 0.86766(15) -0.23703(16) 0.08913(14)
C22 C 0.79339(18) -0.28405(17) -0.02963(16)
H18 H 0.70220 -0.30960 -0.01770
H19 H 0.83980 -0.36070 -0.05890
H20 H 0.79040 -0.21210 -0.08870
C23 C 1.00626(17) -0.18369(19) 0.07660(19)
H21 H 0.99990 -0.11520 0.01420
H22 H 1.06320 -0.25630 0.05440
H23 H 1.04510 -0.14520 0.15320
C24 C 0.8739(2) -0.34585(18) 0.18360(17)
H24 H 0.91200 -0.30980 0.26140
H25 H 0.93020 -0.41870 0.16070
H26 H 0.78370 -0.37920 0.18960
#END
