
#######################################################################
#
#                 Cambridge Crystallographic Data Centre
#                                CCDC
#
#######################################################################
#
# If this CIF has been generated from an entry in the Cambridge
# Structural Database, then it will include bibliographic, chemical,
# crystal, experimental, refinement or atomic coordinate data resulting
# from the CCDC's data processing and validation procedures.
#
#######################################################################

data_CSD_CIF_SASMEH
_audit_creation_date 2017-06-27
_audit_creation_method CSD-ConQuest-V1
_database_code_CSD SASMEH
_database_code_depnum_ccdc_archive 'CCDC 1548026'
_chemical_formula_sum 'C15 H13 N5 O5'
_chemical_formula_moiety
;
C15 H13 N5 O5
;
_journal_coden_Cambridge 574
_journal_volume 146
_journal_year 2017
_journal_page_first 37
_journal_name_full 'Dyes Pigm. '
loop_
_publ_author_name
"Hui-Fen Qian"
"Ya-Nan Feng"
"Yuan-Yuan Wang"
"Xiao-Lei Zhao"
"Wei Huang"
_chemical_name_systematic
;
1-ethyl-5-(2-(2-hydroxy-4-nitrophenyl)hydrazinylidene)-4-methyl-2,6-dioxo-1,2,
5,6-tetrahydropyridine-3-carbonitrile
;
_cell_volume   3117.874
_exptl_crystal_colour 'orange'
_exptl_crystal_density_diffrn 1.463
_exptl_crystal_description 'block'
_diffrn_ambient_temperature 291
#These two values have been output from a single CSD field.
_refine_ls_R_factor_gt 0.0451
_refine_ls_wR_factor_gt 0.0451
_symmetry_cell_setting monoclinic
_symmetry_space_group_name_H-M 'P 21/c'
_symmetry_Int_Tables_number 14
loop_
_symmetry_equiv_pos_site_id
_symmetry_equiv_pos_as_xyz
1 x,y,z
2 -x,1/2+y,1/2-z
3 -x,-y,-z
4 x,-1/2-y,-1/2+z
_cell_length_a 12.2577(10)
_cell_length_b 17.2712(14)
_cell_length_c 18.9856(16)
_cell_angle_alpha 90
_cell_angle_beta 129.130(1)
_cell_angle_gamma 90
_cell_formula_units_Z 8
loop_
_atom_type_symbol
_atom_type_radius_bond
C 0.68
H 0.23
N 0.68
O 0.68
loop_
_atom_site_label
_atom_site_type_symbol
_atom_site_fract_x
_atom_site_fract_y
_atom_site_fract_z
C1 C 1.31994(18) 0.22666(10) 0.97100(12)
C2 C 1.21645(19) 0.24761(11) 0.97597(13)
H1 H 1.21260 0.29750 0.99270
C3 C 1.11905(19) 0.19264(11) 0.95550(13)
H2 H 1.04860 0.20510 0.95880
C4 C 1.12557(18) 0.11887(10) 0.93004(12)
C5 C 1.23235(18) 0.09863(10) 0.92592(13)
C6 C 1.33131(19) 0.15328(11) 0.94750(13)
H3 H 1.40390 0.14100 0.94620
C7 C 0.83540(18) 0.01835(10) 0.88704(12)
C8 C 0.72570(19) 0.03874(11) 0.89166(13)
C9 C 0.63120(19) -0.01734(11) 0.86955(13)
C10 C 0.6336(2) -0.09581(11) 0.84151(14)
C11 C 0.84430(19) -0.06009(11) 0.86135(13)
C12 C 0.7199(2) 0.11805(12) 0.91998(17)
H4 H 0.64180 0.12160 0.92000
H5 H 0.70860 0.15530 0.87830
H6 H 0.80560 0.12840 0.97990
C13 C 0.5218(2) -0.00322(11) 0.87534(14)
C14 C 0.7588(2) -0.19478(11) 0.82195(14)
H7 H 0.72690 -0.22990 0.84540
H8 H 0.85710 -0.20590 0.85270
C15 C 0.6756(3) -0.20850(14) 0.72270(16)
H9 H 0.57760 -0.20050 0.69240
H10 H 0.69000 -0.26070 0.71280
H11 H 0.70570 -0.17310 0.69900
N1 N 1.42391(17) 0.28452(10) 0.99196(11)
N2 N 1.03014(15) 0.06029(9) 0.90752(10)
H12 H 1.03960 0.01510 0.89290
N3 N 0.92591(15) 0.07385(9) 0.90864(11)
N4 N 0.74536(16) -0.11378(9) 0.84198(11)
N5 N 0.43761(19) 0.0082(1) 0.88225(14)
O1 O 1.52791(15) 0.26291(9) 1.00201(12)
O2 O 1.40096(17) 0.35253(9) 0.99712(12)
O3 O 1.22947(14) 0.02521(7) 0.90018(11)
H13 H 1.29310 0.01920 0.89750
O4 O 0.93775(14) -0.07858(8) 0.85782(10)
O5 O 0.54554(16) -0.14384(9) 0.82032(12)
C16 C 0.20991(19) -0.09918(11) 0.55552(14)
C17 C 0.3071(2) -0.12016(11) 0.54489(14)
H14 H 0.29860 -0.16670 0.51720
C18 C 0.41739(19) -0.07042(11) 0.57638(13)
H15 H 0.48320 -0.08270 0.56870
C19 C 0.43018(18) -0.00253(10) 0.61923(13)
C20 C 0.3296(2) 0.01818(11) 0.62867(14)
C21 C 0.2178(2) -0.03084(12) 0.59557(14)
H16 H 0.14900 -0.01790 0.60030
C22 C 0.73990(17) 0.0876(1) 0.67996(12)
C23 C 0.85090(18) 0.06595(11) 0.67725(12)
C24 C 0.94574(18) 0.12169(11) 0.69843(13)
C25 C 0.9440(2) 0.20090(12) 0.72533(14)
C26 C 0.7360(2) 0.16534(11) 0.70902(14)
C27 C 0.8581(2) -0.01403(11) 0.65147(15)
H17 H 0.92780 -0.01620 0.64330
H18 H 0.76820 -0.02820 0.59580
H19 H 0.88310 -0.04930 0.69860
C28 C 1.0577(2) 0.10726(12) 0.69531(14)
C29 C 0.8376(3) 0.29626(13) 0.76227(18)
H20 H 0.78750 0.29470 0.78630
H21 H 0.93370 0.31200 0.81090
C30 C 0.7716(3) 0.35294(17) 0.6892(2)
H22 H 0.82120 0.35470 0.66550
H23 H 0.77440 0.40300 0.71230
H24 H 0.67560 0.33840 0.64180
N6 N 0.09149(18) -0.15126(11) 0.52251(13)
N7 N 0.54038(15) 0.04977(9) 0.65461(11)
H25 H 0.54020 0.09290 0.67720
N8 N 0.64398(15) 0.03390(9) 0.65379(10)
N9 N 0.83779(17) 0.21754(9) 0.73038(12)
N10 N 1.14639(19) 0.09741(12) 0.69266(14)
O6 O -0.00086(17) -0.1289(1) 0.52465(13)
O7 O 0.09097(18) -0.21494(10) 0.49409(15)
O8 O 0.35026(15) 0.08628(9) 0.67062(12)
H26 H 0.29270 0.09080 0.67910
O9 O 0.64569(15) 0.18441(8) 0.71545(11)
O10 O 1.03036(16) 0.24900(9) 0.74389(12)
#END
