
#######################################################################
#
#                 Cambridge Crystallographic Data Centre
#                                CCDC
#
#######################################################################
#
# If this CIF has been generated from an entry in the Cambridge
# Structural Database, then it will include bibliographic, chemical,
# crystal, experimental, refinement or atomic coordinate data resulting
# from the CCDC's data processing and validation procedures.
#
#######################################################################

data_CSD_CIF_SASRAF01
_audit_creation_date 1999-01-22
_audit_creation_method CSD-ConQuest-V1
_database_code_CSD SASRAF01
_database_code_depnum_ccdc_archive 'CCDC 109732'
_chemical_formula_sum 'C40 H44 N4 O12'
_chemical_formula_moiety
;
C40 H44 N4 O12
;
_journal_coden_Cambridge 4
_journal_volume 120
_journal_year 1998
_journal_page_first 7875
_journal_name_full 'J.Am.Chem.Soc. '
loop_
_publ_author_name
"P.J.A.Kenis"
"O.F.J.Noordman"
"S.Houbrechts"
"G.J.van Hummel"
"S.Harkema"
"F.C.J.M.van Veggel"
"K.Clays"
"J.F.J.Engbersen"
"A.Persoons"
"N.F.van Hulst"
"D.N.Reinhoudt"
_chemical_name_systematic
;
5,11,17,23-Tetranitro-25,26,27,28-tetra-n-propoxypentacyclo(19.3.1.1^3,7^.1^9,
13^.1^15,19^)octacosa-1(25),3,5,7(28),9,11,13(27),15,17,19(26),21,23-dodecaene
 unknown solvate
;
_chemical_name_common
;
Tetranitrotetra-n-propoxycalix(4)arene unknown solvate
;
_cell_volume  16267.244
_exptl_crystal_colour 'colorless'
_exptl_crystal_density_diffrn 1.26
_exptl_special_details
;
cone conformer
Solvent molecules are refined as C atoms

;
_exptl_crystal_description 'prism'
_exptl_crystal_preparation 'chloroform/methanol'
_diffrn_ambient_temperature ?
_diffrn_special_details
;
The study was carried out at room temperature,in the range 283-303K

;
_refine_special_details
;
Terminal methyl C34 is disordered over two postions; the unknown solvent 
molecules are also disordered and are possibly methanol.
;
#These two values have been output from a single CSD field.
_refine_ls_R_factor_gt 0.106
_refine_ls_wR_factor_gt 0.106
_symmetry_cell_setting orthorhombic
_symmetry_space_group_name_H-M 'F d d d'
_symmetry_Int_Tables_number 70
loop_
_symmetry_equiv_pos_site_id
_symmetry_equiv_pos_as_xyz
1 x,y,z
2 1/4-x,1/4-y,z
3 x,1/4-y,1/4-z
4 1/4-x,y,1/4-z
5 x,1/2+y,1/2+z
6 1/4-x,3/4-y,1/2+z
7 x,3/4-y,3/4-z
8 1/4-x,1/2+y,3/4-z
9 1/2+x,y,1/2+z
10 3/4-x,1/4-y,1/2+z
11 1/2+x,1/4-y,3/4-z
12 3/4-x,y,3/4-z
13 1/2+x,1/2+y,z
14 3/4-x,3/4-y,z
15 1/2+x,3/4-y,1/4-z
16 3/4-x,1/2+y,1/4-z
17 -x,-y,-z
18 -1/4+x,-1/4+y,-z
19 -x,-1/4+y,-1/4+z
20 -1/4+x,-y,-1/4+z
21 -x,-1/2-y,-1/2-z
22 -1/4+x,-3/4+y,-1/2-z
23 -x,-3/4+y,-3/4+z
24 -1/4+x,-1/2-y,-3/4+z
25 -1/2-x,-y,-1/2-z
26 -3/4+x,-1/4+y,-1/2-z
27 -1/2-x,-1/4+y,-3/4+z
28 -3/4+x,-y,-3/4+z
29 -1/2-x,-1/2-y,-z
30 -3/4+x,-3/4+y,-z
31 -1/2-x,-3/4+y,-1/4+z
32 -3/4+x,-1/2-y,-1/4+z
_cell_length_a 23.936(2)
_cell_length_b 33.007(2)
_cell_length_c 20.590(2)
_cell_angle_alpha 90
_cell_angle_beta 90
_cell_angle_gamma 90
_cell_formula_units_Z 16
loop_
_atom_type_symbol
_atom_type_radius_bond
C 0.68
N 0.68
O 0.68
loop_
_atom_site_label
_atom_site_type_symbol
_atom_site_fract_x
_atom_site_fract_y
_atom_site_fract_z
O1 O 0.3202(3) -0.0214(2) 0.2690(5)
O2 O 0.4098(3) -0.0182(2) 0.2638(6)
O3 O 0.3518(2) 0.1650(2) 0.2387(3)
O4 O 0.1048(3) 0.0552(2) 0.4865(5)
O5 O 0.0931(3) 0.0499(2) 0.3826(5)
O6 O 0.3071(2) 0.1557(2) 0.3867(3)
N1 N 0.3641(3) -0.0020(2) 0.2655(5)
N2 N 0.1186(3) 0.0622(3) 0.4312(5)
C1 C 0.3604(4) 0.0423(2) 0.2636(5)
C2 C 0.4106(4) 0.0636(3) 0.2514(4)
C3 C 0.4069(3) 0.1056(2) 0.2450(4)
C4 C 0.3552(3) 0.1238(2) 0.2478(4)
C5 C 0.3071(3) 0.1027(2) 0.2623(4)
C6 C 0.3088(3) 0.0606(2) 0.2685(5)
C7 C 0.3437(8) 0.1768(3) 0.1711(5)
C8 C 0.322(1) 0.2222(4) 0.1748(6)
C9 C 0.2798(5) 0.2327(4) 0.157(1)
C10 C 0.2506(3) 0.1243(3) 0.2731(5)
C11 C 0.1702(3) 0.0854(3) 0.4187(5)
C12 C 0.1821(4) 0.0932(2) 0.3542(6)
C13 C 0.2314(3) 0.1168(2) 0.3427(5)
C14 C 0.2620(3) 0.1318(2) 0.3968(4)
C15 C 0.2500(3) 0.1198(3) 0.4596(5)
C16 C 0.2026(4) 0.0961(3) 0.4719(6)
C17 C 0.2956(4) 0.1972(2) 0.3637(4)
C18 C 0.2902(4) 0.2255(3) 0.4223(4)
C19 C 0.2776(5) 0.2678(3) 0.3885(5)
C20 C 0.4606(4) 0.1300(3) 0.2358(4)
C21? C 0.279(2) 0.277(1) 0.409(2)
C22? C 0.1016(8) 0.0945(6) 0.150(1)
C23? C 0.12500 0.12500 0.63000
C24? C 0.07100 -0.06000 0.16100
C25? C 0.0861(9) 0.1008(6) 0.120(1)
C26? C 0.073(1) 0.1124(7) 0.617(2)
C27? C 0.062(1) 0.118(1) 0.12200
C20K C 0.2894(4) 0.1300(3) 0.5142(4)
C3K C 0.3431(3) 0.1056(2) 0.5050(4)
C2K C 0.3394(4) 0.0636(3) 0.4986(4)
C1K C 0.3896(4) 0.0423(2) 0.4864(5)
N1K N 0.3859(3) -0.0020(2) 0.4845(5)
O1K O 0.4298(3) -0.0214(2) 0.4810(5)
O2K O 0.3402(3) -0.0182(2) 0.4862(6)
C6K C 0.4412(3) 0.0606(2) 0.4815(5)
C5K C 0.4429(3) 0.1027(2) 0.4877(4)
C4K C 0.3948(3) 0.1238(2) 0.5022(4)
O3K O 0.3982(2) 0.1650(2) 0.5113(3)
C7K C 0.4063(8) 0.1768(3) 0.5789(5)
C8K C 0.428(1) 0.2222(4) 0.5752(6)
C9K C 0.4702(5) 0.2327(4) 0.593(1)
C10K C 0.4994(3) 0.1243(3) 0.4769(5)
C13K C 0.5186(3) 0.1168(2) 0.4073(5)
C12K C 0.5679(4) 0.0932(2) 0.3958(6)
C11K C 0.5798(3) 0.0854(3) 0.3313(5)
N2K N 0.6314(3) 0.0622(3) 0.3188(5)
O4K O 0.6452(3) 0.0552(2) 0.2635(5)
O5K O 0.6569(3) 0.0499(2) 0.3674(5)
C16K C 0.5474(4) 0.0961(3) 0.2781(6)
C15K C 0.5000(3) 0.1198(3) 0.2904(5)
C14K C 0.4880(3) 0.1318(2) 0.3532(4)
O6K O 0.4429(2) 0.1557(2) 0.3633(3)
C17K C 0.4544(4) 0.1972(2) 0.3863(4)
C18K C 0.4598(4) 0.2255(3) 0.3277(4)
C19K C 0.4724(5) 0.2678(3) 0.3615(5)
#END
