
#######################################################################
#
#                 Cambridge Crystallographic Data Centre
#                                CCDC
#
#######################################################################
#
# If this CIF has been generated from an entry in the Cambridge
# Structural Database, then it will include bibliographic, chemical,
# crystal, experimental, refinement or atomic coordinate data resulting
# from the CCDC's data processing and validation procedures.
#
#######################################################################

data_CSD_CIF_SASWAN
_audit_creation_date 2017-06-27
_audit_creation_method CSD-ConQuest-V1
_database_code_CSD SASWAN
_database_code_depnum_ccdc_archive 'CCDC 857094'
_chemical_formula_sum 'C19 H19 N3 O4'
_chemical_formula_moiety
;
C19 H19 N3 O4
;
_journal_coden_Cambridge 1127
_journal_volume 27
_journal_year 2017
_journal_page_first 3878
_journal_name_full 'Bioorg.Med.Chem.Lett. '
loop_
_publ_author_name
"G.A.McConkey"
"P.T.P.Bedingfield"
"D.R.Burrell"
"N.C.Chambers"
"F.Cunningham"
"T.J.Prior"
"C.W.G.Fishwick"
"A.N.Boa"
_chemical_name_systematic
;
ethyl 3-[(9-ethyl-9H-carbazol-3-yl)amino]-2-nitroprop-2-enoate
;
_cell_volume    819.376
_exptl_crystal_colour 'dark orange'
_exptl_crystal_density_diffrn 1.432
_exptl_special_details
;
inhibitor of Plasmodium falciparum dihydroorotate dehydrogenase (PfDHODH)

;
_exptl_crystal_description 'plate'
_diffrn_ambient_temperature 120
#These two values have been output from a single CSD field.
_refine_ls_R_factor_gt 0.0464
_refine_ls_wR_factor_gt 0.0464
_symmetry_cell_setting triclinic
_symmetry_space_group_name_H-M 'P -1'
_symmetry_Int_Tables_number 2
loop_
_symmetry_equiv_pos_site_id
_symmetry_equiv_pos_as_xyz
1 x,y,z
2 -x,-y,-z
_cell_length_a 8.7617(18)
_cell_length_b 8.8742(18)
_cell_length_c 12.804(2)
_cell_angle_alpha 87.020(16)
_cell_angle_beta 71.107(15)
_cell_angle_gamma 61.257(14)
_cell_formula_units_Z 2
loop_
_atom_type_symbol
_atom_type_radius_bond
C 0.68
H 0.23
N 0.68
O 0.68
loop_
_atom_site_label
_atom_site_type_symbol
_atom_site_fract_x
_atom_site_fract_y
_atom_site_fract_z
N1 N 0.74378(16) 0.62698(16) -0.19279(10)
C1 C 0.88960(19) 0.49449(18) -0.27385(12)
C2 C 0.8862(2) 0.41160(19) -0.36226(12)
H1 H 0.77385 0.44612 -0.37535
C3 C 1.0529(2) 0.2771(2) -0.43019(13)
H2 H 1.05468 0.21806 -0.49075
C4 C 1.2188(2) 0.22657(19) -0.41118(12)
H3 H 1.33044 0.13254 -0.45835
C5 C 1.2237(2) 0.31081(18) -0.32502(12)
H4 H 1.33702 0.27651 -0.31331
C6 C 1.05720(19) 0.44767(17) -0.25581(11)
C7 C 1.00966(18) 0.56336(17) -0.16157(11)
C8 C 1.11357(18) 0.58394(17) -0.10634(11)
H5 H 1.24442 0.51312 -0.13064
C9 C 1.02129(18) 0.71009(17) -0.01530(11)
C10 C 0.82727(19) 0.81147(18) 0.02388(12)
H6 H 0.76682 0.89345 0.08850
C11 C 0.72322(19) 0.79275(18) -0.03111(12)
H7 H 0.59209 0.86162 -0.00513
C12 C 0.81527(18) 0.67087(17) -0.12513(11)
C13 C 0.55344(19) 0.72067(19) -0.19103(12)
H8 H 0.47017 0.77884 -0.11481
H9 H 0.51925 0.63726 -0.21045
C14 C 0.5256(2) 0.8549(2) -0.27156(13)
H10 H 0.61011 0.79835 -0.34687
H11 H 0.55117 0.94222 -0.24965
H12 H 0.39738 0.91085 -0.27025
N2 N 1.13120(16) 0.72663(15) 0.03961(10)
H13 H 1.24928 0.64798 0.01812
C15 C 1.07127(19) 0.84973(18) 0.11995(11)
H14 H 0.94641 0.93885 0.13646
C16 C 1.16426(19) 0.86801(18) 0.18399(11)
N3 N 1.34905(17) 0.74228(16) 0.16802(10)
O1 O 1.43384(14) 0.62877(14) 0.08460(9)
O2 O 1.42547(17) 0.74025(18) 0.23414(11)
C17 C 1.0680(2) 1.01528(19) 0.27314(12)
O3 O 0.88785(14) 1.11198(14) 0.28217(9)
O4 O 1.13617(16) 1.04854(16) 0.32973(10)
C18 C 0.7786(2) 1.26552(19) 0.36405(12)
H15 H 0.67948 1.35588 0.33923
H16 H 0.85876 1.31157 0.36992
C19 C 0.6932(2) 1.2254(2) 0.47615(14)
H17 H 0.79128 1.14329 0.50366
H18 H 0.61882 1.17426 0.46972
H19 H 0.61382 1.33238 0.52823
#END
