
#######################################################################
#
#                 Cambridge Crystallographic Data Centre
#                                CCDC
#
#######################################################################
#
# If this CIF has been generated from an entry in the Cambridge
# Structural Database, then it will include bibliographic, chemical,
# crystal, experimental, refinement or atomic coordinate data resulting
# from the CCDC's data processing and validation procedures.
#
#######################################################################

data_CSD_CIF_SATFAV
_audit_creation_date 2005-10-13
_audit_creation_method CSD-ConQuest-V1
_database_code_CSD SATFAV
_database_code_depnum_ccdc_archive 'CCDC 282540'
_chemical_formula_sum 'C22 H20 N4 O2'
_chemical_formula_moiety
;
C22 H20 N4 O2
;
_journal_coeditor_code "IUCr LH6471"
_journal_coden_Cambridge 1370
_journal_volume 61
_journal_year 2005
_journal_page_first o2625
_journal_name_full 'Acta Crystallogr.,Sect.E:Struct.Rep.Online '
loop_
_publ_author_name
"R.Abonia"
"E.Rengifo"
"J.Cobo"
"J.N.Low"
"C.Glidewell"
_chemical_name_systematic
;
3-t-Butyl-4-(4-nitrophenyl)-1-phenyl-1H-pyrazolo(3,4-b)pyridine
;
_chemical_melting_point 448
_cell_volume    943.755
_exptl_crystal_colour 'colorless'
_exptl_crystal_density_diffrn 1.311
_exptl_special_details
;
Melting point range 448-450K

;
_exptl_crystal_description 'plate'
_diffrn_ambient_temperature 120
#These two values have been output from a single CSD field.
_refine_ls_R_factor_gt 0.0572
_refine_ls_wR_factor_gt 0.0572
_symmetry_cell_setting triclinic
_symmetry_space_group_name_H-M 'P -1'
_symmetry_Int_Tables_number 2
loop_
_symmetry_equiv_pos_site_id
_symmetry_equiv_pos_as_xyz
1 x,y,z
2 -x,-y,-z
_cell_length_a 9.5877(5)
_cell_length_b 9.8541(5)
_cell_length_c 11.7050(4)
_cell_angle_alpha 105.982(2)
_cell_angle_beta 103.570(2)
_cell_angle_gamma 108.433(2)
_cell_formula_units_Z 2
loop_
_atom_type_symbol
_atom_type_radius_bond
C 0.68
H 0.23
N 0.68
O 0.68
loop_
_atom_site_label
_atom_site_type_symbol
_atom_site_fract_x
_atom_site_fract_y
_atom_site_fract_z
O1 O 0.69225(17) 0.83405(17) 0.65880(13)
O2 O 0.46382(19) 0.7917(2) 0.67528(13)
N1 N 0.11065(16) 0.35207(17) -0.22947(13)
N2 N 0.17138(16) 0.51029(17) -0.17602(13)
N3 N 0.09648(17) 0.14201(17) -0.16190(14)
N4 N 0.5484(2) 0.77491(19) 0.61333(15)
C1 C 0.23820(19) 0.5540(2) -0.05157(16)
C2 C 0.22141(19) 0.4193(2) -0.01952(16)
C3 C 0.2566(2) 0.3797(2) 0.08789(17)
C4 C 0.2111(2) 0.2236(2) 0.06525(18)
C5 C 0.1342(2) 0.1116(2) -0.05761(17)
C6 C 0.14011(19) 0.2932(2) -0.13833(16)
C7 C 0.0266(2) 0.2763(2) -0.36273(16)
C8 C 0.0587(2) 0.3567(2) -0.44065(17)
C9 C -0.0246(2) 0.2847(2) -0.57028(18)
C10 C -0.1388(2) 0.1357(2) -0.62257(18)
C11 C -0.1704(2) 0.0575(2) -0.54349(18)
C12 C -0.0891(2) 0.1262(2) -0.41376(18)
C13 C 0.3120(2) 0.7265(2) 0.02705(16)
C14 C 0.3095(2) 0.8158(2) -0.06107(18)
C15 C 0.2145(3) 0.7647(2) 0.10799(19)
C16 C 0.4821(2) 0.7785(2) 0.1107(2)
C17 C 0.3343(2) 0.4888(2) 0.22334(16)
C18 C 0.2448(2) 0.5348(2) 0.29180(17)
C19 C 0.3139(2) 0.6283(2) 0.41949(17)
C20 C 0.4730(2) 0.6759(2) 0.47773(16)
C21 C 0.5651(2) 0.6324(2) 0.41341(17)
C22 C 0.4945(2) 0.5371(2) 0.28592(17)
H1 H 0.23270 0.19240 0.13490
H2 H 0.10700 0.00650 -0.06760
H3 H 0.13670 0.45960 -0.40560
H4 H -0.00260 0.33900 -0.62400
H5 H -0.19500 0.08740 -0.71150
H6 H -0.24920 -0.04500 -0.57890
H7 H -0.11180 0.07180 -0.36030
H8 H 0.35490 0.92690 -0.01010
H9 H 0.20080 0.78380 -0.11540
H10 H 0.37110 0.79400 -0.11410
H11 H 0.10660 0.73330 0.05240
H12 H 0.26100 0.87610 0.15770
H13 H 0.21370 0.70890 0.16560
H14 H 0.52950 0.89110 0.15530
H15 H 0.54110 0.74870 0.05770
H16 H 0.48500 0.72920 0.17290
H17 H 0.13530 0.50150 0.25010
H18 H 0.25280 0.65900 0.46600
H19 H 0.67480 0.66700 0.45570
H20 H 0.55590 0.50430 0.24080
#END
