
#######################################################################
#
#                 Cambridge Crystallographic Data Centre
#                                CCDC
#
#######################################################################
#
# If this CIF has been generated from an entry in the Cambridge
# Structural Database, then it will include bibliographic, chemical,
# crystal, experimental, refinement or atomic coordinate data resulting
# from the CCDC's data processing and validation procedures.
#
#######################################################################

data_CSD_CIF_SATGAV
_audit_creation_date 1999-01-22
_audit_creation_method CSD-ConQuest-V1
_database_code_CSD SATGAV
_database_code_depnum_ccdc_archive 'CCDC 132035'
_chemical_formula_sum 'C24 H39 N1 O3'
_chemical_formula_moiety
;
C24 H39 N1 O3
;
_journal_coeditor_code "IUCr AB0387"
_journal_coden_Cambridge 622
_journal_volume 54
_journal_year 1998
_journal_page_first 866
_journal_name_full 'Acta Crystallogr.,Sect.B:Struct.Sci. '
loop_
_publ_author_name
"J.K.Maurin"
_chemical_name_systematic
;
5\b-Cholanic acid-3-oxime
;
_chemical_melting_point 442
_cell_volume   3725.656
_exptl_crystal_colour 'colorless'
_exptl_crystal_density_diffrn 1.042
_exptl_crystal_description 'bipyramidal'
_diffrn_ambient_temperature 198
#These two values have been output from a single CSD field.
_refine_ls_R_factor_gt 0.0653
_refine_ls_wR_factor_gt 0.0653
_symmetry_cell_setting hexagonal
_symmetry_space_group_name_H-M 'P 61'
_symmetry_Int_Tables_number 169
loop_
_symmetry_equiv_pos_site_id
_symmetry_equiv_pos_as_xyz
1 x,y,z
2 -y,x-y,1/3+z
3 -x+y,-x,2/3+z
4 -x,-y,1/2+z
5 y,-x+y,5/6+z
6 x-y,x,1/6+z
_cell_length_a 14.564(3)
_cell_length_b 14.564(3)
_cell_length_c 20.282(5)
_cell_angle_alpha 90
_cell_angle_beta 90
_cell_angle_gamma 120
_cell_formula_units_Z 6
loop_
_atom_type_symbol
_atom_type_radius_bond
C 0.68
H 0.23
N 0.68
O 0.68
loop_
_atom_site_label
_atom_site_type_symbol
_atom_site_fract_x
_atom_site_fract_y
_atom_site_fract_z
C1 C 0.3915(10) 0.2307(9) 0.58240
C2 C 0.4111(10) 0.1801(9) 0.5241(7)
H1 H 0.354(1) 0.1609(9) 0.4913(7)
H2 H 0.4092(10) 0.1141(9) 0.5382(7)
C3 C 0.5183(9) 0.2544(9) 0.4923(8)
H3 H 0.5264(9) 0.2209(9) 0.4519(8)
H4 H 0.5758(9) 0.2660(9) 0.5232(8)
C4 C 0.5288(7) 0.3626(8) 0.4744(8)
C5 C 0.4475(8) 0.3502(8) 0.4201(7)
H5 H 0.3756(8) 0.3052(8) 0.4399(7)
C6 C 0.4513(9) 0.2905(9) 0.3580(8)
H6 H 0.5234(9) 0.3294(9) 0.3388(8)
H7 H 0.4378(9) 0.2193(9) 0.3712(8)
C7 C 0.3710(9) 0.2782(8) 0.3057(7)
H8 H 0.2987(9) 0.2297(8) 0.3224(7)
H9 H 0.3819(9) 0.2454(8) 0.2659(7)
C8 C 0.3792(7) 0.3837(8) 0.2865(7)
C9 C 0.2871(7) 0.3796(8) 0.2478(7)
H10 H 0.2207(7) 0.3254(8) 0.2701(7)
C10 C 0.2978(9) 0.4893(8) 0.2626(8)
H11 H 0.3376(9) 0.5403(8) 0.2270(8)
H12 H 0.2269(9) 0.4826(8) 0.2664(8)
C11 C 0.3578(9) 0.5264(8) 0.3280(8)
H13 H 0.4276(9) 0.5910(8) 0.3215(8)
H14 H 0.3166(9) 0.5420(8) 0.3605(8)
C12 C 0.3714(7) 0.4348(7) 0.3514(7)
H15 H 0.3021(7) 0.3825(7) 0.3717(7)
C13 C 0.4551(7) 0.4554(7) 0.4029(7)
H16 H 0.5267(7) 0.5037(7) 0.3837(7)
C14 C 0.4405(8) 0.5072(8) 0.4636(7)
H17 H 0.3665(8) 0.4646(8) 0.4794(7)
H18 H 0.4532(8) 0.5787(8) 0.4520(7)
C15 C 0.5168(8) 0.5171(7) 0.5194(7)
H19 H 0.5901(8) 0.5701(7) 0.5065(7)
H20 H 0.4990(8) 0.5434(7) 0.5596(7)
C16 C 0.5123(8) 0.4126(7) 0.5351(7)
H21 H 0.5727(8) 0.4296(7) 0.5655(7)
C17 C 0.4103(9) 0.3417(8) 0.5736(8)
H22 H 0.4147(9) 0.3734(8) 0.6175(8)
H23 H 0.3493(9) 0.3384(8) 0.5499(8)
C18 C 0.2726(7) 0.3529(8) 0.1746(7)
H24 H 0.3298(7) 0.4146(8) 0.1502(7)
C19 C 0.1670(9) 0.3375(10) 0.1512(7)
H25 H 0.1576(9) 0.395(1) 0.1701(7)
H26 H 0.1100(9) 0.2697(10) 0.1694(7)
C20 C 0.1518(9) 0.3363(10) 0.0766(8)
H27 H 0.1910(9) 0.410(1) 0.0599(8)
H28 H 0.1827(9) 0.2964(10) 0.0557(8)
C21 C 0.0375(10) 0.2871(10) 0.0567(8)
C22 C 0.2799(11) 0.257(1) 0.1571(8)
H29 H 0.3481(11) 0.2667(10) 0.1722(8)
H30 H 0.2743(11) 0.2472(10) 0.1092(8)
H31 H 0.2221(11) 0.1945(10) 0.1785(8)
C23 C 0.4864(8) 0.4550(9) 0.2514(8)
H32 H 0.5439(8) 0.4562(9) 0.2772(8)
H33 H 0.4982(8) 0.5272(9) 0.2476(8)
H34 H 0.4849(8) 0.4267(9) 0.2074(8)
C24 C 0.6407(8) 0.4294(9) 0.4492(8)
H35 H 0.6505(8) 0.3962(9) 0.4099(8)
H36 H 0.6908(8) 0.4350(9) 0.4835(8)
H37 H 0.6536(8) 0.5003(9) 0.4381(8)
N1 N 0.3656(8) 0.1792(8) 0.6360(7)
O1 O 0.3520(7) 0.2323(7) 0.6887(6)
H38 H 0.3221(7) 0.1897(7) 0.7199(6)
O2 O -0.0385(7) 0.2338(7) 0.0915(7)
O3 O 0.0286(6) 0.3102(7) -0.0053(6)
H39 H -0.0347(6) 0.2731(7) -0.0176(6)
#END
