
#######################################################################
#
#                 Cambridge Crystallographic Data Centre
#                                CCDC
#
#######################################################################
#
# If this CIF has been generated from an entry in the Cambridge
# Structural Database, then it will include bibliographic, chemical,
# crystal, experimental, refinement or atomic coordinate data resulting
# from the CCDC's data processing and validation procedures.
#
#######################################################################

data_CSD_CIF_SATNEG
_audit_creation_date 1990-01-09
_audit_creation_method CSD-ConQuest-V1
_database_code_CSD SATNEG
_chemical_formula_sum 'C8 H15 N7 O9'
_chemical_formula_moiety
;
C8 H15 N7 O9
;
_journal_coeditor_code "IUCr HH0285"
_journal_coden_Cambridge 591
_journal_volume 45
_journal_year 1989
_journal_page_first 1262
_journal_name_full 'Acta Crystallogr.,Sect.C:Cryst.Struct.Commun. '
loop_
_publ_author_name
"R.Gilardi"
"C.George"
_chemical_name_systematic
;
2,4,6-Trinitro-9-oxo-2,4,6,8-tetra-aza-1-decanyl acetate
;
_cell_volume   3017.379
_exptl_crystal_colour 'colorless'
_exptl_crystal_density_diffrn 1.555
_diffrn_ambient_temperature ?
_diffrn_special_details
;
The study was carried out at room temperature,in the range 283-303K

;
_refine_special_details
;
The acetoxy group is disordered over two sets of positions with occupancies 
of 0.57 and 0.43.
;
#These two values have been output from a single CSD field.
_refine_ls_R_factor_gt 0.066
_refine_ls_wR_factor_gt 0.066
_symmetry_cell_setting orthorhombic
_symmetry_space_group_name_H-M 'P b c a'
_symmetry_Int_Tables_number 61
loop_
_symmetry_equiv_pos_site_id
_symmetry_equiv_pos_as_xyz
1 x,y,z
2 1/2-x,1/2+y,z
3 x,1/2-y,1/2+z
4 1/2-x,-y,1/2+z
5 -x,-y,-z
6 -1/2+x,-1/2-y,-z
7 -x,-1/2+y,-1/2-z
8 -1/2+x,y,-1/2-z
_cell_length_a 12.410(2)
_cell_length_b 9.695(1)
_cell_length_c 25.079(3)
_cell_angle_alpha 90
_cell_angle_beta 90
_cell_angle_gamma 90
_cell_formula_units_Z 8
loop_
_atom_type_symbol
_atom_type_radius_bond
C 0.68
H 0.23
N 0.68
O 0.68
loop_
_atom_site_label
_atom_site_type_symbol
_atom_site_fract_x
_atom_site_fract_y
_atom_site_fract_z
N1 N -0.0328(3) 0.0632(4) 0.2225(2)
C1 C -0.1053(4) 0.0875(5) 0.1791(2)
N2 N -0.0523(4) 0.1061(4) 0.1273(2)
C2 C -0.0385(4) 0.2385(5) 0.1017(2)
N3 N -0.1266(3) 0.2767(4) 0.0662(2)
C3 C -0.1350(4) 0.2316(5) 0.0114(2)
N4 N -0.1120(5) 0.3357(5) -0.0282(2)
C4 C 0.0187(4) 0.1666(6) 0.2467(2)
O1 O 0.0068(3) 0.2862(3) 0.2320(1)
C5 C 0.0875(5) 0.1266(6) 0.2923(2)
N5 N -0.0078(4) -0.0076(5) 0.1042(2)
O2 O 0.0356(3) 0.0067(4) 0.0608(2)
O3 O -0.0158(3) -0.1170(4) 0.1287(2)
N6 N -0.2061(4) 0.3583(5) 0.0854(2)
O4 O -0.2715(3) 0.4035(4) 0.0537(2)
O5 O -0.2062(3) 0.3823(4) 0.1337(2)
N7 N -0.0056(6) 0.3637(5) -0.0382(2)
O6 O 0.0611(4) 0.3123(5) -0.0083(2)
O7 O 0.0143(5) 0.4398(5) -0.0755(2)
C6 C -0.1925(6) 0.3880(7) -0.0627(2)
O8 O -0.1701(7) 0.3726(7) -0.1178(3)
C7 C -0.2251(7) 0.2487(8) -0.1285(3)
O9 O -0.2766(7) 0.1915(8) -0.0931(3)
C8 C -0.2298(9) 0.2052(12) -0.1860(3)
O10? O -0.2093(11) 0.2721(13) -0.1012(4)
C9? C -0.2612(10) 0.2595(11) -0.1516(4)
O11? O -0.2525(19) 0.3793(10) -0.1671(5)
C10? C -0.2197(13) 0.1382(11) -0.1829(6)
H1 H -0.02090 -0.02970 0.23440
H2 H -0.15310 0.00990 0.17640
H3 H -0.14620 0.16910 0.18690
H4 H -0.03280 0.30760 0.12890
H5 H 0.02690 0.23590 0.08130
H6 H -0.08530 0.15690 0.00640
H7 H -0.20720 0.19920 0.00560
H8 H 0.08610 0.02830 0.29680
H9 H 0.06160 0.17020 0.32410
H10 H 0.16000 0.15600 0.28530
H11 H -0.26140 0.34890 -0.05410
H12 H -0.19400 0.48550 -0.05620
H13? H -0.25390 0.41820 -0.04260
H14? H -0.16380 0.46410 -0.08270
H15 H -0.26840 0.12010 -0.19010
H16 H -0.15700 0.19360 -0.19820
H17 H -0.26440 0.27600 -0.20660
H18? H -0.19650 0.06240 -0.16110
H19? H -0.16790 0.15400 -0.21070
H20? H -0.28840 0.11700 -0.19850
#END
