
#######################################################################
#
#                 Cambridge Crystallographic Data Centre
#                                CCDC
#
#######################################################################
#
# If this CIF has been generated from an entry in the Cambridge
# Structural Database, then it will include bibliographic, chemical,
# crystal, experimental, refinement or atomic coordinate data resulting
# from the CCDC's data processing and validation procedures.
#
#######################################################################

data_CSD_CIF_SATRIO
_audit_creation_date 1990-01-09
_audit_creation_method CSD-ConQuest-V1
_database_code_CSD SATRIO
_chemical_formula_sum 'C8 H16 N8 O8'
_chemical_formula_moiety
;
C8 H16 N8 O8
;
_journal_coeditor_code "IUCr HH0286"
_journal_coden_Cambridge 591
_journal_volume 45
_journal_year 1989
_journal_page_first 1244
_journal_name_full 'Acta Crystallogr.,Sect.C:Cryst.Struct.Commun. '
loop_
_publ_author_name
"C.George"
"R.Gilardi"
_chemical_name_systematic
;
1,9-Diacetyl-3,5,7-trinitro-1,3,5,7,9-penta-azanonane
;
_cell_volume   1538.764
_exptl_crystal_colour 'colorless'
_exptl_crystal_density_diffrn 1.52
_diffrn_ambient_temperature ?
_diffrn_special_details
;
The study was carried out at room temperature,in the range 283-303K

;
#These two values have been output from a single CSD field.
_refine_ls_R_factor_gt 0.038
_refine_ls_wR_factor_gt 0.038
_symmetry_cell_setting monoclinic
_symmetry_space_group_name_H-M 'P 21'
_symmetry_Int_Tables_number 4
loop_
_symmetry_equiv_pos_site_id
_symmetry_equiv_pos_as_xyz
1 x,y,z
2 -x,1/2+y,-z
_cell_length_a 7.243(2)
_cell_length_b 19.986(4)
_cell_length_c 10.692(2)
_cell_angle_alpha 90
_cell_angle_beta 96.18(3)
_cell_angle_gamma 90
_cell_formula_units_Z 4
loop_
_atom_type_symbol
_atom_type_radius_bond
C 0.68
H 0.23
N 0.68
O 0.68
loop_
_atom_site_label
_atom_site_type_symbol
_atom_site_fract_x
_atom_site_fract_y
_atom_site_fract_z
N1 N 0.2366(4) 0.13690 0.2530(3)
C1 C 0.3135(5) 0.1826(2) 0.3496(3)
N2 N 0.3248(4) 0.2519(2) 0.3110(3)
C2 C 0.4884(5) 0.2793(2) 0.2614(3)
N3 N 0.5854(3) 0.3313(2) 0.3367(2)
C3 C 0.5759(5) 0.4009(2) 0.3022(3)
N4 N 0.7502(4) 0.4282(2) 0.2682(3)
C4 C 0.8570(5) 0.4791(2) 0.3419(4)
N5 N 0.8067(5) 0.5463(2) 0.3054(3)
C5 C 0.3391(5) 0.1119(2) 0.1664(3)
O1 O 0.4990(4) 0.1322(2) 0.1589(3)
C6 C 0.2496(7) 0.0586(3) 0.0833(5)
N6 N 0.1661(4) 0.2891(2) 0.3009(3)
O2 O 0.0215(3) 0.2599(2) 0.3163(3)
O3 O 0.1804(4) 0.3483(2) 0.2776(3)
N7 N 0.6805(4) 0.3150(2) 0.4482(3)
O4 O 0.6732(4) 0.2566(2) 0.4831(2)
O5 O 0.7660(3) 0.3600(2) 0.5064(2)
N8 N 0.7959(4) 0.4146(2) 0.1502(3)
O6 O 0.7048(4) 0.3712(2) 0.0913(3)
O7 O 0.9235(4) 0.4467(2) 0.1132(3)
C7 C 0.6694(6) 0.5798(3) 0.3538(3)
O8 O 0.5757(4) 0.5530(2) 0.4289(3)
C8 C 0.6388(7) 0.6505(3) 0.3094(4)
N9 N 0.7455(5) 0.1471(2) -0.0290(3)
C9 C 0.8381(5) 0.2089(3) -0.0002(3)
N10 N 0.8201(4) 0.2573(2) -0.1034(3)
C10 C 0.9681(5) 0.2729(2) -0.1801(3)
N11 N 1.0603(4) 0.3361(2) -0.1514(2)
C11 C 1.0519(5) 0.3921(2) -0.2364(3)
N12 N 1.2204(4) 0.4031(2) -0.2984(3)
C12 C 1.3449(5) 0.4591(2) -0.2759(3)
N13 N 1.3170(5) 0.5119(2) -0.3686(3)
C13 C 0.8071(5) 0.1030(2) -0.1091(4)
O9 O 0.9416(4) 0.1170(2) -0.1665(3)
C14 C 0.7066(6) 0.0380(3) -0.1249(5)
N14 N 0.6536(4) 0.2873(2) -0.1343(3)
O10 O 0.5240(4) 0.2676(2) -0.0785(3)
O11 O 0.6440(4) 0.3299(2) -0.2160(3)
N15 N 1.1748(4) 0.3404(2) -0.0431(3)
O12 O 1.1812(4) 0.2917(2) 0.0272(2)
O13 O 1.2646(4) 0.3920(2) -0.0228(2)
N16 N 1.2564(4) 0.3592(2) -0.3902(3)
O14 O 1.1631(4) 0.3085(2) -0.4030(3)
O15 O 1.3819(4) 0.3753(2) -0.4529(3)
C15 C 1.1830(5) 0.5565(2) -0.3649(4)
O16 O 1.0753(4) 0.5537(2) -0.2830(4)
C16 C 1.1687(6) 0.6105(3) -0.4633(5)
H1 H 0.132(6) 0.1163(22) 0.2586(37)
H2 H 0.23730 0.18070 0.41770
H3 H 0.43670 0.16770 0.37850
H4 H 0.45010 0.29760 0.17960
H5 H 0.57390 0.24320 0.25360
H6 H 0.48330 0.40600 0.23150
H7 H 0.53990 0.42600 0.37220
H8 H 0.98610 0.47270 0.33230
H9 H 0.83760 0.47340 0.42870
H10 H 0.873(6) 0.5688(23) 0.2664(39)
H11 H 0.13030 0.04510 0.10560
H12 H 0.32700 0.01990 0.07830
H13 H 0.23460 0.08080 0.00310
H14 H 0.68350 0.65760 0.22910
H15 H 0.69210 0.68340 0.36800
H16 H 0.50590 0.65460 0.30080
H17 H 0.6737(61) 0.1331(26) 0.0025(45)
H18 H 0.78730 0.22860 0.07060
H19 H 0.96770 0.19990 0.02170
H20 H 0.91610 0.27390 -0.26660
H21 H 1.05940 0.23800 -0.16840
H22 H 0.95040 0.38490 -0.30040
H23 H 1.02900 0.43170 -0.18960
H24 H 1.32800 0.47770 -0.19510
H25 H 1.46990 0.44300 -0.27510
H26 H 1.3938(63) 0.5149(24) -0.4127(44)
H27 H 0.71950 0.02160 -0.20800
H28 H 0.57730 0.04070 -0.11320
H29 H 0.76800 0.00800 -0.06380
H30 H 1.26610 0.60320 -0.51590
H31 H 1.17740 0.65520 -0.43030
H32 H 1.05040 0.60450 -0.51180
#END
