
#######################################################################
#
#                 Cambridge Crystallographic Data Centre
#                                CCDC
#
#######################################################################
#
# If this CIF has been generated from an entry in the Cambridge
# Structural Database, then it will include bibliographic, chemical,
# crystal, experimental, refinement or atomic coordinate data resulting
# from the CCDC's data processing and validation procedures.
#
#######################################################################

data_CSD_CIF_SATROU
_audit_creation_date 1990-01-09
_audit_creation_method CSD-ConQuest-V1
_database_code_CSD SATROU
_chemical_formula_sum 'C4 H10 N4 O5'
_chemical_formula_moiety
;
C4 H10 N4 O5
;
_journal_coeditor_code "IUCr HH0284"
_journal_coden_Cambridge 591
_journal_volume 45
_journal_year 1989
_journal_page_first 1243
_journal_name_full 'Acta Crystallogr.,Sect.C:Cryst.Struct.Commun. '
loop_
_publ_author_name
"R.Gilardi"
"C.George"
_chemical_name_systematic
;
3-Methoxy-2,4-dinitro-2,4-diazapentane
;
_cell_volume    849.675
_exptl_crystal_colour 'colorless'
_exptl_crystal_density_diffrn 1.518
_diffrn_ambient_temperature ?
_diffrn_special_details
;
The study was carried out at room temperature,in the range 283-303K

;
#These two values have been output from a single CSD field.
_refine_ls_R_factor_gt 0.044
_refine_ls_wR_factor_gt 0.044
_symmetry_cell_setting monoclinic
_symmetry_space_group_name_H-M 'P 21/c'
_symmetry_Int_Tables_number 14
loop_
_symmetry_equiv_pos_site_id
_symmetry_equiv_pos_as_xyz
1 x,y,z
2 -x,1/2+y,1/2-z
3 -x,-y,-z
4 x,-1/2-y,-1/2+z
_cell_length_a 7.964(1)
_cell_length_b 8.320(1)
_cell_length_c 14.767(2)
_cell_angle_alpha 90
_cell_angle_beta 119.73(1)
_cell_angle_gamma 90
_cell_formula_units_Z 4
loop_
_atom_type_symbol
_atom_type_radius_bond
C 0.68
H 0.23
N 0.68
O 0.68
loop_
_atom_site_label
_atom_site_type_symbol
_atom_site_fract_x
_atom_site_fract_y
_atom_site_fract_z
C1 C 0.1842(6) 0.0189(4) 0.9360(3)
N1 N 0.1695(3) 0.1705(2) 0.8841(1)
C2 C 0.0670(3) 0.3134(3) 0.8896(2)
N2 N 0.1977(3) 0.4195(2) 0.9718(1)
C3 C 0.3186(6) 0.3661(4) 1.0778(2)
N3 N 0.2588(3) 0.1829(3) 0.8271(2)
O1 O 0.2536(3) 0.3123(2) 0.7865(1)
O2 O 0.3398(3) 0.0620(2) 0.8195(1)
N4 N 0.2265(3) 0.5689(2) 0.9452(1)
O3 O 0.1143(3) 0.6193(2) 0.8580(1)
O4 O 0.3646(3) 0.6443(2) 1.0122(1)
O5 O -0.0743(2) 0.2668(2) 0.9125(1)
C4 C -0.2449(4) 0.2041(4) 0.8231(2)
H1 H 0.1266(49) 0.0323(36) 0.9806(24)
H2 H 0.1327(43) -0.0669(41) 0.8991(25)
H3 H 0.3232(56) 0.0050(38) 0.9934(30)
H4 H 0.0222(29) 0.3707(23) 0.8261(17)
H5 H 0.3530(48) 0.4477(44) 1.1297(28)
H6 H 0.2525(55) 0.2836(48) 1.0898(31)
H7 H 0.4147(51) 0.3179(41) 1.0860(29)
H8 H -0.3458(53) 0.1750(37) 0.8503(27)
H9 H -0.2221(41) 0.1084(39) 0.7995(24)
H10 H -0.2952(37) 0.2757(33) 0.7666(25)
#END
