
#######################################################################
#
#                 Cambridge Crystallographic Data Centre
#                                CCDC
#
#######################################################################
#
# If this CIF has been generated from an entry in the Cambridge
# Structural Database, then it will include bibliographic, chemical,
# crystal, experimental, refinement or atomic coordinate data resulting
# from the CCDC's data processing and validation procedures.
#
#######################################################################

data_CSD_CIF_SAVGUS
_audit_creation_date 2006-02-24
_audit_creation_method CSD-ConQuest-V1
_database_code_CSD SAVGUS
_database_code_depnum_ccdc_archive 'CCDC 264859'
_chemical_formula_sum 'C14 H14 N4 O4'
_chemical_formula_moiety
;
C14 H14 N4 O4
;
_journal_coden_Cambridge 7
_journal_volume 78
_journal_year 2005
_journal_page_first 1654
_journal_name_full 'Bull.Chem.Soc.Jpn. '
loop_
_publ_author_name
"T.Saeki"
"Eun-Cheol Son"
"K.Tamao"
_chemical_name_systematic
;
1-(2-Methoxy-4-nitrophenyl)-3-(4-methoxyphenyl)triaz-2-ene
;
_chemical_melting_point 432.15
_cell_volume   1390.003
_exptl_crystal_colour 'yellow'
_exptl_crystal_density_diffrn 1.444
_exptl_special_details
;
Melting point range 432.15-433.15K

;
_exptl_crystal_description 'prism'
_exptl_crystal_preparation 'dimethoxyethane'
_diffrn_ambient_temperature 173.1
#These two values have been output from a single CSD field.
_refine_ls_R_factor_gt 0.04
_refine_ls_wR_factor_gt 0.04
_symmetry_cell_setting monoclinic
_symmetry_space_group_name_H-M 'P 21/c'
_symmetry_Int_Tables_number 14
loop_
_symmetry_equiv_pos_site_id
_symmetry_equiv_pos_as_xyz
1 x,y,z
2 -x,1/2+y,1/2-z
3 -x,-y,-z
4 x,-1/2-y,-1/2+z
_cell_length_a 7.280(5)
_cell_length_b 9.312(6)
_cell_length_c 20.75(1)
_cell_angle_alpha 90
_cell_angle_beta 98.829(3)
_cell_angle_gamma 90
_cell_formula_units_Z 4
loop_
_atom_type_symbol
_atom_type_radius_bond
C 0.68
H 0.23
N 0.68
O 0.68
loop_
_atom_site_label
_atom_site_type_symbol
_atom_site_fract_x
_atom_site_fract_y
_atom_site_fract_z
O1 O 0.3007(2) 0.71096(13) 0.64271(6)
O2 O -0.0970(2) 0.8866(2) 0.43779(8)
O3 O -0.0481(2) 0.7341(2) 0.36323(7)
O4 O 0.7758(2) -0.3019(1) 0.65073(6)
N1 N 0.4197(2) 0.4596(2) 0.61269(8)
N2 N 0.4699(2) 0.3219(2) 0.60417(8)
N3 N 0.5555(2) 0.2706(2) 0.65670(8)
N4 N -0.0229(2) 0.7777(2) 0.42016(9)
C1 C 0.3150(3) 0.5356(2) 0.56299(9)
C2 C 0.2498(3) 0.6722(2) 0.57899(10)
C3 C 0.1416(3) 0.7526(2) 0.53192(9)
C4 C 0.0982(3) 0.6957(2) 0.46942(9)
C5 C 0.1618(3) 0.5637(2) 0.45255(10)
C6 C 0.2704(3) 0.4835(2) 0.49978(9)
C7 C 0.2413(3) 0.8496(2) 0.66251(10)
C8 C 0.6120(3) 0.1248(2) 0.6513(1)
C9 C 0.6711(3) 0.0560(2) 0.71024(10)
C10 C 0.7273(3) -0.0863(2) 0.71238(10)
C11 C 0.7255(3) -0.1605(2) 0.65469(10)
C12 C 0.6725(3) -0.0912(2) 0.59486(10)
C13 C 0.6146(3) 0.0505(2) 0.59299(10)
C14 C 0.8271(3) -0.3755(2) 0.71134(10)
H1 H 0.444(3) 0.492(2) 0.651(1)
H2 H 0.0977(3) 0.8448(2) 0.54191(9)
H3 H 0.1315(3) 0.5285(2) 0.40925(10)
H4 H 0.3151(3) 0.3922(2) 0.48899(9)
H5 H 0.2433(3) 0.8504(2) 0.70839(10)
H6 H 0.3229(3) 0.9215(2) 0.65098(10)
H7 H 0.1186(3) 0.8683(2) 0.64121(10)
H8 H 0.6729(3) 0.1075(2) 0.74985(10)
H9 H 0.7667(3) -0.1322(2) 0.75304(10)
H10 H 0.6763(3) -0.1418(2) 0.55531(10)
H11 H 0.5767(3) 0.0968(2) 0.55233(10)
H12 H 0.7320(3) -0.3639(2) 0.73753(10)
H13 H 0.9401(3) -0.3368(2) 0.7335(1)
H14 H 0.8433(3) -0.4748(2) 0.70323(10)
#END
