
#######################################################################
#
#                 Cambridge Crystallographic Data Centre
#                                CCDC
#
#######################################################################
#
# If this CIF has been generated from an entry in the Cambridge
# Structural Database, then it will include bibliographic, chemical,
# crystal, experimental, refinement or atomic coordinate data resulting
# from the CCDC's data processing and validation procedures.
#
#######################################################################

data_CSD_CIF_SAVJEH
_audit_creation_date 2017-06-27
_audit_creation_method CSD-ConQuest-V1
_database_code_CSD SAVJEH
_database_code_depnum_ccdc_archive 'CCDC 1546398'
_chemical_formula_sum 'C25 H24 N4 O5'
_chemical_formula_moiety
;
C25 H24 N4 O5
;
_journal_coden_Cambridge 177
_journal_volume 15
_journal_year 2017
_journal_page_first 5737
_journal_name_full 'Org.Biomol.Chem. '
loop_
_publ_author_name
"S.Balalaie"
"M.Shamakli"
"A.Nikbakht"
"N.S.Alavijeh"
"F.Rominger"
"S.Rostamizadeh"
"H.R.Bijanzadeh"
_chemical_name_systematic
;
N-cyclohexyl-2-(3-nitrophenyl)-2-(6-oxo-4H-[1,2]oxazolo[4,3-d][2]benzazepin-5(
6H)-yl)acetamide
;
_cell_volume   2339.723
_exptl_crystal_colour 'colorless'
_exptl_crystal_density_diffrn 1.307
_exptl_special_details
;
P21/c polymorph

;
_exptl_crystal_description 'needle'
_diffrn_ambient_temperature 200
_refine_special_details
;
N27B,O28B,O29B and N27,O28,O29 disordered over two sites with occupancies 
0.53:0.47.
;
#These two values have been output from a single CSD field.
_refine_ls_R_factor_gt 0.0552
_refine_ls_wR_factor_gt 0.0552
_symmetry_cell_setting monoclinic
_symmetry_space_group_name_H-M 'P 21/c'
_symmetry_Int_Tables_number 14
loop_
_symmetry_equiv_pos_site_id
_symmetry_equiv_pos_as_xyz
1 x,y,z
2 -x,1/2+y,1/2-z
3 -x,-y,-z
4 x,-1/2-y,-1/2+z
_cell_length_a 15.0879(14)
_cell_length_b 17.9838(17)
_cell_length_c 8.8566(9)
_cell_angle_alpha 90
_cell_angle_beta 103.191(3)
_cell_angle_gamma 90
_cell_formula_units_Z 4
loop_
_atom_type_symbol
_atom_type_radius_bond
C 0.68
H 0.23
N 0.68
O 0.68
loop_
_atom_site_label
_atom_site_type_symbol
_atom_site_fract_x
_atom_site_fract_y
_atom_site_fract_z
C1 C 0.44031(17) 0.73904(15) 0.6218(3)
O1 O 0.42711(13) 0.79812(10) 0.6829(2)
N1 N 0.37517(13) 0.68583(11) 0.5902(2)
C2 C 0.38569(17) 0.61759(14) 0.5042(3)
H1 H 0.40540 0.63020 0.40810
H2 H 0.32680 0.59090 0.47520
C3 C 0.45518(18) 0.56964(15) 0.6054(3)
C4 C 0.54733(18) 0.59332(16) 0.6499(3)
N2 N 0.59894(18) 0.54499(15) 0.7406(3)
C5 C 0.29125(16) 0.69730(14) 0.6447(3)
H3 H 0.30410 0.73570 0.72860
C6 C 0.21519(16) 0.72701(14) 0.5140(3)
O2 O 0.20873(12) 0.70543(11) 0.37966(19)
N3 N 0.15923(14) 0.77478(11) 0.5574(2)
H4 H 0.17140 0.78850 0.65530
C7 C 0.4548(2) 0.50395(17) 0.6761(4)
H5 H 0.40250 0.47360 0.66980
O3 O 0.53942(16) 0.48710(12) 0.7578(3)
C8 C 0.53035(17) 0.72772(16) 0.5773(3)
C9 C 0.58200(18) 0.66208(17) 0.5975(3)
C10 C 0.6687(2) 0.6622(2) 0.5648(3)
H6 H 0.70450 0.61830 0.58010
C11 C 0.7023(2) 0.7258(2) 0.5106(4)
H7 H 0.76050 0.72500 0.48640
C12 C 0.6524(2) 0.7899(2) 0.4917(4)
H8 H 0.67590 0.83340 0.45410
C13 C 0.5676(2) 0.79163(18) 0.5271(3)
H9 H 0.53440 0.83690 0.51710
C14 C 0.26187(17) 0.62639(14) 0.7136(3)
C15 C 0.1998(2) 0.57752(16) 0.6276(3)
H10 H 0.17160 0.58810 0.52250
C16 C 0.2173(3) 0.49607(19) 0.8500(4)
H11 H 0.20170 0.45160 0.89550
C17 C 0.2778(2) 0.5450(2) 0.9340(4)
H12 H 0.30450 0.53470 1.03980
C18 C 0.30066(19) 0.60917(17) 0.8677(3)
H13 H 0.34360 0.64230 0.92800
C19 C 0.1795(2) 0.51276(18) 0.6974(4)
N4 N 0.1200(8) 0.4570(6) 0.6099(11)
O4 O 0.0730(18) 0.4186(12) 0.6827(17)
O5 O 0.1164(18) 0.4563(10) 0.4666(10)
C20 C 0.07827(17) 0.80645(14) 0.4536(3)
H14 H 0.09440 0.82150 0.35450
C21 C 0.00173(18) 0.75059(16) 0.4172(3)
H15 H -0.01010 0.73120 0.51530
H16 H 0.02030 0.70820 0.36000
C22 C -0.08528(19) 0.78436(19) 0.3206(4)
H17 H -0.07560 0.79870 0.21770
H18 H -0.13460 0.74690 0.30460
C23 C -0.11348(19) 0.85200(18) 0.3997(4)
H19 H -0.16820 0.87450 0.33200
H20 H -0.12930 0.83670 0.49770
C24 C -0.03788(19) 0.90886(17) 0.4342(4)
H21 H -0.05670 0.95110 0.49130
H22 H -0.02680 0.92820 0.33540
C25 C 0.04966(18) 0.87546(15) 0.5301(4)
H23 H 0.04070 0.86220 0.63410
H24 H 0.09880 0.91300 0.54380
N5? N 0.1136(11) 0.4632(8) 0.5941(17)
O6? O 0.1072(15) 0.3992(8) 0.652(3)
O7? O 0.0674(16) 0.4854(12) 0.4644(11)
#END
