
#######################################################################
#
#                 Cambridge Crystallographic Data Centre
#                                CCDC
#
#######################################################################
#
# If this CIF has been generated from an entry in the Cambridge
# Structural Database, then it will include bibliographic, chemical,
# crystal, experimental, refinement or atomic coordinate data resulting
# from the CCDC's data processing and validation procedures.
#
#######################################################################

data_CSD_CIF_SAVJUU
_audit_creation_date 1999-01-22
_audit_creation_method CSD-ConQuest-V1
_database_code_CSD SAVJUU
_database_code_depnum_ccdc_archive 'CCDC 130802'
_chemical_formula_sum 'C15 H14 N4 O5'
_chemical_formula_moiety
;
C15 H14 N4 O5
;
_journal_coeditor_code "IUCr QB0067"
_journal_data_validation_number IUC9800065
_journal_coden_Cambridge 591
_journal_volume 54
_journal_year 1998
_journal_page_first 9800065
_journal_name_full 'Acta Crystallogr.,Sect.C:Cryst.Struct.Commun. '
loop_
_publ_author_name
"M.Bolte"
"M.Dill"
_chemical_name_systematic
;
(E)-p-Methoxyacetophenone 2,4-dinitrophenylhydrazone
;
_cell_volume   3048.324
_exptl_crystal_colour 'red-brown'
_exptl_crystal_density_diffrn 1.439
_exptl_crystal_description 'plate'
_diffrn_ambient_temperature 173
#These two values have been output from a single CSD field.
_refine_ls_R_factor_gt 0.041
_refine_ls_wR_factor_gt 0.041
_symmetry_cell_setting monoclinic
_symmetry_space_group_name_H-M 'C 2/c'
_symmetry_Int_Tables_number 15
loop_
_symmetry_equiv_pos_site_id
_symmetry_equiv_pos_as_xyz
1 x,y,z
2 1/2+x,1/2+y,z
3 -x,y,1/2-z
4 1/2-x,1/2+y,1/2-z
5 -x,-y,-z
6 -1/2-x,-1/2-y,-z
7 x,-y,-1/2+z
8 -1/2+x,-1/2-y,-1/2+z
_cell_length_a 29.432(4)
_cell_length_b 7.292(1)
_cell_length_c 15.958(2)
_cell_angle_alpha 90
_cell_angle_beta 117.12(1)
_cell_angle_gamma 90
_cell_formula_units_Z 8
loop_
_atom_type_symbol
_atom_type_radius_bond
C 0.68
H 0.23
N 0.68
O 0.68
loop_
_atom_site_label
_atom_site_type_symbol
_atom_site_fract_x
_atom_site_fract_y
_atom_site_fract_z
N1 N 0.53163(4) 0.29289(14) 0.58550(7)
H1 H 0.5201(6) 0.266(2) 0.6274(11)
N2 N 0.50213(4) 0.26268(13) 0.49035(6)
C1 C 0.45868(4) 0.18223(15) 0.46443(8)
C2 C 0.43867(5) 0.11784(19) 0.53145(8)
H2 H 0.46570 0.05230 0.58420
H3 H 0.40960 0.03550 0.49820
H4 H 0.42770 0.22400 0.55530
C3 C 0.57909(5) 0.36482(15) 0.61594(7)
C4 C 0.61296(5) 0.39735(16) 0.71290(7)
N3 N 0.59855(4) 0.35690(15) 0.78668(7)
O1 O 0.55462(4) 0.30299(17) 0.76455(7)
O2 O 0.63047(4) 0.37848(16) 0.86939(6)
C5 C 0.66096(5) 0.47428(16) 0.74163(8)
H5 H 0.68290 0.49440 0.80660
C6 C 0.67621(4) 0.52086(17) 0.67484(8)
N4 N 0.72508(4) 0.61224(17) 0.70389(8)
O3 O 0.73609(4) 0.66673(17) 0.64225(7)
O4 O 0.75342(4) 0.6331(2) 0.78845(7)
C7 C 0.64492(5) 0.48676(17) 0.57876(8)
H6 H 0.65640 0.51690 0.53360
C8 C 0.59792(5) 0.41004(17) 0.55070(8)
H7 H 0.57720 0.38610 0.48570
C9 C 0.42802(4) 0.15524(15) 0.36103(8)
C10 C 0.44688(5) 0.21651(18) 0.29892(8)
H8 H 0.47960 0.27270 0.32380
C11 C 0.41875(5) 0.1963(2) 0.20268(9)
H9 H 0.43240 0.23780 0.16230
C12 C 0.37053(5) 0.11577(18) 0.16413(8)
O5 O 0.34562(4) 0.10677(16) 0.06802(6)
C13 C 0.29645(6) 0.0190(3) 0.02556(10)
H10 H 0.28270 0.02110 -0.04310
H11 H 0.27320 0.08460 0.04360
H12 H 0.30000 -0.10830 0.04730
C14 C 0.35108(5) 0.05163(18) 0.22366(9)
H13 H 0.31850 -0.00560 0.19830
C15 C 0.38006(5) 0.07234(16) 0.32144(8)
H14 H 0.36660 0.02870 0.36170
#END
