
#######################################################################
#
#                 Cambridge Crystallographic Data Centre
#                                CCDC
#
#######################################################################
#
# If this CIF has been generated from an entry in the Cambridge
# Structural Database, then it will include bibliographic, chemical,
# crystal, experimental, refinement or atomic coordinate data resulting
# from the CCDC's data processing and validation procedures.
#
#######################################################################

data_CSD_CIF_SAVNAH
_audit_creation_date 2017-06-27
_audit_creation_method CSD-ConQuest-V1
_database_code_CSD SAVNAH
_database_code_depnum_ccdc_archive 'CCDC 1509652'
_chemical_formula_sum 'C32 H34 N2 O6'
_chemical_formula_moiety
;
C32 H34 N2 O6
;
_journal_coden_Cambridge 182
_journal_volume 53
_journal_year 2017
_journal_page_first 7925
_journal_name_full 'Chem.Commun. '
loop_
_publ_author_name
"Dong Zhang"
"Chengkai Yin"
"Yuhang Zhou"
"Yali Xu"
"Lili Lin"
"Xiaohua Liu"
"Xiaoming Feng"
_chemical_name_systematic
;
di-t-butyl 
(3R,3'R,5'R)-2-oxo-2',3'-diphenylspiro[indole-3,4'-[1,2]oxazolidine]-1,5'(2H)-
dicarboxylate
;
_cell_volume   2981.389
_exptl_crystal_colour 'colorless'
_exptl_crystal_density_diffrn 1.209
_exptl_special_details
;
Absolute configuration

;
_exptl_crystal_description 'block'
_exptl_crystal_preparation 'ethyl acetate'
_diffrn_ambient_temperature 293
#These two values have been output from a single CSD field.
_refine_ls_R_factor_gt 0.049
_refine_ls_wR_factor_gt 0.049
_symmetry_cell_setting orthorhombic
_symmetry_space_group_name_H-M 'P 21 21 21'
_symmetry_Int_Tables_number 19
loop_
_symmetry_equiv_pos_site_id
_symmetry_equiv_pos_as_xyz
1 x,y,z
2 1/2-x,-y,1/2+z
3 -x,1/2+y,1/2-z
4 1/2+x,1/2-y,-z
_cell_length_a 10.21904(12)
_cell_length_b 11.88874(13)
_cell_length_c 24.5399(3)
_cell_angle_alpha 90
_cell_angle_beta 90
_cell_angle_gamma 90
_cell_formula_units_Z 4
loop_
_atom_type_symbol
_atom_type_radius_bond
C 0.68
H 0.23
N 0.68
O 0.68
loop_
_atom_site_label
_atom_site_type_symbol
_atom_site_fract_x
_atom_site_fract_y
_atom_site_fract_z
O1 O 0.67993(19) 0.59455(18) 0.58976(8)
O2 O 0.6800(3) 0.6825(3) 0.68924(10)
O3 O 0.4982(2) 0.58528(17) 0.71107(7)
O4 O 0.0695(4) 0.5712(3) 0.6878(2)
O5 O 0.1170(3) 0.3990(2) 0.65835(13)
O6 O 0.3687(2) 0.37736(16) 0.62771(8)
N1 N 0.6427(2) 0.55218(19) 0.53661(9)
N2 N 0.2458(2) 0.5427(2) 0.63347(9)
C1 C 0.8657(3) 0.4790(3) 0.53524(14)
H1 H 0.88990 0.53050 0.56190
C2 C 0.9575(4) 0.4072(4) 0.51372(19)
H2 H 1.04270 0.40860 0.52700
C3 C 0.9249(4) 0.3332(3) 0.47263(19)
H3 H 0.98790 0.28590 0.45770
C4 C 0.7992(4) 0.3303(3) 0.45419(16)
H4 H 0.77660 0.28080 0.42640
C5 C 0.7049(3) 0.3998(2) 0.47622(12)
H5 H 0.61930 0.39630 0.46350
C6 C 0.7375(3) 0.4752(2) 0.51741(11)
C7 C 0.3238(4) 0.4729(3) 0.47582(14)
H6 H 0.30890 0.40630 0.49470
C8 C 0.2457(4) 0.5007(5) 0.43179(17)
H7 H 0.17850 0.45260 0.42130
C9 C 0.2663(4) 0.5977(4) 0.40369(14)
H8 H 0.21350 0.61580 0.37410
C10 C 0.3652(4) 0.6684(3) 0.41911(14)
H9 H 0.37920 0.73510 0.40010
C11 C 0.4441(3) 0.6414(3) 0.46269(12)
H10 H 0.51180 0.68950 0.47260
C12 C 0.4236(3) 0.5434(2) 0.49191(10)
C13 C 0.5061(2) 0.5106(2) 0.54039(10)
H11 H 0.50890 0.42830 0.54210
C14 C 0.3469(6) 0.5881(6) 0.78176(19)
H12 H 0.28050 0.60810 0.75580
H13 H 0.32280 0.61600 0.81710
H14 H 0.35530 0.50780 0.78320
C15 C 0.5862(6) 0.6083(5) 0.80226(16)
H15 H 0.59980 0.52850 0.80100
H16 H 0.56450 0.63040 0.83880
H17 H 0.66460 0.64620 0.79100
C16 C 0.4623(5) 0.7632(4) 0.75782(18)
H18 H 0.54420 0.79440 0.74600
H19 H 0.43760 0.79650 0.79190
H20 H 0.39620 0.77850 0.73100
C17 C 0.4762(4) 0.6395(3) 0.76474(12)
C18 C 0.5974(3) 0.6154(2) 0.67958(11)
C19 C 0.5902(3) 0.5478(2) 0.62708(10)
H21 H 0.61270 0.46900 0.63430
C20 C 0.0307(8) 0.2188(6) 0.6704(5)
H22 H 0.01810 0.21940 0.63170
H23 H -0.03460 0.17200 0.68710
H24 H 0.11610 0.18970 0.67870
C21 C 0.0633(7) 0.3439(9) 0.7491(3)
H25 H 0.15710 0.33970 0.75000
H26 H 0.02700 0.28160 0.76880
H27 H 0.03540 0.41310 0.76550
C22 C -0.1152(5) 0.3812(7) 0.6807(4)
H28 H -0.12330 0.45790 0.69240
H29 H -0.17800 0.33560 0.69960
H30 H -0.13100 0.37680 0.64220
C23 C 0.0186(4) 0.3400(5) 0.6927(2)
C24 C 0.1333(3) 0.5075(3) 0.66202(14)
C25 C 0.3552(3) 0.4765(2) 0.62091(10)
C26 C 0.4591(2) 0.5545(2) 0.59658(10)
C27 C 0.3957(3) 0.6680(2) 0.59905(9)
C28 C 0.4442(3) 0.7725(2) 0.58450(11)
H31 H 0.52710 0.77960 0.56920
C29 C 0.3664(4) 0.8664(3) 0.59326(13)
H32 H 0.39750 0.93750 0.58410
C30 C 0.2447(4) 0.8551(3) 0.61520(15)
H33 H 0.19370 0.91900 0.62030
C31 C 0.1945(3) 0.7514(3) 0.63008(13)
H34 H 0.11130 0.74470 0.64510
C32 C 0.2727(3) 0.6583(2) 0.62169(10)
#END
