
#######################################################################
#
#                 Cambridge Crystallographic Data Centre
#                                CCDC
#
#######################################################################
#
# If this CIF has been generated from an entry in the Cambridge
# Structural Database, then it will include bibliographic, chemical,
# crystal, experimental, refinement or atomic coordinate data resulting
# from the CCDC's data processing and validation procedures.
#
#######################################################################

data_CSD_CIF_SAVVAO
_audit_creation_date 2012-07-19
_audit_creation_method CSD-ConQuest-V1
_database_code_CSD SAVVAO
_database_code_depnum_ccdc_archive 'CCDC 829053'
_chemical_formula_sum 'C15 H12 N4 O5'
_chemical_formula_moiety
;
C15 H12 N4 O5
;
_journal_coden_Cambridge 16
_journal_volume 68
_journal_year 2012
_journal_page_first 2532
_journal_name_full 'Tetrahedron '
loop_
_publ_author_name
"V.O.Iaroshenko"
"S.Mkrtchyan"
"A.Gevorgyan"
"M.Vilches-Herrera"
"D.V.Sevenard"
"A.Villinger"
"T.V.Ghochikyan"
"A.Saghiyan"
"V.Ya.Sosnovskikh"
"P.Langer"
_chemical_name_systematic
;
7-(2-Hydroxyphenyl)-1,3-dimethyl-6-nitropyrido[2,3-d]pyrimidine-2,4(1H,3H)-dio
ne
;
_cell_volume   1517.435
_exptl_crystal_colour 'colorless'
_exptl_crystal_density_diffrn 1.437
_exptl_crystal_description 'block'
_diffrn_ambient_temperature 173
#These two values have been output from a single CSD field.
_refine_ls_R_factor_gt 0.042
_refine_ls_wR_factor_gt 0.042
_symmetry_cell_setting monoclinic
_symmetry_space_group_name_H-M 'P 21/n'
_symmetry_Int_Tables_number 14
loop_
_symmetry_equiv_pos_site_id
_symmetry_equiv_pos_as_xyz
1 x,y,z
2 1/2-x,1/2+y,1/2-z
3 -x,-y,-z
4 -1/2+x,-1/2-y,-1/2+z
_cell_length_a 8.2923(3)
_cell_length_b 10.8357(3)
_cell_length_c 16.8902(5)
_cell_angle_alpha 90
_cell_angle_beta 90.925(2)
_cell_angle_gamma 90
_cell_formula_units_Z 4
loop_
_atom_type_symbol
_atom_type_radius_bond
C 0.68
H 0.23
N 0.68
O 0.68
loop_
_atom_site_label
_atom_site_type_symbol
_atom_site_fract_x
_atom_site_fract_y
_atom_site_fract_z
N1 N 0.50947(12) 0.02514(9) 0.20796(6)
N2 N 0.37602(13) -0.26080(9) 0.35166(6)
N3 N 0.58316(13) 0.27840(9) 0.35419(6)
N4 N 0.42979(12) -0.17832(9) 0.22475(6)
O1 O 0.36524(13) -0.13531(8) 0.46037(5)
O2 O 0.35820(12) -0.37822(8) 0.24015(6)
O3 O 0.70620(12) 0.32726(9) 0.33031(6)
O4 O 0.49890(13) 0.32021(8) 0.40713(5)
O5 O 0.42246(11) 0.38054(8) 0.23203(5)
C1 C 0.54505(14) 0.13754(10) 0.23695(7)
C2 C 0.53426(14) 0.15972(10) 0.31911(7)
C3 C 0.48211(15) 0.06963(11) 0.36983(7)
H1 H 0.47120 0.08610 0.42470
C4 C 0.44569(14) -0.04631(10) 0.33893(7)
C5 C 0.46367(13) -0.06352(10) 0.25757(7)
C6 C 0.39216(15) -0.14718(11) 0.38978(7)
C7 C 0.38683(15) -0.27748(11) 0.27060(8)
C8 C 0.3340(2) -0.36926(12) 0.39994(8)
H2 H 0.21920 -0.38820 0.39250
H3 H 0.35630 -0.35140 0.45590
H4 H 0.39850 -0.44020 0.38350
C9 C 0.42578(18) -0.19530(13) 0.13800(7)
H5 H 0.50580 -0.25740 0.12320
H6 H 0.45070 -0.11680 0.11210
H7 H 0.31810 -0.22300 0.12110
C10 C 0.59186(14) 0.22882(11) 0.17638(7)
C11 C 0.52973(15) 0.34927(11) 0.17494(7)
C12 C 0.57314(17) 0.43066(13) 0.11483(8)
H8 H 0.53100 0.51220 0.11400
C13 C 0.67761(18) 0.39267(14) 0.05645(8)
H9 H 0.70820 0.44880 0.01620
C14 C 0.73794(17) 0.27326(14) 0.05630(8)
H10 H 0.80880 0.24740 0.01590
C15 C 0.69410(16) 0.19181(12) 0.11550(7)
H11 H 0.73400 0.10960 0.11480
H12 H 0.410(2) 0.4626(19) 0.2331(11)
#END
