
#######################################################################
#
#                 Cambridge Crystallographic Data Centre
#                                CCDC
#
#######################################################################
#
# If this CIF has been generated from an entry in the Cambridge
# Structural Database, then it will include bibliographic, chemical,
# crystal, experimental, refinement or atomic coordinate data resulting
# from the CCDC's data processing and validation procedures.
#
#######################################################################

data_CSD_CIF_SAVVOC
_audit_creation_date 2012-07-19
_audit_creation_method CSD-ConQuest-V1
_database_code_CSD SAVVOC
_database_code_depnum_ccdc_archive 'CCDC 829056'
_chemical_formula_sum 'C17 H14 N2 O5'
_chemical_formula_moiety
;
C17 H14 N2 O5
;
_journal_coden_Cambridge 16
_journal_volume 68
_journal_year 2012
_journal_page_first 2532
_journal_name_full 'Tetrahedron '
loop_
_publ_author_name
"V.O.Iaroshenko"
"S.Mkrtchyan"
"A.Gevorgyan"
"M.Vilches-Herrera"
"D.V.Sevenard"
"A.Villinger"
"T.V.Ghochikyan"
"A.Saghiyan"
"V.Ya.Sosnovskikh"
"P.Langer"
_chemical_name_systematic
;
2-(5,7-Dimethoxy-3-nitroquinolin-2-yl)phenol
;
_cell_volume   2926.987
_exptl_crystal_colour 'yellow'
_exptl_crystal_density_diffrn 1.481
_exptl_crystal_description 'block'
_diffrn_ambient_temperature 173
#These two values have been output from a single CSD field.
_refine_ls_R_factor_gt 0.0357
_refine_ls_wR_factor_gt 0.0357
_symmetry_cell_setting orthorhombic
_symmetry_space_group_name_H-M 'P c a 21'
_symmetry_Int_Tables_number 29
loop_
_symmetry_equiv_pos_site_id
_symmetry_equiv_pos_as_xyz
1 x,y,z
2 -x,-y,1/2+z
3 1/2+x,-y,z
4 1/2-x,y,1/2+z
_cell_length_a 15.2372(17)
_cell_length_b 13.6592(15)
_cell_length_c 14.0634(14)
_cell_angle_alpha 90
_cell_angle_beta 90
_cell_angle_gamma 90
_cell_formula_units_Z 8
loop_
_atom_type_symbol
_atom_type_radius_bond
C 0.68
H 0.23
N 0.68
O 0.68
loop_
_atom_site_label
_atom_site_type_symbol
_atom_site_fract_x
_atom_site_fract_y
_atom_site_fract_z
N1 N 0.84785(8) 0.05093(8) 0.01058(8)
N2 N 1.07807(8) -0.03878(8) 0.00023(9)
O1 O 1.13344(8) -0.03171(9) -0.06265(9)
O2 O 1.08479(8) -0.09210(8) 0.06990(9)
O3 O 1.04149(7) 0.32210(8) -0.02549(9)
O4 O 0.73599(7) 0.37856(7) 0.01391(10)
O5 O 0.74618(8) -0.08213(8) 0.07735(9)
C1 C 0.91350(9) -0.01316(10) 0.00438(10)
C2 C 1.00032(9) 0.02415(10) -0.00668(10)
C3 C 1.01705(9) 0.12229(10) -0.01614(10)
H1 H 1.07520 0.14520 -0.02620
C4 C 0.94691(9) 0.18812(10) -0.0107(1)
C5 C 0.86146(9) 0.14978(10) 0.00463(10)
C6 C 0.78800(9) 0.21209(10) 0.01312(11)
H2 H 0.73090 0.18610 0.02310
C7 C 0.80126(10) 0.31138(10) 0.00666(10)
C8 C 0.88593(10) 0.35257(11) -0.00765(11)
H3 H 0.89290 0.42160 -0.01190
C9 C 0.95739(9) 0.2924(1) -0.01532(10)
C10 C 0.88788(9) -0.11798(10) 0.0051(1)
C11 C 0.94147(10) -0.19111(11) -0.03423(10)
H4 H 0.99520 -0.17300 -0.06360
C12 C 0.91791(11) -0.28912(11) -0.03131(11)
H5 H 0.95530 -0.33740 -0.05820
C13 C 0.83926(11) -0.31615(11) 0.01122(12)
H6 H 0.82400 -0.38340 0.01560
C14 C 0.78331(11) -0.24602(11) 0.04705(11)
H7 H 0.72910 -0.26510 0.07470
C15 C 0.8059(1) -0.14692(11) 0.04301(10)
C16 C 1.05731(11) 0.42546(11) -0.02459(13)
H8 H 1.02840 0.45570 -0.07940
H9 H 1.12060 0.43770 -0.02790
H10 H 1.03380 0.45370 0.03420
C17 C 0.64921(11) 0.34040(13) 0.02621(15)
H11 H 0.63290 0.30180 -0.02980
H12 H 0.60780 0.39470 0.03410
H13 H 0.64760 0.29860 0.08280
H14 H 0.7688(16) -0.0232(16) 0.0602(16)
N3 N 0.38886(8) 0.54612(8) 0.24896(8)
N4 N 0.16039(8) 0.45157(9) 0.25163(9)
O6 O 0.15519(8) 0.39912(8) 0.18103(9)
O7 O 0.10415(7) 0.45609(8) 0.31356(9)
O8 O 0.49320(7) 0.87707(7) 0.22988(8)
O9 O 0.18912(7) 0.81443(7) 0.27201(8)
O10 O 0.49386(7) 0.41165(8) 0.18842(9)
C18 C 0.32431(9) 0.48073(10) 0.25464(10)
C19 C 0.23672(9) 0.5162(1) 0.26015(10)
C20 C 0.21765(9) 0.61416(10) 0.26664(10)
H15 H 0.15880 0.63570 0.27430
C21 C 0.28658(9) 0.68184(10) 0.26171(10)
C22 C 0.37287(9) 0.64473(10) 0.25021(9)
C23 C 0.44505(9) 0.70858(10) 0.24005(10)
H16 H 0.50290 0.68370 0.23290
C24 C 0.42948(10) 0.8079(1) 0.24074(10)
C25 C 0.34404(10) 0.8474(1) 0.25251(10)
H17 H 0.33550 0.91630 0.25320
C26 C 0.27392(9) 0.78565(10) 0.2628(1)
C27 C 0.35108(9) 0.37630(9) 0.25816(10)
C28 C 0.43425(9) 0.34708(11) 0.22345(11)
C29 C 0.4578(1) 0.24819(11) 0.22363(12)
H18 H 0.51260 0.22860 0.19770
C30 C 0.40197(11) 0.17901(11) 0.26125(12)
H19 H 0.41810 0.11180 0.26000
C31 C 0.32237(11) 0.20651(11) 0.30100(12)
H20 H 0.28510 0.15890 0.32920
C32 C 0.29772(10) 0.3042(1) 0.29918(11)
H21 H 0.24320 0.32280 0.32650
C33 C 0.5803(1) 0.84173(12) 0.21342(13)
H22 H 0.60190 0.80870 0.27070
H23 H 0.61890 0.89690 0.19810
H24 H 0.57980 0.79540 0.16020
C34 C 0.17272(11) 0.91767(10) 0.27333(12)
H25 H 0.20590 0.94780 0.32530
H26 H 0.10990 0.92940 0.28290
H27 H 0.19110 0.94640 0.21270
H28 H 0.4711(16) 0.4702(16) 0.2032(17)
#END
