
#######################################################################
#
#                 Cambridge Crystallographic Data Centre
#                                CCDC
#
#######################################################################
#
# If this CIF has been generated from an entry in the Cambridge
# Structural Database, then it will include bibliographic, chemical,
# crystal, experimental, refinement or atomic coordinate data resulting
# from the CCDC's data processing and validation procedures.
#
#######################################################################

data_CSD_CIF_SAWGAA
_audit_creation_date 2012-07-19
_audit_creation_method CSD-ConQuest-V1
_database_code_CSD SAWGAA
_database_code_depnum_ccdc_archive 'CCDC 822441'
_chemical_formula_sum 'C14 H21 N1 O6'
_chemical_formula_moiety
;
C14 H21 N1 O6
;
_journal_coden_Cambridge 16
_journal_volume 68
_journal_year 2012
_journal_page_first 3117
_journal_name_full 'Tetrahedron '
loop_
_publ_author_name
"M.Buchlovic"
"S.Man"
"M.Potacek"
_chemical_name_systematic
;
Dimethyl 
6-methoxy-3a,5,5-trimethyl-3a,4,5,6-tetrahydropyrrolo[1,2-b][1,2]oxazole-2,3-d
icarboxylate
;
_cell_volume    752.607
_exptl_crystal_density_diffrn 1.321
_diffrn_ambient_temperature 120
#These two values have been output from a single CSD field.
_refine_ls_R_factor_gt 0.0336
_refine_ls_wR_factor_gt 0.0336
_symmetry_cell_setting triclinic
_symmetry_space_group_name_H-M 'P -1'
_symmetry_Int_Tables_number 2
loop_
_symmetry_equiv_pos_site_id
_symmetry_equiv_pos_as_xyz
1 x,y,z
2 -x,-y,-z
_cell_length_a 8.1435(3)
_cell_length_b 9.4804(4)
_cell_length_c 10.0139(4)
_cell_angle_alpha 90.668(3)
_cell_angle_beta 97.897(3)
_cell_angle_gamma 100.425(4)
_cell_formula_units_Z 2
loop_
_atom_type_symbol
_atom_type_radius_bond
C 0.68
H 0.23
N 0.68
O 0.68
loop_
_atom_site_label
_atom_site_type_symbol
_atom_site_fract_x
_atom_site_fract_y
_atom_site_fract_z
O1 O 0.41468(13) 0.91616(11) 0.78839(10)
O2 O 0.09423(13) 0.90261(11) 0.58517(9)
O3 O -0.19009(13) 0.77910(12) 0.31157(10)
O4 O -0.28730(13) 0.50352(12) 0.65200(11)
O5 O -0.21344(14) 0.50018(12) 0.44381(11)
O6 O 0.09022(14) 0.82125(14) 0.31100(11)
N1 N 0.11503(15) 0.86802(13) 0.72959(11)
C1 C -0.01674(18) 0.79033(16) 0.51930(14)
C2 C 0.05547(18) 0.64095(17) 0.83524(15)
H1 H -0.00410 0.61820 0.91430
H2 H 0.05300 0.55060 0.78380
C3 C -0.08809(18) 0.69387(16) 0.59938(14)
C4 C -0.20013(18) 0.55771(17) 0.55388(15)
C5 C -0.03053(19) 0.79827(16) 0.36905(15)
C6 C -0.02804(18) 0.74706(16) 0.74499(14)
C7 C 0.27099(18) 0.80811(16) 0.75825(14)
H3 H 0.28310 0.74560 0.68040
C8 C 0.4761(2) 0.98100(18) 0.67320(16)
H4 H 0.57590 1.05490 0.70220
H5 H 0.38840 1.02500 0.62190
H6 H 0.50630 0.90780 0.61610
C9 C 0.23883(19) 0.71761(17) 0.88070(14)
C10 C 0.2539(2) 0.81317(18) 1.00838(14)
H7 H 0.37180 0.86000 1.03430
H8 H 0.21600 0.75410 1.08190
H9 H 0.18360 0.88640 0.99040
C11 C 0.3610(2) 0.61327(18) 0.90299(16)
H10 H 0.47540 0.66690 0.93170
H11 H 0.35830 0.55880 0.81870
H12 H 0.32780 0.54690 0.97300
C12 C -0.2130(2) 0.78648(19) 0.16559(15)
H13 H -0.33380 0.77130 0.13130
H14 H -0.16260 0.71200 0.12670
H15 H -0.15820 0.88110 0.14020
C13 C -0.1650(2) 0.80663(18) 0.80504(16)
H16 H -0.21160 0.87260 0.74230
H17 H -0.11630 0.85810 0.89080
H18 H -0.25490 0.72740 0.82060
C14 C -0.3999(2) 0.36679(18) 0.61917(19)
H19 H -0.45720 0.33660 0.69680
H20 H -0.33460 0.29460 0.59710
H21 H -0.48380 0.37680 0.54150
#END
