
#######################################################################
#
#                 Cambridge Crystallographic Data Centre
#                                CCDC
#
#######################################################################
#
# If this CIF has been generated from an entry in the Cambridge
# Structural Database, then it will include bibliographic, chemical,
# crystal, experimental, refinement or atomic coordinate data resulting
# from the CCDC's data processing and validation procedures.
#
#######################################################################

data_CSD_CIF_SAWJUW
_audit_creation_date 2006-02-24
_audit_creation_method CSD-ConQuest-V1
_database_code_CSD SAWJUW
_database_code_depnum_ccdc_archive 'CCDC 273917'
_chemical_formula_sum 'C4 H5 N3 O1'
_chemical_formula_moiety
;
C4 H5 N3 O1
;
_journal_coden_Cambridge 1350
_journal_volume 7
_journal_year 2005
_journal_page_first 612
_journal_name_full 'CrystEngComm '
loop_
_publ_author_name
"T.Nyui"
"T.Nogami"
"T.Ishida"
_chemical_name_systematic
;
(E)-3-Pyrazolylcarboxaldoxime
;
_chemical_melting_point 383.15
_cell_volume    484.494
_exptl_crystal_colour 'colorless'
_exptl_crystal_density_diffrn 1.537
_exptl_special_details
;
Melting point range 383.15-386.15K

;
_exptl_crystal_description 'platelet'
_diffrn_ambient_temperature 90
#These two values have been output from a single CSD field.
_refine_ls_R_factor_gt 0.057
_refine_ls_wR_factor_gt 0.057
_symmetry_cell_setting orthorhombic
_symmetry_space_group_name_H-M 'P 21 21 21'
_symmetry_Int_Tables_number 19
loop_
_symmetry_equiv_pos_site_id
_symmetry_equiv_pos_as_xyz
1 x,y,z
2 1/2+x,1/2-y,-z
3 -x,1/2+y,1/2-z
4 1/2-x,-y,1/2+z
_cell_length_a 5.237(2)
_cell_length_b 5.288(3)
_cell_length_c 17.495(6)
_cell_angle_alpha 90
_cell_angle_beta 90
_cell_angle_gamma 90
_cell_formula_units_Z 4
loop_
_atom_type_symbol
_atom_type_radius_bond
C 0.68
H 0.23
N 0.68
O 0.68
loop_
_atom_site_label
_atom_site_type_symbol
_atom_site_fract_x
_atom_site_fract_y
_atom_site_fract_z
O1 O 0.5059(3) 0.4755(3) 0.03263(9)
N1 N 0.7691(3) 1.0786(4) 0.2157(1)
N2 N 0.9121(3) 0.8899(4) 0.18627(9)
N3 N 0.7616(3) 0.4165(4) 0.0452(1)
C1 C 0.7611(4) 0.7794(4) 0.1338(1)
C2 C 0.5211(4) 0.8975(4) 0.1305(1)
C3 C 0.5358(4) 1.0888(4) 0.1838(1)
C4 C 0.8690(4) 0.5666(4) 0.0924(1)
H1 H 0.83(1) 1.196(9) 0.251(2)
H2 H 0.395(6) 0.869(7) 0.094(1)
H3 H 0.429(7) 1.215(6) 0.191(2)
H4 H 1.054(6) 0.518(6) 0.093(1)
H5 H 0.440(7) 0.339(7) 0.005(2)
#END
