
#######################################################################
#
#                 Cambridge Crystallographic Data Centre
#                                CCDC
#
#######################################################################
#
# If this CIF has been generated from an entry in the Cambridge
# Structural Database, then it will include bibliographic, chemical,
# crystal, experimental, refinement or atomic coordinate data resulting
# from the CCDC's data processing and validation procedures.
#
#######################################################################

data_CSD_CIF_SAWMUA
_audit_creation_date 2012-08-03
_audit_creation_method CSD-ConQuest-V1
_database_code_CSD SAWMUA
_database_code_depnum_ccdc_archive 'CCDC 820550'
_chemical_formula_sum 'C7 H4 N2 O6'
_chemical_formula_moiety
;
C7 H4 N2 O6
;
_journal_coden_Cambridge 24
_journal_volume 53
_journal_year 2012
_journal_page_first 1472
_journal_name_full 'Tetrahedron Lett. '
loop_
_publ_author_name
"E.B.Averina"
"Y.V.Samoilichenko"
"Y.A.Volkova"
"Y.K.Grishin"
"V.B.Rybakov"
"A.G.Kutateladze"
"M.E.Elyashberg"
"T.S.Kuznetsova"
"N.S.Zefirov"
_chemical_name_systematic
;
3-Nitro-4,9,11-trioxa-5-azatricyclo[6.2.1.0^2,6^]undeca-2,5-dien-7-one
;
_cell_volume    408.981
_exptl_crystal_colour 'yellow'
_exptl_crystal_density_diffrn 1.722
_exptl_crystal_description 'prism'
_diffrn_ambient_temperature 295
#These two values have been output from a single CSD field.
_refine_ls_R_factor_gt 0.0251
_refine_ls_wR_factor_gt 0.0251
_symmetry_cell_setting monoclinic
_symmetry_space_group_name_H-M 'P 21'
_symmetry_Int_Tables_number 4
loop_
_symmetry_equiv_pos_site_id
_symmetry_equiv_pos_as_xyz
1 x,y,z
2 -x,1/2+y,-z
_cell_length_a 5.7868(8)
_cell_length_b 10.6423(14)
_cell_length_c 6.8148(9)
_cell_angle_alpha 90
_cell_angle_beta 102.97(2)
_cell_angle_gamma 90
_cell_formula_units_Z 2
loop_
_atom_type_symbol
_atom_type_radius_bond
C 0.68
H 0.23
N 0.68
O 0.68
loop_
_atom_site_label
_atom_site_type_symbol
_atom_site_fract_x
_atom_site_fract_y
_atom_site_fract_z
O1 O 0.4019(3) 1.17531(13) 0.6061(2)
N1 N 0.2253(3) 1.09780(17) 0.6504(2)
C1 C 0.1128(4) 1.05375(19) 0.4734(3)
C2 C 0.2069(3) 1.0983(2) 0.3123(3)
C3 C 0.3794(3) 1.1744(2) 0.4063(3)
N2 N 0.5427(3) 1.25290(17) 0.3333(3)
O2 O 0.7298(3) 1.27863(17) 0.4473(3)
O3 O 0.4819(3) 1.28488(17) 0.1583(3)
C4 C -0.0940(4) 0.96897(19) 0.4338(3)
O4 O -0.2034(3) 0.93704(16) 0.5560(2)
C5 C -0.1635(3) 0.9371(2) 0.2124(3)
H1 H -0.26530 0.86250 0.18810
O5 O 0.0363(2) 0.92338(14) 0.1291(2)
C6 C 0.1053(3) 1.0520(2) 0.1052(3)
H2 H 0.21710 1.05920 0.01700
C7 C -0.1313(3) 1.1111(2) 0.0150(3)
H3 H -0.12940 1.20080 0.04070
H4 H -0.17760 1.09640 -0.12900
O6 O -0.2852(2) 1.04619(15) 0.1201(2)
#END
