
#######################################################################
#
#                 Cambridge Crystallographic Data Centre
#                                CCDC
#
#######################################################################
#
# If this CIF has been generated from an entry in the Cambridge
# Structural Database, then it will include bibliographic, chemical,
# crystal, experimental, refinement or atomic coordinate data resulting
# from the CCDC's data processing and validation procedures.
#
#######################################################################

data_CSD_CIF_SAWMIO
_audit_creation_date 2012-08-03
_audit_creation_method CSD-ConQuest-V1
_database_code_CSD SAWMIO
_database_code_depnum_ccdc_archive 'CCDC 820548'
_chemical_formula_sum 'C7 H6 N2 O4'
_chemical_formula_moiety
;
C7 H6 N2 O4
;
_journal_coden_Cambridge 24
_journal_volume 53
_journal_year 2012
_journal_page_first 1472
_journal_name_full 'Tetrahedron Lett. '
loop_
_publ_author_name
"E.B.Averina"
"Y.V.Samoilichenko"
"Y.A.Volkova"
"Y.K.Grishin"
"V.B.Rybakov"
"A.G.Kutateladze"
"M.E.Elyashberg"
"T.S.Kuznetsova"
"N.S.Zefirov"
_chemical_name_systematic
;
3-Nitro-5,6-dihydro-2,1-benzoxazol-7(4H)-one
;
_cell_volume   1583.079
_exptl_crystal_colour 'yellow'
_exptl_crystal_density_diffrn 1.528
_exptl_crystal_description 'prism'
_diffrn_ambient_temperature 295
#These two values have been output from a single CSD field.
_refine_ls_R_factor_gt 0.0437
_refine_ls_wR_factor_gt 0.0437
_symmetry_cell_setting orthorhombic
_symmetry_space_group_name_H-M 'P b c a'
_symmetry_Int_Tables_number 61
loop_
_symmetry_equiv_pos_site_id
_symmetry_equiv_pos_as_xyz
1 x,y,z
2 1/2-x,-y,1/2+z
3 1/2+x,1/2-y,-z
4 -x,1/2+y,1/2-z
5 -x,-y,-z
6 -1/2+x,y,-1/2-z
7 -1/2-x,-1/2+y,z
8 x,-1/2-y,-1/2+z
_cell_length_a 10.2744(15)
_cell_length_b 13.5037(18)
_cell_length_c 11.4102(16)
_cell_angle_alpha 90
_cell_angle_beta 90
_cell_angle_gamma 90
_cell_formula_units_Z 8
loop_
_atom_type_symbol
_atom_type_radius_bond
C 0.68
H 0.23
N 0.68
O 0.68
loop_
_atom_site_label
_atom_site_type_symbol
_atom_site_fract_x
_atom_site_fract_y
_atom_site_fract_z
O1 O 0.38308(17) 0.29903(15) 0.19015(14)
N1 N 0.3088(2) 0.31885(16) 0.09022(17)
C1 C 0.2848(2) 0.23200(18) 0.0444(2)
C2 C 0.3382(2) 0.15244(19) 0.1078(2)
C3 C 0.3964(3) 0.2006(2) 0.1949(2)
N2 N 0.4702(3) 0.1648(2) 0.2940(2)
O2 O 0.50776(19) 0.22624(19) 0.36577(16)
O3 O 0.4897(2) 0.07558(18) 0.29875(19)
C4 C 0.2074(2) 0.21889(19) -0.0657(2)
O4 O 0.17163(18) 0.28924(13) -0.12298(14)
C5 C 0.1810(3) 0.11338(18) -0.0937(2)
H1 H 0.16460 0.10720 -0.17710
H2 H 0.10300 0.09240 -0.05270
C6 C 0.2922(3) 0.04580(19) -0.0604(2)
H3 H 0.36920 0.06510 -0.10390
H4 H 0.27040 -0.02150 -0.08260
C7 C 0.3228(3) 0.04861(18) 0.0709(2)
H5 H 0.25270 0.01780 0.11470
H6 H 0.40240 0.01220 0.08650
#END
