
#######################################################################
#
#                 Cambridge Crystallographic Data Centre
#                                CCDC
#
#######################################################################
#
# If this CIF has been generated from an entry in the Cambridge
# Structural Database, then it will include bibliographic, chemical,
# crystal, experimental, refinement or atomic coordinate data resulting
# from the CCDC's data processing and validation procedures.
#
#######################################################################

data_CSD_CIF_SAWNAH
_audit_creation_date 2012-08-03
_audit_creation_method CSD-ConQuest-V1
_database_code_CSD SAWNAH
_database_code_depnum_ccdc_archive 'CCDC 820551'
_chemical_formula_sum 'C5 H4 N2 O5'
_chemical_formula_moiety
;
C5 H4 N2 O5
;
_journal_coden_Cambridge 24
_journal_volume 53
_journal_year 2012
_journal_page_first 1472
_journal_name_full 'Tetrahedron Lett. '
loop_
_publ_author_name
"E.B.Averina"
"Y.V.Samoilichenko"
"Y.A.Volkova"
"Y.K.Grishin"
"V.B.Rybakov"
"A.G.Kutateladze"
"M.E.Elyashberg"
"T.S.Kuznetsova"
"N.S.Zefirov"
_chemical_name_systematic
;
Methyl 5-nitro-1,2-oxazole-3-carboxylate
;
_cell_volume    708.344
_exptl_crystal_colour 'colorless'
_exptl_crystal_density_diffrn 1.614
_exptl_crystal_description 'prism'
_diffrn_ambient_temperature 295
#These two values have been output from a single CSD field.
_refine_ls_R_factor_gt 0.0443
_refine_ls_wR_factor_gt 0.0443
_symmetry_cell_setting monoclinic
_symmetry_space_group_name_H-M 'P 21/c'
_symmetry_Int_Tables_number 14
loop_
_symmetry_equiv_pos_site_id
_symmetry_equiv_pos_as_xyz
1 x,y,z
2 -x,1/2+y,1/2-z
3 -x,-y,-z
4 x,-1/2-y,-1/2+z
_cell_length_a 5.9523(14)
_cell_length_b 15.412(3)
_cell_length_c 7.9307(16)
_cell_angle_alpha 90
_cell_angle_beta 103.19(2)
_cell_angle_gamma 90
_cell_formula_units_Z 4
loop_
_atom_type_symbol
_atom_type_radius_bond
C 0.68
H 0.23
N 0.68
O 0.68
loop_
_atom_site_label
_atom_site_type_symbol
_atom_site_fract_x
_atom_site_fract_y
_atom_site_fract_z
O1 O 1.0852(4) 0.69922(12) 0.0836(2)
N1 N 0.9449(5) 0.69821(15) 0.2039(3)
C1 C 0.7943(5) 0.63736(17) 0.1521(3)
C2 C 0.8218(5) 0.59718(16) -0.0003(3)
H1 H 0.73390 0.55320 -0.06370
C3 C 1.0044(6) 0.63753(18) -0.0316(4)
N2 N 1.1299(5) 0.62471(17) -0.1648(3)
O2 O 1.3135(4) 0.66189(14) -0.1500(3)
O3 O 1.0436(4) 0.57535(14) -0.2809(2)
C4 C 0.6225(6) 0.61569(19) 0.2533(4)
O4 O 0.4844(4) 0.55870(13) 0.2107(2)
O5 O 0.6448(4) 0.66305(12) 0.3928(2)
C5 C 0.4944(5) 0.64256(19) 0.5079(3)
H2 H 0.33680 0.65230 0.44880
H3 H 0.53250 0.67900 0.60860
H4 H 0.51440 0.58280 0.54230
#END
