
#######################################################################
#
#                 Cambridge Crystallographic Data Centre
#                                CCDC
#
#######################################################################
#
# If this CIF has been generated from an entry in the Cambridge
# Structural Database, then it will include bibliographic, chemical,
# crystal, experimental, refinement or atomic coordinate data resulting
# from the CCDC's data processing and validation procedures.
#
#######################################################################

data_CSD_CIF_SAWXOE
_audit_creation_date 2006-02-24
_audit_creation_method CSD-ConQuest-V1
_database_code_CSD SAWXOE
_database_code_depnum_ccdc_archive 'CCDC 284712'
_chemical_formula_sum 'C15 H11 N1 O3'
_chemical_formula_moiety
;
C15 H11 N1 O3
;
_journal_coden_Cambridge 1078
_journal_year 2005
_journal_name_full 'CSD Communication(Private Communication) '
loop_
_publ_author_name
"W.Clegg"
"M.R.J.Elsegood"
_chemical_name_systematic
;
6-Methoxy-1-oxy-2-phenyl-3H-indol-3-one
;
_chemical_name_common
;
2-Phenyl-6-methoxyisatogen
;
_cell_volume   1192.471
_exptl_crystal_colour 'orange'
_exptl_crystal_density_diffrn 1.411
_exptl_special_details
;
contribution from School of Natural Sciences (Chemistry), University of 
Newcastle, Newcastle upon Tyne NE1 7RU, UK
;
_exptl_crystal_description 'block'
_diffrn_ambient_temperature 160
#These two values have been output from a single CSD field.
_refine_ls_R_factor_gt 0.0394
_refine_ls_wR_factor_gt 0.0394
_symmetry_cell_setting orthorhombic
_symmetry_space_group_name_H-M 'P n a 21'
_symmetry_Int_Tables_number 33
loop_
_symmetry_equiv_pos_site_id
_symmetry_equiv_pos_as_xyz
1 x,y,z
2 -x,-y,1/2+z
3 1/2+x,1/2-y,z
4 1/2-x,1/2+y,1/2+z
_cell_length_a 11.890(3)
_cell_length_b 19.746(6)
_cell_length_c 5.0791(14)
_cell_angle_alpha 90
_cell_angle_beta 90
_cell_angle_gamma 90
_cell_formula_units_Z 4
loop_
_atom_type_symbol
_atom_type_radius_bond
C 0.68
H 0.23
N 0.68
O 0.68
loop_
_atom_site_label
_atom_site_type_symbol
_atom_site_fract_x
_atom_site_fract_y
_atom_site_fract_z
O1 O 0.0408(3) 0.77166(19) -0.0077(11)
N1 N 0.1374(4) 0.7875(2) 0.0836(10)
C1 C 0.2021(5) 0.8404(3) 0.0263(14)
C2 C 0.3026(5) 0.8356(3) 0.1993(15)
O2 O 0.3841(3) 0.87399(19) 0.2090(11)
C3 C 0.3470(5) 0.7447(3) 0.5709(15)
H1 H 0.41580 0.76380 0.63030
C4 C 0.3044(4) 0.6870(3) 0.6880(15)
H2 H 0.34540 0.66530 0.82470
C5 C 0.2007(5) 0.6600(3) 0.6060(14)
O3 O 0.1682(3) 0.6037(2) 0.7406(10)
C6 C 0.0581(5) 0.5771(3) 0.6819(19)
H3 H 0.04310 0.53780 0.79410
H4 H 0.05490 0.56350 0.49660
H5 H 0.00140 0.61210 0.71520
C7 C 0.1399(5) 0.6891(3) 0.3987(14)
H6 H 0.07120 0.67040 0.33670
C8 C 0.1860(4) 0.7460(3) 0.2918(14)
C9 C 0.2885(5) 0.7742(3) 0.3676(13)
C10 C 0.1778(5) 0.8921(3) -0.1649(14)
C11 C 0.2375(5) 0.9535(3) -0.1603(15)
H7 H 0.29360 0.96050 -0.02990
C12 C 0.2159(5) 1.0040(3) -0.3426(16)
H8 H 0.25810 1.04480 -0.33850
C13 C 0.1335(6) 0.9952(4) -0.5296(18)
H9 H 0.11850 1.03020 -0.65290
C14 C 0.0724(5) 0.9356(3) -0.5393(16)
H10 H 0.01670 0.92920 -0.67100
C15 C 0.0933(5) 0.8849(3) -0.3532(16)
H11 H 0.04920 0.84480 -0.35530
#END
