
#######################################################################
#
#                 Cambridge Crystallographic Data Centre
#                                CCDC
#
#######################################################################
#
# If this CIF has been generated from an entry in the Cambridge
# Structural Database, then it will include bibliographic, chemical,
# crystal, experimental, refinement or atomic coordinate data resulting
# from the CCDC's data processing and validation procedures.
#
#######################################################################

data_CSD_CIF_SAXHAA
_audit_creation_date 1990-03-16
_audit_creation_method CSD-ConQuest-V1
_database_code_CSD SAXHAA
_chemical_formula_sum 'C20 H29 N3 O12'
_chemical_formula_moiety
;
C20 H29 N3 O12
;
_journal_coeditor_code "IUCr GE0007"
_journal_coden_Cambridge 591
_journal_volume 45
_journal_year 1989
_journal_page_first 1563
_journal_name_full 'Acta Crystallogr.,Sect.C:Cryst.Struct.Commun. '
loop_
_publ_author_name
"C.F.Conde"
"A.Conde"
_chemical_name_systematic
;
1-(3,5-Dimethyl-3-nitro-1-pyrazolin-4-yl)-penta-O-acetyl-D-galactopentitol
;
_cell_volume   2526.962
_exptl_crystal_colour 'colorless'
_exptl_crystal_density_diffrn 1.323
_diffrn_ambient_temperature ?
_diffrn_special_details
;
The study was carried out at room temperature,in the range 283-303K

;
#These two values have been output from a single CSD field.
_refine_ls_R_factor_gt 0.035
_refine_ls_wR_factor_gt 0.035
_symmetry_cell_setting orthorhombic
_symmetry_space_group_name_H-M 'P 21 21 21'
_symmetry_Int_Tables_number 19
loop_
_symmetry_equiv_pos_site_id
_symmetry_equiv_pos_as_xyz
1 x,y,z
2 1/2+x,1/2-y,-z
3 -x,1/2+y,1/2-z
4 1/2-x,-y,1/2+z
_cell_length_a 14.471(9)
_cell_length_b 14.518(3)
_cell_length_c 12.028(2)
_cell_angle_alpha 90
_cell_angle_beta 90
_cell_angle_gamma 90
_cell_formula_units_Z 4
loop_
_atom_type_symbol
_atom_type_radius_bond
C 0.68
H 0.23
N 0.68
O 0.68
loop_
_atom_site_label
_atom_site_type_symbol
_atom_site_fract_x
_atom_site_fract_y
_atom_site_fract_z
O1 O 0.7034(4) 0.0799(5) 0.4340(4)
O2 O 0.5870(3) 0.1282(4) 0.3367(6)
O3 O 0.9479(2) 0.1552(2) 0.1666(3)
O4 O 0.9541(3) 0.0878(3) -0.0011(4)
O5 O 0.8581(2) 0.2748(2) 0.3043(3)
O6 O 0.7195(3) 0.2937(3) 0.3777(3)
O7 O 0.8288(2) 0.2989(2) 0.0060(3)
O8 O 0.9735(3) 0.3119(4) -0.0542(4)
O9 O 0.7276(2) 0.4241(2) 0.1464(3)
O10 O 0.7322(3) 0.5085(3) 0.3032(3)
O11 O 0.8549(3) 0.5805(3) 0.0970(3)
O12 O 0.9849(3) 0.6179(3) 0.0056(4)
N1 N 0.7776(4) -0.0815(3) 0.2382(5)
N2 N 0.7030(4) -0.0435(3) 0.2555(5)
N3 N 0.6620(4) 0.0931(4) 0.3463(6)
C1 C 0.7095(4) 0.0593(4) 0.2396(5)
C2 C 0.8148(4) 0.0800(4) 0.2445(5)
C3 C 0.8531(4) -0.0162(4) 0.2128(5)
C4 C 0.8475(4) 0.1554(4) 0.1645(5)
C5 C 0.8187(4) 0.2526(4) 0.1966(5)
C6 C 0.8580(4) 0.3246(4) 0.1175(5)
C7 C 0.8269(4) 0.4219(4) 0.1416(5)
C8 C 0.8622(5) 0.4879(4) 0.0534(5)
C9 C 0.6584(5) 0.0830(6) 0.1366(9)
C10 C 0.9366(6) -0.0456(5) 0.2806(9)
C11 C 0.9916(4) 0.1219(5) 0.0751(6)
C12 C 1.0941(5) 0.1365(7) 0.0878(7)
C13 C 0.8013(5) 0.2944(5) 0.3887(5)
C14 C 0.8500(6) 0.3177(7) 0.4900(7)
C15 C 0.8955(5) 0.2946(4) -0.0732(5)
C16 C 0.8558(6) 0.2671(6) -0.1820(6)
C17 C 0.6886(4) 0.4695(4) 0.2347(5)
C18 C 0.5857(5) 0.4601(6) 0.2330(7)
C19 C 0.9215(5) 0.6404(4) 0.0632(6)
C20 C 0.9036(6) 0.7351(5) 0.1006(6)
H1 H 0.832(4) 0.097(4) 0.326(5)
H2 H 0.868(4) -0.013(4) 0.122(5)
H3 H 0.823(4) 0.146(4) 0.086(5)
H4 H 0.752(4) 0.254(4) 0.202(5)
H5 H 0.922(4) 0.321(4) 0.115(5)
H6 H 0.849(4) 0.434(4) 0.224(5)
H7 H 0.814(4) 0.485(4) -0.010(5)
H8 H 0.920(4) 0.470(4) 0.029(5)
H9 H 0.596(4) 0.065(4) 0.132(5)
H10 H 0.688(4) 0.041(4) 0.063(5)
H11 H 0.657(4) 0.149(4) 0.138(6)
H12 H 0.923(4) -0.104(4) 0.306(5)
H13 H 0.959(4) 0.002(4) 0.329(5)
H14 H 0.981(4) -0.032(5) 0.217(5)
H15 H 1.132(5) 0.114(4) 0.032(5)
H16 H 1.109(4) 0.100(4) 0.162(5)
H17 H 1.117(5) 0.201(4) 0.085(5)
H18 H 0.819(4) 0.329(5) 0.551(5)
H19 H 0.893(4) 0.361(4) 0.481(6)
H20 H 0.876(5) 0.266(4) 0.510(6)
H21 H 0.792(4) 0.272(4) -0.189(6)
H22 H 0.868(4) 0.206(4) -0.200(5)
H23 H 0.893(4) 0.281(4) -0.239(5)
H24 H 0.559(4) 0.491(4) 0.299(5)
H25 H 0.565(4) 0.385(3) 0.233(5)
H26 H 0.556(4) 0.458(4) 0.153(5)
H27 H 0.857(4) 0.773(4) 0.141(5)
H28 H 0.914(5) 0.762(4) 0.042(5)
H29 H 0.956(4) 0.723(4) 0.172(4)
#END
