
#######################################################################
#
#                 Cambridge Crystallographic Data Centre
#                                CCDC
#
#######################################################################
#
# If this CIF has been generated from an entry in the Cambridge
# Structural Database, then it will include bibliographic, chemical,
# crystal, experimental, refinement or atomic coordinate data resulting
# from the CCDC's data processing and validation procedures.
#
#######################################################################

data_CSD_CIF_SAXJEJ
_audit_creation_date 2017-06-29
_audit_creation_method CSD-ConQuest-V1
_database_code_CSD SAXJEJ
_database_code_depnum_ccdc_archive 'CCDC 1521298'
_chemical_formula_sum 'C12 H12 N4 O4'
_chemical_formula_moiety
;
C12 H12 N4 O4
;
_journal_coden_Cambridge 1094
_journal_volume 28
_journal_year 2017
_journal_page_first 1229
_journal_name_full 'Struct.Chem. '
loop_
_publ_author_name
"M.Lukomska-Rogala"
"A.J.Rybarczyk-Pirek"
"K.Ejsmont"
"M.Jasinski"
"M.Palusiak"
_chemical_name_systematic
;
3-hydroxy-1,5-dimethyl-N-(4-nitrophenyl)-1H-imidazole-4-carboxamide
;
_cell_volume    585.845
_exptl_crystal_colour 'yellow'
_exptl_crystal_density_diffrn 1.566
_exptl_crystal_description 'plate'
_diffrn_ambient_temperature 100
#These two values have been output from a single CSD field.
_refine_ls_R_factor_gt 0.0335
_refine_ls_wR_factor_gt 0.0335
_symmetry_cell_setting triclinic
_symmetry_space_group_name_H-M 'P -1'
_symmetry_Int_Tables_number 2
loop_
_symmetry_equiv_pos_site_id
_symmetry_equiv_pos_as_xyz
1 x,y,z
2 -x,-y,-z
_cell_length_a 6.8475(10)
_cell_length_b 8.0309(5)
_cell_length_c 10.6862(13)
_cell_angle_alpha 90.105(8)
_cell_angle_beta 90.064(11)
_cell_angle_gamma 94.492(9)
_cell_formula_units_Z 2
loop_
_atom_type_symbol
_atom_type_radius_bond
C 0.68
H 0.23
N 0.68
O 0.68
loop_
_atom_site_label
_atom_site_type_symbol
_atom_site_fract_x
_atom_site_fract_y
_atom_site_fract_z
O1 O 0.23762(12) 0.74389(11) 0.39946(8)
O2 O -0.31457(13) 0.82424(11) 0.55411(8)
N1 N 0.02276(15) 0.69965(12) 0.56332(10)
N2 N -0.25443(15) 0.87690(12) 0.44095(9)
N3 N 0.40214(17) 0.33658(13) 0.92553(10)
O3 O 0.30257(16) 0.28085(12) 1.01405(9)
O4 O 0.57746(15) 0.31816(13) 0.91585(9)
C1 C 0.12536(17) 0.60680(14) 0.64692(11)
N4 N -0.24826(15) 0.99406(12) 0.25885(9)
C2 C 0.30612(18) 0.42843(14) 0.82811(11)
C3 C -0.35904(18) 0.96024(15) 0.36168(11)
H1 H -0.48870 0.99080 0.37480
C4 C 0.08039(17) 0.76168(14) 0.44947(11)
C5 C 0.41007(18) 0.47942(15) 0.72263(12)
H2 H 0.54210 0.45330 0.71270
C6 C -0.07175(17) 0.85495(14) 0.38864(11)
C7 C 0.02254(18) 0.55074(14) 0.75419(11)
H3 H -0.11010 0.57480 0.76460
C8 C 0.32015(17) 0.56921(14) 0.63121(11)
H4 H 0.39040 0.60510 0.55820
C9 C 0.11200(18) 0.46114(14) 0.84463(11)
H5 H 0.04200 0.42250 0.91700
C10 C -0.06983(17) 0.93047(14) 0.27351(11)
C11 C 0.08469(18) 0.94958(16) 0.17735(12)
H6 H 0.13180 1.06760 0.17050
H7 H 0.03130 0.90990 0.09660
H8 H 0.19360 0.88400 0.20110
C12 C -0.31642(19) 1.08456(15) 0.15000(11)
H9 H -0.43850 1.13410 0.17110
H10 H -0.33960 1.00690 0.07970
H11 H -0.21660 1.17310 0.12650
H12 H -0.114(3) 0.734(2) 0.5811(17)
#END
