
#######################################################################
#
#                 Cambridge Crystallographic Data Centre
#                                CCDC
#
#######################################################################
#
# If this CIF has been generated from an entry in the Cambridge
# Structural Database, then it will include bibliographic, chemical,
# crystal, experimental, refinement or atomic coordinate data resulting
# from the CCDC's data processing and validation procedures.
#
#######################################################################

data_CSD_CIF_SAXJIN
_audit_creation_date 2017-06-29
_audit_creation_method CSD-ConQuest-V1
_database_code_CSD SAXJIN
_database_code_depnum_ccdc_archive 'CCDC 1521299'
_chemical_formula_sum 'C13 H15 N3 O3'
_chemical_formula_moiety
;
C13 H15 N3 O3
;
_journal_coden_Cambridge 1094
_journal_volume 28
_journal_year 2017
_journal_page_first 1229
_journal_name_full 'Struct.Chem. '
loop_
_publ_author_name
"M.Lukomska-Rogala"
"A.J.Rybarczyk-Pirek"
"K.Ejsmont"
"M.Jasinski"
"M.Palusiak"
_chemical_name_systematic
;
N-(4-methoxyphenyl)-1,5-dimethyl-3-oxo-1H-imidazole-4-carboxamide
;
_cell_volume   2514.171
_exptl_crystal_colour 'colorless'
_exptl_crystal_density_diffrn 1.381
_exptl_crystal_description 'plate'
_diffrn_ambient_temperature 100
#These two values have been output from a single CSD field.
_refine_ls_R_factor_gt 0.0306
_refine_ls_wR_factor_gt 0.0306
_symmetry_cell_setting orthorhombic
_symmetry_space_group_name_H-M 'P b c a'
_symmetry_Int_Tables_number 61
loop_
_symmetry_equiv_pos_site_id
_symmetry_equiv_pos_as_xyz
1 x,y,z
2 1/2-x,-y,1/2+z
3 1/2+x,1/2-y,-z
4 -x,1/2+y,1/2-z
5 -x,-y,-z
6 -1/2+x,y,-1/2-z
7 -1/2-x,-1/2+y,z
8 x,-1/2-y,-1/2+z
_cell_length_a 12.7810(3)
_cell_length_b 7.4875(2)
_cell_length_c 26.2720(8)
_cell_angle_alpha 90
_cell_angle_beta 90
_cell_angle_gamma 90
_cell_formula_units_Z 8
loop_
_atom_type_symbol
_atom_type_radius_bond
C 0.68
H 0.23
N 0.68
O 0.68
loop_
_atom_site_label
_atom_site_type_symbol
_atom_site_fract_x
_atom_site_fract_y
_atom_site_fract_z
O1 O 0.82899(6) 0.12294(11) 0.06765(3)
C1 C 1.06013(10) 0.26809(17) -0.10479(4)
H1 H 1.00170 0.32850 -0.12180
H2 H 1.06350 0.14360 -0.11620
H3 H 1.12570 0.32880 -0.11330
C2 C 0.75627(10) 0.08886(17) 0.33563(4)
H4 H 0.74980 0.09480 0.37280
H5 H 0.76620 -0.03560 0.32520
H6 H 0.69250 0.13620 0.31990
C3 C 0.86991(9) 0.12143(17) -0.04935(5)
H7 H 0.84040 0.02990 -0.02690
H8 H 0.89380 0.06560 -0.08100
H9 H 0.81630 0.21090 -0.05710
O2 O 0.84415(6) 0.19264(11) 0.31966(3)
O3 O 1.11991(6) 0.39585(12) 0.07181(3)
N1 N 0.95669(8) 0.25760(13) 0.11595(4)
N2 N 1.04433(7) 0.27309(13) -0.04978(4)
N3 N 1.07379(7) 0.33529(13) 0.02946(4)
C4 C 0.86310(9) 0.20339(14) 0.26843(4)
C5 C 0.97726(8) 0.24671(14) 0.02690(4)
C6 C 0.91295(9) 0.20296(15) 0.07174(4)
C7 C 0.95993(9) 0.20924(14) -0.02360(4)
C8 C 0.97509(9) 0.32688(15) 0.20399(4)
H10 H 1.03270 0.40040 0.19480
C9 C 0.91911(8) 0.23694(15) 0.16592(4)
C10 C 0.83372(9) 0.13309(15) 0.17996(4)
H11 H 0.79420 0.07310 0.15460
C11 C 1.11253(9) 0.34866(16) -0.01686(4)
H12 H 1.17740 0.40230 -0.02560
C12 C 0.80564(9) 0.11625(15) 0.23100(4)
H13 H 0.74710 0.04510 0.24020
C13 C 0.94787(9) 0.31028(15) 0.25442(4)
H14 H 0.98680 0.37160 0.27980
H15 H 1.0229(13) 0.319(2) 0.1103(6)
#END
