
#######################################################################
#
#                 Cambridge Crystallographic Data Centre
#                                CCDC
#
#######################################################################
#
# If this CIF has been generated from an entry in the Cambridge
# Structural Database, then it will include bibliographic, chemical,
# crystal, experimental, refinement or atomic coordinate data resulting
# from the CCDC's data processing and validation procedures.
#
#######################################################################

data_CSD_CIF_SAYMUD
_audit_creation_date 2017-06-29
_audit_creation_method CSD-ConQuest-V1
_database_code_CSD SAYMUD
_database_code_depnum_ccdc_archive 'CCDC 1518467'
_chemical_formula_sum 'C24 H27 N1 O4'
_chemical_formula_moiety
;
C24 H27 N1 O4
;
_journal_coden_Cambridge 4
_journal_volume 139
_journal_year 2017
_journal_page_first 8364
_journal_name_full 'J.Am.Chem.Soc. '
loop_
_publ_author_name
"Fa-Guang Zhang"
"I.Marek"
_chemical_name_systematic
;
(4-butyl-1,4-dimethyl-2-phenylcyclobut-2-en-1-yl)methyl 4-nitrobenzoate
;
_cell_volume   1057.435
_exptl_crystal_colour 'colorless'
_exptl_crystal_density_diffrn 1.236
_exptl_crystal_description 'block'
_diffrn_ambient_temperature 293
#These two values have been output from a single CSD field.
_refine_ls_R_factor_gt 0.0853
_refine_ls_wR_factor_gt 0.0853
_symmetry_cell_setting triclinic
_symmetry_space_group_name_H-M 'P -1'
_symmetry_Int_Tables_number 2
loop_
_symmetry_equiv_pos_site_id
_symmetry_equiv_pos_as_xyz
1 x,y,z
2 -x,-y,-z
_cell_length_a 8.780(6)
_cell_length_b 9.429(4)
_cell_length_c 14.132(7)
_cell_angle_alpha 104.7(1)
_cell_angle_beta 92.47(2)
_cell_angle_gamma 109.332(12)
_cell_formula_units_Z 2
loop_
_atom_type_symbol
_atom_type_radius_bond
C 0.68
H 0.23
N 0.68
O 0.68
loop_
_atom_site_label
_atom_site_type_symbol
_atom_site_fract_x
_atom_site_fract_y
_atom_site_fract_z
O1 O 1.0117(3) 0.7838(3) 0.36317(18)
O2 O 1.0329(2) 0.8675(2) 0.51939(16)
O3 O 0.19692(18) 0.4469(2) 0.33292(11)
O4 O 0.1993(2) 0.5804(3) 0.48641(14)
N1 N 0.9532(3) 0.7987(3) 0.43929(19)
C1 C 0.7771(3) 0.7318(3) 0.43405(18)
C2 C 0.6900(3) 0.6267(3) 0.34813(19)
H1 H 0.74180 0.59780 0.29440
C3 C 0.5250(3) 0.5647(3) 0.34279(18)
H2 H 0.46330 0.49200 0.28490
C4 C 0.4479(3) 0.6087(3) 0.42256(16)
C5 C 0.5399(3) 0.7143(3) 0.50838(17)
H3 H 0.48930 0.74330 0.56270
C6 C 0.7050(3) 0.7767(3) 0.51435(18)
H4 H 0.76770 0.84880 0.57220
C7 C 0.2696(3) 0.5464(3) 0.41938(17)
C8 C 0.0218(3) 0.3800(3) 0.32019(17)
H5 H -0.02520 0.46060 0.32360
H6 H -0.01430 0.32960 0.37120
C9 C -0.0286(3) 0.2620(3) 0.22023(16)
C10 C 0.0373(3) 0.1311(3) 0.21737(19)
H7 H 0.15430 0.17390 0.22940
H8 H 0.00240 0.05520 0.15360
H9 H -0.00300 0.08150 0.26730
C11 C -0.0070(3) 0.3355(3) 0.12878(18)
C12 C -0.1877(3) 0.2652(4) 0.1086(2)
H10 H -0.26170 0.26390 0.05900
C13 C -0.2095(3) 0.2050(3) 0.18426(18)
C14 C -0.35086(16) 0.10845(19) 0.21826(13)
C15 C -0.5025(2) 0.0530(2) 0.16096(13)
H11 H -0.51320 0.08020 0.10290
C16 C -0.63800(15) -0.0431(2) 0.19051(18)
H12 H -0.73940 -0.08020 0.15220
C17 C -0.6219(2) -0.0837(2) 0.27736(19)
H13 H -0.71260 -0.14800 0.29710
C18 C -0.4703(3) -0.0283(2) 0.33465(14)
H14 H -0.45960 -0.05540 0.39270
C19 C -0.33478(18) 0.0678(2) 0.30510(12)
H15 H -0.23330 0.10490 0.34340
C20 C 0.0591(4) 0.5139(3) 0.1539(2)
H16 H -0.00510 0.55590 0.19840
H17 H 0.05370 0.54480 0.09450
H18 H 0.17040 0.55340 0.18460
C21 C 0.0766(3) 0.2669(3) 0.04587(18)
H19 H 0.03610 0.15390 0.03310
H20 H 0.04420 0.28940 -0.01360
C22 C 0.2600(4) 0.3246(4) 0.0639(2)
H21 H 0.29340 0.30280 0.12340
H22 H 0.30150 0.43740 0.07560
C23 C 0.3370(4) 0.2515(4) -0.0203(2)
H23 H 0.45250 0.28190 0.00160
H24 H 0.28930 0.13840 -0.03520
C24 C 0.3179(5) 0.2957(4) -0.1119(2)
H25 H 0.37670 0.25160 -0.15940
H26 H 0.35990 0.40790 -0.09760
H27 H 0.20440 0.25650 -0.13830
#END
