
#######################################################################
#
#                 Cambridge Crystallographic Data Centre
#                                CCDC
#
#######################################################################
#
# If this CIF has been generated from an entry in the Cambridge
# Structural Database, then it will include bibliographic, chemical,
# crystal, experimental, refinement or atomic coordinate data resulting
# from the CCDC's data processing and validation procedures.
#
#######################################################################

data_CSD_CIF_SAYROZ
_audit_creation_date 1990-03-16
_audit_creation_method CSD-ConQuest-V1
_database_code_CSD SAYROZ
_database_code_depnum_ccdc_archive 'CCDC 1255780'
_chemical_formula_sum 'C18 H26 N2 O4'
_chemical_formula_moiety
;
C18 H26 N2 O4
;
_journal_coden_Cambridge 55
_journal_volume 107
_journal_year 1988
_journal_page_first 52
_journal_name_full 'Rec.Trav.Chim.Pays-Bas(Fr.)(Rec.J.R.Neth.Chem.Soc.) '
loop_
_publ_author_name
"P.J.S.S.van Eijk"
"W.P.Trompenaars"
"D.N.Reinhoudt"
"S.Harkema"
_chemical_name_systematic
;
2-Acetoxyamino-N,N-diethyl-2-methyl-4-oxo-3-phenylpentanamide
;
_cell_volume    934.398
_exptl_crystal_density_diffrn 1.189
_diffrn_ambient_temperature ?
_diffrn_special_details
;
The study was carried out at room temperature,in the range 283-303K

;
#These two values have been output from a single CSD field.
_refine_ls_R_factor_gt 0.037
_refine_ls_wR_factor_gt 0.037
_symmetry_cell_setting triclinic
_symmetry_space_group_name_H-M 'P -1'
_symmetry_Int_Tables_number 2
loop_
_symmetry_equiv_pos_site_id
_symmetry_equiv_pos_as_xyz
1 x,y,z
2 -x,-y,-z
_cell_length_a 8.659(4)
_cell_length_b 9.859(6)
_cell_length_c 11.891(6)
_cell_angle_alpha 78.41(4)
_cell_angle_beta 87.25(5)
_cell_angle_gamma 70.03(5)
_cell_formula_units_Z 2
loop_
_atom_type_symbol
_atom_type_radius_bond
C 0.68
H 0.23
N 0.68
O 0.68
loop_
_atom_site_label
_atom_site_type_symbol
_atom_site_fract_x
_atom_site_fract_y
_atom_site_fract_z
C1 C 0.9445(2) 0.4822(2) 0.2504(2)
C2 C 0.8938(3) 0.6219(2) 0.1814(2)
C3 C 1.0062(3) 0.6921(3) 0.1429(2)
C4 C 1.1703(3) 0.6239(3) 0.1737(2)
C5 C 1.2231(3) 0.4858(3) 0.2408(2)
C6 C 1.1112(3) 0.4155(3) 0.2793(2)
C7 C 0.8257(2) 0.4022(2) 0.2981(2)
C8 C 0.6807(2) 0.5090(2) 0.3493(2)
O1 O 0.5595(2) 0.5910(2) 0.2942(1)
C9 C 0.7041(3) 0.5139(2) 0.4723(2)
C10 C 0.7781(2) 0.3224(2) 0.2123(2)
C11 C 0.6874(3) 0.4287(2) 0.1048(2)
N1 N 0.9248(2) 0.2198(2) 0.1687(1)
O2 O 1.0074(2) 0.1111(2) 0.2699(1)
C12 C 1.1346(3) 0.0016(2) 0.2434(2)
O3 O 1.1870(3) 0.0041(2) 0.1505(2)
C13 C 1.1981(3) -0.1166(3) 0.3467(3)
C14 C 0.6739(2) 0.2327(2) 0.2793(2)
O4 O 0.6342(2) 0.2510(2) 0.3773(1)
N2 N 0.6293(2) 0.1379(2) 0.2325(2)
C15 C 0.6599(3) 0.1056(2) 0.1165(2)
C16 C 0.5071(3) 0.1711(3) 0.0394(2)
C17 C 0.5420(3) 0.0516(3) 0.3077(2)
C18 C 0.6583(4) -0.0811(3) 0.3836(3)
H1 H 0.780(2) 0.668(2) 0.163(2)
H2 H 0.965(3) 0.789(2) 0.099(2)
H3 H 1.252(3) 0.674(2) 0.147(2)
H4 H 1.336(3) 0.435(2) 0.262(2)
H5 H 1.147(2) 0.317(2) 0.322(2)
H6 H 0.883(2) 0.326(2) 0.360(1)
H7 H 0.616(3) 0.596(2) 0.498(2)
H8 H 0.707(3) 0.425(3) 0.520(2)
H9 H 0.807(3) 0.530(3) 0.484(2)
H10 H 0.665(2) 0.379(2) 0.052(2)
H11 H 0.588(3) 0.505(2) 0.130(2)
H12 H 0.759(2) 0.481(2) 0.061(2)
H13 H 0.981(4) 0.246(4) 0.134(3)
H14 H 1.296(3) -0.191(3) 0.327(2)
H15 H 1.217(3) -0.075(3) 0.409(2)
H16 H 1.120(3) -0.160(3) 0.369(2)
H17 H 0.755(2) 0.135(2) 0.081(2)
H18 H 0.698(2) -0.002(2) 0.123(2)
H19 H 0.529(3) 0.164(3) -0.042(2)
H20 H 0.421(3) 0.132(2) 0.069(2)
H21 H 0.454(3) 0.283(3) 0.038(2)
H22 H 0.463(3) 0.118(2) 0.356(2)
H23 H 0.482(3) 0.022(3) 0.259(2)
H24 H 0.598(3) -0.139(3) 0.428(2)
H25 H 0.750(3) -0.148(3) 0.338(2)
H26 H 0.726(3) -0.059(3) 0.431(2)
#END
