
#######################################################################
#
#                 Cambridge Crystallographic Data Centre
#                                CCDC
#
#######################################################################
#
# If this CIF has been generated from an entry in the Cambridge
# Structural Database, then it will include bibliographic, chemical,
# crystal, experimental, refinement or atomic coordinate data resulting
# from the CCDC's data processing and validation procedures.
#
#######################################################################

data_CSD_CIF_SAYVEV01
_audit_creation_date 2012-06-01
_audit_creation_method CSD-ConQuest-V1
_database_code_CSD SAYVEV01
_database_code_depnum_ccdc_archive 'CCDC 869481'
_chemical_formula_sum 'C22 H20 N2 O4'
_chemical_formula_moiety
;
C22 H20 N2 O4
;
_journal_coden_Cambridge 182
_journal_volume 48
_journal_year 2012
_journal_page_first 4893
_journal_name_full 'Chem.Commun. '
loop_
_publ_author_name
"P.R.Girling"
"A.S.Batsanov"
"H.C.Shen"
"A.Whiting"
_chemical_name_systematic
;
1,1'-(1-Benzyl-4-(4-nitrophenyl)-1,4-dihydropyridine-3,5-diyl)diethanone
;
_chemical_melting_point 457.7
_cell_volume   1846.500
_exptl_crystal_colour 'yellow'
_exptl_crystal_density_diffrn 1.354
_exptl_special_details
;
polymorph II

;
_exptl_crystal_description 'irregular block'
_diffrn_ambient_temperature 120
#These two values have been output from a single CSD field.
_refine_ls_R_factor_gt 0.0447
_refine_ls_wR_factor_gt 0.0447
_symmetry_cell_setting monoclinic
_symmetry_space_group_name_H-M 'P 21/c'
_symmetry_Int_Tables_number 14
loop_
_symmetry_equiv_pos_site_id
_symmetry_equiv_pos_as_xyz
1 x,y,z
2 -x,1/2+y,1/2-z
3 -x,-y,-z
4 x,-1/2-y,-1/2+z
_cell_length_a 8.5606(5)
_cell_length_b 21.0536(10)
_cell_length_c 10.9717(7)
_cell_angle_alpha 90
_cell_angle_beta 110.968(10)
_cell_angle_gamma 90
_cell_formula_units_Z 4
loop_
_atom_type_symbol
_atom_type_radius_bond
C 0.68
H 0.23
N 0.68
O 0.68
loop_
_atom_site_label
_atom_site_type_symbol
_atom_site_fract_x
_atom_site_fract_y
_atom_site_fract_z
O1 O 0.16092(15) 0.69505(5) 0.81580(12)
O2 O 0.68837(15) 0.56416(6) 0.94739(11)
O3 O -0.01745(15) 0.37507(6) 0.62289(12)
O4 O 0.06997(15) 0.37859(5) 0.46063(12)
N1 N 0.51808(16) 0.69707(6) 0.57529(12)
N2 N 0.06211(16) 0.40021(6) 0.56239(13)
C1 C 0.5572(2) 0.72308(7) 0.46583(15)
H1 H 0.67660 0.73560 0.49740
H2 H 0.48960 0.76190 0.43370
C2 C 0.37101(19) 0.71272(7) 0.59229(14)
H3 H 0.29930 0.74330 0.53590
C3 C 0.32527(18) 0.68613(7) 0.68646(14)
C4 C 0.42307(18) 0.63047(7) 0.76639(14)
H4 H 0.43070 0.63600 0.85890
C5 C 0.59861(18) 0.62995(7) 0.76350(14)
C6 C 0.63285(19) 0.65983(7) 0.66715(14)
H5 H 0.74090 0.65480 0.66260
C7 C 0.18416(19) 0.71213(7) 0.71684(15)
C8 C 0.0717(2) 0.76138(8) 0.62767(18)
H6 H -0.02060 0.77140 0.65760
H7 H 0.02640 0.74470 0.53850
H8 H 0.13610 0.80010 0.62910
C9 C 0.72562(19) 0.59240(7) 0.86380(14)
C10 C 0.9011(2) 0.58850(9) 0.86299(17)
H9 H 0.95150 0.63090 0.87710
H10 H 0.89790 0.57210 0.77860
H11 H 0.96790 0.56000 0.93280
C11 C 0.5242(2) 0.67690(7) 0.35337(14)
C12 C 0.6245(2) 0.67912(8) 0.27784(15)
H12 H 0.71330 0.70900 0.29820
C13 C 0.5960(2) 0.63817(9) 0.17323(16)
H13 H 0.66440 0.64040 0.12170
C14 C 0.4679(2) 0.59399(9) 0.14377(16)
H14 H 0.44940 0.56540 0.07300
C15 C 0.3672(2) 0.59175(9) 0.21763(17)
H15 H 0.27900 0.56160 0.19720
C16 C 0.3940(2) 0.63342(8) 0.32221(16)
H16 H 0.32310 0.63200 0.37190
C17 C 0.33107(18) 0.56830(7) 0.71420(14)
C18 C 0.34060(19) 0.54012(7) 0.60199(15)
H17 H 0.40870 0.55880 0.55980
C19 C 0.2518(2) 0.48517(7) 0.55134(14)
H18 H 0.25740 0.46620 0.47440
C20 C 0.15508(18) 0.45863(7) 0.61529(15)
C21 C 0.14534(19) 0.48458(7) 0.72816(15)
H19 H 0.07930 0.46510 0.77120
C22 C 0.23435(19) 0.53975(7) 0.77716(15)
H20 H 0.22900 0.55830 0.85460
#END
