
#######################################################################
#
#                 Cambridge Crystallographic Data Centre
#                                CCDC
#
#######################################################################
#
# If this CIF has been generated from an entry in the Cambridge
# Structural Database, then it will include bibliographic, chemical,
# crystal, experimental, refinement or atomic coordinate data resulting
# from the CCDC's data processing and validation procedures.
#
#######################################################################

data_CSD_CIF_SAYWIB
_audit_creation_date 2017-06-29
_audit_creation_method CSD-ConQuest-V1
_database_code_CSD SAYWIB
_database_code_depnum_ccdc_archive 'CCDC 1484247'
_chemical_formula_sum 'C23 H25 N1 O4'
_chemical_formula_moiety
;
C23 H25 N1 O4
;
_journal_coden_Cambridge 4
_journal_volume 139
_journal_year 2017
_journal_page_first 8364
_journal_name_full 'J.Am.Chem.Soc. '
loop_
_publ_author_name
"Fa-Guang Zhang"
"I.Marek"
_chemical_name_systematic
;
(4-butyl-4-methyl-2-phenylcyclobut-2-en-1-yl)methyl 4-nitrobenzoate
;
_cell_volume   2056.210
_exptl_crystal_colour 'colorless'
_exptl_crystal_density_diffrn 1.226
_exptl_crystal_description 'prism'
_diffrn_ambient_temperature 293
#These two values have been output from a single CSD field.
_refine_ls_R_factor_gt 0.1236
_refine_ls_wR_factor_gt 0.1236
_symmetry_cell_setting monoclinic
_symmetry_space_group_name_H-M 'P 21/c'
_symmetry_Int_Tables_number 14
loop_
_symmetry_equiv_pos_site_id
_symmetry_equiv_pos_as_xyz
1 x,y,z
2 -x,1/2+y,1/2-z
3 -x,-y,-z
4 x,-1/2-y,-1/2+z
_cell_length_a 14.4140(5)
_cell_length_b 5.5220(2)
_cell_length_c 28.1160(14)
_cell_angle_alpha 90
_cell_angle_beta 113.2450(14)
_cell_angle_gamma 90
_cell_formula_units_Z 4
loop_
_atom_type_symbol
_atom_type_radius_bond
C 0.68
H 0.23
N 0.68
O 0.68
loop_
_atom_site_label
_atom_site_type_symbol
_atom_site_fract_x
_atom_site_fract_y
_atom_site_fract_z
O1 O 0.5409(4) -0.3067(12) 1.0482(2)
O2 O 0.6251(5) -0.6407(12) 1.0699(3)
O3 O 0.9522(4) -0.2334(10) 0.9617(2)
O4 O 0.8499(4) 0.0911(9) 0.93254(19)
N1 N 0.6098(5) -0.4379(14) 1.0498(3)
C1 C 0.6791(5) -0.3543(14) 1.0262(3)
C2 C 0.7638(5) -0.4897(14) 1.0329(3)
H1 H 0.77760 -0.63140 1.05240
C3 C 0.8280(6) -0.4108(14) 1.0102(3)
H2 H 0.88530 -0.50000 1.01410
C4 C 0.8064(5) -0.1985(13) 0.9816(3)
C5 C 0.7203(5) -0.0666(14) 0.9754(3)
H3 H 0.70610 0.07500 0.95590
C6 C 0.6553(6) -0.1433(14) 0.9978(3)
H4 H 0.59760 -0.05540 0.99380
C7 C 0.8780(6) -0.1203(13) 0.9580(3)
C8 C 0.9150(6) 0.1911(15) 0.9096(3)
H5 H 0.98110 0.11610 0.92490
H6 H 0.92310 0.36370 0.91640
C9 C 0.8704(5) 0.1475(14) 0.8519(3)
H7 H 0.86280 -0.02520 0.84320
C10 C 0.9261(5) 0.2854(13) 0.8239(3)
C11 C 0.8463(6) 0.4177(14) 0.7962(3)
H8 H 0.83720 0.54000 0.77210
C12 C 0.7743(6) 0.3016(14) 0.8174(3)
C13 C 0.7324(7) 0.4756(17) 0.8458(3)
H9 H 0.70070 0.38550 0.86440
H10 H 0.68370 0.58020 0.82120
H11 H 0.78650 0.57110 0.86960
C14 C 0.6933(6) 0.1508(17) 0.7778(3)
H12 H 0.65270 0.07610 0.79430
H13 H 0.72530 0.02180 0.76640
C15 C 0.6228(7) 0.293(2) 0.7299(4)
H14 H 0.58590 0.41200 0.74100
H15 H 0.66390 0.38090 0.71540
C16 C 0.5501(7) 0.144(3) 0.6891(4)
H16 H 0.50730 0.05880 0.70280
H17 H 0.58610 0.02500 0.67750
C17 C 0.4837(7) 0.302(3) 0.6425(4)
H18 H 0.43170 0.20320 0.61810
H19 H 0.52480 0.36980 0.62600
H20 H 0.45330 0.43000 0.65440
C18 C 1.0298(6) 0.2665(13) 0.8281(3)
C19 C 1.0921(6) 0.0715(14) 0.8531(3)
H21 H 1.06710 -0.05080 0.86760
C20 C 1.1899(6) 0.0595(17) 0.8566(3)
H22 H 1.23020 -0.07170 0.87310
C21 C 1.2289(7) 0.2384(18) 0.8359(3)
H23 H 1.29520 0.22870 0.83870
C22 C 1.1697(7) 0.4305(17) 0.8113(3)
H24 H 1.19580 0.55170 0.79710
C23 C 1.0717(7) 0.4453(15) 0.8073(3)
H25 H 1.03240 0.57720 0.79050
#END
