
#######################################################################
#
#                 Cambridge Crystallographic Data Centre
#                                CCDC
#
#######################################################################
#
# If this CIF has been generated from an entry in the Cambridge
# Structural Database, then it will include bibliographic, chemical,
# crystal, experimental, refinement or atomic coordinate data resulting
# from the CCDC's data processing and validation procedures.
#
#######################################################################

data_CSD_CIF_SAYXAT
_audit_creation_date 2012-06-01
_audit_creation_method CSD-ConQuest-V1
_database_code_CSD SAYXAT
_database_code_depnum_ccdc_archive 'CCDC 869489'
_chemical_formula_sum 'C22 H22 N2 O5'
_chemical_formula_moiety
;
C22 H22 N2 O5
;
_journal_coden_Cambridge 182
_journal_volume 48
_journal_year 2012
_journal_page_first 4893
_journal_name_full 'Chem.Commun. '
loop_
_publ_author_name
"P.R.Girling"
"A.S.Batsanov"
"H.C.Shen"
"A.Whiting"
_chemical_name_systematic
;
1,1'-(2-Methoxy-4-(4-nitrophenyl)-1-phenyl-1,2,3,4-tetrahydropyridine-3,5-diyl
)diethanone
;
_chemical_melting_point 471
_cell_volume   1947.275
_exptl_crystal_colour 'yellow'
_exptl_crystal_density_diffrn 1.345
_exptl_crystal_description 'plate'
_diffrn_ambient_temperature 120
#These two values have been output from a single CSD field.
_refine_ls_R_factor_gt 0.0402
_refine_ls_wR_factor_gt 0.0402
_symmetry_cell_setting monoclinic
_symmetry_space_group_name_H-M 'P 21/c'
_symmetry_Int_Tables_number 14
loop_
_symmetry_equiv_pos_site_id
_symmetry_equiv_pos_as_xyz
1 x,y,z
2 -x,1/2+y,1/2-z
3 -x,-y,-z
4 x,-1/2-y,-1/2+z
_cell_length_a 11.9899(6)
_cell_length_b 15.0103(8)
_cell_length_c 10.9303(6)
_cell_angle_alpha 90
_cell_angle_beta 98.151(10)
_cell_angle_gamma 90
_cell_formula_units_Z 4
loop_
_atom_type_symbol
_atom_type_radius_bond
C 0.68
H 0.23
N 0.68
O 0.68
loop_
_atom_site_label
_atom_site_type_symbol
_atom_site_fract_x
_atom_site_fract_y
_atom_site_fract_z
O1 O -0.02958(7) 0.44774(5) 0.17930(8)
O2 O 0.18969(8) 0.74788(6) 0.10437(9)
O3 O 0.27488(9) 0.26466(6) 0.70120(9)
O4 O 0.22521(9) 0.37258(7) 0.81155(8)
O5 O 0.40289(7) 0.56944(6) 0.31039(8)
N1 N 0.31281(8) 0.57959(6) 0.10883(9)
N2 N 0.24154(9) 0.34095(7) 0.71214(9)
C1 C 0.45188(15) 0.61505(11) 0.41914(15)
H1 H 0.48470 0.67130 0.39620
H2 H 0.51090 0.57790 0.46480
H3 H 0.39360 0.62730 0.47140
C2 C 0.22525(9) 0.52175(7) 0.08487(10)
H4 H 0.21930 0.48850 0.01030
C3 C 0.14598(10) 0.50809(7) 0.15938(10)
C4 C 0.14697(10) 0.55975(7) 0.2773(1)
H5 H 0.06800 0.58050 0.27900
C5 C 0.22001(11) 0.64455(7) 0.27349(11)
H6 H 0.23740 0.66790 0.35980
C6 C 0.33178(11) 0.62492(8) 0.22701(11)
H7 H 0.37150 0.68250 0.21690
C7 C 0.05417(10) 0.44519(7) 0.12625(10)
C8 C 0.06367(11) 0.37515(7) 0.02945(11)
H8 H -0.00660 0.34100 0.01450
H9 H 0.12620 0.33490 0.05840
H10 H 0.07750 0.40390 -0.04750
C9 C 0.15493(11) 0.71684(8) 0.19453(12)
C10 C 0.04718(13) 0.74885(9) 0.23480(14)
H11 H -0.01510 0.71060 0.19870
H12 H 0.03250 0.81040 0.20670
H13 H 0.05380 0.74660 0.32510
C11 C 0.37933(10) 0.60085(8) 0.01456(12)
C12 C 0.32944(11) 0.60488(8) -0.10810(12)
H14 H 0.25050 0.59640 -0.12870
C13 C 0.39521(12) 0.62126(9) -0.20042(13)
H15 H 0.36140 0.62210 -0.28440
C14 C 0.50967(12) 0.63639(9) -0.17085(14)
H16 H 0.55460 0.64740 -0.23420
C15 C 0.55808(11) 0.63530(8) -0.04827(14)
H17 H 0.63630 0.64740 -0.02770
C16 C 0.49434(11) 0.61692(8) 0.04510(13)
H18 H 0.52870 0.61530 0.12890
C17 C 0.17842(10) 0.50240(7) 0.39269(10)
C18 C 0.15357(11) 0.53298(8) 0.50609(11)
H19 H 0.12200 0.59070 0.51130
C19 C 0.17412(11) 0.48067(8) 0.61178(11)
H20 H 0.15720 0.50190 0.68890
C20 C 0.21985(10) 0.39706(8) 0.60151(10)
C21 C 0.24581(10) 0.36412(8) 0.49045(11)
H21 H 0.27700 0.30630 0.48580
C22 C 0.22498(10) 0.41764(8) 0.38641(11)
H22 H 0.24270 0.39630 0.30960
#END
