
#######################################################################
#
#                 Cambridge Crystallographic Data Centre
#                                CCDC
#
#######################################################################
#
# If this CIF has been generated from an entry in the Cambridge
# Structural Database, then it will include bibliographic, chemical,
# crystal, experimental, refinement or atomic coordinate data resulting
# from the CCDC's data processing and validation procedures.
#
#######################################################################

data_CSD_CIF_SAZHAC
_audit_creation_date 1990-04-21
_audit_creation_method CSD-ConQuest-V1
_database_code_CSD SAZHAC
_chemical_formula_sum 'C10 H12 N2 O4'
_chemical_formula_moiety
;
C10 H12 N2 O4
;
_journal_coden_Cambridge 582
_journal_volume 19
_journal_year 1989
_journal_page_first 341
_journal_name_full 'J.Crystallogr.Spectrosc.Res. '
loop_
_publ_author_name
"O.Ori"
"P.Sgarabotto"
"F.Ugozzoli"
"S.Sorriso"
_chemical_name_systematic
;
m-Dinitrotetramethylbenzene
;
_cell_volume   1099.528
_exptl_crystal_colour 'colorless'
_exptl_crystal_density_diffrn 1.35
_diffrn_ambient_temperature ?
_diffrn_special_details
;
The study was carried out at room temperature,in the range 283-303K

;
#These two values have been output from a single CSD field.
_refine_ls_R_factor_gt 0.074
_refine_ls_wR_factor_gt 0.074
_symmetry_cell_setting monoclinic
_symmetry_space_group_name_H-M 'P 21/m'
_symmetry_Int_Tables_number 11
loop_
_symmetry_equiv_pos_site_id
_symmetry_equiv_pos_as_xyz
1 x,y,z
2 -x,1/2+y,-z
3 -x,-y,-z
4 x,-1/2-y,z
_cell_length_a 15.462(4)
_cell_length_b 7.926(3)
_cell_length_c 8.972(3)
_cell_angle_alpha 90
_cell_angle_beta 90.2(1)
_cell_angle_gamma 90
_cell_formula_units_Z 4
loop_
_atom_type_symbol
_atom_type_radius_bond
C 0.68
N 0.68
O 0.68
loop_
_atom_site_label
_atom_site_type_symbol
_atom_site_fract_x
_atom_site_fract_y
_atom_site_fract_z
O1 O 0.4117(3) 0.3825(5) 0.4485(4)
O2 O 0.7110(2) 0.1194(5) 0.0505(7)
N1 N 0.4258(3) 0.25000 0.3890(5)
N2 N 0.6731(4) 0.25000 0.0565(6)
C1 C 0.4617(3) 0.25000 0.2368(5)
C2 C 0.5504(3) 0.25000 0.2251(6)
C3 C 0.5791(3) 0.25000 0.0782(6)
C4 C 0.5266(4) 0.25000 -0.0465(6)
C5 C 0.4373(4) 0.25000 -0.0249(5)
C6 C 0.4031(3) 0.25000 0.1198(5)
C7 C 0.6114(5) 0.25000 0.3574(8)
C8 C 0.5644(7) 0.25000 -0.2023(9)
C9 C 0.3767(6) 0.25000 -0.1582(8)
C10 C 0.3066(4) 0.25000 0.1500(12)
O3 O -0.2269(2) 0.1161(5) 0.6291(5)
O4 O 0.1148(3) 0.1180(5) 0.9089(4)
N3 N -0.1899(4) 0.25000 0.6245(6)
N4 N 0.0946(4) 0.25000 0.8562(6)
C11 C -0.0948(3) 0.25000 0.6092(6)
C12 C -0.0480(3) 0.25000 0.7404(5)
C13 C 0.0403(3) 0.25000 0.7198(5)
C14 C 0.0819(3) 0.25000 0.5824(6)
C15 C 0.0301(3) 0.25000 0.4544(5)
C16 C -0.0594(4) 0.25000 0.4663(5)
C17 C -0.0906(6) 0.25000 0.8910(8)
C18 C 0.1795(4) 0.25000 0.5744(11)
C19 C 0.0715(6) 0.25000 0.3019(8)
C20 C -0.1180(5) 0.25000 0.3318(7)
O1C O 0.4117(3) 0.1175(5) 0.4485(4)
O2C O 0.7110(2) 0.3806(5) 0.0505(7)
O3C O -0.2269(2) 0.3839(5) 0.6291(5)
O4C O 0.1148(3) 0.3820(5) 0.9089(4)
#END
