
#######################################################################
#
#                 Cambridge Crystallographic Data Centre
#                                CCDC
#
#######################################################################
#
# If this CIF has been generated from an entry in the Cambridge
# Structural Database, then it will include bibliographic, chemical,
# crystal, experimental, refinement or atomic coordinate data resulting
# from the CCDC's data processing and validation procedures.
#
#######################################################################

data_CSD_CIF_SAZJIN
_audit_creation_date 2006-02-24
_audit_creation_method CSD-ConQuest-V1
_database_code_CSD SAZJIN
_database_code_depnum_ccdc_archive 'CCDC 296695'
_chemical_formula_sum 'C16 H17 N3 O4'
_chemical_formula_moiety
;
C16 H17 N3 O4
;
_journal_coeditor_code "IUCr WN2002"
_journal_coden_Cambridge 1370
_journal_volume 62
_journal_year 2006
_journal_page_first o171
_journal_name_full 'Acta Crystallogr.,Sect.E:Struct.Rep.Online '
loop_
_publ_author_name
"Jun Shi"
_chemical_name_systematic
;
(E)-1-(4-Ethoxy-3-methoxybenzylidene)-2-(4-nitrophenyl)hydrazine
;
_cell_volume   1582.228
_exptl_crystal_colour 'yellow'
_exptl_crystal_density_diffrn 1.324
_exptl_crystal_description 'block'
_exptl_crystal_preparation 'acetonitrile'
_diffrn_ambient_temperature 294
#These two values have been output from a single CSD field.
_refine_ls_R_factor_gt 0.0512
_refine_ls_wR_factor_gt 0.0512
_symmetry_cell_setting monoclinic
_symmetry_space_group_name_H-M 'P 21'
_symmetry_Int_Tables_number 4
loop_
_symmetry_equiv_pos_site_id
_symmetry_equiv_pos_as_xyz
1 x,y,z
2 -x,1/2+y,-z
_cell_length_a 7.589(2)
_cell_length_b 23.491(7)
_cell_length_c 8.929(2)
_cell_angle_alpha 90
_cell_angle_beta 96.287(5)
_cell_angle_gamma 90
_cell_formula_units_Z 4
loop_
_atom_type_symbol
_atom_type_radius_bond
C 0.68
H 0.23
N 0.68
O 0.68
loop_
_atom_site_label
_atom_site_type_symbol
_atom_site_fract_x
_atom_site_fract_y
_atom_site_fract_z
O1 O 0.8873(6) 0.24430(17) 0.4654(5)
O2 O 1.1357(5) 0.30101(18) 0.3632(5)
O3 O -0.2396(6) 0.2677(2) 0.9379(7)
O4 O -0.2808(8) 0.3407(2) 1.0737(7)
O5 O 0.4675(6) -0.00804(16) 0.9106(4)
O6 O 0.5682(5) 0.05007(16) 1.1448(4)
O7 O -0.1223(9) 0.0948(2) -0.2717(6)
O8 O -0.0312(7) 0.0137(2) -0.1896(5)
N1 N 0.5232(6) 0.38797(19) 0.7327(5)
N2 N 0.4168(6) 0.41536(19) 0.8219(5)
H1 H 0.44130 0.44970 0.85030
N3 N -0.1920(8) 0.3142(3) 0.9913(7)
N4 N 0.2437(6) 0.13593(19) 0.5003(5)
N5 N 0.1626(6) 0.16531(19) 0.3824(5)
H2 H 0.14630 0.20130 0.39160
N6 N -0.0572(8) 0.0645(3) -0.1722(6)
C1 C 0.7653(7) 0.3287(2) 0.5710(6)
H3 H 0.67440 0.30790 0.60650
C2 C 0.8847(8) 0.3021(2) 0.4928(6)
C3 C 1.0213(8) 0.3324(2) 0.4362(6)
C4 C 1.0322(8) 0.3903(2) 0.4600(7)
H4 H 1.12030 0.41150 0.42140
C5 C 0.9113(8) 0.4164(2) 0.5416(7)
H5 H 0.92080 0.45540 0.55840
C6 C 0.7775(7) 0.3873(2) 0.5989(6)
C7 C 0.6565(7) 0.4152(2) 0.6905(6)
H6 H 0.67540 0.45300 0.71890
C8 C 0.2718(7) 0.3890(2) 0.8668(5)
C9 C 0.2276(8) 0.3330(2) 0.8240(6)
H7 H 0.30080 0.31230 0.76710
C10 C 0.0782(8) 0.3091(2) 0.8655(7)
H8 H 0.04830 0.27210 0.83550
C11 C -0.0302(8) 0.3388(2) 0.9516(6)
C12 C 0.0137(8) 0.3935(3) 0.9973(7)
H9 H -0.05880 0.41340 1.05650
C13 C 0.1628(8) 0.4183(2) 0.9561(6)
H10 H 0.19230 0.45520 0.98780
C14 C 0.7678(9) 0.2091(3) 0.5353(8)
H11 H 0.78510 0.21470 0.64240
H12 H 0.78930 0.17000 0.51270
H13 H 0.64810 0.21890 0.49800
C15 C 1.2930(8) 0.3273(3) 0.3220(7)
H14 H 1.36430 0.34160 0.41080
H15 H 1.26290 0.35890 0.25410
C16 C 1.3937(9) 0.2830(4) 0.2459(8)
H16 H 1.43020 0.25330 0.31630
H17 H 1.49630 0.30000 0.21020
H18 H 1.31900 0.26730 0.16230
C17 C 0.4268(7) 0.1661(2) 0.8828(6)
H19 H 0.41890 0.20560 0.87990
C18 C 0.4976(8) 0.1399(2) 1.0161(6)
H20 H 0.53660 0.16170 1.10030
C19 C 0.5091(7) 0.0814(2) 1.0216(5)
C20 C 0.4521(7) 0.0498(2) 0.8919(6)
C21 C 0.3839(7) 0.0760(2) 0.7615(6)
H21 H 0.34780 0.05440 0.67650
C22 C 0.3683(7) 0.1357(2) 0.7557(6)
C23 C 0.2874(7) 0.1635(2) 0.6196(6)
H22 H 0.26760 0.20250 0.62070
C24 C 0.1055(7) 0.1394(2) 0.2486(6)
C25 C 0.1382(7) 0.0813(2) 0.2251(6)
H23 H 0.19590 0.05920 0.30180
C26 C 0.0837(8) 0.0579(2) 0.0875(6)
H24 H 0.10650 0.01970 0.07090
C27 C -0.0029(8) 0.0893(2) -0.0253(6)
C28 C -0.0387(8) 0.1466(2) -0.0040(7)
H25 H -0.09810 0.16820 -0.08100
C29 C 0.0154(7) 0.1704(2) 0.1326(6)
H26 H -0.00890 0.20860 0.14820
C30 C 0.4288(12) -0.0428(3) 0.7795(7)
H27 H 0.30540 -0.03930 0.74310
H28 H 0.45530 -0.08180 0.80480
H29 H 0.49950 -0.03060 0.70270
C31 C 0.6331(9) 0.0801(3) 1.2804(6)
H30 H 0.54000 0.10370 1.31370
H31 H 0.73160 0.10440 1.26180
C32 C 0.6916(11) 0.0371(3) 1.3976(7)
H32 H 0.59140 0.01520 1.42080
H33 H 0.74360 0.05610 1.48680
H34 H 0.77770 0.01230 1.36080
#END
