
#######################################################################
#
#                 Cambridge Crystallographic Data Centre
#                                CCDC
#
#######################################################################
#
# If this CIF has been generated from an entry in the Cambridge
# Structural Database, then it will include bibliographic, chemical,
# crystal, experimental, refinement or atomic coordinate data resulting
# from the CCDC's data processing and validation procedures.
#
#######################################################################

data_CSD_CIF_SAZPER
_audit_creation_date 2017-06-30
_audit_creation_method CSD-ConQuest-V1
_database_code_CSD SAZPER
_database_code_depnum_ccdc_archive 'CCDC 940425'
_chemical_formula_sum 'C20 H15 N3 O2'
_chemical_formula_moiety
;
C20 H15 N3 O2
;
_journal_coden_Cambridge 208
_journal_volume 253
_journal_year 2017
_journal_page_first 63
_journal_name_full 'J.Solid State Chem. '
loop_
_publ_author_name
"U.S.Rai"
"Manjeet Singh"
"R.N.Rai"
_chemical_name_systematic
;
7-nitro-2,3-diphenyl-1,2-dihydroquinoxaline
;
_cell_volume   3312.778
_exptl_crystal_colour 'yellow'
_exptl_crystal_density_diffrn 1.321
_exptl_crystal_description 'block'
_diffrn_ambient_temperature 293
#These two values have been output from a single CSD field.
_refine_ls_R_factor_gt 0.0638
_refine_ls_wR_factor_gt 0.0638
_symmetry_cell_setting monoclinic
_symmetry_space_group_name_H-M 'C 2/c'
_symmetry_Int_Tables_number 15
loop_
_symmetry_equiv_pos_site_id
_symmetry_equiv_pos_as_xyz
1 x,y,z
2 -x,y,1/2-z
3 1/2+x,1/2+y,z
4 1/2-x,1/2+y,1/2-z
5 -x,-y,-z
6 x,-y,-1/2+z
7 -1/2-x,-1/2-y,-z
8 -1/2+x,-1/2-y,-1/2+z
_cell_length_a 30.306(3)
_cell_length_b 7.0701(6)
_cell_length_c 16.1304(15)
_cell_angle_alpha 90
_cell_angle_beta 106.564(10)
_cell_angle_gamma 90
_cell_formula_units_Z 8
loop_
_atom_type_symbol
_atom_type_radius_bond
C 0.68
H 0.23
N 0.68
O 0.68
loop_
_atom_site_label
_atom_site_type_symbol
_atom_site_fract_x
_atom_site_fract_y
_atom_site_fract_z
N1 N 0.05050(6) 0.1721(3) 0.18680(13)
N2 N 0.08619(6) 0.2598(3) 0.04858(12)
H1 H 0.09700 0.28660 0.00620
C1 C 0.00956(8) 0.2845(3) -0.04596(17)
H2 H 0.02070 0.31370 -0.09250
C2 C 0.09524(7) 0.1868(3) 0.19765(14)
C3 C 0.11357(7) 0.2267(3) 0.12584(14)
H3 H 0.11420 0.36200 0.13920
C4 C 0.03961(7) 0.2504(3) 0.03733(15)
C5 C 0.02208(8) 0.2042(3) 0.10592(17)
C6 C 0.16398(7) 0.2308(3) 0.13577(13)
C7 C -0.03672(8) 0.2728(3) -0.05539(19)
C8 C -0.02621(8) 0.1960(4) 0.0924(2)
H4 H -0.03810 0.16750 0.13810
C9 C 0.12483(7) 0.1686(3) 0.28799(14)
C10 C 0.19255(8) 0.0866(4) 0.17823(15)
H5 H 0.18060 -0.01100 0.20390
C11 C 0.18252(8) 0.3753(4) 0.09834(15)
H6 H 0.16370 0.47230 0.06910
N3 N -0.06880(9) 0.3077(4) -0.1414(2)
C12 C 0.23896(8) 0.0876(4) 0.18252(16)
H7 H 0.25790 -0.01050 0.21050
C13 C 0.22899(9) 0.3755(4) 0.10434(17)
H8 H 0.24130 0.47420 0.08000
C14 C -0.05503(9) 0.2300(4) 0.0122(2)
H9 H -0.08670 0.22470 0.00260
O1 O -0.10961(7) 0.2877(4) -0.15268(18)
C15 C 0.15437(8) 0.3123(4) 0.32499(16)
H10 H 0.15670 0.41820 0.29230
C16 C 0.12147(9) 0.0125(4) 0.33725(17)
H11 H 0.10130 -0.08500 0.31320
C17 C 0.25712(8) 0.2310(4) 0.14607(16)
H12 H 0.28830 0.23120 0.14940
C18 C 0.14829(12) 0.0013(5) 0.42260(19)
H13 H 0.14630 -0.10450 0.45550
C19 C 0.17767(11) 0.1451(6) 0.45851(19)
H14 H 0.19560 0.13660 0.51570
C20 C 0.18072(10) 0.3011(5) 0.41062(17)
H15 H 0.20040 0.39960 0.43530
O2 O -0.05271(9) 0.3559(4) -0.19965(19)
#END
