
#######################################################################
#
#                 Cambridge Crystallographic Data Centre
#                                CCDC
#
#######################################################################
#
# If this CIF has been generated from an entry in the Cambridge
# Structural Database, then it will include bibliographic, chemical,
# crystal, experimental, refinement or atomic coordinate data resulting
# from the CCDC's data processing and validation procedures.
#
#######################################################################

data_CSD_CIF_SEBFAJ
_audit_creation_date 2017-06-30
_audit_creation_method CSD-ConQuest-V1
_database_code_CSD SEBFAJ
_database_code_depnum_ccdc_archive 'CCDC 1530990'
_chemical_formula_sum 'C16 H6 N4 O4'
_chemical_formula_moiety
;
C16 H6 N4 O4
;
_journal_coden_Cambridge 2066
_journal_volume 2
_journal_year 2017
_journal_page_first 1594
_journal_name_full 'ACS Omega '
loop_
_publ_author_name
"F.Glocklhofer"
"A.J.Morawietz"
"B.Stoger"
"M.M.Unterlass"
"J.Frohlich"
_chemical_name_systematic
;
2,7-dinitroanthracene-9,10-dicarbonitrile
;
_cell_volume    650.077
_exptl_crystal_colour 'yellow'
_exptl_crystal_density_diffrn 1.626
_exptl_crystal_description 'tabular'
_diffrn_ambient_temperature 100
#These two values have been output from a single CSD field.
_refine_ls_R_factor_gt 0.0464
_refine_ls_wR_factor_gt 0.0464
_symmetry_cell_setting monoclinic
_symmetry_space_group_name_H-M 'P 21'
_symmetry_Int_Tables_number 4
loop_
_symmetry_equiv_pos_site_id
_symmetry_equiv_pos_as_xyz
1 x,y,z
2 -x,1/2+y,-z
_cell_length_a 3.7419(4)
_cell_length_b 8.4966(9)
_cell_length_c 20.448(2)
_cell_angle_alpha 90
_cell_angle_beta 90.597(3)
_cell_angle_gamma 90
_cell_formula_units_Z 2
loop_
_atom_type_symbol
_atom_type_radius_bond
C 0.68
H 0.23
N 0.68
O 0.68
loop_
_atom_site_label
_atom_site_type_symbol
_atom_site_fract_x
_atom_site_fract_y
_atom_site_fract_z
O1 O 0.4535(5) 0.6591(2) 0.07634(8)
O2 O 0.7897(5) 0.5317(2) 0.00955(9)
O3 O 0.0223(5) 0.1712(2) 0.50685(8)
O4 O 0.3397(5) -0.0352(2) 0.52991(9)
N1 N 0.1264(5) 0.5608(2) 0.31907(9)
N2 N 0.9590(5) -0.2436(2) 0.18986(10)
N3 N 0.6223(5) 0.5441(2) 0.06050(9)
N4 N 0.2225(5) 0.0634(2) 0.49171(9)
C1 C 0.4044(5) 0.3029(2) 0.27539(10)
C2 C 0.5230(5) 0.2939(2) 0.21046(10)
C3 C 0.5044(5) 0.4257(2) 0.16671(10)
C4 C 0.6316(5) 0.4068(2) 0.10525(10)
C5 C 0.7730(5) 0.2641(2) 0.08086(10)
C6 C 0.7854(5) 0.1367(2) 0.12118(10)
C7 C 0.6656(5) 0.1473(2) 0.18694(10)
C8 C 0.6816(5) 0.0182(2) 0.2299(1)
C9 C 0.5647(5) 0.0269(2) 0.29511(10)
C10 C 0.5864(5) -0.1052(2) 0.33809(11)
C11 C 0.4725(6) -0.0930(2) 0.40073(11)
C12 C 0.3355(5) 0.0520(2) 0.42277(10)
C13 C 0.3050(5) 0.1826(2) 0.38456(9)
C14 C 0.4236(5) 0.1729(2) 0.31862(9)
C15 C 0.2549(5) 0.4488(2) 0.29941(10)
C16 C 0.8319(5) -0.1276(2) 0.20729(10)
H1 H 0.40517 0.52437 0.18048
H2 H 0.85835 0.25729 0.03683
H3 H 0.87598 0.03846 0.10511
H4 H 0.68200 -0.20311 0.32265
H5 H 0.48511 -0.18197 0.42962
H6 H 0.20649 0.27849 0.40149
#END
