
#######################################################################
#
#                 Cambridge Crystallographic Data Centre
#                                CCDC
#
#######################################################################
#
# If this CIF has been generated from an entry in the Cambridge
# Structural Database, then it will include bibliographic, chemical,
# crystal, experimental, refinement or atomic coordinate data resulting
# from the CCDC's data processing and validation procedures.
#
#######################################################################

data_CSD_CIF_SEBSAT
_audit_creation_date 1999-01-22
_audit_creation_method CSD-ConQuest-V1
_database_code_CSD SEBSAT
_database_code_depnum_ccdc_archive 'CCDC 130739'
_chemical_formula_sum 'C15 H17 N1 O4'
_chemical_formula_moiety
;
C15 H17 N1 O4
;
_journal_coeditor_code "IUCr HA1220"
_journal_coden_Cambridge 591
_journal_volume 54
_journal_year 1998
_journal_page_first 1925
_journal_name_full 'Acta Crystallogr.,Sect.C:Cryst.Struct.Commun. '
loop_
_publ_author_name
"H.-K.Fun"
"K.Chinnakali"
"N.K.Hazra"
"D.Mal"
"G.D.Nigam"
"I.A.Razak"
_chemical_name_systematic
;
1,9a-Epoxy-1,2,3,4,4a,4b,5,8,8a,9a-decahydro-2-methyl-4-nitro-5,8-methano-9H-f
luoren-9-one
;
_cell_volume   1338.940
_exptl_crystal_colour 'colorless'
_exptl_crystal_density_diffrn 1.366
_exptl_crystal_description 'block'
_exptl_crystal_preparation 'ethanol'
_diffrn_ambient_temperature ?
_diffrn_special_details
;
The study was carried out at room temperature,in the range 283-303K

;
#These two values have been output from a single CSD field.
_refine_ls_R_factor_gt 0.048
_refine_ls_wR_factor_gt 0.048
_symmetry_cell_setting monoclinic
_symmetry_space_group_name_H-M 'P 21/c'
_symmetry_Int_Tables_number 14
loop_
_symmetry_equiv_pos_site_id
_symmetry_equiv_pos_as_xyz
1 x,y,z
2 -x,1/2+y,1/2-z
3 -x,-y,-z
4 x,-1/2-y,-1/2+z
_cell_length_a 11.5320(2)
_cell_length_b 11.2967(2)
_cell_length_c 10.3406(2)
_cell_angle_alpha 90
_cell_angle_beta 96.312(1)
_cell_angle_gamma 90
_cell_formula_units_Z 4
loop_
_atom_type_symbol
_atom_type_radius_bond
C 0.68
H 0.23
N 0.68
O 0.68
loop_
_atom_site_label
_atom_site_type_symbol
_atom_site_fract_x
_atom_site_fract_y
_atom_site_fract_z
O1 O 0.77961(13) 0.14612(12) 0.54574(13)
O2 O 0.94165(11) 0.08571(10) 0.77657(12)
O3 O 0.7453(2) -0.1907(2) 1.0300(2)
O4 O 0.8018(2) -0.34985(14) 0.9515(2)
N1 N 0.79097(14) -0.24379(14) 0.9485(2)
C1 C 0.8403(2) -0.17725(13) 0.8392(2)
C2 C 0.9711(2) -0.1632(2) 0.8737(2)
C3 C 1.0262(2) -0.1174(2) 0.7547(2)
C4 C 0.96062(15) -0.01353(15) 0.6922(2)
C5 C 0.84256(14) 0.01519(13) 0.72349(15)
C6 C 0.7556(2) 0.07191(13) 0.6235(2)
C7 C 0.63699(15) 0.02108(15) 0.6365(2)
C8 C 0.5431(2) 0.1133(2) 0.6698(2)
C9 C 0.5984(2) 0.1836(2) 0.7853(3)
C10 C 0.6079(2) 0.1133(2) 0.8880(2)
C11 C 0.5604(2) -0.0070(2) 0.8435(2)
C12 C 0.65008(14) -0.06125(14) 0.7579(2)
C13 C 0.77952(13) -0.05768(13) 0.81716(15)
C14 C 1.1546(2) -0.0855(2) 0.7885(3)
C15 C 0.4631(2) 0.0311(2) 0.7385(2)
H1 H 0.8247(15) -0.2312(15) 0.7651(17)
H2 H 1.0026(17) -0.2339(18) 0.8971(19)
H3 H 0.9856(18) -0.1066(18) 0.9469(19)
H4 H 1.0227(17) -0.1807(17) 0.6835(19)
H5 H 0.9857(16) 0.0130(16) 0.6105(19)
H6 H 0.6121(17) -0.0195(18) 0.5562(20)
H7 H 0.5076(22) 0.1566(21) 0.5949(24)
H8 H 0.632(2) 0.2630(21) 0.7784(22)
H9 H 0.6497(20) 0.1286(21) 0.9705(24)
H10 H 0.5407(18) -0.0621(20) 0.9098(21)
H11 H 0.6285(16) -0.1397(17) 0.7305(18)
H12 H 0.7891(14) -0.0162(15) 0.8986(17)
H13 H 1.1544(27) -0.0168(28) 0.8554(29)
H14 H 1.1918(23) -0.0593(22) 0.7050(25)
H15 H 1.1994(27) -0.1503(28) 0.8342(30)
H16 H 0.4312(19) -0.0360(19) 0.6807(21)
H17 H 0.3948(22) 0.0742(21) 0.7743(24)
#END
