
#######################################################################
#
#                 Cambridge Crystallographic Data Centre
#                                CCDC
#
#######################################################################
#
# If this CIF has been generated from an entry in the Cambridge
# Structural Database, then it will include bibliographic, chemical,
# crystal, experimental, refinement or atomic coordinate data resulting
# from the CCDC's data processing and validation procedures.
#
#######################################################################

data_CSD_CIF_SEBYED
_audit_creation_date 1990-05-24
_audit_creation_method CSD-ConQuest-V1
_database_code_CSD SEBYED
_chemical_formula_sum 'C15 H15 N1 O3'
_chemical_formula_moiety
;
C15 H15 N1 O3
;
_journal_coden_Cambridge 4
_journal_volume 111
_journal_year 1989
_journal_page_first 6884
_journal_name_full 'J.Am.Chem.Soc. '
loop_
_publ_author_name
"M.Mori"
"T.Sugiyama"
"M.Nojima"
"S.Kusabayashi"
"K.J.McCullough"
_chemical_name_systematic
;
5-Methyl-6,6-diphenyl-1,2,4,5-trioxazinane
;
_cell_volume    660.433
_exptl_crystal_density_diffrn 1.294
_diffrn_ambient_temperature ?
_diffrn_special_details
;
The study was carried out at room temperature,in the range 283-303K

;
#These two values have been output from a single CSD field.
_refine_ls_R_factor_gt 0.046
_refine_ls_wR_factor_gt 0.046
_symmetry_cell_setting triclinic
_symmetry_space_group_name_H-M 'P -1'
_symmetry_Int_Tables_number 2
loop_
_symmetry_equiv_pos_site_id
_symmetry_equiv_pos_as_xyz
1 x,y,z
2 -x,-y,-z
_cell_length_a 9.4076(14)
_cell_length_b 11.1916(19)
_cell_length_c 7.3327(23)
_cell_angle_alpha 94.639(20)
_cell_angle_beta 107.281(19)
_cell_angle_gamma 113.148(13)
_cell_formula_units_Z 2
loop_
_atom_type_symbol
_atom_type_radius_bond
C 0.68
H 0.23
N 0.68
O 0.68
loop_
_atom_site_label
_atom_site_type_symbol
_atom_site_fract_x
_atom_site_fract_y
_atom_site_fract_z
C1 C 0.1869(5) 0.4778(4) -0.0219(5)
O1 O 0.2599(3) 0.43436(20) 0.2821(3)
O2 O 0.1857(3) 0.51063(20) 0.1661(3)
C2 C 0.1421(4) 0.2949(3) 0.2010(4)
N1 N 0.1256(3) 0.25388(25) -0.0010(3)
O3 O 0.0774(3) 0.34238(24) -0.1119(3)
C3 C 0.37667(22) 0.28059(15) 0.4694(3)
C4 C 0.44124(22) 0.20559(15) 0.5797(3)
C5 C 0.34618(22) 0.06868(15) 0.5492(3)
C6 C 0.18657(22) 0.00676(15) 0.4084(3)
C7 C 0.12200(22) 0.08175(15) 0.2981(3)
C8 C 0.21706(22) 0.21867(15) 0.3287(3)
C9 C -0.02503(22) 0.32841(19) 0.39058(24)
C10 C -0.17514(22) 0.30710(19) 0.41164(24)
C11 C -0.32404(22) 0.22965(19) 0.25658(24)
C12 C -0.32281(22) 0.17351(19) 0.08047(24)
C13 C -0.17270(22) 0.19482(19) 0.05941(24)
C14 C -0.02380(22) 0.27227(19) 0.21447(24)
C15 C 0.2699(5) 0.2513(4) -0.0328(6)
H1 H 0.3083(5) 0.4998(4) -0.0178(5)
H2 H 0.1357(5) 0.5272(4) -0.1074(5)
H3 H 0.44140(22) 0.37383(15) 0.4902(3)
H4 H 0.54993(22) 0.24776(15) 0.6756(3)
H5 H 0.39015(22) 0.01761(15) 0.6243(3)
H6 H 0.12183(22) -0.08648(15) 0.3876(3)
H7 H 0.01330(22) 0.03958(15) 0.2023(3)
H8 H 0.07637(22) 0.38115(19) 0.49618(24)
H9 H -0.17598(22) 0.34533(19) 0.53158(24)
H10 H -0.42627(22) 0.21513(19) 0.27093(24)
H11 H -0.42421(22) 0.12076(19) -0.02513(24)
H12 H -0.17186(22) 0.15658(19) -0.06053(24)
H13 H 0.2817(5) 0.1759(4) 0.0068(6)
H14 H 0.3698(5) 0.3296(4) 0.0348(6)
H15 H 0.2462(5) 0.2409(4) -0.1700(6)
#END
