
#######################################################################
#
#                 Cambridge Crystallographic Data Centre
#                                CCDC
#
#######################################################################
#
# If this CIF has been generated from an entry in the Cambridge
# Structural Database, then it will include bibliographic, chemical,
# crystal, experimental, refinement or atomic coordinate data resulting
# from the CCDC's data processing and validation procedures.
#
#######################################################################

data_CSD_CIF_SECHIT
_audit_creation_date 2013-02-01
_audit_creation_method CSD-ConQuest-V1
_database_code_CSD SECHIT
_database_code_depnum_ccdc_archive 'CCDC 909800'
_chemical_formula_sum 'C13 H15 N3 O7'
_chemical_formula_moiety
;
C13 H15 N3 O7
;
_journal_coeditor_code "IUCr KP2434"
_journal_coden_Cambridge 1370
_journal_volume 68
_journal_year 2012
_journal_page_first o3098
_journal_name_full 'Acta Crystallogr.,Sect.E:Struct.Rep.Online '
loop_
_publ_author_name
"Xiaokun Li"
"Yuqing Zhao"
_chemical_name_systematic
;
Methyl 2-(3,5-dinitrobenzamido)-3-methylbutanoate
;
_chemical_name_common
;
Methyl N-(3,5-dinitrobenzoyl)valinate
;
_cell_volume   1549.651
_exptl_crystal_colour 'colorless'
_exptl_crystal_density_diffrn 1.394
_exptl_crystal_description 'block'
_diffrn_ambient_temperature 296
#These two values have been output from a single CSD field.
_refine_ls_R_factor_gt 0.0446
_refine_ls_wR_factor_gt 0.0446
_symmetry_cell_setting orthorhombic
_symmetry_space_group_name_H-M 'P 21 21 21'
_symmetry_Int_Tables_number 19
loop_
_symmetry_equiv_pos_site_id
_symmetry_equiv_pos_as_xyz
1 x,y,z
2 1/2-x,-y,1/2+z
3 -x,1/2+y,1/2-z
4 1/2+x,1/2-y,-z
_cell_length_a 7.060(2)
_cell_length_b 9.412(3)
_cell_length_c 23.321(6)
_cell_angle_alpha 90
_cell_angle_beta 90
_cell_angle_gamma 90
_cell_formula_units_Z 4
loop_
_atom_type_symbol
_atom_type_radius_bond
C 0.68
H 0.23
N 0.68
O 0.68
loop_
_atom_site_label
_atom_site_type_symbol
_atom_site_fract_x
_atom_site_fract_y
_atom_site_fract_z
C1 C 1.2857(3) 0.28856(19) 0.10037(8)
C2 C 1.2504(3) 0.23672(19) 0.15455(8)
H1 H 1.33900 0.18010 0.17320
C3 C 1.0795(2) 0.27084(17) 0.18071(7)
C4 C 0.9487(3) 0.35376(18) 0.15216(8)
H2 H 0.83500 0.37850 0.16960
C5 C 0.9895(3) 0.39948(18) 0.09717(7)
C6 C 1.1576(3) 0.3692(2) 0.07014(8)
H3 H 1.18340 0.40150 0.03330
C7 C 1.0425(2) 0.21140(17) 0.23943(7)
C8 C 0.8869(3) 0.2398(2) 0.33103(8)
H4 H 0.94650 0.14660 0.33580
C9 C 0.9790(4) 0.3399(3) 0.37526(9)
C10 C 0.5694(5) 0.3567(4) 0.3394(2)
H5 H 0.43650 0.33900 0.34420
H6 H 0.59020 0.40490 0.30360
H7 H 0.61420 0.41490 0.37030
C11 C 0.5992(4) 0.1150(4) 0.29434(14)
H8 H 0.46560 0.10190 0.29980
H9 H 0.66270 0.02530 0.29830
H10 H 0.62210 0.15260 0.25670
C12 C 1.0720(6) 0.3594(4) 0.47134(13)
H11 H 1.06680 0.30690 0.50660
H12 H 1.00720 0.44830 0.47600
H13 H 1.20180 0.37690 0.46130
C13 C 0.6744(4) 0.2186(3) 0.33924(11)
H14 H 0.65600 0.17460 0.37690
N1 N 1.4675(3) 0.2555(2) 0.07277(9)
N2 N 0.8475(3) 0.48375(18) 0.06597(7)
N3 N 0.9379(2) 0.29050(15) 0.27435(6)
H15 H 0.90000 0.37280 0.26320
O1 O 1.5804(3) 0.1847(3) 0.09906(10)
O2 O 1.4962(3) 0.3026(2) 0.02520(8)
O3 O 0.8739(3) 0.5050(2) 0.01510(7)
O4 O 0.7125(3) 0.5274(2) 0.09269(7)
O5 O 1.1072(2) 0.09485(13) 0.25244(6)
O6 O 0.9809(3) 0.2774(2) 0.42582(6)
O7 O 1.0395(5) 0.4534(3) 0.36573(10)
#END
