
#######################################################################
#
#                 Cambridge Crystallographic Data Centre
#                                CCDC
#
#######################################################################
#
# If this CIF has been generated from an entry in the Cambridge
# Structural Database, then it will include bibliographic, chemical,
# crystal, experimental, refinement or atomic coordinate data resulting
# from the CCDC's data processing and validation procedures.
#
#######################################################################

data_CSD_CIF_SECJER
_audit_creation_date 2013-02-01
_audit_creation_method CSD-ConQuest-V1
_database_code_CSD SECJER
_database_code_depnum_ccdc_archive 'CCDC 909804'
_chemical_formula_sum 'C14 H9 N3 O8'
_chemical_formula_moiety
;
C14 H9 N3 O8
;
_journal_coeditor_code "IUCr LD2074"
_journal_coden_Cambridge 1370
_journal_volume 68
_journal_year 2012
_journal_page_first o3107
_journal_name_full 'Acta Crystallogr.,Sect.E:Struct.Rep.Online '
loop_
_publ_author_name
"R.Moreno-Fuquen"
"F.Mosquera"
"J.Ellena"
"J.C.Tenorio"
"R.S.Correa"
_chemical_name_systematic
;
2,4,6-Trinitrophenyl 4-methylbenzoate
;
_chemical_melting_point 417
_cell_volume   1495.239
_exptl_crystal_colour 'pale yellow'
_exptl_crystal_density_diffrn 1.543
_exptl_crystal_description 'block'
_diffrn_ambient_temperature 295
#These two values have been output from a single CSD field.
_refine_ls_R_factor_gt 0.0432
_refine_ls_wR_factor_gt 0.0432
_symmetry_cell_setting monoclinic
_symmetry_space_group_name_H-M 'P 21/c'
_symmetry_Int_Tables_number 14
loop_
_symmetry_equiv_pos_site_id
_symmetry_equiv_pos_as_xyz
1 x,y,z
2 -x,1/2+y,1/2-z
3 -x,-y,-z
4 x,-1/2-y,-1/2+z
_cell_length_a 7.6126(2)
_cell_length_b 8.2124(2)
_cell_length_c 23.9893(7)
_cell_angle_alpha 90
_cell_angle_beta 94.448(1)
_cell_angle_gamma 90
_cell_formula_units_Z 4
loop_
_atom_type_symbol
_atom_type_radius_bond
C 0.68
H 0.23
N 0.68
O 0.68
loop_
_atom_site_label
_atom_site_type_symbol
_atom_site_fract_x
_atom_site_fract_y
_atom_site_fract_z
O1 O 0.4307(2) 0.4914(2) 0.33344(6)
O2 O 0.56533(16) 0.66653(15) 0.28637(6)
O3 O 0.5292(2) 0.5772(3) 0.08518(7)
O4 O 0.3254(2) 0.4222(3) 0.04835(7)
O5 O -0.18224(17) 0.33867(18) 0.14637(6)
O6 O -0.17197(15) 0.33696(15) 0.23563(5)
O7 O 0.09683(13) 0.46979(12) 0.29293(4)
O8 O 0.16920(15) 0.20662(13) 0.30759(5)
N1 N 0.45379(16) 0.56271(17) 0.29052(6)
N2 N 0.3987(2) 0.4953(2) 0.08753(7)
N3 N -0.10536(17) 0.35918(15) 0.19191(6)
C1 C 0.17239(18) 0.46265(16) 0.24291(6)
C2 C 0.34413(18) 0.51938(17) 0.23953(6)
C3 C 0.41940(19) 0.53543(18) 0.18945(7)
H1 H 0.53180 0.57870 0.18780
C4 C 0.3213(2) 0.48477(19) 0.14189(7)
C5 C 0.1537(2) 0.42336(19) 0.14288(7)
H2 H 0.09180 0.38780 0.11020
C6 C 0.07943(18) 0.41560(17) 0.19332(6)
C7 C 0.09911(18) 0.32603(18) 0.32354(7)
C8 C 0.00660(19) 0.34449(18) 0.37471(7)
C9 C -0.1286(2) 0.4560(2) 0.37848(7)
H3 H -0.15800 0.52730 0.34910
C10 C -0.2198(2) 0.4607(2) 0.42623(8)
H4 H -0.31180 0.53440 0.42830
C11 C -0.1768(2) 0.3578(3) 0.47078(7)
C12 C -0.0394(2) 0.2490(2) 0.46659(7)
H5 H -0.00740 0.18030 0.49650
C13 C 0.0511(2) 0.2402(2) 0.41905(7)
H6 H 0.14140 0.16480 0.41670
C14 C -0.2789(3) 0.3625(4) 0.52240(9)
H7 H -0.20150 0.33700 0.55470
H8 H -0.37270 0.28410 0.51870
H9 H -0.32740 0.46930 0.52650
#END
