
#######################################################################
#
#                 Cambridge Crystallographic Data Centre
#                                CCDC
#
#######################################################################
#
# If this CIF has been generated from an entry in the Cambridge
# Structural Database, then it will include bibliographic, chemical,
# crystal, experimental, refinement or atomic coordinate data resulting
# from the CCDC's data processing and validation procedures.
#
#######################################################################

data_CSD_CIF_SECMUK
_audit_creation_date 2013-02-01
_audit_creation_method CSD-ConQuest-V1
_database_code_CSD SECMUK
_database_code_depnum_ccdc_archive 'CCDC 909822'
_chemical_formula_sum 'C15 H11 N5 O1'
_chemical_formula_moiety
;
C15 H11 N5 O1
;
_journal_coeditor_code "IUCr MW2083"
_journal_coden_Cambridge 1370
_journal_volume 68
_journal_year 2012
_journal_page_first o3130
_journal_name_full 'Acta Crystallogr.,Sect.E:Struct.Rep.Online '
loop_
_publ_author_name
"J.A.Key"
"C.W.Cairo"
"R.McDonald"
_chemical_name_systematic
;
5-(1-Benzyl-1H-1,2,3-triazol-4-yl)-2,1,3-benzoxadiazole
;
_chemical_melting_point 421.85
_cell_volume    641.135
_exptl_crystal_colour 'colorless'
_exptl_crystal_density_diffrn 1.436
_exptl_special_details
;
Melting point range 421.85-422.65K

;
_diffrn_ambient_temperature 173
#These two values have been output from a single CSD field.
_refine_ls_R_factor_gt 0.0352
_refine_ls_wR_factor_gt 0.0352
_symmetry_cell_setting triclinic
_symmetry_space_group_name_H-M 'P -1'
_symmetry_Int_Tables_number 2
loop_
_symmetry_equiv_pos_site_id
_symmetry_equiv_pos_as_xyz
1 x,y,z
2 -x,-y,-z
_cell_length_a 5.7526(4)
_cell_length_b 9.9261(6)
_cell_length_c 11.7012(8)
_cell_angle_alpha 90.3799(7)
_cell_angle_beta 99.2517(7)
_cell_angle_gamma 103.2900(7)
_cell_formula_units_Z 2
loop_
_atom_type_symbol
_atom_type_radius_bond
C 0.68
H 0.23
N 0.68
O 0.68
loop_
_atom_site_label
_atom_site_type_symbol
_atom_site_fract_x
_atom_site_fract_y
_atom_site_fract_z
O1 O 0.37047(18) 0.60313(9) -0.24598(8)
N1 N 0.5182(2) 0.51386(12) -0.25718(9)
N2 N 0.2225(2) 0.56215(11) -0.16419(9)
N3 N 0.3192(2) 0.05933(11) 0.11897(9)
N4 N 0.2143(2) -0.00352(11) 0.20195(9)
N5 N 0.02778(17) 0.05338(10) 0.21296(8)
C1 C 0.4623(2) 0.41788(12) -0.18298(10)
C2 C 0.2785(2) 0.44754(12) -0.1251(1)
C3 C 0.1868(2) 0.36165(12) -0.03855(10)
H1 H 0.06500 0.38180 0.00020
C4 C 0.28041(19) 0.24890(11) -0.01314(9)
C5 C 0.4649(2) 0.21869(12) -0.07346(10)
H2 H 0.52480 0.13880 -0.05390
C6 C 0.5554(2) 0.29873(13) -0.15607(10)
H3 H 0.67600 0.27660 -0.19460
C7 C 0.2003(2) 0.15745(11) 0.07735(9)
C8 C 0.0138(2) 0.15328(12) 0.13786(10)
H4 H -0.10080 0.20930 0.12850
C9 C -0.1176(2) 0.01211(12) 0.30362(10)
H5 H -0.06910 -0.06760 0.34290
H6 H -0.29030 -0.01840 0.26780
C10 C -0.0894(2) 0.12825(11) 0.39256(9)
C11 C 0.1235(2) 0.22895(13) 0.42168(11)
H7 H 0.25700 0.22800 0.38350
C12 C 0.1428(2) 0.33104(13) 0.50619(11)
H8 H 0.28910 0.40040 0.52510
C13 C -0.0481(2) 0.33292(13) 0.56299(10)
H9 H -0.03320 0.40230 0.62180
C14 C -0.2610(2) 0.23349(15) 0.53388(11)
H10 H -0.39340 0.23410 0.57290
C15 C -0.2825(2) 0.13267(13) 0.44798(10)
H11 H -0.43140 0.06590 0.42690
#END
