
#######################################################################
#
#                 Cambridge Crystallographic Data Centre
#                                CCDC
#
#######################################################################
#
# If this CIF has been generated from an entry in the Cambridge
# Structural Database, then it will include bibliographic, chemical,
# crystal, experimental, refinement or atomic coordinate data resulting
# from the CCDC's data processing and validation procedures.
#
#######################################################################

data_CSD_CIF_SECMOE
_audit_creation_date 2013-02-01
_audit_creation_method CSD-ConQuest-V1
_database_code_CSD SECMOE
_database_code_depnum_ccdc_archive 'CCDC 909821'
_chemical_formula_sum 'C14 H17 N5 O1'
_chemical_formula_moiety
;
C14 H17 N5 O1
;
_journal_coeditor_code "IUCr MW2081"
_journal_coden_Cambridge 1370
_journal_volume 68
_journal_year 2012
_journal_page_first o3128
_journal_name_full 'Acta Crystallogr.,Sect.E:Struct.Rep.Online '
loop_
_publ_author_name
"J.A.Key"
"C.W.Cairo"
"M.J.Ferguson"
_chemical_name_systematic
;
5-(4-Hexyl-1H-1,2,3-triazol-1-yl)-1,3-dihydro-2,1,3-benzoxadiazole
;
_chemical_name_common
;
5-(4-Hexyl-1H-1,2,3-triazol-1-yl)-2,1,3-benzoxadiazole
;
_chemical_melting_point 386.35
_cell_volume    685.022
_exptl_crystal_colour 'colorless'
_exptl_crystal_density_diffrn 1.315
_exptl_special_details
;
Melting point range 386.35-388.55K

;
_exptl_crystal_description 'plate'
_diffrn_ambient_temperature 173
#These two values have been output from a single CSD field.
_refine_ls_R_factor_gt 0.036
_refine_ls_wR_factor_gt 0.036
_symmetry_cell_setting triclinic
_symmetry_space_group_name_H-M 'P -1'
_symmetry_Int_Tables_number 2
loop_
_symmetry_equiv_pos_site_id
_symmetry_equiv_pos_as_xyz
1 x,y,z
2 -x,-y,-z
_cell_length_a 5.3604(8)
_cell_length_b 7.8585(11)
_cell_length_c 16.357(2)
_cell_angle_alpha 87.4656(17)
_cell_angle_beta 86.2519(16)
_cell_angle_gamma 85.6240(17)
_cell_formula_units_Z 2
loop_
_atom_type_symbol
_atom_type_radius_bond
C 0.68
H 0.23
N 0.68
O 0.68
loop_
_atom_site_label
_atom_site_type_symbol
_atom_site_fract_x
_atom_site_fract_y
_atom_site_fract_z
O1 O 0.41878(17) 0.07628(11) 0.71631(5)
N1 N 0.2106(2) 0.18420(14) 0.73699(6)
N2 N 0.44587(19) 0.04944(13) 0.63299(6)
N3 N -0.10674(16) 0.28627(11) 0.42563(5)
N4 N -0.33882(18) 0.36159(13) 0.41382(6)
N5 N -0.36564(18) 0.36862(13) 0.33489(6)
C1 C 0.1091(2) 0.22446(14) 0.66688(7)
C2 C 0.2550(2) 0.14071(13) 0.60238(7)
C3 C 0.1873(2) 0.15961(13) 0.51960(6)
H1 H 0.28350 0.10410 0.47630
C4 C -0.0229(2) 0.26178(13) 0.50634(6)
C5 C -0.1709(2) 0.34929(13) 0.57088(7)
H2 H -0.31470 0.42070 0.55750
C6 C -0.1098(2) 0.33215(14) 0.64981(7)
H3 H -0.20820 0.38920 0.69210
C7 C 0.0134(2) 0.24553(14) 0.35268(6)
H4 H 0.17720 0.19200 0.34370
C8 C -0.1520(2) 0.29817(14) 0.29511(7)
C9 C -0.1308(2) 0.29097(17) 0.20385(7)
H5 H -0.20880 0.39890 0.18040
H6 H -0.22800 0.19700 0.18780
C10 C 0.1352(2) 0.26410(16) 0.16610(7)
H7 H 0.21270 0.15380 0.18720
H8 H 0.23540 0.35610 0.18270
C11 C 0.1402(2) 0.26410(15) 0.07277(7)
H9 H 0.04930 0.16690 0.05680
H10 H 0.04900 0.37040 0.05260
C12 C 0.4022(2) 0.25125(16) 0.03056(7)
H11 H 0.49360 0.34840 0.04620
H12 H 0.49380 0.14470 0.05030
C13 C 0.4010(2) 0.25185(16) -0.06240(7)
H13 H 0.31320 0.15290 -0.07810
H14 H 0.30550 0.35700 -0.08190
C14 C 0.6621(3) 0.24356(19) -0.10491(8)
H15 H 0.64910 0.24580 -0.16440
H16 H 0.75600 0.13770 -0.08740
H17 H 0.74970 0.34180 -0.09030
#END
