
#######################################################################
#
#                 Cambridge Crystallographic Data Centre
#                                CCDC
#
#######################################################################
#
# If this CIF has been generated from an entry in the Cambridge
# Structural Database, then it will include bibliographic, chemical,
# crystal, experimental, refinement or atomic coordinate data resulting
# from the CCDC's data processing and validation procedures.
#
#######################################################################

data_CSD_CIF_SECNAR
_audit_creation_date 2013-02-01
_audit_creation_method CSD-ConQuest-V1
_database_code_CSD SECNAR
_database_code_depnum_ccdc_archive 'CCDC 909823'
_chemical_formula_sum 'C15 H17 N5 O2'
_chemical_formula_moiety
;
C15 H17 N5 O2
;
_journal_coeditor_code "IUCr MW2084"
_journal_coden_Cambridge 1370
_journal_volume 68
_journal_year 2012
_journal_page_first o3132
_journal_name_full 'Acta Crystallogr.,Sect.E:Struct.Rep.Online '
loop_
_publ_author_name
"J.A.Key"
"C.W.Cairo"
"R.McDonald"
_chemical_name_systematic
;
1-(1-(1,3-Dihydro-2,1,3-benzoxadiazol-5-ylmethyl)-1H-1,2,3-triazol-4-yl)hexan-
1-one
;
_chemical_name_common
;
1-[1-(2,1,3-Benzoxadiazol-5-ylmethyl)-1H-1,2,3-triazol-4-yl]hexan-1-one
;
_cell_volume   1492.101
_exptl_crystal_colour 'colorless'
_exptl_crystal_density_diffrn 1.333
_exptl_crystal_description 'rod'
_diffrn_ambient_temperature 173
_diffrn_special_details
;
non-merohedral twin

;
#These two values have been output from a single CSD field.
_refine_ls_R_factor_gt 0.04
_refine_ls_wR_factor_gt 0.04
_symmetry_cell_setting monoclinic
_symmetry_space_group_name_H-M 'P 21/c'
_symmetry_Int_Tables_number 14
loop_
_symmetry_equiv_pos_site_id
_symmetry_equiv_pos_as_xyz
1 x,y,z
2 -x,1/2+y,1/2-z
3 -x,-y,-z
4 x,-1/2-y,-1/2+z
_cell_length_a 16.5752(16)
_cell_length_b 5.5429(5)
_cell_length_c 16.2452(16)
_cell_angle_alpha 90
_cell_angle_beta 91.3612(13)
_cell_angle_gamma 90
_cell_formula_units_Z 4
loop_
_atom_type_symbol
_atom_type_radius_bond
C 0.68
H 0.23
N 0.68
O 0.68
loop_
_atom_site_label
_atom_site_type_symbol
_atom_site_fract_x
_atom_site_fract_y
_atom_site_fract_z
O1 O -0.07380(7) 0.1919(2) 0.16041(7)
O2 O 0.51268(8) 0.0088(2) 0.11538(10)
N1 N -0.03444(8) -0.0165(3) 0.18558(9)
N2 N -0.03404(8) 0.3110(3) 0.09850(9)
N3 N 0.29027(7) 0.1559(2) 0.00229(8)
N4 N 0.29675(8) 0.3994(2) 0.00904(9)
N5 N 0.36597(7) 0.4428(2) 0.04758(9)
C1 C 0.02958(9) -0.0270(3) 0.13892(9)
C2 C 0.02964(8) 0.1752(3) 0.08476(9)
C3 C 0.09143(9) 0.2061(3) 0.02610(9)
H1 H 0.09180 0.34060 -0.01010
C4 C 0.14968(9) 0.0339(3) 0.02451(9)
C5 C 0.14964(9) -0.1700(3) 0.07982(10)
H2 H 0.19190 -0.28500 0.07660
C6 C 0.09180(9) -0.2039(3) 0.13617(10)
H3 H 0.09270 -0.33920 0.17210
C7 C 0.21712(9) 0.0526(3) -0.03636(10)
H4 H 0.22940 -0.10980 -0.05800
H5 H 0.19940 0.15530 -0.08330
C8 C 0.35461(9) 0.0453(3) 0.03618(10)
H6 H 0.36460 -0.12330 0.03950
C9 C 0.40295(9) 0.2287(3) 0.06506(10)
C10 C 0.48268(9) 0.2074(3) 0.10742(10)
C11 C 0.52284(9) 0.4320(3) 0.13876(11)
H7 H 0.48860 0.50570 0.18110
H8 H 0.52680 0.54840 0.09280
C12 C 0.60693(9) 0.3892(3) 0.17585(11)
H9 H 0.60290 0.27670 0.22290
H10 H 0.64090 0.31170 0.13410
C13 C 0.64772(9) 0.6203(3) 0.2053(1)
H11 H 0.64960 0.73550 0.15880
H12 H 0.61490 0.69410 0.24880
C14 C 0.73289(10) 0.5801(3) 0.23904(12)
H13 H 0.76650 0.51540 0.19460
H14 H 0.73150 0.45760 0.28330
C15 C 0.77195(11) 0.8090(4) 0.27312(11)
H15 H 0.82650 0.77230 0.29390
H16 H 0.73970 0.87220 0.31800
H17 H 0.77480 0.93000 0.22930
#END
