
#######################################################################
#
#                 Cambridge Crystallographic Data Centre
#                                CCDC
#
#######################################################################
#
# If this CIF has been generated from an entry in the Cambridge
# Structural Database, then it will include bibliographic, chemical,
# crystal, experimental, refinement or atomic coordinate data resulting
# from the CCDC's data processing and validation procedures.
#
#######################################################################

data_CSD_CIF_SECPEX
_audit_creation_date 2013-02-01
_audit_creation_method CSD-ConQuest-V1
_database_code_CSD SECPEX
_database_code_depnum_ccdc_archive 'CCDC 909829'
_chemical_formula_sum 'C23 H26 N2 O8'
_chemical_formula_moiety
;
C23 H26 N2 O8
;
_journal_coeditor_code "IUCr RZ5008"
_journal_coden_Cambridge 1370
_journal_volume 68
_journal_year 2012
_journal_page_first o3146
_journal_name_full 'Acta Crystallogr.,Sect.E:Struct.Rep.Online '
loop_
_publ_author_name
"S.Montiel-Smith"
"S.Bernes"
"J.Sandoval-Ramirez"
"S.Meza-Reyes"
"J.Dubois"
_chemical_name_systematic
;
3-t-Butyl 5-methyl 
(2R,4S,5R)-2-(4-methoxyphenyl)-4-(3-nitrophenyl)-1,3-oxazolidine-3,5-dicarboxy
late
;
_chemical_name_common
;
3-t-Butyl 5-methyl 
2-(4-methoxyphenyl)-4-(3-nitrophenyl)-1,3-oxazolidine-3,5-dicarboxylate
;
_cell_volume   1167.566
_exptl_crystal_colour 'colorless'
_exptl_crystal_density_diffrn 1.304
_exptl_crystal_description 'block'
_diffrn_ambient_temperature 298
#These two values have been output from a single CSD field.
_refine_ls_R_factor_gt 0.0386
_refine_ls_wR_factor_gt 0.0386
_symmetry_cell_setting monoclinic
_symmetry_space_group_name_H-M 'P 21'
_symmetry_Int_Tables_number 4
loop_
_symmetry_equiv_pos_site_id
_symmetry_equiv_pos_as_xyz
1 x,y,z
2 -x,1/2+y,-z
_cell_length_a 10.383(1)
_cell_length_b 6.0303(6)
_cell_length_c 18.7366(17)
_cell_angle_alpha 90
_cell_angle_beta 95.591(4)
_cell_angle_gamma 90
_cell_formula_units_Z 2
loop_
_atom_type_symbol
_atom_type_radius_bond
C 0.68
H 0.23
N 0.68
O 0.68
loop_
_atom_site_label
_atom_site_type_symbol
_atom_site_fract_x
_atom_site_fract_y
_atom_site_fract_z
O1 O 0.7821(2) 0.5989(4) 0.18897(11)
C1 C 0.8184(3) 0.5427(6) 0.26275(16)
H1 H 0.77690 0.64460 0.29420
N1 N 0.7630(3) 0.3207(5) 0.26723(13)
C2 C 0.7412(3) 0.2150(6) 0.19661(14)
H2 H 0.79700 0.08440 0.19470
C3 C 0.7866(3) 0.3983(7) 0.14856(17)
H3 H 0.72410 0.41040 0.10610
C4 C 0.9643(3) 0.5490(5) 0.28030(15)
C5 C 1.0343(3) 0.3772(6) 0.31379(17)
H4 H 0.99140 0.24920 0.32580
C6 C 1.1675(3) 0.3915(7) 0.32989(17)
H5 H 1.21290 0.27320 0.35200
C7 C 1.2322(3) 0.5807(7) 0.31311(16)
C8 C 1.1655(4) 0.7536(7) 0.27930(19)
H6 H 1.20900 0.88050 0.26680
C9 C 1.0321(4) 0.7370(6) 0.26391(19)
H7 H 0.98700 0.85580 0.24190
O2 O 1.3643(2) 0.5782(5) 0.33188(12)
C10 C 1.4373(4) 0.7685(8) 0.3159(2)
H8 H 1.52710 0.74370 0.33110
H9 H 1.40710 0.89490 0.34060
H10 H 1.42690 0.79530 0.26510
C11 C 0.7368(3) 0.2149(6) 0.32801(17)
O3 O 0.7056(2) 0.0214(4) 0.32967(12)
O4 O 0.7505(2) 0.3553(4) 0.38389(10)
C12 C 0.7426(3) 0.2749(6) 0.45810(16)
C13 C 0.7608(4) 0.4849(8) 0.5014(2)
H11 H 0.69740 0.59230 0.48340
H12 H 0.84600 0.54280 0.49750
H13 H 0.75060 0.45360 0.55070
C14 C 0.6121(4) 0.1736(10) 0.4654(2)
H14 H 0.54570 0.26810 0.44280
H15 H 0.60000 0.15750 0.51520
H16 H 0.60720 0.03070 0.44270
C15 C 0.8534(4) 0.1162(10) 0.4763(2)
H17 H 0.84100 -0.01430 0.44710
H18 H 0.85660 0.07570 0.52600
H19 H 0.93330 0.18640 0.46740
C16 C 0.6011(3) 0.1515(6) 0.17565(15)
C17 C 0.4983(3) 0.2716(7) 0.19742(18)
H20 H 0.51400 0.38810 0.22960
C18 C 0.3719(3) 0.2199(8) 0.17162(19)
H21 H 0.30360 0.30210 0.18660
C19 C 0.3470(3) 0.0468(8) 0.12382(18)
H22 H 0.26270 0.01170 0.10600
C20 C 0.4499(3) -0.0711(7) 0.10355(15)
C21 C 0.5756(3) -0.0233(6) 0.12914(15)
H23 H 0.64320 -0.10890 0.11500
N2 N 0.4263(3) -0.2579(6) 0.05319(14)
O5 O 0.3196(3) -0.2710(6) 0.01928(13)
O6 O 0.5151(3) -0.3873(6) 0.04674(14)
C22 C 0.9204(4) 0.3588(8) 0.12370(18)
O7 O 0.9865(3) 0.1999(6) 0.13651(16)
O8 O 0.9520(3) 0.5284(7) 0.08509(16)
C23 C 1.0810(4) 0.5279(14) 0.0607(3)
H24 H 1.09210 0.65820 0.03260
H25 H 1.09130 0.39830 0.03210
H26 H 1.14460 0.52670 0.10150
#END
