
#######################################################################
#
#                 Cambridge Crystallographic Data Centre
#                                CCDC
#
#######################################################################
#
# If this CIF has been generated from an entry in the Cambridge
# Structural Database, then it will include bibliographic, chemical,
# crystal, experimental, refinement or atomic coordinate data resulting
# from the CCDC's data processing and validation procedures.
#
#######################################################################

data_CSD_CIF_SECVOL
_audit_creation_date 1990-05-24
_audit_creation_method CSD-ConQuest-V1
_database_code_CSD SECVOL
_chemical_formula_sum 'C8 H14 N8 O8'
_chemical_formula_moiety
;
C8 H14 N8 O8
;
_journal_coden_Cambridge 35
_journal_volume 54
_journal_year 1989
_journal_page_first 4771
_journal_name_full 'J.Org.Chem. '
loop_
_publ_author_name
"S.StC.Black"
"D.C.Craig"
"O.Giitsidis"
"R.W.Read"
"A.Salek"
"M.A.Sefton"
_chemical_name_systematic
;
2,2'-Bis(1,3-dinitrohexahydropyrimidine)
;
_chemical_melting_point 553.15
_cell_volume    349.433
_exptl_crystal_colour 'colorless'
_exptl_crystal_density_diffrn 1.66
_exptl_special_details
;
Melting point range 553.15-560.15K
The space group is P-1 not P1

;
_diffrn_ambient_temperature ?
_diffrn_special_details
;
The study was carried out at room temperature,in the range 283-303K

;
#These two values have been output from a single CSD field.
_refine_ls_R_factor_gt 0.038
_refine_ls_wR_factor_gt 0.038
_symmetry_cell_setting triclinic
_symmetry_space_group_name_H-M 'P -1'
_symmetry_Int_Tables_number 2
loop_
_symmetry_equiv_pos_site_id
_symmetry_equiv_pos_as_xyz
1 x,y,z
2 -x,-y,-z
_cell_length_a 6.602(6)
_cell_length_b 7.341(2)
_cell_length_c 8.231(3)
_cell_angle_alpha 89.54(2)
_cell_angle_beta 74.56(2)
_cell_angle_gamma 66.15(2)
_cell_formula_units_Z 1
loop_
_atom_type_symbol
_atom_type_radius_bond
C 0.68
H 0.23
N 0.68
O 0.68
loop_
_atom_site_label
_atom_site_type_symbol
_atom_site_fract_x
_atom_site_fract_y
_atom_site_fract_z
O1 O 0.2417(3) 0.7126(2) 0.2285(2)
O2 O 0.5510(3) 0.6852(2) 0.0364(2)
O3 O 0.2219(3) 0.2782(3) 0.4144(2)
O4 O 0.5182(4) 0.0010(3) 0.2996(3)
N1 N 0.5806(3) 0.5642(2) 0.2815(2)
N2 N 0.5733(3) 0.2594(2) 0.3772(2)
N3 N 0.4498(3) 0.6568(2) 0.1745(2)
N4 N 0.4302(3) 0.1752(3) 0.3608(2)
C1 C 0.4764(3) 0.4750(2) 0.4178(2)
C2 C 0.8326(3) 0.4678(3) 0.2119(3)
C3 C 0.9155(3) 0.2473(4) 0.1601(3)
C4 C 0.8257(3) 0.1495(3) 0.3073(3)
H1 H 0.30820 0.53470 0.43540
H2 H 0.87330 0.54120 0.13150
H3 H 0.90300 0.49210 0.30330
H4 H 0.85370 0.23670 0.06740
H5 H 1.08520 0.17820 0.12560
H6 H 0.85450 0.03270 0.27100
H7 H 0.88840 0.15280 0.40270
C1A C 0.5236(3) 0.5250(2) 0.5822(2)
N1A N 0.4194(3) 0.4358(2) 0.7185(2)
N2A N 0.4267(3) 0.7406(2) 0.6228(2)
H1A H 0.69180 0.46530 0.56460
N3A N 0.5502(3) 0.3432(2) 0.8255(2)
C2A C 0.1674(3) 0.5322(3) 0.7881(3)
N4A N 0.5698(3) 0.8248(3) 0.6392(2)
C4A C 0.1743(3) 0.8505(3) 0.6927(3)
O1A O 0.7583(3) 0.2874(2) 0.7715(2)
O2A O 0.4490(3) 0.3148(2) 0.9636(2)
C3A C 0.0845(3) 0.7527(4) 0.8399(3)
H2A H 0.12670 0.45880 0.86850
H3A H 0.09700 0.50790 0.69670
O3A O 0.7781(3) 0.7218(3) 0.5856(2)
O4A O 0.4818(4) 0.9990(3) 0.7004(3)
H6A H 0.14550 0.96730 0.72900
H7A H 0.11160 0.84720 0.59730
H4A H 0.14630 0.76330 0.93260
H5A H -0.08520 0.82180 0.87440
#END
