
#######################################################################
#
#                 Cambridge Crystallographic Data Centre
#                                CCDC
#
#######################################################################
#
# If this CIF has been generated from an entry in the Cambridge
# Structural Database, then it will include bibliographic, chemical,
# crystal, experimental, refinement or atomic coordinate data resulting
# from the CCDC's data processing and validation procedures.
#
#######################################################################

data_CSD_CIF_SECYUV
_audit_creation_date 2006-05-18
_audit_creation_method CSD-ConQuest-V1
_database_code_CSD SECYUV
_database_code_depnum_ccdc_archive 'CCDC 600110'
_chemical_formula_sum 'C19 H19 N1 O2'
_chemical_formula_moiety
;
C19 H19 N1 O2
;
_journal_coden_Cambridge 1336
_journal_volume 7
_journal_year 2005
_journal_page_first 5293
_journal_name_full 'Org.Lett. '
loop_
_publ_author_name
"Dong Xue"
"Ying-Chun Chen"
"Qi-Wei Wang"
"Ling-Feng Cun"
"Jin Zhu"
"Jin-Gen Deng"
_chemical_name_systematic
;
rac-3-(4-Methoxyphenyl)-3,3a,4,5-tetrahydro-2H-benzo(g)indole 1-oxide
;
_chemical_melting_point 393.15
_cell_volume   3105.218
_exptl_crystal_density_diffrn 1.255
_exptl_special_details
;
Melts with decomposition.

;
_diffrn_ambient_temperature 300
#These two values have been output from a single CSD field.
_refine_ls_R_factor_gt 0.0412
_refine_ls_wR_factor_gt 0.0412
_symmetry_cell_setting orthorhombic
_symmetry_space_group_name_H-M 'P b c a'
_symmetry_Int_Tables_number 61
loop_
_symmetry_equiv_pos_site_id
_symmetry_equiv_pos_as_xyz
1 x,y,z
2 1/2-x,-y,1/2+z
3 -x,1/2+y,1/2-z
4 1/2+x,1/2-y,-z
5 -x,-y,-z
6 -1/2+x,y,-1/2-z
7 x,-1/2-y,-1/2+z
8 -1/2-x,-1/2+y,z
_cell_length_a 10.162(2)
_cell_length_b 11.205(2)
_cell_length_c 27.271(5)
_cell_angle_alpha 90
_cell_angle_beta 90
_cell_angle_gamma 90
_cell_formula_units_Z 8
loop_
_atom_type_symbol
_atom_type_radius_bond
C 0.68
H 0.23
N 0.68
O 0.68
loop_
_atom_site_label
_atom_site_type_symbol
_atom_site_fract_x
_atom_site_fract_y
_atom_site_fract_z
O1 O 0.68249(14) -0.03751(11) 0.50994(5)
O2 O 0.6476(2) 0.50784(15) 0.27814(5)
N1 N 0.64291(16) 0.06784(15) 0.49673(6)
C1 C 0.58040(19) 0.26554(16) 0.49264(6)
H1 H 0.65760 0.31740 0.48930
C2 C 0.4708(2) 0.33525(17) 0.51726(7)
H2 H 0.39290 0.28580 0.52020
H3 H 0.44860 0.40480 0.49780
C3 C 0.5180(2) 0.37375(18) 0.56796(7)
H4 H 0.58920 0.43070 0.56430
H5 H 0.44640 0.41340 0.58500
C4 C 0.5653(2) 0.26971(19) 0.59859(7)
C5 C 0.5597(2) 0.2754(2) 0.64956(8)
H6 H 0.52870 0.34460 0.66440
C6 C 0.5988(3) 0.1816(2) 0.67866(8)
H7 H 0.59380 0.18760 0.71260
C7 C 0.6452(2) 0.0792(2) 0.65727(9)
H8 H 0.67100 0.01540 0.67690
C8 C 0.6540(2) 0.07000(19) 0.60687(8)
H9 H 0.68630 0.00040 0.59270
C9 C 0.61440(19) 0.16524(18) 0.57702(7)
C10 C 0.61630(18) 0.16079(17) 0.52386(7)
C11 C 0.6261(2) 0.09234(16) 0.44412(7)
H10 H 0.57720 0.02870 0.42830
H11 H 0.71080 0.10060 0.42800
C12 C 0.54925(19) 0.20990(16) 0.44234(6)
H12 H 0.45520 0.19050 0.44160
C13 C 0.5792(2) 0.28635(18) 0.39838(7)
C14 C 0.7016(2) 0.33662(18) 0.39117(7)
H13 H 0.76760 0.32120 0.41390
C15 C 0.7301(2) 0.40893(19) 0.35153(8)
H14 H 0.81400 0.44070 0.34770
C16 C 0.6334(3) 0.43345(19) 0.31777(7)
C17 C 0.5111(3) 0.3829(2) 0.32332(8)
H15 H 0.44570 0.39770 0.30030
C18 C 0.4851(2) 0.30991(19) 0.36317(7)
H16 H 0.40210 0.27590 0.36630
C19 C 0.7615(3) 0.5814(2) 0.27674(9)
H17 H 0.76800 0.62580 0.30680
H18 H 0.75510 0.63580 0.24960
H19 H 0.83830 0.53250 0.27290
#END
