
#######################################################################
#
#                 Cambridge Crystallographic Data Centre
#                                CCDC
#
#######################################################################
#
# If this CIF has been generated from an entry in the Cambridge
# Structural Database, then it will include bibliographic, chemical,
# crystal, experimental, refinement or atomic coordinate data resulting
# from the CCDC's data processing and validation procedures.
#
#######################################################################

data_CSD_CIF_SEDHIV
_audit_creation_date 2017-07-03
_audit_creation_method CSD-ConQuest-V1
_database_code_CSD SEDHIV
_database_code_depnum_ccdc_archive 'CCDC 1508898'
_chemical_formula_sum 'C85 H82 N12 O15'
_chemical_formula_moiety
;
C85 H82 N12 O15
;
_journal_coden_Cambridge 1220
_journal_volume 23
_journal_year 2017
_journal_page_first 5361
_journal_name_full 'Chem.-Eur.J. '
loop_
_publ_author_name
"Lu Zheng"
"Chengyuan Yu"
"Yulin Zhan"
"Xuebin Deng"
"Ying Wang"
"Hua Jiang"
_chemical_name_systematic
;
methyl 
67,75,77,79-tetraisobutoxy-37-nitro-3,13,23,33,64-pentaoxo-43,52-dioxa-2,5,12,
15,22,25,32,35,56,63,73-undecaazatridecacyclo[63.6.2.2^4,7^.2^14,17^.2^24,27^.
1^34,42^.0^6,11^.0^16,21^.0^26,31^.0^36,41^.0^53,58^.0^57,62^.0^68,72^]octacon
ta-1(71),4,6,8,10,14,16,18,20,24,26,28,30,34,36(41),37,39,42(74),46,53,55,57,5
9,61,65(73),66,68(72),69,75,77,79-hentriacontaene-55-carboxylate unknown 
solvate
;
_cell_volume   9006.650
_exptl_crystal_colour 'yellow'
_exptl_crystal_density_diffrn 1.115
_exptl_special_details
;
Absolute configuration

;
_exptl_crystal_description 'block'
_exptl_crystal_preparation 'dichloromethane/hexane'
_diffrn_ambient_temperature 150
_refine_special_details
;
Disordered solvent molecules were not modelled and the disordered density was 
taken into account using the MASK/OLEX2 program.
;
#These two values have been output from a single CSD field.
_refine_ls_R_factor_gt 0.0696
_refine_ls_wR_factor_gt 0.0696
_symmetry_cell_setting triclinic
_symmetry_space_group_name_H-M 'P 1'
_symmetry_Int_Tables_number 1
loop_
_symmetry_equiv_pos_site_id
_symmetry_equiv_pos_as_xyz
1 x,y,z
_cell_length_a 16.3984(4)
_cell_length_b 18.7230(5)
_cell_length_c 31.3139(7)
_cell_angle_alpha 93.7559(19)
_cell_angle_beta 90.140(2)
_cell_angle_gamma 110.090(2)
_cell_formula_units_Z 4
loop_
_atom_type_symbol
_atom_type_radius_bond
C 0.68
H 0.23
N 0.68
O 0.68
loop_
_atom_site_label
_atom_site_type_symbol
_atom_site_fract_x
_atom_site_fract_y
_atom_site_fract_z
C1 C -0.1010(8) 0.4645(6) 0.9740(3)
C2 C -0.1553(10) 0.5112(7) 0.9751(3)
H1 H -0.13160 0.56380 0.98060
C3 C -0.2405(10) 0.4764(8) 0.9681(3)
H2 H -0.27650 0.50550 0.96870
C4 C -0.2732(9) 0.4056(7) 0.9605(3)
H3 H -0.33340 0.38500 0.95730
C5 C -0.2268(8) 0.3539(6) 0.9565(2)
C6 C -0.1419(7) 0.3833(5) 0.9613(2)
C7 C -0.2636(7) 0.2769(6) 0.9471(2)
C8 C -0.2113(6) 0.2333(5) 0.9448(2)
H4 H -0.23560 0.18040 0.94180
C9 C -0.1194(6) 0.2698(4) 0.94712(19)
C10 C -0.0645(5) 0.2212(4) 0.9384(2)
C11 C 0.0903(5) 0.2432(4) 0.92046(18)
C12 C 0.0950(6) 0.1686(5) 0.9197(2)
H5 H 0.04450 0.12770 0.92390
C13 C 0.1690(6) 0.1548(6) 0.9132(2)
H6 H 0.16960 0.10540 0.91420
C14 C 0.2447(6) 0.2137(7) 0.9051(2)
H7 H 0.29580 0.20360 0.90040
C15 C 0.2449(6) 0.2888(5) 0.90414(19)
C16 C 0.1678(5) 0.3039(5) 0.91071(18)
C17 C 0.3215(6) 0.3576(7) 0.8977(2)
C18 C 0.4734(7) 0.4025(7) 0.8833(3)
H8 H 0.45590 0.44310 0.87320
H9 H 0.50720 0.42150 0.90970
C19 C 0.5213(10) 0.3815(10) 0.8541(6)
H10 H 0.53880 0.34840 0.87240
C20 C 0.4967(8) 0.3266(7) 0.8169(4)
H11 H 0.43870 0.29190 0.82010
H12 H 0.53610 0.29870 0.81480
H13 H 0.49910 0.35320 0.79150
C21 C 0.6124(9) 0.4493(9) 0.8575(5)
H14 H 0.60850 0.49100 0.84220
H15 H 0.65640 0.43190 0.84520
H16 H 0.62710 0.46610 0.88700
C22 C 0.3149(7) 0.4256(6) 0.8979(2)
H17 H 0.36370 0.46870 0.89490
C23 C 0.2342(6) 0.4314(6) 0.9026(2)
C24 C 0.2332(7) 0.5123(5) 0.8984(3)
C25 C 0.1225(8) 0.5739(5) 0.8847(3)
C26 C 0.1758(8) 0.6509(6) 0.8909(3)
H18 H 0.23400 0.66620 0.89940
C27 C 0.1335(12) 0.7026(9) 0.8831(5)
H19 H 0.16860 0.75360 0.88290
C28 C 0.0552(10) 0.6884(6) 0.8766(4)
H20 H 0.03340 0.72790 0.87490
C29 C 0.0002(8) 0.6138(4) 0.8716(2)
C30 C 0.0374(6) 0.5536(4) 0.8739(2)
C31 C -0.0906(7) 0.5930(5) 0.8629(3)
C32 C -0.2184(9) 0.6304(6) 0.8580(4)
H21 H -0.24740 0.59500 0.87900
H22 H -0.23810 0.60630 0.82970
C33 C -0.2402(10) 0.7072(7) 0.8650(4)
H23 H -0.21000 0.74140 0.84330
C34 C -0.3391(12) 0.6842(9) 0.8560(5)
H24 H -0.35420 0.65470 0.82900
H25 H -0.35420 0.72920 0.85490
H26 H -0.37030 0.65430 0.87830
C35 C -0.1948(12) 0.7436(9) 0.9111(5)
H27 H -0.22250 0.71050 0.93290
H28 H -0.20050 0.79250 0.91700
H29 H -0.13430 0.74930 0.91060
C36 C -0.1415(6) 0.5164(4) 0.8561(2)
H30 H -0.20120 0.50110 0.85100
C37 C -0.0989(6) 0.4634(3) 0.8572(2)
C38 C -0.1532(6) 0.3788(3) 0.84858(18)
C39 C -0.1274(4) 0.2566(3) 0.83485(16)
C40 C -0.2121(5) 0.2068(4) 0.83849(17)
H31 H -0.25640 0.22700 0.84180
C41 C -0.2333(5) 0.1278(3) 0.83744(19)
H32 H -0.29070 0.09610 0.83960
C42 C -0.1672(5) 0.0972(3) 0.83305(18)
H33 H -0.17980 0.04510 0.83480
C43 C -0.0824(5) 0.1440(3) 0.82610(18)
C44 C -0.0621(4) 0.2249(3) 0.82625(15)
C45 C -0.0100(5) 0.1177(3) 0.82000(18)
C46 C 0.0374(6) 0.0127(4) 0.8261(3)
H34 H 0.08560 0.04790 0.84320
H35 H 0.05760 0.00640 0.79750
C47 C 0.0056(7) -0.0631(4) 0.8456(3)
H36 H -0.04600 -0.09690 0.82950
C48 C -0.0179(9) -0.0515(6) 0.8911(4)
H37 H 0.03400 -0.02620 0.90820
H38 H -0.04840 -0.10010 0.90200
H39 H -0.05450 -0.02100 0.89240
C49 C 0.0765(9) -0.0983(5) 0.8430(4)
H40 H 0.08480 -0.11160 0.81360
H41 H 0.05980 -0.14330 0.85870
H42 H 0.12980 -0.06230 0.85520
C50 C 0.0719(4) 0.1679(3) 0.81179(18)
H43 H 0.11900 0.15160 0.80750
C51 C 0.0800(4) 0.2461(3) 0.81027(16)
C52 C 0.1710(4) 0.3017(3) 0.80060(17)
C53 C 0.2332(4) 0.4387(3) 0.79091(17)
C54 C 0.3222(4) 0.4514(4) 0.79666(18)
H44 H 0.34090 0.41070 0.80070
C55 C 0.3833(4) 0.5261(4) 0.79636(18)
H45 H 0.44200 0.53390 0.80040
C56 C 0.3576(5) 0.5885(4) 0.7901(2)
H46 H 0.39830 0.63760 0.79090
C57 C 0.2709(5) 0.5761(3) 0.7828(2)
C58 C 0.2070(4) 0.5038(3) 0.78381(16)
C59 C 0.2407(6) 0.6372(3) 0.7752(2)
C60 C 0.2748(9) 0.7675(4) 0.7624(3)
H47 H 0.25260 0.75580 0.73310
H48 H 0.22530 0.76430 0.78010
C61 C 0.3258(8) 0.8410(6) 0.7651(4)
H49 H 0.37590 0.84550 0.74720
C62 C 0.3604(9) 0.8521(8) 0.8158(5)
H50 H 0.31150 0.84170 0.83420
H51 H 0.39890 0.90350 0.82210
H52 H 0.39060 0.81740 0.82040
C63 C 0.2900(9) 0.8997(6) 0.7533(5)
H53 H 0.26470 0.88690 0.72500
H54 H 0.33580 0.94840 0.75420
H55 H 0.24630 0.90200 0.77320
C64 C 0.1542(5) 0.6217(3) 0.7688(2)
H56 H 0.13280 0.66080 0.76450
C65 C 0.0976(5) 0.5463(3) 0.7689(2)
C66 C 0.0032(5) 0.5288(3) 0.75904(19)
C67 C -0.1334(4) 0.4175(3) 0.74611(17)
C68 C -0.1949(5) 0.4518(4) 0.7495(2)
H57 H -0.17800 0.50460 0.75390
C69 C -0.2806(5) 0.4089(4) 0.7466(2)
H58 H -0.32050 0.43410 0.74910
C70 C -0.3125(5) 0.3304(4) 0.7401(2)
H59 H -0.37170 0.30280 0.73970
C71 C -0.2501(4) 0.2941(3) 0.73423(18)
C72 C -0.1608(4) 0.3360(3) 0.73658(15)
C73 C -0.2745(4) 0.2149(3) 0.7281(2)
C74 C -0.2135(3) 0.1819(3) 0.72078(16)
H60 H -0.22930 0.12950 0.71480
C75 C -0.1256(3) 0.2292(3) 0.72244(15)
C76 C -0.0570(3) 0.1936(2) 0.71335(14)
C77 C 0.0872(4) 0.2121(3) 0.69796(19)
H61 H 0.07190 0.18250 0.67110
H62 H 0.09310 0.18020 0.71970
H63 H 0.14120 0.25310 0.69550
C78 C -0.3887(7) 0.1698(6) 0.9369(3)
H64 H -0.37750 0.14810 0.96260
H65 H -0.36390 0.14960 0.91300
C79 C -0.4898(8) 0.1470(8) 0.9290(4)
H66 H -0.51820 0.09620 0.93840
H67 H -0.51020 0.18180 0.94650
C80 C -0.5159(8) 0.1479(8) 0.8850(3)
H68 H -0.50870 0.19520 0.87480
C81 C -0.5490(7) 0.0875(7) 0.8580(4)
H69 H -0.56770 0.04010 0.86940
C82 C -0.5586(7) 0.0891(7) 0.8117(3)
H70 H -0.56300 0.13750 0.80500
H71 H -0.61120 0.04870 0.80130
C83 C -0.4802(7) 0.0782(7) 0.7899(4)
H72 H -0.47190 0.03370 0.80060
H73 H -0.42930 0.12190 0.79860
C84 C -0.4837(5) 0.0686(5) 0.7407(3)
H74 H -0.51440 0.01580 0.73110
H75 H -0.51400 0.09970 0.72920
C85 C -0.3929(4) 0.0930(4) 0.7259(3)
H76 H -0.35740 0.07510 0.74430
H77 H -0.39110 0.07230 0.69690
N1 N -0.0083(7) 0.4993(5) 0.9848(2)
N2 N -0.0806(5) 0.3428(4) 0.95540(18)
N3 N 0.0210(4) 0.2660(4) 0.92927(16)
H78 H 0.03100 0.31420 0.92920
N4 N 0.1622(4) 0.3765(4) 0.90826(18)
N5 N 0.1506(6) 0.5122(4) 0.8893(2)
H79 H 0.11090 0.46790 0.88610
N6 N -0.0140(5) 0.4784(3) 0.86574(16)
N7 N -0.1018(4) 0.3345(3) 0.83984(14)
H80 H -0.04730 0.35890 0.83720
N8 N 0.0192(3) 0.2741(2) 0.81853(13)
N9 N 0.1664(3) 0.3706(2) 0.79453(15)
H81 H 0.11490 0.37250 0.79260
N10 N 0.1214(4) 0.4880(2) 0.77591(14)
N11 N -0.0444(3) 0.4539(2) 0.75169(15)
H82 H -0.01450 0.42400 0.75020
N12 N -0.0980(3) 0.3038(2) 0.73012(12)
O1 O 0.0252(7) 0.4629(5) 1.0090(3)
O2 O 0.0346(8) 0.5634(5) 0.9747(3)
O3 O -0.0894(4) 0.1524(3) 0.93844(16)
O4 O 0.3933(6) 0.3338(5) 0.8914(2)
O5 O 0.2965(6) 0.5677(5) 0.9035(2)
O6 O -0.1225(6) 0.6514(3) 0.86275(19)
O7 O -0.2282(4) 0.3579(3) 0.84978(16)
O8 O -0.0301(4) 0.0421(2) 0.82425(17)
O9 O 0.2345(3) 0.2819(2) 0.79826(15)
O10 O 0.3021(5) 0.7062(3) 0.77282(18)
O11 O -0.0275(4) 0.5801(2) 0.7585(2)
O12 O 0.0204(2) 0.24267(18) 0.70936(12)
O13 O -0.0753(2) 0.12452(19) 0.70897(14)
O14 O -0.3495(5) 0.2501(4) 0.94141(19)
O15 O -0.3610(3) 0.1756(3) 0.72775(16)
C86 C 0.6605(3) 0.8641(3) 0.75021(17)
C87 C 0.7121(4) 0.9386(3) 0.75082(18)
H83 H 0.68680 0.97610 0.75200
C88 C 0.8017(4) 0.9597(3) 0.74968(19)
H84 H 0.83570 1.01060 0.74790
C89 C 0.8397(3) 0.9063(3) 0.75111(18)
H85 H 0.89990 0.92130 0.75310
C90 C 0.7891(3) 0.8274(3) 0.74965(15)
C91 C 0.6965(3) 0.8043(2) 0.74777(15)
C92 C 0.8266(3) 0.7700(3) 0.75102(17)
C93 C 0.7739(3) 0.6943(3) 0.74881(18)
H86 H 0.79650 0.65550 0.75140
C94 C 0.6829(3) 0.6786(3) 0.74236(18)
C95 C 0.6272(4) 0.5968(3) 0.7353(2)
C96 C 0.4793(4) 0.5175(3) 0.70716(18)
C97 C 0.4840(4) 0.4475(3) 0.7132(2)
H87 H 0.53580 0.44270 0.72230
C98 C 0.4083(4) 0.3818(3) 0.7054(2)
H88 H 0.41120 0.33390 0.70910
C99 C 0.3310(4) 0.3877(3) 0.69236(19)
H89 H 0.28190 0.34420 0.68770
C100 C 0.3269(3) 0.4605(3) 0.68611(17)
C101 C 0.4027(3) 0.5251(3) 0.69237(16)
C102 C 0.2489(3) 0.4727(3) 0.67539(17)
C103 C 0.0926(3) 0.4158(3) 0.66889(19)
H90 H 0.09220 0.46060 0.68620
H91 H 0.04940 0.37170 0.68000
C104 C 0.0681(5) 0.4221(5) 0.6241(2)
H92 H 0.10120 0.47300 0.61520
C105 C 0.0816(7) 0.3619(7) 0.5929(3)
H93 H 0.14010 0.36240 0.59610
H94 H 0.07180 0.37270 0.56410
H95 H 0.04160 0.31260 0.59870
C106 C -0.0307(6) 0.4117(7) 0.6252(3)
H96 H -0.06330 0.36110 0.63270
H97 H -0.04990 0.41960 0.59740
H98 H -0.03940 0.44820 0.64600
C107 C 0.2493(3) 0.5453(3) 0.66935(16)
H99 H 0.19870 0.55470 0.66300
C108 C 0.3309(3) 0.6041(2) 0.67344(15)
C109 C 0.3333(3) 0.6846(3) 0.66322(16)
C110 C 0.4434(3) 0.8078(3) 0.65014(15)
C111 C 0.3911(3) 0.8504(3) 0.64848(17)
H100 H 0.33190 0.82880 0.65300
C112 C 0.4283(4) 0.9293(3) 0.6397(2)
H101 H 0.39200 0.95780 0.63760
C113 C 0.5147(4) 0.9632(3) 0.6342(2)
H102 H 0.53770 1.01450 0.62880
C114 C 0.5699(4) 0.9184(3) 0.63695(17)
C115 C 0.5357(3) 0.8413(3) 0.64330(16)
C116 C 0.6620(4) 0.9511(3) 0.63168(17)
C117 C 0.7839(4) 1.0576(4) 0.6155(2)
H103 H 0.79950 1.02350 0.59500
H104 H 0.81950 1.06440 0.64120
C118 C 0.8009(6) 1.1337(4) 0.5969(3)
H105 H 0.78310 1.16620 0.61800
C119 C 0.8949(6) 1.1716(5) 0.5898(3)
H106 H 0.92540 1.18720 0.61690
H107 H 0.90330 1.21550 0.57380
H108 H 0.91690 1.13660 0.57410
C120 C 0.7444(7) 1.1239(6) 0.5554(4)
H109 H 0.75630 1.08800 0.53520
H110 H 0.75820 1.17210 0.54310
H111 H 0.68410 1.10540 0.56220
C121 C 0.7101(3) 0.9045(3) 0.63490(17)
H112 H 0.77040 0.92430 0.63370
C122 C 0.6676(3) 0.8272(3) 0.63993(15)
C123 C 0.7211(4) 0.7763(4) 0.63950(18)
C124 C 0.6986(4) 0.6369(4) 0.63150(19)
C125 C 0.7794(5) 0.6380(5) 0.6444(2)
H113 H 0.82460 0.68370 0.65110
C126 C 0.7909(5) 0.5663(5) 0.6470(3)
H114 H 0.84570 0.56670 0.65530
C127 C 0.7295(5) 0.4993(5) 0.6386(3)
H115 H 0.74070 0.45450 0.64200
C128 C 0.6444(4) 0.4964(4) 0.6239(2)
C129 C 0.6303(4) 0.5666(3) 0.62063(19)
C130 C 0.5762(5) 0.4293(4) 0.6147(3)
C131 C 0.5173(8) 0.2913(6) 0.6152(4)
H116 H 0.50620 0.27910 0.58470
H117 H 0.46490 0.29460 0.62810
C132 C 0.5435(8) 0.2286(6) 0.6354(4)
H118 H 0.55370 0.24160 0.66620
C133 C 0.6149(11) 0.2226(9) 0.6188(5)
H119 H 0.61130 0.22270 0.58820
H120 H 0.62120 0.17580 0.62640
H121 H 0.66420 0.26490 0.62970
C134 C 0.4673(11) 0.1521(7) 0.6284(5)
H122 H 0.41530 0.15790 0.63960
H123 H 0.48040 0.11360 0.64300
H124 H 0.45890 0.13720 0.59840
C135 C 0.5004(5) 0.4338(4) 0.6010(2)
H125 H 0.45280 0.38960 0.59490
C136 C 0.4933(4) 0.5045(3) 0.59587(18)
C137 C 0.4086(4) 0.5069(3) 0.57952(18)
C138 C 0.3455(3) 0.6032(3) 0.55958(15)
C139 C 0.2584(4) 0.5588(4) 0.55933(17)
H126 H 0.24170 0.50700 0.56340
C140 C 0.1962(4) 0.5922(5) 0.5530(2)
H127 H 0.13790 0.56150 0.55220
C141 C 0.2157(4) 0.6648(5) 0.54816(19)
H128 H 0.17160 0.68490 0.54520
C142 C 0.3039(4) 0.7134(4) 0.54739(17)
C143 C 0.3702(4) 0.6819(3) 0.55126(16)
C144 C 0.3316(5) 0.7932(4) 0.5409(2)
C145 C 0.2969(7) 0.9075(6) 0.5366(3)
H129 H 0.31700 0.92120 0.50810
H130 H 0.34140 0.93610 0.55780
C146 C 0.2031(10) 0.9188(8) 0.5460(5)
H131 H 0.15830 0.88370 0.52640
C147 C 0.1738(11) 0.9078(10) 0.5917(6)
H132 H 0.17470 0.85950 0.59990
H133 H 0.11580 0.90890 0.59380
H134 H 0.21220 0.94800 0.61040
C148 C 0.2297(14) 1.0088(10) 0.5302(7)
H135 H 0.27470 1.04300 0.54890
H136 H 0.17950 1.02400 0.53130
H137 H 0.25000 1.01030 0.50140
C149 C 0.4178(5) 0.8340(4) 0.53628(19)
H138 H 0.43650 0.88530 0.53100
C150 C 0.4765(5) 0.7953(4) 0.53981(19)
C151 C 0.5714(5) 0.8368(4) 0.5332(2)
C152 C 0.7096(4) 0.8102(4) 0.5303(2)
C153 C 0.7688(6) 0.8847(5) 0.5333(3)
H139 H 0.74780 0.92500 0.53450
C154 C 0.8547(7) 0.9000(7) 0.5346(3)
H140 H 0.89220 0.95040 0.53670
C155 C 0.8881(5) 0.8415(6) 0.5330(3)
H141 H 0.94780 0.85270 0.53580
C156 C 0.8327(5) 0.7649(6) 0.5270(2)
C157 C 0.7415(4) 0.7503(5) 0.52681(19)
C158 C 0.8578(6) 0.6966(7) 0.5200(2)
C159 C 0.7986(6) 0.6259(6) 0.5173(2)
H142 H 0.81450 0.58260 0.51540
C160 C 0.7111(4) 0.6212(5) 0.51732(19)
C161 C 0.6438(5) 0.5425(5) 0.5091(2)
C162 C 0.6186(11) 0.4108(9) 0.5006(5)
H143 H 0.57370 0.41140 0.48100
H144 H 0.59310 0.39000 0.52660
H145 H 0.64960 0.38000 0.48790
C163 C 0.9588(4) 0.7436(4) 0.7579(2)
H146 H 0.92460 0.69290 0.74600
H147 H 0.97170 0.74100 0.78790
C164 C 1.0396(5) 0.7751(5) 0.7340(3)
H148 H 1.05920 0.83030 0.73780
H149 H 1.08410 0.75890 0.74640
C165 C 1.0317(8) 0.7539(7) 0.6909(3)
H150 H 0.99960 0.77810 0.67690
C166 C 1.0564(11) 0.7096(11) 0.6639(5)
H151 H 1.11600 0.72550 0.66930
C167 C 1.042(1) 0.6482(9) 0.6296(4)
H152 H 0.99460 0.60210 0.63530
H153 H 1.09410 0.63660 0.62310
C168 C 1.0188(7) 0.6924(7) 0.5964(4)
H154 H 1.06920 0.73380 0.58800
H155 H 0.97440 0.71250 0.60610
C169 C 0.9808(8) 0.6233(8) 0.5558(3)
H156 H 1.01770 0.59240 0.55340
H157 H 0.92260 0.59030 0.56190
C170 C 0.9796(7) 0.6587(8) 0.5146(3)
H158 H 1.03800 0.67700 0.50380
H159 H 0.94340 0.62030 0.49370
N13 N 0.5683(3) 0.8479(3) 0.75459(19)
N14 N 0.6440(3) 0.7300(2) 0.74290(14)
N15 N 0.5494(3) 0.5866(2) 0.71727(16)
H160 H 0.54080 0.62750 0.71100
N16 N 0.4049(3) 0.5972(2) 0.68451(13)
N17 N 0.4164(3) 0.7321(2) 0.65932(14)
H161 H 0.45650 0.71300 0.66290
N18 N 0.5844(3) 0.7952(2) 0.64456(14)
N19 N 0.6739(3) 0.7017(3) 0.63186(15)
H162 H 0.61970 0.69230 0.62630
N20 N 0.5534(3) 0.5687(3) 0.60585(15)
N21 N 0.4133(3) 0.5773(3) 0.56843(14)
H163 H 0.46480 0.61000 0.56670
N22 N 0.4568(3) 0.7209(2) 0.54706(13)
N23 N 0.6200(3) 0.7910(3) 0.53261(16)
H164 H 0.59130 0.74320 0.53390
N24 N 0.6819(3) 0.6770(4) 0.52195(16)
O16 O 0.5239(3) 0.7910(3) 0.7739(2)
O17 O 0.5365(3) 0.8922(3) 0.74110(17)
O18 O 0.6519(3) 0.5466(2) 0.7456(2)
O19 O 0.1764(2) 0.4085(2) 0.67305(14)
O20 O 0.2677(2) 0.6988(2) 0.65975(14)
O21 O 0.6941(3) 1.0248(2) 0.62540(15)
O22 O 0.8009(2) 0.8008(3) 0.64633(14)
O23 O 0.5904(5) 0.3656(3) 0.6231(2)
O24 O 0.3437(3) 0.4510(2) 0.57568(15)
O25 O 0.2691(4) 0.8236(3) 0.54068(16)
O26 O 0.6001(5) 0.9055(3) 0.5301(2)
O27 O 0.6793(5) 0.4893(4) 0.5102(2)
O28 O 0.5671(4) 0.5272(3) 0.50273(16)
O29 O 0.9136(2) 0.7958(2) 0.75292(17)
O30 O 0.9468(4) 0.7221(5) 0.5191(2)
C171 C 0.1406(3) 0.8070(3) 0.20930(16)
C172 C 0.1912(3) 0.8830(3) 0.20968(17)
H165 H 0.16480 0.91980 0.20970
C173 C 0.2815(3) 0.9052(3) 0.20998(18)
H166 H 0.31540 0.95650 0.21070
C174 C 0.3199(3) 0.8503(2) 0.20920(18)
H167 H 0.38010 0.86450 0.20820
C175 C 0.2682(3) 0.7722(2) 0.20987(16)
C176 C 0.1767(3) 0.7482(2) 0.21220(14)
C177 C 0.3064(3) 0.7144(3) 0.20929(17)
C178 C 0.2547(3) 0.6412(3) 0.21306(16)
H168 H 0.27750 0.60200 0.21160
C179 C 0.1654(3) 0.6262(2) 0.21925(14)
C180 C 0.1101(3) 0.5449(3) 0.22685(17)
C181 C -0.0323(3) 0.4718(2) 0.25496(15)
C182 C -0.0305(3) 0.3997(3) 0.24909(18)
H169 H 0.01970 0.39230 0.23940
C183 C -0.1034(4) 0.3364(3) 0.25752(18)
H170 H -0.10090 0.28760 0.25370
C184 C -0.1795(3) 0.3465(2) 0.27152(16)
H171 H -0.22830 0.30450 0.27630
C185 C -0.1822(3) 0.4191(3) 0.27827(14)
C186 C -0.1085(3) 0.4839(2) 0.27178(14)
C187 C -0.2591(3) 0.4348(3) 0.29034(15)
C188 C -0.4142(4) 0.3786(3) 0.29886(17)
H172 H -0.45800 0.33260 0.28640
H173 H -0.41610 0.42080 0.28300
C189 C -0.4354(6) 0.3915(5) 0.3437(3)
H174 H -0.40430 0.44460 0.35390
C190 C -0.5371(7) 0.3753(8) 0.3424(4)
H175 H -0.54980 0.40940 0.32400
H176 H -0.55600 0.38310 0.37080
H177 H -0.56700 0.32360 0.33160
C191 C -0.4190(8) 0.3399(8) 0.3730(4)
H178 H -0.46870 0.29390 0.37280
H179 H -0.40860 0.36420 0.40150
H180 H -0.36900 0.32780 0.36410
C192 C -0.2567(3) 0.5077(3) 0.29649(15)
H181 H -0.30650 0.51840 0.30380
C193 C -0.1787(3) 0.5662(2) 0.29169(15)
C194 C -0.1744(3) 0.6484(3) 0.29998(15)
C195 C -0.0630(3) 0.7771(3) 0.31099(15)
C196 C -0.1131(4) 0.8211(3) 0.31336(19)
H182 H -0.17320 0.79880 0.31050
C197 C -0.0747(4) 0.9012(3) 0.3201(2)
H183 H -0.10990 0.93100 0.32090
C198 C 0.0128(4) 0.9356(3) 0.3256(2)
H184 H 0.03670 0.98830 0.33080
C199 C 0.0676(4) 0.8909(3) 0.32319(16)
C200 C 0.0306(3) 0.8107(3) 0.31659(15)
C201 C 0.1615(4) 0.9229(3) 0.32703(17)
C202 C 0.2840(4) 1.0348(4) 0.3450(2)
H185 H 0.31860 1.03590 0.31980
H186 H 0.30040 1.00560 0.36570
C203 C 0.3006(5) 1.1132(4) 0.3634(3)
H187 H 0.28060 1.14070 0.34250
C204 C 0.2468(7) 1.1106(5) 0.4047(3)
H188 H 0.18600 1.08710 0.39750
H189 H 0.25790 1.16160 0.41690
H190 H 0.26340 1.08160 0.42510
C205 C 0.3981(6) 1.1557(5) 0.3727(3)
H191 H 0.41220 1.14940 0.40160
H192 H 0.41160 1.20900 0.36880
H193 H 0.43130 1.13530 0.35340
C206 C 0.2075(3) 0.8764(3) 0.32402(16)
H194 H 0.26790 0.89660 0.32460
C207 C 0.1650(3) 0.7967(3) 0.31989(14)
C208 C 0.2163(3) 0.7453(3) 0.32075(15)
C209 C 0.1933(4) 0.6076(3) 0.32973(17)
C210 C 0.2729(4) 0.6046(4) 0.3159(2)
H195 H 0.31700 0.64810 0.30830
C211 C 0.2837(4) 0.5330(4) 0.3140(3)
H196 H 0.33690 0.53050 0.30530
C212 C 0.2211(4) 0.4674(4) 0.3240(3)
H197 H 0.23100 0.42130 0.32160
C213 C 0.1414(4) 0.4709(4) 0.3379(2)
C214 C 0.1270(3) 0.5411(3) 0.34128(16)
C215 C 0.0709(4) 0.4041(4) 0.3490(2)
C216 C 0.0156(6) 0.2697(4) 0.3511(3)
H198 H -0.03850 0.27070 0.33900
H199 H 0.00930 0.26400 0.38160
C217 C 0.0425(9) 0.2010(6) 0.3277(4)
H200 H 0.04320 0.20610 0.29670
C218 C 0.1154(10) 0.1977(7) 0.3397(5)
H201 H 0.16160 0.23770 0.32770
H202 H 0.11900 0.14920 0.32990
H203 H 0.12060 0.20380 0.37030
C219 C -0.035(1) 0.1284(6) 0.3375(6)
H204 H -0.03400 0.12070 0.36750
H205 H -0.03010 0.08490 0.32120
H206 H -0.08870 0.13490 0.33000
C220 C -0.0025(4) 0.4123(3) 0.36315(19)
H207 H -0.04900 0.37010 0.37030
C221 C -0.0083(3) 0.4870(3) 0.36709(15)
C222 C -0.0910(4) 0.4949(3) 0.38530(17)
C223 C -0.1468(4) 0.5990(4) 0.40401(16)
C224 C -0.2342(4) 0.5579(4) 0.40531(17)
H208 H -0.25410 0.50500 0.40200
C225 C -0.2934(4) 0.5975(4) 0.4117(2)
H209 H -0.35220 0.56910 0.41310
C226 C -0.2692(5) 0.6735(4) 0.4159(2)
H210 H -0.31050 0.69710 0.41930
C227 C -0.1788(5) 0.7178(4) 0.41492(19)
C228 C -0.1167(5) 0.6798(3) 0.41140(17)
C229 C -0.1494(6) 0.7971(4) 0.4197(2)
C230 C -0.1813(7) 0.9128(5) 0.4225(3)
H211 H -0.14080 0.93220 0.40000
H212 H -0.15270 0.93370 0.45000
C231 C -0.2664(10) 0.9332(8) 0.4167(6)
H213 H -0.30690 0.90620 0.43810
C232 C -0.2432(14) 1.0171(10) 0.4291(8)
H214 H -0.20620 1.03040 0.45430
H215 H -0.29520 1.02820 0.43480
H216 H -0.21340 1.04600 0.40620
C233 C -0.3066(14) 0.9056(13) 0.3773(8)
H217 H -0.26650 0.92530 0.35510
H218 H -0.35610 0.92130 0.37420
H219 H -0.32520 0.85090 0.37510
C234 C -0.0612(6) 0.8359(4) 0.4226(2)
H220 H -0.03910 0.88880 0.42610
C235 C -0.0064(6) 0.7935(4) 0.4200(2)
C236 C 0.0913(5) 0.8349(4) 0.4239(2)
C237 C 0.2278(4) 0.8001(4) 0.42812(18)
C238 C 0.2874(5) 0.8696(4) 0.4234(2)
H221 H 0.27120 0.91220 0.42100
C239 C 0.3754(6) 0.8749(5) 0.4223(2)
H222 H 0.41690 0.92210 0.41800
C240 C 0.4031(5) 0.8151(5) 0.4273(2)
H223 H 0.46200 0.82160 0.42740
C241 C 0.3396(6) 0.7428(5) 0.4322(2)
C242 C 0.2503(5) 0.7350(4) 0.43345(17)
C243 C 0.3614(6) 0.6779(5) 0.4394(2)
C244 C 0.2995(5) 0.6090(5) 0.4450(2)
H224 H 0.31250 0.56490 0.44780
C245 C 0.2129(5) 0.6103(4) 0.4460(2)
C246 C 0.1436(5) 0.5381(5) 0.4545(2)
C247 C 0.1137(7) 0.4074(6) 0.4646(4)
H225 H 0.14140 0.36970 0.46220
H226 H 0.06430 0.39250 0.44530
H227 H 0.09520 0.41160 0.49340
C248 C 0.4413(4) 0.6890(3) 0.2059(2)
H228 H 0.45400 0.67550 0.17690
H229 H 0.40780 0.64270 0.21900
C249 C 0.5245(4) 0.7305(4) 0.2316(3)
H230 H 0.56800 0.70800 0.22370
H231 H 0.54640 0.78350 0.22480
C250 C 0.5096(5) 0.7262(5) 0.2777(3)
H232 H 0.46870 0.74610 0.28870
C251 C 0.5468(7) 0.6980(6) 0.3041(3)
H233 H 0.59320 0.68450 0.29410
C252 C 0.5216(7) 0.6834(6) 0.3534(4)
H234 H 0.56570 0.71920 0.37250
H235 H 0.46640 0.69010 0.35910
C253 C 0.5156(7) 0.6057(6) 0.3604(4)
H236 H 0.57360 0.60390 0.36380
H237 H 0.48800 0.57260 0.33550
C254 C 0.4636(7) 0.5765(7) 0.4000(3)
H238 H 0.40260 0.56450 0.39250
H239 H 0.47120 0.52890 0.40570
C255 C 0.4820(6) 0.6255(6) 0.4408(3)
H240 H 0.45430 0.59500 0.46410
H241 H 0.54410 0.64500 0.44680
N25 N 0.0456(3) 0.7883(2) 0.20586(16)
N26 N 0.1262(2) 0.6762(2) 0.21831(12)
N27 N 0.0345(2) 0.5385(2) 0.24506(13)
H242 H 0.02560 0.58050 0.25150
N28 N -0.1060(2) 0.5565(2) 0.27928(11)
N29 N -0.0920(3) 0.6978(2) 0.30312(12)
H243 H -0.05210 0.67800 0.29990
N30 N 0.0782(2) 0.7644(2) 0.31612(11)
N31 N 0.1690(3) 0.6729(2) 0.33000(13)
H244 H 0.11630 0.66590 0.33710
N32 N 0.0528(3) 0.5477(2) 0.35608(13)
N33 N -0.0822(3) 0.5679(3) 0.39476(13)
H245 H -0.02990 0.59980 0.39520
N34 N -0.0312(4) 0.7195(3) 0.41347(15)
N35 N 0.1358(4) 0.7854(3) 0.42691(16)
H246 H 0.10380 0.73840 0.42830
N36 N 0.1875(4) 0.6701(3) 0.43983(15)
O31 O 0.0021(3) 0.7285(2) 0.1875(2)
O32 O 0.0157(3) 0.8378(3) 0.21867(16)
O33 O 0.1348(3) 0.49164(18) 0.21608(15)
O34 O -0.3302(2) 0.37114(19) 0.29419(12)
O35 O -0.2397(2) 0.6636(2) 0.30577(13)
O36 O 0.1928(3) 0.9993(2) 0.33353(15)
O37 O 0.2954(2) 0.7685(2) 0.31359(13)
O38 O 0.0876(4) 0.3390(3) 0.3428(2)
O39 O -0.1559(3) 0.4400(2) 0.38885(13)
O40 O -0.2130(4) 0.8297(3) 0.42005(18)
O41 O 0.1251(5) 0.9040(3) 0.42639(17)
O42 O 0.1728(4) 0.4781(3) 0.45421(19)
O43 O 0.0701(4) 0.5312(3) 0.46089(15)
O44 O 0.3937(2) 0.7413(2) 0.20596(16)
O45 O 0.4506(4) 0.6888(4) 0.4388(2)
C256 C 0.3604(6) 0.3707(6) 0.0050(2)
C257 C 0.3106(8) 0.4190(7) 0.0041(3)
H247 H 0.33720 0.47030 -0.00050
C258 C 0.2196(8) 0.3886(7) 0.0104(3)
H248 H 0.18680 0.42050 0.01190
C259 C 0.1802(6) 0.3110(6) 0.0143(2)
H249 H 0.12000 0.29060 0.01550
C260 C 0.2285(5) 0.2622(5) 0.01632(19)
C261 C 0.3255(6) 0.2958(5) 0.0122(2)
C262 C 0.1929(5) 0.1840(6) 0.0201(2)
C263 C 0.2432(5) 0.1388(5) 0.0215(2)
H250 H 0.21840 0.08630 0.02310
C264 C 0.3340(5) 0.1751(5) 0.0206(2)
C265 C 0.3904(4) 0.1295(4) 0.02783(17)
C266 C 0.5461(5) 0.1491(4) 0.04192(19)
C267 C 0.5441(5) 0.0755(5) 0.0366(2)
H251 H 0.49210 0.03540 0.03120
C268 C 0.6224(5) 0.0626(5) 0.0394(2)
H252 H 0.61970 0.01210 0.03550
C269 C 0.7020(5) 0.1154(5) 0.0472(3)
H253 H 0.75170 0.10240 0.04860
C270 C 0.7049(4) 0.1919(5) 0.0532(2)
C271 C 0.6279(4) 0.2111(4) 0.05066(17)
C272 C 0.7833(5) 0.2568(6) 0.0596(2)
C273 C 0.9420(6) 0.2827(6) 0.0662(3)
H254 H 0.94890 0.32470 0.04840
H255 H 0.98090 0.25670 0.05580
C274 C 0.9692(7) 0.3136(7) 0.1093(3)
H256 H 0.93130 0.34150 0.11940
C275 C 1.0635(7) 0.3707(7) 0.1096(4)
H257 H 1.10330 0.34320 0.10970
H258 H 1.07390 0.40510 0.13470
H259 H 1.07170 0.39900 0.08460
C276 C 0.9607(7) 0.2519(6) 0.1386(3)
H260 H 0.90560 0.21200 0.13320
H261 H 0.96430 0.27220 0.16770
H262 H 1.00660 0.23180 0.13360
C277 C 0.7838(4) 0.3263(5) 0.06381(18)
H263 H 0.83560 0.36750 0.06680
C278 C 0.7024(5) 0.3373(5) 0.06357(18)
C279 C 0.7003(5) 0.4167(4) 0.07204(17)
C280 C 0.5971(5) 0.4816(4) 0.08729(19)
C281 C 0.6525(6) 0.5579(4) 0.0820(3)
H264 H 0.71130 0.56960 0.07680
C282 C 0.6148(8) 0.6134(6) 0.0852(3)
H265 H 0.65140 0.66320 0.08220
C283 C 0.5379(7) 0.6040(5) 0.0915(3)
H266 H 0.51890 0.64540 0.09100
C284 C 0.4761(6) 0.5298(4) 0.0995(2)
C285 C 0.5092(5) 0.4699(3) 0.0977(2)
C286 C 0.3816(6) 0.5115(4) 0.1070(2)
C287 C 0.2576(8) 0.5508(5) 0.1042(3)
H267 H 0.23380 0.53720 0.13210
H268 H 0.23010 0.50850 0.08340
C288 C 0.2439(8) 0.6230(6) 0.0916(4)
H269 H 0.27890 0.66630 0.11070
C289 C 0.2679(10) 0.6382(6) 0.0469(4)
H270 H 0.32630 0.63920 0.04280
H271 H 0.26410 0.68660 0.04080
H272 H 0.22900 0.59880 0.02800
C290 C 0.1494(10) 0.6107(7) 0.0974(4)
H273 H 0.11490 0.56450 0.08160
H274 H 0.13640 0.65290 0.08720
H275 H 0.13640 0.60690 0.12720
C291 C 0.3313(5) 0.4373(3) 0.1139(2)
H276 H 0.27210 0.42380 0.11870
C292 C 0.3729(5) 0.3832(3) 0.11330(19)
C293 C 0.3199(4) 0.3021(3) 0.12021(15)
C294 C 0.3436(3) 0.1808(3) 0.13134(15)
C295 C 0.2596(4) 0.1306(3) 0.12556(16)
H277 H 0.21410 0.14890 0.12250
C296 C 0.2428(4) 0.0513(3) 0.12425(18)
H278 H 0.18590 0.01780 0.12090
C297 C 0.3097(4) 0.0224(3) 0.12786(19)
H279 H 0.29820 -0.02990 0.12490
C298 C 0.3942(4) 0.0725(3) 0.13593(16)
C299 C 0.4123(3) 0.1523(3) 0.13839(15)
C300 C 0.4678(4) 0.0477(3) 0.13996(17)
C301 C 0.5203(5) -0.0573(3) 0.1340(2)
H280 H 0.54350 -0.05580 0.16270
H281 H 0.56660 -0.02720 0.11660
C302 C 0.4826(7) -0.1391(4) 0.1149(3)
H282 H 0.43630 -0.16940 0.13280
C303 C 0.451(1) -0.1437(7) 0.0724(5)
H283 H 0.39890 -0.13130 0.07260
H284 H 0.43860 -0.19460 0.05980
H285 H 0.49400 -0.10840 0.05610
C304 C 0.5650(9) -0.1684(5) 0.1164(4)
H286 H 0.61770 -0.12620 0.11340
H287 H 0.55920 -0.20650 0.09340
H288 H 0.56680 -0.18990 0.14330
C305 C 0.5484(4) 0.1011(3) 0.14942(18)
H289 H 0.59620 0.08610 0.15340
C306 C 0.5577(4) 0.1789(3) 0.15297(15)
C307 C 0.6472(4) 0.2372(3) 0.16209(15)
C308 C 0.7103(3) 0.3780(3) 0.17433(14)
C309 C 0.7974(4) 0.3882(3) 0.16759(16)
H290 H 0.81550 0.34640 0.16350
C310 C 0.8585(4) 0.4638(3) 0.16696(16)
H291 H 0.91600 0.47070 0.16090
C311 C 0.8347(4) 0.5257(3) 0.17498(17)
H292 H 0.87590 0.57440 0.17440
C312 C 0.7489(4) 0.5169(3) 0.18403(16)
C313 C 0.6848(4) 0.4427(3) 0.18463(14)
C314 C 0.7191(5) 0.5790(3) 0.19350(17)
C315 C 0.7492(8) 0.7127(4) 0.2050(3)
H293 H 0.69620 0.70520 0.18880
H294 H 0.73410 0.70950 0.23500
C316 C 0.8048(7) 0.7873(5) 0.2002(3)
H295 H 0.85820 0.79810 0.21740
C317 C 0.8264(7) 0.7863(7) 0.1495(4)
H296 H 0.79900 0.73580 0.13640
H297 H 0.88810 0.80160 0.14620
H298 H 0.80480 0.82110 0.13590
C318 C 0.7637(6) 0.8430(5) 0.2122(4)
H299 H 0.72830 0.84700 0.18870
H300 H 0.80760 0.89170 0.21940
H301 H 0.72810 0.82700 0.23650
C319 C 0.6329(4) 0.5641(3) 0.20191(17)
H302 H 0.61170 0.60390 0.20720
C320 C 0.5769(4) 0.4880(3) 0.20242(16)
C321 C 0.4812(4) 0.4732(3) 0.21282(18)
C322 C 0.3497(4) 0.3639(3) 0.22285(17)
C323 C 0.2875(4) 0.3981(3) 0.21963(19)
H303 H 0.30460 0.45060 0.21790
C324 C 0.1985(4) 0.3538(4) 0.2189(2)
H304 H 0.15760 0.37720 0.21500
C325 C 0.1714(4) 0.2789(3) 0.2238(2)
H305 H 0.11230 0.25120 0.22370
C326 C 0.2322(3) 0.2412(3) 0.22928(17)
C327 C 0.3212(3) 0.2837(3) 0.22962(16)
C328 C 0.2080(3) 0.1630(3) 0.23401(17)
C329 C 0.2721(3) 0.1313(3) 0.24082(16)
H306 H 0.25760 0.07950 0.24440
C330 C 0.3606(3) 0.1808(2) 0.24204(14)
C331 C 0.4262(3) 0.1448(2) 0.24954(15)
C332 C 0.5743(3) 0.1674(3) 0.26430(18)
H307 H 0.57230 0.12750 0.24300
H308 H 0.56570 0.14720 0.29200
H309 H 0.62980 0.20730 0.26410
C333 C 0.0602(6) 0.0746(6) 0.0171(3)
H310 H 0.07150 0.05780 -0.01150
H311 H 0.08560 0.05050 0.03730
C334 C -0.0330(7) 0.0486(8) 0.0226(4)
H312 H -0.05700 -0.00550 0.01430
H313 H -0.05830 0.07480 0.00370
C335 C -0.0581(7) 0.0618(7) 0.0671(4)
H314 H -0.06370 0.10800 0.07650
C336 C -0.0733(6) 0.0026(6) 0.0945(3)
H315 H -0.07690 -0.04560 0.08320
C337 C -0.0836(6) 0.0148(6) 0.1402(3)
H316 H -0.13210 -0.02680 0.15010
H317 H -0.09470 0.06200 0.14640
C338 C 0.0006(5) 0.0185(5) 0.1626(3)
H318 H 0.04550 0.06560 0.15610
H319 H 0.01740 -0.02310 0.15040
C339 C -0.0015(4) 0.0146(4) 0.2114(3)
H320 H -0.03210 -0.03740 0.21840
H321 H -0.03230 0.04660 0.22370
C340 C 0.0919(4) 0.0418(3) 0.2303(2)
H322 H 0.09220 0.02540 0.25910
H323 H 0.12840 0.02120 0.21270
N37 N 0.4512(7) 0.4033(6) -0.0040(3)
N38 N 0.3730(4) 0.2488(4) 0.01714(16)
N39 N 0.4760(4) 0.1740(3) 0.03678(16)
H324 H 0.48730 0.22250 0.03950
N40 N 0.6274(3) 0.2814(3) 0.05703(14)
N41 N 0.6210(4) 0.4194(3) 0.08122(17)
H325 H 0.58060 0.37610 0.08350
N42 N 0.4575(4) 0.3967(3) 0.10504(15)
N43 N 0.3695(3) 0.2596(2) 0.12878(14)
H326 H 0.42400 0.28430 0.13320
N44 N 0.4934(3) 0.2049(2) 0.14652(12)
N45 N 0.6443(3) 0.3077(2) 0.17160(13)
H327 H 0.59340 0.30920 0.17680
N46 N 0.6002(3) 0.4287(2) 0.19368(13)
N47 N 0.4385(3) 0.3990(2) 0.21814(13)
H328 H 0.46950 0.37010 0.21870
N48 N 0.3850(3) 0.2530(2) 0.23595(12)
O46 O 0.4935(6) 0.3641(6) -0.0162(3)
O47 O 0.4840(6) 0.4737(5) -0.0022(3)
O48 O 0.3624(4) 0.0607(4) 0.02508(17)
O49 O 0.8567(4) 0.2318(4) 0.06080(19)
O50 O 0.7674(4) 0.4732(4) 0.07081(15)
O51 O 0.3535(5) 0.5699(3) 0.10535(19)
O52 O 0.2401(3) 0.2792(2) 0.11929(13)
O53 O 0.4501(3) -0.0282(2) 0.13495(16)
O54 O 0.7119(3) 0.2204(2) 0.16163(13)
O55 O 0.7771(4) 0.6490(2) 0.19305(15)
O56 O 0.4513(4) 0.5244(2) 0.21570(17)
O57 O 0.5066(2) 0.19757(18) 0.25505(11)
O58 O 0.4123(2) 0.07729(19) 0.25151(14)
O59 O 0.1034(4) 0.1570(4) 0.02322(18)
O60 O 0.1230(2) 0.1245(2) 0.23094(15)
#END
