
#######################################################################
#
#                 Cambridge Crystallographic Data Centre
#                                CCDC
#
#######################################################################
#
# If this CIF has been generated from an entry in the Cambridge
# Structural Database, then it will include bibliographic, chemical,
# crystal, experimental, refinement or atomic coordinate data resulting
# from the CCDC's data processing and validation procedures.
#
#######################################################################

data_CSD_CIF_SEDHOB
_audit_creation_date 2017-07-03
_audit_creation_method CSD-ConQuest-V1
_database_code_CSD SEDHOB
_database_code_depnum_ccdc_archive 'CCDC 1508902'
_chemical_formula_sum 'C82 H76 N12 O15'
_chemical_formula_moiety
;
C82 H76 N12 O15
;
_journal_coden_Cambridge 1220
_journal_volume 23
_journal_year 2017
_journal_page_first 5361
_journal_name_full 'Chem.-Eur.J. '
loop_
_publ_author_name
"Lu Zheng"
"Chengyuan Yu"
"Yulin Zhan"
"Xuebin Deng"
"Ying Wang"
"Hua Jiang"
_chemical_name_systematic
;
methyl 
64,72,74,76-tetraisobutoxy-37-nitro-3,13,23,33,61-pentaoxo-43,49-dioxa-2,5,12,
15,22,25,32,35,53,60,70-undecaazatridecacyclo[60.6.2.2^4,7^.2^14,17^.2^24,27^.
1^34,42^.0^6,11^.0^16,21^.0^26,31^.0^36,41^.0^50,55^.0^54,59^.0^65,69^]heptahe
ptaconta-1(68),4,6,8,10,14,16,18,20,24,26,28,30,34,36(41),37,39,42(71),46,50,5
2,54,56,58,62(70),63,65(69),66,72,74,76-hentriacontaene-52-carboxylate 
unknown solvate
;
_cell_volume   7497.734
_exptl_crystal_colour 'yellow'
_exptl_crystal_density_diffrn 1.302
_exptl_crystal_description 'block'
_exptl_crystal_preparation 'dichloromethane/hexane'
_diffrn_ambient_temperature 100.0
_refine_special_details
;
Disordered solvent molecules were not modelled and the disordered density was 
taken into account using the MASK/OLEX2 program.
;
#These two values have been output from a single CSD field.
_refine_ls_R_factor_gt 0.133
_refine_ls_wR_factor_gt 0.133
_symmetry_cell_setting monoclinic
_symmetry_space_group_name_H-M 'P 21/c'
_symmetry_Int_Tables_number 14
loop_
_symmetry_equiv_pos_site_id
_symmetry_equiv_pos_as_xyz
1 x,y,z
2 -x,1/2+y,1/2-z
3 -x,-y,-z
4 x,-1/2-y,-1/2+z
_cell_length_a 19.0911(12)
_cell_length_b 25.2401(17)
_cell_length_c 15.8581(14)
_cell_angle_alpha 90
_cell_angle_beta 101.128(8)
_cell_angle_gamma 90
_cell_formula_units_Z 4
loop_
_atom_type_symbol
_atom_type_radius_bond
C 0.68
H 0.23
N 0.68
O 0.68
loop_
_atom_site_label
_atom_site_type_symbol
_atom_site_fract_x
_atom_site_fract_y
_atom_site_fract_z
C1 C 0.1295(3) 0.5049(2) -0.0405(3)
C2 C 0.0884(3) 0.4643(3) -0.0264(4)
H1 H 0.03930 0.46880 -0.03220
C3 C 0.1198(3) 0.4147(3) -0.0027(4)
H2 H 0.09190 0.38640 0.00890
C4 C 0.1920(3) 0.4082(2) 0.0033(4)
H3 H 0.21260 0.37520 0.01720
C5 C 0.2355(3) 0.4516(2) -0.0116(3)
C6 C 0.2052(3) 0.5019(2) -0.0311(3)
C7 C 0.3112(3) 0.4474(2) -0.0025(4)
C8 C 0.4146(4) 0.3903(3) 0.0377(5)
H4 H 0.44020 0.42150 0.06260
H5 H 0.43040 0.38150 -0.01520
C9 C 0.4273(5) 0.3442(3) 0.1002(6)
H6 H 0.39000 0.31820 0.08260
H7 H 0.47240 0.32770 0.09590
C10 C 0.4290(4) 0.3578(2) 0.1906(5)
H8 H 0.38690 0.36920 0.20610
C11 C 0.4884(5) 0.3546(3) 0.2527(8)
H9 H 0.53030 0.34500 0.23490
C12 C 0.4944(7) 0.3649(5) 0.3469(9)
H10 H 0.51430 0.33370 0.37850
H11 H 0.52750 0.39390 0.36350
C13 C 0.3495(3) 0.4913(2) -0.0161(3)
H12 H 0.39800 0.48910 -0.01690
C14 C 0.3132(3) 0.5401(2) -0.0288(3)
C15 C 0.3568(2) 0.59080(19) -0.0278(3)
C16 C 0.3430(2) 0.6868(2) 0.0000(3)
C17 C 0.4031(2) 0.7061(2) -0.0260(3)
H13 H 0.43430 0.68300 -0.04570
C18 C 0.4167(3) 0.7608(2) -0.0226(3)
H14 H 0.45690 0.77340 -0.04120
C19 C 0.3731(3) 0.7963(2) 0.0071(3)
H15 H 0.38360 0.83230 0.00800
C20 C 0.3119(3) 0.7780(2) 0.0364(3)
C21 C 0.2968(2) 0.7228(2) 0.0326(3)
C22 C 0.2642(3) 0.8111(2) 0.0700(3)
C23 C 0.2379(4) 0.8972(2) 0.1197(5)
H16 H 0.22840 0.88040 0.17130
H17 H 0.19270 0.90330 0.08110
C24 C 0.2751(6) 0.9485(4) 0.1420(7)
H18 H 0.28920 0.96340 0.09070
C25 C 0.2210(8) 0.9862(5) 0.1731(10)
H19 H 0.17850 0.98860 0.12970
H20 H 0.24190 1.02070 0.18370
H21 H 0.20930 0.97250 0.22520
C26 C 0.3359(7) 0.9415(5) 0.2068(9)
H22 H 0.32230 0.94220 0.26200
H23 H 0.36930 0.96950 0.20360
H24 H 0.35770 0.90800 0.19900
C27 C 0.2037(3) 0.7899(2) 0.0910(3)
H25 H 0.16970 0.81150 0.10820
C28 C 0.1946(3) 0.7352(2) 0.0859(3)
C29 C 0.1301(3) 0.7124(2) 0.1156(4)
C30 C 0.0897(3) 0.6266(3) 0.1657(3)
C31 C 0.0230(3) 0.6422(3) 0.1796(4)
H26 H 0.00620 0.67670 0.17020
C32 C -0.0195(3) 0.5996(4) 0.2106(4)
H27 H -0.06380 0.60880 0.22230
C33 C 0.0007(4) 0.5498(4) 0.2227(5)
H28 H -0.02970 0.52470 0.23920
C34 C 0.0686(3) 0.5352(3) 0.2104(4)
C35 C 0.1134(3) 0.5741(2) 0.1833(3)
C36 C 0.0950(4) 0.4828(3) 0.2192(5)
C37 C 0.0720(5) 0.3914(4) 0.2498(7)
H29 H 0.07820 0.37940 0.19360
H30 H 0.11790 0.38900 0.28870
C38 C 0.0214(6) 0.3576(5) 0.2803(9)
H31 H -0.02000 0.35670 0.23290
C39 C -0.0044(6) 0.3807(6) 0.3487(9)
H32 H 0.03450 0.38610 0.39630
H33 H -0.03910 0.35770 0.36600
H34 H -0.02620 0.41420 0.33080
C40 C 0.0475(6) 0.2992(4) 0.2903(9)
H35 H 0.05850 0.28700 0.23700
H36 H 0.01060 0.27740 0.30550
H37 H 0.08940 0.29700 0.33460
C41 C 0.1614(4) 0.4724(3) 0.2094(4)
H38 H 0.17900 0.43800 0.21570
C42 C 0.2038(4) 0.5129(2) 0.1898(3)
C43 C 0.2793(4) 0.5009(2) 0.1886(4)
C44 C 0.3930(3) 0.5486(2) 0.1862(3)
C45 C 0.4378(4) 0.5073(3) 0.1748(4)
H39 H 0.42150 0.47250 0.17190
C46 C 0.5093(4) 0.5190(3) 0.1677(4)
H40 H 0.53920 0.49110 0.15990
C47 C 0.5356(4) 0.5681(3) 0.1716(4)
H41 H 0.58220 0.57380 0.16430
C48 C 0.4942(3) 0.6101(3) 0.1863(3)
C49 C 0.4216(3) 0.6007(3) 0.1950(3)
C50 C 0.5184(3) 0.6642(3) 0.1955(4)
C51 C 0.6176(4) 0.7240(4) 0.2069(7)
H42 H 0.60660 0.73440 0.26180
H43 H 0.59340 0.74860 0.16410
C52 C 0.6995(7) 0.7303(6) 0.2124(11)
H44 H 0.72450 0.76000 0.24510
C53 C 0.7358(11) 0.6685(9) 0.2254(16)
H45 H 0.69860 0.64250 0.21200
H46 H 0.76010 0.66400 0.28390
H47 H 0.76910 0.66400 0.18770
C54 C 0.7088(7) 0.7215(6) 0.1294(10)
H48 H 0.75860 0.72460 0.12710
H49 H 0.68200 0.74720 0.09170
H50 H 0.69240 0.68650 0.11170
C55 C 0.4757(3) 0.7016(3) 0.2162(3)
H51 H 0.49170 0.73640 0.22370
C56 C 0.4061(2) 0.6884(2) 0.2268(3)
C57 C 0.3619(3) 0.7312(2) 0.2540(3)
C58 C 0.2502(3) 0.7432(3) 0.3103(3)
C59 C 0.2467(3) 0.7970(3) 0.3067(3)
H52 H 0.28260 0.81610 0.28840
C60 C 0.1890(4) 0.8238(3) 0.3304(4)
H53 H 0.18740 0.86060 0.32780
C61 C 0.1352(4) 0.7971(4) 0.3573(4)
H54 H 0.09660 0.81540 0.37100
C62 C 0.1385(3) 0.7431(4) 0.3638(4)
C63 C 0.1976(3) 0.7138(3) 0.3438(3)
C64 C 0.0847(4) 0.7090(5) 0.3920(5)
C65 C -0.0276(5) 0.7052(5) 0.4339(8)
H55 H -0.02530 0.66950 0.41180
H56 H -0.01380 0.70310 0.49590
C66 C -0.0991(8) 0.7214(6) 0.4144(10)
H57 H -0.11590 0.72390 0.35210
C67 C -0.1570(8) 0.7095(8) 0.4569(11)
H58 H -0.19960 0.72680 0.42750
H59 H -0.16470 0.67190 0.45660
H60 H -0.14570 0.72190 0.51520
C68 C -0.0873(5) 0.7727(4) 0.4520(7)
H61 H -0.13190 0.79130 0.44520
H62 H -0.06700 0.76930 0.51200
H63 H -0.05510 0.79210 0.42390
C69 C 0.0956(4) 0.6591(4) 0.4047(5)
H64 H 0.06240 0.63860 0.42600
C70 C 0.1575(4) 0.6354(3) 0.3865(4)
C71 C 0.1660(5) 0.5764(4) 0.4059(5)
C72 C 0.2516(5) 0.5023(3) 0.4094(4)
C73 C 0.2053(5) 0.4635(4) 0.4204(5)
H65 H 0.15920 0.47100 0.42820
C74 C 0.2298(7) 0.4130(5) 0.4195(7)
H66 H 0.19970 0.38630 0.43170
C75 C 0.2928(6) 0.3978(3) 0.4028(5)
H67 H 0.30400 0.36230 0.39650
C76 C 0.3419(5) 0.4397(3) 0.3952(5)
C77 C 0.3232(5) 0.4925(3) 0.4016(4)
C78 C 0.4131(5) 0.4299(3) 0.3815(4)
C79 C 0.4598(4) 0.4714(3) 0.3824(4)
H68 H 0.50660 0.46590 0.37580
C80 C 0.4339(4) 0.5233(3) 0.3940(4)
C81 C 0.4821(4) 0.5709(3) 0.4002(4)
C82 C 0.5998(4) 0.5977(3) 0.3947(5)
H69 H 0.58510 0.62240 0.34860
H70 H 0.64520 0.58280 0.39010
H71 H 0.60390 0.61570 0.44870
N1 N 0.0948(2) 0.5554(2) -0.0708(3)
N2 N 0.2437(2) 0.54632(16) -0.0365(3)
N3 N 0.32207(19) 0.63381(16) -0.0056(2)
H72 H 0.28100 0.62750 0.00700
N4 N 0.23910(19) 0.70191(16) 0.0600(2)
N5 N 0.1360(2) 0.66091(19) 0.1340(3)
H73 H 0.17460 0.64640 0.12480
N6 N 0.1818(2) 0.5622(2) 0.1750(3)
N7 N 0.3211(3) 0.54494(19) 0.1886(3)
H74 H 0.29940 0.57470 0.19040
N8 N 0.3790(2) 0.64079(18) 0.2162(2)
N9 N 0.3043(2) 0.71317(19) 0.2848(3)
H75 H 0.30070 0.67940 0.28900
N10 N 0.2071(3) 0.6614(3) 0.3553(3)
N11 N 0.2313(4) 0.5560(3) 0.4020(3)
H76 H 0.26360 0.57820 0.39420
N12 N 0.3690(4) 0.5336(2) 0.4008(3)
O1 O 0.1069(2) 0.5732(2) -0.1388(3)
O2 O 0.0536(2) 0.57579(18) -0.0298(3)
O3 O 0.3381(2) 0.39948(15) 0.0214(3)
O4 O 0.4290(5) 0.3775(2) 0.3712(4)
O5 O 0.41736(17) 0.58997(14) -0.0438(2)
O6 O 0.2823(2) 0.86284(15) 0.0786(2)
O7 O 0.0792(2) 0.73996(18) 0.1219(3)
O8 O 0.0479(3) 0.4471(3) 0.2441(4)
O9 O 0.3024(3) 0.45543(16) 0.1900(3)
O10 O 0.5873(2) 0.6708(3) 0.1854(4)
O11 O 0.3770(2) 0.77752(16) 0.2488(2)
O12 O 0.0263(3) 0.7368(4) 0.4028(3)
O13 O 0.1174(4) 0.5509(3) 0.4246(3)
O14 O 0.5478(3) 0.55611(19) 0.3895(3)
O15 O 0.4672(2) 0.61475(19) 0.4147(3)
#END
