
#######################################################################
#
#                 Cambridge Crystallographic Data Centre
#                                CCDC
#
#######################################################################
#
# If this CIF has been generated from an entry in the Cambridge
# Structural Database, then it will include bibliographic, chemical,
# crystal, experimental, refinement or atomic coordinate data resulting
# from the CCDC's data processing and validation procedures.
#
#######################################################################

data_CSD_CIF_SEDJAP
_audit_creation_date 2017-07-03
_audit_creation_method CSD-ConQuest-V1
_database_code_CSD SEDJAP
_database_code_depnum_ccdc_archive 'CCDC 1508904'
_chemical_formula_sum 'C83 H78 N12 O15'
_chemical_formula_moiety
;
C83 H78 N12 O15
;
_journal_coden_Cambridge 1220
_journal_volume 23
_journal_year 2017
_journal_page_first 5361
_journal_name_full 'Chem.-Eur.J. '
loop_
_publ_author_name
"Lu Zheng"
"Chengyuan Yu"
"Yulin Zhan"
"Xuebin Deng"
"Ying Wang"
"Hua Jiang"
_chemical_name_systematic
;
methyl 
65,73,75,77-tetrakis(2-methylpropoxy)-37-nitro-3,13,23,33,62-pentaoxo-43,50-di
oxa-2,5,12,15,22,25,32,35,54,61,71-undecaazatridecacyclo[61.6.2.2^4,7^.2^14,17
^.2^24,27^.1^34,42^.0^6,11^.0^16,21^.0^26,31^.0^36,41^.0^51,56^.0^55,60^.0^66,
70^]octaheptaconta-1(69),4,6,8,10,14,16,18,20,24,26,28,30,34,36(41),37,39,42(7
2),46,51,53,55,57,59,63(71),64,66(70),67,73,75,77-hentriacontaene-53-carboxyla
te unknown solvate
;
_cell_volume   7821.974
_exptl_crystal_colour 'yellow'
_exptl_crystal_density_diffrn 1.26
_exptl_crystal_description 'block'
_diffrn_ambient_temperature 100
_refine_special_details
;
Disordered solvent molecules were not modelled and the disordered density was 
taken into account using the MASK/OLEX2 program.
;
#These two values have been output from a single CSD field.
_refine_ls_R_factor_gt 0.1022
_refine_ls_wR_factor_gt 0.1022
_symmetry_cell_setting monoclinic
_symmetry_space_group_name_H-M 'P 21/c'
_symmetry_Int_Tables_number 14
loop_
_symmetry_equiv_pos_site_id
_symmetry_equiv_pos_as_xyz
1 x,y,z
2 -x,1/2+y,1/2-z
3 -x,-y,-z
4 x,-1/2-y,-1/2+z
_cell_length_a 18.8063(3)
_cell_length_b 26.1809(5)
_cell_length_c 16.1355(3)
_cell_angle_alpha 90
_cell_angle_beta 100.0786(17)
_cell_angle_gamma 90
_cell_formula_units_Z 4
loop_
_atom_type_symbol
_atom_type_radius_bond
C 0.68
H 0.23
N 0.68
O 0.68
loop_
_atom_site_label
_atom_site_type_symbol
_atom_site_fract_x
_atom_site_fract_y
_atom_site_fract_z
O1 O 0.88439(18) 0.41102(13) 0.6036(3)
O2 O 0.94336(17) 0.42523(12) 0.5022(2)
O3 O 0.57295(13) 0.41328(10) 0.52473(17)
O4 O 0.70408(17) 0.15031(10) 0.39798(17)
O5 O 0.90860(18) 0.26765(17) 0.3414(3)
O6 O 0.9631(4) 0.5523(2) 0.2701(3)
O7 O 0.6998(3) 0.54778(12) 0.3273(2)
O8 O 0.40591(16) 0.34285(13) 0.3092(2)
O9 O 0.60982(16) 0.23822(10) 0.22779(18)
O10 O 0.9624(2) 0.25769(18) 0.0593(2)
O11 O 0.89101(17) 0.44650(15) 0.0622(2)
O12 O 0.45471(15) 0.42976(12) 0.09744(18)
O13 O 0.54022(17) 0.37740(12) 0.0657(2)
O14 O 0.56460(17) 0.60409(11) 0.12812(19)
O15 O 0.66734(15) 0.59994(10) 0.5240(2)
N1 N 0.90080(15) 0.43774(12) 0.5476(2)
N2 N 0.75062(15) 0.45245(11) 0.52212(16)
N3 N 0.66834(15) 0.37127(10) 0.48255(17)
H1 H 0.71060 0.37750 0.46830
N4 N 0.75027(16) 0.30573(12) 0.41346(17)
N5 N 0.85271(18) 0.34569(15) 0.3362(2)
H2 H 0.81200 0.36010 0.34350
N6 N 0.8141(2) 0.44244(14) 0.31356(19)
N7 N 0.6754(2) 0.46246(12) 0.30136(19)
H3 H 0.69640 0.43420 0.28850
N8 N 0.61472(17) 0.37059(11) 0.26711(16)
N9 N 0.68811(16) 0.29757(11) 0.19280(17)
H4 H 0.69530 0.33070 0.19030
N10 N 0.79166(16) 0.34259(12) 0.12106(18)
N11 N 0.77571(17) 0.44065(13) 0.0872(2)
H5 H 0.74210 0.41800 0.09200
N12 N 0.63692(17) 0.45806(13) 0.08928(17)
C1 C 0.86964(18) 0.48900(13) 0.5391(2)
C2 C 0.91507(19) 0.52936(14) 0.5403(3)
H6 H 0.96540 0.52410 0.54300
C3 C 0.8866(2) 0.57910(14) 0.5375(3)
H7 H 0.91790 0.60760 0.53770
C4 C 0.8143(2) 0.58674(14) 0.5346(3)
H8 H 0.79600 0.62060 0.53430
C5 C 0.76672(19) 0.54498(13) 0.5318(2)
C6 C 0.79346(17) 0.49438(12) 0.53243(19)
C7 C 0.69048(19) 0.55081(13) 0.5248(2)
C8 C 0.64754(18) 0.50812(13) 0.5193(2)
H9 H 0.59690 0.51100 0.51720
C9 C 0.68052(17) 0.45998(13) 0.51686(19)
C10 C 0.63443(18) 0.41247(13) 0.50788(19)
C11 C 0.64612(18) 0.32033(13) 0.47574(19)
C12 C 0.58525(19) 0.30191(14) 0.5041(2)
H10 H 0.55300 0.32480 0.52440
C13 C 0.5720(2) 0.24922(14) 0.5025(2)
H11 H 0.53080 0.23680 0.52290
C14 C 0.6161(2) 0.21513(14) 0.4728(2)
H12 H 0.60590 0.17960 0.47340
C15 C 0.67710(19) 0.23279(13) 0.44107(19)
C16 C 0.69303(18) 0.28581(13) 0.44255(19)
C17 C 0.7242(2) 0.19989(14) 0.4061(2)
C18 C 0.7418(3) 0.11747(16) 0.3481(3)
H13 H 0.78520 0.10290 0.38380
H14 H 0.75760 0.13750 0.30250
C19 C 0.6905(3) 0.07377(16) 0.3096(3)
H15 H 0.64390 0.08870 0.28020
C20 C 0.7270(5) 0.0464(2) 0.2465(4)
H16 H 0.72830 0.06870 0.19800
H17 H 0.70010 0.01520 0.22780
H18 H 0.77650 0.03740 0.27270
C21 C 0.6757(3) 0.03795(19) 0.3783(3)
H19 H 0.72040 0.02020 0.40270
H20 H 0.63920 0.01280 0.35440
H21 H 0.65800 0.05760 0.42220
C22 C 0.7848(2) 0.22004(15) 0.3819(2)
H22 H 0.81930 0.19850 0.36300
C23 C 0.7945(2) 0.27341(15) 0.3855(2)
C24 C 0.8589(2) 0.29468(18) 0.3529(3)
C25 C 0.9027(2) 0.3777(2) 0.3093(3)
C26 C 0.9684(3) 0.3626(3) 0.2893(3)
H23 H 0.98170 0.32760 0.29080
C27 C 1.0154(3) 0.4006(4) 0.2667(3)
H24 H 1.06010 0.39030 0.25220
C28 C 0.9993(4) 0.4503(4) 0.2652(4)
H25 H 1.03300 0.47450 0.25140
C29 C 0.9322(3) 0.4673(3) 0.2841(3)
C30 C 0.8820(3) 0.4304(2) 0.3027(2)
C31 C 0.9104(4) 0.5194(3) 0.2859(3)
C32 C 0.9454(5) 0.6061(3) 0.2705(6)
H26 H 0.95470 0.61610 0.33060
H27 H 0.89240 0.60770 0.25220
C33 C 0.9741(10) 0.6477(6) 0.2265(14)
H28 H 0.94330 0.64390 0.16970
C34 C 0.9687(8) 0.6996(4) 0.2372(8)
H29 H 0.92260 0.71180 0.20530
H30 H 1.00860 0.71680 0.21680
H31 H 0.97090 0.70730 0.29700
C35 C 1.0340(6) 0.6255(5) 0.2119(7)
H32 H 1.05080 0.60070 0.25660
H33 H 1.07130 0.65150 0.21090
H34 H 1.02430 0.60790 0.15750
C36 C 0.8428(4) 0.5317(2) 0.3005(3)
H35 H 0.82800 0.56620 0.30320
C37 C 0.7963(3) 0.49144(17) 0.3112(2)
C38 C 0.7185(3) 0.50388(16) 0.3145(2)
C39 C 0.6018(3) 0.45831(14) 0.3054(2)
C40 C 0.5593(3) 0.49846(17) 0.3217(2)
H36 H 0.57840 0.53210 0.32670
C41 C 0.4878(3) 0.48956(18) 0.3310(3)
H37 H 0.45900 0.51760 0.34270
C42 C 0.4580(3) 0.44175(19) 0.3238(3)
H38 H 0.40990 0.43650 0.33250
C43 C 0.4996(2) 0.40025(16) 0.3034(2)
C44 C 0.5727(2) 0.40823(14) 0.2920(2)
C45 C 0.4746(2) 0.34915(17) 0.2947(2)
C46 C 0.3765(3) 0.2925(2) 0.3008(4)
H39 H 0.40620 0.26900 0.34090
H40 H 0.37570 0.27960 0.24300
C47 C 0.3001(3) 0.2956(3) 0.3196(4)
H41 H 0.30240 0.30980 0.37760
C48 C 0.2530(4) 0.3299(4) 0.2581(7)
H42 H 0.26850 0.36550 0.26820
H43 H 0.20260 0.32650 0.26550
H44 H 0.25730 0.32020 0.20050
C49 C 0.2703(5) 0.2413(4) 0.3181(8)
H45 H 0.27600 0.22470 0.26530
H46 H 0.21900 0.24250 0.32230
H47 H 0.29680 0.22200 0.36570
C50 C 0.5172(2) 0.31147(15) 0.2698(2)
H48 H 0.50030 0.27730 0.26260
C51 C 0.58629(19) 0.32474(13) 0.25537(19)
C52 C 0.6294(2) 0.28257(13) 0.2245(2)
C53 C 0.7387(2) 0.26620(14) 0.1636(2)
C54 C 0.7374(2) 0.21336(15) 0.1666(2)
H49 H 0.69930 0.19630 0.18700
C55 C 0.7930(3) 0.18488(16) 0.1393(2)
H50 H 0.79120 0.14860 0.14110
C56 C 0.8483(2) 0.20729(17) 0.1111(2)
H51 H 0.88510 0.18690 0.09430
C57 C 0.8519(2) 0.26098(17) 0.1063(2)
C58 C 0.79502(19) 0.29076(14) 0.12972(19)
C59 C 0.9075(2) 0.2875(2) 0.0759(3)
C60 C 1.0216(3) 0.2822(3) 0.0295(4)
H52 H 1.04880 0.30500 0.07280
H53 H 1.00490 0.30200 -0.02260
C61 C 1.0724(5) 0.2302(5) 0.0106(6)
H54 H 1.05340 0.20830 -0.03910
C62 C 1.0979(8) 0.2057(6) 0.0875(11)
H55 H 1.11320 0.23140 0.13110
H56 H 1.13900 0.18380 0.08150
H57 H 1.05930 0.18470 0.10340
C63 C 0.9041(2) 0.3393(2) 0.0672(2)
H58 H 0.94070 0.35770 0.04640
C64 C 0.8446(2) 0.36446(17) 0.0900(2)
C65 C 0.8401(2) 0.42148(17) 0.0786(2)
C66 C 0.7548(2) 0.49160(16) 0.0896(2)
C67 C 0.8004(2) 0.53260(18) 0.0891(3)
H59 H 0.84920 0.52710 0.08310
C68 C 0.7751(3) 0.58269(18) 0.0973(3)
H60 H 0.80680 0.61080 0.09530
C69 C 0.7059(2) 0.59145(17) 0.1080(3)
H61 H 0.69030 0.62520 0.11710
C70 C 0.6575(2) 0.55001(16) 0.1055(2)
C71 C 0.6800(2) 0.49939(15) 0.0943(2)
C72 C 0.5836(2) 0.55591(15) 0.1135(2)
C73 C 0.5390(2) 0.51379(16) 0.1061(2)
H62 H 0.48930 0.51720 0.10910
C74 C 0.5683(2) 0.46603(16) 0.0940(2)
C75 C 0.5217(2) 0.41866(16) 0.0835(2)
C76 C 0.4047(2) 0.3879(2) 0.0881(3)
H63 H 0.40330 0.37190 0.03300
H64 H 0.35650 0.40050 0.09260
H65 H 0.42020 0.36270 0.13250
C77 C 0.4958(2) 0.61230(17) 0.1553(3)
H66 H 0.48640 0.58490 0.19420
H67 H 0.45590 0.61270 0.10630
C78 C 0.5020(3) 0.66293(18) 0.1990(3)
H68 H 0.51400 0.68960 0.16010
H69 H 0.45510 0.67190 0.21500
C79 C 0.5591(3) 0.66149(18) 0.2757(3)
H70 H 0.60740 0.65550 0.26820
C80 C 0.5475(3) 0.66790(19) 0.3529(3)
H71 H 0.50030 0.67730 0.36070
C81 C 0.6045(3) 0.6613(2) 0.4293(3)
H72 H 0.60250 0.69060 0.46750
H73 H 0.65250 0.66170 0.41190
C82 C 0.5971(2) 0.61193(15) 0.4775(3)
H74 H 0.56220 0.61660 0.51630
H75 H 0.57960 0.58390 0.43780
C83 C 1.1458(6) 0.2760(6) 0.0002(9)
H76 H 1.13250 0.29560 -0.05200
H77 H 1.19060 0.25720 -0.00120
H78 H 1.15300 0.29950 0.04830
#END
