
#######################################################################
#
#                 Cambridge Crystallographic Data Centre
#                                CCDC
#
#######################################################################
#
# If this CIF has been generated from an entry in the Cambridge
# Structural Database, then it will include bibliographic, chemical,
# crystal, experimental, refinement or atomic coordinate data resulting
# from the CCDC's data processing and validation procedures.
#
#######################################################################

data_CSD_CIF_SEDMIZ
_audit_creation_date 2012-12-11
_audit_creation_method CSD-ConQuest-V1
_database_code_CSD SEDMIZ
_database_code_depnum_ccdc_archive 'CCDC 796542'
_chemical_formula_sum 'C19 H15 N3 O2'
_chemical_formula_moiety
;
C19 H15 N3 O2
;
_journal_coeditor_code "IUCr BT6850"
_journal_coden_Cambridge 1370
_journal_volume 68
_journal_year 2012
_journal_page_first o3238
_journal_name_full 'Acta Crystallogr.,Sect.E:Struct.Rep.Online '
loop_
_publ_author_name
"A.Mendoza"
"R.Melendrez-Luevano"
"B.M.Cabrera-Vivas"
"C.Acoltzi-X"
"M.Flores-Alamo"
_chemical_name_systematic
;
(E)-1-(4-Nitrobenzylidene)-2,2-diphenylhydrazine
;
_cell_volume   1631.472
_exptl_crystal_colour 'yellow'
_exptl_crystal_density_diffrn 1.292
_exptl_crystal_description 'prism'
_diffrn_ambient_temperature 298
#These two values have been output from a single CSD field.
_refine_ls_R_factor_gt 0.0383
_refine_ls_wR_factor_gt 0.0383
_symmetry_cell_setting triclinic
_symmetry_space_group_name_H-M 'P -1'
_symmetry_Int_Tables_number 2
loop_
_symmetry_equiv_pos_site_id
_symmetry_equiv_pos_as_xyz
1 x,y,z
2 -x,-y,-z
_cell_length_a 10.8648(6)
_cell_length_b 11.1477(6)
_cell_length_c 16.2075(7)
_cell_angle_alpha 72.084(4)
_cell_angle_beta 89.037(4)
_cell_angle_gamma 62.084(6)
_cell_formula_units_Z 4
loop_
_atom_type_symbol
_atom_type_radius_bond
C 0.68
H 0.23
N 0.68
O 0.68
loop_
_atom_site_label
_atom_site_type_symbol
_atom_site_fract_x
_atom_site_fract_y
_atom_site_fract_z
N1 N 0.37912(13) 0.62485(13) 0.71748(7)
N2 N 0.48398(13) 0.55837(13) 0.78710(7)
N3 N 0.10818(12) 0.73321(14) 0.28854(8)
N4 N 0.00738(13) 0.84107(14) 0.22028(8)
N5 N -0.13482(15) 0.81987(18) 0.42567(8)
C1 C 0.14313(15) 0.60094(17) 0.30146(9)
H1 H 0.09810 0.57850 0.26510
C2 C 0.20067(15) 0.62924(15) 0.63192(8)
C3 C 0.25354(14) 0.48631(16) 0.37320(9)
C4 C 0.31425(15) 0.56008(16) 0.70491(9)
H2 H 0.34000 0.46760 0.74290
C5 C 0.53186(15) 0.41316(15) 0.84431(9)
C6 C -0.01820(15) 0.75367(16) 0.49692(9)
C7 C 0.12647(16) 0.55958(17) 0.62402(9)
H3 H 0.15130 0.46940 0.66500
O1 O -0.18158(13) 0.74572(15) 0.41247(7)
C8 C 0.54160(15) 0.64120(16) 0.80149(8)
C9 C 0.16313(16) 0.76359(16) 0.56908(9)
H4 H 0.21230 0.81150 0.57290
C10 C 0.05410(16) 0.82557(16) 0.50160(9)
H5 H 0.02950 0.91490 0.45970
C11 C -0.06809(15) 0.81009(15) 0.16531(9)
C12 C 0.30787(16) 0.34361(17) 0.37839(9)
H6 H 0.27160 0.32220 0.33670
C13 C 0.30811(15) 0.51500(17) 0.43730(9)
H7 H 0.27420 0.61000 0.43440
C14 C 0.47117(17) 0.79007(16) 0.76366(9)
H8 H 0.38200 0.83720 0.73090
C15 C 0.46458(16) 0.26540(17) 0.5065(1)
C16 C -0.01841(15) 0.98197(17) 0.20603(10)
C17 C 0.67299(16) 0.57297(17) 0.85254(9)
H9 H 0.72030 0.47330 0.87980
O2 O -0.17919(15) 0.94622(16) 0.38125(9)
N6 N 0.57624(17) 0.14956(19) 0.57804(11)
C18 C 0.01649(16) 0.62102(18) 0.55673(9)
H10 H -0.03290 0.57350 0.55210
C19 C 0.41121(16) 0.40499(18) 0.50469(10)
H11 H 0.44450 0.42470 0.54860
C20 C 0.49956(15) 0.38849(17) 0.92809(9)
H12 H 0.44570 0.46570 0.94720
C21 C 0.05885(17) 1.00997(19) 0.25729(10)
H13 H 0.12970 0.93430 0.30210
C22 C 0.73250(18) 0.6538(2) 0.86244(11)
H14 H 0.82070 0.60770 0.89620
C23 C 0.41473(17) 0.23299(17) 0.44433(10)
H15 H 0.45220 0.13790 0.44640
C24 C 0.53307(19) 0.86828(18) 0.77451(10)
H16 H 0.48580 0.96820 0.74840
C25 C 0.60992(16) 0.29899(18) 0.81561(10)
H17 H 0.63090 0.31550 0.75870
C26 C 0.65662(17) 0.16031(18) 0.87176(12)
H18 H 0.70960 0.08270 0.85280
C27 C -0.25571(18) 0.76574(19) 0.13928(11)
H19 H -0.33630 0.76090 0.15540
C28 C 0.54716(17) 0.2492(2) 0.98368(10)
H20 H 0.52590 0.23240 1.04060
C29 C -0.18622(17) 0.80211(17) 0.18977(10)
H21 H -0.21950 0.82110 0.24010
C30 C -0.01978(17) 0.78373(18) 0.09056(10)
H22 H 0.05930 0.79090 0.07330
O3 O 0.60017(18) 0.17750(16) 0.64075(10)
C31 C -0.1473(2) 1.2352(2) 0.12438(13)
H23 H -0.21680 1.31140 0.07910
C32 C -0.12189(17) 1.09637(18) 0.13879(11)
H24 H -0.17430 1.07960 0.10340
C33 C 0.62518(18) 0.13607(19) 0.95579(12)
H25 H 0.65730 0.04210 0.99370
C34 C 0.6644(2) 0.8003(2) 0.82365(12)
H26 H 0.70610 0.85370 0.83030
C35 C 0.0311(2) 1.1497(2) 0.24218(13)
H27 H 0.08250 1.16750 0.27750
O4 O 0.64046(17) 0.02998(17) 0.57238(10)
C36 C -0.0895(2) 0.7465(2) 0.04114(11)
H28 H -0.05680 0.72790 -0.00930
C37 C -0.0716(2) 1.2626(2) 0.17568(14)
H29 H -0.08950 1.35650 0.16560
C38 C -0.2058(2) 0.73704(19) 0.06594(12)
H30 H -0.25160 0.71080 0.03270
#END
