
#######################################################################
#
#                 Cambridge Crystallographic Data Centre
#                                CCDC
#
#######################################################################
#
# If this CIF has been generated from an entry in the Cambridge
# Structural Database, then it will include bibliographic, chemical,
# crystal, experimental, refinement or atomic coordinate data resulting
# from the CCDC's data processing and validation procedures.
#
#######################################################################

data_CSD_CIF_SEDPEZ
_audit_creation_date 2017-07-03
_audit_creation_method CSD-ConQuest-V1
_database_code_CSD SEDPEZ
_database_code_depnum_ccdc_archive 'CCDC 1547795'
_chemical_formula_sum 'C34 H31 N4 O3'
_chemical_formula_moiety
;
C34 H31 N4 O3
;
_journal_coden_Cambridge 440
_journal_volume 41
_journal_year 2017
_journal_page_first 7472
_journal_name_full 'New J.Chem. '
loop_
_publ_author_name
"A.G.Coman"
"C.C.Paraschivescu"
"Anca Paun"
"Andreea Diac"
"N.D.Hadade"
"L.Jouffret"
"A.Gautier"
"M.Matache"
"P.Ionita"
_chemical_name_systematic
;
N-(1-hydroxy-2,2,6,6-tetramethylpiperidin-4-yl)-4-[5-(pyren-1-yl)-1,3,4-oxadia
zol-2-yl]benzamide
;
_cell_volume   1362.251
_exptl_crystal_colour 'yellow'
_exptl_crystal_density_diffrn 1.325
_exptl_crystal_description 'platelet'
_diffrn_ambient_temperature 100
#These two values have been output from a single CSD field.
_refine_ls_R_factor_gt 0.0437
_refine_ls_wR_factor_gt 0.0437
_symmetry_cell_setting triclinic
_symmetry_space_group_name_H-M 'P -1'
_symmetry_Int_Tables_number 2
loop_
_symmetry_equiv_pos_site_id
_symmetry_equiv_pos_as_xyz
1 x,y,z
2 -x,-y,-z
_cell_length_a 7.990(3)
_cell_length_b 12.475(4)
_cell_length_c 14.539(5)
_cell_angle_alpha 94.821(10)
_cell_angle_beta 94.404(9)
_cell_angle_gamma 108.372(9)
_cell_formula_units_Z 2
loop_
_atom_type_symbol
_atom_type_radius_bond
C 0.68
H 0.23
N 0.68
O 0.68
loop_
_atom_site_label
_atom_site_type_symbol
_atom_site_fract_x
_atom_site_fract_y
_atom_site_fract_z
O1 O 0.46259(15) 0.1415(1) 0.43989(8)
O2 O 1.61414(17) 0.90732(11) 0.06346(9)
O3 O 0.9301(2) 0.45620(15) 0.11314(10)
N1 N 0.48707(19) 0.17335(13) 0.59234(10)
N2 N 0.61530(19) 0.26260(13) 0.55893(11)
N3 N 1.1230(2) 0.57881(13) 0.22257(11)
H1 H 1.15570 0.59630 0.28110
N4 N 1.50282(19) 0.83257(12) 0.10391(10)
C1 C 0.4003(2) 0.10455(15) 0.52031(12)
C2 C 0.5955(2) 0.23997(14) 0.46969(13)
C3 C 0.2173(2) -0.00072(16) 0.68056(13)
H2 H 0.31360 0.06560 0.69440
C4 C 0.9067(2) 0.47152(16) 0.36077(13)
H3 H 0.98730 0.54380 0.37900
C5 C 0.9801(3) 0.48798(16) 0.19464(13)
C6 C -0.2994(3) -0.35451(17) 0.69704(15)
H4 H -0.39320 -0.42250 0.68550
C7 C 0.7596(2) 0.31943(16) 0.24290(13)
H5 H 0.74040 0.28840 0.18100
C8 C 1.4153(2) 0.64725(16) 0.16693(14)
H6 H 1.41330 0.56920 0.15430
H7 H 1.46860 0.67450 0.23030
C9 C -0.2752(2) -0.35175(16) 0.52852(15)
H8 H -0.37190 -0.41810 0.51550
C10 C -0.1937(2) -0.30292(16) 0.45809(14)
H9 H -0.23640 -0.33520 0.39740
C11 C 0.8123(2) 0.41099(16) 0.42570(13)
H10 H 0.82960 0.44270 0.48730
C12 C 1.2227(3) 0.83079(17) 0.01771(13)
H11 H 1.11860 0.85270 0.02290
H12 H 1.18830 0.75170 -0.00540
H13 H 1.29450 0.87530 -0.02430
C13 C 1.2260(2) 0.64957(15) 0.15855(13)
H14 H 1.17100 0.62090 0.09490
C14 C -0.0424(2) -0.20235(14) 0.47460(13)
C15 C 1.3286(2) 0.85089(15) 0.11302(12)
C16 C 0.0467(2) -0.15257(15) 0.40231(13)
H15 H 0.00880 -0.18600 0.34150
C17 C -0.0171(2) -0.15148(16) 0.73382(13)
C18 C 0.6645(2) 0.25849(15) 0.30771(13)
H16 H 0.58180 0.18700 0.28930
C19 C 0.2508(2) -0.00149(14) 0.50990(12)
C20 C 0.1897(2) -0.05468(15) 0.42001(13)
H17 H 0.24730 -0.02310 0.37070
C21 C 0.1655(2) -0.04926(14) 0.58555(12)
C22 C -0.0720(2) -0.20186(15) 0.64150(13)
C23 C 1.2299(2) 0.77099(16) 0.17942(12)
H18 H 1.28580 0.79920 0.24220
H19 H 1.10890 0.77230 0.17690
C24 C -0.2175(2) -0.30448(15) 0.62277(14)
C25 C 0.6922(2) 0.30361(14) 0.39993(12)
C26 C 0.0179(2) -0.15089(14) 0.56701(12)
C27 C 0.8829(2) 0.42608(15) 0.26890(13)
C28 C -0.1051(3) -0.20387(17) 0.80561(14)
H20 H -0.07000 -0.17020 0.86660
C29 C 1.5305(2) 0.71928(15) 0.10098(14)
C30 C 0.1301(3) -0.04876(17) 0.75036(13)
H21 H 0.16680 -0.01400 0.81090
C31 C 1.3669(3) 0.97383(16) 0.15365(14)
H22 H 1.25780 0.98600 0.16650
H23 H 1.42180 1.02370 0.10990
H24 H 1.44520 0.98920 0.21010
C32 C -0.2436(3) -0.30503(18) 0.78718(16)
H25 H -0.29950 -0.33990 0.83580
C33 C 1.4876(3) 0.66277(18) 0.00101(14)
H26 H 1.53200 0.59970 -0.00490
H27 H 1.54240 0.71690 -0.03980
H28 H 1.36140 0.63620 -0.01510
C34 C 1.7250(3) 0.73956(19) 0.13339(17)
H29 H 1.74560 0.66780 0.13410
H30 H 1.75370 0.77970 0.19480
H31 H 1.79810 0.78390 0.09170
#END
