
#######################################################################
#
#                 Cambridge Crystallographic Data Centre
#                                CCDC
#
#######################################################################
#
# If this CIF has been generated from an entry in the Cambridge
# Structural Database, then it will include bibliographic, chemical,
# crystal, experimental, refinement or atomic coordinate data resulting
# from the CCDC's data processing and validation procedures.
#
#######################################################################

data_CSD_CIF_SEDTUQ12
_audit_creation_date 2018-06-28
_audit_creation_method CSD-ConQuest-V1
_database_code_CSD SEDTUQ12
_database_code_depnum_ccdc_archive 'CCDC 1585598'
_chemical_formula_sum 'C2 H4 N4 O4'
_chemical_formula_moiety
;
C2 H4 N4 O4
;
_journal_coden_Cambridge 119
_journal_volume 1173
_journal_year 2018
_journal_page_first 26
_journal_name_full 'J.Mol.Struct. '
loop_
_publ_author_name
"Keyao Li"
"Xiangwen Ren"
"Shuqin Fu"
"Jiaping Zhu"
_chemical_name_systematic
;
dinitroethene-1,1-diamine
;
_chemical_name_common
;
FOX-7
;
_cell_volume    510.176
_exptl_crystal_colour 'colorless'
_exptl_crystal_density_diffrn 1.928
_exptl_crystal_description 'block'
_diffrn_ambient_temperature 153.2
#These two values have been output from a single CSD field.
_refine_ls_R_factor_gt 0.0392
_refine_ls_wR_factor_gt 0.0392
_symmetry_cell_setting monoclinic
_symmetry_space_group_name_H-M 'P 21/n'
_symmetry_Int_Tables_number 14
loop_
_symmetry_equiv_pos_site_id
_symmetry_equiv_pos_as_xyz
1 x,y,z
2 1/2-x,1/2+y,1/2-z
3 -x,-y,-z
4 -1/2+x,-1/2-y,-1/2+z
_cell_length_a 6.9295(14)
_cell_length_b 6.5301(13)
_cell_length_c 11.275(2)
_cell_angle_alpha 90
_cell_angle_beta 90.53(3)
_cell_angle_gamma 90
_cell_formula_units_Z 4
loop_
_atom_type_symbol
_atom_type_radius_bond
C 0.68
H 0.23
N 0.68
O 0.68
loop_
_atom_site_label
_atom_site_type_symbol
_atom_site_fract_x
_atom_site_fract_y
_atom_site_fract_z
O1 O 0.41930(16) 0.20010(19) 0.91903(10)
O2 O 0.47742(16) 0.05653(18) 0.74944(10)
O3 O 0.80442(17) 0.16512(19) 0.66322(9)
O4 O 1.02007(15) 0.05593(18) 0.78731(9)
N1 N 1.00385(19) 0.2540(2) 0.98972(11)
H1 H 1.08400 0.21590 0.93750
H2 H 1.04010 0.31300 1.05330
N2 N 0.7015(2) 0.3004(2) 1.06136(11)
H3 H 0.75430 0.34550 1.12450
H4 H 0.58200 0.30080 1.04370
N3 N 0.53539(18) 0.1429(2) 0.84179(11)
N4 N 0.85716(18) 0.1257(2) 0.76598(11)
C1 C 0.8141(2) 0.2403(2) 0.97465(13)
C2 C 0.7334(2) 0.1680(2) 0.86308(12)
#END
