
#######################################################################
#
#                 Cambridge Crystallographic Data Centre
#                                CCDC
#
#######################################################################
#
# If this CIF has been generated from an entry in the Cambridge
# Structural Database, then it will include bibliographic, chemical,
# crystal, experimental, refinement or atomic coordinate data resulting
# from the CCDC's data processing and validation procedures.
#
#######################################################################

data_CSD_CIF_SEDTUQ02
_audit_creation_date 2007-04-27
_audit_creation_method CSD-ConQuest-V1
_database_code_CSD SEDTUQ02
_database_code_depnum_ccdc_archive 'CCDC 616837'
_chemical_formula_sum 'C2 H4 N4 O4'
_chemical_formula_moiety
;
C2 H4 N4 O4
;
_journal_coden_Cambridge 9
_journal_volume 45
_journal_year 2006
_journal_page_first 4996
_journal_name_full 'Inorg.Chem. '
loop_
_publ_author_name
"J.Evers"
"T.M.Klapotke"
"P.Mayer"
"G.Oehlinger"
"J.Welch"
_chemical_name_systematic
;
1,1-Diamino-2,2-dinitroethylene
;
_chemical_name_common
;
FOX-7
;
_cell_volume    511.193
_exptl_crystal_colour 'yellow'
_exptl_crystal_density_diffrn 1.924
_exptl_special_details
;
explosive
alpha polymorph
phase transitions at 389 K and 446 K

;
_exptl_crystal_description 'block'
_diffrn_ambient_temperature 200
_diffrn_special_details
;
twin

;
#These two values have been output from a single CSD field.
_refine_ls_R_factor_gt 0.0361
_refine_ls_wR_factor_gt 0.0361
_symmetry_cell_setting monoclinic
_symmetry_space_group_name_H-M 'P 21/n'
_symmetry_Int_Tables_number 14
loop_
_symmetry_equiv_pos_site_id
_symmetry_equiv_pos_as_xyz
1 x,y,z
2 1/2-x,1/2+y,1/2-z
3 -x,-y,-z
4 -1/2+x,-1/2-y,-1/2+z
_cell_length_a 6.9209(7)
_cell_length_b 6.5515(9)
_cell_length_c 11.2741(14)
_cell_angle_alpha 90
_cell_angle_beta 90.060(14)
_cell_angle_gamma 90
_cell_formula_units_Z 4
loop_
_atom_type_symbol
_atom_type_radius_bond
C 0.68
H 0.23
N 0.68
O 0.68
loop_
_atom_site_label
_atom_site_type_symbol
_atom_site_fract_x
_atom_site_fract_y
_atom_site_fract_z
O1 O 0.0228(2) 0.05808(18) 0.75066(10)
O2 O 0.0811(2) 0.2005(2) 0.58111(11)
O3 O -0.5194(2) 0.05748(18) 0.71268(9)
O4 O -0.3037(2) 0.16566(19) 0.83645(11)
N1 N -0.0358(2) 0.14420(18) 0.65806(12)
N2 N -0.3570(2) 0.12732(17) 0.73397(12)
N3 N -0.2015(3) 0.3002(2) 0.43882(12)
H1 H -0.254(5) 0.344(3) 0.367(3)
H2 H -0.058(6) 0.304(4) 0.459(3)
N4 N -0.5027(2) 0.25428(18) 0.51024(12)
H3 H -0.550(5) 0.297(4) 0.442(3)
H4 H -0.587(4) 0.206(3) 0.562(2)
C1 C -0.2323(2) 0.1685(2) 0.63730(13)
C2 C -0.3140(3) 0.2406(2) 0.52542(12)
#END
