
#######################################################################
#
#                 Cambridge Crystallographic Data Centre
#                                CCDC
#
#######################################################################
#
# If this CIF has been generated from an entry in the Cambridge
# Structural Database, then it will include bibliographic, chemical,
# crystal, experimental, refinement or atomic coordinate data resulting
# from the CCDC's data processing and validation procedures.
#
#######################################################################

data_CSD_CIF_SEDTUQ06
_audit_creation_date 2007-04-27
_audit_creation_method CSD-ConQuest-V1
_database_code_CSD SEDTUQ06
_database_code_depnum_ccdc_archive 'CCDC 616841'
_chemical_formula_sum 'C2 H4 N4 O4'
_chemical_formula_moiety
;
C2 H4 N4 O4
;
_journal_coden_Cambridge 9
_journal_volume 45
_journal_year 2006
_journal_page_first 4996
_journal_name_full 'Inorg.Chem. '
loop_
_publ_author_name
"J.Evers"
"T.M.Klapotke"
"P.Mayer"
"G.Oehlinger"
"J.Welch"
_chemical_name_systematic
;
1,1-Diamino-2,2-dinitroethylene
;
_chemical_name_common
;
FOX-7
;
_cell_volume    538.943
_exptl_crystal_colour 'yellow'
_exptl_crystal_density_diffrn 1.825
_exptl_special_details
;
explosive
beta polymorph
phase transitions at 389 K and 446 K

;
_exptl_crystal_description 'block'
_diffrn_ambient_temperature 393
#These two values have been output from a single CSD field.
_refine_ls_R_factor_gt 0.0359
_refine_ls_wR_factor_gt 0.0359
_symmetry_cell_setting orthorhombic
_symmetry_space_group_name_H-M 'P 21 21 21'
_symmetry_Int_Tables_number 19
loop_
_symmetry_equiv_pos_site_id
_symmetry_equiv_pos_as_xyz
1 x,y,z
2 1/2-x,-y,1/2+z
3 1/2+x,1/2-y,-z
4 -x,1/2+y,1/2-z
_cell_length_a 6.9738(7)
_cell_length_b 6.635(1)
_cell_length_c 11.6475(16)
_cell_angle_alpha 90
_cell_angle_beta 90
_cell_angle_gamma 90
_cell_formula_units_Z 4
loop_
_atom_type_symbol
_atom_type_radius_bond
C 0.68
H 0.23
N 0.68
O 0.68
loop_
_atom_site_label
_atom_site_type_symbol
_atom_site_fract_x
_atom_site_fract_y
_atom_site_fract_z
O1 O 0.8084(2) 0.3179(3) 0.71229(13)
O2 O 0.8285(2) 0.5064(3) 0.56336(14)
O3 O 0.2609(2) 0.3628(3) 0.73342(12)
O4 O 0.5176(2) 0.4235(3) 0.8282(1)
N1 N 0.7333(2) 0.4206(3) 0.63770(11)
N2 N 0.4342(2) 0.4049(2) 0.73534(12)
N3 N 0.5277(3) 0.5332(3) 0.43372(14)
H1 H 0.479(4) 0.559(4) 0.374(3)
H2 H 0.642(4) 0.548(3) 0.4379(18)
N4 N 0.2454(3) 0.4892(3) 0.52365(18)
H3 H 0.193(4) 0.527(4) 0.467(2)
H4 H 0.180(4) 0.459(4) 0.584(3)
C1 C 0.5326(3) 0.4369(3) 0.63252(12)
C2 C 0.4329(2) 0.4881(3) 0.52753(14)
#END
