
#######################################################################
#
#                 Cambridge Crystallographic Data Centre
#                                CCDC
#
#######################################################################
#
# If this CIF has been generated from an entry in the Cambridge
# Structural Database, then it will include bibliographic, chemical,
# crystal, experimental, refinement or atomic coordinate data resulting
# from the CCDC's data processing and validation procedures.
#
#######################################################################

data_CSD_CIF_SEDTUQ09
_audit_creation_date 2008-03-24
_audit_creation_method CSD-ConQuest-V1
_database_code_CSD SEDTUQ09
_database_code_depnum_ccdc_archive 'CCDC 679945'
_chemical_formula_sum 'C2 H4 N4 O4'
_chemical_formula_moiety
;
C2 H4 N4 O4
;
_journal_coeditor_code "IUCr BS5048"
_journal_coden_Cambridge 622
_journal_volume 64
_journal_year 2008
_journal_page_first 42
_journal_name_full 'Acta Crystallogr.,Sect.B:Struct.Sci. '
loop_
_publ_author_name
"A.Meents"
"B.Dittrich"
"S.K.J.Johnas"
"V.Thome"
"E.Weckert"
_chemical_name_systematic
;
1,1-Diamino-2,2-dinitroethylene
;
_chemical_name_common
;
FOX-7
;
_cell_volume    506.771
_exptl_crystal_colour 'yellow'
_exptl_crystal_density_diffrn 1.941
_exptl_special_details
;
explosive
alpha polymorph

;
_exptl_crystal_description 'prismatic'
_exptl_crystal_preparation 'acetone'
_diffrn_ambient_temperature 100
_diffrn_radiation_probe x-ray
_diffrn_source synchrotron
_refine_special_details
;
Refinement using a pseudoatom scattering model and the Hansen and Coppens 
multipole formalism.
;
#These two values have been output from a single CSD field.
_refine_ls_R_factor_gt 0.021
_refine_ls_wR_factor_gt 0.021
loop_
_citation_database_id_CSD
_citation_special_details
SEDTUQ11 "is a reinterpretation of this cif"
_symmetry_cell_setting monoclinic
_symmetry_space_group_name_H-M 'P 21/n'
_symmetry_Int_Tables_number 14
loop_
_symmetry_equiv_pos_site_id
_symmetry_equiv_pos_as_xyz
1 x,y,z
2 1/2-x,1/2+y,1/2-z
3 -x,-y,-z
4 -1/2+x,-1/2-y,-1/2+z
_cell_length_a 6.922(1)
_cell_length_b 6.501(1)
_cell_length_c 11.262(1)
_cell_angle_alpha 90
_cell_angle_beta 90.485(1)
_cell_angle_gamma 90
_cell_formula_units_Z 4
loop_
_atom_type_symbol
_atom_type_radius_bond
C 0.68
H 0.23
N 0.68
O 0.68
loop_
_atom_site_label
_atom_site_type_symbol
_atom_site_fract_x
_atom_site_fract_y
_atom_site_fract_z
O1 O 0.19465(3) 0.33585(3) 0.33706(1)
O2 O -0.02049(2) 0.44648(3) 0.21286(1)
O3 O 0.58078(2) 0.30104(3) 0.08100(1)
O4 O 0.52188(2) 0.44511(3) 0.25078(1)
N1 N 0.14219(2) 0.37539(2) 0.23430(1)
N2 N 0.46434(2) 0.35837(3) 0.15833(1)
N3 N -0.00504(3) 0.24524(3) 0.01010(1)
N4 N 0.29804(3) 0.19871(3) -0.06182(1)
C1 C 0.26649(2) 0.33329(3) 0.13721(1)
C2 C 0.18528(3) 0.25991(3) 0.02559(1)
H1 H -0.05872 0.20059 -0.06910
H2 H -0.09554 0.30160 0.07155
H3 H 0.23363 0.15195 -0.13755
H4 H 0.44262 0.20052 -0.05163
#END
