
#######################################################################
#
#                 Cambridge Crystallographic Data Centre
#                                CCDC
#
#######################################################################
#
# If this CIF has been generated from an entry in the Cambridge
# Structural Database, then it will include bibliographic, chemical,
# crystal, experimental, refinement or atomic coordinate data resulting
# from the CCDC's data processing and validation procedures.
#
#######################################################################

data_CSD_CIF_SEDTUQ
_audit_creation_date 1999-01-22
_audit_creation_method CSD-ConQuest-V1
_database_code_CSD SEDTUQ
_database_code_depnum_ccdc_archive 'CCDC 130779'
_chemical_formula_sum 'C2 H4 N4 O4'
_chemical_formula_moiety
;
C2 H4 N4 O4
;
_journal_coeditor_code "IUCr OS1020"
_journal_coden_Cambridge 591
_journal_volume 54
_journal_year 1998
_journal_page_first 1997
_journal_name_full 'Acta Crystallogr.,Sect.C:Cryst.Struct.Commun. '
loop_
_publ_author_name
"U.Bemm"
"H.Ostmark"
_chemical_name_systematic
;
1,1-Diamino-2,2-dinitroethylene
;
_chemical_name_common
;
FOX-7
;
_chemical_melting_point 493.15
_cell_volume    515.889
_exptl_crystal_colour 'yellow'
_exptl_crystal_density_diffrn 1.907
_exptl_special_details
;
explosive
alpha polymorph

;
_exptl_crystal_description 'prismatic'
_exptl_crystal_preparation 'DMF'
_diffrn_ambient_temperature 173
#These two values have been output from a single CSD field.
_refine_ls_R_factor_gt 0.0312
_refine_ls_wR_factor_gt 0.0312
_symmetry_cell_setting monoclinic
_symmetry_space_group_name_H-M 'P 21/n'
_symmetry_Int_Tables_number 14
loop_
_symmetry_equiv_pos_site_id
_symmetry_equiv_pos_as_xyz
1 x,y,z
2 1/2-x,1/2+y,1/2-z
3 -x,-y,-z
4 -1/2+x,-1/2-y,-1/2+z
_cell_length_a 6.941(1)
_cell_length_b 6.569(1)
_cell_length_c 11.315(2)
_cell_angle_alpha 90
_cell_angle_beta 90.55(2)
_cell_angle_gamma 90
_cell_formula_units_Z 4
loop_
_atom_type_symbol
_atom_type_radius_bond
C 0.68
H 0.23
N 0.68
O 0.68
loop_
_atom_site_label
_atom_site_type_symbol
_atom_site_fract_x
_atom_site_fract_y
_atom_site_fract_z
C1 C -0.2323(2) 0.1689(3) 0.63691(14)
C2 C -0.3136(2) 0.2407(2) 0.52539(14)
N1 N -0.0349(2) 0.1441(2) 0.65814(12)
N2 N -0.3564(2) 0.1271(2) 0.73375(12)
O1 O 0.02294(18) 0.0578(2) 0.75058(10)
O2 O 0.08126(18) 0.2009(2) 0.58124(11)
O3 O -0.51939(18) 0.0574(2) 0.71261(10)
O4 O -0.30366(18) 0.1658(2) 0.83655(10)
N3 N -0.2009(2) 0.3004(3) 0.43881(13)
H1 H -0.250(3) 0.343(3) 0.371(2)
H2 H -0.076(4) 0.299(3) 0.447(2)
N4 N -0.5027(2) 0.2544(2) 0.51002(14)
H3 H -0.547(3) 0.299(4) 0.446(2)
H4 H -0.580(3) 0.205(3) 0.559(2)
#END
