
#######################################################################
#
#                 Cambridge Crystallographic Data Centre
#                                CCDC
#
#######################################################################
#
# If this CIF has been generated from an entry in the Cambridge
# Structural Database, then it will include bibliographic, chemical,
# crystal, experimental, refinement or atomic coordinate data resulting
# from the CCDC's data processing and validation procedures.
#
#######################################################################

data_CSD_CIF_SEFJUK
_audit_creation_date 2013-02-22
_audit_creation_method CSD-ConQuest-V1
_database_code_CSD SEFJUK
_database_code_depnum_ccdc_archive 'CCDC 854729'
_chemical_formula_sum 'C34 H45 N1 O6'
_chemical_formula_moiety
;
C34 H45 N1 O6
;
_journal_coden_Cambridge 119
_journal_volume 1028
_journal_year 2012
_journal_page_first 88
_journal_name_full 'J.Mol.Struct. '
loop_
_publ_author_name
"A.Sethi"
"A.Bhatia"
"D.Shukla"
"A.Kumar"
"R.Sonker"
"R.Prakash"
"G.Bhatia"
_chemical_name_systematic
;
Spirost-5-en-3-yl 4-nitrobenzoate
;
_chemical_name_common
;
Diosgenin p-nitrobenzoate
;
_chemical_melting_point 542.15
_cell_volume   1452.329
_exptl_crystal_colour 'colorless'
_exptl_crystal_density_diffrn 1.289
_exptl_special_details
;
Melting point range 542.15-551.15K
tested for cytotoxic and anti-adipogenic acitivity
;
_exptl_crystal_description 'needle'
_diffrn_ambient_temperature 100
#These two values have been output from a single CSD field.
_refine_ls_R_factor_gt 0.0641
_refine_ls_wR_factor_gt 0.0641
_symmetry_cell_setting monoclinic
_symmetry_space_group_name_H-M 'P 21'
_symmetry_Int_Tables_number 4
loop_
_symmetry_equiv_pos_site_id
_symmetry_equiv_pos_as_xyz
1 x,y,z
2 -x,1/2+y,-z
_cell_length_a 7.719(2)
_cell_length_b 8.425(2)
_cell_length_c 22.578(6)
_cell_angle_alpha 90
_cell_angle_beta 98.460(5)
_cell_angle_gamma 90
_cell_formula_units_Z 2
loop_
_atom_type_symbol
_atom_type_radius_bond
C 0.68
H 0.23
N 0.68
O 0.68
loop_
_atom_site_label
_atom_site_type_symbol
_atom_site_fract_x
_atom_site_fract_y
_atom_site_fract_z
O1 O 0.8194(3) 0.3216(3) -0.09514(10)
O2 O 0.1506(3) 0.2718(3) 0.40403(11)
O3 O 1.3261(4) 0.3459(4) -0.31881(12)
O4 O 0.5732(3) 0.2906(3) -0.16230(11)
O5 O 0.1843(3) 0.4461(3) 0.32658(11)
O6 O 1.1039(4) 0.4345(4) -0.37985(12)
N1 N 1.1702(4) 0.3832(4) -0.33110(14)
C1 C 0.5027(4) 0.3169(5) 0.25973(14)
C2 C 0.5358(5) 0.3616(5) 0.02903(14)
C3 C 0.6002(5) 0.2752(5) 0.13734(15)
H1 H 0.56570 0.16520 0.12750
C4 C 1.0575(5) 0.3653(4) -0.28444(15)
C5 C 0.3885(5) 0.2512(5) 0.30602(16)
H2 H 0.38340 0.13510 0.30350
C6 C 0.2617(5) 0.3882(4) 0.38357(15)
C7 C 0.2877(5) 0.5266(5) 0.42710(17)
H3 H 0.35410 0.49100 0.46460
H4 H 0.35510 0.60880 0.41080
C8 C 1.0301(5) 0.3335(5) -0.18183(16)
H5 H 1.08040 0.32380 -0.14200
C9 C 0.8780(5) 0.3717(5) -0.30058(16)
H6 H 0.82900 0.38780 -0.34030
C10 C 0.6560(5) 0.2126(5) 0.25023(15)
H7 H 0.61710 0.10340 0.24460
H8 H 0.74490 0.21710 0.28530
C11 C 0.8483(5) 0.3370(5) -0.19648(15)
C12 C 0.3663(5) 0.3523(5) 0.03342(15)
H9 H 0.28700 0.35630 -0.00180
C13 C 0.6783(4) 0.3410(5) 0.08286(15)
C14 C 0.7298(5) 0.3148(4) -0.15081(15)
C15 C 0.4318(4) 0.3642(5) 0.14581(14)
H10 H 0.45710 0.47810 0.14940
C16 C 0.5983(5) 0.3947(5) -0.03043(16)
H11 H 0.65030 0.49960 -0.02930
H12 H 0.49850 0.39390 -0.06200
C17 C 0.8799(5) 0.2552(5) 0.00691(15)
H13 H 0.95700 0.17030 -0.00200
H14 H 0.94760 0.35250 0.01150
C18 C 0.2028(5) 0.3845(5) 0.22090(15)
H15 H 0.09770 0.35200 0.19480
H16 H 0.21160 0.49930 0.22040
C19 C 0.3660(4) 0.3066(4) 0.20269(15)
H17 H 0.33820 0.19380 0.19650
C20 C 1.1360(5) 0.3443(5) -0.22556(16)
H18 H 1.25710 0.33760 -0.21600
C21 C 0.4295(5) 0.3024(5) 0.37248(15)
H19 H 0.52420 0.38080 0.37590
C22 C -0.0009(5) 0.4659(5) 0.45917(16)
H20 H 0.05590 0.42380 0.49760
C23 C 0.7344(5) 0.2685(5) 0.19496(15)
H21 H 0.78460 0.37320 0.20290
H22 H 0.82850 0.19710 0.18860
C24 C 0.2042(5) 0.3215(5) 0.28490(14)
H23 H 0.11360 0.24040 0.28570
C25 C -0.0161(4) 0.3337(5) 0.41340(15)
H24 H -0.08570 0.24850 0.42660
H25 H -0.07720 0.37330 0.37570
C26 C 0.4877(5) 0.1669(5) 0.41576(17)
H26 H 0.59290 0.12020 0.40560
H27 H 0.39720 0.08790 0.41300
H28 H 0.50970 0.20740 0.45590
C27 C 0.7707(5) 0.5024(5) 0.09728(16)
H29 H 0.86110 0.49040 0.13100
H30 H 0.68690 0.57930 0.10650
H31 H 0.82160 0.53770 0.06320
C28 C 0.5620(5) 0.4871(5) 0.27443(16)
H32 H 0.46230 0.55090 0.27970
H33 H 0.61630 0.52930 0.24220
H34 H 0.64450 0.48810 0.31060
C29 C 0.1152(5) 0.5952(5) 0.43897(18)
H35 H 0.05580 0.64470 0.40280
H36 H 0.13660 0.67620 0.46970
C30 C 0.8119(5) 0.2184(5) 0.06493(16)
H37 H 0.91070 0.21260 0.09680
H38 H 0.75680 0.11470 0.06150
C31 C 0.2944(5) 0.3359(5) 0.09103(14)
H39 H 0.24640 0.23010 0.09330
H40 H 0.19960 0.41120 0.09140
C32 C 0.7318(5) 0.2734(5) -0.04490(15)
H41 H 0.67410 0.17070 -0.05370
C33 C -0.1814(5) 0.5294(6) 0.46715(19)
H42 H -0.25060 0.44480 0.47990
H43 H -0.23840 0.57140 0.42980
H44 H -0.16860 0.61180 0.49680
C34 C 0.7727(5) 0.3537(5) -0.25650(15)
H45 H 0.65150 0.35280 -0.26670
#END
