
#######################################################################
#
#                 Cambridge Crystallographic Data Centre
#                                CCDC
#
#######################################################################
#
# If this CIF has been generated from an entry in the Cambridge
# Structural Database, then it will include bibliographic, chemical,
# crystal, experimental, refinement or atomic coordinate data resulting
# from the CCDC's data processing and validation procedures.
#
#######################################################################

data_CSD_CIF_SEFLUN
_audit_creation_date 2017-10-30
_audit_creation_method CSD-ConQuest-V1
_database_code_CSD SEFLUN
_database_code_depnum_ccdc_archive 'CCDC 1582826'
_chemical_formula_sum 'C21 H20 N2 O6'
_chemical_formula_moiety
;
C21 H20 N2 O6
;
_journal_coden_Cambridge 35
_journal_volume 82
_journal_year 2017
_journal_page_first 10997
_journal_name_full 'J.Org.Chem. '
loop_
_publ_author_name
"Yiyi Liu"
"Hengyu Li"
"Xun Zhou"
"Zhengjie He"
_chemical_name_systematic
;
ethyl 
1-(methoxymethyl)-2,2'-dioxo-4'-phenyl-1,2-dihydro-4'H-spiro[indole-3,5'-[1,2]
oxazole]-3'-carboxylate
;
_cell_volume    956.342
_exptl_crystal_colour 'colorless'
_exptl_crystal_density_diffrn 1.38
_exptl_crystal_description 'Prism'
_diffrn_ambient_temperature 113
#These two values have been output from a single CSD field.
_refine_ls_R_factor_gt 0.0335
_refine_ls_wR_factor_gt 0.0335
_symmetry_cell_setting triclinic
_symmetry_space_group_name_H-M 'P -1'
_symmetry_Int_Tables_number 2
loop_
_symmetry_equiv_pos_site_id
_symmetry_equiv_pos_as_xyz
1 x,y,z
2 -x,-y,-z
_cell_length_a 9.196(3)
_cell_length_b 10.447(3)
_cell_length_c 11.724(4)
_cell_angle_alpha 91.395(1)
_cell_angle_beta 110.283(5)
_cell_angle_gamma 112.925(6)
_cell_formula_units_Z 2
loop_
_atom_type_symbol
_atom_type_radius_bond
C 0.68
H 0.23
N 0.68
O 0.68
loop_
_atom_site_label
_atom_site_type_symbol
_atom_site_fract_x
_atom_site_fract_y
_atom_site_fract_z
O1 O 0.60088(9) 0.51223(8) 0.69656(7)
O2 O 0.32065(9) 0.56201(7) 0.72135(6)
O3 O 0.25492(10) 0.68751(7) 0.57474(7)
O4 O 0.0778(1) 0.52917(8) 0.33363(7)
O5 O 0.02679(9) 0.29925(7) 0.33047(6)
O6 O 0.72888(10) 0.25691(8) 0.90423(7)
N1 N 0.56315(10) 0.38972(8) 0.85322(7)
N2 N 0.25067(10) 0.57126(8) 0.59146(7)
C1 C 0.43389(12) 0.33767(10) 0.90099(9)
C2 C 0.43595(14) 0.27210(11) 1.00240(9)
H1 H 0.53180 0.25540 1.05010
C3 C 0.29143(15) 0.23158(11) 1.03161(9)
H2 H 0.29000 0.18820 1.10170
C4 C 0.14942(15) 0.25315(11) 0.96063(10)
H3 H 0.05240 0.22370 0.98230
C5 C 0.14858(13) 0.31793(10) 0.85762(9)
H4 H 0.05140 0.33190 0.80810
C6 C 0.29279(12) 0.36119(10) 0.82972(8)
C7 C 0.32622(12) 0.42611(9) 0.72373(8)
C8 C 0.51378(12) 0.44935(9) 0.75178(9)
C9 C 0.73242(13) 0.39216(10) 0.90912(9)
H5 H 0.80440 0.44780 0.86590
H6 H 0.78610 0.44040 0.99660
C10 C 0.67085(15) 0.18592(13) 0.78007(10)
H7 H 0.54830 0.16030 0.73730
H8 H 0.69040 0.10010 0.78180
H9 H 0.73420 0.24870 0.73620
C11 C 0.19655(11) 0.33543(9) 0.59382(8)
H10 H 0.08220 0.28700 0.59930
C12 C 0.24084(11) 0.22163(9) 0.55308(8)
C13 C 0.33073(12) 0.23865(10) 0.47596(9)
H11 H 0.37070 0.32590 0.44860
C14 C 0.36168(13) 0.12733(11) 0.43915(9)
H12 H 0.42130 0.13830 0.38550
C15 C 0.30592(13) -0.00003(10) 0.48041(9)
H13 H 0.32590 -0.07610 0.45390
C16 C 0.22135(12) -0.01564(10) 0.56015(9)
H14 H 0.18620 -0.10140 0.59040
C17 C 0.18805(12) 0.09465(9) 0.59575(8)
H15 H 0.12880 0.08340 0.64960
C18 C 0.18973(11) 0.44890(9) 0.51890(8)
C19 C 0.09468(12) 0.43427(10) 0.38512(9)
C20 C -0.07145(14) 0.26936(11) 0.19779(9)
H16 H 0.00210 0.32430 0.15530
H17 H -0.16820 0.29600 0.17990
C21 C -0.1373(2) 0.11382(13) 0.15319(11)
H18 H -0.04120 0.08720 0.17710
H19 H -0.19610 0.09200 0.06290
H20 H -0.21760 0.06070 0.19040
#END
