
#######################################################################
#
#                 Cambridge Crystallographic Data Centre
#                                CCDC
#
#######################################################################
#
# If this CIF has been generated from an entry in the Cambridge
# Structural Database, then it will include bibliographic, chemical,
# crystal, experimental, refinement or atomic coordinate data resulting
# from the CCDC's data processing and validation procedures.
#
#######################################################################

data_CSD_CIF_SEFNIA
_audit_creation_date 1990-06-07
_audit_creation_method CSD-ConQuest-V1
_database_code_CSD SEFNIA
_chemical_formula_sum 'C33 H25 N3 O1'
_chemical_formula_moiety
;
C33 H25 N3 O1
;
_journal_coeditor_code "IUCr GR0044"
_journal_coden_Cambridge 591
_journal_volume 46
_journal_year 1990
_journal_page_first 146
_journal_name_full 'Acta Crystallogr.,Sect.C:Cryst.Struct.Commun. '
loop_
_publ_author_name
"C.J.Arceneaux"
"J.H.Boyer"
"C.L.Klein"
"E.D.Stevens"
_chemical_name_systematic
;
4,5-Diphenyl-1-triphenylmethoxy-1,2,3-triazole
;
_cell_volume   2442.249
_exptl_crystal_colour 'colorless'
_exptl_crystal_density_diffrn 1.304
_diffrn_ambient_temperature 105
#These two values have been output from a single CSD field.
_refine_ls_R_factor_gt 0.034
_refine_ls_wR_factor_gt 0.034
_symmetry_cell_setting monoclinic
_symmetry_space_group_name_H-M 'P 21/n'
_symmetry_Int_Tables_number 14
loop_
_symmetry_equiv_pos_site_id
_symmetry_equiv_pos_as_xyz
1 x,y,z
2 1/2-x,1/2+y,1/2-z
3 -x,-y,-z
4 -1/2+x,-1/2-y,-1/2+z
_cell_length_a 10.599(5)
_cell_length_b 14.286(4)
_cell_length_c 16.175(3)
_cell_angle_alpha 90
_cell_angle_beta 94.31(4)
_cell_angle_gamma 90
_cell_formula_units_Z 4
loop_
_atom_type_symbol
_atom_type_radius_bond
C 0.68
H 0.23
N 0.68
O 0.68
loop_
_atom_site_label
_atom_site_type_symbol
_atom_site_fract_x
_atom_site_fract_y
_atom_site_fract_z
O1 O -0.0768(1) 0.01743(8) 0.77895(7)
N1 N 0.0222(1) 0.0231(1) 0.83819(8)
N2 N 0.0763(2) 0.1058(1) 0.85709(9)
N3 N 0.1607(2) 0.0890(1) 0.91933(9)
C1 C 0.1568(2) -0.0043(1) 0.9401(1)
C2 C 0.0675(2) -0.0483(1) 0.8872(1)
C3 C -0.0403(2) 0.0116(1) 0.6911(1)
C4 C 0.2382(2) -0.0413(1) 1.0102(1)
C5 C 0.3474(2) 0.0071(1) 1.0384(1)
C6 C 0.4256(2) -0.0267(1) 1.1039(1)
C7 C 0.3957(2) -0.1091(1) 1.1433(1)
C8 C 0.2864(2) -0.1567(1) 1.1167(1)
C9 C 0.2078(2) -0.1237(1) 1.0511(1)
C10 C 0.0273(2) -0.1469(1) 0.8773(1)
C11 C 0.1144(2) -0.2128(1) 0.8536(1)
C12 C 0.0808(2) -0.3064(1) 0.8475(1)
C13 C -0.0385(2) -0.3351(1) 0.8647(1)
C14 C -0.1252(2) -0.2702(1) 0.8888(1)
C15 C -0.0932(2) -0.1758(1) 0.8944(1)
C16 C 0.0685(2) -0.0571(1) 0.6832(1)
C17 C 0.1916(2) -0.0317(1) 0.7123(1)
C18 C 0.2928(2) -0.0909(1) 0.7028(1)
C19 C 0.2738(2) -0.1767(1) 0.6633(1)
C20 C 0.1530(2) -0.2023(1) 0.6342(1)
C21 C 0.0513(2) -0.1435(1) 0.6446(1)
C22 C -0.1661(2) -0.0214(1) 0.6473(1)
C23 C -0.2442(2) -0.0830(1) 0.6862(1)
C24 C -0.3547(2) -0.1160(1) 0.6452(1)
C25 C -0.3894(2) -0.0888(1) 0.5643(1)
C26 C -0.3131(2) -0.0265(1) 0.5258(1)
C27 C -0.2032(2) 0.0075(1) 0.5669(1)
C28 C -0.0063(2) 0.1095(1) 0.6611(1)
C29 C 0.0718(2) 0.1185(1) 0.5963(1)
C30 C 0.0943(2) 0.2056(1) 0.5621(1)
C31 C 0.0384(2) 0.2845(1) 0.5924(1)
C32 C -0.0402(2) 0.2763(1) 0.6562(1)
C33 C -0.0630(2) 0.1891(1) 0.6909(1)
H1 H 0.369(2) 0.063(1) 1.010(1)
H2 H 0.509(2) 0.009(1) 1.122(1)
H3 H 0.453(2) -0.135(1) 1.186(1)
H4 H 0.264(2) -0.213(1) 1.147(1)
H5 H 0.126(2) -0.156(1) 1.036(1)
H6 H 0.201(2) -0.190(1) 0.841(1)
H7 H 0.143(2) -0.351(1) 0.829(1)
H8 H -0.061(2) -0.399(1) 0.863(1)
H9 H -0.209(2) -0.291(1) 0.903(1)
H10 H -0.152(2) -0.127(1) 0.913(1)
H11 H 0.207(2) 0.028(1) 0.738(1)
H12 H 0.378(2) -0.072(1) 0.725(1)
H13 H 0.349(2) -0.217(1) 0.654(1)
H14 H 0.142(2) -0.262(1) 0.604(1)
H15 H -0.031(2) -0.163(1) 0.624(1)
H16 H -0.218(2) -0.103(1) 0.740(1)
H17 H -0.405(2) -0.159(1) 0.675(1)
H18 H -0.466(2) -0.111(1) 0.535(1)
H19 H -0.334(2) -0.004(1) 0.466(1)
H20 H -0.152(2) 0.052(1) 0.537(1)
H21 H 0.110(2) 0.064(1) 0.573(1)
H22 H 0.152(2) 0.213(1) 0.517(1)
H23 H 0.056(2) 0.345(1) 0.569(1)
H24 H -0.081(2) 0.332(1) 0.677(1)
H25 H -0.122(2) 0.182(1) 0.735(1)
#END
