
#######################################################################
#
#                 Cambridge Crystallographic Data Centre
#                                CCDC
#
#######################################################################
#
# If this CIF has been generated from an entry in the Cambridge
# Structural Database, then it will include bibliographic, chemical,
# crystal, experimental, refinement or atomic coordinate data resulting
# from the CCDC's data processing and validation procedures.
#
#######################################################################

data_CSD_CIF_SEFPUQ
_audit_creation_date 2013-02-22
_audit_creation_method CSD-ConQuest-V1
_database_code_CSD SEFPUQ
_database_code_depnum_ccdc_archive 'CCDC 882547'
_chemical_formula_sum 'C20 H14 N2 O4'
_chemical_formula_moiety
;
C20 H14 N2 O4
;
_journal_coden_Cambridge 1200
_journal_volume 20
_journal_year 2012
_journal_page_first 6482
_journal_name_full 'Bioorg.Med.Chem. '
loop_
_publ_author_name
"K.C.G.Moura"
"P.F.Carneiro"
"M.do C.F.R.Pinto"
"J.A.da Silva"
"V.R.S.Malta"
"C.A.de Simone"
"G.G.Dias"
"G.A.M.Jardim"
"J.Cantos"
"T.S.Coelho"
"P.E.A.da Silva"
"E.N.da Silva Junior"
_chemical_name_systematic
;
5-Methyl-2-(4-nitrophenyl)-4,5-dihydrofuro[3',2':3,4]naphtho[1,2-d][1,3]oxazol
e
;
_cell_volume   1630.386
_exptl_crystal_density_diffrn 1.407
_exptl_special_details
;
tested for antimycobacterial activity

;
_diffrn_ambient_temperature 295
#These two values have been output from a single CSD field.
_refine_ls_R_factor_gt 0.0987
_refine_ls_wR_factor_gt 0.0987
_symmetry_cell_setting monoclinic
_symmetry_space_group_name_H-M 'P 21/c'
_symmetry_Int_Tables_number 14
loop_
_symmetry_equiv_pos_site_id
_symmetry_equiv_pos_as_xyz
1 x,y,z
2 -x,1/2+y,1/2-z
3 -x,-y,-z
4 x,-1/2-y,-1/2+z
_cell_length_a 12.779(1)
_cell_length_b 7.9520(11)
_cell_length_c 16.2090(18)
_cell_angle_alpha 90
_cell_angle_beta 98.178(7)
_cell_angle_gamma 90
_cell_formula_units_Z 4
loop_
_atom_type_symbol
_atom_type_radius_bond
C 0.68
H 0.23
N 0.68
O 0.68
loop_
_atom_site_label
_atom_site_type_symbol
_atom_site_fract_x
_atom_site_fract_y
_atom_site_fract_z
O1 O 0.51259(17) 0.1859(3) 0.56862(13)
N1 N 0.5818(2) 0.2473(4) 0.45141(18)
C1 C 0.4201(3) 0.4025(4) 0.3786(2)
C2 C 0.6929(3) 0.0924(4) 0.5646(2)
C3 C 0.4388(3) 0.2721(4) 0.5168(2)
C4 C 0.2811(3) 0.4077(5) 0.4656(2)
C5 C 0.3961(4) 0.5274(5) 0.2427(2)
H1 H 0.42180 0.55350 0.19340
O2 O 0.1831(2) 0.4555(4) 0.48161(16)
C6 C 0.4578(3) 0.4413(5) 0.3035(2)
H2 H 0.52530 0.40770 0.29540
C7 C 0.6963(3) -0.0007(5) 0.6366(2)
H3 H 0.63580 -0.01010 0.66210
C8 C 0.4797(3) 0.3102(4) 0.4457(2)
C9 C 0.3374(3) 0.3219(4) 0.5304(2)
C10 C 0.3179(3) 0.4522(4) 0.3900(2)
C11 C 0.5971(3) 0.1766(4) 0.5248(2)
C12 C 0.2721(3) 0.3000(6) 0.6003(3)
H4 H 0.30850 0.34350 0.65250
H5 H 0.25400 0.18290 0.60740
C13 C 0.7867(3) -0.0795(6) 0.6711(2)
H6 H 0.78850 -0.14340 0.71930
C14 C 0.8759(3) -0.0617(6) 0.6324(3)
C15 C 0.2554(3) 0.5423(5) 0.3248(2)
H7 H 0.18750 0.57730 0.33110
C16 C 0.7840(3) 0.1099(6) 0.5268(3)
H8 H 0.78220 0.17330 0.47840
C17 C 0.2950(4) 0.5767(5) 0.2537(2)
H9 H 0.25350 0.63470 0.21120
C18 C 0.8744(3) 0.0347(7) 0.5608(3)
H10 H 0.93560 0.04710 0.53630
O3 O 1.0512(3) -0.1316(8) 0.6311(3)
O4 O 0.9726(3) -0.2397(7) 0.7264(3)
N2 N 0.9734(3) -0.1528(7) 0.6662(3)
C19 C 0.1756(5) 0.4037(11) 0.5686(4)
C20 C 0.0870(8) 0.3841(13) 0.5910(6)
H11 H 0.03830 0.46420 0.56280
H12 H 0.09250 0.40070 0.65010
H13 H 0.06210 0.27220 0.57730
#END
