
#######################################################################
#
#                 Cambridge Crystallographic Data Centre
#                                CCDC
#
#######################################################################
#
# If this CIF has been generated from an entry in the Cambridge
# Structural Database, then it will include bibliographic, chemical,
# crystal, experimental, refinement or atomic coordinate data resulting
# from the CCDC's data processing and validation procedures.
#
#######################################################################

data_CSD_CIF_SEFQIF
_audit_creation_date 2013-02-22
_audit_creation_method CSD-ConQuest-V1
_database_code_CSD SEFQIF
_database_code_depnum_ccdc_archive 'CCDC 829135'
_chemical_formula_sum 'C21 H24 N2 O1'
_chemical_formula_moiety
;
C21 H24 N2 O1
;
_journal_coden_Cambridge 1127
_journal_volume 22
_journal_year 2012
_journal_page_first 6602
_journal_name_full 'Bioorg.Med.Chem.Lett. '
loop_
_publ_author_name
"K.Narayanan"
"M.Shanmugam"
"S.Jothivel"
"S.Kabilan"
_chemical_name_systematic
;
1-Allyl-N-hydroxy-3-methyl-2,6-diphenylpiperidin-4-imine
;
_cell_volume   1880.619
_exptl_crystal_density_diffrn 1.132
_exptl_special_details
;
tested for antibacterial and antifungal activity

;
_diffrn_ambient_temperature 293
#These two values have been output from a single CSD field.
_refine_ls_R_factor_gt 0.0759
_refine_ls_wR_factor_gt 0.0759
_symmetry_cell_setting triclinic
_symmetry_space_group_name_H-M 'P -1'
_symmetry_Int_Tables_number 2
loop_
_symmetry_equiv_pos_site_id
_symmetry_equiv_pos_as_xyz
1 x,y,z
2 -x,-y,-z
_cell_length_a 10.7410(12)
_cell_length_b 12.5554(13)
_cell_length_c 14.6734(15)
_cell_angle_alpha 82.747(9)
_cell_angle_beta 87.236(9)
_cell_angle_gamma 73.359(9)
_cell_formula_units_Z 4
loop_
_atom_type_symbol
_atom_type_radius_bond
C 0.68
H 0.23
N 0.68
O 0.68
loop_
_atom_site_label
_atom_site_type_symbol
_atom_site_fract_x
_atom_site_fract_y
_atom_site_fract_z
O1 O 0.9529(4) -0.0536(3) 0.5964(2)
H1 H 0.96960 -0.07990 0.54740
O2 O 0.5111(3) 0.3692(2) 1.52489(19)
H2 H 0.46970 0.42210 1.55160
N1 N 0.7928(3) 0.2392(3) 0.7933(2)
N2 N 0.9631(4) 0.0575(3) 0.5854(3)
N3 N 0.6669(3) 0.2261(3) 1.2518(2)
N4 N 0.5952(3) 0.4059(3) 1.4579(2)
C1 C 0.8175(5) 0.2906(4) 0.7010(4)
C2 C 0.9465(5) 0.2199(4) 0.6594(3)
C3 C 0.9384(5) 0.1031(4) 0.6599(3)
C4 C 0.9009(6) 0.0504(4) 0.7492(3)
C5 C 0.7790(5) 0.1263(4) 0.7912(3)
C6 C 0.9806(5) 0.2732(4) 0.5644(3)
H3 H 0.98590 0.34730 0.56920
H4 H 0.91450 0.27700 0.52140
H5 H 1.06280 0.22850 0.54350
C7 C 0.6785(6) 0.3109(5) 0.8389(4)
C8 C 0.5515(6) 0.3267(5) 0.7966(5)
C9 C 0.4569(7) 0.2955(5) 0.8388(6)
C10 C 0.8250(5) 0.4097(4) 0.7006(3)
C11 C 0.7611(5) 0.4945(4) 0.6360(4)
H6 H 0.70800 0.47970 0.59390
C12 C 0.7743(6) 0.6005(5) 0.6325(4)
H7 H 0.73200 0.65590 0.58710
C13 C 0.8484(6) 0.6255(5) 0.6945(5)
H8 H 0.85650 0.69760 0.69200
C14 C 0.9113(5) 0.5428(6) 0.7611(4)
H9 H 0.96120 0.55960 0.80440
C15 C 0.9009(5) 0.4342(5) 0.7643(3)
H10 H 0.94470 0.37840 0.80890
C16 C 0.7537(5) 0.0689(4) 0.8846(3)
C17 C 0.6731(5) 0.0016(4) 0.8921(4)
H11 H 0.62770 -0.00280 0.84100
C18 C 0.6582(6) -0.0604(5) 0.9750(5)
H12 H 0.60050 -0.10380 0.98030
C19 C 0.7293(7) -0.0570(5) 1.0492(5)
H13 H 0.72250 -0.10050 1.10430
C20 C 0.8105(6) 0.0104(5) 1.0423(4)
H14 H 0.85540 0.01500 1.09360
C21 C 0.8260(5) 0.0713(4) 0.9598(4)
H15 H 0.88470 0.11380 0.95450
C22 C 0.6998(5) 0.3337(4) 1.2463(3)
C23 C 0.7504(5) 0.3542(4) 1.3376(3)
C24 C 0.6630(4) 0.3273(3) 1.4144(3)
C25 C 0.6519(6) 0.2117(4) 1.4205(4)
C26 C 0.5865(5) 0.2022(4) 1.3325(3)
C27 C 0.7657(4) 0.4723(3) 1.3328(3)
H16 H 0.82290 0.48400 1.28260
H17 H 0.80150 0.48080 1.38930
H18 H 0.68230 0.52640 1.32350
C28 C 0.6038(6) 0.2184(4) 1.1656(4)
C29 C 0.4710(8) 0.2967(5) 1.1479(4)
H19 H 0.40360 0.28660 1.18700
C30 C 0.4466(8) 0.3701(6) 1.0876(6)
H20 H 0.51190 0.38240 1.04730
H21 H 0.36190 0.41600 1.08020
C31 C 0.7991(4) 0.3355(3) 1.1710(3)
C32 C 0.7833(5) 0.4215(4) 1.1001(3)
H22 H 0.70910 0.48200 1.09900
C33 C 0.8756(6) 0.4195(4) 1.0305(3)
H23 H 0.86290 0.47820 0.98330
C34 C 0.9852(5) 0.3311(5) 1.0314(3)
H24 H 1.04670 0.32900 0.98430
C35 C 1.0042(4) 0.2453(4) 1.1022(3)
H25 H 1.07960 0.18590 1.10370
C36 C 0.9120(4) 0.2474(3) 1.1705(3)
H26 H 0.92550 0.18840 1.21760
C37 C 0.5704(5) 0.0865(4) 1.3376(3)
C38 C 0.4531(5) 0.0684(4) 1.3611(3)
H27 H 0.38200 0.12940 1.36940
C39 C 0.4365(6) -0.0376(5) 1.3732(3)
H28 H 0.35490 -0.04730 1.38800
C40 C 0.5409(7) -0.1282(5) 1.3632(4)
H29 H 0.53140 -0.20010 1.37360
C41 C 0.6596(6) -0.1128(4) 1.3378(4)
H30 H 0.72990 -0.17410 1.32850
C42 C 0.6750(5) -0.0061(4) 1.3261(3)
H31 H 0.75640 0.00360 1.31050
H32 H 0.601(3) 0.140(3) 1.168(2)
H33 H 0.668(4) 0.226(3) 1.111(3)
H34 H 0.692(4) 0.390(3) 0.837(3)
H35 H 0.372(4) 0.304(3) 0.808(3)
H36 H 0.470(6) 0.260(5) 0.908(4)
H37 H 0.625(3) 0.395(3) 1.233(2)
H38 H 0.711(3) 0.127(2) 0.754(2)
H39 H 0.841(4) 0.297(3) 1.345(3)
H40 H 0.489(4) 0.260(3) 1.326(3)
H41 H 0.741(4) 0.151(3) 1.430(3)
H42 H 0.596(4) 0.200(3) 1.468(3)
H43 H 0.673(3) 0.271(3) 0.899(2)
H44 H 0.888(4) -0.026(3) 0.746(3)
H45 H 0.756(4) 0.292(3) 0.659(3)
H46 H 0.979(5) 0.032(4) 0.794(4)
H47 H 1.023(4) 0.223(3) 0.703(3)
H48 H 0.537(5) 0.355(4) 0.730(4)
#END
