
#######################################################################
#
#                 Cambridge Crystallographic Data Centre
#                                CCDC
#
#######################################################################
#
# If this CIF has been generated from an entry in the Cambridge
# Structural Database, then it will include bibliographic, chemical,
# crystal, experimental, refinement or atomic coordinate data resulting
# from the CCDC's data processing and validation procedures.
#
#######################################################################

data_CSD_CIF_SEFTEF
_audit_creation_date 2017-10-30
_audit_creation_method CSD-ConQuest-V1
_database_code_CSD SEFTEF
_database_code_depnum_ccdc_archive 'CCDC 1568208'
_chemical_formula_sum 'C16 H20 N2 O4'
_chemical_formula_moiety
;
C16 H20 N2 O4
;
_journal_coden_Cambridge 1336
_journal_volume 19
_journal_year 2017
_journal_page_first 5681
_journal_name_full 'Org.Lett. '
loop_
_publ_author_name
"A.N.Baumann"
"M.Eisold"
"A.Music"
"G.Haas"
"Yu Min Kiw"
"D.Didier"
_chemical_name_systematic
;
t-butyl 3-ethyl-4-(3-nitrophenyl)azete-1(2H)-carboxylate
;
_cell_volume    779.696
_exptl_crystal_colour 'yellow'
_exptl_crystal_density_diffrn 1.296
_exptl_crystal_description 'block'
_diffrn_ambient_temperature 103
#These two values have been output from a single CSD field.
_refine_ls_R_factor_gt 0.0425
_refine_ls_wR_factor_gt 0.0425
_symmetry_cell_setting triclinic
_symmetry_space_group_name_H-M 'P -1'
_symmetry_Int_Tables_number 2
loop_
_symmetry_equiv_pos_site_id
_symmetry_equiv_pos_as_xyz
1 x,y,z
2 -x,-y,-z
_cell_length_a 8.6405(5)
_cell_length_b 9.7798(6)
_cell_length_c 11.3439(7)
_cell_angle_alpha 68.469(2)
_cell_angle_beta 69.473(2)
_cell_angle_gamma 63.854(2)
_cell_formula_units_Z 2
loop_
_atom_type_symbol
_atom_type_radius_bond
C 0.68
H 0.23
N 0.68
O 0.68
loop_
_atom_site_label
_atom_site_type_symbol
_atom_site_fract_x
_atom_site_fract_y
_atom_site_fract_z
O1 O 0.27358(16) 0.22295(13) 0.31782(11)
O2 O 0.21781(18) -0.00517(15) 0.40055(12)
O3 O 0.69282(17) 0.38547(16) 0.21747(12)
O4 O 0.63783(19) 0.62859(16) 0.20256(12)
N1 N 0.2515(2) 0.10588(16) 0.52936(14)
N2 N 0.6031(2) 0.50786(18) 0.25283(14)
C1 C 0.2433(2) 0.1006(2) 0.41323(17)
C2 C 0.1543(3) 0.0323(2) 0.65704(17)
H1 H 0.22890 -0.07060 0.70330
H2 H 0.04390 0.02760 0.65350
C3 C 0.1270(2) 0.1716(2) 0.70166(17)
C4 C 0.2089(2) 0.2359(2) 0.58242(16)
C5 C 0.2575(2) 0.37582(19) 0.51837(16)
C6 C 0.4078(2) 0.3735(2) 0.41828(16)
H3 H 0.48290 0.28010 0.39040
C7 C 0.4461(2) 0.5101(2) 0.36015(16)
C8 C 0.3438(2) 0.6481(2) 0.39869(17)
H4 H 0.37350 0.73990 0.35690
C9 C 0.1962(2) 0.6486(2) 0.50030(17)
H5 H 0.12500 0.74120 0.53030
C10 C 0.1517(2) 0.5153(2) 0.55836(17)
H6 H 0.04820 0.51830 0.62610
C11 C 0.0552(2) 0.2044(2) 0.83215(17)
H7 H 0.04820 0.31140 0.82350
H8 H 0.13760 0.12840 0.88910
C12 C -0.1276(3) 0.1932(2) 0.89594(19)
H9 H -0.16780 0.21340 0.98220
H10 H -0.12150 0.08760 0.90470
H11 H -0.21100 0.27150 0.84190
C13 C 0.3056(2) 0.2286(2) 0.17911(16)
C14 C 0.4620(3) 0.0861(2) 0.1461(2)
H12 H 0.49630 0.10010 0.05170
H13 H 0.42970 -0.00790 0.18850
H14 H 0.56150 0.07340 0.17680
C15 C 0.1389(3) 0.2461(3) 0.1502(2)
H15 H 0.15530 0.26670 0.05620
H16 H 0.03970 0.33410 0.18140
H17 H 0.11350 0.14890 0.19440
C16 C 0.3494(3) 0.3761(2) 0.11032(19)
H18 H 0.36680 0.39590 0.01620
H19 H 0.45800 0.36260 0.12970
H20 H 0.25180 0.46570 0.14030
#END
