
#######################################################################
#
#                 Cambridge Crystallographic Data Centre
#                                CCDC
#
#######################################################################
#
# If this CIF has been generated from an entry in the Cambridge
# Structural Database, then it will include bibliographic, chemical,
# crystal, experimental, refinement or atomic coordinate data resulting
# from the CCDC's data processing and validation procedures.
#
#######################################################################

data_CSD_CIF_SEFYEH
_audit_creation_date 1990-06-07
_audit_creation_method CSD-ConQuest-V1
_database_code_CSD SEFYEH
_chemical_formula_sum 'C14 H8 N2 O8'
_chemical_formula_moiety
;
C14 H8 N2 O8
;
_journal_coden_Cambridge 93
_journal_volume 304
_journal_year 1989
_journal_page_first 127
_journal_name_full 'Dokl.Akad.Nauk SSSR(Russ.)(Proc.Nat.Acad.Sci.USSR) '
loop_
_publ_author_name
"E.G.Popova"
"L.A.Chetkina"
"A.N.Sobolev"
"V.K.Belk'skii"
"A.M.Andrievskii"
"A.N.Poplavskii"
"K.M.Dyumaev"
_chemical_name_systematic
;
6,6'-Dinitro-2,2'-dicarboxybiphenyl
;
_cell_volume   1337.997
_exptl_crystal_colour 'pale yellow'
_exptl_crystal_density_diffrn 1.649
_diffrn_ambient_temperature ?
_diffrn_special_details
;
The study was carried out at room temperature,in the range 283-303K

;
#These two values have been output from a single CSD field.
_refine_ls_R_factor_gt 0.04
_refine_ls_wR_factor_gt 0.04
_symmetry_cell_setting orthorhombic
_symmetry_space_group_name_H-M 'P b c n'
_symmetry_Int_Tables_number 60
loop_
_symmetry_equiv_pos_site_id
_symmetry_equiv_pos_as_xyz
1 x,y,z
2 1/2-x,1/2+y,z
3 x,-y,1/2+z
4 1/2-x,1/2-y,1/2+z
5 -x,-y,-z
6 -1/2+x,-1/2-y,-z
7 -x,y,-1/2-z
8 -1/2+x,-1/2+y,-1/2-z
_cell_length_a 12.356(3)
_cell_length_b 8.156(2)
_cell_length_c 13.277(4)
_cell_angle_alpha 90
_cell_angle_beta 90
_cell_angle_gamma 90
_cell_formula_units_Z 4
loop_
_atom_type_symbol
_atom_type_radius_bond
C 0.68
H 0.23
N 0.68
O 0.68
loop_
_atom_site_label
_atom_site_type_symbol
_atom_site_fract_x
_atom_site_fract_y
_atom_site_fract_z
C1 C 0.5609(3) 0.3410(3) 0.2476(3)
C2 C 0.6230(4) 0.4327(5) 0.3148(3)
C3 C 0.7343(3) 0.4300(5) 0.3161(3)
C4 C 0.7886(4) 0.3370(5) 0.2460(3)
C5 C 0.7309(3) 0.2475(4) 0.1764(3)
C6 C 0.6184(4) 0.2446(5) 0.1776(3)
C7 C 0.5631(3) 0.1367(4) 0.1035(3)
N1 N 0.5709(2) 0.5448(4) 0.3874(2)
O1 O 0.4656(2) 0.1197(3) 0.0989(2)
O2 O 0.6283(2) 0.0587(4) 0.0439(2)
O3 O 0.6191(2) 0.5726(4) 0.4653(2)
O4 O 0.4863(3) 0.6111(4) 0.3648(3)
H1 H 0.590(3) -0.024(5) -0.009(3)
C1F C 0.4391(3) 0.3410(3) 0.2524(3)
C2F C 0.3770(4) 0.4327(5) 0.1852(3)
C6F C 0.3816(4) 0.2446(5) 0.3224(3)
C3F C 0.2657(3) 0.4300(5) 0.1839(3)
N1F N 0.4291(2) 0.5448(4) 0.1126(2)
C5F C 0.2691(3) 0.2475(4) 0.3236(3)
C7F C 0.4369(3) 0.1367(4) 0.3965(3)
C4F C 0.2114(4) 0.3370(5) 0.2540(3)
O3F O 0.3809(2) 0.5726(4) 0.0347(2)
O4F O 0.5137(3) 0.6111(4) 0.1352(3)
O1F O 0.5344(2) 0.1197(3) 0.4011(2)
O2F O 0.3717(2) 0.0587(4) 0.4561(2)
H1F H 0.410(3) -0.024(5) 0.509(3)
#END
