
#######################################################################
#
#                 Cambridge Crystallographic Data Centre
#                                CCDC
#
#######################################################################
#
# If this CIF has been generated from an entry in the Cambridge
# Structural Database, then it will include bibliographic, chemical,
# crystal, experimental, refinement or atomic coordinate data resulting
# from the CCDC's data processing and validation procedures.
#
#######################################################################

data_CSD_CIF_SEGFAL
_audit_creation_date 1990-06-07
_audit_creation_method CSD-ConQuest-V1
_database_code_CSD SEGFAL
_chemical_formula_sum 'C3 H3 N5 O4'
_chemical_formula_moiety
;
C3 H3 N5 O4
;
_journal_coden_Cambridge 82
_journal_volume 29
_journal_year 1988
_journal_page_first 162-5
_journal_name_full 'Zh.Strukt.Khim.(Russ.)(J.Struct.Chem.) '
loop_
_publ_author_name
"G.L.Starova"
"O.V.Frank-Kamenetskaya"
"M.S.Pevzner"
_chemical_name_systematic
;
1-Methyl-3,5-dinitro-1,2,4-triazole
;
_cell_volume   1374.685
_exptl_crystal_density_diffrn 1.63
_exptl_special_details
;
Dx given as 1.63: we calculate 1.67

;
_diffrn_ambient_temperature ?
_diffrn_special_details
;
The study was carried out at room temperature,in the range 283-303K

;
#These two values have been output from a single CSD field.
_refine_ls_R_factor_gt 0.041
_refine_ls_wR_factor_gt 0.041
_symmetry_cell_setting monoclinic
_symmetry_space_group_name_H-M 'P 1 1 21/b'
_symmetry_Int_Tables_number 14
loop_
_symmetry_equiv_pos_site_id
_symmetry_equiv_pos_as_xyz
1 x,y,z
2 -x,1/2-y,1/2+z
3 -x,-y,-z
4 x,-1/2+y,-1/2-z
_cell_length_a 9.936(2)
_cell_length_b 12.610(5)
_cell_length_c 12.277(3)
_cell_angle_alpha 90
_cell_angle_beta 90
_cell_angle_gamma 116.66(4)
_cell_formula_units_Z 8
loop_
_atom_type_symbol
_atom_type_radius_bond
C 0.68
H 0.23
N 0.68
O 0.68
loop_
_atom_site_label
_atom_site_type_symbol
_atom_site_fract_x
_atom_site_fract_y
_atom_site_fract_z
C1 C 1.1820(6) 0.3660(4) 0.5171(5)
C2 C 1.0068(4) 0.1526(4) 0.4615(4)
C3 C 1.1259(5) 0.1451(4) 0.3319(4)
N1 N 1.0002(4) 0.0775(3) 0.3859(3)
N2 N 1.2082(4) 0.2540(3) 0.3662(3)
N3 N 1.1279(4) 0.2577(3) 0.4528(3)
N4 N 1.1754(4) 0.0982(3) 0.2397(3)
N5 N 0.8932(4) 0.1233(3) 0.5456(3)
O1 O 1.0916(4) 0.0004(3) 0.2079(3)
O2 O 1.2998(4) 0.1593(3) 0.2032(3)
O3 O 0.7829(4) 0.0267(3) 0.5383(3)
O4 O 0.9163(4) 0.1965(3) 0.6165(3)
H1 H 1.200(4) 0.349(3) 0.590(3)
H2 H 1.267(4) 0.416(3) 0.492(3)
H3 H 1.114(4) 0.398(3) 0.516(3)
C4 C 0.5019(5) 0.0091(4) 0.7246(4)
C5 C 0.4077(4) 0.1554(3) 0.6499(3)
C6 C 0.2846(4) 0.1525(3) 0.7809(4)
N6 N 0.4158(4) 0.0785(3) 0.7216(3)
N7 N 0.3335(4) 0.0754(3) 0.8090(3)
N8 N 0.3248(4) 0.2049(3) 0.6844(3)
N9 N 0.1924(4) 0.1810(3) 0.8575(3)
N10 N 0.4849(4) 0.1834(3) 0.5456(3)
O5 O 0.5652(4) 0.1368(3) 0.5246(3)
O6 O 0.4636(4) 0.2518(4) 0.4890(3)
O7 O 0.1620(4) 0.2604(3) 0.8294(3)
O8 O 0.1567(4) 0.1265(3) 0.9424(3)
H4 H 0.465(5) -0.053(3) 0.662(3)
H5 H 0.496(4) -0.027(3) 0.792(3)
H6 H 0.550(5) 0.018(3) 0.676(3)
#END
