
#######################################################################
#
#                 Cambridge Crystallographic Data Centre
#                                CCDC
#
#######################################################################
#
# If this CIF has been generated from an entry in the Cambridge
# Structural Database, then it will include bibliographic, chemical,
# crystal, experimental, refinement or atomic coordinate data resulting
# from the CCDC's data processing and validation procedures.
#
#######################################################################

data_CSD_CIF_SEGRUR
_audit_creation_date 1999-02-09
_audit_creation_method CSD-ConQuest-V1
_database_code_CSD SEGRUR
_chemical_formula_sum 'C5 H5 N3 O2'
_chemical_formula_moiety
;
C5 H5 N3 O2
;
_journal_coden_Cambridge 119
_journal_volume 415
_journal_year 1997
_journal_page_first 53
_journal_name_full 'J.Mol.Struct. '
loop_
_publ_author_name
"J.Oszust"
"Z.Talik"
"A.Pietraszko"
"M.K.Marchewka"
"J.Baran"
_chemical_name_systematic
;
2-Amino-4-nitropyridine
;
_cell_volume    626.956
_exptl_crystal_density_diffrn 1.474
_exptl_crystal_preparation 'aqueous solution'
_diffrn_ambient_temperature ?
_diffrn_special_details
;
The study was carried out at room temperature,in the range 283-303K

;
#These two values have been output from a single CSD field.
_refine_ls_R_factor_gt 0.0441
_refine_ls_wR_factor_gt 0.0441
_symmetry_cell_setting monoclinic
_symmetry_space_group_name_H-M 'P 21/c'
_symmetry_Int_Tables_number 14
loop_
_symmetry_equiv_pos_site_id
_symmetry_equiv_pos_as_xyz
1 x,y,z
2 -x,1/2+y,1/2-z
3 -x,-y,-z
4 x,-1/2-y,-1/2+z
_cell_length_a 6.729(1)
_cell_length_b 10.946(2)
_cell_length_c 9.060(2)
_cell_angle_alpha 90
_cell_angle_beta 110.03(3)
_cell_angle_gamma 90
_cell_formula_units_Z 4
loop_
_atom_type_symbol
_atom_type_radius_bond
C 0.68
H 0.23
N 0.68
O 0.68
loop_
_atom_site_label
_atom_site_type_symbol
_atom_site_fract_x
_atom_site_fract_y
_atom_site_fract_z
C1 C 0.2159(3) 0.1744(2) 0.1226(2)
N1 N 0.0926(3) 0.0862(2) 0.1788(2)
O1 O 0.1366(3) -0.0219(2) 0.1796(2)
O2 O -0.0457(3) 0.1252(2) 0.2222(2)
C2 C 0.3659(4) 0.1308(2) 0.0653(3)
C3 C 0.4727(4) 0.2168(2) 0.0142(3)
N2 N 0.4439(3) 0.3361(2) 0.0195(2)
C4 C 0.2984(3) 0.3753(2) 0.0778(2)
N3 N 0.2721(3) 0.4960(2) 0.0818(3)
C5 C 0.1765(3) 0.2940(2) 0.1305(2)
H1 H 0.3922(38) 0.0418(24) 0.0584(28)
H2 H 0.5776(35) 0.1969(21) -0.0295(26)
H3 H 0.1929(40) 0.5228(23) 0.1238(30)
H4 H 0.3616(38) 0.5501(22) 0.0561(29)
H5 H 0.0721(31) 0.3219(20) 0.1677(23)
#END
