
#######################################################################
#
#                 Cambridge Crystallographic Data Centre
#                                CCDC
#
#######################################################################
#
# If this CIF has been generated from an entry in the Cambridge
# Structural Database, then it will include bibliographic, chemical,
# crystal, experimental, refinement or atomic coordinate data resulting
# from the CCDC's data processing and validation procedures.
#
#######################################################################

data_CSD_CIF_SEHJUN
_audit_creation_date 2017-10-30
_audit_creation_method CSD-ConQuest-V1
_database_code_CSD SEHJUN
_database_code_depnum_ccdc_archive 'CCDC 1551036'
_chemical_formula_sum 'C16 H15 N3 O4'
_chemical_formula_moiety
;
C16 H15 N3 O4
;
_journal_coden_Cambridge 35
_journal_volume 82
_journal_year 2017
_journal_page_first 10875
_journal_name_full 'J.Org.Chem. '
loop_
_publ_author_name
"J.S.Zhu"
"Jung-Ho Son"
"A.P.Teuthorn"
"M.J.Haddadin"
"M.J.Kurth"
"D.J.Tantillo"
_chemical_name_systematic
;
2-[(4,5-dimethoxy-2-nitrophenyl)methyl]-1H-benzimidazole
;
_cell_volume   6135.126
_exptl_crystal_colour 'brown'
_exptl_crystal_density_diffrn 1.357
_exptl_crystal_description 'block'
_diffrn_ambient_temperature 93
#These two values have been output from a single CSD field.
_refine_ls_R_factor_gt 0.0395
_refine_ls_wR_factor_gt 0.0395
_symmetry_cell_setting orthorhombic
_symmetry_space_group_name_H-M 'F d d 2'
_symmetry_Int_Tables_number 43
loop_
_symmetry_equiv_pos_site_id
_symmetry_equiv_pos_as_xyz
1 x,y,z
2 -x,-y,z
3 1/4+x,1/4-y,1/4+z
4 1/4-x,1/4+y,1/4+z
5 x,1/2+y,1/2+z
6 -x,1/2-y,1/2+z
7 1/4+x,3/4-y,3/4+z
8 1/4-x,3/4+y,3/4+z
9 1/2+x,y,1/2+z
10 1/2-x,-y,1/2+z
11 3/4+x,1/4-y,3/4+z
12 3/4-x,1/4+y,3/4+z
13 1/2+x,1/2+y,z
14 1/2-x,1/2-y,z
15 3/4+x,3/4-y,1/4+z
16 3/4-x,3/4+y,1/4+z
_cell_length_a 36.553(5)
_cell_length_b 10.5914(15)
_cell_length_c 15.847(2)
_cell_angle_alpha 90
_cell_angle_beta 90
_cell_angle_gamma 90
_cell_formula_units_Z 16
loop_
_atom_type_symbol
_atom_type_radius_bond
C 0.68
H 0.23
N 0.68
O 0.68
loop_
_atom_site_label
_atom_site_type_symbol
_atom_site_fract_x
_atom_site_fract_y
_atom_site_fract_z
C1 C 0.45113(6) 0.5657(2) 0.47630(14)
C2 C 0.46671(7) 0.6118(2) 0.40190(17)
H1 H 0.48630 0.67060 0.40440
C3 C 0.45360(7) 0.5716(2) 0.32502(16)
C4 C 0.42574(8) 0.4792(2) 0.32344(16)
C5 C 0.41081(6) 0.4352(2) 0.39808(16)
H2 H 0.39210 0.37320 0.39590
C6 C 0.42256(6) 0.4795(2) 0.47688(14)
C7 C 0.40377(7) 0.4272(2) 0.55493(16)
H3 H 0.39160 0.34660 0.54030
H4 H 0.42250 0.40910 0.59850
C8 C 0.37587(6) 0.5161(2) 0.59094(14)
C9 C 0.33990(7) 0.6020(2) 0.68581(16)
C10 C 0.32103(7) 0.6414(3) 0.75762(18)
H5 H 0.32380 0.59950 0.81030
C11 C 0.29805(8) 0.7445(3) 0.7485(2)
H6 H 0.28510 0.77500 0.79630
C12 C 0.29348(8) 0.8049(3) 0.6704(2)
H7 H 0.27740 0.87530 0.66660
C13 C 0.31172(8) 0.7647(3) 0.5989(2)
H8 H 0.30820 0.80520 0.54600
C14 C 0.33559(7) 0.6619(2) 0.60744(17)
C15 C 0.49223(10) 0.7103(3) 0.2485(2)
H9 H 0.48250 0.78360 0.27880
H10 H 0.49790 0.73430 0.19020
H11 H 0.51460 0.68100 0.27650
C16 C 0.39042(12) 0.3374(3) 0.2406(2)
H12 H 0.40010 0.26600 0.27300
H13 H 0.38720 0.31220 0.18160
H14 H 0.36680 0.36310 0.26410
H15 H 0.3745(8) 0.454(3) 0.710(2)
N1 N 0.46704(6) 0.6138(2) 0.55442(13)
N2 N 0.36573(5) 0.50929(19) 0.67264(12)
N3 N 0.35852(6) 0.6052(2) 0.54836(14)
O1 O 0.49827(5) 0.6563(2) 0.55167(14)
O2 O 0.44868(6) 0.61041(19) 0.61934(11)
O3 O 0.46558(7) 0.6111(2) 0.24855(13)
O4 O 0.41555(6) 0.4411(2) 0.24520(11)
#END
