
#######################################################################
#
#                 Cambridge Crystallographic Data Centre
#                                CCDC
#
#######################################################################
#
# If this CIF has been generated from an entry in the Cambridge
# Structural Database, then it will include bibliographic, chemical,
# crystal, experimental, refinement or atomic coordinate data resulting
# from the CCDC's data processing and validation procedures.
#
#######################################################################

data_CSD_CIF_SEHKAU
_audit_creation_date 2017-10-30
_audit_creation_method CSD-ConQuest-V1
_database_code_CSD SEHKAU
_database_code_depnum_ccdc_archive 'CCDC 1551037'
_chemical_formula_sum 'C14 H9 N3 O1'
_chemical_formula_moiety
;
C14 H9 N3 O1
;
_journal_coden_Cambridge 35
_journal_volume 82
_journal_year 2017
_journal_page_first 10875
_journal_name_full 'J.Org.Chem. '
loop_
_publ_author_name
"J.S.Zhu"
"Jung-Ho Son"
"A.P.Teuthorn"
"M.J.Haddadin"
"M.J.Kurth"
"D.J.Tantillo"
_chemical_name_systematic
;
3-(1H-benzimidazol-2-yl)-2,1-benzoxazole
;
_chemical_name_common
;
3-(1H-benzo[d]imidazol- 2-yl)benzo[c]isoxazole
;
_cell_volume   2146.620
_exptl_crystal_colour 'yellow'
_exptl_crystal_density_diffrn 1.456
_exptl_crystal_description 'prism'
_diffrn_ambient_temperature 88
#These two values have been output from a single CSD field.
_refine_ls_R_factor_gt 0.0407
_refine_ls_wR_factor_gt 0.0407
_symmetry_cell_setting monoclinic
_symmetry_space_group_name_H-M 'C 2/c'
_symmetry_Int_Tables_number 15
loop_
_symmetry_equiv_pos_site_id
_symmetry_equiv_pos_as_xyz
1 x,y,z
2 -x,y,1/2-z
3 1/2+x,1/2+y,z
4 1/2-x,1/2+y,1/2-z
5 -x,-y,-z
6 x,-y,-1/2+z
7 -1/2-x,-1/2-y,-z
8 -1/2+x,-1/2-y,-1/2+z
_cell_length_a 28.443(9)
_cell_length_b 5.5707(14)
_cell_length_c 15.837(8)
_cell_angle_alpha 90
_cell_angle_beta 121.19(2)
_cell_angle_gamma 90
_cell_formula_units_Z 8
loop_
_atom_type_symbol
_atom_type_radius_bond
C 0.68
H 0.23
N 0.68
O 0.68
loop_
_atom_site_label
_atom_site_type_symbol
_atom_site_fract_x
_atom_site_fract_y
_atom_site_fract_z
C1 C 0.60911(6) 0.7381(3) 0.50213(10)
C2 C 0.63448(6) 0.9209(3) 0.47676(10)
H1 H 0.61330 1.03520 0.42660
C3 C 0.69041(7) 0.9251(3) 0.5274(1)
H2 H 0.70840 1.04490 0.51170
C4 C 0.72311(6) 0.7548(3) 0.60372(10)
H3 H 0.76200 0.76670 0.63760
C5 C 0.69980(6) 0.5770(3) 0.62872(10)
H4 H 0.72170 0.46510 0.67930
C6 C 0.64174(6) 0.5646(3) 0.57676(10)
C7 C 0.60342(6) 0.4201(3) 0.5794(1)
C8 C 0.60578(6) 0.2141(3) 0.63678(10)
C9 C 0.63508(6) -0.0775(3) 0.73893(10)
C10 C 0.66586(6) -0.2522(3) 0.80995(10)
H5 H 0.70480 -0.25490 0.84240
C11 C 0.63797(7) -0.4201(3) 0.83141(10)
H6 H 0.65820 -0.53880 0.88010
C12 C 0.58029(7) -0.4197(3) 0.78291(10)
H7 H 0.56240 -0.53950 0.79900
C13 C 0.54891(6) -0.2493(3) 0.71241(10)
H8 H 0.50990 -0.24890 0.67960
C14 C 0.57737(6) -0.0788(3) 0.6921(1)
H9 H 0.5245(8) 0.166(3) 0.5909(13)
N1 N 0.55548(5) 0.7010(2) 0.46274(9)
N2 N 0.55965(5) 0.1105(2) 0.62657(8)
N3 N 0.65219(5) 0.1075(2) 0.70263(8)
O1 O 0.55238(4) 0.49701(19) 0.51207(7)
#END
