
#######################################################################
#
#                 Cambridge Crystallographic Data Centre
#                                CCDC
#
#######################################################################
#
# If this CIF has been generated from an entry in the Cambridge
# Structural Database, then it will include bibliographic, chemical,
# crystal, experimental, refinement or atomic coordinate data resulting
# from the CCDC's data processing and validation procedures.
#
#######################################################################

data_CSD_CIF_SEHYIP
_audit_creation_date 2013-02-22
_audit_creation_method CSD-ConQuest-V1
_database_code_CSD SEHYIP
_database_code_depnum_ccdc_archive 'CCDC 896683'
_chemical_formula_sum 'C17 H17 N1 O4'
_chemical_formula_moiety
;
C17 H17 N1 O4
;
_journal_coden_Cambridge 1475
_journal_volume 3
_journal_year 2012
_journal_page_first 3436
_journal_name_full 'Chemical Science '
loop_
_publ_author_name
"R.T.McBurney"
"A.D.Harper"
"A.M.Z.Slawin"
"J.C.Walton"
_chemical_name_systematic
;
(Benzyloxy)(((1-(4-methoxyphenyl)ethylidene)amino)oxy)methanone
;
_cell_volume   1521.804
_exptl_crystal_colour 'colorless'
_exptl_crystal_density_diffrn 1.306
_exptl_crystal_description 'prism'
_diffrn_ambient_temperature 173
#These two values have been output from a single CSD field.
_refine_ls_R_factor_gt 0.1086
_refine_ls_wR_factor_gt 0.1086
_symmetry_cell_setting monoclinic
_symmetry_space_group_name_H-M 'P 21/n'
_symmetry_Int_Tables_number 14
loop_
_symmetry_equiv_pos_site_id
_symmetry_equiv_pos_as_xyz
1 x,y,z
2 1/2-x,1/2+y,1/2-z
3 -x,-y,-z
4 -1/2+x,-1/2-y,-1/2+z
_cell_length_a 11.892(3)
_cell_length_b 7.5168(13)
_cell_length_c 17.092(4)
_cell_angle_alpha 90
_cell_angle_beta 95.099(8)
_cell_angle_gamma 90
_cell_formula_units_Z 4
loop_
_atom_type_symbol
_atom_type_radius_bond
C 0.68
H 0.23
N 0.68
O 0.68
loop_
_atom_site_label
_atom_site_type_symbol
_atom_site_fract_x
_atom_site_fract_y
_atom_site_fract_z
O1 O 0.9085(4) 0.0668(6) 0.0504(3)
O2 O 0.8914(3) 0.1688(5) 0.4931(2)
O3 O 1.0578(4) 0.3173(6) 0.5183(3)
O4 O 0.9254(3) 0.2969(5) 0.6041(2)
N1 N 0.9193(4) 0.1543(6) 0.4135(3)
C1 C 0.8645(5) 0.0425(7) 0.2889(3)
C2 C 0.7826(5) -0.0265(7) 0.2344(4)
C3 C 0.7942(5) -0.0231(7) 0.1548(4)
C4 C 0.8896(5) 0.0510(7) 0.1273(3)
C5 C 0.9743(5) 0.1179(8) 0.1813(4)
C6 C 0.9622(5) 0.1116(7) 0.2601(4)
C7 C 0.8471(5) 0.0544(7) 0.3738(3)
C8 C 0.9693(5) 0.2681(7) 0.5367(3)
C9 C 0.9939(5) 0.4083(8) 0.6592(4)
C10 C 0.9296(5) 0.4369(7) 0.7296(3)
C11 C 0.9685(6) 0.3650(8) 0.8013(4)
C12 C 0.9090(7) 0.3908(10) 0.8664(4)
C13 C 0.8095(7) 0.4865(11) 0.8592(5)
C14 C 0.7710(6) 0.5571(9) 0.7881(5)
C15 C 0.8305(5) 0.5324(8) 0.7238(4)
C16 C 0.8273(5) -0.0096(10) -0.0064(4)
C17 C 0.7503(6) -0.0338(9) 0.4070(4)
H1 H 0.71650 -0.07770 0.25240
H2 H 0.73660 -0.07160 0.11890
H3 H 1.04060 0.16790 0.16320
H4 H 1.02140 0.15490 0.29600
H5 H 1.00940 0.52380 0.63450
H6 H 1.06680 0.34920 0.67490
H7 H 1.03630 0.29760 0.80600
H8 H 0.93650 0.34280 0.91590
H9 H 0.76780 0.50320 0.90360
H10 H 0.70280 0.62360 0.78320
H11 H 0.80300 0.58180 0.67470
H12 H 0.84750 0.01900 -0.05930
H13 H 0.75240 0.03880 0.00070
H14 H 0.82630 -0.13910 0.00040
H15 H 0.70140 0.05650 0.42760
H16 H 0.77840 -0.11400 0.44950
H17 H 0.70720 -0.10220 0.36570
#END
