
#######################################################################
#
#                 Cambridge Crystallographic Data Centre
#                                CCDC
#
#######################################################################
#
# If this CIF has been generated from an entry in the Cambridge
# Structural Database, then it will include bibliographic, chemical,
# crystal, experimental, refinement or atomic coordinate data resulting
# from the CCDC's data processing and validation procedures.
#
#######################################################################

data_CSD_CIF_SEJCIU
_audit_creation_date 2006-10-10
_audit_creation_method CSD-ConQuest-V1
_database_code_CSD SEJCIU
_database_code_depnum_ccdc_archive 'CCDC 261169'
_chemical_formula_sum 'C13 H14 N2 O2'
_chemical_formula_moiety
;
C13 H14 N2 O2
;
_journal_coden_Cambridge 35
_journal_volume 71
_journal_year 2006
_journal_page_first 3221
_journal_name_full 'J.Org.Chem. '
loop_
_publ_author_name
"C.K.Y.Lee"
"A.J.Herlt"
"G.W.Simpson"
"A.C.Willis"
"C.J.Easton"
_chemical_name_systematic
;
3-(2,4,6-Trimethylphenyl)isoxazole-4-carboxamide
;
_chemical_melting_point 468.15
_cell_volume   1219.686
_exptl_crystal_colour 'colorless'
_exptl_crystal_density_diffrn 1.254
_exptl_special_details
;
Melting point range 468.15-473.15K

;
_exptl_crystal_description 'rod'
_exptl_crystal_preparation 'acetone/hexanes'
_diffrn_ambient_temperature 200.0
#These two values have been output from a single CSD field.
_refine_ls_R_factor_gt 0.041
_refine_ls_wR_factor_gt 0.041
_symmetry_cell_setting orthorhombic
_symmetry_space_group_name_H-M 'P 21 21 21'
_symmetry_Int_Tables_number 19
loop_
_symmetry_equiv_pos_site_id
_symmetry_equiv_pos_as_xyz
1 x,y,z
2 1/2-x,-y,1/2+z
3 1/2+x,1/2-y,-z
4 -x,1/2+y,1/2-z
_cell_length_a 7.7972(1)
_cell_length_b 8.4637(1)
_cell_length_c 18.4820(4)
_cell_angle_alpha 90
_cell_angle_beta 90
_cell_angle_gamma 90
_cell_formula_units_Z 4
loop_
_atom_type_symbol
_atom_type_radius_bond
C 0.68
H 0.23
N 0.68
O 0.68
loop_
_atom_site_label
_atom_site_type_symbol
_atom_site_fract_x
_atom_site_fract_y
_atom_site_fract_z
O1 O 0.0875(2) 0.5154(2) 0.3500(1)
O2 O 0.4062(3) 0.2508(2) 0.4859(1)
N1 N 0.2090(3) 0.6341(3) 0.3304(1)
N2 N 0.6203(3) 0.3985(3) 0.4416(2)
C1 C 0.3515(3) 0.5942(3) 0.3617(1)
C2 C 0.3325(3) 0.4495(3) 0.4020(2)
C3 C 0.1674(4) 0.4102(3) 0.3923(2)
C4 C 0.5044(3) 0.6983(3) 0.3564(1)
C5 C 0.6251(4) 0.6754(3) 0.3017(2)
C6 C 0.7688(4) 0.7737(3) 0.3001(2)
C7 C 0.7909(4) 0.8946(3) 0.3503(2)
C8 C 0.6693(4) 0.9144(3) 0.4035(1)
C9 C 0.5257(4) 0.8173(3) 0.4084(1)
C10 C 0.4557(4) 0.3584(3) 0.4464(2)
C11 C 0.6025(4) 0.5496(4) 0.2452(2)
C12 C 0.9457(5) 1.0014(3) 0.3467(2)
C13 C 0.3989(4) 0.8408(4) 0.4681(2)
H1 H 0.658(4) 0.485(4) 0.411(2)
H2 H 0.704(4) 0.353(4) 0.468(2)
H3 H 0.094(4) 0.322(3) 0.405(2)
H4 H 0.85350 0.75770 0.26400
H5 H 0.68380 0.99670 0.43790
H6 H 0.48370 0.53400 0.23630
H7 H 0.65210 0.45370 0.26180
H8 H 0.65750 0.58160 0.20170
H9 H 1.03640 0.94840 0.32240
H10 H 0.91700 1.09500 0.32100
H11 H 0.98100 1.02810 0.39430
H12 H 0.42890 0.93230 0.49510
H13 H 0.28750 0.85400 0.44810
H14 H 0.39970 0.75120 0.49900
#END
