
#######################################################################
#
#                 Cambridge Crystallographic Data Centre
#                                CCDC
#
#######################################################################
#
# If this CIF has been generated from an entry in the Cambridge
# Structural Database, then it will include bibliographic, chemical,
# crystal, experimental, refinement or atomic coordinate data resulting
# from the CCDC's data processing and validation procedures.
#
#######################################################################

data_CSD_CIF_SEJCEQ
_audit_creation_date 2006-10-10
_audit_creation_method CSD-ConQuest-V1
_database_code_CSD SEJCEQ
_database_code_depnum_ccdc_archive 'CCDC 261168'
_chemical_formula_sum 'C25 H27 N1 O3'
_chemical_formula_moiety
;
C25 H27 N1 O3
;
_journal_coden_Cambridge 35
_journal_volume 71
_journal_year 2006
_journal_page_first 3221
_journal_name_full 'J.Org.Chem. '
loop_
_publ_author_name
"C.K.Y.Lee"
"A.J.Herlt"
"G.W.Simpson"
"A.C.Willis"
"C.J.Easton"
_chemical_name_systematic
;
(-)-(1R,2S)-2-Phenylcyclohexyl 
3-(2,4,6-trimethylphenyl)isoxazole-4-carboxylate
;
_chemical_melting_point 392.15
_cell_volume   2170.202
_exptl_crystal_colour 'colorless'
_exptl_crystal_density_diffrn 1.192
_exptl_special_details
;
Melting point range 392.15-394.15K

;
_exptl_crystal_description 'plate'
_exptl_crystal_preparation 'hexanes/diethyl ether'
_diffrn_ambient_temperature 200.0
#These two values have been output from a single CSD field.
_refine_ls_R_factor_gt 0.0393
_refine_ls_wR_factor_gt 0.0393
_symmetry_cell_setting orthorhombic
_symmetry_space_group_name_H-M 'P 21 21 21'
_symmetry_Int_Tables_number 19
loop_
_symmetry_equiv_pos_site_id
_symmetry_equiv_pos_as_xyz
1 x,y,z
2 1/2-x,-y,1/2+z
3 1/2+x,1/2-y,-z
4 -x,1/2+y,1/2-z
_cell_length_a 7.5610(2)
_cell_length_b 16.2981(4)
_cell_length_c 17.6110(5)
_cell_angle_alpha 90
_cell_angle_beta 90
_cell_angle_gamma 90
_cell_formula_units_Z 4
loop_
_atom_type_symbol
_atom_type_radius_bond
C 0.68
H 0.23
N 0.68
O 0.68
loop_
_atom_site_label
_atom_site_type_symbol
_atom_site_fract_x
_atom_site_fract_y
_atom_site_fract_z
O1 O 1.2414(3) 0.7066(1) 0.6936(1)
O2 O 0.9084(3) 0.6774(1) 0.5031(1)
O3 O 0.7870(3) 0.5797(1) 0.5779(1)
N1 N 1.1489(4) 0.6515(2) 0.7431(2)
C1 C 1.0194(4) 0.6220(2) 0.7023(2)
C2 C 1.0191(4) 0.6555(2) 0.6270(2)
C3 C 1.1592(4) 0.7072(2) 0.6267(2)
C4 C 0.8928(4) 0.5631(2) 0.7366(2)
C5 C 0.9356(4) 0.4795(2) 0.7376(2)
C6 C 0.8129(5) 0.4255(2) 0.7665(2)
C7 C 0.6480(5) 0.4502(2) 0.7915(2)
C8 C 0.6095(5) 0.5335(2) 0.7890(2)
C9 C 0.7294(4) 0.5906(2) 0.7627(2)
C10 C 0.9014(4) 0.6402(2) 0.5627(2)
C11 C 0.6563(4) 0.5607(2) 0.5192(2)
C12 C 0.5906(4) 0.4737(2) 0.5347(2)
C13 C 0.4499(4) 0.4529(2) 0.4753(2)
C14 C 0.2992(4) 0.5149(2) 0.4731(2)
C15 C 0.3699(4) 0.6019(2) 0.4619(2)
C16 C 0.5073(4) 0.6220(2) 0.5221(2)
C17 C 1.1041(5) 0.4483(2) 0.7039(2)
C18 C 0.5135(5) 0.3885(2) 0.8194(2)
C19 C 0.6845(5) 0.6807(2) 0.7616(2)
C20 C 0.7335(4) 0.4090(2) 0.5371(2)
C21 C 0.8653(4) 0.4050(2) 0.4825(2)
C22 C 0.9918(4) 0.3438(2) 0.4834(2)
C23 C 0.9904(5) 0.2856(2) 0.5394(2)
C24 C 0.8606(5) 0.2876(2) 0.5937(2)
C25 C 0.7330(4) 0.3491(2) 0.5927(2)
H1 H 1.19430 0.73950 0.58440
H2 H 0.49680 0.55170 0.80590
H3 H 0.84270 0.36890 0.76950
H4 H 0.71110 0.56260 0.47070
H5 H 0.45340 0.62010 0.57080
H6 H 0.55300 0.67540 0.51320
H7 H 0.27480 0.63980 0.46560
H8 H 0.42250 0.60610 0.41300
H9 H 0.23590 0.51240 0.51960
H10 H 0.22210 0.50160 0.43230
H11 H 0.40220 0.40040 0.48670
H12 H 0.50450 0.45150 0.42670
H13 H 0.53420 0.47410 0.58290
H14 H 0.86880 0.44530 0.44350
H15 H 1.08010 0.34210 0.44510
H16 H 1.07870 0.24410 0.54060
H17 H 0.85770 0.24680 0.63220
H18 H 0.64410 0.34990 0.63090
H19 H 1.19830 0.48410 0.71730
H20 H 1.09320 0.44620 0.65020
H21 H 1.12780 0.39490 0.72290
H22 H 0.57710 0.68950 0.78830
H23 H 0.67150 0.69850 0.71060
H24 H 0.77690 0.71090 0.78530
H25 H 0.40040 0.41370 0.82180
H26 H 0.54640 0.36970 0.86840
H27 H 0.50930 0.34330 0.78530
#END
