
#######################################################################
#
#                 Cambridge Crystallographic Data Centre
#                                CCDC
#
#######################################################################
#
# If this CIF has been generated from an entry in the Cambridge
# Structural Database, then it will include bibliographic, chemical,
# crystal, experimental, refinement or atomic coordinate data resulting
# from the CCDC's data processing and validation procedures.
#
#######################################################################

data_CSD_CIF_SEJCAM
_audit_creation_date 2006-10-10
_audit_creation_method CSD-ConQuest-V1
_database_code_CSD SEJCAM
_database_code_depnum_ccdc_archive 'CCDC 261167'
_chemical_formula_sum 'C15 H17 N1 O3'
_chemical_formula_moiety
;
C15 H17 N1 O3
;
_journal_coden_Cambridge 35
_journal_volume 71
_journal_year 2006
_journal_page_first 3221
_journal_name_full 'J.Org.Chem. '
loop_
_publ_author_name
"C.K.Y.Lee"
"A.J.Herlt"
"G.W.Simpson"
"A.C.Willis"
"C.J.Easton"
_chemical_name_systematic
;
Methyl 5-methyl-3-(2,4,6-trimethylphenyl)isoxazole-4-carboxylate
;
_chemical_melting_point 349.15
_cell_volume   1409.949
_exptl_crystal_colour 'colorless'
_exptl_crystal_density_diffrn 1.221
_exptl_special_details
;
Melting point range 349.15-351.15K

;
_exptl_crystal_description 'block'
_exptl_crystal_preparation 'diethyl ether/hexanes'
_diffrn_ambient_temperature 200.0
#These two values have been output from a single CSD field.
_refine_ls_R_factor_gt 0.0416
_refine_ls_wR_factor_gt 0.0416
_symmetry_cell_setting orthorhombic
_symmetry_space_group_name_H-M 'P 21 21 21'
_symmetry_Int_Tables_number 19
loop_
_symmetry_equiv_pos_site_id
_symmetry_equiv_pos_as_xyz
1 x,y,z
2 1/2-x,-y,1/2+z
3 1/2+x,1/2-y,-z
4 -x,1/2+y,1/2-z
_cell_length_a 8.8777(2)
_cell_length_b 9.1491(2)
_cell_length_c 17.3590(4)
_cell_angle_alpha 90
_cell_angle_beta 90
_cell_angle_gamma 90
_cell_formula_units_Z 4
loop_
_atom_type_symbol
_atom_type_radius_bond
C 0.68
H 0.23
N 0.68
O 0.68
loop_
_atom_site_label
_atom_site_type_symbol
_atom_site_fract_x
_atom_site_fract_y
_atom_site_fract_z
O1 O 0.5923(2) 0.3557(3) 0.2047(1)
O2 O 0.7847(2) 0.6929(2) 0.0700(1)
O3 O 0.9938(2) 0.5654(2) 0.0944(1)
N1 N 0.7211(3) 0.2621(3) 0.2047(2)
C1 C 0.8236(3) 0.3330(3) 0.1656(1)
C2 C 0.7687(3) 0.4716(3) 0.1398(1)
C3 C 0.6237(3) 0.4780(3) 0.1650(2)
C4 C 0.9713(3) 0.2613(3) 0.1513(1)
C5 C 1.0958(3) 0.2945(3) 0.1973(1)
C6 C 1.2305(3) 0.2239(3) 0.1823(2)
C7 C 1.2469(3) 0.1239(3) 0.1228(2)
C8 C 1.1209(3) 0.0939(3) 0.0782(2)
C9 C 0.9827(3) 0.1592(3) 0.0910(1)
C10 C 0.8459(3) 0.5886(3) 0.0976(2)
C11 C 1.0828(4) 0.6751(4) 0.0558(2)
C12 C 0.5005(3) 0.5853(4) 0.1579(2)
C13 C 1.0847(3) 0.4049(4) 0.2613(2)
C14 C 1.3949(3) 0.0502(4) 0.1077(2)
C15 C 0.8488(3) 0.1199(3) 0.0416(2)
H1 H 1.31510 0.24470 0.21400
H2 H 1.13000 0.02590 0.03710
H3 H 0.98840 0.39790 0.28490
H4 H 1.09780 0.50030 0.24080
H5 H 1.16070 0.38600 0.29850
H6 H 1.46220 0.07000 0.14890
H7 H 1.43640 0.08620 0.06100
H8 H 1.37980 -0.05230 0.10360
H9 H 0.88230 0.09470 -0.00870
H10 H 0.79740 0.03910 0.06380
H11 H 0.78240 0.20110 0.03860
H12 H 1.18650 0.65090 0.05990
H13 H 1.05500 0.67920 0.00300
H14 H 1.06540 0.76760 0.07910
H15 H 0.54170 0.68070 0.15280
H16 H 0.43890 0.58130 0.20260
H17 H 0.44150 0.56310 0.11380
#END
