
#######################################################################
#
#                 Cambridge Crystallographic Data Centre
#                                CCDC
#
#######################################################################
#
# If this CIF has been generated from an entry in the Cambridge
# Structural Database, then it will include bibliographic, chemical,
# crystal, experimental, refinement or atomic coordinate data resulting
# from the CCDC's data processing and validation procedures.
#
#######################################################################

data_CSD_CIF_SEJDAN
_audit_creation_date 2006-10-10
_audit_creation_method CSD-ConQuest-V1
_database_code_CSD SEJDAN
_database_code_depnum_ccdc_archive 'CCDC 261172'
_chemical_formula_sum 'C13 H14 N2 O2'
_chemical_formula_moiety
;
C13 H14 N2 O2
;
_journal_coden_Cambridge 35
_journal_volume 71
_journal_year 2006
_journal_page_first 3221
_journal_name_full 'J.Org.Chem. '
loop_
_publ_author_name
"C.K.Y.Lee"
"A.J.Herlt"
"G.W.Simpson"
"A.C.Willis"
"C.J.Easton"
_chemical_name_systematic
;
3-(2,4,6-Trimethylphenyl)isoxazole-5-carboxamide
;
_chemical_melting_point 487.15
_cell_volume   1855.752
_exptl_crystal_colour 'colorless'
_exptl_crystal_density_diffrn 1.236
_exptl_special_details
;
Melting point range 487.15-488.15K

;
_exptl_crystal_description 'plate'
_exptl_crystal_preparation 'acetone/hexanes'
_diffrn_ambient_temperature 200.0
#These two values have been output from a single CSD field.
_refine_ls_R_factor_gt 0.0423
_refine_ls_wR_factor_gt 0.0423
_symmetry_cell_setting triclinic
_symmetry_space_group_name_H-M 'P -1'
_symmetry_Int_Tables_number 2
loop_
_symmetry_equiv_pos_site_id
_symmetry_equiv_pos_as_xyz
1 x,y,z
2 -x,-y,-z
_cell_length_a 8.0557(1)
_cell_length_b 12.5000(2)
_cell_length_c 19.0940(4)
_cell_angle_alpha 91.8994(7)
_cell_angle_beta 96.6238(7)
_cell_angle_gamma 103.2161(9)
_cell_formula_units_Z 6
loop_
_atom_type_symbol
_atom_type_radius_bond
C 0.68
H 0.23
N 0.68
O 0.68
loop_
_atom_site_label
_atom_site_type_symbol
_atom_site_fract_x
_atom_site_fract_y
_atom_site_fract_z
O1 O 0.2151(2) 0.8152(1) 0.37809(9)
O2 O 0.7914(2) 0.6797(1) 0.34650(9)
O3 O 1.0072(3) 0.3558(1) 0.2191(1)
O4 O -0.0353(2) 0.8056(1) 0.51815(9)
O5 O 0.4309(2) 0.5974(1) 0.43923(9)
O6 O 0.9531(2) 0.4411(1) 0.39178(9)
N1 N 0.2817(3) 0.9028(2) 0.3371(1)
N2 N 0.8225(3) 0.7594(2) 0.2952(1)
N3 N 1.0041(3) 0.4088(2) 0.1551(1)
N4 N 0.1043(3) 0.6809(2) 0.4802(1)
N5 N 0.6813(3) 0.5424(2) 0.4475(1)
N6 N 1.0384(3) 0.2928(2) 0.3508(1)
C1 C 0.2360(3) 0.9890(2) 0.3628(1)
C2 C 0.1400(3) 0.9612(2) 0.4201(1)
C3 C 0.1322(3) 0.8542(2) 0.4273(1)
C4 C 0.6856(3) 0.7993(2) 0.2871(1)
C5 C 0.5632(3) 0.7488(2) 0.3307(1)
C6 C 0.6341(3) 0.6764(2) 0.3660(1)
C7 C 0.9778(3) 0.5063(2) 0.1705(1)
C8 C 0.9640(3) 0.5197(2) 0.2432(1)
C9 C 0.9841(3) 0.4259(2) 0.2708(1)
C10 C 0.2934(3) 1.0968(2) 0.3323(1)
C11 C 0.4012(3) 1.1830(2) 0.3764(1)
C12 C 0.4600(4) 1.2835(2) 0.3474(2)
C13 C 0.4136(4) 1.3007(2) 0.2775(2)
C14 C 0.3055(4) 1.2146(2) 0.2358(1)
C15 C 0.2450(3) 1.1116(2) 0.2616(1)
C16 C 0.0593(3) 0.7774(2) 0.4785(1)
C17 C 0.6736(3) 0.8881(2) 0.2384(1)
C18 C 0.6850(3) 0.9948(2) 0.2669(1)
C19 C 0.6639(4) 1.0762(2) 0.2219(2)
C20 C 0.6319(4) 1.0557(3) 0.1496(2)
C21 C 0.6238(4) 0.9503(3) 0.1223(2)
C22 C 0.6432(3) 0.8652(2) 0.1657(2)
C23 C 0.5743(3) 0.6014(2) 0.4206(1)
C24 C 0.9705(3) 0.5856(2) 0.1148(1)
C25 C 1.0816(3) 0.6904(2) 0.1255(1)
C26 C 1.0743(4) 0.7657(2) 0.0743(1)
C27 C 0.9595(4) 0.7411(2) 0.0132(1)
C28 C 0.8521(4) 0.6365(2) 0.0035(1)
C29 C 0.8553(3) 0.5583(2) 0.0528(1)
C30 C 0.9902(3) 0.3870(2) 0.3429(1)
C31 C 0.4549(4) 1.1696(2) 0.4532(2)
C32 C 0.4739(4) 1.4115(2) 0.2474(2)
C33 C 0.1315(4) 1.0207(2) 0.2122(1)
C34 C 0.7218(3) 1.0216(2) 0.3451(2)
C35 C 0.6069(5) 1.1462(3) 0.1015(2)
C36 C 0.6307(4) 0.7515(3) 0.1333(2)
C37 C 1.2067(4) 0.7245(2) 0.1918(1)
C38 C 0.9510(4) 0.8244(2) -0.0418(2)
C39 C 0.7326(4) 0.4461(2) 0.0385(2)
H1 H 0.072(3) 0.636(2) 0.517(1)
H2 H 0.171(3) 0.666(2) 0.453(1)
H3 H 0.649(3) 0.499(2) 0.483(1)
H4 H 0.780(3) 0.543(2) 0.428(1)
H5 H 1.042(3) 0.267(2) 0.398(1)
H6 H 1.068(3) 0.260(2) 0.314(1)
H7 H 0.095(3) 1.010(2) 0.448(1)
H8 H 0.456(3) 0.762(2) 0.334(1)
H9 H 0.946(3) 0.578(2) 0.268(1)
H10 H 0.53450 1.34200 0.37660
H11 H 0.27120 1.22570 0.18780
H12 H 0.35840 1.16310 0.47850
H13 H 0.54180 1.23210 0.47210
H14 H 0.49830 1.10530 0.45760
H15 H 0.41820 1.46310 0.26640
H16 H 0.59480 1.43670 0.25930
H17 H 0.44670 1.40450 0.19740
H18 H 0.04880 1.04930 0.18380
H19 H 0.19970 0.99150 0.18270
H20 H 0.07420 0.96400 0.23890
H21 H 0.67170 1.14840 0.24120
H22 H 0.60450 0.93550 0.07250
H23 H 0.82920 1.00660 0.36230
H24 H 0.63350 0.97770 0.36790
H25 H 0.72610 1.09720 0.35480
H26 H 0.60000 1.20940 0.12900
H27 H 0.50360 1.12140 0.07000
H28 H 0.70130 1.16470 0.07500
H29 H 0.57850 0.74610 0.08570
H30 H 0.56290 0.69830 0.15920
H31 H 0.74250 0.73840 0.13460
H32 H 1.15060 0.83640 0.08150
H33 H 0.77350 0.61790 -0.03850
H34 H 1.26120 0.66640 0.20350
H35 H 1.14690 0.74020 0.22950
H36 H 1.29110 0.78830 0.18420
H37 H 1.03650 0.89000 -0.02780
H38 H 0.84070 0.84060 -0.04630
H39 H 0.97030 0.79520 -0.08590
H40 H 0.64990 0.44800 -0.00090
H41 H 0.79500 0.39260 0.02870
H42 H 0.67570 0.42730 0.07890
#END
