
#######################################################################
#
#                 Cambridge Crystallographic Data Centre
#                                CCDC
#
#######################################################################
#
# If this CIF has been generated from an entry in the Cambridge
# Structural Database, then it will include bibliographic, chemical,
# crystal, experimental, refinement or atomic coordinate data resulting
# from the CCDC's data processing and validation procedures.
#
#######################################################################

data_CSD_CIF_SEJDER
_audit_creation_date 2006-10-10
_audit_creation_method CSD-ConQuest-V1
_database_code_CSD SEJDER
_database_code_depnum_ccdc_archive 'CCDC 261173'
_chemical_formula_sum 'C24 H31 N1 O3'
_chemical_formula_moiety
;
C24 H31 N1 O3
;
_journal_coden_Cambridge 35
_journal_volume 71
_journal_year 2006
_journal_page_first 3221
_journal_name_full 'J.Org.Chem. '
loop_
_publ_author_name
"C.K.Y.Lee"
"A.J.Herlt"
"G.W.Simpson"
"A.C.Willis"
"C.J.Easton"
_chemical_name_systematic
;
Methyl 
trans-5-(adamant-1-yl)-3-(2,4,6-trimethylphenyl)-\D^2^-isoxazoline-4-carboxyla
te
;
_chemical_melting_point 355.15
_cell_volume   1029.366
_exptl_crystal_colour 'colorless'
_exptl_crystal_density_diffrn 1.231
_exptl_special_details
;
Melting point range 355.15-357.15K

;
_exptl_crystal_description 'plate'
_exptl_crystal_preparation 'hexanes/diethyl ether'
_diffrn_ambient_temperature 200.0
#These two values have been output from a single CSD field.
_refine_ls_R_factor_gt 0.0399
_refine_ls_wR_factor_gt 0.0399
_symmetry_cell_setting triclinic
_symmetry_space_group_name_H-M 'P -1'
_symmetry_Int_Tables_number 2
loop_
_symmetry_equiv_pos_site_id
_symmetry_equiv_pos_as_xyz
1 x,y,z
2 -x,-y,-z
_cell_length_a 6.4005(2)
_cell_length_b 9.6092(3)
_cell_length_c 16.9445(7)
_cell_angle_alpha 97.810(1)
_cell_angle_beta 93.968(1)
_cell_angle_gamma 91.459(3)
_cell_formula_units_Z 2
loop_
_atom_type_symbol
_atom_type_radius_bond
C 0.68
H 0.23
N 0.68
O 0.68
loop_
_atom_site_label
_atom_site_type_symbol
_atom_site_fract_x
_atom_site_fract_y
_atom_site_fract_z
O1 O 0.5240(2) 0.1014(2) 0.7297(1)
O2 O 0.8699(2) 0.0844(2) 0.91517(9)
O3 O 1.1796(2) 0.1130(2) 0.86452(8)
N1 N 0.5984(3) 0.2422(2) 0.7464(1)
C1 C 0.7922(3) 0.2469(2) 0.7715(1)
C2 C 0.8823(3) 0.1044(2) 0.7756(1)
C3 C 0.6907(3) 0.0072(2) 0.7484(1)
C4 C 0.9123(3) 0.3811(2) 0.7976(1)
C5 C 1.0817(3) 0.4159(2) 0.7548(1)
C6 C 1.2055(3) 0.5338(2) 0.7842(1)
C7 C 1.1672(3) 0.6195(2) 0.8537(1)
C8 C 0.9959(4) 0.5848(2) 0.8940(1)
C9 C 0.8674(3) 0.4669(2) 0.8675(1)
C10 C 0.9720(3) 0.0971(2) 0.8596(1)
C11 C 1.2875(3) 0.1243(3) 0.9431(1)
C12 C 0.7112(3) -0.1051(2) 0.6768(1)
C13 C 0.8925(3) -0.2008(2) 0.6950(1)
C14 C 0.9104(3) -0.3158(2) 0.6245(1)
C15 C 0.7069(3) -0.4055(2) 0.6104(1)
C16 C 0.5252(3) -0.3130(2) 0.5915(1)
C17 C 0.5086(3) -0.1968(2) 0.6610(1)
C18 C 0.7507(3) -0.0415(2) 0.6007(1)
C19 C 0.7671(3) -0.1576(2) 0.5307(1)
C20 C 0.9488(3) -0.2497(2) 0.5496(1)
C21 C 0.5627(3) -0.2472(2) 0.5166(1)
C22 C 1.1262(3) 0.3298(2) 0.6770(1)
C23 C 1.3042(4) 0.7482(3) 0.8841(1)
C24 C 0.6845(3) 0.4329(3) 0.9145(1)
H1 H 0.98790 0.08800 0.73900
H2 H 0.65330 -0.03790 0.79220
H3 H 1.32120 0.55690 0.75570
H4 H 0.96570 0.64370 0.94130
H5 H 0.99830 0.30600 0.64560
H6 H 1.19280 0.24640 0.68740
H7 H 1.21540 0.38290 0.64890
H8 H 1.44730 0.72450 0.88320
H9 H 1.27740 0.81880 0.85090
H10 H 1.27430 0.78230 0.93720
H11 H 0.68740 0.49690 0.96260
H12 H 0.55690 0.44070 0.88360
H13 H 0.69460 0.33980 0.92700
H14 H 1.27740 0.21710 0.96990
H15 H 1.22500 0.05940 0.97290
H16 H 1.43070 0.10370 0.93820
H17 H 0.86670 -0.24270 0.74120
H18 H 1.01980 -0.14620 0.70430
H19 H 1.02380 -0.37340 0.63600
H20 H 0.71810 -0.47760 0.56670
H21 H 0.68270 -0.44660 0.65700
H22 H 0.39850 -0.36840 0.58310
H23 H 0.48330 -0.23780 0.70760
H24 H 0.39530 -0.13950 0.64880
H25 H 0.63800 0.01650 0.58880
H26 H 0.87780 0.01350 0.60910
H27 H 0.79130 -0.11670 0.48400
H28 H 1.07510 -0.19400 0.55830
H29 H 0.96000 -0.32180 0.50590
H30 H 0.57330 -0.31920 0.47290
H31 H 0.44930 -0.18950 0.50510
#END
