
#######################################################################
#
#                 Cambridge Crystallographic Data Centre
#                                CCDC
#
#######################################################################
#
# If this CIF has been generated from an entry in the Cambridge
# Structural Database, then it will include bibliographic, chemical,
# crystal, experimental, refinement or atomic coordinate data resulting
# from the CCDC's data processing and validation procedures.
#
#######################################################################

data_CSD_CIF_SEJFIX
_audit_creation_date 2006-10-10
_audit_creation_method CSD-ConQuest-V1
_database_code_CSD SEJFIX
_database_code_depnum_ccdc_archive 'CCDC 297154'
_chemical_formula_sum 'C19 H21 N1 O4'
_chemical_formula_moiety
;
C19 H21 N1 O4
;
_journal_coden_Cambridge 4
_journal_volume 128
_journal_year 2006
_journal_page_first 5338
_journal_name_full 'J.Am.Chem.Soc. '
loop_
_publ_author_name
"Nai-Wen Tseng"
"J.Mancuso"
"M.Lautens"
_chemical_name_systematic
;
4-(Tricyclo(3.2.1.0^2,4^)octan-3-yl)-3-butenyl 4-nitrobenzoate
;
_chemical_melting_point 329.15
_cell_volume    844.065
_exptl_crystal_colour 'colorless'
_exptl_crystal_density_diffrn 1.288
_exptl_special_details
;
Melting point range 329.15-331.15K

;
_exptl_crystal_description 'needle'
_exptl_crystal_preparation 'THF/hexane'
_diffrn_ambient_temperature 150
#These two values have been output from a single CSD field.
_refine_ls_R_factor_gt 0.129
_refine_ls_wR_factor_gt 0.129
_symmetry_cell_setting triclinic
_symmetry_space_group_name_H-M 'P -1'
_symmetry_Int_Tables_number 2
loop_
_symmetry_equiv_pos_site_id
_symmetry_equiv_pos_as_xyz
1 x,y,z
2 -x,-y,-z
_cell_length_a 6.3238(9)
_cell_length_b 7.478(1)
_cell_length_c 17.941(2)
_cell_angle_alpha 94.542(8)
_cell_angle_beta 93.456(7)
_cell_angle_gamma 90.805(6)
_cell_formula_units_Z 2
loop_
_atom_type_symbol
_atom_type_radius_bond
C 0.68
H 0.23
N 0.68
O 0.68
loop_
_atom_site_label
_atom_site_type_symbol
_atom_site_fract_x
_atom_site_fract_y
_atom_site_fract_z
O1 O 0.7816(9) 0.6996(8) 0.3259(3)
O2 O 0.5547(9) 0.5673(8) 0.3981(3)
O3 O 1.4752(10) 0.9455(9) 0.6211(4)
O4 O 1.2814(10) 0.8146(9) 0.6969(3)
N1 N 1.3170(11) 0.858(1) 0.6337(4)
C1 C 0.1632(12) 0.9847(11) 0.1266(5)
H1 H 0.06550 0.88870 0.10520
C2 C 0.0788(13) 1.1330(11) 0.1772(5)
H2 H 0.03170 1.09670 0.22490
C3 C -0.0933(13) 1.2250(13) 0.1273(5)
H3 H -0.18820 1.13710 0.09960
H4 H -0.17540 1.30920 0.15710
C4 C 0.0464(14) 1.3222(13) 0.0746(5)
H5 H 0.01380 1.27850 0.02280
H6 H 0.02480 1.45070 0.07980
C5 C 0.2750(13) 1.2781(12) 0.0996(5)
H7 H 0.38530 1.35820 0.08420
C6 C 0.2974(12) 1.0779(11) 0.0752(5)
H8 H 0.28380 1.03980 0.02160
C7 C 0.3975(13) 0.9517(11) 0.1279(5)
H9 H 0.48280 1.00740 0.17120
C8 C 0.2529(13) 1.2789(12) 0.1838(5)
H10 H 0.20570 1.39300 0.20580
H11 H 0.38120 1.24330 0.21070
C9 C 0.4713(13) 0.7803(12) 0.0954(5)
H12 H 0.40200 0.73470 0.05050
C10 C 0.6258(12) 0.6832(11) 0.1228(5)
H13 H 0.66000 0.57990 0.09410
C11 C 0.7502(12) 0.7235(11) 0.1952(4)
H14 H 0.77170 0.85230 0.20410
H15 H 0.88830 0.66950 0.19220
C12 C 0.6421(13) 0.6546(12) 0.2597(4)
H16 H 0.50600 0.71090 0.26500
H17 H 0.61940 0.52580 0.25190
C13 C 0.7186(13) 0.6490(11) 0.3917(5)
C14 C 0.8789(12) 0.7068(10) 0.4546(5)
C15 C 0.8256(13) 0.6826(10) 0.5273(5)
H18 H 0.69430 0.63350 0.53610
C16 C 0.9702(13) 0.7326(11) 0.5864(5)
H19 H 0.93760 0.71870 0.63550
C17 C 1.1631(12) 0.8032(11) 0.5711(5)
C18 C 1.2192(13) 0.8269(11) 0.4997(5)
H20 H 1.35140 0.87460 0.49130
C19 C 1.0740(13) 0.7780(11) 0.4408(5)
H21 H 1.10760 0.79300 0.39190
#END
