
#######################################################################
#
#                 Cambridge Crystallographic Data Centre
#                                CCDC
#
#######################################################################
#
# If this CIF has been generated from an entry in the Cambridge
# Structural Database, then it will include bibliographic, chemical,
# crystal, experimental, refinement or atomic coordinate data resulting
# from the CCDC's data processing and validation procedures.
#
#######################################################################

data_CSD_CIF_SEJPOP
_audit_creation_date 2017-10-31
_audit_creation_method CSD-ConQuest-V1
_database_code_CSD SEJPOP
_database_code_depnum_ccdc_archive 'CCDC 1533321; not CCDC 153321 as published'
_chemical_formula_sum 'C23 H20 N2 O3'
_chemical_formula_moiety
;
C23 H20 N2 O3
;
_journal_coden_Cambridge 35
_journal_volume 82
_journal_year 2017
_journal_page_first 11084
_journal_name_full 'J.Org.Chem. '
loop_
_publ_author_name
"Li Liu"
"Shu-Hua Bai"
"Yang Li"
"Li-Xun Wang"
"Yang Hu"
"Hui-Ling Sung"
"Jian Li"
_chemical_name_systematic
;
2-(4-nitrophenyl)-3-(2,4,6-trimethylphenyl)-2,3-dihydro-1H-isoindol-1-one
;
_cell_volume   1926.986
_exptl_crystal_colour 'colorless'
_exptl_crystal_density_diffrn 1.284
_exptl_crystal_description 'block'
_diffrn_ambient_temperature 296
#These two values have been output from a single CSD field.
_refine_ls_R_factor_gt 0.0545
_refine_ls_wR_factor_gt 0.0545
_symmetry_cell_setting monoclinic
_symmetry_space_group_name_H-M 'P 21/c'
_symmetry_Int_Tables_number 14
loop_
_symmetry_equiv_pos_site_id
_symmetry_equiv_pos_as_xyz
1 x,y,z
2 -x,1/2+y,1/2-z
3 -x,-y,-z
4 x,-1/2-y,-1/2+z
_cell_length_a 8.0658(11)
_cell_length_b 22.532(3)
_cell_length_c 10.8397(14)
_cell_angle_alpha 90
_cell_angle_beta 101.994(3)
_cell_angle_gamma 90
_cell_formula_units_Z 4
loop_
_atom_type_symbol
_atom_type_radius_bond
C 0.68
H 0.23
N 0.68
O 0.68
loop_
_atom_site_label
_atom_site_type_symbol
_atom_site_fract_x
_atom_site_fract_y
_atom_site_fract_z
C1 C 0.2308(3) 0.50722(11) 0.7413(2)
C2 C 0.1843(4) 0.52728(13) 0.6178(3)
H1 H 0.21800 0.50730 0.55210
C3 C 0.0861(5) 0.57811(15) 0.5959(3)
H2 H 0.05510 0.59270 0.51410
C4 C 0.0331(5) 0.60776(14) 0.6920(3)
H3 H -0.03440 0.64140 0.67370
C5 C 0.0790(4) 0.58809(12) 0.8152(3)
H4 H 0.04540 0.60820 0.88080
C6 C 0.1773(3) 0.53719(11) 0.8367(2)
C7 C 0.2404(3) 0.50644(11) 0.9572(3)
C8 C 0.3339(3) 0.45388(11) 0.7928(2)
H5 H 0.45170 0.46130 0.78680
C9 C 0.2765(3) 0.39635(10) 0.7226(2)
C10 C 0.3756(3) 0.37337(12) 0.6406(2)
C11 C 0.3218(4) 0.32179(12) 0.5734(2)
H6 H 0.38790 0.30630 0.52030
C12 C 0.1744(4) 0.29274(11) 0.5825(2)
C13 C 0.0785(3) 0.31649(11) 0.6624(2)
H7 H -0.02100 0.29730 0.66970
C14 C 0.1243(3) 0.36769(10) 0.7321(2)
C15 C 0.0060(3) 0.39083(12) 0.8117(3)
H8 H -0.09130 0.36540 0.80220
H9 H -0.02950 0.43030 0.78500
H10 H 0.06360 0.39150 0.89860
C16 C 0.1182(5) 0.23688(14) 0.5086(3)
H11 H 0.11200 0.20490 0.56590
H12 H 0.19830 0.22710 0.45750
H13 H 0.00860 0.24310 0.45550
C17 C 0.5367(4) 0.40252(15) 0.6215(3)
H14 H 0.58790 0.37850 0.56640
H15 H 0.61380 0.40660 0.70130
H16 H 0.51100 0.44100 0.58440
C18 C 0.4012(3) 0.4128(1) 1.0158(2)
C19 C 0.3696(3) 0.41068(11) 1.1378(2)
H17 H 0.29680 0.43820 1.16230
C20 C 0.4456(4) 0.36807(12) 1.2218(2)
H18 H 0.42570 0.36720 1.30320
C21 C 0.5510(3) 0.32692(11) 1.1847(2)
C22 C 0.5831(3) 0.32701(11) 1.0641(2)
H19 H 0.65350 0.29850 1.04010
C23 C 0.5092(3) 0.36999(11) 0.9806(2)
H20 H 0.53100 0.37070 0.89970
N1 N 0.6333(3) 0.28231(11) 1.2740(2)
N2 N 0.3246(2) 0.45578(8) 0.92850(17)
O1 O 0.2248(3) 0.52177(8) 1.06187(18)
O2 O 0.7146(4) 0.24303(11) 1.2391(2)
O3 O 0.6193(4) 0.28646(13) 1.3841(2)
#END
