
#######################################################################
#
#                 Cambridge Crystallographic Data Centre
#                                CCDC
#
#######################################################################
#
# If this CIF has been generated from an entry in the Cambridge
# Structural Database, then it will include bibliographic, chemical,
# crystal, experimental, refinement or atomic coordinate data resulting
# from the CCDC's data processing and validation procedures.
#
#######################################################################

data_CSD_CIF_SEKCIX
_audit_creation_date 2017-10-31
_audit_creation_method CSD-ConQuest-V1
_database_code_CSD SEKCIX
_database_code_depnum_ccdc_archive 'CCDC 1407568'
_chemical_formula_sum 'C27 H26 N2 O7'
_chemical_formula_moiety
;
C27 H26 N2 O7
;
_journal_coden_Cambridge 1291
_journal_year 2017
_journal_page_first 3461
_journal_name_full 'Eur.J.Org.Chem. '
loop_
_publ_author_name
"P.Ramaraju"
"N.A.Mir"
"Deepika Singh"
"P.Sharma"
"R.Kant"
"I.Kumar"
_chemical_name_systematic
;
diethyl 
3,3'-(1-(4-methoxyphenyl)-5-(4-nitrophenyl)-1H-pyrrole-2,4-diyl)bisacrylate
;
_cell_volume   1279.005
_exptl_crystal_colour 'white'
_exptl_crystal_density_diffrn 1.274
_exptl_crystal_description 'block'
_diffrn_ambient_temperature 293
#These two values have been output from a single CSD field.
_refine_ls_R_factor_gt 0.0843
_refine_ls_wR_factor_gt 0.0843
_symmetry_cell_setting triclinic
_symmetry_space_group_name_H-M 'P -1'
_symmetry_Int_Tables_number 2
loop_
_symmetry_equiv_pos_site_id
_symmetry_equiv_pos_as_xyz
1 x,y,z
2 -x,-y,-z
_cell_length_a 9.3368(14)
_cell_length_b 11.6923(14)
_cell_length_c 12.0811(16)
_cell_angle_alpha 94.371(11)
_cell_angle_beta 90.721(12)
_cell_angle_gamma 103.328(12)
_cell_formula_units_Z 2
loop_
_atom_type_symbol
_atom_type_radius_bond
C 0.68
H 0.23
N 0.68
O 0.68
loop_
_atom_site_label
_atom_site_type_symbol
_atom_site_fract_x
_atom_site_fract_y
_atom_site_fract_z
N1 N 0.7551(4) 0.9989(3) 0.5375(3)
O1 O 0.9498(4) 1.5516(3) 0.3224(3)
O2 O 0.7936(4) 1.4137(3) 0.2160(3)
C1 C 0.7120(4) 0.8765(4) 0.5616(4)
C2 C 0.7453(4) 1.0429(3) 0.4364(4)
O3 O 0.5874(4) 0.5287(3) 0.6326(4)
C3 C 0.8273(4) 1.0909(4) 0.6139(4)
C4 C 0.8085(4) 1.2484(4) 0.3668(4)
H1 H 0.75670 1.22230 0.29990
C5 C 0.8796(5) 1.3599(4) 0.3810(4)
H2 H 0.93610 1.38290 0.44630
O4 O 1.0378(4) 1.2353(3) 0.9707(3)
C6 C 0.8554(5) 1.0770(4) 0.7289(4)
H3 H 0.81650 1.00410 0.75550
C7 C 0.5720(5) 0.7247(5) 0.6613(4)
H4 H 0.50390 0.70010 0.71520
C8 C 0.8795(5) 1.4511(4) 0.3057(4)
C9 C 0.8059(4) 1.1634(4) 0.4493(4)
C10 C 0.5389(5) 0.8908(4) 0.3417(4)
H5 H 0.49650 0.87600 0.41000
C11 C 0.7791(5) 0.7969(4) 0.5041(4)
H6 H 0.85000 0.82230 0.45230
C12 C 0.8554(4) 1.1913(4) 0.5593(4)
H7 H 0.90040 1.26630 0.59060
C13 C 0.6090(5) 0.8412(4) 0.6390(4)
H8 H 0.56430 0.89560 0.67630
C14 C 0.7386(5) 0.6784(4) 0.5250(4)
H9 H 0.78070 0.62330 0.48610
C15 C 0.4683(5) 0.8320(4) 0.2456(5)
H10 H 0.37750 0.77900 0.24790
C16 C 0.6728(5) 0.9720(4) 0.3372(4)
C17 C 0.6367(6) 0.6439(4) 0.6032(4)
C18 C 0.5354(7) 0.8537(5) 0.1474(4)
C19 C 0.9410(6) 1.1438(5) 0.9184(5)
C20 C 0.7370(6) 0.9894(4) 0.2352(4)
H11 H 0.82880 1.04080 0.23180
C21 C 0.9329(5) 1.1613(4) 0.7987(4)
H12 H 0.98270 1.23200 0.77270
C22 C 0.7873(8) 1.4990(5) 0.1357(5)
H13 H 0.88020 1.55720 0.13850
H14 H 0.77340 1.45900 0.06170
O5 O 0.8773(5) 1.0624(4) 0.9619(3)
C23 C 0.6626(7) 0.4469(4) 0.5865(6)
H15 H 0.76230 0.46650 0.61530
H16 H 0.66240 0.44870 0.50720
H17 H 0.61470 0.36930 0.60540
N2 N 0.4576(8) 0.7936(6) 0.0450(6)
O6 O 0.5087(8) 0.8152(7) -0.0444(5)
C24 C 0.6673(7) 0.9319(5) 0.1394(5)
H18 H 0.70890 0.94580 0.07070
C25 C 0.6688(10) 1.5580(9) 0.1570(9)
H19 H 0.69180 1.60980 0.22350
H20 H 0.57900 1.50030 0.16590
H21 H 0.65700 1.60280 0.09560
O7 O 0.3340(7) 0.7215(6) 0.0564(5)
C26 C 1.1496(10) 1.3395(8) 1.1350(6)
H22 H 1.11710 1.40520 1.10910
H23 H 1.24720 1.34120 1.11020
H24 H 1.15010 1.34440 1.21470
C27 C 1.0521(10) 1.2323(6) 1.0922(5)
H25 H 0.95650 1.22460 1.12520
H26 H 1.09110 1.16550 1.10960
#END
