
#######################################################################
#
#                 Cambridge Crystallographic Data Centre
#                                CCDC
#
#######################################################################
#
# If this CIF has been generated from an entry in the Cambridge
# Structural Database, then it will include bibliographic, chemical,
# crystal, experimental, refinement or atomic coordinate data resulting
# from the CCDC's data processing and validation procedures.
#
#######################################################################

data_CSD_CIF_SEKCIV
_audit_creation_date 2006-10-10
_audit_creation_method CSD-ConQuest-V1
_database_code_CSD SEKCIV
_database_code_depnum_ccdc_archive 'CCDC 228992'
_chemical_formula_sum 'C14 H25 N1 O6'
_chemical_formula_moiety
;
C14 H25 N1 O6
;
_journal_coden_Cambridge 35
_journal_volume 71
_journal_year 2006
_journal_page_first 3253
_journal_name_full 'J.Org.Chem. '
loop_
_publ_author_name
"T.K.M.Shing"
"A.W.F.Wong"
"T.Ikeno"
"T.Yamada"
_chemical_name_systematic
;
4,5,12-Trimethyl-4,5-dimethoxy-3,6,11-trioxa-12-azatricyclo(8.2.1.0^2,7^)tride
can-8-ol
;
_cell_volume   3103.596
_exptl_crystal_colour 'colorless'
_exptl_crystal_density_diffrn 1.298
_exptl_crystal_description 'block'
_diffrn_ambient_temperature 293
#These two values have been output from a single CSD field.
_refine_ls_R_factor_gt 0.0576
_refine_ls_wR_factor_gt 0.0576
_symmetry_cell_setting orthorhombic
_symmetry_space_group_name_H-M 'P 21 21 21'
_symmetry_Int_Tables_number 19
loop_
_symmetry_equiv_pos_site_id
_symmetry_equiv_pos_as_xyz
1 x,y,z
2 1/2-x,-y,1/2+z
3 -x,1/2+y,1/2-z
4 1/2+x,1/2-y,-z
_cell_length_a 9.2158(4)
_cell_length_b 9.2268(4)
_cell_length_c 36.4990(16)
_cell_angle_alpha 90
_cell_angle_beta 90
_cell_angle_gamma 90
_cell_formula_units_Z 8
loop_
_atom_type_symbol
_atom_type_radius_bond
C 0.68
H 0.23
N 0.68
O 0.68
loop_
_atom_site_label
_atom_site_type_symbol
_atom_site_fract_x
_atom_site_fract_y
_atom_site_fract_z
N1 N 0.7578(2) 0.2255(2) 0.39918(6)
N2 N -0.1473(2) 0.7262(2) 0.33480(5)
O1 O 0.6870(2) 0.35780(19) 0.38691(5)
O2 O -0.0983(2) 0.8480(2) 0.35663(5)
O3 O 0.2522(2) 0.3683(2) 0.42215(5)
H1 H 0.21400 0.32380 0.43900
O4 O 0.3513(2) 0.8643(3) 0.35893(7)
H2 H 0.41170 0.82470 0.34580
O5 O 0.36682(17) 0.16115(19) 0.46178(4)
O6 O 0.30069(17) 0.68453(19) 0.30676(4)
O7 O 0.62364(17) 0.01663(18) 0.44835(4)
O8 O 0.04642(17) 0.53611(18) 0.29315(4)
O9 O 0.5373(2) 0.1934(2) 0.50840(4)
O10 O 0.19701(19) 0.7389(2) 0.25017(5)
O11 O 0.4335(2) -0.13666(19) 0.46541(5)
O12 O 0.2530(2) 0.3913(2) 0.28895(5)
C1 C -0.3035(3) 0.7144(4) 0.34051(9)
H3 H -0.35080 0.79860 0.33070
H4 H -0.32340 0.70740 0.36630
H5 H -0.33920 0.62930 0.32830
C2 C 0.8953(3) 0.2159(4) 0.37968(10)
H6 H 0.95790 0.29300 0.38750
H7 H 0.87820 0.22380 0.35380
H8 H 0.94030 0.12440 0.38490
C3 C 0.6561(3) 0.1104(3) 0.38875(6)
H9 H 0.71040 0.02110 0.38380
C4 C -0.0664(3) 0.6018(3) 0.34909(6)
H10 H -0.12410 0.51350 0.34590
C5 C 0.5860(3) 0.1634(3) 0.35325(6)
H11 H 0.64700 0.14350 0.33220
H12 H 0.49140 0.11980 0.34950
C6 C -0.0488(3) 0.6336(3) 0.38996(7)
H13 H -0.13470 0.60590 0.40360
H14 H 0.03500 0.58400 0.40010
C7 C 0.5740(3) 0.3257(3) 0.36059(6)
H15 H 0.59330 0.37880 0.33790
C8 C -0.0276(3) 0.7972(3) 0.39008(7)
H16 H -0.07730 0.83870 0.41140
C9 C 0.4306(3) 0.3766(3) 0.37664(7)
H17 H 0.36320 0.39110 0.35660
H18 H 0.44650 0.47040 0.38800
C10 C 0.1274(3) 0.8505(3) 0.38929(7)
H19 H 0.16480 0.84780 0.41410
H20 H 0.12660 0.95120 0.38160
C11 C 0.3574(3) 0.2783(3) 0.40487(7)
H21 H 0.30710 0.19990 0.39190
C12 C 0.2332(3) 0.7690(3) 0.36476(7)
H22 H 0.26840 0.68360 0.37800
C13 C 0.4608(3) 0.2117(2) 0.43300(6)
H23 H 0.52780 0.28530 0.44240
C14 C 0.1722(2) 0.7198(3) 0.32767(6)
H24 H 0.11870 0.79910 0.31590
C15 C 0.5442(3) 0.0817(2) 0.41864(6)
H25 H 0.47420 0.01050 0.40940
C16 C 0.0787(2) 0.5845(2) 0.32966(6)
H26 H 0.13410 0.50840 0.34210
C17 C 0.4396(3) 0.0953(3) 0.49184(6)
C18 C 0.2734(2) 0.6341(3) 0.27064(6)
C19 C 0.5343(3) -0.0320(3) 0.47757(6)
C20 C 0.1708(3) 0.5025(3) 0.27182(7)
C21 C 0.3205(3) 0.0459(4) 0.51811(8)
H27 H 0.26610 0.12850 0.52630
H28 H 0.36360 -0.00160 0.53880
H29 H 0.25680 -0.02030 0.50570
C22 C 0.4225(3) 0.5996(4) 0.25523(8)
H30 H 0.48100 0.68570 0.25530
H31 H 0.41280 0.56470 0.23060
H32 H 0.46800 0.52670 0.27000
C23 C 0.4761(4) 0.3285(3) 0.52000(8)
H33 H 0.55040 0.38740 0.53090
H34 H 0.40110 0.31070 0.53770
H35 H 0.43570 0.37800 0.49920
C24 C 0.2669(4) 0.8751(4) 0.24515(10)
H36 H 0.20550 0.93760 0.23090
H37 H 0.35710 0.86090 0.23250
H38 H 0.28510 0.91860 0.26860
C25 C 0.6380(3) -0.0921(4) 0.50638(8)
H39 H 0.69310 -0.17040 0.49600
H40 H 0.58350 -0.12700 0.52700
H41 H 0.70290 -0.01690 0.51430
C26 C 0.1145(3) 0.4593(4) 0.23426(8)
H42 H 0.05110 0.37730 0.23660
H43 H 0.19470 0.43430 0.21870
H44 H 0.06210 0.53890 0.22370
C27 C 0.4924(4) -0.2639(3) 0.44934(9)
H45 H 0.41490 -0.32730 0.44210
H46 H 0.55320 -0.31230 0.46680
H47 H 0.54880 -0.23800 0.42820
C28 C 0.1820(5) 0.2564(4) 0.29290(12)
H48 H 0.24590 0.18880 0.30470
H49 H 0.15550 0.22000 0.26920
H50 H 0.09620 0.26870 0.30750
#END
