
#######################################################################
#
#                 Cambridge Crystallographic Data Centre
#                                CCDC
#
#######################################################################
#
# If this CIF has been generated from an entry in the Cambridge
# Structural Database, then it will include bibliographic, chemical,
# crystal, experimental, refinement or atomic coordinate data resulting
# from the CCDC's data processing and validation procedures.
#
#######################################################################

data_CSD_CIF_SEKCAN
_audit_creation_date 2006-10-10
_audit_creation_method CSD-ConQuest-V1
_database_code_CSD SEKCAN
_database_code_depnum_ccdc_archive 'CCDC 224220'
_chemical_formula_sum 'C14 H25 N1 O6'
_chemical_formula_moiety
;
C14 H25 N1 O6
;
_journal_coden_Cambridge 35
_journal_volume 71
_journal_year 2006
_journal_page_first 3253
_journal_name_full 'J.Org.Chem. '
loop_
_publ_author_name
"T.K.M.Shing"
"A.W.F.Wong"
"T.Ikeno"
"T.Yamada"
_chemical_name_systematic
;
1,7,8-Trimethyl-7,8-dimethoxydecahydro(1,4)dioxino(2,3-g)(2,1)benzisoxazol-5-o
l
;
_cell_volume   3181.724
_exptl_crystal_colour 'colorless'
_exptl_crystal_density_diffrn 1.267
_exptl_crystal_description 'Block'
_diffrn_ambient_temperature 293
#These two values have been output from a single CSD field.
_refine_ls_R_factor_gt 0.0574
_refine_ls_wR_factor_gt 0.0574
loop_
_citation_database_id_CSD
_citation_special_details
SENPEH "is a stereoisomer of this entry"
_symmetry_cell_setting orthorhombic
_symmetry_space_group_name_H-M 'P 21 21 21'
_symmetry_Int_Tables_number 19
loop_
_symmetry_equiv_pos_site_id
_symmetry_equiv_pos_as_xyz
1 x,y,z
2 1/2-x,-y,1/2+z
3 -x,1/2+y,1/2-z
4 1/2+x,1/2-y,-z
_cell_length_a 10.0458(5)
_cell_length_b 15.1747(8)
_cell_length_c 20.8717(11)
_cell_angle_alpha 90
_cell_angle_beta 90
_cell_angle_gamma 90
_cell_formula_units_Z 8
loop_
_atom_type_symbol
_atom_type_radius_bond
C 0.68
H 0.23
N 0.68
O 0.68
loop_
_atom_site_label
_atom_site_type_symbol
_atom_site_fract_x
_atom_site_fract_y
_atom_site_fract_z
O1 O 0.6744(2) 0.67279(15) 0.27255(9)
O2 O 0.6776(2) 0.21478(15) 0.51324(10)
O3 O 0.81818(18) -0.01422(14) 0.57396(8)
H1 H 0.88920 0.00380 0.58820
O4 O 0.53415(17) 0.44676(13) 0.35541(9)
H2 H 0.46140 0.46340 0.36860
O5 O 0.63380(17) -0.12110(11) 0.51009(8)
O6 O 0.28798(16) 0.44268(12) 0.29015(8)
O7 O 0.32156(16) 0.59979(12) 0.22299(8)
O8 O 0.49330(15) 0.01329(12) 0.44847(8)
O9 O 0.15152(18) 0.45619(15) 0.20089(9)
O10 O 0.5086(2) -0.16885(14) 0.42267(10)
O11 O 0.21391(19) 0.61716(12) 0.32098(8)
O12 O 0.39917(18) -0.02744(13) 0.54617(8)
N1 N 0.5954(2) 0.66755(15) 0.21466(11)
N2 N 0.6214(2) 0.18753(15) 0.45275(11)
C1 C 0.6819(3) 0.6948(2) 0.16222(15)
H3 H 0.70400 0.75590 0.16710
H4 H 0.63670 0.68610 0.12220
H5 H 0.76180 0.66020 0.16290
C2 C 0.6528(3) 0.2543(2) 0.40460(16)
H6 H 0.60800 0.30830 0.41510
H7 H 0.62380 0.23430 0.36330
H8 H 0.74720 0.26410 0.40380
C3 C 0.5576(2) 0.57478(17) 0.21092(12)
H9 H 0.54130 0.55770 0.16630
C4 C 0.6870(2) 0.10389(17) 0.43995(11)
H10 H 0.68500 0.09080 0.39400
C5 C 0.8316(2) 0.11816(18) 0.46256(11)
H11 H 0.87790 0.15090 0.42880
C6 C 0.6779(2) 0.52501(18) 0.23790(13)
H12 H 0.74760 0.52490 0.20510
C7 C 0.8119(3) 0.18066(19) 0.51821(14)
H13 H 0.82360 0.14980 0.55850
H14 H 0.87590 0.22840 0.51620
C8 C 0.7205(3) 0.5873(2) 0.29064(14)
H15 H 0.68150 0.56970 0.33120
H16 H 0.81660 0.58720 0.29500
C9 C 0.6203(2) 0.03093(16) 0.47740(11)
H17 H 0.60730 0.04980 0.52190
C10 C 0.4348(2) 0.55740(17) 0.25170(11)
H18 H 0.44890 0.58120 0.29480
C11 C 0.7020(2) -0.05219(16) 0.47617(11)
H19 H 0.71650 -0.07040 0.43170
C12 C 0.4096(2) 0.45918(16) 0.25600(12)
H20 H 0.40310 0.43440 0.21280
C13 C 0.8349(2) -0.03904(18) 0.50879(12)
H21 H 0.88590 -0.09400 0.50670
C14 C 0.5204(3) 0.41386(18) 0.29210(13)
H22 H 0.50200 0.35050 0.29390
C15 C 0.6500(2) 0.42859(19) 0.25688(14)
H23 H 0.64960 0.39290 0.21830
H24 H 0.72240 0.40800 0.28370
C16 C 0.9115(2) 0.03321(19) 0.47475(13)
H25 H 0.94250 0.01060 0.43390
H26 H 0.98930 0.04780 0.50010
C17 C 0.5037(3) -0.13896(18) 0.48632(13)
C18 C 0.1753(2) 0.48537(19) 0.26408(12)
C19 C 0.4204(2) -0.05260(18) 0.48212(12)
C20 C 0.2025(2) 0.58570(19) 0.25729(12)
C21 C 0.0617(3) 0.4633(2) 0.30943(15)
H27 H 0.05000 0.40050 0.31110
H28 H -0.01880 0.49030 0.29430
H29 H 0.08200 0.48510 0.35150
C22 C 0.4467(3) -0.2064(2) 0.53255(17)
H30 H 0.50280 -0.25760 0.53320
H31 H 0.35890 -0.22280 0.51900
H32 H 0.44250 -0.18130 0.57480
C23 C 0.1266(4) 0.3654(2) 0.19255(19)
H33 H 0.11280 0.35320 0.14790
H34 H 0.04860 0.34900 0.21630
H35 H 0.20150 0.33220 0.20780
C24 C 0.5802(4) -0.2488(2) 0.41177(19)
H36 H 0.57750 -0.26320 0.36700
H37 H 0.54010 -0.29560 0.43600
H38 H 0.67100 -0.24140 0.42500
C25 C 0.2916(3) -0.0638(2) 0.44488(16)
H39 H 0.24470 -0.00870 0.44380
H40 H 0.23720 -0.10750 0.46540
H41 H 0.31140 -0.08230 0.40190
C26 C 0.0941(3) 0.6336(2) 0.22023(15)
H42 H 0.11600 0.69510 0.21730
H43 H 0.01060 0.62690 0.24200
H44 H 0.08740 0.60920 0.17790
C27 C 0.3346(3) 0.0559(2) 0.55495(15)
H45 H 0.32450 0.06750 0.59990
H46 H 0.24850 0.05460 0.53500
H47 H 0.38740 0.10160 0.53580
C28 C 0.2479(4) 0.7085(2) 0.32788(17)
H48 H 0.25320 0.72310 0.37260
H49 H 0.18080 0.74420 0.30780
H50 H 0.33240 0.71950 0.30790
#END
