
#######################################################################
#
#                 Cambridge Crystallographic Data Centre
#                                CCDC
#
#######################################################################
#
# If this CIF has been generated from an entry in the Cambridge
# Structural Database, then it will include bibliographic, chemical,
# crystal, experimental, refinement or atomic coordinate data resulting
# from the CCDC's data processing and validation procedures.
#
#######################################################################

data_CSD_CIF_SEKGUL
_audit_creation_date 2006-10-10
_audit_creation_method CSD-ConQuest-V1
_database_code_CSD SEKGUL
_database_code_depnum_ccdc_archive 'CCDC 294873'
_chemical_formula_sum 'C9 H18 N2 O3'
_chemical_formula_moiety
;
C9 H18 N2 O3
;
_journal_coden_Cambridge 1220
_journal_volume 12
_journal_year 2006
_journal_page_first 5134
_journal_name_full 'Chem.-Eur.J. '
loop_
_publ_author_name
"P.Brough"
"J.Pecaut"
"A.Rassat"
"P.Rey"
_chemical_name_systematic
;
2-(Acetamido)-2,4-dimethyl-4-nitropentane
;
_chemical_melting_point 347.15
_cell_volume   1175.382
_exptl_crystal_density_diffrn 1.143
_diffrn_ambient_temperature 298
#These two values have been output from a single CSD field.
_refine_ls_R_factor_gt 0.0535
_refine_ls_wR_factor_gt 0.0535
_symmetry_cell_setting triclinic
_symmetry_space_group_name_H-M 'P -1'
_symmetry_Int_Tables_number 2
loop_
_symmetry_equiv_pos_site_id
_symmetry_equiv_pos_as_xyz
1 x,y,z
2 -x,-y,-z
_cell_length_a 8.4145(16)
_cell_length_b 9.7316(18)
_cell_length_c 14.835(3)
_cell_angle_alpha 99.069(3)
_cell_angle_beta 101.183(4)
_cell_angle_gamma 90.995(4)
_cell_formula_units_Z 4
loop_
_atom_type_symbol
_atom_type_radius_bond
C 0.68
H 0.23
N 0.68
O 0.68
loop_
_atom_site_label
_atom_site_type_symbol
_atom_site_fract_x
_atom_site_fract_y
_atom_site_fract_z
O1 O 1.0162(5) 0.5040(3) 0.39730(19)
O2 O 1.2047(5) 0.3577(4) 0.3995(3)
O3 O 0.66636(17) 0.02005(14) 0.13753(11)
N1 N 1.0656(6) 0.3877(4) 0.39035(19)
N2 N 0.7637(2) 0.24106(18) 0.14792(11)
H1 H 0.734(3) 0.326(2) 0.1425(14)
C1 C 0.9378(4) 0.2621(3) 0.36312(17)
C2 C 0.9698(3) 0.1722(3) 0.27530(16)
H2 H 0.906(2) 0.087(2) 0.2689(13)
H3 H 1.085(3) 0.148(2) 0.2878(14)
C3 C 0.9373(2) 0.22106(19) 0.18042(15)
C4 C 0.7716(6) 0.3192(5) 0.3549(3)
H4 H 0.763(3) 0.361(3) 0.406(2)
H5 H 0.692(4) 0.232(3) 0.336(2)
H6 H 0.755(5) 0.391(4) 0.307(3)
C5 C 0.9762(8) 0.1795(5) 0.4443(3)
H7 H 0.890(4) 0.098(3) 0.429(2)
H8 H 1.089(6) 0.156(5) 0.449(3)
H9 H 0.960(4) 0.226(3) 0.500(3)
C6 C 1.0256(4) 0.3592(3) 0.1804(2)
H10 H 1.137(3) 0.353(2) 0.1995(16)
H11 H 0.990(3) 0.433(2) 0.2182(14)
H12 H 1.013(3) 0.381(2) 0.1101(18)
C7 C 0.9941(4) 0.1102(3) 0.1092(2)
H13 H 0.940(3) 0.022(3) 0.1077(15)
H14 H 1.102(3) 0.105(3) 0.1230(16)
H15 H 0.975(3) 0.140(3) 0.044(2)
C8 C 0.6442(2) 0.1434(2) 0.13106(14)
C9 C 0.4755(3) 0.1919(3) 0.1024(3)
H16 H 0.407(4) 0.128(4) 0.059(2)
H17 H 0.477(3) 0.286(3) 0.085(2)
H18 H 0.434(4) 0.196(3) 0.156(2)
O4 O 0.3866(5) 0.9996(3) 0.3838(2)
O5 O 0.1948(4) 0.8392(4) 0.3497(2)
O6 O 0.65373(17) 0.52368(14) 0.15536(11)
N3 N 0.3377(5) 0.8813(4) 0.3640(2)
N4 N 0.5589(2) 0.73834(19) 0.14839(12)
H19 H 0.585(2) 0.818(2) 0.1431(12)
C10 C 0.4625(3) 0.7668(3) 0.35098(17)
C11 C 0.3990(3) 0.6689(2) 0.25989(16)
H20 H 0.288(3) 0.637(2) 0.2591(13)
H21 H 0.464(2) 0.592(2) 0.2624(13)
C12 C 0.3942(2) 0.71247(19) 0.16452(14)
C13 C 0.6277(5) 0.8363(5) 0.3584(3)
H22 H 0.654(3) 0.887(3) 0.413(2)
H23 H 0.700(4) 0.746(4) 0.345(2)
H24 H 0.618(4) 0.902(3) 0.314(2)
C14 C 0.4612(7) 0.6882(5) 0.4329(2)
H25 H 0.348(5) 0.635(4) 0.418(2)
H26 H 0.493(4) 0.756(4) 0.489(3)
H27 H 0.546(5) 0.627(4) 0.429(2)
C15 C 0.3057(4) 0.8455(3) 0.1531(2)
H28 H 0.358(3) 0.920(2) 0.1911(15)
H29 H 0.299(2) 0.872(2) 0.0879(16)
H30 H 0.193(3) 0.838(2) 0.1611(15)
C16 C 0.3063(3) 0.5960(3) 0.08892(19)
H31 H 0.194(3) 0.586(2) 0.0914(15)
H32 H 0.317(3) 0.618(3) 0.0230(19)
H33 H 0.351(3) 0.507(2) 0.0987(14)
C17 C 0.6738(3) 0.6462(2) 0.14571(15)
C18 C 0.8318(4) 0.6994(3) 0.1288(4)
H34 H 0.836(3) 0.783(3) 0.1159(17)
H35 H 0.894(4) 0.708(4) 0.180(2)
H36 H 0.879(4) 0.622(4) 0.087(2)
#END
