
#######################################################################
#
#                 Cambridge Crystallographic Data Centre
#                                CCDC
#
#######################################################################
#
# If this CIF has been generated from an entry in the Cambridge
# Structural Database, then it will include bibliographic, chemical,
# crystal, experimental, refinement or atomic coordinate data resulting
# from the CCDC's data processing and validation procedures.
#
#######################################################################

data_CSD_CIF_SEKGIZ
_audit_creation_date 2006-10-10
_audit_creation_method CSD-ConQuest-V1
_database_code_CSD SEKGIZ
_database_code_depnum_ccdc_archive 'CCDC 294871'
_chemical_formula_sum 'C15 H21 N2 O3'
_chemical_formula_moiety
;
C15 H21 N2 O3
;
_journal_coden_Cambridge 1220
_journal_volume 12
_journal_year 2006
_journal_page_first 5134
_journal_name_full 'Chem.-Eur.J. '
loop_
_publ_author_name
"P.Brough"
"J.Pecaut"
"A.Rassat"
"P.Rey"
_chemical_name_systematic
;
2-(p-Methoxyphenyl)-4,4,6,6-tetramethyl-1,4,5,6-tetrahydropyrimidine-3-oxide-1
-oxyl
;
_chemical_melting_point 389.15
_cell_volume   4582.899
_exptl_crystal_density_diffrn 1.206
_diffrn_ambient_temperature 298
#These two values have been output from a single CSD field.
_refine_ls_R_factor_gt 0.0673
_refine_ls_wR_factor_gt 0.0673
_symmetry_cell_setting monoclinic
_symmetry_space_group_name_H-M 'P 21/c'
_symmetry_Int_Tables_number 14
loop_
_symmetry_equiv_pos_site_id
_symmetry_equiv_pos_as_xyz
1 x,y,z
2 -x,1/2+y,1/2-z
3 -x,-y,-z
4 x,-1/2-y,-1/2+z
_cell_length_a 15.7562(11)
_cell_length_b 25.2647(16)
_cell_length_c 12.3464(8)
_cell_angle_alpha 90
_cell_angle_beta 111.177(1)
_cell_angle_gamma 90
_cell_formula_units_Z 12
loop_
_atom_type_symbol
_atom_type_radius_bond
C 0.68
H 0.23
N 0.68
O 0.68
loop_
_atom_site_label
_atom_site_type_symbol
_atom_site_fract_x
_atom_site_fract_y
_atom_site_fract_z
O1 O 0.0631(2) 0.41709(12) 0.9617(2)
O2 O 0.0209(2) 0.26675(10) 0.7496(2)
O3 O 0.0963(2) 0.45322(10) 0.4926(3)
N1 N 0.0399(2) 0.36810(13) 0.9498(2)
N2 N 0.0160(2) 0.29078(14) 0.8396(3)
C1 C 0.0323(2) 0.34294(16) 0.8508(3)
C2 C 0.0226(3) 0.34269(16) 1.0487(3)
C3 C -0.0340(2) 0.29361(15) 1.0028(3)
H1 H -0.03520 0.27320 1.06880
H2 H -0.09590 0.30470 0.95950
C4 C -0.0045(3) 0.25729(15) 0.9262(3)
C5 C -0.0334(3) 0.38198(19) 1.0903(4)
H3 H -0.09120 0.38770 1.02950
H4 H -0.00120 0.41500 1.11020
H5 H -0.04270 0.36780 1.15740
C6 C 0.1137(3) 0.33491(18) 1.1465(3)
H6 H 0.14980 0.31030 1.12240
H7 H 0.10400 0.32130 1.21370
H8 H 0.14490 0.36820 1.16530
C7 C 0.0800(3) 0.22429(16) 0.9881(4)
H9 H 0.12970 0.24730 1.02950
H10 H 0.09560 0.20420 0.93200
H11 H 0.06810 0.20060 1.04180
C8 C -0.0836(3) 0.22142(16) 0.8602(3)
H12 H -0.13670 0.24250 0.82180
H13 H -0.09570 0.19760 0.91350
H14 H -0.06850 0.20150 0.80350
C9 C 0.0475(3) 0.37213(14) 0.7560(3)
C10 C -0.0213(3) 0.37853(14) 0.6502(3)
H15 H -0.07860 0.36470 0.63910
C11 C -0.0078(3) 0.40494(15) 0.5601(3)
H16 H -0.05550 0.40860 0.48920
C12 C 0.0758(3) 0.42577(14) 0.5751(3)
C13 C 0.1449(3) 0.41982(15) 0.6798(4)
H17 H 0.20180 0.43420 0.69100
C14 C 0.1313(3) 0.39297(15) 0.7683(3)
H18 H 0.17970 0.38870 0.83840
C15 C 0.0305(4) 0.45294(17) 0.3777(4)
H19 H 0.05260 0.47340 0.32790
H20 H -0.02530 0.46800 0.37800
H21 H 0.01980 0.41720 0.34970
O4 O 0.35730(19) 0.42274(10) 0.3680(2)
O5 O 0.3669(2) 0.27121(10) 0.1742(2)
O6 O 0.3881(2) 0.46475(10) -0.1037(2)
N3 N 0.35770(19) 0.37194(11) 0.3644(2)
N4 N 0.3665(2) 0.29411(12) 0.2663(2)
C16 C 0.3648(2) 0.34734(13) 0.2714(3)
C17 C 0.3534(3) 0.34397(14) 0.4691(3)
C18 C 0.3204(4) 0.2891(2) 0.4347(4)
H22 H 0.25600 0.29060 0.38780
H23 H 0.32680 0.26920 0.50440
C19 C 0.3719(3) 0.25745(14) 0.3631(3)
C20 C 0.2736(4) 0.3678(2) 0.4949(4)
H24 H 0.28710 0.40390 0.51940
H25 H 0.26370 0.34790 0.55550
H26 H 0.21980 0.36660 0.42610
C21 C 0.4356(3) 0.3569(2) 0.5687(3)
H27 H 0.48780 0.34230 0.55670
H28 H 0.43100 0.34210 0.63800
H29 H 0.44180 0.39460 0.57660
C22 C 0.3078(3) 0.21194(16) 0.3203(4)
H30 H 0.33020 0.18870 0.27530
H31 H 0.24890 0.22500 0.27280
H32 H 0.30330 0.19300 0.38540
C23 C 0.4662(3) 0.2401(2) 0.4163(5)
H33 H 0.48480 0.22340 0.35860
H34 H 0.47130 0.21520 0.47720
H35 H 0.50450 0.27010 0.44800
C24 C 0.3718(2) 0.37858(12) 0.1746(3)
C25 C 0.4483(2) 0.37427(13) 0.1458(3)
H36 H 0.49510 0.35190 0.18930
C26 C 0.4577(3) 0.40233(14) 0.0538(3)
H37 H 0.51000 0.39890 0.03620
C27 C 0.3876(3) 0.43547(13) -0.0109(3)
C28 C 0.3117(3) 0.44033(13) 0.0187(3)
H38 H 0.26480 0.46290 -0.02380
C29 C 0.3042(2) 0.41249(13) 0.1098(3)
H39 H 0.25240 0.41660 0.12840
C30 C 0.4610(3) 0.45551(16) -0.1435(3)
H40 H 0.45410 0.47800 -0.20880
H41 H 0.46020 0.41920 -0.16650
H42 H 0.51780 0.46310 -0.08220
O7 O 0.38821(16) 0.64952(9) 0.5741(2)
O8 O 0.21204(19) 0.63982(9) 0.1882(2)
O9 O 0.31546(17) 0.8674(1) 0.3558(2)
N5 N 0.33599(19) 0.62184(10) 0.4865(2)
N6 N 0.2527(2) 0.61708(11) 0.2860(3)
C31 C 0.2940(2) 0.64651(13) 0.3823(3)
C32 C 0.3248(2) 0.56517(13) 0.5115(3)
C33 C 0.2572(3) 0.53969(12) 0.4012(3)
H43 H 0.26700 0.50170 0.40680
H44 H 0.19610 0.54600 0.40010
C34 C 0.2607(3) 0.55785(13) 0.2871(3)
C35 C 0.4178(2) 0.53927(13) 0.5556(3)
H45 H 0.45640 0.55740 0.62400
H46 H 0.44410 0.54110 0.49670
H47 H 0.41180 0.50290 0.57420
C36 C 0.2849(3) 0.56489(15) 0.6078(3)
H48 H 0.32720 0.58120 0.67630
H49 H 0.27400 0.52900 0.62500
H50 H 0.22870 0.58420 0.58240
C37 C 0.1776(3) 0.53541(14) 0.1881(3)
H51 H 0.12320 0.54340 0.20290
H52 H 0.18370 0.49770 0.18400
H53 H 0.17400 0.55110 0.11580
C38 C 0.3471(3) 0.54575(13) 0.2644(3)
H54 H 0.39850 0.55990 0.32640
H55 H 0.34360 0.56160 0.19230
H56 H 0.35380 0.50810 0.26020
C39 C 0.2979(2) 0.70437(13) 0.3761(3)
C40 C 0.3304(2) 0.72906(14) 0.2983(3)
H57 H 0.34930 0.70860 0.24870
C41 C 0.3349(2) 0.78303(14) 0.2935(3)
H58 H 0.35700 0.79900 0.24110
C42 C 0.3066(2) 0.81391(14) 0.3669(3)
C43 C 0.2728(2) 0.79046(14) 0.4434(3)
H59 H 0.25250 0.81110 0.49160
C44 C 0.2693(2) 0.73568(14) 0.4479(3)
H60 H 0.24720 0.71970 0.50030
C45 C 0.2802(4) 0.90154(16) 0.4182(4)
H61 H 0.29100 0.93760 0.40200
H62 H 0.30940 0.89480 0.49980
H63 H 0.21590 0.89570 0.39560
#END
