
#######################################################################
#
#                 Cambridge Crystallographic Data Centre
#                                CCDC
#
#######################################################################
#
# If this CIF has been generated from an entry in the Cambridge
# Structural Database, then it will include bibliographic, chemical,
# crystal, experimental, refinement or atomic coordinate data resulting
# from the CCDC's data processing and validation procedures.
#
#######################################################################

data_CSD_CIF_SEKHIZ
_audit_creation_date 1990-08-28
_audit_creation_method CSD-ConQuest-V1
_database_code_CSD SEKHIZ
_chemical_formula_sum 'C15 H21 N1 O11'
_chemical_formula_moiety
;
C15 H21 N1 O11
;
_journal_coden_Cambridge 156
_journal_volume 186
_journal_year 1989
_journal_page_first 1
_journal_name_full 'Carbohydr.Res. '
loop_
_publ_author_name
"J.Kopf"
"C.Topf"
"P.Koll"
_chemical_name_systematic
;
3,4,5,7-Tetra-O-acetyl-2,6-anhydro-7-deoxy-7-nitro-L-glycero-L-galacto-heptito
l
;
_chemical_name_common
;
3,4,5,7-Tetra-O-acetyl-2,6-anhydro-1-deoxy-1-nitro-D-glycero-L-manno-heptitol
;
_chemical_melting_point 361.15
_cell_volume   3805.976
_exptl_crystal_density_diffrn 1.37
_exptl_special_details
;
Melting point range 361.15-363.15K

;
_diffrn_ambient_temperature ?
_diffrn_special_details
;
The study was carried out at room temperature,in the range 283-303K

;
_refine_special_details
;
The acetyl group at O7 is disordered over two sets of positions with 0.5 
occupancy each.
;
#These two values have been output from a single CSD field.
_refine_ls_R_factor_gt 0.043
_refine_ls_wR_factor_gt 0.043
_symmetry_cell_setting tetragonal
_symmetry_space_group_name_H-M 'P 43 21 2'
_symmetry_Int_Tables_number 96
loop_
_symmetry_equiv_pos_site_id
_symmetry_equiv_pos_as_xyz
1 x,y,z
2 1/2-y,1/2+x,3/4+z
3 -x,-y,1/2+z
4 1/2+y,1/2-x,1/4+z
5 y,x,-z
6 1/2+x,1/2-y,1/4-z
7 -y,-x,1/2-z
8 1/2-x,1/2+y,3/4-z
_cell_length_a 8.373(1)
_cell_length_b 8.373(1)
_cell_length_c 54.288(73)
_cell_angle_alpha 90
_cell_angle_beta 90
_cell_angle_gamma 90
_cell_formula_units_Z 8
loop_
_atom_type_symbol
_atom_type_radius_bond
C 0.68
H 0.23
N 0.68
O 0.68
loop_
_atom_site_label
_atom_site_type_symbol
_atom_site_fract_x
_atom_site_fract_y
_atom_site_fract_z
O1 O 0.1674(4) 0.7466(4) 0.3589(4)
O2 O 0.0879(4) 0.9715(3) 0.34700
O3 O -0.0336(2) 0.6861(2) 0.40090
O4 O 0.1988(2) 0.9488(2) 0.44090
O5 O 0.0429(2) 0.7534(3) 0.47450
O6 O -0.2028(2) 0.6252(3) 0.44610
O7 O -0.0782(6) 0.3731(6) 0.3804(1)
O8? O -0.1887(5) 0.4487(5) 0.3777(1)
O9 O 0.0332(3) 1.1581(3) 0.4417(1)
O10 O 0.1808(3) 0.5479(3) 0.48990
O11 O -0.2179(4) 0.4739(4) 0.4799(1)
O12 O -0.2413(6) 0.5480(6) 0.3634(1)
O13? O 0.0522(6) 0.3383(6) 0.3715(1)
N1 N 0.1156(3) 0.8754(4) 0.3629(1)
C1 C 0.0860(4) 0.9287(4) 0.3889(1)
C2 C 0.0940(3) 0.7903(3) 0.4066(1)
C3 C 0.0705(3) 0.8446(3) 0.4334(1)
C4 C 0.0761(3) 0.7002(4) 0.4498(1)
C5 C -0.0418(4) 0.5716(3) 0.4417(1)
C6 C -0.0229(4) 0.5404(3) 0.4145(1)
C7 C -0.1493(4) 0.4285(4) 0.4043(1)
C8 C 0.1613(4) 1.1031(4) 0.4460(1)
C9 C 0.3019(5) 1.1893(5) 0.4565(1)
C10 C 0.1035(4) 0.6651(4) 0.4933(1)
C11 C 0.0605(5) 0.7362(5) 0.5173(1)
C12 C -0.2841(5) 0.5573(5) 0.4643(1)
C13 C -0.4556(4) 0.6077(6) 0.4644(1)
C14 C -0.1331(8) 0.4459(8) 0.3620(2)
C15? C -0.0672(8) 0.3964(8) 0.3630(2)
C16 C -0.0764(8) 0.3759(8) 0.3375(2)
C17? C -0.0995(8) 0.4392(8) 0.3371(2)
H1 H 0.16330 1.00770 0.39030
H2 H -0.01750 0.97270 0.38790
H3 H 0.19790 0.73930 0.40670
H4 H -0.03280 0.90180 0.43570
H5 H 0.17820 0.65490 0.44740
H6 H -0.02730 0.47780 0.45140
H7 H 0.08440 0.49740 0.41170
H8 H -0.25270 0.49580 0.40090
H9? H -0.25130 0.42250 0.41450
H10 H -0.17610 0.33230 0.41640
H11? H -0.11490 0.31530 0.40690
H12 H 0.27010 1.29460 0.46010
H13 H 0.38700 1.18650 0.44220
H14 H 0.33040 1.14590 0.47400
H15 H 0.10550 0.67140 0.53280
H16 H -0.04840 0.74200 0.51580
H17 H 0.10190 0.83930 0.51830
H18 H -0.50890 0.56230 0.48050
H19 H -0.50240 0.57980 0.44800
H20 H -0.45840 0.71700 0.46750
H21 H -0.12310 0.43390 0.32340
H22? H -0.01480 0.39550 0.32620
H23 H -0.11350 0.26650 0.33620
H24? H -0.11250 0.54710 0.33400
H25 H 0.03550 0.37990 0.33620
H26? H -0.19870 0.38190 0.33120
#END
