
#######################################################################
#
#                 Cambridge Crystallographic Data Centre
#                                CCDC
#
#######################################################################
#
# If this CIF has been generated from an entry in the Cambridge
# Structural Database, then it will include bibliographic, chemical,
# crystal, experimental, refinement or atomic coordinate data resulting
# from the CCDC's data processing and validation procedures.
#
#######################################################################

data_CSD_CIF_SEKHUL
_audit_creation_date 1990-08-28
_audit_creation_method CSD-ConQuest-V1
_database_code_CSD SEKHUL
_chemical_formula_sum 'C12 H17 N1 O9'
_chemical_formula_moiety
;
C12 H17 N1 O9
;
_journal_coden_Cambridge 156
_journal_volume 186
_journal_year 1989
_journal_page_first 1
_journal_name_full 'Carbohydr.Res. '
loop_
_publ_author_name
"J.Kopf"
"C.Topf"
"P.Koll"
_chemical_name_systematic
;
2,3,5-Tri-O-acetyl-2,6-anhydro-1-deoxy-1-nitro-L-manno-hexitol
;
_chemical_melting_point 352.15
_cell_volume   1593.279
_exptl_crystal_density_diffrn 1.33
_exptl_special_details
;
Melting point range 352.15-354.15K
z(C51) is negative

;
_diffrn_ambient_temperature ?
_diffrn_special_details
;
The study was carried out at room temperature,in the range 283-303K

;
#These two values have been output from a single CSD field.
_refine_ls_R_factor_gt 0.085
_refine_ls_wR_factor_gt 0.085
_symmetry_cell_setting orthorhombic
_symmetry_space_group_name_H-M 'P 21 21 21'
_symmetry_Int_Tables_number 19
loop_
_symmetry_equiv_pos_site_id
_symmetry_equiv_pos_as_xyz
1 x,y,z
2 1/2+x,1/2-y,-z
3 -x,1/2+y,1/2-z
4 1/2-x,-y,1/2+z
_cell_length_a 8.569(9)
_cell_length_b 10.324(7)
_cell_length_c 18.010(8)
_cell_angle_alpha 90
_cell_angle_beta 90
_cell_angle_gamma 90
_cell_formula_units_Z 4
loop_
_atom_type_symbol
_atom_type_radius_bond
C 0.68
H 0.23
N 0.68
O 0.68
loop_
_atom_site_label
_atom_site_type_symbol
_atom_site_fract_x
_atom_site_fract_y
_atom_site_fract_z
O1 O 0.4595(11) -0.1383(7) 0.1751(4)
O2 O 0.6587(10) -0.0611(11) 0.1326(6)
O3 O 0.4646(5) -0.0990(4) -0.0208(2)
O4 O 0.0872(4) 0.0292(3) 0.0398(2)
O5 O 0.0409(5) -0.0055(4) -0.1148(2)
O6 O 0.3443(5) -0.0127(4) -0.1613(2)
O7 O 0.1033(8) 0.2417(5) 0.0200(4)
O8 O -0.1546(6) -0.1334(5) -0.0838(5)
O9 O 0.3212(9) -0.1086(4) -0.2691(2)
N1 N 0.5204(7) -0.0566(9) 0.1393(3)
C1 C 0.4192(7) 0.0201(7) 0.0860(3)
C2 C 0.3453(6) -0.0647(5) 0.0290(2)
C3 C 0.2128(5) 0.0069(4) -0.0116(2)
C4 C 0.1515(7) -0.0795(4) -0.0725(2)
C5 C 0.2831(8) -0.1255(5) -0.1231(2)
C6 C 0.4115(10) -0.1823(6) -0.0758(3)
C7 C 0.0359(8) 0.1516(6) 0.0475(3)
C8 C -0.105(1) 0.1554(9) 0.0962(5)
C9 C -0.1107(8) -0.0443(6) -0.1152(3)
C10 C -0.211(1) 0.0480(9) -0.1583(5)
C11 C 0.3498(7) -0.0170(5) -0.2356(2)
C12 C 0.4024(10) 0.1077(6) -0.2681(3)
H1 H 0.33880 0.06420 0.11470
H2 H 0.48050 0.08690 0.06120
H3 H 0.30170 -0.13900 0.05250
H4 H 0.25270 0.08510 -0.03350
H5 H 0.10080 -0.15400 -0.05100
H6 H 0.24870 -0.18900 -0.15740
H7 H 0.49840 -0.20180 -0.10780
H8 H 0.37340 -0.25830 -0.05310
H9 H -0.15180 0.23700 0.10030
H10 H -0.10640 0.11010 0.14290
H11 H -0.15890 0.10280 0.05970
H12 H -0.13520 0.10680 -0.17700
H13 H -0.28600 0.09050 -0.12860
H14 H -0.26400 0.00710 -0.20050
H15 H 0.41170 0.09810 -0.32050
H16 H 0.50160 0.12480 -0.24620
H17 H 0.33260 0.17970 -0.25740
#END
