
#######################################################################
#
#                 Cambridge Crystallographic Data Centre
#                                CCDC
#
#######################################################################
#
# If this CIF has been generated from an entry in the Cambridge
# Structural Database, then it will include bibliographic, chemical,
# crystal, experimental, refinement or atomic coordinate data resulting
# from the CCDC's data processing and validation procedures.
#
#######################################################################

data_CSD_CIF_SEKJEY
_audit_creation_date 2006-10-10
_audit_creation_method CSD-ConQuest-V1
_database_code_CSD SEKJEY
_database_code_depnum_ccdc_archive 'CCDC 294880'
_chemical_formula_sum 'C7 H14 N2 O4'
_chemical_formula_moiety
;
C7 H14 N2 O4
;
_journal_coden_Cambridge 1220
_journal_volume 12
_journal_year 2006
_journal_page_first 5134
_journal_name_full 'Chem.-Eur.J. '
loop_
_publ_author_name
"P.Brough"
"J.Pecaut"
"A.Rassat"
"P.Rey"
_chemical_name_systematic
;
2,4-Dimethyl-2,4-dinitropentane
;
_chemical_melting_point 352.15
_cell_volume   2952.739
_exptl_crystal_colour 'colorless'
_exptl_crystal_density_diffrn 1.284
_exptl_crystal_preparation 'n-hexane'
_diffrn_ambient_temperature 298
#These two values have been output from a single CSD field.
_refine_ls_R_factor_gt 0.0463
_refine_ls_wR_factor_gt 0.0463
_symmetry_cell_setting monoclinic
_symmetry_space_group_name_H-M 'C 2/c'
_symmetry_Int_Tables_number 15
loop_
_symmetry_equiv_pos_site_id
_symmetry_equiv_pos_as_xyz
1 x,y,z
2 1/2+x,1/2+y,z
3 -x,y,1/2-z
4 1/2-x,1/2+y,1/2-z
5 -x,-y,-z
6 -1/2-x,-1/2-y,-z
7 x,-y,-1/2+z
8 -1/2+x,-1/2-y,-1/2+z
_cell_length_a 29.189(19)
_cell_length_b 5.922(4)
_cell_length_c 22.014(14)
_cell_angle_alpha 90
_cell_angle_beta 129.108(10)
_cell_angle_gamma 90
_cell_formula_units_Z 12
loop_
_atom_type_symbol
_atom_type_radius_bond
C 0.68
H 0.23
N 0.68
O 0.68
loop_
_atom_site_label
_atom_site_type_symbol
_atom_site_fract_x
_atom_site_fract_y
_atom_site_fract_z
O1 O 0.14564(8) 1.0064(3) 0.44300(8)
O2 O 0.19027(8) 0.6917(3) 0.48796(9)
O3 O 0.15101(8) 0.6190(3) 0.66977(9)
O4 O 0.19652(7) 0.9244(3) 0.72559(8)
N1 N 0.18045(7) 0.8818(3) 0.49701(9)
N2 N 0.16143(7) 0.8147(3) 0.66773(9)
C1 C 0.21386(7) 0.9757(3) 0.58053(9)
C2 C 0.16853(9) 1.0805(3) 0.58591(12)
H1 H 0.1902(7) 1.162(3) 0.6301(10)
H2 H 0.1427(7) 1.180(3) 0.5405(10)
C3 C 0.12627(8) 0.9361(3) 0.58780(9)
C4 C 0.25270(11) 1.1618(4) 0.58693(15)
H3 H 0.2777(8) 1.105(3) 0.5736(10)
H4 H 0.2276(9) 1.275(4) 0.5478(13)
H5 H 0.2763(10) 1.229(4) 0.6368(15)
C5 C 0.25090(11) 0.7896(4) 0.63830(12)
H6 H 0.2236(10) 0.659(4) 0.6305(12)
H7 H 0.2729(9) 0.855(3) 0.6922(13)
H8 H 0.2771(10) 0.736(4) 0.6312(13)
C6 C 0.09202(12) 0.7632(4) 0.52351(14)
H9 H 0.0655(10) 0.843(4) 0.4646(14)
H10 H 0.1147(8) 0.667(3) 0.5245(11)
H11 H 0.0607(10) 0.699(4) 0.5237(14)
C7 C 0.08432(11) 1.0906(5) 0.58742(16)
H12 H 0.1041(9) 1.194(4) 0.6276(13)
H13 H 0.0604(10) 1.172(4) 0.5377(13)
H14 H 0.0546(10) 1.005(4) 0.5896(11)
O5 O 0.02195(8) 0.5859(3) 0.15932(10)
O6 O -0.02071(8) 0.2709(3) 0.11022(9)
N3 N 0.01215(7) 0.3932(4) 0.16541(10)
C8 C 0.04451(7) 0.2930(3) 0.24776(9)
C9 C 0.00000 0.1670(4) 0.25000
H15 H 0.0224(6) 0.069(3) 0.2941(9)
C10 C 0.08656(11) 0.1211(5) 0.25495(14)
H16 H 0.1112(8) 0.199(3) 0.2450(11)
H17 H 0.1077(9) 0.060(3) 0.3005(12)
H18 H 0.0624(9) 0.001(4) 0.2125(12)
C11 C 0.07738(11) 0.4797(4) 0.30752(13)
H19 H 0.0973(8) 0.415(3) 0.3583(11)
H20 H 0.1025(9) 0.539(4) 0.3024(12)
H21 H 0.0484(9) 0.610(4) 0.3004(12)
O5B O -0.02195(8) 0.5859(3) 0.34068(10)
O6B O 0.02071(8) 0.2709(3) 0.38978(9)
N3B N -0.01215(7) 0.3932(4) 0.33459(10)
C8B C -0.04451(7) 0.2930(3) 0.25224(9)
H15B H -0.0224(6) 0.069(3) 0.2059(9)
C10B C -0.08656(11) 0.1211(5) 0.24505(14)
H16B H -0.1112(8) 0.199(3) 0.2550(11)
H17B H -0.1077(9) 0.060(3) 0.1995(12)
H18B H -0.0624(9) 0.001(4) 0.2875(12)
C11B C -0.07738(11) 0.4797(4) 0.19248(13)
H19B H -0.0973(8) 0.415(3) 0.1417(11)
H20B H -0.1025(9) 0.539(4) 0.1976(12)
H21B H -0.0484(9) 0.610(4) 0.1996(12)
#END
