
#######################################################################
#
#                 Cambridge Crystallographic Data Centre
#                                CCDC
#
#######################################################################
#
# If this CIF has been generated from an entry in the Cambridge
# Structural Database, then it will include bibliographic, chemical,
# crystal, experimental, refinement or atomic coordinate data resulting
# from the CCDC's data processing and validation procedures.
#
#######################################################################

data_CSD_CIF_SEKJIC
_audit_creation_date 2006-10-10
_audit_creation_method CSD-ConQuest-V1
_database_code_CSD SEKJIC
_database_code_depnum_ccdc_archive 'CCDC 294881'
_chemical_formula_sum 'C7 H14 N2 O1'
_chemical_formula_moiety
;
C7 H14 N2 O1
;
_journal_coden_Cambridge 1220
_journal_volume 12
_journal_year 2006
_journal_page_first 5134
_journal_name_full 'Chem.-Eur.J. '
loop_
_publ_author_name
"P.Brough"
"J.Pecaut"
"A.Rassat"
"P.Rey"
_chemical_name_systematic
;
3,3,5,5-Tetramethyl-4,5-dihydro-3H-pyrazole 1-oxide
;
_chemical_name_common
;
3,3,5,5-Tetramethyl-1,2-diazacyclopentene 1-oxide
;
_cell_volume    429.558
_exptl_crystal_density_diffrn 1.099
_exptl_crystal_preparation 'ethyl acetate'
_diffrn_ambient_temperature 298
#These two values have been output from a single CSD field.
_refine_ls_R_factor_gt 0.0539
_refine_ls_wR_factor_gt 0.0539
_symmetry_cell_setting monoclinic
_symmetry_space_group_name_H-M 'P 21/m'
_symmetry_Int_Tables_number 11
loop_
_symmetry_equiv_pos_site_id
_symmetry_equiv_pos_as_xyz
1 x,y,z
2 -x,1/2+y,-z
3 -x,-y,-z
4 x,-1/2-y,z
_cell_length_a 6.5803(15)
_cell_length_b 9.896(2)
_cell_length_c 6.7875(15)
_cell_angle_alpha 90
_cell_angle_beta 103.623(4)
_cell_angle_gamma 90
_cell_formula_units_Z 2
loop_
_atom_type_symbol
_atom_type_radius_bond
C 0.68
H 0.23
N 0.68
O 0.68
loop_
_atom_site_label
_atom_site_type_symbol
_atom_site_fract_x
_atom_site_fract_y
_atom_site_fract_z
O1 O 0.5126(4) 0.25000 0.3293(3)
N1 N 0.7036(3) 0.25000 0.6437(3)
N2 N 0.5315(3) 0.25000 0.5175(3)
C1 C 0.7680(6) 0.1255(4) 0.9565(5)
H1 H 0.747(4) 0.129(2) 1.085(4)
H2 H 0.926(5) 0.121(3) 0.958(4)
H3 H 0.721(5) 0.047(4) 0.884(5)
C2 C 0.6668(3) 0.25000 0.8508(3)
C3 C 0.4310(4) 0.25000 0.8233(4)
H4 H 0.392(4) 0.180(3) 0.880(4)
C4 C 0.3345(3) 0.25000 0.5990(3)
C5 C 0.2129(5) 0.1241(4) 0.5240(5)
H5 H 0.082(4) 0.126(2) 0.563(3)
H6 H 0.185(3) 0.127(2) 0.376(4)
H7 H 0.298(5) 0.041(4) 0.563(4)
C1C C 0.7680(6) 0.3745(4) 0.9565(5)
H1C H 0.747(4) 0.371(2) 1.085(4)
H2C H 0.926(5) 0.379(3) 0.958(4)
H3C H 0.721(5) 0.453(4) 0.884(5)
H4C H 0.392(4) 0.320(3) 0.880(4)
C5C C 0.2129(5) 0.3759(4) 0.5240(5)
H5C H 0.082(4) 0.374(2) 0.563(3)
H6C H 0.185(3) 0.373(2) 0.376(4)
H7C H 0.298(5) 0.459(4) 0.563(4)
#END
