
#######################################################################
#
#                 Cambridge Crystallographic Data Centre
#                                CCDC
#
#######################################################################
#
# If this CIF has been generated from an entry in the Cambridge
# Structural Database, then it will include bibliographic, chemical,
# crystal, experimental, refinement or atomic coordinate data resulting
# from the CCDC's data processing and validation procedures.
#
#######################################################################

data_CSD_CIF_SEKJOI
_audit_creation_date 2006-10-10
_audit_creation_method CSD-ConQuest-V1
_database_code_CSD SEKJOI
_database_code_depnum_ccdc_archive 'CCDC 294882'
_chemical_formula_sum 'C7 H14 N2 O2'
_chemical_formula_moiety
;
C7 H14 N2 O2
;
_journal_coden_Cambridge 1220
_journal_volume 12
_journal_year 2006
_journal_page_first 5134
_journal_name_full 'Chem.-Eur.J. '
loop_
_publ_author_name
"P.Brough"
"J.Pecaut"
"A.Rassat"
"P.Rey"
_chemical_name_systematic
;
3,3,5,5-Tetramethyl-4,5-dihydro-3H-pyrazole 1,2-dioxide
;
_chemical_name_common
;
3,3,5,5-Tetramethyl-1,2-diazacyclopentene 1,2-dioxide
;
_chemical_melting_point 501.15
_cell_volume    430.858
_exptl_crystal_density_diffrn 1.219
_exptl_special_details
;
Melts with decomposition.

;
_exptl_crystal_preparation 'ethyl acetate'
_diffrn_ambient_temperature 298
_refine_special_details
;
A C atom from the pyrazole ring is disordered by symmetry.

;
#These two values have been output from a single CSD field.
_refine_ls_R_factor_gt 0.0383
_refine_ls_wR_factor_gt 0.0383
_symmetry_cell_setting tetragonal
_symmetry_space_group_name_H-M 'P -4 21 m'
_symmetry_Int_Tables_number 113
loop_
_symmetry_equiv_pos_site_id
_symmetry_equiv_pos_as_xyz
1 x,y,z
2 -x,-y,z
3 y,-x,-z
4 -y,x,-z
5 1/2-x,1/2+y,-z
6 1/2+x,1/2-y,-z
7 1/2-y,1/2-x,z
8 1/2+y,1/2+x,z
_cell_length_a 8.2306(10)
_cell_length_b 8.2306(10)
_cell_length_c 6.3602(10)
_cell_angle_alpha 90
_cell_angle_beta 90
_cell_angle_gamma 90
_cell_formula_units_Z 2
loop_
_atom_type_symbol
_atom_type_radius_bond
C 0.68
H 0.23
N 0.68
O 0.68
loop_
_atom_site_label
_atom_site_type_symbol
_atom_site_fract_x
_atom_site_fract_y
_atom_site_fract_z
O1 O 0.11458(13) 0.61458(13) 1.1548(2)
N1 N 0.05591(11) 0.55591(11) 0.9883(2)
C1 C 0.0338(3) 0.4662(3) 0.6375(8)
H1 H 0.116(4) 0.384(4) 0.586(8)
H2 H -0.023(4) 0.523(4) 0.488(8)
C2 C 0.10593(13) 0.60593(13) 0.7711(3)
C3 C 0.0710(4) 0.7844(3) 0.7455(4)
H3 H 0.088(4) 0.809(3) 0.591(5)
H4 H 0.127(6) 0.845(6) 0.862(8)
H5 H -0.045(7) 0.809(6) 0.796(9)
O1A O -0.11458(13) 0.38542(13) 1.1548(2)
N1A N -0.05591(11) 0.44409(11) 0.9883(2)
C1A C -0.0338(3) 0.5338(3) 0.6375(8)
H1A H -0.116(4) 0.616(4) 0.586(8)
H2A H 0.023(4) 0.477(4) 0.488(8)
C2A C -0.10593(13) 0.39407(13) 0.7711(3)
C3G C 0.2844(4) 0.5710(3) 0.7455(4)
C3A C -0.0710(4) 0.2156(3) 0.7455(4)
C3F C -0.2844(4) 0.4290(3) 0.7455(4)
H3G H 0.309(4) 0.588(3) 0.591(5)
H3A H -0.088(4) 0.191(3) 0.591(5)
H3F H -0.309(4) 0.412(3) 0.591(5)
H4G H 0.345(6) 0.627(6) 0.862(8)
H4A H -0.127(6) 0.155(6) 0.862(8)
H4F H -0.345(6) 0.373(6) 0.862(8)
H5G H 0.309(7) 0.455(6) 0.796(9)
H5A H 0.045(7) 0.191(6) 0.796(9)
H5F H -0.309(7) 0.545(6) 0.796(9)
#END
