
#######################################################################
#
#                 Cambridge Crystallographic Data Centre
#                                CCDC
#
#######################################################################
#
# If this CIF has been generated from an entry in the Cambridge
# Structural Database, then it will include bibliographic, chemical,
# crystal, experimental, refinement or atomic coordinate data resulting
# from the CCDC's data processing and validation procedures.
#
#######################################################################

data_CSD_CIF_SEKJAU
_audit_creation_date 2006-10-10
_audit_creation_method CSD-ConQuest-V1
_database_code_CSD SEKJAU
_database_code_depnum_ccdc_archive 'CCDC 294879'
_chemical_formula_sum 'C14 H21 N3 O2'
_chemical_formula_moiety
;
C14 H21 N3 O2
;
_journal_coden_Cambridge 1220
_journal_volume 12
_journal_year 2006
_journal_page_first 5134
_journal_name_full 'Chem.-Eur.J. '
loop_
_publ_author_name
"P.Brough"
"J.Pecaut"
"A.Rassat"
"P.Rey"
_chemical_name_systematic
;
2-(p-Nitrophenyl)-4,4,6,6-tetramethylhexahydropyrimidine
;
_chemical_melting_point 397.15
_cell_volume    732.198
_exptl_crystal_density_diffrn 1.194
_exptl_special_details
;
Melting point range 397.15-399.15K

;
_diffrn_ambient_temperature 298
#These two values have been output from a single CSD field.
_refine_ls_R_factor_gt 0.0432
_refine_ls_wR_factor_gt 0.0432
_symmetry_cell_setting triclinic
_symmetry_space_group_name_H-M 'P -1'
_symmetry_Int_Tables_number 2
loop_
_symmetry_equiv_pos_site_id
_symmetry_equiv_pos_as_xyz
1 x,y,z
2 -x,-y,-z
_cell_length_a 7.9333(9)
_cell_length_b 9.9704(11)
_cell_length_c 10.3755(11)
_cell_angle_alpha 66.472(2)
_cell_angle_beta 77.124(2)
_cell_angle_gamma 81.785(2)
_cell_formula_units_Z 2
loop_
_atom_type_symbol
_atom_type_radius_bond
C 0.68
H 0.23
N 0.68
O 0.68
loop_
_atom_site_label
_atom_site_type_symbol
_atom_site_fract_x
_atom_site_fract_y
_atom_site_fract_z
O1 O 0.73256(16) 0.59237(15) 0.17720(14)
O2 O 0.90790(16) 0.49297(15) 0.32589(15)
N1 N 0.16920(15) 0.83233(15) 0.65810(13)
H1 H 0.1341(18) 0.7485(16) 0.6718(15)
N2 N 0.37722(15) 0.72283(15) 0.82432(13)
H2 H 0.3458(19) 0.6277(18) 0.8477(16)
N3 N 0.77742(18) 0.56909(15) 0.29000(17)
C1 C 0.34818(17) 0.81096(16) 0.67953(15)
H3 H 0.3901(16) 0.9123(14) 0.6532(13)
C2 C 0.04764(17) 0.88927(15) 0.75860(15)
C3 C 0.07961(19) 0.8055(2) 0.91254(17)
H4 H 0.0266(18) 0.7094(16) 0.9479(15)
H5 H 0.0182(18) 0.8517(15) 0.9716(15)
C4 C 0.26895(18) 0.77329(16) 0.93431(15)
C5 C -0.1340(2) 0.8634(3) 0.7522(3)
H6 H -0.152(2) 0.753(2) 0.7879(17)
H7 H -0.154(2) 0.9125(19) 0.652(2)
H8 H -0.219(2) 0.9024(18) 0.8126(17)
C6 C 0.0657(3) 1.05421(18) 0.7039(2)
H9 H 0.183(2) 1.0830(18) 0.6920(17)
H10 H -0.013(2) 1.095(2) 0.769(2)
H11 H 0.029(2) 1.106(2) 0.609(2)
C7 C 0.2768(3) 0.6473(3) 1.0783(2)
H12 H 0.207(2) 0.6749(18) 1.1590(19)
H13 H 0.223(2) 0.557(2) 1.0793(17)
H14 H 0.397(3) 0.623(2) 1.091(2)
C8 C 0.3505(3) 0.9039(2) 0.9323(2)
H15 H 0.282(2) 0.9416(19) 1.003(2)
H16 H 0.366(2) 0.9876(19) 0.8378(19)
H17 H 0.466(3) 0.875(2) 0.9610(19)
C9 C 0.46169(16) 0.74810(14) 0.57547(14)
C10 C 0.61545(18) 0.66717(16) 0.60708(17)
H18 H 0.6480(16) 0.6507(14) 0.6966(15)
C11 C 0.7188(2) 0.60918(17) 0.51438(17)
H19 H 0.816(2) 0.5546(17) 0.5358(16)
C12 C 0.66919(18) 0.63263(15) 0.38848(16)
C13 C 0.5194(2) 0.71331(18) 0.35291(18)
H20 H 0.4885(19) 0.7277(16) 0.2674(17)
C14 C 0.4162(2) 0.77041(17) 0.44670(16)
H21 H 0.309(2) 0.8263(17) 0.4222(16)
#END
