
#######################################################################
#
#                 Cambridge Crystallographic Data Centre
#                                CCDC
#
#######################################################################
#
# If this CIF has been generated from an entry in the Cambridge
# Structural Database, then it will include bibliographic, chemical,
# crystal, experimental, refinement or atomic coordinate data resulting
# from the CCDC's data processing and validation procedures.
#
#######################################################################

data_CSD_CIF_SEKJUO
_audit_creation_date 2006-10-10
_audit_creation_method CSD-ConQuest-V1
_database_code_CSD SEKJUO
_database_code_depnum_ccdc_archive 'CCDC 294883'
_chemical_formula_sum 'C14 H22 N2 O2'
_chemical_formula_moiety
;
C14 H22 N2 O2
;
_journal_coden_Cambridge 1220
_journal_volume 12
_journal_year 2006
_journal_page_first 5134
_journal_name_full 'Chem.-Eur.J. '
loop_
_publ_author_name
"P.Brough"
"J.Pecaut"
"A.Rassat"
"P.Rey"
_chemical_name_systematic
;
2-Phenyl-4,4,6,6-tetramethylhexahydropyrimidine-1,3-diol
;
_chemical_melting_point 356.15
_cell_volume   2867.743
_exptl_crystal_density_diffrn 1.16
_exptl_crystal_preparation 'diethyl ether/dichloromethane'
_diffrn_ambient_temperature 298
#These two values have been output from a single CSD field.
_refine_ls_R_factor_gt 0.0737
_refine_ls_wR_factor_gt 0.0737
_symmetry_cell_setting monoclinic
_symmetry_space_group_name_H-M 'P 21/c'
_symmetry_Int_Tables_number 14
loop_
_symmetry_equiv_pos_site_id
_symmetry_equiv_pos_as_xyz
1 x,y,z
2 -x,1/2+y,1/2-z
3 -x,-y,-z
4 x,-1/2-y,-1/2+z
_cell_length_a 11.032(2)
_cell_length_b 12.234(2)
_cell_length_c 21.248(4)
_cell_angle_alpha 90
_cell_angle_beta 90.09(3)
_cell_angle_gamma 90
_cell_formula_units_Z 8
loop_
_atom_type_symbol
_atom_type_radius_bond
C 0.68
H 0.23
N 0.68
O 0.68
loop_
_atom_site_label
_atom_site_type_symbol
_atom_site_fract_x
_atom_site_fract_y
_atom_site_fract_z
O1 O 0.10913(19) 0.78262(15) 0.0908(1)
H1 H 0.039(3) 0.794(3) 0.1083(15)
O2 O 0.2870(2) 1.11871(16) 0.13295(10)
H2 H 0.247(4) 1.154(3) 0.1585(18)
N1 N 0.18790(17) 0.83678(16) 0.13609(9)
N2 N 0.28289(17) 1.00765(16) 0.15652(8)
C1 C 0.1976(2) 0.95052(19) 0.1138(1)
H3 H 0.2246(19) 0.9583(17) 0.0702(11)
C2 C 0.3033(2) 0.7743(2) 0.13367(14)
C3 C 0.3967(3) 0.8435(3) 0.16960(16)
H4 H 0.371(3) 0.845(3) 0.2151(17)
H5 H 0.470(3) 0.811(3) 0.1643(15)
C4 C 0.4089(2) 0.9644(2) 0.15210(12)
C5 C 0.3421(4) 0.7435(4) 0.0666(2)
H6 H 0.351(3) 0.810(3) 0.0387(17)
H7 H 0.420(4) 0.714(3) 0.0661(17)
H8 H 0.286(5) 0.683(5) 0.050(2)
C6 C 0.2808(4) 0.6689(3) 0.1720(3)
H9 H 0.357(4) 0.627(3) 0.1738(17)
H10 H 0.260(4) 0.687(4) 0.219(2)
H11 H 0.219(5) 0.621(4) 0.150(2)
C7 C 0.4695(4) 0.9862(4) 0.08813(18)
H12 H 0.538(4) 0.948(3) 0.0848(17)
H13 H 0.486(3) 1.059(3) 0.0863(14)
H14 H 0.423(3) 0.958(3) 0.0529(17)
C8 C 0.4841(3) 1.0228(4) 0.20294(18)
H15 H 0.448(3) 1.012(3) 0.246(2)
H16 H 0.565(4) 0.993(3) 0.2027(17)
H17 H 0.489(3) 1.104(3) 0.1946(15)
C9 C 0.0733(2) 1.00388(18) 0.11707(10)
C10 C -0.0006(2) 0.9894(2) 0.16918(12)
H18 H 0.028(2) 0.9469(19) 0.2032(11)
C11 C -0.1160(3) 1.0338(2) 0.17065(15)
H19 H -0.166(3) 1.020(2) 0.2057(14)
C12 C -0.1582(3) 1.0943(2) 0.12012(16)
H20 H -0.235(3) 1.128(2) 0.1216(13)
C13 C -0.0849(3) 1.1113(2) 0.06889(15)
H21 H -0.108(3) 1.154(3) 0.0356(15)
C14 C 0.0301(3) 1.0664(2) 0.06710(12)
H22 H 0.081(2) 1.077(2) 0.0331(12)
O3 O 0.79681(18) 0.48196(14) 0.20809(8)
H23 H 0.762(3) 0.498(2) 0.2435(14)
O4 O 0.84997(18) 0.79577(17) 0.08843(8)
H24 H 0.817(3) 0.849(3) 0.1054(16)
N3 N 0.73376(17) 0.54800(16) 0.16135(8)
N4 N 0.76303(17) 0.70726(16) 0.09844(8)
C15 C 0.8168(2) 0.63976(19) 0.14888(10)
H25 H 0.894(2) 0.6124(17) 0.1372(10)
C16 C 0.7149(2) 0.4750(2) 0.10576(11)
C17 C 0.6727(2) 0.5504(2) 0.05239(11)
H26 H 0.590(2) 0.5806(18) 0.0636(10)
H27 H 0.658(3) 0.508(2) 0.0179(14)
C18 C 0.7512(2) 0.6502(2) 0.03699(10)
C19 C 0.8274(4) 0.4070(3) 0.08884(15)
H28 H 0.815(3) 0.381(3) 0.0464(17)
H29 H 0.834(3) 0.346(3) 0.1159(17)
H30 H 0.910(4) 0.454(4) 0.093(2)
C20 C 0.6099(4) 0.3983(3) 0.12237(17)
H31 H 0.627(3) 0.353(3) 0.1581(19)
H32 H 0.588(3) 0.354(3) 0.0870(19)
H33 H 0.534(4) 0.439(3) 0.1344(18)
C21 C 0.8735(3) 0.6236(3) 0.00569(15)
H34 H 0.908(3) 0.689(3) -0.0168(16)
H35 H 0.931(3) 0.593(3) 0.0355(16)
H36 H 0.862(3) 0.571(3) -0.0241(16)
C22 C 0.6800(3) 0.7249(3) -0.00741(13)
H37 H 0.603(3) 0.744(3) 0.0122(16)
H38 H 0.723(3) 0.791(3) -0.0142(15)
H39 H 0.658(3) 0.682(3) -0.0474(18)
C23 C 0.8273(2) 0.70973(18) 0.20748(10)
C24 C 0.7260(3) 0.7641(2) 0.23076(12)
H40 H 0.650(3) 0.754(2) 0.2109(13)
C25 C 0.7366(4) 0.8322(3) 0.28303(14)
H41 H 0.665(4) 0.868(3) 0.2990(17)
C26 C 0.8471(5) 0.8443(3) 0.31223(15)
H42 H 0.858(4) 0.890(3) 0.3474(19)
C27 C 0.9457(4) 0.7897(3) 0.29033(15)
H43 H 1.019(3) 0.797(3) 0.3072(16)
C28 C 0.9368(3) 0.7226(2) 0.23789(12)
H44 H 1.006(3) 0.685(2) 0.2222(13)
#END
