
#######################################################################
#
#                 Cambridge Crystallographic Data Centre
#                                CCDC
#
#######################################################################
#
# If this CIF has been generated from an entry in the Cambridge
# Structural Database, then it will include bibliographic, chemical,
# crystal, experimental, refinement or atomic coordinate data resulting
# from the CCDC's data processing and validation procedures.
#
#######################################################################

data_CSD_CIF_SEKNAX
_audit_creation_date 1990-08-28
_audit_creation_method CSD-ConQuest-V1
_database_code_CSD SEKNAX
_database_code_depnum_ccdc_archive 'CCDC 1256881'
_chemical_formula_sum 'C28 H27 N1 O7'
_chemical_formula_moiety
;
C28 H27 N1 O7
;
_journal_coden_Cambridge 209
_journal_volume 168
_journal_year 1989
_journal_page_first 125
_journal_name_full 'Mol.Cryst.Liq.Cryst. (Discontinued) '
loop_
_publ_author_name
"S.Gehring"
"Z.X.Fan"
"W.Haase"
"H.Muller"
"H.Gallardo"
_chemical_name_systematic
;
4''-Nitrophenyl-4-(4'-n-hexyloxybenzoyloxy)cinnamate
;
_cell_volume   1278.168
_exptl_crystal_colour 'colorless'
_exptl_crystal_density_diffrn 1.27
_exptl_special_details
;
mesogen
Author has supplied corrected coordinates

;
_diffrn_ambient_temperature ?
_diffrn_special_details
;
The study was carried out at room temperature,in the range 283-303K

;
#These two values have been output from a single CSD field.
_refine_ls_R_factor_gt 0.0833
_refine_ls_wR_factor_gt 0.0833
_symmetry_cell_setting triclinic
_symmetry_space_group_name_H-M 'P -1'
_symmetry_Int_Tables_number 2
loop_
_symmetry_equiv_pos_site_id
_symmetry_equiv_pos_as_xyz
1 x,y,z
2 -x,-y,-z
_cell_length_a 13.570(8)
_cell_length_b 10.885(7)
_cell_length_c 9.805(7)
_cell_angle_alpha 105.34(3)
_cell_angle_beta 101.17(3)
_cell_angle_gamma 106.84(3)
_cell_formula_units_Z 2
loop_
_atom_type_symbol
_atom_type_radius_bond
C 0.68
H 0.23
N 0.68
O 0.68
loop_
_atom_site_label
_atom_site_type_symbol
_atom_site_fract_x
_atom_site_fract_y
_atom_site_fract_z
O1 O 0.3578(7) 1.4113(11) -0.6314(9)
O2 O 0.4139(7) 1.6069(8) -0.4545(10)
O3 O 0.3221(5) 1.2174(7) -0.0980(7)
O4 O 0.4845(5) 1.2055(6) -0.0345(6)
O5 O 0.2234(3) 0.7263(4) 0.4680(5)
O6 O 0.3296(4) 0.8936(5) 0.6828(5)
O7 O 0.0982(4) 0.4098(5) 0.8944(7)
N1 N 0.3842(8) 1.4844(12) -0.5048(13)
C1 C 0.3741(7) 1.4105(12) -0.3939(12)
C2 C 0.3897(6) 1.4868(8) -0.2523(13)
C3 C 0.3770(6) 1.4208(10) -0.1512(9)
C4 C 0.3484(7) 1.2827(11) -0.1952(12)
C5 C 0.3342(6) 1.2078(8) -0.3388(12)
C6 C 0.3467(6) 1.2733(10) -0.4401(9)
C7 C 0.3967(9) 1.1794(8) -0.0253(9)
C8 C 0.3419(7) 1.1030(8) 0.0644(9)
C9 C 0.3899(6) 1.0512(7) 0.1412(8)
C10 C 0.3428(7) 0.9668(7) 0.2270(7)
C11 C 0.4059(6) 0.9136(8) 0.3019(8)
C12 C 0.3674(7) 0.8351(7) 0.3834(8)
C13 C 0.2637(6) 0.8095(7) 0.3876(7)
C14 C 0.1982(6) 0.8590(7) 0.3145(8)
C15 C 0.2379(7) 0.9387(7) 0.2345(8)
C16 C 0.2637(6) 0.7812(9) 0.6183(9)
C17 C 0.2169(5) 0.6793(7) 0.6858(8)
C18 C 0.2564(5) 0.7203(7) 0.8420(8)
C19 C 0.2160(7) 0.6302(8) 0.9106(8)
C20 C 0.1424(6) 0.5022(9) 0.8333(10)
C21 C 0.1039(6) 0.4612(8) 0.6798(9)
C22 C 0.1429(6) 0.5503(7) 0.6091(8)
C23 C 0.1328(7) 0.4368(10) 1.0459(10)
C24 C 0.071(1) 0.3005(12) 1.0708(12)
C25 C 0.0799(11) 0.2868(20) 1.2177(12)
C26 C 0.0008(17) 0.1435(17) 1.1440(14)
C27 C 0.0066(12) 0.1541(11) 1.2982(15)
C28 C -0.0612(12) 0.0283(15) 1.3225(13)
H1 H 0.4087(6) 1.5840(8) -0.2236(13)
H2 H 0.3877(5) 1.4715(10) -0.0498(9)
H3 H 0.3161(6) 1.1107(8) -0.3681(12)
H4 H 0.3357(6) 1.223(1) -0.5417(9)
H5 H 0.2692(7) 1.0944(8) 0.0630(9)
H6 H 0.4639(6) 1.0673(7) 0.1448(8)
H7 H 0.4789(6) 0.9327(8) 0.2986(8)
H8 H 0.4125(7) 0.7977(7) 0.4340(8)
H9 H 0.1252(6) 0.8385(7) 0.3179(8)
H10 H 0.1924(7) 0.9750(7) 0.1829(8)
H11 H 0.3103(5) 0.8089(7) 0.8979(8)
H12 H 0.2408(7) 0.6589(8) 1.0165(8)
H13 H 0.0515(5) 0.3715(8) 0.6238(9)
H14 H 0.1173(5) 0.5214(7) 0.5033(8)
H15 H 0.2096(7) 0.463(1) 1.0808(10)
H16 H 0.1116(7) 0.5084(10) 1.0974(10)
H17 H 0.0987(10) 0.2338(12) 1.0250(12)
H18 H -0.0046(10) 0.2715(12) 1.0222(12)
H19 H 0.1524(11) 0.3023(20) 1.2699(12)
H20 H 0.0562(11) 0.3544(20) 1.2718(17)
H21 H 0.0261(17) 0.0746(17) 1.0969(14)
H22 H -0.0712(17) 0.1251(17) 1.0873(14)
H23 H 0.0817(12) 0.1776(11) 1.3451(15)
H24 H -0.0146(12) 0.2301(11) 1.3360(15)
H25 H -0.0034(12) 0.0784(15) 1.4125(13)
H26 H -0.0634(12) -0.0638(15) 1.2862(13)
H27 H -0.1282(12) 0.0275(15) 1.3412(13)
#END
