
#######################################################################
#
#                 Cambridge Crystallographic Data Centre
#                                CCDC
#
#######################################################################
#
# If this CIF has been generated from an entry in the Cambridge
# Structural Database, then it will include bibliographic, chemical,
# crystal, experimental, refinement or atomic coordinate data resulting
# from the CCDC's data processing and validation procedures.
#
#######################################################################

data_CSD_CIF_SELBAN
_audit_creation_date 2006-10-10
_audit_creation_method CSD-ConQuest-V1
_database_code_CSD SELBAN
_database_code_depnum_ccdc_archive 'CCDC 280587'
_chemical_formula_sum 'C16 H16 N2 O3'
_chemical_formula_moiety
;
C16 H16 N2 O3
;
_journal_coden_Cambridge 1291
_journal_year 2006
_journal_page_first 3016
_journal_name_full 'Eur.J.Org.Chem. '
loop_
_publ_author_name
"L.Cecchi"
"F.De Sarlo"
"C.Faggi"
"F.Machetti"
_chemical_name_systematic
;
(4-(3-Hydroxybicyclo(2.2.1)hept-2-yl)-1,2,5-oxadiazol-3-yl) (phenyl)methanone
;
_cell_volume   1399.724
_exptl_crystal_colour 'white'
_exptl_crystal_density_diffrn 1.349
_exptl_crystal_description 'prismatic'
_diffrn_ambient_temperature 293
#These two values have been output from a single CSD field.
_refine_ls_R_factor_gt 0.0513
_refine_ls_wR_factor_gt 0.0513
_symmetry_cell_setting triclinic
_symmetry_space_group_name_H-M 'P -1'
_symmetry_Int_Tables_number 2
loop_
_symmetry_equiv_pos_site_id
_symmetry_equiv_pos_as_xyz
1 x,y,z
2 -x,-y,-z
_cell_length_a 10.681(2)
_cell_length_b 10.925(2)
_cell_length_c 13.491(3)
_cell_angle_alpha 104.31(2)
_cell_angle_beta 92.56(2)
_cell_angle_gamma 111.82(2)
_cell_formula_units_Z 4
loop_
_atom_type_symbol
_atom_type_radius_bond
C 0.68
H 0.23
N 0.68
O 0.68
loop_
_atom_site_label
_atom_site_type_symbol
_atom_site_fract_x
_atom_site_fract_y
_atom_site_fract_z
N1 N 0.85124(19) 0.57429(18) 0.43061(16)
N2 N 1.0828(2) 0.68787(18) 0.45918(16)
N3 N 0.8278(2) 0.96110(18) 0.04655(17)
N4 N 0.7306(2) 0.7657(2) -0.08831(17)
O1 O 0.88307(19) 0.46786(15) 0.16971(14)
H1 H 0.935(4) 0.452(3) 0.126(3)
O2 O 0.96218(18) 0.69443(15) 0.48554(13)
O3 O 1.10910(16) 0.40040(16) 0.28962(15)
O4 O 0.82070(15) 0.69312(16) 0.16624(13)
H2 H 0.832(3) 0.616(3) 0.167(2)
O5 O 0.73548(18) 0.89572(17) -0.04515(15)
O6 O 0.96832(16) 0.64573(14) -0.02973(13)
C1 C 0.8131(2) 0.3553(2) 0.30606(18)
H3 H 0.852(2) 0.2949(19) 0.3236(16)
C2 C 0.8095(2) 0.3379(2) 0.18822(19)
H4 H 0.8526(19) 0.2758(18) 0.1587(15)
C3 C 0.6579(2) 0.2832(2) 0.1485(2)
H5 H 0.643(2) 0.292(2) 0.078(2)
C4 C 0.5926(3) 0.1354(2) 0.1560(2)
H6 H 0.64620 0.08330 0.12910
H7 H 0.50050 0.08860 0.11830
C5 C 0.5927(3) 0.1549(2) 0.2731(2)
H8 H 0.50050 0.11950 0.28880
H9 H 0.64410 0.10940 0.29890
C6 C 0.6618(2) 0.3109(2) 0.3190(2)
H10 H 0.650(2) 0.345(2) 0.3881(18)
C7 C 0.6082(2) 0.3608(2) 0.23701(19)
H11 H 0.50970 0.33050 0.22780
H12 H 0.65120 0.45980 0.24980
C8 C 0.9028(2) 0.4969(2) 0.37262(17)
C9 C 1.0482(2) 0.5688(2) 0.39082(18)
C10 C 1.1510(2) 0.5170(2) 0.34720(19)
C11 C 1.2997(2) 0.6037(2) 0.37777(18)
C12 C 1.3855(3) 0.5368(3) 0.3809(2)
H13 H 1.34970 0.44120 0.36230
C13 C 1.5228(3) 0.6090(3) 0.4110(2)
H14 H 1.57930 0.56270 0.41560
C14 C 1.5770(3) 0.7484(4) 0.4341(2)
H15 H 1.67070 0.79710 0.45350
C15 C 1.4947(3) 0.8165(3) 0.4288(3)
H16 H 1.53210 0.91180 0.44290
C16 C 1.3549(3) 0.7444(2) 0.4026(2)
H17 H 1.29830 0.79160 0.40180
C17 C 0.9873(2) 0.9097(2) 0.14757(19)
H18 H 1.068(2) 0.9194(18) 0.1166(16)
C18 C 0.9512(2) 0.8004(2) 0.20810(19)
H19 H 1.0236(19) 0.7667(17) 0.2100(14)
C19 C 0.9557(3) 0.8847(3) 0.3178(2)
H20 H 0.904(2) 0.825(2) 0.3592(18)
C20 C 1.1038(3) 0.9774(3) 0.3631(2)
H21 H 1.16180 0.92640 0.35130
H22 H 1.11320 1.01910 0.43690
C21 C 1.1393(3) 1.0861(2) 0.3044(2)
H23 H 1.16440 1.17750 0.35120
H24 H 1.21330 1.08480 0.26570
C22 C 1.0067(3) 1.0420(2) 0.2325(2)
H25 H 1.000(2) 1.113(2) 0.2052(16)
C23 C 0.8996(3) 0.9864(2) 0.2980(2)
H26 H 0.90390 1.05530 0.36070
H27 H 0.80780 0.94220 0.25970
C24 C 0.8806(2) 0.8745(2) 0.05772(18)
C25 C 0.8177(2) 0.7521(2) -0.02655(18)
C26 C 0.8479(2) 0.6263(2) -0.04759(17)
C27 C 0.7379(2) 0.4873(2) -0.08586(17)
C28 C 0.6023(2) 0.4657(2) -0.1015(2)
H28 H 0.57700 0.54030 -0.08890
C29 C 0.5033(3) 0.3331(3) -0.1360(2)
H29 H 0.41180 0.31890 -0.14740
C30 C 0.5393(3) 0.2242(3) -0.1533(2)
H30 H 0.47230 0.13530 -0.17570
C31 C 0.6733(3) 0.2441(2) -0.1380(2)
H31 H 0.69710 0.16860 -0.15020
C32 C 0.7735(3) 0.3746(2) -0.1048(2)
H32 H 0.86480 0.38740 -0.09500
#END
