
#######################################################################
#
#                 Cambridge Crystallographic Data Centre
#                                CCDC
#
#######################################################################
#
# If this CIF has been generated from an entry in the Cambridge
# Structural Database, then it will include bibliographic, chemical,
# crystal, experimental, refinement or atomic coordinate data resulting
# from the CCDC's data processing and validation procedures.
#
#######################################################################

data_CSD_CIF_SELGIB
_audit_creation_date 2013-02-22
_audit_creation_method CSD-ConQuest-V1
_database_code_CSD SELGIB
_database_code_depnum_ccdc_archive 'CCDC 910250'
_chemical_formula_sum 'C17 H25 N1 O8'
_chemical_formula_moiety
;
C17 H25 N1 O8
;
_journal_coden_Cambridge 35
_journal_volume 77
_journal_year 2012
_journal_page_first 2236
_journal_name_full 'J.Org.Chem. '
loop_
_publ_author_name
"A.Kamimura"
"R.Takeuchi"
"K.Ikeda"
"T.Moriyama"
"M.Sumimoto"
_chemical_name_systematic
;
Trimethyl 
4-isopropyltetrahydro-4H-cyclopenta[c][1,2]oxazolo[2,3-b][1,2]oxazole-2,5,5(6H
)-tricarboxylate
;
_cell_volume   1860.972
_exptl_crystal_colour 'colorless'
_exptl_crystal_description 'block'
_diffrn_ambient_temperature 296
#These two values have been output from a single CSD field.
_refine_ls_R_factor_gt 0.0456
_refine_ls_wR_factor_gt 0.0456
loop_
_citation_database_id_CSD
_citation_special_details
SELGIB01 "is a reinterpretation of this cif"
_symmetry_cell_setting triclinic
_symmetry_space_group_name_H-M 'P -1'
_symmetry_Int_Tables_number 2
loop_
_symmetry_equiv_pos_site_id
_symmetry_equiv_pos_as_xyz
1 x,y,z
2 -x,-y,-z
_cell_length_a 7.8196(4)
_cell_length_b 28.2633(10)
_cell_length_c 8.4619(3)
_cell_angle_alpha 90
_cell_angle_beta 95.6773(11)
_cell_angle_gamma 90
_cell_formula_units_Z 4
loop_
_atom_type_symbol
_atom_type_radius_bond
C 0.68
H 0.23
N 0.68
O 0.68
loop_
_atom_site_label
_atom_site_type_symbol
_atom_site_fract_x
_atom_site_fract_y
_atom_site_fract_z
O1 O 0.55841(18) 0.26828(5) 0.60052(13)
O2 O 0.29212(17) 0.29862(5) 0.51182(14)
O3 O 0.1699(3) 0.45960(6) 0.6238(2)
O4 O 0.1988(2) 0.48093(5) 0.87879(19)
O5 O 0.2495(3) 0.39350(7) 1.08505(17)
O6 O 0.5111(2) 0.41481(8) 1.04181(19)
O7 O 0.8988(2) 0.25396(6) 0.8590(2)
O8 O 0.7529(2) 0.19479(5) 0.73264(19)
N1 N 0.46219(19) 0.31232(5) 0.56632(16)
C1 C 0.5997(3) 0.31363(6) 0.83137(19)
C2 C 0.1659(3) 0.36464(7) 0.7771(3)
C3 C 0.5976(3) 0.26334(6) 0.77060(18)
C4 C 0.2996(3) 0.40444(6) 0.8144(2)
C5 C 0.7688(3) 0.23798(7) 0.7941(2)
C6 C 0.4488(2) 0.33486(6) 0.72670(17)
C7 C 0.3683(3) 0.40541(6) 0.9913(3)
C8 C 0.6149(3) 0.41568(7) 0.7176(3)
C9 C 0.2064(3) 0.28420(7) 0.6476(3)
C10 C 0.2172(3) 0.45159(7) 0.7592(3)
C11 C 0.4407(2) 0.38932(6) 0.70656(19)
C12 C 0.2706(3) 0.31912(6) 0.7755(2)
C13 C 0.7134(3) 0.40183(9) 0.5768(3)
C14 C 0.3079(5) 0.39379(12) 1.2543(3)
C15 C 0.5958(4) 0.46958(8) 0.7227(4)
C16 C 0.9088(4) 0.16705(9) 0.7329(4)
C17 C 0.1235(4) 0.52665(8) 0.8347(4)
H1 H 0.70680 0.32950 0.81570
H2 H 0.58090 0.31490 0.94290
H3 H 0.08640 0.36320 0.85800
H4 H 0.10130 0.36990 0.67470
H5 H 0.50820 0.24490 0.81600
H6 H 0.68270 0.40560 0.81540
H7 H 0.23740 0.25210 0.67900
H8 H 0.08260 0.28620 0.62490
H9 H 0.38930 0.39450 0.59760
H10 H 0.28220 0.30410 0.88040
H11 H 0.82460 0.41660 0.58790
H12 H 0.65060 0.41220 0.47970
H13 H 0.72680 0.36810 0.57460
H14 H 0.36650 0.42300 1.28120
H15 H 0.38500 0.36780 1.27840
H16 H 0.21070 0.39080 1.31460
H17 H 0.52250 0.48000 0.63160
H18 H 0.70680 0.48410 0.72200
H19 H 0.54620 0.47850 0.81770
H20 H 0.96550 0.16570 0.83870
H21 H 0.98380 0.18150 0.66360
H22 H 0.88050 0.13560 0.69640
H23 H 0.02260 0.52220 0.76200
H24 H 0.20530 0.54540 0.78500
H25 H 0.09280 0.54260 0.92810
O9 O 0.55814(18) 0.23170(5) 0.10052(13)
O10 O 0.29201(17) 0.20129(5) 0.01184(14)
O11 O 0.7528(2) 0.30522(5) 0.23251(19)
O12 O 0.8989(2) 0.24602(6) 0.3590(2)
O13 O 0.5110(2) 0.08516(8) 0.54143(19)
O14 O 0.2498(3) 0.10653(7) 0.58520(17)
O15 O 0.1695(3) 0.04048(6) 0.1238(2)
O16 O 0.1991(2) 0.01901(5) 0.37872(19)
N2 N 0.46248(19) 0.18766(5) 0.06623(15)
C18 C 0.2997(3) 0.09550(6) 0.3144(2)
C19 C 0.1659(3) 0.13542(7) 0.2773(3)
C20 C 0.5977(3) 0.23670(6) 0.27033(18)
C21 C 0.7685(3) 0.26207(7) 0.2944(2)
C22 C 0.4492(2) 0.16508(6) 0.22672(17)
C23 C 0.3683(3) 0.09471(6) 0.4913(3)
C24 C 0.6149(3) 0.08429(7) 0.2176(3)
C25 C 0.2063(3) 0.21590(7) 0.1477(3)
C26 C 0.2172(3) 0.04872(7) 0.2598(3)
C27 C 0.4403(2) 0.11063(6) 0.20672(19)
C28 C 0.2704(3) 0.18085(6) 0.2758(2)
C29 C 0.7131(3) 0.09811(9) 0.0769(3)
C30 C 0.3072(5) 0.10632(12) 0.7540(3)
C31 C 0.5952(4) 0.03036(8) 0.2230(4)
C32 C 0.1231(4) -0.02659(8) 0.3347(4)
C33 C 0.9088(4) 0.33286(9) 0.2333(4)
C34 C 0.5996(3) 0.18641(6) 0.33110(18)
H26 H 0.10110 0.13030 0.17490
H27 H 0.08640 0.13680 0.35820
H28 H 0.50820 0.25510 0.31570
H29 H 0.68280 0.09440 0.31540
H30 H 0.08240 0.21400 0.12500
H31 H 0.23770 0.24800 0.17900
H32 H 0.38880 0.10540 0.09780
H33 H 0.28200 0.19590 0.38070
H34 H 0.64980 0.08790 -0.02010
H35 H 0.82400 0.08320 0.08760
H36 H 0.72710 0.13180 0.07510
H37 H 0.38520 0.13210 0.77810
H38 H 0.36450 0.07700 0.78150
H39 H 0.20980 0.10970 0.81380
H40 H 0.70610 0.01580 0.22260
H41 H 0.52200 0.02000 0.13190
H42 H 0.54530 0.02150 0.31800
H43 H 0.20790 -0.04650 0.29360
H44 H 0.02840 -0.02220 0.25490
H45 H 0.08300 -0.04120 0.42650
H46 H 0.98210 0.31900 0.16140
H47 H 0.96720 0.33320 0.33860
H48 H 0.88040 0.36470 0.20060
H49 H 0.58070 0.18520 0.44260
H50 H 0.70680 0.17060 0.31560
#END
