
#######################################################################
#
#                 Cambridge Crystallographic Data Centre
#                                CCDC
#
#######################################################################
#
# If this CIF has been generated from an entry in the Cambridge
# Structural Database, then it will include bibliographic, chemical,
# crystal, experimental, refinement or atomic coordinate data resulting
# from the CCDC's data processing and validation procedures.
#
#######################################################################

data_CSD_CIF_SELGIB01
_audit_creation_date 2018-07-05
_audit_creation_method CSD-ConQuest-V1
_database_code_CSD SELGIB01
_database_code_depnum_ccdc_archive 'CCDC 1853913'
_chemical_formula_sum 'C17 H25 N1 O8'
_chemical_formula_moiety
;
C17 H25 N1 O8
;
_journal_coden_Cambridge 1777
_journal_volume 70
_journal_year 2014
_journal_page_first 834
_journal_name_full 'Acta Crystallogr.,Sect.C:Cryst.Struct.Chem. '
loop_
_publ_author_name
"L.M.Henling"
"R.E.Marsh"
_chemical_name_systematic
;
trimethyl 
4-(propan-2-yl)tetrahydro-4H-cyclopenta[c][1,2]oxazolo[2,3-b][1,2]oxazole-2,5,
5(6H)-tricarboxylate
;
_cell_volume   1860.972
_exptl_crystal_colour 'colorless'
_exptl_crystal_density_diffrn 1.326
_exptl_crystal_description 'block'
_diffrn_ambient_temperature 296
loop_
_citation_database_id_CSD
_citation_special_details
SELGIB "is reinterpreted by this entry"
_symmetry_cell_setting monoclinic
_symmetry_space_group_name_H-M 'P 21/c'
_symmetry_Int_Tables_number 14
loop_
_symmetry_equiv_pos_site_id
_symmetry_equiv_pos_as_xyz
1 x,y,z
2 -x,1/2+y,1/2-z
3 -x,-y,-z
4 x,-1/2-y,-1/2+z
_cell_length_a 7.8196(4)
_cell_length_b 28.2633(10)
_cell_length_c 8.4619(3)
_cell_angle_alpha 90
_cell_angle_beta 95.6773(11)
_cell_angle_gamma 90
_cell_formula_units_Z 4
loop_
_atom_type_symbol
_atom_type_radius_bond
C 0.68
H 0.23
N 0.68
O 0.68
loop_
_atom_site_label
_atom_site_type_symbol
_atom_site_fract_x
_atom_site_fract_y
_atom_site_fract_z
C1 C 0.44900 0.33489 0.22670
C2 C 0.59960 0.31361 0.33120
H1 H 0.70680 0.32940 0.31560
H2 H 0.58080 0.31480 0.44280
C3 C 0.59760 0.26332 0.27050
H3 H 0.50820 0.24490 0.31580
O1 O 0.55830 0.26829 0.10050
N1 N 0.46230 0.31233 0.06630
O2 O 0.29210 0.29866 0.01180
C4 C 0.20640 0.28415 0.14760
H4 H 0.08250 0.28610 0.12500
H5 H 0.23760 0.25200 0.17900
C5 C 0.27050 0.31914 0.27560
H6 H 0.28210 0.30410 0.38060
C6 C 0.16590 0.36461 0.27720
H7 H 0.08640 0.36320 0.35810
H8 H 0.10120 0.36980 0.17480
C7 C 0.29960 0.40447 0.31440
C8 C 0.44050 0.38934 0.20660
H9 H 0.38900 0.39460 0.09770
C9 C 0.76860 0.23796 0.29420
O3 O 0.89880 0.25397 0.35900
O4 O 0.75280 0.19478 0.23260
C10 C 0.90880 0.16710 0.23310
H10 H 0.96640 0.16620 0.33860
H11 H 0.98300 0.18120 0.16250
H12 H 0.88040 0.13540 0.19850
C11 C 0.36830 0.40535 0.49130
O5 O 0.24960 0.39348 0.58510
O6 O 0.51100 0.41482 0.54160
C12 C 0.30760 0.39374 0.75420
H13 H 0.36550 0.42300 0.78140
H14 H 0.38510 0.36780 0.77820
H15 H 0.21020 0.39060 0.81420
C13 C 0.21720 0.45144 0.25950
O7 O 0.16970 0.45956 0.12380
O8 O 0.19900 0.48096 0.37880
C14 C 0.12330 0.52662 0.33470
H16 H 0.02550 0.52220 0.25840
H17 H 0.20660 0.54600 0.28930
H18 H 0.08790 0.54190 0.42730
C15 C 0.61490 0.41570 0.21760
H19 H 0.68280 0.40560 0.31540
C16 C 0.71320 0.40186 0.07680
H20 H 0.65020 0.41220 -0.02020
H21 H 0.82430 0.41670 0.08780
H22 H 0.72700 0.36820 0.07480
C17 C 0.59550 0.46961 0.22280
H23 H 0.52220 0.48000 0.13180
H24 H 0.70640 0.48420 0.22230
H25 H 0.54580 0.47850 0.31780
#END
