
#######################################################################
#
#                 Cambridge Crystallographic Data Centre
#                                CCDC
#
#######################################################################
#
# If this CIF has been generated from an entry in the Cambridge
# Structural Database, then it will include bibliographic, chemical,
# crystal, experimental, refinement or atomic coordinate data resulting
# from the CCDC's data processing and validation procedures.
#
#######################################################################

data_CSD_CIF_SELGOH
_audit_creation_date 2013-02-22
_audit_creation_method CSD-ConQuest-V1
_database_code_CSD SELGOH
_database_code_depnum_ccdc_archive 'CCDC 910251'
_chemical_formula_sum 'C16 H17 N1 O6'
_chemical_formula_moiety
;
C16 H17 N1 O6
;
_journal_coden_Cambridge 35
_journal_volume 77
_journal_year 2012
_journal_page_first 2236
_journal_name_full 'J.Org.Chem. '
loop_
_publ_author_name
"A.Kamimura"
"R.Takeuchi"
"K.Ikeda"
"T.Moriyama"
"M.Sumimoto"
_chemical_name_systematic
;
Dimethyl 1-nitro-2-phenylbicyclo[3.1.0]hexane-3,3-dicarboxylate
;
_cell_volume   1567.537
_exptl_crystal_density_diffrn 1.353
_diffrn_ambient_temperature 123
#These two values have been output from a single CSD field.
_refine_ls_R_factor_gt 0.0342
_refine_ls_wR_factor_gt 0.0342
_symmetry_cell_setting monoclinic
_symmetry_space_group_name_H-M 'P 21/c'
_symmetry_Int_Tables_number 14
loop_
_symmetry_equiv_pos_site_id
_symmetry_equiv_pos_as_xyz
1 x,y,z
2 -x,1/2+y,1/2-z
3 -x,-y,-z
4 x,-1/2-y,-1/2+z
_cell_length_a 7.75079(14)
_cell_length_b 17.8174(3)
_cell_length_c 11.3873(2)
_cell_angle_alpha 90
_cell_angle_beta 94.587(1)
_cell_angle_gamma 90
_cell_formula_units_Z 4
loop_
_atom_type_symbol
_atom_type_radius_bond
C 0.68
H 0.23
N 0.68
O 0.68
loop_
_atom_site_label
_atom_site_type_symbol
_atom_site_fract_x
_atom_site_fract_y
_atom_site_fract_z
O1 O 0.73065(11) 0.28352(5) 0.75155(7)
O2 O 0.43781(11) 0.34039(5) 0.56315(8)
O3 O 0.82706(11) 0.23861(6) 0.58412(8)
O4 O 0.35628(12) 0.01604(6) 0.78075(8)
O5 O 0.31446(11) 0.29560(5) 0.72086(8)
O6 O 0.26741(13) -0.01601(5) 0.60230(9)
N1 N 0.32630(13) 0.03007(6) 0.67577(9)
C1 C 0.71326(15) 0.24767(7) 0.64849(10)
C2 C 0.64969(15) 0.11057(7) 0.75148(10)
C3 C 0.87821(17) 0.02353(8) 0.71503(13)
H1 H 0.92960 -0.01030 0.66370
C4 C 0.35640(15) 0.10714(7) 0.63666(10)
C5 C 0.95394(17) 0.03512(8) 0.82783(14)
H2 H 1.05730 0.00940 0.85400
C6 C 0.36106(16) 0.12536(7) 0.50720(11)
H3 H 0.35770 0.08330 0.44900
C7 C 0.48687(15) 0.15421(7) 0.71137(10)
H4 H 0.43220 0.17470 0.78120
C8 C 0.20105(16) 0.14277(8) 0.56840(11)
H5 H 0.09770 0.11100 0.54970
H6 H 0.17590 0.19610 0.58450
C9 C 0.49387(16) 0.18680(7) 0.49881(10)
H7 H 0.44970 0.22610 0.44270
H8 H 0.60250 0.16610 0.47180
C10 C 0.72658(16) 0.12187(8) 0.86459(11)
H9 H 0.67520 0.15540 0.91650
C11 C 0.52589(15) 0.21979(7) 0.62475(10)
C12 C 0.72721(16) 0.06130(7) 0.67672(11)
H10 H 0.67650 0.05340 0.59890
C13 C 0.87827(18) 0.08432(9) 0.90204(13)
H11 H 0.93030 0.09260 0.97930
C14 C 0.34345(18) 0.41014(8) 0.57205(13)
H12 H 0.38080 0.43510 0.64650
H13 H 0.21910 0.39960 0.56960
H14 H 0.36670 0.44300 0.50610
C15 C 0.90386(17) 0.30907(9) 0.78956(13)
H15 H 0.94220 0.34560 0.73270
H16 H 0.98320 0.26610 0.79440
H17 H 0.90330 0.33280 0.86720
C16 C 0.41159(15) 0.28840(7) 0.64427(10)
#END
