
#######################################################################
#
#                 Cambridge Crystallographic Data Centre
#                                CCDC
#
#######################################################################
#
# If this CIF has been generated from an entry in the Cambridge
# Structural Database, then it will include bibliographic, chemical,
# crystal, experimental, refinement or atomic coordinate data resulting
# from the CCDC's data processing and validation procedures.
#
#######################################################################

data_CSD_CIF_SELHEY
_audit_creation_date 2013-02-22
_audit_creation_method CSD-ConQuest-V1
_database_code_CSD SELHEY
_database_code_depnum_ccdc_archive 'CCDC 910254'
_chemical_formula_sum 'C23 H35 N1 O8'
_chemical_formula_moiety
;
C23 H35 N1 O8
;
_journal_coden_Cambridge 35
_journal_volume 77
_journal_year 2012
_journal_page_first 2236
_journal_name_full 'J.Org.Chem. '
loop_
_publ_author_name
"A.Kamimura"
"R.Takeuchi"
"K.Ikeda"
"T.Moriyama"
"M.Sumimoto"
_chemical_name_systematic
;
2-t-Butyl 5,5-dimethyl 
4-cyclohexyltetrahydro-4H-cyclopenta[c][1,2]oxazolo[2,3-b][1,2]oxazole-2,5,5(6
H)-tricarboxylate
;
_cell_volume   4749.481
_exptl_crystal_colour 'colorless'
_exptl_crystal_density_diffrn 1.268
_exptl_crystal_description 'block'
_diffrn_ambient_temperature 296
#These two values have been output from a single CSD field.
_refine_ls_R_factor_gt 0.1108
_refine_ls_wR_factor_gt 0.1108
loop_
_citation_database_id_CSD
_citation_special_details
SELGEX "is a stereoisomer of this entry"
_symmetry_cell_setting orthorhombic
_symmetry_space_group_name_H-M 'P b c a'
_symmetry_Int_Tables_number 61
loop_
_symmetry_equiv_pos_site_id
_symmetry_equiv_pos_as_xyz
1 x,y,z
2 1/2-x,-y,1/2+z
3 1/2+x,1/2-y,-z
4 -x,1/2+y,1/2-z
5 -x,-y,-z
6 -1/2+x,y,-1/2-z
7 -1/2-x,-1/2+y,z
8 x,-1/2-y,-1/2+z
_cell_length_a 10.1204(12)
_cell_length_b 17.700(2)
_cell_length_c 26.514(4)
_cell_angle_alpha 90
_cell_angle_beta 90
_cell_angle_gamma 90
_cell_formula_units_Z 8
loop_
_atom_type_symbol
_atom_type_radius_bond
C 0.68
H 0.23
N 0.68
O 0.68
loop_
_atom_site_label
_atom_site_type_symbol
_atom_site_fract_x
_atom_site_fract_y
_atom_site_fract_z
O1 O 0.2754(5) 0.4147(3) 0.46798(19)
O2 O 0.0964(4) 0.39016(18) 0.42172(13)
O3 O 0.2737(4) 0.2548(2) 0.48020(12)
O4 O 0.2870(4) 0.14076(18) 0.52088(13)
O5 O 0.0505(4) 0.1807(3) 0.73147(14)
O6 O 0.2284(4) 0.1283(2) 0.69634(13)
O7 O -0.0234(4) 0.3194(2) 0.65308(18)
O8 O -0.1411(3) 0.2151(2) 0.64491(15)
N1 N 0.2948(4) 0.2194(2) 0.52941(14)
C1 C 0.0607(10) 0.5229(4) 0.4325(3)
C2 C 0.2198(7) 0.4824(4) 0.3696(3)
C3 C -0.0128(9) 0.4507(5) 0.3558(4)
C4 C 0.0892(5) 0.4651(3) 0.3962(2)
C5 C 0.1849(5) 0.3743(3) 0.45570(18)
C6 C 0.1547(5) 0.2995(3) 0.48111(18)
C7 C 0.1230(5) 0.3104(3) 0.53611(17)
C8 C 0.1744(4) 0.2379(3) 0.56035(17)
C9 C 0.0793(5) 0.1696(3) 0.55347(18)
C10 C 0.1496(6) 0.1218(3) 0.5152(2)
C11 C 0.0686(5) 0.1348(3) 0.60610(18)
C12 C 0.0918(5) 0.2005(3) 0.64292(17)
C13 C 0.2125(4) 0.2398(3) 0.61669(17)
C14 C 0.2652(5) 0.3151(3) 0.63787(18)
C15 C 0.3946(5) 0.3365(3) 0.6113(3)
C16 C 0.4452(7) 0.4130(4) 0.6301(3)
C17 C 0.4654(7) 0.4136(5) 0.6861(4)
C18 C 0.3372(8) 0.3908(4) 0.7131(3)
C19 C 0.2861(6) 0.3147(4) 0.6943(2)
C20 C -0.0280(5) 0.2527(3) 0.64758(18)
C21 C -0.2589(6) 0.2599(4) 0.6510(3)
C22 C 0.1191(5) 0.1706(3) 0.69521(19)
C23 C 0.2637(7) 0.0967(4) 0.7441(2)
H1 H 0.13640 0.53050 0.45380
H2 H -0.01340 0.50780 0.45280
H3 H 0.04010 0.56920 0.41530
H4 H 0.28330 0.49960 0.39390
H5 H 0.20590 0.52100 0.34480
H6 H 0.25200 0.43750 0.35350
H7 H -0.01620 0.49310 0.33330
H8 H -0.09780 0.44370 0.37120
H9 H 0.01070 0.40610 0.33720
H10 H 0.08240 0.27330 0.46380
H11 H 0.02860 0.31600 0.54130
H12 H 0.16780 0.35440 0.54960
H13 H -0.00730 0.18590 0.54100
H14 H 0.13510 0.06860 0.52180
H15 H 0.11910 0.13340 0.48140
H16 H 0.13480 0.09570 0.61070
H17 H -0.01820 0.11280 0.61120
H18 H 0.28590 0.20400 0.62000
H19 H 0.20000 0.35440 0.63020
H20 H 0.46070 0.29800 0.61780
H21 H 0.38000 0.33880 0.57520
H22 H 0.52820 0.42460 0.61350
H23 H 0.38210 0.45200 0.62100
H24 H 0.49180 0.46380 0.69690
H25 H 0.53530 0.37860 0.69500
H26 H 0.35320 0.38790 0.74910
H27 H 0.27040 0.42920 0.70740
H28 H 0.34920 0.27550 0.70300
H29 H 0.20330 0.30310 0.71090
H30 H -0.25950 0.29970 0.62630
H31 H -0.26040 0.28140 0.68420
H32 H -0.33530 0.22850 0.64630
H33 H 0.19800 0.06060 0.75410
H34 H 0.26890 0.13620 0.76880
H35 H 0.34790 0.07210 0.74140
#END
