
#######################################################################
#
#                 Cambridge Crystallographic Data Centre
#                                CCDC
#
#######################################################################
#
# If this CIF has been generated from an entry in the Cambridge
# Structural Database, then it will include bibliographic, chemical,
# crystal, experimental, refinement or atomic coordinate data resulting
# from the CCDC's data processing and validation procedures.
#
#######################################################################

data_CSD_CIF_SELXOY
_audit_creation_date 2013-02-22
_audit_creation_method CSD-ConQuest-V1
_database_code_CSD SELXOY
_database_code_depnum_ccdc_archive 'CCDC 885212'
_chemical_formula_sum 'C19 H24 N2 O2'
_chemical_formula_moiety
;
C19 H24 N2 O2
;
_journal_coden_Cambridge 177
_journal_volume 10
_journal_year 2012
_journal_page_first 8963
_journal_name_full 'Org.Biomol.Chem. '
loop_
_publ_author_name
"A.J.Hodges"
"J.P.Adams"
"A.D.Bond"
"A.B.Holmes"
"N.J.Press"
"S.D.Roughley"
"J.H.Ryan"
"S.Saubern"
"C.J.Smith"
"M.D.Turnbull"
"A.F.Newton"
_chemical_name_systematic
;
(1R,5S,8S,12S)-8-(Benzyloxymethyl)-12-cyano-7-aza-6-oxatricyclo[5.4.11,5.0]und
ecane
;
_chemical_melting_point 387.15
_cell_volume    834.408
_exptl_crystal_colour 'colorless'
_exptl_crystal_density_diffrn 1.243
_exptl_special_details
;
Melts with decomposition.

;
_exptl_crystal_description 'plate'
_diffrn_ambient_temperature 150
_diffrn_radiation_probe x-ray
_diffrn_source synchrotron
#These two values have been output from a single CSD field.
_refine_ls_R_factor_gt 0.0643
_refine_ls_wR_factor_gt 0.0643
_symmetry_cell_setting monoclinic
_symmetry_space_group_name_H-M 'P 21'
_symmetry_Int_Tables_number 4
loop_
_symmetry_equiv_pos_site_id
_symmetry_equiv_pos_as_xyz
1 x,y,z
2 -x,1/2+y,-z
_cell_length_a 8.4675(15)
_cell_length_b 11.662(2)
_cell_length_c 8.6820(16)
_cell_angle_alpha 90
_cell_angle_beta 103.279(5)
_cell_angle_gamma 90
_cell_formula_units_Z 2
loop_
_atom_type_symbol
_atom_type_radius_bond
C 0.68
H 0.23
N 0.68
O 0.68
loop_
_atom_site_label
_atom_site_type_symbol
_atom_site_fract_x
_atom_site_fract_y
_atom_site_fract_z
N1 N 0.09780(19) -0.02584(17) 0.7385(2)
C1 C -0.0230(2) -0.1202(2) 0.6985(3)
C2 C 0.0113(3) -0.2188(2) 0.8187(3)
H1 H -0.08750 -0.26670 0.80450
H2 H 0.09820 -0.26740 0.79400
C3 C 0.0617(3) -0.1835(3) 0.9908(3)
H3 H -0.03210 -0.14990 1.02500
H4 H 0.09940 -0.25140 1.05760
C4 C 0.1971(3) -0.0962(2) 1.0100(3)
H5 H 0.29230 -0.13140 0.98050
H6 H 0.23000 -0.07220 1.12220
C5 C 0.1431(2) 0.0081(2) 0.9068(3)
H7 H 0.04690 0.04340 0.93710
C6 C -0.0182(3) -0.1673(2) 0.5340(3)
H8 H 0.08510 -0.20910 0.54220
H9 H -0.10770 -0.22310 0.50120
C7 C -0.0332(3) -0.0758(3) 0.4062(3)
H10 H 0.07180 -0.03530 0.41940
H11 H -0.05730 -0.11320 0.30110
C8 C -0.1652(3) 0.0109(3) 0.4119(3)
H12 H -0.15230 0.07920 0.34810
H13 H -0.27310 -0.02310 0.36730
C9 C -0.1527(2) 0.0457(2) 0.5826(3)
H14 H -0.22800 0.11050 0.58950
C10 C -0.1885(2) -0.0576(2) 0.6762(3)
H15 H -0.27490 -0.10520 0.60740
O1 O 0.01375(18) 0.07589(15) 0.65616(19)
C11 C -0.2410(3) -0.0254(2) 0.8202(3)
N2 N -0.2899(3) 0.0022(3) 0.9270(3)
C12 C 0.2785(3) 0.0968(2) 0.9264(3)
H16 H 0.37730 0.06250 0.90300
H17 H 0.24430 0.16250 0.85420
C13 C 0.4519(3) 0.1969(2) 1.1385(3)
H18 H 0.44250 0.27160 1.08290
H19 H 0.54540 0.15490 1.11560
C14 C 0.4763(2) 0.2155(2) 1.3137(3)
C15 C 0.3998(3) 0.1450(2) 1.4040(3)
H20 H 0.33160 0.08470 1.35390
C16 C 0.4214(3) 0.1614(2) 1.5642(3)
H21 H 0.36880 0.11200 1.62380
C17 C 0.5192(3) 0.2492(2) 1.6393(3)
H22 H 0.53340 0.26090 1.75000
C18 C 0.5968(3) 0.3204(2) 1.5505(3)
H23 H 0.66460 0.38080 1.60110
C19 C 0.5756(2) 0.3036(2) 1.3894(3)
H24 H 0.62900 0.35240 1.32990
O2 O 0.30856(19) 0.13295(19) 1.0867(2)
#END
