
#######################################################################
#
#                 Cambridge Crystallographic Data Centre
#                                CCDC
#
#######################################################################
#
# If this CIF has been generated from an entry in the Cambridge
# Structural Database, then it will include bibliographic, chemical,
# crystal, experimental, refinement or atomic coordinate data resulting
# from the CCDC's data processing and validation procedures.
#
#######################################################################

data_CSD_CIF_SEMBUJ
_audit_creation_date 2013-02-22
_audit_creation_method CSD-ConQuest-V1
_database_code_CSD SEMBUJ
_database_code_depnum_ccdc_archive 'CCDC 880839'
_chemical_formula_sum 'C18 H16 N2 O3'
_chemical_formula_moiety
;
C18 H16 N2 O3
;
_journal_coden_Cambridge 177
_journal_volume 10
_journal_year 2012
_journal_page_first 9204
_journal_name_full 'Org.Biomol.Chem. '
loop_
_publ_author_name
"M.L.McIntosh"
"M.R.Naffziger"
"B.O.Ashburn"
"L.N.Zakharov"
"R.G.Carter"
_chemical_name_systematic
;
3-Mesityl-5-(2-nitrophenyl)-1,2-oxazole
;
_chemical_melting_point 395.15
_cell_volume   3172.469
_exptl_crystal_colour 'colorless'
_exptl_crystal_density_diffrn 1.291
_exptl_special_details
;
Melting point range 395.15-396.15K

;
_exptl_crystal_description 'prism'
_diffrn_ambient_temperature 173
#These two values have been output from a single CSD field.
_refine_ls_R_factor_gt 0.0521
_refine_ls_wR_factor_gt 0.0521
_symmetry_cell_setting orthorhombic
_symmetry_space_group_name_H-M 'P n a 21'
_symmetry_Int_Tables_number 33
loop_
_symmetry_equiv_pos_site_id
_symmetry_equiv_pos_as_xyz
1 x,y,z
2 -x,-y,1/2+z
3 1/2+x,1/2-y,z
4 1/2-x,1/2+y,1/2+z
_cell_length_a 19.125(5)
_cell_length_b 7.3751(19)
_cell_length_c 22.492(6)
_cell_angle_alpha 90
_cell_angle_beta 90
_cell_angle_gamma 90
_cell_formula_units_Z 8
loop_
_atom_type_symbol
_atom_type_radius_bond
C 0.68
H 0.23
N 0.68
O 0.68
loop_
_atom_site_label
_atom_site_type_symbol
_atom_site_fract_x
_atom_site_fract_y
_atom_site_fract_z
O1 O 0.34585(14) 0.6597(3) 0.42318(15)
O2 O 0.28050(14) 0.4571(3) 0.46298(12)
O3 O 0.22323(9) 0.2317(3) 0.37322(11)
N1 N 0.32960(12) 0.5029(3) 0.43240(12)
N2 N 0.15658(11) 0.1650(4) 0.38973(14)
C1 C 0.37279(12) 0.3605(4) 0.40386(12)
C2 C 0.44108(14) 0.4049(4) 0.39128(14)
H1 H 0.45820 0.52290 0.39990
C3 C 0.48454(14) 0.2768(5) 0.36602(15)
H2 H 0.53170 0.30590 0.35670
C4 C 0.45850(14) 0.1058(5) 0.35456(14)
H3 H 0.48800 0.01710 0.33690
C5 C 0.38962(14) 0.0613(4) 0.36848(13)
H4 H 0.37290 -0.05780 0.36100
C6 C 0.34509(12) 0.1898(4) 0.39321(11)
C7 C 0.27137(13) 0.1387(4) 0.40407(12)
C8 C 0.24060(13) 0.0150(4) 0.43883(13)
H5 H 0.26260 -0.06950 0.46470
C9 C 0.16792(13) 0.0378(4) 0.42865(12)
C10 C 0.10730(12) -0.0566(3) 0.45720(12)
C11 C 0.08971(12) -0.2328(3) 0.43983(12)
C12 C 0.03428(14) -0.3183(4) 0.46741(12)
H6 H 0.02190 -0.43740 0.45530
C13 C -0.00385(13) -0.2358(4) 0.51225(14)
C14 C 0.01388(14) -0.0609(4) 0.52909(13)
H7 H -0.01240 -0.00230 0.55940
C15 C 0.06966(14) 0.0311(4) 0.50242(12)
C16 C 0.12942(14) -0.3293(4) 0.39037(14)
H8 H 0.10990 -0.45080 0.38460
H9 H 0.17890 -0.33910 0.40130
H10 H 0.12500 -0.25990 0.35340
C17 C -0.06358(16) -0.3350(5) 0.54240(16)
H11 H -0.06870 -0.45590 0.52480
H12 H -0.10700 -0.26650 0.53690
H13 H -0.05370 -0.34660 0.58500
C18 C 0.09021(17) 0.2170(4) 0.52353(17)
H14 H 0.05830 0.25600 0.55510
H15 H 0.08760 0.30260 0.49030
H16 H 0.13810 0.21370 0.53900
O4 O -0.10339(12) 0.3400(3) 0.21307(12)
O5 O -0.05499(13) 0.5413(3) 0.15715(11)
O6 O 0.01482(9) 0.7416(3) 0.24956(11)
N3 N -0.09470(12) 0.4963(3) 0.19698(11)
N4 N 0.08183(11) 0.8013(3) 0.23231(14)
C19 C -0.13591(12) 0.6378(3) 0.22675(12)
C20 C -0.20386(13) 0.5925(4) 0.24241(13)
H17 H -0.22150 0.47390 0.23580
C21 C -0.24544(12) 0.7263(4) 0.26818(14)
H18 H -0.29250 0.70010 0.27860
C22 C -0.21864(13) 0.8950(4) 0.27841(13)
H19 H -0.24740 0.98500 0.29620
C23 C -0.15045(14) 0.9373(4) 0.26333(13)
H20 H -0.13290 1.05550 0.27110
C24 C -0.10740(12) 0.8088(3) 0.23700(12)
C25 C -0.03343(13) 0.8527(3) 0.22505(12)
C26 C -0.00174(14) 0.9840(4) 0.19379(13)
H21 H -0.02300 1.08090 0.17260
C27 C 0.07121(13) 0.9452(3) 0.19949(12)
C28 C 0.13208(13) 1.0402(3) 0.17242(12)
C29 C 0.14904(13) 1.2157(4) 0.19115(13)
C30 C 0.20705(14) 1.3002(4) 0.16535(13)
H22 H 0.21930 1.41860 0.17830
C31 C 0.24719(14) 1.2192(5) 0.12185(14)
C32 C 0.22857(16) 1.0462(4) 0.10387(14)
H23 H 0.25580 0.98810 0.07410
C33 C 0.17119(14) 0.9533(4) 0.12788(13)
C34 C 0.10788(15) 1.3108(4) 0.23801(14)
H24 H 0.12800 1.43120 0.24500
H25 H 0.10930 1.24020 0.27490
H26 H 0.05930 1.32370 0.22490
C35 C 0.30891(17) 1.3149(6) 0.09409(17)
H27 H 0.31420 1.43510 0.11210
H28 H 0.30110 1.32790 0.05120
H29 H 0.35140 1.24380 0.10090
C36 C 0.15297(18) 0.7670(4) 0.10433(19)
H30 H 0.11190 0.72040 0.12550
H31 H 0.19260 0.68480 0.11050
H32 H 0.14260 0.77510 0.06170
#END
