
#######################################################################
#
#                 Cambridge Crystallographic Data Centre
#                                CCDC
#
#######################################################################
#
# If this CIF has been generated from an entry in the Cambridge
# Structural Database, then it will include bibliographic, chemical,
# crystal, experimental, refinement or atomic coordinate data resulting
# from the CCDC's data processing and validation procedures.
#
#######################################################################

data_CSD_CIF_SEMLUU
_audit_creation_date 2017-10-31
_audit_creation_method CSD-ConQuest-V1
_database_code_CSD SEMLUU
_database_code_depnum_ccdc_archive 'CCDC 1454193'
_chemical_formula_sum 'C6 H8 N10 O4'
_chemical_formula_moiety
;
C6 H8 N10 O4
;
_journal_coden_Cambridge 1699
_journal_volume 4
_journal_year 2016
_journal_page_first 9220
_journal_name_full 'J.Mater.Chem.A '
loop_
_publ_author_name
"D.Kumar"
"Chunlin He"
"L.A.Mitchell"
"D.A.Parrish"
"J.M.Shreeve"
_chemical_name_systematic
;
1-(2-(4-amino-3,5-dinitro-1H-pyrazol-1-yl)ethyl)-1H-tetrazol-5-amine
;
_cell_volume   1099.416
_exptl_crystal_colour 'yellow'
_exptl_crystal_density_diffrn 1.717
_exptl_crystal_description 'plate'
_diffrn_ambient_temperature 150
#These two values have been output from a single CSD field.
_refine_ls_R_factor_gt 0.0571
_refine_ls_wR_factor_gt 0.0571
_symmetry_cell_setting triclinic
_symmetry_space_group_name_H-M 'P -1'
_symmetry_Int_Tables_number 2
loop_
_symmetry_equiv_pos_site_id
_symmetry_equiv_pos_as_xyz
1 x,y,z
2 -x,-y,-z
_cell_length_a 7.1049(2)
_cell_length_b 9.0630(3)
_cell_length_c 17.4419(5)
_cell_angle_alpha 93.227(2)
_cell_angle_beta 100.858(2)
_cell_angle_gamma 92.641(2)
_cell_formula_units_Z 4
loop_
_atom_type_symbol
_atom_type_radius_bond
C 0.68
H 0.23
N 0.68
O 0.68
loop_
_atom_site_label
_atom_site_type_symbol
_atom_site_fract_x
_atom_site_fract_y
_atom_site_fract_z
N1 N 0.9871(6) 0.7040(4) 0.4609(2)
C1 C 0.9289(5) 0.8303(4) 0.4312(2)
N2 N 0.7727(5) 0.8985(3) 0.4422(2)
N3 N 0.7730(5) 1.0220(4) 0.4008(2)
N4 N 0.9180(5) 1.0323(3) 0.3664(2)
N5 N 1.0214(4) 0.9118(3) 0.38637(18)
C2 C 1.1980(5) 0.8866(4) 0.3572(2)
H1 H 1.28690 0.83680 0.39700
H2 H 1.26050 0.98350 0.35020
C3 C 1.1667(5) 0.7940(4) 0.2807(2)
H3 H 1.29250 0.76740 0.26920
H4 H 1.09210 0.70120 0.28560
N6 N 1.0639(4) 0.8728(3) 0.21580(18)
N7 N 1.1678(4) 0.9539(3) 0.17677(18)
C4 C 1.0403(5) 1.0237(4) 0.1272(2)
N8 N 1.1100(4) 1.1171(3) 0.07480(18)
O1 O 0.9877(4) 1.1806(3) 0.02962(16)
O2 O 1.2831(4) 1.1302(3) 0.07528(17)
C5 C 0.8485(5) 0.9939(4) 0.1343(2)
N9 N 0.6867(5) 1.0481(4) 0.0954(2)
C6 C 0.8704(5) 0.8932(4) 0.1927(2)
N10 N 0.7258(4) 0.8179(3) 0.22132(19)
O3 O 0.5590(4) 0.8530(3) 0.19692(18)
O4 O 0.7631(4) 0.7203(3) 0.26759(17)
H5 H 0.690(5) 1.119(4) 0.0602(19)
H6 H 0.906(6) 0.653(5) 0.487(3)
H7 H 0.583(5) 1.024(5) 0.118(3)
H8 H 1.078(7) 0.661(5) 0.447(3)
N11 N 0.5191(5) 0.7966(4) 0.5480(2)
C7 C 0.5669(5) 0.6630(4) 0.5721(2)
N12 N 0.7058(4) 0.5852(3) 0.55187(18)
N13 N 0.7060(4) 0.4611(3) 0.59235(18)
N14 N 0.5751(4) 0.4586(3) 0.63414(18)
N15 N 0.4831(4) 0.5867(3) 0.62237(17)
C8 C 0.3377(5) 0.6288(4) 0.6667(2)
H9 H 0.26700 0.53840 0.67800
H10 H 0.24470 0.68930 0.63450
C9 C 0.4233(5) 0.7165(4) 0.7435(2)
H11 H 0.50610 0.80090 0.73300
H12 H 0.31850 0.75680 0.76710
N16 N 0.5374(4) 0.6235(3) 0.79933(18)
N17 N 0.4463(4) 0.5463(3) 0.84503(18)
C10 C 0.5789(5) 0.4668(4) 0.8856(2)
N18 N 0.5201(5) 0.3684(4) 0.9389(2)
O5 O 0.3512(4) 0.3586(3) 0.94557(18)
O6 O 0.6485(4) 0.2975(3) 0.97562(17)
C11 C 0.7618(5) 0.4879(4) 0.8678(2)
N19 N 0.9262(5) 0.4261(4) 0.8977(2)
C12 C 0.7285(5) 0.5901(4) 0.8105(2)
N20 N 0.8627(5) 0.6523(4) 0.7704(2)
O7 O 1.0253(4) 0.6045(4) 0.7849(2)
O8 O 0.8185(4) 0.7475(3) 0.72376(17)
H13 H 0.581(6) 0.833(4) 0.512(2)
H14 H 0.428(6) 0.841(5) 0.566(2)
H15 H 1.036(4) 0.466(4) 0.884(2)
H16 H 0.927(9) 0.377(6) 0.943(2)
#END
