
#######################################################################
#
#                 Cambridge Crystallographic Data Centre
#                                CCDC
#
#######################################################################
#
# If this CIF has been generated from an entry in the Cambridge
# Structural Database, then it will include bibliographic, chemical,
# crystal, experimental, refinement or atomic coordinate data resulting
# from the CCDC's data processing and validation procedures.
#
#######################################################################

data_CSD_CIF_SEMTAF02
_audit_creation_date 2016-12-10
_audit_creation_method CSD-ConQuest-V1
_database_code_CSD SEMTAF02
_database_code_depnum_ccdc_archive 'CCDC 1520553'
_chemical_formula_sum 'C8 H7 N1 O4'
_chemical_formula_moiety
;
C8 H7 N1 O4
;
_journal_coeditor_code "hb4100"
_journal_coden_Cambridge 1959
_journal_volume 1
_journal_year 2016
_journal_page_first x161932
_journal_name_full 'IUCrData '
loop_
_publ_author_name
"A.R.Kennedy"
"L.Silva de Moraes"
_chemical_name_systematic
;
(4-nitrophenyl)acetic acid
;
_cell_volume    792.979
_exptl_crystal_colour 'colorless'
_exptl_crystal_density_diffrn 1.517
_exptl_special_details
;
monoclinic P21/c polymorph

;
_exptl_crystal_description 'tablet'
_diffrn_ambient_temperature 150
#These two values have been output from a single CSD field.
_refine_ls_R_factor_gt 0.0536
_refine_ls_wR_factor_gt 0.0536
_symmetry_cell_setting monoclinic
_symmetry_space_group_name_H-M 'P 21/c'
_symmetry_Int_Tables_number 14
loop_
_symmetry_equiv_pos_site_id
_symmetry_equiv_pos_as_xyz
1 x,y,z
2 -x,1/2+y,1/2-z
3 -x,-y,-z
4 x,-1/2-y,-1/2+z
_cell_length_a 6.1364(5)
_cell_length_b 5.1034(4)
_cell_length_c 25.458(3)
_cell_angle_alpha 90
_cell_angle_beta 95.937(8)
_cell_angle_gamma 90
_cell_formula_units_Z 4
loop_
_atom_type_symbol
_atom_type_radius_bond
C 0.68
H 0.23
N 0.68
O 0.68
loop_
_atom_site_label
_atom_site_type_symbol
_atom_site_fract_x
_atom_site_fract_y
_atom_site_fract_z
O1 O 0.1037(3) 0.8022(4) 0.03062(7)
O2 O 0.8335(3) -0.2053(3) 0.23833(7)
O3 O 1.0830(3) -0.1662(4) 0.18470(7)
O4 O 0.2209(3) 0.3888(3) 0.03653(7)
N1 N 0.9081(3) -0.1028(4) 0.20049(8)
C1 C 0.7826(4) 0.1092(5) 0.17228(9)
C2 C 0.5454(4) 0.5029(5) 0.11899(9)
C3 C 0.4753(4) 0.3949(5) 0.16427(9)
H1 H 0.34490 0.45820 0.17700
C4 C 0.2380(4) 0.6189(5) 0.04973(9)
C5 C 0.5924(4) 0.1965(5) 0.19118(9)
H2 H 0.54310 0.12180 0.22200
C6 C 0.8571(4) 0.2132(5) 0.12774(9)
H3 H 0.98860 0.15110 0.11550
C7 C 0.7366(4) 0.4104(5) 0.10109(10)
H4 H 0.78580 0.48330 0.07010
C8 C 0.4160(4) 0.7176(5) 0.08958(10)
H5 H 0.34970 0.82980 0.11540
H6 H 0.51730 0.82800 0.07130
H7 H -0.009(7) 0.741(8) 0.0027(16)
#END
