
#######################################################################
#
#                 Cambridge Crystallographic Data Centre
#                                CCDC
#
#######################################################################
#
# If this CIF has been generated from an entry in the Cambridge
# Structural Database, then it will include bibliographic, chemical,
# crystal, experimental, refinement or atomic coordinate data resulting
# from the CCDC's data processing and validation procedures.
#
#######################################################################

data_CSD_CIF_SEMWOX
_audit_creation_date 2006-10-10
_audit_creation_method CSD-ConQuest-V1
_database_code_CSD SEMWOX
_database_code_depnum_ccdc_archive 'CCDC 611727'
_chemical_formula_sum 'C21 H25 N1 O8'
_chemical_formula_moiety
;
C21 H25 N1 O8
;
_journal_coden_Cambridge 1078
_journal_year 2006
_journal_name_full 'CSD Communication(Private Communication) '
loop_
_publ_author_name
"S.Parsons"
"S.Aitken"
"N.J.Turner"
"R.Johnstone"
_chemical_name_systematic
;
5-[(4-nitrobenzyl)oxy]tetrahydrofuran-3-yl 
4,7,7-trimethyl-3-oxo-2-oxabicyclo[2.2.1]heptane-1-carboxylate
;
_chemical_melting_point 346.15
_cell_volume   1027.286
_exptl_crystal_colour 'colorless'
_exptl_special_details
;
contribution from School of Chemistry, The University of Edinburgh King's 
Buildings, West Mains Road, Edinburgh, Scotland EH9 3JJ
;
_exptl_crystal_description 'needle'
_exptl_crystal_preparation 'ether'
_diffrn_ambient_temperature 150
#These two values have been output from a single CSD field.
_refine_ls_R_factor_gt 0.0571
_refine_ls_wR_factor_gt 0.0571
_symmetry_cell_setting monoclinic
_symmetry_space_group_name_H-M 'P 21'
_symmetry_Int_Tables_number 4
loop_
_symmetry_equiv_pos_site_id
_symmetry_equiv_pos_as_xyz
1 x,y,z
2 -x,1/2+y,-z
_cell_length_a 11.423(5)
_cell_length_b 6.727(3)
_cell_length_c 13.889(6)
_cell_angle_alpha 90
_cell_angle_beta 105.732(8)
_cell_angle_gamma 90
_cell_formula_units_Z 2
loop_
_atom_type_symbol
_atom_type_radius_bond
C 0.68
H 0.23
N 0.68
O 0.68
loop_
_atom_site_label
_atom_site_type_symbol
_atom_site_fract_x
_atom_site_fract_y
_atom_site_fract_z
O1 O 0.1643(2) 0.6139(4) 0.31358(19)
C1 C 0.2700(3) 0.4890(7) 0.3658(3)
C2 C 0.3783(4) 0.6341(7) 0.3902(3)
H1 H 0.45640 0.56310 0.41620
H2 H 0.38140 0.71320 0.33080
C3 C 0.3486(4) 0.7650(7) 0.4710(3)
H3 H 0.33840 0.90550 0.44920
H4 H 0.41410 0.75680 0.53440
C4 C 0.2289(3) 0.6804(7) 0.4842(3)
O2 O 0.0572(3) 0.8516(6) 0.3651(2)
C5 C 0.1375(4) 0.7309(7) 0.3847(3)
C6 C 0.2416(3) 0.4569(7) 0.4676(3)
O3 O 0.3543(3) 0.1828(5) 0.3395(2)
C7 C 0.2848(4) 0.3167(8) 0.3056(3)
O4 O 0.2204(2) 0.3259(5) 0.20912(19)
C8 C 0.2487(4) 0.1727(7) 0.1435(3)
H5 H 0.33750 0.14040 0.16350
C9 C 0.2094(4) 0.2573(7) 0.0367(3)
H6 H 0.16230 0.38160 0.03400
H7 H 0.28060 0.28340 0.01080
C10 C 0.1314(4) 0.0935(8) -0.0212(3)
H8 H 0.06710 0.15080 -0.07830
O5 O 0.0776(3) -0.0011(5) 0.0465(2)
C11 C 0.1733(4) -0.0120(8) 0.1402(3)
H9 H 0.22360 -0.13250 0.14180
H10 H 0.13800 -0.01590 0.19790
O6 O 0.2067(3) -0.0343(5) -0.0573(2)
C12 C 0.1405(4) -0.1928(7) -0.1182(3)
H11 H 0.09200 -0.13800 -0.18290
H12 H 0.08350 -0.25330 -0.08410
C13 C 0.2238(4) -0.3472(7) -0.1367(3)
C14 C 0.1738(4) -0.5111(8) -0.1937(3)
H13 H 0.08810 -0.51740 -0.22130
C15 C 0.2444(4) -0.6642(9) -0.2113(3)
H14 H 0.20830 -0.77480 -0.25090
C16 C 0.3705(4) -0.6553(9) -0.1701(3)
C17 C 0.4226(4) -0.4918(8) -0.1144(3)
H15 H 0.50840 -0.48420 -0.08820
C18 C 0.3499(4) -0.3399(8) -0.0968(3)
H16 H 0.38590 -0.22930 -0.05720
N1 N 0.4464(5) -0.8150(8) -0.1885(3)
O7 O 0.5570(4) -0.8024(7) -0.1510(3)
O8 O 0.3987(4) -0.9563(6) -0.2413(3)
C19 C 0.1931(4) 0.7508(7) 0.5760(3)
H17 H 0.25600 0.71200 0.63640
H18 H 0.11540 0.69010 0.57710
H19 H 0.18470 0.89590 0.57400
C20 C 0.1258(3) 0.3381(8) 0.4581(3)
H20 H 0.14150 0.19730 0.44850
H21 H 0.06210 0.38660 0.40050
H22 H 0.09920 0.35400 0.51900
C21 C 0.3454(4) 0.3589(8) 0.5483(3)
H23 H 0.34910 0.21700 0.53350
H24 H 0.33030 0.37530 0.61400
H25 H 0.42280 0.42210 0.54860
#END
