
#######################################################################
#
#                 Cambridge Crystallographic Data Centre
#                                CCDC
#
#######################################################################
#
# If this CIF has been generated from an entry in the Cambridge
# Structural Database, then it will include bibliographic, chemical,
# crystal, experimental, refinement or atomic coordinate data resulting
# from the CCDC's data processing and validation procedures.
#
#######################################################################

data_CSD_CIF_SEMXAJ
_audit_creation_date 1990-11-19
_audit_creation_method CSD-ConQuest-V1
_database_code_CSD SEMXAJ
_chemical_formula_sum 'C12 H16 N2 O5'
_chemical_formula_moiety
;
C12 H16 N2 O5
;
_journal_coeditor_code "IUCr MU0095"
_journal_coden_Cambridge 591
_journal_volume 46
_journal_year 1990
_journal_page_first 468
_journal_name_full 'Acta Crystallogr.,Sect.C:Cryst.Struct.Commun. '
loop_
_publ_author_name
"D.J.A.De Ridder"
"K.Goubitz"
"H.Schenk"
_chemical_name_systematic
;
4-t-Butyl-3-methoxy-2,6-dinitrotoluene
;
_chemical_name_common
;
Musk Ambrette
;
_cell_volume   1365.601
_exptl_crystal_density_diffrn 1.3
_exptl_special_details
;
used in the preparation of perfumes

;
_diffrn_ambient_temperature ?
_diffrn_special_details
;
The study was carried out at room temperature,in the range 283-303K

;
#These two values have been output from a single CSD field.
_refine_ls_R_factor_gt 0.048
_refine_ls_wR_factor_gt 0.048
_symmetry_cell_setting monoclinic
_symmetry_space_group_name_H-M 'P 21/n'
_symmetry_Int_Tables_number 14
loop_
_symmetry_equiv_pos_site_id
_symmetry_equiv_pos_as_xyz
1 x,y,z
2 1/2-x,1/2+y,1/2-z
3 -x,-y,-z
4 -1/2+x,-1/2-y,-1/2+z
_cell_length_a 9.875(5)
_cell_length_b 9.865(1)
_cell_length_c 14.326(5)
_cell_angle_alpha 90
_cell_angle_beta 101.90(4)
_cell_angle_gamma 90
_cell_formula_units_Z 4
loop_
_atom_type_symbol
_atom_type_radius_bond
C 0.68
H 0.23
N 0.68
O 0.68
loop_
_atom_site_label
_atom_site_type_symbol
_atom_site_fract_x
_atom_site_fract_y
_atom_site_fract_z
C1 C 0.7847(3) 0.7158(3) 0.0825(2)
C2 C 0.7697(3) 0.5944(3) 0.1288(2)
C3 C 0.6539(3) 0.5553(3) 0.1622(2)
C4 C 0.5416(3) 0.6447(3) 0.1545(2)
C5 C 0.5558(3) 0.7689(3) 0.1113(2)
C6 C 0.6702(3) 0.7994(3) 0.0754(2)
C7 C 0.9145(4) 0.7514(4) 0.0481(3)
C8 C 0.6494(5) 0.3111(3) 0.1515(3)
C9 C 0.4120(3) 0.6121(3) 0.1939(2)
C10 C 0.3399(4) 0.4850(4) 0.1462(3)
C11 C 0.3077(4) 0.7284(4) 0.1754(4)
C12 C 0.4535(4) 0.5915(5) 0.3016(3)
N1 N 0.8924(3) 0.5045(3) 0.1481(3)
N2 N 0.6715(3) 0.9317(3) 0.0276(2)
O1 O 0.6530(3) 0.4331(2) 0.2079(1)
O2 O 0.9116(4) 0.4302(3) 0.0848(2)
O3 O 0.9686(3) 0.5127(4) 0.2247(2)
O4 O 0.6369(3) 1.0309(2) 0.0678(2)
O5 O 0.6997(4) 0.9363(3) -0.0493(3)
H1 H 0.480(3) 0.834(3) 0.103(2)
H2 H 0.913(4) 0.718(4) -0.011(3)
H3 H 0.934(6) 0.860(6) 0.040(4)
H4 H 0.993(4) 0.709(5) 0.091(3)
H5 H 0.622(4) 0.328(5) 0.083(3)
H6 H 0.594(4) 0.257(5) 0.178(3)
H7 H 0.746(5) 0.271(6) 0.153(4)
H8 H 0.318(4) 0.499(4) 0.081(3)
H9 H 0.392(4) 0.402(5) 0.166(3)
H10 H 0.253(4) 0.469(4) 0.164(3)
H11 H 0.349(4) 0.816(5) 0.205(3)
H12 H 0.239(3) 0.705(4) 0.205(2)
H13 H 0.272(4) 0.737(4) 0.103(3)
H14 H 0.498(4) 0.677(4) 0.339(3)
H15 H 0.374(4) 0.563(4) 0.327(3)
H16 H 0.526(4) 0.514(4) 0.317(3)
#END
