
#######################################################################
#
#                 Cambridge Crystallographic Data Centre
#                                CCDC
#
#######################################################################
#
# If this CIF has been generated from an entry in the Cambridge
# Structural Database, then it will include bibliographic, chemical,
# crystal, experimental, refinement or atomic coordinate data resulting
# from the CCDC's data processing and validation procedures.
#
#######################################################################

data_CSD_CIF_SEMYIS
_audit_creation_date 1990-11-19
_audit_creation_method CSD-ConQuest-V1
_database_code_CSD SEMYIS
_chemical_formula_sum 'C9 H11 N1 O2'
_chemical_formula_moiety
;
C9 H11 N1 O2
;
_journal_coeditor_code "IUCr GR0053"
_journal_coden_Cambridge 591
_journal_volume 46
_journal_year 1990
_journal_page_first 816
_journal_name_full 'Acta Crystallogr.,Sect.C:Cryst.Struct.Commun. '
loop_
_publ_author_name
"A.Dietrich"
"D.R.Powell"
"D.L.Eng-Wilmot"
"M.B.Hossain"
"D.van der Helm"
_chemical_name_systematic
;
N-(p-Tolyl)acetohydroxamic acid
;
_cell_volume   1702.034
_exptl_crystal_colour 'colorless'
_exptl_crystal_density_diffrn 1.29
_diffrn_ambient_temperature 138
#These two values have been output from a single CSD field.
_refine_ls_R_factor_gt 0.044
_refine_ls_wR_factor_gt 0.044
_symmetry_cell_setting orthorhombic
_symmetry_space_group_name_H-M 'P b c a'
_symmetry_Int_Tables_number 61
loop_
_symmetry_equiv_pos_site_id
_symmetry_equiv_pos_as_xyz
1 x,y,z
2 1/2-x,1/2+y,z
3 x,1/2-y,1/2+z
4 1/2-x,-y,1/2+z
5 -x,-y,-z
6 -1/2+x,-1/2-y,-z
7 -x,-1/2+y,-1/2-z
8 -1/2+x,y,-1/2-z
_cell_length_a 9.300(3)
_cell_length_b 9.463(4)
_cell_length_c 19.340(6)
_cell_angle_alpha 90
_cell_angle_beta 90
_cell_angle_gamma 90
_cell_formula_units_Z 8
loop_
_atom_type_symbol
_atom_type_radius_bond
C 0.68
H 0.23
N 0.68
O 0.68
loop_
_atom_site_label
_atom_site_type_symbol
_atom_site_fract_x
_atom_site_fract_y
_atom_site_fract_z
C1 C 0.6295(2) 0.9315(2) 0.5867(1)
C2 C 0.5306(2) 0.8951(2) 0.6379(1)
C3 C 0.5467(2) 0.9480(2) 0.7044(1)
C4 C 0.6574(2) 1.0408(2) 0.7219(1)
C5 C 0.7505(2) 1.0797(2) 0.6694(1)
C6 C 0.7389(2) 1.0268(2) 0.6028(1)
C7 C 0.6764(3) 1.0938(3) 0.7948(1)
C8 C 0.5396(2) 0.7682(2) 0.4941(1)
C9 C 0.5605(3) 0.7263(2) 0.4197(1)
N1 N 0.6223(2) 0.8755(2) 0.5182(1)
O1 O 0.4550(2) 0.7050(1) 0.5327(1)
O2 O 0.7129(2) 0.9410(1) 0.4701(1)
H1 H 0.448(2) 0.844(2) 0.627(1)
H2 H 0.471(2) 0.908(2) 0.744(1)
H3 H 0.827(2) 1.144(2) 0.678(1)
H4 H 0.801(2) 1.065(2) 0.568(1)
H5 H 0.717(3) 1.173(3) 0.791(1)
H6 H 0.578(3) 1.105(3) 0.820(1)
H7 H 0.745(3) 1.055(3) 0.821(1)
H8 H 0.484(3) 0.644(2) 0.406(1)
H9 H 0.546(3) 0.821(3) 0.388(1)
H10 H 0.655(3) 0.674(3) 0.414(1)
H11 H 0.796(3) 0.888(3) 0.473(1)
#END
