
#######################################################################
#
#                 Cambridge Crystallographic Data Centre
#                                CCDC
#
#######################################################################
#
# If this CIF has been generated from an entry in the Cambridge
# Structural Database, then it will include bibliographic, chemical,
# crystal, experimental, refinement or atomic coordinate data resulting
# from the CCDC's data processing and validation procedures.
#
#######################################################################

data_CSD_CIF_SEMYOZ
_audit_creation_date 2006-10-10
_audit_creation_method CSD-ConQuest-V1
_database_code_CSD SEMYOZ
_database_code_depnum_ccdc_archive 'CCDC 611738'
_chemical_formula_sum 'C11 H8 N2 O5'
_chemical_formula_moiety
;
C11 H8 N2 O5
;
_journal_coden_Cambridge 1078
_journal_year 2006
_journal_name_full 'CSD Communication(Private Communication) '
loop_
_publ_author_name
"S.Parsons"
"G.Brown"
"G.Tennant"
"R.Johnstone"
_chemical_name_systematic
;
methyl 2-cyano-3-hydroxy-3-(2-nitrophenyl)acrylate
;
_cell_volume   1082.196
_exptl_crystal_colour 'colorless'
_exptl_crystal_density_diffrn 1.523
_exptl_special_details
;
contribution from School of Chemistry, The University of Edinburgh King's 
Buildings, West Mains Road, Edinburgh, Scotland EH9 3JJ
;
_exptl_crystal_description 'block'
_exptl_crystal_preparation 'ethyl acetate/petroleum'
_diffrn_ambient_temperature 150
#These two values have been output from a single CSD field.
_refine_ls_R_factor_gt 0.0409
_refine_ls_wR_factor_gt 0.0409
_symmetry_cell_setting monoclinic
_symmetry_space_group_name_H-M 'P 21/c'
_symmetry_Int_Tables_number 14
loop_
_symmetry_equiv_pos_site_id
_symmetry_equiv_pos_as_xyz
1 x,y,z
2 -x,1/2+y,1/2-z
3 -x,-y,-z
4 x,-1/2-y,-1/2+z
_cell_length_a 6.8542(4)
_cell_length_b 21.7134(14)
_cell_length_c 7.2818(5)
_cell_angle_alpha 90
_cell_angle_beta 93.054(1)
_cell_angle_gamma 90
_cell_formula_units_Z 4
loop_
_atom_type_symbol
_atom_type_radius_bond
C 0.68
H 0.23
N 0.68
O 0.68
loop_
_atom_site_label
_atom_site_type_symbol
_atom_site_fract_x
_atom_site_fract_y
_atom_site_fract_z
C1 C 0.1833(2) 0.44948(6) 0.06695(18)
N1 N 0.1884(2) 0.44660(6) -0.08980(16)
C2 C 0.17798(18) 0.45199(5) 0.26276(16)
O1 O 0.08246(14) 0.40230(4) 0.53501(12)
H1 H 0.143(3) 0.4357(9) 0.588(2)
C3 C 0.09078(18) 0.40577(5) 0.35508(17)
C4 C -0.02312(18) 0.35612(5) 0.25632(15)
C5 C -0.2042(2) 0.37207(6) 0.17578(17)
H2 H -0.24540 0.41380 0.17660
C6 C -0.3259(2) 0.32761(6) 0.09401(17)
H3 H -0.44980 0.33910 0.03980
C7 C -0.2673(2) 0.26659(6) 0.09118(17)
H4 H -0.35120 0.23630 0.03540
C8 C -0.0871(2) 0.24960(6) 0.16928(18)
H5 H -0.04610 0.20780 0.16730
C9 C 0.03277(18) 0.29428(5) 0.25029(16)
N2 N 0.22464(16) 0.27483(5) 0.32993(15)
O2 O 0.25714(18) 0.22000(5) 0.3447(2)
O3 O 0.34232(15) 0.31451(5) 0.37803(14)
O4 O 0.26659(14) 0.50759(4) 0.53216(12)
C10 C 0.26372(18) 0.50445(5) 0.36508(17)
O5 O 0.33341(14) 0.54726(4) 0.25645(12)
C11 C 0.4128(2) 0.60152(6) 0.3484(2)
H6 H 0.30810 0.63160 0.36300
H7 H 0.51370 0.61970 0.27490
H8 H 0.47020 0.59000 0.46980
#END
