
#######################################################################
#
#                 Cambridge Crystallographic Data Centre
#                                CCDC
#
#######################################################################
#
# If this CIF has been generated from an entry in the Cambridge
# Structural Database, then it will include bibliographic, chemical,
# crystal, experimental, refinement or atomic coordinate data resulting
# from the CCDC's data processing and validation procedures.
#
#######################################################################

data_CSD_CIF_SENHID
_audit_creation_date 2006-10-10
_audit_creation_method CSD-ConQuest-V1
_database_code_CSD SENHID
_database_code_depnum_ccdc_archive 'CCDC 620729'
_chemical_formula_sum 'C13 H11 N3 O4'
_chemical_formula_moiety
;
C13 H11 N3 O4
;
_journal_coeditor_code "IUCr CF2052"
_journal_coden_Cambridge 1370
_journal_volume 62
_journal_year 2006
_journal_page_first o3728
_journal_name_full 'Acta Crystallogr.,Sect.E:Struct.Rep.Online '
loop_
_publ_author_name
"L.Kr.Hansen"
"F.Tjosas"
"A.Fiksdahl"
_chemical_name_systematic
;
Methyl 5-nitro-2-(phenylamino)pyridine-4-carboxylate
;
_cell_volume   1271.839
_exptl_crystal_colour 'light yellow'
_exptl_crystal_density_diffrn 1.427
_exptl_crystal_description 'block'
_exptl_crystal_preparation 'pentane/acetone'
_diffrn_ambient_temperature 293
#These two values have been output from a single CSD field.
_refine_ls_R_factor_gt 0.0408
_refine_ls_wR_factor_gt 0.0408
_symmetry_cell_setting triclinic
_symmetry_space_group_name_H-M 'P -1'
_symmetry_Int_Tables_number 2
loop_
_symmetry_equiv_pos_site_id
_symmetry_equiv_pos_as_xyz
1 x,y,z
2 -x,-y,-z
_cell_length_a 9.990(2)
_cell_length_b 10.913(3)
_cell_length_c 12.6758(19)
_cell_angle_alpha 81.055(17)
_cell_angle_beta 78.137(16)
_cell_angle_gamma 70.86(2)
_cell_formula_units_Z 4
loop_
_atom_type_symbol
_atom_type_radius_bond
C 0.68
H 0.23
N 0.68
O 0.68
loop_
_atom_site_label
_atom_site_type_symbol
_atom_site_fract_x
_atom_site_fract_y
_atom_site_fract_z
O1 O 0.08162(17) 0.46752(18) 0.37646(14)
N1 N 0.2247(2) 0.55210(19) 0.53186(15)
H1 H 0.16460 0.53310 0.50250
N2 N -0.1946(2) 0.25156(19) 0.16230(15)
H2 H -0.14990 0.18490 0.20130
N3 N 0.3036(2) 0.7224(2) 0.55787(15)
O2 O 0.24138(19) 0.40186(19) 0.22975(15)
O3 O 0.1838(2) 0.93528(17) 0.21040(14)
O4 O -0.0727(3) 0.7773(2) 0.08089(19)
O5 O 0.0670(2) 0.6852(2) 0.19687(17)
N4 N -0.2027(2) 0.46247(19) 0.08975(15)
N5 N -0.0189(3) 0.6835(2) 0.14154(19)
O6 O -0.0380(2) 1.00928(19) 0.30268(14)
N6 N 0.2540(3) 1.0500(2) 0.4162(2)
O7 O 0.1810(3) 1.1247(2) 0.3545(2)
O8 O 0.3384(4) 1.0803(2) 0.4550(2)
C1 C 0.3565(3) 0.3827(4) 0.2894(3)
H3 H 0.34690 0.46300 0.31670
H4 H 0.44720 0.35520 0.24230
H5 H 0.35200 0.31710 0.34880
C2 C -0.3703(3) 0.3148(2) 0.0365(2)
H6 H -0.34290 0.38810 0.00630
C3 C 0.4097(3) 0.4549(3) 0.64898(19)
H7 H 0.43090 0.53270 0.64370
C4 C -0.0578(3) 0.5664(2) 0.14810(19)
C5 C 0.1558(3) 0.8766(2) 0.39393(19)
C6 C 0.3073(3) 0.8432(3) 0.5263(2)
H8 H 0.35980 0.87640 0.56070
C7 C -0.3026(2) 0.2321(2) 0.11732(18)
C8 C -0.3422(3) 0.1230(3) 0.1578(2)
H9 H -0.29640 0.06570 0.21100
C9 C -0.0437(3) 0.3503(2) 0.21705(19)
H10 H -0.00610 0.27410 0.25980
C10 C 0.0870(3) 0.9510(2) 0.2988(2)
C11 C 0.0026(2) 0.4550(2) 0.21460(18)
C12 C -0.1483(2) 0.3567(2) 0.15515(18)
C13 C 0.1345(3) 0.9955(3) 0.1094(2)
H11 H 0.05360 0.97000 0.10260
H12 H 0.21070 0.96790 0.05000
H13 H 0.10670 1.08860 0.10870
C14 C 0.3488(4) 0.2245(3) 0.6666(2)
H14 H 0.32810 0.14630 0.67280
C15 C 0.4539(3) 0.2324(3) 0.7181(2)
H15 H 0.50410 0.16000 0.75900
C16 C -0.5187(3) 0.1805(3) 0.0423(3)
H16 H -0.59200 0.16370 0.01790
C17 C 0.1481(2) 0.7538(2) 0.42669(19)
H17 H 0.09170 0.72080 0.39600
C18 C 0.1117(3) 0.4448(2) 0.2832(2)
C19 C 0.2742(3) 0.3316(3) 0.6058(2)
H18 H 0.20370 0.32550 0.57090
C20 C 0.4834(3) 0.3462(3) 0.7088(2)
H19 H 0.55470 0.35130 0.74330
C21 C 0.2262(2) 0.6769(2) 0.50743(18)
C22 C 0.3041(2) 0.4476(2) 0.59690(18)
C23 C -0.4786(3) 0.2881(3) 0.0008(2)
H20 H -0.52490 0.34480 -0.05250
C24 C -0.1571(3) 0.5642(2) 0.08795(19)
H21 H -0.19460 0.63860 0.04330
C25 C -0.4497(4) 0.0973(3) 0.1203(3)
H22 H -0.47530 0.02260 0.14830
C26 C 0.2385(3) 0.9216(2) 0.4461(2)
#END
