
#######################################################################
#
#                 Cambridge Crystallographic Data Centre
#                                CCDC
#
#######################################################################
#
# If this CIF has been generated from an entry in the Cambridge
# Structural Database, then it will include bibliographic, chemical,
# crystal, experimental, refinement or atomic coordinate data resulting
# from the CCDC's data processing and validation procedures.
#
#######################################################################

data_CSD_CIF_SENMII
_audit_creation_date 2006-10-10
_audit_creation_method CSD-ConQuest-V1
_database_code_CSD SENMII
_database_code_depnum_ccdc_archive 'CCDC 620758'
_chemical_formula_sum 'C21 H16 N2 O5'
_chemical_formula_moiety
;
C21 H16 N2 O5
;
_journal_coeditor_code "IUCr CI2141"
_journal_coden_Cambridge 1370
_journal_volume 62
_journal_year 2006
_journal_page_first o4100
_journal_name_full 'Acta Crystallogr.,Sect.E:Struct.Rep.Online '
loop_
_publ_author_name
"Shi-Gui Tang"
"Qing-Gang Tang"
"Wen-Yuan Wu"
"Cheng Guo"
"Chun-Xiang Ji"
_chemical_name_systematic
;
Methyl 2-amino-4-(3-nitrophenyl)-4H-benzo(h)chromene-3-carboxylate
;
_chemical_melting_point 416
_cell_volume    932.763
_exptl_crystal_colour 'colorless'
_exptl_crystal_density_diffrn 1.34
_exptl_special_details
;
Melting point range 416-418K
irradiated product

;
_exptl_crystal_description 'Block'
_exptl_crystal_preparation 'methanol'
_diffrn_ambient_temperature 293
#These two values have been output from a single CSD field.
_refine_ls_R_factor_gt 0.0243
_refine_ls_wR_factor_gt 0.0243
_symmetry_cell_setting triclinic
_symmetry_space_group_name_H-M 'P -1'
_symmetry_Int_Tables_number 2
loop_
_symmetry_equiv_pos_site_id
_symmetry_equiv_pos_as_xyz
1 x,y,z
2 -x,-y,-z
_cell_length_a 8.2190(16)
_cell_length_b 9.2570(19)
_cell_length_c 13.203(3)
_cell_angle_alpha 71.84(3)
_cell_angle_beta 78.39(3)
_cell_angle_gamma 82.73(3)
_cell_formula_units_Z 2
loop_
_atom_type_symbol
_atom_type_radius_bond
C 0.68
H 0.23
N 0.68
O 0.68
loop_
_atom_site_label
_atom_site_type_symbol
_atom_site_fract_x
_atom_site_fract_y
_atom_site_fract_z
C1 C 0.67735(19) 0.64984(18) 0.42582(13)
H1 H 0.71020 0.74920 0.41790
H2 H 0.77390 0.58600 0.40900
H3 H 0.62380 0.60590 0.49900
O1 O 0.04063(11) 0.81815(11) 0.24368(8)
O2 O 0.56180(12) 0.66277(11) 0.35215(8)
O3 O 0.37436(12) 0.78315(11) 0.45102(9)
C2 C 0.30380(16) 0.72967(14) 0.30047(11)
C3 C 0.38258(16) 0.47728(14) 0.26023(10)
C4 C 0.36092(16) 0.65190(14) 0.21385(10)
H4 H 0.46930 0.68850 0.17420
C5 C -0.02895(17) 0.79999(15) 0.08439(11)
C6 C 0.53916(16) 0.40599(15) 0.27069(11)
H5 H 0.63300 0.46200 0.24690
C7 C 0.09126(16) 0.76794(14) 0.15370(11)
C8 C 0.14971(18) 0.80299(14) 0.31123(11)
N1 N 0.07979(15) 0.86784(13) 0.38829(10)
H6 H -0.01970 0.91000 0.38860
H7 H 0.13420 0.86740 0.43760
C9 C 0.24081(17) 0.69250(15) 0.13429(11)
O4 O 0.83783(14) 0.25760(14) 0.31056(10)
C10 C 0.24588(17) 0.38980(16) 0.29512(11)
H8 H 0.13980 0.43660 0.28920
C11 C 0.55377(18) 0.24909(16) 0.31745(12)
C12 C 0.41052(18) 0.72995(15) 0.37497(12)
N2 N 0.72215(17) 0.17694(16) 0.33291(10)
O5 O 0.73525(15) 0.03737(13) 0.36983(11)
C13 C 0.41998(19) 0.16112(17) 0.35171(12)
H9 H 0.43270 0.05620 0.38260
C14 C 0.26594(19) 0.23435(17) 0.33849(13)
H10 H 0.17300 0.17730 0.35940
C15 C -0.18455(18) 0.87638(17) 0.10609(13)
H11 H -0.21250 0.90910 0.16760
C16 C 0.2783(2) 0.64676(18) 0.03931(12)
H12 H 0.38210 0.59860 0.02260
C17 C 0.0092(2) 0.74800(18) -0.00765(13)
C18 C -0.2956(2) 0.90262(19) 0.03612(14)
H13 H -0.39860 0.95340 0.05090
C19 C 0.1670(2) 0.6712(2) -0.02807(14)
H14 H 0.19460 0.63690 -0.08890
C20 C -0.1100(2) 0.7775(2) -0.07686(14)
H15 H -0.08690 0.74310 -0.13770
C21 C -0.2573(2) 0.8553(2) -0.05531(16)
H16 H -0.33300 0.87680 -0.10260
#END
