
#######################################################################
#
#                 Cambridge Crystallographic Data Centre
#                                CCDC
#
#######################################################################
#
# If this CIF has been generated from an entry in the Cambridge
# Structural Database, then it will include bibliographic, chemical,
# crystal, experimental, refinement or atomic coordinate data resulting
# from the CCDC's data processing and validation procedures.
#
#######################################################################

data_CSD_CIF_SENPEH
_audit_creation_date 2006-10-10
_audit_creation_method CSD-ConQuest-V1
_database_code_CSD SENPEH
_database_code_depnum_ccdc_archive 'CCDC 239382'
_chemical_formula_sum 'C14 H25 N1 O6'
_chemical_formula_moiety
;
C14 H25 N1 O6
;
_journal_coden_Cambridge 35
_journal_volume 71
_journal_year 2006
_journal_page_first 3253
_journal_name_full 'J.Org.Chem. '
loop_
_publ_author_name
"T.K.M.Shing"
"A.W.F.Wong"
"T.Ikeno"
"T.Yamada"
_chemical_name_systematic
;
1,7,8-Trimethyl-7,8-dimethoxydecahydro(1,4)dioxino(2,3-g)(2,1)benzisoxazol-5-o
l
;
_cell_volume   1531.159
_exptl_crystal_colour 'colorless'
_exptl_crystal_density_diffrn 1.316
_diffrn_ambient_temperature 293
#These two values have been output from a single CSD field.
_refine_ls_R_factor_gt 0.05
_refine_ls_wR_factor_gt 0.05
loop_
_citation_database_id_CSD
_citation_special_details
SEKCAN "is a stereoisomer of this entry"
_symmetry_cell_setting orthorhombic
_symmetry_space_group_name_H-M 'P 21 21 21'
_symmetry_Int_Tables_number 19
loop_
_symmetry_equiv_pos_site_id
_symmetry_equiv_pos_as_xyz
1 x,y,z
2 1/2-x,-y,1/2+z
3 1/2+x,1/2-y,-z
4 -x,1/2+y,1/2-z
_cell_length_a 9.1846(5)
_cell_length_b 12.2299(7)
_cell_length_c 13.6313(8)
_cell_angle_alpha 90
_cell_angle_beta 90
_cell_angle_gamma 90
_cell_formula_units_Z 4
loop_
_atom_type_symbol
_atom_type_radius_bond
C 0.68
H 0.23
N 0.68
O 0.68
loop_
_atom_site_label
_atom_site_type_symbol
_atom_site_fract_x
_atom_site_fract_y
_atom_site_fract_z
O1 O 0.3519(1) 0.4136(1) 0.4643(1)
O2 O 0.4063(2) 0.3542(1) 0.2703(1)
O3 O 0.1702(2) 0.3493(1) 0.1371(1)
O4 O 0.1469(2) 0.6777(1) 0.4031(1)
O5 O 0.5785(2) 0.4713(1) 0.4056(1)
O6 O 0.4239(2) 0.2066(1) 0.3781(1)
N1 N 0.1348(2) 0.5967(1) 0.4804(1)
C1 C 0.4950(2) 0.3808(2) 0.4371(1)
C2 C 0.4905(2) 0.3047(2) 0.3452(1)
C3 C 0.2617(2) 0.3803(2) 0.3016(1)
C4 C 0.1781(2) 0.4263(2) 0.2145(1)
C5 C 0.0237(2) 0.4499(2) 0.2503(2)
C6 C 0.0153(2) 0.5231(2) 0.3409(1)
C7 C 0.0529(2) 0.6441(2) 0.3238(2)
C8 C 0.1214(2) 0.4941(2) 0.4246(1)
C9 C 0.2710(2) 0.4617(2) 0.3851(1)
C10 C 0.5561(3) 0.3241(2) 0.5272(2)
C11 C 0.5937(3) 0.5592(2) 0.4738(2)
C12 C 0.6399(3) 0.2846(3) 0.3013(2)
C13 C 0.3923(4) 0.1285(2) 0.3027(2)
C14 C 0.0028(3) 0.6228(2) 0.5376(2)
H1 H 0.25250 0.33600 0.11700
H2 H 0.21340 0.31370 0.32470
H3 H 0.22420 0.49380 0.19150
H4 H -0.02380 0.38090 0.26500
H5 H -0.03020 0.48430 0.19750
H6 H -0.08410 0.51920 0.36680
H7 H 0.10200 0.65310 0.26140
H8 H -0.03510 0.68800 0.32330
H9 H 0.08120 0.43590 0.46590
H10 H 0.32190 0.52740 0.36230
H11 H 0.55620 0.37400 0.58150
H12 H 0.65390 0.30050 0.51420
H13 H 0.49680 0.26180 0.54290
H14 H 0.65250 0.61580 0.44530
H15 H 0.63950 0.53290 0.53250
H16 H 0.49930 0.58800 0.48950
H17 H 0.63090 0.23770 0.24510
H18 H 0.70140 0.25050 0.34930
H19 H 0.68200 0.35300 0.28160
H20 H 0.34730 0.06520 0.33130
H21 H 0.48100 0.10730 0.27070
H22 H 0.32740 0.16050 0.25560
H23 H 0.01740 0.69010 0.57250
H24 H -0.01620 0.56500 0.58350
H25 H -0.07860 0.63040 0.49390
#END
