
#######################################################################
#
#                 Cambridge Crystallographic Data Centre
#                                CCDC
#
#######################################################################
#
# If this CIF has been generated from an entry in the Cambridge
# Structural Database, then it will include bibliographic, chemical,
# crystal, experimental, refinement or atomic coordinate data resulting
# from the CCDC's data processing and validation procedures.
#
#######################################################################

data_CSD_CIF_SEPGIE
_audit_creation_date 2007-02-08
_audit_creation_method CSD-ConQuest-V1
_database_code_CSD SEPGIE
_database_code_depnum_ccdc_archive 'CCDC 625369'
_chemical_formula_sum 'C17 H18 N2 O1'
_chemical_formula_moiety
;
C17 H18 N2 O1
;
_journal_coden_Cambridge 82
_journal_volume 47
_journal_year 2006
_journal_page_first 346
_journal_name_full 'Zh.Strukt.Khim.(Russ.)(J.Struct.Chem.) '
loop_
_publ_author_name
"O.V.Kulikov"
"I.G.Filippova"
"M.Gdaniec"
"V.I.Pavlovsky"
"Yu.A.Simonov"
_chemical_name_systematic
;
2,2,6-Trimethyl-4-phenyl-1,2-dihydroquinazoline-N-oxide
;
_cell_volume   1452.534
_exptl_crystal_density_diffrn 1.218
_diffrn_ambient_temperature 295
#These two values have been output from a single CSD field.
_refine_ls_R_factor_gt 0.0542
_refine_ls_wR_factor_gt 0.0542
_symmetry_cell_setting triclinic
_symmetry_space_group_name_H-M 'P -1'
_symmetry_Int_Tables_number 2
loop_
_symmetry_equiv_pos_site_id
_symmetry_equiv_pos_as_xyz
1 x,y,z
2 -x,-y,-z
_cell_length_a 9.719(2)
_cell_length_b 11.092(2)
_cell_length_c 14.087(3)
_cell_angle_alpha 87.34(3)
_cell_angle_beta 75.41(3)
_cell_angle_gamma 81.26(3)
_cell_formula_units_Z 4
loop_
_atom_type_symbol
_atom_type_radius_bond
C 0.68
H 0.23
N 0.68
O 0.68
loop_
_atom_site_label
_atom_site_type_symbol
_atom_site_fract_x
_atom_site_fract_y
_atom_site_fract_z
N1 N 0.05992(17) 0.60377(13) 0.25836(11)
H1 H 0.03390 0.68500 0.29270
C1 C -0.0549(2) 0.52780(15) 0.28158(13)
C2 C -0.1811(2) 0.57942(19) 0.24054(17)
H2 H -0.22310 0.65730 0.26960
H3 H -0.25150 0.52470 0.25520
H4 H -0.14890 0.58910 0.17070
C3 C -0.0972(3) 0.51003(19) 0.39104(14)
H5 H -0.13640 0.58730 0.42200
H6 H -0.01410 0.47560 0.41350
H7 H -0.16810 0.45590 0.40760
N2 N 0.00713(17) 0.40543(13) 0.23319(11)
O1 O -0.05224(16) 0.31360(11) 0.27569(10)
C4 C 0.10351(19) 0.39635(15) 0.14846(13)
C5 C 0.14092(19) 0.27660(15) 0.09755(12)
C6 C 0.0592(3) 0.24793(18) 0.03762(17)
H8 H -0.02100 0.30220 0.03150
C7 C 0.0938(3) 0.1411(2) -0.01320(19)
H9 H 0.03750 0.12350 -0.05380
C8 C 0.2110(3) 0.0601(2) -0.00452(18)
H10 H 0.23440 -0.01250 -0.03920
C9 C 0.2930(3) 0.0858(2) 0.05464(19)
H11 H 0.37240 0.03040 0.06070
C10 C 0.2590(2) 0.19513(18) 0.10673(16)
H12 H 0.31560 0.21270 0.14720
C11 C 0.16822(19) 0.50183(15) 0.10564(13)
C12 C 0.2608(2) 0.49962(17) 0.01213(13)
H13 H 0.27670 0.43000 -0.02570
C13 C 0.3296(2) 0.59793(18) -0.02602(14)
C14 C 0.4287(3) 0.5944(2) -0.12742(16)
H14 H 0.43450 0.51660 -0.15640
H15 H 0.52270 0.60680 -0.12330
H16 H 0.39210 0.65770 -0.16720
C15 C 0.3031(2) 0.70071(18) 0.03264(15)
H17 H 0.34850 0.76780 0.00860
C16 C 0.2122(2) 0.70612(17) 0.12484(15)
H18 H 0.19670 0.77640 0.16190
C17 C 0.1432(2) 0.60753(15) 0.16298(13)
N3 N -0.09913(17) 0.11210(13) 0.41918(11)
H19 H -0.06450 0.19150 0.38690
C18 C -0.1250(2) 0.03336(15) 0.34716(13)
C19 C 0.0110(2) 0.00533(18) 0.26793(15)
H20 H 0.08810 -0.02850 0.29680
H21 H 0.03380 0.07900 0.23300
H22 H -0.00190 -0.05240 0.22330
C20 C -0.2518(2) 0.08775(18) 0.30564(15)
H23 H -0.23150 0.16220 0.27120
H24 H -0.33660 0.10430 0.35830
H25 H -0.26720 0.03090 0.26130
N4 N -0.16486(16) -0.08311(12) 0.40028(11)
O2 O -0.13267(16) -0.17953(11) 0.34517(10)
C21 C -0.23962(19) -0.08280(15) 0.49175(13)
C22 C -0.29704(19) -0.19594(15) 0.53274(13)
C23 C -0.2526(2) -0.25996(17) 0.60893(14)
H26 H -0.18400 -0.23280 0.63500
C24 C -0.3096(2) -0.36414(18) 0.64659(15)
H27 H -0.27730 -0.40810 0.69660
C25 C -0.4141(2) -0.40293(17) 0.61014(15)
H28 H -0.45360 -0.47210 0.63650
C26 C -0.4599(2) -0.34032(17) 0.53558(16)
H29 H -0.53070 -0.36650 0.51120
C27 C -0.4007(2) -0.23758(16) 0.49621(14)
H30 H -0.43110 -0.19600 0.44460
C28 C -0.27060(18) 0.02948(14) 0.54837(12)
C29 C -0.36860(19) 0.04174(16) 0.64008(13)
H31 H -0.41760 -0.02300 0.66550
C30 C -0.3950(2) 0.14777(17) 0.69434(13)
C31 C -0.5060(2) 0.1610(2) 0.79147(15)
H32 H -0.52590 0.24490 0.81100
H33 H -0.47000 0.11180 0.84030
H34 H -0.59270 0.13460 0.78480
C32 C -0.3164(2) 0.24111(17) 0.65609(14)
H35 H -0.33000 0.31180 0.69230
C33 C -0.2185(2) 0.23181(16) 0.56538(14)
H36 H -0.16720 0.29570 0.54170
C34 C -0.19666(19) 0.12704(15) 0.50960(13)
#END
