
#######################################################################
#
#                 Cambridge Crystallographic Data Centre
#                                CCDC
#
#######################################################################
#
# If this CIF has been generated from an entry in the Cambridge
# Structural Database, then it will include bibliographic, chemical,
# crystal, experimental, refinement or atomic coordinate data resulting
# from the CCDC's data processing and validation procedures.
#
#######################################################################

data_CSD_CIF_SEPRUB
_audit_creation_date 2007-02-08
_audit_creation_method CSD-ConQuest-V1
_database_code_CSD SEPRUB
_database_code_depnum_ccdc_archive 'CCDC 614258'
_chemical_formula_sum 'C8 H9 N5 O2'
_chemical_formula_moiety
;
C8 H9 N5 O2
;
_journal_coden_Cambridge 1336
_journal_volume 8
_journal_year 2006
_journal_page_first 4565
_journal_name_full 'Org.Lett. '
loop_
_publ_author_name
"I.Nowak"
"J.F.Cannon"
"M.J.Robins"
_chemical_name_systematic
;
5-Acetamido-4-(5-methyl-1,2,4-oxadiazol-3-yl)imidazole
;
_cell_volume    972.319
_exptl_crystal_colour 'colorless'
_exptl_crystal_density_diffrn 1.415
_exptl_crystal_description 'block'
_diffrn_ambient_temperature 297
#These two values have been output from a single CSD field.
_refine_ls_R_factor_gt 0.0365
_refine_ls_wR_factor_gt 0.0365
_symmetry_cell_setting monoclinic
_symmetry_space_group_name_H-M 'P 21/n'
_symmetry_Int_Tables_number 14
loop_
_symmetry_equiv_pos_site_id
_symmetry_equiv_pos_as_xyz
1 x,y,z
2 1/2-x,1/2+y,1/2-z
3 -x,-y,-z
4 -1/2+x,-1/2-y,-1/2+z
_cell_length_a 6.9156(4)
_cell_length_b 9.5678(6)
_cell_length_c 14.8356(9)
_cell_angle_alpha 90
_cell_angle_beta 97.897(2)
_cell_angle_gamma 90
_cell_formula_units_Z 4
loop_
_atom_type_symbol
_atom_type_radius_bond
C 0.68
H 0.23
N 0.68
O 0.68
loop_
_atom_site_label
_atom_site_type_symbol
_atom_site_fract_x
_atom_site_fract_y
_atom_site_fract_z
C1 C 0.2460(2) 0.98341(13) 0.74975(9)
H1 H 0.24260 0.97410 0.81190
C2 C 0.27466(18) 1.06839(13) 0.61920(8)
C3 C 0.22974(17) 0.92960(13) 0.60588(8)
C4 C 0.15551(19) 0.71799(13) 0.51487(8)
C5 C 0.1389(2) 0.66413(15) 0.41944(9)
H2 H 0.26710 0.64990 0.40320
H3 H 0.06990 0.73090 0.37870
H4 H 0.06920 0.57710 0.41520
C6 C 0.30652(18) 1.16761(13) 0.54921(8)
C7 C 0.3163(2) 1.24584(16) 0.41862(10)
C8 C 0.3070(3) 1.2748(2) 0.32004(11)
H5 H 0.31230 1.18830 0.28770
H6 H 0.41550 1.33260 0.30990
H7 H 0.18720 1.32230 0.29860
H8 H 0.194(2) 0.7875(19) 0.7033(11)
H9 H 0.221(2) 0.9035(17) 0.479(1)
N1 N 0.21181(16) 0.87647(11) 0.68960(7)
N2 N 0.28428(17) 1.10104(11) 0.71084(7)
N3 N 0.20795(17) 0.85487(11) 0.52506(7)
N4 N 0.35793(19) 1.29746(12) 0.56490(8)
N5 N 0.28008(16) 1.13052(12) 0.45823(7)
O1 O 0.12560(18) 0.64769(10) 0.57956(7)
O2 O 0.36519(16) 1.35072(11) 0.47610(7)
#END
