
#######################################################################
#
#                 Cambridge Crystallographic Data Centre
#                                CCDC
#
#######################################################################
#
# If this CIF has been generated from an entry in the Cambridge
# Structural Database, then it will include bibliographic, chemical,
# crystal, experimental, refinement or atomic coordinate data resulting
# from the CCDC's data processing and validation procedures.
#
#######################################################################

data_CSD_CIF_SEPWIV
_audit_creation_date 2013-05-13
_audit_creation_method CSD-ConQuest-V1
_database_code_CSD SEPWIV
_database_code_depnum_ccdc_archive 'CCDC 902850'
_chemical_formula_sum 'C12 H12 N2 O5'
_chemical_formula_moiety
;
C12 H12 N2 O5
;
_journal_coden_Cambridge 35
_journal_volume 78
_journal_year 2013
_journal_page_first 920
_journal_name_full 'J.Org.Chem. '
loop_
_publ_author_name
"S.Ngwerume"
"W.Lewis"
"J.E.Camp"
_chemical_name_systematic
;
Methyl 3-(((1-(4-nitrophenyl)ethylidene)amino)oxy)acrylate
;
_cell_volume   1242.684
_exptl_crystal_colour 'colorless'
_exptl_crystal_density_diffrn 1.412
_exptl_crystal_description 'block'
_diffrn_ambient_temperature 90
#These two values have been output from a single CSD field.
_refine_ls_R_factor_gt 0.0452
_refine_ls_wR_factor_gt 0.0452
_symmetry_cell_setting triclinic
_symmetry_space_group_name_H-M 'P -1'
_symmetry_Int_Tables_number 2
loop_
_symmetry_equiv_pos_site_id
_symmetry_equiv_pos_as_xyz
1 x,y,z
2 -x,-y,-z
_cell_length_a 10.9080(16)
_cell_length_b 11.3838(18)
_cell_length_c 11.6457(15)
_cell_angle_alpha 64.786(14)
_cell_angle_beta 86.639(11)
_cell_angle_gamma 72.367(14)
_cell_formula_units_Z 4
loop_
_atom_type_symbol
_atom_type_radius_bond
C 0.68
H 0.23
N 0.68
O 0.68
loop_
_atom_site_label
_atom_site_type_symbol
_atom_site_fract_x
_atom_site_fract_y
_atom_site_fract_z
C1 C 0.18119(14) 0.38451(16) 0.71876(14)
N1 N 0.29612(12) 0.31012(14) 0.76825(13)
O1 O 0.3891(1) 0.36037(12) 0.68655(11)
C2 C 0.50953(15) 0.27416(17) 0.73567(16)
H1 H 0.52120 0.19760 0.81590
C3 C 0.61111(15) 0.29715(17) 0.67117(16)
H2 H 0.60100 0.37740 0.59420
C4 C 0.73867(14) 0.19695(16) 0.72064(15)
O2 O 0.76511(11) 0.09969(12) 0.82476(11)
O3 O 0.82462(10) 0.22491(12) 0.63391(11)
C5 C 0.95188(16) 0.12930(18) 0.66856(17)
H3 H 0.99150 0.13240 0.74020
H4 H 1.00430 0.15290 0.59580
H5 H 0.94690 0.03720 0.69340
C6 C 0.14931(15) 0.50821(17) 0.59291(15)
H6 H 0.13610 0.48190 0.52580
H7 H 0.22060 0.54750 0.57420
H8 H 0.07040 0.57600 0.59670
C7 C 0.07752(14) 0.33819(16) 0.79724(14)
C8 C -0.05072(14) 0.41974(16) 0.76342(14)
H9 H -0.07150 0.50510 0.69050
C9 C -0.14867(14) 0.37763(16) 0.83517(15)
H10 H -0.23620 0.43290 0.81200
C10 C -0.11523(14) 0.25313(16) 0.94115(14)
C11 C 0.01109(15) 0.16926(16) 0.97806(15)
H11 H 0.03100 0.08430 1.05130
C12 C 0.10767(14) 0.21233(16) 0.90548(15)
H12 H 0.19500 0.15630 0.92910
N2 N -0.21860(12) 0.20851(14) 1.01716(13)
O4 O -0.18866(11) 0.09678(13) 1.11005(11)
O5 O -0.32988(11) 0.28527(13) 0.98519(12)
C13 C 0.30240(14) 0.21262(16) 0.17895(14)
N3 N 0.18814(12) 0.21845(13) 0.21332(13)
O6 O 0.09718(10) 0.34076(11) 0.12472(10)
C14 C -0.02505(14) 0.34685(16) 0.15803(15)
H13 H -0.09180 0.42400 0.10260
C15 C -0.06212(15) 0.25697(16) 0.25962(15)
H14 H 0.00210 0.18000 0.31870
C16 C -0.19796(15) 0.27218(16) 0.28380(15)
O7 O -0.23444(12) 0.19027(13) 0.37268(12)
O8 O -0.27884(10) 0.38884(12) 0.19652(12)
C17 C -0.41395(16) 0.40832(19) 0.21662(19)
H15 H -0.43090 0.41710 0.29660
H16 H -0.43680 0.32970 0.22100
H17 H -0.46590 0.49140 0.14590
C18 C 0.33478(15) 0.32007(18) 0.06267(16)
H18 H 0.29940 0.40890 0.06520
H19 H 0.29730 0.32370 -0.01370
H20 H 0.42870 0.29780 0.06050
C19 C 0.40449(14) 0.08855(16) 0.26671(14)
C20 C 0.53311(15) 0.06428(16) 0.23844(15)
H21 H 0.55560 0.12540 0.16090
C21 C 0.62902(15) -0.04848(16) 0.32257(15)
H22 H 0.71700 -0.06420 0.30420
C22 C 0.59308(14) -0.13691(15) 0.43346(15)
C23 C 0.46617(14) -0.11850(16) 0.46384(15)
H23 H 0.44410 -0.18210 0.54000
C24 C 0.37220(14) -0.00460(16) 0.38000(15)
H24 H 0.28460 0.01070 0.39950
N4 N 0.69385(12) -0.25515(14) 0.52406(13)
O9 O 0.66033(12) -0.33925(12) 0.61747(12)
O10 O 0.80727(11) -0.26486(12) 0.50291(12)
#END
