
#######################################################################
#
#                 Cambridge Crystallographic Data Centre
#                                CCDC
#
#######################################################################
#
# If this CIF has been generated from an entry in the Cambridge
# Structural Database, then it will include bibliographic, chemical,
# crystal, experimental, refinement or atomic coordinate data resulting
# from the CCDC's data processing and validation procedures.
#
#######################################################################

data_CSD_CIF_SEPYOE
_audit_creation_date 2017-11-01
_audit_creation_method CSD-ConQuest-V1
_database_code_CSD SEPYOE
_database_code_depnum_ccdc_archive 'CCDC 1034360'
_chemical_formula_sum 'C12 H14 N2 O4'
_chemical_formula_moiety
;
C12 H14 N2 O4
;
_journal_coden_Cambridge 1122
_journal_volume 35
_journal_year 2017
_journal_page_first 1569
_journal_name_full 'Chin.J.Chem. '
loop_
_publ_author_name
"Weijie Guo"
"Maocong Yi"
"Jianhui Wang"
"Guiyan Liu"
_chemical_name_systematic
;
methyl 2-methyl-7-nitro-1,2,3,4-tetrahydroquinoline-2-carboxylate
;
_cell_volume    593.171
_exptl_crystal_colour 'colorless'
_exptl_crystal_density_diffrn 1.401
_exptl_crystal_description 'Prism'
_diffrn_ambient_temperature 113
#These two values have been output from a single CSD field.
_refine_ls_R_factor_gt 0.0355
_refine_ls_wR_factor_gt 0.0355
_symmetry_cell_setting triclinic
_symmetry_space_group_name_H-M 'P -1'
_symmetry_Int_Tables_number 2
loop_
_symmetry_equiv_pos_site_id
_symmetry_equiv_pos_as_xyz
1 x,y,z
2 -x,-y,-z
_cell_length_a 8.228(3)
_cell_length_b 9.076(2)
_cell_length_c 9.579(3)
_cell_angle_alpha 116.92(2)
_cell_angle_beta 101.25(3)
_cell_angle_gamma 100.92(3)
_cell_formula_units_Z 2
loop_
_atom_type_symbol
_atom_type_radius_bond
C 0.68
H 0.23
N 0.68
O 0.68
loop_
_atom_site_label
_atom_site_type_symbol
_atom_site_fract_x
_atom_site_fract_y
_atom_site_fract_z
O1 O 0.89982(13) 1.22615(11) 1.09771(11)
O2 O 0.94571(13) 1.04021(11) 1.17049(11)
O3 O 0.24669(11) 0.47712(10) 0.92684(9)
O4 O 0.02702(11) 0.30504(10) 0.68643(9)
N1 N 0.86115(14) 1.07938(13) 1.07946(12)
N2 N 0.48984(13) 0.47727(12) 0.76316(12)
C1 C 0.52142(15) 0.64719(14) 0.79369(13)
C2 C 0.67239(15) 0.77739(14) 0.91685(13)
H1 H 0.75170 0.75150 0.98200
C3 C 0.70537(16) 0.94378(15) 0.94308(14)
C4 C 0.59694(17) 0.98858(16) 0.85045(15)
H2 H 0.62320 1.10410 0.86990
C5 C 0.44838(16) 0.85761(15) 0.72802(15)
H3 H 0.37160 0.88480 0.66210
C6 C 0.40694(15) 0.68801(15) 0.69750(13)
C7 C 0.24122(17) 0.54998(15) 0.56695(14)
H4 H 0.22200 0.56240 0.46810
H5 H 0.14150 0.56780 0.60890
C8 C 0.24580(16) 0.36720(15) 0.51758(14)
H6 H 0.32150 0.33640 0.44720
H7 H 0.12650 0.28330 0.45230
C9 C 0.31523(15) 0.35367(14) 0.66974(13)
C10 C 0.32501(17) 0.17073(15) 0.62079(16)
H8 H 0.39720 0.14090 0.54830
H9 H 0.20710 0.08630 0.56240
H10 H 0.37700 0.16790 0.72040
C11 C 0.19564(16) 0.38931(14) 0.77742(14)
C12 C -0.09596(17) 0.32441(18) 0.77794(15)
H11 H -0.06980 0.28100 0.85380
H12 H -0.21500 0.25760 0.70070
H13 H -0.08630 0.44780 0.84120
H14 H 0.5483(16) 0.4704(15) 0.8456(12)
#END
