
#######################################################################
#
#                 Cambridge Crystallographic Data Centre
#                                CCDC
#
#######################################################################
#
# If this CIF has been generated from an entry in the Cambridge
# Structural Database, then it will include bibliographic, chemical,
# crystal, experimental, refinement or atomic coordinate data resulting
# from the CCDC's data processing and validation procedures.
#
#######################################################################

data_CSD_CIF_SEQQEN
_audit_creation_date 2018-03-14
_audit_creation_method CSD-ConQuest-V1
_database_code_CSD SEQQEN
_database_code_depnum_ccdc_archive 'CCDC 1829658'
_chemical_formula_sum 'C14 H14 N2 O3'
_chemical_formula_moiety
;
C14 H14 N2 O3
;
_journal_coden_Cambridge 1078
_journal_year 2018
_journal_name_full 'CSD Communication(Private Communication) '
loop_
_publ_author_name
"B.W.Skelton"
"M.J.Piggott"
"M.R.Buccini"
_chemical_name_systematic
;
(2-nitrophenyl)(3-oxocyclohexyl)acetonitrile
;
_cell_volume   2468.550
_exptl_crystal_colour 'colorless'
_exptl_crystal_density_diffrn 1.39
_exptl_crystal_description 'needle'
_diffrn_ambient_temperature 100
#These two values have been output from a single CSD field.
_refine_ls_R_factor_gt 0.0427
_refine_ls_wR_factor_gt 0.0427
_symmetry_cell_setting monoclinic
_symmetry_space_group_name_H-M 'P 21/c'
_symmetry_Int_Tables_number 14
loop_
_symmetry_equiv_pos_site_id
_symmetry_equiv_pos_as_xyz
1 x,y,z
2 -x,1/2+y,1/2-z
3 -x,-y,-z
4 x,-1/2-y,-1/2+z
_cell_length_a 21.7836(5)
_cell_length_b 14.3008(3)
_cell_length_c 7.9630(2)
_cell_angle_alpha 90
_cell_angle_beta 95.663(2)
_cell_angle_gamma 90
_cell_formula_units_Z 8
loop_
_atom_type_symbol
_atom_type_radius_bond
C 0.68
H 0.23
N 0.68
O 0.68
loop_
_atom_site_label
_atom_site_type_symbol
_atom_site_fract_x
_atom_site_fract_y
_atom_site_fract_z
C1 C 0.11157(8) 0.40802(12) 0.7716(2)
N1 N 0.11092(7) 0.42051(11) 0.6290(2)
C2 C 0.11429(8) 0.38878(12) 0.9542(2)
H1 H 0.08795 0.33284 0.97028
C3 C 0.26593(8) 0.24021(13) 1.0033(2)
O1 O 0.27939(7) 0.16095(10) 1.0457(2)
C4 C 0.19937(8) 0.26820(12) 0.9543(2)
H2 H 0.17200 0.22008 0.99626
H3 H 0.19184 0.26922 0.82962
C5 C 0.18193(8) 0.36410(12) 1.0230(2)
H4 H 0.18331 0.35868 1.14855
C6 C 0.22949(8) 0.43787(12) 0.9838(2)
H5 H 0.22929 0.44491 0.86009
H6 H 0.21849 0.49895 1.03113
C7 C 0.29365(8) 0.40887(13) 1.0597(3)
H7 H 0.29391 0.40390 1.18380
H8 H 0.32377 0.45766 1.03533
C8 C 0.31335(8) 0.31498(13) 0.9889(3)
H9 H 0.32026 0.32301 0.86871
H10 H 0.35284 0.29513 1.05083
C9 C 0.08826(7) 0.47126(12) 1.0483(2)
C10 C 0.05795(7) 0.46288(12) 1.1954(2)
N2 N 0.04436(7) 0.37108(10) 1.26686(18)
O2 O 0.07730(6) 0.30393(9) 1.24017(17)
O3 O -0.00029(6) 0.36533(9) 1.34967(17)
C11 C 0.03714(8) 0.53969(13) 1.2777(2)
H11 H 0.01690 0.53138 1.37701
C12 C 0.04557(8) 0.62888(13) 1.2164(2)
H12 H 0.03189 0.68195 1.27402
C13 C 0.07396(8) 0.63959(12) 1.0712(2)
H13 H 0.07943 0.70045 1.02729
C14 C 0.09485(8) 0.56186(12) 0.9877(2)
H14 H 0.11407 0.57083 0.88685
C15 C 0.39923(8) 0.69881(12) 0.5112(2)
N3 N 0.41041(7) 0.7739(1) 0.4745(2)
C16 C 0.38494(7) 0.60249(11) 0.5635(2)
H15 H 0.40472 0.59318 0.68102
C17 C 0.22015(9) 0.65297(13) 0.6939(3)
O4 O 0.19834(7) 0.66584(10) 0.8278(2)
C18 C 0.28903(9) 0.65794(15) 0.6877(3)
H16 H 0.30948 0.64676 0.80256
H17 H 0.30002 0.72191 0.65371
C19 C 0.31420(7) 0.58785(12) 0.5663(2)
H18 H 0.30773 0.52368 0.61123
C20 C 0.27694(8) 0.59525(13) 0.3945(2)
H19 H 0.29413 0.55224 0.31374
H20 H 0.27943 0.65978 0.35072
C21 C 0.20944(8) 0.56988(14) 0.4116(2)
H21 H 0.18558 0.57308 0.29931
H22 H 0.20720 0.50491 0.45352
C22 C 0.18099(8) 0.63575(14) 0.5323(3)
H23 H 0.17244 0.69640 0.47470
H24 H 0.14102 0.60940 0.55859
C23 C 0.41282(7) 0.53110(11) 0.4503(2)
C24 C 0.42688(7) 0.43802(11) 0.4947(2)
N4 N 0.42178(6) 0.40117(10) 0.66606(18)
O5 O 0.39917(6) 0.45058(9) 0.77001(15)
O6 O 0.44154(7) 0.32243(9) 0.69900(18)
C25 C 0.44912(8) 0.37513(12) 0.3820(2)
H25 H 0.45802 0.31247 0.41578
C26 C 0.45823(8) 0.40398(13) 0.2208(2)
H26 H 0.47321 0.36132 0.14300
C27 C 0.44535(7) 0.49557(13) 0.1736(2)
H27 H 0.45177 0.51601 0.06319
C28 C 0.42313(7) 0.55757(12) 0.2868(2)
H28 H 0.41464 0.62016 0.25193
#END
