
#######################################################################
#
#                 Cambridge Crystallographic Data Centre
#                                CCDC
#
#######################################################################
#
# If this CIF has been generated from an entry in the Cambridge
# Structural Database, then it will include bibliographic, chemical,
# crystal, experimental, refinement or atomic coordinate data resulting
# from the CCDC's data processing and validation procedures.
#
#######################################################################

data_CSD_CIF_SERMUZ
_audit_creation_date 2013-05-14
_audit_creation_method CSD-ConQuest-V1
_database_code_CSD SERMUZ
_database_code_depnum_ccdc_archive 'CCDC 927329'
_chemical_formula_sum 'C10 H9 N3 O4'
_chemical_formula_moiety
;
C10 H9 N3 O4
;
_journal_coden_Cambridge 1500
_journal_volume 3
_journal_year 2013
_journal_page_first 8666
_journal_name_full 'RSC Advances '
loop_
_publ_author_name
"S.Ramesh"
"P.N.Arunachalam"
"A.Lalitha"
_chemical_name_systematic
;
Ethyl 6-nitro-1H-indazole-3-carboxylate
;
_cell_volume   1074.232
_exptl_crystal_colour 'colorless'
_exptl_crystal_density_diffrn 1.454
_exptl_crystal_description 'block'
_diffrn_ambient_temperature 298
#These two values have been output from a single CSD field.
_refine_ls_R_factor_gt 0.0965
_refine_ls_wR_factor_gt 0.0965
_symmetry_cell_setting triclinic
_symmetry_space_group_name_H-M 'P -1'
_symmetry_Int_Tables_number 2
loop_
_symmetry_equiv_pos_site_id
_symmetry_equiv_pos_as_xyz
1 x,y,z
2 -x,-y,-z
_cell_length_a 7.3430(7)
_cell_length_b 12.1890(11)
_cell_length_c 12.8943(11)
_cell_angle_alpha 70.277(8)
_cell_angle_beta 87.489(7)
_cell_angle_gamma 81.431(8)
_cell_formula_units_Z 4
loop_
_atom_type_symbol
_atom_type_radius_bond
C 0.68
H 0.23
N 0.68
O 0.68
loop_
_atom_site_label
_atom_site_type_symbol
_atom_site_fract_x
_atom_site_fract_y
_atom_site_fract_z
O1 O 0.8681(5) 0.7081(3) 0.4180(3)
O2 O 0.7879(6) 0.5304(3) 0.5087(3)
O3 O 0.9628(6) 0.9430(4) -0.1458(3)
O4 O 0.9218(7) 0.7874(4) -0.1811(3)
N1 N 0.7982(6) 0.4865(4) 0.3164(4)
N2 N 0.8100(7) 0.4983(4) 0.2131(5)
H1 H 0.79860 0.44240 0.18830
N3 N 0.9306(6) 0.8418(4) -0.1169(4)
C1 C 0.8438(6) 0.6129(4) 0.1434(4)
C2 C 0.8653(6) 0.6672(4) 0.0328(4)
H2 H 0.85840 0.62840 -0.01750
C3 C 0.8975(6) 0.7813(4) 0.0000(4)
C4 C 0.9048(6) 0.8432(4) 0.0736(4)
H3 H 0.92430 0.92150 0.04650
C5 C 0.8840(5) 0.7908(4) 0.1833(4)
H4 H 0.88950 0.83100 0.23270
C6 C 0.8534(5) 0.6716(4) 0.2192(4)
C7 C 0.8264(5) 0.5941(3) 0.3208(3)
C8 C 0.8247(6) 0.6046(4) 0.4255(5)
C9 C 0.8707(9) 0.7325(5) 0.5213(5)
H5 H 0.75700 0.71680 0.56090
H6 H 0.97250 0.68260 0.56740
C10 C 0.8915(10) 0.8554(6) 0.4949(6)
H7 H 0.91410 0.87030 0.56130
H8 H 0.78090 0.90410 0.46020
H9 H 0.99330 0.87310 0.44580
O5 O 0.4867(6) 1.0455(3) 0.1473(4)
O6 O 0.4883(7) 1.0338(4) 0.3246(4)
O7 O 0.3046(6) 0.5736(4) -0.0039(4)
O8 O 0.2986(7) 0.4521(4) 0.1593(4)
N4 N 0.3710(6) 0.7159(4) 0.3993(5)
H10 H 0.35280 0.66130 0.46000
N5 N 0.3145(6) 0.5485(4) 0.0953(5)
N6 N 0.4082(6) 0.8188(4) 0.3924(4)
C11 C 0.3641(6) 0.7049(4) 0.2904(4)
C12 C 0.3346(6) 0.6161(4) 0.2521(4)
H11 H 0.30970 0.54350 0.29970
C13 C 0.3439(6) 0.6401(4) 0.1412(4)
C14 C 0.3794(6) 0.7475(4) 0.0679(4)
H12 H 0.38460 0.75890 -0.00720
C15 C 0.4069(6) 0.8365(4) 0.1042(4)
H13 H 0.42880 0.90940 0.05570
C16 C 0.4004(5) 0.8128(4) 0.2179(4)
C17 C 0.4262(5) 0.8802(3) 0.2809(4)
C18 C 0.4694(8) 0.9957(5) 0.2413(6)
C19 C 0.5282(11) 1.1559(5) 0.2812(7)
H14 H 0.58310 1.17020 0.20890
H15 H 0.41400 1.20960 0.27330
C20 C 0.6439(11) 1.1773(5) 0.3483(7)
H16 H 0.68350 1.10570 0.40740
H17 H 0.58130 1.23490 0.37800
H18 H 0.74900 1.20640 0.30730
#END
