
#######################################################################
#
#                 Cambridge Crystallographic Data Centre
#                                CCDC
#
#######################################################################
#
# If this CIF has been generated from an entry in the Cambridge
# Structural Database, then it will include bibliographic, chemical,
# crystal, experimental, refinement or atomic coordinate data resulting
# from the CCDC's data processing and validation procedures.
#
#######################################################################

data_CSD_CIF_SERPOX
_audit_creation_date 2018-03-14
_audit_creation_method CSD-ConQuest-V1
_database_code_CSD SERPOX
_database_code_depnum_ccdc_archive 'CCDC 1062834'
_chemical_formula_sum 'C13 H12 N2 O3'
_chemical_formula_moiety
;
C13 H12 N2 O3
;
_journal_coden_Cambridge 891
_journal_volume 13
_journal_year 2018
_journal_page_first 422
_journal_name_full 'ChemMedChem '
loop_
_publ_author_name
"M.Paolino"
"M.Brindisi"
"A.Vallone"
"S.Butini"
"G.Campiani"
"C.Nannicini"
"G.Giuliani"
"M.Anzini"
"S.Lamponi"
"G.Giorgi"
"D.Sbardella"
"D.M.Ferraris"
"S.Marini"
"M.Coletta"
"I.Palucci"
"M.Minerva"
"G.Delogu"
"I.Pepponi"
"D.Goletti"
"A.Cappelli"
"S.Gemma"
"S.Brogi"
_chemical_name_systematic
;
N-(allyloxy)-8-hydroxyquinoline-2-carboxamide
;
_cell_volume  11126.641
_exptl_crystal_density_diffrn 1.312
_diffrn_ambient_temperature 293
_refine_special_details
;
C14A and C14C disordered over two sites with occupancies 0.836:0.164.

;
#These two values have been output from a single CSD field.
_refine_ls_R_factor_gt 0.0798
_refine_ls_wR_factor_gt 0.0798
_symmetry_cell_setting rhombohedral
_symmetry_space_group_name_H-M 'R -3'
_symmetry_Int_Tables_number 148
loop_
_symmetry_equiv_pos_site_id
_symmetry_equiv_pos_as_xyz
1 x,y,z
2 -y,x-y,z
3 -x+y,-x,z
4 2/3+x,1/3+y,1/3+z
5 2/3-y,1/3+x-y,1/3+z
6 2/3-x+y,1/3-x,1/3+z
7 1/3+x,2/3+y,2/3+z
8 1/3-y,2/3+x-y,2/3+z
9 1/3-x+y,2/3-x,2/3+z
10 -x,-y,-z
11 y,-x+y,-z
12 x-y,x,-z
13 -2/3-x,-1/3-y,-1/3-z
14 -2/3+y,-1/3-x+y,-1/3-z
15 -2/3+x-y,-1/3+x,-1/3-z
16 -1/3-x,-2/3-y,-2/3-z
17 -1/3+y,-2/3-x+y,-2/3-z
18 -1/3+x-y,-2/3+x,-2/3-z
_cell_length_a 23.397(3)
_cell_length_b 23.397(3)
_cell_length_c 23.470(2)
_cell_angle_alpha 90
_cell_angle_beta 90
_cell_angle_gamma 120
_cell_formula_units_Z 36
loop_
_atom_type_symbol
_atom_type_radius_bond
C 0.68
H 0.23
N 0.68
O 0.68
loop_
_atom_site_label
_atom_site_type_symbol
_atom_site_fract_x
_atom_site_fract_y
_atom_site_fract_z
N1 N 0.54851(13) 0.08744(12) 0.49613(9)
C1 C 0.59851(16) 0.08204(15) 0.51539(11)
C2 C 0.63373(17) 0.06010(17) 0.48209(12)
H1 H 0.66890 0.05740 0.49760
C3 C 0.61552(17) 0.04276(17) 0.42681(12)
H2 H 0.63790 0.02760 0.40430
C4 C 0.56278(17) 0.04785(15) 0.40387(12)
C5 C 0.5403(2) 0.03176(19) 0.34718(13)
H3 H 0.56180 0.01820 0.32190
C6 C 0.4875(2) 0.0361(2) 0.32967(14)
H4 H 0.47270 0.02470 0.29240
C7 C 0.4547(2) 0.0572(2) 0.36647(13)
H5 H 0.41840 0.05950 0.35340
C8 C 0.47532(18) 0.07440(17) 0.42093(13)
O1 O 0.44246(13) 0.09446(15) 0.45568(9)
H6 H 0.45940 0.10250 0.48740
C9 C 0.53012(16) 0.07031(15) 0.44084(12)
C10 C 0.61876(19) 0.10118(17) 0.57654(13)
O2 O 0.66618(12) 0.09947(12) 0.59761(9)
N2 N 0.58097(16) 0.12009(16) 0.60368(10)
H7 H 0.55250 0.12600 0.58540
O3 O 0.58857(15) 0.13018(16) 0.66253(9)
C11 C 0.6237(2) 0.1984(2) 0.67506(17)
H8 H 0.60160 0.22050 0.65910
H9 H 0.66830 0.21890 0.66020
C12 C 0.6239(4) 0.2010(4) 0.7394(3)
H10 H 0.58140 0.17930 0.75440
C13 C 0.6597(7) 0.2210(6) 0.7712(4)
H11 H 0.64920 0.23100 0.80660
H12 H 0.70210 0.22880 0.76410
H13? H 0.65910 0.19860 0.75500
C14? C 0.587(3) 0.206(3) 0.778(2)
H14? H 0.60430 0.22270 0.81390
H15? H 0.54300 0.19220 0.77020
N3 N 0.78377(12) 0.20312(13) 0.67316(9)
C15 C 0.82689(18) 0.26289(17) 0.65597(12)
C16 C 0.87621(19) 0.31006(18) 0.69108(14)
H16 H 0.90570 0.35190 0.67720
C17 C 0.8802(2) 0.2934(2) 0.74620(15)
H17 H 0.91270 0.32420 0.77020
C18 C 0.83581(17) 0.23025(17) 0.76675(12)
C19 C 0.83696(19) 0.2083(2) 0.82260(13)
H18 H 0.86780 0.23690 0.84880
C20 C 0.7933(2) 0.1456(2) 0.83782(13)
H19 H 0.79520 0.13140 0.87440
C21 C 0.74527(18) 0.10152(17) 0.79984(12)
H20 H 0.71590 0.05860 0.81140
C22 C 0.74137(17) 0.12131(17) 0.74605(12)
O4 O 0.69403(12) 0.07776(11) 0.71055(8)
H21 H 0.69640 0.09570 0.67990
C23 C 0.78763(16) 0.18622(15) 0.72813(11)
C24 C 0.8222(2) 0.2796(2) 0.59477(13)
O5 O 0.86214(14) 0.33335(12) 0.57367(9)
N4 N 0.77176(15) 0.23083(15) 0.56714(11)
H22 H 0.74220 0.19720 0.58560
O6 O 0.76699(15) 0.23447(14) 0.50824(9)
C25 C 0.7297(3) 0.2639(2) 0.49321(17)
H23 H 0.75090 0.30930 0.50630
H24 H 0.68580 0.23990 0.50960
C26 C 0.7264(4) 0.2609(3) 0.4293(2)
H25 H 0.76750 0.28370 0.41180
C27 C 0.6841(4) 0.2365(4) 0.3983(3)
H26 H 0.64100 0.21240 0.41160
H27 H 0.69240 0.24040 0.35930
#END
