
#######################################################################
#
#                 Cambridge Crystallographic Data Centre
#                                CCDC
#
#######################################################################
#
# If this CIF has been generated from an entry in the Cambridge
# Structural Database, then it will include bibliographic, chemical,
# crystal, experimental, refinement or atomic coordinate data resulting
# from the CCDC's data processing and validation procedures.
#
#######################################################################

data_CSD_CIF_SERPIR
_audit_creation_date 2018-03-14
_audit_creation_method CSD-ConQuest-V1
_database_code_CSD SERPIR
_database_code_depnum_ccdc_archive 'CCDC 1062832'
_chemical_formula_sum 'C17 H14 N2 O3'
_chemical_formula_moiety
;
C17 H14 N2 O3
;
_journal_coden_Cambridge 891
_journal_volume 13
_journal_year 2018
_journal_page_first 422
_journal_name_full 'ChemMedChem '
loop_
_publ_author_name
"M.Paolino"
"M.Brindisi"
"A.Vallone"
"S.Butini"
"G.Campiani"
"C.Nannicini"
"G.Giuliani"
"M.Anzini"
"S.Lamponi"
"G.Giorgi"
"D.Sbardella"
"D.M.Ferraris"
"S.Marini"
"M.Coletta"
"I.Palucci"
"M.Minerva"
"G.Delogu"
"I.Pepponi"
"D.Goletti"
"A.Cappelli"
"S.Gemma"
"S.Brogi"
_chemical_name_systematic
;
N-(benzyloxy)-8-hydroxyquinoline-2-carboxamide
;
_cell_volume   4537.650
_exptl_crystal_density_diffrn 1.292
_diffrn_ambient_temperature 293
#These two values have been output from a single CSD field.
_refine_ls_R_factor_gt 0.0632
_refine_ls_wR_factor_gt 0.0632
_symmetry_cell_setting monoclinic
_symmetry_space_group_name_H-M 'P 21/n'
_symmetry_Int_Tables_number 14
loop_
_symmetry_equiv_pos_site_id
_symmetry_equiv_pos_as_xyz
1 x,y,z
2 1/2-x,1/2+y,1/2-z
3 -x,-y,-z
4 -1/2+x,-1/2-y,-1/2+z
_cell_length_a 16.0926(6)
_cell_length_b 9.8191(5)
_cell_length_c 28.7192(15)
_cell_angle_alpha 90
_cell_angle_beta 90.770(4)
_cell_angle_gamma 90
_cell_formula_units_Z 12
loop_
_atom_type_symbol
_atom_type_radius_bond
C 0.68
H 0.23
N 0.68
O 0.68
loop_
_atom_site_label
_atom_site_type_symbol
_atom_site_fract_x
_atom_site_fract_y
_atom_site_fract_z
N1 N 0.39435(11) -0.4223(2) 0.43498(7)
C1 C 0.45171(13) -0.4747(3) 0.40766(9)
C2 C 0.49449(15) -0.5964(3) 0.41808(11)
H1 H 0.53480 -0.62960 0.39810
C3 C 0.47575(17) -0.6642(3) 0.45777(11)
H2 H 0.50400 -0.74400 0.46530
C4 C 0.41421(16) -0.6149(3) 0.48755(11)
C5 C 0.3311(2) -0.6225(5) 0.55638(12)
H3 H 0.31620 -0.66540 0.58390
C6 C 0.29234(19) -0.5003(5) 0.54365(12)
H4 H 0.25120 -0.46420 0.56240
C7 C 0.31430(16) -0.4337(4) 0.50397(11)
O1 O 0.27778(13) -0.3147(3) 0.49276(8)
H5 H 0.30370 -0.27790 0.47180
C8 C 0.37526(14) -0.4923(3) 0.47435(10)
C9 C 0.46917(13) -0.3995(3) 0.36326(9)
O2 O 0.51687(9) -0.4453(2) 0.33339(6)
N2 N 0.42872(12) -0.2831(2) 0.35875(8)
H6 H 0.40030 -0.25110 0.38140
O3 O 0.43279(11) -0.2132(2) 0.31668(7)
C10 C 0.43989(18) -0.0689(4) 0.32575(12)
H7 H 0.39400 -0.04070 0.34500
H8 H 0.43530 -0.02000 0.29650
C11 C 0.51959(19) -0.0300(3) 0.34943(14)
C12 C 0.5932(2) -0.0307(4) 0.32522(17)
H9 H 0.59310 -0.05380 0.29380
C13 C 0.6663(3) 0.0026(6) 0.3475(3)
H10 H 0.71540 0.00220 0.33070
C14 C 0.6688(3) 0.0363(5) 0.3936(3)
H11 H 0.71890 0.05810 0.40830
C15 C 0.5968(3) 0.0373(4) 0.41763(18)
H12 H 0.59730 0.06060 0.44900
C16 C 0.5221(2) 0.0035(4) 0.39552(15)
H13 H 0.47320 0.00370 0.41240
C17 C 0.3902(2) -0.6793(4) 0.52933(12)
H14 H 0.41490 -0.76100 0.53830
C18 C 0.82100(16) -0.7983(3) 0.25917(12)
H15 H 0.85610 -0.84650 0.23960
N3 N 0.61699(10) -0.6213(2) 0.25904(7)
C19 C 0.59205(13) -0.6436(3) 0.21585(10)
C20 C 0.63789(15) -0.7191(3) 0.18334(10)
H16 H 0.61740 -0.73310 0.15330
C21 C 0.71290(16) -0.7713(3) 0.19691(11)
H17 H 0.74410 -0.82150 0.17600
C22 C 0.74329(14) -0.7494(3) 0.24249(10)
C23 C 0.84341(16) -0.7738(4) 0.30415(13)
H18 H 0.89410 -0.80700 0.31520
C24 C 0.79296(15) -0.7006(3) 0.33421(11)
H19 H 0.81000 -0.68690 0.36490
C25 C 0.71855(14) -0.6485(3) 0.31898(10)
O4 O 0.67112(10) -0.5740(3) 0.34791(7)
H20 H 0.62820 -0.55130 0.33430
C26 C 0.69210(12) -0.6736(3) 0.27273(9)
C27 C 0.51050(13) -0.5816(3) 0.20111(10)
O5 O 0.47913(10) -0.6080(2) 0.16268(7)
N4 N 0.47714(10) -0.4979(2) 0.23202(8)
H21 H 0.50360 -0.47570 0.25710
O6 O 0.39766(8) -0.4469(2) 0.22252(7)
C28 C 0.40261(14) -0.3156(3) 0.20017(10)
H22 H 0.43250 -0.32230 0.17120
H23 H 0.43080 -0.25050 0.22030
C29 C 0.31409(14) -0.2730(3) 0.19127(9)
C30 C 0.26576(17) -0.2322(3) 0.22750(11)
H24 H 0.28900 -0.22660 0.25730
C31 C 0.18379(19) -0.1994(4) 0.22076(13)
H25 H 0.15190 -0.17220 0.24590
C32 C 0.14899(18) -0.2066(3) 0.17746(14)
H26 H 0.09300 -0.18580 0.17300
C33 C 0.19642(19) -0.2444(4) 0.14021(12)
H27 H 0.17310 -0.24720 0.11040
C34 C 0.27927(16) -0.2784(3) 0.14728(10)
H28 H 0.31140 -0.30490 0.12220
N5 N 0.3985(1) -0.4935(2) 0.07224(7)
C35 C 0.31946(13) -0.5144(3) 0.06070(9)
C36 C 0.28076(15) -0.4523(3) 0.02224(11)
H29 H 0.22510 -0.46900 0.01540
C37 C 0.32586(17) -0.3671(3) -0.00485(12)
H30 H 0.30080 -0.32570 -0.03050
C38 C 0.41018(16) -0.3410(3) 0.00558(11)
C39 C 0.4624(2) -0.2560(4) -0.02103(12)
H31 H 0.44160 -0.21100 -0.04720
C40 C 0.5438(2) -0.2410(4) -0.00779(14)
H32 H 0.57820 -0.18620 -0.02560
C41 C 0.57659(18) -0.3049(4) 0.03132(12)
H33 H 0.63200 -0.29100 0.03960
C42 C 0.52846(15) -0.3881(3) 0.05784(11)
O7 O 0.56102(10) -0.4513(3) 0.09563(7)
H34 H 0.52510 -0.49770 0.10790
C43 C 0.44355(14) -0.4082(3) 0.04508(9)
C44 C 0.27100(14) -0.6074(3) 0.09167(9)
O8 O 0.19712(9) -0.6362(2) 0.08314(6)
N6 N 0.31318(11) -0.6567(2) 0.12770(8)
H35 H 0.36580 -0.64230 0.13030
O9 O 0.27246(10) -0.7314(2) 0.16130(7)
C45 C 0.27237(16) -0.8757(3) 0.15081(11)
H36 H 0.23920 -0.89110 0.12290
H37 H 0.24620 -0.92420 0.17610
C46 C 0.35625(18) -0.9327(3) 0.14386(13)
C47 C 0.4138(2) -0.9349(4) 0.17900(16)
H38 H 0.40030 -0.90010 0.20810
C48 C 0.4937(3) -0.9892(5) 0.1718(3)
H39 H 0.53390 -0.99030 0.19540
C49 C 0.5093(3) -1.0415(6) 0.1273(3)
H40 H 0.56150 -1.07750 0.12130
C50 C 0.4516(3) -1.0414(5) 0.0930(2)
H41 H 0.46360 -1.07850 0.06410
C51 C 0.3760(2) -0.9870(4) 0.10088(16)
H42 H 0.33640 -0.98600 0.07700
#END
