
#######################################################################
#
#                 Cambridge Crystallographic Data Centre
#                                CCDC
#
#######################################################################
#
# If this CIF has been generated from an entry in the Cambridge
# Structural Database, then it will include bibliographic, chemical,
# crystal, experimental, refinement or atomic coordinate data resulting
# from the CCDC's data processing and validation procedures.
#
#######################################################################

data_CSD_CIF_SERPUD
_audit_creation_date 2018-03-14
_audit_creation_method CSD-ConQuest-V1
_database_code_CSD SERPUD
_database_code_depnum_ccdc_archive 'CCDC 1062835'
_chemical_formula_sum 'C18 H16 N2 O3'
_chemical_formula_moiety
;
C18 H16 N2 O3
;
_journal_coden_Cambridge 891
_journal_volume 13
_journal_year 2018
_journal_page_first 422
_journal_name_full 'ChemMedChem '
loop_
_publ_author_name
"M.Paolino"
"M.Brindisi"
"A.Vallone"
"S.Butini"
"G.Campiani"
"C.Nannicini"
"G.Giuliani"
"M.Anzini"
"S.Lamponi"
"G.Giorgi"
"D.Sbardella"
"D.M.Ferraris"
"S.Marini"
"M.Coletta"
"I.Palucci"
"M.Minerva"
"G.Delogu"
"I.Pepponi"
"D.Goletti"
"A.Cappelli"
"S.Gemma"
"S.Brogi"
_chemical_name_systematic
;
8-hydroxy-N-((4-methylbenzyl)oxy)quinoline-2-carboxamide
;
_cell_volume   4945.108
_exptl_crystal_density_diffrn 1.242
_diffrn_ambient_temperature 293
#These two values have been output from a single CSD field.
_refine_ls_R_factor_gt 0.1337
_refine_ls_wR_factor_gt 0.1337
_symmetry_cell_setting monoclinic
_symmetry_space_group_name_H-M 'P 21/c'
_symmetry_Int_Tables_number 14
loop_
_symmetry_equiv_pos_site_id
_symmetry_equiv_pos_as_xyz
1 x,y,z
2 -x,1/2+y,1/2-z
3 -x,-y,-z
4 x,-1/2-y,-1/2+z
_cell_length_a 13.0318(16)
_cell_length_b 29.155(2)
_cell_length_c 14.3926(17)
_cell_angle_alpha 90
_cell_angle_beta 115.269(12)
_cell_angle_gamma 90
_cell_formula_units_Z 12
loop_
_atom_type_symbol
_atom_type_radius_bond
C 0.68
H 0.23
N 0.68
O 0.68
loop_
_atom_site_label
_atom_site_type_symbol
_atom_site_fract_x
_atom_site_fract_y
_atom_site_fract_z
N1 N 0.3750(5) 0.14796(17) 0.7532(5)
C1 C 0.3632(6) 0.1602(2) 0.6633(6)
C2 C 0.4084(6) 0.2006(3) 0.6412(6)
H1 H 0.39890 0.20730 0.57490
C3 C 0.4660(7) 0.2289(2) 0.7209(7)
H2 H 0.49690 0.25590 0.70950
C4 C 0.4800(7) 0.2182(3) 0.8204(7)
C5 C 0.5360(7) 0.2467(2) 0.9081(8)
H3 H 0.56350 0.27540 0.90160
C6 C 0.5488(8) 0.2310(3) 1.0026(7)
H4 H 0.58840 0.24900 1.06040
C7 C 0.5044(7) 0.1893(3) 1.0146(6)
H5 H 0.51320 0.18010 1.07940
C8 C 0.4488(7) 0.1620(3) 0.9325(6)
O1 O 0.4088(5) 0.12103(16) 0.9466(3)
H6 H 0.38240 0.10680 0.89220
C9 C 0.4351(6) 0.1763(3) 0.8346(6)
C10 C 0.2952(7) 0.1306(3) 0.5732(6)
O2 O 0.2785(5) 0.13721(15) 0.4835(4)
N2 N 0.2532(6) 0.0932(2) 0.6013(4)
H7 H 0.27090 0.08820 0.66520
O3 O 0.1797(4) 0.06206(18) 0.5254(4)
C11 C 0.2516(7) 0.0280(3) 0.5170(6)
H8 H 0.29110 0.01200 0.58180
H9 H 0.30710 0.04120 0.49650
C12 C 0.1708(7) -0.0052(3) 0.4329(6)
C13 C 0.1752(7) -0.0063(2) 0.3397(7)
H10 H 0.22330 0.01400 0.32770
C14 C 0.1115(8) -0.0363(3) 0.2630(6)
H11 H 0.11540 -0.03620 0.20000
C15 C 0.0427(9) -0.0660(4) 0.2824(9)
C16 C 0.0381(7) -0.0657(2) 0.3751(8)
H12 H -0.00910 -0.08640 0.38700
C17 C 0.1009(7) -0.0357(3) 0.4512(6)
H13 H 0.09640 -0.03590 0.51400
C18 C -0.0353(9) -0.0994(3) 0.1972(7)
H14 H -0.00870 -0.13030 0.21550
H15 H -0.03360 -0.09160 0.13310
H16 H -0.11160 -0.09700 0.19040
N3 N 0.2753(5) 0.32760(18) 0.7756(4)
C19 C 0.3175(5) 0.3517(2) 0.7228(5)
C20 C 0.3023(6) 0.3402(3) 0.6219(5)
H17 H 0.33430 0.35770 0.58710
C21 C 0.2376(7) 0.3015(3) 0.5775(6)
H18 H 0.22430 0.29290 0.51120
C22 C 0.1924(6) 0.2756(3) 0.6328(6)
C23 C 0.1301(7) 0.2359(3) 0.5922(6)
H19 H 0.11970 0.22510 0.52800
C24 C 0.0845(8) 0.2130(3) 0.6483(7)
H20 H 0.03990 0.18720 0.62020
C25 C 0.1029(7) 0.2273(2) 0.7476(6)
H21 H 0.07150 0.21120 0.78490
C26 C 0.1672(7) 0.2651(2) 0.7880(6)
O4 O 0.1846(5) 0.27925(15) 0.8830(4)
H22 H 0.22900 0.30090 0.90020
C27 C 0.2128(6) 0.2899(2) 0.7317(5)
C28 C 0.3839(7) 0.3935(3) 0.7715(6)
O5 O 0.4283(4) 0.41755(16) 0.7293(4)
N4 N 0.3900(5) 0.40200(19) 0.8650(5)
H23 H 0.36420 0.38230 0.89420
O6 O 0.4381(5) 0.44269(15) 0.9150(4)
C29 C 0.5607(7) 0.4412(3) 0.9646(6)
H24 H 0.58930 0.47160 0.99010
H25 H 0.58840 0.43290 0.91410
C30 C 0.6070(7) 0.4076(3) 1.0525(7)
C31 C 0.5945(7) 0.4127(3) 1.1430(8)
H26 H 0.55020 0.43660 1.14870
C32 C 0.6466(8) 0.3831(3) 1.2248(7)
H27 H 0.63550 0.38680 1.28400
C33 C 0.7141(9) 0.3484(3) 1.2192(9)
C34 C 0.7237(8) 0.3420(3) 1.1296(9)
H28 H 0.76510 0.31720 1.12340
C35 C 0.6730(8) 0.3719(3) 1.0472(7)
H29 H 0.68370 0.36760 0.98790
C36 C 0.7735(9) 0.3182(3) 1.3126(7)
H30 H 0.72680 0.31520 1.34890
H31 H 0.84480 0.33180 1.35700
H32 H 0.78650 0.28840 1.29110
N5 N 0.3124(4) 0.57256(19) 0.2437(4)
C37 C 0.2714(7) 0.5330(2) 0.2572(5)
C38 C 0.1584(7) 0.5272(2) 0.2392(5)
H33 H 0.13410 0.49880 0.25130
C39 C 0.0834(6) 0.5622(3) 0.2044(5)
H34 H 0.00730 0.55820 0.19000
C40 C 0.1257(8) 0.6052(3) 0.1908(5)
C41 C 0.0544(7) 0.6450(3) 0.1558(6)
H35 H -0.02240 0.64350 0.14090
C42 C 0.1027(10) 0.6850(3) 0.1452(7)
H36 H 0.05690 0.71080 0.12110
C43 C 0.2180(9) 0.6887(3) 0.1691(7)
H37 H 0.24950 0.71670 0.16400
C44 C 0.2822(7) 0.6507(3) 0.1998(6)
O7 O 0.3956(5) 0.65406(14) 0.2231(4)
H38 H 0.42330 0.62830 0.23050
C45 C 0.2390(7) 0.6078(2) 0.2114(5)
C46 C 0.3546(7) 0.4936(2) 0.2937(5)
O8 O 0.3241(4) 0.45565(15) 0.3100(3)
N6 N 0.4562(6) 0.50448(19) 0.3041(5)
H39 H 0.46940 0.53160 0.28830
O9 O 0.5427(5) 0.47232(15) 0.3403(4)
C47 C 0.6093(7) 0.4811(3) 0.4463(6)
H40 H 0.56610 0.47340 0.48480
H41 H 0.62810 0.51340 0.45630
C48 C 0.7151(10) 0.4535(4) 0.4847(6)
C49 C 0.8209(17) 0.4690(5) 0.4923(10)
H42 H 0.82790 0.49840 0.47070
C50 C 0.9164(12) 0.4396(6) 0.533(1)
H43 H 0.98950 0.44790 0.54350
C51 C 0.8868(13) 0.3976(5) 0.5548(8)
C52 C 0.7935(15) 0.3798(4) 0.5507(8)
H44 H 0.78680 0.34980 0.56920
C53 C 0.7060(9) 0.4110(5) 0.5155(7)
H45 H 0.63640 0.40200 0.51300
C54 C 0.9995(9) 0.3640(3) 0.5991(7)
H46 H 1.00740 0.35020 0.66230
H47 H 1.06580 0.38190 0.61110
H48 H 0.99080 0.34050 0.54960
#END
