
#######################################################################
#
#                 Cambridge Crystallographic Data Centre
#                                CCDC
#
#######################################################################
#
# If this CIF has been generated from an entry in the Cambridge
# Structural Database, then it will include bibliographic, chemical,
# crystal, experimental, refinement or atomic coordinate data resulting
# from the CCDC's data processing and validation procedures.
#
#######################################################################

data_CSD_CIF_SERROY
_audit_creation_date 2013-05-14
_audit_creation_method CSD-ConQuest-V1
_database_code_CSD SERROY
_database_code_depnum_ccdc_archive 'CCDC 924917'
_chemical_formula_sum 'C20 H27 N1 O8'
_chemical_formula_moiety
;
C20 H27 N1 O8
;
_journal_coden_Cambridge 179
_journal_volume 52
_journal_year 2013
_journal_page_first 6517
_journal_name_full 'Angew.Chem.,Int.Ed. '
loop_
_publ_author_name
"S.M.Dalby"
"J.Goodwin-Tindall"
"I.Paterson"
_chemical_name_systematic
;
2-(4-Hydroxy-2-methoxy-3-methylbutyl)-3,3-dimethyl-6-oxotetrahydro-2H-pyran-4-
yl 4-nitrobenzoate
;
_cell_volume   2083.551
_exptl_crystal_colour 'colorless'
_exptl_crystal_density_diffrn 1.305
_exptl_crystal_description 'plate'
_diffrn_ambient_temperature 180
#These two values have been output from a single CSD field.
_refine_ls_R_factor_gt 0.0562
_refine_ls_wR_factor_gt 0.0562
_symmetry_cell_setting orthorhombic
_symmetry_space_group_name_H-M 'P 21 21 21'
_symmetry_Int_Tables_number 19
loop_
_symmetry_equiv_pos_site_id
_symmetry_equiv_pos_as_xyz
1 x,y,z
2 1/2-x,-y,1/2+z
3 1/2+x,1/2-y,-z
4 -x,1/2+y,1/2-z
_cell_length_a 7.0429(9)
_cell_length_b 11.243(2)
_cell_length_c 26.313(3)
_cell_angle_alpha 90
_cell_angle_beta 90
_cell_angle_gamma 90
_cell_formula_units_Z 4
loop_
_atom_type_symbol
_atom_type_radius_bond
C 0.68
H 0.23
N 0.68
O 0.68
loop_
_atom_site_label
_atom_site_type_symbol
_atom_site_fract_x
_atom_site_fract_y
_atom_site_fract_z
O1 O 0.8870(7) 0.5494(4) 0.85730(17)
O2 O 1.2113(7) 0.0617(4) 0.91654(17)
O3 O 0.8796(6) 0.4250(3) 0.92337(14)
O4 O 0.9367(6) 0.0708(3) 0.87748(16)
O5 O 0.6539(6) 0.0020(3) 0.76110(16)
O6 O 0.8154(8) -0.2816(4) 0.77771(18)
H1 H 0.83720 -0.33720 0.79820
N1 N 0.8657(8) 0.9121(6) 1.0472(3)
O7 O 0.8608(9) 0.8869(4) 1.0922(2)
O8 O 0.8681(9) 1.0139(4) 1.0310(2)
C1 C 0.8699(9) 0.8114(6) 1.0102(3)
C2 C 0.8833(10) 0.8403(6) 0.9597(3)
H2 H 0.88970 0.92080 0.94880
C3 C 0.8557(9) 0.6966(6) 1.0277(3)
H3 H 0.84230 0.68090 1.06300
C4 C 0.8874(9) 0.7469(6) 0.9248(2)
H4 H 0.89810 0.76310 0.88950
C5 C 0.8611(9) 0.6046(5) 0.9931(2)
H5 H 0.85480 0.52450 1.00450
C6 C 0.8757(8) 0.6297(5) 0.9418(2)
C7 C 0.8804(9) 0.5330(6) 0.9025(3)
C8 C 1.0794(11) 0.1220(6) 0.9028(2)
C9 C 1.064(1) 0.2523(6) 0.9173(3)
H6 H 1.04510 0.25740 0.95450
H7 H 1.18620 0.29160 0.90940
C10 C 0.9067(9) 0.3209(5) 0.8916(2)
H8 H 0.94830 0.34590 0.85690
C11 C 0.7239(8) 0.2484(5) 0.8879(2)
C12 C 0.7756(9) 0.1376(5) 0.8555(2)
H9 H 0.81340 0.16540 0.82080
C13 C 0.6224(9) 0.0443(5) 0.8495(2)
H10 H 0.50280 0.08370 0.83910
H11 H 0.60010 0.00560 0.88270
C14 C 0.6728(9) -0.0507(5) 0.8103(2)
H12 H 0.80870 -0.07360 0.81530
C15 C 0.5537(11) -0.1604(5) 0.8147(3)
H13 H 0.57090 -0.19300 0.84980
C16 C 0.6163(11) -0.2571(6) 0.7768(3)
H14 H 0.54640 -0.33140 0.78440
H15 H 0.58040 -0.23170 0.74210
C17 C 0.6476(9) 0.2134(5) 0.9400(2)
H16 H 0.63070 0.28500 0.96080
H17 H 0.73780 0.15980 0.95670
H18 H 0.52510 0.17310 0.93610
C18 C 0.5753(9) 0.3213(5) 0.8590(2)
H19 H 0.54160 0.39180 0.87890
H20 H 0.46170 0.27260 0.85340
H21 H 0.62750 0.34600 0.82610
C19 C 0.8122(12) -0.0082(7) 0.7291(3)
H22 H 0.78310 0.02760 0.69600
H23 H 0.84360 -0.09240 0.72440
H24 H 0.92060 0.03310 0.74440
C20 C 0.3435(11) -0.1366(6) 0.8071(3)
H25 H 0.29680 -0.08560 0.83460
H26 H 0.27400 -0.21210 0.80730
H27 H 0.32400 -0.09660 0.77440
#END
