
#######################################################################
#
#                 Cambridge Crystallographic Data Centre
#                                CCDC
#
#######################################################################
#
# If this CIF has been generated from an entry in the Cambridge
# Structural Database, then it will include bibliographic, chemical,
# crystal, experimental, refinement or atomic coordinate data resulting
# from the CCDC's data processing and validation procedures.
#
#######################################################################

data_CSD_CIF_SERXIX
_audit_creation_date 2007-02-08
_audit_creation_method CSD-ConQuest-V1
_database_code_CSD SERXIX
_database_code_depnum_ccdc_archive 'CCDC 629213'
_chemical_formula_sum 'C34 H42 N2 O11'
_chemical_formula_moiety
;
C34 H42 N2 O11
;
_journal_coden_Cambridge 1336
_journal_volume 8
_journal_year 2006
_journal_page_first 5117
_journal_name_full 'Org.Lett. '
loop_
_publ_author_name
"Aimin Zhang"
"J.S.Ferguson"
"K.Yamato"
"Chong Zheng"
"Bing Gong"
_chemical_name_systematic
;
5-[(2,4-diisobutoxy-5-nitrobenzoyl)-(2,4-dimethoxybenzyl)amino]-2,4-dimethoxyb
enzoic acid methyl ester
;
_cell_volume   1705.481
_exptl_crystal_colour 'colorless'
_exptl_crystal_density_diffrn 1.273
_diffrn_ambient_temperature 203
#These two values have been output from a single CSD field.
_refine_ls_R_factor_gt 0.0591
_refine_ls_wR_factor_gt 0.0591
_symmetry_cell_setting triclinic
_symmetry_space_group_name_H-M 'P -1'
_symmetry_Int_Tables_number 2
loop_
_symmetry_equiv_pos_site_id
_symmetry_equiv_pos_as_xyz
1 x,y,z
2 -x,-y,-z
_cell_length_a 10.9275(14)
_cell_length_b 11.0354(11)
_cell_length_c 14.5086(15)
_cell_angle_alpha 92.193(1)
_cell_angle_beta 100.377(2)
_cell_angle_gamma 96.850(1)
_cell_formula_units_Z 2
loop_
_atom_type_symbol
_atom_type_radius_bond
C 0.68
H 0.23
N 0.68
O 0.68
loop_
_atom_site_label
_atom_site_type_symbol
_atom_site_fract_x
_atom_site_fract_y
_atom_site_fract_z
C1 C 1.03043(19) 0.20694(18) 0.11177(14)
N1 N 1.01656(16) 0.14571(15) 0.18859(12)
O1 O 1.12506(15) 0.21347(16) 0.07748(12)
C2 C 0.91997(19) 0.26747(19) 0.06772(14)
C3 C 0.9223(2) 0.39373(19) 0.08077(14)
C4 C 0.8264(2) 0.4527(2) 0.03385(15)
H1 H 0.82950 0.53780 0.04340
C5 C 0.7256(2) 0.3864(2) -0.02732(15)
C6 C 0.7229(2) 0.2594(2) -0.03849(16)
C7 C 0.8195(2) 0.2017(2) 0.00921(15)
H2 H 0.81600 0.11630 0.00130
C8 C 0.90729(19) 0.14392(18) 0.22999(14)
C9 C 0.8164(2) 0.04035(19) 0.21292(15)
C10 C 0.7119(2) 0.0353(2) 0.25494(16)
H3 H 0.65170 -0.03450 0.24420
C11 C 0.69544(19) 0.13306(19) 0.31287(15)
C12 C 0.78357(19) 0.23906(18) 0.32780(14)
C13 C 0.88917(19) 0.24017(18) 0.28599(14)
H4 H 0.95000 0.30950 0.29670
C14 C 1.18309(19) 0.12331(19) 0.32528(15)
C15 C 1.16895(19) 0.06588(19) 0.40755(15)
C16 C 1.2397(2) 0.1119(2) 0.49304(16)
H5 H 1.22920 0.07270 0.54800
C17 C 1.3262(2) 0.2157(2) 0.49811(16)
C18 C 1.3414(2) 0.2750(2) 0.41826(18)
H6 H 1.39940 0.34590 0.42130
C19 C 1.2690(2) 0.2275(2) 0.33347(17)
H7 H 1.27870 0.26800 0.27890
O2 O 1.02289(14) 0.45052(13) 0.14140(11)
C20 C 1.0287(2) 0.5784(2) 0.16685(16)
H8 H 0.95640 0.59300 0.19520
H9 H 1.02720 0.62580 0.11100
C21 C 1.1491(2) 0.6166(2) 0.23624(16)
H10 H 1.22030 0.59840 0.20660
C22 C 1.1611(3) 0.7536(2) 0.2576(2)
H11 H 1.09160 0.77280 0.28630
H12 H 1.15990 0.79520 0.19980
H13 H 1.23950 0.78030 0.30050
C23 C 1.1525(2) 0.5470(2) 0.32478(17)
H14 H 1.08130 0.56120 0.35320
H15 H 1.22960 0.57520 0.36860
H16 H 1.14880 0.46030 0.30900
O3 O 0.63073(15) 0.43825(15) -0.07502(13)
C24 C 0.6352(2) 0.5694(2) -0.06996(19)
H17 H 0.71380 0.60720 -0.08600
H18 H 0.63180 0.59880 -0.00600
C25 C 0.5277(4) 0.6033(3) -0.1362(4)
C26 C 0.5264(3) 0.7410(3) -0.1291(3)
H19 H 0.60250 0.78160 -0.14560
H20 H 0.52170 0.76710 -0.06540
H21 H 0.45420 0.76200 -0.17190
C27 C 0.4560(8) 0.5369(5) -0.1978(5)
H22 H 0.49100 0.53630 -0.25470
H23 H 0.37540 0.56760 -0.21030
H24 H 0.44500 0.45440 -0.17710
N2 N 0.6219(2) 0.1823(2) -0.10003(15)
O4 O 0.6103(3) 0.0738(2) -0.0897(2)
O5 O 0.55275(19) 0.22598(19) -0.16076(16)
O6 O 0.83947(16) -0.04769(15) 0.15362(13)
C28 C 0.7465(3) -0.1505(3) 0.1264(3)
H25 H 0.73810 -0.19750 0.18060
H26 H 0.77100 -0.20140 0.07870
H27 H 0.66680 -0.12270 0.10150
O7 O 0.59650(14) 0.13164(14) 0.35703(12)
C29 C 0.5028(2) 0.0271(2) 0.3402(2)
H28 H 0.46580 0.01750 0.27390
H29 H 0.43810 0.03810 0.37650
H30 H 0.54090 -0.04540 0.35880
C30 C 0.7665(2) 0.3475(2) 0.38466(15)
O8 O 0.6888(2) 0.3567(2) 0.43041(18)
O9 O 0.85091(19) 0.44212(16) 0.37865(18)
C31 C 0.8403(3) 0.5550(2) 0.4281(3)
H31 H 0.79600 0.60710 0.38500
H32 H 0.92350 0.59630 0.45430
H33 H 0.79440 0.53770 0.47840
C32 C 1.1131(2) 0.0717(2) 0.23074(15)
H34 H 1.17300 0.06570 0.18850
H35 H 1.07310 -0.01120 0.23690
O10 O 1.08257(15) -0.03634(14) 0.39808(11)
C33 C 1.0937(3) -0.1164(2) 0.47343(18)
H36 H 1.17850 -0.13770 0.48670
H37 H 1.03490 -0.19010 0.45580
H38 H 1.07540 -0.07580 0.52890
O11 O 1.39169(16) 0.25150(16) 0.58624(12)
C34 C 1.4973(3) 0.3432(3) 0.5939(2)
H39 H 1.55390 0.31790 0.55460
H40 H 1.54070 0.35450 0.65870
H41 H 1.46910 0.41960 0.57350
#END
