
#######################################################################
#
#                 Cambridge Crystallographic Data Centre
#                                CCDC
#
#######################################################################
#
# If this CIF has been generated from an entry in the Cambridge
# Structural Database, then it will include bibliographic, chemical,
# crystal, experimental, refinement or atomic coordinate data resulting
# from the CCDC's data processing and validation procedures.
#
#######################################################################

data_CSD_CIF_SERYOF
_audit_creation_date 2013-05-14
_audit_creation_method CSD-ConQuest-V1
_database_code_CSD SERYOF
_database_code_depnum_ccdc_archive 'CCDC 923688'
_chemical_formula_sum 'C18 H15 N1 O6'
_chemical_formula_moiety
;
C18 H15 N1 O6
;
_journal_coden_Cambridge 177
_journal_volume 11
_journal_year 2013
_journal_page_first 3151
_journal_name_full 'Org.Biomol.Chem. '
loop_
_publ_author_name
"B.Harris"
"G.Paul Savage"
"J.M.White"
_chemical_name_systematic
;
Methyl 4-(((2-nitrobenzoyl)oxy)methyl)cubane-1-carboxylate
;
_cell_volume    773.073
_exptl_crystal_colour 'colorless'
_exptl_crystal_density_diffrn 1.466
_exptl_crystal_description 'block'
_diffrn_ambient_temperature 130
#These two values have been output from a single CSD field.
_refine_ls_R_factor_gt 0.0426
_refine_ls_wR_factor_gt 0.0426
_symmetry_cell_setting triclinic
_symmetry_space_group_name_H-M 'P -1'
_symmetry_Int_Tables_number 2
loop_
_symmetry_equiv_pos_site_id
_symmetry_equiv_pos_as_xyz
1 x,y,z
2 -x,-y,-z
_cell_length_a 7.5474(4)
_cell_length_b 8.4100(5)
_cell_length_c 13.9152(8)
_cell_angle_alpha 102.757(5)
_cell_angle_beta 90.682(4)
_cell_angle_gamma 115.310(5)
_cell_formula_units_Z 2
loop_
_atom_type_symbol
_atom_type_radius_bond
C 0.68
H 0.23
N 0.68
O 0.68
loop_
_atom_site_label
_atom_site_type_symbol
_atom_site_fract_x
_atom_site_fract_y
_atom_site_fract_z
C1 C 0.8740(2) 0.1799(2) 0.15550(11)
C2 C 0.7968(2) 0.2294(2) 0.06675(11)
H1 H 0.80310 0.18300 -0.00360
C3 C 0.6032(2) 0.2026(2) 0.11502(11)
H2 H 0.46920 0.13670 0.07960
C4 C 0.7013(2) 0.4063(2) 0.17322(11)
C5 C 0.8968(2) 0.43408(19) 0.12490(11)
H3 H 0.97460 0.53600 0.09650
C6 C 0.9740(2) 0.3844(2) 0.21350(11)
H4 H 1.10800 0.44980 0.24880
C7 C 0.7810(2) 0.3584(2) 0.26180(11)
H5 H 0.77500 0.40500 0.33210
C8 C 0.6801(2) 0.1536(2) 0.20377(11)
H6 H 0.60210 0.05200 0.23230
C9 C 0.9752(2) 0.0603(2) 0.14548(11)
H7 H 0.88610 -0.06280 0.10970
H8 H 1.08930 0.10470 0.11000
C10 C 0.6261(2) 0.5441(2) 0.18038(11)
C11 C 0.4033(3) 0.6241(2) 0.10779(14)
H9 H 0.29060 0.57240 0.05850
H10 H 0.50790 0.72420 0.09000
H11 H 0.36800 0.66620 0.17110
C12 C 1.1421(2) -0.02368(19) 0.25487(11)
C13 C 1.2004(2) -0.0032(2) 0.36119(11)
C14 C 1.2633(2) 0.1587(2) 0.43502(11)
C15 C 1.2948(2) 0.1673(2) 0.53420(12)
H12 H 1.33390 0.27650 0.58190
C16 C 1.2671(3) 0.0107(2) 0.56142(12)
H13 H 1.28630 0.01390 0.62810
C17 C 1.2110(3) -0.1506(2) 0.49019(13)
H14 H 1.19600 -0.25470 0.50890
C18 C 1.1770(2) -0.1577(2) 0.39066(12)
H15 H 1.13820 -0.26710 0.34320
N1 N 1.30819(19) 0.32974(17) 0.40778(10)
O1 O 1.03532(15) 0.06560(14) 0.24605(7)
O2 O 1.18068(16) -0.11407(15) 0.18627(8)
O3 O 1.38990(17) 0.35456(15) 0.33323(9)
O4 O 1.2663(2) 0.44112(16) 0.46257(10)
O5 O 0.70264(17) 0.69385(15) 0.23573(9)
O6 O 0.46877(16) 0.48748(15) 0.11342(8)
#END
