
#######################################################################
#
#                 Cambridge Crystallographic Data Centre
#                                CCDC
#
#######################################################################
#
# If this CIF has been generated from an entry in the Cambridge
# Structural Database, then it will include bibliographic, chemical,
# crystal, experimental, refinement or atomic coordinate data resulting
# from the CCDC's data processing and validation procedures.
#
#######################################################################

data_CSD_CIF_SERYUL
_audit_creation_date 2013-05-14
_audit_creation_method CSD-ConQuest-V1
_database_code_CSD SERYUL
_database_code_depnum_ccdc_archive 'CCDC 923687'
_chemical_formula_sum 'C18 H15 N1 O6'
_chemical_formula_moiety
;
C18 H15 N1 O6
;
_journal_coden_Cambridge 177
_journal_volume 11
_journal_year 2013
_journal_page_first 3151
_journal_name_full 'Org.Biomol.Chem. '
loop_
_publ_author_name
"B.Harris"
"G.Paul Savage"
"J.M.White"
_chemical_name_systematic
;
Methyl 4-(((3-nitrobenzoyl)oxy)methyl)cubane-1-carboxylate
;
_cell_volume    767.545
_exptl_crystal_colour 'colorless'
_exptl_crystal_density_diffrn 1.477
_exptl_crystal_description 'block'
_diffrn_ambient_temperature 130
#These two values have been output from a single CSD field.
_refine_ls_R_factor_gt 0.0431
_refine_ls_wR_factor_gt 0.0431
_symmetry_cell_setting triclinic
_symmetry_space_group_name_H-M 'P -1'
_symmetry_Int_Tables_number 2
loop_
_symmetry_equiv_pos_site_id
_symmetry_equiv_pos_as_xyz
1 x,y,z
2 -x,-y,-z
_cell_length_a 8.1260(6)
_cell_length_b 8.7446(5)
_cell_length_c 12.5714(7)
_cell_angle_alpha 89.867(5)
_cell_angle_beta 76.801(5)
_cell_angle_gamma 62.719(7)
_cell_formula_units_Z 2
loop_
_atom_type_symbol
_atom_type_radius_bond
C 0.68
H 0.23
N 0.68
O 0.68
loop_
_atom_site_label
_atom_site_type_symbol
_atom_site_fract_x
_atom_site_fract_y
_atom_site_fract_z
C1 C 0.7992(2) 0.86472(19) 0.20342(12)
C2 C 0.8979(2) 0.9260(2) 0.10219(12)
H1 H 0.82960 1.01110 0.05410
C3 C 1.0236(2) 0.94864(19) 0.17223(12)
H2 H 1.04860 1.05020 0.17550
C4 C 1.1811(2) 0.75551(19) 0.13445(12)
C5 C 1.0545(2) 0.7340(2) 0.06246(12)
H3 H 1.10320 0.67740 -0.01520
C6 C 0.9560(2) 0.67240(19) 0.16306(12)
H4 H 0.93100 0.57090 0.15950
C7 C 1.0812(2) 0.69521(19) 0.23406(12)
H5 H 1.14800 0.61050 0.28280
C8 C 0.9252(2) 0.88755(19) 0.27294(12)
H6 H 0.87710 0.94460 0.35040
C9 C 0.5889(2) 0.9276(2) 0.24091(12)
H7 H 0.52000 1.05530 0.25790
H8 H 0.54270 0.89460 0.18290
C10 C 1.3911(2) 0.69071(19) 0.09529(12)
C11 C 1.6290(2) 0.7303(2) -0.03333(14)
H9 H 1.64000 0.81440 -0.08230
H10 H 1.67710 0.61860 -0.07690
H11 H 1.70450 0.71590 0.02010
C12 C 0.3830(2) 0.85550(19) 0.37033(12)
C13 C 0.3538(2) 0.77764(19) 0.47479(12)
C14 C 0.4845(2) 0.7214(2) 0.53901(13)
H12 H 0.60090 0.72750 0.51580
C15 C 0.4449(2) 0.6564(2) 0.63712(13)
H13 H 0.53490 0.61760 0.68060
C16 C 0.2745(2) 0.6477(2) 0.67216(13)
H14 H 0.24560 0.60500 0.73970
C17 C 0.1484(2) 0.70297(19) 0.60575(13)
C18 C 0.1837(2) 0.76753(19) 0.50761(12)
H15 H 0.09450 0.80400 0.46370
N1 N -0.0342(2) 0.69712(18) 0.64081(12)
O1 O 0.55617(15) 0.84615(15) 0.33954(9)
O2 O 0.26203(16) 0.91991(16) 0.32066(10)
O3 O -0.09103(18) 0.68721(17) 0.73845(11)
O4 O -0.1196(2) 0.7039(2) 0.57157(12)
O5 O 1.51239(15) 0.56394(15) 0.12146(10)
O6 O 1.43024(15) 0.79220(14) 0.02434(9)
#END
