
#######################################################################
#
#                 Cambridge Crystallographic Data Centre
#                                CCDC
#
#######################################################################
#
# If this CIF has been generated from an entry in the Cambridge
# Structural Database, then it will include bibliographic, chemical,
# crystal, experimental, refinement or atomic coordinate data resulting
# from the CCDC's data processing and validation procedures.
#
#######################################################################

data_CSD_CIF_SESFIH
_audit_creation_date 2013-05-14
_audit_creation_method CSD-ConQuest-V1
_database_code_CSD SESFIH
_database_code_depnum_ccdc_archive 'CCDC 923057'
_chemical_formula_sum 'C26 H20 N2 O3'
_chemical_formula_moiety
;
C26 H20 N2 O3
;
_journal_coden_Cambridge 177
_journal_volume 11
_journal_year 2013
_journal_page_first 3436
_journal_name_full 'Org.Biomol.Chem. '
loop_
_publ_author_name
"M.Chigrinova"
"C.S.McKay"
"L.-P.B.Beaulieu"
"K.A.Udachin"
"A.M.Beauchemin"
"J.P.Pezacki"
_chemical_name_systematic
;
11-((3-(4-(Hydroxymethyl)phenyl)-4,5-dihydro-1,2-oxazol-5-yl)methyl)-6H-isoind
olo[2,1-a]indol-6-one
;
_cell_volume   1959.587
_exptl_crystal_colour 'yellow'
_exptl_crystal_density_diffrn 1.384
_exptl_crystal_description 'plate'
_diffrn_ambient_temperature 100
#These two values have been output from a single CSD field.
_refine_ls_R_factor_gt 0.1245
_refine_ls_wR_factor_gt 0.1245
_symmetry_cell_setting monoclinic
_symmetry_space_group_name_H-M 'P 21/c'
_symmetry_Int_Tables_number 14
loop_
_symmetry_equiv_pos_site_id
_symmetry_equiv_pos_as_xyz
1 x,y,z
2 -x,1/2+y,1/2-z
3 -x,-y,-z
4 x,-1/2-y,-1/2+z
_cell_length_a 5.4793(18)
_cell_length_b 20.849(7)
_cell_length_c 17.361(6)
_cell_angle_alpha 90
_cell_angle_beta 98.866(18)
_cell_angle_gamma 90
_cell_formula_units_Z 4
loop_
_atom_type_symbol
_atom_type_radius_bond
C 0.68
H 0.23
N 0.68
O 0.68
loop_
_atom_site_label
_atom_site_type_symbol
_atom_site_fract_x
_atom_site_fract_y
_atom_site_fract_z
O1 O 0.9450(7) 0.26838(12) 0.56499(16)
O2 O 0.7177(7) 0.04379(11) 0.32821(14)
O3 O 0.7508(8) -0.12351(14) -0.12241(17)
H1 H 0.85400 -0.15130 -0.10370
N1 N 0.6483(12) 0.1957(2) 0.4950(3)
N2 N 0.7698(8) 0.02090(13) 0.25333(19)
C1 C 0.1475(10) 0.0884(2) 0.5014(2)
H2 H 0.05390 0.06270 0.46240
C2 C 0.0976(9) 0.08879(19) 0.5789(2)
H3 H -0.02860 0.06180 0.59260
C3 C 0.2269(9) 0.12716(19) 0.6345(2)
H4 H 0.18340 0.12820 0.68540
C4 C 0.4218(10) 0.16485(19) 0.6177(3)
H5 H 0.51690 0.19070 0.65630
C5 C 0.4705(9) 0.16257(19) 0.5399(3)
C6 C 0.3258(10) 0.1245(2) 0.4855(2)
C7 C 0.4102(8) 0.13106(17) 0.4063(2)
C8 C 0.5881(10) 0.1719(2) 0.4173(3)
C9 C 0.8562(12) 0.2373(2) 0.5045(3)
C10 C 0.9208(10) 0.24136(19) 0.4179(2)
C11 C 1.0981(9) 0.27612(17) 0.3959(2)
H6 H 1.20140 0.30190 0.43250
C12 C 1.1327(9) 0.27444(17) 0.3158(2)
H7 H 1.26100 0.29890 0.29900
C13 C 0.9782(9) 0.23701(18) 0.2629(2)
H8 H 1.00020 0.23690 0.20970
C14 C 0.7938(10) 0.20000(18) 0.2859(3)
H9 H 0.69050 0.17390 0.24970
C15 C 0.7636(10) 0.20236(19) 0.3657(3)
C16 C 0.3247(10) 0.09523(16) 0.3360(2)
H10 H 0.35220 0.12060 0.28990
H11 H 0.14530 0.08700 0.33210
C17 C 0.4639(9) 0.03119(19) 0.3368(2)
H12 H 0.45660 0.00780 0.38670
C18 C 0.3675(8) -0.01159(17) 0.2672(2)
H13 H 0.33640 -0.05580 0.28400
H14 H 0.21380 0.00600 0.23710
C19 C 0.5760(9) -0.00982(16) 0.2204(2)
C20 C 0.5739(8) -0.03918(17) 0.1418(2)
C21 C 0.7582(8) -0.02871(16) 0.0960(2)
H15 H 0.89280 -0.00140 0.11510
C22 C 0.7502(9) -0.05704(15) 0.0235(2)
H16 H 0.87630 -0.04830 -0.00690
C23 C 0.5575(10) -0.09828(17) -0.0048(2)
C24 C 0.3732(9) -0.10979(16) 0.0398(2)
H17 H 0.23960 -0.13730 0.02050
C25 C 0.3821(8) -0.08089(15) 0.1139(2)
H18 H 0.25710 -0.08990 0.14470
C26 C 0.5354(11) -0.1292(2) -0.0876(2)
H19 H 0.49540 -0.17530 -0.08360
H20 H 0.39640 -0.10870 -0.12210
#END
