
#######################################################################
#
#                 Cambridge Crystallographic Data Centre
#                                CCDC
#
#######################################################################
#
# If this CIF has been generated from an entry in the Cambridge
# Structural Database, then it will include bibliographic, chemical,
# crystal, experimental, refinement or atomic coordinate data resulting
# from the CCDC's data processing and validation procedures.
#
#######################################################################

data_CSD_CIF_SESTUG
_audit_creation_date 2007-02-08
_audit_creation_method CSD-ConQuest-V1
_database_code_CSD SESTUG
_database_code_depnum_ccdc_archive 'CCDC 629653'
_chemical_formula_sum 'C15 H23 N1 O5'
_chemical_formula_moiety
;
C15 H23 N1 O5
;
_journal_coeditor_code "IUCr DN2094"
_journal_coden_Cambridge 1370
_journal_volume 62
_journal_year 2006
_journal_page_first o5784
_journal_name_full 'Acta Crystallogr.,Sect.E:Struct.Rep.Online '
loop_
_publ_author_name
"Tong-Jian Wang"
"Hua Fang"
"Fang Cheng"
"Guo Tang"
"Yu-Fen Zhao"
_chemical_name_systematic
;
2,5-Dioxopyrrolidin-1-yl (1R,2S,5R)-2-isopropyl-5-methylcyclohexyl carbonate
;
_cell_volume   1596.359
_exptl_crystal_colour 'colorless'
_exptl_crystal_density_diffrn 1.237
_exptl_crystal_description 'block'
_exptl_crystal_preparation 'petroleum ether/ethyl acetate'
_diffrn_ambient_temperature 293
#These two values have been output from a single CSD field.
_refine_ls_R_factor_gt 0.0618
_refine_ls_wR_factor_gt 0.0618
_symmetry_cell_setting orthorhombic
_symmetry_space_group_name_H-M 'P 21 21 21'
_symmetry_Int_Tables_number 19
loop_
_symmetry_equiv_pos_site_id
_symmetry_equiv_pos_as_xyz
1 x,y,z
2 1/2-x,-y,1/2+z
3 1/2+x,1/2-y,-z
4 -x,1/2+y,1/2-z
_cell_length_a 6.5911(14)
_cell_length_b 7.7815(17)
_cell_length_c 31.125(7)
_cell_angle_alpha 90
_cell_angle_beta 90
_cell_angle_gamma 90
_cell_formula_units_Z 4
loop_
_atom_type_symbol
_atom_type_radius_bond
C 0.68
H 0.23
N 0.68
O 0.68
loop_
_atom_site_label
_atom_site_type_symbol
_atom_site_fract_x
_atom_site_fract_y
_atom_site_fract_z
O1 O 0.4392(5) 1.0489(4) 0.93744(9)
N1 N 0.7833(5) 0.9469(4) 0.96711(9)
C1 C 0.2643(6) 0.8791(5) 0.86752(11)
H1 H 0.19380 0.96990 0.88340
O2 O 0.4536(4) 0.8330(3) 0.88984(7)
C2 C 0.3222(6) 0.9432(6) 0.82359(11)
H2 H 0.40230 0.85220 0.81000
O3 O 0.6915(4) 0.8541(4) 0.93485(8)
C3 C 0.1274(7) 0.9615(7) 0.79738(14)
H3 H 0.04480 1.05210 0.80970
H4 H 0.16170 0.99480 0.76820
O4 O 0.6796(6) 0.7712(5) 1.0205(1)
C4 C 0.0064(7) 0.7978(7) 0.79622(13)
H5 H -0.11540 0.81570 0.77930
H6 H 0.08580 0.70870 0.78240
O5 O 0.9324(6) 1.1412(5) 0.92338(10)
C5 C -0.0517(7) 0.7398(6) 0.84032(14)
H7 H -0.13480 0.83020 0.85340
C6 C 0.1376(7) 0.7202(6) 0.86692(13)
H8 H 0.09970 0.69100 0.89610
H9 H 0.21760 0.62600 0.85550
C7 C 0.5116(6) 0.9281(5) 0.92158(11)
C8 C 0.7741(7) 0.8908(6) 1.00871(13)
C9 C 0.9039(8) 1.0137(6) 1.03295(13)
H10 H 1.00270 0.95240 1.05020
H11 H 0.82170 1.08480 1.05170
C10 C 1.0087(7) 1.1226(6) 0.99953(14)
H12 H 0.99250 1.24370 1.00610
H13 H 1.15240 1.09620 0.99860
C11 C 0.9113(7) 1.0811(6) 0.95769(14)
C12 C 0.4544(7) 1.1037(6) 0.82414(14)
H14 H 0.56600 1.08180 0.84420
C13 C 0.5481(9) 1.1370(8) 0.78052(16)
H15 H 0.44400 1.17000 0.76060
H16 H 0.61350 1.03440 0.77050
H17 H 0.64620 1.22770 0.78280
C14 C 0.3444(10) 1.2618(7) 0.83989(19)
H18 H 0.44090 1.35140 0.84550
H19 H 0.27240 1.23490 0.86580
H20 H 0.25010 1.29950 0.81840
C15 C -0.1745(8) 0.5765(7) 0.83995(18)
H21 H -0.29860 0.59530 0.82450
H22 H -0.20520 0.54320 0.86890
H23 H -0.09820 0.48700 0.82620
#END
