
#######################################################################
#
#                 Cambridge Crystallographic Data Centre
#                                CCDC
#
#######################################################################
#
# If this CIF has been generated from an entry in the Cambridge
# Structural Database, then it will include bibliographic, chemical,
# crystal, experimental, refinement or atomic coordinate data resulting
# from the CCDC's data processing and validation procedures.
#
#######################################################################

data_CSD_CIF_SESYOF
_audit_creation_date 2007-02-08
_audit_creation_method CSD-ConQuest-V1
_database_code_CSD SESYOF
_database_code_depnum_ccdc_archive 'CCDC 629672'
_chemical_formula_sum 'C22 H19 N5 O6'
_chemical_formula_moiety
;
C22 H19 N5 O6
;
_journal_coeditor_code "IUCr FL2073"
_journal_coden_Cambridge 1370
_journal_volume 62
_journal_year 2006
_journal_page_first o5734
_journal_name_full 'Acta Crystallogr.,Sect.E:Struct.Rep.Online '
loop_
_publ_author_name
"Feng-Xia Sun"
"Hong-Xia Du"
"Shuai Wang"
"Cui-Juan Xing"
_chemical_name_systematic
;
3-Benzotriazol-1-yl 5-methyl 
2,6-dimethyl-4-(p-nitrophenyl)-1,4-dihydropyridine-3,5-dicarboxylate
;
_chemical_melting_point 490
_cell_volume   1065.933
_exptl_crystal_colour 'yellow'
_exptl_crystal_density_diffrn 1.4
_exptl_special_details
;
Melting point range 490-491K

;
_exptl_crystal_description 'block'
_exptl_crystal_preparation 'ethyl acetate'
_diffrn_ambient_temperature 293
_refine_special_details
;
The O atoms of the nitro group are disordered over two sites, with 
occupancies 0.64:0.36.
;
#These two values have been output from a single CSD field.
_refine_ls_R_factor_gt 0.0579
_refine_ls_wR_factor_gt 0.0579
_symmetry_cell_setting triclinic
_symmetry_space_group_name_H-M 'P -1'
_symmetry_Int_Tables_number 2
loop_
_symmetry_equiv_pos_site_id
_symmetry_equiv_pos_as_xyz
1 x,y,z
2 -x,-y,-z
_cell_length_a 10.318(2)
_cell_length_b 10.751(2)
_cell_length_c 11.491(2)
_cell_angle_alpha 64.37(3)
_cell_angle_beta 76.09(3)
_cell_angle_gamma 68.77(3)
_cell_formula_units_Z 2
loop_
_atom_type_symbol
_atom_type_radius_bond
C 0.68
H 0.23
N 0.68
O 0.68
loop_
_atom_site_label
_atom_site_type_symbol
_atom_site_fract_x
_atom_site_fract_y
_atom_site_fract_z
O1 O 0.0592(2) 0.96439(19) -0.2114(2)
O2 O 0.0151(3) 0.7573(2) -0.1349(3)
O3? O -0.294(2) 0.6164(17) 0.5304(19)
O4? O -0.267(2) 0.4134(16) 0.5169(17)
O5 O -0.2627(12) 0.5865(12) 0.553(1)
O6 O -0.3286(10) 0.4729(13) 0.4724(9)
O7 O 0.5048(2) 0.31643(17) 0.19907(18)
O8 O 0.3018(2) 0.33212(16) 0.14098(19)
N1 N 0.3413(2) 0.7793(2) 0.0730(2)
H1 H 0.387(3) 0.825(3) 0.085(3)
N2 N -0.2478(3) 0.5351(3) 0.4725(3)
N3 N 0.3498(2) 0.1843(2) 0.1837(2)
N4 N 0.3877(2) 0.1232(2) 0.0964(2)
N5 N 0.4145(2) -0.0166(2) 0.1624(2)
C1 C 0.2425(3) 0.8502(2) -0.0147(2)
C2 C 0.1735(3) 0.7743(2) -0.0301(2)
C3 C 0.1923(3) 0.6155(2) 0.0575(2)
H2 H 0.19070 0.56530 0.00440
C4 C 0.3337(3) 0.5479(2) 0.1111(2)
C5 C 0.3984(3) 0.6316(2) 0.1237(2)
C6 C 0.5279(3) 0.5798(3) 0.1884(3)
H3 H 0.55840 0.66070 0.17230
H4 H 0.59990 0.51420 0.15440
H5 H 0.50870 0.53120 0.28020
C7 C 0.2283(3) 1.0090(2) -0.0835(3)
H6 H 0.28650 1.02540 -0.16440
H7 H 0.25660 1.04110 -0.03020
H8 H 0.13270 1.06170 -0.09980
C8 C 0.0766(3) 0.8286(3) -0.1277(3)
C9 C -0.0323(4) 1.0128(4) -0.3108(4)
H9 H -0.00770 0.94150 -0.34770
H10 H -0.02210 1.10240 -0.37750
H11 H -0.12750 1.02670 -0.27280
C10 C 0.0737(3) 0.5973(2) 0.1656(2)
C11 C 0.0425(3) 0.6650(3) 0.2520(3)
H12 H 0.09440 0.72450 0.24220
C12 C -0.0624(3) 0.6469(3) 0.3515(3)
H13 H -0.08240 0.69370 0.40820
C13 C -0.1373(3) 0.5576(3) 0.3650(3)
C14 C -0.1100(3) 0.4880(3) 0.2829(3)
H14 H -0.16120 0.42740 0.29420
C15 C -0.0046(3) 0.5094(3) 0.1823(3)
H15 H 0.01370 0.46360 0.12500
C16 C 0.3963(3) 0.3934(2) 0.1560(2)
C17 C 0.3483(3) 0.0875(3) 0.3080(3)
C18 C 0.3153(4) 0.0979(3) 0.4279(3)
H16 H 0.28580 0.18580 0.43760
C19 C 0.3295(5) -0.0318(4) 0.5316(3)
H17 H 0.30960 -0.03220 0.61510
C20 C 0.3722(4) -0.1616(4) 0.5161(4)
H18 H 0.37880 -0.24600 0.58980
C21 C 0.4045(4) -0.1716(3) 0.3998(3)
H19 H 0.43360 -0.26010 0.39130
C22 C 0.3921(3) -0.0417(2) 0.2919(3)
#END
