
#######################################################################
#
#                 Cambridge Crystallographic Data Centre
#                                CCDC
#
#######################################################################
#
# If this CIF has been generated from an entry in the Cambridge
# Structural Database, then it will include bibliographic, chemical,
# crystal, experimental, refinement or atomic coordinate data resulting
# from the CCDC's data processing and validation procedures.
#
#######################################################################

data_CSD_CIF_SETHEF
_audit_creation_date 2007-02-08
_audit_creation_method CSD-ConQuest-V1
_database_code_CSD SETHEF
_database_code_depnum_ccdc_archive 'CCDC 629887'
_chemical_formula_sum 'C25 H23 N3 O4'
_chemical_formula_moiety
;
C25 H23 N3 O4
;
_journal_coeditor_code "IUCr HB2198"
_journal_coden_Cambridge 1370
_journal_volume 62
_journal_year 2006
_journal_page_first o5574
_journal_name_full 'Acta Crystallogr.,Sect.E:Struct.Rep.Online '
loop_
_publ_author_name
"Wei-Lin Ding"
"Shu-Bo Tan"
"Zhi-Tao Xing"
"Pin-Liang Wang"
"Hai-Bo Wang"
_chemical_name_systematic
;
N-(2,6-Dimethylphenyl)-2-(2-(3-(3-methoxyphenyl)-1,2,4-oxadiazol-5-yl)phenoxy)
acetamide
;
_cell_volume   1091.478
_exptl_crystal_colour 'colorless'
_exptl_crystal_density_diffrn 1.307
_exptl_crystal_description 'block'
_exptl_crystal_preparation 'ethanol'
_diffrn_ambient_temperature 293
#These two values have been output from a single CSD field.
_refine_ls_R_factor_gt 0.0586
_refine_ls_wR_factor_gt 0.0586
_symmetry_cell_setting triclinic
_symmetry_space_group_name_H-M 'P -1'
_symmetry_Int_Tables_number 2
loop_
_symmetry_equiv_pos_site_id
_symmetry_equiv_pos_as_xyz
1 x,y,z
2 -x,-y,-z
_cell_length_a 8.0360(16)
_cell_length_b 11.692(2)
_cell_length_c 12.780(3)
_cell_angle_alpha 66.93(3)
_cell_angle_beta 85.56(3)
_cell_angle_gamma 81.18(3)
_cell_formula_units_Z 2
loop_
_atom_type_symbol
_atom_type_radius_bond
C 0.68
H 0.23
N 0.68
O 0.68
loop_
_atom_site_label
_atom_site_type_symbol
_atom_site_fract_x
_atom_site_fract_y
_atom_site_fract_z
O1 O -0.1472(3) 1.0792(2) 0.35968(18)
O2 O 0.2570(2) 1.13202(15) -0.11728(15)
O3 O 0.5234(2) 0.79004(16) -0.07785(15)
O4 O 0.6533(2) 0.47606(16) 0.09651(15)
N1 N 0.1663(3) 1.1272(2) -0.01782(19)
N2 N 0.2958(2) 0.93490(17) 0.00285(16)
N3 N 0.4544(3) 0.62721(18) 0.11566(17)
H1 H 0.41420 0.70540 0.08650
C1 C -0.1885(5) 1.2080(3) 0.2906(3)
H2 H -0.25890 1.24900 0.33340
H3 H -0.24750 1.21630 0.22500
H4 H -0.08710 1.24620 0.26670
C2 C -0.0455(3) 1.0053(3) 0.3135(2)
C3 C -0.0038(4) 0.8816(3) 0.3856(3)
H5 H -0.04520 0.85410 0.46020
C4 C 0.0973(4) 0.7995(3) 0.3488(2)
H6 H 0.12260 0.71600 0.39770
C5 C 0.1624(4) 0.8402(2) 0.2386(2)
H7 H 0.23320 0.78470 0.21390
C6 C 0.1220(3) 0.9632(2) 0.1661(2)
C7 C 0.0161(3) 1.0463(2) 0.2036(2)
H8 H -0.01250 1.12930 0.15440
C8 C 0.1937(3) 1.0097(2) 0.0495(2)
C9 C 0.3296(3) 1.0141(2) -0.0983(2)
C10 C 0.4299(3) 0.9977(2) -0.1926(2)
C11 C 0.4302(4) 1.0973(3) -0.2982(2)
H9 H 0.36600 1.17380 -0.30760
C12 C 0.5234(4) 1.0843(3) -0.3885(2)
H10 H 0.52110 1.15150 -0.45850
C13 C 0.6194(4) 0.9729(3) -0.3756(2)
H11 H 0.68350 0.96500 -0.43680
C14 C 0.6225(3) 0.8726(3) -0.2734(2)
H12 H 0.68780 0.79690 -0.26560
C15 C 0.5283(3) 0.8841(2) -0.1818(2)
C16 C 0.6281(3) 0.6747(2) -0.0555(2)
H13 H 0.74520 0.68640 -0.05640
H14 H 0.61400 0.64290 -0.11340
C17 C 0.5797(3) 0.5831(2) 0.0598(2)
C18 C 0.1096(4) 0.5862(3) 0.1221(3)
H15 H 0.17320 0.63650 0.05840
H16 H 0.01340 0.63800 0.13670
H17 H 0.07260 0.52110 0.10520
C19 C 0.6646(4) 0.5266(3) 0.3139(2)
H18 H 0.69270 0.58050 0.23790
H19 H 0.74040 0.44950 0.33620
H20 H 0.67400 0.56730 0.36500
C20 C 0.3855(3) 0.5494(2) 0.2217(2)
C21 C 0.4858(3) 0.4989(2) 0.3179(2)
C22 C 0.4162(4) 0.4220(2) 0.4186(2)
H21 H 0.48150 0.38570 0.48340
C23 C 0.2536(4) 0.3985(3) 0.4250(3)
H22 H 0.20940 0.34660 0.49360
C24 C 0.1553(4) 0.4515(3) 0.3298(3)
H23 H 0.04430 0.43580 0.33540
C25 C 0.2187(3) 0.5281(2) 0.2255(2)
#END
