
#######################################################################
#
#                 Cambridge Crystallographic Data Centre
#                                CCDC
#
#######################################################################
#
# If this CIF has been generated from an entry in the Cambridge
# Structural Database, then it will include bibliographic, chemical,
# crystal, experimental, refinement or atomic coordinate data resulting
# from the CCDC's data processing and validation procedures.
#
#######################################################################

data_CSD_CIF_SETRAL
_audit_creation_date 2007-05-01
_audit_creation_method CSD-ConQuest-V1
_database_code_CSD SETRAL
_database_code_depnum_ccdc_archive 'CCDC 638316'
_chemical_formula_sum 'C12 H8 N4 O1'
_chemical_formula_moiety
;
C12 H8 N4 O1
;
_journal_coeditor_code "IUCr FA3049"
_journal_coden_Cambridge 591
_journal_volume 63
_journal_year 2007
_journal_page_first o93
_journal_name_full 'Acta Crystallogr.,Sect.C:Cryst.Struct.Commun. '
loop_
_publ_author_name
"Na Liu"
"Ai-Ling Cheng"
"En-Qing Gao"
_chemical_name_systematic
;
3,4-di-2-pyridyl-1,2,5-oxadiazole
;
_cell_volume   2230.453
_exptl_crystal_colour 'colorless'
_exptl_crystal_density_diffrn 1.335
_exptl_crystal_description 'rod'
_exptl_crystal_preparation 'petroleum ether/ethyl acetate'
_diffrn_ambient_temperature 293
#These two values have been output from a single CSD field.
_refine_ls_R_factor_gt 0.065
_refine_ls_wR_factor_gt 0.065
_symmetry_cell_setting orthorhombic
_symmetry_space_group_name_H-M 'F d d 2'
_symmetry_Int_Tables_number 43
loop_
_symmetry_equiv_pos_site_id
_symmetry_equiv_pos_as_xyz
1 x,y,z
2 -x,-y,z
3 1/4+x,1/4-y,1/4+z
4 1/4-x,1/4+y,1/4+z
5 x,1/2+y,1/2+z
6 -x,1/2-y,1/2+z
7 1/4+x,3/4-y,3/4+z
8 1/4-x,3/4+y,3/4+z
9 1/2+x,y,1/2+z
10 1/2-x,-y,1/2+z
11 3/4+x,1/4-y,3/4+z
12 3/4-x,1/4+y,3/4+z
13 1/2+x,1/2+y,z
14 1/2-x,1/2-y,z
15 3/4+x,3/4-y,1/4+z
16 3/4-x,3/4+y,1/4+z
_cell_length_a 13.0702(8)
_cell_length_b 21.8905(16)
_cell_length_c 7.7957(5)
_cell_angle_alpha 90
_cell_angle_beta 90
_cell_angle_gamma 90
_cell_formula_units_Z 8
loop_
_atom_type_symbol
_atom_type_radius_bond
C 0.68
H 0.23
N 0.68
O 0.68
loop_
_atom_site_label
_atom_site_type_symbol
_atom_site_fract_x
_atom_site_fract_y
_atom_site_fract_z
C1 C 0.1794(2) 0.02206(15) 0.5662(4)
H1 H 0.19110 -0.00470 0.47560
C2 C 0.2237(2) 0.07872(17) 0.5586(5)
H2 H 0.26490 0.08970 0.46630
C3 C 0.2060(3) 0.11860(15) 0.6891(5)
H3 H 0.23450 0.15750 0.68680
C4 C 0.1459(2) 0.10073(12) 0.8241(4)
H4 H 0.13290 0.12710 0.91500
C5 C 0.10528(19) 0.04296(12) 0.8215(4)
C6 C 0.0440(2) 0.01959(10) 0.9645(4)
N1 N 0.12092(17) 0.00284(11) 0.6945(3)
N2 N 0.0692(2) 0.03188(12) 1.1228(3)
O1 O 0.00000 0.00000 1.2239(4)
C1A C -0.1794(2) -0.02206(15) 0.5662(4)
H1A H -0.19110 0.00470 0.47560
C2A C -0.2237(2) -0.07872(17) 0.5586(5)
H2A H -0.26490 -0.08970 0.46630
C3A C -0.2060(3) -0.11860(15) 0.6891(5)
H3A H -0.23450 -0.15750 0.68680
C4A C -0.1459(2) -0.10073(12) 0.8241(4)
H4A H -0.13290 -0.12710 0.91500
C5A C -0.10528(19) -0.04296(12) 0.8215(4)
C6A C -0.0440(2) -0.01959(10) 0.9645(4)
N1A N -0.12092(17) -0.00284(11) 0.6945(3)
N2A N -0.0692(2) -0.03188(12) 1.1228(3)
#END
