
#######################################################################
#
#                 Cambridge Crystallographic Data Centre
#                                CCDC
#
#######################################################################
#
# If this CIF has been generated from an entry in the Cambridge
# Structural Database, then it will include bibliographic, chemical,
# crystal, experimental, refinement or atomic coordinate data resulting
# from the CCDC's data processing and validation procedures.
#
#######################################################################

data_CSD_CIF_SETVOD
_audit_creation_date 2007-05-01
_audit_creation_method CSD-ConQuest-V1
_database_code_CSD SETVOD
_database_code_depnum_ccdc_archive 'CCDC 638333'
_chemical_formula_sum 'C9 H12 N2 O2'
_chemical_formula_moiety
;
C9 H12 N2 O2
;
_journal_coeditor_code "IUCr HJ3024"
_journal_coden_Cambridge 591
_journal_volume 63
_journal_year 2007
_journal_page_first o126
_journal_name_full 'Acta Crystallogr.,Sect.C:Cryst.Struct.Commun. '
loop_
_publ_author_name
"J.Kyziol"
"Z.Daszkiewicz"
"J.Zaleski"
_chemical_name_systematic
;
2,4,6-trimethyl-N-nitroaniline
;
_chemical_name_common
;
mesitylnitramine
;
_chemical_melting_point 386
_cell_volume   1977.986
_exptl_crystal_colour 'colorless'
_exptl_crystal_density_diffrn 1.21
_exptl_special_details
;
Melting point range 386-388K

;
_exptl_crystal_description 'plate'
_exptl_crystal_preparation 'n-hexane'
_diffrn_ambient_temperature 295
#These two values have been output from a single CSD field.
_refine_ls_R_factor_gt 0.0462
_refine_ls_wR_factor_gt 0.0462
_symmetry_cell_setting orthorhombic
_symmetry_space_group_name_H-M 'P b c a'
_symmetry_Int_Tables_number 61
loop_
_symmetry_equiv_pos_site_id
_symmetry_equiv_pos_as_xyz
1 x,y,z
2 1/2-x,-y,1/2+z
3 -x,1/2+y,1/2-z
4 1/2+x,1/2-y,-z
5 -x,-y,-z
6 -1/2+x,y,-1/2-z
7 x,-1/2-y,-1/2+z
8 -1/2-x,-1/2+y,z
_cell_length_a 7.6217(6)
_cell_length_b 15.8538(13)
_cell_length_c 16.3696(12)
_cell_angle_alpha 90
_cell_angle_beta 90
_cell_angle_gamma 90
_cell_formula_units_Z 8
loop_
_atom_type_symbol
_atom_type_radius_bond
C 0.68
H 0.23
N 0.68
O 0.68
loop_
_atom_site_label
_atom_site_type_symbol
_atom_site_fract_x
_atom_site_fract_y
_atom_site_fract_z
C1 C 0.67825(18) 0.1016(1) 0.43212(9)
C2 C 0.7203(2) 0.04127(10) 0.49085(10)
C3 C 0.6978(2) 0.06377(13) 0.57205(11)
H1 H 0.725(2) 0.0233(11) 0.6117(11)
C4 C 0.6343(2) 0.14221(14) 0.5947(1)
C5 C 0.5926(2) 0.19971(14) 0.53433(11)
H2 H 0.553(2) 0.2542(12) 0.5478(9)
C6 C 0.61392(19) 0.1813(1) 0.45211(10)
N1 N 0.69934(18) 0.08020(9) 0.34776(8)
H3 H 0.611(2) 0.0748(11) 0.3143(12)
N2 N 0.85605(17) 0.08802(9) 0.31136(9)
O1 O 0.86195(16) 0.07215(11) 0.23793(8)
O2 O 0.98268(15) 0.10748(10) 0.35257(8)
C7 C 0.7865(3) -0.04470(11) 0.46764(13)
H4 H 0.79710 -0.07970 0.51680
H5 H 0.90160 -0.03940 0.44150
H6 H 0.70400 -0.07110 0.42950
C8 C 0.6102(3) 0.16377(18) 0.68379(12)
H7 H 0.63550 0.11400 0.71720
H8 H 0.48890 0.18190 0.69320
H9 H 0.69050 0.20950 0.69880
H10? H 0.57450 0.22290 0.68890
H11? H 0.72110 0.15500 0.71290
H12? H 0.51950 0.12740 0.70740
C9 C 0.5704(3) 0.24532(12) 0.38785(12)
H13 H 0.51940 0.29540 0.41370
H14 H 0.48570 0.22120 0.34930
H15 H 0.67750 0.26120 0.35850
#END
