
#######################################################################
#
#                 Cambridge Crystallographic Data Centre
#                                CCDC
#
#######################################################################
#
# If this CIF has been generated from an entry in the Cambridge
# Structural Database, then it will include bibliographic, chemical,
# crystal, experimental, refinement or atomic coordinate data resulting
# from the CCDC's data processing and validation procedures.
#
#######################################################################

data_CSD_CIF_SETWEU
_audit_creation_date 2007-05-01
_audit_creation_method CSD-ConQuest-V1
_database_code_CSD SETWEU
_database_code_depnum_ccdc_archive 'CCDC 638335'
_chemical_formula_sum 'C23 H21 N3 O3'
_chemical_formula_moiety
;
C23 H21 N3 O3
;
_journal_coeditor_code "IUCr SK3086"
_journal_coden_Cambridge 591
_journal_volume 63
_journal_year 2007
_journal_page_first o135
_journal_name_full 'Acta Crystallogr.,Sect.C:Cryst.Struct.Commun. '
loop_
_publ_author_name
"V.N.Sonar"
"S.Parkin"
"P.A.Crooks"
_chemical_name_systematic
;
(Z)-2-(1-Benzyl-5-nitro-1H-indol-3-ylmethylene)-1-azabicyclo(2.2.2)octan-3-one
;
_cell_volume    907.988
_exptl_crystal_colour 'yellow'
_exptl_crystal_density_diffrn 1.417
_exptl_crystal_description 'block'
_diffrn_ambient_temperature 90.0
#These two values have been output from a single CSD field.
_refine_ls_R_factor_gt 0.0399
_refine_ls_wR_factor_gt 0.0399
_symmetry_cell_setting triclinic
_symmetry_space_group_name_H-M 'P -1'
_symmetry_Int_Tables_number 2
loop_
_symmetry_equiv_pos_site_id
_symmetry_equiv_pos_as_xyz
1 x,y,z
2 -x,-y,-z
_cell_length_a 9.3560(1)
_cell_length_b 9.4049(1)
_cell_length_c 11.1174(2)
_cell_angle_alpha 90.1103(5)
_cell_angle_beta 104.3081(5)
_cell_angle_gamma 106.1250(6)
_cell_formula_units_Z 2
loop_
_atom_type_symbol
_atom_type_radius_bond
C 0.68
H 0.23
N 0.68
O 0.68
loop_
_atom_site_label
_atom_site_type_symbol
_atom_site_fract_x
_atom_site_fract_y
_atom_site_fract_z
N1 N 0.52413(12) 0.42763(12) 0.35572(10)
N2 N 0.02312(12) 0.20441(12) 0.2467(1)
N3 N 0.75088(12) 0.14362(12) 0.76382(10)
O1 O -0.04971(10) -0.14407(10) 0.39073(8)
O2 O 0.65436(11) 0.04323(11) 0.79617(9)
O3 O 0.88828(10) 0.18360(11) 0.82027(8)
C1 C 0.37220(14) 0.34516(14) 0.32450(11)
H1 H 0.29430 0.36400 0.25900
C2 C 0.34877(14) 0.23124(14) 0.40159(11)
C3 C 0.49666(14) 0.24628(14) 0.48707(11)
C4 C 0.54642(14) 0.16980(14) 0.58896(11)
H2 H 0.47770 0.08640 0.61270
C5 C 0.69931(14) 0.22001(14) 0.65400(11)
C6 C 0.80643(15) 0.34117(15) 0.62215(12)
H3 H 0.91080 0.37040 0.66960
C7 C 0.75854(14) 0.41759(14) 0.52104(12)
H4 H 0.82860 0.49980 0.49720
C8 C 0.60372(14) 0.36970(14) 0.45524(11)
C9 C 0.21065(14) 0.11328(14) 0.39824(11)
H5 H 0.22320 0.03720 0.45250
C10 C 0.06732(14) 0.09675(13) 0.32898(11)
C11 C -0.05007(15) 0.12965(15) 0.12032(12)
H6 H 0.02590 0.09350 0.09050
H7 H -0.08110 0.20240 0.06290
C12 C -0.19333(15) -0.00278(15) 0.11735(12)
H8 H -0.28640 0.01550 0.06260
H9 H -0.18020 -0.09490 0.08430
C13 C -0.21145(14) -0.01971(14) 0.25141(11)
H10 H -0.30010 -0.10710 0.25450
C14 C -0.23320(14) 0.12513(14) 0.29833(12)
H11 H -0.24090 0.11900 0.38550
H12 H -0.32930 0.14080 0.24660
C15 C -0.09318(15) 0.25586(14) 0.29029(13)
H13 H -0.12910 0.32590 0.23230
H14 H -0.04460 0.30980 0.37340
C16 C -0.06227(14) -0.03588(14) 0.33223(11)
C17 C 0.59205(14) 0.54717(14) 0.28537(11)
H15 H 0.68250 0.61750 0.34260
H16 H 0.51600 0.60180 0.25230
C18 C 0.64224(14) 0.49417(14) 0.17790(11)
C19 C 0.55885(14) 0.36204(14) 0.10540(12)
H17 H 0.47040 0.29950 0.12550
C20 C 0.60486(15) 0.32176(15) 0.00391(12)
H18 H 0.54830 0.23130 -0.04470
C21 C 0.73326(15) 0.41330(15) -0.02681(12)
H19 H 0.76380 0.38620 -0.09680
C22 C 0.81668(15) 0.54441(15) 0.04513(12)
H20 H 0.90450 0.60720 0.02440
C23 C 0.77199(14) 0.58402(14) 0.14748(12)
H21 H 0.83050 0.67320 0.19720
#END
