
#######################################################################
#
#                 Cambridge Crystallographic Data Centre
#                                CCDC
#
#######################################################################
#
# If this CIF has been generated from an entry in the Cambridge
# Structural Database, then it will include bibliographic, chemical,
# crystal, experimental, refinement or atomic coordinate data resulting
# from the CCDC's data processing and validation procedures.
#
#######################################################################

data_CSD_CIF_SEVGOP
_audit_creation_date 1991-01-24
_audit_creation_method CSD-ConQuest-V1
_database_code_CSD SEVGOP
_chemical_formula_sum 'C14 H10 N2 O5'
_chemical_formula_moiety
;
C14 H10 N2 O5
;
_journal_coden_Cambridge 154
_journal_volume 43
_journal_year 1990
_journal_page_first 125
_journal_name_full 'Aust.J.Chem. '
loop_
_publ_author_name
"M.C.Judd"
"M.P.Hartshorn"
"R.J.Martyn"
"W.T.Robinson"
"G.J.Wright"
"R.W.Vannoort"
_chemical_name_systematic
;
trans-10-Nitro-9,10-dihydrophenanthren-9-yl nitrate
;
_chemical_melting_point 368.15
_cell_volume   2588.058
_exptl_crystal_colour 'colorless'
_exptl_crystal_density_diffrn 1.47
_exptl_special_details
;
Melting point range 368.15-369.15K
Authors give Fw=262; we calculate 286.24. Authors have amended space group to 
Pbca
;
_diffrn_ambient_temperature 183
#These two values have been output from a single CSD field.
_refine_ls_R_factor_gt 0.041
_refine_ls_wR_factor_gt 0.041
_symmetry_cell_setting orthorhombic
_symmetry_space_group_name_H-M 'P b c a'
_symmetry_Int_Tables_number 61
loop_
_symmetry_equiv_pos_site_id
_symmetry_equiv_pos_as_xyz
1 x,y,z
2 1/2-x,-y,1/2+z
3 1/2+x,1/2-y,-z
4 -x,1/2+y,1/2-z
5 -x,-y,-z
6 -1/2+x,y,-1/2-z
7 -1/2-x,-1/2+y,z
8 x,-1/2-y,-1/2+z
_cell_length_a 9.473(3)
_cell_length_b 14.361(4)
_cell_length_c 19.024(5)
_cell_angle_alpha 90
_cell_angle_beta 90
_cell_angle_gamma 90
_cell_formula_units_Z 8
loop_
_atom_type_symbol
_atom_type_radius_bond
C 0.68
H 0.23
N 0.68
O 0.68
loop_
_atom_site_label
_atom_site_type_symbol
_atom_site_fract_x
_atom_site_fract_y
_atom_site_fract_z
O1 O 0.0744(2) 0.0623(1) 0.1499(1)
O2 O -0.0774(2) 0.1328(1) 0.2167(1)
O3 O 0.1174(2) 0.0840(1) 0.2648(1)
O4 O 0.3488(2) -0.2094(2) 0.1541(1)
O5 O 0.4321(2) -0.0853(2) 0.2001(1)
N1 N 0.0363(3) 0.0955(2) 0.2171(1)
N2 N 0.3356(2) -0.1312(2) 0.1747(1)
C1 C -0.0038(3) -0.2021(2) 0.1554(1)
C2 C -0.1001(3) -0.2484(2) 0.1127(1)
C3 C -0.1003(3) -0.2313(2) 0.0409(1)
C4 C -0.0071(3) -0.1681(2) 0.0118(1)
C5 C 0.0890(3) -0.1196(2) 0.0538(1)
C6 C 0.1877(2) -0.0492(2) 0.0245(1)
C7 C 0.2208(3) -0.0444(2) -0.0468(1)
C8 C 0.3133(3) 0.0224(2) -0.0723(1)
C9 C 0.3749(3) 0.0857(2) -0.0268(1)
C10 C 0.3426(3) 0.0826(2) 0.0443(1)
C11 C 0.2499(3) 0.0158(2) 0.0700(1)
C12 C 0.2121(3) 0.0144(2) 0.1468(1)
C13 C 0.1892(3) -0.0848(2) 0.1730(1)
C14 C 0.0891(3) -0.1379(2) 0.1262(1)
H1 H -0.00150 -0.21440 0.20500
H2 H -0.16590 -0.29180 0.13280
H3 H -0.16590 -0.26380 0.01120
H4 H -0.00840 -0.15740 -0.03800
H5 H 0.17880 -0.08800 -0.07880
H6 H 0.33470 0.02470 -0.12160
H7 H 0.43970 0.13160 -0.04430
H8 H 0.38440 0.12690 0.07590
H9 H 0.28520 0.04220 0.17470
H10 H 0.14660 -0.08460 0.21880
#END
