
#######################################################################
#
#                 Cambridge Crystallographic Data Centre
#                                CCDC
#
#######################################################################
#
# If this CIF has been generated from an entry in the Cambridge
# Structural Database, then it will include bibliographic, chemical,
# crystal, experimental, refinement or atomic coordinate data resulting
# from the CCDC's data processing and validation procedures.
#
#######################################################################

data_CSD_CIF_SEVSES
_audit_creation_date 2007-05-01
_audit_creation_method CSD-ConQuest-V1
_database_code_CSD SEVSES
_database_code_depnum_ccdc_archive 'CCDC 636745'
_chemical_formula_sum 'C22 H26 N2 O2'
_chemical_formula_moiety
;
C22 H26 N2 O2
;
_journal_coeditor_code "IUCr LH2289"
_journal_coden_Cambridge 1370
_journal_volume 63
_journal_year 2007
_journal_page_first o875
_journal_name_full 'Acta Crystallogr.,Sect.E:Struct.Rep.Online '
loop_
_publ_author_name
"M.Parvez"
"M.Mehrdad"
"H.Sureni"
"A.Heydari"
"K.Jadidi"
_chemical_name_systematic
;
5-Methyl-1-(3,3,5-trimethyl-2-p-tolyl-1,2-oxazolidin-5-yl)-1H-indol-2(3H)-one
;
_cell_volume   3861.207
_exptl_crystal_colour 'colorless'
_exptl_crystal_density_diffrn 1.206
_exptl_crystal_description 'block'
_exptl_crystal_preparation 'petroleum ether'
_diffrn_ambient_temperature 173
#These two values have been output from a single CSD field.
_refine_ls_R_factor_gt 0.054
_refine_ls_wR_factor_gt 0.054
_symmetry_cell_setting monoclinic
_symmetry_space_group_name_H-M 'P 21/c'
_symmetry_Int_Tables_number 14
loop_
_symmetry_equiv_pos_site_id
_symmetry_equiv_pos_as_xyz
1 x,y,z
2 -x,1/2+y,1/2-z
3 -x,-y,-z
4 x,-1/2-y,-1/2+z
_cell_length_a 19.390(3)
_cell_length_b 14.037(3)
_cell_length_c 14.266(5)
_cell_angle_alpha 90
_cell_angle_beta 96.057(8)
_cell_angle_gamma 90
_cell_formula_units_Z 8
loop_
_atom_type_symbol
_atom_type_radius_bond
C 0.68
H 0.23
N 0.68
O 0.68
loop_
_atom_site_label
_atom_site_type_symbol
_atom_site_fract_x
_atom_site_fract_y
_atom_site_fract_z
O1 O 0.44225(7) 0.62775(11) 0.83886(9)
O2 O 0.25011(7) 0.50396(11) 0.88091(9)
N1 N 0.43897(9) 0.61052(12) 0.73666(11)
N2 N 0.32321(8) 0.63167(13) 0.86456(10)
C1 C 0.38682(11) 0.57223(16) 0.86811(14)
C2 C 0.37772(12) 0.49014(16) 0.79706(14)
H1 H 0.38210 0.42790 0.82970
H2 H 0.33180 0.49350 0.75970
C3 C 0.43595(12) 0.50368(15) 0.73392(14)
C4 C 0.40759(12) 0.5441(2) 0.96945(14)
H3 H 0.36820 0.51380 0.99530
H4 H 0.42160 0.60090 1.00650
H5 H 0.44650 0.49920 0.97230
C5 C 0.41468(13) 0.47047(17) 0.63323(14)
H6 H 0.40550 0.40180 0.63310
H7 H 0.45220 0.48390 0.59420
H8 H 0.37260 0.50440 0.60770
C6 C 0.50321(12) 0.45589(18) 0.77373(16)
H9 H 0.49600 0.38690 0.77730
H10 H 0.51750 0.48090 0.83700
H11 H 0.53950 0.46910 0.73260
C7 C 0.49840(12) 0.65435(16) 0.70256(15)
C8 C 0.49241(14) 0.67518(17) 0.60675(16)
H12 H 0.44990 0.66320 0.56910
C9 C 0.54760(17) 0.71301(19) 0.5661(2)
H13 H 0.54270 0.72560 0.50030
C10 C 0.60921(17) 0.73297(19) 0.6179(2)
C11 C 0.61402(14) 0.71581(18) 0.7149(2)
H14 H 0.65570 0.73170 0.75280
C12 C 0.55934(12) 0.67598(17) 0.75749(18)
H15 H 0.56390 0.66390 0.82340
C13 C 0.25987(11) 0.58980(17) 0.87571(12)
C14 C 0.20735(10) 0.66829(14) 0.88163(13)
H16 H 0.17060 0.66510 0.82790
H17 H 0.18560 0.66430 0.94120
C15 C 0.24879(11) 0.75707(15) 0.87804(12)
C16 C 0.22894(12) 0.85102(16) 0.88018(12)
H18 H 0.18140 0.86660 0.88180
C17 C 0.27795(13) 0.92347(16) 0.87994(14)
C18 C 0.34625(13) 0.89743(17) 0.87672(14)
H19 H 0.38030 0.94630 0.87830
C19 C 0.36791(12) 0.80311(17) 0.87121(14)
H20 H 0.41520 0.78770 0.86720
C20 C 0.31786(11) 0.73262(16) 0.87172(12)
C21 C 0.67054(17) 0.7724(2) 0.5720(2)
H21 H 0.70630 0.79420 0.62100
H22 H 0.65510 0.82600 0.53110
H23 H 0.68970 0.72240 0.53440
C22 C 0.25677(14) 1.02618(17) 0.88451(16)
H24 H 0.29040 1.06610 0.85600
H25 H 0.25540 1.04480 0.95050
H26 H 0.21070 1.03460 0.85010
O3 O 0.04778(7) 0.66518(9) 0.66785(8)
O4 O 0.23338(7) 0.52758(11) 0.61424(9)
N3 N 0.04802(8) 0.63046(12) 0.76539(10)
N4 N 0.16636(8) 0.65966(11) 0.63872(10)
C23 C 0.09873(10) 0.60879(15) 0.62836(13)
C24 C 0.10210(11) 0.51568(15) 0.68555(13)
H27 H 0.09390 0.45990 0.64340
H28 H 0.14790 0.50860 0.72270
C25 C 0.04472(11) 0.52487(15) 0.75030(13)
C26 C 0.07507(11) 0.59882(16) 0.52427(12)
H29 H 0.10740 0.55760 0.49480
H30 H 0.07390 0.66180 0.49440
H31 H 0.02860 0.57060 0.51610
C27 C -0.02510(11) 0.49005(16) 0.70353(14)
H32 H -0.02210 0.42200 0.68930
H33 H -0.03730 0.52550 0.64500
H34 H -0.06080 0.50030 0.74630
C28 C 0.06274(12) 0.47386(16) 0.84412(13)
H35 H 0.06710 0.40540 0.83290
H36 H 0.02590 0.48490 0.88490
H37 H 0.10670 0.49860 0.87480
C29 C -0.00959(11) 0.67316(14) 0.80430(14)
C30 C -0.00602(13) 0.67675(16) 0.90212(14)
H38 H 0.03380 0.65280 0.93920
C31 C -0.05983(15) 0.71484(19) 0.94553(18)
H39 H -0.05750 0.71390 1.01240
C32 C -0.11647(15) 0.75392(17) 0.89506(19)
C33 C -0.11992(13) 0.75240(17) 0.79699(18)
H40 H -0.15890 0.77940 0.76060
C34 C -0.06666(12) 0.71158(16) 0.75165(16)
H41 H -0.06970 0.71030 0.68480
C35 C 0.22753(11) 0.61367(16) 0.62476(13)
C36 C 0.28425(10) 0.68730(14) 0.62381(13)
H42 H 0.31920 0.68010 0.67920
H43 H 0.30770 0.68250 0.56560
C37 C 0.24614(10) 0.77932(14) 0.62739(12)
C38 C 0.26977(11) 0.87179(15) 0.62464(12)
H44 H 0.31790 0.88400 0.62420
C39 C 0.22291(12) 0.94767(15) 0.62250(13)
C40 C 0.15322(11) 0.92652(15) 0.62377(13)
H45 H 0.12090 0.97760 0.62020
C41 C 0.12823(11) 0.83401(14) 0.63003(13)
H46 H 0.08030 0.82190 0.63280
C42 C 0.17579(10) 0.76044(14) 0.63208(12)
C43 C -0.17547(15) 0.79733(19) 0.9430(2)
H47 H -0.19230 0.75070 0.98640
H48 H -0.21340 0.81510 0.89520
H49 H -0.15880 0.85420 0.97830
C44 C 0.24768(13) 1.04884(16) 0.61666(16)
H50 H 0.21740 1.09100 0.64870
H51 H 0.24650 1.06770 0.55040
H52 H 0.29530 1.05380 0.64710
#END
