
#######################################################################
#
#                 Cambridge Crystallographic Data Centre
#                                CCDC
#
#######################################################################
#
# If this CIF has been generated from an entry in the Cambridge
# Structural Database, then it will include bibliographic, chemical,
# crystal, experimental, refinement or atomic coordinate data resulting
# from the CCDC's data processing and validation procedures.
#
#######################################################################

data_CSD_CIF_SEYLIU
_audit_creation_date 2018-03-19
_audit_creation_method CSD-ConQuest-V1
_database_code_CSD SEYLIU
_database_code_depnum_ccdc_archive 'CCDC 1830889'
_chemical_formula_sum 'C19 H16 N6 O2'
_chemical_formula_moiety
;
C19 H16 N6 O2
;
_journal_coden_Cambridge 1078
_journal_year 2018
_journal_name_full 'CSD Communication(Private Communication) '
loop_
_publ_author_name
"C.Glidewell"
_chemical_name_systematic
;
4-methoxy-6-[2-(4-methylphenyl)-1H-benzimidazol-1-yl]-5-nitrosopyrimidin-2-ami
ne unknown solvate
;
_cell_volume    971.589
_exptl_crystal_colour 'colorless'
_exptl_crystal_density_diffrn 1.232
_exptl_special_details
;
School of Chemistry, University of St Andrews, St Andrews, Fife KY16 9ST, 
Scotland
;
_exptl_crystal_description 'plate'
_diffrn_ambient_temperature 100
_refine_special_details
;
Disordered solvent molecules were not modelled and the disordered density was 
taken into account using the SQUEEZE/PLATON procedure.
;
#These two values have been output from a single CSD field.
_refine_ls_R_factor_gt 0.0629
_refine_ls_wR_factor_gt 0.0629
_symmetry_cell_setting triclinic
_symmetry_space_group_name_H-M 'P -1'
_symmetry_Int_Tables_number 2
loop_
_symmetry_equiv_pos_site_id
_symmetry_equiv_pos_as_xyz
1 x,y,z
2 -x,-y,-z
_cell_length_a 8.663(9)
_cell_length_b 9.604(7)
_cell_length_c 12.899(9)
_cell_angle_alpha 93.714(16)
_cell_angle_beta 106.96(3)
_cell_angle_gamma 106.47(3)
_cell_formula_units_Z 2
loop_
_atom_type_symbol
_atom_type_radius_bond
C 0.68
H 0.23
N 0.68
O 0.68
loop_
_atom_site_label
_atom_site_type_symbol
_atom_site_fract_x
_atom_site_fract_y
_atom_site_fract_z
N1 N 0.4808(2) 0.41672(18) 0.62757(14)
C1 C 0.4803(3) 0.5521(2) 0.66835(16)
N2 N 0.4468(2) 0.58432(18) 0.76156(13)
C2 C 0.3929(3) 0.4744(2) 0.81085(16)
C3 C 0.3782(3) 0.3255(2) 0.77360(16)
C4 C 0.4331(3) 0.3101(2) 0.68254(16)
N3 N 0.5204(3) 0.66056(19) 0.61354(15)
H1 H 0.51620 0.74790 0.62720
H2 H 0.52450 0.63700 0.54920
O1 O 0.3503(2) 0.49896(16) 0.89936(12)
C5 C 0.3734(3) 0.6509(2) 0.93820(19)
H3 H 0.49300 0.70950 0.95510
H4 H 0.34070 0.65650 1.00460
H5 H 0.30190 0.68950 0.88120
N4 N 0.3064(2) 0.1950(2) 0.80880(16)
O2 O 0.2456(2) 0.2043(2) 0.88181(15)
N5 N 0.4322(2) 0.16958(18) 0.64074(13)
C6 C 0.5155(3) 0.0786(2) 0.69618(16)
N6 N 0.4601(2) -0.05570(18) 0.64186(15)
C7 C 0.3310(3) -0.0565(2) 0.54713(17)
C8 C 0.2262(3) -0.1710(2) 0.46111(18)
H6 H 0.23920 -0.26600 0.45980
C9 C 0.1035(3) -0.1415(2) 0.37825(18)
H7 H 0.03030 -0.21800 0.31930
C10 C 0.0838(3) -0.0014(2) 0.37860(18)
H8 H -0.00230 0.01470 0.32000
C11 C 0.1872(3) 0.1138(2) 0.46249(17)
H9 H 0.17440 0.20890 0.46360
C12 C 0.3107(3) 0.0827(2) 0.54487(16)
C13 C 0.6582(3) 0.1327(2) 0.79901(17)
C14 C 0.7783(3) 0.2727(2) 0.81785(17)
H10 H 0.76180 0.33810 0.76650
C15 C 0.9205(3) 0.3160(2) 0.91057(18)
H11 H 1.00220 0.41020 0.92130
C16 C 0.9463(3) 0.2238(2) 0.98890(18)
C17 C 0.8248(3) 0.0860(2) 0.97102(18)
H12 H 0.83900 0.02250 1.02400
C18 C 0.6831(3) 0.0401(2) 0.87690(18)
H13 H 0.60280 -0.05500 0.86550
C19 C 1.1036(3) 0.2734(3) 1.0887(2)
H14 H 1.10440 0.36130 1.13220
H15 H 1.20490 0.29650 1.06550
H16 H 1.10390 0.19460 1.13340
#END
