
#######################################################################
#
#                 Cambridge Crystallographic Data Centre
#                                CCDC
#
#######################################################################
#
# If this CIF has been generated from an entry in the Cambridge
# Structural Database, then it will include bibliographic, chemical,
# crystal, experimental, refinement or atomic coordinate data resulting
# from the CCDC's data processing and validation procedures.
#
#######################################################################

data_CSD_CIF_SEYMUE
_audit_creation_date 1991-02-22
_audit_creation_method CSD-ConQuest-V1
_database_code_CSD SEYMUE
_database_code_depnum_ccdc_archive 'CCDC 1258190'
_chemical_formula_sum 'C13 H16 N2 O3'
_chemical_formula_moiety
;
C13 H16 N2 O3
;
_journal_coden_Cambridge 392
_journal_volume 31
_journal_year 1990
_journal_page_first 233
_journal_name_full 'Heterocycles '
loop_
_publ_author_name
"L.Cottier"
"R.Faure"
"G.Descotes"
"R.M.Srivastava"
_chemical_name_systematic
;
(4'R)-5-(2',2'-Dimethyl-1',3'-dioxolan-4'-yl)-3-phenyl-4,5-dihydro-1,2,4-oxadi
azole
;
_chemical_melting_point 378.15
_cell_volume   1263.028
_exptl_crystal_density_diffrn 1.306
_diffrn_ambient_temperature ?
_diffrn_special_details
;
The study was carried out at room temperature,in the range 283-303K

;
#These two values have been output from a single CSD field.
_refine_ls_R_factor_gt 0.048
_refine_ls_wR_factor_gt 0.048
_symmetry_cell_setting orthorhombic
_symmetry_space_group_name_H-M 'P 21 21 21'
_symmetry_Int_Tables_number 19
loop_
_symmetry_equiv_pos_site_id
_symmetry_equiv_pos_as_xyz
1 x,y,z
2 1/2+x,1/2-y,-z
3 -x,1/2+y,1/2-z
4 1/2-x,-y,1/2+z
_cell_length_a 5.2170(5)
_cell_length_b 14.029(1)
_cell_length_c 17.257(2)
_cell_angle_alpha 90
_cell_angle_beta 90
_cell_angle_gamma 90
_cell_formula_units_Z 4
loop_
_atom_type_symbol
_atom_type_radius_bond
C 0.68
N 0.68
O 0.68
loop_
_atom_site_label
_atom_site_type_symbol
_atom_site_fract_x
_atom_site_fract_y
_atom_site_fract_z
O1 O 0.5024(5) 0.8420(1) 0.3691(1)
O2 O 0.2118(4) 0.7777(1) 0.2870(1)
O3 O 0.5308(4) 0.6229(2) 0.3494(1)
N1 N 0.6145(5) 0.5498(2) 0.4029(1)
N2 N 0.1974(5) 0.5757(2) 0.4235(2)
C1 C 0.3836(6) 0.8560(2) 0.2959(2)
C2 C 0.1701(6) 0.7330(2) 0.3597(2)
C3 C 0.3209(9) 0.7929(2) 0.4169(2)
C4 C 0.5833(9) 0.8485(5) 0.2350(3)
C5 C 0.2363(9) 0.9475(2) 0.2923(3)
C6 C 0.2556(5) 0.6301(2) 0.3537(2)
C7 C 0.4132(5) 0.5243(2) 0.4409(1)
C8 C 0.4205(5) 0.4507(2) 0.5011(1)
C9 C 0.6160(5) 0.3825(2) 0.4995(2)
C10 C 0.6264(6) 0.3127(2) 0.5566(2)
C11 C 0.4468(7) 0.3112(2) 0.6146(2)
C12 C 0.2521(7) 0.3771(2) 0.6162(2)
C13 C 0.2394(6) 0.4481(2) 0.5593(2)
#END
