
#######################################################################
#
#                 Cambridge Crystallographic Data Centre
#                                CCDC
#
#######################################################################
#
# If this CIF has been generated from an entry in the Cambridge
# Structural Database, then it will include bibliographic, chemical,
# crystal, experimental, refinement or atomic coordinate data resulting
# from the CCDC's data processing and validation procedures.
#
#######################################################################

data_CSD_CIF_SEYMIS
_audit_creation_date 1991-02-22
_audit_creation_method CSD-ConQuest-V1
_database_code_CSD SEYMIS
_database_code_depnum_ccdc_archive 'CCDC 1258187'
_chemical_formula_sum 'C19 H19 N3 O4'
_chemical_formula_moiety
;
C19 H19 N3 O4
;
_journal_coden_Cambridge 392
_journal_volume 31
_journal_year 1990
_journal_page_first 327
_journal_name_full 'Heterocycles '
loop_
_publ_author_name
"E.J.Verner"
"B.J.Oliver"
"L.Schlicksupp"
"N.R.Natale"
_chemical_name_systematic
;
N-(2-Ethoxycarbonyl-1-methylpyrrol-4-yl)-5-methyl-3-phenylisoxazole-4-carboxam
ide
;
_cell_volume   3636.160
_exptl_crystal_density_diffrn 1.29
_diffrn_ambient_temperature ?
_diffrn_special_details
;
The study was carried out at room temperature,in the range 283-303K

;
_refine_special_details
;
The ethyl group of the ester is disordered.

;
#These two values have been output from a single CSD field.
_refine_ls_R_factor_gt 0.068
_refine_ls_wR_factor_gt 0.068
_symmetry_cell_setting monoclinic
_symmetry_space_group_name_H-M 'C 2/c'
_symmetry_Int_Tables_number 15
loop_
_symmetry_equiv_pos_site_id
_symmetry_equiv_pos_as_xyz
1 x,y,z
2 1/2+x,1/2+y,z
3 -x,y,1/2-z
4 1/2-x,1/2+y,1/2-z
5 -x,-y,-z
6 -1/2-x,-1/2-y,-z
7 x,-y,-1/2+z
8 -1/2+x,-1/2-y,-1/2+z
_cell_length_a 23.104(14)
_cell_length_b 7.144(1)
_cell_length_c 25.299(8)
_cell_angle_alpha 90
_cell_angle_beta 119.45(3)
_cell_angle_gamma 90
_cell_formula_units_Z 8
loop_
_atom_type_symbol
_atom_type_radius_bond
C 0.68
H 0.23
N 0.68
O 0.68
loop_
_atom_site_label
_atom_site_type_symbol
_atom_site_fract_x
_atom_site_fract_y
_atom_site_fract_z
O1 O 0.1865(2) 0.5201(5) 0.2947(2)
N1 N 0.2444(2) 0.5067(6) 0.2896(2)
C1 C 0.2259(3) 0.5455(7) 0.2326(2)
C2 C 0.1567(3) 0.5816(7) 0.1991(2)
C3 C 0.1152(3) 0.6354(8) 0.1337(2)
N2 N 0.1380(2) 0.7845(6) 0.1176(2)
C4 C 0.1086(3) 0.8614(7) 0.0585(2)
C5 C 0.0552(3) 0.7947(8) 0.0056(2)
C6 C 0.1323(3) 1.0216(8) 0.0432(2)
C7 C 0.1346(3) 0.5641(7) 0.2396(2)
C8 C 0.0686(3) 0.5796(9) 0.2355(3)
C9 C 0.2762(3) 0.5403(7) 0.2123(2)
C10 C 0.3892(3) 0.5748(9) 0.2342(3)
O2 O 0.1410(3) 1.3274(8) -0.0228(2)
C11 C -0.0077(3) 0.8842(9) -0.1026(2)
N3 N 0.0456(2) 0.9118(7) -0.0393(2)
C12 C 0.0917(3) 1.0517(8) -0.0167(2)
C13 C 0.3420(3) 0.5834(8) 0.2523(3)
C14 C 0.3722(3) 0.5196(9) 0.1765(3)
C15 C 0.3072(4) 0.4759(10) 0.1361(3)
C16 C 0.2588(3) 0.4827(8) 0.1538(3)
C17 C 0.0943(4) 1.2027(11) -0.0552(3)
C18 C 0.1426(7) 1.4917(19) -0.0570(6)
C19 C 0.1906(7) 1.5529(25) -0.0443(8)
O3 O 0.0580(2) 1.2160(7) -0.1095(2)
O4 O 0.0646(2) 0.5504(5) 0.1000(2)
H1 H 0.17490 0.86890 0.13740
H2 H 0.03390 0.68230 0.00800
H3 H 0.17050 1.08440 0.07460
H4 H 0.03570 0.60900 0.19460
H5 H 0.06970 0.67710 0.26210
H6 H 0.05760 0.46290 0.24720
H7 H 0.43450 0.60770 0.26220
H8 H -0.00550 0.98170 -0.12770
H9 H -0.05010 0.88800 -0.10430
H10 H -0.00200 0.76490 -0.11690
H11 H 0.35490 0.61970 0.29320
H12 H 0.40540 0.51160 0.16440
H13 H 0.29500 0.44030 0.09530
H14 H 0.21370 0.44790 0.12580
H15 H 0.11950 1.59000 -0.04910
H16 H 0.11930 1.46190 -0.09950
H17 H 0.18590 1.65260 -0.07150
H18 H 0.21620 1.45350 -0.04810
H19 H 0.21280 1.59880 -0.00330
#END
