
#######################################################################
#
#                 Cambridge Crystallographic Data Centre
#                                CCDC
#
#######################################################################
#
# If this CIF has been generated from an entry in the Cambridge
# Structural Database, then it will include bibliographic, chemical,
# crystal, experimental, refinement or atomic coordinate data resulting
# from the CCDC's data processing and validation procedures.
#
#######################################################################

data_CSD_CIF_SEYPEU
_audit_creation_date 2018-03-19
_audit_creation_method CSD-ConQuest-V1
_database_code_CSD SEYPEU
_database_code_depnum_ccdc_archive 'CCDC 1581505'
_chemical_formula_sum 'C22 H21 N3 O2'
_chemical_formula_moiety
;
C22 H21 N3 O2
;
_journal_coden_Cambridge 1678
_journal_volume 54
_journal_year 2018
_journal_page_first 38
_journal_name_full 'Chemistry of Heterocyclic Compounds '
loop_
_publ_author_name
"E.A.Filatova"
"A.V.Gulevskaya"
"A.F.Pozharskii"
_chemical_name_systematic
;
N^1^,N^1^,N^8^,N^8^-tetramethyl-2-[(4-nitrophenyl)ethynyl]naphthalene-1,8-diam
ine
;
_chemical_melting_point 411
_cell_volume   1879.866
_exptl_crystal_colour 'red'
_exptl_crystal_density_diffrn 1.27
_exptl_special_details
;
Melting point range 411-413K

;
_exptl_crystal_description 'prism'
_exptl_crystal_preparation 'Re-crystallisation from solvent'
_diffrn_ambient_temperature 120
#These two values have been output from a single CSD field.
_refine_ls_R_factor_gt 0.0519
_refine_ls_wR_factor_gt 0.0519
_symmetry_cell_setting monoclinic
_symmetry_space_group_name_H-M 'P 21/c'
_symmetry_Int_Tables_number 14
loop_
_symmetry_equiv_pos_site_id
_symmetry_equiv_pos_as_xyz
1 x,y,z
2 -x,1/2+y,1/2-z
3 -x,-y,-z
4 x,-1/2-y,-1/2+z
_cell_length_a 14.5265(9)
_cell_length_b 11.0422(7)
_cell_length_c 11.8600(7)
_cell_angle_alpha 90
_cell_angle_beta 98.827(1)
_cell_angle_gamma 90
_cell_formula_units_Z 4
loop_
_atom_type_symbol
_atom_type_radius_bond
C 0.68
H 0.23
N 0.68
O 0.68
loop_
_atom_site_label
_atom_site_type_symbol
_atom_site_fract_x
_atom_site_fract_y
_atom_site_fract_z
O1 O -0.3282(1) 0.44375(14) 0.75561(11)
O2 O -0.42344(10) 0.30654(18) 0.67629(15)
N1 N 0.18293(9) 0.22031(12) 0.46483(11)
N2 N 0.36416(9) 0.20300(13) 0.42228(11)
N3 N -0.34681(11) 0.35533(16) 0.69325(13)
C1 C 0.1612(1) 0.12901(13) 0.38327(12)
C2 C 0.23118(10) 0.08358(13) 0.31877(12)
C3 C 0.32816(11) 0.12074(14) 0.33511(13)
C4 C 0.38622(11) 0.07434(16) 0.26312(15)
H1 H 0.44920 0.10080 0.27230
C5 C 0.35560(12) -0.00992(17) 0.17761(15)
H2 H 0.39720 -0.03880 0.12930
C6 C 0.26626(12) -0.05062(15) 0.16362(14)
H3 H 0.24630 -0.10970 0.10690
C7 C 0.20259(10) -0.00576(13) 0.23298(12)
C8 C 0.11053(11) -0.05237(14) 0.21681(13)
H4 H 0.09310 -0.11260 0.16030
C9 C 0.04690(11) -0.01211(14) 0.28096(13)
H5 H -0.01380 -0.04650 0.27130
C10 C 0.07099(10) 0.08117(13) 0.36231(12)
C11 C -0.00158(10) 0.12879(14) 0.41915(13)
C12 C -0.06399(11) 0.16573(14) 0.46493(13)
C13 C -0.13547(10) 0.21285(14) 0.52351(13)
C14 C -0.11609(11) 0.30931(15) 0.60041(14)
H6 H -0.05530 0.34310 0.61400
C15 C -0.18494(11) 0.35542(15) 0.65658(14)
H7 H -0.17210 0.42060 0.70890
C16 C -0.27296(11) 0.30476(15) 0.63520(13)
C17 C -0.29432(11) 0.20860(15) 0.56114(14)
H8 H -0.35520 0.17480 0.54910
C18 C -0.22524(11) 0.16269(14) 0.50494(13)
H9 H -0.23870 0.09680 0.45350
C19 C 0.15950(12) 0.20987(18) 0.57876(14)
H10 H 0.14670 0.12490 0.59460
H11 H 0.10420 0.25890 0.58450
H12 H 0.21180 0.23880 0.63440
C20 C 0.19348(14) 0.34252(15) 0.42536(17)
H13 H 0.21320 0.34040 0.35000
H14 H 0.24060 0.38490 0.47920
H15 H 0.13380 0.38520 0.42010
C21 C 0.38226(13) 0.14826(18) 0.53584(14)
H16 H 0.32920 0.09760 0.54770
H17 H 0.39120 0.21220 0.59380
H18 H 0.43850 0.09820 0.54220
C22 C 0.44265(14) 0.2776(2) 0.40048(18)
H19 H 0.42840 0.31410 0.32450
H20 H 0.49850 0.22710 0.40430
H21 H 0.45370 0.34180 0.45810
#END
