
#######################################################################
#
#                 Cambridge Crystallographic Data Centre
#                                CCDC
#
#######################################################################
#
# If this CIF has been generated from an entry in the Cambridge
# Structural Database, then it will include bibliographic, chemical,
# crystal, experimental, refinement or atomic coordinate data resulting
# from the CCDC's data processing and validation procedures.
#
#######################################################################

data_CSD_CIF_SEYWOL
_audit_creation_date 2018-03-19
_audit_creation_method CSD-ConQuest-V1
_database_code_CSD SEYWOL
_database_code_depnum_ccdc_archive 'CCDC 1415340'
_chemical_formula_sum 'C2 H1 N5 O5'
_chemical_formula_moiety
;
C2 H1 N5 O5
;
_journal_coden_Cambridge 1546
_journal_volume 5
_journal_year 2015
_journal_page_first 418
_journal_name_full 'Crystals '
loop_
_publ_author_name
"T.M.Klapotke"
"P.C.Schmid"
"J.Stierstorfer"
_chemical_name_systematic
;
N,4-dinitro-1,2,5-oxadiazol-3-amine
;
_chemical_name_common
;
3-nitramino-4-nitrofurazan
;
_cell_volume   1177.446
_exptl_crystal_colour 'colorless'
_exptl_crystal_density_diffrn 1.975
_exptl_crystal_description 'block'
_diffrn_ambient_temperature 173
#These two values have been output from a single CSD field.
_refine_ls_R_factor_gt 0.04
_refine_ls_wR_factor_gt 0.04
_symmetry_cell_setting orthorhombic
_symmetry_space_group_name_H-M 'P b c a'
_symmetry_Int_Tables_number 61
loop_
_symmetry_equiv_pos_site_id
_symmetry_equiv_pos_as_xyz
1 x,y,z
2 1/2-x,-y,1/2+z
3 1/2+x,1/2-y,-z
4 -x,1/2+y,1/2-z
5 -x,-y,-z
6 -1/2+x,y,-1/2-z
7 -1/2-x,-1/2+y,z
8 x,-1/2-y,-1/2+z
_cell_length_a 5.0351(3)
_cell_length_b 8.9523(4)
_cell_length_c 26.1215(11)
_cell_angle_alpha 90
_cell_angle_beta 90
_cell_angle_gamma 90
_cell_formula_units_Z 8
loop_
_atom_type_symbol
_atom_type_radius_bond
C 0.68
H 0.23
N 0.68
O 0.68
loop_
_atom_site_label
_atom_site_type_symbol
_atom_site_fract_x
_atom_site_fract_y
_atom_site_fract_z
O1 O 0.8020(3) 0.29498(16) 0.19743(5)
O2 O 0.8598(3) 0.43919(17) 0.05339(6)
O3 O 0.6111(3) 0.34291(15) -0.00623(5)
O4 O 0.1774(3) 0.07336(15) 0.11229(6)
O5 O 0.2037(3) 0.00216(16) 0.19187(6)
N1 N 0.8147(3) 0.33945(18) 0.14614(6)
N2 N 0.6070(4) 0.19406(18) 0.20584(7)
N3 N 0.5558(4) 0.26996(18) 0.07321(6)
N4 N 0.6858(3) 0.35726(18) 0.03816(6)
N5 N 0.2764(3) 0.07521(17) 0.15527(6)
C1 C 0.6241(4) 0.2652(2) 0.12374(7)
C2 C 0.4980(4) 0.1759(2) 0.16152(7)
H1 H 0.433(6) 0.218(3) 0.0597(9)
#END
