
#######################################################################
#
#                 Cambridge Crystallographic Data Centre
#                                CCDC
#
#######################################################################
#
# If this CIF has been generated from an entry in the Cambridge
# Structural Database, then it will include bibliographic, chemical,
# crystal, experimental, refinement or atomic coordinate data resulting
# from the CCDC's data processing and validation procedures.
#
#######################################################################

data_CSD_CIF_SEZJEN
_audit_creation_date 2007-05-01
_audit_creation_method CSD-ConQuest-V1
_database_code_CSD SEZJEN
_database_code_depnum_ccdc_archive 'CCDC 640403'
_chemical_formula_sum 'C5 H7 N1 O3'
_chemical_formula_moiety
;
C5 H7 N1 O3
;
_journal_coeditor_code "IUCr KP2077"
_journal_coden_Cambridge 1370
_journal_volume 63
_journal_year 2007
_journal_page_first o1502
_journal_name_full 'Acta Crystallogr.,Sect.E:Struct.Rep.Online '
loop_
_publ_author_name
"R.J.Butcher"
"Y.M.Hijji"
"E.Benjamin"
_chemical_name_systematic
;
1-Methoxypyrrolidine-2,5-dione
;
_chemical_melting_point 375
_cell_volume    584.986
_exptl_crystal_colour 'colorless'
_exptl_crystal_density_diffrn 1.466
_exptl_special_details
;
Melting point range 375-377K

;
_exptl_crystal_preparation 'methanol'
_diffrn_ambient_temperature 103
#These two values have been output from a single CSD field.
_refine_ls_R_factor_gt 0.0347
_refine_ls_wR_factor_gt 0.0347
_symmetry_cell_setting monoclinic
_symmetry_space_group_name_H-M 'P 21/c'
_symmetry_Int_Tables_number 14
loop_
_symmetry_equiv_pos_site_id
_symmetry_equiv_pos_as_xyz
1 x,y,z
2 -x,1/2+y,1/2-z
3 -x,-y,-z
4 x,-1/2-y,-1/2+z
_cell_length_a 6.6549(18)
_cell_length_b 7.553(2)
_cell_length_c 12.105(3)
_cell_angle_alpha 90
_cell_angle_beta 105.964(3)
_cell_angle_gamma 90
_cell_formula_units_Z 4
loop_
_atom_type_symbol
_atom_type_radius_bond
C 0.68
H 0.23
N 0.68
O 0.68
loop_
_atom_site_label
_atom_site_type_symbol
_atom_site_fract_x
_atom_site_fract_y
_atom_site_fract_z
O1 O 0.79422(9) -0.00757(8) 0.19804(5)
O2 O 0.41266(12) 0.03526(11) 0.25298(7)
O3 O 0.74362(11) -0.26651(10) 0.02725(6)
N1 N 0.60928(10) -0.09189(9) 0.14500(6)
C1 C 0.42606(13) -0.06210(11) 0.17622(7)
C2 C 0.25942(13) -0.17169(13) 0.09583(9)
H1 H 0.14900 -0.09470 0.04800
H2 H 0.19470 -0.25420 0.13960
C3 C 0.37075(13) -0.27460(12) 0.02045(7)
H3 H 0.35780 -0.40380 0.03060
H4 H 0.31000 -0.24510 -0.06170
C4 C 0.59664(13) -0.21826(11) 0.06006(7)
C5 C 0.91135(13) -0.10756(12) 0.29715(7)
H5 H 1.04210 -0.04560 0.33370
H6 H 0.94290 -0.22550 0.27260
H7 H 0.82820 -0.11910 0.35220
#END
