
#######################################################################
#
#                 Cambridge Crystallographic Data Centre
#                                CCDC
#
#######################################################################
#
# If this CIF has been generated from an entry in the Cambridge
# Structural Database, then it will include bibliographic, chemical,
# crystal, experimental, refinement or atomic coordinate data resulting
# from the CCDC's data processing and validation procedures.
#
#######################################################################

data_CSD_CIF_SEZXEC
_audit_creation_date 2013-05-17
_audit_creation_method CSD-ConQuest-V1
_database_code_CSD SEZXEC
_database_code_depnum_ccdc_archive 'CCDC 919241'
_chemical_formula_sum 'C50 H51 N3 O13'
_chemical_formula_moiety
;
C50 H51 N3 O13
;
_journal_coden_Cambridge 1291
_journal_year 2013
_journal_page_first 3504
_journal_name_full 'Eur.J.Org.Chem. '
loop_
_publ_author_name
"P.Prabhakaran"
"A.Barnard"
"N.S.Murphy"
"C.A.Kilner"
"T.A.Edwards"
"A.J.Wilson"
_chemical_name_systematic
;
Methyl 
4-((4-((3-(benzyloxy)-4-nitrobenzoyl)amino)-2-(2-(2-(2-methoxyethoxy)ethoxy)et
hoxy)-5-(2-naphthylmethoxy)benzoyl)amino)-3-isopropoxybenzoate
;
_cell_volume   4562.357
_exptl_crystal_colour 'yellow'
_exptl_crystal_density_diffrn 1.313
_exptl_crystal_description 'plate'
_diffrn_ambient_temperature 150
#These two values have been output from a single CSD field.
_refine_ls_R_factor_gt 0.1074
_refine_ls_wR_factor_gt 0.1074
_symmetry_cell_setting orthorhombic
_symmetry_space_group_name_H-M 'P 21 21 21'
_symmetry_Int_Tables_number 19
loop_
_symmetry_equiv_pos_site_id
_symmetry_equiv_pos_as_xyz
1 x,y,z
2 1/2-x,-y,1/2+z
3 1/2+x,1/2-y,-z
4 -x,1/2+y,1/2-z
_cell_length_a 10.0889(10)
_cell_length_b 10.7013(12)
_cell_length_c 42.258(5)
_cell_angle_alpha 90
_cell_angle_beta 90
_cell_angle_gamma 90
_cell_formula_units_Z 4
loop_
_atom_type_symbol
_atom_type_radius_bond
C 0.68
H 0.23
N 0.68
O 0.68
loop_
_atom_site_label
_atom_site_type_symbol
_atom_site_fract_x
_atom_site_fract_y
_atom_site_fract_z
C1 C -0.8363(7) 0.6835(6) 0.12974(16)
C2 C -0.7636(7) 0.6402(6) 0.15666(15)
C3 C -0.6324(7) 0.6020(6) 0.15202(15)
H1 H -0.58180 0.57220 0.16940
C4 C -0.5749(7) 0.6076(6) 0.12162(14)
C5 C -0.6486(8) 0.6464(7) 0.09582(15)
H2 H -0.61010 0.64770 0.07530
C6 C -0.7812(8) 0.6842(7) 0.10015(16)
H3 H -0.83250 0.71020 0.08250
O1 O -0.3856(5) 0.6051(6) 0.08944(12)
N1 N -0.3647(5) 0.5125(5) 0.13779(12)
H4 H -0.40760 0.49710 0.15550
C7 C -0.4345(7) 0.5736(7) 0.11445(15)
C8 C -0.2322(6) 0.4720(5) 0.13637(15)
C9 C -0.1773(7) 0.4235(6) 0.16456(15)
C10 C -0.0498(7) 0.3850(6) 0.16516(14)
H5 H -0.01250 0.35690 0.18450
C11 C 0.0299(7) 0.3858(6) 0.13722(14)
C12 C -0.0282(7) 0.4311(6) 0.10947(13)
C13 C -0.1554(7) 0.4747(6) 0.10961(15)
H6 H -0.19170 0.50790 0.09060
O2 O 0.2051(5) 0.3016(5) 0.16813(11)
N2 N 0.2487(6) 0.3322(5) 0.11532(12)
H7 H 0.21410 0.36040 0.09760
C14 C 0.1674(7) 0.3362(6) 0.14159(14)
C15 C 0.3782(7) 0.2891(6) 0.11348(15)
C16 C 0.4530(7) 0.2441(6) 0.13892(14)
H8 H 0.41430 0.24100 0.15940
C17 C 0.5825(7) 0.2039(6) 0.13479(15)
H9 H 0.63170 0.17330 0.15230
O3 O -1.0343(6) 0.7471(5) 0.10891(13)
C18 C 0.6404(7) 0.2085(6) 0.10480(15)
C19 C 0.5682(7) 0.2555(6) 0.07928(15)
H10 H 0.60830 0.26090 0.05900
C20 C 0.4390(7) 0.2941(6) 0.08334(14)
O4 O 0.3566(5) 0.3368(5) 0.05962(10)
C21 C 0.4082(9) 0.3381(9) 0.02707(16)
H11 H 0.46650 0.26370 0.02370
C22 C 0.4875(11) 0.456(1) 0.0217(2)
H12 H 0.42710 0.52760 0.02020
H13 H 0.53810 0.44840 0.00200
H14 H 0.54860 0.46860 0.03950
C23 C 0.2829(10) 0.3261(11) 0.00608(19)
H15 H 0.23010 0.25450 0.01320
H16 H 0.30950 0.31370 -0.01600
H17 H 0.22990 0.40260 0.00780
O5 O 0.8332(5) 0.1730(5) 0.07347(11)
C24 C 0.7771(7) 0.1644(6) 0.09875(16)
O6 O 0.8330(5) 0.1113(5) 0.12417(11)
C25 C 0.9647(9) 0.0603(8) 0.1194(2)
H18 H 0.96260 -0.00020 0.10200
H19 H 0.99420 0.01840 0.13880
H20 H 1.02630 0.12800 0.11420
O7 O -0.8276(5) 0.6332(5) 0.18474(10)
N3 N -0.9710(7) 0.7324(6) 0.13340(15)
C26 C -0.7692(7) 0.5719(7) 0.21079(14)
H21 H -0.68490 0.61360 0.21650
H22 H -0.74950 0.48400 0.20520
C27 C -0.8629(7) 0.5762(6) 0.23822(15)
C28 C -0.9754(7) 0.6508(7) 0.23774(16)
H23 H -0.99670 0.69770 0.21930
C29 C -1.0567(8) 0.6570(7) 0.26408(17)
H24 H -1.13160 0.71080 0.26390
C30 C -1.0304(8) 0.5863(8) 0.29043(16)
H25 H -1.08590 0.59170 0.30860
C31 C -0.9259(9) 0.5097(8) 0.29026(18)
H26 H -0.91020 0.45800 0.30820
C32 C -0.8372(8) 0.5031(7) 0.26421(17)
H27 H -0.76220 0.44950 0.26470
O8 O -0.2638(5) 0.4203(5) 0.18996(10)
C33 C -0.2188(7) 0.3559(7) 0.21794(15)
H28 H -0.15120 0.40690 0.22900
H29 H -0.17790 0.27520 0.21200
C34 C -0.3327(7) 0.3338(6) 0.23918(14)
O9 O -1.0134(7) 0.7627(9) 0.15881(14)
C35 C -0.4378(7) 0.2511(7) 0.22990(15)
H30 H -0.43510 0.21370 0.20950
C36 C -0.5416(8) 0.2247(8) 0.24954(16)
H31 H -0.60990 0.16970 0.24280
C37 C -0.5470(7) 0.2812(6) 0.28089(16)
C38 C -0.6535(8) 0.2526(7) 0.30168(18)
H32 H -0.72300 0.19760 0.29560
C39 C -0.6513(9) 0.3099(8) 0.3320(2)
H33 H -0.72090 0.29290 0.34650
C40 C -0.5494(10) 0.3904(7) 0.34099(19)
H34 H -0.54930 0.42550 0.36160
C41 C -0.4502(9) 0.4193(8) 0.32050(18)
H35 H -0.38470 0.47840 0.32660
C42 C -0.4427(7) 0.3628(6) 0.29024(15)
C43 C -0.3372(7) 0.3871(6) 0.26854(15)
H36 H -0.26800 0.44210 0.27470
O10 O 0.0496(5) 0.4313(5) 0.08213(10)
C44 C -0.0176(7) 0.4347(7) 0.05187(14)
H37 H -0.10690 0.39770 0.05430
H38 H 0.03220 0.38260 0.03660
C45 C -0.0315(9) 0.5652(8) 0.03851(17)
H39 H -0.08540 0.56250 0.01890
H40 H -0.07760 0.61930 0.05400
O11 O 0.0949(7) 0.6153(5) 0.03171(12)
O12 O 0.0156(14) 0.6574(11) -0.0321(2)
C46 C 0.0949(19) 0.7315(10) 0.0151(2)
H41 H 0.15060 0.79340 0.02630
H42 H 0.00370 0.76490 0.01350
C47 C 0.150(2) 0.7063(16) -0.0176(4)
H43 H 0.22050 0.64160 -0.01750
H44 H 0.18290 0.78300 -0.02810
C48 C 0.0401(12) 0.5670(12) -0.0565(3)
H45 H 0.08130 0.49040 -0.04780
H46 H 0.09820 0.60170 -0.07320
C49 C -0.0997(12) 0.5403(12) -0.0693(3)
H47 H -0.14220 0.61980 -0.07570
H48 H -0.09330 0.48620 -0.08820
O13 O -0.1719(17) 0.4854(16) -0.0479(4)
C50 C -0.295(3) 0.448(3) -0.0571(7)
H49 H -0.34010 0.40790 -0.03930
H50 H -0.28660 0.38780 -0.07460
H51 H -0.34600 0.52030 -0.06420
#END
