
#######################################################################
#
#                 Cambridge Crystallographic Data Centre
#                                CCDC
#
#######################################################################
#
# If this CIF has been generated from an entry in the Cambridge
# Structural Database, then it will include bibliographic, chemical,
# crystal, experimental, refinement or atomic coordinate data resulting
# from the CCDC's data processing and validation procedures.
#
#######################################################################

data_CSD_CIF_SEZXIG
_audit_creation_date 2013-05-17
_audit_creation_method CSD-ConQuest-V1
_database_code_CSD SEZXIG
_database_code_depnum_ccdc_archive 'CCDC 919240'
_chemical_formula_sum 'C36 H40 N2 O11'
_chemical_formula_moiety
;
C36 H40 N2 O11
;
_journal_coden_Cambridge 1291
_journal_year 2013
_journal_page_first 3504
_journal_name_full 'Eur.J.Org.Chem. '
loop_
_publ_author_name
"P.Prabhakaran"
"A.Barnard"
"N.S.Murphy"
"C.A.Kilner"
"T.A.Edwards"
"A.J.Wilson"
_chemical_name_systematic
;
Methyl 
3-isopropoxy-4-((2-(2-(2-(2-methoxyethoxy)ethoxy)ethoxy)-5-(2-naphthylmethoxy)
-4-nitrobenzoyl)amino)benzoate
;
_cell_volume   1757.157
_exptl_crystal_colour 'yellow'
_exptl_crystal_density_diffrn 1.279
_diffrn_ambient_temperature 150
_refine_special_details
;
C19B,O18B,O19B and C19A,O18A,O19A disordered over two sites with occupancies 
0.506:0.494; C23B,C24B,C25B,C26B,C27B,C28B,C29B, C30B,C31B,C32B and 
C23A,C24A,C25A,C26A,C27A,C28A,C29A,C30A,C31A,C32A disordered over two sites 
with occupancies 0.720:0.280.
;
#These two values have been output from a single CSD field.
_refine_ls_R_factor_gt 0.0563
_refine_ls_wR_factor_gt 0.0563
_symmetry_cell_setting triclinic
_symmetry_space_group_name_H-M 'P -1'
_symmetry_Int_Tables_number 2
loop_
_symmetry_equiv_pos_site_id
_symmetry_equiv_pos_as_xyz
1 x,y,z
2 -x,-y,-z
_cell_length_a 7.4105(7)
_cell_length_b 14.7799(15)
_cell_length_c 17.7449(17)
_cell_angle_alpha 113.771(5)
_cell_angle_beta 96.518(4)
_cell_angle_gamma 92.914(5)
_cell_formula_units_Z 2
loop_
_atom_type_symbol
_atom_type_radius_bond
C 0.68
H 0.23
N 0.68
O 0.68
loop_
_atom_site_label
_atom_site_type_symbol
_atom_site_fract_x
_atom_site_fract_y
_atom_site_fract_z
O1 O 0.9199(4) 0.02316(15) 0.58341(13)
N1 N 0.9381(3) 0.10315(15) 0.64317(11)
C1 C 0.9013(3) 0.19356(16) 0.62901(12)
H1 H 0.805(3) 0.3999(14) 0.4662(13)
O2 O 0.9867(4) 0.11039(18) 0.71318(12)
C2 C 0.8578(3) 0.28027(17) 0.69292(12)
C3 C 0.8242(3) 0.36111(16) 0.67300(12)
H2 H 0.79810 0.42100 0.71550
C4 C 0.8276(2) 0.35723(14) 0.59219(11)
C5 C 0.8682(2) 0.26787(14) 0.52867(10)
C6 C 0.9061(3) 0.18671(15) 0.54791(11)
H3 H 0.93500 0.12710 0.50600
O3 O 0.7504(2) 0.52511(12) 0.64612(9)
N2 N 0.7801(2) 0.45474(12) 0.50661(10)
C7 C 0.7828(3) 0.45351(14) 0.58400(11)
C8 C 0.7342(2) 0.53310(14) 0.48349(12)
C9 C 0.6822(3) 0.62491(15) 0.53797(13)
H4 H 0.67590 0.63750 0.59440
C10 C 0.6400(3) 0.69709(15) 0.50838(14)
H5 H 0.60390 0.75830 0.54500
C11 C 0.6501(3) 0.68026(15) 0.42545(14)
C12 C 0.6993(3) 0.58852(15) 0.36988(13)
H6 H 0.70460 0.57670 0.31350
C13 C 0.7404(3) 0.51492(14) 0.39835(12)
O4 O 0.7924(2) 0.42273(10) 0.35044(8)
C14 C 0.7665(3) 0.38760(16) 0.25912(12)
H7 H 0.81360 0.44180 0.24410
C15 C 0.5637(4) 0.3585(2) 0.22479(15)
H8 H 0.51770 0.30520 0.23940
H9 H 0.54690 0.33510 0.16410
H10 H 0.49640 0.41640 0.24880
C16 C 0.8808(4) 0.30040(19) 0.22752(14)
H11 H 1.00650 0.32120 0.25650
H12 H 0.88070 0.27880 0.16750
H13 H 0.82870 0.24520 0.23820
C17 C 0.6109(3) 0.75944(17) 0.39470(17)
O5 O 0.573(3) 0.8437(9) 0.4401(10)
O6 O 0.608(4) 0.7357(16) 0.3118(11)
C18 C 0.5784(8) 0.8117(4) 0.2798(5)
H14 H 0.45340 0.82970 0.28460
H15 H 0.59630 0.78550 0.22120
H16 H 0.66520 0.87070 0.31220
O7 O 0.8421(3) 0.27902(13) 0.76936(9)
C19 C 0.7977(4) 0.3688(2) 0.83376(13)
H17 H 0.75420 0.35030 0.87690
H18 H 0.69270 0.39150 0.80900
C20 C 0.9652(7) 0.4451(5) 0.8710(3)
C21 C 1.1486(7) 0.4182(4) 0.8686(3)
H19 H 1.16730 0.35050 0.83880
C22 C 1.2984(7) 0.4876(5) 0.9081(4)
H20 H 1.41670 0.46570 0.90470
C23 C 1.2845(11) 0.5858(5) 0.9517(6)
C24 C 1.4535(12) 0.6536(8) 0.9964(5)
H21 H 1.57120 0.63120 0.99800
C25 C 1.4239(17) 0.7515(8) 1.0354(6)
H22 H 1.52780 0.79840 1.06360
C26 C 1.256(2) 0.7873(8) 1.0369(7)
H23 H 1.24570 0.85640 1.06520
C27 C 1.1056(18) 0.7229(7) 0.9975(5)
H24 H 0.99180 0.75010 1.00020
C28 C 1.1000(9) 0.6228(4) 0.9542(4)
C29 C 0.9461(7) 0.5451(5) 0.9104(4)
H25 H 0.82630 0.56500 0.90930
O8 O 0.86960(18) 0.26554(9) 0.44986(7)
C30 C 0.8943(3) 0.17215(14) 0.38198(11)
H26 H 0.99600 0.14190 0.40100
H27 H 0.92840 0.18590 0.33500
C31 C 0.7229(3) 0.09860(15) 0.35175(12)
H28 H 0.75230 0.03200 0.31480
H29 H 0.67500 0.09330 0.39980
O9 O 0.5878(2) 0.13231(11) 0.30736(9)
C32 C 0.4173(3) 0.07050(18) 0.28398(13)
H30 H 0.36600 0.07530 0.33440
H31 H 0.43690 0.00030 0.25190
C33 C 0.2847(3) 0.1046(2) 0.23120(14)
H32 H 0.15890 0.07540 0.22720
H33 H 0.28770 0.17790 0.25730
O10 O 0.3365(2) 0.07316(13) 0.14954(9)
C34 C 0.2222(3) 0.1037(2) 0.09478(15)
H34 H 0.23790 0.17690 0.11490
H35 H 0.09220 0.08220 0.09250
C35 C 0.2802(4) 0.0548(2) 0.00893(15)
H36 H 0.41070 0.07600 0.01200
H37 H 0.26530 -0.01840 -0.01030
O11 O 0.1726(3) 0.08186(16) -0.04853(12)
C36 C 0.2129(5) 0.0303(3) -0.13293(18)
H38 H 0.34440 0.04090 -0.13330
H39 H 0.14600 0.05630 -0.16950
H40 H 0.17550 -0.04100 -0.15290
O12? O 0.632(4) 0.7453(16) 0.3233(11)
O13? O 0.566(2) 0.8415(9) 0.4533(9)
C37? C 0.5496(8) 0.9235(4) 0.4297(4)
H41? H 0.67130 0.95060 0.42730
H42? H 0.49140 0.97530 0.47080
H43? H 0.47490 0.90030 0.37480
C38? C 0.943(3) 0.4595(13) 0.8789(6)
C39? C 1.117(3) 0.4348(15) 0.8784(11)
H44? H 1.14000 0.36750 0.85080
C40? C 1.264(3) 0.5106(16) 0.9195(15)
H45? H 1.38460 0.49240 0.92100
C41? C 1.239(3) 0.6063(11) 0.9560(16)
C42? C 1.3889(17) 0.6838(9) 0.9972(8)
H46? H 1.51220 0.66970 0.99440
C43? C 1.3448(18) 0.7810(9) 1.0418(12)
H47? H 1.43900 0.83300 1.07370
C44? C 1.1619(15) 0.8009(9) 1.0390(12)
H48? H 1.13380 0.86740 1.06560
C45? C 1.0213(16) 0.7252(8) 0.9980(9)
H49? H 0.89870 0.74060 1.00080
C46? C 1.053(3) 0.6295(11) 0.9538(14)
C47? C 0.896(3) 0.5537(11) 0.9097(10)
H50? H 0.77450 0.56930 0.90340
#END
