
#######################################################################
#
#                 Cambridge Crystallographic Data Centre
#                                CCDC
#
#######################################################################
#
# If this CIF has been generated from an entry in the Cambridge
# Structural Database, then it will include bibliographic, chemical,
# crystal, experimental, refinement or atomic coordinate data resulting
# from the CCDC's data processing and validation procedures.
#
#######################################################################

data_CSD_CIF_SIBKAQ
_audit_creation_date 2007-05-01
_audit_creation_method CSD-ConQuest-V1
_database_code_CSD SIBKAQ
_database_code_depnum_ccdc_archive 'CCDC 606451'
_chemical_formula_sum 'C17 H30 N2 O3'
_chemical_formula_moiety
;
C17 H30 N2 O3
;
_journal_coeditor_code "IUCr FB2036"
_journal_coden_Cambridge 1370
_journal_volume 63
_journal_year 2007
_journal_page_first o1327
_journal_name_full 'Acta Crystallogr.,Sect.E:Struct.Rep.Online '
loop_
_publ_author_name
"K.Aouadi"
"E.Jeanneau"
"J.-P.Praly"
_chemical_name_systematic
;
(1S,2R,2'S,3'aS,5R)-2'-((1R)-1-Hydroxyethyl)-2-isopropyl-5,5'-dimethyl-3',3'a-
dihydro-2'H-spiro(cyclohexane-1,6'-imidazo(1,5-b)isoxazol)-4'(5'H)-one
;
_cell_volume    907.174
_exptl_crystal_colour 'colorless'
_exptl_crystal_density_diffrn 1.136
_exptl_crystal_description 'block'
_diffrn_ambient_temperature 293
#These two values have been output from a single CSD field.
_refine_ls_R_factor_gt 0.0451
_refine_ls_wR_factor_gt 0.0451
loop_
_citation_database_id_CSD
_citation_special_details
SIBFOZ "is a stereoisomer of this entry"
_symmetry_cell_setting monoclinic
_symmetry_space_group_name_H-M 'P 21'
_symmetry_Int_Tables_number 4
loop_
_symmetry_equiv_pos_site_id
_symmetry_equiv_pos_as_xyz
1 x,y,z
2 -x,1/2+y,-z
_cell_length_a 10.7391(9)
_cell_length_b 8.0956(4)
_cell_length_c 11.082(1)
_cell_angle_alpha 90
_cell_angle_beta 109.682(3)
_cell_angle_gamma 90
_cell_formula_units_Z 2
loop_
_atom_type_symbol
_atom_type_radius_bond
C 0.68
H 0.23
N 0.68
O 0.68
loop_
_atom_site_label
_atom_site_type_symbol
_atom_site_fract_x
_atom_site_fract_y
_atom_site_fract_z
C1 C 0.7238(2) 0.2687(3) 0.2941(2)
C2 C 0.7823(2) 0.3689(3) 0.4158(2)
H1 H 0.87150 0.40070 0.42290
H2 H 0.78840 0.29850 0.48840
C3 C 0.7059(3) 0.5243(3) 0.4253(3)
H3 H 0.70670 0.59960 0.35640
C4 C 0.5624(3) 0.4778(4) 0.4055(3)
H4 H 0.55910 0.40810 0.47560
H5 H 0.51170 0.57700 0.40530
C5 C 0.5023(3) 0.3869(4) 0.2796(3)
H6 H 0.50270 0.45870 0.20970
H7 H 0.41100 0.35990 0.26820
C6 C 0.5773(3) 0.2280(4) 0.2741(3)
H8 H 0.57830 0.16310 0.34900
C7 C 0.7726(4) 0.6106(4) 0.5529(3)
H9 H 0.72270 0.70710 0.55820
H10 H 0.86060 0.64240 0.55910
H11 H 0.77630 0.53670 0.62180
C8 C 0.5061(3) 0.1193(4) 0.1558(3)
H12 H 0.57320 0.04790 0.14110
C9 C 0.4058(4) 0.0062(6) 0.1860(4)
H13 H 0.34040 0.07230 0.20470
H14 H 0.45070 -0.06150 0.25880
H15 H 0.36370 -0.06300 0.11330
C10 C 0.4387(3) 0.2129(6) 0.0315(3)
H16 H 0.40570 0.13570 -0.03780
H17 H 0.50130 0.28550 0.01410
H18 H 0.36650 0.27650 0.03970
C11 C 0.8167(3) -0.0096(4) 0.4012(3)
H19 H 0.87340 -0.09620 0.39090
H20 H 0.85580 0.04080 0.48380
H21 H 0.73210 -0.05490 0.39460
C12 C 0.8339(3) 0.0865(3) 0.1996(3)
C13 C 0.7934(2) 0.2316(3) 0.1111(3)
H22 H 0.72980 0.19820 0.02830
C14 C 0.9117(3) 0.3191(3) 0.0932(3)
H23 H 0.98310 0.24250 0.09940
H24 H 0.88720 0.37630 0.01160
C15 C 0.9490(2) 0.4387(3) 0.2041(2)
H25 H 0.99810 0.38080 0.28350
C16 C 1.0247(3) 0.5910(3) 0.1897(2)
H26 H 0.97420 0.64940 0.11100
C17 C 1.1593(3) 0.5429(4) 0.1831(3)
H27 H 1.14750 0.47490 0.10910
H28 H 1.20800 0.48260 0.25900
H29 H 1.20740 0.64070 0.17710
O1 O 0.8925(2) -0.0364(3) 0.1781(2)
O2 O 0.82327(16) 0.49123(18) 0.20862(16)
O3 O 1.0445(2) 0.6969(2) 0.29582(18)
H30 H 0.99750 0.77880 0.27330
N1 N 0.8001(2) 0.1133(2) 0.3022(2)
N2 N 0.73263(19) 0.3515(2) 0.17652(19)
#END
