
#######################################################################
#
#                 Cambridge Crystallographic Data Centre
#                                CCDC
#
#######################################################################
#
# If this CIF has been generated from an entry in the Cambridge
# Structural Database, then it will include bibliographic, chemical,
# crystal, experimental, refinement or atomic coordinate data resulting
# from the CCDC's data processing and validation procedures.
#
#######################################################################

data_CSD_CIF_SIBRAZ
_audit_creation_date 2018-03-20
_audit_creation_method CSD-ConQuest-V1
_database_code_CSD SIBRAZ
_database_code_depnum_ccdc_archive 'CCDC 1581247'
_chemical_formula_sum 'C4 H4 N6 O2'
_chemical_formula_moiety
;
C4 H4 N6 O2
;
_journal_coden_Cambridge 4
_journal_volume 140
_journal_year 2018
_journal_page_first 3560
_journal_name_full 'J.Am.Chem.Soc. '
loop_
_publ_author_name
"Gang Zhao"
"Chunlin He"
"Ping Yin"
"G.H.Imler"
"D.A.Parrish"
"J.M.Shreeve"
_chemical_name_systematic
;
[3,3'-bi-1,2,4-oxadiazole]-5,5'-diamine
;
_cell_volume    313.670
_exptl_crystal_colour 'colorless'
_exptl_crystal_density_diffrn 1.78
_exptl_crystal_description 'needle'
_diffrn_ambient_temperature 150
#These two values have been output from a single CSD field.
_refine_ls_R_factor_gt 0.035
_refine_ls_wR_factor_gt 0.035
_symmetry_cell_setting monoclinic
_symmetry_space_group_name_H-M 'P 21/c'
_symmetry_Int_Tables_number 14
loop_
_symmetry_equiv_pos_site_id
_symmetry_equiv_pos_as_xyz
1 x,y,z
2 -x,1/2+y,1/2-z
3 -x,-y,-z
4 x,-1/2-y,-1/2+z
_cell_length_a 3.7468(4)
_cell_length_b 6.0947(7)
_cell_length_c 13.8269(16)
_cell_angle_alpha 90
_cell_angle_beta 96.574(3)
_cell_angle_gamma 90
_cell_formula_units_Z 2
loop_
_atom_type_symbol
_atom_type_radius_bond
C 0.68
H 0.23
N 0.68
O 0.68
loop_
_atom_site_label
_atom_site_type_symbol
_atom_site_fract_x
_atom_site_fract_y
_atom_site_fract_z
N1 N 0.9600(3) 0.9845(2) 0.35433(8)
H1 H 1.06970 1.07640 0.39690
H2 H 0.96530 1.00660 0.29160
C1 C 0.7875(3) 0.8134(2) 0.38449(9)
O1 O 0.6287(3) 0.67357(16) 0.31702(7)
N2 N 0.4686(3) 0.50430(19) 0.36983(8)
C2 C 0.5557(3) 0.5654(2) 0.46000(9)
N3 N 0.7510(3) 0.75431(18) 0.47440(8)
N1B N 0.0400(3) 0.0155(2) 0.64567(8)
H1B H -0.06970 -0.07640 0.60310
H2B H 0.03470 -0.00660 0.70840
C1B C 0.2125(3) 0.1866(2) 0.61551(9)
O1B O 0.3713(3) 0.32643(16) 0.68298(7)
N2B N 0.5314(3) 0.49570(19) 0.63017(8)
C2B C 0.4443(3) 0.4346(2) 0.54000(9)
N3B N 0.2490(3) 0.24569(18) 0.52560(8)
#END
