
#######################################################################
#
#                 Cambridge Crystallographic Data Centre
#                                CCDC
#
#######################################################################
#
# If this CIF has been generated from an entry in the Cambridge
# Structural Database, then it will include bibliographic, chemical,
# crystal, experimental, refinement or atomic coordinate data resulting
# from the CCDC's data processing and validation procedures.
#
#######################################################################

data_CSD_CIF_SICGAM
_audit_creation_date 1991-06-25
_audit_creation_method CSD-ConQuest-V1
_database_code_CSD SICGAM
_chemical_formula_sum 'C12 H17 N5 O5'
_chemical_formula_moiety
;
C12 H17 N5 O5
;
_journal_coden_Cambridge 35
_journal_volume 55
_journal_year 1990
_journal_page_first 4988
_journal_name_full 'J.Org.Chem. '
loop_
_publ_author_name
"H.Zimmer"
"A.Amer"
"D.Ho"
"K.Koch"
"C.Schumacher"
"R.C.Wingfield"
_chemical_name_systematic
;
3-Morpholino-4,7,9-trimethyl-1-oxa-2,4,7,9-tetra-azaspiro(4,5)dec-2-ene-6,8,10
-trione
;
_cell_volume   1401.242
_exptl_crystal_colour 'colorless'
_exptl_crystal_density_diffrn 1.48
_diffrn_ambient_temperature ?
_diffrn_special_details
;
The study was carried out at room temperature,in the range 283-303K

;
#These two values have been output from a single CSD field.
_refine_ls_R_factor_gt 0.0364
_refine_ls_wR_factor_gt 0.0364
_symmetry_cell_setting orthorhombic
_symmetry_space_group_name_H-M 'P 21 21 21'
_symmetry_Int_Tables_number 19
loop_
_symmetry_equiv_pos_site_id
_symmetry_equiv_pos_as_xyz
1 x,y,z
2 1/2+x,1/2-y,-z
3 -x,1/2+y,1/2-z
4 1/2-x,-y,1/2+z
_cell_length_a 11.520(2)
_cell_length_b 12.532(2)
_cell_length_c 9.706(1)
_cell_angle_alpha 90
_cell_angle_beta 90
_cell_angle_gamma 90
_cell_formula_units_Z 4
loop_
_atom_type_symbol
_atom_type_radius_bond
C 0.68
H 0.23
N 0.68
O 0.68
loop_
_atom_site_label
_atom_site_type_symbol
_atom_site_fract_x
_atom_site_fract_y
_atom_site_fract_z
O1 O 0.1962(3) -0.0610(2) -0.0209(3)
N1 N 0.2011(3) -0.1728(2) -0.0647(3)
C1 C 0.2460(3) -0.2229(3) 0.0370(4)
N2 N 0.2756(3) -0.1597(3) 0.1480(3)
C2 C 0.3029(5) -0.1954(3) 0.2870(4)
C3 C 0.2393(4) -0.0546(3) 0.1179(4)
C4 C 0.3405(4) 0.0251(3) 0.1184(4)
O2 O 0.4401(3) -0.0041(3) 0.1140(4)
N3 N 0.3081(3) 0.1291(2) 0.1138(3)
C5 C 0.3985(4) 0.2106(4) 0.0906(5)
C6 C 0.1982(3) 0.1661(3) 0.1504(4)
O3 O 0.1745(3) 0.2600(2) 0.1422(4)
N4 N 0.1185(3) 0.0929(2) 0.2007(3)
C7 C 0.0122(4) 0.1345(4) 0.2657(5)
C8 C 0.1369(4) -0.0161(3) 0.2049(4)
O4 O 0.0718(3) -0.0768(3) 0.2612(4)
N5 N 0.2645(3) -0.3313(2) 0.0418(3)
C9 C 0.1999(4) -0.3928(3) -0.0623(4)
C10 C 0.2114(4) -0.5100(3) -0.0261(6)
O5 O 0.3291(3) -0.5420(2) -0.0278(3)
C11 C 0.3929(4) -0.4824(3) 0.0711(5)
C12 C 0.3874(4) -0.3642(3) 0.0428(5)
H1 H 0.32560 -0.26910 0.28470
H2 H 0.23560 -0.18750 0.34450
H3 H 0.36530 -0.15320 0.32340
H4 H 0.36350 0.28020 0.08980
H5 H 0.43580 0.19780 0.00380
H6 H 0.45490 0.20700 0.16330
H7 H 0.00970 0.21070 0.25580
H8 H 0.01210 0.11640 0.36180
H9 H -0.05460 0.10360 0.22190
H10 H 0.11960 -0.37240 -0.06130
H11 H 0.23180 -0.37980 -0.15210
H12 H 0.16890 -0.55160 -0.09210
H13 H 0.18010 -0.52180 0.06420
H14 H 0.36130 -0.49600 0.16090
H15 H 0.47260 -0.50480 0.06860
H16 H 0.42200 -0.34910 -0.04500
H17 H 0.42830 -0.32610 0.11360
#END
