
#######################################################################
#
#                 Cambridge Crystallographic Data Centre
#                                CCDC
#
#######################################################################
#
# If this CIF has been generated from an entry in the Cambridge
# Structural Database, then it will include bibliographic, chemical,
# crystal, experimental, refinement or atomic coordinate data resulting
# from the CCDC's data processing and validation procedures.
#
#######################################################################

data_CSD_CIF_SICNUN
_audit_creation_date 1991-06-25
_audit_creation_method CSD-ConQuest-V1
_database_code_CSD SICNUN
_chemical_formula_sum 'C8 H6 N4 O8'
_chemical_formula_moiety
;
C8 H6 N4 O8
;
_journal_coeditor_code "IUCr TR0356"
_journal_coden_Cambridge 591
_journal_volume 46
_journal_year 1990
_journal_page_first 1709
_journal_name_full 'Acta Crystallogr.,Sect.C:Cryst.Struct.Commun. '
loop_
_publ_author_name
"K.Vedasankari"
"G.S.Murthy"
"M.R.Udupa"
_chemical_name_systematic
;
2,4-N-Trinitroanilinoacetic acid
;
_cell_volume   1116.644
_exptl_crystal_density_diffrn 1.7
_exptl_special_details
;
z(O7) is 1.0813, not 1.0183

;
_diffrn_ambient_temperature ?
_diffrn_special_details
;
The study was carried out at room temperature,in the range 283-303K

;
#These two values have been output from a single CSD field.
_refine_ls_R_factor_gt 0.04
_refine_ls_wR_factor_gt 0.04
_symmetry_cell_setting monoclinic
_symmetry_space_group_name_H-M 'P 21/n'
_symmetry_Int_Tables_number 14
loop_
_symmetry_equiv_pos_site_id
_symmetry_equiv_pos_as_xyz
1 x,y,z
2 1/2-x,1/2+y,1/2-z
3 -x,-y,-z
4 -1/2+x,-1/2-y,-1/2+z
_cell_length_a 10.417(1)
_cell_length_b 10.396(1)
_cell_length_c 10.880(1)
_cell_angle_alpha 90
_cell_angle_beta 108.61(1)
_cell_angle_gamma 90
_cell_formula_units_Z 4
loop_
_atom_type_symbol
_atom_type_radius_bond
C 0.68
H 0.23
N 0.68
O 0.68
loop_
_atom_site_label
_atom_site_type_symbol
_atom_site_fract_x
_atom_site_fract_y
_atom_site_fract_z
C1 C -0.0178(2) 0.0385(2) 0.7190(2)
C2 C -0.1525(2) 0.0798(2) 0.6877(2)
C3 C -0.2550(2) 0.0219(2) 0.5911(2)
C4 C -0.2216(2) -0.0822(2) 0.5288(2)
C5 C -0.0920(2) -0.1305(2) 0.5612(2)
C6 C 0.0108(2) -0.0680(2) 0.6559(2)
N1 N 0.0925(2) 0.1012(2) 0.8118(1)
N2 N -0.1896(2) 0.1866(2) 0.7584(2)
O1 O -0.2855(2) 0.2542(2) 0.7000(2)
O2 O -0.1231(2) 0.2005(2) 0.8728(1)
N3 N -0.3303(2) -0.1434(2) 0.4234(2)
O3 O -0.3016(2) -0.2409(2) 0.3751(2)
O4 O -0.4409(2) -0.0931(2) 0.3895(2)
N4 N 0.1109(2) 0.2302(2) 0.7963(2)
O5 O 0.0402(2) 0.2800(1) 0.6963(2)
O6 O 0.1979(2) 0.2832(2) 0.8845(2)
C7 C 0.1609(2) 0.0459(2) 0.9384(2)
C8 C 0.3100(2) 0.0267(2) 0.9636(2)
O7 O 0.3695(2) -0.0150(2) 1.0813(2)
O8 O 0.3652(2) 0.0478(2) 0.8826(2)
H1 H -0.342(2) 0.049(2) 0.568(2)
H2 H -0.071(2) -0.204(2) 0.520(2)
H3 H 0.102(2) -0.095(2) 0.675(2)
H4 H 0.118(2) -0.036(3) 0.938(2)
H5 H 0.145(2) 0.103(2) 1.002(2)
H6 H 0.456(4) -0.020(3) 1.099(3)
#END
