
#######################################################################
#
#                 Cambridge Crystallographic Data Centre
#                                CCDC
#
#######################################################################
#
# If this CIF has been generated from an entry in the Cambridge
# Structural Database, then it will include bibliographic, chemical,
# crystal, experimental, refinement or atomic coordinate data resulting
# from the CCDC's data processing and validation procedures.
#
#######################################################################

data_CSD_CIF_SICPIE
_audit_creation_date 2007-08-28
_audit_creation_method CSD-ConQuest-V1
_database_code_CSD SICPIE
_database_code_depnum_ccdc_archive 'CCDC 284486'
_chemical_formula_sum 'C14 H14 N3 O1'
_chemical_formula_moiety
;
C14 H14 N3 O1
;
_journal_coden_Cambridge 16
_journal_volume 63
_journal_year 2007
_journal_page_first 5244
_journal_name_full 'Tetrahedron '
loop_
_publ_author_name
"A.G.M.Barrett"
"G.R.Hanson"
"A.J.P.White"
"D.J.Williams"
"A.S.Micallef"
_chemical_name_systematic
;
5,6-Dicyano-1,1,3,3-tetramethylisoindolin-2-yloxyl
;
_chemical_melting_point 516.15
_cell_volume   1345.241
_exptl_crystal_colour 'yellow'
_exptl_crystal_density_diffrn 1.186
_exptl_special_details
;
Melting point range 516.15-521.15K
243-248 deg.C (dec,sub)

;
_exptl_crystal_description 'prismatic needles'
_diffrn_ambient_temperature 293
#These two values have been output from a single CSD field.
_refine_ls_R_factor_gt 0.0334
_refine_ls_wR_factor_gt 0.0334
_symmetry_cell_setting tetragonal
_symmetry_space_group_name_H-M 'P 43 21 2'
_symmetry_Int_Tables_number 96
loop_
_symmetry_equiv_pos_site_id
_symmetry_equiv_pos_as_xyz
1 x,y,z
2 -x,-y,1/2+z
3 1/2-y,1/2+x,3/4+z
4 1/2+y,1/2-x,1/4+z
5 1/2-x,1/2+y,3/4-z
6 1/2+x,1/2-y,1/4-z
7 y,x,-z
8 -y,-x,1/2-z
_cell_length_a 10.1121(3)
_cell_length_b 10.1121(3)
_cell_length_c 13.1558(6)
_cell_angle_alpha 90
_cell_angle_beta 90
_cell_angle_gamma 90
_cell_formula_units_Z 4
loop_
_atom_type_symbol
_atom_type_radius_bond
C 0.68
H 0.23
N 0.68
O 0.68
loop_
_atom_site_label
_atom_site_type_symbol
_atom_site_fract_x
_atom_site_fract_y
_atom_site_fract_z
O1 O 0.74373(10) 0.74373(10) 0.00000
N1 N 0.83292(11) 0.83292(11) 0.00000
C1 C 0.95788(14) 0.81768(14) 0.05782(11)
C2 C 1.02396(14) 0.94652(13) 0.03182(10)
C3 C 1.14657(15) 0.98946(15) 0.06415(11)
H1 H 1.19822(15) 0.93709(15) 0.10658(11)
C4 C 1.19120(15) 1.1124(2) 0.03201(11)
C5 C 0.9270(2) 0.8070(2) 0.17134(13)
H2 H 0.8850(2) 0.7237(2) 0.18490(13)
H3 H 0.8690(2) 0.8777(2) 0.19084(13)
H4 H 1.0077(2) 0.8130(2) 0.20953(13)
C6 C 1.0326(2) 0.6966(2) 0.0193(2)
H5 H 0.9856(2) 0.6180(2) 0.0383(2)
H6 H 1.1194(2) 0.6949(2) 0.0488(2)
H7 H 1.0399(2) 0.7008(2) -0.0534(2)
C7 C 1.3214(2) 1.1587(2) 0.06374(14)
N2 N 1.4200(2) 1.1943(3) 0.0878(2)
C1F C 0.81768(14) 0.95788(14) -0.05782(11)
C2F C 0.94652(14) 1.02396(13) -0.03182(10)
C3F C 0.98946(15) 1.14657(15) -0.06415(11)
H1F H 0.93709(15) 1.19822(15) -0.10658(11)
C4F C 1.11240(15) 1.1912(2) -0.03201(11)
C5F C 0.8070(2) 0.9270(2) -0.17134(13)
H2F H 0.7237(2) 0.8850(2) -0.18490(13)
H3F H 0.8777(2) 0.8690(2) -0.19084(13)
H4F H 0.8130(2) 1.0077(2) -0.20953(13)
C6F C 0.6966(2) 1.0326(2) -0.0193(2)
H5F H 0.6180(2) 0.9856(2) -0.0383(2)
H6F H 0.6949(2) 1.1194(2) -0.0488(2)
H7F H 0.7008(2) 1.0399(2) 0.0534(2)
C7F C 1.1587(2) 1.3214(2) -0.06374(14)
N2F N 1.1943(2) 1.4200(3) -0.0878(2)
#END
