
#######################################################################
#
#                 Cambridge Crystallographic Data Centre
#                                CCDC
#
#######################################################################
#
# If this CIF has been generated from an entry in the Cambridge
# Structural Database, then it will include bibliographic, chemical,
# crystal, experimental, refinement or atomic coordinate data resulting
# from the CCDC's data processing and validation procedures.
#
#######################################################################

data_CSD_CIF_SICYOU
_audit_creation_date 2013-07-25
_audit_creation_method CSD-ConQuest-V1
_database_code_CSD SICYOU
_database_code_depnum_ccdc_archive 'CCDC 876977'
_chemical_formula_sum 'C16 H22 N3 O1'
_chemical_formula_moiety
;
C16 H22 N3 O1
;
_journal_coden_Cambridge 35
_journal_volume 77
_journal_year 2012
_journal_page_first 8016
_journal_name_full 'J.Org.Chem. '
loop_
_publ_author_name
"I.A.Kirilyuk"
"Y.F.Polienko"
"O.A.Krumkacheva"
"R.K.Strizhakov"
"Y.V.Gatilov"
"I.A.Grigorev"
"E.G.Bagryanskaya"
_chemical_name_systematic
;
7-Hydroxy-7-azadispiro[5.1.5.2]pentadecane-14,15-dicarbonitrile
;
_chemical_name_common
;
14R(S),15R(S)-14,15-dicyano-7-azadispiro[5.1.5.2]pentadecane-7-oxyl
;
_chemical_melting_point 449
_cell_volume   1464.444
_exptl_crystal_colour 'yellow'
_exptl_crystal_density_diffrn 1.235
_exptl_crystal_description 'prism'
_diffrn_ambient_temperature 150
#These two values have been output from a single CSD field.
_refine_ls_R_factor_gt 0.035
_refine_ls_wR_factor_gt 0.035
_symmetry_cell_setting orthorhombic
_symmetry_space_group_name_H-M 'P n a 21'
_symmetry_Int_Tables_number 33
loop_
_symmetry_equiv_pos_site_id
_symmetry_equiv_pos_as_xyz
1 x,y,z
2 -x,-y,1/2+z
3 1/2+x,1/2-y,z
4 1/2-x,1/2+y,1/2+z
_cell_length_a 9.2386(8)
_cell_length_b 24.0533(17)
_cell_length_c 6.5901(5)
_cell_angle_alpha 90
_cell_angle_beta 90
_cell_angle_gamma 90
_cell_formula_units_Z 4
loop_
_atom_type_symbol
_atom_type_radius_bond
C 0.68
H 0.23
N 0.68
O 0.68
loop_
_atom_site_label
_atom_site_type_symbol
_atom_site_fract_x
_atom_site_fract_y
_atom_site_fract_z
O1 O 0.72227(11) 0.37475(5) -0.12948(15)
N1 N 0.78279(11) 0.36924(4) 0.04300(17)
C1 C 0.94122(12) 0.35955(4) 0.05966(18)
N2 N 1.08897(13) 0.44943(5) 0.4390(2)
N3 N 0.74511(16) 0.24976(5) 0.4470(2)
C2 C 0.96404(12) 0.36013(5) 0.29398(19)
H1 H 1.02330 0.32710 0.33360
C3 C 0.80927(12) 0.35448(4) 0.38930(18)
H2 H 0.80520 0.37510 0.52090
C4 C 0.70559(12) 0.38190(5) 0.23362(19)
C5 C 0.97565(12) 0.30225(5) -0.0312(2)
H3 H 0.93090 0.27310 0.05430
H4 H 0.93220 0.29970 -0.16830
C6 C 1.13857(14) 0.29135(5) -0.0466(2)
H5 H 1.18030 0.28890 0.09150
H6 H 1.15510 0.25530 -0.11540
C7 C 1.21468(14) 0.33732(6) -0.1643(2)
H7 H 1.18030 0.33730 -0.30650
H8 H 1.32020 0.33030 -0.16520
C8 C 1.18487(14) 0.39398(6) -0.0688(2)
H9 H 1.23160 0.42340 -0.15110
H10 H 1.22740 0.39520 0.06900
C9 C 1.02245(13) 0.40530(5) -0.0555(2)
H11 H 0.98240 0.40830 -0.19430
H12 H 1.00660 0.44130 0.01380
C10 C 0.69673(13) 0.44533(5) 0.26395(19)
H13 H 0.79590 0.46060 0.27540
H14 H 0.65040 0.46240 0.14360
C11 C 0.61054(14) 0.46087(5) 0.4536(2)
H15 H 0.60110 0.50180 0.46140
H16 H 0.66350 0.44820 0.57570
C12 C 0.45979(14) 0.43460(5) 0.4510(3)
H17 H 0.41000 0.44270 0.58070
H18 H 0.40210 0.45120 0.33980
C13 C 0.46892(13) 0.37175(5) 0.4210(2)
H19 H 0.37000 0.35610 0.41180
H20 H 0.51760 0.35470 0.53950
C14 C 0.55291(13) 0.35762(5) 0.2281(2)
H21 H 0.55880 0.31670 0.21330
H22 H 0.50050 0.37250 0.10890
C15 C 1.03434(13) 0.41085(5) 0.3720(2)
C16 C 0.77400(14) 0.29538(5) 0.42288(19)
#END
