
#######################################################################
#
#                 Cambridge Crystallographic Data Centre
#                                CCDC
#
#######################################################################
#
# If this CIF has been generated from an entry in the Cambridge
# Structural Database, then it will include bibliographic, chemical,
# crystal, experimental, refinement or atomic coordinate data resulting
# from the CCDC's data processing and validation procedures.
#
#######################################################################

data_CSD_CIF_SICZEM
_audit_creation_date 2018-03-21
_audit_creation_method CSD-ConQuest-V1
_database_code_CSD SICZEM
_database_code_depnum_ccdc_archive 'CCDC 1556036'
_chemical_formula_sum 'C16 H17 N1 O4'
_chemical_formula_moiety
;
C16 H17 N1 O4
;
_journal_coden_Cambridge 493
_journal_volume 150
_journal_year 2018
_journal_page_first 864
_journal_name_full 'Eur.J.Med.Chem. '
loop_
_publ_author_name
"D.S.Reddy"
"M.Kongot"
"S.P.Netalkar"
"M.M.Kurjogi"
"R.Kumar"
"F.Avecilla"
"A.Kumar"
_chemical_name_systematic
;
5,7-dimethyl-4-({[(3-oxobutan-2-ylidene)amino]oxy}methyl)-2H-1-benzopyran-2-on
e
;
_cell_volume    707.186
_exptl_crystal_colour 'colorless'
_exptl_crystal_density_diffrn 1.349
_exptl_crystal_description 'block'
_diffrn_ambient_temperature 100
#These two values have been output from a single CSD field.
_refine_ls_R_factor_gt 0.0423
_refine_ls_wR_factor_gt 0.0423
_symmetry_cell_setting triclinic
_symmetry_space_group_name_H-M 'P -1'
_symmetry_Int_Tables_number 2
loop_
_symmetry_equiv_pos_site_id
_symmetry_equiv_pos_as_xyz
1 x,y,z
2 -x,-y,-z
_cell_length_a 7.5936(6)
_cell_length_b 7.6065(6)
_cell_length_c 12.8938(9)
_cell_angle_alpha 102.148(5)
_cell_angle_beta 98.695(5)
_cell_angle_gamma 98.493(5)
_cell_formula_units_Z 2
loop_
_atom_type_symbol
_atom_type_radius_bond
C 0.68
H 0.23
N 0.68
O 0.68
loop_
_atom_site_label
_atom_site_type_symbol
_atom_site_fract_x
_atom_site_fract_y
_atom_site_fract_z
O1 O 0.37998(11) 0.77886(10) 0.42248(6)
N1 N 0.15071(14) 0.21963(13) 0.07532(8)
C1 C 0.41993(15) 0.73663(16) 0.32178(9)
O2 O 0.48549(12) 0.86190(11) 0.28680(7)
C2 C 0.38002(16) 0.54570(15) 0.26651(9)
H1 H 0.40010 0.51350 0.19620
O3 O 0.31147(11) 0.20425(12) 0.13851(7)
C3 C 0.31491(14) 0.41169(15) 0.31199(9)
C4 C 0.27892(14) 0.45937(15) 0.42177(9)
O4 O 0.00401(16) 0.21489(16) -0.19160(8)
C5 C 0.21489(15) 0.33754(16) 0.48385(9)
C6 C 0.18642(16) 0.40983(17) 0.58688(10)
H2 H 0.14300 0.32940 0.62640
C7 C 0.21974(16) 0.59705(17) 0.63391(9)
C8 C 0.28432(15) 0.71635(16) 0.57502(9)
H3 H 0.30880 0.84200 0.60440
C9 C 0.31217(15) 0.64681(15) 0.47196(9)
C10 C 0.19419(18) 0.6665(2) 0.74786(10)
H4 H 0.29880 0.65860 0.79760
H5 H 0.08870 0.59340 0.76030
H6 H 0.17880 0.79160 0.75840
C11 C 0.17953(18) 0.13249(16) 0.44558(11)
H7 H 0.15730 0.07850 0.50440
H8 H 0.28330 0.09440 0.41970
H9 H 0.07550 0.09370 0.38820
C12 C 0.28389(16) 0.21560(15) 0.24705(9)
H10 H 0.36620 0.15050 0.28220
H11 H 0.16100 0.15640 0.24550
C13 C 0.17027(17) 0.21740(16) -0.02223(10)
C14 C 0.00126(18) 0.22692(17) -0.09646(10)
C15 C 0.3421(2) 0.2056(2) -0.06407(12)
H12 H 0.43470 0.30690 -0.02350
H13 H 0.32240 0.20920 -0.13890
H14 H 0.37980 0.09300 -0.05680
C16 C -0.16530(18) 0.25243(18) -0.05070(11)
H15 H -0.15690 0.37950 -0.01730
H16 H -0.17600 0.18150 0.00220
H17 H -0.27000 0.21270 -0.10760
#END
