
#######################################################################
#
#                 Cambridge Crystallographic Data Centre
#                                CCDC
#
#######################################################################
#
# If this CIF has been generated from an entry in the Cambridge
# Structural Database, then it will include bibliographic, chemical,
# crystal, experimental, refinement or atomic coordinate data resulting
# from the CCDC's data processing and validation procedures.
#
#######################################################################

data_CSD_CIF_SIDKAR
_audit_creation_date 1991-04-18
_audit_creation_method CSD-ConQuest-V1
_database_code_CSD SIDKAR
_chemical_formula_sum 'C20 H22 N4 O5'
_chemical_formula_moiety
;
C20 H22 N4 O5
;
_journal_coden_Cambridge 4
_journal_volume 112
_journal_year 1990
_journal_page_first 6123
_journal_name_full 'J.Am.Chem.Soc. '
loop_
_publ_author_name
"K.D.Moeller"
"M.R.Marzabadi"
"D.G.New"
"M.Y.Chiang"
"S.Keith"
_chemical_name_systematic
;
2-(\a-Methoxybenzyl)cyclopentanecarbaldehyde 2,4-dinitrophenylhydrazone
;
_cell_volume   1952.482
_exptl_crystal_colour 'orange'
_exptl_crystal_density_diffrn 1.355
_diffrn_ambient_temperature ?
_diffrn_special_details
;
The study was carried out at room temperature,in the range 283-303K

;
#These two values have been output from a single CSD field.
_refine_ls_R_factor_gt 0.0315
_refine_ls_wR_factor_gt 0.0315
_symmetry_cell_setting triclinic
_symmetry_space_group_name_H-M 'P -1'
_symmetry_Int_Tables_number 2
loop_
_symmetry_equiv_pos_site_id
_symmetry_equiv_pos_as_xyz
1 x,y,z
2 -x,-y,-z
_cell_length_a 7.236(2)
_cell_length_b 17.038(6)
_cell_length_c 17.134(6)
_cell_angle_alpha 86.03(3)
_cell_angle_beta 82.64(3)
_cell_angle_gamma 68.79(2)
_cell_formula_units_Z 4
loop_
_atom_type_symbol
_atom_type_radius_bond
C 0.68
H 0.23
N 0.68
O 0.68
loop_
_atom_site_label
_atom_site_type_symbol
_atom_site_fract_x
_atom_site_fract_y
_atom_site_fract_z
O1 O 0.6054(3) 0.4627(1) 0.1266(1)
O2 O 0.4045(5) 0.3224(2) 0.5592(2)
O3 O 0.4102(5) 0.3791(2) 0.6656(2)
O4 O 0.2765(4) 0.6687(2) 0.6837(2)
O5 O 0.1385(5) 0.7557(2) 0.5936(2)
N1 N 0.2116(4) 0.4349(2) 0.3598(2)
N2 N 0.2715(4) 0.4155(2) 0.4352(2)
N3 N 0.3754(5) 0.3843(2) 0.5974(2)
N4 N 0.2101(5) 0.6843(2) 0.6205(2)
C1 C 0.2593(5) 0.3728(2) 0.3151(2)
C2 C 0.2125(5) 0.3850(2) 0.2322(2)
C3 C 0.1638(6) 0.3117(2) 0.2014(2)
C4 C 0.3000(6) 0.2843(2) 0.1253(2)
C5 C 0.3619(5) 0.3588(2) 0.0980(2)
C6 C 0.3925(5) 0.3896(2) 0.1755(2)
C7 C 0.4203(5) 0.4748(2) 0.1737(2)
C8 C 0.2480(5) 0.5484(2) 0.1451(2)
C9 C 0.0997(5) 0.5987(2) 0.1982(2)
C10 C -0.0720(6) 0.6816(2) 0.0932(3)
C11 C 0.0754(6) 0.6329(2) 0.0400(2)
C12 C 0.2359(5) 0.5665(2) 0.0652(2)
C13 C 0.6833(5) 0.5264(2) 0.1351(2)
C14 C 0.2521(5) 0.4787(2) 0.4818(2)
C15 C 0.3027(5) 0.4675(2) 0.5603(2)
C16 C 0.2875(5) 0.5344(2) 0.6052(2)
C17 C 0.2202(5) 0.6140(2) 0.5739(2)
C18 C 0.1635(5) 0.6287(2) 0.4978(2)
C19 C 0.1801(5) 0.5634(2) 0.4531(2)
O6 O 0.3814(4) 0.0369(1) 0.8821(1)
O7 O 0.4517(4) 0.2063(2) 0.4543(2)
O8 O 0.4799(5) 0.1543(2) 0.3412(2)
O9 O 0.7790(4) -0.1351(2) 0.2951(2)
O10 O 0.9453(5) -0.2202(2) 0.3810(2)
N5 N 0.7277(4) 0.0946(2) 0.6398(2)
N6 N 0.6522(4) 0.1147(2) 0.5673(2)
N7 N 0.5170(5) 0.1472(2) 0.4089(2)
N8 N 0.8433(5) -0.1499(2) 0.3588(2)
C20 C 0.6559(6) 0.1519(2) 0.6903(2)
C21 C 0.7238(6) 0.1369(2) 0.7709(2)
C22 C 0.7499(7) 0.2151(2) 0.8020(2)
C23 C 0.6815(6) 0.2185(2) 0.8878(2)
C24 C 0.6261(5) 0.1418(2) 0.9099(2)
C25 C 0.5696(5) 0.1195(2) 0.8330(2)
C26 C 0.5549(5) 0.0325(2) 0.8298(2)
C27 C 0.7375(5) -0.0405(2) 0.8492(2)
C28 C 0.8796(6) -0.0838(2) 0.7898(2)
C29 C -0.0603(6) 0.6650(2) 0.1725(2)
C30 C 1.0762(7) -0.1762(3) 0.8840(3)
C31 C 0.9372(6) -0.1346(2) 0.9432(3)
C32 C 0.7685(5) -0.0678(2) 0.9265(2)
C33 C 0.3049(6) -0.0260(2) 0.8691(2)
C34 C 0.6986(5) 0.0533(2) 0.5150(2)
C35 C 0.6398(5) 0.0653(2) 0.4383(2)
C36 C 0.6898(5) -0.0009(2) 0.3871(2)
C37 C 0.7980(5) -0.0801(2) 0.4118(2)
C38 C 0.8613(5) -0.0952(2) 0.4865(2)
C39 C 0.8133(5) -0.0311(2) 0.5365(2)
C40 C 1.0481(7) -0.1508(3) 0.8073(3)
H1 H 0.32370 0.36150 0.45170
H2 H 0.32330 0.31680 0.33530
H3 H 0.10190 0.43680 0.22750
H4 H 0.02660 0.33060 0.19150
H5 H 0.18750 0.26620 0.23960
H6 H 0.23110 0.27120 0.08660
H7 H 0.41470 0.23550 0.13480
H8 H 0.25830 0.40180 0.07300
H9 H 0.48250 0.34230 0.06240
H10 H 0.50960 0.34790 0.19370
H11 H 0.43490 0.48590 0.22630
H12 H 0.10890 0.58800 0.25360
H13 H -0.18170 0.72750 0.07480
H14 H 0.06810 0.64450 -0.01530
H15 H 0.33890 0.53230 0.02780
H16 H 0.80670 0.51440 0.10160
H17 H 0.59030 0.58010 0.12000
H18 H 0.70690 0.52790 0.18880
H19 H 0.32150 0.52460 0.65830
H20 H 0.11650 0.68530 0.47690
H21 H 0.13780 0.57440 0.40120
H22 H 0.57320 0.16760 0.55580
H23 H 0.55600 0.20480 0.67780
H24 H 0.84760 0.08990 0.76930
H25 H 0.67100 0.26480 0.77490
H26 H 0.88680 0.21100 0.79370
H27 H 0.56670 0.26850 0.89870
H28 H 0.78420 0.21910 0.91780
H29 H 0.51550 0.15360 0.95030
H30 H 0.73760 0.09620 0.92750
H31 H 0.44230 0.16090 0.82400
H32 H 0.52930 0.02560 0.77760
H33 H 0.86040 -0.06620 0.73610
H34 H -0.16530 0.69850 0.20960
H35 H 1.19450 -0.22220 0.89540
H36 H 0.95810 -0.15310 0.99660
H37 H 0.67070 -0.03910 0.96830
H38 H 0.19040 -0.02010 0.90660
H39 H 0.26650 -0.01950 0.81680
H40 H 0.40450 -0.08080 0.87550
H41 H 0.64950 0.00920 0.33490
H42 H 0.93600 -0.15180 0.50250
H43 H 0.86190 -0.04190 0.58720
H44 H 1.14580 -0.17990 0.76550
#END
