
#######################################################################
#
#                 Cambridge Crystallographic Data Centre
#                                CCDC
#
#######################################################################
#
# If this CIF has been generated from an entry in the Cambridge
# Structural Database, then it will include bibliographic, chemical,
# crystal, experimental, refinement or atomic coordinate data resulting
# from the CCDC's data processing and validation procedures.
#
#######################################################################

data_CSD_CIF_SIDQEB
_audit_creation_date 1999-02-09
_audit_creation_method CSD-ConQuest-V1
_database_code_CSD SIDQEB
_database_code_depnum_ccdc_archive 'CCDC 106946'
_database_code_depnum_ccdc_fiz 'CSD 409191'
_chemical_formula_sum 'C17 H12 N2 O3'
_chemical_formula_moiety
;
C17 H12 N2 O3
;
_journal_coden_Cambridge 1267
_journal_volume 213
_journal_year 1998
_journal_page_first 489
_journal_name_full 'Z.Kristallogr.-New Cryst.Struct. '
loop_
_publ_author_name
"G.Y.Yeap"
"S.G.Teoh"
"S.B.Teo"
"G.Valle"
"S.Calogero"
_chemical_name_systematic
;
1-((3-Nitrophenylimino)methyl)-2-naphthol
;
_cell_volume   1381.904
_exptl_crystal_colour 'yellow'
_exptl_crystal_density_diffrn 1.405
_exptl_crystal_description 'needle'
_exptl_crystal_preparation 'dichloromethane/hexane'
_diffrn_ambient_temperature 293
#These two values have been output from a single CSD field.
_refine_ls_R_factor_gt 0.0498
_refine_ls_wR_factor_gt 0.0498
_symmetry_cell_setting orthorhombic
_symmetry_space_group_name_H-M 'P 21 21 21'
_symmetry_Int_Tables_number 19
loop_
_symmetry_equiv_pos_site_id
_symmetry_equiv_pos_as_xyz
1 x,y,z
2 -x,1/2-y,1/2+z
3 1/2-x,1/2+y,-z
4 1/2+x,-y,1/2-z
_cell_length_a 14.156(2)
_cell_length_b 15.768(2)
_cell_length_c 6.191(1)
_cell_angle_alpha 90
_cell_angle_beta 90
_cell_angle_gamma 90
_cell_formula_units_Z 4
loop_
_atom_type_symbol
_atom_type_radius_bond
C 0.68
H 0.23
N 0.68
O 0.68
loop_
_atom_site_label
_atom_site_type_symbol
_atom_site_fract_x
_atom_site_fract_y
_atom_site_fract_z
O1 O 0.8008(2) 0.33123(12) -0.6841(4)
O2 O 0.7349(2) 0.2668(2) -0.9524(4)
O3 O 0.9914(2) 0.18317(11) 0.0986(3)
N1 N 0.7673(2) 0.2682(2) -0.7687(5)
N2 N 0.87740(15) 0.10637(12) -0.1558(3)
C1 C 0.76507(12) 0.19089(9) -0.6448(3)
C2 C 0.82051(12) 0.18330(8) -0.4605(3)
C3 C 0.81850(11) 0.10882(10) -0.3405(2)
C4 C 0.76105(13) 0.04193(9) -0.4048(3)
C5 C 0.70561(13) 0.04952(10) -0.5891(3)
C6 C 0.70762(12) 0.12400(12) -0.7091(3)
C7 C 0.8856(2) 0.0403(2) -0.0287(4)
C8 C 0.9432(2) 0.03979(14) 0.1572(4)
C9 C 0.94901(12) -0.03559(8) 0.2982(2)
C10 C 0.90008(13) -0.10955(10) 0.2492(3)
C11 C 0.90377(14) -0.17838(9) 0.3892(3)
C12 C 0.95639(15) -0.17324(10) 0.5783(3)
C13 C 1.00532(13) -0.09928(11) 0.6274(2)
C14 C 1.00163(12) -0.03046(9) 0.4874(3)
C15 C 1.0530(2) 0.0460(2) 0.5359(5)
C16 C 1.0501(2) 0.1140(2) 0.4076(5)
C17 C 0.9947(2) 0.1145(2) 0.2138(4)
H1 H 0.9454(38) 0.1698(28) -0.0382(71)
H2 H 0.8575(22) 0.2271(16) -0.4232(47)
H3 H 0.7629(22) -0.0085(15) -0.3253(51)
H4 H 0.6637(27) -0.0002(17) -0.6503(57)
H5 H 0.6676(24) 0.1318(18) -0.8249(58)
H6 H 0.8511(18) -0.0139(14) -0.0619(44)
H7 H 0.8678(18) -0.1173(15) 0.1127(45)
H8 H 0.8638(22) -0.2324(16) 0.3493(49)
H9 H 0.9539(21) -0.2164(15) 0.6714(47)
H10 H 1.0436(20) -0.1002(16) 0.7550(55)
H11 H 1.0875(22) 0.0513(18) 0.6779(58)
H12 H 1.0859(26) 0.1642(21) 0.4319(55)
#END
