
#######################################################################
#
#                 Cambridge Crystallographic Data Centre
#                                CCDC
#
#######################################################################
#
# If this CIF has been generated from an entry in the Cambridge
# Structural Database, then it will include bibliographic, chemical,
# crystal, experimental, refinement or atomic coordinate data resulting
# from the CCDC's data processing and validation procedures.
#
#######################################################################

data_CSD_CIF_SIFDAN
_audit_creation_date 2007-08-28
_audit_creation_method CSD-ConQuest-V1
_database_code_CSD SIFDAN
_database_code_depnum_ccdc_archive 'CCDC 623587'
_chemical_formula_sum 'C19 H30 N4 O7'
_chemical_formula_moiety
;
C19 H30 N4 O7
;
_journal_coden_Cambridge 1291
_journal_year 2007
_journal_page_first 2511
_journal_name_full 'Eur.J.Org.Chem. '
loop_
_publ_author_name
"L.Fischer"
"V.Semetey"
"J.-M.Lozano"
"A.-P.Schaffner"
"J.-P.Briand"
"C.Didierjean"
"G.Guichard"
_chemical_name_systematic
;
t-butyl 
2-((1-((((2,5-dioxopyrrolidin-1-yl)oxy)carbonyl)amino)-2-methylpropyl)carbamoy
l)pyrrolidine-1-carboxylate
;
_chemical_melting_point 421.15
_cell_volume   1181.346
_exptl_crystal_colour 'colorless'
_exptl_crystal_density_diffrn 1.199
_exptl_crystal_description 'prism'
_diffrn_ambient_temperature 293
_refine_special_details
;
Three C atoms are disordered over two sites with occupancies of 0.66:0.34.

;
#These two values have been output from a single CSD field.
_refine_ls_R_factor_gt 0.0504
_refine_ls_wR_factor_gt 0.0504
_symmetry_cell_setting monoclinic
_symmetry_space_group_name_H-M 'P 21'
_symmetry_Int_Tables_number 4
loop_
_symmetry_equiv_pos_site_id
_symmetry_equiv_pos_as_xyz
1 x,y,z
2 -x,1/2+y,-z
_cell_length_a 6.3317(3)
_cell_length_b 9.9550(5)
_cell_length_c 18.9409(12)
_cell_angle_alpha 90
_cell_angle_beta 98.311(2)
_cell_angle_gamma 90
_cell_formula_units_Z 2
loop_
_atom_type_symbol
_atom_type_radius_bond
C 0.68
H 0.23
N 0.68
O 0.68
loop_
_atom_site_label
_atom_site_type_symbol
_atom_site_fract_x
_atom_site_fract_y
_atom_site_fract_z
C1 C -0.3030(8) 0.9372(7) 0.5268(3)
C2 C -0.229(1) 0.8669(9) 0.4632(3)
H1 H -0.32700 0.79620 0.44690
H2 H -0.08930 0.82980 0.47730
H3 H -0.22400 0.93060 0.42540
C3 C -0.1577(12) 1.0480(7) 0.5559(4)
H4 H -0.01510 1.01400 0.56760
H5 H -0.20460 1.08380 0.59810
H6 H -0.15980 1.11770 0.52080
C4 C -0.5312(11) 0.9846(8) 0.5061(4)
H7 H -0.61870 0.91040 0.48740
H8 H -0.53540 1.05340 0.47040
H9 H -0.58390 1.02010 0.54730
O1 O -0.3255(5) 0.8388(4) 0.5829(2)
C5 C -0.1653(9) 0.7592(6) 0.6130(3)
O2 O 0.0181(5) 0.7618(4) 0.59887(19)
N1 N -0.2316(6) 0.6756(5) 0.6598(2)
C6 C -0.1016(8) 0.5680(6) 0.6949(3)
H10 H -0.01110 0.60020 0.73720
H11 H -0.01310 0.52750 0.66290
C7 C -0.2631(13) 0.4715(9) 0.7137(8)
H12 H -0.20630 0.41950 0.75550
H13 H -0.30750 0.41050 0.67440
C8 C -0.4485(11) 0.5581(6) 0.7289(4)
H14 H -0.43240 0.58240 0.77900
H15 H -0.58260 0.51070 0.71650
C9? C -0.1016(8) 0.5680(6) 0.6949(3)
H16? H 0.03720 0.60120 0.71610
H17? H -0.08200 0.49690 0.66140
C10? C -0.2289(19) 0.518(3) 0.7523(11)
H18? H -0.21850 0.42090 0.75680
H19? H -0.17590 0.55800 0.79810
C11? C -0.4485(11) 0.5581(6) 0.7289(4)
H20? H -0.51950 0.57810 0.76970
H21? H -0.52580 0.48640 0.70170
C12 C -0.4421(8) 0.6834(6) 0.6823(3)
H22 H -0.55420 0.67920 0.64090
C13 C -0.4684(8) 0.8059(6) 0.7258(3)
O3 O -0.3174(5) 0.8608(4) 0.7635(2)
N2 N -0.6699(5) 0.8469(5) 0.7257(2)
H23 H -0.76480 0.81930 0.69170
C14 C -0.7393(8) 0.9351(5) 0.7795(3)
H24 H -0.61320 0.96360 0.81230
C15 C -0.8547(9) 1.0584(6) 0.7484(3)
H25 H -0.97450 1.02990 0.71290
C16 C -0.7070(12) 1.1440(7) 0.7117(5)
H26 H -0.78270 1.22160 0.69130
H27 H -0.65610 1.09280 0.67460
H28 H -0.58800 1.17220 0.74570
C17 C -0.9409(13) 1.1387(7) 0.8047(5)
H29 H -1.01430 1.21630 0.78340
H30 H -0.82530 1.16680 0.84010
H31 H -1.03840 1.08450 0.82680
N3 N -0.8756(6) 0.8560(5) 0.8194(2)
H32 H -1.01190 0.86620 0.81200
C18 C -0.7863(9) 0.7679(6) 0.8673(3)
O4 O -0.6022(6) 0.7491(4) 0.8887(2)
O5 O -0.9496(6) 0.6948(5) 0.8925(2)
N4 N -0.8658(8) 0.5929(6) 0.9384(4)
C19 C -0.7853(10) 0.4771(8) 0.9115(5)
O6 O -0.7944(9) 0.4541(5) 0.8485(3)
C20 C -0.6896(11) 0.3994(7) 0.9749(4)
H33 H -0.54280 0.37610 0.97120
H34 H -0.76930 0.31730 0.97910
C21 C -0.6997(15) 0.4892(9) 1.0385(5)
H35 H -0.78080 0.44650 1.07200
H36 H -0.55720 0.50820 1.06270
C22 C -0.8071(13) 0.6157(11) 1.0099(5)
O7 O -0.8320(11) 0.7199(7) 1.0398(3)
#END
