
#######################################################################
#
#                 Cambridge Crystallographic Data Centre
#                                CCDC
#
#######################################################################
#
# If this CIF has been generated from an entry in the Cambridge
# Structural Database, then it will include bibliographic, chemical,
# crystal, experimental, refinement or atomic coordinate data resulting
# from the CCDC's data processing and validation procedures.
#
#######################################################################

data_CSD_CIF_SIHCAO
_audit_creation_date 2007-08-28
_audit_creation_method CSD-ConQuest-V1
_database_code_CSD SIHCAO
_database_code_depnum_ccdc_archive 'CCDC 654999'
_chemical_formula_sum 'C30 H20 N4 O10'
_chemical_formula_moiety
;
C30 H20 N4 O10
;
_journal_coeditor_code "IUCr CV2260"
_journal_coden_Cambridge 1370
_journal_volume 63
_journal_year 2007
_journal_page_first o3265
_journal_name_full 'Acta Crystallogr.,Sect.E:Struct.Rep.Online '
loop_
_publ_author_name
"Ren-Gen Xiong"
_chemical_name_systematic
;
1,2-bis(4-Nitrobenzoyl)-3,4-bis(4-nitrophenyl)cyclobutane
;
_cell_volume   2713.081
_exptl_crystal_colour 'yellow'
_exptl_crystal_density_diffrn 1.46
_exptl_crystal_description 'block'
_diffrn_ambient_temperature 291
#These two values have been output from a single CSD field.
_refine_ls_R_factor_gt 0.0546
_refine_ls_wR_factor_gt 0.0546
_symmetry_cell_setting monoclinic
_symmetry_space_group_name_H-M 'P 21/c'
_symmetry_Int_Tables_number 14
loop_
_symmetry_equiv_pos_site_id
_symmetry_equiv_pos_as_xyz
1 x,y,z
2 -x,1/2+y,1/2-z
3 -x,-y,-z
4 x,-1/2-y,-1/2+z
_cell_length_a 17.1005(11)
_cell_length_b 10.6509(6)
_cell_length_c 15.0484(9)
_cell_angle_alpha 90
_cell_angle_beta 98.1630(11)
_cell_angle_gamma 90
_cell_formula_units_Z 4
loop_
_atom_type_symbol
_atom_type_radius_bond
C 0.68
H 0.23
N 0.68
O 0.68
loop_
_atom_site_label
_atom_site_type_symbol
_atom_site_fract_x
_atom_site_fract_y
_atom_site_fract_z
C1 C 0.24207(14) 0.1731(2) 0.27043(15)
H1 H 0.24860 0.19380 0.33450
C2 C 0.27985(14) 0.2795(2) 0.21614(15)
H2 H 0.31390 0.33180 0.25900
C3 C 0.33138(13) 0.1800(2) 0.17889(15)
H3 H 0.30640 0.15440 0.11900
C4 C 0.30906(14) 0.0838(2) 0.25000(15)
H4 H 0.28860 0.00480 0.22250
C5 C 0.15684(14) 0.1418(2) 0.23690(16)
C6 C 0.13487(16) 0.0522(3) 0.17200(18)
H5 H 0.17310 0.00350 0.15020
C7 C 0.05493(16) 0.0347(3) 0.13901(19)
H6 H 0.03960 -0.02550 0.09530
C8 C 0.00024(13) 0.1065(2) 0.17144(16)
C9 C 0.02065(15) 0.1967(2) 0.23477(17)
H7 H -0.01800 0.24660 0.25460
C10 C 0.09907(15) 0.2134(2) 0.26906(18)
H8 H 0.11330 0.27260 0.31380
C11 C 0.22659(14) 0.3643(2) 0.15479(17)
C12 C 0.20188(15) 0.4766(2) 0.18928(17)
H9 H 0.22020 0.49810 0.24850
C13 C 0.15098(16) 0.5565(2) 0.13770(18)
H10 H 0.13500 0.63130 0.16140
C14 C 0.12455(16) 0.5239(3) 0.05148(19)
C15 C 0.14666(15) 0.4132(2) 0.01427(18)
H11 H 0.12710 0.39220 -0.04470
C16 C 0.19831(16) 0.3346(2) 0.06639(17)
H12 H 0.21440 0.26050 0.04180
C17 C 0.41546(15) 0.2195(2) 0.17426(15)
C18 C 0.47535(14) 0.1283(2) 0.15019(15)
C19 C 0.54917(15) 0.1712(3) 0.14035(18)
H13 H 0.56150 0.25540 0.15130
C20 C 0.60527(15) 0.0923(2) 0.11459(17)
H14 H 0.65560 0.12200 0.10980
C21 C 0.58645(14) -0.0291(2) 0.09623(15)
C22 C 0.51468(15) -0.0784(2) 0.10701(16)
H15 H 0.50370 -0.16310 0.09640
C23 C 0.45837(14) 0.0018(2) 0.13435(16)
H16 H 0.40900 -0.02950 0.14210
C24 C 0.36941(14) 0.0631(2) 0.33040(15)
C25 C 0.34748(13) -0.0183(2) 0.40435(15)
C26 C 0.39091(14) -0.0081(2) 0.48922(16)
H17 H 0.43130 0.05090 0.49920
C27 C 0.37552(16) -0.0831(2) 0.55852(18)
H18 H 0.40520 -0.07660 0.61510
C28 C 0.31505(15) -0.1683(2) 0.54202(17)
C29 C 0.27006(15) -0.1799(2) 0.46023(17)
H19 H 0.22970 -0.23910 0.45100
C30 C 0.28551(14) -0.1019(2) 0.39095(17)
H20 H 0.25390 -0.10610 0.33540
N1 N -0.08286(14) 0.0903(2) 0.13593(15)
N2 N 0.07123(13) 0.6107(2) -0.00524(16)
N3 N 0.64516(13) -0.1109(2) 0.06240(13)
N4 N 0.30011(13) -0.2532(2) 0.61511(15)
O1 O -0.13121(11) 0.16035(19) 0.16093(12)
O2 O -0.10009(11) 0.00350(18) 0.08137(13)
O3 O 0.04865(12) 0.57942(18) -0.08239(15)
O4 O 0.05367(11) 0.70834(19) 0.02810(13)
O5 O 0.71007(11) -0.06971(17) 0.06117(12)
O6 O 0.62652(10) -0.21424(16) 0.03760(11)
O7 O 0.43348(10) 0.32942(16) 0.18512(12)
O8 O 0.33738(11) -0.24460(17) 0.68674(12)
O9 O 0.25094(11) -0.33148(18) 0.59804(12)
O10 O 0.43402(10) 0.11166(17) 0.33775(12)
#END
