
#######################################################################
#
#                 Cambridge Crystallographic Data Centre
#                                CCDC
#
#######################################################################
#
# If this CIF has been generated from an entry in the Cambridge
# Structural Database, then it will include bibliographic, chemical,
# crystal, experimental, refinement or atomic coordinate data resulting
# from the CCDC's data processing and validation procedures.
#
#######################################################################

data_CSD_CIF_SIHXOY
_audit_creation_date 2013-07-29
_audit_creation_method CSD-ConQuest-V1
_database_code_CSD SIHXOY
_database_code_depnum_ccdc_archive 'CCDC 934100'
_chemical_formula_sum 'C25 H34 N4 O4'
_chemical_formula_moiety
;
C25 H34 N4 O4
;
_journal_coden_Cambridge 1291
_journal_year 2013
_journal_page_first 5934
_journal_name_full 'Eur.J.Org.Chem. '
loop_
_publ_author_name
"M.Bender"
"M.Schmidtmann"
"J.Rullkotter"
"R.E.Summons"
"J.Christoffers"
_chemical_name_systematic
;
17\a-Methyl-5\a-androstane-16-(2,4-dinitrophenyl)hydrazone
;
_cell_volume   2331.422
_exptl_crystal_colour 'gold'
_exptl_crystal_density_diffrn 1.295
_exptl_crystal_description 'stick'
_diffrn_ambient_temperature 120
#These two values have been output from a single CSD field.
_refine_ls_R_factor_gt 0.037
_refine_ls_wR_factor_gt 0.037
_symmetry_cell_setting orthorhombic
_symmetry_space_group_name_H-M 'P 21 21 21'
_symmetry_Int_Tables_number 19
loop_
_symmetry_equiv_pos_site_id
_symmetry_equiv_pos_as_xyz
1 x,y,z
2 1/2-x,-y,1/2+z
3 -x,1/2+y,1/2-z
4 1/2+x,1/2-y,-z
_cell_length_a 6.2280(2)
_cell_length_b 11.6950(4)
_cell_length_c 32.0090(11)
_cell_angle_alpha 90
_cell_angle_beta 90
_cell_angle_gamma 90
_cell_formula_units_Z 4
loop_
_atom_type_symbol
_atom_type_radius_bond
C 0.68
H 0.23
N 0.68
O 0.68
loop_
_atom_site_label
_atom_site_type_symbol
_atom_site_fract_x
_atom_site_fract_y
_atom_site_fract_z
O1 O 0.38200(16) -0.00805(8) 0.65248(3)
O2 O 0.36219(15) -0.17975(8) 0.67746(3)
O3 O -0.27655(17) -0.31366(7) 0.74248(3)
O4 O -0.48966(17) -0.19170(8) 0.77204(3)
N1 N -0.00543(18) 0.25030(8) 0.66896(3)
N2 N 0.09738(17) 0.14561(8) 0.67166(3)
H1 H 0.22360 0.13570 0.65990
N3 N 0.28952(18) -0.08257(9) 0.67352(3)
N4 N -0.33325(18) -0.21535(9) 0.75013(3)
C1 C 0.1796(2) 0.65834(9) 0.47225(4)
H2 H 0.05610 0.69980 0.48450
H3 H 0.31170 0.70030 0.48000
C2 C 0.1579(2) 0.65909(11) 0.42462(4)
H4 H 0.01520 0.62840 0.41680
H5 H 0.16640 0.73890 0.41450
C3 C 0.3317(2) 0.58821(11) 0.40332(4)
H6 H 0.47220 0.62670 0.40670
H7 H 0.30040 0.58300 0.37310
C4 C 0.3442(2) 0.46805(10) 0.42176(4)
H8 H 0.46680 0.42660 0.40920
H9 H 0.21130 0.42570 0.41480
C5 C 0.37193(18) 0.47207(10) 0.46920(4)
H10 H 0.50620 0.51660 0.47450
C6 C 0.4090(2) 0.35338(10) 0.48795(4)
H11 H 0.28070 0.30530 0.48300
H12 H 0.53260 0.31670 0.47380
C7 C 0.4528(2) 0.3601(1) 0.53476(4)
H13 H 0.59410 0.39690 0.53930
H14 H 0.46100 0.28160 0.54620
C8 C 0.28154(18) 0.42696(9) 0.55881(4)
H15 H 0.14340 0.38370 0.55680
C9 C 0.24697(19) 0.54560(9) 0.53889(3)
H16 H 0.38780 0.58640 0.54060
C10 C 0.18927(18) 0.53728(9) 0.49148(3)
C11 C 0.0872(2) 0.61576(10) 0.56478(4)
H17 H 0.07000 0.69220 0.55200
H18 H -0.05460 0.57740 0.56440
C12 C 0.1610(2) 0.6296(1) 0.60984(4)
H19 H 0.05010 0.67210 0.62570
H20 H 0.29460 0.67550 0.61030
C13 C 0.2021(2) 0.51515(10) 0.63126(4)
H21 H 0.27730 0.53070 0.65830
C14 C 0.3446(2) 0.43392(10) 0.60530(4)
H22 H 0.49800 0.45820 0.60770
C15 C 0.3139(2) 0.31732(10) 0.62740(4)
H23 H 0.31760 0.25380 0.60700
H24 H 0.42720 0.30470 0.64860
C16 C 0.0952(2) 0.32612(10) 0.64778(4)
C17 C 0.0005(2) 0.44369(10) 0.64091(4)
H25 H -0.08940 0.44080 0.61500
C18 C -0.03024(19) 0.47931(11) 0.48540(4)
H26 H -0.14260 0.52670 0.49800
H27 H -0.02900 0.40400 0.49880
H28 H -0.05900 0.47030 0.45550
C19 C -0.1393(2) 0.48827(11) 0.67635(4)
H29 H -0.05180 0.49730 0.70160
H30 H -0.25560 0.43380 0.68180
H31 H -0.20050 0.56240 0.66850
C20 C 0.0028(2) 0.05863(10) 0.69252(3)
C21 C 0.0895(2) -0.05363(10) 0.69405(4)
C22 C -0.0192(2) -0.14311(10) 0.71323(4)
H32 H 0.03950 -0.21810 0.71340
C23 C -0.2130(2) -0.12104(10) 0.73197(4)
C24 C -0.2993(2) -0.01039(10) 0.73333(4)
H33 H -0.43020 0.00370 0.74770
C25 C -0.1934(2) 0.07709(10) 0.71388(4)
H34 H -0.25280 0.15190 0.71470
#END
