
#######################################################################
#
#                 Cambridge Crystallographic Data Centre
#                                CCDC
#
#######################################################################
#
# If this CIF has been generated from an entry in the Cambridge
# Structural Database, then it will include bibliographic, chemical,
# crystal, experimental, refinement or atomic coordinate data resulting
# from the CCDC's data processing and validation procedures.
#
#######################################################################

data_CSD_CIF_SIKCAT
_audit_creation_date 2018-08-14
_audit_creation_method CSD-ConQuest-V1
_database_code_CSD SIKCAT
_database_code_depnum_ccdc_archive 'CCDC 1453902'
_chemical_formula_sum 'C18 H16 N2 O8'
_chemical_formula_moiety
;
C18 H16 N2 O8
;
_journal_coden_Cambridge 2059
_journal_volume 35
_journal_year 2016
_journal_page_first 1890
_journal_name_full 'Latin American J.Pharm. '
loop_
_publ_author_name
"Liang Xue"
"Bo Cao"
"Hai-Bin Hou"
"Jiang-Wei Yang"
"Jian-Lin Zhang"
"Yu-Tao Chen"
_chemical_name_systematic
;
ethyl 
2-amino-6-(hydroxymethyl)-4-(3-nitrophenyl)-8-oxo-4,8-dihydropyrano[3,2-b]pyra
n-3-carboxylate
;
_cell_volume   1752.816
_exptl_crystal_colour 'colorless'
_exptl_crystal_density_diffrn 1.471
_exptl_crystal_description 'block'
_diffrn_ambient_temperature 296
#These two values have been output from a single CSD field.
_refine_ls_R_factor_gt 0.063
_refine_ls_wR_factor_gt 0.063
_symmetry_cell_setting monoclinic
_symmetry_space_group_name_H-M 'P 21/c'
_symmetry_Int_Tables_number 14
loop_
_symmetry_equiv_pos_site_id
_symmetry_equiv_pos_as_xyz
1 x,y,z
2 -x,1/2+y,1/2-z
3 -x,-y,-z
4 x,-1/2-y,-1/2+z
_cell_length_a 11.768(11)
_cell_length_b 14.478(12)
_cell_length_c 10.311(9)
_cell_angle_alpha 90
_cell_angle_beta 93.839(19)
_cell_angle_gamma 90
_cell_formula_units_Z 4
loop_
_atom_type_symbol
_atom_type_radius_bond
C 0.68
H 0.23
N 0.68
O 0.68
loop_
_atom_site_label
_atom_site_type_symbol
_atom_site_fract_x
_atom_site_fract_y
_atom_site_fract_z
O1 O 0.8920(2) 0.18744(14) 0.98687(19)
O2 O 0.8441(2) -0.04451(15) 1.0944(2)
O3 O 0.9493(2) 0.03365(15) 1.3108(2)
O4 O 0.7527(2) -0.02974(16) 0.6489(2)
O5 O 0.7675(2) -0.17183(17) 0.7339(2)
C1 C 0.9600(3) 0.1767(2) 1.2053(3)
H1 H 0.99290 0.20590 1.27890
C2 C 0.7981(3) -0.0386(2) 0.8674(3)
C3 C 0.8027(3) 0.0651(2) 0.8630(3)
H2 H 0.85040 0.08280 0.79270
C4 C 0.8774(3) 0.0466(2) 1.0923(3)
N1 N 0.8046(3) -0.17678(19) 0.9967(3)
H3 H 0.78600 -0.21190 0.93140
H4 H 0.81690 -0.20020 1.07290
C5 C 0.8597(3) 0.0974(2) 0.9872(3)
C6 C 0.9306(3) 0.0818(2) 1.2123(3)
C7 C 0.8142(3) -0.0862(2) 0.9796(3)
C8 C 0.6880(3) 0.1123(2) 0.8391(3)
C9 C 0.9416(3) 0.2248(2) 1.0965(3)
C10 C 0.6811(3) 0.1971(2) 0.7816(3)
H5 H 0.74650 0.22540 0.75480
C11 C 0.9718(4) 0.3228(2) 1.0790(3)
H6 H 1.01070 0.33050 0.99970
H7 H 0.90360 0.36060 1.07290
C12 C 0.7717(3) -0.0883(3) 0.7470(3)
O6 O 1.0424(3) 0.34957(16) 1.1854(3)
H8 H 1.04730 0.40610 1.18710
C13 C 0.5784(4) 0.2405(3) 0.7633(3)
O7 O 0.6590(3) 0.3666(2) 0.6715(4)
C14 C 0.4807(4) 0.2025(3) 0.7997(4)
H9 H 0.41170 0.23350 0.78680
C15 C 0.4862(4) 0.1175(3) 0.8558(4)
H10 H 0.42010 0.08940 0.88090
C16 C 0.5888(3) 0.0729(3) 0.8756(3)
H11 H 0.59120 0.01490 0.91460
N2 N 0.5727(4) 0.3310(3) 0.7022(4)
O8 O 0.4829(4) 0.3681(3) 0.6861(5)
C17 C 0.7179(5) -0.0681(3) 0.5235(4)
H12 H 0.78220 -0.09710 0.48570
H13 H 0.65930 -0.11440 0.53220
C18 C 0.6751(7) 0.0052(4) 0.4429(5)
H14 H 0.61140 0.03330 0.48100
H15 H 0.65110 -0.01860 0.35850
H16 H 0.73380 0.05040 0.43450
#END
