
#######################################################################
#
#                 Cambridge Crystallographic Data Centre
#                                CCDC
#
#######################################################################
#
# If this CIF has been generated from an entry in the Cambridge
# Structural Database, then it will include bibliographic, chemical,
# crystal, experimental, refinement or atomic coordinate data resulting
# from the CCDC's data processing and validation procedures.
#
#######################################################################

data_CSD_CIF_SIKGIC
_audit_creation_date 1991-07-10
_audit_creation_method CSD-ConQuest-V1
_database_code_CSD SIKGIC
_chemical_formula_sum 'C20 H15 N3 O9'
_chemical_formula_moiety
;
C20 H15 N3 O9
;
_journal_coden_Cambridge 35
_journal_volume 55
_journal_year 1990
_journal_page_first 5995
_journal_name_full 'J.Org.Chem. '
loop_
_publ_author_name
"M.Cushman"
"P.Chinnasamy"
"D.A.Patrick"
"A.T.McKenzie"
"P.H.Toma"
_chemical_name_systematic
;
12,13-Dinitro-oxyberberine
;
_chemical_melting_point 504.15
_cell_volume   1889.069
_exptl_crystal_colour 'yellow'
_exptl_crystal_density_diffrn 1.552
_exptl_special_details
;
Melting point range 504.15-505.15K

;
_diffrn_ambient_temperature ?
_diffrn_special_details
;
The study was carried out at room temperature,in the range 283-303K

;
#These two values have been output from a single CSD field.
_refine_ls_R_factor_gt 0.04
_refine_ls_wR_factor_gt 0.04
_symmetry_cell_setting monoclinic
_symmetry_space_group_name_H-M 'P 21'
_symmetry_Int_Tables_number 4
loop_
_symmetry_equiv_pos_site_id
_symmetry_equiv_pos_as_xyz
1 x,y,z
2 -x,1/2+y,-z
_cell_length_a 8.249(2)
_cell_length_b 14.263(2)
_cell_length_c 16.193(2)
_cell_angle_alpha 90
_cell_angle_beta 97.46(1)
_cell_angle_gamma 90
_cell_formula_units_Z 4
loop_
_atom_type_symbol
_atom_type_radius_bond
C 0.68
H 0.23
N 0.68
O 0.68
loop_
_atom_site_label
_atom_site_type_symbol
_atom_site_fract_x
_atom_site_fract_y
_atom_site_fract_z
O1 O -0.2110(6) 0.04060 0.8228(3)
O2 O -0.3088(6) 0.1116(3) 0.6982(3)
O3 O 0.0107(6) 0.5988(3) 0.9109(2)
O4 O 0.0403(5) 0.7575(3) 0.8300(2)
O5 O -0.2012(5) 0.5192(3) 1.1509(2)
O6 O -0.3298(6) 0.6152(4) 1.2373(2)
O7 O -0.5557(6) 0.8602(3) 0.7688(3)
O8 O -0.4070(6) 0.8268(3) 0.6364(2)
O9 O 0.0179(6) 0.8439(3) 0.6849(2)
O10 O -0.3581(6) 0.7030(3) 0.5206(2)
O11 O 0.1983(5) 0.4883(3) 0.5559(2)
O12 O 0.0573(7) 0.5911(4) 0.4771(2)
O13 O -0.1274(5) 0.4261(3) 0.5676(2)
O14 O 0.0544(6) 0.3238(3) 0.6158(3)
O15 O -0.4648(6) 0.3920(3) 0.6445(3)
O16 O -0.6284(5) 0.4286(3) 0.7344(2)
O17 O -0.3432(5) 0.4526(3) 0.8426(2)
O18 O -0.5544(5) 0.4582(3) 0.9100(2)
N1 N 0.0289(5) 0.4608(3) 0.8450(2)
N2 N -0.5397(5) 0.7478(3) 0.8667(3)
N3 N 0.1075(6) 0.5560(4) 0.5452(3)
N4 N -0.0241(6) 0.3953(3) 0.6223(3)
N5 N -0.5259(6) 0.4485(3) 0.6886(3)
N6 N -0.4627(6) 0.4930(3) 0.8643(3)
C1 C -0.1638(7) 0.2605(4) 0.7263(3)
C2 C -0.2025(7) 0.1708(4) 0.7461(4)
C3 C -0.1453(7) 0.1288(4) 0.8200(3)
C4 C -0.0435(7) 0.1735(4) 0.8799(4)
C5 C 0.1206(7) 0.3201(4) 0.9218(3)
C6 C 0.0508(7) 0.4174(4) 0.9279(3)
C7 C 0.0178(7) 0.5587(4) 0.8450(3)
C8 C 0.0263(7) 0.7042(4) 0.7596(3)
C9 C -0.3426(7) 0.5795(4) 1.0193(3)
C10 C -0.3114(7) 0.5751(4) 1.1041(3)
C11 C -0.3888(7) 0.6325(5) 1.1553(4)
C12 C -0.5035(7) 0.6983(5) 1.1248(4)
C13 C -0.6627(7) 0.7713(5) 0.9958(3)
C14 C -0.5879(8) 0.8192(4) 0.9250(4)
C15 C -0.5251(7) 0.7783(4) 0.7868(3)
C16 C -0.4379(7) 0.7348(4) 0.6504(4)
C17 C 0.0255(7) 0.7495(4) 0.6842(3)
C18 C 0.0426(7) 0.6957(5) 0.6138(4)
C19 C 0.0544(7) 0.6007(4) 0.6190(3)
C20 C 0.0089(6) 0.4507(4) 0.6990(3)
C21 C -0.0010(6) 0.4070(4) 0.7736(3)
C22 C -0.3009(9) 0.0244(5) 0.7428(5)
C23 C -0.102(1) 0.8062(6) 0.8447(5)
C24 C -0.012(1) 0.8902(5) 0.6055(4)
C25 C 0.0073(7) 0.2648(4) 0.8612(3)
C26 C 0.0243(7) 0.6055(4) 0.7644(3)
C27 C -0.4119(7) 0.6684(4) 0.5912(4)
C28 C -0.4394(7) 0.5742(4) 0.6058(4)
C29 C -0.4804(7) 0.5467(4) 0.6830(3)
C30 C -0.4941(6) 0.5886(4) 0.8349(3)
C31 C -0.5034(6) 0.6560(4) 0.8941(3)
C32 C -0.2123(8) 0.5425(5) 1.2359(4)
C33 C -0.512(1) 0.8722(6) 0.5723(5)
C34 C -0.358(1) 0.6431(6) 0.4509(4)
C35 C -0.5425(7) 0.7029(4) 1.0375(3)
C36 C -0.4815(6) 0.7071(4) 0.7276(3)
C37 C 0.0329(7) 0.5500(4) 0.6920(3)
C38 C -0.0530(7) 0.3082(4) 0.7851(3)
C39 C -0.4903(6) 0.6100(4) 0.7481(3)
C40 C -0.4626(6) 0.6435(4) 0.9858(3)
H1 H -0.21414 0.29145 0.67590
H2 H -0.00763 0.14559 0.93314
H3 H 0.13617 0.29081 0.97542
H4 H 0.22747 0.32537 0.90321
H5 H -0.05382 0.41351 0.94867
H6 H 0.12026 0.45610 0.96639
H7 H -0.28493 0.54169 0.98378
H8 H -0.55870 0.73946 1.16047
H9 H -0.75975 0.73979 0.97199
H10 H -0.69025 0.81715 1.03406
H11 H -0.66786 0.86269 0.89604
H12 H -0.49631 0.85672 0.94791
H13 H 0.04504 0.72634 0.56151
H14 H -0.40771 0.00239 0.74811
H15 H -0.24692 -0.02158 0.71253
H16 H -0.18217 0.80273 0.79847
H17 H -0.07235 0.87356 0.85274
H18 H -0.13910 0.78554 0.89339
H19 H 0.07125 0.87490 0.57175
H20 H -0.01175 0.95730 0.61266
H21 H -0.11529 0.87243 0.57657
H22 H -0.43236 0.52933 0.56262
H23 H -0.10833 0.56464 1.26393
H24 H -0.24440 0.48993 1.26606
H25 H -0.47498 0.93605 0.56355
H26 H -0.62175 0.87673 0.58469
H27 H -0.51365 0.84030 0.51996
H28 H -0.45633 0.60773 0.44155
H29 H -0.26709 0.60270 0.45871
H30 H -0.35088 0.68087 0.40172
#END
