
#######################################################################
#
#                 Cambridge Crystallographic Data Centre
#                                CCDC
#
#######################################################################
#
# If this CIF has been generated from an entry in the Cambridge
# Structural Database, then it will include bibliographic, chemical,
# crystal, experimental, refinement or atomic coordinate data resulting
# from the CCDC's data processing and validation procedures.
#
#######################################################################

data_CSD_CIF_SIKTEL
_audit_creation_date 1991-07-10
_audit_creation_method CSD-ConQuest-V1
_database_code_CSD SIKTEL
_chemical_formula_sum 'C19 H20 N2 O5'
_chemical_formula_moiety
;
C19 H20 N2 O5
;
_journal_coden_Cambridge 16
_journal_volume 46
_journal_year 1990
_journal_page_first 6799
_journal_name_full 'Tetrahedron '
loop_
_publ_author_name
"B.Alcaide"
"J.Rodriguez-Lopez"
"A.Monge"
"V.Perez-Garcia"
_chemical_name_systematic
;
(4S*,5R*)-4-Hydroxy-3,3-dimethyl-5-methoxy-1-(p-nitrophenyl)-4-phenylpyrrolin-
2-one
;
_chemical_melting_point 434.15
_cell_volume   1732.077
_exptl_crystal_colour 'yellow'
_exptl_crystal_density_diffrn 1.37
_exptl_special_details
;
Melting point range 434.15-435.15K

;
_diffrn_ambient_temperature ?
_diffrn_special_details
;
The study was carried out at room temperature,in the range 283-303K

;
#These two values have been output from a single CSD field.
_refine_ls_R_factor_gt 0.036
_refine_ls_wR_factor_gt 0.036
_symmetry_cell_setting monoclinic
_symmetry_space_group_name_H-M 'P 21/n'
_symmetry_Int_Tables_number 14
loop_
_symmetry_equiv_pos_site_id
_symmetry_equiv_pos_as_xyz
1 x,y,z
2 1/2-x,1/2+y,1/2-z
3 -x,-y,-z
4 -1/2+x,-1/2-y,-1/2+z
_cell_length_a 8.012(1)
_cell_length_b 20.978(7)
_cell_length_c 10.353(6)
_cell_angle_alpha 90
_cell_angle_beta 95.50(3)
_cell_angle_gamma 90
_cell_formula_units_Z 4
loop_
_atom_type_symbol
_atom_type_radius_bond
C 0.68
H 0.23
N 0.68
O 0.68
loop_
_atom_site_label
_atom_site_type_symbol
_atom_site_fract_x
_atom_site_fract_y
_atom_site_fract_z
N1 N 0.06955(19) 0.16039(8) 0.78695(15)
N2 N -0.22124(28) 0.01472(9) 1.16239(21)
O1 O 0.2304(2) 0.23016(7) 0.91829(14)
O2 O 0.07679(19) 0.24184(7) 0.54238(15)
O3 O -0.11770(18) 0.15136(8) 0.60080(14)
O4 O -0.14696(28) 0.01018(9) 1.27036(18)
O5 O -0.35397(26) -0.01239(10) 1.13130(21)
C1 C 0.19787(25) 0.20409(9) 0.81423(20)
C2 C 0.29725(25) 0.20919(10) 0.69763(20)
C3 C 0.16930(24) 0.18682(9) 0.58498(19)
C4 C 0.04990(25) 0.1414(1) 0.65112(19)
C5 C -0.00590(24) 0.12538(9) 0.88311(18)
C6 C 0.08087(27) 0.11505(10) 1.00395(20)
C7 C 0.00924(28) 0.07923(10) 1.0963(2)
C8 C -0.14742(27) 0.05371(9) 1.06586(21)
C9 C -0.2349(28) 0.06283(12) 0.94769(23)
C10 C -0.16428(27) 0.09909(12) 0.85606(22)
C11 C 0.36500(32) 0.27598(12) 0.68039(24)
C12 C 0.44446(28) 0.16285(12) 0.72744(23)
C13 C 0.25088(25) 0.15696(10) 0.47243(19)
C14 C 0.29300(29) 0.09248(11) 0.46760(22)
C15 C 0.37465(32) 0.06861(13) 0.36570(25)
C16 C 0.41547(31) 0.10816(15) 0.26790(25)
C17 C 0.37569(32) 0.17195(15) 0.27128(23)
C18 C 0.29425(28) 0.19627(11) 0.37287(21)
C19 C -0.17328(37) 0.10946(17) 0.49762(27)
H1 H -0.036(4) 0.230(1) 0.512(3)
H2 H 0.079(4) 0.093(1) 0.648(3)
H3 H 0.19700 0.13300 1.02400
H4 H 0.07100 0.07200 1.18600
H5 H -0.35000 0.04400 0.92800
H6 H -0.22800 0.10600 0.76800
H7 H 0.44000 0.28900 0.76000
H8 H 0.26900 0.30700 0.66800
H9 H 0.43200 0.28000 0.60300
H10 H 0.40400 0.11800 0.73800
H11 H 0.51600 0.17500 0.80900
H12 H 0.51200 0.16600 0.65100
H13 H 0.26200 0.06300 0.53900
H14 H 0.40500 0.02200 0.36400
H15 H 0.47500 0.09000 0.19400
H16 H 0.40600 0.20100 0.19900
H17 H 0.26600 0.24400 0.37500
H18 H -0.16300 0.06400 0.53000
H19 H -0.10000 0.11400 0.42500
H20 H -0.29300 0.11600 0.46100
#END
