
#######################################################################
#
#                 Cambridge Crystallographic Data Centre
#                                CCDC
#
#######################################################################
#
# If this CIF has been generated from an entry in the Cambridge
# Structural Database, then it will include bibliographic, chemical,
# crystal, experimental, refinement or atomic coordinate data resulting
# from the CCDC's data processing and validation procedures.
#
#######################################################################

data_CSD_CIF_SILPUZ
_audit_creation_date 2007-12-12
_audit_creation_method CSD-ConQuest-V1
_database_code_CSD SILPUZ
_database_code_depnum_ccdc_archive 'CCDC 636032'
_chemical_formula_sum 'C16 H15 N3 O6'
_chemical_formula_moiety
;
C16 H15 N3 O6
;
_journal_coeditor_code "IUCr PV2026"
_journal_coden_Cambridge 1370
_journal_volume 63
_journal_year 2007
_journal_page_first o3995
_journal_name_full 'Acta Crystallogr.,Sect.E:Struct.Rep.Online '
loop_
_publ_author_name
"Wen Qin"
"Ye Zhang"
"Heng-Shan Wang"
"Yong Zhang"
_chemical_name_systematic
;
2-(2-Hydroxyethyl)-6-((2-hydroxyethyl)amino)-5-nitro-1H-benzo(de)isoquinoline-
1,3(2H)-dione
;
_chemical_melting_point 514
_cell_volume    361.993
_exptl_crystal_colour 'light brown'
_exptl_crystal_density_diffrn 1.584
_exptl_special_details
;
Melting point range 514-516K

;
_exptl_crystal_description 'block'
_exptl_crystal_preparation 'DMF'
_diffrn_ambient_temperature 193
#These two values have been output from a single CSD field.
_refine_ls_R_factor_gt 0.038
_refine_ls_wR_factor_gt 0.038
_symmetry_cell_setting triclinic
_symmetry_space_group_name_H-M 'P 1'
_symmetry_Int_Tables_number 1
loop_
_symmetry_equiv_pos_site_id
_symmetry_equiv_pos_as_xyz
1 x,y,z
_cell_length_a 4.7125(12)
_cell_length_b 8.032(2)
_cell_length_c 9.997(3)
_cell_angle_alpha 80.490(15)
_cell_angle_beta 81.977(15)
_cell_angle_gamma 77.324(14)
_cell_formula_units_Z 1
loop_
_atom_type_symbol
_atom_type_radius_bond
C 0.68
H 0.23
N 0.68
O 0.68
loop_
_atom_site_label
_atom_site_type_symbol
_atom_site_fract_x
_atom_site_fract_y
_atom_site_fract_z
O1 O 0.0483(6) 0.6442(3) 0.4925(3)
O2 O -0.4438(5) 0.2532(3) 0.4083(2)
O3 O -0.1177(6) 0.6283(3) 0.0831(3)
H1 H -0.22570 0.58930 0.04110
O4 O 0.5170(6) 0.5645(3) 0.8901(3)
O5 O 0.5728(5) 0.3339(3) 1.0369(2)
O6 O 0.4894(5) -0.0077(3) 1.2695(3)
H2 H 0.48560 0.06420 1.32230
N1 N -0.1985(6) 0.4477(3) 0.4497(3)
N2 N 0.4703(6) 0.4170(4) 0.9316(3)
N3 N 0.2847(6) 0.0970(4) 1.0246(3)
H3 H 0.42020 0.13290 1.05790
C1 C -0.0264(7) 0.5052(4) 0.5296(4)
C2 C 0.0537(7) 0.3942(4) 0.6543(3)
C3 C -0.0248(7) 0.2296(4) 0.6918(3)
C4 C -0.1870(8) 0.1753(4) 0.6044(4)
C5 C -0.2869(7) 0.2916(4) 0.4813(3)
C6 C 0.2177(7) 0.4469(4) 0.7355(3)
H4 H 0.27460 0.55500 0.70940
C7 C 0.3036(7) 0.3451(4) 0.8560(3)
C8 C 0.2187(7) 0.1832(4) 0.9034(3)
C9 C 0.0624(7) 0.1209(4) 0.8121(3)
C10 C -0.0009(8) -0.0452(4) 0.8333(4)
H5 H 0.06340 -0.12350 0.91040
C11 C -0.1535(8) -0.0975(4) 0.7455(4)
H6 H -0.19300 -0.21050 0.76310
C12 C -0.2508(7) 0.0134(4) 0.6310(4)
H7 H -0.36000 -0.02260 0.57210
C13 C -0.2808(8) 0.5604(5) 0.3226(4)
H8 H -0.29580 0.68230 0.33380
H9 H -0.47410 0.54650 0.30340
C14 C -0.0527(8) 0.5139(5) 0.2042(4)
H10 H 0.14270 0.51970 0.22660
H11 H -0.04750 0.39440 0.18940
C15 C 0.1779(8) -0.0454(4) 1.1135(4)
H12 H 0.29880 -0.15720 1.09240
H13 H -0.02740 -0.04270 1.10020
C16 C 0.1987(8) -0.0229(5) 1.2586(4)
H14 H 0.05890 0.08190 1.28290
H15 H 0.14930 -0.12340 1.32200
#END
