
#######################################################################
#
#                 Cambridge Crystallographic Data Centre
#                                CCDC
#
#######################################################################
#
# If this CIF has been generated from an entry in the Cambridge
# Structural Database, then it will include bibliographic, chemical,
# crystal, experimental, refinement or atomic coordinate data resulting
# from the CCDC's data processing and validation procedures.
#
#######################################################################

data_CSD_CIF_SILTOW01
_audit_creation_date 1996-01-03
_audit_creation_method CSD-ConQuest-V1
_database_code_CSD SILTOW01
_chemical_formula_sum 'C13 H10 N4 O5'
_chemical_formula_moiety
;
C13 H10 N4 O5
;
_journal_coden_Cambridge 1145
_journal_volume 5
_journal_year 1995
_journal_page_first 379
_journal_name_full 'J.Mater.Chem. '
loop_
_publ_author_name
"Kin-Shan Huang"
"D.Britton"
"M.C.Etter"
"S.R.Byrn"
_chemical_name_systematic
;
1,3-bis(m-Nitrophenyl)urea
;
_cell_volume    640.413
_exptl_crystal_colour 'white'
_exptl_crystal_density_diffrn 1.567
_exptl_special_details
;
beta polymorph

;
_diffrn_ambient_temperature ?
_diffrn_special_details
;
The study was carried out at room temperature,in the range 283-303K

;
#These two values have been output from a single CSD field.
_refine_ls_R_factor_gt 0.05
_refine_ls_wR_factor_gt 0.05
_symmetry_cell_setting monoclinic
_symmetry_space_group_name_H-M 'C 2'
_symmetry_Int_Tables_number 5
loop_
_symmetry_equiv_pos_site_id
_symmetry_equiv_pos_as_xyz
1 x,y,z
2 -x,y,-z
3 1/2+x,1/2+y,z
4 1/2-x,1/2+y,-z
_cell_length_a 20.95(1)
_cell_length_b 4.712(3)
_cell_length_c 6.715(4)
_cell_angle_alpha 90
_cell_angle_beta 104.96(5)
_cell_angle_gamma 90
_cell_formula_units_Z 2
loop_
_atom_type_symbol
_atom_type_radius_bond
C 0.68
H 0.23
N 0.68
O 0.68
loop_
_atom_site_label
_atom_site_type_symbol
_atom_site_fract_x
_atom_site_fract_y
_atom_site_fract_z
C1 C 0.50000 -0.045(1) 0.50000
C2 C 0.5962(2) 0.0195(8) 0.3578(5)
C3 C 0.5829(2) -0.1945(9) 0.2071(5)
C4 C 0.6305(2) -0.250(1) 0.1048(5)
C5 C 0.6908(2) -0.1123(9) 0.1436(5)
C6 C 0.7037(2) 0.091(1) 0.2974(5)
C7 C 0.6573(2) 0.157(1) 0.4022(5)
N1 N 0.5487(1) 0.1124(8) 0.4548(4)
N2 N 0.6152(1) -0.4648(9) -0.0606(4)
O1 O 0.50000 -0.30690 0.50000
O2 O 0.5655(1) -0.6070(8) -0.0811(4)
O3 O 0.6539(2) -0.489(1) -0.1678(4)
H1 H 0.551(2) 0.29(1) 0.495(5)
H2 H 0.54260 -0.29730 0.17700
H3 H 0.72210 -0.15570 0.06780
H4 H 0.74510 0.18560 0.33120
H5 H 0.66700 0.29800 0.50650
N1A N 0.4513(1) 0.1124(8) 0.5452(4)
C2A C 0.4038(2) 0.0195(8) 0.6422(5)
H1A H 0.449(2) 0.29(1) 0.505(5)
C3A C 0.4171(2) -0.1945(9) 0.7929(5)
C7A C 0.3427(2) 0.157(1) 0.5978(5)
C4A C 0.3695(2) -0.250(1) 0.8952(5)
H2A H 0.45740 -0.29730 0.82300
C6A C 0.2963(2) 0.091(1) 0.7026(5)
H5A H 0.33300 0.29800 0.49350
C5A C 0.3092(2) -0.1123(9) 0.8564(5)
N2A N 0.3848(1) -0.4648(9) 1.0606(4)
H4A H 0.25490 0.18560 0.66880
H3A H 0.27790 -0.15570 0.93220
O2A O 0.4345(1) -0.6070(8) 1.0811(4)
O3A O 0.3461(2) -0.489(1) 1.1678(4)
#END
