
#######################################################################
#
#                 Cambridge Crystallographic Data Centre
#                                CCDC
#
#######################################################################
#
# If this CIF has been generated from an entry in the Cambridge
# Structural Database, then it will include bibliographic, chemical,
# crystal, experimental, refinement or atomic coordinate data resulting
# from the CCDC's data processing and validation procedures.
#
#######################################################################

data_CSD_CIF_SILTOW11
_audit_creation_date 2006-02-24
_audit_creation_method CSD-ConQuest-V1
_database_code_CSD SILTOW11
_database_code_depnum_ccdc_archive 'CCDC 291329'
_chemical_formula_sum 'C13 H10 N4 O5'
_chemical_formula_moiety
;
C13 H10 N4 O5
;
_journal_coden_Cambridge 1147
_journal_volume 5
_journal_year 2005
_journal_page_first 2197
_journal_name_full 'Cryst.Growth Des. '
loop_
_publ_author_name
"M.Rafilovich"
"J.Bernstein"
"R.K.Harris"
"D.C.Apperley"
"P.G.Karamertzanis"
"S.L.Price"
_chemical_name_systematic
;
1,3-bis(m-Nitrophenyl)urea
;
_cell_volume   1271.220
_exptl_crystal_colour 'white'
_exptl_crystal_density_diffrn 1.579
_exptl_special_details
;
delta polymorph

;
_exptl_crystal_description 'needles'
_diffrn_ambient_temperature 100.15
#These two values have been output from a single CSD field.
_refine_ls_R_factor_gt 0.0465
_refine_ls_wR_factor_gt 0.0465
_symmetry_cell_setting monoclinic
_symmetry_space_group_name_H-M 'P 21/c'
_symmetry_Int_Tables_number 14
loop_
_symmetry_equiv_pos_site_id
_symmetry_equiv_pos_as_xyz
1 x,y,z
2 -x,1/2+y,1/2-z
3 -x,-y,-z
4 x,-1/2-y,-1/2+z
_cell_length_a 4.6868(3)
_cell_length_b 18.4268(12)
_cell_length_c 14.7201(9)
_cell_angle_alpha 90
_cell_angle_beta 90.500(1)
_cell_angle_gamma 90
_cell_formula_units_Z 4
loop_
_atom_type_symbol
_atom_type_radius_bond
C 0.68
H 0.23
N 0.68
O 0.68
loop_
_atom_site_label
_atom_site_type_symbol
_atom_site_fract_x
_atom_site_fract_y
_atom_site_fract_z
O1 O 0.3061(2) 0.32415(5) 0.81933(7)
O2 O 0.1571(2) 0.42918(6) 0.86502(7)
O3 O 0.77007(16) 0.64534(4) 0.54582(6)
O4 O 1.04627(19) 0.77301(5) 0.30087(6)
O5 O 0.90482(19) 0.87869(5) 0.25531(6)
N1 N 0.3776(2) 0.59696(5) 0.61554(7)
H1 H 0.211(4) 0.6083(10) 0.6370(12)
N2 N 0.2906(2) 0.39033(6) 0.81240(7)
N3 N 0.3440(2) 0.70635(5) 0.54510(7)
H2 H 0.168(4) 0.7033(11) 0.5594(13)
N4 N 0.8936(2) 0.82650(5) 0.30746(6)
C1 C 0.4857(2) 0.52914(6) 0.64099(7)
C2 C 0.3542(2) 0.49464(6) 0.71402(7)
C3 C 0.4389(2) 0.42540(6) 0.73678(7)
C4 C 0.6511(3) 0.38775(6) 0.69192(8)
C5 C 0.7830(2) 0.42334(6) 0.62051(8)
C6 C 0.7022(2) 0.49307(6) 0.59455(7)
H3 H 0.79260 0.51570 0.54620
C7 C 0.5173(2) 0.64931(6) 0.56684(7)
C8 C 0.4247(2) 0.76804(6) 0.49572(7)
C9 C 0.6304(2) 0.76583(6) 0.42796(7)
H4 H 0.72800 0.72320 0.41490
C10 C 0.6842(2) 0.82942(6) 0.38082(7)
C11 C 0.5486(2) 0.89473(6) 0.39793(8)
H5 H 0.59300 0.93650 0.36540
C12 C 0.3439(2) 0.89548(6) 0.46543(8)
H6 H 0.24780 0.93840 0.47850
C13 C 0.2810(2) 0.83294(6) 0.51369(8)
H7 H 0.14210 0.83420 0.55840
H8 H 0.208(4) 0.5183(9) 0.7484(11)
H9 H 0.927(4) 0.3989(9) 0.5889(11)
H10 H 0.705(4) 0.3407(10) 0.7118(12)
#END
