
#######################################################################
#
#                 Cambridge Crystallographic Data Centre
#                                CCDC
#
#######################################################################
#
# If this CIF has been generated from an entry in the Cambridge
# Structural Database, then it will include bibliographic, chemical,
# crystal, experimental, refinement or atomic coordinate data resulting
# from the CCDC's data processing and validation procedures.
#
#######################################################################

data_CSD_CIF_SILTOW12
_audit_creation_date 2011-05-25
_audit_creation_method CSD-ConQuest-V1
_database_code_CSD SILTOW12
_database_code_depnum_ccdc_archive 'CCDC 825224'
_chemical_formula_sum 'C13 H10 N4 O5'
_chemical_formula_moiety
;
C13 H10 N4 O5
;
_journal_coden_Cambridge 1065
_journal_year 2008
_journal_page_first 687
_journal_name_full 'University of Southampton, Crystal Structure Report Archive '
loop_
_publ_author_name
"S.L.Huth"
"T.L.Threlfall"
"M.B.Hursthouse"
_chemical_name_systematic
;
1,3-bis(3-nitrophenyl)urea
;
_chemical_name_common
;
N,N'-bis(3-Nitrophenyl)urea
;
_cell_volume    633.137
_exptl_crystal_colour 'colorless'
_exptl_crystal_density_diffrn 1.585
_exptl_crystal_description 'needle'
_diffrn_ambient_temperature 120
#These two values have been output from a single CSD field.
_refine_ls_R_factor_gt 0.0444
_refine_ls_wR_factor_gt 0.0444
_symmetry_cell_setting monoclinic
_symmetry_space_group_name_H-M 'I 2'
_symmetry_Int_Tables_number 5
loop_
_symmetry_equiv_pos_site_id
_symmetry_equiv_pos_as_xyz
1 x,y,z
2 -x,y,-z
3 1/2+x,1/2+y,1/2+z
4 1/2-x,1/2+y,1/2-z
_cell_length_a 6.7095(3)
_cell_length_b 4.7163(3)
_cell_length_c 20.0338(13)
_cell_angle_alpha 90
_cell_angle_beta 92.902(4)
_cell_angle_gamma 90
_cell_formula_units_Z 2
loop_
_atom_type_symbol
_atom_type_radius_bond
C 0.68
H 0.23
N 0.68
O 0.68
loop_
_atom_site_label
_atom_site_type_symbol
_atom_site_fract_x
_atom_site_fract_y
_atom_site_fract_z
C1 C -0.2610(3) 1.4903(6) 0.59663(12)
C2 C -0.1258(3) 1.2785(6) 0.58312(12)
H1 H -0.13740 1.17420 0.54250
C3 C 0.0269(4) 1.2231(6) 0.63059(13)
C4 C 0.0486(4) 1.3627(6) 0.69113(12)
H2 H 0.15490 1.31830 0.72250
C5 C -0.0904(4) 1.5700(6) 0.70433(12)
H3 H -0.08070 1.66860 0.74570
C6 C -0.2434(4) 1.6348(6) 0.65771(12)
H4 H -0.33710 1.77830 0.66730
C7 C -0.50000 1.4222(8) 0.50000
N1 N -0.4072(3) 1.5840(5) 0.54897(10)
N2 N 0.1749(3) 1.0057(5) 0.61493(11)
O1 O -0.50000 1.1642(5) 0.50000
O2 O 0.1449(3) 0.8613(4) 0.56465(9)
O3 O 0.3238(3) 0.9830(5) 0.65325(10)
H5 H -0.436(4) 1.760(4) 0.5482(14)
C1A C -0.7390(3) 1.4903(6) 0.40337(12)
C2A C -0.8742(3) 1.2785(6) 0.41688(12)
H1A H -0.86260 1.17420 0.45750
C3A C -1.0269(4) 1.2231(6) 0.36941(13)
C4A C -1.0486(4) 1.3627(6) 0.30887(12)
H2A H -1.15490 1.31830 0.27750
C5A C -0.9096(4) 1.5700(6) 0.29567(12)
H3A H -0.91930 1.66860 0.25430
C6A C -0.7566(4) 1.6348(6) 0.34229(12)
H4A H -0.66290 1.77830 0.33270
N1A N -0.5928(3) 1.5840(5) 0.45103(10)
N2A N -1.1749(3) 1.0057(5) 0.38507(11)
O2A O -1.1449(3) 0.8613(4) 0.43535(9)
O3A O -1.3238(3) 0.9830(5) 0.34675(10)
H5A H -0.564(4) 1.760(4) 0.4518(14)
#END
