
#######################################################################
#
#                 Cambridge Crystallographic Data Centre
#                                CCDC
#
#######################################################################
#
# If this CIF has been generated from an entry in the Cambridge
# Structural Database, then it will include bibliographic, chemical,
# crystal, experimental, refinement or atomic coordinate data resulting
# from the CCDC's data processing and validation procedures.
#
#######################################################################

data_CSD_CIF_SILYUK
_audit_creation_date 2018-08-15
_audit_creation_method CSD-ConQuest-V1
_database_code_CSD SILYUK
_database_code_depnum_ccdc_archive 'CCDC 1847434'
_chemical_formula_sum 'C12 H14 N2 O3'
_chemical_formula_moiety
;
C12 H14 N2 O3
;
_journal_coden_Cambridge 1336
_journal_volume 20
_journal_year 2018
_journal_page_first 5406
_journal_name_full 'Org.Lett. '
loop_
_publ_author_name
"T.S.Bush"
"G.P.A.Yap"
"W.J.Chain"
_chemical_name_systematic
;
5-methyl-8-nitro-2,3,3a,4,5,9b-hexahydrofuro[3,2-c]quinoline
;
_cell_volume   2236.086
_exptl_crystal_colour 'yellow'
_exptl_crystal_density_diffrn 1.392
_exptl_crystal_description 'needle'
_diffrn_ambient_temperature 200
_diffrn_special_details
;
twin

;
#These two values have been output from a single CSD field.
_refine_ls_R_factor_gt 0.0402
_refine_ls_wR_factor_gt 0.0402
_symmetry_cell_setting monoclinic
_symmetry_space_group_name_H-M 'C c'
_symmetry_Int_Tables_number 9
loop_
_symmetry_equiv_pos_site_id
_symmetry_equiv_pos_as_xyz
1 x,y,z
2 x,-y,1/2+z
3 1/2+x,1/2+y,z
4 1/2+x,1/2-y,1/2+z
_cell_length_a 28.3147(9)
_cell_length_b 10.3899(3)
_cell_length_c 7.7003(2)
_cell_angle_alpha 90
_cell_angle_beta 99.216(2)
_cell_angle_gamma 90
_cell_formula_units_Z 8
loop_
_atom_type_symbol
_atom_type_radius_bond
C 0.68
H 0.23
N 0.68
O 0.68
loop_
_atom_site_label
_atom_site_type_symbol
_atom_site_fract_x
_atom_site_fract_y
_atom_site_fract_z
O1 O 0.46512(7) 0.3011(2) 0.1938(3)
O2 O 0.37857(9) 0.76199(17) 0.0942(3)
O3 O 0.3082(1) 0.7652(2) 0.1686(4)
N1 N 0.34307(9) 0.1696(2) 0.1642(3)
N2 N 0.34365(9) 0.70658(19) 0.1373(3)
C1 C 0.49555(15) 0.1951(4) 0.1619(6)
H1 H 0.50957 0.15462 0.27488
H2 H 0.52201 0.22661 0.10338
C2 C 0.46645(13) 0.0995(3) 0.0481(4)
H3 H 0.46839 0.01369 0.10468
H4 H 0.47745 0.09229 -0.06729
C3 C 0.41522(11) 0.1525(2) 0.0262(3)
H5 H 0.39766 0.13613 -0.09515
C4 C 0.42442(9) 0.2960(2) 0.0579(3)
H6 H 0.43266 0.33637 -0.05133
C5 C 0.38775(11) 0.1005(2) 0.1645(4)
H7 H 0.38082 0.00806 0.14178
H8 H 0.40772 0.10823 0.28195
C6 C 0.30318(13) 0.1000(3) 0.2185(5)
H9 H 0.27324 0.12654 0.14515
H10 H 0.30165 0.11944 0.34206
H11 H 0.30782 0.00732 0.20498
C7 C 0.34361(9) 0.3002(2) 0.1639(3)
C8 C 0.38322(9) 0.3676(2) 0.1143(3)
C9 C 0.30520(9) 0.3736(2) 0.2095(3)
H12 H 0.27850 0.33062 0.24352
C10 C 0.30594(9) 0.5053(2) 0.2055(3)
H13 H 0.28018 0.55313 0.23853
C11 C 0.34443(10) 0.5688(2) 0.1530(3)
C12 C 0.38292(9) 0.5001(2) 0.1065(3)
H14 H 0.40887 0.54471 0.06954
O4 O 0.53361(8) 0.1980(2) 0.7325(3)
O5 O 0.62078(9) -0.25951(17) 0.7407(3)
O6 O 0.69021(11) -0.2621(2) 0.9027(4)
N3 N 0.65497(8) 0.33364(19) 0.8556(3)
N4 N 0.65552(9) -0.2034(2) 0.8242(3)
C13 C 0.50256(14) 0.3025(4) 0.6652(6)
H15 H 0.48782 0.34107 0.76127
H16 H 0.47666 0.27053 0.57363
C14 C 0.53198(13) 0.4020(3) 0.5881(4)
H17 H 0.52947 0.48702 0.64405
H18 H 0.52147 0.41046 0.45967
C15 C 0.58331(10) 0.3499(2) 0.6286(3)
H19 H 0.60134 0.36823 0.52985
C16 C 0.57466(9) 0.2059(2) 0.6457(3)
H20 H 0.56697 0.16676 0.52587
C17 C 0.60982(11) 0.4010(2) 0.8016(4)
H21 H 0.61623 0.49398 0.78930
H22 H 0.58944 0.39101 0.89387
C18 C 0.69283(12) 0.4044(3) 0.9672(4)
H23 H 0.72406 0.37639 0.94179
H24 H 0.69093 0.38751 1.09115
H25 H 0.68890 0.49681 0.94370
C19 C 0.65523(9) 0.2030(2) 0.8489(3)
C20 C 0.61608(8) 0.1354(2) 0.7507(3)
C21 C 0.69460(9) 0.1308(2) 0.9341(3)
H26 H 0.72148 0.17421 0.99766
C22 C 0.69439(9) -0.0012(2) 0.9261(3)
H27 H 0.72096 -0.04867 0.98436
C23 C 0.65537(9) -0.0651(2) 0.8329(3)
C24 C 0.61669(8) 0.0024(2) 0.7429(3)
H28 H 0.59072 -0.04257 0.67610
#END
