
#######################################################################
#
#                 Cambridge Crystallographic Data Centre
#                                CCDC
#
#######################################################################
#
# If this CIF has been generated from an entry in the Cambridge
# Structural Database, then it will include bibliographic, chemical,
# crystal, experimental, refinement or atomic coordinate data resulting
# from the CCDC's data processing and validation procedures.
#
#######################################################################

data_CSD_CIF_SIMJII
_audit_creation_date 2007-12-12
_audit_creation_method CSD-ConQuest-V1
_database_code_CSD SIMJII
_database_code_depnum_ccdc_archive 'CCDC 667354'
_chemical_formula_sum 'C26 H25 N3 O5'
_chemical_formula_moiety
;
C26 H25 N3 O5
;
_journal_coeditor_code "IUCr HK2336"
_journal_coden_Cambridge 1370
_journal_volume 63
_journal_year 2007
_journal_page_first o4314
_journal_name_full 'Acta Crystallogr.,Sect.E:Struct.Rep.Online '
loop_
_publ_author_name
"Hai-Lin Li"
"Hai-Bo Wang"
"Jun Yin"
"Si-Shun Kang"
"Hai-Su Zeng"
_chemical_name_systematic
;
2-(2-(3-(3,5-Dimethoxyphenyl)-1,2,4-oxadiazol-5-yl)phenoxy)-N-(2,6-dimethylphe
nyl)acetamide
;
_chemical_melting_point 419
_cell_volume   1144.199
_exptl_crystal_colour 'colorless'
_exptl_crystal_density_diffrn 1.334
_exptl_special_details
;
Melting point range 419-420K

;
_exptl_crystal_description 'block'
_exptl_crystal_preparation 'ethanol'
_diffrn_ambient_temperature 294
#These two values have been output from a single CSD field.
_refine_ls_R_factor_gt 0.0827
_refine_ls_wR_factor_gt 0.0827
_symmetry_cell_setting triclinic
_symmetry_space_group_name_H-M 'P -1'
_symmetry_Int_Tables_number 2
loop_
_symmetry_equiv_pos_site_id
_symmetry_equiv_pos_as_xyz
1 x,y,z
2 -x,-y,-z
_cell_length_a 7.3200(15)
_cell_length_b 12.630(3)
_cell_length_c 13.106(3)
_cell_angle_alpha 95.37(3)
_cell_angle_beta 101.06(3)
_cell_angle_gamma 103.48(3)
_cell_formula_units_Z 2
loop_
_atom_type_symbol
_atom_type_radius_bond
C 0.68
H 0.23
N 0.68
O 0.68
loop_
_atom_site_label
_atom_site_type_symbol
_atom_site_fract_x
_atom_site_fract_y
_atom_site_fract_z
O1 O 0.3738(5) -0.2031(3) 0.7085(3)
O2 O 0.6959(4) 0.1635(3) 0.8227(2)
O3 O 0.1682(4) 0.1486(2) 0.3487(2)
O4 O 0.0182(4) 0.1649(2) 0.1575(2)
O5 O 0.1340(5) 0.4105(3) 0.0536(2)
N1 N 0.2816(5) 0.1636(3) 0.4531(2)
N2 N 0.1300(5) -0.0156(3) 0.3976(2)
N3 N 0.2857(5) 0.3462(3) 0.1901(3)
H1 H 0.28800 0.28840 0.21970
C1 C 0.2473(8) -0.2889(4) 0.6317(5)
H2 H 0.24190 -0.35820 0.65710
H3 H 0.29350 -0.28990 0.56800
H4 H 0.12080 -0.27660 0.61820
C2 C 0.7412(7) 0.2758(4) 0.8085(4)
H5 H 0.83430 0.31840 0.86880
H6 H 0.62660 0.30160 0.80010
H7 H 0.79350 0.28340 0.74700
C3 C 0.5675(6) 0.0903(4) 0.7431(3)
C4 C 0.5289(6) -0.0181(4) 0.7583(3)
H8 H 0.59050 -0.03740 0.82000
C5 C 0.4015(6) -0.0979(4) 0.6841(3)
C6 C 0.3069(6) -0.0714(4) 0.5914(3)
H9 H 0.21810 -0.12560 0.54140
C7 C 0.3476(6) 0.0364(4) 0.5754(3)
C8 C 0.4766(6) 0.1189(4) 0.6499(3)
H10 H 0.50190 0.19180 0.63800
C9 C 0.2518(6) 0.0642(3) 0.4753(3)
C10 C 0.0835(6) 0.0413(3) 0.3235(3)
C11 C -0.0464(5) -0.0039(3) 0.2205(3)
C12 C -0.1374(6) -0.1151(3) 0.2040(3)
H11 H -0.10900 -0.15780 0.25600
C13 C -0.2688(7) -0.1638(4) 0.1123(3)
H12 H -0.32910 -0.23860 0.10180
C14 C -0.3091(7) -0.0993(4) 0.0366(3)
H13 H -0.40160 -0.13070 -0.02460
C15 C -0.2177(6) 0.0085(3) 0.0487(3)
H14 H -0.24600 0.05020 -0.00420
C16 C -0.0824(6) 0.0568(3) 0.1396(3)
C17 C -0.0099(6) 0.2329(3) 0.0789(3)
H15 H -0.13620 0.24690 0.07200
H16 H -0.00310 0.19620 0.01180
C18 C 0.1413(7) 0.3383(4) 0.1084(3)
C19 C 0.4371(7) 0.4428(3) 0.2324(4)
C20 C 0.4323(9) 0.5036(4) 0.3245(4)
C21 C 0.5882(11) 0.5932(4) 0.3679(5)
H17 H 0.59070 0.63480 0.43080
C22 C 0.7353(10) 0.6200(4) 0.3197(5)
H18 H 0.83490 0.68200 0.34950
C23 C 0.7467(9) 0.5593(5) 0.2266(5)
H19 H 0.85200 0.57850 0.19590
C24 C 0.5918(8) 0.4688(4) 0.1826(4)
C25 C 0.5993(8) 0.4040(4) 0.0840(5)
H20 H 0.71510 0.43670 0.06230
H21 H 0.48950 0.40340 0.03020
H22 H 0.59810 0.32990 0.09550
C26 C 0.2561(8) 0.4750(5) 0.3734(5)
H23 H 0.16590 0.40990 0.33330
H24 H 0.19610 0.53490 0.37330
H25 H 0.29590 0.46220 0.44440
#END
