
#######################################################################
#
#                 Cambridge Crystallographic Data Centre
#                                CCDC
#
#######################################################################
#
# If this CIF has been generated from an entry in the Cambridge
# Structural Database, then it will include bibliographic, chemical,
# crystal, experimental, refinement or atomic coordinate data resulting
# from the CCDC's data processing and validation procedures.
#
#######################################################################

data_CSD_CIF_SIMSAJ
_audit_creation_date 2007-12-12
_audit_creation_method CSD-ConQuest-V1
_database_code_CSD SIMSAJ
_database_code_depnum_ccdc_archive 'CCDC 667393'
_chemical_formula_sum 'C16 H15 N3 O4'
_chemical_formula_moiety
;
C16 H15 N3 O4
;
_journal_coeditor_code "IUCr BT2535"
_journal_coden_Cambridge 1370
_journal_volume 63
_journal_year 2007
_journal_page_first o4367
_journal_name_full 'Acta Crystallogr.,Sect.E:Struct.Rep.Online '
loop_
_publ_author_name
"R.J.Butcher"
"J.P.Jasinski"
"H.J.Ravindra"
"S.M.Dharmaprakash"
_chemical_name_systematic
;
N-(4-Nitrophenyl)-N'-phenylsuccinamide
;
_cell_volume    708.461
_exptl_crystal_colour 'colorless'
_exptl_crystal_density_diffrn 1.469
_exptl_crystal_description 'block'
_exptl_crystal_preparation 'DMF'
_diffrn_ambient_temperature 100
#These two values have been output from a single CSD field.
_refine_ls_R_factor_gt 0.0539
_refine_ls_wR_factor_gt 0.0539
_symmetry_cell_setting triclinic
_symmetry_space_group_name_H-M 'P -1'
_symmetry_Int_Tables_number 2
loop_
_symmetry_equiv_pos_site_id
_symmetry_equiv_pos_as_xyz
1 x,y,z
2 -x,-y,-z
_cell_length_a 5.7585(4)
_cell_length_b 9.8447(8)
_cell_length_c 12.9961(10)
_cell_angle_alpha 79.216(1)
_cell_angle_beta 79.014(1)
_cell_angle_gamma 83.779(1)
_cell_formula_units_Z 2
loop_
_atom_type_symbol
_atom_type_radius_bond
C 0.68
H 0.23
N 0.68
O 0.68
loop_
_atom_site_label
_atom_site_type_symbol
_atom_site_fract_x
_atom_site_fract_y
_atom_site_fract_z
O1 O 0.20220(15) 0.59779(8) 0.11503(7)
O2 O 0.85535(16) 0.89058(8) -0.09865(8)
O3 O -0.94624(17) 0.83821(11) 0.42542(8)
O4 O -0.83201(19) 0.62538(11) 0.48486(9)
N1 N 0.06558(16) 0.81592(9) 0.14504(8)
H1 H 0.10190 0.90280 0.13000
N2 N 0.97801(16) 0.67817(9) -0.14277(7)
H2 H 0.95120 0.58970 -0.12720
N3 N -0.79896(19) 0.73754(12) 0.42692(9)
C1 C -0.14639(18) 0.78803(10) 0.21684(8)
C2 C -0.3242(2) 0.89650(11) 0.21885(9)
H3 H -0.29800 0.98240 0.17250
C3 C -0.5377(2) 0.87974(13) 0.28773(10)
H4 H -0.65890 0.95330 0.28930
C4 C -0.5715(2) 0.75360(12) 0.35439(9)
C5 C -0.3970(2) 0.64476(12) 0.35496(9)
H5 H -0.42380 0.55960 0.40210
C6 C -0.1823(2) 0.66201(11) 0.28562(9)
H6 H -0.06080 0.58860 0.28500
C7 C 0.22059(18) 0.72342(11) 0.09634(8)
C8 C 0.41412(19) 0.79024(11) 0.01248(9)
H7 H 0.44920 0.87690 0.03270
H8 H 0.35660 0.81500 -0.05620
C9 C 0.64177(19) 0.69581(10) -0.00172(8)
H9 H 0.70020 0.67100 0.06680
H10 H 0.60770 0.60920 -0.02240
C10 C 0.83239(19) 0.76554(11) -0.08602(8)
C11 C 1.17126(19) 0.71785(11) -0.22565(8)
C12 C 1.1442(2) 0.83097(12) -0.30570(9)
H11 H 0.99660 0.88460 -0.30480
C13 C 1.3342(2) 0.86508(13) -0.38702(10)
H12 H 1.31660 0.94330 -0.44090
C14 C 1.5494(2) 0.78587(13) -0.39017(10)
H13 H 1.67810 0.80920 -0.44630
C15 C 1.5752(2) 0.67233(13) -0.31067(10)
H14 H 1.72170 0.61750 -0.31270
C16 C 1.3867(2) 0.63844(12) -0.22772(9)
H15 H 1.40540 0.56150 -0.17290
#END
