
#######################################################################
#
#                 Cambridge Crystallographic Data Centre
#                                CCDC
#
#######################################################################
#
# If this CIF has been generated from an entry in the Cambridge
# Structural Database, then it will include bibliographic, chemical,
# crystal, experimental, refinement or atomic coordinate data resulting
# from the CCDC's data processing and validation procedures.
#
#######################################################################

data_CSD_CIF_SIMYIX
_audit_creation_date 2007-12-12
_audit_creation_method CSD-ConQuest-V1
_database_code_CSD SIMYIX
_database_code_depnum_ccdc_archive 'CCDC 667420'
_chemical_formula_sum 'C14 H11 N3 O4'
_chemical_formula_moiety
;
C14 H11 N3 O4
;
_journal_coeditor_code "IUCr XU2338"
_journal_coden_Cambridge 1370
_journal_volume 63
_journal_year 2007
_journal_page_first o4406
_journal_name_full 'Acta Crystallogr.,Sect.E:Struct.Rep.Online '
loop_
_publ_author_name
"Zhi-Gang Yin"
"Heng-Yu Qian"
"Hu Jie"
"Feng Yu-Li"
_chemical_name_systematic
;
(E)-1,3-Benzodioxole-5-carbaldehyde 4-nitrophenylhydrazone
;
_cell_volume   1437.228
_exptl_crystal_colour 'brown'
_exptl_crystal_density_diffrn 1.318
_exptl_crystal_description 'block'
_exptl_crystal_preparation 'dichloromethane'
_diffrn_ambient_temperature 298
#These two values have been output from a single CSD field.
_refine_ls_R_factor_gt 0.0508
_refine_ls_wR_factor_gt 0.0508
_symmetry_cell_setting orthorhombic
_symmetry_space_group_name_H-M 'P c a 21'
_symmetry_Int_Tables_number 29
loop_
_symmetry_equiv_pos_site_id
_symmetry_equiv_pos_as_xyz
1 x,y,z
2 -x,-y,1/2+z
3 1/2+x,-y,z
4 1/2-x,y,1/2+z
_cell_length_a 23.719(3)
_cell_length_b 4.9052(18)
_cell_length_c 12.353(2)
_cell_angle_alpha 90
_cell_angle_beta 90
_cell_angle_gamma 90
_cell_formula_units_Z 4
loop_
_atom_type_symbol
_atom_type_radius_bond
C 0.68
H 0.23
N 0.68
O 0.68
loop_
_atom_site_label
_atom_site_type_symbol
_atom_site_fract_x
_atom_site_fract_y
_atom_site_fract_z
C1 C 0.97237(14) -0.2533(5) 0.2885(3)
H1 H 0.94990 -0.24480 0.35020
C2 C 1.01832(13) -0.4287(7) 0.2850(3)
H2 H 1.02680 -0.53720 0.34460
C3 C 1.05156(14) -0.4423(7) 0.1928(3)
C4 C 1.03942(13) -0.2802(7) 0.1041(3)
C5 C 0.99349(14) -0.1041(7) 0.1062(3)
H3 H 0.98510 0.00340 0.04630
C6 C 0.95999(13) -0.0902(6) 0.1992(3)
C7 C 0.91205(14) 0.0874(7) 0.2049(3)
H4 H 0.89090 0.07410 0.26800
C8 C 1.11926(16) -0.5179(8) 0.0645(3)
H5 H 1.15570 -0.43020 0.07220
H6 H 1.12320 -0.67240 0.01610
C9 C 0.82653(14) 0.6057(7) 0.0746(3)
C10 C 0.85405(17) 0.6553(7) -0.0236(3)
H7 H 0.88650 0.55860 -0.04140
C11 C 0.83259(14) 0.8510(6) -0.0950(3)
H8 H 0.85130 0.88800 -0.15960
C12 C 0.78322(13) 0.9903(7) -0.0692(3)
C13 C 0.75576(14) 0.9381(6) 0.0283(3)
H9 H 0.72290 1.03170 0.04560
C14 C 0.77741(13) 0.7470(8) 0.0995(3)
H10 H 0.75900 0.71290 0.16460
N1 N 0.89330(11) 0.2693(6) 0.1327(2)
N2 N 0.84735(12) 0.4281(5) 0.1523(2)
H11 H 0.8303(14) 0.416(7) 0.210(3)
N3 N 0.76391(11) 1.2097(5) -0.1526(2)
O1 O 1.09794(10) -0.6063(5) 0.1701(2)
O2 O 1.07755(9) -0.3256(4) 0.0227(2)
O3 O 0.7860(1) 1.2221(4) -0.23909(18)
O4 O 0.71404(9) 1.3080(5) -0.1304(2)
#END
