
#######################################################################
#
#                 Cambridge Crystallographic Data Centre
#                                CCDC
#
#######################################################################
#
# If this CIF has been generated from an entry in the Cambridge
# Structural Database, then it will include bibliographic, chemical,
# crystal, experimental, refinement or atomic coordinate data resulting
# from the CCDC's data processing and validation procedures.
#
#######################################################################

data_CSD_CIF_SINHON
_audit_creation_date 2007-12-12
_audit_creation_method CSD-ConQuest-V1
_database_code_CSD SINHON
_database_code_depnum_ccdc_archive 'CCDC 642432'
_chemical_formula_sum 'C14 H10 N2 O4'
_chemical_formula_moiety
;
C14 H10 N2 O4
;
_journal_coeditor_code "IUCr SI2032"
_journal_coden_Cambridge 1370
_journal_volume 63
_journal_year 2007
_journal_page_first o3999
_journal_name_full 'Acta Crystallogr.,Sect.E:Struct.Rep.Online '
loop_
_publ_author_name
"Guanfan Chen"
"Chenzhong Cao"
_chemical_name_systematic
;
(Z)-1,2-bis(4-Nitrophenyl)ethene
;
_cell_volume   1258.410
_exptl_crystal_colour 'yellow'
_exptl_crystal_density_diffrn 1.426
_exptl_crystal_description 'block'
_exptl_crystal_preparation 'acetonitrile'
_diffrn_ambient_temperature 298
#These two values have been output from a single CSD field.
_refine_ls_R_factor_gt 0.0426
_refine_ls_wR_factor_gt 0.0426
loop_
_citation_database_id_CSD
_citation_special_details
XUWCEX "is a stereoisomer of this entry"
_symmetry_cell_setting monoclinic
_symmetry_space_group_name_H-M 'P 21/c'
_symmetry_Int_Tables_number 14
loop_
_symmetry_equiv_pos_site_id
_symmetry_equiv_pos_as_xyz
1 x,y,z
2 -x,1/2+y,1/2-z
3 -x,-y,-z
4 x,-1/2-y,-1/2+z
_cell_length_a 6.8922(4)
_cell_length_b 22.8669(13)
_cell_length_c 8.0727(5)
_cell_angle_alpha 90
_cell_angle_beta 98.469(2)
_cell_angle_gamma 90
_cell_formula_units_Z 4
loop_
_atom_type_symbol
_atom_type_radius_bond
C 0.68
H 0.23
N 0.68
O 0.68
loop_
_atom_site_label
_atom_site_type_symbol
_atom_site_fract_x
_atom_site_fract_y
_atom_site_fract_z
C1 C 0.2049(2) 0.73977(6) 0.61613(16)
N1 N 0.74204(17) 0.46581(6) 1.07266(16)
C2 C 0.7579(2) 0.56150(6) 0.93698(17)
H1 H 0.76210 0.57940 1.04090
C3 C 0.74826(19) 0.50148(6) 0.92206(16)
C4 C 0.2168(2) 0.67990(6) 0.63390(18)
H2 H 0.12320 0.65940 0.68240
N2 N 0.0403(2) 0.77052(6) 0.67462(16)
C5 C 0.3426(2) 0.77145(6) 0.54582(18)
H3 H 0.33330 0.81190 0.53670
C6 C 0.3704(2) 0.65114(6) 0.57828(18)
H4 H 0.38010 0.61070 0.59000
O1 O -0.07476(19) 0.74209(6) 0.74400(18)
C7 C 0.75668(19) 0.56807(6) 0.63870(17)
C8 C 0.7613(2) 0.59447(6) 0.79455(18)
H5 H 0.76670 0.63500 0.80270
C9 C 0.5118(2) 0.68122(6) 0.50478(16)
O2 O 0.7539(2) 0.49014(6) 1.20713(14)
C10 C 0.7531(2) 0.50730(6) 0.63014(18)
H6 H 0.75540 0.48900 0.52750
C11 C 0.6705(2) 0.65123(7) 0.43457(18)
H7 H 0.70870 0.66890 0.34070
C12 C 0.7464(2) 0.47360(6) 0.77084(19)
H8 H 0.74080 0.43300 0.76370
C13 C 0.4939(2) 0.74179(6) 0.48956(18)
H9 H 0.58630 0.76260 0.44030
C14 C 0.7668(2) 0.60270(6) 0.48576(18)
H10 H 0.85200 0.58860 0.41590
O3 O 0.7226(2) 0.41327(5) 1.05662(17)
O4 O 0.0264(3) 0.82307(6) 0.6530(2)
#END
