
#######################################################################
#
#                 Cambridge Crystallographic Data Centre
#                                CCDC
#
#######################################################################
#
# If this CIF has been generated from an entry in the Cambridge
# Structural Database, then it will include bibliographic, chemical,
# crystal, experimental, refinement or atomic coordinate data resulting
# from the CCDC's data processing and validation procedures.
#
#######################################################################

data_CSD_CIF_SINJIJ
_audit_creation_date 2008-02-26
_audit_creation_method CSD-ConQuest-V1
_database_code_CSD SINJIJ
_database_code_depnum_ccdc_archive 'CCDC 295800'
_chemical_formula_sum 'C40 H44 N4 O12'
_chemical_formula_moiety
;
C40 H44 N4 O12
;
_journal_coden_Cambridge 119
_journal_volume 871
_journal_year 2007
_journal_page_first 33
_journal_name_full 'J.Mol.Struct. '
loop_
_publ_author_name
"J.Klimentova"
"P.Vojtisek"
"M.Sklenarova"
_chemical_name_systematic
;
5,11,17,23-Tetranitro-25,26,27,28-tetrapropoxycalix(4)arene
;
_cell_volume   3774.568
_exptl_crystal_colour 'colorless'
_exptl_crystal_density_diffrn 1.36
_exptl_special_details
;
cone conformer

;
_exptl_crystal_description 'prism'
_exptl_crystal_preparation 'acetonitrile'
_diffrn_ambient_temperature 150
#These two values have been output from a single CSD field.
_refine_ls_R_factor_gt 0.0406
_refine_ls_wR_factor_gt 0.0406
_symmetry_cell_setting monoclinic
_symmetry_space_group_name_H-M 'P 21/n'
_symmetry_Int_Tables_number 14
loop_
_symmetry_equiv_pos_site_id
_symmetry_equiv_pos_as_xyz
1 x,y,z
2 1/2-x,1/2+y,1/2-z
3 -x,-y,-z
4 -1/2+x,-1/2-y,-1/2+z
_cell_length_a 12.4420(2)
_cell_length_b 17.0540(2)
_cell_length_c 17.9440(3)
_cell_angle_alpha 90
_cell_angle_beta 97.5370(8)
_cell_angle_gamma 90
_cell_formula_units_Z 4
loop_
_atom_type_symbol
_atom_type_radius_bond
C 0.68
H 0.23
N 0.68
O 0.68
loop_
_atom_site_label
_atom_site_type_symbol
_atom_site_fract_x
_atom_site_fract_y
_atom_site_fract_z
N1 N 1.32095(9) 0.11521(7) 0.12011(7)
N2 N 1.13725(9) -0.11367(7) 0.40870(7)
N3 N 1.35173(9) 0.23651(8) 0.32024(7)
N4 N 1.16293(9) 0.50516(7) 0.00409(7)
O1 O 0.86933(7) 0.11514(5) 0.06301(5)
O2 O 0.91463(7) 0.12885(5) 0.24868(5)
O3 O 0.91476(7) 0.30414(6) 0.32460(5)
O4 O 0.92765(7) 0.28769(5) 0.14632(5)
O5 O 1.37046(9) 0.15642(7) 0.08068(7)
O6 O 1.36514(10) 0.06991(9) 0.16688(9)
O7 O 1.1717(1) -0.16785(7) 0.37345(7)
O8 O 1.14840(9) -0.11027(7) 0.47764(6)
O9 O 1.41271(9) 0.29121(8) 0.31164(8)
O10 O 1.38352(9) 0.16994(7) 0.33340(8)
O11 O 1.19917(9) 0.56304(6) 0.03928(6)
O12 O 1.16857(9) 0.49576(6) -0.06294(6)
C1 C 1.03281(10) 0.05916(7) 0.12685(7)
C2 C 0.97022(11) -0.00320(8) 0.16364(7)
H1 H 0.89310 0.00420 0.14880
H2 H 0.98970 -0.05470 0.14670
C3 C 0.99502(10) 0.00119(7) 0.24849(7)
C4 C 1.05087(10) -0.05862(8) 0.28964(7)
H3 H 1.06800 -0.10460 0.26600
C5 C 1.08066(10) -0.04897(8) 0.36608(7)
C6 C 1.06164(10) 0.01970(8) 0.40341(7)
H4 H 1.08440 0.02490 0.45460
C7 C 1.00805(10) 0.08062(7) 0.36307(7)
C8 C 0.99835(11) 0.16134(8) 0.39656(7)
H5 H 1.02300 0.15980 0.45010
H6 H 0.92310 0.17790 0.38940
C9 C 1.06656(10) 0.21933(7) 0.35874(7)
C10 C 1.17528(10) 0.20261(8) 0.35588(7)
H7 H 1.20670 0.15770 0.37870
C11 C 1.23606(10) 0.25372(8) 0.31855(7)
C12 C 1.19262(10) 0.31976(8) 0.28143(7)
H8 H 1.23570 0.35220 0.25610
C13 C 1.08362(10) 0.33708(7) 0.28248(7)
C14 C 1.03312(11) 0.40763(7) 0.23936(7)
H9 H 0.95740 0.41160 0.24670
H10 H 1.06950 0.45490 0.25920
C15 C 1.04117(10) 0.40182(7) 0.15592(7)
C16 C 1.09796(10) 0.45667(7) 0.11939(7)
H11 H 1.12820 0.50050 0.14480
C17 C 1.10882(10) 0.44489(7) 0.04404(7)
C18 C 1.0726(1) 0.37756(7) 0.00540(7)
H12 H 1.08630 0.36960 -0.04380
C19 C 1.0156(1) 0.32227(7) 0.04116(7)
C20 C 0.9809(1) 0.24452(7) 0.00519(7)
H13 H 0.99810 0.24340 -0.04600
H14 H 0.90310 0.23840 0.00350
C21 C 1.0384(1) 0.17728(7) 0.04963(7)
C22 C 1.1508(1) 0.17712(7) 0.06465(7)
H15 H 1.19120 0.21620 0.04520
C23 C 1.20194(10) 0.11809(8) 0.10890(7)
C24 C 1.14508(11) 0.06087(7) 0.14183(7)
H16 H 1.18170 0.02390 0.17370
C25 C 0.98073(10) 0.11652(7) 0.07903(7)
C26 C 0.97005(10) 0.06885(7) 0.28685(7)
C27 C 1.0228(1) 0.28730(7) 0.32322(7)
C28 C 0.9935(1) 0.33828(7) 0.11432(7)
C29 C 0.83106(11) 0.07661(9) -0.00691(8)
H17 H 0.84150 0.02040 -0.00160
H18 H 0.87170 0.09490 -0.04610
C30 C 0.71209(12) 0.09469(9) -0.02784(8)
H19 H 0.68780 0.07160 -0.07650
H20 H 0.70330 0.15100 -0.03270
C31 C 0.64045(13) 0.06521(12) 0.02792(10)
H21 H 0.64450 0.00900 0.03060
H22 H 0.56690 0.08090 0.01200
H23 H 0.66450 0.08700 0.07660
C32 C 0.79915(12) 0.12150(11) 0.23318(10)
H24 H 0.78290 0.09270 0.18640
H25 H 0.76940 0.17380 0.22440
C33 C 0.74011(13) 0.08339(11) 0.28936(10)
H26 H 0.76100 0.10750 0.33810
H27 H 0.75990 0.02840 0.29330
C34 C 0.61833(12) 0.09048(11) 0.26828(10)
H28 H 0.59840 0.14490 0.26520
H29 H 0.58220 0.06520 0.30580
H30 H 0.59730 0.06590 0.22050
C35 C 0.89243(12) 0.34629(9) 0.39042(8)
H31 H 0.93400 0.39460 0.39570
H32 H 0.91200 0.31470 0.43510
C36 C 0.77267(13) 0.36415(10) 0.38054(10)
H33 H 0.75560 0.39220 0.42450
H34 H 0.75580 0.39840 0.33740
C37 C 0.70204(14) 0.29257(13) 0.36947(11)
H35 H 0.71360 0.26690 0.32360
H36 H 0.62730 0.30770 0.36680
H37 H 0.72000 0.25730 0.41100
C38 C 0.82059(10) 0.31965(8) 0.15371(8)
H38 H 0.82290 0.37640 0.15010
H39 H 0.80150 0.30630 0.20280
C39 C 0.73503(11) 0.28841(9) 0.09392(8)
H40 H 0.74010 0.23170 0.09180
H41 H 0.74650 0.30930 0.04530
C40 C 0.62311(13) 0.31195(13) 0.11153(10)
H42 H 0.61420 0.29480 0.16130
H43 H 0.56870 0.28800 0.07580
H44 H 0.61580 0.36790 0.10860
#END
