
#######################################################################
#
#                 Cambridge Crystallographic Data Centre
#                                CCDC
#
#######################################################################
#
# If this CIF has been generated from an entry in the Cambridge
# Structural Database, then it will include bibliographic, chemical,
# crystal, experimental, refinement or atomic coordinate data resulting
# from the CCDC's data processing and validation procedures.
#
#######################################################################

data_CSD_CIF_SINJIJ01
_audit_creation_date 1999-01-22
_audit_creation_method CSD-ConQuest-V1
_database_code_CSD SINJIJ01
_database_code_depnum_ccdc_archive 'CCDC 109728'
_chemical_formula_sum 'C40 H44 N4 O12'
_chemical_formula_moiety
;
C40 H44 N4 O12
;
_journal_coden_Cambridge 4
_journal_volume 120
_journal_year 1998
_journal_page_first 7875
_journal_name_full 'J.Am.Chem.Soc. '
loop_
_publ_author_name
"P.J.A.Kenis"
"O.F.J.Noordman"
"S.Houbrechts"
"G.J.van Hummel"
"S.Harkema"
"F.C.J.M.van Veggel"
"K.Clays"
"J.F.J.Engbersen"
"A.Persoons"
"N.F.van Hulst"
"D.N.Reinhoudt"
_chemical_name_systematic
;
5,11,17,23-Tetranitro-25,26,27,28-tetra-n-propoxypentacyclo(19.3.1.1^3,7^.1^9,
13^.1^15,19^)octacosa-1(25),3,5,7(28),9,11,13(27),15,17,19(26),21,23-dodecaene
;
_chemical_name_common
;
Tetranitrotetra-n-propoxycalix(4)arene
;
_cell_volume   3778.200
_exptl_crystal_colour 'colorless'
_exptl_crystal_density_diffrn 1.36
_exptl_special_details
;
paco conformer
Atoms H73A, H73B and H73C appear to be in error and have been suppressed
;
_exptl_crystal_description 'prism'
_exptl_crystal_preparation 'dichloromethane/methanol'
_diffrn_ambient_temperature ?
_diffrn_special_details
;
The study was carried out at room temperature,in the range 283-303K

;
#These two values have been output from a single CSD field.
_refine_ls_R_factor_gt 0.039
_refine_ls_wR_factor_gt 0.039
_symmetry_cell_setting monoclinic
_symmetry_space_group_name_H-M 'P 21/c'
_symmetry_Int_Tables_number 14
loop_
_symmetry_equiv_pos_site_id
_symmetry_equiv_pos_as_xyz
1 x,y,z
2 -x,1/2+y,1/2-z
3 -x,-y,-z
4 x,-1/2-y,-1/2+z
_cell_length_a 12.910(2)
_cell_length_b 16.997(2)
_cell_length_c 17.226(2)
_cell_angle_alpha 90
_cell_angle_beta 91.73(3)
_cell_angle_gamma 90
_cell_formula_units_Z 4
loop_
_atom_type_symbol
_atom_type_radius_bond
C 0.74
H 0.27
N 0.68
O 0.68
loop_
_atom_site_label
_atom_site_type_symbol
_atom_site_fract_x
_atom_site_fract_y
_atom_site_fract_z
O1 O 0.3797(3) 1.1034(2) 0.3862(2)
O2 O 0.4138(3) 0.9802(2) 0.3648(2)
O3 O 0.3104(2) 0.9650(2) 0.7139(2)
O4 O 0.0073(3) 0.7876(2) 0.4795(2)
O5 O -0.1002(3) 0.8220(2) 0.5663(2)
O6 O 0.3071(2) 0.7803(2) 0.7685(2)
O7 O 0.3357(3) 0.8484(2) 1.0507(2)
O8 O 0.2692(3) 0.9562(2) 1.0925(2)
O9 O -0.0223(2) 0.9022(2) 0.8039(2)
O10 O -0.0802(3) 1.0464(2) 0.5350(2)
O11 O -0.1892(3) 1.0601(3) 0.6248(2)
O12 O 0.2150(2) 1.1045(2) 0.8243(2)
N1 N 0.3870(3) 1.0340(3) 0.4072(2)
N2 N -0.0132(3) 0.8043(2) 0.5462(2)
N3 N 0.2736(3) 0.9028(2) 1.0449(2)
N4 N -0.1012(3) 1.0567(3) 0.6021(2)
C1 C 0.3623(3) 1.0155(3) 0.4866(3)
C2 C 0.3281(3) 1.0747(3) 0.5343(3)
C3 C 0.3091(3) 1.0578(3) 0.6105(3)
C4 C 0.3266(3) 0.9817(3) 0.6378(3)
C5 C 0.3551(3) 0.9204(3) 0.5884(3)
C6 C 0.3748(3) 0.9391(3) 0.5124(3)
C7 C 0.4028(3) 0.9742(3) 0.7631(3)
C8 C 0.3759(3) 0.9566(3) 0.8440(3)
C9 C 0.4669(4) 0.9706(3) 0.9006(3)
C10 C 0.3584(4) 0.8373(3) 0.6175(3)
C11 C 0.0708(4) 0.8020(3) 0.6053(3)
C12 C 0.1705(4) 0.8156(3) 0.5839(3)
C13 C 0.2507(3) 0.8118(3) 0.6393(3)
C14 C 0.2277(4) 0.7897(3) 0.7138(3)
C15 C 0.1257(3) 0.7802(3) 0.7368(3)
C16 C 0.0469(3) 0.7870(3) 0.6811(3)
C17 C 0.3558(4) 0.7032(3) 0.7631(3)
C18 C 0.4617(4) 0.7079(3) 0.8036(3)
C19 C 0.4627(5) 0.7367(3) 0.8850(4)
C20 C 0.1026(3) 0.7653(3) 0.8213(3)
C21 C 0.2000(3) 0.9045(3) 0.9781(3)
C22 C 0.1892(4) 0.8375(3) 0.9330(3)
C23 C 0.1164(3) 0.8375(3) 0.8724(3)
C24 C 0.0571(3) 0.9045(3) 0.8599(3)
C25 C 0.0746(3) 0.9748(3) 0.9008(3)
C26 C 0.1465(3) 0.9727(3) 0.9616(3)
C27 C -0.1203(4) 0.8801(3) 0.8349(3)
C28 C -0.2035(4) 0.8844(3) 0.7722(3)
C29 C -0.3064(4) 0.8590(4) 0.8017(3)
C30 C 0.0204(4) 1.0509(3) 0.8767(3)
C31 C -0.0165(4) 1.0683(3) 0.6603(3)
C32 C -0.0381(3) 1.0619(3) 0.7373(3)
C33 C 0.0398(3) 1.0709(3) 0.7932(3)
C34 C 0.1374(3) 1.0929(3) 0.7688(3)
C35 C 0.1598(3) 1.0991(3) 0.6903(3)
C36 C 0.0817(4) 1.0848(3) 0.6355(3)
C37 C 0.2333(5) 1.1893(3) 0.8424(4)
C38 C 0.3347(6) 1.1921(4) 0.8911(4)
C39 C 0.3241(6) 1.1604(4) 0.9695(4)
C40 C 0.2675(4) 1.1182(3) 0.6649(3)
H1 H 0.313(3) 1.128(2) 0.51000
H2 H 0.393(3) 0.897(2) 0.47400
H3 H 0.446(3) 0.938(2) 0.74100
H4 H 0.431(3) 1.028(2) 0.75600
H5 H 0.320(3) 0.988(2) 0.85600
H6 H 0.353(3) 0.903(3) 0.84700
H7 H 0.448(3) 0.957(3) 0.95400
H8 H 0.518(3) 0.934(2) 0.89200
H9 H 0.488(4) 1.027(3) 0.90000
H10 H 0.371(3) 0.803(2) 0.57200
H11 H 0.400(3) 0.827(2) 0.66300
H12 H 0.180(3) 0.831(2) 0.53300
H13 H -0.024(3) 0.780(2) 0.69500
H14 H 0.316(3) 0.664(2) 0.79200
H15 H 0.368(4) 0.690(3) 0.70300
H16 H 0.481(3) 0.651(3) 0.80300
H17 H 0.497(3) 0.746(3) 0.77500
H18 H 0.451(4) 0.792(3) 0.88900
H19 H 0.404(5) 0.707(4) 0.91500
H20 H 0.513(8) 0.714(6) 0.91800
H21 H 0.148(3) 0.718(2) 0.84600
H22 H 0.029(3) 0.746(2) 0.82400
H23 H 0.230(3) 0.790(2) 0.94400
H24 H 0.162(3) 1.015(2) 0.99400
H25 H -0.138(3) 0.914(3) 0.87700
H26 H -0.119(3) 0.825(3) 0.85500
H27 H -0.179(4) 0.853(3) 0.73600
H28 H -0.208(4) 0.935(3) 0.75100
H29 H -0.302(4) 0.812(3) 0.82500
H30 H -0.357(4) 0.863(3) 0.76500
H31 H -0.324(4) 0.891(3) 0.84700
H32 H 0.044(3) 1.092(2) 0.90900
H33 H -0.065(4) 1.055(3) 0.88700
H34 H -0.110(3) 1.051(2) 0.74700
H35 H 0.093(3) 1.086(2) 0.57900
H36 H 0.200(3) 1.183(2) 0.88600
H37 H 0.315(3) 1.125(2) 0.71500
H38 H 0.266(3) 1.170(2) 0.64100
H39 H 0.359(4) 1.232(3) 0.90100
H40 H 0.395(4) 1.178(3) 0.88200
H41? H 0.225(4) 1.229(3) 0.78600
H42? H 0.228(4) 1.150(3) 0.82800
H43? H 0.134(4) 1.220(3) 0.86800
#END
