
#######################################################################
#
#                 Cambridge Crystallographic Data Centre
#                                CCDC
#
#######################################################################
#
# If this CIF has been generated from an entry in the Cambridge
# Structural Database, then it will include bibliographic, chemical,
# crystal, experimental, refinement or atomic coordinate data resulting
# from the CCDC's data processing and validation procedures.
#
#######################################################################

data_CSD_CIF_SINRAI
_audit_creation_date 1991-08-15
_audit_creation_method CSD-ConQuest-V1
_database_code_CSD SINRAI
_chemical_formula_sum 'C13 H15 N1 O4'
_chemical_formula_moiety
;
C13 H15 N1 O4
;
_journal_coden_Cambridge 82
_journal_volume 31
_journal_year 1990
_journal_page_first 195-1
_journal_name_full 'Zh.Strukt.Khim.(Russ.)(J.Struct.Chem.) '
loop_
_publ_author_name
"T.A.Atabaev"
"K.Sh.Karaev"
"A.Ashirov"
"Kh.Atlyev"
_chemical_name_systematic
;
4-Hydroxy-5-nitrophenyl cyclohexyl ketone
;
_chemical_melting_point 369.15
_cell_volume   1211.457
_exptl_crystal_density_diffrn 1.37
_exptl_special_details
;
Melting point range 369.15-370.15K
y(C1) is 0.1651, not -0.1651

;
_diffrn_ambient_temperature ?
_diffrn_special_details
;
The study was carried out at room temperature,in the range 283-303K

;
#These two values have been output from a single CSD field.
_refine_ls_R_factor_gt 0.08
_refine_ls_wR_factor_gt 0.08
_symmetry_cell_setting monoclinic
_symmetry_space_group_name_H-M 'P 1 1 21/b'
_symmetry_Int_Tables_number 14
loop_
_symmetry_equiv_pos_site_id
_symmetry_equiv_pos_as_xyz
1 x,y,z
2 -x,1/2-y,1/2+z
3 -x,-y,-z
4 x,-1/2+y,-1/2-z
_cell_length_a 5.944(3)
_cell_length_b 9.730(6)
_cell_length_c 21.255(9)
_cell_angle_alpha 90
_cell_angle_beta 90
_cell_angle_gamma 99.77(4)
_cell_formula_units_Z 4
loop_
_atom_type_symbol
_atom_type_radius_bond
C 0.68
H 0.23
N 0.68
O 0.68
loop_
_atom_site_label
_atom_site_type_symbol
_atom_site_fract_x
_atom_site_fract_y
_atom_site_fract_z
O1 O 0.5324(9) -0.0135(6) 0.3184(2)
O2 O -0.1235(9) 0.2926(6) 0.1554(2)
O3 O 0.7287(9) -0.1097(6) 0.2232(2)
O4 O 0.6542(10) -0.0575(6) 0.1286(2)
N1 N 0.6229(9) -0.0518(6) 0.1846(2)
C1 C 0.1653(10) 0.1651(7) 0.1824(3)
C2 C 0.1325(14) 0.1789(9) 0.2472(3)
C3 C 0.2544(14) 0.1224(9) 0.2903(3)
C4 C 0.4182(11) 0.0414(7) 0.2732(3)
C5 C 0.4532(9) 0.0285(7) 0.2079(3)
C6 C 0.329(1) 0.0890(7) 0.1643(3)
C7 C 0.023(1) 0.2297(7) 0.1365(3)
C8 C 0.0679(10) 0.2167(7) 0.0663(3)
C9 C 0.2643(11) 0.3309(7) 0.0462(3)
C10 C 0.3132(13) 0.3162(9) -0.0236(4)
C11 C 0.1042(12) 0.3228(8) -0.0639(3)
C12 C -0.0921(11) 0.2092(8) -0.0431(3)
C13 C -0.1460(11) 0.2228(9) 0.0267(4)
H1 H 0.016(10) 0.229(7) 0.254(3)
H2 H 0.198(14) 0.106(9) 0.334(4)
H3 H 0.353(9) 0.069(6) 0.122(3)
H4 H 0.385(9) 0.322(6) 0.068(3)
H5 H 0.218(9) 0.415(6) 0.052(3)
H6 H 0.388(9) 0.236(6) -0.032(3)
H7 H 0.148(9) 0.324(6) -0.101(3)
H8 H 0.065(10) 0.431(7) -0.060(3)
H9 H -0.061(9) 0.100(6) -0.049(3)
H10 H -0.275(10) 0.145(7) 0.038(3)
H11 H -0.221(12) 0.293(8) 0.033(4)
H12? H 0.094(9) 0.104(6) 0.058(3)
H13? H 0.406(10) 0.368(7) -0.033(3)
H14? H -0.273(11) 0.204(7) -0.067(4)
#END
