
#######################################################################
#
#                 Cambridge Crystallographic Data Centre
#                                CCDC
#
#######################################################################
#
# If this CIF has been generated from an entry in the Cambridge
# Structural Database, then it will include bibliographic, chemical,
# crystal, experimental, refinement or atomic coordinate data resulting
# from the CCDC's data processing and validation procedures.
#
#######################################################################

data_CSD_CIF_SINRUC
_audit_creation_date 1991-08-16
_audit_creation_method CSD-ConQuest-V1
_database_code_CSD SINRUC
_chemical_formula_sum 'C11 H8 N2 O3'
_chemical_formula_moiety
;
C11 H8 N2 O3
;
_journal_coden_Cambridge 82
_journal_volume 31
_journal_year 1990
_journal_page_first 187-1
_journal_name_full 'Zh.Strukt.Khim.(Russ.)(J.Struct.Chem.) '
loop_
_publ_author_name
"L.N.Zharkikh"
"G.F.Muzychenko"
"V.G.Kul'nevich"
"V.E.Zavodnik"
_chemical_name_systematic
;
1-(4-Nitrophenyl)pyrrole-2-aldehyde
;
_cell_volume    970.131
_exptl_special_details
;
x(O3) appears to be in error; we suggest 0.2069, not 0.2469

;
_diffrn_ambient_temperature ?
_diffrn_special_details
;
The study was carried out at room temperature,in the range 283-303K

;
#These two values have been output from a single CSD field.
_refine_ls_R_factor_gt 0.034
_refine_ls_wR_factor_gt 0.034
_symmetry_cell_setting monoclinic
_symmetry_space_group_name_H-M 'P 1 1 21/n'
_symmetry_Int_Tables_number 14
loop_
_symmetry_equiv_pos_site_id
_symmetry_equiv_pos_as_xyz
1 x,y,z
2 1/2-x,1/2-y,1/2+z
3 -x,-y,-z
4 -1/2+x,-1/2+y,-1/2-z
_cell_length_a 3.8678(7)
_cell_length_b 12.491(2)
_cell_length_c 20.106(3)
_cell_angle_alpha 90
_cell_angle_beta 90
_cell_angle_gamma 87.10(1)
_cell_formula_units_Z 4
loop_
_atom_type_symbol
_atom_type_radius_bond
C 0.68
H 0.23
N 0.68
O 0.68
loop_
_atom_site_label
_atom_site_type_symbol
_atom_site_fract_x
_atom_site_fract_y
_atom_site_fract_z
O1 O 0.3015(5) 0.2234(1) 0.3122(1)
O2 O 0.5607(8) 0.2600(2) 0.0097(1)
O3 O 0.2069(8) 0.4039(2) 0.0054(1)
N1 N 0.5781(6) 0.4464(2) 0.3002(1)
N2 N 0.4221(7) 0.3439(2) 0.0300(1)
C1 C 0.5487(7) 0.3804(2) 0.3556(1)
C2 C 0.6364(8) 0.4387(2) 0.4104(1)
C3 C 0.7203(8) 0.5410(2) 0.3891(2)
C4 C 0.6845(8) 0.5440(2) 0.3217(2)
C5 C 0.4168(8) 0.2744(2) 0.3579(2)
C6 C 0.5375(6) 0.4200(2) 0.2316(1)
C7 C 0.3649(7) 0.4928(2) 0.1896(1)
C8 C 0.3293(7) 0.4687(2) 0.1233(1)
C9 C 0.4680(7) 0.3719(2) 0.1002(1)
C10 C 0.6453(7) 0.2991(2) 0.1408(1)
C11 C 0.6834(7) 0.3238(2) 0.2070(1)
H1 H 0.621(6) 0.411(2) 0.457(1)
H2 H 0.807(6) 0.598(2) 0.417(1)
H3 H 0.725(7) 0.599(2) 0.288(1)
H4 H 0.430(6) 0.246(2) 0.404(1)
H5 H 0.264(7) 0.561(2) 0.208(1)
H6 H 0.205(6) 0.516(2) 0.093(1)
H7 H 0.758(7) 0.235(2) 0.123(1)
H8 H 0.807(6) 0.275(2) 0.237(1)
#END
