
#######################################################################
#
#                 Cambridge Crystallographic Data Centre
#                                CCDC
#
#######################################################################
#
# If this CIF has been generated from an entry in the Cambridge
# Structural Database, then it will include bibliographic, chemical,
# crystal, experimental, refinement or atomic coordinate data resulting
# from the CCDC's data processing and validation procedures.
#
#######################################################################

data_CSD_CIF_SIPQEO
_audit_creation_date 2008-03-04
_audit_creation_method CSD-ConQuest-V1
_database_code_CSD SIPQEO
_database_code_depnum_ccdc_archive 'CCDC 297965'
_chemical_formula_sum 'C19 H18 N2 O4'
_chemical_formula_moiety
;
C19 H18 N2 O4
;
_journal_coden_Cambridge 179
_journal_volume 46
_journal_year 2007
_journal_page_first 7098
_journal_name_full 'Angew.Chem.,Int.Ed. '
loop_
_publ_author_name
"F.F.Fleming"
"Wang Liu"
"S.Ghosh"
"O.W.Steward"
_chemical_name_systematic
;
2-cyano-2-methyl-3-phenylbutyl 4-nitrobenzoate
;
_chemical_melting_point 360
_cell_volume    882.154
_exptl_crystal_colour 'colorless'
_exptl_crystal_density_diffrn 1.274
_exptl_special_details
;
Melting point range 360-363K

;
_exptl_crystal_description 'plate'
_exptl_crystal_preparation 'ethyl acetate/hexanes'
_diffrn_ambient_temperature 294
#These two values have been output from a single CSD field.
_refine_ls_R_factor_gt 0.0565
_refine_ls_wR_factor_gt 0.0565
_symmetry_cell_setting triclinic
_symmetry_space_group_name_H-M 'P -1'
_symmetry_Int_Tables_number 2
loop_
_symmetry_equiv_pos_site_id
_symmetry_equiv_pos_as_xyz
1 x,y,z
2 -x,-y,-z
_cell_length_a 7.146(7)
_cell_length_b 17.894(6)
_cell_length_c 7.051(2)
_cell_angle_alpha 96.66(3)
_cell_angle_beta 96.20(4)
_cell_angle_gamma 81.62(5)
_cell_formula_units_Z 2
loop_
_atom_type_symbol
_atom_type_radius_bond
C 0.68
H 0.23
N 0.68
O 0.68
loop_
_atom_site_label
_atom_site_type_symbol
_atom_site_fract_x
_atom_site_fract_y
_atom_site_fract_z
O1 O 0.7247(3) 0.2236(1) 0.9274(4)
O2 O 0.9699(4) 0.1337(2) 0.9803(4)
O3 O 0.1451(5) -0.0487(2) 0.6234(5)
O4 O 0.3805(5) -0.1354(2) 0.6620(5)
N1 N 0.4121(5) 0.3840(2) 1.0755(6)
N2 N 0.3114(6) -0.0696(2) 0.6667(5)
C1 C 0.5573(6) 0.3719(2) 1.0191(6)
C2 C 0.7459(4) 0.3573(2) 0.9444(5)
C3 C 0.7141(4) 0.3566(2) 0.7225(5)
C4 C 0.8670(5) 0.4171(2) 1.0427(6)
C5 C 0.8433(5) 0.2811(2) 1.0045(5)
C6 C 0.6157(5) 0.4322(2) 0.6612(6)
C7 C 0.8944(5) 0.3295(2) 0.6242(5)
C8 C 0.9320(5) 0.2541(2) 0.5532(6)
C9 C 1.0905(8) 0.2272(3) 0.4624(7)
C10 C 1.2168(8) 0.2738(5) 0.4356(9)
C11 C 1.1820(7) 0.3496(5) 0.5001(8)
C12 C 1.0217(6) 0.3776(3) 0.5963(6)
C13 C 0.8057(5) 0.1516(2) 0.9267(6)
C14 C 0.6724(5) 0.0964(2) 0.8528(5)
C15 C 0.4794(5) 0.1183(2) 0.8035(6)
C16 C 0.3619(5) 0.0641(2) 0.7420(6)
C17 C 0.4375(5) -0.0106(2) 0.7300(5)
C18 C 0.6263(6) -0.0341(2) 0.7765(6)
C19 C 0.7436(5) 0.0197(2) 0.8365(6)
H1 H 0.62520 0.31910 0.67700
H2 H 0.87160 0.41720 1.17930
H3 H 0.81020 0.46640 1.01020
H4 H 0.99190 0.40730 1.00540
H5 H 0.86170 0.28390 1.14350
H6 H 0.96750 0.26920 0.95910
H7 H 0.50190 0.44730 0.72150
H8 H 0.70000 0.46930 0.69940
H9 H 0.58770 0.42930 0.52580
H10 H 0.84250 0.21940 0.56520
H11 H 1.11620 0.17390 0.41620
H12 H 1.32610 0.25440 0.37240
H13 H 1.26920 0.38390 0.47750
H14 H 0.99730 0.43040 0.64470
H15 H 0.42780 0.17180 0.81730
H16 H 0.22850 0.07810 0.70700
H17 H 0.67870 -0.08710 0.76420
H18 H 0.87730 0.00500 0.86900
#END
