
#######################################################################
#
#                 Cambridge Crystallographic Data Centre
#                                CCDC
#
#######################################################################
#
# If this CIF has been generated from an entry in the Cambridge
# Structural Database, then it will include bibliographic, chemical,
# crystal, experimental, refinement or atomic coordinate data resulting
# from the CCDC's data processing and validation procedures.
#
#######################################################################

data_CSD_CIF_SIPQOY
_audit_creation_date 2008-03-04
_audit_creation_method CSD-ConQuest-V1
_database_code_CSD SIPQOY
_database_code_depnum_ccdc_archive 'CCDC 667708'
_chemical_formula_sum 'C17 H20 N2 O4'
_chemical_formula_moiety
;
C17 H20 N2 O4
;
_journal_coden_Cambridge 179
_journal_volume 46
_journal_year 2007
_journal_page_first 7098
_journal_name_full 'Angew.Chem.,Int.Ed. '
loop_
_publ_author_name
"F.F.Fleming"
"Wang Liu"
"S.Ghosh"
"O.W.Steward"
_chemical_name_systematic
;
(2R,3R)-(4E)-2-cyano-2,3,4-trimethylhex-4-enyl 4-nitrobenzoate
;
_chemical_melting_point 348
_cell_volume   3386.286
_exptl_crystal_colour 'colorless'
_exptl_crystal_density_diffrn 1.241
_exptl_special_details
;
Melting point range 348-350K

;
_exptl_crystal_description 'plate'
_diffrn_ambient_temperature 296
#These two values have been output from a single CSD field.
_refine_ls_R_factor_gt 0.0436
_refine_ls_wR_factor_gt 0.0436
_symmetry_cell_setting orthorhombic
_symmetry_space_group_name_H-M 'P b c a'
_symmetry_Int_Tables_number 61
loop_
_symmetry_equiv_pos_site_id
_symmetry_equiv_pos_as_xyz
1 x,y,z
2 1/2-x,-y,1/2+z
3 -x,1/2+y,1/2-z
4 1/2+x,1/2-y,-z
5 -x,-y,-z
6 -1/2+x,y,-1/2-z
7 x,-1/2-y,-1/2+z
8 -1/2-x,-1/2+y,z
_cell_length_a 14.316(11)
_cell_length_b 7.443(6)
_cell_length_c 31.78(3)
_cell_angle_alpha 90
_cell_angle_beta 90
_cell_angle_gamma 90
_cell_formula_units_Z 8
loop_
_atom_type_symbol
_atom_type_radius_bond
C 0.68
H 0.23
N 0.68
O 0.68
loop_
_atom_site_label
_atom_site_type_symbol
_atom_site_fract_x
_atom_site_fract_y
_atom_site_fract_z
O1 O 0.4474(3) -0.1667(5) 0.80677(10)
O2 O 0.3126(3) -0.1361(5) 0.83354(11)
O3 O 0.29389(18) 0.2212(4) 0.62207(9)
O4 O 0.1496(2) 0.1750(3) 0.64476(6)
N1 N 0.3664(3) -0.1239(5) 0.80458(12)
N2 N -0.0648(2) 0.3071(5) 0.67528(12)
C1 C 0.0115(2) 0.2178(5) 0.60331(9)
C2 C 0.3327(3) -0.0437(5) 0.76480(12)
C3 C 0.2080(3) 0.0378(5) 0.72027(13)
H1 H 0.14430 0.04690 0.71510
C4 C 0.1146(3) 0.2584(5) 0.60665(10)
H2 H 0.14740 0.21110 0.58230
H3 H 0.12450 0.38730 0.60770
C5 C 0.2706(3) 0.0920(4) 0.69012(12)
C6 C 0.3650(3) 0.0790(5) 0.69776(12)
H4 H 0.40760 0.11710 0.67750
C7 C 0.2388(3) -0.0301(5) 0.75830(13)
H5 H 0.19660 -0.06570 0.77890
C8 C 0.2420(3) 0.1691(5) 0.64903(13)
C9 C -0.1206(3) 0.2678(5) 0.55019(11)
C10 C -0.0327(3) 0.2688(5) 0.64384(13)
C11 C -0.1272(3) 0.2003(5) 0.51158(12)
H6 H -0.07190 0.19460 0.49630
C12 C -0.0285(2) 0.3322(5) 0.56640(11)
H7 H 0.01560 0.31780 0.54310
C13 C 0.3964(3) 0.0099(5) 0.73522(14)
H8 H 0.46010 -0.00040 0.74040
C14 C -0.2028(3) 0.2839(6) 0.57878(12)
H9 H -0.25930 0.27000 0.56280
H10 H -0.20240 0.40000 0.59200
H11 H -0.19970 0.19220 0.60000
C15 C -0.0033(3) 0.0151(4) 0.59640(11)
H12 H 0.02920 -0.05090 0.61790
H13 H 0.02060 -0.01830 0.56930
H14 H -0.06880 -0.01190 0.59780
C16 C -0.2118(3) 0.1328(7) 0.48978(14)
H15 H -0.21010 0.00400 0.48870
H16 H -0.21370 0.18000 0.46170
H17 H -0.26650 0.17080 0.50480
C17 C -0.0300(3) 0.5351(5) 0.57647(14)
H18 H -0.05210 0.60030 0.55240
H19 H 0.03200 0.57450 0.58340
H20 H -0.07070 0.55680 0.59990
#END
