
#######################################################################
#
#                 Cambridge Crystallographic Data Centre
#                                CCDC
#
#######################################################################
#
# If this CIF has been generated from an entry in the Cambridge
# Structural Database, then it will include bibliographic, chemical,
# crystal, experimental, refinement or atomic coordinate data resulting
# from the CCDC's data processing and validation procedures.
#
#######################################################################

data_CSD_CIF_SIRWUM
_audit_creation_date 2008-03-04
_audit_creation_method CSD-ConQuest-V1
_database_code_CSD SIRWUM
_database_code_depnum_ccdc_archive 'CCDC 637084'
_chemical_formula_sum 'C16 H18 N1 O1'
_chemical_formula_moiety
;
C16 H18 N1 O1
;
_journal_coden_Cambridge 1291
_journal_year 2007
_journal_page_first 4638
_journal_name_full 'Eur.J.Org.Chem. '
loop_
_publ_author_name
"J.P.Blinco"
"J.C.McMurtrie"
"S.E.Bottle"
_chemical_name_systematic
;
1,1,3,3-Tetramethylbenzo(f)isoindolin-2-oxyl
;
_chemical_melting_point 501.15
_cell_volume   1427.899
_exptl_crystal_colour 'yellow'
_exptl_crystal_density_diffrn 1.118
_exptl_special_details
;
Melting point range 501.15-502.15K
fluorescent

;
_exptl_crystal_description 'plate'
_exptl_crystal_preparation 'heptane'
_diffrn_ambient_temperature 150
#These two values have been output from a single CSD field.
_refine_ls_R_factor_gt 0.0933
_refine_ls_wR_factor_gt 0.0933
_symmetry_cell_setting tetragonal
_symmetry_space_group_name_H-M 'P 43 21 2'
_symmetry_Int_Tables_number 96
loop_
_symmetry_equiv_pos_site_id
_symmetry_equiv_pos_as_xyz
1 x,y,z
2 -x,-y,1/2+z
3 1/2+x,1/2-y,1/4-z
4 1/2-x,1/2+y,3/4-z
5 -y,-x,1/2-z
6 y,x,-z
7 1/2+y,1/2-x,1/4+z
8 1/2-y,1/2+x,3/4+z
_cell_length_a 10.2054(19)
_cell_length_b 10.2054(19)
_cell_length_c 13.710(5)
_cell_angle_alpha 90
_cell_angle_beta 90
_cell_angle_gamma 90
_cell_formula_units_Z 4
loop_
_atom_type_symbol
_atom_type_radius_bond
C 0.68
H 0.23
N 0.68
O 0.68
loop_
_atom_site_label
_atom_site_type_symbol
_atom_site_fract_x
_atom_site_fract_y
_atom_site_fract_z
C1 C 0.6862(6) 0.0219(7) 0.4776(9)
H1 H 0.60840 -0.03420 0.47380
H2 H 0.67320 0.09970 0.43680
H3 H 0.70030 0.04880 0.54540
C2 C 0.8104(7) -0.0968(6) 0.3296(4)
H4 H 0.88580 -0.15350 0.31600
H5 H 0.81600 -0.01770 0.28930
H6 H 0.72930 -0.14380 0.31450
C3 C 0.8109(5) -0.0574(5) 0.4397(3)
C4 C 0.9372(4) 0.0100(4) 0.4665(3)
C5 C 0.9827(5) 0.1277(5) 0.4320(3)
H7 H 0.93300 0.17560 0.38550
C6 C 1.1021(5) 0.1771(5) 0.4653(3)
C7 C 1.1536(6) 0.2989(6) 0.4318(4)
H8 H 1.10560 0.34910 0.38570
C8 C 1.2724(7) 0.3448(7) 0.4657(4)
H9 H 1.30560 0.42600 0.44250
N1 N 0.8225(4) -0.1775(4) 0.50000
O1 O 0.7337(3) -0.2663(3) 0.50000
C1E C 1.0219(6) -0.3138(7) 0.5224(9)
H1E H 0.96580 -0.39160 0.52620
H2E H 1.09970 -0.32680 0.56320
H3E H 1.04880 -0.29970 0.45460
C2E C 0.9032(7) -0.1896(6) 0.6704(4)
H4E H 0.84650 -0.11420 0.68400
H5E H 0.98230 -0.18400 0.71070
H6E H 0.85620 -0.27070 0.68550
C3E C 0.9426(5) -0.1891(5) 0.5603(3)
C4E C 1.0100(4) -0.0628(4) 0.5335(3)
C5E C 1.1277(5) -0.0173(5) 0.5680(3)
H7E H 1.17560 -0.06700 0.61450
C6E C 1.1771(5) 0.1021(5) 0.5347(3)
C7E C 1.2989(6) 0.1536(6) 0.5682(4)
H8E H 1.34910 0.10560 0.61430
C8E C 1.3448(7) 0.2724(7) 0.5343(4)
H9E H 1.42600 0.30560 0.55750
#END
