
#######################################################################
#
#                 Cambridge Crystallographic Data Centre
#                                CCDC
#
#######################################################################
#
# If this CIF has been generated from an entry in the Cambridge
# Structural Database, then it will include bibliographic, chemical,
# crystal, experimental, refinement or atomic coordinate data resulting
# from the CCDC's data processing and validation procedures.
#
#######################################################################

data_CSD_CIF_SIRWOG
_audit_creation_date 2008-03-04
_audit_creation_method CSD-ConQuest-V1
_database_code_CSD SIRWOG
_database_code_depnum_ccdc_archive 'CCDC 637083'
_chemical_formula_sum 'C16 H18 N1 O1'
_chemical_formula_moiety
;
C16 H18 N1 O1
;
_journal_coden_Cambridge 1291
_journal_year 2007
_journal_page_first 4638
_journal_name_full 'Eur.J.Org.Chem. '
loop_
_publ_author_name
"J.P.Blinco"
"J.C.McMurtrie"
"S.E.Bottle"
_chemical_name_systematic
;
1,1,3,3-Tetramethyl-2,3-dihydro-2-azaphenalen-2-oxyl
;
_chemical_melting_point 436.15
_cell_volume   6605.649
_exptl_crystal_colour 'orange'
_exptl_crystal_density_diffrn 1.208
_exptl_special_details
;
Melting point range 436.15-438.15K
fluorescent

;
_exptl_crystal_description 'needle'
_exptl_crystal_preparation 'heptane'
_diffrn_ambient_temperature 150
_refine_special_details
;
Two molecules are disordered over two sites with occupancies 0.70:0.30 and 
0.60:0.40 respectively.
;
#These two values have been output from a single CSD field.
_refine_ls_R_factor_gt 0.0708
_refine_ls_wR_factor_gt 0.0708
_symmetry_cell_setting monoclinic
_symmetry_space_group_name_H-M 'C c'
_symmetry_Int_Tables_number 9
loop_
_symmetry_equiv_pos_site_id
_symmetry_equiv_pos_as_xyz
1 x,y,z
2 x,-y,1/2+z
3 1/2+x,1/2+y,z
4 1/2+x,1/2-y,1/2+z
_cell_length_a 20.337(6)
_cell_length_b 13.962(4)
_cell_length_c 25.385(7)
_cell_angle_alpha 90
_cell_angle_beta 113.589(5)
_cell_angle_gamma 90
_cell_formula_units_Z 20
loop_
_atom_type_symbol
_atom_type_radius_bond
C 0.68
H 0.23
N 0.68
O 0.68
loop_
_atom_site_label
_atom_site_type_symbol
_atom_site_fract_x
_atom_site_fract_y
_atom_site_fract_z
N1 N 0.3852(6) 0.3541(8) 0.6792(5)
N2? N 0.4115(5) 0.4112(6) 0.6811(4)
O1 O 0.4098(8) 0.3295(11) 0.7330(6)
O2? O 0.4484(5) 0.4163(7) 0.7370(4)
C1 C 0.3971(9) 0.5297(13) 0.6892(7)
H1 H 0.43190 0.53450 0.67150
H2 H 0.42260 0.51830 0.73050
H3 H 0.36980 0.58950 0.68290
C2? C 0.3730(8) 0.5771(9) 0.6777(6)
H4? H 0.40520 0.59430 0.65890
H5? H 0.39880 0.58280 0.71940
H6? H 0.33160 0.62030 0.66450
C3 C 0.2919(10) 0.4495(17) 0.6907(9)
H7 H 0.31760 0.44600 0.73260
H8 H 0.25950 0.39450 0.67720
H9 H 0.26400 0.50890 0.68030
C4? C 0.2965(10) 0.4318(14) 0.6890(9)
H10? H 0.32330 0.42250 0.73040
H11? H 0.27800 0.37000 0.67080
H12? H 0.25640 0.47570 0.68240
C5? C 0.3477(8) 0.4754(12) 0.6625(8)
C6 C 0.3466(6) 0.4479(8) 0.6625(6)
C7 C 0.4188(9) 0.2995(13) 0.6461(7)
C8? C 0.4252(6) 0.3264(8) 0.6506(5)
C9 C 0.500(1) 0.320(2) 0.6785(10)
H13 H 0.51560 0.30010 0.71870
H14 H 0.50890 0.38860 0.67680
H15 H 0.52680 0.28410 0.66040
C10? C 0.5069(6) 0.3242(11) 0.6679(6)
H16? H 0.53150 0.31740 0.70970
H17? H 0.52210 0.38390 0.65580
H18? H 0.51920 0.26980 0.64910
C11 C 0.4074(11) 0.1970(13) 0.6526(9)
H19 H 0.35620 0.18200 0.63290
H20 H 0.42380 0.18130 0.69350
H21 H 0.43460 0.15920 0.63560
C12? C 0.3973(7) 0.2377(9) 0.6710(6)
H22? H 0.34500 0.24160 0.65760
H23? H 0.41900 0.23480 0.71300
H24? H 0.41010 0.17990 0.65520
C13 C 0.3873(3) 0.3341(5) 0.5849(3)
C14 C 0.4076(4) 0.2816(5) 0.5481(3)
H25 H 0.44520 0.23610 0.56340
C15 C 0.3739(4) 0.2939(5) 0.4885(3)
H26 H 0.38920 0.25740 0.46390
C16 C 0.3194(4) 0.3577(5) 0.4657(3)
H27 H 0.29700 0.36560 0.42520
C17 C 0.2959(3) 0.4123(4) 0.5014(2)
C18 C 0.2384(4) 0.4773(5) 0.4775(3)
H28 H 0.21460 0.48380 0.43700
C19 C 0.2172(4) 0.5302(5) 0.5124(3)
H29 H 0.17810 0.57330 0.49620
C20 C 0.2517(4) 0.5226(5) 0.5717(3)
H30 H 0.23560 0.56130 0.59510
C21 C 0.3078(3) 0.4615(5) 0.5976(2)
C22 C 0.3306(3) 0.4018(4) 0.5624(2)
N3 N 0.4832(3) 0.8350(4) 0.8802(2)
O3 O 0.5033(3) 0.8112(4) 0.93340(18)
C23 C 0.4958(4) 1.0103(5) 0.8891(3)
H31 H 0.53110 1.01060 0.87170
H32 H 0.52060 1.00310 0.93080
H33 H 0.46900 1.07070 0.88030
C24 C 0.3880(4) 0.9258(5) 0.8906(3)
H34 H 0.41210 0.92000 0.93240
H35 H 0.35550 0.87140 0.87520
H36 H 0.36040 0.98560 0.88080
C25 C 0.4437(3) 0.9266(5) 0.8646(2)
C26 C 0.5191(3) 0.7852(5) 0.8473(3)
C27 C 0.5998(4) 0.8141(6) 0.8737(3)
H37 H 0.62010 0.80160 0.91520
H38 H 0.60440 0.88240 0.86690
H39 H 0.62580 0.77640 0.85570
C28 C 0.5106(4) 0.6774(5) 0.8564(3)
H40 H 0.45980 0.65980 0.83810
H41 H 0.52880 0.66360 0.89760
H42 H 0.53780 0.64020 0.83910
C29 C 0.4861(3) 0.8102(5) 0.7844(2)
C30 C 0.5094(4) 0.7610(6) 0.7475(3)
H43 H 0.54570 0.71350 0.76230
C31 C 0.4789(5) 0.7817(7) 0.6877(3)
H44 H 0.49680 0.75000 0.66300
C32 C 0.4262(5) 0.8439(8) 0.6658(3)
H45 H 0.40480 0.85380 0.62540
C33 C 0.4016(4) 0.8957(6) 0.7016(2)
C34 C 0.3481(4) 0.9658(7) 0.6789(3)
H46 H 0.32820 0.97850 0.63880
C35 C 0.3246(5) 1.0158(7) 0.7142(4)
H47 H 0.28710 1.06130 0.69810
C36 C 0.3554(5) 1.0009(6) 0.7749(3)
H48 H 0.33870 1.03710 0.79880
C37 C 0.4085(3) 0.9351(5) 0.7988(2)
C38 C 0.4321(3) 0.8796(5) 0.7624(2)
N4 N 0.5810(3) 1.3350(5) 1.0821(2)
O4 O 0.6002(3) 1.3222(6) 1.1368(2)
C39 C 0.5845(6) 1.5079(7) 1.0769(5)
H49 H 0.62150 1.50710 1.06120
H50 H 0.60740 1.50640 1.11890
H51 H 0.55570 1.56630 1.06430
C40 C 0.4784(4) 1.4243(6) 1.0784(4)
H52 H 0.50030 1.42350 1.12050
H53 H 0.44710 1.36830 1.06440
H54 H 0.45000 1.48290 1.06510
C41 C 0.5367(4) 1.4215(5) 1.0555(3)
C42 C 0.6216(3) 1.2754(5) 1.0582(3)
C43 C 0.7011(4) 1.3052(5) 1.0856(3)
H55 H 0.71840 1.30180 1.12750
H56 H 0.70610 1.37100 1.07420
H57 H 0.72940 1.26190 1.07250
C44 C 0.6136(4) 1.1691(6) 1.0732(4)
H58 H 0.56480 1.14690 1.05000
H59 H 0.62290 1.16400 1.11410
H60 H 0.64810 1.12940 1.06500
C45 C 0.5942(3) 1.2849(4) 0.9937(2)
C46 C 0.6223(4) 1.2283(6) 0.9639(4)
H61 H 0.65990 1.18490 0.98430
C47 C 0.5965(6) 1.2329(8) 0.9037(5)
H62 H 0.61800 1.19450 0.88400
C48 C 0.5430(6) 1.2901(10) 0.8744(4)
H63 H 0.52470 1.28910 0.83360
C49 C 0.5118(4) 1.3527(7) 0.9011(3)
C50 C 0.4564(5) 1.4157(10) 0.8702(4)
H64 H 0.44000 1.41880 0.82960
C51 C 0.4264(5) 1.4713(9) 0.8966(5)
H65 H 0.38650 1.51020 0.87460
C52 C 0.4535(5) 1.4731(6) 0.9579(4)
H66 H 0.43330 1.51640 0.97620
C53 C 0.5080(3) 1.4135(5) 0.9908(3)
C54 C 0.5383(3) 1.3508(4) 0.9630(2)
N5 N 0.2034(4) 0.5922(5) 0.7782(3)
N6? N 0.1800(9) 0.6457(13) 0.7823(7)
O5 O 0.2340(4) 0.5661(5) 0.8320(3)
O6? O 0.198(1) 0.6431(13) 0.8361(8)
C55 C 0.3092(4) 0.6777(9) 0.7921(4)
H67 H 0.32480 0.61710 0.78140
H68 H 0.32490 0.68040 0.83400
H69 H 0.33040 0.73120 0.77930
C56? C 0.3052(12) 0.705(2) 0.7916(13)
H70? H 0.31950 0.64910 0.77540
H71? H 0.32230 0.69760 0.83330
H72? H 0.32630 0.76290 0.78290
C57 C 0.2018(5) 0.7677(6) 0.7905(4)
H73 H 0.21800 0.75710 0.83200
H74 H 0.14930 0.77060 0.77290
H75 H 0.22150 0.82820 0.78370
C58? C 0.2126(16) 0.8175(16) 0.7809(12)
H76? H 0.24270 0.82870 0.82160
H77? H 0.16210 0.82780 0.77400
H78? H 0.22640 0.86200 0.75730
C59 C 0.2278(4) 0.6845(6) 0.7637(4)
C60? C 0.2228(11) 0.7138(14) 0.7651(11)
C61 C 0.1344(6) 0.5418(7) 0.7456(5)
C62? C 0.1296(12) 0.5678(18) 0.7455(11)
C63 C 0.0797(8) 0.5612(11) 0.7714(7)
H79 H 0.06560 0.62880 0.76600
H80 H 0.10100 0.54630 0.81260
H81 H 0.03730 0.52090 0.75230
C64? C 0.0715(13) 0.581(2) 0.7685(12)
H82? H 0.03060 0.53990 0.74730
H83? H 0.05580 0.64840 0.76360
H84? H 0.09090 0.56470 0.80940
C65 C 0.1507(5) 0.4346(6) 0.7526(4)
H85 H 0.17450 0.41890 0.79360
H86 H 0.18230 0.41770 0.73330
H87 H 0.10580 0.39840 0.73540
C66? C 0.1686(17) 0.4712(19) 0.7641(14)
H88? H 0.21180 0.47100 0.75590
H89? H 0.13660 0.41920 0.74280
H90? H 0.18220 0.46200 0.80540
C67 C 0.1050(3) 0.5746(4) 0.6828(2)
C68 C 0.0460(3) 0.5267(5) 0.6453(3)
H91 H 0.02370 0.48010 0.65990
C69 C 0.0181(4) 0.5442(5) 0.5868(3)
H92 H -0.02400 0.51170 0.56220
C70 C 0.0505(4) 0.6078(5) 0.5644(2)
H93 H 0.03240 0.61730 0.52410
C71 C 0.1121(3) 0.6606(4) 0.6017(2)
C72 C 0.1448(4) 0.7282(5) 0.5790(3)
H94 H 0.12680 0.73920 0.53880
C73 C 0.2029(4) 0.7780(5) 0.6157(3)
H95 H 0.22570 0.82290 0.60040
C74 C 0.2300(4) 0.7644(5) 0.6762(3)
H96 H 0.26960 0.80130 0.70080
C75 C 0.1994(3) 0.6986(5) 0.6987(3)
C76 C 0.1395(3) 0.6429(4) 0.6617(2)
N7 N 0.3076(3) 1.0803(3) 0.98139(18)
O7 O 0.3415(3) 1.0621(4) 1.03533(17)
C77 C 0.4104(3) 1.1727(5) 0.9863(3)
H97 H 0.42800 1.11720 0.97210
H98 H 0.42950 1.17070 1.02840
H99 H 0.42630 1.23170 0.97400
C78 C 0.3006(4) 1.2555(5) 0.9849(3)
H100 H 0.32080 1.25320 1.02700
H101 H 0.24810 1.25250 0.97010
H102 H 0.31500 1.31530 0.97230
C79 C 0.3284(3) 1.1704(4) 0.9618(3)
C80 C 0.2400(3) 1.0251(4) 0.9525(3)
C81 C 0.2591(4) 0.9190(5) 0.9644(3)
H103 H 0.28130 0.90820 1.00600
H104 H 0.29270 0.90060 0.94730
H105 H 0.21540 0.88040 0.94750
C82 C 0.1881(4) 1.0561(6) 0.9800(3)
H106 H 0.17880 1.12500 0.97410
H107 H 0.20970 1.04220 1.02130
H108 H 0.14290 1.02090 0.96200
C83 C 0.2074(3) 1.0455(5) 0.8886(2)
C84 C 0.1476(4) 0.9935(7) 0.8549(3)
H109 H 0.12760 0.94870 0.87250
C85 C 0.1160(5) 1.0058(8) 0.7950(4)
H110 H 0.07500 0.96920 0.77240
C86 C 0.1429(5) 1.0678(9) 0.7699(3)
H111 H 0.12140 1.07310 0.72920
C87 C 0.2030(4) 1.1274(6) 0.8013(3)
C88 C 0.2311(6) 1.1928(8) 0.7755(4)
H112 H 0.20940 1.20080 0.73500
C89 C 0.2896(6) 1.2464(8) 0.8072(4)
H113 H 0.30920 1.29010 0.78870
C90 C 0.3219(5) 1.2367(6) 0.8690(4)
H114 H 0.36190 1.27540 0.89090
C91 C 0.2955(3) 1.1722(5) 0.8966(3)
C92 C 0.2362(3) 1.1155(5) 0.8632(2)
#END
