
#######################################################################
#
#                 Cambridge Crystallographic Data Centre
#                                CCDC
#
#######################################################################
#
# If this CIF has been generated from an entry in the Cambridge
# Structural Database, then it will include bibliographic, chemical,
# crystal, experimental, refinement or atomic coordinate data resulting
# from the CCDC's data processing and validation procedures.
#
#######################################################################

data_CSD_CIF_SIRXUM01
_audit_creation_date 1991-08-16
_audit_creation_method CSD-ConQuest-V1
_database_code_CSD SIRXUM01
_chemical_formula_sum 'C20 H16 N2 O2'
_chemical_formula_moiety
;
C20 H16 N2 O2
;
_journal_coden_Cambridge 188
_journal_year 1991
_journal_page_first 113
_journal_name_full 'J.Chem.Soc.,Perkin Trans.2 '
loop_
_publ_author_name
"J.H.Matthews"
"I.C.Paul"
"D.Y.Curtin"
_chemical_name_systematic
;
E-4-Methyl-N-(4-nitro-\a-phenylbenzylidene)aniline
;
_chemical_melting_point 364.15
_cell_volume   1724.600
_exptl_crystal_colour 'yellow'
_exptl_crystal_density_diffrn 1.22
_exptl_special_details
;
monoclinic polymorph

;
_diffrn_ambient_temperature ?
_diffrn_special_details
;
The study was carried out at room temperature,in the range 283-303K

;
#These two values have been output from a single CSD field.
_refine_ls_R_factor_gt 0.059
_refine_ls_wR_factor_gt 0.059
loop_
_citation_database_id_CSD
_citation_special_details
SIRXOG "is a stereoisomer of this entry"
_symmetry_cell_setting monoclinic
_symmetry_space_group_name_H-M 'P 21/c'
_symmetry_Int_Tables_number 14
loop_
_symmetry_equiv_pos_site_id
_symmetry_equiv_pos_as_xyz
1 x,y,z
2 -x,1/2+y,1/2-z
3 -x,-y,-z
4 x,-1/2-y,-1/2+z
_cell_length_a 11.683(4)
_cell_length_b 10.433(3)
_cell_length_c 14.166(3)
_cell_angle_alpha 90
_cell_angle_beta 92.81(2)
_cell_angle_gamma 90
_cell_formula_units_Z 4
loop_
_atom_type_symbol
_atom_type_radius_bond
C 0.68
H 0.23
N 0.68
O 0.68
loop_
_atom_site_label
_atom_site_type_symbol
_atom_site_fract_x
_atom_site_fract_y
_atom_site_fract_z
O1 O -0.2833(6) 0.5225(8) 0.5526(6)
O2 O -0.1957(8) 0.5054(9) 0.6839(6)
N1 N 0.1285(4) 0.1622(5) 0.3467(4)
N2 N -0.2084(7) 0.4799(8) 0.6016(7)
C1 C 0.1319(5) 0.1731(6) 0.4370(5)
C2 C 0.0440(5) 0.2512(6) 0.4808(5)
C3 C 0.0435(6) 0.2721(6) 0.5784(5)
C4 C -0.0365(7) 0.3474(7) 0.6180(5)
C5 C -0.1201(6) 0.4002(7) 0.5592(7)
C6 C -0.1257(6) 0.3818(7) 0.4633(6)
C7 C -0.0419(6) 0.3075(6) 0.4242(5)
C8 C 0.2113(6) 0.0888(7) 0.3013(5)
C9 C 0.2172(6) -0.0424(8) 0.3116(5)
C10 C 0.2975(7) -0.1124(7) 0.2624(5)
C11 C 0.3715(6) -0.0553(8) 0.2037(5)
C12 C 0.3645(6) 0.0769(8) 0.1931(5)
C13 C 0.2856(6) 0.1476(7) 0.2405(5)
C14 C 0.4563(6) -0.1312(7) 0.1515(5)
C15 C 0.2255(5) 0.1149(6) 0.5000(4)
C16 C 0.2011(6) 0.0106(7) 0.5553(5)
C17 C 0.287(1) -0.0455(9) 0.6114(6)
C18 C 0.3928(10) 0.005(1) 0.6157(6)
C19 C 0.4188(7) 0.1097(9) 0.5628(7)
C20 C 0.3336(6) 0.1650(7) 0.5036(5)
H1 H 0.10100 0.23200 0.61800
H2 H -0.03400 0.36300 0.68400
H3 H -0.18600 0.41900 0.42500
H4 H -0.04300 0.29500 0.35800
H5 H 0.16700 -0.08500 0.35200
H6 H 0.30100 -0.20300 0.27000
H7 H 0.41500 0.11900 0.15300
H8 H 0.28200 0.23800 0.23200
H9 H 0.50000 -0.07500 0.11500
H10 H 0.41700 -0.19100 0.11100
H11 H 0.50600 -0.17500 0.19600
H12 H 0.12500 -0.02300 0.55500
H13 H 0.27200 -0.12000 0.64700
H14 H 0.45100 -0.03300 0.65600
H15 H 0.49400 0.14400 0.56600
H16 H 0.35100 0.23700 0.46600
#END
