
#######################################################################
#
#                 Cambridge Crystallographic Data Centre
#                                CCDC
#
#######################################################################
#
# If this CIF has been generated from an entry in the Cambridge
# Structural Database, then it will include bibliographic, chemical,
# crystal, experimental, refinement or atomic coordinate data resulting
# from the CCDC's data processing and validation procedures.
#
#######################################################################

data_CSD_CIF_SIRXOG
_audit_creation_date 1991-08-16
_audit_creation_method CSD-ConQuest-V1
_database_code_CSD SIRXOG
_chemical_formula_sum 'C20 H16 N2 O2'
_chemical_formula_moiety
;
C20 H16 N2 O2
;
_journal_coden_Cambridge 188
_journal_year 1991
_journal_page_first 113
_journal_name_full 'J.Chem.Soc.,Perkin Trans.2 '
loop_
_publ_author_name
"J.H.Matthews"
"I.C.Paul"
"D.Y.Curtin"
_chemical_name_systematic
;
Z-4-Methyl-N-(4-nitro-\a-phenylbenzylidene)aniline
;
_chemical_melting_point 364.15
_cell_volume   2534.293
_exptl_crystal_colour 'yellow'
_exptl_crystal_density_diffrn 1.24
_diffrn_ambient_temperature ?
_diffrn_special_details
;
The study was carried out at room temperature,in the range 283-303K

;
#These two values have been output from a single CSD field.
_refine_ls_R_factor_gt 0.049
_refine_ls_wR_factor_gt 0.049
loop_
_citation_database_id_CSD
_citation_special_details
SIRXUM "is a stereoisomer of this entry"
_symmetry_cell_setting triclinic
_symmetry_space_group_name_H-M 'P -1'
_symmetry_Int_Tables_number 2
loop_
_symmetry_equiv_pos_site_id
_symmetry_equiv_pos_as_xyz
1 x,y,z
2 -x,-y,-z
_cell_length_a 14.739(9)
_cell_length_b 15.033(4)
_cell_length_c 12.487(4)
_cell_angle_alpha 106.80(2)
_cell_angle_beta 106.02(4)
_cell_angle_gamma 90.44(4)
_cell_formula_units_Z 6
loop_
_atom_type_symbol
_atom_type_radius_bond
C 0.68
H 0.23
N 0.68
O 0.68
loop_
_atom_site_label
_atom_site_type_symbol
_atom_site_fract_x
_atom_site_fract_y
_atom_site_fract_z
N1 N 0.3340(2) 0.3280(2) 0.4806(2)
C1 C 0.4239(2) 0.3402(2) 0.5259(3)
C2 C 0.4723(2) 0.4006(2) 0.6481(3)
C3 C 0.5271(3) 0.3622(2) 0.7296(3)
C4 C 0.5719(3) 0.4183(3) 0.8420(3)
C5 C 0.5612(3) 0.5111(3) 0.8699(3)
C6 C 0.5096(3) 0.5516(3) 0.7908(4)
C7 C 0.4644(2) 0.4953(3) 0.6797(4)
N2 N 0.6087(4) 0.5716(3) 0.9900(4)
O1 O 0.5886(3) 0.6491(3) 1.0207(3)
O2 O 0.6679(2) 0.5397(4) 1.0484(4)
C8 C 0.2710(2) 0.3660(3) 0.5472(3)
C9 C 0.2138(3) 0.4323(3) 0.5172(4)
C10 C 0.1464(3) 0.4630(4) 0.5744(5)
C11 C 0.1338(3) 0.4280(4) 0.6595(5)
C12 C 0.1909(4) 0.3620(5) 0.6880(4)
C13 C 0.2602(3) 0.3312(4) 0.6343(4)
C14 C 0.0568(4) 0.4579(5) 0.7191(6)
C15 C 0.4834(2) 0.2959(2) 0.4506(3)
C16 C 0.5790(2) 0.3273(3) 0.4800(3)
C17 C 0.6323(3) 0.2892(3) 0.4053(4)
C18 C 0.5924(3) 0.2203(3) 0.3027(3)
C19 C 0.4983(3) 0.1875(3) 0.2735(3)
C20 C 0.4443(2) 0.2244(3) 0.3467(3)
N3 N 0.1336(2) 0.1135(2) 0.1071(2)
C21 C 0.1845(2) 0.1671(2) 0.0800(3)
C22 C 0.1793(2) 0.2702(2) 0.1067(3)
C23 C 0.0980(2) 0.3066(2) 0.0563(3)
C24 C 0.0932(2) 0.4014(2) 0.0835(3)
C25 C 0.1690(2) 0.4595(2) 0.1629(3)
C26 C 0.2504(2) 0.4259(2) 0.2147(3)
C27 C 0.2554(2) 0.3313(2) 0.1847(3)
N4 N 0.1637(2) 0.5607(2) 0.1948(3)
O3 O 0.0978(2) 0.5910(2) 0.1377(3)
O4 O 0.2240(2) 0.6105(2) 0.2779(3)
C28 C 0.0689(2) 0.1506(2) 0.1715(3)
C29 C -0.0273(2) 0.1239(2) 0.1203(3)
C30 C -0.0902(2) 0.1564(3) 0.1831(3)
C31 C -0.0602(3) 0.2132(3) 0.2971(3)
C32 C 0.0358(3) 0.2377(3) 0.3480(3)
C33 C 0.1002(2) 0.2066(3) 0.2862(3)
C34 C -0.1304(3) 0.2469(4) 0.3643(4)
C35 C 0.2532(2) 0.1250(2) 0.0170(3)
C36 C 0.2868(2) 0.1698(2) -0.0485(3)
C37 C 0.3493(3) 0.1291(3) -0.1095(3)
C38 C 0.3786(3) 0.0441(3) -0.1040(4)
C39 C 0.3464(3) -0.0006(3) -0.0390(4)
C40 C 0.2834(3) 0.0387(2) 0.0212(3)
N5 N 0.1032(2) -0.1846(2) 0.1464(2)
C41 C 0.1932(2) -0.1713(2) 0.1748(3)
C42 C 0.2532(2) -0.1091(2) 0.2904(3)
C43 C 0.3120(2) -0.1471(2) 0.3700(3)
C44 C 0.3689(2) -0.0898(2) 0.4756(3)
C45 C 0.3669(2) 0.0044(2) 0.4988(3)
C46 C 0.3088(2) 0.0450(2) 0.4223(3)
C47 C 0.2518(2) -0.0136(2) 0.3177(3)
N6 N 0.4290(2) 0.0657(2) 0.6109(3)
O5 O 0.4812(2) 0.0294(2) 0.6767(2)
O6 O 0.4248(2) 0.1492(2) 0.6324(3)
C48 C 0.0507(2) -0.1486(2) 0.2269(3)
C49 C 0.0506(3) -0.1872(3) 0.3141(3)
C50 C -0.0110(3) -0.1601(3) 0.3808(4)
C51 C -0.0725(3) -0.0934(3) 0.3635(3)
C52 C -0.0701(3) -0.0546(3) 0.2777(4)
C53 C -0.0103(3) -0.0818(3) 0.2089(3)
C54 C -0.1407(3) -0.0665(3) 0.4358(4)
C55 C 0.2425(2) -0.2189(2) 0.0881(3)
C56 C 0.1946(2) -0.2921(3) -0.0085(3)
C57 C 0.2393(3) -0.3359(3) -0.0906(3)
C58 C 0.3305(3) -0.3070(3) -0.0783(3)
C59 C 0.3788(3) -0.2350(3) 0.0162(4)
C60 C 0.3353(2) -0.1902(2) 0.1003(3)
H1 H 0.53350 0.29780 0.70960
H2 H 0.61040 0.39390 0.89800
H3 H 0.50590 0.61650 0.81460
H4 H 0.42790 0.52320 0.62550
H5 H 0.22260 0.45700 0.45800
H6 H 0.10480 0.50790 0.55640
H7 H 0.18020 0.33920 0.74830
H8 H 0.30000 0.28460 0.65320
H9 H 0.02620 0.50450 0.69050
H10 H 0.08530 0.48280 0.80220
H11 H 0.01450 0.40560 0.70290
H12 H 0.60710 0.37400 0.55250
H13 H 0.69720 0.31070 0.42830
H14 H 0.62910 0.19720 0.25220
H15 H 0.47090 0.14010 0.20220
H16 H 0.38050 0.20040 0.32840
H17 H 0.04540 0.26530 0.00180
H18 H 0.03820 0.42760 0.04640
H19 H 0.30160 0.46790 0.27130
H20 H 0.31260 0.30640 0.21550
H21 H -0.04890 0.08470 0.04210
H22 H -0.15550 0.13980 0.14770
H23 H 0.05710 0.27570 0.42650
H24 H 0.16620 0.22360 0.32160
H25 H -0.09820 0.28500 0.43920
H26 H -0.16440 0.19440 0.36720
H27 H -0.17430 0.28150 0.32350
H28 H 0.26600 0.22890 -0.05140
H29 H 0.37090 0.15930 -0.15660
H30 H 0.42300 0.01670 -0.14330
H31 H 0.36850 -0.05880 -0.03490
H32 H 0.25970 0.00740 0.06570
H33 H 0.31390 -0.21270 0.35090
H34 H 0.41050 -0.11530 0.52020
H35 H 0.30830 0.11100 0.44260
H36 H 0.21130 0.01300 0.26380
H37 H 0.09220 -0.23260 0.32850
H38 H -0.01150 -0.18640 0.44170
H39 H -0.11120 -0.00850 0.26580
H40 H -0.00940 -0.05510 0.14930
H41 H -0.17850 -0.02040 0.40980
H42 H -0.10680 -0.04240 0.51370
H43 H -0.18220 -0.11990 0.42230
H44 H 0.13100 -0.31090 -0.01810
H45 H 0.20600 -0.38770 -0.15620
H46 H 0.36000 -0.33540 -0.13640
H47 H 0.44220 -0.21640 0.02360
H48 H 0.36990 -0.14020 0.16580
#END
