
#######################################################################
#
#                 Cambridge Crystallographic Data Centre
#                                CCDC
#
#######################################################################
#
# If this CIF has been generated from an entry in the Cambridge
# Structural Database, then it will include bibliographic, chemical,
# crystal, experimental, refinement or atomic coordinate data resulting
# from the CCDC's data processing and validation procedures.
#
#######################################################################

data_CSD_CIF_SIRXUM
_audit_creation_date 1991-08-16
_audit_creation_method CSD-ConQuest-V1
_database_code_CSD SIRXUM
_chemical_formula_sum 'C20 H16 N2 O2'
_chemical_formula_moiety
;
C20 H16 N2 O2
;
_journal_coden_Cambridge 188
_journal_year 1991
_journal_page_first 113
_journal_name_full 'J.Chem.Soc.,Perkin Trans.2 '
loop_
_publ_author_name
"J.H.Matthews"
"I.C.Paul"
"D.Y.Curtin"
_chemical_name_systematic
;
E-4-Methyl-N-(4-nitro-\a-phenylbenzylidene)aniline
;
_chemical_melting_point 351.15
_cell_volume   1664.511
_exptl_crystal_colour 'orange'
_exptl_crystal_density_diffrn 1.26
_exptl_special_details
;
Melting point range 351.15-353.15K
triclinic polymorph

;
_diffrn_ambient_temperature ?
_diffrn_special_details
;
The study was carried out at room temperature,in the range 283-303K

;
#These two values have been output from a single CSD field.
_refine_ls_R_factor_gt 0.045
_refine_ls_wR_factor_gt 0.045
loop_
_citation_database_id_CSD
_citation_special_details
SIRXOG "is a stereoisomer of this entry"
_symmetry_cell_setting triclinic
_symmetry_space_group_name_H-M 'P -1'
_symmetry_Int_Tables_number 2
loop_
_symmetry_equiv_pos_site_id
_symmetry_equiv_pos_as_xyz
1 x,y,z
2 -x,-y,-z
_cell_length_a 11.617(1)
_cell_length_b 14.457(2)
_cell_length_c 11.286(2)
_cell_angle_alpha 104.89(1)
_cell_angle_beta 105.14(1)
_cell_angle_gamma 104.34(1)
_cell_formula_units_Z 4
loop_
_atom_type_symbol
_atom_type_radius_bond
C 0.68
H 0.23
N 0.68
O 0.68
loop_
_atom_site_label
_atom_site_type_symbol
_atom_site_fract_x
_atom_site_fract_y
_atom_site_fract_z
O1 O 0.4091(3) -0.4135(2) -1.2581(3)
O2 O 0.4612(3) -0.2987(2) -1.0685(3)
N1 N 0.8073(2) -0.6404(2) -0.9768(2)
N2 N 0.4725(3) -0.3728(3) -1.1409(3)
C1 C 0.8263(3) -0.5476(2) -0.9150(3)
C2 C 0.7375(3) -0.4996(2) -0.9751(3)
C3 C 0.6440(3) -0.5549(3) -1.0979(3)
C4 C 0.5591(3) -0.5123(3) -1.1538(3)
C5 C 0.5662(3) -0.4163(3) -1.0847(3)
C6 C 0.6573(3) -0.3596(3) -0.9638(3)
C7 C 0.7435(3) -0.4019(3) -0.9106(3)
C8 C 0.8796(3) -0.6953(2) -0.9229(3)
C9 C 0.8649(3) -0.7232(2) -0.8178(3)
C10 C 0.9256(3) -0.7873(3) -0.7771(3)
C11 C 1.0004(3) -0.8249(3) -0.8398(3)
C12 C 1.0146(3) -0.7955(3) -0.9439(3)
C13 C 0.9538(3) -0.7330(3) -0.9873(3)
C14 C 1.0636(4) -0.8961(3) -0.7979(4)
C15 C 0.9337(3) -0.4832(3) -0.7893(3)
C16 C 0.9174(3) -0.4605(3) -0.6703(3)
C17 C 1.0203(3) -0.3999(3) -0.5570(3)
C18 C 1.1383(3) -0.3630(3) -0.5635(3)
C19 C 1.1532(3) -0.3857(3) -0.6814(3)
C20 C 1.0526(3) -0.4464(3) -0.7946(3)
O3 O 0.6906(3) -0.1892(3) -0.0927(3)
O4 O 0.7449(3) -0.0611(3) 0.0827(3)
N3 N 0.4644(2) 0.1690(2) -0.3196(3)
N4 N 0.6868(3) -0.1060(3) -0.0324(4)
C21 C 0.4084(3) 0.0755(3) -0.3398(3)
C22 C 0.4734(3) 0.0275(2) -0.2537(3)
C23 C 0.4417(3) -0.0769(3) -0.2903(3)
C24 C 0.5108(3) -0.1220(3) -0.2190(4)
C25 C 0.6094(3) -0.0596(3) -0.1061(3)
C26 C 0.6399(3) 0.0432(3) -0.0637(3)
C27 C 0.5735(3) 0.0882(3) -0.1382(3)
C28 C 0.4109(3) 0.2218(2) -0.3960(3)
C29 C 0.2971(3) 0.2372(3) -0.3992(3)
C30 C 0.2545(3) 0.2961(3) -0.4668(3)
C31 C 0.3221(3) 0.3424(3) -0.5327(3)
C32 C 0.4359(4) 0.3265(3) -0.5279(4)
C33 C 0.4808(3) 0.2684(3) -0.4595(3)
C34 C 0.2759(4) 0.4066(3) -0.6067(4)
C35 C 0.2869(3) 0.0080(2) -0.4497(3)
C36 C 0.1791(3) -0.0322(3) -0.4240(3)
C37 C 0.0693(3) -0.0959(3) -0.5268(4)
C38 C 0.0665(4) -0.1199(3) -0.6525(4)
C39 C 0.1727(4) -0.0799(3) -0.6785(4)
C40 C 0.2833(3) -0.0154(3) -0.5765(3)
H1 H 0.63900 -0.62200 -1.14300
H2 H 0.49700 -0.54900 -1.23800
H3 H 0.66100 -0.29300 -0.91800
H4 H 0.80800 -0.36300 -0.82800
H5 H 0.81400 -0.69900 -0.77300
H6 H 0.91500 -0.80600 -0.70500
H7 H 1.06800 -0.81900 -0.98700
H8 H 0.96300 -0.71600 -1.06100
H9 H 1.04400 -0.90800 -0.72500
H10 H 1.15300 -0.86700 -0.77400
H11 H 1.03400 -0.95900 -0.86800
H12 H 0.83600 -0.48600 -0.66500
H13 H 1.00900 -0.38400 -0.47500
H14 H 1.20900 -0.32200 -0.48600
H15 H 1.23500 -0.35900 -0.68600
H16 H 1.06600 -0.46300 -0.87600
H17 H 0.37100 -0.11900 -0.36700
H18 H 0.49100 -0.19400 -0.24700
H19 H 0.70700 0.08400 0.01700
H20 H 0.59600 0.16000 -0.11100
H21 H 0.24800 0.20700 -0.35500
H22 H 0.17600 0.30500 -0.46800
H23 H 0.48400 0.35600 -0.57300
H24 H 0.56000 0.26100 -0.45600
H25 H 0.19700 0.40900 -0.60000
H26 H 0.26600 0.37800 -0.69600
H27 H 0.33600 0.47400 -0.57100
H28 H 0.18000 -0.01600 -0.33700
H29 H -0.00500 -0.12300 -0.50900
H30 H -0.00900 -0.16400 -0.72200
H31 H 0.17100 -0.09600 -0.76600
H32 H 0.35700 0.01300 -0.59500
#END
