
#######################################################################
#
#                 Cambridge Crystallographic Data Centre
#                                CCDC
#
#######################################################################
#
# If this CIF has been generated from an entry in the Cambridge
# Structural Database, then it will include bibliographic, chemical,
# crystal, experimental, refinement or atomic coordinate data resulting
# from the CCDC's data processing and validation procedures.
#
#######################################################################

data_CSD_CIF_SITHEK
_audit_creation_date 2013-12-18
_audit_creation_method CSD-ConQuest-V1
_database_code_CSD SITHEK
_database_code_depnum_ccdc_archive 'CCDC 936626'
_chemical_formula_sum 'C8 H5 N5 O4'
_chemical_formula_moiety
;
C8 H5 N5 O4
;
_journal_coden_Cambridge 920
_journal_volume 9
_journal_year 2014
_journal_page_first 166
_journal_name_full 'Chem.Asian J. '
loop_
_publ_author_name
"N.Kommu"
"V.D.Ghule"
"A.Sudheer Kumar"
"A.K.Sahoo"
_chemical_name_systematic
;
1-(3,4-Dinitrophenyl)-1H-1,2,4-triazole
;
_cell_volume   1933.813
_exptl_crystal_density_diffrn 1.616
_diffrn_ambient_temperature 273
#These two values have been output from a single CSD field.
_refine_ls_R_factor_gt 0.0344
_refine_ls_wR_factor_gt 0.0344
_symmetry_cell_setting monoclinic
_symmetry_space_group_name_H-M 'P 21/c'
_symmetry_Int_Tables_number 14
loop_
_symmetry_equiv_pos_site_id
_symmetry_equiv_pos_as_xyz
1 x,y,z
2 -x,1/2+y,1/2-z
3 -x,-y,-z
4 x,-1/2-y,-1/2+z
_cell_length_a 12.597(4)
_cell_length_b 13.613(4)
_cell_length_c 11.277(3)
_cell_angle_alpha 90
_cell_angle_beta 90.046(4)
_cell_angle_gamma 90
_cell_formula_units_Z 8
loop_
_atom_type_symbol
_atom_type_radius_bond
C 0.68
H 0.23
N 0.68
O 0.68
loop_
_atom_site_label
_atom_site_type_symbol
_atom_site_fract_x
_atom_site_fract_y
_atom_site_fract_z
C1 C 0.27034(13) 0.12266(10) 0.28614(14)
C2 C 0.16039(13) 0.13035(10) 0.27226(15)
H1 H 0.11570 0.13200 0.33780
C3 C 0.12003(13) 0.13549(10) 0.15933(15)
C4 C 0.18549(14) 0.13417(10) 0.06054(15)
C5 C 0.29437(14) 0.12579(11) 0.07673(16)
H2 H 0.33910 0.12400 0.01120
C6 C 0.33629(14) 0.12020(11) 0.18880(17)
H3 H 0.40930 0.11470 0.19910
C7 C 0.41155(15) 0.09594(13) 0.43951(17)
H4 H 0.46890 0.08400 0.38960
C8 C 0.31522(18) 0.11658(14) 0.58624(18)
H5 H 0.29440 0.12160 0.66510
N1 N 0.31171(12) 0.11574(8) 0.40202(13)
N2 N 0.24851(13) 0.12912(11) 0.49861(13)
N3 N 0.41644(13) 0.09588(12) 0.55510(15)
N4 N 0.00301(11) 0.13492(10) 0.14829(13)
N5 N 0.14290(13) 0.14516(11) -0.05926(15)
O1 O -0.04311(10) 0.20999(9) 0.16782(13)
O2 O -0.03797(10) 0.05742(10) 0.12539(14)
O3 O 0.05207(11) 0.17269(11) -0.07074(12)
O4 O 0.20136(15) 0.12894(13) -0.14156(14)
C9 C 0.76941(13) 0.37671(10) 0.18490(14)
C10 C 0.65977(13) 0.36938(10) 0.19899(16)
H6 H 0.61490 0.36810 0.13350
C11 C 0.61987(12) 0.36413(10) 0.31174(15)
C12 C 0.68563(15) 0.36521(11) 0.41067(15)
C13 C 0.79445(14) 0.37224(11) 0.39455(16)
H7 H 0.83930 0.37250 0.46010
C14 C 0.83633(14) 0.37874(10) 0.28326(17)
H8 H 0.90930 0.38450 0.27310
N6 N 0.91555(14) 0.40923(12) -0.08218(15)
N7 N 0.74791(13) 0.37271(11) -0.02776(14)
N8 N 0.81132(11) 0.38471(9) 0.06992(13)
C15 C 0.91046(15) 0.40651(14) 0.03311(17)
H9 H 0.96760 0.41810 0.08340
C16 C 0.81393(18) 0.38808(14) -0.11459(19)
H10 H 0.79300 0.38480 -0.19360
N9 N 0.50305(11) 0.36516(11) 0.32254(14)
N10 N 0.64393(14) 0.35559(11) 0.53014(14)
O5 O 0.46214(10) 0.44333(10) 0.34296(15)
O6 O 0.45626(10) 0.28981(9) 0.30515(13)
O7 O 0.70272(15) 0.36865(14) 0.61257(15)
O8 O 0.55194(13) 0.33102(13) 0.54302(13)
#END
