
#######################################################################
#
#                 Cambridge Crystallographic Data Centre
#                                CCDC
#
#######################################################################
#
# If this CIF has been generated from an entry in the Cambridge
# Structural Database, then it will include bibliographic, chemical,
# crystal, experimental, refinement or atomic coordinate data resulting
# from the CCDC's data processing and validation procedures.
#
#######################################################################

data_CSD_CIF_SITPUI
_audit_creation_date 2013-12-18
_audit_creation_method CSD-ConQuest-V1
_database_code_CSD SITPUI
_database_code_depnum_ccdc_archive 'CCDC 902997'
_chemical_formula_sum 'C9 H7 N5 O5'
_chemical_formula_moiety
;
C9 H7 N5 O5
;
_journal_coden_Cambridge 920
_journal_volume 9
_journal_year 2014
_journal_page_first 166
_journal_name_full 'Chem.Asian J. '
loop_
_publ_author_name
"N.Kommu"
"V.D.Ghule"
"A.Sudheer Kumar"
"A.K.Sahoo"
_chemical_name_systematic
;
1-(3-Methoxy-2,6-dinitrophenyl)-1H-1,2,4-triazole
;
_cell_volume   2238.012
_exptl_crystal_density_diffrn 1.574
_diffrn_ambient_temperature 293
#These two values have been output from a single CSD field.
_refine_ls_R_factor_gt 0.1054
_refine_ls_wR_factor_gt 0.1054
_symmetry_cell_setting orthorhombic
_symmetry_space_group_name_H-M 'P b c a'
_symmetry_Int_Tables_number 61
loop_
_symmetry_equiv_pos_site_id
_symmetry_equiv_pos_as_xyz
1 x,y,z
2 1/2-x,-y,1/2+z
3 1/2+x,1/2-y,-z
4 -x,1/2+y,1/2-z
5 -x,-y,-z
6 -1/2+x,y,-1/2-z
7 -1/2-x,-1/2+y,z
8 x,-1/2-y,-1/2+z
_cell_length_a 14.016(2)
_cell_length_b 10.339(2)
_cell_length_c 15.444(3)
_cell_angle_alpha 90
_cell_angle_beta 90
_cell_angle_gamma 90
_cell_formula_units_Z 8
loop_
_atom_type_symbol
_atom_type_radius_bond
C 0.68
H 0.23
N 0.68
O 0.68
loop_
_atom_site_label
_atom_site_type_symbol
_atom_site_fract_x
_atom_site_fract_y
_atom_site_fract_z
N1 N 0.6373(3) 0.8593(6) 0.6594(3)
O1 O 0.3405(3) 1.0669(6) 0.6397(3)
C1 C 0.4841(4) 0.9551(7) 0.6447(3)
C2 C 0.5192(4) 0.7796(7) 0.5536(4)
C3 C 0.5467(3) 0.8638(6) 0.6201(4)
C4 C 0.3940(4) 0.9727(6) 0.6080(4)
N2 N 0.5116(3) 1.0532(9) 0.7125(4)
C5 C 0.2441(4) 1.0800(9) 0.6101(5)
H1 H 0.24380 1.11790 0.55330
H2 H 0.20930 1.13450 0.64930
H3 H 0.21450 0.99630 0.60780
C6 C 0.3694(4) 0.8870(7) 0.5414(4)
H4 H 0.31040 0.89490 0.51420
N3 N 0.5799(5) 0.6805(8) 0.5223(4)
C7 C 0.4305(4) 0.7928(8) 0.5161(4)
H5 H 0.41220 0.73590 0.47250
O2 O 0.6452(4) 0.6419(7) 0.5640(4)
O3 O 0.5022(4) 1.0156(7) 0.7854(4)
O4 O 0.5407(5) 1.1511(9) 0.6903(4)
O5 O 0.5649(7) 0.6373(12) 0.4536(6)
N4 N 0.7143(3) 0.9048(8) 0.6186(4)
N5 N 0.7548(4) 0.8229(9) 0.7466(4)
C8 C 0.6639(5) 0.8098(10) 0.7343(5)
H6 H 0.62260 0.77050 0.77340
C9 C 0.7820(4) 0.8850(9) 0.6739(5)
H7 H 0.84450 0.91150 0.66440
#END
