
#######################################################################
#
#                 Cambridge Crystallographic Data Centre
#                                CCDC
#
#######################################################################
#
# If this CIF has been generated from an entry in the Cambridge
# Structural Database, then it will include bibliographic, chemical,
# crystal, experimental, refinement or atomic coordinate data resulting
# from the CCDC's data processing and validation procedures.
#
#######################################################################

data_CSD_CIF_SITQIX
_audit_creation_date 2013-12-18
_audit_creation_method CSD-ConQuest-V1
_database_code_CSD SITQIX
_database_code_depnum_ccdc_archive 'CCDC 902994'
_chemical_formula_sum 'C9 H7 N5 O4'
_chemical_formula_moiety
;
C9 H7 N5 O4
;
_journal_coden_Cambridge 920
_journal_volume 9
_journal_year 2014
_journal_page_first 166
_journal_name_full 'Chem.Asian J. '
loop_
_publ_author_name
"N.Kommu"
"V.D.Ghule"
"A.Sudheer Kumar"
"A.K.Sahoo"
_chemical_name_systematic
;
1-(4-Methyl-3,5-dinitrophenyl)-1H-1,2,4-triazole
;
_cell_volume   1576.364
_exptl_crystal_density_diffrn 1.45
_diffrn_ambient_temperature 273
#These two values have been output from a single CSD field.
_refine_ls_R_factor_gt 0.0658
_refine_ls_wR_factor_gt 0.0658
_symmetry_cell_setting triclinic
_symmetry_space_group_name_H-M 'P -1'
_symmetry_Int_Tables_number 2
loop_
_symmetry_equiv_pos_site_id
_symmetry_equiv_pos_as_xyz
1 x,y,z
2 -x,-y,-z
_cell_length_a 10.3897(17)
_cell_length_b 11.3847(19)
_cell_length_c 13.945(2)
_cell_angle_alpha 103.027(3)
_cell_angle_beta 99.637(4)
_cell_angle_gamma 93.354(3)
_cell_formula_units_Z 6
loop_
_atom_type_symbol
_atom_type_radius_bond
C 0.68
H 0.23
N 0.68
O 0.68
loop_
_atom_site_label
_atom_site_type_symbol
_atom_site_fract_x
_atom_site_fract_y
_atom_site_fract_z
N1 N 0.4817(3) 0.8065(3) -0.0178(2)
C1 C 0.5304(4) 0.8412(4) 0.0871(3)
C2 C 0.6291(4) 0.9052(4) 0.2949(3)
C3 C 0.6267(4) 0.7798(4) 0.1273(3)
H1 H 0.66100 0.71740 0.08700
N2 N 0.4766(5) 1.0644(4) 0.3080(3)
C4 C 0.4810(4) 0.9337(3) 0.1476(3)
H2 H 0.41450 0.97480 0.12100
C5 C 0.5332(4) 0.9640(3) 0.2492(3)
N3 N 0.5474(3) 0.7305(3) -0.0783(3)
C6 C 0.6711(4) 0.8129(4) 0.2287(3)
N4 N 0.7709(4) 0.7392(4) 0.2681(3)
O1 O 0.3596(4) 1.0676(3) 0.2891(3)
C7 C 0.3740(4) 0.8324(4) -0.0722(3)
H3 H 0.31400 0.88240 -0.04660
N5 N 0.3643(3) 0.7779(3) -0.1665(3)
C8 C 0.4715(5) 0.7175(4) -0.1651(3)
H4 H 0.49050 0.66880 -0.22310
O2 O 0.5516(4) 1.1405(3) 0.3708(3)
C9 C 0.6787(4) 0.9320(4) 0.4070(3)
H5 H 0.73230 1.00800 0.42840
H6 H 0.72960 0.86870 0.42250
H7 H 0.60540 0.93610 0.44100
O3 O 0.8802(4) 0.7619(4) 0.2622(3)
O4 O 0.7364(4) 0.6558(5) 0.2970(4)
N6 N 1.0351(3) 0.1651(3) 0.9787(2)
N7 N 0.7347(4) 0.1989(4) 0.6836(3)
C10 C 0.7832(4) 0.2450(3) 0.7920(3)
C11 C 0.9338(4) 0.2230(3) 0.9333(3)
N8 N 1.0720(3) 0.1949(3) 1.0804(3)
C12 C 0.7327(4) 0.3438(4) 0.8447(3)
C13 C 0.8813(4) 0.1839(3) 0.8327(3)
H8 H 0.91120 0.11790 0.79310
O5 O 0.8108(4) 0.1569(3) 0.6326(2)
N9 N 1.1897(3) 0.0506(3) 1.0100(3)
C14 C 0.7909(4) 0.3765(3) 0.9452(3)
C15 C 0.8879(4) 0.3208(3) 0.9904(3)
H9 H 0.92230 0.34830 1.05840
C16 C 1.1056(4) 0.0794(4) 0.9397(3)
H10 H 1.09670 0.04440 0.87160
N10 N 0.7490(5) 0.4811(4) 1.0114(3)
C17 C 1.1638(4) 0.1233(4) 1.0929(3)
H11 H 1.20900 0.12290 1.15630
C18 C 0.6309(4) 0.4164(4) 0.8001(3)
H12 H 0.64360 0.41950 0.73400
H13 H 0.64010 0.49720 0.84160
H14 H 0.54470 0.37840 0.79640
O6 O 0.6242(4) 0.2063(4) 0.6496(3)
O7 O 0.8157(4) 0.5742(4) 1.0325(4)
O8 O 0.6480(5) 0.4706(4) 1.0368(4)
N11 N 0.0814(3) 0.7765(3) 0.5800(2)
C19 C 0.1199(4) 0.6697(3) 0.5239(3)
C20 C 0.0895(4) 0.5177(3) 0.3754(3)
N12 N 0.3701(4) 0.4573(4) 0.5505(3)
C21 C 0.1927(4) 0.4562(3) 0.4078(3)
N13 N -0.0110(4) 0.8371(3) 0.5363(3)
N14 N 0.0145(4) 0.4735(3) 0.2714(3)
C22 C 0.0504(4) 0.6195(3) 0.4288(3)
H15 H -0.02150 0.65460 0.40200
C23 C 0.2238(4) 0.6153(3) 0.5616(3)
H16 H 0.27220 0.64930 0.62530
C24 C 0.2566(4) 0.5095(3) 0.5045(3)
C25 C 0.1192(4) 0.8348(4) 0.6770(3)
H17 H 0.18160 0.81000 0.72240
O9 O 0.4517(3) 0.5229(3) 0.6132(3)
N15 N 0.0571(4) 0.9302(3) 0.6989(3)
C26 C -0.0195(5) 0.9276(4) 0.6104(4)
H18 H -0.07530 0.98710 0.60250
O10 O 0.3744(4) 0.3504(3) 0.5257(3)
C27 C 0.2268(4) 0.3417(4) 0.3414(3)
H19 H 0.31990 0.34630 0.34380
H20 H 0.18260 0.33380 0.27370
H21 H 0.19940 0.27270 0.36450
O11 O -0.0845(4) 0.4098(4) 0.2572(2)
O12 O 0.0559(4) 0.5041(4) 0.2056(3)
#END
