
#######################################################################
#
#                 Cambridge Crystallographic Data Centre
#                                CCDC
#
#######################################################################
#
# If this CIF has been generated from an entry in the Cambridge
# Structural Database, then it will include bibliographic, chemical,
# crystal, experimental, refinement or atomic coordinate data resulting
# from the CCDC's data processing and validation procedures.
#
#######################################################################

data_CSD_CIF_SITRAQ
_audit_creation_date 2013-12-18
_audit_creation_method CSD-ConQuest-V1
_database_code_CSD SITRAQ
_database_code_depnum_ccdc_archive 'CCDC 902991'
_chemical_formula_sum 'C9 H7 N5 O5'
_chemical_formula_moiety
;
C9 H7 N5 O5
;
_journal_coden_Cambridge 920
_journal_volume 9
_journal_year 2014
_journal_page_first 166
_journal_name_full 'Chem.Asian J. '
loop_
_publ_author_name
"N.Kommu"
"V.D.Ghule"
"A.Sudheer Kumar"
"A.K.Sahoo"
_chemical_name_systematic
;
1-(5-Methoxy-2,4-dinitrophenyl)-1H-1,2,4-triazole
;
_cell_volume   1106.168
_exptl_crystal_density_diffrn 1.592
_diffrn_ambient_temperature 293
#These two values have been output from a single CSD field.
_refine_ls_R_factor_gt 0.0746
_refine_ls_wR_factor_gt 0.0746
_symmetry_cell_setting monoclinic
_symmetry_space_group_name_H-M 'P 21/c'
_symmetry_Int_Tables_number 14
loop_
_symmetry_equiv_pos_site_id
_symmetry_equiv_pos_as_xyz
1 x,y,z
2 -x,1/2+y,1/2-z
3 -x,-y,-z
4 x,-1/2-y,-1/2+z
_cell_length_a 7.8547(10)
_cell_length_b 15.0010(19)
_cell_length_c 11.8132(16)
_cell_angle_alpha 90
_cell_angle_beta 127.373(8)
_cell_angle_gamma 90
_cell_formula_units_Z 4
loop_
_atom_type_symbol
_atom_type_radius_bond
C 0.68
H 0.23
N 0.68
O 0.68
loop_
_atom_site_label
_atom_site_type_symbol
_atom_site_fract_x
_atom_site_fract_y
_atom_site_fract_z
O1 O 0.8318(4) 0.9168(2) 0.3612(3)
O2 O 0.2050(6) 0.7692(3) -0.2550(4)
O3 O 0.0344(5) 0.8905(3) -0.2851(3)
O4 O 0.5182(6) 0.9068(3) 0.3802(4)
O5 O 0.2029(5) 0.9384(3) 0.1891(4)
N1 N 0.6328(5) 0.8462(2) -0.1027(3)
N2 N 0.5275(6) 0.8842(3) -0.2338(4)
N3 N 0.7984(6) 0.7970(3) -0.1863(4)
N4 N 0.1871(6) 0.8410(3) -0.2144(4)
N5 N 0.3916(6) 0.9177(3) 0.2516(4)
C1 C 0.6343(7) 0.8525(3) -0.2770(5)
H1 H 0.59920 0.86730 -0.36540
C2 C 0.7911(7) 0.7948(3) -0.0784(5)
H2 H 0.88390 0.76180 0.00420
C3 C 0.5742(6) 0.8642(3) -0.0124(4)
C4 C 0.7319(6) 0.8835(3) 0.1286(4)
H3 H 0.87400 0.88540 0.16240
C5 C 0.6821(6) 0.9002(3) 0.2221(4)
C6 C 0.4647(6) 0.9024(3) 0.1643(4)
C7 C 0.3051(6) 0.8872(3) 0.0208(4)
H4 H 0.16170 0.89110 -0.01630
C8 C 0.3601(6) 0.8664(3) -0.0661(4)
C9 C 1.0549(7) 0.9083(3) 0.4203(5)
H5 H 1.14280 0.91850 0.52120
H6 H 1.08910 0.95120 0.37670
H7 H 1.08090 0.84930 0.40230
#END
