
#######################################################################
#
#                 Cambridge Crystallographic Data Centre
#                                CCDC
#
#######################################################################
#
# If this CIF has been generated from an entry in the Cambridge
# Structural Database, then it will include bibliographic, chemical,
# crystal, experimental, refinement or atomic coordinate data resulting
# from the CCDC's data processing and validation procedures.
#
#######################################################################

data_CSD_CIF_SITROD
_audit_creation_date 2008-06-20
_audit_creation_method CSD-ConQuest-V1
_database_code_CSD SITROD
_database_code_depnum_ccdc_archive 'CCDC 678774'
_chemical_formula_sum 'C12 H13 N1 O5'
_chemical_formula_moiety
;
C12 H13 N1 O5
;
_journal_coden_Cambridge 35
_journal_volume 72
_journal_year 2007
_journal_page_first 9905
_journal_name_full 'J.Org.Chem. '
loop_
_publ_author_name
"Xiao-Ying Xu"
"Zhuo Tang"
"Yan-Zhao Wang"
"Shi-Wei Luo"
"Lin-Feng Cun"
"Liu-Zhu Gong"
_chemical_name_systematic
;
syn-3-Hydroxy-5-methyl-3-(2-nitrobenzyl)dihydrofuran-2(3H)-one
;
_cell_volume    597.791
_exptl_crystal_density_diffrn 1.396
_diffrn_ambient_temperature 293
#These two values have been output from a single CSD field.
_refine_ls_R_factor_gt 0.0379
_refine_ls_wR_factor_gt 0.0379
_symmetry_cell_setting monoclinic
_symmetry_space_group_name_H-M 'P 21'
_symmetry_Int_Tables_number 4
loop_
_symmetry_equiv_pos_site_id
_symmetry_equiv_pos_as_xyz
1 x,y,z
2 -x,1/2+y,-z
_cell_length_a 5.630(3)
_cell_length_b 6.028(3)
_cell_length_c 17.632(10)
_cell_angle_alpha 90
_cell_angle_beta 92.560(2)
_cell_angle_gamma 90
_cell_formula_units_Z 2
loop_
_atom_type_symbol
_atom_type_radius_bond
C 0.68
H 0.23
N 0.68
O 0.68
loop_
_atom_site_label
_atom_site_type_symbol
_atom_site_fract_x
_atom_site_fract_y
_atom_site_fract_z
O1 O 0.0568(3) 0.8382(3) 0.13754(10)
O2 O 0.0535(3) 0.5000(3) 0.18727(11)
O3 O 0.5408(3) 0.4947(3) 0.15264(10)
H1 H 0.49250 0.46270 0.10940
O4 O 0.0831(3) 0.9006(4) 0.30554(11)
N1 N 0.1130(4) 0.7941(4) 0.36374(12)
C1 C 0.1645(4) 0.6605(4) 0.16898(14)
C2 C 0.5217(4) 0.7625(5) 0.25628(14)
H2 H 0.69210 0.78630 0.25670
H3 H 0.44830 0.90280 0.26860
C3 C 0.2320(4) 1.0149(5) 0.12304(15)
H4 H 0.23990 1.11900 0.16580
C4 C 0.4695(4) 0.5970(5) 0.31761(14)
C5 C 0.4351(4) 0.6954(4) 0.17493(14)
C6 C 0.2477(5) 0.4536(6) 0.42356(15)
H5 H 0.12110 0.46800 0.45530
C7 C 0.2823(4) 0.6093(5) 0.36729(14)
C8 C 0.4642(5) 0.8895(5) 0.12026(15)
H6 H 0.59710 0.98270 0.13670
H7 H 0.48950 0.83670 0.06930
C9 C 0.6230(5) 0.4174(5) 0.32997(17)
H8 H 0.75200 0.40230 0.29920
O5 O 0.0042(5) 0.8336(5) 0.42052(14)
C10 C 0.4012(6) 0.2784(6) 0.43204(18)
H9 H 0.37720 0.17120 0.46890
C11 C 0.5911(6) 0.2615(6) 0.38591(19)
H10 H 0.69810 0.14480 0.39240
C12 C 0.1499(6) 1.1347(6) 0.05194(17)
H11 H 0.14830 1.03370 0.00980
H12 H 0.25640 1.25520 0.04280
H13 H -0.00740 1.19170 0.05780
#END
