
#######################################################################
#
#                 Cambridge Crystallographic Data Centre
#                                CCDC
#
#######################################################################
#
# If this CIF has been generated from an entry in the Cambridge
# Structural Database, then it will include bibliographic, chemical,
# crystal, experimental, refinement or atomic coordinate data resulting
# from the CCDC's data processing and validation procedures.
#
#######################################################################

data_CSD_CIF_SIVKIR
_audit_creation_date 1991-10-24
_audit_creation_method CSD-ConQuest-V1
_database_code_CSD SIVKIR
_chemical_formula_sum 'C34 H20 N2 O4'
_chemical_formula_moiety
;
C34 H20 N2 O4
;
_journal_coden_Cambridge 35
_journal_volume 56
_journal_year 1991
_journal_page_first 688
_journal_name_full 'J.Org.Chem. '
loop_
_publ_author_name
"R.P.L'Esperance"
"D.van Engen"
"R.Dayal"
"R.A.Pascal Junior"
_chemical_name_systematic
;
9,14-bis(4-Nitrophenyl)benzo(b)triphenylene
;
_chemical_melting_point 380
_cell_volume   2501.470
_exptl_crystal_colour 'yellow'
_exptl_crystal_density_diffrn 1.38
_exptl_special_details
;
Melting point range 380-381K

;
_diffrn_ambient_temperature ?
_diffrn_special_details
;
The study was carried out at room temperature,in the range 283-303K

;
#These two values have been output from a single CSD field.
_refine_ls_R_factor_gt 0.068
_refine_ls_wR_factor_gt 0.068
_symmetry_cell_setting orthorhombic
_symmetry_space_group_name_H-M 'P b c m'
_symmetry_Int_Tables_number 57
loop_
_symmetry_equiv_pos_site_id
_symmetry_equiv_pos_as_xyz
1 x,y,z
2 -x,1/2+y,z
3 x,1/2-y,1/2+z
4 -x,-y,1/2+z
5 -x,-y,-z
6 x,-1/2-y,-z
7 -x,-1/2+y,-1/2-z
8 x,y,-1/2-z
_cell_length_a 5.795(2)
_cell_length_b 15.929(7)
_cell_length_c 27.099(11)
_cell_angle_alpha 90
_cell_angle_beta 90
_cell_angle_gamma 90
_cell_formula_units_Z 4
loop_
_atom_type_symbol
_atom_type_radius_bond
C 0.68
H 0.23
N 0.68
O 0.68
loop_
_atom_site_label
_atom_site_type_symbol
_atom_site_fract_x
_atom_site_fract_y
_atom_site_fract_z
C1 C 0.1439(8) 0.1522(3) 0.1979(2)
C2 C 0.2849(8) 0.2087(3) 0.2232(2)
C3 C 0.4413(8) 0.2668(3) 0.1974(2)
C4 C 0.4064(9) 0.2948(3) 0.1485(2)
C5 C 0.5645(9) 0.3441(3) 0.1243(2)
C6 C 0.7691(10) 0.3668(3) 0.1480(2)
C7 C 0.8001(9) 0.3464(3) 0.1967(2)
C8 C 0.6333(7) 0.3000(3) 0.2231(2)
C9 C -0.0085(8) 0.0973(3) 0.2239(2)
C10 C -0.1582(9) 0.0410(3) 0.1992(2)
C11 C -0.3086(10) -0.0101(3) 0.2241(2)
C12 C 0.1421(9) 0.1411(3) 0.1429(2)
C13 C 0.3194(9) 0.0980(3) 0.1196(2)
C14 C 0.312(1) 0.0836(3) 0.0691(2)
C15 C 0.1264(11) 0.1132(4) 0.0429(2)
C16 C -0.0508(11) 0.1562(3) 0.0649(2)
C17 C -0.0442(9) 0.1688(3) 0.1154(2)
N1 N 0.1161(14) 0.0980(4) -0.0110(2)
O1 O 0.2583(12) 0.0526(4) -0.0293(2)
O2 O -0.0400(14) 0.1299(4) -0.0338(2)
H1 H 0.26740 0.27880 0.13160
H2 H 0.53450 0.36280 0.09120
H3 H 0.88730 0.39640 0.13030
H4 H 0.93840 0.36410 0.21320
H5 H -0.15420 0.03860 0.16380
H6 H -0.41310 -0.04570 0.20630
H7 H 0.44790 0.07780 0.13860
H8 H 0.43420 0.05380 0.05290
H9 H -0.17730 0.17720 0.04560
H10 H -0.16980 0.19700 0.13150
C2G C 0.2849(8) 0.2087(3) 0.2768(2)
C8G C 0.6333(7) 0.3000(3) 0.2769(2)
C9G C -0.0085(8) 0.0973(3) 0.2761(2)
C11G C -0.3086(10) -0.0101(3) 0.2759(2)
C1G C 0.1439(8) 0.1522(3) 0.3021(2)
C3G C 0.4413(8) 0.2668(3) 0.3026(2)
C7G C 0.8001(9) 0.3464(3) 0.3033(2)
C10G C -0.1582(9) 0.0410(3) 0.3008(2)
H6G H -0.41310 -0.04570 0.29370
C12G C 0.1421(9) 0.1411(3) 0.3571(2)
C4G C 0.4064(9) 0.2948(3) 0.3515(2)
C6G C 0.7691(10) 0.3668(3) 0.3520(2)
H4G H 0.93840 0.36410 0.28680
H5G H -0.15420 0.03860 0.33620
C13G C 0.3194(9) 0.0980(3) 0.3804(2)
C17G C -0.0442(9) 0.1688(3) 0.3846(2)
C5G C 0.5645(9) 0.3441(3) 0.3757(2)
H1G H 0.26740 0.27880 0.36840
H3G H 0.88730 0.39640 0.36970
C14G C 0.312(1) 0.0836(3) 0.4309(2)
H7G H 0.44790 0.07780 0.36140
C16G C -0.0508(11) 0.1562(3) 0.4351(2)
H10G H -0.16980 0.19700 0.36850
H2G H 0.53450 0.36280 0.40880
C15G C 0.1264(11) 0.1132(4) 0.4571(2)
H8G H 0.43420 0.05380 0.44710
H9G H -0.17730 0.17720 0.45440
N1G N 0.1161(14) 0.0980(4) 0.5110(2)
O1G O 0.2583(12) 0.0526(4) 0.5293(2)
O2G O -0.0400(14) 0.1299(4) 0.5338(2)
#END
