
#######################################################################
#
#                 Cambridge Crystallographic Data Centre
#                                CCDC
#
#######################################################################
#
# If this CIF has been generated from an entry in the Cambridge
# Structural Database, then it will include bibliographic, chemical,
# crystal, experimental, refinement or atomic coordinate data resulting
# from the CCDC's data processing and validation procedures.
#
#######################################################################

data_CSD_CIF_SIVMAL
_audit_creation_date 1991-10-24
_audit_creation_method CSD-ConQuest-V1
_database_code_CSD SIVMAL
_chemical_formula_sum 'C35 H22 N2 O4'
_chemical_formula_moiety
;
C35 H22 N2 O4
;
_journal_coden_Cambridge 35
_journal_volume 56
_journal_year 1991
_journal_page_first 688
_journal_name_full 'J.Org.Chem. '
loop_
_publ_author_name
"R.P.L'Esperance"
"D.van Engen"
"R.Dayal"
"R.A.Pascal Junior"
_chemical_name_systematic
;
9,14-bis(4-Nitrophenyl)-11-methylbenzo(b)triphenylene
;
_chemical_melting_point 547.15
_cell_volume   5289.669
_exptl_crystal_colour 'yellow'
_exptl_crystal_density_diffrn 1.34
_exptl_special_details
;
Melting point range 547.15-548.15K

;
_diffrn_ambient_temperature ?
_diffrn_special_details
;
The study was carried out at room temperature,in the range 283-303K

;
_refine_special_details
;
The methyl group is disordered over two positions.

;
#These two values have been output from a single CSD field.
_refine_ls_R_factor_gt 0.071
_refine_ls_wR_factor_gt 0.071
_symmetry_cell_setting monoclinic
_symmetry_space_group_name_H-M 'P 21/n'
_symmetry_Int_Tables_number 14
loop_
_symmetry_equiv_pos_site_id
_symmetry_equiv_pos_as_xyz
1 x,y,z
2 1/2-x,1/2+y,1/2-z
3 -x,-y,-z
4 -1/2+x,-1/2-y,-1/2+z
_cell_length_a 11.230(3)
_cell_length_b 19.132(11)
_cell_length_c 24.645(14)
_cell_angle_alpha 90
_cell_angle_beta 92.58(3)
_cell_angle_gamma 90
_cell_formula_units_Z 8
loop_
_atom_type_symbol
_atom_type_radius_bond
C 0.68
H 0.23
N 0.68
O 0.68
loop_
_atom_site_label
_atom_site_type_symbol
_atom_site_fract_x
_atom_site_fract_y
_atom_site_fract_z
C1 C 0.1375(4) 0.0203(2) 0.1973(2)
C2 C 0.0904(3) 0.0322(2) 0.2477(2)
C3 C -0.0298(4) 0.0629(2) 0.2538(2)
C4 C -0.0818(4) 0.1079(2) 0.2147(2)
C5 C -0.1927(4) 0.1373(3) 0.2204(2)
C6 C -0.2550(4) 0.1215(3) 0.2656(2)
C7 C -0.2050(4) 0.0817(3) 0.3060(2)
C8 C -0.0906(4) 0.0516(2) 0.3014(2)
C9 C -0.0306(4) 0.0132(2) 0.3464(2)
C10 C -0.0952(4) -0.0103(3) 0.3901(2)
C11 C -0.0414(4) -0.0432(3) 0.4340(2)
C12 C 0.0785(4) -0.0554(3) 0.4342(2)
C13 C 0.1443(4) -0.0353(2) 0.3911(2)
C14 C 0.0920(3) 0.0000(2) 0.3459(2)
C15 C 0.1594(3) 0.0163(2) 0.2970(2)
C16 C 0.2840(3) 0.0111(2) 0.2938(2)
C17 C 0.3360(4) 0.0076(2) 0.2424(2)
C18 C 0.4624(4) 0.0029(2) 0.2368(2)
C19 C 0.5088(4) -0.0120(3) 0.1884(2)
C20 C 0.4349(4) -0.0250(3) 0.1417(2)
C21 C 0.3150(4) -0.0152(2) 0.1450(2)
C22 C 0.2623(4) 0.0037(2) 0.1944(2)
C23 C 0.0612(4) 0.0218(2) 0.1459(2)
C24 C 0.0872(4) 0.0657(2) 0.1031(2)
C25 C 0.0103(4) 0.0709(2) 0.0578(2)
C26 C -0.0913(4) 0.0307(2) 0.0557(2)
C27 C -0.1166(4) -0.0156(3) 0.0961(2)
C28 C -0.0392(4) -0.0201(2) 0.1409(2)
N1 N -0.1773(4) 0.0391(2) 0.0087(2)
O1 O -0.1527(4) 0.0801(2) -0.0269(1)
O2 O -0.2675(3) 0.0029(2) 0.0075(1)
C29 C 0.3672(3) 0.0110(2) 0.3426(2)
C30 C 0.4450(4) -0.0437(3) 0.3536(2)
C31 C 0.5302(4) -0.0411(3) 0.3959(2)
C32 C 0.5370(4) 0.0176(3) 0.4264(2)
C33 C 0.4617(4) 0.0734(2) 0.4181(2)
C34 C 0.3766(4) 0.0685(2) 0.3764(2)
N2 N 0.6306(4) 0.0225(4) 0.4713(2)
O3 O 0.6896(3) -0.0297(3) 0.4808(2)
O4 O 0.6412(4) 0.0773(3) 0.4956(2)
C35? C 0.6371(12) -0.0200(9) 0.1760(7)
C36 C 0.4908(5) -0.0510(4) 0.0939(3)
C37 C 0.6576(4) 0.2608(2) 0.4620(2)
C38 C 0.6918(4) 0.2594(2) 0.4088(2)
C39 C 0.8134(4) 0.2405(2) 0.3939(2)
C40 C 0.8853(4) 0.1963(2) 0.4273(2)
C41 C 0.9951(4) 0.1736(3) 0.4118(2)
C42 C 1.0366(4) 0.1939(3) 0.3624(2)
C43 C 0.9660(4) 0.2349(3) 0.3281(2)
C44 C 0.8542(4) 0.2585(2) 0.3431(2)
C45 C 0.7748(4) 0.2968(2) 0.3048(2)
C46 C 0.8177(5) 0.3294(3) 0.2590(2)
C47 C 0.7448(6) 0.3614(3) 0.2207(2)
C48 C 0.6256(5) 0.3632(3) 0.2287(2)
C49 C 0.5807(4) 0.3327(2) 0.2734(2)
C50 C 0.6516(4) 0.2986(2) 0.3127(2)
C51 C 0.6059(4) 0.2724(2) 0.3647(2)
C52 C 0.4849(4) 0.2654(2) 0.3748(2)
C53 C 0.4491(4) 0.2531(3) 0.4288(2)
C54 C 0.3252(4) 0.2475(3) 0.4412(2)
C55 C 0.2912(4) 0.2434(3) 0.4932(2)
C56 C 0.3743(5) 0.2479(3) 0.5373(2)
C57 C 0.4915(4) 0.2557(3) 0.5276(2)
C58 C 0.5335(4) 0.2583(2) 0.4736(2)
C59 C 0.7483(4) 0.2735(2) 0.5073(2)
C60 C 0.8147(4) 0.3348(2) 0.5051(2)
C61 C 0.9017(4) 0.3499(3) 0.5441(2)
C62 C 0.9224(5) 0.3043(3) 0.5861(2)
C63 C 0.8584(5) 0.2438(3) 0.5904(2)
C64 C 0.7707(4) 0.2276(3) 0.5509(2)
N3 N 1.0162(4) 0.3192(3) 0.6281(2)
O5 O 1.0267(4) 0.2831(3) 0.6671(2)
O6 O 1.0830(4) 0.3691(3) 0.6190(2)
C65 C 0.3922(4) 0.2622(2) 0.3304(2)
C66 C 0.3931(4) 0.2076(2) 0.2932(2)
C67 C 0.3119(4) 0.2037(2) 0.2499(2)
C68 C 0.2290(4) 0.2559(2) 0.2432(2)
C69 C 0.2225(4) 0.3102(2) 0.2795(2)
C70 C 0.3036(4) 0.3123(2) 0.3233(2)
C71? C 0.1710(14) 0.2427(13) 0.5165(7)
C72 C 0.3246(7) 0.2442(5) 0.5905(3)
N4 N 0.1432(3) 0.2522(2) 0.1963(2)
O7 O 0.1510(3) 0.2043(2) 0.1644(1)
O8 O 0.0670(3) 0.2970(2) 0.1916(2)
H1 H -0.03890 0.11870 0.18300
H2 H -0.22600 0.16830 0.19310
H3 H -0.33470 0.13860 0.26860
H4 H -0.24780 0.07370 0.33830
H5 H -0.17990 -0.00310 0.38930
H6 H -0.08700 -0.05750 0.46410
H7 H 0.11730 -0.07840 0.46470
H8 H 0.22810 -0.04550 0.39190
H9 H 0.51510 0.01060 0.26800
H10 H 0.26440 -0.02120 0.11290
H11 H 0.15930 0.09270 0.10490
H12 H 0.02770 0.10170 0.02850
H13 H -0.18670 -0.04430 0.09310
H14 H -0.05520 -0.05290 0.16910
H15 H 0.43970 -0.08480 0.33120
H16 H 0.58290 -0.07980 0.40340
H17 H 0.46810 0.11430 0.44060
H18 H 0.32150 0.10640 0.37060
H19 H 0.51080 -0.09940 0.09890
H20 H 0.56200 -0.02470 0.08820
H21 H 0.43680 -0.04610 0.06280
H22 H 0.85710 0.18160 0.46170
H23 H 1.04270 0.14370 0.43540
H24 H 1.11410 0.17950 0.35190
H25 H 0.99420 0.24770 0.29320
H26 H 0.90210 0.32940 0.25420
H27 H 0.77670 0.38210 0.18900
H28 H 0.57280 0.38620 0.20270
H29 H 0.49630 0.33500 0.27800
H30 H 0.26610 0.24400 0.41200
H31 H 0.54810 0.25970 0.55780
H32 H 0.79920 0.36700 0.47570
H33 H 0.94750 0.39210 0.54200
H34 H 0.87380 0.21290 0.62060
H35 H 0.72570 0.18510 0.55350
H36 H 0.45220 0.17160 0.29790
H37 H 0.31320 0.16520 0.22490
H38 H 0.16300 0.34580 0.27450
H39 H 0.29850 0.34930 0.34940
H40 H 0.36470 0.27710 0.61440
H41 H 0.33520 0.19790 0.60490
H42 H 0.24120 0.25510 0.58750
#END
