
#######################################################################
#
#                 Cambridge Crystallographic Data Centre
#                                CCDC
#
#######################################################################
#
# If this CIF has been generated from an entry in the Cambridge
# Structural Database, then it will include bibliographic, chemical,
# crystal, experimental, refinement or atomic coordinate data resulting
# from the CCDC's data processing and validation procedures.
#
#######################################################################

data_CSD_CIF_SIVPUI
_audit_creation_date 1991-10-24
_audit_creation_method CSD-ConQuest-V1
_database_code_CSD SIVPUI
_chemical_formula_sum 'C14 H19 N1 O3'
_chemical_formula_moiety
;
C14 H19 N1 O3
;
_journal_coden_Cambridge 35
_journal_volume 56
_journal_year 1991
_journal_page_first 703
_journal_name_full 'J.Org.Chem. '
loop_
_publ_author_name
"C.M.Moorhoff"
"L.A.Paquette"
_chemical_name_systematic
;
1-(Norbornan-2-on-1-yl)-1-hydroxynorbornan-2-one oxime
;
_chemical_melting_point 450.15
_cell_volume   1255.029
_exptl_crystal_colour 'colorless'
_exptl_crystal_density_diffrn 1.319
_exptl_special_details
;
Melting point range 450.15-452.15K

;
_diffrn_ambient_temperature ?
_diffrn_special_details
;
The study was carried out at room temperature,in the range 283-303K

;
#These two values have been output from a single CSD field.
_refine_ls_R_factor_gt 0.101
_refine_ls_wR_factor_gt 0.101
_symmetry_cell_setting monoclinic
_symmetry_space_group_name_H-M 'P 21/c'
_symmetry_Int_Tables_number 14
loop_
_symmetry_equiv_pos_site_id
_symmetry_equiv_pos_as_xyz
1 x,y,z
2 -x,1/2+y,1/2-z
3 -x,-y,-z
4 x,-1/2-y,-1/2+z
_cell_length_a 12.133(3)
_cell_length_b 9.409(3)
_cell_length_c 11.178(4)
_cell_angle_alpha 90
_cell_angle_beta 100.42(2)
_cell_angle_gamma 90
_cell_formula_units_Z 4
loop_
_atom_type_symbol
_atom_type_radius_bond
C 0.68
H 0.23
N 0.68
O 0.68
loop_
_atom_site_label
_atom_site_type_symbol
_atom_site_fract_x
_atom_site_fract_y
_atom_site_fract_z
O1 O 0.8033(3) 0.0378(4) 0.6819(3)
O2 O 0.4658(3) 0.1300(4) 0.5985(4)
O3 O 0.6850(3) -0.2414(4) 0.6016(3)
N1 N 0.5671(3) 0.0510(4) 0.6231(4)
C1 C 0.7352(4) 0.0119(5) 0.7706(4)
C2 C 0.6168(4) 0.0684(5) 0.7312(5)
C3 C 0.5878(4) 0.1585(6) 0.8310(6)
C4 C 0.6456(5) 0.3032(6) 0.8156(6)
C5 C 0.7716(5) 0.2647(6) 0.8438(7)
C6 C 0.7708(5) 0.1062(6) 0.8859(6)
C7 C 0.6672(5) 0.1008(7) 0.9453(5)
C8 C 0.7423(4) -0.1472(5) 0.8079(5)
C9 C 0.7421(4) -0.2477(5) 0.7005(5)
C10 C 0.8322(4) -0.3564(6) 0.7440(5)
C11 C 0.9430(4) -0.2758(6) 0.7415(6)
C12 C 0.9534(4) -0.1747(6) 0.8503(5)
C13 C 0.8449(5) -0.2002(6) 0.9008(5)
C14 C 0.8310(5) -0.3616(6) 0.8783(6)
H1 H 0.761(4) 0.022(6) 0.598(4)
H2 H 0.435(4) 0.110(6) 0.510(5)
H3 H 0.50700 0.16200 0.83300
H4 H 0.62700 0.37400 0.87300
H5 H 0.62400 0.33900 0.73200
H6 H 0.81200 0.32500 0.90900
H7 H 0.80600 0.27400 0.77100
H8 H 0.84200 0.07700 0.93500
H9 H 0.64800 0.00400 0.96800
H10 H 0.67200 0.16400 1.01600
H11 H 0.67500 -0.15000 0.84600
H12 H 0.82400 -0.44700 0.70000
H13 H 0.93900 -0.22300 0.66500
H14 H 1.00700 -0.34200 0.75100
H15 H 0.95800 -0.07600 0.82400
H16 H 1.02000 -0.19800 0.91200
H17 H 0.84800 -0.15900 0.98200
H18 H 0.89300 -0.41700 0.92300
H19 H 0.76000 -0.39800 0.89600
#END
