
#######################################################################
#
#                 Cambridge Crystallographic Data Centre
#                                CCDC
#
#######################################################################
#
# If this CIF has been generated from an entry in the Cambridge
# Structural Database, then it will include bibliographic, chemical,
# crystal, experimental, refinement or atomic coordinate data resulting
# from the CCDC's data processing and validation procedures.
#
#######################################################################

data_CSD_CIF_SIVPOC
_audit_creation_date 1991-10-24
_audit_creation_method CSD-ConQuest-V1
_database_code_CSD SIVPOC
_chemical_formula_sum 'C20 H23 N1 O1'
_chemical_formula_moiety
;
C20 H23 N1 O1
;
_journal_coden_Cambridge 35
_journal_volume 56
_journal_year 1991
_journal_page_first 499
_journal_name_full 'J.Org.Chem. '
loop_
_publ_author_name
"J.Aube"
"M.Hammond"
"E.Gherardini"
"F.Takusagawa"
_chemical_name_systematic
;
(2S-(2R*(S*),3R*(R*)))-4-Phenyl-2-(1-phenylethyl)-1-oxa-2-azaspiro(2.5)octane
;
_chemical_melting_point 358.15
_cell_volume   3298.028
_exptl_crystal_colour 'colorless'
_exptl_crystal_density_diffrn 1.182
_exptl_special_details
;
Melting point range 358.15-360.15K

;
_diffrn_ambient_temperature ?
_diffrn_special_details
;
The study was carried out at room temperature,in the range 283-303K

;
#These two values have been output from a single CSD field.
_refine_ls_R_factor_gt 0.064
_refine_ls_wR_factor_gt 0.064
_symmetry_cell_setting monoclinic
_symmetry_space_group_name_H-M 'C 2/c'
_symmetry_Int_Tables_number 15
loop_
_symmetry_equiv_pos_site_id
_symmetry_equiv_pos_as_xyz
1 x,y,z
2 1/2+x,1/2+y,z
3 -x,y,1/2-z
4 1/2-x,1/2+y,1/2-z
5 -x,-y,-z
6 -1/2-x,-1/2-y,-z
7 x,-y,-1/2+z
8 -1/2+x,-1/2-y,-1/2+z
_cell_length_a 12.579(2)
_cell_length_b 15.793(3)
_cell_length_c 16.626(3)
_cell_angle_alpha 90
_cell_angle_beta 93.12(1)
_cell_angle_gamma 90
_cell_formula_units_Z 8
loop_
_atom_type_symbol
_atom_type_radius_bond
C 0.68
H 0.23
N 0.68
O 0.68
loop_
_atom_site_label
_atom_site_type_symbol
_atom_site_fract_x
_atom_site_fract_y
_atom_site_fract_z
O1 O 0.7927(2) 0.5121(1) 1.1606(1)
N1 N 0.8312(2) 0.4867(2) 1.0795(2)
C1 C 0.7292(2) 0.5262(2) 1.0883(2)
C2 C 0.6235(3) 0.4828(2) 1.0843(2)
C3 C 0.5491(3) 0.5268(3) 1.1398(3)
C4 C 0.5397(3) 0.6211(3) 1.1205(3)
C5 C 0.6492(3) 0.6635(3) 1.1196(3)
C6 C 0.7233(3) 0.6188(2) 1.0635(2)
C7 C 0.8378(3) 0.3927(2) 1.0734(2)
C8 C 0.8470(3) 0.3751(2) 0.9847(2)
C9 C 0.7630(3) 0.3406(2) 0.9386(2)
C10 C 0.7677(3) 0.3309(3) 0.8567(2)
C11 C 0.8568(3) 0.3560(2) 0.8193(3)
C12 C 0.9411(3) 0.3908(2) 0.8633(3)
C13 C 0.9365(3) 0.3992(2) 0.9460(2)
C14 C 0.9329(4) 0.3633(3) 1.1265(3)
C15 C 0.6965(3) 0.6294(2) 0.9729(2)
C16 C 0.7540(3) 0.5836(2) 0.9182(2)
C17 C 0.7344(4) 0.5924(3) 0.8364(2)
C18 C 0.6562(4) 0.6467(3) 0.8065(3)
C19 C 0.5983(4) 0.6919(3) 0.8589(3)
C20 C 0.6185(3) 0.6835(2) 0.9416(3)
H1 H 0.629(3) 0.425(2) 1.104(2)
H2 H 0.588(3) 0.491(2) 1.028(2)
H3 H 0.585(3) 0.521(2) 1.199(2)
H4 H 0.478(3) 0.492(2) 1.138(2)
H5 H 0.494(3) 0.650(2) 1.162(2)
H6 H 0.495(3) 0.631(2) 1.068(3)
H7 H 0.683(3) 0.665(3) 1.174(3)
H8 H 0.638(3) 0.728(3) 1.101(2)
H9 H 0.790(3) 0.640(2) 1.070(2)
H10 H 0.763(2) 0.362(2) 1.092(2)
H11 H 0.701(3) 0.323(3) 0.964(3)
H12 H 0.711(3) 0.308(3) 0.824(3)
H13 H 0.859(3) 0.350(2) 0.766(2)
H14 H 1.005(3) 0.417(3) 0.840(2)
H15 H 0.998(3) 0.423(2) 0.977(2)
H16 H 0.946(4) 0.301(3) 1.116(3)
H17 H 0.998(4) 0.392(3) 1.109(3)
H18 H 0.922(3) 0.373(2) 1.184(3)
H19 H 0.816(3) 0.550(2) 0.939(2)
H20 H 0.778(4) 0.563(3) 0.801(3)
H21 H 0.648(3) 0.652(2) 0.744(2)
H22 H 0.542(3) 0.732(2) 0.839(2)
H23 H 0.579(3) 0.722(2) 0.977(2)
#END
