
#######################################################################
#
#                 Cambridge Crystallographic Data Centre
#                                CCDC
#
#######################################################################
#
# If this CIF has been generated from an entry in the Cambridge
# Structural Database, then it will include bibliographic, chemical,
# crystal, experimental, refinement or atomic coordinate data resulting
# from the CCDC's data processing and validation procedures.
#
#######################################################################

data_CSD_CIF_SIVPES
_audit_creation_date 1991-10-24
_audit_creation_method CSD-ConQuest-V1
_database_code_CSD SIVPES
_chemical_formula_sum 'C15 H21 N1 O1'
_chemical_formula_moiety
;
C15 H21 N1 O1
;
_journal_coden_Cambridge 35
_journal_volume 56
_journal_year 1991
_journal_page_first 499
_journal_name_full 'J.Org.Chem. '
loop_
_publ_author_name
"J.Aube"
"M.Hammond"
"E.Gherardini"
"F.Takusagawa"
_chemical_name_systematic
;
(2S-(2R*(S*),3S*(S*)))-4-Methyl-2-(1-phenylethyl)-1-oxa-2-azaspiro(2.5)octane
;
_chemical_melting_point 343.15
_cell_volume   1392.409
_exptl_crystal_colour 'colorless'
_exptl_crystal_density_diffrn 1.103
_exptl_special_details
;
Melting point range 343.15-346.15K

;
_diffrn_ambient_temperature ?
_diffrn_special_details
;
The study was carried out at room temperature,in the range 283-303K

;
#These two values have been output from a single CSD field.
_refine_ls_R_factor_gt 0.045
_refine_ls_wR_factor_gt 0.045
_symmetry_cell_setting orthorhombic
_symmetry_space_group_name_H-M 'P 21 21 21'
_symmetry_Int_Tables_number 19
loop_
_symmetry_equiv_pos_site_id
_symmetry_equiv_pos_as_xyz
1 x,y,z
2 1/2+x,1/2-y,-z
3 -x,1/2+y,1/2-z
4 1/2-x,-y,1/2+z
_cell_length_a 10.842(1)
_cell_length_b 16.356(2)
_cell_length_c 7.852(1)
_cell_angle_alpha 90
_cell_angle_beta 90
_cell_angle_gamma 90
_cell_formula_units_Z 4
loop_
_atom_type_symbol
_atom_type_radius_bond
C 0.68
H 0.23
N 0.68
O 0.68
loop_
_atom_site_label
_atom_site_type_symbol
_atom_site_fract_x
_atom_site_fract_y
_atom_site_fract_z
O1 O 0.3539(3) 0.0249(2) 0.3782(3)
N1 N 0.4279(3) 0.0837(2) 0.4840(4)
C1 C 0.4513(3) -0.0016(2) 0.4852(5)
C2 C 0.5683(4) -0.0247(2) 0.3904(5)
C3 C 0.6727(4) -0.0345(3) 0.5189(6)
C4 C 0.6424(4) -0.0946(3) 0.6603(6)
C5 C 0.5244(4) -0.0692(3) 0.7523(6)
C6 C 0.4182(4) -0.0582(2) 0.6305(5)
C7 C 0.5531(5) -0.1007(3) 0.2793(6)
C8 C 0.3476(4) 0.1198(2) 0.6175(5)
C9 C 0.2767(5) 0.1905(3) 0.5348(7)
C10 C 0.4312(4) 0.1486(2) 0.7602(5)
C11 C 0.5387(4) 0.1893(2) 0.7293(5)
C12 C 0.6152(2) 0.2133(3) 0.8603(7)
C13 C 0.5824(6) 0.2002(3) 1.0229(8)
C14 C 0.4734(8) 0.1598(3) 1.0584(6)
C15 C 0.3977(5) 0.1324(3) 0.9279(5)
H1 H 0.58780 0.02210 0.31970
H2 H 0.74330 -0.05450 0.45680
H3 H 0.69260 0.01710 0.56590
H4 H 0.63250 -0.14860 0.61730
H5 H 0.70920 -0.09590 0.74280
H6 H 0.50110 -0.10860 0.83570
H7 H 0.53760 -0.01770 0.81010
H8 H 0.34850 -0.03440 0.68970
H9 H 0.39400 -0.10940 0.58640
H10 H 0.53010 -0.14690 0.34080
H11 H 0.48780 -0.09110 0.19210
H12 H 0.62650 -0.11180 0.21440
H13 H 0.29080 0.07800 0.65790
H14 H 0.33330 0.23080 0.49940
H15 H 0.22860 0.17190 0.44360
H16 H 0.22280 0.21420 0.62030
H17 H 0.56300 0.20020 0.61450
H18 H 0.69300 0.24060 0.83810
H19 H 0.63730 0.22060 1.11280
H20 H 0.44900 0.15120 1.17540
H21 H 0.32440 0.10460 0.95550
#END
