
#######################################################################
#
#                 Cambridge Crystallographic Data Centre
#                                CCDC
#
#######################################################################
#
# If this CIF has been generated from an entry in the Cambridge
# Structural Database, then it will include bibliographic, chemical,
# crystal, experimental, refinement or atomic coordinate data resulting
# from the CCDC's data processing and validation procedures.
#
#######################################################################

data_CSD_CIF_SIVPIW
_audit_creation_date 1991-10-24
_audit_creation_method CSD-ConQuest-V1
_database_code_CSD SIVPIW
_chemical_formula_sum 'C15 H21 N1 O2'
_chemical_formula_moiety
;
C15 H21 N1 O2
;
_journal_coden_Cambridge 35
_journal_volume 56
_journal_year 1991
_journal_page_first 499
_journal_name_full 'J.Org.Chem. '
loop_
_publ_author_name
"J.Aube"
"M.Hammond"
"E.Gherardini"
"F.Takusagawa"
_chemical_name_systematic
;
(2S-(2R*(S*),3S*(S*)))-4-Methoxy-2-(1-phenylethyl)-1-oxa-2-azaspiro(2.5)octane
;
_chemical_melting_point 321.15
_cell_volume   1431.187
_exptl_crystal_colour 'colorless'
_exptl_crystal_density_diffrn 1.148
_exptl_special_details
;
Melting point range 321.15-322.15K

;
_diffrn_ambient_temperature ?
_diffrn_special_details
;
The study was carried out at room temperature,in the range 283-303K

;
#These two values have been output from a single CSD field.
_refine_ls_R_factor_gt 0.034
_refine_ls_wR_factor_gt 0.034
_symmetry_cell_setting orthorhombic
_symmetry_space_group_name_H-M 'P 21 21 21'
_symmetry_Int_Tables_number 19
loop_
_symmetry_equiv_pos_site_id
_symmetry_equiv_pos_as_xyz
1 x,y,z
2 1/2+x,1/2-y,-z
3 -x,1/2+y,1/2-z
4 1/2-x,-y,1/2+z
_cell_length_a 12.119(1)
_cell_length_b 14.703(2)
_cell_length_c 8.032(2)
_cell_angle_alpha 90
_cell_angle_beta 90
_cell_angle_gamma 90
_cell_formula_units_Z 4
loop_
_atom_type_symbol
_atom_type_radius_bond
C 0.68
H 0.23
N 0.68
O 0.68
loop_
_atom_site_label
_atom_site_type_symbol
_atom_site_fract_x
_atom_site_fract_y
_atom_site_fract_z
O1 O 0.8249(1) 0.4419(1) 0.9544(2)
O2 O 0.8750(1) 0.3036(1) 1.3154(2)
N1 N 0.9349(1) 0.4508(1) 1.0459(2)
C1 C 0.8675(2) 0.3709(1) 1.0559(3)
C2 C 0.7992(2) 0.3466(2) 1.2067(3)
C3 C 0.7055(2) 0.2844(2) 1.1554(4)
C4 C 0.7466(3) 0.2005(2) 1.0625(4)
C5 C 0.8144(3) 0.2277(2) 0.9121(4)
C6 C 0.9089(2) 0.2900(2) 0.9621(3)
C7 C 0.9257(2) 0.5209(2) 1.1750(3)
C8 C 1.0001(2) 0.4957(1) 1.3186(3)
C9 C 0.9634(2) 0.5030(2) 1.4797(3)
C10 C 1.0318(3) 0.4801(2) 1.6126(3)
C11 C 1.1363(3) 0.4497(2) 1.5818(4)
C12 C 1.1746(3) 0.4429(2) 1.4203(4)
C13 C 1.1071(2) 0.4663(2) 1.2901(3)
C14 C 0.8362(3) 0.2927(2) 1.4824(3)
C15 C 0.9595(3) 0.6108(2) 1.0935(6)
H1 H 0.769(2) 0.399(2) 1.267(3)
H2 H 0.660(2) 0.271(2) 1.252(4)
H3 H 0.652(2) 0.323(2) 1.071(4)
H4 H 0.799(3) 0.170(3) 1.132(5)
H5 H 0.683(3) 0.165(2) 1.022(4)
H6 H 0.843(3) 0.177(3) 0.848(5)
H7 H 0.771(3) 0.260(2) 0.831(4)
H8 H 0.953(2) 0.316(2) 0.868(4)
H9 H 0.959(2) 0.261(2) 1.020(4)
H10 H 0.853(2) 0.527(2) 1.220(4)
H11 H 0.889(3) 0.519(2) 1.512(4)
H12 H 0.994(3) 0.486(2) 1.731(4)
H13 H 1.188(3) 0.440(2) 1.659(5)
H14 H 1.251(3) 0.418(2) 1.391(4)
H15 H 1.135(2) 0.464(2) 1.175(4)
H16 H 0.816(2) 0.350(2) 1.532(4)
H17 H 0.771(3) 0.244(3) 1.490(5)
H18 H 0.916(3) 0.277(3) 1.524(6)
H19 H 1.032(3) 0.613(2) 1.066(4)
H20 H 0.909(3) 0.624(3) 0.987(6)
H21 H 0.952(3) 0.651(3) 1.173(5)
#END
