
#######################################################################
#
#                 Cambridge Crystallographic Data Centre
#                                CCDC
#
#######################################################################
#
# If this CIF has been generated from an entry in the Cambridge
# Structural Database, then it will include bibliographic, chemical,
# crystal, experimental, refinement or atomic coordinate data resulting
# from the CCDC's data processing and validation procedures.
#
#######################################################################

data_CSD_CIF_SIVXAX
_audit_creation_date 2008-06-19
_audit_creation_method CSD-ConQuest-V1
_database_code_CSD SIVXAX
_database_code_depnum_ccdc_archive 'CCDC 679858'
_chemical_formula_sum 'C18 H16 N4 O3'
_chemical_formula_moiety
;
C18 H16 N4 O3
;
_journal_coden_Cambridge 718
_journal_volume 21
_journal_year 2008
_journal_page_first 295
_journal_name_full 'Chem.Res.Toxicol. '
loop_
_publ_author_name
"R.N.Loeppky"
"Jianzheng Shi"
"C.L.Barnes"
"S.Geddam"
_chemical_name_systematic
;
(1-Nitroso-4,5-dihydro-1H-imidazol-2-yl)(phenyl)methanone 
O-(2-phenylacetyl)oxime
;
_chemical_melting_point 346.15
_cell_volume   1728.943
_exptl_crystal_colour 'colorless'
_exptl_crystal_density_diffrn 1.292
_exptl_special_details
;
Melting point range 346.15-347.15K

;
_exptl_crystal_description 'prism'
_exptl_crystal_preparation 'ethanol'
_diffrn_ambient_temperature 173
#These two values have been output from a single CSD field.
_refine_ls_R_factor_gt 0.0338
_refine_ls_wR_factor_gt 0.0338
_symmetry_cell_setting orthorhombic
_symmetry_space_group_name_H-M 'P n a 21'
_symmetry_Int_Tables_number 33
loop_
_symmetry_equiv_pos_site_id
_symmetry_equiv_pos_as_xyz
1 x,y,z
2 -x,-y,1/2+z
3 1/2-x,1/2+y,1/2+z
4 1/2+x,1/2-y,z
_cell_length_a 8.9484(16)
_cell_length_b 13.398(2)
_cell_length_c 14.421(3)
_cell_angle_alpha 90
_cell_angle_beta 90
_cell_angle_gamma 90
_cell_formula_units_Z 4
loop_
_atom_type_symbol
_atom_type_radius_bond
C 0.68
H 0.23
N 0.68
O 0.68
loop_
_atom_site_label
_atom_site_type_symbol
_atom_site_fract_x
_atom_site_fract_y
_atom_site_fract_z
O1 O 0.7784(2) 0.78296(15) 0.93790(15)
N1 N 1.10458(19) 1.00893(13) 0.85618(12)
C1 C 0.9808(2) 0.97096(13) 0.83355(14)
O2 O 1.00921(17) 0.86506(10) 0.68783(10)
N2 N 0.92540(19) 0.89926(12) 0.89612(12)
C2 C 1.1534(2) 0.96179(16) 0.94391(15)
H1 H 1.16990 1.01330 0.99210
H2 H 1.24810 0.92500 0.93430
O3 O 1.0365(2) 0.86042(14) 0.53247(11)
N3 N 0.8056(2) 0.84570(14) 0.87722(15)
C3 C 1.0292(2) 0.88966(16) 0.97430(15)
H3 H 1.06690 0.82050 0.98070
H4 H 0.98260 0.91090 1.03330
N4 N 0.91172(19) 0.94833(12) 0.67225(12)
C4 C 0.8950(2) 0.99698(14) 0.74809(14)
C5 C 0.7976(2) 1.08608(14) 0.74810(14)
C6 C 0.7175(2) 1.11177(15) 0.66874(15)
H5 H 0.71800 1.06850 0.61650
C7 C 0.6378(3) 1.19951(17) 0.66573(18)
H6 H 0.58420 1.21710 0.61130
C8 C 0.6357(3) 1.26223(18) 0.74205(19)
H7 H 0.58320 1.32380 0.73920
C9 C 0.7094(3) 1.23570(19) 0.8218(2)
H8 H 0.70440 1.27770 0.87470
C10 C 0.7911(3) 1.14791(17) 0.82544(17)
H9 H 0.84250 1.13000 0.88060
C11 C 1.0618(2) 0.82589(15) 0.60654(16)
C12 C 1.1491(2) 0.73176(15) 0.62657(17)
H10 H 1.23230 0.72510 0.58180
H11 H 1.19180 0.73500 0.68980
C13 C 1.0461(2) 0.64282(16) 0.61872(17)
C14 C 0.9801(3) 0.6011(2) 0.6958(2)
H12 H 0.99990 0.62750 0.75560
C15 C 0.8829(3) 0.5190(2) 0.6855(3)
H13 H 0.83690 0.49020 0.73850
C16 C 0.8548(3) 0.4807(2) 0.5991(4)
H14 H 0.79020 0.42490 0.59250
C17 C 0.9185(4) 0.5221(2) 0.5228(3)
H15 H 0.89800 0.49520 0.46320
C18 C 1.0130(3) 0.60327(18) 0.53144(19)
H16 H 1.05590 0.63240 0.47760
#END
