
#######################################################################
#
#                 Cambridge Crystallographic Data Centre
#                                CCDC
#
#######################################################################
#
# If this CIF has been generated from an entry in the Cambridge
# Structural Database, then it will include bibliographic, chemical,
# crystal, experimental, refinement or atomic coordinate data resulting
# from the CCDC's data processing and validation procedures.
#
#######################################################################

data_CSD_CIF_SIVXEB
_audit_creation_date 2008-06-19
_audit_creation_method CSD-ConQuest-V1
_database_code_CSD SIVXEB
_database_code_depnum_ccdc_archive 'CCDC 679859'
_chemical_formula_sum 'C10 H9 N1 O3'
_chemical_formula_moiety
;
C10 H9 N1 O3
;
_journal_coden_Cambridge 718
_journal_volume 21
_journal_year 2008
_journal_page_first 295
_journal_name_full 'Chem.Res.Toxicol. '
loop_
_publ_author_name
"R.N.Loeppky"
"Jianzheng Shi"
"C.L.Barnes"
"S.Geddam"
_chemical_name_systematic
;
2-Methyl-4-phenyl-1,3-oxazol-5(2H-)one 3-oxide
;
_chemical_melting_point 345.15
_cell_volume    905.281
_exptl_crystal_colour 'colorless'
_exptl_crystal_density_diffrn 1.403
_exptl_special_details
;
Melting point range 345.15-346.15K

;
_exptl_crystal_description 'plate'
_diffrn_ambient_temperature 173
#These two values have been output from a single CSD field.
_refine_ls_R_factor_gt 0.0514
_refine_ls_wR_factor_gt 0.0514
_symmetry_cell_setting triclinic
_symmetry_space_group_name_H-M 'P -1'
_symmetry_Int_Tables_number 2
loop_
_symmetry_equiv_pos_site_id
_symmetry_equiv_pos_as_xyz
1 x,y,z
2 -x,-y,-z
_cell_length_a 6.6394(5)
_cell_length_b 9.5228(7)
_cell_length_c 14.3291(11)
_cell_angle_alpha 87.782(1)
_cell_angle_beta 89.977(1)
_cell_angle_gamma 89.763(1)
_cell_formula_units_Z 4
loop_
_atom_type_symbol
_atom_type_radius_bond
C 0.68
H 0.23
N 0.68
O 0.68
loop_
_atom_site_label
_atom_site_type_symbol
_atom_site_fract_x
_atom_site_fract_y
_atom_site_fract_z
O1 O -0.0178(2) 0.40355(19) 0.09504(13)
O2 O 0.2709(3) 0.1527(2) 0.21871(14)
O3 O -0.2671(3) 0.28572(19) 0.02806(13)
N1 N 0.1386(3) 0.2149(2) 0.16700(15)
C1 C -0.0164(3) 0.1627(3) 0.12317(16)
C2 C 0.1469(4) 0.3716(3) 0.1571(2)
H1 H 0.12200 0.41380 0.21890
C3 C -0.1193(4) 0.2827(3) 0.07597(18)
C4 C 0.3410(4) 0.4225(3) 0.1178(2)
H2 H 0.36660 0.37800 0.05840
H3 H 0.44990 0.39840 0.16180
H4 H 0.33470 0.52470 0.10730
C5 C -0.0785(3) 0.0155(3) 0.12443(16)
C6 C 0.0483(4) -0.0922(3) 0.15730(19)
H5 H 0.18040 -0.07130 0.17800
C7 C -0.0184(4) -0.2297(3) 0.1598(2)
H6 H 0.06870 -0.30260 0.18270
C8 C -0.2078(4) -0.2629(3) 0.1298(2)
H7 H -0.25070 -0.35800 0.13100
C9 C -0.3358(4) -0.1568(3) 0.0979(2)
H8 H -0.46790 -0.17910 0.07800
C10 C -0.2729(4) -0.0183(3) 0.09471(18)
H9 H -0.36160 0.05400 0.07240
O4 O 0.5162(2) 0.90625(18) 0.59774(12)
O5 O 0.2307(2) 0.65457(19) 0.72084(13)
O6 O 0.7654(3) 0.78855(19) 0.52886(13)
N2 N 0.3618(3) 0.7176(2) 0.66883(14)
C11 C 0.5164(3) 0.6647(3) 0.62438(17)
C12 C 0.3523(4) 0.8734(3) 0.65882(19)
H10 H 0.37570 0.91530 0.72080
C13 C 0.6184(4) 0.7861(3) 0.57771(18)
C14 C 0.1558(4) 0.9240(3) 0.6193(2)
H11 H 0.16050 1.02620 0.60840
H12 H 0.04740 0.90020 0.66350
H13 H 0.13060 0.87890 0.56010
C15 C 0.5791(3) 0.5184(3) 0.62419(17)
C16 C 0.4517(4) 0.4093(3) 0.65534(19)
H14 H 0.31940 0.43010 0.67610
C17 C 0.5178(4) 0.2719(3) 0.6559(2)
H15 H 0.42990 0.19910 0.67740
C18 C 0.7079(4) 0.2378(3) 0.62615(19)
H16 H 0.75070 0.14240 0.62640
C19 C 0.8366(4) 0.3447(3) 0.5957(2)
H17 H 0.96900 0.32230 0.57580
C20 C 0.7740(4) 0.4826(3) 0.59422(18)
H18 H 0.86330 0.55450 0.57270
#END
