
#######################################################################
#
#                 Cambridge Crystallographic Data Centre
#                                CCDC
#
#######################################################################
#
# If this CIF has been generated from an entry in the Cambridge
# Structural Database, then it will include bibliographic, chemical,
# crystal, experimental, refinement or atomic coordinate data resulting
# from the CCDC's data processing and validation procedures.
#
#######################################################################

data_CSD_CIF_SIXPUK
_audit_creation_date 1991-10-31
_audit_creation_method CSD-ConQuest-V1
_database_code_CSD SIXPUK
_chemical_formula_sum 'C17 H19 N1 O9'
_chemical_formula_moiety
;
C17 H19 N1 O9
;
_journal_coden_Cambridge 24
_journal_volume 32
_journal_year 1991
_journal_page_first 1161
_journal_name_full 'Tetrahedron Lett. '
loop_
_publ_author_name
"L.Assmann"
"T.Debaerdemaeker"
"W.Friedrichsen"
_chemical_name_systematic
;
4-Ethoxy-7-ethoxycarbonyl-5,6-methoxycarbonyl-3-methyloxepino(2,3-d)isoxazole
;
_cell_volume    927.724
_exptl_special_details
;
Space group given as P1 should be P-1

;
_diffrn_ambient_temperature ?
_diffrn_special_details
;
The study was carried out at room temperature,in the range 283-303K

;
#These two values have been output from a single CSD field.
_refine_ls_R_factor_gt 0.0396
_refine_ls_wR_factor_gt 0.0396
_symmetry_cell_setting triclinic
_symmetry_space_group_name_H-M 'P -1'
_symmetry_Int_Tables_number 2
loop_
_symmetry_equiv_pos_site_id
_symmetry_equiv_pos_as_xyz
1 x,y,z
2 -x,-y,-z
_cell_length_a 8.357(6)
_cell_length_b 10.969(9)
_cell_length_c 11.685(3)
_cell_angle_alpha 97.12(4)
_cell_angle_beta 106.41(5)
_cell_angle_gamma 111.09(5)
_cell_formula_units_Z 2
loop_
_atom_type_symbol
_atom_type_radius_bond
C 0.68
H 0.23
N 0.68
O 0.68
loop_
_atom_site_label
_atom_site_type_symbol
_atom_site_fract_x
_atom_site_fract_y
_atom_site_fract_z
O1 O 1.0125(2) 0.6119(1) 0.7714(1)
C1 C 1.0283(2) 0.4997(2) 0.8141(1)
C2 C 0.9170(2) 0.3724(2) 0.7502(1)
C3 C 0.7524(2) 0.3280(1) 0.6383(1)
C4 C 0.6331(2) 0.3891(1) 0.6254(1)
C5 C 0.6778(3) 0.5187(2) 0.7036(1)
C6 C 0.5672(3) 0.5840(2) 0.7284(2)
N1 N 0.6658(3) 0.7068(2) 0.7970(2)
O2 O 0.8539(2) 0.7283(1) 0.8211(1)
C7 C 0.8500(3) 0.6142(2) 0.7638(1)
C8 C 1.1845(3) 0.5383(2) 0.9325(1)
O3 O 1.1973(2) 0.4615(2) 0.9947(1)
O4 O 1.3030(2) 0.6654(1) 0.9562(1)
C9 C 1.4659(4) 0.7109(3) 1.0667(1)
C10 C 1.5770(4) 0.8556(3) 1.0784(3)
C11 C 0.9690(2) 0.2613(2) 0.7924(2)
O5 O 1.0910(2) 0.2388(1) 0.7767(1)
O6 O 0.8542(2) 0.1921(1) 0.8447(1)
C12 C 0.8898(4) 0.0822(2) 0.8858(3)
C13 C 0.7205(2) 0.2085(2) 0.5434(2)
O7 O 0.7388(3) 0.1090(1) 0.5655(1)
O8 O 0.6807(2) 0.2296(1) 0.4316(1)
C14 C 0.6420(4) 0.1184(3) 0.3309(2)
O9 O 0.4634(2) 0.3396(1) 0.5408(1)
C15 C 0.3509(3) 0.1957(2) 0.4915(3)
C16 C 0.1577(4) 0.1718(3) 0.4698(3)
C17 C 0.3640(4) 0.5296(3) 0.6882(3)
H1 H 1.4153(71) 0.7047(53) 1.1432(53)
H2 H 1.5451(58) 0.6577(43) 1.0634(39)
H3 H 1.67390 0.8668(87) 1.0159(79)
H4 H 1.5170(67) 0.9071(50) 1.0652(47)
H5 H 1.6657(74) 0.8789(55) 1.1506(51)
H6 H 1.0476(52) 0.1259(38) 0.9427(37)
H7 H 0.8228(69) 0.0522(53) 0.9315(50)
H8 H 0.8912(48) 0.0251(39) 0.8211(35)
H9 H 0.6160(52) 0.1477(41) 0.2576(39)
H10 H 0.5063(70) 0.0321(54) 0.3144(47)
H11 H 0.7285(61) 0.0763(45) 0.3519(41)
H12 H 0.3934(55) 0.1478(41) 0.5544(40)
H13 H 0.3345(94) 0.1471(79) 0.4088(74)
H14 H 0.0793(47) 0.0730(38) 0.4418(31)
H15 H 0.1326(49) 0.1880(37) 0.5411(37)
H16 H 0.1364(52) 0.2325(44) 0.4478(37)
H17 H 0.3318(48) 0.5919(38) 0.7229(34)
H18 H 0.3108(49) 0.5165(36) 0.6059(40)
H19 H 0.3206(62) 0.4513(51) 0.7145(42)
#END
