
#######################################################################
#
#                 Cambridge Crystallographic Data Centre
#                                CCDC
#
#######################################################################
#
# If this CIF has been generated from an entry in the Cambridge
# Structural Database, then it will include bibliographic, chemical,
# crystal, experimental, refinement or atomic coordinate data resulting
# from the CCDC's data processing and validation procedures.
#
#######################################################################

data_CSD_CIF_SIXSIB
_audit_creation_date 1991-10-31
_audit_creation_method CSD-ConQuest-V1
_database_code_CSD SIXSIB
_database_code_depnum_ccdc_archive 'CCDC 1260432'
_chemical_formula_sum 'C20 H16 N2 O2'
_chemical_formula_moiety
;
C20 H16 N2 O2
;
_journal_coden_Cambridge 211
_journal_volume 22
_journal_year 1990
_journal_page_first 83
_journal_name_full 'J.Coord.Chem. '
loop_
_publ_author_name
"J.Lipkowski"
"K.Suwinska"
"G.D.Andreetti"
_chemical_name_systematic
;
1,1'-Dimethyl-bi-isoquinoline-N,N'-dioxide
;
_cell_volume    780.059
_exptl_crystal_density_diffrn 1.347
_diffrn_ambient_temperature ?
_diffrn_special_details
;
The study was carried out at room temperature,in the range 283-303K

;
#These two values have been output from a single CSD field.
_refine_ls_R_factor_gt 0.031
_refine_ls_wR_factor_gt 0.031
_symmetry_cell_setting orthorhombic
_symmetry_space_group_name_H-M 'P 21 21 2'
_symmetry_Int_Tables_number 18
loop_
_symmetry_equiv_pos_site_id
_symmetry_equiv_pos_as_xyz
1 x,y,z
2 1/2+x,1/2-y,-z
3 1/2-x,1/2+y,-z
4 -x,-y,z
_cell_length_a 14.032(4)
_cell_length_b 10.605(4)
_cell_length_c 5.242(1)
_cell_angle_alpha 90
_cell_angle_beta 90
_cell_angle_gamma 90
_cell_formula_units_Z 2
loop_
_atom_type_symbol
_atom_type_radius_bond
C 0.68
H 0.23
N 0.68
O 0.68
loop_
_atom_site_label
_atom_site_type_symbol
_atom_site_fract_x
_atom_site_fract_y
_atom_site_fract_z
O1 O 0.0047(1) 0.1523(1) 0.5812(3)
N1 N 0.0721(1) 0.1138(1) 0.4309(3)
C1 C 0.0500(1) 0.0218(2) 0.2489(4)
C2 C 0.1146(1) -0.0166(2) 0.0778(4)
C3 C 0.2090(1) 0.0305(2) 0.0848(4)
C4 C 0.2321(1) 0.1200(2) 0.2749(4)
C5 C 0.1611(1) 0.1630(2) 0.4462(4)
C6 C 0.2783(1) -0.0080(2) -0.0926(4)
C7 C 0.3686(1) 0.0397(2) -0.0824(5)
C8 C 0.3927(1) 0.1274(2) 0.1053(5)
C9 C 0.3272(1) 0.1669(2) 0.2822(5)
C10 C 0.1738(2) 0.2630(2) 0.6413(5)
H1 H 0.0923(1) -0.0769(2) -0.0619(4)
H2 H 0.2590(1) -0.0701(2) -0.2254(4)
H3 H 0.4162(1) 0.0154(2) -0.2163(4)
H4 H 0.4610(1) 0.1611(2) 0.1223(5)
H5 H 0.3449(1) 0.2254(2) 0.4174(4)
H6 H 0.1303(1) 0.3411(2) 0.5988(5)
H7 H 0.1439(1) 0.2385(2) 0.8101(5)
H8 H 0.2390(2) 0.2873(2) 0.6747(5)
C1C C -0.0500(1) -0.0218(2) 0.2489(4)
N1C N -0.0721(1) -0.1138(1) 0.4309(3)
C2C C -0.1146(1) 0.0166(2) 0.0778(4)
O1C O -0.0047(1) -0.1523(1) 0.5812(3)
C5C C -0.1611(1) -0.1630(2) 0.4462(4)
C3C C -0.2090(1) -0.0305(2) 0.0848(4)
H1C H -0.0923(1) 0.0769(2) -0.0619(4)
C4C C -0.2321(1) -0.1200(2) 0.2749(4)
C10C C -0.1738(2) -0.2630(2) 0.6413(5)
C6C C -0.2783(1) 0.0080(2) -0.0926(4)
C9C C -0.3272(1) -0.1669(2) 0.2822(5)
H6C H -0.1303(1) -0.3411(2) 0.5988(5)
H7C H -0.1439(1) -0.2385(2) 0.8101(5)
H8C H -0.2390(2) -0.2873(2) 0.6747(5)
C7C C -0.3686(1) -0.0397(2) -0.0824(5)
H2C H -0.2590(1) 0.0701(2) -0.2254(4)
C8C C -0.3927(1) -0.1274(2) 0.1053(5)
H5C H -0.3449(1) -0.2254(2) 0.4174(4)
H3C H -0.4162(1) -0.0154(2) -0.2163(4)
H4C H -0.4610(1) -0.1611(2) 0.1223(5)
#END
