
#######################################################################
#
#                 Cambridge Crystallographic Data Centre
#                                CCDC
#
#######################################################################
#
# If this CIF has been generated from an entry in the Cambridge
# Structural Database, then it will include bibliographic, chemical,
# crystal, experimental, refinement or atomic coordinate data resulting
# from the CCDC's data processing and validation procedures.
#
#######################################################################

data_CSD_CIF_SOBDOD
_audit_creation_date 2008-10-28
_audit_creation_method CSD-ConQuest-V1
_database_code_CSD SOBDOD
_database_code_depnum_ccdc_archive 'CCDC 665997'
_chemical_formula_sum 'C12 H11 N1 O4'
_chemical_formula_moiety
;
C12 H11 N1 O4
;
_journal_coden_Cambridge 16
_journal_volume 64
_journal_year 2008
_journal_page_first 6482
_journal_name_full 'Tetrahedron '
loop_
_publ_author_name
"B.D.Schwartz"
"C.M.Williams"
"E.Anders"
"P.V.Bernhardt"
_chemical_name_systematic
;
4-Methyl-6-(4-nitrophenyl)-5,6-dihydro-2H-pyran-2-one
;
_chemical_melting_point 385.15
_cell_volume   2295.317
_exptl_crystal_colour 'colorless'
_exptl_crystal_density_diffrn 1.35
_exptl_special_details
;
Melting point range 385.15-387.15K

;
_exptl_crystal_description 'prism'
_diffrn_ambient_temperature 293
#These two values have been output from a single CSD field.
_refine_ls_R_factor_gt 0.077
_refine_ls_wR_factor_gt 0.077
_symmetry_cell_setting orthorhombic
_symmetry_space_group_name_H-M 'P b n 21'
_symmetry_Int_Tables_number 33
loop_
_symmetry_equiv_pos_site_id
_symmetry_equiv_pos_as_xyz
1 x,y,z
2 -x,-y,1/2+z
3 1/2-x,1/2+y,z
4 1/2+x,1/2-y,1/2+z
_cell_length_a 7.914(1)
_cell_length_b 15.177(3)
_cell_length_c 19.110(3)
_cell_angle_alpha 90
_cell_angle_beta 90
_cell_angle_gamma 90
_cell_formula_units_Z 8
loop_
_atom_type_symbol
_atom_type_radius_bond
C 0.68
H 0.23
N 0.68
O 0.68
loop_
_atom_site_label
_atom_site_type_symbol
_atom_site_fract_x
_atom_site_fract_y
_atom_site_fract_z
C1 C -0.388(4) 0.7107(16) -0.1405(12)
C2 C -0.226(4) 0.7339(17) -0.1450(14)
H1 H -0.19890 0.78320 -0.17150
C3 C -0.101(3) 0.6900(17) -0.1134(12)
H2 H 0.01030 0.70820 -0.11820
C4 C -0.143(4) 0.6148(13) -0.0722(13)
C5 C -0.308(3) 0.5927(15) -0.0683(12)
H3 H -0.33950 0.54440 -0.04140
C6 C -0.422(3) 0.6375(12) -0.1011(11)
H4 H -0.53390 0.61880 -0.09780
C7 C -0.010(3) 0.5658(14) -0.0311(14)
H5 H -0.06970 0.53570 0.00690
C8 C 0.075(2) 0.4959(14) -0.0723(9)
H6 H 0.12060 0.52020 -0.11530
H7 H -0.00470 0.44970 -0.08420
C9 C 0.222(3) 0.4577(16) -0.0258(14)
C10 C 0.287(3) 0.5066(15) 0.0160(14)
H8 H 0.38080 0.48500 0.04000
C11 C 0.233(3) 0.599(2) 0.0326(17)
C12 C 0.283(3) 0.3645(14) -0.0507(14)
H9 H 0.20870 0.34310 -0.08670
H10 H 0.28170 0.32440 -0.01190
H11 H 0.39560 0.36900 -0.06890
N1 N -0.528(4) 0.7593(16) -0.1778(10)
O1 O -0.661(3) 0.7235(13) -0.1774(12)
O2 O -0.483(3) 0.8259(11) -0.2064(12)
O3 O 0.312(3) 0.6450(12) 0.0740(11)
O4 O 0.100(2) 0.6292(8) 0.0017(7)
C13 C -0.899(4) 0.9633(15) 0.2346(11)
C14 C -0.950(3) 0.8929(13) 0.1985(12)
H12 H -1.06280 0.87570 0.19760
C15 C -0.827(4) 0.8468(14) 0.1625(11)
H13 H -0.85360 0.79480 0.13930
C16 C -0.657(4) 0.8808(14) 0.1617(11)
C17 C -0.615(3) 0.9482(15) 0.2040(12)
H14 H -0.50200 0.96350 0.20750
C18 C -0.741(3) 0.9999(16) 0.2458(13)
H15 H -0.71720 1.04800 0.27430
C19 C -0.522(3) 0.8244(15) 0.1262(11)
H16 H -0.57480 0.79530 0.08600
C20 C -0.430(3) 0.7554(11) 0.1671(9)
H17 H -0.39220 0.78080 0.21090
H18 H -0.50820 0.70810 0.17810
C21 C -0.289(3) 0.7198(16) 0.1312(12)
C22 C -0.216(3) 0.7681(18) 0.0765(14)
H19 H -0.13450 0.74240 0.04790
C23 C -0.268(4) 0.859(2) 0.0648(14)
C24 C -0.231(2) 0.6313(12) 0.1424(13)
H20 H -0.14070 0.61840 0.11060
H21 H -0.32290 0.59110 0.13440
H22 H -0.19200 0.62530 0.18970
N2 N -1.030(4) 1.0098(14) 0.2733(14)
O5 O -0.997(3) 1.081(1) 0.3001(10)
O6 O -1.176(2) 0.9798(13) 0.2745(9)
O7 O -0.180(2) 0.9082(11) 0.0299(9)
O8 O -0.404(2) 0.8888(9) 0.0991(8)
#END
