
#######################################################################
#
#                 Cambridge Crystallographic Data Centre
#                                CCDC
#
#######################################################################
#
# If this CIF has been generated from an entry in the Cambridge
# Structural Database, then it will include bibliographic, chemical,
# crystal, experimental, refinement or atomic coordinate data resulting
# from the CCDC's data processing and validation procedures.
#
#######################################################################

data_CSD_CIF_SOBNAZ
_audit_creation_date 2008-10-28
_audit_creation_method CSD-ConQuest-V1
_database_code_CSD SOBNAZ
_database_code_depnum_ccdc_archive 'CCDC 652568'
_chemical_formula_sum 'C18 H32 N2 O3'
_chemical_formula_moiety
;
C18 H32 N2 O3
;
_journal_coden_Cambridge 1090
_journal_volume 19
_journal_year 2008
_journal_page_first 1145
_journal_name_full 'Tetrahedron:Asymm. '
loop_
_publ_author_name
"K.Aouadi"
"E.Jeanneau"
"M.Msaddek"
"J.-P.Praly"
_chemical_name_systematic
;
(1S,2S,2'S,3'R,3a'S,5R)-3'-Ethyl-2'-(hydroxymethyl)-2-isopropyl-5,5'-dimethyl-
3',3a'-dihydro-2'H-spiro[cyclohexane-1,6'-imidazo[1,5-b]isoxazol]-4'(5'H)-one
;
_chemical_melting_point 367.15
_cell_volume   1856.596
_exptl_crystal_colour 'colorless'
_exptl_crystal_density_diffrn 1.161
_exptl_special_details
;
Melting point range 367.15-368.15K

;
_exptl_crystal_description 'needle'
_diffrn_ambient_temperature 150
#These two values have been output from a single CSD field.
_refine_ls_R_factor_gt 0.0503
_refine_ls_wR_factor_gt 0.0503
_symmetry_cell_setting monoclinic
_symmetry_space_group_name_H-M 'P 21'
_symmetry_Int_Tables_number 4
loop_
_symmetry_equiv_pos_site_id
_symmetry_equiv_pos_as_xyz
1 x,y,z
2 -x,1/2+y,-z
_cell_length_a 8.3520(2)
_cell_length_b 17.8021(5)
_cell_length_c 12.56820(29)
_cell_angle_alpha 90
_cell_angle_beta 96.5192(14)
_cell_angle_gamma 90
_cell_formula_units_Z 4
loop_
_atom_type_symbol
_atom_type_radius_bond
C 0.68
H 0.23
N 0.68
O 0.68
loop_
_atom_site_label
_atom_site_type_symbol
_atom_site_fract_x
_atom_site_fract_y
_atom_site_fract_z
O1 O 0.4440(3) 0.12862(15) 0.77804(18)
C1 C 0.4029(4) 0.1275(2) 0.6797(3)
N1 N 0.4117(3) 0.18515(16) 0.6127(2)
C2 C 0.3462(4) 0.16652(18) 0.4995(3)
N2 N 0.3223(3) 0.08316(16) 0.5024(2)
C3 C 0.3334(4) 0.06075(19) 0.6170(3)
C4 C 0.4389(4) -0.00936(18) 0.6286(3)
C5 C 0.5580(4) 0.01071(19) 0.5495(2)
O2 O 0.4580(3) 0.04444(14) 0.46097(18)
C6 C 0.6477(4) -0.0520(2) 0.5015(3)
O3 O 0.7359(3) -0.09749(15) 0.5805(2)
C7 C 0.3448(5) -0.0822(2) 0.6038(3)
C8 C 0.2301(5) -0.0994(2) 0.6873(4)
C9 C 0.1826(4) 0.2056(2) 0.4692(3)
C10 C 0.1251(4) 0.1901(2) 0.3501(3)
C11 C 0.2482(5) 0.2150(2) 0.2768(3)
C12 C 0.4103(4) 0.1769(2) 0.3059(3)
C13 C 0.4674(4) 0.1911(2) 0.4241(3)
C14 C 0.5392(5) 0.2036(3) 0.2370(3)
C15 C 0.0522(4) 0.1885(2) 0.5439(3)
C16 C -0.0490(4) 0.1182(3) 0.5134(3)
C17 C -0.0594(5) 0.2566(3) 0.5502(4)
C18 C 0.4552(5) 0.2609(2) 0.6476(3)
O4 O 0.8665(3) 0.00599(15) 0.73025(19)
C19 C 0.8757(4) 0.0120(2) 0.8289(3)
N3 N 0.9176(3) -0.04204(16) 0.9003(2)
C20 C 0.9101(4) -0.01727(19) 1.0130(2)
N4 N 0.8896(3) 0.06616(15) 1.0039(2)
C21 C 0.8397(4) 0.0824(2) 0.8884(3)
C22 C 0.9399(4) 0.14988(19) 0.8597(3)
C23 C 1.0964(4) 0.13341(18) 0.9303(3)
O5 O 1.0450(3) 0.10418(13) 1.02784(18)
C24 C 1.2075(4) 0.1989(2) 0.9615(3)
O6 O 1.2590(3) 0.23408(15) 0.8705(2)
C25 C 0.8589(5) 0.2252(2) 0.8780(4)
C26 C 0.7901(5) 0.2339(2) 0.9840(5)
C27 C 0.7623(4) -0.05173(19) 1.0589(3)
C28 C 0.5973(4) -0.0376(2) 0.9929(3)
C29 C 0.5126(4) 0.0342(2) 1.0221(3)
C30 C 0.4864(5) -0.1050(2) 1.0014(4)
C31 C 0.7637(4) -0.0300(2) 1.1773(3)
C32 C 0.9200(4) -0.0557(3) 1.2434(3)
C33 C 1.0679(4) -0.0220(2) 1.2006(3)
C34 C 1.0653(4) -0.0413(2) 1.0817(3)
C35 C 1.2238(5) -0.0505(3) 1.2632(3)
C36 C 0.9353(5) -0.1196(2) 0.8693(3)
H1 H 0.22610 0.04950 0.63600
H2 H 0.49580 -0.01240 0.70080
H3 H 0.63560 0.04770 0.58210
H4 H 0.20550 0.26000 0.47470
H5 H 0.02290 0.21520 0.33040
H6 H 0.10700 0.13690 0.34180
H7 H 0.26280 0.26910 0.28130
H8 H 0.20760 0.20170 0.20410
H9 H 0.39550 0.12290 0.29600
H10 H 0.48480 0.24560 0.43410
H11 H 0.56790 0.16460 0.44430
H12 H 0.64200 0.18040 0.25950
H13 H 0.55110 0.25760 0.24110
H14 H 0.50730 0.19050 0.16330
H15 H 0.10710 0.18070 0.61600
H16 H 0.54030 0.27990 0.60810
H17 H 0.49380 0.25910 0.72190
H18 H 0.36190 0.29340 0.63710
H19 H 0.72570 0.09470 0.87580
H20 H 0.95830 0.14560 0.78430
H21 H 1.15910 0.09540 0.89790
H22 H 0.78150 -0.10620 1.05820
H23 H 0.61480 -0.03270 0.91730
H24 H 0.66950 -0.05260 1.20440
H25 H 0.75610 0.02410 1.18320
H26 H 0.91690 -0.03880 1.31740
H27 H 0.92730 -0.11000 1.24250
H28 H 1.06580 0.03250 1.20790
H29 H 1.15550 -0.01610 1.05520
H30 H 1.07680 -0.09560 1.07460
H31 H 1.31580 -0.03010 1.23290
H32 H 1.22860 -0.03550 1.33690
H33 H 1.22670 -0.10460 1.25990
H34 H 1.03630 -0.13910 0.90140
H35 H 0.92970 -0.12250 0.79350
H36 H 0.85180 -0.14940 0.89350
H37 H 0.79020 -0.06790 0.62030
H38 H 1.32390 0.20300 0.85250
H39 H -0.11360 0.10520 0.57020
H40 H 0.01790 0.07650 0.50010
H41 H -0.12110 0.12840 0.45040
H42 H -0.13260 0.24680 0.60310
H43 H 0.00310 0.30090 0.56960
H44 H -0.12060 0.26420 0.48190
H45 H 0.41780 -0.12400 0.59920
H46 H 0.28000 -0.07580 0.53590
H47 H 0.17890 -0.14770 0.67240
H48 H 0.29180 -0.10060 0.75720
H49 H 0.14700 -0.06100 0.68610
H50 H 0.72070 -0.03010 0.45520
H51 H 0.56840 -0.08450 0.46150
H52 H 0.93580 0.26510 0.87270
H53 H 0.76760 0.23110 0.82290
H54 H 0.74700 0.28420 0.98960
H55 H 0.87460 0.22530 1.04310
H56 H 0.70410 0.19800 0.98880
H57 H 1.14880 0.23600 0.99740
H58 H 1.30030 0.18140 1.00900
H59 H 0.40740 0.03900 0.97590
H60 H 0.49280 0.03210 1.09900
H61 H 0.58210 0.07850 1.01040
H62 H 0.38020 -0.09530 0.95840
H63 H 0.46980 -0.11310 1.07810
H64 H 0.53670 -0.15080 0.97320
#END
