
#######################################################################
#
#                 Cambridge Crystallographic Data Centre
#                                CCDC
#
#######################################################################
#
# If this CIF has been generated from an entry in the Cambridge
# Structural Database, then it will include bibliographic, chemical,
# crystal, experimental, refinement or atomic coordinate data resulting
# from the CCDC's data processing and validation procedures.
#
#######################################################################

data_CSD_CIF_SOBQAC
_audit_creation_date 2008-10-28
_audit_creation_method CSD-ConQuest-V1
_database_code_CSD SOBQAC
_database_code_depnum_ccdc_archive 'CCDC 672089'
_chemical_formula_sum 'C19 H19 N1 O4'
_chemical_formula_moiety
;
C19 H19 N1 O4
;
_journal_coden_Cambridge 16
_journal_volume 64
_journal_year 2008
_journal_page_first 5779
_journal_name_full 'Tetrahedron '
loop_
_publ_author_name
"Yongjia Shang"
"Zhijun Feng"
"Lili Yuan"
"Shaowu Wang"
_chemical_name_systematic
;
3-(4-Methylphenyl)-5-(1-phenylhydroxymethyl)-5-(methoxycarbonyl)isoxazoline
;
_cell_volume   1717.586
_exptl_crystal_density_diffrn 1.258
_diffrn_ambient_temperature 293
#These two values have been output from a single CSD field.
_refine_ls_R_factor_gt 0.0464
_refine_ls_wR_factor_gt 0.0464
_symmetry_cell_setting triclinic
_symmetry_space_group_name_H-M 'P -1'
_symmetry_Int_Tables_number 2
loop_
_symmetry_equiv_pos_site_id
_symmetry_equiv_pos_as_xyz
1 x,y,z
2 -x,-y,-z
_cell_length_a 8.5400(3)
_cell_length_b 10.5119(4)
_cell_length_c 20.8093(8)
_cell_angle_alpha 84.800(2)
_cell_angle_beta 88.209(2)
_cell_angle_gamma 67.405(2)
_cell_formula_units_Z 4
loop_
_atom_type_symbol
_atom_type_radius_bond
C 0.68
H 0.23
N 0.68
O 0.68
loop_
_atom_site_label
_atom_site_type_symbol
_atom_site_fract_x
_atom_site_fract_y
_atom_site_fract_z
C1 C 0.24651(19) 0.18879(15) 0.89987(8)
H1 H 0.22760 0.10430 0.89400
C2 C 0.13796(19) 0.30110(16) 0.85087(8)
C3 C 0.0900(3) 0.44034(18) 0.85668(10)
H2 H 0.12160 0.46970 0.89320
C4 C -0.0045(3) 0.5374(2) 0.80881(11)
H3 H -0.03560 0.63100 0.81360
C5 C 0.0877(3) 0.2627(2) 0.79621(10)
H4 H 0.11750 0.16930 0.79120
C6 C -0.0522(3) 0.4977(2) 0.75524(11)
H5 H -0.11570 0.56340 0.72330
C7 C -0.0061(4) 0.3600(3) 0.74862(12)
H6 H -0.03800 0.33160 0.71190
C8 C 0.41724(19) 0.30318(16) 1.10850(8)
C9 C 0.36053(18) 0.24240(15) 1.05790(8)
C10 C 0.2793(2) 0.31902(16) 0.99577(8)
H7 H 0.36170 0.33480 0.96640
H8 H 0.18910 0.40690 1.00300
C11 C 0.4462(2) 0.2423(2) 1.17157(9)
H9 H 0.43490 0.15840 1.18190
C12 C 0.4352(2) 0.42851(19) 1.09521(9)
H10 H 0.41460 0.47200 1.05360
C13 C 0.4915(2) 0.3056(2) 1.21863(9)
H11 H 0.50930 0.26360 1.26050
C14 C 0.5112(2) 0.4296(2) 1.20540(9)
C15 C 0.4831(3) 0.4897(2) 1.14285(9)
H12 H 0.49680 0.57280 1.13260
C16 C 0.5594(4) 0.4992(3) 1.25746(11)
H13 H 0.56470 0.58470 1.23940
H14 H 0.66810 0.43970 1.27510
H15 H 0.47590 0.51740 1.29100
O1 O 0.30341(14) 0.08852(10) 1.00846(6)
O2 O -0.03262(14) 0.16390(11) 0.97189(6)
O3 O 0.41931(14) 0.16289(12) 0.88579(7)
H16 H 0.47860 0.08390 0.89970
O4 O -0.06032(17) 0.35504(13) 1.01585(8)
C17 C 0.02382(19) 0.25676(14) 0.98825(7)
C18 C -0.2064(2) 0.1873(2) 0.98833(11)
H17 H -0.22610 0.20790 1.03260
H18 H -0.22770 0.10590 0.98230
H19 H -0.28090 0.26380 0.96100
C19 C 1.0735(2) -0.03531(19) 0.35748(8)
H20 H 1.15490 -0.12860 0.37070
C20 C 1.0668(2) -0.01496(18) 0.28461(8)
C21 C 0.9273(2) 0.0826(2) 0.25227(8)
H21 H 0.83230 0.13280 0.27560
C22 C 0.9783(2) 0.2463(2) 0.45251(8)
C23 C 1.1294(2) 0.0710(2) 0.38567(8)
C24 C 0.9942(3) 0.2168(2) 0.38328(9)
H22 H 1.03030 0.28170 0.35710
H23 H 0.88790 0.22030 0.36640
C25 C 0.8648(3) 0.3761(2) 0.47640(9)
C26 C 0.9267(3) 0.1069(2) 0.18579(9)
H24 H 0.83240 0.17400 0.16490
C27 C 1.2033(2) -0.0907(2) 0.24841(10)
H25 H 1.29750 -0.15880 0.26890
C28 C 1.0637(3) 0.0328(2) 0.15081(10)
H26 H 1.06360 0.04950 0.10620
C29 C 0.8646(3) 0.4045(3) 0.54026(10)
H27 H 0.94180 0.34030 0.56930
C30 C 0.7515(3) 0.5268(3) 0.56096(12)
H28 H 0.75480 0.54350 0.60390
C31 C 1.2018(3) -0.0666(3) 0.18190(12)
H29 H 1.29510 -0.11810 0.15810
C32 C 0.7478(3) 0.4775(3) 0.43516(11)
H30 H 0.74620 0.46310 0.39180
C33 C 0.6330(3) 0.6259(3) 0.52022(12)
C34 C 0.5090(4) 0.7589(3) 0.54302(16)
H31 H 0.54880 0.83170 0.53130
H32 H 0.49830 0.74880 0.58910
H33 H 0.40050 0.78140 0.52330
C35 C 0.6346(3) 0.5984(3) 0.45722(13)
H34 H 0.55700 0.66320 0.42840
C36 C 1.5830(3) -0.0749(4) 0.3395(2)
H35 H 1.56840 -0.03580 0.29550
H36 H 1.65180 -0.17200 0.34080
H37 H 1.63750 -0.02980 0.36360
O5 O 0.91196(15) -0.02140(17) 0.38113(6)
H38 H 0.91940 -0.04920 0.41950
O6 O 1.16087(17) 0.02929(14) 0.45468(6)
O7 O 1.41755(18) -0.05549(19) 0.36767(9)
O8 O 1.3132(2) 0.1618(2) 0.32517(9)
N1 N 0.37533(16) 0.11605(13) 1.06343(7)
N2 N 1.0692(2) 0.14236(17) 0.49021(7)
C37 C 1.2949(3) 0.0677(2) 0.35587(10)
C38 C 0.21035(19) 0.21962(14) 0.97063(8)
#END
