
#######################################################################
#
#                 Cambridge Crystallographic Data Centre
#                                CCDC
#
#######################################################################
#
# If this CIF has been generated from an entry in the Cambridge
# Structural Database, then it will include bibliographic, chemical,
# crystal, experimental, refinement or atomic coordinate data resulting
# from the CCDC's data processing and validation procedures.
#
#######################################################################

data_CSD_CIF_SOBWAI
_audit_creation_date 2008-10-28
_audit_creation_method CSD-ConQuest-V1
_database_code_CSD SOBWAI
_database_code_depnum_ccdc_archive 'CCDC 608814'
_chemical_formula_sum 'C17 H14 N2 O4'
_chemical_formula_moiety
;
C17 H14 N2 O4
;
_journal_coden_Cambridge 781
_journal_volume 4
_journal_year 2007
_journal_page_first 268
_journal_name_full 'Lett.Org.Chem. '
loop_
_publ_author_name
"L.Bianchi"
"G.Giorgi"
"M.Maccagno"
"G.Petrillo"
"E.Rizzato"
"D.Spinelli"
"M.Stenta"
"C.Tavani"
_chemical_name_systematic
;
3-(E)-(1-Nitro-2-phenylvinyl)-5-phenyl-4,5-dihydro-isoxazole 2-oxide
;
_chemical_melting_point 377.15
_cell_volume   1508.615
_exptl_crystal_colour 'yellow'
_exptl_crystal_density_diffrn 1.366
_exptl_special_details
;
Melting point range 377.15-378.15K

;
_exptl_crystal_description 'prism'
_exptl_crystal_preparation 'dimethylsulfoxide'
_diffrn_ambient_temperature 293
#These two values have been output from a single CSD field.
_refine_ls_R_factor_gt 0.0761
_refine_ls_wR_factor_gt 0.0761
_symmetry_cell_setting monoclinic
_symmetry_space_group_name_H-M 'P 21/c'
_symmetry_Int_Tables_number 14
loop_
_symmetry_equiv_pos_site_id
_symmetry_equiv_pos_as_xyz
1 x,y,z
2 -x,1/2+y,1/2-z
3 -x,-y,-z
4 x,-1/2-y,-1/2+z
_cell_length_a 14.149(3)
_cell_length_b 9.257(2)
_cell_length_c 11.577(2)
_cell_angle_alpha 90
_cell_angle_beta 95.78(2)
_cell_angle_gamma 90
_cell_formula_units_Z 4
loop_
_atom_type_symbol
_atom_type_radius_bond
C 0.68
H 0.23
N 0.68
O 0.68
loop_
_atom_site_label
_atom_site_type_symbol
_atom_site_fract_x
_atom_site_fract_y
_atom_site_fract_z
C1 C 0.5208(3) 0.3204(5) 0.6318(4)
C2 C 0.4680(4) 0.2249(6) 0.5604(5)
H1 H 0.49690 0.17670 0.50070
C3 C 0.3762(4) 0.1989(6) 0.5740(5)
H2 H 0.34100 0.13300 0.52360
C4 C 0.3335(4) 0.2665(6) 0.6594(5)
H3 H 0.26920 0.24400 0.66880
C5 C 0.3799(4) 0.3657(6) 0.7323(5)
H4 H 0.34830 0.41410 0.78970
C6 C 0.4772(4) 0.3938(6) 0.7191(5)
H5 H 0.51230 0.46100 0.76840
C7 C 0.6256(4) 0.3458(6) 0.6233(5)
H6 H 0.64890 0.42660 0.67600
C8 C 0.6565(3) 0.3714(6) 0.4996(4)
H7 H 0.60890 0.33290 0.43880
H8 H 0.66690 0.47530 0.48500
C9 C 0.7466(3) 0.2889(5) 0.5051(4)
N1 N 0.7534(3) 0.1977(4) 0.5925(3)
O1 O 0.6750(2) 0.2093(4) 0.6607(3)
O2 O 0.8117(2) 0.1022(3) 0.6229(3)
C10 C 0.8180(3) 0.2839(5) 0.4220(4)
C11 C 0.8755(3) 0.3893(5) 0.3913(4)
H9 H 0.91370 0.36560 0.33110
N2 N 0.8200(4) 0.1465(4) 0.3561(4)
O3 O 0.8856(3) 0.1230(4) 0.2967(3)
O4 O 0.7529(3) 0.0634(4) 0.3631(3)
C12 C 0.8873(3) 0.5357(5) 0.4378(4)
C13 C 0.8559(3) 0.5823(5) 0.5420(4)
H10 H 0.82620 0.51600 0.58960
C14 C 0.8681(3) 0.7240(5) 0.5761(4)
H11 H 0.84650 0.75480 0.64710
C15 C 0.9114(3) 0.8223(5) 0.5083(5)
H12 H 0.91830 0.92040 0.53190
C16 C 0.9447(4) 0.7767(5) 0.4060(5)
H13 H 0.97540 0.84320 0.35970
C17 C 0.9332(3) 0.6346(5) 0.3713(4)
H14 H 0.95680 0.60370 0.30140
#END
