
#######################################################################
#
#                 Cambridge Crystallographic Data Centre
#                                CCDC
#
#######################################################################
#
# If this CIF has been generated from an entry in the Cambridge
# Structural Database, then it will include bibliographic, chemical,
# crystal, experimental, refinement or atomic coordinate data resulting
# from the CCDC's data processing and validation procedures.
#
#######################################################################

data_CSD_CIF_SOBXIS
_audit_creation_date 2014-05-29
_audit_creation_method CSD-ConQuest-V1
_database_code_CSD SOBXIS
_database_code_depnum_ccdc_archive 'CCDC 963298'
_chemical_formula_sum 'C25 H29 N1 O6'
_chemical_formula_moiety
;
C25 H29 N1 O6
;
_journal_coden_Cambridge 182
_journal_volume 50
_journal_year 2014
_journal_page_first 7336
_journal_name_full 'Chem.Commun. '
loop_
_publ_author_name
"I.A.O'Neil"
"M.McConville"
"K.Zhou"
"C.Brooke"
"C.M.Robertson"
"N.G.Berry"
_chemical_name_systematic
;
(1S,2S)-1-((E)-1,4-Diethoxy-1,4-dioxobut-2-en-2-yl)-2-(hydroxydiphenylmethyl)p
yrrolidine 1-oxide
;
_cell_volume   4514.211
_exptl_crystal_colour 'colorless'
_exptl_crystal_density_diffrn 1.293
_exptl_crystal_description 'block'
_diffrn_ambient_temperature 296.1
#These two values have been output from a single CSD field.
_refine_ls_R_factor_gt 0.0359
_refine_ls_wR_factor_gt 0.0359
_symmetry_cell_setting orthorhombic
_symmetry_space_group_name_H-M 'P 21 21 21'
_symmetry_Int_Tables_number 19
loop_
_symmetry_equiv_pos_site_id
_symmetry_equiv_pos_as_xyz
1 x,y,z
2 1/2-x,-y,1/2+z
3 -x,1/2+y,1/2-z
4 1/2+x,1/2-y,-z
_cell_length_a 10.252(2)
_cell_length_b 10.869(2)
_cell_length_c 40.512(9)
_cell_angle_alpha 90
_cell_angle_beta 90
_cell_angle_gamma 90
_cell_formula_units_Z 8
loop_
_atom_type_symbol
_atom_type_radius_bond
C 0.68
H 0.23
N 0.68
O 0.68
loop_
_atom_site_label
_atom_site_type_symbol
_atom_site_fract_x
_atom_site_fract_y
_atom_site_fract_z
O1 O 0.22401(11) 0.42474(10) 0.77913(3)
O2 O 0.05632(11) 0.78225(10) 0.69972(3)
O3 O 0.19708(13) 0.50689(10) 0.82988(3)
C1 C 0.47825(16) 0.60153(15) 0.72569(4)
H1 H 0.53040 0.53450 0.73110
C2 C 0.11843(15) 0.66714(14) 0.70572(4)
C3 C -0.04788(15) 0.62554(14) 0.78822(4)
H2 H -0.03470 0.54100 0.79510
H3 H -0.06220 0.67630 0.80760
C4 C 0.26591(15) 0.68462(14) 0.71202(4)
C5 C 0.19152(15) 0.64396(14) 0.78584(4)
C6 C 0.34564(16) 0.58423(15) 0.71948(4)
H4 H 0.31020 0.50550 0.72030
C7 C -0.10077(15) 0.59385(14) 0.73112(4)
H5 H -0.13010 0.64680 0.71330
H6 H -0.12690 0.51010 0.72620
C8 C 0.45435(17) 0.81805(15) 0.71539(4)
H7 H 0.49070 0.89620 0.71360
C9 C 0.32192(16) 0.80140(15) 0.70959(4)
H8 H 0.27020 0.86860 0.70410
C10 C -0.16017(15) 0.63597(15) 0.76423(4)
H9 H -0.19130 0.72010 0.76280
H10 H -0.23190 0.58300 0.77070
C11 C 0.04965(15) 0.60188(13) 0.73487(4)
H11 H 0.08520 0.51860 0.73720
C12 C 0.10550(15) 0.58928(14) 0.67424(4)
C13 C 0.53280(17) 0.71837(16) 0.72381(4)
H12 H 0.62100 0.72990 0.72810
C14 C 0.2229(2) 0.38697(15) 0.84520(4)
H13 H 0.31040 0.35900 0.84000
H14 H 0.16090 0.32600 0.83750
C15 C 0.20747(15) 0.51163(14) 0.79728(4)
C16 C 0.08929(17) 0.46158(15) 0.67432(4)
H15 H 0.07690 0.42030 0.69420
C17 C 0.12522(18) 0.58202(19) 0.61466(4)
H16 H 0.13760 0.62280 0.59470
C18 C 0.09169(17) 0.39596(16) 0.64477(4)
H17 H 0.08070 0.31100 0.64510
C19 C 0.12192(17) 0.64848(16) 0.64393(4)
H18 H 0.13080 0.73360 0.64330
C20 C 0.11008(17) 0.45485(18) 0.61501(4)
H19 H 0.11230 0.41020 0.59540
C21 C 0.2086(4) 0.4070(2) 0.88146(6)
H20 H 0.12670 0.44660 0.88580
H21 H 0.27850 0.45820 0.88920
H22 H 0.21130 0.32920 0.89270
N1 N 0.06706(12) 0.67212(11) 0.76807(3)
O4 O 0.05244(11) 0.79793(9) 0.76347(3)
O5 O 0.45294(11) 0.81945(10) 0.81875(3)
O6 O 0.45167(12) 0.61169(11) 0.81352(3)
C22 C 0.27570(16) 0.73363(14) 0.79199(4)
H23 H 0.25520 0.81330 0.78540
C23 C 0.40181(16) 0.71126(15) 0.80907(4)
C24 C 0.57667(17) 0.81343(17) 0.83671(4)
H24 H 0.62210 0.89130 0.83450
H25 H 0.63110 0.74980 0.82710
C25 C 0.55518(19) 0.78605(18) 0.87272(5)
H26 H 0.51880 0.70510 0.87510
H27 H 0.49610 0.84550 0.88190
H28 H 0.63700 0.79010 0.88420
H29 H 0.045(2) 0.808(2) 0.7193(6)
O7 O 0.97707(12) 0.66833(11) 0.93194(3)
O8 O 1.15957(10) 0.29965(10) 0.98921(3)
O9 O 0.77030(11) 0.46331(11) 0.96866(3)
O10 O 1.19737(11) 0.67384(10) 0.93440(3)
C26 C 1.08000(16) 0.62452(15) 0.94028(4)
C27 C 0.95131(16) 0.38649(14) 1.07838(4)
N2 N 1.02628(12) 0.31793(12) 0.98512(3)
C28 C 1.00154(15) 0.42952(14) 0.96468(4)
C29 C 0.81762(18) 0.40608(15) 1.08007(4)
H30 H 0.76950 0.41370 1.06070
C30 C 0.86379(15) 0.44455(14) 0.95145(4)
C31 C 0.8250(2) 0.40183(16) 1.13935(5)
H31 H 0.78340 0.40910 1.15960
C32 C 1.02022(19) 0.37095(16) 1.10768(4)
H32 H 1.10940 0.35540 1.10700
C33 C 1.04392(16) 0.53138(14) 1.03748(4)
C34 C 0.97075(16) 0.20545(14) 0.96818(4)
H33 H 1.02380 0.18170 0.94940
H34 H 0.88220 0.22020 0.96070
C35 C 0.95563(14) 0.31703(13) 1.01911(4)
H35 H 0.86700 0.34930 1.01640
C36 C 0.9573(2) 0.37845(18) 1.13800(5)
H36 H 1.00440 0.36770 1.15740
C37 C 1.02796(15) 0.39298(14) 1.04583(4)
C38 C 0.93961(16) 0.60366(14) 1.02677(4)
H37 H 0.85860 0.56760 1.02310
C39 C 1.17980(17) 0.71398(17) 1.03788(5)
H38 H 1.26040 0.75060 1.04170
C40 C 0.94874(16) 0.17843(14) 1.02735(4)
H39 H 1.01400 0.15730 1.04370
H40 H 0.86340 0.15770 1.03610
C41 C 0.95602(18) 0.72960(15) 1.02149(4)
H41 H 0.88600 0.77680 1.01420
C42 C 1.16381(16) 0.58795(16) 1.04309(4)
H42 H 1.23400 0.54120 1.05040
C43 C 0.97432(17) 0.10766(15) 0.99497(4)
H43 H 1.05870 0.06740 0.99560
H44 H 0.90740 0.04610 0.99130
C44 C 1.19784(19) 0.75194(16) 0.87813(5)
H45 H 1.19940 0.82570 0.86510
H46 H 1.12010 0.70620 0.87330
H47 H 1.27300 0.70270 0.87300
C45 C 0.7550(2) 0.41440(16) 1.11055(5)
H48 H 0.66560 0.42850 1.11140
C46 C 1.09755(16) 0.50870(14) 0.95924(4)
H49 H 1.17980 0.49090 0.96770
C47 C 1.07569(18) 0.78482(15) 1.02703(5)
H50 H 1.08620 0.86880 1.02350
C48 C 1.19957(18) 0.78532(15) 0.91426(4)
H51 H 1.27750 0.83250 0.91920
H52 H 1.12430 0.83580 0.91940
C49 C 0.7722(2) 0.50724(19) 0.86853(5)
H53 H 0.69330 0.52160 0.85630
H54 H 0.82530 0.44880 0.85690
H55 H 0.81910 0.58320 0.87090
O11 O 1.15234(11) 0.33805(11) 1.05109(3)
H56 H 1.18280 0.31580 1.03330
O12 O 0.86276(11) 0.43071(12) 0.91891(3)
C50 C 0.73904(19) 0.4575(2) 0.90204(5)
H57 H 0.68920 0.51750 0.91450
H58 H 0.68740 0.38310 0.90000
#END
