
#######################################################################
#
#                 Cambridge Crystallographic Data Centre
#                                CCDC
#
#######################################################################
#
# If this CIF has been generated from an entry in the Cambridge
# Structural Database, then it will include bibliographic, chemical,
# crystal, experimental, refinement or atomic coordinate data resulting
# from the CCDC's data processing and validation procedures.
#
#######################################################################

data_CSD_CIF_SOBZAK
_audit_creation_date 1999-02-18
_audit_creation_method CSD-ConQuest-V1
_database_code_CSD SOBZAK
_database_code_depnum_ccdc_archive 'CCDC 105682'
_chemical_formula_sum 'C21 H23 N1 O2'
_chemical_formula_moiety
;
C21 H23 N1 O2
;
_journal_coden_Cambridge 4
_journal_volume 120
_journal_year 1998
_journal_page_first 10379
_journal_name_full 'J.Am.Chem.Soc. '
loop_
_publ_author_name
"J.H.Horner"
"N.Tanaka"
"M.Newcomb"
_chemical_name_systematic
;
N-Methoxy-N-methyl-trans-2-(2,2-diphenyl-1R*-cyclopropyl)-1S*,2R*-cyclopropane
carboxamide
;
_chemical_melting_point 356.15
_cell_volume   1771.680
_exptl_crystal_colour 'colorless'
_exptl_crystal_density_diffrn 1.205
_exptl_special_details
;
Melting point range 356.15-357.15K

;
_exptl_crystal_description 'striated flat rods'
_exptl_crystal_preparation 'hexanes/diethyl ether'
_diffrn_ambient_temperature ?
_diffrn_special_details
;
The study was carried out at room temperature,in the range 283-303K

;
#These two values have been output from a single CSD field.
_refine_ls_R_factor_gt 0.047
_refine_ls_wR_factor_gt 0.047
_symmetry_cell_setting triclinic
_symmetry_space_group_name_H-M 'P -1'
_symmetry_Int_Tables_number 2
loop_
_symmetry_equiv_pos_site_id
_symmetry_equiv_pos_as_xyz
1 x,y,z
2 -x,-y,-z
_cell_length_a 11.1311(13)
_cell_length_b 12.983(2)
_cell_length_c 14.162(2)
_cell_angle_alpha 67.597(12)
_cell_angle_beta 88.428(11)
_cell_angle_gamma 70.483(10)
_cell_formula_units_Z 4
loop_
_atom_type_symbol
_atom_type_radius_bond
C 0.68
H 0.23
N 0.68
O 0.68
loop_
_atom_site_label
_atom_site_type_symbol
_atom_site_fract_x
_atom_site_fract_y
_atom_site_fract_z
C1 C 0.1824(3) 0.1583(2) 0.4802(2)
C2 C 0.2375(4) 0.0237(3) 0.5353(2)
C3 C 0.2043(3) 0.0769(3) 0.4215(2)
C4 C 0.3079(3) 0.0669(3) 0.3534(2)
C5 C 0.3152(5) 0.0022(3) 0.2866(2)
C6 C 0.2752(3) 0.1347(3) 0.2389(2)
C7 C 0.3681(3) 0.1842(3) 0.1811(2)
O1 O 0.4835(2) 0.1340(2) 0.2022(2)
N1 N 0.3219(2) 0.2901(2) 0.0998(2)
O2 O 0.1907(2) 0.3544(2) 0.08481(15)
C8 C 0.1279(5) 0.3363(5) 0.0089(4)
C9 C 0.3981(5) 0.3543(5) 0.0375(4)
C10 C 0.0464(3) 0.2208(3) 0.4936(2)
C11 C 0.0063(4) 0.3322(3) 0.4962(3)
C12 C -0.1180(4) 0.3887(4) 0.5084(3)
C13 C -0.2063(4) 0.3351(4) 0.5206(3)
C14 C -0.1698(4) 0.2253(4) 0.5178(3)
C15 C -0.0455(4) 0.1687(3) 0.5055(3)
C16 C 0.2717(3) 0.2264(2) 0.4669(2)
C17 C 0.3646(3) 0.1981(3) 0.5440(3)
C18 C 0.4422(3) 0.2653(3) 0.5319(3)
C19 C 0.4263(4) 0.3618(3) 0.4427(3)
C20 C 0.3361(3) 0.3907(3) 0.3649(3)
C21 C 0.2596(3) 0.3232(3) 0.3761(2)
C22 C -0.3063(3) 0.1545(2) -0.0867(2)
C23 C -0.2488(4) 0.0203(3) -0.0525(2)
C24 C -0.2880(3) 0.0714(3) 0.0272(2)
C25 C -0.1880(3) 0.0607(3) 0.1011(2)
C26 C -0.1852(4) -0.0043(3) 0.2125(2)
C27 C -0.2242(3) 0.1279(3) 0.1697(2)
C28 C -0.1334(3) 0.1778(3) 0.1927(2)
O3 O -0.0179(2) 0.1248(2) 0.2096(2)
N2 N -0.1821(3) 0.2838(2) 0.2006(2)
O4 O -0.3098(2) 0.3531(2) 0.1627(2)
C29 C -0.3872(6) 0.3443(6) 0.2472(5)
C30 C -0.1049(6) 0.3479(5) 0.2151(5)
C31 C -0.4396(3) 0.2145(2) -0.1420(2)
C32 C -0.5341(3) 0.1648(3) -0.1148(3)
C33 C -0.6558(4) 0.2194(3) -0.1672(3)
C34 C -0.6888(4) 0.3267(3) -0.2478(3)
C35 C -0.5972(4) 0.3771(4) -0.2769(3)
C36 C -0.4750(4) 0.3229(3) -0.2253(2)
C37 C -0.2190(3) 0.2249(2) -0.1194(2)
C38 C -0.2329(3) 0.3168(3) -0.0883(2)
C39 C -0.1568(3) 0.3857(3) -0.1213(3)
C40 C -0.0667(4) 0.3645(3) -0.1855(3)
C41 C -0.0509(4) 0.2734(3) -0.2170(3)
C42 C -0.1271(3) 0.2040(3) -0.1838(2)
H1 H 0.1825(27) -0.0142(24) 0.5787(22)
H2 H 0.3284(32) -0.0117(26) 0.5642(23)
H3 H 0.1279(26) 0.0742(20) 0.3968(18)
H4 H 0.3859(29) 0.0652(22) 0.3757(20)
H5 H 0.2445(29) -0.0272(24) 0.2864(20)
H6 H 0.3912(35) -0.0401(28) 0.2757(23)
H7 H 0.1868(28) 0.1799(23) 0.2155(19)
H8 H 0.1368(39) 0.2557(41) 0.0302(29)
H9 H 0.1611(42) 0.3572(37) -0.0536(34)
H10 H 0.0413(51) 0.3882(43) 0.0052(35)
H11 H 0.4840(49) 0.3048(40) 0.0550(34)
H12 H 0.4076(47) 0.4030(42) 0.0684(35)
H13 H 0.3615(42) 0.3939(39) -0.0264(36)
H14 H 0.0661(30) 0.3662(25) 0.4896(21)
H15 H -0.1394(45) 0.4641(42) 0.5155(33)
H16 H -0.2901(35) 0.3708(28) 0.5295(23)
H17 H -0.2275(37) 0.1872(32) 0.5287(26)
H18 H -0.0237(36) 0.0940(34) 0.4975(26)
H19 H 0.3745(28) 0.1330(27) 0.6049(24)
H20 H 0.5031(32) 0.2429(26) 0.5841(25)
H21 H 0.4837(30) 0.4039(26) 0.4350(21)
H22 H 0.3216(33) 0.4602(32) 0.3043(27)
H23 H 0.1929(31) 0.3447(25) 0.3214(23)
H24 H -0.3040(28) -0.0181(25) -0.0672(20)
H25 H -0.1597(33) -0.0112(26) -0.0558(21)
H26 H -0.3680(29) 0.0678(23) 0.0551(20)
H27 H -0.1102(28) 0.0600(21) 0.0764(19)
H28 H -0.250(3) -0.0342(25) 0.2358(21)
H29 H -0.0994(31) -0.0501(25) 0.2541(22)
H30 H -0.3103(29) 0.1702(23) 0.1658(19)
H31 H -0.3508(49) 0.3577(44) 0.2986(40)
H32 H -0.3774(66) 0.2588(66) 0.2808(50)
H33 H -0.4655(49) 0.4093(43) 0.2054(36)
H34 H -0.1525(49) 0.3961(45) 0.2496(35)
H35 H -0.1103(45) 0.4027(44) 0.1539(37)
H36 H -0.0278(49) 0.2968(41) 0.2490(35)
H37 H -0.5152(33) 0.0882(32) -0.0554(27)
H38 H -0.7185(35) 0.1849(30) -0.1453(25)
H39 H -0.7747(35) 0.3608(28) -0.2850(24)
H40 H -0.6143(34) 0.4479(33) -0.3369(29)
H41 H -0.4123(32) 0.3537(28) -0.2444(23)
H42 H -0.2956(32) 0.3301(27) -0.0428(24)
H43 H -0.1736(28) 0.4528(27) -0.0976(21)
H44 H -0.0040(32) 0.4061(27) -0.2132(22)
H45 H 0.0081(37) 0.2598(29) -0.2622(26)
H46 H -0.1143(26) 0.1417(25) -0.2077(20)
#END
