
#######################################################################
#
#                 Cambridge Crystallographic Data Centre
#                                CCDC
#
#######################################################################
#
# If this CIF has been generated from an entry in the Cambridge
# Structural Database, then it will include bibliographic, chemical,
# crystal, experimental, refinement or atomic coordinate data resulting
# from the CCDC's data processing and validation procedures.
#
#######################################################################

data_CSD_CIF_SODGEY
_audit_creation_date 2008-10-28
_audit_creation_method CSD-ConQuest-V1
_database_code_CSD SODGEY
_database_code_depnum_ccdc_archive 'CCDC 693286'
_chemical_formula_sum 'C20 H19 N1 O6'
_chemical_formula_moiety
;
C20 H19 N1 O6
;
_journal_coden_Cambridge 16
_journal_volume 64
_journal_year 2008
_journal_page_first 5583
_journal_name_full 'Tetrahedron '
loop_
_publ_author_name
"Chun-Yin Zhu"
"Xiu-Li Sun"
"Xian-Ming Deng"
"Jun-Cheng Zheng"
"Yong Tang"
_chemical_name_systematic
;
3-Benzyl 5-ethyl 4-phenyl-4,5-dihydroisoxazole-3,5-dicarboxylate 2-oxide
;
_chemical_melting_point 355.15
_cell_volume   1872.226
_exptl_crystal_colour 'colorless'
_exptl_crystal_density_diffrn 1.31
_exptl_special_details
;
Melting point range 355.15-358.15K

;
_exptl_crystal_description 'prismatic'
_diffrn_ambient_temperature 293
#These two values have been output from a single CSD field.
_refine_ls_R_factor_gt 0.0405
_refine_ls_wR_factor_gt 0.0405
_symmetry_cell_setting monoclinic
_symmetry_space_group_name_H-M 'P 21/n'
_symmetry_Int_Tables_number 14
loop_
_symmetry_equiv_pos_site_id
_symmetry_equiv_pos_as_xyz
1 x,y,z
2 1/2-x,1/2+y,1/2-z
3 -x,-y,-z
4 -1/2+x,-1/2-y,-1/2+z
_cell_length_a 12.4214(12)
_cell_length_b 7.3745(7)
_cell_length_c 20.449(2)
_cell_angle_alpha 90
_cell_angle_beta 91.811(2)
_cell_angle_gamma 90
_cell_formula_units_Z 4
loop_
_atom_type_symbol
_atom_type_radius_bond
C 0.68
H 0.23
N 0.68
O 0.68
loop_
_atom_site_label
_atom_site_type_symbol
_atom_site_fract_x
_atom_site_fract_y
_atom_site_fract_z
O1 O 0.72284(8) 1.07072(16) 0.16727(6)
O2 O 0.74266(8) 1.15658(16) 0.27191(6)
O3 O 1.02907(9) 0.83529(17) 0.19958(5)
O4 O 0.90351(8) 0.89300(15) 0.12137(5)
O5 O 0.67453(10) 0.94243(18) 0.36977(6)
O6 O 0.8357(1) 0.96009(18) 0.42125(6)
N1 N 0.78502(11) 1.06883(18) 0.21489(7)
C1 C 0.81689(13) 1.1211(3) 0.32529(9)
C2 C 0.91901(12) 1.0395(2) 0.29574(8)
C3 C 0.88141(11) 1.0064(2) 0.22732(7)
C4 C 0.94574(13) 0.9030(2) 0.18184(8)
C5 C 0.76439(15) 0.9965(2) 0.37406(9)
C6 C 0.80403(19) 0.8362(3) 0.47253(10)
H1 H 0.75370 0.74680 0.45490
H2 H 0.76940 0.90230 0.50710
C7 C 0.9023(2) 0.7463(4) 0.49845(13)
H3 H 0.93390 0.67640 0.46440
H4 H 0.88430 0.66770 0.53390
H5 H 0.95280 0.83630 0.51400
C8 C 1.01763(12) 1.1590(2) 0.30109(7)
C9 C 1.11394(13) 1.0890(3) 0.32422(8)
H6 H 1.11730 0.96970 0.33890
C10 C 1.20599(14) 1.1946(3) 0.32593(9)
H7 H 1.27090 1.14580 0.34150
C11 C 1.20198(15) 1.3700(3) 0.30490(9)
H8 H 1.26410 1.44030 0.30580
C12 C 1.10650(14) 1.4421(3) 0.28254(9)
H9 H 1.10350 1.56230 0.26880
C13 C 1.01432(13) 1.3373(3) 0.28023(8)
H10 H 0.94970 1.38690 0.26450
C14 C 0.96983(13) 0.7963(2) 0.07620(8)
H11 H 0.98460 0.67520 0.09270
H12 H 1.03800 0.85880 0.07200
C15 C 0.91317(13) 0.7849(2) 0.01118(8)
C16 C 0.97054(15) 0.7229(2) -0.04121(9)
H13 H 1.04280 0.69270 -0.03480
C17 C 0.92367(17) 0.7051(3) -0.10191(9)
H14 H 0.96380 0.66240 -0.13630
C18 C 0.81827(18) 0.7497(3) -0.11251(9)
H15 H 0.78610 0.73760 -0.15400
C19 C 0.76014(15) 0.8125(3) -0.06136(10)
H16 H 0.68810 0.84370 -0.06830
C20 C 0.80738(14) 0.8301(2) 0.00028(9)
H17 H 0.76710 0.87290 0.03460
H18 H 0.8324(11) 1.239(2) 0.3489(7)
H19 H 0.9339(10) 0.9254(18) 0.3170(6)
#END
