
#######################################################################
#
#                 Cambridge Crystallographic Data Centre
#                                CCDC
#
#######################################################################
#
# If this CIF has been generated from an entry in the Cambridge
# Structural Database, then it will include bibliographic, chemical,
# crystal, experimental, refinement or atomic coordinate data resulting
# from the CCDC's data processing and validation procedures.
#
#######################################################################

data_CSD_CIF_SODJAX
_audit_creation_date 2008-10-28
_audit_creation_method CSD-ConQuest-V1
_database_code_CSD SODJAX
_database_code_depnum_ccdc_archive 'CCDC 704454'
_chemical_formula_sum 'C25 H32 N2 O6'
_chemical_formula_moiety
;
C25 H32 N2 O6
;
_journal_coden_Cambridge 179
_journal_volume 47
_journal_year 2008
_journal_page_first 4432
_journal_name_full 'Angew.Chem.,Int.Ed. '
loop_
_publ_author_name
"S.Barluenga"
"Cuihua Wang"
"J.-G.Fontaine"
"K.Aouadi"
"K.Beebe"
"S.Tsutsumi"
"L.Neckers"
"N.Winssinger"
_chemical_name_systematic
;
(Z)-1^4^,1^6^-Dihydroxy-4-methyl-3-oxa-1(1,2)benzenacyclotridecaphane-6,10-die
ne-2,12-dione 12-O-(piperidinoylmethyl)oxime
;
_cell_volume   1127.022
_exptl_crystal_colour 'colorless'
_exptl_crystal_density_diffrn 1.345
_exptl_special_details
;
inhibition of the heat-shock protein 90 (HSP90); potential anti-cancer agent

;
_exptl_crystal_description 'block'
_diffrn_ambient_temperature 173
#These two values have been output from a single CSD field.
_refine_ls_R_factor_gt 0.0377
_refine_ls_wR_factor_gt 0.0377
_symmetry_cell_setting monoclinic
_symmetry_space_group_name_H-M 'P 21'
_symmetry_Int_Tables_number 4
loop_
_symmetry_equiv_pos_site_id
_symmetry_equiv_pos_as_xyz
1 x,y,z
2 -x,1/2+y,-z
_cell_length_a 9.5970(4)
_cell_length_b 12.6365(7)
_cell_length_c 9.9459(3)
_cell_angle_alpha 90
_cell_angle_beta 110.871(2)
_cell_angle_gamma 90
_cell_formula_units_Z 2
loop_
_atom_type_symbol
_atom_type_radius_bond
C 0.68
H 0.23
N 0.68
O 0.68
loop_
_atom_site_label
_atom_site_type_symbol
_atom_site_fract_x
_atom_site_fract_y
_atom_site_fract_z
C1 C 0.9490(3) 0.1491(2) 0.1182(3)
H1 H 0.98300 0.12280 0.21850
H2 H 0.99870 0.10670 0.06470
C2 C 0.7815(3) 0.1361(2) 0.0493(3)
H3 H 0.73310 0.17000 0.11120
H4 H 0.75640 0.05990 0.04230
C3 C 0.7207(3) 0.1853(2) -0.1003(2)
H5 H 0.75620 0.14440 -0.16660
H6 H 0.61040 0.18250 -0.13720
C4 C 0.7715(3) 0.2996(2) -0.0955(2)
H7 H 0.72580 0.34240 -0.03880
H8 H 0.73800 0.32860 -0.19440
C5 C 0.9405(3) 0.3069(2) -0.0280(2)
H9 H 0.98670 0.26830 -0.08800
H10 H 0.97200 0.38190 -0.02250
C6 C 1.0700(2) 0.3100(2) 0.2406(2)
C7 C 1.1001(2) 0.4281(2) 0.2414(2)
H11 H 1.05250 0.45690 0.14300
H12 H 1.05650 0.46440 0.30530
C8 C 1.4502(2) 0.41678(17) 0.2210(2)
C9 C 1.5489(2) 0.44675(19) 0.3661(2)
H13 H 1.50750 0.45080 0.43970
C10 C 1.6930(3) 0.46862(19) 0.4006(2)
H14 H 1.73000 0.47610 0.32440
C11 C 1.8010(3) 0.4822(2) 0.5513(2)
H15 H 1.74760 0.47640 0.61980
H16 H 1.84710 0.55330 0.56230
C12 C 1.9229(3) 0.3967(2) 0.5851(3)
H17 H 1.97830 0.40510 0.51860
H18 H 1.99430 0.40720 0.68440
C13 C 1.8608(3) 0.2862(2) 0.5710(2)
H19 H 1.85810 0.25310 0.65580
C14 C 1.8098(3) 0.2317(2) 0.4498(2)
H20 H 1.82210 0.26200 0.36730
C15 C 1.7342(3) 0.1263(2) 0.4313(3)
H21 H 1.76640 0.09030 0.52590
H22 H 1.76800 0.08270 0.36610
C16 C 1.5635(3) 0.1310(2) 0.3709(2)
H23 H 1.52300 0.05730 0.35210
C17 C 1.3968(3) 0.1604(2) 0.1269(2)
C18 C 1.3618(2) 0.22214(19) -0.0063(2)
C19 C 1.2649(2) 0.17483(19) -0.1350(2)
C20 C 1.2386(2) 0.2200(2) -0.2692(2)
H24 H 1.17610 0.18540 -0.35400
C21 C 1.3040(2) 0.3153(2) -0.2780(2)
C22 C 1.3910(2) 0.3682(2) -0.1520(2)
H25 H 1.43010 0.43620 -0.15890
C23 C 1.4208(2) 0.32323(18) -0.0180(2)
C24 C 1.5186(2) 0.38652(19) 0.1108(2)
H26 H 1.61000 0.34500 0.16020
H27 H 1.54930 0.45220 0.07490
C25 C 1.4956(3) 0.1872(2) 0.4674(2)
H28 H 1.53360 0.25980 0.48480
H29 H 1.52240 0.14950 0.55930
H30 H 1.38680 0.18860 0.42060
N1 N 0.9904(2) 0.26076(17) 0.11747(19)
N2 N 1.3076(2) 0.41091(16) 0.17938(18)
O1 O 1.11782(18) 0.26181(15) 0.35690(16)
O2 O 1.25677(16) 0.44704(14) 0.29067(15)
O3 O 1.52077(17) 0.18908(13) 0.23316(15)
O4 O 1.3226(2) 0.08396(15) 0.13872(18)
O5 O 1.19484(18) 0.08102(14) -0.13337(19)
O6 O 1.2890(2) 0.36429(15) -0.40330(17)
H31 H 1.235(4) 0.322(3) -0.472(4)
H32 H 1.211(3) 0.061(3) -0.041(3)
#END
