
#######################################################################
#
#                 Cambridge Crystallographic Data Centre
#                                CCDC
#
#######################################################################
#
# If this CIF has been generated from an entry in the Cambridge
# Structural Database, then it will include bibliographic, chemical,
# crystal, experimental, refinement or atomic coordinate data resulting
# from the CCDC's data processing and validation procedures.
#
#######################################################################

data_CSD_CIF_SOFLEF
_audit_creation_date 2008-10-28
_audit_creation_method CSD-ConQuest-V1
_database_code_CSD SOFLEF
_database_code_depnum_ccdc_archive 'CCDC 646992'
_chemical_formula_sum 'C16 H14 N2 O3'
_chemical_formula_moiety
;
C16 H14 N2 O3
;
_journal_coden_Cambridge 24
_journal_volume 49
_journal_year 2008
_journal_page_first 4550
_journal_name_full 'Tetrahedron Lett. '
loop_
_publ_author_name
"D.S.Bohle"
"Y.Ishihara"
"I.Perepichka"
"Lijuan Zhang"
_chemical_name_systematic
;
2,4-Dibenzyl-1,2,3-oxadiazol-5(2H)-one 3-oxide
;
_cell_volume   2746.521
_exptl_crystal_density_diffrn 1.365
_diffrn_ambient_temperature 293
#These two values have been output from a single CSD field.
_refine_ls_R_factor_gt 0.0382
_refine_ls_wR_factor_gt 0.0382
_symmetry_cell_setting orthorhombic
_symmetry_space_group_name_H-M 'P b c a'
_symmetry_Int_Tables_number 61
loop_
_symmetry_equiv_pos_site_id
_symmetry_equiv_pos_as_xyz
1 x,y,z
2 1/2-x,-y,1/2+z
3 -x,1/2+y,1/2-z
4 1/2+x,1/2-y,-z
5 -x,-y,-z
6 -1/2+x,y,-1/2-z
7 x,-1/2-y,-1/2+z
8 -1/2-x,-1/2+y,z
_cell_length_a 10.868(2)
_cell_length_b 8.8483(18)
_cell_length_c 28.561(6)
_cell_angle_alpha 90
_cell_angle_beta 90
_cell_angle_gamma 90
_cell_formula_units_Z 8
loop_
_atom_type_symbol
_atom_type_radius_bond
C 0.68
H 0.23
N 0.68
O 0.68
loop_
_atom_site_label
_atom_site_type_symbol
_atom_site_fract_x
_atom_site_fract_y
_atom_site_fract_z
C1 C 0.16901(12) 0.11031(15) 0.61124(5)
C2 C 0.06620(13) 0.01269(15) 0.60091(5)
O1 O 0.00913(9) -0.07294(12) 0.62512(3)
N1 N 0.19727(11) 0.18308(13) 0.57278(4)
O2 O 0.27782(9) 0.28093(11) 0.56468(4)
N2 N 0.12568(11) 0.13185(13) 0.53343(4)
O3 O 0.03792(9) 0.03129(11) 0.55417(3)
C3 C 0.23473(13) 0.12861(17) 0.65638(5)
H1 H 0.31190 0.18030 0.65050
H2 H 0.25410 0.02920 0.66860
C4 C 0.16401(13) 0.21562(15) 0.69346(5)
C5 C 0.20867(15) 0.21705(18) 0.73917(5)
H3 H 0.27920 0.16260 0.74670
C6 C 0.14838(17) 0.2994(2) 0.77349(6)
H4 H 0.17880 0.29980 0.80390
C7 C 0.04393(17) 0.3805(2) 0.76303(5)
H5 H 0.00410 0.43570 0.78620
C8 C -0.00130(15) 0.37930(18) 0.71795(5)
H6 H -0.07180 0.43400 0.71070
C9 C 0.05805(13) 0.29671(16) 0.68334(5)
H7 H 0.02650 0.29570 0.65310
C10 C 0.05726(13) 0.26148(16) 0.51208(5)
H8 H 0.00660 0.22330 0.48670
H9 H 0.11640 0.33110 0.49860
C11 C -0.02343(13) 0.34700(15) 0.54557(5)
C12 C -0.14174(13) 0.29602(16) 0.55556(5)
H10 H -0.17140 0.20900 0.54120
C13 C -0.21555(14) 0.37421(17) 0.58682(6)
H11 H -0.29450 0.33960 0.59330
C14 C -0.17222(14) 0.50347(17) 0.60841(5)
H12 H -0.22190 0.55540 0.62950
C15 C -0.05517(14) 0.55559(16) 0.59871(5)
H13 H -0.02600 0.64260 0.61320
C16 C 0.01880(13) 0.47796(16) 0.56732(5)
H14 H 0.09740 0.51370 0.56070
#END
