
#######################################################################
#
#                 Cambridge Crystallographic Data Centre
#                                CCDC
#
#######################################################################
#
# If this CIF has been generated from an entry in the Cambridge
# Structural Database, then it will include bibliographic, chemical,
# crystal, experimental, refinement or atomic coordinate data resulting
# from the CCDC's data processing and validation procedures.
#
#######################################################################

data_CSD_CIF_SOFQAF
_audit_creation_date 1999-02-18
_audit_creation_method CSD-ConQuest-V1
_database_code_CSD SOFQAF
_chemical_formula_sum 'C19 H22 N4 O4'
_chemical_formula_moiety
;
C19 H22 N4 O4
;
_journal_coden_Cambridge 35
_journal_volume 63
_journal_year 1998
_journal_page_first 2699
_journal_name_full 'J.Org.Chem. '
loop_
_publ_author_name
"Chin-Kang Sha"
"K.C.Santhosh"
"Shin-Hong Lih"
_chemical_name_systematic
;
2,6-Dimethyl-3-(2,4-dinitrophenylhydrazone)-3,3a,4,5,5a,6,7,8-octahydrocyclope
nta(c)pentalene
;
_chemical_melting_point 400.15
_cell_volume   3742.030
_exptl_crystal_colour 'orange'
_exptl_crystal_density_diffrn 1.315
_exptl_special_details
;
Melting point range 400.15-401.15K

;
_exptl_crystal_description 'blades'
_exptl_crystal_preparation 'ethanol'
_diffrn_ambient_temperature ?
_diffrn_special_details
;
The study was carried out at room temperature,in the range 283-303K

;
#These two values have been output from a single CSD field.
_refine_ls_R_factor_gt 0.0486
_refine_ls_wR_factor_gt 0.0486
_symmetry_cell_setting orthorhombic
_symmetry_space_group_name_H-M 'P 21 21 2'
_symmetry_Int_Tables_number 18
loop_
_symmetry_equiv_pos_site_id
_symmetry_equiv_pos_as_xyz
1 x,y,z
2 -x,-y,z
3 1/2+x,1/2-y,-z
4 1/2-x,1/2+y,-z
_cell_length_a 16.4335(9)
_cell_length_b 30.6718(16)
_cell_length_c 7.4240(4)
_cell_angle_alpha 90
_cell_angle_beta 90
_cell_angle_gamma 90
_cell_formula_units_Z 8
loop_
_atom_type_symbol
_atom_type_radius_bond
C 0.68
H 0.23
N 0.68
O 0.68
loop_
_atom_site_label
_atom_site_type_symbol
_atom_site_fract_x
_atom_site_fract_y
_atom_site_fract_z
O1 O 0.1243(3) 0.1058(2) 1.1444(9)
O2 O 0.0961(3) 0.0405(2) 1.0579(10)
O3 O 0.2912(4) -0.0534(2) 0.8001(9)
O4 O 0.4168(4) -0.0337(2) 0.7821(9)
O5 O 0.4332(4) 0.2047(2) 0.5849(10)
O6 O 0.3174(4) 0.2237(2) 0.6946(9)
O7 O 0.0982(4) 0.1262(2) 0.7023(10)
O8 O 0.1012(3) 0.0631(2) 0.5755(10)
N1 N 0.3276(3) 0.1699(2) 1.1016(8)
N2 N 0.2671(3) 0.1385(2) 1.0885(9)
N3 N 0.1438(4) 0.0700(3) 1.0752(11)
N4 N 0.3463(5) -0.0271(2) 0.8199(9)
N5 N 0.2943(4) 0.0004(2) 0.4053(9)
N6 N 0.2378(4) 0.0314(2) 0.4574(9)
N7 N 0.3622(5) 0.1968(3) 0.6226(9)
N8 N 0.1319(5) 0.0973(3) 0.6187(11)
C1 C 0.3036(4) 0.2079(3) 1.1538(9)
C2 C 0.3604(4) 0.2431(2) 1.1903(11)
C3 C 0.3205(4) 0.2771(2) 1.2577(10)
C4 C 0.2295(4) 0.2698(2) 1.2677(10)
C5 C 0.1898(4) 0.2812(2) 1.4538(10)
C6 C 0.1338(4) 0.3198(2) 1.4187(11)
C7 C 0.1061(4) 0.3129(2) 1.2256(11)
C8 C 0.1846(4) 0.2999(2) 1.1317(10)
C9 C 0.1763(4) 0.2733(3) 0.9580(11)
C10 C 0.1617(4) 0.2259(2) 1.0314(10)
C11 C 0.2180(4) 0.2224(2) 1.1981(10)
C12 C 0.4494(4) 0.2390(2) 1.1498(12)
C13 C 0.0635(5) 0.3519(2) 1.1436(11)
C14 C 0.2855(5) 0.0975(3) 1.0286(10)
C15 C 0.2274(4) 0.0641(3) 1.0150(11)
C16 C 0.2461(4) 0.0233(3) 0.9458(11)
C17 C 0.3242(5) 0.0157(2) 0.894(1)
C18 C 0.3856(4) 0.0472(3) 0.9100(11)
C19 C 0.3662(4) 0.0876(2) 0.9783(10)
C20 C 0.2631(5) -0.0363(3) 0.3515(10)
C21 C 0.3150(5) -0.0709(3) 0.2909(11)
C22 C 0.2698(5) -0.1033(3) 0.2319(11)
C23 C 0.1795(5) -0.0956(2) 0.241(1)
C24 C 0.1315(5) -0.1009(3) 0.0629(11)
C25 C 0.0745(5) -0.1405(3) 0.0945(12)
C26 C 0.0559(4) -0.1376(2) 0.2953(13)
C27 C 0.1372(4) -0.1265(2) 0.3776(11)
C28 C 0.1382(4) -0.1028(2) 0.5555(11)
C29 C 0.1269(4) -0.0557(2) 0.5090(11)
C30 C 0.1746(5) -0.0491(2) 0.3327(10)
C31 C 0.4062(5) -0.0682(2) 0.2972(13)
C32 C 0.0168(5) -0.1785(3) 0.3714(13)
C33 C 0.2655(5) 0.0721(3) 0.4992(9)
C34 C 0.2186(5) 0.1053(3) 0.5756(11)
C35 C 0.2484(5) 0.1465(3) 0.6132(11)
C36 C 0.3293(5) 0.1540(2) 0.5778(10)
C37 C 0.3804(4) 0.1227(3) 0.5019(11)
C38 C 0.3493(5) 0.0820(2) 0.4651(11)
H1 H 0.20820 0.14000 1.13300
H2 H 0.17340 0.01940 0.48530
H3 H 0.35510 0.31050 1.27740
H4 H 0.15600 0.24940 1.50760
H5 H 0.22880 0.27950 1.57560
H6 H 0.08780 0.31940 1.48740
H7 H 0.16670 0.35040 1.40000
H8 H 0.05970 0.29010 1.22720
H9 H 0.22220 0.33030 1.09310
H10 H 0.23450 0.28000 0.89080
H11 H 0.13540 0.28000 0.89030
H12 H 0.10070 0.23000 1.03010
H13 H 0.17190 0.20000 0.93430
H14 H 0.18440 0.20020 1.24630
H15 H 0.47250 0.24280 1.00500
H16 H 0.47480 0.21010 1.20510
H17 H 0.48020 0.25620 1.23010
H18 H 0.09390 0.38000 1.13220
H19 H 0.01450 0.36010 1.20660
H20 H 0.07230 0.35000 0.99160
H21? H 0.19750 0.00000 0.91130
H22 H 0.44510 0.04000 0.87470
H23 H 0.41020 0.11120 1.00310
H24 H 0.29700 -0.12000 0.17470
H25 H 0.08460 -0.08000 0.02600
H26 H 0.17400 -0.10040 -0.03520
H27 H 0.12370 -0.16000 0.06990
H28 H 0.02380 -0.13000 -0.01090
H29 H 0.01000 -0.11030 0.32630
H30 H 0.16940 -0.15400 0.38870
H31 H 0.18340 -0.11960 0.63110
H32 H 0.09900 -0.11960 0.62940
H33 H 0.06770 -0.04940 0.48990
H34 H 0.14530 -0.03630 0.62110
H35 H 0.15190 -0.03010 0.21320
H36 H 0.42080 -0.04010 0.25730
H37 H 0.43320 -0.10040 0.25160
H38 H 0.44030 -0.07060 0.40630
H39 H 0.03380 -0.21050 0.35450
H40 H 0.01440 -0.17940 0.50650
H41 H -0.03520 -0.19050 0.29070
H42 H 0.21200 0.16970 0.67410
H43 H 0.44770 0.13050 0.45930
H44 H 0.37980 0.05050 0.46290
#END
