
#######################################################################
#
#                 Cambridge Crystallographic Data Centre
#                                CCDC
#
#######################################################################
#
# If this CIF has been generated from an entry in the Cambridge
# Structural Database, then it will include bibliographic, chemical,
# crystal, experimental, refinement or atomic coordinate data resulting
# from the CCDC's data processing and validation procedures.
#
#######################################################################

data_CSD_CIF_SOGROW
_audit_creation_date 2009-03-18
_audit_creation_method CSD-ConQuest-V1
_database_code_CSD SOGROW
_database_code_depnum_ccdc_archive 'CCDC 632007'
_chemical_formula_sum 'C23 H23 N3 O2'
_chemical_formula_moiety
;
C23 H23 N3 O2
;
_journal_coden_Cambridge 1011
_journal_volume 48
_journal_year 2007
_journal_page_first 7249
_journal_name_full 'Polymer '
loop_
_publ_author_name
"Haiyang Gao"
"Zuofeng Ke"
"Lixia Pei"
"Keming Song"
"Qing Wu"
_chemical_name_systematic
;
N-(2,6-dimethylphenyl)-2-(((2,6-dimethylphenyl)imino)methyl)-4-nitroaniline
;
_cell_volume   8216.870
_exptl_crystal_colour 'yellow'
_exptl_crystal_density_diffrn 1.207
_exptl_crystal_description 'block'
_exptl_crystal_preparation 'ethanol/tetrahydrofuran'
_diffrn_ambient_temperature 293
#These two values have been output from a single CSD field.
_refine_ls_R_factor_gt 0.089
_refine_ls_wR_factor_gt 0.089
_symmetry_cell_setting orthorhombic
_symmetry_space_group_name_H-M 'P b c a'
_symmetry_Int_Tables_number 61
loop_
_symmetry_equiv_pos_site_id
_symmetry_equiv_pos_as_xyz
1 x,y,z
2 1/2-x,-y,1/2+z
3 -x,1/2+y,1/2-z
4 1/2+x,1/2-y,-z
5 -x,-y,-z
6 -1/2+x,y,-1/2-z
7 x,-1/2-y,-1/2+z
8 -1/2-x,-1/2+y,z
_cell_length_a 16.322(6)
_cell_length_b 15.087(6)
_cell_length_c 33.368(13)
_cell_angle_alpha 90
_cell_angle_beta 90
_cell_angle_gamma 90
_cell_formula_units_Z 16
loop_
_atom_type_symbol
_atom_type_radius_bond
C 0.68
H 0.23
N 0.68
O 0.68
loop_
_atom_site_label
_atom_site_type_symbol
_atom_site_fract_x
_atom_site_fract_y
_atom_site_fract_z
C1 C 0.1561(3) 0.0233(3) 0.10141(14)
C2 C 0.1082(3) 0.0205(4) 0.13625(16)
H1 H 0.05220 0.00930 0.13470
C3 C 0.1453(4) 0.0345(4) 0.17303(16)
H2 H 0.11400 0.03190 0.19630
C4 C 0.2274(4) 0.0520(3) 0.17560(16)
C5 C 0.2755(3) 0.0524(3) 0.14181(17)
H3 H 0.33160 0.06250 0.14400
C6 C 0.2410(3) 0.0379(3) 0.10441(14)
C7 C 0.2961(3) 0.0386(3) 0.07034(16)
H4 H 0.35080 0.05200 0.07510
C8 C 0.3346(3) 0.0246(3) 0.00346(15)
C9 C 0.3770(3) -0.0522(4) -0.00673(17)
C10 C 0.4331(4) -0.0498(5) -0.0372(2)
H5 H 0.46150 -0.10110 -0.04400
C11 C 0.4480(4) 0.0266(7) -0.0578(2)
H6 H 0.48720 0.02770 -0.07800
C12 C 0.4053(4) 0.1010(6) -0.0487(2)
H7 H 0.41460 0.15220 -0.06350
C13 C 0.3478(4) 0.1028(4) -0.01754(19)
C14 C 0.3605(5) -0.1367(4) 0.0157(2)
H8 H 0.38500 -0.18560 0.00170
H9 H 0.30240 -0.14590 0.01770
H10 H 0.38350 -0.13270 0.04210
C15 C 0.3006(4) 0.1845(4) -0.0071(2)
H11 H 0.24310 0.17090 -0.00650
H12 H 0.31070 0.22940 -0.02690
H13 H 0.31760 0.20560 0.01870
C16 C 0.0338(3) 0.0021(3) 0.05903(13)
C17 C -0.0184(3) 0.0735(4) 0.06474(15)
C18 C -0.1010(4) 0.0603(5) 0.06002(17)
H14 H -0.13690 0.10700 0.06480
C19 C -0.1317(4) -0.0208(6) 0.04828(18)
H15 H -0.18780 -0.02870 0.04480
C20 C -0.0784(4) -0.0896(5) 0.04180(17)
H16 H -0.09920 -0.14410 0.03360
C21 C 0.0048(3) -0.0807(4) 0.04704(15)
C22 C 0.0633(4) -0.1564(4) 0.03999(19)
H17 H 0.03320 -0.20780 0.03160
H18 H 0.09220 -0.16940 0.06440
H19 H 0.10180 -0.14030 0.01950
C23 C 0.0144(4) 0.1641(4) 0.0759(2)
H20 H -0.02820 0.20750 0.07280
H21 H 0.05940 0.17890 0.05860
H22 H 0.03270 0.16340 0.10320
C24 C 0.3846(3) 0.8228(3) 0.28358(15)
C25 C 0.4050(4) 0.7356(3) 0.27216(17)
H23 H 0.39120 0.71470 0.24680
C26 C 0.4451(4) 0.6824(4) 0.29862(17)
H24 H 0.45620 0.62380 0.29180
C27 C 0.4696(3) 0.7150(3) 0.33586(17)
C28 C 0.4506(3) 0.7981(3) 0.34762(16)
H25 H 0.46650 0.81810 0.37280
C29 C 0.4064(3) 0.8553(3) 0.32154(14)
C30 C 0.3836(3) 0.9398(3) 0.33695(17)
H26 H 0.39760 0.95400 0.36320
C31 C 0.3189(3) 1.0772(3) 0.33568(15)
C32 C 0.2462(3) 1.0764(4) 0.35644(17)
C33 C 0.2228(4) 1.1546(5) 0.3751(2)
H27 H 0.17480 1.15580 0.39010
C34 C 0.2688(5) 1.2300(5) 0.3719(2)
H28 H 0.25220 1.28140 0.38500
C35 C 0.3382(5) 1.2300(4) 0.3498(2)
H29 H 0.36800 1.28230 0.34740
C36 C 0.3664(3) 1.1547(4) 0.33065(16)
C37 C 0.4415(4) 1.1521(4) 0.3052(2)
H30 H 0.45850 1.21150 0.29910
H31 H 0.42970 1.12110 0.28070
H32 H 0.48450 1.12190 0.31930
C38 C 0.1947(4) 0.9938(5) 0.3589(2)
H33 H 0.18920 0.96840 0.33270
H34 H 0.14150 1.00860 0.36920
H35 H 0.22060 0.95190 0.37650
C39 C 0.3240(4) 0.8533(3) 0.21735(18)
C40 C 0.2490(5) 0.8234(4) 0.2067(2)
C41 C 0.2299(6) 0.8000(5) 0.1679(3)
H36 H 0.17760 0.78070 0.16120
C42 C 0.2939(8) 0.8064(5) 0.1377(3)
H37 H 0.28450 0.78970 0.11120
C43 C 0.3676(7) 0.8374(5) 0.1496(2)
H38 H 0.40830 0.84240 0.13020
C44 C 0.3870(5) 0.8618(4) 0.1876(2)
C45 C 0.4701(5) 0.8969(5) 0.1976(3)
H39 H 0.50220 0.90110 0.17360
H40 H 0.49650 0.85750 0.21610
H41 H 0.46490 0.95460 0.20950
C46 C 0.1800(5) 0.8164(5) 0.2377(3)
H42 H 0.19570 0.77570 0.25850
H43 H 0.13100 0.79540 0.22490
H44 H 0.16990 0.87370 0.24930
N1 N 0.2657(4) 0.0683(3) 0.21422(17)
N2 N 0.1195(2) 0.0126(3) 0.06491(11)
H45 H 0.15040 0.01220 0.04400
N3 N 0.2746(2) 0.0219(3) 0.03418(13)
N4 N 0.5119(3) 0.6577(3) 0.36273(16)
N5 N 0.3444(3) 0.8762(3) 0.25639(13)
H46 H 0.33070 0.92830 0.26430
N6 N 0.3438(3) 0.9980(3) 0.31561(13)
O1 O 0.2205(4) 0.0633(4) 0.24406(15)
O2 O 0.3384(4) 0.0838(3) 0.21587(14)
O3 O 0.5169(3) 0.5788(3) 0.35452(13)
O4 O 0.5418(3) 0.6877(3) 0.39381(15)
#END
