
#######################################################################
#
#                 Cambridge Crystallographic Data Centre
#                                CCDC
#
#######################################################################
#
# If this CIF has been generated from an entry in the Cambridge
# Structural Database, then it will include bibliographic, chemical,
# crystal, experimental, refinement or atomic coordinate data resulting
# from the CCDC's data processing and validation procedures.
#
#######################################################################

data_CSD_CIF_SOHRUC
_audit_creation_date 1992-03-02
_audit_creation_method CSD-ConQuest-V1
_database_code_CSD SOHRUC
_chemical_formula_sum 'C15 H9 N3 O5'
_chemical_formula_moiety
;
C15 H9 N3 O5
;
_journal_coden_Cambridge 601
_journal_volume 11
_journal_year 1990
_journal_page_first 305
_journal_name_full 'Gaodeng Xuexiao Huaxue Xuebao(Chin.)(Chem.J.Chin.Univ.(Chinese Edition)) '
loop_
_publ_author_name
"Chen Boren"
"Feng Zengguo"
"Liu Zuocai"
"Fan Guangyu"
"Cui Xoushan"
_chemical_name_systematic
;
3-Phenyl-5,7-dinitroquinoline N-oxide
;
_cell_volume    664.060
_exptl_crystal_density_diffrn 1.55
_diffrn_ambient_temperature ?
_diffrn_special_details
;
The study was carried out at room temperature,in the range 283-303K

;
#These two values have been output from a single CSD field.
_refine_ls_R_factor_gt 0.045
_refine_ls_wR_factor_gt 0.045
_symmetry_cell_setting triclinic
_symmetry_space_group_name_H-M 'P -1'
_symmetry_Int_Tables_number 2
loop_
_symmetry_equiv_pos_site_id
_symmetry_equiv_pos_as_xyz
1 x,y,z
2 -x,-y,-z
_cell_length_a 6.637(3)
_cell_length_b 7.646(3)
_cell_length_c 13.823(8)
_cell_angle_alpha 75.81(4)
_cell_angle_beta 77.63(4)
_cell_angle_gamma 88.38(4)
_cell_formula_units_Z 2
loop_
_atom_type_symbol
_atom_type_radius_bond
C 0.68
H 0.23
N 0.68
O 0.68
loop_
_atom_site_label
_atom_site_type_symbol
_atom_site_fract_x
_atom_site_fract_y
_atom_site_fract_z
C1 C 0.2438(4) 0.3536(3) 0.4956(2)
C2 C 0.0932(3) 0.2898(3) 0.4544(2)
C3 C -0.0874(3) 0.2125(3) 0.5191(2)
C4 C -0.2983(3) 0.1243(3) 0.7023(2)
C5 C -0.3160(4) 0.1207(3) 0.8023(2)
C6 C -0.1525(4) 0.1880(3) 0.8327(2)
C7 C 0.0237(4) 0.2589(3) 0.7655(2)
C8 C 0.0370(3) 0.2643(3) 0.6631(2)
C9 C -0.1192(3) 0.1985(3) 0.6250(2)
C10 C 0.1328(3) 0.3095(3) 0.3422(2)
C11 C 0.3260(4) 0.3692(4) 0.2797(2)
C12 C 0.3261(4) 0.3854(4) 0.1758(2)
C13 C 0.2093(4) 0.3454(4) 0.1315(2)
C14 C 0.0170(4) 0.2872(4) 0.1912(2)
C15 C -0.0207(4) 0.2692(4) 0.2957(2)
N1 N 0.2183(3) 0.3427(3) 0.5950(1)
N2 N -0.4751(3) 0.0436(3) 0.6779(1)
N3 N -0.1731(4) 0.1849(4) 0.9405(2)
O1 O 0.3601(3) 0.4050(3) 0.6308(1)
O2 O -0.4644(3) 0.0219(3) 0.5930(1)
O3 O -0.6276(3) -0.0033(3) 0.7467(1)
O4 O -0.0201(4) 0.2190(4) 0.9682(2)
O5 O -0.3434(4) 0.1530(4) 0.9965(2)
H1 H 0.3737(26) 0.4164(31) 0.4547(18)
H2 H -0.1949(33) 0.1647(29) 0.4941(16)
H3 H -0.4331(35) 0.0696(30) 0.8489(17)
H4 H 0.1434(35) 0.3072(31) 0.7858(18)
H5 H 0.4283(36) 0.3986(31) 0.3057(18)
H6 H 0.4929(41) 0.4278(36) 0.1361(20)
H7 H 0.2305(41) 0.3548(37) 0.0596(22)
H8 H -0.0898(38) 0.2555(34) 0.1591(19)
H9 H -0.1558(36) 0.2260(32) 0.3330(18)
#END
