
#######################################################################
#
#                 Cambridge Crystallographic Data Centre
#                                CCDC
#
#######################################################################
#
# If this CIF has been generated from an entry in the Cambridge
# Structural Database, then it will include bibliographic, chemical,
# crystal, experimental, refinement or atomic coordinate data resulting
# from the CCDC's data processing and validation procedures.
#
#######################################################################

data_CSD_CIF_SOHROX
_audit_creation_date 2009-03-18
_audit_creation_method CSD-ConQuest-V1
_database_code_CSD SOHROX
_database_code_depnum_ccdc_archive 'CCDC 680090'
_chemical_formula_sum 'C20 H19 N1 O2'
_chemical_formula_moiety
;
C20 H19 N1 O2
;
_journal_coden_Cambridge 179
_journal_volume 47
_journal_year 2008
_journal_page_first 8285
_journal_name_full 'Angew.Chem.,Int.Ed. '
loop_
_publ_author_name
"S.Grecian"
"V.V.Fokin"
_chemical_name_systematic
;
(E)-2-(5-Phenyl-3-(styryl)isoxazol-4-yl)propan-2-ol
;
_cell_volume   1695.300
_exptl_crystal_colour 'yellow'
_exptl_crystal_density_diffrn 1.196
_exptl_crystal_description 'plate'
_exptl_crystal_preparation 'dichloromethane/hexanes'
_diffrn_ambient_temperature 208
#These two values have been output from a single CSD field.
_refine_ls_R_factor_gt 0.039
_refine_ls_wR_factor_gt 0.039
_symmetry_cell_setting triclinic
_symmetry_space_group_name_H-M 'P -1'
_symmetry_Int_Tables_number 2
loop_
_symmetry_equiv_pos_site_id
_symmetry_equiv_pos_as_xyz
1 x,y,z
2 -x,-y,-z
_cell_length_a 10.577(1)
_cell_length_b 12.3573(12)
_cell_length_c 15.0578(14)
_cell_angle_alpha 70.113(1)
_cell_angle_beta 73.043(1)
_cell_angle_gamma 69.010(1)
_cell_formula_units_Z 4
loop_
_atom_type_symbol
_atom_type_radius_bond
C 0.68
H 0.23
N 0.68
O 0.68
loop_
_atom_site_label
_atom_site_type_symbol
_atom_site_fract_x
_atom_site_fract_y
_atom_site_fract_z
O1 O 0.80761(9) 0.01923(8) 0.40456(6)
O2 O 0.58641(10) -0.21707(9) 0.07692(7)
O3 O 0.85001(9) -0.00855(8) 0.70108(6)
O4 O 0.96225(10) -0.21574(9) -0.16749(6)
N1 N 0.92097(11) -0.07521(10) 0.43515(7)
N2 N 0.60394(12) -0.29582(11) 0.02281(9)
C1 C 1.17373(14) -0.41298(12) 0.70306(10)
H1 H 1.10730 -0.36180 0.73810
C2 C 0.88104(16) -0.53512(14) -0.23745(11)
H2 H 0.92660 -0.47760 -0.25170
C3 C 1.26949(15) -0.51030(13) 0.74809(11)
H3 H 1.26700 -0.52450 0.81320
C4 C 0.93120(19) -0.62104(16) -0.28802(13)
H4 H 1.01010 -0.62100 -0.33580
C5 C 1.36958(16) -0.58713(13) 0.69649(12)
H5 H 1.43460 -0.65220 0.72680
C6 C 0.8651(2) -0.70696(17) -0.26813(15)
H6 H 0.89990 -0.76570 -0.30160
C7 C 1.37231(16) -0.56686(14) 0.60058(12)
H7 H 1.43930 -0.61830 0.56590
C8 C 0.7471(2) -0.70502(18) -0.19844(15)
H8 H 0.70150 -0.76220 -0.18520
C9 C 1.27573(16) -0.47026(13) 0.55528(11)
H9 H 1.27740 -0.45810 0.49060
C10 C 0.69614(19) -0.61877(16) -0.14815(13)
H10 H 0.61550 -0.61780 -0.10190
C11 C 1.17576(13) -0.39076(11) 0.60548(10)
C12 C 0.76318(15) -0.53318(13) -0.16537(10)
C13 C 1.07830(14) -0.28710(12) 0.55388(10)
H11 H 1.07300 -0.28870 0.49380
C14 C 0.71158(15) -0.44878(13) -0.10571(10)
H12 H 0.62310 -0.44280 -0.06880
C15 C 0.99695(12) -0.19130(11) 0.58414(9)
H13 H 1.00100 -0.18740 0.64380
C16 C 0.77772(14) -0.38018(12) -0.09887(9)
H14 H 0.86380 -0.38160 -0.13860
C17 C 0.90106(12) -0.09118(11) 0.52877(8)
C18 C 0.72624(13) -0.30204(12) -0.03375(9)
C19 C 0.77819(12) -0.00512(10) 0.56208(8)
C20 C 0.79261(13) -0.22796(11) -0.01971(8)
C21 C 0.72251(12) 0.05815(11) 0.48210(8)
C22 C 0.70115(13) -0.17817(12) 0.04979(9)
C23 C 0.59325(14) 0.15008(11) 0.45887(9)
C24 C 0.69929(13) -0.09570(13) 0.10210(9)
C25 C 0.46562(14) 0.13822(12) 0.51407(10)
H15 H 0.46140 0.07400 0.56850
C26 C 0.64236(15) 0.02675(14) 0.06976(11)
H16 H 0.60210 0.05780 0.01570
C27 C 0.34510(16) 0.22156(14) 0.48827(13)
H17 H 0.26010 0.21370 0.52570
C28 C 0.64523(16) 0.10348(16) 0.11782(12)
H18 H 0.60680 0.18590 0.09600
C29 C 0.35064(19) 0.31632(15) 0.40714(14)
H19 H 0.26940 0.37210 0.38990
C30 C 0.70496(16) 0.05742(17) 0.19774(12)
H20 H 0.70750 0.10890 0.22960
C31 C 0.4760(2) 0.32850(14) 0.35177(13)
H21 H 0.47920 0.39270 0.29720
C32 C 0.76062(18) -0.06400(17) 0.23055(11)
H22 H 0.80070 -0.09460 0.28470
C33 C 0.59790(17) 0.24560(12) 0.37673(11)
H23 H 0.68240 0.25390 0.33870
C34 C 0.75762(16) -0.14127(15) 0.18359(10)
H24 H 0.79460 -0.22370 0.20650
C35 C 0.73064(12) 0.00806(11) 0.66412(8)
C36 C 0.93698(13) -0.21575(13) -0.06874(9)
C37 C 0.63209(15) 0.13074(14) 0.67198(11)
H25 H 0.60590 0.13270 0.73820
H26 H 0.55130 0.14510 0.64790
H27 H 0.67690 0.19180 0.63480
C38 C 0.95602(18) -0.10201(18) -0.06455(13)
H28 H 1.04820 -0.09870 -0.09580
H29 H 0.94090 -0.10180 0.00140
H30 H 0.89100 -0.03340 -0.09660
C39 C 0.66902(15) -0.09251(14) 0.72928(10)
H31 H 0.73300 -0.16850 0.72230
H32 H 0.58450 -0.08250 0.71170
H33 H 0.65070 -0.09000 0.79500
C40 C 1.04367(16) -0.32701(18) -0.02454(12)
H34 H 1.13460 -0.31960 -0.05520
H35 H 1.03410 -0.39680 -0.03350
H36 H 1.02970 -0.33490 0.04300
H37 H 0.919(2) -0.1425(18) -0.2014(14)
H38 H 0.9027(18) 0.0347(16) 0.6583(13)
#END
