
#######################################################################
#
#                 Cambridge Crystallographic Data Centre
#                                CCDC
#
#######################################################################
#
# If this CIF has been generated from an entry in the Cambridge
# Structural Database, then it will include bibliographic, chemical,
# crystal, experimental, refinement or atomic coordinate data resulting
# from the CCDC's data processing and validation procedures.
#
#######################################################################

data_CSD_CIF_SOHXUJ
_audit_creation_date 2009-03-18
_audit_creation_method CSD-ConQuest-V1
_database_code_CSD SOHXUJ
_database_code_depnum_ccdc_archive 'CCDC 683753'
_chemical_formula_sum 'C19 H24 N2 O2'
_chemical_formula_moiety
;
C19 H24 N2 O2
;
_journal_coden_Cambridge 579
_journal_volume 27
_journal_year 2008
_journal_page_first 4711
_journal_name_full 'Organometallics '
loop_
_publ_author_name
"M.Brasse"
"J.Campora"
"P.Palma"
"E.Alvarez"
_chemical_name_systematic
;
4-Methoxy-2-[1-(2,6-di-isopropylphenylimino)methyl]pyridine N-oxide
;
_chemical_melting_point 381.95
_cell_volume   1680.449
_exptl_crystal_colour 'yellow'
_exptl_crystal_density_diffrn 1.235
_exptl_crystal_description 'needle'
_exptl_crystal_preparation 'hexane'
_diffrn_ambient_temperature 100
#These two values have been output from a single CSD field.
_refine_ls_R_factor_gt 0.0773
_refine_ls_wR_factor_gt 0.0773
_symmetry_cell_setting monoclinic
_symmetry_space_group_name_H-M 'P 21/n'
_symmetry_Int_Tables_number 14
loop_
_symmetry_equiv_pos_site_id
_symmetry_equiv_pos_as_xyz
1 x,y,z
2 1/2-x,1/2+y,1/2-z
3 -x,-y,-z
4 -1/2+x,-1/2-y,-1/2+z
_cell_length_a 7.7362(18)
_cell_length_b 6.0752(17)
_cell_length_c 35.758(9)
_cell_angle_alpha 90
_cell_angle_beta 90.740(14)
_cell_angle_gamma 90
_cell_formula_units_Z 4
loop_
_atom_type_symbol
_atom_type_radius_bond
C 0.68
H 0.23
N 0.68
O 0.68
loop_
_atom_site_label
_atom_site_type_symbol
_atom_site_fract_x
_atom_site_fract_y
_atom_site_fract_z
O1 O 0.5092(6) 0.0866(7) 0.44714(14)
O2 O 0.8624(6) 0.7954(7) 0.49888(13)
N1 N 0.5692(7) 0.5894(9) 0.37884(16)
N2 N 0.5950(6) 0.2559(8) 0.46039(16)
C1 C 0.5509(8) 0.4297(10) 0.40035(18)
H1 H 0.48850 0.30340 0.39220
C2 C 0.6247(7) 0.437(1) 0.43762(17)
C3 C 0.7146(7) 0.6129(10) 0.45154(17)
H2 H 0.73700 0.73530 0.43580
C4 C 0.7728(7) 0.6157(10) 0.48764(17)
C5 C 0.7377(7) 0.4365(10) 0.51009(18)
H3 H 0.77480 0.43550 0.53550
C6 C 0.6490(8) 0.260(1) 0.49554(18)
H4 H 0.62580 0.13740 0.51120
C7 C 0.9050(8) 0.8123(12) 0.53698(19)
H5 H 0.97820 0.68770 0.54440
H6 H 0.79900 0.81090 0.55170
H7 H 0.96750 0.95030 0.54150
C8 C 0.4875(7) 0.5779(10) 0.34352(18)
C9 C 0.3360(7) 0.7027(10) 0.33762(18)
C10 C 0.2572(8) 0.6972(11) 0.3039(2)
H8 H 0.15500 0.78100 0.29980
C11 C 0.3218(8) 0.5720(11) 0.2749(2)
H9 H 0.26300 0.56670 0.25140
C12 C 0.4728(8) 0.4547(11) 0.2805(2)
H10 H 0.51870 0.37140 0.26040
C13 C 0.5584(7) 0.4557(10) 0.31449(18)
C14 C 0.2612(8) 0.8358(10) 0.36954(18)
H11 H 0.35580 0.86390 0.38830
C15 C 0.1195(10) 0.6993(12) 0.3888(2)
H12 H 0.02400 0.67290 0.37110
H13 H 0.07650 0.78030 0.41050
H14 H 0.16800 0.55820 0.39710
C16 C 0.1881(9) 1.0567(11) 0.3571(2)
H15 H 0.09000 1.03260 0.34000
H16 H 0.27780 1.14080 0.34430
H17 H 0.14920 1.13890 0.37900
C17 C 0.7259(7) 0.3253(11) 0.3195(2)
H18 H 0.78120 0.37110 0.34370
C18 C 0.6872(9) 0.0786(12) 0.3217(2)
H19 H 0.79520 -0.00260 0.32590
H20 H 0.63290 0.02990 0.29820
H21 H 0.60870 0.05050 0.34250
C19 C 0.8528(9) 0.3715(13) 0.2883(2)
H22 H 0.80360 0.32090 0.26440
H23 H 0.96140 0.29330 0.29340
H24 H 0.87520 0.53000 0.28700
#END
