
#######################################################################
#
#                 Cambridge Crystallographic Data Centre
#                                CCDC
#
#######################################################################
#
# If this CIF has been generated from an entry in the Cambridge
# Structural Database, then it will include bibliographic, chemical,
# crystal, experimental, refinement or atomic coordinate data resulting
# from the CCDC's data processing and validation procedures.
#
#######################################################################

data_CSD_CIF_SOHXIX
_audit_creation_date 2009-03-18
_audit_creation_method CSD-ConQuest-V1
_database_code_CSD SOHXIX
_database_code_depnum_ccdc_archive 'CCDC 683751'
_chemical_formula_sum 'C24 H26 N2 O1'
_chemical_formula_moiety
;
C24 H26 N2 O1
;
_journal_coden_Cambridge 579
_journal_volume 27
_journal_year 2008
_journal_page_first 4711
_journal_name_full 'Organometallics '
loop_
_publ_author_name
"M.Brasse"
"J.Campora"
"P.Palma"
"E.Alvarez"
_chemical_name_systematic
;
2-[1-(2,6-Di-isopropylphenylimino)methyl]-6-phenylpyridine N-oxide
;
_chemical_melting_point 405.65
_cell_volume   2114.463
_exptl_crystal_colour 'yellow'
_exptl_crystal_density_diffrn 1.126
_exptl_crystal_description 'prism'
_exptl_crystal_preparation 'hexane'
_diffrn_ambient_temperature 100
#These two values have been output from a single CSD field.
_refine_ls_R_factor_gt 0.0434
_refine_ls_wR_factor_gt 0.0434
_symmetry_cell_setting orthorhombic
_symmetry_space_group_name_H-M 'P 21 21 21'
_symmetry_Int_Tables_number 19
loop_
_symmetry_equiv_pos_site_id
_symmetry_equiv_pos_as_xyz
1 x,y,z
2 1/2-x,-y,1/2+z
3 -x,1/2+y,1/2-z
4 1/2+x,1/2-y,-z
_cell_length_a 11.3512(5)
_cell_length_b 13.2373(6)
_cell_length_c 14.0721(6)
_cell_angle_alpha 90
_cell_angle_beta 90
_cell_angle_gamma 90
_cell_formula_units_Z 4
loop_
_atom_type_symbol
_atom_type_radius_bond
C 0.68
H 0.23
N 0.68
O 0.68
loop_
_atom_site_label
_atom_site_type_symbol
_atom_site_fract_x
_atom_site_fract_y
_atom_site_fract_z
O1 O 0.68012(11) 0.20755(10) 0.07340(12)
N1 N 0.79127(13) 0.18559(10) 0.06941(11)
N2 N 0.75283(14) -0.08159(11) 0.06333(12)
C1 C 0.82596(15) 0.08598(12) 0.06817(12)
C2 C 0.94466(16) 0.06075(13) 0.06547(13)
H1 H 0.96770 -0.00820 0.06570
C3 C 1.02896(17) 0.13526(14) 0.06240(15)
H2 H 1.11040 0.11860 0.06100
C4 C 0.99242(16) 0.23546(14) 0.06139(14)
H3 H 1.04990 0.28750 0.05870
C5 C 0.87464(16) 0.26122(12) 0.06425(13)
C6 C 0.73116(16) 0.01125(13) 0.06855(13)
H4 H 0.65170 0.03330 0.07280
C7 C 0.83356(17) 0.36740(13) 0.05709(14)
C8 C 0.8814(2) 0.42791(15) -0.01464(15)
H5 H 0.93730 0.40030 -0.05760
C9 C 0.8472(2) 0.52870(16) -0.02317(17)
H6 H 0.87980 0.56960 -0.07210
C10 C 0.7667(2) 0.56902(15) 0.03887(18)
H7 H 0.74310 0.63750 0.03250
C11 C 0.7198(2) 0.51013(15) 0.11062(18)
H8 H 0.66510 0.53880 0.15400
C12 C 0.75225(18) 0.40902(15) 0.11991(16)
H9 H 0.71900 0.36870 0.16890
C13 C 0.65613(15) -0.15023(12) 0.06324(13)
C14 C 0.60850(17) -0.18187(13) -0.02410(12)
C15 C 0.51673(18) -0.25180(15) -0.02178(14)
H10 H 0.48250 -0.27390 -0.07980
C16 C 0.47465(17) -0.28957(14) 0.06281(17)
H11 H 0.41190 -0.33700 0.06270
C17 C 0.52398(18) -0.25832(15) 0.14836(15)
H12 H 0.49450 -0.28490 0.20640
C18 C 0.61588(17) -0.18865(14) 0.15035(12)
C19 C 0.6555(2) -0.14172(17) -0.11756(13)
H13 H 0.73150 -0.10650 -0.10360
C20 C 0.5727(2) -0.0639(2) -0.16160(16)
H14 H 0.49660 -0.09570 -0.17530
H15 H 0.60710 -0.03820 -0.22070
H16 H 0.56120 -0.00780 -0.11700
C21 C 0.6829(3) -0.2272(2) -0.18778(16)
H17 H 0.73100 -0.27870 -0.15620
H18 H 0.72620 -0.19990 -0.24230
H19 H 0.60910 -0.25770 -0.20970
C22 C 0.6706(2) -0.15398(17) 0.24337(13)
H20 H 0.74890 -0.12380 0.22760
C23 C 0.6927(4) -0.2394(3) 0.3115(2)
H21 H 0.61730 -0.26880 0.33130
H22 H 0.73470 -0.21390 0.36750
H23 H 0.74050 -0.29130 0.28030
C24 C 0.5978(3) -0.0717(2) 0.28982(19)
H24 H 0.52100 -0.09930 0.30850
H25 H 0.58620 -0.01620 0.24480
H26 H 0.63900 -0.04660 0.34630
#END
