
#######################################################################
#
#                 Cambridge Crystallographic Data Centre
#                                CCDC
#
#######################################################################
#
# If this CIF has been generated from an entry in the Cambridge
# Structural Database, then it will include bibliographic, chemical,
# crystal, experimental, refinement or atomic coordinate data resulting
# from the CCDC's data processing and validation procedures.
#
#######################################################################

data_CSD_CIF_SOJBEY
_audit_creation_date 1992-03-02
_audit_creation_method CSD-ConQuest-V1
_database_code_CSD SOJBEY
_chemical_formula_sum 'C10 H14 N4 O6'
_chemical_formula_moiety
;
C10 H14 N4 O6
;
_journal_coeditor_code "IUCr HH0473"
_journal_coden_Cambridge 591
_journal_volume 47
_journal_year 1991
_journal_page_first 1914
_journal_name_full 'Acta Crystallogr.,Sect.C:Cryst.Struct.Commun. '
loop_
_publ_author_name
"R.Gilardi"
"C.George"
"J.L.Flippen-Anderson"
"W.W.Zajac Junior"
"T.R.Walters"
"J.M.Woods"
_chemical_name_systematic
;
1-Amino-3,5,7-trinitroadamantane
;
_cell_volume   2455.491
_exptl_crystal_colour 'colorless'
_exptl_crystal_density_diffrn 1.55
_diffrn_ambient_temperature ?
_diffrn_special_details
;
The study was carried out at room temperature,in the range 283-303K

;
_refine_special_details
;
One nitro group is disordered over two orientations with occupancies of 
0.60:0.40 and 0.54:0.46 for the two molecules.
;
#These two values have been output from a single CSD field.
_refine_ls_R_factor_gt 0.058
_refine_ls_wR_factor_gt 0.058
_symmetry_cell_setting monoclinic
_symmetry_space_group_name_H-M 'P 21/n'
_symmetry_Int_Tables_number 14
loop_
_symmetry_equiv_pos_site_id
_symmetry_equiv_pos_as_xyz
1 x,y,z
2 1/2-x,1/2+y,1/2-z
3 -x,-y,-z
4 -1/2+x,-1/2-y,-1/2+z
_cell_length_a 14.089
_cell_length_b 13.806(3)
_cell_length_c 14.414(3)
_cell_angle_alpha 90
_cell_angle_beta 118.86(2)
_cell_angle_gamma 90
_cell_formula_units_Z 8
loop_
_atom_type_symbol
_atom_type_radius_bond
C 0.68
H 0.23
N 0.68
O 0.68
loop_
_atom_site_label
_atom_site_type_symbol
_atom_site_fract_x
_atom_site_fract_y
_atom_site_fract_z
C1 C 0.6560(3) 0.3420(2) 0.1554(3)
N1 N 0.6450(3) 0.4473(2) 0.1383(3)
C2 C 0.5697(3) 0.2854(2) 0.0609(3)
C3 C 0.5876(3) 0.1770(3) 0.0845(3)
N2 N 0.4995(3) 0.1247(2) -0.0122(3)
O1 O 0.4128(3) 0.1151(3) -0.0205(3)
O2 O 0.5196(3) 0.0977(3) -0.0793(3)
C4 C 0.6976(3) 0.1468(3) 0.0997(3)
C5 C 0.7820(3) 0.2037(3) 0.1947(3)
N3 N 0.8946(3) 0.1755(3) 0.2135(3)
O3 O 0.9714(8) 0.2116(12) 0.2878(10)
O4 O 0.9030(7) 0.1092(18) 0.1634(11)
O5? O 0.9115(9) 0.1880(21) 0.1378(9)
O6? O 0.963(2) 0.1534(31) 0.2997(18)
C6 C 0.7747(3) 0.1792(3) 0.2941(3)
C7 C 0.6630(3) 0.2090(2) 0.2740(3)
N4 N 0.6506(3) 0.1855(3) 0.3708(3)
O7 O 0.5621(3) 0.1967(2) 0.3639(3)
O8 O 0.7288(3) 0.1576(3) 0.4490(3)
C8 C 0.6465(3) 0.3180(2) 0.2537(3)
C9 C 0.7678(3) 0.3118(3) 0.1735(3)
C10 C 0.5755(3) 0.1525(3) 0.1806(3)
C11 C 0.8006(3) 0.1575(3) 0.8201(3)
N5 N 0.8439(3) 0.2542(3) 0.8626(3)
C12 C 0.8449(3) 0.1269(3) 0.7459(3)
C13 C 0.7967(3) 0.0290(3) 0.6985(3)
N6 N 0.8395(3) -0.0044(3) 0.6242(3)
O9 O 0.7987(3) -0.0771(3) 0.5716(3)
O10 O 0.9111(3) 0.0400(3) 0.6214(3)
C14 C 0.8297(3) -0.0485(3) 0.7836(3)
C15 C 0.7851(3) -0.0170(3) 0.8570(3)
N7 N 0.8178(4) -0.0919(4) 0.9446(3)
O11 O 0.884(1) -0.1509(8) 0.9540(1)
O12 O 0.7878(15) -0.0791(10) 1.0049(11)
O13? O 0.8916(9) -0.0825(9) 1.0269(9)
O14? O 0.7565(9) -0.1632(7) 0.9253(8)
C16 C 0.6621(3) -0.0112(3) 0.7955(3)
C17 C 0.6323(3) 0.0651(3) 0.7098(3)
N8 N 0.5094(3) 0.0750(3) 0.6456(3)
O15 O 0.4530(3) 0.0281(3) 0.6691(3)
O16 O 0.4732(3) 0.1305(3) 0.5732(3)
C18 C 0.6776(3) 0.1638(3) 0.7581(3)
C19 C 0.8333(3) 0.0804(3) 0.9073(3)
C20 C 0.6736(3) 0.0355(3) 0.6336(3)
H1 H 0.6465(31) 0.4594(29) 0.0816(29)
H2 H 0.5821(31) 0.4646(28) 0.1327(30)
H3 H 0.57550 0.30010 -0.00120
H4 H 0.49900 0.30330 0.04940
H5 H 0.70810 0.07850 0.11340
H6 H 0.70330 0.16200 0.03750
H7 H 0.82920 0.21410 0.35370
H8 H 0.78480 0.11090 0.30790
H9 H 0.70090 0.35270 0.31360
H10 H 0.57600 0.33620 0.24270
H11 H 0.82260 0.34620 0.23330
H12 H 0.77420 0.32660 0.11170
H13 H 0.50190 0.17120 0.16900
H14 H 0.58530 0.08420 0.19460
H15 H 0.9191(31) 0.2515(27) 0.9015(29)
H16 H 0.8202(29) 0.2718(27) 0.9152(29)
H17 H 0.92240 0.12220 0.78510
H18 H 0.82460 0.17390 0.69040
H19 H 0.79940 -0.10990 0.75190
H20 H 0.90720 -0.05360 0.82290
H21 H 0.63420 0.00700 0.84210
H22 H 0.63250 -0.07290 0.76400
H23 H 0.65000 0.18230 0.80470
H24 H 0.65650 0.21110 0.70280
H25 H 0.80660 0.09870 0.95470
H26 H 0.91090 0.07530 0.94600
H27 H 0.65330 0.08320 0.57880
H28 H 0.64400 -0.02620 0.60240
#END
