
#######################################################################
#
#                 Cambridge Crystallographic Data Centre
#                                CCDC
#
#######################################################################
#
# If this CIF has been generated from an entry in the Cambridge
# Structural Database, then it will include bibliographic, chemical,
# crystal, experimental, refinement or atomic coordinate data resulting
# from the CCDC's data processing and validation procedures.
#
#######################################################################

data_CSD_CIF_SOJHEE
_audit_creation_date 1992-03-02
_audit_creation_method CSD-ConQuest-V1
_database_code_CSD SOJHEE
_chemical_formula_sum 'C11 H23 N1 O5'
_chemical_formula_moiety
;
C11 H23 N1 O5
;
_journal_coden_Cambridge 156
_journal_volume 212
_journal_year 1991
_journal_page_first 65
_journal_name_full 'Carbohydr.Res. '
loop_
_publ_author_name
"J.M.J.Tronchet"
"N.Bizzozero"
"M.Zsely"
"F.Barbalat-Rey"
"N.Dolatshahi"
"G.Bernardinelli"
"M.Geoffroy"
_chemical_name_systematic
;
Ethyl 2,3-dideoxy-2-(N-hydroxy-N-isopropylamino)-\a-D-arabino-hexopyranoside
;
_chemical_melting_point 389.15
_cell_volume   1397.416
_exptl_crystal_density_diffrn 1.19
_exptl_special_details
;
Melting point range 389.15-390.15K

;
_diffrn_ambient_temperature ?
_diffrn_special_details
;
The study was carried out at room temperature,in the range 283-303K

;
#These two values have been output from a single CSD field.
_refine_ls_R_factor_gt 0.041
_refine_ls_wR_factor_gt 0.041
_symmetry_cell_setting orthorhombic
_symmetry_space_group_name_H-M 'P 21 21 21'
_symmetry_Int_Tables_number 19
loop_
_symmetry_equiv_pos_site_id
_symmetry_equiv_pos_as_xyz
1 x,y,z
2 1/2+x,1/2-y,-z
3 -x,1/2+y,1/2-z
4 1/2-x,-y,1/2+z
_cell_length_a 8.1254(5)
_cell_length_b 11.2219(8)
_cell_length_c 15.3255(7)
_cell_angle_alpha 90
_cell_angle_beta 90
_cell_angle_gamma 90
_cell_formula_units_Z 4
loop_
_atom_type_symbol
_atom_type_radius_bond
C 0.68
H 0.23
N 0.68
O 0.68
loop_
_atom_site_label
_atom_site_type_symbol
_atom_site_fract_x
_atom_site_fract_y
_atom_site_fract_z
O1 O 0.3365(5) 0.4149(4) -0.0084(3)
O2 O 0.3016(7) 0.5843(4) -0.0966(3)
O3 O 0.4279(6) 0.2977(5) -0.2327(3)
O4 O -0.1123(6) 0.3608(4) 0.0072(3)
O5 O 0.1995(6) 0.2505(5) 0.1310(3)
N1 N 0.2914(7) 0.2785(5) -0.1716(3)
C1 C 0.3435(9) 0.4626(6) -0.0948(4)
C2 C 0.2249(8) 0.4004(6) -0.1568(4)
C3 C 0.0547(8) 0.4012(6) -0.1157(4)
C4 C 0.0556(8) 0.3507(6) -0.0245(4)
C5 C 0.1756(8) 0.4217(6) 0.0312(4)
C6 C 0.414(1) 0.6607(7) -0.0540(5)
C7 C 0.364(1) 0.7850(7) -0.0664(6)
C8 C 0.1966(9) 0.3763(7) 0.1235(4)
C9 C 0.1743(9) 0.1964(6) -0.2182(4)
C10 C 0.253(1) 0.0742(6) -0.2250(5)
C11 C 0.118(1) 0.2428(7) -0.3060(4)
H1 H 0.510(7) 0.279(6) -0.205(4)
H2 H -0.128(8) 0.331(5) 0.056(3)
H3 H 0.264(7) 0.213(5) 0.089(3)
H4 H 0.47200 0.45070 -0.11460
H5 H 0.21590 0.44190 -0.22040
H6 H 0.01040 0.49200 -0.11290
H7 H -0.02850 0.34750 -0.15600
H8 H 0.09270 0.25650 -0.02260
H9 H 0.12830 0.51120 0.03590
H10 H 0.41500 0.64000 0.01520
H11 H 0.53600 0.64790 -0.08140
H12 H 0.36450 0.80510 -0.13490
H13 H 0.24350 0.79720 -0.03820
H14 H 0.45250 0.84300 -0.03250
H15 H 0.31100 0.40900 0.15050
H16 H 0.09320 0.40550 0.16260
H17 H 0.06350 0.19500 -0.17840
H18 H 0.16470 0.01290 -0.25210
H19 H 0.36010 0.08080 -0.26890
H20 H 0.29510 0.04320 -0.16170
H21 H 0.22440 0.24820 -0.34970
H22 H 0.02900 0.18030 -0.33280
H23 H 0.06220 0.33040 -0.30050
#END
