
#######################################################################
#
#                 Cambridge Crystallographic Data Centre
#                                CCDC
#
#######################################################################
#
# If this CIF has been generated from an entry in the Cambridge
# Structural Database, then it will include bibliographic, chemical,
# crystal, experimental, refinement or atomic coordinate data resulting
# from the CCDC's data processing and validation procedures.
#
#######################################################################

data_CSD_CIF_SOJQEP
_audit_creation_date 2014-06-03
_audit_creation_method CSD-ConQuest-V1
_database_code_CSD SOJQEP
_database_code_depnum_ccdc_archive 'CCDC 1004533'
_chemical_formula_sum 'C11 H11 N1 O5'
_chemical_formula_moiety
;
C11 H11 N1 O5
;
_journal_coeditor_code "IUCr bx2458"
_journal_coden_Cambridge 1370
_journal_volume 70
_journal_year 2014
_journal_page_first o750
_journal_name_full 'Acta Crystallogr.,Sect.E:Struct.Rep.Online '
loop_
_publ_author_name
"T.N.Hill"
"N.Patel"
_chemical_name_systematic
;
ethyl 3-hydroxy-3-(4-nitrophenyl)acrylate
;
_cell_volume   1084.661
_exptl_crystal_colour 'yellow'
_exptl_crystal_density_diffrn 1.453
_exptl_crystal_description 'cuboid'
_diffrn_ambient_temperature 173
#These two values have been output from a single CSD field.
_refine_ls_R_factor_gt 0.0465
_refine_ls_wR_factor_gt 0.0465
_symmetry_cell_setting monoclinic
_symmetry_space_group_name_H-M 'P 21/c'
_symmetry_Int_Tables_number 14
loop_
_symmetry_equiv_pos_site_id
_symmetry_equiv_pos_as_xyz
1 x,y,z
2 -x,1/2+y,1/2-z
3 -x,-y,-z
4 x,-1/2-y,-1/2+z
_cell_length_a 13.0495(9)
_cell_length_b 10.8363(6)
_cell_length_c 7.6723(5)
_cell_angle_alpha 90
_cell_angle_beta 91.268(4)
_cell_angle_gamma 90
_cell_formula_units_Z 4
loop_
_atom_type_symbol
_atom_type_radius_bond
C 0.68
H 0.23
N 0.68
O 0.68
loop_
_atom_site_label
_atom_site_type_symbol
_atom_site_fract_x
_atom_site_fract_y
_atom_site_fract_z
C1 C 0.10142(14) 0.26271(15) 1.0840(2)
C2 C 0.11032(14) 0.38942(15) 1.0826(2)
H1 H 0.05790 0.44020 1.12800
C3 C 0.19712(15) 0.44047(15) 1.0135(2)
H2 H 0.20410 0.52770 1.01010
C4 C 0.27481(13) 0.36667(13) 0.9487(2)
C5 C 0.26256(14) 0.23883(14) 0.9526(2)
H3 H 0.31480 0.18720 0.90850
C6 C 0.17583(14) 0.18653(14) 1.0193(2)
H4 H 0.16750 0.09940 1.02070
C7 C 0.36660(14) 0.42403(13) 0.87532(19)
C8 C 0.44132(14) 0.36221(13) 0.7946(2)
H5 H 0.43780 0.27480 0.78610
C9 C 0.52669(14) 0.42678(14) 0.7207(2)
C10 C 0.68104(14) 0.41084(14) 0.5666(2)
H6 H 0.72350 0.45310 0.65690
H7 H 0.65750 0.47290 0.47990
C11 C 0.74223(15) 0.31324(14) 0.4798(2)
H8 H 0.76820 0.25460 0.56750
H9 H 0.80000 0.35130 0.42060
H10 H 0.69870 0.26960 0.39420
N1 N 0.01035(12) 0.20690(15) 1.16117(19)
O1 O 0.36768(10) 0.54740(9) 0.89365(15)
H11 H 0.42100 0.57610 0.84950
O2 O 0.53793(9) 0.54001(9) 0.72351(14)
O3 O 0.59352(9) 0.35202(9) 0.64570(14)
O4 O -0.05048(11) 0.27473(14) 1.2318(2)
O5 O 0.00065(11) 0.09522(13) 1.15338(18)
#END
