
#######################################################################
#
#                 Cambridge Crystallographic Data Centre
#                                CCDC
#
#######################################################################
#
# If this CIF has been generated from an entry in the Cambridge
# Structural Database, then it will include bibliographic, chemical,
# crystal, experimental, refinement or atomic coordinate data resulting
# from the CCDC's data processing and validation procedures.
#
#######################################################################

data_CSD_CIF_SOLAOX
_audit_creation_date 1978-11-29
_audit_creation_method CSD-ConQuest-V1
_database_code_CSD SOLAOX
_database_code_depnum_ccdc_archive 'CCDC 1261703'
_chemical_formula_sum 'C15 H23 N1 O1'
_chemical_formula_moiety
;
C15 H23 N1 O1
;
_journal_coden_Cambridge 182
_journal_year 1978
_journal_page_first 563
_journal_name_full 'Chem.Commun. '
loop_
_publ_author_name
"T.Fujimori"
"R.Kasuga"
"H.Kaneko"
"S.Sakamura"
"M.Noguchi"
"A.Furusaki"
"N.Hashiba"
"T.Matsumoto"
_chemical_name_systematic
;
Solanascone oxime
;
_cell_volume   2693.525
_exptl_crystal_density_diffrn 1.151
_diffrn_ambient_temperature ?
_diffrn_special_details
;
The study was carried out at room temperature,in the range 283-303K

;
_refine_special_details
;
Structure is a 1:1 mixture of E and Z isomers. Hydroxy oxygen O(E) only has 
been retained.
;
#These two values have been output from a single CSD field.
_refine_ls_R_factor_gt 0.074
_refine_ls_wR_factor_gt 0.074
_symmetry_cell_setting tetragonal
_symmetry_space_group_name_H-M 'P 41 21 2'
_symmetry_Int_Tables_number 92
loop_
_symmetry_equiv_pos_site_id
_symmetry_equiv_pos_as_xyz
1 x,y,z
2 1/2-y,1/2+x,1/4+z
3 -x,-y,1/2+z
4 1/2+y,1/2-x,3/4+z
5 y,x,-z
6 1/2+x,1/2-y,3/4-z
7 -y,-x,1/2-z
8 1/2-x,1/2+y,1/4-z
_cell_length_a 7.496(3)
_cell_length_b 7.496(3)
_cell_length_c 47.936(10)
_cell_angle_alpha 90
_cell_angle_beta 90
_cell_angle_gamma 90
_cell_formula_units_Z 8
loop_
_atom_type_symbol
_atom_type_radius_bond
C 0.68
N 0.68
O 0.65
loop_
_atom_site_label
_atom_site_type_symbol
_atom_site_fract_x
_atom_site_fract_y
_atom_site_fract_z
C1 C 0.42900 0.22080 0.17190
C2 C 0.28050 0.33760 0.18457
C3 C 0.27510 0.31540 0.21672
C4 C 0.33960 0.13540 0.22567
C5 C 0.53210 0.09850 0.21910
C6 C 0.59370 0.18650 0.19141
C7 C 0.66600 0.00180 0.18123
C8 C 0.55150 -0.03780 0.15527
C9 C 0.59430 0.10300 0.13260
C10 C 0.50190 0.27270 0.14271
C11 C 0.36920 0.02850 0.16465
C12 C 0.59610 -0.08640 0.20856
C13 C 0.28700 0.53260 0.17694
C14 C 0.72320 0.34230 0.19463
C15 C 0.86820 -0.02440 0.17680
N1 N 0.23710 0.02570 0.23789
O1 O 0.05370 0.09190 0.24142
#END
