
#######################################################################
#
#                 Cambridge Crystallographic Data Centre
#                                CCDC
#
#######################################################################
#
# If this CIF has been generated from an entry in the Cambridge
# Structural Database, then it will include bibliographic, chemical,
# crystal, experimental, refinement or atomic coordinate data resulting
# from the CCDC's data processing and validation procedures.
#
#######################################################################

data_CSD_CIF_SOLFEF
_audit_creation_date 2009-03-18
_audit_creation_method CSD-ConQuest-V1
_database_code_CSD SOLFEF
_database_code_depnum_ccdc_archive 'CCDC 702223'
_chemical_formula_sum 'C29 H44 N2 O6'
_chemical_formula_moiety
;
C29 H44 N2 O6
;
_journal_coden_Cambridge 1078
_journal_year 2008
_journal_name_full 'CSD Communication(Private Communication) '
loop_
_publ_author_name
"J.R.Hanson"
"S.Zerbo"
"P.B.Hitchcock"
_chemical_name_systematic
;
3-Acetoxy-N-nitrospirostan-23-en-23-amine
;
_cell_volume   2869.448
_exptl_crystal_colour 'colorless'
_exptl_crystal_density_diffrn 1.196
_exptl_special_details
;
contribution from Chemistry Department, Sussex University, Brighton

;
_exptl_crystal_description 'plate'
_diffrn_ambient_temperature 173
#These two values have been output from a single CSD field.
_refine_ls_R_factor_gt 0.0426
_refine_ls_wR_factor_gt 0.0426
_symmetry_cell_setting orthorhombic
_symmetry_space_group_name_H-M 'P 21 21 21'
_symmetry_Int_Tables_number 19
loop_
_symmetry_equiv_pos_site_id
_symmetry_equiv_pos_as_xyz
1 x,y,z
2 1/2-x,-y,1/2+z
3 1/2+x,1/2-y,-z
4 -x,1/2+y,1/2-z
_cell_length_a 9.9351(2)
_cell_length_b 11.4046(4)
_cell_length_c 25.3248(9)
_cell_angle_alpha 90
_cell_angle_beta 90
_cell_angle_gamma 90
_cell_formula_units_Z 4
loop_
_atom_type_symbol
_atom_type_radius_bond
C 0.68
H 0.23
N 0.68
O 0.68
loop_
_atom_site_label
_atom_site_type_symbol
_atom_site_fract_x
_atom_site_fract_y
_atom_site_fract_z
O1 O 0.36946(13) 0.24289(12) 0.08631(5)
O2 O 0.50092(15) 0.41198(12) 0.08021(6)
O3 O -0.27877(15) 0.29409(13) 0.40991(6)
O4 O -0.42264(17) 0.44073(16) 0.39694(8)
O5 O 0.83683(16) 0.14387(17) 0.09072(7)
O6 O 0.7460(2) -0.01997(19) 0.11541(10)
N1 N 0.62199(18) 0.10571(17) 0.07204(8)
H1 H 0.551(3) 0.055(3) 0.0813(11)
N2 N 0.74191(19) 0.07676(18) 0.09419(8)
C1 C 0.0046(2) 0.2096(2) 0.39350(8)
H2 H -0.05120 0.16190 0.41770
H3 H 0.09860 0.20650 0.40650
C2 C -0.0437(2) 0.3359(2) 0.39598(10)
H4 H -0.04380 0.36230 0.43320
H5 H 0.01970 0.38630 0.37610
C3 C -0.1830(2) 0.3504(2) 0.37336(9)
H6 H -0.20460 0.43580 0.37040
C4 C -0.1981(2) 0.2929(2) 0.31975(9)
H7 H -0.14850 0.34000 0.29330
H8 H -0.29450 0.29380 0.30970
C5 C -0.1469(2) 0.16624(19) 0.31749(9)
H9 H -0.20560 0.11870 0.34140
C6 C -0.1621(2) 0.1157(2) 0.26190(9)
H10 H -0.25550 0.12830 0.24960
H11 H -0.14570 0.03010 0.26310
C7 C -0.0642(2) 0.1720(2) 0.22262(9)
H12 H -0.07190 0.13150 0.18820
H13 H -0.08960 0.25510 0.21730
C8 C 0.0819(2) 0.16578(19) 0.24159(8)
H14 H 0.11150 0.08200 0.24150
C9 C 0.09704(19) 0.21520(18) 0.29825(8)
H15 H 0.06830 0.29910 0.29650
C10 C -0.0005(2) 0.15415(17) 0.33820(8)
C11 C 0.2460(2) 0.2164(2) 0.31586(8)
H16 H 0.25260 0.25470 0.35080
H17 H 0.27770 0.13450 0.31980
C12 C 0.3381(2) 0.28084(19) 0.27672(8)
H18 H 0.31480 0.36520 0.27650
H19 H 0.43270 0.27330 0.28850
C13 C 0.32483(19) 0.23176(17) 0.22053(8)
C14 C 0.17444(19) 0.23562(17) 0.20563(8)
H20 H 0.14670 0.31930 0.21000
C15 C 0.1743(2) 0.2134(2) 0.14581(8)
H21 H 0.19290 0.13020 0.13750
H22 H 0.08780 0.23680 0.12950
C16 C 0.28855(19) 0.29246(19) 0.12815(8)
H23 H 0.25180 0.37010 0.11680
C17 C 0.38529(19) 0.30958(17) 0.17599(8)
H24 H 0.38210 0.39350 0.18740
C18 C 0.0353(2) 0.0242(2) 0.34497(9)
H25 H -0.02700 -0.01200 0.37020
H26 H 0.12760 0.01720 0.35820
H27 H 0.02800 -0.01580 0.31080
C19 C 0.3813(2) 0.10613(18) 0.21883(9)
H28 H 0.47630 0.10710 0.22920
H29 H 0.37300 0.07490 0.18290
H30 H 0.33040 0.05640 0.24330
C20 C 0.52596(18) 0.28300(19) 0.15300(8)
H31 H 0.54900 0.19980 0.16160
C21 C 0.6387(2) 0.3603(2) 0.17291(9)
H32 H 0.72290 0.33850 0.15530
H33 H 0.64860 0.35000 0.21110
H34 H 0.61770 0.44250 0.16520
C22 C 0.49976(19) 0.29154(17) 0.09307(8)
C23 C 0.5956(2) 0.22423(19) 0.05746(8)
C24 C 0.6513(2) 0.2709(2) 0.01493(9)
H35 H 0.70950 0.22410 -0.00610
C25 C 0.6254(3) 0.3943(2) -0.00089(9)
H36 H 0.61350 0.39660 -0.04010
C26 C 0.4953(2) 0.4334(2) 0.02447(9)
H37 H 0.48110 0.51810 0.01790
H38 H 0.41880 0.38980 0.00880
C27 C 0.7447(3) 0.4727(3) 0.01355(12)
H39 H 0.75950 0.46990 0.05180
H40 H 0.72540 0.55360 0.00290
H41 H 0.82550 0.44500 -0.00480
C28 C -0.3960(2) 0.3482(2) 0.41655(9)
C29 C -0.4888(3) 0.2802(3) 0.45155(11)
H42 H -0.51140 0.32730 0.48270
H43 H -0.44450 0.20750 0.46280
H44 H -0.57130 0.26110 0.43210
H45? H -0.50670 0.20330 0.43570
H46? H -0.57360 0.32310 0.45560
H47? H -0.44690 0.26950 0.48620
#END
