
#######################################################################
#
#                 Cambridge Crystallographic Data Centre
#                                CCDC
#
#######################################################################
#
# If this CIF has been generated from an entry in the Cambridge
# Structural Database, then it will include bibliographic, chemical,
# crystal, experimental, refinement or atomic coordinate data resulting
# from the CCDC's data processing and validation procedures.
#
#######################################################################

data_CSD_CIF_SOMJAG
_audit_creation_date 2009-07-29
_audit_creation_method CSD-ConQuest-V1
_database_code_CSD SOMJAG
_database_code_depnum_ccdc_archive 'CCDC 715622'
_database_code_depnum_ccdc_journal 1267/2414
_chemical_formula_sum 'C15 H18 N10 O6'
_chemical_formula_moiety
;
C15 H18 N10 O6
;
_journal_coden_Cambridge 1267
_journal_volume 223
_journal_year 2008
_journal_page_first 505
_journal_name_full 'Z.Kristallogr.-New Cryst.Struct. '
loop_
_publ_author_name
"R.J.Abdel-Jalil"
"W.Volter"
"C.Maichle-Mossmer"
"D.Loffler"
"H.-J.Machulla"
_chemical_name_systematic
;
N,N,N-tris(2-(2-Nitro-1H-imidazol-1-yl)ethyl)amine
;
_cell_volume    944.955
_exptl_crystal_colour 'orange'
_exptl_crystal_density_diffrn 1.527
_exptl_crystal_description 'block'
_exptl_crystal_preparation 'ethyl acetate'
_diffrn_ambient_temperature 173
#These two values have been output from a single CSD field.
_refine_ls_R_factor_gt 0.0305
_refine_ls_wR_factor_gt 0.0305
_symmetry_cell_setting monoclinic
_symmetry_space_group_name_H-M 'P 21'
_symmetry_Int_Tables_number 4
loop_
_symmetry_equiv_pos_site_id
_symmetry_equiv_pos_as_xyz
1 x,y,z
2 -x,1/2+y,-z
_cell_length_a 7.6597(8)
_cell_length_b 12.4224(13)
_cell_length_c 10.0841(11)
_cell_angle_alpha 90
_cell_angle_beta 99.996(9)
_cell_angle_gamma 90
_cell_formula_units_Z 2
loop_
_atom_type_symbol
_atom_type_radius_bond
C 0.68
H 0.23
N 0.68
O 0.68
loop_
_atom_site_label
_atom_site_type_symbol
_atom_site_fract_x
_atom_site_fract_y
_atom_site_fract_z
C1 C 0.8887(2) 0.50964(13) 0.70605(16)
C2 C 0.9767(2) 0.41083(13) 0.77858(14)
C3 C 1.03440(19) 0.27901(12) 0.59287(14)
C4 C 0.8418(2) 0.16086(13) 0.60795(17)
C5 C 0.8264(2) 0.23751(14) 0.70251(15)
C6 C 0.6308(2) 0.51660(12) 0.52305(15)
C7 C 0.6395(2) 0.41636(12) 0.43864(14)
C8 C 0.6584(2) 0.47320(12) 0.19380(14)
C9 C 0.3857(2) 0.48452(14) 0.11353(16)
C10 C 0.3978(2) 0.44855(13) 0.24240(16)
C11 C 0.5901(2) 0.53568(12) 0.75859(15)
C12 C 0.5649(2) 0.65835(13) 0.75017(16)
C13 C 0.46267(19) 0.72688(12) 0.96760(14)
C14 C 0.1860(2) 0.72489(14) 0.90393(16)
C15 C 0.2595(2) 0.69227(13) 0.79627(16)
N1 N 0.69861(16) 0.49454(10) 0.66418(11)
N2 N 0.95063(16) 0.31431(10) 0.69359(12)
N3 N 0.97329(18) 0.18735(11) 0.53897(12)
N4 N 0.57371(17) 0.44069(10) 0.29506(11)
N5 N 0.5505(2) 0.49918(12) 0.08316(13)
N6 N 0.43938(16) 0.69454(10) 0.83685(12)
N7 N 0.31507(18) 0.74659(12) 1.01131(13)
N8 N 1.17537(18) 0.33488(11) 0.54729(14)
N9 N 0.84803(19) 0.47347(11) 0.20191(14)
N10 N 0.63324(18) 0.74062(12) 1.05270(14)
O1 O 1.21191(15) 0.42664(10) 0.58851(12)
O2 O 1.25233(19) 0.28813(12) 0.46701(15)
O3 O 0.94219(17) 0.44440(12) 0.30713(14)
O4 O 0.9057(2) 0.50092(15) 0.10129(15)
O5 O 0.76672(16) 0.73349(13) 1.00257(14)
O6 O 0.6331(2) 0.76011(16) 1.17120(13)
H1 H 0.915(2) 0.5702(16) 0.7659(19)
H2 H 0.943(3) 0.5254(16) 0.629(2)
H3 H 1.107(2) 0.4226(15) 0.8085(18)
H4 H 0.917(2) 0.3965(16) 0.8541(19)
H5 H 0.779(3) 0.0946(18) 0.5919(19)
H6 H 0.748(3) 0.2406(18) 0.7602(19)
H7 H 0.684(3) 0.5743(17) 0.4862(18)
H8 H 0.505(3) 0.5339(18) 0.512(2)
H9 H 0.754(3) 0.3895(18) 0.450(2)
H10 H 0.562(3) 0.3618(18) 0.468(2)
H11 H 0.279(3) 0.4931(17) 0.0473(19)
H12 H 0.313(3) 0.4290(16) 0.2964(19)
H13 H 0.472(2) 0.5009(16) 0.7405(17)
H14 H 0.647(2) 0.5144(15) 0.8512(19)
H15 H 0.677(3) 0.6962(17) 0.780(2)
H16 H 0.503(3) 0.6792(17) 0.661(2)
H17 H 0.065(3) 0.7341(19) 0.909(2)
H18 H 0.201(3) 0.6722(18) 0.701(2)
#END
