
#######################################################################
#
#                 Cambridge Crystallographic Data Centre
#                                CCDC
#
#######################################################################
#
# If this CIF has been generated from an entry in the Cambridge
# Structural Database, then it will include bibliographic, chemical,
# crystal, experimental, refinement or atomic coordinate data resulting
# from the CCDC's data processing and validation procedures.
#
#######################################################################

data_CSD_CIF_SOMKOU01
_audit_creation_date 1992-05-18
_audit_creation_method CSD-ConQuest-V1
_database_code_CSD SOMKOU01
_database_code_depnum_ccdc_archive 'CCDC 1261859'
_chemical_formula_sum 'C12 H13 N1 O3'
_chemical_formula_moiety
;
C12 H13 N1 O3
;
_journal_coden_Cambridge 15
_journal_volume 69
_journal_year 1991
_journal_page_first 673
_journal_name_full 'Can.J.Chem. '
loop_
_publ_author_name
"W.Kliegel"
"M.Tajerbashi"
"S.J.Rettig"
"J.Trotter"
_chemical_name_systematic
;
2,3-Dihydro-3-hydroxy-2,2-tetramethylene-1,3(4H)-benzoxazin-4-one
;
_cell_volume   2078.461
_exptl_crystal_density_diffrn 1.4
_exptl_special_details
;
monoclinic polymorph

;
_diffrn_ambient_temperature ?
_diffrn_special_details
;
The study was carried out at room temperature,in the range 283-303K

;
#These two values have been output from a single CSD field.
_refine_ls_R_factor_gt 0.046
_refine_ls_wR_factor_gt 0.046
_symmetry_cell_setting monoclinic
_symmetry_space_group_name_H-M 'C 2/c'
_symmetry_Int_Tables_number 15
loop_
_symmetry_equiv_pos_site_id
_symmetry_equiv_pos_as_xyz
1 x,y,z
2 1/2+x,1/2+y,z
3 -x,y,1/2-z
4 1/2-x,1/2+y,1/2-z
5 -x,-y,-z
6 -1/2-x,-1/2-y,-z
7 x,-y,-1/2+z
8 -1/2+x,-1/2-y,-1/2+z
_cell_length_a 17.41(2)
_cell_length_b 10.665(6)
_cell_length_c 12.427(8)
_cell_angle_alpha 90
_cell_angle_beta 115.74(5)
_cell_angle_gamma 90
_cell_formula_units_Z 8
loop_
_atom_type_symbol
_atom_type_radius_bond
C 0.68
H 0.23
N 0.68
O 0.68
loop_
_atom_site_label
_atom_site_type_symbol
_atom_site_fract_x
_atom_site_fract_y
_atom_site_fract_z
O1 O 0.9970(1) 0.1226(2) 0.0884(1)
O2 O 0.9598(1) 0.3230(2) -0.1617(1)
O3 O 1.1127(1) 0.2296(2) -0.1159(1)
N1 N 0.9973(1) 0.2288(2) -0.0758(1)
C1 C 0.9670(1) 0.2339(2) 0.0183(2)
C2 C 1.0797(1) 0.2045(2) -0.0484(2)
C3 C 1.1260(1) 0.1378(2) 0.0658(2)
C4 C 1.2119(2) 0.1108(2) 0.1089(2)
C5 C 1.2521(2) 0.0421(3) 0.2128(2)
C6 C 1.2065(2) 0.0011(3) 0.2735(2)
C7 C 1.1221(2) 0.0287(2) 0.2339(2)
C8 C 1.0822(1) 0.0993(2) 0.1303(2)
C9 C 0.8703(1) 0.2311(3) -0.0316(2)
C10 C 0.8508(2) 0.3173(2) 0.0506(2)
C11 C 0.9155(2) 0.4210(3) 0.0796(3)
C12 C 0.9964(1) 0.3539(2) 0.0954(2)
H1 H 0.940(2) 0.278(3) -0.230(3)
H2 H 1.240(2) 0.141(2) 0.065(2)
H3 H 1.309(2) 0.020(3) 0.239(3)
H4 H 1.236(2) -0.048(3) 0.344(3)
H5 H 1.092(2) -0.001(3) 0.274(3)
H6 H 0.852(2) 0.144(3) -0.032(2)
H7 H 0.846(2) 0.267(2) -0.114(3)
H8 H 0.859(2) 0.270(2) 0.130(2)
H9 H 0.792(2) 0.354(2) 0.011(2)
H10 H 0.899(2) 0.477(2) 0.009(2)
H11 H 0.925(2) 0.474(2) 0.150(3)
H12 H 1.030(2) 0.402(3) 0.073(3)
H13 H 1.027(2) 0.326(3) 0.179(3)
#END
