
#######################################################################
#
#                 Cambridge Crystallographic Data Centre
#                                CCDC
#
#######################################################################
#
# If this CIF has been generated from an entry in the Cambridge
# Structural Database, then it will include bibliographic, chemical,
# crystal, experimental, refinement or atomic coordinate data resulting
# from the CCDC's data processing and validation procedures.
#
#######################################################################

data_CSD_CIF_SOMLOW
_audit_creation_date 2009-07-29
_audit_creation_method CSD-ConQuest-V1
_database_code_CSD SOMLOW
_database_code_depnum_ccdc_archive 'CCDC 652246'
_chemical_formula_sum 'C12 H15 N1 O3'
_chemical_formula_moiety
;
C12 H15 N1 O3
;
_journal_coden_Cambridge 1267
_journal_volume 223
_journal_year 2008
_journal_page_first 531
_journal_name_full 'Z.Kristallogr.-New Cryst.Struct. '
loop_
_publ_author_name
"Yi Qiong Ji"
"Qiu Tian"
"Yang Liu"
_chemical_name_systematic
;
(1,3-Benzodioxol-5-ylmethylene)(hydroxy)(2-methyl-2-propanyl)-\l^5^-azane
;
_chemical_melting_point 361.15
_cell_volume   1156.316
_exptl_crystal_colour 'colorless'
_exptl_crystal_density_diffrn 1.271
_exptl_special_details
;
Melting point range 361.15-362.15K

;
_exptl_crystal_description 'thin platelet'
_diffrn_ambient_temperature 293
#These two values have been output from a single CSD field.
_refine_ls_R_factor_gt 0.0522
_refine_ls_wR_factor_gt 0.0522
_symmetry_cell_setting monoclinic
_symmetry_space_group_name_H-M 'P 21/c'
_symmetry_Int_Tables_number 14
loop_
_symmetry_equiv_pos_site_id
_symmetry_equiv_pos_as_xyz
1 x,y,z
2 -x,1/2+y,1/2-z
3 -x,-y,-z
4 x,-1/2-y,-1/2+z
_cell_length_a 5.5236(11)
_cell_length_b 20.113(4)
_cell_length_c 10.440(2)
_cell_angle_alpha 90
_cell_angle_beta 94.47(3)
_cell_angle_gamma 90
_cell_formula_units_Z 4
loop_
_atom_type_symbol
_atom_type_radius_bond
C 0.68
H 0.23
N 0.68
O 0.68
loop_
_atom_site_label
_atom_site_type_symbol
_atom_site_fract_x
_atom_site_fract_y
_atom_site_fract_z
O1 O -0.5598(3) 0.07459(7) 0.40220(14)
O2 O -0.5904(3) 0.00108(7) 0.23252(16)
O3 O 0.0018(2) 0.26713(7) 0.38247(12)
N1 N 0.0957(2) 0.26174(7) 0.27298(14)
C1 C -0.7001(4) 0.02175(10) 0.3441(2)
H1 H -0.70620 -0.01510 0.40380
H2 H -0.86480 0.03670 0.32130
C2 C -0.4244(3) 0.04993(8) 0.21012(19)
C3 C -0.2870(4) 0.05669(10) 0.1081(2)
H3 H -0.29540 0.02610 0.04100
C4 C -0.1343(4) 0.11128(10) 0.10908(19)
H4 H -0.04040 0.11770 0.04000
C5 C -0.1157(3) 0.15721(8) 0.21011(16)
C6 C -0.2550(3) 0.14814(8) 0.31537(17)
H5 H -0.24450 0.17720 0.38490
C7 C -0.4071(3) 0.09440(8) 0.31075(18)
C8 C 0.0477(3) 0.21283(8) 0.19359(18)
H6 H 0.12630 0.21340 0.11800
C9 C 0.2563(3) 0.31998(8) 0.23937(18)
C10 C 0.4207(3) 0.33616(10) 0.3589(2)
H7 H 0.32330 0.34710 0.42820
H8 H 0.52250 0.37330 0.34170
H9 H 0.52030 0.29830 0.38240
C11 C 0.0844(3) 0.37755(10) 0.2044(2)
H10 H -0.01740 0.36640 0.12880
H11 H 0.17710 0.41660 0.18830
H12 H -0.01480 0.38590 0.27420
C12 C 0.4077(4) 0.30349(10) 0.1288(2)
H13 H 0.30250 0.29340 0.05380
H14 H 0.50870 0.26570 0.15110
H15 H 0.50800 0.34090 0.11140
#END
