
#######################################################################
#
#                 Cambridge Crystallographic Data Centre
#                                CCDC
#
#######################################################################
#
# If this CIF has been generated from an entry in the Cambridge
# Structural Database, then it will include bibliographic, chemical,
# crystal, experimental, refinement or atomic coordinate data resulting
# from the CCDC's data processing and validation procedures.
#
#######################################################################

data_CSD_CIF_SOMNIT
_audit_creation_date 2014-10-31
_audit_creation_method CSD-ConQuest-V1
_database_code_CSD SOMNIT
_database_code_depnum_ccdc_archive 'CCDC 1031015'
_chemical_formula_sum 'C15 H14 N4 O1'
_chemical_formula_moiety
;
C15 H14 N4 O1
;
_journal_coeditor_code "IUCr hb7307"
_journal_coden_Cambridge 1370
_journal_volume 70
_journal_year 2014
_journal_page_first o1216
_journal_name_full 'Acta Crystallogr.,Sect.E:Struct.Rep.Online '
loop_
_publ_author_name
"J.T.Mague"
"S.K.Mohamed"
"M.Akkurt"
"T.I.El-Emary"
"M.R.Albayati"
_chemical_name_systematic
;
N-hydroxy-1-(3-methyl-1-phenyl-5-(1H-pyrrol-1-yl)-1H-pyrazol-4-yl)methanimine
;
_chemical_melting_point 463
_cell_volume   1382.882
_exptl_crystal_colour 'colorless'
_exptl_crystal_density_diffrn 1.279
_exptl_special_details
;
Melting point range 463-465K

;
_exptl_crystal_description 'plate'
_exptl_crystal_preparation 'dioxane'
_diffrn_ambient_temperature 150
#These two values have been output from a single CSD field.
_refine_ls_R_factor_gt 0.0423
_refine_ls_wR_factor_gt 0.0423
_symmetry_cell_setting triclinic
_symmetry_space_group_name_H-M 'P -1'
_symmetry_Int_Tables_number 2
loop_
_symmetry_equiv_pos_site_id
_symmetry_equiv_pos_as_xyz
1 x,y,z
2 -x,-y,-z
_cell_length_a 9.1497(2)
_cell_length_b 12.3932(3)
_cell_length_c 12.7294(3)
_cell_angle_alpha 87.4070(11)
_cell_angle_beta 82.6740(12)
_cell_angle_gamma 75.0190(12)
_cell_formula_units_Z 4
loop_
_atom_type_symbol
_atom_type_radius_bond
C 0.68
H 0.23
N 0.68
O 0.68
loop_
_atom_site_label
_atom_site_type_symbol
_atom_site_fract_x
_atom_site_fract_y
_atom_site_fract_z
O1 O 0.01620(14) -0.14968(11) 1.23494(9)
H1 H 0.05120 -0.20830 1.26910
N1 N 0.32895(16) 0.00206(11) 0.85512(11)
N2 N 0.33432(17) -0.10531(12) 0.83004(11)
N3 N 0.23015(16) 0.13164(11) 0.99916(11)
N4 N 0.11882(17) -0.16601(13) 1.14130(11)
C1 C 0.40366(18) 0.06699(13) 0.78205(13)
C2 C 0.39036(19) 0.06265(14) 0.67514(13)
H2 H 0.32870 0.01980 0.65160
C3 C 0.4681(2) 0.12150(15) 0.60299(14)
H3 H 0.46100 0.11810 0.52950
C4 C 0.5558(2) 0.18502(15) 0.63761(15)
H4 H 0.60890 0.22510 0.58780
C5 C 0.5667(2) 0.19049(15) 0.74439(15)
H5 H 0.62560 0.23560 0.76780
C6 C 0.49199(19) 0.13047(14) 0.81776(14)
H6 H 0.50110 0.13280 0.89110
C7 C 0.25257(19) 0.02755(14) 0.95310(13)
C8 C 0.20937(19) -0.06590(14) 0.99446(13)
C9 C 0.2641(2) -0.14714(14) 0.91388(13)
C10 C 0.2486(3) -0.26404(15) 0.91273(16)
H7 H 0.29170 -0.29690 0.84340
H8 H 0.14060 -0.26360 0.92600
H9 H 0.30340 -0.30840 0.96800
C11 C 0.2741(3) 0.14651(16) 1.09638(15)
H10 H 0.31520 0.08890 1.14430
C12 C 0.2485(3) 0.25693(18) 1.11112(17)
H11 H 0.26810 0.29110 1.17130
C13 C 0.1869(3) 0.31322(15) 1.02105(16)
H12 H 0.15800 0.39180 1.01010
C14 C 0.1765(2) 0.23523(14) 0.95337(14)
H13 H 0.13920 0.24920 0.88650
C15 C 0.1185(2) -0.07129(14) 1.09604(13)
H14 H 0.05870 -0.00440 1.12910
N5 N 0.86241(16) 0.34350(11) 0.53889(10)
O2 O 0.49919(16) 0.78935(10) 0.64738(10)
H15 H 0.45320 0.81720 0.70520
N6 N 0.84165(17) 0.33808(12) 0.64741(11)
N7 N 0.79776(16) 0.47398(11) 0.39594(11)
N8 N 0.56651(17) 0.67789(12) 0.67161(12)
C16 C 0.94172(19) 0.24537(13) 0.47988(13)
C17 C 1.0867(2) 0.18970(15) 0.50007(14)
H16 H 1.13490 0.21690 0.55130
C18 C 1.1611(2) 0.09363(17) 0.44459(15)
H17 H 1.26110 0.05460 0.45780
C19 C 1.0912(2) 0.05402(16) 0.37017(15)
H18 H 1.14280 -0.01230 0.33270
C20 C 0.9459(2) 0.11116(16) 0.35027(14)
H19 H 0.89810 0.08430 0.29870
C21 C 0.8700(2) 0.20730(15) 0.40525(13)
H20 H 0.77020 0.24660 0.39190
C22 C 0.78947(19) 0.44542(14) 0.50370(13)
C23 C 0.7165(2) 0.50922(14) 0.59080(13)
C24 C 0.7529(2) 0.43701(14) 0.67857(13)
C25 C 0.7069(2) 0.45931(16) 0.79421(14)
H21 H 0.75020 0.39240 0.83520
H22 H 0.59550 0.47840 0.80890
H23 H 0.74470 0.52160 0.81420
C26 C 0.6762(2) 0.52578(16) 0.34263(14)
H24 H 0.57210 0.54470 0.37180
C27 C 0.7302(2) 0.54509(17) 0.24161(15)
H25 H 0.67120 0.58000 0.18740
C28 C 0.8895(2) 0.5042(2) 0.23135(16)
H26 H 0.95760 0.50670 0.16890
C29 C 0.9289(2) 0.46064(19) 0.32625(16)
H27 H 1.02940 0.42680 0.34200
C30 C 0.6353(2) 0.62612(14) 0.58742(14)
H28 H 0.63300 0.66510 0.52140
#END
