
#######################################################################
#
#                 Cambridge Crystallographic Data Centre
#                                CCDC
#
#######################################################################
#
# If this CIF has been generated from an entry in the Cambridge
# Structural Database, then it will include bibliographic, chemical,
# crystal, experimental, refinement or atomic coordinate data resulting
# from the CCDC's data processing and validation procedures.
#
#######################################################################

data_CSD_CIF_SOMXOJ
_audit_creation_date 2014-10-31
_audit_creation_method CSD-ConQuest-V1
_database_code_CSD SOMXOJ
_database_code_depnum_ccdc_archive 'CCDC 1015131'
_chemical_formula_sum 'C26 H15 N3 O2'
_chemical_formula_moiety
;
C26 H15 N3 O2
;
_journal_coden_Cambridge 1291
_journal_year 2014
_journal_page_first 7859
_journal_name_full 'Eur.J.Org.Chem. '
loop_
_publ_author_name
"K.Fjelbye"
"T.N.Christensen"
"M.Jevric"
"S.L.Broman"
"A.U.Petersen"
"A.Kadziola"
"M.B.Nielsen"
_chemical_name_systematic
;
2-(4-((4-nitrophenyl)ethynyl)phenyl)azulene-1,1(8aH)-dicarbonitrile
;
_cell_volume   1981.888
_exptl_crystal_density_diffrn 1.345
_diffrn_ambient_temperature 122
#These two values have been output from a single CSD field.
_refine_ls_R_factor_gt 0.059
_refine_ls_wR_factor_gt 0.059
_symmetry_cell_setting triclinic
_symmetry_space_group_name_H-M 'P -1'
_symmetry_Int_Tables_number 2
loop_
_symmetry_equiv_pos_site_id
_symmetry_equiv_pos_as_xyz
1 x,y,z
2 -x,-y,-z
_cell_length_a 9.1277(5)
_cell_length_b 14.7069(8)
_cell_length_c 16.2724(9)
_cell_angle_alpha 69.294(2)
_cell_angle_beta 87.359(2)
_cell_angle_gamma 76.125(2)
_cell_formula_units_Z 4
loop_
_atom_type_symbol
_atom_type_radius_bond
C 0.68
H 0.23
N 0.68
O 0.68
loop_
_atom_site_label
_atom_site_type_symbol
_atom_site_fract_x
_atom_site_fract_y
_atom_site_fract_z
O1 O 0.6005(2) 0.71273(15) 0.35227(13)
O2 O 0.4481(2) 0.76437(15) 0.44078(14)
C1 C -0.3474(3) -0.0797(2) 0.59446(17)
C2 C -0.2648(3) -0.00975(19) 0.53974(17)
H1 H -0.26200 0.00810 0.47770
C3 C -0.1927(3) 0.02746(19) 0.58531(17)
C4 C -0.0977(3) 0.09929(19) 0.55356(17)
N1 N 0.4923(3) 0.70781(17) 0.39988(15)
C5 C -0.5871(3) -0.1791(2) 0.69774(19)
H2 H -0.63770 -0.22760 0.73370
C6 C -0.5077(3) -0.1997(2) 0.63226(19)
H3 H -0.50990 -0.26060 0.62480
C7 C -0.4195(3) -0.1380(2) 0.57241(19)
H4 H -0.41180 -0.13840 0.51410
C8 C -0.0034(3) 0.1140(2) 0.61026(18)
H5 H 0.00340 0.07440 0.67110
C9 C 0.0805(3) 0.1852(2) 0.57951(18)
H6 H 0.14550 0.19310 0.61910
C10 C 0.0704(3) 0.2453(2) 0.49124(18)
C11 C 0.1444(3) 0.3267(2) 0.46245(18)
C12 C 0.2007(3) 0.3968(2) 0.44427(19)
C13 C 0.2701(3) 0.4786(2) 0.42920(18)
C14 C 0.3761(3) 0.4982(2) 0.36514(19)
H7 H 0.39970 0.45910 0.32850
C15 C 0.4472(3) 0.5744(2) 0.35464(19)
H8 H 0.51970 0.58810 0.31100
C16 C 0.4116(3) 0.6301(2) 0.40815(18)
C17 C 0.2342(3) 0.5379(2) 0.48083(19)
H9 H 0.16000 0.52580 0.52360
C18 C 0.3044(3) 0.6137(2) 0.47095(19)
H10 H 0.27980 0.65390 0.50650
C19 C -0.3385(3) -0.0819(2) 0.68725(17)
H11 H -0.30250 -0.15260 0.72820
C20 C -0.2160(3) -0.0222(2) 0.68434(17)
C21 C -0.0724(3) -0.0943(2) 0.72523(17)
N2 N 0.0392(3) -0.15125(18) 0.75148(16)
C22 C -0.2595(3) 0.0501(2) 0.73076(18)
N3 N -0.2960(3) 0.1066(2) 0.76514(17)
C23 C -0.4952(3) -0.0384(2) 0.70968(18)
H12 H -0.51820 0.02430 0.71770
C24 C -0.6022(3) -0.0897(2) 0.71822(19)
H13 H -0.69610 -0.06470 0.73960
C25 C -0.1009(3) 0.1564(2) 0.46432(17)
H14 H -0.16150 0.14600 0.42410
C26 C -0.0179(3) 0.2274(2) 0.43345(18)
H15 H -0.02060 0.26470 0.37220
O3 O 0.1088(3) -0.07924(19) -0.02649(18)
O4 O 0.0879(3) 0.0049(2) -0.16502(17)
C27 C 0.7836(3) 0.4610(2) 0.04968(18)
N4 N 0.1377(3) -0.0139(2) -0.09125(19)
C28 C 0.2341(3) 0.0481(2) -0.07989(19)
C29 C 0.2716(3) 0.0390(2) 0.00370(19)
H16 H 0.23930 -0.00810 0.05350
C30 C 0.3573(3) 0.1001(2) 0.01368(19)
H17 H 0.38460 0.09520 0.07100
C31 C 0.4045(3) 0.1694(2) -0.05975(19)
C32 C 0.4877(3) 0.2355(2) -0.0490(2)
C33 C 0.5537(3) 0.2921(2) -0.0388(2)
C34 C 0.6348(3) 0.3509(2) -0.01375(19)
C35 C 0.7171(3) 0.3060(2) 0.06617(19)
H18 H 0.72280 0.23760 0.09980
C36 C 0.7901(3) 0.3600(2) 0.09668(19)
H19 H 0.84650 0.32800 0.15110
C37 C 0.8561(3) 0.5179(2) 0.08594(18)
C38 C 0.9241(3) 0.4711(2) 0.18136(18)
C39 C 0.9869(4) 0.5539(2) 0.1971(2)
H20 H 1.09870 0.52920 0.20870
C40 C 0.9205(4) 0.5885(2) 0.2683(2)
H21 H 0.84170 0.56140 0.30030
C41 C 0.9683(4) 0.6567(3) 0.2888(2)
H22 H 0.92990 0.66890 0.34020
C42 C 1.0727(3) 0.7138(3) 0.2406(2)
H23 H 1.13550 0.73250 0.27370
C43 C 0.6314(3) 0.4506(2) -0.06293(19)
H24 H 0.57860 0.48150 -0.11860
C44 C 0.7039(3) 0.5049(2) -0.03185(18)
H25 H 0.69970 0.57300 -0.06610
C45 C 0.8791(3) 0.6102(2) 0.04951(19)
H26 H 0.84790 0.65250 -0.00930
C46 C 0.9554(3) 0.6390(2) 0.10806(18)
C47 C 0.8040(4) 0.4389(2) 0.2428(2)
N5 N 0.7106(3) 0.4155(2) 0.28817(17)
C48 C 1.0547(4) 0.3843(2) 0.19286(19)
N6 N 1.1584(3) 0.3213(2) 0.19652(19)
C49 C 1.0897(3) 0.7429(2) 0.1535(2)
H27 H 1.16100 0.78230 0.13110
C50 C 1.0112(3) 0.7210(2) 0.0896(2)
H28 H 0.99840 0.76740 0.03090
C51 C 0.3672(3) 0.1743(2) -0.14361(19)
H29 H 0.40180 0.21950 -0.19390
C52 C 0.2806(3) 0.1141(2) -0.15386(19)
H30 H 0.25330 0.11800 -0.21080
#END
