
#######################################################################
#
#                 Cambridge Crystallographic Data Centre
#                                CCDC
#
#######################################################################
#
# If this CIF has been generated from an entry in the Cambridge
# Structural Database, then it will include bibliographic, chemical,
# crystal, experimental, refinement or atomic coordinate data resulting
# from the CCDC's data processing and validation procedures.
#
#######################################################################

data_CSD_CIF_SONDEE
_audit_creation_date 1992-05-27
_audit_creation_method CSD-ConQuest-V1
_database_code_CSD SONDEE
_database_code_depnum_ccdc_archive 'CCDC 1261941'
_chemical_formula_sum 'C6 H8 N4 O4'
_chemical_formula_moiety
;
C6 H8 N4 O4
;
_journal_coeditor_code "IUCr GE0265"
_journal_coden_Cambridge 591
_journal_volume 47
_journal_year 1991
_journal_page_first 2618
_journal_name_full 'Acta Crystallogr.,Sect.C:Cryst.Struct.Commun. '
loop_
_publ_author_name
"H.L.De Bondt"
"N.M.Blaton"
"O.M.Peeters"
"C.J.De Ranter"
_chemical_name_systematic
;
(1-Methyl-5-nitro-2-imidazolyl)methyl carbamate
;
_chemical_name_common
;
Ronidazole
;
_cell_volume    842.922
_exptl_crystal_colour 'colorless'
_exptl_crystal_density_diffrn 1.577
_exptl_special_details
;
antimicrobial activity

;
_diffrn_ambient_temperature ?
_diffrn_special_details
;
The study was carried out at room temperature,in the range 283-303K

;
#These two values have been output from a single CSD field.
_refine_ls_R_factor_gt 0.041
_refine_ls_wR_factor_gt 0.041
_symmetry_cell_setting monoclinic
_symmetry_space_group_name_H-M 'P 21/a'
_symmetry_Int_Tables_number 14
loop_
_symmetry_equiv_pos_site_id
_symmetry_equiv_pos_as_xyz
1 x,y,z
2 1/2-x,1/2+y,-z
3 -x,-y,-z
4 -1/2+x,-1/2-y,z
_cell_length_a 10.336(5)
_cell_length_b 7.964(4)
_cell_length_c 10.549(5)
_cell_angle_alpha 90
_cell_angle_beta 103.90(2)
_cell_angle_gamma 90
_cell_formula_units_Z 4
loop_
_atom_type_symbol
_atom_type_radius_bond
C 0.68
H 0.23
N 0.68
O 0.68
loop_
_atom_site_label
_atom_site_type_symbol
_atom_site_fract_x
_atom_site_fract_y
_atom_site_fract_z
N1 N 0.9427(1) 0.1249(2) 0.3141(1)
C1 C 1.0243(1) 0.0999(2) 0.2332(1)
N2 N 1.0680(1) 0.2412(2) 0.1933(1)
C2 C 1.0108(2) 0.3654(2) 0.2487(2)
C3 C 0.9343(2) 0.2980(2) 0.3226(2)
C4 C 0.8671(2) -0.0064(3) 0.3620(2)
C5 C 1.0583(2) -0.0717(2) 0.1945(2)
O1 O 1.1440(1) -0.0468(1) 0.1084(1)
C6 C 1.1932(2) -0.1896(2) 0.0669(2)
O2 O 1.1645(1) -0.3277(2) 0.0997(1)
N3 N 1.2731(1) -0.1537(2) -0.0096(1)
N4 N 0.8657(1) 0.3829(2) 0.4051(1)
O3 O 0.8575(2) 0.5367(2) 0.3938(1)
O4 O 0.8210(2) 0.3034(2) 0.4840(2)
H1 H 0.848(3) 0.032(4) 0.434(3)
H2 H 0.795(3) -0.032(4) 0.295(3)
H3 H 0.916(3) -0.111(4) 0.377(3)
H4 H 1.103(2) -0.135(2) 0.270(2)
H5 H 0.984(2) -0.130(2) 0.152(2)
H6 H 1.307(2) -0.230(2) -0.047(2)
H7 H 1.287(2) -0.049(3) -0.027(2)
H8 H 1.030(2) 0.477(3) 0.228(2)
#END
