
#######################################################################
#
#                 Cambridge Crystallographic Data Centre
#                                CCDC
#
#######################################################################
#
# If this CIF has been generated from an entry in the Cambridge
# Structural Database, then it will include bibliographic, chemical,
# crystal, experimental, refinement or atomic coordinate data resulting
# from the CCDC's data processing and validation procedures.
#
#######################################################################

data_CSD_CIF_SONDEE01
_audit_creation_date 2015-12-03
_audit_creation_method CSD-ConQuest-V1
_database_code_CSD SONDEE01
_database_code_depnum_ccdc_archive 'CCDC 1411942'
_chemical_formula_sum 'C6 H8 N4 O4'
_chemical_formula_moiety
;
C6 H8 N4 O4
;
_journal_coden_Cambridge 580
_journal_volume 104
_journal_year 2016
_journal_page_first 127
_journal_name_full 'Polyhedron '
loop_
_publ_author_name
"P.Garcia-Holley"
"N.Ortiz-Pastrana"
"R.A.Toscano"
"M.Flores-Alamo"
"N.Barba-Behrens"
_chemical_name_systematic
;
(1-methyl-5-nitro-1H-imidazol-2-yl)methyl carbamate
;
_chemical_name_common
;
ronidazole
;
_cell_volume    818.406
_exptl_crystal_colour 'colorless'
_exptl_crystal_density_diffrn 1.625
_exptl_crystal_description 'plates'
_diffrn_ambient_temperature 298
#These two values have been output from a single CSD field.
_refine_ls_R_factor_gt 0.0401
_refine_ls_wR_factor_gt 0.0401
_symmetry_cell_setting monoclinic
_symmetry_space_group_name_H-M 'P 21/c'
_symmetry_Int_Tables_number 14
loop_
_symmetry_equiv_pos_site_id
_symmetry_equiv_pos_as_xyz
1 x,y,z
2 -x,1/2+y,1/2-z
3 -x,-y,-z
4 x,-1/2-y,-1/2+z
_cell_length_a 10.5367(7)
_cell_length_b 7.9270(5)
_cell_length_c 10.1616(6)
_cell_angle_alpha 90
_cell_angle_beta 105.365(1)
_cell_angle_gamma 90
_cell_formula_units_Z 4
loop_
_atom_type_symbol
_atom_type_radius_bond
C 0.68
H 0.23
N 0.68
O 0.68
loop_
_atom_site_label
_atom_site_type_symbol
_atom_site_fract_x
_atom_site_fract_y
_atom_site_fract_z
N1 N 0.81688(11) 0.12242(15) 0.44523(11)
C1 C 0.73567(13) 0.09760(19) 0.52656(13)
N2 N 0.69597(13) 0.24083(16) 0.57065(13)
C2 C 0.75164(14) 0.3654(2) 0.51303(15)
H1 H 0.74100 0.48040 0.52460
C3 C 0.82533(14) 0.29577(19) 0.43572(14)
C4 C 0.69501(14) -0.07453(19) 0.55924(15)
H2 H 0.65000 -0.13370 0.47650
H3 H 0.77110 -0.14010 0.60680
O1 O 0.60827(10) -0.04803(13) 0.6447(1)
C5 C 0.56475(13) -0.19224(18) 0.69122(15)
O2 O 0.59572(10) -0.33177(14) 0.65999(11)
N3 N 0.48813(13) -0.15630(17) 0.77228(14)
H4 H 0.4486(16) -0.2329(17) 0.8048(18)
H5 H 0.4723(17) -0.0543(13) 0.7902(18)
N4 N 0.90795(12) 0.38187(17) 0.36729(12)
O3 O 0.98828(13) 0.30092(16) 0.32433(14)
O4 O 0.89542(11) 0.53637(15) 0.35753(11)
C6 C 0.86243(14) -0.0116(2) 0.36873(15)
H6 H 0.79460 -0.03690 0.28740
H7 H 0.88250 -0.11100 0.42440
H8 H 0.94000 0.02550 0.34450
#END
