
#######################################################################
#
#                 Cambridge Crystallographic Data Centre
#                                CCDC
#
#######################################################################
#
# If this CIF has been generated from an entry in the Cambridge
# Structural Database, then it will include bibliographic, chemical,
# crystal, experimental, refinement or atomic coordinate data resulting
# from the CCDC's data processing and validation procedures.
#
#######################################################################

data_CSD_CIF_SONDOO
_audit_creation_date 1992-05-28
_audit_creation_method CSD-ConQuest-V1
_database_code_CSD SONDOO
_chemical_formula_sum 'C14 H19 N3 O7'
_chemical_formula_moiety
;
C14 H19 N3 O7
;
_journal_coeditor_code "IUCr HA0047"
_journal_coden_Cambridge 591
_journal_volume 47
_journal_year 1991
_journal_page_first 2635
_journal_name_full 'Acta Crystallogr.,Sect.C:Cryst.Struct.Commun. '
loop_
_publ_author_name
"L.Van Meervelt"
_chemical_name_systematic
;
3',5'-Diacetyl-N^4^-methoxycytosine
;
_cell_volume   1677.959
_exptl_crystal_colour 'colorless'
_exptl_crystal_density_diffrn 1.35
_diffrn_ambient_temperature ?
_diffrn_special_details
;
The study was carried out at room temperature,in the range 283-303K

;
#These two values have been output from a single CSD field.
_refine_ls_R_factor_gt 0.075
_refine_ls_wR_factor_gt 0.075
_symmetry_cell_setting orthorhombic
_symmetry_space_group_name_H-M 'P 21 21 21'
_symmetry_Int_Tables_number 19
loop_
_symmetry_equiv_pos_site_id
_symmetry_equiv_pos_as_xyz
1 x,y,z
2 1/2+x,1/2-y,-z
3 -x,1/2+y,1/2-z
4 1/2-x,-y,1/2+z
_cell_length_a 11.219(8)
_cell_length_b 12.136(7)
_cell_length_c 12.324(7)
_cell_angle_alpha 90
_cell_angle_beta 90
_cell_angle_gamma 90
_cell_formula_units_Z 4
loop_
_atom_type_symbol
_atom_type_radius_bond
C 0.68
H 0.23
N 0.68
O 0.68
loop_
_atom_site_label
_atom_site_type_symbol
_atom_site_fract_x
_atom_site_fract_y
_atom_site_fract_z
N1 N 0.8988(4) 0.8173(4) -0.0503(4)
C1 C 0.9584(5) 0.7662(5) -0.1319(5)
N2 N 0.8890(4) 0.7373(4) -0.2207(4)
C2 C 0.7669(5) 0.7565(5) -0.2315(5)
C3 C 0.7104(5) 0.8030(5) -0.1385(4)
C4 C 0.7741(5) 0.8293(5) -0.0528(4)
O1 O 1.0649(3) 0.7474(3) -0.1312(3)
N3 N 0.7088(4) 0.7398(4) -0.3226(4)
O2 O 0.7885(3) 0.6998(4) -0.4030(3)
C5 C 0.9655(5) 0.8612(5) 0.0413(5)
C6 C 0.9551(5) 0.9837(5) 0.0563(4)
C7 C 0.9659(5) 0.9980(5) 0.1800(4)
C8 C 0.9196(5) 0.8894(5) 0.2242(4)
O3 O 0.9183(3) 0.8119(3) 0.1363(3)
O4 O 1.0916(3) 1.0137(3) 0.2043(3)
C9 C 1.1144(5) 1.0380(5) 0.3110(6)
C10 C 1.2434(5) 1.0615(5) 0.3286(4)
C11 C 0.7957(4) 0.8968(5) 0.2752(4)
O5 O 0.7239(3) 0.9572(3) 0.1950(3)
C12 C 0.6071(5) 0.9712(6) 0.2215(6)
O6 O 0.5680(3) 0.9420(4) 0.3086(4)
C13 C 0.5414(5) 1.0279(5) 0.1321(5)
O7 O 1.0385(3) 1.0394(4) 0.3787(3)
C14 C 0.7237(6) 0.6913(8) -0.5012(4)
H1 H 0.9321(4) 0.6949(4) -0.2857(4)
H2 H 0.6179(5) 0.8156(5) -0.1402(4)
H3 H 0.7284(5) 0.8597(5) 0.0160(4)
H4 H 0.8741(5) 1.0135(5) 0.0281(4)
H5 H 1.0242(5) 1.0263(5) 0.0164(4)
H6 H 0.7595(4) 0.8189(5) 0.2589(4)
H7 H 0.7980(4) 0.9302(5) 0.3506(4)
H8 H 1.0563(5) 0.8389(5) 0.0311(5)
H9 H 0.9119(5) 1.0634(5) 0.2087(4)
H10 H 0.9776(5) 0.8625(5) 0.2861(4)
H11 H 0.6526(6) 0.6346(8) -0.4909(4)
H12 H 0.6889(6) 0.7658(8) -0.5253(4)
H13 H 0.7794(6) 0.6599(8) -0.5623(4)
H14 H 0.5773(5) 1.1048(5) 0.1214(5)
H15 H 0.5456(5) 0.9817(5) 0.0624(5)
H16 H 0.4500(5) 1.0372(5) 0.1539(5)
H17 H 1.2966(5) 0.9944(5) 0.3036(4)
H18 H 1.2678(5) 1.1299(5) 0.2809(4)
H19 H 1.2642(5) 1.0791(5) 0.4089(4)
#END
