
#######################################################################
#
#                 Cambridge Crystallographic Data Centre
#                                CCDC
#
#######################################################################
#
# If this CIF has been generated from an entry in the Cambridge
# Structural Database, then it will include bibliographic, chemical,
# crystal, experimental, refinement or atomic coordinate data resulting
# from the CCDC's data processing and validation procedures.
#
#######################################################################

data_CSD_CIF_SONMIT
_audit_creation_date 2014-10-31
_audit_creation_method CSD-ConQuest-V1
_database_code_CSD SONMIT
_database_code_depnum_ccdc_archive 'CCDC 1031856'
_chemical_formula_sum 'C22 H26 N6 O4'
_chemical_formula_moiety
;
C22 H26 N6 O4
;
_journal_coden_Cambridge 1078
_journal_year 2014
_journal_name_full 'CSD Communication(Private Communication) '
loop_
_publ_author_name
"Shun-Yi Wang"
_chemical_name_systematic
;
N,1-dibutyl-N',3-bis(4-nitrophenyl)-1,3-diazetidine-2,4-diimine
;
_cell_volume   1170.725
_exptl_crystal_colour 'light yellow'
_exptl_crystal_density_diffrn 1.244
_exptl_crystal_description 'prism'
_diffrn_ambient_temperature 295.2
_refine_special_details
;
C15,C16,C17,C18 and C15A,C16A,C17A,C18A disordered over two sites with 
occupancies 0.648:0.352; C19,C20,C21,C22 and C19A,C20A,C21A,C22A disordered 
over two sites with occupancies 0.602:0.398.
;
#These two values have been output from a single CSD field.
_refine_ls_R_factor_gt 0.0681
_refine_ls_wR_factor_gt 0.0681
_symmetry_cell_setting triclinic
_symmetry_space_group_name_H-M 'P -1'
_symmetry_Int_Tables_number 2
loop_
_symmetry_equiv_pos_site_id
_symmetry_equiv_pos_as_xyz
1 x,y,z
2 -x,-y,-z
_cell_length_a 9.3830(6)
_cell_length_b 11.5671(8)
_cell_length_c 11.8220(8)
_cell_angle_alpha 82.403(5)
_cell_angle_beta 77.878(5)
_cell_angle_gamma 69.245(6)
_cell_formula_units_Z 2
loop_
_atom_type_symbol
_atom_type_radius_bond
C 0.68
H 0.23
N 0.68
O 0.68
loop_
_atom_site_label
_atom_site_type_symbol
_atom_site_fract_x
_atom_site_fract_y
_atom_site_fract_z
O1 O 1.3090(3) 0.1995(2) -0.2158(3)
O2 O 1.3009(3) 0.1140(2) -0.0439(3)
O3 O 0.0929(3) 0.7508(3) 0.6671(2)
O4 O 0.0080(4) 0.6136(3) 0.6317(3)
N1 N 0.6749(3) 0.5562(2) 0.02488(19)
N2 N 1.2446(3) 0.1944(3) -0.1155(3)
N3 N 0.5816(3) 0.5313(2) 0.2299(2)
N4 N 0.0999(4) 0.6690(3) 0.6102(2)
N5 N 0.4699(3) 0.6832(2) 0.07733(19)
N6 N 0.5865(3) 0.7016(2) -0.1325(2)
C1 C 0.5739(3) 0.6603(3) -0.0303(3)
C2 C 0.5713(3) 0.5830(3) 0.1308(2)
C3 C 0.8155(3) 0.4657(2) -0.0109(2)
C4 C 0.8945(3) 0.4727(2) -0.1224(2)
H1 H 0.85310 0.53800 -0.17410
C5 C 1.0340(3) 0.3837(3) -0.1570(2)
H2 H 1.08690 0.38750 -0.23250
C6 C 1.0956(3) 0.2883(2) -0.0792(3)
C7 C 1.0185(3) 0.2808(3) 0.0325(3)
H3 H 1.06150 0.21630 0.08430
C8 C 0.8782(3) 0.3688(2) 0.0671(2)
H4 H 0.82490 0.36400 0.14240
C9 C 0.4590(3) 0.5702(3) 0.3237(2)
C10 C 0.4595(4) 0.6495(3) 0.3999(3)
H5 H 0.54040 0.68080 0.38880
C11 C 0.3410(4) 0.6829(3) 0.4928(3)
H6 H 0.34000 0.73850 0.54330
C12 C 0.2251(3) 0.6344(3) 0.5104(2)
C13 C 0.2244(4) 0.5527(3) 0.4375(3)
H7 H 0.14580 0.51860 0.45140
C14 C 0.3409(4) 0.5213(3) 0.3434(3)
H8 H 0.34040 0.46660 0.29250
C15 C 0.3722(5) 0.8070(4) 0.1251(4)
H9 H 0.39930 0.81200 0.19870
H10 H 0.39420 0.87250 0.07210
C16 C 0.2026(5) 0.8261(5) 0.1424(5)
H11 H 0.18250 0.75340 0.18300
H12 H 0.16990 0.83870 0.06780
C17 C 0.1112(9) 0.9407(9) 0.2137(7)
H13 H 0.13850 0.92470 0.29040
H14 H 0.13950 1.01120 0.17640
C18 C -0.0586(7) 0.9705(7) 0.2246(8)
H15 H -0.08980 1.00690 0.15200
H16 H -0.11190 1.02780 0.28380
H17 H -0.08360 0.89590 0.24480
C19 C 0.4562(14) 0.8001(11) -0.1763(10)
H18 H 0.37080 0.76970 -0.17080
H19 H 0.42080 0.87050 -0.12880
C20 C 0.5034(9) 0.8395(8) -0.2976(7)
H20 H 0.41660 0.90490 -0.32400
H21 H 0.53230 0.77020 -0.34580
C21 C 0.6448(9) 0.8878(7) -0.3118(7)
H22 H 0.61730 0.95120 -0.25730
H23 H 0.73200 0.81960 -0.28940
C22 C 0.6942(11) 0.9369(9) -0.4225(8)
H24 H 0.66720 0.90140 -0.48050
H25 H 0.80440 0.91750 -0.43540
H26 H 0.64450 1.02520 -0.42710
C23? C 0.3050(11) 0.7564(8) 0.1152(9)
H27? H 0.25090 0.77130 0.05040
H28? H 0.25910 0.70850 0.17580
C24? C 0.2834(11) 0.8744(9) 0.1582(9)
H29? H 0.33950 0.91980 0.10290
H30? H 0.31980 0.86200 0.23130
C25? C 0.0996(16) 0.9487(17) 0.1753(12)
H31? H 0.07910 1.03740 0.16910
H32? H 0.05470 0.92860 0.11690
C26? C 0.0308(14) 0.9068(11) 0.2979(10)
H33? H 0.05290 0.81890 0.30280
H34? H -0.07920 0.94820 0.31250
H35? H 0.07620 0.92760 0.35460
C27? C 0.482(2) 0.8261(17) -0.1609(16)
H36? H 0.38070 0.82110 -0.16060
H37? H 0.47030 0.87930 -0.10030
C28? C 0.5281(18) 0.8802(13) -0.2648(11)
H38? H 0.56890 0.93940 -0.24450
H39? H 0.43210 0.92960 -0.29120
C29? C 0.6310(13) 0.8308(11) -0.3683(10)
H40? H 0.71220 0.76560 -0.33520
H41? H 0.57310 0.78740 -0.39380
C30? C 0.7145(17) 0.8574(15) -0.4734(11)
H42? H 0.64460 0.91230 -0.52140
H43? H 0.77270 0.78210 -0.51130
H44? H 0.78410 0.89630 -0.46040
#END
