
#######################################################################
#
#                 Cambridge Crystallographic Data Centre
#                                CCDC
#
#######################################################################
#
# If this CIF has been generated from an entry in the Cambridge
# Structural Database, then it will include bibliographic, chemical,
# crystal, experimental, refinement or atomic coordinate data resulting
# from the CCDC's data processing and validation procedures.
#
#######################################################################

data_CSD_CIF_SOPTAS
_audit_creation_date 1992-05-19
_audit_creation_method CSD-ConQuest-V1
_database_code_CSD SOPTAS
_chemical_formula_sum 'C18 H17 N3 O8'
_chemical_formula_moiety
;
C18 H17 N3 O8
;
_journal_coden_Cambridge 16
_journal_volume 47
_journal_year 1991
_journal_page_first 8001
_journal_name_full 'Tetrahedron '
loop_
_publ_author_name
"R.Ramage"
"A.J.Blake"
"M.R.Florence"
"T.Gray"
"G.Raphy"
"P.L.Roach"
_chemical_name_systematic
;
N-(2,2-bis(4'-Nitrophenyl)ethoxycarbonyl)alanine
;
_chemical_melting_point 421.15
_cell_volume   1897.234
_exptl_crystal_colour 'colorless'
_exptl_crystal_density_diffrn 1.412
_exptl_special_details
;
Melting point range 421.15-422.15K

;
_diffrn_ambient_temperature ?
_diffrn_special_details
;
The study was carried out at room temperature,in the range 283-303K

;
#These two values have been output from a single CSD field.
_refine_ls_R_factor_gt 0.0534
_refine_ls_wR_factor_gt 0.0534
_symmetry_cell_setting monoclinic
_symmetry_space_group_name_H-M 'P 21'
_symmetry_Int_Tables_number 4
loop_
_symmetry_equiv_pos_site_id
_symmetry_equiv_pos_as_xyz
1 x,y,z
2 -x,1/2+y,-z
_cell_length_a 9.658(7)
_cell_length_b 12.057(6)
_cell_length_c 16.302(8)
_cell_angle_alpha 90
_cell_angle_beta 91.93(5)
_cell_angle_gamma 90
_cell_formula_units_Z 4
loop_
_atom_type_symbol
_atom_type_radius_bond
C 0.68
H 0.23
N 0.68
O 0.68
loop_
_atom_site_label
_atom_site_type_symbol
_atom_site_fract_x
_atom_site_fract_y
_atom_site_fract_z
C1 C 0.4097(4) 1.1136(4) 0.0057(3)
O1 O 0.3736(4) 1.1518(4) 0.07216(23)
O2 O 0.3442(4) 1.1273(4) -0.06143(25)
C2 C 0.5467(5) 1.0511(4) -0.0003(3)
C3 C 0.5495(5) 0.9712(5) -0.0738(3)
N1 N 0.5864(4) 0.9982(4) 0.0773(3)
C4 C 0.5052(4) 0.9229(4) 0.1095(3)
O3 O 0.3913(3) 0.8923(3) 0.08756(24)
O4 O 0.5702(4) 0.8819(3) 0.18142(22)
C5 C 0.4963(5) 0.7953(4) 0.2242(3)
C6 C 0.5843(4) 0.7731(4) 0.3021(3)
C7 C 0.7239(5) 0.7268(4) 0.2821(3)
C8 C 0.8328(5) 0.7994(4) 0.2736(3)
C9 C 0.9606(5) 0.7612(4) 0.2481(3)
C10 C 0.9780(5) 0.6515(4) 0.2310(3)
N2 N 1.1081(4) 0.6101(4) 0.2002(3)
O5 O 1.1924(4) 0.6778(4) 0.1755(3)
O6 O 1.1315(4) 0.5104(4) 0.2030(3)
C11 C 0.8686(5) 0.5761(4) 0.2406(4)
C12 C 0.7402(5) 0.6155(4) 0.2645(4)
C13 C 0.5074(5) 0.6965(4) 0.3621(3)
C14 C 0.4083(5) 0.6214(5) 0.3362(4)
C15 C 0.3358(5) 0.5583(5) 0.3917(3)
C16 C 0.3679(5) 0.5716(4) 0.4732(3)
N3 N 0.2907(5) 0.5080(4) 0.5334(3)
O7 O 0.2103(5) 0.4355(4) 0.5080(3)
O8 O 0.3037(4) 0.5312(4) 0.6057(3)
C17 C 0.4635(5) 0.6459(5) 0.5016(4)
C18 C 0.5355(5) 0.7103(5) 0.4459(3)
C19 C 0.0877(5) 1.3013(4) 0.0077(3)
O9 O 0.1221(4) 1.2605(4) -0.05711(24)
O10 O 0.1483(4) 1.2760(4) 0.07726(23)
C20 C -0.0265(5) 1.3870(4) 0.0133(3)
C21 C -0.1470(5) 1.3384(5) 0.0594(4)
N4 N -0.0757(4) 1.4240(4) -0.06806(25)
C22 C 0.0037(5) 1.4941(4) -0.1111(3)
O11 O 0.1151(3) 1.5306(3) -0.08891(23)
O12 O -0.0604(3) 1.5162(3) -0.18437(19)
C23 C 0.0124(5) 1.5952(4) -0.2329(3)
C24 C -0.0753(4) 1.6109(4) -0.3127(3)
C25 C -0.2183(5) 1.6552(4) -0.2948(3)
C26 C -0.2441(5) 1.7666(4) -0.2826(4)
C27 C -0.3722(5) 1.8060(4) -0.2614(3)
C28 C -0.4752(4) 1.7316(4) -0.2538(3)
N5 N -0.6120(4) 1.7700(4) -0.2291(3)
O13 O -0.6406(4) 1.8687(4) -0.2382(3)
O14 O -0.6936(4) 1.7039(4) -0.2021(3)
C29 C -0.4581(5) 1.6185(4) -0.2648(3)
C30 C -0.3293(4) 1.5814(4) -0.2864(3)
C31 C -0.0002(4) 1.6807(4) -0.3728(3)
C32 C 0.0884(5) 1.7674(4) -0.3515(3)
C33 C 0.1581(5) 1.8284(5) -0.4101(3)
C34 C 0.1371(5) 1.8022(4) -0.4902(3)
N6 N 0.2140(5) 1.8637(4) -0.5517(3)
O15 O 0.2001(4) 1.8353(4) -0.62434(25)
O16 O 0.2889(5) 1.9387(4) -0.5292(3)
C35 C 0.0446(5) 1.7224(4) -0.5169(3)
C36 C -0.0244(5) 1.6617(4) -0.4587(3)
H1 H 0.27390 1.18840 -0.06800
H2 H 0.62510 1.11220 -0.01250
H3 H 0.51930 1.01520 -0.12930
H4 H 0.47820 0.90370 -0.06440
H5 H 0.65290 0.93860 -0.07930
H6 H 0.68580 0.95510 0.07000
H7 H 0.39430 0.82350 0.23960
H8 H 0.48720 0.72140 0.18700
H9 H 0.60200 0.85160 0.33250
H10 H 0.81900 0.88630 0.28710
H11 H 1.04560 0.81850 0.24190
H12 H 0.88380 0.48870 0.22960
H13 H 0.65390 0.55920 0.26950
H14 H 0.38640 0.61130 0.27120
H15 H 0.25670 0.50050 0.37090
H16 H 0.48380 0.65520 0.56680
H17 H 0.61200 0.76980 0.46740
H18 H 0.23580 1.22990 0.07650
H19 H 0.01590 1.45800 0.04580
H20 H -0.11040 1.31100 0.11940
H21 H -0.19010 1.26880 0.02560
H22 H -0.22580 1.40100 0.06610
H23 H -0.17500 1.46560 -0.05890
H24 H 0.02260 1.67300 -0.20050
H25 H 0.11400 1.56400 -0.24630
H26 H -0.09070 1.53100 -0.34160
H27 H -0.16070 1.82510 -0.28980
H28 H -0.38930 1.89340 -0.25120
H29 H -0.54280 1.56140 -0.25690
H30 H -0.31350 1.49390 -0.29660
H31 H 0.10390 1.78860 -0.28750
H32 H 0.22760 1.89480 -0.39200
H33 H 0.02610 1.70750 -0.58170
H34 H -0.09770 1.59890 -0.47880
#END
