
#######################################################################
#
#                 Cambridge Crystallographic Data Centre
#                                CCDC
#
#######################################################################
#
# If this CIF has been generated from an entry in the Cambridge
# Structural Database, then it will include bibliographic, chemical,
# crystal, experimental, refinement or atomic coordinate data resulting
# from the CCDC's data processing and validation procedures.
#
#######################################################################

data_CSD_CIF_SOPZIG
_audit_creation_date 1992-05-28
_audit_creation_method CSD-ConQuest-V1
_database_code_CSD SOPZIG
_chemical_formula_sum 'C10 H9 N3 O2'
_chemical_formula_moiety
;
C10 H9 N3 O2
;
_journal_coeditor_code "IUCr CD0022"
_journal_coden_Cambridge 591
_journal_volume 48
_journal_year 1992
_journal_page_first 184
_journal_name_full 'Acta Crystallogr.,Sect.C:Cryst.Struct.Commun. '
loop_
_publ_author_name
"M.Ishihara"
"M.Tonogaki"
"S.Ohba"
"Y.Saito"
"M.Okazaki"
"T.Katoh"
"K.Kamiyama"
_chemical_name_systematic
;
2-Methyl-1-(4-nitrophenyl)imidazole
;
_cell_volume   1921.356
_exptl_crystal_colour 'colorless'
_exptl_crystal_density_diffrn 1.4
_diffrn_ambient_temperature ?
_diffrn_special_details
;
The study was carried out at room temperature,in the range 283-303K

;
#These two values have been output from a single CSD field.
_refine_ls_R_factor_gt 0.049
_refine_ls_wR_factor_gt 0.049
_symmetry_cell_setting monoclinic
_symmetry_space_group_name_H-M 'P 21/c'
_symmetry_Int_Tables_number 14
loop_
_symmetry_equiv_pos_site_id
_symmetry_equiv_pos_as_xyz
1 x,y,z
2 -x,1/2+y,1/2-z
3 -x,-y,-z
4 x,-1/2-y,-1/2+z
_cell_length_a 17.513(3)
_cell_length_b 7.405(1)
_cell_length_c 16.819(3)
_cell_angle_alpha 90
_cell_angle_beta 118.25(1)
_cell_angle_gamma 90
_cell_formula_units_Z 8
loop_
_atom_type_symbol
_atom_type_radius_bond
C 0.68
H 0.23
N 0.68
O 0.68
loop_
_atom_site_label
_atom_site_type_symbol
_atom_site_fract_x
_atom_site_fract_y
_atom_site_fract_z
O1 O 0.1329(1) 0.2348(3) 0.4940(1)
O2 O 0.0140(1) 0.1721(3) 0.3751(1)
N1 N 0.0546(1) 0.2159(3) 0.4544(2)
N2 N -0.1313(1) 0.3584(3) 0.6435(1)
N3 N -0.2170(1) 0.3350(3) 0.7056(1)
C1 C 0.0065(2) 0.2504(3) 0.5046(2)
C2 C 0.0499(2) 0.3130(4) 0.5914(2)
C3 C 0.0041(2) 0.3464(4) 0.6371(2)
C4 C -0.0840(2) 0.3181(3) 0.5961(2)
C5 C -0.1269(2) 0.2553(4) 0.5082(2)
C6 C -0.0816(2) 0.2214(4) 0.4617(2)
C7 C -0.1321(2) 0.5244(4) 0.6805(2)
C8 C -0.1848(2) 0.5072(4) 0.7169(2)
C9 C -0.1840(2) 0.2479(4) 0.6616(2)
C10 C -0.1981(2) 0.0533(4) 0.6354(2)
O3 O 0.4967(1) 0.2597(3) -0.1410(1)
O4 O 0.6096(1) 0.3292(3) -0.0191(1)
N4 N 0.5343(1) 0.2821(3) -0.0601(2)
N5 N 0.3563(1) 0.1377(3) 0.1367(1)
N6 N 0.2844(1) 0.1649(3) 0.2143(1)
C11 C 0.4871(2) 0.2498(3) -0.0086(2)
C12 C 0.4022(2) 0.1989(4) -0.0540(2)
C13 C 0.3586(2) 0.1638(4) -0.0055(2)
C14 C 0.4013(2) 0.1806(3) 0.0867(2)
C15 C 0.4861(2) 0.2369(4) 0.1311(2)
C16 C 0.5305(2) 0.2700(4) 0.0834(2)
C17 C 0.3371(2) -0.0352(4) 0.1529(2)
C18 C 0.2938(2) -0.0158(4) 0.2001(2)
C19 C 0.3227(2) 0.2527(4) 0.1755(2)
C20 C 0.3287(2) 0.4522(4) 0.1719(2)
H1 H 0.109(1) 0.331(3) 0.616(1)
H2 H 0.029(1) 0.390(3) 0.696(1)
H3 H -0.188(1) 0.240(3) 0.481(1)
H4 H -0.110(2) 0.185(3) 0.402(2)
H5 H -0.101(1) 0.618(3) 0.677(1)
H6 H -0.200(1) 0.590(3) 0.748(1)
H7 H -0.148(2) -0.008(4) 0.639(2)
H8 H -0.213(2) -0.013(4) 0.672(2)
H9 H -0.247(2) 0.042(5) 0.569(2)
H10 H 0.373(2) 0.185(4) -0.119(2)
H11 H 0.298(2) 0.131(4) -0.037(2)
H12 H 0.516(2) 0.248(4) 0.196(2)
H13 H 0.588(2) 0.311(4) 0.111(2)
H14 H 0.354(2) -0.141(3) 0.133(2)
H15 H 0.271(2) -0.114(4) 0.223(2)
H16 H 0.302(2) 0.513(5) 0.204(2)
H17 H 0.308(2) 0.496(5) 0.115(2)
H18 H 0.382(2) 0.487(5) 0.187(2)
#END
