
#######################################################################
#
#                 Cambridge Crystallographic Data Centre
#                                CCDC
#
#######################################################################
#
# If this CIF has been generated from an entry in the Cambridge
# Structural Database, then it will include bibliographic, chemical,
# crystal, experimental, refinement or atomic coordinate data resulting
# from the CCDC's data processing and validation procedures.
#
#######################################################################

data_CSD_CIF_SOQVEZ
_audit_creation_date 1999-03-02
_audit_creation_method CSD-ConQuest-V1
_database_code_CSD SOQVEZ
_chemical_formula_sum 'C15 H22 N2 O3'
_chemical_formula_moiety
;
C15 H22 N2 O3
;
_journal_coden_Cambridge 35
_journal_volume 62
_journal_year 1997
_journal_page_first 8544
_journal_name_full 'J.Org.Chem. '
loop_
_publ_author_name
"P.Moya"
"M.Castillo"
"E.Primo-Yufera"
"F.Couillaud"
"R.Martinez-Manez"
"M.-D.Garcera"
"M.A.Miranda"
"J.Primo"
"R.Martinez-Pardo"
_chemical_name_systematic
;
(-)-Brevioxime
;
_cell_volume   1526.037
_exptl_special_details
;
juvenile hormone biosynthesis inhibitory activity

;
_exptl_crystal_preparation 'hexane/dichloromethane'
_diffrn_ambient_temperature ?
_diffrn_special_details
;
The study was carried out at room temperature,in the range 283-303K

;
#These two values have been output from a single CSD field.
_refine_ls_R_factor_gt 0.0997
_refine_ls_wR_factor_gt 0.0997
_chemical_compound_source
;
Penicillium brevicompactum
;
_symmetry_cell_setting orthorhombic
_symmetry_space_group_name_H-M 'P 21 21 21'
_symmetry_Int_Tables_number 19
loop_
_symmetry_equiv_pos_site_id
_symmetry_equiv_pos_as_xyz
1 x,y,z
2 1/2-x,-y,1/2+z
3 1/2+x,1/2-y,-z
4 -x,1/2+y,1/2-z
_cell_length_a 6.020(1)
_cell_length_b 9.164(2)
_cell_length_c 27.662(6)
_cell_angle_alpha 90
_cell_angle_beta 90
_cell_angle_gamma 90
_cell_formula_units_Z 4
loop_
_atom_type_symbol
_atom_type_radius_bond
C 0.68
H 0.23
N 0.68
O 0.68
loop_
_atom_site_label
_atom_site_type_symbol
_atom_site_fract_x
_atom_site_fract_y
_atom_site_fract_z
O1 O 1.1622(21) 0.3281(11) 0.8001(5)
O2 O 0.9297(17) 0.6952(12) 0.8639(5)
N1 N 1.1223(20) 0.5730(13) 0.8011(5)
C1 C 0.8340(24) 0.560(2) 0.8748(7)
C2 C 0.8762(29) 0.4407(20) 0.8524(7)
C3 C 1.0651(31) 0.4367(18) 0.8135(7)
C4 C 1.3212(25) 0.6058(17) 0.7706(7)
C5 C 1.3528(24) 0.7724(16) 0.7777(8)
C6 C 1.1394(24) 0.8223(16) 0.8004(8)
C7 C 0.9932(24) 0.6974(15) 0.8145(7)
C8 C 0.7059(23) 0.5755(22) 0.9229(6)
C9 C 0.4603(23) 0.6153(20) 0.9137(6)
C10 C 0.3413(29) 0.6252(19) 0.9601(6)
C11 C 0.2921(34) 0.4789(22) 0.9799(8)
C12 C 0.1666(31) 0.4832(23) 1.0254(9)
C13 C -0.0267(38) 0.4332(24) 1.0377(9)
C14 C -0.1566(36) 0.4447(26) 1.0861(8)
C15 C 0.7831(33) 0.2907(16) 0.8625(8)
N2 N 1.0772(19) 0.9544(13) 0.8115(6)
O3 O 1.2442(19) 1.0513(11) 0.7935(5)
H1 H 1.29370 0.58240 0.73690
H2 H 1.45020 0.55180 0.78170
H3 H 1.47890 0.79210 0.79880
H4 H 1.37840 0.82070 0.74700
H5 H 0.85880 0.69990 0.79450
H6 H 0.71360 0.48440 0.94070
H7 H 0.77470 0.65080 0.94250
H8 H 0.45160 0.70800 0.89690
H9 H 0.39170 0.54140 0.89350
H10 H 0.20340 0.67810 0.95540
H11 H 0.43110 0.67920 0.98310
H12 H 0.20770 0.42410 0.95620
H13 H 0.43090 0.42760 0.98530
H14 H 0.24030 0.53130 1.05030
H15 H -0.10000 0.38180 1.01350
H16 H -0.29640 0.39510 1.08310
H17 H -0.18230 0.54560 1.09360
H18 H -0.07130 0.40050 1.11150
H19 H 0.84440 0.22210 0.83990
H20 H 0.62440 0.29280 0.85920
H21 H 0.82140 0.26190 0.89480
#END
