
#######################################################################
#
#                 Cambridge Crystallographic Data Centre
#                                CCDC
#
#######################################################################
#
# If this CIF has been generated from an entry in the Cambridge
# Structural Database, then it will include bibliographic, chemical,
# crystal, experimental, refinement or atomic coordinate data resulting
# from the CCDC's data processing and validation procedures.
#
#######################################################################

data_CSD_CIF_SORBAC
_audit_creation_date 1992-05-28
_audit_creation_method CSD-ConQuest-V1
_database_code_CSD SORBAC
_chemical_formula_sum 'C15 H11 N3 O2'
_chemical_formula_moiety
;
C15 H11 N3 O2
;
_journal_coeditor_code "IUCr CD0022"
_journal_coden_Cambridge 591
_journal_volume 48
_journal_year 1992
_journal_page_first 184
_journal_name_full 'Acta Crystallogr.,Sect.C:Cryst.Struct.Commun. '
loop_
_publ_author_name
"M.Ishihara"
"M.Tonogaki"
"S.Ohba"
"Y.Saito"
"M.Okazaki"
"T.Katoh"
"K.Kamiyama"
_chemical_name_systematic
;
1-(4-Nitrophenyl)-2-phenylimidazole
;
_cell_volume   1304.480
_exptl_crystal_colour 'colorless'
_exptl_crystal_density_diffrn 1.35
_diffrn_ambient_temperature ?
_diffrn_special_details
;
The study was carried out at room temperature,in the range 283-303K

;
#These two values have been output from a single CSD field.
_refine_ls_R_factor_gt 0.039
_refine_ls_wR_factor_gt 0.039
_symmetry_cell_setting triclinic
_symmetry_space_group_name_H-M 'P -1'
_symmetry_Int_Tables_number 2
loop_
_symmetry_equiv_pos_site_id
_symmetry_equiv_pos_as_xyz
1 x,y,z
2 -x,-y,-z
_cell_length_a 9.350(2)
_cell_length_b 11.893(3)
_cell_length_c 12.658(3)
_cell_angle_alpha 103.73(2)
_cell_angle_beta 103.68(2)
_cell_angle_gamma 97.05(2)
_cell_formula_units_Z 4
loop_
_atom_type_symbol
_atom_type_radius_bond
C 0.68
H 0.23
N 0.68
O 0.68
loop_
_atom_site_label
_atom_site_type_symbol
_atom_site_fract_x
_atom_site_fract_y
_atom_site_fract_z
O1 O -0.3580(3) 1.0518(3) 0.1558(3)
O2 O -0.1763(4) 1.1911(2) 0.1717(3)
N1 N -0.2266(4) 1.0997(3) 0.1876(3)
N2 N 0.1861(3) 0.8794(2) 0.4277(2)
N3 N 0.2917(3) 0.7486(3) 0.5041(2)
C1 C -0.1182(4) 1.0385(3) 0.2475(3)
C2 C -0.1727(4) 0.9422(3) 0.2776(3)
C3 C -0.0712(4) 0.8901(3) 0.3391(3)
C4 C 0.0809(4) 0.9332(3) 0.3651(3)
C5 C 0.1332(4) 1.0294(3) 0.3323(3)
C6 C 0.0317(5) 1.0836(3) 0.2738(3)
C7 C 0.3100(4) 0.9421(3) 0.5159(3)
C8 C 0.3697(4) 0.8618(3) 0.5601(3)
C9 C 0.1802(4) 0.7611(3) 0.4241(3)
C10 C 0.0731(4) 0.6624(3) 0.3380(3)
C11 C 0.0303(4) 0.6584(3) 0.2248(3)
C12 C -0.0670(4) 0.5599(3) 0.1470(3)
C13 C -0.1201(4) 0.4658(3) 0.1826(3)
C14 C -0.0769(4) 0.4699(3) 0.2943(3)
C15 C 0.0193(4) 0.5665(3) 0.3722(3)
O3 O 0.1891(4) 0.0540(2) 0.0223(3)
O4 O 0.0496(3) 0.1743(3) -0.0279(2)
N4 N 0.1597(4) 0.1528(3) 0.0317(3)
N5 N 0.5653(3) 0.5359(2) 0.3597(2)
N6 N 0.6825(3) 0.7196(3) 0.4524(2)
C16 C 0.2636(4) 0.2523(3) 0.1209(3)
C17 C 0.2200(4) 0.3581(3) 0.1468(3)
C18 C 0.3182(4) 0.4519(3) 0.2272(3)
C19 C 0.4609(4) 0.4390(3) 0.2780(3)
C20 C 0.5026(4) 0.3300(3) 0.2510(3)
C21 C 0.4022(4) 0.2349(3) 0.1725(3)
C22 C 0.6537(4) 0.5316(3) 0.4622(3)
C23 C 0.7230(4) 0.6432(3) 0.5165(3)
C24 C 0.5875(4) 0.6523(3) 0.3582(3)
C25 C 0.5243(4) 0.6936(3) 0.2598(3)
C26 C 0.5457(4) 0.6424(3) 0.1552(3)
C27 C 0.4880(5) 0.6847(4) 0.0629(3)
C28 C 0.4130(5) 0.7772(3) 0.0767(3)
C29 C 0.3919(4) 0.8276(3) 0.1793(3)
C30 C 0.4480(4) 0.7876(3) 0.2719(3)
H1 H -0.287(3) 0.916(3) 0.256(3)
H2 H -0.108(3) 0.822(2) 0.366(2)
H3 H 0.243(3) 1.062(2) 0.359(2)
H4 H 0.068(4) 1.155(3) 0.250(3)
H5 H 0.334(3) 1.025(3) 0.531(3)
H6 H 0.458(3) 0.880(3) 0.626(3)
H7 H 0.076(3) 0.726(2) 0.197(2)
H8 H -0.100(3) 0.561(2) 0.071(2)
H9 H -0.193(3) 0.400(3) 0.124(3)
H10 H -0.103(3) 0.402(3) 0.325(3)
H11 H 0.046(3) 0.574(3) 0.462(3)
H12 H 0.122(3) 0.365(2) 0.116(2)
H13 H 0.285(3) 0.531(2) 0.248(2)
H14 H 0.600(3) 0.320(2) 0.297(2)
H15 H 0.434(4) 0.156(3) 0.152(3)
H16 H 0.787(3) 0.675(2) 0.594(2)
H17 H 0.593(4) 0.564(3) 0.136(3)
H18 H 0.520(4) 0.655(3) -0.008(3)
H19 H 0.389(4) 0.808(3) 0.006(3)
H20 H 0.335(3) 0.894(3) 0.191(3)
H21 H 0.433(4) 0.818(3) 0.348(3)
H22 H 0.658(3) 0.461(2) 0.485(2)
#END
