
#######################################################################
#
#                 Cambridge Crystallographic Data Centre
#                                CCDC
#
#######################################################################
#
# If this CIF has been generated from an entry in the Cambridge
# Structural Database, then it will include bibliographic, chemical,
# crystal, experimental, refinement or atomic coordinate data resulting
# from the CCDC's data processing and validation procedures.
#
#######################################################################

data_CSD_CIF_SORYAA
_audit_creation_date 2009-07-30
_audit_creation_method CSD-ConQuest-V1
_database_code_CSD SORYAA
_database_code_depnum_ccdc_archive 'CCDC 701232'
_chemical_formula_sum 'C22 H32 N4 O4'
_chemical_formula_moiety
;
C22 H32 N4 O4
;
_journal_coden_Cambridge 1291
_journal_year 2009
_journal_page_first 1241
_journal_name_full 'Eur.J.Org.Chem. '
loop_
_publ_author_name
"V.A.Ozeryanskii"
"A.F.Pozharskii"
"A.K.Artaryan"
"N.V.Vistorobskii"
"Z.A.Starikova"
_chemical_name_systematic
;
1,8-bis(Di-n-propylamino)-4,5-dinitronaphthalene
;
_chemical_melting_point 429.15
_cell_volume   4472.437
_exptl_crystal_colour 'orange'
_exptl_crystal_density_diffrn 1.237
_exptl_special_details
;
Melting point range 429.15-430.15K

;
_exptl_crystal_description 'plate'
_exptl_crystal_preparation 'ethanol'
_diffrn_ambient_temperature 120
_refine_special_details
;
One n-propyl group is disordered over two sites with occupancies 0.540:0.460.

;
#These two values have been output from a single CSD field.
_refine_ls_R_factor_gt 0.0692
_refine_ls_wR_factor_gt 0.0692
_symmetry_cell_setting orthorhombic
_symmetry_space_group_name_H-M 'P n n a'
_symmetry_Int_Tables_number 52
loop_
_symmetry_equiv_pos_site_id
_symmetry_equiv_pos_as_xyz
1 x,y,z
2 1/2-x,-y,z
3 1/2-x,1/2+y,1/2-z
4 x,1/2-y,1/2-z
5 -x,-y,-z
6 -1/2+x,y,-z
7 -1/2+x,-1/2-y,-1/2+z
8 -x,-1/2+y,-1/2+z
_cell_length_a 18.6549(18)
_cell_length_b 13.7116(13)
_cell_length_c 17.4849(17)
_cell_angle_alpha 90
_cell_angle_beta 90
_cell_angle_gamma 90
_cell_formula_units_Z 8
loop_
_atom_type_symbol
_atom_type_radius_bond
C 0.68
H 0.23
N 0.68
O 0.68
loop_
_atom_site_label
_atom_site_type_symbol
_atom_site_fract_x
_atom_site_fract_y
_atom_site_fract_z
N1 N 0.6526(1) 0.33973(14) 0.21006(10)
N2 N 0.94645(11) 0.26898(16) 0.16746(11)
N3 N 0.32428(11) 0.53075(18) 0.06930(12)
N4 N 0.28214(17) 0.59678(17) 0.38350(13)
O1 O 0.97279(9) 0.19120(13) 0.18884(9)
O2 O 0.97965(9) 0.33014(14) 0.12975(10)
O3 O 0.35302(10) 0.59745(14) 0.03413(9)
O4 O 0.31164(9) 0.44988(14) 0.04058(9)
C1 C 0.72314(12) 0.31430(16) 0.19651(13)
C2 C 0.76090(13) 0.34918(16) 0.13401(13)
H1 H 0.73620 0.38440 0.09540
C3 C 0.83302(12) 0.33387(16) 0.12682(13)
H2 H 0.85720 0.35580 0.08220
C4 C 0.87082(12) 0.28728(16) 0.18326(12)
C5 C 0.83678(17) 0.25000 0.25000
C6 C 0.76026(17) 0.25000 0.25000
C7 C 0.61191(12) 0.38371(19) 0.14718(13)
H3 H 0.62470 0.35010 0.09900
H4 H 0.62630 0.45290 0.14200
C8 C 0.53203(14) 0.3789(2) 0.15764(16)
H5 H 0.51800 0.41790 0.20290
H6 H 0.51740 0.31040 0.16670
C9 C 0.49429(15) 0.4177(2) 0.08748(16)
H7 H 0.44230 0.41090 0.09400
H8 H 0.50970 0.38060 0.04240
H9 H 0.50640 0.48670 0.08050
C10 C 0.63532(14) 0.37686(18) 0.28678(14)
H10 H 0.66700 0.34480 0.32460
H11 H 0.58530 0.35910 0.29940
C11 C 0.64393(16) 0.48780(19) 0.29379(15)
H12 H 0.69040 0.50740 0.27110
H13 H 0.60530 0.52030 0.26450
C12 C 0.64113(18) 0.5215(2) 0.37532(15)
H14 H 0.64560 0.59260 0.37710
H15 H 0.68060 0.49180 0.40400
H16 H 0.59540 0.50190 0.39810
C13 C 0.29549(17) 0.57045(19) 0.30797(15)
C14 C 0.25000 0.50000 0.26920(18)
C15 C 0.25000 0.50000 0.18678(18)
C16 C 0.30838(13) 0.54610(17) 0.14937(13)
C17 C 0.35849(14) 0.59840(17) 0.19039(14)
H17 H 0.39890 0.62480 0.16470
C18 C 0.35099(15) 0.6129(2) 0.26735(14)
H18 H 0.38460 0.65290 0.29350
C19 C 0.2083(2) 0.6135(2) 0.40891(18)
H19 H 0.17820 0.56980 0.38040
H20 H 0.20120 0.58900 0.45980
C20 C 0.1720(12) 0.7246(13) 0.3996(8)
H21 H 0.12290 0.72330 0.42110
H22 H 0.20050 0.77140 0.43020
C21 C 0.1683(3) 0.7616(4) 0.3162(4)
H23 H 0.14870 0.82790 0.31540
H24 H 0.13720 0.71840 0.28620
H25 H 0.21650 0.76180 0.29390
C22 C 0.3399(3) 0.6490(2) 0.42727(18)
H26 H 0.35340 0.70820 0.39820
H27 H 0.31940 0.67080 0.47660
C23 C 0.4044(2) 0.5940(3) 0.4430(2)
H28 H 0.42850 0.57780 0.39420
H29 H 0.39150 0.53210 0.46860
C24 C 0.4569(2) 0.6522(3) 0.49469(19)
H30 H 0.50000 0.61310 0.50400
H31 H 0.43350 0.66700 0.54350
H32 H 0.47020 0.71310 0.46910
C25? C 0.1957(11) 0.7164(14) 0.4092(11)
C26? C 0.1219(4) 0.7230(6) 0.4351(6)
H33? H 0.17490 0.58240 0.37500
H34? H 0.20130 0.74450 0.35740
H35? H 0.22860 0.75020 0.44490
H36? H 0.10850 0.79170 0.44070
H37? H 0.11710 0.69000 0.48460
H38? H 0.09040 0.69170 0.39770
N1C N 0.6526(1) 0.16027(14) 0.28994(10)
N2C N 0.94645(11) 0.23102(16) 0.33254(11)
N3A N 0.17572(11) 0.46925(18) 0.06930(12)
N4A N 0.21786(17) 0.40322(17) 0.38350(13)
O1C O 0.97279(9) 0.30880(13) 0.31116(9)
O2C O 0.97965(9) 0.16986(14) 0.37025(10)
O3A O 0.14698(10) 0.40255(14) 0.03413(9)
O4A O 0.18836(9) 0.55012(14) 0.04058(9)
C1C C 0.72314(12) 0.18570(16) 0.30349(13)
C2C C 0.76090(13) 0.15082(16) 0.36599(13)
H1C H 0.73620 0.11560 0.40460
C3C C 0.83302(12) 0.16613(16) 0.37318(13)
H2C H 0.85720 0.14420 0.41780
C4C C 0.87082(12) 0.21272(16) 0.31674(12)
C7C C 0.61191(12) 0.11629(19) 0.35282(13)
H3C H 0.62470 0.14990 0.40100
H4C H 0.62630 0.04710 0.35800
C8C C 0.53203(14) 0.1211(2) 0.34236(16)
H5C H 0.51800 0.08210 0.29710
H6C H 0.51740 0.18960 0.33330
C9C C 0.49429(15) 0.0823(2) 0.41252(16)
H7C H 0.44230 0.08910 0.40600
H8C H 0.50970 0.11940 0.45760
H9C H 0.50640 0.01330 0.41950
C10C C 0.63532(14) 0.12314(18) 0.21322(14)
H10C H 0.66700 0.15520 0.17540
H11C H 0.58530 0.14090 0.20060
C11C C 0.64393(16) 0.01220(19) 0.20621(15)
H12C H 0.69040 -0.00740 0.22890
H13C H 0.60530 -0.02030 0.23550
C12C C 0.64113(18) -0.0215(2) 0.12468(15)
H14C H 0.64560 -0.09260 0.12290
H15C H 0.68060 0.00820 0.09600
H16C H 0.59540 -0.00190 0.10190
C13A C 0.20451(17) 0.42955(19) 0.30797(15)
C16A C 0.19162(13) 0.45390(17) 0.14937(13)
C17A C 0.14151(14) 0.40160(17) 0.19039(14)
H17A H 0.10110 0.37520 0.16470
C18A C 0.14901(15) 0.3871(2) 0.26735(14)
H18A H 0.11540 0.34710 0.29350
C19A C 0.2917(2) 0.3865(2) 0.40891(18)
H19A H 0.32180 0.43020 0.38040
H20A H 0.29880 0.41100 0.45980
C20A C 0.3280(12) 0.2754(13) 0.3996(8)
H21A H 0.37710 0.27670 0.42110
H22A H 0.29950 0.22860 0.43020
C21A C 0.3317(3) 0.2384(4) 0.3162(4)
H23A H 0.35130 0.17210 0.31540
H24A H 0.36280 0.28160 0.28620
H25A H 0.28350 0.23820 0.29390
C22A C 0.1601(3) 0.3510(2) 0.42727(18)
H26A H 0.14660 0.29180 0.39820
H27A H 0.18060 0.32920 0.47660
C23A C 0.0956(2) 0.4060(3) 0.4430(2)
H28A H 0.07150 0.42220 0.39420
H29A H 0.10850 0.46790 0.46860
C24A C 0.0431(2) 0.3478(3) 0.49469(19)
H30A H 0.00000 0.38690 0.50400
H31A H 0.06650 0.33300 0.54350
H32A H 0.02980 0.28690 0.46910
#END
