
#######################################################################
#
#                 Cambridge Crystallographic Data Centre
#                                CCDC
#
#######################################################################
#
# If this CIF has been generated from an entry in the Cambridge
# Structural Database, then it will include bibliographic, chemical,
# crystal, experimental, refinement or atomic coordinate data resulting
# from the CCDC's data processing and validation procedures.
#
#######################################################################

data_CSD_CIF_SORYEE01
_audit_creation_date 2009-07-30
_audit_creation_method CSD-ConQuest-V1
_database_code_CSD SORYEE01
_database_code_depnum_ccdc_archive 'CCDC 701236'
_chemical_formula_sum 'C14 H16 N4 O4'
_chemical_formula_moiety
;
C14 H16 N4 O4
;
_journal_coden_Cambridge 1291
_journal_year 2009
_journal_page_first 1241
_journal_name_full 'Eur.J.Org.Chem. '
loop_
_publ_author_name
"V.A.Ozeryanskii"
"A.F.Pozharskii"
"A.K.Artaryan"
"N.V.Vistorobskii"
"Z.A.Starikova"
_chemical_name_systematic
;
1,8-bis(Dimethylamino)-4,5-dinitronaphthalene
;
_cell_volume   1396.735
_exptl_crystal_colour 'red'
_exptl_crystal_density_diffrn 1.447
_exptl_crystal_description 'plate'
_exptl_crystal_preparation 'chloroform'
_diffrn_ambient_temperature 250
#These two values have been output from a single CSD field.
_refine_ls_R_factor_gt 0.0469
_refine_ls_wR_factor_gt 0.0469
_symmetry_cell_setting orthorhombic
_symmetry_space_group_name_H-M 'P c c n'
_symmetry_Int_Tables_number 56
loop_
_symmetry_equiv_pos_site_id
_symmetry_equiv_pos_as_xyz
1 x,y,z
2 1/2-x,1/2-y,z
3 -x,1/2+y,1/2-z
4 1/2+x,-y,1/2-z
5 -x,-y,-z
6 -1/2+x,-1/2+y,-z
7 x,-1/2-y,-1/2+z
8 -1/2-x,y,-1/2+z
_cell_length_a 7.0195(6)
_cell_length_b 9.6508(8)
_cell_length_c 20.6179(16)
_cell_angle_alpha 90
_cell_angle_beta 90
_cell_angle_gamma 90
_cell_formula_units_Z 4
loop_
_atom_type_symbol
_atom_type_radius_bond
C 0.68
H 0.23
N 0.68
O 0.68
loop_
_atom_site_label
_atom_site_type_symbol
_atom_site_fract_x
_atom_site_fract_y
_atom_site_fract_z
N1 N 0.1500(2) 0.88288(16) -0.16049(7)
N2 N 0.3395(2) 0.89013(17) 0.10290(7)
O1 O 0.3088(3) 0.99859(16) 0.13275(7)
O2 O 0.4329(2) 0.79445(15) 0.12626(7)
C1 C 0.2075(2) 0.87924(18) -0.09717(8)
C2 C 0.2227(3) 1.00348(19) -0.06261(9)
H1 H 0.20630 1.08740 -0.08410
C3 C 0.2618(3) 1.0029(2) 0.00289(9)
H2 H 0.28030 1.08640 0.02450
C4 C 0.2738(3) 0.88003(19) 0.03670(8)
C5 C 0.25000 0.75000 0.00542(11)
C6 C 0.25000 0.75000 -0.06440(11)
C7 C 0.1531(4) 1.0122(2) -0.19644(10)
H3 H 0.23950 1.07570 -0.17590
H4 H 0.02750 1.05160 -0.19710
H5 H 0.19440 0.99490 -0.24010
C8 C 0.0218(3) 0.7785(2) -0.18806(10)
H6 H 0.02640 0.69600 -0.16210
H7 H 0.06090 0.75730 -0.23150
H8 H -0.10600 0.81400 -0.18860
N1A N 0.3500(2) 0.61712(16) -0.16049(7)
N2A N 0.1605(2) 0.60987(17) 0.10290(7)
O1A O 0.1912(3) 0.50141(16) 0.13275(7)
O2A O 0.0671(2) 0.70555(15) 0.12626(7)
C1A C 0.2925(2) 0.62076(18) -0.09717(8)
C2A C 0.2773(3) 0.49652(19) -0.06261(9)
H1A H 0.29370 0.41260 -0.08410
C3A C 0.2382(3) 0.4971(2) 0.00289(9)
H2A H 0.21970 0.41360 0.02450
C4A C 0.2262(3) 0.61997(19) 0.03670(8)
C7A C 0.3469(4) 0.4878(2) -0.19644(10)
H3A H 0.26050 0.42430 -0.17590
H4A H 0.47250 0.44840 -0.19710
H5A H 0.30560 0.50510 -0.24010
C8A C 0.4782(3) 0.7215(2) -0.18806(10)
H6A H 0.47360 0.80400 -0.16210
H7A H 0.43910 0.74270 -0.23150
H8A H 0.60600 0.68600 -0.18860
#END
