
#######################################################################
#
#                 Cambridge Crystallographic Data Centre
#                                CCDC
#
#######################################################################
#
# If this CIF has been generated from an entry in the Cambridge
# Structural Database, then it will include bibliographic, chemical,
# crystal, experimental, refinement or atomic coordinate data resulting
# from the CCDC's data processing and validation procedures.
#
#######################################################################

data_CSD_CIF_SOSBEH
_audit_creation_date 1992-06-24
_audit_creation_method CSD-ConQuest-V1
_database_code_CSD SOSBEH
_chemical_formula_sum 'C29 H47 N1 O4'
_chemical_formula_moiety
;
C29 H47 N1 O4
;
_journal_coden_Cambridge 1137
_journal_volume 3
_journal_year 1990
_journal_page_first 404
_journal_name_full 'J.Phys.Org.Chem. '
loop_
_publ_author_name
"H.Duddeck"
"J.Frelek"
"D.Horvatic"
"B.Kojic-Prodic"
"G.Snatzke"
"W.J.Szczepek"
"P.Wagner"
_chemical_name_systematic
;
(6Z)-5\b,7\b-Oxido-6-hydroxyimino-5\b-cholestan-3\b-ol 3-acetate
;
_chemical_melting_point 453.15
_cell_volume   2724.026
_exptl_special_details
;
Melting point range 453.15-456.15K

;
_diffrn_ambient_temperature ?
_diffrn_special_details
;
The study was carried out at room temperature,in the range 283-303K

;
#These two values have been output from a single CSD field.
_refine_ls_R_factor_gt 0.107
_refine_ls_wR_factor_gt 0.107
_symmetry_cell_setting orthorhombic
_symmetry_space_group_name_H-M 'P 21 21 21'
_symmetry_Int_Tables_number 19
loop_
_symmetry_equiv_pos_site_id
_symmetry_equiv_pos_as_xyz
1 x,y,z
2 1/2+x,1/2-y,-z
3 -x,1/2+y,1/2-z
4 1/2-x,-y,1/2+z
_cell_length_a 7.246(1)
_cell_length_b 11.780(5)
_cell_length_c 31.913(8)
_cell_angle_alpha 90
_cell_angle_beta 90
_cell_angle_gamma 90
_cell_formula_units_Z 4
loop_
_atom_type_symbol
_atom_type_radius_bond
C 0.68
H 0.23
N 0.68
O 0.68
loop_
_atom_site_label
_atom_site_type_symbol
_atom_site_fract_x
_atom_site_fract_y
_atom_site_fract_z
C1 C 0.0703(8) 0.9786(5) 0.1949(2)
C2 C -0.0622(10) 0.9602(5) 0.1579(2)
C3 C 0.0023(9) 0.8608(6) 0.1316(2)
O1 O -0.1406(6) 0.8399(4) 0.1009(1)
C4 C -0.0921(11) 0.7886(6) 0.0655(2)
O2 O 0.0612(9) 0.7596(6) 0.0580(2)
C5 C -0.2502(11) 0.7684(7) 0.0356(2)
C6 C 0.0267(8) 0.7537(5) 0.1576(2)
C7 C 0.1412(8) 0.7734(5) 0.1970(2)
O3 O 0.1409(6) 0.6701(3) 0.2233(1)
C8 C 0.3547(8) 0.7641(5) 0.1974(2)
N1 N 0.4956(6) 0.7816(5) 0.1760(2)
O4 O 0.4535(6) 0.8413(4) 0.1387(1)
C9 C 0.3284(8) 0.6995(5) 0.2381(2)
C10 C 0.3009(7) 0.7775(5) 0.2756(2)
C11 C 0.2292(7) 0.8932(5) 0.2584(2)
C12 C 0.0786(7) 0.8751(5) 0.2241(2)
C13 C 0.1802(8) 0.9716(5) 0.2947(2)
C14 C 0.3413(9) 0.9891(5) 0.3245(2)
C15 C 0.4274(7) 0.8763(4) 0.3402(2)
C16 C 0.4724(7) 0.8030(4) 0.3014(2)
C17 C 0.5874(8) 0.7060(5) 0.3185(2)
C18 C 0.7014(8) 0.7617(5) 0.3540(2)
C19 C 0.6235(7) 0.8826(5) 0.3605(2)
C20 C 0.2941(8) 0.8160(6) 0.3705(2)
C21 C -0.1105(8) 0.8507(6) 0.2438(2)
C22 C 0.6457(8) 0.9251(5) 0.4058(2)
C23 C 0.5675(11) 1.0420(6) 0.4129(2)
C24 C 0.8457(9) 0.9211(6) 0.4195(2)
C25 C 0.8803(8) 0.9395(8) 0.4661(2)
C26 C 1.0774(7) 0.9231(7) 0.4783(2)
C27 C 1.1364(9) 0.9486(11) 0.5214(3)
C28 C 0.9996(13) 0.9341(11) 0.5559(2)
C29 C 1.3326(10) 0.9225(9) 0.5319(3)
H1 H 0.0255(8) 1.0516(5) 0.2127(2)
H2 H 0.2068(8) 0.9941(5) 0.1825(2)
H3 H -0.0667(10) 1.0358(5) 0.1387(2)
H4 H -0.1984(10) 0.9424(5) 0.1699(2)
H5 H 0.1220(29) 0.8918(27) 0.1165(17)
H6 H -0.3756(11) 0.8019(7) 0.0491(2)
H7 H -0.2661(11) 0.6785(7) 0.0301(2)
H8 H -0.2224(11) 0.8108(7) 0.0063(2)
H9 H -0.1080(8) 0.7230(5) 0.1667(2)
H10 H 0.0949(8) 0.6904(5) 0.1387(2)
H11 H 0.5563(27) 0.8506(27) 0.1167(8)
H12 H 0.4104(29) 0.6460(27) 0.2419(18)
H13 H 0.2070(7) 0.7336(5) 0.2963(2)
H14 H 0.3384(29) 0.9346(27) 0.2447(18)
H15 H 0.0661(8) 0.9352(5) 0.3119(2)
H16 H 0.1398(8) 1.0531(5) 0.2822(2)
H17 H 0.4467(9) 1.0377(5) 0.3087(2)
H18 H 0.2922(9) 1.0361(5) 0.3514(2)
H19 H 0.5537(29) 0.8446(27) 0.2849(17)
H20 H 0.5001(8) 0.6395(5) 0.3307(2)
H21 H 0.6767(8) 0.6714(5) 0.2945(2)
H22 H 0.6878(8) 0.7131(5) 0.3825(2)
H23 H 0.8451(8) 0.7659(5) 0.3451(2)
H24 H 0.6985(7) 0.9503(5) 0.3453(2)
H25 H 0.1585(8) 0.8115(6) 0.3565(2)
H26 H 0.2868(8) 0.8634(6) 0.3994(2)
H27 H 0.3435(8) 0.7313(6) 0.3769(2)
H28 H -0.1523(8) 0.9223(6) 0.2627(2)
H29 H -0.1009(8) 0.7760(6) 0.2633(2)
H30 H -0.2111(8) 0.8365(6) 0.2194(2)
H31 H 0.5655(8) 0.8674(5) 0.4248(2)
H32 H 0.4250(11) 1.0441(6) 0.4031(2)
H33 H 0.6460(11) 1.1029(6) 0.3950(2)
H34 H 0.5761(11) 1.0628(6) 0.4458(2)
H35 H 0.9003(9) 0.8389(6) 0.4111(2)
H36 H 0.9196(9) 0.9863(6) 0.4026(2)
H37 H 0.7970(8) 0.8798(8) 0.4835(2)
H38 H 0.8398(8) 1.0250(8) 0.4741(2)
H39 H 1.1589(7) 0.9751(7) 0.4574(2)
H40 H 1.1097(7) 0.8347(7) 0.4731(2)
H41 H 1.1374(9) 1.0401(11) 0.5197(3)
H42 H 0.8634(13) 0.9566(11) 0.5449(2)
H43 H 1.0358(13) 0.9870(11) 0.5823(2)
H44 H 1.0008(13) 0.8461(11) 0.5654(2)
H45 H 1.3604(10) 0.9460(9) 0.5640(3)
H46 H 1.4236(10) 0.9690(9) 0.5113(3)
H47 H 1.3555(10) 0.8325(9) 0.5279(3)
#END
