
#######################################################################
#
#                 Cambridge Crystallographic Data Centre
#                                CCDC
#
#######################################################################
#
# If this CIF has been generated from an entry in the Cambridge
# Structural Database, then it will include bibliographic, chemical,
# crystal, experimental, refinement or atomic coordinate data resulting
# from the CCDC's data processing and validation procedures.
#
#######################################################################

data_CSD_CIF_SOSDOT
_audit_creation_date 1992-05-28
_audit_creation_method CSD-ConQuest-V1
_database_code_CSD SOSDOT
_database_code_depnum_ccdc_archive 'CCDC 1262419'
_chemical_formula_sum 'C10 H17 N1 O1'
_chemical_formula_moiety
;
C10 H17 N1 O1
;
_journal_coden_Cambridge 3
_journal_volume 45
_journal_year 1991
_journal_page_first 751
_journal_name_full 'Acta Chem.Scand. '
loop_
_publ_author_name
"K.Rissanen"
"K.Laihia"
"J.Korvola"
"E.Kolehmainen"
_chemical_name_systematic
;
(Z)-1,3,3-Trimethylbicyclo(2.2.1)heptan-2-one oxime
;
_chemical_name_common
;
(Z)-Fenchone oxime
;
_cell_volume    995.313
_exptl_crystal_density_diffrn 1.116
_diffrn_ambient_temperature ?
_diffrn_special_details
;
The study was carried out at room temperature,in the range 283-303K

;
#These two values have been output from a single CSD field.
_refine_ls_R_factor_gt 0.052
_refine_ls_wR_factor_gt 0.052
_symmetry_cell_setting monoclinic
_symmetry_space_group_name_H-M 'P 21'
_symmetry_Int_Tables_number 4
loop_
_symmetry_equiv_pos_site_id
_symmetry_equiv_pos_as_xyz
1 x,y,z
2 -x,1/2+y,-z
_cell_length_a 6.219(2)
_cell_length_b 11.250(1)
_cell_length_c 14.475(1)
_cell_angle_alpha 90
_cell_angle_beta 100.64(1)
_cell_angle_gamma 90
_cell_formula_units_Z 4
loop_
_atom_type_symbol
_atom_type_radius_bond
C 0.68
H 0.23
N 0.68
O 0.68
loop_
_atom_site_label
_atom_site_type_symbol
_atom_site_fract_x
_atom_site_fract_y
_atom_site_fract_z
O1 O 0.1656(7) 0.42600 0.3073(3)
N1 N 0.0713(7) 0.4003(4) 0.2115(3)
C1 C -0.1770(8) 0.4632(5) 0.0718(4)
C2 C -0.0651(4) 0.4764(4) 0.1736(4)
C3 C -0.1431(9) 0.5918(5) 0.2118(4)
C4 C -0.3034(9) 0.6355(6) 0.1212(4)
C5 C -0.5093(9) 0.5582(7) 0.1011(5)
C6 C -0.4210(9) 0.4375(6) 0.0726(5)
C7 C -0.1863(9) 0.5952(5) 0.0428(4)
C8 C 0.049(1) 0.6811(6) 0.2378(5)
C9 C -0.259(1) 0.5704(7) 0.2958(4)
C10 C -0.069(1) 0.3754(6) 0.0149(4)
O2 O 0.3290(6) 0.2033(4) 0.1938(3)
N2 N 0.4267(2) 0.2257(4) 0.2885(3)
C11 C 0.7016(9) 0.1634(6) 0.4211(4)
C12 C 0.5805(8) 0.1520(5) 0.3201(4)
C13 C 0.6711(9) 0.0464(5) 0.2745(4)
C14 C 0.855(1) 0.0069(5) 0.3590(4)
C15 C 0.748(1) -0.0518(7) 0.4332(5)
C16 C 0.632(1) 0.0542(7) 0.4724(4)
C17 C 0.933(1) 0.1267(7) 0.4048(5)
C18 C 0.498(1) -0.0477(6) 0.2408(5)
C19 C 0.784(1) 0.0898(8) 0.1923(4)
C20 C 0.681(1) 0.2811(7) 0.4678(5)
H1? H 0.73640 0.64920 0.69970
H2? H 0.76760 0.72280 0.79950
H3? H 1.34600 0.27700 0.87000
H4? H 1.62300 0.40300 0.95100
H5? H 1.57500 0.45100 0.83900
H6? H 1.50400 0.58400 0.99400
H7? H 1.44300 0.62900 0.88100
H8? H 1.03600 0.36500 0.95500
H9? H 1.28100 0.39300 1.02300
H10? H 1.06900 0.70800 0.95600
H11? H 1.15900 0.62600 1.05200
H12? H 0.91100 0.59900 0.98700
H13? H 0.87600 0.30300 0.81900
H14? H 1.01600 0.24100 0.74200
H15? H 0.83700 0.35100 0.70700
H16? H 1.41300 0.39400 0.71100
H17? H 1.24100 0.49800 0.65600
H18? H 1.14400 0.36500 0.68100
H19? H 0.04100 1.05200 0.66500
H20? H 0.13300 1.08700 0.51500
H21? H 0.36100 1.11800 0.59300
H22? H 0.31800 0.93800 0.45600
H23? H 0.53500 0.95700 0.54300
H24? H 0.00100 0.81600 0.63800
H25? H -0.04200 0.88500 0.53300
H26? H 0.48200 0.70900 0.52900
H27? H 0.22700 0.71900 0.46500
H28? H 0.27000 0.64900 0.57000
H29? H 0.57300 1.07600 0.70400
H30? H 0.61700 1.00600 0.80400
H31? H 0.43900 1.12000 0.78900
H32? H 0.05500 0.93200 0.80600
H33? H 0.31400 0.98100 0.83200
H34? H 0.25700 0.83900 0.85200
#END
