
#######################################################################
#
#                 Cambridge Crystallographic Data Centre
#                                CCDC
#
#######################################################################
#
# If this CIF has been generated from an entry in the Cambridge
# Structural Database, then it will include bibliographic, chemical,
# crystal, experimental, refinement or atomic coordinate data resulting
# from the CCDC's data processing and validation procedures.
#
#######################################################################

data_CSD_CIF_SOSFUB
_audit_creation_date 1992-05-28
_audit_creation_method CSD-ConQuest-V1
_database_code_CSD SOSFUB
_chemical_formula_sum 'C14 H23 N1 O8'
_chemical_formula_moiety
;
C14 H23 N1 O8
;
_journal_coden_Cambridge 10
_journal_volume 74
_journal_year 1991
_journal_page_first 1555
_journal_name_full 'Helv.Chim.Acta '
loop_
_publ_author_name
"K.Mahmood"
"A.Vasella"
"B.Bernet"
_chemical_name_systematic
;
2-Deoxy-3,4-O-isopropylidene-2-nitro-6-O-pivaloyl-\b-D-psicofuranose
;
_chemical_melting_point 366.15
_cell_volume    846.873
_exptl_crystal_colour 'colorless'
_exptl_crystal_density_diffrn 1.307
_exptl_special_details
;
Melting point range 366.15-367.15K

;
_diffrn_ambient_temperature 213.15
#These two values have been output from a single CSD field.
_refine_ls_R_factor_gt 0.0392
_refine_ls_wR_factor_gt 0.0392
_symmetry_cell_setting monoclinic
_symmetry_space_group_name_H-M 'P 21'
_symmetry_Int_Tables_number 4
loop_
_symmetry_equiv_pos_site_id
_symmetry_equiv_pos_as_xyz
1 x,y,z
2 -x,1/2+y,-z
_cell_length_a 9.701(2)
_cell_length_b 6.9514(8)
_cell_length_c 12.886(2)
_cell_angle_alpha 90
_cell_angle_beta 102.95(1)
_cell_angle_gamma 90
_cell_formula_units_Z 2
loop_
_atom_type_symbol
_atom_type_radius_bond
C 0.68
N 0.68
O 0.68
loop_
_atom_site_label
_atom_site_type_symbol
_atom_site_fract_x
_atom_site_fract_y
_atom_site_fract_z
O1 O -0.1191(2) 0.66620 0.8495(1)
O2 O -0.1621(2) 0.6722(5) 0.5839(1)
O3 O -0.2228(2) 0.4045(5) 0.6629(1)
O4 O -0.2168(2) 1.0472(5) 0.8234(2)
O5 O 0.0864(2) 1.0057(5) 0.7518(2)
O6 O 0.1043(2) 0.8850(5) 0.9100(2)
O7 O 0.1742(2) 0.4799(5) 0.8535(1)
O8 O 0.3368(2) 0.4336(5) 1.0032(2)
N1 N 0.0466(3) 0.8986(5) 0.8156(2)
C1 C -0.2076(3) 0.9281(6) 0.7365(2)
C2 C -0.0900(3) 0.7809(6) 0.7694(2)
C3 C -0.0589(3) 0.6475(6) 0.6809(2)
C4 C -0.0822(3) 0.4460(6) 0.7201(2)
C5 C -0.0768(3) 0.4676(6) 0.8382(2)
C6 C 0.0658(3) 0.4232(6) 0.9092(2)
C7 C -0.2378(3) 0.4929(6) 0.5617(2)
C8 C -0.3918(4) 0.5355(8) 0.5184(3)
C9 C -0.1718(5) 0.3729(8) 0.4880(3)
C10 C 0.3085(3) 0.4668(6) 0.9088(2)
C11 C 0.4140(3) 0.4921(7) 0.8397(3)
C12 C 0.3831(8) 0.344(1) 0.7507(7)
C13 C 0.5640(4) 0.467(1) 0.9090(5)
C14 C 0.4008(5) 0.6990(8) 0.7960(4)
#END
