
#######################################################################
#
#                 Cambridge Crystallographic Data Centre
#                                CCDC
#
#######################################################################
#
# If this CIF has been generated from an entry in the Cambridge
# Structural Database, then it will include bibliographic, chemical,
# crystal, experimental, refinement or atomic coordinate data resulting
# from the CCDC's data processing and validation procedures.
#
#######################################################################

data_CSD_CIF_SOSFEL
_audit_creation_date 1992-05-28
_audit_creation_method CSD-ConQuest-V1
_database_code_CSD SOSFEL
_database_code_depnum_ccdc_archive 'CCDC 1262422'
_chemical_formula_sum 'C10 H15 N1 O1'
_chemical_formula_moiety
;
C10 H15 N1 O1
;
_journal_coden_Cambridge 3
_journal_volume 45
_journal_year 1991
_journal_page_first 751
_journal_name_full 'Acta Chem.Scand. '
loop_
_publ_author_name
"K.Rissanen"
"K.Laihia"
"J.Korvola"
"E.Kolehmainen"
_chemical_name_systematic
;
6,6-Dimethyl-3-oxa-4-azatricyclo(5.2.1.0^1,5^)dec-4-ene
;
_cell_volume    456.034
_exptl_crystal_density_diffrn 1.203
_exptl_special_details
;
Calculated hydrogens suppressed

;
_diffrn_ambient_temperature ?
_diffrn_special_details
;
The study was carried out at room temperature,in the range 283-303K

;
#These two values have been output from a single CSD field.
_refine_ls_R_factor_gt 0.034
_refine_ls_wR_factor_gt 0.034
_symmetry_cell_setting monoclinic
_symmetry_space_group_name_H-M 'P 21'
_symmetry_Int_Tables_number 4
loop_
_symmetry_equiv_pos_site_id
_symmetry_equiv_pos_as_xyz
1 x,y,z
2 -x,1/2+y,-z
_cell_length_a 6.152(4)
_cell_length_b 10.278(8)
_cell_length_c 7.764(7)
_cell_angle_alpha 90
_cell_angle_beta 111.73(11)
_cell_angle_gamma 90
_cell_formula_units_Z 2
loop_
_atom_type_symbol
_atom_type_radius_bond
C 0.68
H 0.23
N 0.68
O 0.68
loop_
_atom_site_label
_atom_site_type_symbol
_atom_site_fract_x
_atom_site_fract_y
_atom_site_fract_z
O1 O 0.3428(4) 0.60400 -0.1040(2)
N1 N 0.3791(4) 0.5535(3) 0.0778(3)
C1 C 0.1711(4) 0.7492(4) 0.0435(3)
C2 C 0.2822(4) 0.6323(3) 0.1526(3)
C3 C 0.2787(4) 0.6398(3) 0.3452(3)
C4 C 0.1607(5) 0.7765(4) 0.3270(4)
C5 C -0.0994(5) 0.7693(4) 0.2017(4)
C6 C -0.0939(4) 0.7417(4) 0.0071(4)
C7 C 0.2559(5) 0.8502(4) 0.1973(3)
C8 C 0.5276(5) 0.6426(5) 0.4941(4)
C9 C 0.1455(5) 0.5276(4) 0.3899(4)
C10 C 0.2508(5) 0.7358(4) -0.1178(4)
H1? H 0.81100 0.18600 0.54300
H2? H 1.18300 0.30400 0.75700
H3? H 1.18200 0.14400 0.79700
H4? H 1.18600 0.18900 1.08800
H5? H 1.16000 0.34900 1.03900
H6? H 0.56500 0.13900 0.74900
H7? H 0.82200 0.06000 0.84300
H8? H 0.38100 0.28100 0.53200
H9? H 0.39000 0.44400 0.51000
H10? H 0.48000 0.34600 0.37600
H11? H 1.02300 0.47600 0.70700
H12? H 0.85900 0.46000 0.48000
H13? H 0.76900 0.55800 0.61400
H14? H 0.62000 0.19700 1.10800
H15? H 0.88800 0.25100 1.24100
#END
