
#######################################################################
#
#                 Cambridge Crystallographic Data Centre
#                                CCDC
#
#######################################################################
#
# If this CIF has been generated from an entry in the Cambridge
# Structural Database, then it will include bibliographic, chemical,
# crystal, experimental, refinement or atomic coordinate data resulting
# from the CCDC's data processing and validation procedures.
#
#######################################################################

data_CSD_CIF_SOSGOY
_audit_creation_date 2014-11-03
_audit_creation_method CSD-ConQuest-V1
_database_code_CSD SOSGOY
_database_code_depnum_ccdc_archive 'CCDC 813047'
_chemical_formula_sum 'C10 H10 N2 O4'
_chemical_formula_moiety
;
C10 H10 N2 O4
;
_journal_coden_Cambridge 1291
_journal_year 2014
_journal_page_first 7865
_journal_name_full 'Eur.J.Org.Chem. '
loop_
_publ_author_name
"Inga Kholod"
"O.Vallat"
"A.-M.Buciumas"
"A.Neels"
"R.Neier"
_chemical_name_systematic
;
4-hydroxy-4-(2-nitrophenyl)pyrrolidin-2-one
;
_cell_volume    999.847
_exptl_crystal_colour 'colorless'
_exptl_crystal_density_diffrn 1.476
_exptl_crystal_description 'plate'
_diffrn_ambient_temperature 153
#These two values have been output from a single CSD field.
_refine_ls_R_factor_gt 0.0447
_refine_ls_wR_factor_gt 0.0447
_symmetry_cell_setting monoclinic
_symmetry_space_group_name_H-M 'P 21/n'
_symmetry_Int_Tables_number 14
loop_
_symmetry_equiv_pos_site_id
_symmetry_equiv_pos_as_xyz
1 x,y,z
2 1/2-x,1/2+y,1/2-z
3 -x,-y,-z
4 -1/2+x,-1/2-y,-1/2+z
_cell_length_a 9.0063(19)
_cell_length_b 11.104(2)
_cell_length_c 10.431(2)
_cell_angle_alpha 90
_cell_angle_beta 106.569(19)
_cell_angle_gamma 90
_cell_formula_units_Z 4
loop_
_atom_type_symbol
_atom_type_radius_bond
C 0.68
H 0.23
N 0.68
O 0.68
loop_
_atom_site_label
_atom_site_type_symbol
_atom_site_fract_x
_atom_site_fract_y
_atom_site_fract_z
O1 O 0.1426(2) 0.12469(14) 0.54581(16)
O2 O -0.02639(17) 0.19486(14) 0.37271(14)
O3 O 0.25105(16) 0.21499(11) 0.29038(12)
H1 H 0.348(3) 0.209(2) 0.333(3)
O4 O 0.05023(16) 0.34076(14) -0.08086(11)
N1 N 0.08840(19) 0.20626(14) 0.46880(15)
N2 N 0.27785(18) 0.38190(16) 0.07566(15)
H2 H 0.335(3) 0.403(3) 0.021(3)
C1 C 0.15608(19) 0.32697(15) 0.49958(15)
C2 C 0.1551(2) 0.37034(19) 0.62409(17)
H3 H 0.12210 0.32040 0.68470
C3 C 0.2023(2) 0.4858(2) 0.65820(18)
H4 H 0.20250 0.51710 0.74300
C4 C 0.2496(2) 0.55624(18) 0.56924(19)
H5 H 0.27960 0.63730 0.59180
C5 C 0.2539(2) 0.51048(16) 0.44691(17)
H6 H 0.28950 0.56070 0.38800
C6 C 0.20794(18) 0.39359(14) 0.40753(15)
C7 C 0.21793(19) 0.34004(14) 0.27555(15)
C8 C 0.3399(2) 0.40243(18) 0.21849(16)
H7 H 0.34750 0.48960 0.23950
H8 H 0.44330 0.36500 0.25390
C9 C 0.1274(2) 0.35598(16) 0.03682(16)
C10 C 0.0699(2) 0.35182(17) 0.15893(15)
H9 H 0.00080 0.28180 0.15550
H10 H 0.01310 0.42640 0.16710
#END
