
#######################################################################
#
#                 Cambridge Crystallographic Data Centre
#                                CCDC
#
#######################################################################
#
# If this CIF has been generated from an entry in the Cambridge
# Structural Database, then it will include bibliographic, chemical,
# crystal, experimental, refinement or atomic coordinate data resulting
# from the CCDC's data processing and validation procedures.
#
#######################################################################

data_CSD_CIF_SOSHAL
_audit_creation_date 2014-11-03
_audit_creation_method CSD-ConQuest-V1
_database_code_CSD SOSHAL
_database_code_depnum_ccdc_archive 'CCDC 813045'
_chemical_formula_sum 'C20 H24 N2 O7'
_chemical_formula_moiety
;
C20 H24 N2 O7
;
_journal_coden_Cambridge 1291
_journal_year 2014
_journal_page_first 7865
_journal_name_full 'Eur.J.Org.Chem. '
loop_
_publ_author_name
"Inga Kholod"
"O.Vallat"
"A.-M.Buciumas"
"A.Neels"
"R.Neier"
_chemical_name_systematic
;
t-butyl 2-((t-butoxycarbonyl)oxy)-4-(2-nitrophenyl)-1H-pyrrole-1-carboxylate
;
_cell_volume   4228.372
_exptl_crystal_colour 'colorless'
_exptl_crystal_density_diffrn 1.271
_exptl_crystal_description 'block'
_diffrn_ambient_temperature 293
#These two values have been output from a single CSD field.
_refine_ls_R_factor_gt 0.0324
_refine_ls_wR_factor_gt 0.0324
_symmetry_cell_setting orthorhombic
_symmetry_space_group_name_H-M 'P 21 21 21'
_symmetry_Int_Tables_number 19
loop_
_symmetry_equiv_pos_site_id
_symmetry_equiv_pos_as_xyz
1 x,y,z
2 1/2-x,-y,1/2+z
3 1/2+x,1/2-y,-z
4 -x,1/2+y,1/2-z
_cell_length_a 12.7004(6)
_cell_length_b 12.8660(7)
_cell_length_c 25.8769(13)
_cell_angle_alpha 90
_cell_angle_beta 90
_cell_angle_gamma 90
_cell_formula_units_Z 8
loop_
_atom_type_symbol
_atom_type_radius_bond
C 0.68
H 0.23
N 0.68
O 0.68
loop_
_atom_site_label
_atom_site_type_symbol
_atom_site_fract_x
_atom_site_fract_y
_atom_site_fract_z
O1 O -0.42045(18) -0.11603(15) -0.45353(8)
O2 O -0.42267(18) -0.20188(18) -0.52390(8)
O3 O -0.15715(10) 0.00034(9) -0.60044(4)
O4 O -0.03473(11) 0.10412(10) -0.56305(4)
O5 O 0.01325(10) 0.0534(1) -0.46311(4)
O6 O 0.05995(10) 0.21323(10) -0.46171(5)
O7 O -0.11323(11) 0.17469(10) -0.45174(5)
N1 N -0.39757(14) -0.19031(14) -0.47890(7)
N2 N -0.11461(12) -0.02794(11) -0.51852(5)
C1 C -0.33066(15) -0.27046(14) -0.45522(7)
C2 C -0.37924(18) -0.36106(16) -0.44000(8)
H1 H -0.45110 -0.37050 -0.44510
C3 C -0.3197(2) -0.43720(16) -0.41712(8)
H2 H -0.35070 -0.49970 -0.40740
C4 C -0.21349(18) -0.42086(16) -0.40855(7)
H3 H -0.17350 -0.47190 -0.39230
C5 C -0.16651(17) -0.32900(15) -0.42401(7)
H4 H -0.09510 -0.31890 -0.41780
C6 C -0.22424(15) -0.25132(14) -0.44866(6)
C7 C -0.17125(14) -0.15666(14) -0.46764(6)
C8 C -0.18092(15) -0.11377(14) -0.51543(7)
H5 H -0.22460 -0.13780 -0.54170
C9 C -0.06357(14) -0.01991(13) -0.47083(6)
C10 C -0.09586(15) -0.09642(15) -0.43931(7)
H6 H -0.07360 -0.10810 -0.40560
C11 C -0.09675(15) 0.03374(14) -0.56247(6)
C12 C -0.14560(16) 0.04304(15) -0.65386(6)
C13 C -0.2292(2) -0.01859(17) -0.68248(8)
H7 H -0.21250 -0.09130 -0.68080
H8 H -0.23130 0.00320 -0.71790
H9 H -0.29660 -0.00670 -0.66680
C14 C -0.03671(19) 0.01847(18) -0.67363(7)
H10 H 0.01370 0.06270 -0.65680
H11 H -0.03420 0.03000 -0.71030
H12 H -0.02030 -0.05290 -0.66640
C15 C -0.16964(18) 0.15831(15) -0.65459(7)
H13 H -0.23820 0.17010 -0.64010
H14 H -0.16810 0.18310 -0.68960
H15 H -0.11790 0.19470 -0.63450
C16 C -0.02336(15) 0.15280(14) -0.45837(6)
C17 C 0.04727(17) 0.32735(15) -0.45866(8)
C18 C -0.0314(2) 0.36447(18) -0.49827(10)
H16 H -0.01750 0.33130 -0.53080
H17 H -0.02550 0.43840 -0.50220
H18 H -0.10130 0.34730 -0.48700
C19 C 0.15698(19) 0.36454(17) -0.47176(9)
H19 H 0.20640 0.33510 -0.44780
H20 H 0.15950 0.43900 -0.46950
H21 H 0.17470 0.34320 -0.50620
C20 C 0.0166(2) 0.3555(2) -0.40352(9)
H22 H 0.01520 0.42970 -0.39990
H23 H 0.06720 0.32670 -0.37990
H24 H -0.05190 0.32770 -0.39600
O8 O -0.15780(13) -0.18257(12) -0.25019(7)
O9 O -0.05537(15) -0.19714(13) -0.31647(6)
O10 O -0.59302(11) -0.3519(1) -0.19322(5)
O11 O -0.65293(11) -0.21795(11) -0.24172(5)
O12 O -0.50871(10) -0.13493(9) -0.30851(4)
O13 O -0.63922(11) -0.06735(10) -0.34860(5)
O14 O -0.60452(12) -0.23922(10) -0.36117(5)
N3 N -0.11276(13) -0.23442(13) -0.28318(6)
N4 N -0.48809(11) -0.28546(11) -0.25368(5)
C21 C -0.12554(15) -0.34733(15) -0.28193(7)
C22 C -0.03433(17) -0.40525(17) -0.28596(7)
H25 H 0.03000 -0.37260 -0.29150
C23 C -0.03964(18) -0.51233(17) -0.28171(8)
H26 H 0.02120 -0.55240 -0.28370
C24 C -0.13636(18) -0.55876(17) -0.27445(8)
H27 H -0.14040 -0.63060 -0.27120
C25 C -0.22738(16) -0.50026(15) -0.27187(7)
H28 H -0.29170 -0.53390 -0.26780
C26 C -0.22539(15) -0.39235(14) -0.27520(6)
C27 C -0.32420(14) -0.33307(13) -0.27395(6)
C28 C -0.40773(14) -0.35581(13) -0.24316(6)
H29 H -0.41070 -0.40940 -0.21910
C29 C -0.45157(15) -0.21878(13) -0.29236(6)
C30 C -0.35281(14) -0.24575(14) -0.30525(6)
H30 H -0.31080 -0.21360 -0.33000
C31 C -0.58753(15) -0.27969(14) -0.22948(6)
C32 C -0.68248(16) -0.35201(16) -0.15532(7)
C33 C -0.78572(18) -0.37242(19) -0.18299(8)
H31 H -0.79820 -0.31840 -0.20780
H32 H -0.84210 -0.37350 -0.15830
H33 H -0.78220 -0.43830 -0.20040
C34 C -0.68206(18) -0.24950(17) -0.12631(8)
H34 H -0.61280 -0.23650 -0.11290
H35 H -0.73140 -0.25280 -0.09830
H36 H -0.70170 -0.19440 -0.14940
C35 C -0.6538(2) -0.44196(17) -0.12075(8)
H37 H -0.64670 -0.50390 -0.14120
H38 H -0.70800 -0.45180 -0.09540
H39 H -0.58820 -0.42750 -0.10370
C36 C -0.58936(15) -0.15616(14) -0.34238(6)
C37 C -0.72923(17) -0.05994(17) -0.38566(7)
C38 C -0.6914(2) -0.08629(19) -0.43939(7)
H40 H -0.62870 -0.04740 -0.44690
H41 H -0.74510 -0.06890 -0.46400
H42 H -0.67630 -0.15930 -0.44140
C39 C -0.8173(2) -0.1300(2) -0.36785(10)
H43 H -0.79490 -0.20110 -0.36990
H44 H -0.87770 -0.11990 -0.38960
H45 H -0.83530 -0.11350 -0.33280
C40 C -0.7569(2) 0.0540(2) -0.38122(10)
H46 H -0.77430 0.07000 -0.34600
H47 H -0.81610 0.06910 -0.40300
H48 H -0.69770 0.09530 -0.39180
#END
