
#######################################################################
#
#                 Cambridge Crystallographic Data Centre
#                                CCDC
#
#######################################################################
#
# If this CIF has been generated from an entry in the Cambridge
# Structural Database, then it will include bibliographic, chemical,
# crystal, experimental, refinement or atomic coordinate data resulting
# from the CCDC's data processing and validation procedures.
#
#######################################################################

data_CSD_CIF_SOSWUU
_audit_creation_date 2014-11-04
_audit_creation_method CSD-ConQuest-V1
_database_code_CSD SOSWUU
_database_code_depnum_ccdc_archive 'CCDC 1031393'
_chemical_formula_sum 'C14 H9 N1 O5'
_chemical_formula_moiety
;
C14 H9 N1 O5
;
_journal_coeditor_code "IUCr su2795"
_journal_coden_Cambridge 1370
_journal_volume 70
_journal_year 2014
_journal_page_first 456
_journal_name_full 'Acta Crystallogr.,Sect.E:Struct.Rep.Online '
loop_
_publ_author_name
"F.Ezemobi"
"H.North"
"K.R.Scott"
"A.K.Wutoh"
"R.J.Butcher"
_chemical_name_systematic
;
2-((methoxycarbonyl)oxy)-1H-benzo[de]isoquinoline-1,3(2H)-dione
;
_cell_volume   2304.689
_exptl_crystal_colour 'colorless'
_exptl_crystal_density_diffrn 1.563
_exptl_crystal_description 'needle'
_diffrn_ambient_temperature 123
#These two values have been output from a single CSD field.
_refine_ls_R_factor_gt 0.0796
_refine_ls_wR_factor_gt 0.0796
_symmetry_cell_setting monoclinic
_symmetry_space_group_name_H-M 'P 21/c'
_symmetry_Int_Tables_number 14
loop_
_symmetry_equiv_pos_site_id
_symmetry_equiv_pos_as_xyz
1 x,y,z
2 -x,1/2+y,1/2-z
3 -x,-y,-z
4 x,-1/2-y,-1/2+z
_cell_length_a 16.512(3)
_cell_length_b 18.579(3)
_cell_length_c 7.6156(13)
_cell_angle_alpha 90
_cell_angle_beta 99.434(17)
_cell_angle_gamma 90
_cell_formula_units_Z 8
loop_
_atom_type_symbol
_atom_type_radius_bond
C 0.68
H 0.23
N 0.68
O 0.68
loop_
_atom_site_label
_atom_site_type_symbol
_atom_site_fract_x
_atom_site_fract_y
_atom_site_fract_z
O1 O 0.3491(2) 0.31532(15) 0.1257(5)
O2 O 0.5630(2) 0.44236(15) 0.4206(4)
O3 O 0.4152(2) 0.43894(14) 0.2299(4)
O4 O 0.3270(2) 0.41710(15) 0.4258(4)
O5 O 0.31114(19) 0.50794(14) 0.2257(4)
N1 N 0.4539(3) 0.37502(17) 0.2925(5)
C1 C 0.4144(3) 0.3116(2) 0.2245(7)
C2 C 0.4578(3) 0.2448(2) 0.2868(6)
C3 C 0.5339(3) 0.2484(2) 0.4016(6)
C4 C 0.5716(3) 0.3145(2) 0.4574(6)
C5 C 0.5329(3) 0.3829(2) 0.3934(6)
C6 C 0.4237(3) 0.1799(2) 0.2309(6)
H1 H 0.37220 0.17850 0.15430
C7 C 0.4646(3) 0.1149(2) 0.2864(7)
H2 H 0.44150 0.07000 0.24510
C8 C 0.5375(3) 0.1174(2) 0.3996(7)
H3 H 0.56420 0.07350 0.43760
C9 C 0.5748(3) 0.1828(2) 0.4622(7)
C10 C 0.6507(3) 0.1873(2) 0.5762(7)
H4 H 0.67860 0.14430 0.61710
C11 C 0.6852(3) 0.2519(2) 0.6293(6)
H5 H 0.73650 0.25340 0.70690
C12 C 0.6457(3) 0.3158(2) 0.5705(6)
H6 H 0.67010 0.36060 0.60870
C13 C 0.3473(3) 0.4514(2) 0.3079(7)
C14 C 0.2353(3) 0.5276(2) 0.2859(6)
H7 H 0.21340 0.57170 0.22530
H8 H 0.24590 0.53580 0.41470
H9 H 0.19530 0.48860 0.25830
O6 O 0.1669(2) 0.82517(15) 0.5198(4)
O7 O -0.0410(2) 0.95254(15) 0.2005(4)
O8 O 0.1021(2) 0.94818(14) 0.4052(4)
O9 O 0.1866(2) 0.92546(16) 0.2003(4)
O10 O 0.1998(2) 1.02184(14) 0.3847(4)
N2 N 0.0622(3) 0.88420(17) 0.3479(5)
C15 C 0.1017(3) 0.8213(2) 0.4202(7)
C16 C 0.0594(3) 0.7545(2) 0.3564(6)
C17 C -0.0186(3) 0.7576(2) 0.2461(6)
C18 C -0.0567(3) 0.8244(2) 0.1926(6)
C19 C -0.0156(3) 0.8933(2) 0.2436(7)
C20 C 0.0945(3) 0.6896(2) 0.4060(6)
H10 H 0.14620 0.68790 0.48200
C21 C 0.0547(3) 0.6251(2) 0.3450(7)
H11 H 0.08030 0.58020 0.37800
C22 C -0.0194(3) 0.6266(2) 0.2403(7)
H12 H -0.04540 0.58250 0.20160
C23 C -0.0595(3) 0.6923(2) 0.1864(6)
C24 C -0.1376(3) 0.6966(2) 0.0811(7)
H13 H -0.16520 0.65350 0.03950
C25 C -0.1745(3) 0.7611(2) 0.0371(7)
H14 H -0.22820 0.76260 -0.03070
C26 C -0.1335(3) 0.8257(2) 0.0917(7)
H15 H -0.15920 0.87050 0.05850
C27 C 0.1661(3) 0.9614(2) 0.3143(7)
C28 C 0.2722(3) 1.0450(2) 0.3140(7)
H16 H 0.29530 1.08800 0.37790
H17 H 0.25690 1.05620 0.18710
H18 H 0.31320 1.00630 0.32920
#END
