
#######################################################################
#
#                 Cambridge Crystallographic Data Centre
#                                CCDC
#
#######################################################################
#
# If this CIF has been generated from an entry in the Cambridge
# Structural Database, then it will include bibliographic, chemical,
# crystal, experimental, refinement or atomic coordinate data resulting
# from the CCDC's data processing and validation procedures.
#
#######################################################################

data_CSD_CIF_SOSWOO
_audit_creation_date 2014-11-04
_audit_creation_method CSD-ConQuest-V1
_database_code_CSD SOSWOO
_database_code_depnum_ccdc_archive 'CCDC 1031392'
_chemical_formula_sum 'C10 H7 N1 O5'
_chemical_formula_moiety
;
C10 H7 N1 O5
;
_journal_coeditor_code "IUCr su2795"
_journal_coden_Cambridge 1370
_journal_volume 70
_journal_year 2014
_journal_page_first 456
_journal_name_full 'Acta Crystallogr.,Sect.E:Struct.Rep.Online '
loop_
_publ_author_name
"F.Ezemobi"
"H.North"
"K.R.Scott"
"A.K.Wutoh"
"R.J.Butcher"
_chemical_name_systematic
;
2-((methoxycarbonyl)oxy)-1H-isoindole-1,3(2H)-dione
;
_cell_volume    942.946
_exptl_crystal_colour 'colorless'
_exptl_crystal_density_diffrn 1.558
_exptl_crystal_description 'prism'
_diffrn_ambient_temperature 123
#These two values have been output from a single CSD field.
_refine_ls_R_factor_gt 0.0332
_refine_ls_wR_factor_gt 0.0332
_symmetry_cell_setting triclinic
_symmetry_space_group_name_H-M 'P -1'
_symmetry_Int_Tables_number 2
loop_
_symmetry_equiv_pos_site_id
_symmetry_equiv_pos_as_xyz
1 x,y,z
2 -x,-y,-z
_cell_length_a 7.0363(4)
_cell_length_b 11.0082(5)
_cell_length_c 12.4239(6)
_cell_angle_alpha 98.884(4)
_cell_angle_beta 96.159(4)
_cell_angle_gamma 93.009(4)
_cell_formula_units_Z 4
loop_
_atom_type_symbol
_atom_type_radius_bond
C 0.68
H 0.23
N 0.68
O 0.68
loop_
_atom_site_label
_atom_site_type_symbol
_atom_site_fract_x
_atom_site_fract_y
_atom_site_fract_z
O1 O 0.58069(12) 0.94400(7) -0.10814(7)
O2 O 0.70600(12) 0.59365(8) 0.03549(7)
O3 O 0.71408(11) 0.85375(7) 0.08575(6)
O4 O 0.45369(12) 0.79308(7) 0.16556(7)
O5 O 0.69506(12) 0.92945(8) 0.25353(7)
N1 N 0.62655(14) 0.78226(9) -0.01005(8)
C1 C 0.57541(15) 0.8354(1) -0.10425(9)
C2 C 0.52332(15) 0.72621(10) -0.19136(9)
C3 C 0.44765(16) 0.72094(11) -0.29960(9)
H1 H 0.41980 0.79360 -0.32890
C4 C 0.41381(17) 0.60441(12) -0.36426(10)
H2 H 0.36170 0.59760 -0.43890
C5 C 0.45539(17) 0.49821(11) -0.32085(10)
H3 H 0.43210 0.42020 -0.36670
C6 C 0.53058(16) 0.50392(11) -0.21126(10)
H4 H 0.55820 0.43150 -0.18150
C7 C 0.56299(15) 0.61941(10) -0.14801(9)
C8 C 0.64135(15) 0.65422(10) -0.03083(9)
C9 C 0.60062(16) 0.85373(10) 0.17055(9)
C10 C 0.6040(2) 0.94039(12) 0.35373(10)
H5 H 0.68540 0.99500 0.41240
H6 H 0.58590 0.85880 0.37490
H7 H 0.47930 0.97470 0.34150
O6 O -0.08991(12) 0.51108(8) 0.60519(7)
O7 O -0.11026(13) 0.93213(8) 0.64789(7)
O8 O -0.16633(12) 0.71284(8) 0.49226(6)
O9 O 0.14891(12) 0.77011(8) 0.48293(7)
O10 O -0.07693(12) 0.72731(8) 0.33471(6)
N2 N -0.11179(15) 0.72022(9) 0.60321(8)
C11 C -0.06927(15) 0.61621(10) 0.65099(9)
C12 C -0.00046(15) 0.6697(1) 0.76699(9)
C13 C 0.06678(16) 0.61061(10) 0.85235(9)
H8 H 0.07030 0.52350 0.84300
C14 C 0.12944(16) 0.68463(11) 0.95314(9)
H9 H 0.17720 0.64700 1.01350
C15 C 0.12339(16) 0.81246(11) 0.96696(9)
H10 H 0.16730 0.86030 1.03640
C16 C 0.05364(16) 0.87132(10) 0.88024(9)
H11 H 0.04820 0.95830 0.88940
C17 C -0.00701(15) 0.79761(10) 0.78058(9)
C18 C -0.08039(16) 0.83365(10) 0.67376(9)
C19 C -0.00857(16) 0.74035(10) 0.43860(9)
C20 C 0.06721(18) 0.74950(12) 0.26295(10)
H12 H 0.00970 0.73060 0.18630
H13 H 0.17290 0.69670 0.27450
H14 H 0.11610 0.83620 0.27960
#END
