
#######################################################################
#
#                 Cambridge Crystallographic Data Centre
#                                CCDC
#
#######################################################################
#
# If this CIF has been generated from an entry in the Cambridge
# Structural Database, then it will include bibliographic, chemical,
# crystal, experimental, refinement or atomic coordinate data resulting
# from the CCDC's data processing and validation procedures.
#
#######################################################################

data_CSD_CIF_SOSYAC
_audit_creation_date 2014-11-04
_audit_creation_method CSD-ConQuest-V1
_database_code_CSD SOSYAC
_database_code_depnum_ccdc_archive 'CCDC 1031694'
_chemical_formula_sum 'C15 H15 N3 O6'
_chemical_formula_moiety
;
C15 H15 N3 O6
;
_journal_coeditor_code "IUCr rz5138"
_journal_coden_Cambridge 1370
_journal_volume 70
_journal_year 2014
_journal_page_first o1237
_journal_name_full 'Acta Crystallogr.,Sect.E:Struct.Rep.Online '
loop_
_publ_author_name
"H.A.Shahid"
"S.Jahangir"
"S.A.A.Shah"
"H.M.Zaki"
"H.Naz"
_chemical_name_systematic
;
2-(((1-(2-methyl-5-nitro-1H-imidazol-1-yl)propan-2-yl)oxy)carbonyl)benzoic 
acid
;
_cell_volume   1538.063
_exptl_crystal_colour 'colorless'
_exptl_crystal_density_diffrn 1.439
_exptl_crystal_description 'block'
_diffrn_ambient_temperature 296
#These two values have been output from a single CSD field.
_refine_ls_R_factor_gt 0.0466
_refine_ls_wR_factor_gt 0.0466
_symmetry_cell_setting monoclinic
_symmetry_space_group_name_H-M 'P 21/c'
_symmetry_Int_Tables_number 14
loop_
_symmetry_equiv_pos_site_id
_symmetry_equiv_pos_as_xyz
1 x,y,z
2 -x,1/2+y,1/2-z
3 -x,-y,-z
4 x,-1/2-y,-1/2+z
_cell_length_a 11.189(3)
_cell_length_b 6.9489(17)
_cell_length_c 19.979(5)
_cell_angle_alpha 90
_cell_angle_beta 98.056(10)
_cell_angle_gamma 90
_cell_formula_units_Z 4
loop_
_atom_type_symbol
_atom_type_radius_bond
C 0.68
H 0.23
N 0.68
O 0.68
loop_
_atom_site_label
_atom_site_type_symbol
_atom_site_fract_x
_atom_site_fract_y
_atom_site_fract_z
O1 O 0.06727(13) 0.4222(2) 0.34680(7)
O2 O 0.23305(12) 0.4311(2) 0.29641(7)
O3 O 0.28516(14) 0.5351(2) 0.15189(11)
O4 O 0.26149(10) 0.22096(17) 0.17394(6)
O5 O 0.58254(14) 0.2723(3) 0.08232(9)
O6 O 0.57286(14) 0.3388(2) -0.02413(9)
N1 N 0.23187(14) 0.1045(2) -0.03904(8)
N2 N 0.35718(12) 0.0837(2) 0.05685(7)
N3 N 0.52989(14) 0.2715(2) 0.02452(9)
C1 C 0.12441(16) 0.4255(3) 0.29324(9)
C2 C 0.04179(15) 0.4222(2) 0.22764(9)
C3 C -0.08314(16) 0.4269(3) 0.2260(1)
H1 H -0.11610 0.43220 0.26620
C4 C -0.15808(17) 0.4237(3) 0.16484(11)
H2 H -0.24140 0.42460 0.16400
C5 C -0.10993(18) 0.4191(3) 0.10507(10)
H3 H -0.16080 0.41880 0.06400
C6 C 0.01374(17) 0.4148(3) 0.10593(10)
H4 H 0.04580 0.41200 0.06540
C7 C 0.09033(15) 0.4146(2) 0.16701(9)
C8 C 0.22351(16) 0.4028(3) 0.16476(9)
C9 C 0.39058(15) 0.1846(3) 0.17704(9)
H5 H 0.43200 0.30150 0.16530
C10 C 0.40426(15) 0.0266(3) 0.12629(8)
H6 H 0.48900 -0.00630 0.12860
H7 H 0.36160 -0.08720 0.13820
C11 C 0.24736(15) 0.0342(3) 0.02342(9)
C12 C 0.33437(17) 0.2007(3) -0.04698(9)
H8 H 0.34870 0.26400 -0.08610
C13 C 0.41269(15) 0.1901(3) 0.01123(9)
C14 C 0.4392(2) 0.1213(4) 0.24794(10)
H9 H 0.42990 0.22390 0.27900
H10 H 0.52310 0.08950 0.25020
H11 H 0.39530 0.01040 0.25970
C15 C 0.15837(17) -0.0872(3) 0.05232(10)
H12 H 0.08770 -0.10300 0.01950
H13 H 0.13660 -0.02630 0.09200
H14 H 0.19320 -0.21100 0.06410
H15 H 0.122(3) 0.417(4) 0.3880(16)
#END
