
#######################################################################
#
#                 Cambridge Crystallographic Data Centre
#                                CCDC
#
#######################################################################
#
# If this CIF has been generated from an entry in the Cambridge
# Structural Database, then it will include bibliographic, chemical,
# crystal, experimental, refinement or atomic coordinate data resulting
# from the CCDC's data processing and validation procedures.
#
#######################################################################

data_CSD_CIF_SOSZEF
_audit_creation_date 1992-08-10
_audit_creation_method CSD-ConQuest-V1
_database_code_CSD SOSZEF
_database_code_depnum_ccdc_archive 'CCDC 113054'
_database_code_depnum_ccdc_fiz 'CSD 55562; CSD 320231'
_chemical_formula_sum 'C10 H16 N2 O2'
_chemical_formula_moiety
;
C10 H16 N2 O2
;
_journal_coden_Cambridge 167
_journal_year 1991
_journal_page_first 851
_journal_name_full 'Liebigs Ann. '
loop_
_publ_author_name
"S.Shatzmiller"
"R.Lidor"
"E.Bahar"
"I.Goldberg"
_chemical_name_systematic
;
4,4'-Bi(5,6-dihydro-3-methyl-4H-1,2-oxazine)
;
_chemical_melting_point 376.15
_cell_volume   1038.859
_exptl_crystal_colour 'colorless'
_exptl_crystal_density_diffrn 1.254
_diffrn_ambient_temperature ?
_diffrn_special_details
;
The study was carried out at room temperature,in the range 283-303K

;
#These two values have been output from a single CSD field.
_refine_ls_R_factor_gt 0.039
_refine_ls_wR_factor_gt 0.039
_symmetry_cell_setting monoclinic
_symmetry_space_group_name_H-M 'P 21/c'
_symmetry_Int_Tables_number 14
loop_
_symmetry_equiv_pos_site_id
_symmetry_equiv_pos_as_xyz
1 x,y,z
2 -x,1/2+y,1/2-z
3 -x,-y,-z
4 x,-1/2-y,-1/2+z
_cell_length_a 12.016(2)
_cell_length_b 8.090(1)
_cell_length_c 10.716(5)
_cell_angle_alpha 90
_cell_angle_beta 94.23(2)
_cell_angle_gamma 90
_cell_formula_units_Z 4
loop_
_atom_type_symbol
_atom_type_radius_bond
C 0.68
N 0.68
O 0.68
loop_
_atom_site_label
_atom_site_type_symbol
_atom_site_fract_x
_atom_site_fract_y
_atom_site_fract_z
O1 O 0.2275(1) 0.1745(2) 0.3998(1)
N1 N 0.1380(1) 0.1814(2) 0.4794(1)
C1 C 0.1543(1) 0.1220(2) 0.5891(1)
C2 C 0.2602(1) 0.0420(1) 0.6455(1)
C3 C 0.3497(1) 0.0316(2) 0.5520(1)
C4 C 0.3363(1) 0.1751(2) 0.4644(2)
C5 C 0.0577(1) 0.1387(2) 0.6689(2)
O2 O 0.3117(1) -0.4528(1) 0.6513(1)
N2 N 0.3771(1) -0.3509(2) 0.7362(1)
C6 C 0.3399(1) -0.2075(2) 0.7586(1)
C7 C 0.2339(1) -0.1283(2) 0.7024(1)
C8 C 0.1717(1) -0.2432(2) 0.6076(2)
C9 C 0.1955(1) -0.4192(2) 0.6462(2)
C10 C 0.4105(1) -0.1101(2) 0.8534(2)
#END
