
#######################################################################
#
#                 Cambridge Crystallographic Data Centre
#                                CCDC
#
#######################################################################
#
# If this CIF has been generated from an entry in the Cambridge
# Structural Database, then it will include bibliographic, chemical,
# crystal, experimental, refinement or atomic coordinate data resulting
# from the CCDC's data processing and validation procedures.
#
#######################################################################

data_CSD_CIF_SOTGIR
_audit_creation_date 1992-08-10
_audit_creation_method CSD-ConQuest-V1
_database_code_CSD SOTGIR
_chemical_formula_sum 'C32 H51 N1 O3'
_chemical_formula_moiety
;
C32 H51 N1 O3
;
_journal_coeditor_code "IUCr HU0363"
_journal_coden_Cambridge 591
_journal_volume 48
_journal_year 1992
_journal_page_first 290
_journal_name_full 'Acta Crystallogr.,Sect.C:Cryst.Struct.Commun. '
loop_
_publ_author_name
"S.V.Lindeman"
"M.S.Alexanyan"
"Yu.T.Struchkov"
"R.K.Thaper"
"I.G.Reshetova"
"A.V.Kamernitzky"
_chemical_name_systematic
;
(22S)-3\b-Acetoxy-20-(3-isopropylisoxazolin-5-yl)-4,4,14\a-trimethylproegn-8(9
)-ene
;
_chemical_melting_point 522
_cell_volume   2818.974
_exptl_crystal_colour 'colorless'
_exptl_crystal_density_diffrn 1.173
_exptl_special_details
;
Melting point range 522-523K

;
_diffrn_ambient_temperature 153
#These two values have been output from a single CSD field.
_refine_ls_R_factor_gt 0.0497
_refine_ls_wR_factor_gt 0.0497
_symmetry_cell_setting orthorhombic
_symmetry_space_group_name_H-M 'P 21 21 21'
_symmetry_Int_Tables_number 19
loop_
_symmetry_equiv_pos_site_id
_symmetry_equiv_pos_as_xyz
1 x,y,z
2 1/2+x,1/2-y,-z
3 -x,1/2+y,1/2-z
4 1/2-x,-y,1/2+z
_cell_length_a 7.577(2)
_cell_length_b 10.510(2)
_cell_length_c 35.399(7)
_cell_angle_alpha 90
_cell_angle_beta 90
_cell_angle_gamma 90
_cell_formula_units_Z 4
loop_
_atom_type_symbol
_atom_type_radius_bond
C 0.68
H 0.23
N 0.68
O 0.68
loop_
_atom_site_label
_atom_site_type_symbol
_atom_site_fract_x
_atom_site_fract_y
_atom_site_fract_z
C1 C -0.4261(6) -0.8367(5) -0.1423(1)
C2 C -0.3941(6) -0.8145(5) -0.1001(1)
C3 C -0.2270(6) -0.8802(4) -0.0875(1)
C4 C -0.0602(6) -0.8423(5) -0.1092(1)
C5 C -0.1013(5) -0.8536(4) -0.1524(1)
C6 C 0.0563(5) -0.8180(5) -0.1770(1)
C7 C 0.0269(5) -0.8554(4) -0.2175(1)
C8 C -0.1607(5) -0.8453(4) -0.2315(1)
C9 C -0.2964(5) -0.8232(4) -0.2085(1)
C10 C -0.2737(5) -0.7883(4) -0.1667(1)
C11 C -0.4854(5) -0.8180(4) -0.2236(1)
C12 C -0.5133(5) -0.8417(4) -0.2662(1)
C13 C -0.3518(5) -0.8038(4) -0.2890(1)
C14 C -0.1910(5) -0.8785(4) -0.2723(1)
C15 C -0.0446(5) -0.8440(4) -0.3008(1)
C16 C -0.1400(5) -0.8454(5) -0.3395(1)
C17 C -0.3431(5) -0.8446(4) -0.3313(1)
C18 C -0.3232(6) -0.6584(4) -0.2859(1)
C19 C -0.2675(7) -0.6409(4) -0.1655(1)
C20 C -0.4464(6) -0.7686(4) -0.3613(1)
C21 C -0.6452(6) -0.7632(5) -0.3531(1)
C22 C -0.4096(6) -0.8276(4) -0.4000(1)
C23 C -0.5102(6) -0.7703(5) -0.4336(1)
C24 C -0.6386(6) -0.8751(4) -0.4418(1)
C25 C -0.7878(7) -0.8668(5) -0.4700(1)
C26 C -0.8099(7) -0.9884(5) -0.4924(2)
C27 C -0.9581(7) -0.8324(6) -0.4490(2)
C28 C -0.2042(6) -0.9357(4) -0.0215(1)
C29 C -0.1821(7) -0.8782(5) 0.0172(1)
C30 C -0.2141(6) -1.0244(4) -0.2741(1)
C31 C 0.0850(7) -0.9396(6) -0.0991(1)
C32 C 0.0054(7) -0.7110(5) -0.0977(1)
O1 O -0.2013(4) -0.8465(3) -0.0478(1)
O2 O -0.4629(4) -0.9612(3) -0.3993(1)
O3 O -0.2253(6) -1.0468(3) -0.0273(1)
N1 N -0.6110(5) -0.9778(4) -0.4240(1)
H1 H -0.5406(77) -0.8053(56) -0.1508(16)
H2 H -0.4523(80) -0.9395(58) -0.1470(17)
H3 H -0.4942(80) -0.8471(56) -0.0849(16)
H4 H -0.3667(77) -0.7133(55) -0.0940(16)
H5 H -0.2368(81) -0.9756(53) -0.0906(15)
H6 H -0.1230(78) -0.9538(58) -0.1565(16)
H7 H 0.1675(79) -0.8592(58) -0.1665(16)
H8 H 0.0644(79) -0.7261(57) -0.1769(16)
H9 H 0.0719(83) -0.9472(55) -0.2215(16)
H10 H 0.1107(79) -0.8113(56) -0.2354(16)
H11 H -0.5249(80) -0.7404(55) -0.2197(16)
H12 H -0.5642(82) -0.8874(54) -0.2108(17)
H13 H -0.6227(77) -0.8115(57) -0.2754(16)
H14 H -0.5379(80) -0.9397(56) -0.2718(16)
H15 H 0.052(8) -0.9116(54) -0.2978(16)
H16 H 0.0097(80) -0.7590(55) -0.2920(17)
H17 H -0.1117(83) -0.9275(55) -0.3557(17)
H18 H -0.1014(81) -0.7728(57) -0.3559(17)
H19 H -0.3869(78) -0.9343(57) -0.3330(16)
H20 H -0.2884(79) -0.6306(54) -0.2612(16)
H21 H -0.2231(84) -0.6282(57) -0.3038(17)
H22 H -0.4324(83) -0.6108(57) -0.2956(17)
H23 H -0.3664(82) -0.6010(59) -0.1793(17)
H24 H -0.2872(87) -0.6039(52) -0.1407(17)
H25 H -0.1673(83) -0.6044(59) -0.1765(16)
H26 H -0.3987(79) -0.6685(54) -0.3633(16)
H27 H -0.6809(80) -0.7217(57) -0.3292(17)
H28 H -0.7139(81) -0.7143(55) -0.3723(17)
H29 H -0.6872(80) -0.8607(58) -0.3474(16)
H30 H -0.2727(78) -0.8252(52) -0.4035(16)
H31 H -0.4334(80) -0.7473(55) -0.4547(16)
H32 H -0.5636(79) -0.6788(54) -0.4293(16)
H33 H -0.7553(79) -0.7982(49) -0.4924(16)
H34 H -0.6928(79) -1.0165(55) -0.5084(16)
H35 H -0.8289(81) -1.0734(55) -0.4749(17)
H36 H -0.9082(79) -0.9744(55) -0.5106(16)
H37 H -1.0512(80) -0.8212(55) -0.4687(16)
H38 H -0.9956(81) -0.8928(54) -0.4317(17)
H39 H -0.960(8) -0.7402(55) -0.4382(17)
H40 H -0.2134(84) -0.9361(54) 0.0380(16)
H41 H -0.0650(82) -0.8498(55) 0.0196(16)
H42 H -0.2617(82) -0.7974(52) 0.0165(15)
H43 H -0.1029(82) -1.0704(57) -0.2624(17)
H44 H -0.3116(79) -1.0472(56) -0.2555(17)
H45 H -0.2454(83) -1.0559(53) -0.3000(17)
H46 H 0.1053(80) -0.9512(56) -0.0716(17)
H47 H 0.0414(80) -1.0341(55) -0.1090(16)
H48 H 0.1915(81) -0.9176(53) -0.1081(17)
H49 H 0.0558(81) -0.7001(55) -0.0707(17)
H50 H 0.1009(80) -0.6674(57) -0.1149(16)
H51 H -0.0815(80) -0.6419(55) -0.0966(16)
#END
