
#######################################################################
#
#                 Cambridge Crystallographic Data Centre
#                                CCDC
#
#######################################################################
#
# If this CIF has been generated from an entry in the Cambridge
# Structural Database, then it will include bibliographic, chemical,
# crystal, experimental, refinement or atomic coordinate data resulting
# from the CCDC's data processing and validation procedures.
#
#######################################################################

data_CSD_CIF_SOVGOB
_audit_creation_date 2014-11-04
_audit_creation_method CSD-ConQuest-V1
_database_code_CSD SOVGOB
_database_code_depnum_ccdc_archive 'CCDC 1022207'
_chemical_formula_sum 'C20 H20 N2 O6'
_chemical_formula_moiety
;
C20 H20 N2 O6
;
_journal_coden_Cambridge 182
_journal_volume 50
_journal_year 2014
_journal_page_first 15864
_journal_name_full 'Chem.Commun. '
loop_
_publ_author_name
"R.R.Singh"
"Rai-Shung Liu"
_chemical_name_systematic
;
Diethyl 2,3-bis(oxido(phenyl)iminio)butanedioate
;
_cell_volume   1994.740
_exptl_crystal_colour 'yellow'
_exptl_crystal_density_diffrn 1.28
_exptl_crystal_description 'tabular'
_diffrn_ambient_temperature 296
#These two values have been output from a single CSD field.
_refine_ls_R_factor_gt 0.048
_refine_ls_wR_factor_gt 0.048
_symmetry_cell_setting monoclinic
_symmetry_space_group_name_H-M 'P 21/c'
_symmetry_Int_Tables_number 14
loop_
_symmetry_equiv_pos_site_id
_symmetry_equiv_pos_as_xyz
1 x,y,z
2 -x,1/2+y,1/2-z
3 -x,-y,-z
4 x,-1/2-y,-1/2+z
_cell_length_a 11.8424(8)
_cell_length_b 10.9091(8)
_cell_length_c 16.0091(11)
_cell_angle_alpha 90
_cell_angle_beta 105.318(2)
_cell_angle_gamma 90
_cell_formula_units_Z 4
loop_
_atom_type_symbol
_atom_type_radius_bond
C 0.68
H 0.23
N 0.68
O 0.68
loop_
_atom_site_label
_atom_site_type_symbol
_atom_site_fract_x
_atom_site_fract_y
_atom_site_fract_z
C1 C 0.30150(16) 0.27874(18) 0.50426(12)
C2 C 0.39452(18) 0.18583(19) 0.53675(12)
C3 C 0.59943(19) 0.1491(2) 0.58387(18)
H1 H 0.59830 0.13040 0.64290
H2 H 0.59430 0.07280 0.55200
C4 C 0.7053(2) 0.2127(4) 0.5833(3)
H3 H 0.70920 0.22350 0.52470
H4 H 0.77160 0.16560 0.61470
H5 H 0.70610 0.29130 0.61040
C5 C 0.19151(16) 0.24086(18) 0.44666(12)
C6 C 0.08127(18) 0.2783(2) 0.46738(14)
C7 C -0.1169(2) 0.3356(3) 0.4099(2)
H6 H -0.13420 0.28430 0.45440
H7 H -0.11620 0.42040 0.42820
C8 C -0.2045(3) 0.3187(4) 0.3297(3)
H8 H -0.18230 0.36270 0.28450
H9 H -0.27820 0.34910 0.33530
H10 H -0.21150 0.23310 0.31560
C9 C 0.40191(17) 0.43754(18) 0.60374(12)
C10 C 0.4181(2) 0.3793(2) 0.68183(14)
H11 H 0.37260 0.31200 0.68760
C11 C 0.5035(2) 0.4229(3) 0.75165(15)
H12 H 0.51580 0.38500 0.80530
C12 C 0.5707(2) 0.5224(3) 0.74216(17)
H13 H 0.62980 0.54970 0.78910
C13 C 0.5510(2) 0.5813(2) 0.66395(16)
H14 H 0.59580 0.64930 0.65830
C14 C 0.46500(18) 0.54013(19) 0.59373(14)
H15 H 0.44990 0.58060 0.54080
C15 C 0.09163(16) 0.10426(18) 0.33081(13)
C16 C 0.05702(19) 0.1209(2) 0.24275(13)
H16 H 0.09950 0.17160 0.21550
C17 C -0.0416(2) 0.0612(2) 0.19542(16)
H17 H -0.06740 0.07290 0.13590
C18 C -0.1014(2) -0.0149(3) 0.2356(2)
H18 H -0.16820 -0.05460 0.20330
C19 C -0.0648(2) -0.0337(2) 0.32299(19)
H19 H -0.10600 -0.08690 0.34950
C20 C 0.0335(2) 0.0262(2) 0.37218(15)
H20 H 0.05940 0.01380 0.43170
N1 N 0.31174(14) 0.39457(15) 0.52937(10)
N2 N 0.19433(13) 0.16937(15) 0.38061(10)
O1 O 0.28928(12) 0.14894(15) 0.35920(9)
O2 O 0.07539(15) 0.28612(19) 0.54060(11)
O3 O -0.00342(12) 0.30301(14) 0.39749(9)
O4 O 0.23716(13) 0.47519(14) 0.49157(10)
O5 O 0.37129(13) 0.08317(14) 0.55322(10)
O6 O 0.50079(12) 0.22907(13) 0.54302(9)
#END
