
#######################################################################
#
#                 Cambridge Crystallographic Data Centre
#                                CCDC
#
#######################################################################
#
# If this CIF has been generated from an entry in the Cambridge
# Structural Database, then it will include bibliographic, chemical,
# crystal, experimental, refinement or atomic coordinate data resulting
# from the CCDC's data processing and validation procedures.
#
#######################################################################

data_CSD_CIF_SOVNUN
_audit_creation_date 2009-07-30
_audit_creation_method CSD-ConQuest-V1
_database_code_CSD SOVNUN
_database_code_depnum_ccdc_archive 'CCDC 677193'
_chemical_formula_sum 'C7 H9 N3 O3'
_chemical_formula_moiety
;
C7 H9 N3 O3
;
_journal_coden_Cambridge 119
_journal_volume 920
_journal_year 2009
_journal_page_first 45
_journal_name_full 'J.Mol.Struct. '
loop_
_publ_author_name
"L.Wisniewski"
"A.Urbanowicz"
"L.Jerzykiewcz"
"A.Makarewicz"
"I.Deperasinska"
"G.van der Zwan"
"N.Haraszkiewicz"
"A.Puszko"
"A.Szemik-Hojniak"
_chemical_name_systematic
;
2-(Methylamino)-6-methyl-4-nitropyridine N-oxide
;
_cell_volume    818.540
_exptl_crystal_colour 'yellow'
_exptl_crystal_density_diffrn 1.486
_exptl_special_details
;
fluorescent

;
_exptl_crystal_description 'plate'
_exptl_crystal_preparation 'methanol/water'
_diffrn_ambient_temperature 100
#These two values have been output from a single CSD field.
_refine_ls_R_factor_gt 0.0356
_refine_ls_wR_factor_gt 0.0356
_symmetry_cell_setting monoclinic
_symmetry_space_group_name_H-M 'P 21/n'
_symmetry_Int_Tables_number 14
loop_
_symmetry_equiv_pos_site_id
_symmetry_equiv_pos_as_xyz
1 x,y,z
2 1/2-x,1/2+y,1/2-z
3 -x,-y,-z
4 -1/2+x,-1/2-y,-1/2+z
_cell_length_a 12.588(5)
_cell_length_b 3.839(3)
_cell_length_c 17.880(6)
_cell_angle_alpha 90
_cell_angle_beta 108.68(3)
_cell_angle_gamma 90
_cell_formula_units_Z 4
loop_
_atom_type_symbol
_atom_type_radius_bond
C 0.68
H 0.23
N 0.68
O 0.68
loop_
_atom_site_label
_atom_site_type_symbol
_atom_site_fract_x
_atom_site_fract_y
_atom_site_fract_z
O1 O 0.74032(8) 0.7006(3) 0.16660(5)
O2 O 1.14739(9) 0.1627(3) 0.07836(6)
O3 O 1.23053(8) 0.4964(3) 0.17777(6)
N1 N 0.83625(9) 0.6074(3) 0.15801(6)
N2 N 1.14584(10) 0.3604(3) 0.13214(7)
N3 N 0.9180(1) 0.8598(3) 0.27969(7)
H1 H 0.8527(15) 0.896(4) 0.2775(10)
C1 C 0.93334(11) 0.6953(4) 0.21818(8)
C2 C 1.03696(11) 0.6134(3) 0.20976(8)
H2 H 1.10510 0.67420 0.24940
C3 C 1.03730(11) 0.4413(3) 0.14201(8)
C4 C 0.94016(11) 0.3467(4) 0.08298(8)
H3 H 0.94350 0.22550 0.03750
C5 C 0.83782(11) 0.4326(4) 0.09174(8)
C6 C 0.72717(12) 0.3458(4) 0.03389(8)
H4 H 0.68470 0.56060 0.01570
H5 H 0.68560 0.19530 0.05900
H6 H 0.73810 0.22400 -0.01130
C7 C 1.00970(12) 0.9549(4) 0.34933(8)
H7 H 0.97990 1.07250 0.38700
H8 H 1.06080 1.11220 0.33440
H9 H 1.05030 0.74480 0.37370
#END
