
#######################################################################
#
#                 Cambridge Crystallographic Data Centre
#                                CCDC
#
#######################################################################
#
# If this CIF has been generated from an entry in the Cambridge
# Structural Database, then it will include bibliographic, chemical,
# crystal, experimental, refinement or atomic coordinate data resulting
# from the CCDC's data processing and validation procedures.
#
#######################################################################

data_CSD_CIF_SOWCIS
_audit_creation_date 2014-11-05
_audit_creation_method CSD-ConQuest-V1
_database_code_CSD SOWCIS
_database_code_depnum_ccdc_archive 'CCDC 996989'
_chemical_formula_sum 'C17 H21 N3 O5'
_chemical_formula_moiety
;
C17 H21 N3 O5
;
_journal_coden_Cambridge 1336
_journal_volume 16
_journal_year 2014
_journal_page_first 2768
_journal_name_full 'Org.Lett. '
loop_
_publ_author_name
"T.Arai"
"E.Matsumura"
"H.Masu"
_chemical_name_systematic
;
t-butyl 
(1-(nitromethyl)-2-oxo-1,2,5,6-tetrahydro-4H-pyrrolo[3,2,1-ij]quinolin-1-yl)ca
rbamate
;
_cell_volume    861.372
_exptl_crystal_colour 'colorless'
_exptl_crystal_density_diffrn 1.339
_exptl_special_details
;
Absolute configuration

;
_exptl_crystal_description 'plate'
_diffrn_ambient_temperature 173
#These two values have been output from a single CSD field.
_refine_ls_R_factor_gt 0.0262
_refine_ls_wR_factor_gt 0.0262
_symmetry_cell_setting monoclinic
_symmetry_space_group_name_H-M 'P 21'
_symmetry_Int_Tables_number 4
loop_
_symmetry_equiv_pos_site_id
_symmetry_equiv_pos_as_xyz
1 x,y,z
2 -x,1/2+y,-z
_cell_length_a 9.6031(1)
_cell_length_b 8.4478(1)
_cell_length_c 10.8364(2)
_cell_angle_alpha 90
_cell_angle_beta 101.5272(4)
_cell_angle_gamma 90
_cell_formula_units_Z 2
loop_
_atom_type_symbol
_atom_type_radius_bond
C 0.68
H 0.23
N 0.68
O 0.68
loop_
_atom_site_label
_atom_site_type_symbol
_atom_site_fract_x
_atom_site_fract_y
_atom_site_fract_z
N1 N 0.67700(15) 0.16460(18) 0.60619(14)
N2 N 1.04042(16) 0.21081(18) 0.77439(14)
O1 O 0.81953(14) -0.01159(16) 0.52614(13)
O2 O 0.94152(14) 0.13749(19) 0.80260(13)
O3 O 1.14221(17) 0.2610(2) 0.84931(14)
N3 N 0.91164(15) 0.30669(19) 0.43634(14)
H1 H 0.99710 0.33440 0.42660
O4 O 0.68572(13) 0.25430(19) 0.33626(13)
O5 O 0.85259(13) 0.34754(17) 0.23155(11)
C1 C 0.79186(18) 0.1203(2) 0.56012(16)
C2 C 0.88893(17) 0.2700(2) 0.56235(16)
C3 C 0.80905(17) 0.3934(2) 0.62198(16)
C4 C 0.84045(19) 0.5474(2) 0.65955(17)
H2 H 0.92630 0.59600 0.64850
C5 C 0.7420(2) 0.6301(2) 0.71458(18)
H3 H 0.76120 0.73640 0.74110
C6 C 0.6168(2) 0.5588(2) 0.73096(17)
H4 H 0.55070 0.61860 0.76640
C7 C 0.58540(18) 0.4009(2) 0.69648(16)
C8 C 0.68539(17) 0.3238(2) 0.64342(15)
C9 C 0.45451(19) 0.3111(3) 0.71279(18)
H5 H 0.37090 0.38210 0.69470
H6 H 0.46620 0.27470 0.80110
C10 C 0.42916(19) 0.1677(3) 0.62423(19)
H7 H 0.35230 0.10210 0.64620
H8 H 0.39680 0.20560 0.53670
C11 C 0.56120(19) 0.0651(2) 0.63032(18)
H9 H 0.58810 0.01560 0.71450
H10 H 0.54140 -0.02020 0.56650
C12 C 1.03896(17) 0.2359(2) 0.63819(17)
H11 H 1.07700 0.14030 0.60360
H12 H 1.10200 0.32580 0.62870
C13 C 0.80418(18) 0.2993(2) 0.33335(16)
C14 C 0.7666(2) 0.3190(2) 0.10269(16)
C15 C 0.6301(2) 0.4141(3) 0.0839(2)
H13 H 0.56960 0.37320 0.13960
H14 H 0.57990 0.40490 -0.00400
H15 H 0.65250 0.52550 0.10380
C16 C 0.7409(3) 0.1425(3) 0.0839(2)
H16 H 0.83210 0.08640 0.10180
H17 H 0.69320 0.12210 -0.00330
H18 H 0.68090 0.10490 0.14120
C17 C 0.8634(2) 0.3792(3) 0.01836(19)
H19 H 0.87680 0.49360 0.03010
H20 H 0.82030 0.35710 -0.06980
H21 H 0.95560 0.32590 0.04020
#END
