
#######################################################################
#
#                 Cambridge Crystallographic Data Centre
#                                CCDC
#
#######################################################################
#
# If this CIF has been generated from an entry in the Cambridge
# Structural Database, then it will include bibliographic, chemical,
# crystal, experimental, refinement or atomic coordinate data resulting
# from the CCDC's data processing and validation procedures.
#
#######################################################################

data_CSD_CIF_SOWDEN
_audit_creation_date 1992-09-08
_audit_creation_method CSD-ConQuest-V1
_database_code_CSD SOWDEN
_database_code_depnum_ccdc_fiz 'CSD 52836'
_chemical_formula_sum 'C25 H20 N4 O4'
_chemical_formula_moiety
;
C25 H20 N4 O4
;
_journal_coden_Cambridge 1078
_journal_year 1992
_journal_name_full 'CSD Communication(Private Communication) '
loop_
_publ_author_name
"M.Schildberg"
"T.Debaerdemaeker"
"W.Friedrichsen"
_chemical_name_systematic
;
2,5-Dimethyl-3,8-dioxo-6,7-diphenyl-4-(4-nitrophenyl)-1,2,7-triazatricyclo(3.3
.0.0^4,6^)octane
;
_cell_volume   1069.764
_diffrn_ambient_temperature ?
_diffrn_special_details
;
The study was carried out at room temperature,in the range 283-303K

;
#These two values have been output from a single CSD field.
_refine_ls_R_factor_gt 0.073
_refine_ls_wR_factor_gt 0.073
_symmetry_cell_setting triclinic
_symmetry_space_group_name_H-M 'P -1'
_symmetry_Int_Tables_number 2
loop_
_symmetry_equiv_pos_site_id
_symmetry_equiv_pos_as_xyz
1 x,y,z
2 -x,-y,-z
_cell_length_a 9.027(3)
_cell_length_b 10.410(3)
_cell_length_c 12.692(4)
_cell_angle_alpha 86.48
_cell_angle_beta 69.33
_cell_angle_gamma 73.64
_cell_formula_units_Z 2
loop_
_atom_type_symbol
_atom_type_radius_bond
C 0.68
N 0.68
O 0.68
loop_
_atom_site_label
_atom_site_type_symbol
_atom_site_fract_x
_atom_site_fract_y
_atom_site_fract_z
C1 C 0.7929(10) 0.5804(8) 0.2381(7)
C2 C 0.9875(8) 0.7254(6) 0.1842(6)
C3 C 1.0612(8) 0.7971(6) 0.2508(5)
C4 C 1.0966(8) 0.9240(6) 0.2002(5)
C5 C 1.0145(9) 1.0474(6) 0.2522(6)
C6 C 1.0593(9) 1.1617(7) 0.2028(6)
C7 C 1.1835(8) 1.1466(6) 0.1026(6)
C8 C 1.2644(9) 1.0259(7) 0.0457(6)
C9 C 1.2195(9) 0.9139(7) 0.0964(6)
C10 C 1.1622(8) 0.7052(6) 0.3160(5)
C11 C 1.2820(7) 0.7455(6) 0.3591(5)
C12 C 1.3734(9) 0.8328(7) 0.3061(7)
C13 C 1.4728(10) 0.8661(8) 0.3607(9)
C14 C 1.4817(10) 0.8129(8) 0.4584(7)
C15 C 1.3926(11) 0.7241(10) 0.5103(7)
C16 C 1.2898(9) 0.6895(8) 0.4605(6)
C17 C 1.3439(7) 0.4685(6) 0.2557(5)
C18 C 1.4619(9) 0.5063(7) 0.1656(5)
C19 C 1.6132(9) 0.4196(7) 0.1138(6)
C20 C 1.6513(10) 0.2902(8) 0.1496(6)
C21 C 1.5334(10) 0.2515(8) 0.2382(7)
C22 C 1.3822(10) 0.3383(7) 0.2914(6)
C23 C 1.0388(8) 0.5324(6) 0.3561(5)
C24 C 0.9839(7) 0.7672(6) 0.3716(5)
C25 C 0.9025(10) 0.8577(7) 0.4740(6)
N1 N 0.9069(6) 0.6555(5) 0.3724(4)
N2 N 0.8874(6) 0.6660(5) 0.2614(4)
N3 N 1.2372(8) 1.2660(6) 0.0516(5)
N4 N 1.1895(6) 0.5605(4) 0.3089(4)
O1 O 1.0045(6) 0.7372(5) 0.0863(4)
O2 O 1.1528(7) 1.3766(5) 0.0951(5)
O3 O 1.3620(7) 1.2471(5) -0.0308(5)
O4 O 1.0158(5) 0.4230(4) 0.3744(4)
#END
