
#######################################################################
#
#                 Cambridge Crystallographic Data Centre
#                                CCDC
#
#######################################################################
#
# If this CIF has been generated from an entry in the Cambridge
# Structural Database, then it will include bibliographic, chemical,
# crystal, experimental, refinement or atomic coordinate data resulting
# from the CCDC's data processing and validation procedures.
#
#######################################################################

data_CSD_CIF_SOWNUP
_audit_creation_date 2014-11-05
_audit_creation_method CSD-ConQuest-V1
_database_code_CSD SOWNUP
_database_code_depnum_ccdc_archive 'CCDC 968566'
_chemical_formula_sum 'C28 H26 N4 O10'
_chemical_formula_moiety
;
C28 H26 N4 O10
;
_journal_coden_Cambridge 9
_journal_volume 53
_journal_year 2014
_journal_page_first 2953
_journal_name_full 'Inorg.Chem. '
loop_
_publ_author_name
"K.Mariappan"
"M.Alaparthi"
"G.Caple"
"V.Balasubramanian"
"M.M.Hoffman"
"M.Hudspeth"
"A.G.Sykes"
_chemical_name_systematic
;
25-((2,4-Dinitrophenyl)hydrazono)-6,9,12,15,18-pentaoxatetracyclo[21.3.1.0^5,2
6^.0^19,24^]heptacosa-1(26),2,4,19,21,23-hexaen-27-one
;
_cell_volume   2648.113
_exptl_crystal_colour 'red'
_exptl_crystal_density_diffrn 1.451
_exptl_crystal_description 'block'
_diffrn_ambient_temperature 295
#These two values have been output from a single CSD field.
_refine_ls_R_factor_gt 0.047
_refine_ls_wR_factor_gt 0.047
_symmetry_cell_setting monoclinic
_symmetry_space_group_name_H-M 'P c'
_symmetry_Int_Tables_number 7
loop_
_symmetry_equiv_pos_site_id
_symmetry_equiv_pos_as_xyz
1 x,y,z
2 x,-y,1/2+z
_cell_length_a 11.8044(19)
_cell_length_b 15.699(3)
_cell_length_c 14.329(2)
_cell_angle_alpha 90
_cell_angle_beta 94.249(2)
_cell_angle_gamma 90
_cell_formula_units_Z 4
loop_
_atom_type_symbol
_atom_type_radius_bond
C 0.68
H 0.23
N 0.68
O 0.68
loop_
_atom_site_label
_atom_site_type_symbol
_atom_site_fract_x
_atom_site_fract_y
_atom_site_fract_z
C1 C -0.8714(7) -0.1434(5) 0.0115(5)
C2 C -0.9372(9) -0.0782(5) -0.0311(5)
H1 H -0.90380 -0.02630 -0.04430
C3 C -1.0503(9) -0.0906(8) -0.0534(7)
H2 H -1.09360 -0.04770 -0.08320
C4 C -1.1017(7) -0.1684(8) -0.0314(6)
H3 H -1.17920 -0.17610 -0.04550
C5 C -1.0393(7) -0.2318(6) 0.0099(5)
C6 C -1.0963(7) -0.3112(7) 0.0382(7)
C7 C -1.0319(7) -0.3628(5) 0.1090(6)
C8 C -1.0918(7) -0.4242(6) 0.1627(7)
H4 H -1.16960 -0.43220 0.15040
C9 C -1.0349(9) -0.4691(6) 0.2298(6)
H5 H -1.07400 -0.50710 0.26560
C10 C -0.9253(8) -0.4606(5) 0.2462(6)
H6 H -0.88840 -0.49350 0.29310
C11 C -0.8613(7) -0.4047(5) 0.1964(5)
C12 C -0.9192(6) -0.3555(5) 0.1225(5)
C13 C -0.8600(5) -0.2965(4) 0.0593(4)
C14 C -0.9216(6) -0.2241(5) 0.0288(5)
C15 C -0.7001(7) -0.0588(5) 0.0269(6)
H7 H -0.73360 -0.01160 0.05880
H8 H -0.70370 -0.04600 -0.03950
C16 C -0.5837(8) -0.0704(4) 0.0623(6)
H9 H -0.54360 -0.01660 0.06040
H10 H -0.58130 -0.08920 0.12690
C17 C -0.4093(8) -0.1341(7) 0.0232(6)
H11 H -0.37940 -0.16890 -0.02530
H12 H -0.38120 -0.07670 0.01560
C18 C -0.3645(7) -0.1649(6) 0.1103(5)
H13 H -0.28300 -0.15610 0.11300
H14 H -0.39340 -0.12860 0.15790
C19 C -0.4285(15) -0.2738(8) 0.1946(11)
H15 H -0.50860 -0.26400 0.17820
H16 H -0.40870 -0.23910 0.24950
C20 C -0.4198(11) -0.3564(10) 0.2240(11)
H17 H -0.36920 -0.38570 0.18440
H18 H -0.38350 -0.35650 0.28700
C21 C -0.5759(9) -0.3781(7) 0.3020(7)
H19 H -0.58680 -0.31680 0.30200
H20 H -0.53390 -0.39440 0.36010
C22 C -0.6876(9) -0.4232(7) 0.2913(6)
H21 H -0.67510 -0.48400 0.28610
H22 H -0.72930 -0.41310 0.34610
C23 C -0.6194(5) -0.3128(4) -0.0722(4)
C24 C -0.5613(6) -0.3810(4) -0.0270(5)
H23 H -0.58980 -0.40700 0.02470
C25 C -0.4622(6) -0.4085(4) -0.0601(5)
H24 H -0.42530 -0.45520 -0.03200
C26 C -0.4168(5) -0.3704(4) -0.1316(4)
C27 C -0.4674(5) -0.3012(4) -0.1758(4)
H25 H -0.43370 -0.27400 -0.22440
C28 C -0.5698(5) -0.2727(4) -0.1462(4)
N1 N -0.7671(5) -0.3278(3) 0.0296(4)
N2 N -0.7195(4) -0.2862(3) -0.0393(3)
N3 N -0.6205(5) -0.1998(3) -0.1977(4)
N4 N -0.3108(5) -0.4020(5) -0.1655(5)
O1 O -1.1947(6) -0.3216(6) 0.0044(6)
O2 O -0.7524(5) -0.3932(3) 0.2097(4)
O3 O -0.5177(5) -0.4034(4) 0.2248(4)
O4 O -0.3816(9) -0.2448(4) 0.1357(4)
O5 O -0.5293(5) -0.1323(3) 0.0074(4)
O6 O -0.7613(4) -0.1361(3) 0.0427(3)
O7 O -0.7128(4) -0.1722(3) -0.1743(3)
O8 O -0.5750(5) -0.1724(4) -0.2630(4)
O9 O -0.2650(5) -0.3605(5) -0.2246(4)
O10 O -0.2738(6) -0.4674(4) -0.1317(5)
H26 H -0.750(3) -0.252(2) -0.068(2)
C29 C -0.6704(6) -0.3580(5) -0.4551(4)
C30 C -0.6092(7) -0.4238(5) -0.4106(5)
H27 H -0.64450 -0.47480 -0.39680
C31 C -0.4935(9) -0.4119(7) -0.3869(6)
H28 H -0.45210 -0.45490 -0.35560
C32 C -0.4415(8) -0.3409(8) -0.4080(6)
H29 H -0.36330 -0.33610 -0.39570
C33 C -0.5038(6) -0.2725(6) -0.4489(5)
C34 C -0.4444(7) -0.1942(6) -0.4782(7)
C35 C -0.5037(7) -0.1389(6) -0.5505(7)
C36 C -0.4425(9) -0.0846(7) -0.5997(8)
H30 H -0.36380 -0.08280 -0.58940
C37 C -0.4967(10) -0.0328(6) -0.6643(8)
H31 H -0.45500 0.00780 -0.69440
C38 C -0.6193(9) -0.0392(5) -0.6878(6)
H32 H -0.65600 -0.00590 -0.73450
C39 C -0.6777(7) -0.0973(5) -0.6369(6)
C40 C -0.6253(6) -0.1465(5) -0.5693(5)
C41 C -0.6840(5) -0.2010(4) -0.5046(4)
C42 C -0.6200(6) -0.2800(5) -0.4678(4)
C43 C -0.8408(7) -0.4405(4) -0.4669(6)
H33 H -0.83740 -0.44830 -0.39960
H34 H -0.80770 -0.49010 -0.49470
C44 C -0.9639(6) -0.4286(5) -0.5061(6)
H35 H -0.96570 -0.40850 -0.57020
H36 H -1.00400 -0.48250 -0.50550
C45 C -1.1347(7) -0.3659(7) -0.4676(6)
H37 H -1.16500 -0.32720 -0.42290
H38 H -1.16730 -0.42180 -0.45880
C46 C -1.1693(9) -0.3326(6) -0.5737(8)
H39 H -1.13960 -0.37070 -0.61930
H40 H -1.25120 -0.32940 -0.58520
C47 C -1.1720(9) -0.2194(7) -0.6527(10)
H41 H -1.25330 -0.22170 -0.64700
H42 H -1.15450 -0.25270 -0.70680
C48 C -1.1341(7) -0.1295(6) -0.6628(7)
H43 H -1.17540 -0.10890 -0.71940
H44 H -1.16490 -0.09900 -0.61160
C49 C -0.9640(8) -0.1127(6) -0.7450(6)
H45 H -1.00670 -0.09060 -0.80020
H46 H -0.95430 -0.17350 -0.75360
C50 C -0.8521(8) -0.0717(5) -0.7354(6)
H47 H -0.81070 -0.08220 -0.79020
H48 H -0.85970 -0.01070 -0.72720
C51 C -0.9225(5) -0.1896(4) -0.3736(4)
C52 C -0.9815(6) -0.1215(4) -0.4156(5)
H49 H -0.95020 -0.09480 -0.46570
C53 C -1.0824(6) -0.0910(4) -0.3884(5)
H50 H -1.11920 -0.04530 -0.41890
C54 C -1.1291(5) -0.1323(4) -0.3112(5)
C55 C -1.0757(5) -0.1998(4) -0.2683(4)
H51 H -1.10840 -0.22720 -0.21940
C56 C -0.9730(5) -0.2282(4) -0.2970(4)
N5 N -0.7767(4) -0.1719(3) -0.4735(3)
N6 N -0.8223(4) -0.2165(4) -0.4034(4)
N7 N -0.9199(5) -0.2983(4) -0.2473(3)
N8 N -1.2334(5) -0.0985(5) -0.2782(4)
O11 O -0.3482(5) -0.1743(6) -0.4505(5)
O12 O -0.7949(5) -0.1095(4) -0.6541(4)
O13 O -1.0250(5) -0.0986(4) -0.6668(4)
O14 O -1.1183(7) -0.2484(6) -0.5787(9)
O15 O -1.0154(5) -0.3702(4) -0.4518(4)
O16 O -0.7811(4) -0.3659(3) -0.4896(3)
O17 O -1.2693(5) -0.0297(4) -0.3099(5)
O18 O -1.2796(5) -0.1373(5) -0.2190(5)
O19 O -0.9672(5) -0.3292(4) -0.1802(4)
O20 O -0.8299(4) -0.3282(3) -0.2709(3)
H52 H -0.785(5) -0.271(3) -0.382(4)
#END
