
#######################################################################
#
#                 Cambridge Crystallographic Data Centre
#                                CCDC
#
#######################################################################
#
# If this CIF has been generated from an entry in the Cambridge
# Structural Database, then it will include bibliographic, chemical,
# crystal, experimental, refinement or atomic coordinate data resulting
# from the CCDC's data processing and validation procedures.
#
#######################################################################

data_CSD_CIF_SOXGUI
_audit_creation_date 2009-07-30
_audit_creation_method CSD-ConQuest-V1
_database_code_CSD SOXGUI
_database_code_depnum_ccdc_archive 'CCDC 731366'
_chemical_formula_sum 'C21 H26 N2 O6'
_chemical_formula_moiety
;
C21 H26 N2 O6
;
_journal_coeditor_code "IUCr HG2502"
_journal_coden_Cambridge 1370
_journal_volume 65
_journal_year 2009
_journal_page_first o1160
_journal_name_full 'Acta Crystallogr.,Sect.E:Struct.Rep.Online '
loop_
_publ_author_name
"Yin-Xia Sun"
"Li Li"
"Wen-Kui Dong"
"Jian-Chao Wu"
"Jun-Feng Tong"
_chemical_name_systematic
;
5,5'-Dimethoxy-2,2'-[(pentane-1,5-diyldioxy)bis(nitrilomethylidyne)]diphenol
;
_chemical_name_common
;
2,2'-(3,9-Dioxa-2,10-diazaundeca-1,10-diene-1,11-diyl)bis(5-methoxyphenol)
;
_chemical_melting_point 349
_cell_volume   1041.237
_exptl_crystal_colour 'colorless'
_exptl_crystal_density_diffrn 1.284
_exptl_special_details
;
Melting point range 349-350K

;
_exptl_crystal_description 'block'
_exptl_crystal_preparation 'ethanol'
_diffrn_ambient_temperature 298
#These two values have been output from a single CSD field.
_refine_ls_R_factor_gt 0.0519
_refine_ls_wR_factor_gt 0.0519
_symmetry_cell_setting triclinic
_symmetry_space_group_name_H-M 'P -1'
_symmetry_Int_Tables_number 2
loop_
_symmetry_equiv_pos_site_id
_symmetry_equiv_pos_as_xyz
1 x,y,z
2 -x,-y,-z
_cell_length_a 7.3324(15)
_cell_length_b 7.6214(17)
_cell_length_c 20.372(3)
_cell_angle_alpha 81.525(1)
_cell_angle_beta 89.928(2)
_cell_angle_gamma 67.870(1)
_cell_formula_units_Z 2
loop_
_atom_type_symbol
_atom_type_radius_bond
C 0.68
H 0.23
N 0.68
O 0.68
loop_
_atom_site_label
_atom_site_type_symbol
_atom_site_fract_x
_atom_site_fract_y
_atom_site_fract_z
N1 N -0.1725(3) 0.8216(3) -0.07342(10)
N2 N 0.8214(3) 0.4398(3) 0.28534(10)
O1 O 0.0265(3) 0.7497(3) -0.05195(8)
O2 O 0.7701(3) 0.4917(3) 0.21730(8)
O3 O -0.5543(2) 0.9488(3) -0.06470(8)
H1 H -0.44050 0.92490 -0.05160
O4 O -0.9588(3) 1.0916(3) -0.25645(9)
O5 O 0.8015(2) 0.3232(3) 0.41215(8)
H2 H 0.76100 0.36330 0.37320
O6 O 1.3399(3) 0.2041(3) 0.55807(9)
C1 C 0.0438(4) 0.7272(4) 0.01908(12)
H3 H -0.01510 0.63870 0.03870
H4 H -0.02350 0.84970 0.03390
C2 C 0.2584(4) 0.6508(4) 0.03966(11)
H5 H 0.31560 0.73760 0.01730
H6 H 0.32200 0.52790 0.02480
C3 C 0.3029(4) 0.6250(4) 0.11341(11)
H7 H 0.25700 0.52910 0.13570
H8 H 0.23050 0.74490 0.12920
C4 C 0.5200(4) 0.5643(4) 0.13208(12)
H9 H 0.59300 0.44650 0.11510
H10 H 0.56510 0.66210 0.11090
C5 C 0.5645(4) 0.5332(4) 0.20517(12)
H11 H 0.48610 0.64730 0.22330
H12 H 0.53220 0.42720 0.22660
C6 C -0.1984(4) 0.8436(4) -0.13669(12)
H13 H -0.08990 0.81470 -0.16280
C7 C -0.3954(4) 0.9133(4) -0.16794(12)
C8 C -0.5646(4) 0.9604(4) -0.13165(12)
C9 C -0.7468(4) 1.0168(4) -0.16277(13)
H14 H -0.85740 1.04450 -0.13770
C10 C -0.7693(4) 1.0334(4) -0.23081(14)
C11 C -0.6068(4) 0.9916(4) -0.26870(13)
H15 H -0.62010 1.00200 -0.31470
C12 C -0.4233(4) 0.9337(4) -0.23622(12)
H16 H -0.31320 0.90710 -0.26150
C13 C -0.9911(4) 1.1077(4) -0.32617(14)
H17 H -0.93390 1.19230 -0.34890
H18 H -1.13030 1.15820 -0.33760
H19 H -0.93100 0.98340 -0.33920
C14 C 0.9944(4) 0.4320(4) 0.29886(13)
H20 H 1.06490 0.46600 0.26470
C15 C 1.0837(4) 0.3722(4) 0.36552(12)
C16 C 0.9873(4) 0.3203(4) 0.42012(13)
C17 C 1.0779(4) 0.2636(4) 0.48276(13)
H21 H 1.01240 0.22800 0.51820
C18 C 1.2649(4) 0.2590(4) 0.49373(13)
C19 C 1.3648(4) 0.3074(4) 0.44140(13)
H22 H 1.49220 0.30230 0.44830
C20 C 1.2727(4) 0.3637(4) 0.37860(13)
H23 H 1.34020 0.39750 0.34340
C21 C 1.5276(4) 0.2114(4) 0.57277(13)
H24 H 1.62820 0.11710 0.55240
H25 H 1.55520 0.18530 0.62000
H26 H 1.52510 0.33660 0.55580
#END
