
#######################################################################
#
#                 Cambridge Crystallographic Data Centre
#                                CCDC
#
#######################################################################
#
# If this CIF has been generated from an entry in the Cambridge
# Structural Database, then it will include bibliographic, chemical,
# crystal, experimental, refinement or atomic coordinate data resulting
# from the CCDC's data processing and validation procedures.
#
#######################################################################

data_CSD_CIF_SOXSAB
_audit_creation_date 2015-03-20
_audit_creation_method CSD-ConQuest-V1
_database_code_CSD SOXSAB
_database_code_depnum_ccdc_archive 'CCDC 1002319'
_chemical_formula_sum 'C14 H18 N4 O2'
_chemical_formula_moiety
;
C14 H18 N4 O2
;
_journal_coden_Cambridge 24
_journal_volume 56
_journal_year 2015
_journal_page_first 159
_journal_name_full 'Tetrahedron Lett. '
loop_
_publ_author_name
"A.Ya Tikhonov"
"B.A.Selivanov"
"Y.V.Gatilov"
_chemical_name_systematic
;
1'-hydroxy-4,4',5,5',6,6',7,7'-octahydro-1H,1'H-2,2'-bibenzo[d]imidazole 
3-oxide
;
_cell_volume   2772.028
_exptl_crystal_colour 'colorless'
_exptl_crystal_density_diffrn 1.315
_exptl_crystal_description 'needle'
_exptl_crystal_preparation 'DMSO'
_diffrn_ambient_temperature 200
_refine_special_details
;
C8A,C9A and C8B,C9B disordered over two sites with occupancies 0.578:0.422.

;
#These two values have been output from a single CSD field.
_refine_ls_R_factor_gt 0.0465
_refine_ls_wR_factor_gt 0.0465
_symmetry_cell_setting monoclinic
_symmetry_space_group_name_H-M 'P 21/c'
_symmetry_Int_Tables_number 14
loop_
_symmetry_equiv_pos_site_id
_symmetry_equiv_pos_as_xyz
1 x,y,z
2 -x,1/2+y,1/2-z
3 -x,-y,-z
4 x,-1/2-y,-1/2+z
_cell_length_a 15.296(1)
_cell_length_b 13.0590(11)
_cell_length_c 15.8401(13)
_cell_angle_alpha 90
_cell_angle_beta 118.825(2)
_cell_angle_gamma 90
_cell_formula_units_Z 8
loop_
_atom_type_symbol
_atom_type_radius_bond
C 0.68
H 0.23
N 0.68
O 0.68
loop_
_atom_site_label
_atom_site_type_symbol
_atom_site_fract_x
_atom_site_fract_y
_atom_site_fract_z
O1 O 0.07412(9) 0.88660(11) 1.01028(9)
N1 N -0.18315(11) 0.87032(12) 0.86221(11)
H1 H -0.2398(16) 0.8769(16) 0.8055(16)
C1 C -0.09180(12) 0.89890(14) 0.87804(12)
O2 O 0.09725(10) 0.89142(11) 0.86782(11)
H2 H 0.0947(19) 0.886(2) 0.940(2)
N2 N -0.0254(1) 0.86832(12) 0.96646(10)
C2 C -0.07450(13) 0.81921(14) 1.00880(12)
C3 C -0.17294(13) 0.82120(15) 0.94305(12)
N3 N 0.01608(11) 0.95024(12) 0.80943(11)
N4 N -0.13746(11) 1.01256(12) 0.7388(1)
C4 C -0.07145(13) 0.95432(14) 0.81079(12)
C5 C -0.08836(13) 1.04541(15) 0.69067(13)
C6 C 0.00682(14) 1.00801(15) 0.73338(13)
C7 C -0.03044(14) 0.77222(16) 1.10623(13)
H3 H 0.01790 0.81990 1.15500
H4 H 0.00500 0.70820 1.10790
C8 C -0.11587(15) 0.74931(18) 1.12807(14)
H5 H -0.09130 0.70220 1.18380
H6 H -0.13630 0.81380 1.14640
C9 C -0.20651(15) 0.70164(18) 1.04348(14)
H7 H -0.25630 0.68310 1.06380
H8 H -0.18620 0.63810 1.02350
C10 C -0.25430(14) 0.77543(17) 0.95743(14)
H9 H -0.30180 0.73800 0.89880
H10 H -0.29120 0.83000 0.97040
C11 C -0.13002(16) 1.11333(17) 0.60384(14)
H11 H -0.13270 1.18500 0.62290
H12 H -0.19860 1.09140 0.55740
C12 C -0.06250(17) 1.10607(19) 0.55710(15)
H13 H -0.07510 1.04010 0.52230
H14 H -0.07990 1.16190 0.50930
C13 C 0.04789(17) 1.11350(19) 0.63039(16)
H15 H 0.06030 1.17850 0.66650
H16 H 0.08740 1.11470 0.59600
C14 C 0.08295(15) 1.02389(17) 0.70167(15)
H17 H 0.08990 0.96120 0.67020
H18 H 0.14860 1.03970 0.75780
O3 O 0.43073(9) 0.39085(11) 1.13569(11)
N5 N 0.68612(11) 0.40599(13) 1.21847(11)
H19 H 0.7413(17) 0.4324(18) 1.2272(15)
C15 C 0.59476(13) 0.44863(14) 1.17594(12)
O4 O 0.40040(9) 0.53160(12) 1.02307(10)
H20 H 0.4085(19) 0.461(2) 1.072(2)
N6 N 0.52935(10) 0.37618(12) 1.16834(11)
C16 C 0.57928(13) 0.28538(15) 1.20529(13)
N7 N 0.48258(11) 0.58952(12) 1.08169(10)
C17 C 0.67731(13) 0.30509(15) 1.23695(13)
N8 N 0.63646(11) 0.63225(12) 1.18867(10)
C18 C 0.57228(13) 0.55439(15) 1.14945(12)
C19 C 0.58331(14) 0.71829(15) 1.14257(13)
C20 C 0.48765(14) 0.69374(16) 1.07675(13)
C21 C 0.53539(14) 0.18535(16) 1.20979(14)
H21 H 0.50230 0.15280 1.14540
H22 H 0.48520 0.19530 1.23150
C22 C 0.6205(4) 0.1181(4) 1.2811(5)
H23 H 0.59660 0.04670 1.27550
H24 H 0.64140 0.14190 1.34750
C23 C 0.7094(3) 0.1206(3) 1.2636(4)
H25 H 0.68750 0.10150 1.19590
H26 H 0.75920 0.06950 1.30570
C24 C 0.75893(14) 0.22856(16) 1.28428(15)
H27 H 0.79660 0.24120 1.35460
H28 H 0.80570 0.23340 1.25790
C25 C 0.62036(17) 0.82607(17) 1.16231(15)
H29 H 0.68620 0.83060 1.16480
H30 H 0.62830 0.84860 1.22530
C26 C 0.54502(19) 0.8949(2) 1.08194(18)
H31 H 0.56070 0.96740 1.10170
H32 H 0.55140 0.88480 1.02320
C27 C 0.43850(19) 0.87253(18) 1.05878(18)
H33 H 0.39360 0.92390 1.01190
H34 H 0.43300 0.87930 1.11830
C28 C 0.40468(16) 0.76575(17) 1.01711(14)
H35 H 0.34340 0.74640 1.01960
H36 H 0.39030 0.76370 0.94910
H37? H 0.47830 0.16800 1.14620
H38? H 0.51160 0.18790 1.25790
C29? C 0.6204(6) 0.1040(6) 1.2397(6)
H39? H 0.59990 0.03960 1.25830
H40? H 0.63070 0.08900 1.18390
C30? C 0.7178(4) 0.1412(4) 1.3234(5)
H41? H 0.76640 0.08430 1.34920
H42? H 0.70620 0.16760 1.37570
H43? H 0.81840 0.26070 1.33790
H44? H 0.77800 0.20060 1.23730
#END
