
#######################################################################
#
#                 Cambridge Crystallographic Data Centre
#                                CCDC
#
#######################################################################
#
# If this CIF has been generated from an entry in the Cambridge
# Structural Database, then it will include bibliographic, chemical,
# crystal, experimental, refinement or atomic coordinate data resulting
# from the CCDC's data processing and validation procedures.
#
#######################################################################

data_CSD_CIF_SOXZAH
_audit_creation_date 2009-07-30
_audit_creation_method CSD-ConQuest-V1
_database_code_CSD SOXZAH
_database_code_depnum_ccdc_archive 'CCDC 734560'
_chemical_formula_sum 'C8 H12 N8 O1'
_chemical_formula_moiety
;
C8 H12 N8 O1
;
_journal_coden_Cambridge 388
_journal_volume 44
_journal_year 2008
_journal_page_first 276
_journal_name_full 'Zh.Org.Khim.(Russ.)(Russ.J.Org.Chem.) '
loop_
_publ_author_name
"B.A.Shainyan"
"V.I.Meshcheryakov"
"I.V.Strekhova"
"A.Kelling"
"U.Shcilde"
_chemical_name_systematic
;
cis,trans-1,2-bis(1-Ethyl-1H-1,2,3-triazol-4-yl)diazene 1-oxide
;
_cell_volume    553.405
_exptl_crystal_colour 'yellow'
_exptl_crystal_density_diffrn 1.418
_exptl_crystal_description 'plate'
_exptl_crystal_preparation 'acetone'
_diffrn_ambient_temperature 210
_refine_special_details
;
The O atom is disordered by symmetry.

;
#These two values have been output from a single CSD field.
_refine_ls_R_factor_gt 0.0435
_refine_ls_wR_factor_gt 0.0435
_symmetry_cell_setting monoclinic
_symmetry_space_group_name_H-M 'P 21/n'
_symmetry_Int_Tables_number 14
loop_
_symmetry_equiv_pos_site_id
_symmetry_equiv_pos_as_xyz
1 x,y,z
2 1/2-x,1/2+y,1/2-z
3 -x,-y,-z
4 -1/2+x,-1/2-y,-1/2+z
_cell_length_a 5.6304(7)
_cell_length_b 17.205(2)
_cell_length_c 5.7403(8)
_cell_angle_alpha 90
_cell_angle_beta 95.610(11)
_cell_angle_gamma 90
_cell_formula_units_Z 2
loop_
_atom_type_symbol
_atom_type_radius_bond
C 0.68
H 0.23
N 0.68
O 0.68
loop_
_atom_site_label
_atom_site_type_symbol
_atom_site_fract_x
_atom_site_fract_y
_atom_site_fract_z
C1 C 0.9734(3) 0.94092(11) 0.2446(3)
C2 C 0.7423(4) 0.92575(11) 0.1596(3)
H1 H 0.585(4) 0.9400(12) 0.216(4)
C3 C 0.5780(4) 0.84678(14) -0.1917(4)
H2 H 0.438(4) 0.8837(15) -0.219(4)
H3 H 0.648(4) 0.8437(15) -0.343(5)
C4 C 0.5090(5) 0.76907(14) -0.1001(5)
H4 H 0.657(5) 0.7327(17) -0.084(5)
H5 H 0.460(4) 0.7738(16) 0.061(5)
H6 H 0.365(5) 0.7515(16) -0.204(5)
N1 N 0.7652(3) 0.88344(9) -0.0335(3)
N2 N 0.9960(3) 0.87222(10) -0.0657(3)
N3 N 1.1245(3) 0.90766(10) 0.1047(3)
N4 N 1.0756(3) 0.98396(9) 0.4376(3)
O1 O 1.2935(5) 0.98613(18) 0.4619(6)
C1B C 1.0266(3) 1.05908(11) 0.7554(3)
C2B C 1.2577(4) 1.07425(11) 0.8404(3)
H1B H 1.415(4) 1.0600(12) 0.784(4)
C3B C 1.4220(4) 1.15322(14) 1.1917(4)
H2B H 1.562(4) 1.1163(15) 1.219(4)
H3B H 1.352(4) 1.1563(15) 1.343(5)
C4B C 1.4910(5) 1.23093(14) 1.1001(5)
H4B H 1.343(5) 1.2673(17) 1.084(5)
H5B H 1.540(4) 1.2262(16) 0.939(5)
H6B H 1.635(5) 1.2485(16) 1.204(5)
N1B N 1.2348(3) 1.11656(9) 1.0335(3)
N2B N 1.0040(3) 1.12778(10) 1.0657(3)
N3B N 0.8755(3) 1.09234(10) 0.8953(3)
N4B N 0.9244(3) 1.01604(9) 0.5624(3)
O1B O 0.7065(5) 1.01387(18) 0.5381(6)
#END
