
#######################################################################
#
#                 Cambridge Crystallographic Data Centre
#                                CCDC
#
#######################################################################
#
# If this CIF has been generated from an entry in the Cambridge
# Structural Database, then it will include bibliographic, chemical,
# crystal, experimental, refinement or atomic coordinate data resulting
# from the CCDC's data processing and validation procedures.
#
#######################################################################

data_CSD_CIF_SOYCIT
_audit_creation_date 2009-07-30
_audit_creation_method CSD-ConQuest-V1
_database_code_CSD SOYCIT
_chemical_formula_sum 'C10 H8 N2 O7'
_chemical_formula_moiety
;
C10 H8 N2 O7
;
_journal_coden_Cambridge 444
_journal_volume 78
_journal_year 2008
_journal_page_first 811
_journal_name_full 'Zh.Obshch.Khim.(Russ.)(Russ.J.Gen.Chem.) '
loop_
_publ_author_name
"V.M.Berestovitskaya"
"N.A.Anisimova"
"O.N.Kataeva"
"G.A.Berkova"
"A.Jager"
_chemical_name_systematic
;
2-(1-(Methoxycarbonyl)-2-nitroethenyl)-5-(2-nitroethenyl)furan
;
_chemical_melting_point 341.15
_cell_volume   1167.070
_exptl_crystal_density_diffrn 1.526
_exptl_special_details
;
Melting point range 341.15-343.15K

;
_diffrn_ambient_temperature 295
#These two values have been output from a single CSD field.
_refine_ls_R_factor_gt 0.04
_refine_ls_wR_factor_gt 0.04
_symmetry_cell_setting monoclinic
_symmetry_space_group_name_H-M 'P 21/c'
_symmetry_Int_Tables_number 14
loop_
_symmetry_equiv_pos_site_id
_symmetry_equiv_pos_as_xyz
1 x,y,z
2 -x,1/2+y,1/2-z
3 -x,-y,-z
4 x,-1/2-y,-1/2+z
_cell_length_a 14.086(1)
_cell_length_b 9.628(1)
_cell_length_c 8.799(1)
_cell_angle_alpha 90
_cell_angle_beta 102.04(1)
_cell_angle_gamma 90
_cell_formula_units_Z 4
loop_
_atom_type_symbol
_atom_type_radius_bond
C 0.68
N 0.68
O 0.60
loop_
_atom_site_label
_atom_site_type_symbol
_atom_site_fract_x
_atom_site_fract_y
_atom_site_fract_z
C1 C 0.2600(1) -0.0110(1) -0.0024(2)
O1 O 0.1785(1) -0.0080(1) 0.0587(1)
C2 C 0.1641(1) -0.1414(1) 0.1035(2)
C3 C 0.2339(1) -0.2261(2) 0.0700(2)
C4 C 0.2958(1) -0.1424(1) 0.0023(2)
C5 C 0.2916(1) 0.1182(1) -0.0575(2)
C6 C 0.2432(1) 0.2363(1) -0.0516(2)
N1 N 0.2732(1) 0.3645(1) -0.1100(1)
O2 O 0.3368(1) 0.3638(1) -0.1854(2)
O3 O 0.2313(1) 0.4693(1) -0.0822(2)
C7 C 0.3871(1) 0.1108(2) -0.1104(2)
O4 O 0.4617(1) 0.1484(1) -0.0307(1)
O5 O 0.3753(1) 0.0508(1) -0.2476(1)
C8 C 0.4630(1) 0.0317(3) -0.3073(2)
C9 C 0.0864(1) -0.1674(1) 0.1810(2)
C10 C 0.0292(1) -0.0706(1) 0.2192(2)
N2 N -0.0443(1) -0.1056(1) 0.3034(2)
O6 O -0.0946(1) -0.0105(1) 0.3339(2)
O7 O -0.0557(1) -0.2263(1) 0.3395(2)
#END
