
#######################################################################
#
#                 Cambridge Crystallographic Data Centre
#                                CCDC
#
#######################################################################
#
# If this CIF has been generated from an entry in the Cambridge
# Structural Database, then it will include bibliographic, chemical,
# crystal, experimental, refinement or atomic coordinate data resulting
# from the CCDC's data processing and validation procedures.
#
#######################################################################

data_CSD_CIF_SOYJOF
_audit_creation_date 1992-10-19
_audit_creation_method CSD-ConQuest-V1
_database_code_CSD SOYJOF
_chemical_formula_sum 'C21 H16 N4 O2'
_chemical_formula_moiety
;
C21 H16 N4 O2
;
_journal_coden_Cambridge 207
_journal_year 1992
_journal_page_first 147
_journal_name_full 'J.Chem.Soc.,Perkin Trans.1 '
loop_
_publ_author_name
"R.N.Butler"
"J.P.Duffy"
"D.Cunningham"
"P.McArdle"
"L.A.Burke"
_chemical_name_systematic
;
1-p-Nitroanilino-4,5-diphenylimidazole
;
_chemical_melting_point 552.15
_cell_volume   1762.878
_exptl_special_details
;
Fw and dx reported as 388.382 and 1.46; we calculate 356.39 and 1.34

;
_diffrn_ambient_temperature ?
_diffrn_special_details
;
The study was carried out at room temperature,in the range 283-303K

;
#These two values have been output from a single CSD field.
_refine_ls_R_factor_gt 0.0481
_refine_ls_wR_factor_gt 0.0481
_symmetry_cell_setting monoclinic
_symmetry_space_group_name_H-M 'P 21/n'
_symmetry_Int_Tables_number 14
loop_
_symmetry_equiv_pos_site_id
_symmetry_equiv_pos_as_xyz
1 x,y,z
2 1/2-x,1/2+y,1/2-z
3 -x,-y,-z
4 -1/2+x,-1/2-y,-1/2+z
_cell_length_a 12.253(3)
_cell_length_b 10.165(2)
_cell_length_c 14.409(3)
_cell_angle_alpha 90
_cell_angle_beta 100.80(2)
_cell_angle_gamma 90
_cell_formula_units_Z 4
loop_
_atom_type_symbol
_atom_type_radius_bond
C 0.68
H 0.23
N 0.68
O 0.68
loop_
_atom_site_label
_atom_site_type_symbol
_atom_site_fract_x
_atom_site_fract_y
_atom_site_fract_z
O1 O 0.5827(2) 0.2054(3) -0.1493(1)
O2 O 0.4951(2) 0.0206(3) -0.1729(2)
N1 N 0.1970(2) 0.1729(2) 0.1678(1)
N2 N 0.1855(2) -0.0117(2) 0.2452(1)
N3 N 0.2462(2) 0.2743(2) 0.1253(1)
N4 N 0.5108(2) 0.1294(3) -0.1343(2)
C1 C 0.0793(2) 0.0296(2) 0.2041(2)
C2 C 0.2535(2) 0.0761(3) 0.2214(2)
C3 C 0.0843(2) 0.1441(2) 0.1546(2)
C4 C 0.3106(2) 0.2372(2) 0.0598(2)
C5 C 0.2922(2) 0.1188(3) 0.0102(2)
C6 C 0.3573(2) 0.0843(3) -0.0536(2)
C7 C 0.4405(2) 0.1674(3) -0.0683(2)
C8 C 0.4592(2) 0.2858(3) -0.0211(2)
C9 C 0.3938(2) 0.3214(3) 0.0425(2)
C10 C -0.0184(2) -0.0416(2) 0.2245(2)
C11 C -0.0994(2) 0.0224(3) 0.2612(2)
C12 C -0.1843(2) -0.0458(4) 0.2894(2)
C13 C -0.1916(3) -0.1787(4) 0.2801(2)
C14 C -0.1129(3) -0.2439(3) 0.2411(2)
C15 C -0.0258(2) -0.1772(3) 0.2131(2)
C16 C -0.0025(2) 0.2246(2) 0.0975(2)
C17 C -0.0082(2) 0.3598(3) 0.1098(2)
C18 C -0.0941(3) 0.4308(3) 0.0558(2)
C19 C -0.1724(3) 0.3688(4) -0.0107(2)
C20 C -0.1663(3) 0.2363(4) -0.0230(2)
C21 C -0.0823(2) 0.1638(3) 0.0303(2)
H1 H 0.2726(26) 0.3417(33) 0.1723(22)
H2 H 0.34300 0.07200 0.24200
H3 H 0.22600 0.05400 0.02200
H4 H 0.34300 -0.00700 -0.09200
H5 H 0.52500 0.35000 -0.03400
H6 H 0.40700 0.41500 0.07900
H7 H -0.09600 0.12800 0.26800
H8 H -0.24600 0.00700 0.31900
H9 H -0.25800 -0.23200 0.30300
H10 H -0.11900 -0.34900 0.23200
H11 H 0.03500 -0.23000 0.18300
H12 H 0.05400 0.40900 0.16100
H13 H -0.09900 0.53600 0.06600
H14 H -0.23800 0.42500 -0.05300
H15 H -0.22800 0.18800 -0.07500
H16 H -0.07900 0.05900 0.02000
#END
