
#######################################################################
#
#                 Cambridge Crystallographic Data Centre
#                                CCDC
#
#######################################################################
#
# If this CIF has been generated from an entry in the Cambridge
# Structural Database, then it will include bibliographic, chemical,
# crystal, experimental, refinement or atomic coordinate data resulting
# from the CCDC's data processing and validation procedures.
#
#######################################################################

data_CSD_CIF_SOYMEZ
_audit_creation_date 2009-07-30
_audit_creation_method CSD-ConQuest-V1
_database_code_CSD SOYMEZ
_database_code_depnum_ccdc_archive 'CCDC 738197'
_chemical_formula_sum 'C12 H17 N1 O4'
_chemical_formula_moiety
;
C12 H17 N1 O4
;
_journal_coeditor_code "IUCr TK2444"
_journal_coden_Cambridge 1370
_journal_volume 65
_journal_year 2009
_journal_page_first o1285
_journal_name_full 'Acta Crystallogr.,Sect.E:Struct.Rep.Online '
loop_
_publ_author_name
"M.S.U.Khan"
"Z.Akhter"
"M.Bolte"
"S.A.Cheema"
"H.M.Siddiqi"
_chemical_name_systematic
;
6-(4-Nitrophenoxy)hexanol
;
_chemical_melting_point 357
_cell_volume    595.344
_exptl_crystal_colour 'yellow'
_exptl_crystal_density_diffrn 1.335
_exptl_crystal_description 'plate'
_exptl_crystal_preparation 'ethanol'
_diffrn_ambient_temperature 173
#These two values have been output from a single CSD field.
_refine_ls_R_factor_gt 0.066
_refine_ls_wR_factor_gt 0.066
_symmetry_cell_setting triclinic
_symmetry_space_group_name_H-M 'P -1'
_symmetry_Int_Tables_number 2
loop_
_symmetry_equiv_pos_site_id
_symmetry_equiv_pos_as_xyz
1 x,y,z
2 -x,-y,-z
_cell_length_a 5.4410(7)
_cell_length_b 10.2270(11)
_cell_length_c 11.3333(14)
_cell_angle_alpha 96.993(9)
_cell_angle_beta 103.818(10)
_cell_angle_gamma 99.516(10)
_cell_formula_units_Z 2
loop_
_atom_type_symbol
_atom_type_radius_bond
C 0.68
H 0.23
N 0.68
O 0.68
loop_
_atom_site_label
_atom_site_type_symbol
_atom_site_fract_x
_atom_site_fract_y
_atom_site_fract_z
N1 N 0.7262(3) 0.23792(17) -0.02359(16)
O1 O 0.1593(3) 1.17994(15) 0.78559(16)
H1 H 0.058(9) 1.200(5) 0.826(4)
O2 O 0.2906(3) 0.47709(14) 0.32079(13)
O3 O 0.6941(3) 0.11523(15) -0.04278(16)
O4 O 0.8558(3) 0.30971(15) -0.07523(14)
C1 C 0.0903(4) 1.0372(2) 0.7533(2)
H2 H -0.09800 1.00870 0.71530
H3 H 0.13490 0.99540 0.82780
C2 C 0.2376(4) 0.9931(2) 0.6628(2)
H4 H 0.42480 1.01510 0.70460
H5 H 0.20810 1.04440 0.59380
C3 C 0.1586(4) 0.8432(2) 0.6108(2)
H6 H 0.18950 0.79160 0.67950
H7 H -0.02870 0.82090 0.56930
C4 C 0.3067(4) 0.8006(2) 0.51947(19)
H8 H 0.28060 0.85470 0.45250
H9 H 0.49350 0.82070 0.56200
C5 C 0.2263(4) 0.6526(2) 0.46311(19)
H10 H 0.25550 0.59750 0.52920
H11 H 0.03950 0.63140 0.42050
C6 C 0.3777(4) 0.6177(2) 0.37264(19)
H12 H 0.35050 0.67290 0.30640
H13 H 0.56450 0.63650 0.41500
C7 C 0.4034(4) 0.4260(2) 0.23531(18)
C8 C 0.5917(4) 0.5012(2) 0.19465(19)
H14 H 0.64920 0.59480 0.22550
C9 C 0.6963(4) 0.4383(2) 0.10791(19)
H15 H 0.82530 0.48860 0.07850
C10 C 0.6111(4) 0.3028(2) 0.06527(18)
C11 C 0.4211(4) 0.2257(2) 0.10414(19)
H16 H 0.36490 0.13210 0.07340
C12 C 0.3156(4) 0.2890(2) 0.18899(19)
H17 H 0.18240 0.23890 0.21600
#END
