
#######################################################################
#
#                 Cambridge Crystallographic Data Centre
#                                CCDC
#
#######################################################################
#
# If this CIF has been generated from an entry in the Cambridge
# Structural Database, then it will include bibliographic, chemical,
# crystal, experimental, refinement or atomic coordinate data resulting
# from the CCDC's data processing and validation procedures.
#
#######################################################################

data_CSD_CIF_SOYVEJ
_audit_creation_date 2015-03-20
_audit_creation_method CSD-ConQuest-V1
_database_code_CSD SOYVEJ
_database_code_depnum_ccdc_archive 'CCDC 983801'
_chemical_formula_sum 'C6 H5 N1 O4'
_chemical_formula_moiety
;
C6 H5 N1 O4
;
_journal_coden_Cambridge 1400
_journal_volume 7
_journal_year 2015
_journal_page_first 867
_journal_name_full 'Metallomics '
loop_
_publ_author_name
"D.G.Workman"
"A.Tsatsanis"
"F.W.Lewis"
"J.P.Boyle"
"M.Mousadoust"
"N.T.Hettiarachchi"
"M.Hunter"
"C.S.Peers"
"D.Tetard"
"J.A.Duce"
_chemical_name_systematic
;
1-Hydroxy-2-oxo-1,2-dihydropyridine-3-carboxylic acid
;
_chemical_melting_point 484.15
_cell_volume    614.575
_exptl_crystal_colour 'colorless'
_exptl_special_details
;
Melting point range 484.15-488.15K
neuroprotective activity

;
_diffrn_ambient_temperature ?
_diffrn_special_details
;
The study was carried out at room temperature,in the range 283-303K

;
_symmetry_cell_setting orthorhombic
_symmetry_space_group_name_H-M 'P c a 21'
_symmetry_Int_Tables_number 29
loop_
_symmetry_equiv_pos_site_id
_symmetry_equiv_pos_as_xyz
1 x,y,z
2 -x,-y,1/2+z
3 1/2+x,-y,z
4 1/2-x,y,1/2+z
_cell_length_a 15.1813(16)
_cell_length_b 3.8432(5)
_cell_length_c 10.5335(14)
_cell_angle_alpha 90
_cell_angle_beta 90
_cell_angle_gamma 90
_cell_formula_units_Z 4
loop_
_atom_type_symbol
_atom_type_radius_bond
C 0.68
H 0.23
N 0.68
O 0.68
loop_
_atom_site_label
_atom_site_type_symbol
_atom_site_fract_x
_atom_site_fract_y
_atom_site_fract_z
O1 O 0.12404 0.31269 0.38014
H1 H 0.15562 0.18769 0.32981
O2 O 0.14148 0.60512 0.55736
O3 O 0.25619 0.02430 0.27351
O4 O 0.42567 -0.08298 0.26178
H2 H 0.38291 -0.13025 0.21775
N1 N 0.39057 0.10505 0.36073
C1 C 0.17364 0.43373 0.47330
C2 C 0.26934 0.35239 0.46621
C3 C 0.32612 0.47415 0.55819
H3 H 0.30482 0.60478 0.62360
C4 C 0.41616 0.40404 0.55040
H4 H 0.45602 0.48073 0.60648
C5 C 0.44693 0.21747 0.44939
H5 H 0.50397 0.15987 0.42741
C6 C 0.30084 0.15454 0.36183
#END
