
#######################################################################
#
#                 Cambridge Crystallographic Data Centre
#                                CCDC
#
#######################################################################
#
# If this CIF has been generated from an entry in the Cambridge
# Structural Database, then it will include bibliographic, chemical,
# crystal, experimental, refinement or atomic coordinate data resulting
# from the CCDC's data processing and validation procedures.
#
#######################################################################

data_CSD_CIF_SOYYEK
_audit_creation_date 1992-10-19
_audit_creation_method CSD-ConQuest-V1
_database_code_CSD SOYYEK
_database_code_depnum_ccdc_archive 'CCDC 1263043'
_chemical_formula_sum 'C12 H15 N3 O1'
_chemical_formula_moiety
;
C12 H15 N3 O1
;
_journal_coden_Cambridge 182
_journal_year 1992
_journal_page_first 485
_journal_name_full 'Chem.Commun. '
loop_
_publ_author_name
"C.O.Kappe"
"G.Kollenz"
"C.Wentrup"
_chemical_name_systematic
;
2-Diethylamino-3-oximino-3H-indole
;
_chemical_melting_point 518.15
_cell_volume   2291.754
_exptl_crystal_colour 'colorless'
_exptl_crystal_density_diffrn 1.258
_exptl_special_details
;
Melting point range 518.15-523.15K

;
_diffrn_ambient_temperature ?
_diffrn_special_details
;
The study was carried out at room temperature,in the range 283-303K

;
#These two values have been output from a single CSD field.
_refine_ls_R_factor_gt 0.062
_refine_ls_wR_factor_gt 0.062
_symmetry_cell_setting monoclinic
_symmetry_space_group_name_H-M 'P 21/a'
_symmetry_Int_Tables_number 14
loop_
_symmetry_equiv_pos_site_id
_symmetry_equiv_pos_as_xyz
1 x,y,z
2 1/2-x,1/2+y,-z
3 -x,-y,-z
4 -1/2+x,-1/2-y,z
_cell_length_a 9.923(6)
_cell_length_b 16.851(3)
_cell_length_c 13.831(8)
_cell_angle_alpha 90
_cell_angle_beta 97.72(3)
_cell_angle_gamma 90
_cell_formula_units_Z 8
loop_
_atom_type_symbol
_atom_type_radius_bond
C 0.68
H 0.26
N 0.68
O 0.68
loop_
_atom_site_label
_atom_site_type_symbol
_atom_site_fract_x
_atom_site_fract_y
_atom_site_fract_z
O1 O 0.0954(8) 0.0803(5) 0.7015(6)
N1 N 0.0269(10) 0.1260(6) 0.3692(7)
N2 N -0.1194(10) 0.2058(6) 0.4437(8)
N3 N 0.0139(9) 0.1247(6) 0.6302(10)
C1 C -0.0233(12) 0.1491(7) 0.4505(10)
C2 C 0.0439(12) 0.1108(8) 0.533(1)
C3 C 0.2401(15) 0.0066(8) 0.5531(8)
C4 C 0.3227(12) -0.0340(7) 0.4940(14)
C5 C 0.3077(14) -0.0202(8) 0.3976(12)
C6 C 0.2158(15) 0.0282(8) 0.3500(8)
C7 C -0.1751(12) 0.2404(7) 0.3485(10)
C8 C -0.2952(12) 0.1960(7) 0.3003(8)
C9 C -0.1794(11) 0.2339(7) 0.5268(9)
C10 C -0.1017(12) 0.3013(7) 0.5790(9)
C11 C 0.1458(12) 0.0573(7) 0.5044(13)
C12 C 0.1350(11) 0.0676(7) 0.4058(11)
H1 H 0.020(5) 0.115(3) 0.762(4)
H2 H 0.25012 -0.00152 0.63126
H3 H 0.39724 -0.07627 0.52620
H4 H 0.37612 -0.05078 0.35563
H5 H 0.20645 0.03567 0.27181
H6 H -0.20505 0.30103 0.35969
H7 H -0.09693 0.23958 0.30122
H8 H -0.33170 0.22374 0.23136
H9 H -0.37457 0.19697 0.34666
H10 H -0.26646 0.13552 0.28818
H11 H -0.28179 0.25375 0.50181
H12 H -0.18262 0.18536 0.57730
H13 H -0.15165 0.31948 0.63993
H14 H -0.09874 0.35045 0.52919
H15 H 0.00042 0.28207 0.60468
O2 O 0.4495(9) 0.3595(5) 0.1868(7)
N4 N 0.5267(10) 0.3933(6) -0.1315(7)
N5 N 0.7129(13) 0.4415(7) -0.0223(8)
N6 N 0.5517(10) 0.3901(6) 0.1378(10)
C13 C 0.5871(13) 0.4084(7) -0.0421(11)
C14 C 0.5102(12) 0.3853(7) 0.0342(10)
C15 C 0.2703(15) 0.3199(7) 0.0109(8)
C16 C 0.1690(13) 0.2945(8) -0.0621(14)
C17 C 0.1845(14) 0.3016(8) -0.1577(13)
C18 C 0.3007(16) 0.3327(7) -0.1877(8)
C19 C 0.7876(13) 0.4600(8) 0.0716(10)
C20 C 0.8703(13) 0.3902(8) 0.1157(9)
C21 C 0.7753(18) 0.4798(9) -0.1139(14)
C22 C 0.8521(15) 0.4192(10) -0.1413(11)
C23 C 0.3844(11) 0.3530(7) -0.0189(10)
C24 C 0.4022(12) 0.3578(7) -0.1160(11)
H16 H 0.522(6) 0.383(3) 0.266(4)
H17 H 0.25962 0.31298 0.08719
H18 H 0.07632 0.26967 -0.04237
H19 H 0.10298 0.28182 -0.21210
H20 H 0.31202 0.33723 -0.26413
H21 H 0.71619 0.47761 0.12015
H22 H 0.85546 0.50904 0.06294
H23 H 0.92411 0.40698 0.18564
H24 H 0.80296 0.34118 0.12485
H25 H 0.94223 0.37261 0.06764
H26 H 0.69490 0.49545 -0.17113
H27 H 0.83556 0.53125 -0.09156
H28 H 0.90011 0.43827 -0.20317
H29 H 0.92975 0.40417 -0.08163
H30 H 0.78909 0.36837 -0.16119
#END
