
#######################################################################
#
#                 Cambridge Crystallographic Data Centre
#                                CCDC
#
#######################################################################
#
# If this CIF has been generated from an entry in the Cambridge
# Structural Database, then it will include bibliographic, chemical,
# crystal, experimental, refinement or atomic coordinate data resulting
# from the CCDC's data processing and validation procedures.
#
#######################################################################

data_CSD_CIF_SOZMAX
_audit_creation_date 2015-03-20
_audit_creation_method CSD-ConQuest-V1
_database_code_CSD SOZMAX
_database_code_depnum_ccdc_archive 'CCDC 973845'
_chemical_formula_sum 'C19 H15 N3 O4'
_chemical_formula_moiety
;
C19 H15 N3 O4
;
_journal_coden_Cambridge 1220
_journal_volume 21
_journal_year 2015
_journal_page_first 2966
_journal_name_full 'Chem.-Eur.J. '
loop_
_publ_author_name
"R.Le Goff"
"A.Martel"
"M.Sanselme"
"A.M.Lawson"
"A.Daich"
"S.Comesse"
_chemical_name_systematic
;
7-(2-Nitrophenyl)-5-oxo-3-phenylhexahydropyrrolo[2,1-b][1,3]oxazole-7-carbonit
rile
;
_cell_volume   1654.652
_exptl_crystal_colour 'colorless'
_exptl_crystal_density_diffrn 1.402
_exptl_crystal_description 'prism'
_diffrn_ambient_temperature 293
#These two values have been output from a single CSD field.
_refine_ls_R_factor_gt 0.0377
_refine_ls_wR_factor_gt 0.0377
_symmetry_cell_setting orthorhombic
_symmetry_space_group_name_H-M 'P 21 21 21'
_symmetry_Int_Tables_number 19
loop_
_symmetry_equiv_pos_site_id
_symmetry_equiv_pos_as_xyz
1 x,y,z
2 1/2-x,-y,1/2+z
3 1/2+x,1/2-y,-z
4 -x,1/2+y,1/2-z
_cell_length_a 6.3404(5)
_cell_length_b 13.2073(11)
_cell_length_c 19.7595(16)
_cell_angle_alpha 90
_cell_angle_beta 90
_cell_angle_gamma 90
_cell_formula_units_Z 4
loop_
_atom_type_symbol
_atom_type_radius_bond
C 0.68
H 0.23
N 0.68
O 0.68
loop_
_atom_site_label
_atom_site_type_symbol
_atom_site_fract_x
_atom_site_fract_y
_atom_site_fract_z
C1 C 0.6358(3) 0.88413(12) 1.06076(8)
C2 C 0.5939(4) 0.83354(14) 1.12062(9)
H1 H 0.47940 0.78970 1.12320
C3 C 0.7207(4) 0.84775(16) 1.17625(9)
H2 H 0.69530 0.81250 1.21620
C4 C 0.8841(4) 0.91423(17) 1.17194(9)
H3 H 0.97140 0.92420 1.20920
C5 C 0.9216(4) 0.96714(15) 1.11265(8)
H4 H 1.03280 1.01300 1.11150
C6 C 0.8002(3) 0.95446(11) 1.05493(7)
C7 C 0.8510(3) 1.01869(10) 0.99221(7)
C8 C 0.6602(3) 1.07331(11) 0.95791(7)
H5 H 0.52840 1.04030 0.96960
H6 H 0.65310 1.14370 0.97160
C9 C 0.7040(2) 1.06448(11) 0.88292(7)
C10 C 0.9568(2) 0.95763(11) 0.93320(7)
H7 H 0.94270 0.88450 0.94010
C11 C 1.0015(3) 1.10040(12) 1.01071(8)
C12 C 1.2021(3) 0.95952(16) 0.85134(9)
H8 H 1.23480 0.88810 0.84660
H9 H 1.31740 0.99880 0.83250
C13 C 0.9921(3) 0.98533(12) 0.81518(7)
H10 H 1.00300 1.05260 0.79460
C14 C 0.9316(3) 0.90891(12) 0.76140(7)
C15 C 0.7520(3) 0.85132(15) 0.76589(9)
H11 H 0.66480 0.85740 0.80350
C16 C 0.6996(4) 0.78412(17) 0.71460(11)
H12 H 0.57670 0.74600 0.71800
C17 C 0.8262(4) 0.77333(17) 0.65931(10)
H13 H 0.78920 0.72880 0.62490
C18 C 1.0085(4) 0.82866(19) 0.6549(1)
H14 H 1.09800 0.82040 0.61800
C19 C 1.0592(3) 0.89682(18) 0.70548(10)
H15 H 1.18150 0.93520 0.70170
N1 N 0.4990(3) 0.85436(11) 1.00350(8)
N2 N 1.1123(3) 1.16578(13) 1.02190(9)
N3 N 0.8484(2) 0.98993(9) 0.87277(6)
O1 O 0.5701(2) 0.85888(9) 0.94645(6)
O2 O 0.3228(3) 0.82369(16) 1.01660(9)
O3 O 1.16849(18) 0.98515(10) 0.92091(6)
O4 O 0.6224(2) 1.11355(10) 0.83815(6)
#END
