
#######################################################################
#
#                 Cambridge Crystallographic Data Centre
#                                CCDC
#
#######################################################################
#
# If this CIF has been generated from an entry in the Cambridge
# Structural Database, then it will include bibliographic, chemical,
# crystal, experimental, refinement or atomic coordinate data resulting
# from the CCDC's data processing and validation procedures.
#
#######################################################################

data_CSD_CIF_SOZVOU
_audit_creation_date 2015-03-20
_audit_creation_method CSD-ConQuest-V1
_database_code_CSD SOZVOU
_database_code_depnum_ccdc_archive 'CCDC 928661'
_chemical_formula_sum 'C18 H13 N3 O3'
_chemical_formula_moiety
;
C18 H13 N3 O3
;
_journal_coden_Cambridge 16
_journal_volume 70
_journal_year 2014
_journal_page_first 8219
_journal_name_full 'Tetrahedron '
loop_
_publ_author_name
"Chun-Ku Wu"
"Teau-Jiuan Liou"
"Hao-Yi Wei"
"Pei-Shan Tsai"
"Ding-Yah Yang"
_chemical_name_systematic
;
2-Methyl-2-(4-nitrophenyl)-1,2-dihydro-6H-perimidin-6-one
;
_cell_volume   2294.220
_exptl_crystal_colour 'brown'
_exptl_crystal_density_diffrn 1.387
_exptl_crystal_description 'parallelepiped'
_diffrn_ambient_temperature 297
#These two values have been output from a single CSD field.
_refine_ls_R_factor_gt 0.0668
_refine_ls_wR_factor_gt 0.0668
_symmetry_cell_setting triclinic
_symmetry_space_group_name_H-M 'P -1'
_symmetry_Int_Tables_number 2
loop_
_symmetry_equiv_pos_site_id
_symmetry_equiv_pos_as_xyz
1 x,y,z
2 -x,-y,-z
_cell_length_a 8.6481(4)
_cell_length_b 10.9158(4)
_cell_length_c 24.4404(10)
_cell_angle_alpha 90.209(3)
_cell_angle_beta 94.940(3)
_cell_angle_gamma 93.511(3)
_cell_formula_units_Z 6
loop_
_atom_type_symbol
_atom_type_radius_bond
C 0.68
H 0.23
N 0.68
O 0.68
loop_
_atom_site_label
_atom_site_type_symbol
_atom_site_fract_x
_atom_site_fract_y
_atom_site_fract_z
O1 O 1.1330(3) 1.0692(2) 0.30208(9)
O2 O 1.2755(4) 0.3586(3) 0.08560(17)
O3 O 1.3132(3) 0.4896(2) 0.02270(12)
N1 N 0.7528(2) 0.72263(17) 0.19335(8)
N2 N 0.7420(2) 0.84378(17) 0.11109(9)
H1 H 0.705(3) 0.856(2) 0.0773(11)
N3 N 1.2469(3) 0.4527(3) 0.06168(14)
C1 C 0.8324(2) 0.8142(2) 0.21768(9)
C2 C 0.8582(3) 0.8143(2) 0.27735(10)
H2 H 0.80650 0.75450 0.29720
C3 C 0.9554(3) 0.8993(3) 0.30396(11)
H3 H 0.97020 0.89560 0.34200
C4 C 1.0388(3) 0.9971(2) 0.27620(11)
C5 C 1.0000(3) 1.0084(2) 0.21615(10)
C6 C 1.0539(3) 1.1086(2) 0.18685(12)
H4 H 1.12280 1.16820 0.20420
C7 C 1.0053(3) 1.1195(2) 0.13212(12)
H5 H 1.04350 1.18620 0.11260
C8 C 0.9018(3) 1.0344(2) 0.10568(11)
H6 H 0.86730 1.04490 0.06900
C9 C 0.8484(2) 0.93206(19) 0.13390(9)
C10 C 0.8994(2) 0.91798(19) 0.18927(9)
C11 C 0.7452(3) 0.72025(19) 0.13271(9)
C12 C 0.5968(3) 0.6470(2) 0.11077(11)
H7 H 0.50810 0.68720 0.12120
H8 H 0.59610 0.56590 0.12580
H9 H 0.59280 0.64180 0.07150
C13 C 0.8863(3) 0.65402(19) 0.11575(9)
C14 C 0.9352(3) 0.5521(2) 0.14389(11)
H10 H 0.88710 0.52700 0.17490
C15 C 1.0544(3) 0.4868(3) 0.12684(13)
H11 H 1.08680 0.41830 0.14610
C16 C 1.1239(3) 0.5246(2) 0.08116(11)
C17 C 1.0800(3) 0.6258(3) 0.05252(12)
H12 H 1.12940 0.65080 0.02170
C18 C 0.9608(3) 0.6904(2) 0.07022(11)
H13 H 0.93020 0.75960 0.05110
O4 O 0.3480(3) 0.0860(2) 0.00032(8)
O5 O 0.0594(3) 0.5588(2) 0.28703(11)
O6 O 0.2279(4) 0.7066(3) 0.2770(2)
N4 N 0.5935(2) 0.13052(18) 0.23464(8)
H14 H 0.604(3) 0.097(2) 0.2650(11)
N5 N 0.6870(2) 0.29149(17) 0.17507(8)
N6 N 0.1891(3) 0.5976(3) 0.27783(13)
C19 C 0.5058(3) 0.07122(19) 0.19239(9)
C20 C 0.4184(3) -0.0392(2) 0.19816(10)
H15 H 0.41780 -0.07620 0.23240
C21 C 0.3331(3) -0.0933(2) 0.15332(11)
H16 H 0.27420 -0.16610 0.15770
C22 C 0.3336(3) -0.0410(2) 0.10177(11)
H17 H 0.27410 -0.07780 0.07190
C23 C 0.4233(3) 0.0665(2) 0.09502(9)
C24 C 0.4349(3) 0.1215(2) 0.04021(10)
C25 C 0.5559(3) 0.2195(3) 0.03525(10)
H18 H 0.57490 0.24770 0.00040
C26 C 0.6401(3) 0.2702(2) 0.07897(9)
H19 H 0.71650 0.33180 0.07380
C27 C 0.6143(3) 0.2304(2) 0.13453(9)
C28 C 0.5087(2) 0.12312(19) 0.14012(9)
C29 C 0.6454(3) 0.2587(2) 0.23078(9)
C30 C 0.7892(3) 0.2822(3) 0.27093(11)
H20 H 0.86640 0.22660 0.26310
H21 H 0.76150 0.26960 0.30780
H22 H 0.83040 0.36510 0.26720
C31 C 0.5208(3) 0.3470(2) 0.24343(8)
C32 C 0.3756(3) 0.3057(2) 0.25728(9)
H23 H 0.35110 0.22170 0.25910
C33 C 0.2659(3) 0.3869(2) 0.26847(10)
H24 H 0.16820 0.35820 0.27780
C34 C 0.3032(3) 0.5105(2) 0.26569(11)
C35 C 0.4476(3) 0.5549(2) 0.25182(13)
H25 H 0.47140 0.63900 0.24980
C36 C 0.5551(3) 0.4728(2) 0.24110(11)
H26 H 0.65290 0.50180 0.23210
O7 O 0.6456(3) 1.0300(2) 0.34297(10)
O8 O 1.2298(3) 0.4427(2) 0.61788(12)
O9 O 1.0903(3) 0.2989(2) 0.57735(13)
N7 N 0.6571(4) 0.8586(3) 0.57196(11)
H27 H 0.704(5) 0.881(4) 0.6043(19)
N8 N 0.5322(3) 0.7118(2) 0.5037(1)
N9 N 1.1116(3) 0.4045(2) 0.59192(11)
C37 C 0.7120(3) 0.9323(3) 0.53231(11)
C38 C 0.8113(4) 1.0389(3) 0.54274(16)
H28 H 0.84710 1.06160 0.57850
C39 C 0.8548(5) 1.1093(3) 0.4986(2)
H29 H 0.92540 1.17650 0.50530
C40 C 0.7980(4) 1.0832(3) 0.44651(18)
H30 H 0.82700 1.13310 0.41790
C41 C 0.6972(3) 0.9824(2) 0.43618(12)
C42 C 0.6226(4) 0.9586(3) 0.38095(12)
C43 C 0.5190(4) 0.8519(3) 0.37190(11)
H31 H 0.47070 0.83640 0.33690
C44 C 0.4897(4) 0.7747(3) 0.41181(12)
H32 H 0.42240 0.70600 0.40390
C45 C 0.5597(3) 0.7940(2) 0.46763(10)
C46 C 0.6587(3) 0.9037(2) 0.47875(10)
C47 C 0.6102(3) 0.7298(3) 0.55981(11)
C48 C 0.4924(4) 0.6827(5) 0.59955(16)
H33 H 0.40600 0.73410 0.59750
H34 H 0.54140 0.68440 0.63630
H35 H 0.45620 0.60000 0.58970
C49 C 0.7484(3) 0.6453(3) 0.5639(1)
C50 C 0.8890(3) 0.6846(3) 0.59056(11)
H36 H 0.90400 0.76520 0.60320
C51 C 1.0083(3) 0.6067(3) 0.59888(11)
H37 H 1.10280 0.63460 0.61710
C52 C 0.9869(3) 0.4890(2) 0.58021(10)
C53 C 0.8496(4) 0.4473(3) 0.55201(14)
H38 H 0.83640 0.36730 0.53850
C54 C 0.7318(4) 0.5264(3) 0.54415(14)
H39 H 0.63850 0.49880 0.52500
#END
