
#######################################################################
#
#                 Cambridge Crystallographic Data Centre
#                                CCDC
#
#######################################################################
#
# If this CIF has been generated from an entry in the Cambridge
# Structural Database, then it will include bibliographic, chemical,
# crystal, experimental, refinement or atomic coordinate data resulting
# from the CCDC's data processing and validation procedures.
#
#######################################################################

data_CSD_CIF_SOZXOW
_audit_creation_date 2015-03-20
_audit_creation_method CSD-ConQuest-V1
_database_code_CSD SOZXOW
_database_code_depnum_ccdc_archive 'CCDC 934475'
_chemical_formula_sum 'C22 H21 N1 O9'
_chemical_formula_moiety
;
C22 H21 N1 O9
;
_journal_coden_Cambridge 16
_journal_volume 70
_journal_year 2014
_journal_page_first 9536
_journal_name_full 'Tetrahedron '
loop_
_publ_author_name
"Yan-Ping Zhu"
"Qun Cai"
"Feng-Cheng Jia"
"Mei-Cai Liu"
"Qing-He Gao"
"Xiang-Gao Meng"
"An-Xin Wu"
_chemical_name_systematic
;
Ethyl 4,5,6-trimethoxy-3-(4-nitrobenzoyl)-1-oxoindane-2-carboxylate
;
_cell_volume   1048.450
_exptl_crystal_colour 'colorless'
_exptl_crystal_density_diffrn 1.404
_exptl_crystal_description 'block'
_diffrn_ambient_temperature 298
_refine_special_details
;
The structure is disordered.

;
#These two values have been output from a single CSD field.
_refine_ls_R_factor_gt 0.064
_refine_ls_wR_factor_gt 0.064
_symmetry_cell_setting triclinic
_symmetry_space_group_name_H-M 'P -1'
_symmetry_Int_Tables_number 2
loop_
_symmetry_equiv_pos_site_id
_symmetry_equiv_pos_as_xyz
1 x,y,z
2 -x,-y,-z
_cell_length_a 6.8668(14)
_cell_length_b 9.782(2)
_cell_length_c 17.323(4)
_cell_angle_alpha 98.560(3)
_cell_angle_beta 100.804(4)
_cell_angle_gamma 109.566(3)
_cell_formula_units_Z 2
loop_
_atom_type_symbol
_atom_type_radius_bond
C 0.68
H 0.23
N 0.68
O 0.68
loop_
_atom_site_label
_atom_site_type_symbol
_atom_site_fract_x
_atom_site_fract_y
_atom_site_fract_z
C1 C 0.5795(4) 0.2812(3) 0.00495(16)
C2 C 0.6394(4) 0.4148(3) 0.05727(17)
H1 H 0.76430 0.49290 0.05890
C3 C 0.5129(4) 0.4334(3) 0.10794(16)
H2 H 0.55560 0.52330 0.14530
C4 C 0.3233(4) 0.3196(3) 0.10377(14)
C5 C 0.2661(4) 0.1853(3) 0.04867(17)
H3 H 0.13830 0.10800 0.04480
C6 C 0.3941(5) 0.1645(3) 0.00013(19)
H4 H 0.35650 0.07330 -0.03540
C7 C 0.1784(4) 0.3307(3) 0.15649(16)
C8 C 0.2615(4) 0.4455(3) 0.23660(15)
H5 H 0.40020 0.52180 0.23970
C9 C 0.1012(4) 0.5167(3) 0.25487(15)
H6 H -0.03890 0.45810 0.21750
C10 C 0.0865(4) 0.5030(3) 0.34120(16)
C11 C 0.1632(4) 0.6763(3) 0.24814(16)
C12 C 0.0547(14) 0.8754(7) 0.2413(6)
H7 H 0.12480 0.92910 0.29680
H8 H 0.14960 0.91140 0.20750
C13 C -0.1488(11) 0.8929(8) 0.2143(6)
H9 H -0.22540 0.82700 0.16250
H10 H -0.12220 0.99400 0.21020
H11 H -0.23240 0.86930 0.25260
N1 N 0.7159(5) 0.2584(4) -0.04743(17)
O1 O 0.8432(5) 0.3687(4) -0.05989(19)
O2 O 0.6941(5) 0.1327(3) -0.07745(18)
O3 O -0.0077(3) 0.2458(2) 0.13609(13)
O4 O 0.3433(3) 0.7600(2) 0.25760(15)
O5 O -0.0049(3) 0.71340(19) 0.23342(14)
O6 O -0.0058(4) 0.5609(3) 0.37983(14)
C14 C 0.199(4) 0.413(3) 0.3697(13)
C15 C 0.276(3) 0.364(2) 0.3075(9)
C16 C 0.3789(9) 0.2626(6) 0.3163(4)
O7 O 0.4400(8) 0.2175(5) 0.2503(2)
C17 C 0.601(3) 0.1573(19) 0.2513(11)
H12 H 0.71300 0.20640 0.29990
H13 H 0.65820 0.17210 0.20540
H14 H 0.54090 0.05260 0.24930
C18 C 0.3974(9) 0.2141(6) 0.3872(3)
O8 O 0.4842(6) 0.1087(3) 0.3951(2)
C19 C 0.689(2) 0.1558(16) 0.4557(12)
H15 H 0.76400 0.26100 0.46320
H16 H 0.77310 0.10320 0.43750
H17 H 0.66250 0.13410 0.50590
C20 C 0.3124(14) 0.2643(11) 0.4485(7)
O9 O 0.3377(10) 0.2028(8) 0.5137(5)
C21 C 0.254(3) 0.242(3) 0.5791(11)
H18 H 0.31300 0.34870 0.59850
H19 H 0.29230 0.19670 0.62190
H20 H 0.10160 0.20850 0.56120
C22 C 0.208(7) 0.360(4) 0.4404(18)
H21 H 0.14650 0.38950 0.48010
C23? C 0.004(3) 0.8524(12) 0.2076(7)
H22? H -0.09910 0.83100 0.15640
H23? H 0.14560 0.90700 0.20220
C24? C -0.050(2) 0.9390(12) 0.2737(9)
H24? H -0.19580 0.88800 0.27420
H25? H -0.03140 1.03650 0.26450
H26? H 0.04270 0.94810 0.32470
C25? C 0.209(5) 0.408(3) 0.3618(15)
C26? C 0.327(4) 0.389(3) 0.3075(12)
C27? C 0.4739(12) 0.3221(8) 0.3221(5)
O10? O 0.5851(7) 0.3086(5) 0.2666(3)
C28? C 0.608(3) 0.1668(18) 0.2447(12)
H27? H 0.75230 0.17720 0.26790
H28? H 0.57660 0.13640 0.18700
H29? H 0.51130 0.09310 0.26460
C29? C 0.5079(12) 0.2803(9) 0.3952(5)
O11? O 0.6803(8) 0.2372(6) 0.4138(3)
C30? C 0.639(4) 0.101(2) 0.4388(17)
H30? H 0.66530 0.12040 0.49660
H31? H 0.73200 0.05430 0.42220
H32? H 0.49320 0.03640 0.41470
C31? C 0.3908(19) 0.3031(16) 0.4523(10)
O12? O 0.4369(12) 0.2556(11) 0.5215(6)
C32? C 0.316(3) 0.273(3) 0.5789(13)
H33? H 0.33780 0.37660 0.59520
H34? H 0.36180 0.23830 0.62530
H35? H 0.16660 0.21650 0.55460
C33? C 0.247(8) 0.371(6) 0.437(2)
H36? H 0.17650 0.39210 0.47590
#END
