
#######################################################################
#
#                 Cambridge Crystallographic Data Centre
#                                CCDC
#
#######################################################################
#
# If this CIF has been generated from an entry in the Cambridge
# Structural Database, then it will include bibliographic, chemical,
# crystal, experimental, refinement or atomic coordinate data resulting
# from the CCDC's data processing and validation procedures.
#
#######################################################################

data_CSD_CIF_SUBWIV
_audit_creation_date 1992-11-16
_audit_creation_method CSD-ConQuest-V1
_database_code_CSD SUBWIV
_chemical_formula_sum 'C9 H5 N5 O2'
_chemical_formula_moiety
;
C9 H5 N5 O2
;
_journal_coden_Cambridge 188
_journal_year 1992
_journal_page_first 563
_journal_name_full 'J.Chem.Soc.,Perkin Trans.2 '
loop_
_publ_author_name
"T.Mitsuhashi"
"G.Yamamoto"
"M.Goto"
"Y.Kondo"
_chemical_name_systematic
;
p-Nitrophenylhydrazonomalononitrile
;
_cell_volume    996.444
_exptl_crystal_density_diffrn 1.43
_diffrn_ambient_temperature ?
_diffrn_special_details
;
The study was carried out at room temperature,in the range 283-303K

;
#These two values have been output from a single CSD field.
_refine_ls_R_factor_gt 0.051
_refine_ls_wR_factor_gt 0.051
_symmetry_cell_setting monoclinic
_symmetry_space_group_name_H-M 'P 21/c'
_symmetry_Int_Tables_number 14
loop_
_symmetry_equiv_pos_site_id
_symmetry_equiv_pos_as_xyz
1 x,y,z
2 -x,1/2+y,1/2-z
3 -x,-y,-z
4 x,-1/2-y,-1/2+z
_cell_length_a 6.150(1)
_cell_length_b 10.936(1)
_cell_length_c 14.935(2)
_cell_angle_alpha 90
_cell_angle_beta 97.25(1)
_cell_angle_gamma 90
_cell_formula_units_Z 4
loop_
_atom_type_symbol
_atom_type_radius_bond
C 0.68
H 0.23
N 0.68
O 0.68
loop_
_atom_site_label
_atom_site_type_symbol
_atom_site_fract_x
_atom_site_fract_y
_atom_site_fract_z
C1 C 0.4716(3) 0.3435(2) 0.6035(1)
C2 C 0.5599(3) 0.4595(2) 0.6181(2)
C3 C 0.4615(4) 0.5403(2) 0.6711(2)
C4 C 0.2780(4) 0.5029(2) 0.7086(1)
C5 C 0.1900(4) 0.3878(2) 0.6950(2)
C6 C 0.2870(4) 0.3073(2) 0.6416(2)
C7 C 1.0199(4) 0.2398(2) 0.4266(2)
C8 C 0.7394(4) 0.0852(2) 0.4445(2)
C9 C 0.8250(3) 0.2049(2) 0.4635(1)
N1 N 0.5651(3) 0.2578(2) 0.5498(1)
N2 N 0.7400(3) 0.2854(2) 0.5132(1)
N3 N 1.1751(4) 0.2655(3) 0.3972(2)
N4 N 0.6633(6) -0.0088(2) 0.4324(3)
N5 N 0.1756(4) 0.5906(2) 0.7648(2)
O1 O 0.2317(4) 0.6974(2) 0.7638(2)
O2 O 0.0378(6) 0.5521(3) 0.8092(3)
H1 H 0.5016(77) 0.1886(48) 0.5420(31)
H2 H 0.684(8) 0.481(4) 0.594(3)
H3 H 0.527(8) 0.616(5) 0.684(3)
H4 H 0.067(8) 0.363(4) 0.719(3)
H5 H 0.233(7) 0.231(5) 0.632(3)
#END
