
#######################################################################
#
#                 Cambridge Crystallographic Data Centre
#                                CCDC
#
#######################################################################
#
# If this CIF has been generated from an entry in the Cambridge
# Structural Database, then it will include bibliographic, chemical,
# crystal, experimental, refinement or atomic coordinate data resulting
# from the CCDC's data processing and validation procedures.
#
#######################################################################

data_CSD_CIF_SUCSIS
_audit_creation_date 1992-11-16
_audit_creation_method CSD-ConQuest-V1
_database_code_CSD SUCSIS
_chemical_formula_sum 'C13 H7 N3 O8'
_chemical_formula_moiety
;
C13 H7 N3 O8
;
_journal_coden_Cambridge 82
_journal_volume 32
_journal_year 1991
_journal_page_first 169-2
_journal_name_full 'Zh.Strukt.Khim.(Russ.)(J.Struct.Chem.) '
loop_
_publ_author_name
"E.G.Popova"
"L.A.Chetkina"
"V.E.Zavodnik"
"A.M.Andrievskii"
"A.N.Poplavskii"
_chemical_name_systematic
;
2',4',6-Trinitro-2-carboxybiphenyl
;
_cell_volume   2793.856
_exptl_crystal_colour 'pale yellow'
_exptl_crystal_density_diffrn 1.584
_diffrn_ambient_temperature ?
_diffrn_special_details
;
The study was carried out at room temperature,in the range 283-303K

;
#These two values have been output from a single CSD field.
_refine_ls_R_factor_gt 0.035
_refine_ls_wR_factor_gt 0.035
_symmetry_cell_setting monoclinic
_symmetry_space_group_name_H-M 'B 1 1 2/b'
_symmetry_Int_Tables_number 15
loop_
_symmetry_equiv_pos_site_id
_symmetry_equiv_pos_as_xyz
1 x,y,z
2 1/2+x,y,1/2+z
3 -x,1/2-y,z
4 1/2-x,1/2-y,1/2+z
5 -x,-y,-z
6 -1/2-x,-y,-1/2-z
7 x,-1/2+y,-z
8 -1/2+x,-1/2+y,-1/2-z
_cell_length_a 11.779(2)
_cell_length_b 19.567(3)
_cell_length_c 12.254(2)
_cell_angle_alpha 90
_cell_angle_beta 90
_cell_angle_gamma 98.42(1)
_cell_formula_units_Z 8
loop_
_atom_type_symbol
_atom_type_radius_bond
C 0.68
H 0.23
N 0.68
O 0.68
loop_
_atom_site_label
_atom_site_type_symbol
_atom_site_fract_x
_atom_site_fract_y
_atom_site_fract_z
C1 C 0.3265(3) 0.1139(1) 0.4058(2)
C2 C 0.4167(3) 0.1370(2) 0.3346(3)
C3 C 0.4055(3) 0.1353(1) 0.2224(2)
C4 C 0.3021(3) 0.1085(2) 0.1766(3)
C5 C 0.2115(3) 0.0826(2) 0.2432(3)
C6 C 0.2223(3) 0.0848(2) 0.3564(2)
C7 C 0.3350(2) 0.1300(2) 0.5256(2)
C8 C 0.3568(2) 0.0851(1) 0.6088(2)
C9 C 0.3658(2) 0.1053(1) 0.7164(2)
C10 C 0.3544(3) 0.1723(2) 0.7406(2)
C11 C 0.3315(2) 0.2184(2) 0.6623(2)
C12 C 0.3210(2) 0.1967(1) 0.5555(2)
C13 C 0.1236(2) 0.0520(2) 0.4221(2)
N1 N 0.5311(2) 0.1649(1) 0.3792(2)
N2 N 0.3693(3) 0.0127(2) 0.5838(3)
N3 N 0.3664(3) 0.1952(3) 0.8553(2)
O1 O 0.1267(2) 0.0489(2) 0.5219(2)
O2 O 0.0361(2) 0.0239(2) 0.3680(2)
O3 O 0.5988(3) 0.1986(2) 0.3176(3)
O4 O 0.5542(1) 0.1521(1) 0.4732(2)
O5 O 0.3704(2) -0.0048(1) 0.4891(2)
O6 O 0.3784(4) -0.0253(2) 0.6611(2)
O7 O 0.3741(4) 0.1513(3) 0.9246(3)
O8 O 0.3703(2) 0.2569(1) 0.8743(2)
H1 H -0.039(3) -0.013(2) 0.418(2)
#END
