
#######################################################################
#
#                 Cambridge Crystallographic Data Centre
#                                CCDC
#
#######################################################################
#
# If this CIF has been generated from an entry in the Cambridge
# Structural Database, then it will include bibliographic, chemical,
# crystal, experimental, refinement or atomic coordinate data resulting
# from the CCDC's data processing and validation procedures.
#
#######################################################################

data_CSD_CIF_SUFHUY
_audit_creation_date 2015-03-22
_audit_creation_method CSD-ConQuest-V1
_database_code_CSD SUFHUY
_database_code_depnum_ccdc_archive 'CCDC 1033773'
_chemical_formula_sum 'C4 H4 N6 O8'
_chemical_formula_moiety
;
C4 H4 N6 O8
;
_journal_coden_Cambridge 1220
_journal_volume 21
_journal_year 2015
_journal_page_first 7285
_journal_name_full 'Chem.-Eur.J. '
loop_
_publ_author_name
"Yongxing Tang"
"J.M.Shreeve"
_chemical_name_systematic
;
(1-Nitro-1H-1,2,4-triazole-3,5-diyl)bis(methylene) dinitrate
;
_cell_volume    978.706
_exptl_crystal_colour 'colorless'
_exptl_crystal_density_diffrn 1.793
_exptl_crystal_description 'needle'
_diffrn_ambient_temperature 173
#These two values have been output from a single CSD field.
_refine_ls_R_factor_gt 0.0327
_refine_ls_wR_factor_gt 0.0327
_symmetry_cell_setting orthorhombic
_symmetry_space_group_name_H-M 'P n a 21'
_symmetry_Int_Tables_number 33
loop_
_symmetry_equiv_pos_site_id
_symmetry_equiv_pos_as_xyz
1 x,y,z
2 -x,-y,1/2+z
3 1/2-x,1/2+y,1/2+z
4 1/2+x,1/2-y,z
_cell_length_a 9.850(3)
_cell_length_b 13.885(4)
_cell_length_c 7.156(2)
_cell_angle_alpha 90
_cell_angle_beta 90
_cell_angle_gamma 90
_cell_formula_units_Z 4
loop_
_atom_type_symbol
_atom_type_radius_bond
C 0.68
H 0.23
N 0.68
O 0.68
loop_
_atom_site_label
_atom_site_type_symbol
_atom_site_fract_x
_atom_site_fract_y
_atom_site_fract_z
H1 H -0.433(3) -0.452(2) -0.906(5)
H2 H -0.430(3) -0.341(3) -0.857(5)
H3 H -1.004(4) -0.470(2) -0.593(5)
H4 H -0.923(3) -0.393(2) -0.446(5)
C1 C -0.6079(3) -0.4087(2) -0.7830(5)
C2 C -0.8051(3) -0.4268(2) -0.6720(5)
C3 C -0.4577(3) -0.4052(3) -0.8164(5)
C4 C -0.9141(3) -0.4470(3) -0.5313(5)
N1 N -0.7051(3) -0.38802(18) -0.9134(3)
N2 N -0.8325(3) -0.40039(19) -0.8434(4)
N3 N -0.6688(2) -0.43308(17) -0.6276(4)
N4 N -0.6863(3) -0.3560(2) -1.1022(4)
N5 N -0.3750(3) -0.3537(2) -0.5187(5)
N6 N -0.8830(3) -0.6155(2) -0.4813(5)
O1 O -0.5698(2) -0.35639(17) -1.1551(4)
O2 O -0.7874(2) -0.3325(2) -1.1837(4)
O3 O -0.3875(2) -0.43127(14) -0.6488(3)
O4 O -0.4242(3) -0.27772(18) -0.5609(4)
O5 O -0.3151(3) -0.37734(19) -0.3803(4)
O6 O -0.87389(19) -0.52239(16) -0.4025(3)
O7 O -0.9172(2) -0.62306(18) -0.6410(4)
O8 O -0.8518(2) -0.67658(18) -0.3694(4)
#END
