
#######################################################################
#
#                 Cambridge Crystallographic Data Centre
#                                CCDC
#
#######################################################################
#
# If this CIF has been generated from an entry in the Cambridge
# Structural Database, then it will include bibliographic, chemical,
# crystal, experimental, refinement or atomic coordinate data resulting
# from the CCDC's data processing and validation procedures.
#
#######################################################################

data_CSD_CIF_SUFJAG
_audit_creation_date 2015-03-22
_audit_creation_method CSD-ConQuest-V1
_database_code_CSD SUFJAG
_database_code_depnum_ccdc_archive 'CCDC 1033774'
_chemical_formula_sum 'C6 H9 N7 O8'
_chemical_formula_moiety
;
C6 H9 N7 O8
;
_journal_coden_Cambridge 1220
_journal_volume 21
_journal_year 2015
_journal_page_first 7285
_journal_name_full 'Chem.-Eur.J. '
loop_
_publ_author_name
"Yongxing Tang"
"J.M.Shreeve"
_chemical_name_systematic
;
(4-((2,2,2-Trinitroethyl)amino)-4H-1,2,4-triazole-3,5-diyl)dimethanol
;
_cell_volume   1202.005
_exptl_crystal_colour 'colorless'
_exptl_crystal_density_diffrn 1.698
_exptl_crystal_description 'chunk'
_diffrn_ambient_temperature 173
#These two values have been output from a single CSD field.
_refine_ls_R_factor_gt 0.0286
_refine_ls_wR_factor_gt 0.0286
_symmetry_cell_setting monoclinic
_symmetry_space_group_name_H-M 'P 21/n'
_symmetry_Int_Tables_number 14
loop_
_symmetry_equiv_pos_site_id
_symmetry_equiv_pos_as_xyz
1 x,y,z
2 1/2-x,1/2+y,1/2-z
3 -x,-y,-z
4 -1/2+x,-1/2-y,-1/2+z
_cell_length_a 9.2007(9)
_cell_length_b 10.3617(10)
_cell_length_c 13.1222(12)
_cell_angle_alpha 90
_cell_angle_beta 106.089(1)
_cell_angle_gamma 90
_cell_formula_units_Z 4
loop_
_atom_type_symbol
_atom_type_radius_bond
C 0.68
H 0.23
N 0.68
O 0.68
loop_
_atom_site_label
_atom_site_type_symbol
_atom_site_fract_x
_atom_site_fract_y
_atom_site_fract_z
O1 O 0.58080(11) 0.54923(9) 0.17353(7)
O2 O 0.23931(11) 1.03724(9) -0.13383(7)
O3 O 0.14948(11) 0.82505(10) 0.15103(8)
O4 O 0.16018(11) 1.02307(10) 0.20712(8)
O5 O 0.51023(12) 1.05425(10) 0.33652(9)
O6 O 0.34188(13) 1.03081(10) 0.42341(8)
O7 O 0.42108(13) 0.74932(10) 0.44233(8)
O8 O 0.17991(13) 0.75523(11) 0.36160(9)
N1 N 0.43117(11) 0.81843(10) 0.05693(8)
N2 N 0.46837(12) 0.89203(10) 0.15056(8)
N3 N 0.42343(12) 0.66696(10) -0.05859(8)
N4 N 0.30720(13) 0.75373(10) -0.10149(8)
N5 N 0.20448(12) 0.91236(11) 0.21069(8)
N6 N 0.40635(13) 0.99935(11) 0.35779(9)
N7 N 0.31087(14) 0.78545(11) 0.37347(9)
C1 C 0.49702(14) 0.70716(12) 0.03576(10)
C2 C 0.31435(14) 0.84413(12) -0.03112(9)
C3 C 0.62962(14) 0.64165(12) 0.10969(10)
H1 H 0.69030 0.59800 0.06820
H2 H 0.69470 0.70680 0.15590
C4 C 0.21909(15) 0.96366(12) -0.04733(10)
H3 H 0.11130 0.93940 -0.06140
H4 H 0.24720 1.01660 0.01800
C5 C 0.46189(14) 0.81694(12) 0.24364(9)
H5 H 0.56320 0.81460 0.29540
H6 H 0.43120 0.72720 0.22220
C6 C 0.34892(14) 0.87754(12) 0.29463(9)
H7 H 0.5599(18) 0.9261(15) 0.1572(12)
H8 H 0.192(2) 1.0029(19) -0.1867(15)
H9 H 0.569(2) 0.479(2) 0.1365(15)
#END
