
#######################################################################
#
#                 Cambridge Crystallographic Data Centre
#                                CCDC
#
#######################################################################
#
# If this CIF has been generated from an entry in the Cambridge
# Structural Database, then it will include bibliographic, chemical,
# crystal, experimental, refinement or atomic coordinate data resulting
# from the CCDC's data processing and validation procedures.
#
#######################################################################

data_CSD_CIF_SUFZIC01
_audit_creation_date 2011-05-03
_audit_creation_method CSD-ConQuest-V1
_database_code_CSD SUFZIC01
_database_code_depnum_ccdc_archive 'CCDC 733456'
_chemical_formula_sum 'C14 H19 N1 O7'
_chemical_formula_moiety
;
C14 H19 N1 O7
;
_journal_coden_Cambridge 95
_journal_year 2010
_journal_page_first 1167
_journal_name_full 'Izv.Akad.Nauk SSSR,Ser.Khim.(Russ.)(Russ.Chem.Bull.) '
loop_
_publ_author_name
"S.N.Dmitrieva"
"M.V.Churakova"
"N.A.Kurchavov"
"A.I.Vedernikov"
"L.G.Kuz'mina"
"A.Ya.Freidzon"
"A.A.Bagatur'yants"
"Yu.A.Strelenko"
"J.A.K.Howard"
"S.P.Gromov"
_chemical_name_systematic
;
15-Nitro-2,3,5,6,8,9,11,12-octahydro-1,4,7,10,13-benzopentaoxacyclopentadecane
;
_cell_volume   1445.851
_exptl_crystal_colour 'colorless'
_exptl_crystal_density_diffrn 1.439
_exptl_crystal_description 'block'
_diffrn_ambient_temperature 120
#These two values have been output from a single CSD field.
_refine_ls_R_factor_gt 0.0357
_refine_ls_wR_factor_gt 0.0357
_symmetry_cell_setting orthorhombic
_symmetry_space_group_name_H-M 'P c a 21'
_symmetry_Int_Tables_number 29
loop_
_symmetry_equiv_pos_site_id
_symmetry_equiv_pos_as_xyz
1 x,y,z
2 -x,-y,1/2+z
3 1/2+x,-y,z
4 1/2-x,y,1/2+z
_cell_length_a 15.0965(9)
_cell_length_b 4.8500(3)
_cell_length_c 19.7472(11)
_cell_angle_alpha 90
_cell_angle_beta 90
_cell_angle_gamma 90
_cell_formula_units_Z 4
loop_
_atom_type_symbol
_atom_type_radius_bond
C 0.68
H 0.23
N 0.68
O 0.68
loop_
_atom_site_label
_atom_site_type_symbol
_atom_site_fract_x
_atom_site_fract_y
_atom_site_fract_z
O1 O 0.16517(8) 0.4152(2) 0.06595(6)
O2 O 0.12099(8) 0.5742(2) -0.06554(7)
O3 O -0.01726(9) 0.1313(3) -0.10158(7)
O4 O -0.11471(8) -0.0213(3) 0.06182(7)
O5 O 0.05016(7) 0.1349(2) 0.12934(6)
O6 O 0.29599(8) 1.0636(3) 0.23798(7)
O7 O 0.22870(9) 0.9610(3) 0.33174(6)
N1 N 0.24271(9) 0.9262(3) 0.27097(8)
C1 C 0.22227(11) 0.5834(4) 0.02519(9)
C2 C 0.15926(10) 0.4743(3) 0.13277(8)
C3 C 0.20791(10) 0.6734(3) 0.16648(9)
C4 C 0.1927(1) 0.7097(3) 0.23563(9)
C5 C 0.13267(11) 0.5551(3) 0.27202(9)
C6 C 0.08374(10) 0.3537(4) 0.23768(9)
C7 C 0.09568(10) 0.3153(3) 0.16836(9)
C8 C -0.02056(11) -0.0183(4) 0.16032(9)
C9 C -0.06299(11) -0.1909(4) 0.10578(10)
C10 C -0.09612(12) -0.0445(4) -0.00893(9)
C11 C -0.01514(12) 0.1195(4) -0.02950(9)
C12 C 0.06579(12) 0.1808(4) -0.13252(9)
C13 C 0.09524(14) 0.4790(4) -0.13124(9)
C14 C 0.20796(11) 0.4917(4) -0.04673(9)
H1 H 0.2839(15) 0.565(5) 0.0372(12)
H2 H 0.2054(12) 0.773(4) 0.0299(9)
H3 H 0.2490(13) 0.777(4) 0.1429(10)
H4 H 0.1310(15) 0.598(4) 0.3197(12)
H5 H 0.0476(15) 0.245(5) 0.2633(11)
H6 H -0.0614(14) 0.105(5) 0.1782(11)
H7 H 0.0055(14) -0.148(5) 0.1939(12)
H8 H -0.0172(13) -0.288(4) 0.0815(11)
H9 H -0.1008(15) -0.335(5) 0.1278(13)
H10 H -0.1494(14) 0.048(4) -0.0318(12)
H11 H -0.0890(13) -0.235(5) -0.0222(11)
H12 H -0.0178(13) 0.305(4) -0.010(1)
H13 H 0.0457(16) 0.028(4) -0.0165(12)
H14 H 0.0592(14) 0.118(5) -0.1809(12)
H15 H 0.1134(14) 0.062(4) -0.1135(12)
H16 H 0.1448(16) 0.496(5) -0.1618(13)
H17 H 0.0465(13) 0.597(4) -0.1443(10)
H18 H 0.2523(15) 0.581(5) -0.0741(12)
H19 H 0.2143(13) 0.296(5) -0.0505(10)
#END
