
#######################################################################
#
#                 Cambridge Crystallographic Data Centre
#                                CCDC
#
#######################################################################
#
# If this CIF has been generated from an entry in the Cambridge
# Structural Database, then it will include bibliographic, chemical,
# crystal, experimental, refinement or atomic coordinate data resulting
# from the CCDC's data processing and validation procedures.
#
#######################################################################

data_CSD_CIF_SUFZOI
_audit_creation_date 1993-08-05
_audit_creation_method CSD-ConQuest-V1
_database_code_CSD SUFZOI
_database_code_depnum_ccdc_archive 'CCDC 1263808'
_chemical_formula_sum 'C14 H18 N2 O9'
_chemical_formula_moiety
;
C14 H18 N2 O9
;
_journal_coden_Cambridge 632
_journal_volume 13
_journal_year 1992
_journal_page_first 219
_journal_name_full 'J.Inclusion Phenom.Mol.Recog.Chem. '
loop_
_publ_author_name
"R.D.Rogers"
"R.F.Henry"
"A.N.Rollins"
_chemical_name_systematic
;
Dinitrobenzo-15-crown-5
;
_cell_volume   1647.114
_exptl_crystal_colour 'yellow'
_exptl_crystal_density_diffrn 1.44
_diffrn_ambient_temperature ?
_diffrn_special_details
;
The study was carried out at room temperature,in the range 283-303K

;
#These two values have been output from a single CSD field.
_refine_ls_R_factor_gt 0.06
_refine_ls_wR_factor_gt 0.06
_symmetry_cell_setting monoclinic
_symmetry_space_group_name_H-M 'P 21/n'
_symmetry_Int_Tables_number 14
loop_
_symmetry_equiv_pos_site_id
_symmetry_equiv_pos_as_xyz
1 x,y,z
2 1/2-x,1/2+y,1/2-z
3 -x,-y,-z
4 -1/2+x,-1/2-y,-1/2+z
_cell_length_a 11.716(2)
_cell_length_b 8.495(3)
_cell_length_c 17.441(5)
_cell_angle_alpha 90
_cell_angle_beta 108.40(2)
_cell_angle_gamma 90
_cell_formula_units_Z 4
loop_
_atom_type_symbol
_atom_type_radius_bond
C 0.68
N 0.68
O 0.68
loop_
_atom_site_label
_atom_site_type_symbol
_atom_site_fract_x
_atom_site_fract_y
_atom_site_fract_z
O1 O 0.8975(9) 0.174(1) 0.3196(5)
O2 O 0.653(1) 0.185(2) 0.3109(6)
O3 O 0.673(1) -0.080(2) 0.4170(7)
O4 O 0.8550(9) -0.316(1) 0.4239(6)
O5 O 0.9945(8) -0.082(1) 0.3715(5)
O6 O 1.115(1) 0.354(2) 0.1202(9)
O7 O 1.087(2) 0.128(2) 0.0557(7)
O8 O 1.2210(9) -0.211(2) 0.1738(7)
O9 O 1.294(1) 0.011(2) 0.1670(9)
N1 N 1.096(2) 0.214(3) 0.117(1)
N2 N 1.217(2) -0.069(2) 0.181(1)
C1 C 0.816(1) 0.306(2) 0.2854(9)
C2 C 0.730(1) 0.319(2) 0.3347(8)
C3 C 0.585(2) 0.152(3) 0.366(1)
C4 C 0.646(2) 0.071(3) 0.437(1)
C5 C 0.745(2) -0.149(2) 0.489(1)
C6 C 0.789(1) -0.308(3) 0.480(1)
C7 C 0.977(1) -0.284(2) 0.4604(8)
C8 C 1.030(1) -0.242(2) 0.3955(8)
C9 C 1.026(1) -0.019(2) 0.3099(9)
C10 C 0.974(1) 0.121(2) 0.2830(8)
C11 C 0.995(1) 0.200(2) 0.2190(9)
C12 C 1.073(2) 0.136(3) 0.184(1)
C13 C 1.127(2) -0.004(3) 0.211(1)
C14 C 1.108(1) -0.086(2) 0.2755(9)
#END
