
#######################################################################
#
#                 Cambridge Crystallographic Data Centre
#                                CCDC
#
#######################################################################
#
# If this CIF has been generated from an entry in the Cambridge
# Structural Database, then it will include bibliographic, chemical,
# crystal, experimental, refinement or atomic coordinate data resulting
# from the CCDC's data processing and validation procedures.
#
#######################################################################

data_CSD_CIF_SUHPUI
_audit_creation_date 2015-03-25
_audit_creation_method CSD-ConQuest-V1
_database_code_CSD SUHPUI
_database_code_depnum_ccdc_archive 'CCDC 1000380'
_chemical_formula_sum 'C17 H18 N4 O4'
_chemical_formula_moiety
;
C17 H18 N4 O4
;
_journal_coden_Cambridge 35
_journal_volume 80
_journal_year 2015
_journal_page_first 2042
_journal_name_full 'J.Org.Chem. '
loop_
_publ_author_name
"M.Olbrich"
"P.Mayer"
"D.Trauner"
_chemical_name_systematic
;
1-(2,4-dinitrophenyl)-2-(tricyclo[4.4.0.0^3,8^]dec-4-en-2-ylmethylene)hydrazin
e
;
_cell_volume   1576.468
_exptl_crystal_colour 'orange'
_exptl_crystal_density_diffrn 1.442
_exptl_crystal_description 'platelet'
_diffrn_ambient_temperature 200
#These two values have been output from a single CSD field.
_refine_ls_R_factor_gt 0.1035
_refine_ls_wR_factor_gt 0.1035
_symmetry_cell_setting monoclinic
_symmetry_space_group_name_H-M 'P 21/c'
_symmetry_Int_Tables_number 14
loop_
_symmetry_equiv_pos_site_id
_symmetry_equiv_pos_as_xyz
1 x,y,z
2 -x,1/2+y,1/2-z
3 -x,-y,-z
4 x,-1/2-y,-1/2+z
_cell_length_a 10.5480(5)
_cell_length_b 20.8588(10)
_cell_length_c 7.6700(3)
_cell_angle_alpha 90
_cell_angle_beta 110.904(2)
_cell_angle_gamma 90
_cell_formula_units_Z 4
loop_
_atom_type_symbol
_atom_type_radius_bond
C 0.68
H 0.23
N 0.68
O 0.68
loop_
_atom_site_label
_atom_site_type_symbol
_atom_site_fract_x
_atom_site_fract_y
_atom_site_fract_z
O1 O -0.2186(4) 0.05676(19) 0.3509(6)
O2 O -0.1005(3) -0.02315(17) 0.3160(5)
O3 O -0.1324(5) 0.26941(19) 0.2277(7)
O4 O 0.0383(5) 0.2927(2) 0.1487(6)
N1 N 0.2241(4) -0.0221(2) 0.1801(5)
N2 N 0.1096(4) -0.0053(2) 0.2180(5)
H1 H 0.06310 -0.03490 0.25090
N3 N -0.1245(4) 0.0347(2) 0.3103(5)
N4 N -0.0344(5) 0.2539(2) 0.1889(6)
C1 C 0.2557(5) -0.0816(3) 0.2061(7)
H2 H 0.20450 -0.10890 0.25500
C2 C 0.3720(5) -0.1087(3) 0.1609(7)
H3 H 0.33880 -0.11650 0.02320
C3 C 0.4287(6) -0.1780(3) 0.2656(10)
H4 H 0.36560 -0.21460 0.21190
C4 C 0.4405(5) -0.1612(3) 0.4637(7)
H5 H 0.40190 -0.18610 0.53580
C5 C 0.5096(6) -0.1088(3) 0.5235(7)
H6 H 0.51420 -0.08770 0.63540
C6 C 0.5810(7) -0.0851(3) 0.3988(9)
H7 H 0.64160 -0.04810 0.45700
C7 C 0.6642(6) -0.1430(4) 0.3738(11)
H8 H 0.73190 -0.12900 0.31940
H9 H 0.71260 -0.16380 0.49540
C8 C 0.5680(8) -0.1867(3) 0.2494(12)
H10 H 0.59990 -0.23220 0.26680
C9 C 0.5547(9) -0.1584(3) 0.0493(9)
H11 H 0.62850 -0.17520 0.01090
H12 H 0.46660 -0.17110 -0.04570
C10 C 0.5635(9) -0.0895(4) 0.0662(11)
H13 H 0.51840 -0.06920 -0.05720
H14 H 0.65970 -0.07580 0.11530
C11 C 0.4898(7) -0.0693(3) 0.2063(10)
H15 H 0.46540 -0.02280 0.19390
C12 C 0.0689(4) 0.0568(2) 0.2046(6)
C13 C -0.0417(4) 0.0780(2) 0.2530(6)
C14 C -0.0747(5) 0.1428(2) 0.2483(6)
H16 H -0.14700 0.15660 0.28560
C15 C -0.0019(5) 0.1862(2) 0.1894(6)
C16 C 0.1044(5) 0.1668(3) 0.1317(7)
H17 H 0.15230 0.19750 0.08720
C17 C 0.1380(5) 0.1036(3) 0.1402(7)
H18 H 0.21030 0.09070 0.10150
#END
