
#######################################################################
#
#                 Cambridge Crystallographic Data Centre
#                                CCDC
#
#######################################################################
#
# If this CIF has been generated from an entry in the Cambridge
# Structural Database, then it will include bibliographic, chemical,
# crystal, experimental, refinement or atomic coordinate data resulting
# from the CCDC's data processing and validation procedures.
#
#######################################################################

data_CSD_CIF_SUHSIX
_audit_creation_date 1993-09-15
_audit_creation_method CSD-ConQuest-V1
_database_code_CSD SUHSIX
_database_code_depnum_ccdc_fiz 'CSD 55172'
_chemical_formula_sum 'C25 H35 N3 O9'
_chemical_formula_moiety
;
C25 H35 N3 O9
;
_journal_coden_Cambridge 1088
_journal_year 1991
_journal_page_first 397
_journal_name_full 'Synlett '
loop_
_publ_author_name
"S.Dreller"
"M.Dyrbusch"
"D.Hoppe"
_chemical_name_systematic
;
(5S,6S)-4-t-Butyl-6-(3,5-dinitrobenzoyloxy)-2-(N-bis(2-propyl) 
carbamoyloxy)-5-hydroxyhepta-2,3-diene
;
_cell_volume   1394.734
_exptl_crystal_density_diffrn 1.242
_diffrn_ambient_temperature ?
_diffrn_special_details
;
The study was carried out at room temperature,in the range 283-303K

;
#These two values have been output from a single CSD field.
_refine_ls_R_factor_gt 0.0438
_refine_ls_wR_factor_gt 0.0438
_symmetry_cell_setting monoclinic
_symmetry_space_group_name_H-M 'P 21'
_symmetry_Int_Tables_number 4
loop_
_symmetry_equiv_pos_site_id
_symmetry_equiv_pos_as_xyz
1 x,y,z
2 -x,1/2+y,-z
_cell_length_a 12.192(4)
_cell_length_b 6.675(1)
_cell_length_c 17.297(5)
_cell_angle_alpha 90
_cell_angle_beta 97.77(2)
_cell_angle_gamma 90
_cell_formula_units_Z 2
loop_
_atom_type_symbol
_atom_type_radius_bond
C 0.68
H 0.23
N 0.68
O 0.68
loop_
_atom_site_label
_atom_site_type_symbol
_atom_site_fract_x
_atom_site_fract_y
_atom_site_fract_z
C1 C 0.0908(2) 0.3693(6) 0.6903(2)
C2 C 0.1164(3) 0.1503(6) 0.6945(2)
O1 O 0.1391(2) 0.4694(5) 0.6313(1)
C3 C 0.2272(2) 0.5914(6) 0.6545(2)
O2 O 0.2612(2) 0.6221(5) 0.7228(1)
N1 N 0.2693(2) 0.6681(5) 0.5934(1)
C4 C 0.3733(3) 0.7833(8) 0.6095(2)
C5 C 0.4667(3) 0.6829(9) 0.5748(3)
C6 C 0.3589(4) 0.9994(8) 0.5818(3)
C7 C 0.2181(3) 0.6502(6) 0.5120(2)
C8 C 0.2178(5) 0.4392(8) 0.4799(2)
C9 C 0.1042(3) 0.7485(8) 0.4987(2)
C10 C 0.0293(2) 0.4635(5) 0.7329(1)
C11 C -0.0256(2) 0.5603(5) 0.7811(2)
C12 C -0.1497(2) 0.5926(6) 0.7659(2)
C13 C -0.2042(3) 0.4967(9) 0.8318(2)
C14 C -0.1735(3) 0.8180(8) 0.7615(3)
C15 C -0.1977(3) 0.4935(9) 0.6890(2)
C16 C 0.0400(2) 0.6477(5) 0.8554(1)
O3 O 0.1273(2) 0.7727(4) 0.8380(1)
C17 C 0.0812(2) 0.4907(5) 0.9158(1)
C18 C 0.1188(3) 0.5801(6) 0.9951(2)
O4 O 0.1736(1) 0.38800 0.8869(1)
C19 C 0.2037(2) 0.2137(5) 0.9203(2)
O5 O 0.1581(2) 0.1321(5) 0.9689(1)
C20 C 0.3035(2) 0.1272(6) 0.8910(1)
C21 C 0.3407(2) -0.0579(5) 0.9209(2)
C22 C 0.4305(2) -0.1455(6) 0.8956(2)
C23 C 0.4878(2) -0.0567(6) 0.8417(2)
C24 C 0.4497(2) 0.1281(6) 0.8130(2)
C25 C 0.3590(2) 0.2208(6) 0.8364(2)
N2 N 0.4695(3) -0.3418(6) 0.9285(2)
O6 O 0.4152(2) -0.4229(5) 0.9729(2)
O7 O 0.5533(3) -0.4113(6) 0.9096(2)
N3 N 0.5101(2) 0.2258(7) 0.7558(2)
O8 O 0.5828(2) 0.1352(6) 0.7303(2)
O9 O 0.4851(3) 0.3936(8) 0.7371(2)
H1 H 0.08130 0.08960 0.73510
H2 H 0.19500 0.13150 0.70530
H3 H 0.08920 0.08900 0.64540
H4 H 0.39220 0.78580 0.66520
H5 H 0.53190 0.76240 0.58920
H6 H 0.45060 0.67710 0.51890
H7 H 0.47900 0.54980 0.59520
H8 H 0.42810 1.06830 0.59440
H9 H 0.30460 1.05840 0.61020
H10 H 0.33450 1.01010 0.52680
H11 H 0.26520 0.72440 0.48220
H12 H 0.19840 0.43720 0.42420
H13 H 0.16320 0.36680 0.50380
H14 H 0.28890 0.37760 0.49360
H15 H 0.07790 0.74660 0.44380
H16 H 0.11440 0.88460 0.51610
H17 H 0.05100 0.68430 0.52660
H18 H -0.17440 0.55890 0.88010
H19 H -0.19250 0.35460 0.83550
H20 H -0.28210 0.52380 0.82110
H21 H -0.25220 0.83320 0.74930
H22 H -0.13810 0.87030 0.71950
H23 H -0.14800 0.89000 0.80860
H24 H -0.16480 0.55950 0.64850
H25 H -0.27590 0.51820 0.68190
H26 H -0.18450 0.35190 0.68670
H27 H -0.01180 0.72870 0.87870
H28 H 0.1680(27) 0.7058(58) 0.8089(19)
H29 H 0.02180 0.40080 0.92260
H30 H 0.05230 0.62370 1.01410
H31 H 0.16750 0.69230 0.99280
H32 H 0.15480 0.48040 1.02960
H33 H 0.30310 -0.12370 0.95910
H34 H 0.55140 -0.11920 0.82480
H35 H 0.33460 0.34840 0.81500
#END
