
#######################################################################
#
#                 Cambridge Crystallographic Data Centre
#                                CCDC
#
#######################################################################
#
# If this CIF has been generated from an entry in the Cambridge
# Structural Database, then it will include bibliographic, chemical,
# crystal, experimental, refinement or atomic coordinate data resulting
# from the CCDC's data processing and validation procedures.
#
#######################################################################

data_CSD_CIF_SUHTUK
_audit_creation_date 1993-09-15
_audit_creation_method CSD-ConQuest-V1
_database_code_CSD SUHTUK
_chemical_formula_sum 'C30 H34 N2 O11'
_chemical_formula_moiety
;
C30 H34 N2 O11
;
_journal_coden_Cambridge 156
_journal_volume 232
_journal_year 1992
_journal_page_first 321
_journal_name_full 'Carbohydr.Res. '
loop_
_publ_author_name
"P.Koll"
"J.Kopf"
"D.Abeln"
"J.BeMiller"
"L.Petrus"
_chemical_name_systematic
;
Ethyl 
6,7,8-tri-O-acetyl-5,9-anhydro-2,3,4-trideoxy-2-diphenylmethyleneamino-4-nitro
-D-threo-D-altro-nononate
;
_chemical_melting_point 423.15
_cell_volume   3328.040
_exptl_crystal_density_diffrn 1.195
_diffrn_ambient_temperature ?
_diffrn_special_details
;
The study was carried out at room temperature,in the range 283-303K

;
#These two values have been output from a single CSD field.
_refine_ls_R_factor_gt 0.062
_refine_ls_wR_factor_gt 0.062
_symmetry_cell_setting monoclinic
_symmetry_space_group_name_H-M 'P 21'
_symmetry_Int_Tables_number 4
loop_
_symmetry_equiv_pos_site_id
_symmetry_equiv_pos_as_xyz
1 x,y,z
2 -x,1/2+y,-z
_cell_length_a 8.454(1)
_cell_length_b 43.833(3)
_cell_length_c 9.895(1)
_cell_angle_alpha 90
_cell_angle_beta 114.82(1)
_cell_angle_gamma 90
_cell_formula_units_Z 4
loop_
_atom_type_symbol
_atom_type_radius_bond
C 0.68
H 0.23
N 0.68
O 0.68
loop_
_atom_site_label
_atom_site_type_symbol
_atom_site_fract_x
_atom_site_fract_y
_atom_site_fract_z
O1 O 0.7228(4) 0.36210 0.0378(3)
O2 O 0.6544(4) 0.4328(1) -0.1709(3)
O3 O 0.6288(5) 0.4514(1) 0.1080(4)
O4 O 0.8636(4) 0.4158(1) 0.3486(4)
O5 O 0.0532(5) 0.3294(1) -0.5186(5)
O6 O 0.2258(4) 0.3028(1) -0.3215(4)
O7 O 0.7298(6) 0.3164(1) -0.2270(5)
O8 O 0.8990(6) 0.3522(1) -0.2248(5)
O9 O 0.3787(7) 0.4481(2) -0.2529(7)
O10 O 0.8085(9) 0.4866(1) 0.0897(9)
O11 O 0.7033(6) 0.3977(1) 0.4600(4)
N1 N 0.3207(5) 0.3647(1) -0.5117(4)
N2 N 0.7634(7) 0.3429(1) -0.2255(5)
C1 C 0.1942(7) 0.3245(1) -0.4230(5)
C2 C 0.3614(6) 0.3398(1) -0.4063(5)
C3 C 0.4603(6) 0.3516(1) -0.2474(5)
C4 C 0.6353(6) 0.3666(1) -0.2229(5)
C5 C 0.7238(6) 0.3830(1) -0.0721(5)
C6 C 0.6366(6) 0.4121(1) -0.0629(5)
C7 C 0.7311(6) 0.4261(1) 0.0922(5)
C8 C 0.7481(6) 0.4029(1) 0.2080(5)
C9 C 0.8259(7) 0.3741(1) 0.1850(5)
C10 C 0.0810(8) 0.2844(2) -0.3249(7)
C11 C 0.138(1) 0.2646(3) -0.2037(9)
C12 C 0.3301(6) 0.3604(1) -0.6362(5)
C13 C 0.5159(9) 0.4493(2) -0.2632(7)
C14 C 0.557(1) 0.4679(2) -0.3635(8)
C15 C 0.684(1) 0.4799(2) 0.1112(9)
C16 C 0.571(1) 0.5017(2) 0.1491(9)
C17 C 0.8285(8) 0.4105(2) 0.4663(6)
C18 C 0.972(1) 0.4226(2) 0.6073(7)
C19 C 0.3805(7) 0.3309(1) -0.6814(5)
C20 C 0.2572(7) 0.3078(1) -0.7466(6)
C21 C 0.308(1) 0.2812(2) -0.7921(7)
C22 C 0.477(1) 0.2770(2) -0.7706(7)
C23 C 0.5950(8) 0.2984(2) -0.7060(7)
C24 C 0.5509(7) 0.3258(1) -0.6625(6)
C25 C 0.2865(6) 0.3860(1) -0.7434(5)
C26 C 0.2676(7) 0.3809(1) -0.8884(6)
C27 C 0.2207(8) 0.4037(2) -0.9868(7)
C28 C 0.1958(9) 0.4319(2) -0.9545(9)
C29 C 0.2188(9) 0.4381(2) -0.8075(9)
C30 C 0.2646(7) 0.4147(1) -0.7016(6)
O12 O 0.0948(4) 0.1635(1) 0.7664(3)
O13 O 0.2434(4) 0.0917(1) 0.9633(3)
O14 O -0.0558(5) 0.0744(1) 0.7000(4)
O15 O -0.0768(4) 0.1115(1) 0.4491(3)
O16 O -0.0271(6) 0.1930(1) 1.3174(5)
O17 O -0.0365(5) 0.2218(1) 1.1347(4)
O18 O 0.3714(6) 0.2090(1) 1.0341(5)
O19 O 0.5338(6) 0.1734(1) 1.0210(6)
O20 O 0.0754(8) 0.0808(1) 1.0774(6)
O21 O 0.0913(8) 0.0435(1) 0.6178(8)
O22 O -0.3472(5) 0.1296(1) 0.3425(4)
N3 N 0.2430(5) 0.1585(1) 1.3154(4)
N4 N 0.3999(6) 0.1828(1) 1.0276(5)
C31 C 0.0265(6) 0.1992(1) 1.2311(5)
C32 C 0.1801(6) 0.1840(1) 1.2130(5)
C33 C 0.1232(6) 0.1725(1) 1.0517(5)
C34 C 0.2704(6) 0.1587(1) 1.0230(5)
C35 C 0.2085(6) 0.1427(1) 0.8724(5)
C36 C 0.1194(6) 0.1131(1) 0.8635(5)
C37 C 0.0519(6) 0.0994(1) 0.7083(5)
C38 C -0.0523(6) 0.1233(1) 0.5949(5)
C39 C 0.0450(7) 0.1525(1) 0.6190(5)
C40 C -0.1758(7) 0.2393(1) 1.1412(7)
C41 C -0.228(1) 0.2623(2) 1.0241(9)
C42 C 0.3718(6) 0.1627(1) 1.4419(5)
C43 C 0.207(1) 0.0772(1) 1.0670(7)
C44 C 0.348(1) 0.0572(1) 1.1598(8)
C45 C -0.030(1) 0.0482(1) 0.6550(8)
C46 C -0.154(1) 0.0244(1) 0.6447(9)
C47 C -0.2298(8) 0.1174(1) 0.3323(5)
C48 C -0.2160(9) 0.1083(1) 0.1916(6)
C49 C 0.4645(6) 0.1927(1) 1.4925(5)
C50 C 0.4038(8) 0.2135(1) 1.5617(6)
C51 C 0.492(1) 0.2419(1) 1.6075(7)
C52 C 0.642(1) 0.2469(1) 1.5877(8)
C53 C 0.7012(8) 0.2256(1) 1.5231(7)
C54 C 0.6122(8) 0.1988(1) 1.4735(6)
C55 C 0.4326(6) 0.1357(1) 1.5423(5)
C56 C 0.5605(7) 0.1394(1) 1.6897(5)
C57 C 0.6196(9) 0.1153(2) 1.7836(7)
C58 C 0.549(1) 0.0867(2) 1.7373(9)
C59 C 0.425(1) 0.0830(1) 1.5946(9)
C60 C 0.3705(7) 0.1072(1) 1.4995(6)
H1 H 0.27190 0.19910 1.23780
H2 H 0.32150 0.14340 1.09910
H3 H 0.30670 0.13930 0.85730
H4 H 0.02030 0.11620 0.88350
H5 H 0.14950 0.09210 0.68940
H6 H -0.16130 0.12570 0.60530
H7 H 0.03200 0.15690 1.03200
H8 H 0.07820 0.19020 0.98820
H9 H -0.02860 0.16670 0.55120
H10 H 0.14560 0.14890 0.60030
H11 H -0.27250 0.22550 1.12320
H12 H -0.13800 0.24800 1.23390
H13 H -0.32410 0.27360 1.02520
H14 H -0.26910 0.25450 0.92550
H15 H -0.13330 0.27680 1.03620
H16 H 0.30250 0.20730 1.58050
H17 H 0.43750 0.25740 1.64540
H18 H 0.70000 0.26610 1.62690
H19 H 0.80340 0.23000 1.51240
H20 H 0.65330 0.18320 1.42720
H21 H 0.60440 0.15950 1.72540
H22 H 0.71010 0.11860 1.88140
H23 H 0.60160 0.06940 1.80480
H24 H 0.37960 0.06380 1.56840
H25 H 0.28490 0.10440 1.39900
H26 H 0.32080 0.04830 1.22860
H27 H 0.45850 0.06660 1.21310
H28 H 0.37540 0.04310 1.09950
H29 H -0.12010 0.00840 0.61220
H30 H -0.27330 0.03110 0.56910
H31 H -0.16470 0.02110 0.73550
H32 H -0.32400 0.11220 0.10420
H33 H -0.18570 0.08740 0.19420
H34 H -0.12640 0.12060 0.18090
#END
