
#######################################################################
#
#                 Cambridge Crystallographic Data Centre
#                                CCDC
#
#######################################################################
#
# If this CIF has been generated from an entry in the Cambridge
# Structural Database, then it will include bibliographic, chemical,
# crystal, experimental, refinement or atomic coordinate data resulting
# from the CCDC's data processing and validation procedures.
#
#######################################################################

data_CSD_CIF_SUHZOM
_audit_creation_date 2015-03-25
_audit_creation_method CSD-ConQuest-V1
_database_code_CSD SUHZOM
_database_code_depnum_ccdc_archive 'CCDC 1012925'
_chemical_formula_sum 'C17 H13 N1 O3'
_chemical_formula_moiety
;
C17 H13 N1 O3
;
_journal_coden_Cambridge 35
_journal_volume 79
_journal_year 2014
_journal_page_first 10988
_journal_name_full 'J.Org.Chem. '
loop_
_publ_author_name
"Zhi-Wei Chen"
"Yi-Zhou Zhu"
"Jin-Wang Ou"
"Ya-Ping Wang"
"Jian-Yu Zheng"
_chemical_name_systematic
;
2-Methoxy-1-oxo-4-phenyl-1,2-dihydroisoquinoline-3-carbaldehyde
;
_cell_volume   1313.168
_exptl_crystal_density_diffrn 1.413
_diffrn_ambient_temperature 113
#These two values have been output from a single CSD field.
_refine_ls_R_factor_gt 0.0494
_refine_ls_wR_factor_gt 0.0494
_symmetry_cell_setting monoclinic
_symmetry_space_group_name_H-M 'P 21/n'
_symmetry_Int_Tables_number 14
loop_
_symmetry_equiv_pos_site_id
_symmetry_equiv_pos_as_xyz
1 x,y,z
2 1/2-x,1/2+y,1/2-z
3 -x,-y,-z
4 -1/2+x,-1/2-y,-1/2+z
_cell_length_a 8.4145(17)
_cell_length_b 8.9482(18)
_cell_length_c 17.838(4)
_cell_angle_alpha 90
_cell_angle_beta 102.12(3)
_cell_angle_gamma 90
_cell_formula_units_Z 4
loop_
_atom_type_symbol
_atom_type_radius_bond
C 0.68
H 0.23
N 0.68
O 0.68
loop_
_atom_site_label
_atom_site_type_symbol
_atom_site_fract_x
_atom_site_fract_y
_atom_site_fract_z
O1 O -0.03598(13) 0.07037(12) 1.15856(6)
O2 O -0.25692(12) 0.05355(11) 1.03053(6)
O3 O -0.35649(13) 0.16645(13) 0.88640(6)
N1 N -0.11615(14) 0.13691(13) 1.03293(6)
C1 C -0.00606(17) 0.13558(15) 1.10267(8)
C2 C 0.14141(17) 0.22288(15) 1.10290(8)
C3 C 0.25200(18) 0.24297(17) 1.17294(8)
H1 H 0.23580 0.19190 1.21740
C4 C 0.38376(18) 0.33620(18) 1.17757(8)
H2 H 0.45850 0.34950 1.22500
C5 C 0.40680(18) 0.41144(18) 1.11173(9)
H3 H 0.49500 0.47920 1.11520
C6 C 0.30279(17) 0.38810(17) 1.04197(8)
H4 H 0.32190 0.43790 0.99770
C7 C 0.16866(16) 0.29143(16) 1.03556(7)
C8 C 0.05478(16) 0.26603(15) 0.96327(7)
C9 C -0.08674(16) 0.19281(15) 0.96412(7)
C10 C 0.09407(17) 0.32701(15) 0.89141(7)
C11 C 0.23252(17) 0.27636(16) 0.86723(7)
H5 H 0.29730 0.19930 0.89480
C12 C 0.27541(17) 0.33860(16) 0.80296(8)
H6 H 0.36920 0.30340 0.78670
C13 C 0.18224(18) 0.45179(16) 0.76239(8)
H7 H 0.21300 0.49500 0.71890
C14 C 0.04378(18) 0.50161(16) 0.78566(8)
H8 H -0.02080 0.57840 0.75780
C15 C -0.00048(17) 0.43905(15) 0.84988(8)
H9 H -0.09560 0.47300 0.86540
C16 C -0.21121(17) 0.17354(15) 0.89178(8)
H10 H -0.17260 0.16610 0.84560
C17 C -0.37625(18) 0.14609(18) 1.05579(9)
H11 H -0.32880 0.18880 1.10610
H12 H -0.47110 0.08530 1.05960
H13 H -0.40980 0.22690 1.01880
#END
