
#######################################################################
#
#                 Cambridge Crystallographic Data Centre
#                                CCDC
#
#######################################################################
#
# If this CIF has been generated from an entry in the Cambridge
# Structural Database, then it will include bibliographic, chemical,
# crystal, experimental, refinement or atomic coordinate data resulting
# from the CCDC's data processing and validation procedures.
#
#######################################################################

data_CSD_CIF_SUHZEC
_audit_creation_date 2015-03-25
_audit_creation_method CSD-ConQuest-V1
_database_code_CSD SUHZEC
_database_code_depnum_ccdc_archive 'CCDC 989464'
_chemical_formula_sum 'C23 H19 N1 O3'
_chemical_formula_moiety
;
C23 H19 N1 O3
;
_journal_coden_Cambridge 35
_journal_volume 79
_journal_year 2014
_journal_page_first 10988
_journal_name_full 'J.Org.Chem. '
loop_
_publ_author_name
"Zhi-Wei Chen"
"Yi-Zhou Zhu"
"Jin-Wang Ou"
"Ya-Ping Wang"
"Jian-Yu Zheng"
_chemical_name_systematic
;
2-Methoxy-4-(4-methoxyphenyl)-3-phenylisoquinolin-1(2H)-one
;
_cell_volume   1849.660
_exptl_crystal_density_diffrn 1.283
_diffrn_ambient_temperature 293
#These two values have been output from a single CSD field.
_refine_ls_R_factor_gt 0.0587
_refine_ls_wR_factor_gt 0.0587
_symmetry_cell_setting triclinic
_symmetry_space_group_name_H-M 'P -1'
_symmetry_Int_Tables_number 2
loop_
_symmetry_equiv_pos_site_id
_symmetry_equiv_pos_as_xyz
1 x,y,z
2 -x,-y,-z
_cell_length_a 9.953(2)
_cell_length_b 12.581(3)
_cell_length_c 15.107(3)
_cell_angle_alpha 90.32(3)
_cell_angle_beta 97.35(3)
_cell_angle_gamma 99.51(3)
_cell_formula_units_Z 4
loop_
_atom_type_symbol
_atom_type_radius_bond
C 0.68
H 0.23
N 0.68
O 0.68
loop_
_atom_site_label
_atom_site_type_symbol
_atom_site_fract_x
_atom_site_fract_y
_atom_site_fract_z
O1 O 0.87564(18) 0.71322(12) 0.50032(11)
O2 O 0.72491(16) 0.64765(11) 0.3455(1)
O3 O 0.53798(15) -0.05086(11) 0.36473(10)
N1 N 0.74161(18) 0.57585(13) 0.41486(11)
C1 C 0.8284(2) 0.61636(17) 0.49100(15)
C2 C 0.8534(2) 0.53510(16) 0.55659(14)
C3 C 0.9295(2) 0.56877(18) 0.63932(15)
H1 H 0.96260 0.64170 0.65100
C4 C 0.9555(2) 0.4960(2) 0.70292(15)
H2 H 1.00410 0.51930 0.75820
C5 C 0.9092(2) 0.38651(19) 0.68476(15)
H3 H 0.92790 0.33670 0.72800
C6 C 0.8368(2) 0.35163(17) 0.60435(14)
H4 H 0.80790 0.27810 0.59310
C7 C 0.80464(19) 0.42485(15) 0.53778(13)
C8 C 0.72129(19) 0.39129(15) 0.45266(13)
C9 C 0.6894(2) 0.46744(15) 0.39468(13)
C10 C 0.5993(2) 0.44448(14) 0.30723(14)
C11 C 0.4604(2) 0.44985(18) 0.29966(16)
H5 H 0.42210 0.46900 0.34920
C12 C 0.3781(3) 0.4268(2) 0.2182(2)
H6 H 0.28480 0.43000 0.21340
C13 C 0.4342(3) 0.39928(19) 0.14496(19)
H7 H 0.37910 0.38450 0.09030
C14 C 0.5702(3) 0.3936(2) 0.15198(16)
H8 H 0.60800 0.37530 0.10200
C15 C 0.6525(2) 0.41470(17) 0.23271(15)
H9 H 0.74510 0.40880 0.23700
C16 C 0.6700(2) 0.27427(15) 0.43108(13)
C17 C 0.5315(2) 0.23207(16) 0.42227(14)
H10 H 0.46910 0.27730 0.43130
C18 C 0.4826(2) 0.12361(16) 0.40028(14)
H11 H 0.38880 0.09710 0.39450
C19 C 0.5744(2) 0.05604(15) 0.38716(13)
C20 C 0.7141(2) 0.09639(15) 0.39758(13)
H12 H 0.77640 0.05060 0.39000
C21 C 0.7613(2) 0.20430(16) 0.41923(13)
H13 H 0.85510 0.23040 0.42590
C22 C 0.6283(3) 0.7162(2) 0.36215(18)
H14 H 0.54230 0.67270 0.37040
H15 H 0.61480 0.76190 0.31220
H16 H 0.66330 0.75990 0.41500
C23 C 0.3952(2) -0.09578(18) 0.35861(17)
H17 H 0.36360 -0.08740 0.41530
H18 H 0.38230 -0.17100 0.34240
H19 H 0.34380 -0.05900 0.31410
O4 O -0.08772(15) 0.37098(11) 0.09089(10)
O5 O -0.10880(14) 0.22594(11) 0.21555(9)
O6 O 0.45520(16) -0.21085(13) 0.12921(13)
N2 N -0.01485(16) 0.22357(12) 0.15459(11)
C24 C -0.0122(2) 0.30260(16) 0.09142(13)
C25 C 0.08158(19) 0.29278(15) 0.02651(13)
C26 C 0.0913(2) 0.36760(17) -0.04148(15)
H20 H 0.04140 0.42400 -0.04270
C27 C 0.1738(2) 0.35844(19) -0.10637(16)
H21 H 0.17920 0.40820 -0.15160
C28 C 0.2490(2) 0.27513(19) -0.10434(15)
H22 H 0.30420 0.26880 -0.14870
C29 C 0.2430(2) 0.20139(17) -0.03722(13)
H23 H 0.29510 0.14640 -0.03640
C30 C 0.15903(19) 0.20816(15) 0.03010(12)
C31 C 0.14878(19) 0.13094(14) 0.10051(13)
C32 C 0.06209(19) 0.14005(15) 0.16167(13)
C33 C 0.0456(2) 0.06862(15) 0.24009(13)
C34 C -0.0255(2) -0.03571(17) 0.22968(15)
H24 H -0.06750 -0.06150 0.17340
C35 C -0.0348(3) -0.10229(19) 0.30213(18)
H25 H -0.08270 -0.17240 0.29430
C36 C 0.0264(3) -0.0648(2) 0.38535(17)
H26 H 0.02190 -0.10990 0.43380
C37 C 0.0946(2) 0.0397(2) 0.39697(14)
H27 H 0.13400 0.06590 0.45370
C38 C 0.1047(2) 0.10580(17) 0.32466(13)
H28 H 0.15180 0.17610 0.33300
C39 C 0.2307(2) 0.04119(15) 0.10471(12)
C40 C 0.1697(2) -0.06138(17) 0.07592(15)
H29 H 0.07780 -0.07310 0.05130
C41 C 0.2401(2) -0.14792(17) 0.08228(15)
H30 H 0.19550 -0.21670 0.06340
C42 C 0.3763(2) -0.13080(17) 0.11674(15)
C43 C 0.4401(2) -0.02849(19) 0.14387(18)
H31 H 0.53280 -0.01650 0.16670
C44 C 0.3686(2) 0.05630(17) 0.13763(16)
H32 H 0.41400 0.12510 0.15590
C45 C -0.2411(2) 0.16791(19) 0.17782(16)
H33 H -0.26860 0.19710 0.12110
H34 H -0.30760 0.17490 0.21740
H35 H -0.23530 0.09310 0.16990
C46 C 0.3872(3) -0.3190(2) 0.11261(19)
H36 H 0.31390 -0.33390 0.14870
H37 H 0.45150 -0.36730 0.12730
H38 H 0.35030 -0.32880 0.05070
#END
