
#######################################################################
#
#                 Cambridge Crystallographic Data Centre
#                                CCDC
#
#######################################################################
#
# If this CIF has been generated from an entry in the Cambridge
# Structural Database, then it will include bibliographic, chemical,
# crystal, experimental, refinement or atomic coordinate data resulting
# from the CCDC's data processing and validation procedures.
#
#######################################################################

data_CSD_CIF_SUJBAC
_audit_creation_date 2015-03-25
_audit_creation_method CSD-ConQuest-V1
_database_code_CSD SUJBAC
_database_code_depnum_ccdc_archive 'CCDC 1025671'
_chemical_formula_sum 'C21 H16 N2 O3'
_chemical_formula_moiety
;
C21 H16 N2 O3
;
_journal_coden_Cambridge 35
_journal_volume 80
_journal_year 2015
_journal_page_first 1506
_journal_name_full 'J.Org.Chem. '
loop_
_publ_author_name
"H.Surya Prakash Rao"
"A.Veera Bhadra Rao"
_chemical_name_systematic
;
2-(2-Nitrobenzyl)-3-phenylisoindolin-1-one
;
_cell_volume    837.765
_exptl_crystal_colour 'colorless'
_exptl_crystal_density_diffrn 1.365
_exptl_crystal_description 'block'
_diffrn_ambient_temperature 298
#These two values have been output from a single CSD field.
_refine_ls_R_factor_gt 0.04
_refine_ls_wR_factor_gt 0.04
_symmetry_cell_setting triclinic
_symmetry_space_group_name_H-M 'P -1'
_symmetry_Int_Tables_number 2
loop_
_symmetry_equiv_pos_site_id
_symmetry_equiv_pos_as_xyz
1 x,y,z
2 -x,-y,-z
_cell_length_a 7.4641(5)
_cell_length_b 10.1247(6)
_cell_length_c 11.5543(10)
_cell_angle_alpha 93.217(6)
_cell_angle_beta 105.398(7)
_cell_angle_gamma 93.602(5)
_cell_formula_units_Z 2
loop_
_atom_type_symbol
_atom_type_radius_bond
C 0.68
H 0.23
N 0.68
O 0.68
loop_
_atom_site_label
_atom_site_type_symbol
_atom_site_fract_x
_atom_site_fract_y
_atom_site_fract_z
C1 C 0.17772(16) 0.67575(11) 0.03535(12)
N1 N 0.41738(14) 0.74672(10) 0.2268(1)
C2 C 0.26541(18) 0.56133(12) 0.01863(13)
O1 O 0.36224(14) 0.57473(10) 0.33857(10)
N2 N -0.06240(16) 0.82597(12) -0.05416(12)
C3 C 0.53744(16) 0.98422(12) 0.24286(12)
O2 O -0.12979(16) 0.83657(12) 0.03151(12)
C4 C 0.57064(17) 0.84019(12) 0.21834(12)
C5 C 0.46790(18) 0.65939(12) 0.31379(12)
C6 C 0.73204(17) 0.79537(12) 0.31384(11)
C7 C 0.04412(17) 0.71033(12) -0.06477(12)
C8 C 0.22605(18) 0.75441(13) 0.15660(13)
C9 C -0.0016(2) 0.63908(15) -0.17555(14)
C10 C 0.67034(17) 0.69033(12) 0.36867(12)
C11 C 0.0864(2) 0.52550(15) -0.18801(14)
C12 C 0.2191(2) 0.48710(14) -0.09131(14)
C13 C 0.7896(2) 0.63300(15) 0.46350(13)
C14 C 0.4641(2) 1.02061(15) 0.33674(14)
O3 O -0.08038(18) 0.90387(12) -0.13249(12)
C15 C 0.91544(19) 0.84861(16) 0.35194(15)
C16 C 0.5857(2) 1.08045(15) 0.17405(18)
C17 C 0.9727(2) 0.68558(17) 0.50042(15)
C18 C 0.4413(3) 1.15283(18) 0.36245(18)
C19 C 0.5624(3) 1.21248(17) 0.1999(2)
C20 C 0.4923(2) 1.24878(16) 0.2942(2)
C21 C 1.0344(2) 0.79146(18) 0.44638(16)
H1 H 0.3588(19) 0.5335(13) 0.0877(13)
H2 H 0.2089(18) 0.8475(15) 0.1462(13)
H3 H 0.143(2) 0.7180(14) 0.2055(13)
H4 H 0.5899(18) 0.8290(13) 0.1376(14)
H5 H 0.053(2) 0.4731(16) -0.2645(16)
H6 H -0.099(2) 0.6683(16) -0.2410(16)
H7 H 0.428(2) 0.9519(16) 0.3842(15)
H8 H 0.741(2) 0.5594(16) 0.5018(15)
H9 H 0.279(2) 0.4073(16) -0.0987(15)
H10 H 0.957(2) 0.9242(17) 0.3157(15)
H11 H 1.062(2) 0.6490(16) 0.5667(16)
H12 H 0.475(3) 1.336(2) 0.3133(19)
H13 H 0.390(3) 1.1740(19) 0.4293(19)
H14 H 0.638(3) 1.0514(18) 0.1056(18)
H15 H 1.162(3) 0.8309(16) 0.4743(16)
H16 H 0.597(3) 1.283(2) 0.1493(19)
#END
