
#######################################################################
#
#                 Cambridge Crystallographic Data Centre
#                                CCDC
#
#######################################################################
#
# If this CIF has been generated from an entry in the Cambridge
# Structural Database, then it will include bibliographic, chemical,
# crystal, experimental, refinement or atomic coordinate data resulting
# from the CCDC's data processing and validation procedures.
#
#######################################################################

data_CSD_CIF_SUKVID
_audit_creation_date 1993-11-16
_audit_creation_method CSD-ConQuest-V1
_database_code_CSD SUKVID
_database_code_depnum_ccdc_archive 'CCDC 1264158'
_chemical_formula_sum 'C17 H19 N1 O4'
_chemical_formula_moiety
;
C17 H19 N1 O4
;
_journal_coden_Cambridge 182
_journal_year 1993
_journal_page_first 954
_journal_name_full 'Chem.Commun. '
loop_
_publ_author_name
"M.G.Banwell"
"N.Haddad"
"J.A.Huglin"
"M.F.MacKay"
"M.E.Reum"
"J.H.Ryan"
"K.A.Turner"
_chemical_name_systematic
;
(1\a,3\a,7\a)-3,5-Dimethylbicyclo(5.1.0)oct-5-en-3-yl p-nitrobenzoate
;
_cell_volume   3113.212
_exptl_crystal_colour 'colorless'
_exptl_crystal_density_diffrn 1.286
_diffrn_ambient_temperature ?
_diffrn_special_details
;
The study was carried out at room temperature,in the range 283-303K

;
#These two values have been output from a single CSD field.
_refine_ls_R_factor_gt 0.083
_refine_ls_wR_factor_gt 0.083
_symmetry_cell_setting monoclinic
_symmetry_space_group_name_H-M 'C 2/c'
_symmetry_Int_Tables_number 15
loop_
_symmetry_equiv_pos_site_id
_symmetry_equiv_pos_as_xyz
1 x,y,z
2 1/2+x,1/2+y,z
3 -x,y,1/2-z
4 1/2-x,1/2+y,1/2-z
5 -x,-y,-z
6 -1/2-x,-1/2-y,-z
7 x,-y,-1/2+z
8 -1/2+x,-1/2-y,-1/2+z
_cell_length_a 33.439(4)
_cell_length_b 6.600(1)
_cell_length_c 14.205(3)
_cell_angle_alpha 90
_cell_angle_beta 96.76(2)
_cell_angle_gamma 90
_cell_formula_units_Z 8
loop_
_atom_type_symbol
_atom_type_radius_bond
C 0.68
H 0.23
N 0.68
O 0.68
loop_
_atom_site_label
_atom_site_type_symbol
_atom_site_fract_x
_atom_site_fract_y
_atom_site_fract_z
C1 C 0.2204(3) 0.4991(20) 0.1090(8)
C2 C 0.2600(3) 0.5001(20) 0.0828(9)
C3 C 0.2925(3) 0.5027(21) 0.1534(9)
C4 C 0.2856(3) 0.5013(21) 0.2462(8)
N1 N 0.3194(3) 0.5029(19) 0.3222(8)
O1 O 0.3141(3) 0.4977(16) 0.4020(7)
C5 C 0.2470(3) 0.4986(19) 0.2733(8)
O2 O 0.3536(3) 0.5222(15) 0.2950(7)
C6 C 0.2148(3) 0.4937(20) 0.2046(8)
C7 C 0.1875(3) 0.4960(2) 0.0292(10)
O3 O 0.1916(2) 0.5152(15) -0.0534(6)
O4 O 0.1509(2) 0.4841(13) 0.0611(5)
C8 C 0.0751(4) 0.6429(23) 0.1238(10)
C9 C 0.0805(3) 0.4638(20) 0.0656(9)
C10 C 0.1132(3) 0.4932(23) -0.0032(8)
C11 C 0.1109(4) 0.6969(21) -0.0520(9)
C12 C 0.0683(4) 0.7687(20) -0.0881(10)
C13 C 0.0433(4) 0.8264(22) -0.0264(10)
C14 C 0.0546(4) 0.8274(24) 0.0763(11)
C15 C 0.0318(4) 0.7013(23) 0.1407(10)
C16 C 0.1111(4) 0.3140(22) -0.0718(9)
C17 C 0.0578(4) 0.7743(24) -0.1933(10)
H1 H 0.26470 0.50320 0.00890
H2 H 0.32300 0.50410 0.13540
H3 H 0.24240 0.49660 0.34730
H4 H 0.18450 0.49120 0.22360
H5 H 0.01350 0.87590 -0.05470
H6 H 0.08330 0.32080 -0.11890
H7 H 0.11210 0.17430 -0.03190
H8 H 0.13630 0.31990 -0.11270
H9 H 0.02560 0.79460 -0.20870
H10 H 0.06650 0.63380 -0.22430
H11 H 0.07310 0.89890 -0.22290
H12 H 0.10330 0.63900 0.17690
H13 H 0.09220 0.34660 0.10470
H14 H 0.05430 0.46330 0.01450
H15 H 0.11990 0.80190 -0.00580
H16 H 0.12510 0.73100 -0.10540
H17 H 0.06180 0.98800 0.09610
H18 H 0.03730 0.73470 0.21650
H19 H 0.01250 0.56820 0.10630
#END
