
#######################################################################
#
#                 Cambridge Crystallographic Data Centre
#                                CCDC
#
#######################################################################
#
# If this CIF has been generated from an entry in the Cambridge
# Structural Database, then it will include bibliographic, chemical,
# crystal, experimental, refinement or atomic coordinate data resulting
# from the CCDC's data processing and validation procedures.
#
#######################################################################

data_CSD_CIF_SUKZII
_audit_creation_date 2010-06-10
_audit_creation_method CSD-ConQuest-V1
_database_code_CSD SUKZII
_database_code_depnum_ccdc_archive 'CCDC 742506'
_chemical_formula_sum 'C21 H19 N1 O6'
_chemical_formula_moiety
;
C21 H19 N1 O6
;
_journal_coden_Cambridge 179
_journal_volume 48
_journal_year 2009
_journal_page_first 9542
_journal_name_full 'Angew.Chem.,Int.Ed. '
loop_
_publ_author_name
"Liang-Qiu Lu"
"Fang Li"
"Jing An"
"Ji-Ji Zhang"
"Xiao-Lei An"
"Qiu-Lin Hua"
"Wen-Jing Xiao"
_chemical_name_systematic
;
Ethyl 
1-benzoyl-4,4a,9b,9c-tetrahydro-1H-2,3,5-trioxa-2a-azapentaleno[1,6-ab]naphtha
lene-4-carboxylate
;
_cell_volume    928.681
_exptl_crystal_density_diffrn 1.364
_exptl_crystal_description 'block'
_diffrn_ambient_temperature 273
#These two values have been output from a single CSD field.
_refine_ls_R_factor_gt 0.0383
_refine_ls_wR_factor_gt 0.0383
_symmetry_cell_setting triclinic
_symmetry_space_group_name_H-M 'P -1'
_symmetry_Int_Tables_number 2
loop_
_symmetry_equiv_pos_site_id
_symmetry_equiv_pos_as_xyz
1 x,y,z
2 -x,-y,-z
_cell_length_a 8.3918(9)
_cell_length_b 9.6816(11)
_cell_length_c 12.4857(14)
_cell_angle_alpha 69.825(2)
_cell_angle_beta 77.267(2)
_cell_angle_gamma 86.311(2)
_cell_formula_units_Z 2
loop_
_atom_type_symbol
_atom_type_radius_bond
C 0.68
H 0.23
N 0.68
O 0.68
loop_
_atom_site_label
_atom_site_type_symbol
_atom_site_fract_x
_atom_site_fract_y
_atom_site_fract_z
O1 O 0.64041(19) 0.89327(15) 0.07922(12)
C1 C 0.7408(2) 0.92483(16) 0.23156(14)
H1 H 0.85330 0.89430 0.23670
C2 C 0.7213(2) 0.97081(18) 0.10611(15)
C3 C 0.8006(2) 1.10848(18) 0.01876(15)
C4 C 0.7615(3) 1.1589(2) -0.09041(17)
H2 H 0.68810 1.10600 -0.10790
C5 C 0.9116(2) 1.1877(2) 0.04209(19)
H3 H 0.93950 1.15460 0.11480
C6 C 0.9398(3) 1.3656(3) -0.1483(2)
H4 H 0.98550 1.45300 -0.20400
C7 C 0.9810(3) 1.3153(3) -0.0416(2)
H5 H 1.05640 1.36770 -0.02550
C8 C 0.8316(3) 1.2880(3) -0.1734(2)
H6 H 0.80490 1.32190 -0.24650
O2 O 0.70100(15) 1.05133(11) 0.26976(10)
N1 N 0.67333(17) 1.00103(14) 0.39189(12)
O3 O 0.84138(14) 0.98775(12) 0.41571(10)
C9 C 0.62072(19) 0.80780(16) 0.32062(14)
H7 H 0.51310 0.82630 0.30030
C10 C 0.61495(19) 0.84338(16) 0.43208(14)
H8 H 0.50240 0.83400 0.47740
O4 O 0.84165(14) 0.66530(12) 0.45610(11)
C11 C 0.77148(19) 0.58309(16) 0.40739(14)
C12 C 0.66552(18) 0.64988(16) 0.33506(14)
C13 C 0.7281(2) 0.75228(16) 0.50946(15)
H9 H 0.66600 0.69160 0.58590
C14 C 0.7580(2) 0.35911(18) 0.37157(16)
H10 H 0.78860 0.26180 0.38350
C15 C 0.6063(2) 0.56831(18) 0.28013(16)
H11 H 0.53380 0.61050 0.23160
C16 C 0.8164(2) 0.43762(17) 0.42828(16)
H12 H 0.88470 0.39380 0.47970
C17 C 0.6546(2) 0.42387(19) 0.29723(17)
H13 H 0.61690 0.37060 0.25820
C18 C 0.8314(2) 0.86813(17) 0.52074(14)
H14 H 0.94150 0.82920 0.52480
C19 C 0.7652(2) 0.91239(18) 0.62768(15)
O5 O 0.74662(16) 1.03556(13) 0.62771(12)
O6 O 0.73444(19) 0.79276(14) 0.72218(11)
C20 C 0.6762(3) 0.8143(2) 0.83427(18)
H15 H 0.59170 0.88810 0.82840
H16 H 0.76540 0.84710 0.85800
C21 C 0.6102(4) 0.6716(3) 0.9204(2)
H17 H 0.51880 0.64260 0.89800
H18 H 0.57540 0.68110 0.99610
H19 H 0.69350 0.59840 0.92300
#END
