
#######################################################################
#
#                 Cambridge Crystallographic Data Centre
#                                CCDC
#
#######################################################################
#
# If this CIF has been generated from an entry in the Cambridge
# Structural Database, then it will include bibliographic, chemical,
# crystal, experimental, refinement or atomic coordinate data resulting
# from the CCDC's data processing and validation procedures.
#
#######################################################################

data_CSD_CIF_SULJEO
_audit_creation_date 1993-11-16
_audit_creation_method CSD-ConQuest-V1
_database_code_CSD SULJEO
_chemical_formula_sum 'C20 H31 N1 O3'
_chemical_formula_moiety
;
C20 H31 N1 O3
;
_journal_coden_Cambridge 4
_journal_volume 115
_journal_year 1993
_journal_page_first 3494
_journal_name_full 'J.Am.Chem.Soc. '
loop_
_publ_author_name
"J.E.Anderson"
"D.A.Tocher"
"J.E.T.Corrie"
"L.Lunazzi"
_chemical_name_systematic
;
4-Benzoyloxy-1-t-butoxy-2,2,6,6-tetramethylpiperidine
;
_cell_volume   2011.775
_exptl_crystal_colour 'colorless'
_exptl_crystal_density_diffrn 1.1
_diffrn_ambient_temperature ?
_diffrn_special_details
;
The study was carried out at room temperature,in the range 283-303K

;
#These two values have been output from a single CSD field.
_refine_ls_R_factor_gt 0.0684
_refine_ls_wR_factor_gt 0.0684
_symmetry_cell_setting triclinic
_symmetry_space_group_name_H-M 'P -1'
_symmetry_Int_Tables_number 2
loop_
_symmetry_equiv_pos_site_id
_symmetry_equiv_pos_as_xyz
1 x,y,z
2 -x,-y,-z
_cell_length_a 12.385(5)
_cell_length_b 12.861(6)
_cell_length_c 14.107(5)
_cell_angle_alpha 94.04(3)
_cell_angle_beta 94.52(3)
_cell_angle_gamma 115.29(3)
_cell_formula_units_Z 4
loop_
_atom_type_symbol
_atom_type_radius_bond
C 0.68
H 0.23
N 0.68
O 0.68
loop_
_atom_site_label
_atom_site_type_symbol
_atom_site_fract_x
_atom_site_fract_y
_atom_site_fract_z
O1 O -0.3438(3) 0.4112(3) 0.8681(3)
O2 O -0.2399(3) 0.5717(3) 0.9727(2)
O3 O 0.1682(3) 0.8146(3) 0.7945(2)
N1 N 0.0905(3) 0.7649(3) 0.8675(3)
C1 C -0.3934(5) 0.4847(5) 1.1090(4)
C2 C -0.4704(6) 0.4381(6) 1.1764(4)
C3 C -0.5634(6) 0.3287(7) 1.1579(6)
C4 C -0.5795(6) 0.2645(6) 1.0727(6)
C5 C -0.5024(5) 0.3096(5) 1.0042(4)
C6 C -0.4090(4) 0.4208(5) 1.0221(4)
C7 C -0.3301(5) 0.4652(5) 0.9450(4)
C8 C -0.1544(4) 0.6223(4) 0.9027(3)
C9 C -0.0958(5) 0.7518(4) 0.9302(3)
C10 C 0.0003(4) 0.8152(4) 0.8641(3)
C11 C 0.0674(5) 0.9424(4) 0.9081(4)
C12 C -0.0596(5) 0.8137(4) 0.7646(3)
C13 C -0.0585(4) 0.5798(4) 0.9107(3)
C14 C 0.0406(4) 0.6347(4) 0.8451(3)
C15 C 0.1409(5) 0.5995(5) 0.8755(4)
C16 C -0.0061(5) 0.5861(4) 0.7396(3)
C17 C 0.2969(5) 0.8845(5) 0.8234(5)
C18 C 0.3615(5) 0.8279(6) 0.7653(5)
C19 C 0.3286(5) 1.0040(5) 0.7910(5)
C20 C 0.3365(6) 0.8947(6) 0.9276(5)
O4 O -0.2609(3) 0.5866(3) 1.6067(3)
O5 O -0.2752(3) 0.5369(3) 1.4480(2)
O6 O 0.1493(3) 0.8696(3) 1.3389(2)
N2 N 0.0463(4) 0.7596(3) 1.3486(3)
C21 C -0.4489(5) 0.3659(5) 1.6219(4)
C22 C -0.5470(7) 0.2612(7) 1.6248(6)
C23 C -0.6139(7) 0.1968(6) 1.5449(8)
C24 C -0.5848(7) 0.2360(6) 1.4583(7)
C25 C -0.4847(6) 0.3395(5) 1.4514(5)
C26 C -0.4183(5) 0.4051(5) 1.5345(4)
C27 C -0.3103(5) 0.5192(5) 1.5359(4)
C28 C -0.1679(5) 0.6451(4) 1.4414(4)
C29 C -0.0552(4) 0.6298(4) 1.4656(3)
C30 C 0.0611(4) 0.7352(4) 1.4506(3)
C31 C 0.0914(5) 0.8368(4) 1.5286(3)
C32 C 0.1632(5) 0.6975(5) 1.4623(4)
C33 C -0.1739(5) 0.6682(4) 1.3382(3)
C34 C -0.0635(5) 0.7768(4) 1.3187(3)
C35 C -0.0653(5) 0.8891(4) 1.3628(4)
C36 C -0.0739(5) 0.7767(5) 1.2094(4)
C37 C 0.2355(6) 0.8687(5) 1.2725(4)
C38 C 0.2462(6) 0.9627(5) 1.2087(4)
C39 C 0.3556(6) 0.9057(6) 1.3319(6)
C40 C 0.2009(7) 0.7539(6) 1.2143(5)
H1 H -0.32590 0.55950 1.12230
H2 H -0.46010 0.48460 1.23570
H3 H -0.61640 0.29810 1.20550
H4 H -0.64350 0.18750 1.06130
H5 H -0.51420 0.26540 0.94330
H6 H -0.19590 0.60320 0.83900
H7 H -0.05850 0.76860 0.99520
H8 H -0.15680 0.77910 0.92610
H9 H 0.12790 0.98430 0.86870
H10 H 0.01250 0.97670 0.91230
H11 H 0.10510 0.94540 0.97100
H12 H 0.00040 0.85200 0.72380
H13 H -0.10650 0.73440 0.73830
H14 H -0.11120 0.85180 0.76910
H15 H -0.09640 0.49730 0.89420
H16 H -0.02300 0.59560 0.97620
H17 H 0.17040 0.62780 0.94170
H18 H 0.11300 0.51700 0.86680
H19 H 0.20450 0.63490 0.83690
H20 H -0.07100 0.60610 0.72300
H21 H 0.05640 0.62140 0.70000
H22 H -0.03510 0.50360 0.72980
H23 H 0.34600 0.75350 0.78540
H24 H 0.32920 0.81830 0.69950
H25 H 0.44680 0.87550 0.77220
H26 H 0.30710 0.99640 0.72310
H27 H 0.28130 1.03450 0.82350
H28 H 0.41240 1.05570 0.80680
H29 H 0.32160 0.82020 0.94720
H30 H 0.42020 0.94640 0.94340
H31 H 0.28910 0.92520 0.96010
H32 H -0.40210 0.41210 1.67990
H33 H -0.56750 0.23200 1.68490
H34 H -0.68200 0.12440 1.54810
H35 H -0.63410 0.19120 1.40070
H36 H -0.46160 0.36690 1.39120
H37 H -0.16600 0.70810 1.48340
H38 H -0.06270 0.56370 1.42460
H39 H -0.05090 0.61280 1.53060
H40 H 0.16450 0.90190 1.51960
H41 H 0.02560 0.85750 1.52160
H42 H 0.09880 0.81480 1.59150
H43 H 0.14680 0.63380 1.41470
H44 H 0.23710 0.76160 1.45340
H45 H 0.17020 0.67450 1.52490
H46 H -0.24630 0.67750 1.32430
H47 H -0.18030 0.60200 1.29800
H48 H -0.06120 0.88940 1.43100
H49 H 0.00440 0.95310 1.34700
H50 H -0.13640 0.89610 1.33900
H51 H -0.07660 0.70550 1.18100
H52 H -0.14500 0.78360 1.18540
H53 H -0.00410 0.84060 1.19350
H54 H 0.27440 1.03630 1.24670
H55 H 0.29900 0.96820 1.16110
H56 H 0.16650 0.94120 1.17790
H57 H 0.35210 0.84700 1.37170
H58 H 0.41830 0.91980 1.29180
H59 H 0.37190 0.97580 1.37150
H60 H 0.19910 0.69560 1.25390
H61 H 0.12140 0.73300 1.18350
H62 H 0.25400 0.76000 1.16670
#END
