
#######################################################################
#
#                 Cambridge Crystallographic Data Centre
#                                CCDC
#
#######################################################################
#
# If this CIF has been generated from an entry in the Cambridge
# Structural Database, then it will include bibliographic, chemical,
# crystal, experimental, refinement or atomic coordinate data resulting
# from the CCDC's data processing and validation procedures.
#
#######################################################################

data_CSD_CIF_SULJIS
_audit_creation_date 1993-11-16
_audit_creation_method CSD-ConQuest-V1
_database_code_CSD SULJIS
_chemical_formula_sum 'C17 H25 N1 O3'
_chemical_formula_moiety
;
C17 H25 N1 O3
;
_journal_coden_Cambridge 4
_journal_volume 115
_journal_year 1993
_journal_page_first 3494
_journal_name_full 'J.Am.Chem.Soc. '
loop_
_publ_author_name
"J.E.Anderson"
"D.A.Tocher"
"J.E.T.Corrie"
"L.Lunazzi"
_chemical_name_systematic
;
4-Benzoyloxy-1-methoxy-2,2,6,6-tetramethylpiperidine
;
_cell_volume   1667.869
_exptl_crystal_colour 'colorless'
_exptl_crystal_density_diffrn 1.16
_diffrn_ambient_temperature ?
_diffrn_special_details
;
The study was carried out at room temperature,in the range 283-303K

;
#These two values have been output from a single CSD field.
_refine_ls_R_factor_gt 0.0578
_refine_ls_wR_factor_gt 0.0578
_symmetry_cell_setting monoclinic
_symmetry_space_group_name_H-M 'P 21/a'
_symmetry_Int_Tables_number 14
loop_
_symmetry_equiv_pos_site_id
_symmetry_equiv_pos_as_xyz
1 x,y,z
2 1/2-x,1/2+y,-z
3 -x,-y,-z
4 -1/2+x,-1/2-y,z
_cell_length_a 8.017(3)
_cell_length_b 11.239(5)
_cell_length_c 18.621(7)
_cell_angle_alpha 90
_cell_angle_beta 96.24(3)
_cell_angle_gamma 90
_cell_formula_units_Z 4
loop_
_atom_type_symbol
_atom_type_radius_bond
C 0.68
H 0.23
N 0.68
O 0.68
loop_
_atom_site_label
_atom_site_type_symbol
_atom_site_fract_x
_atom_site_fract_y
_atom_site_fract_z
C1 C 0.2840(4) 0.4549(3) -0.0008(2)
C2 C 0.3219(4) 0.4643(3) -0.0715(2)
C3 C 0.4075(4) 0.3741(4) -0.1012(2)
C4 C 0.4570(5) 0.2731(3) -0.0612(2)
C5 C 0.4177(4) 0.2634(3) 0.0090(2)
C6 C 0.3314(4) 0.3541(3) 0.0395(2)
C7 C 0.2918(4) 0.3384(3) 0.1157(2)
O1 O 0.3102(3) 0.2478(2) 0.1495(1)
O2 O 0.2327(3) 0.4398(2) 0.1418(1)
C8 C 0.1735(4) 0.4356(3) 0.2133(2)
C9 C 0.3183(4) 0.4399(3) 0.2724(2)
C10 C 0.2573(4) 0.4461(3) 0.3479(2)
C11 C 0.1810(6) 0.3266(3) 0.3680(2)
C12 C 0.4086(5) 0.4719(4) 0.4024(2)
N1 N 0.1436(3) 0.5518(2) 0.3475(1)
C13 C -0.0020(4) 0.5592(3) 0.2906(2)
C14 C -0.0729(5) 0.6856(3) 0.2941(2)
C15 C -0.1458(5) 0.4706(4) 0.2972(2)
C16 C 0.0669(4) 0.5455(3) 0.2176(2)
O3 O 0.0757(3) 0.5513(2) 0.4168(1)
C17 C 0.1312(6) 0.6530(4) 0.4577(2)
H1 H 0.22550 0.51780 0.02080
H2 H 0.28800 0.53350 -0.09960
H3 H 0.43300 0.38030 -0.15030
H4 H 0.51850 0.21090 -0.08200
H5 H 0.45010 0.19400 0.03710
H6 H 0.10750 0.36540 0.21830
H7 H 0.38450 0.50920 0.26510
H8 H 0.38800 0.37090 0.26960
H9 H 0.14170 0.33270 0.41480
H10 H 0.08880 0.30730 0.33270
H11 H 0.26460 0.26530 0.36890
H12 H 0.45710 0.54640 0.39030
H13 H 0.37480 0.47630 0.45020
H14 H 0.49000 0.40960 0.40050
H15 H 0.01560 0.74190 0.29000
H16 H -0.16020 0.69730 0.25530
H17 H -0.11750 0.69690 0.33950
H18 H -0.18770 0.48030 0.34320
H19 H -0.23490 0.48450 0.25930
H20 H -0.10380 0.39120 0.29320
H21 H -0.02450 0.54380 0.17970
H22 H 0.13530 0.61340 0.20980
H23 H 0.08900 0.67880 0.49540
H24 H 0.25860 0.65640 0.47410
H25 H 0.10530 0.72450 0.42770
#END
