
#######################################################################
#
#                 Cambridge Crystallographic Data Centre
#                                CCDC
#
#######################################################################
#
# If this CIF has been generated from an entry in the Cambridge
# Structural Database, then it will include bibliographic, chemical,
# crystal, experimental, refinement or atomic coordinate data resulting
# from the CCDC's data processing and validation procedures.
#
#######################################################################

data_CSD_CIF_SULROG
_audit_creation_date 1993-12-06
_audit_creation_method CSD-ConQuest-V1
_database_code_CSD SULROG
_chemical_formula_sum 'C7 H10 N4 O4'
_chemical_formula_moiety
;
C7 H10 N4 O4
;
_journal_coden_Cambridge 158
_journal_volume 302
_journal_year 1993
_journal_page_first 259
_journal_name_full 'Arch.Biochem.Biophys. '
loop_
_publ_author_name
"M.B.Dabrow"
"H.Katz"
"P.J.O'Dwyer"
"C.Afshar"
"J.P.Glusker"
_chemical_name_systematic
;
N-(1-(2-Hydroxyethyl)-2-nitro-1H-imidazol-1-yl)acetamide
;
_chemical_name_common
;
SR2508
;
_cell_volume    939.392
_exptl_crystal_colour 'pale yellow'
_exptl_special_details
;
possible use as an anticancer agent

;
_diffrn_ambient_temperature ?
_diffrn_special_details
;
The study was carried out at room temperature,in the range 283-303K

;
#These two values have been output from a single CSD field.
_refine_ls_R_factor_gt 0.041
_refine_ls_wR_factor_gt 0.041
_symmetry_cell_setting monoclinic
_symmetry_space_group_name_H-M 'P 21/c'
_symmetry_Int_Tables_number 14
loop_
_symmetry_equiv_pos_site_id
_symmetry_equiv_pos_as_xyz
1 x,y,z
2 -x,1/2+y,1/2-z
3 -x,-y,-z
4 x,-1/2-y,-1/2+z
_cell_length_a 12.052(3)
_cell_length_b 11.116(4)
_cell_length_c 7.330(2)
_cell_angle_alpha 90
_cell_angle_beta 106.94(2)
_cell_angle_gamma 90
_cell_formula_units_Z 4
loop_
_atom_type_symbol
_atom_type_radius_bond
C 0.68
H 0.23
N 0.68
O 0.68
loop_
_atom_site_label
_atom_site_type_symbol
_atom_site_fract_x
_atom_site_fract_y
_atom_site_fract_z
N1 N 0.63488(7) 0.09658(9) 0.4752(1)
C1 C 0.62228(9) -0.01465(10) 0.3965(2)
N2 N 0.53431(9) -0.02569(10) 0.2440(2)
C2 C 0.48646(12) 0.08604(14) 0.2203(2)
C3 C 0.54622(10) 0.16225(12) 0.3588(2)
N3 N 0.69977(8) -0.11250(9) 0.4720(2)
O1 O 0.68798(10) -0.20468(9) 0.3800(2)
O2 O 0.77469(8) -0.09758(9) 0.6227(1)
C4 C 0.72669(10) 0.14431(10) 0.6363(2)
C5 C 0.84306(9) 0.13889(9) 0.5946(2)
O3 O 0.84636(7) 0.14172(8) 0.4286(1)
N4 N 0.93490(8) 0.13485(9) 0.7450(1)
C6 C 1.05324(10) 0.13301(11) 0.7325(2)
C7 C 1.13159(11) 0.05986(14) 0.8918(2)
O4 O 1.09782(8) -0.06242(8) 0.8894(1)
H1 H 0.422(2) 0.104(2) 0.120(3)
H2 H 0.538(1) 0.244(1) 0.386(2)
H3 H 0.728(1) 0.095(1) 0.754(2)
H4 H 0.705(1) 0.228(1) 0.648(2)
H5 H 0.926(1) 0.130(1) 0.856(2)
H6 H 1.082(1) 0.214(1) 0.738(2)
H7 H 1.054(1) 0.101(1) 0.606(2)
H8 H 1.126(1) 0.091(1) 1.015(2)
H9 H 1.213(1) 0.066(1) 0.881(2)
H10 H 1.105(1) -0.092(2) 0.792(3)
#END
