
#######################################################################
#
#                 Cambridge Crystallographic Data Centre
#                                CCDC
#
#######################################################################
#
# If this CIF has been generated from an entry in the Cambridge
# Structural Database, then it will include bibliographic, chemical,
# crystal, experimental, refinement or atomic coordinate data resulting
# from the CCDC's data processing and validation procedures.
#
#######################################################################

data_CSD_CIF_SULZAC
_audit_creation_date 2015-08-27
_audit_creation_method CSD-ConQuest-V1
_database_code_CSD SULZAC
_database_code_depnum_ccdc_archive 'CCDC 1055698'
_chemical_formula_sum 'C17 H13 N1 O3'
_chemical_formula_moiety
;
C17 H13 N1 O3
;
_journal_coden_Cambridge 1350
_journal_volume 17
_journal_year 2015
_journal_page_first 7316
_journal_name_full 'CrystEngComm '
loop_
_publ_author_name
"Xinyuan Zhang"
"Xingxing Jiang"
"Yin Li"
"Zheshuai Lin"
"Guochun Zhang"
"Yicheng Wu"
_chemical_name_systematic
;
4-(4-methoxybenzylidene)-3-phenyl-1,2-oxazol-5(4H)-one
;
_cell_volume   1337.802
_exptl_crystal_colour 'yellow'
_exptl_crystal_density_diffrn 1.387
_exptl_crystal_description 'Prism'
_diffrn_ambient_temperature 153
#These two values have been output from a single CSD field.
_refine_ls_R_factor_gt 0.0375
_refine_ls_wR_factor_gt 0.0375
_symmetry_cell_setting orthorhombic
_symmetry_space_group_name_H-M 'P n a 21'
_symmetry_Int_Tables_number 33
loop_
_symmetry_equiv_pos_site_id
_symmetry_equiv_pos_as_xyz
1 x,y,z
2 -x,-y,1/2+z
3 1/2+x,1/2-y,z
4 1/2-x,1/2+y,1/2+z
_cell_length_a 11.482(3)
_cell_length_b 6.0114(13)
_cell_length_c 19.382(5)
_cell_angle_alpha 90
_cell_angle_beta 90
_cell_angle_gamma 90
_cell_formula_units_Z 4
loop_
_atom_type_symbol
_atom_type_radius_bond
C 0.68
H 0.23
N 0.68
O 0.68
loop_
_atom_site_label
_atom_site_type_symbol
_atom_site_fract_x
_atom_site_fract_y
_atom_site_fract_z
O1 O 0.59713(10) -0.02884(17) 0.27235(6)
O2 O 0.66214(9) 0.21394(19) 0.35058(6)
N1 N 0.49941(12) -0.0532(2) 0.22629(7)
O3 O 0.48498(10) 1.14427(18) 0.49963(6)
C1 C 0.47472(12) 0.9643(2) 0.45807(7)
C2 C 0.37087(13) 0.9503(3) 0.42080(8)
H1 H 0.31230 1.06020 0.42660
C3 C 0.35360(12) 0.7762(3) 0.37551(8)
H2 H 0.28230 0.76670 0.35080
C4 C 0.43984(12) 0.6117(2) 0.36516(8)
C5 C 0.54219(13) 0.6270(2) 0.40461(8)
H3 H 0.60060 0.51620 0.39970
C6 C 0.55969(13) 0.7997(3) 0.45034(8)
H4 H 0.62950 0.80670 0.47660
C7 C 0.41618(12) 0.4480(2) 0.31293(8)
H5 H 0.34310 0.46860 0.29080
C8 C 0.58667(13) 0.1652(2) 0.30948(8)
C9 C 0.47680(12) 0.2684(2) 0.28834(7)
C10 C 0.43273(13) 0.1181(2) 0.23604(8)
C11 C 0.32617(12) 0.1401(2) 0.19392(8)
C12 C 0.24712(13) -0.0344(2) 0.18972(8)
H6 H 0.25920 -0.16500 0.21630
C13 C 0.15046(15) -0.0189(3) 0.14680(9)
H7 H 0.09610 -0.13780 0.14450
C14 C 0.13377(14) 0.1710(3) 0.10732(9)
H8 H 0.06910 0.18000 0.07690
C15 C 0.21092(13) 0.3476(3) 0.11203(9)
H9 H 0.19840 0.47810 0.08540
C16 C 0.30676(13) 0.3336(2) 0.15574(8)
H10 H 0.35900 0.45560 0.15960
C17 C 0.59465(16) 1.1791(3) 0.5330(1)
H11 H 0.60980 1.05640 0.56510
H12 H 0.59260 1.31970 0.55850
H13 H 0.65660 1.18480 0.49830
#END
