
#######################################################################
#
#                 Cambridge Crystallographic Data Centre
#                                CCDC
#
#######################################################################
#
# If this CIF has been generated from an entry in the Cambridge
# Structural Database, then it will include bibliographic, chemical,
# crystal, experimental, refinement or atomic coordinate data resulting
# from the CCDC's data processing and validation procedures.
#
#######################################################################

data_CSD_CIF_SULZUV
_audit_creation_date 2010-10-20
_audit_creation_method CSD-ConQuest-V1
_database_code_CSD SULZUV
_database_code_depnum_ccdc_archive 'CCDC 747517'
_chemical_formula_sum 'C8 H14 N2 O2'
_chemical_formula_moiety
;
C8 H14 N2 O2
;
_journal_coden_Cambridge 177
_journal_volume 8
_journal_year 2010
_journal_page_first 864
_journal_name_full 'Org.Biomol.Chem. '
loop_
_publ_author_name
"M.Thiverny"
"C.Philouze"
"P.Y.Chavant"
"V.Blandin"
_chemical_name_systematic
;
rac-2-Isopropyl-2,3-dimethyl-1-oxy-2,3-dihydroimidazol-4-one
;
_chemical_melting_point 386.15
_cell_volume    442.898
_exptl_crystal_colour 'colorless'
_exptl_crystal_density_diffrn 1.276
_exptl_special_details
;
Melting point range 386.15-386.25K

;
_exptl_crystal_description 'block'
_diffrn_ambient_temperature 293
#These two values have been output from a single CSD field.
_refine_ls_R_factor_gt 0.0533
_refine_ls_wR_factor_gt 0.0533
loop_
_citation_database_id_CSD
_citation_special_details
AZEHET "is a stereoisomer of this entry"
_symmetry_cell_setting triclinic
_symmetry_space_group_name_H-M 'P -1'
_symmetry_Int_Tables_number 2
loop_
_symmetry_equiv_pos_site_id
_symmetry_equiv_pos_as_xyz
1 x,y,z
2 -x,-y,-z
_cell_length_a 6.900(2)
_cell_length_b 7.365(2)
_cell_length_c 8.819(2)
_cell_angle_alpha 83.78(2)
_cell_angle_beta 86.06(2)
_cell_angle_gamma 84.78(2)
_cell_formula_units_Z 2
loop_
_atom_type_symbol
_atom_type_radius_bond
C 0.68
H 0.23
N 0.68
O 0.68
loop_
_atom_site_label
_atom_site_type_symbol
_atom_site_fract_x
_atom_site_fract_y
_atom_site_fract_z
O1 O 0.1072(2) 0.2378(2) 0.5055(1)
O2 O 0.1938(1) -0.1506(1) 0.9496(1)
N1 N 0.1455(1) 0.1675(1) 0.6390(1)
N2 N 0.2516(1) 0.1494(1) 0.8781(1)
C1 C 0.2222(1) 0.2845(1) 0.7473(1)
C2 C 0.1932(2) -0.0155(2) 0.8562(1)
C3 C 0.1303(2) 0.0014(2) 0.7004(1)
C4 C 0.2921(2) 0.1949(2) 1.0281(1)
C5 C 0.4103(2) 0.3587(2) 0.6707(1)
C6 C 0.5624(2) 0.2079(2) 0.6302(2)
C7 C 0.4977(2) 0.4886(2) 0.7634(2)
C8 C 0.0616(2) 0.4334(2) 0.7786(2)
H1 H 0.08520 -0.09440 0.65180
H2 H 0.22120 0.30750 1.04770
H3 H 0.42770 0.20650 1.03150
H4 H 0.25400 0.10050 1.10340
H5 H 0.37600 0.42700 0.57740
H6 H 0.67410 0.26050 0.58110
H7 H 0.59830 0.13400 0.72060
H8 H 0.51060 0.13450 0.56320
H9 H 0.55340 0.42150 0.85020
H10 H 0.59600 0.54930 0.70220
H11 H 0.39870 0.57670 0.79580
H12 H 0.10100 0.50510 0.85250
H13 H 0.03750 0.50950 0.68670
H14 H -0.05400 0.37850 0.81630
#END
