
#######################################################################
#
#                 Cambridge Crystallographic Data Centre
#                                CCDC
#
#######################################################################
#
# If this CIF has been generated from an entry in the Cambridge
# Structural Database, then it will include bibliographic, chemical,
# crystal, experimental, refinement or atomic coordinate data resulting
# from the CCDC's data processing and validation procedures.
#
#######################################################################

data_CSD_CIF_SULZOP
_audit_creation_date 2010-10-20
_audit_creation_method CSD-ConQuest-V1
_database_code_CSD SULZOP
_database_code_depnum_ccdc_archive 'CCDC 741109'
_chemical_formula_sum 'C20 H16 N2 O5'
_chemical_formula_moiety
;
C20 H16 N2 O5
;
_journal_coden_Cambridge 177
_journal_volume 8
_journal_year 2010
_journal_page_first 901
_journal_name_full 'Org.Biomol.Chem. '
loop_
_publ_author_name
"A.E.Raveendran"
"R.R.Paul"
"E.Suresh"
"V.Nair"
_chemical_name_systematic
;
Ethyl 2-benzoyl-1-cyano-3-(3-nitrophenyl)cyclopropanecarboxylate
;
_cell_volume   1823.612
_exptl_crystal_colour 'colorless'
_exptl_crystal_density_diffrn 1.327
_exptl_crystal_description 'block'
_diffrn_ambient_temperature 293
#These two values have been output from a single CSD field.
_refine_ls_R_factor_gt 0.0767
_refine_ls_wR_factor_gt 0.0767
_symmetry_cell_setting monoclinic
_symmetry_space_group_name_H-M 'P 21/n'
_symmetry_Int_Tables_number 14
loop_
_symmetry_equiv_pos_site_id
_symmetry_equiv_pos_as_xyz
1 x,y,z
2 1/2-x,1/2+y,1/2-z
3 -x,-y,-z
4 -1/2+x,-1/2-y,-1/2+z
_cell_length_a 8.4448(11)
_cell_length_b 13.4134(17)
_cell_length_c 16.115(2)
_cell_angle_alpha 90
_cell_angle_beta 92.538(2)
_cell_angle_gamma 90
_cell_formula_units_Z 4
loop_
_atom_type_symbol
_atom_type_radius_bond
C 0.68
H 0.23
N 0.68
O 0.68
loop_
_atom_site_label
_atom_site_type_symbol
_atom_site_fract_x
_atom_site_fract_y
_atom_site_fract_z
N1 N 1.0117(3) -0.12862(18) 0.23059(16)
N2 N 0.6487(3) 0.35422(17) -0.04245(17)
O1 O 0.4576(2) 0.14013(16) -0.05155(12)
O2 O 1.04994(19) 0.12454(12) 0.02634(10)
O3 O 1.02167(19) 0.29010(11) 0.01587(12)
O4 O 1.0193(4) -0.17678(18) 0.16812(15)
O5 O 1.0609(5) -0.1590(2) 0.29740(17)
C1 C 0.8614(3) 0.00009(17) 0.15348(14)
C2 C 0.9380(3) -0.02918(18) 0.22679(15)
C3 C 0.9512(4) 0.0303(2) 0.29603(17)
C4 C 0.8830(4) 0.1233(2) 0.29145(18)
C5 C 0.8027(4) 0.1539(2) 0.21945(16)
C6 C 0.7921(3) 0.09319(16) 0.14961(13)
C7 C 0.7046(3) 0.13179(16) 0.07384(14)
C8 C 0.7910(3) 0.19420(15) 0.00967(13)
C9 C 0.7183(3) 0.09166(17) -0.01136(14)
C10 C 0.5739(3) 0.09369(17) -0.07007(15)
C11 C 0.5817(3) 0.04229(16) -0.15138(14)
C12 C 0.4927(3) 0.0804(2) -0.21871(17)
C13 C 0.4917(4) 0.0330(3) -0.29448(18)
C14 C 0.5748(4) -0.0535(3) -0.30353(19)
C15 C 0.6626(3) -0.0920(2) -0.23726(19)
C16 C 0.6687(3) -0.04394(19) -0.16162(17)
C17 C 0.9688(3) 0.19728(16) 0.01796(13)
C18 C 1.1949(3) 0.3023(2) 0.0228(2)
H1 H 1.23480 0.28290 0.07780
H2 H 1.24460 0.26030 -0.01760
C19 C 1.2322(4) 0.4071(2) 0.0076(2)
H3 H 1.19320 0.42550 -0.04720
H4 H 1.34500 0.41650 0.01200
H5 H 1.18290 0.44810 0.04790
C20 C 0.7118(3) 0.28382(18) -0.01997(15)
H6 H 0.856(3) -0.0430(17) 0.1085(15)
H7 H 1.008(3) 0.008(2) 0.3430(18)
H8 H 0.895(4) 0.167(2) 0.3358(19)
H9 H 0.753(3) 0.218(2) 0.2163(17)
H10 H 0.610(3) 0.1615(15) 0.0837(12)
H11 H 0.790(3) 0.0447(16) -0.0192(13)
H12 H 0.435(3) 0.137(2) -0.2103(17)
H13 H 0.429(4) 0.059(2) -0.338(2)
H14 H 0.575(4) -0.086(2) -0.357(2)
H15 H 0.715(4) -0.154(2) -0.2410(18)
H16 H 0.728(3) -0.0699(18) -0.1145(16)
#END
