
#######################################################################
#
#                 Cambridge Crystallographic Data Centre
#                                CCDC
#
#######################################################################
#
# If this CIF has been generated from an entry in the Cambridge
# Structural Database, then it will include bibliographic, chemical,
# crystal, experimental, refinement or atomic coordinate data resulting
# from the CCDC's data processing and validation procedures.
#
#######################################################################

data_CSD_CIF_SUMBAE
_audit_creation_date 2010-10-20
_audit_creation_method CSD-ConQuest-V1
_database_code_CSD SUMBAE
_database_code_depnum_ccdc_archive 'CCDC 747518'
_chemical_formula_sum 'C19 H27 N3 O5'
_chemical_formula_moiety
;
C19 H27 N3 O5
;
_journal_coden_Cambridge 177
_journal_volume 8
_journal_year 2010
_journal_page_first 864
_journal_name_full 'Org.Biomol.Chem. '
loop_
_publ_author_name
"M.Thiverny"
"C.Philouze"
"P.Y.Chavant"
"V.Blandin"
_chemical_name_systematic
;
(S)-2-Methoxycarbonylamino-3-phenylpropionic acid 
(R)-2-isopropyl-2,3-dimethyl-4-oxoimidazolin-1-yl ester
;
_chemical_name_common
;
(R)-2-Isopropyl-2,3-dimethyl-4-oxoimidazolidin-1-yl 
(S)-N-(methoxycarbonyl)phenylalaninate
;
_chemical_melting_point 394.45
_cell_volume    987.104
_exptl_crystal_colour 'colorless'
_exptl_crystal_density_diffrn 1.27
_exptl_special_details
;
Melting point range 394.45-394.55K

;
_exptl_crystal_description 'prism'
_exptl_crystal_preparation 'ethanol'
_diffrn_ambient_temperature 293
#These two values have been output from a single CSD field.
_refine_ls_R_factor_gt 0.0531
_refine_ls_wR_factor_gt 0.0531
_symmetry_cell_setting monoclinic
_symmetry_space_group_name_H-M 'P 21'
_symmetry_Int_Tables_number 4
loop_
_symmetry_equiv_pos_site_id
_symmetry_equiv_pos_as_xyz
1 x,y,z
2 -x,1/2+y,-z
_cell_length_a 10.080(3)
_cell_length_b 9.129(4)
_cell_length_c 11.610(3)
_cell_angle_alpha 90
_cell_angle_beta 112.49(3)
_cell_angle_gamma 90
_cell_formula_units_Z 2
loop_
_atom_type_symbol
_atom_type_radius_bond
C 0.68
H 0.23
N 0.68
O 0.68
loop_
_atom_site_label
_atom_site_type_symbol
_atom_site_fract_x
_atom_site_fract_y
_atom_site_fract_z
O1 O -0.4084(1) -0.2184(2) -0.3534(1)
O2 O -0.4063(1) -0.4493(2) -0.4233(1)
O3 O -0.2737(1) -0.3012(2) -0.6408(1)
O4 O -0.3906(1) -0.5082(1) -0.73576(9)
O5 O -0.4542(2) -0.8386(2) -0.9615(1)
N1 N -0.2670(1) -0.5449(2) -0.7672(1)
N2 N -0.2905(1) -0.7986(2) -0.7640(1)
N3 N -0.5009(1) -0.2589(2) -0.5569(1)
C1 C -0.3381(2) -0.6018(2) -0.8963(1)
C2 C -0.3701(2) -0.7596(2) -0.8813(1)
C3 C -0.1979(1) -0.6773(2) -0.6934(1)
C4 C -0.3012(2) -0.9438(2) -0.7157(2)
C5 C -0.0468(2) -0.6839(2) -0.7002(2)
C6 C 0.0514(2) -0.5644(3) -0.6230(2)
C7 C 0.0232(2) -0.8336(3) -0.6646(3)
C8 C -0.1918(2) -0.6715(2) -0.5613(1)
C9 C -0.3784(1) -0.3777(2) -0.6776(1)
C10 C -0.5222(2) -0.3438(2) -0.6680(1)
C11 C -0.4369(1) -0.3191(2) -0.4433(1)
C12 C -0.3391(2) -0.2657(3) -0.2272(2)
C13 C -0.6143(2) -0.2576(2) -0.7863(1)
C14 C -0.7736(2) -0.2771(2) -0.8244(1)
C15 C -0.8479(2) -0.3748(3) -0.9197(2)
C16 C -0.9943(3) -0.3939(4) -0.9564(2)
C17 C -1.0699(2) -0.3171(3) -0.9008(2)
C18 C -0.9989(2) -0.2210(3) -0.8064(2)
C19 C -0.8513(2) -0.1999(2) -0.7693(2)
H1 H -0.27570 -0.59390 -0.94010
H2 H -0.42420 -0.54950 -0.94000
H3 H -0.33830 -0.93530 -0.65210
H4 H -0.20870 -0.98760 -0.68220
H5 H -0.36360 -1.00310 -0.78130
H6 H -0.06000 -0.66680 -0.78460
H7 H 0.08390 -0.58940 -0.53710
H8 H 0.00040 -0.47440 -0.63690
H9 H 0.13150 -0.55460 -0.64640
H10 H 0.03240 -0.85720 -0.58220
H11 H 0.11560 -0.83180 -0.66860
H12 H -0.03460 -0.90530 -0.72080
H13 H -0.13680 -0.75170 -0.51520
H14 H -0.14840 -0.58230 -0.52340
H15 H -0.28650 -0.67700 -0.56250
H16 H -0.56930 -0.43300 -0.66500
H17 H -0.53250 -0.16000 -0.56440
H18 H -0.40230 -0.25310 -0.18480
H19 H -0.25470 -0.20920 -0.18720
H20 H -0.31410 -0.36620 -0.22570
H21 H -0.59270 -0.15640 -0.77110
H22 H -0.58910 -0.28930 -0.85320
H23 H -0.79730 -0.42880 -0.95990
H24 H -1.04300 -0.46130 -1.02110
H25 H -1.17080 -0.33010 -0.92730
H26 H -1.05050 -0.16860 -0.76620
H27 H -0.80360 -0.13140 -0.70510
#END
