
#######################################################################
#
#                 Cambridge Crystallographic Data Centre
#                                CCDC
#
#######################################################################
#
# If this CIF has been generated from an entry in the Cambridge
# Structural Database, then it will include bibliographic, chemical,
# crystal, experimental, refinement or atomic coordinate data resulting
# from the CCDC's data processing and validation procedures.
#
#######################################################################

data_CSD_CIF_SUMGAJ
_audit_creation_date 2010-10-20
_audit_creation_method CSD-ConQuest-V1
_database_code_CSD SUMGAJ
_database_code_depnum_ccdc_archive 'CCDC 747032'
_chemical_formula_sum 'C24 H28 N2 O8'
_chemical_formula_moiety
;
C24 H28 N2 O8
;
_journal_coden_Cambridge 177
_journal_volume 8
_journal_year 2010
_journal_page_first 751
_journal_name_full 'Org.Biomol.Chem. '
loop_
_publ_author_name
"K.A.B.Austin"
"J.D.Elsworth"
"M.G.Banwell"
"A.C.Willis"
_chemical_name_systematic
;
4,4,7,8,8-Pentamethyl-3,5-dioxatetracyclo[5.5.2.0^1,9^.0^2,6^]tetradec-13-en-1
0-yl 3,5-dinitrobenzoate
;
_chemical_melting_point 451.15
_cell_volume   1189.757
_exptl_crystal_colour 'colorless'
_exptl_crystal_density_diffrn 1.319
_exptl_special_details
;
Melting point range 451.15-455.15K

;
_exptl_crystal_description 'plate'
_exptl_crystal_preparation 'ethyl acetate/hexane'
_diffrn_ambient_temperature 200
_diffrn_special_details
;
twin

;
#These two values have been output from a single CSD field.
_refine_ls_R_factor_gt 0.0767
_refine_ls_wR_factor_gt 0.0767
_symmetry_cell_setting monoclinic
_symmetry_space_group_name_H-M 'P 21'
_symmetry_Int_Tables_number 4
loop_
_symmetry_equiv_pos_site_id
_symmetry_equiv_pos_as_xyz
1 x,y,z
2 -x,1/2+y,-z
_cell_length_a 9.1347(6)
_cell_length_b 6.1641(4)
_cell_length_c 21.3826(15)
_cell_angle_alpha 90
_cell_angle_beta 98.820(3)
_cell_angle_gamma 90
_cell_formula_units_Z 2
loop_
_atom_type_symbol
_atom_type_radius_bond
C 0.68
H 0.23
N 0.68
O 0.68
loop_
_atom_site_label
_atom_site_type_symbol
_atom_site_fract_x
_atom_site_fract_y
_atom_site_fract_z
O1 O 0.1296(7) 0.5579(12) 0.4367(2)
O2 O 0.3752(6) 0.4873(11) 0.4407(2)
O3 O 0.3450(5) 0.4770(9) 0.1582(2)
O4 O 0.4413(6) 0.7491(11) 0.1087(2)
O5 O 0.1052(6) -0.1242(10) 0.0395(3)
O6 O 0.0750(7) -0.1246(10) -0.0634(3)
O7 O 0.2730(6) 0.4701(12) -0.1737(3)
O8 O 0.3753(7) 0.7343(13) -0.1202(3)
N1 N 0.1228(6) -0.0453(11) -0.0124(3)
N2 N 0.3158(7) 0.5567(13) -0.1250(3)
C1 C 0.3848(9) 0.5854(15) 0.2198(3)
C2 C 0.5434(7) 0.5330(17) 0.2506(4)
C3 C 0.5374(8) 0.5161(17) 0.3218(4)
C4 C 0.3764(8) 0.5707(15) 0.3299(3)
C5 C 0.3454(10) 0.7994(13) 0.3416(4)
C6 C 0.2047(9) 0.8500(15) 0.3406(4)
C7 C 0.0949(8) 0.6655(15) 0.3260(4)
C8 C 0.1461(8) 0.4874(15) 0.3734(3)
C9 C 0.3114(8) 0.4334(13) 0.3782(3)
C10 C 0.1191(8) 0.5803(14) 0.2581(3)
C11 C 0.2862(7) 0.5061(13) 0.2646(3)
C12 C 0.2588(10) 0.4866(16) 0.4788(3)
C13 C 0.2323(14) 0.253(2) 0.5007(5)
C14 C 0.2902(13) 0.6428(19) 0.5316(5)
C15 C -0.0588(10) 0.734(2) 0.3283(4)
C16 C 0.0181(9) 0.3867(15) 0.2344(4)
C17 C 0.0860(9) 0.7630(16) 0.2080(3)
C18 C 0.3780(8) 0.5798(15) 0.1075(3)
C19 C 0.3270(7) 0.4545(13) 0.0482(3)
C20 C 0.2547(7) 0.2571(12) 0.0473(3)
C21 C 0.2049(8) 0.1603(12) -0.0101(3)
C22 C 0.2269(7) 0.2481(12) -0.0679(4)
C23 C 0.2987(8) 0.4485(14) -0.0657(3)
C24 C 0.3506(7) 0.5550(13) -0.0083(3)
H1 H 0.37320 0.74590 0.21430
H2 H 0.61250 0.65140 0.24200
H3 H 0.57670 0.39250 0.23410
H4 H 0.60760 0.62200 0.34580
H5 H 0.56350 0.36580 0.33720
H6 H 0.42600 0.91020 0.34980
H7 H 0.17240 1.00090 0.34900
H8 H 0.08590 0.35350 0.36230
H9 H 0.32530 0.27560 0.37010
H10 H 0.28620 0.34400 0.26240
H11 H 0.32150 0.20200 0.53000
H12 H 0.14410 0.25100 0.52320
H13 H 0.21430 0.15500 0.46300
H14 H 0.37990 0.59450 0.56120
H15 H 0.20340 0.65010 0.55490
H16 H 0.30870 0.78950 0.51450
H17 H -0.12690 0.60800 0.31840
H18 H -0.06670 0.79000 0.37150
H19 H -0.08700 0.85200 0.29640
H20 H 0.03840 0.34080 0.19170
H21 H 0.03860 0.26290 0.26470
H22 H -0.08810 0.43110 0.23140
H23 H 0.10170 0.70660 0.16570
H24 H 0.15390 0.88830 0.22010
H25 H -0.01910 0.81170 0.20580
H26 H 0.23870 0.18580 0.08770
H27 H 0.19310 0.17180 -0.10890
H28 H 0.40270 0.69790 -0.00780
#END
