
#######################################################################
#
#                 Cambridge Crystallographic Data Centre
#                                CCDC
#
#######################################################################
#
# If this CIF has been generated from an entry in the Cambridge
# Structural Database, then it will include bibliographic, chemical,
# crystal, experimental, refinement or atomic coordinate data resulting
# from the CCDC's data processing and validation procedures.
#
#######################################################################

data_CSD_CIF_SUMNEV
_audit_creation_date 2015-08-27
_audit_creation_method CSD-ConQuest-V1
_database_code_CSD SUMNEV
_database_code_depnum_ccdc_archive 'CCDC 1038737'
_chemical_formula_sum 'C18 H18 N2 O4'
_chemical_formula_moiety
;
C18 H18 N2 O4
;
_journal_coden_Cambridge 1748
_journal_volume 2
_journal_year 2015
_journal_page_first 1445
_journal_name_full 'Org.Chem.Front. '
loop_
_publ_author_name
"M.A.H.Salih"
"L.Male"
"N.Spencer"
"J.S.Fossey"
_chemical_name_systematic
;
cis-1-Benzyl-3-hydroxy-3-methyl-5-(4-nitrophenyl)pyrrolidin-2-one
;
_chemical_melting_point 511.15
_cell_volume   1599.385
_exptl_crystal_colour 'colorless'
_exptl_crystal_density_diffrn 1.355
_exptl_special_details
;
Melting point range 511.15-512.15K

;
_exptl_crystal_description 'block'
_diffrn_ambient_temperature 100.0
#These two values have been output from a single CSD field.
_refine_ls_R_factor_gt 0.038
_refine_ls_wR_factor_gt 0.038
_symmetry_cell_setting triclinic
_symmetry_space_group_name_H-M 'P -1'
_symmetry_Int_Tables_number 2
loop_
_symmetry_equiv_pos_site_id
_symmetry_equiv_pos_as_xyz
1 x,y,z
2 -x,-y,-z
_cell_length_a 7.87442(17)
_cell_length_b 13.1736(2)
_cell_length_c 15.8461(3)
_cell_angle_alpha 88.7943(13)
_cell_angle_beta 76.7697(16)
_cell_angle_gamma 88.4490(15)
_cell_formula_units_Z 4
loop_
_atom_type_symbol
_atom_type_radius_bond
C 0.68
H 0.23
N 0.68
O 0.68
loop_
_atom_site_label
_atom_site_type_symbol
_atom_site_fract_x
_atom_site_fract_y
_atom_site_fract_z
C1 C 0.21874(17) 1.11781(9) 0.30360(8)
H1 H 0.19490 1.17350 0.34400
H2 H 0.12650 1.11790 0.27220
C2 C 0.26312(15) 1.01420(9) 0.42908(7)
C3 C 0.29968(16) 0.90174(9) 0.44747(8)
C4 C 0.21534(18) 0.84812(9) 0.38381(8)
H3 H 0.09380 0.83460 0.40950
H4 H 0.27610 0.78450 0.36550
C5 C 0.23225(16) 0.92348(9) 0.30734(8)
H5 H 0.34920 0.91600 0.26960
C6 C 0.23405(18) 0.87058(10) 0.54146(8)
H6 H 0.26150 0.80000 0.54880
H7 H 0.10990 0.88150 0.55800
H8 H 0.28910 0.91040 0.57720
C7 C 0.09779(16) 0.91520(9) 0.25322(8)
C8 C 0.15462(17) 0.9121(1) 0.16316(8)
H9 H 0.27330 0.91450 0.13780
C9 C 0.03538(17) 0.90553(11) 0.11117(8)
H10 H 0.07270 0.90450 0.05110
C10 C -0.13925(16) 0.90063(9) 0.15060(8)
C11 C -0.20104(16) 0.90381(9) 0.23986(8)
H11 H -0.31980 0.90070 0.26480
C12 C -0.08014(16) 0.91173(9) 0.29075(8)
H12 H -0.11850 0.91480 0.35070
C13 C 0.39170(17) 1.13421(9) 0.24025(8)
C14 C 0.54014(18) 1.14946(9) 0.27163(8)
H13 H 0.53170 1.14990 0.33110
C15 C 0.70082(19) 1.16411(10) 0.21490(9)
H14 H 0.79960 1.17340 0.23640
C16 C 0.7137(2) 1.16480(11) 0.12591(9)
H15 H 0.82070 1.17550 0.08780
C17 C 0.5668(2) 1.14951(11) 0.09430(9)
H16 H 0.57530 1.14960 0.03480
C18 C 0.40632(19) 1.13406(10) 0.15111(8)
H17 H 0.30820 1.12360 0.12940
N1 N 0.21833(13) 1.02181(7) 0.35190(6)
N2 N -0.26464(15) 0.89234(9) 0.09548(7)
O1 O 0.28111(12) 1.08628(7) 0.47476(5)
O2 O 0.48450(12) 0.88688(7) 0.41810(6)
H18 H 0.538(2) 0.9030(14) 0.4583(12)
O3 O -0.20881(15) 0.89036(12) 0.01687(7)
O4 O -0.42005(12) 0.88729(8) 0.13024(6)
C19 C 0.26864(17) 0.59649(9) 0.70152(8)
H19 H 0.28420 0.65590 0.66360
H20 H 0.36240 0.59390 0.73200
C20 C 0.23377(16) 0.50532(9) 0.57199(7)
C21 C 0.20804(16) 0.39480(9) 0.54901(8)
C22 C 0.29752(18) 0.33489(9) 0.61027(8)
H21 H 0.42020 0.32320 0.58410
H22 H 0.24280 0.27000 0.62590
C23 C 0.27383(16) 0.40291(9) 0.68981(8)
H23 H 0.15820 0.39230 0.72750
C24 C 0.27708(18) 0.37242(10) 0.45411(8)
H24 H 0.25650 0.30280 0.44370
H25 H 0.40010 0.38430 0.43830
H26 H 0.21850 0.41590 0.41990
C25 C 0.41089(16) 0.38789(9) 0.74234(8)
C26 C 0.35872(17) 0.36166(11) 0.83004(8)
H27 H 0.24090 0.35370 0.85520
C27 C 0.48108(18) 0.34730(11) 0.87999(8)
H28 H 0.44670 0.32980 0.93850
C28 C 0.65485(17) 0.35961(9) 0.84092(8)
C29 C 0.71193(16) 0.38374(9) 0.75360(8)
H29 H 0.83010 0.39010 0.72850
C30 C 0.58763(16) 0.39816(9) 0.70473(8)
H30 H 0.62280 0.41490 0.64610
C31 C 0.09538(17) 0.60576(9) 0.76646(8)
C32 C -0.05600(18) 0.62288(10) 0.73644(9)
H31 H -0.04830 0.63110 0.67730
C33 C -0.2178(2) 0.62781(11) 0.79358(10)
H32 H -0.31820 0.63900 0.77280
C34 C -0.2297(2) 0.61594(12) 0.88208(11)
H33 H -0.33820 0.61810 0.92070
C35 C -0.0798(2) 0.60086(13) 0.91263(10)
H34 H -0.08760 0.59420 0.97190
C36 C 0.0827(2) 0.59566(11) 0.85521(9)
H35 H 0.18300 0.58540 0.87620
N3 N 0.27799(13) 0.50523(7) 0.64945(6)
N4 N 0.78370(15) 0.34762(9) 0.89448(7)
O5 O 0.20917(12) 0.58156(7) 0.52932(6)
O6 O 0.02451(12) 0.37746(7) 0.57748(6)
H36 H -0.029(2) 0.3966(14) 0.5373(12)
O7 O 0.73075(14) 0.34443(10) 0.97339(7)
O8 O 0.93853(13) 0.34136(9) 0.85796(7)
#END
