
#######################################################################
#
#                 Cambridge Crystallographic Data Centre
#                                CCDC
#
#######################################################################
#
# If this CIF has been generated from an entry in the Cambridge
# Structural Database, then it will include bibliographic, chemical,
# crystal, experimental, refinement or atomic coordinate data resulting
# from the CCDC's data processing and validation procedures.
#
#######################################################################

data_CSD_CIF_SUMVOM
_audit_creation_date 2010-09-15
_audit_creation_method CSD-ConQuest-V1
_database_code_CSD SUMVOM
_database_code_depnum_ccdc_archive 'CCDC 732056'
_chemical_formula_sum 'C18 H16 N4 O5'
_chemical_formula_moiety
;
C18 H16 N4 O5
;
_journal_coden_Cambridge 920
_journal_volume 5
_journal_year 2010
_journal_page_first 328
_journal_name_full 'Chem.Asian J. '
loop_
_publ_author_name
"Jung-Hsuan Chen"
"Shuan-Ru Liu"
"Kwunmin Chen"
_chemical_name_systematic
;
1-(4-Methoxyphenyl)-5-(3-nitrophenyl)-1H-[1,2,3]triazole-4-carboxylic acid 
ethyl ester
;
_chemical_name_common
;
Ethyl 1-(4-methoxyphenyl)-5-(3-nitrophenyl)-1H-1,2,3-triazole-4-carboxylate
;
_chemical_melting_point 436.15
_cell_volume   3898.269
_exptl_crystal_colour 'colorless'
_exptl_crystal_density_diffrn 1.255
_exptl_special_details
;
Melting point range 436.15-438.15K

;
_exptl_crystal_description 'prism'
_diffrn_ambient_temperature 296
#These two values have been output from a single CSD field.
_refine_ls_R_factor_gt 0.1291
_refine_ls_wR_factor_gt 0.1291
_symmetry_cell_setting monoclinic
_symmetry_space_group_name_H-M 'P 2/c'
_symmetry_Int_Tables_number 13
loop_
_symmetry_equiv_pos_site_id
_symmetry_equiv_pos_as_xyz
1 x,y,z
2 -x,y,1/2-z
3 -x,-y,-z
4 x,-y,-1/2+z
_cell_length_a 24.2894(18)
_cell_length_b 6.6791(5)
_cell_length_c 25.8889(18)
_cell_angle_alpha 90
_cell_angle_beta 111.850(4)
_cell_angle_gamma 90
_cell_formula_units_Z 8
loop_
_atom_type_symbol
_atom_type_radius_bond
C 0.68
H 0.23
N 0.68
O 0.68
loop_
_atom_site_label
_atom_site_type_symbol
_atom_site_fract_x
_atom_site_fract_y
_atom_site_fract_z
C1 C 0.1847(3) 0.6831(13) 0.2688(3)
C2 C 0.1199(4) 0.6729(13) 0.2511(4)
C3 C 0.0264(3) 0.6642(16) 0.1772(4)
H1 H 0.01280 0.53970 0.18760
H2 H 0.01280 0.77370 0.19400
C4 C 0.0024(4) 0.686(2) 0.1172(4)
H3 H -0.04010 0.68540 0.10390
H4 H 0.01570 0.57600 0.10070
H5 H 0.01590 0.80940 0.10710
C5 C 0.2278(4) 0.7063(12) 0.3202(3)
C6 C 0.2240(3) 0.7389(14) 0.3750(3)
C7 C 0.1971(4) 0.6025(16) 0.3974(4)
H6 H 0.18060 0.48560 0.37840
C8 C 0.1950(4) 0.6445(19) 0.4502(5)
H7 H 0.17700 0.55210 0.46570
C9 C 0.2183(4) 0.815(2) 0.4793(4)
H8 H 0.21640 0.84000 0.51400
C10 C 0.2443(4) 0.9478(17) 0.4552(4)
C11 C 0.2478(3) 0.9092(15) 0.4038(3)
H9 H 0.26650 1.00080 0.38880
C12 C 0.3385(4) 0.7164(14) 0.3510(3)
C13 C 0.3609(4) 0.5661(14) 0.3865(3)
H10 H 0.33750 0.45620 0.38680
C14 C 0.4193(4) 0.5757(16) 0.4228(4)
H11 H 0.43550 0.46780 0.44620
C15 C 0.4536(4) 0.7372(17) 0.4252(3)
C16 C 0.4308(4) 0.8877(17) 0.3898(4)
H12 H 0.45450 0.99720 0.39010
C17 C 0.3718(4) 0.8843(16) 0.3523(4)
H13 H 0.35560 0.99250 0.32900
C18 C 0.5480(5) 0.893(2) 0.4613(5)
H14 H 0.58660 0.87270 0.48960
H15 H 0.53170 1.01640 0.46820
H16 H 0.55130 0.89840 0.42560
C19 C 0.1795(4) 0.8177(12) 0.7465(3)
C20 C 0.1215(4) 0.8315(14) 0.7526(4)
C21 C 0.0728(4) 0.8392(16) 0.8155(4)
H17 H 0.05090 0.95750 0.79750
H18 H 0.04860 0.72270 0.79970
C22 C 0.0853(5) 0.848(2) 0.8727(4)
H19 H 0.04880 0.85510 0.87900
H20 H 0.10880 0.96430 0.88810
H21 H 0.10670 0.73000 0.89020
C23 C 0.1889(3) 0.8336(12) 0.6981(3)
C24 C 0.1508(4) 0.8743(15) 0.6402(4)
C25 C 0.1102(4) 0.7360(16) 0.6101(4)
H22 H 0.10560 0.61660 0.62660
C26 C 0.0745(4) 0.7761(19) 0.5529(4)
H23 H 0.04770 0.68010 0.53200
C27 C 0.0794(4) 0.9488(17) 0.5294(4)
H24 H 0.05510 0.97700 0.49280
C28 C 0.1200(4) 1.0813(16) 0.5597(3)
C29 C 0.1555(3) 1.0476(15) 0.6137(3)
H25 H 0.18340 1.14340 0.63290
C30 C 0.2829(3) 0.8017(15) 0.6792(3)
C31 C 0.2796(4) 0.6394(15) 0.6475(3)
H26 H 0.25470 0.53490 0.64850
C32 C 0.3116(4) 0.6222(15) 0.6138(4)
H27 H 0.31040 0.50590 0.59360
C33 C 0.3449(4) 0.7803(19) 0.6110(4)
C34 C 0.3489(4) 0.9521(18) 0.6440(4)
H28 H 0.37290 1.05890 0.64280
C35 C 0.3174(4) 0.9602(16) 0.6776(4)
H29 H 0.31940 1.07300 0.69930
C36 C 0.3794(5) 0.622(2) 0.5487(5)
H30 H 0.40340 0.64630 0.52720
H31 H 0.34000 0.58570 0.52430
H32 H 0.39630 0.51400 0.57430
N1 N 0.2100(3) 0.6723(11) 0.2296(3)
N2 N 0.2677(3) 0.6887(11) 0.2557(3)
N3 N 0.2781(3) 0.7103(11) 0.3100(3)
N4 N 0.2702(5) 1.1363(17) 0.4849(4)
N5 N 0.2326(3) 0.7917(10) 0.7908(2)
N6 N 0.2737(3) 0.7848(10) 0.7695(3)
N7 N 0.2484(3) 0.8103(11) 0.7139(3)
N8 N 0.1248(4) 1.2744(15) 0.5354(3)
O1 O 0.0907(2) 0.6653(9) 0.1972(2)
O2 O 0.0958(2) 0.6706(10) 0.2844(2)
O3 O 0.2589(5) 1.1700(15) 0.5254(3)
O4 O 0.3013(4) 1.2339(14) 0.4662(4)
O5 O 0.5106(3) 0.7331(11) 0.4623(3)
O6 O 0.1276(2) 0.8276(9) 0.8056(2)
O7 O 0.0754(3) 0.8434(10) 0.7147(2)
O8 O 0.1669(4) 1.3822(12) 0.5603(3)
O9 O 0.0864(4) 1.3198(12) 0.4916(3)
O10 O 0.3771(3) 0.7942(12) 0.5783(3)
#END
