
#######################################################################
#
#                 Cambridge Crystallographic Data Centre
#                                CCDC
#
#######################################################################
#
# If this CIF has been generated from an entry in the Cambridge
# Structural Database, then it will include bibliographic, chemical,
# crystal, experimental, refinement or atomic coordinate data resulting
# from the CCDC's data processing and validation procedures.
#
#######################################################################

data_CSD_CIF_SUMVIG
_audit_creation_date 2010-09-15
_audit_creation_method CSD-ConQuest-V1
_database_code_CSD SUMVIG
_database_code_depnum_ccdc_archive 'CCDC 732055'
_chemical_formula_sum 'C18 H16 N4 O5'
_chemical_formula_moiety
;
C18 H16 N4 O5
;
_journal_coden_Cambridge 920
_journal_volume 5
_journal_year 2010
_journal_page_first 328
_journal_name_full 'Chem.Asian J. '
loop_
_publ_author_name
"Jung-Hsuan Chen"
"Shuan-Ru Liu"
"Kwunmin Chen"
_chemical_name_systematic
;
1-(4-Methoxyphenyl)-5-(2-nitrophenyl)-1H-[1,2,3]triazole-4-carboxylic acid 
ethyl ester
;
_chemical_name_common
;
Ethyl 1-(4-methoxyphenyl)-5-(2-nitrophenyl)-1H-1,2,3-triazole-4-carboxylate
;
_chemical_melting_point 441.15
_cell_volume    859.750
_exptl_crystal_colour 'colorless'
_exptl_crystal_density_diffrn 1.423
_exptl_special_details
;
Melting point range 441.15-444.15K

;
_exptl_crystal_description 'prism'
_diffrn_ambient_temperature 200
#These two values have been output from a single CSD field.
_refine_ls_R_factor_gt 0.0418
_refine_ls_wR_factor_gt 0.0418
_symmetry_cell_setting triclinic
_symmetry_space_group_name_H-M 'P -1'
_symmetry_Int_Tables_number 2
loop_
_symmetry_equiv_pos_site_id
_symmetry_equiv_pos_as_xyz
1 x,y,z
2 -x,-y,-z
_cell_length_a 8.8287(2)
_cell_length_b 10.0418(2)
_cell_length_c 10.6487(2)
_cell_angle_alpha 104.716(1)
_cell_angle_beta 103.314(1)
_cell_angle_gamma 100.325(1)
_cell_formula_units_Z 2
loop_
_atom_type_symbol
_atom_type_radius_bond
C 0.68
H 0.23
N 0.68
O 0.68
loop_
_atom_site_label
_atom_site_type_symbol
_atom_site_fract_x
_atom_site_fract_y
_atom_site_fract_z
O1 O 0.2009(2) 0.51971(19) 0.57775(15)
O2 O 0.14633(16) 0.34460(13) 0.39404(13)
O3 O -0.22756(14) 0.53830(13) 0.11140(12)
O4 O 0.01264(13) 0.64505(12) 0.26904(12)
O5 O 0.64516(14) 0.02528(12) 0.20321(13)
N1 N 0.21340(18) 0.46747(16) 0.46483(14)
N2 N -0.08950(16) 0.30394(14) 0.01862(13)
N3 N 0.00981(15) 0.22307(14) 0.00342(13)
N4 N 0.15558(15) 0.29552(13) 0.09574(13)
C1 C 0.31670(19) 0.55746(16) 0.41227(16)
C2 C 0.4400(2) 0.66781(18) 0.50568(17)
H1 H 0.45680 0.68330 0.60020
C3 C 0.5380(2) 0.75504(18) 0.45962(19)
H2 H 0.62410 0.83040 0.52280
C4 C 0.5119(2) 0.73363(18) 0.32190(18)
H3 H 0.57960 0.79440 0.29080
C5 C 0.38667(19) 0.62342(17) 0.22931(17)
H4 H 0.36870 0.61000 0.13500
C6 C 0.28701(18) 0.53224(15) 0.27246(15)
C7 C 0.14756(18) 0.42369(15) 0.16979(15)
C8 C -0.00961(18) 0.42753(16) 0.12029(15)
C9 C -0.09025(18) 0.54012(17) 0.16350(16)
C10 C -0.0389(2) 0.77136(18) 0.32052(19)
H5 H -0.10370 0.75650 0.38250
H6 H -0.10480 0.79570 0.24500
C11 C 0.1109(3) 0.8871(2) 0.3946(2)
H7 H 0.08240 0.97580 0.43190
H8 H 0.17370 0.90040 0.33190
H9 H 0.17480 0.86130 0.46870
C12 C 0.28377(19) 0.22566(15) 0.11465(15)
C13 C 0.2550(2) 0.10050(17) 0.14790(17)
H10 H 0.15160 0.06080 0.15350
C14 C 0.3774(2) 0.03423(17) 0.17273(18)
H11 H 0.35760 -0.05280 0.19330
C15 C 0.53010(19) 0.09417(16) 0.16786(15)
C16 C 0.55652(19) 0.21655(16) 0.12941(16)
H12 H 0.65910 0.25520 0.12170
C17 C 0.4324(2) 0.28210(17) 0.10227(16)
H13 H 0.44950 0.36540 0.07530
C18 C 0.8060(2) 0.0901(2) 0.2116(2)
H14 H 0.87660 0.03040 0.23720
H15 H 0.84190 0.18420 0.28000
H16 H 0.81020 0.10030 0.12320
#END
