
#######################################################################
#
#                 Cambridge Crystallographic Data Centre
#                                CCDC
#
#######################################################################
#
# If this CIF has been generated from an entry in the Cambridge
# Structural Database, then it will include bibliographic, chemical,
# crystal, experimental, refinement or atomic coordinate data resulting
# from the CCDC's data processing and validation procedures.
#
#######################################################################

data_CSD_CIF_SUMYAA
_audit_creation_date 1994-09-21
_audit_creation_method CSD-ConQuest-V1
_database_code_CSD SUMYAA
_chemical_formula_sum 'C21 H26 N2 O8'
_chemical_formula_moiety
;
C21 H26 N2 O8
;
_journal_coden_Cambridge 35
_journal_volume 58
_journal_year 1993
_journal_page_first 6255
_journal_name_full 'J.Org.Chem. '
loop_
_publ_author_name
"J.C.Gilbert"
"R.D.Selliah"
_chemical_name_systematic
;
Methyl 
(1S*,2S*,4S*)-2-(3,5-dinitrobenzoyloxy)-1-(2-methyl-3-buten-2-yl)-4-methyl-1-c
yclohexanecarboxylate
;
_chemical_melting_point 384.15
_cell_volume   1079.053
_exptl_crystal_colour 'pale yellow'
_exptl_crystal_density_diffrn 1.34
_exptl_special_details
;
Melting point range 384.15-385.65K

;
_diffrn_ambient_temperature 198
#These two values have been output from a single CSD field.
_refine_ls_R_factor_gt 0.0384
_refine_ls_wR_factor_gt 0.0384
_symmetry_cell_setting triclinic
_symmetry_space_group_name_H-M 'P -1'
_symmetry_Int_Tables_number 2
loop_
_symmetry_equiv_pos_site_id
_symmetry_equiv_pos_as_xyz
1 x,y,z
2 -x,-y,-z
_cell_length_a 7.7336(8)
_cell_length_b 9.3074(8)
_cell_length_c 15.624(2)
_cell_angle_alpha 97.911(9)
_cell_angle_beta 94.300(9)
_cell_angle_gamma 102.946(8)
_cell_formula_units_Z 2
loop_
_atom_type_symbol
_atom_type_radius_bond
C 0.68
H 0.23
N 0.68
O 0.68
loop_
_atom_site_label
_atom_site_type_symbol
_atom_site_fract_x
_atom_site_fract_y
_atom_site_fract_z
C1 C 0.6198(2) 0.1496(2) 0.82255(9)
C2 C 0.7321(2) 0.0764(2) 0.76030(9)
C3 C 0.8561(2) -0.0028(2) 0.80425(9)
C4 C 0.7525(2) -0.1291(2) 0.84618(10)
C5 C 0.6335(3) -0.0659(2) 0.90705(10)
C6 C 0.5145(2) 0.0184(2) 0.86352(10)
C7 C 0.7421(2) 0.2652(2) 0.89405(9)
O1 O 0.89503(14) 0.32508(12) 0.89057(7)
O2 O 0.65457(14) 0.29610(12) 0.96265(6)
C8 C 0.7563(3) 0.4095(2) 1.03205(11)
C9 C 0.4906(2) 0.2328(2) 0.7742(1)
C10 C 0.3258(3) 0.2405(3) 0.8234(2)
C11 C 0.5851(3) 0.3932(2) 0.76814(13)
C12 C 0.4200(2) 0.1431(2) 0.68499(12)
C13 C 0.4430(3) 0.1875(3) 0.60884(13)
C14 C 0.8779(4) -0.2068(2) 0.89087(14)
O3 O 0.83641(13) 0.18916(10) 0.71601(6)
C15 C 0.8737(2) 0.1446(2) 0.63643(8)
O4 O 0.8243(2) 0.02063(11) 0.59536(6)
C16 C 0.9923(2) 0.27101(14) 0.60307(8)
C17 C 1.0705(2) 0.4052(2) 0.65758(9)
C18 C 1.1892(2) 0.5133(2) 0.62501(9)
C19 C 1.2345(2) 0.4939(2) 0.54134(10)
C20 C 1.1511(2) 0.3605(2) 0.48918(9)
C21 C 1.0301(2) 0.2485(2) 0.51743(9)
N1 N 1.2731(2) 0.65542(14) 0.68207(9)
O5 O 1.2614(2) 0.66175(13) 0.75991(8)
O6 O 1.3489(2) 0.75856(13) 0.64805(9)
N2 N 1.1945(2) 0.3386(2) 0.39912(8)
O7 O 1.0765(2) 0.26687(14) 0.34394(7)
O8 O 1.3450(2) 0.3947(2) 0.38507(9)
H1 H 0.651(2) 0.006(2) 0.718(1)
H2 H 0.937(2) 0.066(2) 0.8497(10)
H3 H 0.923(2) -0.045(2) 0.7628(11)
H4 H 0.674(2) -0.205(2) 0.8021(11)
H5 H 0.708(2) -0.001(2) 0.9582(11)
H6 H 0.557(3) -0.150(2) 0.9346(12)
H7 H 0.426(2) -0.049(2) 0.8180(11)
H8 H 0.438(2) 0.058(2) 0.9070(11)
H9 H 0.788(3) 0.502(3) 1.0133(14)
H10 H 0.682(3) 0.418(3) 1.076(2)
H11 H 0.867(3) 0.378(2) 1.0563(14)
H12 H 0.356(3) 0.281(2) 0.8849(14)
H13 H 0.246(3) 0.140(2) 0.8218(13)
H14 H 0.249(3) 0.302(2) 0.7975(13)
H15 H 0.692(3) 0.401(2) 0.7405(11)
H16 H 0.615(2) 0.454(2) 0.8261(13)
H17 H 0.506(2) 0.440(2) 0.7335(12)
H18 H 0.345(2) 0.043(2) 0.6903(12)
H19 H 0.401(3) 0.129(2) 0.5552(15)
H20 H 0.507(3) 0.297(3) 0.6093(14)
H21 H 0.814(3) -0.275(3) 0.920(2)
H22 H 0.964(3) -0.133(3) 0.9319(14)
H23 H 0.959(3) -0.259(3) 0.843(2)
H24 H 1.043(2) 0.421(2) 0.7134(10)
H25 H 1.315(2) 0.565(2) 0.5220(11)
H26 H 0.976(2) 0.159(2) 0.4802(10)
#END
