
#######################################################################
#
#                 Cambridge Crystallographic Data Centre
#                                CCDC
#
#######################################################################
#
# If this CIF has been generated from an entry in the Cambridge
# Structural Database, then it will include bibliographic, chemical,
# crystal, experimental, refinement or atomic coordinate data resulting
# from the CCDC's data processing and validation procedures.
#
#######################################################################

data_CSD_CIF_SUNCUZ
_audit_creation_date 1994-12-05
_audit_creation_method CSD-ConQuest-V1
_database_code_CSD SUNCUZ
_chemical_formula_sum 'C37 H43 N1 O9'
_chemical_formula_moiety
;
C37 H43 N1 O9
;
_journal_coden_Cambridge 35
_journal_volume 59
_journal_year 1994
_journal_page_first 4576
_journal_name_full 'J.Org.Chem. '
loop_
_publ_author_name
"S.E.Denmark"
"M.E.Schnute"
_chemical_name_systematic
;
(2S,3aS,4S,5R,6S)-5-Acetoxy-4-(3,4-dimethoxyphenyl)-6-((R)-2,2-diphenylcyclope
ntoxy)-4-ethylhexahydro-isoxazolo(2,3-b)oxazine-2-carboxylic acid methyl 
;
_chemical_melting_point 441.15
_cell_volume   1716.282
_exptl_special_details
;
Melting point range 441.15-443.15K

;
_diffrn_ambient_temperature ?
_diffrn_special_details
;
The study was carried out at room temperature,in the range 283-303K

;
#These two values have been output from a single CSD field.
_refine_ls_R_factor_gt 0.041
_refine_ls_wR_factor_gt 0.041
_symmetry_cell_setting monoclinic
_symmetry_space_group_name_H-M 'P 21'
_symmetry_Int_Tables_number 4
loop_
_symmetry_equiv_pos_site_id
_symmetry_equiv_pos_as_xyz
1 x,y,z
2 -x,1/2+y,-z
_cell_length_a 9.086(6)
_cell_length_b 21.915(9)
_cell_length_c 9.384(5)
_cell_angle_alpha 90
_cell_angle_beta 113.29(5)
_cell_angle_gamma 90
_cell_formula_units_Z 2
loop_
_atom_type_symbol
_atom_type_radius_bond
C 0.68
H 0.23
N 0.68
O 0.68
loop_
_atom_site_label
_atom_site_type_symbol
_atom_site_fract_x
_atom_site_fract_y
_atom_site_fract_z
O1 O 0.53858(31) 0.19860 0.64675(29)
O2 O 0.60872(31) 0.14181(19) 0.48553(28)
O3 O 0.45188(30) 0.25687(17) 0.79624(31)
O4 O 0.74049(29) 0.21243(17) 0.96189(28)
O5 O 0.74357(48) 0.22093(23) 1.19947(36)
O6 O 0.31403(42) 0.01013(21) 1.12010(35)
O7 O 0.13499(42) -0.04354(21) 0.86475(38)
O8 O 1.00362(39) 0.14638(23) 0.50309(38)
O9 O 0.81544(44) 0.07571(23) 0.40494(44)
N1 N 0.54770(37) 0.13488(20) 0.59996(34)
C1 C 0.48121(44) 0.19761(22) 0.76873(42)
H1 H 0.38526 0.17385 0.73754
C2 C 0.60746(44) 0.17066(22) 0.91378(42)
H2 H 0.57062 0.17006 0.99106
C3 C 0.65551(44) 0.10649(21) 0.88266(41)
C4 C 0.68451(44) 0.10686(23) 0.73036(42)
H3 H 0.68446 0.06379 0.69873
C5 C 0.83175(47) 0.13965(25) 0.72922(44)
H4 H 0.93308 0.11014 0.76319
H5 H 0.85228 0.17511 0.77869
C6 C 0.77796(49) 0.15658(25) 0.55794(46)
H6 H 0.78320 0.19458 0.54355
C7 C 0.30033(45) 0.28233(23) 0.69547(44)
H7 H 0.22929 0.25029 0.63871
C8 C 0.32577(60) 0.32877(25) 0.58546(58)
H8 H 0.23627 0.32836 0.48695
H9 H 0.42215 0.31959 0.57079
C9 C 0.33959(74) 0.39018(28) 0.66211(75)
H10 H 0.43632 0.41034 0.67002
H11 H 0.24902 0.41525 0.60400
C10 C 0.34333(56) 0.37713(26) 0.82245(65)
H12 H 0.45089 0.36956 0.89530
H13 H 0.29889 0.41060 0.85829
C11 C 0.23955(48) 0.31983(22) 0.79911(48)
C12 C 0.26451(47) 0.28486(27) 0.94803(46)
C13 C 0.34906(62) 0.30720(37) 1.09372(56)
H14 H 0.39219 0.34777 1.10588
C14 C 0.37363(65) 0.27194(47) 1.22515(59)
H15 H 0.43529 0.28773 1.32684
C15 C 0.30909(62) 0.21474(47) 1.20753(67)
H16 H 0.32512 0.19050 1.29767
C16 C 0.22204(62) 0.19155(35) 1.06350(63)
H17 H 0.17713 0.15129 1.05202
C17 C 0.19978(54) 0.22650(27) 0.93592(54)
H18 H 0.13756 0.21032 0.83480
C18 C 0.06190(47) 0.33661(22) 0.71663(48)
C19 C -0.03745(50) 0.31501(23) 0.57254(49)
H19 H 0.00458 0.28731 0.51873
C20 C -0.19631(54) 0.33246(27) 0.50414(57)
H20 H -0.26299 0.31706 0.40342
C21 C -0.25893(58) 0.37141(28) 0.57873(68)
H21 H -0.36887 0.38398 0.52993
C22 C -0.16360(63) 0.39273(27) 0.72489(73)
H22 H -0.20715 0.41970 0.77892
C23 C -0.00569(55) 0.37493(26) 0.79217(59)
H23 H 0.05966 0.38942 0.89427
C24 C 0.78836(50) 0.23810(24) 1.10305(49)
C25 C 0.90128(66) 0.28823(30) 1.11934(64)
H24 H 0.93389 0.30589 1.22084
H25 H 0.85015 0.31881 1.04233
H26 H 0.99359 0.27276 1.10548
C26 C 0.81062(49) 0.08660(23) 1.01849(46)
H27 H 0.79246 0.08918 1.11237
H28 H 0.89421 0.11446 1.02390
C27 C 0.86703(62) 0.02269(27) 1.00657(61)
H29 H 0.96365 0.01431 1.09551
H30 H 0.88751 0.01921 0.91407
H31 H 0.78577 -0.00607 1.00255
C28 C 0.51810(47) 0.06318(22) 0.87187(44)
C29 C 0.48107(51) 0.05535(23) 1.00153(47)
H32 H 0.54483 0.07586 1.09633
C30 C 0.35638(52) 0.01925(24) 0.99752(46)
C31 C 0.26104(55) -0.01061(24) 0.86095(52)
C32 C 0.29834(60) -0.00514(25) 0.73395(54)
H33 H 0.23581 -0.02647 0.64008
C33 C 0.42669(54) 0.03124(24) 0.73979(48)
H34 H 0.45189 0.03410 0.64984
C34 C 0.40572(64) 0.03974(27) 1.26247(51)
H35 H 0.36341 0.02953 1.33836
H36 H 0.40048 0.08311 1.24691
H37 H 0.51521 0.02656 1.29832
C35 C 0.01229(61) -0.05898(29) 0.72119(62)
H38 H -0.06900 -0.08190 0.73876
H39 H 0.05608 -0.08316 0.66205
H40 H -0.03381 -0.02241 0.66493
C36 C 0.86323(54) 0.12098(28) 0.47802(47)
C37 C 1.09835(57) 0.11748(36) 0.43137(57)
H41 H 1.19685 0.13950 0.45702
H42 H 1.04021 0.11728 0.32084
H43 H 1.12144 0.07627 0.46821
#END
