
#######################################################################
#
#                 Cambridge Crystallographic Data Centre
#                                CCDC
#
#######################################################################
#
# If this CIF has been generated from an entry in the Cambridge
# Structural Database, then it will include bibliographic, chemical,
# crystal, experimental, refinement or atomic coordinate data resulting
# from the CCDC's data processing and validation procedures.
#
#######################################################################

data_CSD_CIF_SUNCIO
_audit_creation_date 2010-09-15
_audit_creation_method CSD-ConQuest-V1
_database_code_CSD SUNCIO
_database_code_depnum_ccdc_archive 'CCDC 720859'
_chemical_formula_sum 'C14 H14 N4 O4'
_chemical_formula_moiety
;
C14 H14 N4 O4
;
_journal_coden_Cambridge 644
_journal_volume 64
_journal_year 2009
_journal_page_first 784
_journal_name_full 'Z.Naturforsch.,B:Chem.Sci. '
loop_
_publ_author_name
"T.Kloubert"
"M.Schulz"
"H.Gorls"
"M.Friedrich"
"M.Westerhausen"
_chemical_name_systematic
;
meso-2,2'-(1,4-Dinitrobutane-2,3-diyl)dipyridine
;
_cell_volume    687.705
_exptl_crystal_colour 'colorless'
_exptl_crystal_density_diffrn 1.46
_exptl_crystal_description 'prism'
_diffrn_ambient_temperature 183
#These two values have been output from a single CSD field.
_refine_ls_R_factor_gt 0.0606
_refine_ls_wR_factor_gt 0.0606
loop_
_citation_database_id_CSD
_citation_special_details
SUNCOU "is a stereoisomer of this entry"
_symmetry_cell_setting monoclinic
_symmetry_space_group_name_H-M 'P 21/n'
_symmetry_Int_Tables_number 14
loop_
_symmetry_equiv_pos_site_id
_symmetry_equiv_pos_as_xyz
1 x,y,z
2 1/2-x,1/2+y,1/2-z
3 -x,-y,-z
4 -1/2+x,-1/2-y,-1/2+z
_cell_length_a 6.9276(8)
_cell_length_b 5.5543(7)
_cell_length_c 18.1782(12)
_cell_angle_alpha 90
_cell_angle_beta 100.519(7)
_cell_angle_gamma 90
_cell_formula_units_Z 2
loop_
_atom_type_symbol
_atom_type_radius_bond
C 0.68
H 0.23
N 0.68
O 0.68
loop_
_atom_site_label
_atom_site_type_symbol
_atom_site_fract_x
_atom_site_fract_y
_atom_site_fract_z
O1 O -0.4211(3) 0.0074(4) 0.42396(11)
O2 O -0.4895(3) 0.3855(4) 0.40697(11)
N1 N -0.3904(3) 0.2205(4) 0.43880(12)
N2 N 0.0422(3) 0.2049(4) 0.39094(12)
C1 C -0.2196(3) 0.2852(5) 0.49864(14)
H1 H -0.13780 0.14060 0.51300
H2 H -0.26780 0.34360 0.54340
C2 C -0.0951(3) 0.4815(4) 0.47048(13)
H3 H -0.17150 0.63530 0.46540
C3 C -0.0475(3) 0.4171(4) 0.39518(13)
C4 C -0.0915(4) 0.5713(5) 0.33461(14)
H4 H -0.15530 0.72030 0.33950
C5 C -0.0421(4) 0.5071(5) 0.26701(15)
H5 H -0.07100 0.61080 0.22490
C6 C 0.0502(4) 0.2890(5) 0.26195(15)
H6 H 0.08510 0.23830 0.21620
C7 C 0.0902(4) 0.1470(5) 0.32493(16)
H7 H 0.15600 -0.00150 0.32140
O1B O 0.4211(3) 0.9926(4) 0.57604(11)
O2B O 0.4895(3) 0.6145(4) 0.59303(11)
N1B N 0.3904(3) 0.7795(4) 0.56120(12)
N2B N -0.0422(3) 0.7951(4) 0.60906(12)
C1B C 0.2196(3) 0.7148(5) 0.50136(14)
H1B H 0.13780 0.85940 0.48700
H2B H 0.26780 0.65640 0.45660
C2B C 0.0951(3) 0.5185(4) 0.52952(13)
H3B H 0.17150 0.36470 0.53460
C3B C 0.0475(3) 0.5829(4) 0.60482(13)
C4B C 0.0915(4) 0.4287(5) 0.66539(14)
H4B H 0.15530 0.27970 0.66050
C5B C 0.0421(4) 0.4929(5) 0.73299(15)
H5B H 0.07100 0.38920 0.77510
C6B C -0.0502(4) 0.7110(5) 0.73805(15)
H6B H -0.08510 0.76170 0.78380
C7B C -0.0902(4) 0.8530(5) 0.67507(16)
H7B H -0.15600 1.00150 0.67860
#END
