
#######################################################################
#
#                 Cambridge Crystallographic Data Centre
#                                CCDC
#
#######################################################################
#
# If this CIF has been generated from an entry in the Cambridge
# Structural Database, then it will include bibliographic, chemical,
# crystal, experimental, refinement or atomic coordinate data resulting
# from the CCDC's data processing and validation procedures.
#
#######################################################################

data_CSD_CIF_SUNMAP
_audit_creation_date 1995-05-01
_audit_creation_method CSD-ConQuest-V1
_database_code_CSD SUNMAP
_chemical_formula_sum 'C23 H29 N1 O10'
_chemical_formula_moiety
;
C23 H29 N1 O10
;
_journal_coden_Cambridge 456
_journal_volume 68
_journal_year 1994
_journal_page_first 2209
_journal_name_full 'Pol.J.Chem. '
loop_
_publ_author_name
"S.Jarosz"
"E.Kozlowska"
"Z.Ciunik"
_chemical_name_systematic
;
Ethyl 
2,3-dideoxy-5,6:7,8-di-O-isopropylidene-4-(p-nitrobenzoyl)-D-manno-oct-6-enoat
e
;
_chemical_melting_point 353.15
_cell_volume    613.088
_exptl_crystal_density_diffrn 1.296
_exptl_special_details
;
Melting point range 353.15-355.65K

;
_diffrn_ambient_temperature ?
_diffrn_special_details
;
The study was carried out at room temperature,in the range 283-303K

;
_refine_special_details
;
O1, H11 and H21 appear to be disordered over two positions.

;
#These two values have been output from a single CSD field.
_refine_ls_R_factor_gt 0.0329
_refine_ls_wR_factor_gt 0.0329
_symmetry_cell_setting triclinic
_symmetry_space_group_name_H-M 'P 1'
_symmetry_Int_Tables_number 1
loop_
_symmetry_equiv_pos_site_id
_symmetry_equiv_pos_as_xyz
1 x,y,z
_cell_length_a 7.236(1)
_cell_length_b 9.251(1)
_cell_length_c 9.850(1)
_cell_angle_alpha 95.03(1)
_cell_angle_beta 105.03(1)
_cell_angle_gamma 102.96(1)
_cell_formula_units_Z 1
loop_
_atom_type_symbol
_atom_type_radius_bond
C 0.68
H 0.23
N 0.68
O 0.68
loop_
_atom_site_label
_atom_site_type_symbol
_atom_site_fract_x
_atom_site_fract_y
_atom_site_fract_z
C1 C -0.1522(6) -0.8611(5) -1.1728(4)
H1 H -0.13410 -0.80610 -1.24810
H2 H -0.05150 -0.91470 -1.14980
H3? H -0.12010 -0.95220 -1.14590
H4? H -0.05880 -0.81300 -1.21830
O1 O -0.3384(9) -0.959(1) -1.2105(13)
O2? O -0.3453(13) -0.8932(35) -1.2642(17)
C2 C -0.1487(5) -0.7577(4) -1.0420(3)
H5 H -0.0927(71) -0.6326(56) -1.0430(47)
O3 O -0.3493(4) -0.7940(4) -1.0377(3)
C3 C -0.4719(5) -0.8819(5) -1.1689(4)
C4 C -0.6238(10) -1.0065(7) -1.1399(9)
H6 H -0.707(11) -0.9788(76) -1.0709(78)
H7 H -0.549(10) -1.0622(71) -1.0858(71)
H8 H -0.701(14) -1.057(11) -1.238(10)
C5 C -0.5659(11) -0.7836(9) -1.2633(7)
H9 H -0.6484(98) -0.7533(71) -1.2343(64)
H10 H -0.6284(76) -0.8523(50) -1.3680(54)
H11? H -0.414(13) -0.6689(93) -1.2527(85)
C6 C -0.0217(4) -0.7863(4) -0.9037(3)
H12 H -0.0653(54) -0.8942(42) -0.8876(35)
O4 O 0.1804(4) -0.7585(3) -0.9020(3)
C7 C -0.0143(4) -0.6797(3) -0.7747(3)
H13 H -0.1243(50) -0.6363(33) -0.7822(31)
O5 O 0.1518(3) -0.5592(3) -0.7619(3)
C8 C 0.2876(4) -0.6117(4) -0.8237(4)
C9 C 0.3506(8) -0.5035(6) -0.9188(5)
H14 H 0.434(17) -0.522(12) -0.965(11)
H15 H 0.4274(82) -0.3864(65) -0.8538(56)
H16 H 0.2361(72) -0.5016(46) -0.9846(46)
C10 C 0.4628(5) -0.6276(6) -0.7080(5)
H17 H 0.5542(83) -0.5394(63) -0.6645(53)
H18 H 0.546(10) -0.6739(72) -0.7627(67)
H19 H 0.4045(80) -0.6955(59) -0.6374(53)
C11 C 0.0050(4) -0.7536(4) -0.6384(3)
H20 H 0.1080(45) -0.8078(31) -0.6227(29)
O6 O -0.19100 -0.85130 -0.66420
C12 C -0.2117(4) -0.9648(3) -0.5879(3)
O7 O -0.0774(4) -0.9909(3) -0.5010(3)
C13 C -0.4246(5) -1.0486(3) -0.6226(3)
C14 C -0.5632(5) -1.0280(4) -0.7408(4)
H21 H -0.5278(71) -0.9562(53) -0.8009(52)
C15 C -0.7609(5) -1.0991(4) -0.7659(4)
H22 H -0.8617(56) -1.0970(39) -0.8480(39)
C16 C -0.8148(5) -1.1895(4) -0.6704(4)
C17 C -0.6791(6) -1.2133(4) -0.5543(4)
H23 H -0.7149(55) -1.2638(42) -0.4836(40)
C18 C -0.4818(5) -1.1423(4) -0.5307(3)
H24 H -0.3759(71) -1.1533(50) -0.4443(48)
N1 N -1.0265(5) -1.2595(4) -0.6960(4)
O8 O -1.1442(5) -1.2325(7) -0.7968(5)
O9 O -1.0761(5) -1.3371(4) -0.6118(5)
C19 C 0.0583(5) -0.6378(4) -0.5100(3)
H25 H 0.1857(56) -0.5715(40) -0.4855(36)
C20 C -0.0632(5) -0.6074(4) -0.4415(3)
H26 H -0.1853(54) -0.6542(37) -0.4584(32)
C21 C -0.0014(5) -0.4768(4) -0.3271(4)
O10 O -0.1555(5) -0.4589(4) -0.2840(4)
O11 O 0.1615(5) -0.3963(4) -0.2800(3)
C22 C -0.1236(9) -0.3262(7) -0.1826(7)
H27 H -0.094(10) -0.2172(86) -0.2129(70)
H28 H -0.0258(89) -0.3398(63) -0.0920(63)
C23 C -0.3118(12) -0.3270(9) -0.1509(8)
H29 H -0.306(11) -0.2424(88) -0.0869(83)
H30 H -0.402(23) -0.456(20) -0.157(17)
H31 H -0.418(14) -0.3195(95) -0.257(11)
#END
