
#######################################################################
#
#                 Cambridge Crystallographic Data Centre
#                                CCDC
#
#######################################################################
#
# If this CIF has been generated from an entry in the Cambridge
# Structural Database, then it will include bibliographic, chemical,
# crystal, experimental, refinement or atomic coordinate data resulting
# from the CCDC's data processing and validation procedures.
#
#######################################################################

data_CSD_CIF_SUNMET
_audit_creation_date 1995-05-01
_audit_creation_method CSD-ConQuest-V1
_database_code_CSD SUNMET
_chemical_formula_sum 'C16 H20 N4 O5'
_chemical_formula_moiety
;
C16 H20 N4 O5
;
_journal_coden_Cambridge 35
_journal_volume 59
_journal_year 1994
_journal_page_first 4727
_journal_name_full 'J.Org.Chem. '
loop_
_publ_author_name
"Y.Takemoto"
"T.Ohra"
"H.Koike"
"S.-I.Furuse"
"C.Iwata"
"H.Ohishi"
_chemical_name_systematic
;
(5R)-1-Oxaspiro(4.6)undecan-7-one 2,4-dinitrophenylhydrazone
;
_cell_volume   3378.580
_exptl_crystal_colour 'Colorless'
_exptl_crystal_density_diffrn 1.37
_exptl_special_details
;
Absolute configuration

;
_diffrn_ambient_temperature ?
_diffrn_special_details
;
The study was carried out at room temperature,in the range 283-303K

;
#These two values have been output from a single CSD field.
_refine_ls_R_factor_gt 0.0482
_refine_ls_wR_factor_gt 0.0482
_symmetry_cell_setting monoclinic
_symmetry_space_group_name_H-M 'C 2'
_symmetry_Int_Tables_number 5
loop_
_symmetry_equiv_pos_site_id
_symmetry_equiv_pos_as_xyz
1 x,y,z
2 1/2+x,1/2+y,z
3 -x,y,-z
4 1/2-x,1/2+y,-z
_cell_length_a 23.764(4)
_cell_length_b 11.606(5)
_cell_length_c 18.108(3)
_cell_angle_alpha 90
_cell_angle_beta 137.43(2)
_cell_angle_gamma 90
_cell_formula_units_Z 8
loop_
_atom_type_symbol
_atom_type_radius_bond
C 0.68
H 0.23
N 0.68
O 0.68
loop_
_atom_site_label
_atom_site_type_symbol
_atom_site_fract_x
_atom_site_fract_y
_atom_site_fract_z
O1 O 0.3169(2) 0.2977(2) 0.3831(2)
C1 C 0.3650(3) 0.2493(4) 0.3718(4)
H1 H 0.4203(3) 0.2828(4) 0.4243(4)
H2 H 0.3386(3) 0.2623(4) 0.2989(4)
C2 C 0.3693(5) 0.1223(4) 0.3931(7)
H3 H 0.3299(5) 0.0800(4) 0.3249(7)
H4 H 0.4247(5) 0.0929(4) 0.4371(7)
C3 C 0.3481(3) 0.1102(3) 0.4520(4)
H5 H 0.3935(3) 0.0743(3) 0.5226(4)
H6 H 0.2985(3) 0.0636(3) 0.4102(4)
C4 C 0.3332(2) 0.2334(3) 0.4655(3)
C5 C 0.4117(2) 0.2808(3) 0.5786(3)
H7 H 0.4135(2) 0.2523(3) 0.6306(3)
H8 H 0.4598(2) 0.2500(3) 0.5995(3)
C6 C 0.4193(2) 0.4096(3) 0.5880(3)
C7 C 0.3602(2) 0.4833(3) 0.5744(3)
H9 H 0.3356(2) 0.5393(3) 0.5174(3)
H10 H 0.3920(2) 0.5258(3) 0.6417(3)
C8 C 0.2903(3) 0.4202(4) 0.5465(4)
H11 H 0.3148(3) 0.3639(4) 0.6032(4)
H12 H 0.2603(3) 0.4754(4) 0.5476(4)
C9 C 0.2287(2) 0.3593(4) 0.4376(4)
H13 H 0.2191(2) 0.4065(4) 0.3848(4)
H14 H 0.1763(2) 0.3523(4) 0.4130(4)
C10 C 0.2562(2) 0.2402(3) 0.4392(3)
H15 H 0.2659(2) 0.1938(3) 0.4923(3)
H16 H 0.2105(2) 0.2051(3) 0.3683(3)
N1 N 0.4797(2) 0.4501(2) 0.6085(2)
N2 N 0.4890(2) 0.5687(2) 0.6181(2)
H17 H 0.4576(2) 0.6113(2) 0.6149(2)
C11 C 0.5484(2) 0.6160(3) 0.6326(2)
C12 C 0.5616(2) 0.7367(3) 0.6382(2)
C13 C 0.6238(2) 0.7801(3) 0.6536(3)
H18 H 0.6322(2) 0.8593(3) 0.6585(3)
C14 C 0.6729(2) 0.7064(3) 0.6614(3)
C15 C 0.6612(2) 0.5871(3) 0.6544(3)
H19 H 0.6940(2) 0.5377(3) 0.6581(3)
C16 C 0.6017(2) 0.5442(3) 0.6421(3)
H20 H 0.5956(2) 0.4647(3) 0.6397(3)
N3 N 0.5075(2) 0.8200(3) 0.6216(3)
O2 O 0.5234(3) 0.9219(3) 0.6294(4)
O3 O 0.4480(2) 0.7855(2) 0.6003(2)
N4 N 0.7367(2) 0.7518(3) 0.6746(3)
O4 O 0.7688(2) 0.6862(3) 0.6605(3)
O5 O 0.7564(2) 0.8534(3) 0.7006(3)
O6 O 0.46517(14) 0.2409(2) 0.1352(2)
C17 C 0.5122(3) 0.2971(4) 0.1250(4)
H21 H 0.5018(3) 0.2613(4) 0.0675(4)
H22 H 0.5711(3) 0.2908(4) 0.1928(4)
C18 C 0.4872(4) 0.4206(4) 0.0985(6)
H23 H 0.4721(4) 0.4431(4) 0.0341(6)
H24 H 0.5323(4) 0.4695(4) 0.1590(6)
C19 C 0.4135(3) 0.4296(3) 0.0782(4)
H25 H 0.3683(3) 0.4712(3) 0.0111(4)
H26 H 0.4285(3) 0.4687(3) 0.1381(4)
C20 C 0.3886(2) 0.3044(3) 0.0694(3)
C21 C 0.3252(2) 0.2629(3) -0.0500(3)
H27 H 0.2703(2) 0.2898(3) -0.0888(3)
H28 H 0.3388(2) 0.2980(3) -0.0839(3)
C22 C 0.3219(2) 0.1347(3) -0.0631(2)
C23 C 0.2848(2) 0.0580(4) -0.0412(3)
H29 H 0.3231(2) -0.0051(4) 0.0045(3)
H30 H 0.2340(2) 0.0251(4) -0.1102(3)
C24 C 0.2644(3) 0.1129(5) 0.0131(4)
H31 H 0.2401(3) 0.0549(5) 0.0215(4)
H32 H 0.2230(3) 0.1726(5) -0.0345(4)
C25 C 0.3393(3) 0.1656(5) 0.1243(4)
H33 H 0.3291(3) 0.1648(5) 0.1673(4)
H34 H 0.3874(3) 0.1174(5) 0.1615(4)
C26 C 0.3595(2) 0.2877(4) 0.1206(3)
H35 H 0.4025(2) 0.3170(4) 0.1947(3)
H36 H 0.3104(2) 0.3347(4) 0.0806(3)
N5 N 0.3527(2) 0.0979(3) -0.0946(2)
N6 N 0.3492(2) -0.0203(3) -0.1084(2)
H37 H 0.3216(2) -0.0631(3) -0.1050(2)
C27 C 0.3895(2) -0.0669(3) -0.1269(2)
C28 C 0.3962(2) -0.1883(3) -0.1317(3)
C29 C 0.4412(2) -0.2333(3) -0.1461(3)
H38 H 0.4445(2) -0.3127(3) -0.1491(3)
C30 C 0.4810(2) -0.1620(3) -0.1560(3)
C31 C 0.4747(2) -0.0408(3) -0.1540(3)
H39 H 0.5010(2) 0.0082(3) -0.1618(3)
C32 C 0.4302(2) 0.0025(3) -0.1406(3)
H40 H 0.4260(2) 0.0821(3) -0.1403(3)
N7 N 0.3570(2) -0.2696(3) -0.1205(3)
O7 O 0.3212(2) -0.2348(3) -0.0996(3)
O8 O 0.3621(3) -0.3721(3) -0.1301(4)
N8 N 0.5307(2) -0.2103(3) -0.1666(3)
O9 O 0.5752(2) -0.1466(3) -0.1595(3)
O10 O 0.5264(3) -0.3144(3) -0.1817(3)
#END
