
#######################################################################
#
#                 Cambridge Crystallographic Data Centre
#                                CCDC
#
#######################################################################
#
# If this CIF has been generated from an entry in the Cambridge
# Structural Database, then it will include bibliographic, chemical,
# crystal, experimental, refinement or atomic coordinate data resulting
# from the CCDC's data processing and validation procedures.
#
#######################################################################

data_CSD_CIF_SUNROJ
_audit_creation_date 2010-03-10
_audit_creation_method CSD-ConQuest-V1
_database_code_CSD SUNROJ
_database_code_depnum_ccdc_archive 'CCDC 701851'
_chemical_formula_sum 'C15 H21 N1 O4'
_chemical_formula_moiety
;
C15 H21 N1 O4
;
_journal_coden_Cambridge 16
_journal_volume 65
_journal_year 2009
_journal_page_first 4578
_journal_name_full 'Tetrahedron '
loop_
_publ_author_name
"A.A.Tabolin"
"A.V.Lesiv"
"Y.A.Khomutova"
"Y.V.Nelyubina"
"S.L.Ioffe"
_chemical_name_systematic
;
rel-(1R)-1-((4S,6S)-6-Methoxy-4-(4-methoxyphenyl)-6-methyl-5,6-dihydro-4H-1,2-
oxazin-3-yl)ethanol
;
_cell_volume   2841.904
_exptl_crystal_colour 'colorless'
_exptl_crystal_density_diffrn 1.306
_exptl_crystal_description 'prism'
_diffrn_ambient_temperature 120
#These two values have been output from a single CSD field.
_refine_ls_R_factor_gt 0.0625
_refine_ls_wR_factor_gt 0.0625
_symmetry_cell_setting monoclinic
_symmetry_space_group_name_H-M 'P 21/c'
_symmetry_Int_Tables_number 14
loop_
_symmetry_equiv_pos_site_id
_symmetry_equiv_pos_as_xyz
1 x,y,z
2 -x,1/2+y,1/2-z
3 -x,-y,-z
4 x,-1/2-y,-1/2+z
_cell_length_a 14.5272(7)
_cell_length_b 5.8311(3)
_cell_length_c 33.5490(17)
_cell_angle_alpha 90
_cell_angle_beta 90.199(5)
_cell_angle_gamma 90
_cell_formula_units_Z 8
loop_
_atom_type_symbol
_atom_type_radius_bond
C 0.68
H 0.23
N 0.68
O 0.68
loop_
_atom_site_label
_atom_site_type_symbol
_atom_site_fract_x
_atom_site_fract_y
_atom_site_fract_z
N1 N 0.46021(11) 0.7512(3) 0.07825(5)
O1 O 0.51280(9) 0.5876(2) 0.05618(4)
O2 O 0.48109(10) 1.2640(2) 0.12151(4)
H1 H 0.47800 1.31080 0.09570
O3 O 0.63625(10) 0.8206(2) 0.03692(4)
O4 O 0.6218(1) 0.8548(3) 0.28783(4)
C1 C 0.50052(13) 0.8649(3) 0.10566(6)
C2 C 0.60141(13) 0.8496(3) 0.11837(5)
H2 H 0.63290 0.98620 0.10820
C3 C 0.64574(13) 0.6395(3) 0.09890(6)
H3 H 0.71220 0.65580 0.09920
H4 H 0.62990 0.50280 0.11390
C4 C 0.61235(13) 0.6156(3) 0.05645(6)
C5 C 0.44163(13) 1.0401(3) 0.12715(6)
H5 H 0.44580 1.00550 0.15570
C6 C 0.34031(14) 1.0374(4) 0.11612(6)
H6 H 0.30770 1.14410 0.13260
H7 H 0.31600 0.88600 0.12010
H8 H 0.33320 1.08030 0.08870
C7 C 0.64696(16) 0.4022(4) 0.03572(6)
H9 H 0.61900 0.39070 0.00980
H10 H 0.63120 0.26960 0.05120
H11 H 0.71260 0.41080 0.03300
C8 C 0.61511(16) 0.8326(4) -0.00482(6)
H12 H 0.62030 0.98850 -0.01370
H13 H 0.55340 0.77900 -0.00930
H14 H 0.65750 0.73820 -0.01940
C9 C 0.61133(12) 0.8496(3) 0.16341(5)
C10 C 0.65174(13) 1.0334(3) 0.18304(6)
H15 H 0.67500 1.15470 0.16820
C11 C 0.65838(13) 1.0412(4) 0.22453(6)
H16 H 0.68620 1.16560 0.23700
C12 C 0.62317(13) 0.8622(4) 0.24692(6)
C13 C 0.58242(13) 0.6742(4) 0.22778(6)
H17 H 0.55910 0.55330 0.24280
C14 C 0.57684(13) 0.6681(4) 0.18658(6)
H18 H 0.54990 0.54240 0.17410
C15 C 0.65925(15) 1.0480(4) 0.30830(6)
H19 H 0.64790 1.03290 0.33630
H20 H 0.63070 1.18560 0.29860
H21 H 0.72440 1.05530 0.30370
O5 O 0.96631(10) 1.0657(2) 0.44111(4)
N2 N 1.02401(11) 0.8998(3) 0.42189(5)
C16 C 0.99011(13) 0.7827(3) 0.39357(6)
O6 O 1.01137(10) 0.3841(2) 0.37781(4)
H22 H 1.01570 0.32800 0.40220
C17 C 0.89198(13) 0.7934(3) 0.37720(6)
H23 H 0.85990 0.65580 0.38650
O7 O 0.84292(10) 0.8249(2) 0.45720(4)
C18 C 0.84197(13) 1.0004(4) 0.39468(6)
H24 H 0.85820 1.13730 0.37990
H25 H 0.77600 0.97830 0.39250
O8 O 0.87927(10) 0.7924(3) 0.20760(4)
C19 C 0.86833(13) 1.0303(3) 0.43797(6)
C20 C 1.05416(13) 0.6046(3) 0.37525(6)
H26 H 1.06020 0.64170 0.34690
C21 C 1.15038(14) 0.6018(4) 0.39299(7)
H27 H 1.18800 0.49560 0.37850
H28 H 1.14730 0.55550 0.42040
H29 H 1.17670 0.75250 0.39130
C22 C 0.82679(15) 1.2415(4) 0.45704(6)
H30 H 0.84790 1.25360 0.48410
H31 H 0.76090 1.22940 0.45670
H32 H 0.84530 1.37540 0.44250
C23 C 0.87938(17) 0.7931(4) 0.49673(6)
H33 H 0.84410 0.67830 0.51040
H34 H 0.87600 0.93510 0.51110
H35 H 0.94240 0.74460 0.49510
C24 C 0.88896(12) 0.7898(3) 0.33191(6)
C25 C 0.85067(13) 0.6054(3) 0.31184(6)
H36 H 0.82830 0.48190 0.32650
C26 C 0.84456(13) 0.5990(4) 0.27038(6)
H37 H 0.81810 0.47370 0.25760
C27 C 0.87837(12) 0.7814(3) 0.24843(6)
C28 C 0.91759(13) 0.9691(4) 0.26807(6)
H38 H 0.94030 1.09190 0.25340
C29 C 0.92273(13) 0.9730(4) 0.30930(6)
H39 H 0.94890 1.09860 0.32210
C30 C 0.84142(15) 0.6007(4) 0.18678(6)
H40 H 0.85210 0.61810 0.15870
H41 H 0.77640 0.59270 0.19160
H42 H 0.87030 0.46240 0.19600
#END
