
#######################################################################
#
#                 Cambridge Crystallographic Data Centre
#                                CCDC
#
#######################################################################
#
# If this CIF has been generated from an entry in the Cambridge
# Structural Database, then it will include bibliographic, chemical,
# crystal, experimental, refinement or atomic coordinate data resulting
# from the CCDC's data processing and validation procedures.
#
#######################################################################

data_CSD_CIF_SUNWIH
_audit_creation_date 1995-06-12
_audit_creation_method CSD-ConQuest-V1
_database_code_CSD SUNWIH
_database_code_depnum_ccdc_archive 'CCDC 1264474'
_chemical_formula_sum 'C13 H15 N1 O3'
_chemical_formula_moiety
;
C13 H15 N1 O3
;
_journal_coden_Cambridge 35
_journal_volume 59
_journal_year 1994
_journal_page_first 8299
_journal_name_full 'J.Org.Chem. '
loop_
_publ_author_name
"J.G.Garcia"
"J.D.Enas"
"F.R.Fronczek"
"H.F.VanBrocklin"
_chemical_name_systematic
;
5,5-Dimethyl-3-nitro-6,7,8,9-tetrahydro-6H-benzocyclohepten-6-one
;
_chemical_melting_point 408.15
_cell_volume    585.778
_exptl_crystal_colour 'pale yellow'
_exptl_crystal_density_diffrn 1.32
_exptl_special_details
;
Melting point range 408.15-409.15K

;
_diffrn_ambient_temperature ?
_diffrn_special_details
;
The study was carried out at room temperature,in the range 283-303K

;
#These two values have been output from a single CSD field.
_refine_ls_R_factor_gt 0.042
_refine_ls_wR_factor_gt 0.042
_symmetry_cell_setting triclinic
_symmetry_space_group_name_H-M 'P -1'
_symmetry_Int_Tables_number 2
loop_
_symmetry_equiv_pos_site_id
_symmetry_equiv_pos_as_xyz
1 x,y,z
2 -x,-y,-z
_cell_length_a 7.5555(5)
_cell_length_b 8.2259(5)
_cell_length_c 9.8806(7)
_cell_angle_alpha 85.44(1)
_cell_angle_beta 86.02(1)
_cell_angle_gamma 73.35(1)
_cell_formula_units_Z 2
loop_
_atom_type_symbol
_atom_type_radius_bond
C 0.68
H 0.23
N 0.68
O 0.68
loop_
_atom_site_label
_atom_site_type_symbol
_atom_site_fract_x
_atom_site_fract_y
_atom_site_fract_z
O1 O 0.2224(3) 0.5189(2) 0.2718(1)
O2 O 0.2549(3) 0.3507(2) 0.4478(1)
O3 O 0.2639(2) 0.8353(2) 1.0458(1)
N1 N 0.2384(2) 0.4906(2) 0.3930(1)
C1 C 0.2368(2) 0.6315(2) 0.4750(1)
C2 C 0.2307(2) 0.6048(2) 0.6148(1)
C3 C 0.2212(2) 0.7368(2) 0.6967(1)
C4 C 0.2024(2) 0.7079(2) 0.8518(1)
C5 C 0.3075(2) 0.8043(2) 0.9280(1)
C6 C 0.4648(3) 0.8567(2) 0.8548(2)
C7 C 0.3881(3) 1.0302(2) 0.7803(2)
C8 C 0.2072(3) 1.0466(2) 0.7152(2)
C9 C 0.2182(2) 0.8966(2) 0.6328(1)
C10 C 0.2298(3) 0.9167(2) 0.4915(2)
C11 C 0.2391(2) 0.7854(2) 0.4106(2)
C12 C 0.2880(3) 0.5203(2) 0.8988(2)
C13 C -0.0033(3) 0.7598(2) 0.8971(2)
H1 H 0.221(2) 0.496(2) 0.650(2)
H2 H 0.527(3) 0.771(2) 0.788(2)
H3 H 0.558(3) 0.859(2) 0.925(2)
H4 H 0.480(3) 1.050(3) 0.716(2)
H5 H 0.364(3) 1.121(3) 0.848(2)
H6 H 0.171(3) 1.153(2) 0.654(2)
H7 H 0.100(2) 1.055(2) 0.789(2)
H8 H 0.226(2) 1.026(2) 0.450(2)
H9 H 0.246(2) 0.801(2) 0.312(2)
H10 H 0.418(3) 0.471(2) 0.861(2)
H11 H 0.279(3) 0.510(2) 0.996(2)
H12 H 0.209(3) 0.448(3) 0.865(2)
H13 H -0.066(3) 0.890(2) 0.871(2)
H14 H -0.068(3) 0.686(3) 0.854(2)
H15 H -0.014(3) 0.744(3) 0.998(2)
#END
