
#######################################################################
#
#                 Cambridge Crystallographic Data Centre
#                                CCDC
#
#######################################################################
#
# If this CIF has been generated from an entry in the Cambridge
# Structural Database, then it will include bibliographic, chemical,
# crystal, experimental, refinement or atomic coordinate data resulting
# from the CCDC's data processing and validation procedures.
#
#######################################################################

data_CSD_CIF_SUNWIH01
_audit_creation_date 2017-05-10
_audit_creation_method CSD-ConQuest-V1
_database_code_CSD SUNWIH01
_database_code_depnum_ccdc_archive 'CCDC 1549119'
_chemical_formula_sum 'C13 H15 N1 O3'
_chemical_formula_moiety
;
C13 H15 N1 O3
;
_journal_coden_Cambridge 1078
_journal_year 2017
_journal_name_full 'CSD Communication(Private Communication) '
loop_
_publ_author_name
"F.R.Fronczek"
_chemical_name_systematic
;
5,5-dimethyl-3-nitro-5,7,8,9-tetrahydro-6H-benzo[7]annulen-6-one
;
_cell_volume    568.182
_exptl_crystal_colour 'colorless'
_exptl_crystal_density_diffrn 1.363
_diffrn_ambient_temperature 110
_diffrn_special_details
;
twin

;
#These two values have been output from a single CSD field.
_refine_ls_R_factor_gt 0.0442
_refine_ls_wR_factor_gt 0.0442
_symmetry_cell_setting triclinic
_symmetry_space_group_name_H-M 'P -1'
_symmetry_Int_Tables_number 2
loop_
_symmetry_equiv_pos_site_id
_symmetry_equiv_pos_as_xyz
1 x,y,z
2 -x,-y,-z
_cell_length_a 7.4206(7)
_cell_length_b 8.1681(7)
_cell_length_c 9.8337(8)
_cell_angle_alpha 85.630(5)
_cell_angle_beta 85.617(5)
_cell_angle_gamma 73.255(5)
_cell_formula_units_Z 2
loop_
_atom_type_symbol
_atom_type_radius_bond
C 0.68
H 0.23
N 0.68
O 0.68
loop_
_atom_site_label
_atom_site_type_symbol
_atom_site_fract_x
_atom_site_fract_y
_atom_site_fract_z
O1 O 0.23991(18) 1.15636(11) 1.05121(8)
O2 O 0.28132(16) 0.98261(11) 1.23015(8)
O3 O 0.23294(13) 0.6648(1) 0.45054(7)
N1 N 0.26049(15) 1.01343(12) 1.10754(9)
C1 C 0.26166(15) 0.87129(13) 1.02462(9)
C2 C 0.26120(16) 0.71537(13) 1.09009(10)
H1 H 0.25430 0.70030 1.18690
C3 C 0.27132(17) 0.58221(13) 1.00779(10)
H2 H 0.27030 0.47360 1.04940
C4 C 0.28291(15) 0.60320(12) 0.86537(10)
C5 C 0.29743(17) 0.45121(12) 0.78234(10)
H3 H 0.33300 0.34480 0.84180
H4 H 0.39760 0.44410 0.70870
C6 C 0.11073(17) 0.46552(14) 0.71932(11)
H5 H 0.01830 0.44610 0.79220
H6 H 0.13090 0.37520 0.65350
C7 C 0.26617(15) 0.89924(13) 0.88382(9)
H7 H 0.26170 1.00980 0.84360
C8 C 0.27725(14) 0.76501(12) 0.80119(9)
C9 C 0.02955(16) 0.64194(14) 0.64545(10)
H8 H -0.06350 0.63500 0.58070
H9 H -0.03500 0.72710 0.71270
C10 C 0.18876(15) 0.69565(12) 0.56960(9)
C11 C 0.29457(15) 0.79416(12) 0.64552(9)
C12 C 0.20415(18) 0.98390(13) 0.59916(10)
H10 H 0.07290 1.02030 0.63550
H11 H 0.20790 0.99600 0.49910
H12 H 0.27440 1.05550 0.63350
C13 C 0.50398(17) 0.74467(15) 0.59727(11)
H13 H 0.56740 0.81580 0.64000
H14 H 0.51570 0.76280 0.49770
H15 H 0.56240 0.62380 0.62330
#END
