
#######################################################################
#
#                 Cambridge Crystallographic Data Centre
#                                CCDC
#
#######################################################################
#
# If this CIF has been generated from an entry in the Cambridge
# Structural Database, then it will include bibliographic, chemical,
# crystal, experimental, refinement or atomic coordinate data resulting
# from the CCDC's data processing and validation procedures.
#
#######################################################################

data_CSD_CIF_SUPRIF
_audit_creation_date 2010-03-10
_audit_creation_method CSD-ConQuest-V1
_database_code_CSD SUPRIF
_database_code_depnum_ccdc_archive 'CCDC 695532'
_chemical_formula_sum 'C31 H32 N2 O8'
_chemical_formula_moiety
;
C31 H32 N2 O8
;
_journal_coden_Cambridge 4
_journal_volume 131
_journal_year 2009
_journal_page_first 6614
_journal_name_full 'J.Am.Chem.Soc. '
loop_
_publ_author_name
"T.Hashimoto"
"Y.Naganawa"
"K.Maruoka"
_chemical_name_systematic
;
(1-Benzyl-4,6-dimethyl-2-((4-nitrobenzoyl)oxy)cycloheptyl)methyl 
4-nitrobenzoate
;
_cell_volume   5603.342
_exptl_crystal_density_diffrn 1.329
_exptl_crystal_preparation 'hexane/dichloromethane'
_diffrn_ambient_temperature 123.1
#These two values have been output from a single CSD field.
_refine_ls_R_factor_gt 0.0524
_refine_ls_wR_factor_gt 0.0524
_symmetry_cell_setting orthorhombic
_symmetry_space_group_name_H-M 'P 21 21 21'
_symmetry_Int_Tables_number 19
loop_
_symmetry_equiv_pos_site_id
_symmetry_equiv_pos_as_xyz
1 x,y,z
2 1/2+x,1/2-y,-z
3 -x,1/2+y,1/2-z
4 1/2-x,-y,1/2+z
_cell_length_a 13.3018(3)
_cell_length_b 14.3633(3)
_cell_length_c 29.3280(6)
_cell_angle_alpha 90
_cell_angle_beta 90
_cell_angle_gamma 90
_cell_formula_units_Z 8
loop_
_atom_type_symbol
_atom_type_radius_bond
C 0.68
H 0.23
N 0.68
O 0.68
loop_
_atom_site_label
_atom_site_type_symbol
_atom_site_fract_x
_atom_site_fract_y
_atom_site_fract_z
O1 O 0.3098(2) 1.22875(19) 0.07073(8)
O2 O 0.2237(2) 0.73155(18) 0.06392(8)
O3 O 0.1612(2) 1.2141(2) 0.03341(9)
O4 O 0.4310(2) 0.7341(2) 0.15395(10)
O5 O 0.0945(2) 1.2413(2) 0.1558(1)
O6 O -0.3872(2) 1.1389(2) 0.06272(11)
O7 O 0.3733(2) 0.7043(2) 0.02939(10)
O8 O 0.0930(2) 0.5023(2) -0.14457(10)
O9 O -0.2759(2) 1.0979(2) 0.01228(10)
O10 O 0.5707(2) 1.0451(2) -0.10718(12)
O11 O 0.8233(2) 0.6017(2) 0.01837(11)
O12 O -0.0426(2) 0.5367(2) -0.10823(12)
O13 O 0.9278(2) 0.6340(2) 0.07286(12)
O14 O -0.0127(2) 1.2770(3) 0.21068(12)
O15 O 0.4342(3) 1.0281(3) -0.14571(11)
O16 O 0.5372(2) 0.8053(2) 0.20215(11)
N1 N 0.0491(3) 0.5356(2) -0.11184(12)
N2 N 0.8417(2) 0.6275(2) 0.05745(13)
N3 N -0.2993(2) 1.1281(2) 0.05016(13)
N4 N 0.4789(3) 1.0499(2) -0.11080(13)
C1 C 0.3113(3) 1.1554(2) -0.00058(12)
C2 C 0.1090(3) 0.5754(2) -0.07430(13)
C3 C 0.3658(3) 1.2782(3) 0.18132(13)
C4 C -0.2192(3) 1.1518(2) 0.08248(13)
C5 C 0.2514(2) 0.7520(2) 0.14694(13)
C6 C 0.3446(2) 0.7784(3) 0.17493(13)
C7 C 0.3169(3) 1.0947(3) -0.07762(14)
C8 C 0.1615(2) 0.7942(2) 0.17246(13)
C9 C 0.2513(3) 1.2008(2) 0.03596(13)
C10 C 0.2630(3) 1.1311(2) -0.04132(13)
C11 C 0.2388(3) 0.5914(2) 0.18860(13)
C12 C 0.4131(3) 1.1411(2) 0.00382(13)
C13 C 0.2414(3) 0.6435(2) 0.14388(13)
C14 C 0.4200(3) 1.0847(3) -0.07193(13)
C15 C 0.1815(2) 1.2776(3) 0.17976(13)
C16 C 0.2742(3) 1.1368(2) 0.14908(13)
C17 C 0.2104(3) 0.5869(3) -0.08064(14)
C18 C -0.0488(3) 1.1882(2) 0.09656(14)
C19 C 0.4703(3) 1.1058(2) -0.03173(13)
C20 C 0.6626(3) 0.6601(2) 0.06788(14)
C21 C -0.0730(3) 1.2098(3) 0.14179(13)
C22 C 0.2658(3) 1.2899(2) 0.10564(13)
C23 C 0.5218(3) 0.7554(3) 0.16989(15)
C24 C 0.2705(3) 1.0822(2) 0.19342(13)
C25 C 0.5841(3) 0.6911(2) 0.09547(14)
C26 C 0.1802(3) 1.0618(3) 0.21486(14)
C27 C 0.7567(3) 0.6525(2) 0.08724(14)
C28 C 0.1483(3) 0.5677(3) 0.20847(15)
C29 C 0.2687(3) 0.7925(2) 0.09866(13)
C30 C 0.2669(3) 0.6250(2) -0.04548(13)
C31 C 0.0612(3) 0.5982(2) -0.03428(13)
C32 C 0.2290(3) 0.8902(2) 0.08922(15)
C33 C -0.2460(3) 1.1695(3) 0.12763(15)
C34 C 0.7766(3) 0.6706(3) 0.13229(15)
C35 C 0.3269(3) 0.5623(2) 0.21026(14)
C36 C 0.3591(3) 1.0501(3) 0.21340(15)
C37 C 0.4699(3) 1.2759(3) 0.15881(14)
C38 C -0.1231(3) 1.1590(2) 0.06687(14)
C39 C 0.4279(3) 1.3864(3) 0.09063(15)
C40 C -0.1711(3) 1.1983(3) 0.15691(15)
C41 C 0.0038(3) 1.2461(3) 0.17383(15)
C42 C 0.3237(4) 0.5117(3) 0.25057(16)
C43 C 0.0590(3) 0.8011(3) 0.14849(14)
C44 C 0.2326(4) 0.4892(3) 0.26963(16)
C45 C 0.6980(3) 0.7024(3) 0.15963(15)
C46 C 0.6030(3) 0.7135(3) 0.14117(13)
C47 C 0.1451(4) 0.5167(3) 0.24895(16)
C48 C 0.3573(4) 1.0004(3) 0.25395(16)
C49 C 0.0495(3) 0.8886(3) 0.11887(14)
C50 C -0.0247(3) 0.7993(3) 0.18372(16)
C51 C 0.3144(3) 1.3852(2) 0.09943(15)
C52 C 0.2668(4) 0.9813(3) 0.27478(16)
C53 C 0.1779(4) 1.0109(3) 0.25563(16)
C54 C 0.1169(3) 0.8977(3) 0.07768(14)
C55 C 0.0963(4) 0.9888(3) 0.05252(16)
C56 C 0.5496(3) 1.2623(3) 0.19564(17)
C57 C 0.4912(3) 1.3663(3) 0.13232(15)
C58 C 0.4579(4) 1.4814(3) 0.07072(19)
C59 C 0.2739(3) 1.2445(2) 0.15368(13)
C60 C 0.1178(3) 0.6362(2) 0.00078(14)
C61 C 0.2208(3) 0.6499(2) -0.00490(13)
C62 C 0.2821(3) 0.6964(2) 0.03102(13)
H1 H 0.28470 1.07740 -0.10530
H2 H 0.19250 1.13970 -0.04410
H3 H 0.44500 1.15570 0.03190
H4 H 0.24140 0.56910 -0.10850
H5 H 0.01870 1.19370 0.08630
H6 H 0.54070 1.09650 -0.02870
H7 H 0.65170 0.64470 0.03680
H8 H 0.51820 0.69690 0.08340
H9 H 0.11890 1.08260 0.20170
H10 H 0.08720 0.58640 0.19440
H11 H 0.33720 0.63400 -0.04920
H12 H -0.00900 0.58810 -0.03070
H13 H -0.31330 1.16210 0.13780
H14 H 0.84200 0.66180 0.14450
H15 H 0.39020 0.57740 0.19720
H16 H 0.42170 1.06260 0.19900
H17 H -0.10740 1.14420 0.03610
H18 H -0.18680 1.21050 0.18790
H19 H 0.38440 0.49260 0.26490
H20 H 0.23020 0.45460 0.29720
H21 H 0.70960 0.71640 0.19080
H22 H 0.08220 0.50100 0.26220
H23 H 0.41840 0.97960 0.26730
H24 H 0.26580 0.94730 0.30260
H25 H 0.11550 0.99710 0.26990
H26 H 0.08640 0.65300 0.02870
H27 H 0.19270 1.29670 0.09850
H28 H 0.34290 0.79350 0.09320
H29 H 0.47270 1.22210 0.13720
H30 H 0.44320 1.33770 0.06730
H31 H 0.05120 0.74540 0.12830
H32 H 0.10020 0.84550 0.05640
H33 H 0.35260 1.34310 0.19090
H34 H 0.36940 1.24010 0.20940
H35 H 0.18090 0.85790 0.18200
H36 H 0.15170 0.75740 0.20070
H37 H 0.17910 0.62880 0.12690
H38 H 0.29850 0.61950 0.12570
H39 H 0.21560 1.11840 0.13030
H40 H 0.33550 1.11820 0.13230
H41 H 0.26790 0.91690 0.06360
H42 H 0.24240 0.92930 0.11640
H43 H -0.02100 0.89260 0.10820
H44 H 0.06150 0.94330 0.13870
H45 H -0.08990 0.80370 0.16830
H46 H -0.01680 0.85200 0.20460
H47 H -0.02140 0.74090 0.20100
H48 H 0.30080 1.42250 0.12710
H49 H 0.28080 1.41670 0.07360
H50 H 0.14070 0.99350 0.02600
H51 H 0.10870 1.04140 0.07300
H52 H 0.02610 0.99010 0.04240
H53 H 0.61640 1.26090 0.18150
H54 H 0.53750 1.20330 0.21150
H55 H 0.54610 1.31380 0.21750
H56 H 0.48330 1.41910 0.15370
H57 H 0.56260 1.36520 0.12270
H58 H 0.41680 1.49450 0.04370
H59 H 0.52910 1.48020 0.06210
H60 H 0.44690 1.53000 0.09360
H61 H 0.35340 0.84680 0.17520
H62 H 0.33690 0.75680 0.20680
H63 H 0.18300 1.25390 0.21150
H64 H 0.17930 1.34650 0.18060
#END
