
#######################################################################
#
#                 Cambridge Crystallographic Data Centre
#                                CCDC
#
#######################################################################
#
# If this CIF has been generated from an entry in the Cambridge
# Structural Database, then it will include bibliographic, chemical,
# crystal, experimental, refinement or atomic coordinate data resulting
# from the CCDC's data processing and validation procedures.
#
#######################################################################

data_CSD_CIF_SUQDOY
_audit_creation_date 2010-03-10
_audit_creation_method CSD-ConQuest-V1
_database_code_CSD SUQDOY
_database_code_depnum_ccdc_archive 'CCDC 686907'
_chemical_formula_sum 'C14 H19 N3 O5'
_chemical_formula_moiety
;
C14 H19 N3 O5
;
_journal_coden_Cambridge 392
_journal_volume 75
_journal_year 2008
_journal_page_first 2681
_journal_name_full 'Heterocycles '
loop_
_publ_author_name
"N.O'Halloran"
"J.P.James"
"C.A.Downey"
"P.O'Malley"
"T.Duff"
"S.Bertrand"
_chemical_name_systematic
;
Ethyl 2-(1-acetyl-2-(4-nitrophenyl)hydrazino)-2-methylpropanoate
;
_chemical_melting_point 445
_cell_volume   1546.228
_exptl_crystal_colour 'colorless'
_exptl_crystal_density_diffrn 1.329
_exptl_crystal_description 'block'
_diffrn_ambient_temperature 100
#These two values have been output from a single CSD field.
_refine_ls_R_factor_gt 0.035
_refine_ls_wR_factor_gt 0.035
_symmetry_cell_setting orthorhombic
_symmetry_space_group_name_H-M 'P 21 21 21'
_symmetry_Int_Tables_number 19
loop_
_symmetry_equiv_pos_site_id
_symmetry_equiv_pos_as_xyz
1 x,y,z
2 1/2-x,-y,1/2+z
3 -x,1/2+y,1/2-z
4 1/2+x,1/2-y,-z
_cell_length_a 10.6723(6)
_cell_length_b 11.7713(7)
_cell_length_c 12.3081(7)
_cell_angle_alpha 90
_cell_angle_beta 90
_cell_angle_gamma 90
_cell_formula_units_Z 4
loop_
_atom_type_symbol
_atom_type_radius_bond
C 0.68
H 0.23
N 0.68
O 0.68
loop_
_atom_site_label
_atom_site_type_symbol
_atom_site_fract_x
_atom_site_fract_y
_atom_site_fract_z
C1 C 0.49277(11) 0.32447(11) 0.80562(10)
H1 H 0.4160(17) 0.3380(16) 0.7723(15)
C2 C 0.50100(11) 0.32834(10) 0.91824(10)
H2 H 0.430(2) 0.3491(18) 0.9602(18)
C3 C 0.61520(11) 0.30778(10) 0.96795(9)
N1 N 0.62183(11) 0.30472(10) 1.08617(9)
O1 O 0.72557(10) 0.30159(11) 1.12962(8)
O2 O 0.52226(11) 0.30389(12) 1.13744(8)
C4 C 0.72344(11) 0.28751(11) 0.90801(10)
H3 H 0.7965(19) 0.2775(18) 0.9449(16)
C5 C 0.71565(11) 0.28313(11) 0.79558(10)
H4 H 0.7884(19) 0.2642(19) 0.7577(17)
C6 C 0.59967(11) 0.29914(10) 0.74379(9)
N2 N 0.59453(10) 0.28534(10) 0.63295(9)
H5 H 0.6619(17) 0.2782(17) 0.5942(16)
N3 N 0.48797(10) 0.31212(9) 0.57423(8)
C7 C 0.39986(12) 0.23092(11) 0.55447(10)
O3 O 0.31128(9) 0.25291(9) 0.49431(9)
C8 C 0.41169(18) 0.11883(13) 0.61272(14)
H6 H 0.493(2) 0.096(2) 0.615(2)
H7 H 0.379(2) 0.131(2) 0.686(2)
H8 H 0.361(3) 0.064(2) 0.572(2)
C9 C 0.47724(11) 0.42521(10) 0.52104(10)
C10 C 0.51237(14) 0.41660(13) 0.40097(11)
H9 H 0.598(2) 0.3893(19) 0.3973(17)
H10 H 0.460(2) 0.3675(18) 0.3641(17)
H11 H 0.509(2) 0.4941(19) 0.3680(18)
C11 C 0.56302(14) 0.51034(12) 0.57850(12)
H12 H 0.5456(18) 0.5153(16) 0.6529(16)
H13 H 0.541(2) 0.584(2) 0.5486(19)
H14 H 0.650(2) 0.490(2) 0.5692(18)
C12 C 0.34257(12) 0.46932(11) 0.53556(10)
O4 O 0.28493(11) 0.5201(1) 0.46681(9)
O5 O 0.30552(9) 0.45394(8) 0.63837(8)
C13 C 0.18072(13) 0.49254(12) 0.66803(11)
H15 H 0.160(2) 0.5586(19) 0.6257(17)
H16 H 0.1826(19) 0.5078(17) 0.7480(17)
C14 C 0.08631(16) 0.40081(16) 0.64826(16)
H17 H 0.090(2) 0.378(2) 0.573(2)
H18 H 0.000(2) 0.426(2) 0.6655(19)
H19 H 0.097(3) 0.333(3) 0.688(2)
#END
