
#######################################################################
#
#                 Cambridge Crystallographic Data Centre
#                                CCDC
#
#######################################################################
#
# If this CIF has been generated from an entry in the Cambridge
# Structural Database, then it will include bibliographic, chemical,
# crystal, experimental, refinement or atomic coordinate data resulting
# from the CCDC's data processing and validation procedures.
#
#######################################################################

data_CSD_CIF_SUQDEO
_audit_creation_date 2010-03-10
_audit_creation_method CSD-ConQuest-V1
_database_code_CSD SUQDEO
_database_code_depnum_ccdc_archive 'CCDC 686905'
_chemical_formula_sum 'C19 H19 N5 O3'
_chemical_formula_moiety
;
C19 H19 N5 O3
;
_journal_coden_Cambridge 392
_journal_volume 75
_journal_year 2008
_journal_page_first 2681
_journal_name_full 'Heterocycles '
loop_
_publ_author_name
"N.O'Halloran"
"J.P.James"
"C.A.Downey"
"P.O'Malley"
"T.Duff"
"S.Bertrand"
_chemical_name_systematic
;
5-Imino-3,3,4-trimethyl-4-((4-nitrophenyl)diazenyl)-1-phenyl-2-pyrrolidinone
;
_chemical_melting_point 415
_cell_volume    440.516
_exptl_crystal_colour 'orange'
_exptl_crystal_density_diffrn 1.377
_exptl_crystal_description 'rod'
_diffrn_ambient_temperature 100
#These two values have been output from a single CSD field.
_refine_ls_R_factor_gt 0.0375
_refine_ls_wR_factor_gt 0.0375
_symmetry_cell_setting triclinic
_symmetry_space_group_name_H-M 'P 1'
_symmetry_Int_Tables_number 1
loop_
_symmetry_equiv_pos_site_id
_symmetry_equiv_pos_as_xyz
1 x,y,z
_cell_length_a 6.1179(9)
_cell_length_b 7.7340(12)
_cell_length_c 9.9532(15)
_cell_angle_alpha 72.868(3)
_cell_angle_beta 79.475(3)
_cell_angle_gamma 81.828(3)
_cell_formula_units_Z 1
loop_
_atom_type_symbol
_atom_type_radius_bond
C 0.68
H 0.23
N 0.68
O 0.68
loop_
_atom_site_label
_atom_site_type_symbol
_atom_site_fract_x
_atom_site_fract_y
_atom_site_fract_z
C1 C 0.4850(3) 0.4705(2) 0.51654(18)
H1 H 0.49760 0.41250 0.61360
C2 C 0.6312(3) 0.5961(2) 0.43568(18)
H2 H 0.74790 0.62370 0.47500
C3 C 0.6023(3) 0.6809(2) 0.29482(17)
N1 N 0.7535(2) 0.8183(2) 0.21043(15)
O1 O 0.9093(2) 0.8411(2) 0.26248(16)
O2 O 0.7152(3) 0.9049(2) 0.09151(17)
C4 C 0.4354(3) 0.6465(2) 0.23165(18)
H3 H 0.41940 0.70850 0.13570
C5 C 0.2919(3) 0.5179(2) 0.31383(17)
H4 H 0.17570 0.49010 0.27420
C6 C 0.3190(3) 0.4298(2) 0.45456(17)
N2 N 0.1641(2) 0.29772(19) 0.52881(15)
N3 N 0.2280(2) 0.18550(18) 0.63658(15)
C7 C 0.0625(3) 0.0525(2) 0.70675(17)
C8 C -0.1350(3) 0.1494(2) 0.78447(18)
H5 H -0.08200 0.19340 0.85450
H6 H -0.24730 0.06420 0.83290
H7 H -0.20150 0.25260 0.71550
C9 C 0.1713(3) -0.1023(2) 0.81677(17)
N4 N 0.3102(3) -0.1005(2) 0.89639(16)
H8 H 0.346(5) 0.012(4) 0.877(3)
N5 N 0.0807(2) -0.26097(18) 0.82140(15)
C10 C 0.1227(3) -0.4349(2) 0.92036(17)
C11 C -0.0558(3) -0.5196(2) 1.01088(18)
H9 H -0.20250 -0.45940 1.01210
C12 C -0.0170(3) -0.6941(2) 1.09990(19)
H10 H -0.13790 -0.75360 1.16190
C13 C 0.1972(3) -0.7811(2) 1.09837(19)
H11 H 0.22280 -0.90080 1.15800
C14 C 0.3747(3) -0.6928(2) 1.00926(19)
H12 H 0.52190 -0.75170 1.01000
C15 C 0.3392(3) -0.5190(2) 0.91897(18)
H13 H 0.46040 -0.45920 0.85770
C16 C -0.0404(3) -0.2367(2) 0.71120(17)
O3 O -0.1428(2) -0.35124(18) 0.69654(14)
C17 C -0.0073(3) -0.0479(2) 0.60893(16)
C18 C 0.1902(3) -0.0799(2) 0.49527(19)
H14 H 0.15700 -0.17110 0.45320
H15 H 0.32560 -0.12310 0.53960
H16 H 0.21330 0.03430 0.42090
C19 C -0.2155(3) 0.0348(2) 0.54040(19)
H17 H -0.24710 -0.04230 0.48520
H18 H -0.19050 0.15650 0.47740
H19 H -0.34270 0.04350 0.61460
#END
