
#######################################################################
#
#                 Cambridge Crystallographic Data Centre
#                                CCDC
#
#######################################################################
#
# If this CIF has been generated from an entry in the Cambridge
# Structural Database, then it will include bibliographic, chemical,
# crystal, experimental, refinement or atomic coordinate data resulting
# from the CCDC's data processing and validation procedures.
#
#######################################################################

data_CSD_CIF_SUQKIA
_audit_creation_date 2015-08-29
_audit_creation_method CSD-ConQuest-V1
_database_code_CSD SUQKIA
_database_code_depnum_ccdc_archive 'CCDC 1063432'
_chemical_formula_sum 'C35 H41 N1 O6'
_chemical_formula_moiety
;
C35 H41 N1 O6
;
_journal_coden_Cambridge 4
_journal_volume 137
_journal_year 2015
_journal_page_first 10720
_journal_name_full 'J.Am.Chem.Soc. '
loop_
_publ_author_name
"Houhua Li"
"C.Mazet"
_chemical_name_systematic
;
4-nitrophenyl 17-(3-oxo-1-phenylpropyl)androst-5-en-3-yl carbonate
;
_cell_volume   2954.675
_exptl_crystal_colour 'colorless'
_exptl_crystal_density_diffrn 1.285
_exptl_special_details
;
Absolute configuration

;
_exptl_crystal_description 'block'
_diffrn_ambient_temperature 180.1
_diffrn_special_details
;
twin

;
#These two values have been output from a single CSD field.
_refine_ls_R_factor_gt 0.0303
_refine_ls_wR_factor_gt 0.0303
_symmetry_cell_setting orthorhombic
_symmetry_space_group_name_H-M 'P 21 21 21'
_symmetry_Int_Tables_number 19
loop_
_symmetry_equiv_pos_site_id
_symmetry_equiv_pos_as_xyz
1 x,y,z
2 1/2-x,-y,1/2+z
3 1/2+x,1/2-y,-z
4 -x,1/2+y,1/2-z
_cell_length_a 10.09180(16)
_cell_length_b 11.48593(15)
_cell_length_c 25.4903(4)
_cell_angle_alpha 90
_cell_angle_beta 90
_cell_angle_gamma 90
_cell_formula_units_Z 4
loop_
_atom_type_symbol
_atom_type_radius_bond
C 0.68
H 0.23
N 0.68
O 0.68
loop_
_atom_site_label
_atom_site_type_symbol
_atom_site_fract_x
_atom_site_fract_y
_atom_site_fract_z
O1 O 0.30070(13) 0.26095(12) 0.57970(5)
O2 O 0.29711(12) 0.25006(12) 0.49594(5)
O3 O 0.47597(13) 0.33222(14) 0.53401(5)
C1 C 0.37008(16) 0.28711(16) 0.53534(7)
O4 O 0.4692(2) 0.2827(2) 0.81427(7)
C2 C 0.35444(17) 0.28908(17) 0.62825(7)
C3 C 0.50384(16) 0.18281(14) 0.16415(6)
C4 C 0.22509(16) 0.33444(15) 0.31609(7)
H1 H 0.16050 0.38430 0.32920
O5 O 0.5347(2) 0.4532(2) 0.79001(9)
C5 C 0.4388(2) 0.3352(2) 0.72733(8)
C6 C 0.41150(16) 0.27611(14) 0.18797(6)
H2 H 0.46900 0.34210 0.19660
O6 O 0.7270(2) 0.02722(14) -0.00572(7)
C7 C 0.28280(16) 0.26146(15) 0.34968(6)
C8 C 0.23809(17) 0.25658(16) 0.40624(7)
H3 H 0.19050 0.18440 0.41230
H4 H 0.17790 0.32060 0.41310
C9 C 0.25656(17) 0.34203(14) 0.25884(7)
H5 H 0.30090 0.41540 0.25200
H6 H 0.17440 0.34180 0.23910
C10 C 0.45455(18) 0.16955(18) 0.43243(7)
H7 H 0.41430 0.09380 0.43770
H8 H 0.52900 0.17670 0.45630
C11 C 0.4031(2) 0.39889(18) 0.63950(8)
H9 H 0.40650 0.45620 0.61380
N1 N 0.4843(2) 0.3597(2) 0.78099(8)
C12 C 0.39173(16) 0.17677(14) 0.33389(6)
C13 C 0.50273(17) 0.18059(18) 0.37562(7)
H10 H 0.56470 0.11800 0.36860
H11 H 0.55040 0.25350 0.37200
C14 C 0.61182(17) 0.15972(16) 0.20501(6)
H12 H 0.66560 0.22910 0.20920
H13 H 0.66890 0.09750 0.19270
C15 C 0.55243(17) 0.12558(15) 0.25840(7)
H14 H 0.50950 0.05040 0.25500
H15 H 0.62390 0.11720 0.28360
C16 C 0.34437(16) 0.24244(14) 0.23925(6)
H16 H 0.28930 0.17340 0.23340
C17 C 0.4305(2) 0.07052(16) 0.15008(7)
H17 H 0.38950 0.03910 0.18100
H18 H 0.49230 0.01490 0.13620
H19 H 0.36380 0.08700 0.12430
C18 C 0.35485(17) 0.26385(17) 0.44359(6)
H20 H 0.39710 0.34040 0.44070
C19 C 0.54913(17) 0.24948(15) 0.11418(6)
H21 H 0.61050 0.31030 0.12590
C20 C 0.3888(2) 0.2258(2) 0.71636(8)
H22 H 0.38360 0.16920 0.74230
C21 C 0.7903(3) 0.45213(19) 0.00891(11)
H23 H 0.85690 0.50410 0.01820
C22 C 0.65867(19) 0.28110(16) 0.02853(7)
C23 C 0.6290(3) 0.3866(2) -0.05251(10)
H24 H 0.58660 0.39460 -0.08470
C24 C 0.32590(19) 0.31723(18) 0.14232(7)
H25 H 0.29400 0.39580 0.14810
H26 H 0.25070 0.26590 0.13710
C25 C 0.45153(15) 0.21328(14) 0.28005(6)
H27 H 0.50050 0.28560 0.28630
C26 C 0.7230(3) 0.4652(2) -0.03777(11)
H28 H 0.74190 0.52830 -0.05940
C27 C 0.5961(2) 0.2942(2) -0.01946(8)
H29 H 0.53180 0.24090 -0.02980
C28 C 0.4465(2) 0.4213(2) 0.69009(9)
H30 H 0.48050 0.49410 0.69870
C29 C 0.7574(2) 0.36039(17) 0.04193(9)
H31 H 0.80220 0.35180 0.07360
C30 C 0.61640(18) 0.18722(15) 0.06753(7)
H32 H 0.54930 0.13880 0.05030
C31 C 0.7336(2) 0.10888(17) 0.08113(8)
H33 H 0.80460 0.15640 0.09530
H34 H 0.70670 0.05440 0.10820
C32 C 0.34688(19) 0.20286(19) 0.66577(7)
H35 H 0.31380 0.12980 0.65710
C33 C 0.3316(2) 0.05355(16) 0.33155(8)
H36 H 0.28320 0.03850 0.36330
H37 H 0.40130 -0.00270 0.32790
H38 H 0.27270 0.04810 0.30210
C34 C 0.42175(19) 0.31238(17) 0.09497(7)
H39 H 0.44270 0.39040 0.08300
H40 H 0.38180 0.26980 0.06620
C35 C 0.7854(2) 0.04146(18) 0.03463(9)
H41 H 0.86910 0.00840 0.03760
#END
