
#######################################################################
#
#                 Cambridge Crystallographic Data Centre
#                                CCDC
#
#######################################################################
#
# If this CIF has been generated from an entry in the Cambridge
# Structural Database, then it will include bibliographic, chemical,
# crystal, experimental, refinement or atomic coordinate data resulting
# from the CCDC's data processing and validation procedures.
#
#######################################################################

data_CSD_CIF_SUQYAF
_audit_creation_date 2010-03-10
_audit_creation_method CSD-ConQuest-V1
_database_code_CSD SUQYAF
_database_code_depnum_ccdc_archive 'CCDC 717394'
_chemical_formula_sum 'C25 H32 N2 O2'
_chemical_formula_moiety
;
C25 H32 N2 O2
;
_journal_coden_Cambridge 179
_journal_volume 48
_journal_year 2009
_journal_page_first 4235
_journal_name_full 'Angew.Chem.,Int.Ed. '
loop_
_publ_author_name
"S.Kirchberg"
"R.Frohlich"
"A.Studer"
_chemical_name_systematic
;
1-(2-Phenyl-3-(2,2,6,6-tetramethylpiperidin-1-yloxy)-2,3-dihydroindol-1-yl)eth
anone
;
_chemical_melting_point 407.15
_cell_volume   4398.433
_exptl_crystal_colour 'colorless'
_exptl_crystal_density_diffrn 1.186
_exptl_crystal_description 'plate'
_diffrn_ambient_temperature 223
#These two values have been output from a single CSD field.
_refine_ls_R_factor_gt 0.0481
_refine_ls_wR_factor_gt 0.0481
_symmetry_cell_setting monoclinic
_symmetry_space_group_name_H-M 'P 21/n'
_symmetry_Int_Tables_number 14
loop_
_symmetry_equiv_pos_site_id
_symmetry_equiv_pos_as_xyz
1 x,y,z
2 1/2-x,1/2+y,1/2-z
3 -x,-y,-z
4 -1/2+x,-1/2-y,-1/2+z
_cell_length_a 8.5157(3)
_cell_length_b 23.1976(7)
_cell_length_c 22.6529(8)
_cell_angle_alpha 90
_cell_angle_beta 100.610(1)
_cell_angle_gamma 90
_cell_formula_units_Z 8
loop_
_atom_type_symbol
_atom_type_radius_bond
C 0.68
H 0.23
N 0.68
O 0.68
loop_
_atom_site_label
_atom_site_type_symbol
_atom_site_fract_x
_atom_site_fract_y
_atom_site_fract_z
N1 N 0.73945(17) 0.22330(7) 0.83236(7)
C1 C 0.9158(2) 0.23144(8) 0.84473(8)
H1 H 0.96860 0.19360 0.85390
C2 C 0.9453(2) 0.26932(8) 0.90191(8)
H2 H 1.02420 0.30000 0.89870
C3 C 0.7842(2) 0.29475(8) 0.90317(8)
C4 C 0.7425(3) 0.33982(9) 0.93713(9)
H3 H 0.82150 0.35980 0.96380
C5 C 0.5838(3) 0.35517(10) 0.93144(11)
H4 H 0.55400 0.38560 0.95450
C6 C 0.4691(3) 0.32567(11) 0.89183(11)
H5 H 0.36150 0.33660 0.88840
C7 C 0.5070(2) 0.2806(1) 0.85702(9)
H6 H 0.42760 0.26070 0.83040
C8 C 0.6677(2) 0.26589(8) 0.86310(8)
C9 C 0.6605(2) 0.18284(9) 0.79389(9)
C10 C 0.7593(3) 0.1417(1) 0.76552(10)
H7 H 0.69120 0.11180 0.74460
H8 H 0.83960 0.12440 0.79630
H9 H 0.81130 0.16220 0.73720
O1 O 0.51379(18) 0.18055(7) 0.78334(7)
C11 C 0.9730(2) 0.25822(8) 0.79167(8)
C12 C 0.8985(2) 0.30567(9) 0.76175(9)
H10 H 0.80990 0.32210 0.77470
C13 C 0.9521(3) 0.32925(10) 0.71314(9)
H11 H 0.90010 0.36150 0.69340
C14 C 1.0812(2) 0.30573(10) 0.69344(10)
H12 H 1.11750 0.32180 0.66030
C15 C 1.1569(3) 0.25873(12) 0.72242(10)
H13 H 1.24550 0.24250 0.70920
C16 C 1.1031(2) 0.23526(11) 0.77098(9)
H14 H 1.15580 0.20300 0.79050
O2 O 1.00638(15) 0.22988(6) 0.95009(5)
N2 N 0.99051(18) 0.25019(7) 1.00974(6)
C17 C 1.1533(2) 0.26715(10) 1.04212(9)
C18 C 1.1378(3) 0.28179(10) 1.10698(9)
H15 H 1.24450 0.28970 1.13030
H16 H 1.07410 0.31700 1.10670
C19 C 1.0616(3) 0.23463(11) 1.13779(10)
H17 H 1.04880 0.24750 1.17790
H18 H 1.13000 0.20040 1.14240
C20 C 0.9006(3) 0.22007(11) 1.10073(10)
H19 H 0.83040 0.25370 1.09980
H20 H 0.85330 0.18850 1.12030
C21 C 0.9071(2) 0.20233(9) 1.03606(9)
C22 C 1.2875(3) 0.22325(13) 1.04194(11)
H21 H 1.27470 0.19150 1.06860
H22 H 1.38990 0.24170 1.05560
H23 H 1.28280 0.20870 1.00150
C23 C 1.1987(3) 0.32278(12) 1.01289(10)
H24 H 1.22290 0.31410 0.97370
H25 H 1.29170 0.33980 1.03800
H26 H 1.11010 0.34970 1.00850
C24 C 0.9819(3) 0.14257(10) 1.03415(11)
H27 H 1.00130 0.13500 0.99400
H28 H 0.90960 0.11370 1.04480
H29 H 1.08220 0.14110 1.06250
C25 C 0.7361(3) 0.19927(11) 1.00095(11)
H30 H 0.68850 0.23740 0.99880
H31 H 0.67410 0.17320 1.02110
H32 H 0.73700 0.18530 0.96070
N3 N 0.24564(17) 0.04536(7) 0.83485(7)
C26 C 0.4099(2) 0.03736(8) 0.82293(8)
H33 H 0.45250 0.07490 0.81220
C27 C 0.3853(2) -0.00282(8) 0.76805(8)
H34 H 0.47160 -0.03190 0.77180
C28 C 0.2272(2) -0.03094(8) 0.77002(8)
C29 C 0.1593(3) -0.07978(9) 0.74129(10)
H35 H 0.21340 -0.10090 0.71580
C30 C 0.0109(3) -0.09722(11) 0.75048(12)
H36 H -0.03700 -0.13020 0.73090
C31 C -0.0670(3) -0.06655(12) 0.78807(12)
H37 H -0.16790 -0.07920 0.79390
C32 C -0.0012(2) -0.01748(10) 0.81782(10)
H38 H -0.05590 0.00340 0.84330
C33 C 0.1485(2) -0.00055(8) 0.80847(8)
C34 C 0.2000(2) 0.08891(8) 0.86825(8)
C35 C 0.3241(3) 0.13247(9) 0.89279(9)
H39 H 0.27660 0.16200 0.91420
H40 H 0.36610 0.14990 0.86000
H41 H 0.41010 0.11370 0.92010
O3 O 0.06219(17) 0.09210(7) 0.87751(7)
C36 C 0.5203(2) 0.01224(8) 0.87667(8)
C37 C 0.6703(2) 0.03567(10) 0.89620(9)
H42 H 0.70280 0.06780 0.87610
C38 C 0.7734(3) 0.01240(11) 0.94503(10)
H43 H 0.87480 0.02890 0.95790
C39 C 0.7278(3) -0.03447(11) 0.97459(10)
H44 H 0.79740 -0.05020 1.00770
C40 C 0.5798(3) -0.05819(11) 0.95547(11)
H45 H 0.54820 -0.09040 0.97560
C41 C 0.4768(3) -0.03529(10) 0.90714(10)
H46 H 0.37560 -0.05210 0.89470
O4 O 0.38904(15) 0.03478(5) 0.71738(5)
N4 N 0.31780(18) 0.00966(7) 0.65998(6)
C42 C 0.1986(2) 0.05311(9) 0.63041(9)
C43 C 0.1300(3) 0.02870(12) 0.56819(10)
H47 H 0.06790 -0.00600 0.57310
H48 H 0.05670 0.05710 0.54600
C44 C 0.2553(3) 0.01356(12) 0.5314(1)
H49 H 0.31280 0.04840 0.52320
H50 H 0.20440 -0.00330 0.49300
C45 C 0.3702(3) -0.02912(10) 0.56643(9)
H51 H 0.45310 -0.03850 0.54320
H52 H 0.31240 -0.06480 0.57160
C46 C 0.4499(2) -0.00700(9) 0.62806(9)
C47 C 0.2633(3) 0.11443(10) 0.62624(11)
H53 H 0.32710 0.12530 0.66460
H54 H 0.17470 0.14110 0.61590
H55 H 0.32900 0.11570 0.59550
C48 C 0.0639(3) 0.05641(12) 0.66661(11)
H56 H 0.02490 0.01790 0.67230
H57 H -0.02260 0.07970 0.64510
H58 H 0.10400 0.07370 0.70540
C49 C 0.5390(3) -0.05734(12) 0.66268(11)
H59 H 0.60370 -0.04320 0.69960
H60 H 0.60730 -0.07550 0.63830
H61 H 0.46250 -0.08520 0.67210
C50 C 0.5722(3) 0.04008(11) 0.62188(10)
H62 H 0.52530 0.06740 0.59130
H63 H 0.66590 0.02270 0.61050
H64 H 0.60300 0.05990 0.66000
#END
