
#######################################################################
#
#                 Cambridge Crystallographic Data Centre
#                                CCDC
#
#######################################################################
#
# If this CIF has been generated from an entry in the Cambridge
# Structural Database, then it will include bibliographic, chemical,
# crystal, experimental, refinement or atomic coordinate data resulting
# from the CCDC's data processing and validation procedures.
#
#######################################################################

data_CSD_CIF_SUQYEJ
_audit_creation_date 2010-03-10
_audit_creation_method CSD-ConQuest-V1
_database_code_CSD SUQYEJ
_database_code_depnum_ccdc_archive 'CCDC 717395'
_chemical_formula_sum 'C30 H34 N2 O2'
_chemical_formula_moiety
;
C30 H34 N2 O2
;
_journal_coden_Cambridge 179
_journal_volume 48
_journal_year 2009
_journal_page_first 4235
_journal_name_full 'Angew.Chem.,Int.Ed. '
loop_
_publ_author_name
"S.Kirchberg"
"R.Frohlich"
"A.Studer"
_chemical_name_systematic
;
Phenyl(2-phenyl-3-(2,2,6,6-tetramethylpiperidin-1-yloxy)-2,3-dihydro-1H-indol-
1-yl)methanone
;
_chemical_melting_point 407.15
_cell_volume   1257.246
_exptl_crystal_colour 'colorless'
_exptl_crystal_density_diffrn 1.201
_exptl_crystal_description 'block'
_diffrn_ambient_temperature 223
#These two values have been output from a single CSD field.
_refine_ls_R_factor_gt 0.0492
_refine_ls_wR_factor_gt 0.0492
_symmetry_cell_setting triclinic
_symmetry_space_group_name_H-M 'P -1'
_symmetry_Int_Tables_number 2
loop_
_symmetry_equiv_pos_site_id
_symmetry_equiv_pos_as_xyz
1 x,y,z
2 -x,-y,-z
_cell_length_a 10.0240(2)
_cell_length_b 11.2936(2)
_cell_length_c 11.9200(3)
_cell_angle_alpha 69.995(1)
_cell_angle_beta 82.545(1)
_cell_angle_gamma 87.898(2)
_cell_formula_units_Z 2
loop_
_atom_type_symbol
_atom_type_radius_bond
C 0.68
H 0.23
N 0.68
O 0.68
loop_
_atom_site_label
_atom_site_type_symbol
_atom_site_fract_x
_atom_site_fract_y
_atom_site_fract_z
N1 N 0.05339(11) 0.75548(11) 0.17159(10)
C1 C 0.15838(13) 0.66628(13) 0.15256(13)
H1 H 0.22220 0.65110 0.21270
C2 C 0.07869(13) 0.54359(12) 0.17423(12)
H2 H 0.11340 0.50270 0.11500
C3 C -0.06180(13) 0.59143(13) 0.15639(12)
C4 C -0.17392(14) 0.52777(15) 0.14919(14)
H3 H -0.16730 0.44460 0.14900
C5 C -0.29622(16) 0.58940(16) 0.14230(16)
H4 H -0.37340 0.54770 0.13700
C6 C -0.30622(15) 0.71145(16) 0.14311(16)
H5 H -0.39020 0.75140 0.13810
C7 C -0.19529(14) 0.77615(15) 0.15118(14)
H6 H -0.20240 0.85910 0.15200
C8 C -0.07316(13) 0.71364(13) 0.15806(12)
C9 C 0.07755(14) 0.86380(14) 0.19174(14)
O1 O -0.00987(11) 0.94175(11) 0.19390(13)
C10 C 0.21663(14) 0.88069(13) 0.21723(13)
C11 C 0.30781(16) 0.96234(15) 0.13097(15)
H7 H 0.28450 1.00490 0.05340
C12 C 0.43355(16) 0.98147(16) 0.15878(16)
H8 H 0.49520 1.03720 0.09990
C13 C 0.46850(16) 0.91977(15) 0.27138(16)
H9 H 0.55440 0.93220 0.28940
C14 C 0.37789(16) 0.83973(15) 0.35807(16)
H10 H 0.40130 0.79810 0.43570
C15 C 0.25238(15) 0.82049(14) 0.33108(14)
H11 H 0.19060 0.76590 0.39080
C16 C 0.23380(13) 0.71327(13) 0.02674(13)
C17 C 0.35545(14) 0.65708(14) 0.00448(15)
H12 H 0.39050 0.59410 0.06790
C18 C 0.42517(16) 0.69294(16) -0.10986(17)
H13 H 0.50770 0.65490 -0.12390
C19 C 0.37402(16) 0.78436(16) -0.20335(16)
H14 H 0.42060 0.80760 -0.28150
C20 C 0.25463(15) 0.84163(15) -0.18227(14)
H15 H 0.22030 0.90480 -0.24600
C21 C 0.18470(14) 0.80660(14) -0.06760(13)
H16 H 0.10340 0.84650 -0.05380
O2 O 0.06815(9) 0.45508(9) 0.29478(8)
N2 N 0.18142(10) 0.36712(10) 0.31481(10)
C22 C 0.22472(15) 0.36486(14) 0.43149(13)
C23 C 0.33220(17) 0.26368(16) 0.46406(16)
H17 H 0.41230 0.29050 0.40480
H18 H 0.35760 0.25670 0.54270
C24 C 0.28837(18) 0.13573(16) 0.46869(17)
H19 H 0.21390 0.10350 0.53320
H20 H 0.36320 0.07650 0.48500
C25 C 0.24389(16) 0.14809(15) 0.34909(15)
H21 H 0.21240 0.06560 0.35270
H22 H 0.32170 0.17260 0.28690
C26 C 0.13200(14) 0.24419(13) 0.31200(13)
C27 C 0.2911(2) 0.49132(17) 0.40915(17)
H23 H 0.35640 0.51140 0.33760
H24 H 0.33610 0.48690 0.47780
H25 H 0.22310 0.55630 0.39790
C28 C 0.11214(19) 0.34347(18) 0.53619(15)
H26 H 0.03190 0.38700 0.50640
H27 H 0.14020 0.37580 0.59510
H28 H 0.09290 0.25400 0.57340
C29 C -0.00220(16) 0.19461(16) 0.38927(17)
H29 H 0.01080 0.16440 0.47360
H30 H -0.03480 0.12610 0.36830
H31 H -0.06750 0.26200 0.37480
C30 C 0.11554(17) 0.26100(15) 0.18186(15)
H32 H 0.03900 0.31460 0.15800
H33 H 0.10090 0.17940 0.17510
H34 H 0.19630 0.29960 0.12980
#END
