
#######################################################################
#
#                 Cambridge Crystallographic Data Centre
#                                CCDC
#
#######################################################################
#
# If this CIF has been generated from an entry in the Cambridge
# Structural Database, then it will include bibliographic, chemical,
# crystal, experimental, refinement or atomic coordinate data resulting
# from the CCDC's data processing and validation procedures.
#
#######################################################################

data_CSD_CIF_SURHIW
_audit_creation_date 1996-01-08
_audit_creation_method CSD-ConQuest-V1
_database_code_CSD SURHIW
_chemical_formula_sum 'C4 H8 N2 O3'
_chemical_formula_moiety
;
C4 H8 N2 O3
;
_journal_coden_Cambridge 35
_journal_volume 60
_journal_year 1995
_journal_page_first 5526
_journal_name_full 'J.Org.Chem. '
loop_
_publ_author_name
"R.N.Loeppky"
"Heping Xiong"
_chemical_name_systematic
;
N-(2-Hydroxyethyl)-2-oximinoethanamide
;
_chemical_melting_point 373.15
_cell_volume    618.773
_exptl_crystal_density_diffrn 1.418
_exptl_special_details
;
Melting point range 373.15-373.65K

;
_diffrn_ambient_temperature ?
_diffrn_special_details
;
The study was carried out at room temperature,in the range 283-303K

;
#These two values have been output from a single CSD field.
_refine_ls_R_factor_gt 0.04
_refine_ls_wR_factor_gt 0.04
_symmetry_cell_setting orthorhombic
_symmetry_space_group_name_H-M 'P 21 21 21'
_symmetry_Int_Tables_number 19
loop_
_symmetry_equiv_pos_site_id
_symmetry_equiv_pos_as_xyz
1 x,y,z
2 1/2-x,-y,1/2+z
3 1/2+x,1/2-y,-z
4 -x,1/2+y,1/2-z
_cell_length_a 4.6495(1)
_cell_length_b 8.7370(3)
_cell_length_c 15.2322(5)
_cell_angle_alpha 90
_cell_angle_beta 90
_cell_angle_gamma 90
_cell_formula_units_Z 4
loop_
_atom_type_symbol
_atom_type_radius_bond
C 0.68
H 0.23
N 0.68
O 0.68
loop_
_atom_site_label
_atom_site_type_symbol
_atom_site_fract_x
_atom_site_fract_y
_atom_site_fract_z
O1 O 0.3336(4) 0.26152(17) 0.19032(10)
N1 N 0.5423(4) 0.1866(19) 0.23943(10)
C1 C 0.6555(5) 0.27439(24) 0.29644(12)
C2 C 0.8850(5) 0.21742(25) 0.35580(12)
O2 O 1.0189(4) 0.30842(17) 0.40183(10)
N2 N 0.9365(4) 0.06788(19) 0.35705(11)
C3 C 1.1569(5) 0.000(3) 0.41286(14)
C4 C 1.0473(5) -0.0362(3) 0.50387(14)
O3 O 1.2817(4) -0.08008(18) 0.55849(9)
H1 H 0.268(7) 0.207(4) 0.1462(20)
H2 H 0.603(6) 0.377(4) 0.2970(16)
H3 H 0.791(7) 0.031(4) 0.3171(16)
H4 H 1.330(7) 0.087(3) 0.4201(19)
H5 H 1.228(6) -0.099(3) 0.3789(19)
H6 H 0.980(6) 0.051(4) 0.5265(18)
H7 H 0.857(6) -0.110(3) 0.4960(19)
H8 H 1.387(7) 0.003(4) 0.5678(17)
#END
