
#######################################################################
#
#                 Cambridge Crystallographic Data Centre
#                                CCDC
#
#######################################################################
#
# If this CIF has been generated from an entry in the Cambridge
# Structural Database, then it will include bibliographic, chemical,
# crystal, experimental, refinement or atomic coordinate data resulting
# from the CCDC's data processing and validation procedures.
#
#######################################################################

data_CSD_CIF_SURTOQ
_audit_creation_date 2015-08-31
_audit_creation_method CSD-ConQuest-V1
_database_code_CSD SURTOQ
_database_code_depnum_ccdc_archive 'CCDC 1421457'
_chemical_formula_sum 'C22 H26 N2 O12'
_chemical_formula_moiety
;
C22 H26 N2 O12
;
_journal_coden_Cambridge 35
_journal_volume 70
_journal_year 2005
_journal_page_first 9916
_journal_name_full 'J.Org.Chem. '
loop_
_publ_author_name
"T.Kodama"
"M.M.Greenberg"
_chemical_name_systematic
;
2,5-bis((4,5-Dimethoxy-2-nitrobenzyl)oxy)tetrahydrofuran-3-ol
;
_cell_volume   1163.025
_exptl_crystal_density_diffrn 1.458
_diffrn_ambient_temperature 110
#These two values have been output from a single CSD field.
_refine_ls_R_factor_gt 0.0553
_refine_ls_wR_factor_gt 0.0553
_symmetry_cell_setting triclinic
_symmetry_space_group_name_H-M 'P 1'
_symmetry_Int_Tables_number 1
loop_
_symmetry_equiv_pos_site_id
_symmetry_equiv_pos_as_xyz
1 x,y,z
_cell_length_a 9.3699(10)
_cell_length_b 10.4362(12)
_cell_length_c 13.2079(18)
_cell_angle_alpha 101.103(11)
_cell_angle_beta 94.95(1)
_cell_angle_gamma 111.346(10)
_cell_formula_units_Z 2
loop_
_atom_type_symbol
_atom_type_radius_bond
C 0.68
H 0.23
N 0.68
O 0.68
loop_
_atom_site_label
_atom_site_type_symbol
_atom_site_fract_x
_atom_site_fract_y
_atom_site_fract_z
O1 O -0.34896(18) -1.18102(16) -0.40379(12)
O2 O -0.4228(3) -1.0213(2) -0.61115(14)
H1 H -0.515(5) -1.021(5) -0.595(3)
O3 O -0.58951(18) -1.19564(16) -0.48557(13)
O4 O -1.05555(18) -1.15842(16) -0.17837(13)
O5 O -0.89482(19) -0.98516(16) -0.27980(13)
O6 O -0.9765(3) -1.6055(2) -0.2971(2)
O7 O -0.8060(2) -1.56356(18) -0.39917(15)
O8 O -0.38656(19) -1.00472(17) -0.28064(13)
O9 O -0.7572(2) -0.86072(18) 0.06237(13)
O10 O -0.5861(2) -0.70945(17) -0.04787(14)
O11 O -0.7486(3) -1.34136(19) -0.05124(16)
O12 O -0.5345(3) -1.3054(2) -0.11380(17)
N1 N -0.8879(2) -1.5250(2) -0.34169(16)
N2 N -0.6336(3) -1.2645(2) -0.08186(16)
C1 C -0.4409(3) -1.1936(2) -0.49988(18)
H2 H -0.45060 -1.28000 -0.55310
C2 C -0.3467(3) -1.0588(2) -0.53324(19)
H3 H -0.25690 -1.07450 -0.56100
C3 C -0.2798(3) -0.9480(2) -0.4288(2)
H4 H -0.17130 -0.88430 -0.42810
H5 H -0.34300 -0.89030 -0.41570
C4 C -0.2868(3) -1.0345(2) -0.3473(2)
H6 H -0.18080 -1.00750 -0.30670
C5 C -0.6788(3) -1.3201(2) -0.45142(18)
H7 H -0.60760 -1.35240 -0.41350
H8 H -0.74160 -1.39760 -0.51300
C6 C -0.7844(2) -1.2859(2) -0.38047(17)
C7 C -0.8792(2) -1.3803(2) -0.32899(18)
C8 C -0.9722(3) -1.3423(2) -0.26045(18)
H9 H -1.03410 -1.40890 -0.22590
C9 C -0.9729(3) -1.2087(2) -0.24385(17)
C10 C -0.8829(2) -1.1126(2) -0.29795(17)
C11 C -0.7906(2) -1.1516(2) -0.36409(17)
H10 H -0.73000 -1.08520 -0.39930
C12 C -1.1399(3) -1.2498(3) -0.1169(2)
H11 H -1.18470 -1.19870 -0.06770
H12 H -1.06910 -1.28010 -0.07790
H13 H -1.22350 -1.33320 -0.16320
C13 C -0.8169(3) -0.8887(2) -0.3399(2)
H14 H -0.84120 -0.80400 -0.32380
H15 H -0.85190 -0.93460 -0.41470
H16 H -0.70440 -0.86130 -0.32240
C14 C -0.4234(3) -1.0903(2) -0.20690(19)
H17 H -0.32670 -1.08340 -0.16530
H18 H -0.48310 -1.19080 -0.24400
C15 C -0.5182(3) -1.0389(2) -0.13619(17)
C16 C -0.6141(3) -1.1178(2) -0.07734(18)
C17 C -0.7002(3) -1.0649(2) -0.01158(17)
H19 H -0.76760 -1.12380 0.02550
C18 C -0.6862(3) -0.9263(2) -0.00123(18)
C19 C -0.5910(3) -0.8433(2) -0.06180(18)
C20 C -0.5102(3) -0.8996(2) -0.12732(18)
H20 H -0.44740 -0.84280 -0.16760
C21 C -0.8476(3) -0.9394(3) 0.1284(2)
H21 H -0.89430 -0.88170 0.16990
H22 H -0.78030 -0.96400 0.17550
H23 H -0.93000 -1.02640 0.08510
C22 C -0.4923(3) -0.6199(3) -0.1067(2)
H24 H -0.49930 -0.54060 -0.09270
H25 H -0.52870 -0.66360 -0.18170
H26 H -0.38360 -0.60740 -0.08850
H27 H -1.754(5) -0.970(4) -0.610(3)
O13 O -1.49603(17) -0.53335(15) -0.56433(12)
O14 O -1.6328(2) -0.89893(17) -0.55259(15)
O15 O -1.47728(18) -0.72864(16) -0.67926(12)
O16 O -1.0991(2) -0.88305(17) -1.02166(13)
O17 O -1.2693(2) -1.03151(17) -0.90947(14)
O18 O -1.1140(2) -0.40524(19) -0.92084(16)
O19 O -1.3189(2) -0.43418(19) -0.84842(16)
O20 O -1.24968(17) -0.51395(15) -0.48958(13)
O21 O -0.79207(19) -0.57202(16) -0.79298(13)
O22 O -0.95812(18) -0.73861(15) -0.68875(12)
O23 O -0.8721(2) -0.12279(18) -0.69236(17)
O24 O -1.0279(2) -0.15102(17) -0.58069(16)
N3 N -1.2229(2) -0.4787(2) -0.88456(16)
N4 N -0.9544(2) -0.1968(2) -0.64054(17)
C23 C -1.5712(3) -0.6792(2) -0.61911(18)
H28 H -1.66920 -0.69400 -0.66510
C24 C -1.6111(3) -0.7541(2) -0.53023(19)
H29 H -1.70890 -0.74710 -0.51000
C25 C -1.4774(3) -0.6625(2) -0.43977(19)
H30 H -1.51720 -0.64540 -0.37360
H31 H -1.40350 -0.70870 -0.43030
C26 C -1.3994(2) -0.5243(2) -0.47192(18)
H32 H -1.39170 -0.44190 -0.41540
C27 C -1.4306(3) -0.6451(2) -0.75413(18)
H33 H -1.36680 -0.54540 -0.71710
H34 H -1.52390 -0.64720 -0.79700
C28 C -1.3380(2) -0.7024(2) -0.82400(17)
C29 C -1.2417(3) -0.6237(2) -0.88436(18)
C30 C -1.1566(3) -0.6784(2) -0.94990(17)
H35 H -1.09110 -0.62140 -0.98890
C31 C -1.1693(3) -0.8159(2) -0.95704(17)
C32 C -1.2643(3) -0.8978(2) -0.89662(18)
C33 C -1.3449(3) -0.8401(2) -0.83089(17)
H36 H -1.40650 -0.89570 -0.78940
C34 C -1.0069(3) -0.8041(3) -1.0870(2)
H37 H -0.96600 -0.86430 -1.13170
H38 H -0.92020 -0.72110 -1.04310
H39 H -1.07130 -0.77310 -1.13090
C35 C -1.3662(3) -1.1216(2) -0.8521(2)
H40 H -1.36070 -1.21510 -0.86970
H41 H -1.47390 -1.13150 -0.87050
H42 H -1.33020 -1.07970 -0.77680
C36 C -1.1652(3) -0.3925(2) -0.52634(18)
H43 H -1.10310 -0.31210 -0.46630
H44 H -1.23830 -0.36410 -0.56620
C37 C -1.0596(2) -0.4295(2) -0.59567(18)
C38 C -0.9638(3) -0.3406(2) -0.65065(18)
C39 C -0.8718(3) -0.3823(2) -0.71700(18)
H45 H -0.80870 -0.31800 -0.75270
C40 C -0.8730(2) -0.5173(2) -0.73049(17)
C41 C -0.9657(2) -0.6092(2) -0.67364(17)
C42 C -1.0577(2) -0.5658(2) -0.60959(17)
H46 H -1.12130 -0.63010 -0.57410
C43 C -0.7024(3) -0.4826(3) -0.8539(2)
H47 H -0.65940 -0.53640 -0.90250
H48 H -0.61730 -0.40100 -0.80720
H49 H -0.76930 -0.44930 -0.89360
C44 C -1.0427(3) -0.8333(2) -0.6296(2)
H50 H -1.02740 -0.92240 -0.64790
H51 H -1.15370 -0.85250 -0.64580
H52 H -1.00500 -0.78990 -0.55460
#END
