
#######################################################################
#
#                 Cambridge Crystallographic Data Centre
#                                CCDC
#
#######################################################################
#
# If this CIF has been generated from an entry in the Cambridge
# Structural Database, then it will include bibliographic, chemical,
# crystal, experimental, refinement or atomic coordinate data resulting
# from the CCDC's data processing and validation procedures.
#
#######################################################################

data_CSD_CIF_SUSHAR
_audit_creation_date 2015-08-31
_audit_creation_method CSD-ConQuest-V1
_database_code_CSD SUSHAR
_database_code_depnum_ccdc_archive 'CCDC 1421447'
_chemical_formula_sum 'C14 H19 N1 O1'
_chemical_formula_moiety
;
C14 H19 N1 O1
;
_journal_coden_Cambridge 35
_journal_volume 73
_journal_year 2008
_journal_page_first 4229
_journal_name_full 'J.Org.Chem. '
loop_
_publ_author_name
"D.Bernier"
"A.J.Blake"
"S.Woodward"
_chemical_name_systematic
;
1-(4-phenylbut-1-en-1-yl)pyrrolidine 1-oxide
;
_cell_volume   2464.644
_exptl_crystal_colour 'colorless'
_exptl_crystal_density_diffrn 1.171
_exptl_crystal_description 'column'
_diffrn_ambient_temperature 150
_refine_special_details
;
O21' and O21C disordered over two sites with occupancies 0.525:0.475; O31' 
and O31C disordered over two sites with occupancies 0.543:0.457.
;
#These two values have been output from a single CSD field.
_refine_ls_R_factor_gt 0.0918
_refine_ls_wR_factor_gt 0.0918
_symmetry_cell_setting monoclinic
_symmetry_space_group_name_H-M 'P 21'
_symmetry_Int_Tables_number 4
loop_
_symmetry_equiv_pos_site_id
_symmetry_equiv_pos_as_xyz
1 x,y,z
2 -x,1/2+y,-z
_cell_length_a 9.7311(10)
_cell_length_b 18.404(2)
_cell_length_c 13.957(2)
_cell_angle_alpha 90
_cell_angle_beta 99.590(2)
_cell_angle_gamma 90
_cell_formula_units_Z 8
loop_
_atom_type_symbol
_atom_type_radius_bond
C 0.68
H 0.23
N 0.68
O 0.68
loop_
_atom_site_label
_atom_site_type_symbol
_atom_site_fract_x
_atom_site_fract_y
_atom_site_fract_z
O1 O 0.6124(3) 0.2561(2) 0.0115(3)
N1 N 0.4702(3) 0.25092(19) 0.0115(3)
C1 C 0.3884(6) 0.2701(3) -0.0864(3)
H1 H 0.42050 0.31660 -0.11070
H2 H 0.28740 0.27340 -0.08420
C2 C 0.4202(9) 0.2062(3) -0.1491(4)
H3 H 0.50260 0.21680 -0.17980
H4 H 0.33970 0.19600 -0.20080
C3 C 0.4493(7) 0.1405(3) -0.0782(4)
H5 H 0.38160 0.10090 -0.09750
H6 H 0.54480 0.12160 -0.07670
C4 C 0.4324(6) 0.1719(2) 0.0196(4)
H7 H 0.33520 0.16660 0.03110
H8 H 0.49590 0.14780 0.07290
C5 C 0.4235(5) 0.2942(2) 0.0890(3)
H9 H 0.32650 0.29730 0.09090
C6 C 0.5111(6) 0.3288(3) 0.1554(4)
H10 H 0.60770 0.32390 0.15300
C7 C 0.4715(8) 0.3752(3) 0.2346(4)
H11 H 0.50820 0.35330 0.29850
H12 H 0.36870 0.37750 0.22780
C8 C 0.5304(8) 0.4523(3) 0.2297(5)
H13 H 0.63320 0.44930 0.23720
H14 H 0.49560 0.47290 0.16460
C9 C 0.4929(6) 0.5036(3) 0.3057(4)
C10 C 0.5581(16) 0.5013(8) 0.4006(6)
H15 H 0.62780 0.46560 0.41970
C11 C 0.5252(14) 0.5495(7) 0.4690(6)
H16 H 0.57210 0.54590 0.53420
C12 C 0.4286(8) 0.6012(4) 0.4455(5)
H17 H 0.40980 0.63600 0.49200
C13 C 0.3588(19) 0.6020(9) 0.3530(7)
H18 H 0.28710 0.63690 0.33480
C14 C 0.3900(13) 0.5530(7) 0.2846(6)
H19 H 0.33730 0.55410 0.22090
O2 O 1.1121(3) 0.21792(19) 0.0349(3)
N2 N 0.9685(3) 0.22698(19) 0.0241(3)
C15 C 0.9134(6) 0.2517(3) -0.0780(3)
H20 H 0.97170 0.29130 -0.09790
H21 H 0.81610 0.26920 -0.08360
C16 C 0.9210(9) 0.1843(3) -0.1397(4)
H22 H 1.00990 0.18280 -0.16540
H23 H 0.84270 0.18310 -0.19500
C17 C 0.9115(6) 0.1205(3) -0.0702(4)
H24 H 0.82990 0.08950 -0.09460
H25 H 0.99680 0.09020 -0.06350
C18 C 0.8963(5) 0.1544(2) 0.0267(4)
H26 H 0.79690 0.16080 0.03230
H27 H 0.94230 0.12430 0.08160
C19 C 0.9264(5) 0.2774(3) 0.0954(4)
H28 H 0.82980 0.28600 0.09380
C20 C 1.0154(6) 0.3108(3) 0.1607(4)
H29 H 1.11160 0.30020 0.16360
C21 C 0.9761(8) 0.3648(3) 0.2313(5)
H30 H 1.01240 0.34830 0.29820
H31 H 0.87320 0.36710 0.22410
C22 C 1.0327(6) 0.4412(3) 0.2169(4)
H32 H 1.13540 0.43880 0.22280
H33 H 0.99470 0.45820 0.15040
C23 C 0.9950(6) 0.4953(3) 0.2898(4)
C24 C 1.0616(15) 0.4975(8) 0.3839(6)
H34 H 1.13550 0.46430 0.40400
C25 C 1.0262(12) 0.5460(6) 0.4510(6)
H35 H 1.07230 0.54320 0.51650
C26 C 0.9283(7) 0.5970(3) 0.4262(4)
H36 H 0.90570 0.63160 0.47160
C27 C 0.8632(17) 0.5961(9) 0.3318(7)
H37 H 0.79420 0.63180 0.31080
C28 C 0.8937(12) 0.5452(6) 0.2656(6)
H38 H 0.84220 0.54550 0.20150
O3 O 0.8651(6) 0.7741(6) 0.5186(6)
N3 N 0.7238(4) 0.7900(3) 0.5154(3)
C29 C 0.6630(7) 0.7667(4) 0.4131(4)
H39 H 0.56200 0.75630 0.40700
H40 H 0.71110 0.72310 0.39350
C30 C 0.6894(8) 0.8326(4) 0.3533(4)
H41 H 0.61420 0.83810 0.29650
H42 H 0.77950 0.82770 0.32970
C31 C 0.6924(11) 0.8985(4) 0.4216(5)
H43 H 0.78410 0.92310 0.42990
H44 H 0.61890 0.93390 0.39590
C32 C 0.6661(9) 0.8662(3) 0.5171(5)
H45 H 0.71550 0.89410 0.57310
H46 H 0.56530 0.86540 0.52040
C33 C 0.6690(6) 0.7443(3) 0.5877(4)
H47 H 0.57100 0.73960 0.58390
C34 C 0.7521(5) 0.7101(3) 0.6569(4)
H48 H 0.84950 0.71690 0.65970
C35 C 0.7073(5) 0.6614(3) 0.7317(4)
H49 H 0.60430 0.65790 0.72050
H50 H 0.73780 0.68230 0.79720
C36 C 0.7697(7) 0.5857(3) 0.7271(4)
H51 H 0.73850 0.56600 0.66100
H52 H 0.87240 0.59060 0.73600
C37 C 0.7350(5) 0.5304(2) 0.7999(3)
C38 C 0.7726(4) 0.5430(2) 0.8985(3)
H53 H 0.81540 0.58770 0.92050
C39 C 0.7480(5) 0.4909(2) 0.9653(3)
H54 H 0.77050 0.50090 1.03290
C40 C 0.6919(6) 0.4253(3) 0.9347(4)
H55 H 0.67910 0.38890 0.98070
C41 C 0.6542(5) 0.4123(3) 0.8376(4)
H56 H 0.61280 0.36710 0.81600
C42 C 0.6760(5) 0.4647(2) 0.7701(4)
H57 H 0.64990 0.45500 0.70270
O4? O 0.8633(6) 0.8093(6) 0.5350(7)
O5 O 0.3605(5) 0.8004(6) 0.5302(7)
N4 N 0.2185(4) 0.7856(3) 0.5211(4)
C43 C 0.1599(7) 0.8599(3) 0.5307(4)
H58 H 0.22110 0.88850 0.58070
H59 H 0.06580 0.85700 0.54850
C44 C 0.1538(9) 0.8940(4) 0.4304(5)
H60 H 0.23650 0.92500 0.42860
H61 H 0.06880 0.92400 0.41340
C45 C 0.1514(8) 0.8297(4) 0.3596(4)
H62 H 0.07010 0.83290 0.30680
H63 H 0.23760 0.82840 0.33070
C46 C 0.1412(7) 0.7626(3) 0.4225(4)
H64 H 0.04290 0.75060 0.42550
H65 H 0.18630 0.72000 0.39740
C47 C 0.1805(6) 0.7369(3) 0.5967(4)
H66 H 0.08510 0.73050 0.60160
C48 C 0.2763(5) 0.7021(3) 0.6575(4)
H67 H 0.37150 0.70890 0.65230
C49 C 0.2412(5) 0.6523(3) 0.7344(4)
H68 H 0.13910 0.65260 0.73270
H69 H 0.28580 0.67040 0.79890
C50 C 0.2898(6) 0.5739(3) 0.7211(4)
H70 H 0.24890 0.55690 0.65520
H71 H 0.39240 0.57360 0.72580
C51 C 0.2494(5) 0.5217(3) 0.7954(4)
C52 C 0.3434(5) 0.5049(2) 0.8779(4)
H72 H 0.43510 0.52430 0.88680
C53 C 0.3035(6) 0.4596(3) 0.9476(4)
H73 H 0.37010 0.44520 1.00200
C54 C 0.1693(6) 0.4354(3) 0.9388(4)
H74 H 0.14010 0.40900 0.99030
C55 C 0.0764(5) 0.4494(3) 0.8552(4)
H75 H -0.01440 0.42890 0.84580
C56 C 0.1172(5) 0.4939(2) 0.7851(4)
H76 H 0.05210 0.50530 0.72860
O6? O 0.3526(7) 0.7717(7) 0.5039(8)
#END
