
#######################################################################
#
#                 Cambridge Crystallographic Data Centre
#                                CCDC
#
#######################################################################
#
# If this CIF has been generated from an entry in the Cambridge
# Structural Database, then it will include bibliographic, chemical,
# crystal, experimental, refinement or atomic coordinate data resulting
# from the CCDC's data processing and validation procedures.
#
#######################################################################

data_CSD_CIF_SUTKEY
_audit_creation_date 2011-01-12
_audit_creation_method CSD-ConQuest-V1
_database_code_CSD SUTKEY
_database_code_depnum_ccdc_archive 'CCDC 761530'
_chemical_formula_sum 'C27 H30 N4 O8'
_chemical_formula_moiety
;
C27 H30 N4 O8
;
_journal_coden_Cambridge 16
_journal_volume 66
_journal_year 2010
_journal_page_first 6832
_journal_name_full 'Tetrahedron '
loop_
_publ_author_name
"O.A.Attanasi"
"S.Berretta"
"L.De Crescentini"
"G.Favi"
"P.Filippone"
"G.Giorgi"
"F.Mantellini"
_chemical_name_systematic
;
Diethyl 
2-(anilinocarbonyl)-3-hydroxy-3-(4-nitrophenyl)-3,4,5,6,7,8-hexahydrocinnoline
-4-4a(2H)-dicarboxylate
;
_chemical_melting_point 436.15
_cell_volume   1323.947
_exptl_crystal_colour 'colorless'
_exptl_crystal_density_diffrn 1.351
_exptl_special_details
;
Melting point range 436.15-438.15K

;
_exptl_crystal_description 'prism'
_diffrn_ambient_temperature 293
#These two values have been output from a single CSD field.
_refine_ls_R_factor_gt 0.0464
_refine_ls_wR_factor_gt 0.0464
_symmetry_cell_setting triclinic
_symmetry_space_group_name_H-M 'P -1'
_symmetry_Int_Tables_number 2
loop_
_symmetry_equiv_pos_site_id
_symmetry_equiv_pos_as_xyz
1 x,y,z
2 -x,-y,-z
_cell_length_a 10.637(1)
_cell_length_b 11.219(1)
_cell_length_c 11.993(2)
_cell_angle_alpha 82.66(1)
_cell_angle_beta 68.94(1)
_cell_angle_gamma 89.11(1)
_cell_formula_units_Z 2
loop_
_atom_type_symbol
_atom_type_radius_bond
C 0.68
H 0.23
N 0.68
O 0.68
loop_
_atom_site_label
_atom_site_type_symbol
_atom_site_fract_x
_atom_site_fract_y
_atom_site_fract_z
N1 N 0.42582(19) 0.77140(15) 0.31972(16)
N2 N 0.45725(18) 0.88656(15) 0.25383(15)
C1 C 0.3553(2) 0.97713(18) 0.25444(18)
C2 C 0.2371(2) 0.95353(18) 0.37739(18)
H1 H 0.16330 1.00510 0.37290
C3 C 0.1852(2) 0.82175(19) 0.40089(19)
C4 C 0.0723(2) 0.7955(2) 0.5265(2)
H2 H 0.09910 0.83010 0.58500
H3 H -0.00900 0.83400 0.52390
C5 C 0.0419(3) 0.6617(2) 0.5673(2)
H4 H -0.02860 0.64960 0.64640
H5 H 0.01030 0.62710 0.51160
C6 C 0.1674(3) 0.6002(2) 0.5720(2)
H6 H 0.14630 0.51550 0.60120
H7 H 0.19820 0.63480 0.62810
C7 C 0.2791(3) 0.6134(2) 0.4483(2)
H8 H 0.36180 0.58410 0.45710
H9 H 0.25590 0.56350 0.39790
C8 C 0.3042(2) 0.74100(19) 0.3860(2)
C9 C 0.5741(2) 0.8946(2) 0.15134(19)
O1 O 0.59555(16) 0.98342(14) 0.07554(13)
N3 N 0.65791(19) 0.80160(17) 0.14526(17)
H10 H 0.63300 0.74280 0.20280
O2 O 0.29673(15) 0.96197(14) 0.16949(13)
H11 H 0.35190 0.98140 0.10140
C10 C 0.7837(2) 0.7940(2) 0.0510(2)
C11 C 0.8287(3) 0.6811(2) 0.0235(2)
H12 H 0.77680 0.61290 0.06680
C12 C 0.9503(3) 0.6695(3) -0.0681(3)
H13 H 0.98030 0.59350 -0.08600
C13 C 1.0272(3) 0.7697(3) -0.1329(3)
H14 H 1.10840 0.76180 -0.19550
C14 C 0.9838(3) 0.8807(3) -0.1049(3)
H15 H 1.03610 0.94850 -0.14850
C15 C 0.8631(2) 0.8939(2) -0.0128(2)
H16 H 0.83530 0.97020 0.00620
C16 C 0.4135(2) 1.10454(18) 0.23782(18)
C17 C 0.5115(2) 1.1309(2) 0.2829(2)
H17 H 0.54990 1.06870 0.31750
C18 C 0.5529(2) 1.2481(2) 0.2772(2)
H18 H 0.61760 1.26560 0.30880
C19 C 0.4964(2) 1.3386(2) 0.2237(2)
N4 N 0.5419(3) 1.4639(2) 0.2145(2)
O3 O 0.6160(3) 1.48539(19) 0.2664(2)
O4 O 0.5042(2) 1.54169(17) 0.1548(2)
C20 C 0.3995(3) 1.3156(2) 0.1774(2)
H19 H 0.36310 1.37800 0.14120
C21 C 0.3578(2) 1.1982(2) 0.1860(2)
H20 H 0.29110 1.18140 0.15640
C22 C 0.2784(2) 0.98716(19) 0.47896(19)
O5 O 0.33293(18) 0.92198(14) 0.53349(15)
O6 O 0.24702(15) 1.09992(13) 0.49820(13)
C23 C 0.2951(3) 1.1480(2) 0.5836(2)
H21 H 0.38980 1.13180 0.56540
H22 H 0.24460 1.11130 0.66510
C24 C 0.2750(3) 1.2809(2) 0.5715(3)
H23 H 0.31970 1.31510 0.48900
H24 H 0.31200 1.31700 0.62180
H25 H 0.18040 1.29570 0.59580
C25 C 0.1174(2) 0.8046(2) 0.3095(2)
O7 O 0.02441(17) 0.86198(16) 0.30194(15)
O8 O 0.17200(18) 0.71661(15) 0.24472(15)
C26 C 0.1276(3) 0.7030(3) 0.1452(3)
H26 H 0.04570 0.65320 0.17410
H27 H 0.10900 0.78100 0.11040
C27 C 0.2306(4) 0.6489(5) 0.0578(4)
H28 H 0.31170 0.69800 0.03070
H29 H 0.20360 0.64110 -0.00930
H30 H 0.24650 0.57080 0.09230
#END
