
#######################################################################
#
#                 Cambridge Crystallographic Data Centre
#                                CCDC
#
#######################################################################
#
# If this CIF has been generated from an entry in the Cambridge
# Structural Database, then it will include bibliographic, chemical,
# crystal, experimental, refinement or atomic coordinate data resulting
# from the CCDC's data processing and validation procedures.
#
#######################################################################

data_CSD_CIF_SUTMUQ
_audit_creation_date 2011-01-12
_audit_creation_method CSD-ConQuest-V1
_database_code_CSD SUTMUQ
_database_code_depnum_ccdc_archive 'CCDC 766068'
_chemical_formula_sum 'C22 H31 N1 O4'
_chemical_formula_moiety
;
C22 H31 N1 O4
;
_journal_coden_Cambridge 16
_journal_volume 66
_journal_year 2010
_journal_page_first 4738
_journal_name_full 'Tetrahedron '
loop_
_publ_author_name
"K.Chen"
"Y.Ishihara"
"M.M.Galan"
"P.S.Baran"
_chemical_name_systematic
;
2-Isopropyl-4a,8-dimethyldecahydronaphthalen-1-yl 4-nitrobenzoate
;
_cell_volume   2048.928
_exptl_crystal_colour 'colorless'
_exptl_crystal_density_diffrn 1.211
_exptl_crystal_description 'plate'
_diffrn_ambient_temperature 100
#These two values have been output from a single CSD field.
_refine_ls_R_factor_gt 0.0379
_refine_ls_wR_factor_gt 0.0379
loop_
_citation_database_id_CSD
_citation_special_details
SUTNAX "is a stereoisomer of this entry"
_symmetry_cell_setting monoclinic
_symmetry_space_group_name_H-M 'P 21'
_symmetry_Int_Tables_number 4
loop_
_symmetry_equiv_pos_site_id
_symmetry_equiv_pos_as_xyz
1 x,y,z
2 -x,1/2+y,-z
_cell_length_a 23.387(4)
_cell_length_b 14.036(3)
_cell_length_c 6.2418(12)
_cell_angle_alpha 90
_cell_angle_beta 90.12
_cell_angle_gamma 90
_cell_formula_units_Z 4
loop_
_atom_type_symbol
_atom_type_radius_bond
C 0.68
H 0.23
N 0.68
O 0.68
loop_
_atom_site_label
_atom_site_type_symbol
_atom_site_fract_x
_atom_site_fract_y
_atom_site_fract_z
O1 O 1.03053(6) 0.25449(10) 0.0734(3)
O2 O 0.98196(7) 0.28713(12) 0.3789(3)
O3 O 0.78062(7) 0.15948(14) -0.4544(4)
O4 O 0.73339(7) 0.24309(13) -0.2221(3)
N1 N 0.77802(9) 0.20816(15) -0.2937(4)
C1 C 1.18669(9) 0.32637(17) 0.0945(5)
C2 C 1.2203(1) 0.38511(17) -0.0712(5)
H1 H 1.26130 0.38390 -0.03170
H2 H 1.21640 0.35420 -0.21300
C3 C 1.20133(11) 0.48777(19) -0.0907(5)
H3 H 1.22210 0.51890 -0.20980
H4 H 1.21060 0.52240 0.04320
C4 C 1.13676(10) 0.49245(17) -0.1327(5)
H5 H 1.12860 0.46570 -0.27630
H6 H 1.12440 0.55990 -0.13270
C5 C 1.10184(9) 0.43697(16) 0.0369(5)
H7 H 1.11000 0.46500 0.18100
C6 C 1.12179(9) 0.33175(15) 0.0373(4)
H8 H 1.11800 0.30850 -0.11340
C7 C 1.08681(9) 0.26328(15) 0.1772(4)
H9 H 1.08270 0.28920 0.32570
C8 C 1.10977(9) 0.16050(15) 0.1833(4)
H10 H 1.10500 0.13460 0.03510
C9 C 1.17398(9) 0.15816(18) 0.2314(5)
H11 H 1.18070 0.17870 0.38110
H12 H 1.18830 0.09220 0.21610
C10 C 1.20642(10) 0.22339(16) 0.0796(5)
H13 H 1.20110 0.20060 -0.06920
H14 H 1.24770 0.22010 0.11340
C11 C 1.19911(11) 0.36508(19) 0.3186(5)
H15 H 1.17770 0.32810 0.42460
H16 H 1.18750 0.43210 0.32620
H17 H 1.24010 0.35990 0.34870
C12 C 1.03805(10) 0.45293(17) -0.0154(6)
H18 H 1.02960 0.52130 -0.01190
H19 H 1.01450 0.41990 0.09080
H20 H 1.02960 0.42770 -0.15850
C13 C 1.07489(10) 0.09442(15) 0.3325(4)
H21 H 1.03360 0.10190 0.29350
C14 C 1.08097(11) 0.11906(19) 0.5710(5)
H22 H 1.05770 0.07510 0.65600
H23 H 1.06790 0.18450 0.59530
H24 H 1.12120 0.11330 0.61390
C15 C 1.09075(11) -0.01014(16) 0.2969(5)
H25 H 1.08630 -0.02600 0.14490
H26 H 1.06560 -0.05080 0.38260
H27 H 1.13050 -0.02060 0.34040
C16 C 0.98278(11) 0.26718(15) 0.1887(5)
C17 C 0.93066(10) 0.25378(15) 0.0554(4)
C18 C 0.87768(9) 0.27748(15) 0.1456(5)
H28 H 0.87610 0.30310 0.28630
C19 C 0.8278(1) 0.26383(15) 0.0316(5)
H29 H 0.79190 0.28080 0.09100
C20 C 0.83138(10) 0.22497(16) -0.1703(5)
C21 C 0.88295(10) 0.20196(16) -0.2665(5)
H30 H 0.88400 0.17650 -0.40750
C22 C 0.93269(10) 0.21696(16) -0.1523(5)
H31 H 0.96860 0.20220 -0.21530
O5 O 0.57521(6) 0.74742(10) 0.7180(3)
O6 O 0.60366(7) 0.67694(10) 1.0260(3)
O7 O 0.77503(8) 0.49137(12) 0.1611(3)
O8 O 0.78444(7) 0.39541(11) 0.4305(3)
N2 N 0.76441(8) 0.46593(13) 0.3442(4)
C23 C 0.43015(9) 0.85981(15) 0.8411(4)
C24 C 0.37191(9) 0.85250(15) 0.7306(4)
H32 H 0.34430 0.89380 0.80690
H33 H 0.37540 0.87660 0.58210
C25 C 0.34862(10) 0.75149(15) 0.7244(4)
H34 H 0.34160 0.72870 0.87210
H35 H 0.31190 0.75040 0.64540
C26 C 0.39121(9) 0.68692(15) 0.6150(5)
H36 H 0.39380 0.70550 0.46230
H37 H 0.37660 0.62080 0.62040
C27 C 0.45186(9) 0.68888(15) 0.7134(5)
H38 H 0.44980 0.66270 0.86220
C28 C 0.47398(9) 0.79268(14) 0.7254(4)
H39 H 0.47780 0.81610 0.57480
C29 C 0.53257(9) 0.80518(14) 0.8335(4)
H40 H 0.53040 0.78380 0.98600
C30 C 0.55538(9) 0.90862(15) 0.8239(4)
H41 H 0.56060 0.92460 0.66910
C31 C 0.51080(9) 0.97807(15) 0.9125(4)
H42 H 0.50840 0.97020 1.06990
H43 H 0.52320 1.04420 0.88290
C32 C 0.45181(9) 0.96216(13) 0.8144(4)
H44 H 0.45330 0.97770 0.65980
H45 H 0.42430 1.00630 0.88230
C33 C 0.42385(10) 0.83500(15) 1.0797(4)
H46 H 0.39650 0.87870 1.14630
H47 H 0.46110 0.84110 1.15100
H48 H 0.41000 0.76940 1.09400
C34 C 0.48902(10) 0.62176(15) 0.5768(4)
H49 H 0.52810 0.62100 0.63370
H50 H 0.48950 0.64440 0.42830
H51 H 0.47310 0.55720 0.58150
C35 C 0.61436(10) 0.91961(16) 0.9328(5)
H52 H 0.63930 0.86760 0.87610
C36 C 0.64218(10) 1.01456(16) 0.8688(5)
H53 H 0.67960 1.02030 0.93870
H54 H 0.61760 1.06740 0.91380
H55 H 0.64710 1.01650 0.71300
C37 C 0.61309(11) 0.90901(17) 1.1754(4)
H56 H 0.65190 0.91630 1.23280
H57 H 0.59830 0.84580 1.21290
H58 H 0.58820 0.95810 1.23680
C38 C 0.60663(9) 0.68749(14) 0.8341(5)
C39 C 0.64780(9) 0.63152(14) 0.6981(4)
C40 C 0.66059(9) 0.65725(15) 0.4905(4)
H59 H 0.64280 0.71130 0.42750
C41 C 0.69960(9) 0.60372(15) 0.3739(4)
H60 H 0.70980 0.62150 0.23210
C42 C 0.72306(10) 0.52479(15) 0.4680(4)
C43 C 0.71112(9) 0.49637(14) 0.6742(4)
H61 H 0.72810 0.44100 0.73430
C44 C 0.67313(9) 0.55209(14) 0.7910(4)
H62 H 0.66450 0.53570 0.93500
#END
