
#######################################################################
#
#                 Cambridge Crystallographic Data Centre
#                                CCDC
#
#######################################################################
#
# If this CIF has been generated from an entry in the Cambridge
# Structural Database, then it will include bibliographic, chemical,
# crystal, experimental, refinement or atomic coordinate data resulting
# from the CCDC's data processing and validation procedures.
#
#######################################################################

data_CSD_CIF_SUTNAX
_audit_creation_date 2011-01-12
_audit_creation_method CSD-ConQuest-V1
_database_code_CSD SUTNAX
_database_code_depnum_ccdc_archive 'CCDC 766069'
_chemical_formula_sum 'C22 H31 N1 O4'
_chemical_formula_moiety
;
C22 H31 N1 O4
;
_journal_coden_Cambridge 16
_journal_volume 66
_journal_year 2010
_journal_page_first 4738
_journal_name_full 'Tetrahedron '
loop_
_publ_author_name
"K.Chen"
"Y.Ishihara"
"M.M.Galan"
"P.S.Baran"
_chemical_name_systematic
;
2-Isopropyl-4a,8-dimethyldecahydronaphthalen-1-yl 4-nitrobenzoate
;
_cell_volume   1019.423
_exptl_crystal_colour 'colorless'
_exptl_crystal_density_diffrn 1.217
_exptl_crystal_description 'blade'
_diffrn_ambient_temperature 100
#These two values have been output from a single CSD field.
_refine_ls_R_factor_gt 0.0381
_refine_ls_wR_factor_gt 0.0381
loop_
_citation_database_id_CSD
_citation_special_details
SUTMUQ "is a stereoisomer of this entry"
_symmetry_cell_setting triclinic
_symmetry_space_group_name_H-M 'P 1'
_symmetry_Int_Tables_number 1
loop_
_symmetry_equiv_pos_site_id
_symmetry_equiv_pos_as_xyz
1 x,y,z
_cell_length_a 7.3091(7)
_cell_length_b 12.0814(12)
_cell_length_c 12.2690(12)
_cell_angle_alpha 90.38
_cell_angle_beta 103.879(4)
_cell_angle_gamma 103.724(4)
_cell_formula_units_Z 2
loop_
_atom_type_symbol
_atom_type_radius_bond
C 0.68
H 0.23
N 0.68
O 0.68
loop_
_atom_site_label
_atom_site_type_symbol
_atom_site_fract_x
_atom_site_fract_y
_atom_site_fract_z
O1 O 0.1686(3) -0.71272(18) 0.40107(17)
O2 O -0.0125(3) 0.74316(19) 0.74134(18)
O3 O -0.0563(3) -0.7861(2) 0.49534(19)
O4 O 0.1974(3) 0.7906(2) 0.63217(19)
O5 O 0.8376(3) -0.9367(2) 0.7661(2)
O6 O -0.4842(4) 1.0142(2) 0.2721(2)
O7 O -0.6953(4) 0.9438(2) 0.3646(2)
O8 O 0.6053(3) -1.0446(2) 0.8251(2)
N1 N -0.5322(4) 0.9605(2) 0.3486(2)
N2 N 0.6642(4) -0.9700(2) 0.7658(2)
C1 C -0.0376(5) 0.4884(3) 0.7818(3)
H1 H -0.07790 0.49040 0.85400
C2 C -0.0294(4) -0.7829(3) 0.1488(3)
H2 H 0.04520 -0.71770 0.11490
C3 C 0.0017(5) 0.3714(3) 0.7642(3)
H3 H -0.11630 0.31150 0.76580
H4 H 0.02530 0.36520 0.68850
C4 C -0.1936(5) -0.8537(3) 0.0542(3)
H5 H -0.13630 -0.88190 -0.00250
H6 H -0.26480 -0.92090 0.08570
C5 C -0.3363(5) -0.7860(3) -0.0034(3)
H7 H -0.44260 -0.83600 -0.06130
H8 H -0.26900 -0.72240 -0.04110
C6 C 0.1715(6) 0.3483(3) 0.8498(3)
H9 H 0.19190 0.27320 0.83040
H10 H 0.14430 0.34600 0.92520
C7 C -0.4210(5) -0.7382(3) 0.0848(3)
H11 H -0.50890 -0.69140 0.04710
H12 H -0.50000 -0.80290 0.11560
C8 C 0.3539(5) 0.4420(3) 0.8521(3)
H13 H 0.38690 0.43800 0.77870
H14 H 0.46330 0.42740 0.91070
C9 C -0.2672(4) -0.6654(3) 0.1824(3)
C10 C 0.3335(5) 0.5632(3) 0.8756(3)
C11 C 0.3169(5) 0.5794(3) 0.9974(3)
H15 H 0.21030 0.51730 1.01050
H16 H 0.43920 0.57270 1.05000
C12 C -0.1628(5) -0.5527(3) 0.1438(3)
H17 H -0.25870 -0.50720 0.11630
H18 H -0.11110 -0.56990 0.07970
C13 C 0.2777(5) 0.6942(3) 1.0238(3)
H19 H 0.39260 0.75620 1.02160
H20 H 0.25850 0.69630 1.10090
C14 C 0.0053(5) -0.4802(3) 0.2358(3)
H21 H 0.07420 -0.41380 0.20210
H22 H -0.04850 -0.45070 0.29350
C15 C 0.1506(4) -0.5479(3) 0.2923(3)
H23 H 0.20620 -0.57370 0.23250
C16 C 0.0984(4) 0.7153(3) 0.9406(2)
H24 H -0.01530 0.65150 0.94410
C17 C 0.0321(4) -0.6545(3) 0.3319(3)
H25 H -0.04170 -0.62870 0.38180
C18 C 0.1357(5) 0.7052(3) 0.8243(3)
H26 H 0.26360 0.75920 0.82620
C19 C -0.1155(4) -0.7325(3) 0.2367(3)
H27 H -0.18520 -0.79860 0.27180
C20 C 0.1510(4) 0.5853(3) 0.7916(3)
H28 H 0.17880 0.58850 0.71560
C21 C 0.1078(5) -0.8565(3) 0.1992(3)
H29 H 0.16050 -0.88310 0.14050
H30 H 0.03660 -0.92250 0.23080
H31 H 0.21460 -0.81150 0.25890
C22 C -0.2059(5) 0.5006(3) 0.6866(3)
H32 H -0.22870 0.57670 0.69400
H33 H -0.32320 0.44240 0.68980
H34 H -0.17460 0.49050 0.61440
C23 C 0.5186(5) 0.6458(3) 0.8591(3)
H35 H 0.51730 0.72430 0.87890
H36 H 0.52360 0.63900 0.78020
H37 H 0.63310 0.62690 0.90760
C24 C -0.3792(5) -0.6402(3) 0.2673(3)
H38 H -0.28810 -0.59300 0.33210
H39 H -0.44460 -0.71220 0.29270
H40 H -0.47620 -0.59940 0.23120
C25 C 0.0493(5) 0.8282(3) 0.9672(3)
H41 H -0.05740 0.83910 0.90310
C26 C 0.3214(5) -0.4791(3) 0.3844(3)
H42 H 0.40710 -0.53160 0.41220
C27 C 0.2634(6) -0.4388(3) 0.4863(3)
H43 H 0.18490 -0.50410 0.51490
H44 H 0.18740 -0.38220 0.46430
H45 H 0.38060 -0.40430 0.54520
C28 C 0.2208(6) 0.9328(3) 0.9792(3)
H46 H 0.18020 1.00180 0.99450
H47 H 0.26390 0.93900 0.90930
H48 H 0.32820 0.92450 1.04160
C29 C 0.4444(5) -0.3792(3) 0.3381(3)
H49 H 0.48810 -0.40760 0.27620
H50 H 0.55780 -0.34100 0.39800
H51 H 0.36650 -0.32480 0.31030
C30 C -0.0269(5) 0.8225(3) 1.0742(3)
H52 H -0.05450 0.89560 1.09020
H53 H 0.07170 0.80690 1.13790
H54 H -0.14630 0.76140 1.06280
C31 C 0.1057(5) -0.7730(3) 0.4811(3)
C32 C 0.0380(5) 0.7859(3) 0.6492(3)
C33 C 0.2560(5) -0.8232(3) 0.5530(3)
C34 C -0.1158(5) 0.8283(3) 0.5728(3)
C35 C 0.4431(5) -0.8071(3) 0.5365(3)
H55 H 0.47700 -0.76390 0.47670
C36 C -0.2936(5) 0.8267(3) 0.5971(3)
H56 H -0.32010 0.79650 0.66450
C37 C -0.4306(5) 0.8689(3) 0.5232(3)
H57 H -0.55290 0.86650 0.53840
C38 C 0.5793(5) -0.8540(3) 0.6070(3)
H58 H 0.70740 -0.84260 0.59710
C39 C -0.3879(5) 0.9149(3) 0.4268(3)
C40 C 0.5238(5) -0.9181(3) 0.6925(3)
C41 C -0.2112(5) 0.9176(3) 0.4011(3)
H59 H -0.18400 0.94980 0.33460
C42 C 0.3403(5) -0.9351(3) 0.7099(3)
H60 H 0.30630 -0.97950 0.76890
C43 C -0.0780(5) 0.8731(3) 0.4734(3)
H61 H 0.04160 0.87260 0.45600
C44 C 0.2065(5) -0.8869(3) 0.6403(3)
H62 H 0.07980 -0.89720 0.65200
#END
