
#######################################################################
#
#                 Cambridge Crystallographic Data Centre
#                                CCDC
#
#######################################################################
#
# If this CIF has been generated from an entry in the Cambridge
# Structural Database, then it will include bibliographic, chemical,
# crystal, experimental, refinement or atomic coordinate data resulting
# from the CCDC's data processing and validation procedures.
#
#######################################################################

data_CSD_CIF_SUTWEJ
_audit_creation_date 1999-03-12
_audit_creation_method CSD-ConQuest-V1
_database_code_CSD SUTWEJ
_database_code_depnum_ccdc_archive 'CCDC 111423'
_chemical_formula_sum 'C49 H49 N5 O15'
_chemical_formula_moiety
;
C49 H49 N5 O15
;
_journal_coden_Cambridge 1088
_journal_year 1998
_journal_page_first 1132
_journal_name_full 'Synlett '
loop_
_publ_author_name
"I.Berque"
"P.Le Menez"
"P.Razon"
"C.Anies"
"A.Pancrazi"
"J.Ardisson"
"A.Neuman"
"T.Prange"
"J.-D.Brion"
_chemical_name_systematic
;
1-N,N-(Di-isopropyl)carbamoyl-7-trityloxy-3(R),5(R)-dimethyl-1(Z)-heptene-4(S)
,6(S)-diyl bis(3,5-dinitrobenzoate)
;
_cell_volume   4798.764
_exptl_crystal_colour 'colorless'
_exptl_crystal_density_diffrn 1.312
_diffrn_ambient_temperature ?
_diffrn_special_details
;
The study was carried out at room temperature,in the range 283-303K

;
#These two values have been output from a single CSD field.
_refine_ls_R_factor_gt 0.0549
_refine_ls_wR_factor_gt 0.0549
_symmetry_cell_setting orthorhombic
_symmetry_space_group_name_H-M 'P 21 21 21'
_symmetry_Int_Tables_number 19
loop_
_symmetry_equiv_pos_site_id
_symmetry_equiv_pos_as_xyz
1 x,y,z
2 1/2+x,1/2-y,-z
3 1/2-x,-y,1/2+z
4 -x,1/2+y,1/2-z
_cell_length_a 27.310(4)
_cell_length_b 18.793(4)
_cell_length_c 9.350(1)
_cell_angle_alpha 90
_cell_angle_beta 90
_cell_angle_gamma 90
_cell_formula_units_Z 4
loop_
_atom_type_symbol
_atom_type_radius_bond
C 0.68
H 0.23
N 0.68
O 0.68
loop_
_atom_site_label
_atom_site_type_symbol
_atom_site_fract_x
_atom_site_fract_y
_atom_site_fract_z
O1 O -0.0858(2) 0.4751(3) 0.6772(7)
O2 O -0.1423(2) 0.4114(4) 0.7929(10)
N1 N -0.1592(2) 0.4549(4) 0.5704(11)
O3 O 0.0878(2) 0.5938(2) 0.6087(7)
O4 O 0.14155(14) 0.4779(2) 0.4534(6)
O5 O 0.0512(2) 0.3388(2) 0.4339(7)
O6 O 0.1494(2) 0.5564(3) 0.7486(9)
N2 N 0.1426(3) 0.8374(4) 0.4387(11)
O7 O 0.0980(2) 0.8384(4) 0.4216(11)
O8 O 0.1691(3) 0.8839(3) 0.3893(9)
N3 N 0.2779(2) 0.7475(5) 0.7246(13)
O9 O 0.2959(2) 0.8069(4) 0.7218(12)
O10 O 0.2975(3) 0.6957(4) 0.7765(15)
O11 O 0.1919(2) 0.4019(3) 0.5705(8)
N4 N 0.2463(3) 0.6803(4) 0.2847(10)
O12 O 0.2094(3) 0.6862(4) 0.2181(12)
O13 O 0.2767(2) 0.7278(3) 0.3044(11)
N5 N 0.3597(2) 0.5195(5) 0.5372(13)
O14 O 0.3639(2) 0.4678(5) 0.6116(13)
O15 O 0.3931(2) 0.5557(4) 0.4905(10)
C1 C -0.0530(3) 0.4607(4) 0.7847(12)
H1 H -0.06030 0.42670 0.85370
C2 C -0.1326(3) 0.4463(4) 0.6880(16)
C3 C -0.0104(3) 0.4959(4) 0.7897(12)
H2 H 0.01090 0.48100 0.86140
C4 C 0.0082(2) 0.5545(4) 0.6998(11)
H3 H -0.01440 0.56090 0.61940
C5 C 0.0101(4) 0.6224(5) 0.7817(15)
H4 H 0.02210 0.65970 0.72090
H5 H 0.03150 0.61690 0.86230
H6 H -0.02220 0.63430 0.81460
C6 C 0.0584(2) 0.5313(3) 0.6391(10)
H7 H 0.07520 0.50450 0.71450
C7 C 0.0559(2) 0.4843(3) 0.5107(11)
H8 H 0.02790 0.45280 0.52750
C8 C 0.0435(3) 0.5251(5) 0.3744(13)
H9 H 0.04230 0.49270 0.29510
H10 H 0.06810 0.56060 0.35720
H11 H 0.01220 0.54780 0.38510
C9 C 0.0992(2) 0.4361(3) 0.4949(11)
H12 H 0.10590 0.41400 0.58780
C10 C 0.0925(3) 0.3770(4) 0.3834(11)
H13 H 0.08630 0.39690 0.28930
H14 H 0.12120 0.34670 0.37880
C11 C 0.0412(2) 0.2683(4) 0.3767(11)
C12 C -0.0108(2) 0.2528(3) 0.4165(10)
C13 C -0.0312(2) 0.2833(4) 0.5354(11)
H15 H -0.01210 0.31410 0.58980
C14 C -0.0790(3) 0.2704(4) 0.5786(12)
H16 H -0.09140 0.29140 0.66110
C15 C -0.1073(3) 0.2266(4) 0.4980(12)
H17 H -0.13960 0.21840 0.52490
C16 C -0.0894(3) 0.1944(5) 0.3785(13)
H18 H -0.10880 0.16370 0.32480
C17 C -0.0401(3) 0.2086(4) 0.3376(11)
H19 H -0.02760 0.18750 0.25540
C18 C 0.0739(2) 0.2125(3) 0.4433(11)
C19 C 0.1069(3) 0.2286(4) 0.5490(12)
H20 H 0.11020 0.27580 0.57770
C20 C 0.1358(3) 0.1769(5) 0.6151(13)
H21 H 0.15760 0.18950 0.68700
C21 C 0.1316(3) 0.1081(5) 0.5737(13)
H22 H 0.15020 0.07300 0.61790
C22 C 0.0999(3) 0.0908(5) 0.4664(13)
H23 H 0.09750 0.04370 0.43680
C23 C 0.0719(3) 0.1414(4) 0.4020(12)
H24 H 0.05080 0.12810 0.32860
C24 C 0.0467(2) 0.2731(3) 0.2153(10)
C25 C 0.0140(3) 0.3098(5) 0.1303(14)
H25 H -0.01230 0.33240 0.17450
C26 C 0.0181(4) 0.3151(5) -0.0173(15)
H26 H -0.00570 0.33920 -0.06940
C27 C 0.0575(4) 0.2843(6) -0.0867(15)
H27 H 0.06030 0.28660 -0.18580
C28 C 0.0925(3) 0.2503(5) -0.0063(15)
H28 H 0.12020 0.23100 -0.04920
C29 C 0.0856(3) 0.2453(4) 0.1396(13)
H29 H 0.10940 0.22110 0.19170
C30 C 0.1308(3) 0.6008(4) 0.6764(13)
C31 C 0.1561(2) 0.6696(3) 0.6353(11)
C32 C 0.1360(3) 0.7210(4) 0.5530(11)
H30 H 0.10460 0.71610 0.51560
C33 C 0.1641(2) 0.7816(4) 0.5264(11)
C34 C 0.2101(3) 0.7924(4) 0.5817(12)
H31 H 0.22780 0.83370 0.56290
C35 C 0.2283(3) 0.7399(4) 0.6649(12)
C36 C 0.2029(3) 0.6767(4) 0.6973(12)
H32 H 0.21620 0.64170 0.75600
C37 C 0.1856(2) 0.4557(4) 0.5013(12)
C38 C 0.2245(3) 0.5051(4) 0.4646(10)
C39 C 0.2169(2) 0.5672(4) 0.3910(12)
H33 H 0.18550 0.57820 0.35950
C40 C 0.2554(3) 0.6146(4) 0.3620(11)
C41 C 0.3027(3) 0.6002(4) 0.4114(12)
H34 H 0.32820 0.63210 0.39740
C42 C 0.3097(3) 0.5376(4) 0.4807(11)
C43 C 0.2718(2) 0.4903(4) 0.5103(11)
H35 H 0.27820 0.44870 0.56080
C44 C -0.1397(4) 0.4900(5) 0.4391(15)
H36 H -0.16580 0.48570 0.36750
C45 C -0.0970(4) 0.4513(6) 0.3779(16)
H37 H -0.10500 0.40190 0.36670
H38 H -0.06940 0.45590 0.44110
H39 H -0.08890 0.47130 0.28630
C46 C -0.1318(4) 0.5672(6) 0.4576(15)
H40 H -0.16090 0.58850 0.49590
H41 H -0.12430 0.58830 0.36670
H42 H -0.10500 0.57480 0.52230
C47 C -0.2094(3) 0.4265(5) 0.5749(14)
H43 H -0.21300 0.40490 0.66970
C48 C -0.2475(6) 0.4865(8) 0.5683(20)
H44 H -0.24000 0.52170 0.63950
H45 H -0.27950 0.46730 0.58610
H46 H -0.24680 0.50810 0.47530
C49 C -0.2171(4) 0.3669(5) 0.4697(15)
H47 H -0.19230 0.33130 0.48340
H48 H -0.21500 0.38520 0.37410
H49 H -0.24880 0.34610 0.48460
#END
