
#######################################################################
#
#                 Cambridge Crystallographic Data Centre
#                                CCDC
#
#######################################################################
#
# If this CIF has been generated from an entry in the Cambridge
# Structural Database, then it will include bibliographic, chemical,
# crystal, experimental, refinement or atomic coordinate data resulting
# from the CCDC's data processing and validation procedures.
#
#######################################################################

data_CSD_CIF_SUTXUC
_audit_creation_date 2015-09-01
_audit_creation_method CSD-ConQuest-V1
_database_code_CSD SUTXUC
_database_code_depnum_ccdc_archive 'CCDC 1421744'
_chemical_formula_sum 'C37 H56 N4 O2'
_chemical_formula_moiety
;
C37 H56 N4 O2
;
_journal_coden_Cambridge 35
_journal_volume 78
_journal_year 2013
_journal_page_first 10692
_journal_name_full 'J.Org.Chem. '
loop_
_publ_author_name
"Xiao-Yong Duan"
"Xiu-Long Yang"
"Ran Fang"
"Xie-Xue Peng"
"Wei Yu"
"Bing Han"
_chemical_name_systematic
;
1,1'-((1-(4,4-dimethyl-1,3-diphenyl-4,5-dihydro-1H-pyrazol-5-yl)ethane-1,2-diy
l)bis(oxy))bis(2,2,6,6-tetramethylpiperidine)
;
_cell_volume   1767.808
_diffrn_ambient_temperature 296
#These two values have been output from a single CSD field.
_refine_ls_R_factor_gt 0.0472
_refine_ls_wR_factor_gt 0.0472
_symmetry_cell_setting triclinic
_symmetry_space_group_name_H-M 'P -1'
_symmetry_Int_Tables_number 2
loop_
_symmetry_equiv_pos_site_id
_symmetry_equiv_pos_as_xyz
1 x,y,z
2 -x,-y,-z
_cell_length_a 10.7365(16)
_cell_length_b 12.0629(18)
_cell_length_c 15.643(2)
_cell_angle_alpha 71.062(2)
_cell_angle_beta 84.577(2)
_cell_angle_gamma 67.378(2)
_cell_formula_units_Z 2
loop_
_atom_type_symbol
_atom_type_radius_bond
C 0.68
H 0.23
N 0.68
O 0.68
loop_
_atom_site_label
_atom_site_type_symbol
_atom_site_fract_x
_atom_site_fract_y
_atom_site_fract_z
O1 O 0.21541(12) 0.56673(10) 0.19781(7)
O2 O 0.35932(11) 0.22294(10) 0.25062(8)
N1 N 0.03226(15) 0.57945(14) 0.36777(10)
N2 N 0.06291(14) 0.46691(15) 0.35041(11)
N3 N 0.20953(14) 0.61144(13) 0.09818(9)
N4 N 0.46632(14) 0.12968(13) 0.21818(9)
C1 C 0.2290(3) 0.6930(2) 0.46899(15)
H1 H 0.29410 0.61590 0.50060
C2 C 0.2223(3) 0.8022(3) 0.48283(18)
H2 H 0.28330 0.79750 0.52350
C3 C 0.1285(3) 0.9162(3) 0.4384(2)
H3 H 0.12520 0.98950 0.44790
C4 C 0.0389(3) 0.9212(3) 0.3794(2)
H4 H -0.02710 0.99870 0.34940
C5 C 0.0446(2) 0.8137(2) 0.36366(19)
H5 H -0.01640 0.82000 0.32230
C6 C 0.13923(19) 0.69670(19) 0.40815(13)
C7 C 0.14260(18) 0.58412(18) 0.38972(12)
C8 C 0.26491(18) 0.46249(17) 0.39492(11)
C9 C 0.20796(16) 0.40889(17) 0.33650(11)
H6 H 0.23710 0.31720 0.36500
C10 C 0.2839(2) 0.3732(2) 0.49282(14)
H7 H 0.30660 0.41030 0.53180
H8 H 0.35540 0.29360 0.49610
H9 H 0.20170 0.35980 0.51160
C11 C 0.39654(19) 0.4820(2) 0.36433(14)
H10 H 0.38300 0.54180 0.30460
H11 H 0.46560 0.40280 0.36380
H12 H 0.42360 0.51360 0.40540
C12 C -0.03871(18) 0.44109(17) 0.32175(12)
C13 C -0.17103(18) 0.52933(19) 0.30614(13)
H13 H -0.19310 0.60640 0.31630
C14 C -0.2688(2) 0.5027(2) 0.27574(16)
H14 H -0.35680 0.56210 0.26570
C15 C -0.2390(2) 0.3898(2) 0.25990(17)
H15 H -0.30580 0.37310 0.23870
C16 C -0.1089(2) 0.3018(2) 0.27589(16)
H16 H -0.08790 0.22520 0.26530
C17 C -0.0093(2) 0.32575(19) 0.30751(14)
H17 H 0.07780 0.26470 0.31930
C18 C 0.23525(16) 0.43561(15) 0.23483(11)
H18 H 0.16460 0.42410 0.20740
C19 C 0.06395(19) 0.6827(2) 0.06708(13)
C20 C 0.0632(2) 0.7414(2) -0.03612(14)
H19 H 0.09690 0.67380 -0.06310
H20 H -0.02930 0.79250 -0.05810
C21 C 0.1463(3) 0.8223(2) -0.06735(16)
H21 H 0.11090 0.89380 -0.04430
H22 H 0.14380 0.85420 -0.13290
C22 C 0.2896(2) 0.7407(2) -0.03175(15)
H23 H 0.34480 0.79130 -0.05080
H24 H 0.32490 0.67270 -0.05830
C23 C 0.3014(2) 0.68314(18) 0.07204(13)
C24 C -0.0034(2) 0.5873(3) 0.08503(16)
H25 H 0.05470 0.51600 0.06690
H26 H -0.08760 0.62620 0.05110
H27 H -0.01970 0.55960 0.14840
C25 C -0.0184(2) 0.7820(2) 0.11304(18)
H28 H -0.00850 0.74370 0.17750
H29 H -0.11190 0.81440 0.09480
H30 H 0.01380 0.85000 0.09550
C26 C 0.2760(3) 0.7844(2) 0.11774(19)
H31 H 0.19850 0.85770 0.08940
H32 H 0.35350 0.80710 0.11180
H33 H 0.26020 0.75160 0.18070
C27 C 0.4452(2) 0.5875(2) 0.09741(16)
H34 H 0.45650 0.55320 0.16210
H35 H 0.50770 0.62850 0.07390
H36 H 0.46200 0.52040 0.07230
C28 C 0.37003(17) 0.34439(15) 0.21425(12)
H37 H 0.38320 0.36480 0.14960
H38 H 0.44450 0.34670 0.24330
C29 C 0.5512(2) 0.03358(18) 0.29912(14)
C30 C 0.6567(2) -0.0706(2) 0.26603(17)
H39 H 0.71850 -0.03640 0.22790
H40 H 0.70860 -0.13840 0.31790
C31 C 0.5963(2) -0.1245(2) 0.21349(17)
H41 H 0.66780 -0.18640 0.19150
H42 H 0.54110 -0.16640 0.25260
C32 C 0.5109(2) -0.01846(19) 0.13479(15)
H43 H 0.47060 -0.05310 0.10220
H44 H 0.56880 0.01790 0.09380
C33 C 0.39859(18) 0.08663(17) 0.16331(12)
C34 C 0.6240(3) 0.0984(2) 0.33328(19)
H45 H 0.66730 0.13970 0.28390
H46 H 0.69060 0.03630 0.37910
H47 H 0.55980 0.15980 0.35830
C35 C 0.4723(3) -0.0216(2) 0.37803(15)
H48 H 0.39310 0.04550 0.38720
H49 H 0.52860 -0.06320 0.43210
H50 H 0.44620 -0.08150 0.36380
C36 C 0.3380(2) 0.1987(2) 0.07874(14)
H51 H 0.26400 0.26360 0.09500
H52 H 0.30630 0.17160 0.03680
H53 H 0.40570 0.23150 0.05120
C37 C 0.2864(2) 0.0423(2) 0.20890(16)
H54 H 0.32520 -0.03800 0.25480
H55 H 0.23740 0.03390 0.16460
H56 H 0.22600 0.10310 0.23600
#END
