
#######################################################################
#
#                 Cambridge Crystallographic Data Centre
#                                CCDC
#
#######################################################################
#
# If this CIF has been generated from an entry in the Cambridge
# Structural Database, then it will include bibliographic, chemical,
# crystal, experimental, refinement or atomic coordinate data resulting
# from the CCDC's data processing and validation procedures.
#
#######################################################################

data_CSD_CIF_SUTYEN
_audit_creation_date 2015-09-01
_audit_creation_method CSD-ConQuest-V1
_database_code_CSD SUTYEN
_database_code_depnum_ccdc_archive 'CCDC 1421746'
_chemical_formula_sum 'C39 H58 N4 O2'
_chemical_formula_moiety
;
C39 H58 N4 O2
;
_journal_coden_Cambridge 35
_journal_volume 78
_journal_year 2013
_journal_page_first 10692
_journal_name_full 'J.Org.Chem. '
loop_
_publ_author_name
"Xiao-Yong Duan"
"Xiu-Long Yang"
"Ran Fang"
"Xie-Xue Peng"
"Wei Yu"
"Bing Han"
_chemical_name_systematic
;
(3aR*,5R*,6R*,6aS*)-3a-methyl-1,3-diphenyl-5,6-bis(((2,2,6,6-tetramethylpiperi
din-1-yl)oxy)methyl)-1,3a,4,5,6,6a-hexahydrocyclopenta[c]pyrazole
;
_cell_volume   3622.238
_exptl_crystal_density_diffrn 1.122
_diffrn_ambient_temperature 293
#These two values have been output from a single CSD field.
_refine_ls_R_factor_gt 0.0566
_refine_ls_wR_factor_gt 0.0566
_symmetry_cell_setting monoclinic
_symmetry_space_group_name_H-M 'P 21/n'
_symmetry_Int_Tables_number 14
loop_
_symmetry_equiv_pos_site_id
_symmetry_equiv_pos_as_xyz
1 x,y,z
2 1/2-x,1/2+y,1/2-z
3 -x,-y,-z
4 -1/2+x,-1/2-y,-1/2+z
_cell_length_a 8.1683(2)
_cell_length_b 29.6471(7)
_cell_length_c 15.3480(4)
_cell_angle_alpha 90
_cell_angle_beta 102.950(2)
_cell_angle_gamma 90
_cell_formula_units_Z 4
loop_
_atom_type_symbol
_atom_type_radius_bond
C 0.68
H 0.23
N 0.68
O 0.68
loop_
_atom_site_label
_atom_site_type_symbol
_atom_site_fract_x
_atom_site_fract_y
_atom_site_fract_z
O1 O 0.31819(14) 0.38076(4) 0.33138(7)
O2 O -0.08981(15) 0.27869(4) 0.23738(7)
N1 N -0.13515(18) 0.23108(4) 0.23672(9)
N2 N 0.48065(17) 0.36445(5) 0.37959(9)
N3 N -0.0409(2) 0.44643(5) 0.17021(9)
N4 N -0.13883(19) 0.45463(5) 0.08692(9)
C1 C -0.0317(2) 0.33929(5) 0.14434(10)
H1 H -0.14890 0.34930 0.13360
C2 C 0.0687(2) 0.40245(5) 0.06748(10)
C3 C 0.07304(19) 0.36925(5) 0.21867(10)
H2 H 0.00860 0.37510 0.26420
C4 C -0.0872(2) 0.43034(5) 0.02868(10)
C5 C -0.0435(2) 0.47679(5) 0.23933(11)
C6 C 0.0935(2) 0.41383(5) 0.16932(10)
H3 H 0.20410 0.42730 0.19290
C7 C -0.1751(2) 0.43361(5) -0.06632(11)
C8 C 0.2430(2) 0.34957(5) 0.26297(10)
H4 H 0.22950 0.32030 0.28860
H5 H 0.31240 0.34610 0.21970
C9 C 0.0356(2) 0.35123(5) 0.06131(10)
H6 H -0.04640 0.34380 0.00700
H7 H 0.13860 0.33490 0.06150
C10 C -0.0182(2) 0.20879(6) 0.31276(12)
C11 C -0.0286(2) 0.28866(5) 0.15925(11)
H8 H -0.09830 0.27380 0.10770
H9 H 0.08530 0.27750 0.16660
C12 C 0.4670(3) 0.35569(7) 0.47367(11)
C13 C 0.6091(2) 0.39766(6) 0.36461(12)
C14 C 0.0677(2) 0.47155(6) 0.32172(11)
H10 H 0.14640 0.44840 0.33040
C15 C -0.1601(3) 0.51198(6) 0.22741(13)
H11 H -0.23350 0.51630 0.17220
C16 C -0.1231(3) 0.40976(7) -0.13373(12)
H12 H -0.03460 0.38940 -0.11870
C17 C -0.3190(2) 0.22917(6) 0.23402(13)
C18 C 0.2209(2) 0.41667(7) 0.03052(12)
H13 H 0.20330 0.40780 -0.03110
H14 H 0.32020 0.40220 0.06440
H15 H 0.23440 0.44880 0.03520
C19 C 0.0607(3) 0.50118(7) 0.39122(13)
H16 H 0.13590 0.49780 0.44610
C20 C -0.2019(3) 0.41603(7) -0.22300(12)
H17 H -0.16560 0.39990 -0.26720
C21 C -0.1660(3) 0.54050(6) 0.29828(14)
H18 H -0.24550 0.56350 0.29050
C22 C -0.3121(3) 0.46241(7) -0.09143(14)
H19 H -0.35330 0.47750 -0.04770
C23 C 0.7790(3) 0.38130(8) 0.41967(16)
H20 H 0.80820 0.35320 0.39450
H21 H 0.86440 0.40330 0.41520
C24 C -0.0564(3) 0.53543(7) 0.37965(14)
H22 H -0.06110 0.55490 0.42650
C25 C 0.6417(3) 0.34086(9) 0.52451(15)
H23 H 0.64010 0.33690 0.58710
H24 H 0.66740 0.31190 0.50150
C26 C 0.3461(3) 0.31586(9) 0.47060(14)
H25 H 0.23440 0.32510 0.44200
H26 H 0.34790 0.30600 0.53040
H27 H 0.38050 0.29150 0.43750
C27 C 0.5779(3) 0.44706(7) 0.38542(16)
H28 H 0.46370 0.45490 0.35870
H29 H 0.65240 0.46610 0.36160
H30 H 0.59810 0.45110 0.44900
C28 C -0.3645(3) 0.17905(7) 0.23636(15)
H31 H -0.48180 0.17640 0.23890
H32 H -0.35100 0.16480 0.18150
C29 C -0.2582(3) 0.15430(7) 0.31499(16)
H33 H -0.28880 0.12260 0.31230
H34 H -0.27730 0.16670 0.37040
C30 C -0.3321(3) 0.44566(8) -0.24622(13)
H35 H -0.38310 0.45020 -0.30610
C31 C 0.7796(3) 0.3739(1) 0.51766(17)
H36 H 0.88760 0.36200 0.54870
H37 H 0.76110 0.40230 0.54520
C32 C -0.0742(3) 0.15925(6) 0.31259(15)
H38 H -0.05490 0.14450 0.25930
H39 H -0.00600 0.14410 0.36410
C33 C 0.1566(3) 0.20980(8) 0.29281(16)
H40 H 0.15030 0.19930 0.23300
H41 H 0.23060 0.19060 0.33430
H42 H 0.19890 0.24010 0.29850
C34 C 0.3992(4) 0.39499(10) 0.52031(15)
H43 H 0.48320 0.41810 0.53440
H44 H 0.37170 0.38440 0.57440
H45 H 0.30030 0.40710 0.48130
C35 C 0.6134(3) 0.39457(8) 0.26523(14)
H46 H 0.62260 0.36350 0.24910
H47 H 0.70830 0.41110 0.25490
H48 H 0.51200 0.40720 0.22960
C36 C -0.3776(3) 0.25533(8) 0.30744(18)
H49 H -0.34520 0.23930 0.36300
H50 H -0.49760 0.25840 0.29170
H51 H -0.32670 0.28470 0.31370
C37 C -0.4104(3) 0.24830(9) 0.14330(17)
H52 H -0.38400 0.27970 0.14030
H53 H -0.52940 0.24480 0.13650
H54 H -0.37490 0.23240 0.09630
C38 C -0.0052(3) 0.23045(8) 0.40500(13)
H55 H 0.00030 0.26270 0.39980
H56 H 0.09430 0.21980 0.44550
H57 H -0.10210 0.22250 0.42730
C39 C -0.3881(3) 0.46892(8) -0.18085(15)
H58 H -0.47710 0.48900 -0.19670
#END
