
#######################################################################
#
#                 Cambridge Crystallographic Data Centre
#                                CCDC
#
#######################################################################
#
# If this CIF has been generated from an entry in the Cambridge
# Structural Database, then it will include bibliographic, chemical,
# crystal, experimental, refinement or atomic coordinate data resulting
# from the CCDC's data processing and validation procedures.
#
#######################################################################

data_CSD_CIF_SUTYAJ
_audit_creation_date 2015-09-01
_audit_creation_method CSD-ConQuest-V1
_database_code_CSD SUTYAJ
_database_code_depnum_ccdc_archive 'CCDC 1421745'
_chemical_formula_sum 'C39 H58 N4 O2'
_chemical_formula_moiety
;
C39 H58 N4 O2
;
_journal_coden_Cambridge 35
_journal_volume 78
_journal_year 2013
_journal_page_first 10692
_journal_name_full 'J.Org.Chem. '
loop_
_publ_author_name
"Xiao-Yong Duan"
"Xiu-Long Yang"
"Ran Fang"
"Xie-Xue Peng"
"Wei Yu"
"Bing Han"
_chemical_name_systematic
;
1,1'-((1-(4-allyl-4-methyl-1,3-diphenyl-4,5-dihydro-1H-pyrazol-5-yl)ethane-1,2
-diyl)bis(oxy))bis(2,2,6,6-tetramethylpiperidine)
;
_cell_volume   3685.500
_exptl_crystal_density_diffrn 1.11
_diffrn_ambient_temperature 121.2
_refine_special_details
;
C11B,C12B and C11A,C12A disordered over two sites with occupancies 0.60:0.40.

;
#These two values have been output from a single CSD field.
_refine_ls_R_factor_gt 0.0747
_refine_ls_wR_factor_gt 0.0747
_symmetry_cell_setting monoclinic
_symmetry_space_group_name_H-M 'P 21/a'
_symmetry_Int_Tables_number 14
loop_
_symmetry_equiv_pos_site_id
_symmetry_equiv_pos_as_xyz
1 x,y,z
2 1/2-x,1/2+y,-z
3 -x,-y,-z
4 -1/2+x,-1/2-y,z
_cell_length_a 10.7783(6)
_cell_length_b 31.1615(16)
_cell_length_c 11.9415(7)
_cell_angle_alpha 90
_cell_angle_beta 113.234(7)
_cell_angle_gamma 90
_cell_formula_units_Z 4
loop_
_atom_type_symbol
_atom_type_radius_bond
C 0.68
H 0.23
N 0.68
O 0.68
loop_
_atom_site_label
_atom_site_type_symbol
_atom_site_fract_x
_atom_site_fract_y
_atom_site_fract_z
O1 O 0.79194(18) 0.59684(6) 0.15057(14)
O2 O 0.64899(17) 0.61950(6) -0.17605(14)
N1 N 0.9521(2) 0.66856(8) 0.1160(2)
N2 N 0.9817(3) 0.67832(8) 0.2371(2)
N3 N 0.5420(2) 0.60204(7) -0.28444(17)
N4 N 0.7933(2) 0.54973(7) 0.15301(18)
C1 C 0.7781(4) 0.72510(13) 0.3855(4)
H1 H 0.71440 0.73930 0.31930
C2 C 0.7796(5) 0.73120(16) 0.5017(5)
H2 H 0.71650 0.74930 0.51230
C3 C 0.8728(6) 0.71081(19) 0.5997(5)
H3 H 0.87320 0.71490 0.67700
C4 C 0.9656(5) 0.68437(16) 0.5842(4)
H4 H 1.02980 0.67070 0.65130
C5 C 0.9648(4) 0.67777(13) 0.4690(3)
H5 H 1.02830 0.65950 0.45960
C6 C 0.8709(4) 0.69793(11) 0.3679(3)
C7 C 0.8704(3) 0.68914(10) 0.2471(3)
C8 C 0.7515(3) 0.69061(10) 0.1245(3)
C9 C 0.8060(3) 0.66169(9) 0.0488(2)
H6 H 0.77950 0.67440 -0.03240
C10 C 0.6167(3) 0.67715(13) 0.1261(3)
H7 H 0.54980 0.67620 0.04420
H8 H 0.58980 0.69750 0.17260
H9 H 0.62530 0.64920 0.16250
C11 C 0.7643(9) 0.7395(3) 0.0868(8)
H10 H 0.73700 0.75860 0.13720
H11 H 0.85810 0.74550 0.10300
C12 C 0.6771(7) 0.74921(19) -0.0492(8)
H12 H 0.62340 0.72390 -0.08390
C13 C 0.7358(10) 0.76007(18) -0.1193(7)
C14 C 1.0531(3) 0.65515(9) 0.0795(3)
C15 C 1.1864(3) 0.65155(11) 0.1627(3)
H13 H 1.21010 0.65920 0.24380
C16 C 1.2510(4) 0.62521(13) 0.0044(4)
H14 H 1.31710 0.61470 -0.02000
C17 C 1.2828(4) 0.63654(13) 0.1239(3)
H15 H 1.37160 0.63400 0.17990
C18 C 1.1207(4) 0.62971(11) -0.0777(3)
H16 H 1.09850 0.62240 -0.15880
C19 C 1.0219(3) 0.64492(10) -0.0424(3)
H17 H 0.93420 0.64840 -0.09990
C20 C 0.7735(3) 0.61377(8) 0.0333(2)
H18 H 0.84240 0.60040 0.01040
C21 C 0.6380(3) 0.60361(9) -0.0678(2)
H19 H 0.62120 0.57290 -0.07350
H20 H 0.56540 0.61790 -0.05380
C22 C 0.4589(3) 0.63893(10) -0.3524(2)
C23 C 0.3530(3) 0.62105(12) -0.4702(3)
H21 H 0.29180 0.60270 -0.45050
H22 H 0.30070 0.64460 -0.51920
C24 C 0.4137(3) 0.59563(12) -0.5443(3)
H23 H 0.34260 0.58390 -0.61620
H24 H 0.46960 0.61420 -0.57040
C25 C 0.4982(3) 0.55972(10) -0.4657(3)
H25 H 0.53940 0.54380 -0.51200
H26 H 0.43950 0.54020 -0.44630
C26 C 0.7243(3) 0.59695(11) -0.3710(3)
H27 H 0.68730 0.61720 -0.43640
H28 H 0.77510 0.57560 -0.39270
H29 H 0.78240 0.61160 -0.29870
C27 C 0.6089(3) 0.57517(9) -0.3474(2)
C28 C 0.6691(3) 0.53619(10) -0.2658(3)
H30 H 0.74360 0.54520 -0.19360
H31 H 0.70020 0.51580 -0.30920
H32 H 0.60130 0.52310 -0.24370
C29 C 0.3862(4) 0.65629(12) -0.2748(3)
H33 H 0.34380 0.63300 -0.25070
H34 H 0.31900 0.67670 -0.32140
H35 H 0.45040 0.67000 -0.20350
C30 C 0.5375(4) 0.67621(10) -0.3789(3)
H36 H 0.61560 0.68270 -0.30670
H37 H 0.48050 0.70110 -0.40360
H38 H 0.56530 0.66800 -0.44300
C31 C 0.7004(3) 0.53740(11) 0.2138(3)
C32 C 0.5576(3) 0.54929(13) 0.1265(3)
H39 H 0.55090 0.57990 0.11620
H40 H 0.49420 0.53960 0.15930
H41 H 0.53780 0.53580 0.04900
C33 C 0.7286(4) 0.56003(15) 0.3358(3)
H42 H 0.80890 0.54830 0.39740
H43 H 0.65370 0.55570 0.35890
H44 H 0.74080 0.59020 0.32740
C34 C 0.7083(3) 0.48851(12) 0.2288(3)
H45 H 0.65240 0.47980 0.27170
H46 H 0.67130 0.47540 0.14870
C35 C 0.8490(4) 0.47187(12) 0.2969(3)
H47 H 0.84830 0.44080 0.30100
H48 H 0.88580 0.48310 0.37930
C36 C 0.9338(3) 0.48643(11) 0.2287(3)
H49 H 0.89890 0.47320 0.14870
H50 H 1.02550 0.47620 0.27190
C37 C 0.9372(3) 0.53498(10) 0.2133(3)
C38 C 1.0058(3) 0.54314(11) 0.1245(3)
H51 H 0.94770 0.53350 0.04450
H52 H 1.08950 0.52770 0.15120
H53 H 1.02290 0.57330 0.12210
C39 C 1.0221(4) 0.55702(13) 0.3330(3)
H54 H 1.01600 0.58760 0.32180
H55 H 1.11450 0.54820 0.35870
H56 H 0.98920 0.54920 0.39410
H57 H 0.672(6) 0.765(2) -0.199(3)
H58 H 0.828(2) 0.762(2) -0.104(6)
C40? C 0.6898(14) 0.7321(5) 0.0578(16)
H59? H 0.61000 0.72600 -0.01500
H60? H 0.66460 0.75090 0.11010
C41? C 0.7911(13) 0.7516(4) 0.0267(15)
H61? H 0.86960 0.73300 0.05170
H62? H 0.81830 0.77860 0.06980
H63? H 0.61470 0.77200 -0.05180
#END
