
#######################################################################
#
#                 Cambridge Crystallographic Data Centre
#                                CCDC
#
#######################################################################
#
# If this CIF has been generated from an entry in the Cambridge
# Structural Database, then it will include bibliographic, chemical,
# crystal, experimental, refinement or atomic coordinate data resulting
# from the CCDC's data processing and validation procedures.
#
#######################################################################

data_CSD_CIF_SUTZAK
_audit_creation_date 2015-09-01
_audit_creation_method CSD-ConQuest-V1
_database_code_CSD SUTZAK
_database_code_depnum_ccdc_archive 'CCDC 1421757'
_chemical_formula_sum 'C26 H29 N1 O5'
_chemical_formula_moiety
;
C26 H29 N1 O5
;
_journal_coden_Cambridge 35
_journal_volume 78
_journal_year 2013
_journal_page_first 9541
_journal_name_full 'J.Org.Chem. '
loop_
_publ_author_name
"J.Ciesielski"
"V.Gandon"
"A.J.Frontier"
_chemical_name_systematic
;
3,3a,6,9-tetramethyl-11-oxo-2,3,3a,4,6a,7,8,11-octahydro-1H-cycloocta[de]napht
halen-1-yl 4-nitrobenzoate
;
_cell_volume   6825.026
_exptl_crystal_colour 'colorless'
_exptl_crystal_density_diffrn 1.272
_exptl_crystal_description 'needle'
_diffrn_ambient_temperature 100
#These two values have been output from a single CSD field.
_refine_ls_R_factor_gt 0.0642
_refine_ls_wR_factor_gt 0.0642
_symmetry_cell_setting orthorhombic
_symmetry_space_group_name_H-M 'P 21 21 21'
_symmetry_Int_Tables_number 19
loop_
_symmetry_equiv_pos_site_id
_symmetry_equiv_pos_as_xyz
1 x,y,z
2 1/2-x,-y,1/2+z
3 -x,1/2+y,1/2-z
4 1/2+x,1/2-y,-z
_cell_length_a 6.079(2)
_cell_length_b 27.279(10)
_cell_length_c 41.157(15)
_cell_angle_alpha 90
_cell_angle_beta 90
_cell_angle_gamma 90
_cell_formula_units_Z 12
loop_
_atom_type_symbol
_atom_type_radius_bond
C 0.68
H 0.23
N 0.68
O 0.68
loop_
_atom_site_label
_atom_site_type_symbol
_atom_site_fract_x
_atom_site_fract_y
_atom_site_fract_z
O1 O 1.2910(8) 0.54393(16) 0.96553(10)
O2 O 0.7829(7) 0.49618(15) 0.99041(9)
O3 O 1.0482(8) 0.43937(16) 0.99797(11)
O4 O 0.1542(9) 0.33863(17) 0.90274(11)
O5 O 0.4163(9) 0.28400(17) 0.90381(11)
N1 N 0.3370(11) 0.3242(2) 0.91184(14)
C1 C 0.8261(11) 0.6135(2) 0.97652(14)
C2 C 0.9392(11) 0.5723(2) 0.97783(14)
C3 C 1.1146(13) 0.5568(2) 0.95360(16)
C4 C 1.0940(11) 0.5568(2) 0.91848(15)
H1 H 1.22910 0.55320 0.90710
C5 C 0.9179(12) 0.5610(2) 0.89951(14)
C6 C 0.6926(11) 0.5705(2) 0.91234(15)
H2 H 0.66850 0.55050 0.93210
H3 H 0.58250 0.56050 0.89590
C7 C 0.6593(11) 0.6249(2) 0.92063(14)
H4 H 0.50720 0.62940 0.92870
H5 H 0.67450 0.64430 0.90040
C8 C 0.8203(12) 0.6456(2) 0.94620(14)
H6 H 0.97110 0.64590 0.93650
C9 C 0.7517(13) 0.6983(3) 0.95242(17)
C10 C 0.5850(15) 0.7063(3) 0.97372(18)
H7 H 0.52010 0.73780 0.97560
C11 C 0.5039(12) 0.6638(2) 0.99448(16)
H8 H 0.40250 0.64320 0.98160
H9 H 0.42140 0.67670 1.01340
C12 C 0.6963(11) 0.6326(2) 1.00645(15)
C13 C 0.6128(12) 0.5890(2) 1.02686(14)
H10 H 0.50390 0.57080 1.01320
C14 C 0.8000(11) 0.5537(2) 1.03461(14)
H11 H 0.90670 0.57040 1.04900
H12 H 0.73980 0.52520 1.04660
C15 C 0.9184(11) 0.5357(2) 1.00491(13)
H13 H 1.06660 0.52270 1.01100
C16 C 0.9349(12) 0.5575(3) 0.86324(15)
H14 H 1.08970 0.55380 0.85700
H15 H 0.87490 0.58730 0.85340
H16 H 0.85140 0.52900 0.85560
C17 C 0.8601(14) 0.7365(3) 0.93410(18)
H17 H 0.79580 0.76830 0.93980
H18 H 0.84070 0.73050 0.91080
H19 H 1.01740 0.73670 0.93930
C18 C 0.8553(12) 0.6644(2) 1.02640(15)
H20 H 0.77210 0.68330 1.04250
H21 H 0.93340 0.68690 1.01190
H22 H 0.96180 0.64330 1.03750
C19 C 0.4958(12) 0.6038(2) 1.05821(15)
H23 H 0.44340 0.57430 1.06940
H24 H 0.37050 0.62500 1.05300
H25 H 0.59860 0.62150 1.07230
C20 C 0.8703(13) 0.4509(2) 0.98760(14)
C21 C 0.7214(12) 0.4174(2) 0.96917(15)
C22 C 0.7945(12) 0.3699(2) 0.96264(14)
H26 H 0.93290 0.35920 0.97070
C23 C 0.6644(13) 0.3381(3) 0.94430(15)
H27 H 0.71010 0.30550 0.93980
C24 C 0.4674(12) 0.3560(2) 0.93309(15)
C25 C 0.3884(12) 0.4022(2) 0.93982(14)
H28 H 0.24920 0.41260 0.93190
C26 C 0.5180(12) 0.4332(2) 0.95849(15)
H29 H 0.46700 0.46510 0.96390
O6 O 1.5019(8) 0.11786(16) 0.84871(10)
O7 O 1.0240(7) 0.07104(15) 0.83415(9)
O8 O 1.2019(10) 0.0065(2) 0.81171(11)
O9 O 0.3816(10) 0.1037(2) 0.70166(12)
O10 O 0.5720(8) 0.05120(17) 0.67402(10)
N2 N 0.5297(11) 0.0738(2) 0.69940(14)
C27 C 1.0518(11) 0.1354(2) 0.90177(14)
C28 C 1.1682(11) 0.1168(2) 0.87700(14)
C29 C 1.3421(12) 0.1422(3) 0.85732(14)
C30 C 1.3421(11) 0.1939(2) 0.84732(14)
H30 H 1.48300 0.20800 0.84370
C31 C 1.1703(11) 0.2240(2) 0.84255(15)
C32 C 0.9421(11) 0.2116(2) 0.85160(14)
H31 H 0.91230 0.17700 0.84590
H32 H 0.83910 0.23240 0.83910
C33 C 0.9023(11) 0.2193(2) 0.88792(14)
H33 H 0.74840 0.21020 0.89290
H34 H 0.91960 0.25460 0.89290
C34 C 1.0567(11) 0.1898(2) 0.91035(13)
H35 H 1.21020 0.20210 0.90720
C35 C 0.9876(12) 0.1999(2) 0.94552(15)
C36 C 0.7956(13) 0.1770(3) 0.95710(16)
H36 H 0.72060 0.18810 0.97600
C37 C 0.7152(11) 0.1328(2) 0.93720(15)
H37 H 0.62270 0.14460 0.91900
H38 H 0.62290 0.11160 0.95120
C38 C 0.9083(11) 0.1022(2) 0.92335(13)
C39 C 0.8179(11) 0.0593(2) 0.90290(14)
H39 H 0.72410 0.07340 0.88530
C40 C 1.0042(11) 0.0318(2) 0.88716(14)
H40 H 0.94360 0.00440 0.87410
H41 H 1.09940 0.01750 0.90430
C41 C 1.1427(11) 0.0648(2) 0.86519(13)
H42 H 1.29020 0.04970 0.86130
C42 C 1.2063(12) 0.2748(2) 0.82926(16)
H43 H 1.36350 0.27990 0.82520
H44 H 1.15390 0.29910 0.84500
H45 H 1.12480 0.27860 0.80890
C43 C 1.1110(14) 0.2319(3) 0.96422(15)
H46 H 1.05990 0.23070 0.98680
H47 H 1.09410 0.26530 0.95580
H48 H 1.26630 0.22240 0.96330
C44 C 1.0487(11) 0.0847(2) 0.95212(13)
H49 H 1.11170 0.11320 0.96330
H50 H 1.16760 0.06360 0.94410
H51 H 0.95640 0.06620 0.96730
C45 C 0.6758(12) 0.0233(2) 0.92260(15)
H52 H 0.60980 -0.00090 0.90790
H53 H 0.55920 0.04140 0.93380
H54 H 0.76800 0.00640 0.93860
C46 C 1.0690(13) 0.0392(3) 0.81019(15)
C47 C 0.9266(12) 0.0493(2) 0.78115(15)
C48 C 0.9839(13) 0.0267(2) 0.75197(15)
H55 H 1.10950 0.00610 0.75050
C49 C 0.8506(12) 0.0354(2) 0.72484(15)
H56 H 0.88510 0.02060 0.70460
C50 C 0.6703(12) 0.0652(3) 0.72753(14)
C51 C 0.6147(12) 0.0865(3) 0.75676(16)
H57 H 0.48700 0.10650 0.75840
C52 C 0.7449(12) 0.0789(2) 0.78360(15)
H58 H 0.70910 0.09390 0.80370
O11 O 0.2473(8) 0.78971(17) 0.73464(10)
O12 O 0.5701(8) 0.87254(16) 0.75282(10)
O13 O 0.3902(9) 0.93757(18) 0.73115(11)
O14 O 1.3338(12) 0.8738(3) 0.63357(15)
O15 O 1.1702(15) 0.9354(2) 0.60882(16)
N3 N 1.1861(17) 0.9072(3) 0.6305(2)
C53 C 0.4216(11) 0.7936(2) 0.81446(14)
C54 C 0.4130(11) 0.8112(2) 0.78426(15)
C55 C 0.3986(12) 0.7792(2) 0.75418(15)
C56 C 0.5462(12) 0.7384(2) 0.74566(16)
H59 H 0.49990 0.71880 0.72790
C57 C 0.7352(12) 0.7252(2) 0.75937(15)
C58 C 0.8252(12) 0.7474(2) 0.78994(14)
H60 H 0.80760 0.78340 0.78890
H61 H 0.98460 0.74020 0.79130
C59 C 0.7128(11) 0.7284(3) 0.82071(16)
H62 H 0.78320 0.74370 0.83990
H63 H 0.73510 0.69260 0.82220
C60 C 0.4607(11) 0.7396(3) 0.82144(15)
H64 H 0.38630 0.71970 0.80430
C61 C 0.3757(12) 0.7239(3) 0.85445(16)
C62 C 0.3978(13) 0.7536(3) 0.87986(16)
H65 H 0.35850 0.74280 0.90100
C63 C 0.4863(12) 0.8051(3) 0.87471(15)
H66 H 0.64880 0.80380 0.87350
H67 H 0.44610 0.82570 0.89360
C64 C 0.3960(11) 0.8286(3) 0.84360(16)
C65 C 0.5185(12) 0.8764(2) 0.83520(15)
H68 H 0.67410 0.86760 0.82990
C66 C 0.4187(14) 0.9003(3) 0.80524(15)
H69 H 0.51430 0.92780 0.79840
H70 H 0.27350 0.91410 0.81110
C67 C 0.3893(12) 0.8651(3) 0.77638(15)
H71 H 0.24440 0.87120 0.76560
C68 C 0.8688(12) 0.6850(2) 0.74462(15)
H72 H 0.79380 0.67250 0.72520
H73 H 0.88650 0.65840 0.76040
H74 H 1.01380 0.69770 0.73850
C69 C 0.2763(13) 0.6735(3) 0.85653(16)
H75 H 0.21680 0.66830 0.87840
H76 H 0.38970 0.64880 0.85200
H77 H 0.15770 0.67050 0.84050
C70 C 0.1468(12) 0.8368(3) 0.84843(17)
H78 H 0.12330 0.86110 0.86560
H79 H 0.07710 0.80570 0.85460
H80 H 0.08190 0.84860 0.82810
C71 C 0.5235(14) 0.9143(3) 0.86294(17)
H81 H 0.58900 0.89950 0.88230
H82 H 0.37320 0.92500 0.86790
H83 H 0.61150 0.94270 0.85630
C72 C 0.5432(14) 0.9084(3) 0.73067(17)
C73 C 0.7151(13) 0.9082(2) 0.70520(16)
C74 C 0.6810(14) 0.9348(2) 0.67689(16)
H84 H 0.55070 0.95370 0.67450
C75 C 0.8349(16) 0.9341(3) 0.65215(19)
H85 H 0.81220 0.95130 0.63240
C76 C 1.0222(16) 0.9073(3) 0.6577(2)
C77 C 1.0604(14) 0.8795(3) 0.68526(17)
H86 H 1.18950 0.86010 0.68730
C78 C 0.9057(14) 0.8808(3) 0.70964(18)
H87 H 0.92880 0.86310 0.72930
H88? H 0.67620 0.20160 0.95780
H89? H 0.82250 0.16600 0.97970
H90? H 1.06700 0.23920 0.98580
H91? H 1.23960 0.24660 0.95540
#END
