
#######################################################################
#
#                 Cambridge Crystallographic Data Centre
#                                CCDC
#
#######################################################################
#
# If this CIF has been generated from an entry in the Cambridge
# Structural Database, then it will include bibliographic, chemical,
# crystal, experimental, refinement or atomic coordinate data resulting
# from the CCDC's data processing and validation procedures.
#
#######################################################################

data_CSD_CIF_SUVBOB
_audit_creation_date 2011-01-20
_audit_creation_method CSD-ConQuest-V1
_database_code_CSD SUVBOB
_database_code_depnum_ccdc_archive 'CCDC 763856'
_chemical_formula_sum 'C13 H17 N1 O2'
_chemical_formula_moiety
;
C13 H17 N1 O2
;
_journal_coden_Cambridge 16
_journal_volume 66
_journal_year 2010
_journal_page_first 6391
_journal_name_full 'Tetrahedron '
loop_
_publ_author_name
"Woo Han Kim"
"Jun Hee Lee"
"B.Aussedat"
"S.J.Danishefsky"
_chemical_name_systematic
;
5,6-Dimethyl-4,7,7a,8,9,10-hexahydronaphtho[1,8a-c][1,2]oxazol-3-one
;
_cell_volume   1134.337
_exptl_crystal_density_diffrn 1.284
_diffrn_ambient_temperature 100
#These two values have been output from a single CSD field.
_refine_ls_R_factor_gt 0.0495
_refine_ls_wR_factor_gt 0.0495
_symmetry_cell_setting monoclinic
_symmetry_space_group_name_H-M 'P 21/n'
_symmetry_Int_Tables_number 14
loop_
_symmetry_equiv_pos_site_id
_symmetry_equiv_pos_as_xyz
1 x,y,z
2 1/2-x,1/2+y,1/2-z
3 -x,-y,-z
4 -1/2+x,-1/2-y,-1/2+z
_cell_length_a 7.4550(15)
_cell_length_b 7.6800(15)
_cell_length_c 20.116(4)
_cell_angle_alpha 90
_cell_angle_beta 99.97(3)
_cell_angle_gamma 90
_cell_formula_units_Z 4
loop_
_atom_type_symbol
_atom_type_radius_bond
C 0.68
H 0.23
N 0.68
O 0.68
loop_
_atom_site_label
_atom_site_type_symbol
_atom_site_fract_x
_atom_site_fract_y
_atom_site_fract_z
O1 O -0.02455(13) 0.29007(13) 0.14854(5)
O2 O 0.15451(14) 0.25332(14) 0.24873(5)
N1 N 0.34738(17) 0.21741(17) 0.27392(6)
C1 C 0.21358(16) 0.30276(15) 0.01141(6)
C2 C 0.27997(16) 0.43916(15) 0.04898(6)
C3 C 0.35495(17) 0.42400(15) 0.12347(6)
H1 H 0.30780 0.52240 0.14720
H2 H 0.48910 0.43560 0.13010
C4 C 0.30794(16) 0.25212(15) 0.15662(6)
C5 C 0.42866(18) 0.21823(17) 0.22274(6)
C6 C 0.62308(18) 0.16841(19) 0.22629(6)
H3 H 0.67480 0.12880 0.27250
H4 H 0.69430 0.27000 0.21530
C7 C 0.63295(17) 0.02085(17) 0.17540(6)
H5 H 0.76160 0.00230 0.17070
H6 H 0.58770 -0.08820 0.19290
C8 C 0.52064(17) 0.06096(16) 0.10604(6)
H7 H 0.52930 -0.03820 0.07530
H8 H 0.57160 0.16500 0.08700
C9 C 0.31961(16) 0.09412(15) 0.11005(6)
H9 H 0.27200 -0.01020 0.13110
C10 C 0.20029(17) 0.12396(15) 0.04120(6)
H10 H 0.23360 0.03680 0.00920
H11 H 0.07180 0.10270 0.04550
C11 C 0.12566(18) 0.26760(16) 0.17966(6)
C12 C 0.14489(19) 0.31268(18) -0.06370(6)
H12 H 0.09440 0.42880 -0.07530
H13 H 0.04990 0.22480 -0.07650
H14 H 0.24580 0.29090 -0.08800
C13 C 0.29761(18) 0.61939(16) 0.02162(7)
H15 H 0.42540 0.64220 0.01880
H16 H 0.25570 0.70490 0.05170
H17 H 0.22320 0.62860 -0.02340
#END
