
#######################################################################
#
#                 Cambridge Crystallographic Data Centre
#                                CCDC
#
#######################################################################
#
# If this CIF has been generated from an entry in the Cambridge
# Structural Database, then it will include bibliographic, chemical,
# crystal, experimental, refinement or atomic coordinate data resulting
# from the CCDC's data processing and validation procedures.
#
#######################################################################

data_CSD_CIF_SUVJOK
_audit_creation_date 2015-12-21
_audit_creation_method CSD-ConQuest-V1
_database_code_CSD SUVJOK
_database_code_depnum_ccdc_archive 'CCDC 1443563'
_chemical_formula_sum 'C15 H24 N2 O3'
_chemical_formula_moiety
;
C15 H24 N2 O3
;
_journal_coden_Cambridge 1078
_journal_year 2015
_journal_name_full 'CSD Communication(Private Communication) '
loop_
_publ_author_name
"T.Y.Ishida"
_chemical_name_systematic
;
N,N'-di-t-butyl-5-methoxybenzene-1,3-diamine N,N'-dioxide
;
_chemical_melting_point 346
_cell_volume   3171.998
_exptl_crystal_colour 'orange'
_exptl_crystal_density_diffrn 1.174
_exptl_special_details
;
Magnetic properties
Air-sensitive

;
_exptl_crystal_description 'Block'
_diffrn_ambient_temperature 100
#These two values have been output from a single CSD field.
_refine_ls_R_factor_gt 0.0684
_refine_ls_wR_factor_gt 0.0684
_symmetry_cell_setting orthorhombic
_symmetry_space_group_name_H-M 'P c a 21'
_symmetry_Int_Tables_number 29
loop_
_symmetry_equiv_pos_site_id
_symmetry_equiv_pos_as_xyz
1 x,y,z
2 1/2-x,y,1/2+z
3 1/2+x,-y,z
4 -x,-y,1/2+z
_cell_length_a 11.255(3)
_cell_length_b 9.812(3)
_cell_length_c 28.723(7)
_cell_angle_alpha 90
_cell_angle_beta 90
_cell_angle_gamma 90
_cell_formula_units_Z 8
loop_
_atom_type_symbol
_atom_type_radius_bond
C 0.68
H 0.23
N 0.68
O 0.68
loop_
_atom_site_label
_atom_site_type_symbol
_atom_site_fract_x
_atom_site_fract_y
_atom_site_fract_z
O1 O 0.02421(18) 0.4223(3) 0.21634(11)
O2 O 0.20922(17) 0.09007(19) 0.38139(9)
O3 O -0.24497(17) 0.07347(18) 0.28156(9)
N1 N 0.0961(2) 0.3496(3) 0.24125(11)
N2 N 0.1144(3) 0.0268(3) 0.36822(11)
C1 C 0.0432(3) 0.2469(3) 0.26976(13)
C2 C 0.1041(3) 0.1841(3) 0.30505(13)
C3 C 0.0476(3) 0.0848(3) 0.33218(12)
C4 C -0.0706(3) 0.0507(3) 0.32316(13)
C5 C -0.1296(3) 0.1148(3) 0.28676(13)
C6 C -0.0758(3) 0.2129(3) 0.25958(13)
C7 C 0.2260(3) 0.3824(3) 0.23811(13)
C8 C 0.2420(4) 0.4774(4) 0.19636(17)
C9 C 0.2655(4) 0.4549(5) 0.28220(15)
C10 C 0.2982(4) 0.2528(4) 0.22830(16)
C11 C 0.0849(3) -0.1041(3) 0.39479(13)
C12 C 0.1963(4) -0.1456(4) 0.42057(18)
C13 C -0.0156(3) -0.0740(4) 0.42900(14)
C14 C 0.0532(4) -0.2164(4) 0.36018(17)
C15 C -0.3119(4) 0.1282(4) 0.24368(16)
H1 H 0.184(3) 0.205(3) 0.3140(11)
H2 H -0.113(3) -0.002(3) 0.3420(13)
H3 H -0.120(3) 0.256(3) 0.2303(14)
H4 H 0.192(3) 0.554(3) 0.2044(13)
H5 H 0.333(3) 0.495(3) 0.1942(12)
H6 H 0.224(3) 0.433(4) 0.1637(15)
H7 H 0.275(3) 0.395(4) 0.3050(13)
H8 H 0.348(3) 0.481(3) 0.2755(13)
H9 H 0.198(3) 0.529(4) 0.2908(14)
H10 H 0.275(3) 0.205(4) 0.2006(15)
H11 H 0.383(3) 0.282(4) 0.2238(14)
H12 H 0.298(3) 0.200(3) 0.2574(14)
H13 H 0.221(3) -0.077(4) 0.4453(14)
H14 H 0.184(3) -0.224(4) 0.4337(12)
H15 H 0.267(3) -0.159(3) 0.4003(13)
H16 H -0.107(3) -0.042(4) 0.4086(14)
H17 H -0.033(3) -0.145(4) 0.4501(13)
H18 H 0.007(3) -0.003(3) 0.4487(14)
H19 H 0.125(3) -0.231(4) 0.3383(14)
H20 H 0.040(3) -0.290(3) 0.3819(11)
H21 H -0.016(3) -0.205(3) 0.3478(13)
H22 H -0.327(3) 0.224(4) 0.2521(14)
H23 H -0.269(3) 0.113(3) 0.2131(13)
H24 H -0.395(3) 0.086(3) 0.2460(12)
O4 O 0.78338(19) 0.0831(3) 0.13257(11)
O5 O 0.98727(17) 0.40443(18) -0.03227(9)
O6 O 0.53710(16) 0.45358(19) 0.07018(9)
N3 N 0.8590(2) 0.1454(3) 0.10643(11)
N4 N 0.8927(2) 0.4711(3) -0.02004(11)
C16 C 0.8126(3) 0.2534(3) 0.07862(13)
C17 C 0.8749(3) 0.3096(3) 0.04200(12)
C18 C 0.8236(3) 0.4156(3) 0.01617(13)
C19 C 0.7100(3) 0.4606(4) 0.02628(14)
C20 C 0.6487(3) 0.4019(3) 0.06315(13)
C21 C 0.6988(3) 0.2999(3) 0.09015(14)
C22 C 0.9850(3) 0.0963(3) 0.10751(14)
C23 C 0.9960(4) -0.0003(4) 0.14887(17)
C24 C 1.0706(4) 0.2160(4) 0.11454(18)
C25 C 1.0102(4) 0.0167(4) 0.06291(16)
C26 C 0.8683(3) 0.6027(3) -0.04644(13)
C27 C 0.9795(4) 0.6386(4) -0.07394(16)
C28 C 0.7667(3) 0.5796(4) -0.07994(15)
C29 C 0.8441(4) 0.7188(4) -0.01150(15)
C30 C 0.4689(4) 0.4052(4) 0.10854(16)
H25 H 0.94210 0.28210 0.03600
H26 H 0.668(3) 0.527(3) 0.0086(12)
H27 H 0.659(3) 0.261(3) 0.1095(12)
H28 H 0.932(3) -0.078(4) 0.1459(13)
H29 H 1.087(4) -0.029(4) 0.1520(16)
H30 H 0.979(3) 0.043(4) 0.1816(14)
H31 H 1.050(3) 0.258(4) 0.1450(14)
H32 H 1.158(3) 0.177(3) 0.1186(13)
H33 H 1.073(4) 0.277(5) 0.0869(17)
H34 H 1.008(3) 0.070(3) 0.0336(12)
H35 H 1.096(3) -0.020(4) 0.0655(14)
H36 H 0.942(4) -0.060(4) 0.0545(16)
H37 H 0.987(4) 0.573(4) -0.1041(19)
H38 H 0.958(3) 0.723(4) -0.0936(15)
H39 H 1.040(3) 0.647(3) -0.0539(12)
H40 H 0.695(3) 0.567(3) -0.0663(10)
H41 H 0.763(3) 0.661(4) -0.0990(12)
H42 H 0.784(3) 0.501(4) -0.1039(16)
H43 H 0.908(4) 0.726(4) 0.0121(15)
H44 H 0.838(4) 0.799(4) -0.0285(16)
H45 H 0.764(4) 0.706(4) 0.0097(15)
H46 H 0.516(3) 0.426(3) 0.1350(12)
H47 H 0.393(3) 0.464(3) 0.1032(12)
H48 H 0.459(3) 0.313(3) 0.1071(11)
#END
