
#######################################################################
#
#                 Cambridge Crystallographic Data Centre
#                                CCDC
#
#######################################################################
#
# If this CIF has been generated from an entry in the Cambridge
# Structural Database, then it will include bibliographic, chemical,
# crystal, experimental, refinement or atomic coordinate data resulting
# from the CCDC's data processing and validation procedures.
#
#######################################################################

data_CSD_CIF_SUVLIE
_audit_creation_date 1999-03-12
_audit_creation_method CSD-ConQuest-V1
_database_code_CSD SUVLIE
_database_code_depnum_ccdc_archive 'CCDC 130916'
_chemical_formula_sum 'C16 H9 N1 O2'
_chemical_formula_moiety
;
C16 H9 N1 O2
;
_journal_coeditor_code "IUCr LN1068"
_journal_coden_Cambridge 591
_journal_volume 55
_journal_year 1999
_journal_page_first 106
_journal_name_full 'Acta Crystallogr.,Sect.C:Cryst.Struct.Commun. '
loop_
_publ_author_name
"H.S.Bengaard"
"S.Larsen"
"H.O.Sorensen"
"K.J.Robinson"
"J.D.Wallis"
_chemical_name_systematic
;
1-(2-Nitrophenyl)-4-phenylbutadiyne
;
_chemical_melting_point 433
_cell_volume   2371.265
_exptl_crystal_colour 'orange'
_exptl_crystal_density_diffrn 1.385
_exptl_crystal_description 'block'
_diffrn_ambient_temperature 122
#These two values have been output from a single CSD field.
_refine_ls_R_factor_gt 0.0364
_refine_ls_wR_factor_gt 0.0364
_symmetry_cell_setting orthorhombic
_symmetry_space_group_name_H-M 'P b c a'
_symmetry_Int_Tables_number 61
loop_
_symmetry_equiv_pos_site_id
_symmetry_equiv_pos_as_xyz
1 x,y,z
2 1/2-x,-y,1/2+z
3 -x,1/2+y,1/2-z
4 1/2+x,1/2-y,-z
5 -x,-y,-z
6 -1/2+x,y,-1/2-z
7 x,-1/2-y,-1/2+z
8 -1/2-x,-1/2+y,z
_cell_length_a 7.532(5)
_cell_length_b 13.278(2)
_cell_length_c 23.7103(10)
_cell_angle_alpha 90
_cell_angle_beta 90
_cell_angle_gamma 90
_cell_formula_units_Z 8
loop_
_atom_type_symbol
_atom_type_radius_bond
C 0.68
H 0.23
N 0.68
O 0.68
loop_
_atom_site_label
_atom_site_type_symbol
_atom_site_fract_x
_atom_site_fract_y
_atom_site_fract_z
O1 O 0.1311(2) 0.01525(7) 0.32021(4)
O2 O 0.2143(2) 0.07953(8) 0.24093(4)
N1 N 0.14290(15) 0.08618(8) 0.28768(5)
C1 C -0.0859(2) 0.11124(10) 0.38890(5)
C2 C -0.1383(2) 0.05055(10) 0.42271(5)
C3 C -0.1971(2) -0.01961(10) 0.46083(5)
C4 C -0.2476(2) -0.08086(9) 0.49459(5)
C5 C 0.0692(2) 0.18398(9) 0.30442(5)
C6 C -0.0365(2) 0.19249(9) 0.35274(5)
C7 C -0.1018(2) 0.28933(10) 0.36545(5)
C8 C -0.0632(2) 0.37115(10) 0.33167(6)
C9 C 0.0436(2) 0.35999(10) 0.28436(6)
C10 C 0.1098(2) 0.26606(10) 0.27052(6)
C11 C -0.3068(2) -0.15196(9) 0.53581(5)
C12 C -0.2646(2) -0.25486(10) 0.53059(6)
C13 C -0.3230(2) -0.32206(10) 0.57131(6)
C14 C -0.4208(2) -0.28904(10) 0.61699(6)
C15 C -0.4628(2) -0.18703(11) 0.62241(6)
C16 C -0.4063(2) -0.11905(10) 0.58189(6)
H1 H -0.1785(20) 0.2986(11) 0.3976(6)
H2 H -0.1092(22) 0.4407(12) 0.3420(6)
H3 H 0.0681(23) 0.4183(12) 0.2603(6)
H4 H 0.184(2) 0.2568(11) 0.2380(6)
H5 H -0.1873(21) -0.2762(11) 0.4987(6)
H6 H -0.2953(21) -0.3935(12) 0.5666(6)
H7 H -0.4595(23) -0.3356(13) 0.6462(6)
H8 H -0.5375(21) -0.1639(11) 0.6548(6)
H9 H -0.4332(20) -0.0481(11) 0.5838(6)
#END
