
#######################################################################
#
#                 Cambridge Crystallographic Data Centre
#                                CCDC
#
#######################################################################
#
# If this CIF has been generated from an entry in the Cambridge
# Structural Database, then it will include bibliographic, chemical,
# crystal, experimental, refinement or atomic coordinate data resulting
# from the CCDC's data processing and validation procedures.
#
#######################################################################

data_CSD_CIF_SUWFIZ
_audit_creation_date 1999-03-12
_audit_creation_method CSD-ConQuest-V1
_database_code_CSD SUWFIZ
_database_code_depnum_ccdc_archive 'CCDC 130963'
_chemical_formula_sum 'C13 H16 N4 O3'
_chemical_formula_moiety
;
C13 H16 N4 O3
;
_journal_coeditor_code "IUCr DE1090"
_journal_coden_Cambridge 591
_journal_volume 55
_journal_year 1999
_journal_page_first 252
_journal_name_full 'Acta Crystallogr.,Sect.C:Cryst.Struct.Commun. '
loop_
_publ_author_name
"S.Saha"
"A.Samanta"
_chemical_name_systematic
;
4-Heptamethyleneimino-7-nitrobenzo-2-oxa-1,3-diazole
;
_cell_volume   1300.249
_exptl_crystal_colour 'red'
_exptl_crystal_density_diffrn 1.412
_exptl_crystal_description 'plate'
_exptl_crystal_preparation 'absolute ethanol'
_diffrn_ambient_temperature ?
_diffrn_special_details
;
The study was carried out at room temperature,in the range 283-303K

;
#These two values have been output from a single CSD field.
_refine_ls_R_factor_gt 0.05
_refine_ls_wR_factor_gt 0.05
_symmetry_cell_setting triclinic
_symmetry_space_group_name_H-M 'P -1'
_symmetry_Int_Tables_number 2
loop_
_symmetry_equiv_pos_site_id
_symmetry_equiv_pos_as_xyz
1 x,y,z
2 -x,-y,-z
_cell_length_a 6.685(2)
_cell_length_b 13.2357(11)
_cell_length_c 14.8763(19)
_cell_angle_alpha 93.677(9)
_cell_angle_beta 98.114(16)
_cell_angle_gamma 90.359(14)
_cell_formula_units_Z 4
loop_
_atom_type_symbol
_atom_type_radius_bond
C 0.68
H 0.23
N 0.68
O 0.68
loop_
_atom_site_label
_atom_site_type_symbol
_atom_site_fract_x
_atom_site_fract_y
_atom_site_fract_z
N1 N 0.0353(3) 0.45340(16) 0.23988(15)
N2 N 0.3848(3) 0.33284(18) 0.58640(16)
O1 O 0.4415(3) 0.24516(16) 0.59472(15)
O2 O 0.1731(3) 0.15631(13) 0.33290(14)
O3 O 0.4055(3) 0.39841(16) 0.65001(14)
N3 N 0.1159(3) 0.23693(17) 0.28238(16)
N4 N 0.2529(3) 0.18649(16) 0.42228(16)
N5 N 0.1234(3) 0.82255(18) 0.41805(16)
N6 N 0.4574(3) 0.99222(16) 0.76864(15)
O4 O 0.1064(3) 0.87900(17) 0.35501(14)
O5 O 0.3296(3) 0.68111(13) 0.67148(14)
N7 N 0.2528(3) 0.69888(16) 0.58209(16)
O6 O 0.0647(3) 0.73358(16) 0.40940(15)
N8 N 0.3833(4) 0.76918(17) 0.72346(17)
C1 C 0.1186(4) 0.42332(18) 0.32166(17)
C2 C 0.1697(4) 0.4898(2) 0.39794(18)
H1 H 0.14720 0.55860 0.39220
C3 C 0.2531(4) 0.4580(2) 0.48245(18)
H2 H 0.28270 0.50680 0.53040
C4 C 0.2939(4) 0.35973(18) 0.49889(17)
C5 C 0.2427(4) 0.28593(18) 0.42563(17)
C6 C 0.1571(4) 0.31727(19) 0.33803(17)
C7 C 0.0225(5) 0.3886(2) 0.15541(19)
H3 H -0.06250 0.42100 0.10760
H4 H -0.04200 0.32480 0.16420
C8 C 0.2281(5) 0.3669(3) 0.1243(2)
H5 H 0.20660 0.35100 0.05910
H6 H 0.28270 0.30710 0.15280
C9 C 0.3883(5) 0.4534(3) 0.1458(2)
H7 H 0.39920 0.47340 0.21020
H8 H 0.51770 0.42590 0.13510
C10 C 0.3554(6) 0.5467(3) 0.0946(3)
H9 H 0.34830 0.52660 0.03040
H10 H 0.47440 0.58980 0.11120
C11 C 0.1729(5) 0.6104(3) 0.1063(2)
H11 H 0.05570 0.57740 0.07020
H12 H 0.19160 0.67510 0.08120
C12 C 0.1256(5) 0.6308(2) 0.2026(2)
H13 H 0.25010 0.62740 0.24440
H14 H 0.07580 0.69920 0.20860
C13 C -0.0278(4) 0.5588(2) 0.2307(2)
H15 H -0.06380 0.58510 0.28850
H16 H -0.14880 0.55900 0.18630
C14 C 0.2124(4) 0.86164(19) 0.50631(17)
C15 C 0.2534(4) 0.9629(2) 0.52389(18)
H17 H 0.22700 1.00500 0.47610
C16 C 0.3324(4) 1.0065(2) 0.60924(18)
H18 H 0.35500 1.07610 0.61570
C17 C 0.3792(4) 0.95069(19) 0.68548(17)
C18 C 0.3428(4) 0.84201(19) 0.66789(17)
C19 C 0.2609(4) 0.79815(18) 0.57943(17)
C20 C 0.5200(4) 1.0994(2) 0.7790(2)
H19 H 0.56160 1.11780 0.72220
H20 H 0.63740 1.10690 0.82540
C21 C 0.3623(5) 1.1741(2) 0.8040(2)
H21 H 0.24070 1.16320 0.76030
H22 H 0.41190 1.24210 0.79850
C22 C 0.3062(5) 1.1675(3) 0.8998(2)
H23 H 0.42050 1.14020 0.93780
H24 H 0.28600 1.23570 0.92440
C23 C 0.1197(6) 1.1040(3) 0.9079(2)
H25 H 0.12080 1.09250 0.97170
H26 H 0.00180 1.14410 0.88940
C24 C 0.0914(5) 1.0023(3) 0.8548(2)
H27 H 0.08750 1.01360 0.79080
H28 H -0.03970 0.97500 0.86240
C25 C 0.2478(5) 0.9224(2) 0.8788(2)
H29 H 0.19580 0.85800 0.84960
H30 H 0.26250 0.91620 0.94400
C26 C 0.4577(5) 0.9403(2) 0.8527(2)
H31 H 0.53820 0.98000 0.90210
H32 H 0.52260 0.87540 0.84600
#END
