
#######################################################################
#
#                 Cambridge Crystallographic Data Centre
#                                CCDC
#
#######################################################################
#
# If this CIF has been generated from an entry in the Cambridge
# Structural Database, then it will include bibliographic, chemical,
# crystal, experimental, refinement or atomic coordinate data resulting
# from the CCDC's data processing and validation procedures.
#
#######################################################################

data_CSD_CIF_SUWYAK
_audit_creation_date 2001-11-29
_audit_creation_method CSD-ConQuest-V1
_database_code_CSD SUWYAK
_database_code_depnum_ccdc_archive 'CCDC 162156'
_chemical_formula_sum 'C19 H16 N2 O3'
_chemical_formula_moiety
;
C19 H16 N2 O3
;
_journal_coden_Cambridge 1291
_journal_year 2001
_journal_page_first 3147
_journal_name_full 'Eur.J.Org.Chem. '
loop_
_publ_author_name
"L.Greci"
"G.Tommasi"
"P.Bruni"
"P.Sgarabotto"
"L.Righi"
_chemical_name_systematic
;
endo-3a,10,10a,10b-Tetrahydro-2-methyl-10a-phenylpyrrolo[3',4':4,5]isoxazolo[2
,3-a]indole-1,3-dione
;
_chemical_melting_point 430.15
_cell_volume   1591.778
_exptl_crystal_density_diffrn 1.337
_exptl_crystal_preparation 'ethanol'
_diffrn_ambient_temperature 298
#These two values have been output from a single CSD field.
_refine_ls_R_factor_gt 0.05
_refine_ls_wR_factor_gt 0.05
_symmetry_cell_setting monoclinic
_symmetry_space_group_name_H-M 'P 21/n'
_symmetry_Int_Tables_number 14
loop_
_symmetry_equiv_pos_site_id
_symmetry_equiv_pos_as_xyz
1 x,y,z
2 1/2+x,1/2-y,1/2+z
3 -x,-y,-z
4 -1/2-x,-1/2+y,-1/2-z
_cell_length_a 21.88(2)
_cell_length_b 11.010(7)
_cell_length_c 6.623(5)
_cell_angle_alpha 90
_cell_angle_beta 93.9(1)
_cell_angle_gamma 90
_cell_formula_units_Z 4
loop_
_atom_type_symbol
_atom_type_radius_bond
C 0.68
H 0.23
N 0.68
O 0.68
loop_
_atom_site_label
_atom_site_type_symbol
_atom_site_fract_x
_atom_site_fract_y
_atom_site_fract_z
N1 N 0.0902(1) -0.0313(3) 0.7205(4)
C1 C 0.1254(2) 0.0536(3) 0.8586(5)
C2 C 0.0936(2) 0.0381(4) 1.0595(6)
O1 O 0.1317(1) -0.0725(2) 0.5741(4)
C3 C 0.0699(2) -0.0897(4) 1.0437(6)
C4 C 0.0479(2) -0.1658(4) 1.1868(7)
C5 C 0.0286(2) -0.2808(5) 1.1278(8)
C6 C 0.0305(2) -0.3181(4) 0.9291(8)
C7 C 0.0510(2) -0.2405(3) 0.7822(7)
C8 C 0.0700(2) -0.1267(3) 0.8448(6)
C9 C 0.1242(2) 0.1819(3) 0.7756(6)
C10 C 0.1031(2) 0.2086(4) 0.5812(7)
C11 C 0.1039(3) 0.3282(4) 0.5088(10)
C12 C 0.1249(2) 0.4203(4) 0.6329(12)
C13 C 0.1451(2) 0.3954(4) 0.8285(12)
C14 C 0.1454(2) 0.2757(4) 0.9021(9)
C15 C 0.1909(2) -0.0851(3) 0.6823(5)
C16 C 0.2002(2) -0.2101(3) 0.7716(6)
O2 O 0.1972(1) -0.3067(3) 0.6822(5)
N2 N 0.2145(1) -0.1978(3) 0.9753(5)
C17 C 0.2125(2) -0.0779(3) 1.0396(6)
O3 O 0.2257(1) -0.0467(3) 1.2115(4)
C18 C 0.1924(2) 0.0012(3) 0.8620(5)
C19 C 0.2279(3) -0.2993(5) 1.1104(10)
H1 H 0.1225(19) 0.0521(36) 1.178(6)
H2 H 0.0573(19) 0.1021(38) 1.0459(60)
H3 H 0.0465(26) -0.1359(44) 1.3368(90)
H4 H 0.0117(23) -0.3273(50) 1.2346(78)
H5 H 0.0200(22) -0.3963(45) 0.8992(67)
H6 H 0.053(2) -0.2632(38) 0.6533(72)
H7 H 0.0907(25) 0.1398(46) 0.4913(90)
H8 H 0.0833(32) 0.3397(61) 0.365(12)
H9 H 0.1216(32) 0.5041(71) 0.571(10)
H10 H 0.1598(26) 0.4576(51) 0.9140(83)
H11 H 0.1563(26) 0.2628(50) 1.0597(96)
H12 H 0.2222(21) -0.0728(44) 0.568(7)
H13 H 0.2221(16) 0.0639(34) 0.8598(53)
H14 H 0.2704(46) -0.3165(81) 1.105(14)
H15 H 0.2252(36) -0.2780(67) 1.246(13)
H16 H 0.2087(41) -0.3729(81) 1.046(14)
#END
