
#######################################################################
#
#                 Cambridge Crystallographic Data Centre
#                                CCDC
#
#######################################################################
#
# If this CIF has been generated from an entry in the Cambridge
# Structural Database, then it will include bibliographic, chemical,
# crystal, experimental, refinement or atomic coordinate data resulting
# from the CCDC's data processing and validation procedures.
#
#######################################################################

data_CSD_CIF_SUWYEO
_audit_creation_date 2001-11-29
_audit_creation_method CSD-ConQuest-V1
_database_code_CSD SUWYEO
_database_code_depnum_ccdc_archive 'CCDC 162157'
_chemical_formula_sum 'C24 H18 N2 O3'
_chemical_formula_moiety
;
C24 H18 N2 O3
;
_journal_coden_Cambridge 1291
_journal_year 2001
_journal_page_first 3147
_journal_name_full 'Eur.J.Org.Chem. '
loop_
_publ_author_name
"L.Greci"
"G.Tommasi"
"P.Bruni"
"P.Sgarabotto"
"L.Righi"
_chemical_name_systematic
;
endo-3a,10,10a,10b-Tetrahydro-2,10a-diphenylpyrrolo[3',4':4,5]isoxazolo[2,3-a]
indole-1,3-dione
;
_chemical_melting_point 441.15
_cell_volume   1887.651
_exptl_crystal_density_diffrn 1.346
_exptl_crystal_preparation 'ethanol'
_diffrn_ambient_temperature 298
#These two values have been output from a single CSD field.
_refine_ls_R_factor_gt 0.044
_refine_ls_wR_factor_gt 0.044
_symmetry_cell_setting monoclinic
_symmetry_space_group_name_H-M 'P 21/c'
_symmetry_Int_Tables_number 14
loop_
_symmetry_equiv_pos_site_id
_symmetry_equiv_pos_as_xyz
1 x,y,z
2 x,1/2-y,1/2+z
3 -x,-y,-z
4 -x,-1/2+y,-1/2-z
_cell_length_a 11.113(5)
_cell_length_b 6.957(2)
_cell_length_c 24.72(1)
_cell_angle_alpha 90
_cell_angle_beta 99.0(1)
_cell_angle_gamma 90
_cell_formula_units_Z 4
loop_
_atom_type_symbol
_atom_type_radius_bond
C 0.68
H 0.23
N 0.68
O 0.68
loop_
_atom_site_label
_atom_site_type_symbol
_atom_site_fract_x
_atom_site_fract_y
_atom_site_fract_z
C1 C 0.5736(3) -0.0208(5) 0.5868(2)
C2 C 0.6070(3) 0.1852(5) 0.6069(1)
N1 N 0.5188(2) 0.3058(4) 0.5704(1)
C3 C 0.4116(3) 0.1910(5) 0.5575(1)
C4 C 0.2946(3) 0.2542(6) 0.5372(2)
C5 C 0.2051(3) 0.1158(6) 0.5248(2)
C6 C 0.2323(4) -0.0779(7) 0.5310(2)
C7 C 0.3496(4) -0.1375(6) 0.5507(2)
C8 C 0.4394(3) -0.0018(5) 0.5648(1)
C9 C 0.7381(3) 0.2418(6) 0.6036(1)
C10 C 0.7672(4) 0.4171(7) 0.5837(2)
C11 C 0.8880(4) 0.4687(9) 0.5825(2)
C12 C 0.9804(4) 0.3394(10) 0.6007(2)
C13 C 0.9529(4) 0.1651(10) 0.6203(2)
C14 C 0.8314(3) 0.1134(8) 0.6218(2)
O1 O 0.4985(2) 0.4765(3) 0.6013(1)
C15 C 0.5011(3) 0.4166(5) 0.6570(1)
C16 C 0.3748(3) 0.3610(5) 0.6690(1)
O2 O 0.2838(2) 0.4574(4) 0.6615(1)
N2 N 0.3823(2) 0.1764(4) 0.6903(1)
C17 C 0.4970(3) 0.0932(5) 0.6904(1)
O3 O 0.5262(2) -0.0639(4) 0.7088(1)
C18 C 0.5771(3) 0.2344(5) 0.6658(1)
C19 C 0.2859(3) 0.0813(5) 0.7121(1)
C20 C 0.2478(3) -0.0988(5) 0.6934(2)
C21 C 0.1562(3) -0.1899(6) 0.7155(2)
C22 C 0.1045(3) -0.1023(7) 0.7562(2)
C23 C 0.1435(3) 0.0773(7) 0.7752(2)
C24 C 0.2342(3) 0.1716(5) 0.7529(1)
H1 H 0.5321(35) 0.5281(59) 0.6769(16)
H2 H 0.5916(30) -0.1142(54) 0.6158(14)
H3 H 0.6195(33) -0.0624(57) 0.5553(16)
H4 H 0.2673(30) 0.2996(53) 0.7638(14)
H5 H 0.654(3) 0.2513(50) 0.6920(15)
H6 H 0.3652(35) -0.2813(69) 0.5573(18)
H7 H 0.1319(34) -0.3213(61) 0.7015(16)
H8 H 0.7071(37) 0.5124(57) 0.5707(17)
H9 H 0.2739(35) 0.3980(68) 0.5344(17)
H10 H 1.0645(50) 0.3901(85) 0.5980(23)
H11 H 0.8134(41) -0.0266(68) 0.6337(20)
H12 H 0.1087(38) 0.1433(68) 0.8038(19)
H13 H 0.0400(44) -0.1672(69) 0.775(2)
H14 H 0.1692(37) -0.1710(62) 0.5235(18)
H15 H 0.2907(40) -0.1553(67) 0.6672(19)
H16 H 0.1171(40) 0.1606(66) 0.5129(18)
H17 H 1.0188(53) 0.0764(88) 0.6335(24)
H18 H 0.9120(49) 0.6092(89) 0.5718(24)
#END
