
#######################################################################
#
#                 Cambridge Crystallographic Data Centre
#                                CCDC
#
#######################################################################
#
# If this CIF has been generated from an entry in the Cambridge
# Structural Database, then it will include bibliographic, chemical,
# crystal, experimental, refinement or atomic coordinate data resulting
# from the CCDC's data processing and validation procedures.
#
#######################################################################

data_CSD_CIF_SUXZOC
_audit_creation_date 2015-12-24
_audit_creation_method CSD-ConQuest-V1
_database_code_CSD SUXZOC
_database_code_depnum_ccdc_archive 'CCDC 1419562'
_chemical_formula_sum 'C23 H36 N1 O5'
_chemical_formula_moiety
;
C23 H36 N1 O5
;
_journal_coden_Cambridge 119
_journal_volume 1108
_journal_year 2016
_journal_page_first 611
_journal_name_full 'J.Mol.Struct. '
loop_
_publ_author_name
"Xiao-he Zhu"
"Jin Sun"
"Shan Wang"
"Wei Bu"
"Min-na Yao"
"Kai Gao"
"Ying Song"
"Jin-yi Zhao"
"Cheng-tao Lu"
"En-hu Zhang"
"Zhi-fu Yang"
"Ai-dong Wen"
_chemical_name_systematic
;
(4-((3-(ethoxycarbonyl)tricyclo[3.3.1.1^3,7^]decane-1-carbonyl)oxy)-2,2,6,6-te
tramethylpiperidin-1-yl)oxidanyl radical
;
_chemical_name_common
;
(4-((3-(ethoxycarbonyl)adamantane-1-carbonyl)oxy)-2,2,6,6-tetramethylpiperidin
-1-yl)oxidanyl radical
;
_cell_volume   2293.332
_exptl_crystal_density_diffrn 1.177
_diffrn_ambient_temperature 296
#These two values have been output from a single CSD field.
_refine_ls_R_factor_gt 0.0533
_refine_ls_wR_factor_gt 0.0533
_symmetry_cell_setting orthorhombic
_symmetry_space_group_name_H-M 'P 21 21 21'
_symmetry_Int_Tables_number 19
loop_
_symmetry_equiv_pos_site_id
_symmetry_equiv_pos_as_xyz
1 x,y,z
2 1/2-x,-y,1/2+z
3 -x,1/2+y,1/2-z
4 1/2+x,1/2-y,-z
_cell_length_a 6.2956(9)
_cell_length_b 15.077(2)
_cell_length_c 24.161(4)
_cell_angle_alpha 90
_cell_angle_beta 90
_cell_angle_gamma 90
_cell_formula_units_Z 4
loop_
_atom_type_symbol
_atom_type_radius_bond
C 0.68
H 0.23
N 0.68
O 0.68
loop_
_atom_site_label
_atom_site_type_symbol
_atom_site_fract_x
_atom_site_fract_y
_atom_site_fract_z
N1 N 0.6836(4) 0.21370(14) 0.27397(9)
O1 O 0.0419(4) 0.0659(2) -0.07491(10)
O2 O -0.2568(5) 0.0833(2) -0.03058(10)
O3 O 0.0036(4) 0.0394(3) 0.20030(12)
O4 O 0.3053(3) 0.07471(15) 0.16245(8)
O5 O 0.8112(5) 0.25576(15) 0.30553(10)
C1 C -0.4842(10) 0.2005(3) -0.0478(2)
H1 H -0.60800 0.16620 -0.03890
H2 H -0.52180 0.24640 -0.07350
H3 H -0.42840 0.22680 -0.01460
C2 C -0.3326(10) 0.1462(4) -0.0712(2)
H4 H -0.21490 0.18180 -0.08450
H5 H -0.39320 0.11470 -0.10240
C3 C -0.0684(5) 0.0480(2) -0.03682(11)
C4 C -0.0135(4) -0.01464(17) 0.00981(9)
C5 C 0.1884(4) -0.0676(2) -0.00363(10)
H6 H 0.16640 -0.10240 -0.03690
H7 H 0.30570 -0.02720 -0.01020
C6 C 0.2411(4) -0.12844(19) 0.04438(10)
H8 H 0.36910 -0.16240 0.03530
C7 C 0.2830(4) -0.07373(19) 0.09671(10)
H9 H 0.40070 -0.03350 0.09040
H10 H 0.32020 -0.11280 0.12710
C8 C 0.0827(4) -0.02084(16) 0.11139(9)
C9 C 0.0270(4) 0.04025(16) 0.06257(10)
H11 H 0.14290 0.08140 0.05610
H12 H -0.09890 0.07450 0.07150
C10 C -0.1973(4) -0.07895(18) 0.02095(9)
H13 H -0.32500 -0.04580 0.02970
H14 H -0.22470 -0.11420 -0.01180
C11 C -0.1402(4) -0.13974(17) 0.06932(11)
H15 H -0.25790 -0.18090 0.07600
C12 C 0.0592(5) -0.19257(19) 0.05529(13)
H16 H 0.03410 -0.22880 0.02280
H17 H 0.09530 -0.23150 0.08580
C13 C -0.1018(4) -0.08435(18) 0.12141(10)
H18 H -0.22880 -0.05100 0.13050
H19 H -0.06910 -0.12310 0.15230
C14 C 0.1199(4) 0.03536(19) 0.16217(11)
C15 C 0.3655(5) 0.13102(17) 0.20859(11)
H20 H 0.24060 0.15890 0.22540
C16 C 0.4870(5) 0.07742(17) 0.25038(11)
H21 H 0.60210 0.04680 0.23170
H22 H 0.39330 0.03280 0.26590
C17 C 0.5796(5) 0.13338(17) 0.29768(10)
C18 C 0.5967(5) 0.26445(18) 0.22643(11)
C19 C 0.5094(5) 0.19864(19) 0.18379(11)
H23 H 0.43250 0.23110 0.15550
H24 H 0.62740 0.16870 0.16600
C20 C 0.4089(7) 0.1616(3) 0.33881(13)
H25 H 0.46930 0.20150 0.36550
H26 H 0.35440 0.11020 0.35750
H27 H 0.29570 0.19080 0.31940
C21 C 0.7498(7) 0.0807(2) 0.32720(13)
H28 H 0.86700 0.07090 0.30250
H29 H 0.69260 0.02470 0.33880
H30 H 0.79790 0.11320 0.35900
C22 C 0.4260(6) 0.3289(2) 0.24683(16)
H31 H 0.30430 0.29610 0.25930
H32 H 0.38510 0.36760 0.21710
H33 H 0.48140 0.36350 0.27690
C23 C 0.7791(7) 0.3166(2) 0.20094(16)
H34 H 0.83430 0.35760 0.22770
H35 H 0.72870 0.34870 0.16920
H36 H 0.88950 0.27650 0.18980
#END
