
#######################################################################
#
#                 Cambridge Crystallographic Data Centre
#                                CCDC
#
#######################################################################
#
# If this CIF has been generated from an entry in the Cambridge
# Structural Database, then it will include bibliographic, chemical,
# crystal, experimental, refinement or atomic coordinate data resulting
# from the CCDC's data processing and validation procedures.
#
#######################################################################

data_CSD_CIF_SUYREK
_audit_creation_date 2011-01-04
_audit_creation_method CSD-ConQuest-V1
_database_code_CSD SUYREK
_database_code_depnum_ccdc_archive 'CCDC 792339'
_chemical_formula_sum 'C8 H15 N3 O4'
_chemical_formula_moiety
;
C8 H15 N3 O4
;
_journal_coeditor_code "IUCr HB5567"
_journal_coden_Cambridge 1370
_journal_volume 66
_journal_year 2010
_journal_page_first o2216
_journal_name_full 'Acta Crystallogr.,Sect.E:Struct.Rep.Online '
loop_
_publ_author_name
"Dongmei Li"
"Zhongzhen Tian"
"Gaolei Wang"
"Peifeng Wei"
"Yanming Zhang"
_chemical_name_systematic
;
(E)-1-(2,2-Dimethoxyethyl)-2-(nitromethylidene)imidazolidine
;
_cell_volume   1020.195
_exptl_crystal_colour 'colorless'
_exptl_crystal_density_diffrn 1.414
_exptl_crystal_description 'prism'
_diffrn_ambient_temperature 296
#These two values have been output from a single CSD field.
_refine_ls_R_factor_gt 0.0365
_refine_ls_wR_factor_gt 0.0365
_symmetry_cell_setting monoclinic
_symmetry_space_group_name_H-M 'P 21/c'
_symmetry_Int_Tables_number 14
loop_
_symmetry_equiv_pos_site_id
_symmetry_equiv_pos_as_xyz
1 x,y,z
2 -x,1/2+y,1/2-z
3 -x,-y,-z
4 x,-1/2-y,-1/2+z
_cell_length_a 10.444(2)
_cell_length_b 6.8676(17)
_cell_length_c 14.441(3)
_cell_angle_alpha 90
_cell_angle_beta 99.953(14)
_cell_angle_gamma 90
_cell_formula_units_Z 4
loop_
_atom_type_symbol
_atom_type_radius_bond
C 0.68
H 0.23
N 0.68
O 0.68
loop_
_atom_site_label
_atom_site_type_symbol
_atom_site_fract_x
_atom_site_fract_y
_atom_site_fract_z
C1 C 0.00359(12) 0.08330(19) 0.63950(8)
H1 H 0.05620 0.08600 0.59370
C2 C 0.06233(12) 0.08637(17) 0.73529(8)
C3 C 0.09094(16) 0.0794(2) 0.89827(9)
H2 H 0.08160 -0.03870 0.93330
H3 H 0.07740 0.19130 0.93640
C4 C 0.22254(15) 0.0880(2) 0.86762(9)
H4 H 0.27010 0.20360 0.89210
H5 H 0.27410 -0.02620 0.88880
C5 C 0.29097(12) 0.08628(19) 0.70666(9)
H6 H 0.25330 0.03860 0.64470
H7 H 0.35730 -0.00570 0.73420
C6 C 0.35394(11) 0.28135(19) 0.69663(8)
H8 H 0.36430 0.34830 0.75740
C7 C 0.31179(18) 0.5845(2) 0.62367(12)
H9 H 0.33230 0.64100 0.68530
H10 H 0.24460 0.65940 0.58600
H11 H 0.38800 0.58460 0.59480
C8 C 0.48007(15) 0.1666(3) 0.58408(11)
H12 H 0.44950 0.03540 0.58730
H13 H 0.56760 0.16500 0.57190
H14 H 0.42520 0.23490 0.53430
N1 N -0.12619(11) 0.07657(17) 0.61267(8)
N2 N 0.00157(12) 0.0812(2) 0.80881(8)
H15 H -0.08160 0.07920 0.80410
N3 N 0.19059(11) 0.09392(17) 0.76437(7)
O1 O -0.17315(10) 0.07294(17) 0.52580(7)
O2 O -0.20198(10) 0.0741(2) 0.67215(8)
O3 O 0.26831(8) 0.39078(13) 0.63099(6)
O4 O 0.47709(8) 0.26264(15) 0.67127(6)
#END
