
#######################################################################
#
#                 Cambridge Crystallographic Data Centre
#                                CCDC
#
#######################################################################
#
# If this CIF has been generated from an entry in the Cambridge
# Structural Database, then it will include bibliographic, chemical,
# crystal, experimental, refinement or atomic coordinate data resulting
# from the CCDC's data processing and validation procedures.
#
#######################################################################

data_CSD_CIF_SUYXOA
_audit_creation_date 2010-12-14
_audit_creation_method CSD-ConQuest-V1
_database_code_CSD SUYXOA
_database_code_depnum_ccdc_archive 'CCDC 792365'
_chemical_formula_sum 'C10 H11 N1 O4'
_chemical_formula_moiety
;
C10 H11 N1 O4
;
_journal_coeditor_code "IUCr LH5097"
_journal_coden_Cambridge 1370
_journal_volume 66
_journal_year 2010
_journal_page_first o2249
_journal_name_full 'Acta Crystallogr.,Sect.E:Struct.Rep.Online '
loop_
_publ_author_name
"Yuehong Ren"
"Ruitao Zhu"
_chemical_name_systematic
;
1,2-Dimethoxy-3-(2-nitrovinyl)benzene
;
_cell_volume   1030.408
_exptl_crystal_colour 'colorless'
_exptl_crystal_density_diffrn 1.349
_exptl_crystal_description 'flake'
_diffrn_ambient_temperature 296
#These two values have been output from a single CSD field.
_refine_ls_R_factor_gt 0.058
_refine_ls_wR_factor_gt 0.058
_symmetry_cell_setting monoclinic
_symmetry_space_group_name_H-M 'P 21/c'
_symmetry_Int_Tables_number 14
loop_
_symmetry_equiv_pos_site_id
_symmetry_equiv_pos_as_xyz
1 x,y,z
2 -x,1/2+y,1/2-z
3 -x,-y,-z
4 x,-1/2-y,-1/2+z
_cell_length_a 5.3558(7)
_cell_length_b 13.5897(11)
_cell_length_c 14.2646(12)
_cell_angle_alpha 90
_cell_angle_beta 97.038(1)
_cell_angle_gamma 90
_cell_formula_units_Z 4
loop_
_atom_type_symbol
_atom_type_radius_bond
C 0.68
H 0.23
N 0.68
O 0.68
loop_
_atom_site_label
_atom_site_type_symbol
_atom_site_fract_x
_atom_site_fract_y
_atom_site_fract_z
N1 N 0.8816(4) 0.34090(16) 0.43863(15)
O1 O 1.0954(4) 0.35541(16) 0.47743(16)
O2 O 0.7912(4) 0.25907(15) 0.42869(17)
O3 O 0.1183(3) 0.38811(12) 0.21248(12)
O4 O -0.2003(3) 0.53204(13) 0.14689(13)
C1 C 0.7376(5) 0.4265(2) 0.40583(19)
H1 H 0.79900 0.48870 0.42340
C2 C 0.5216(5) 0.4187(2) 0.35173(16)
H2 H 0.46840 0.35560 0.33350
C3 C 0.3580(4) 0.50020(18) 0.31776(16)
C4 C 0.1580(4) 0.48261(15) 0.24744(16)
C5 C -0.0092(4) 0.55801(18) 0.21569(17)
C6 C 0.0260(5) 0.65146(18) 0.2532(2)
H3 H -0.08440 0.70190 0.23240
C7 C 0.2273(5) 0.6697(2) 0.3224(2)
H4 H 0.25150 0.73280 0.34700
C8 C 0.3908(5) 0.5959(2) 0.35469(18)
H5 H 0.52370 0.60920 0.40120
C9 C 0.2010(7) 0.3753(2) 0.1216(2)
H6 H 0.11210 0.42020 0.07740
H7 H 0.16820 0.30900 0.10050
H8 H 0.37830 0.38820 0.12590
C10 C -0.3741(5) 0.6077(2) 0.11368(19)
H9 H -0.45380 0.63270 0.16550
H10 H -0.49940 0.58110 0.06660
H11 H -0.28580 0.66000 0.08670
#END
