
#######################################################################
#
#                 Cambridge Crystallographic Data Centre
#                                CCDC
#
#######################################################################
#
# If this CIF has been generated from an entry in the Cambridge
# Structural Database, then it will include bibliographic, chemical,
# crystal, experimental, refinement or atomic coordinate data resulting
# from the CCDC's data processing and validation procedures.
#
#######################################################################

data_CSD_CIF_SUZCIB
_audit_creation_date 2015-12-24
_audit_creation_method CSD-ConQuest-V1
_database_code_CSD SUZCIB
_database_code_depnum_ccdc_archive 'CCDC 1058304; CCDC 982707'
_chemical_formula_sum 'C22 H17 N3 O3'
_chemical_formula_moiety
;
C22 H17 N3 O3
;
_journal_coden_Cambridge 119
_journal_volume 1108
_journal_year 2016
_journal_page_first 637
_journal_name_full 'J.Mol.Struct. '
loop_
_publ_author_name
"S.Demir"
"F.Tinmaz"
"N.Dege"
"I.O.Ilhan"
_chemical_name_systematic
;
(3,5-diphenyl-4,5-dihydro-1H-pyrazol-1-yl)(2-nitrophenyl)methanone
;
_cell_volume   1843.861
_exptl_crystal_colour 'yellow'
_exptl_crystal_density_diffrn 1.338
_exptl_crystal_description 'prism'
_diffrn_ambient_temperature 296
#These two values have been output from a single CSD field.
_refine_ls_R_factor_gt 0.0451
_refine_ls_wR_factor_gt 0.0451
_symmetry_cell_setting monoclinic
_symmetry_space_group_name_H-M 'P 21/c'
_symmetry_Int_Tables_number 14
loop_
_symmetry_equiv_pos_site_id
_symmetry_equiv_pos_as_xyz
1 x,y,z
2 -x,1/2+y,1/2-z
3 -x,-y,-z
4 x,-1/2-y,-1/2+z
_cell_length_a 7.8362(3)
_cell_length_b 15.5733(5)
_cell_length_c 15.3004(6)
_cell_angle_alpha 90
_cell_angle_beta 99.067(3)
_cell_angle_gamma 90
_cell_formula_units_Z 4
loop_
_atom_type_symbol
_atom_type_radius_bond
C 0.68
H 0.23
N 0.68
O 0.68
loop_
_atom_site_label
_atom_site_type_symbol
_atom_site_fract_x
_atom_site_fract_y
_atom_site_fract_z
N1 N 0.51515(16) 0.06807(7) 0.74193(8)
O1 O 0.67959(14) 0.12964(7) 0.85795(7)
N2 N 0.44868(15) -0.00467(7) 0.69620(8)
C1 C 0.61244(17) 0.06490(9) 0.82320(9)
C2 C 0.37314(18) 0.01910(9) 0.61942(9)
O2 O 0.92992(16) 0.00293(9) 0.81300(9)
C3 C 0.46332(19) 0.14906(9) 0.69420(9)
H1 H 0.56560 0.18370 0.68890
C4 C 0.34004(18) 0.19943(9) 0.74144(8)
C5 C 0.29111(18) -0.04366(9) 0.55435(9)
C6 C 0.19862(19) 0.16022(10) 0.76853(10)
H2 H 0.18140 0.10160 0.75980
C7 C 0.3827(2) 0.11422(9) 0.60333(9)
H3 H 0.26870 0.13830 0.58450
H4 H 0.45500 0.12670 0.55900
C8 C 0.61701(18) -0.01919(9) 0.87197(9)
C9 C 0.76600(19) -0.06281(10) 0.90645(10)
C10 C 0.3649(2) 0.28629(9) 0.75632(10)
H5 H 0.45960 0.31340 0.73860
C11 C 0.46256(19) -0.04946(10) 0.89491(10)
H6 H 0.35920 -0.02270 0.87190
C12 C 0.2819(2) -0.13029(10) 0.57534(10)
H7 H 0.32710 -0.14890 0.63200
C13 C 0.0829(2) 0.20726(11) 0.80838(11)
H8 H -0.01260 0.18060 0.82560
C14 C 0.2507(2) 0.33342(10) 0.79726(11)
H9 H 0.26950 0.39180 0.80770
C15 C 0.1096(2) 0.29416(11) 0.82257(11)
H10 H 0.03180 0.32610 0.84930
C16 C 0.7655(2) -0.13192(12) 0.96360(11)
H11 H 0.86810 -0.15950 0.98660
C17 C 0.2072(2) -0.18889(11) 0.51367(11)
H12 H 0.20160 -0.24650 0.52890
C18 C 0.4606(2) -0.11825(11) 0.95098(11)
H13 H 0.35610 -0.13730 0.96550
N3 N 0.92998(18) -0.03868(11) 0.87998(11)
C19 C 0.2224(2) -0.01771(11) 0.46921(10)
H14 H 0.22620 0.03990 0.45380
C20 C 0.1404(2) -0.16219(13) 0.42913(11)
H15 H 0.09030 -0.20180 0.38730
C21 C 0.1484(3) -0.07703(13) 0.40711(11)
H16 H 0.10370 -0.05900 0.35010
C22 C 0.6108(2) -0.15905(11) 0.98572(11)
H17 H 0.60820 -0.20510 1.02420
O3 O 1.06226(19) -0.06302(16) 0.92605(15)
#END
