
#######################################################################
#
#                 Cambridge Crystallographic Data Centre
#                                CCDC
#
#######################################################################
#
# If this CIF has been generated from an entry in the Cambridge
# Structural Database, then it will include bibliographic, chemical,
# crystal, experimental, refinement or atomic coordinate data resulting
# from the CCDC's data processing and validation procedures.
#
#######################################################################

data_CSD_CIF_SUZMIK
_audit_creation_date 2010-09-21
_audit_creation_method CSD-ConQuest-V1
_database_code_CSD SUZMIK
_database_code_depnum_ccdc_archive 'CCDC 792424'
_chemical_formula_sum 'C11 H13 N1 O4'
_chemical_formula_moiety
;
C11 H13 N1 O4
;
_journal_coeditor_code "IUCr BV2158"
_journal_coden_Cambridge 1370
_journal_volume 66
_journal_year 2010
_journal_page_first o2332
_journal_name_full 'Acta Crystallogr.,Sect.E:Struct.Rep.Online '
loop_
_publ_author_name
"Z.Kelesoglu"
"Z.Gultekin"
"O.Buyukgungor"
_chemical_name_systematic
;
N-[(Z)-4-methoxybenzylidene](methoxycarbonyl)methanamine oxide
;
_chemical_melting_point 338.15
_cell_volume   1109.035
_exptl_crystal_colour 'colorless'
_exptl_crystal_density_diffrn 1.337
_exptl_special_details
;
Melting point range 338.15-339.15K

;
_exptl_crystal_description 'prism'
_diffrn_ambient_temperature 296
#These two values have been output from a single CSD field.
_refine_ls_R_factor_gt 0.0337
_refine_ls_wR_factor_gt 0.0337
_symmetry_cell_setting orthorhombic
_symmetry_space_group_name_H-M 'P 21 21 21'
_symmetry_Int_Tables_number 19
loop_
_symmetry_equiv_pos_site_id
_symmetry_equiv_pos_as_xyz
1 x,y,z
2 1/2-x,-y,1/2+z
3 1/2+x,1/2-y,-z
4 -x,1/2+y,1/2-z
_cell_length_a 4.3808(3)
_cell_length_b 9.8207(7)
_cell_length_c 25.7780(17)
_cell_angle_alpha 90
_cell_angle_beta 90
_cell_angle_gamma 90
_cell_formula_units_Z 4
loop_
_atom_type_symbol
_atom_type_radius_bond
C 0.68
H 0.23
N 0.68
O 0.68
loop_
_atom_site_label
_atom_site_type_symbol
_atom_site_fract_x
_atom_site_fract_y
_atom_site_fract_z
C1 C 0.6012(4) 0.7397(2) 0.36104(8)
C2 C 0.5996(5) 0.8775(2) 0.34738(10)
H1 H 0.70920 0.93920 0.36740
C3 C 0.4417(6) 0.9235(2) 0.30549(11)
H2 H 0.44490 1.01570 0.29730
C4 C 0.2769(5) 0.8343(2) 0.27506(10)
C5 C 0.2692(5) 0.6979(2) 0.28817(9)
H3 H 0.15500 0.63730 0.26840
C6 C 0.4307(5) 0.6515(2) 0.33055(9)
H4 H 0.42510 0.55940 0.33890
C7 C -0.0090(7) 0.8031(3) 0.19685(11)
H5 H -0.16600 0.75160 0.21390
H6 H 0.13940 0.74210 0.18240
H7 H -0.09770 0.85680 0.16960
C8 C 0.7873(4) 0.7021(2) 0.40462(9)
H8 H 0.89110 0.77260 0.42100
C9 C 1.0392(4) 0.5582(3) 0.4670(1)
H9 H 1.13580 0.64330 0.47670
H10 H 1.19720 0.49440 0.45680
C10 C 0.8628(4) 0.5022(2) 0.51187(9)
C11 C 0.8063(7) 0.3210(2) 0.57071(12)
H11 H 0.59730 0.30640 0.56100
H12 H 0.81450 0.37980 0.60040
H13 H 0.89990 0.23540 0.57900
N1 N 0.8278(3) 0.58064(18) 0.42386(7)
O1 O 0.1341(5) 0.88972(18) 0.23310(7)
O2 O 0.6925(3) 0.47139(14) 0.40781(7)
O3 O 0.6482(4) 0.55930(17) 0.53126(7)
O4 O 0.9683(3) 0.38384(16) 0.52795(7)
#END
