
#######################################################################
#
#                 Cambridge Crystallographic Data Centre
#                                CCDC
#
#######################################################################
#
# If this CIF has been generated from an entry in the Cambridge
# Structural Database, then it will include bibliographic, chemical,
# crystal, experimental, refinement or atomic coordinate data resulting
# from the CCDC's data processing and validation procedures.
#
#######################################################################

data_CSD_CIF_SUZYES01
_audit_creation_date 2014-07-18
_audit_creation_method CSD-ConQuest-V1
_database_code_CSD SUZYES01
_database_code_depnum_ccdc_archive 'CCDC 1004278'
_chemical_formula_sum 'C12 H11 N3 O2'
_chemical_formula_moiety
;
C12 H11 N3 O2
;
_journal_coeditor_code "IUCr hb0011"
_journal_coden_Cambridge 1370
_journal_volume 70
_journal_year 2014
_journal_page_first 58
_journal_name_full 'Acta Crystallogr.,Sect.E:Struct.Rep.Online '
loop_
_publ_author_name
"A.M.A.Aznan"
"Z.Abdullah"
"V.S.Lee"
"E.R.T.Tiekink"
_chemical_name_systematic
;
N-(4-methylphenyl)-3-nitropyridin-2-amine
;
_cell_volume   2149.660
_exptl_crystal_colour 'red'
_exptl_crystal_density_diffrn 1.417
_exptl_special_details
;
monoclinic P21 polymorph

;
_exptl_crystal_description 'plate'
_diffrn_ambient_temperature 100
#These two values have been output from a single CSD field.
_refine_ls_R_factor_gt 0.0426
_refine_ls_wR_factor_gt 0.0426
_symmetry_cell_setting monoclinic
_symmetry_space_group_name_H-M 'P 21'
_symmetry_Int_Tables_number 4
loop_
_symmetry_equiv_pos_site_id
_symmetry_equiv_pos_as_xyz
1 x,y,z
2 -x,1/2+y,-z
_cell_length_a 11.4079(6)
_cell_length_b 13.1968(8)
_cell_length_c 14.3681(7)
_cell_angle_alpha 90
_cell_angle_beta 96.387(5)
_cell_angle_gamma 90
_cell_formula_units_Z 8
loop_
_atom_type_symbol
_atom_type_radius_bond
C 0.68
H 0.23
N 0.68
O 0.68
loop_
_atom_site_label
_atom_site_type_symbol
_atom_site_fract_x
_atom_site_fract_y
_atom_site_fract_z
O1 O 0.1693(2) 0.4996(2) 1.11071(17)
O2 O 0.3584(2) 0.4890(2) 1.14982(19)
N1 N 0.0806(3) 0.4751(3) 0.9351(2)
H1 H 0.069(3) 0.486(3) 0.9939(11)
N2 N 0.2143(3) 0.4208(3) 0.8357(2)
N3 N 0.2712(3) 0.4837(2) 1.0903(2)
C1 C 0.1923(3) 0.4515(3) 0.9220(2)
C2 C 0.3235(3) 0.3972(3) 0.8216(3)
H2 H 0.33640 0.37560 0.76050
C3 C 0.4211(3) 0.4013(3) 0.8889(3)
H3 H 0.49770 0.38340 0.87430
C4 C 0.4021(3) 0.4322(3) 0.9773(3)
H4 H 0.46600 0.43650 1.02560
C5 C 0.2883(3) 0.4573(3) 0.9954(2)
C6 C -0.0239(3) 0.4736(3) 0.8718(2)
C7 C -0.1293(3) 0.4664(3) 0.9128(2)
H5 H -0.12710 0.46020 0.97890
C8 C -0.2366(3) 0.4684(3) 0.8576(2)
H6 H -0.30740 0.46330 0.88640
C9 C -0.2432(3) 0.4777(3) 0.7603(3)
C10 C -0.1377(3) 0.4853(3) 0.7207(2)
H7 H -0.14010 0.49160 0.65470
C11 C -0.0288(3) 0.4837(3) 0.7750(2)
H8 H 0.04190 0.48960 0.74610
C12 C -0.3607(3) 0.4781(3) 0.7003(2)
H9 H -0.35490 0.51940 0.64440
H10 H -0.42110 0.50660 0.73620
H11 H -0.38230 0.40860 0.68160
O3 O 0.5598(2) 0.6453(2) 1.07113(18)
O4 O 0.7456(3) 0.6690(2) 1.1166(2)
N4 N 0.4768(3) 0.6770(2) 0.8954(2)
H12 H 0.465(4) 0.666(3) 0.9539(12)
N5 N 0.6142(3) 0.7310(3) 0.7993(2)
N6 N 0.6613(3) 0.6682(2) 1.0544(2)
C13 C 0.5895(3) 0.7002(3) 0.8844(3)
C14 C 0.7248(3) 0.7557(3) 0.7875(3)
H13 H 0.74060 0.77700 0.72700
C15 C 0.8189(3) 0.7523(3) 0.8582(3)
H14 H 0.89620 0.77130 0.84630
C16 C 0.7964(3) 0.7208(3) 0.9452(3)
H15 H 0.85870 0.71610 0.99470
C17 C 0.6822(3) 0.6959(3) 0.9604(3)
C18 C 0.3730(3) 0.6821(3) 0.8309(3)
C19 C 0.2680(3) 0.6955(3) 0.8700(2)
H16 H 0.26910 0.70270 0.93590
C20 C 0.1620(3) 0.6984(3) 0.8131(2)
H17 H 0.09090 0.70650 0.84090
C21 C 0.1568(3) 0.6898(3) 0.7160(2)
C22 C 0.2628(3) 0.6757(3) 0.6785(2)
H18 H 0.26160 0.66890 0.61250
C23 C 0.3706(3) 0.6712(3) 0.7341(2)
H19 H 0.44160 0.66080 0.70650
C24 C 0.0417(3) 0.6970(3) 0.6543(2)
H20 H 0.03700 0.64240 0.60780
H21 H 0.03680 0.76270 0.62230
H22 H -0.02380 0.69060 0.69270
O5 O 0.8659(2) 0.4620(2) 0.14411(17)
O6 O 0.6805(2) 0.4394(2) 0.09688(17)
N7 N 0.9406(3) 0.4660(2) 0.3234(2)
H23 H 0.953(4) 0.478(3) 0.2651(12)
N8 N 0.7985(2) 0.4312(2) 0.42218(19)
N9 N 0.7626(3) 0.4480(2) 0.1605(2)
C25 C 0.8268(3) 0.4458(3) 0.3342(2)
C26 C 0.6856(3) 0.4129(3) 0.4340(3)
H24 H 0.66710 0.40170 0.49600
C27 C 0.5933(3) 0.4092(3) 0.3618(3)
H25 H 0.51430 0.39840 0.37440
C28 C 0.6209(3) 0.4218(3) 0.2718(3)
H26 H 0.56100 0.41840 0.22040
C29 C 0.7366(3) 0.4392(3) 0.2567(2)
C30 C 1.0440(3) 0.4666(3) 0.3872(2)
C31 C 1.1492(3) 0.4748(3) 0.3470(2)
H27 H 1.14720 0.48010 0.28090
C32 C 1.2568(3) 0.4754(3) 0.4023(2)
H28 H 1.32730 0.48250 0.37340
C33 C 1.2639(3) 0.4659(3) 0.4994(2)
C34 C 1.1585(3) 0.4584(3) 0.5390(2)
H29 H 1.16100 0.45280 0.60510
C35 C 1.0491(3) 0.4589(3) 0.4846(2)
H30 H 0.97840 0.45400 0.51360
C36 C 1.3811(3) 0.4627(3) 0.5588(2)
H31 H 1.37430 0.49660 0.61870
H32 H 1.44050 0.49740 0.52610
H33 H 1.40480 0.39200 0.57030
O7 O 0.2612(2) 0.7100(2) 0.10311(17)
O8 O 0.0735(2) 0.7151(2) 0.05973(17)
N10 N 0.3413(3) 0.7031(2) 0.2823(2)
H34 H 0.358(3) 0.695(3) 0.2239(12)
N11 N 0.2005(3) 0.7369(3) 0.3827(2)
N12 N 0.1578(2) 0.7149(2) 0.12156(19)
C37 C 0.2271(3) 0.7206(3) 0.2953(2)
C38 C 0.0884(3) 0.7487(3) 0.3965(2)
H35 H 0.07120 0.75910 0.45900
C39 C -0.0058(3) 0.7470(3) 0.3266(3)
H36 H -0.08460 0.75460 0.34110
C40 C 0.0185(3) 0.7339(3) 0.2358(2)
H37 H -0.04320 0.73280 0.18570
C41 C 0.1350(3) 0.7223(3) 0.2190(2)
C42 C 0.4438(3) 0.6970(3) 0.3468(2)
C43 C 0.5494(3) 0.6836(3) 0.3066(2)
H38 H 0.54740 0.67850 0.24040
C44 C 0.6560(3) 0.6777(3) 0.3620(2)
H39 H 0.72640 0.66880 0.33340
C45 C 0.6625(3) 0.6846(3) 0.4598(3)
C46 C 0.5573(3) 0.6970(3) 0.4987(2)
H40 H 0.55950 0.70130 0.56490
C47 C 0.4485(3) 0.7033(3) 0.4441(2)
H41 H 0.37810 0.71170 0.47290
C48 C 0.7799(3) 0.6812(3) 0.5197(3)
H42 H 0.76750 0.66390 0.58420
H43 H 0.81810 0.74770 0.51880
H44 H 0.83030 0.62990 0.49500
#END
