
#######################################################################
#
#                 Cambridge Crystallographic Data Centre
#                                CCDC
#
#######################################################################
#
# If this CIF has been generated from an entry in the Cambridge
# Structural Database, then it will include bibliographic, chemical,
# crystal, experimental, refinement or atomic coordinate data resulting
# from the CCDC's data processing and validation procedures.
#
#######################################################################

data_CSD_CIF_SUZYES
_audit_creation_date 2010-09-20
_audit_creation_method CSD-ConQuest-V1
_database_code_CSD SUZYES
_database_code_depnum_ccdc_archive 'CCDC 792474'
_chemical_formula_sum 'C12 H11 N3 O2'
_chemical_formula_moiety
;
C12 H11 N3 O2
;
_journal_coeditor_code "IUCr HG2703"
_journal_coden_Cambridge 1370
_journal_volume 66
_journal_year 2010
_journal_page_first o2400
_journal_name_full 'Acta Crystallogr.,Sect.E:Struct.Rep.Online '
loop_
_publ_author_name
"M.A.Aznan Akhmad"
"Z.Abdullah"
"Z.A.Fairuz"
"S.W.Ng"
"E.R.T.Tiekink"
_chemical_name_systematic
;
N-(4-Methylphenyl)-3-nitropyridin-2-amine
;
_cell_volume   2126.983
_exptl_crystal_colour 'red'
_exptl_crystal_density_diffrn 1.432
_exptl_special_details
;
monoclinic P21/c polymorph

;
_exptl_crystal_description 'plate'
_diffrn_ambient_temperature 100
#These two values have been output from a single CSD field.
_refine_ls_R_factor_gt 0.048
_refine_ls_wR_factor_gt 0.048
_symmetry_cell_setting monoclinic
_symmetry_space_group_name_H-M 'P 21/c'
_symmetry_Int_Tables_number 14
loop_
_symmetry_equiv_pos_site_id
_symmetry_equiv_pos_as_xyz
1 x,y,z
2 -x,1/2+y,1/2-z
3 -x,-y,-z
4 x,-1/2-y,-1/2+z
_cell_length_a 10.6557(12)
_cell_length_b 7.1415(8)
_cell_length_c 27.958(3)
_cell_angle_alpha 90
_cell_angle_beta 91.310(2)
_cell_angle_gamma 90
_cell_formula_units_Z 8
loop_
_atom_type_symbol
_atom_type_radius_bond
C 0.68
H 0.23
N 0.68
O 0.68
loop_
_atom_site_label
_atom_site_type_symbol
_atom_site_fract_x
_atom_site_fract_y
_atom_site_fract_z
O1 O 0.5737(2) 0.6059(3) 0.07334(8)
O2 O 0.3802(2) 0.6139(4) 0.04820(8)
N1 N 0.4595(3) 0.5848(4) 0.08003(9)
N2 N 0.4564(3) 0.4326(4) 0.20794(9)
N3 N 0.6278(2) 0.5089(4) 0.16220(9)
C1 C 0.4176(3) 0.5224(4) 0.12647(10)
C2 C 0.2897(3) 0.4973(5) 0.13170(11)
H1 H 0.23310 0.51960 0.10560
C3 C 0.2457(3) 0.4396(5) 0.17510(11)
H2 H 0.15860 0.42130 0.17980
C4 C 0.3327(3) 0.4092(5) 0.21164(11)
H3 H 0.30220 0.36870 0.24160
C5 C 0.5016(3) 0.4879(4) 0.16576(11)
C6 C 0.7235(3) 0.5118(4) 0.19792(11)
C7 C 0.8350(3) 0.5993(4) 0.18500(11)
H4 H 0.84270 0.64760 0.15350
C8 C 0.9339(3) 0.6166(5) 0.21729(11)
H5 H 1.00890 0.67590 0.20760
C9 C 0.9263(3) 0.5489(5) 0.26396(11)
C10 C 0.8168(3) 0.4554(5) 0.27559(11)
H6 H 0.81060 0.40340 0.30670
C11 C 0.7155(3) 0.4345(5) 0.24348(11)
H7 H 0.64240 0.36860 0.25260
C12 C 1.0323(3) 0.5790(5) 0.29973(11)
H8 H 1.00970 0.52530 0.33060
H9 H 1.04780 0.71350 0.30350
H10 H 1.10830 0.51780 0.28830
H11 H 0.652(3) 0.552(5) 0.1350(8)
O3 O 0.1554(2) 0.1650(4) -0.07299(8)
O4 O -0.0348(2) 0.2379(4) -0.09457(8)
N4 N 0.0469(3) 0.2118(4) -0.06319(9)
N5 N 0.0665(3) 0.2476(4) 0.06993(9)
N6 N 0.2219(3) 0.1555(4) 0.01848(9)
C13 C 0.0149(3) 0.2401(5) -0.01373(11)
C14 C -0.1058(3) 0.3001(5) -0.00485(12)
H12 H -0.16490 0.31520 -0.03050
C15 C -0.1398(3) 0.3376(5) 0.04115(12)
H13 H -0.22140 0.38170 0.04820
C16 C -0.0491(3) 0.3079(5) 0.07704(12)
H14 H -0.07200 0.33280 0.10910
C17 C 0.1032(3) 0.2129(4) 0.02481(11)
C18 C 0.3186(3) 0.1221(5) 0.05334(11)
C19 C 0.4414(3) 0.1571(5) 0.03961(11)
H15 H 0.45680 0.20630 0.00870
C20 C 0.5413(3) 0.1203(5) 0.07102(11)
H16 H 0.62460 0.14230 0.06100
C21 C 0.5218(3) 0.0519(5) 0.11668(11)
C22 C 0.3992(3) 0.0150(5) 0.12938(11)
H17 H 0.38400 -0.03400 0.16030
C23 C 0.2979(3) 0.0474(5) 0.09839(11)
H18 H 0.21510 0.01870 0.10790
C24 C 0.6290(3) 0.0200(5) 0.15168(12)
H19 H 0.70840 0.02200 0.13470
H20 H 0.61890 -0.10190 0.16720
H21 H 0.62960 0.11900 0.17590
H22 H 0.242(3) 0.153(6) -0.0118(14)
#END
