
#######################################################################
#
#                 Cambridge Crystallographic Data Centre
#                                CCDC
#
#######################################################################
#
# If this CIF has been generated from an entry in the Cambridge
# Structural Database, then it will include bibliographic, chemical,
# crystal, experimental, refinement or atomic coordinate data resulting
# from the CCDC's data processing and validation procedures.
#
#######################################################################

data_CSD_CIF_TABFEH
_audit_creation_date 1991-04-30
_audit_creation_method CSD-ConQuest-V1
_database_code_CSD TABFEH
_chemical_formula_sum 'C9 H14 N2 O10'
_chemical_formula_moiety
;
C9 H14 N2 O10
;
_journal_coden_Cambridge 41
_journal_volume 34
_journal_year 1989
_journal_page_first 632
_journal_name_full 'Kristallografiya(Russ.)(Crystallogr.Rep.) '
loop_
_publ_author_name
"A.A.Gazikasheva"
"L.F.Chertanova"
"Yu.T.Struchkov"
"V.F.Sopin"
"G.N.Marchenko"
"R.G.Zhbankov"
"N.V.Ivanova"
"T.E.Kolosova"
"L.K.Prikhodchenko"
_chemical_name_systematic
;
2,3-Dinitro-4,6-O-ethylidene-methyl-\b-D-glucoside
;
_cell_volume   1361.490
_exptl_crystal_density_diffrn 1.513
_exptl_special_details
;
The coordinates of N2 have been amended by the author

;
_diffrn_ambient_temperature ?
_diffrn_special_details
;
The study was carried out at room temperature,in the range 283-303K

;
#These two values have been output from a single CSD field.
_refine_ls_R_factor_gt 0.048
_refine_ls_wR_factor_gt 0.048
loop_
_citation_database_id_CSD
_citation_special_details
ROGTOY "is a stereoisomer of this entry"
_symmetry_cell_setting orthorhombic
_symmetry_space_group_name_H-M 'P 21 21 21'
_symmetry_Int_Tables_number 19
loop_
_symmetry_equiv_pos_site_id
_symmetry_equiv_pos_as_xyz
1 x,y,z
2 1/2+x,1/2-y,-z
3 -x,1/2+y,1/2-z
4 1/2-x,-y,1/2+z
_cell_length_a 8.830(3)
_cell_length_b 8.074(3)
_cell_length_c 19.097(7)
_cell_angle_alpha 90
_cell_angle_beta 90
_cell_angle_gamma 90
_cell_formula_units_Z 4
loop_
_atom_type_symbol
_atom_type_radius_bond
C 0.68
N 0.68
O 0.68
loop_
_atom_site_label
_atom_site_type_symbol
_atom_site_fract_x
_atom_site_fract_y
_atom_site_fract_z
O1 O 0.1002(3) 0.9533(4) 0.7717(2)
O2 O 0.1382(3) 0.9898(4) 0.9159(2)
O3 O 0.1733(3) 0.6765(3) 0.9893(1)
O4 O 0.3899(4) 0.4680(4) 0.9171(2)
O5 O 0.2130(3) 0.6960(4) 0.7753(2)
O6 O 0.4540(4) 0.3421(4) 0.8091(2)
O7 O 0.0126(5) 1.2207(4) 0.9130(2)
O8 O -0.1137(4) 0.9969(5) 0.8946(2)
O9 O 0.1347(4) 0.7370(4) 1.0979(1)
O10 O 0.3151(4) 0.8672(5) 1.0441(2)
N1 N -0.0026(4) 1.0791(5) 0.9059(2)
N2 N 0.2114(4) 0.7698(5) 1.0493(2)
C1 C 0.2035(5) 0.8567(5) 0.8069(2)
C2 C 0.1438(5) 0.8307(5) 0.8819(2)
C3 C 0.2494(5) 0.7224(5) 0.9244(2)
C4 C 0.2761(5) 0.5627(5) 0.8844(2)
C5 C 0.3244(4) 0.6043(5) 0.8097(2)
C6 C 0.3461(6) 0.4390(6) 0.7714(3)
C7 C 0.4095(6) 0.3143(6) 0.8791(3)
C8 C 0.5296(9) 0.2147(7) 0.9144(3)
C9 C 0.1567(6) 1.0135(7) 0.7072(2)
#END
