
#######################################################################
#
#                 Cambridge Crystallographic Data Centre
#                                CCDC
#
#######################################################################
#
# If this CIF has been generated from an entry in the Cambridge
# Structural Database, then it will include bibliographic, chemical,
# crystal, experimental, refinement or atomic coordinate data resulting
# from the CCDC's data processing and validation procedures.
#
#######################################################################

data_CSD_CIF_TABTIC01
_audit_creation_date 2017-01-11
_audit_creation_method CSD-ConQuest-V1
_database_code_CSD TABTIC01
_database_code_depnum_ccdc_archive 'CCDC 776190'
_chemical_formula_sum 'C17 H19 N3 O3'
_chemical_formula_moiety
;
C17 H19 N3 O3
;
_journal_coden_Cambridge 315
_journal_volume 114
_journal_year 2013
_journal_page_first 205
_journal_name_full 'Spectrochim.Acta,Part A '
loop_
_publ_author_name
"C.Albayrak"
"G.Kastas"
"M.Odabasoglu"
"R.Frank"
_chemical_name_systematic
;
(E)-5-(diethylamino)-2-((3-nitrophenylimino)methyl)phenol
;
_cell_volume   3029.895
_exptl_crystal_colour 'orange'
_exptl_crystal_density_diffrn 1.374
_exptl_crystal_description 'trigonal prisms'
_diffrn_ambient_temperature 130
#These two values have been output from a single CSD field.
_refine_ls_R_factor_gt 0.037
_refine_ls_wR_factor_gt 0.037
_symmetry_cell_setting monoclinic
_symmetry_space_group_name_H-M 'C 2/c'
_symmetry_Int_Tables_number 15
loop_
_symmetry_equiv_pos_site_id
_symmetry_equiv_pos_as_xyz
1 x,y,z
2 -x,y,1/2-z
3 1/2+x,1/2+y,z
4 1/2-x,1/2+y,1/2-z
5 -x,-y,-z
6 x,-y,-1/2+z
7 -1/2-x,-1/2-y,-z
8 -1/2+x,-1/2-y,-1/2+z
_cell_length_a 14.2518(7)
_cell_length_b 6.7805(4)
_cell_length_c 31.9685(17)
_cell_angle_alpha 90
_cell_angle_beta 101.250(5)
_cell_angle_gamma 90
_cell_formula_units_Z 8
loop_
_atom_type_symbol
_atom_type_radius_bond
C 0.68
H 0.23
N 0.68
O 0.68
loop_
_atom_site_label
_atom_site_type_symbol
_atom_site_fract_x
_atom_site_fract_y
_atom_site_fract_z
O1 O 1.13060(8) 0.0759(2) 0.93647(4)
O2 O 1.05523(8) 0.3286(2) 0.90509(4)
O3 O 0.85506(8) 0.41103(18) 0.71528(4)
N1 N 0.88976(9) 0.1018(2) 0.76358(4)
N2 N 0.63044(9) 0.3553(2) 0.58387(4)
N3 N 1.07901(9) 0.1546(3) 0.90568(5)
C1 C 0.77865(10) 0.0973(3) 0.69753(5)
C2 C 0.79362(10) 0.2963(3) 0.68771(5)
C3 C 0.74717(11) 0.3806(3) 0.64991(5)
C4 C 0.68129(10) 0.2709(3) 0.62031(5)
C5 C 0.66715(11) 0.0700(3) 0.62974(5)
C6 C 0.71447(11) -0.0115(3) 0.66712(5)
C7 C 0.82939(11) 0.0044(3) 0.73544(6)
C8 C 0.94627(10) 0.0030(3) 0.79867(5)
C9 C 0.96943(11) -0.1969(3) 0.79914(6)
C10 C 1.02934(11) -0.2785(3) 0.83410(6)
C11 C 1.06695(11) -0.1652(3) 0.86910(6)
C12 C 1.04276(10) 0.0323(3) 0.86813(5)
C13 C 0.98404(11) 0.1199(3) 0.83358(6)
C14 C 0.56965(13) 0.2354(3) 0.55123(6)
C15 C 0.62490(15) 0.1132(4) 0.52466(7)
C16 C 0.64830(13) 0.5583(3) 0.57238(6)
C17 C 0.73034(14) 0.5812(3) 0.54894(6)
H1 H 0.7620(9) 0.521(2) 0.6441(5)
H2 H 0.6225(9) -0.018(2) 0.6097(5)
H3 H 0.7035(9) -0.152(2) 0.6737(5)
H4 H 0.8160(9) -0.136(2) 0.7392(5)
H5 H 0.9452(10) -0.282(2) 0.7756(5)
H6 H 1.0454(10) -0.417(3) 0.8340(5)
H7 H 1.1103(9) -0.215(2) 0.8940(5)
H8 H 0.9688(9) 0.256(2) 0.8346(4)
H9 H 0.5270(11) 0.150(2) 0.5651(5)
H10 H 0.5225(10) 0.321(2) 0.5324(5)
H11 H 0.6762(12) 0.027(3) 0.5437(6)
H12 H 0.6592(11) 0.202(3) 0.5071(6)
H13 H 0.5812(13) 0.024(3) 0.5049(6)
H14 H 0.5863(10) 0.603(2) 0.5535(5)
H15 H 0.6592(11) 0.645(2) 0.5982(6)
H16 H 0.7144(11) 0.523(3) 0.5199(6)
H17 H 0.7902(11) 0.515(3) 0.5660(5)
H18 H 0.7431(11) 0.723(3) 0.5446(5)
H19 H 0.8806(13) 0.329(3) 0.7374(7)
#END
