
#######################################################################
#
#                 Cambridge Crystallographic Data Centre
#                                CCDC
#
#######################################################################
#
# If this CIF has been generated from an entry in the Cambridge
# Structural Database, then it will include bibliographic, chemical,
# crystal, experimental, refinement or atomic coordinate data resulting
# from the CCDC's data processing and validation procedures.
#
#######################################################################

data_CSD_CIF_TACHIO
_audit_creation_date 1991-05-01
_audit_creation_method CSD-ConQuest-V1
_database_code_CSD TACHIO
_chemical_formula_sum 'C18 H20 N2 O2'
_chemical_formula_moiety
;
C18 H20 N2 O2
;
_journal_coden_Cambridge 582
_journal_volume 20
_journal_year 1990
_journal_page_first 291
_journal_name_full 'J.Crystallogr.Spectrosc.Res. '
loop_
_publ_author_name
"T.Taga"
"A.Uchiyama"
"K.Machida"
"T.Miyasaka"
_chemical_name_systematic
;
(E)-O-Hexanoyl-phenyl-2-pyridyl ketone oxime
;
_cell_volume    832.743
_exptl_crystal_density_diffrn 1.182
_diffrn_ambient_temperature ?
_diffrn_special_details
;
The study was carried out at room temperature,in the range 283-303K

;
#These two values have been output from a single CSD field.
_refine_ls_R_factor_gt 0.045
_refine_ls_wR_factor_gt 0.045
_symmetry_cell_setting monoclinic
_symmetry_space_group_name_H-M 'P 21'
_symmetry_Int_Tables_number 4
loop_
_symmetry_equiv_pos_site_id
_symmetry_equiv_pos_as_xyz
1 x,y,z
2 -x,1/2+y,-z
_cell_length_a 9.393(2)
_cell_length_b 9.351(3)
_cell_length_c 9.902(2)
_cell_angle_alpha 90
_cell_angle_beta 106.77(1)
_cell_angle_gamma 90
_cell_formula_units_Z 2
loop_
_atom_type_symbol
_atom_type_radius_bond
C 0.68
H 0.23
N 0.68
O 0.68
loop_
_atom_site_label
_atom_site_type_symbol
_atom_site_fract_x
_atom_site_fract_y
_atom_site_fract_z
N1 N 0.2241(3) 0.3948(4) 0.5419(3)
C1 C 0.1772(3) 0.4260(6) 0.6483(3)
C2 C 0.1958(3) 0.5812(5) 0.6856(3)
C3 C 0.3181(5) 0.6556(6) 0.6726(4)
C4 C 0.3338(6) 0.7984(6) 0.7092(5)
C5 C 0.2240(5) 0.8620(5) 0.7546(4)
C6 C 0.1052(5) 0.7806(5) 0.7638(5)
N2 N 0.0898(3) 0.6411(5) 0.7322(3)
C7 C 0.1165(3) 0.3270(5) 0.7346(3)
C8 C 0.1704(4) 0.3355(5) 0.8807(3)
C9 C 0.1166(4) 0.2418(8) 0.9632(3)
C10 C 0.0104(5) 0.1436(6) 0.9034(4)
C11 C -0.0456(4) 0.1363(5) 0.7582(4)
C12 C 0.0079(3) 0.2283(7) 0.6741(3)
O1 O 0.2225(2) 0.2432(5) 0.5203(2)
C13 C 0.2693(3) 0.2079(5) 0.4070(3)
O2 O 0.2905(3) 0.2913(4) 0.3247(3)
C14 C 0.2946(4) 0.0506(5) 0.4081(3)
C15 C 0.2978(4) -0.0122(5) 0.2678(3)
C16 C 0.3739(4) -0.1550(5) 0.2802(3)
C17 C 0.3832(6) -0.2141(5) 0.1407(5)
C18 C 0.4551(8) -0.3600(8) 0.1531(8)
H1 H 0.378(4) 0.615(4) 0.638(3)
H2 H 0.421(4) 0.857(4) 0.702(4)
H3 H 0.232(4) 0.960(5) 0.773(4)
H4 H 0.024(4) 0.819(4) 0.793(3)
H5 H 0.243(3) 0.404(3) 0.918(3)
H6 H 0.169(4) 0.248(5) 1.058(4)
H7 H -0.026(4) 0.084(5) 0.954(4)
H8 H -0.114(4) 0.074(4) 0.711(3)
H9 H -0.030(3) 0.225(3) 0.570(3)
H10 H 0.228(4) 0.001(4) 0.433(4)
H11 H 0.394(4) 0.033(4) 0.484(4)
H12 H 0.349(3) 0.053(4) 0.220(3)
H13 H 0.190(4) -0.018(4) 0.197(3)
H14 H 0.473(4) -0.145(4) 0.354(4)
H15 H 0.324(4) -0.231(4) 0.321(4)
H16 H 0.276(4) -0.222(4) 0.079(3)
H17 H 0.443(5) -0.145(5) 0.100(4)
H18 H 0.404(7) -0.438(8) 0.191(6)
H19 H 0.546(6) -0.354(8) 0.208(6)
H20 H 0.456(6) -0.407(7) 0.050(6)
#END
