
#######################################################################
#
#                 Cambridge Crystallographic Data Centre
#                                CCDC
#
#######################################################################
#
# If this CIF has been generated from an entry in the Cambridge
# Structural Database, then it will include bibliographic, chemical,
# crystal, experimental, refinement or atomic coordinate data resulting
# from the CCDC's data processing and validation procedures.
#
#######################################################################

data_CSD_CIF_TACWOL
_audit_creation_date 2011-03-15
_audit_creation_method CSD-ConQuest-V1
_database_code_CSD TACWOL
_database_code_depnum_ccdc_archive 'CCDC 753141'
_chemical_formula_sum 'C84 H84 N4 O32'
_chemical_formula_moiety
;
C84 H84 N4 O32
;
_journal_coden_Cambridge 960
_journal_volume 67
_journal_year 2010
_journal_page_first 335
_journal_name_full 'J.Inclusion Phenom.Macrocyclic Chem. '
loop_
_publ_author_name
"Rui Zhou"
"Jia Chao Ren"
"Chao Guo Yan"
_chemical_name_systematic
;
2,8,14,20-tetrakis(3-Nitrophenyl)-4,6,10,12,16,18,22,24-octakis(ethoxycarbonyl
methoxy)calix[4]arene
;
_chemical_name_common
;
2,8,14,20-tetrakis(3-Nitrophenyl)-4,6,10,12,16,18,22,24-octakis(ethoxycarbonyl
methyl)calix[4]resorcinarene
;
_cell_volume   4137.591
_exptl_crystal_density_diffrn 1.334
_exptl_special_details
;
Space group is P21/n as in the cif, not P as published

;
_diffrn_ambient_temperature 273
#These two values have been output from a single CSD field.
_refine_ls_R_factor_gt 0.1095
_refine_ls_wR_factor_gt 0.1095
_symmetry_cell_setting monoclinic
_symmetry_space_group_name_H-M 'P 21/n'
_symmetry_Int_Tables_number 14
loop_
_symmetry_equiv_pos_site_id
_symmetry_equiv_pos_as_xyz
1 x,y,z
2 1/2-x,1/2+y,1/2-z
3 -x,-y,-z
4 -1/2+x,-1/2-y,-1/2+z
_cell_length_a 11.2418(12)
_cell_length_b 24.785(3)
_cell_length_c 15.2999(16)
_cell_angle_alpha 90
_cell_angle_beta 103.931(2)
_cell_angle_gamma 90
_cell_formula_units_Z 2
loop_
_atom_type_symbol
_atom_type_radius_bond
C 0.68
H 0.23
N 0.68
O 0.68
loop_
_atom_site_label
_atom_site_type_symbol
_atom_site_fract_x
_atom_site_fract_y
_atom_site_fract_z
C1 C 0.2167(4) 0.07232(19) 0.9282(3)
H1 H 0.16010 0.10060 0.93780
C2 C 0.1390(4) 0.0273(2) 0.8732(3)
C3 C 0.0275(5) 0.0143(3) 0.8919(4)
H2 H -0.00120 0.03440 0.93390
C4 C -0.0403(6) -0.0281(3) 0.8483(5)
H3 H -0.11350 -0.03700 0.86300
C5 C -0.0043(7) -0.0575(3) 0.7849(5)
H4 H -0.05210 -0.08560 0.75510
C6 C 0.1047(7) -0.0443(3) 0.7665(4)
C7 C 0.1758(5) -0.0019(2) 0.8095(4)
H5 H 0.24900 0.00660 0.79450
C8 C 0.2836(4) 0.05119(19) 1.0213(3)
C9 C 0.2971(4) -0.00328(19) 1.0411(3)
H6 H 0.26640 -0.02810 0.99580
C10 C 0.3338(4) 0.0877(2) 1.0895(3)
C11 C 0.3589(6) 0.1801(2) 1.1334(4)
H7 H 0.36300 0.21510 1.10590
H8 H 0.44060 0.17100 1.16800
C12 C 0.2754(7) 0.1834(2) 1.1947(5)
C13 C 0.2481(13) 0.2179(5) 1.3337(10)
H9 H 0.26370 0.25360 1.35990
H10 H 0.16230 0.21570 1.30220
C14 C 0.2763(16) 0.1766(9) 1.4052(9)
H11 H 0.36200 0.17800 1.43440
H12 H 0.25610 0.14160 1.37930
H13 H 0.22900 0.18360 1.44860
C15 C 0.3030(5) 0.09775(19) 0.8777(3)
C16 C 0.4215(4) 0.08036(19) 0.8871(3)
H14 H 0.45030 0.05260 0.92760
C17 C 0.4998(4) 0.10181(19) 0.8397(3)
C18 C 0.4563(5) 0.1430(2) 0.7802(3)
C19 C 0.3373(6) 0.1621(2) 0.7697(4)
H15 H 0.30980 0.19070 0.73070
C20 C 0.2604(5) 0.1391(2) 0.8164(4)
C21 C 0.0885(6) 0.1925(3) 0.7428(5)
H16 H 0.14270 0.22340 0.74720
H17 H 0.01200 0.20510 0.75420
C22 C 0.0641(6) 0.1710(4) 0.6505(6)
C23 C 0.0011(10) 0.1921(4) 0.4964(6)
H18 H -0.07210 0.16990 0.48480
H19 H 0.06670 0.17120 0.48180
C24 C -0.0226(10) 0.2432(4) 0.4382(7)
H20 H -0.08610 0.26410 0.45410
H21 H -0.04760 0.23320 0.37580
H22 H 0.05120 0.26420 0.44820
C25 C 0.6340(5) 0.08256(19) 0.8519(3)
H23 H 0.65460 0.08740 0.79370
C26 C 0.7224(5) 0.1164(2) 0.9186(4)
C27 C 0.6968(5) 0.1340(2) 0.9977(4)
H24 H 0.62080 0.12700 1.00940
C28 C 0.7852(6) 0.1620(2) 1.0593(5)
C29 C 0.8979(6) 0.1731(3) 1.0454(7)
H25 H 0.95560 0.19220 1.08780
C30 C 0.9235(6) 0.1554(3) 0.9682(7)
H26 H 1.00060 0.16170 0.95790
C31 C 0.8359(6) 0.1280(2) 0.9042(5)
H27 H 0.85410 0.11730 0.85070
C32 C 0.3554(4) -0.0225(2) 1.1269(3)
C33 C 0.4028(5) 0.0155(2) 1.1931(3)
C34 C 0.3927(5) 0.0696(2) 1.1745(3)
H28 H 0.42570 0.09450 1.21940
C35 C 0.5085(9) 0.0279(4) 1.3468(5)
H29 H 0.55080 0.05730 1.32680
H30 H 0.44160 0.04240 1.36830
C36 C 0.5891(11) -0.0072(6) 1.4196(8)
C37 C 0.7307(17) 0.0001(8) 1.5504(11)
H31 H 0.81660 0.00350 1.55340
H32 H 0.70700 -0.03670 1.53670
C38 C 0.781(3) 0.0431(15) 1.623(2)
H33 H 0.71400 0.05820 1.64410
H34 H 0.83820 0.02670 1.67240
H35 H 0.82060 0.07120 1.59750
C39 C 0.4981(7) 0.1765(4) 0.6466(5)
H36 H 0.44620 0.20830 0.63670
H37 H 0.45020 0.14610 0.61730
C40 C 0.604(1) 0.1849(4) 0.6080(7)
C41 C 0.6640(16) 0.2122(9) 0.4777(10)
H38 H 0.74640 0.20720 0.51270
H39 H 0.65150 0.24950 0.46100
C42 C 0.6402(12) 0.1813(7) 0.3970(9)
H40 H 0.69140 0.19390 0.35930
H41 H 0.55570 0.18520 0.36590
H42 H 0.65760 0.14400 0.41140
N1 N 0.1454(10) -0.0746(3) 0.6974(6)
N2 N 0.7540(7) 0.1795(3) 1.1415(5)
O1 O 0.2431(12) -0.0644(4) 0.6828(7)
O2 O 0.0872(8) -0.1107(3) 0.6590(5)
O3 O 0.3201(4) 0.14132(14) 1.0653(2)
O4 O 0.1739(5) 0.1655(2) 1.1783(4)
O5 O 0.3264(5) 0.2084(2) 1.2698(4)
O6 O 0.1415(3) 0.15496(15) 0.8095(3)
O7 O 0.0704(6) 0.1239(3) 0.6348(5)
O8 O 0.0338(5) 0.2076(2) 0.5879(3)
O9 O 0.8245(5) 0.2098(2) 1.1916(5)
O10 O 0.6611(6) 0.1635(3) 1.1603(4)
O11 O 0.4614(4) -0.00548(15) 1.2747(2)
O12 O 0.614(2) -0.0516(6) 1.4158(13)
O13 O 0.6568(10) 0.0307(4) 1.4750(7)
O14 O 0.5377(4) 0.16665(17) 0.7375(3)
O15 O 0.7095(8) 0.1865(4) 0.6462(6)
O16 O 0.5744(7) 0.1947(4) 0.5264(5)
C1B C 0.7833(4) -0.07232(19) 1.0718(3)
H1B H 0.83990 -0.10060 1.06220
C2B C 0.8610(4) -0.0273(2) 1.1268(3)
C3B C 0.9725(5) -0.0143(3) 1.1081(4)
H2B H 1.00120 -0.03440 1.06610
C4B C 1.0403(6) 0.0281(3) 1.1517(5)
H3B H 1.11350 0.03700 1.13700
C5B C 1.0043(7) 0.0575(3) 1.2151(5)
H4B H 1.05210 0.08560 1.24490
C6B C 0.8953(7) 0.0443(3) 1.2335(4)
C7B C 0.8242(5) 0.0019(2) 1.1905(4)
H5B H 0.75100 -0.00660 1.20550
C8B C 0.7164(4) -0.05119(19) 0.9787(3)
C9B C 0.7029(4) 0.00328(19) 0.9589(3)
H6B H 0.73360 0.02810 1.00420
C10B C 0.6662(4) -0.0877(2) 0.9105(3)
C11B C 0.6411(6) -0.1801(2) 0.8666(4)
H7B H 0.63700 -0.21510 0.89410
H8B H 0.55940 -0.17100 0.83200
C12B C 0.7246(7) -0.1834(2) 0.8053(5)
C13B C 0.7519(13) -0.2179(5) 0.6663(10)
H9B H 0.73630 -0.25360 0.64010
H10B H 0.83770 -0.21570 0.69780
C14B C 0.7237(16) -0.1766(9) 0.5948(9)
H11B H 0.63800 -0.17800 0.56560
H12B H 0.74390 -0.14160 0.62070
H13B H 0.77100 -0.18360 0.55140
C15B C 0.6970(5) -0.09775(19) 1.1223(3)
C16B C 0.5785(4) -0.08036(19) 1.1129(3)
H14B H 0.54970 -0.05260 1.07240
C17B C 0.5002(4) -0.10181(19) 1.1603(3)
C18B C 0.5437(5) -0.1430(2) 1.2198(3)
C19B C 0.6627(6) -0.1621(2) 1.2303(4)
H15B H 0.69020 -0.19070 1.26930
C20B C 0.7396(5) -0.1391(2) 1.1836(4)
C21B C 0.9115(6) -0.1925(3) 1.2572(5)
H16B H 0.85730 -0.22340 1.25280
H17B H 0.98800 -0.20510 1.24580
C22B C 0.9359(6) -0.1710(4) 1.3495(6)
C23B C 0.9989(10) -0.1921(4) 1.5036(6)
H18B H 1.07210 -0.16990 1.51520
H19B H 0.93330 -0.17120 1.51820
C24B C 1.0226(10) -0.2432(4) 1.5618(7)
H20B H 1.08610 -0.26410 1.54590
H21B H 1.04760 -0.23320 1.62420
H22B H 0.94880 -0.26420 1.55180
C25B C 0.3660(5) -0.08256(19) 1.1481(3)
H23B H 0.34540 -0.08740 1.20630
C26B C 0.2776(5) -0.1164(2) 1.0814(4)
C27B C 0.3032(5) -0.1340(2) 1.0023(4)
H24B H 0.37920 -0.12700 0.99060
C28B C 0.2148(6) -0.1620(2) 0.9407(5)
C29B C 0.1021(6) -0.1731(3) 0.9546(7)
H25B H 0.04440 -0.19220 0.91220
C30B C 0.0765(6) -0.1554(3) 1.0318(7)
H26B H -0.00060 -0.16170 1.04210
C31B C 0.1641(6) -0.1280(2) 1.0958(5)
H27B H 0.14590 -0.11730 1.14930
C32B C 0.6446(4) 0.0225(2) 0.8731(3)
C33B C 0.5972(5) -0.0155(2) 0.8069(3)
C34B C 0.6073(5) -0.0696(2) 0.8255(3)
H28B H 0.57430 -0.09450 0.78060
C35B C 0.4915(9) -0.0279(4) 0.6532(5)
H29B H 0.44920 -0.05730 0.67320
H30B H 0.55840 -0.04240 0.63170
C36B C 0.4109(11) 0.0072(6) 0.5804(8)
C37B C 0.2693(17) -0.0001(8) 0.4496(11)
H31B H 0.18340 -0.00350 0.44660
H32B H 0.29300 0.03670 0.46330
C38B C 0.219(3) -0.0431(15) 0.377(2)
H33B H 0.28600 -0.05820 0.35590
H34B H 0.16180 -0.02670 0.32760
H35B H 0.17940 -0.07120 0.40250
C39B C 0.5019(7) -0.1765(4) 1.3534(5)
H36B H 0.55380 -0.20830 1.36330
H37B H 0.54980 -0.14610 1.38270
C40B C 0.396(1) -0.1849(4) 1.3920(7)
C41B C 0.3360(16) -0.2122(9) 1.5223(10)
H38B H 0.25360 -0.20720 1.48730
H39B H 0.34850 -0.24950 1.53900
C42B C 0.3598(12) -0.1813(7) 1.6030(9)
H40B H 0.30860 -0.19390 1.64070
H41B H 0.44430 -0.18520 1.63410
H42B H 0.34240 -0.14400 1.58860
N1B N 0.8546(10) 0.0746(3) 1.3026(6)
N2B N 0.2460(7) -0.1795(3) 0.8585(5)
O1B O 0.7569(12) 0.0644(4) 1.3172(7)
O2B O 0.9128(8) 0.1107(3) 1.3410(5)
O3B O 0.6799(4) -0.14132(14) 0.9347(2)
O4B O 0.8261(5) -0.1655(2) 0.8217(4)
O5B O 0.6736(5) -0.2084(2) 0.7302(4)
O6B O 0.8585(3) -0.15496(15) 1.1905(3)
O7B O 0.9296(6) -0.1239(3) 1.3652(5)
O8B O 0.9662(5) -0.2076(2) 1.4121(3)
O9B O 0.1755(5) -0.2098(2) 0.8084(5)
O10B O 0.3389(6) -0.1635(3) 0.8397(4)
O11B O 0.5386(4) 0.00548(15) 0.7253(2)
O12B O 0.386(2) 0.0516(6) 0.5842(13)
O13B O 0.3432(10) -0.0307(4) 0.5250(7)
O14B O 0.4623(4) -0.16665(17) 1.2625(3)
O15B O 0.2905(8) -0.1865(4) 1.3538(6)
O16B O 0.4256(7) -0.1947(4) 1.4736(5)
#END
