
#######################################################################
#
#                 Cambridge Crystallographic Data Centre
#                                CCDC
#
#######################################################################
#
# If this CIF has been generated from an entry in the Cambridge
# Structural Database, then it will include bibliographic, chemical,
# crystal, experimental, refinement or atomic coordinate data resulting
# from the CCDC's data processing and validation procedures.
#
#######################################################################

data_CSD_CIF_TACYOO
_audit_creation_date 2016-02-10
_audit_creation_method CSD-ConQuest-V1
_database_code_CSD TACYOO
_database_code_depnum_ccdc_archive 'CCDC 1451051'
_chemical_formula_sum 'C13 H21 N1 O7'
_chemical_formula_moiety
;
C13 H21 N1 O7
;
_journal_coeditor_code "su5270"
_journal_coden_Cambridge 1828
_journal_volume 72
_journal_year 2016
_journal_page_first 314
_journal_name_full 'Acta Crystallogr.,Sect.E:Cryst.Commun. '
loop_
_publ_author_name
"J.Luginina"
"V.Rjabovs"
"D.Stepanovs"
_chemical_name_systematic
;
5-(2,2-dimethyl-1,3-dioxolan-4-yl)-2,2-dimethyl-6-(nitromethyl)tetrahydrofuro[
2,3-d][1,3]dioxole
;
_cell_volume   1502.206
_exptl_crystal_colour 'colorless'
_exptl_crystal_density_diffrn 1.341
_exptl_crystal_description 'needle'
_diffrn_ambient_temperature 173
#These two values have been output from a single CSD field.
_refine_ls_R_factor_gt 0.065
_refine_ls_wR_factor_gt 0.065
_symmetry_cell_setting orthorhombic
_symmetry_space_group_name_H-M 'P 21 21 21'
_symmetry_Int_Tables_number 19
loop_
_symmetry_equiv_pos_site_id
_symmetry_equiv_pos_as_xyz
1 x,y,z
2 1/2-x,-y,1/2+z
3 1/2+x,1/2-y,-z
4 -x,1/2+y,1/2-z
_cell_length_a 5.5044(2)
_cell_length_b 12.6144(4)
_cell_length_c 21.6348(9)
_cell_angle_alpha 90
_cell_angle_beta 90
_cell_angle_gamma 90
_cell_formula_units_Z 4
loop_
_atom_type_symbol
_atom_type_radius_bond
C 0.68
H 0.23
N 0.68
O 0.68
loop_
_atom_site_label
_atom_site_type_symbol
_atom_site_fract_x
_atom_site_fract_y
_atom_site_fract_z
O1 O 0.1756(4) 0.94348(18) 0.03395(11)
C1 C 0.2580(7) 0.8418(3) 0.04912(17)
H1 H 0.34780 0.80950 0.01480
C2 C 0.4157(6) 0.8508(3) 0.10747(17)
H2 H 0.58730 0.83610 0.09900
C3 C 0.3744(6) 0.9665(2) 0.12881(17)
H3 H 0.51550 1.00900 0.11660
C4 C 0.1536(6) 1.0022(2) 0.09017(16)
H4 H 0.00250 0.98320 0.11140
C5 C 0.1502(6) 1.1182(3) 0.07239(18)
H5 H 0.30200 1.13710 0.05140
C6 C -0.0661(6) 1.1468(3) 0.03179(19)
H6 H -0.02440 1.20230 0.00260
H7 H -0.12480 1.08540 0.00930
O2 O -0.2414(4) 1.18276(17) 0.07540(12)
C7 C -0.1090(6) 1.2369(3) 0.12245(19)
O3 O 0.1197(4) 1.18174(19) 0.12615(13)
C8 C -0.0637(8) 1.3514(3) 0.1055(2)
H8 H -0.21590 1.38820 0.10270
H9 H 0.01840 1.35480 0.06640
H10 H 0.03540 1.38400 0.13670
C9 C -0.2428(8) 1.2243(3) 0.18262(19)
H11 H -0.25300 1.15050 0.19300
H12 H -0.40350 1.25300 0.17860
H13 H -0.15720 1.26140 0.21470
O4 O 0.0607(5) 0.77711(19) 0.06819(12)
C10 C 0.1517(6) 0.7096(3) 0.11560(17)
O5 O 0.3131(4) 0.77660(18) 0.14980(11)
C11 C 0.2887(8) 0.6163(3) 0.08712(19)
H14 H 0.35270 0.57230 0.11940
H15 H 0.41980 0.64250 0.06210
H16 H 0.17980 0.57560 0.06190
C12 C -0.0501(7) 0.6743(3) 0.1567(2)
H17 H -0.12720 0.73520 0.17480
H18 H 0.01380 0.62990 0.18890
H19 H -0.16700 0.63520 0.13300
C13 C 0.3314(6) 0.9814(3) 0.19700(17)
H20 H 0.28590 1.05460 0.20440
H21 H 0.19590 0.93720 0.20950
N1 N 0.5468(6) 0.9550(2) 0.23638(16)
O6 O 0.7368(4) 0.9282(2) 0.21135(13)
O7 O 0.5199(5) 0.9616(3) 0.29175(14)
#END
