
#######################################################################
#
#                 Cambridge Crystallographic Data Centre
#                                CCDC
#
#######################################################################
#
# If this CIF has been generated from an entry in the Cambridge
# Structural Database, then it will include bibliographic, chemical,
# crystal, experimental, refinement or atomic coordinate data resulting
# from the CCDC's data processing and validation procedures.
#
#######################################################################

data_CSD_CIF_TADNAP
_audit_creation_date 2011-03-04
_audit_creation_method CSD-ConQuest-V1
_database_code_CSD TADNAP
_database_code_depnum_ccdc_archive 'CCDC 788174'
_chemical_formula_sum 'C12 H10 N2 O6'
_chemical_formula_moiety
;
C12 H10 N2 O6
;
_journal_coden_Cambridge 177
_journal_volume 8
_journal_year 2010
_journal_page_first 4867
_journal_name_full 'Org.Biomol.Chem. '
loop_
_publ_author_name
"P.Shanbhag"
"P.R.Nareddy"
"M.Dadwal"
"S.M.Mobin"
"I.N.N.Namboothiri"
_chemical_name_systematic
;
2,2'-(2,4-Dinitrobut-1-ene-1,3-diyl)difuran
;
_chemical_melting_point 358.15
_cell_volume   1212.746
_exptl_crystal_colour 'yellow'
_exptl_crystal_density_diffrn 1.524
_exptl_special_details
;
Melting point range 358.15-359.15K

;
_exptl_crystal_description 'block'
_diffrn_ambient_temperature 150
#These two values have been output from a single CSD field.
_refine_ls_R_factor_gt 0.0374
_refine_ls_wR_factor_gt 0.0374
_symmetry_cell_setting triclinic
_symmetry_space_group_name_H-M 'P -1'
_symmetry_Int_Tables_number 2
loop_
_symmetry_equiv_pos_site_id
_symmetry_equiv_pos_as_xyz
1 x,y,z
2 -x,-y,-z
_cell_length_a 9.0724(4)
_cell_length_b 9.7915(4)
_cell_length_c 14.0849(7)
_cell_angle_alpha 89.657(3)
_cell_angle_beta 77.662(4)
_cell_angle_gamma 82.933(3)
_cell_formula_units_Z 4
loop_
_atom_type_symbol
_atom_type_radius_bond
C 0.68
H 0.23
N 0.68
O 0.68
loop_
_atom_site_label
_atom_site_type_symbol
_atom_site_fract_x
_atom_site_fract_y
_atom_site_fract_z
O1 O 0.33074(16) 1.20949(13) 0.31982(10)
O2 O 0.25009(13) 0.85602(12) 0.13673(10)
O3 O 0.71543(16) 1.19744(14) 0.14896(12)
O4 O 0.67614(15) 1.02129(14) 0.07187(11)
O5 O 0.21783(16) 1.38862(13) 0.17539(11)
O6 O 0.05641(15) 1.34953(13) 0.08885(12)
N1 N 0.63737(16) 1.13628(15) 0.10725(11)
N2 N 0.15644(17) 1.30973(15) 0.13282(12)
C1 C 0.3453(3) 1.1603(3) 0.40944(16)
C2 C 0.3892(2) 1.0273(2) 0.40486(16)
C3 C 0.4048(2) 0.9866(2) 0.30692(15)
C4 C 0.36805(18) 1.09901(17) 0.25818(13)
C5 C 0.36476(19) 1.11894(18) 0.15351(13)
C6 C 0.4845(2) 1.20725(19) 0.10068(15)
C7 C 0.20722(18) 1.16256(17) 0.13472(13)
C8 C 0.1057(2) 1.07924(18) 0.12338(13)
C9 C 0.12024(18) 0.93224(17) 0.12125(13)
C10 C 0.0262(2) 0.84605(19) 0.09819(14)
C11 C 0.1011(2) 0.7111(2) 0.09832(16)
C12 C 0.2335(2) 0.72162(19) 0.12178(16)
H1 H 0.010(2) 1.1209(17) 0.1169(13)
H2 H 0.400(2) 1.0272(19) 0.1222(14)
H3 H -0.068(2) 0.8729(19) 0.0820(15)
H4 H 0.4830(19) 1.2088(17) 0.0300(14)
H5 H 0.473(2) 1.301(2) 0.1310(15)
H6 H 0.071(2) 0.630(2) 0.0814(17)
H7 H 0.320(2) 0.659(2) 0.1263(16)
H8 H 0.404(2) 0.976(2) 0.4576(17)
H9 H 0.434(3) 0.899(2) 0.2788(18)
H10 H 0.324(3) 1.227(3) 0.456(2)
O7 O 0.52033(14) 0.68146(13) 0.41523(10)
O8 O 0.80708(13) 0.88976(11) 0.32727(9)
O9 O 0.6096(2) 0.54134(15) 0.05897(12)
O10 O 0.6304(2) 0.73550(14) 0.11810(13)
O11 O 0.82754(16) 0.34939(12) 0.31265(10)
O12 O 0.97738(15) 0.40011(12) 0.40376(10)
N3 N 0.65652(17) 0.61143(16) 0.11388(12)
N4 N 0.88920(16) 0.43368(14) 0.34972(11)
C13 C 0.8316(2) 1.02378(18) 0.33475(14)
C14 C 0.9570(2) 1.03330(19) 0.36830(14)
C15 C 1.0174(2) 0.89782(19) 0.38406(14)
C16 C 0.92465(19) 0.81249(17) 0.35787(13)
C17 C 0.9339(2) 0.66584(18) 0.36128(14)
C18 C 0.85117(18) 0.57905(16) 0.32951(13)
C19 C 0.72379(19) 0.61265(17) 0.27622(13)
C20 C 0.7506(2) 0.53831(19) 0.17840(14)
C21 C 0.5705(2) 0.59403(17) 0.33707(13)
C22 C 0.4657(2) 0.5105(2) 0.33202(16)
C23 C 0.3416(2) 0.5467(2) 0.41137(17)
C24 C 0.3786(2) 0.6485(2) 0.45963(17)
H11 H 0.7239(18) 0.7092(17) 0.2609(12)
H12 H 0.720(2) 0.448(2) 0.1835(14)
H13 H 1.009(2) 0.6279(17) 0.3924(13)
H14 H 1.103(2) 0.8661(17) 0.4077(13)
H15 H 0.997(2) 1.109(2) 0.3798(16)
H16 H 0.760(2) 1.0854(19) 0.3143(13)
H17 H 0.855(2) 0.534(2) 0.1419(15)
H18 H 0.247(3) 0.509(2) 0.4292(17)
H19 H 0.477(2) 0.441(2) 0.2837(16)
H20 H 0.334(3) 0.708(2) 0.5162(18)
#END
