
#######################################################################
#
#                 Cambridge Crystallographic Data Centre
#                                CCDC
#
#######################################################################
#
# If this CIF has been generated from an entry in the Cambridge
# Structural Database, then it will include bibliographic, chemical,
# crystal, experimental, refinement or atomic coordinate data resulting
# from the CCDC's data processing and validation procedures.
#
#######################################################################

data_CSD_CIF_TADVAW
_audit_creation_date 2003-08-14
_audit_creation_method CSD-ConQuest-V1
_database_code_CSD TADVAW
_database_code_depnum_ccdc_archive 'CCDC 214840'
_chemical_formula_sum 'C10 H12 N4 O4'
_chemical_formula_moiety
;
C10 H12 N4 O4
;
_journal_coeditor_code "IUCr WN6159"
_journal_coden_Cambridge 1370
_journal_volume 59
_journal_year 2003
_journal_page_first o838
_journal_name_full 'Acta Crystallogr.,Sect.E:Struct.Rep.Online '
loop_
_publ_author_name
"Shang Shan"
"Duan-Jun Xu"
"Wei-Xiao Hu"
_chemical_name_systematic
;
Isobutyraldehyde 2,4-dinitrophenylhydrazone
;
_chemical_melting_point 459
_cell_volume   1230.495
_exptl_crystal_colour 'yellow'
_exptl_crystal_density_diffrn 1.362
_exptl_special_details
;
Melting point range 459-460K

;
_exptl_crystal_description 'plate'
_exptl_crystal_preparation 'absolute ethanol'
_diffrn_ambient_temperature 298
#These two values have been output from a single CSD field.
_refine_ls_R_factor_gt 0.067
_refine_ls_wR_factor_gt 0.067
_symmetry_cell_setting monoclinic
_symmetry_space_group_name_H-M 'P 21/c'
_symmetry_Int_Tables_number 14
loop_
_symmetry_equiv_pos_site_id
_symmetry_equiv_pos_as_xyz
1 x,y,z
2 x,1/2-y,1/2+z
3 -x,-y,-z
4 -x,-1/2+y,-1/2-z
_cell_length_a 7.0514(10)
_cell_length_b 7.3862(12)
_cell_length_c 23.6459(16)
_cell_angle_alpha 90
_cell_angle_beta 92.372(13)
_cell_angle_gamma 90
_cell_formula_units_Z 4
loop_
_atom_type_symbol
_atom_type_radius_bond
C 0.68
H 0.23
N 0.68
O 0.68
loop_
_atom_site_label
_atom_site_type_symbol
_atom_site_fract_x
_atom_site_fract_y
_atom_site_fract_z
O1 O 0.0950(2) 0.9175(3) 0.45718(7)
O2 O 0.2090(3) 0.8964(3) 0.37445(7)
O3 O 0.8037(3) 0.6397(3) 0.34322(8)
O4 O 0.9771(3) 0.5301(3) 0.41206(8)
N1 N 0.2230(3) 0.8747(3) 0.42553(8)
N2 N 0.8348(3) 0.6090(3) 0.39334(9)
N3 N 0.3009(3) 0.8305(3) 0.54811(7)
H1 H 0.19070 0.87030 0.53730
N4 N 0.3519(3) 0.8173(3) 0.60526(8)
C1 C 0.4268(3) 0.7801(3) 0.50982(8)
C2 C 0.3952(3) 0.7962(3) 0.45034(8)
C3 C 0.5280(3) 0.7400(3) 0.41259(9)
H2 H 0.50360 0.75090 0.37380
C4 C 0.6952(3) 0.6685(3) 0.43314(9)
C5 C 0.7346(3) 0.6518(3) 0.49129(9)
H3 H 0.84960 0.60300 0.50460
C6 C 0.6047(3) 0.7071(3) 0.52833(9)
H4 H 0.63310 0.69690 0.56700
C7 C 0.2288(4) 0.8699(4) 0.63867(10)
H5 H 0.11260 0.91100 0.62370
C8 C 0.2621(5) 0.8688(5) 0.70176(11)
H6 H 0.26190 0.99600 0.71350
C9 C 0.0978(7) 0.7834(7) 0.72861(14)
H7 H 0.11860 0.78410 0.76900
H8 H 0.08410 0.66080 0.71560
H9 H -0.01550 0.85010 0.71860
C10 C 0.4528(6) 0.7967(7) 0.71953(13)
H10 H 0.54900 0.86310 0.70080
H11 H 0.46020 0.67100 0.70950
H12 H 0.47210 0.80950 0.75980
#END
