
#######################################################################
#
#                 Cambridge Crystallographic Data Centre
#                                CCDC
#
#######################################################################
#
# If this CIF has been generated from an entry in the Cambridge
# Structural Database, then it will include bibliographic, chemical,
# crystal, experimental, refinement or atomic coordinate data resulting
# from the CCDC's data processing and validation procedures.
#
#######################################################################

data_CSD_CIF_TAFDUZ
_audit_creation_date 1991-05-01
_audit_creation_method CSD-ConQuest-V1
_database_code_CSD TAFDUZ
_chemical_formula_sum 'C10 H12 N4 O8'
_chemical_formula_moiety
;
C10 H12 N4 O8
;
_journal_coden_Cambridge 35
_journal_volume 55
_journal_year 1990
_journal_page_first 4459
_journal_name_full 'J.Org.Chem. '
loop_
_publ_author_name
"P.R.Dave"
"M.Ferraro"
"H.L.Ammon"
"C.S.Choi"
_chemical_name_systematic
;
2,2,4,4-Tetranitroadamantane
;
_cell_volume    638.068
_exptl_crystal_colour 'colorless'
_exptl_crystal_density_diffrn 1.65
_diffrn_ambient_temperature ?
_diffrn_special_details
;
The study was carried out at room temperature,in the range 283-303K

;
#These two values have been output from a single CSD field.
_refine_ls_R_factor_gt 0.047
_refine_ls_wR_factor_gt 0.047
_symmetry_cell_setting monoclinic
_symmetry_space_group_name_H-M 'P 21/m'
_symmetry_Int_Tables_number 11
loop_
_symmetry_equiv_pos_site_id
_symmetry_equiv_pos_as_xyz
1 x,y,z
2 -x,1/2+y,-z
3 -x,-y,-z
4 x,-1/2-y,z
_cell_length_a 7.074(1)
_cell_length_b 13.395(2)
_cell_length_c 7.304(1)
_cell_angle_alpha 90
_cell_angle_beta 112.79(1)
_cell_angle_gamma 90
_cell_formula_units_Z 2
loop_
_atom_type_symbol
_atom_type_radius_bond
C 0.68
H 0.23
N 0.68
O 0.68
loop_
_atom_site_label
_atom_site_type_symbol
_atom_site_fract_x
_atom_site_fract_y
_atom_site_fract_z
O1 O 0.5066(4) 0.1423(2) 0.5382(4)
O2 O 0.3101(4) 0.1194(3) 0.6866(4)
O3 O 0.2774(4) 0.0702(2) 0.1276(4)
O4 O 0.1040(3) -0.0141(1) 0.2599(4)
N1 N 0.3410(4) 0.1385(2) 0.5424(4)
N2 N 0.1802(4) 0.0622(2) 0.2318(3)
C1 C -0.0479(4) 0.1559(2) 0.3684(4)
C2 C 0.1557(4) 0.1562(2) 0.3439(4)
C3 C 0.1787(5) 0.25000 0.2338(5)
C4 C -0.0012(6) 0.25000 0.0280(5)
C5 C -0.2051(6) 0.25000 0.0525(6)
C6 C -0.2216(4) 0.1568(2) 0.1623(5)
C7 C -0.0602(7) 0.25000 0.4826(7)
H1 H -0.055(4) 0.096(2) 0.437(4)
H2 H 0.317(5) 0.25000 0.228(5)
H3 H 0.021(4) 0.187(2) -0.037(4)
H4 H -0.304(6) 0.25000 -0.072(6)
H5 H -0.224(5) 0.097(3) 0.082(5)
H6 H -0.351(5) 0.153(2) 0.176(4)
H7 H 0.038(6) 0.25000 0.619(7)
H8 H -0.202(7) 0.25000 0.479(7)
C2C C 0.1557(4) 0.3438(2) 0.3439(4)
H3C H 0.021(4) 0.313(2) -0.037(4)
C6C C -0.2216(4) 0.3432(2) 0.1623(5)
C1C C -0.0479(4) 0.3441(2) 0.3684(4)
N1C N 0.3410(4) 0.3615(2) 0.5424(4)
N2C N 0.1802(4) 0.4378(2) 0.2318(3)
H5C H -0.224(5) 0.403(3) 0.082(5)
H6C H -0.351(5) 0.347(2) 0.176(4)
H1C H -0.055(4) 0.404(2) 0.437(4)
O1C O 0.5066(4) 0.3577(2) 0.5382(4)
O2C O 0.3101(4) 0.3806(3) 0.6866(4)
O3C O 0.2774(4) 0.4298(2) 0.1276(4)
O4C O 0.1040(3) 0.5141(1) 0.2599(4)
#END
