
#######################################################################
#
#                 Cambridge Crystallographic Data Centre
#                                CCDC
#
#######################################################################
#
# If this CIF has been generated from an entry in the Cambridge
# Structural Database, then it will include bibliographic, chemical,
# crystal, experimental, refinement or atomic coordinate data resulting
# from the CCDC's data processing and validation procedures.
#
#######################################################################

data_CSD_CIF_TAFKIU
_audit_creation_date 1991-05-01
_audit_creation_method CSD-ConQuest-V1
_database_code_CSD TAFKIU
_chemical_formula_sum 'C4 H4 N6 O3'
_chemical_formula_moiety
;
C4 H4 N6 O3
;
_journal_coeditor_code "IUCr HH0259"
_journal_coden_Cambridge 591
_journal_volume 46
_journal_year 1990
_journal_page_first 1853
_journal_name_full 'Acta Crystallogr.,Sect.C:Cryst.Struct.Commun. '
loop_
_publ_author_name
"C.K.Lowe-Ma"
"J.W.Fischer"
"R.L.Willer"
_chemical_name_systematic
;
4,7-Dinitroso-4,5,6,7-tetrahydro-1,2,5-oxadiazolo(3,4-b) pyrazine
;
_cell_volume    736.708
_exptl_crystal_colour 'yellow'
_exptl_crystal_density_diffrn 1.66
_diffrn_ambient_temperature ?
_diffrn_special_details
;
The study was carried out at room temperature,in the range 283-303K

;
#These two values have been output from a single CSD field.
_refine_ls_R_factor_gt 0.044
_refine_ls_wR_factor_gt 0.044
_symmetry_cell_setting orthorhombic
_symmetry_space_group_name_H-M 'P 21 21 21'
_symmetry_Int_Tables_number 19
loop_
_symmetry_equiv_pos_site_id
_symmetry_equiv_pos_as_xyz
1 x,y,z
2 1/2+x,1/2-y,-z
3 -x,1/2+y,1/2-z
4 1/2-x,-y,1/2+z
_cell_length_a 6.151(1)
_cell_length_b 9.526(2)
_cell_length_c 12.573(2)
_cell_angle_alpha 90
_cell_angle_beta 90
_cell_angle_gamma 90
_cell_formula_units_Z 4
loop_
_atom_type_symbol
_atom_type_radius_bond
C 0.68
H 0.23
N 0.68
O 0.68
loop_
_atom_site_label
_atom_site_type_symbol
_atom_site_fract_x
_atom_site_fract_y
_atom_site_fract_z
C1 C 0.0568(5) 0.5044(3) 0.9202(3)
C2 C -0.0974(5) 0.4190(4) 0.9735(3)
C3 C 0.2764(6) 0.5051(4) 1.0801(3)
C4 C 0.0716(6) 0.4770(4) 1.1413(3)
N1 N 0.2370(4) 0.5555(3) 0.9733(2)
N2 N -0.0808(4) 0.3910(3) 1.0794(2)
N3 N -0.2452(5) 0.3797(4) 0.9060(3)
N4 N 0.0074(6) 0.5155(4) 0.8203(3)
N5 N 0.3672(7) 0.6432(4) 0.9194(3)
N6 N -0.2014(5) 0.2823(3) 1.1181(3)
O1 O -0.1818(5) 0.4381(4) 0.8100(2)
O2 O 0.5298(6) 0.6767(4) 0.9692(3)
O3 O -0.1764(5) 0.2619(3) 1.2118(3)
H1 H 0.35970 0.42010 1.07600
H2 H 0.35810 0.57510 1.11780
H3 H 0.00320 0.56450 1.15910
H4 H 0.10800 0.42750 1.20530
#END
