
#######################################################################
#
#                 Cambridge Crystallographic Data Centre
#                                CCDC
#
#######################################################################
#
# If this CIF has been generated from an entry in the Cambridge
# Structural Database, then it will include bibliographic, chemical,
# crystal, experimental, refinement or atomic coordinate data resulting
# from the CCDC's data processing and validation procedures.
#
#######################################################################

data_CSD_CIF_TAFKUG
_audit_creation_date 1991-05-01
_audit_creation_method CSD-ConQuest-V1
_database_code_CSD TAFKUG
_chemical_formula_sum 'C4 H5 N5 O2'
_chemical_formula_moiety
;
C4 H5 N5 O2
;
_journal_coeditor_code "IUCr HH0259"
_journal_coden_Cambridge 591
_journal_volume 46
_journal_year 1990
_journal_page_first 1853
_journal_name_full 'Acta Crystallogr.,Sect.C:Cryst.Struct.Commun. '
loop_
_publ_author_name
"C.K.Lowe-Ma"
"J.W.Fischer"
"R.L.Willer"
_chemical_name_systematic
;
4-Nitroso-4,5,6,7-tetrahydro-1,2,5-oxadiazolo(3,4-b)pyrazine
;
_cell_volume    636.344
_exptl_crystal_colour 'pale yellow'
_exptl_crystal_density_diffrn 1.62
_diffrn_ambient_temperature ?
_diffrn_special_details
;
The study was carried out at room temperature,in the range 283-303K

;
_refine_special_details
;
The rings are disordered and there is rotational disorder of the histamine 
group.
;
#These two values have been output from a single CSD field.
_refine_ls_R_factor_gt 0.046
_refine_ls_wR_factor_gt 0.046
_symmetry_cell_setting monoclinic
_symmetry_space_group_name_H-M 'P 21/c'
_symmetry_Int_Tables_number 14
loop_
_symmetry_equiv_pos_site_id
_symmetry_equiv_pos_as_xyz
1 x,y,z
2 -x,1/2+y,1/2-z
3 -x,-y,-z
4 x,-1/2-y,-1/2+z
_cell_length_a 6.278(1)
_cell_length_b 9.902(2)
_cell_length_c 10.650(2)
_cell_angle_alpha 90
_cell_angle_beta 106.02(2)
_cell_angle_gamma 90
_cell_formula_units_Z 4
loop_
_atom_type_symbol
_atom_type_radius_bond
C 0.68
H 0.23
N 0.68
O 0.68
loop_
_atom_site_label
_atom_site_type_symbol
_atom_site_fract_x
_atom_site_fract_y
_atom_site_fract_z
C1 C 0.9066(3) 0.0707(2) 0.2940(2)
C2 C 0.7152(3) 0.0526(2) 0.1858(2)
C3 C 0.6717(4) 0.1861(3) 0.4068(2)
C4 C 0.5251(3) 0.2187(2) 0.2735(2)
N1 N 0.8937(2) 0.1460(2) 0.4012(1)
N2 N 0.5183(4) 0.1023(6) 0.1887(6)
N3? N 0.5212(6) 0.1134(7) 0.1773(7)
N4 N 0.7679(3) -0.0240(2) 0.0998(2)
N5 N 1.0745(3) 0.0067(2) 0.2764(2)
N6 N 1.0871(9) 0.1728(10) 0.4946(7)
N7? N 1.0564(15) 0.1904(23) 0.4959(16)
O1 O 0.9883(18) -0.0624(29) 0.1598(16)
O2? O 0.9978(16) -0.0456(27) 0.1508(15)
O3 O 1.0617(4) 0.2399(2) 0.5806(2)
O4? O 1.2354(6) 0.1507(5) 0.5011(4)
H1 H 0.6011(45) 0.1063(28) 0.4450(25)
H2 H 0.6862(68) 0.2727(41) 0.4556(41)
H3 H 0.3792(36) 0.2306(19) 0.2773(19)
H4 H 0.5886(39) 0.3060(25) 0.2410(21)
H5 H 0.4139(36) 0.0990(21) 0.1174(22)
#END
