
#######################################################################
#
#                 Cambridge Crystallographic Data Centre
#                                CCDC
#
#######################################################################
#
# If this CIF has been generated from an entry in the Cambridge
# Structural Database, then it will include bibliographic, chemical,
# crystal, experimental, refinement or atomic coordinate data resulting
# from the CCDC's data processing and validation procedures.
#
#######################################################################

data_CSD_CIF_TAFKET
_audit_creation_date 2016-02-10
_audit_creation_method CSD-ConQuest-V1
_database_code_CSD TAFKET
_database_code_depnum_ccdc_archive 'CCDC 1452767'
_chemical_formula_sum 'C22 H30 N2 O2'
_chemical_formula_moiety
;
C22 H30 N2 O2
;
_journal_coden_Cambridge 1078
_journal_year 2016
_journal_name_full 'CSD Communication(Private Communication) '
loop_
_publ_author_name
"T.Y.K.Ishida"
_chemical_name_systematic
;
N,N'-di-t-butyl-2',5'-dimethylbiphenyl-3,5-diamine N,N'-dioxide
;
_chemical_melting_point 382
_cell_volume    985.417
_exptl_crystal_colour 'orange'
_exptl_crystal_density_diffrn 1.195
_exptl_special_details
;
Magnetic properties
alpha polymorph

;
_exptl_crystal_description 'prism'
_exptl_crystal_preparation 'Re-crystallisation from solvent'
_diffrn_ambient_temperature 90
#These two values have been output from a single CSD field.
_refine_ls_R_factor_gt 0.0398
_refine_ls_wR_factor_gt 0.0398
_symmetry_cell_setting triclinic
_symmetry_space_group_name_H-M 'P -1'
_symmetry_Int_Tables_number 2
loop_
_symmetry_equiv_pos_site_id
_symmetry_equiv_pos_as_xyz
1 x,y,z
2 -x,-y,-z
_cell_length_a 9.184(9)
_cell_length_b 9.5946(1)
_cell_length_c 12.825(18)
_cell_angle_alpha 112.47(9)
_cell_angle_beta 91.92(15)
_cell_angle_gamma 106.95(13)
_cell_formula_units_Z 2
loop_
_atom_type_symbol
_atom_type_radius_bond
C 0.68
H 0.23
N 0.68
O 0.68
loop_
_atom_site_label
_atom_site_type_symbol
_atom_site_fract_x
_atom_site_fract_y
_atom_site_fract_z
O1 O -0.08978(15) 0.34650(14) 0.44232(11)
O2 O 0.06346(16) 0.09546(14) -0.05134(11)
N1 N 0.05830(18) 0.38073(16) 0.44500(13)
N2 N -0.01969(19) 0.14267(16) 0.02652(13)
C1 C 0.1094(2) 0.3824(2) 0.33986(15)
C2 C 0.0242(2) 0.2622(2) 0.23713(16)
C3 C 0.0668(2) 0.26595(19) 0.13478(15)
C4 C 0.1955(2) 0.3876(2) 0.13602(16)
C5 C 0.2812(2) 0.50810(19) 0.23923(15)
C6 C 0.2371(2) 0.5050(2) 0.34172(16)
C7 C 0.4145(2) 0.64500(19) 0.24311(15)
C8 C 0.5408(2) 0.6228(2) 0.18903(15)
C9 C 0.6609(2) 0.7588(2) 0.19973(17)
C10 C 0.6574(2) 0.9109(2) 0.26278(17)
C11 C 0.5326(2) 0.9344(2) 0.31703(16)
C12 C 0.4125(2) 0.7995(2) 0.30589(16)
C13 C 0.5549(3) 0.4603(3) 0.12668(19)
C14 C 0.5294(3) 1.1006(2) 0.3859(2)
C15 C 0.1412(2) 0.3244(2) 0.51675(16)
C16 C 0.3123(3) 0.4191(3) 0.5458(2)
C17 C 0.1157(3) 0.1471(2) 0.4455(2)
C18 C 0.0720(3) 0.3460(3) 0.62550(18)
C19 C -0.1753(2) 0.1439(2) -0.01516(16)
C20 C -0.2806(3) 0.1456(2) 0.07460(18)
C21 C -0.1466(3) 0.2932(2) -0.0393(2)
C22 C -0.2489(3) -0.0054(2) -0.12429(19)
H1 H -0.064(2) 0.174(2) 0.2346(16)
H2 H 0.222(2) 0.3899(18) 0.0633(15)
H3 H 0.289(2) 0.5859(18) 0.4119(14)
H4 H 0.746(2) 0.743(2) 0.1618(16)
H5 H 0.747(2) 1.005(2) 0.2707(17)
H6 H 0.328(2) 0.819(2) 0.3440(16)
H7 H 0.669(3) 0.468(2) 0.1163(17)
H8 H 0.523(2) 0.392(2) 0.1673(17)
H9 H 0.497(3) 0.406(2) 0.051(2)
H10 H 0.481(3) 1.139(3) 0.338(2)
H11 H 0.479(3) 1.105(3) 0.451(2)
H12 H 0.633(3) 1.176(3) 0.409(2)
H13 H 0.362(2) 0.401(2) 0.4734(18)
H14 H 0.331(2) 0.536(2) 0.5893(17)
H15 H 0.364(2) 0.385(2) 0.5946(17)
H16 H 0.166(2) 0.135(2) 0.3760(18)
H17 H 0.002(3) 0.086(2) 0.4218(18)
H18 H 0.172(2) 0.108(2) 0.4895(17)
H19 H -0.043(3) 0.278(3) 0.6031(19)
H20 H 0.096(2) 0.464(2) 0.6720(16)
H21 H 0.123(2) 0.306(2) 0.6718(16)
H22 H -0.388(2) 0.142(2) 0.0419(18)
H23 H -0.291(2) 0.045(2) 0.0950(14)
H24 H -0.236(3) 0.243(2) 0.1483(19)
H25 H -0.246(2) 0.301(2) -0.0686(16)
H26 H -0.099(2) 0.386(2) 0.0293(17)
H27 H -0.073(3) 0.288(2) -0.0993(19)
H28 H -0.350(2) 0.005(2) -0.1507(15)
H29 H -0.267(2) -0.105(2) -0.1114(17)
H30 H -0.175(3) -0.002(2) -0.1864(19)
#END
