
#######################################################################
#
#                 Cambridge Crystallographic Data Centre
#                                CCDC
#
#######################################################################
#
# If this CIF has been generated from an entry in the Cambridge
# Structural Database, then it will include bibliographic, chemical,
# crystal, experimental, refinement or atomic coordinate data resulting
# from the CCDC's data processing and validation procedures.
#
#######################################################################

data_CSD_CIF_TAFLOD
_audit_creation_date 2011-03-15
_audit_creation_method CSD-ConQuest-V1
_database_code_CSD TAFLOD
_database_code_depnum_ccdc_archive 'CCDC 773428'
_chemical_formula_sum 'C12 H8 N4 O2'
_chemical_formula_moiety
;
C12 H8 N4 O2
;
_journal_coden_Cambridge 177
_journal_volume 8
_journal_year 2010
_journal_page_first 4720
_journal_name_full 'Org.Biomol.Chem. '
loop_
_publ_author_name
"C.Mukhopadhyay"
"P.K.Tapaswi"
"R.J.Butcher"
_chemical_name_systematic
;
1-(3-Nitrophenyl)-1H-benzotriazole
;
_cell_volume   1033.619
_exptl_crystal_colour 'colorless'
_exptl_crystal_density_diffrn 1.544
_exptl_crystal_description 'chunk'
_diffrn_ambient_temperature 110
#These two values have been output from a single CSD field.
_refine_ls_R_factor_gt 0.0365
_refine_ls_wR_factor_gt 0.0365
_symmetry_cell_setting monoclinic
_symmetry_space_group_name_H-M 'P 21/c'
_symmetry_Int_Tables_number 14
loop_
_symmetry_equiv_pos_site_id
_symmetry_equiv_pos_as_xyz
1 x,y,z
2 -x,1/2+y,1/2-z
3 -x,-y,-z
4 x,-1/2-y,-1/2+z
_cell_length_a 12.1674(3)
_cell_length_b 6.98587(15)
_cell_length_c 12.7296(3)
_cell_angle_alpha 90
_cell_angle_beta 107.201(3)
_cell_angle_gamma 90
_cell_formula_units_Z 4
loop_
_atom_type_symbol
_atom_type_radius_bond
C 0.68
H 0.23
N 0.68
O 0.68
loop_
_atom_site_label
_atom_site_type_symbol
_atom_site_fract_x
_atom_site_fract_y
_atom_site_fract_z
O1 O 0.87428(8) 0.55483(17) 0.70247(8)
O2 O 0.97246(8) 0.57063(15) 0.87425(8)
N1 N 0.36750(9) 0.67897(16) 0.51524(8)
N2 N 0.47092(9) 0.67093(15) 0.58162(8)
N3 N 0.46595(8) 0.63520(14) 0.68633(8)
N4 N 0.88141(9) 0.57233(15) 0.80004(9)
C1 C 0.29085(10) 0.65016(17) 0.57509(10)
C2 C 0.17036(11) 0.64805(18) 0.53979(11)
H1 H 0.12820 0.66870 0.46500
C3 C 0.11601(11) 0.61453(18) 0.61883(11)
H2 H 0.03430 0.61240 0.59820
C4 C 0.17920(11) 0.58328(18) 0.72986(11)
H3 H 0.13850 0.55980 0.78180
C5 C 0.29769(11) 0.58560(17) 0.76574(10)
H4 H 0.33950 0.56410 0.84060
C6 C 0.35305(10) 0.62154(16) 0.68542(10)
C7 C 0.57091(10) 0.62946(16) 0.77296(9)
C8 C 0.67158(10) 0.58703(16) 0.74653(9)
H5 H 0.66950 0.55060 0.67410
C9 C 0.77448(10) 0.59987(16) 0.82965(10)
C10 C 0.78183(10) 0.64268(17) 0.93787(10)
H6 H 0.85390 0.64700 0.99340
C11 C 0.67942(11) 0.67898(17) 0.96185(10)
H7 H 0.68150 0.70630 1.03550
C12 C 0.57433(10) 0.67609(17) 0.88048(10)
H8 H 0.50540 0.70550 0.89780
#END
