
#######################################################################
#
#                 Cambridge Crystallographic Data Centre
#                                CCDC
#
#######################################################################
#
# If this CIF has been generated from an entry in the Cambridge
# Structural Database, then it will include bibliographic, chemical,
# crystal, experimental, refinement or atomic coordinate data resulting
# from the CCDC's data processing and validation procedures.
#
#######################################################################

data_CSD_CIF_TAFMEV
_audit_creation_date 2016-02-10
_audit_creation_method CSD-ConQuest-V1
_database_code_CSD TAFMEV
_database_code_depnum_ccdc_archive 'CCDC 1426043'
_chemical_formula_sum 'C11 H10 N4 O3'
_chemical_formula_moiety
;
C11 H10 N4 O3
;
_journal_coden_Cambridge 1336
_journal_volume 18
_journal_year 2016
_journal_page_first 448
_journal_name_full 'Org.Lett. '
loop_
_publ_author_name
"G.G.Pawar"
"A.Brahmanandan"
"M.Kapur"
_chemical_name_systematic
;
N-(4-Methoxy-2-nitrophenyl)pyrimidin-2-amine
;
_cell_volume   2215.584
_exptl_crystal_colour 'red'
_exptl_crystal_density_diffrn 1.476
_exptl_crystal_description 'plate'
_exptl_crystal_preparation 'dichloromethane'
_diffrn_ambient_temperature 293
#These two values have been output from a single CSD field.
_refine_ls_R_factor_gt 0.0507
_refine_ls_wR_factor_gt 0.0507
_symmetry_cell_setting monoclinic
_symmetry_space_group_name_H-M 'P 21/c'
_symmetry_Int_Tables_number 14
loop_
_symmetry_equiv_pos_site_id
_symmetry_equiv_pos_as_xyz
1 x,y,z
2 -x,1/2+y,1/2-z
3 -x,-y,-z
4 x,-1/2-y,-1/2+z
_cell_length_a 10.4859(11)
_cell_length_b 13.0896(15)
_cell_length_c 16.1420(19)
_cell_angle_alpha 90
_cell_angle_beta 90.134(4)
_cell_angle_gamma 90
_cell_formula_units_Z 8
loop_
_atom_type_symbol
_atom_type_radius_bond
C 0.68
H 0.23
N 0.68
O 0.68
loop_
_atom_site_label
_atom_site_type_symbol
_atom_site_fract_x
_atom_site_fract_y
_atom_site_fract_z
O1 O 1.16515(17) 0.39817(15) 0.22684(11)
N1 N 0.7712(2) 0.36934(17) 0.54613(14)
O2 O 1.37340(18) 0.39086(19) 0.48749(14)
N2 N 0.99503(19) 0.35952(17) 0.55287(13)
H1 H 1.05900 0.35120 0.58760
N3 N 1.2639(2) 0.37946(17) 0.51021(15)
O3 O 1.24002(19) 0.3684(2) 0.58412(14)
N4 N 0.8861(2) 0.34868(18) 0.67285(14)
C1 C 1.1626(2) 0.37971(18) 0.44957(16)
C2 C 0.8769(2) 0.35957(19) 0.59058(17)
C3 C 1.0322(2) 0.37005(18) 0.47117(16)
C4 C 1.2015(2) 0.38922(19) 0.36820(16)
H2 H 1.28970 0.39530 0.35600
C5 C 1.1148(2) 0.3900(2) 0.30528(16)
C6 C 0.9475(2) 0.3713(2) 0.40485(16)
H3 H 0.85890 0.36490 0.41570
C7 C 0.9870(2) 0.3813(2) 0.32391(17)
H4 H 0.92560 0.38230 0.28050
C8 C 0.6627(3) 0.3721(2) 0.5908(2)
H5 H 0.58390 0.37970 0.56230
C9 C 0.7764(3) 0.3519(2) 0.71315(19)
H6 H 0.77820 0.34500 0.77170
C10 C 0.6609(3) 0.3645(2) 0.67544(19)
H7 H 0.58370 0.36790 0.70610
C11 C 1.0801(3) 0.3987(3) 0.15928(18)
H8 H 1.03100 0.33500 0.15890
H9 H 1.12830 0.40450 0.10760
H10 H 1.02180 0.45680 0.16430
O4 O 0.66526(17) 0.39813(16) 0.27295(11)
N5 N 0.49488(19) 0.35917(17) -0.05306(13)
H11 H 0.55870 0.35060 -0.08770
N6 N 0.2707(2) 0.36926(17) -0.04619(14)
O5 O 0.87349(19) 0.39116(19) 0.01260(14)
N7 N 0.7645(2) 0.37966(17) -0.01071(15)
N8 N 0.3863(2) 0.34864(18) -0.17284(14)
O6 O 0.73973(19) 0.3681(2) -0.08393(14)
C12 C 0.6621(2) 0.37980(19) 0.05079(16)
C13 C 0.3774(2) 0.35930(19) -0.09044(17)
C14 C 0.5324(2) 0.36991(18) 0.02878(16)
C15 C 0.7013(2) 0.38915(19) 0.13133(16)
H12 H 0.78970 0.39530 0.14320
C16 C 0.6149(2) 0.3898(2) 0.19568(16)
C17 C 0.4865(2) 0.3810(2) 0.17591(17)
H13 H 0.42490 0.38190 0.21900
C18 C 0.4470(2) 0.3708(2) 0.09531(17)
H14 H 0.35830 0.36420 0.08420
C19 C 0.2767(3) 0.3521(2) -0.21328(19)
H15 H 0.27840 0.34570 -0.27190
C20 C 0.1604(3) 0.3644(2) -0.1755(2)
H16 H 0.08320 0.36750 -0.20630
C21 C 0.1623(3) 0.3718(2) -0.0908(2)
H17 H 0.08360 0.37920 -0.06240
C22 C 0.5797(3) 0.3991(3) 0.34093(18)
H18 H 0.52200 0.45760 0.33580
H19 H 0.62810 0.40450 0.39270
H20 H 0.52990 0.33570 0.34120
#END
