
#######################################################################
#
#                 Cambridge Crystallographic Data Centre
#                                CCDC
#
#######################################################################
#
# If this CIF has been generated from an entry in the Cambridge
# Structural Database, then it will include bibliographic, chemical,
# crystal, experimental, refinement or atomic coordinate data resulting
# from the CCDC's data processing and validation procedures.
#
#######################################################################

data_CSD_CIF_TAFMUK
_audit_creation_date 2011-03-15
_audit_creation_method CSD-ConQuest-V1
_database_code_CSD TAFMUK
_database_code_depnum_ccdc_archive 'CCDC 777137'
_chemical_formula_sum 'C16 H17 N1 O4'
_chemical_formula_moiety
;
C16 H17 N1 O4
;
_journal_coden_Cambridge 177
_journal_volume 8
_journal_year 2010
_journal_page_first 4259
_journal_name_full 'Org.Biomol.Chem. '
loop_
_publ_author_name
"D.B.Ramachary"
"R.Sakthidevi"
_chemical_name_systematic
;
3-Methoxy-3-methyl-1-(nitromethyl)-2,3-dihydro-1H-benzo[f]chromene
;
_cell_volume   1436.759
_exptl_crystal_colour 'colorless'
_exptl_crystal_density_diffrn 1.328
_exptl_crystal_description 'block'
_diffrn_ambient_temperature 293
#These two values have been output from a single CSD field.
_refine_ls_R_factor_gt 0.0499
_refine_ls_wR_factor_gt 0.0499
_symmetry_cell_setting monoclinic
_symmetry_space_group_name_H-M 'P 21/n'
_symmetry_Int_Tables_number 14
loop_
_symmetry_equiv_pos_site_id
_symmetry_equiv_pos_as_xyz
1 x,y,z
2 1/2-x,1/2+y,1/2-z
3 -x,-y,-z
4 -1/2+x,-1/2-y,-1/2+z
_cell_length_a 10.7266(17)
_cell_length_b 11.6724(15)
_cell_length_c 11.4931(13)
_cell_angle_alpha 90
_cell_angle_beta 93.195(15)
_cell_angle_gamma 90
_cell_formula_units_Z 4
loop_
_atom_type_symbol
_atom_type_radius_bond
C 0.68
H 0.23
N 0.68
O 0.68
loop_
_atom_site_label
_atom_site_type_symbol
_atom_site_fract_x
_atom_site_fract_y
_atom_site_fract_z
O1 O 0.80304(9) -0.01304(9) 0.54933(8)
O2 O 0.87206(10) -0.00017(9) 0.74285(9)
C1 C 0.70434(13) -0.08711(13) 0.55750(12)
C2 C 0.60482(13) -0.06825(12) 0.62614(12)
C3 C 0.70724(15) 0.12055(12) 0.67710(13)
H1 H 0.67640 0.16830 0.61270
H2 H 0.72460 0.17000 0.74390
C4 C 0.50475(13) -0.14921(13) 0.62169(12)
C5 C 0.51405(14) -0.25200(13) 0.55599(13)
C6 C 0.71171(14) -0.18706(15) 0.48935(13)
H3 H 0.77940 -0.19780 0.44330
N1 N 0.58791(14) 0.08181(12) 0.91916(13)
C7 C 0.60508(14) 0.03514(12) 0.70618(12)
H4 H 0.52410 0.07360 0.69510
C8 C 0.82771(14) 0.06425(13) 0.64491(12)
O3 O 0.63164(14) 0.06833(12) 1.01845(11)
C9 C 0.39258(14) -0.13281(16) 0.68134(14)
H5 H 0.38200 -0.06580 0.72340
C10 C 0.98144(18) -0.06703(18) 0.72805(17)
H6 H 0.98940 -0.12390 0.78830
H7 H 1.05350 -0.01810 0.73250
H8 H 0.97500 -0.10400 0.65330
C11 C 0.41695(16) -0.33402(15) 0.55587(15)
H9 H 0.42440 -0.40160 0.51390
C12 C 0.62084(15) -0.26755(15) 0.49052(14)
H10 H 0.62870 -0.33440 0.44750
C13 C 0.30067(16) -0.21412(17) 0.67744(16)
H11 H 0.22850 -0.20110 0.71670
C14 C 0.61930(16) -0.00752(13) 0.83205(13)
H12 H 0.56530 -0.07330 0.84060
H13 H 0.70470 -0.03250 0.84840
C15 C 0.92312(17) 0.14856(15) 0.60436(16)
H14 H 0.99220 0.10750 0.57490
H15 H 0.95230 0.19580 0.66870
H16 H 0.88550 0.19590 0.54380
O4 O 0.51830(15) 0.15967(12) 0.88970(14)
C16 C 0.31278(16) -0.31623(17) 0.61591(17)
H17 H 0.25040 -0.37150 0.61590
#END
