
#######################################################################
#
#                 Cambridge Crystallographic Data Centre
#                                CCDC
#
#######################################################################
#
# If this CIF has been generated from an entry in the Cambridge
# Structural Database, then it will include bibliographic, chemical,
# crystal, experimental, refinement or atomic coordinate data resulting
# from the CCDC's data processing and validation procedures.
#
#######################################################################

data_CSD_CIF_TAFMIY
_audit_creation_date 2011-03-15
_audit_creation_method CSD-ConQuest-V1
_database_code_CSD TAFMIY
_database_code_depnum_ccdc_archive 'CCDC 765267'
_chemical_formula_sum 'C13 H17 N1 O5'
_chemical_formula_moiety
;
C13 H17 N1 O5
;
_journal_coden_Cambridge 177
_journal_volume 8
_journal_year 2010
_journal_page_first 4259
_journal_name_full 'Org.Biomol.Chem. '
loop_
_publ_author_name
"D.B.Ramachary"
"R.Sakthidevi"
_chemical_name_systematic
;
2,8-Dimethoxy-2-methyl-4-(nitromethyl)chromane
;
_cell_volume   1336.924
_exptl_crystal_colour 'colorless'
_exptl_crystal_density_diffrn 1.328
_exptl_crystal_description 'block'
_diffrn_ambient_temperature 298
#These two values have been output from a single CSD field.
_refine_ls_R_factor_gt 0.0558
_refine_ls_wR_factor_gt 0.0558
_symmetry_cell_setting monoclinic
_symmetry_space_group_name_H-M 'P 21/c'
_symmetry_Int_Tables_number 14
loop_
_symmetry_equiv_pos_site_id
_symmetry_equiv_pos_as_xyz
1 x,y,z
2 -x,1/2+y,1/2-z
3 -x,-y,-z
4 x,-1/2-y,-1/2+z
_cell_length_a 11.2657(18)
_cell_length_b 6.0004(10)
_cell_length_c 19.842(3)
_cell_angle_alpha 90
_cell_angle_beta 94.626(2)
_cell_angle_gamma 90
_cell_formula_units_Z 4
loop_
_atom_type_symbol
_atom_type_radius_bond
C 0.68
H 0.23
N 0.68
O 0.68
loop_
_atom_site_label
_atom_site_type_symbol
_atom_site_fract_x
_atom_site_fract_y
_atom_site_fract_z
O1 O 0.22138(8) 0.02149(16) 0.00066(5)
O2 O 0.52718(8) 0.29584(17) 0.13902(5)
O3 O 0.36844(8) 0.01889(16) 0.08939(5)
C1 C 0.33293(10) 0.1563(2) 0.13922(6)
C2 C 0.22139(11) 0.1512(2) 0.16405(6)
C3 C 0.42051(10) 0.3042(2) 0.16693(6)
C4 C 0.28063(11) -0.1124(2) 0.05138(6)
C5 C 0.19934(12) 0.2908(3) 0.21779(7)
H1 H 0.12540 0.28640 0.23550
C6 C 0.39561(12) 0.4425(3) 0.21927(7)
H2 H 0.45310 0.54140 0.23750
C7 C 0.12725(13) -0.0045(3) 0.13273(7)
H3 H 0.08610 -0.07140 0.16940
C8 C 0.28489(13) 0.4343(3) 0.24487(7)
H4 H 0.26860 0.52660 0.28060
N1 N -0.04330(12) 0.2700(3) 0.12290(9)
C9 C 0.29247(14) 0.1139(3) -0.04827(8)
H5 H 0.32080 -0.00340 -0.07570
H6 H 0.35910 0.19100 -0.02580
H7 H 0.24560 0.21660 -0.07640
C10 C 0.61447(13) 0.4542(3) 0.16324(8)
H8 H 0.63210 0.43460 0.21100
H9 H 0.58450 0.60210 0.15450
H10 H 0.68570 0.43290 0.14050
C11 C 0.18556(14) -0.1920(3) 0.09542(8)
H11 H 0.22090 -0.29720 0.12830
H12 H 0.12460 -0.27020 0.06740
C12 C 0.03448(12) 0.1190(3) 0.08604(9)
H13 H 0.07520 0.20620 0.05380
H14 H -0.01510 0.01050 0.06080
C13 C 0.34892(16) -0.3018(3) 0.02240(9)
H15 H 0.40980 -0.24240 -0.00360
H16 H 0.29540 -0.39190 -0.00620
H17 H 0.38490 -0.39130 0.05860
O4 O -0.08698(13) 0.1994(4) 0.17269(10)
O5 O -0.06201(16) 0.4545(3) 0.09983(12)
#END
