
#######################################################################
#
#                 Cambridge Crystallographic Data Centre
#                                CCDC
#
#######################################################################
#
# If this CIF has been generated from an entry in the Cambridge
# Structural Database, then it will include bibliographic, chemical,
# crystal, experimental, refinement or atomic coordinate data resulting
# from the CCDC's data processing and validation procedures.
#
#######################################################################

data_CSD_CIF_TAFSAU
_audit_creation_date 1991-05-01
_audit_creation_method CSD-ConQuest-V1
_database_code_CSD TAFSAU
_chemical_formula_sum 'C19 H19 N1 O4'
_chemical_formula_moiety
;
C19 H19 N1 O4
;
_journal_coden_Cambridge 207
_journal_year 1990
_journal_page_first 2487
_journal_name_full 'J.Chem.Soc.,Perkin Trans.1 '
loop_
_publ_author_name
"Kin-Fai Cheng"
"Tze-Tat Wong"
"Wing-Tak Wong"
"Ting-Fong Lai"
_chemical_name_systematic
;
Methyl 
5-methoxy-9-methyl-6-oxo-5,6,6a\b,7\b,8,10a\b-hexahydroindeno(2,1-b)indole-7-c
arboxylate
;
_chemical_melting_point 419.15
_cell_volume   1667.277
_exptl_crystal_colour 'colorless'
_exptl_crystal_density_diffrn 1.296
_exptl_special_details
;
Melting point range 419.15-420.65K

;
_diffrn_ambient_temperature ?
_diffrn_special_details
;
The study was carried out at room temperature,in the range 283-303K

;
#These two values have been output from a single CSD field.
_refine_ls_R_factor_gt 0.046
_refine_ls_wR_factor_gt 0.046
_symmetry_cell_setting monoclinic
_symmetry_space_group_name_H-M 'P 21/c'
_symmetry_Int_Tables_number 14
loop_
_symmetry_equiv_pos_site_id
_symmetry_equiv_pos_as_xyz
1 x,y,z
2 -x,1/2+y,1/2-z
3 -x,-y,-z
4 x,-1/2-y,-1/2+z
_cell_length_a 9.946(1)
_cell_length_b 11.218(3)
_cell_length_c 14.956(2)
_cell_angle_alpha 90
_cell_angle_beta 92.37(1)
_cell_angle_gamma 90
_cell_formula_units_Z 4
loop_
_atom_type_symbol
_atom_type_radius_bond
C 0.68
H 0.23
N 0.68
O 0.68
loop_
_atom_site_label
_atom_site_type_symbol
_atom_site_fract_x
_atom_site_fract_y
_atom_site_fract_z
O1 O -0.2006(2) 0.3355(2) 0.3256(1)
O2 O 0.1239(2) 0.2589(2) 0.3020(1)
O3 O 0.4257(2) 0.3182(1) 0.3256(1)
O4 O 0.4218(2) 0.1227(2) 0.2998(1)
N1 N -0.1342(2) 0.3515(2) 0.4076(1)
C1 C -0.1429(3) 0.3646(2) 0.6457(2)
C2 C -0.1015(2) 0.3539(2) 0.5575(1)
C3 C -0.2764(3) 0.3864(2) 0.6590(2)
C4 C -0.3701(3) 0.3974(2) 0.5873(2)
C5 C -0.3334(2) 0.3880(2) 0.4998(2)
C6 C -0.1989(2) 0.3670(2) 0.4862(2)
C7 C -0.0013(2) 0.3251(2) 0.4274(1)
C8 C 0.0227(2) 0.3283(2) 0.5169(1)
C9 C 0.1155(2) 0.2889(2) 0.3797(1)
C10 C 0.2307(2) 0.2933(2) 0.4504(2)
C11 C 0.3380(2) 0.1981(2) 0.4380(2)
C12 C 0.2824(3) 0.0747(2) 0.4564(2)
C13 C 0.2113(3) 0.0697(2) 0.5429(2)
C14 C 0.1645(2) 0.2896(2) 0.5421(1)
C15 C 0.1639(3) 0.1657(2) 0.5814(2)
C16 C -0.1697(3) 0.4299(3) 0.2657(2)
C17 C 0.1962(4) -0.0535(3) 0.5813(2)
C18 C 0.3976(2) 0.2057(2) 0.3469(2)
C19 C 0.4731(3) 0.3385(3) 0.2374(2)
H1 H 0.275(3) 0.370(3) 0.443(2)
H2 H 0.410(3) 0.214(3) 0.482(2)
H3 H 0.206(3) 0.348(3) 0.583(2)
#END
