
#######################################################################
#
#                 Cambridge Crystallographic Data Centre
#                                CCDC
#
#######################################################################
#
# If this CIF has been generated from an entry in the Cambridge
# Structural Database, then it will include bibliographic, chemical,
# crystal, experimental, refinement or atomic coordinate data resulting
# from the CCDC's data processing and validation procedures.
#
#######################################################################

data_CSD_CIF_TAFSAX
_audit_creation_date 2016-02-10
_audit_creation_method CSD-ConQuest-V1
_database_code_CSD TAFSAX
_database_code_depnum_ccdc_archive 'CCDC 1452801'
_chemical_formula_sum 'C8 H7 N1 O6'
_chemical_formula_moiety
;
C8 H7 N1 O6
;
_journal_coden_Cambridge 4
_journal_volume 138
_journal_year 2016
_journal_page_first 826
_journal_name_full 'J.Am.Chem.Soc. '
loop_
_publ_author_name
"A.Vladimirova"
"Y.Patskovsky"
"A.A.Fedorov"
"J.B.Bonanno"
"E.V.Fedorov"
"R.Toro"
"B.Hillerich"
"R.D.Seidel"
"N.G.J.Richards"
"S.C.Almo"
"F.M.Raushel"
_chemical_name_systematic
;
4-hydroxy-3-methoxy-5-nitrobenzoic acid
;
_cell_volume   1662.931
_exptl_crystal_colour 'yellow'
_exptl_crystal_density_diffrn 1.703
_exptl_crystal_description 'plate'
_diffrn_ambient_temperature 93
#These two values have been output from a single CSD field.
_refine_ls_R_factor_gt 0.0307
_refine_ls_wR_factor_gt 0.0307
_symmetry_cell_setting monoclinic
_symmetry_space_group_name_H-M 'P 21/n'
_symmetry_Int_Tables_number 14
loop_
_symmetry_equiv_pos_site_id
_symmetry_equiv_pos_as_xyz
1 x,y,z
2 1/2-x,1/2+y,1/2-z
3 -x,-y,-z
4 -1/2+x,-1/2-y,-1/2+z
_cell_length_a 7.900(7)
_cell_length_b 15.380(5)
_cell_length_c 13.740(4)
_cell_angle_alpha 90
_cell_angle_beta 95.06(9)
_cell_angle_gamma 90
_cell_formula_units_Z 8
loop_
_atom_type_symbol
_atom_type_radius_bond
C 0.68
H 0.23
N 0.68
O 0.68
loop_
_atom_site_label
_atom_site_type_symbol
_atom_site_fract_x
_atom_site_fract_y
_atom_site_fract_z
C1 C 0.1831(2) 0.07252(11) 0.43672(11)
H1 H 0.15310 0.10480 0.37610
H2 H 0.15670 0.01080 0.42620
H3 H 0.30480 0.07930 0.45590
O1 O 0.08775(13) 0.10570(6) 0.51240(7)
C2 C 0.09196(18) 0.19257(10) 0.52819(11)
C3 C 0.17217(18) 0.25322(10) 0.47533(11)
H4 H 0.23400 0.23500 0.42270
C4 C 0.16395(18) 0.34198(10) 0.49819(11)
C5 C 0.25747(19) 0.40586(10) 0.44295(11)
O2 O 0.24610(14) 0.48531(7) 0.47567(8)
H5 H 0.30340 0.51880 0.44310
O3 O 0.33924(13) 0.38595(7) 0.37483(8)
C6 C 0.07461(18) 0.36897(10) 0.57355(11)
H6 H 0.06720 0.42910 0.58860
C7 C -0.00512(17) 0.30761(10) 0.62779(10)
N1 N -0.09301(16) 0.33849(9) 0.70861(9)
O4 O -0.15428(14) 0.28406(7) 0.76258(8)
O5 O -0.10407(14) 0.41607(8) 0.72299(8)
C8 C 0.00218(18) 0.21907(10) 0.60813(11)
O6 O -0.06802(13) 0.15621(7) 0.65793(8)
H7 H -0.11220 0.17790 0.70580
C9 C 0.4775(2) 0.08841(11) 0.67465(11)
H8 H 0.41980 0.11430 0.61560
H9 H 0.47740 0.02490 0.66820
H10 H 0.59500 0.10940 0.68330
O7 O 0.39105(14) 0.11240(6) 0.75723(8)
C10 C 0.36953(18) 0.19832(10) 0.77008(10)
C11 C 0.43231(18) 0.26294(10) 0.71497(11)
H11 H 0.49480 0.24800 0.66140
C12 C 0.40607(18) 0.35087(9) 0.73621(10)
C13 C 0.48607(19) 0.41792(10) 0.67869(11)
O8 O 0.46966(14) 0.49629(7) 0.71238(8)
H12 H 0.52100 0.53150 0.67870
O9 O 0.56284(13) 0.40003(6) 0.60760(8)
C14 C 0.31301(18) 0.37313(10) 0.81197(11)
H13 H 0.29400 0.43250 0.82660
C15 C 0.24681(18) 0.30763(10) 0.86709(10)
N2 N 0.15048(16) 0.33358(9) 0.94669(9)
O10 O 0.09577(14) 0.27611(7) 0.99927(8)
O11 O 0.12528(14) 0.41031(7) 0.96060(8)
C16 C 0.27337(18) 0.2199(1) 0.84918(10)
O12 O 0.21773(14) 0.15372(7) 0.89981(8)
H14 H 0.16300 0.17290 0.94490
#END
