
#######################################################################
#
#                 Cambridge Crystallographic Data Centre
#                                CCDC
#
#######################################################################
#
# If this CIF has been generated from an entry in the Cambridge
# Structural Database, then it will include bibliographic, chemical,
# crystal, experimental, refinement or atomic coordinate data resulting
# from the CCDC's data processing and validation procedures.
#
#######################################################################

data_CSD_CIF_TAFXIK
_audit_creation_date 2016-02-10
_audit_creation_method CSD-ConQuest-V1
_database_code_CSD TAFXIK
_database_code_depnum_ccdc_archive 'CCDC 1414896'
_chemical_formula_sum 'C16 H22 N5 O3'
_chemical_formula_moiety
;
C16 H22 N5 O3
;
_journal_coden_Cambridge 1088
_journal_volume 27
_journal_year 2016
_journal_page_first 304
_journal_name_full 'Synlett '
loop_
_publ_author_name
"S.M.Barbon"
"P.Gobbo"
"W.Luo"
"J.T.Price"
"M.C.Biesinger"
"M.S.Workentin"
"J.B.Gilroy"
_chemical_name_systematic
;
2-(4-(3-azidopropoxy)phenyl)-4,4,5,5-tetramethyl-4,5-dihydro-1H-imidazol-3-oxi
de-1-oxy radical
;
_cell_volume   1692.177
_exptl_crystal_colour 'blue'
_exptl_crystal_density_diffrn 1.305
_exptl_crystal_description 'plate'
_diffrn_ambient_temperature 150
_diffrn_special_details
;
twin

;
#These two values have been output from a single CSD field.
_refine_ls_R_factor_gt 0.0641
_refine_ls_wR_factor_gt 0.0641
_symmetry_cell_setting monoclinic
_symmetry_space_group_name_H-M 'P 21/c'
_symmetry_Int_Tables_number 14
loop_
_symmetry_equiv_pos_site_id
_symmetry_equiv_pos_as_xyz
1 x,y,z
2 -x,1/2+y,1/2-z
3 -x,-y,-z
4 x,-1/2-y,-1/2+z
_cell_length_a 13.463(3)
_cell_length_b 10.4821(18)
_cell_length_c 13.6217(17)
_cell_angle_alpha 90
_cell_angle_beta 118.323(9)
_cell_angle_gamma 90
_cell_formula_units_Z 4
loop_
_atom_type_symbol
_atom_type_radius_bond
C 0.68
H 0.23
N 0.68
O 0.68
loop_
_atom_site_label
_atom_site_type_symbol
_atom_site_fract_x
_atom_site_fract_y
_atom_site_fract_z
O1 O 1.2916(3) 0.4764(3) 0.9029(2)
N1 N 1.2821(3) 0.3804(3) 0.9557(2)
C1 C 1.2069(3) 0.2832(3) 0.9137(3)
O2 O 1.1715(2) 0.0998(3) 0.99116(19)
N2 N 1.2283(3) 0.2005(3) 0.9975(2)
C2 C 1.3515(3) 0.3726(4) 1.0810(3)
O3 O 0.8894(2) 0.2196(2) 0.46321(18)
N3 N 0.7122(3) 0.1113(3) 0.1297(3)
C3 C 1.3393(3) 0.2285(4) 1.0988(3)
N4 N 0.6730(3) 0.1718(3) 0.0420(3)
C4 C 1.4700(4) 0.4182(4) 1.1172(3)
H1 H 1.51430 0.41270 1.19850
H2 H 1.50480 0.36450 1.08290
H3 H 1.46800 0.50690 1.09360
N5 N 0.6290(4) 0.2154(4) -0.0440(3)
C5 C 1.2915(4) 0.4587(4) 1.1263(3)
H4 H 1.21480 0.42690 1.10150
H5 H 1.33310 0.45890 1.20790
H6 H 1.28790 0.54580 1.09850
C6 C 1.4263(4) 0.1449(4) 1.0890(3)
H7 H 1.50060 0.15950 1.15340
H8 H 1.40540 0.05500 1.08710
H9 H 1.42910 0.16610 1.02030
C7 C 1.3319(4) 0.1969(4) 1.2041(3)
H10 H 1.40450 0.21540 1.26960
H11 H 1.27270 0.24860 1.20680
H12 H 1.31400 0.10620 1.20370
C8 C 1.1202(3) 0.2695(4) 0.7977(3)
C9 C 1.0788(3) 0.1497(4) 0.7535(3)
H13 H 1.10320 0.07670 0.80040
C10 C 1.0019(4) 0.1360(4) 0.6412(3)
H14 H 0.97400 0.05380 0.61170
C11 C 0.9656(3) 0.2425(4) 0.5719(3)
C12 C 1.0051(3) 0.3625(3) 0.6154(3)
H15 H 0.97920 0.43570 0.56880
C13 C 1.0826(3) 0.3753(4) 0.7275(3)
H16 H 1.11050 0.45760 0.75680
C14 C 0.8550(4) 0.3261(3) 0.3865(3)
H17 H 0.91970 0.35810 0.37800
H18 H 0.82610 0.39650 0.41440
C15 C 0.7635(3) 0.2776(3) 0.2765(3)
H19 H 0.73390 0.34950 0.22310
H20 H 0.70060 0.24360 0.28710
C16 C 0.8054(4) 0.1744(4) 0.2281(3)
H21 H 0.85910 0.21200 0.20580
H22 H 0.84650 0.10940 0.28620
#END
