
#######################################################################
#
#                 Cambridge Crystallographic Data Centre
#                                CCDC
#
#######################################################################
#
# If this CIF has been generated from an entry in the Cambridge
# Structural Database, then it will include bibliographic, chemical,
# crystal, experimental, refinement or atomic coordinate data resulting
# from the CCDC's data processing and validation procedures.
#
#######################################################################

data_CSD_CIF_TAGDAG
_audit_creation_date 1991-05-01
_audit_creation_method CSD-ConQuest-V1
_database_code_CSD TAGDAG
_chemical_formula_sum 'C16 H22 N2 O2'
_chemical_formula_moiety
;
C16 H22 N2 O2
;
_journal_coeditor_code "IUCr HU0286"
_journal_coden_Cambridge 591
_journal_volume 46
_journal_year 1990
_journal_page_first 1848
_journal_name_full 'Acta Crystallogr.,Sect.C:Cryst.Struct.Commun. '
loop_
_publ_author_name
"C.Bellver"
"A.Lopez-Castro"
_chemical_name_systematic
;
3-Phenyl-3-piperidino-2,4-pentanedione-mono-oxime
;
_cell_volume   1488.001
_exptl_crystal_colour 'colorless'
_exptl_crystal_density_diffrn 1.22
_diffrn_ambient_temperature ?
_diffrn_special_details
;
The study was carried out at room temperature,in the range 283-303K

;
#These two values have been output from a single CSD field.
_refine_ls_R_factor_gt 0.062
_refine_ls_wR_factor_gt 0.062
_symmetry_cell_setting monoclinic
_symmetry_space_group_name_H-M 'P 21/a'
_symmetry_Int_Tables_number 14
loop_
_symmetry_equiv_pos_site_id
_symmetry_equiv_pos_as_xyz
1 x,y,z
2 1/2-x,1/2+y,-z
3 -x,-y,-z
4 -1/2+x,-1/2-y,z
_cell_length_a 14.253(9)
_cell_length_b 9.994(6)
_cell_length_c 10.468(4)
_cell_angle_alpha 90
_cell_angle_beta 93.70(4)
_cell_angle_gamma 90
_cell_formula_units_Z 4
loop_
_atom_type_symbol
_atom_type_radius_bond
C 0.68
H 0.23
N 0.68
O 0.68
loop_
_atom_site_label
_atom_site_type_symbol
_atom_site_fract_x
_atom_site_fract_y
_atom_site_fract_z
O1 O 0.4418(2) 0.4398(2) 0.2303(2)
O2 O 0.6767(2) 0.3742(2) -0.0870(2)
N1 N 0.6477(2) 0.3235(2) 0.3493(2)
N2 N 0.6260(2) 0.3940(3) 0.0233(2)
C1 C 0.5712(3) 0.5848(3) 0.2174(3)
C2 C 0.5257(2) 0.4489(3) 0.2204(3)
C3 C 0.5893(2) 0.32420 0.2277(3)
C4 C 0.6504(2) 0.3125(3) 0.1136(3)
C5 C 0.7211(2) 0.2032(3) 0.1083(3)
C6 C 0.5296(2) 0.1934(3) 0.2178(3)
C7 C 0.4627(2) 0.1789(3) 0.1161(3)
C8 C 0.4128(2) 0.0603(3) 0.0981(3)
C9 C 0.4299(2) -0.0466(3) 0.1796(3)
C10 C 0.4971(2) -0.0341(3) 0.2803(3)
C11 C 0.5476(2) 0.0846(3) 0.2984(3)
C12 C 0.5953(2) 0.3424(3) 0.4641(3)
C13 C 0.6541(3) 0.2931(4) 0.5815(3)
C14 C 0.7490(3) 0.3625(4) 0.5939(3)
C15 C 0.7982(2) 0.3517(4) 0.4698(3)
C16 C 0.7343(2) 0.4025(3) 0.3578(3)
H1 H 0.67200 0.42300 -0.17100
H2 H 0.55800 0.63200 0.29900
H3 H 0.54000 0.63500 0.14300
H4 H 0.64100 0.59400 0.20900
H5 H 0.78100 0.24800 0.08700
H6 H 0.69900 0.14400 0.03500
H7 H 0.74100 0.13800 0.17900
H8 H 0.45000 0.25600 0.05500
H9 H 0.36300 0.05300 0.02500
H10 H 0.39400 -0.13200 0.16600
H11 H 0.51000 -0.11200 0.34100
H12 H 0.59700 0.09300 0.37200
H13 H 0.53100 0.29900 0.45600
H14 H 0.57500 0.43800 0.47500
H15 H 0.61900 0.30000 0.66200
H16 H 0.66200 0.19200 0.57900
H17 H 0.78900 0.32900 0.67000
H18 H 0.74200 0.45900 0.62100
H19 H 0.82000 0.25700 0.45400
H20 H 0.86100 0.39800 0.47500
H21 H 0.72200 0.50200 0.36500
H22 H 0.76600 0.40300 0.27500
#END
