
#######################################################################
#
#                 Cambridge Crystallographic Data Centre
#                                CCDC
#
#######################################################################
#
# If this CIF has been generated from an entry in the Cambridge
# Structural Database, then it will include bibliographic, chemical,
# crystal, experimental, refinement or atomic coordinate data resulting
# from the CCDC's data processing and validation procedures.
#
#######################################################################

data_CSD_CIF_TAGMIA
_audit_creation_date 2016-02-10
_audit_creation_method CSD-ConQuest-V1
_database_code_CSD TAGMIA
_database_code_depnum_ccdc_archive 'CCDC 1444786'
_chemical_formula_sum 'C14 H14 N2 O2'
_chemical_formula_moiety
;
C14 H14 N2 O2
;
_journal_coden_Cambridge 1048
_journal_volume 18
_journal_year 2016
_journal_page_first 2323
_journal_name_full 'Green Chemistry '
loop_
_publ_author_name
"P.Chaudhary"
"S.Gupta"
"N.Muniyappan"
"S.Sabiah"
"J.Kandasamy"
_chemical_name_systematic
;
N-(4-methoxybenzyl)-N-nitrosoaniline
;
_cell_volume    607.933
_exptl_crystal_colour 'pale yellow'
_exptl_crystal_density_diffrn 1.324
_exptl_crystal_description 'block'
_diffrn_ambient_temperature 293
#These two values have been output from a single CSD field.
_refine_ls_R_factor_gt 0.0299
_refine_ls_wR_factor_gt 0.0299
_symmetry_cell_setting monoclinic
_symmetry_space_group_name_H-M 'P 21'
_symmetry_Int_Tables_number 4
loop_
_symmetry_equiv_pos_site_id
_symmetry_equiv_pos_as_xyz
1 x,y,z
2 -x,1/2+y,-z
_cell_length_a 7.5292(5)
_cell_length_b 5.7936(3)
_cell_length_c 13.9668(9)
_cell_angle_alpha 90
_cell_angle_beta 93.766(4)
_cell_angle_gamma 90
_cell_formula_units_Z 2
loop_
_atom_type_symbol
_atom_type_radius_bond
C 0.68
H 0.23
N 0.68
O 0.68
loop_
_atom_site_label
_atom_site_type_symbol
_atom_site_fract_x
_atom_site_fract_y
_atom_site_fract_z
C1 C -0.3369(4) 0.0072(5) 0.9789(2)
H1 H -0.33630 -0.12840 0.93940
H2 H -0.45240 0.02560 1.00330
H3 H -0.24910 -0.00860 1.03160
C2 C -0.1380(3) 0.2066(5) 0.88130(16)
C3 C -0.0091(3) 0.0379(4) 0.89272(17)
H4 H -0.02750 -0.09030 0.93090
C4 C 0.1479(3) 0.0602(4) 0.84715(17)
H5 H 0.23400 -0.05450 0.85530
C5 C 0.1799(3) 0.2480(4) 0.79004(15)
C6 C 0.0493(3) 0.4159(4) 0.77983(16)
H6 H 0.06790 0.54470 0.74200
C7 C -0.1080(3) 0.3964(4) 0.82466(17)
H7 H -0.19410 0.51120 0.81670
C8 C 0.3560(3) 0.2667(4) 0.74437(17)
H8 H 0.45010 0.28680 0.79450
H9 H 0.37840 0.12330 0.71140
C9 C 0.3026(3) 0.4377(4) 0.57771(16)
C10 C 0.2068(3) 0.2452(4) 0.54633(18)
H10 H 0.18110 0.12940 0.58940
C11 C 0.1499(3) 0.2262(5) 0.45099(19)
H11 H 0.08630 0.09610 0.42990
C12 C 0.1855(3) 0.3956(5) 0.38664(19)
H12 H 0.14650 0.38120 0.32240
C13 C 0.2797(3) 0.5873(5) 0.41835(18)
H13 H 0.30320 0.70380 0.37510
C14 C 0.3394(3) 0.6090(4) 0.51281(18)
H14 H 0.40450 0.73840 0.53320
N1 N 0.4201(3) 0.6657(4) 0.70457(16)
N2 N 0.3634(2) 0.4572(3) 0.67620(14)
O1 O -0.2967(2) 0.2044(3) 0.92339(13)
O2 O 0.4691(3) 0.6791(4) 0.79055(13)
#END
