
#######################################################################
#
#                 Cambridge Crystallographic Data Centre
#                                CCDC
#
#######################################################################
#
# If this CIF has been generated from an entry in the Cambridge
# Structural Database, then it will include bibliographic, chemical,
# crystal, experimental, refinement or atomic coordinate data resulting
# from the CCDC's data processing and validation procedures.
#
#######################################################################

data_CSD_CIF_TAGYEI
_audit_creation_date 2016-02-11
_audit_creation_method CSD-ConQuest-V1
_database_code_CSD TAGYEI
_database_code_depnum_ccdc_archive 'CCDC 1416892'
_chemical_formula_sum 'C21 H17 N3 O2'
_chemical_formula_moiety
;
C21 H17 N3 O2
;
_journal_coden_Cambridge 1088
_journal_volume 27
_journal_year 2016
_journal_page_first 387
_journal_name_full 'Synlett '
loop_
_publ_author_name
"Ke Li"
"Xinju Zhu"
"Shuai Lu"
"Xin-Yue Zhou"
"Yan Xu"
"Xin-Qi Hao"
"Mao-Ping Song"
_chemical_name_systematic
;
3-(2-nitro-1-phenylethyl)-2-phenylimidazo[1,2-a]pyridine
;
_cell_volume    867.190
_exptl_crystal_colour 'colorless'
_exptl_crystal_density_diffrn 1.315
_exptl_crystal_description 'block'
_exptl_crystal_preparation 'ethyl acetate / petroleum ether'
_diffrn_ambient_temperature 291.1
#These two values have been output from a single CSD field.
_refine_ls_R_factor_gt 0.0422
_refine_ls_wR_factor_gt 0.0422
_symmetry_cell_setting triclinic
_symmetry_space_group_name_H-M 'P -1'
_symmetry_Int_Tables_number 2
loop_
_symmetry_equiv_pos_site_id
_symmetry_equiv_pos_as_xyz
1 x,y,z
2 -x,-y,-z
_cell_length_a 8.3203(6)
_cell_length_b 9.4899(5)
_cell_length_c 11.9706(9)
_cell_angle_alpha 110.933(6)
_cell_angle_beta 90.262(6)
_cell_angle_gamma 99.973(5)
_cell_formula_units_Z 2
loop_
_atom_type_symbol
_atom_type_radius_bond
C 0.68
H 0.23
N 0.68
O 0.68
loop_
_atom_site_label
_atom_site_type_symbol
_atom_site_fract_x
_atom_site_fract_y
_atom_site_fract_z
C1 C 0.2986(2) 0.4321(2) 0.25687(15)
H1 H 0.35550 0.45620 0.33030
C2 C 0.1507(2) 0.4717(2) 0.25225(18)
H2 H 0.10560 0.52290 0.32290
C3 C 0.0646(2) 0.4356(2) 0.14060(19)
H3 H -0.03740 0.46240 0.13840
C4 C 0.1288(2) 0.3624(2) 0.03709(17)
H4 H 0.07150 0.33910 -0.03610
C5 C 0.28327(19) 0.32174(18) 0.04055(14)
C6 C 0.51038(19) 0.24067(17) 0.00736(14)
C7 C 0.50965(18) 0.30254(17) 0.13043(13)
C8 C 0.63396(19) 0.32216(18) 0.22895(13)
H5 H 0.72910 0.28440 0.18930
C9 C 0.69465(18) 0.49050(17) 0.30803(13)
C10 C 0.6961(2) 0.60367(19) 0.25993(15)
H6 H 0.65590 0.57620 0.18090
C11 C 0.7559(3) 0.7563(2) 0.32686(18)
H7 H 0.75500 0.83040 0.29300
C12 C 0.8168(3) 0.7990(2) 0.44351(18)
H8 H 0.85640 0.90190 0.48900
C13 C 0.8187(3) 0.6881(2) 0.49252(17)
H9 H 0.86140 0.71620 0.57100
C14 C 0.7576(2) 0.5352(2) 0.42577(15)
H10 H 0.75860 0.46150 0.46010
C15 C 0.6374(2) 0.17135(17) -0.06750(14)
C16 C 0.6633(2) 0.1975(2) -0.17412(16)
H11 H 0.60250 0.25920 -0.19480
C17 C 0.7773(3) 0.1332(2) -0.24921(17)
H12 H 0.79400 0.15280 -0.31950
C18 C 0.8666(2) 0.0399(2) -0.22034(17)
H13 H 0.94340 -0.00370 -0.27110
C19 C 0.8416(2) 0.0114(2) -0.11569(16)
H14 H 0.90170 -0.05170 -0.09630
C20 C 0.7275(2) 0.07621(18) -0.03948(14)
H15 H 0.71100 0.05610 0.03060
C21 C 0.5698(2) 0.2174(2) 0.29792(16)
H16 H 0.50290 0.26960 0.35980
H17 H 0.50080 0.12480 0.24320
N1 N 0.36364(15) 0.35584(15) 0.15205(11)
N2 N 0.37069(17) 0.25234(16) -0.04742(12)
N3 N 0.7039(3) 0.1737(2) 0.35469(18)
O1 O 0.6865(3) 0.1656(3) 0.45187(19)
O2 O 0.8227(3) 0.1462(3) 0.2997(2)
#END
