
#######################################################################
#
#                 Cambridge Crystallographic Data Centre
#                                CCDC
#
#######################################################################
#
# If this CIF has been generated from an entry in the Cambridge
# Structural Database, then it will include bibliographic, chemical,
# crystal, experimental, refinement or atomic coordinate data resulting
# from the CCDC's data processing and validation procedures.
#
#######################################################################

data_CSD_CIF_TAGZAF
_audit_creation_date 2016-02-11
_audit_creation_method CSD-ConQuest-V1
_database_code_CSD TAGZAF
_database_code_depnum_ccdc_archive 'CCDC 1422379'
_chemical_formula_sum 'C15 H19 N1 O3'
_chemical_formula_moiety
;
C15 H19 N1 O3
;
_journal_coden_Cambridge 1088
_journal_volume 27
_journal_year 2016
_journal_page_first 447
_journal_name_full 'Synlett '
loop_
_publ_author_name
"Z.T.I.Alkayar"
"H.Adams"
"I.Coldham"
_chemical_name_systematic
;
methyl 1-methyl-6-phenylhexahydro-1H-cyclopenta[c][1,2]oxazole-6-carboxylate
;
_cell_volume   1298.234
_exptl_crystal_colour 'colorless'
_exptl_crystal_density_diffrn 1.337
_exptl_crystal_description 'BLOCK'
_diffrn_ambient_temperature 100
#These two values have been output from a single CSD field.
_refine_ls_R_factor_gt 0.0268
_refine_ls_wR_factor_gt 0.0268
loop_
_citation_database_id_CSD
_citation_special_details
TAGYUY "is a stereoisomer of this entry"
_symmetry_cell_setting orthorhombic
_symmetry_space_group_name_H-M 'P n a 21'
_symmetry_Int_Tables_number 33
loop_
_symmetry_equiv_pos_site_id
_symmetry_equiv_pos_as_xyz
1 x,y,z
2 -x,-y,1/2+z
3 1/2+x,1/2-y,z
4 1/2-x,1/2+y,1/2+z
_cell_length_a 14.3226(3)
_cell_length_b 14.6136(3)
_cell_length_c 6.2026(2)
_cell_angle_alpha 90
_cell_angle_beta 90
_cell_angle_gamma 90
_cell_formula_units_Z 4
loop_
_atom_type_symbol
_atom_type_radius_bond
C 0.68
H 0.23
N 0.68
O 0.68
loop_
_atom_site_label
_atom_site_type_symbol
_atom_site_fract_x
_atom_site_fract_y
_atom_site_fract_z
O1 O 0.13102(8) 0.23607(9) 0.3120(2)
O2 O 0.37891(8) 0.51531(8) 0.4921(2)
O3 O 0.36941(9) 0.40887(9) 0.7499(2)
N1 N 0.12924(10) 0.28817(9) 0.5121(3)
C1 C 0.21686(13) 0.18477(11) 0.3139(4)
H1 H 0.23440 0.16570 0.16620
H2 H 0.21090 0.12960 0.40540
C2 C 0.28875(12) 0.25011(12) 0.4063(3)
H3 H 0.33690 0.21700 0.49340
C3 C 0.33407(12) 0.31261(11) 0.2355(3)
H4 H 0.39890 0.32830 0.27660
H5 H 0.33480 0.28240 0.09270
C4 C 0.27251(12) 0.39834(11) 0.2312(3)
H6 H 0.21500 0.38790 0.14610
H7 H 0.30660 0.45130 0.17050
C5 C 0.24997(12) 0.41303(11) 0.4706(3)
C6 C 0.22752(11) 0.31423(11) 0.5505(3)
H8 H 0.24420 0.30700 0.70620
C7 C 0.1750(1) 0.48447(10) 0.5186(3)
C8 C 0.13163(11) 0.48764(11) 0.7199(3)
H9 H 0.14760 0.44360 0.82640
C9 C 0.06535(11) 0.55421(11) 0.7670(3)
H10 H 0.03630 0.55530 0.90460
C10 C 0.04156(12) 0.61909(11) 0.6130(3)
H11 H -0.00390 0.66450 0.64430
C11 C 0.08477(12) 0.61691(12) 0.4133(3)
H12 H 0.06890 0.66140 0.30770
C12 C 0.15105(12) 0.55053(11) 0.3652(3)
H13 H 0.18020 0.55000 0.22770
C13 C 0.33845(12) 0.44354(11) 0.5893(3)
C14 C 0.46239(12) 0.54970(12) 0.5974(4)
H14 H 0.44630 0.57240 0.74140
H15 H 0.48900 0.59960 0.51170
H16 H 0.50820 0.50020 0.61040
C15 C 0.09500(14) 0.22670(12) 0.6809(4)
H17 H 0.03270 0.20450 0.64210
H18 H 0.09180 0.25980 0.81800
H19 H 0.13770 0.17460 0.69540
#END
