
#######################################################################
#
#                 Cambridge Crystallographic Data Centre
#                                CCDC
#
#######################################################################
#
# If this CIF has been generated from an entry in the Cambridge
# Structural Database, then it will include bibliographic, chemical,
# crystal, experimental, refinement or atomic coordinate data resulting
# from the CCDC's data processing and validation procedures.
#
#######################################################################

data_CSD_CIF_TAGZIK
_audit_creation_date 1992-01-27
_audit_creation_method CSD-ConQuest-V1
_database_code_CSD TAGZIK
_chemical_formula_sum 'C20 H29 N3 O12'
_chemical_formula_moiety
;
C20 H29 N3 O12
;
_journal_coden_Cambridge 156
_journal_volume 210
_journal_year 1991
_journal_page_first 327
_journal_name_full 'Carbohydr.Res. '
loop_
_publ_author_name
"M.Mancera"
"E.Rodriguez"
"I.Roffe"
"J.A.Galbis"
"C.F.Conde"
"A.Conde"
_chemical_name_systematic
;
(3R,4S,5S)-3,5-Dimethyl-3-nitro-4-(penta-O-acetyl-D-manno-pentitol-1-yl)-1-pyr
azoline
;
_chemical_melting_point 372.15
_cell_volume   2486.240
_exptl_special_details
;
Melting point range 372.15-373.15K

;
_diffrn_ambient_temperature ?
_diffrn_special_details
;
The study was carried out at room temperature,in the range 283-303K

;
#These two values have been output from a single CSD field.
_refine_ls_R_factor_gt 0.12
_refine_ls_wR_factor_gt 0.12
_symmetry_cell_setting orthorhombic
_symmetry_space_group_name_H-M 'P 21 21 21'
_symmetry_Int_Tables_number 19
loop_
_symmetry_equiv_pos_site_id
_symmetry_equiv_pos_as_xyz
1 x,y,z
2 1/2+x,1/2-y,-z
3 -x,1/2+y,1/2-z
4 1/2-x,-y,1/2+z
_cell_length_a 15.042(9)
_cell_length_b 21.463(12)
_cell_length_c 7.701(8)
_cell_angle_alpha 90
_cell_angle_beta 90
_cell_angle_gamma 90
_cell_formula_units_Z 4
loop_
_atom_type_symbol
_atom_type_radius_bond
C 0.68
N 0.68
O 0.67
loop_
_atom_site_label
_atom_site_type_symbol
_atom_site_fract_x
_atom_site_fract_y
_atom_site_fract_z
C1 C 0.5874(25) 0.4412(17) 0.3580(57)
C2 C 0.5575(25) 0.5020(17) 0.3854(57)
C3 C 0.6919(26) 0.4625(18) 0.3256(53)
C4 C 0.5485(26) 0.4217(18) 0.1724(55)
C5 C 0.4586(26) 0.3873(18) 0.2188(58)
C6 C 0.4555(25) 0.3309(18) 0.3356(53)
C7 C 0.3602(27) 0.2978(18) 0.3358(53)
C8 C 0.3601(24) 0.2411(17) 0.4115(59)
C9 C 0.4933(26) 0.5114(15) 0.2213(53)
C10 C 0.7542(23) 0.4171(17) 0.4199(54)
C11 C 0.6308(26) 0.3788(19) -0.0633(54)
C12 C 0.7020(24) 0.3395(17) -0.1085(52)
C13 C 0.3650(25) 0.4081(19) -0.0314(54)
C14 C 0.3188(25) 0.3935(17) -0.1868(53)
C15 C 0.5950(26) 0.2715(17) 0.3725(52)
C16 C 0.6436(23) 0.2168(16) 0.2533(52)
C17 C 0.2223(27) 0.3604(18) 0.2738(55)
C18 C 0.1766(23) 0.4125(16) 0.3873(54)
C19 C 0.4390(26) 0.2107(18) 0.6545(60)
C20 C 0.4640(23) 0.2218(17) 0.8624(54)
N1 N 0.6295(21) 0.5496(13) 0.4601(41)
N2 N 0.6931(19) 0.5188(14) 0.4192(45)
N3 N 0.4959(21) 0.5247(14) 0.4907(46)
O1 O 0.6123(16) 0.3771(12) 0.1157(36)
O2 O 0.5908(15) 0.4193(12) -0.1387(34)
O3 O 0.4193(16) 0.3729(11) 0.0583(36)
O4 O 0.3437(16) 0.4581(11) 0.0506(32)
O5 O 0.5125(16) 0.2760(11) 0.2399(36)
O6 O 0.6101(16) 0.3031(11) 0.4875(36)
O7 O 0.3009(16) 0.3460(12) 0.3776(36)
O8 O 0.2101(17) 0.3243(11) 0.1773(34)
O9 O 0.3799(16) 0.2463(11) 0.5938(37)
O10 O 0.4713(15) 0.1714(11) 0.5692(34)
O11 O 0.4366(16) 0.4840(11) 0.5192(36)
O12 O 0.4980(16) 0.5293(11) 0.6642(34)
#END
