
#######################################################################
#
#                 Cambridge Crystallographic Data Centre
#                                CCDC
#
#######################################################################
#
# If this CIF has been generated from an entry in the Cambridge
# Structural Database, then it will include bibliographic, chemical,
# crystal, experimental, refinement or atomic coordinate data resulting
# from the CCDC's data processing and validation procedures.
#
#######################################################################

data_CSD_CIF_TAGZEJ
_audit_creation_date 2016-02-11
_audit_creation_method CSD-ConQuest-V1
_database_code_CSD TAGZEJ
_database_code_depnum_ccdc_archive 'CCDC 1422380'
_chemical_formula_sum 'C16 H21 N1 O3'
_chemical_formula_moiety
;
C16 H21 N1 O3
;
_journal_coden_Cambridge 1088
_journal_volume 27
_journal_year 2016
_journal_page_first 447
_journal_name_full 'Synlett '
loop_
_publ_author_name
"Z.T.I.Alkayar"
"H.Adams"
"I.Coldham"
_chemical_name_systematic
;
methyl 8-methyl-2-phenyl-7-oxa-8-azabicyclo[4.2.1]nonane-2-carboxylate
;
_cell_volume   2870.350
_exptl_crystal_colour 'white'
_exptl_crystal_density_diffrn 1.274
_exptl_crystal_description 'block'
_diffrn_ambient_temperature 100
#These two values have been output from a single CSD field.
_refine_ls_R_factor_gt 0.0353
_refine_ls_wR_factor_gt 0.0353
_symmetry_cell_setting monoclinic
_symmetry_space_group_name_H-M 'C 2/c'
_symmetry_Int_Tables_number 15
loop_
_symmetry_equiv_pos_site_id
_symmetry_equiv_pos_as_xyz
1 x,y,z
2 -x,y,1/2-z
3 1/2+x,1/2+y,z
4 1/2-x,1/2+y,1/2-z
5 -x,-y,-z
6 x,-y,-1/2+z
7 -1/2-x,-1/2-y,-z
8 -1/2+x,-1/2-y,-1/2+z
_cell_length_a 23.9178(6)
_cell_length_b 7.9721(2)
_cell_length_c 16.2844(4)
_cell_angle_alpha 90
_cell_angle_beta 112.419(1)
_cell_angle_gamma 90
_cell_formula_units_Z 8
loop_
_atom_type_symbol
_atom_type_radius_bond
C 0.68
H 0.23
N 0.68
O 0.68
loop_
_atom_site_label
_atom_site_type_symbol
_atom_site_fract_x
_atom_site_fract_y
_atom_site_fract_z
O1 O 0.61603(4) 0.15658(11) 0.39198(6)
O2 O 0.56618(4) 0.66668(11) 0.51656(6)
O3 O 0.66520(4) 0.68385(11) 0.59926(6)
N1 N 0.58230(5) 0.16408(13) 0.44996(7)
C1 C 0.60577(6) 0.30889(17) 0.33815(8)
H1 H 0.58550 0.28020 0.27370
C2 C 0.56406(6) 0.41705(16) 0.36713(8)
H2 H 0.52140 0.40590 0.32550
H3 H 0.57600 0.53670 0.37140
C3 C 0.57354(5) 0.34436(15) 0.45884(8)
H4 H 0.53600 0.36180 0.47090
C4 C 0.62850(5) 0.41635(15) 0.53742(7)
C5 C 0.68923(5) 0.39719(16) 0.52537(8)
H5 H 0.72180 0.44160 0.57920
H6 H 0.69710 0.27600 0.52180
C6 C 0.69371(6) 0.48449(17) 0.44371(8)
H7 H 0.67270 0.59400 0.43560
H8 H 0.73690 0.50750 0.45630
C7 C 0.66727(6) 0.38693(18) 0.35623(8)
H9 H 0.66370 0.46380 0.30670
H10 H 0.69590 0.29680 0.35690
C8 C 0.52532(6) 0.07481(17) 0.40422(9)
H11 H 0.50490 0.12200 0.34460
H12 H 0.49930 0.08700 0.43800
H13 H 0.53370 -0.04440 0.39940
C9 C 0.61553(5) 0.60194(15) 0.54784(8)
C10 C 0.65697(6) 0.85797(17) 0.61763(10)
H14 H 0.64000 0.92020 0.56160
H15 H 0.69610 0.90660 0.65480
H16 H 0.62920 0.86490 0.64890
C11 C 0.63066(5) 0.33199(14) 0.62427(8)
C12 C 0.68351(6) 0.26348(16) 0.68638(8)
H17 H 0.72000 0.27010 0.67620
C13 C 0.68371(6) 0.18573(16) 0.76282(8)
H18 H 0.72030 0.14020 0.80430
C14 C 0.63127(6) 0.17389(16) 0.77920(8)
H19 H 0.63120 0.11820 0.83080
C15 C 0.57873(6) 0.24483(18) 0.71895(8)
H20 H 0.54250 0.23910 0.72990
C16 C 0.57836(6) 0.32402(16) 0.64292(8)
H21 H 0.54200 0.37350 0.60300
#END
