
#######################################################################
#
#                 Cambridge Crystallographic Data Centre
#                                CCDC
#
#######################################################################
#
# If this CIF has been generated from an entry in the Cambridge
# Structural Database, then it will include bibliographic, chemical,
# crystal, experimental, refinement or atomic coordinate data resulting
# from the CCDC's data processing and validation procedures.
#
#######################################################################

data_CSD_CIF_TAHLET10
_audit_creation_date 1993-06-03
_audit_creation_method CSD-ConQuest-V1
_database_code_CSD TAHLET10
_chemical_formula_sum 'C17 H20 N2 O2'
_chemical_formula_moiety
;
C17 H20 N2 O2
;
_journal_coden_Cambridge 207
_journal_year 1993
_journal_page_first 81
_journal_name_full 'J.Chem.Soc.,Perkin Trans.1 '
loop_
_publ_author_name
"T.Kurihara"
"Y.Sakamoto"
"K.Tsukamoto"
"H.Ohishi"
"S.Harusawa"
"R.Yoneda"
_chemical_name_systematic
;
(1,13b-trans-13-Methyl-1,4,7,8,13,13b-hexahydro(1',2')oxazepino(2',3':1,2)pyri
do(3,4-b)indol-1-yl)methanol
;
_chemical_melting_point 414.15
_cell_volume   2961.081
_exptl_crystal_colour 'colorless'
_exptl_special_details
;
Melting point range 414.15-416.15K

;
_diffrn_ambient_temperature ?
_diffrn_special_details
;
The study was carried out at room temperature,in the range 283-303K

;
#These two values have been output from a single CSD field.
_refine_ls_R_factor_gt 0.0443
_refine_ls_wR_factor_gt 0.0443
loop_
_citation_database_id_CSD
_citation_special_details
TAHLET21 "is a reinterpretation of this cif"
_symmetry_cell_setting monoclinic
_symmetry_space_group_name_H-M 'P c'
_symmetry_Int_Tables_number 7
loop_
_symmetry_equiv_pos_site_id
_symmetry_equiv_pos_as_xyz
1 x,y,z
2 x,-y,1/2+z
_cell_length_a 18.499(4)
_cell_length_b 6.2149(9)
_cell_length_c 26.45(1)
_cell_angle_alpha 90
_cell_angle_beta 103.16(3)
_cell_angle_gamma 90
_cell_formula_units_Z 8
loop_
_atom_type_symbol
_atom_type_radius_bond
C 0.68
H 0.23
N 0.68
O 0.68
loop_
_atom_site_label
_atom_site_type_symbol
_atom_site_fract_x
_atom_site_fract_y
_atom_site_fract_z
C1 C 0.9428(3) 0.2564(9) 0.3598(2)
C2 C 0.9883(3) 0.0971(8) 0.4011(2)
C3 C 0.9693(4) -0.0007(9) 0.4393(2)
C4 C 0.8930(3) 0.002(1) 0.4538(2)
O1 O 0.8397(2) 0.1181(7) 0.4155(1)
N1 N 0.8368(3) 0.0175(8) 0.3656(2)
C5 C 0.7570(3) -0.046(1) 0.3458(3)
C6 C 0.7562(3) -0.182(1) 0.2968(2)
C7 C 0.8012(3) -0.0687(8) 0.2650(2)
C8 C 0.8027(3) -0.109(1) 0.2115(2)
C9 C 0.7659(3) -0.2632(9) 0.1738(2)
C10 C 0.7761(4) -0.267(1) 0.1262(3)
C11 C 0.8293(4) -0.105(1) 0.1121(2)
C12 C 0.8658(4) 0.046(1) 0.1482(2)
C13 C 0.8518(3) 0.0404(9) 0.1991(2)
N2 N 0.8787(2) 0.1659(7) 0.2394(2)
C14 C 0.8504(3) 0.0960(9) 0.2789(2)
C15 C 0.8645(3) 0.1903(8) 0.3354(2)
C16 C 0.9248(4) 0.363(1) 0.2396(2)
C17 C 0.9440(3) 0.4801(8) 0.3855(2)
O2 O 0.9246(2) 0.6266(5) 0.3458(1)
C18 C 0.0252(2) 0.2531(8) 0.6218(2)
C19 C -0.0174(4) 0.4002(9) 0.5824(3)
C20 C 0.0028(3) 0.493(1) 0.5417(2)
C21 C 0.0740(5) 0.500(1) 0.5321(2)
O3 O 0.1298(2) 0.3813(7) 0.5682(2)
N3 N 0.1336(2) 0.4813(8) 0.6183(2)
C22 C 0.2101(3) 0.533(1) 0.6401(2)
C23 C 0.2159(3) 0.6687(9) 0.6877(3)
C24 C 0.1684(3) 0.5719(9) 0.7218(2)
C25 C 0.1670(3) 0.6110(8) 0.7734(2)
C26 C 0.1996(4) 0.764(1) 0.8089(3)
C27 C 0.1847(3) 0.744(1) 0.8605(2)
C28 C 0.1413(3) 0.598(1) 0.8720(3)
C29 C 0.1058(3) 0.4443(9) 0.8366(2)
C30 C 0.1189(3) 0.4559(9) 0.7883(2)
N4 N 0.0920(2) 0.3246(7) 0.7434(2)
C31 C 0.1236(3) 0.3991(8) 0.7019(2)
C32 C 0.1092(3) 0.3150(9) 0.6498(2)
C33 C 0.0499(3) 0.1340(9) 0.7490(2)
C34 C 0.0230(4) 0.032(1) 0.5974(2)
O4 O 0.0517(2) -0.1269(7) 0.6395(2)
C35 C 0.5396(3) 0.4937(9) 0.0947(2)
C36 C 0.6091(3) 0.342(1) 0.1034(2)
C37 C 0.6475(3) 0.250(1) 0.1425(3)
C38 C 0.6294(3) 0.238(1) 0.1926(2)
O5 O 0.5605(2) 0.3619(8) 0.1982(2)
N5 N 0.4988(3) 0.257(1) 0.1612(2)
C39 C 0.4418(4) 0.213(1) 0.1893(2)
C40 C 0.3837(4) 0.066(1) 0.1510(2)
C41 C 0.3688(3) 0.1793(9) 0.1010(2)
C42 C 0.3049(3) 0.1523(9) 0.0575(2)
C43 C 0.2440(3) -0.004(1) 0.0501(2)
C44 C 0.1940(3) 0.015(1) 0.0028(3)
C45 C 0.1988(3) 0.164(1) -0.0308(3)
C46 C 0.2547(3) 0.3101(9) -0.0240(2)
C47 C 0.3088(3) 0.2993(9) 0.0214(2)
N6 N 0.3683(3) 0.4200(7) 0.0392(2)
C48 C 0.4072(3) 0.3453(9) 0.0881(2)
C49 C 0.4777(3) 0.4294(9) 0.1235(2)
C50 C 0.3860(4) 0.615(1) 0.0130(3)
C51 C 0.5699(3) 0.7214(9) 0.1131(3)
O6 O 0.5136(2) 0.8715(6) 0.0919(2)
C52 C 0.4292(3) -0.007(1) 0.3884(2)
C53 C 0.3652(3) -0.154(1) 0.3823(3)
C54 C 0.3269(3) -0.256(1) 0.3359(3)
C55 C 0.3442(4) -0.250(1) 0.2820(3)
O7 O 0.4061(2) -0.1436(7) 0.2842(2)
N7 N 0.4658(2) -0.2381(7) 0.3235(2)
C56 C 0.5237(4) -0.318(1) 0.2955(3)
C57 C 0.5794(3) -0.440(1) 0.3310(2)
C58 C 0.6048(3) -0.3323(9) 0.3834(2)
C59 C 0.6657(3) -0.3745(9) 0.4234(2)
C60 C 0.7217(3) -0.519(1) 0.4343(3)
C61 C 0.7775(4) -0.502(1) 0.4804(3)
C62 C 0.7762(3) -0.328(1) 0.5200(2)
C63 C 0.7168(3) -0.174(1) 0.5096(3)
C64 C 0.6633(3) -0.202(1) 0.4623(2)
N8 N 0.5985(2) -0.0714(7) 0.4438(2)
C65 C 0.5650(3) -0.1553(9) 0.3962(2)
C66 C 0.4946(3) -0.0673(8) 0.3624(2)
C67 C 0.5854(3) 0.1216(9) 0.4707(2)
C68 C 0.4006(3) 0.214(1) 0.3728(2)
O8 O 0.45923(2) 0.3691(7) 0.3871(2)
H1 H 0.970(4) 0.27(1) 0.330(2)
H2 H 1.039(3) 0.07(1) 0.398(2)
H3 H 1.010(4) -0.09(1) 0.464(2)
H4 H 0.872(3) -0.16(1) 0.454(2)
H5 H 0.897(3) 0.06(1) 0.489(2)
H6 H 0.741(3) -0.13(1) 0.373(2)
H7 H 0.722(3) 0.09(1) 0.333(2)
H8 H 0.776(3) -0.33(1) 0.310(2)
H9 H 0.704(3) -0.20(1) 0.277(2)
H10 H 0.728(3) -0.36(1) 0.188(2)
H11 H 0.751(3) -0.40(1) 0.100(2)
H12 H 0.838(3) -0.10(1) 0.069(2)
H13 H 0.902(3) 0.16(1) 0.137(2)
H14 H 0.975(3) 0.31(1) 0.233(2)
H15 H 0.933(4) 0.44(1) 0.275(2)
H16 H 0.899(3) 0.47(1) 0.212(2)
H17 H 0.833(3) 0.33(1) 0.339(2)
H18 H 0.997(3) 0.51(1) 0.408(2)
H19 H 0.908(3) 0.47(1) 0.410(2)
H20 H 0.878(3) 0.73(1) 0.353(2)
H21 H 0.510(3) 0.48(1) 0.054(2)
H22 H 0.630(3) 0.32(1) 0.069(2)
H23 H 0.691(4) 0.18(1) 0.137(2)
H24 H 0.624(3) 0.07(1) 0.203(2)
H25 H 0.677(3) 0.31(1) 0.219(2)
H26 H 0.415(3) 0.35(1) 0.199(2)
H27 H 0.463(3) 0.14(1) 0.224(2)
H28 H 0.411(3) -0.10(1) 0.147(2)
H29 H 0.335(3) 0.04(1) 0.164(2)
H30 H 0.239(3) -0.12(1) 0.079(2)
H31 H 0.145(3) -0.09(1) -0.007(2)
H32 H 0.156(4) 0.16(1) -0.063(2)
H33 H 0.252(3) 0.43(1) -0.051(2)
H34 H 0.401(3) 0.59(1) -0.020(2)
H35 H 0.426(3) 0.71(1) 0.039(2)
H36 H 0.335(3) 0.71(1) 0.003(2)
H37 H 0.469(3) 0.58(1) 0.144(2)
H38 H 0.620(4) 0.76(1) 0.100(2)
H39 H 0.583(3) 0.73(1) 0.155(2)
H40 H 0.498(3) 0.98(1) 0.123(2)
H41 H -0.002(3) 0.25(1) 0.654(2)
H42 H -0.070(3) 0.42(1) 0.584(2)
H43 H -0.035(4) 0.60(1) 0.517(2)
H44 H 0.071(3) 0.43(1) 0.496(2)
H45 H 0.093(3) 0.66(1) 0.530(2)
H46 H 0.244(3) 0.39(1) 0.648(2)
H47 H 0.231(3) 0.62(1) 0.611(2)
H48 H 0.267(3) 0.68(1) 0.709(2)
H49 H 0.199(3) 0.82(1) 0.677(2)
H50 H 0.233(3) 0.89(1) 0.797(2)
H51 H 0.213(3) 0.83(1) 0.893(2)
H52 H 0.072(3) 0.33(1) 0.849(2)
H53 H 0.131(3) 0.59(1) 0.912(2)
H54 H 0.075(3) 0.06(1) 0.784(2)
H55 H 0.052(3) 0.02(1) 0.718(2)
H56 H -0.002(3) 0.17(1) 0.750(2)
H57 H 0.143(3) 0.18(1) 0.651(2)
H58 H 0.055(3) 0.03(1) 0.570(2)
H59 H -0.032(3) -0.02(1) 0.577(2)
H60 H 0.010(3) -0.23(1) 0.638(2)
H61 H 0.453(3) -0.01(1) 0.429(2)
H62 H 0.350(3) -0.20(1) 0.417(2)
H63 H 0.279(4) -0.33(1) 0.337(2)
H64 H 0.356(3) -0.43(1) 0.270(2)
H65 H 0.303(3) -0.19(1) 0.254(2)
H66 H 0.493(3) -0.40(1) 0.264(2)
H67 H 0.541(4) -0.18(1) 0.278(2)
H68 H 0.561(3) -0.60(1) 0.336(2)
H69 H 0.631(3) -0.45(1) 0.317(2)
H70 H 0.697(3) -0.67(1) 0.422(2)
H71 H 0.823(3) -0.62(1) 0.485(2)
H72 H 0.818(3) -0.31(1) 0.556(2)
H73 H 0.714(3) -0.04(1) 0.535(2)
H74 H 0.573(3) 0.07(1) 0.506(2)
H75 H 0.634(3) 0.20(1) 0.481(2)
H76 H 0.540(3) 0.21(1) 0.450(2)
H77 H 0.512(3) 0.08(1) 0.345(2)
H78 H 0.378(3) 0.22(1) 0.331(2)
H79 H 0.359(3) 0.26(1) 0.394(2)
H80 H 0.480(3) 0.46(1) 0.419(2)
#END
