
#######################################################################
#
#                 Cambridge Crystallographic Data Centre
#                                CCDC
#
#######################################################################
#
# If this CIF has been generated from an entry in the Cambridge
# Structural Database, then it will include bibliographic, chemical,
# crystal, experimental, refinement or atomic coordinate data resulting
# from the CCDC's data processing and validation procedures.
#
#######################################################################

data_CSD_CIF_TAHLET21
_audit_creation_date 1995-11-27
_audit_creation_method CSD-ConQuest-V1
_database_code_CSD TAHLET21
_chemical_formula_sum 'C17 H20 N2 O2'
_chemical_formula_moiety
;
C17 H20 N2 O2
;
_journal_coeditor_code "IUCr CR1197"
_journal_coden_Cambridge 591
_journal_volume 51
_journal_year 1995
_journal_page_first 1957
_journal_name_full 'Acta Crystallogr.,Sect.C:Cryst.Struct.Commun. '
loop_
_publ_author_name
"R.E.Marsh"
_chemical_name_systematic
;
(13-Methyl-1,4,7,8,13,13b-hexahydro[1',2']oxazepino[2',3':1,2]pyrido[3,4-b]ind
ol-1-yl)methanol
;
_cell_volume   2961.081
_exptl_crystal_colour 'colorless'
_diffrn_ambient_temperature ?
_diffrn_special_details
;
The study was carried out at room temperature,in the range 283-303K

;
#These two values have been output from a single CSD field.
_refine_ls_R_factor_gt 0.0629
_refine_ls_wR_factor_gt 0.0629
loop_
_citation_database_id_CSD
_citation_special_details
TAHLET20 "is reinterpreted by this entry"
TAHLET10 "is reinterpreted by this entry"
TAHLET "is reinterpreted by this entry"
_symmetry_cell_setting monoclinic
_symmetry_space_group_name_H-M 'P 21/c'
_symmetry_Int_Tables_number 14
loop_
_symmetry_equiv_pos_site_id
_symmetry_equiv_pos_as_xyz
1 x,y,z
2 -x,1/2+y,1/2-z
3 -x,-y,-z
4 x,-1/2-y,-1/2+z
_cell_length_a 18.499(4)
_cell_length_b 6.2149(9)
_cell_length_c 26.45(1)
_cell_angle_alpha 90
_cell_angle_beta 103.16(3)
_cell_angle_gamma 90
_cell_formula_units_Z 8
loop_
_atom_type_symbol
_atom_type_radius_bond
C 0.68
H 0.23
N 0.68
O 0.68
loop_
_atom_site_label
_atom_site_type_symbol
_atom_site_fract_x
_atom_site_fract_y
_atom_site_fract_z
C1 C 0.4590(2) 0.0010(5) -0.1308(1)
C2 C 0.5029(2) -0.1516(5) -0.0906(1)
C3 C 0.4836(2) -0.2464(5) -0.0512(1)
C4 C 0.4090(2) -0.2476(7) -0.0392(1)
O1 O 0.3552(1) -0.1320(4) -0.0763(1)
N1 N 0.3517(1) -0.2316(4) -0.1265(1)
C5 C 0.2735(2) -0.2889(6) -0.1477(1)
C6 C 0.2703(2) -0.4235(6) -0.1957(1)
C7 C 0.3165(2) -0.3188(5) -0.2286(1)
C8 C 0.3176(2) -0.3601(5) -0.2809(1)
C9 C 0.2834(2) -0.5120(6) -0.3177(1)
C10 C 0.2967(2) -0.5042(7) -0.3667(2)
C11 C 0.3445(2) -0.3492(7) -0.3800(1)
C12 C 0.3793(2) -0.1989(6) -0.3442(1)
C13 C 0.3662(2) -0.2068(5) -0.2946(1)
N2 N 0.3933(1) -0.0796(4) -0.2518(1)
C14 C 0.3632(1) -0.1522(5) -0.2115(1)
C15 C 0.3780(2) -0.0634(5) -0.1575(1)
C16 C 0.4367(2) 0.1157(6) -0.2549(1)
C17 C 0.4607(2) 0.2254(5) -0.1063(1)
O2 O 0.4367(1) 0.3765(4) -0.1473(1)
C18 C 0.0551(2) 0.2432(5) -0.3970(1)
C19 C 0.1225(2) 0.0931(5) -0.3892(2)
C20 C 0.1599(2) -0.0018(6) -0.3470(2)
C21 C 0.1434(2) -0.0068(7) -0.2953(2)
O3 O 0.0768(1) 0.1092(4) -0.2929(1)
N3 N 0.0171(1) 0.0106(4) -0.3311(1)
C22 C -0.0406(2) -0.0519(7) -0.3032(1)
C23 C -0.0976(2) -0.1864(6) -0.3402(1)
C24 C -0.1179(2) -0.0765(5) -0.3912(1)
C25 C -0.1800(2) -0.1107(5) -0.4334(1)
C26 C -0.2387(2) -0.2589(6) -0.4434(2)
C27 C -0.2911(2) -0.2426(7) -0.4890(2)
C28 C -0.2880(2) -0.0826(7) -0.5253(2)
C29 C -0.2306(2) 0.0660(6) -0.5165(1)
C30 C -0.1775(2) 0.0480(5) -0.4706(1)
N4 N -0.1149(1) 0.1739(4) -0.4523(1)
C31 C -0.0790(2) 0.0946(5) -0.4041(1)
C32 C -0.0083(2) 0.1803(5) -0.3698(1)
C33 C -0.0996(2) 0.3698(6) -0.4789(2)
C34 C 0.0850(2) 0.4686(5) -0.3800(2)
O4 O 0.0269(1) 0.6204(4) -0.3984(1)
H1 H 0.4839(13) 0.0150(42) -0.1616(10)
H2 H 0.5556(17) -0.1657(51) -0.0902(11)
H3 H 0.5214(16) -0.3365(49) -0.0265(11)
H4 H 0.4144(16) -0.1732(51) 0.0002(12)
H5 H 0.3918(18) -0.3898(62) -0.0328(13)
H6 H 0.2425(14) -0.1551(48) -0.1558(10)
H7 H 0.2560(16) -0.3687(53) -0.1187(12)
H8 H 0.2191(17) -0.4415(52) -0.2191(12)
H9 H 0.2906(17) -0.5685(56) -0.1882(12)
H10 H 0.2483(16) -0.6172(54) -0.3065(11)
H11 H 0.2706(16) -0.5965(51) -0.3943(11)
H12 H 0.3478(15) -0.3350(47) -0.4202(11)
H13 H 0.4129(17) -0.0952(57) -0.3540(12)
H14 H 0.3469(13) 0.0628(43) -0.1593(9)
H15 H 0.4874(21) 0.0762(61) -0.2511(15)
H16 H 0.4371(18) 0.2171(59) -0.2194(14)
H17 H 0.4179(18) 0.1854(59) -0.2907(14)
H18 H 0.5169(15) 0.2643(45) -0.0832(10)
H19 H 0.4293(15) 0.2278(47) -0.0813(11)
H20 H 0.4193(20) 0.4853(63) -0.1352(14)
H21 H 0.0275(13) 0.2502(42) -0.4402(10)
H22 H 0.1430(18) 0.0783(60) -0.4244(13)
H23 H 0.2064(18) -0.0823(56) -0.3502(12)
H24 H 0.1863(20) 0.0704(60) -0.2660(14)
H25 H 0.1436(20) -0.1484(67) -0.2805(15)
H26 H -0.0609(18) 0.0841(60) -0.2888(13)
H27 H -0.0143(16) -0.1367(51) -0.2700(11)
H28 H -0.1419(6) -0.2233(51) -0.3247(11)
H29 H -0.0785(16) -0.3270(51) -0.3441(11)
H30 H -0.2367(17) -0.3690(56) -0.4163(12)
H31 H -0.3333(18) -0.3494(59) -0.4979(13)
H32 H -0.3257(18) -0.0686(55) -0.5599(13)
H33 H -0.2298(15) 0.1769(49) -0.5441(11)
H34 H -0.0210(5) 0.3119(47) -0.3513(10)
H35 H -0.0775(22) 0.3318(71) -0.5084(16)
H36 H -0.0626(18) 0.4759(55) -0.4530(13)
H37 H -0.1478(20) 0.4436(61) -0.5004(14)
H38 H 0.1324(19) 0.5038(66) -0.3986(12)
H39 H 0.1033(15) 0.4693(46) -0.3358(11)
H40 H 0.0315(35) 0.70600 -0.3690(23)
#END
