
#######################################################################
#
#                 Cambridge Crystallographic Data Centre
#                                CCDC
#
#######################################################################
#
# If this CIF has been generated from an entry in the Cambridge
# Structural Database, then it will include bibliographic, chemical,
# crystal, experimental, refinement or atomic coordinate data resulting
# from the CCDC's data processing and validation procedures.
#
#######################################################################

data_CSD_CIF_TAHTUU
_audit_creation_date 2016-02-11
_audit_creation_method CSD-ConQuest-V1
_database_code_CSD TAHTUU
_database_code_depnum_ccdc_archive 'CCDC 1422003'
_chemical_formula_sum 'C31 H30 N4 O7'
_chemical_formula_moiety
;
C31 H30 N4 O7
;
_journal_coden_Cambridge 692
_journal_volume 48
_journal_year 2016
_journal_page_first 595
_journal_name_full 'Synthesis '
loop_
_publ_author_name
"Qiong Wu"
"Chun Ma"
"Xi-Hua Du"
"Yan Chen"
"Pei-Jun Cai"
_chemical_name_systematic
;
diethyl 
1-methyl-6-(4-nitrophenyl)-4-oxo-3,9-diphenyl-2,3,7-triazaspiro[4.4]non-1-ene-
8,8-dicarboxylate
;
_cell_volume   5927.586
_exptl_crystal_colour 'colorless'
_exptl_crystal_density_diffrn 1.279
_exptl_crystal_description 'block'
_diffrn_ambient_temperature 296
#These two values have been output from a single CSD field.
_refine_ls_R_factor_gt 0.0717
_refine_ls_wR_factor_gt 0.0717
_symmetry_cell_setting orthorhombic
_symmetry_space_group_name_H-M 'P b c a'
_symmetry_Int_Tables_number 61
loop_
_symmetry_equiv_pos_site_id
_symmetry_equiv_pos_as_xyz
1 x,y,z
2 1/2-x,-y,1/2+z
3 1/2+x,1/2-y,-z
4 -x,1/2+y,1/2-z
5 -x,-y,-z
6 -1/2+x,y,-1/2-z
7 -1/2-x,-1/2+y,z
8 x,-1/2-y,-1/2+z
_cell_length_a 17.6837(9)
_cell_length_b 15.0518(8)
_cell_length_c 22.2698(11)
_cell_angle_alpha 90
_cell_angle_beta 90
_cell_angle_gamma 90
_cell_formula_units_Z 8
loop_
_atom_type_symbol
_atom_type_radius_bond
C 0.68
H 0.23
N 0.68
O 0.68
loop_
_atom_site_label
_atom_site_type_symbol
_atom_site_fract_x
_atom_site_fract_y
_atom_site_fract_z
O1 O 0.14853(13) 0.07528(16) 0.25020(9)
O2 O 0.25216(14) 0.14683(19) 0.35836(11)
O3 O 0.18068(13) 0.20060(13) 0.43367(10)
O4 O 0.10489(14) 0.0041(2) 0.49774(10)
O5 O 0.22676(12) 0.03561(15) 0.49060(9)
O6 O 0.19243(19) -0.4117(2) 0.17865(15)
O7 O 0.25986(19) -0.3138(2) 0.13186(13)
N1 N 0.19094(13) -0.01778(16) 0.36878(10)
H1 H 0.23860 -0.02730 0.36460
N2 N 0.02473(15) 0.0375(2) 0.23053(11)
N3 N -0.03359(16) -0.0102(2) 0.25908(13)
N4 N 0.21760(18) -0.3370(3) 0.17255(13)
C1 C 0.12905(16) -0.07101(18) 0.34389(12)
H2 H 0.10720 -0.10450 0.37740
C2 C 0.06875(15) -0.00125(18) 0.32440(12)
C3 C 0.07098(15) 0.06219(17) 0.37993(11)
H3 H 0.04070 0.03260 0.41090
C4 C 0.15548(15) 0.05462(18) 0.40213(11)
C5 C -0.00956(17) -0.0333(2) 0.31139(14)
C6 C -0.0576(2) -0.0852(3) 0.35331(19)
H4 H -0.03460 -0.14190 0.36080
H5 H -0.10670 -0.09380 0.33580
H6 H -0.06270 -0.05340 0.39050
C7 C 0.08848(17) 0.0431(2) 0.26462(12)
C8 C 0.0112(2) 0.0720(3) 0.17127(15)
C9 C 0.0607(3) 0.1305(4) 0.14542(18)
H7 H 0.10400 0.14770 0.16610
C10 C 0.0466(4) 0.1647(5) 0.0878(2)
H8 H 0.07920 0.20550 0.07010
C11 C -0.0175(4) 0.1358(5) 0.0584(3)
H9 H -0.02600 0.15470 0.01920
C12 C -0.0673(4) 0.0822(4) 0.0839(3)
H10 H -0.11120 0.06720 0.06330
C13 C -0.0549(3) 0.0474(3) 0.1420(2)
H11 H -0.08960 0.00950 0.16000
C14 C 0.15377(16) -0.13839(19) 0.29749(12)
C15 C 0.2118(2) -0.1232(2) 0.25721(16)
H12 H 0.23690 -0.06890 0.25740
C16 C 0.2328(2) -0.1885(3) 0.21645(16)
H13 H 0.27170 -0.17810 0.18930
C17 C 0.19619(18) -0.2676(2) 0.21661(13)
C18 C 0.13901(19) -0.2858(2) 0.25587(14)
H14 H 0.11490 -0.34070 0.25550
C19 C 0.11783(18) -0.2205(2) 0.29616(13)
H15 H 0.07870 -0.23180 0.32300
C20 C 0.03567(16) 0.15270(18) 0.37213(12)
C21 C -0.02766(18) 0.1733(2) 0.40554(14)
H16 H -0.04760 0.13130 0.43180
C22 C -0.0618(2) 0.2557(3) 0.40052(18)
H17 H -0.10450 0.26860 0.42330
C23 C -0.0331(3) 0.3183(3) 0.36226(19)
H18 H -0.05600 0.37370 0.35920
C24 C 0.0296(2) 0.2990(2) 0.32843(17)
H19 H 0.04920 0.34160 0.30240
C25 C 0.0639(2) 0.2169(2) 0.33280(14)
H20 H 0.10610 0.20430 0.30940
C26 C 0.20235(17) 0.1392(2) 0.39483(13)
C27 C 0.2192(3) 0.2863(2) 0.4316(2)
H21 H 0.18550 0.33290 0.44530
H22 H 0.23430 0.29970 0.39070
C28 C 0.2874(4) 0.2820(4) 0.4712(3)
H23 H 0.32000 0.23490 0.45780
H24 H 0.27190 0.27070 0.51180
H25 H 0.31400 0.33740 0.46940
C29 C 0.15767(16) 0.02862(18) 0.46951(12)
C30 C 0.2385(2) 0.0128(3) 0.55349(15)
H26 H 0.20140 0.04360 0.57790
H27 H 0.23090 -0.05050 0.55880
C31 C 0.3101(3) 0.0353(4) 0.5728(2)
H28 H 0.34700 0.00790 0.54720
H29 H 0.31720 0.01510 0.61330
H30 H 0.31600 0.09870 0.57130
#END
