
#######################################################################
#
#                 Cambridge Crystallographic Data Centre
#                                CCDC
#
#######################################################################
#
# If this CIF has been generated from an entry in the Cambridge
# Structural Database, then it will include bibliographic, chemical,
# crystal, experimental, refinement or atomic coordinate data resulting
# from the CCDC's data processing and validation procedures.
#
#######################################################################

data_CSD_CIF_TAHYEH01
_audit_creation_date 2014-12-23
_audit_creation_method CSD-ConQuest-V1
_database_code_CSD TAHYEH01
_database_code_depnum_ccdc_archive 'CCDC 1023999'
_chemical_formula_sum 'C14 H12 N2 O3'
_chemical_formula_moiety
;
C14 H12 N2 O3
;
_journal_coden_Cambridge 1350
_journal_volume 17
_journal_year 2015
_journal_page_first 1273
_journal_name_full 'CrystEngComm '
loop_
_publ_author_name
"S.Saha"
"L.Rajput"
"S.Joseph"
"M.K.Mishra"
"Somnath Ganguly"
"G.R.Desiraju"
_chemical_name_systematic
;
N-benzyl-4-nitrobenzamide
;
_cell_volume   1222.234
_exptl_crystal_colour 'colorless'
_exptl_crystal_density_diffrn 1.403
_exptl_crystal_description 'needle'
_diffrn_ambient_temperature 150
#These two values have been output from a single CSD field.
_refine_ls_R_factor_gt 0.0527
_refine_ls_wR_factor_gt 0.0527
_symmetry_cell_setting monoclinic
_symmetry_space_group_name_H-M 'P 21/c'
_symmetry_Int_Tables_number 14
loop_
_symmetry_equiv_pos_site_id
_symmetry_equiv_pos_as_xyz
1 x,y,z
2 -x,1/2+y,1/2-z
3 -x,-y,-z
4 x,-1/2-y,-1/2+z
_cell_length_a 4.822(2)
_cell_length_b 22.257(10)
_cell_length_c 11.408(5)
_cell_angle_alpha 90
_cell_angle_beta 93.364(4)
_cell_angle_gamma 90
_cell_formula_units_Z 4
loop_
_atom_type_symbol
_atom_type_radius_bond
C 0.68
H 0.23
N 0.68
O 0.68
loop_
_atom_site_label
_atom_site_type_symbol
_atom_site_fract_x
_atom_site_fract_y
_atom_site_fract_z
O1 O 0.0936(3) 0.59919(6) -0.00189(13)
C1 C 0.3329(4) 0.60081(8) -0.03487(16)
C2 C 0.4190(4) 0.55922(8) -0.13030(15)
N1 N 0.5245(3) 0.63922(7) 0.01011(13)
H1 H 0.69240 0.63980 -0.01620
C3 C 0.5489(4) 0.48164(8) -0.30584(16)
C4 C 0.2838(4) 0.50405(8) -0.14234(17)
H2 H 0.14600 0.49350 -0.08980
C5 C 0.6182(4) 0.57531(8) -0.20787(16)
H3 H 0.70940 0.61300 -0.19980
C6 C 0.4509(4) 0.68036(8) 0.10404(17)
H4 H 0.41490 0.65690 0.17520
H5 H 0.27830 0.70210 0.07920
N2 N 0.6231(4) 0.43951(8) -0.39890(15)
C7 C 0.6790(4) 0.72514(8) 0.13302(16)
C8 C 0.6843(4) 0.53625(9) -0.29735(16)
H6 H 0.81920 0.54690 -0.35120
C9 C 0.8328(4) 0.72295(10) 0.23975(18)
H7 H 0.79790 0.69210 0.29450
C10 C 0.3490(4) 0.46449(8) -0.23053(17)
H8 H 0.25880 0.42670 -0.23890
O2 O 0.7856(4) 0.45605(9) -0.46923(16)
C11 C 0.7328(4) 0.77079(9) 0.05453(18)
H9 H 0.62610 0.77340 -0.01800
O3 O 0.5149(5) 0.39008(8) -0.40188(18)
C12 C 1.0361(5) 0.76524(12) 0.2671(2)
H10 H 1.13840 0.76370 0.34080
C13 C 1.0909(5) 0.80975(11) 0.1874(2)
H11 H 1.23230 0.83850 0.20580
C14 C 0.9392(5) 0.8124(1) 0.0806(2)
H12 H 0.97740 0.84280 0.02530
#END
