
#######################################################################
#
#                 Cambridge Crystallographic Data Centre
#                                CCDC
#
#######################################################################
#
# If this CIF has been generated from an entry in the Cambridge
# Structural Database, then it will include bibliographic, chemical,
# crystal, experimental, refinement or atomic coordinate data resulting
# from the CCDC's data processing and validation procedures.
#
#######################################################################

data_CSD_CIF_TAJJUJ
_audit_creation_date 1991-09-04
_audit_creation_method CSD-ConQuest-V1
_database_code_CSD TAJJUJ
_chemical_formula_sum 'C22 H29 N1 O2'
_chemical_formula_moiety
;
C22 H29 N1 O2
;
_journal_coden_Cambridge 35
_journal_volume 56
_journal_year 1991
_journal_page_first 602
_journal_name_full 'J.Org.Chem. '
loop_
_publ_author_name
"P.Maslak"
"J.N.Narvaez"
"M.Parvez"
_chemical_name_systematic
;
3,4-Diethyl-3-(4'-nitrophenyl)-4-phenylhexane
;
_chemical_melting_point 354.15
_cell_volume   1861.941
_exptl_crystal_density_diffrn 1.201
_exptl_special_details
;
Melting point range 354.15-356.15K

;
_diffrn_ambient_temperature ?
_diffrn_special_details
;
The study was carried out at room temperature,in the range 283-303K

;
#These two values have been output from a single CSD field.
_refine_ls_R_factor_gt 0.052
_refine_ls_wR_factor_gt 0.052
_symmetry_cell_setting monoclinic
_symmetry_space_group_name_H-M 'P 21/n'
_symmetry_Int_Tables_number 14
loop_
_symmetry_equiv_pos_site_id
_symmetry_equiv_pos_as_xyz
1 x,y,z
2 1/2-x,1/2+y,1/2-z
3 -x,-y,-z
4 -1/2+x,-1/2-y,-1/2+z
_cell_length_a 10.665(5)
_cell_length_b 15.305(5)
_cell_length_c 11.435(5)
_cell_angle_alpha 90
_cell_angle_beta 94.01(3)
_cell_angle_gamma 90
_cell_formula_units_Z 4
loop_
_atom_type_symbol
_atom_type_radius_bond
C 0.68
H 0.23
N 0.68
O 0.68
loop_
_atom_site_label
_atom_site_type_symbol
_atom_site_fract_x
_atom_site_fract_y
_atom_site_fract_z
O1 O 0.7308(2) 0.0278(2) -0.2457(2)
O2 O 0.8674(3) 0.1149(2) -0.3127(2)
N1 N 0.8138(3) 0.0815(2) -0.2326(3)
C1 C 0.8566(3) 0.1085(2) -0.1142(3)
C2 C 0.9238(3) 0.1824(2) -0.0976(3)
C3 C 0.9611(3) 0.2087(2) 0.0139(3)
C4 C 0.9321(3) 0.1603(2) 0.1106(2)
C5 C 0.8642(3) 0.0848(2) 0.0880(3)
C6 C 0.8245(3) 0.0577(2) -0.0230(3)
C7 C 0.9746(30) 0.1895(2) 0.2351(3)
C8 C 1.0974(3) 0.2417(2) 0.2315(3)
C9 C 1.2064(3) 0.1909(3) 0.1826(3)
C10 C 1.0026(3) 0.1054(2) 0.3069(3)
C11 C 1.0798(4) 0.1088(3) 0.4239(3)
C12 C 0.8638(3) 0.2490(2) 0.2840(3)
C13 C 0.8225(3) 0.3208(2) 0.1957(3)
C14 C 0.7188(4) 0.3807(3) 0.2322(3)
C15 C 0.9068(3) 0.2956(2) 0.4007(3)
C16 C 0.9798(4) 0.3799(3) 0.3997(3)
C17 C 0.75198(3) 0.1899(2) 0.3059(3)
C18 C 0.6543(3) 0.1741(2) 0.2215(3)
C19 C 0.5551(3) 0.1193(3) 0.2442(3)
C20 C 0.5494(3) 0.0785(3) 0.3485(4)
C21 C 0.6430(3) 0.0938(3) 0.4322(3)
C22 C 0.7415(3) 0.1480(3) 0.4123(3)
H1 H 0.941(3) 0.221(2) -0.158(3)
H2 H 1.000(3) 0.260(2) 0.023(3)
H3 H 0.850(3) 0.047(2) 0.144(3)
H4 H 0.780(3) 0.001(2) -0.038(3)
H5 H 1.124(3) 0.257(2) 0.304(3)
H6 H 1.086(3) 0.303(2) 0.189(3)
H7 H 1.263(3) 0.234(2) 0.178(3)
H8 H 1.231(3) 0.140(2) 0.239(3)
H9 H 1.181(3) 0.164(2) 0.113(2)
H10 H 1.044(3) 0.066(2) 0.258(3)
H11 H 0.924(3) 0.075(2) 0.315(3)
H12 H 1.107(3) 0.049(2) 0.441(3)
H13 H 1.155(3) 0.145(2) 0.424(3)
H14 H 1.041(3) 0.136(2) 0.485(3)
H15 H 0.792(3) 0.291(2) 0.126(3)
H16 H 0.890(3) 0.358(2) 0.177(2)
H17 H 0.706(3) 0.430(2) 0.177(3)
H18 H 0.647(3) 0.349(2) 0.231(3)
H19 H 0.756(3) 0.423(2) 0.286(3)
H20 H 0.951(3) 0.250(2) 0.451(3)
H21 H 0.831(3) 0.309(2) 0.438(3)
H22 H 0.988(3) 0.407(2) 0.467(3)
H23 H 1.051(3) 0.383(2) 0.359(3)
H24 H 0.934(3) 0.429(2) 0.357(3)
H25 H 0.651(3) 0.207(2) 0.153(3)
H26 H 0.505(3) 0.111(2) 0.188(3)
H27 H 0.475(3) 0.045(2) 0.362(3)
H28 H 0.646(3) 0.064(2) 0.496(3)
H29 H 0.803(3) 0.155(2) 0.473(3)
#END
