
#######################################################################
#
#                 Cambridge Crystallographic Data Centre
#                                CCDC
#
#######################################################################
#
# If this CIF has been generated from an entry in the Cambridge
# Structural Database, then it will include bibliographic, chemical,
# crystal, experimental, refinement or atomic coordinate data resulting
# from the CCDC's data processing and validation procedures.
#
#######################################################################

data_CSD_CIF_TAJKOE
_audit_creation_date 1991-09-04
_audit_creation_method CSD-ConQuest-V1
_database_code_CSD TAJKOE
_chemical_formula_sum 'C30 H45 N1 O2'
_chemical_formula_moiety
;
C30 H45 N1 O2
;
_journal_coden_Cambridge 35
_journal_volume 56
_journal_year 1991
_journal_page_first 602
_journal_name_full 'J.Org.Chem. '
loop_
_publ_author_name
"P.Maslak"
"J.N.Narvaez"
"M.Pravez"
_chemical_name_systematic
;
5,6-Di-n-butyl-5-(4'-nitrophenyl)-6-phenyldecane
;
_chemical_melting_point 358.15
_cell_volume   2753.231
_exptl_crystal_colour 'colorless'
_exptl_crystal_density_diffrn 1.09
_exptl_special_details
;
Melting point range 358.15-359.15K
Isomorphous with the 3-fluorophenyl analogue
;
_diffrn_ambient_temperature ?
_diffrn_special_details
;
The study was carried out at room temperature,in the range 283-303K

;
_refine_special_details
;
Nitro group is disordered.

;
#These two values have been output from a single CSD field.
_refine_ls_R_factor_gt 0.076
_refine_ls_wR_factor_gt 0.076
_symmetry_cell_setting monoclinic
_symmetry_space_group_name_H-M 'C 2/c'
_symmetry_Int_Tables_number 15
loop_
_symmetry_equiv_pos_site_id
_symmetry_equiv_pos_as_xyz
1 x,y,z
2 1/2+x,1/2+y,z
3 -x,y,1/2-z
4 1/2-x,1/2+y,1/2-z
5 -x,-y,-z
6 -1/2-x,-1/2-y,-z
7 x,-y,-1/2+z
8 -1/2+x,-1/2-y,-1/2+z
_cell_length_a 14.438(8)
_cell_length_b 12.451(4)
_cell_length_c 15.719(8)
_cell_angle_alpha 90
_cell_angle_beta 103.01(4)
_cell_angle_gamma 90
_cell_formula_units_Z 4
loop_
_atom_type_symbol
_atom_type_radius_bond
C 0.68
H 0.23
N 0.68
O 0.68
loop_
_atom_site_label
_atom_site_type_symbol
_atom_site_fract_x
_atom_site_fract_y
_atom_site_fract_z
O1 O 0.4408(6) 0.3640(11) 0.2169(7)
O2 O 0.4305(7) 0.5397(10) 0.2183(9)
N1 N 0.3933(8) 0.4522(9) 0.2134(7)
C1 C 0.1079(3) 0.4246(4) 0.1952(3)
C2 C 0.1467(4) 0.5239(5) 0.1825(4)
C3 C 0.2408(5) 0.5363(6) 0.1849(4)
C4 C 0.3000(4) 0.4477(7) 0.1993(4)
C5 C 0.2637(5) 0.3485(6) 0.2095(4)
C6 C 0.1683(4) 0.3377(5) 0.2058(3)
C7 C 0.0034(3) 0.4125(4) 0.1988(3)
C8 C -0.0543(3) 0.5072(4) 0.1478(3)
C9 C -0.1599(4) 0.4960(4) 0.1094(3)
C10 C -0.2000(4) 0.5973(5) 0.0593(4)
C11 C -0.30456(4) 0.6013(5) 0.0319(4)
C12 C -0.0358(4) 0.3067(4) 0.1530(3)
C13 C -0.0287(4) 0.2950(4) 0.0588(3)
C14 C -0.0734(5) 0.1929(5) 0.0176(4)
C15 C -0.0705(6) 0.1756(6) -0.0728(4)
H1 H 0.10630 0.58420 0.17090
H2 H 0.26310 0.60780 0.17580
H3 H 0.30380 0.28620 0.22030
H4 H 0.14570 0.26750 0.21110
H5 H -0.02550 0.52140 0.09940
H6 H -0.04480 0.56690 0.18570
H7 H -0.19200 0.48710 0.15680
H8 H -0.17260 0.43600 0.07250
H9 H -0.17310 0.60230 0.00830
H10 H -0.17990 0.65900 0.09460
H11 H -0.32600 0.66100 -0.00100
H12 H -0.32490 0.53660 -0.00570
H13 H -0.33170 0.59330 0.08050
H14 H -0.10090 0.30080 0.15420
H15 H -0.00160 0.24830 0.18520
H16 H 0.03750 0.29280 0.05670
H17 H -0.05720 0.35510 0.02630
H18 H -0.14120 0.19760 0.01920
H19 H -0.04760 0.13430 0.05300
H20 H -0.10000 0.10810 -0.09420
H21 H -0.09680 0.23090 -0.10990
H22 H -0.00320 0.16760 -0.07600
C7B C -0.0034(3) 0.4125(4) 0.3012(3)
C1B C -0.1079(3) 0.4246(4) 0.3048(3)
C2B C -0.1467(4) 0.5239(5) 0.3175(4)
C3B C -0.2408(5) 0.5363(6) 0.3151(4)
C4B C -0.3000(4) 0.4477(7) 0.3007(4)
N1B N -0.3933(8) 0.4522(9) 0.2866(7)
O1B O -0.4408(6) 0.3640(11) 0.2831(7)
O2B O -0.4305(7) 0.5397(10) 0.2817(9)
C5B C -0.2637(5) 0.3485(6) 0.2905(4)
C6B C -0.1683(4) 0.3377(5) 0.2942(3)
H4B H -0.14570 0.26750 0.28890
H3B H -0.30380 0.28620 0.27970
H2B H -0.26310 0.60780 0.32420
H1B H -0.10630 0.58420 0.32910
C8B C 0.0543(3) 0.5072(4) 0.3522(3)
C9B C 0.1599(4) 0.4960(4) 0.3906(3)
C10B C 0.2000(4) 0.5973(5) 0.4407(4)
C11B C 0.30456(4) 0.6013(5) 0.4681(4)
H11B H 0.32600 0.66100 0.50100
H12B H 0.32490 0.53660 0.50570
H13B H 0.33170 0.59330 0.41950
H9B H 0.17310 0.60230 0.49170
H10B H 0.17990 0.65900 0.40540
H7B H 0.19200 0.48710 0.34320
H8B H 0.17260 0.43600 0.42750
H5B H 0.02550 0.52140 0.40060
H6B H 0.04480 0.56690 0.31430
C12B C 0.0358(4) 0.3067(4) 0.3470(3)
C13B C 0.0287(4) 0.2950(4) 0.4412(3)
C14B C 0.0734(5) 0.1929(5) 0.4824(4)
C15B C 0.0705(6) 0.1756(6) 0.5728(4)
H20B H 0.10000 0.10810 0.59420
H21B H 0.09680 0.23090 0.60990
H22B H 0.00320 0.16760 0.57600
H18B H 0.14120 0.19760 0.48080
H19B H 0.04760 0.13430 0.44700
H16B H -0.03750 0.29280 0.44330
H17B H 0.05720 0.35510 0.47370
H14B H 0.10090 0.30080 0.34580
H15B H 0.00160 0.24830 0.31480
#END
