
#######################################################################
#
#                 Cambridge Crystallographic Data Centre
#                                CCDC
#
#######################################################################
#
# If this CIF has been generated from an entry in the Cambridge
# Structural Database, then it will include bibliographic, chemical,
# crystal, experimental, refinement or atomic coordinate data resulting
# from the CCDC's data processing and validation procedures.
#
#######################################################################

data_CSD_CIF_TAJKIY
_audit_creation_date 1991-09-04
_audit_creation_method CSD-ConQuest-V1
_database_code_CSD TAJKIY
_chemical_formula_sum 'C24 H34 N2 O2'
_chemical_formula_moiety
;
C24 H34 N2 O2
;
_journal_coden_Cambridge 35
_journal_volume 56
_journal_year 1991
_journal_page_first 602
_journal_name_full 'J.Org.Chem. '
loop_
_publ_author_name
"P.Maslak"
"J.N.Narvaez"
"M.Parvez"
_chemical_name_systematic
;
3,4-Diethyl-3-(4'-nitrophenyl)-4-(4''-dimethylaminophenyl)hexane
;
_chemical_melting_point 378.15
_cell_volume   2129.103
_exptl_crystal_colour 'orange'
_exptl_crystal_density_diffrn 1.193
_exptl_special_details
;
Melting point range 378.15-379.15K

;
_diffrn_ambient_temperature ?
_diffrn_special_details
;
The study was carried out at room temperature,in the range 283-303K

;
#These two values have been output from a single CSD field.
_refine_ls_R_factor_gt 0.064
_refine_ls_wR_factor_gt 0.064
_symmetry_cell_setting monoclinic
_symmetry_space_group_name_H-M 'P 21'
_symmetry_Int_Tables_number 4
loop_
_symmetry_equiv_pos_site_id
_symmetry_equiv_pos_as_xyz
1 x,y,z
2 -x,1/2+y,-z
_cell_length_a 11.918(3)
_cell_length_b 11.808(4)
_cell_length_c 16.127(4)
_cell_angle_alpha 90
_cell_angle_beta 110.26(2)
_cell_angle_gamma 90
_cell_formula_units_Z 4
loop_
_atom_type_symbol
_atom_type_radius_bond
C 0.68
H 0.23
N 0.68
O 0.68
loop_
_atom_site_label
_atom_site_type_symbol
_atom_site_fract_x
_atom_site_fract_y
_atom_site_fract_z
O1 O 0.7345(6) 0.14080 0.6398(4)
O2 O 0.7146(5) 0.3509(6) 0.6448(4)
O3 O 0.7338(5) 0.2000(6) 1.1589(3)
O4 O 0.7409(4) 0.3806(6) 1.1517(3)
N1 N 0.6793(4) 0.2431(4) 0.5977(3)
N2 N -0.1800(4) 0.2043(7) -0.0879(3)
N3 N 0.7052(4) 0.2876(6) 1.1192(3)
N4 N -0.1505(5) 0.3074(5) 0.4384(3)
C1 C 0.5921(4) 0.2432(5) 0.5150(3)
C2 C 0.5402(4) 0.3418(5) 0.4714(3)
C3 C 0.4558(4) 0.3408(5) 0.3881(3)
C4 C 0.4133(4) 0.2417(5) 0.3422(3)
C5 C 0.4677(4) 0.1421(4) 0.3867(3)
C6 C 0.5520(4) 0.1430(5) 0.4700(3)
C7 C 0.3140(4) 0.2417(5) 0.2512(3)
C8 C 0.3365(5) 0.3431(5) 0.1963(3)
C9 C 0.4605(5) 0.3444(7) 0.1882(4)
C10 C 0.3233(5) 0.1295(5) 0.2008(4)
C11 C 0.2768(5) 0.1291(6) 0.1003(4)
C12 C 0.1838(4) 0.2515(5) 0.2619(3)
C13 C 0.1655(4) 0.1571(5) 0.3233(4)
C14 C 0.2181(5) 0.1740(6) 0.4248(4)
C15 C 0.1683(4) 0.3684(5) 0.3016(3)
C16 C 0.0475(5) 0.3848(6) 0.3111(4)
C17 C 0.0870(4) 0.2383(5) 0.1703(3)
C18 C 0.0476(4) 0.3312(5) 0.1138(4)
C19 C -0.0400(5) 0.3213(6) 0.0305(4)
C20 C -0.0898(5) 0.2159(6) 0.0018(4)
C21 C -0.0543(5) 0.1244(6) 0.0558(4)
C22 C 0.0317(5) 0.1349(5) 0.1389(4)
C23 C -0.2139(5) 0.2892(8) -0.1302(3)
C24 C -0.2143(5) 0.1099(7) -0.1137(3)
C25 C 0.6150(5) 0.2869(6) 1.0289(3)
C26 C 0.5844(4) 0.3847(6) 0.9821(3)
C27 C 0.5006(5) 0.3819(5) 0.8984(4)
C28 C 0.4420(4) 0.2803(5) 0.8604(3)
C29 C 0.4793(5) 0.1817(5) 0.9113(3)
C30 C 0.5638(5) 0.1825(5) 0.9945(4)
C31 C 0.3419(4) 0.2770(5) 0.7697(3)
C32 C 0.3571(5) 0.3791(5) 0.7130(3)
C33 C 0.3119(5) 0.3721(7) 0.6148(4)
C34 C 0.3527(5) 0.1673(5) 0.7210(4)
C35 C 0.4751(5) 0.1491(6) 0.7106(4)
C36 C 0.2138(4) 0.2821(5) 0.7846(3)
C37 C 0.2068(5) 0.3893(5) 0.8412(3)
C38 C 0.2560(5) 0.3790(7) 0.9423(4)
C39 C 0.1928(4) 0.1771(5) 0.8333(3)
C40 C 0.0708(5) 0.1720(7) 0.8416(4)
C41 C 0.1132(4) 0.2928(5) 0.6933(3)
C42 C 0.0651(5) 0.3914(5) 0.6561(4)
C43 C -0.0227(5) 0.3990(6) 0.5719(4)
C44 C -0.0657(4) 0.3010(5) 0.5203(3)
C45 C -0.0167(4) 0.2000(5) 0.5592(3)
C46 C 0.0698(4) 0.1942(5) 0.6421(3)
C47 C -0.2006(5) 0.4102(7) 0.3989(4)
C48 C -0.1928(6) 0.2090(7) 0.3875(4)
H1 H 0.56580 0.41230 0.50160
H2 H 0.42290 0.41100 0.36070
H3 H 0.44340 0.07170 0.35680
H4 H 0.58420 0.07360 0.49680
H5 H 0.08330 0.40260 0.13370
H6 H -0.06670 0.38590 -0.00560
H7 H -0.08900 0.05180 0.03600
H8 H 0.05450 0.07110 0.17760
H9 H 0.62040 0.45500 1.00740
H10 H 0.48140 0.45030 0.86560
H11 H 0.44420 0.11210 0.88700
H12 H 0.58780 0.11390 1.02790
H13 H 0.09050 0.46120 0.68770
H14 H -0.05260 0.47160 0.54840
H15 H -0.04180 0.13170 0.52910
H16 H 0.10030 0.12280 0.66610
H17 H 0.32510 0.41290 0.22230
H18 H 0.27910 0.34000 0.13710
H19 H 0.40390 0.10920 0.21840
H20 H 0.27860 0.07310 0.21800
H21 H 0.20350 0.09180 0.31090
H22 H 0.08370 0.14650 0.30780
H23 H 0.22840 0.37640 0.35780
H24 H 0.17900 0.42640 0.26300
H25 H 0.31800 0.44430 0.72680
H26 H 0.44090 0.39660 0.73040
H27 H 0.33480 0.10490 0.75080
H28 H 0.29270 0.17110 0.66220
H29 H 0.24780 0.45080 0.82530
H30 H 0.12340 0.41050 0.82410
H31 H 0.20330 0.11290 0.80250
H32 H 0.25140 0.17840 0.89130
H33 H 0.46960 0.40810 0.15520
H34 H 0.51980 0.34990 0.24690
H35 H 0.47380 0.27700 0.16170
H36 H 0.28690 0.05650 0.07950
H37 H 0.19310 0.14780 0.07900
H38 H 0.31850 0.18400 0.07950
H39 H 0.20050 0.11010 0.45210
H40 H 0.30200 0.18520 0.44230
H41 H 0.18230 0.23990 0.43920
H42 H 0.04210 0.45820 0.33430
H43 H -0.01510 0.37900 0.25390
H44 H 0.03420 0.32900 0.34870
H45 H -0.17650 0.35310 -0.09660
H46 H -0.19480 0.28460 -0.18240
H47 H -0.29860 0.29550 -0.14550
H48 H -0.27270 0.11620 -0.17240
H49 H -0.14910 0.06710 -0.11600
H50 H -0.25010 0.07640 -0.07630
H51 H 0.32920 0.44090 0.59050
H52 H 0.35220 0.31140 0.59810
H53 H 0.22940 0.35900 0.59450
H54 H 0.47400 0.08080 0.67980
H55 H 0.49220 0.21090 0.67960
H56 H 0.53430 0.14470 0.76820
H57 H 0.24410 0.44980 0.96730
H58 H 0.21290 0.32180 0.95920
H59 H 0.33730 0.36210 0.96040
H60 H 0.06430 0.10620 0.87270
H61 H 0.05900 0.23740 0.87320
H62 H 0.01090 0.17190 0.78450
H63 H -0.16470 0.47140 0.43650
H64 H -0.18810 0.41830 0.34400
H65 H -0.28380 0.40820 0.38880
H66 H -0.25200 0.23060 0.33280
H67 H -0.13160 0.16870 0.37880
H68 H -0.23220 0.16300 0.41920
#END
