
#######################################################################
#
#                 Cambridge Crystallographic Data Centre
#                                CCDC
#
#######################################################################
#
# If this CIF has been generated from an entry in the Cambridge
# Structural Database, then it will include bibliographic, chemical,
# crystal, experimental, refinement or atomic coordinate data resulting
# from the CCDC's data processing and validation procedures.
#
#######################################################################

data_CSD_CIF_TAJLAR
_audit_creation_date 1991-09-04
_audit_creation_method CSD-ConQuest-V1
_database_code_CSD TAJLAR
_chemical_formula_sum 'C22 H29 N1 O2'
_chemical_formula_moiety
;
C22 H29 N1 O2
;
_journal_coden_Cambridge 35
_journal_volume 56
_journal_year 1991
_journal_page_first 602
_journal_name_full 'J.Org.Chem. '
loop_
_publ_author_name
"P.Maslak"
"J.N.Narvaez"
"M.Parvez"
_chemical_name_systematic
;
threo-2,3,4,5-Tetramethyl-3-(4'-nitrophenyl)-4-phenylhexane
;
_chemical_melting_point 388.15
_cell_volume   1883.404
_exptl_crystal_colour 'colorless'
_exptl_crystal_density_diffrn 1.196
_exptl_special_details
;
Melting point range 388.15-390.15K

;
_diffrn_ambient_temperature ?
_diffrn_special_details
;
The study was carried out at room temperature,in the range 283-303K

;
#These two values have been output from a single CSD field.
_refine_ls_R_factor_gt 0.037
_refine_ls_wR_factor_gt 0.037
_symmetry_cell_setting orthorhombic
_symmetry_space_group_name_H-M 'P 21 21 21'
_symmetry_Int_Tables_number 19
loop_
_symmetry_equiv_pos_site_id
_symmetry_equiv_pos_as_xyz
1 x,y,z
2 1/2+x,1/2-y,-z
3 -x,1/2+y,1/2-z
4 1/2-x,-y,1/2+z
_cell_length_a 9.411(6)
_cell_length_b 12.194(3)
_cell_length_c 16.412(3)
_cell_angle_alpha 90
_cell_angle_beta 90
_cell_angle_gamma 90
_cell_formula_units_Z 4
loop_
_atom_type_symbol
_atom_type_radius_bond
C 0.68
H 0.23
N 0.68
O 0.68
loop_
_atom_site_label
_atom_site_type_symbol
_atom_site_fract_x
_atom_site_fract_y
_atom_site_fract_z
O1 O 1.0633(2) 0.2379(2) 0.7600(1)
O2 O 0.9814(2) 0.3454(1) 0.6679(2)
N1 N 0.9808(2) 0.2589(2) 0.7054(1)
C1 C 0.8793(2) 0.1742(2) 0.6813(1)
C2 C 0.7745(2) 0.1995(2) 0.6260(1)
C3 C 0.6812(2) 0.1195(2) 0.6033(1)
C4 C 0.6888(2) 0.0124(2) 0.6335(1)
C5 C 0.7991(2) -0.0093(2) 0.6870(1)
C6 C 0.8928(2) 0.0699(2) 0.7123(1)
C7 C 0.5833(2) -0.0776(2) 0.6068(1)
C8 C 0.6544(3) -0.1906(2) 0.6202(2)
C9 C 0.5579(3) -0.0645(2) 0.5122(1)
C10 C 0.6944(3) -0.0549(3) 0.4635(2)
C11 C 0.4689(3) -0.1539(3) 0.4721(2)
C12 C 0.4352(2) -0.0685(2) 0.6599(1)
C13 C 0.3715(3) -0.1834(2) 0.6726(2)
C14 C 0.4582(2) -0.0182(2) 0.7477(1)
C15 C 0.3203(3) 0.0126(2) 0.7900(1)
C16 C 0.5420(3) -0.0893(2) 0.8070(2)
C17 C 0.3272(2) 0.0050(2) 0.6157(1)
C18 C 0.3396(2) 0.1196(2) 0.6154(1)
C19 C 0.2431(3) 0.1863(2) 0.5768(2)
C20 C 0.1290(3) 0.1413(3) 0.5370(2)
C21 C 0.1108(3) 0.0309(3) 0.5379(2)
C22 C 0.2082(3) -0.0367(2) 0.5767(2)
H1 H 0.765(3) 0.273(2) 0.606(1)
H2 H 0.619(2) 0.135(2) 0.568(1)
H3 H 0.807(2) -0.077(2) 0.708(1)
H4 H 0.973(2) 0.048(2) 0.749(1)
H5 H 0.602(2) -0.243(2) 0.594(1)
H6 H 0.667(2) -0.210(2) 0.680(1)
H7 H 0.752(2) -0.182(2) 0.596(1)
H8 H 0.514(2) 0.005(2) 0.502(1)
H9 H 0.768(3) 0.004(2) 0.484(1)
H10 H 0.672(2) -0.049(2) 0.400(1)
H11 H 0.729(2) -0.111(2) 0.466(1)
H12 H 0.468(2) -0.137(2) 0.419(1)
H13 H 0.525(3) -0.228(2) 0.475(1)
H14 H 0.401(2) -0.166(2) 0.494(1)
H15 H 0.431(2) -0.234(2) 0.706(1)
H16 H 0.291(2) -0.183(2) 0.702(1)
H17 H 0.367(2) -0.231(2) 0.623(1)
H18 H 0.506(2) 0.047(2) 0.740(1)
H19 H 0.258(3) 0.074(2) 0.760(1)
H20 H 0.267(3) -0.046(2) 0.797(1)
H21 H 0.329(2) 0.034(2) 0.842(1)
H22 H 0.572(2) -0.050(2) 0.854(1)
H23 H 0.626(2) -0.116(2) 0.789(1)
H24 H 0.506(2) -0.152(2) 0.821(1)
H25 H 0.409(2) 0.155(2) 0.646(1)
H26 H 0.254(2) 0.267(2) 0.577(1)
H27 H 0.067(2) 0.195(2) 0.513(1)
H28 H 0.028(2) -0.005(2) 0.514(1)
H29 H 0.190(2) -0.112(2) 0.578(1)
#END
