
#######################################################################
#
#                 Cambridge Crystallographic Data Centre
#                                CCDC
#
#######################################################################
#
# If this CIF has been generated from an entry in the Cambridge
# Structural Database, then it will include bibliographic, chemical,
# crystal, experimental, refinement or atomic coordinate data resulting
# from the CCDC's data processing and validation procedures.
#
#######################################################################

data_CSD_CIF_TAJZUA
_audit_creation_date 2003-10-23
_audit_creation_method CSD-ConQuest-V1
_database_code_CSD TAJZUA
_database_code_depnum_ccdc_archive 'CCDC 148410'
_chemical_formula_sum 'C8 H9 N1 O3'
_chemical_formula_moiety
;
C8 H9 N1 O3
;
_journal_coden_Cambridge 444
_journal_volume 72
_journal_year 2002
_journal_page_first 1854
_journal_name_full 'Zh.Obshch.Khim.(Russ.)(Russ.J.Gen.Chem.) '
loop_
_publ_author_name
"I.V.Raspertova"
"K.V.Domasevich"
"R.D.Lampeka"
_chemical_name_systematic
;
N-(2,4-Dihydroxybenzylidene)-N-methylamine N-oxide
;
_chemical_melting_point 461.15
_cell_volume    754.986
_exptl_crystal_colour 'brown'
_exptl_crystal_density_diffrn 1.471
_exptl_special_details
;
Melting point range 461.15-463.15K

;
_exptl_crystal_preparation 'acetonitrile'
_diffrn_ambient_temperature 232
#These two values have been output from a single CSD field.
_refine_ls_R_factor_gt 0.045
_refine_ls_wR_factor_gt 0.045
_symmetry_cell_setting monoclinic
_symmetry_space_group_name_H-M 'P 21/n'
_symmetry_Int_Tables_number 14
loop_
_symmetry_equiv_pos_site_id
_symmetry_equiv_pos_as_xyz
1 x,y,z
2 1/2-x,1/2+y,1/2-z
3 -x,-y,-z
4 -1/2+x,-1/2-y,-1/2+z
_cell_length_a 9.524(2)
_cell_length_b 7.749(2)
_cell_length_c 11.140(2)
_cell_angle_alpha 90
_cell_angle_beta 113.32(3)
_cell_angle_gamma 90
_cell_formula_units_Z 4
loop_
_atom_type_symbol
_atom_type_radius_bond
C 0.68
H 0.23
N 0.68
O 0.68
loop_
_atom_site_label
_atom_site_type_symbol
_atom_site_fract_x
_atom_site_fract_y
_atom_site_fract_z
O1 O 0.42270(12) 0.1933(2) 0.48636(11)
O2 O 0.71533(14) 0.2195(2) 0.23587(11)
O3 O 0.49113(13) 0.22190(14) 0.72838(11)
C1 C 0.6571(2) 0.3609(2) 0.57346(13)
N1 N 0.57551(13) 0.3665(2) 0.75911(11)
C2 C 0.8039(2) 0.3810(2) 0.43693(14)
C3 C 0.5775(2) 0.2035(2) 0.36900(14)
C4 C 0.7801(2) 0.4268(2) 0.54656(13)
C5 C 0.6497(2) 0.4251(2) 0.69258(14)
C6 C 0.7011(2) 0.2673(2) 0.34731(14)
C7 C 0.5524(2) 0.2506(2) 0.47943(14)
C8 C 0.5804(2) 0.4504(2) 0.87876(15)
H1 H 0.90120 0.42590 0.42260
H2 H 0.71960 0.52350 0.73770
H3 H 0.50140 0.10550 0.30150
H4 H 0.86000 0.50560 0.61490
H5 H 0.65890 0.55310 0.90850
H6 H 0.62150 0.34870 0.94750
H7 H 0.46070 0.48480 0.85130
H8 H 0.82170 0.24510 0.23550
H9 H 0.44170 0.21040 0.58360
#END
