
#######################################################################
#
#                 Cambridge Crystallographic Data Centre
#                                CCDC
#
#######################################################################
#
# If this CIF has been generated from an entry in the Cambridge
# Structural Database, then it will include bibliographic, chemical,
# crystal, experimental, refinement or atomic coordinate data resulting
# from the CCDC's data processing and validation procedures.
#
#######################################################################

data_CSD_CIF_TAKJIZ
_audit_creation_date 2003-10-23
_audit_creation_method CSD-ConQuest-V1
_database_code_CSD TAKJIZ
_chemical_formula_sum 'C16 H15 N1 O4'
_chemical_formula_moiety
;
C16 H15 N1 O4
;
_journal_coden_Cambridge 371
_journal_year 2002
_journal_page_first 418
_journal_name_full 'Khim.Prir.Soedin(Russ.)(Chem.Nat.Compd.) '
loop_
_publ_author_name
"E.A.Kul'magambetova"
"V.I.Yamovoi"
"D.D.Kusainova"
"R.N.Pak"
"A.T.Kulyyasov"
"K.M.Turdybekov"
"S.N.Adekenov"
"Yu.V.Gatilov"
_chemical_name_systematic
;
5-Hydroxy-7-methoxy-2-phenyl-2,3-dihydro-4H-chromen-4-one oxime
;
_chemical_name_common
;
Pinostrobin oxime
;
_chemical_melting_point 455.15
_cell_volume   1357.752
_exptl_crystal_colour 'colorless'
_exptl_crystal_density_diffrn 1.396
_exptl_special_details
;
Melting point range 455.15-457.15K
hepatoprotective

;
_exptl_crystal_description 'rhombus'
_diffrn_ambient_temperature 295
#These two values have been output from a single CSD field.
_refine_ls_R_factor_gt 0.048
_refine_ls_wR_factor_gt 0.048
_symmetry_cell_setting monoclinic
_symmetry_space_group_name_H-M 'P 21/n'
_symmetry_Int_Tables_number 14
loop_
_symmetry_equiv_pos_site_id
_symmetry_equiv_pos_as_xyz
1 x,y,z
2 1/2-x,1/2+y,1/2-z
3 -x,-y,-z
4 -1/2+x,-1/2-y,-1/2+z
_cell_length_a 12.995(1)
_cell_length_b 7.674(1)
_cell_length_c 13.774(1)
_cell_angle_alpha 90
_cell_angle_beta 98.71(1)
_cell_angle_gamma 90
_cell_formula_units_Z 4
loop_
_atom_type_symbol
_atom_type_radius_bond
C 0.68
H 0.23
N 0.68
O 0.68
loop_
_atom_site_label
_atom_site_type_symbol
_atom_site_fract_x
_atom_site_fract_y
_atom_site_fract_z
O1 O 0.3547(1) 0.1160(2) 0.1176(1)
O2 O 0.3780(2) 0.7441(2) 0.0596(1)
O3 O 0.4018(2) 0.6110(2) 0.3361(2)
O4 O 0.3787(1) 0.0345(2) 0.4567(1)
N1 N 0.3828(2) 0.6502(3) 0.1480(2)
C1 C 0.3028(2) 0.2293(3) 0.0400(2)
C2 C 0.3660(2) 0.3949(3) 0.0370(2)
C3 C 0.3772(2) 0.4837(3) 0.1343(2)
C4 C 0.3908(2) 0.4378(3) 0.3173(2)
C5 C 0.3925(2) 0.3291(3) 0.3976(2)
C6 C 0.3814(2) 0.1520(3) 0.3829(2)
C7 C 0.3695(2) 0.0819(3) 0.2882(2)
C8 C 0.3680(2) 0.1909(3) 0.2098(2)
C9 C 0.3789(2) 0.3734(3) 0.2208(2)
C10 C 0.3862(3) 0.1016(4) 0.5550(2)
C11 C 0.2864(2) 0.1258(3) -0.0537(2)
C12 C 0.1869(2) 0.0960(4) -0.1004(2)
C13 C 0.1695(3) 0.0027(4) -0.1862(2)
C14 C 0.2508(3) -0.0643(4) -0.2268(2)
C15 C 0.3508(3) -0.0362(4) -0.1818(2)
C16 C 0.3694(2) 0.0602(4) -0.0959(2)
H1 H 0.365(3) 0.863(6) 0.077(3)
H2 H 0.397(3) 0.662(5) 0.276(2)
H3 H 0.230(2) 0.265(4) 0.060(2)
H4 H 0.332(2) 0.470(3) -0.017(2)
H5 H 0.438(3) 0.352(4) 0.023(2)
H6 H 0.401(2) 0.377(3) 0.463(2)
H7 H 0.363(2) -0.040(3) 0.277(2)
H8 H 0.382(2) -0.001(4) 0.595(2)
H9 H 0.454(2) 0.175(4) 0.575(2)
H10 H 0.322(2) 0.188(4) 0.557(2)
H11 H 0.129(2) 0.145(4) -0.077(2)
H12 H 0.098(2) -0.019(4) -0.219(2)
H13 H 0.239(2) -0.141(4) -0.285(2)
H14 H 0.407(3) -0.087(4) -0.207(2)
H15 H 0.437(2) 0.080(4) -0.068(2)
#END
