
#######################################################################
#
#                 Cambridge Crystallographic Data Centre
#                                CCDC
#
#######################################################################
#
# If this CIF has been generated from an entry in the Cambridge
# Structural Database, then it will include bibliographic, chemical,
# crystal, experimental, refinement or atomic coordinate data resulting
# from the CCDC's data processing and validation procedures.
#
#######################################################################

data_CSD_CIF_TAKJEU
_audit_creation_date 1991-11-25
_audit_creation_method CSD-ConQuest-V1
_database_code_CSD TAKJEU
_chemical_formula_sum 'C43 H81 N3 O14'
_chemical_formula_moiety
;
C43 H81 N3 O14
;
_journal_coden_Cambridge 188
_journal_year 1989
_journal_page_first 1719
_journal_name_full 'J.Chem.Soc.,Perkin Trans.2 '
loop_
_publ_author_name
"J.R.Everett"
"I.K.Hatton"
"E.Hunt"
"J.W.Tyler"
"D.J.Williams"
_chemical_name_systematic
;
(E)-11-O-(2-Dimethylaminoethoxy)methyl-9-deoxo-9-methoxyiminoerythromycin A
;
_chemical_melting_point 489.15
_cell_volume   4887.917
_exptl_crystal_colour 'colorless'
_exptl_crystal_density_diffrn 1.17
_exptl_special_details
;
Melting point range 489.15-491.15K
antibiotic drug
Dep data not received

;
_diffrn_ambient_temperature ?
_diffrn_special_details
;
The study was carried out at room temperature,in the range 283-303K

;
#These two values have been output from a single CSD field.
_refine_ls_R_factor_gt 0.05
_refine_ls_wR_factor_gt 0.05
_symmetry_cell_setting orthorhombic
_symmetry_space_group_name_H-M 'P 21 21 21'
_symmetry_Int_Tables_number 19
loop_
_symmetry_equiv_pos_site_id
_symmetry_equiv_pos_as_xyz
1 x,y,z
2 1/2+x,1/2-y,-z
3 -x,1/2+y,1/2-z
4 1/2-x,-y,1/2+z
_cell_length_a 10.093(2)
_cell_length_b 19.026(4)
_cell_length_c 25.454(7)
_cell_angle_alpha 90
_cell_angle_beta 90
_cell_angle_gamma 90
_cell_formula_units_Z 4
loop_
_atom_type_symbol
_atom_type_radius_bond
C 0.68
N 0.68
O 0.68
loop_
_atom_site_label
_atom_site_type_symbol
_atom_site_fract_x
_atom_site_fract_y
_atom_site_fract_z
O1 O 0.5329(4) 0.7579(2) 0.9095(2)
C1 C 0.4694(4) 0.7048(2) 0.9035(2)
C2 C 0.4808(4) 0.6393(2) 0.9374(2)
C3 C 0.5730(4) 0.5840(2) 0.9101(1)
O2 O 0.6986(2) 0.5789(1) 0.9359(1)
C4 C 0.5107(4) 0.5109(2) 0.9083(1)
C5 C 0.5958(4) 0.4592(2) 0.8758(1)
O3 O 0.6012(2) 0.3909(1) 0.9009(1)
C6 C 0.5497(4) 0.4451(2) 0.8187(1)
O4 O 0.6465(3) 0.4005(1) 0.7940(1)
C7 C 0.5497(4) 0.5149(2) 0.7880(1)
C8 C 0.5820(5) 0.5103(2) 0.7282(1)
C9 C 0.5758(4) 0.5828(2) 0.7027(2)
N1 N 0.6640(4) 0.6086(2) 0.6726(2)
O5 O 0.7744(4) 0.5647(2) 0.6668(2)
C10 C 0.4511(4) 0.6269(2) 0.7090(2)
C11 C 0.4655(4) 0.6806(2) 0.7539(2)
O6 O 0.5495(3) 0.7372(2) 0.7386(1)
C12 C 0.3349(4) 0.7136(2) 0.7736(2)
O7 O 0.2879(3) 0.7646(2) 0.7367(1)
C13 C 0.3596(4) 0.7504(2) 0.8263(2)
O8 O 0.3830(3) 0.6950(1) 0.8649(1)
C14 C 0.2458(5) 0.7963(3) 0.8442(2)
C15 C 0.2640(7) 0.8378(4) 0.8887(3)
C16 C 0.5230(5) 0.6581(2) 0.9930(2)
C17 C 0.7932(4) 0.6275(2) 0.9169(2)
O9 O 0.8436(3) 0.6086(2) 0.8682(1)
C18 C 0.9004(4) 0.6386(3) 0.9581(2)
C19 C 1.0080(4) 0.5843(3) 0.9590(2)
O10 O 0.9621(3) 0.5155(2) 0.9763(1)
C20 C 1.0524(4) 0.5679(3) 0.9030(2)
O11 O 0.6352(2) 0.3227(1) 1.0006(1)
C21 C 0.9342(4) 0.5503(2) 0.8690(2)
C22 C 0.9072(7) 0.5097(4) 1.0281(2)
C23 C 1.1242(5) 0.6081(4) 0.9932(2)
C24 C 0.9690(6) 0.5346(3) 0.8125(2)
C25 C 0.7261(4) 0.3710(2) 0.9207(1)
O12 O 0.8066(3) 0.3574(1) 0.8763(1)
C26 C 0.7069(4) 0.3057(2) 0.9545(1)
O13 O 1.1481(3) 0.5132(2) 0.9014(1)
C27 C 0.8423(4) 0.2755(2) 0.9695(1)
N2 N 0.8441(3) 0.2120(2) 1.0026(1)
C28 C 0.9223(4) 0.2640(2) 0.9192(2)
C29 C 0.9357(4) 0.3314(2) 0.8886(2)
C30 C 1.0076(5) 0.3219(3) 0.8362(2)
C31 C 0.7501(5) 0.1589(2) 0.9844(2)
C32 C 0.8283(5) 0.2259(3) 1.0585(2)
C33 C 0.4160(4) 0.4085(2) 0.8181(2)
C34 C 0.4901(7) 0.4617(3) 0.6971(2)
C35 C 0.8672(8) 0.5998(4) 0.6325(3)
C36 C 0.4106(6) 0.6619(3) 0.6573(2)
C37 C 0.2245(4) 0.6610(2) 0.7782(2)
C38 C 0.6824(5) 0.7340(3) 0.7543(3)
O14 O 0.6937(4) 0.7807(3) 0.7956(2)
C39 C 0.8172(8) 0.7888(4) 0.8130(3)
C40 C 0.8347(8) 0.8419(4) 0.8520(3)
N3 N 0.8318(6) 0.9128(3) 0.8387(2)
C41 C 0.8293(10) 0.9544(4) 0.8849(3)
C42 C 0.9426(9) 0.9339(4) 0.8073(3)
C43 C 0.4830(4) 0.4832(2) 0.9635(2)
#END
