
#######################################################################
#
#                 Cambridge Crystallographic Data Centre
#                                CCDC
#
#######################################################################
#
# If this CIF has been generated from an entry in the Cambridge
# Structural Database, then it will include bibliographic, chemical,
# crystal, experimental, refinement or atomic coordinate data resulting
# from the CCDC's data processing and validation procedures.
#
#######################################################################

data_CSD_CIF_TAKNAX
_audit_creation_date 2016-02-11
_audit_creation_method CSD-ConQuest-V1
_database_code_CSD TAKNAX
_database_code_depnum_ccdc_archive 'CCDC 1049361'
_chemical_formula_sum 'C18 H19 N1 O6'
_chemical_formula_moiety
;
C18 H19 N1 O6
;
_journal_coden_Cambridge 1003
_journal_volume 46
_journal_year 2016
_journal_page_first 105
_journal_name_full 'J.Chem.Cryst. '
loop_
_publ_author_name
"M.S.Gerova"
"G.R.Encheva"
"R.P.Nikolova"
"C.D.Chanev"
"B.L.Shivachev"
"M.D.Apostolova"
"O.I.Petrov"
_chemical_name_systematic
;
1,2,3-trimethoxy-5-(2-(4-methoxy-3-nitrophenyl)vinyl)benzene
;
_cell_volume   3309.605
_exptl_crystal_colour 'orange'
_exptl_crystal_density_diffrn 1.386
_exptl_crystal_description 'plate'
_diffrn_ambient_temperature 290
#These two values have been output from a single CSD field.
_refine_ls_R_factor_gt 0.0805
_refine_ls_wR_factor_gt 0.0805
_symmetry_cell_setting orthorhombic
_symmetry_space_group_name_H-M 'P b c a'
_symmetry_Int_Tables_number 61
loop_
_symmetry_equiv_pos_site_id
_symmetry_equiv_pos_as_xyz
1 x,y,z
2 1/2-x,-y,1/2+z
3 1/2+x,1/2-y,-z
4 -x,1/2+y,1/2-z
5 -x,-y,-z
6 -1/2+x,y,-1/2-z
7 -1/2-x,-1/2+y,z
8 x,-1/2-y,-1/2+z
_cell_length_a 7.8673(4)
_cell_length_b 49.947(2)
_cell_length_c 8.4225(4)
_cell_angle_alpha 90
_cell_angle_beta 90
_cell_angle_gamma 90
_cell_formula_units_Z 8
loop_
_atom_type_symbol
_atom_type_radius_bond
C 0.68
H 0.23
N 0.68
O 0.68
loop_
_atom_site_label
_atom_site_type_symbol
_atom_site_fract_x
_atom_site_fract_y
_atom_site_fract_z
O1 O 0.4862(3) 0.22687(5) 0.5713(3)
O2 O 1.1923(3) 0.04157(6) -0.0901(3)
C1 C 0.5580(4) 0.20728(6) 0.4826(4)
C2 C 0.6462(4) 0.18653(6) 0.5566(4)
C3 C 1.1011(4) 0.06123(7) -0.0125(4)
C4 C 1.0511(4) 0.08428(7) -0.0913(4)
O3 O 1.1188(4) 0.03506(5) 0.2181(3)
C5 C 0.5525(5) 0.20701(7) 0.3174(4)
H1 H 0.49670 0.22080 0.26450
C6 C 0.7104(4) 0.16610(7) 0.3009(4)
C7 C 0.9633(4) 0.10445(7) -0.0097(5)
H2 H 0.93090 0.12000 -0.06230
C8 C 0.9750(4) 0.07788(7) 0.2282(4)
H3 H 0.94870 0.07560 0.33500
C9 C 1.0631(4) 0.05830(7) 0.1485(4)
C10 C 0.9248(4) 0.10111(7) 0.1508(4)
C11 C 0.8376(5) 0.12167(7) 0.2468(5)
H4 H 0.81500 0.11730 0.35200
O4 O 1.0974(4) 0.08559(5) -0.2474(3)
C12 C 0.7219(4) 0.16625(6) 0.4663(5)
H5 H 0.78090 0.15260 0.51750
C13 C 0.7888(4) 0.14542(7) 0.1995(4)
H6 H 0.80490 0.14960 0.09290
C14 C 0.6266(4) 0.18709(7) 0.2308(4)
H7 H 0.62000 0.18780 0.12060
N1 N 0.6670(4) 0.18523(6) 0.7281(4)
C15 C 0.3758(6) 0.24519(8) 0.4916(6)
H8 H 0.44090 0.25600 0.41970
H9 H 0.32080 0.25650 0.56830
H10 H 0.29160 0.23540 0.43320
C16 C 1.0286(6) 0.10656(10) -0.3407(5)
H11 H 1.07170 0.10530 -0.44710
H12 H 1.06060 0.12350 -0.29590
H13 H 0.90690 0.10510 -0.34240
O5 O 0.7510(7) 0.16735(8) 0.7846(4)
C17 C 1.0975(7) 0.03253(9) 0.3850(5)
H14 H 0.97880 0.03360 0.41070
H15 H 1.15750 0.04670 0.43760
H16 H 1.14170 0.01560 0.41930
O6 O 0.6091(7) 0.20215(11) 0.8116(4)
C18 C 1.0894(6) 0.02480(9) -0.1867(5)
H17 H 1.02290 0.03560 -0.25740
H18 H 1.01520 0.01440 -0.12060
H19 H 1.16070 0.01300 -0.24740
#END
