
#######################################################################
#
#                 Cambridge Crystallographic Data Centre
#                                CCDC
#
#######################################################################
#
# If this CIF has been generated from an entry in the Cambridge
# Structural Database, then it will include bibliographic, chemical,
# crystal, experimental, refinement or atomic coordinate data resulting
# from the CCDC's data processing and validation procedures.
#
#######################################################################

data_CSD_CIF_TAKSAA
_audit_creation_date 2003-10-23
_audit_creation_method CSD-ConQuest-V1
_database_code_CSD TAKSAA
_database_code_depnum_ccdc_archive 'CCDC 220588'
_chemical_formula_sum 'C22 H17 N1 O5'
_chemical_formula_moiety
;
C22 H17 N1 O5
;
_journal_coden_Cambridge 41
_journal_volume 48
_journal_year 2003
_journal_page_first 78
_journal_name_full 'Kristallografiya(Russ.)(Crystallogr.Rep.) '
loop_
_publ_author_name
"L.N.Kuleshova"
"V.N.Khrustalev"
"K.Yu.Suponitsky"
"M.Yu.Antipin"
"D.V.Gusev"
"E.S.Bobrikova"
_chemical_name_systematic
;
3-Methoxyphenyl 3-(4-nitrophenyl)-2-phenylacrylate
;
_chemical_melting_point 415.15
_cell_volume    948.449
_exptl_crystal_colour 'light yellow'
_exptl_crystal_density_diffrn 1.314
_exptl_crystal_description 'prism'
_exptl_crystal_preparation 'isopropanol'
_diffrn_ambient_temperature 295
#These two values have been output from a single CSD field.
_refine_ls_R_factor_gt 0.0421
_refine_ls_wR_factor_gt 0.0421
_symmetry_cell_setting monoclinic
_symmetry_space_group_name_H-M 'P n'
_symmetry_Int_Tables_number 7
loop_
_symmetry_equiv_pos_site_id
_symmetry_equiv_pos_as_xyz
1 x,y,z
2 1/2+x,-y,1/2+z
_cell_length_a 6.0176(12)
_cell_length_b 12.572(3)
_cell_length_c 12.865(3)
_cell_angle_alpha 90
_cell_angle_beta 102.97(3)
_cell_angle_gamma 90
_cell_formula_units_Z 2
loop_
_atom_type_symbol
_atom_type_radius_bond
C 0.68
H 0.23
N 0.68
O 0.68
loop_
_atom_site_label
_atom_site_type_symbol
_atom_site_fract_x
_atom_site_fract_y
_atom_site_fract_z
O1 O -0.2419(4) 0.78689(17) 1.11275(16)
O2 O -0.4209(6) 0.6378(2) 1.0518(2)
O3 O 0.2365(4) 0.9558(2) 0.52073(17)
O4 O 0.5419(4) 0.9933(2) 0.6371(2)
O5 O -0.1707(6) 0.6867(2) 1.48015(19)
N1 N 0.3491(4) 0.95741(18) 0.61237(18)
C1 C -0.3015(5) 0.70869(19) 1.0397(2)
C2 C -0.1951(4) 0.72316(18) 0.94622(18)
C3 C -0.0616(4) 0.8073(2) 0.94238(18)
C4 C 0.0448(4) 0.84087(18) 0.85524(18)
C5 C 0.2426(5) 0.9006(2) 0.8800(2)
C6 C 0.3482(5) 0.9377(2) 0.8026(2)
C7 C 0.2453(4) 0.91585(19) 0.69733(18)
C8 C 0.0482(5) 0.8588(2) 0.6691(2)
C9 C -0.0510(5) 0.8197(2) 0.7482(2)
C10 C -0.2454(4) 0.63810(18) 0.86372(18)
C11 C -0.0702(6) 0.5729(2) 0.8481(2)
C12 C -0.1099(8) 0.4964(3) 0.7672(3)
C13 C -0.3195(8) 0.4854(3) 0.7031(3)
C14 C -0.4935(8) 0.5478(4) 0.7182(3)
C15 C -0.4597(5) 0.6246(3) 0.7994(3)
C16 C -0.3261(5) 0.7828(2) 1.2058(2)
C17 C -0.5226(6) 0.8361(3) 1.2077(3)
C18 C -0.5919(7) 0.8398(4) 1.3038(3)
C19 C -0.4694(7) 0.7900(3) 1.3917(3)
C20 C -0.2754(6) 0.7352(2) 1.3878(2)
C21 C -0.1977(5) 0.7321(2) 1.2936(2)
C22 C 0.0075(17) 0.6174(6) 1.4789(6)
H1 H -0.019(5) 0.853(2) 1.002(2)
H2 H 0.309(6) 0.918(3) 0.955(3)
H3 H 0.488(6) 0.969(3) 0.819(3)
H4 H -0.005(6) 0.848(3) 0.596(3)
H5 H -0.180(6) 0.776(3) 0.724(3)
H6 H 0.070(6) 0.584(3) 0.891(3)
H7 H 0.000(9) 0.455(4) 0.757(4)
H8 H -0.366(7) 0.431(3) 0.649(3)
H9 H -0.625(9) 0.534(4) 0.678(4)
H10 H -0.582(7) 0.669(3) 0.810(3)
H11 H -0.609(8) 0.874(4) 1.156(4)
H12 H -0.728(11) 0.890(5) 1.309(5)
H13 H -0.525(8) 0.791(3) 1.453(4)
H14 H -0.071(7) 0.697(3) 1.290(3)
H15 H -0.051(13) 0.551(6) 1.442(6)
H16 H 0.047(11) 0.584(5) 1.541(6)
H17 H 0.138(9) 0.649(4) 1.460(5)
#END
