
#######################################################################
#
#                 Cambridge Crystallographic Data Centre
#                                CCDC
#
#######################################################################
#
# If this CIF has been generated from an entry in the Cambridge
# Structural Database, then it will include bibliographic, chemical,
# crystal, experimental, refinement or atomic coordinate data resulting
# from the CCDC's data processing and validation procedures.
#
#######################################################################

data_CSD_CIF_TALDOC
_audit_creation_date 2016-02-12
_audit_creation_method CSD-ConQuest-V1
_database_code_CSD TALDOC
_database_code_depnum_ccdc_archive 'CCDC 1431783'
_chemical_formula_sum 'C6 H11 N1 O5'
_chemical_formula_moiety
;
C6 H11 N1 O5
;
_journal_coden_Cambridge 179
_journal_volume 55
_journal_year 2016
_journal_page_first 523
_journal_name_full 'Angew.Chem.,Int.Ed. '
loop_
_publ_author_name
"Ziyang Zhang"
"T.Fukuzaki"
"A.G.Myers"
_chemical_name_systematic
;
3-Nitro-3,4,6-trideoxy-\a-D-glucose
;
_cell_volume    801.666
_exptl_crystal_colour 'colorless'
_exptl_crystal_density_diffrn 1.468
_exptl_special_details
;
Absolute configuration

;
_exptl_crystal_description 'plate'
_diffrn_ambient_temperature 100
#These two values have been output from a single CSD field.
_refine_ls_R_factor_gt 0.0231
_refine_ls_wR_factor_gt 0.0231
_symmetry_cell_setting orthorhombic
_symmetry_space_group_name_H-M 'P 21 21 21'
_symmetry_Int_Tables_number 19
loop_
_symmetry_equiv_pos_site_id
_symmetry_equiv_pos_as_xyz
1 x,y,z
2 1/2-x,-y,1/2+z
3 -x,1/2+y,1/2-z
4 1/2+x,1/2-y,-z
_cell_length_a 4.9855(1)
_cell_length_b 8.3633(2)
_cell_length_c 19.2268(5)
_cell_angle_alpha 90
_cell_angle_beta 90
_cell_angle_gamma 90
_cell_formula_units_Z 4
loop_
_atom_type_symbol
_atom_type_radius_bond
C 0.68
H 0.23
N 0.68
O 0.68
loop_
_atom_site_label
_atom_site_type_symbol
_atom_site_fract_x
_atom_site_fract_y
_atom_site_fract_z
C1 C 0.3277(3) 0.43926(19) 0.52646(8)
H1 H 0.25960 0.43980 0.47750
C2 C 0.2113(3) 0.58325(18) 0.56468(8)
H2 H 0.01100 0.57960 0.56220
C3 C 0.2990(3) 0.57646(18) 0.64012(8)
H3 H 0.49830 0.58830 0.64290
C4 C 0.2156(4) 0.41790(19) 0.67317(8)
H4 H 0.28260 0.41270 0.72160
H5 H 0.01750 0.41020 0.67430
C5 C 0.3302(4) 0.27980(19) 0.63130(8)
H6 H 0.53050 0.28320 0.63360
C6 C 0.2333(5) 0.1188(2) 0.65625(9)
H7 H 0.03720 0.11480 0.65350
H8 H 0.29000 0.10250 0.70450
H9 H 0.30990 0.03460 0.62690
N1 N 0.1667(3) 0.70888(16) 0.68093(7)
O1 O 0.2449(2) 0.29450(13) 0.55921(5)
O2 O 0.6055(2) 0.45453(14) 0.52514(6)
H10 H 0.676(6) 0.384(4) 0.4948(15)
O3 O 0.3046(2) 0.72747(13) 0.53382(6)
H11 H 0.178(5) 0.768(3) 0.5127(12)
O4 O -0.0621(2) 0.74858(15) 0.66586(6)
O5 O 0.2950(3) 0.76612(14) 0.72930(6)
#END
