
#######################################################################
#
#                 Cambridge Crystallographic Data Centre
#                                CCDC
#
#######################################################################
#
# If this CIF has been generated from an entry in the Cambridge
# Structural Database, then it will include bibliographic, chemical,
# crystal, experimental, refinement or atomic coordinate data resulting
# from the CCDC's data processing and validation procedures.
#
#######################################################################

data_CSD_CIF_TALDUF
_audit_creation_date 1991-10-31
_audit_creation_method CSD-ConQuest-V1
_database_code_CSD TALDUF
_database_code_depnum_ccdc_archive 'CCDC 1265946'
_chemical_formula_sum 'C15 H18 N1 O4'
_chemical_formula_moiety
;
C15 H18 N1 O4
;
_journal_coden_Cambridge 179
_journal_volume 30
_journal_year 1991
_journal_page_first 450
_journal_name_full 'Angew.Chem.,Int.Ed. '
loop_
_publ_author_name
"D.W.Wiley"
"J.C.Calabrese"
"R.L.Harlow"
"J.S.Miller"
_chemical_name_systematic
;
Hexa-2,4-diyne-6-(2,2,5,5-tetramethyl-1-oxyl-3-pyrroline-3-carboxylate)-1-ol
;
_chemical_melting_point 378.65
_cell_volume   1472.078
_exptl_crystal_colour 'yellow'
_exptl_crystal_density_diffrn 1.247
_exptl_special_details
;
Melting point range 378.65-379.65K

;
_diffrn_ambient_temperature 213
#These two values have been output from a single CSD field.
_refine_ls_R_factor_gt 0.039
_refine_ls_wR_factor_gt 0.039
_symmetry_cell_setting orthorhombic
_symmetry_space_group_name_H-M 'P 21 21 21'
_symmetry_Int_Tables_number 19
loop_
_symmetry_equiv_pos_site_id
_symmetry_equiv_pos_as_xyz
1 x,y,z
2 1/2+x,1/2-y,-z
3 -x,1/2+y,1/2-z
4 1/2-x,-y,1/2+z
_cell_length_a 8.217(2)
_cell_length_b 10.465(2)
_cell_length_c 17.119(2)
_cell_angle_alpha 90
_cell_angle_beta 90
_cell_angle_gamma 90
_cell_formula_units_Z 4
loop_
_atom_type_symbol
_atom_type_radius_bond
C 0.68
H 0.23
N 0.68
O 0.68
loop_
_atom_site_label
_atom_site_type_symbol
_atom_site_fract_x
_atom_site_fract_y
_atom_site_fract_z
O1 O 0.8482(4) 0.4615(2) 0.1702(2)
O2 O 0.3577(3) 0.3898(2) 0.3721(2)
O3 O 0.4912(3) 0.2239(2) 0.4255(1)
O4 O 0.3563(4) -0.4765(3) 0.5982(2)
N1 N 0.7830(4) 0.3936(3) 0.2234(2)
C1 C 0.6261(4) 0.4298(3) 0.2592(2)
C2 C 0.6117(4) 0.3239(3) 0.3188(2)
C3 C 0.7311(5) 0.2403(3) 0.3143(2)
C4 C 0.8549(5) 0.2727(3) 0.2528(2)
C5 C 0.6395(6) 0.5629(3) 0.2949(3)
C6 C 0.4924(6) 0.4252(4) 0.1974(2)
C7 C 0.8619(7) 0.1734(4) 0.1872(3)
C8 C 1.0238(5) 0.2980(5) 0.2871(3)
C9 C 0.4725(5) 0.3186(3) 0.3733(2)
C10 C 0.3542(8) 0.2076(4) 0.4787(3)
C11 C 0.3479(6) 0.0720(4) 0.4989(2)
C12 C 0.3419(6) -0.0400(4) 0.5087(2)
C13 C 0.3350(6) -0.1712(4) 0.5173(2)
C14 C 0.3337(6) -0.2838(4) 0.5221(2)
C15 C 0.3347(10) -0.4237(4) 0.5243(3)
H1 H 0.7476(4) 0.1669(30) 0.3452(17)
H2 H 0.460(6) -0.4508(43) 0.6150(27)
H3 H 0.5360(48) 0.5846(33) 0.3195(22)
H4 H 0.6640(42) 0.6201(29) 0.2546(21)
H5 H 0.7341(46) 0.5636(31) 0.3362(20)
H6 H 0.4808(49) 0.3398(36) 0.1709(20)
H7 H 0.5182(52) 0.4915(37) 0.1560(22)
H8 H 0.3939(48) 0.4480(31) 0.2229(21)
H9 H 0.9361(49) 0.2041(38) 0.1436(23)
H10 H 0.7515(56) 0.1549(40) 0.1652(25)
H11 H 0.9066(62) 0.0914(48) 0.2095(28)
H12 H 1.0979(52) 0.3247(39) 0.2441(28)
H13 H 1.0661(50) 0.2174(42) 0.3053(23)
H14 H 1.0141(49) 0.3537(35) 0.3298(22)
H15 H 0.2521(61) 0.2394(46) 0.4508(27)
H16 H 0.3871(55) 0.2596(42) 0.5258(26)
H17 H 0.2353(71) -0.4595(47) 0.5014(29)
H18 H 0.4371(79) -0.4711(64) 0.4985(35)
#END
