
#######################################################################
#
#                 Cambridge Crystallographic Data Centre
#                                CCDC
#
#######################################################################
#
# If this CIF has been generated from an entry in the Cambridge
# Structural Database, then it will include bibliographic, chemical,
# crystal, experimental, refinement or atomic coordinate data resulting
# from the CCDC's data processing and validation procedures.
#
#######################################################################

data_CSD_CIF_TALKIA
_audit_creation_date 1992-01-27
_audit_creation_method CSD-ConQuest-V1
_database_code_CSD TALKIA
_chemical_formula_sum 'C25 H20 N2 O4'
_chemical_formula_moiety
;
C25 H20 N2 O4
;
_journal_coeditor_code "IUCr PA0155"
_journal_coden_Cambridge 591
_journal_volume 47
_journal_year 1991
_journal_page_first 1528
_journal_name_full 'Acta Crystallogr.,Sect.C:Cryst.Struct.Commun. '
loop_
_publ_author_name
"L.Toupet"
"M.Mazari"
"F.Texier"
"R.Carrie"
_chemical_name_systematic
;
Methyl 1-methyl-2-nitrophenyl-4,5-diphenylpyrrole-3-carboxylate
;
_cell_volume   2095.301
_exptl_crystal_density_diffrn 1.31
_exptl_special_details
;
Cell constants a, b and c supplied by author, beta estimated from volume. 
Confirmation has been requested from author
;
_diffrn_ambient_temperature ?
_diffrn_special_details
;
The study was carried out at room temperature,in the range 283-303K

;
#These two values have been output from a single CSD field.
_refine_ls_R_factor_gt 0.039
_refine_ls_wR_factor_gt 0.039
_symmetry_cell_setting monoclinic
_symmetry_space_group_name_H-M 'P 21/n'
_symmetry_Int_Tables_number 14
loop_
_symmetry_equiv_pos_site_id
_symmetry_equiv_pos_as_xyz
1 x,y,z
2 1/2-x,1/2+y,1/2-z
3 -x,-y,-z
4 -1/2+x,-1/2-y,-1/2+z
_cell_length_a 14.675(7)
_cell_length_b 8.278(6)
_cell_length_c 17.397(3)
_cell_angle_alpha 90
_cell_angle_beta 97.5
_cell_angle_gamma 90
_cell_formula_units_Z 4
loop_
_atom_type_symbol
_atom_type_radius_bond
C 0.68
H 0.23
N 0.68
O 0.68
loop_
_atom_site_label
_atom_site_type_symbol
_atom_site_fract_x
_atom_site_fract_y
_atom_site_fract_z
O1 O 0.9384(2) -0.3193(3) 0.3969(2)
O2 O 1.0287(1) -0.1061(3) 0.4247(1)
O3 O 1.2206(2) 0.4664(4) 0.2443(2)
O4 O 1.1995(2) 0.2821(4) 0.1564(2)
N1 N 0.7978(1) 0.1654(3) 0.3463(1)
N2 N 1.1812(2) 0.3476(4) 0.2154(2)
C1 C 0.7359(2) 0.0638(3) 0.3750(2)
C2 C 0.7816(2) -0.0756(3) 0.4000(2)
C3 C 0.8738(2) -0.0563(3) 0.3862(2)
C4 C 0.8823(2) 0.0935(3) 0.3531(2)
C5 C 0.7767(2) 0.3288(4) 0.3168(2)
C6 C 0.9480(2) -0.1758(4) 0.4028(2)
C7 C 1.1077(2) -0.2104(5) 0.4389(2)
C8 C 0.9603(2) 0.1628(3) 0.3199(2)
C9 C 0.9980(2) 0.0755(4) 0.2638(2)
C10 C 1.0704(2) 0.1343(4) 0.2297(2)
C11 C 1.1056(2) 0.2810(4) 0.2526(2)
C12 C 1.0711(2) 0.3716(4) 0.3084(2)
C13 C 0.9978(2) 0.3121(4) 0.3424(2)
C14 C 0.6393(2) 0.1103(3) 0.3777(2)
C15 C 0.5797(2) 0.1397(4) 0.3106(2)
C16 C 0.4900(2) 0.1817(4) 0.3156(2)
C17 C 0.4587(2) 0.1944(4) 0.3856(3)
C18 C 0.5166(2) 0.1650(4) 0.4515(2)
C19 C 0.6073(2) 0.1227(4) 0.4489(2)
C20 C 0.7407(2) -0.2154(3) 0.4361(2)
C21 C 0.7803(2) -0.2767(4) 0.5067(2)
C22 C 0.7418(2) -0.4068(4) 0.5402(2)
C23 C 0.6639(2) -0.4781(4) 0.5043(2)
C24 C 0.6235(2) -0.4191(4) 0.4343(2)
C25 C 0.6609(2) -0.2882(4) 0.4003(2)
H1 H 0.715(2) 0.359(4) 0.322(2)
H2 H 0.825(2) 0.388(4) 0.320(2)
H3 H 0.756(2) 0.321(4) 0.265(2)
H4 H 1.124(2) -0.247(4) 0.389(2)
H5 H 1.159(2) -0.146(4) 0.459(2)
H6 H 1.096(2) -0.287(4) 0.470(2)
H7 H 0.967(2) -0.028(4) 0.246(2)
H8 H 1.095(2) 0.074(4) 0.189(2)
H9 H 1.097(2) 0.470(4) 0.323(2)
H10 H 0.976(2) 0.370(4) 0.383(2)
H11 H 0.605(2) 0.132(4) 0.261(2)
H12 H 0.449(2) 0.198(4) 0.269(2)
H13 H 0.398(2) 0.224(4) 0.386(2)
H14 H 0.504(2) 0.170(4) 0.502(2)
H15 H 0.649(2) 0.103(4) 0.497(2)
H16 H 0.836(2) -0.227(4) 0.530(2)
H17 H 0.769(2) -0.444(4) 0.590(2)
H18 H 0.635(2) -0.573(4) 0.529(2)
H19 H 0.567(2) -0.468(4) 0.409(2)
H20 H 0.629(2) -0.244(4) 0.348(2)
#END
