
#######################################################################
#
#                 Cambridge Crystallographic Data Centre
#                                CCDC
#
#######################################################################
#
# If this CIF has been generated from an entry in the Cambridge
# Structural Database, then it will include bibliographic, chemical,
# crystal, experimental, refinement or atomic coordinate data resulting
# from the CCDC's data processing and validation procedures.
#
#######################################################################

data_CSD_CIF_TALLIE
_audit_creation_date 2016-02-12
_audit_creation_method CSD-ConQuest-V1
_database_code_CSD TALLIE
_database_code_depnum_ccdc_archive 'CCDC 1429438'
_chemical_formula_sum 'C4 H6 N4 O8'
_chemical_formula_moiety
;
C4 H6 N4 O8
;
_journal_coden_Cambridge 29
_journal_volume 642
_journal_year 2016
_journal_page_first 211
_journal_name_full 'Z.Anorg.Allg.Chem. '
loop_
_publ_author_name
"Q.J.Axthammer"
"T.M.Klapotke"
"B.Krumm"
_chemical_name_systematic
;
Ethane-1,2-diyl bis(nitrocarbamate)
;
_cell_volume   3437.231
_exptl_crystal_colour 'colorless'
_exptl_crystal_density_diffrn 1.841
_exptl_crystal_description 'plate'
_diffrn_ambient_temperature 173
#These two values have been output from a single CSD field.
_refine_ls_R_factor_gt 0.0214
_refine_ls_wR_factor_gt 0.0214
_symmetry_cell_setting orthorhombic
_symmetry_space_group_name_H-M 'F d d 2'
_symmetry_Int_Tables_number 43
loop_
_symmetry_equiv_pos_site_id
_symmetry_equiv_pos_as_xyz
1 x,y,z
2 -x,-y,z
3 1/4-x,1/4+y,1/4+z
4 3/4+x,3/4-y,1/4+z
5 x,1/2+y,1/2+z
6 -x,1/2-y,1/2+z
7 1/4-x,3/4+y,3/4+z
8 3/4+x,1/4-y,3/4+z
9 1/2+x,y,1/2+z
10 1/2-x,-y,1/2+z
11 3/4-x,1/4+y,3/4+z
12 1/4+x,3/4-y,3/4+z
13 1/2+x,1/2+y,z
14 1/2-x,1/2-y,z
15 3/4-x,3/4+y,1/4+z
16 1/4+x,1/4-y,1/4+z
_cell_length_a 16.3442(5)
_cell_length_b 44.4286(14)
_cell_length_c 4.7335(2)
_cell_angle_alpha 90
_cell_angle_beta 90
_cell_angle_gamma 90
_cell_formula_units_Z 16
loop_
_atom_type_symbol
_atom_type_radius_bond
C 0.68
H 0.23
N 0.68
O 0.68
loop_
_atom_site_label
_atom_site_type_symbol
_atom_site_fract_x
_atom_site_fract_y
_atom_site_fract_z
C1 C 0.00419(6) 0.10581(2) 0.5290(2)
C2 C 0.02507(7) 0.06365(2) 0.8201(3)
C3 C 0.08664(6) 0.05272(3) 1.0288(3)
C4 C 0.22342(6) 0.03759(2) 1.0391(2)
N1 N 0.02038(5) 0.14808(2) 0.2096(2)
N2 N 0.04046(6) 0.13296(2) 0.4539(2)
N3 N 0.29254(6) 0.03620(2) 0.8694(2)
N4 N 0.36612(5) 0.02414(2) 0.9593(2)
O1 O 0.07113(6) 0.16646(2) 0.1332(2)
O2 O -0.04431(5) 0.14291(2) 0.0925(2)
O3 O -0.05657(5) 0.095087(18) 0.43118(19)
O4 O 0.05080(5) 0.093638(17) 0.72961(18)
O5 O 0.16401(5) 0.049447(17) 0.88192(17)
O6 O 0.21767(5) 0.030248(19) 1.28175(17)
O7 O 0.37401(5) 0.01655(2) 1.20222(19)
O8 O 0.41862(5) 0.02286(2) 0.7764(2)
H1 H 0.0885(10) 0.1370(3) 0.503(4)
H2 H 0.0227(9) 0.0504(4) 0.650(4)
H3 H -0.0282(10) 0.0654(3) 0.905(4)
H4 H 0.0938(9) 0.0672(4) 1.178(4)
H5 H 0.0704(9) 0.0335(4) 1.096(4)
H6 H 0.2895(10) 0.0382(3) 0.691(4)
#END
