
#######################################################################
#
#                 Cambridge Crystallographic Data Centre
#                                CCDC
#
#######################################################################
#
# If this CIF has been generated from an entry in the Cambridge
# Structural Database, then it will include bibliographic, chemical,
# crystal, experimental, refinement or atomic coordinate data resulting
# from the CCDC's data processing and validation procedures.
#
#######################################################################

data_CSD_CIF_TALVAG
_audit_creation_date 2017-03-25
_audit_creation_method CSD-ConQuest-V1
_database_code_CSD TALVAG
_database_code_depnum_ccdc_archive 'CCDC 1538788'
_chemical_formula_sum 'C11 H11 N3 O4'
_chemical_formula_moiety
;
C11 H11 N3 O4
;
_journal_coeditor_code "hb4127"
_journal_coden_Cambridge 1959
_journal_volume 2
_journal_year 2017
_journal_page_first x170432
_journal_name_full 'IUCrData '
loop_
_publ_author_name
"M.M.Mohamed Abdelahi"
"Y.El Bakri"
"M.Benchidmi"
"E.M.Essassi"
"J.T.Mague"
_chemical_name_systematic
;
ethyl 2-(6-nitro-1H-indazol-1-yl) acetate
;
_cell_volume   2245.637
_exptl_crystal_colour 'colorless'
_exptl_crystal_density_diffrn 1.474
_exptl_crystal_description 'block'
_exptl_crystal_preparation 'ethanol'
_diffrn_ambient_temperature 100
_refine_special_details
;
C10,C11 and C10A,C11A disordered over two sites with occupancies 0.868:0.132; 
C21,C22 and C21A,C22A disordered over two sites with occupancies 0.839:0.161.
;
#These two values have been output from a single CSD field.
_refine_ls_R_factor_gt 0.0505
_refine_ls_wR_factor_gt 0.0505
_symmetry_cell_setting monoclinic
_symmetry_space_group_name_H-M 'P 21/c'
_symmetry_Int_Tables_number 14
loop_
_symmetry_equiv_pos_site_id
_symmetry_equiv_pos_as_xyz
1 x,y,z
2 -x,1/2+y,1/2-z
3 -x,-y,-z
4 x,-1/2-y,-1/2+z
_cell_length_a 12.6867(6)
_cell_length_b 21.7492(10)
_cell_length_c 8.1393(4)
_cell_angle_alpha 90
_cell_angle_beta 90.772(1)
_cell_angle_gamma 90
_cell_formula_units_Z 8
loop_
_atom_type_symbol
_atom_type_radius_bond
C 0.68
H 0.23
N 0.68
O 0.68
loop_
_atom_site_label
_atom_site_type_symbol
_atom_site_fract_x
_atom_site_fract_y
_atom_site_fract_z
O1 O 0.81992(8) 0.42860(5) -0.12528(12)
O2 O 0.77563(9) 0.35022(5) 0.04235(14)
O3 O 0.64535(9) 0.62390(5) 0.38381(12)
O4 O 0.65775(14) 0.71177(5) 0.26110(16)
N1 N 0.6029(1) 0.47079(6) -0.27310(14)
N2 N 0.61891(9) 0.47588(5) -0.10760(13)
N3 N 0.64742(10) 0.65568(6) 0.25929(15)
C1 C 0.62452(10) 0.53588(6) -0.05982(15)
C2 C 0.63799(10) 0.56187(6) 0.09626(15)
H1 H 0.6457(15) 0.5377(8) 0.190(2)
C3 C 0.63737(11) 0.62513(6) 0.09891(16)
C4 C 0.62617(12) 0.66290(6) -0.04148(17)
H2 H 0.6349(16) 0.7053(9) -0.030(2)
C5 C 0.61171(11) 0.63610(6) -0.19303(16)
H3 H 0.6059(16) 0.6620(9) -0.289(3)
C6 C 0.6095(1) 0.57158(6) -0.20334(16)
C7 C 0.59634(11) 0.52741(6) -0.33084(17)
H4 H 0.5823(14) 0.5319(8) -0.443(2)
C8 C 0.64448(11) 0.42197(6) -0.01384(16)
H5 H 0.6341(15) 0.4315(8) 0.102(2)
H6 H 0.5976(15) 0.3883(9) -0.042(2)
C9 C 0.75746(11) 0.40195(6) -0.04133(16)
C10 C 0.88276(14) 0.32649(10) 0.0339(3)
H7 H 0.90310 0.30640 0.13870
H8 H 0.93300 0.36030 0.01260
C11 C 0.88417(17) 0.28034(10) -0.1055(3)
H9 H 0.95520 0.26320 -0.11540
H10 H 0.83420 0.24710 -0.08290
H11 H 0.86400 0.30080 -0.20850
C12? C 0.8696(10) 0.3149(8) 0.0016(18)
H12? H 0.93070 0.34200 -0.01890
H13? H 0.85720 0.28810 -0.09500
C13? C 0.8842(11) 0.2779(6) 0.1580(18)
H14? H 0.94620 0.25130 0.14810
H15? H 0.89430 0.30590 0.25130
H16? H 0.82150 0.25250 0.17590
O5 O 0.67001(8) 0.42925(5) 0.37686(12)
O6 O 0.71450(8) 0.35019(5) 0.54310(14)
O7 O 0.86504(9) 0.62072(5) 0.88507(12)
O8 O 0.88491(12) 0.70869(5) 0.76740(15)
N4 N 0.88917(10) 0.46774(6) 0.22757(14)
N5 N 0.8747(1) 0.47329(5) 0.39238(13)
N6 N 0.87448(10) 0.65280(6) 0.76228(15)
C14 C 0.87643(10) 0.53326(6) 0.44106(15)
C15 C 0.86738(10) 0.55951(6) 0.59710(16)
H17 H 0.8557(15) 0.5355(9) 0.695(2)
C16 C 0.87669(11) 0.62260(6) 0.60066(16)
C17 C 0.89048(11) 0.66004(7) 0.46108(17)
H18 H 0.8910(15) 0.7031(9) 0.475(2)
C18 C 0.89977(11) 0.63290(7) 0.30910(17)
H19 H 0.9084(15) 0.6583(9) 0.213(2)
C19 C 0.89463(10) 0.56863(6) 0.29821(16)
C20 C 0.90165(12) 0.52423(7) 0.17054(17)
H20 H 0.9121(14) 0.5306(8) 0.053(2)
C21 C 0.84767(11) 0.41988(6) 0.48619(17)
H21 H 0.8913(15) 0.3865(8) 0.454(2)
H22 H 0.8583(15) 0.4300(8) 0.599(2)
C22 C 0.73319(11) 0.40177(6) 0.45991(16)
C23 C 0.60636(16) 0.3281(2) 0.5411(7)
H23 H 0.58590 0.31440 0.42920
H24 H 0.55780 0.36130 0.57470
C24 C 0.60087(18) 0.27658(10) 0.6565(3)
H25 H 0.52870 0.26050 0.65810
H26 H 0.64910 0.24400 0.62180
H27 H 0.62110 0.29070 0.76680
C25? C 0.6069(5) 0.3291(13) 0.515(5)
H28? H 0.56260 0.36350 0.47480
H29? H 0.57700 0.31400 0.61970
C26? C 0.6082(10) 0.2795(5) 0.3940(17)
H30? H 0.53620 0.26480 0.37410
H31? H 0.63750 0.29490 0.29110
H32? H 0.65190 0.24560 0.43560
#END
