
#######################################################################
#
#                 Cambridge Crystallographic Data Centre
#                                CCDC
#
#######################################################################
#
# If this CIF has been generated from an entry in the Cambridge
# Structural Database, then it will include bibliographic, chemical,
# crystal, experimental, refinement or atomic coordinate data resulting
# from the CCDC's data processing and validation procedures.
#
#######################################################################

data_CSD_CIF_TAMCAM
_audit_creation_date 2005-09-13
_audit_creation_method CSD-ConQuest-V1
_database_code_CSD TAMCAM
_database_code_depnum_ccdc_archive 'CCDC 272795'
_database_code_depnum_ccdc_journal 1267/1433
_chemical_formula_sum 'C16 H21 N1 O11'
_chemical_formula_moiety
;
C16 H21 N1 O11
;
_journal_coden_Cambridge 1267
_journal_volume 220
_journal_year 2005
_journal_page_first 21
_journal_name_full 'Z.Kristallogr.-New Cryst.Struct. '
loop_
_publ_author_name
"K.Peters"
"E.-M.Peters"
"B.G.Kim"
"T.Linker"
_chemical_name_systematic
;
Ethyl 
(3aR,4R,5R,6R,7aR)-4,5-diacetoxy-6-acetoxymethyl-2-oxy-3a,5,6,7a-tetrahydro-4H
-pyrano(3,2-d)isoxazole-3-carboxylate
;
_cell_volume    947.915
_exptl_crystal_colour 'colorless'
_exptl_crystal_density_diffrn 1.413
_exptl_crystal_description 'plate'
_diffrn_ambient_temperature 293
#These two values have been output from a single CSD field.
_refine_ls_R_factor_gt 0.068
_refine_ls_wR_factor_gt 0.068
_symmetry_cell_setting monoclinic
_symmetry_space_group_name_H-M 'P 21'
_symmetry_Int_Tables_number 4
loop_
_symmetry_equiv_pos_site_id
_symmetry_equiv_pos_as_xyz
1 x,y,z
2 -x,1/2+y,-z
_cell_length_a 8.181(1)
_cell_length_b 11.604(2)
_cell_length_c 10.193(1)
_cell_angle_alpha 90
_cell_angle_beta 101.59(1)
_cell_angle_gamma 90
_cell_formula_units_Z 2
loop_
_atom_type_symbol
_atom_type_radius_bond
C 0.68
H 0.23
N 0.68
O 0.68
loop_
_atom_site_label
_atom_site_type_symbol
_atom_site_fract_x
_atom_site_fract_y
_atom_site_fract_z
C1 C 0.3877(3) 0.1601(3) 0.5691(3)
H1 H 0.49720 0.14580 0.62620
C2 C 0.2606(3) 0.1808(3) 0.6602(2)
H2 H 0.31430 0.21850 0.74380
C3 C 0.1091(3) 0.2510(3) 0.5885(2)
H3 H 0.03610 0.20060 0.52520
O1 O 0.0167(2) 0.2954(2) 0.68343(18)
C4 C 0.1642(3) 0.3510(3) 0.5121(2)
H4 H 0.06650 0.39430 0.46600
O2 O 0.2760(2) 0.4264(2) 0.60005(18)
C5 C 0.2575(3) 0.3015(3) 0.4106(2)
H5 H 0.18480 0.24790 0.35140
C6 C 0.3181(4) 0.3938(3) 0.3279(3)
H6 H 0.22970 0.44890 0.29630
H7 H 0.41200 0.43470 0.38110
O3 O 0.3682(3) 0.3373(3) 0.2154(2)
C7 C 0.2156(3) 0.0595(3) 0.6856(3)
N1 N 0.2523(3) -0.0096(3) 0.5933(3)
O4 O 0.2377(3) -0.1125(3) 0.5732(3)
O5 O 0.3286(2) 0.0523(2) 0.5002(2)
O6 O 0.4057(2) 0.2418(2) 0.4772(2)
C8 C 0.1469(5) 0.0127(4) 0.7963(4)
O7 O 0.1110(5) -0.0854(3) 0.8091(4)
O8 O 0.1339(5) 0.0958(3) 0.8819(3)
C9 C 0.0621(10) 0.0614(7) 0.9937(7)
H8 H -0.04560 0.02600 0.96020
H9 H 0.13350 0.00380 1.04540
C10 C 0.0426(12) 0.1477(9) 1.0730(8)
H10 H 0.01010 0.11840 1.15210
H11 H -0.04240 0.19860 1.02700
H12 H 0.14580 0.18910 1.09780
C11 C -0.1323(3) 0.2457(3) 0.6843(3)
O9 O -0.1769(3) 0.1574(3) 0.6305(3)
C12 C -0.2323(5) 0.3165(5) 0.7622(5)
H13 H -0.31220 0.26820 0.79290
H14 H -0.28960 0.37620 0.70590
H15 H -0.15920 0.35050 0.83780
C13 C 0.2096(4) 0.5236(3) 0.6415(3)
O10 O 0.0649(3) 0.5453(3) 0.6177(2)
C14 C 0.3437(5) 0.5992(4) 0.7178(4)
H16 H 0.29940 0.64380 0.78190
H17 H 0.38380 0.64990 0.65690
H18 H 0.43400 0.55230 0.76370
C15 C 0.4210(4) 0.4067(4) 0.1276(3)
O11 O 0.4327(4) 0.5070(3) 0.1398(3)
C16 C 0.4692(8) 0.3388(6) 0.0153(4)
H19 H 0.47070 0.38890 -0.05950
H20 H 0.38970 0.27820 -0.01150
H21 H 0.57810 0.30610 0.04520
#END
