
#######################################################################
#
#                 Cambridge Crystallographic Data Centre
#                                CCDC
#
#######################################################################
#
# If this CIF has been generated from an entry in the Cambridge
# Structural Database, then it will include bibliographic, chemical,
# crystal, experimental, refinement or atomic coordinate data resulting
# from the CCDC's data processing and validation procedures.
#
#######################################################################

data_CSD_CIF_TAMLID
_audit_creation_date 2005-09-14
_audit_creation_method CSD-ConQuest-V1
_database_code_CSD TAMLID
_database_code_depnum_ccdc_archive 'CCDC 244838'
_chemical_formula_sum 'C25 H21 N3 O6'
_chemical_formula_moiety
;
C25 H21 N3 O6
;
_journal_coden_Cambridge 487
_journal_volume 65
_journal_year 2005
_journal_page_first 15
_journal_name_full 'J.Pept.Res. '
loop_
_publ_author_name
"A.Moretto"
"F.Formaggio"
"M.Crisma"
"B.Kaptein"
"Q.B.Broxterman"
"C.Toniolo"
_chemical_name_systematic
;
Benzyloxycarbonyl-L-tryptophan 2-nitrophenyl ester
;
_cell_volume   1128.727
_exptl_crystal_colour 'orange'
_exptl_crystal_density_diffrn 1.352
_exptl_crystal_description 'thin plate'
_exptl_crystal_preparation 'light petroleum/ethyl acetate/chloroform'
_diffrn_ambient_temperature 293
#These two values have been output from a single CSD field.
_refine_ls_R_factor_gt 0.0392
_refine_ls_wR_factor_gt 0.0392
_symmetry_cell_setting monoclinic
_symmetry_space_group_name_H-M 'P 21'
_symmetry_Int_Tables_number 4
loop_
_symmetry_equiv_pos_site_id
_symmetry_equiv_pos_as_xyz
1 x,y,z
2 -x,1/2+y,-z
_cell_length_a 14.227(3)
_cell_length_b 5.032(2)
_cell_length_c 15.923(3)
_cell_angle_alpha 90
_cell_angle_beta 98.04(4)
_cell_angle_gamma 90
_cell_formula_units_Z 2
loop_
_atom_type_symbol
_atom_type_radius_bond
C 0.68
H 0.23
N 0.68
O 0.68
loop_
_atom_site_label
_atom_site_type_symbol
_atom_site_fract_x
_atom_site_fract_y
_atom_site_fract_z
C1 C -0.3177(2) -0.3634(6) -0.47444(13)
C2 C -0.2419(2) -0.4388(7) -0.51557(19)
H1 H -0.19960 -0.56800 -0.49180
C3 C -0.2294(2) -0.3210(8) -0.5922(2)
H2 H -0.17870 -0.37140 -0.61970
C4 C -0.2927(3) -0.1278(8) -0.62768(16)
H3 H -0.28430 -0.04900 -0.67890
C5 C -0.3684(3) -0.0524(7) -0.58656(18)
H4 H -0.41080 0.07690 -0.61030
C6 C -0.3810(2) -0.1702(7) -0.50994(18)
H5 H -0.43170 -0.11980 -0.48240
C7 C -0.3298(4) -0.4906(9) -0.3910(2)
H6 H -0.38980 -0.58460 -0.39590
H7 H -0.27900 -0.61670 -0.37450
O1 O -0.32747(17) -0.2809(5) -0.32844(12)
C8 C -0.30115(19) -0.3553(6) -0.24770(18)
O2 O -0.28554(16) -0.5832(4) -0.22700(12)
N1 N -0.29540(14) -0.1468(5) -0.19588(13)
H8 H -0.31510 0.00520 -0.21580
C9 C -0.25723(17) -0.1676(6) -0.10766(15)
H9 H -0.25800 -0.35510 -0.09110
C10 C -0.15389(17) -0.0663(7) -0.09041(17)
H10 H -0.15200 0.11590 -0.10990
H11 H -0.13320 -0.06700 -0.02970
N2 N 0.01879(17) -0.5443(7) -0.15446(19)
H12 H 0.05690 -0.67690 -0.14490
C11 C -0.03382(18) -0.4382(7) -0.0977(2)
H13 H -0.03410 -0.49940 -0.04260
C12 C -0.08586(18) -0.2299(7) -0.13310(18)
C13 C -0.0645(2) -0.2028(7) -0.2181(2)
C14 C -0.0934(2) -0.0320(8) -0.2850(2)
H14 H -0.13620 0.10430 -0.27930
C15 C -0.0574(3) -0.0687(12) -0.3603(2)
H15 H -0.07680 0.04340 -0.40590
C16 C 0.0073(4) -0.2694(12) -0.3693(3)
H16 H 0.03040 -0.28860 -0.42080
C17 C 0.0375(3) -0.4392(11) -0.3045(3)
H17 H 0.08120 -0.57260 -0.31100
C18 C 0.0015(2) -0.4073(8) -0.2287(2)
C19 C -0.31756(17) -0.0141(6) -0.05506(16)
O3 O -0.37954(15) 0.1390(6) -0.07980(12)
O4 O -0.29261(12) -0.0666(4) 0.02895(10)
C20 C -0.34248(11) 0.0686(3) 0.08507(10)
C21 C -0.30454(10) 0.2859(4) 0.13198(11)
C22 C -0.35382(12) 0.3995(4) 0.19238(11)
H18 H -0.32840 0.54490 0.22380
C23 C -0.44103(12) 0.2959(5) 0.20587(11)
H19 H -0.47400 0.37200 0.24630
C24 C -0.47897(10) 0.0786(5) 0.15895(12)
H20 H -0.53730 0.00930 0.16800
C25 C -0.42969(11) -0.0350(3) 0.09855(11)
H21 H -0.45510 -0.18040 0.06720
N3 N -0.21652(15) 0.4104(6) 0.11762(15)
O5 O -0.18805(14) 0.3796(5) 0.04986(14)
O6 O -0.17676(16) 0.5529(6) 0.17384(15)
#END
