
#######################################################################
#
#                 Cambridge Crystallographic Data Centre
#                                CCDC
#
#######################################################################
#
# If this CIF has been generated from an entry in the Cambridge
# Structural Database, then it will include bibliographic, chemical,
# crystal, experimental, refinement or atomic coordinate data resulting
# from the CCDC's data processing and validation procedures.
#
#######################################################################

data_CSD_CIF_TAMSUX
_audit_creation_date 2012-04-25
_audit_creation_method CSD-ConQuest-V1
_database_code_CSD TAMSUX
_database_code_depnum_ccdc_archive 'CCDC 840892'
_chemical_formula_sum 'C22 H27 N5 O10'
_chemical_formula_moiety
;
C22 H27 N5 O10
;
_journal_coden_Cambridge 35
_journal_volume 76
_journal_year 2011
_journal_page_first 10083
_journal_name_full 'J.Org.Chem. '
loop_
_publ_author_name
"A.P.Spork"
"D.Wiegmann"
"M.Granitzka"
"D.Stalke"
"C.Ducho"
_chemical_name_systematic
;
(R)-t-Butyl 
3-(5-(2,4-dioxo-3,4-dihydropyrimidin-1(2H)-yl)-3,4-dihydroxytetrahydrofuran-2-
yl)-N-((4-nitrophenyl)carbamoyl)alaninate
;
_cell_volume   2461.926
_exptl_crystal_colour 'colorless'
_exptl_crystal_density_diffrn 1.407
_exptl_crystal_description 'needle'
_diffrn_ambient_temperature 100
#These two values have been output from a single CSD field.
_refine_ls_R_factor_gt 0.0656
_refine_ls_wR_factor_gt 0.0656
_symmetry_cell_setting orthorhombic
_symmetry_space_group_name_H-M 'P 21 21 21'
_symmetry_Int_Tables_number 19
loop_
_symmetry_equiv_pos_site_id
_symmetry_equiv_pos_as_xyz
1 x,y,z
2 1/2-x,-y,1/2+z
3 -x,1/2+y,1/2-z
4 1/2+x,1/2-y,-z
_cell_length_a 6.283(2)
_cell_length_b 10.821(2)
_cell_length_c 36.211(3)
_cell_angle_alpha 90
_cell_angle_beta 90
_cell_angle_gamma 90
_cell_formula_units_Z 4
loop_
_atom_type_symbol
_atom_type_radius_bond
C 0.68
H 0.23
N 0.68
O 0.68
loop_
_atom_site_label
_atom_site_type_symbol
_atom_site_fract_x
_atom_site_fract_y
_atom_site_fract_z
O1 O 0.5357(6) 0.0224(3) 0.41477(9)
O2 O 0.1691(6) -0.1995(3) 0.46589(11)
O3 O 0.5769(6) 0.0252(3) 0.51392(10)
O4 O 0.4586(8) 0.2377(3) 0.48335(11)
O5 O 0.6180(7) -0.5286(3) 0.46096(11)
O6 O 0.1180(7) 1.0673(4) 0.35225(17)
O7 O -0.1875(7) 1.0185(3) 0.32887(12)
O8 O 0.8727(6) 0.3082(3) 0.33029(10)
O9 O 0.5782(6) 0.2970(3) 0.29470(9)
O10 O 0.5227(6) 0.4839(3) 0.36385(11)
N1 N 0.5154(8) -0.1636(4) 0.44877(12)
N2 N 0.3946(8) -0.3635(4) 0.45965(13)
N3 N -0.0170(8) 0.9911(4) 0.34334(14)
N4 N 0.3413(7) 0.3037(4) 0.35853(12)
N5 N 0.1564(7) 0.4875(4) 0.36220(13)
C1 C 0.1230(9) 0.6148(4) 0.35932(13)
C2 C 0.4836(9) -0.0302(4) 0.44974(13)
H1 H 0.33130 -0.01200 0.45560
C3 C 0.3462(10) -0.2386(4) 0.45869(14)
C4 C -0.0810(8) 0.6513(5) 0.34894(14)
H2 H -0.18800 0.59070 0.34500
C5 C 0.6270(9) 0.0409(4) 0.47634(13)
H3 H 0.77650 0.01190 0.47250
C6 C -0.1294(9) 0.7755(5) 0.34423(14)
H4 H -0.26760 0.80080 0.33680
C7 C 0.6104(9) 0.1746(4) 0.46137(13)
H5 H 0.75160 0.21720 0.46180
C8 C 0.5911(10) -0.4177(5) 0.45497(14)
C9 C 0.0290(9) 0.8608(4) 0.35069(14)
C10 C 0.5302(9) 0.1567(4) 0.42195(14)
H6 H 0.37870 0.18480 0.42080
C11 C 0.7547(9) -0.3330(5) 0.44296(14)
H7 H 0.89210 -0.36300 0.43670
C12 C 0.2301(9) 0.8281(4) 0.36268(14)
H8 H 0.33400 0.88950 0.36790
C13 C 0.6542(9) 0.2252(4) 0.39290(13)
H9 H 0.79270 0.18340 0.38930
H10 H 0.68350 0.30990 0.40190
C14 C 0.7115(9) -0.2112(5) 0.44070(14)
H11 H 0.82150 -0.15640 0.43320
C15 C 0.2768(8) 0.7038(4) 0.36694(13)
H12 H 0.41410 0.67930 0.37510
C16 C 0.5415(8) 0.2334(5) 0.35623(14)
H13 H 0.50380 0.14720 0.34880
C17 C 0.6859(8) 0.2862(4) 0.32609(14)
C18 C 0.6825(10) 0.3355(5) 0.26010(15)
C19 C 0.7834(12) 0.4628(6) 0.26424(17)
H14 H 0.81950 0.49550 0.23980
H15 H 0.91290 0.45610 0.27920
H16 H 0.68260 0.51870 0.27640
C20 C 0.4990(13) 0.3419(7) 0.23343(16)
H17 H 0.55160 0.36620 0.20900
H18 H 0.39550 0.40310 0.24210
H19 H 0.43060 0.26070 0.23180
C21 C 0.8424(13) 0.2379(6) 0.24919(18)
H20 H 0.89440 0.25480 0.22420
H21 H 0.77450 0.15650 0.24980
H22 H 0.96220 0.23920 0.26650
C22 C 0.3525(9) 0.4289(4) 0.36165(14)
H23 H 0.274(7) -0.407(6) 0.465(2)
H24 H 0.208(4) 0.276(5) 0.3562(15)
H25 H 0.045(6) 0.441(5) 0.3545(15)
H26 H 0.465(6) 0.062(6) 0.5192(18)
H27 H 0.456(14) 0.313(2) 0.479(2)
#END
