
#######################################################################
#
#                 Cambridge Crystallographic Data Centre
#                                CCDC
#
#######################################################################
#
# If this CIF has been generated from an entry in the Cambridge
# Structural Database, then it will include bibliographic, chemical,
# crystal, experimental, refinement or atomic coordinate data resulting
# from the CCDC's data processing and validation procedures.
#
#######################################################################

data_CSD_CIF_TAMWAF
_audit_creation_date 1992-03-02
_audit_creation_method CSD-ConQuest-V1
_database_code_CSD TAMWAF
_chemical_formula_sum 'C20 H15 N5 O2'
_chemical_formula_moiety
;
C20 H15 N5 O2
;
_journal_coden_Cambridge 423
_journal_volume 272
_journal_year 1991
_journal_page_first 2711
_journal_name_full 'J.Chem.Res. '
loop_
_publ_author_name
"R.N.Butler"
"D.Cunningham"
"K.J.Fitzgerald"
"P.McArdle"
"K.F.Quinn"
_chemical_name_systematic
;
3,6-Diphenyl-4-p-nitrophenyl-1,2,4,5-tetrazine
;
_chemical_melting_point 478.15
_cell_volume   7216.697
_exptl_crystal_density_diffrn 1.32
_exptl_special_details
;
Melting point range 478.15-479.15K

;
_diffrn_ambient_temperature ?
_diffrn_special_details
;
The study was carried out at room temperature,in the range 283-303K

;
#These two values have been output from a single CSD field.
_refine_ls_R_factor_gt 0.0963
_refine_ls_wR_factor_gt 0.0963
_symmetry_cell_setting monoclinic
_symmetry_space_group_name_H-M 'C 2/c'
_symmetry_Int_Tables_number 15
loop_
_symmetry_equiv_pos_site_id
_symmetry_equiv_pos_as_xyz
1 x,y,z
2 1/2+x,1/2+y,z
3 -x,y,1/2-z
4 1/2-x,1/2+y,1/2-z
5 -x,-y,-z
6 -1/2-x,-1/2-y,-z
7 x,-y,-1/2+z
8 -1/2+x,-1/2-y,-1/2+z
_cell_length_a 26.046(5)
_cell_length_b 9.475(2)
_cell_length_c 31.526(3)
_cell_angle_alpha 90
_cell_angle_beta 111.94(2)
_cell_angle_gamma 90
_cell_formula_units_Z 16
loop_
_atom_type_symbol
_atom_type_radius_bond
C 0.68
H 0.23
N 0.68
O 0.68
loop_
_atom_site_label
_atom_site_type_symbol
_atom_site_fract_x
_atom_site_fract_y
_atom_site_fract_z
O1 O -0.1398(5) 0.5759(14) 0.4904(4)
O2 O -0.0751(6) 0.4253(16) 0.4926(5)
N1 N -0.1197(7) 0.4897(18) 0.4737(5)
N2 N -0.2260(5) 0.3637(14) 0.2859(4)
N3 N -0.2988(5) 0.4011(14) 0.2188(4)
N4 N -0.2570(5) 0.4264(14) 0.2041(4)
N5 N -0.1936(5) 0.3025(14) 0.2640(4)
C1 C -0.2848(6) 0.3680(16) 0.2618(5)
C2 C -0.2086(7) 0.3438(17) 0.2224(6)
C3 C -0.1460(6) 0.4500(17) 0.4235(5)
C4 C -0.1239(7) 0.3608(17) 0.4035(5)
C5 C -0.1482(7) 0.3248(18) 0.3564(5)
C6 C -0.2007(6) 0.3933(18) 0.3331(5)
C7 C -0.2230(7) 0.4835(20) 0.3543(6)
C8 C -0.1983(7) 0.5164(19) 0.4005(6)
C9 C -0.1794(6) 0.3066(17) 0.1945(5)
C10 C -0.1235(7) 0.2622(18) 0.2141(6)
C11 C -0.0936(8) 0.2329(21) 0.1889(7)
C12 C -0.1148(8) 0.2416(20) 0.1412(7)
C13 C -0.1686(7) 0.2854(19) 0.1215(6)
C14 C -0.2013(7) 0.3135(18) 0.1460(6)
C15 C -0.3237(6) 0.3338(18) 0.2803(5)
C16 C -0.3755(7) 0.3974(19) 0.2655(5)
C17 C -0.4154(7) 0.3592(19) 0.2815(6)
C18 C -0.4064(8) 0.2506(21) 0.3125(6)
C19 C -0.3555(8) 0.1852(21) 0.3276(6)
C20 C -0.3156(7) 0.2227(18) 0.3132(5)
O3 O -0.0384(5) 0.1313(14) 0.3275(4)
O4 O -0.0022(5) -0.0769(15) 0.3350(4)
N6 N -0.0106(6) 0.0333(19) 0.3490(5)
N7 N 0.0882(5) 0.1140(14) 0.5415(4)
N8 N 0.1530(5) 0.0594(13) 0.6115(4)
N9 N 0.1120(5) 0.1037(13) 0.6255(4)
N10 N 0.0708(5) 0.2349(15) 0.5583(4)
C21 C 0.1424(7) 0.0571(17) 0.5674(5)
C22 C 0.0817(6) 0.2210(18) 0.6016(5)
C23 C 0.0138(6) 0.0550(18) 0.4008(5)
C24 C 0.0060(6) 0.1763(18) 0.4183(5)
C25 C 0.0295(6) 0.2005(18) 0.4654(5)
C26 C 0.0631(6) 0.0893(19) 0.4930(5)
C27 C 0.0682(7) -0.0359(19) 0.4742(6)
C28 C 0.0453(7) -0.056(2) 0.4266(6)
C29 C 0.0630(6) 0.3255(19) 0.6254(6)
C30 C 0.0894(7) 0.3524(19) 0.6719(6)
C31 C 0.0690(8) 0.4451(20) 0.6947(7)
C32 C 0.0189(8) 0.5109(22) 0.6728(7)
C33 C -0.0086(8) 0.4860(21) 0.6261(7)
C34 C 0.0125(7) 0.3988(18) 0.6027(6)
C35 C 0.1823(7) 0.0141(19) 0.5500(6)
C36 C 0.1926(7) 0.0907(20) 0.5163(6)
C37 C 0.2356(7) 0.0519(20) 0.5027(6)
C38 C 0.2661(8) -0.0678(21) 0.5206(7)
C39 C 0.2557(7) -0.1444(21) 0.5540(5)
C40 C 0.2132(7) -0.1092(19) 0.5681(6)
H1 H -0.25200 0.48600 0.17700
H2 H -0.08600 0.31000 0.42400
H3 H -0.12900 0.25300 0.34000
H4 H -0.26300 0.53100 0.33500
H5 H -0.21700 0.58700 0.41800
H6 H -0.10400 0.25500 0.25100
H7 H -0.05100 0.19700 0.20600
H8 H -0.09000 0.21700 0.12100
H9 H -0.18700 0.29600 0.08500
H10 H -0.24400 0.34300 0.12800
H11 H -0.38400 0.48000 0.24000
H12 H -0.45400 0.41500 0.27000
H13 H -0.43800 0.21700 0.32400
H14 H -0.34700 0.10200 0.35300
H15 H -0.27600 0.16900 0.32600
H16 H 0.10100 0.08900 0.65500
H17 H -0.02000 0.25700 0.39600
H18 H 0.02300 0.29800 0.48000
H19 H 0.09100 -0.12200 0.49500
H20 H 0.05000 -0.15400 0.41100
H21 H 0.12700 0.29600 0.69100
H22 H 0.09300 0.46800 0.73000
H23 H 0.00200 0.58100 0.69100
H24 H -0.04800 0.53600 0.60800
H25 H -0.00800 0.38300 0.56600
H26 H 0.16700 0.18100 0.50100
H27 H 0.24600 0.11600 0.47900
H28 H 0.29800 -0.10300 0.50800
H29 H 0.28100 -0.23500 0.56900
H30 H 0.20400 -0.17200 0.59300
#END
