
#######################################################################
#
#                 Cambridge Crystallographic Data Centre
#                                CCDC
#
#######################################################################
#
# If this CIF has been generated from an entry in the Cambridge
# Structural Database, then it will include bibliographic, chemical,
# crystal, experimental, refinement or atomic coordinate data resulting
# from the CCDC's data processing and validation procedures.
#
#######################################################################

data_CSD_CIF_TANGAQ
_audit_creation_date 1996-12-03
_audit_creation_method CSD-ConQuest-V1
_database_code_CSD TANGAQ
_chemical_formula_sum 'C16 H15 N1 O5'
_chemical_formula_moiety
;
C16 H15 N1 O5
;
_journal_coden_Cambridge 277
_journal_volume 92
_journal_year 1996
_journal_page_first 108
_journal_name_full 'An.Quim. '
loop_
_publ_author_name
"O.Garcia de Alba"
"J.Chanona"
"F.Delgado"
"G.Zepeda"
"F.Labarrios"
"R.W.Bates"
"S.Bott"
"E.Juaristi"
"J.Tamariz"
_chemical_name_systematic
;
2-Acetyl-2-(p-nitrobenzoyloxy)-5-norbornene
;
_chemical_melting_point 427.15
_cell_volume   1430.709
_exptl_crystal_colour 'pale yellow'
_exptl_crystal_density_diffrn 1.399
_exptl_special_details
;
Melting point range 427.15-428.15K

;
_diffrn_ambient_temperature ?
_diffrn_special_details
;
The study was carried out at room temperature,in the range 283-303K

;
#These two values have been output from a single CSD field.
_refine_ls_R_factor_gt 0.0549
_refine_ls_wR_factor_gt 0.0549
_symmetry_cell_setting monoclinic
_symmetry_space_group_name_H-M 'P 21/c'
_symmetry_Int_Tables_number 14
loop_
_symmetry_equiv_pos_site_id
_symmetry_equiv_pos_as_xyz
1 x,y,z
2 -x,1/2+y,1/2-z
3 -x,-y,-z
4 x,-1/2-y,-1/2+z
_cell_length_a 7.856(2)
_cell_length_b 17.158(3)
_cell_length_c 10.727(4)
_cell_angle_alpha 90
_cell_angle_beta 98.32(2)
_cell_angle_gamma 90
_cell_formula_units_Z 4
loop_
_atom_type_symbol
_atom_type_radius_bond
C 0.68
N 0.68
O 0.68
loop_
_atom_site_label
_atom_site_type_symbol
_atom_site_fract_x
_atom_site_fract_y
_atom_site_fract_z
O1 O 0.2016(7) -0.0520(4) 1.1626(6)
O2 O 0.1046(7) -0.0725(3) 0.9672(6)
O3 O 0.5084(6) 0.2626(3) 0.8133(4)
O4 O 0.6991(5) 0.2459(3) 0.9868(4)
O5 O 0.6774(7) 0.4373(3) 0.8792(5)
N1 N 0.1908(7) -0.0358(4) 1.0501(6)
C1 C 0.2858(8) 0.0332(4) 1.0163(6)
C2 C 0.2636(9) 0.0550(4) 0.8924(7)
C3 C 0.3532(8) 0.1191(4) 0.8589(7)
C4 C 0.4674(8) 0.1576(4) 0.9489(6)
C5 C 0.4898(8) 0.1333(4) 1.0718(6)
C6 C 0.3963(9) 0.0699(4) 1.1064(7)
C7 C 0.5579(9) 0.2274(4) 0.9076(6)
C8 C 0.7925(8) 0.3152(4) 0.9561(6)
C9 C 0.9493(8) 0.3214(4) 1.0616(7)
C10 C 1.043(1) 0.3971(5) 1.0345(8)
C11 C 1.1108(9) 0.3847(5) 0.9311(7)
C12 C 1.069(1) 0.3017(5) 0.8901(8)
C13 C 0.8784(9) 0.3031(4) 0.8368(7)
C14 C 1.072(1) 0.2634(5) 1.0131(8)
C15 C 0.6770(9) 0.3858(4) 0.9551(6)
C16 C 0.569(1) 0.3906(5) 1.0588(8)
#END
