
#######################################################################
#
#                 Cambridge Crystallographic Data Centre
#                                CCDC
#
#######################################################################
#
# If this CIF has been generated from an entry in the Cambridge
# Structural Database, then it will include bibliographic, chemical,
# crystal, experimental, refinement or atomic coordinate data resulting
# from the CCDC's data processing and validation procedures.
#
#######################################################################

data_CSD_CIF_TANPUT
_audit_creation_date 1992-03-26
_audit_creation_method CSD-ConQuest-V1
_database_code_CSD TANPUT
_chemical_formula_sum 'C10 H8 N2 O4'
_chemical_formula_moiety
;
C10 H8 N2 O4
;
_journal_coeditor_code "IUCr CR0340"
_journal_coden_Cambridge 591
_journal_volume 48
_journal_year 1992
_journal_page_first 204
_journal_name_full 'Acta Crystallogr.,Sect.C:Cryst.Struct.Commun. '
loop_
_publ_author_name
"W.Kwiatkowski"
"J.Karolak-Wojciechowska"
_chemical_name_systematic
;
m-Nitrophenylsuccinimide
;
_cell_volume   1927.712
_exptl_crystal_colour 'light yellow'
_exptl_crystal_density_diffrn 1.517
_diffrn_ambient_temperature ?
_diffrn_special_details
;
The study was carried out at room temperature,in the range 283-303K

;
#These two values have been output from a single CSD field.
_refine_ls_R_factor_gt 0.038
_refine_ls_wR_factor_gt 0.038
_symmetry_cell_setting monoclinic
_symmetry_space_group_name_H-M 'P 21/c'
_symmetry_Int_Tables_number 14
loop_
_symmetry_equiv_pos_site_id
_symmetry_equiv_pos_as_xyz
1 x,y,z
2 -x,1/2+y,1/2-z
3 -x,-y,-z
4 x,-1/2-y,-1/2+z
_cell_length_a 16.381(3)
_cell_length_b 7.042(1)
_cell_length_c 18.157(4)
_cell_angle_alpha 90
_cell_angle_beta 113.02(3)
_cell_angle_gamma 90
_cell_formula_units_Z 8
loop_
_atom_type_symbol
_atom_type_radius_bond
C 0.68
H 0.23
N 0.68
O 0.68
loop_
_atom_site_label
_atom_site_type_symbol
_atom_site_fract_x
_atom_site_fract_y
_atom_site_fract_z
N1 N 0.1074(1) -0.2254(2) 0.2330(1)
C1 C 0.0277(1) -0.1440(2) 0.1866(1)
C2 C -0.0379(1) -0.3055(2) 0.1491(1)
C3 C 0.0232(1) -0.4774(2) 0.1597(1)
C4 C 0.1093(1) -0.4189(3) 0.2251(1)
O1 O 0.0128(1) 0.0241(2) 0.1799(1)
O2 O 0.1709(1) -0.5196(2) 0.2641(1)
C5 C -0.1023(1) -0.2645(2) 0.0653(1)
C6 C -0.1926(1) -0.2795(2) 0.0463(1)
C7 C -0.2505(1) -0.2464(2) -0.0318(1)
C8 C -0.2220(1) -0.1972(3) -0.0913(1)
C9 C -0.1325(1) -0.1821(3) -0.0721(1)
C10 C -0.0727(1) -0.2156(3) 0.0051(1)
N2 N -0.3463(1) -0.2651(2) -0.0522(1)
O3 O -0.3710(1) -0.3051(3) 0.0012(1)
O4 O -0.3965(1) -0.2429(3) -0.1215(1)
N3 N 0.3312(1) 0.2785(2) 0.3014(1)
C11 C 0.4115(1) 0.3514(2) 0.3070(1)
C12 C 0.4778(1) 0.1879(3) 0.3275(1)
C13 C 0.4255(1) 0.0175(3) 0.3398(1)
C14 C 0.3324(1) 0.0875(3) 0.3162(1)
O5 O 0.4241(1) 0.5155(2) 0.2966(1)
O6 O 0.2677(1) -0.0040(2) 0.3109(1)
C15 C 0.5628(1) 0.2333(2) 0.3984(1)
C16 C 0.6442(1) 0.2140(2) 0.3923(1)
C17 C 0.7206(1) 0.2471(2) 0.4601(1)
C18 C 0.7196(1) 0.3005(3) 0.5328(1)
C19 C 0.6380(1) 0.3218(3) 0.5373(1)
C20 C 0.5604(1) 0.2889(3) 0.4709(1)
N4 N 0.8068(1) 0.2223(2) 0.4537(1)
O7 O 0.8080(1) 0.1944(3) 0.3886(1)
O8 O 0.8738(1) 0.2311(3) 0.5148(1)
H1 H -0.07200 -0.31700 0.18600
H2 H 0.03600 -0.49200 0.11100
H3 H 0.00200 -0.60100 0.17200
H4 H -0.21400 -0.31600 0.08800
H5 H -0.26100 -0.17900 -0.14200
H6 H -0.10900 -0.15200 -0.11300
H7 H -0.01200 -0.20100 0.01800
H8 H 0.153(2) -0.155(3) 0.260(1)
H9 H 0.48900 0.17400 0.27900
H10 H 0.44200 -0.01300 0.39800
H11 H 0.42500 -0.09300 0.30800
H12 H 0.65100 0.17800 0.34400
H13 H 0.77500 0.32000 0.57700
H14 H 0.63600 0.35800 0.58900
H15 H 0.50200 0.30100 0.47500
H16 H 0.279(2) 0.349(3) 0.287(1)
#END
