
#######################################################################
#
#                 Cambridge Crystallographic Data Centre
#                                CCDC
#
#######################################################################
#
# If this CIF has been generated from an entry in the Cambridge
# Structural Database, then it will include bibliographic, chemical,
# crystal, experimental, refinement or atomic coordinate data resulting
# from the CCDC's data processing and validation procedures.
#
#######################################################################

data_CSD_CIF_TANPEE
_audit_creation_date 2005-09-14
_audit_creation_method CSD-ConQuest-V1
_database_code_CSD TANPEE
_database_code_depnum_ccdc_archive 'CCDC 185116'
_chemical_formula_sum 'C1 H4 N4 O1'
_chemical_formula_moiety
;
C1 H4 N4 O1
;
_journal_coden_Cambridge 1003
_journal_volume 35
_journal_year 2005
_journal_page_first 317
_journal_name_full 'J.Chem.Cryst. '
loop_
_publ_author_name
"R.K.Murmann"
"R.Glaser"
"C.L.Barnes"
_chemical_name_systematic
;
2-Nitrosoguanidine
;
_chemical_melting_point 353.15
_cell_volume    365.551
_exptl_crystal_colour 'pale yellow'
_exptl_crystal_density_diffrn 1.6
_exptl_special_details
;
explodes at 80 deg.C
The temperature of the study was reported as 273K in the paper; we have used 
173K from the supplementary information
;
_exptl_crystal_description 'plate'
_diffrn_ambient_temperature 173
#These two values have been output from a single CSD field.
_refine_ls_R_factor_gt 0.0302
_refine_ls_wR_factor_gt 0.0302
_symmetry_cell_setting monoclinic
_symmetry_space_group_name_H-M 'P 21/n'
_symmetry_Int_Tables_number 14
loop_
_symmetry_equiv_pos_site_id
_symmetry_equiv_pos_as_xyz
1 x,y,z
2 1/2-x,1/2+y,1/2-z
3 -x,-y,-z
4 -1/2+x,-1/2-y,-1/2+z
_cell_length_a 3.6451(1)
_cell_length_b 11.746(2)
_cell_length_c 8.6483(14)
_cell_angle_alpha 90
_cell_angle_beta 99.167(2)
_cell_angle_gamma 90
_cell_formula_units_Z 4
loop_
_atom_type_symbol
_atom_type_radius_bond
C 0.68
H 0.23
N 0.68
O 0.68
loop_
_atom_site_label
_atom_site_type_symbol
_atom_site_fract_x
_atom_site_fract_y
_atom_site_fract_z
O1 O 0.2170(4) 0.4690(1) 0.78016(14)
N1 N 0.3275(4) 0.42374(11) 0.66381(16)
N2 N 0.3275(4) 0.31294(11) 0.66797(16)
N3 N 0.5293(4) 0.32856(14) 0.41808(18)
N4 N 0.4691(5) 0.15680(13) 0.5329(2)
C1 C 0.4464(4) 0.26797(14) 0.53557(17)
H1 H 0.617(5) 0.2949(17) 0.337(3)
H2 H 0.536(6) 0.400(2) 0.419(3)
H3 H 0.550(6) 0.118(2) 0.451(3)
H4 H 0.400(7) 0.117(2) 0.614(3)
#END
