
#######################################################################
#
#                 Cambridge Crystallographic Data Centre
#                                CCDC
#
#######################################################################
#
# If this CIF has been generated from an entry in the Cambridge
# Structural Database, then it will include bibliographic, chemical,
# crystal, experimental, refinement or atomic coordinate data resulting
# from the CCDC's data processing and validation procedures.
#
#######################################################################

data_CSD_CIF_TAPDOD
_audit_creation_date 1992-04-28
_audit_creation_method CSD-ConQuest-V1
_database_code_CSD TAPDOD
_chemical_formula_sum 'C5 H6 N2 O2'
_chemical_formula_moiety
;
C5 H6 N2 O2
;
_journal_coeditor_code "IUCr HE0025"
_journal_coden_Cambridge 591
_journal_volume 48
_journal_year 1992
_journal_page_first 307
_journal_name_full 'Acta Crystallogr.,Sect.C:Cryst.Struct.Commun. '
loop_
_publ_author_name
"D.A.Peters"
"R.L.Beddoes"
"J.A.Joule"
_chemical_name_systematic
;
3-Methoxypyrazine 1-oxide
;
_chemical_melting_point 350
_cell_volume   1179.827
_exptl_crystal_colour 'colorless'
_exptl_crystal_density_diffrn 1.42
_exptl_special_details
;
Melting point range 350-352K

;
_diffrn_ambient_temperature ?
_diffrn_special_details
;
The study was carried out at room temperature,in the range 283-303K

;
#These two values have been output from a single CSD field.
_refine_ls_R_factor_gt 0.061
_refine_ls_wR_factor_gt 0.061
_symmetry_cell_setting triclinic
_symmetry_space_group_name_H-M 'P -1'
_symmetry_Int_Tables_number 2
loop_
_symmetry_equiv_pos_site_id
_symmetry_equiv_pos_as_xyz
1 x,y,z
2 -x,-y,-z
_cell_length_a 12.094(1)
_cell_length_b 14.689(1)
_cell_length_c 7.0228(4)
_cell_angle_alpha 96.991(6)
_cell_angle_beta 101.856(4)
_cell_angle_gamma 101.361(7)
_cell_formula_units_Z 8
loop_
_atom_type_symbol
_atom_type_radius_bond
C 0.68
H 0.23
N 0.68
O 0.68
loop_
_atom_site_label
_atom_site_type_symbol
_atom_site_fract_x
_atom_site_fract_y
_atom_site_fract_z
O1 O 0.4867(4) 0.6320(3) 1.1313(7)
O2 O 0.4251(4) -0.1216(3) 0.1035(7)
O3 O 0.2304(4) 0.2735(3) 0.4542(7)
O4 O 0.9069(4) 0.2097(3) 0.1460(8)
O5 O 0.1856(4) 0.3695(3) 0.9071(7)
O6 O 0.6865(4) 0.1463(4) 0.4551(8)
O7 O 0.4271(4) 0.5831(3) 0.6146(7)
O8 O 0.7143(4) -0.1004(3) 0.0090(7)
N1 N 0.3785(5) 0.5936(4) 1.0544(8)
N2 N 0.5160(5) -0.0813(4) 0.244(1)
N3 N 0.2326(6) 0.3615(4) 0.4518(9)
N4 N 0.9056(6) 0.1225(4) 0.1596(9)
N5 N 0.1442(5) 0.5143(4) 0.8841(8)
N6 N 0.7132(5) 0.0044(4) 0.5412(8)
N7 N 0.2347(6) 0.5509(4) 0.4443(8)
N8 N 0.9046(6) -0.0644(4) 0.1775(9)
C1 C 0.1897(7) 0.6071(6) 0.922(1)
C2 C 0.6706(7) -0.0895(6) 0.497(1)
C3 C 0.1398(7) 0.4805(6) 0.366(1)
C4 C 0.9983(7) 0.0067(6) 0.261(1)
C5 C 0.3024(7) 0.6495(4) 1.003(1)
C6 C 0.5748(6) -0.1334(5) 0.353(1)
C7 C 0.1350(6) 0.3884(5) 0.367(1)
C8 C 1.0038(6) 0.0991(5) 0.253(1)
C9 C 0.3374(6) 0.5014(5) 1.019(1)
C10 C 0.5547(7) 0.0130(5) 0.280(1)
C11 C 0.3302(7) 0.4293(6) 0.538(1)
C12 C 0.8097(6) 0.0554(5) 0.076(1)
C13 C 0.2204(7) 0.4634(5) 0.935(1)
C14 C 0.6532(6) 0.0527(5) 0.429(1)
C15 C 0.3249(7) 0.5213(5) 0.525(1)
C16 C 0.8137(7) -0.0365(5) 0.093(1)
C17 C 0.0649(7) 0.3262(6) 0.817(1)
C18 C 0.7914(7) 0.1927(5) 0.595(1)
C19 C 0.4314(7) 0.6805(5) 0.601(1)
C20 C 0.7141(7) -0.1973(5) 0.020(1)
H1 H 0.13800 0.64690 0.89010
H2 H 0.71050 -0.12780 0.57230
H3 H 0.07090 0.49740 0.30450
H4 H 1.06560 -0.00950 0.33140
H5 H 0.32820 0.71610 1.02360
H6 H 0.54960 -0.20010 0.32980
H7 H 0.06470 0.34280 0.31070
H8 H 1.07330 0.14560 0.30970
H9 H 0.38810 0.46080 1.05180
H10 H 0.51530 0.05150 0.20480
H11 H 0.39910 0.41390 0.60380
H12 H 0.74130 0.07060 0.00660
H13 H 0.01780 0.34800 0.89730
H14 H 0.04460 0.34250 0.69000
H15 H 0.05320 0.25970 0.80590
H16 H 0.78630 0.17910 0.72260
H17 H 0.85470 0.17100 0.55940
H18 H 0.80390 0.25870 0.59800
H19 H 0.50640 0.71730 0.66680
H20 H 0.41570 0.68760 0.46610
H21 H 0.37500 0.70090 0.66120
H22 H 0.63940 -0.23540 -0.04310
H23 H 0.77000 -0.21590 -0.04450
H24 H 0.73290 -0.20490 0.15430
#END
