
#######################################################################
#
#                 Cambridge Crystallographic Data Centre
#                                CCDC
#
#######################################################################
#
# If this CIF has been generated from an entry in the Cambridge
# Structural Database, then it will include bibliographic, chemical,
# crystal, experimental, refinement or atomic coordinate data resulting
# from the CCDC's data processing and validation procedures.
#
#######################################################################

data_CSD_CIF_TAPMON
_audit_creation_date 2005-09-14
_audit_creation_method CSD-ConQuest-V1
_database_code_CSD TAPMON
_database_code_depnum_ccdc_archive 'CCDC 264998'
_chemical_formula_sum 'C13 H11 N1 O4'
_chemical_formula_moiety
;
C13 H11 N1 O4
;
_journal_coden_Cambridge 182
_journal_year 2005
_journal_page_first 2486
_journal_name_full 'Chem.Commun. '
loop_
_publ_author_name
"A.Dey"
"G.R.Desiraju"
_chemical_name_systematic
;
4-Methoxy-4'-nitrodiphenyl ether
;
_chemical_melting_point 383
_cell_volume   1117.021
_exptl_crystal_colour 'yellow'
_exptl_crystal_density_diffrn 1.458
_exptl_crystal_description 'block'
_exptl_crystal_preparation 'ethyl acetate/hexane'
_diffrn_ambient_temperature 120
#These two values have been output from a single CSD field.
_refine_ls_R_factor_gt 0.036
_refine_ls_wR_factor_gt 0.036
_symmetry_cell_setting monoclinic
_symmetry_space_group_name_H-M 'P 21/c'
_symmetry_Int_Tables_number 14
loop_
_symmetry_equiv_pos_site_id
_symmetry_equiv_pos_as_xyz
1 x,y,z
2 -x,1/2+y,1/2-z
3 -x,-y,-z
4 x,-1/2-y,-1/2+z
_cell_length_a 12.3992(3)
_cell_length_b 7.4839(2)
_cell_length_c 12.2812(3)
_cell_angle_alpha 90
_cell_angle_beta 101.431(1)
_cell_angle_gamma 90
_cell_formula_units_Z 4
loop_
_atom_type_symbol
_atom_type_radius_bond
C 0.68
H 0.23
N 0.68
O 0.68
loop_
_atom_site_label
_atom_site_type_symbol
_atom_site_fract_x
_atom_site_fract_y
_atom_site_fract_z
N1 N 1.01393(8) 0.22608(15) 0.35420(9)
C1 C 0.92113(9) 0.16787(16) 0.40199(10)
O1 O 1.08658(8) 0.31626(15) 0.41131(8)
O2 O 1.01629(7) 0.18170(16) 0.25827(7)
C2 C 0.83897(10) 0.06536(17) 0.33771(10)
O3 O 0.65769(7) -0.00619(12) 0.53005(7)
C3 C 0.7512(1) 0.01101(16) 0.38321(10)
O4 O 0.60078(7) 0.09059(11) 0.96177(7)
C4 C 0.74802(9) 0.05546(15) 0.49314(10)
C5 C 0.83136(10) 0.15673(16) 0.55677(10)
C6 C 0.91859(10) 0.21456(17) 0.51048(10)
C7 C 0.6504(1) 0.02168(16) 0.64146(10)
C8 C 0.71832(10) -0.06947(17) 0.72613(10)
C9 C 0.70483(10) -0.04818(16) 0.83532(10)
C10 C 0.62167(9) 0.06265(15) 0.85800(9)
C11 C 0.55388(10) 0.15424(16) 0.7715(1)
C12 C 0.56786(10) 0.13380(16) 0.66314(10)
C13 C 0.65644(11) -0.02254(18) 1.04863(10)
H1 H 0.9749(12) 0.285(2) 0.5514(12)
H2 H 0.6264(12) 0.010(2) 1.1144(13)
H3 H 0.7758(11) -0.148(2) 0.7085(11)
H4 H 0.8428(11) 0.033(2) 0.2632(13)
H5 H 0.6396(11) -0.150(2) 1.0303(12)
H6 H 0.7346(12) -0.001(2) 1.0609(12)
H7 H 0.8289(11) 0.1862(19) 0.6311(12)
H8 H 0.5209(12) 0.196(2) 0.6027(12)
H9 H 0.4976(11) 0.2332(18) 0.7892(11)
H10 H 0.6921(11) -0.0568(19) 0.3405(11)
H11 H 0.7532(12) -0.1088(19) 0.8926(12)
#END
