
#######################################################################
#
#                 Cambridge Crystallographic Data Centre
#                                CCDC
#
#######################################################################
#
# If this CIF has been generated from an entry in the Cambridge
# Structural Database, then it will include bibliographic, chemical,
# crystal, experimental, refinement or atomic coordinate data resulting
# from the CCDC's data processing and validation procedures.
#
#######################################################################

data_CSD_CIF_TAPNII
_audit_creation_date 2005-09-14
_audit_creation_method CSD-ConQuest-V1
_database_code_CSD TAPNII
_database_code_depnum_ccdc_archive 'CCDC 265002'
_chemical_formula_sum 'C14 H9 N1 O3'
_chemical_formula_moiety
;
C14 H9 N1 O3
;
_journal_coden_Cambridge 182
_journal_year 2005
_journal_page_first 2486
_journal_name_full 'Chem.Commun. '
loop_
_publ_author_name
"A.Dey"
"G.R.Desiraju"
_chemical_name_systematic
;
4-Ethynyl-4'-nitrodiphenyl ether
;
_chemical_melting_point 357
_cell_volume   2393.974
_exptl_crystal_colour 'colorless'
_exptl_crystal_density_diffrn 1.327
_exptl_crystal_description 'irregular'
_exptl_crystal_preparation 'deuterochloroform'
_diffrn_ambient_temperature 298
#These two values have been output from a single CSD field.
_refine_ls_R_factor_gt 0.0736
_refine_ls_wR_factor_gt 0.0736
_symmetry_cell_setting monoclinic
_symmetry_space_group_name_H-M 'P 21/c'
_symmetry_Int_Tables_number 14
loop_
_symmetry_equiv_pos_site_id
_symmetry_equiv_pos_as_xyz
1 x,y,z
2 -x,1/2+y,1/2-z
3 -x,-y,-z
4 x,-1/2-y,-1/2+z
_cell_length_a 14.866(2)
_cell_length_b 8.8944(14)
_cell_length_c 19.496(3)
_cell_angle_alpha 90
_cell_angle_beta 111.771(2)
_cell_angle_gamma 90
_cell_formula_units_Z 8
loop_
_atom_type_symbol
_atom_type_radius_bond
C 0.60
H 0.23
N 0.68
O 0.68
loop_
_atom_site_label
_atom_site_type_symbol
_atom_site_fract_x
_atom_site_fract_y
_atom_site_fract_z
O1 O 0.31728(15) 0.1044(3) 1.00791(13)
C1 C 0.4962(2) 0.3479(4) 0.93371(18)
C2 C 0.0305(2) 0.2184(4) 0.96340(17)
C3 C 0.2214(2) 0.1469(4) 0.99158(17)
C4 C 0.3739(2) 0.1925(4) 0.98195(17)
C5 C 0.3369(2) 0.2862(4) 0.92217(18)
H1 H 0.27030 0.29640 0.89810
O2 O 0.6490(2) 0.4211(4) 0.94302(18)
N1 N 0.5620(2) 0.4332(4) 0.9090(2)
C6 C 0.3992(2) 0.3652(4) 0.89800(18)
H2 H 0.37510 0.42960 0.85770
C7 C 0.1997(2) 0.2811(4) 1.01361(18)
H3 H 0.24890 0.34880 1.03800
C8 C 0.1042(2) 0.3177(4) 0.99975(18)
H4 H 0.08940 0.41030 1.01510
C9 C 0.4710(2) 0.1757(4) 1.01759(19)
H5 H 0.49500 0.11150 1.05800
C10 C 0.5340(2) 0.2543(4) 0.9936(2)
H6 H 0.60070 0.24410 1.01750
C11 C 0.1509(2) 0.0443(4) 0.9574(2)
H7 H 0.16690 -0.04880 0.94340
C12 C 0.0555(2) 0.0803(4) 0.9439(2)
H8 H 0.00730 0.01000 0.92120
C13 C -0.0679(3) 0.2575(4) 0.94709(19)
C14 C -0.1468(3) 0.2924(4) 0.9321(2)
H9 H -0.21110 0.32070 0.91990
O3 O 0.5285(3) 0.5149(4) 0.8564(2)
O4 O 0.14049(17) 0.3829(3) 0.22012(16)
C15 C 0.3374(2) 0.0923(4) 0.19146(16)
C16 C 0.2032(2) 0.2787(4) 0.21019(18)
C17 C 0.1808(2) 0.1303(4) 0.19430(17)
H10 H 0.12020 0.09370 0.18980
N2 N 0.4082(2) -0.0094(4) 0.18077(16)
C18 C -0.1416(2) 0.2802(3) 0.19438(17)
O5 O 0.48595(18) 0.0426(3) 0.18496(16)
C19 C 0.2488(2) 0.0355(4) 0.18498(18)
H11 H 0.23480 -0.06580 0.17440
C20 C 0.0460(2) 0.3392(4) 0.2101(2)
C21 C 0.0274(2) 0.2718(5) 0.2654(2)
H12 H 0.07800 0.24620 0.30890
C22 C 0.2935(2) 0.3350(4) 0.2187(2)
H13 H 0.30870 0.43520 0.23130
C23 C -0.0668(2) 0.2410(4) 0.25725(19)
H14 H -0.07940 0.19290 0.29510
C24 C 0.3614(2) 0.2393(4) 0.2079(2)
H15 H 0.42190 0.27510 0.21200
O6 O 0.3873(2) -0.1400(4) 0.16818(19)
C25 C -0.1217(3) 0.3479(4) 0.13820(19)
H16 H -0.17210 0.37350 0.09450
C26 C -0.0273(3) 0.3781(5) 0.1463(2)
H17 H -0.01390 0.42470 0.10840
C27 C -0.3042(3) 0.2199(5) 0.1833(2)
H18 H -0.36560 0.19190 0.18080
C28 C -0.2525(3) 0.2435(5) 0.1854(2)
#END
