
#######################################################################
#
#                 Cambridge Crystallographic Data Centre
#                                CCDC
#
#######################################################################
#
# If this CIF has been generated from an entry in the Cambridge
# Structural Database, then it will include bibliographic, chemical,
# crystal, experimental, refinement or atomic coordinate data resulting
# from the CCDC's data processing and validation procedures.
#
#######################################################################

data_CSD_CIF_TAPQAD
_audit_creation_date 2005-09-14
_audit_creation_method CSD-ConQuest-V1
_database_code_CSD TAPQAD
_database_code_depnum_ccdc_archive 'CCDC 265011'
_chemical_formula_sum 'C13 H8 N2 O3'
_chemical_formula_moiety
;
C13 H8 N2 O3
;
_journal_coden_Cambridge 182
_journal_year 2005
_journal_page_first 2486
_journal_name_full 'Chem.Commun. '
loop_
_publ_author_name
"A.Dey"
"G.R.Desiraju"
_chemical_name_systematic
;
4-(4-Nitrophenoxy)benzonitrile
;
_chemical_melting_point 433
_cell_volume   1110.907
_exptl_crystal_colour 'colorless'
_exptl_crystal_density_diffrn 1.436
_exptl_crystal_description 'block'
_exptl_crystal_preparation 'ethyl acetate/hexane'
_diffrn_ambient_temperature 298
#These two values have been output from a single CSD field.
_refine_ls_R_factor_gt 0.0637
_refine_ls_wR_factor_gt 0.0637
_symmetry_cell_setting monoclinic
_symmetry_space_group_name_H-M 'P 21/c'
_symmetry_Int_Tables_number 14
loop_
_symmetry_equiv_pos_site_id
_symmetry_equiv_pos_as_xyz
1 x,y,z
2 -x,1/2+y,1/2-z
3 -x,-y,-z
4 x,-1/2-y,-1/2+z
_cell_length_a 13.374(3)
_cell_length_b 7.2793(16)
_cell_length_c 11.782(3)
_cell_angle_alpha 90
_cell_angle_beta 104.415(2)
_cell_angle_gamma 90
_cell_formula_units_Z 4
loop_
_atom_type_symbol
_atom_type_radius_bond
C 0.68
H 0.23
N 0.68
O 0.68
loop_
_atom_site_label
_atom_site_type_symbol
_atom_site_fract_x
_atom_site_fract_y
_atom_site_fract_z
O1 O 0.84586(14) 0.0670(3) 0.98464(15)
C1 C 0.5856(2) 0.1570(4) 1.1006(2)
C2 C 0.7558(2) 0.0966(4) 1.0183(2)
C3 C 0.7516(2) 0.0265(4) 1.1261(2)
H1 H 0.80700 -0.03960 1.17100
C4 C 0.8447(2) 0.0474(4) 0.8676(2)
C5 C 0.9369(2) 0.0848(4) 0.7208(2)
H2 H 0.99480 0.12610 0.69810
C6 C 0.7716(2) -0.0611(4) 0.6745(2)
H3 H 0.71750 -0.11630 0.62000
C7 C 0.8629(2) -0.0286(4) 0.5209(3)
C8 C 0.8576(2) -0.0007(4) 0.6405(2)
C9 C 0.6751(2) 0.1995(4) 0.9533(2)
H4 H 0.67880 0.24790 0.88140
C10 C 0.7655(2) -0.0399(4) 0.7887(2)
H5 H 0.70860 -0.08410 0.81230
C11 C 0.5894(2) 0.2304(4) 0.9945(2)
H6 H 0.53480 0.30000 0.95130
O2 O 0.42095(19) 0.2772(4) 1.0830(2)
C12 C 0.9300(2) 0.1087(4) 0.8346(2)
H7 H 0.98320 0.16630 0.88890
O3 O 0.48842(18) 0.1240(4) 1.2371(2)
C13 C 0.6654(2) 0.0550(4) 1.1663(2)
H8 H 0.66100 0.00560 1.23770
N1 N 0.4935(2) 0.1885(4) 1.1437(2)
N2 N 0.8646(2) -0.0530(4) 0.4264(2)
#END
