
#######################################################################
#
#                 Cambridge Crystallographic Data Centre
#                                CCDC
#
#######################################################################
#
# If this CIF has been generated from an entry in the Cambridge
# Structural Database, then it will include bibliographic, chemical,
# crystal, experimental, refinement or atomic coordinate data resulting
# from the CCDC's data processing and validation procedures.
#
#######################################################################

data_CSD_CIF_TAPXUE
_audit_creation_date 2005-09-14
_audit_creation_method CSD-ConQuest-V1
_database_code_CSD TAPXUE
_database_code_depnum_ccdc_archive 'CCDC 278553'
_chemical_formula_sum 'C12 H17 N3 O3'
_chemical_formula_moiety
;
C12 H17 N3 O3
;
_journal_coeditor_code "IUCr FG1843"
_journal_coden_Cambridge 591
_journal_volume 61
_journal_year 2005
_journal_page_first o417
_journal_name_full 'Acta Crystallogr.,Sect.C:Cryst.Struct.Commun. '
loop_
_publ_author_name
"A.Camerman"
"A.Hempel"
"D.Mastropaolo"
"N.Camerman"
_chemical_name_systematic
;
2-Acetamido-N-benzyl-2-(methoxyamino)acetamide
;
_cell_volume   2609.956
_exptl_crystal_colour 'colorless'
_exptl_crystal_density_diffrn 1.279
_exptl_special_details
;
anticonvulsant activity

;
_exptl_crystal_description 'needle'
_exptl_crystal_preparation 'cold benzene/chloroform 1'
_diffrn_ambient_temperature 294
#These two values have been output from a single CSD field.
_refine_ls_R_factor_gt 0.0624
_refine_ls_wR_factor_gt 0.0624
_symmetry_cell_setting orthorhombic
_symmetry_space_group_name_H-M 'P b c n'
_symmetry_Int_Tables_number 60
loop_
_symmetry_equiv_pos_site_id
_symmetry_equiv_pos_as_xyz
1 x,y,z
2 1/2-x,1/2-y,1/2+z
3 1/2+x,1/2-y,-z
4 -x,y,1/2-z
5 -x,-y,-z
6 -1/2+x,-1/2+y,-1/2-z
7 -1/2-x,-1/2+y,z
8 x,-y,-1/2+z
_cell_length_a 17.998(5)
_cell_length_b 7.112(3)
_cell_length_c 20.390(6)
_cell_angle_alpha 90
_cell_angle_beta 90
_cell_angle_gamma 90
_cell_formula_units_Z 8
loop_
_atom_type_symbol
_atom_type_radius_bond
C 0.68
H 0.23
N 0.68
O 0.68
loop_
_atom_site_label
_atom_site_type_symbol
_atom_site_fract_x
_atom_site_fract_y
_atom_site_fract_z
C1 C 0.39659(17) 0.2949(5) 0.28393(17)
H1 H 0.43640 0.36970 0.29690
C2 C 0.3922(2) 0.2338(6) 0.21977(19)
H2 H 0.42920 0.26630 0.19000
C3 C 0.3335(2) 0.1255(6) 0.20012(19)
H3 H 0.33020 0.08440 0.15690
C4 C 0.2797(2) 0.0783(6) 0.24416(19)
H4 H 0.23980 0.00430 0.23090
C5 C 0.28391(18) 0.1390(5) 0.30809(17)
H5 H 0.24650 0.10690 0.33750
C6 C 0.34280(15) 0.2466(4) 0.32902(15)
C7 C 0.35048(16) 0.3025(4) 0.39990(15)
H6 H 0.37770 0.41990 0.40300
H7 H 0.30160 0.32160 0.41880
N1 N 0.38966(12) 0.1566(3) 0.43638(11)
H8 H 0.43740 0.16050 0.43740
C8 C 0.35566(14) 0.0184(4) 0.46798(14)
C9 C 0.40705(14) -0.1385(4) 0.49143(14)
H9 H 0.43630 -0.08780 0.52790
N2 N 0.36400(12) -0.2936(3) 0.51716(11)
H10 H 0.31780 -0.30460 0.50700
C10 C 0.39605(16) -0.4203(4) 0.55683(13)
C11 C 0.34744(17) -0.5738(5) 0.58287(16)
H11 H 0.29980 -0.56820 0.56180
H12 H 0.34130 -0.55820 0.62930
H13 H 0.37010 -0.69350 0.57420
O1 O 0.28907(9) 0.0156(3) 0.48015(11)
N3 N 0.45887(13) -0.1862(4) 0.43943(12)
H14 H 0.4853(18) -0.289(5) 0.4504(16)
O2 O 0.41345(12) -0.2489(3) 0.38547(10)
C12 C 0.4510(2) -0.2061(6) 0.32599(18)
H15 H 0.41930 -0.23490 0.28950
H16 H 0.49560 -0.27970 0.32310
H17 H 0.46350 -0.07490 0.32520
O3 O 0.46243(11) -0.4082(3) 0.57164(10)
#END
