
#######################################################################
#
#                 Cambridge Crystallographic Data Centre
#                                CCDC
#
#######################################################################
#
# If this CIF has been generated from an entry in the Cambridge
# Structural Database, then it will include bibliographic, chemical,
# crystal, experimental, refinement or atomic coordinate data resulting
# from the CCDC's data processing and validation procedures.
#
#######################################################################

data_CSD_CIF_TAPYIT
_audit_creation_date 2005-09-14
_audit_creation_method CSD-ConQuest-V1
_database_code_CSD TAPYIT
_database_code_depnum_ccdc_archive 'CCDC 278556'
_chemical_formula_sum 'C15 H14 N2 O3'
_chemical_formula_moiety
;
C15 H14 N2 O3
;
_journal_coeditor_code "IUCr SF1002"
_journal_coden_Cambridge 591
_journal_volume 61
_journal_year 2005
_journal_page_first o422
_journal_name_full 'Acta Crystallogr.,Sect.C:Cryst.Struct.Commun. '
loop_
_publ_author_name
"M.Kubicki"
_chemical_name_systematic
;
(E)-4-Methoxybenzaldehyde O-(N-phenylcarbamoyl)oxime
;
_cell_volume   1315.859
_exptl_crystal_colour 'colorless'
_exptl_crystal_density_diffrn 1.364
_exptl_special_details
;
biological activity

;
_exptl_crystal_description 'plate'
_exptl_crystal_preparation 'methanol'
_diffrn_ambient_temperature 100.0
#These two values have been output from a single CSD field.
_refine_ls_R_factor_gt 0.0525
_refine_ls_wR_factor_gt 0.0525
_symmetry_cell_setting triclinic
_symmetry_space_group_name_H-M 'P -1'
_symmetry_Int_Tables_number 2
loop_
_symmetry_equiv_pos_site_id
_symmetry_equiv_pos_as_xyz
1 x,y,z
2 -x,-y,-z
_cell_length_a 8.8037(8)
_cell_length_b 12.1484(15)
_cell_length_c 12.9823(17)
_cell_angle_alpha 75.275(11)
_cell_angle_beta 81.075(9)
_cell_angle_gamma 80.746(9)
_cell_formula_units_Z 4
loop_
_atom_type_symbol
_atom_type_radius_bond
C 0.68
H 0.23
N 0.68
O 0.68
loop_
_atom_site_label
_atom_site_type_symbol
_atom_site_fract_x
_atom_site_fract_y
_atom_site_fract_z
N1 N 0.3315(3) 0.68748(19) 0.25544(19)
H1 H 0.407(4) 0.701(2) 0.281(2)
C1 C 0.3110(3) 0.5702(2) 0.2750(2)
C2 C 0.2497(3) 0.5258(2) 0.2039(2)
H2 H 0.213(3) 0.578(2) 0.1387(19)
C3 C 0.2420(3) 0.4090(3) 0.2248(2)
H3 H 0.198(3) 0.385(2) 0.178(2)
C4 C 0.2962(3) 0.3350(2) 0.3158(2)
H4 H 0.293(3) 0.251(2) 0.3247(19)
C5 C 0.3560(3) 0.3801(2) 0.3875(2)
H5 H 0.391(3) 0.325(2) 0.4564(19)
C6 C 0.3641(3) 0.4964(2) 0.3667(2)
H6 H 0.405(3) 0.525(2) 0.414(2)
C7 C 0.2569(3) 0.7766(2) 0.1897(2)
O1 O 0.1446(2) 0.77723(15) 0.14535(15)
O2 O 0.33374(19) 0.86974(14) 0.17702(14)
N2 N 0.2533(2) 0.97497(18) 0.11963(17)
C8 C 0.3492(3) 1.0488(2) 0.0901(2)
H7 H 0.454(3) 1.028(2) 0.101(2)
C9 C 0.2984(3) 1.1670(2) 0.0365(2)
C10 C 0.1409(3) 1.2086(2) 0.0270(2)
H8 H 0.062(3) 1.157(2) 0.052(2)
C11 C 0.0975(3) 1.3214(2) -0.0213(2)
H9 H -0.015(3) 1.351(2) -0.030(2)
C12 C 0.2081(3) 1.3962(2) -0.0629(2)
O3 O 0.1503(2) 1.50711(15) -0.10869(15)
C13 C 0.2591(4) 1.5878(3) -0.1531(3)
H10 H 0.313(4) 1.598(2) -0.100(2)
H11 H 0.196(3) 1.666(3) -0.191(2)
H12 H 0.335(4) 1.561(2) -0.212(2)
C14 C 0.3636(3) 1.3579(2) -0.0555(2)
H13 H 0.436(3) 1.411(2) -0.084(2)
C15 C 0.4066(3) 1.2438(2) -0.0053(2)
H14 H 0.514(3) 1.214(2) -0.001(2)
N3 N 0.8131(3) 0.79083(18) 0.24317(18)
H15 H 0.905(3) 0.787(2) 0.214(2)
C16 C 0.7436(3) 0.9059(2) 0.2334(2)
C17 C 0.6232(3) 0.9367(2) 0.3087(2)
H16 H 0.578(3) 0.871(2) 0.374(2)
C18 C 0.5661(3) 1.0526(2) 0.2992(2)
H17 H 0.472(3) 1.074(2) 0.3566(19)
C19 C 0.6267(3) 1.1366(3) 0.2166(2)
H18 H 0.584(3) 1.219(2) 0.2135(19)
C20 C 0.7458(3) 1.1054(2) 0.1416(2)
H19 H 0.790(3) 1.166(2) 0.080(2)
C21 C 0.8041(3) 0.9906(2) 0.1508(2)
H20 H 0.885(3) 0.969(2) 0.098(2)
C22 C 0.7492(3) 0.6972(2) 0.3018(2)
O4 O 0.6162(2) 0.69222(15) 0.34259(14)
O5 O 0.8630(2) 0.60519(15) 0.31233(14)
N4 N 0.8010(3) 0.49871(18) 0.36344(18)
C23 C 0.9089(3) 0.4296(2) 0.4098(2)
H21 H 1.006(3) 0.453(2) 0.4117(19)
C24 C 0.8831(3) 0.3119(2) 0.4659(2)
C25 C 0.7512(3) 0.2643(2) 0.4603(2)
H22 H 0.672(3) 0.316(2) 0.411(2)
C26 C 0.7329(3) 0.1532(2) 0.5145(2)
H23 H 0.641(3) 0.117(2) 0.515(2)
C27 C 0.8456(3) 0.0862(2) 0.5762(2)
O6 O 0.8181(2) -0.02352(15) 0.62655(14)
C28 C 0.9342(3) -0.0943(3) 0.6893(2)
H24 H 1.032(3) -0.108(2) 0.637(2)
H25 H 0.893(3) -0.175(2) 0.722(2)
H26 H 0.950(3) -0.061(2) 0.750(2)
C29 C 0.9780(3) 0.1313(2) 0.5829(2)
H27 H 1.062(3) 0.080(2) 0.623(2)
C30 C 0.9961(3) 0.2436(2) 0.5276(2)
H28 H 1.088(3) 0.278(2) 0.532(2)
#END
