
#######################################################################
#
#                 Cambridge Crystallographic Data Centre
#                                CCDC
#
#######################################################################
#
# If this CIF has been generated from an entry in the Cambridge
# Structural Database, then it will include bibliographic, chemical,
# crystal, experimental, refinement or atomic coordinate data resulting
# from the CCDC's data processing and validation procedures.
#
#######################################################################

data_CSD_CIF_TAPYAL
_audit_creation_date 2005-09-14
_audit_creation_method CSD-ConQuest-V1
_database_code_CSD TAPYAL
_database_code_depnum_ccdc_archive 'CCDC 278554'
_chemical_formula_sum 'C13 H19 N3 O3'
_chemical_formula_moiety
;
C13 H19 N3 O3
;
_journal_coeditor_code "IUCr FG1843"
_journal_coden_Cambridge 591
_journal_volume 61
_journal_year 2005
_journal_page_first o417
_journal_name_full 'Acta Crystallogr.,Sect.C:Cryst.Struct.Commun. '
loop_
_publ_author_name
"A.Camerman"
"A.Hempel"
"D.Mastropaolo"
"N.Camerman"
_chemical_name_systematic
;
2-Acetamido-N-benzyl-2-(methoxy(methyl)amino)acetamide
;
_cell_volume    708.559
_exptl_crystal_colour 'colorless'
_exptl_crystal_density_diffrn 1.244
_exptl_special_details
;
anticonvulsant activity

;
_exptl_crystal_description 'needle'
_exptl_crystal_preparation 'chloroform/toluene 1'
_diffrn_ambient_temperature 294
#These two values have been output from a single CSD field.
_refine_ls_R_factor_gt 0.1018
_refine_ls_wR_factor_gt 0.1018
_symmetry_cell_setting triclinic
_symmetry_space_group_name_H-M 'P -1'
_symmetry_Int_Tables_number 2
loop_
_symmetry_equiv_pos_site_id
_symmetry_equiv_pos_as_xyz
1 x,y,z
2 -x,-y,-z
_cell_length_a 4.859(2)
_cell_length_b 10.587(3)
_cell_length_c 14.168(4)
_cell_angle_alpha 86.84(2)
_cell_angle_beta 80.66(3)
_cell_angle_gamma 80.28(3)
_cell_formula_units_Z 2
loop_
_atom_type_symbol
_atom_type_radius_bond
C 0.68
H 0.23
N 0.68
O 0.68
loop_
_atom_site_label
_atom_site_type_symbol
_atom_site_fract_x
_atom_site_fract_y
_atom_site_fract_z
O1 O 0.1023(14) 0.7475(8) 0.6884(5)
O2 O 0.4177(18) 0.5637(11) 0.8374(7)
O3 O 0.6410(13) 0.9777(7) 0.8618(5)
N1 N 0.5635(16) 0.7245(8) 0.6334(7)
H1 H 0.73080 0.72760 0.64470
N2 N 0.2602(15) 0.8993(8) 0.8302(6)
H2 H 0.08080 0.91520 0.82980
N3 N 0.291(3) 0.6784(9) 0.8729(7)
C1 C 0.926(2) 0.6332(12) 0.4065(8)
H3 H 0.89790 0.54840 0.41600
C2 C 1.130(2) 0.6657(14) 0.3362(9)
H4 H 1.23670 0.60170 0.29720
C3 C 1.182(3) 0.7847(17) 0.3213(10)
H5 H 1.32640 0.80190 0.27330
C4 C 1.023(3) 0.8832(14) 0.3762(11)
H6 H 1.05490 0.96720 0.36480
C5 C 0.810(2) 0.8522(13) 0.4497(10)
H7 H 0.70380 0.91550 0.48950
C6 C 0.763(2) 0.7271(12) 0.4627(8)
C7 C 0.530(2) 0.6909(13) 0.5390(9)
H8 H 0.53100 0.59930 0.53810
H9 H 0.34900 0.73430 0.52460
C8 C 0.346(2) 0.7519(9) 0.7046(8)
C9 C 0.4154(19) 0.7731(10) 0.8004(8)
H10 H 0.61940 0.76690 0.79930
C10 C 0.383(2) 0.9883(10) 0.8597(7)
C11 C 0.194(2) 1.110(1) 0.8933(9)
H11 H 0.24830 1.18130 0.85410
H12 H 0.00190 1.10310 0.88840
H13 H 0.20810 1.12310 0.95870
C12 C 0.178(2) 0.4949(13) 0.8391(10)
H14 H 0.04040 0.54240 0.80350
H15 H 0.25160 0.41390 0.80990
H16 H 0.09020 0.48060 0.90370
C13 C 0.439(3) 0.6849(12) 0.9572(9)
H17 H 0.63750 0.68150 0.93420
H18 H 0.36620 0.76410 0.98900
H19 H 0.41230 0.61430 1.00130
#END
