
#######################################################################
#
#                 Cambridge Crystallographic Data Centre
#                                CCDC
#
#######################################################################
#
# If this CIF has been generated from an entry in the Cambridge
# Structural Database, then it will include bibliographic, chemical,
# crystal, experimental, refinement or atomic coordinate data resulting
# from the CCDC's data processing and validation procedures.
#
#######################################################################

data_CSD_CIF_TAQNOQ
_audit_creation_date 2012-04-25
_audit_creation_method CSD-ConQuest-V1
_database_code_CSD TAQNOQ
_database_code_depnum_ccdc_archive 'CCDC 861103'
_chemical_formula_sum 'C15 H13 N1 O3'
_chemical_formula_moiety
;
C15 H13 N1 O3
;
_journal_coden_Cambridge 1336
_journal_volume 14
_journal_year 2012
_journal_page_first 1164
_journal_name_full 'Org.Lett. '
loop_
_publ_author_name
"M.Yonekawa"
"Y.Koyama"
"S.Kuwata"
"T.Takata"
_chemical_name_systematic
;
10-Methoxy-3-methyl-2a,10c-dihydroxantheno[9,1-cd][1,2]oxazole
;
_chemical_melting_point 409.35
_cell_volume   1198.565
_exptl_crystal_colour 'colorless'
_exptl_crystal_density_diffrn 1.415
_exptl_special_details
;
Melting point range 409.35-409.40K

;
_exptl_crystal_description 'block'
_exptl_crystal_preparation 'ethyl acetate'
_diffrn_ambient_temperature 93.1
#These two values have been output from a single CSD field.
_refine_ls_R_factor_gt 0.0388
_refine_ls_wR_factor_gt 0.0388
_symmetry_cell_setting monoclinic
_symmetry_space_group_name_H-M 'P 21/a'
_symmetry_Int_Tables_number 14
loop_
_symmetry_equiv_pos_site_id
_symmetry_equiv_pos_as_xyz
1 x,y,z
2 1/2-x,1/2+y,-z
3 -x,-y,-z
4 -1/2+x,-1/2-y,z
_cell_length_a 9.385(4)
_cell_length_b 12.373(5)
_cell_length_c 11.052(5)
_cell_angle_alpha 90
_cell_angle_beta 110.945(4)
_cell_angle_gamma 90
_cell_formula_units_Z 4
loop_
_atom_type_symbol
_atom_type_radius_bond
C 0.68
H 0.23
N 0.68
O 0.68
loop_
_atom_site_label
_atom_site_type_symbol
_atom_site_fract_x
_atom_site_fract_y
_atom_site_fract_z
O1 O 0.14538(9) 0.22249(7) 0.17607(9)
O2 O -0.15733(10) -0.05411(7) 0.19974(9)
O3 O 0.33154(9) 0.03203(7) 0.51794(9)
N1 N 0.20296(11) 0.14057(8) 0.27177(10)
C1 C 0.09331(13) -0.00809(9) 0.35975(12)
C2 C -0.03534(14) -0.07514(10) 0.31330(12)
C3 C -0.04585(15) -0.17064(10) 0.37605(13)
C4 C 0.07589(15) -0.20051(10) 0.48513(13)
C5 C 0.20578(14) -0.13627(10) 0.53490(13)
C6 C 0.21362(14) -0.03905(10) 0.47420(12)
C7 C 0.44463(14) 0.01167(11) 0.64339(13)
C8 C 0.09025(13) 0.09031(9) 0.28546(12)
C9 C -0.06486(13) 0.12861(9) 0.19806(12)
C10 C -0.02444(13) 0.21796(10) 0.12104(13)
C11 C -0.07921(13) 0.20207(10) -0.02339(12)
C12 C -0.16050(13) 0.11437(10) -0.07803(13)
C13 C -0.19092(14) 0.02458(10) -0.00442(13)
C14 C -0.14359(13) 0.03190(9) 0.12355(13)
C15 C -0.03574(15) 0.28896(11) -0.09826(14)
H1 H -0.13490 -0.21420 0.34480
H2 H 0.07110 -0.26680 0.52690
H3 H 0.28810 -0.15840 0.61000
H4 H 0.39630 0.00660 0.70540
H5 H 0.49570 -0.05430 0.64150
H6 H 0.51650 0.06920 0.66630
H7 H -0.12050 0.15710 0.24770
H8 H -0.06390 0.28440 0.13870
H9 H -0.20080 0.11030 -0.16990
H10 H -0.24360 -0.03790 -0.04770
H11 H -0.04950 0.35750 -0.06530
H12 H 0.06810 0.28060 -0.08940
H13 H -0.09850 0.28420 -0.18720
#END
