
#######################################################################
#
#                 Cambridge Crystallographic Data Centre
#                                CCDC
#
#######################################################################
#
# If this CIF has been generated from an entry in the Cambridge
# Structural Database, then it will include bibliographic, chemical,
# crystal, experimental, refinement or atomic coordinate data resulting
# from the CCDC's data processing and validation procedures.
#
#######################################################################

data_CSD_CIF_TAQTEN
_audit_creation_date 2017-03-29
_audit_creation_method CSD-ConQuest-V1
_database_code_CSD TAQTEN
_database_code_depnum_ccdc_archive 'CCDC 1511500'
_chemical_formula_sum 'C31 H26 N2 O3'
_chemical_formula_moiety
;
C31 H26 N2 O3
;
_journal_coden_Cambridge 1291
_journal_year 2017
_journal_page_first 1391
_journal_name_full 'Eur.J.Org.Chem. '
loop_
_publ_author_name
"Zoltan Dobi"
"T.Holczbauer"
"T.Soos"
_chemical_name_systematic
;
1-(diphenylmethyl)-5-nitro-6,7-diphenyl-1-azaspiro[3.3]heptan-3-one
;
_chemical_melting_point 432
_cell_volume   2433.105
_exptl_crystal_colour 'colorless'
_exptl_crystal_density_diffrn 1.295
_exptl_crystal_description 'chunk'
_exptl_crystal_preparation 'Chloroform'
_diffrn_ambient_temperature 103
#These two values have been output from a single CSD field.
_refine_ls_R_factor_gt 0.088
_refine_ls_wR_factor_gt 0.088
_symmetry_cell_setting monoclinic
_symmetry_space_group_name_H-M 'P 21/c'
_symmetry_Int_Tables_number 14
loop_
_symmetry_equiv_pos_site_id
_symmetry_equiv_pos_as_xyz
1 x,y,z
2 -x,1/2+y,1/2-z
3 -x,-y,-z
4 x,-1/2-y,-1/2+z
_cell_length_a 12.9332(9)
_cell_length_b 10.5064(5)
_cell_length_c 17.9445(10)
_cell_angle_alpha 90
_cell_angle_beta 93.749(3)
_cell_angle_gamma 90
_cell_formula_units_Z 4
loop_
_atom_type_symbol
_atom_type_radius_bond
C 0.68
H 0.23
N 0.68
O 0.68
loop_
_atom_site_label
_atom_site_type_symbol
_atom_site_fract_x
_atom_site_fract_y
_atom_site_fract_z
O1 O 0.1657(3) 0.0156(3) 0.60593(19)
O2 O 0.3972(3) -0.0159(3) 0.5524(2)
O3 O 0.4678(2) 0.1495(3) 0.60445(18)
N1 N 0.1887(3) 0.0597(3) 0.4260(2)
N2 N 0.4045(3) 0.0989(3) 0.5606(2)
C1 C 0.1578(4) -0.0528(4) 0.4713(2)
H1 H 0.20420 -0.12720 0.46810
H2 H 0.08420 -0.07790 0.46210
C2 C 0.1790(3) 0.0267(4) 0.5408(3)
C3 C 0.2224(3) 0.1337(4) 0.4930(2)
C4 C 0.2629(3) 0.0348(4) 0.3707(3)
H3 H 0.32740 -0.00040 0.39670
C5 C 0.2906(3) 0.1577(4) 0.3306(2)
C6 C 0.3924(4) 0.1782(5) 0.3128(3)
H4 H 0.44420 0.11720 0.32700
C7 C 0.4185(4) 0.2862(5) 0.2748(3)
H5 H 0.48820 0.30000 0.26320
C8 C 0.3430(4) 0.3745(5) 0.2537(3)
H6 H 0.36130 0.44830 0.22700
C9 C 0.2429(4) 0.3574(4) 0.2706(3)
H7 H 0.19180 0.41940 0.25650
C10 C 0.2164(3) 0.2488(4) 0.3084(2)
H8 H 0.14630 0.23600 0.31960
C11 C 0.2199(3) -0.0633(4) 0.3145(2)
C12 C 0.1235(4) -0.0484(4) 0.2768(3)
H9 H 0.08080 0.02150 0.28840
C13 C 0.0892(4) -0.1341(5) 0.2227(3)
H10 H 0.02330 -0.12210 0.19700
C14 C 0.1486(4) -0.2362(4) 0.2052(3)
H11 H 0.12480 -0.29390 0.16710
C15 C 0.2435(4) -0.2547(4) 0.2437(3)
H12 H 0.28440 -0.32680 0.23320
C16 C 0.2790(4) -0.1671(4) 0.2979(3)
H13 H 0.34480 -0.17930 0.32370
C17 C 0.3340(3) 0.1829(4) 0.5138(2)
H14 H 0.36790 0.20760 0.46750
C18 C 0.2907(3) 0.3013(4) 0.5504(2)
H15 H 0.28260 0.28540 0.60460
C19 C 0.1867(3) 0.2734(4) 0.5039(2)
H16 H 0.18960 0.31780 0.45480
C20 C 0.3349(3) 0.4304(4) 0.5393(2)
C21 C 0.3626(3) 0.4670(4) 0.4683(2)
H17 H 0.35970 0.40650 0.42890
C22 C 0.3945(3) 0.5913(4) 0.4545(3)
H18 H 0.41390 0.61510 0.40630
C23 C 0.3974(3) 0.6800(4) 0.5122(3)
H19 H 0.41660 0.76560 0.50300
C24 C 0.3725(3) 0.6439(4) 0.5828(3)
H20 H 0.37650 0.70430 0.62230
C25 C 0.3415(3) 0.5199(4) 0.5968(3)
H21 H 0.32480 0.49610 0.64560
C26 C 0.0843(3) 0.3033(3) 0.5335(2)
C27 C -0.0006(3) 0.3303(4) 0.4831(3)
H22 H 0.00760 0.32500 0.43090
C28 C -0.0963(3) 0.3646(4) 0.5079(3)
H23 H -0.15300 0.38090 0.47290
C29 C -0.1088(3) 0.3749(4) 0.5832(3)
H24 H -0.17360 0.40010 0.60050
C30 C -0.0267(4) 0.3483(4) 0.6330(3)
H25 H -0.03550 0.35430 0.68500
C31 C 0.0687(3) 0.3130(4) 0.6091(3)
H26 H 0.12430 0.29510 0.64490
#END
