
#######################################################################
#
#                 Cambridge Crystallographic Data Centre
#                                CCDC
#
#######################################################################
#
# If this CIF has been generated from an entry in the Cambridge
# Structural Database, then it will include bibliographic, chemical,
# crystal, experimental, refinement or atomic coordinate data resulting
# from the CCDC's data processing and validation procedures.
#
#######################################################################

data_CSD_CIF_TARZOD
_audit_creation_date 2012-04-25
_audit_creation_method CSD-ConQuest-V1
_database_code_CSD TARZOD
_database_code_depnum_ccdc_archive 'CCDC 790347'
_chemical_formula_sum 'C11 H13 N3 O2'
_chemical_formula_moiety
;
C11 H13 N3 O2
;
_journal_coden_Cambridge 155
_journal_volume 371
_journal_year 2011
_journal_page_first 100
_journal_name_full 'Inorg.Chim.Acta '
loop_
_publ_author_name
"S.Naskar"
"S.Naskar"
"S.Mondal"
"P.K.Majhi"
"M.G.B.Drew"
"S.K.Chattopadhyay"
_chemical_name_systematic
;
N'-(3-(Hydroxyimino)butan-2-ylidene)benzohydrazide
;
_cell_volume   2193.577
_exptl_crystal_colour 'black'
_exptl_crystal_density_diffrn 1.328
_exptl_crystal_description 'needle'
_diffrn_ambient_temperature 150
#These two values have been output from a single CSD field.
_refine_ls_R_factor_gt 0.0526
_refine_ls_wR_factor_gt 0.0526
_symmetry_cell_setting orthorhombic
_symmetry_space_group_name_H-M 'P b c a'
_symmetry_Int_Tables_number 61
loop_
_symmetry_equiv_pos_site_id
_symmetry_equiv_pos_as_xyz
1 x,y,z
2 1/2-x,-y,1/2+z
3 -x,1/2+y,1/2-z
4 1/2+x,1/2-y,-z
5 -x,-y,-z
6 -1/2+x,y,-1/2-z
7 x,-1/2-y,-1/2+z
8 -1/2-x,-1/2+y,z
_cell_length_a 12.754(2)
_cell_length_b 7.3778(6)
_cell_length_c 23.312(2)
_cell_angle_alpha 90
_cell_angle_beta 90
_cell_angle_gamma 90
_cell_formula_units_Z 8
loop_
_atom_type_symbol
_atom_type_radius_bond
C 0.68
H 0.23
N 0.68
O 0.68
loop_
_atom_site_label
_atom_site_type_symbol
_atom_site_fract_x
_atom_site_fract_y
_atom_site_fract_z
N1 N 0.79219(11) 0.1671(2) 0.36908(5)
H1 H 0.84280 0.09930 0.35750
O1 O 0.96955(12) 0.38432(19) 0.58795(5)
H2 H 1.0264(14) 0.338(3) 0.6043(8)
O2 O 0.62972(10) 0.28216(17) 0.35296(5)
N2 N 0.79971(12) 0.2618(2) 0.42030(6)
C1 C 0.70018(15) 0.0820(2) 0.28257(7)
C2 C 0.70359(15) 0.1837(2) 0.33785(7)
N3 N 0.97149(13) 0.2987(2) 0.53422(6)
C3 C 0.88751(15) 0.2464(3) 0.44723(7)
C4 C 0.78967(15) 0.0455(2) 0.25036(7)
H3 H 0.85550 0.07450 0.26490
C5 C 0.89030(15) 0.3369(3) 0.50397(7)
C6 C 0.60178(15) 0.0347(3) 0.26083(7)
H4 H 0.54160 0.05910 0.28200
C7 C 0.78069(16) -0.0342(3) 0.19649(7)
H5 H 0.84040 -0.05640 0.17470
C8 C 0.68343(17) -0.0801(3) 0.17536(7)
H6 H 0.67770 -0.13270 0.13920
C9 C 0.59386(16) -0.0485(3) 0.20766(7)
H7 H 0.52860 -0.08300 0.19360
C10 C 0.98105(15) 0.1425(3) 0.42656(8)
H8 H 0.96680 0.01490 0.42880
H9 H 1.04060 0.17110 0.45010
H10 H 0.99580 0.17490 0.38750
C11 C 0.80312(16) 0.4580(3) 0.52259(8)
H11 H 0.79370 0.44760 0.56330
H12 H 0.73960 0.42330 0.50340
H13 H 0.81990 0.58120 0.51300
#END
