
#######################################################################
#
#                 Cambridge Crystallographic Data Centre
#                                CCDC
#
#######################################################################
#
# If this CIF has been generated from an entry in the Cambridge
# Structural Database, then it will include bibliographic, chemical,
# crystal, experimental, refinement or atomic coordinate data resulting
# from the CCDC's data processing and validation procedures.
#
#######################################################################

data_CSD_CIF_TASBOF
_audit_creation_date 2005-12-15
_audit_creation_method CSD-ConQuest-V1
_database_code_CSD TASBOF
_database_code_depnum_ccdc_archive 'CCDC 271925'
_chemical_formula_sum 'C23 H23 N1 O7'
_chemical_formula_moiety
;
C23 H23 N1 O7
;
_journal_coden_Cambridge 35
_journal_volume 70
_journal_year 2005
_journal_page_first 6907
_journal_name_full 'J.Org.Chem. '
loop_
_publ_author_name
"Youjun Yang"
"J.O.Escobedo"
"A.Wong"
"C.M.Schowalter"
"M.C.Touchy"
"Lijuan Jiao"
"W.E.Crowe"
"F.R.Fronczek"
"R.M.Strongin"
_chemical_name_systematic
;
2,2',4,4'-Tetramethoxy-4''-nitrotrityl alcohol
;
_cell_volume   2134.122
_exptl_crystal_colour 'yellow'
_exptl_crystal_density_diffrn 1.324
_diffrn_ambient_temperature 298
#These two values have been output from a single CSD field.
_refine_ls_R_factor_gt 0.045
_refine_ls_wR_factor_gt 0.045
_symmetry_cell_setting monoclinic
_symmetry_space_group_name_H-M 'P 21/c'
_symmetry_Int_Tables_number 14
loop_
_symmetry_equiv_pos_site_id
_symmetry_equiv_pos_as_xyz
1 x,y,z
2 -x,1/2+y,1/2-z
3 -x,-y,-z
4 x,-1/2-y,-1/2+z
_cell_length_a 8.314(2)
_cell_length_b 18.175(5)
_cell_length_c 14.129(4)
_cell_angle_alpha 90
_cell_angle_beta 91.634(11)
_cell_angle_gamma 90
_cell_formula_units_Z 4
loop_
_atom_type_symbol
_atom_type_radius_bond
C 0.68
H 0.23
N 0.68
O 0.68
loop_
_atom_site_label
_atom_site_type_symbol
_atom_site_fract_x
_atom_site_fract_y
_atom_site_fract_z
O1 O 0.1206(2) 0.55524(9) 0.37654(14)
O2 O 0.19447(16) 0.80876(7) 0.44008(10)
O3 O 0.76070(18) 0.86747(9) -0.04114(10)
O4 O 0.68964(15) 0.77080(8) 0.26551(10)
O5 O 0.25116(15) 0.88441(8) 0.27292(10)
H1 H 0.207(3) 0.8871(13) 0.3266(17)
O6 O 0.85822(19) 1.02723(9) 0.55829(11)
O7 O 0.8543(2) 0.92742(10) 0.63975(13)
N1 N 0.8122(2) 0.96411(11) 0.57136(13)
C1 C 0.3863(2) 0.83545(10) 0.28729(14)
C2 C 0.3224(2) 0.7583(1) 0.30923(14)
C3 C 0.3489(2) 0.69780(11) 0.25264(15)
H2 H 0.41260 0.70330 0.20010
C4 C 0.2837(3) 0.62887(12) 0.27133(17)
H3 H 0.30310 0.58930 0.23160
C5 C 0.1906(2) 0.62018(11) 0.34903(16)
C6 C 0.1608(2) 0.67913(11) 0.40727(15)
H4 H 0.09770 0.67290 0.46000
C7 C 0.2243(2) 0.74722(10) 0.38766(14)
C8 C 0.4788(2) 0.83931(10) 0.19508(13)
C9 C 0.4183(2) 0.87669(11) 0.11688(14)
H5 H 0.31450 0.89560 0.11850
C10 C 0.5060(2) 0.88724(11) 0.03583(14)
H6 H 0.46120 0.91260 -0.01570
C11 C 0.6603(2) 0.85965(11) 0.03272(14)
C12 C 0.7237(2) 0.82064(10) 0.10933(14)
H7 H 0.82720 0.80150 0.10700
C13 C 0.6345(2) 0.81007(10) 0.18895(13)
C14 C 0.4958(2) 0.86766(10) 0.36697(13)
C15 C 0.5405(2) 0.94097(10) 0.36033(14)
H8 H 0.49970 0.96920 0.31030
C16 C 0.6440(2) 0.97278(11) 0.42631(14)
H9 H 0.67440 1.02180 0.42040
C17 C 0.7014(2) 0.93111(10) 0.50074(13)
C18 C 0.6565(2) 0.85871(11) 0.51114(14)
H10 H 0.69400 0.83140 0.56290
C19 C 0.5553(2) 0.82744(10) 0.44368(14)
H11 H 0.52610 0.77830 0.44970
C20 C 0.1316(3) 0.49384(13) 0.3166(2)
H12 H 0.08880 0.50620 0.25480
H13 H 0.07120 0.45380 0.34200
H14 H 0.24230 0.47960 0.31200
C21 C 0.1098(3) 0.80096(15) 0.52491(16)
H15 H 0.00150 0.78550 0.51030
H16 H 0.10800 0.84730 0.55750
H17 H 0.16230 0.76480 0.56450
C22 C 0.7087(3) 0.91207(16) -0.11896(18)
H18 H 0.61540 0.89030 -0.14920
H19 H 0.79330 0.91560 -0.16360
H20 H 0.68230 0.96030 -0.09660
C23 C 0.8563(3) 0.75666(16) 0.2755(2)
H21 H 0.88760 0.72220 0.22800
H22 H 0.87980 0.73650 0.33710
H23 H 0.91490 0.80170 0.26820
#END
