
#######################################################################
#
#                 Cambridge Crystallographic Data Centre
#                                CCDC
#
#######################################################################
#
# If this CIF has been generated from an entry in the Cambridge
# Structural Database, then it will include bibliographic, chemical,
# crystal, experimental, refinement or atomic coordinate data resulting
# from the CCDC's data processing and validation procedures.
#
#######################################################################

data_CSD_CIF_TASLII
_audit_creation_date 1997-01-23
_audit_creation_method CSD-ConQuest-V1
_database_code_CSD TASLII
_chemical_formula_sum 'C22 H27 N1 O4'
_chemical_formula_moiety
;
C22 H27 N1 O4
;
_journal_coden_Cambridge 35
_journal_volume 61
_journal_year 1996
_journal_page_first 2536
_journal_name_full 'J.Org.Chem. '
loop_
_publ_author_name
"Yao-Jung Chen"
"Wen-Hsin Chang"
_chemical_name_systematic
;
4-(p-Nitrobenzoyloxy)-2,6,6-trimethyl-8-methylenetricyclo(5.3.1.0^1,5^)undecan
e
;
_chemical_melting_point 454.15
_cell_volume   1914.336
_exptl_crystal_colour 'colorless'
_exptl_crystal_density_diffrn 1.287
_exptl_special_details
;
Melting point range 454.15-456.15K

;
_diffrn_ambient_temperature ?
_diffrn_special_details
;
The study was carried out at room temperature,in the range 283-303K

;
#These two values have been output from a single CSD field.
_refine_ls_R_factor_gt 0.0515
_refine_ls_wR_factor_gt 0.0515
_symmetry_cell_setting triclinic
_symmetry_space_group_name_H-M 'P -1'
_symmetry_Int_Tables_number 2
loop_
_symmetry_equiv_pos_site_id
_symmetry_equiv_pos_as_xyz
1 x,y,z
2 -x,-y,-z
_cell_length_a 7.699(3)
_cell_length_b 13.700(4)
_cell_length_c 18.802(5)
_cell_angle_alpha 80.56(2)
_cell_angle_beta 78.24(2)
_cell_angle_gamma 89.79(3)
_cell_formula_units_Z 4
loop_
_atom_type_symbol
_atom_type_radius_bond
C 0.68
H 0.23
N 0.68
O 0.68
loop_
_atom_site_label
_atom_site_type_symbol
_atom_site_fract_x
_atom_site_fract_y
_atom_site_fract_z
N1 N -0.0721(6) 0.8602(3) 0.3955(2)
O1 O 0.2462(3) 0.9130(2) 0.6741(1)
O2 O 0.5025(4) 0.8959(3) 0.5960(2)
O3 O 0.0097(5) 0.8492(3) 0.3343(2)
O4 O -0.2319(5) 0.8653(3) 0.4120(2)
C1 C 0.2931(5) 0.8281(3) 0.8491(2)
C2 C 0.1372(5) 0.8967(3) 0.8430(2)
C3 C 0.2205(6) 0.9826(3) 0.7842(3)
C4 C 0.3478(5) 0.9367(3) 0.7278(2)
C5 C 0.4097(5) 0.8413(3) 0.7696(2)
C6 C 0.6079(5) 0.8373(3) 0.7782(2)
C7 C 0.5893(5) 0.8071(3) 0.8635(2)
C8 C 0.5591(5) 0.6977(3) 0.8914(2)
C9 C 0.3946(6) 0.6533(3) 0.8767(3)
C10 C 0.2352(5) 0.7208(3) 0.8800(2)
C11 C 0.4233(5) 0.8594(3) 0.8933(2)
C12 C 0.6641(7) 0.6470(3) 0.9298(3)
C13 C 0.7145(6) 0.7644(3) 0.7345(2)
C14 C 0.7067(6) 0.9377(3) 0.7541(3)
C15 C 0.0392(6) 0.9256(4) 0.9158(3)
C16 C 0.3439(6) 0.8973(3) 0.6096(2)
C17 C 0.2299(5) 0.8853(3) 0.5557(2)
C18 C 0.3151(5) 0.8753(3) 0.4844(2)
C19 C 0.2167(6) 0.8661(3) 0.4327(2)
C20 C 0.0352(6) 0.8659(3) 0.4525(2)
C21 C -0.0529(5) 0.8751(3) 0.5218(2)
C22 C 0.0458(6) 0.8839(3) 0.5739(2)
N2 N -0.6761(6) 0.6401(3) 0.6047(2)
O5 O -0.0794(3) 0.5869(2) 0.3259(1)
O6 O 0.0985(4) 0.6042(3) 0.4039(2)
O7 O -0.6553(5) 0.6504(3) 0.6659(2)
O8 O -0.8184(5) 0.6348(3) 0.5877(2)
C23 C 0.1415(5) 0.6716(3) 0.1515(2)
C24 C -0.0203(5) 0.6037(3) 0.1571(2)
C25 C 0.0050(6) 0.5180(3) 0.2158(2)
C26 C 0.0747(5) 0.5630(3) 0.2722(2)
C27 C 0.1797(5) 0.6582(3) 0.2304(2)
C28 C 0.3856(5) 0.6632(3) 0.2218(2)
C29 C 0.4532(5) 0.6932(3) 0.1374(2)
C30 C 0.4495(5) 0.8015(3) 0.1088(2)
C31 C 0.2712(6) 0.8468(3) 0.1235(3)
C32 C 0.1163(5) 0.7789(3) 0.1204(2)
C33 C 0.3177(5) 0.6409(3) 0.1064(2)
C34 C 0.5926(6) 0.8533(3) 0.0702(3)
C35 C 0.4483(6) 0.7359(3) 0.2654(2)
C36 C 0.4602(6) 0.5629(3) 0.2460(3)
C37 C -0.0463(6) 0.5744(4) 0.0854(3)
C38 C -0.0475(6) 0.6024(3) 0.3904(2)
C39 C -0.2140(5) 0.6150(3) 0.4441(2)
C40 C -0.1995(5) 0.6251(3) 0.5155(2)
C41 C -0.3508(6) 0.6342(3) 0.5676(2)
C42 C -0.5122(5) 0.6341(3) 0.5477(2)
C43 C -0.5309(5) 0.6249(3) 0.4781(2)
C44 C -0.3793(6) 0.6157(3) 0.4263(2)
H1 H 0.05040 0.85640 0.82330
H2 H 0.28120 1.02930 0.80510
H3 H 0.13530 1.01890 0.76310
H4 H 0.44730 0.98130 0.69760
H5 H 0.38360 0.78360 0.74480
H6 H 0.70160 0.82910 0.87900
H7 H 0.36160 0.58410 0.90860
H8 H 0.42530 0.63030 0.82380
H9 H 0.15440 0.69700 0.85310
H10 H 0.16100 0.71910 0.93330
H11 H 0.39810 0.83820 0.94300
H12 H 0.44740 0.93760 0.88630
H13 H 0.77200 0.68120 0.94170
H14 H 0.63970 0.57870 0.94970
H15 H 0.84050 0.75550 0.74260
H16 H 0.65630 0.69560 0.74670
H17 H 0.71080 0.77730 0.68440
H18 H 0.64070 0.99080 0.78510
H19 H 0.82520 0.93630 0.76470
H20 H 0.71170 0.95510 0.70560
H21 H -0.02300 0.84580 0.95770
H22 H 0.11950 0.97220 0.93810
H23 H -0.07720 0.96580 0.90500
H24 H 0.44130 0.87870 0.47390
H25 H 0.26310 0.85540 0.39160
H26 H -0.17460 0.87420 0.53560
H27 H -0.01380 0.89510 0.62230
H28 H -0.13300 0.63770 0.17690
H29 H 0.08670 0.47330 0.19700
H30 H -0.11110 0.48430 0.23540
H31 H 0.14610 0.51870 0.30360
H32 H 0.12990 0.71630 0.25230
H33 H 0.58020 0.67380 0.12070
H34 H 0.28090 0.91050 0.08960
H35 H 0.24150 0.86300 0.17670
H36 H 0.00210 0.79520 0.14830
H37 H 0.08130 0.78320 0.07640
H38 H 0.33150 0.66220 0.05540
H39 H 0.32900 0.57140 0.11440
H40 H 0.71250 0.81580 0.06640
H41 H 0.58680 0.92030 0.05080
H42 H 0.41450 0.80410 0.24640
H43 H 0.57890 0.73690 0.25360
H44 H 0.40460 0.71910 0.31250
H45 H 0.58980 0.56910 0.23030
H46 H 0.42080 0.50570 0.22020
H47 H 0.43350 0.53430 0.29520
H48 H -0.05440 0.64430 0.04320
H49 H 0.04830 0.54620 0.06560
H50 H -0.17420 0.54580 0.09570
H51 H -0.07160 0.61980 0.52650
H52 H -0.34110 0.63950 0.61660
H53 H -0.64570 0.62430 0.46790
H54 H -0.39580 0.61220 0.37890
#END
