
#######################################################################
#
#                 Cambridge Crystallographic Data Centre
#                                CCDC
#
#######################################################################
#
# If this CIF has been generated from an entry in the Cambridge
# Structural Database, then it will include bibliographic, chemical,
# crystal, experimental, refinement or atomic coordinate data resulting
# from the CCDC's data processing and validation procedures.
#
#######################################################################

data_CSD_CIF_TASTEM
_audit_creation_date 1996-12-16
_audit_creation_method CSD-ConQuest-V1
_database_code_CSD TASTEM
_database_code_depnum_ccdc_archive 'CCDC 711376'
_chemical_formula_sum 'C22 H24 N2 O2'
_chemical_formula_moiety
;
C22 H24 N2 O2
;
_journal_coden_Cambridge 35
_journal_volume 61
_journal_year 1996
_journal_page_first 3766
_journal_name_full 'J.Org.Chem. '
loop_
_publ_author_name
"T.Polonski"
"M.Pham"
"M.J.Milewska"
"M.Gdaniec"
_chemical_name_systematic
;
N-Nitroso-1,5-dimethyl-2,4-diphenyl-3-azabicyclo(3.3.1)nonan-9-one
;
_chemical_melting_point 447.15
_cell_volume   1864.887
_exptl_crystal_colour 'yellow'
_exptl_crystal_density_diffrn 1.241
_exptl_special_details
;
Melts with decomposition.

;
_diffrn_ambient_temperature ?
_diffrn_special_details
;
The study was carried out at room temperature,in the range 283-303K

;
_refine_special_details
;
The nitrosyl O atom is disordered over two positions.

;
#These two values have been output from a single CSD field.
_refine_ls_R_factor_gt 0.0363
_refine_ls_wR_factor_gt 0.0363
_symmetry_cell_setting orthorhombic
_symmetry_space_group_name_H-M 'P n m a'
_symmetry_Int_Tables_number 62
loop_
_symmetry_equiv_pos_site_id
_symmetry_equiv_pos_as_xyz
1 x,y,z
2 1/2-x,-y,1/2+z
3 1/2+x,1/2-y,1/2-z
4 -x,1/2+y,-z
5 -x,-y,-z
6 -1/2+x,y,-1/2-z
7 -1/2-x,-1/2+y,-1/2+z
8 x,-1/2-y,z
_cell_length_a 8.043(2)
_cell_length_b 20.900(4)
_cell_length_c 11.094(2)
_cell_angle_alpha 90
_cell_angle_beta 90
_cell_angle_gamma 90
_cell_formula_units_Z 4
loop_
_atom_type_symbol
_atom_type_radius_bond
C 0.68
H 0.23
N 0.68
O 0.68
loop_
_atom_site_label
_atom_site_type_symbol
_atom_site_fract_x
_atom_site_fract_y
_atom_site_fract_z
N1 N 0.2505(2) 0.25000 0.4724(1)
C1 C 0.2954(2) 0.3121(1) 0.5279(1)
C2 C 0.4686(2) 0.3110(1) 0.5919(1)
C3 C 0.6185(2) 0.3097(1) 0.5044(2)
C4 C 0.6286(3) 0.25000 0.4283(2)
C5 C 0.4765(2) 0.25000 0.6653(2)
C6 C 0.4820(3) 0.3695(1) 0.6737(2)
C7 C 0.2798(2) 0.3670(1) 0.4393(1)
C8 C 0.3352(2) 0.3631(1) 0.3209(1)
C9 C 0.3261(2) 0.4159(1) 0.2460(2)
C10 C 0.2621(3) 0.4726(1) 0.2875(2)
C11 C 0.2051(3) 0.4770(1) 0.4040(2)
C12 C 0.2124(2) 0.4243(1) 0.4788(2)
O1 O 0.4931(2) 0.25000 0.7742(1)
O2 O 0.0187(3) 0.2934(1) 0.4111(2)
N2 N 0.0973(2) 0.25000 0.4220(2)
H1 H 0.2157(19) 0.3203(7) 0.5965(14)
H2 H 0.7167(23) 0.3135(8) 0.5570(17)
H3 H 0.6126(22) 0.3488(9) 0.4560(16)
H4 H 0.7328(34) 0.25000 0.3849(24)
H5 H 0.5372(30) 0.25000 0.3660(22)
H6 H 0.3849(26) 0.3718(9) 0.7342(19)
H7 H 0.5921(26) 0.3680(9) 0.7155(17)
H8 H 0.4820(21) 0.4082(9) 0.6254(18)
H9 H 0.3810(21) 0.3239(8) 0.2925(14)
H10 H 0.3687(27) 0.4087(10) 0.1657(22)
H11 H 0.2534(30) 0.5093(13) 0.2310(21)
H12 H 0.1580(27) 0.5175(12) 0.4324(20)
H13 H 0.1686(25) 0.4266(10) 0.5610(19)
C3G C 0.6185(2) 0.1903(1) 0.5044(2)
C2G C 0.4686(2) 0.1890(1) 0.5919(1)
C1G C 0.2954(2) 0.1879(1) 0.5279(1)
O2G O 0.0187(3) 0.2066(1) 0.4111(2)
C7G C 0.2798(2) 0.1330(1) 0.4393(1)
C8G C 0.3352(2) 0.1369(1) 0.3209(1)
C9G C 0.3261(2) 0.0841(1) 0.2460(2)
C10G C 0.2621(3) 0.0274(1) 0.2875(2)
C11G C 0.2051(3) 0.0230(1) 0.4040(2)
C12G C 0.2124(2) 0.0757(1) 0.4788(2)
H13G H 0.1686(25) 0.0734(10) 0.5610(19)
H12G H 0.1580(27) -0.0175(12) 0.4324(20)
H11G H 0.2534(30) -0.0093(13) 0.2310(21)
H10G H 0.3687(27) 0.0913(10) 0.1657(22)
H9G H 0.3810(21) 0.1761(8) 0.2925(14)
H1G H 0.2157(19) 0.1797(7) 0.5965(14)
C6G C 0.4820(3) 0.1305(1) 0.6737(2)
H6G H 0.3849(26) 0.1282(9) 0.7342(19)
H7G H 0.5921(26) 0.1320(9) 0.7155(17)
H8G H 0.4820(21) 0.0918(9) 0.6254(18)
H2G H 0.7167(23) 0.1865(8) 0.5570(17)
H3G H 0.6126(22) 0.1512(9) 0.4560(16)
#END
