
#######################################################################
#
#                 Cambridge Crystallographic Data Centre
#                                CCDC
#
#######################################################################
#
# If this CIF has been generated from an entry in the Cambridge
# Structural Database, then it will include bibliographic, chemical,
# crystal, experimental, refinement or atomic coordinate data resulting
# from the CCDC's data processing and validation procedures.
#
#######################################################################

data_CSD_CIF_TATGIG
_audit_creation_date 2012-04-25
_audit_creation_method CSD-ConQuest-V1
_database_code_CSD TATGIG
_database_code_depnum_ccdc_archive 'CCDC 789921 (not 803372 as published)'
_chemical_formula_sum 'C19 H21 N3 O1'
_chemical_formula_moiety
;
C19 H21 N3 O1
;
_journal_coden_Cambridge 603
_journal_volume 31
_journal_year 2012
_journal_page_first 262
_journal_name_full 'Jiegou Huaxue(Chin.)(Chin.J.Struct.Chem.) '
loop_
_publ_author_name
"Z.S.Sahin"
"Z.Ozdemir"
"A.Karakurt"
"S.Isik"
_chemical_name_systematic
;
N-Butoxy-1-(2-naphthyl)-2-(1H-pyrazol-1-yl)ethanimine
;
_chemical_name_common
;
1-(Naphthalene-2-yl)-2-(1H-pyrazol-1-yl)ethanone O-butyl oxime
;
_cell_volume    842.193
_exptl_crystal_colour 'yellow'
_exptl_crystal_density_diffrn 1.212
_exptl_crystal_description 'prism'
_diffrn_ambient_temperature 293
#These two values have been output from a single CSD field.
_refine_ls_R_factor_gt 0.0457
_refine_ls_wR_factor_gt 0.0457
_symmetry_cell_setting triclinic
_symmetry_space_group_name_H-M 'P -1'
_symmetry_Int_Tables_number 2
loop_
_symmetry_equiv_pos_site_id
_symmetry_equiv_pos_as_xyz
1 x,y,z
2 -x,-y,-z
_cell_length_a 9.5599(6)
_cell_length_b 9.6679(7)
_cell_length_c 11.0651(9)
_cell_angle_alpha 108.020(6)
_cell_angle_beta 111.027(6)
_cell_angle_gamma 102.722(6)
_cell_formula_units_Z 2
loop_
_atom_type_symbol
_atom_type_radius_bond
C 0.68
H 0.23
N 0.68
O 0.68
loop_
_atom_site_label
_atom_site_type_symbol
_atom_site_fract_x
_atom_site_fract_y
_atom_site_fract_z
C1 C -0.1525(2) -0.2804(2) 0.35212(18)
H1 H -0.12230 -0.36480 0.35550
C2 C 0.0439(2) -0.19765(19) 0.26601(17)
H2 H 0.07640 -0.28100 0.26870
C3 C 0.11505(19) -0.09616(17) 0.22450(16)
H3 H 0.19610 -0.11050 0.20030
C4 C 0.06732(16) 0.03171(16) 0.21757(14)
C5 C -0.05147(17) 0.05133(16) 0.25477(15)
H4 H -0.08360 0.13450 0.25050
C6 C -0.12667(18) -0.05206(17) 0.29967(15)
C7 C -0.2466(2) -0.0308(2) 0.34130(18)
H5 H -0.27990 0.05200 0.33780
C8 C -0.3144(2) -0.1313(2) 0.38689(19)
H6 H -0.39300 -0.11610 0.41450
C9 C -0.2663(2) -0.2565(2) 0.39207(18)
H7 H -0.31290 -0.32390 0.42330
C10 C -0.07854(18) -0.17915(17) 0.30514(15)
C11 C 0.14851(16) 0.14218(16) 0.17431(14)
C12 C 0.45869(19) 0.19599(19) 0.08141(18)
H8 H 0.41170 0.09230 0.00330
H9 H 0.54220 0.19660 0.16380
C13 C 0.52941(18) 0.31604(17) 0.03912(17)
H10 H 0.56470 0.41980 0.11380
H11 H 0.44640 0.30820 -0.04780
C14 C 0.6703(2) 0.2964(2) 0.0144(2)
H12 H 0.75560 0.31110 0.10340
H13 H 0.63640 0.18990 -0.05510
C15 C 0.7374(2) 0.4081(2) -0.0380(2)
H14 H 0.82620 0.38880 -0.05150
H15 H 0.77420 0.51400 0.03130
H16 H 0.65460 0.39280 -0.12730
C16 C 0.09359(17) 0.27336(16) 0.15839(15)
H17 H 0.12070 0.30130 0.09040
H18 H -0.02290 0.23720 0.12050
C17 C 0.3383(2) 0.6191(2) 0.49010(19)
H19 H 0.43080 0.70440 0.56240
C18 C 0.1880(2) 0.57273(18) 0.48406(18)
H20 H 0.16360 0.62430 0.55530
C19 C 0.32113(19) 0.51229(19) 0.36687(18)
H21 H 0.40140 0.50990 0.33850
N1 N 0.26632(15) 0.12023(14) 0.15195(14)
N2 N 0.16800(14) 0.41151(13) 0.29397(12)
N3 N 0.08261(16) 0.44655(15) 0.36546(14)
O1 O 0.33719(13) 0.23392(12) 0.11552(12)
#END
