
#######################################################################
#
#                 Cambridge Crystallographic Data Centre
#                                CCDC
#
#######################################################################
#
# If this CIF has been generated from an entry in the Cambridge
# Structural Database, then it will include bibliographic, chemical,
# crystal, experimental, refinement or atomic coordinate data resulting
# from the CCDC's data processing and validation procedures.
#
#######################################################################

data_CSD_CIF_TATGOM
_audit_creation_date 2012-04-25
_audit_creation_method CSD-ConQuest-V1
_database_code_CSD TATGOM
_database_code_depnum_ccdc_archive 'CCDC 705559'
_chemical_formula_sum 'C28 H30 N2 O11'
_chemical_formula_moiety
;
C28 H30 N2 O11
;
_journal_coden_Cambridge 603
_journal_volume 31
_journal_year 2012
_journal_page_first 280
_journal_name_full 'Jiegou Huaxue(Chin.)(Chin.J.Struct.Chem.) '
loop_
_publ_author_name
"Jian-Rong Han"
"Xiao-Li Zhen"
"Xia Tian"
"Shou-Xin Liu"
_chemical_name_systematic
;
15,16-bis((4-Nitrophenoxy)methyl)-2,3,5,6,8,9,11,12-octahydro-1,4,7,10,13-benz
opentaoxacyclopentadecine
;
_chemical_name_common
;
2,3,5,6,8,9,11,12-Octahydrobenzo[b][1,4,7,10,13]pentaoxacyclopentadecine
;
_cell_volume   2689.181
_exptl_crystal_colour 'colorless'
_exptl_crystal_density_diffrn 1.409
_exptl_crystal_description 'block'
_diffrn_ambient_temperature 293
#These two values have been output from a single CSD field.
_refine_ls_R_factor_gt 0.0712
_refine_ls_wR_factor_gt 0.0712
_symmetry_cell_setting monoclinic
_symmetry_space_group_name_H-M 'P 21/c'
_symmetry_Int_Tables_number 14
loop_
_symmetry_equiv_pos_site_id
_symmetry_equiv_pos_as_xyz
1 x,y,z
2 -x,1/2+y,1/2-z
3 -x,-y,-z
4 x,-1/2-y,-1/2+z
_cell_length_a 12.840(4)
_cell_length_b 9.425(3)
_cell_length_c 22.447(7)
_cell_angle_alpha 90
_cell_angle_beta 98.128(7)
_cell_angle_gamma 90
_cell_formula_units_Z 4
loop_
_atom_type_symbol
_atom_type_radius_bond
C 0.68
H 0.23
N 0.68
O 0.68
loop_
_atom_site_label
_atom_site_type_symbol
_atom_site_fract_x
_atom_site_fract_y
_atom_site_fract_z
O1 O 0.3807(3) -0.3638(4) 0.06311(15)
O2 O 0.3248(4) -0.6125(5) -0.0045(2)
O3 O 0.1011(4) -0.4499(5) -0.0828(2)
O4 O 0.1484(2) -0.1403(4) -0.08199(15)
O5 O 0.2951(2) -0.1359(3) 0.02182(13)
O6 O 0.6783(3) -0.0556(4) 0.21898(14)
O7 O 1.0606(4) 0.2769(5) 0.35116(18)
O8 O 0.9462(5) 0.3181(8) 0.4058(3)
O9 O 0.5530(2) 0.2212(3) 0.15810(14)
O10 O 0.8492(3) 0.6855(5) 0.28548(18)
O11 O 0.7316(4) 0.6757(5) 0.3424(2)
N1 N 0.9750(5) 0.2636(7) 0.3635(3)
N2 N 0.7686(4) 0.6372(5) 0.2990(2)
C1 C 0.8976(4) 0.1777(6) 0.3249(2)
C2 C 0.9292(4) 0.1074(6) 0.2793(2)
H1 H 0.99860 0.11440 0.27220
C3 C 0.8587(4) 0.0237(6) 0.2426(2)
H2 H 0.88040 -0.02860 0.21140
C4 C 0.7558(4) 0.0194(5) 0.2530(2)
C5 C 0.7251(4) 0.0926(6) 0.2997(2)
H3 H 0.65540 0.08880 0.30670
C6 C 0.7975(5) 0.1728(6) 0.3369(2)
H4 H 0.77780 0.22220 0.36930
C7 C 0.6964(4) -0.1111(5) 0.16207(19)
H5 H 0.72490 -0.20640 0.16670
H6 H 0.74580 -0.05170 0.14450
C8 C 0.5909(4) -0.1122(6) 0.12261(19)
C9 C 0.5380(4) -0.2398(5) 0.11130(19)
H7 H 0.56910 -0.32330 0.12720
C10 C 0.4399(4) -0.2454(5) 0.07691(19)
C11 C 0.4249(4) -0.4978(5) 0.0774(2)
H8 H 0.44800 -0.50550 0.12040
H9 H 0.48470 -0.51400 0.05630
C12 C 0.3384(5) -0.6034(5) 0.0576(3)
H10 H 0.35710 -0.69560 0.07510
H11 H 0.27340 -0.57280 0.07110
C13 C 0.2227(6) -0.6049(8) -0.0348(3)
H12 H 0.18100 -0.67570 -0.01750
H13 H 0.22470 -0.63210 -0.07630
C14 C 0.1694(7) -0.4752(10) -0.0351(3)
H14 H 0.13310 -0.47180 0.00000
H15 H 0.22100 -0.39940 -0.03100
C15 C 0.0280(5) -0.3387(7) -0.0798(3)
H16 H 0.02400 -0.31760 -0.03790
H17 H -0.04100 -0.37030 -0.09820
C16 C 0.0555(4) -0.2076(7) -0.1101(3)
H18 H 0.06410 -0.23040 -0.15130
H19 H -0.00260 -0.14140 -0.11150
C17 C 0.1334(4) -0.0609(6) -0.0310(2)
H20 H 0.09850 -0.11860 -0.00400
H21 H 0.08930 0.02070 -0.04290
C18 C 0.2383(4) -0.0126(5) 0.0004(2)
H22 H 0.27610 0.03880 -0.02730
H23 H 0.22910 0.04960 0.03370
C19 C 0.3915(4) -0.1197(5) 0.05444(19)
C20 C 0.4449(4) 0.0057(5) 0.06430(19)
H24 H 0.41440 0.08870 0.04750
C21 C 0.5449(4) 0.0119(5) 0.09925(19)
C22 C 0.5969(4) 0.1527(5) 0.1095(2)
H25 H 0.67220 0.14080 0.12020
H26 H 0.58400 0.20980 0.07330
C23 C 0.6090(4) 0.3258(5) 0.1886(2)
C24 C 0.5626(4) 0.3822(5) 0.2356(2)
H27 H 0.49690 0.35060 0.24290
C25 C 0.6149(4) 0.4852(5) 0.2711(2)
H28 H 0.58560 0.52250 0.30330
C26 C 0.7100(4) 0.5328(5) 0.2591(2)
C27 C 0.7538(4) 0.4813(5) 0.2119(2)
H29 H 0.81840 0.51560 0.20400
C28 C 0.7023(4) 0.3787(5) 0.1758(2)
H30 H 0.73090 0.34510 0.14270
#END
