
#######################################################################
#
#                 Cambridge Crystallographic Data Centre
#                                CCDC
#
#######################################################################
#
# If this CIF has been generated from an entry in the Cambridge
# Structural Database, then it will include bibliographic, chemical,
# crystal, experimental, refinement or atomic coordinate data resulting
# from the CCDC's data processing and validation procedures.
#
#######################################################################

data_CSD_CIF_TATNIM
_audit_creation_date 2005-12-15
_audit_creation_method CSD-ConQuest-V1
_database_code_CSD TATNIM
_database_code_depnum_ccdc_archive 'CCDC 284193'
_chemical_formula_sum 'C20 H23 N1 O8'
_chemical_formula_moiety
;
C20 H23 N1 O8
;
_journal_coden_Cambridge 1336
_journal_volume 7
_journal_year 2005
_journal_page_first 3167
_journal_name_full 'Org.Lett. '
loop_
_publ_author_name
"S.Grecian"
"A.D.Wrobleski"
"J.Aube"
_chemical_name_systematic
;
Ethyl 
9,9-dimethoxy-6-(2-nitrophenyl)-3,7-dioxobicyclo(3.3.1)nonane-2-carboxylate
;
_cell_volume   1861.258
_exptl_crystal_colour 'colorless'
_exptl_crystal_density_diffrn 1.447
_exptl_crystal_description 'prism'
_exptl_crystal_preparation 'hexanes/chloroform'
_diffrn_ambient_temperature 100
#These two values have been output from a single CSD field.
_refine_ls_R_factor_gt 0.04
_refine_ls_wR_factor_gt 0.04
_symmetry_cell_setting triclinic
_symmetry_space_group_name_H-M 'P -1'
_symmetry_Int_Tables_number 2
loop_
_symmetry_equiv_pos_site_id
_symmetry_equiv_pos_as_xyz
1 x,y,z
2 -x,-y,-z
_cell_length_a 8.4839(12)
_cell_length_b 11.9599(18)
_cell_length_c 19.058(3)
_cell_angle_alpha 74.294(3)
_cell_angle_beta 89.534(4)
_cell_angle_gamma 89.004(4)
_cell_formula_units_Z 4
loop_
_atom_type_symbol
_atom_type_radius_bond
C 0.68
H 0.23
N 0.68
O 0.68
loop_
_atom_site_label
_atom_site_type_symbol
_atom_site_fract_x
_atom_site_fract_y
_atom_site_fract_z
C1 C 0.41602(18) 0.03019(13) 0.14009(8)
H1 H 0.48700 -0.00170 0.10780
C2 C 0.36132(18) 0.15460(13) 0.09657(8)
H2 H 0.46050 0.19930 0.08220
C3 C 0.27150(18) 0.21665(12) 0.14635(9)
C4 C 0.35302(19) 0.21181(13) 0.21687(9)
H3 H 0.28040 0.24180 0.24870
H4 H 0.44620 0.26240 0.20680
C5 C 0.40611(18) 0.08686(13) 0.25698(8)
H5 H 0.46740 0.08860 0.30130
C6 C 0.26377(18) 0.01034(13) 0.28017(8)
C7 C 0.20542(18) -0.05089(13) 0.23639(8)
C8 C 0.28098(19) -0.05583(13) 0.16594(8)
H6 H 0.19900 -0.04020 0.12770
H7 H 0.32250 -0.13560 0.17140
C9 C 0.51156(18) 0.03758(13) 0.20656(8)
C10 C 0.27794(18) 0.16054(12) 0.02563(8)
C11 C 0.35267(18) 0.18797(13) -0.04248(9)
N1 N 0.52538(16) 0.19883(11) -0.04863(7)
O1 O 0.60771(13) 0.12909(10) -0.00402(6)
O2 O 0.58026(14) 0.27461(10) -0.09915(7)
C12 C 0.2747(2) 0.20366(13) -0.10805(9)
H8 H 0.33120 0.22420 -0.15280
C13 C 0.1132(2) 0.18901(14) -0.10736(9)
H9 H 0.05730 0.19920 -0.15170
C14 C 0.0340(2) 0.15923(14) -0.04117(9)
H10 H -0.07660 0.14780 -0.04020
C15 C 0.11487(19) 0.14593(14) 0.02363(9)
H11 H 0.05750 0.12620 0.06820
O3 O 0.14843(14) 0.26938(10) 0.12931(7)
C16 C 0.18717(18) 0.00250(13) 0.35005(9)
O4 O 0.06536(13) -0.05124(10) 0.37078(6)
O5 O 0.26264(13) 0.05883(9) 0.39114(6)
C17 C 0.1956(2) 0.04709(14) 0.46323(9)
H12 H 0.19310 -0.03580 0.49090
H13 H 0.08630 0.07860 0.45900
C18 C 0.2963(2) 0.11314(16) 0.50175(10)
H14 H 0.25270 0.10710 0.55040
H15 H 0.29840 0.19500 0.47380
H16 H 0.40370 0.08060 0.50630
O6 O 0.07848(13) -0.11888(9) 0.25258(6)
H17 H 0.04520 -0.11820 0.29720
O7 O 0.63848(12) 0.11666(9) 0.18853(6)
C19 C 0.77389(18) 0.07955(14) 0.15467(9)
H18 H 0.85200 0.14140 0.14360
H19 H 0.74210 0.06240 0.10940
H20 H 0.82010 0.00950 0.18780
O8 O 0.56599(13) -0.07674(9) 0.23808(6)
C20 C 0.6371(2) -0.09610(15) 0.30825(9)
H21 H 0.69720 -0.16950 0.31970
H22 H 0.55480 -0.09990 0.34520
H23 H 0.70800 -0.03220 0.30790
C21 C 0.90973(18) 0.44400(13) 0.35871(8)
H24 H 0.97820 0.48380 0.38660
C22 C 0.86615(18) 0.32357(13) 0.41020(8)
H25 H 0.96910 0.28420 0.42760
C23 C 0.78619(19) 0.24505(13) 0.36923(9)
C24 C 0.86177(19) 0.24375(13) 0.29739(9)
H26 H 0.78870 0.20760 0.27000
H27 H 0.95890 0.19510 0.30710
C25 C 0.90394(18) 0.36576(13) 0.24972(8)
H28 H 0.96500 0.35760 0.20620
C26 C 0.75664(18) 0.43764(13) 0.22407(8)
C27 C 0.69412(18) 0.50747(13) 0.26310(9)
C28 C 0.76832(19) 0.52465(13) 0.33004(8)
H29 H 0.68740 0.51280 0.36900
H30 H 0.80310 0.60610 0.31950
C29 C 1.00630(18) 0.42683(13) 0.29358(8)
C30 C 0.77887(18) 0.33200(12) 0.47884(8)
C31 C 0.85173(18) 0.32870(12) 0.54499(9)
N2 N 1.02434(15) 0.32565(11) 0.55238(7)
O9 O 1.10450(13) 0.37768(11) 0.50010(6)
O10 O 1.08163(14) 0.27476(10) 0.61138(6)
C32 C 0.76941(19) 0.33108(13) 0.60810(9)
H31 H 0.82440 0.32660 0.65200
C33 C 0.60697(19) 0.34003(13) 0.60611(9)
H32 H 0.54880 0.34210 0.64860
C34 C 0.53006(19) 0.34602(14) 0.54143(9)
H33 H 0.41840 0.35350 0.53930
C35 C 0.61442(19) 0.34114(13) 0.47960(9)
H34 H 0.55830 0.34410 0.43620
O11 O 0.67753(15) 0.18258(10) 0.39444(7)
C36 C 0.68250(18) 0.43708(13) 0.15550(9)
O12 O 0.55615(14) 0.48558(10) 0.13431(6)
O13 O 0.76677(14) 0.38007(10) 0.11611(6)
C37 C 0.7062(2) 0.38641(15) 0.04374(9)
H35 H 0.58990 0.37990 0.04610
H36 H 0.74960 0.32050 0.02710
C38 C 0.7500(2) 0.49878(17) -0.01005(10)
H37 H 0.70740 0.50100 -0.05810
H38 H 0.86510 0.50450 -0.01320
H39 H 0.70620 0.56410 0.00610
O14 O 0.56451(13) 0.57420(9) 0.24377(6)
H40 H 0.52820 0.56640 0.20510
O15 O 1.13879(12) 0.35146(9) 0.31489(6)
C39 C 1.27141(19) 0.39769(15) 0.34295(9)
H41 H 1.35920 0.34140 0.35070
H42 H 1.24250 0.41320 0.38930
H43 H 1.30330 0.47010 0.30800
O16 O 1.05220(13) 0.53911(9) 0.25476(6)
C40 C 1.1230(2) 0.54763(15) 0.18503(9)
H44 H 1.17570 0.62240 0.16780
H45 H 1.04130 0.54190 0.15020
H46 H 1.20050 0.48440 0.18940
#END
