
#######################################################################
#
#                 Cambridge Crystallographic Data Centre
#                                CCDC
#
#######################################################################
#
# If this CIF has been generated from an entry in the Cambridge
# Structural Database, then it will include bibliographic, chemical,
# crystal, experimental, refinement or atomic coordinate data resulting
# from the CCDC's data processing and validation procedures.
#
#######################################################################

data_CSD_CIF_TATNAE
_audit_creation_date 2005-12-15
_audit_creation_method CSD-ConQuest-V1
_database_code_CSD TATNAE
_database_code_depnum_ccdc_archive 'CCDC 284191'
_chemical_formula_sum 'C18 H27 N1 O9'
_chemical_formula_moiety
;
C18 H27 N1 O9
;
_journal_coden_Cambridge 1336
_journal_volume 7
_journal_year 2005
_journal_page_first 3167
_journal_name_full 'Org.Lett. '
loop_
_publ_author_name
"S.Grecian"
"A.D.Wrobleski"
"J.Aube"
_chemical_name_systematic
;
Methyl 
5,5-diethoxy-6-(3-ethoxy-1-nitro-3-oxopropyl)-1-methyl-2-oxocyclohex-3-enecarb
oxylate
;
_cell_volume   2081.054
_exptl_crystal_colour 'colorless'
_exptl_crystal_density_diffrn 1.281
_exptl_crystal_description 'block'
_exptl_crystal_preparation 'hexane/diethyl ether'
_diffrn_ambient_temperature 100
_refine_special_details
;
Terminal moieties of one molecule is disordered over two sites with 
occupancies 0.919:0.081.
;
#These two values have been output from a single CSD field.
_refine_ls_R_factor_gt 0.0466
_refine_ls_wR_factor_gt 0.0466
_symmetry_cell_setting triclinic
_symmetry_space_group_name_H-M 'P -1'
_symmetry_Int_Tables_number 2
loop_
_symmetry_equiv_pos_site_id
_symmetry_equiv_pos_as_xyz
1 x,y,z
2 -x,-y,-z
_cell_length_a 8.978(3)
_cell_length_b 12.641(4)
_cell_length_c 18.581(6)
_cell_angle_alpha 80.985(7)
_cell_angle_beta 88.934(7)
_cell_angle_gamma 87.825(7)
_cell_formula_units_Z 4
loop_
_atom_type_symbol
_atom_type_radius_bond
C 0.68
H 0.23
N 0.68
O 0.68
loop_
_atom_site_label
_atom_site_type_symbol
_atom_site_fract_x
_atom_site_fract_y
_atom_site_fract_z
C1 C 0.2932(2) 0.00802(13) 0.33465(10)
C2 C 0.37657(18) 0.09806(12) 0.28551(8)
C3 C 0.27400(18) 0.14685(12) 0.22100(9)
H1 H 0.18210 0.17480 0.24390
C4 C 0.2215(2) 0.05972(15) 0.17848(12)
C5 C 0.1488(2) -0.0284(2) 0.23054(13)
H2 H 0.07730 -0.07020 0.21190
C6 C 0.1803(5) -0.04995(19) 0.3011(3)
H3 H 0.12810 -0.10480 0.33100
C7? C 0.203(3) 0.0535(9) 0.1913(15)
C8? C 0.112(3) -0.022(3) 0.2446(12)
H4? H 0.01100 -0.03830 0.23920
C9? C 0.199(7) -0.0624(18) 0.300(3)
H5? H 0.19950 -0.13710 0.31810
O1 O 0.31935(18) -0.01338(11) 0.39885(7)
C10 C 0.4168(2) 0.18306(13) 0.33217(9)
H6 H 0.46370 0.14770 0.37730
H7 H 0.32610 0.22270 0.34410
H8 H 0.48630 0.23290 0.30490
C11 C 0.52306(19) 0.05155(13) 0.25778(9)
O2 O 0.61766(13) 0.10658(10) 0.22552(7)
O3 O 0.53485(15) -0.05468(9) 0.27514(7)
C12 C 0.6712(3) -0.10350(17) 0.25068(12)
H9 H 0.66180 -0.18140 0.25670
H10 H 0.75470 -0.08660 0.27960
H11 H 0.68930 -0.07550 0.19920
C13 C 0.34007(17) 0.24522(12) 0.17176(9)
H12 H 0.41150 0.27640 0.20270
N1 N 0.21427(16) 0.33016(11) 0.15333(9)
O4 O 0.15481(18) 0.36485(10) 0.20501(8)
O5 O 0.18103(15) 0.36019(10) 0.09004(8)
C14 C 0.42387(18) 0.23119(12) 0.10248(9)
H13 H 0.35210 0.22160 0.06440
H14 H 0.48960 0.16600 0.11150
C15 C 0.51684(17) 0.32741(12) 0.07586(8)
O6 O 0.53360(13) 0.40126(9) 0.10850(6)
O7 O 0.58184(14) 0.31861(9) 0.01212(7)
C16 C 0.6873(2) 0.40085(14) -0.01626(11)
H15 H 0.77540 0.39570 0.01550
H16 H 0.63960 0.47310 -0.01820
C17 C 0.7328(3) 0.38184(17) -0.09080(13)
H17 H 0.80310 0.43600 -0.11180
H18 H 0.64460 0.38670 -0.12160
H19 H 0.78050 0.31030 -0.08800
O8 O 0.12618(14) 0.10357(11) 0.12053(8)
C18 C -0.0236(2) 0.13438(17) 0.13866(12)
H20 H -0.02730 0.20790 0.15090
H21 H -0.06100 0.08480 0.18110
C19 C -0.1158(4) 0.1298(5) 0.0739(2)
H22 H -0.21680 0.15790 0.08220
H23 H -0.12010 0.05530 0.06560
H24 H -0.07130 0.17320 0.03110
O9? O 0.0927(18) 0.1259(13) 0.1558(11)
C20? C -0.003(2) 0.0833(17) 0.1073(14)
H25? H -0.04960 0.01740 0.13240
H26? H 0.05320 0.06600 0.06420
C21? C -0.119(3) 0.169(3) 0.0853(19)
H27? H -0.15690 0.19740 0.12850
H28? H -0.20160 0.13910 0.06190
H29? H -0.07570 0.22670 0.05100
O10 O 0.34577(13) 0.01750(9) 0.14613(6)
C22 C 0.3259(2) -0.07006(18) 0.10727(14)
H30 H 0.27750 -0.12880 0.13990
H31 H 0.25920 -0.04630 0.06560
C23 C 0.4620(4) -0.1085(3) 0.0816(3)
H32 H 0.44330 -0.16100 0.04950
H33 H 0.52190 -0.14280 0.12290
H34 H 0.51590 -0.04870 0.05440
C24 C 0.93466(18) 0.28808(12) 0.33385(8)
C25 C 0.94430(17) 0.38516(12) 0.37483(8)
C26 C 0.91701(16) 0.48824(11) 0.31713(8)
H35 H 0.99260 0.48120 0.27780
C27 C 0.76679(17) 0.48928(12) 0.27940(8)
C28 C 0.74415(18) 0.38400(13) 0.25251(9)
H36 H 0.67310 0.38240 0.21550
C29 C 0.81897(19) 0.29394(13) 0.27831(9)
H37 H 0.79670 0.23030 0.26000
O11 O 1.01919(14) 0.21039(9) 0.34687(7)
C30 C 1.09862(18) 0.38321(12) 0.40854(9)
H38 H 1.12140 0.31170 0.43570
H39 H 1.09990 0.43630 0.44170
H40 H 1.17350 0.40030 0.36980
C31 C 0.82820(18) 0.37462(12) 0.43697(8)
O12 O 0.81675(13) 0.43485(9) 0.48104(6)
O13 O 0.74679(13) 0.28796(9) 0.43821(6)
C32 C 0.6388(2) 0.26891(15) 0.49731(10)
H41 H 0.59140 0.20070 0.49600
H42 H 0.56270 0.32720 0.49200
H43 H 0.68920 0.26600 0.54390
C33 C 0.95118(17) 0.59573(11) 0.34288(8)
H44 H 1.03610 0.58010 0.37740
N2 N 1.00942(15) 0.67185(10) 0.27645(7)
O14 O 1.11417(14) 0.63921(10) 0.24214(7)
O15 O 0.95189(13) 0.76170(9) 0.26141(6)
C34 C 0.83204(18) 0.65523(12) 0.38093(9)
H45 H 0.75320 0.68330 0.34570
H46 H 0.78600 0.60480 0.42050
C35 C 0.8940(2) 0.74696(12) 0.41254(9)
O16 O 1.02458(15) 0.75886(9) 0.42178(7)
O17 O 0.78365(17) 0.81118(10) 0.43115(7)
C36 C 0.8243(4) 0.90076(18) 0.46725(14)
H47 H 0.76900 0.89670 0.51410
H48 H 0.93200 0.89400 0.47810
C37 C 0.7934(4) 1.00098(17) 0.42501(14)
H49 H 0.82000 1.05790 0.45220
H50 H 0.68690 1.00810 0.41380
H51 H 0.85170 1.00700 0.37950
O18 O 0.65573(12) 0.50614(9) 0.33104(6)
C38 C 0.50395(18) 0.51067(15) 0.30709(10)
H52 H 0.46570 0.43750 0.31110
H53 H 0.49720 0.54560 0.25560
C39 C 0.4152(2) 0.57462(18) 0.35555(14)
H54 H 0.31050 0.57980 0.34100
H55 H 0.45440 0.64670 0.35110
H56 H 0.42280 0.53910 0.40620
O19 O 0.75633(12) 0.57882(9) 0.22247(6)
C40 C 0.8241(2) 0.56593(14) 0.15320(9)
H57 H 0.77230 0.51100 0.13150
H58 H 0.93020 0.54270 0.15970
C41 C 0.8112(3) 0.67209(18) 0.10452(11)
H59 H 0.85370 0.66530 0.05640
H60 H 0.86560 0.72520 0.12570
H61 H 0.70600 0.69510 0.09950
#END
