
#######################################################################
#
#                 Cambridge Crystallographic Data Centre
#                                CCDC
#
#######################################################################
#
# If this CIF has been generated from an entry in the Cambridge
# Structural Database, then it will include bibliographic, chemical,
# crystal, experimental, refinement or atomic coordinate data resulting
# from the CCDC's data processing and validation procedures.
#
#######################################################################

data_CSD_CIF_TATZEW
_audit_creation_date 2017-03-30
_audit_creation_method CSD-ConQuest-V1
_database_code_CSD TATZEW
_database_code_depnum_ccdc_archive 'CCDC 1522097'
_chemical_formula_sum 'C20 H16 N2 O4'
_chemical_formula_moiety
;
C20 H16 N2 O4
;
_journal_coden_Cambridge 177
_journal_volume 15
_journal_year 2017
_journal_page_first 3286
_journal_name_full 'Org.Biomol.Chem. '
loop_
_publ_author_name
"D.Majee"
"S.Biswas"
"S.M.Mobin"
"S.Samanta"
_chemical_name_systematic
;
ethyl 4-(3-nitrophenyl)-6-phenylnicotinate
;
_cell_volume    862.588
_exptl_crystal_colour 'colorless'
_exptl_crystal_density_diffrn 1.341
_exptl_crystal_description 'block'
_diffrn_ambient_temperature 293
#These two values have been output from a single CSD field.
_refine_ls_R_factor_gt 0.0624
_refine_ls_wR_factor_gt 0.0624
_symmetry_cell_setting triclinic
_symmetry_space_group_name_H-M 'P -1'
_symmetry_Int_Tables_number 2
loop_
_symmetry_equiv_pos_site_id
_symmetry_equiv_pos_as_xyz
1 x,y,z
2 -x,-y,-z
_cell_length_a 8.1889(3)
_cell_length_b 10.3419(5)
_cell_length_c 10.9166(4)
_cell_angle_alpha 105.058(4)
_cell_angle_beta 98.466(3)
_cell_angle_gamma 99.563(3)
_cell_formula_units_Z 2
loop_
_atom_type_symbol
_atom_type_radius_bond
C 0.68
H 0.23
N 0.68
O 0.68
loop_
_atom_site_label
_atom_site_type_symbol
_atom_site_fract_x
_atom_site_fract_y
_atom_site_fract_z
O1 O -0.0808(2) 0.13933(15) 0.54677(14)
O2 O -0.09407(17) 0.17437(13) 0.35230(12)
O3 O -0.4200(2) 0.3503(4) 0.8023(2)
O4 O -0.3824(2) 0.2876(2) 0.97225(17)
N1 N 0.27395(18) 0.51658(15) 0.47313(14)
N2 N -0.3306(2) 0.3210(2) 0.88384(18)
C1 C 0.3341(2) 0.57979(17) 0.59962(16)
C2 C 0.2695(2) 0.53046(18) 0.69452(16)
H1 H 0.31240 0.57710 0.78150
C3 C 0.14224(19) 0.41283(17) 0.66104(16)
C4 C 0.0849(2) 0.34427(17) 0.52862(16)
C5 C 0.1551(2) 0.40186(18) 0.44075(17)
H2 H 0.11590 0.35680 0.35300
C6 C 0.4686(2) 0.70618(18) 0.63307(16)
C7 C 0.5108(2) 0.7633(2) 0.53658(19)
H3 H 0.45530 0.72090 0.45120
C8 C 0.6338(3) 0.8820(2) 0.5655(2)
H4 H 0.65920 0.91900 0.49980
C9 C 0.7189(3) 0.9454(2) 0.6911(2)
H5 H 0.80170 1.02510 0.71080
C10 C 0.6799(3) 0.8896(3) 0.7870(2)
H6 H 0.73730 0.93180 0.87190
C11 C 0.5563(3) 0.7713(2) 0.75899(19)
H7 H 0.53170 0.73510 0.82540
C12 C 0.0738(2) 0.37130(17) 0.76781(16)
C13 C 0.1815(2) 0.3502(2) 0.86757(19)
H8 H 0.29580 0.35790 0.86530
C14 C 0.1221(3) 0.3177(2) 0.9709(2)
H9 H 0.19660 0.30310 1.03640
C15 C -0.0465(3) 0.3068(2) 0.97717(18)
H10 H -0.08770 0.28480 1.04580
C16 C -0.1511(2) 0.32969(19) 0.87796(17)
C17 C -0.0961(2) 0.36190(19) 0.77347(16)
H11 H -0.17110 0.37690 0.70850
C18 C -0.0387(2) 0.21015(18) 0.48054(17)
C19 C -0.2064(3) 0.0407(2) 0.29442(19)
H12 H -0.31190 0.03870 0.32500
H13 H -0.15440 -0.03000 0.31680
C20 C -0.2376(3) 0.0178(3) 0.1508(2)
H14 H -0.28850 0.08870 0.13020
H15 H -0.31200 -0.06970 0.10830
H16 H -0.13220 0.01980 0.12200
#END
