
#######################################################################
#
#                 Cambridge Crystallographic Data Centre
#                                CCDC
#
#######################################################################
#
# If this CIF has been generated from an entry in the Cambridge
# Structural Database, then it will include bibliographic, chemical,
# crystal, experimental, refinement or atomic coordinate data resulting
# from the CCDC's data processing and validation procedures.
#
#######################################################################

data_CSD_CIF_TATZUL
_audit_creation_date 2012-05-22
_audit_creation_method CSD-ConQuest-V1
_database_code_CSD TATZUL
_database_code_depnum_ccdc_archive 'CCDC 838662'
_chemical_formula_sum 'C28 H30 N2 O5'
_chemical_formula_moiety
;
C28 H30 N2 O5
;
_journal_coden_Cambridge 1220
_journal_volume 18
_journal_year 2012
_journal_page_first 1111
_journal_name_full 'Chem.-Eur.J. '
loop_
_publ_author_name
"J.Duschmale"
"H.Wennemers"
_chemical_name_systematic
;
Methyl N-(2-benzyl-4-nitro-3-phenylpentanoyl)phenylalaninate
;
_cell_volume    614.596
_exptl_crystal_colour 'colorless'
_exptl_crystal_density_diffrn 1.282
_exptl_crystal_description 'plate'
_diffrn_ambient_temperature 123
#These two values have been output from a single CSD field.
_refine_ls_R_factor_gt 0.0352
_refine_ls_wR_factor_gt 0.0352
_symmetry_cell_setting triclinic
_symmetry_space_group_name_H-M 'P 1'
_symmetry_Int_Tables_number 1
loop_
_symmetry_equiv_pos_site_id
_symmetry_equiv_pos_as_xyz
1 x,y,z
_cell_length_a 5.9193(4)
_cell_length_b 9.9781(8)
_cell_length_c 11.2851(9)
_cell_angle_alpha 73.794(5)
_cell_angle_beta 88.447(5)
_cell_angle_gamma 74.073(5)
_cell_formula_units_Z 1
loop_
_atom_type_symbol
_atom_type_radius_bond
C 0.68
H 0.23
N 0.68
O 0.68
loop_
_atom_site_label
_atom_site_type_symbol
_atom_site_fract_x
_atom_site_fract_y
_atom_site_fract_z
C1 C 0.7388(3) 0.3256(2) 0.26385(18)
C2 C 0.6348(4) 0.2935(2) 0.15721(19)
C3 C 0.5776(3) 0.4551(2) 0.30377(17)
C4 C 0.5451(3) 0.5989(2) 0.20398(17)
C5 C 0.7074(3) 0.6800(2) 0.19059(18)
C6 C 0.6772(4) 0.8083(2) 0.0956(2)
C7 C 0.4841(4) 0.8576(2) 0.0125(2)
C8 C 0.3190(4) 0.7793(2) 0.0258(2)
C9 C 0.3491(3) 0.6510(2) 0.12058(18)
C10 C 0.6463(3) 0.4607(2) 0.43255(17)
C11 C 0.4538(4) 0.5749(2) 0.47454(18)
C12 C 0.5145(4) 0.5828(2) 0.60147(18)
C13 C 0.3922(4) 0.5333(3) 0.7036(2)
C14 C 0.4513(4) 0.5407(3) 0.8194(2)
C15 C 0.6353(4) 0.5960(3) 0.8357(2)
C16 C 0.7588(4) 0.6450(3) 0.7346(2)
C17 C 0.6982(4) 0.6388(3) 0.6188(2)
C18 C 0.6708(3) 0.3135(2) 0.52576(18)
C19 C 0.9404(4) 0.1052(2) 0.67440(19)
C20 C 1.1672(4) 0.0022(2) 0.64547(19)
C21 C 1.1483(3) -0.0185(2) 0.51883(19)
C22 C 1.3043(4) 0.0183(2) 0.4291(2)
C23 C 1.2862(4) -0.0001(2) 0.3127(2)
C24 C 1.1093(4) -0.0543(2) 0.2831(2)
C25 C 0.9512(4) -0.0905(2) 0.3706(2)
C26 C 0.9712(4) -0.0732(2) 0.4879(2)
C27 C 0.9603(4) 0.1249(2) 0.80187(19)
C28 C 1.1398(6) 0.2347(3) 0.9199(2)
N1 N 0.9715(3) 0.35792(19) 0.23107(16)
N2 N 0.8876(3) 0.24552(18) 0.58161(15)
O1 O 1.0225(3) 0.38810(19) 0.12311(15)
O2 O 1.0953(3) 0.35706(18) 0.31693(15)
O3 O 0.5046(3) 0.26064(17) 0.54750(15)
O4 O 0.8529(4) 0.0792(2) 0.88842(17)
O5 O 1.1154(3) 0.1983(2) 0.80613(15)
H1 H 1.00180 0.28530 0.55780
H2 H 0.77840 0.23690 0.33780
H3 H 0.74500 0.21380 0.13240
H4 H 0.59880 0.38020 0.08750
H5 H 0.49220 0.26720 0.18350
H6 H 0.42500 0.43460 0.31100
H7 H 0.84040 0.64710 0.24840
H8 H 0.78820 0.86180 0.08700
H9 H 0.46180 0.94430 -0.05410
H10 H 0.18590 0.81400 -0.03160
H11 H 0.23670 0.59750 0.12840
H12 H 0.79550 0.48610 0.43080
H13 H 0.43360 0.67070 0.41320
H14 H 0.30760 0.54670 0.47780
H15 H 0.26630 0.49410 0.69290
H16 H 0.36340 0.50750 0.89000
H17 H 0.67590 0.60000 0.91580
H18 H 0.88600 0.68320 0.74510
H19 H 0.78350 0.67380 0.54880
H20 H 0.80460 0.06400 0.67230
H21 H 1.29790 0.04440 0.64930
H22 H 1.19670 -0.09150 0.71000
H23 H 1.42530 0.05670 0.44910
H24 H 1.39470 0.02600 0.25050
H25 H 1.09710 -0.06740 0.20310
H26 H 0.82840 -0.12820 0.35140
H27 H 0.86190 -0.09980 0.54900
H28 H 1.28360 0.26490 0.91750
H29 H 1.14820 0.14870 0.99020
H30 H 1.00480 0.31390 0.92380
#END
