
#######################################################################
#
#                 Cambridge Crystallographic Data Centre
#                                CCDC
#
#######################################################################
#
# If this CIF has been generated from an entry in the Cambridge
# Structural Database, then it will include bibliographic, chemical,
# crystal, experimental, refinement or atomic coordinate data resulting
# from the CCDC's data processing and validation procedures.
#
#######################################################################

data_CSD_CIF_TAVKOT
_audit_creation_date 2017-03-30
_audit_creation_method CSD-ConQuest-V1
_database_code_CSD TAVKOT
_database_code_depnum_ccdc_archive 'CCDC 1506970'
_chemical_formula_sum 'C27 H25 N1 O6'
_chemical_formula_moiety
;
C27 H25 N1 O6
;
_journal_coden_Cambridge 1291
_journal_year 2017
_journal_page_first 1547
_journal_name_full 'Eur.J.Org.Chem. '
loop_
_publ_author_name
"Xiaoyan Zhu"
"Gang Hong"
"Chen Hu"
"Shengying Wu"
"Limin Wang"
_chemical_name_systematic
;
dimethyl 4-(4-nitrophenyl)-2,2-diphenylcyclopentane-1,1-dicarboxylate
;
_cell_volume   2281.340
_exptl_crystal_colour 'colorless'
_exptl_crystal_density_diffrn 1.338
_exptl_crystal_description 'prismatic'
_diffrn_ambient_temperature 293
#These two values have been output from a single CSD field.
_refine_ls_R_factor_gt 0.0539
_refine_ls_wR_factor_gt 0.0539
_symmetry_cell_setting triclinic
_symmetry_space_group_name_H-M 'P -1'
_symmetry_Int_Tables_number 2
loop_
_symmetry_equiv_pos_site_id
_symmetry_equiv_pos_as_xyz
1 x,y,z
2 -x,-y,-z
_cell_length_a 10.1298(11)
_cell_length_b 15.0127(16)
_cell_length_c 15.1065(16)
_cell_angle_alpha 86.442(2)
_cell_angle_beta 84.339(3)
_cell_angle_gamma 88.611(3)
_cell_formula_units_Z 4
loop_
_atom_type_symbol
_atom_type_radius_bond
C 0.68
H 0.23
N 0.68
O 0.68
loop_
_atom_site_label
_atom_site_type_symbol
_atom_site_fract_x
_atom_site_fract_y
_atom_site_fract_z
N1 N 1.2724(3) 0.01162(16) -0.21101(18)
O1 O 0.78488(16) 0.27957(10) 0.3295(1)
O2 O 0.91289(15) 0.15713(10) 0.33944(9)
O3 O 1.19553(16) 0.24881(11) 0.18166(11)
O4 O 1.09646(15) 0.30753(11) 0.30453(10)
O5 O 1.3643(2) -0.03641(14) -0.18759(16)
O6 O 1.2453(3) 0.02235(15) -0.28787(15)
C1 C 0.9574(2) 0.16173(13) 0.15499(13)
H1 H 1.03920 0.12780 0.16050
H2 H 0.88350 0.12400 0.17730
C2 C 0.9462(2) 0.19237(14) 0.05743(13)
H3 H 0.85360 0.18650 0.04550
C3 C 0.9768(2) 0.29183(13) 0.05328(13)
H4 H 0.93930 0.32290 0.00310
H5 H 1.07190 0.30070 0.04720
C4 C 0.9126(2) 0.32645(13) 0.14219(13)
C5 C 0.9559(2) 0.24678(13) 0.20904(13)
C6 C 0.8726(2) 0.23320(14) 0.29875(14)
C7 C 0.8451(3) 0.13341(16) 0.42583(14)
H6 H 0.83700 0.18490 0.46070
H7 H 0.89480 0.08740 0.45550
H8 H 0.75840 0.11220 0.41880
C8 C 1.0976(2) 0.26587(14) 0.22908(15)
C9 C 1.2205(3) 0.34463(19) 0.32272(18)
H9 H 1.28270 0.29710 0.33430
H10 H 1.20590 0.37980 0.37380
H11 H 1.25530 0.38160 0.27210
C10 C 0.9687(2) 0.41592(13) 0.16448(14)
C11 C 0.9127(2) 0.45875(15) 0.23878(15)
H12 H 0.84000 0.43390 0.27310
C12 C 0.9631(3) 0.53702(17) 0.26223(18)
H13 H 0.92420 0.56440 0.31210
C13 C 1.0700(3) 0.57515(17) 0.21283(19)
H14 H 1.10460 0.62770 0.22950
C14 C 1.1255(3) 0.53522(16) 0.13884(18)
H15 H 1.19760 0.56110 0.10470
C15 C 1.0748(2) 0.45642(15) 0.11442(16)
H16 H 1.11270 0.43040 0.06350
C16 C 0.7619(2) 0.33645(13) 0.13625(13)
C17 C 0.7131(2) 0.41705(15) 0.10105(15)
H17 H 0.77180 0.46300 0.08360
C18 C 0.5797(3) 0.43074(18) 0.09132(16)
H18 H 0.54990 0.48580 0.06880
C19 C 0.4907(3) 0.36336(19) 0.11474(16)
H19 H 0.40090 0.37240 0.10840
C20 C 0.5374(2) 0.28262(18) 0.14755(15)
H20 H 0.47850 0.23630 0.16290
C21 C 0.6708(2) 0.26907(15) 0.15812(13)
H21 H 0.70000 0.21370 0.18030
C22 C 1.0327(2) 0.14223(14) -0.01145(14)
C23 C 0.9889(3) 0.13146(17) -0.09391(15)
H22 H 0.90480 0.15270 -0.10510
C24 C 1.0665(3) 0.09003(18) -0.16003(17)
H23 H 1.03630 0.08450 -0.21560
C25 C 1.1882(3) 0.05739(15) -0.14221(16)
C26 C 1.2357(3) 0.06607(17) -0.06177(17)
H24 H 1.31910 0.04330 -0.05080
C27 C 1.1577(3) 0.10920(17) 0.00273(16)
H25 H 1.19000 0.11630 0.05730
N2 N 0.8270(2) 0.97446(13) 0.66625(15)
O7 O 0.39423(17) 0.55473(10) 0.28709(11)
O8 O 0.57229(16) 0.52238(10) 0.36003(10)
O9 O 0.71151(18) 0.75887(12) 0.27930(11)
O10 O 0.64262(16) 0.65126(10) 0.20027(10)
O11 O 0.9178(2) 1.01556(12) 0.62425(14)
O12 O 0.8019(2) 0.97480(13) 0.74712(13)
C28 C 0.5634(2) 0.68482(15) 0.43467(14)
H26 H 0.53760 0.63300 0.47350
H27 H 0.65900 0.69000 0.43160
C29 C 0.4951(2) 0.76943(14) 0.47112(14)
H28 H 0.41580 0.75180 0.51010
C30 C 0.4512(2) 0.82060(14) 0.38795(14)
H29 H 0.52440 0.85390 0.35680
H30 H 0.37890 0.86190 0.40390
C31 C 0.4055(2) 0.74856(14) 0.32906(13)
C32 C 0.5195(2) 0.67454(14) 0.33965(13)
C33 C 0.4837(2) 0.57925(14) 0.32501(14)
C34 C 0.5564(3) 0.42974(15) 0.34417(16)
H31 H 0.46950 0.41110 0.36830
H32 H 0.62210 0.39420 0.37250
H33 H 0.56700 0.42220 0.28120
C35 C 0.6365(2) 0.70109(15) 0.27087(15)
C36 C 0.7381(3) 0.67733(18) 0.12704(17)
H34 H 0.71380 0.73500 0.10200
H35 H 0.73990 0.63450 0.08230
H36 H 0.82430 0.67990 0.14790
C37 C 0.3994(2) 0.78449(14) 0.23128(13)
C38 C 0.3699(2) 0.72769(15) 0.16712(14)
H37 H 0.35250 0.66810 0.18370
C39 C 0.3659(3) 0.75786(17) 0.07931(15)
H38 H 0.34910 0.71820 0.03700
C40 C 0.3866(3) 0.84642(18) 0.05417(16)
H39 H 0.38400 0.86710 -0.00490
C41 C 0.4111(3) 0.90336(17) 0.11725(16)
H40 H 0.42280 0.96370 0.10110
C42 C 0.4187(2) 0.87289(15) 0.20435(15)
H41 H 0.43730 0.91280 0.24590
C43 C 0.2660(2) 0.71898(14) 0.36934(14)
C44 C 0.1566(2) 0.76700(16) 0.34354(16)
H42 H 0.16900 0.81280 0.29930
C45 C 0.0303(3) 0.7494(2) 0.38106(18)
H43 H -0.04100 0.78290 0.36190
C46 C 0.0089(3) 0.6829(2) 0.44647(19)
H44 H -0.07660 0.67090 0.47210
C47 C 0.1153(3) 0.63406(19) 0.47379(17)
H45 H 0.10160 0.58870 0.51830
C48 C 0.2432(2) 0.65155(16) 0.43586(15)
H46 H 0.31420 0.61780 0.45520
C49 C 0.5817(2) 0.82352(14) 0.52324(14)
C50 C 0.5429(2) 0.84203(15) 0.61081(14)
H47 H 0.46220 0.82130 0.63810
C51 C 0.6230(3) 0.89132(16) 0.65840(15)
H48 H 0.59690 0.90350 0.71720
C52 C 0.7414(2) 0.92158(14) 0.61679(15)
C53 C 0.7827(2) 0.90464(15) 0.53021(15)
H49 H 0.86340 0.92570 0.50330
C54 C 0.7023(2) 0.85578(16) 0.48385(15)
H50 H 0.72930 0.84410 0.42500
#END
