
#######################################################################
#
#                 Cambridge Crystallographic Data Centre
#                                CCDC
#
#######################################################################
#
# If this CIF has been generated from an entry in the Cambridge
# Structural Database, then it will include bibliographic, chemical,
# crystal, experimental, refinement or atomic coordinate data resulting
# from the CCDC's data processing and validation procedures.
#
#######################################################################

data_CSD_CIF_TAVMAG
_audit_creation_date 2012-04-25
_audit_creation_method CSD-ConQuest-V1
_database_code_CSD TAVMAG
_database_code_depnum_ccdc_archive 'CCDC 846721'
_chemical_formula_sum 'C31 H30 N2 O1'
_chemical_formula_moiety
;
C31 H30 N2 O1
;
_journal_coden_Cambridge 1366
_journal_volume 354
_journal_year 2012
_journal_page_first 359
_journal_name_full 'Adv.Synth.Catal. '
loop_
_publ_author_name
"Xianrong Cai"
"Chao Wang"
"Jian Sun"
_chemical_name_systematic
;
(S)-N-(((S)-2-Benzyl-3,5-diphenyl-2,3-dihydro-1,2-oxazol-4-yl)methyl)-1-phenyl
ethanamine
;
_cell_volume   1233.511
_exptl_crystal_colour 'colorless'
_exptl_crystal_density_diffrn 1.202
_exptl_special_details
;
air- and moisture-sensitive

;
_exptl_crystal_description 'block'
_exptl_crystal_preparation 'ethanol'
_diffrn_ambient_temperature 173
#These two values have been output from a single CSD field.
_refine_ls_R_factor_gt 0.0575
_refine_ls_wR_factor_gt 0.0575
_symmetry_cell_setting monoclinic
_symmetry_space_group_name_H-M 'P 21'
_symmetry_Int_Tables_number 4
loop_
_symmetry_equiv_pos_site_id
_symmetry_equiv_pos_as_xyz
1 x,y,z
2 -x,1/2+y,-z
_cell_length_a 14.962(3)
_cell_length_b 5.6304(11)
_cell_length_c 16.099(3)
_cell_angle_alpha 90
_cell_angle_beta 114.56(3)
_cell_angle_gamma 90
_cell_formula_units_Z 2
loop_
_atom_type_symbol
_atom_type_radius_bond
C 0.68
H 0.23
N 0.68
O 0.68
loop_
_atom_site_label
_atom_site_type_symbol
_atom_site_fract_x
_atom_site_fract_y
_atom_site_fract_z
O1 O 0.33610(16) 0.8325(4) 0.67697(15)
N1 N 0.15512(18) 0.7272(5) 0.83689(17)
H1 H 0.11100 0.74590 0.77960
N2 N 0.25491(18) 1.0048(5) 0.62973(18)
C1 C 0.1493(2) 0.6934(7) 0.9867(2)
C2 C 0.2046(2) 0.4871(7) 1.0097(3)
H2 H 0.21430 0.40120 0.96330
C3 C 0.2458(3) 0.4037(8) 1.0979(3)
H3 H 0.28320 0.26140 1.11160
C4 C 0.2331(3) 0.5249(9) 1.1663(3)
H4 H 0.26130 0.46690 1.22720
C5 C 0.1791(3) 0.7315(9) 1.1453(3)
H5 H 0.17010 0.81740 1.19200
C6 C 0.1381(3) 0.8143(8) 1.0566(2)
H6 H 0.10120 0.95760 1.04320
C7 C 0.0992(2) 0.7819(7) 0.8901(2)
H7 H 0.09120 0.95800 0.89120
C8 C -0.0024(2) 0.6683(9) 0.8430(2)
H8 H 0.00410 0.49500 0.84660
H9 H -0.03270 0.71730 0.77880
H10 H -0.04380 0.71980 0.87350
C9 C 0.2372(2) 0.8911(6) 0.8537(2)
H11 H 0.29490 0.83960 0.90890
H12 H 0.21860 1.05240 0.86530
C10 C 0.2642(2) 0.8988(6) 0.7741(2)
C11 C 0.3320(2) 0.7771(6) 0.7586(2)
C12 C 0.4035(2) 0.5953(6) 0.8119(2)
C13 C 0.3830(2) 0.4443(6) 0.8693(2)
H13 H 0.32320 0.46150 0.87600
C14 C 0.4491(2) 0.2673(7) 0.9174(2)
H14 H 0.43500 0.16580 0.95750
C15 C 0.5355(2) 0.2398(7) 0.9065(2)
H15 H 0.58030 0.11720 0.93830
C16 C 0.5568(2) 0.3905(7) 0.8494(3)
H16 H 0.61620 0.37170 0.84210
C17 C 0.4919(2) 0.5677(7) 0.8030(2)
H17 H 0.50730 0.67230 0.76450
C18 C 0.2126(2) 1.0659(6) 0.6958(2)
H18 H 0.23100 1.23290 0.71730
C19 C 0.1018(2) 1.0420(6) 0.6550(2)
C20 C 0.0469(2) 1.2033(7) 0.6791(2)
H19 H 0.07790 1.33840 0.71480
C21 C -0.0534(2) 1.1685(7) 0.6514(2)
H20 H -0.09040 1.27870 0.66890
C22 C -0.0992(2) 0.9758(7) 0.5987(2)
H21 H -0.16770 0.95280 0.57990
C23 C -0.0455(2) 0.8152(7) 0.5731(2)
H22 H -0.07720 0.68180 0.53660
C24 C 0.0548(2) 0.8487(6) 0.6006(2)
H23 H 0.09130 0.73920 0.58210
C25 C 0.3032(2) 1.2073(7) 0.6088(2)
H24 H 0.36360 1.24670 0.66350
H25 H 0.25890 1.34660 0.59440
C26 C 0.3301(2) 1.1621(6) 0.5298(2)
C27 C 0.2971(2) 0.9631(7) 0.4743(2)
H26 H 0.25920 0.84600 0.48760
C28 C 0.3194(3) 0.9355(8) 0.3997(2)
H27 H 0.29630 0.79980 0.36170
C29 C 0.3747(3) 1.1030(8) 0.3800(2)
H28 H 0.38930 1.08300 0.32840
C30 C 0.4087(3) 1.2985(8) 0.4349(3)
H29 H 0.44750 1.41350 0.42180
C31 C 0.3862(2) 1.3278(7) 0.5094(2)
H30 H 0.40970 1.46390 0.54710
#END
