
#######################################################################
#
#                 Cambridge Crystallographic Data Centre
#                                CCDC
#
#######################################################################
#
# If this CIF has been generated from an entry in the Cambridge
# Structural Database, then it will include bibliographic, chemical,
# crystal, experimental, refinement or atomic coordinate data resulting
# from the CCDC's data processing and validation procedures.
#
#######################################################################

data_CSD_CIF_TAVNAH
_audit_creation_date 2012-04-25
_audit_creation_method CSD-ConQuest-V1
_database_code_CSD TAVNAH
_database_code_depnum_ccdc_archive 'CCDC 834027'
_chemical_formula_sum 'C36 H40 N2 O9'
_chemical_formula_moiety
;
C36 H40 N2 O9
;
_journal_coden_Cambridge 1366
_journal_volume 354
_journal_year 2012
_journal_page_first 408
_journal_name_full 'Adv.Synth.Catal. '
loop_
_publ_author_name
"D.Duvvuru"
"N.Pinto"
"C.Gomez"
"J.-F.Betzer"
"P.Retailleau"
"A.Voituriez"
"A.Marinetti"
_chemical_name_systematic
;
Diethyl 
13-t-butyl-4,11-bis(4-nitrophenyl)-6-oxodispiro[4.1.4.3]tetradeca-1,8-diene-1,
8-dicarboxylate
;
_cell_volume   3385.856
_exptl_crystal_colour 'colorless'
_exptl_crystal_density_diffrn 1.265
_exptl_crystal_description 'platelet'
_exptl_crystal_preparation 'ethyl acetate'
_diffrn_ambient_temperature 150
_refine_special_details
;
C10,C28C,C28D,C4,C7,C8,C9 and C10B,C28A,C28B,C4B,C7B, C8B,C9B disordered over 
two sites with occupancies 0.569:0.431.
;
#These two values have been output from a single CSD field.
_refine_ls_R_factor_gt 0.0636
_refine_ls_wR_factor_gt 0.0636
_symmetry_cell_setting orthorhombic
_symmetry_space_group_name_H-M 'P 21 21 21'
_symmetry_Int_Tables_number 19
loop_
_symmetry_equiv_pos_site_id
_symmetry_equiv_pos_as_xyz
1 x,y,z
2 1/2-x,-y,1/2+z
3 1/2+x,1/2-y,-z
4 -x,1/2+y,1/2-z
_cell_length_a 10.9787(10)
_cell_length_b 17.086(2)
_cell_length_c 18.050(2)
_cell_angle_alpha 90
_cell_angle_beta 90
_cell_angle_gamma 90
_cell_formula_units_Z 4
loop_
_atom_type_symbol
_atom_type_radius_bond
C 0.68
H 0.23
N 0.68
O 0.68
loop_
_atom_site_label
_atom_site_type_symbol
_atom_site_fract_x
_atom_site_fract_y
_atom_site_fract_z
O1 O 0.3538(5) 0.2501(4) 0.9051(3)
C1 C 0.8138(7) -0.0216(5) 0.9906(4)
N1 N 0.9085(7) -0.0831(5) 0.9951(4)
O2 O 0.8807(6) -0.1479(5) 0.9750(5)
O3 O 1.0075(6) -0.0657(5) 1.0200(4)
O4 O 0.6158(6) 0.3623(4) 0.8300(3)
O5 O 0.6903(6) 0.4071(4) 0.9365(3)
O6 O 0.3495(5) 0.0460(3) 0.8580(3)
O7 O 0.1615(6) 0.0451(5) 0.8138(3)
C2 C 0.5015(9) 0.3042(6) 0.5299(5)
N2 N 0.5485(10) 0.3154(6) 0.4517(6)
O8 O 0.6368(8) 0.3578(5) 0.4451(5)
O9 O 0.5011(8) 0.2811(6) 0.4026(4)
C3 C 0.4324(7) 0.2216(5) 0.8662(4)
C4 C 0.5582(7) 0.2095(4) 0.9004(4)
C5 C 0.6539(7) 0.1795(5) 0.8436(4)
H1 H 0.68600 0.22490 0.81560
H2 H 0.72280 0.15590 0.87100
C6 C 0.6046(10) 0.1189(7) 0.7880(6)
H3 H 0.57030 0.07610 0.81960
C7 C 0.4993(6) 0.1500(4) 0.7473(4)
H4 H 0.45780 0.10490 0.72380
H5 H 0.53170 0.18280 0.70660
C8 C 0.4006(6) 0.1985(4) 0.7870(4)
C9 C 0.7008(11) 0.0785(9) 0.7399(7)
C10 C 0.7579(17) 0.1318(12) 0.6807(10)
H6 H 0.81670 0.10170 0.65140
H7 H 0.79950 0.17560 0.70480
H8 H 0.69380 0.15200 0.64810
C11 C 0.8035(11) 0.0412(9) 0.7864(7)
H9 H 0.86360 0.01720 0.75340
H10 H 0.76900 0.00110 0.81910
H11 H 0.84310 0.08170 0.81640
C12 C 0.6392(15) 0.0109(9) 0.6972(8)
H12 H 0.69890 -0.01410 0.66450
H13 H 0.57180 0.03170 0.66740
H14 H 0.60760 -0.02770 0.73250
C13 C 0.5399(8) 0.1530(5) 0.9691(4)
H15 H 0.45970 0.12600 0.96330
C14 C 0.5310(11) 0.2091(6) 1.0377(4)
H16 H 0.44520 0.21740 1.05270
H17 H 0.57730 0.18820 1.08040
C15 C 0.5865(9) 0.2828(6) 1.0094(5)
H18 H 0.60990 0.32500 1.04060
C16 C 0.5997(8) 0.2839(5) 0.9380(4)
C17 C 0.6333(8) 0.3521(5) 0.8955(6)
C18 C 0.7315(9) 0.4796(6) 0.8990(6)
H19 H 0.72450 0.52440 0.93350
H20 H 0.67860 0.49020 0.85570
C19 C 0.8606(11) 0.4715(8) 0.8740(6)
H21 H 0.88630 0.51980 0.84920
H22 H 0.86730 0.42750 0.83940
H23 H 0.91300 0.46200 0.91700
C20 C 0.6359(8) 0.0920(5) 0.9787(4)
C21 C 0.7535(9) 0.1113(5) 1.0045(5)
H24 H 0.77190 0.16370 1.01800
C22 C 0.8424(8) 0.0536(5) 1.0101(5)
H25 H 0.92180 0.06620 1.02720
C23 C 0.7018(7) -0.0413(4) 0.9673(4)
H26 H 0.68390 -0.09420 0.95530
C24 C 0.6129(7) 0.0150(4) 0.9606(4)
H27 H 0.53430 0.00060 0.94330
C25 C 0.3612(6) 0.2779(5) 0.7480(4)
H28 H 0.39280 0.32270 0.77800
C26 C 0.2226(7) 0.2800(6) 0.7494(4)
H29 H 0.19320 0.31840 0.78640
H30 H 0.19000 0.29460 0.70010
C27 C 0.1845(7) 0.2005(7) 0.7695(4)
H31 H 0.10240 0.18290 0.76800
C28 C 0.2788(7) 0.1555(5) 0.7904(4)
C29 C 0.2690(8) 0.0775(6) 0.8245(4)
C30 C 0.134(2) -0.0167(13) 0.8666(11)
H32 H 0.06230 -0.00190 0.89720
H33 H 0.20380 -0.02560 0.89990
C31 C 0.107(3) -0.0877(14) 0.8240(14)
H34 H 0.08950 -0.13090 0.85810
H35 H 0.17750 -0.10120 0.79330
H36 H 0.03610 -0.07850 0.79220
C32 C 0.4088(6) 0.2859(4) 0.6682(4)
C33 C 0.5061(7) 0.3389(5) 0.6550(5)
H37 H 0.53930 0.36840 0.69480
C34 C 0.5522(8) 0.3475(6) 0.5848(6)
H38 H 0.61740 0.38250 0.57500
C35 C 0.4075(8) 0.2525(6) 0.5395(4)
H39 H 0.37460 0.22370 0.49920
C36 C 0.3628(7) 0.2441(5) 0.6106(4)
H40 H 0.29830 0.20830 0.61940
C37? C 0.8542(14) 0.1638(14) 0.7485(11)
C38? C 0.152(2) -0.0382(10) 0.8328(13)
C39? C 0.0211(18) -0.0564(18) 0.8255(14)
C40? C 0.6242(14) 0.1767(10) 0.7690(8)
C41? C 0.7261(16) 0.1414(13) 0.7210(11)
C42? C 0.713(2) 0.0519(15) 0.7224(16)
C43? C 0.7120(19) 0.1725(17) 0.6417(9)
H41? H 0.86540 0.14470 0.79930
H42? H 0.86310 0.22090 0.74770
H43? H 0.91560 0.14010 0.71620
H44? H 0.18090 -0.04770 0.88410
H45? H 0.20150 -0.07050 0.79840
H46? H 0.00740 -0.11180 0.83690
H47? H -0.00540 -0.04560 0.77470
H48? H -0.02560 -0.02390 0.86000
H49? H 0.72720 0.21290 0.84860
H50? H 0.67780 0.12600 0.85880
H51? H 0.62440 0.23310 0.75420
H52? H 0.48940 0.09410 0.76010
H53? H 0.48930 0.15540 0.69300
H54? H 0.72330 0.03300 0.77330
H55? H 0.77480 0.02830 0.69040
H56? H 0.63160 0.03740 0.70450
H57? H 0.71960 0.22960 0.64180
H58? H 0.63180 0.15770 0.62240
H59? H 0.77570 0.14990 0.61020
#END
