
#######################################################################
#
#                 Cambridge Crystallographic Data Centre
#                                CCDC
#
#######################################################################
#
# If this CIF has been generated from an entry in the Cambridge
# Structural Database, then it will include bibliographic, chemical,
# crystal, experimental, refinement or atomic coordinate data resulting
# from the CCDC's data processing and validation procedures.
#
#######################################################################

data_CSD_CIF_TAVPIQ
_audit_creation_date 2005-12-15
_audit_creation_method CSD-ConQuest-V1
_database_code_CSD TAVPIQ
_database_code_depnum_ccdc_archive 'CCDC 284812'
_database_code_depnum_ccdc_journal 440/184
_chemical_formula_sum 'C18 H27 N2 O3'
_chemical_formula_moiety
;
C18 H27 N2 O3
;
_journal_coden_Cambridge 440
_journal_volume 24
_journal_year 2000
_journal_page_first 537
_journal_name_full 'New J.Chem. '
loop_
_publ_author_name
"H.Kumagai"
"Y.Hosokoshi"
"A.S.Markosyan"
"K.Inoue"
_chemical_name_systematic
;
2-(p-(2-methylbutyloxy)phenyl)-4,4,5,5-tetramethyl-4,5-dihydroimidazol-3-oxide
-1-oxyl
;
_cell_volume   1784.013
_exptl_crystal_colour 'green'
_exptl_crystal_density_diffrn 1.189
_exptl_special_details
;
These data are included as supplementary data though the paper discusses the 
4-N-t-butylaminoxyl-4'-(1-oxyl-3-oxide-4,4,5,5- 
tetramethylimidazolin-2-yl)biphenyl ligand and Mn(ii) complex
;
_exptl_crystal_description 'plate'
_diffrn_ambient_temperature 288.2
#These two values have been output from a single CSD field.
_refine_ls_R_factor_gt 0.0669
_refine_ls_wR_factor_gt 0.0669
_symmetry_cell_setting orthorhombic
_symmetry_space_group_name_H-M 'P 21 21 21'
_symmetry_Int_Tables_number 19
loop_
_symmetry_equiv_pos_site_id
_symmetry_equiv_pos_as_xyz
1 x,y,z
2 1/2-x,-y,1/2+z
3 1/2+x,1/2-y,-z
4 -x,1/2+y,1/2-z
_cell_length_a 11.494(3)
_cell_length_b 25.328(3)
_cell_length_c 6.1281(5)
_cell_angle_alpha 90
_cell_angle_beta 90
_cell_angle_gamma 90
_cell_formula_units_Z 4
loop_
_atom_type_symbol
_atom_type_radius_bond
C 0.68
H 0.23
N 0.68
O 0.68
loop_
_atom_site_label
_atom_site_type_symbol
_atom_site_fract_x
_atom_site_fract_y
_atom_site_fract_z
O1 O 0.7228(2) 0.0537(1) 0.1395(4)
O2 O 1.0100(2) 0.2276(1) -0.4167(5)
O3 O 1.2560(2) 0.1340(1) 0.0469(5)
N1 N 1.1014(3) 0.2101(1) -0.3183(6)
N2 N 1.2181(3) 0.1660(1) -0.0962(5)
C1 C 0.3413(4) -0.0358(2) 0.0881(8)
C2 C 0.4181(3) 0.0099(2) 0.0056(8)
C3 C 0.5302(4) 0.0162(2) 0.1410(7)
C4 C 0.5053(4) 0.0407(2) 0.3662(8)
C5 C 0.6170(3) 0.0493(2) 0.0119(7)
C6 C 0.8122(3) 0.0831(2) 0.0551(7)
C7 C 0.8112(3) 0.1059(2) -0.1509(6)
C8 C 0.9070(3) 0.1350(2) -0.2187(6)
C9 C 1.0049(3) 0.1416(1) -0.0838(6)
C10 C 1.0046(3) 0.1181(2) 0.1218(6)
C11 C 0.9090(3) 0.0889(2) 0.1894(7)
C12 C 1.1056(3) 0.1719(1) -0.1623(6)
C13 C 1.2166(3) 0.2375(1) -0.3486(6)
C14 C 1.2336(4) 0.2473(2) -0.5905(7)
C15 C 1.2082(4) 0.2901(2) -0.2240(7)
C16 C 1.3012(3) 0.1966(2) -0.2425(7)
C17 C 1.3503(4) 0.1564(2) -0.4067(7)
C18 C 1.3991(4) 0.2205(2) -0.1040(7)
H1 H 0.32010 -0.02940 0.23540
H2 H 0.27320 -0.03800 0.00070
H3 H 0.38340 -0.06800 0.07850
H4 H 0.43890 0.00300 -0.14190
H5 H 0.37490 0.04170 0.01350
H6 H 0.56300 -0.01790 0.16290
H7 H 0.57560 0.04310 0.44710
H8 H 0.47340 0.07500 0.34770
H9 H 0.45140 0.01920 0.44310
H10 H 0.58560 0.08340 -0.01390
H11 H 0.63340 0.03270 -0.12370
H12 H 0.74590 0.10160 -0.24450
H13 H 0.90640 0.15080 -0.35940
H14 H 1.06990 0.12200 0.21560
H15 H 0.90940 0.07270 0.32930
H16 H 1.30610 0.26450 -0.61370
H17 H 1.23280 0.21460 -0.66630
H18 H 1.17240 0.26910 -0.64320
H19 H 1.27950 0.30880 -0.23770
H20 H 1.14690 0.31070 -0.28340
H21 H 1.19310 0.28330 -0.07440
H22 H 1.28840 0.14150 -0.48880
H23 H 1.40320 0.17350 -0.50220
H24 H 1.38980 0.12910 -0.32970
H25 H 1.44090 0.19300 -0.03380
H26 H 1.45030 0.24000 -0.19520
H27 H 1.36660 0.24340 0.00280
#END
