
#######################################################################
#
#                 Cambridge Crystallographic Data Centre
#                                CCDC
#
#######################################################################
#
# If this CIF has been generated from an entry in the Cambridge
# Structural Database, then it will include bibliographic, chemical,
# crystal, experimental, refinement or atomic coordinate data resulting
# from the CCDC's data processing and validation procedures.
#
#######################################################################

data_CSD_CIF_TAWBAV
_audit_creation_date 2005-12-15
_audit_creation_method CSD-ConQuest-V1
_database_code_CSD TAWBAV
_database_code_depnum_ccdc_archive 'CCDC 256573'
_chemical_formula_sum 'C36 H40 N4 O8'
_chemical_formula_moiety
;
C36 H40 N4 O8
;
_journal_coden_Cambridge 29
_journal_volume 631
_journal_year 2005
_journal_page_first 2033
_journal_name_full 'Z.Anorg.Allg.Chem. '
loop_
_publ_author_name
"M.Lopez-Deber"
"R.Bastida"
"M.del C.Fernandez-Fernandez"
"A.Macias"
"A.Rodriguez"
"L.Valencia"
_chemical_name_systematic
;
13,22-bis(4-Nitrobenzyl)-2,5,16,19-tetraoxa-13,22-diazatricyclo[22.4.0.0^6,11^
]octacosa-1(28),6,8,10,24,26-hexaene
;
_cell_volume   1683.239
_exptl_crystal_colour 'yellow'
_exptl_crystal_density_diffrn 1.296
_exptl_crystal_description 'prism'
_exptl_crystal_preparation 'acetonitrile'
_diffrn_ambient_temperature 293
#These two values have been output from a single CSD field.
_refine_ls_R_factor_gt 0.0661
_refine_ls_wR_factor_gt 0.0661
_symmetry_cell_setting triclinic
_symmetry_space_group_name_H-M 'P -1'
_symmetry_Int_Tables_number 2
loop_
_symmetry_equiv_pos_site_id
_symmetry_equiv_pos_as_xyz
1 x,y,z
2 -x,-y,-z
_cell_length_a 11.3538(10)
_cell_length_b 11.7872(10)
_cell_length_c 13.3039(9)
_cell_angle_alpha 95.924(8)
_cell_angle_beta 101.857(8)
_cell_angle_gamma 102.166(7)
_cell_formula_units_Z 2
loop_
_atom_type_symbol
_atom_type_radius_bond
C 0.68
H 0.23
N 0.68
O 0.68
loop_
_atom_site_label
_atom_site_type_symbol
_atom_site_fract_x
_atom_site_fract_y
_atom_site_fract_z
O1 O 0.04934(12) 0.44746(12) 0.37041(11)
O2 O -0.17575(12) 0.26250(12) 0.32937(10)
N1 N -0.0701(4) 0.0709(2) 0.6743(2)
O3 O -0.7686(3) 0.3877(3) -0.1985(3)
N2 N -0.31577(15) 0.13663(14) 0.06522(12)
N3 N 0.27309(15) 0.31294(15) 0.37795(14)
O4 O 0.25024(19) 0.2475(2) 0.12864(16)
C1 C 0.13746(19) 0.52675(16) 0.34113(15)
C2 C -0.32728(16) 0.09388(16) 0.24197(14)
C3 C -0.28154(16) 0.18104(16) 0.32968(14)
C4 C -0.39532(18) 0.30445(17) 0.00934(15)
C5 C 0.0748(2) 0.19336(19) 0.47055(17)
H1 H 0.05080 0.22010 0.40790
C6 C -0.07379(18) 0.46338(18) 0.34645(17)
H2 H -0.10440 0.45380 0.27170
H3 H -0.07460 0.54200 0.37580
C7 C 0.26023(18) 0.52059(17) 0.37760(16)
O5 O -0.07268(18) 0.2303(2) 0.00893(18)
C8 C -0.26040(18) 0.08811(17) 0.15578(14)
H4 H -0.17470 0.13120 0.18200
H5 H -0.26090 0.00690 0.13410
C9 C 0.29385(19) 0.2257(2) 0.44613(19)
H6 H 0.37390 0.25560 0.49440
H7 H 0.29780 0.15490 0.40400
C10 C -0.30333(19) 0.26330(17) 0.08773(16)
H8 H -0.21990 0.30430 0.08720
H9 H -0.31620 0.28270 0.15670
C11 C -0.3582(2) 0.4013(2) -0.03703(18)
H10 H -0.27480 0.43980 -0.02200
C12 C -0.3402(2) 0.1816(2) 0.41170(17)
H11 H -0.30760 0.23840 0.47040
C13 C -0.2741(2) 0.1001(2) -0.02716(15)
H12 H -0.30240 0.14500 -0.08030
H13 H -0.31590 0.01840 -0.05230
C14 C 0.0246(3) 0.1159(2) 0.6185(2)
C15 C 0.1979(2) 0.19311(18) 0.50755(17)
C16 C 0.1111(3) 0.6109(2) 0.2795(2)
H14 H 0.02930 0.61420 0.25430
C17 C -0.15465(18) 0.37475(18) 0.39065(16)
H15 H -0.11480 0.37250 0.46200
H16 H -0.23290 0.39580 0.39000
C18 C -0.5660(3) 0.3846(2) -0.12507(18)
C19 C -0.4356(2) 0.01132(18) 0.2392(2)
H17 H -0.46820 -0.04700 0.18150
C20 C 0.29062(18) 0.42724(18) 0.44112(16)
H18 H 0.37610 0.45280 0.48030
H19 H 0.23850 0.41850 0.49050
C21 C 0.3532(2) 0.6022(2) 0.3532(2)
H20 H 0.43540 0.60010 0.37810
C22 C -0.5209(2) 0.2484(2) -0.01224(19)
H21 H -0.54660 0.18350 0.01890
C23 C -0.4440(3) 0.4417(2) -0.1059(2)
H22 H -0.41890 0.50600 -0.13810
C24 C 0.1457(3) 0.1147(3) 0.6571(2)
H23 H 0.16940 0.08800 0.71980
N4 N -0.6586(3) 0.4271(3) -0.1961(2)
C25 C -0.4472(2) 0.0971(2) 0.4053(2)
H24 H -0.48650 0.09710 0.46010
C26 C 0.3272(3) 0.6868(2) 0.2928(3)
H25 H 0.39100 0.74090 0.27750
C27 C 0.3227(3) 0.2209(3) 0.2179(2)
H26 H 0.39690 0.20350 0.20140
H27 H 0.27660 0.15070 0.23720
C28 C -0.1372(2) 0.1115(3) -0.0178(2)
H28 H -0.10600 0.06740 0.03510
H29 H -0.12360 0.07910 -0.08330
C29 C -0.6069(2) 0.2884(2) -0.0791(2)
H30 H -0.69070 0.25160 -0.09310
C30 C -0.0127(2) 0.1546(2) 0.5252(2)
H31 H -0.09540 0.15440 0.49970
C31 C 0.2064(3) 0.6897(2) 0.2559(2)
H32 H 0.18820 0.74550 0.21440
C32 C 0.3600(2) 0.3180(2) 0.3097(2)
H33 H 0.44040 0.31570 0.35060
H34 H 0.36900 0.39280 0.28400
C33 C 0.1242(3) 0.2349(3) 0.1291(2)
H35 H 0.11460 0.29520 0.18000
H36 H 0.09030 0.15870 0.14620
O6 O -0.6216(4) 0.5017(4) -0.2467(3)
O7 O -0.0339(4) 0.0392(3) 0.7577(3)
C34 C 0.2317(3) 0.1537(3) 0.6015(2)
H37 H 0.31430 0.15370 0.62750
C35 C -0.4963(2) 0.0128(2) 0.3186(2)
H38 H -0.56970 -0.04260 0.31380
C36 C 0.0580(3) 0.2468(4) 0.0207(3)
H39 H 0.09190 0.32420 0.00570
H40 H 0.07360 0.18930 -0.02950
O8 O -0.1785(3) 0.0657(2) 0.6361(3)
#END
