
#######################################################################
#
#                 Cambridge Crystallographic Data Centre
#                                CCDC
#
#######################################################################
#
# If this CIF has been generated from an entry in the Cambridge
# Structural Database, then it will include bibliographic, chemical,
# crystal, experimental, refinement or atomic coordinate data resulting
# from the CCDC's data processing and validation procedures.
#
#######################################################################

data_CSD_CIF_TAWBOJ
_audit_creation_date 2005-12-15
_audit_creation_method CSD-ConQuest-V1
_database_code_CSD TAWBOJ
_database_code_depnum_ccdc_archive 'CCDC 256576'
_chemical_formula_sum 'C46 H46 N10 O8'
_chemical_formula_moiety
;
C46 H46 N10 O8
;
_journal_coden_Cambridge 29
_journal_volume 631
_journal_year 2005
_journal_page_first 2046
_journal_name_full 'Z.Anorg.Allg.Chem. '
loop_
_publ_author_name
"J.Martinez"
"R.Bastida"
"A.Macias"
"L.Valencia"
"M.Vicente"
_chemical_name_systematic
;
3,6,14,17-tetrakis(2-Nitrobenzyl)-3,6,14,17,23,24-hexaazatricyclo[17.3.1.1^8,1
2^]tetracosa-1(23),8(24),9,11,19,21-hexaene
;
_cell_volume   2208.220
_exptl_crystal_colour 'colorless'
_exptl_crystal_density_diffrn 1.304
_exptl_crystal_description 'plate'
_exptl_crystal_preparation 'acetonitrile'
_diffrn_ambient_temperature 293
#These two values have been output from a single CSD field.
_refine_ls_R_factor_gt 0.0918
_refine_ls_wR_factor_gt 0.0918
_symmetry_cell_setting monoclinic
_symmetry_space_group_name_H-M 'P 21/n'
_symmetry_Int_Tables_number 14
loop_
_symmetry_equiv_pos_site_id
_symmetry_equiv_pos_as_xyz
1 x,y,z
2 1/2-x,1/2+y,1/2-z
3 -x,-y,-z
4 -1/2+x,-1/2-y,-1/2+z
_cell_length_a 13.0635(17)
_cell_length_b 10.1164(14)
_cell_length_c 16.776(2)
_cell_angle_alpha 90
_cell_angle_beta 95.113(3)
_cell_angle_gamma 90
_cell_formula_units_Z 2
loop_
_atom_type_symbol
_atom_type_radius_bond
C 0.68
H 0.23
N 0.68
O 0.68
loop_
_atom_site_label
_atom_site_type_symbol
_atom_site_fract_x
_atom_site_fract_y
_atom_site_fract_z
N1 N 0.3248(3) -0.1370(4) 0.9952(3)
N2 N 0.5954(3) 0.2331(4) 0.8042(3)
N3 N 0.3411(3) 0.0671(5) 0.8193(3)
O1 O 0.7437(4) 0.1257(5) 0.6930(3)
C1 C 0.3197(4) -0.1255(6) 1.0756(4)
C2 C 0.5661(4) 0.3006(6) 0.6629(3)
O2 O 0.6300(4) -0.0284(5) 0.6678(3)
C3 C 0.3060(5) -0.0500(6) 0.8608(3)
H1 H 0.34980 -0.12450 0.85060
H2 H 0.23650 -0.07160 0.83970
C4 C 0.3082(4) -0.0280(6) 0.9502(3)
N4 N 0.6582(5) 0.0865(6) 0.6653(3)
C5 C 0.2004(5) 0.0962(6) 0.7119(4)
C6 C 0.2914(4) 0.0947(6) 0.9827(4)
H3 H 0.28270 0.16890 0.95010
C7 C 0.1444(5) 0.1590(6) 0.7677(4)
H4 H 0.17540 0.17570 0.81880
C8 C 0.4865(4) 0.2229(6) 0.8193(4)
H5 H 0.44450 0.25940 0.77400
H6 H 0.47460 0.27510 0.86600
C9 C 0.4983(5) 0.3857(6) 0.6200(4)
H7 H 0.48090 0.46540 0.64300
N5 N 0.2004(7) 0.0119(7) 0.5722(4)
C10 C 0.6127(5) 0.3367(5) 0.7462(3)
H8 H 0.58250 0.41870 0.76280
H9 H 0.68590 0.35070 0.74490
C11 C 0.4537(4) 0.0816(5) 0.8326(4)
H10 H 0.48630 0.02370 0.79630
H11 H 0.47640 0.05520 0.88690
C12 C 0.2878(5) 0.1050(7) 1.0654(4)
H12 H 0.27660 0.18630 1.08900
C13 C 0.3010(5) -0.0064(6) 1.1108(4)
H13 H 0.29730 -0.00180 1.16590
C14 C 0.5472(6) 0.1512(7) 0.5491(4)
H14 H 0.56430 0.07170 0.52580
O3 O 0.2904(6) 0.0274(8) 0.5715(3)
C15 C 0.1478(6) 0.0742(7) 0.6356(5)
C16 C 0.4807(6) 0.2388(9) 0.5078(5)
H15 H 0.45340 0.21870 0.45610
O4 O 0.1488(6) -0.0487(6) 0.5207(4)
C17 C 0.5878(4) 0.1832(6) 0.6254(4)
C18 C 0.3111(5) 0.0556(6) 0.7325(3)
H16 H 0.32030 -0.03510 0.71580
H17 H 0.35560 0.11120 0.70350
C19 C 0.4554(5) 0.3533(8) 0.5423(5)
H18 H 0.40950 0.41110 0.51470
C20 C 0.3352(5) -0.2512(6) 1.1224(3)
H19 H 0.26920 -0.28290 1.13670
H20 H 0.36370 -0.31780 1.08920
C21 C 0.0469(7) 0.1113(8) 0.6166(6)
H21 H 0.01490 0.09510 0.56570
C22 C 0.0430(6) 0.1973(7) 0.7483(6)
H22 H 0.00710 0.24020 0.78620
C23 C -0.0049(6) 0.1715(9) 0.6727(7)
H23 H -0.07320 0.19580 0.66050
N1B N 0.6752(3) 0.1370(4) 1.0048(3)
N2B N 0.4046(3) -0.2331(4) 1.1958(3)
N3B N 0.6589(3) -0.0671(5) 1.1807(3)
O1B O 0.2563(4) -0.1257(5) 1.3070(3)
C1B C 0.6803(4) 0.1255(6) 0.9244(4)
C2B C 0.4339(4) -0.3006(6) 1.3371(3)
O2B O 0.3700(4) 0.0284(5) 1.3322(3)
C3B C 0.6940(5) 0.0500(6) 1.1392(3)
H1B H 0.65020 0.12450 1.14940
H2B H 0.76350 0.07160 1.16030
C4B C 0.6918(4) 0.0280(6) 1.0498(3)
N4B N 0.3418(5) -0.0865(6) 1.3347(3)
C5B C 0.7996(5) -0.0962(6) 1.2881(4)
C6B C 0.7086(4) -0.0947(6) 1.0173(4)
H3B H 0.71730 -0.16890 1.04990
C7B C 0.8556(5) -0.1590(6) 1.2323(4)
H4B H 0.82460 -0.17570 1.18120
C8B C 0.5135(4) -0.2229(6) 1.1807(4)
H5B H 0.55550 -0.25940 1.22600
H6B H 0.52540 -0.27510 1.13400
C9B C 0.5017(5) -0.3857(6) 1.3800(4)
H7B H 0.51910 -0.46540 1.35700
N5B N 0.7996(7) -0.0119(7) 1.4278(4)
C10B C 0.3873(5) -0.3367(5) 1.2538(3)
H8B H 0.41750 -0.41870 1.23720
H9B H 0.31410 -0.35070 1.25510
C11B C 0.5463(4) -0.0816(5) 1.1674(4)
H10B H 0.51370 -0.02370 1.20370
H11B H 0.52360 -0.05520 1.11310
C12B C 0.7122(5) -0.1050(7) 0.9346(4)
H12B H 0.72340 -0.18630 0.91100
C13B C 0.6990(5) 0.0064(6) 0.8892(4)
H13B H 0.70270 0.00180 0.83410
C14B C 0.4528(6) -0.1512(7) 1.4509(4)
H14B H 0.43570 -0.07170 1.47420
O3B O 0.7096(6) -0.0274(8) 1.4285(3)
C15B C 0.8522(6) -0.0742(7) 1.3644(5)
C16B C 0.5193(6) -0.2388(9) 1.4922(5)
H15B H 0.54660 -0.21870 1.54390
O4B O 0.8512(6) 0.0487(6) 1.4793(4)
C17B C 0.4122(4) -0.1832(6) 1.3746(4)
C18B C 0.6889(5) -0.0556(6) 1.2675(3)
H16B H 0.67970 0.03510 1.28420
H17B H 0.64440 -0.11120 1.29650
C19B C 0.5446(5) -0.3533(8) 1.4577(5)
H18B H 0.59050 -0.41110 1.48530
C20B C 0.6648(5) 0.2512(6) 0.8776(3)
H19B H 0.73080 0.28290 0.86330
H20B H 0.63630 0.31780 0.91080
C21B C 0.9531(7) -0.1113(8) 1.3834(6)
H21B H 0.98510 -0.09510 1.43430
C22B C 0.9570(6) -0.1973(7) 1.2517(6)
H22B H 0.99290 -0.24020 1.21380
C23B C 1.0049(6) -0.1715(9) 1.3273(7)
H23B H 1.07320 -0.19580 1.33950
#END
