
#######################################################################
#
#                 Cambridge Crystallographic Data Centre
#                                CCDC
#
#######################################################################
#
# If this CIF has been generated from an entry in the Cambridge
# Structural Database, then it will include bibliographic, chemical,
# crystal, experimental, refinement or atomic coordinate data resulting
# from the CCDC's data processing and validation procedures.
#
#######################################################################

data_CSD_CIF_TAWBIE
_audit_creation_date 2012-05-09
_audit_creation_method CSD-ConQuest-V1
_database_code_CSD TAWBIE
_database_code_depnum_ccdc_archive 'CCDC 837686'
_chemical_formula_sum 'C18 H15 N1 O4'
_chemical_formula_moiety
;
C18 H15 N1 O4
;
_journal_coden_Cambridge 35
_journal_volume 76
_journal_year 2011
_journal_page_first 9678
_journal_name_full 'J.Org.Chem. '
loop_
_publ_author_name
"Ta-Hsien Chuang"
"Wei-Yu Chang"
"Chien-Fu Li"
"Yu-Chia Wen"
"Chia-Chen Tsai"
_chemical_name_systematic
;
5,6-Dimethoxy-1-(4-nitrobenzylidene)-1H-indene
;
_chemical_melting_point 403
_cell_volume   2975.438
_exptl_crystal_colour 'red'
_exptl_crystal_density_diffrn 1.381
_exptl_special_details
;
Melting point range 403-404K

;
_exptl_crystal_description 'parallelepiped'
_exptl_crystal_preparation 'dichloromethane/hexane'
_diffrn_ambient_temperature 297
#These two values have been output from a single CSD field.
_refine_ls_R_factor_gt 0.0431
_refine_ls_wR_factor_gt 0.0431
_symmetry_cell_setting monoclinic
_symmetry_space_group_name_H-M 'P 2/c'
_symmetry_Int_Tables_number 13
loop_
_symmetry_equiv_pos_site_id
_symmetry_equiv_pos_as_xyz
1 x,y,z
2 -x,y,1/2-z
3 -x,-y,-z
4 x,-y,-1/2+z
_cell_length_a 15.717
_cell_length_b 12.299
_cell_length_c 15.454
_cell_angle_alpha 90
_cell_angle_beta 95.11
_cell_angle_gamma 90
_cell_formula_units_Z 8
loop_
_atom_type_symbol
_atom_type_radius_bond
C 0.68
H 0.23
N 0.68
O 0.68
loop_
_atom_site_label
_atom_site_type_symbol
_atom_site_fract_x
_atom_site_fract_y
_atom_site_fract_z
O1 O 0.95954(7) 0.32515(8) 0.64203(7)
O2 O 1.02276(7) 0.50838(7) 0.60311(8)
O3 O 0.54416(9) 1.16919(9) 0.84365(10)
O4 O 0.64290(8) 1.26625(9) 0.79624(9)
N1 N 0.60975(10) 1.17887(12) 0.80845(10)
C1 C 0.83963(10) 0.40973(11) 0.70517(11)
H1 H 0.81700 0.34320 0.72020
C2 C 0.91365(10) 0.41387(11) 0.66375(11)
C3 C 0.94787(10) 0.51471(12) 0.64173(10)
C4 C 0.90652(9) 0.60989(11) 0.65957(10)
H2 H 0.92870 0.67660 0.64420
C5 C 0.83148(9) 0.60548(11) 0.70077(10)
C6 C 0.79926(10) 0.50577(12) 0.72421(10)
C7 C 0.72344(10) 0.52625(12) 0.76964(11)
H3 H 0.68980 0.47310 0.79250
C8 C 0.70986(10) 0.63320(13) 0.77332(11)
H4 H 0.66590 0.66590 0.80030
C9 C 0.77445(9) 0.69158(12) 0.72859(10)
C10 C 0.78306(9) 0.79827(11) 0.71202(10)
H5 H 0.82920 0.81470 0.68070
C11 C 0.73337(10) 0.89294(11) 0.73409(11)
C12 C 0.65434(10) 0.88834(12) 0.76832(11)
H6 H 0.62870 0.82110 0.77520
C13 C 0.61369(10) 0.98099(13) 0.79198(11)
H7 H 0.56150 0.97670 0.81570
C14 C 0.65097(10) 1.07960(12) 0.78021(11)
C15 C 0.72686(10) 1.08802(12) 0.74416(12)
H8 H 0.75080 1.15580 0.73520
C16 C 0.7672(1) 0.99487(12) 0.72147(11)
H9 H 0.81890 1.00040 0.69680
C17 C 0.92565(10) 0.22082(11) 0.65852(12)
H10 H 0.96370 0.16570 0.64070
H11 H 0.87080 0.21280 0.62650
H12 H 0.91960 0.21340 0.71950
C18 C 1.06125(10) 0.60693(12) 0.57948(12)
H13 H 1.11280 0.59120 0.55290
H14 H 1.07450 0.65050 0.63040
H15 H 1.02250 0.64590 0.53910
O5 O 0.87656(6) 1.19670(8) 0.93117(8)
O6 O 0.94414(7) 1.01340(8) 0.90157(9)
O7 O 0.47767(9) 0.34696(10) 1.15131(11)
O8 O 0.56283(9) 0.25333(10) 1.08059(10)
N2 N 0.53642(10) 0.33942(12) 1.10620(11)
C19 C 0.75119(10) 1.11319(11) 0.98541(10)
H16 H 0.72640 1.17990 0.99630
C20 C 0.82947(10) 1.10849(11) 0.95275(11)
C21 C 0.86719(10) 1.00777(12) 0.93735(11)
C22 C 0.82671(9) 0.91248(11) 0.95555(11)
H17 H 0.85220 0.84580 0.94620
C23 C 0.74753(9) 0.91699(11) 0.98797(10)
C24 C 0.70952(9) 1.01726(12) 1.00201(10)
C25 C 0.62535(10) 0.99508(13) 1.03155(11)
H18 H 0.58620 1.04770 1.04500
C26 C 0.61334(10) 0.88831(12) 1.03626(11)
H19 H 0.56410 0.85530 1.05280
C27 C 0.68883(9) 0.83036(12) 1.01155(10)
C28 C 0.70636(9) 0.72358(11) 1.00902(10)
H20 H 0.75790 0.70730 0.98680
C29 C 0.65926(9) 0.62852(11) 1.03478(11)
C30 C 0.59461(10) 0.63121(12) 1.09015(11)
H21 H 0.57850 0.69770 1.11240
C31 C 0.55351(10) 0.53790(13) 1.11316(11)
H22 H 0.50970 0.54120 1.14980
C32 C 0.57836(10) 0.44044(12) 1.08116(12)
C33 C 0.64219(11) 0.43395(12) 1.02698(12)
H23 H 0.65820 0.36710 1.00550
C34 C 0.6824(1) 0.52754(12) 1.00466(12)
H24 H 0.72640 0.52310 0.96830
C35 C 0.83939(10) 1.30098(11) 0.93505(12)
H25 H 0.87900 1.35480 0.91820
H26 H 0.82570 1.31520 0.99330
H27 H 0.78820 1.30380 0.89630
C36 C 0.98496(10) 0.91394(12) 0.88481(13)
H28 H 1.03790 0.92850 0.86050
H29 H 0.94860 0.87170 0.84450
H30 H 0.99610 0.87420 0.93810
#END
