
#######################################################################
#
#                 Cambridge Crystallographic Data Centre
#                                CCDC
#
#######################################################################
#
# If this CIF has been generated from an entry in the Cambridge
# Structural Database, then it will include bibliographic, chemical,
# crystal, experimental, refinement or atomic coordinate data resulting
# from the CCDC's data processing and validation procedures.
#
#######################################################################

data_CSD_CIF_TAWLUZ
_audit_creation_date 2005-12-15
_audit_creation_method CSD-ConQuest-V1
_database_code_CSD TAWLUZ
_database_code_depnum_ccdc_archive 'CCDC 285502'
_chemical_formula_sum 'C18 H12 N2 O2'
_chemical_formula_moiety
;
C18 H12 N2 O2
;
_journal_coeditor_code "IUCr CI6626"
_journal_coden_Cambridge 1370
_journal_volume 61
_journal_year 2005
_journal_page_first o3073
_journal_name_full 'Acta Crystallogr.,Sect.E:Struct.Rep.Online '
loop_
_publ_author_name
"Lian-Qing Chen"
"Chu-Luo Yang"
"Xiang-Gao Meng"
"Jin-Gui Qin"
_chemical_name_systematic
;
9-(4-Nitrophenyl)-9H-carbazole
;
_chemical_melting_point 483.3
_cell_volume   1418.692
_exptl_crystal_colour 'yellow'
_exptl_crystal_density_diffrn 1.35
_exptl_special_details
;
Melting point range 483.3-484.2K
P21/c polymorph

;
_exptl_crystal_description 'block'
_exptl_crystal_preparation '1-nitrobenzene'
_diffrn_ambient_temperature 292
#These two values have been output from a single CSD field.
_refine_ls_R_factor_gt 0.0453
_refine_ls_wR_factor_gt 0.0453
_symmetry_cell_setting monoclinic
_symmetry_space_group_name_H-M 'P 21/c'
_symmetry_Int_Tables_number 14
loop_
_symmetry_equiv_pos_site_id
_symmetry_equiv_pos_as_xyz
1 x,y,z
2 -x,1/2+y,1/2-z
3 -x,-y,-z
4 x,-1/2-y,-1/2+z
_cell_length_a 8.356(2)
_cell_length_b 21.620(5)
_cell_length_c 8.153(2)
_cell_angle_alpha 90
_cell_angle_beta 105.592(4)
_cell_angle_gamma 90
_cell_formula_units_Z 4
loop_
_atom_type_symbol
_atom_type_radius_bond
C 0.68
H 0.23
N 0.68
O 0.68
loop_
_atom_site_label
_atom_site_type_symbol
_atom_site_fract_x
_atom_site_fract_y
_atom_site_fract_z
C1 C 0.39653(18) 0.64622(6) -0.16802(17)
C2 C 0.22878(19) 0.64441(7) -0.25192(19)
H1 H 0.15410 0.62210 -0.20860
C3 C 0.1772(2) 0.67695(8) -0.4020(2)
H2 H 0.06510 0.67680 -0.46060
C4 C 0.2880(2) 0.71000(7) -0.4682(2)
H3 H 0.24910 0.73110 -0.57070
C5 C 0.4545(2) 0.71203(7) -0.3844(2)
H4 H 0.52800 0.73450 -0.42900
C6 C 0.51101(18) 0.67991(6) -0.23173(18)
C7 C 0.67232(18) 0.67304(6) -0.11069(19)
C8 C 0.8315(2) 0.69328(8) -0.1071(2)
H5 H 0.84910 0.71780 -0.19440
C9 C 0.9617(2) 0.67644(9) 0.0273(3)
H6 H 1.06840 0.68970 0.03060
C10 C 0.9373(2) 0.63998(8) 0.1587(2)
H7 H 1.02810 0.62900 0.24790
C11 C 0.78152(19) 0.61972(7) 0.1596(2)
H8 H 0.76540 0.59550 0.24800
C12 C 0.64945(17) 0.63676(6) 0.02394(18)
C13 C 0.40942(16) 0.58546(6) 0.09815(17)
C14 C 0.44030(18) 0.60276(6) 0.26771(18)
H9 H 0.50530 0.63740 0.30750
C15 C 0.37477(17) 0.56880(7) 0.37736(18)
H10 H 0.39590 0.57980 0.49150
C16 C 0.27737(17) 0.51822(6) 0.31454(18)
C17 C 0.24367(18) 0.50062(7) 0.14707(19)
H11 H 0.17690 0.46640 0.10780
C18 C 0.31024(17) 0.53444(7) 0.03781(18)
H12 H 0.28870 0.52310 -0.07610
N1 N 0.48130(14) 0.62002(5) -0.01172(14)
N2 N 0.20891(17) 0.48228(7) 0.43288(19)
O1 O 0.1357(2) 0.43467(7) 0.3819(2)
O2 O 0.23075(18) 0.50086(6) 0.57704(18)
#END
