
#######################################################################
#
#                 Cambridge Crystallographic Data Centre
#                                CCDC
#
#######################################################################
#
# If this CIF has been generated from an entry in the Cambridge
# Structural Database, then it will include bibliographic, chemical,
# crystal, experimental, refinement or atomic coordinate data resulting
# from the CCDC's data processing and validation procedures.
#
#######################################################################

data_CSD_CIF_TAWLIN
_audit_creation_date 2005-12-15
_audit_creation_method CSD-ConQuest-V1
_database_code_CSD TAWLIN
_database_code_depnum_ccdc_archive 'CCDC 285500'
_chemical_formula_sum 'C16 H18 N4 O4'
_chemical_formula_moiety
;
C16 H18 N4 O4
;
_journal_coeditor_code "IUCr BT6721"
_journal_coden_Cambridge 1370
_journal_volume 61
_journal_year 2005
_journal_page_first o3069
_journal_name_full 'Acta Crystallogr.,Sect.E:Struct.Rep.Online '
loop_
_publ_author_name
"Wei Liu"
"Yuan Ma"
"Ru-Ji Wang"
"Ying-Wu Yin"
"Yu-Fen Zhao"
_chemical_name_systematic
;
1,2-Diethyl-1,2-bis(2-nitrophenyl)hydrazine
;
_chemical_melting_point 395
_cell_volume   2450.510
_exptl_crystal_colour 'red'
_exptl_crystal_density_diffrn 1.343
_exptl_crystal_description 'prism'
_exptl_crystal_preparation 'ethyl acetate/petroleum ether'
_diffrn_ambient_temperature 295
#These two values have been output from a single CSD field.
_refine_ls_R_factor_gt 0.047
_refine_ls_wR_factor_gt 0.047
_symmetry_cell_setting orthorhombic
_symmetry_space_group_name_H-M 'P 21 21 2'
_symmetry_Int_Tables_number 18
loop_
_symmetry_equiv_pos_site_id
_symmetry_equiv_pos_as_xyz
1 x,y,z
2 -x,-y,z
3 1/2-x,1/2+y,-z
4 1/2+x,1/2-y,-z
_cell_length_a 7.8212(16)
_cell_length_b 46.154(4)
_cell_length_c 6.7885(8)
_cell_angle_alpha 90
_cell_angle_beta 90
_cell_angle_gamma 90
_cell_formula_units_Z 6
loop_
_atom_type_symbol
_atom_type_radius_bond
C 0.68
H 0.23
N 0.68
O 0.68
loop_
_atom_site_label
_atom_site_type_symbol
_atom_site_fract_x
_atom_site_fract_y
_atom_site_fract_z
O1 O 1.2281(5) 0.18667(8) 0.7748(7)
O2 O 0.9552(5) 0.18962(7) 0.7215(5)
O3 O 1.1594(5) 0.11903(8) 0.8338(7)
O4 O 1.0551(5) 0.07597(7) 0.8584(6)
O5 O 0.1050(4) 0.02616(7) 0.3721(8)
O6 O 0.0890(5) 0.07220(7) 0.3956(6)
N1 N 0.8269(5) 0.17853(7) 1.1264(5)
N2 N 0.9069(5) 0.15309(6) 1.0533(5)
N3 N 1.0841(6) 0.19364(8) 0.8239(7)
N4 N 1.0409(5) 0.10215(9) 0.8367(6)
N5 N 0.4406(5) 0.01142(6) 0.5341(5)
N6 N 0.1678(5) 0.04976(9) 0.3700(7)
C1 C 0.9351(6) 0.20235(8) 1.1463(6)
C2 C 1.0632(6) 0.20944(8) 1.0108(7)
C3 C 1.1743(7) 0.23244(9) 1.0352(8)
H1 H 1.26100 0.23560 0.94390
C4 C 1.1566(8) 0.25056(10) 1.1939(9)
H2 H 1.22840 0.26650 1.20940
C5 C 1.0311(8) 0.24478(10) 1.3294(8)
H3 H 1.01800 0.25700 1.43740
C6 C 0.9233(7) 0.22107(8) 1.3086(7)
H4 H 0.84120 0.21750 1.40460
C7 C 0.8112(6) 0.13925(8) 0.9041(6)
C8 C 0.8675(6) 0.11420(9) 0.8068(7)
C9 C 0.7706(6) 0.09950(9) 0.6694(7)
H5 H 0.81170 0.08250 0.61240
C10 C 0.6112(6) 0.11027(10) 0.6172(7)
H6 H 0.54310 0.10050 0.52670
C11 C 0.5553(6) 0.13579(9) 0.7021(7)
H7 H 0.45090 0.14360 0.66360
C12 C 0.6515(6) 0.14984(9) 0.8427(6)
H8 H 0.60960 0.16680 0.89850
C13 C 0.6882(6) 0.17443(9) 1.2737(7)
H9 H 0.73610 0.17630 1.40490
H10 H 0.64280 0.15500 1.26080
C14 C 0.5432(7) 0.19596(10) 1.2512(8)
H11 H 0.45810 0.19230 1.35010
H12 H 0.49290 0.19390 1.12290
H13 H 0.58670 0.21530 1.26640
C15 C 0.9803(6) 0.13491(9) 1.2135(7)
H14 H 0.99700 0.11540 1.16460
H15 H 0.89960 0.13400 1.32170
C16 C 1.1475(7) 0.14636(9) 1.2883(9)
H16 H 1.19010 0.13380 1.38980
H17 H 1.13110 0.16550 1.34090
H18 H 1.22840 0.14710 1.18200
C17 C 0.3525(6) 0.05239(9) 0.3234(7)
C18 C 0.4751(6) 0.03327(9) 0.3972(7)
C19 C 0.6404(6) 0.03630(9) 0.3168(8)
H19 H 0.72600 0.02350 0.35570
C20 C 0.6785(7) 0.05771(9) 0.1817(8)
H20 H 0.78920 0.05920 0.13270
C21 C 0.5547(7) 0.07711(10) 0.1177(8)
H21 H 0.58120 0.09160 0.02760
C22 C 0.3918(6) 0.07424(9) 0.1913(8)
H22 H 0.30700 0.08710 0.15190
C23 C 0.3415(7) 0.01775(11) 0.719(1)
H23 H 0.42040 0.02140 0.82640
H24 H 0.27300 0.03500 0.69990
C24 C 0.2283(8) -0.00690(13) 0.7707(10)
H25 H 0.16740 -0.00250 0.88980
H26 H 0.29600 -0.02400 0.79000
H27 H 0.14810 -0.01010 0.66590
O5A O 0.8950(4) -0.02616(7) 0.3721(8)
O6A O 0.9110(5) -0.07220(7) 0.3956(6)
N5A N 0.5594(5) -0.01142(6) 0.5341(5)
N6A N 0.8322(5) -0.04976(9) 0.3700(7)
C17A C 0.6475(6) -0.05239(9) 0.3234(7)
C18A C 0.5249(6) -0.03327(9) 0.3972(7)
C19A C 0.3596(6) -0.03630(9) 0.3168(8)
H19A H 0.27400 -0.02350 0.35570
C20A C 0.3215(7) -0.05771(9) 0.1817(8)
H20A H 0.21080 -0.05920 0.13270
C21A C 0.4453(7) -0.07711(10) 0.1177(8)
H21A H 0.41880 -0.09160 0.02760
C22A C 0.6082(6) -0.07424(9) 0.1913(8)
H22A H 0.69300 -0.08710 0.15190
C23A C 0.6585(7) -0.01775(11) 0.719(1)
H23A H 0.57960 -0.02140 0.82640
H24A H 0.72700 -0.03500 0.69990
C24A C 0.7717(8) 0.00690(13) 0.7707(10)
H25A H 0.83260 0.00250 0.88980
H26A H 0.70400 0.02400 0.79000
H27A H 0.85190 0.01010 0.66590
#END
