
#######################################################################
#
#                 Cambridge Crystallographic Data Centre
#                                CCDC
#
#######################################################################
#
# If this CIF has been generated from an entry in the Cambridge
# Structural Database, then it will include bibliographic, chemical,
# crystal, experimental, refinement or atomic coordinate data resulting
# from the CCDC's data processing and validation procedures.
#
#######################################################################

data_CSD_CIF_TAWSEQ
_audit_creation_date 2005-12-15
_audit_creation_method CSD-ConQuest-V1
_database_code_CSD TAWSEQ
_database_code_depnum_ccdc_archive 'CCDC 270922'
_chemical_formula_sum 'C15 H16 N2 O2'
_chemical_formula_moiety
;
C15 H16 N2 O2
;
_journal_coden_Cambridge 177
_journal_volume 3
_journal_year 2005
_journal_page_first 3273
_journal_name_full 'Org.Biomol.Chem. '
loop_
_publ_author_name
"J.O'Leary"
"X.Formosa"
"W.Skranc"
"J.D.Wallis"
_chemical_name_systematic
;
1-(8-(Dimethylamino)naphthyl)-2-nitropropene
;
_chemical_melting_point 341
_cell_volume   1305.590
_exptl_crystal_colour 'pale yellow'
_exptl_crystal_density_diffrn 1.304
_exptl_special_details
;
Melting point range 341-342K

;
_exptl_crystal_description 'slab'
_exptl_crystal_preparation 'ether'
_diffrn_ambient_temperature 120
#These two values have been output from a single CSD field.
_refine_ls_R_factor_gt 0.0497
_refine_ls_wR_factor_gt 0.0497
_symmetry_cell_setting monoclinic
_symmetry_space_group_name_H-M 'P 21/n'
_symmetry_Int_Tables_number 14
loop_
_symmetry_equiv_pos_site_id
_symmetry_equiv_pos_as_xyz
1 x,y,z
2 1/2-x,1/2+y,1/2-z
3 -x,-y,-z
4 -1/2+x,-1/2-y,-1/2+z
_cell_length_a 10.3347(3)
_cell_length_b 7.0992(2)
_cell_length_c 18.2556(5)
_cell_angle_alpha 90
_cell_angle_beta 102.897(2)
_cell_angle_gamma 90
_cell_formula_units_Z 4
loop_
_atom_type_symbol
_atom_type_radius_bond
C 0.68
H 0.23
N 0.68
O 0.68
loop_
_atom_site_label
_atom_site_type_symbol
_atom_site_fract_x
_atom_site_fract_y
_atom_site_fract_z
O1 O 1.14762(13) 0.64249(19) 0.45551(6)
O2 O 0.96101(15) 0.7282(2) 0.47932(7)
N1 N 1.09222(11) 0.18677(16) 0.31855(6)
N2 N 1.02653(14) 0.66250(18) 0.43734(7)
C1 C 1.08019(13) 0.18804(19) 0.23946(7)
C2 C 1.12672(14) 0.0444(2) 0.20173(8)
C3 C 1.10354(15) 0.0440(2) 0.12254(8)
C4 C 1.03046(14) 0.1831(2) 0.08156(8)
C5 C 0.90677(14) 0.4817(2) 0.07569(7)
C6 C 0.86436(14) 0.6326(2) 0.11028(8)
C7 C 0.90175(14) 0.6491(2) 0.18917(8)
C8 C 0.97581(13) 0.51151(19) 0.23317(7)
C9 C 1.01339(12) 0.34527(19) 0.19818(7)
C10 C 0.98277(13) 0.3363(2) 0.11791(7)
C11 C 1.02740(13) 0.55196(18) 0.31409(7)
C12 C 0.95363(14) 0.60882(19) 0.36140(7)
C13 C 0.80659(15) 0.6226(2) 0.34956(9)
C14 C 0.96708(15) 0.1384(2) 0.33909(8)
C15 C 1.20206(16) 0.0762(2) 0.36215(9)
H1 H 1.1737(19) -0.069(3) 0.2302(11)
H2 H 1.139(2) -0.056(3) 0.0969(11)
H3 H 1.0089(19) 0.183(3) 0.0267(11)
H4 H 0.8873(18) 0.472(2) 0.0209(10)
H5 H 0.8129(19) 0.736(3) 0.0817(10)
H6 H 0.8787(18) 0.763(3) 0.2114(10)
H7 H 1.1221(17) 0.548(2) 0.3299(9)
H8 H 0.7643(19) 0.562(3) 0.3022(11)
H9 H 0.779(2) 0.753(3) 0.3501(11)
H10 H 0.776(2) 0.557(3) 0.3907(12)
H11 H 0.894(2) 0.220(3) 0.3093(11)
H12 H 0.944(2) 0.004(3) 0.3285(11)
H13 H 0.975(2) 0.157(3) 0.3919(12)
H14 H 1.2867(19) 0.107(3) 0.350(1)
H15 H 1.207(2) 0.105(3) 0.4148(13)
H16 H 1.188(2) -0.061(3) 0.3545(12)
#END
