
#######################################################################
#
#                 Cambridge Crystallographic Data Centre
#                                CCDC
#
#######################################################################
#
# If this CIF has been generated from an entry in the Cambridge
# Structural Database, then it will include bibliographic, chemical,
# crystal, experimental, refinement or atomic coordinate data resulting
# from the CCDC's data processing and validation procedures.
#
#######################################################################

data_CSD_CIF_TAWVUJ
_audit_creation_date 2005-12-15
_audit_creation_method CSD-ConQuest-V1
_database_code_CSD TAWVUJ
_database_code_depnum_ccdc_archive 'CCDC 260852'
_chemical_formula_sum 'C19 H21 N2 O2'
_chemical_formula_moiety
;
C19 H21 N2 O2
;
_journal_coden_Cambridge 1291
_journal_year 2005
_journal_page_first 3697
_journal_name_full 'Eur.J.Org.Chem. '
loop_
_publ_author_name
"C.Stroh"
"M.Mayor"
"C.von Hanisch"
_chemical_name_systematic
;
2-(Biphenyl-2-yl)-4,4,5,5-tetramethylimidazoline-1-oxyl-3-oxide
;
_chemical_melting_point 412.15
_cell_volume   1659.709
_exptl_crystal_colour 'pink'
_exptl_crystal_density_diffrn 1.238
_exptl_special_details
;
Melting point range 412.15-418.15K

;
_exptl_crystal_preparation 'dichloromethane/hexane'
_diffrn_ambient_temperature 200
#These two values have been output from a single CSD field.
_refine_ls_R_factor_gt 0.04
_refine_ls_wR_factor_gt 0.04
_symmetry_cell_setting monoclinic
_symmetry_space_group_name_H-M 'P 21/c'
_symmetry_Int_Tables_number 14
loop_
_symmetry_equiv_pos_site_id
_symmetry_equiv_pos_as_xyz
1 x,y,z
2 -x,1/2+y,1/2-z
3 -x,-y,-z
4 x,-1/2-y,-1/2+z
_cell_length_a 14.048(3)
_cell_length_b 6.1625(12)
_cell_length_c 19.408(4)
_cell_angle_alpha 90
_cell_angle_beta 98.95(3)
_cell_angle_gamma 90
_cell_formula_units_Z 4
loop_
_atom_type_symbol
_atom_type_radius_bond
C 0.68
H 0.23
N 0.68
O 0.68
loop_
_atom_site_label
_atom_site_type_symbol
_atom_site_fract_x
_atom_site_fract_y
_atom_site_fract_z
O1 O 0.42881(10) 0.2126(2) 0.44703(6)
N1 N 0.21116(11) -0.0572(2) 0.42181(7)
O2 O 0.14975(10) -0.1944(2) 0.39114(6)
N2 N 0.34476(11) 0.1323(2) 0.44963(7)
C1 C 0.22524(14) 0.2688(3) 0.27889(9)
H1 H 0.27760 0.31790 0.31220
C2 C 0.30679(13) -0.0959(3) 0.27672(8)
C3 C 0.34135(13) -0.1280(3) 0.34923(8)
C4 C 0.14758(15) 0.4071(3) 0.25756(9)
H2 H 0.14650 0.54800 0.27730
C5 C 0.07355(14) 0.1334(3) 0.17831(9)
H3 H 0.02240 0.08760 0.14340
C6 C 0.35030(14) -0.2185(3) 0.22898(8)
H4 H 0.32890 -0.20000 0.18040
C7 C 0.15014(14) -0.0056(3) 0.20004(8)
H5 H 0.15080 -0.14580 0.17970
C8 C 0.29855(13) -0.0147(3) 0.40461(8)
C9 C 0.22690(13) 0.0580(3) 0.25174(8)
C10 C 0.18744(13) 0.0913(3) 0.47955(8)
C11 C 0.29035(14) 0.1796(3) 0.50968(8)
C12 C 0.45561(14) -0.3970(3) 0.32206(9)
H6 H 0.50520 -0.49890 0.33710
C13 C 0.41437(13) -0.2777(3) 0.37105(9)
H7 H 0.43610 -0.29850 0.41940
C14 C 0.11762(15) 0.2636(3) 0.44364(10)
H8 H 0.09990 0.36390 0.47870
H9 H 0.05950 0.19240 0.41940
H10 H 0.14890 0.34450 0.40990
C15 C 0.07145(15) 0.3388(3) 0.20730(9)
H11 H 0.01840 0.43250 0.19300
C16 C 0.34176(16) 0.0492(3) 0.57241(9)
H12 H 0.30930 0.07380 0.61290
H13 H 0.40900 0.09670 0.58340
H14 H 0.33970 -0.10570 0.56080
C17 C 0.13821(15) -0.0432(3) 0.53061(9)
H15 H 0.12260 0.05090 0.56800
H16 H 0.18180 -0.15890 0.55070
H17 H 0.07890 -0.10740 0.50570
C18 C 0.42357(14) -0.3658(3) 0.25081(9)
H18 H 0.45200 -0.44550 0.21740
C19 C 0.29596(17) 0.4217(3) 0.52609(10)
H19 H 0.26130 0.45220 0.56510
H20 H 0.26660 0.50380 0.48500
H21 H 0.36360 0.46470 0.53880
#END
