
#######################################################################
#
#                 Cambridge Crystallographic Data Centre
#                                CCDC
#
#######################################################################
#
# If this CIF has been generated from an entry in the Cambridge
# Structural Database, then it will include bibliographic, chemical,
# crystal, experimental, refinement or atomic coordinate data resulting
# from the CCDC's data processing and validation procedures.
#
#######################################################################

data_CSD_CIF_TAWWAQ
_audit_creation_date 2005-12-15
_audit_creation_method CSD-ConQuest-V1
_database_code_CSD TAWWAQ
_database_code_depnum_ccdc_archive 'CCDC 260853'
_chemical_formula_sum 'C20 H20 N3 O2'
_chemical_formula_moiety
;
C20 H20 N3 O2
;
_journal_coden_Cambridge 1291
_journal_year 2005
_journal_page_first 3697
_journal_name_full 'Eur.J.Org.Chem. '
loop_
_publ_author_name
"C.Stroh"
"M.Mayor"
"C.von Hanisch"
_chemical_name_systematic
;
2-(4'-Cyanobiphenyl-3-yl)-4,4,5,5-tetramethylimidazoline-1-oxyl-3-oxide
;
_cell_volume   3595.004
_exptl_crystal_colour 'violet'
_exptl_crystal_density_diffrn 1.236
_exptl_crystal_preparation 'dichloromethane/hexane'
_diffrn_ambient_temperature 200
#These two values have been output from a single CSD field.
_refine_ls_R_factor_gt 0.0513
_refine_ls_wR_factor_gt 0.0513
_symmetry_cell_setting monoclinic
_symmetry_space_group_name_H-M 'P 21/n'
_symmetry_Int_Tables_number 14
loop_
_symmetry_equiv_pos_site_id
_symmetry_equiv_pos_as_xyz
1 x,y,z
2 1/2-x,1/2+y,1/2-z
3 -x,-y,-z
4 -1/2+x,-1/2-y,-1/2+z
_cell_length_a 7.1496(14)
_cell_length_b 15.405(3)
_cell_length_c 32.682(7)
_cell_angle_alpha 90
_cell_angle_beta 92.89(3)
_cell_angle_gamma 90
_cell_formula_units_Z 8
loop_
_atom_type_symbol
_atom_type_radius_bond
C 0.68
H 0.23
N 0.68
O 0.68
loop_
_atom_site_label
_atom_site_type_symbol
_atom_site_fract_x
_atom_site_fract_y
_atom_site_fract_z
C1 C 0.6030(5) 0.1952(2) 0.09399(12)
C2 C 0.6169(5) 0.11384(19) 0.11663(12)
C3 C 0.6628(5) 0.11428(19) 0.15836(13)
H1 H 0.69060 0.16760 0.17190
C4 C 0.6684(4) 0.03680(19) 0.18056(11)
H2 H 0.70150 0.03790 0.20910
C5 C 0.6255(4) -0.04295(18) 0.16121(11)
C6 C 0.5838(5) -0.0423(2) 0.11896(11)
H3 H 0.55930 -0.09560 0.10520
C7 C 0.5772(5) 0.0351(2) 0.09647(12)
H4 H 0.54620 0.03420 0.06790
C8 C 0.6187(4) -0.12577(18) 0.18543(11)
C9 C 0.5978(5) -0.1249(2) 0.22786(12)
H5 H 0.59070 -0.07090 0.24180
C10 C 0.5874(5) -0.2017(2) 0.24985(11)
H6 H 0.57620 -0.19950 0.27870
C11 C 0.5933(5) -0.2823(2) 0.23025(11)
H7 H 0.58630 -0.33440 0.24570
C12 C 0.6096(4) -0.28574(18) 0.18761(10)
C13 C 0.6265(4) -0.20729(19) 0.16588(10)
H8 H 0.64380 -0.20940 0.13730
C14 C 0.6024(4) -0.36970(18) 0.16594(10)
C15 C 0.5357(6) -0.4761(2) 0.11366(12)
C16 C 0.6169(5) -0.52206(19) 0.15229(11)
C17 C 0.3149(6) -0.4843(3) 0.11044(15)
H9 H 0.26570 -0.45430 0.08570
H10 H 0.26270 -0.45780 0.13460
H11 H 0.27970 -0.54570 0.10900
C18 C 0.6118(8) -0.4993(2) 0.07332(13)
H12 H 0.54690 -0.46540 0.05150
H13 H 0.59230 -0.56130 0.06800
H14 H 0.74610 -0.48630 0.07390
C19 C 0.5111(6) -0.6008(2) 0.16770(13)
H15 H 0.57810 -0.62440 0.19210
H16 H 0.50260 -0.64530 0.14620
H17 H 0.38480 -0.58320 0.17460
C20 C 0.8263(6) -0.5469(3) 0.14897(15)
H18 H 0.87190 -0.57590 0.17420
H19 H 0.90010 -0.49420 0.14490
H20 H 0.83900 -0.58610 0.12570
C21 C 0.1130(5) -0.3260(3) 0.19758(12)
C22 C 0.1135(5) -0.2339(2) 0.18731(12)
C23 C 0.1473(5) -0.2069(2) 0.14743(11)
H21 H 0.16730 -0.24850 0.12670
C24 C 0.1512(5) -0.1185(2) 0.13844(11)
H22 H 0.17290 -0.10050 0.11130
C25 C 0.1240(4) -0.0554(2) 0.16857(11)
C26 C 0.0872(5) -0.0840(2) 0.20794(11)
H23 H 0.06530 -0.04260 0.22870
C27 C 0.0819(5) -0.1725(2) 0.21740(11)
H24 H 0.05690 -0.19060 0.24440
C28 C 0.1382(4) 0.0402(2) 0.15918(11)
C29 C 0.1033(4) 0.0711(2) 0.11915(11)
H25 H 0.06830 0.03120 0.09800
C30 C 0.1189(4) 0.1607(2) 0.10956(11)
C31 C 0.1676(5) 0.2196(2) 0.14143(11)
H26 H 0.17630 0.27990 0.13590
C32 C 0.2028(5) 0.1886(2) 0.18102(12)
H27 H 0.23650 0.22830 0.20240
C33 C 0.1897(5) 0.1002(2) 0.18997(11)
H28 H 0.21600 0.08060 0.21720
C34 C 0.0923(5) 0.19072(19) 0.06731(11)
C35 C 0.0578(6) 0.2841(2) 0.00902(11)
C36 C 0.0406(5) 0.1872(2) -0.00536(11)
C37 C -0.1639(6) 0.1575(2) -0.01421(13)
H29 H -0.16530 0.09670 -0.02300
H30 H -0.22250 0.19370 -0.03590
H31 H -0.23350 0.16340 0.01070
C38 C 0.1600(6) 0.1610(3) -0.04024(12)
H32 H 0.13880 0.09960 -0.04670
H33 H 0.29250 0.17010 -0.03220
H34 H 0.12620 0.19640 -0.06440
C39 C -0.1017(7) 0.3434(2) -0.00671(14)
H35 H -0.07970 0.40240 0.00370
H36 H -0.22070 0.32160 0.00290
H37 H -0.10700 0.34410 -0.03670
C40 C 0.2493(7) 0.3238(3) 0.00154(14)
H38 H 0.25220 0.38410 0.01100
H39 H 0.27100 0.32210 -0.02780
H40 H 0.34720 0.29050 0.01660
N1 N 0.5892(5) 0.2598(2) 0.07598(11)
N2 N 0.6150(4) -0.45008(15) 0.18333(9)
N3 N 0.5716(4) -0.38164(15) 0.12490(9)
N4 N 0.1178(5) -0.3997(2) 0.20605(11)
N5 N 0.1081(4) 0.14096(17) 0.03319(9)
N6 N 0.0511(4) 0.27317(16) 0.05454(9)
O1 O 0.6418(4) -0.46727(14) 0.22187(8)
O2 O 0.5463(5) -0.32186(15) 0.09732(8)
O3 O 0.1617(4) 0.06056(15) 0.03232(8)
O4 O 0.0267(4) 0.34025(14) 0.07771(8)
#END
