
#######################################################################
#
#                 Cambridge Crystallographic Data Centre
#                                CCDC
#
#######################################################################
#
# If this CIF has been generated from an entry in the Cambridge
# Structural Database, then it will include bibliographic, chemical,
# crystal, experimental, refinement or atomic coordinate data resulting
# from the CCDC's data processing and validation procedures.
#
#######################################################################

data_CSD_CIF_TAWYIC
_audit_creation_date 2017-03-31
_audit_creation_method CSD-ConQuest-V1
_database_code_CSD TAWYIC
_database_code_depnum_ccdc_archive 'CCDC 1541547'
_chemical_formula_sum 'C17 H21 N1 O4'
_chemical_formula_moiety
;
C17 H21 N1 O4
;
_journal_coden_Cambridge 1078
_journal_year 2017
_journal_name_full 'CSD Communication(Private Communication) '
loop_
_publ_author_name
"J.W.Bats"
"A.Stephen K.Hashmi"
_chemical_name_systematic
;
6-[(5-methoxy-2-nitrophenyl)methyl]-3,5,5-trimethylcyclohex-2-en-1-one
;
_chemical_name_common
;
1-(2-nitro-5-methoxybenzyl)-4,6,6-trimethylcyclohex-3-en-2-one
;
_cell_volume    784.931
_exptl_crystal_colour 'colorless'
_exptl_crystal_density_diffrn 1.283
_exptl_crystal_description 'rod'
_diffrn_ambient_temperature 143
#These two values have been output from a single CSD field.
_refine_ls_R_factor_gt 0.0508
_refine_ls_wR_factor_gt 0.0508
_symmetry_cell_setting triclinic
_symmetry_space_group_name_H-M 'P -1'
_symmetry_Int_Tables_number 2
loop_
_symmetry_equiv_pos_site_id
_symmetry_equiv_pos_as_xyz
1 x,y,z
2 -x,-y,-z
_cell_length_a 7.9810(19)
_cell_length_b 9.1356(13)
_cell_length_c 11.459(2)
_cell_angle_alpha 84.933(13)
_cell_angle_beta 71.109(13)
_cell_angle_gamma 84.080(19)
_cell_formula_units_Z 2
loop_
_atom_type_symbol
_atom_type_radius_bond
C 0.68
H 0.23
N 0.68
O 0.68
loop_
_atom_site_label
_atom_site_type_symbol
_atom_site_fract_x
_atom_site_fract_y
_atom_site_fract_z
O1 O 0.29217(16) 0.30208(13) 0.6789(1)
O2 O 0.55178(16) 0.28120(13) 0.23620(11)
O3 O 0.22827(19) -0.28275(13) 0.46538(12)
C1 C 0.2523(2) -0.03423(17) 0.47614(14)
O4 O 0.2810(2) -0.14632(14) 0.29601(11)
C2 C 0.2718(2) 0.19544(18) 0.61013(14)
C3 C 0.3040(2) 0.05020(18) 0.65229(14)
H1 H 0.33292 0.03076 0.72662
C4 C 0.21432(19) 0.10916(17) 0.43272(13)
N1 N 0.25328(18) -0.16223(15) 0.40798(13)
C5 C 0.3330(2) 0.45452(18) 0.19987(15)
C6 C 0.2935(2) -0.06359(18) 0.58568(14)
H2 H 0.31428 -0.16258 0.61398
C7 C 0.2233(2) 0.22321(17) 0.50353(14)
H3 H 0.19574 0.32212 0.47830
C8 C 0.3106(2) 0.17913(16) 0.19849(13)
H4 H 0.39382 0.08813 0.18288
C9 C 0.1357(2) 0.09623(18) 0.06770(15)
H5 H 0.11005 0.11709 -0.01044
H6 H 0.02392 0.09464 0.13628
H7 H 0.20327 0.00018 0.06628
C10 C 0.4117(2) 0.30454(17) 0.21338(14)
C11 C 0.2079(2) 0.48458(17) 0.14491(14)
C12 C 0.1374(2) 0.63932(18) 0.12168(17)
H8 H 0.17822 0.70682 0.16678
H9 H 0.00723 0.64532 0.15006
H10 H 0.18067 0.66688 0.03301
C13 C 0.2449(2) 0.21631(16) 0.08484(13)
C14 C 0.1565(2) 0.15045(18) 0.31946(13)
H11 H 0.07363 0.24024 0.33516
H12 H 0.09049 0.07005 0.30753
C15 C 0.1332(2) 0.36498(17) 0.09938(14)
H13 H 0.11939 0.39946 0.01838
H14 H 0.01324 0.34923 0.15762
C16 C 0.4089(2) 0.22774(18) -0.03082(14)
H15 H 0.48202 0.13386 -0.03937
H16 H 0.47858 0.30639 -0.02289
H17 H 0.37068 0.25029 -0.10399
C17 C 0.2714(3) 0.45241(19) 0.63433(17)
H18 H 0.35026 0.46537 0.54912
H19 H 0.30189 0.51756 0.68666
H20 H 0.14791 0.47699 0.63676
H21 H 0.381(2) 0.530(2) 0.2275(16)
#END
