
#######################################################################
#
#                 Cambridge Crystallographic Data Centre
#                                CCDC
#
#######################################################################
#
# If this CIF has been generated from an entry in the Cambridge
# Structural Database, then it will include bibliographic, chemical,
# crystal, experimental, refinement or atomic coordinate data resulting
# from the CCDC's data processing and validation procedures.
#
#######################################################################

data_CSD_CIF_TAXHAD
_audit_creation_date 2012-10-16
_audit_creation_method CSD-ConQuest-V1
_database_code_CSD TAXHAD
_database_code_depnum_ccdc_archive 'CCDC 894735'
_chemical_formula_sum 'C36 H44 N6 O8'
_chemical_formula_moiety
;
C36 H44 N6 O8
;
_journal_coden_Cambridge 1546
_journal_volume 2
_journal_year 2012
_journal_page_first 662
_journal_name_full 'Crystals '
loop_
_publ_author_name
"H.Suzuki"
"H.Akutsu"
"J.Yamada"
"S.Nakatsuji"
_chemical_name_systematic
;
(3,6-bis(dicyanomethylene)cyclohexa-1,4-diene-1,4-diyl)bis(oxyethane-2,1-diyl)
 bis(1-oxy-2,2,6,6-tetramethylpiperidine-4-carboxylate)
;
_cell_volume   1850.189
_exptl_crystal_colour 'black'
_exptl_crystal_density_diffrn 1.233
_exptl_crystal_description 'platelet'
_diffrn_ambient_temperature 293
#These two values have been output from a single CSD field.
_refine_ls_R_factor_gt 0.0854
_refine_ls_wR_factor_gt 0.0854
_symmetry_cell_setting monoclinic
_symmetry_space_group_name_H-M 'P 21/n'
_symmetry_Int_Tables_number 14
loop_
_symmetry_equiv_pos_site_id
_symmetry_equiv_pos_as_xyz
1 x,y,z
2 1/2-x,1/2+y,1/2-z
3 -x,-y,-z
4 -1/2+x,-1/2-y,-1/2+z
_cell_length_a 9.143(3)
_cell_length_b 19.352(5)
_cell_length_c 10.894(3)
_cell_angle_alpha 90
_cell_angle_beta 106.286(5)
_cell_angle_gamma 90
_cell_formula_units_Z 2
loop_
_atom_type_symbol
_atom_type_radius_bond
C 0.68
H 0.23
N 0.68
O 0.68
loop_
_atom_site_label
_atom_site_type_symbol
_atom_site_fract_x
_atom_site_fract_y
_atom_site_fract_z
O1 O 0.6842(3) 0.99962(11) 0.2470(2)
O2 O 0.8175(3) 0.94033(12) 0.4931(3)
O3 O 1.0890(4) 0.65361(17) 0.6993(4)
O4 O 0.6377(4) 0.90753(15) 0.5824(4)
N1 N 1.0109(4) 0.70894(17) 0.6639(4)
N2 N 0.9931(4) 0.9236(3) 0.2731(4)
N3 N 0.9200(4) 0.9195(3) -0.1199(4)
C1 C 0.4387(4) 1.02081(15) 0.1006(3)
C2 C 0.8003(4) 0.95209(17) 0.0590(4)
C3 C 0.9020(4) 0.9387(2) 0.1818(4)
C4 C 0.7488(5) 0.8942(2) 0.5498(4)
C5 C 1.0680(4) 0.7569(2) 0.5833(4)
C6 C 0.8260(4) 0.82418(19) 0.5630(4)
C7 C 0.6265(4) 1.01419(19) 0.3535(4)
C8 C 0.7553(5) 1.00897(18) 0.4726(4)
C9 C 0.7860(5) 0.77975(18) 0.6594(5)
C10 C 0.8547(5) 0.7086(2) 0.6756(5)
C11 C 0.8645(4) 0.9336(2) -0.0420(4)
C12 C 0.9909(5) 0.8267(2) 0.5774(5)
C13 C 1.0496(6) 0.7245(3) 0.4530(5)
C14 C 1.2370(6) 0.7692(3) 0.6446(6)
C15 C 0.7603(7) 0.6592(3) 0.5734(8)
C16 C 0.8579(9) 0.6782(4) 0.8052(7)
C17 C 0.5861(4) 0.99983(15) 0.1287(3)
C18 C 0.6532(4) 0.97691(15) 0.0302(3)
H1 H 0.78180 0.80100 0.48100
H2 H 0.54730 0.98130 0.35620
H3 H 0.58310 1.06030 0.34560
H4 H 0.83500 1.04100 0.46730
H5 H 0.71990 1.02230 0.54520
H6 H 0.67600 0.77510 0.63630
H7 H 0.81720 0.80320 0.74140
H8 H 1.03970 0.85190 0.65500
H9 H 1.00750 0.85250 0.50610
H10 H 1.08350 0.75640 0.39930
H11 H 0.94430 0.71350 0.41460
H12 H 1.10950 0.68310 0.46260
H13 H 1.25930 0.76420 0.73560
H14 H 1.26330 0.81500 0.62460
H15 H 1.29500 0.73610 0.61220
H16 H 0.65920 0.65550 0.58260
H17 H 0.80750 0.61450 0.58370
H18 H 0.75520 0.67690 0.48990
H19 H 0.75670 0.67800 0.81470
H20 H 0.92300 0.70570 0.87180
H21 H 0.89620 0.63180 0.81090
O1B O 0.3158(3) 1.00038(11) -0.2470(2)
O2B O 0.1825(3) 1.05967(12) -0.4931(3)
O3B O -0.0890(4) 1.34639(17) -0.6993(4)
O4B O 0.3623(4) 1.09247(15) -0.5824(4)
N1B N -0.0109(4) 1.29106(17) -0.6639(4)
N2B N 0.0069(4) 1.0764(3) -0.2731(4)
N3B N 0.0800(4) 1.0805(3) 0.1199(4)
C1B C 0.5613(4) 0.97919(15) -0.1006(3)
C2B C 0.1997(4) 1.04791(17) -0.0590(4)
C3B C 0.0980(4) 1.0613(2) -0.1818(4)
C4B C 0.2512(5) 1.1058(2) -0.5498(4)
C5B C -0.0680(4) 1.2431(2) -0.5833(4)
C6B C 0.1740(4) 1.17582(19) -0.5630(4)
C7B C 0.3735(4) 0.98581(19) -0.3535(4)
C8B C 0.2447(5) 0.99103(18) -0.4726(4)
C9B C 0.2140(5) 1.22025(18) -0.6594(5)
C10B C 0.1453(5) 1.2914(2) -0.6756(5)
C11B C 0.1355(4) 1.0664(2) 0.0420(4)
C12B C 0.0091(5) 1.1733(2) -0.5774(5)
C13B C -0.0496(6) 1.2755(3) -0.4530(5)
C14B C -0.2370(6) 1.2308(3) -0.6446(6)
C15B C 0.2397(7) 1.3408(3) -0.5734(8)
C16B C 0.1421(9) 1.3218(4) -0.8052(7)
C17B C 0.4139(4) 1.00017(15) -0.1287(3)
C18B C 0.3468(4) 1.02309(15) -0.0302(3)
H1B H 0.21820 1.19900 -0.48100
H2B H 0.45270 1.01870 -0.35620
H3B H 0.41690 0.93970 -0.34560
H4B H 0.16500 0.95900 -0.46730
H5B H 0.28010 0.97770 -0.54520
H6B H 0.32400 1.22490 -0.63630
H7B H 0.18280 1.19680 -0.74140
H8B H -0.03970 1.14810 -0.65500
H9B H -0.00750 1.14750 -0.50610
H10B H -0.08350 1.24360 -0.39930
H11B H 0.05570 1.28650 -0.41460
H12B H -0.10950 1.31690 -0.46260
H13B H -0.25930 1.23580 -0.73560
H14B H -0.26330 1.18500 -0.62460
H15B H -0.29500 1.26390 -0.61220
H16B H 0.34080 1.34450 -0.58260
H17B H 0.19250 1.38550 -0.58370
H18B H 0.24480 1.32310 -0.48990
H19B H 0.24330 1.32200 -0.81470
H20B H 0.07700 1.29430 -0.87180
H21B H 0.10380 1.36820 -0.81090
#END
