
#######################################################################
#
#                 Cambridge Crystallographic Data Centre
#                                CCDC
#
#######################################################################
#
# If this CIF has been generated from an entry in the Cambridge
# Structural Database, then it will include bibliographic, chemical,
# crystal, experimental, refinement or atomic coordinate data resulting
# from the CCDC's data processing and validation procedures.
#
#######################################################################

data_CSD_CIF_TAXSER
_audit_creation_date 2006-03-27
_audit_creation_method CSD-ConQuest-V1
_database_code_CSD TAXSER
_database_code_depnum_ccdc_archive 'CCDC 212522'
_database_code_depnum_ccdc_journal 1267/1493
_chemical_formula_sum 'C10 H11 N5 O6'
_chemical_formula_moiety
;
C10 H11 N5 O6
;
_journal_coden_Cambridge 1267
_journal_volume 220
_journal_year 2005
_journal_page_first 213
_journal_name_full 'Z.Kristallogr.-New Cryst.Struct. '
loop_
_publ_author_name
"De-Suo Yang"
_chemical_name_systematic
;
(E)-1-(1-Nitrobutylidene)-2-(2,4-dinitrophenyl)hydrazine
;
_cell_volume   1321.265
_exptl_crystal_colour 'colorless'
_exptl_crystal_density_diffrn 1.494
_exptl_crystal_description 'block'
_exptl_crystal_preparation 'ethyl acetate/hexane 6'
_diffrn_ambient_temperature 296
#These two values have been output from a single CSD field.
_refine_ls_R_factor_gt 0.0356
_refine_ls_wR_factor_gt 0.0356
_symmetry_cell_setting monoclinic
_symmetry_space_group_name_H-M 'P 21/c'
_symmetry_Int_Tables_number 14
loop_
_symmetry_equiv_pos_site_id
_symmetry_equiv_pos_as_xyz
1 x,y,z
2 -x,1/2+y,1/2-z
3 -x,-y,-z
4 x,-1/2-y,-1/2+z
_cell_length_a 12.284(2)
_cell_length_b 17.594(3)
_cell_length_c 6.1338(7)
_cell_angle_alpha 90
_cell_angle_beta 94.67(1)
_cell_angle_gamma 90
_cell_formula_units_Z 4
loop_
_atom_type_symbol
_atom_type_radius_bond
C 0.68
H 0.23
N 0.68
O 0.68
loop_
_atom_site_label
_atom_site_type_symbol
_atom_site_fract_x
_atom_site_fract_y
_atom_site_fract_z
O1 O 0.17073(11) 0.63325(9) 0.2294(3)
O2 O 0.24138(12) 0.70838(10) 0.0033(3)
O3 O 0.62052(11) 0.70729(8) -0.0455(2)
O4 O 0.73464(10) 0.66177(7) 0.2047(2)
O5 O 0.86469(12) 0.51001(10) 1.1460(2)
O6 O 0.69219(12) 0.48577(8) 1.1052(2)
N1 N 0.24844(14) 0.66517(10) 0.1584(3)
N2 N 0.64069(12) 0.67468(8) 0.1297(2)
N3 N 0.66544(11) 0.59417(8) 0.5454(2)
H1 H 0.72240 0.60440 0.47800
N4 N 0.67618(11) 0.55960(8) 0.7427(2)
N5 N 0.77625(13) 0.51041(9) 1.0398(2)
C1 C 0.46994(14) 0.59532(9) 0.5580(3)
H2 H 0.47700 0.57120 0.69340
C2 C 0.36795(14) 0.61279(10) 0.4653(3)
H3 H 0.30640 0.60050 0.53670
C3 C 0.35730(13) 0.6490(1) 0.2637(3)
C4 C 0.44618(14) 0.66840(9) 0.1568(3)
H4 H 0.43760 0.69340 0.02290
C5 C 0.54921(13) 0.65047(9) 0.2498(3)
C6 C 0.56403(13) 0.61295(9) 0.4531(3)
C7 C 0.77330(14) 0.54551(9) 0.8188(3)
C8 C 0.87861(14) 0.56166(11) 0.7278(3)
H5 H 0.87170 0.55120 0.57200
H6 H 0.93410 0.52800 0.79530
C9 C 0.91566(19) 0.64490(14) 0.7652(4)
H7 H 0.85430 0.67840 0.72750
H8 H 0.93830 0.65220 0.91900
C10 C 1.0074(2) 0.66588(18) 0.6330(5)
H9 H 1.07000 0.63510 0.67660
H10 H 1.02540 0.71850 0.65630
H11 H 0.98610 0.65750 0.48080
#END
