
#######################################################################
#
#                 Cambridge Crystallographic Data Centre
#                                CCDC
#
#######################################################################
#
# If this CIF has been generated from an entry in the Cambridge
# Structural Database, then it will include bibliographic, chemical,
# crystal, experimental, refinement or atomic coordinate data resulting
# from the CCDC's data processing and validation procedures.
#
#######################################################################

data_CSD_CIF_TAXTUJ
_audit_creation_date 2012-10-16
_audit_creation_method CSD-ConQuest-V1
_database_code_CSD TAXTUJ
_database_code_depnum_ccdc_archive 'CCDC 855720'
_chemical_formula_sum 'C16 H19 N1 O5'
_chemical_formula_moiety
;
C16 H19 N1 O5
;
_journal_coden_Cambridge 1366
_journal_volume 354
_journal_year 2012
_journal_page_first 1961
_journal_name_full 'Adv.Synth.Catal. '
loop_
_publ_author_name
"Jiang Weng"
"Jun-Ming Li"
"Feng-Quan Li"
"Zhi-Sheng Xie"
"Gui Lu"
_chemical_name_systematic
;
Ethyl 4-(4-methoxyphenyl)-5-nitrocyclohex-1-ene-1-carboxylate
;
_cell_volume   3030.520
_exptl_crystal_colour 'white'
_exptl_crystal_density_diffrn 1.338
_exptl_crystal_description 'block'
_diffrn_ambient_temperature 153
#These two values have been output from a single CSD field.
_refine_ls_R_factor_gt 0.0268
_refine_ls_wR_factor_gt 0.0268
_symmetry_cell_setting orthorhombic
_symmetry_space_group_name_H-M 'P 21 21 21'
_symmetry_Int_Tables_number 19
loop_
_symmetry_equiv_pos_site_id
_symmetry_equiv_pos_as_xyz
1 x,y,z
2 1/2-x,-y,1/2+z
3 -x,1/2+y,1/2-z
4 1/2+x,1/2-y,-z
_cell_length_a 8.8799(3)
_cell_length_b 17.7248(5)
_cell_length_c 19.2543(5)
_cell_angle_alpha 90
_cell_angle_beta 90
_cell_angle_gamma 90
_cell_formula_units_Z 8
loop_
_atom_type_symbol
_atom_type_radius_bond
C 0.68
H 0.23
N 0.68
O 0.68
loop_
_atom_site_label
_atom_site_type_symbol
_atom_site_fract_x
_atom_site_fract_y
_atom_site_fract_z
C1 C 1.12598(18) 0.76853(8) 0.49591(7)
H1 H 1.22350 0.75330 0.47670
H2 H 1.13190 0.76910 0.54670
H3 H 1.10030 0.81910 0.47910
C2 C 0.99959(14) 0.70330(7) 0.40455(7)
C3 C 1.08086(15) 0.74169(7) 0.35407(7)
H4 H 1.15130 0.77950 0.36710
C4 C 1.05847(14) 0.72451(7) 0.28436(7)
H5 H 1.11530 0.75060 0.25010
C5 C 0.95515(14) 0.67028(7) 0.26351(6)
C6 C 0.87393(14) 0.63224(7) 0.31512(6)
H6 H 0.80290 0.59470 0.30210
C7 C 0.89542(15) 0.64843(7) 0.38479(7)
H7 H 0.83920 0.62220 0.41910
C8 C 0.93367(14) 0.65210(7) 0.18719(6)
H8 H 1.00180 0.68560 0.15960
C9 C 0.97353(14) 0.56967(7) 0.17034(6)
H9 H 0.89910 0.53580 0.19370
C10 C 0.97202(15) 0.55358(7) 0.09266(7)
H10 H 1.05960 0.57820 0.07040
H11 H 0.97980 0.49850 0.08470
C11 C 0.82809(15) 0.58302(7) 0.06081(6)
C12 C 0.73909(15) 0.63280(7) 0.09224(6)
H12 H 0.65030 0.64850 0.06880
C13 C 0.77106(15) 0.66556(7) 0.16263(6)
H13 H 0.70090 0.64300 0.19680
H14 H 0.75160 0.72050 0.16130
C14 C 0.79035(16) 0.55130(7) -0.00881(6)
C15 C 0.65485(17) 0.56728(8) -0.11337(7)
H15 H 0.60860 0.51650 -0.11080
H16 H 0.74610 0.56420 -0.14280
C16 C 0.54562(18) 0.62277(8) -0.14316(7)
H17 H 0.45190 0.62150 -0.11630
H18 H 0.52450 0.60960 -0.19160
H19 H 0.58900 0.67360 -0.14100
C17 C 0.66103(19) 0.21612(9) 0.47925(9)
H20 H 0.63630 0.16890 0.45530
H21 H 0.67350 0.20620 0.52900
H22 H 0.75490 0.23670 0.46030
C18 C 0.51703(15) 0.29432(8) 0.40322(7)
C19 C 0.58172(15) 0.26382(7) 0.34376(7)
H23 H 0.65060 0.22300 0.34720
C20 C 0.54432(15) 0.29387(8) 0.27896(7)
H24 H 0.58880 0.27300 0.23840
C21 C 0.44393(14) 0.35339(7) 0.27232(7)
C22 C 0.38001(14) 0.38247(7) 0.33275(7)
H25 H 0.30990 0.42280 0.32940
C23 C 0.41627(15) 0.35403(7) 0.39735(7)
H26 H 0.37230 0.37530 0.43790
C24 C 0.39727(14) 0.38814(7) 0.20382(6)
H27 H 0.35650 0.43950 0.21420
C25 C 0.52384(15) 0.39794(7) 0.15110(7)
H28 H 0.55570 0.34730 0.13350
C26 C 0.47282(16) 0.44699(8) 0.09006(7)
H29 H 0.45940 0.49970 0.10580
H30 H 0.55060 0.44640 0.05320
C27 C 0.32616(15) 0.41719(7) 0.06150(7)
C28 C 0.23684(15) 0.37053(8) 0.09673(7)
H31 H 0.14680 0.35370 0.07500
C29 C 0.27044(15) 0.34299(8) 0.16875(7)
H32 H 0.29980 0.28920 0.16660
H33 H 0.17810 0.34680 0.19730
C30 C 0.28699(17) 0.44563(8) -0.00890(7)
C31 C 0.15062(17) 0.42720(8) -0.11235(7)
H34 H 0.24330 0.43340 -0.14040
H35 H 0.09840 0.47650 -0.11000
C32 C 0.05075(18) 0.36978(9) -0.14481(7)
H36 H 0.09860 0.32000 -0.14190
H37 H 0.03370 0.38280 -0.19360
H38 H -0.04590 0.36860 -0.12020
N1 N 1.12812(13) 0.55358(6) 0.19896(6)
N2 N 0.65647(13) 0.43653(6) 0.18523(6)
O1 O 1.01250(11) 0.71614(5) 0.47438(5)
O2 O 1.23638(10) 0.58630(6) 0.17324(6)
O3 O 1.13753(12) 0.50989(6) 0.24811(5)
O4 O 0.84387(12) 0.49277(6) -0.03062(5)
O5 O 0.69379(10) 0.59396(5) -0.04412(4)
O6 O 0.54225(11) 0.26921(6) 0.46924(5)
O7 O 0.63372(12) 0.49297(6) 0.22011(5)
O8 O 0.78079(12) 0.40947(6) 0.17564(7)
O9 O 0.34008(13) 0.50279(6) -0.03279(6)
O10 O 0.18887(11) 0.40146(5) -0.04251(4)
#END
