
#######################################################################
#
#                 Cambridge Crystallographic Data Centre
#                                CCDC
#
#######################################################################
#
# If this CIF has been generated from an entry in the Cambridge
# Structural Database, then it will include bibliographic, chemical,
# crystal, experimental, refinement or atomic coordinate data resulting
# from the CCDC's data processing and validation procedures.
#
#######################################################################

data_CSD_CIF_TAXWIA
_audit_creation_date 2012-10-16
_audit_creation_method CSD-ConQuest-V1
_database_code_CSD TAXWIA
_database_code_depnum_ccdc_archive 'CCDC 778646'
_chemical_formula_sum 'C18 H21 N3 O6'
_chemical_formula_moiety
;
C18 H21 N3 O6
;
_journal_coden_Cambridge 1366
_journal_volume 354
_journal_year 2012
_journal_page_first 1731
_journal_name_full 'Adv.Synth.Catal. '
loop_
_publ_author_name
"I.de Miguel"
"B.Herradon"
"E.Mann"
_chemical_name_systematic
;
(3,5-Dinitrophenyl)(1-hydroxy-8-methyl-5-azatricyclo[6.2.1.0^2,6^]undec-5-yl)m
ethanone
;
_cell_volume   1732.394
_exptl_crystal_colour 'colorless'
_exptl_crystal_density_diffrn 1.439
_exptl_crystal_description 'prismatic'
_diffrn_ambient_temperature 100
#These two values have been output from a single CSD field.
_refine_ls_R_factor_gt 0.0404
_refine_ls_wR_factor_gt 0.0404
_symmetry_cell_setting triclinic
_symmetry_space_group_name_H-M 'P -1'
_symmetry_Int_Tables_number 2
loop_
_symmetry_equiv_pos_site_id
_symmetry_equiv_pos_as_xyz
1 x,y,z
2 -x,-y,-z
_cell_length_a 10.8402(16)
_cell_length_b 13.1113(19)
_cell_length_c 13.929(2)
_cell_angle_alpha 89.383(7)
_cell_angle_beta 68.313(7)
_cell_angle_gamma 71.556(7)
_cell_formula_units_Z 4
loop_
_atom_type_symbol
_atom_type_radius_bond
C 0.68
H 0.23
N 0.68
O 0.68
loop_
_atom_site_label
_atom_site_type_symbol
_atom_site_fract_x
_atom_site_fract_y
_atom_site_fract_z
C1 C 0.21425(15) -0.03791(12) 0.32887(10)
C2 C 0.27006(15) -0.15886(12) 0.30608(11)
C3 C 0.23005(15) -0.21547(12) 0.39093(11)
H1 H 0.17410 -0.17780 0.45880
C4 C 0.27266(16) -0.32638(12) 0.37497(11)
C5 C 0.35664(16) -0.38585(12) 0.27886(11)
H2 H 0.38440 -0.46260 0.26940
C6 C 0.39801(15) -0.32743(12) 0.19714(11)
C7 C 0.35683(15) -0.21579(12) 0.20851(11)
H3 H 0.38750 -0.17850 0.15030
C8 C 0.16386(16) -0.01788(12) 0.16658(11)
H4 H 0.13070 -0.08070 0.18220
H5 H 0.25180 -0.03930 0.10320
C9 C 0.05138(17) 0.07860(12) 0.15273(12)
H6 H -0.04380 0.07520 0.19250
H7 H 0.06560 0.07990 0.07840
C10 C 0.06792(15) 0.17888(11) 0.19414(10)
H8 H -0.02820 0.23450 0.22650
C11 C 0.11813(15) 0.14095(11) 0.28271(10)
H9 H 0.03230 0.15460 0.34820
C12 C 0.21075(16) 0.19833(12) 0.30262(10)
H10 H 0.15000 0.25860 0.35930
H11 H 0.27810 0.14660 0.32730
C13 C 0.29395(15) 0.24380(12) 0.20855(11)
C14 C 0.19004(15) 0.31488(12) 0.16508(11)
H12 H 0.10310 0.36190 0.22140
H13 H 0.23280 0.36040 0.11530
C15 C 0.16080(15) 0.23042(11) 0.11089(10)
C16 C 0.31117(15) 0.15554(12) 0.04693(11)
H14 H 0.35300 0.18490 -0.01840
H15 H 0.31200 0.08230 0.02950
C17 C 0.39272(15) 0.15190(12) 0.11768(11)
H16 H 0.48260 0.16460 0.07920
H17 H 0.41350 0.08070 0.14430
C18 C 0.37201(18) 0.30457(13) 0.24251(12)
H18 H 0.42550 0.33440 0.18280
H19 H 0.43680 0.25480 0.26950
H20 H 0.30400 0.36370 0.29710
C19 C 0.78109(15) 0.57237(12) 0.17874(10)
C20 C 0.74800(15) 0.46947(11) 0.20035(11)
C21 C 0.68137(15) 0.44255(12) 0.29858(11)
H21 H 0.65010 0.49140 0.35930
C22 C 0.66175(15) 0.34312(12) 0.30567(10)
C23 C 0.70228(15) 0.26998(12) 0.22055(11)
H22 H 0.69080 0.20100 0.22750
C24 C 0.76042(15) 0.30229(12) 0.12461(11)
C25 C 0.78513(15) 0.39895(12) 0.11246(11)
H23 H 0.82710 0.41760 0.04480
C26 C 0.85170(16) 0.57008(12) 0.33115(11)
H24 H 0.88800 0.49010 0.31730
H25 H 0.76900 0.59260 0.39800
C27 C 0.96581(16) 0.61361(12) 0.33277(12)
H26 H 1.06040 0.56420 0.28740
H27 H 0.96240 0.62140 0.40440
C28 C 0.93425(15) 0.72399(12) 0.29235(10)
H28 H 1.02660 0.73390 0.25200
C29 C 0.86802(15) 0.71143(12) 0.21412(10)
H29 H 0.94630 0.68740 0.14390
C30 C 0.75782(16) 0.81427(12) 0.20514(11)
H30 H 0.80440 0.84730 0.14400
H31 H 0.68510 0.79330 0.19170
C31 C 0.68448(16) 0.89996(12) 0.29988(11)
C32 C 0.79863(16) 0.92125(12) 0.32789(11)
H32 H 0.87650 0.92750 0.26520
H33 H 0.75960 0.98770 0.37760
C33 C 0.84703(15) 0.82022(12) 0.37773(11)
C34 C 0.70507(15) 0.81586(13) 0.45442(11)
H34 H 0.67120 0.86450 0.51940
H35 H 0.71330 0.74120 0.47180
C35 C 0.60460(16) 0.85379(12) 0.39728(11)
H36 H 0.51600 0.91040 0.44240
H37 H 0.58140 0.79240 0.37670
C36 C 0.58834(18) 0.99942(13) 0.27530(12)
H38 H 0.54760 1.05730 0.33320
H39 H 0.51260 0.98150 0.26500
H40 H 0.64270 1.02370 0.21170
N1 N 0.22261(14) -0.38530(11) 0.46343(10)
N2 N 0.48763(13) -0.38754(10) 0.09315(9)
N3 N 0.18641(13) 0.02167(9) 0.25554(9)
N4 N 0.59690(14) 0.3114(1) 0.40868(9)
N5 N 0.79772(14) 0.22867(11) 0.03199(9)
N6 N 0.81509(13) 0.61926(9) 0.24544(9)
O1 O 0.15716(12) -0.33410(9) 0.55022(8)
O2 O 0.24885(17) -0.48206(10) 0.44558(9)
O3 O 0.53412(12) -0.48604(8) 0.08707(8)
O4 O 0.50932(12) -0.33469(9) 0.01956(8)
O5 O 0.19539(12) 0.00253(8) 0.41473(8)
O6 O 0.08281(11) 0.27256(9) 0.04834(8)
O7 O 0.53542(12) 0.38156(9) 0.48313(8)
O8 O 0.60983(16) 0.21616(10) 0.41447(9)
O9 O 0.78951(14) 0.13836(9) 0.04491(9)
O10 O 0.83354(13) 0.26208(10) -0.05292(8)
O11 O 0.77781(12) 0.60927(9) 0.09716(8)
O12 O 0.93926(12) 0.82428(10) 0.42731(9)
H41 H 0.128(2) 0.3063(16) 0.0051(15)
H42 H 0.892(2) 0.8797(19) 0.4769(18)
#END
