
#######################################################################
#
#                 Cambridge Crystallographic Data Centre
#                                CCDC
#
#######################################################################
#
# If this CIF has been generated from an entry in the Cambridge
# Structural Database, then it will include bibliographic, chemical,
# crystal, experimental, refinement or atomic coordinate data resulting
# from the CCDC's data processing and validation procedures.
#
#######################################################################

data_CSD_CIF_TAXWOG
_audit_creation_date 2012-10-16
_audit_creation_method CSD-ConQuest-V1
_database_code_CSD TAXWOG
_database_code_depnum_ccdc_archive 'CCDC 778647'
_chemical_formula_sum 'C21 H25 N3 O6'
_chemical_formula_moiety
;
C21 H25 N3 O6
;
_journal_coden_Cambridge 1366
_journal_volume 354
_journal_year 2012
_journal_page_first 1731
_journal_name_full 'Adv.Synth.Catal. '
loop_
_publ_author_name
"I.de Miguel"
"B.Herradon"
"E.Mann"
_chemical_name_systematic
;
(3,5-Dinitrophenyl)(11-hydroxy-7-azatetracyclo[9.3.1.0^1,5^.0^6,10^]pentadec-7
-yl)methanone
;
_cell_volume   1898.589
_exptl_crystal_colour 'colorless'
_exptl_crystal_density_diffrn 1.453
_exptl_crystal_description 'prismatic'
_diffrn_ambient_temperature 100
#These two values have been output from a single CSD field.
_refine_ls_R_factor_gt 0.0363
_refine_ls_wR_factor_gt 0.0363
_symmetry_cell_setting orthorhombic
_symmetry_space_group_name_H-M 'P n a 21'
_symmetry_Int_Tables_number 33
loop_
_symmetry_equiv_pos_site_id
_symmetry_equiv_pos_as_xyz
1 x,y,z
2 -x,-y,1/2+z
3 1/2+x,1/2-y,z
4 1/2-x,1/2+y,1/2+z
_cell_length_a 20.972(2)
_cell_length_b 6.8683(7)
_cell_length_c 13.1808(12)
_cell_angle_alpha 90
_cell_angle_beta 90
_cell_angle_gamma 90
_cell_formula_units_Z 4
loop_
_atom_type_symbol
_atom_type_radius_bond
C 0.68
H 0.23
N 0.68
O 0.68
loop_
_atom_site_label
_atom_site_type_symbol
_atom_site_fract_x
_atom_site_fract_y
_atom_site_fract_z
C1 C 0.82299(8) 0.1790(3) 0.51333(13)
H1 H 0.83840 0.05630 0.53580
C2 C 0.77123(9) 0.2635(3) 0.55903(14)
C3 C 0.74886(8) 0.4463(3) 0.53345(13)
H2 H 0.71330 0.50340 0.56680
C4 C 0.78092(8) 0.5408(3) 0.45692(13)
C5 C 0.83134(8) 0.4591(2) 0.40438(13)
H3 H 0.85090 0.52670 0.34980
C6 C 0.85263(8) 0.2763(2) 0.43321(13)
C7 C 0.91267(8) 0.1882(2) 0.39167(13)
C8 C 0.87626(8) 0.2308(3) 0.21303(14)
H4 H 0.86790 0.36910 0.19650
H5 H 0.83580 0.16790 0.23370
C9 C 0.90648(8) 0.1248(2) 0.12331(13)
H6 H 0.89240 0.18290 0.05840
H7 H 0.89470 -0.01480 0.12380
C10 C 0.97853(8) 0.1496(2) 0.13711(13)
H8 H 0.99930 0.02900 0.11040
C11 C 0.98810(8) 0.1503(2) 0.25306(13)
H9 H 0.99470 0.01210 0.27450
C12 C 1.04435(8) 0.2700(2) 0.29636(13)
H10 H 1.02790 0.34510 0.35580
C13 C 1.09866(8) 0.1400(3) 0.33440(14)
H11 H 1.08660 0.07190 0.39770
H12 H 1.11090 0.04250 0.28260
C14 C 1.15231(9) 0.2850(3) 0.35307(15)
H13 H 1.19420 0.21860 0.35510
H14 H 1.14580 0.35580 0.41770
C15 C 1.14820(8) 0.4235(3) 0.26262(15)
H15 H 1.17770 0.38140 0.20830
H16 H 1.15980 0.55730 0.28350
C16 C 1.07821(8) 0.4174(2) 0.22411(13)
C17 C 1.07546(8) 0.3452(3) 0.11460(13)
H17 H 1.09800 0.43870 0.07010
H18 H 1.09750 0.21810 0.10960
C18 C 1.00713(8) 0.3231(2) 0.07887(13)
C19 C 0.97268(8) 0.5194(2) 0.08948(13)
H19 H 0.99000 0.61050 0.03830
H20 H 0.92690 0.50000 0.07410
C20 C 0.97857(8) 0.6129(2) 0.19389(14)
H21 H 0.95300 0.53780 0.24340
H22 H 0.96130 0.74700 0.19130
C21 C 1.04780(8) 0.6193(3) 0.22902(14)
H23 H 1.04970 0.66850 0.29960
H24 H 1.07210 0.71020 0.18540
N1 N 0.76117(7) 0.7420(2) 0.43181(13)
N2 N 0.73770(7) 0.1547(2) 0.63930(12)
N3 N 0.92522(6) 0.2126(2) 0.29327(11)
O1 O 0.79112(7) 0.8290(2) 0.36684(11)
O2 O 0.71714(7) 0.8125(2) 0.47977(13)
O3 O 0.68314(6) 0.2031(2) 0.65872(11)
O4 O 0.76607(7) 0.0227(2) 0.68122(11)
O5 O 0.94964(6) 0.10872(18) 0.45128(9)
O6 O 1.00457(7) 0.28116(19) -0.02731(10)
H25 H 1.01920 0.16910 -0.03790
#END
