
#######################################################################
#
#                 Cambridge Crystallographic Data Centre
#                                CCDC
#
#######################################################################
#
# If this CIF has been generated from an entry in the Cambridge
# Structural Database, then it will include bibliographic, chemical,
# crystal, experimental, refinement or atomic coordinate data resulting
# from the CCDC's data processing and validation procedures.
#
#######################################################################

data_CSD_CIF_TAYBIG01
_audit_creation_date 2012-10-16
_audit_creation_method CSD-ConQuest-V1
_database_code_CSD TAYBIG01
_database_code_depnum_ccdc_archive 'CCDC 885741'
_chemical_formula_sum 'C17 H15 N1 O5'
_chemical_formula_moiety
;
C17 H15 N1 O5
;
_journal_coden_Cambridge 1336
_journal_volume 14
_journal_year 2012
_journal_page_first 3260
_journal_name_full 'Org.Lett. '
loop_
_publ_author_name
"G.K.S.Prakash"
"Fang Wang"
"Zhe Zhang"
"Chuanfa Ni"
"R.Haiges"
"G.A.Olah"
_chemical_name_systematic
;
Methyl 2-(4-nitrophenyl)-4-oxo-4-phenylbutanoate
;
_cell_volume    717.472
_exptl_crystal_colour 'colorless'
_exptl_crystal_density_diffrn 1.45
_exptl_special_details
;
Absolute configuration

;
_exptl_crystal_description 'prism'
_exptl_crystal_preparation 'ethanol/water'
_diffrn_ambient_temperature 100
_diffrn_radiation_source 'Cu radiation'
#These two values have been output from a single CSD field.
_refine_ls_R_factor_gt 0.0334
_refine_ls_wR_factor_gt 0.0334
_symmetry_cell_setting monoclinic
_symmetry_space_group_name_H-M 'P 21'
_symmetry_Int_Tables_number 4
loop_
_symmetry_equiv_pos_site_id
_symmetry_equiv_pos_as_xyz
1 x,y,z
2 -x,1/2+y,-z
_cell_length_a 7.4175(1)
_cell_length_b 12.6298(2)
_cell_length_c 7.9091(1)
_cell_angle_alpha 90
_cell_angle_beta 104.458(1)
_cell_angle_gamma 90
_cell_formula_units_Z 2
loop_
_atom_type_symbol
_atom_type_radius_bond
C 0.68
H 0.23
N 0.68
O 0.68
loop_
_atom_site_label
_atom_site_type_symbol
_atom_site_fract_x
_atom_site_fract_y
_atom_site_fract_z
C1 C 0.0553(2) 0.02506(15) -0.0432(2)
H1 H 0.02630 -0.04770 -0.03520
C2 C 0.0023(2) 0.07715(16) -0.2030(2)
H2 H -0.06270 0.03970 -0.30400
C3 C 0.0439(2) 0.18324(15) -0.2151(2)
H3 H 0.00660 0.21850 -0.32440
C4 C 0.1403(2) 0.23841(16) -0.0679(2)
H4 H 0.16950 0.31110 -0.07650
C5 C 0.1935(2) 0.18667(15) 0.0915(2)
H5 H 0.25940 0.22430 0.19200
C6 C 0.1515(2) 0.08016(15) 0.1057(2)
C7 C 0.2129(3) 0.02087(15) 0.2741(2)
C8 C 0.3180(3) 0.08098(14) 0.4338(2)
H6 H 0.23640 0.13690 0.46150
H7 H 0.42750 0.11590 0.40770
C9 C 0.3833(2) 0.00926(14) 0.5925(2)
H8 H 0.27100 -0.02480 0.61740
C10 C 0.4873(2) 0.06832(14) 0.7574(2)
C11 C 0.5630(2) 0.16833(15) 0.7529(2)
H9 H 0.54860 0.20310 0.64380
C12 C 0.6599(3) 0.21897(15) 0.9051(2)
H10 H 0.70960 0.28810 0.90180
C13 C 0.6813(2) 0.16496(15) 1.0615(2)
C14 C 0.6089(2) 0.06500(15) 1.0708(2)
H11 H 0.62700 0.02960 1.17980
C15 C 0.5094(3) 0.01720(14) 0.9180(2)
H12 H 0.45580 -0.05070 0.92260
C16 C 0.5130(2) -0.07832(15) 0.5620(2)
C17 C 0.7730(3) -0.11798(16) 0.4496(2)
H13 H 0.83900 -0.14620 0.56360
H14 H 0.86170 -0.08220 0.39550
H15 H 0.71300 -0.17620 0.37430
N1 N 0.7913(2) 0.21471(13) 1.22198(19)
O1 O 0.18274(18) -0.07361(11) 0.28233(16)
O2 O 0.83627(18) 0.30806(10) 1.21683(16)
O3 O 0.8379(2) 0.15957(12) 1.35362(17)
O4 O 0.63250(16) -0.04296(10) 0.47218(16)
O5 O 0.51579(18) -0.16773(10) 0.61857(16)
#END
