
#######################################################################
#
#                 Cambridge Crystallographic Data Centre
#                                CCDC
#
#######################################################################
#
# If this CIF has been generated from an entry in the Cambridge
# Structural Database, then it will include bibliographic, chemical,
# crystal, experimental, refinement or atomic coordinate data resulting
# from the CCDC's data processing and validation procedures.
#
#######################################################################

data_CSD_CIF_TAYJIN
_audit_creation_date 2006-03-28
_audit_creation_method CSD-ConQuest-V1
_database_code_CSD TAYJIN
_database_code_depnum_ccdc_archive 'CCDC 271387'
_chemical_formula_sum 'C12 H18 N2 O2'
_chemical_formula_moiety
;
C12 H18 N2 O2
;
_journal_coden_Cambridge 179
_journal_volume 44
_journal_year 2005
_journal_page_first 7082
_journal_name_full 'Angew.Chem.,Int.Ed. '
loop_
_publ_author_name
"Y.Yamamoto"
"H.Yamamoto"
_chemical_name_systematic
;
rac-2-(6-methyl-2-pyridyl)-3,6-dimethyl-1,2-oxazinan-4-ol
;
_cell_volume   2439.449
_exptl_crystal_density_diffrn 1.211
_diffrn_ambient_temperature 100
#These two values have been output from a single CSD field.
_refine_ls_R_factor_gt 0.1089
_refine_ls_wR_factor_gt 0.1089
_symmetry_cell_setting monoclinic
_symmetry_space_group_name_H-M 'P 21/c'
_symmetry_Int_Tables_number 14
loop_
_symmetry_equiv_pos_site_id
_symmetry_equiv_pos_as_xyz
1 x,y,z
2 -x,1/2+y,1/2-z
3 -x,-y,-z
4 x,-1/2-y,-1/2+z
_cell_length_a 9.204(4)
_cell_length_b 11.449(6)
_cell_length_c 23.151(11)
_cell_angle_alpha 90
_cell_angle_beta 90.579(9)
_cell_angle_gamma 90
_cell_formula_units_Z 8
loop_
_atom_type_symbol
_atom_type_radius_bond
C 0.68
H 0.23
N 0.68
O 0.68
loop_
_atom_site_label
_atom_site_type_symbol
_atom_site_fract_x
_atom_site_fract_y
_atom_site_fract_z
C1 C 0.1394(4) 0.6420(3) 0.13051(15)
C2 C 0.1094(4) 0.7567(3) 0.14803(16)
H1 H 0.17650 0.79950 0.17120
C3 C -0.0223(4) 0.8055(3) 0.13027(16)
H2 H -0.04640 0.88290 0.14140
C4 C -0.1185(4) 0.7408(3) 0.09621(16)
H3 H -0.20950 0.77270 0.08470
C5 C -0.0786(4) 0.6275(3) 0.07922(16)
C6 C -0.1766(4) 0.5527(3) 0.04238(17)
H4 H -0.11780 0.50670 0.01560
H5 H -0.24360 0.60270 0.02040
H6 H -0.23220 0.50000 0.06710
C7 C 0.4532(4) 0.5896(3) 0.21727(16)
H7 H 0.39230 0.53840 0.24230
C8 C 0.5368(4) 0.6756(4) 0.25470(17)
H8 H 0.60040 0.72290 0.23040
H9 H 0.59560 0.63280 0.28320
H10 H 0.46830 0.72670 0.27480
C9 C 0.5507(4) 0.5131(3) 0.17927(16)
H11 H 0.62140 0.56340 0.15900
H12 H 0.60600 0.45810 0.20410
C10 C 0.4619(4) 0.4440(3) 0.13462(16)
H13 H 0.40800 0.38060 0.15500
C11 C 0.3515(4) 0.5224(3) 0.10296(15)
H14 H 0.28420 0.47070 0.08040
C12 C 0.4172(4) 0.6109(3) 0.06097(17)
H15 H 0.34020 0.66150 0.04560
H16 H 0.46370 0.56920 0.02910
H17 H 0.48980 0.65850 0.08140
C13 C 0.3563(4) 0.5806(3) 0.37617(15)
C14 C 0.3877(4) 0.4683(3) 0.35667(15)
H18 H 0.32190 0.42760 0.33200
C15 C 0.5173(4) 0.4179(3) 0.37425(16)
H19 H 0.54290 0.34220 0.36100
C16 C 0.6108(4) 0.4789(3) 0.41164(17)
H20 H 0.69970 0.44520 0.42450
C17 C 0.5702(4) 0.5904(3) 0.42955(17)
C18 C 0.6625(4) 0.6610(4) 0.47017(18)
H21 H 0.72040 0.71690 0.44810
H22 H 0.72740 0.60890 0.49190
H23 H 0.60000 0.70340 0.49710
C19 C 0.0443(4) 0.6345(3) 0.28871(16)
H24 H 0.10620 0.68540 0.26390
C20 C -0.0386(4) 0.5487(4) 0.25124(17)
H25 H 0.03010 0.50070 0.22950
H26 H -0.10160 0.59150 0.22420
H27 H -0.09810 0.49820 0.27570
C21 C -0.0541(4) 0.7111(3) 0.32665(17)
H28 H -0.11010 0.76540 0.30170
H29 H -0.12410 0.66070 0.34720
C22 C 0.0346(4) 0.7815(3) 0.37095(17)
H30 H 0.08800 0.84490 0.35040
C23 C 0.1454(4) 0.7038(3) 0.40348(16)
H31 H 0.21350 0.75660 0.42500
C24 C 0.0779(4) 0.6201(3) 0.44735(17)
H32 H 0.01210 0.56610 0.42730
H33 H 0.02350 0.66500 0.47600
H34 H 0.15510 0.57580 0.46690
N1 N 0.0487(3) 0.5791(3) 0.09730(13)
N2 N 0.2654(3) 0.5806(3) 0.14894(13)
N3 N 0.4454(3) 0.6405(3) 0.41168(13)
N4 N 0.2307(3) 0.6424(3) 0.35818(13)
O1 O 0.3595(3) 0.6595(2) 0.18031(10)
O2 O 0.5563(3) 0.3923(2) 0.09367(13)
H35 H 0.54190 0.31990 0.09260
O3 O 0.1358(3) 0.5644(2) 0.32648(11)
O4 O -0.0609(3) 0.8329(2) 0.41166(12)
H36 H -0.04440 0.90500 0.41380
#END
