
#######################################################################
#
#                 Cambridge Crystallographic Data Centre
#                                CCDC
#
#######################################################################
#
# If this CIF has been generated from an entry in the Cambridge
# Structural Database, then it will include bibliographic, chemical,
# crystal, experimental, refinement or atomic coordinate data resulting
# from the CCDC's data processing and validation procedures.
#
#######################################################################

data_CSD_CIF_TAYJUA
_audit_creation_date 2012-10-16
_audit_creation_method CSD-ConQuest-V1
_database_code_CSD TAYJUA
_database_code_depnum_ccdc_archive 'CCDC 887725'
_chemical_formula_sum 'C17 H25 N3 O4'
_chemical_formula_moiety
;
C17 H25 N3 O4
;
_journal_coden_Cambridge 1336
_journal_volume 14
_journal_year 2012
_journal_page_first 3442
_journal_name_full 'Org.Lett. '
loop_
_publ_author_name
"S.E.Snyder"
"Bin-Syuan Huang"
"Yu-Tzu Chen"
"Huei-Shian Lin"
"J.R.Carey"
_chemical_name_systematic
;
N,N-Diethyl-N^2^-(3-nitrobenzoyl)leucinamide
;
_cell_volume   3850.780
_exptl_crystal_colour 'colorless'
_exptl_crystal_density_diffrn 1.157
_exptl_crystal_description 'parallelepiped'
_diffrn_ambient_temperature 297
#These two values have been output from a single CSD field.
_refine_ls_R_factor_gt 0.0447
_refine_ls_wR_factor_gt 0.0447
_symmetry_cell_setting monoclinic
_symmetry_space_group_name_H-M 'P 21/n'
_symmetry_Int_Tables_number 14
loop_
_symmetry_equiv_pos_site_id
_symmetry_equiv_pos_as_xyz
1 x,y,z
2 1/2-x,1/2+y,1/2-z
3 -x,-y,-z
4 -1/2+x,-1/2-y,-1/2+z
_cell_length_a 12.0999(6)
_cell_length_b 20.0216(10)
_cell_length_c 16.0201(8)
_cell_angle_alpha 90
_cell_angle_beta 97.157(1)
_cell_angle_gamma 90
_cell_formula_units_Z 8
loop_
_atom_type_symbol
_atom_type_radius_bond
C 0.68
H 0.23
N 0.68
O 0.68
loop_
_atom_site_label
_atom_site_type_symbol
_atom_site_fract_x
_atom_site_fract_y
_atom_site_fract_z
O1 O 0.46677(12) 0.20858(6) 0.09361(7)
O2 O 0.65518(19) 0.49665(8) 0.12618(13)
O3 O 0.5981(2) 0.42776(9) 0.02906(13)
O4 O 0.19567(11) 0.16710(6) 0.18728(8)
N1 N 0.42307(12) 0.18560(7) 0.22212(10)
H1 H 0.4164(15) 0.1977(9) 0.2690(12)
N2 N 0.61686(17) 0.44304(9) 0.10204(14)
N3 N 0.21830(13) 0.08133(7) 0.10001(9)
C1 C 0.46649(13) 0.22459(8) 0.1673(1)
C2 C 0.51723(13) 0.28966(7) 0.19908(10)
C3 C 0.54352(17) 0.30470(9) 0.28317(11)
H2 H 0.52800 0.27400 0.32370
C4 C 0.5925(2) 0.36474(11) 0.30758(13)
H3 H 0.60940 0.37420 0.36460
C5 C 0.61676(19) 0.41087(10) 0.24932(14)
H4 H 0.64970 0.45150 0.26580
C6 C 0.59080(15) 0.39506(8) 0.16606(12)
C7 C 0.54155(14) 0.33553(7) 0.13968(11)
H5 H 0.52490 0.32630 0.08260
C8 C 0.37865(15) 0.12030(7) 0.19704(10)
H6 H 0.42160 0.10180 0.15450
C9 C 0.25718(16) 0.12536(8) 0.15976(10)
C10 C 0.09901(19) 0.08148(10) 0.06962(14)
H7 H 0.08830 0.06900 0.01060
H8 H 0.06970 0.12620 0.07440
C11 C 0.0357(2) 0.03386(13) 0.11860(18)
H9 H -0.04190 0.03510 0.09690
H10 H 0.04480 0.04660 0.17680
H11 H 0.06380 -0.01060 0.11330
C12 C 0.28635(19) 0.03142(9) 0.06350(13)
H12 H 0.24090 -0.00750 0.04740
H13 H 0.34640 0.01760 0.10580
C13 C 0.3353(3) 0.05735(14) -0.01286(16)
H14 H 0.37880 0.02280 -0.03460
H15 H 0.38200 0.09520 0.00300
H16 H 0.27620 0.07040 -0.05530
C14 C 0.38903(15) 0.07332(8) 0.27287(11)
H17 H 0.35220 0.09370 0.31690
H18 H 0.35010 0.03210 0.25650
C15 C 0.5083(2) 0.05655(12) 0.30856(14)
H19 H 0.55040 0.09830 0.31740
C16 C 0.5650(3) 0.0124(2) 0.2483(2)
H20 H 0.56530 0.03500 0.19550
H21 H 0.52500 -0.02890 0.23940
H22 H 0.64030 0.00340 0.27220
C17 C 0.5087(2) 0.02192(15) 0.39301(17)
H23 H 0.47490 0.05050 0.43070
H24 H 0.58400 0.01240 0.41630
H25 H 0.46740 -0.01900 0.38540
O5 O 0.25223(16) 0.39182(6) 0.33153(9)
O6 O 0.19415(15) 0.31473(10) -0.09974(9)
O7 O 0.17849(16) 0.23609(9) -0.01112(9)
O8 O 0.38278(11) 0.21903(7) 0.39831(8)
N4 N 0.21866(14) 0.28496(8) 0.29628(9)
H26 H 0.2157(15) 0.2553(9) 0.2628(12)
N5 N 0.19985(14) 0.29347(11) -0.02788(10)
N6 N 0.31774(13) 0.25478(8) 0.51646(9)
C18 C 0.24226(15) 0.34780(8) 0.27818(11)
C19 C 0.25445(14) 0.36364(8) 0.18813(10)
C20 C 0.29542(16) 0.42643(9) 0.17077(13)
H27 H 0.31630 0.45610 0.21450
C21 C 0.30522(18) 0.44498(10) 0.08881(14)
H28 H 0.33290 0.48700 0.07800
C22 C 0.27438(17) 0.40185(11) 0.02326(13)
H29 H 0.28050 0.41420 -0.03200
C23 C 0.23445(15) 0.34021(9) 0.04144(11)
C24 C 0.22402(14) 0.31984(8) 0.12249(10)
H30 H 0.19710 0.27750 0.13270
C25 C 0.19901(15) 0.26534(8) 0.3804(1)
H31 H 0.16620 0.30300 0.40760
C26 C 0.30848(15) 0.24546(9) 0.43278(11)
C27 C 0.41813(18) 0.23229(12) 0.56839(13)
H32 H 0.43670 0.26390 0.61390
H33 H 0.47930 0.23160 0.53460
C28 C 0.4056(3) 0.16487(15) 0.6045(2)
H34 H 0.47360 0.15240 0.63820
H35 H 0.38900 0.13310 0.55970
H36 H 0.34600 0.16540 0.63880
C29 C 0.23339(18) 0.28692(10) 0.56081(12)
H37 H 0.23420 0.26640 0.61570
H38 H 0.16050 0.27920 0.52970
C30 C 0.2514(3) 0.36106(13) 0.57183(19)
H39 H 0.19380 0.37960 0.60090
H40 H 0.24930 0.38180 0.51760
H41 H 0.32260 0.36900 0.60390
C31 C 0.11828(16) 0.20648(10) 0.37522(11)
H42 H 0.15250 0.16910 0.34960
H43 H 0.10800 0.19340 0.43200
C32 C 0.00458(19) 0.21876(14) 0.32636(13)
H44 H 0.01600 0.23140 0.26900
C33 C -0.0617(2) 0.15404(18) 0.3210(2)
H45 H -0.13390 0.16170 0.29020
H46 H -0.07000 0.13880 0.37670
H47 H -0.02300 0.12080 0.29260
C34 C -0.0574(2) 0.27545(17) 0.3627(2)
H48 H -0.01290 0.31520 0.36500
H49 H -0.07200 0.26390 0.41850
H50 H -0.12660 0.28310 0.32780
#END
