
#######################################################################
#
#                 Cambridge Crystallographic Data Centre
#                                CCDC
#
#######################################################################
#
# If this CIF has been generated from an entry in the Cambridge
# Structural Database, then it will include bibliographic, chemical,
# crystal, experimental, refinement or atomic coordinate data resulting
# from the CCDC's data processing and validation procedures.
#
#######################################################################

data_CSD_CIF_TAYRUJ
_audit_creation_date 2017-08-10
_audit_creation_method CSD-ConQuest-V1
_database_code_CSD TAYRUJ
_database_code_depnum_ccdc_archive 'CCDC 1504124'
_chemical_formula_sum 'C19 H20 N2 O4'
_chemical_formula_moiety
;
C19 H20 N2 O4
;
_journal_coden_Cambridge 4
_journal_volume 139
_journal_year 2017
_journal_page_first 4805
_journal_name_full 'J.Am.Chem.Soc. '
loop_
_publ_author_name
"Ana Sanchez-Sanchez"
"I.Rivilla"
"M.Agirre"
"A.Basterretxea"
"A.Etxeberria"
"A.Veloso"
"H.Sardon"
"D.Mecerreyes"
"F.P.Cossio"
_chemical_name_systematic
;
exo-methyl 
(2S,3S,4R,5S)1-methyl-4-nitro-3,5-diphenyldiphenylpyrrolidine-2-carboxylate
;
_cell_volume   1764.156
_exptl_crystal_colour 'yellow'
_exptl_crystal_density_diffrn 1.282
_exptl_special_details
;
Absolute configuration

;
_exptl_crystal_description 'prism'
_diffrn_ambient_temperature 150
#These two values have been output from a single CSD field.
_refine_ls_R_factor_gt 0.0298
_refine_ls_wR_factor_gt 0.0298
_symmetry_cell_setting orthorhombic
_symmetry_space_group_name_H-M 'P 21 21 21'
_symmetry_Int_Tables_number 19
loop_
_symmetry_equiv_pos_site_id
_symmetry_equiv_pos_as_xyz
1 x,y,z
2 1/2-x,-y,1/2+z
3 1/2+x,1/2-y,-z
4 -x,1/2+y,1/2-z
_cell_length_a 10.89189(7)
_cell_length_b 11.24945(8)
_cell_length_c 14.39801(9)
_cell_angle_alpha 90
_cell_angle_beta 90
_cell_angle_gamma 90
_cell_formula_units_Z 4
loop_
_atom_type_symbol
_atom_type_radius_bond
C 0.68
H 0.23
N 0.68
O 0.68
loop_
_atom_site_label
_atom_site_type_symbol
_atom_site_fract_x
_atom_site_fract_y
_atom_site_fract_z
O1 O 0.35283(12) 0.37482(11) 0.65688(9)
O2 O 0.26071(12) 0.23846(12) 0.74750(9)
C1 C 0.29285(16) 0.27270(15) 0.67269(12)
O3 O 0.13844(14) 0.13351(14) 0.31117(9)
N1 N 0.10747(14) 0.21134(14) 0.36474(10)
O4 O 0.06898(15) 0.30949(13) 0.34109(10)
C2 C 0.17822(16) 0.28658(15) 0.51966(11)
H1 H 0.22580 0.33500 0.47380
N2 N 0.21169(13) 0.09621(12) 0.58891(10)
C3 C 0.26921(15) 0.21250(15) 0.58007(12)
H2 H 0.34870 0.20390 0.54600
C4 C 0.07474(16) -0.03303(15) 0.49460(12)
C5 C 0.0741(2) -0.11576(17) 0.42299(13)
H3 H 0.13580 -0.11330 0.37650
C6 C -0.0171(2) -0.20235(18) 0.41944(15)
H4 H -0.01790 -0.25790 0.36980
C7 C 0.09495(18) 0.36782(17) 0.57508(12)
C8 C 0.3621(2) 0.45494(18) 0.73531(15)
H5 H 0.40130 0.41370 0.78750
H6 H 0.27980 0.48110 0.75370
H7 H 0.41160 0.52420 0.71790
C9 C -0.1039(2) -0.12908(18) 0.56025(15)
H8 H -0.16350 -0.13460 0.60830
C10 C 0.16614(15) 0.06848(14) 0.49510(11)
H9 H 0.23650 0.04990 0.45290
C11 C 0.29644(17) 0.00580(16) 0.62328(13)
H10 H 0.36600 -0.00140 0.58050
H11 H 0.25380 -0.07070 0.62750
H12 H 0.32640 0.02880 0.68490
C12 C 0.01156(18) 0.3219(2) 0.63939(14)
H13 H 0.00480 0.23830 0.64710
C13 C 0.10814(16) 0.18731(15) 0.46769(11)
H14 H 0.02120 0.18750 0.49000
C14 C -0.01460(18) -0.04112(16) 0.56377(13)
H15 H -0.01430 0.01410 0.61370
C15 C -0.1065(2) -0.20839(17) 0.48725(16)
H16 H -0.16930 -0.26680 0.48370
C16 C 0.1040(3) 0.49019(19) 0.56494(16)
H17 H 0.16020 0.52360 0.52180
C17 C -0.0616(2) 0.3968(3) 0.69225(17)
H18 H -0.11780 0.36430 0.73580
C18 C 0.0283(3) 0.5644(2) 0.6197(2)
H19 H 0.03410 0.64820 0.61330
C19 C -0.0532(3) 0.5175(3) 0.6819(2)
H20 H -0.10400 0.56850 0.71780
#END
