
#######################################################################
#
#                 Cambridge Crystallographic Data Centre
#                                CCDC
#
#######################################################################
#
# If this CIF has been generated from an entry in the Cambridge
# Structural Database, then it will include bibliographic, chemical,
# crystal, experimental, refinement or atomic coordinate data resulting
# from the CCDC's data processing and validation procedures.
#
#######################################################################

data_CSD_CIF_TAYSAQ
_audit_creation_date 2017-08-10
_audit_creation_method CSD-ConQuest-V1
_database_code_CSD TAYSAQ
_database_code_depnum_ccdc_archive 'CCDC 1504125'
_chemical_formula_sum 'C22 H26 N2 O4'
_chemical_formula_moiety
;
C22 H26 N2 O4
;
_journal_coden_Cambridge 4
_journal_volume 139
_journal_year 2017
_journal_page_first 4805
_journal_name_full 'J.Am.Chem.Soc. '
loop_
_publ_author_name
"Ana Sanchez-Sanchez"
"I.Rivilla"
"M.Agirre"
"A.Basterretxea"
"A.Etxeberria"
"A.Veloso"
"H.Sardon"
"D.Mecerreyes"
"F.P.Cossio"
_chemical_name_systematic
;
endo-t-butyl 1-methyl-4-nitro-3,5-diphenylpyrrolidine-2-carboxylate
;
_cell_volume   1046.573
_exptl_crystal_colour 'yellow'
_exptl_crystal_density_diffrn 1.214
_exptl_special_details
;
Absolute configuration

;
_exptl_crystal_description 'prism'
_diffrn_ambient_temperature 150.0
#These two values have been output from a single CSD field.
_refine_ls_R_factor_gt 0.0282
_refine_ls_wR_factor_gt 0.0282
_symmetry_cell_setting monoclinic
_symmetry_space_group_name_H-M 'P 21'
_symmetry_Int_Tables_number 4
loop_
_symmetry_equiv_pos_site_id
_symmetry_equiv_pos_as_xyz
1 x,y,z
2 -x,1/2+y,-z
_cell_length_a 5.6696(1)
_cell_length_b 14.4846(2)
_cell_length_c 12.9286(2)
_cell_angle_alpha 90
_cell_angle_beta 99.690(2)
_cell_angle_gamma 90
_cell_formula_units_Z 2
loop_
_atom_type_symbol
_atom_type_radius_bond
C 0.68
H 0.23
N 0.68
O 0.68
loop_
_atom_site_label
_atom_site_type_symbol
_atom_site_fract_x
_atom_site_fract_y
_atom_site_fract_z
O1 O 0.5735(2) 0.46191(11) 0.11587(11)
O2 O 0.2451(2) 0.48082(9) -0.00810(9)
O3 O 0.2273(3) 0.40845(12) 0.52404(11)
O4 O 0.5176(2) 0.38526(10) 0.43829(12)
N1 N 0.1779(3) 0.34528(10) 0.18610(11)
N2 N 0.3096(3) 0.40573(10) 0.44284(12)
C1 C 0.3599(3) 0.46326(12) 0.08824(13)
C2 C 0.1810(3) 0.44412(12) 0.16157(13)
H1 H 0.01760 0.46660 0.13050
C3 C 0.0551(4) 0.29005(14) 0.09805(15)
H2 H 0.06240 0.22460 0.11760
H3 H 0.13340 0.29920 0.03680
H4 H -0.11250 0.30950 0.08100
C4 C 0.2657(3) 0.48739(12) 0.26949(13)
H5 H 0.44180 0.47630 0.28810
C5 C 0.1419(3) 0.42692(11) 0.34250(13)
H6 H -0.00150 0.46020 0.35930
C6 C 0.0587(3) 0.33809(12) 0.27830(14)
H7 H -0.11770 0.34320 0.25350
C7 C 0.3771(4) 0.50270(16) -0.09502(16)
C8 C 0.5356(4) 0.4221(2) -0.11403(19)
H8 H 0.67520 0.41970 -0.05790
H9 H 0.58900 0.43010 -0.18170
H10 H 0.44500 0.36440 -0.11470
C9 C 0.1744(4) 0.5147(2) -0.18672(18)
H11 H 0.08420 0.45690 -0.19880
H12 H 0.24020 0.53090 -0.24970
H13 H 0.06780 0.56410 -0.17090
C10 C 0.5162(5) 0.5909(2) -0.0701(2)
H14 H 0.41000 0.63890 -0.05050
H15 H 0.58150 0.61100 -0.13200
H16 H 0.64770 0.58030 -0.01170
C11 C 0.2238(3) 0.58960(12) 0.28020(14)
C12 C 0.0012(4) 0.63000(14) 0.24651(17)
H17 H -0.12720 0.59380 0.21100
C13 C -0.0334(4) 0.72311(16) 0.2647(2)
H18 H -0.18560 0.75030 0.24170
C14 C 0.1525(5) 0.77671(15) 0.3164(2)
H19 H 0.12730 0.84020 0.32940
C15 C 0.3729(5) 0.73766(16) 0.34855(19)
H20 H 0.50130 0.77420 0.38330
C16 C 0.4084(4) 0.64466(14) 0.33027(15)
H21 H 0.56200 0.61830 0.35250
C17 C 0.1057(3) 0.24717(12) 0.33605(13)
C18 C -0.0515(3) 0.21783(12) 0.40148(14)
H22 H -0.18350 0.25550 0.41060
C19 C -0.0159(3) 0.13389(13) 0.45327(15)
H23 H -0.12240 0.11480 0.49850
C20 C 0.1740(3) 0.07756(13) 0.43946(14)
H24 H 0.19470 0.01910 0.47310
C21 C 0.3337(3) 0.10744(13) 0.37592(15)
H25 H 0.46590 0.06970 0.36710
C22 C 0.3011(3) 0.19227(12) 0.32517(14)
H26 H 0.41270 0.21280 0.28290
#END
