
#######################################################################
#
#                 Cambridge Crystallographic Data Centre
#                                CCDC
#
#######################################################################
#
# If this CIF has been generated from an entry in the Cambridge
# Structural Database, then it will include bibliographic, chemical,
# crystal, experimental, refinement or atomic coordinate data resulting
# from the CCDC's data processing and validation procedures.
#
#######################################################################

data_CSD_CIF_TAYVUN
_audit_creation_date 2017-08-10
_audit_creation_method CSD-ConQuest-V1
_database_code_CSD TAYVUN
_database_code_depnum_ccdc_archive 'CCDC 1479791'
_chemical_formula_sum 'C17 H10 N2 O4'
_chemical_formula_moiety
;
C17 H10 N2 O4
;
_journal_coden_Cambridge 119
_journal_volume 1149
_journal_year 2017
_journal_page_first 84
_journal_name_full 'J.Mol.Struct. '
loop_
_publ_author_name
"D.Chadar"
"D.Chakravarty"
"D.N.Lande"
"S.P.Gejji"
"S.Sahoo"
"S.Salunke-Gawali"
_chemical_name_systematic
;
6-methyl-9-nitro-5H-benzo[a]phenoxazin-5-one
;
_cell_volume   2717.148
_exptl_crystal_colour 'red'
_exptl_crystal_density_diffrn 1.497
_exptl_crystal_description 'block'
_diffrn_ambient_temperature 296
#These two values have been output from a single CSD field.
_refine_ls_R_factor_gt 0.0714
_refine_ls_wR_factor_gt 0.0714
_symmetry_cell_setting monoclinic
_symmetry_space_group_name_H-M 'C 2/c'
_symmetry_Int_Tables_number 15
loop_
_symmetry_equiv_pos_site_id
_symmetry_equiv_pos_as_xyz
1 x,y,z
2 -x,y,1/2-z
3 1/2+x,1/2+y,z
4 1/2-x,1/2+y,1/2-z
5 -x,-y,-z
6 x,-y,-1/2+z
7 -1/2-x,-1/2-y,-z
8 -1/2+x,-1/2-y,-1/2+z
_cell_length_a 13.4920(11)
_cell_length_b 15.1908(12)
_cell_length_c 13.6607(15)
_cell_angle_alpha 90
_cell_angle_beta 103.958(3)
_cell_angle_gamma 90
_cell_formula_units_Z 8
loop_
_atom_type_symbol
_atom_type_radius_bond
C 0.68
H 0.23
N 0.68
O 0.68
loop_
_atom_site_label
_atom_site_type_symbol
_atom_site_fract_x
_atom_site_fract_y
_atom_site_fract_z
O1 O 0.15501(16) 0.36005(13) 0.69363(16)
O2 O -0.08544(13) 0.14001(11) 0.57574(15)
O3 O -0.35710(15) -0.16322(13) 0.45743(15)
O4 O -0.40236(16) -0.02746(15) 0.44927(19)
N1 N 0.06439(15) 0.01302(15) 0.65609(15)
N2 N -0.33789(17) -0.08503(17) 0.47208(17)
C1 C 0.2660(2) 0.06154(19) 0.7490(2)
H1 H 0.25100 0.00180 0.74130
C2 C 0.3632(2) 0.0885(2) 0.7965(2)
H2 H 0.41370 0.04690 0.82090
C3 C 0.3860(2) 0.1773(2) 0.8082(2)
H3 H 0.45180 0.19510 0.84020
C4 C 0.3115(2) 0.2394(2) 0.7725(2)
H4 H 0.32730 0.29900 0.78100
C5 C 0.2131(2) 0.21378(18) 0.72392(19)
C6 C 0.1347(2) 0.28139(19) 0.6842(2)
C7 C 0.0317(2) 0.25250(17) 0.63317(19)
C8 C 0.01218(19) 0.16555(17) 0.62422(19)
C9 C -0.10993(19) 0.05212(17) 0.57030(19)
C10 C -0.20851(19) 0.02917(17) 0.52504(19)
H5 H -0.25740 0.07160 0.49890
C11 C -0.23265(19) -0.05913(17) 0.51972(19)
C12 C -0.1625(2) -0.12354(18) 0.5576(2)
H6 H -0.18110 -0.18260 0.55270
C13 C -0.0638(2) -0.09872(17) 0.6031(2)
H7 H -0.01550 -0.14160 0.62950
C14 C -0.0357(2) -0.01062(16) 0.61002(19)
C15 C 0.08620(19) 0.09614(18) 0.66263(18)
C16 C 0.1902(2) 0.12394(17) 0.71243(19)
C17 C -0.0481(2) 0.32112(17) 0.5932(2)
H8 H -0.02880 0.35400 0.54070
H9 H -0.05380 0.36020 0.64680
H10 H -0.11260 0.29290 0.56650
#END
