
#######################################################################
#
#                 Cambridge Crystallographic Data Centre
#                                CCDC
#
#######################################################################
#
# If this CIF has been generated from an entry in the Cambridge
# Structural Database, then it will include bibliographic, chemical,
# crystal, experimental, refinement or atomic coordinate data resulting
# from the CCDC's data processing and validation procedures.
#
#######################################################################

data_CSD_CIF_TAYWAR
_audit_creation_date 1997-02-10
_audit_creation_method CSD-ConQuest-V1
_database_code_CSD TAYWAR
_chemical_formula_sum 'C19 H21 N1 O2'
_chemical_formula_moiety
;
C19 H21 N1 O2
;
_journal_coden_Cambridge 1090
_journal_volume 7
_journal_year 1996
_journal_page_first 797
_journal_name_full 'Tetrahedron:Asymm. '
loop_
_publ_author_name
"G.Broggini"
"F.Folcio"
"N.Sardone"
"M.Sonzogni"
"G.Zecchi"
_chemical_name_systematic
;
(+)-(\aR,3aR,9bS)-3a-Methyl-1-(\a-phenylethyl)-1,3a,4,9b-tetrahydro-3H-benzopy
rano(4,3-c)isoxazole
;
_chemical_melting_point 375.15
_cell_volume    803.123
_exptl_crystal_colour 'colorless'
_exptl_crystal_density_diffrn 1.221
_exptl_special_details
;
Melting point range 375.15-376.15K

;
_diffrn_ambient_temperature ?
_diffrn_special_details
;
The study was carried out at room temperature,in the range 283-303K

;
#These two values have been output from a single CSD field.
_refine_ls_R_factor_gt 0.031
_refine_ls_wR_factor_gt 0.031
_symmetry_cell_setting monoclinic
_symmetry_space_group_name_H-M 'P 21'
_symmetry_Int_Tables_number 4
loop_
_symmetry_equiv_pos_site_id
_symmetry_equiv_pos_as_xyz
1 x,y,z
2 -x,1/2+y,-z
_cell_length_a 10.150(1)
_cell_length_b 8.206(1)
_cell_length_c 10.472(1)
_cell_angle_alpha 90
_cell_angle_beta 112.96(1)
_cell_angle_gamma 90
_cell_formula_units_Z 2
loop_
_atom_type_symbol
_atom_type_radius_bond
C 0.68
H 0.23
N 0.68
O 0.68
loop_
_atom_site_label
_atom_site_type_symbol
_atom_site_fract_x
_atom_site_fract_y
_atom_site_fract_z
O1 O 0.4238(1) 0.4636(2) -0.0841(1)
O2 O 0.4253(2) 0.3262(2) 0.2242(2)
N1 N 0.2783(2) 0.5225(2) -0.1330(2)
C1 C 0.4211(2) 0.2897(3) -0.0625(2)
C2 C 0.2934(2) 0.2588(3) -0.0218(2)
C3 C 0.1973(3) 0.1230(4) -0.1105(3)
C4 C 0.2201(2) 0.4286(3) -0.0465(2)
C5 C 0.2058(2) 0.4930(3) -0.2852(2)
C6 C 0.2914(2) 0.5747(4) -0.3575(2)
C7 C 0.0575(2) 0.5647(3) -0.3341(2)
C8 C 0.0336(2) 0.7186(3) -0.2921(2)
C9 C -0.1028(3) 0.7858(4) -0.3409(2)
C10 C -0.2153(3) 0.7014(4) -0.4367(3)
C11 C -0.1930(3) 0.5491(4) -0.4817(3)
C12 C -0.0579(2) 0.4803(4) -0.4297(2)
C13 C 0.2534(2) 0.5230(3) 0.0870(2)
C14 C 0.1872(3) 0.6724(3) 0.0855(2)
C15 C 0.2262(3) 0.7693(4) 0.2021(2)
C16 C 0.3333(3) 0.7178(4) 0.3239(2)
C17 C 0.3990(2) 0.5704(4) 0.3292(2)
C18 C 0.3569(2) 0.4738(3) 0.2111(2)
C19 C 0.3375(3) 0.2073(3) 0.1283(2)
H1 H 0.51500 0.26200 0.01800
H2 H 0.41000 0.23800 -0.16000
H3 H 0.24900 0.01500 -0.09300
H4 H 0.15500 0.15400 -0.21400
H5 H 0.13300 0.11700 -0.07200
H6 H 0.13100 0.41400 -0.09300
H7 H 0.20900 0.36800 -0.29400
H8 H 0.31800 0.67700 -0.33200
H9 H 0.25000 0.56700 -0.47300
H10 H 0.37400 0.52000 -0.33800
H11 H 0.13700 0.78100 -0.20700
H12 H -0.13000 0.89600 -0.32300
H13 H -0.31500 0.75300 -0.47300
H14 H -0.26700 0.47700 -0.55300
H15 H -0.04100 0.37600 -0.46200
H16 H 0.13100 0.70700 0.01400
H17 H 0.17700 0.89500 0.21200
H18 H 0.35200 0.79300 0.40000
H19 H 0.45900 0.52400 0.40400
H20 H 0.38300 0.09200 0.13600
H21 H 0.24800 0.18300 0.15800
#END
