
#######################################################################
#
#                 Cambridge Crystallographic Data Centre
#                                CCDC
#
#######################################################################
#
# If this CIF has been generated from an entry in the Cambridge
# Structural Database, then it will include bibliographic, chemical,
# crystal, experimental, refinement or atomic coordinate data resulting
# from the CCDC's data processing and validation procedures.
#
#######################################################################

data_CSD_CIF_TAYWAU
_audit_creation_date 2017-08-10
_audit_creation_method CSD-ConQuest-V1
_database_code_CSD TAYWAU
_database_code_depnum_ccdc_archive 'CCDC 1494130'
_chemical_formula_sum 'C17 H10 N2 O4'
_chemical_formula_moiety
;
C17 H10 N2 O4
;
_journal_coden_Cambridge 119
_journal_volume 1149
_journal_year 2017
_journal_page_first 84
_journal_name_full 'J.Mol.Struct. '
loop_
_publ_author_name
"D.Chadar"
"D.Chakravarty"
"D.N.Lande"
"S.P.Gejji"
"S.Sahoo"
"S.Salunke-Gawali"
_chemical_name_systematic
;
6-methyl-10-nitro-5H-benzo[a]phenoxazin-5-one
;
_cell_volume   1346.906
_exptl_crystal_colour 'yellow'
_exptl_crystal_density_diffrn 1.515
_exptl_special_details
;
H12 has been suppressed as it seems to have been incorrectly assigned

;
_exptl_crystal_description 'block'
_diffrn_ambient_temperature 296
#These two values have been output from a single CSD field.
_refine_ls_R_factor_gt 0.0694
_refine_ls_wR_factor_gt 0.0694
_symmetry_cell_setting monoclinic
_symmetry_space_group_name_H-M 'P 21/c'
_symmetry_Int_Tables_number 14
loop_
_symmetry_equiv_pos_site_id
_symmetry_equiv_pos_as_xyz
1 x,y,z
2 -x,1/2+y,1/2-z
3 -x,-y,-z
4 x,-1/2-y,-1/2+z
_cell_length_a 10.5028(7)
_cell_length_b 15.419(1)
_cell_length_c 8.4959(5)
_cell_angle_alpha 90
_cell_angle_beta 101.773(4)
_cell_angle_gamma 90
_cell_formula_units_Z 4
loop_
_atom_type_symbol
_atom_type_radius_bond
C 0.68
H 0.23
N 0.68
O 0.68
loop_
_atom_site_label
_atom_site_type_symbol
_atom_site_fract_x
_atom_site_fract_y
_atom_site_fract_z
O1 O 0.6112(2) -0.13634(12) -0.2195(2)
O2 O 0.78933(17) -0.08396(11) 0.3222(2)
O3 O 0.9200(2) 0.22585(16) 0.7969(3)
O4 O 0.9688(2) 0.12022(16) 0.9612(3)
N1 N 0.74366(18) 0.09296(13) 0.2649(2)
N2 N 0.9288(2) 0.14887(19) 0.8256(3)
C1 C 0.6331(2) 0.15721(16) -0.0438(3)
H1 H 0.65740 0.19760 0.03810
C2 C 0.5759(3) 0.18468(19) -0.1971(4)
H2 H 0.56220 0.24350 -0.21820
C3 C 0.5395(3) 0.1251(2) -0.3180(3)
H3 H 0.50060 0.14380 -0.42070
C4 C 0.5598(3) 0.03875(18) -0.2887(3)
H4 H 0.53420 -0.00090 -0.37160
C5 C 0.6433(2) -0.08434(16) -0.1092(3)
C6 C 0.7066(2) -0.11383(16) 0.0517(3)
C7 C 0.8739(2) -0.05768(19) 0.5974(3)
H5 H 0.88640 -0.11690 0.61430
C8 C 0.9086(2) 0.0003(2) 0.7222(3)
H6 H 0.94440 -0.01940 0.82530
C9 C 0.8899(2) 0.08749(18) 0.6927(3)
C10 C 0.8362(2) 0.11999(17) 0.5429(3)
H7 H 0.82550 0.17940 0.52670
C11 C 0.7339(3) -0.20831(17) 0.0772(4)
H8 H 0.79940 -0.21640 0.17290
H9 H 0.76400 -0.23160 -0.01340
H10 H 0.65570 -0.23770 0.08870
C12 C 0.6182(2) 0.00924(16) -0.1364(3)
C13 C 0.7353(2) -0.05419(16) 0.1702(3)
C14 C 0.8197(2) -0.02574(17) 0.4455(3)
C15 C 0.7983(2) 0.06209(17) 0.4164(3)
C16 C 0.7134(2) 0.03850(15) 0.1491(3)
C17 C 0.6543(2) 0.06931(16) -0.0121(3)
H11? H 0.73020 0.14750 0.24860
#END
