
#######################################################################
#
#                 Cambridge Crystallographic Data Centre
#                                CCDC
#
#######################################################################
#
# If this CIF has been generated from an entry in the Cambridge
# Structural Database, then it will include bibliographic, chemical,
# crystal, experimental, refinement or atomic coordinate data resulting
# from the CCDC's data processing and validation procedures.
#
#######################################################################

data_CSD_CIF_TAYXOG
_audit_creation_date 1997-01-09
_audit_creation_method CSD-ConQuest-V1
_database_code_CSD TAYXOG
_chemical_formula_sum 'C20 H34 N2 O2'
_chemical_formula_moiety
;
C20 H34 N2 O2
;
_journal_coden_Cambridge 1090
_journal_volume 7
_journal_year 1996
_journal_page_first 1611
_journal_name_full 'Tetrahedron:Asymm. '
loop_
_publ_author_name
"R.W.Murray"
"M.Singh"
"N.Rath"
_chemical_name_systematic
;
Azo-isopinocamphene dioxide
;
_chemical_melting_point 393.15
_cell_volume   1986.877
_exptl_crystal_colour 'colorless'
_exptl_crystal_density_diffrn 1.118
_exptl_special_details
;
Melting point range 393.15-395.15K

;
_diffrn_ambient_temperature ?
_diffrn_special_details
;
The study was carried out at room temperature,in the range 283-303K

;
#These two values have been output from a single CSD field.
_refine_ls_R_factor_gt 0.0413
_refine_ls_wR_factor_gt 0.0413
_symmetry_cell_setting orthorhombic
_symmetry_space_group_name_H-M 'C 2 2 21'
_symmetry_Int_Tables_number 20
loop_
_symmetry_equiv_pos_site_id
_symmetry_equiv_pos_as_xyz
1 x,y,z
2 -x,-y,1/2+z
3 x,-y,-z
4 -x,y,1/2-z
5 1/2+x,1/2+y,z
6 1/2-x,1/2-y,1/2+z
7 1/2+x,1/2-y,-z
8 1/2-x,1/2+y,1/2-z
_cell_length_a 7.6550(5)
_cell_length_b 12.2177(8)
_cell_length_c 21.244(2)
_cell_angle_alpha 90
_cell_angle_beta 90
_cell_angle_gamma 90
_cell_formula_units_Z 4
loop_
_atom_type_symbol
_atom_type_radius_bond
C 0.68
H 0.23
N 0.68
O 0.68
loop_
_atom_site_label
_atom_site_type_symbol
_atom_site_fract_x
_atom_site_fract_y
_atom_site_fract_z
O1 O 0.2049(3) 0.5809(1) 0.4356(1)
N1 N 0.1984(2) 0.4963(1) 0.4692(1)
C1 C 0.1951(3) 0.3848(2) 0.4406(1)
C2 C 0.0586(2) 0.3835(2) 0.3876(1)
C3 C 0.1271(3) 0.3176(2) 0.3323(1)
C4 C 0.2989(4) 0.3714(3) 0.3106(1)
C5 C 0.3874(3) 0.2956(2) 0.3584(1)
C6 C 0.3820(3) 0.3516(2) 0.4217(1)
C7 C 0.2348(3) 0.2146(2) 0.3496(1)
C8 C 0.2612(4) 0.1398(3) 0.2918(1)
C9 C 0.1839(3) 0.1417(2) 0.4043(1)
C10 C -0.1191(3) 0.3465(2) 0.4116(1)
H1 H 0.1557(3) 0.3335(2) 0.4731(1)
H2 H 0.0452(2) 0.4591(2) 0.3731(1)
H3 H 0.0418(3) 0.3060(2) 0.2986(1)
H4 H 0.3295(4) 0.3568(3) 0.2671(1)
H5 H 0.3081(4) 0.4487(3) 0.3204(1)
H6 H 0.5023(3) 0.2678(2) 0.3458(1)
H7 H 0.4551(3) 0.4164(2) 0.4203(1)
H8 H 0.4294(3) 0.3027(2) 0.4533(1)
H9 H 0.2937(4) 0.1835(3) 0.2561(1)
H10 H 0.1544(4) 0.1017(3) 0.2828(1)
H11 H 0.3520(4) 0.0878(3) 0.3005(1)
H12 H 0.0878(3) 0.0959(2) 0.3921(1)
H13 H 0.1502(3) 0.1863(2) 0.4395(1)
H14 H 0.2816(3) 0.0968(2) 0.4159(1)
H15 H -0.1536(3) 0.3918(2) 0.4464(1)
H16 H -0.1122(3) 0.2717(2) 0.4252(1)
H17 H -0.2037(3) 0.3528(2) 0.3785(1)
N1B N 0.1984(2) 0.5037(1) 0.5308(1)
O1B O 0.2049(3) 0.4191(1) 0.5644(1)
C1B C 0.1951(3) 0.6152(2) 0.5594(1)
C2B C 0.0586(2) 0.6165(2) 0.6124(1)
C3B C 0.1271(3) 0.6824(2) 0.6677(1)
C4B C 0.2989(4) 0.6286(3) 0.6894(1)
C5B C 0.3874(3) 0.7044(2) 0.6416(1)
C6B C 0.3820(3) 0.6484(2) 0.5783(1)
H1B H 0.1557(3) 0.6665(2) 0.5269(1)
H7B H 0.4551(3) 0.5836(2) 0.5797(1)
H8B H 0.4294(3) 0.6973(2) 0.5467(1)
C7B C 0.2348(3) 0.7854(2) 0.6504(1)
H3B H 0.0418(3) 0.6940(2) 0.7014(1)
C8B C 0.2612(4) 0.8602(3) 0.7082(1)
H9B H 0.2937(4) 0.8165(3) 0.7439(1)
H10B H 0.1544(4) 0.8983(3) 0.7172(1)
H11B H 0.3520(4) 0.9122(3) 0.6995(1)
C9B C 0.1839(3) 0.8583(2) 0.5957(1)
H12B H 0.0878(3) 0.9041(2) 0.6079(1)
H13B H 0.1502(3) 0.8137(2) 0.5605(1)
H14B H 0.2816(3) 0.9032(2) 0.5841(1)
H6B H 0.5023(3) 0.7322(2) 0.6542(1)
H4B H 0.3295(4) 0.6432(3) 0.7329(1)
H5B H 0.3081(4) 0.5513(3) 0.6796(1)
C10B C -0.1191(3) 0.6535(2) 0.5884(1)
H15B H -0.1536(3) 0.6082(2) 0.5536(1)
H16B H -0.1122(3) 0.7283(2) 0.5748(1)
H17B H -0.2037(3) 0.6472(2) 0.6215(1)
H2B H 0.0452(2) 0.5409(2) 0.6269(1)
#END
