
#######################################################################
#
#                 Cambridge Crystallographic Data Centre
#                                CCDC
#
#######################################################################
#
# If this CIF has been generated from an entry in the Cambridge
# Structural Database, then it will include bibliographic, chemical,
# crystal, experimental, refinement or atomic coordinate data resulting
# from the CCDC's data processing and validation procedures.
#
#######################################################################

data_CSD_CIF_TAZHEK
_audit_creation_date 2017-08-10
_audit_creation_method CSD-ConQuest-V1
_database_code_CSD TAZHEK
_database_code_depnum_ccdc_archive 'CCDC 1486105'
_chemical_formula_sum 'C12 H19 N4 O2'
_chemical_formula_moiety
;
C12 H19 N4 O2
;
_journal_coden_Cambridge 95
_journal_volume 66
_journal_year 2017
_journal_page_first 222
_journal_name_full 'Izv.Akad.Nauk SSSR,Ser.Khim.(Russ.)(Russ.Chem.Bull.) '
loop_
_publ_author_name
"R.Z.Sagdeev"
"S.E.Tolstikov"
"S.V.Fokin"
"I.V.Obsharova"
"S.v.Tumanov"
"S.L.Veber"
"G.V.Romanenko"
"A.S.Bogomyakov"
"M.V.Fedin"
"E.V.Tretyakov"
"M.Halcrow"
"V.I.Ovcharenko"
_chemical_name_systematic
;
2-(1-ethylimidazol-5-yl)-4,4,5,5-tetramethyl-4,5-dihydro-1H-imidazole 
3-oxide-1-oxyl radical
;
_chemical_melting_point 414.15
_cell_volume   1310.816
_exptl_crystal_colour 'dark blue'
_exptl_crystal_density_diffrn 1.273
_exptl_special_details
;
Melting point range 414.15-415.15K

;
_exptl_crystal_description 'bulk'
_diffrn_ambient_temperature 296
#These two values have been output from a single CSD field.
_refine_ls_R_factor_gt 0.0456
_refine_ls_wR_factor_gt 0.0456
_symmetry_cell_setting monoclinic
_symmetry_space_group_name_H-M 'P 21/n'
_symmetry_Int_Tables_number 14
loop_
_symmetry_equiv_pos_site_id
_symmetry_equiv_pos_as_xyz
1 x,y,z
2 1/2-x,1/2+y,1/2-z
3 -x,-y,-z
4 -1/2+x,-1/2-y,-1/2+z
_cell_length_a 7.7145(3)
_cell_length_b 14.7488(6)
_cell_length_c 11.8269(4)
_cell_angle_alpha 90
_cell_angle_beta 103.067(2)
_cell_angle_gamma 90
_cell_formula_units_Z 4
loop_
_atom_type_symbol
_atom_type_radius_bond
C 0.68
H 0.23
N 0.68
O 0.68
loop_
_atom_site_label
_atom_site_type_symbol
_atom_site_fract_x
_atom_site_fract_y
_atom_site_fract_z
O1 O 0.95244(14) 0.69413(7) 0.22353(9)
O2 O 0.76342(14) 0.49101(7) 0.46753(8)
N1 N 0.89280(15) 0.62204(8) 0.26178(9)
N2 N 0.72075(15) 0.70073(9) 0.51041(9)
N3 N 0.79818(15) 0.52628(8) 0.37636(9)
N4 N 0.91967(18) 0.81175(10) 0.55461(11)
C1 C 0.8181(2) 0.54505(13) 0.07246(12)
H1 H 0.70480 0.57490 0.06060
H2 H 0.80330 0.48690 0.03510
H3 H 0.89820 0.58130 0.03990
C2 C 0.89428(19) 0.53257(10) 0.20200(11)
C3 C 0.84325(17) 0.61352(10) 0.36369(11)
C4 C 0.84572(17) 0.6870(1) 0.44428(11)
C5 C 0.5477(2) 0.65688(13) 0.50152(14)
H4 H 0.50180 0.67250 0.56890
H5 H 0.56250 0.59160 0.50080
C6 C 0.4165(2) 0.68572(16) 0.39349(17)
H6 H 0.40420 0.75050 0.39300
H7 H 0.30320 0.65820 0.39180
H8 H 0.45810 0.66700 0.32650
C7 C 0.8376(2) 0.3773(1) 0.28885(14)
H9 H 0.95680 0.37680 0.33560
H10 H 0.83490 0.34680 0.21680
H11 H 0.75990 0.34680 0.32940
C8 C 0.77634(19) 0.47432(10) 0.26482(11)
C9 C 0.7725(2) 0.77573(11) 0.57328(13)
H12 H 0.71030 0.79990 0.62510
C10 C 0.9642(2) 0.75641(11) 0.47384(12)
H13 H 1.06340 0.76480 0.44250
C11 C 1.0875(2) 0.50188(12) 0.22571(13)
H14 H 1.15710 0.54650 0.19680
H15 H 1.09500 0.44510 0.18750
H16 H 1.13240 0.49470 0.30780
C12 C 0.57757(19) 0.47771(12) 0.20700(13)
H17 H 0.51040 0.45250 0.25860
H18 H 0.55560 0.44320 0.13630
H19 H 0.54220 0.53950 0.18990
#END
