
#######################################################################
#
#                 Cambridge Crystallographic Data Centre
#                                CCDC
#
#######################################################################
#
# If this CIF has been generated from an entry in the Cambridge
# Structural Database, then it will include bibliographic, chemical,
# crystal, experimental, refinement or atomic coordinate data resulting
# from the CCDC's data processing and validation procedures.
#
#######################################################################

data_CSD_CIF_TAZNUE
_audit_creation_date 2006-03-27
_audit_creation_method CSD-ConQuest-V1
_database_code_CSD TAZNUE
_database_code_depnum_ccdc_archive 'CCDC 265218'
_chemical_formula_sum 'C32 H28 N2 O2'
_chemical_formula_moiety
;
C32 H28 N2 O2
;
_journal_coden_Cambridge 1088
_journal_volume 2005
_journal_year 2005
_journal_page_first 2899
_journal_name_full 'Synlett '
loop_
_publ_author_name
"A.Ros"
"E.Alvarez"
"H.Dietrich"
"R.Fernandez"
"J.M.Lassaletta"
_chemical_name_systematic
;
(R,R)-3,4-Diphenyl-5-((2,5-diphenylpyrrolidin-1-yl)carbonyl)-4,5-dihydroisoxaz
ole
;
_cell_volume   2485.889
_exptl_crystal_colour 'colorless'
_exptl_crystal_density_diffrn 1.263
_exptl_crystal_description 'prism'
_diffrn_ambient_temperature 100
#These two values have been output from a single CSD field.
_refine_ls_R_factor_gt 0.0346
_refine_ls_wR_factor_gt 0.0346
_symmetry_cell_setting monoclinic
_symmetry_space_group_name_H-M 'P 21'
_symmetry_Int_Tables_number 4
loop_
_symmetry_equiv_pos_site_id
_symmetry_equiv_pos_as_xyz
1 x,y,z
2 -x,1/2+y,-z
_cell_length_a 13.4615(9)
_cell_length_b 10.5455(7)
_cell_length_c 17.8450(12)
_cell_angle_alpha 90
_cell_angle_beta 101.096(1)
_cell_angle_gamma 90
_cell_formula_units_Z 4
loop_
_atom_type_symbol
_atom_type_radius_bond
C 0.68
H 0.23
N 0.68
O 0.68
loop_
_atom_site_label
_atom_site_type_symbol
_atom_site_fract_x
_atom_site_fract_y
_atom_site_fract_z
N1 N 0.20597(11) 0.63007(17) 0.01019(9)
N2 N 0.54287(11) 0.61625(15) 0.05624(8)
O1 O 0.28858(9) 0.54273(13) 0.02090(7)
O2 O 0.41995(10) 0.74590(14) -0.00472(8)
C1 C 0.22084(13) 0.71173(18) 0.06387(10)
C2 C 0.31614(13) 0.68933(17) 0.12375(9)
H1 H 0.35680 0.76890 0.13460
C3 C 0.36918(13) 0.59294(18) 0.07976(10)
H2 H 0.40180 0.52380 0.11430
C4 C 0.44652(13) 0.65819(17) 0.03978(10)
C5 C 0.61940(13) 0.67527(18) 0.01843(10)
H3 H 0.61620 0.76950 0.02370
C6 C 0.71937(13) 0.6262(2) 0.06635(11)
H4 H 0.77190 0.61770 0.03470
H5 H 0.74460 0.68400 0.10950
C7 C 0.69185(13) 0.49676(19) 0.09513(11)
H6 H 0.73930 0.47310 0.14260
H7 H 0.69370 0.43040 0.05620
C8 C 0.58340(13) 0.51323(18) 0.11013(10)
H8 H 0.54400 0.43380 0.09520
C9 C 0.14709(13) 0.81394(19) 0.06793(10)
C10 C 0.18050(14) 0.9352(2) 0.09064(11)
H9 H 0.25100 0.95220 0.10380
C11 C 0.11111(15) 1.0319(2) 0.09433(11)
H10 H 0.13430 1.11490 0.10930
C12 C 0.00817(15) 1.0073(2) 0.07612(11)
H11 H -0.03920 1.07280 0.07970
C13 C -0.02549(15) 0.8870(2) 0.05273(12)
H12 H -0.09610 0.87050 0.03960
C14 C 0.04302(14) 0.7902(2) 0.04830(11)
H13 H 0.01930 0.70800 0.03200
C15 C 0.28924(12) 0.63484(18) 0.19624(10)
C16 C 0.31714(14) 0.6975(2) 0.26526(10)
H14 H 0.35160 0.77640 0.26740
C17 C 0.29441(16) 0.6443(2) 0.33184(11)
H15 H 0.31370 0.68740 0.37910
C18 C 0.24423(14) 0.5299(2) 0.32927(11)
H16 H 0.23000 0.49360 0.37480
C19 C 0.21470(15) 0.4680(2) 0.26014(12)
H17 H 0.17930 0.38980 0.25800
C20 C 0.23687(14) 0.52062(19) 0.19370(11)
H18 H 0.21610 0.47830 0.14630
C21 C 0.60456(13) 0.64057(18) -0.06582(10)
C22 C 0.54910(14) 0.53470(19) -0.09606(10)
H19 H 0.51840 0.48190 -0.06390
C23 C 0.53836(15) 0.5059(2) -0.17368(11)
H20 H 0.49990 0.43410 -0.19410
C24 C 0.58367(16) 0.5815(2) -0.22085(11)
H21 H 0.57690 0.56120 -0.27350
C25 C 0.63899(16) 0.6868(2) -0.19100(12)
H22 H 0.67010 0.73900 -0.22320
C26 C 0.64905(15) 0.71637(19) -0.11393(11)
H23 H 0.68670 0.78910 -0.09400
C27 C 0.57748(13) 0.54698(18) 0.19198(10)
C28 C 0.60293(14) 0.6677(2) 0.22171(11)
H24 H 0.62580 0.73030 0.19070
C29 C 0.59513(15) 0.6974(2) 0.29641(11)
H25 H 0.61380 0.77940 0.31630
C30 C 0.56029(15) 0.6077(3) 0.34188(11)
H26 H 0.55420 0.62830 0.39260
C31 C 0.53451(16) 0.4881(2) 0.31291(12)
H27 H 0.51050 0.42630 0.34390
C32 C 0.54350(14) 0.4574(2) 0.23835(11)
H28 H 0.52620 0.37460 0.21920
N3 N 0.73618(11) 0.19175(15) 0.48467(8)
N4 N 1.02235(11) 0.02583(14) 0.54255(8)
O3 O 0.84113(9) 0.19342(12) 0.48304(7)
O4 O 0.88215(9) -0.09311(12) 0.54270(7)
C33 C 0.69532(13) 0.09599(17) 0.44698(9)
C34 C 0.76676(12) 0.01676(17) 0.41083(10)
H29 H 0.76280 -0.07450 0.42520
C35 C 0.86778(13) 0.07487(17) 0.44983(10)
H30 H 0.91140 0.09190 0.41150
C36 C 0.92518(13) -0.00639(17) 0.5157(1)
C37 C 1.08208(13) 0.11279(17) 0.50302(10)
H31 H 1.04830 0.19750 0.49550
C38 C 1.18129(13) 0.12300(18) 0.56209(10)
H32 H 1.23880 0.14420 0.53710
H33 H 1.17590 0.18850 0.60090
C39 C 1.19417(13) -0.00926(19) 0.59815(11)
H34 H 1.23830 -0.00610 0.64940
H35 H 1.22380 -0.06880 0.56560
C40 C 1.08537(13) -0.04961(18) 0.60379(10)
H36 H 1.07640 -0.14170 0.59090
C41 C 0.58549(13) 0.07341(18) 0.43921(9)
C42 C 0.54752(15) -0.0500(2) 0.43526(11)
H37 H 0.59230 -0.12010 0.43680
C43 C 0.44409(16) -0.0708(2) 0.42911(12)
H38 H 0.41860 -0.15500 0.42650
C44 C 0.37846(15) 0.0303(3) 0.42663(11)
H39 H 0.30800 0.01570 0.42250
C45 C 0.41548(15) 0.1537(2) 0.43027(12)
H40 H 0.37030 0.22320 0.42850
C46 C 0.51855(14) 0.1754(2) 0.43657(11)
H41 H 0.54360 0.25980 0.43910
C47 C 0.75029(13) 0.0317(2) 0.32428(10)
C48 C 0.70385(15) 0.1381(3) 0.28756(11)
H42 H 0.67550 0.20020 0.31580
C49 C 0.69846(17) 0.1542(3) 0.20942(12)
H43 H 0.66650 0.22740 0.18470
C50 C 0.7388(2) 0.0653(3) 0.16795(12)
H44 H 0.73460 0.07660 0.11460
C51 C 0.7856(3) -0.0407(3) 0.20406(15)
H45 H 0.81460 -0.10170 0.17550
C52 C 0.7907(2) -0.0587(2) 0.28196(14)
H46 H 0.82190 -0.13270 0.30620
C53 C 1.09736(13) 0.06020(18) 0.42647(10)
C54 C 1.09754(14) -0.07000(18) 0.41291(11)
H47 H 1.08490 -0.12730 0.45110
C55 C 1.11600(15) -0.11687(19) 0.34427(11)
H48 H 1.11740 -0.20590 0.33630
C56 C 1.13229(17) -0.0347(2) 0.28740(11)
H49 H 1.14480 -0.06690 0.24040
C57 C 1.13023(18) 0.0953(2) 0.29978(12)
H50 H 1.14010 0.15220 0.26060
C58 C 1.11381(15) 0.14293(18) 0.36921(11)
H51 H 1.11390 0.23190 0.37750
C59 C 1.06216(13) -0.02722(18) 0.68278(10)
C60 C 1.07135(14) -0.1281(2) 0.73378(11)
H52 H 1.08660 -0.21040 0.71760
C61 C 1.05819(16) -0.1096(2) 0.80846(12)
H53 H 1.06490 -0.17900 0.84300
C62 C 1.03539(15) 0.0099(3) 0.83257(11)
H54 H 1.02650 0.02250 0.88360
C63 C 1.02544(16) 0.1109(2) 0.78208(12)
H55 H 1.00950 0.19300 0.79840
C64 C 1.03871(15) 0.0923(2) 0.70743(11)
H56 H 1.03180 0.16190 0.67300
#END
