
#######################################################################
#
#                 Cambridge Crystallographic Data Centre
#                                CCDC
#
#######################################################################
#
# If this CIF has been generated from an entry in the Cambridge
# Structural Database, then it will include bibliographic, chemical,
# crystal, experimental, refinement or atomic coordinate data resulting
# from the CCDC's data processing and validation procedures.
#
#######################################################################

data_CSD_CIF_TAZWIB
_audit_creation_date 2006-03-28
_audit_creation_method CSD-ConQuest-V1
_database_code_CSD TAZWIB
_database_code_depnum_ccdc_archive 'CCDC 601724'
_chemical_formula_sum 'C19 H20 N2 O2'
_chemical_formula_moiety
;
C19 H20 N2 O2
;
_journal_coden_Cambridge 1336
_journal_volume 7
_journal_year 2005
_journal_page_first 2313
_journal_name_full 'Org.Lett. '
loop_
_publ_author_name
"R.P.Wurz"
"A.B.Charette"
_chemical_name_systematic
;
3-Nitro-1,5-diphenyl-2-n-propyl-4,5-dihydro-1H-pyrrole
;
_chemical_melting_point 428.15
_cell_volume   3224.101
_exptl_crystal_colour 'yellow'
_exptl_special_details
;
Melting point range 428.15-429.15K
Cell values were requested from the authors, since no reply has been received 
calculated values have been used in this entry
;
_diffrn_ambient_temperature ?
_diffrn_special_details
;
The study was carried out at room temperature,in the range 283-303K

;
#These two values have been output from a single CSD field.
_refine_ls_R_factor_gt 0.0519
_refine_ls_wR_factor_gt 0.0519
_symmetry_cell_setting monoclinic
_symmetry_space_group_name_H-M 'P 21/n'
_symmetry_Int_Tables_number 14
loop_
_symmetry_equiv_pos_site_id
_symmetry_equiv_pos_as_xyz
1 x,y,z
2 1/2-x,1/2+y,1/2-z
3 -x,-y,-z
4 -1/2+x,-1/2-y,-1/2+z
_cell_length_a 14.37
_cell_length_b 10.63
_cell_length_c 21.12
_cell_angle_alpha 90
_cell_angle_beta 92.04
_cell_angle_gamma 90
_cell_formula_units_Z 8
loop_
_atom_type_symbol
_atom_type_radius_bond
C 0.68
H 0.23
N 0.68
O 0.68
loop_
_atom_site_label
_atom_site_type_symbol
_atom_site_fract_x
_atom_site_fract_y
_atom_site_fract_z
N1 N 0.1173(2) 0.6483(2) 0.10895(15)
C1 C 0.1579(3) 0.6248(4) 0.05376(19)
C2 C 0.0967(3) 0.6425(4) 0.0040(2)
C3 C 0.0024(3) 0.6753(4) 0.02591(19)
H1 H -0.04170 0.60800 0.01660
H2 H 0.02030 0.75230 0.00610
C4 C 0.0181(3) 0.6926(4) 0.09798(19)
H3 H -0.02400 0.63670 0.12030
C5 C 0.1540(3) 0.6294(4) 0.17228(19)
C6 C 0.1169(3) 0.5349(4) 0.2079(2)
H4 H 0.06900 0.48510 0.19080
C7 C 0.1507(3) 0.5136(5) 0.2697(2)
H5 H 0.12500 0.45100 0.29170
C8 C 0.2242(3) 0.5898(5) 0.2929(2)
H6 H 0.25020 0.57490 0.33320
C9 C 0.2583(3) 0.6857(5) 0.2571(2)
H7 H 0.30520 0.73720 0.27420
C10 C 0.2246(3) 0.7073(4) 0.1966(2)
H8 H 0.24820 0.77230 0.17240
C11 C 0.2583(3) 0.5812(4) 0.0537(2)
H9 H 0.28700 0.59470 0.09540
H10 H 0.29180 0.63150 0.02360
C12 C 0.2667(3) 0.4417(4) 0.0361(2)
H11 H 0.23880 0.42910 -0.00600
H12 H 0.33220 0.42020 0.03440
C13 C 0.2208(3) 0.3530(3) 0.0816(2)
H13 H 0.15480 0.36700 0.08000
H14 H 0.24510 0.36830 0.12380
H15 H 0.23350 0.26750 0.06990
N2 N 0.1118(3) 0.6285(4) -0.05986(19)
O1 O 0.0436(2) 0.6351(4) -0.09787(14)
O2 O 0.1939(3) 0.6068(3) -0.07733(1)
C14 C 0.0071(3) 0.8226(4) 0.1211(2)
C15 C -0.0545(3) 0.8483(5) 0.1681(2)
H16 H -0.08540 0.78250 0.18740
C16 C -0.0703(4) 0.9691(6) 0.1864(3)
H17 H -0.11280 0.98430 0.21780
C17 C -0.0252(4) 1.0693(6) 0.1597(3)
H18 H -0.03700 1.15150 0.17230
C18 C 0.0381(4) 1.0440(5) 0.1135(3)
H19 H 0.07020 1.10960 0.09490
C19 C 0.0534(3) 0.9226(5) 0.0954(2)
H20 H 0.09670 0.90690 0.06470
#END
