
#######################################################################
#
#                 Cambridge Crystallographic Data Centre
#                                CCDC
#
#######################################################################
#
# If this CIF has been generated from an entry in the Cambridge
# Structural Database, then it will include bibliographic, chemical,
# crystal, experimental, refinement or atomic coordinate data resulting
# from the CCDC's data processing and validation procedures.
#
#######################################################################

data_CSD_CIF_TBMNBZ10
_audit_creation_date 1979-01-19
_audit_creation_method CSD-ConQuest-V1
_database_code_CSD TBMNBZ10
_database_code_depnum_ccdc_archive 'CCDC 1267562'
_chemical_formula_sum 'C20 H31 N1 O4'
_chemical_formula_moiety
;
C20 H31 N1 O4
;
_journal_coeditor_code "IUCr A16452"
_journal_coden_Cambridge 107
_journal_volume 34
_journal_year 1978
_journal_page_first 3001
_journal_name_full 'Acta Crystallogr.,Sect.B:Struct.Crystallogr.Cryst.Chem. '
loop_
_publ_author_name
"P.-T.Cheng"
"S.C.Nyburg"
_chemical_name_systematic
;
Tri-t-butylmethyl p-nitrobenzoate
;
_cell_volume   1913.479
_exptl_crystal_density_diffrn 1.21
_exptl_special_details
;
alpha polymorph

;
_diffrn_ambient_temperature ?
_diffrn_special_details
;
The study was carried out at room temperature,in the range 283-303K

;
_refine_special_details
;
Structure consists of two embedded closely related polymorphs of which one is 
present to about 90 percent. All data refer to major component.
;
#These two values have been output from a single CSD field.
_refine_ls_R_factor_gt 0.104
_refine_ls_wR_factor_gt 0.104
_symmetry_cell_setting monoclinic
_symmetry_space_group_name_H-M 'P 21/c'
_symmetry_Int_Tables_number 14
loop_
_symmetry_equiv_pos_site_id
_symmetry_equiv_pos_as_xyz
1 x,y,z
2 -x,1/2+y,1/2-z
3 -x,-y,-z
4 x,-1/2-y,-1/2+z
_cell_length_a 11.541(9)
_cell_length_b 8.161(7)
_cell_length_c 21.289(7)
_cell_angle_alpha 90
_cell_angle_beta 107.39
_cell_angle_gamma 90
_cell_formula_units_Z 4
loop_
_atom_type_symbol
_atom_type_radius_bond
C 0.68
H 0.23
N 0.68
O 0.68
loop_
_atom_site_label
_atom_site_type_symbol
_atom_site_fract_x
_atom_site_fract_y
_atom_site_fract_z
O1 O 0.75210 0.31050 0.36470
O2 O 0.75050 0.12380 0.28500
O3 O 0.93550 0.73230 0.11420
O4 O 0.88170 0.91510 0.17300
N1 N 0.89680 0.77220 0.15930
C1 C 0.80540 0.39800 0.27190
C2 C 0.83830 0.35790 0.21630
C3 C 0.87150 0.48230 0.18030
C4 C 0.86950 0.64160 0.20010
C5 C 0.83840 0.68460 0.25490
C6 C 0.80700 0.55990 0.29180
C7 C 0.76470 0.26070 0.30750
C8 C 0.68710 0.23990 0.40960
C9 C 0.54990 0.30340 0.37720
C10 C 0.76010 0.33640 0.47710
C11 C 0.70280 0.04470 0.41720
C12 C 0.50070 0.26360 0.30160
C13 C 0.45710 0.22890 0.40890
C14 C 0.53550 0.49080 0.37850
C15 C 0.68840 0.35230 0.52750
C16 C 0.79880 0.51350 0.46420
C17 C 0.88500 0.26180 0.51310
C18 C 0.61450 -0.05770 0.36120
C19 C 0.67540 -0.01850 0.48040
C20 C 0.83360 -0.01440 0.42060
H1 H 0.84000 0.23900 0.20300
H2 H 0.89500 0.45000 0.14700
H3 H 0.83600 0.80800 0.26600
H4 H 0.78500 0.58300 0.33300
H5 H 0.50900 0.15000 0.29100
H6 H 0.55300 0.32600 0.27800
H7 H 0.42000 0.30800 0.29200
H8 H 0.45300 0.10800 0.40200
H9 H 0.48200 0.26100 0.45700
H10 H 0.37500 0.27900 0.38800
H11 H 0.54800 0.52900 0.42400
H12 H 0.58900 0.54000 0.35500
H13 H 0.45100 0.50300 0.35400
H14 H 0.66100 0.24100 0.54500
H15 H 0.61300 0.42400 0.51400
H16 H 0.75200 0.39200 0.56900
H17 H 0.84800 0.50500 0.43600
H18 H 0.73400 0.57800 0.43900
H19 H 0.82700 0.55900 0.51000
H20 H 0.93600 0.23800 0.48100
H21 H 0.87400 0.13800 0.52900
H22 H 0.92400 0.32500 0.55400
H23 H 0.63300 -0.16400 0.37300
H24 H 0.63400 -0.03400 0.31800
H25 H 0.53900 -0.05100 0.37000
H26 H 0.69200 -0.13100 0.48100
H27 H 0.57700 0.01100 0.48000
H28 H 0.73900 0.03000 0.52500
H29 H 0.83000 -0.08400 0.38700
H30 H 0.88500 0.08300 0.41800
H31 H 0.87000 -0.07200 0.46300
#END
