
#######################################################################
#
#                 Cambridge Crystallographic Data Centre
#                                CCDC
#
#######################################################################
#
# If this CIF has been generated from an entry in the Cambridge
# Structural Database, then it will include bibliographic, chemical,
# crystal, experimental, refinement or atomic coordinate data resulting
# from the CCDC's data processing and validation procedures.
#
#######################################################################

data_CSD_CIF_TBMNBZ01
_audit_creation_date 1984-10-09
_audit_creation_method CSD-ConQuest-V1
_database_code_CSD TBMNBZ01
_chemical_formula_sum 'C20 H31 N1 O4'
_chemical_formula_moiety
;
C20 H31 N1 O4
;
_journal_coeditor_code "IUCr A23319"
_journal_coden_Cambridge 591
_journal_volume 40
_journal_year 1984
_journal_page_first 92
_journal_name_full 'Acta Crystallogr.,Sect.C:Cryst.Struct.Commun. '
loop_
_publ_author_name
"W.Wong-Ng"
"P.-T.Cheng"
"S.C.Nyburg"
_chemical_name_systematic
;
Tri-t-butylmethyl-p-nitrobenzoate
;
_cell_volume   3918.883
_exptl_crystal_colour 'colorless'
_exptl_crystal_density_diffrn 1.194
_exptl_special_details
;
gamma polymorph

;
_diffrn_ambient_temperature ?
_diffrn_special_details
;
The study was carried out at room temperature,in the range 283-303K

;
#These two values have been output from a single CSD field.
_refine_ls_R_factor_gt 0.087
_refine_ls_wR_factor_gt 0.087
_symmetry_cell_setting monoclinic
_symmetry_space_group_name_H-M 'P 21/c'
_symmetry_Int_Tables_number 14
loop_
_symmetry_equiv_pos_site_id
_symmetry_equiv_pos_as_xyz
1 x,y,z
2 -x,1/2+y,1/2-z
3 -x,-y,-z
4 x,-1/2-y,-1/2+z
_cell_length_a 12.655(6)
_cell_length_b 26.523(5)
_cell_length_c 12.134(6)
_cell_angle_alpha 90
_cell_angle_beta 105.8(2)
_cell_angle_gamma 90
_cell_formula_units_Z 8
loop_
_atom_type_symbol
_atom_type_radius_bond
C 0.68
H 0.23
N 0.68
O 0.68
loop_
_atom_site_label
_atom_site_type_symbol
_atom_site_fract_x
_atom_site_fract_y
_atom_site_fract_z
O1 O 0.17470 0.13000 0.10940
O2 O 0.20440 0.20880 0.04810
O3 O 0.56530 0.03420 -0.12380
O4 O 0.62850 0.10930 -0.13620
N1 N 0.56400 0.07980 -0.11000
C1 C 0.31080 0.14000 0.01440
C2 C 0.38520 0.17220 -0.01420
C3 C 0.47130 0.15230 -0.05250
C4 C 0.47660 0.10130 -0.06490
C5 C 0.40010 0.06820 -0.04130
C6 C 0.31830 0.08870 0.00130
C7 C 0.22160 0.16450 0.05820
C8 C 0.08130 0.13380 0.16560
C9 C -0.02960 0.13300 0.06290
C10 C 0.10830 0.08130 0.23870
C11 C 0.09750 0.18360 0.24740
C12 C -0.02860 0.17230 -0.03140
C13 C -0.13230 0.14310 0.10670
C14 C -0.05330 0.08430 -0.00650
C15 C 0.00970 0.06230 0.28100
C16 C 0.14010 0.03740 0.16820
C17 C 0.20730 0.08540 0.34570
C18 C 0.04830 0.23220 0.19140
C19 C 0.04400 0.17700 0.34700
C20 C 0.22120 0.19640 0.30220
O5 O 0.55190 0.36170 0.01200
O6 O 0.52260 0.28260 0.07220
O7 O 0.15250 0.45440 0.23320
O8 O 0.09960 0.38090 0.25730
N2 N 0.15870 0.40960 0.22560
C21 C 0.41570 0.35080 0.10520
C22 C 0.33930 0.31840 0.13170
C23 C 0.25380 0.33880 0.17090
C24 C 0.24830 0.38870 0.18330
C25 C 0.32340 0.42150 0.16040
C26 C 0.40810 0.40140 0.11970
C27 C 0.50390 0.32660 0.06190
C28 C 0.64590 0.35810 -0.04300
C29 C 0.75450 0.36160 0.06140
C30 C 0.61810 0.40880 -0.11940
C31 C 0.63540 0.30770 -0.12040
C32 C 0.75690 0.32330 0.15960
C33 C 0.86290 0.35180 0.02320
C34 C 0.77130 0.41180 0.12440
C35 C 0.71610 0.42920 -0.16070
C36 C 0.57890 0.45370 -0.05630
C37 C 0.52060 0.40240 -0.22850
C38 C 0.68640 0.25860 -0.05900
C39 C 0.69230 0.31370 -0.21830
C40 C 0.51610 0.29300 -0.17720
H1 H 0.37200 0.21000 -0.01700
H2 H 0.52400 0.17300 -0.07700
H3 H 0.39000 0.03400 -0.06100
H4 H 0.26100 0.06600 0.01800
H5 H -0.02500 0.20700 0.00100
H6 H -0.09700 0.16900 -0.09600
H7 H 0.03700 0.16600 -0.06100
H8 H -0.19600 0.15200 0.04100
H9 H -0.15000 0.11200 0.14500
H10 H -0.11700 0.17200 0.16300
H11 H -0.06400 0.05600 0.04400
H12 H 0.01000 0.07600 -0.03800
H13 H -0.12100 0.08900 -0.07100
H14 H -0.04200 0.04300 0.21800
H15 H 0.03700 0.04000 0.34900
H16 H -0.03000 0.09200 0.30300
H17 H 0.13800 0.00500 0.20900
H18 H 0.08700 0.03600 0.09100
H19 H 0.21600 0.04300 0.16000
H20 H 0.27700 0.08800 0.32100
H21 H 0.21000 0.05500 0.39500
H22 H 0.19900 0.11600 0.39000
H23 H 0.07600 0.23900 0.12300
H24 H -0.03400 0.22900 0.16700
H25 H 0.07000 0.26100 0.24700
H26 H -0.03700 0.18100 0.31700
H27 H 0.07400 0.20300 0.40700
H28 H 0.06100 0.14300 0.38100
H29 H 0.22900 0.21500 0.37600
H30 H 0.24900 0.21800 0.24800
H31 H 0.26500 0.16400 0.31800
H32 H 0.35400 0.28100 0.13100
H33 H 0.22300 0.30800 0.18900
H34 H 0.31300 0.45700 0.16000
H35 H 0.45700 0.42000 0.10200
H36 H 0.74000 0.34100 0.22500
H37 H 0.83100 0.30800 0.18600
H38 H 0.70100 0.29600 0.13100
H39 H 0.87400 0.31500 0.01700
H40 H 0.92700 0.36700 0.08100
H41 H 0.85600 0.36800 -0.05300
H42 H 0.83800 0.41000 0.19100
H43 H 0.70500 0.42000 0.15200
H44 H 0.78200 0.43900 0.07100
H45 H 0.76600 0.44900 -0.09800
H46 H 0.68800 0.45100 -0.23000
H47 H 0.75800 0.40000 -0.18100
H48 H 0.62900 0.45700 0.02300
H49 H 0.58000 0.48600 -0.10000
H50 H 0.50200 0.44700 -0.05200
H51 H 0.45000 0.40200 -0.20600
H52 H 0.52000 0.43100 -0.28200
H53 H 0.52900 0.37000 -0.26700
H54 H 0.64800 0.24900 0.00000
H55 H 0.67700 0.23100 -0.11600
H56 H 0.76600 0.26400 -0.02100
H57 H 0.77400 0.31300 -0.18500
H58 H 0.67000 0.28500 -0.27400
H59 H 0.66900 0.34600 -0.25900
H60 H 0.46800 0.32300 -0.18300
H61 H 0.51000 0.28000 -0.25600
H62 H 0.49300 0.26600 -0.13000
#END
