
#######################################################################
#
#                 Cambridge Crystallographic Data Centre
#                                CCDC
#
#######################################################################
#
# If this CIF has been generated from an entry in the Cambridge
# Structural Database, then it will include bibliographic, chemical,
# crystal, experimental, refinement or atomic coordinate data resulting
# from the CCDC's data processing and validation procedures.
#
#######################################################################

data_CSD_CIF_TCAZBE
_audit_creation_date 1975-02-18
_audit_creation_method CSD-ConQuest-V1
_database_code_CSD TCAZBE
_chemical_formula_sum 'C14 H10 N2 O6'
_chemical_formula_moiety
;
C14 H10 N2 O6
;
_journal_coden_Cambridge 4
_journal_volume 96
_journal_year 1974
_journal_page_first 6372
_journal_name_full 'J.Am.Chem.Soc. '
loop_
_publ_author_name
"D.A.Dieterich"
"I.C.Paul"
"D.Y.Curtin"
_chemical_name_systematic
;
trans-2,2'-Dicarboxyazobenzene dioxide
;
_chemical_melting_point 342.15
_cell_volume    322.102
_exptl_crystal_density_diffrn 1.56
_diffrn_ambient_temperature ?
_diffrn_special_details
;
The study was carried out at room temperature,in the range 283-303K

;
#These two values have been output from a single CSD field.
_refine_ls_R_factor_gt 0.052
_refine_ls_wR_factor_gt 0.052
_symmetry_cell_setting triclinic
_symmetry_space_group_name_H-M 'P -1'
_symmetry_Int_Tables_number 2
loop_
_symmetry_equiv_pos_site_id
_symmetry_equiv_pos_as_xyz
1 x,y,z
2 -x,-y,-z
_cell_length_a 7.623(4)
_cell_length_b 7.412(4)
_cell_length_c 6.746(4)
_cell_angle_alpha 115.14(4)
_cell_angle_beta 106.66(4)
_cell_angle_gamma 94.20(4)
_cell_formula_units_Z 1
loop_
_atom_type_symbol
_atom_type_radius_bond
C 0.68
H 0.20
N 0.68
O 0.68
loop_
_atom_site_label
_atom_site_type_symbol
_atom_site_fract_x
_atom_site_fract_y
_atom_site_fract_z
C1 C 0.36510 -0.36960 -0.31360
C2 C 0.44280 -0.29680 -0.07440
C3 C 0.36970 -0.15290 0.06980
C4 C 0.22300 -0.08320 -0.02360
C5 C 0.14380 -0.15810 -0.26430
C6 C 0.21410 -0.30320 -0.41320
C7 C 0.12530 -0.38740 -0.67140
H1 H -0.06000 -0.35500 -0.89700
H2 H 0.54900 -0.34700 -0.01500
H3 H 0.42000 -0.09900 0.23900
H4 H 0.17000 0.00900 0.06500
H5 H 0.03600 -0.10900 -0.32600
N1 N 0.44420 -0.52760 -0.45520
O1 O 0.41570 -0.70580 -0.47410
O2 O 0.00000 -0.29390 -0.73520
O3 O 0.16450 -0.53390 -0.80950
N1A N 0.55580 -0.47240 -0.54480
C1A C 0.63490 -0.63040 -0.68640
O1A O 0.58430 -0.29420 -0.52590
C2A C 0.55720 -0.70320 -0.92560
C6A C 0.78590 -0.69680 -0.58680
C3A C 0.63030 -0.84710 -1.06980
H2A H 0.45100 -0.65300 -0.98500
C5A C 0.85620 -0.84190 -0.73570
C7A C 0.87470 -0.61260 -0.32860
C4A C 0.77700 -0.91680 -0.97640
H3A H 0.58000 -0.90100 -1.23900
H5A H 0.96400 -0.89100 -0.67400
O2A O 1.00000 -0.70610 -0.26480
O3A O 0.83550 -0.46610 -0.19050
H4A H 0.83000 -1.00900 -1.06500
H1A H 1.06000 -0.64500 -0.10300
#END
