
#######################################################################
#
#                 Cambridge Crystallographic Data Centre
#                                CCDC
#
#######################################################################
#
# If this CIF has been generated from an entry in the Cambridge
# Structural Database, then it will include bibliographic, chemical,
# crystal, experimental, refinement or atomic coordinate data resulting
# from the CCDC's data processing and validation procedures.
#
#######################################################################

data_CSD_CIF_TEBBUX
_audit_creation_date 1991-11-25
_audit_creation_method CSD-ConQuest-V1
_database_code_CSD TEBBUX
_chemical_formula_sum 'C12 H11 N1 O4'
_chemical_formula_moiety
;
C12 H11 N1 O4
;
_journal_coeditor_code "IUCr CR0314"
_journal_coden_Cambridge 591
_journal_volume 47
_journal_year 1991
_journal_page_first 2156
_journal_name_full 'Acta Crystallogr.,Sect.C:Cryst.Struct.Commun. '
loop_
_publ_author_name
"H.L.Ammon"
"L.A.Paquette"
_chemical_name_systematic
;
9-Nitro-(4)peristylane-1,5-dione
;
_chemical_name_common
;
Decahydro-1,6:3,4-dimethano-3a-nitro-cyclobuta(1,2:3,4)dicyclopentene-2,5-dion
e
;
_cell_volume   2036.640
_exptl_crystal_density_diffrn 1.521
_diffrn_ambient_temperature ?
_diffrn_special_details
;
The study was carried out at room temperature,in the range 283-303K

;
#These two values have been output from a single CSD field.
_refine_ls_R_factor_gt 0.047
_refine_ls_wR_factor_gt 0.047
_symmetry_cell_setting monoclinic
_symmetry_space_group_name_H-M 'P 21/n'
_symmetry_Int_Tables_number 14
loop_
_symmetry_equiv_pos_site_id
_symmetry_equiv_pos_as_xyz
1 x,y,z
2 1/2-x,1/2+y,1/2-z
3 -x,-y,-z
4 -1/2+x,-1/2-y,-1/2+z
_cell_length_a 13.378(7)
_cell_length_b 6.614(1)
_cell_length_c 23.040(15)
_cell_angle_alpha 90
_cell_angle_beta 92.53(5)
_cell_angle_gamma 90
_cell_formula_units_Z 8
loop_
_atom_type_symbol
_atom_type_radius_bond
C 0.68
H 0.23
N 0.68
O 0.68
loop_
_atom_site_label
_atom_site_type_symbol
_atom_site_fract_x
_atom_site_fract_y
_atom_site_fract_z
O1 O -0.1404(1) 0.3963(2) 0.31701(8)
O2 O -0.2946(1) 0.2839(3) 0.44269(8)
O3 O 0.0521(2) -0.2197(4) 0.31222(8)
O4 O 0.0547(1) -0.3143(3) 0.4005(1)
N1 N 0.0177(1) -0.2209(3) 0.35992(9)
C1 C -0.1322(2) 0.2174(3) 0.32639(9)
C2 C -0.0533(2) 0.1287(3) 0.3687(1)
C3 C -0.0710(2) 0.1958(4) 0.4313(1)
C4 C -0.1533(2) 0.0558(4) 0.45130(9)
C5 C -0.2561(2) 0.1262(3) 0.42859(9)
C6 C -0.3023(1) -0.0171(3) 0.38325(9)
C7 C -0.3080(2) 0.0836(4) 0.3230(1)
C8 C -0.2019(2) 0.0563(3) 0.30062(8)
C9 C -0.0741(1) -0.0980(3) 0.36841(8)
C10 C -0.1365(2) -0.1469(3) 0.4211(1)
C11 C -0.2278(2) -0.1908(3) 0.3788(1)
C12 C -0.1640(2) -0.1440(3) 0.32601(9)
O5 O 0.0573(1) -0.5016(3) 0.10703(9)
O6 O 0.3248(1) -0.3684(3) 0.09189(8)
O7 O -0.0578(1) 0.1233(4) 0.1849(1)
O8 O 0.0726(2) 0.2291(4) 0.23222(9)
N2 N 0.0321(1) 0.1307(3) 0.19356(8)
C13 C 0.0660(1) -0.3208(3) 0.1118(1)
C14 C 0.0913(2) -0.2156(3) 0.1699(1)
C15 C 0.1972(2) -0.2638(4) 0.1940(1)
C16 C 0.2649(2) -0.1232(3) 0.1597(1)
C17 C 0.2816(1) -0.2108(4) 0.1000(1)
C18 C 0.2320(2) -0.0856(3) 0.0518(1)
C19 C 0.1459(2) -0.2001(4) 0.0216(1)
C20 C 0.0578(2) -0.1719(3) 0.0619(1)
C21 C 0.0941(1) 0.0088(3) 0.15477(8)
C22 C 0.2043(1) 0.0701(3) 0.14864(9)
C23 C 0.1838(2) 0.0938(3) 0.08212(9)
C24 C 0.0728(2) 0.0373(3) 0.08851(9)
H1 H 0.013(2) 0.169(4) 0.354(1)
H2 H -0.093(2) 0.328(5) 0.431(1)
H3 H -0.009(2) 0.169(4) 0.457(1)
H4 H -0.155(2) 0.039(5) 0.493(1)
H5 H -0.373(2) -0.066(3) 0.394(1)
H6 H -0.336(2) 0.234(4) 0.326(1)
H7 H -0.358(2) 0.015(4) 0.300(1)
H8 H -0.199(2) 0.064(4) 0.259(1)
H9 H -0.108(2) -0.253(4) 0.447(1)
H10 H -0.257(2) -0.311(5) 0.379(1)
H11 H -0.152(2) -0.250(4) 0.301(1)
H12 H 0.043(2) -0.251(4) 0.195(1)
H13 H 0.222(2) -0.413(4) 0.186(1)
H14 H 0.199(2) -0.229(4) 0.237(1)
H15 H 0.336(2) -0.100(4) 0.181(1)
H16 H 0.283(2) -0.051(4) 0.025(1)
H17 H 0.157(2) -0.365(4) 0.017(1)
H18 H 0.131(2) -0.140(4) -0.017(1)
H19 H -0.007(2) -0.199(4) 0.044(1)
H20 H 0.233(2) 0.188(4) 0.172(1)
H21 H 0.199(2) 0.214(4) 0.066(1)
H22 H 0.027(2) 0.140(4) 0.0790(9)
#END
