
#######################################################################
#
#                 Cambridge Crystallographic Data Centre
#                                CCDC
#
#######################################################################
#
# If this CIF has been generated from an entry in the Cambridge
# Structural Database, then it will include bibliographic, chemical,
# crystal, experimental, refinement or atomic coordinate data resulting
# from the CCDC's data processing and validation procedures.
#
#######################################################################

data_CSD_CIF_TEBBEH
_audit_creation_date 1991-11-25
_audit_creation_method CSD-ConQuest-V1
_database_code_CSD TEBBEH
_chemical_formula_sum 'C18 H25 N3 O4'
_chemical_formula_moiety
;
C18 H25 N3 O4
;
_journal_coeditor_code "IUCr CR0270"
_journal_coden_Cambridge 591
_journal_volume 47
_journal_year 1991
_journal_page_first 2118
_journal_name_full 'Acta Crystallogr.,Sect.C:Cryst.Struct.Commun. '
loop_
_publ_author_name
"G.Punte"
"B.E.Rivero"
_chemical_name_systematic
;
N,N-Dicyclohexyl-2,4-dinitroaniline
;
_cell_volume   1810.729
_exptl_crystal_colour 'yellowish'
_exptl_crystal_density_diffrn 1.27
_diffrn_ambient_temperature ?
_diffrn_special_details
;
The study was carried out at room temperature,in the range 283-303K

;
#These two values have been output from a single CSD field.
_refine_ls_R_factor_gt 0.047
_refine_ls_wR_factor_gt 0.047
_symmetry_cell_setting triclinic
_symmetry_space_group_name_H-M 'P -1'
_symmetry_Int_Tables_number 2
loop_
_symmetry_equiv_pos_site_id
_symmetry_equiv_pos_as_xyz
1 x,y,z
2 -x,-y,-z
_cell_length_a 9.881(1)
_cell_length_b 12.687(2)
_cell_length_c 15.438(5)
_cell_angle_alpha 109.65(1)
_cell_angle_beta 90.94(2)
_cell_angle_gamma 95.78(1)
_cell_formula_units_Z 4
loop_
_atom_type_symbol
_atom_type_radius_bond
C 0.68
H 0.23
N 0.68
O 0.68
loop_
_atom_site_label
_atom_site_type_symbol
_atom_site_fract_x
_atom_site_fract_y
_atom_site_fract_z
O1 O 0.3218(3) 0.0915(3) -0.0454(2)
O2 O 0.2761(3) 0.1941(3) -0.1250(2)
O3 O 0.6642(4) 0.4495(3) -0.1335(3)
O4 O 0.7970(4) 0.5307(3) -0.0124(2)
N1 N 0.3731(3) 0.2449(3) 0.1433(2)
N2 N 0.3349(4) 0.1801(4) -0.0602(2)
N3 N 0.6987(4) 0.4651(3) -0.0529(3)
C1 C 0.4596(4) 0.2880(3) 0.0926(3)
C2 C 0.4340(4) 0.2724(3) -0.0022(3)
C3 C 0.5086(5) 0.3302(4) -0.0488(3)
C4 C 0.6202(5) 0.4020(4) -0.0045(3)
C5 C 0.6598(5) 0.4132(4) 0.0846(3)
C6 C 0.5821(4) 0.3572(3) 0.1310(3)
C7 C 0.4226(4) 0.2101(3) 0.2199(2)
C8 C 0.2233(4) 0.2433(3) 0.1292(3)
C9 C 0.1416(4) 0.1312(3) 0.1205(3)
C10 C -0.0077(5) 0.1355(4) 0.0950(3)
C11 C -0.0663(5) 0.2336(4) 0.1646(3)
C12 C 0.0194(4) 0.3444(4) 0.1791(3)
C13 C 0.1684(4) 0.3397(3) 0.2035(3)
C14 C 0.5319(5) 0.1309(4) 0.1881(3)
C15 C 0.5699(5) 0.0814(4) 0.2613(3)
C16 C 0.6094(5) 0.1736(4) 0.3528(3)
C17 C 0.4983(5) 0.2496(4) 0.3836(3)
C18 C 0.4645(5) 0.3028(4) 0.3120(3)
O5 O 0.0409(4) 0.1062(3) -0.5573(2)
O6 O 0.1396(4) 0.2222(3) -0.6166(2)
O7 O -0.2012(4) 0.4684(3) -0.6299(3)
O8 O -0.3194(4) 0.5374(3) -0.5121(2)
N4 N 0.0462(3) 0.2538(3) -0.3579(2)
N5 N 0.0638(4) 0.1995(4) -0.5622(3)
N6 N -0.2325(4) 0.4788(3) -0.5506(3)
C19 C -0.0300(4) 0.2982(3) -0.4076(3)
C20 C -0.0094(4) 0.2887(3) -0.5011(3)
C21 C -0.0700(4) 0.3496(4) -0.5462(3)
C22 C -0.1668(5) 0.4154(3) -0.5026(3)
C23 C -0.2035(4) 0.4191(3) -0.4160(3)
C24 C -0.1386(4) 0.3618(3) -0.3707(3)
C25 C -0.0074(4) 0.2208(3) -0.2802(3)
C26 C 0.1920(4) 0.2403(3) -0.3763(3)
C27 C 0.2288(5) 0.1211(4) -0.3957(3)
C28 C 0.3749(6) 0.1162(5) -0.4243(4)
C29 C 0.4738(6) 0.2016(7) -0.3526(5)
C30 C 0.4316(5) 0.3184(5) -0.3281(4)
C31 C 0.2859(4) 0.3234(4) -0.2988(3)
C32 C -0.1383(5) 0.1420(3) -0.3091(3)
C33 C -0.1734(6) 0.0906(4) -0.2355(4)
C34 C -0.1850(6) 0.1824(5) -0.1431(4)
C35 C -0.0562(6) 0.2638(5) -0.1151(3)
C36 C -0.0186(5) 0.3148(4) -0.1884(3)
H1 H 0.4798(5) 0.3195(4) -0.1193(3)
H2 H 0.7521(5) 0.4658(4) 0.1172(3)
H3 H 0.6154(4) 0.3664(3) 0.2004(3)
H4 H 0.3326(4) 0.1669(3) 0.2368(2)
H5 H 0.2100(4) 0.2546(3) 0.0634(3)
H6 H 0.1817(4) 0.0638(3) 0.0676(3)
H7 H 0.1485(4) 0.1167(3) 0.1854(3)
H8 H -0.0665(5) 0.0581(4) 0.0930(3)
H9 H -0.0145(5) 0.1443(4) 0.0278(3)
H10 H -0.0708(5) 0.2193(4) 0.2296(3)
H11 H -0.1678(5) 0.2385(4) 0.1403(3)
H12 H 0.0132(4) 0.3643(4) 0.1165(3)
H13 H -0.0203(4) 0.4094(4) 0.2344(3)
H14 H 0.1764(4) 0.3267(3) 0.2689(3)
H15 H 0.2270(4) 0.4182(3) 0.2081(3)
H16 H 0.4936(5) 0.0629(4) 0.1262(3)
H17 H 0.6216(5) 0.1768(4) 0.1735(3)
H18 H 0.6547(5) 0.0331(4) 0.2393(3)
H19 H 0.4836(5) 0.0270(4) 0.2697(3)
H20 H 0.7012(5) 0.2234(4) 0.3460(3)
H21 H 0.6279(5) 0.1354(4) 0.4042(3)
H22 H 0.4080(5) 0.2005(4) 0.3937(3)
H23 H 0.5317(5) 0.3156(4) 0.4478(3)
H24 H 0.3815(5) 0.3532(4) 0.3345(3)
H25 H 0.5529(5) 0.3557(4) 0.3042(3)
H26 H -0.0412(4) 0.3459(4) -0.6143(3)
H27 H -0.2847(4) 0.4672(3) -0.3843(3)
H28 H -0.1706(4) 0.3651(3) -0.3034(3)
H29 H 0.0727(4) 0.1773(3) -0.2641(3)
H30 H 0.2071(4) 0.2581(3) -0.4394(3)
H31 H 0.1615(5) 0.0629(4) -0.4505(3)
H32 H 0.2188(5) 0.0988(4) -0.3343(3)
H33 H 0.4026(6) 0.0330(5) -0.4339(4)
H34 H 0.3822(6) 0.1326(5) -0.4885(4)
H35 H 0.5741(6) 0.2009(7) -0.3794(5)
H36 H 0.4762(6) 0.1788(7) -0.2912(5)
H37 H 0.4986(5) 0.3747(5) -0.2721(4)
H38 H 0.4408(5) 0.3450(5) -0.3875(4)
H39 H 0.2766(4) 0.3013(4) -0.2373(3)
H40 H 0.2582(4) 0.4074(4) -0.2853(3)
H41 H -0.2197(5) 0.1887(3) -0.3183(3)
H42 H -0.1256(5) 0.0759(3) -0.3732(3)
H43 H -0.2695(6) 0.0379(4) -0.2552(4)
H44 H -0.0946(6) 0.0401(4) -0.2291(4)
H45 H -0.2036(6) 0.1439(5) -0.0911(4)
H46 H -0.2691(6) 0.2286(5) -0.1483(4)
H47 H -0.0707(6) 0.3304(5) -0.0517(3)
H48 H 0.0262(6) 0.2188(5) -0.1046(3)
H49 H -0.0970(5) 0.3652(4) -0.1957(3)
H50 H 0.0775(5) 0.3674(4) -0.1685(3)
#END
