
#######################################################################
#
#                 Cambridge Crystallographic Data Centre
#                                CCDC
#
#######################################################################
#
# If this CIF has been generated from an entry in the Cambridge
# Structural Database, then it will include bibliographic, chemical,
# crystal, experimental, refinement or atomic coordinate data resulting
# from the CCDC's data processing and validation procedures.
#
#######################################################################

data_CSD_CIF_TEBCAE
_audit_creation_date 1991-11-25
_audit_creation_method CSD-ConQuest-V1
_database_code_CSD TEBCAE
_chemical_formula_sum 'C12 H11 N3 O6'
_chemical_formula_moiety
;
C12 H11 N3 O6
;
_journal_coeditor_code "IUCr CR0315"
_journal_coden_Cambridge 591
_journal_volume 47
_journal_year 1991
_journal_page_first 2159
_journal_name_full 'Acta Crystallogr.,Sect.C:Cryst.Struct.Commun. '
loop_
_publ_author_name
"H.L.Ammon"
"L.A.Paquette"
_chemical_name_systematic
;
1,5,9-Trinitro-bishomopentaprismane
;
_chemical_name_common
;
2,3,8-Trinitro-hexacyclo(5.4.1.0$2,6!.0$3,10!.0$4,8!.0$9,12!)dodecane
;
_cell_volume   1198.224
_exptl_crystal_density_diffrn 1.625
_diffrn_ambient_temperature ?
_diffrn_special_details
;
The study was carried out at room temperature,in the range 283-303K

;
#These two values have been output from a single CSD field.
_refine_ls_R_factor_gt 0.061
_refine_ls_wR_factor_gt 0.061
_symmetry_cell_setting orthorhombic
_symmetry_space_group_name_H-M 'P n a 21'
_symmetry_Int_Tables_number 33
loop_
_symmetry_equiv_pos_site_id
_symmetry_equiv_pos_as_xyz
1 x,y,z
2 1/2-x,1/2+y,1/2+z
3 1/2+x,1/2-y,z
4 -x,-y,1/2+z
_cell_length_a 11.467(1)
_cell_length_b 8.756(1)
_cell_length_c 11.9339(8)
_cell_angle_alpha 90
_cell_angle_beta 90
_cell_angle_gamma 90
_cell_formula_units_Z 4
loop_
_atom_type_symbol
_atom_type_radius_bond
C 0.68
H 0.23
N 0.68
O 0.68
loop_
_atom_site_label
_atom_site_type_symbol
_atom_site_fract_x
_atom_site_fract_y
_atom_site_fract_z
O1 O 0.1854(7) 0.162(1) 1.06170
O2 O 0.0911(7) 0.1643(7) 0.9101(8)
O3 O -0.0233(5) 0.419(1) 1.0497(8)
O4 O -0.0733(5) 0.470(1) 0.8820(9)
O5 O 0.5183(5) 0.6159(6) 0.76870
O6 O 0.4644(4) 0.4064(6) 0.6940(6)
N1 N 0.1608(4) 0.2197(6) 0.9747(6)
N2 N 0.0010(5) 0.4618(7) 0.9559(7)
N3 N 0.4523(4) 0.5083(6) 0.7600(6)
C1 C 0.2154(4) 0.3696(6) 0.9439(6)
C2 C 0.2724(4) 0.3646(5) 0.8269(6)
C3 C 0.1758(5) 0.4128(7) 0.7460(6)
C4 C 0.1450(5) 0.5585(7) 0.8096(7)
C5 C 0.1257(4) 0.5050(6) 0.9310(6)
C6 C 0.1743(6) 0.6243(7) 1.0154(7)
C7 C 0.2257(6) 0.526(1) 1.1100(7)
C8 C 0.3021(4) 0.4310(7) 1.0318(6)
C9 C 0.3488(4) 0.5074(5) 0.8356(6)
C10 C 0.2616(5) 0.6417(6) 0.8239(7)
C11 C 0.2784(6) 0.6818(7) 0.9490(7)
C12 C 0.3671(5) 0.5488(8) 0.9615(6)
H1 H 0.305(5) 0.294(7) 0.805(5)
H2 H 0.097(5) 0.350(7) 0.727(6)
H3 H 0.204(5) 0.424(7) 0.673(6)
H4 H 0.075(8) 0.66(1) 0.783(9)
H5 H 0.139(8) 0.70(1) 1.04(1)
H6 H 0.159(5) 0.479(7) 1.159(5)
H7 H 0.271(8) 0.60(1) 1.163(9)
H8 H 0.356(4) 0.337(7) 1.067(5)
H9 H 0.290(4) 0.730(6) 0.766(4)
H10 H 0.327(6) 0.762(8) 0.969(6)
H11 H 0.444(5) 0.591(6) 0.997(6)
#END
