
#######################################################################
#
#                 Cambridge Crystallographic Data Centre
#                                CCDC
#
#######################################################################
#
# If this CIF has been generated from an entry in the Cambridge
# Structural Database, then it will include bibliographic, chemical,
# crystal, experimental, refinement or atomic coordinate data resulting
# from the CCDC's data processing and validation procedures.
#
#######################################################################

data_CSD_CIF_TEBHAJ
_audit_creation_date 1991-11-25
_audit_creation_method CSD-ConQuest-V1
_database_code_CSD TEBHAJ
_chemical_formula_sum 'C10 H6 N2 O4'
_chemical_formula_moiety
;
C10 H6 N2 O4
;
_journal_coeditor_code "IUCr CR0316"
_journal_coden_Cambridge 591
_journal_volume 47
_journal_year 1991
_journal_page_first 2252
_journal_name_full 'Acta Crystallogr.,Sect.C:Cryst.Struct.Commun. '
loop_
_publ_author_name
"H.L.Ammon"
_chemical_name_systematic
;
1,3-Dinitronaphthalene
;
_cell_volume    474.122
_exptl_crystal_colour 'orange-brown'
_exptl_crystal_density_diffrn 1.528
_diffrn_ambient_temperature ?
_diffrn_special_details
;
The study was carried out at room temperature,in the range 283-303K

;
#These two values have been output from a single CSD field.
_refine_ls_R_factor_gt 0.064
_refine_ls_wR_factor_gt 0.064
_symmetry_cell_setting triclinic
_symmetry_space_group_name_H-M 'P -1'
_symmetry_Int_Tables_number 2
loop_
_symmetry_equiv_pos_site_id
_symmetry_equiv_pos_as_xyz
1 x,y,z
2 -x,-y,-z
_cell_length_a 7.5552(8)
_cell_length_b 7.763(1)
_cell_length_c 9.073(1)
_cell_angle_alpha 110.742(9)
_cell_angle_beta 99.570(9)
_cell_angle_gamma 100.309(9)
_cell_formula_units_Z 2
loop_
_atom_type_symbol
_atom_type_radius_bond
C 0.68
H 0.23
N 0.68
O 0.68
loop_
_atom_site_label
_atom_site_type_symbol
_atom_site_fract_x
_atom_site_fract_y
_atom_site_fract_z
O1 O 0.2694(6) -0.3127(5) 0.2059(4)
O2 O 0.2778(6) -0.0770(5) 0.4188(4)
O3 O 0.6779(4) 0.4995(4) 0.4419(3)
O4 O 0.6418(5) 0.5701(4) 0.2343(4)
N1 N 0.2788(5) -0.1446(5) 0.2785(4)
N2 N 0.6059(4) 0.4647(4) 0.3022(3)
C1 C 0.3106(4) -0.0181(4) 0.1931(4)
C2 C 0.4304(5) 0.1555(5) 0.2828(4)
C3 C 0.4699(4) 0.2791(4) 0.2062(3)
C4 C 0.2640(4) 0.0543(4) -0.0463(3)
C5 C 0.3912(4) 0.2343(4) 0.0475(4)
C6 C 0.1809(5) 0.0048(5) -0.2130(4)
C7 C 0.0585(5) -0.1681(5) -0.3032(4)
C8 C 0.0144(5) -0.2977(5) -0.2326(4)
C9 C 0.2212(4) -0.0790(4) 0.0250(3)
C10 C 0.0917(5) -0.2568(5) -0.0731(4)
H1 H 0.483(5) 0.178(5) 0.371(5)
H2 H 0.424(5) 0.318(5) -0.006(4)
H3 H 0.207(4) 0.099(4) -0.260(3)
H4 H -0.006(5) -0.197(5) -0.411(5)
H5 H -0.067(5) -0.401(5) -0.300(4)
H6 H 0.062(5) -0.348(5) -0.038(4)
#END
