
#######################################################################
#
#                 Cambridge Crystallographic Data Centre
#                                CCDC
#
#######################################################################
#
# If this CIF has been generated from an entry in the Cambridge
# Structural Database, then it will include bibliographic, chemical,
# crystal, experimental, refinement or atomic coordinate data resulting
# from the CCDC's data processing and validation procedures.
#
#######################################################################

data_CSD_CIF_TEBLIW
_audit_creation_date 2006-03-28
_audit_creation_method CSD-ConQuest-V1
_database_code_CSD TEBLIW
_database_code_depnum_ccdc_archive 'CCDC 264903'
_chemical_formula_sum 'C15 H22 N2 O11'
_chemical_formula_moiety
;
C15 H22 N2 O11
;
_journal_coden_Cambridge 1220
_journal_volume 12
_journal_year 2006
_journal_page_first 499
_journal_name_full 'Chem.-Eur.J. '
loop_
_publ_author_name
"J.Brand"
"T.Huhn"
"U.Groth"
"J.C.Jochims"
_chemical_name_systematic
;
N-Methoxy-N-nitroso-2,3,4,6-tetra-O-acetyl-\b-D-glucopyranosylamine
;
_chemical_melting_point 405.15
_cell_volume   1986.447
_exptl_crystal_colour 'pale-yellow'
_exptl_crystal_density_diffrn 1.359
_exptl_special_details
;
Melting point range 405.15-407.15K

;
_exptl_crystal_description 'needle'
_exptl_crystal_preparation 'ethanol'
_diffrn_ambient_temperature 153
#These two values have been output from a single CSD field.
_refine_ls_R_factor_gt 0.0479
_refine_ls_wR_factor_gt 0.0479
_symmetry_cell_setting orthorhombic
_symmetry_space_group_name_H-M 'P 21 21 21'
_symmetry_Int_Tables_number 19
loop_
_symmetry_equiv_pos_site_id
_symmetry_equiv_pos_as_xyz
1 x,y,z
2 1/2-x,-y,1/2+z
3 1/2+x,1/2-y,-z
4 -x,1/2+y,1/2-z
_cell_length_a 5.7229(14)
_cell_length_b 17.650(3)
_cell_length_c 19.666(3)
_cell_angle_alpha 90
_cell_angle_beta 90
_cell_angle_gamma 90
_cell_formula_units_Z 4
loop_
_atom_type_symbol
_atom_type_radius_bond
C 0.68
H 0.23
N 0.68
O 0.68
loop_
_atom_site_label
_atom_site_type_symbol
_atom_site_fract_x
_atom_site_fract_y
_atom_site_fract_z
O1 O 0.7332(5) 0.35920(17) 0.09440(17)
O2 O 0.2954(4) 0.33376(12) 0.09635(11)
O3 O 0.2164(4) 0.17557(11) 0.12788(10)
O4 O 0.0035(4) 0.07625(12) 0.27946(11)
O5 O -0.3844(4) 0.07739(14) 0.26284(14)
O6 O 0.0225(4) 0.22705(13) 0.32271(10)
O7 O 0.3121(5) 0.22524(17) 0.39921(13)
O8 O 0.4289(4) 0.30563(12) 0.25582(11)
O9 O 0.1647(5) 0.39435(14) 0.28435(14)
O10 O 0.1502(4) 0.03152(13) 0.07290(11)
O11 O -0.1567(5) -0.03129(17) 0.03111(15)
N1 N 0.6861(6) 0.29778(18) 0.11920(16)
N2 N 0.4571(5) 0.27882(15) 0.11421(14)
C1 C 0.3745(6) 0.22342(18) 0.16242(16)
H1 H 0.50710 0.19330 0.17860
C2 C 0.2530(5) 0.26026(16) 0.22324(15)
H2 H 0.12010 0.29130 0.20870
C3 C 0.1752(5) 0.19717(17) 0.27103(15)
H3 H 0.31170 0.17320 0.29210
C4 C 0.0330(6) 0.13848(17) 0.23281(16)
H4 H -0.11980 0.15960 0.22060
C5 C 0.1578(6) 0.11072(17) 0.16929(16)
H5 H 0.30070 0.08370 0.18210
C6 C 0.0043(6) 0.05971(19) 0.12694(17)
H6 H -0.05530 0.01820 0.15420
H7 H -0.12690 0.08780 0.10860
C7 C 0.0468(7) -0.0153(2) 0.02804(18)
C8 C 0.2168(8) -0.0417(2) -0.02410(19)
H8 H 0.37010 -0.01920 -0.01510
H9 H 0.16300 -0.02630 -0.06940
H10 H 0.22910 -0.09700 -0.02220
C9 C -0.2165(6) 0.05349(18) 0.29297(16)
C10 C -0.2224(7) -0.0023(2) 0.35005(18)
H11 H -0.06290 -0.01170 0.36610
H12 H -0.29160 -0.04980 0.33410
H13 H -0.31650 0.01820 0.38740
C11 C 0.1110(7) 0.2367(2) 0.38551(18)
C12 C -0.0691(9) 0.2635(3) 0.4334(2)
H14 H -0.21550 0.26850 0.41000
H15 H -0.02360 0.31180 0.45160
H16 H -0.08550 0.22760 0.46980
C13 C 0.3606(7) 0.37186(18) 0.28519(17)
C14 C 0.5637(8) 0.4106(2) 0.3170(2)
H17 H 0.70120 0.38010 0.31110
H18 H 0.53430 0.41760 0.36470
H19 H 0.58660 0.45900 0.29580
C15 C 0.2482(8) 0.3291(2) 0.02467(18)
H20 H 0.13800 0.36770 0.01220
H21 H 0.18430 0.28010 0.01420
H22 H 0.39070 0.33630 -0.00030
#END
