
#######################################################################
#
#                 Cambridge Crystallographic Data Centre
#                                CCDC
#
#######################################################################
#
# If this CIF has been generated from an entry in the Cambridge
# Structural Database, then it will include bibliographic, chemical,
# crystal, experimental, refinement or atomic coordinate data resulting
# from the CCDC's data processing and validation procedures.
#
#######################################################################

data_CSD_CIF_TEBLES
_audit_creation_date 2006-03-28
_audit_creation_method CSD-ConQuest-V1
_database_code_CSD TEBLES
_database_code_depnum_ccdc_archive 'CCDC 264902'
_chemical_formula_sum 'C35 H30 N2 O11'
_chemical_formula_moiety
;
C35 H30 N2 O11
;
_journal_coden_Cambridge 1220
_journal_volume 12
_journal_year 2006
_journal_page_first 499
_journal_name_full 'Chem.-Eur.J. '
loop_
_publ_author_name
"J.Brand"
"T.Huhn"
"U.Groth"
"J.C.Jochims"
_chemical_name_systematic
;
(Z)-1-Methoxy-2-(2,3,4,6-tetra-O-benzoyl-\b-D-glucopyranosyl)diazene-2-oxide
;
_chemical_melting_point 467.15
_cell_volume   3358.919
_exptl_crystal_colour 'colorless'
_exptl_crystal_density_diffrn 1.294
_exptl_special_details
;
Melting point range 467.15-468.15K

;
_exptl_crystal_description 'needle'
_exptl_crystal_preparation 'ethanol'
_diffrn_ambient_temperature 183
#These two values have been output from a single CSD field.
_refine_ls_R_factor_gt 0.0601
_refine_ls_wR_factor_gt 0.0601
_symmetry_cell_setting orthorhombic
_symmetry_space_group_name_H-M 'P 21 21 21'
_symmetry_Int_Tables_number 19
loop_
_symmetry_equiv_pos_site_id
_symmetry_equiv_pos_as_xyz
1 x,y,z
2 1/2-x,-y,1/2+z
3 1/2+x,1/2-y,-z
4 -x,1/2+y,1/2-z
_cell_length_a 9.371(3)
_cell_length_b 16.733(3)
_cell_length_c 21.421(4)
_cell_angle_alpha 90
_cell_angle_beta 90
_cell_angle_gamma 90
_cell_formula_units_Z 4
loop_
_atom_type_symbol
_atom_type_radius_bond
C 0.68
H 0.23
N 0.68
O 0.68
loop_
_atom_site_label
_atom_site_type_symbol
_atom_site_fract_x
_atom_site_fract_y
_atom_site_fract_z
O1 O 0.6848(5) 0.8518(2) 0.37135(17)
O2 O 0.5449(5) 0.7827(3) 0.4509(2)
O3 O 0.6994(4) 0.6437(2) 0.48105(17)
O4 O 0.7524(4) 0.8199(2) 0.57814(17)
O5 O 0.5306(5) 0.8698(3) 0.5910(2)
O6 O 0.6831(4) 0.7032(2) 0.66671(17)
O7 O 0.8728(5) 0.6613(3) 0.72245(18)
O8 O 0.7777(4) 0.5378(2) 0.62646(17)
O9 O 0.5846(5) 0.5379(3) 0.6896(2)
O10 O 0.5663(4) 0.4962(2) 0.50365(19)
O11 O 0.5856(5) 0.3668(3) 0.4766(2)
N1 N 0.7636(5) 0.8063(3) 0.4113(2)
N2 N 0.6788(5) 0.7736(3) 0.4498(2)
C1 C 0.7460(6) 0.7211(3) 0.4963(3)
H1 H 0.85020 0.72460 0.49330
C2 C 0.6965(7) 0.7429(3) 0.5618(2)
H2 H 0.59200 0.74440 0.56300
C3 C 0.7508(6) 0.6820(3) 0.6086(2)
H3 H 0.85470 0.68620 0.61260
C4 C 0.7099(6) 0.5986(3) 0.5877(2)
H4 H 0.60600 0.59240 0.58950
C5 C 0.7614(6) 0.5837(3) 0.5214(3)
H5 H 0.86560 0.58840 0.52020
C6 C 0.7188(7) 0.5043(4) 0.4950(3)
H6 H 0.74250 0.50160 0.45100
H7 H 0.76860 0.46150 0.51650
C7 C 0.6583(8) 0.8783(4) 0.5950(3)
C8 C 0.7326(7) 0.9491(3) 0.6196(3)
C9 C 0.8792(7) 0.9505(4) 0.6283(3)
H8 H 0.93390 0.90630 0.61740
C10 C 0.9443(8) 1.0176(4) 0.6531(3)
H9 H 1.04230 1.01820 0.66000
C11 C 0.8617(9) 1.0845(4) 0.6678(3)
H10 H 0.90510 1.13020 0.68360
C12 C 0.7176(9) 1.0830(4) 0.6590(3)
H11 H 0.66340 1.12760 0.66950
C13 C 0.6513(7) 1.0166(4) 0.6350(3)
H12 H 0.55300 1.01640 0.62900
C14 C 0.7564(7) 0.6898(4) 0.7210(3)
C15 C 0.6717(6) 0.7151(3) 0.7752(3)
C16 C 0.5542(8) 0.7642(4) 0.7705(3)
H13 H 0.52600 0.78290 0.73150
C17 C 0.4772(9) 0.7861(4) 0.8232(3)
H14 H 0.39860 0.81970 0.81980
C18 C 0.5193(8) 0.7573(4) 0.8808(3)
H15 H 0.46880 0.77200 0.91640
C19 C 0.6345(8) 0.7073(4) 0.8862(3)
H16 H 0.66050 0.68770 0.92520
C20 C 0.7118(7) 0.6860(4) 0.8341(3)
H17 H 0.79040 0.65240 0.83800
C21 C 0.7024(7) 0.5126(3) 0.6770(3)
C22 C 0.7772(7) 0.4519(3) 0.7143(3)
C23 C 0.7120(7) 0.4241(4) 0.7688(3)
H18 H 0.62700 0.44720 0.78210
C24 C 0.7722(9) 0.3630(4) 0.8031(3)
H19 H 0.72890 0.34570 0.83980
C25 C 0.8965(9) 0.3276(4) 0.7829(3)
H20 H 0.93600 0.28540 0.80530
C26 C 0.9612(8) 0.3542(4) 0.7302(3)
H21 H 1.04510 0.33000 0.71680
C27 C 0.9041(7) 0.4174(4) 0.6957(3)
H22 H 0.95130 0.43610 0.66040
C28 C 0.5118(7) 0.4221(4) 0.4940(3)
C29 C 0.3580(7) 0.4175(4) 0.5082(3)
C30 C 0.2830(7) 0.4830(4) 0.5311(3)
H23 H 0.32820 0.53210 0.53570
C31 C 0.1399(8) 0.4745(4) 0.5468(3)
H24 H 0.08940 0.51780 0.56250
C32 C 0.0724(7) 0.4014(4) 0.5392(3)
H25 H -0.02360 0.39600 0.54930
C33 C 0.1471(8) 0.3370(4) 0.5167(3)
H26 H 0.10240 0.28770 0.51240
C34 C 0.2889(7) 0.3457(4) 0.5007(3)
H27 H 0.33850 0.30220 0.48450
C35 C 0.7782(9) 0.8856(4) 0.3251(3)
H28 H 0.72340 0.91720 0.29640
H29 H 0.82530 0.84340 0.30280
H30 H 0.84810 0.91870 0.34520
#END
