
#######################################################################
#
#                 Cambridge Crystallographic Data Centre
#                                CCDC
#
#######################################################################
#
# If this CIF has been generated from an entry in the Cambridge
# Structural Database, then it will include bibliographic, chemical,
# crystal, experimental, refinement or atomic coordinate data resulting
# from the CCDC's data processing and validation procedures.
#
#######################################################################

data_CSD_CIF_TEBMAO
_audit_creation_date 1996-12-16
_audit_creation_method CSD-ConQuest-V1
_database_code_CSD TEBMAO
_database_code_depnum_ccdc_journal 182/104
_chemical_formula_sum 'C20 H19 N3 O4'
_chemical_formula_moiety
;
C20 H19 N3 O4
;
_journal_coden_Cambridge 182
_journal_year 1996
_journal_page_first 1557
_journal_name_full 'Chem.Commun. '
loop_
_publ_author_name
"Feng Pan"
"Man Shing Wong"
"V.Gramlich"
"C.Bosshard"
"P.Gunter"
_chemical_name_systematic
;
4-(2-(1-Methyl-4-pyridinium)ethenyl)phenol 2-amino-5-nitrophenol
;
_chemical_melting_point 478.15
_cell_volume   1728.307
_exptl_crystal_colour 'red'
_exptl_crystal_density_diffrn 1.404
_exptl_special_details
;
Melts with decomposition.

;
_diffrn_ambient_temperature ?
_diffrn_special_details
;
The study was carried out at room temperature,in the range 283-303K

;
#These two values have been output from a single CSD field.
_refine_ls_R_factor_gt 0.0355
_refine_ls_wR_factor_gt 0.0355
_symmetry_cell_setting monoclinic
_symmetry_space_group_name_H-M 'P 21/c'
_symmetry_Int_Tables_number 14
loop_
_symmetry_equiv_pos_site_id
_symmetry_equiv_pos_as_xyz
1 x,y,z
2 -x,1/2+y,1/2-z
3 -x,-y,-z
4 x,-1/2-y,-1/2+z
_cell_length_a 9.087(8)
_cell_length_b 10.208(9)
_cell_length_c 19.14(3)
_cell_angle_alpha 90
_cell_angle_beta 103.23(8)
_cell_angle_gamma 90
_cell_formula_units_Z 4
loop_
_atom_type_symbol
_atom_type_radius_bond
C 0.68
H 0.23
N 0.68
O 0.68
loop_
_atom_site_label
_atom_site_type_symbol
_atom_site_fract_x
_atom_site_fract_y
_atom_site_fract_z
N1 N 0.5984(4) 0.1984(4) 0.0553(2)
O1 O -0.2648(3) 0.9323(3) -0.0723(2)
C1 C 0.1819(5) 0.5408(5) -0.0360(3)
C2 C -0.1550(5) 0.8429(4) -0.0652(3)
C3 C 0.0695(5) 0.6468(4) -0.0447(3)
C4 C 0.2753(5) 0.5050(5) 0.0238(3)
C5 C 0.5812(5) 0.2780(5) 0.1088(3)
C6 C -0.1304(5) 0.7692(4) -0.1228(3)
C7 C -0.0208(5) 0.6728(5) -0.1127(3)
C8 C 0.3861(5) 0.3974(4) 0.0317(3)
C9 C 0.5144(5) 0.2187(4) -0.0111(3)
C10 C 0.7066(4) 0.0880(4) 0.0720(3)
C11 C 0.4784(5) 0.3756(5) 0.0986(3)
C12 C 0.0477(5) 0.7235(4) 0.0123(3)
C13 C 0.4064(5) 0.3182(4) -0.0250(3)
C14 C -0.0621(5) 0.8192(4) 0.0024(3)
O2 O -0.3860(3) 1.0360(3) -0.1873(2)
C15 C -0.3044(5) 1.1388(5) -0.1971(3)
C16 C -0.1511(5) 1.1353(4) -0.1933(3)
C17 C -0.3814(5) 1.2626(5) -0.2117(2)
C18 C -0.0741(4) 1.2502(5) -0.2037(2)
C19 C -0.3002(5) 1.3730(4) -0.2240(3)
N2 N -0.5301(5) 1.2674(4) -0.2142(2)
N3 N 0.0859(4) 1.2465(4) -0.1954(2)
C20 C -0.1479(5) 1.3687(4) -0.2195(3)
O3 O 0.1558(3) 1.3502(3) -0.1983(2)
O4 O 0.1534(3) 1.1404(3) -0.1853(2)
H1 H 0.18930 0.49250 -0.07810
H2 H 0.26840 0.55440 0.06560
H3 H 0.64230 0.26270 0.15610
H4 H -0.18950 0.78750 -0.17010
H5 H -0.00560 0.62250 -0.15290
H6 H 0.53080 0.16460 -0.04960
H7 H 0.70800 0.04050 0.02890
H8 H 0.80600 0.12090 0.09260
H9 H 0.67520 0.03080 0.10560
H10 H 0.47100 0.43320 0.13730
H11 H 0.11150 0.70900 0.05910
H12 H 0.34530 0.33160 -0.07240
H13 H -0.07670 0.87040 0.04230
H14 H -0.31410 0.96700 -0.13280
H15 H -0.09700 1.05430 -0.18180
H16 H -0.35230 1.45530 -0.23490
H17 H -0.57900 1.19360 -0.20740
H18 H -0.58140 1.34350 -0.22320
H19 H -0.09320 1.44490 -0.22820
#END
