
#######################################################################
#
#                 Cambridge Crystallographic Data Centre
#                                CCDC
#
#######################################################################
#
# If this CIF has been generated from an entry in the Cambridge
# Structural Database, then it will include bibliographic, chemical,
# crystal, experimental, refinement or atomic coordinate data resulting
# from the CCDC's data processing and validation procedures.
#
#######################################################################

data_CSD_CIF_TEBXON
_audit_creation_date 1996-12-16
_audit_creation_method CSD-ConQuest-V1
_database_code_CSD TEBXON
_chemical_formula_sum 'C26 H31 N3 O8'
_chemical_formula_moiety
;
C26 H31 N3 O8
;
_journal_coden_Cambridge 35
_journal_volume 61
_journal_year 1996
_journal_page_first 2677
_journal_name_full 'J.Org.Chem. '
loop_
_publ_author_name
"A.G.M.Barrett"
"M.A.Seefeld"
"A.J.P.White"
"D.J.Williams"
_chemical_name_systematic
;
(-)-(1R,2S)-1-Cyclohexyl-1-(3,5-dinitrobenzamido)-2-(2(R)-methoxyphenylacetoxy
)butane
;
_chemical_melting_point 455.15
_cell_volume   2588.265
_exptl_crystal_colour 'colorless'
_exptl_crystal_density_diffrn 1.318
_exptl_special_details
;
Melting point range 455.15-457.15K

;
_diffrn_ambient_temperature 173
#These two values have been output from a single CSD field.
_refine_ls_R_factor_gt 0.0354
_refine_ls_wR_factor_gt 0.0354
_symmetry_cell_setting monoclinic
_symmetry_space_group_name_H-M 'P 21'
_symmetry_Int_Tables_number 4
loop_
_symmetry_equiv_pos_site_id
_symmetry_equiv_pos_as_xyz
1 x,y,z
2 -x,1/2+y,-z
_cell_length_a 16.2144(9)
_cell_length_b 9.5497(9)
_cell_length_c 18.3402(10)
_cell_angle_alpha 90
_cell_angle_beta 114.299(6)
_cell_angle_gamma 90
_cell_formula_units_Z 4
loop_
_atom_type_symbol
_atom_type_radius_bond
C 0.68
H 0.23
N 0.68
O 0.68
loop_
_atom_site_label
_atom_site_type_symbol
_atom_site_fract_x
_atom_site_fract_y
_atom_site_fract_z
C1 C 0.4996(2) 0.5708(3) 0.7799(2)
O1 O 0.5211(1) 0.6907(2) 0.8059(1)
N1 N 0.5519(2) 0.4843(3) 0.7602(1)
C2 C 0.6416(2) 0.5261(3) 0.7655(2)
C3 C 0.7110(2) 0.4142(3) 0.8113(2)
O2 O 0.7976(1) 0.4670(2) 0.8162(1)
C4 C 0.8493(2) 0.3808(3) 0.7956(2)
O3 O 0.8306(2) 0.2622(2) 0.7745(2)
C5 C 0.9351(2) 0.4508(3) 0.7983(2)
O4 O 0.9614(1) 0.5704(2) 0.8481(1)
C6 C 1.0043(2) 0.5351(4) 0.9303(2)
C7 C 0.3767(2) 0.5442(3) 0.8271(2)
C8 C 0.2929(2) 0.4952(3) 0.8173(2)
C9 C 0.2367(2) 0.4232(3) 0.7500(2)
C10 C 0.2700(2) 0.3963(3) 0.6935(2)
C11 C 0.3552(2) 0.4367(3) 0.7017(2)
C12 C 0.4088(2) 0.5136(3) 0.7691(2)
N2 N 0.2609(2) 0.5246(3) 0.8803(2)
O5 O 0.3149(2) 0.5773(3) 0.9427(2)
O6 O 0.1830(2) 0.4923(3) 0.8671(2)
N3 N 0.2117(2) 0.3240(3) 0.6195(2)
O7 O 0.1348(2) 0.2949(3) 0.6100(2)
O8 O 0.2436(2) 0.2972(4) 0.5713(2)
C13 C 0.5792(2) 0.6856(3) 0.6437(2)
C14 C 0.5869(3) 0.7256(4) 0.5662(2)
C15 C 0.5602(2) 0.6039(5) 0.5079(2)
C16 C 0.6177(2) 0.4760(4) 0.5458(2)
C17 C 0.6129(2) 0.4362(3) 0.6247(2)
C18 C 0.6393(2) 0.5603(3) 0.6828(2)
C19 C 0.7190(2) 0.3876(4) 0.8956(2)
C20 C 0.7872(2) 0.2754(4) 0.9398(2)
C21 C 0.8758(1) 0.6159(2) 0.6807(1)
C22 C 0.8618(1) 0.6525(2) 0.6032(1)
C23 C 0.8922(1) 0.5651(2) 0.5588(1)
C24 C 0.9365(2) 0.4410(2) 0.5920(1)
C25 C 0.9505(1) 0.4043(2) 0.6695(1)
C26 C 0.9201(1) 0.4917(2) 0.7139(1)
C27 C 0.5231(2) 1.0713(3) 0.7511(2)
O9 O 0.5017(1) 1.1909(2) 0.7238(1)
N4 N 0.4668(2) 0.9819(3) 0.7631(1)
C28 C 0.3716(2) 1.0142(3) 0.7433(2)
C29 C 0.3140(2) 0.8983(3) 0.6893(2)
O10 O 0.2213(1) 0.9349(2) 0.6721(1)
C30 C 0.1660(2) 0.8348(3) 0.6777(2)
O11 O 0.1887(2) 0.7156(3) 0.6971(2)
C31 C 0.0731(2) 0.8906(3) 0.6602(2)
O12 O 0.0515(1) 0.9922(2) 0.5986(1)
C32 C -0.0417(2) 1.0284(4) 0.5633(2)
C33 C 0.6540(2) 1.0458(3) 0.7165(2)
C34 C 0.7389(2) 0.9930(3) 0.7312(2)
C35 C 0.7891(2) 0.9165(3) 0.7982(2)
C36 C 0.7497(2) 0.8905(3) 0.8510(2)
C37 C 0.6641(2) 0.9367(3) 0.8381(2)
C38 C 0.6163(2) 1.0162(3) 0.7700(2)
N5 N 0.7763(2) 1.0203(3) 0.6716(2)
O13 O 0.7307(2) 1.0899(4) 0.6129(2)
O14 O 0.8496(2) 0.9696(3) 0.6840(2)
N6 N 0.8014(2) 0.8105(3) 0.9238(2)
O15 O 0.8807(2) 0.7879(3) 0.9404(2)
O16 O 0.7616(2) 0.7708(4) 0.9643(2)
C39 C 0.4164(2) 1.1574(3) 0.8704(2)
C40 C 0.3969(2) 1.1880(4) 0.9438(2)
C41 C 0.4072(2) 1.0567(4) 0.9926(2)
C42 C 0.3464(2) 0.9398(4) 0.9430(2)
C43 C 0.3648(2) 0.9088(3) 0.8694(2)
C44 C 0.3551(2) 1.0403(3) 0.8187(2)
C45 C 0.3228(2) 0.8865(4) 0.6097(2)
C46 C 0.2703(2) 0.7646(4) 0.5585(2)
C47 C 0.1004(1) 1.0847(2) 0.7608(1)
C48 C 0.1045(1) 1.1347(2) 0.8334(1)
C49 C 0.0827(1) 1.0470(2) 0.8833(1)
C50 C 0.0568(1) 0.9094(2) 0.8607(1)
C51 C 0.0527(1) 0.8594(2) 0.7881(1)
C52 C 0.0745(1) 0.9471(2) 0.7382(1)
H1 H 0.5301(23) 0.3983(44) 0.7431(21)
H2 H 0.6590(2) 0.6140(3) 0.7980(2)
H3 H 0.6959(2) 0.3247(3) 0.7803(2)
H4 H 0.9855(2) 0.3811(3) 0.8186(2)
H5 H 1.0212(2) 0.6209(4) 0.9624(2)
H6 H 1.0587(2) 0.4797(4) 0.9400(2)
H7 H 0.9627(2) 0.4802(4) 0.9454(2)
H8 H 0.4122(2) 0.5981(3) 0.8729(2)
H9 H 0.1780(2) 0.3936(3) 0.7431(2)
H10 H 0.3767(2) 0.4125(3) 0.6624(2)
H11 H 0.5973(2) 0.7661(3) 0.6810(2)
H12 H 0.5155(2) 0.6623(3) 0.6321(2)
H13 H 0.5471(3) 0.8067(4) 0.5415(2)
H14 H 0.6500(3) 0.7536(4) 0.5782(2)
H15 H 0.5683(2) 0.6305(5) 0.4591(2)
H16 H 0.4955(2) 0.5813(5) 0.4921(2)
H17 H 0.6814(2) 0.4955(4) 0.5556(2)
H18 H 0.5966(2) 0.3961(4) 0.5082(2)
H19 H 0.6543(2) 0.3568(3) 0.6493(2)
H20 H 0.5506(2) 0.4058(3) 0.6141(2)
H21 H 0.7023(2) 0.5874(3) 0.6916(2)
H22 H 0.7366(2) 0.4760(4) 0.9264(2)
H23 H 0.6590(2) 0.3598(4) 0.8929(2)
H24 H 0.7891(2) 0.2636(4) 0.9936(2)
H25 H 0.8472(2) 0.3031(4) 0.9440(2)
H26 H 0.7695(2) 0.1868(4) 0.9105(2)
H27 H 0.8550(1) 0.6756(2) 0.7111(1)
H28 H 0.8315(2) 0.7374(2) 0.5805(2)
H29 H 0.8826(2) 0.5902(3) 0.5058(1)
H30 H 0.9573(2) 0.3812(3) 0.5617(2)
H31 H 0.9808(2) 0.3195(2) 0.6922(2)
H32 H 0.4881(20) 0.8997(40) 0.7810(19)
H33 H 0.3567(2) 1.1029(3) 0.7115(2)
H34 H 0.3295(2) 0.8066(3) 0.7181(2)
H35 H 0.0285(2) 0.8121(3) 0.6410(2)
H36 H -0.0521(2) 1.0986(4) 0.5214(2)
H37 H -0.0594(2) 1.0669(4) 0.6043(2)
H38 H -0.0778(2) 0.9447(4) 0.5398(2)
H39 H 0.6222(2) 1.1014(3) 0.6704(2)
H40 H 0.8478(2) 0.8830(3) 0.8078(2)
H41 H 0.6383(2) 0.9147(3) 0.8748(2)
H42 H 0.4805(2) 1.1294(3) 0.8882(2)
H43 H 0.4066(2) 1.2436(3) 0.8379(2)
H44 H 0.4393(2) 1.2604(4) 0.9771(2)
H45 H 0.3346(2) 1.2246(4) 0.9263(2)
H46 H 0.3919(2) 1.0777(4) 1.0384(2)
H47 H 0.4710(2) 1.0253(4) 1.0141(2)
H48 H 0.2822(2) 0.9673(4) 0.9258(2)
H49 H 0.3571(2) 0.8542(4) 0.9760(2)
H50 H 0.3219(2) 0.8365(3) 0.8365(2)
H51 H 0.4269(2) 0.8711(3) 0.8867(2)
H52 H 0.2912(2) 1.0732(3) 0.8006(2)
H53 H 0.3010(2) 0.9745(4) 0.5793(2)
H54 H 0.3875(2) 0.8757(4) 0.6205(2)
H55 H 0.2787(2) 0.7628(4) 0.5085(2)
H56 H 0.2058(2) 0.7756(4) 0.5462(2)
H57 H 0.2924(2) 0.6767(4) 0.5876(2)
H58 H 0.1153(1) 1.1446(2) 0.7266(1)
H59 H 0.1222(2) 1.2287(2) 0.8488(2)
H60 H 0.0855(2) 1.0812(3) 0.9330(1)
H61 H 0.0419(2) 0.8495(3) 0.8949(1)
H62 H 0.0350(2) 0.7654(2) 0.7727(2)
#END
