
#######################################################################
#
#                 Cambridge Crystallographic Data Centre
#                                CCDC
#
#######################################################################
#
# If this CIF has been generated from an entry in the Cambridge
# Structural Database, then it will include bibliographic, chemical,
# crystal, experimental, refinement or atomic coordinate data resulting
# from the CCDC's data processing and validation procedures.
#
#######################################################################

data_CSD_CIF_TECCUC
_audit_creation_date 2017-08-10
_audit_creation_method CSD-ConQuest-V1
_database_code_CSD TECCUC
_database_code_depnum_ccdc_archive 'CCDC 1568136'
_chemical_formula_sum 'C22 H25 N3 O6'
_chemical_formula_moiety
;
C22 H25 N3 O6
;
_journal_coden_Cambridge 4
_journal_volume 139
_journal_year 2017
_journal_page_first 5998
_journal_name_full 'J.Am.Chem.Soc. '
loop_
_publ_author_name
"Xiaoshen Ma"
"Hester Dang"
"J.A.Rose"
"P.Rablen"
"S.B.Herzon"
_chemical_name_systematic
;
[4-isopropyl-1-(pyridin-4-yl)cyclohexyl]methyl 3,5-dinitrobenzoate
;
_cell_volume   6205.330
_exptl_crystal_colour 'colorless'
_exptl_crystal_density_diffrn 1.373
_exptl_crystal_description 'Needle'
_diffrn_ambient_temperature 93
#These two values have been output from a single CSD field.
_refine_ls_R_factor_gt 0.042
_refine_ls_wR_factor_gt 0.042
_symmetry_cell_setting monoclinic
_symmetry_space_group_name_H-M 'P 21/c'
_symmetry_Int_Tables_number 14
loop_
_symmetry_equiv_pos_site_id
_symmetry_equiv_pos_as_xyz
1 x,y,z
2 -x,1/2+y,1/2-z
3 -x,-y,-z
4 x,-1/2-y,-1/2+z
_cell_length_a 29.723(2)
_cell_length_b 5.8059(4)
_cell_length_c 38.396(3)
_cell_angle_alpha 90
_cell_angle_beta 110.525(2)
_cell_angle_gamma 90
_cell_formula_units_Z 12
loop_
_atom_type_symbol
_atom_type_radius_bond
C 0.68
H 0.23
N 0.68
O 0.68
loop_
_atom_site_label
_atom_site_type_symbol
_atom_site_fract_x
_atom_site_fract_y
_atom_site_fract_z
O1 O 0.43637(4) 0.8610(2) 0.33374(3)
O2 O 0.39997(5) 0.5310(2) 0.30839(3)
O3 O 0.32254(5) 0.5157(3) 0.17256(4)
O4 O 0.31494(5) 0.8359(3) 0.14189(3)
O5 O 0.45451(6) 1.3581(3) 0.19709(4)
O6 O 0.47214(5) 1.4313(2) 0.25568(4)
N1 N 0.45171(6) 1.3187(3) 0.22754(5)
N2 N 0.33219(6) 0.7198(3) 0.17001(4)
N3 N 0.58841(6) 1.2401(3) 0.36467(5)
C1 C 0.47811(6) 0.9283(3) 0.40000(5)
C2 C 0.44625(7) 1.1191(3) 0.40645(5)
H1 H 0.46710 1.23360 0.42380
H2 H 0.42980 1.19830 0.38250
C3 C 0.40850(7) 1.0370(3) 0.42208(5)
H3 H 0.38460 0.94140 0.40310
H4 H 0.39150 1.17260 0.42710
C4 C 0.42942(7) 0.8970(3) 0.45785(5)
H5 H 0.45020 1.00190 0.47760
C5 C 0.46125(7) 0.7058(3) 0.45175(5)
H6 H 0.47760 0.62710 0.47570
H7 H 0.44060 0.59110 0.43430
C6 C 0.49899(7) 0.7906(3) 0.43633(5)
H8 H 0.51670 0.65610 0.43180
H9 H 0.52230 0.88880 0.45530
C7 C 0.44928(7) 0.7564(3) 0.37026(5)
H10 H 0.46870 0.61630 0.37140
H11 H 0.41980 0.71080 0.37500
C8 C 0.41279(6) 0.7246(3) 0.30542(5)
C9 C 0.40480(6) 0.8383(3) 0.26887(5)
C10 C 0.37350(6) 0.7329(3) 0.23721(5)
H12 H 0.35700 0.59600 0.23910
C11 C 0.36668(6) 0.8293(3) 0.20305(5)
C12 C 0.39084(6) 1.0241(3) 0.19864(5)
H13 H 0.38600 1.08810 0.17480
C13 C 0.42246(7) 1.1208(3) 0.23075(5)
C14 C 0.42967(6) 1.0348(3) 0.26586(5)
H14 H 0.45110 1.10840 0.28740
C15 C 0.51771(7) 1.0329(3) 0.38815(5)
C16 C 0.50687(7) 1.2117(3) 0.36210(5)
H15 H 0.47490 1.26710 0.35160
C17 C 0.54261(7) 1.3074(4) 0.35165(5)
H16 H 0.53410 1.42920 0.33400
C18 C 0.59842(7) 1.0680(4) 0.38918(6)
H17 H 0.63070 1.01470 0.39890
C19 C 0.56510(7) 0.9620(4) 0.40137(5)
H18 H 0.57480 0.83980 0.41890
C20 C 0.39018(7) 0.8007(4) 0.47132(5)
H19 H 0.36870 0.70200 0.45090
C21 C 0.35916(8) 0.9890(4) 0.47892(6)
H20 H 0.37930 1.09020 0.49870
H21 H 0.33420 0.91880 0.48670
H22 H 0.34400 1.07920 0.45620
C22 C 0.41074(8) 0.6485(4) 0.50568(6)
H23 H 0.42600 0.51270 0.49940
H24 H 0.38480 0.59940 0.51420
H25 H 0.43470 0.73560 0.52550
O7 O 0.27180(5) -0.0149(2) 0.20213(3)
O8 O 0.22224(4) 0.2523(2) 0.16645(3)
O9 O 0.34789(5) 0.1411(3) 0.33320(4)
O10 O 0.33580(5) 0.4597(3) 0.35809(4)
O11 O 0.17974(5) 0.9216(2) 0.22286(4)
O12 O 0.20844(5) 0.9663(3) 0.28264(4)
N4 N 0.20554(6) 0.8629(3) 0.25415(5)
N5 N 0.32874(6) 0.3286(3) 0.33163(4)
N6 N 0.04959(6) 0.4065(3) 0.11660(5)
C23 C 0.25181(6) 0.1688(3) 0.19850(5)
C24 C 0.18354(6) 0.2331(3) 0.09983(5)
C25 C 0.17422(6) 0.0723(3) 0.06592(5)
H26 H 0.16160 -0.07600 0.07130
H27 H 0.14900 0.14230 0.04430
C26 C 0.21815(7) 0.0235(3) 0.05530(5)
H28 H 0.24200 -0.06460 0.07550
H29 H 0.20850 -0.07230 0.03250
C27 C 0.24122(7) 0.2451(3) 0.04844(5)
H30 H 0.21600 0.33080 0.02830
C28 C 0.25433(6) 0.3927(3) 0.08346(5)
H31 H 0.27850 0.31010 0.10420
H32 H 0.26910 0.53820 0.07930
C29 C 0.21095(7) 0.4486(3) 0.09422(5)
H33 H 0.18860 0.54620 0.07460
H34 H 0.22180 0.53910 0.11760
C30 C 0.21403(7) 0.1029(3) 0.13454(5)
H35 H 0.19720 -0.03880 0.13750
H36 H 0.24510 0.05820 0.13240
C31 C 0.25722(6) 0.3276(3) 0.23029(5)
C32 C 0.22970(6) 0.5257(3) 0.22665(5)
H37 H 0.20730 0.57010 0.20320
C33 C 0.23579(6) 0.6563(3) 0.25798(5)
C34 C 0.26812(7) 0.6013(3) 0.29289(5)
H38 H 0.27190 0.69490 0.31400
C35 C 0.29453(6) 0.4030(3) 0.29524(5)
C36 C 0.28988(6) 0.2650(3) 0.26484(5)
H39 H 0.30870 0.12950 0.26750
C37 C 0.13634(7) 0.2969(3) 0.10488(5)
C38 C 0.09721(7) 0.1470(4) 0.09520(5)
H40 H 0.09900 0.00220 0.08420
C39 C 0.05600(7) 0.2086(4) 0.10150(5)
H41 H 0.03020 0.10160 0.09450
C40 C 0.08702(7) 0.5504(4) 0.12578(6)
H42 H 0.08390 0.69440 0.13650
C41 C 0.12991(7) 0.5036(3) 0.12073(5)
H43 H 0.15520 0.61350 0.12820
C42 C 0.28388(7) 0.2083(4) 0.03518(5)
H44 H 0.29880 0.36260 0.03510
C43 C 0.26784(8) 0.1165(4) -0.00454(6)
H45 H 0.25440 -0.03830 -0.00540
H46 H 0.29550 0.11000 -0.01280
H47 H 0.24330 0.21900 -0.02100
C44 C 0.32281(7) 0.0532(4) 0.06091(6)
H48 H 0.33070 0.10480 0.08670
H49 H 0.35160 0.06110 0.05400
H50 H 0.31110 -0.10590 0.05860
O13 O 0.10377(4) -0.1498(2) 0.34028(3)
O14 O 0.06337(5) -0.4614(2) 0.31086(4)
O15 O 0.14667(5) 0.4517(2) 0.27278(4)
O16 O 0.11756(5) 0.4596(2) 0.21267(4)
O17 O -0.01059(5) -0.4083(2) 0.17492(4)
O18 O 0.00135(5) -0.1094(3) 0.14549(4)
N7 N 0.12143(6) 0.3734(3) 0.24265(5)
N8 N 0.00754(6) -0.2203(3) 0.17380(4)
N9 N 0.27071(7) -0.0280(5) 0.37277(6)
C45 C 0.14493(7) -0.0971(3) 0.40544(5)
C46 C 0.12032(7) 0.1350(3) 0.40626(5)
H51 H 0.14500 0.24560 0.42100
H52 H 0.10680 0.19530 0.38060
C47 C 0.08028(7) 0.1245(3) 0.42241(5)
H53 H 0.05350 0.03020 0.40590
H54 H 0.06790 0.28190 0.42320
C48 C 0.09739(7) 0.0215(3) 0.46155(5)
H55 H 0.12460 0.11880 0.47740
C49 C 0.11742(7) -0.2171(3) 0.45958(5)
H56 H 0.09130 -0.31690 0.44370
H57 H 0.12940 -0.28510 0.48480
C50 C 0.15811(7) -0.2120(3) 0.44404(5)
H58 H 0.16860 -0.37210 0.44230
H59 H 0.18570 -0.12860 0.46180
C51 C 0.11111(7) -0.2556(3) 0.37593(5)
H60 H 0.12560 -0.41020 0.37710
H61 H 0.08010 -0.27210 0.37990
C52 C 0.07907(6) -0.2709(3) 0.31025(5)
C53 C 0.07360(6) -0.1422(3) 0.27539(5)
C54 C 0.04362(6) -0.2340(3) 0.24186(5)
H62 H 0.02640 -0.37250 0.24140
C55 C 0.03924(6) -0.1211(3) 0.20935(5)
C56 C 0.06356(6) 0.0799(3) 0.20842(5)
H63 H 0.06000 0.15640 0.18570
C57 C 0.09340(6) 0.1639(3) 0.24232(5)
C58 C 0.09880(6) 0.0592(3) 0.27575(5)
H64 H 0.11930 0.12360 0.29850
C59 C 0.18994(7) -0.0674(4) 0.39532(5)
C60 C 0.19766(8) 0.1259(4) 0.37680(6)
H65 H 0.17550 0.25050 0.37130
C61 C 0.23770(9) 0.1360(5) 0.36639(7)
H66 H 0.24190 0.27030 0.35370
C62 C 0.26335(8) -0.2127(5) 0.39075(6)
H67 H 0.28630 -0.33370 0.39600
C63 C 0.22447(7) -0.2393(4) 0.40221(6)
H68 H 0.22130 -0.37560 0.41490
C64 C 0.05844(7) 0.0244(3) 0.47930(5)
H69 H 0.03060 -0.06880 0.46330
C65 C 0.04072(8) 0.2691(4) 0.48164(6)
H70 H 0.06830 0.37060 0.49310
H71 H 0.02020 0.26900 0.49680
H72 H 0.02230 0.32470 0.45660
C66 C 0.07643(7) -0.0826(4) 0.51808(5)
H73 H 0.08080 -0.24870 0.51600
H74 H 0.05290 -0.05530 0.53020
H75 H 0.10720 -0.01240 0.53290
#END
