
#######################################################################
#
#                 Cambridge Crystallographic Data Centre
#                                CCDC
#
#######################################################################
#
# If this CIF has been generated from an entry in the Cambridge
# Structural Database, then it will include bibliographic, chemical,
# crystal, experimental, refinement or atomic coordinate data resulting
# from the CCDC's data processing and validation procedures.
#
#######################################################################

data_CSD_CIF_TECGUE
_audit_creation_date 2006-03-28
_audit_creation_method CSD-ConQuest-V1
_database_code_CSD TECGUE
_database_code_depnum_ccdc_archive 'CCDC 298412'
_chemical_formula_sum 'C11 H10 N6 O3'
_chemical_formula_moiety
;
C11 H10 N6 O3
;
_journal_coeditor_code "IUCr CV6626"
_journal_coden_Cambridge 1370
_journal_volume 62
_journal_year 2006
_journal_page_first o494
_journal_name_full 'Acta Crystallogr.,Sect.E:Struct.Rep.Online '
loop_
_publ_author_name
"Da-Tong Zhang"
"Fang-Gang Sun"
"Ya-Wei Sun"
"Gui-Yun Duan"
"Jian-Wu Wang"
_chemical_name_systematic
;
N-(4,6-Dimethoxy-1,3,5-triazin-2-yloxy)benzotriazole
;
_cell_volume   2462.181
_exptl_crystal_colour 'colorless'
_exptl_crystal_density_diffrn 1.48
_exptl_crystal_description 'block'
_exptl_crystal_preparation 'hexane/dichloromethane'
_diffrn_ambient_temperature 293
#These two values have been output from a single CSD field.
_refine_ls_R_factor_gt 0.0385
_refine_ls_wR_factor_gt 0.0385
_symmetry_cell_setting monoclinic
_symmetry_space_group_name_H-M 'C 2/c'
_symmetry_Int_Tables_number 15
loop_
_symmetry_equiv_pos_site_id
_symmetry_equiv_pos_as_xyz
1 x,y,z
2 1/2+x,1/2+y,z
3 -x,y,1/2-z
4 1/2-x,1/2+y,1/2-z
5 -x,-y,-z
6 -1/2-x,-1/2-y,-z
7 x,-y,-1/2+z
8 -1/2+x,-1/2-y,-1/2+z
_cell_length_a 21.602(3)
_cell_length_b 7.3765(12)
_cell_length_c 18.248(3)
_cell_angle_alpha 90
_cell_angle_beta 122.139(2)
_cell_angle_gamma 90
_cell_formula_units_Z 8
loop_
_atom_type_symbol
_atom_type_radius_bond
C 0.68
H 0.23
N 0.68
O 0.68
loop_
_atom_site_label
_atom_site_type_symbol
_atom_site_fract_x
_atom_site_fract_y
_atom_site_fract_z
O1 O 0.07602(6) 0.29815(17) 0.61285(7)
O2 O -0.15237(5) 0.13163(15) 0.40446(7)
O3 O 0.01517(6) 0.22857(17) 0.33540(7)
N1 N 0.10049(7) 0.44497(18) 0.35243(9)
N2 N 0.08608(7) 0.27361(19) 0.36287(8)
N3 N 0.16629(7) 0.44673(17) 0.36753(9)
N4 N 0.05018(7) 0.27119(17) 0.47817(8)
N5 N -0.06908(6) 0.18303(17) 0.36679(8)
N6 N -0.04015(7) 0.20778(17) 0.51135(8)
C1 C 0.05644(11) 0.2854(3) 0.67696(11)
H1 H 0.09770 0.31820 0.73260
H2 H 0.04200 0.16340 0.67900
H3 H 0.01660 0.36630 0.66190
C2 C -0.20510(9) 0.1057(3) 0.31372(11)
H4 H -0.25180 0.07680 0.30540
H5 H -0.18960 0.00810 0.29240
H6 H -0.20910 0.21490 0.28280
C3 C 0.27141(9) 0.0235(2) 0.41915(10)
H7 H 0.31610 -0.02560 0.43320
C4 C 0.21716(11) -0.0919(2) 0.41181(11)
H8 H 0.22640 -0.21580 0.41950
C5 C 0.15086(10) -0.0287(2) 0.39361(10)
H9 H 0.11520 -0.10490 0.39040
C6 C 0.26108(8) 0.2049(2) 0.40641(10)
H10 H 0.29760 0.28090 0.41160
C7 C 0.19304(8) 0.2721(2) 0.38515(9)
C8 C 0.14040(8) 0.1570(2) 0.38027(9)
C9 C 0.02576(8) 0.25727(19) 0.53190(9)
C10 C -0.00035(8) 0.2294(2) 0.39936(10)
C11 C -0.08539(8) 0.17567(19) 0.42693(10)
#END
