
#######################################################################
#
#                 Cambridge Crystallographic Data Centre
#                                CCDC
#
#######################################################################
#
# If this CIF has been generated from an entry in the Cambridge
# Structural Database, then it will include bibliographic, chemical,
# crystal, experimental, refinement or atomic coordinate data resulting
# from the CCDC's data processing and validation procedures.
#
#######################################################################

data_CSD_CIF_TECKAO
_audit_creation_date 2006-03-28
_audit_creation_method CSD-ConQuest-V1
_database_code_CSD TECKAO
_database_code_depnum_ccdc_archive 'CCDC 298423'
_chemical_formula_sum 'C10 H9 N7 O3'
_chemical_formula_moiety
;
C10 H9 N7 O3
;
_journal_coeditor_code "IUCr CV6640"
_journal_coden_Cambridge 1370
_journal_volume 62
_journal_year 2006
_journal_page_first o857
_journal_name_full 'Acta Crystallogr.,Sect.E:Struct.Rep.Online '
loop_
_publ_author_name
"Da-Tong Zhang"
"Fang-Gang Sun"
"Gui-Yun Duan"
"Jian-Wu Wang"
_chemical_name_systematic
;
1-(4,6-Dimethoxy-1,3,5-triazin-2-yloxy)-1H-pyridino(2,3-d)triazole
;
_cell_volume   1229.827
_exptl_crystal_colour 'colorless'
_exptl_crystal_density_diffrn 1.487
_exptl_crystal_description 'block'
_exptl_crystal_preparation 'hexane/dichloromethane'
_diffrn_ambient_temperature 298
#These two values have been output from a single CSD field.
_refine_ls_R_factor_gt 0.0548
_refine_ls_wR_factor_gt 0.0548
_symmetry_cell_setting triclinic
_symmetry_space_group_name_H-M 'P -1'
_symmetry_Int_Tables_number 2
loop_
_symmetry_equiv_pos_site_id
_symmetry_equiv_pos_as_xyz
1 x,y,z
2 -x,-y,-z
_cell_length_a 8.7412(19)
_cell_length_b 10.530(2)
_cell_length_c 13.881(3)
_cell_angle_alpha 81.964(3)
_cell_angle_beta 89.058(3)
_cell_angle_gamma 76.467(3)
_cell_formula_units_Z 4
loop_
_atom_type_symbol
_atom_type_radius_bond
C 0.68
H 0.23
N 0.68
O 0.68
loop_
_atom_site_label
_atom_site_type_symbol
_atom_site_fract_x
_atom_site_fract_y
_atom_site_fract_z
O1 O 0.37799(19) 0.44865(16) 0.84885(13)
O2 O 0.1215(2) 0.85965(16) 0.87452(14)
O3 O 0.6580(2) 0.74972(19) 0.89096(15)
O4 O 0.30287(19) 0.27619(15) 0.56331(12)
O5 O -0.0171(2) 0.64580(16) 0.63154(15)
O6 O 0.1006(2) 0.28786(17) 0.86618(13)
N1 N 0.5668(3) 0.4539(2) 0.66567(16)
N2 N 0.7100(3) 0.1992(2) 0.85962(16)
N3 N 0.5847(3) 0.2667(2) 0.89786(16)
N4 N 0.5192(2) 0.36691(18) 0.83064(15)
N5 N 0.2498(2) 0.65297(19) 0.86509(15)
N6 N 0.3900(2) 0.81687(19) 0.87963(13)
N7 N 0.5296(2) 0.5956(2) 0.87216(15)
N8 N 0.1776(2) 0.0294(2) 0.57196(16)
N9 N 0.5751(2) -0.0074(2) 0.64232(16)
N10 N 0.5279(2) 0.1203(2) 0.62374(16)
N11 N 0.3771(2) 0.14781(18) 0.59594(14)
N12 N 0.1463(2) 0.46196(18) 0.59808(15)
N13 N 0.0302(2) 0.47130(18) 0.75356(16)
N14 N 0.2062(2) 0.27395(17) 0.71977(14)
C1 C 0.7230(3) 0.2597(2) 0.76616(18)
C2 C 0.8311(3) 0.2323(3) 0.6931(2)
H1 H 0.91620 0.15950 0.70090
C3 C 0.8043(3) 0.3188(3) 0.6094(2)
H2 H 0.87440 0.30670 0.55850
C4 C 0.6740(3) 0.4251(3) 0.5985(2)
H3 H 0.66100 0.48040 0.53930
C5 C 0.5993(3) 0.3682(2) 0.74659(17)
C6 C 0.3898(3) 0.5737(2) 0.86318(17)
C7 C 0.2598(3) 0.7752(2) 0.87333(16)
C8 C 0.5198(3) 0.7221(3) 0.88086(17)
C9 C 0.1225(3) 0.9943(2) 0.8837(2)
H4 H 0.01620 1.04580 0.88390
H5 H 0.17710 1.03000 0.82990
H6 H 0.17480 0.99650 0.94350
C10 C 0.6603(4) 0.8833(3) 0.9030(3)
H7 H 0.76720 0.89010 0.90890
H8 H 0.60430 0.90610 0.96050
H9 H 0.61080 0.94260 0.84740
C11 C 0.4507(3) -0.0615(2) 0.62583(16)
C12 C 0.4345(3) -0.1907(2) 0.63291(17)
H10 H 0.51750 -0.26250 0.65260
C13 C 0.2913(3) -0.2056(3) 0.60960(19)
H11 H 0.27390 -0.29000 0.61300
C14 C 0.1685(3) -0.0958(3) 0.5803(2)
H12 H 0.07200 -0.11190 0.56540
C15 C 0.3213(3) 0.0383(2) 0.59527(15)
C16 C 0.2131(3) 0.3396(2) 0.63354(17)
C17 C 0.0543(3) 0.5229(2) 0.6633(2)
C18 C 0.1115(3) 0.3483(2) 0.77727(18)
C19 C -0.1174(3) 0.7185(3) 0.6996(3)
H13 H -0.16360 0.80610 0.66830
H14 H -0.05570 0.72310 0.75500
H15 H -0.19910 0.67430 0.72030
C20 C 0.0084(4) 0.3641(3) 0.9347(2)
H16 H 0.01000 0.30970 0.99640
H17 H -0.09810 0.39570 0.91090
H18 H 0.05220 0.43780 0.94240
#END
