
#######################################################################
#
#                 Cambridge Crystallographic Data Centre
#                                CCDC
#
#######################################################################
#
# If this CIF has been generated from an entry in the Cambridge
# Structural Database, then it will include bibliographic, chemical,
# crystal, experimental, refinement or atomic coordinate data resulting
# from the CCDC's data processing and validation procedures.
#
#######################################################################

data_CSD_CIF_TECPOG
_audit_creation_date 1996-12-16
_audit_creation_method CSD-ConQuest-V1
_database_code_CSD TECPOG
_database_code_depnum_ccdc_fiz 'CSD 402184'
_chemical_formula_sum 'C11 H21 N1 O7'
_chemical_formula_moiety
;
C11 H21 N1 O7
;
_journal_coden_Cambridge 643
_journal_volume 211
_journal_year 1996
_journal_page_first 273
_journal_name_full 'Z.Krist.Cryst.Mater. '
loop_
_publ_author_name
"K.Peters"
"E.-M.Peters"
"H.G.von Schnering"
"R.Oehrlein"
"V.Jager"
_chemical_name_systematic
;
2,3-Didesoxy-5,6-O-isopropyliden-3-nitro-D-ribo-hexose-dimethylacetal
;
_cell_volume   1499.595
_exptl_crystal_colour 'colorless'
_diffrn_ambient_temperature ?
_diffrn_special_details
;
The study was carried out at room temperature,in the range 283-303K

;
#These two values have been output from a single CSD field.
_refine_ls_R_factor_gt 0.051
_refine_ls_wR_factor_gt 0.051
_symmetry_cell_setting orthorhombic
_symmetry_space_group_name_H-M 'P 21 21 21'
_symmetry_Int_Tables_number 19
loop_
_symmetry_equiv_pos_site_id
_symmetry_equiv_pos_as_xyz
1 x,y,z
2 1/2-x,-y,1/2+z
3 1/2+x,1/2-y,-z
4 -x,1/2+y,1/2-z
_cell_length_a 9.1334(5)
_cell_length_b 24.8781(10)
_cell_length_c 6.5997(2)
_cell_angle_alpha 90
_cell_angle_beta 90
_cell_angle_gamma 90
_cell_formula_units_Z 4
loop_
_atom_type_symbol
_atom_type_radius_bond
C 0.68
H 0.23
N 0.68
O 0.68
loop_
_atom_site_label
_atom_site_type_symbol
_atom_site_fract_x
_atom_site_fract_y
_atom_site_fract_z
C1 C 1.00978(75) 0.45026(21) 0.8212(11)
H1 H 1.05886(75) 0.45081(21) 0.9498(11)
C2 C 0.9636(6) 0.39275(18) 0.77189(78)
H2 H 1.04937(60) 0.37045(18) 0.77246(78)
H3 H 0.92049(60) 0.39243(18) 0.63923(78)
C3 C 0.85413(55) 0.36950(19) 0.92018(68)
H4 H 0.77169(55) 0.39329(19) 0.91044(68)
C4 C 0.80314(49) 0.31278(18) 0.87091(69)
H5 H 0.75334(49) 0.30096(18) 0.99102(69)
C5 C 0.70193(51) 0.31166(18) 0.69084(78)
H6 H 0.76553(51) 0.31583(18) 0.57609(78)
C6 C 0.61046(50) 0.25982(18) 0.68383(78)
H7 H 0.66361(50) 0.22992(18) 0.73907(78)
H8 H 0.58032(50) 0.25154(18) 0.54802(78)
O1 O 0.89794(58) 0.48062(16) 0.84972(97)
C7 C 0.92451(83) 0.53172(25) 0.9457(12)
H9 H 0.83381(83) 0.55089(25) 0.9592(12)
H10 H 0.99119(83) 0.55237(25) 0.8645(12)
H11 H 0.96626(83) 0.52594(25) 1.0774(12)
O2 O 1.11822(51) 0.46918(18) 0.69086(78)
C8 C 1.07238(86) 0.47816(28) 0.49357(95)
H12 H 1.15319(86) 0.49107(28) 0.41430(95)
H13 H 0.99544(86) 0.50445(28) 0.49316(95)
H14 H 1.03674(86) 0.44516(28) 0.43659(95)
N1 N 0.91785(63) 0.36743(19) 1.13233(75)
O3 O 1.04888(54) 0.36134(19) 1.15328(72)
O4 O 0.83148(58) 0.37130(24) 1.26864(61)
O5 O 0.92148(43) 0.27738(15) 0.82557(61)
H15 H 0.9575(70) 0.2636(25) 0.9295(82)
O6 O 0.59263(34) 0.35199(12) 0.70512(60)
O7 O 0.48770(37) 0.27368(13) 0.80868(58)
C9 C 0.45533(56) 0.32912(19) 0.76575(90)
C10 C 0.34857(58) 0.33452(25) 0.59653(98)
H16 H 0.25641(58) 0.31927(25) 0.63636(98)
H17 H 0.38499(58) 0.31590(25) 0.47952(98)
H18 H 0.33547(58) 0.37186(25) 0.56457(98)
C11 C 0.40459(67) 0.35483(25) 0.95758(93)
H19 H 0.38225(67) 0.39195(25) 0.93264(93)
H20 H 0.48042(67) 0.35236(25) 1.05786(93)
H21 H 0.31847(67) 0.33675(25) 1.00562(93)
#END
