
#######################################################################
#
#                 Cambridge Crystallographic Data Centre
#                                CCDC
#
#######################################################################
#
# If this CIF has been generated from an entry in the Cambridge
# Structural Database, then it will include bibliographic, chemical,
# crystal, experimental, refinement or atomic coordinate data resulting
# from the CCDC's data processing and validation procedures.
#
#######################################################################

data_CSD_CIF_TECPUM
_audit_creation_date 1996-12-16
_audit_creation_method CSD-ConQuest-V1
_database_code_CSD TECPUM
_database_code_depnum_ccdc_fiz 'CSD 402185'
_chemical_formula_sum 'C21 H26 N2 O4'
_chemical_formula_moiety
;
C21 H26 N2 O4
;
_journal_coden_Cambridge 643
_journal_volume 211
_journal_year 1996
_journal_page_first 275
_journal_name_full 'Z.Krist.Cryst.Mater. '
loop_
_publ_author_name
"K.Peters"
"E.-M.Peters"
"H.G.von Schnering"
"G.Schnabel"
"V.Jager"
_chemical_name_systematic
;
rac-Threo-4-anilino-3-nitro-4-phenyl-butanol-neopentyl-glycolacetal
;
_cell_volume   1951.686
_exptl_crystal_colour 'colorless'
_diffrn_ambient_temperature ?
_diffrn_special_details
;
The study was carried out at room temperature,in the range 283-303K

;
#These two values have been output from a single CSD field.
_refine_ls_R_factor_gt 0.052
_refine_ls_wR_factor_gt 0.052
_symmetry_cell_setting monoclinic
_symmetry_space_group_name_H-M 'P 21/a'
_symmetry_Int_Tables_number 14
loop_
_symmetry_equiv_pos_site_id
_symmetry_equiv_pos_as_xyz
1 x,y,z
2 1/2-x,1/2+y,-z
3 -x,-y,-z
4 -1/2+x,-1/2-y,z
_cell_length_a 10.6838(4)
_cell_length_b 21.1091(8)
_cell_length_c 9.1931(3)
_cell_angle_alpha 90
_cell_angle_beta 109.720(29)
_cell_angle_gamma 90
_cell_formula_units_Z 4
loop_
_atom_type_symbol
_atom_type_radius_bond
C 0.68
H 0.23
N 0.68
O 0.68
loop_
_atom_site_label
_atom_site_type_symbol
_atom_site_fract_x
_atom_site_fract_y
_atom_site_fract_z
C1 C 0.63736(30) 0.27968(12) 0.75265(30)
H1 H 0.60764(30) 0.30012(12) 0.82842(30)
C2 C 0.61328(27) 0.32229(11) 0.61306(28)
H2 H 0.52077(27) 0.31975(11) 0.55173(28)
H3 H 0.63459(27) 0.36488(11) 0.64961(28)
C3 C 0.69385(25) 0.30636(10) 0.50956(25)
H4 H 0.78491(25) 0.30261(10) 0.57537(25)
C4 C 0.68114(23) 0.35836(10) 0.38784(24)
H5 H 0.58902(23) 0.36438(10) 0.32809(24)
N1 N 0.75060(23) 0.33812(10) 0.28360(22)
H6 H 0.8267(20) 0.324(1) 0.3282(24)
C5 C 0.72950(24) 0.42197(11) 0.46254(25)
N2 N 0.64442(28) 0.24535(11) 0.42343(25)
O1 O 0.72456(26) 0.20287(9) 0.43813(24)
O2 O 0.52774(24) 0.24294(11) 0.34342(25)
O3 O 0.77126(20) 0.26750(9) 0.81766(20)
C6 C 0.79857(31) 0.22979(14) 0.95507(30)
H7 H 0.89217(31) 0.22101(14) 0.99551(30)
H8 H 0.77295(31) 0.25320(14) 1.03004(30)
C7 C 0.72483(26) 0.16888(12) 0.92390(27)
C8 C 0.58135(28) 0.18459(14) 0.84143(32)
H9 H 0.54718(28) 0.20699(14) 0.91087(32)
H10 H 0.53245(28) 0.14594(14) 0.80934(32)
O4 O 0.56535(17) 0.22339(9) 0.70704(20)
C9 C 0.74946(24) 0.37898(10) 0.16183(25)
C10 C 0.86021(26) 0.38503(12) 0.11832(28)
H11 H 0.94038(26) 0.36284(12) 0.17459(28)
C11 C 0.85668(31) 0.42318(13) -0.00653(32)
H12 H 0.93490(31) 0.42721(13) -0.03500(32)
C12 C 0.74312(32) 0.45499(12) -0.08948(30)
H13 H 0.74083(32) 0.48073(12) -0.17645(30)
C13 C 0.63408(31) 0.44946(13) -0.04591(29)
H14 H 0.55442(31) 0.47195(13) -0.10250(29)
C14 C 0.63544(27) 0.41202(12) 0.07879(27)
H15 H 0.55729(27) 0.40885(12) 0.10765(27)
C15 C 0.86095(27) 0.43168(12) 0.54812(27)
H16 H 0.92243(27) 0.39709(12) 0.56371(27)
C16 C 0.90717(31) 0.49003(13) 0.61264(30)
H17 H 0.99899(31) 0.49544(13) 0.67431(30)
C17 C 0.82058(36) 0.54025(13) 0.58719(33)
H18 H 0.85195(36) 0.58107(13) 0.63015(33)
C18 C 0.69086(35) 0.53211(12) 0.50184(34)
H19 H 0.63092(35) 0.56742(12) 0.48398(34)
C19 C 0.64282(28) 0.47291(12) 0.43898(29)
H20 H 0.55033(28) 0.46755(12) 0.38003(29)
C20 C 0.74017(28) 0.13606(13) 1.07685(29)
H21 H 0.69250(28) 0.09666(13) 1.05672(29)
H22 H 0.70507(28) 0.16267(13) 1.13857(29)
H23 H 0.83264(28) 0.12803(13) 1.13132(29)
C21 C 0.77379(38) 0.12658(16) 0.82128(35)
H24 H 0.86563(38) 0.11628(16) 0.87311(35)
H25 H 0.76457(38) 0.14830(16) 0.72648(35)
H26 H 0.72211(38) 0.08835(16) 0.79911(35)
#END
