
#######################################################################
#
#                 Cambridge Crystallographic Data Centre
#                                CCDC
#
#######################################################################
#
# If this CIF has been generated from an entry in the Cambridge
# Structural Database, then it will include bibliographic, chemical,
# crystal, experimental, refinement or atomic coordinate data resulting
# from the CCDC's data processing and validation procedures.
#
#######################################################################

data_CSD_CIF_TECRUO
_audit_creation_date 1997-02-10
_audit_creation_method CSD-ConQuest-V1
_database_code_CSD TECRUO
_database_code_depnum_ccdc_archive 'CCDC 112590'
_database_code_depnum_ccdc_fiz 'CSD 402032'
_chemical_formula_sum 'C14 H6 N2 O6'
_chemical_formula_moiety
;
C14 H6 N2 O6
;
_journal_coden_Cambridge 643
_journal_volume 211
_journal_year 1996
_journal_page_first 319
_journal_name_full 'Z.Krist.Cryst.Mater. '
loop_
_publ_author_name
"H.-D.Becker"
"H.-C.Becker"
"V.Langer"
"J.Sieler"
_chemical_name_systematic
;
1,8-Dinitro-9,10-anthraquinone
;
_chemical_melting_point 598
_cell_volume   1212.249
_exptl_crystal_colour 'yellow'
_exptl_special_details
;
CSD 402032 is incorrect

;
_diffrn_ambient_temperature ?
_diffrn_special_details
;
The study was carried out at room temperature,in the range 283-303K

;
#These two values have been output from a single CSD field.
_refine_ls_R_factor_gt 0.037
_refine_ls_wR_factor_gt 0.037
_symmetry_cell_setting monoclinic
_symmetry_space_group_name_H-M 'P 21/n'
_symmetry_Int_Tables_number 14
loop_
_symmetry_equiv_pos_site_id
_symmetry_equiv_pos_as_xyz
1 x,y,z
2 1/2-x,1/2+y,1/2-z
3 -x,-y,-z
4 -1/2+x,-1/2-y,-1/2+z
_cell_length_a 8.6614(6)
_cell_length_b 9.9554(4)
_cell_length_c 14.4002(9)
_cell_angle_alpha 90
_cell_angle_beta 102.503(6)
_cell_angle_gamma 90
_cell_formula_units_Z 4
loop_
_atom_type_symbol
_atom_type_radius_bond
C 0.68
N 0.68
O 0.68
loop_
_atom_site_label
_atom_site_type_symbol
_atom_site_fract_x
_atom_site_fract_y
_atom_site_fract_z
O1 O 0.1639(2) 0.3684(1) 0.3762(1)
O2 O 0.4933(2) 0.6021(2) 0.6896(1)
O3 O -0.0274(2) 0.5896(2) 0.2857(1)
O4 O 0.1650(2) 0.5822(2) 0.2132(1)
O5 O 0.1165(2) 0.0640(2) 0.4387(1)
O6 O -0.0557(2) 0.2138(2) 0.4508(1)
N1 N 0.1118(2) 0.6023(1) 0.2832(1)
N2 N 0.0763(2) 0.1650(2) 0.4740(1)
C1 C 0.2208(2) 0.6521(2) 0.3689(1)
C2 C 0.2751(2) 0.7809(2) 0.3646(1)
C3 C 0.3735(3) 0.8347(2) 0.4439(1)
C4 C 0.4175(2) 0.7600(2) 0.5262(2)
C5 C 0.3906(2) 0.3396(2) 0.7070(1)
C6 C 0.3332(3) 0.2110(2) 0.7123(2)
C7 C 0.2330(3) 0.1544(2) 0.6354(2)
C8 C 0.1896(2) 0.2283(2) 0.5525(1)
C9 C 0.2157(2) 0.4280(2) 0.4500(1)
C10 C 0.4094(2) 0.5519(2) 0.6200(1)
C11 C 0.2635(2) 0.5717(2) 0.4498(1)
C12 C 0.3620(2) 0.6293(2) 0.5295(1)
C13 C 0.2468(2) 0.3573(2) 0.5435(1)
C14 C 0.3464(2) 0.4132(2) 0.6231(1)
#END
