
#######################################################################
#
#                 Cambridge Crystallographic Data Centre
#                                CCDC
#
#######################################################################
#
# If this CIF has been generated from an entry in the Cambridge
# Structural Database, then it will include bibliographic, chemical,
# crystal, experimental, refinement or atomic coordinate data resulting
# from the CCDC's data processing and validation procedures.
#
#######################################################################

data_CSD_CIF_TECSUQ01
_audit_creation_date 2006-04-25
_audit_creation_method CSD-ConQuest-V1
_database_code_CSD TECSUQ01
_database_code_depnum_ccdc_archive 'CCDC 294187'
_chemical_formula_sum 'C18 H16 N4 O3'
_chemical_formula_moiety
;
C18 H16 N4 O3
;
_journal_coden_Cambridge 603
_journal_volume 25
_journal_year 2006
_journal_page_first 29
_journal_name_full 'Jiegou Huaxue(Chin.)(Chin.J.Struct.Chem.) '
loop_
_publ_author_name
"Zong-Xiao Li"
"Xin-Li Zhang"
_chemical_name_systematic
;
1,5-dimethyl-4-((3-nitrobenzylidene)amino)-2-phenyl-1,2-dihydro-pyrazol-3-one
;
_cell_volume   1665.404
_exptl_crystal_colour 'yellow'
_exptl_crystal_density_diffrn 1.341
_exptl_crystal_description 'rod'
_diffrn_ambient_temperature 298
#These two values have been output from a single CSD field.
_refine_ls_R_factor_gt 0.0448
_refine_ls_wR_factor_gt 0.0448
_symmetry_cell_setting monoclinic
_symmetry_space_group_name_H-M 'P 21/c'
_symmetry_Int_Tables_number 14
loop_
_symmetry_equiv_pos_site_id
_symmetry_equiv_pos_as_xyz
1 x,y,z
2 -x,1/2+y,1/2-z
3 -x,-y,-z
4 x,-1/2-y,-1/2+z
_cell_length_a 7.632(1)
_cell_length_b 7.816(1)
_cell_length_c 28.082(5)
_cell_angle_alpha 90
_cell_angle_beta 96.18(1)
_cell_angle_gamma 90
_cell_formula_units_Z 4
loop_
_atom_type_symbol
_atom_type_radius_bond
C 0.68
H 0.23
N 0.68
O 0.68
loop_
_atom_site_label
_atom_site_type_symbol
_atom_site_fract_x
_atom_site_fract_y
_atom_site_fract_z
O1 O 0.4702(2) 0.48859(19) 0.37509(5)
O2 O 0.9152(3) 0.9102(2) 0.56797(7)
O3 O 1.0707(3) 0.8109(3) 0.62976(7)
N1 N 0.3735(2) 0.2241(2) 0.34427(6)
N2 N 0.4116(2) 0.0519(2) 0.35587(6)
N3 N 0.6432(2) 0.2502(2) 0.45765(6)
N4 N 0.9774(3) 0.7924(3) 0.59186(8)
C1 C 0.2115(3) 0.4091(3) 0.28679(8)
H1 H 0.16840 0.46720 0.31200
C2 C 0.1633(3) 0.4592(3) 0.23998(9)
H2 H 0.08890 0.55260 0.23380
C3 C 0.2243(4) 0.3724(4) 0.20264(9)
H3 H 0.19080 0.40640 0.17120
C4 C 0.3351(3) 0.2349(4) 0.21180(8)
H4 H 0.37530 0.17520 0.18650
C5 C 0.3871(3) 0.1851(3) 0.25824(8)
H5 H 0.46420 0.09360 0.26440
C6 C 0.3237(3) 0.2724(3) 0.29568(7)
C7 C 0.4627(3) 0.3314(3) 0.37890(7)
C8 C 0.5381(3) 0.2151(3) 0.41498(7)
C9 C 0.5026(3) 0.0519(3) 0.40029(7)
C10 C 0.6697(3) 0.4024(3) 0.47309(7)
H6 H 0.61400 0.49430 0.45670
C11 C 0.7889(3) 0.4313(3) 0.51698(7)
C12 C 0.8770(3) 0.2960(3) 0.54092(7)
H7 H 0.85770 0.18540 0.52930
C13 C 0.9920(3) 0.3214(3) 0.58146(8)
H8 H 1.04760 0.22820 0.59720
C14 C 1.0255(3) 0.4846(3) 0.59896(8)
H9 H 1.10350 0.50370 0.62620
C15 C 0.9393(3) 0.6180(3) 0.57464(7)
C16 C 0.8210(3) 0.5957(3) 0.53437(7)
H10 H 0.76400 0.68910 0.51920
C17 C 0.2828(3) -0.0774(3) 0.33857(8)
H11 H 0.31880 -0.18670 0.35180
H12 H 0.27490 -0.08300 0.30430
H13 H 0.16980 -0.04780 0.34820
C18 C 0.5488(3) -0.1092(3) 0.42659(8)
H14 H 0.45430 -0.14130 0.44470
H15 H 0.65440 -0.09240 0.44790
H16 H 0.56780 -0.19820 0.40420
#END
