
#######################################################################
#
#                 Cambridge Crystallographic Data Centre
#                                CCDC
#
#######################################################################
#
# If this CIF has been generated from an entry in the Cambridge
# Structural Database, then it will include bibliographic, chemical,
# crystal, experimental, refinement or atomic coordinate data resulting
# from the CCDC's data processing and validation procedures.
#
#######################################################################

data_CSD_CIF_TECYAD
_audit_creation_date 2012-11-07
_audit_creation_method CSD-ConQuest-V1
_database_code_CSD TECYAD
_database_code_depnum_ccdc_archive 'CCDC 799361'
_chemical_formula_sum 'C15 H25 N1 O4'
_chemical_formula_moiety
;
C15 H25 N1 O4
;
_journal_coden_Cambridge 127
_journal_volume 69
_journal_year 2011
_journal_page_first 1354
_journal_name_full 'Huaxue Xuebao(Chin.)(Acta Chim.Sinica) '
loop_
_publ_author_name
"Shoucong Chen"
"Chunyan Zhang"
"Li Zhang"
"Daoquan Wang"
"Mingan Wang"
_chemical_name_systematic
;
Ethyl 3-(hydroxyimino)-2-oxocyclododecanecarboxylate
;
_cell_volume    771.325
_exptl_crystal_density_diffrn 1.22
_diffrn_ambient_temperature 123
#These two values have been output from a single CSD field.
_refine_ls_R_factor_gt 0.072
_refine_ls_wR_factor_gt 0.072
_symmetry_cell_setting triclinic
_symmetry_space_group_name_H-M 'P -1'
_symmetry_Int_Tables_number 2
loop_
_symmetry_equiv_pos_site_id
_symmetry_equiv_pos_as_xyz
1 x,y,z
2 -x,-y,-z
_cell_length_a 8.3961(17)
_cell_length_b 9.4155(19)
_cell_length_c 9.840(2)
_cell_angle_alpha 91.43(3)
_cell_angle_beta 95.90(3)
_cell_angle_gamma 94.15(3)
_cell_formula_units_Z 2
loop_
_atom_type_symbol
_atom_type_radius_bond
C 0.68
H 0.23
N 0.68
O 0.68
loop_
_atom_site_label
_atom_site_type_symbol
_atom_site_fract_x
_atom_site_fract_y
_atom_site_fract_z
C1 C 0.5543(4) 0.4748(3) 0.7704(3)
C2 C 0.6627(4) 0.5824(3) 0.8634(3)
C3 C 0.5923(4) 0.7270(4) 0.8781(3)
C4 C 0.5480(4) 0.8076(3) 0.7498(3)
C5 C 0.5384(4) 0.9665(3) 0.7629(3)
H1 H 0.47870 0.98900 0.84140
H2 H 0.47890 1.00040 0.67930
C6 C 0.7060(4) 1.0440(3) 0.7838(3)
H3 H 0.76410 1.00970 0.86790
H4 H 0.69490 1.14710 0.79800
C7 C 0.8072(4) 1.0232(4) 0.6640(3)
H5 H 0.80150 0.92050 0.63820
H6 H 0.76040 1.07380 0.58430
C8 C 0.9820(4) 1.0770(4) 0.6969(3)
H7 H 0.98680 1.17670 0.73240
H8 H 1.03440 1.07740 0.61120
C9 C 1.0766(4) 0.9896(4) 0.8009(3)
H9 H 1.01950 0.98260 0.88390
H10 H 1.18310 1.04050 0.82740
C10 C 1.1014(4) 0.8376(4) 0.7481(3)
H11 H 1.20130 0.83990 0.70260
H12 H 1.01090 0.80550 0.67900
C11 C 1.1121(4) 0.7288(4) 0.8640(3)
H13 H 1.15260 0.64030 0.82880
H14 H 1.19060 0.76850 0.93980
C12 C 0.9513(4) 0.6921(4) 0.9194(3)
H15 H 0.90290 0.78150 0.94150
H16 H 0.97030 0.64030 1.00520
C13 C 0.8327(4) 0.6007(4) 0.8184(3)
H17 H 0.87360 0.50550 0.80760
H18 H 0.82710 0.64520 0.72810
C14 C 0.2859(4) 0.3744(4) 0.7233(3)
H19 H 0.19650 0.35140 0.77920
H20 H 0.33750 0.28530 0.70620
C15 C 0.2204(5) 0.4317(4) 0.5891(3)
H21 H 0.17200 0.52130 0.60570
H22 H 0.13880 0.36230 0.54280
H23 H 0.30790 0.44890 0.53130
H24 H 0.457(6) 0.738(6) 0.444(5)
N1 N 0.5285(3) 0.7268(3) 0.6422(2)
O1 O 0.6029(3) 0.3939(2) 0.6880(2)
O2 O 0.4027(3) 0.4768(2) 0.7987(2)
O3 O 0.5771(3) 0.7795(3) 0.9904(2)
O4 O 0.4842(3) 0.8010(3) 0.5237(2)
H25 H 0.674(4) 0.544(3) 0.9556(13)
#END
