
#######################################################################
#
#                 Cambridge Crystallographic Data Centre
#                                CCDC
#
#######################################################################
#
# If this CIF has been generated from an entry in the Cambridge
# Structural Database, then it will include bibliographic, chemical,
# crystal, experimental, refinement or atomic coordinate data resulting
# from the CCDC's data processing and validation procedures.
#
#######################################################################

data_CSD_CIF_TEDBIN
_audit_creation_date 1997-01-23
_audit_creation_method CSD-ConQuest-V1
_database_code_CSD TEDBIN
_chemical_formula_sum 'C26 H28 N1 O2'
_chemical_formula_moiety
;
C26 H28 N1 O2
;
_journal_coden_Cambridge 95
_journal_year 1996
_journal_page_first 400
_journal_name_full 'Izv.Akad.Nauk SSSR,Ser.Khim.(Russ.)(Russ.Chem.Bull.) '
loop_
_publ_author_name
"V.A.Reznikov"
"I.A.Gutorov"
"Yu.V.Gatilov"
"T.V.Rybalova"
"L.B.Volodarsky"
_chemical_name_systematic
;
N-(Diphenylmethyl)-2-hydroxy-1-methyl-2-phenylcyclohexane-nitroxide
;
_chemical_melting_point 401.15
_cell_volume   2094.319
_exptl_crystal_density_diffrn 1.226
_exptl_special_details
;
Melting point range 401.15-403.15K

;
_diffrn_ambient_temperature ?
_diffrn_special_details
;
The study was carried out at room temperature,in the range 283-303K

;
#These two values have been output from a single CSD field.
_refine_ls_R_factor_gt 0.0336
_refine_ls_wR_factor_gt 0.0336
_symmetry_cell_setting orthorhombic
_symmetry_space_group_name_H-M 'P 21 21 21'
_symmetry_Int_Tables_number 19
loop_
_symmetry_equiv_pos_site_id
_symmetry_equiv_pos_as_xyz
1 x,y,z
2 1/2-x,-y,1/2+z
3 1/2+x,1/2-y,-z
4 -x,1/2+y,1/2-z
_cell_length_a 10.780(2)
_cell_length_b 13.417(2)
_cell_length_c 14.480(2)
_cell_angle_alpha 90
_cell_angle_beta 90
_cell_angle_gamma 90
_cell_formula_units_Z 4
loop_
_atom_type_symbol
_atom_type_radius_bond
C 0.68
N 0.68
O 0.68
loop_
_atom_site_label
_atom_site_type_symbol
_atom_site_fract_x
_atom_site_fract_y
_atom_site_fract_z
C1 C 0.0393(3) 0.7368(2) 0.2913(2)
C2 C 0.1255(2) 0.8261(2) 0.2594(2)
C3 C 0.2625(3) 0.8001(3) 0.2785(2)
C4 C 0.2845(4) 0.7720(3) 0.3800(3)
C5 C 0.2013(4) 0.6882(3) 0.4098(3)
C6 C 0.0657(3) 0.7131(3) 0.3931(2)
C7 C 0.0908(3) 0.9237(2) 0.3065(2)
N1 N 0.1101(2) 0.8395(1) 0.1569(1)
C8 C 0.1246(2) 0.9368(2) 0.1088(2)
C9 C 0.0436(2) 0.9367(2) 0.0221(2)
C10 C -0.0819(3) 0.9167(3) 0.0313(3)
C11 C -0.1576(4) 0.9139(3) -0.0459(3)
C12 C -0.1107(4) 0.9336(3) -0.1321(3)
C13 C 0.0116(4) 0.9563(3) -0.1410(3)
C14 C 0.0883(3) 0.9581(3) -0.0641(2)
C15 C 0.2603(2) 0.9607(2) 0.0923(2)
C16 C 0.3415(3) 0.8909(2) 0.0547(2)
C17 C 0.4648(3) 0.9153(3) 0.0404(2)
C18 C 0.5077(3) 1.0083(3) 0.0633(2)
C19 C 0.4289(3) 1.0775(3) 0.1003(3)
C20 C 0.3046(3) 1.0539(2) 0.1149(2)
C21 C -0.0976(2) 0.7595(2) 0.2734(2)
C22 C -0.1705(3) 0.8104(2) 0.3363(2)
C23 C -0.2942(3) 0.8291(3) 0.3188(3)
C24 C -0.3473(3) 0.7994(3) 0.2380(3)
C25 C -0.2771(3) 0.7482(3) 0.1739(2)
C26 C -0.1535(3) 0.7272(2) 0.1926(2)
O1 O 0.1225(2) 0.7626(1) 0.1047(1)
O2 O 0.0730(2) 0.6467(1) 0.2452(2)
#END
