
#######################################################################
#
#                 Cambridge Crystallographic Data Centre
#                                CCDC
#
#######################################################################
#
# If this CIF has been generated from an entry in the Cambridge
# Structural Database, then it will include bibliographic, chemical,
# crystal, experimental, refinement or atomic coordinate data resulting
# from the CCDC's data processing and validation procedures.
#
#######################################################################

data_CSD_CIF_TEDFAJ
_audit_creation_date 1997-01-23
_audit_creation_method CSD-ConQuest-V1
_database_code_CSD TEDFAJ
_chemical_formula_sum 'C14 H13 N1 O4'
_chemical_formula_moiety
;
C14 H13 N1 O4
;
_journal_coden_Cambridge 122
_journal_year 1996
_journal_page_first 168
_journal_name_full 'Khim.Get.Soedin.,SSSR(Russ.)(Chem.Heterocycl.Compd.) '
loop_
_publ_author_name
"T.A.Stroganova"
"A.B.Butin"
"V.T.Abaev"
"V.E.Zavodnik"
_chemical_name_systematic
;
3-(5-Methylfur-2-yl)-5,6-dimethoxy-2,1-benzisoxazole
;
_chemical_melting_point 418.15
_cell_volume   5120.072
_exptl_crystal_colour 'yellow'
_exptl_special_details
;
Melting point range 418.15-419.15K

;
_diffrn_ambient_temperature ?
_diffrn_special_details
;
The study was carried out at room temperature,in the range 283-303K

;
#These two values have been output from a single CSD field.
_refine_ls_R_factor_gt 0.0222
_refine_ls_wR_factor_gt 0.0222
_symmetry_cell_setting orthorhombic
_symmetry_space_group_name_H-M 'P b c a'
_symmetry_Int_Tables_number 61
loop_
_symmetry_equiv_pos_site_id
_symmetry_equiv_pos_as_xyz
1 x,y,z
2 1/2-x,-y,1/2+z
3 1/2+x,1/2-y,-z
4 -x,1/2+y,1/2-z
5 -x,-y,-z
6 -1/2+x,y,-1/2-z
7 -1/2-x,-1/2+y,z
8 x,-1/2-y,-1/2+z
_cell_length_a 13.629(3)
_cell_length_b 18.595(4)
_cell_length_c 20.203(4)
_cell_angle_alpha 90
_cell_angle_beta 90
_cell_angle_gamma 90
_cell_formula_units_Z 16
loop_
_atom_type_symbol
_atom_type_radius_bond
C 0.68
N 0.68
O 0.68
loop_
_atom_site_label
_atom_site_type_symbol
_atom_site_fract_x
_atom_site_fract_y
_atom_site_fract_z
O1 O 0.5292(2) -0.0357(1) 0.6489(1)
O2 O 0.5573(1) 0.2364(1) 0.4281(1)
O3 O 0.6839(1) 0.1629(1) 0.4879(1)
O4 O 0.3127(2) 0.0349(1) 0.5716(1)
N1 N 0.3013(2) 0.0911(2) 0.5246(1)
C1 C 0.5354(3) -0.0921(2) 0.6925(2)
C2 C 0.4462(4) -0.1188(2) 0.7032(2)
C3 C 0.3793(3) -0.0792(2) 0.6654(2)
C4 C 0.4318(2) -0.0291(2) 0.6328(2)
C5 C 0.6352(4) -0.1102(3) 0.7159(3)
C6 C 0.4092(2) 0.0264(2) 0.5865(2)
C7 C 0.4630(2) 0.0746(1) 0.5511(1)
C8 C 0.5647(2) 0.0900(2) 0.5443(2)
C9 C 0.5908(2) 0.1426(2) 0.5023(1)
C10 C 0.5174(2) 0.1843(2) 0.4663(1)
C11 C 0.4210(2) 0.1701(2) 0.4711(2)
C12 C 0.3928(2) 0.1133(2) 0.5139(2)
C13 C 0.4916(3) 0.2786(2) 0.3882(2)
C14 C 0.7606(2) 0.1212(2) 0.5167(2)
O5 O 0.4944(2) 0.9103(1) 0.2313(1)
O6 O 0.5031(1) 0.6375(1) 0.4499(1)
O7 O 0.6342(1) 0.7064(1) 0.3887(1)
O8 O 0.2692(2) 0.8314(1) 0.2901(1)
N2 N 0.2549(2) 0.7742(2) 0.3362(2)
C15 C 0.5072(4) 0.9627(2) 0.1846(2)
C16 C 0.4198(5) 0.9808(3) 0.1594(2)
C17 C 0.3482(4) 0.9397(3) 0.1914(2)
C18 C 0.3952(3) 0.8967(2) 0.2353(2)
C19 C 0.6092(5) 0.9844(4) 0.1726(3)
C20 C 0.3671(2) 0.8418(2) 0.2807(2)
C21 C 0.4183(2) 0.7944(2) 0.3183(2)
C22 C 0.5194(2) 0.7798(2) 0.3291(2)
C23 C 0.5422(2) 0.7273(2) 0.3722(2)
C24 C 0.4665(2) 0.6868(2) 0.4071(2)
C25 C 0.3706(3) 0.6995(2) 0.3969(2)
C26 C 0.3452(2) 0.7542(2) 0.3518(2)
C27 C 0.4340(4) 0.5997(3) 0.4909(3)
C28 C 0.7133(3) 0.7485(3) 0.3625(2)
#END
