
#######################################################################
#
#                 Cambridge Crystallographic Data Centre
#                                CCDC
#
#######################################################################
#
# If this CIF has been generated from an entry in the Cambridge
# Structural Database, then it will include bibliographic, chemical,
# crystal, experimental, refinement or atomic coordinate data resulting
# from the CCDC's data processing and validation procedures.
#
#######################################################################

data_CSD_CIF_TEDROL
_audit_creation_date 2012-10-16
_audit_creation_method CSD-ConQuest-V1
_database_code_CSD TEDROL
_database_code_depnum_ccdc_archive 'CCDC 847935'
_chemical_formula_sum 'C1 H5 N3 O1'
_chemical_formula_moiety
;
C1 H5 N3 O1
;
_journal_coden_Cambridge 29
_journal_volume 638
_journal_year 2012
_journal_page_first 336
_journal_name_full 'Z.Anorg.Allg.Chem. '
loop_
_publ_author_name
"C.M.Sabate"
"H.Delalu"
_chemical_name_systematic
;
1-nitroso-1-methylhydrazine
;
_cell_volume    355.057
_exptl_crystal_colour 'colorless'
_exptl_crystal_density_diffrn 1.404
_exptl_crystal_description 'needle'
_diffrn_ambient_temperature 100
#These two values have been output from a single CSD field.
_refine_ls_R_factor_gt 0.0588
_refine_ls_wR_factor_gt 0.0588
_symmetry_cell_setting monoclinic
_symmetry_space_group_name_H-M 'P 21/c'
_symmetry_Int_Tables_number 14
loop_
_symmetry_equiv_pos_site_id
_symmetry_equiv_pos_as_xyz
1 x,y,z
2 -x,1/2+y,1/2-z
3 -x,-y,-z
4 x,-1/2-y,-1/2+z
_cell_length_a 5.252(1)
_cell_length_b 9.693(2)
_cell_length_c 7.184(2)
_cell_angle_alpha 90
_cell_angle_beta 103.87(3)
_cell_angle_gamma 90
_cell_formula_units_Z 4
loop_
_atom_type_symbol
_atom_type_radius_bond
C 0.68
H 0.23
N 0.68
O 0.68
loop_
_atom_site_label
_atom_site_type_symbol
_atom_site_fract_x
_atom_site_fract_y
_atom_site_fract_z
N1 N 0.7997(3) 0.13464(16) 0.6453(3)
N2 N 0.6620(3) 0.25634(15) 0.6131(2)
N3 N 0.4104(3) 0.25922(16) 0.5757(3)
O1 O 0.3068(3) 0.13852(14) 0.5577(2)
C1 C 0.8075(4) 0.38552(19) 0.6356(3)
H1 H 0.95160 0.13980 0.61280
H2 H 0.71290 0.06390 0.59120
H3 H 0.94810 0.38030 0.75070
H4 H 0.69170 0.46110 0.64270
H5 H 0.88160 0.39880 0.52910
#END
