
#######################################################################
#
#                 Cambridge Crystallographic Data Centre
#                                CCDC
#
#######################################################################
#
# If this CIF has been generated from an entry in the Cambridge
# Structural Database, then it will include bibliographic, chemical,
# crystal, experimental, refinement or atomic coordinate data resulting
# from the CCDC's data processing and validation procedures.
#
#######################################################################

data_CSD_CIF_TEDYOT
_audit_creation_date 2017-08-11
_audit_creation_method CSD-ConQuest-V1
_database_code_CSD TEDYOT
_database_code_depnum_ccdc_archive 'CCDC 1523415'
_chemical_formula_sum 'C4 H2 N8 O6'
_chemical_formula_moiety
;
C4 H2 N8 O6
;
_journal_coden_Cambridge 1490
_journal_volume 8
_journal_year 2017
_journal_page_first 181
_journal_name_full 'Nat.Commun. '
loop_
_publ_author_name
"Wenquan Zhang"
"Jiaheng Zhang"
"Mucong Deng"
"Xiujuan Qi"
"Fude Nie"
"Qinghua Zhang"
_chemical_name_systematic
;
N,N'-dinitro-2,2'-bi-1,3,4-oxadiazole-5,5'(4H,4'H)-diimine
;
_cell_volume    861.695
_exptl_crystal_colour 'colorless'
_exptl_crystal_density_diffrn 1.99
_exptl_crystal_description 'block'
_diffrn_ambient_temperature 298
#These two values have been output from a single CSD field.
_refine_ls_R_factor_gt 0.0452
_refine_ls_wR_factor_gt 0.0452
_symmetry_cell_setting orthorhombic
_symmetry_space_group_name_H-M 'P b c a'
_symmetry_Int_Tables_number 61
loop_
_symmetry_equiv_pos_site_id
_symmetry_equiv_pos_as_xyz
1 x,y,z
2 1/2+x,1/2-y,-z
3 -x,1/2+y,1/2-z
4 1/2-x,-y,1/2+z
5 -x,-y,-z
6 -1/2-x,-1/2+y,z
7 x,-1/2-y,-1/2+z
8 -1/2+x,y,-1/2-z
_cell_length_a 6.4008(14)
_cell_length_b 8.3648(17)
_cell_length_c 16.094(3)
_cell_angle_alpha 90
_cell_angle_beta 90
_cell_angle_gamma 90
_cell_formula_units_Z 4
loop_
_atom_type_symbol
_atom_type_radius_bond
C 0.68
H 0.23
N 0.68
O 0.68
loop_
_atom_site_label
_atom_site_type_symbol
_atom_site_fract_x
_atom_site_fract_y
_atom_site_fract_z
O1 O 0.4228(2) 0.20512(18) 0.02153(8)
O2 O 0.3726(3) 0.64348(19) 0.17777(11)
O3 O 0.5337(3) 0.4381(2) 0.22723(9)
N1 N 0.6136(3) 0.0425(2) 0.10007(11)
N2 N 0.5874(3) 0.1891(2) 0.13824(11)
N3 N 0.4378(3) 0.5056(2) 0.17128(11)
N4 N 0.3944(3) 0.4314(2) 0.09779(10)
C1 C 0.4696(3) 0.2860(3) 0.09237(12)
C2 C 0.5134(3) 0.0589(3) 0.03200(12)
H1 H 0.628(5) 0.207(3) 0.1935(18)
O1D O 0.5772(2) -0.20512(18) -0.02153(8)
O2D O 0.6274(3) -0.64348(19) -0.17777(11)
O3D O 0.4663(3) -0.4381(2) -0.22723(9)
N1D N 0.3864(3) -0.0425(2) -0.10007(11)
N2D N 0.4126(3) -0.1891(2) -0.13824(11)
N3D N 0.5622(3) -0.5056(2) -0.17128(11)
N4D N 0.6056(3) -0.4314(2) -0.09779(10)
C1D C 0.5304(3) -0.2860(3) -0.09237(12)
C2D C 0.4866(3) -0.0589(3) -0.03200(12)
H1D H 0.372(5) -0.207(3) -0.1935(18)
#END
