
#######################################################################
#
#                 Cambridge Crystallographic Data Centre
#                                CCDC
#
#######################################################################
#
# If this CIF has been generated from an entry in the Cambridge
# Structural Database, then it will include bibliographic, chemical,
# crystal, experimental, refinement or atomic coordinate data resulting
# from the CCDC's data processing and validation procedures.
#
#######################################################################

data_CSD_CIF_TEDYAC
_audit_creation_date 1997-01-09
_audit_creation_method CSD-ConQuest-V1
_database_code_CSD TEDYAC
_chemical_formula_sum 'C16 H13 N3 O2'
_chemical_formula_moiety
;
C16 H13 N3 O2
;
_journal_coden_Cambridge 122
_journal_year 1995
_journal_page_first 1543
_journal_name_full 'Khim.Get.Soedin.,SSSR(Russ.)(Chem.Heterocycl.Compd.) '
loop_
_publ_author_name
"M.A.Yurovskaya"
"I.G.Khamlova"
"V.N.Nesterov"
"O.V.Shishkin"
"Yu.T.Struchkov"
_chemical_name_systematic
;
4-(1-Cyano-2-phenylvinyl)-2,6-dimethyl-3-nitropyridine
;
_chemical_melting_point 448.15
_cell_volume   1412.141
_exptl_crystal_colour 'yellow'
_exptl_special_details
;
Melting point range 448.15-451.15K

;
_diffrn_ambient_temperature ?
_diffrn_special_details
;
The study was carried out at room temperature,in the range 283-303K

;
#These two values have been output from a single CSD field.
_refine_ls_R_factor_gt 0.057
_refine_ls_wR_factor_gt 0.057
_symmetry_cell_setting monoclinic
_symmetry_space_group_name_H-M 'P 21/n'
_symmetry_Int_Tables_number 14
loop_
_symmetry_equiv_pos_site_id
_symmetry_equiv_pos_as_xyz
1 x,y,z
2 1/2-x,1/2+y,1/2-z
3 -x,-y,-z
4 -1/2+x,-1/2-y,-1/2+z
_cell_length_a 7.365(2)
_cell_length_b 14.853(3)
_cell_length_c 12.911(4)
_cell_angle_alpha 90
_cell_angle_beta 91.02(2)
_cell_angle_gamma 90
_cell_formula_units_Z 4
loop_
_atom_type_symbol
_atom_type_radius_bond
C 0.68
H 0.23
N 0.68
O 0.68
loop_
_atom_site_label
_atom_site_type_symbol
_atom_site_fract_x
_atom_site_fract_y
_atom_site_fract_z
O1 O 0.1783(7) 0.4861(2) 0.1343(3)
O2 O 0.3830(6) 0.5367(3) 0.2413(3)
N1 N 0.2011(5) 0.7442(2) 0.0015(3)
N2 N 0.2662(6) 0.5471(3) 0.1754(3)
N3 N -0.0089(7) 0.5399(3) 0.3672(3)
C1 C 0.2359(7) 0.6605(3) 0.0365(3)
C2 C 0.2245(6) 0.6403(3) 0.1405(3)
C3 C 0.1808(6) 0.7053(3) 0.2138(3)
C4 C 0.1440(6) 0.7911(3) 0.1752(3)
C5 C 0.1559(6) 0.8082(3) 0.0707(3)
C6 C 0.1128(10) 0.9002(3) 0.0271(4)
C7 C 0.2903(10) 0.5937(4) -0.0456(4)
C8 C 0.1618(6) 0.6878(3) 0.3271(3)
C9 C 0.2188(6) 0.7478(3) 0.3988(3)
C10 C 0.2024(6) 0.7495(3) 0.5116(3)
C11 C 0.1473(8) 0.6773(4) 0.5728(4)
C12 C 0.1340(8) 0.6871(4) 0.6777(4)
C13 C 0.1732(7) 0.7680(4) 0.7257(4)
C14 C 0.2280(7) 0.8402(4) 0.6669(4)
C15 C 0.2472(7) 0.8305(3) 0.5617(4)
C16 C 0.0685(7) 0.6054(3) 0.3530(3)
H1 H 0.109(5) 0.839(3) 0.223(3)
H2 H 0.041(8) 0.932(4) 0.084(5)
H3 H 0.061(8) 0.894(4) -0.038(5)
H4 H 0.225(9) 0.932(4) 0.006(5)
H5 H 0.326(7) 0.622(3) -0.109(4)
H6 H 0.379(7) 0.550(4) -0.018(4)
H7 H 0.176(8) 0.568(4) -0.082(5)
H8 H 0.284(6) 0.796(3) 0.374(3)
H9 H 0.113(6) 0.630(3) 0.545(3)
H10 H 0.092(7) 0.640(3) 0.717(4)
H11 H 0.151(5) 0.772(3) 0.800(4)
H12 H 0.266(6) 0.896(3) 0.696(4)
H13 H 0.282(6) 0.878(3) 0.520(3)
#END
