
#######################################################################
#
#                 Cambridge Crystallographic Data Centre
#                                CCDC
#
#######################################################################
#
# If this CIF has been generated from an entry in the Cambridge
# Structural Database, then it will include bibliographic, chemical,
# crystal, experimental, refinement or atomic coordinate data resulting
# from the CCDC's data processing and validation procedures.
#
#######################################################################

data_CSD_CIF_TEFVEG
_audit_creation_date 2006-07-20
_audit_creation_method CSD-ConQuest-V1
_database_code_CSD TEFVEG
_database_code_depnum_ccdc_archive 'CCDC 605772'
_chemical_formula_sum 'C16 H11 N3 O5'
_chemical_formula_moiety
;
C16 H11 N3 O5
;
_journal_coden_Cambridge 423
_journal_year 2005
_journal_page_first 775
_journal_name_full 'J.Chem.Res. '
loop_
_publ_author_name
"Xiang-shan Wang"
"Zhao-sen Zeng"
"Da-qing Shi"
"Shu-jiang Tu"
"Xian-yong Wei"
"Zhi-min Zong"
_chemical_name_systematic
;
2-Amino-7-methyl-4-(3-nitrophenyl)-5-oxo-4,5-dihydropyrano(4,3-b)pyran-3-carbo
nitrile
;
_chemical_melting_point 511
_cell_volume   1516.873
_exptl_crystal_colour 'pale yellow'
_exptl_crystal_density_diffrn 1.424
_exptl_special_details
;
Melting point range 511-513K

;
_exptl_crystal_description 'block'
_exptl_crystal_preparation '95% ethanol'
_diffrn_ambient_temperature 289
#These two values have been output from a single CSD field.
_refine_ls_R_factor_gt 0.0423
_refine_ls_wR_factor_gt 0.0423
_symmetry_cell_setting monoclinic
_symmetry_space_group_name_H-M 'P 21/c'
_symmetry_Int_Tables_number 14
loop_
_symmetry_equiv_pos_site_id
_symmetry_equiv_pos_as_xyz
1 x,y,z
2 -x,1/2+y,1/2-z
3 -x,-y,-z
4 x,-1/2-y,-1/2+z
_cell_length_a 5.709(1)
_cell_length_b 14.616(2)
_cell_length_c 18.228(3)
_cell_angle_alpha 90
_cell_angle_beta 94.219(3)
_cell_angle_gamma 90
_cell_formula_units_Z 4
loop_
_atom_type_symbol
_atom_type_radius_bond
C 0.68
H 0.23
N 0.68
O 0.68
loop_
_atom_site_label
_atom_site_type_symbol
_atom_site_fract_x
_atom_site_fract_y
_atom_site_fract_z
O1 O 0.15429(19) 0.21279(8) 0.69102(6)
O2 O 0.7053(2) 0.38876(8) 0.72374(7)
O3 O 0.8391(2) 0.35742(9) 0.61602(7)
O4 O 0.8617(3) 0.28953(14) 0.33458(9)
O5 O 0.6797(4) 0.40221(13) 0.27971(10)
N1 N -0.0598(3) 0.10316(11) 0.63621(10)
N2 N 0.1703(4) 0.06507(15) 0.46035(12)
N3 N 0.7111(4) 0.34841(15) 0.33128(10)
C1 C 0.1219(3) 0.15982(11) 0.62965(9)
C2 C 0.2590(3) 0.16727(11) 0.57226(9)
C3 C 0.4623(3) 0.23397(11) 0.57021(9)
H1 H 0.60570 0.19840 0.56500
C4 C 0.4887(3) 0.28294(11) 0.64301(9)
C5 C 0.3392(3) 0.27297(11) 0.69649(9)
C6 C 0.3623(3) 0.32232(12) 0.76375(10)
H2 H 0.25280 0.31540 0.79870
C7 C 0.5439(3) 0.37849(12) 0.77565(10)
C8 C 0.6857(3) 0.34280(12) 0.65693(10)
C9 C 0.4324(3) 0.29962(11) 0.50547(9)
C10 C 0.2541(3) 0.36357(13) 0.50079(10)
H3 H 0.15130 0.36670 0.53800
C11 C 0.2256(4) 0.42288(14) 0.44202(12)
H4 H 0.10580 0.46610 0.44030
C12 C 0.3737(4) 0.41831(14) 0.38581(11)
H5 H 0.35440 0.45730 0.34550
C13 C 0.5502(4) 0.35475(13) 0.39099(10)
C14 C 0.5834(3) 0.29550(12) 0.44967(10)
H6 H 0.70570 0.25330 0.45170
C15 C 0.2089(4) 0.11047(14) 0.51084(11)
C16 C 0.6048(4) 0.43548(16) 0.84077(12)
H7 H 0.49230 0.42560 0.87660
H8 H 0.60320 0.49880 0.82670
H9 H 0.75870 0.41930 0.86150
H10 H -0.118(3) 0.1012(12) 0.6784(7)
H11 H -0.095(3) 0.0606(10) 0.6040(8)
#END
