
#######################################################################
#
#                 Cambridge Crystallographic Data Centre
#                                CCDC
#
#######################################################################
#
# If this CIF has been generated from an entry in the Cambridge
# Structural Database, then it will include bibliographic, chemical,
# crystal, experimental, refinement or atomic coordinate data resulting
# from the CCDC's data processing and validation procedures.
#
#######################################################################

data_CSD_CIF_TEGMAW
_audit_creation_date 2017-08-12
_audit_creation_method CSD-ConQuest-V1
_database_code_CSD TEGMAW
_database_code_depnum_ccdc_archive 'CCDC 1568631'
_chemical_formula_sum 'C21 H20 N2 O2'
_chemical_formula_moiety
;
C21 H20 N2 O2
;
_journal_coden_Cambridge 1078
_journal_year 2017
_journal_name_full 'CSD Communication(Private Communication) '
loop_
_publ_author_name
"S.MANI"
_chemical_name_systematic
;
N,N-dibenzyl-2-methyl-4-nitroaniline
;
_cell_volume   3541.047
_exptl_crystal_colour 'colorless'
_exptl_crystal_density_diffrn 1.247
_exptl_crystal_description 'block'
_exptl_crystal_preparation 'methanol'
_diffrn_ambient_temperature 296
#These two values have been output from a single CSD field.
_refine_ls_R_factor_gt 0.0566
_refine_ls_wR_factor_gt 0.0566
_symmetry_cell_setting monoclinic
_symmetry_space_group_name_H-M 'C 2/c'
_symmetry_Int_Tables_number 15
loop_
_symmetry_equiv_pos_site_id
_symmetry_equiv_pos_as_xyz
1 x,y,z
2 -x,y,1/2-z
3 1/2+x,1/2+y,z
4 1/2-x,1/2+y,1/2-z
5 -x,-y,-z
6 x,-y,-1/2+z
7 -1/2-x,-1/2-y,-z
8 -1/2+x,-1/2-y,-1/2+z
_cell_length_a 36.772(4)
_cell_length_b 7.0197(6)
_cell_length_c 13.8494(16)
_cell_angle_alpha 90
_cell_angle_beta 97.894(7)
_cell_angle_gamma 90
_cell_formula_units_Z 8
loop_
_atom_type_symbol
_atom_type_radius_bond
C 0.68
H 0.23
N 0.68
O 0.68
loop_
_atom_site_label
_atom_site_type_symbol
_atom_site_fract_x
_atom_site_fract_y
_atom_site_fract_z
O1 O 0.45932(5) 0.1856(4) -0.1726(2)
C1 C 0.53149(6) 0.1830(3) -0.09547(17)
H1 H 0.52560 0.15180 -0.16100
C2 C 0.56760(5) 0.1815(3) -0.05111(15)
H2 H 0.58610 0.14860 -0.08760
C3 C 0.63681(5) 0.0683(3) 0.06077(14)
H3 H 0.65150 0.12200 0.01440
H4 H 0.62170 -0.03220 0.02820
O2 O 0.44267(5) 0.2664(3) -0.03557(19)
C4 C 0.70881(7) 0.5830(4) -0.0057(2)
H5 H 0.73430 0.58220 0.00190
N1 N 0.61324(4) 0.2164(2) 0.09305(11)
C5 C 0.63350(6) 0.5795(3) -0.02968(14)
H6 H 0.60800 0.57740 -0.03940
N2 N 0.46611(6) 0.2284(3) -0.0858(2)
C6 C 0.50478(5) 0.2317(3) -0.04044(18)
C7 C 0.57688(5) 0.2281(2) 0.04690(14)
C8 C 0.66183(5) -0.0144(2) 0.14592(13)
C9 C 0.69946(5) -0.0040(3) 0.15170(16)
H7 H 0.70980 0.05780 0.10270
C10 C 0.72206(6) -0.0836(3) 0.22897(19)
H8 H 0.74740 -0.07420 0.23180
C11 C 0.70748(7) -0.1758(3) 0.30105(18)
H9 H 0.72280 -0.22910 0.35310
C12 C 0.51284(6) 0.2778(3) 0.05661(18)
H10 H 0.49400 0.31030 0.09190
C13 C 0.54877(5) 0.2762(3) 0.10244(15)
C14 C 0.55658(7) 0.3108(4) 0.21050(17)
H11 H 0.56660 0.43620 0.22230
H12 H 0.57390 0.21800 0.23960
H13 H 0.53420 0.30010 0.23860
C15 C 0.63222(5) 0.3933(2) 0.12581(13)
H14 H 0.64970 0.36580 0.18320
H15 H 0.61430 0.48230 0.14490
C16 C 0.65241(5) 0.4883(2) 0.05102(12)
C17 C 0.65203(8) 0.6727(3) -0.09537(16)
H16 H 0.63890 0.73510 -0.14830
C18 C 0.68940(9) 0.6745(3) -0.0837(2)
H17 H 0.70170 0.73760 -0.12860
C19 C 0.69025(5) 0.4911(3) 0.06254(17)
H18 H 0.70350 0.43130 0.11610
C20 C 0.64719(5) -0.1089(3) 0.21964(15)
H19 H 0.62190 -0.11800 0.21740
C21 C 0.67001(7) -0.1896(3) 0.29648(16)
H20 H 0.65990 -0.25370 0.34530
#END
