
#######################################################################
#
#                 Cambridge Crystallographic Data Centre
#                                CCDC
#
#######################################################################
#
# If this CIF has been generated from an entry in the Cambridge
# Structural Database, then it will include bibliographic, chemical,
# crystal, experimental, refinement or atomic coordinate data resulting
# from the CCDC's data processing and validation procedures.
#
#######################################################################

data_CSD_CIF_TEGSEG
_audit_creation_date 2017-08-14
_audit_creation_method CSD-ConQuest-V1
_database_code_CSD TEGSEG
_database_code_depnum_ccdc_archive 'CCDC 1477343'
_chemical_formula_sum 'C7 H2 N4 O6'
_chemical_formula_moiety
;
C7 H2 N4 O6
;
_journal_coden_Cambridge 1078
_journal_year 2017
_journal_name_full 'CSD Communication(Private Communication) '
loop_
_publ_author_name
"T.G.Witkowski"
"T.M.Klapotke"
_chemical_name_systematic
;
2,4,6-trinitrobenzonitrile
;
_cell_volume   4055.670
_exptl_crystal_colour 'colorless'
_exptl_crystal_density_diffrn 1.755
_exptl_crystal_description 'rod'
_diffrn_ambient_temperature 123
#These two values have been output from a single CSD field.
_refine_ls_R_factor_gt 0.0409
_refine_ls_wR_factor_gt 0.0409
_symmetry_cell_setting rhombohedral
_symmetry_space_group_name_H-M 'R -3'
_symmetry_Int_Tables_number 148
loop_
_symmetry_equiv_pos_site_id
_symmetry_equiv_pos_as_xyz
1 x,y,z
2 -y,x-y,z
3 -x+y,-x,z
4 2/3+x,1/3+y,1/3+z
5 2/3-y,1/3+x-y,1/3+z
6 2/3-x+y,1/3-x,1/3+z
7 1/3+x,2/3+y,2/3+z
8 1/3-y,2/3+x-y,2/3+z
9 1/3-x+y,2/3-x,2/3+z
10 -x,-y,-z
11 y,-x+y,-z
12 x-y,x,-z
13 -2/3-x,-1/3-y,-1/3-z
14 -2/3+y,-1/3-x+y,-1/3-z
15 -2/3+x-y,-1/3+x,-1/3-z
16 -1/3-x,-2/3-y,-2/3-z
17 -1/3+y,-2/3-x+y,-2/3-z
18 -1/3+x-y,-2/3+x,-2/3-z
_cell_length_a 27.2956(12)
_cell_length_b 27.2956(12)
_cell_length_c 6.2856(3)
_cell_angle_alpha 90
_cell_angle_beta 90
_cell_angle_gamma 120
_cell_formula_units_Z 18
loop_
_atom_type_symbol
_atom_type_radius_bond
C 0.68
H 0.23
N 0.68
O 0.68
loop_
_atom_site_label
_atom_site_type_symbol
_atom_site_fract_x
_atom_site_fract_y
_atom_site_fract_z
C1 C 0.52838(7) 0.14885(7) 0.4572(3)
O1 O 0.40794(5) 0.03083(5) 1.04947(19)
O2 O 0.51123(5) 0.02461(5) 0.21698(19)
O3 O 0.53732(5) 0.23858(5) 0.87267(19)
N1 N 0.43117(7) 0.15203(6) 1.1016(2)
O4 O 0.56479(5) 0.25797(5) 0.5439(2)
O5 O 0.54998(5) 0.10961(5) 0.08924(18)
O6 O 0.37165(5) -0.02162(5) 0.7694(2)
C2 C 0.46264(7) 0.05063(7) 0.5385(2)
N2 N 0.52302(6) 0.07394(6) 0.2248(2)
N3 N 0.40539(6) 0.02235(6) 0.8569(2)
N4 N 0.54012(6) 0.22523(6) 0.6891(2)
C3 C 0.47063(7) 0.12467(7) 0.7771(2)
C4 C 0.51163(7) 0.16419(6) 0.6394(2)
C5 C 0.44732(6) 0.06774(7) 0.7202(2)
C6 C 0.50361(7) 0.09196(7) 0.4124(2)
C7 C 0.45007(7) 0.14082(7) 0.9607(3)
H1 H 0.4462(7) 0.0118(8) 0.505(3)
H2 H 0.5571(8) 0.1758(8) 0.369(3)
#END
