
#######################################################################
#
#                 Cambridge Crystallographic Data Centre
#                                CCDC
#
#######################################################################
#
# If this CIF has been generated from an entry in the Cambridge
# Structural Database, then it will include bibliographic, chemical,
# crystal, experimental, refinement or atomic coordinate data resulting
# from the CCDC's data processing and validation procedures.
#
#######################################################################

data_CSD_CIF_TEGWEK
_audit_creation_date 2017-08-14
_audit_creation_method CSD-ConQuest-V1
_database_code_CSD TEGWEK
_database_code_depnum_ccdc_archive 'CCDC 1568770'
_chemical_formula_sum 'C23 H19 N1 O2'
_chemical_formula_moiety
;
C23 H19 N1 O2
;
_journal_coden_Cambridge 4
_journal_volume 139
_journal_year 2017
_journal_page_first 10302
_journal_name_full 'J.Am.Chem.Soc. '
loop_
_publ_author_name
"M.Elena de Orbe"
"L.Amenos"
"M.S.Kirillova"
"Yahui Wang"
"V.Lopez-Carrillo"
"F.Maseras"
"A.M.Echavarren"
_chemical_name_systematic
;
4'-nitro-2-(4-phenylpenta-1,3-dien-3-yl)-1,1'-biphenyl
;
_cell_volume   1834.967
_exptl_crystal_colour 'colorless'
_exptl_crystal_density_diffrn 1.236
_exptl_special_details
;
Absolute configuration

;
_exptl_crystal_description 'plate'
_diffrn_ambient_temperature 100
_refine_special_details
;
C10A,C11A,C1A,C2A,C3A,C4A,C5A,C6A,C7A,C8A,C9A and 
C1',C10',C11',C2',C3',C4',C5',C6',C7',C8',C9' disordered over two sites with 
occupancies 0.8:0.2; 
C10B,C11B,C12B,C13B,C14B,C15B,C16B,C17B,C18B,C19B,C1B,C20B,C21B,C22B,C23B,C2B,
C3B,C4B,C5B,C6B,C7B,C8B,C9B,N1B,O1B,O2B and C1.
;
#These two values have been output from a single CSD field.
_refine_ls_R_factor_gt 0.1125
_refine_ls_wR_factor_gt 0.1125
_symmetry_cell_setting monoclinic
_symmetry_space_group_name_H-M 'P 21'
_symmetry_Int_Tables_number 4
loop_
_symmetry_equiv_pos_site_id
_symmetry_equiv_pos_as_xyz
1 x,y,z
2 -x,1/2+y,-z
_cell_length_a 7.4240(8)
_cell_length_b 32.859(4)
_cell_length_c 7.7501(9)
_cell_angle_alpha 90
_cell_angle_beta 103.934(4)
_cell_angle_gamma 90
_cell_formula_units_Z 4
loop_
_atom_type_symbol
_atom_type_radius_bond
C 0.68
H 0.23
N 0.68
O 0.68
loop_
_atom_site_label
_atom_site_type_symbol
_atom_site_fract_x
_atom_site_fract_y
_atom_site_fract_z
N1 N 0.2327(13) 0.2155(3) 1.1641(12)
O1 O 0.2960(11) 0.2206(3) 1.3265(10)
O2 O 0.0766(11) 0.2059(3) 1.0963(11)
C1 C 0.554(2) 0.3710(5) 0.884(2)
C2 C 0.553(2) 0.3654(5) 1.065(2)
H1 H 0.58940 0.33990 1.12040
C3 C 0.501(2) 0.3966(5) 1.163(2)
H2 H 0.49870 0.39220 1.28410
C4 C 0.452(2) 0.4333(5) 1.087(2)
H3 H 0.42400 0.45500 1.15670
C5 C 0.443(2) 0.4397(5) 0.911(2)
H4 H 0.40170 0.46510 0.85660
C6 C 0.496(2) 0.4087(5) 0.813(2)
H5 H 0.49220 0.41350 0.69160
C7 C 0.609(2) 0.3377(5) 0.778(2)
C8 C 0.775(3) 0.3207(9) 0.825(3)
C9 C 0.932(2) 0.3363(6) 0.970(2)
H6 H 0.90780 0.36070 1.02580
C10 C 1.092(3) 0.3214(7) 1.028(3)
H7 H 1.12570 0.29700 0.97800
H8 H 1.17870 0.33460 1.12130
C11 C 0.461(2) 0.3231(7) 0.623(3)
H9 H 0.50110 0.29780 0.57690
H10 H 0.43770 0.34380 0.52920
H11 H 0.34620 0.31810 0.66140
C12 C 0.8154(16) 0.2842(4) 0.7181(14)
C13 C 0.9431(17) 0.2893(4) 0.6106(15)
H12 H 1.00530 0.31470 0.61330
C14 C 0.9797(15) 0.2593(4) 0.5037(15)
H13 H 1.06120 0.26410 0.42830
C15 C 0.8966(13) 0.2211(4) 0.5052(13)
H14 H 0.92280 0.19970 0.43240
C16 C 0.7751(13) 0.2147(4) 0.6142(13)
H15 H 0.71960 0.18880 0.61710
C17 C 0.7343(13) 0.2463(4) 0.7194(12)
C18 C 0.6013(13) 0.2378(4) 0.8364(13)
C19 C 0.4254(12) 0.2237(4) 0.7636(13)
H16 H 0.38660 0.21890 0.63930
C20 C 0.3049(14) 0.2166(4) 0.8710(13)
H17 H 0.18340 0.20670 0.82060
C21 C 0.3596(11) 0.2238(4) 1.0490(13)
C22 C 0.5394(16) 0.2368(4) 1.1293(14)
H18 H 0.57980 0.24020 1.25440
C23 C 0.6553(14) 0.2446(4) 1.0189(14)
H19 H 0.77610 0.25490 1.06880
C24? C 0.601(7) 0.3691(10) 0.939(5)
C25? C 0.632(7) 0.3626(10) 1.126(5)
H20? H 0.69780 0.33920 1.17890
C26? C 0.566(8) 0.3907(12) 1.230(5)
H21? H 0.54820 0.38320 1.34280
C27? C 0.526(8) 0.4290(11) 1.167(6)
H22? H 0.49350 0.44910 1.24180
C28? C 0.532(9) 0.4392(10) 0.997(6)
H23? H 0.50920 0.46640 0.95620
C29? C 0.570(8) 0.4092(11) 0.886(5)
H24? H 0.57590 0.41640 0.76880
C30? C 0.628(7) 0.3362(13) 0.817(5)
C31? C 0.79(1) 0.318(4) 0.838(13)
C32? C 0.954(8) 0.325(2) 0.992(10)
H25? H 0.93450 0.34430 1.07780
C33? C 1.113(8) 0.309(3) 1.024(14)
H26? H 1.14120 0.28950 0.94400
H27? H 1.20390 0.31640 1.12790
C34? C 0.476(10) 0.332(3) 0.651(9)
H28? H 0.52570 0.31880 0.55840
H29? H 0.42900 0.35910 0.60920
H30? H 0.37520 0.31560 0.67500
C35 C 0.975(2) -0.0305(4) 0.626(2)
C36 C 1.004(3) -0.0220(6) 0.461(3)
H31 H 0.99030 0.00500 0.41590
C37 C 1.054(3) -0.0544(7) 0.358(3)
H32 H 1.07480 -0.04870 0.24480
C38 C 1.071(3) -0.0925(6) 0.419(3)
H33 H 1.11000 -0.11370 0.35210
C39 C 1.031(3) -0.1006(7) 0.585(3)
H34 H 1.03260 -0.12770 0.62840
C40 C 0.991(3) -0.0694(7) 0.682(3)
H35 H 0.97190 -0.07520 0.79630
C41 C 0.9343(16) 0.0033(5) 0.7417(19)
C42 C 0.7669(13) 0.0230(4) 0.7027(16)
C43 C 0.6150(16) 0.0078(5) 0.5525(19)
H36 H 0.63690 -0.01570 0.48940
C44 C 0.4479(16) 0.0264(5) 0.503(2)
H37 H 0.42330 0.05000 0.56480
H38 H 0.35500 0.01580 0.40730
C45 C 1.088(2) 0.0142(6) 0.897(2)
H39 H 1.03760 0.02820 0.98660
H40 H 1.17620 0.03220 0.85810
H41 H 1.15240 -0.01060 0.94880
C46 C 0.7270(16) 0.0567(4) 0.8147(16)
C47 C 0.6121(19) 0.0508(4) 0.9269(18)
H42 H 0.55690 0.02490 0.93240
C48 C 0.5752(19) 0.0828(4) 1.0340(18)
H43 H 0.49190 0.07850 1.10800
C49 C 0.655(3) 0.1191(4) 1.034(3)
H44 H 0.63060 0.14010 1.10890
C50 C 0.774(2) 0.1260(5) 0.921(2)
H45 H 0.83150 0.15190 0.92030
C51 C 0.8094(17) 0.0950(4) 0.8106(16)
N2 N 1.3050(14) 0.1259(5) 0.3697(13)
O3 O 1.2553(14) 0.1212(4) 0.2075(12)
O4 O 1.4679(14) 0.1371(4) 0.4398(14)
C52 C 0.9367(17) 0.1032(4) 0.6942(16)
C53 C 1.1161(19) 0.1177(5) 0.7663(18)
H46 H 1.15320 0.12300 0.89030
C54 C 1.2418(19) 0.1247(5) 0.6624(17)
H47 H 1.36580 0.13290 0.71370
C55 C 1.1778(17) 0.1191(5) 0.4795(15)
C56 C 1.0040(16) 0.1055(4) 0.4028(16)
H48 H 0.96580 0.10270 0.27730
C57 C 0.8812(19) 0.0958(5) 0.5079(17)
H49 H 0.76270 0.08460 0.45580
C58? C 0.846(4) -0.0290(6) 0.541(3)
C59? C 0.879(5) -0.0663(7) 0.624(4)
H50? H 0.85270 -0.07070 0.73660
C60? C 0.952(6) -0.0984(8) 0.536(4)
H51? H 0.97060 -0.12460 0.58860
C61? C 0.995(6) -0.0920(8) 0.380(4)
H52? H 1.02850 -0.11390 0.31480
C62? C 0.989(6) -0.0514(9) 0.316(5)
H53? H 1.02530 -0.04540 0.20940
C63? C 0.931(6) -0.0216(8) 0.409(5)
H54? H 0.94970 0.00590 0.37940
C64? C 0.769(3) 0.0052(7) 0.632(3)
C65? C 0.871(3) 0.0235(7) 0.782(3)
C66? C 1.055(5) 0.0061(12) 0.877(5)
H55? H 1.10060 -0.01760 0.83190
C67? C 1.156(4) 0.0239(10) 1.027(4)
H56? H 1.11050 0.04760 1.07270
H57? H 1.27230 0.01270 1.08660
C68? C 0.587(4) 0.0216(12) 0.530(5)
H58? H 0.55690 0.04630 0.58770
H59? H 0.48980 0.00120 0.52600
H60? H 0.59450 0.02810 0.40810
C69? C 0.798(3) 0.0584(6) 0.866(3)
C70? C 0.703(5) 0.0519(7) 0.995(5)
H61? H 0.67960 0.02490 1.02750
C71? C 0.639(6) 0.0850(8) 1.078(5)
H62? H 0.56020 0.08020 1.15660
C72? C 0.685(9) 0.1230(7) 1.050(8)
H63? H 0.63560 0.14520 1.10190
C73? C 0.810(8) 0.1301(6) 0.941(7)
H64? H 0.85450 0.15680 0.93050
C74? C 0.866(4) 0.0978(6) 0.850(4)
N3? N 1.361(3) 0.1262(14) 0.407(3)
O5? O 1.300(4) 0.1304(12) 0.245(3)
O6? O 1.529(3) 0.1334(13) 0.476(4)
C75? C 0.995(3) 0.1059(10) 0.735(3)
C76? C 1.178(4) 0.1180(15) 0.807(3)
H65? H 1.21780 0.12270 0.93170
C77? C 1.305(4) 0.1232(15) 0.703(3)
H66? H 1.43210 0.12890 0.75350
C78? C 1.236(4) 0.1198(14) 0.519(3)
C79? C 1.065(4) 0.1039(14) 0.446(3)
H67? H 1.03700 0.09300 0.32900
C80? C 0.931(3) 0.1040(14) 0.546(3)
H68? H 0.80240 0.10280 0.49030
#END
