
#######################################################################
#
#                 Cambridge Crystallographic Data Centre
#                                CCDC
#
#######################################################################
#
# If this CIF has been generated from an entry in the Cambridge
# Structural Database, then it will include bibliographic, chemical,
# crystal, experimental, refinement or atomic coordinate data resulting
# from the CCDC's data processing and validation procedures.
#
#######################################################################

data_CSD_CIF_TEGXOV
_audit_creation_date 2017-08-14
_audit_creation_method CSD-ConQuest-V1
_database_code_CSD TEGXOV
_database_code_depnum_ccdc_archive 'CCDC 1557049'
_chemical_formula_sum 'C12 H23 N2 O2'
_chemical_formula_moiety
;
C12 H23 N2 O2
;
_journal_coden_Cambridge 1147
_journal_volume 17
_journal_year 2017
_journal_page_first 4893
_journal_name_full 'Cryst.Growth Des. '
loop_
_publ_author_name
"Yan-Li Gao"
"K.Yu.Maryunina"
"S.Hatano"
"S.Nishihara"
"K.Inoue"
"M.Kurmoo"
_chemical_name_systematic
;
1-hydroxy-2,2-pentamethylene-4,4,5,5-tetramethylimidazolidine-oxyl radical
;
_cell_volume   1322.453
_exptl_crystal_colour 'orange'
_exptl_crystal_density_diffrn 1.142
_exptl_special_details
;
Magnetic properties
Moisture-sensitive

;
_exptl_crystal_description 'needle'
_exptl_crystal_preparation 'hexane'
_diffrn_ambient_temperature 296
#These two values have been output from a single CSD field.
_refine_ls_R_factor_gt 0.0599
_refine_ls_wR_factor_gt 0.0599
_symmetry_cell_setting monoclinic
_symmetry_space_group_name_H-M 'P 21/c'
_symmetry_Int_Tables_number 14
loop_
_symmetry_equiv_pos_site_id
_symmetry_equiv_pos_as_xyz
1 x,y,z
2 -x,1/2+y,1/2-z
3 -x,-y,-z
4 x,-1/2-y,-1/2+z
_cell_length_a 8.6129(7)
_cell_length_b 13.4464(10)
_cell_length_c 11.9759(11)
_cell_angle_alpha 90
_cell_angle_beta 107.543(3)
_cell_angle_gamma 90
_cell_formula_units_Z 4
loop_
_atom_type_symbol
_atom_type_radius_bond
C 0.68
H 0.23
N 0.68
O 0.68
loop_
_atom_site_label
_atom_site_type_symbol
_atom_site_fract_x
_atom_site_fract_y
_atom_site_fract_z
O1 O 0.3367(2) 0.86589(13) 0.18290(14)
O2 O 0.1828(2) 0.66542(13) 0.44657(16)
H1 H 0.237(4) 0.666(2) 0.524(3)
N1 N 0.2661(2) 0.83653(13) 0.25658(14)
N2 N 0.2255(2) 0.76242(13) 0.41492(15)
C1 C 0.5957(4) 0.6022(2) 0.3946(3)
H2 H 0.65140 0.62040 0.33830
H3 H 0.65310 0.54640 0.44010
C2 C 0.4231(4) 0.5720(2) 0.3309(3)
H4 H 0.37280 0.54540 0.38690
H5 H 0.42460 0.51960 0.27550
C3 C 0.3215(3) 0.65770(17) 0.2660(2)
H6 H 0.20870 0.63650 0.23850
H7 H 0.35550 0.67250 0.19760
C4 C 0.3311(2) 0.75410(15) 0.33719(18)
C5 C 0.1439(3) 0.89757(16) 0.28930(18)
C6 C 0.0260(3) 0.9419(2) 0.1790(2)
H8 H 0.08050 0.99270 0.14850
H9 H -0.06540 0.97040 0.19760
H10 H -0.01120 0.89060 0.12130
C7 C 0.2329(4) 0.98145(19) 0.3708(2)
H11 H 0.29440 0.95380 0.44490
H12 H 0.15470 1.02790 0.38260
H13 H 0.30520 1.01500 0.33600
C8 C 0.0728(3) 0.81695(17) 0.35134(18)
C9 C -0.0024(4) 0.8580(2) 0.4421(2)
H14 H -0.04200 0.80390 0.47840
H15 H -0.09110 0.90150 0.40440
H16 H 0.07860 0.89430 0.50070
C10 C -0.0527(3) 0.7517(2) 0.2648(2)
H17 H -0.01270 0.73390 0.20080
H18 H -0.15300 0.78770 0.23540
H19 H -0.07120 0.69250 0.30380
C11 C 0.5977(3) 0.6893(3) 0.4751(3)
H20 H 0.54570 0.67040 0.53340
H21 H 0.70930 0.70780 0.51550
C12 C 0.5091(3) 0.7769(2) 0.4057(2)
H22 H 0.56600 0.79790 0.35110
H23 H 0.51160 0.83170 0.45890
#END
