
#######################################################################
#
#                 Cambridge Crystallographic Data Centre
#                                CCDC
#
#######################################################################
#
# If this CIF has been generated from an entry in the Cambridge
# Structural Database, then it will include bibliographic, chemical,
# crystal, experimental, refinement or atomic coordinate data resulting
# from the CCDC's data processing and validation procedures.
#
#######################################################################

data_CSD_CIF_TEHCAK
_audit_creation_date 1996-10-31
_audit_creation_method CSD-ConQuest-V1
_database_code_CSD TEHCAK
_database_code_depnum_ccdc_archive 'CCDC 127098'
_chemical_formula_sum 'C26 H31 N1 O3'
_chemical_formula_moiety
;
C26 H31 N1 O3
;
_journal_coeditor_code "IUCr KA1137"
_journal_coden_Cambridge 591
_journal_volume 52
_journal_year 1996
_journal_page_first 2037
_journal_name_full 'Acta Crystallogr.,Sect.C:Cryst.Struct.Commun. '
loop_
_publ_author_name
"S.Stankovic"
"D.Lazar"
"D.Miljkovic"
"L.Medic-Mijacevic"
"K.Gasi"
"R.Kovacevic"
"C.Courseille"
_chemical_name_systematic
;
17\a-Benzyl-17\b-hydroxy-16-hydroxyimino-3-methoxyestra-1,3,5(10)-triene
;
_chemical_melting_point 475
_cell_volume   1118.040
_exptl_crystal_colour 'colorless'
_exptl_crystal_density_diffrn 1.2
_exptl_special_details
;
Melting point range 475-477K
exhibits a noticeable residual estrogenic activity
;
_diffrn_ambient_temperature ?
_diffrn_special_details
;
The study was carried out at room temperature,in the range 283-303K

;
#These two values have been output from a single CSD field.
_refine_ls_R_factor_gt 0.067
_refine_ls_wR_factor_gt 0.067
_symmetry_cell_setting triclinic
_symmetry_space_group_name_H-M 'P 1'
_symmetry_Int_Tables_number 1
loop_
_symmetry_equiv_pos_site_id
_symmetry_equiv_pos_as_xyz
1 x,y,z
_cell_length_a 7.345(3)
_cell_length_b 10.532(3)
_cell_length_c 15.129(4)
_cell_angle_alpha 102.00(2)
_cell_angle_beta 100.16(2)
_cell_angle_gamma 80.99(3)
_cell_formula_units_Z 2
loop_
_atom_type_symbol
_atom_type_radius_bond
C 0.68
H 0.23
N 0.68
O 0.68
loop_
_atom_site_label
_atom_site_type_symbol
_atom_site_fract_x
_atom_site_fract_y
_atom_site_fract_z
C1 C -0.2158(10) -0.7457(8) -0.3614(5)
C2 C -0.1753(11) -0.6562(8) -0.2839(5)
C3 C -0.2955(11) -0.6266(8) -0.2180(5)
C4 C -0.4493(10) -0.6884(7) -0.2313(5)
C5 C -0.4893(10) -0.7812(7) -0.3112(5)
C6 C -0.6619(11) -0.8493(9) -0.3209(5)
C7 C -0.7292(10) -0.9112(8) -0.4204(5)
C8 C -0.5651(10) -0.9897(7) -0.4607(5)
C9 C -0.4255(8) -0.8998(7) -0.4675(5)
C10 C -0.3755(10) -0.8085(7) -0.3772(5)
C11 C -0.2569(9) -0.9794(7) -0.5108(6)
C12 C -0.3154(10) -1.0648(6) -0.6047(6)
C13 C -0.4607(8) -1.1523(6) -0.5975(5)
C14 C -0.6247(8) -1.0664(7) -0.5597(5)
C15 C -0.7762(10) -1.1543(7) -0.5725(5)
C16 C -0.7346(9) -1.2495(6) -0.6594(5)
C17 C -0.5614(9) -1.2263(6) -0.6883(5)
C18 C -0.3659(11) -1.2581(7) -0.5418(5)
C19 C -0.6039(11) -1.1439(7) -0.7656(5)
C20 C -0.7450(12) -1.1893(7) -0.8469(5)
C21 C -0.6930(14) -1.2669(9) -0.9228(5)
C22 C -0.8192(18) -1.310(1) -1.0013(7)
C23 C -1.0021(18) -1.2770(11) -1.0005(7)
C24 C -1.0690(14) -1.1915(12) -0.9211(9)
C25 C -0.9384(12) -1.1488(10) -0.8451(7)
C26 C -0.3895(14) -0.4769(9) -0.0848(6)
N1 N -0.8249(8) -1.3425(5) -0.7015(4)
O1 O -0.2502(9) -0.5301(6) -0.1435(4)
O2 O -0.4576(7) -1.3473(4) -0.7273(3)
O3 O -0.9865(7) -1.3489(5) -0.6669(4)
C27 C -0.5522(13) -1.1683(9) -0.1787(6)
C28 C -0.5333(15) -1.2597(9) -0.2584(6)
C29 C -0.6899(14) -1.2765(8) -0.3249(6)
C30 C -0.8518(13) -1.1960(9) -0.3129(6)
C31 C -0.8713(11) -1.1081(7) -0.2322(5)
C32 C -1.0576(12) -1.0188(9) -0.2237(6)
C33 C -1.0782(11) -0.9552(8) -0.1265(6)
C34 C -0.9058(10) -0.8934(7) -0.0769(5)
C35 C -0.7358(9) -1.0045(7) -0.0699(5)
C36 C -0.7215(11) -1.0926(8) -0.1627(5)
C37 C -0.5588(10) -0.9467(8) -0.0212(6)
C38 C -0.5844(10) -0.8705(8) 0.0759(5)
C39 C -0.7490(9) -0.7629(7) 0.0707(5)
C40 C -0.9237(9) -0.8250(7) 0.0205(5)
C41 C -1.0817(9) -0.7138(8) 0.0368(5)
C42 C -1.0166(10) -0.6393(7) 0.1290(5)
C43 C -0.8162(9) -0.6928(6) 0.1643(5)
C44 C -0.7043(13) -0.6541(8) 0.0269(6)
C45 C -0.8164(11) -0.7895(7) 0.2283(6)
C46 C -0.9384(13) -0.7412(8) 0.3010(5)
C47 C -0.8699(16) -0.6632(10) 0.3818(5)
C48 C -0.985(3) -0.6079(13) 0.4436(10)
C49 C -1.162(3) -0.6349(17) 0.4291(13)
C50 C -1.2379(19) -0.7127(18) 0.3500(15)
C51 C -1.1172(13) -0.7655(11) 0.2894(7)
C52 C -0.5426(19) -1.4665(10) -0.4119(7)
N2 N -1.0958(8) -0.5379(5) 0.1782(5)
O4 O -0.6892(11) -1.3619(7) -0.4056(4)
O5 O -0.7048(7) -0.5961(5) 0.2146(4)
O6 O -1.2762(7) -0.4997(5) 0.1319(4)
H1 H -0.123(1) -0.768(1) -0.412(1)
H2 H -0.051(1) -0.609(1) -0.273(1)
H3 H -0.541(1) -0.666(1) -0.180(1)
H4 H -0.629(1) -0.926(1) -0.281(1)
H5 H -0.773(1) -0.779(1) -0.296(1)
H6 H -0.789(1) -0.835(1) -0.459(1)
H7 H -0.833(1) -0.974(1) -0.422(1)
H8 H -0.503(1) -1.058(1) -0.416(1)
H9 H -0.491(1) -0.835(1) -0.514(1)
H10 H -0.181(1) -1.043(1) -0.465(1)
H11 H -0.167(1) -0.912(1) -0.519(1)
H12 H -0.194(1) -1.126(1) -0.628(1)
H13 H -0.376(1) -1.002(1) -0.653(1)
H14 H -0.681(1) -0.987(1) -0.595(1)
H15 H -0.763(1) -1.204(1) -0.516(1)
H16 H -0.914(1) -1.100(1) -0.582(1)
H17 H -0.293(1) -1.212(1) -0.478(1)
H18 H -0.268(1) -1.325(1) -0.580(1)
H19 H -0.470(1) -1.311(1) -0.529(1)
H20 H -0.985(1) -1.085(1) -0.785(1)
H21 H -0.475(1) -1.144(1) -0.790(1)
H22 H -0.654(1) -1.045(1) -0.736(1)
H23 H -0.546(1) -1.298(1) -0.924(1)
H24 H -0.768(2) -1.369(1) -1.061(1)
H25 H -1.100(2) -1.314(1) -1.059(1)
H26 H -1.216(1) -1.161(1) -0.921(1)
H27 H -0.335(1) -0.403(1) -0.030(1)
H28 H -0.425(1) -0.554(1) -0.057(1)
H29 H -0.512(1) -0.434(1) -0.124(1)
H30 H -0.431(1) -1.155(1) -0.127(1)
H31 H -0.400(2) -1.317(1) -0.268(1)
H32 H -0.968(1) -1.201(1) -0.368(1)
H33 H -1.170(1) -1.077(1) -0.251(1)
H34 H -1.066(1) -0.943(1) -0.263(1)
H35 H -1.197(1) -0.880(1) -0.127(1)
H36 H -1.101(1) -1.029(1) -0.091(1)
H37 H -0.887(1) -0.822(1) -0.116(1)
H38 H -0.759(1) -1.069(1) -0.027(1)
H39 H -0.446(1) -1.025(1) -0.016(1)
H40 H -0.526(1) -0.881(1) -0.060(1)
H41 H -0.459(1) -0.827(1) 0.107(1)
H42 H -0.610(1) -0.937(1) 0.116(1)
H43 H -0.950(1) -0.908(1) 0.046(1)
H44 H -1.210(1) -0.752(1) 0.036(1)
H45 H -1.101(1) -0.653(1) -0.014(1)
H46 H -0.657(1) -0.697(1) -0.038(1)
H47 H -0.596(1) -0.604(1) 0.072(1)
H48 H -0.828(1) -0.586(1) 0.016(1)
H49 H -1.168(1) -0.831(1) 0.228(1)
H50 H -0.675(1) -0.811(1) 0.261(1)
H51 H -0.863(1) -0.878(1) 0.187(1)
H52 H -0.725(2) -0.647(1) 0.395(1)
H53 H -0.934(3) -0.542(1) 0.505(1)
H54 H -1.249(3) -0.594(2) 0.481(1)
H55 H -1.382(2) -0.730(2) 0.337(2)
H56 H -0.561(2) -1.526(1) -0.479(1)
H57 H -0.545(1) -1.525(1) -0.362(1)
H58 H -0.411(2) -1.428(1) -0.400(1)
#END
