
#######################################################################
#
#                 Cambridge Crystallographic Data Centre
#                                CCDC
#
#######################################################################
#
# If this CIF has been generated from an entry in the Cambridge
# Structural Database, then it will include bibliographic, chemical,
# crystal, experimental, refinement or atomic coordinate data resulting
# from the CCDC's data processing and validation procedures.
#
#######################################################################

data_CSD_CIF_TEHCOZ
_audit_creation_date 2006-07-20
_audit_creation_method CSD-ConQuest-V1
_database_code_CSD TEHCOZ
_database_code_depnum_ccdc_archive 'CCDC 607443'
_chemical_formula_sum 'C27 H27 N1 O4'
_chemical_formula_moiety
;
C27 H27 N1 O4
;
_journal_coden_Cambridge 4
_journal_volume 128
_journal_year 2006
_journal_page_first 3908
_journal_name_full 'J.Am.Chem.Soc. '
loop_
_publ_author_name
"P.S.Baran"
"N.Z.Burns"
_chemical_name_systematic
;
5-Methoxy-3,4a-bis(3-methoxyphenyl)-2,4a,9,9a-tetrahydro-1H-indeno(2,1-b)pyrid
in-1-ol
;
_cell_volume   1122.861
_exptl_crystal_colour 'colorless'
_exptl_crystal_density_diffrn 1.27
_exptl_crystal_description 'parallelepiped'
_diffrn_ambient_temperature 296
#These two values have been output from a single CSD field.
_refine_ls_R_factor_gt 0.0448
_refine_ls_wR_factor_gt 0.0448
_symmetry_cell_setting triclinic
_symmetry_space_group_name_H-M 'P -1'
_symmetry_Int_Tables_number 2
loop_
_symmetry_equiv_pos_site_id
_symmetry_equiv_pos_as_xyz
1 x,y,z
2 -x,-y,-z
_cell_length_a 9.6131(19)
_cell_length_b 10.559(2)
_cell_length_c 11.683(2)
_cell_angle_alpha 104.27(3)
_cell_angle_beta 97.57(3)
_cell_angle_gamma 97.47(3)
_cell_formula_units_Z 2
loop_
_atom_type_symbol
_atom_type_radius_bond
C 0.68
H 0.23
N 0.68
O 0.68
loop_
_atom_site_label
_atom_site_type_symbol
_atom_site_fract_x
_atom_site_fract_y
_atom_site_fract_z
O1 O 0.38232(14) 0.03660(11) 0.13101(12)
O2 O 0.33775(15) 0.15879(15) 0.55448(12)
O3 O 0.44006(13) 0.61663(10) 0.09136(11)
H1 H 0.49360 0.62370 0.04330
O4 O -0.15329(15) 0.32003(13) -0.33526(12)
N1 N 0.39212(14) 0.47738(12) 0.08018(12)
C1 C 0.3954(2) -0.09819(17) 0.12358(19)
H2 H 0.45760 -0.12650 0.06810
H3 H 0.30330 -0.15300 0.09650
H4 H 0.43400 -0.10570 0.20120
C2 C 0.50208(19) 0.13037(17) 0.16513(14)
C3 C 0.6406(2) 0.1039(2) 0.17241(17)
H5 H 0.65610 0.01670 0.15230
C4 C 0.7550(2) 0.2065(2) 0.2094(2)
H6 H 0.84680 0.18710 0.21280
C5 C 0.7363(2) 0.3366(2) 0.24116(19)
H7 H 0.81420 0.40490 0.26700
C6 C 0.59804(19) 0.36357(17) 0.23377(15)
C7 C 0.48203(18) 0.26228(16) 0.19455(14)
C8 C 0.34235(17) 0.31746(14) 0.19655(14)
C9 C 0.39535(18) 0.46577(15) 0.20337(14)
H8 H 0.33730 0.52430 0.24690
C10 C 0.54885(19) 0.49450(17) 0.26792(17)
H9 H 0.60580 0.56100 0.24130
H10 H 0.55390 0.52500 0.35400
C11 C 0.27945(17) 0.30809(14) 0.30944(14)
C12 C 0.15615(19) 0.36026(16) 0.32977(16)
H11 H 0.11510 0.40370 0.27720
C13 C 0.0950(2) 0.34774(19) 0.42719(17)
H12 H 0.01370 0.38440 0.44030
C14 C 0.1516(2) 0.28182(18) 0.50611(16)
H13 H 0.10890 0.27310 0.57130
C15 C 0.27259(18) 0.22952(16) 0.48574(14)
C16 C 0.33729(18) 0.24403(16) 0.38927(14)
H14 H 0.42060 0.21020 0.37820
C17 C 0.2663(3) 0.1241(3) 0.6438(2)
H15 H 0.26420 0.20270 0.70540
H16 H 0.31560 0.06510 0.67800
H17 H 0.17070 0.08090 0.60860
C18 C 0.23033(17) 0.25008(15) 0.08848(14)
H18 H 0.19090 0.16240 0.08000
C19 C 0.18326(16) 0.30614(14) 0.00417(14)
C20 C 0.24693(17) 0.44719(15) 0.01408(16)
H19 H 0.24730 0.45970 -0.06540
H20 H 0.18980 0.50700 0.05520
C21 C 0.07308(17) 0.23554(15) -0.10137(14)
C22 C 0.03732(19) 0.09686(16) -0.13575(16)
H21 H 0.08150 0.04770 -0.09040
C23 C -0.0621(2) 0.03296(17) -0.23559(17)
H22 H -0.08440 -0.05910 -0.25670
C24 C -0.13032(19) 0.10297(18) -0.30584(16)
H23 H -0.19760 0.05880 -0.37340
C25 C -0.09604(18) 0.23916(17) -0.27328(15)
C26 C 0.00426(18) 0.30418(16) -0.17255(14)
H24 H 0.02620 0.39620 -0.15200
C27 C -0.2601(3) 0.2613(2) -0.4373(2)
H25 H -0.22160 0.20170 -0.49630
H26 H -0.29220 0.32920 -0.47030
H27 H -0.33870 0.21310 -0.41440
#END
