
#######################################################################
#
#                 Cambridge Crystallographic Data Centre
#                                CCDC
#
#######################################################################
#
# If this CIF has been generated from an entry in the Cambridge
# Structural Database, then it will include bibliographic, chemical,
# crystal, experimental, refinement or atomic coordinate data resulting
# from the CCDC's data processing and validation procedures.
#
#######################################################################

data_CSD_CIF_TEHGUI01
_audit_creation_date 2001-04-02
_audit_creation_method CSD-ConQuest-V1
_database_code_CSD TEHGUI01
_database_code_depnum_ccdc_archive 'CCDC 160011'
_chemical_formula_sum 'C7 H8 N2 O2'
_chemical_formula_moiety
;
C7 H8 N2 O2
;
_journal_coeditor_code "IUCr SK1437"
_journal_coden_Cambridge 591
_journal_volume 57
_journal_year 2001
_journal_page_first 216
_journal_name_full 'Acta Crystallogr.,Sect.C:Cryst.Struct.Commun. '
loop_
_publ_author_name
"D.Cannon"
"C.Glidewell"
"J.N.Low"
"A.Quesada"
"J.L.Wardell"
_chemical_name_systematic
;
4-Methyl-2-nitroaniline
;
_cell_volume    710.809
_exptl_crystal_colour 'red'
_exptl_crystal_density_diffrn 1.422
_exptl_special_details
;
triclinic polymorph

;
_exptl_crystal_description 'block'
_exptl_crystal_preparation 'ethanol'
_diffrn_ambient_temperature 150
_refine_special_details
;
The methyl group hydrogen atoms, H14A-C and H24A-C, are equally disordered 
over two sites.
;
#These two values have been output from a single CSD field.
_refine_ls_R_factor_gt 0.071
_refine_ls_wR_factor_gt 0.071
_symmetry_cell_setting triclinic
_symmetry_space_group_name_H-M 'P -1'
_symmetry_Int_Tables_number 2
loop_
_symmetry_equiv_pos_site_id
_symmetry_equiv_pos_as_xyz
1 x,y,z
2 -x,-y,-z
_cell_length_a 7.8329(15)
_cell_length_b 7.990(2)
_cell_length_c 12.369(3)
_cell_angle_alpha 79.766(17)
_cell_angle_beta 81.257(19)
_cell_angle_gamma 69.646(8)
_cell_formula_units_Z 4
loop_
_atom_type_symbol
_atom_type_radius_bond
C 0.68
H 0.23
N 0.68
O 0.68
loop_
_atom_site_label
_atom_site_type_symbol
_atom_site_fract_x
_atom_site_fract_y
_atom_site_fract_z
C1 C 0.5024(5) 0.7393(5) -0.1528(3)
N1 N 0.3515(4) 0.8855(4) -0.1645(2)
C2 C 0.5877(5) 0.6730(5) -0.0541(3)
N2 N 0.5215(5) 0.7586(4) 0.0417(3)
O1 O 0.3786(4) 0.8923(4) 0.0435(2)
O2 O 0.6058(4) 0.6990(4) 0.1257(2)
C3 C 0.7437(5) 0.5176(5) -0.0483(3)
C4 C 0.8159(5) 0.4226(5) -0.1342(3)
C5 C 0.9803(6) 0.2544(5) -0.1284(3)
C6 C 0.7272(6) 0.4917(5) -0.2330(3)
C7 C 0.5794(6) 0.6414(5) -0.2416(3)
N3 N 0.3364(5) 0.9081(4) 0.3057(3)
C8 C 0.1956(6) 1.0524(5) 0.3327(3)
C9 C 0.1502(5) 1.1104(5) 0.4374(3)
N4 N 0.2575(5) 1.0122(4) 0.5270(3)
O3 O 0.3909(4) 0.8738(4) 0.5130(2)
O4 O 0.2122(4) 1.0671(4) 0.6182(2)
C10 C 0.0009(5) 1.2626(5) 0.4590(3)
C11 C -0.1107(6) 1.3626(5) 0.3805(3)
C12 C -0.2750(6) 1.5240(5) 0.4047(4)
C13 C -0.0677(6) 1.3065(5) 0.2759(3)
C14 C 0.0769(6) 1.1604(5) 0.2528(3)
H1 H 0.30220 0.91860 -0.22760
H2 H 0.30220 0.94790 -0.10910
H3 H 0.80060 0.47800 0.01850
H4 H 1.04370 0.23970 -0.20250
H5 H 0.94100 0.15000 -0.09900
H6 H 1.06350 0.26400 -0.07990
H7? H 0.98850 0.19610 -0.05180
H8? H 1.09110 0.28580 -0.15530
H9? H 0.96870 0.17170 -0.17440
H10 H 0.77460 0.42950 -0.29540
H11 H 0.52600 0.68150 -0.30960
H12 H 0.40960 0.84080 0.35560
H13 H 0.35560 0.88080 0.23800
H14 H -0.02330 1.29730 0.53090
H15 H -0.34670 1.56730 0.34090
H16 H -0.23420 1.61980 0.41950
H17 H -0.35100 1.48970 0.46940
H18? H -0.27460 1.55060 0.47900
H19? H -0.38700 1.49800 0.40030
H20? H -0.27030 1.62820 0.35040
H21 H -0.14290 1.37370 0.21900
H22 H 0.09980 1.12900 0.18010
#END
