
#######################################################################
#
#                 Cambridge Crystallographic Data Centre
#                                CCDC
#
#######################################################################
#
# If this CIF has been generated from an entry in the Cambridge
# Structural Database, then it will include bibliographic, chemical,
# crystal, experimental, refinement or atomic coordinate data resulting
# from the CCDC's data processing and validation procedures.
#
#######################################################################

data_CSD_CIF_TEHKEW
_audit_creation_date 1996-10-31
_audit_creation_method CSD-ConQuest-V1
_database_code_CSD TEHKEW
_database_code_depnum_ccdc_archive 'CCDC 127054'
_chemical_formula_sum 'C10 H10 N2 O2'
_chemical_formula_moiety
;
C10 H10 N2 O2
;
_journal_coeditor_code "IUCr AB1380"
_journal_coden_Cambridge 591
_journal_volume 52
_journal_year 1996
_journal_page_first 2102
_journal_name_full 'Acta Crystallogr.,Sect.C:Cryst.Struct.Commun. '
loop_
_publ_author_name
"K.Frydenvang"
"L.Brehm"
"R.di Biase"
"E.Falch"
_chemical_name_systematic
;
2-Ethyl-3-(3-pyridyl)-5(2H)-isoxazolone
;
_chemical_melting_point 366
_cell_volume    896.013
_exptl_crystal_colour 'colorless'
_exptl_crystal_density_diffrn 1.41
_exptl_special_details
;
Melting point range 366-368K

;
_diffrn_ambient_temperature 111
#These two values have been output from a single CSD field.
_refine_ls_R_factor_gt 0.0371
_refine_ls_wR_factor_gt 0.0371
_symmetry_cell_setting monoclinic
_symmetry_space_group_name_H-M 'P 21/n'
_symmetry_Int_Tables_number 14
loop_
_symmetry_equiv_pos_site_id
_symmetry_equiv_pos_as_xyz
1 x,y,z
2 1/2-x,1/2+y,1/2-z
3 -x,-y,-z
4 -1/2+x,-1/2-y,-1/2+z
_cell_length_a 7.571(1)
_cell_length_b 7.1610(7)
_cell_length_c 16.535(2)
_cell_angle_alpha 90
_cell_angle_beta 91.81(1)
_cell_angle_gamma 90
_cell_formula_units_Z 4
loop_
_atom_type_symbol
_atom_type_radius_bond
C 0.68
H 0.23
N 0.68
O 0.68
loop_
_atom_site_label
_atom_site_type_symbol
_atom_site_fract_x
_atom_site_fract_y
_atom_site_fract_z
O1 O 0.2471(1) 0.0826(1) 0.18706(5)
N1 N 0.4084(1) 0.0772(2) 0.23301(6)
C1 C 0.3691(2) 0.1160(2) 0.31162(7)
C2 C 0.1910(2) 0.1278(2) 0.31949(8)
C3 C 0.1102(2) 0.1083(2) 0.24081(8)
O2 O -0.0409(1) 0.1056(1) 0.21404(6)
C4 C 0.5094(2) 0.1285(2) 0.37490(7)
C5 C 0.6657(2) 0.0264(2) 0.37072(7)
N2 N 0.7956(1) 0.0314(2) 0.42752(6)
C6 C 0.7699(2) 0.1394(2) 0.49220(7)
C7 C 0.6173(2) 0.2430(2) 0.50325(7)
C8 C 0.4850(2) 0.2384(2) 0.44335(7)
C9 C 0.5497(2) 0.1639(2) 0.18728(7)
C10 C 0.6002(2) 0.0407(2) 0.11723(8)
H1 H 0.127(3) 0.142(3) 0.368(1)
H2 H 0.682(3) -0.056(3) 0.325(1)
H3 H 0.867(3) 0.140(3) 0.533(1)
H4 H 0.603(3) 0.312(3) 0.553(1)
H5 H 0.376(3) 0.316(3) 0.448(1)
H6 H 0.508(3) 0.290(3) 0.168(1)
H7 H 0.648(3) 0.181(3) 0.226(1)
H8 H 0.646(3) -0.082(3) 0.138(1)
H9 H 0.497(3) 0.019(3) 0.081(1)
H10 H 0.694(3) 0.104(3) 0.087(1)
#END
