
#######################################################################
#
#                 Cambridge Crystallographic Data Centre
#                                CCDC
#
#######################################################################
#
# If this CIF has been generated from an entry in the Cambridge
# Structural Database, then it will include bibliographic, chemical,
# crystal, experimental, refinement or atomic coordinate data resulting
# from the CCDC's data processing and validation procedures.
#
#######################################################################

data_CSD_CIF_TEHQOP
_audit_creation_date 2017-08-14
_audit_creation_method CSD-ConQuest-V1
_database_code_CSD TEHQOP
_database_code_depnum_ccdc_archive 'CCDC 1531765'
_chemical_formula_sum 'C21 H20 N2 O4'
_chemical_formula_moiety
;
C21 H20 N2 O4
;
_journal_coden_Cambridge 179
_journal_volume 56
_journal_year 2017
_journal_page_first 11252
_journal_name_full 'Angew.Chem.,Int.Ed. '
loop_
_publ_author_name
"L.-J.Riwar"
"N.Trapp"
"B.Kuhn"
"F.Diederich"
_chemical_name_systematic
;
1,5,7-trimethyl-7-[4-(4-nitrophenyl)buta-1,3-diyn-1-yl]-3-azabicyclo[3.3.1]non
ane-2,4-dione
;
_cell_volume   1861.458
_exptl_crystal_colour 'colorless'
_exptl_crystal_density_diffrn 1.3
_exptl_crystal_description 'plate'
_exptl_crystal_preparation 'CDCl3'
_diffrn_ambient_temperature 100
#These two values have been output from a single CSD field.
_refine_ls_R_factor_gt 0.0365
_refine_ls_wR_factor_gt 0.0365
_symmetry_cell_setting monoclinic
_symmetry_space_group_name_H-M 'P 21/c'
_symmetry_Int_Tables_number 14
loop_
_symmetry_equiv_pos_site_id
_symmetry_equiv_pos_as_xyz
1 x,y,z
2 -x,1/2+y,1/2-z
3 -x,-y,-z
4 x,-1/2-y,-1/2+z
_cell_length_a 11.4478(4)
_cell_length_b 17.6947(5)
_cell_length_c 9.6942(3)
_cell_angle_alpha 90
_cell_angle_beta 108.571(2)
_cell_angle_gamma 90
_cell_formula_units_Z 4
loop_
_atom_type_symbol
_atom_type_radius_bond
C 0.68
H 0.23
N 0.68
O 0.68
loop_
_atom_site_label
_atom_site_type_symbol
_atom_site_fract_x
_atom_site_fract_y
_atom_site_fract_z
O1 O 0.10109(10) 0.28316(6) 0.01335(12)
O2 O 0.12493(11) 0.16559(6) 0.07683(13)
O3 O 0.81273(10) 0.53330(6) 0.97535(12)
O4 O 0.52489(9) 0.44775(6) 1.16066(11)
N1 N 0.15017(11) 0.23300(7) 0.09974(14)
N2 N 0.67385(11) 0.49828(7) 1.08302(13)
H1 H 0.6149(15) 0.5147(10) 1.0013(17)
C1 C 0.24228(13) 0.25476(8) 0.23807(15)
C2 C 0.27251(13) 0.33035(8) 0.26267(16)
H2 H 0.23510 0.36750 0.19160
C3 C 0.35860(13) 0.35027(8) 0.39334(16)
H3 H 0.38100 0.40180 0.41270
C4 C 0.41333(13) 0.29511(8) 0.49790(16)
C5 C 0.38145(13) 0.21917(9) 0.46791(16)
H4 H 0.41910 0.18150 0.53770
C6 C 0.29586(13) 0.19876(8) 0.33779(17)
H5 H 0.27400 0.14720 0.31690
C7 C 0.50042(13) 0.31500(9) 0.63554(16)
C8 C 0.57188(14) 0.32662(8) 0.75500(16)
C9 C 0.65450(13) 0.33403(8) 0.89305(16)
C10 C 0.72719(13) 0.33653(8) 1.01393(16)
C11 C 0.81961(13) 0.33174(8) 1.16036(16)
C12 C 0.87313(14) 0.25104(9) 1.17481(17)
H6 H 0.80750 0.21430 1.16830
H7 H 0.93780 0.24580 1.26900
H8 H 0.90810 0.24180 1.09630
C13 C 0.92486(13) 0.38945(8) 1.17673(16)
H9 H 0.94690 0.38920 1.08590
H10 H 0.99810 0.37230 1.25640
C14 C 0.76056(13) 0.34331(8) 1.28115(16)
H11 H 0.81590 0.32090 1.37210
H12 H 0.68220 0.31470 1.25430
C15 C 0.73348(13) 0.42582(8) 1.31293(15)
C16 C 0.89560(13) 0.47192(8) 1.20882(16)
C17 C 0.85162(13) 0.47215(8) 1.34173(16)
H13 H 0.83620 0.52480 1.36580
H14 H 0.91660 0.45070 1.42610
C18 C 1.01202(14) 0.52011(9) 1.23465(17)
H15 H 1.03790 0.51890 1.14760
H16 H 1.07810 0.49980 1.31760
H17 H 0.99440 0.57230 1.25520
C19 C 0.68624(14) 0.42724(9) 1.44342(16)
H18 H 0.66430 0.47910 1.46050
H19 H 0.75070 0.40870 1.52980
H20 H 0.61330 0.39480 1.42370
C20 C 0.79429(13) 0.50365(8) 1.07914(16)
C21 C 0.63506(13) 0.45767(8) 1.18146(16)
#END
