
#######################################################################
#
#                 Cambridge Crystallographic Data Centre
#                                CCDC
#
#######################################################################
#
# If this CIF has been generated from an entry in the Cambridge
# Structural Database, then it will include bibliographic, chemical,
# crystal, experimental, refinement or atomic coordinate data resulting
# from the CCDC's data processing and validation procedures.
#
#######################################################################

data_CSD_CIF_TEJPED
_audit_creation_date 1996-10-31
_audit_creation_method CSD-ConQuest-V1
_database_code_CSD TEJPED
_database_code_depnum_ccdc_archive 'CCDC 127174'
_chemical_formula_sum 'C12 H17 N1 O3'
_chemical_formula_moiety
;
C12 H17 N1 O3
;
_journal_coeditor_code "IUCr BM1059"
_journal_coden_Cambridge 591
_journal_volume 52
_journal_year 1996
_journal_page_first 2343
_journal_name_full 'Acta Crystallogr.,Sect.C:Cryst.Struct.Commun. '
loop_
_publ_author_name
"M.S.Hussain"
"M.Ul-Haque"
_chemical_name_systematic
;
O-Acetyl-N-(o-hydroxybenzyl)-N-isopropylhydroxylamine
;
_chemical_melting_point 499.15
_cell_volume    637.026
_exptl_crystal_colour 'colorless'
_exptl_crystal_density_diffrn 1.16
_exptl_special_details
;
Melting point range 499.15-500.15K
Intramolecular hydrogen bonding between the hydroxy group and nitrogen atom
;
_diffrn_ambient_temperature ?
_diffrn_special_details
;
The study was carried out at room temperature,in the range 283-303K

;
#These two values have been output from a single CSD field.
_refine_ls_R_factor_gt 0.038
_refine_ls_wR_factor_gt 0.038
_symmetry_cell_setting triclinic
_symmetry_space_group_name_H-M 'P -1'
_symmetry_Int_Tables_number 2
loop_
_symmetry_equiv_pos_site_id
_symmetry_equiv_pos_as_xyz
1 x,y,z
2 -x,-y,-z
_cell_length_a 6.930(4)
_cell_length_b 9.597(6)
_cell_length_c 10.169(7)
_cell_angle_alpha 80.10(3)
_cell_angle_beta 89.94(6)
_cell_angle_gamma 73.22(2)
_cell_formula_units_Z 2
loop_
_atom_type_symbol
_atom_type_radius_bond
C 0.68
H 0.23
N 0.68
O 0.68
loop_
_atom_site_label
_atom_site_type_symbol
_atom_site_fract_x
_atom_site_fract_y
_atom_site_fract_z
O1 O 0.0771(5) 0.7336(4) 0.6421(4)
O2 O -0.1659(5) 0.6273(4) 0.6164(4)
O3 O 0.1017(5) 0.3274(4) 0.7436(4)
N1 N 0.1837(6) 0.5943(4) 0.7247(4)
C1 C 0.3430(7) 0.5178(5) 0.6458(5)
C2 C 0.4302(7) 0.3612(5) 0.7135(5)
C3 C 0.6375(7) 0.2981(6) 0.7311(6)
C4 C 0.7174(8) 0.1511(7) 0.7901(6)
C5 C 0.5916(8) 0.0667(6) 0.8344(6)
C6 C 0.3881(8) 0.1302(6) 0.8177(6)
C7 C 0.3051(6) 0.2728(5) 0.7589(5)
C8 C 0.2545(8) 0.6280(6) 0.8500(6)
C9 C 0.070(1) 0.6945(8) 0.9249(7)
C10 C 0.3934(9) 0.7248(7) 0.8298(7)
C11 C -0.1060(8) 0.7334(6) 0.5986(6)
C12 C -0.216(1) 0.8836(8) 0.5188(7)
H1 H 0.06600 0.42700 0.70000
H2 H 0.72400 0.35600 0.70000
H3 H 0.86000 0.10800 0.80100
H4 H 0.64700 -0.03200 0.87300
H5 H 0.30200 0.07200 0.85100
H6 H 0.33200 0.54100 0.90100
H7 H 0.44300 0.56700 0.63500
H8 H 0.28500 0.51900 0.56000
H9 H 0.11000 0.71700 1.00400
H10 H -0.00900 0.62900 0.93900
H11 H -0.01100 0.78600 0.86900
H12 H 0.50900 0.67500 0.78600
H13 H 0.43700 0.73600 0.91500
H14 H 0.32900 0.81800 0.77800
H15 H -0.13700 0.94800 0.51600
H16 H -0.34100 0.92100 0.55600
H17 H -0.24100 0.87100 0.42800
#END
