
#######################################################################
#
#                 Cambridge Crystallographic Data Centre
#                                CCDC
#
#######################################################################
#
# If this CIF has been generated from an entry in the Cambridge
# Structural Database, then it will include bibliographic, chemical,
# crystal, experimental, refinement or atomic coordinate data resulting
# from the CCDC's data processing and validation procedures.
#
#######################################################################

data_CSD_CIF_TEJREG
_audit_creation_date 2006-07-20
_audit_creation_method CSD-ConQuest-V1
_database_code_CSD TEJREG
_database_code_depnum_ccdc_archive 'CCDC 608508'
_chemical_formula_sum 'C12 H13 N1 O5'
_chemical_formula_moiety
;
C12 H13 N1 O5
;
_journal_coeditor_code "IUCr TK2021"
_journal_coden_Cambridge 1370
_journal_volume 62
_journal_year 2006
_journal_page_first o1782
_journal_name_full 'Acta Crystallogr.,Sect.E:Struct.Rep.Online '
loop_
_publ_author_name
"H.Carrasco-Altamirano"
"L.Espinoza-Catalan"
"C.Gallardo-Araya"
"W.Cardona-Villada"
"A.Ibanez"
"L.Alvarez-Thon"
_chemical_name_systematic
;
4-Allyl-2-methoxy-5-nitrophenylacetate
;
_cell_volume   1219.033
_exptl_crystal_colour 'yellow'
_exptl_crystal_density_diffrn 1.369
_exptl_crystal_description 'polyhedron'
_exptl_crystal_preparation 'ethyl acetate/n-hexane'
_diffrn_ambient_temperature 298
#These two values have been output from a single CSD field.
_refine_ls_R_factor_gt 0.045
_refine_ls_wR_factor_gt 0.045
_symmetry_cell_setting monoclinic
_symmetry_space_group_name_H-M 'P 21/c'
_symmetry_Int_Tables_number 14
loop_
_symmetry_equiv_pos_site_id
_symmetry_equiv_pos_as_xyz
1 x,y,z
2 -x,1/2+y,1/2-z
3 -x,-y,-z
4 x,-1/2-y,-1/2+z
_cell_length_a 10.209(2)
_cell_length_b 15.651(3)
_cell_length_c 7.8920(17)
_cell_angle_alpha 90
_cell_angle_beta 104.822(4)
_cell_angle_gamma 90
_cell_formula_units_Z 4
loop_
_atom_type_symbol
_atom_type_radius_bond
C 0.68
H 0.23
N 0.68
O 0.68
loop_
_atom_site_label
_atom_site_type_symbol
_atom_site_fract_x
_atom_site_fract_y
_atom_site_fract_z
O1 O 0.52732(18) 1.09009(11) 0.7496(2)
O2 O 0.37817(19) 1.00379(11) 0.6098(2)
O3 O 0.81043(14) 0.76771(8) 1.11320(18)
O4 O 1.00686(14) 0.89882(10) 1.0131(2)
O5 O 0.86427(14) 0.93270(8) 1.17710(17)
N1 N 0.4828(2) 1.01789(13) 0.7185(3)
C1 C 0.5604(2) 0.94721(14) 0.8176(3)
C2 C 0.52360(19) 0.86248(14) 0.7831(2)
C3 C 0.6084(2) 0.80148(13) 0.8837(3)
C4 C 0.72362(19) 0.82280(13) 1.0112(3)
C5 C 0.7545(2) 0.90877(13) 1.0417(3)
C6 C 0.6750(2) 0.97034(13) 0.9450(3)
C7 C 0.2012(3) 0.7791(2) 0.7397(4)
C8 C 0.2749(2) 0.83573(19) 0.7175(4)
C9 C 0.3999(2) 0.82926(15) 0.6513(3)
C10 C 0.8003(2) 0.67947(13) 1.0676(3)
C11 C 0.9906(2) 0.92169(13) 1.1494(3)
C12 C 1.0950(2) 0.94373(15) 1.3109(3)
H1 H 0.58650 0.74400 0.86420
H2 H 0.69770 1.02770 0.96450
H3 H 0.21930 0.72290 0.71480
H4 H 0.12620 0.79150 0.78180
H5 H 0.25130 0.89050 0.74480
H6 H 0.38660 0.86170 0.54350
H7 H 0.41450 0.77000 0.62520
H8 H 0.71100 0.65920 1.06450
H9 H 0.86590 0.64760 1.15320
H10 H 0.81740 0.67210 0.95440
H11 H 1.18230 0.94530 1.28620
H12 H 1.09540 0.90150 1.39920
H13 H 1.07520 0.99870 1.35210
#END
