
#######################################################################
#
#                 Cambridge Crystallographic Data Centre
#                                CCDC
#
#######################################################################
#
# If this CIF has been generated from an entry in the Cambridge
# Structural Database, then it will include bibliographic, chemical,
# crystal, experimental, refinement or atomic coordinate data resulting
# from the CCDC's data processing and validation procedures.
#
#######################################################################

data_CSD_CIF_TEKLIE
_audit_creation_date 1997-01-23
_audit_creation_method CSD-ConQuest-V1
_database_code_CSD TEKLIE
_database_code_depnum_ccdc_archive 'CCDC 128044'
_chemical_formula_sum 'C22 H30 N2 O5'
_chemical_formula_moiety
;
C22 H30 N2 O5
;
_journal_coeditor_code "IUCr NA1237"
_journal_coden_Cambridge 591
_journal_volume 52
_journal_year 1996
_journal_page_first 2536
_journal_name_full 'Acta Crystallogr.,Sect.C:Cryst.Struct.Commun. '
loop_
_publ_author_name
"P.Merino"
"F.L.Merchan"
"T.Tejero"
"A.Lanaspa"
_chemical_name_systematic
;
(1R,2R)-N-Benzyl-N-((3-t-butoxycarbonyl-2,2-dimethyloxazol-4-yl)(furan-2-yl)me
thyl)hydroxylamine
;
_chemical_melting_point 385
_cell_volume   2272.837
_exptl_crystal_colour 'colorless'
_exptl_crystal_density_diffrn 1.176
_diffrn_ambient_temperature ?
_diffrn_special_details
;
The study was carried out at room temperature,in the range 283-303K

;
#These two values have been output from a single CSD field.
_refine_ls_R_factor_gt 0.0375
_refine_ls_wR_factor_gt 0.0375
_symmetry_cell_setting orthorhombic
_symmetry_space_group_name_H-M 'P 21 21 21'
_symmetry_Int_Tables_number 19
loop_
_symmetry_equiv_pos_site_id
_symmetry_equiv_pos_as_xyz
1 x,y,z
2 1/2-x,-y,1/2+z
3 1/2+x,1/2-y,-z
4 -x,1/2+y,1/2-z
_cell_length_a 12.314(1)
_cell_length_b 12.425(1)
_cell_length_c 14.855(5)
_cell_angle_alpha 90
_cell_angle_beta 90
_cell_angle_gamma 90
_cell_formula_units_Z 4
loop_
_atom_type_symbol
_atom_type_radius_bond
C 0.68
H 0.23
N 0.68
O 0.68
loop_
_atom_site_label
_atom_site_type_symbol
_atom_site_fract_x
_atom_site_fract_y
_atom_site_fract_z
O1 O 0.5478(2) 0.1710(2) 0.8350(2)
C1 C 0.5119(2) 0.2392(2) 0.7693(2)
C2 C 0.5968(3) 0.2740(4) 0.7225(2)
H1 H 0.5957(3) 0.3227(4) 0.6750(2)
C3 C 0.6913(3) 0.2213(4) 0.7601(2)
H2 H 0.7626(3) 0.2285(4) 0.7404(2)
C4 C 0.6577(3) 0.1625(3) 0.8261(3)
H3 H 0.7022(3) 0.1204(3) 0.8624(3)
C5 C 0.3495(2) 0.1039(2) 0.6689(2)
H4 H 0.3395(2) 0.0656(2) 0.7252(2)
H5 H 0.4228(2) 0.0900(2) 0.6480(2)
C6 C 0.2701(2) 0.0612(2) 0.6007(2)
C7 C 0.1887(2) 0.1237(2) 0.5656(2)
H6 H 0.1832(2) 0.1955(2) 0.5826(2)
C8 C 0.1141(3) 0.0811(3) 0.5050(2)
H7 H 0.0599(3) 0.1245(3) 0.4810(2)
C9 C 0.1209(3) -0.0252(3) 0.4806(2)
H8 H 0.0707(3) -0.0541(3) 0.4406(2)
C10 C 0.2012(3) -0.0886(3) 0.5152(3)
H9 H 0.2058(3) -0.1605(3) 0.4983(3)
C11 C 0.2756(3) -0.0466(2) 0.5749(2)
H10 H 0.3298(3) -0.0905(2) 0.5983(2)
O2 O 0.30016(15) 0.3757(2) 0.92914(11)
C12 C 0.3921(2) 0.4101(3) 0.8787(2)
H11 H 0.4577(2) 0.3744(3) 0.8990(2)
H12 H 0.4019(2) 0.4873(3) 0.8831(2)
C13 C 0.3634(2) 0.3769(2) 0.7830(2)
H13 H 0.3998(2) 0.4233(2) 0.7391(2)
N1 N 0.2461(2) 0.3970(2) 0.78406(13)
C14 C 0.2049(2) 0.4033(2) 0.8790(2)
C15 C 0.1213(2) 0.3179(3) 0.8993(2)
H14 H 0.0557(2) 0.3333(3) 0.8669(2)
H15 H 0.1064(2) 0.3172(3) 0.9628(2)
H16 H 0.1486(2) 0.2488(3) 0.8812(2)
C16 C 0.1682(3) 0.5158(3) 0.9039(2)
H17 H 0.1043(3) 0.5339(3) 0.8701(2)
H18 H 0.2249(3) 0.5662(3) 0.8903(2)
H19 H 0.1521(3) 0.5186(3) 0.9671(2)
C17 C 0.1896(2) 0.4182(2) 0.7082(2)
O3 O 0.2289(2) 0.4235(2) 0.63310(11)
O4 O 0.08402(14) 0.4342(2) 0.72687(12)
C18 C 0.0040(2) 0.4602(3) 0.6563(2)
C19 C 0.0355(3) 0.5660(3) 0.6125(2)
H20 H 0.0400(3) 0.6212(3) 0.6576(2)
H21 H -0.0182(3) 0.5855(3) 0.5686(2)
H22 H 0.1048(3) 0.5583(3) 0.5835(2)
C20 C -0.0994(3) 0.4740(4) 0.7101(3)
H23 H -0.0907(3) 0.5323(4) 0.7519(3)
H24 H -0.1146(3) 0.4089(4) 0.7425(3)
H25 H -0.1585(3) 0.4896(4) 0.6700(3)
C21 C -0.0045(3) 0.3703(4) 0.5898(3)
H26 H 0.0625(3) 0.3642(4) 0.5572(3)
H27 H -0.0626(3) 0.3849(4) 0.5485(3)
H28 H -0.0188(3) 0.3042(4) 0.6210(3)
O5 O 0.3875(2) 0.2722(2) 0.60851(11)
N2 N 0.3369(2) 0.2192(2) 0.68500(13)
C22 C 0.3912(2) 0.2576(2) 0.7663(2)
H29 H 0.3602(2) 0.2171(2) 0.8167(2)
H30 H 0.3282(31) 0.3261(30) 0.6064(25)
#END
