
#######################################################################
#
#                 Cambridge Crystallographic Data Centre
#                                CCDC
#
#######################################################################
#
# If this CIF has been generated from an entry in the Cambridge
# Structural Database, then it will include bibliographic, chemical,
# crystal, experimental, refinement or atomic coordinate data resulting
# from the CCDC's data processing and validation procedures.
#
#######################################################################

data_CSD_CIF_TEKMOL
_audit_creation_date 1997-01-23
_audit_creation_method CSD-ConQuest-V1
_database_code_CSD TEKMOL
_database_code_depnum_ccdc_archive 'CCDC 127969'
_chemical_formula_sum 'C14 H12 N2 O3'
_chemical_formula_moiety
;
C14 H12 N2 O3
;
_journal_coeditor_code "IUCr AB1402"
_journal_coden_Cambridge 591
_journal_volume 52
_journal_year 1996
_journal_page_first 2548
_journal_name_full 'Acta Crystallogr.,Sect.C:Cryst.Struct.Commun. '
loop_
_publ_author_name
"W.Clegg"
"M.R.J.Elsegood"
"S.L.Heath"
"A.Houlton"
"M.A.Shipman"
_chemical_name_systematic
;
p-Nitro-N-(p-methoxybenzylidene)aniline
;
_chemical_melting_point 395
_cell_volume   2419.767
_exptl_crystal_colour 'yellow'
_exptl_crystal_density_diffrn 1.407
_exptl_special_details
;
Melting point range 395-396.5K

;
_diffrn_ambient_temperature 160
#These two values have been output from a single CSD field.
_refine_ls_R_factor_gt 0.0386
_refine_ls_wR_factor_gt 0.0386
_symmetry_cell_setting monoclinic
_symmetry_space_group_name_H-M 'P 21/n'
_symmetry_Int_Tables_number 14
loop_
_symmetry_equiv_pos_site_id
_symmetry_equiv_pos_as_xyz
1 x,y,z
2 1/2-x,1/2+y,1/2-z
3 -x,-y,-z
4 -1/2+x,-1/2-y,-1/2+z
_cell_length_a 11.4508(10)
_cell_length_b 7.3793(7)
_cell_length_c 29.047(3)
_cell_angle_alpha 90
_cell_angle_beta 99.642(2)
_cell_angle_gamma 90
_cell_formula_units_Z 8
loop_
_atom_type_symbol
_atom_type_radius_bond
C 0.68
H 0.23
N 0.68
O 0.68
loop_
_atom_site_label
_atom_site_type_symbol
_atom_site_fract_x
_atom_site_fract_y
_atom_site_fract_z
O1 O 0.74678(11) 0.59374(19) -0.14399(4)
O2 O 0.56733(11) 0.65672(18) -0.17618(4)
N1 N 0.64361(12) 0.63512(19) -0.14161(5)
C1 C 0.61159(14) 0.6607(2) -0.09542(5)
C2 C 0.49467(14) 0.6950(2) -0.09207(6)
H1 H 0.43610 0.70050 -0.11940
C3 C 0.46390(14) 0.7211(2) -0.04872(6)
H2 H 0.38330 0.74130 -0.04620
C4 C 0.54996(13) 0.7181(2) -0.00839(6)
C5 C 0.66725(14) 0.6825(2) -0.01292(6)
H3 H 0.72640 0.67810 0.01420
C6 C 0.69862(14) 0.6534(2) -0.05622(6)
H4 H 0.77860 0.62870 -0.05900
N2 N 0.52740(11) 0.74359(19) 0.03741(5)
C7 C 0.42926(14) 0.8109(2) 0.04449(6)
H5 H 0.37240 0.84740 0.01850
C8 C 0.40201(13) 0.8332(2) 0.09130(5)
C9 C 0.29548(14) 0.9109(2) 0.09839(6)
H6 H 0.23850 0.94510 0.07220
C10 C 0.27126(14) 0.9390(2) 0.14307(6)
H7 H 0.19840 0.99260 0.14740
C11 C 0.35394(14) 0.8886(2) 0.18143(6)
C12 C 0.45998(14) 0.8062(2) 0.17486(6)
H8 H 0.51600 0.76870 0.20100
C13 C 0.48267(13) 0.7799(2) 0.13055(6)
H9 H 0.55490 0.72410 0.12640
O3 O 0.34108(10) 0.91301(16) 0.22686(4)
C14 C 0.24133(16) 1.0169(3) 0.23568(6)
H10 H 0.24660 1.03490 0.26940
H11 H 0.16800 0.95200 0.22350
H12 H 0.24120 1.13500 0.22020
O4 O 0.84749(12) 0.1158(2) 0.02056(4)
O5 O 1.02618(11) 0.1903(2) 0.05005(4)
N3 N 0.92548(13) 0.1453(2) 0.05406(5)
C15 C 0.89666(14) 0.1275(2) 0.10102(6)
C16 C 0.79105(14) 0.0450(2) 0.10647(6)
H13 H 0.73980 -0.00430 0.08040
C17 C 0.76200(14) 0.0360(2) 0.15061(6)
H14 H 0.69000 -0.02010 0.15490
C18 C 0.83706(14) 0.1084(2) 0.18894(6)
C19 C 0.94510(13) 0.1845(2) 0.18268(6)
H15 H 0.99840 0.22870 0.20890
C20 C 0.97475(13) 0.1956(2) 0.13858(6)
H16 H 1.04750 0.24900 0.13410
N4 N 0.81133(11) 0.10037(18) 0.23477(5)
C21 C 0.70560(14) 0.1318(2) 0.24128(6)
H17 H 0.64740 0.16460 0.21530
C22 C 0.67146(13) 0.1189(2) 0.28723(6)
C23 C 0.55873(14) 0.1722(2) 0.29386(6)
H18 H 0.50320 0.21220 0.26780
C24 C 0.52589(14) 0.1679(2) 0.33768(6)
H19 H 0.44840 0.20320 0.34160
C25 C 0.60768(14) 0.1113(2) 0.37574(6)
C26 C 0.72032(14) 0.0557(2) 0.36969(6)
H20 H 0.77570 0.01580 0.39580
C27 C 0.75158(14) 0.0583(2) 0.32607(6)
H21 H 0.82820 0.01860 0.32220
O6 O 0.5870(1) 0.10211(17) 0.42072(4)
C28 C 0.47538(15) 0.1672(3) 0.42980(6)
H22 H 0.47400 0.16160 0.46340
H23 H 0.41150 0.09180 0.41310
H24 H 0.46420 0.29300 0.41910
#END
