
#######################################################################
#
#                 Cambridge Crystallographic Data Centre
#                                CCDC
#
#######################################################################
#
# If this CIF has been generated from an entry in the Cambridge
# Structural Database, then it will include bibliographic, chemical,
# crystal, experimental, refinement or atomic coordinate data resulting
# from the CCDC's data processing and validation procedures.
#
#######################################################################

data_CSD_CIF_TELKAY
_audit_creation_date 2013-04-24
_audit_creation_method CSD-ConQuest-V1
_database_code_CSD TELKAY
_database_code_depnum_ccdc_archive 'CCDC 923904'
_chemical_formula_sum 'C11 H16 N2 O3'
_chemical_formula_moiety
;
C11 H16 N2 O3
;
_journal_coden_Cambridge 1078
_journal_year 2013
_journal_name_full 'CSD Communication(Private Communication) '
loop_
_publ_author_name
"M.B.Hursthouse"
"D.S.Hughes"
"P.V.R.Shannon"
_chemical_name_systematic
;
4-((5-Amino-3-methyl-1,2-oxazol-4-yl)methyl)-5,5-dimethyldihydrofuran-2(3H)-on
e
;
_cell_volume   1148.385
_exptl_crystal_density_diffrn 1.297
_exptl_special_details
;
contribution from Department of Chemistry, University of Cardiff, Cardiff 
CF10 3TB, UK
;
_diffrn_ambient_temperature 293
#These two values have been output from a single CSD field.
_refine_ls_R_factor_gt 0.0354
_refine_ls_wR_factor_gt 0.0354
_symmetry_cell_setting orthorhombic
_symmetry_space_group_name_H-M 'P 21 21 21'
_symmetry_Int_Tables_number 19
loop_
_symmetry_equiv_pos_site_id
_symmetry_equiv_pos_as_xyz
1 x,y,z
2 1/2-x,-y,1/2+z
3 -x,1/2+y,1/2-z
4 1/2+x,1/2-y,-z
_cell_length_a 6.9760(6)
_cell_length_b 7.2510(5)
_cell_length_c 22.703(6)
_cell_angle_alpha 90
_cell_angle_beta 90
_cell_angle_gamma 90
_cell_formula_units_Z 4
loop_
_atom_type_symbol
_atom_type_radius_bond
C 0.68
H 0.23
N 0.68
O 0.68
loop_
_atom_site_label
_atom_site_type_symbol
_atom_site_fract_x
_atom_site_fract_y
_atom_site_fract_z
O1 O -0.3709(3) 0.7790(2) 0.74385(7)
O2 O 0.1036(2) 0.4504(2) 0.51470(7)
O3 O 0.0645(3) 0.7310(2) 0.47731(8)
N1 N -0.3065(3) 0.6235(3) 0.77720(9)
N2 N -0.3875(4) 0.8837(3) 0.64917(11)
H1 H -0.3907(44) 0.8460(39) 0.6088(8)
H2 H -0.5083(46) 0.9333(72) 0.6583(24)
C1 C -0.2390(3) 0.5105(3) 0.73765(10)
C2 C -0.2520(3) 0.5764(3) 0.67925(9)
C3 C -0.3382(3) 0.7443(3) 0.68643(10)
C4 C -0.1818(3) 0.4777(3) 0.62573(10)
H3 H -0.2509(3) 0.5226(3) 0.59155(10)
H4 H -0.2089(3) 0.3471(3) 0.62976(10)
C5 C 0.0335(3) 0.5040(3) 0.61573(9)
H5 H 0.0999(3) 0.5041(3) 0.65377(9)
C6 C 0.0721(4) 0.6870(3) 0.58369(10)
H6 H -0.0298(4) 0.7751(3) 0.59106(10)
H7 H 0.1931(4) 0.7403(3) 0.59612(10)
C7 C 0.0784(4) 0.6340(3) 0.52034(11)
C8 C 0.1319(3) 0.3666(3) 0.57392(9)
C9 C 0.3466(4) 0.3585(4) 0.58517(12)
H8 H 0.3699(4) 0.3050(24) 0.6232(4)
H9 H 0.3988(6) 0.4809(5) 0.5840(8)
H10 H 0.4066(5) 0.2844(22) 0.5554(5)
C10 C 0.0464(5) 0.1755(3) 0.57094(12)
H11 H 0.0525(21) 0.1191(9) 0.6092(2)
H12 H 0.1174(14) 0.1023(7) 0.5433(5)
H13 H -0.0848(8) 0.1837(4) 0.5585(7)
C11 C -0.1573(5) 0.3287(4) 0.75686(14)
H14 H -0.0280(13) 0.3177(15) 0.7428(9)
H15 H -0.2334(22) 0.2303(4) 0.7410(9)
H16 H -0.1582(32) 0.3218(15) 0.79909(14)
#END
