
#######################################################################
#
#                 Cambridge Crystallographic Data Centre
#                                CCDC
#
#######################################################################
#
# If this CIF has been generated from an entry in the Cambridge
# Structural Database, then it will include bibliographic, chemical,
# crystal, experimental, refinement or atomic coordinate data resulting
# from the CCDC's data processing and validation procedures.
#
#######################################################################

data_CSD_CIF_TELNIH
_audit_creation_date 1996-12-16
_audit_creation_method CSD-ConQuest-V1
_database_code_CSD TELNIH
_database_code_depnum_ccdc_archive 'CCDC 128142'
_chemical_formula_sum 'C16 H13 N1 O4'
_chemical_formula_moiety
;
C16 H13 N1 O4
;
_journal_coeditor_code "IUCr KA1206"
_journal_coden_Cambridge 591
_journal_volume 52
_journal_year 1996
_journal_page_first 2807
_journal_name_full 'Acta Crystallogr.,Sect.C:Cryst.Struct.Commun. '
loop_
_publ_author_name
"M.Bolte"
"G.Schutz"
"H.J.Bader"
_chemical_name_systematic
;
3-(3-Nitro-phenyl)-2-methoxy-1-phenyl-prop-2-en-1-one
;
_chemical_melting_point 356
_cell_volume    675.030
_exptl_crystal_colour 'yellow'
_exptl_crystal_density_diffrn 1.394
_diffrn_ambient_temperature ?
_diffrn_special_details
;
The study was carried out at room temperature,in the range 283-303K

;
#These two values have been output from a single CSD field.
_refine_ls_R_factor_gt 0.0429
_refine_ls_wR_factor_gt 0.0429
_symmetry_cell_setting triclinic
_symmetry_space_group_name_H-M 'P -1'
_symmetry_Int_Tables_number 2
loop_
_symmetry_equiv_pos_site_id
_symmetry_equiv_pos_as_xyz
1 x,y,z
2 -x,-y,-z
_cell_length_a 8.384(1)
_cell_length_b 8.783(1)
_cell_length_c 9.492(1)
_cell_angle_alpha 95.01(1)
_cell_angle_beta 97.17(1)
_cell_angle_gamma 101.50(1)
_cell_formula_units_Z 2
loop_
_atom_type_symbol
_atom_type_radius_bond
C 0.68
H 0.23
N 0.68
O 0.68
loop_
_atom_site_label
_atom_site_type_symbol
_atom_site_fract_x
_atom_site_fract_y
_atom_site_fract_z
C1 C 0.4236(2) 0.20512(19) 0.31967(17)
H1 H 0.38550 0.17340 0.40260
C2 C 0.3812(2) 0.33431(19) 0.27837(17)
C3 C 0.3154(2) 0.44049(18) 0.37789(17)
C4 C 0.5213(2) 0.10563(18) 0.25410(16)
C5 C 0.6259(2) 0.15689(19) 0.15575(17)
H2 H 0.63340 0.25640 0.12710
C6 C 0.7172(2) 0.0576(2) 0.10234(17)
N1 N 0.82440(19) 0.1135(2) -0.00276(16)
O1 O 0.85805(19) 0.01580(19) -0.08743(15)
O2 O 0.8742(2) 0.25451(18) 0.00002(18)
C7 C 0.7132(2) -0.0904(2) 0.14048(19)
H3 H 0.77660 -0.15430 0.10170
C8 C 0.6112(2) -0.1408(2) 0.2387(2)
H4 H 0.60600 -0.23990 0.26760
C9 C 0.5172(2) -0.0441(2) 0.29363(18)
H5 H 0.44900 -0.08010 0.35910
O3 O 0.42545(16) 0.39107(15) 0.15617(13)
C10 C 0.3121(3) 0.4679(2) 0.0800(2)
H6 H 0.35470 0.50320 -0.00350
H7 H 0.29750 0.55600 0.14060
H8 H 0.20820 0.39610 0.05200
O4 O 0.36778(16) 0.58080(13) 0.38610(14)
C11 C 0.1914(2) 0.37273(18) 0.46759(17)
C12 C 0.0757(2) 0.2354(2) 0.4205(2)
H9 H 0.07810 0.17920 0.33330
C13 C -0.0435(3) 0.1824(2) 0.5040(2)
H10 H -0.12280 0.09170 0.47190
C14 C -0.0447(3) 0.2639(2) 0.6345(2)
H11 H -0.12340 0.22650 0.69120
C15 C 0.0698(3) 0.4003(3) 0.6816(2)
H12 H 0.06860 0.45460 0.76990
C16 C 0.1864(2) 0.4563(2) 0.59722(19)
H13 H 0.26160 0.55010 0.62750
#END
