
#######################################################################
#
#                 Cambridge Crystallographic Data Centre
#                                CCDC
#
#######################################################################
#
# If this CIF has been generated from an entry in the Cambridge
# Structural Database, then it will include bibliographic, chemical,
# crystal, experimental, refinement or atomic coordinate data resulting
# from the CCDC's data processing and validation procedures.
#
#######################################################################

data_CSD_CIF_TELYOY
_audit_creation_date 1996-12-16
_audit_creation_method CSD-ConQuest-V1
_database_code_CSD TELYOY
_database_code_depnum_ccdc_archive 'CCDC 128139'
_chemical_formula_sum 'C28 H37 N1 O3'
_chemical_formula_moiety
;
C28 H37 N1 O3
;
_journal_coeditor_code "IUCr KA1197"
_journal_coden_Cambridge 591
_journal_volume 52
_journal_year 1996
_journal_page_first 2899
_journal_name_full 'Acta Crystallogr.,Sect.C:Cryst.Struct.Commun. '
loop_
_publ_author_name
"Z.Bocskei"
"T.Gerczei"
"A.Bodor"
"R.Schwartz"
"G.Naray-Szabo"
_chemical_name_systematic
;
syn-3-Benzyloxyimino-4-androsten-17\b-yl acetate
;
_chemical_melting_point 358
_cell_volume   1258.711
_exptl_crystal_density_diffrn 1.149
_exptl_special_details
;
Melting point range 358-360K

;
_diffrn_ambient_temperature ?
_diffrn_special_details
;
The study was carried out at room temperature,in the range 283-303K

;
#These two values have been output from a single CSD field.
_refine_ls_R_factor_gt 0.0476
_refine_ls_wR_factor_gt 0.0476
loop_
_citation_database_id_CSD
_citation_special_details
TELYIS "is a stereoisomer of this entry"
_symmetry_cell_setting monoclinic
_symmetry_space_group_name_H-M 'P 21'
_symmetry_Int_Tables_number 4
loop_
_symmetry_equiv_pos_site_id
_symmetry_equiv_pos_as_xyz
1 x,y,z
2 -x,1/2+y,-z
_cell_length_a 13.507(3)
_cell_length_b 6.117(5)
_cell_length_c 15.250(3)
_cell_angle_alpha 90
_cell_angle_beta 92.582(15)
_cell_angle_gamma 90
_cell_formula_units_Z 2
loop_
_atom_type_symbol
_atom_type_radius_bond
C 0.68
H 0.23
N 0.68
O 0.68
loop_
_atom_site_label
_atom_site_type_symbol
_atom_site_fract_x
_atom_site_fract_y
_atom_site_fract_z
O1 O 0.7212(2) 0.79060 0.0583(2)
O2 O 0.1830(3) 1.2880(11) 0.5605(2)
O3 O 0.1253(5) 1.0126(14) 0.6368(4)
N1 N 0.7514(3) 0.9682(12) 0.1114(3)
C1 C 0.6215(4) 1.2652(15) 0.2673(4)
H1 H 0.6342(4) 1.3900(15) 0.3054(4)
H2 H 0.6320(4) 1.1339(15) 0.3022(4)
C2 C 0.6948(4) 1.2680(15) 0.1938(4)
H3 H 0.6871(4) 1.4018(15) 0.1601(4)
H4 H 0.7621(4) 1.2617(15) 0.2186(4)
C3 C 0.6749(4) 1.0769(13) 0.1364(3)
C4 C 0.5717(3) 1.0231(12) 0.1137(3)
H5 H 0.5572(3) 0.9224(12) 0.0693(3)
C5 C 0.4969(4) 1.1170(12) 0.1560(3)
C6 C 0.3910(3) 1.0716(14) 0.1254(3)
H6 H 0.3900(3) 0.9540(14) 0.0827(3)
H7 H 0.3635(3) 1.2008(14) 0.0966(3)
C7 C 0.3259(3) 1.0082(14) 0.2013(3)
H8 H 0.2573(3) 0.9997(14) 0.1798(3)
H9 H 0.3455(3) 0.8649(14) 0.2230(3)
C8 C 0.3347(3) 1.1728(12) 0.2764(3)
H10 H 0.3093(3) 1.3144(12) 0.2554(3)
C9 C 0.4446(4) 1.2001(12) 0.3080(3)
H11 H 0.4677(4) 1.0550(12) 0.3269(3)
C10 C 0.5122(4) 1.2721(12) 0.2322(4)
C11 C 0.4553(4) 1.3481(14) 0.3886(4)
H12 H 0.4386(4) 1.4966(14) 0.3713(4)
H13 H 0.5240(4) 1.3472(14) 0.4102(4)
C12 C 0.3895(4) 1.2784(16) 0.4629(3)
H14 H 0.4121(4) 1.1384(16) 0.4859(3)
H15 H 0.3955(4) 1.3846(16) 0.5100(3)
C13 C 0.2811(4) 1.2598(12) 0.4314(3)
C14 C 0.2759(3) 1.1007(12) 0.3535(3)
H16 H 0.3073(3) 0.9654(12) 0.3751(3)
C15 C 0.1646(3) 1.0484(13) 0.3404(3)
H17 H 0.1547(3) 0.9033(13) 0.3158(3)
H18 H 0.1318(3) 1.1543(13) 0.3017(3)
C16 C 0.1251(4) 1.0619(14) 0.4338(3)
H19 H 0.0701(4) 1.1638(14) 0.4354(3)
H20 H 0.1029(4) 0.9196(14) 0.4530(3)
C17 C 0.2132(4) 1.1423(12) 0.4922(3)
H21 H 0.2480(4) 1.0164(12) 0.5188(3)
C18 C 0.2385(5) 1.4850(12) 0.4078(4)
H22 H 0.2819(5) 1.5585(12) 0.3693(4)
H23 H 0.2327(5) 1.5696(12) 0.4603(4)
H24 H 0.1744(5) 1.4682(12) 0.3789(4)
C19 C 0.4876(5) 1.5028(13) 0.1995(5)
H25 H 0.4969(5) 1.6046(13) 0.2470(5)
H26 H 0.4200(5) 1.5079(13) 0.1774(5)
H27 H 0.5306(5) 1.5408(13) 0.1534(5)
C20 C 0.8083(4) 0.6678(14) 0.0378(4)
H28 H 0.7888(4) 0.5194(14) 0.0227(4)
H29 H 0.8525(4) 0.6610(14) 0.0896(4)
C21 C 0.8641(3) 0.7648(12) -0.0374(3)
C22 C 0.9454(3) 0.6496(13) -0.0636(3)
H30 H 0.9634(3) 0.5200(13) -0.0352(3)
C23 C 1.0002(4) 0.7246(14) -0.1312(4)
H31 H 1.0551(4) 0.6461(14) -0.1482(4)
C24 C 0.9742(5) 0.9144(15) -0.1737(4)
H32 H 1.0107(5) 0.9635(15) -0.2201(4)
C25 C 0.8933(5) 1.0334(15) -0.1475(4)
H33 H 0.8762(5) 1.1642(15) -0.1754(4)
C26 C 0.8376(4) 0.9565(13) -0.0792(3)
H34 H 0.7826(4) 1.0346(13) -0.0619(3)
C27 C 0.1393(5) 1.2066(18) 0.6287(5)
C28 C 0.1100(5) 1.3803(17) 0.6910(4)
H35 H 0.1296(5) 1.5205(17) 0.6694(4)
H36 H 0.1421(5) 1.3546(17) 0.7475(4)
H37 H 0.0395(5) 1.3777(17) 0.6961(4)
#END
