
#######################################################################
#
#                 Cambridge Crystallographic Data Centre
#                                CCDC
#
#######################################################################
#
# If this CIF has been generated from an entry in the Cambridge
# Structural Database, then it will include bibliographic, chemical,
# crystal, experimental, refinement or atomic coordinate data resulting
# from the CCDC's data processing and validation procedures.
#
#######################################################################

data_CSD_CIF_TELZUH
_audit_creation_date 2013-04-24
_audit_creation_method CSD-ConQuest-V1
_database_code_CSD TELZUH
_database_code_depnum_ccdc_archive 'CCDC 883251'
_chemical_formula_sum 'C13 H11 N1 O2'
_chemical_formula_moiety
;
C13 H11 N1 O2
;
_journal_coden_Cambridge 16
_journal_volume 68
_journal_year 2012
_journal_page_first 9272
_journal_name_full 'Tetrahedron '
loop_
_publ_author_name
"C.B.Baltus"
"N.J.Press"
"M.D.Antonijevic"
"G.J.Tizzard"
"S.J.Coles"
"J.Spencer"
_chemical_name_systematic
;
4-Methyl-4'-nitrobiphenyl
;
_cell_volume   2088.463
_exptl_crystal_colour 'colorless'
_exptl_crystal_density_diffrn 1.356
_exptl_crystal_description 'block'
_diffrn_ambient_temperature 120
#These two values have been output from a single CSD field.
_refine_ls_R_factor_gt 0.0455
_refine_ls_wR_factor_gt 0.0455
_symmetry_cell_setting orthorhombic
_symmetry_space_group_name_H-M 'F d d 2'
_symmetry_Int_Tables_number 43
loop_
_symmetry_equiv_pos_site_id
_symmetry_equiv_pos_as_xyz
1 x,y,z
2 -x,-y,z
3 1/4+x,1/4-y,1/4+z
4 1/4-x,1/4+y,1/4+z
5 x,1/2+y,1/2+z
6 -x,1/2-y,1/2+z
7 1/4+x,3/4-y,3/4+z
8 1/4-x,3/4+y,3/4+z
9 1/2+x,y,1/2+z
10 1/2-x,-y,1/2+z
11 3/4+x,1/4-y,3/4+z
12 3/4-x,1/4+y,3/4+z
13 1/2+x,1/2+y,z
14 1/2-x,1/2-y,z
15 3/4+x,3/4-y,1/4+z
16 3/4-x,3/4+y,1/4+z
_cell_length_a 17.453(3)
_cell_length_b 8.5767(13)
_cell_length_c 13.952(2)
_cell_angle_alpha 90
_cell_angle_beta 90
_cell_angle_gamma 90
_cell_formula_units_Z 8
loop_
_atom_type_symbol
_atom_type_radius_bond
C 0.68
H 0.23
N 0.68
O 0.68
loop_
_atom_site_label
_atom_site_type_symbol
_atom_site_fract_x
_atom_site_fract_y
_atom_site_fract_z
C1 C 0.25000 0.25000 0.9174(3)
C2 C 0.18302(14) 0.2869(3) 0.86997(19)
H1 H 0.13750 0.31020 0.90450
C3 C 0.18380(12) 0.2891(3) 0.77093(18)
H2 H 0.13860 0.31760 0.73730
C4 C 0.25000 0.25000 0.7188(3)
C5 C 0.25000 0.25000 0.6124(3)
C6 C 0.20736(12) 0.3601(3) 0.56132(19)
H3 H 0.17800 0.43580 0.59490
C7 C 0.20765(13) 0.3594(3) 0.4620(2)
H4 H 0.17830 0.43530 0.42860
C8 C 0.25000 0.25000 0.4095(3)
C9 C 0.25000 0.25000 0.3022(3)
H5? H 0.22900 0.15110 0.27880
H6? H 0.30260 0.26250 0.27880
H7? H 0.21840 0.33640 0.27880
N1 N 0.25000 0.25000 1.0229(2)
O1 O 0.31182(10) 0.2403(2) 1.06470(14)
C2M C 0.31698(14) 0.2131(3) 0.86997(19)
H1M H 0.36250 0.18980 0.90450
C3M C 0.31620(12) 0.2109(3) 0.77093(18)
H2M H 0.36140 0.18240 0.73730
C6M C 0.29264(12) 0.1399(3) 0.56132(19)
H3M H 0.32200 0.06420 0.59490
C7M C 0.29235(13) 0.1406(3) 0.4620(2)
H4M H 0.32170 0.06470 0.42860
O1M O 0.18818(10) 0.2597(2) 1.06470(14)
#END
