
#######################################################################
#
#                 Cambridge Crystallographic Data Centre
#                                CCDC
#
#######################################################################
#
# If this CIF has been generated from an entry in the Cambridge
# Structural Database, then it will include bibliographic, chemical,
# crystal, experimental, refinement or atomic coordinate data resulting
# from the CCDC's data processing and validation procedures.
#
#######################################################################

data_CSD_CIF_TEMBIW
_audit_creation_date 1996-12-16
_audit_creation_method CSD-ConQuest-V1
_database_code_CSD TEMBIW
_database_code_depnum_ccdc_archive 'CCDC 128105'
_chemical_formula_sum 'C18 H16 N2 O5'
_chemical_formula_moiety
;
C18 H16 N2 O5
;
_journal_coeditor_code "IUCr CF1093"
_journal_coden_Cambridge 591
_journal_volume 52
_journal_year 1996
_journal_page_first 2920
_journal_name_full 'Acta Crystallogr.,Sect.C:Cryst.Struct.Commun. '
loop_
_publ_author_name
"Qing-Chuan Yang"
"Hong-Ming Li"
"You-Qi Tang"
"Wen-Long Huang"
_chemical_name_systematic
;
2,2-Dimethyl-6-nitro-3,4-dihydro-2H-1-benzo(b)pyran-4-one O-benzoyloxime
;
_chemical_melting_point 429
_cell_volume    839.276
_exptl_crystal_colour 'dark yellow'
_exptl_crystal_density_diffrn 1.347
_exptl_special_details
;
Melting point range 429-431K
high potassium ion dependent, calcium ion entry inhibitory activity in smooth 
muscle
;
_diffrn_ambient_temperature ?
_diffrn_special_details
;
The study was carried out at room temperature,in the range 283-303K

;
#These two values have been output from a single CSD field.
_refine_ls_R_factor_gt 0.0486
_refine_ls_wR_factor_gt 0.0486
_symmetry_cell_setting triclinic
_symmetry_space_group_name_H-M 'P -1'
_symmetry_Int_Tables_number 2
loop_
_symmetry_equiv_pos_site_id
_symmetry_equiv_pos_as_xyz
1 x,y,z
2 -x,-y,-z
_cell_length_a 7.032(1)
_cell_length_b 10.667(2)
_cell_length_c 11.879(2)
_cell_angle_alpha 102.40(3)
_cell_angle_beta 102.92(3)
_cell_angle_gamma 95.16(3)
_cell_formula_units_Z 2
loop_
_atom_type_symbol
_atom_type_radius_bond
C 0.68
H 0.23
N 0.68
O 0.68
loop_
_atom_site_label
_atom_site_type_symbol
_atom_site_fract_x
_atom_site_fract_y
_atom_site_fract_z
C1 C 0.4307(6) 0.7354(3) 0.7698(3)
C2 C 0.2578(6) 0.6907(3) 0.6608(3)
C3 C 0.2778(5) 0.5633(3) 0.5850(3)
C4 C 0.3237(5) 0.3358(3) 0.5972(3)
C5 C 0.3882(6) 0.2513(3) 0.6651(4)
C6 C 0.4775(6) 0.2916(4) 0.7842(4)
C7 C 0.5025(6) 0.4204(4) 0.8386(3)
C8 C 0.4356(5) 0.5089(4) 0.7733(3)
C9 C 0.3485(5) 0.4678(3) 0.6516(3)
C10 C 0.6193(6) 0.7679(4) 0.7365(4)
C11 C 0.3884(8) 0.8456(4) 0.8597(4)
C12 C 0.1011(5) 0.5796(4) 0.2959(3)
C13 C 0.0532(5) 0.6868(4) 0.2399(3)
C14 C -0.0258(6) 0.6526(4) 0.1182(3)
C15 C -0.0701(7) 0.7458(6) 0.0568(4)
C16 C -0.0386(7) 0.8731(6) 0.1169(5)
C17 C 0.0376(6) 0.9088(4) 0.2380(4)
C18 C 0.0838(5) 0.8147(4) 0.2995(3)
O1 O 0.4583(4) 0.6332(2) 0.8352(2)
O2 O 0.2716(7) 0.0795(3) 0.5016(3)
O3 O 0.4050(5) 0.0370(3) 0.6661(3)
O4 O 0.1695(3) 0.6249(2) 0.4180(2)
O5 O 0.0849(4) 0.4682(3) 0.2460(2)
N1 N 0.2352(4) 0.5235(3) 0.4715(3)
N2 N 0.3518(6) 0.1115(3) 0.6054(4)
H1 H 0.25030 0.75410 0.61420
H2 H 0.13900 0.68090 0.68720
H3 H 0.26270 0.30440 0.51370
H4 H 0.52150 0.22960 0.82840
H5 H 0.56550 0.45070 0.92190
H6 H 0.60680 0.83480 0.69380
H7 H 0.64720 0.69150 0.68700
H8 H 0.72500 0.79720 0.80720
H9 H 0.36940 0.91940 0.82640
H10 H 0.49670 0.86930 0.92930
H11 H 0.27070 0.81730 0.88100
H12 H -0.05100 0.56250 0.07720
H13 H -0.12160 0.72150 -0.02800
H14 H -0.06880 0.93800 0.07330
H15 H 0.05690 0.99850 0.27960
H16 H 0.13780 0.83820 0.38410
#END
