
#######################################################################
#
#                 Cambridge Crystallographic Data Centre
#                                CCDC
#
#######################################################################
#
# If this CIF has been generated from an entry in the Cambridge
# Structural Database, then it will include bibliographic, chemical,
# crystal, experimental, refinement or atomic coordinate data resulting
# from the CCDC's data processing and validation procedures.
#
#######################################################################

data_CSD_CIF_TEMDIY
_audit_creation_date 1996-12-16
_audit_creation_method CSD-ConQuest-V1
_database_code_CSD TEMDIY
_database_code_depnum_ccdc_archive 'CCDC 128085'
_chemical_formula_sum 'C15 H10 N2 O3'
_chemical_formula_moiety
;
C15 H10 N2 O3
;
_journal_coeditor_code "IUCr BK1280"
_journal_coden_Cambridge 591
_journal_volume 52
_journal_year 1996
_journal_page_first 2945
_journal_name_full 'Acta Crystallogr.,Sect.C:Cryst.Struct.Commun. '
loop_
_publ_author_name
"D.R.Powell"
"P.E.Hanson"
"S.H.Gellman"
_chemical_name_systematic
;
(Z)-2-(Benzoyl-aci-nitro)-2-phenylacetonitrile
;
_chemical_melting_point 389
_cell_volume   2545.513
_exptl_crystal_colour 'colorless'
_exptl_crystal_density_diffrn 1.389
_diffrn_ambient_temperature 113
#These two values have been output from a single CSD field.
_refine_ls_R_factor_gt 0.037
_refine_ls_wR_factor_gt 0.037
_symmetry_cell_setting orthorhombic
_symmetry_space_group_name_H-M 'P b c a'
_symmetry_Int_Tables_number 61
loop_
_symmetry_equiv_pos_site_id
_symmetry_equiv_pos_as_xyz
1 x,y,z
2 1/2-x,-y,1/2+z
3 1/2+x,1/2-y,-z
4 -x,1/2+y,1/2-z
5 -x,-y,-z
6 -1/2+x,y,-1/2-z
7 -1/2-x,-1/2+y,z
8 x,-1/2-y,-1/2+z
_cell_length_a 8.615(1)
_cell_length_b 9.954(1)
_cell_length_c 29.684(2)
_cell_angle_alpha 90
_cell_angle_beta 90
_cell_angle_gamma 90
_cell_formula_units_Z 8
loop_
_atom_type_symbol
_atom_type_radius_bond
C 0.68
H 0.23
N 0.68
O 0.68
loop_
_atom_site_label
_atom_site_type_symbol
_atom_site_fract_x
_atom_site_fract_y
_atom_site_fract_z
C1 C 0.1591(2) 0.3964(2) 0.02829(6)
C2 C 0.2664(2) 0.4654(2) 0.00152(6)
H1 H 0.34070 0.52300 0.01516
C3 C 0.2645(2) 0.4498(2) -0.04461(6)
H2 H 0.33730 0.49740 -0.06259
C4 C 0.1579(2) 0.3657(2) -0.06503(6)
H3 H 0.15810 0.35490 -0.09683
C5 C 0.0511(2) 0.2976(2) -0.03895(6)
H4 H -0.02260 0.24010 -0.05287
C6 C 0.0511(2) 0.31280(15) 0.00726(6)
H5 H -0.02320 0.26590 0.02492
C7 C 0.1519(2) 0.4081(2) 0.07727(6)
C8 C 0.0222(2) 0.3557(2) 0.10162(6)
N1 N -0.0867(2) 0.31711(15) 0.11965(5)
N2 N 0.2587(2) 0.46793(15) 0.10193(5)
O1 O 0.3795(2) 0.5251(2) 0.09063(5)
O2 O 0.23154(14) 0.45896(11) 0.15015(4)
C9 C 0.1613(2) 0.5747(2) 0.16693(6)
O3 O 0.1225(2) 0.66530(12) 0.14278(4)
C10 C 0.1423(2) 0.5649(2) 0.21614(6)
C11 C 0.0531(2) 0.6625(2) 0.23741(6)
H6 H 0.00380 0.73060 0.22016
C12 C 0.0366(2) 0.6603(2) 0.28356(6)
H7 H -0.02400 0.72720 0.29811
C13 C 0.1076(2) 0.5611(2) 0.30880(6)
H8 H 0.09640 0.56040 0.34064
C14 C 0.1950(2) 0.4629(2) 0.28773(6)
H9 H 0.24300 0.39440 0.30512
C15 C 0.2126(2) 0.4641(2) 0.24143(6)
H10 H 0.27240 0.39650 0.22697
#END
