
#######################################################################
#
#                 Cambridge Crystallographic Data Centre
#                                CCDC
#
#######################################################################
#
# If this CIF has been generated from an entry in the Cambridge
# Structural Database, then it will include bibliographic, chemical,
# crystal, experimental, refinement or atomic coordinate data resulting
# from the CCDC's data processing and validation procedures.
#
#######################################################################

data_CSD_CIF_TEMYUI
_audit_creation_date 2017-12-11
_audit_creation_method CSD-ConQuest-V1
_database_code_CSD TEMYUI
_database_code_depnum_ccdc_archive 'CCDC 1590401'
_chemical_formula_sum 'C22 H20 N2 O5'
_chemical_formula_moiety
;
C22 H20 N2 O5
;
_journal_coden_Cambridge 1078
_journal_year 2017
_journal_name_full 'CSD Communication(Private Communication) '
loop_
_publ_author_name
"R.W.Gable"
"J.B.Baell"
_chemical_name_systematic
;
4-methoxy-N-(3-methoxyphenyl)-N-[(3-nitrophenyl)methyl]benzamide
;
_cell_volume   1969.966
_exptl_crystal_colour 'colorless'
_exptl_crystal_density_diffrn 1.323
_exptl_crystal_description 'chunk'
_diffrn_ambient_temperature 293
#These two values have been output from a single CSD field.
_refine_ls_R_factor_gt 0.0364
_refine_ls_wR_factor_gt 0.0364
_symmetry_cell_setting monoclinic
_symmetry_space_group_name_H-M 'P 21/n'
_symmetry_Int_Tables_number 14
loop_
_symmetry_equiv_pos_site_id
_symmetry_equiv_pos_as_xyz
1 x,y,z
2 1/2-x,1/2+y,1/2-z
3 -x,-y,-z
4 -1/2+x,-1/2-y,-1/2+z
_cell_length_a 8.8666(7)
_cell_length_b 23.479(2)
_cell_length_c 9.5090(2)
_cell_angle_alpha 90
_cell_angle_beta 95.647(4)
_cell_angle_gamma 90
_cell_formula_units_Z 4
loop_
_atom_type_symbol
_atom_type_radius_bond
C 0.68
H 0.23
N 0.68
O 0.68
loop_
_atom_site_label
_atom_site_type_symbol
_atom_site_fract_x
_atom_site_fract_y
_atom_site_fract_z
O1 O 0.47401(12) 0.04180(4) 0.12552(13)
O2 O 0.92837(10) 0.24210(4) 0.07646(12)
O3 O 0.74805(12) 0.07952(4) -0.43956(10)
O4 O 0.50558(17) 0.45460(5) -0.20415(14)
O5 O 0.44502(16) 0.36622(6) -0.21134(14)
N1 N 0.68661(11) 0.22790(4) 0.12272(11)
N2 N 0.51162(15) 0.40663(6) -0.15422(14)
C1 C 0.55589(13) 0.19216(5) 0.12098(12)
C2 C 0.57112(14) 0.13349(5) 0.12020(13)
C3 C 0.44439(15) 0.09896(6) 0.12335(13)
C4 C 0.30205(15) 0.12287(7) 0.12797(15)
C5 C 0.28832(16) 0.18149(7) 0.12986(17)
C6 C 0.41302(15) 0.21627(6) 0.12646(16)
C7 C 0.80737(13) 0.21798(5) 0.04608(14)
C8 C 0.78438(12) 0.18055(5) -0.08068(13)
C9 C 0.88938(13) 0.13799(5) -0.10150(14)
C10 C 0.87326(14) 0.10483(6) -0.22126(14)
C11 C 0.75454(14) 0.11479(5) -0.32475(13)
C12 C 0.65189(14) 0.15807(5) -0.30784(14)
C13 C 0.66698(13) 0.19003(5) -0.18500(14)
C14 C 0.70591(17) 0.27387(6) 0.22788(15)
C15 C 0.69830(14) 0.33240(5) 0.16186(14)
C16 C 0.61476(15) 0.34242(5) 0.03387(14)
C17 C 0.60461(15) 0.39714(6) -0.01961(14)
C18 C 0.67543(17) 0.44285(6) 0.04950(18)
C19 C 0.75896(18) 0.43265(6) 0.17701(19)
C20 C 0.77146(16) 0.37810(6) 0.23283(16)
C21 C 0.3510(2) 0.00354(8) 0.1340(2)
H1 H 0.3049(11) 0.0101(4) 0.2237(12)
H2 H 0.3885(5) -0.0363(4) 0.1317(14)
H3 H 0.2737(11) 0.0100(4) 0.0527(12)
C22 C 0.6269(3) 0.08775(10) -0.54605(19)
H4 H 0.5298(13) 0.0824(6) -0.5055(7)
H5 H 0.6349(10) 0.0600(6) -0.6226(13)
H6 H 0.6316(10) 0.1267(6) -0.5842(12)
H7 H 0.6681(17) 0.1164(6) 0.1217(15)
H8 H 0.2136(19) 0.0988(7) 0.1301(17)
H9 H 0.187(2) 0.1993(8) 0.1313(19)
H10 H 0.403(2) 0.2561(8) 0.1289(19)
H11 H 0.9753(18) 0.1321(7) -0.0277(17)
H12 H 0.9411(18) 0.0745(7) -0.2344(17)
H13 H 0.5715(18) 0.1666(6) -0.3808(17)
H14 H 0.5970(17) 0.2209(6) -0.1716(16)
H15 H 0.8052(19) 0.2689(7) 0.2872(18)
H16 H 0.6239(19) 0.2707(7) 0.2920(18)
H17 H 0.5621(17) 0.3128(7) -0.0174(17)
H18 H 0.6586(19) 0.4804(8) 0.0076(18)
H19 H 0.811(2) 0.4643(8) 0.231(2)
H20 H 0.8272(18) 0.3705(7) 0.3251(18)
#END
