
#######################################################################
#
#                 Cambridge Crystallographic Data Centre
#                                CCDC
#
#######################################################################
#
# If this CIF has been generated from an entry in the Cambridge
# Structural Database, then it will include bibliographic, chemical,
# crystal, experimental, refinement or atomic coordinate data resulting
# from the CCDC's data processing and validation procedures.
#
#######################################################################

data_CSD_CIF_TENJAX
_audit_creation_date 1997-02-21
_audit_creation_method CSD-ConQuest-V1
_database_code_CSD TENJAX
_chemical_formula_sum 'C17 H18 N2 O1'
_chemical_formula_moiety
;
C17 H18 N2 O1
;
_journal_coden_Cambridge 456
_journal_volume 70
_journal_year 1996
_journal_page_first 607
_journal_name_full 'Pol.J.Chem. '
loop_
_publ_author_name
"M.Gdaniec"
"M.J.Milewska"
"T.Polonski"
_chemical_name_systematic
;
N-Nitroso-cis-2,6-diphenylpiperidine
;
_chemical_melting_point 332.15
_cell_volume    727.534
_exptl_crystal_density_diffrn 1.215
_exptl_special_details
;
triclinic polymorph

;
_diffrn_ambient_temperature ?
_diffrn_special_details
;
The study was carried out at room temperature,in the range 283-303K

;
_refine_special_details
;
The nitroso group is disordered over two sites with occupancies of 0.79:0.21.

;
#These two values have been output from a single CSD field.
_refine_ls_R_factor_gt 0.091
_refine_ls_wR_factor_gt 0.091
_symmetry_cell_setting triclinic
_symmetry_space_group_name_H-M 'P -1'
_symmetry_Int_Tables_number 2
loop_
_symmetry_equiv_pos_site_id
_symmetry_equiv_pos_as_xyz
1 x,y,z
2 -x,-y,-z
_cell_length_a 7.547(4)
_cell_length_b 9.506(5)
_cell_length_c 10.374(5)
_cell_angle_alpha 80.92(4)
_cell_angle_beta 81.92(4)
_cell_angle_gamma 87.83(4)
_cell_formula_units_Z 2
loop_
_atom_type_symbol
_atom_type_radius_bond
C 0.68
H 0.23
N 0.68
O 0.68
loop_
_atom_site_label
_atom_site_type_symbol
_atom_site_fract_x
_atom_site_fract_y
_atom_site_fract_z
O1 O 0.4086(9) 0.9719(7) 0.3705(7)
N1 N 0.5543(10) 0.9985(10) 0.3083(11)
O2? O 0.5387(29) 1.0883(19) 0.2708(26)
N2? N 0.5244(44) 0.9693(41) 0.3351(79)
N3 N 0.6743(5) 0.8928(4) 0.3224(4)
C1 C 0.8488(6) 0.9289(5) 0.2410(5)
C2 C 0.9933(8) 0.9032(7) 0.3275(6)
C3 C 0.9824(7) 0.7622(7) 0.4189(5)
C4 C 0.7980(8) 0.7450(7) 0.4997(5)
C5 C 0.6483(7) 0.7601(5) 0.4155(5)
C6 C 0.8712(7) 0.8540(5) 0.1192(5)
C7 C 0.7552(8) 0.8889(7) 0.0289(6)
C8 C 0.7681(12) 0.8233(10) -0.0830(7)
C9 C 0.9003(14) 0.7271(10) -0.1062(7)
C10 C 1.0195(11) 0.6946(9) -0.0195(7)
C11 C 1.0063(9) 0.7582(7) 0.0928(6)
C12 C 0.6208(6) 0.6376(6) 0.3449(5)
C13 C 0.5004(8) 0.6503(7) 0.2562(6)
C14 C 0.4668(9) 0.5370(9) 0.1940(7)
C15 C 0.5527(10) 0.4095(8) 0.2211(7)
C16 C 0.6699(9) 0.3946(7) 0.3096(7)
C17 C 0.7029(8) 0.5037(7) 0.3718(6)
H1 H 0.84050 1.02940 0.20970
H2 H 1.10790 0.91180 0.27400
H3 H 0.98320 0.97740 0.38130
H4 H 1.00840 0.68740 0.36630
H5 H 1.07220 0.75870 0.47620
H6 H 0.77850 0.81270 0.56000
H7 H 0.79570 0.65100 0.55020
H8 H 0.53840 0.77100 0.47210
H9 H 0.66220 0.95850 0.04420
H10 H 0.68800 0.84850 -0.14730
H11 H 0.90350 0.67560 -0.17900
H12 H 1.11480 0.62840 -0.03940
H13 H 1.09710 0.73940 0.14950
H14 H 0.44110 0.74100 0.23770
H15 H 0.38490 0.54930 0.13020
H16 H 0.52710 0.32960 0.18070
H17 H 0.73470 0.30610 0.32660
H18 H 0.78450 0.49130 0.43590
#END
