
#######################################################################
#
#                 Cambridge Crystallographic Data Centre
#                                CCDC
#
#######################################################################
#
# If this CIF has been generated from an entry in the Cambridge
# Structural Database, then it will include bibliographic, chemical,
# crystal, experimental, refinement or atomic coordinate data resulting
# from the CCDC's data processing and validation procedures.
#
#######################################################################

data_CSD_CIF_TENJAZ
_audit_creation_date 2013-04-24
_audit_creation_method CSD-ConQuest-V1
_database_code_CSD TENJAZ
_database_code_depnum_ccdc_archive 'CCDC 882449'
_chemical_formula_sum 'C16 H17 N1 O8'
_chemical_formula_moiety
;
C16 H17 N1 O8
;
_journal_coden_Cambridge 119
_journal_volume 1034
_journal_year 2013
_journal_page_first 43
_journal_name_full 'J.Mol.Struct. '
loop_
_publ_author_name
"F.Jimenez-Cruz"
"L.F.Mar"
"J.L.Garcia-Gutierrez"
_chemical_name_systematic
;
Dimethyl (5-hydroxy-5-(4-nitrophenyl)-3-oxopent-4-en-1-yl)malonate
;
_chemical_melting_point 333
_cell_volume    818.752
_exptl_crystal_colour 'yellow'
_exptl_crystal_density_diffrn 1.425
_exptl_crystal_description 'prism'
_exptl_crystal_preparation 'ethanol'
_diffrn_ambient_temperature 293
#These two values have been output from a single CSD field.
_refine_ls_R_factor_gt 0.0587
_refine_ls_wR_factor_gt 0.0587
_symmetry_cell_setting triclinic
_symmetry_space_group_name_H-M 'P -1'
_symmetry_Int_Tables_number 2
loop_
_symmetry_equiv_pos_site_id
_symmetry_equiv_pos_as_xyz
1 x,y,z
2 -x,-y,-z
_cell_length_a 7.258(4)
_cell_length_b 8.867(3)
_cell_length_c 12.947(6)
_cell_angle_alpha 90.59(2)
_cell_angle_beta 91.87(4)
_cell_angle_gamma 100.49(3)
_cell_formula_units_Z 2
loop_
_atom_type_symbol
_atom_type_radius_bond
C 0.68
H 0.23
N 0.68
O 0.68
loop_
_atom_site_label
_atom_site_type_symbol
_atom_site_fract_x
_atom_site_fract_y
_atom_site_fract_z
O1 O 0.3884(3) 0.7727(2) 0.34258(18)
O2 O 0.1923(3) 0.5866(2) 0.41783(18)
O3 O 0.5981(3) 0.4648(3) 0.09965(16)
O4 O 0.7214(3) 0.3541(3) -0.06286(16)
H1 H 0.659(5) 0.401(4) -0.022(2)
O5 O 0.1889(3) 0.2803(3) 0.28420(19)
O6 O 0.3982(3) 0.2986(2) 0.41641(15)
O7 O 1.4787(3) -0.0438(3) -0.1697(2)
O8 O 1.2940(4) -0.0543(3) -0.3046(2)
N1 N 1.3393(4) -0.0156(3) -0.2147(2)
C1 C 0.3340(4) 0.6390(3) 0.3560(2)
C2 C 0.4142(4) 0.5126(3) 0.3020(2)
H2 H 0.38770 0.52120 0.22780
C3 C 0.6299(4) 0.5487(3) 0.3182(2)
H3 H 0.67550 0.64950 0.29080
H4 H 0.65940 0.55380 0.39190
C4 C 0.7370(4) 0.4344(3) 0.2687(2)
H5 H 0.86810 0.46350 0.29010
H6 H 0.69170 0.33420 0.29700
C5 C 0.7260(4) 0.4186(3) 0.1519(2)
C6 C 0.8617(4) 0.3435(3) 0.1038(2)
H7 H 0.95730 0.31510 0.14440
C7 C 0.8536(3) 0.3133(3) 0.0008(2)
C8 C 0.9820(3) 0.2284(3) -0.0533(2)
C9 C 0.9294(4) 0.1624(3) -0.1506(2)
H8 H 0.81420 0.17270 -0.18060
C10 C 1.0446(4) 0.0820(3) -0.2036(2)
H9 H 1.00790 0.03780 -0.26820
C11 C 1.2155(4) 0.0695(3) -0.1575(2)
C12 C 1.2726(4) 0.1304(3) -0.0601(2)
H10 H 1.38690 0.11780 -0.03020
C13 C 1.1554(4) 0.2107(3) -0.0082(2)
H11 H 1.19190 0.25300 0.05690
C14 C 0.3198(4) 0.3520(3) 0.3326(2)
C15 C 0.1101(5) 0.7037(4) 0.4682(3)
H12 H 0.05660 0.76200 0.41690
H13 H 0.20530 0.77070 0.50840
H14 H 0.01390 0.65620 0.51270
C16 C 0.3204(5) 0.1415(3) 0.4428(3)
H15 H 0.35680 0.07250 0.39300
H16 H 0.18610 0.12820 0.44250
H17 H 0.36690 0.12000 0.51030
#END
