
#######################################################################
#
#                 Cambridge Crystallographic Data Centre
#                                CCDC
#
#######################################################################
#
# If this CIF has been generated from an entry in the Cambridge
# Structural Database, then it will include bibliographic, chemical,
# crystal, experimental, refinement or atomic coordinate data resulting
# from the CCDC's data processing and validation procedures.
#
#######################################################################

data_CSD_CIF_TENVAM
_audit_creation_date 2017-12-11
_audit_creation_method CSD-ConQuest-V1
_database_code_CSD TENVAM
_database_code_depnum_ccdc_archive 'CCDC 1565548'
_chemical_formula_sum 'C4 H2 N6 O4'
_chemical_formula_moiety
;
C4 H2 N6 O4
;
_journal_coden_Cambridge 1220
_journal_volume 23
_journal_year 2017
_journal_page_first 15022
_journal_name_full 'Chem.-Eur.J. '
loop_
_publ_author_name
"Yongxing Tang"
"Chunlin He"
"G.H.Imler"
"D.A.Parrish"
"J.M.Shreeve"
_chemical_name_systematic
;
7-nitro-4-oxo-[1,2,5]oxadiazolo[3,4-c]pyridazin-6-amine
;
_cell_volume   5514.976
_exptl_crystal_colour 'red'
_exptl_crystal_density_diffrn 1.909
_exptl_crystal_description 'needle'
_diffrn_ambient_temperature 150
#These two values have been output from a single CSD field.
_refine_ls_R_factor_gt 0.0587
_refine_ls_wR_factor_gt 0.0587
_symmetry_cell_setting orthorhombic
_symmetry_space_group_name_H-M 'F d d 2'
_symmetry_Int_Tables_number 43
loop_
_symmetry_equiv_pos_site_id
_symmetry_equiv_pos_as_xyz
1 x,y,z
2 -x,-y,z
3 1/4+x,1/4-y,1/4+z
4 1/4-x,1/4+y,1/4+z
5 x,1/2+y,1/2+z
6 -x,1/2-y,1/2+z
7 1/4+x,3/4-y,3/4+z
8 1/4-x,3/4+y,3/4+z
9 1/2+x,y,1/2+z
10 1/2-x,-y,1/2+z
11 3/4+x,1/4-y,3/4+z
12 3/4-x,1/4+y,3/4+z
13 1/2+x,1/2+y,z
14 1/2-x,1/2-y,z
15 3/4+x,3/4-y,1/4+z
16 3/4-x,3/4+y,1/4+z
_cell_length_a 28.5727(15)
_cell_length_b 36.688(2)
_cell_length_c 5.2610(3)
_cell_angle_alpha 90
_cell_angle_beta 90
_cell_angle_gamma 90
_cell_formula_units_Z 32
loop_
_atom_type_symbol
_atom_type_radius_bond
C 0.68
H 0.23
N 0.68
O 0.68
loop_
_atom_site_label
_atom_site_type_symbol
_atom_site_fract_x
_atom_site_fract_y
_atom_site_fract_z
O1 O 0.33505(15) 0.17253(12) 0.6924(9)
O2 O 0.40773(15) 0.16992(11) 0.8247(8)
N1 N 0.37762(17) 0.18010(14) 0.6686(10)
C1 C 0.3905(2) 0.20186(15) 0.4624(11)
C2 C 0.43743(19) 0.21104(15) 0.4078(12)
N2 N 0.47434(15) 0.20105(13) 0.5438(10)
H1 H 0.50250 0.20820 0.49850
H2 H 0.47060 0.18730 0.67930
N3 N 0.45076(16) 0.23262(12) 0.2027(10)
N4 N 0.41929(16) 0.24560(13) 0.0521(10)
O3 O 0.43092(14) 0.26557(12) -0.1310(9)
C3 C 0.37133(19) 0.23834(15) 0.0952(12)
N5 N 0.33720(17) 0.25043(15) -0.0458(11)
O4 O 0.29900(14) 0.23554(13) 0.0713(10)
N6 N 0.31035(17) 0.21400(15) 0.2828(12)
C4 C 0.35659(19) 0.21621(15) 0.2940(13)
O5 O 0.43408(15) 0.30969(12) 0.3068(9)
O6 O 0.48447(14) 0.34183(13) 0.5241(10)
N7 N 0.44391(18) 0.32996(15) 0.4873(10)
C5 C 0.4080(2) 0.33970(16) 0.6541(13)
C6 C 0.41391(19) 0.36292(16) 0.8630(13)
N8 N 0.45394(17) 0.37837(14) 0.9330(11)
H3 H 0.45490 0.39230 1.06930
H4 H 0.47950 0.37470 0.84310
N9 N 0.37839(16) 0.37230(13) 1.0308(11)
N10 N 0.33582(17) 0.36102(14) 0.9836(10)
O7 O 0.30360(14) 0.37018(14) 1.132(1)
C7 C 0.3268(2) 0.33792(17) 0.7795(14)
N11 N 0.28499(19) 0.32437(16) 0.7203(13)
O8 O 0.29470(15) 0.30392(13) 0.5121(10)
N12 N 0.34265(19) 0.30503(14) 0.4376(11)
C8 C 0.3616(2) 0.32648(16) 0.6122(13)
#END
