
#######################################################################
#
#                 Cambridge Crystallographic Data Centre
#                                CCDC
#
#######################################################################
#
# If this CIF has been generated from an entry in the Cambridge
# Structural Database, then it will include bibliographic, chemical,
# crystal, experimental, refinement or atomic coordinate data resulting
# from the CCDC's data processing and validation procedures.
#
#######################################################################

data_CSD_CIF_TENXUI
_audit_creation_date 2017-12-11
_audit_creation_method CSD-ConQuest-V1
_database_code_CSD TENXUI
_database_code_depnum_ccdc_archive 'CCDC 1558683'
_chemical_formula_sum 'C22 H26 N2 O4'
_chemical_formula_moiety
;
C22 H26 N2 O4
;
_journal_coden_Cambridge 1220
_journal_volume 23
_journal_year 2017
_journal_page_first 15474
_journal_name_full 'Chem.-Eur.J. '
loop_
_publ_author_name
"C.Braun"
"M.Nieger"
"W.R.Thiel"
"S.Brase"
_chemical_name_systematic
;
N^5^,N^11^-dimethoxy-N^5^,N^11^-dimethyltricyclo[8.2.2.2^4,7^]hexadeca-1(12),4
,6,10,13,15-hexaene-5,11-dicarboxamide
;
_chemical_name_common
;
N$4!,N$16!-dimethoxy-N$4!,N$16!-dimethyl[2.2]paracyclophane-4,16-dicarboxamide
;
_cell_volume   1854.747
_exptl_crystal_colour 'colorless'
_exptl_crystal_density_diffrn 1.37
_exptl_crystal_description 'plates'
_diffrn_ambient_temperature 123
#These two values have been output from a single CSD field.
_refine_ls_R_factor_gt 0.0416
_refine_ls_wR_factor_gt 0.0416
_symmetry_cell_setting orthorhombic
_symmetry_space_group_name_H-M 'P b c a'
_symmetry_Int_Tables_number 61
loop_
_symmetry_equiv_pos_site_id
_symmetry_equiv_pos_as_xyz
1 x,y,z
2 1/2-x,-y,1/2+z
3 -x,1/2+y,1/2-z
4 1/2+x,1/2-y,-z
5 -x,-y,-z
6 -1/2+x,y,-1/2-z
7 x,-1/2-y,-1/2+z
8 -1/2-x,-1/2+y,z
_cell_length_a 9.2165(5)
_cell_length_b 11.2032(8)
_cell_length_c 17.9629(13)
_cell_angle_alpha 90
_cell_angle_beta 90
_cell_angle_gamma 90
_cell_formula_units_Z 4
loop_
_atom_type_symbol
_atom_type_radius_bond
C 0.68
H 0.23
N 0.68
O 0.68
loop_
_atom_site_label
_atom_site_type_symbol
_atom_site_fract_x
_atom_site_fract_y
_atom_site_fract_z
C1 C 0.80837(15) 0.54551(14) 0.51207(8)
H1 H 0.87250 0.48190 0.53170
H2 H 0.85930 0.62270 0.51830
C2 C 0.78146(14) 0.52279(13) 0.42616(7)
H3 H 0.80530 0.59630 0.39820
H4 H 0.84750 0.45880 0.40880
C3 C 0.62646(14) 0.48725(12) 0.40919(7)
C4 C 0.52219(14) 0.57046(12) 0.38617(7)
C5 C 0.37635(15) 0.55305(12) 0.40442(7)
H5 H 0.30710 0.61160 0.39030
C6 C 0.33020(15) 0.45217(13) 0.44268(7)
C7 C 0.42925(15) 0.35844(12) 0.44928(7)
H6 H 0.39670 0.28190 0.46480
C8 C 0.57529(16) 0.37660(12) 0.43330(7)
H7 H 0.64160 0.31230 0.43890
C9 C 0.56126(14) 0.68975(12) 0.35366(8)
O1 O 0.51720(12) 0.78370(9) 0.38032(6)
N1 N 0.64741(13) 0.69037(10) 0.29271(6)
C10 C 0.69434(18) 0.79678(13) 0.25387(8)
H8 H 0.62260 0.81790 0.21580
H9 H 0.78830 0.78180 0.23010
H10 H 0.70390 0.86270 0.28940
O2 O 0.67697(10) 0.58242(8) 0.25645(5)
C11 C 0.56218(16) 0.55627(13) 0.20478(8)
H11 H 0.47000 0.55000 0.23170
H12 H 0.58260 0.48050 0.17960
H13 H 0.55560 0.62040 0.16780
C1D C 0.19163(15) 0.45449(14) 0.48793(8)
H1D H 0.12750 0.51810 0.46830
H2D H 0.14070 0.37730 0.48170
C2D C 0.21854(14) 0.47721(13) 0.57384(7)
H3D H 0.19470 0.40370 0.60180
H4D H 0.15250 0.54120 0.59120
C3D C 0.37354(14) 0.51275(12) 0.59081(7)
C4D C 0.47781(14) 0.42954(12) 0.61383(7)
C5D C 0.62365(15) 0.44695(12) 0.59558(7)
H5D H 0.69290 0.38840 0.60970
C6D C 0.66980(15) 0.54783(13) 0.55732(7)
C7D C 0.57075(15) 0.64156(12) 0.55072(7)
H6D H 0.60330 0.71810 0.53520
C8D C 0.42471(16) 0.62340(12) 0.56670(7)
H7D H 0.35840 0.68770 0.56110
C9D C 0.43874(14) 0.31025(12) 0.64634(8)
O1D O 0.48280(12) 0.21630(9) 0.61968(6)
N1D N 0.35259(13) 0.30963(10) 0.70729(6)
C10D C 0.30566(18) 0.20322(13) 0.74613(8)
H8D H 0.37740 0.18210 0.78420
H9D H 0.21170 0.21820 0.76990
H10D H 0.29610 0.13730 0.71060
O2D O 0.32303(10) 0.41758(8) 0.74355(5)
C11D C 0.43782(16) 0.44373(13) 0.79522(8)
H11D H 0.53000 0.45000 0.76830
H12D H 0.41740 0.51950 0.82040
H13D H 0.44440 0.37960 0.83220
#END
