
#######################################################################
#
#                 Cambridge Crystallographic Data Centre
#                                CCDC
#
#######################################################################
#
# If this CIF has been generated from an entry in the Cambridge
# Structural Database, then it will include bibliographic, chemical,
# crystal, experimental, refinement or atomic coordinate data resulting
# from the CCDC's data processing and validation procedures.
#
#######################################################################

data_CSD_CIF_TENZUJ
_audit_creation_date 2013-04-24
_audit_creation_method CSD-ConQuest-V1
_database_code_CSD TENZUJ
_database_code_depnum_ccdc_archive 'CCDC 897415'
_chemical_formula_sum 'C2 H2 N6 O4'
_chemical_formula_moiety
;
C2 H2 N6 O4
;
_journal_coden_Cambridge 1699
_journal_volume 1
_journal_year 2013
_journal_page_first 585
_journal_name_full 'J.Mater.Chem.A '
loop_
_publ_author_name
"Yanqiang Zhang"
"D.A.Parrish"
"J.M.Shreeve"
_chemical_name_systematic
;
N-(5-Nitro-2H-1,2,3-triazol-4-yl)nitramide
;
_cell_volume    602.685
_exptl_crystal_colour 'colorless'
_exptl_crystal_density_diffrn 1.919
_exptl_crystal_description 'irregular'
_diffrn_ambient_temperature 296
#These two values have been output from a single CSD field.
_refine_ls_R_factor_gt 0.0551
_refine_ls_wR_factor_gt 0.0551
_symmetry_cell_setting monoclinic
_symmetry_space_group_name_H-M 'P 21/c'
_symmetry_Int_Tables_number 14
loop_
_symmetry_equiv_pos_site_id
_symmetry_equiv_pos_as_xyz
1 x,y,z
2 -x,1/2+y,1/2-z
3 -x,-y,-z
4 x,-1/2-y,-1/2+z
_cell_length_a 11.430(7)
_cell_length_b 5.989(4)
_cell_length_c 8.915(5)
_cell_angle_alpha 90
_cell_angle_beta 99.043(8)
_cell_angle_gamma 90
_cell_formula_units_Z 4
loop_
_atom_type_symbol
_atom_type_radius_bond
C 0.68
H 0.23
N 0.68
O 0.68
loop_
_atom_site_label
_atom_site_type_symbol
_atom_site_fract_x
_atom_site_fract_y
_atom_site_fract_z
N1 N 0.19527(19) 0.1071(4) 0.2507(3)
N2 N 0.0969(2) 0.2161(4) 0.2501(3)
H1 H 0.03050 0.16490 0.20440
N3 N 0.10352(19) 0.4104(4) 0.3234(3)
C1 C 0.2182(2) 0.4263(4) 0.3777(3)
C2 C 0.2743(2) 0.2393(5) 0.3306(3)
N4 N 0.27330(19) 0.6039(4) 0.4584(3)
H2 H 0.34940 0.60860 0.47150
N5 N 0.2162(2) 0.7704(4) 0.5183(2)
O1 O 0.10930(18) 0.7754(4) 0.4934(2)
O2 O 0.28032(19) 0.9072(4) 0.5921(2)
N6 N 0.39641(19) 0.1817(4) 0.3587(2)
O3 O 0.42967(19) 0.0183(4) 0.2981(3)
O4 O 0.45947(17) 0.3050(4) 0.4461(2)
#END
