
#######################################################################
#
#                 Cambridge Crystallographic Data Centre
#                                CCDC
#
#######################################################################
#
# If this CIF has been generated from an entry in the Cambridge
# Structural Database, then it will include bibliographic, chemical,
# crystal, experimental, refinement or atomic coordinate data resulting
# from the CCDC's data processing and validation procedures.
#
#######################################################################

data_CSD_CIF_TEPCOJ
_audit_creation_date 2017-12-11
_audit_creation_method CSD-ConQuest-V1
_database_code_CSD TEPCOJ
_database_code_depnum_ccdc_archive 'CCDC 1583909'
_chemical_formula_sum 'C23 H20 N4 O4'
_chemical_formula_moiety
;
C23 H20 N4 O4
;
_journal_coden_Cambridge 179
_journal_volume 57
_journal_year 2018
_journal_page_first 475
_journal_name_full 'Angew.Chem.,Int.Ed. '
loop_
_publ_author_name
"Zi-Qiang Rong"
"Hee Nam Lim"
"Guangbin Dong"
_chemical_name_systematic
;
1-[1-(9,10-dihydrophenanthren-9-yl)propan-2-ylidene]-2-(2,4-dinitrophenyl)hydr
azine
;
_cell_volume   1998.353
_exptl_crystal_colour 'orangish yellow'
_exptl_crystal_density_diffrn 1.384
_exptl_crystal_description 'prism'
_exptl_crystal_preparation 'solvent evaporation with ethyl acetate and diethyl ether'
_diffrn_ambient_temperature 100.0
#These two values have been output from a single CSD field.
_refine_ls_R_factor_gt 0.046
_refine_ls_wR_factor_gt 0.046
_symmetry_cell_setting triclinic
_symmetry_space_group_name_H-M 'P -1'
_symmetry_Int_Tables_number 2
loop_
_symmetry_equiv_pos_site_id
_symmetry_equiv_pos_as_xyz
1 x,y,z
2 -x,-y,-z
_cell_length_a 11.2446(8)
_cell_length_b 12.0609(8)
_cell_length_c 15.7024(11)
_cell_angle_alpha 100.970(2)
_cell_angle_beta 105.552(2)
_cell_angle_gamma 93.843(2)
_cell_formula_units_Z 4
loop_
_atom_type_symbol
_atom_type_radius_bond
C 0.68
H 0.23
N 0.68
O 0.68
loop_
_atom_site_label
_atom_site_type_symbol
_atom_site_fract_x
_atom_site_fract_y
_atom_site_fract_z
O1 O 0.53068(14) 1.09351(12) 0.72283(10)
O2 O 0.64945(14) 0.96298(12) 0.70595(10)
N1 N 0.59618(16) 1.04330(14) 0.68171(11)
O3 O 0.47238(17) 1.30903(14) 0.39684(12)
O4 O 0.39147(17) 1.30961(14) 0.50768(12)
N2 N 0.76587(15) 0.95437(14) 0.58233(11)
H1 H 0.75644 0.92320 0.62680
N3 N 0.85605(16) 0.92421(15) 0.54048(12)
N4 N 0.46392(19) 1.27714(15) 0.46525(14)
C1 C 0.60997(18) 1.07799(16) 0.60134(13)
C2 C 0.69283(18) 1.03163(16) 0.55450(13)
C3 C 1.0874(2) 0.64686(17) 0.43988(15)
C4 C 0.53743(19) 1.15924(17) 0.57257(14)
H2 H 0.48337 1.19012 0.60556
C5 C 0.9216(2) 0.85081(18) 0.57165(14)
C6 C 0.62303(19) 1.15059(18) 0.44739(14)
H3 H 0.62679 1.17633 0.39452
C7 C 0.6947(2) 1.07067(18) 0.47518(14)
H4 H 0.74728 1.04025 0.44068
C8 C 0.5442(2) 1.19474(17) 0.49629(14)
C9 C 1.2232(2) 0.60466(18) 0.34615(15)
H5 H 1.24846 0.61219 0.29421
C10 C 1.0651(2) 0.74009(17) 0.30909(14)
C11 C 1.12587(19) 0.66180(17) 0.36454(14)
C12 C 0.9499(2) 0.77128(19) 0.31625(15)
C13 C 1.1512(2) 0.58145(18) 0.49622(16)
H6 H 1.12731 0.57356 0.54860
C14 C 1.2484(2) 0.52778(19) 0.47785(17)
H7 H 1.29145 0.48384 0.51757
C15 C 0.9786(2) 0.70196(18) 0.46020(15)
H8 H 0.93507 0.65028 0.48817
C16 C 1.2832(2) 0.53791(19) 0.40147(16)
H9 H 1.34841 0.49884 0.38731
C17 C 1.0211(2) 0.81671(18) 0.52781(15)
H10 H 1.09769 0.81116 0.57500
H11 H 1.04068 0.87577 0.49594
C18 C 0.9058(2) 0.7952(2) 0.64583(16)
H12 H 0.92755 0.85217 0.70292
H13 H 0.96035 0.73540 0.65183
H14 H 0.81903 0.76167 0.63143
C19 C 0.8870(2) 0.7156(2) 0.37352(16)
H15 H 0.84417 0.63973 0.33830
H16 H 0.82338 0.76214 0.38876
C20 C 1.1215(2) 0.78767(19) 0.25283(14)
H17 H 1.19882 0.76596 0.24647
C21 C 0.8965(3) 0.8509(2) 0.26976(17)
H18 H 0.81899 0.87331 0.27525
C22 C 1.0660(3) 0.8658(2) 0.20646(16)
H19 H 1.10493 0.89718 0.16816
C23 C 0.9547(3) 0.8981(2) 0.21561(17)
H20 H 0.91747 0.95306 0.18461
O5 O 0.79730(15) 1.05064(14) 1.06323(11)
O6 O 0.72830(15) 1.11240(14) 0.94082(11)
O7 O 0.31943(15) 0.96815(15) 0.75427(11)
O8 O 0.24057(17) 0.79632(15) 0.74323(11)
N5 N 0.32868(18) 0.69177(15) 0.87258(12)
H21 H 0.26305 0.69318 0.82736
N6 N 0.32233(18) 0.87895(18) 0.78002(13)
N7 N 0.72214(17) 1.04415(16) 0.98862(14)
N8 N 0.33450(19) 0.60271(15) 0.91709(12)
C24 C 0.3610(2) 0.45738(18) 1.17119(14)
C25 C 0.4250(2) 0.86835(18) 0.85521(14)
C26 C 0.6203(2) 0.95132(18) 0.95688(14)
C27 C 0.3381(2) 0.55932(18) 1.14270(14)
C28 C 0.5236(2) 0.95511(18) 0.88376(14)
H22 H 0.52375 1.01579 0.85307
C29 C 0.1660(2) 0.35674(18) 1.05742(15)
C30 C 0.26261(19) 0.35850(17) 1.13588(14)
C31 C 0.5271(2) 0.77738(19) 0.97426(15)
H23 H 0.52953 0.71703 1.00549
C32 C 0.4240(2) 0.77617(18) 0.89888(14)
C33 C 0.4757(2) 0.45290(19) 1.23168(14)
H24 H 0.49225 0.38463 1.25196
C34 C 0.1634(2) 0.45421(18) 1.01014(15)
H25 H 0.07530 0.45764 0.97591
C35 C 0.6229(2) 0.86325(19) 1.00285(15)
H26 H 0.69113 0.86311 1.05391
C36 C 0.4301(2) 0.65189(19) 1.17294(15)
H27 H 0.41517 0.72019 1.15233
C37 C 0.5656(2) 0.5465(2) 1.26253(16)
H28 H 0.64308 0.54253 1.30433
C38 C 0.1723(2) 0.1738(2) 1.14095(16)
H29 H 0.17521 0.11094 1.16952
C39 C 0.0744(2) 0.26288(19) 1.02332(16)
H30 H 0.00830 0.26193 0.97064
C40 C 0.2115(2) 0.56550(18) 1.08075(14)
H31 H 0.21683 0.62907 1.04973
H32 H 0.15241 0.58087 1.11703
C41 C 0.2357(2) 0.53130(19) 0.89289(15)
C42 C 0.2631(2) 0.26611(18) 1.17694(15)
H33 H 0.32703 0.26655 1.23072
C43 C 0.2407(2) 0.43663(19) 0.94304(16)
H34 H 0.32825 0.43313 0.97617
H35 H 0.20884 0.36323 0.89915
C44 C 0.0779(2) 0.1720(2) 1.06435(17)
H36 H 0.01541 0.10830 1.03986
C45 C 0.5431(2) 0.6455(2) 1.23276(16)
H37 H 0.60549 0.70951 1.25344
C46 C 0.1183(2) 0.5422(2) 0.82508(17)
H38 H 0.08478 0.61118 0.84747
H39 H 0.05755 0.47552 0.81532
H40 H 0.13542 0.54701 0.76779
#END
