
#######################################################################
#
#                 Cambridge Crystallographic Data Centre
#                                CCDC
#
#######################################################################
#
# If this CIF has been generated from an entry in the Cambridge
# Structural Database, then it will include bibliographic, chemical,
# crystal, experimental, refinement or atomic coordinate data resulting
# from the CCDC's data processing and validation procedures.
#
#######################################################################

data_CSD_CIF_TEPDID
_audit_creation_date 2013-04-24
_audit_creation_method CSD-ConQuest-V1
_database_code_CSD TEPDID
_database_code_depnum_ccdc_archive 'CCDC 889520'
_chemical_formula_sum 'C21 H15 N1 O4'
_chemical_formula_moiety
;
C21 H15 N1 O4
;
_journal_coden_Cambridge 182
_journal_volume 49
_journal_year 2013
_journal_page_first 698
_journal_name_full 'Chem.Commun. '
loop_
_publ_author_name
"Gen-Qiang Chen"
"Min Shi"
_chemical_name_systematic
;
6-Hydroxy-5-(4-nitrophenyl)-7-phenylindan-1-one
;
_cell_volume   1644.439
_exptl_crystal_colour 'colorless'
_exptl_crystal_density_diffrn 1.395
_exptl_crystal_description 'prismatic'
_diffrn_ambient_temperature 293
#These two values have been output from a single CSD field.
_refine_ls_R_factor_gt 0.0415
_refine_ls_wR_factor_gt 0.0415
_symmetry_cell_setting monoclinic
_symmetry_space_group_name_H-M 'P 21/c'
_symmetry_Int_Tables_number 14
loop_
_symmetry_equiv_pos_site_id
_symmetry_equiv_pos_as_xyz
1 x,y,z
2 -x,1/2+y,1/2-z
3 -x,-y,-z
4 x,-1/2-y,-1/2+z
_cell_length_a 14.5884(15)
_cell_length_b 7.8609(8)
_cell_length_c 14.6943(15)
_cell_angle_alpha 90
_cell_angle_beta 102.614(2)
_cell_angle_gamma 90
_cell_formula_units_Z 4
loop_
_atom_type_symbol
_atom_type_radius_bond
C 0.68
H 0.23
N 0.68
O 0.68
loop_
_atom_site_label
_atom_site_type_symbol
_atom_site_fract_x
_atom_site_fract_y
_atom_site_fract_z
N1 N -0.04149(11) 0.2838(2) 0.31854(13)
O1 O 0.48368(8) -0.15650(15) 0.91430(7)
O2 O 0.35299(7) 0.16790(16) 0.57516(7)
H1 H 0.40780 0.19900 0.59060
O3 O -0.02928(10) 0.2371(3) 0.24300(11)
O4 O -0.10752(11) 0.3704(2) 0.32796(11)
C1 C 0.35581(10) -0.0235(2) 0.80256(10)
C2 C 0.40328(11) -0.1060(2) 0.89144(10)
C3 C 0.33296(11) -0.1198(2) 0.95213(11)
H2 H 0.34860 -0.04120 1.00410
H3 H 0.33250 -0.23430 0.97660
C4 C 0.23805(11) -0.0764(3) 0.89167(11)
H4 H 0.19810 -0.17630 0.88020
H5 H 0.20690 0.01060 0.92060
C5 C 0.26075(10) -0.0122(2) 0.80268(10)
C6 C 0.19776(11) 0.0439(2) 0.72421(11)
H6 H 0.13400 0.04710 0.72390
C7 C 0.22883(10) 0.0957(2) 0.64596(11)
C8 C 0.32623(10) 0.0968(2) 0.64967(10)
C9 C 0.39135(10) 0.0296(2) 0.72559(10)
C10 C 0.49246(10) 0.01641(19) 0.72139(10)
C11 C 0.51858(11) -0.0547(2) 0.64452(11)
H7 H 0.47240 -0.09230 0.59450
C12 C 0.61178(12) -0.0706(2) 0.64094(12)
H8 H 0.62810 -0.12060 0.58930
C13 C 0.68085(12) -0.0125(2) 0.71372(13)
H9 H 0.74380 -0.02280 0.71130
C14 C 0.65621(11) 0.0604(2) 0.78975(12)
H10 H 0.70270 0.10110 0.83870
C15 C 0.56322(10) 0.0739(2) 0.79416(11)
H11 H 0.54750 0.12210 0.84650
C16 C 0.15964(10) 0.1459(2) 0.56018(11)
C17 C 0.08101(12) 0.2402(2) 0.56651(12)
H12 H 0.07330 0.27600 0.62470
C18 C 0.01420(12) 0.2818(2) 0.48805(13)
H13 H -0.03860 0.34430 0.49300
C19 C 0.02658(11) 0.2301(2) 0.40297(12)
C20 C 0.10224(11) 0.1345(2) 0.39368(12)
H14 H 0.10890 0.09860 0.33520
C21 C 0.16847(11) 0.0923(2) 0.47255(11)
H15 H 0.22000 0.02680 0.46690
#END
