
#######################################################################
#
#                 Cambridge Crystallographic Data Centre
#                                CCDC
#
#######################################################################
#
# If this CIF has been generated from an entry in the Cambridge
# Structural Database, then it will include bibliographic, chemical,
# crystal, experimental, refinement or atomic coordinate data resulting
# from the CCDC's data processing and validation procedures.
#
#######################################################################

data_CSD_CIF_TERDID
_audit_creation_date 1997-02-21
_audit_creation_method CSD-ConQuest-V1
_database_code_CSD TERDID
_database_code_depnum_ccdc_journal 188/7
_chemical_formula_sum 'C20 H14 N4 O2'
_chemical_formula_moiety
;
C20 H14 N4 O2
;
_journal_coden_Cambridge 188
_journal_year 1996
_journal_page_first 1297
_journal_name_full 'J.Chem.Soc.,Perkin Trans.2 '
loop_
_publ_author_name
"P.Carloni"
"L.Eberson"
"L.Greci"
"P.Sgarabotto"
"P.Stipa"
_chemical_name_systematic
;
(E)-\a-Phenyl-\a-benzotriazolyl-O-benzoyl formaldehyde oxime
;
_chemical_melting_point 402.15
_cell_volume   1688.373
_exptl_crystal_colour 'colorless'
_exptl_crystal_density_diffrn 1.35
_exptl_special_details
;
Melting point range 402.15-404.15K

;
_diffrn_ambient_temperature ?
_diffrn_special_details
;
The study was carried out at room temperature,in the range 283-303K

;
#These two values have been output from a single CSD field.
_refine_ls_R_factor_gt 0.052
_refine_ls_wR_factor_gt 0.052
loop_
_citation_database_id_CSD
_citation_special_details
TERDOJ "is a stereoisomer of this entry"
_symmetry_cell_setting monoclinic
_symmetry_space_group_name_H-M 'P 21/c'
_symmetry_Int_Tables_number 14
loop_
_symmetry_equiv_pos_site_id
_symmetry_equiv_pos_as_xyz
1 x,y,z
2 -x,1/2+y,1/2-z
3 -x,-y,-z
4 x,-1/2-y,-1/2+z
_cell_length_a 7.042(2)
_cell_length_b 20.628(4)
_cell_length_c 11.788(3)
_cell_angle_alpha 90
_cell_angle_beta 99.6
_cell_angle_gamma 90
_cell_formula_units_Z 4
loop_
_atom_type_symbol
_atom_type_radius_bond
C 0.68
H 0.23
N 0.68
O 0.68
loop_
_atom_site_label
_atom_site_type_symbol
_atom_site_fract_x
_atom_site_fract_y
_atom_site_fract_z
O1 O 0.2412(4) 0.6058(1) 1.0735(2)
O2 O 0.1958(3) 0.5452(1) 0.9124(2)
N1 N 0.2900(3) 0.3851(1) 1.0033(2)
N2 N 0.2624(4) 0.3234(1) 0.9582(2)
N3 N 0.3025(4) 0.2821(1) 1.0407(2)
N4 N 0.2359(4) 0.4921(1) 0.9896(2)
C1 C 0.2410(4) 0.4396(1) 0.9314(2)
C2 C 0.2056(4) 0.6023(1) 0.9714(2)
C3 C 0.3541(4) 0.3155(1) 1.1428(2)
C4 C 0.4046(5) 0.2913(2) 1.2539(3)
C5 C 0.4515(5) 0.3361(2) 1.3404(3)
C6 C 0.4446(5) 0.4026(2) 1.3171(3)
C7 C 0.3937(5) 0.4272(1) 1.2081(2)
C8 C 0.3460(4) 0.3817(1) 1.1208(2)
C9 C 0.2041(4) 0.4301(1) 0.8055(2)
C10 C 0.3421(7) 0.4017(2) 0.7511(3)
C11 C 0.3080(9) 0.3947(2) 0.6326(3)
C12 C 0.1398(9) 0.4158(2) 0.5691(3)
C13 C 0.0005(8) 0.4436(2) 0.6236(3)
C14 C 0.0323(6) 0.4513(1) 0.7426(3)
C15 C 0.1648(4) 0.6578(1) 0.8913(2)
C16 C 0.0983(4) 0.6507(1) 0.7747(3)
C17 C 0.0612(5) 0.7054(2) 0.7064(3)
C18 C 0.0951(5) 0.7661(2) 0.7529(3)
C19 C 0.1642(5) 0.7733(1) 0.8688(3)
C20 C 0.1985(5) 0.7191(1) 0.9382(3)
H1 H 0.407(4) 0.244(2) 1.274(3)
H2 H 0.501(5) 0.322(2) 1.421(3)
H3 H 0.519(6) 0.434(2) 1.383(3)
H4 H 0.393(4) 0.474(2) 1.191(3)
H5 H 0.444(5) 0.387(2) 0.793(3)
H6 H 0.389(6) 0.379(2) 0.595(4)
H7 H 0.114(6) 0.411(2) 0.474(4)
H8 H -0.113(6) 0.462(2) 0.577(4)
H9 H -0.069(5) 0.471(2) 0.779(3)
H10 H 0.072(4) 0.606(1) 0.738(3)
H11 H 0.013(5) 0.701(2) 0.621(3)
H12 H 0.077(6) 0.813(2) 0.706(4)
H13 H 0.205(6) 0.826(2) 0.898(4)
H14 H 0.253(5) 0.720(2) 1.018(3)
#END
