
#######################################################################
#
#                 Cambridge Crystallographic Data Centre
#                                CCDC
#
#######################################################################
#
# If this CIF has been generated from an entry in the Cambridge
# Structural Database, then it will include bibliographic, chemical,
# crystal, experimental, refinement or atomic coordinate data resulting
# from the CCDC's data processing and validation procedures.
#
#######################################################################

data_CSD_CIF_TERKUX
_audit_creation_date 2007-02-21
_audit_creation_method CSD-ConQuest-V1
_database_code_CSD TERKUX
_database_code_depnum_ccdc_archive 'CCDC 630035'
_chemical_formula_sum 'C17 H15 N1 O5'
_chemical_formula_moiety
;
C17 H15 N1 O5
;
_journal_coeditor_code "IUCr JH2045"
_journal_coden_Cambridge 1370
_journal_volume 62
_journal_year 2006
_journal_page_first o5939
_journal_name_full 'Acta Crystallogr.,Sect.E:Struct.Rep.Online '
loop_
_publ_author_name
"Xiao-Yang Qiu"
"Sen-Lin Yang"
_chemical_name_systematic
;
3-(3,5-Dimethoxyphenyl)-1-(3-nitrophenyl)-prop-2-enone
;
_cell_volume   2997.898
_exptl_crystal_colour 'yellow'
_exptl_crystal_density_diffrn 1.388
_exptl_crystal_description 'block'
_exptl_crystal_preparation 'acetone'
_diffrn_ambient_temperature 298
#These two values have been output from a single CSD field.
_refine_ls_R_factor_gt 0.0516
_refine_ls_wR_factor_gt 0.0516
_symmetry_cell_setting monoclinic
_symmetry_space_group_name_H-M 'P 21/c'
_symmetry_Int_Tables_number 14
loop_
_symmetry_equiv_pos_site_id
_symmetry_equiv_pos_as_xyz
1 x,y,z
2 -x,1/2+y,1/2-z
3 -x,-y,-z
4 x,-1/2-y,-1/2+z
_cell_length_a 8.2658(3)
_cell_length_b 15.8334(4)
_cell_length_c 22.9084(7)
_cell_angle_alpha 90
_cell_angle_beta 90.747(2)
_cell_angle_gamma 90
_cell_formula_units_Z 8
loop_
_atom_type_symbol
_atom_type_radius_bond
C 0.68
H 0.23
N 0.68
O 0.68
loop_
_atom_site_label
_atom_site_type_symbol
_atom_site_fract_x
_atom_site_fract_y
_atom_site_fract_z
O1 O 0.3419(3) 0.76125(11) 0.45129(9)
O2 O -0.2287(2) 0.66776(10) 0.70541(7)
O3 O 0.1115(3) 1.05383(11) 0.57107(8)
O4 O 0.5112(3) 1.26091(11) 0.39296(8)
O5 O 0.3680(3) 1.28399(11) 0.46961(8)
C1 C 0.3957(3) 1.14522(14) 0.43813(10)
O6 O 1.0258(3) 0.17443(11) 0.11923(8)
C2 C -0.0541(3) 0.62676(15) 0.63220(11)
H1 H -0.07920 0.57100 0.64120
C3 C 0.3078(3) 1.11628(13) 0.48438(10)
H2 H 0.27180 1.15380 0.51260
C4 C 0.0182(3) 0.79292(14) 0.60388(10)
C5 C 0.2725(3) 1.03032(14) 0.48882(10)
O7 O 0.6845(3) 0.55979(11) 0.25462(8)
C6 C 0.4716(3) 0.47821(15) 0.38058(11)
H3 H 0.47870 0.42040 0.37370
C7 C 0.7495(3) 0.23442(15) 0.26198(10)
H4 H 0.68660 0.24600 0.29440
O8 O 0.7436(2) 0.09255(11) 0.28926(7)
C8 C 0.4476(3) 0.64726(14) 0.40099(11)
C9 C 0.5430(3) 0.53444(15) 0.34197(10)
C10 C 0.1734(3) 1.00151(15) 0.53930(11)
C11 C 0.8876(3) 0.13399(15) 0.20226(11)
H5 H 0.91830 0.07870 0.19450
O9 O 0.5079(3) 0.78752(11) 0.38154(9)
O10 O 0.1313(2) 0.5838(1) 0.55595(8)
C12 C -0.0893(3) 0.77556(14) 0.64908(10)
H6 H -0.13670 0.81940 0.66970
N1 N 0.4269(3) 1.23669(13) 0.43343(10)
N2 N 0.4316(3) 0.73879(13) 0.41185(10)
C13 C 0.3778(3) 0.59260(16) 0.43954(11)
H7 H 0.32320 0.61250 0.47200
C14 C 0.5295(3) 0.62085(14) 0.35283(10)
H8 H 0.57550 0.65990 0.32770
C15 C 0.7968(3) 0.29933(14) 0.22561(11)
C16 C 0.6363(4) 0.50714(16) 0.28914(12)
C17 C 0.9343(3) 0.19920(16) 0.16561(11)
C18 C 0.0530(3) 0.88188(14) 0.59015(11)
H9 H 0.00130 0.92230 0.61270
C19 C -0.1242(3) 0.69236(15) 0.66273(10)
C20 C 0.7538(3) 0.38761(15) 0.23726(11)
H10 H 0.78950 0.42740 0.21050
C21 C 0.6702(3) 0.41676(15) 0.28144(11)
H11 H 0.63120 0.37870 0.30880
C22 C 0.8902(3) 0.28168(15) 0.17683(11)
H12 H 0.92250 0.32500 0.15210
C23 C 0.7956(3) 0.15210(15) 0.25014(10)
C24 C 0.3298(3) 0.97691(15) 0.44569(11)
H13 H 0.30800 0.91940 0.44790
C25 C 0.4524(3) 1.09228(16) 0.39531(11)
H14 H 0.51190 1.11330 0.36430
C26 C 0.4185(4) 1.00732(16) 0.39961(11)
H15 H 0.45560 0.97030 0.37130
C27 C 0.0530(3) 0.64459(15) 0.58840(11)
C28 C 0.1498(3) 0.91033(15) 0.54915(11)
H16 H 0.20450 0.87190 0.52590
C29 C 0.0904(3) 0.72742(14) 0.57395(11)
H17 H 0.16340 0.73880 0.54440
C30 C 0.3909(4) 0.50699(16) 0.42870(11)
H18 H 0.34460 0.46850 0.45420
C31 C -0.2945(4) 0.73100(16) 0.74207(12)
H19 H -0.20820 0.76120 0.76120
H20 H -0.36170 0.70500 0.77080
H21 H -0.35800 0.76960 0.71900
C32 C 0.7899(4) 0.00696(15) 0.28047(12)
H22 H 0.74740 -0.01250 0.24370
H23 H 0.74780 -0.02730 0.31130
H24 H 0.90580 0.00290 0.28050
C33 C 1.0832(4) 0.23691(17) 0.08058(12)
H25 H 0.99310 0.26590 0.06290
H26 H 1.14650 0.21070 0.05080
H27 H 1.14910 0.27660 0.10180
C34 C 0.1007(4) 0.49751(14) 0.57025(12)
H28 H 0.12780 0.48780 0.61060
H29 H 0.16530 0.46160 0.54620
H30 H -0.01180 0.48510 0.56360
#END
