
#######################################################################
#
#                 Cambridge Crystallographic Data Centre
#                                CCDC
#
#######################################################################
#
# If this CIF has been generated from an entry in the Cambridge
# Structural Database, then it will include bibliographic, chemical,
# crystal, experimental, refinement or atomic coordinate data resulting
# from the CCDC's data processing and validation procedures.
#
#######################################################################

data_CSD_CIF_TERWES
_audit_creation_date 1997-02-21
_audit_creation_method CSD-ConQuest-V1
_database_code_CSD TERWES
_database_code_depnum_ccdc_archive 'CCDC 128382'
_chemical_formula_sum 'C21 H27 N1 O5'
_chemical_formula_moiety
;
C21 H27 N1 O5
;
_journal_coeditor_code "IUCr HA1176"
_journal_coden_Cambridge 591
_journal_volume 53
_journal_year 1997
_journal_page_first 116
_journal_name_full 'Acta Crystallogr.,Sect.C:Cryst.Struct.Commun. '
loop_
_publ_author_name
"A.J.Blake"
"R.O.Gould"
"R.M.Paton"
"C.J.Todd"
_chemical_name_systematic
;
(5S)-3-Phenyl-5-((6R,7R,14R)-1,8,13,16-tetraoxadispiro(5.0.5.4)hexadecan-14-yl
)-4,5-dihydroisoxazole
;
_cell_volume    935.526
_exptl_crystal_colour 'colorless'
_exptl_crystal_density_diffrn 1.326
_diffrn_ambient_temperature ?
_diffrn_special_details
;
The study was carried out at room temperature,in the range 283-303K

;
#These two values have been output from a single CSD field.
_refine_ls_R_factor_gt 0.0276
_refine_ls_wR_factor_gt 0.0276
_symmetry_cell_setting monoclinic
_symmetry_space_group_name_H-M 'P 21'
_symmetry_Int_Tables_number 4
loop_
_symmetry_equiv_pos_site_id
_symmetry_equiv_pos_as_xyz
1 x,y,z
2 -x,1/2+y,-z
_cell_length_a 6.3561(14)
_cell_length_b 9.892(2)
_cell_length_c 14.937(3)
_cell_angle_alpha 90
_cell_angle_beta 95.04(2)
_cell_angle_gamma 90
_cell_formula_units_Z 2
loop_
_atom_type_symbol
_atom_type_radius_bond
C 0.68
H 0.23
N 0.68
O 0.68
loop_
_atom_site_label
_atom_site_type_symbol
_atom_site_fract_x
_atom_site_fract_y
_atom_site_fract_z
O1 O 0.6152(3) 0.2638(2) 0.24865(13)
N1 N 0.7749(4) 0.2306(3) 0.1911(2)
C1 C 0.8436(4) 0.3392(3) 0.1580(2)
C2 C 0.7320(4) 0.4642(3) 0.1856(2)
H1 H 0.6278(4) 0.4945(3) 0.1395(2)
H2 H 0.8289(4) 0.5363(3) 0.2019(2)
C3 C 0.6329(4) 0.4086(3) 0.2658(2)
H3 H 0.7274(4) 0.4232(3) 0.3187(2)
O2 O 0.3176(3) 0.6307(2) 0.47376(12)
C4 C 0.2500(4) 0.5767(3) 0.5555(2)
H4 H 0.3550(4) 0.5959(3) 0.6040(2)
H5 H 0.2373(4) 0.4802(3) 0.5502(2)
C5 C 0.0410(4) 0.6349(4) 0.5774(2)
H6 H -0.0037(4) 0.5920(4) 0.6301(2)
H7 H 0.0563(4) 0.7299(4) 0.5894(2)
C6 C -0.1239(5) 0.6126(3) 0.4984(2)
H8 H -0.1511(5) 0.5176(3) 0.4908(2)
H9 H -0.2537(5) 0.6562(3) 0.5101(2)
C7 C -0.0446(4) 0.6699(3) 0.4140(2)
H10 H -0.1432(4) 0.6487(3) 0.3636(2)
H11 H -0.0356(4) 0.7665(3) 0.4190(2)
C8 C 0.1710(4) 0.6133(3) 0.3980(2)
C9 C 0.2762(4) 0.6803(3) 0.3206(2)
O3 O 0.1192(3) 0.6785(2) 0.24653(12)
C10 C 0.1806(5) 0.7412(3) 0.1669(2)
H12 H 0.0658(5) 0.7367(3) 0.1208(2)
H13 H 0.2982(5) 0.6932(3) 0.1462(2)
C11 C 0.2416(5) 0.8873(3) 0.1840(2)
H14 H 0.2844(5) 0.9273(3) 0.1299(2)
H15 H 0.1224(5) 0.9369(3) 0.2019(2)
C12 C 0.4220(5) 0.8943(3) 0.2577(2)
H16 H 0.5453(5) 0.8520(3) 0.2375(2)
H17 H 0.4554(5) 0.9871(3) 0.2715(2)
C13 C 0.3582(5) 0.8226(3) 0.3416(2)
H18 H 0.4781(5) 0.8176(3) 0.3853(2)
H19 H 0.2505(5) 0.8742(3) 0.3672(2)
O4 O 0.4562(3) 0.6054(2) 0.29861(12)
C14 C 0.4180(4) 0.4640(3) 0.2819(2)
H20 H 0.3228(4) 0.4528(3) 0.2289(2)
C15 C 0.3252(5) 0.4016(3) 0.3611(2)
H21 H 0.4261(5) 0.4054(3) 0.4128(2)
H22 H 0.2923(5) 0.3084(3) 0.3487(2)
O5 O 0.1368(3) 0.4728(2) 0.37938(13)
C16 C 1.0131(4) 0.3370(3) 0.0972(2)
C17 C 1.1602(5) 0.2317(3) 0.1015(2)
H23 H 1.1493(5) 0.1593(3) 0.1435(2)
C18 C 1.3217(5) 0.2320(4) 0.0451(2)
H24 H 1.4218(5) 0.1591(4) 0.0478(2)
C19 C 1.3399(5) 0.3367(4) -0.0154(2)
H25 H 1.4516(5) 0.3357(4) -0.0546(2)
C20 C 1.1974(5) 0.4425(3) -0.0192(2)
H26 H 1.2103(5) 0.5152(3) -0.0609(2)
C21 C 1.0355(4) 0.4432(3) 0.0374(2)
H27 H 0.9381(4) 0.5175(3) 0.0353(2)
#END
