
#######################################################################
#
#                 Cambridge Crystallographic Data Centre
#                                CCDC
#
#######################################################################
#
# If this CIF has been generated from an entry in the Cambridge
# Structural Database, then it will include bibliographic, chemical,
# crystal, experimental, refinement or atomic coordinate data resulting
# from the CCDC's data processing and validation procedures.
#
#######################################################################

data_CSD_CIF_TERWIW01
_audit_creation_date 2007-02-21
_audit_creation_method CSD-ConQuest-V1
_database_code_CSD TERWIW01
_database_code_depnum_ccdc_archive 'CCDC 633682'
_chemical_formula_sum 'C20 H23 N1 O12'
_chemical_formula_moiety
;
C20 H23 N1 O12
;
_journal_coeditor_code "IUCr ER2020"
_journal_coden_Cambridge 1370
_journal_volume 63
_journal_year 2007
_journal_page_first o359
_journal_name_full 'Acta Crystallogr.,Sect.E:Struct.Rep.Online '
loop_
_publ_author_name
"M.Brito-Arias"
"D.Cruz-Salazar"
"E.Molins"
_chemical_name_systematic
;
4-Nitrophenyl tetra-O-acetyl-\b-D-glucopyranoside
;
_cell_volume   1175.479
_exptl_crystal_colour 'colorless'
_exptl_crystal_density_diffrn 1.326
_exptl_crystal_description 'prism'
_exptl_crystal_preparation 'ethanol'
_diffrn_ambient_temperature 293
#These two values have been output from a single CSD field.
_refine_ls_R_factor_gt 0.0397
_refine_ls_wR_factor_gt 0.0397
_symmetry_cell_setting monoclinic
_symmetry_space_group_name_H-M 'P 21'
_symmetry_Int_Tables_number 4
loop_
_symmetry_equiv_pos_site_id
_symmetry_equiv_pos_as_xyz
1 x,y,z
2 -x,1/2+y,-z
_cell_length_a 5.7832(10)
_cell_length_b 16.204(3)
_cell_length_c 12.7389(16)
_cell_angle_alpha 90
_cell_angle_beta 100.044(12)
_cell_angle_gamma 90
_cell_formula_units_Z 2
loop_
_atom_type_symbol
_atom_type_radius_bond
C 0.68
H 0.23
N 0.68
O 0.68
loop_
_atom_site_label
_atom_site_type_symbol
_atom_site_fract_x
_atom_site_fract_y
_atom_site_fract_z
C1 C 0.4212(6) 0.5550(2) 0.6651(3)
H1 H 0.28360 0.58970 0.66810
C2 C 0.5598(6) 0.5423(2) 0.7753(3)
H2 H 0.68880 0.50360 0.77280
C3 C 0.6552(6) 0.6234(2) 0.8206(3)
H3 H 0.52530 0.65810 0.83490
C4 C 0.7869(5) 0.6680(2) 0.7451(3)
H4 H 0.93100 0.63780 0.73950
C5 C 0.6336(6) 0.6745(2) 0.6360(3)
H5 H 0.49250 0.70650 0.64180
C6 C 0.7511(6) 0.7118(3) 0.5514(3)
H6 H 0.82140 0.76450 0.57500
H7 H 0.87310 0.67550 0.53480
C7 C 0.1466(6) 0.4739(2) 0.5481(3)
C8 C 0.0939(7) 0.5303(2) 0.4668(3)
H8 H 0.19560 0.57370 0.46020
C9 C -0.1135(7) 0.5212(3) 0.3950(3)
H9 H -0.15300 0.55840 0.33920
C10 C -0.2603(7) 0.4567(3) 0.4070(3)
C11 C -0.2089(7) 0.4008(3) 0.4870(4)
H10 H -0.31140 0.35750 0.49320
C12 C -0.0036(7) 0.4090(2) 0.5585(3)
H11 H 0.03460 0.37110 0.61370
C13 C 0.6338(9) 0.7262(3) 0.3641(3)
C14 C 0.4297(10) 0.7355(5) 0.2767(4)
H12 H 0.45190 0.70150 0.21750
H13 H 0.41610 0.79220 0.25450
H14 H 0.28920 0.71900 0.30140
C15 C 1.0593(6) 0.7787(3) 0.7859(3)
C16 C 1.1016(8) 0.8568(3) 0.8462(4)
H15 H 1.25070 0.87920 0.83740
H16 H 1.10200 0.84640 0.92040
H17 H 0.97950 0.89550 0.81990
C17 C 0.7608(10) 0.6413(4) 1.0095(3)
C18 C 0.9532(13) 0.6229(6) 1.1010(4)
H18 H 0.93050 0.65500 1.16170
H19 H 1.10190 0.63670 1.08190
H20 H 0.95080 0.56530 1.11820
C19 C 0.4641(8) 0.4397(3) 0.8948(4)
C20 C 0.2813(10) 0.4127(4) 0.9553(5)
H21 H 0.33830 0.36650 0.99960
H22 H 0.14280 0.39680 0.90640
H23 H 0.24420 0.45730 0.99910
N1 N -0.4847(7) 0.4485(3) 0.3317(4)
O1 O 0.5663(4) 0.59238(15) 0.60002(18)
O2 O 0.3511(4) 0.47746(15) 0.6231(2)
O3 O -0.5255(7) 0.4985(3) 0.2605(3)
O4 O -0.6157(6) 0.3926(3) 0.3459(4)
O5 O 0.5704(4) 0.7227(2) 0.45949(19)
O6 O 0.8341(6) 0.7222(2) 0.3526(2)
O7 O 0.8455(4) 0.74719(15) 0.79166(18)
O8 O 1.1881(4) 0.7474(2) 0.7345(2)
O9 O 0.8150(4) 0.60862(17) 0.91866(18)
O10 O 0.5881(8) 0.6799(4) 1.0124(3)
O11 O 0.4022(4) 0.50926(17) 0.8406(2)
O12 O 0.6463(7) 0.4053(2) 0.8930(3)
#END
