
#######################################################################
#
#                 Cambridge Crystallographic Data Centre
#                                CCDC
#
#######################################################################
#
# If this CIF has been generated from an entry in the Cambridge
# Structural Database, then it will include bibliographic, chemical,
# crystal, experimental, refinement or atomic coordinate data resulting
# from the CCDC's data processing and validation procedures.
#
#######################################################################

data_CSD_CIF_TERZUO
_audit_creation_date 2017-12-13
_audit_creation_method CSD-ConQuest-V1
_database_code_CSD TERZUO
_database_code_depnum_ccdc_archive 'CCDC 1574113'
_chemical_formula_sum 'C20 H18 N2 O4'
_chemical_formula_moiety
;
C20 H18 N2 O4
;
_journal_coden_Cambridge 1291
_journal_year 2017
_journal_page_first 6734
_journal_name_full 'Eur.J.Org.Chem. '
loop_
_publ_author_name
"C.Despotopoulou"
"S.C.McKeon"
"R.Connon"
"V.Coeffard"
"H.Muller-Bunz"
"P.J.Guiry"
_chemical_name_systematic
;
methyl 3-(3-(2-nitro-1-phenylethyl)-1H-indol-4-yl)prop-2-enoate
;
_cell_volume   1674.822
_exptl_crystal_colour 'colorless'
_exptl_crystal_density_diffrn 1.39
_exptl_crystal_description 'plate'
_diffrn_ambient_temperature 100
#These two values have been output from a single CSD field.
_refine_ls_R_factor_gt 0.0395
_refine_ls_wR_factor_gt 0.0395
_symmetry_cell_setting monoclinic
_symmetry_space_group_name_H-M 'P 21/n'
_symmetry_Int_Tables_number 14
loop_
_symmetry_equiv_pos_site_id
_symmetry_equiv_pos_as_xyz
1 x,y,z
2 1/2-x,1/2+y,1/2-z
3 -x,-y,-z
4 -1/2+x,-1/2-y,-1/2+z
_cell_length_a 10.3040(9)
_cell_length_b 10.7921(9)
_cell_length_c 15.1146(13)
_cell_angle_alpha 90
_cell_angle_beta 94.822(2)
_cell_angle_gamma 90
_cell_formula_units_Z 4
loop_
_atom_type_symbol
_atom_type_radius_bond
C 0.68
H 0.23
N 0.68
O 0.68
loop_
_atom_site_label
_atom_site_type_symbol
_atom_site_fract_x
_atom_site_fract_y
_atom_site_fract_z
O1 O 0.06379(10) 0.12961(9) 0.08210(6)
O2 O -0.04576(9) 0.16627(10) 0.19453(7)
N1 N 0.05650(11) 0.15977(10) 0.15925(7)
C1 C 0.18044(12) 0.18769(13) 0.21534(9)
H1 H 0.2120(15) 0.1080(15) 0.235(1)
H2 H 0.1549(15) 0.2348(15) 0.2657(11)
C2 C 0.27968(12) 0.25414(12) 0.16317(8)
H3 H 0.2961(13) 0.2011(13) 0.1135(9)
C3 C 0.40419(12) 0.26370(12) 0.22510(8)
C4 C 0.41191(13) 0.34479(12) 0.29670(9)
H4 H 0.3425(15) 0.3960(15) 0.3057(10)
C5 C 0.52166(14) 0.34705(13) 0.35649(9)
H5 H 0.5232(15) 0.4010(15) 0.4071(11)
C6 C 0.62539(13) 0.26878(13) 0.34475(10)
H6 H 0.7019(15) 0.2691(14) 0.3875(10)
C7 C 0.61867(13) 0.18803(13) 0.27339(9)
H7 H 0.6872(17) 0.1334(16) 0.2635(11)
C8 C 0.50820(13) 0.18495(13) 0.21421(9)
H8 H 0.5033(14) 0.1273(14) 0.1649(10)
C9 C 0.22719(12) 0.37598(12) 0.12613(8)
C10 C 0.13063(12) 0.44415(12) 0.15944(9)
H9 H 0.0851(14) 0.4301(14) 0.2105(10)
N2 N 0.10191(11) 0.54508(11) 0.10707(7)
H10 H 0.0388(17) 0.5946(16) 0.1147(11)
C11 C 0.17739(12) 0.54361(12) 0.03715(9)
C12 C 0.17624(13) 0.62410(13) -0.03475(9)
H11 H 0.1188(15) 0.6918(16) -0.0384(10)
C13 C 0.26021(14) 0.59893(13) -0.09847(9)
H12 H 0.2641(16) 0.6528(16) -0.1478(12)
C14 C 0.34449(13) 0.49729(13) -0.09037(9)
H13 H 0.4059(15) 0.4841(14) -0.1361(10)
C15 C 0.34718(12) 0.41674(12) -0.01864(8)
C16 C 0.26013(12) 0.43918(12) 0.04715(8)
C17 C 0.43965(12) 0.31362(12) -0.01029(9)
H14 H 0.4696(14) 0.2883(14) 0.0492(10)
C18 C 0.48492(13) 0.25204(13) -0.07753(9)
H15 H 0.4586(15) 0.2682(16) -0.1384(11)
C19 C 0.57976(13) 0.15053(13) -0.06568(9)
O3 O 0.6217(1) 0.09483(10) -0.12662(6)
O4 O 0.61442(9) 0.12439(9) 0.01924(6)
C20 C 0.71531(15) 0.03284(14) 0.03512(11)
H16 H 0.6869(17) -0.0480(18) 0.0107(12)
H17 H 0.7923(19) 0.0590(18) 0.0081(13)
H18 H 0.7308(18) 0.0276(18) 0.0977(14)
#END
