
#######################################################################
#
#                 Cambridge Crystallographic Data Centre
#                                CCDC
#
#######################################################################
#
# If this CIF has been generated from an entry in the Cambridge
# Structural Database, then it will include bibliographic, chemical,
# crystal, experimental, refinement or atomic coordinate data resulting
# from the CCDC's data processing and validation procedures.
#
#######################################################################

data_CSD_CIF_TESBEB
_audit_creation_date 2017-12-13
_audit_creation_method CSD-ConQuest-V1
_database_code_CSD TESBEB
_database_code_depnum_ccdc_archive 'CCDC 1574115'
_chemical_formula_sum 'C21 H20 N2 O4'
_chemical_formula_moiety
;
C21 H20 N2 O4
;
_journal_coden_Cambridge 1291
_journal_year 2017
_journal_page_first 6734
_journal_name_full 'Eur.J.Org.Chem. '
loop_
_publ_author_name
"C.Despotopoulou"
"S.C.McKeon"
"R.Connon"
"V.Coeffard"
"H.Muller-Bunz"
"P.J.Guiry"
_chemical_name_systematic
;
methyl 
(1-methyl-4-nitro-3-phenyl-1,3,4,5-tetrahydrobenzo[cd]indol-5-yl)acetate
;
_chemical_melting_point 401.282
_cell_volume    885.511
_exptl_crystal_colour 'colorless'
_exptl_crystal_density_diffrn 1.367
_exptl_crystal_description 'lath'
_diffrn_ambient_temperature 100
#These two values have been output from a single CSD field.
_refine_ls_R_factor_gt 0.0338
_refine_ls_wR_factor_gt 0.0338
loop_
_citation_database_id_CSD
_citation_special_details
TESBEB "is a stereoisomer of this entry"
_symmetry_cell_setting triclinic
_symmetry_space_group_name_H-M 'P -1'
_symmetry_Int_Tables_number 2
loop_
_symmetry_equiv_pos_site_id
_symmetry_equiv_pos_as_xyz
1 x,y,z
2 -x,-y,-z
_cell_length_a 8.1347(1)
_cell_length_b 10.9542(1)
_cell_length_c 11.6999(1)
_cell_angle_alpha 99.3403(9)
_cell_angle_beta 106.935(1)
_cell_angle_gamma 111.383(1)
_cell_formula_units_Z 2
loop_
_atom_type_symbol
_atom_type_radius_bond
C 0.68
H 0.23
N 0.68
O 0.68
loop_
_atom_site_label
_atom_site_type_symbol
_atom_site_fract_x
_atom_site_fract_y
_atom_site_fract_z
C1 C 0.73412(19) 0.17133(12) 0.14460(12)
H1 H 0.632(3) 0.1466(19) 0.1728(18)
H2 H 0.843(3) 0.180(2) 0.2103(19)
H3 H 0.706(3) 0.0964(19) 0.0724(17)
N1 N 0.77155(13) 0.29875(9) 0.11225(9)
C2 C 0.89476(16) 0.42911(11) 0.19542(10)
H4 H 0.968(2) 0.4380(14) 0.2807(14)
C3 C 0.89030(15) 0.52600(11) 0.13544(10)
C4 C 0.99607(15) 0.67965(10) 0.17267(10)
H5 H 1.1137(19) 0.7045(13) 0.1551(12)
C5 C 1.04936(15) 0.75478(11) 0.30866(10)
C6 C 0.93418(16) 0.70607(12) 0.37443(10)
H6 H 0.822(2) 0.6177(15) 0.3358(13)
C7 C 0.97857(17) 0.78114(12) 0.49609(11)
H7 H 0.895(2) 0.7455(16) 0.5400(14)
C8 C 1.13976(18) 0.90673(12) 0.55375(11)
H8 H 1.168(2) 0.9594(16) 0.6391(15)
C9 C 1.25704(17) 0.95492(12) 0.48994(11)
H9 H 1.371(2) 1.0427(16) 0.5302(15)
C10 C 1.21280(16) 0.87944(11) 0.36829(10)
H10 H 1.295(2) 0.9127(15) 0.3225(14)
C11 C 0.86574(15) 0.72787(10) 0.08319(10)
H11 H 0.7566(19) 0.7184(13) 0.1059(12)
N2 N 0.97797(13) 0.88123(9) 0.11116(8)
O1 O 1.11951(12) 0.92058(8) 0.08385(8)
O2 O 0.92513(13) 0.95821(8) 0.16140(8)
C12 C 0.79921(15) 0.65976(10) -0.05925(9)
H12 H 0.9128(19) 0.6844(14) -0.0807(12)
C13 C 0.66844(16) 0.71595(11) -0.13197(10)
H13 H 0.544(2) 0.6787(15) -0.1236(13)
H14 H 0.723(2) 0.8165(16) -0.1001(14)
C14 C 0.63527(16) 0.68733(11) -0.26922(10)
O3 O 0.73933(12) 0.66639(9) -0.31639(8)
O4 O 0.47174(13) 0.69102(10) -0.33313(8)
C15 C 0.4246(2) 0.66917(17) -0.46646(12)
H15 H 0.537(3) 0.732(2) -0.4818(18)
H16 H 0.317(3) 0.692(2) -0.4959(18)
H17 H 0.389(3) 0.572(2) -0.5079(17)
C16 C 0.70309(15) 0.50442(10) -0.08794(10)
C17 C 0.56909(16) 0.40886(11) -0.20138(10)
H18 H 0.523(2) 0.4370(14) -0.2759(13)
C18 C 0.49413(16) 0.26657(11) -0.21453(10)
H19 H 0.397(2) 0.2022(15) -0.2960(14)
C19 C 0.54922(16) 0.21483(11) -0.11694(11)
H20 H 0.495(2) 0.1162(16) -0.1283(13)
C20 C 0.68510(15) 0.31105(11) -0.00243(10)
C21 C 0.75818(15) 0.45258(11) 0.01053(10)
#END
