
#######################################################################
#
#                 Cambridge Crystallographic Data Centre
#                                CCDC
#
#######################################################################
#
# If this CIF has been generated from an entry in the Cambridge
# Structural Database, then it will include bibliographic, chemical,
# crystal, experimental, refinement or atomic coordinate data resulting
# from the CCDC's data processing and validation procedures.
#
#######################################################################

data_CSD_CIF_TESBAX
_audit_creation_date 2017-12-13
_audit_creation_method CSD-ConQuest-V1
_database_code_CSD TESBAX
_database_code_depnum_ccdc_archive 'CCDC 1574114'
_chemical_formula_sum 'C21 H20 N2 O4'
_chemical_formula_moiety
;
C21 H20 N2 O4
;
_journal_coden_Cambridge 1291
_journal_year 2017
_journal_page_first 6734
_journal_name_full 'Eur.J.Org.Chem. '
loop_
_publ_author_name
"C.Despotopoulou"
"S.C.McKeon"
"R.Connon"
"V.Coeffard"
"H.Muller-Bunz"
"P.J.Guiry"
_chemical_name_systematic
;
methyl 3-(1-methyl-3-(2-nitro-1-phenylethyl)-1H-indol-4-yl)prop-2-enoate
;
_cell_volume   3577.029
_exptl_crystal_colour 'colorless'
_exptl_crystal_density_diffrn 1.353
_exptl_crystal_description 'block'
_diffrn_ambient_temperature 100
#These two values have been output from a single CSD field.
_refine_ls_R_factor_gt 0.0353
_refine_ls_wR_factor_gt 0.0353
_symmetry_cell_setting orthorhombic
_symmetry_space_group_name_H-M 'P b c a'
_symmetry_Int_Tables_number 61
loop_
_symmetry_equiv_pos_site_id
_symmetry_equiv_pos_as_xyz
1 x,y,z
2 1/2-x,-y,1/2+z
3 -x,1/2+y,1/2-z
4 1/2+x,1/2-y,-z
5 -x,-y,-z
6 -1/2+x,y,-1/2-z
7 x,-1/2-y,-1/2+z
8 -1/2-x,-1/2+y,z
_cell_length_a 17.7253(18)
_cell_length_b 8.0867(8)
_cell_length_c 24.955(2)
_cell_angle_alpha 90
_cell_angle_beta 90
_cell_angle_gamma 90
_cell_formula_units_Z 8
loop_
_atom_type_symbol
_atom_type_radius_bond
C 0.68
H 0.23
N 0.68
O 0.68
loop_
_atom_site_label
_atom_site_type_symbol
_atom_site_fract_x
_atom_site_fract_y
_atom_site_fract_z
N1 N 0.19395(8) 1.04156(19) 0.46879(6)
O1 O 0.25897(7) 1.03100(16) 0.48434(5)
O2 O 0.16276(8) 1.17180(16) 0.45823(6)
C1 C 0.14948(9) 0.8847(2) 0.46357(7)
H1 H 0.11940 0.86780 0.49660
H2 H 0.18470 0.79040 0.46010
C2 C 0.09690(9) 0.8869(2) 0.41553(7)
H3 H 0.06200 0.98310 0.41990
C3 C 0.04947(9) 0.7291(2) 0.41886(6)
C4 C -0.01884(9) 0.7300(2) 0.44636(7)
H4 H -0.03700 0.83030 0.46130
C5 C -0.06069(10) 0.5864(2) 0.45217(7)
H5 H -0.10700 0.58830 0.47130
C6 C -0.03472(11) 0.4407(2) 0.43006(7)
H6 H -0.06360 0.34230 0.43360
C7 C 0.03306(11) 0.4374(2) 0.40284(7)
H7 H 0.05100 0.33680 0.38790
C8 C 0.07484(10) 0.5813(2) 0.39730(7)
H8 H 0.12140 0.57860 0.37850
C9 C 0.13815(9) 0.9090(2) 0.36319(7)
C10 C 0.21320(9) 0.8775(2) 0.35434(7)
H9 H 0.24730 0.83800 0.38080
N2 N 0.23233(7) 0.91100(18) 0.30202(6)
C11 C 0.30851(9) 0.9153(2) 0.28058(8)
H10 H 0.30870 0.86830 0.24440
H11 H 0.34200 0.85050 0.30370
H12 H 0.32620 1.03000 0.27920
C12 C 0.10831(9) 0.9672(2) 0.31291(7)
C13 C 0.16904(9) 0.9685(2) 0.27620(7)
C14 C 0.16163(10) 1.0225(2) 0.22353(7)
H13 H 0.20330 1.02120 0.19960
C15 C 0.09182(10) 1.0778(2) 0.20724(7)
H14 H 0.08510 1.11520 0.17150
C16 C 0.03092(10) 1.0796(2) 0.24243(7)
H15 H -0.01640 1.11910 0.23000
C17 C 0.03690(9) 1.0256(2) 0.29529(7)
C18 C -0.02758(9) 1.0301(2) 0.33161(7)
H16 H -0.02680 0.95330 0.36040
C19 C -0.08715(9) 1.1292(2) 0.32905(7)
H17 H -0.09220 1.20570 0.30040
C20 C -0.14499(9) 1.1195(2) 0.37072(7)
O3 O -0.13913(7) 1.04233(16) 0.41218(5)
O4 O -0.20701(6) 1.20700(15) 0.35846(5)
C21 C -0.26686(10) 1.1983(2) 0.39778(8)
H18 H -0.28170 1.08270 0.40300
H19 H -0.31040 1.26200 0.38510
H20 H -0.24900 1.24440 0.43180
#END
