
#######################################################################
#
#                 Cambridge Crystallographic Data Centre
#                                CCDC
#
#######################################################################
#
# If this CIF has been generated from an entry in the Cambridge
# Structural Database, then it will include bibliographic, chemical,
# crystal, experimental, refinement or atomic coordinate data resulting
# from the CCDC's data processing and validation procedures.
#
#######################################################################

data_CSD_CIF_TESBIF
_audit_creation_date 2017-12-13
_audit_creation_method CSD-ConQuest-V1
_database_code_CSD TESBIF
_database_code_depnum_ccdc_archive 'CCDC 1574116'
_chemical_formula_sum 'C21 H20 N2 O4'
_chemical_formula_moiety
;
C21 H20 N2 O4
;
_journal_coden_Cambridge 1291
_journal_year 2017
_journal_page_first 6734
_journal_name_full 'Eur.J.Org.Chem. '
loop_
_publ_author_name
"C.Despotopoulou"
"S.C.McKeon"
"R.Connon"
"V.Coeffard"
"H.Muller-Bunz"
"P.J.Guiry"
_chemical_name_systematic
;
methyl 
(1-methyl-4-nitro-3-phenyl-1,3,4,5-tetrahydrobenzo[cd]indol-5-yl)acetate
;
_chemical_melting_point 450.15
_cell_volume    914.299
_exptl_crystal_colour 'colorless'
_exptl_crystal_density_diffrn 1.324
_exptl_special_details
;
Melting point range 450.15-458.15K

;
_exptl_crystal_description 'block'
_exptl_crystal_preparation 'dichloromethane/pentane'
_diffrn_ambient_temperature 100
#These two values have been output from a single CSD field.
_refine_ls_R_factor_gt 0.0343
_refine_ls_wR_factor_gt 0.0343
loop_
_citation_database_id_CSD
_citation_special_details
TESBEB "is a stereoisomer of this entry"
_symmetry_cell_setting triclinic
_symmetry_space_group_name_H-M 'P -1'
_symmetry_Int_Tables_number 2
loop_
_symmetry_equiv_pos_site_id
_symmetry_equiv_pos_as_xyz
1 x,y,z
2 -x,-y,-z
_cell_length_a 9.1824(1)
_cell_length_b 10.4958(2)
_cell_length_c 10.6993(1)
_cell_angle_alpha 73.0769(9)
_cell_angle_beta 68.6772(9)
_cell_angle_gamma 78.7157(9)
_cell_formula_units_Z 2
loop_
_atom_type_symbol
_atom_type_radius_bond
C 0.68
H 0.23
N 0.68
O 0.68
loop_
_atom_site_label
_atom_site_type_symbol
_atom_site_fract_x
_atom_site_fract_y
_atom_site_fract_z
C1 C 0.32281(11) 1.12628(10) 0.87977(11)
C2 C 0.38725(12) 1.23932(11) 0.78098(12)
H1 H 0.42990 1.30150 0.80390
C3 C 0.38564(13) 1.25594(11) 0.64809(12)
H2 H 0.42820 1.33190 0.57910
C4 C 0.32362(12) 1.16506(11) 0.61033(11)
H3 H 0.32570 1.18070 0.51770
C5 C 0.25970(11) 1.0532(1) 0.7081(1)
C6 C 0.26164(11) 1.0361(1) 0.84203(10)
N1 N 0.30476(10) 1.07688(9) 1.01846(9)
C7 C 0.35149(13) 1.13647(12) 1.10304(12)
H4 H 0.46230 1.10730 1.09370
H5 H 0.28660 1.10800 1.20000
H6 H 0.33710 1.23420 1.07240
C8 C 0.23787(11) 0.95732(10) 1.06507(10)
H7 H 0.21510 0.90280 1.15670
C9 C 0.20947(11) 0.92942(10) 0.95911(10)
C10 C 0.13313(11) 0.82071(10) 0.94906(10)
H8 H 0.01770 0.84930 0.97830
C11 C 0.15387(11) 0.68479(10) 1.04473(10)
C12 C 0.02591(12) 0.61052(11) 1.11817(11)
H9 H -0.07330 0.64460 1.10650
C13 C 0.04158(14) 0.48706(11) 1.20833(12)
H10 H -0.04690 0.43770 1.25840
C14 C 0.18630(14) 0.43573(11) 1.22545(11)
H11 H 0.19700 0.35150 1.28740
C15 C 0.31515(13) 0.50815(11) 1.15167(11)
H12 H 0.41460 0.47300 1.16230
C16 C 0.29904(12) 0.63209(10) 1.06219(10)
H13 H 0.38760 0.68140 1.01250
C17 C 0.18099(11) 0.81404(10) 0.79547(10)
H14 H 0.10380 0.76190 0.79050
N2 N 0.34135(10) 0.73801(9) 0.75001(9)
O1 O 0.34775(10) 0.63203(9) 0.72081(10)
O2 O 0.45648(8) 0.78596(8) 0.74255(8)
C18 C 0.17781(11) 0.95101(10) 0.68977(10)
H15 H 0.06460 0.98720 0.71090
C19 C 0.23153(12) 0.93282(11) 0.54178(10)
H16 H 0.23410 1.02170 0.47610
H17 H 0.33930 0.88650 0.51920
C20 C 0.12270(12) 0.85259(10) 0.52574(10)
O3 O -0.01281(8) 0.84252(8) 0.59829(7)
O4 O 0.19254(9) 0.79364(8) 0.42076(8)
C21 C 0.09628(16) 0.71047(13) 0.40264(12)
H18 H 0.15750 0.67030 0.32470
H19 H 0.00360 0.76550 0.38410
H20 H 0.06270 0.63950 0.48700
#END
