
#######################################################################
#
#                 Cambridge Crystallographic Data Centre
#                                CCDC
#
#######################################################################
#
# If this CIF has been generated from an entry in the Cambridge
# Structural Database, then it will include bibliographic, chemical,
# crystal, experimental, refinement or atomic coordinate data resulting
# from the CCDC's data processing and validation procedures.
#
#######################################################################

data_CSD_CIF_TESKIL
_audit_creation_date 1997-03-05
_audit_creation_method CSD-ConQuest-V1
_database_code_CSD TESKIL
_database_code_depnum_ccdc_archive 'CCDC 1269448'
_chemical_formula_sum 'C15 H10 N4 O9'
_chemical_formula_moiety
;
C15 H10 N4 O9
;
_journal_coden_Cambridge 154
_journal_volume 49
_journal_year 1996
_journal_page_first 469
_journal_name_full 'Aust.J.Chem. '
loop_
_publ_author_name
"C.P.Butts"
"L.Eberson"
"K.L.Fulton"
"M.P.Hartshorn"
"W.T.Robinson"
_chemical_name_systematic
;
trans-10-Trinitromethyl-9,10-dihydrophenanthren-9-yl nitrate
;
_chemical_melting_point 396.15
_cell_volume   1585.754
_exptl_crystal_colour 'yellow'
_exptl_crystal_density_diffrn 1.635
_exptl_special_details
;
Melts with decomposition.

;
_diffrn_ambient_temperature 158
#These two values have been output from a single CSD field.
_refine_ls_R_factor_gt 0.0463
_refine_ls_wR_factor_gt 0.0463
_symmetry_cell_setting monoclinic
_symmetry_space_group_name_H-M 'P 21/c'
_symmetry_Int_Tables_number 14
loop_
_symmetry_equiv_pos_site_id
_symmetry_equiv_pos_as_xyz
1 x,y,z
2 -x,1/2+y,1/2-z
3 -x,-y,-z
4 x,-1/2-y,-1/2+z
_cell_length_a 11.100(9)
_cell_length_b 8.126(6)
_cell_length_c 17.853(13)
_cell_angle_alpha 90
_cell_angle_beta 100.02(7)
_cell_angle_gamma 90
_cell_formula_units_Z 4
loop_
_atom_type_symbol
_atom_type_radius_bond
C 0.68
H 0.23
N 0.68
O 0.68
loop_
_atom_site_label
_atom_site_type_symbol
_atom_site_fract_x
_atom_site_fract_y
_atom_site_fract_z
O1 O 0.2284(2) 0.9188(2) -0.0385(1)
O2 O 0.1407(2) 0.7763(3) 0.0399(1)
O3 O 0.0243(2) 0.8831(2) -0.0585(1)
O4 O 0.1525(2) 1.2439(3) -0.2705(1)
O5 O 0.2973(2) 1.3747(3) -0.1953(1)
O6 O 0.0339(2) 1.4958(3) -0.0764(1)
O7 O 0.1638(2) 1.5975(3) -0.1416(1)
O8 O -0.0434(2) 1.1243(3) -0.1810(1)
O9 O -0.0669(2) 1.3754(3) -0.2234(1)
N1 N 0.1199(2) 0.8548(3) -0.0184(2)
N2 N 0.1969(2) 1.3117(3) -0.2111(1)
N3 N 0.1062(2) 1.4864(3) -0.1200(1)
N4 N -0.0090(2) 1.2640(3) -0.1878(1)
C1 C 0.2425(3) 1.3592(3) 0.0393(2)
C2 C 0.2717(2) 1.2698(3) -0.0215(2)
C3 C 0.3340(3) 1.4221(4) 0.0953(2)
C4 C 0.4549(3) 1.3938(4) 0.0908(2)
C5 C 0.4847(2) 1.3023(3) 0.0312(2)
C6 C 0.3953(2) 1.2384(3) -0.0258(2)
C7 C 0.5408(2) 1.1343(3) -0.1089(2)
C8 C 0.4252(2) 1.1341(3) -0.0880(2)
C9 C 0.5658(3) 1.0348(4) -0.1670(2)
C10 C 0.4765(2) 0.9331(4) -0.2066(2)
C11 C 0.3612(3) 0.9310(4) -0.1872(2)
C12 C 0.3352(2) 1.0300(3) -0.1289(2)
C13 C 0.2109(2) 1.0259(3) -0.1062(2)
C14 C 0.1706(2) 1.1949(3) -0.0804(2)
C15 C 0.1218(2) 1.3101(3) -0.1475(2)
H1 H 0.1591(3) 1.3776(3) 0.0427(2)
H2 H 0.3131(3) 1.4842(4) 0.1363(2)
H3 H 0.5179(3) 1.4370(4) 0.1287(2)
H4 H 0.5684(2) 1.2827(3) 0.0291(2)
H5 H 0.6030(2) 1.2039(3) -0.0828(2)
H6 H 0.6452(3) 1.0360(4) -0.1800(2)
H7 H 0.4944(2) 0.8655(4) -0.2467(2)
H8 H 0.2996(3) 0.8614(4) -0.2140(2)
H9 H 0.1482(2) 0.9792(3) -0.1478(2)
H10 H 0.1003(2) 1.1735(3) -0.0535(2)
#END
