
#######################################################################
#
#                 Cambridge Crystallographic Data Centre
#                                CCDC
#
#######################################################################
#
# If this CIF has been generated from an entry in the Cambridge
# Structural Database, then it will include bibliographic, chemical,
# crystal, experimental, refinement or atomic coordinate data resulting
# from the CCDC's data processing and validation procedures.
#
#######################################################################

data_CSD_CIF_TETXIC
_audit_creation_date 2017-12-14
_audit_creation_method CSD-ConQuest-V1
_database_code_CSD TETXIC
_database_code_depnum_ccdc_archive 'CCDC 1573305'
_chemical_formula_sum 'C26 H16 N2 O2'
_chemical_formula_moiety
;
C26 H16 N2 O2
;
_journal_coden_Cambridge 24
_journal_volume 59
_journal_year 2018
_journal_page_first 99
_journal_name_full 'Tetrahedron Lett. '
loop_
_publ_author_name
"F.Hassan"
"M.Kawamoto"
"K.Salikolimi"
"D.Hashizume"
"T.Hirose"
"Y.Ito"
_chemical_name_systematic
;
7-(4-nitrophenyl)-7H-dibenzo[c,g]carbazole
;
_cell_volume   3701.779
_exptl_crystal_colour 'yellow'
_exptl_crystal_density_diffrn 1.394
_exptl_crystal_description 'needle'
_exptl_crystal_preparation 'chloroform'
_diffrn_ambient_temperature 90
#These two values have been output from a single CSD field.
_refine_ls_R_factor_gt 0.0428
_refine_ls_wR_factor_gt 0.0428
_symmetry_cell_setting orthorhombic
_symmetry_space_group_name_H-M 'P b c a'
_symmetry_Int_Tables_number 61
loop_
_symmetry_equiv_pos_site_id
_symmetry_equiv_pos_as_xyz
1 x,y,z
2 1/2-x,-y,1/2+z
3 -x,1/2+y,1/2-z
4 1/2+x,1/2-y,-z
5 -x,-y,-z
6 -1/2+x,y,-1/2-z
7 x,-1/2-y,-1/2+z
8 -1/2-x,-1/2+y,z
_cell_length_a 9.30318(18)
_cell_length_b 16.8049(3)
_cell_length_c 23.6779(4)
_cell_angle_alpha 90
_cell_angle_beta 90
_cell_angle_gamma 90
_cell_formula_units_Z 8
loop_
_atom_type_symbol
_atom_type_radius_bond
C 0.68
H 0.23
N 0.68
O 0.68
loop_
_atom_site_label
_atom_site_type_symbol
_atom_site_fract_x
_atom_site_fract_y
_atom_site_fract_z
O1 O 0.38762(10) 0.08291(5) 0.54812(3)
O2 O 0.31670(11) 0.20561(6) 0.55063(3)
N1 N 0.53503(9) 0.19175(5) 0.29978(3)
N2 N 0.37119(10) 0.14874(6) 0.52624(4)
C1 C 0.61915(9) 0.25042(5) 0.21969(4)
C2 C 0.68674(10) 0.31511(5) 0.19028(4)
C3 C 0.65118(10) 0.33814(5) 0.13449(4)
H1 H 0.58022 0.30911 0.11430
C4 C 0.71784(11) 0.40200(6) 0.10900(4)
H2 H 0.69176 0.41670 0.07163
C5 C 0.82410(11) 0.44558(6) 0.13778(4)
H3 H 0.87362 0.48751 0.11920
C6 C 0.85597(11) 0.42714(6) 0.19300(4)
H4 H 0.92675 0.45719 0.21254
C7 C 0.78474(10) 0.36393(5) 0.22124(4)
C8 C 0.80399(10) 0.35198(5) 0.28053(4)
H5 H 0.87523 0.38184 0.29995
C9 C 0.72214(10) 0.29854(5) 0.30994(4)
H6 H 0.72915 0.29424 0.34985
C10 C 0.62681(10) 0.24997(5) 0.27881(4)
C11 C 0.47249(10) 0.15271(5) 0.25414(4)
C12 C 0.52745(9) 0.18449(5) 0.20378(4)
C13 C 0.49154(10) 0.14583(5) 0.15164(4)
C14 C 0.56611(10) 0.15777(5) 0.09996(4)
H7 H 0.64463 0.19387 0.09877
C15 C 0.52652(11) 0.11791(6) 0.05151(4)
H8 H 0.57791 0.12692 0.01743
C16 C 0.41055(11) 0.06391(6) 0.05203(4)
H9 H 0.38010 0.03899 0.01806
C17 C 0.34199(11) 0.04766(6) 0.10209(4)
H10 H 0.26631 0.00971 0.10268
C18 C 0.38192(10) 0.08641(5) 0.15289(4)
C19 C 0.31798(10) 0.06350(5) 0.20523(4)
H11 H 0.24145 0.02608 0.20504
C20 C 0.36394(10) 0.09397(5) 0.25559(4)
H12 H 0.32428 0.07627 0.29036
C21 C 0.49878(10) 0.18065(5) 0.35719(4)
C22 C 0.49154(10) 0.10392(6) 0.37981(4)
H13 H 0.51357 0.05917 0.35686
C23 C 0.45212(11) 0.09320(6) 0.43580(4)
H14 H 0.44792 0.04143 0.45183
C24 C 0.4190(1) 0.15980(6) 0.46783(4)
C25 C 0.42578(11) 0.23656(6) 0.44636(4)
H15 H 0.40264 0.28105 0.46939
C26 C 0.46702(10) 0.24690(5) 0.39065(4)
H16 H 0.47371 0.29893 0.37519
#END
