
#######################################################################
#
#                 Cambridge Crystallographic Data Centre
#                                CCDC
#
#######################################################################
#
# If this CIF has been generated from an entry in the Cambridge
# Structural Database, then it will include bibliographic, chemical,
# crystal, experimental, refinement or atomic coordinate data resulting
# from the CCDC's data processing and validation procedures.
#
#######################################################################

data_CSD_CIF_TETZOH
_audit_creation_date 1997-03-05
_audit_creation_method CSD-ConQuest-V1
_database_code_CSD TETZOH
_database_code_depnum_ccdc_journal 1145/1
_chemical_formula_sum 'C23 H18 N4 O6'
_chemical_formula_moiety
;
C23 H18 N4 O6
;
_journal_coden_Cambridge 1145
_journal_volume 6
_journal_year 1996
_journal_page_first 1113
_journal_name_full 'J.Mater.Chem. '
loop_
_publ_author_name
"M.Matsui"
"K.Shibata"
"H.Muramatsu"
"H.Nakazumi"
_chemical_name_systematic
;
N-(2,4,7-Trinitrofluorenylidene)-2,6-diethylaniline
;
_chemical_melting_point 432.15
_cell_volume   2109.298
_exptl_crystal_density_diffrn 1.406
_exptl_special_details
;
Melting point range 432.15-433.15K

;
_diffrn_ambient_temperature ?
_diffrn_special_details
;
The study was carried out at room temperature,in the range 283-303K

;
#These two values have been output from a single CSD field.
_refine_ls_R_factor_gt 0.098
_refine_ls_wR_factor_gt 0.098
_symmetry_cell_setting triclinic
_symmetry_space_group_name_H-M 'P -1'
_symmetry_Int_Tables_number 2
loop_
_symmetry_equiv_pos_site_id
_symmetry_equiv_pos_as_xyz
1 x,y,z
2 -x,-y,-z
_cell_length_a 12.881(6)
_cell_length_b 16.470(7)
_cell_length_c 10.455(4)
_cell_angle_alpha 98.45(4)
_cell_angle_beta 90.93(4)
_cell_angle_gamma 105.62(3)
_cell_formula_units_Z 4
loop_
_atom_type_symbol
_atom_type_radius_bond
C 0.68
H 0.23
N 0.68
O 0.68
loop_
_atom_site_label
_atom_site_type_symbol
_atom_site_fract_x
_atom_site_fract_y
_atom_site_fract_z
C1 C 1.034(2) 0.271(2) 0.036(3)
C2 C 1.039(2) 0.216(2) -0.090(3)
C3 C 0.952(2) 0.160(2) -0.165(3)
C4 C 0.982(2) 0.121(2) -0.273(3)
C5 C 1.088(2) 0.133(2) -0.308(3)
C6 C 1.169(2) 0.180(2) -0.231(3)
C7 C 1.151(2) 0.229(2) -0.118(3)
C8 C 1.218(2) 0.295(2) -0.015(2)
C9 C 1.335(2) 0.348(2) 0.013(3)
C10 C 1.359(2) 0.410(2) 0.127(3)
C11 C 1.300(2) 0.431(2) 0.219(3)
C12 C 1.186(2) 0.384(2) 0.194(3)
C13 C 1.153(2) 0.321(2) 0.084(3)
C14 C 0.843(2) 0.252(2) 0.058(3)
C15 C 0.781(2) 0.184(2) 0.117(3)
C16 C 0.671(2) 0.156(2) 0.078(3)
C17 C 0.632(2) 0.191(2) -0.011(3)
C18 C 0.690(2) 0.257(2) -0.066(3)
C19 C 0.802(2) 0.292(2) -0.033(3)
C20 C 0.830(2) 0.140(2) 0.209(3)
C21 C 0.861(2) 0.060(2) 0.143(3)
C22 C 0.870(2) 0.364(2) -0.092(3)
C23 C 0.822(3) 0.406(2) -0.181(3)
N1 N 0.958(2) 0.288(1) 0.107(2)
N2 N 0.894(2) 0.069(2) -0.360(3)
N3 N 1.409(3) 0.327(2) -0.081(3)
N4 N 1.328(3) 0.497(2) 0.333(3)
O1 O 0.805(2) 0.050(1) -0.324(2)
O2 O 0.915(2) 0.046(1) -0.474(2)
O3 O 1.398(2) 0.259(2) -0.153(2)
O4 O 1.492(2) 0.386(2) -0.080(3)
O5 O 1.429(2) 0.522(2) 0.335(3)
O6 O 1.266(2) 0.508(2) 0.406(2)
C24 C 0.470(2) -0.267(2) 0.647(3)
C25 C 0.462(2) -0.213(2) 0.548(3)
C26 C 0.539(2) -0.152(2) 0.496(3)
C27 C 0.511(2) -0.107(2) 0.403(3)
C28 C 0.402(2) -0.124(2) 0.364(3)
C29 C 0.326(2) -0.179(2) 0.419(3)
C30 C 0.349(2) -0.230(2) 0.513(2)
C31 C 0.286(2) -0.297(2) 0.583(3)
C32 C 0.174(2) -0.344(2) 0.584(3)
C33 C 0.149(2) -0.407(2) 0.658(3)
C34 C 0.220(2) -0.425(2) 0.739(3)
C35 C 0.329(2) -0.382(2) 0.742(3)
C36 C 0.357(2) -0.321(2) 0.666(3)
C37 C 0.665(2) -0.236(2) 0.686(3)
C38 C 0.720(2) -0.169(2) 0.786(3)
C39 C 0.834(2) -0.131(2) 0.774(3)
C40 C 0.879(2) -0.166(2) 0.662(3)
C41 C 0.821(2) -0.234(2) 0.566(3)
C42 C 0.709(2) -0.274(2) 0.573(3)
C43 C 0.669(2) -0.130(2) 0.903(3)
C44 C 0.624(2) -0.057(2) 0.882(3)
C45 C 0.644(2) -0.345(2) 0.476(3)
C46 C 0.706(2) -0.388(2) 0.383(3)
N5 N 0.552(2) -0.280(1) 0.709(2)
N6 N 0.594(2) -0.051(2) 0.340(3)
N7 N 0.088(2) -0.330(2) 0.507(3)
N8 N 0.190(2) -0.490(2) 0.818(3)
O7 O 0.682(2) -0.052(1) 0.357(2)
O8 O 0.565(2) -0.011(2) 0.268(3)
O9 O 0.104(1) -0.264(2) 0.463(2)
O10 O 0.005(2) -0.387(2) 0.487(3)
O11 O 0.096(2) -0.528(1) 0.810(2)
O12 O 0.257(2) -0.501(1) 0.889(2)
H1 H 0.87680 0.14880 -0.14040
H2 H 1.10550 0.10250 -0.39120
H3 H 1.24420 0.18140 -0.25120
H4 H 1.43570 0.44780 0.13790
H5 H 1.13310 0.39780 0.25510
H6 H 0.61910 0.11080 0.11080
H7 H 0.55400 0.17080 -0.04430
H8 H 0.65840 0.27980 -0.13970
H9 H 0.89800 0.17730 0.25560
H10 H 0.78500 0.12060 0.28020
H11 H 0.79880 0.01730 0.10440
H12 H 0.91160 0.07400 0.07930
H13 H 0.89520 0.03260 0.20420
H14 H 0.90390 0.41390 -0.02070
H15 H 0.93250 0.35210 -0.13260
H16 H 0.86840 0.45150 -0.21530
H17 H 0.79030 0.36140 -0.25920
H18 H 0.76140 0.42290 -0.14720
H19 H 0.61940 -0.14300 0.52010
H20 H 0.38200 -0.09730 0.28990
H21 H 0.24930 -0.18720 0.39380
H22 H 0.07190 -0.44500 0.65260
H23 H 0.38190 -0.39450 0.79940
H24 H 0.88210 -0.08550 0.83420
H25 H 0.95660 -0.14040 0.64840
H26 H 0.86050 -0.25530 0.48570
H27 H 0.61080 -0.17000 0.93800
H28 H 0.72190 -0.10500 0.98020
H29 H 0.68030 -0.01190 0.85450
H30 H 0.56900 -0.07680 0.81280
H31 H 0.59410 -0.03230 0.95560
H32 H 0.60230 -0.39210 0.51960
H33 H 0.59190 -0.32870 0.42740
H34 H 0.66210 -0.43350 0.31760
H35 H 0.74790 -0.34580 0.32940
H36 H 0.75750 -0.40980 0.42100
#END
