
#######################################################################
#
#                 Cambridge Crystallographic Data Centre
#                                CCDC
#
#######################################################################
#
# If this CIF has been generated from an entry in the Cambridge
# Structural Database, then it will include bibliographic, chemical,
# crystal, experimental, refinement or atomic coordinate data resulting
# from the CCDC's data processing and validation procedures.
#
#######################################################################

data_CSD_CIF_TEVDEG
_audit_creation_date 2017-12-14
_audit_creation_method CSD-ConQuest-V1
_database_code_CSD TEVDEG
_database_code_depnum_ccdc_archive 'CCDC 1522486'
_chemical_formula_sum 'C10 H6 N14 O16'
_chemical_formula_moiety
;
C10 H6 N14 O16
;
_journal_coden_Cambridge 34
_journal_volume 54
_journal_year 2017
_journal_page_first 3087
_journal_name_full 'J.Heterocycl.Chem. '
loop_
_publ_author_name
"R.Duddu"
"J.Hoare"
"Peggy Sanchez"
"R.Damavarapu"
"D.Parrish"
_chemical_name_systematic
;
4,4'-(2-oxo-1,2,5-oxadiazole-3,4-diyl)bis[N-(2,2,2-trinitroethyl)-1,2,5-oxadia
zol-3-amine]
;
_chemical_name_common
;
3,4-bis(2,2,2-trinitroethylaminofurazano)furoxan
;
_cell_volume   2102.067
_exptl_crystal_colour 'colorless'
_exptl_crystal_density_diffrn 1.827
_exptl_crystal_description 'rod'
_diffrn_ambient_temperature 100
_refine_special_details
;
O31 and O31' disordered over two sites with occupancies 0.844:0.156.

;
#These two values have been output from a single CSD field.
_refine_ls_R_factor_gt 0.0529
_refine_ls_wR_factor_gt 0.0529
_symmetry_cell_setting monoclinic
_symmetry_space_group_name_H-M 'P 21/c'
_symmetry_Int_Tables_number 14
loop_
_symmetry_equiv_pos_site_id
_symmetry_equiv_pos_as_xyz
1 x,y,z
2 -x,1/2+y,1/2-z
3 -x,-y,-z
4 x,-1/2-y,-1/2+z
_cell_length_a 12.172(3)
_cell_length_b 18.806(5)
_cell_length_c 9.889(2)
_cell_angle_alpha 90
_cell_angle_beta 111.780(3)
_cell_angle_gamma 90
_cell_formula_units_Z 4
loop_
_atom_type_symbol
_atom_type_radius_bond
C 0.68
H 0.23
N 0.68
O 0.68
loop_
_atom_site_label
_atom_site_type_symbol
_atom_site_fract_x
_atom_site_fract_y
_atom_site_fract_z
C1 C 0.5072(2) -0.15877(14) 0.6407(3)
C2 C 0.5226(3) -0.11884(15) 0.7788(3)
H1 H 0.44400 -0.10580 0.77960
H2 H 0.56260 -0.14980 0.86390
N1 N 0.5921(2) -0.05506(12) 0.7899(3)
H3 H 0.65420 -0.05580 0.76470
C3 C 0.5603(3) 0.00655(14) 0.8400(3)
N2 N 0.4534(2) 0.01944(12) 0.8349(3)
O1 O 0.46091(18) 0.08804(10) 0.8950(2)
N3 N 0.5737(2) 0.11465(13) 0.9367(3)
C4 C 0.6351(3) 0.06602(14) 0.9036(3)
C5 C 0.7605(3) 0.07377(14) 0.9291(3)
N4 N 0.8026(2) 0.03506(14) 0.8505(3)
O2 O 0.9213(2) 0.05026(12) 0.8947(2)
N5 N 0.9492(2) 0.10143(13) 1.0090(3)
C6 C 0.8514(2) 0.11631(14) 1.0313(3)
C7 C 0.8517(2) 0.16395(14) 1.1468(3)
N6 N 0.7734(2) 0.15607(13) 1.2072(3)
O3 O 0.79709(17) 0.20826(11) 1.3107(2)
N7 N 0.8944(2) 0.24928(13) 1.3157(3)
C8 C 0.9282(2) 0.22240(15) 1.2155(3)
N8 N 1.0208(2) 0.24908(12) 1.1846(3)
H4 H 1.03510 0.23350 1.10880
C9 C 1.0946(3) 0.30322(15) 1.2785(3)
H5 H 1.17440 0.28340 1.33200
H6 H 1.06060 0.31780 1.35090
C10 C 1.1050(3) 0.36793(15) 1.1916(3)
N9 N 0.4680(2) -0.11063(14) 0.5088(3)
O4 O 0.5193(2) -0.11585(13) 0.4244(2)
O5 O 0.3870(2) -0.07067(13) 0.4999(3)
N10 N 0.6191(2) -0.19607(13) 0.6444(3)
O6 O 0.71241(18) -0.16687(12) 0.7165(3)
O7 O 0.60858(19) -0.25174(11) 0.5776(3)
N11 N 0.4152(2) -0.21761(13) 0.6148(3)
O8 O 0.43143(18) -0.25498(11) 0.7211(2)
O9 O 0.33731(18) -0.22140(12) 0.4950(2)
O10 O 1.0514(2) 0.11847(12) 1.0590(3)
N12 N 1.1910(2) 0.35755(15) 1.1150(3)
O11 O 1.1995(2) 0.29639(13) 1.0770(3)
O12 O 1.2415(2) 0.40987(14) 1.0960(3)
N13 N 1.1492(2) 0.43168(13) 1.2917(3)
O13 O 1.1000(2) 0.48821(12) 1.2527(3)
O14 O 1.2303(2) 0.41883(12) 1.4057(2)
N14 N 0.9863(2) 0.38811(13) 1.0759(3)
O15 O 0.9856(2) 0.40034(13) 0.9552(3)
O16 O 0.9042(2) 0.38944(13) 1.1164(3)
O17? O 0.7900(9) -0.0030(6) 0.7504(11)
#END
