
#######################################################################
#
#                 Cambridge Crystallographic Data Centre
#                                CCDC
#
#######################################################################
#
# If this CIF has been generated from an entry in the Cambridge
# Structural Database, then it will include bibliographic, chemical,
# crystal, experimental, refinement or atomic coordinate data resulting
# from the CCDC's data processing and validation procedures.
#
#######################################################################

data_CSD_CIF_TEVHIN
_audit_creation_date 2013-05-24
_audit_creation_method CSD-ConQuest-V1
_database_code_CSD TEVHIN
_database_code_depnum_ccdc_archive 'CCDC 859955'
_chemical_formula_sum 'C23 H25 N1 O8'
_chemical_formula_moiety
;
C23 H25 N1 O8
;
_journal_coden_Cambridge 179
_journal_volume 52
_journal_year 2013
_journal_page_first 2032
_journal_name_full 'Angew.Chem.,Int.Ed. '
loop_
_publ_author_name
"Wenju Zhu"
"Jie Fang"
"Yong Liu"
"Jun Ren"
"Zhongwen Wang"
_chemical_name_systematic
;
Methyl 
13-(((4-nitrobenzoyl)oxy)methyl)-11-oxo-12-oxatetracyclo[6.5.1.0^1,10^.0^4,8^]
tetradecane-10-carboxylate
;
_cell_volume   1058.360
_exptl_crystal_colour 'colorless'
_exptl_crystal_density_diffrn 1.392
_exptl_crystal_description 'Prism'
_diffrn_ambient_temperature 113
#These two values have been output from a single CSD field.
_refine_ls_R_factor_gt 0.076
_refine_ls_wR_factor_gt 0.076
_symmetry_cell_setting triclinic
_symmetry_space_group_name_H-M 'P -1'
_symmetry_Int_Tables_number 2
loop_
_symmetry_equiv_pos_site_id
_symmetry_equiv_pos_as_xyz
1 x,y,z
2 -x,-y,-z
_cell_length_a 7.109(8)
_cell_length_b 12.038(14)
_cell_length_c 13.407(15)
_cell_angle_alpha 111.510(15)
_cell_angle_beta 90.55(2)
_cell_angle_gamma 96.732(11)
_cell_formula_units_Z 2
loop_
_atom_type_symbol
_atom_type_radius_bond
C 0.68
H 0.23
N 0.68
O 0.68
loop_
_atom_site_label
_atom_site_type_symbol
_atom_site_fract_x
_atom_site_fract_y
_atom_site_fract_z
N1 N 0.7090(6) 1.7651(4) 0.5356(4)
O1 O 0.2817(4) 0.6821(3) 0.1968(2)
O2 O 0.3242(5) 0.8809(3) 0.2926(2)
O3 O 0.1883(4) 0.9348(2) 0.0804(2)
O4 O 0.4692(4) 1.0337(2) 0.1596(2)
O5 O 0.7743(4) 1.2144(3) 0.2543(2)
O6 O 0.8456(5) 1.2089(3) 0.4165(3)
O7 O 0.7112(6) 1.8186(3) 0.4746(3)
O8 O 0.6911(6) 1.8107(3) 0.6322(3)
C1 C 0.4127(5) 0.7176(3) 0.0042(3)
H1 H 0.35470 0.64070 0.00840
H2 H 0.33520 0.73680 -0.04760
C2 C 0.6183(5) 0.7100(3) -0.0291(3)
C3 C 0.6477(6) 0.6567(4) -0.1504(3)
H3 H 0.55760 0.58280 -0.18650
H4 H 0.63040 0.71570 -0.18420
C4 C 0.8534(6) 0.6279(4) -0.1567(3)
H5 H 0.93830 0.69110 -0.17090
H6 H 0.86220 0.54950 -0.21500
C5 C 0.9102(6) 0.6233(4) -0.0470(3)
H7 H 1.00570 0.69260 -0.00640
H8 H 0.96300 0.54780 -0.05650
C6 C 0.7232(5) 0.6290(4) 0.0116(3)
H9 H 0.64980 0.54660 -0.01670
C7 C 0.7422(6) 0.6713(3) 0.1359(3)
H10 H 0.62890 0.63480 0.16060
H11 H 0.85420 0.64090 0.15620
C8 C 0.7627(6) 0.8082(4) 0.1948(3)
H12 H 0.89800 0.84120 0.19900
H13 H 0.72300 0.82630 0.26910
C9 C 0.6453(6) 0.8716(4) 0.1406(3)
C10 C 0.6422(6) 1.0072(4) 0.2054(4)
H14 H 0.62540 1.01990 0.28260
C11 C 0.3422(6) 0.9322(4) 0.1149(3)
C12 C 0.4287(5) 0.8210(3) 0.1167(3)
C13 C 0.3358(6) 0.7827(4) 0.2043(3)
C14 C 0.2475(7) 0.8597(4) 0.3848(3)
H15 H 0.12070 0.81380 0.36480
H16 H 0.23920 0.93700 0.44310
H17 H 0.33070 0.81400 0.40890
C15 C 0.7082(6) 0.8423(4) 0.0261(3)
H18 H 0.84820 0.85030 0.02400
H19 H 0.65820 0.89460 -0.00740
C16 C 0.8009(6) 1.0870(4) 0.1979(4)
H20 H 0.82080 1.07210 0.12140
H21 H 0.91600 1.07030 0.22940
C17 C 0.7989(6) 1.2619(4) 0.3612(4)
C18 C 0.7718(6) 1.3926(4) 0.4054(3)
C19 C 0.7620(5) 1.4569(4) 0.3396(3)
H22 H 0.76780 1.41690 0.26420
C20 C 0.7438(6) 1.5799(4) 0.3812(3)
H23 H 0.73960 1.62450 0.33580
C21 C 0.7321(6) 1.6337(4) 0.4908(3)
C22 C 0.7402(6) 1.5735(4) 0.5595(3)
H24 H 0.73200 1.61400 0.63460
C23 C 0.7606(6) 1.4520(4) 0.5169(3)
H25 H 0.76700 1.40860 0.56310
#END
