
#######################################################################
#
#                 Cambridge Crystallographic Data Centre
#                                CCDC
#
#######################################################################
#
# If this CIF has been generated from an entry in the Cambridge
# Structural Database, then it will include bibliographic, chemical,
# crystal, experimental, refinement or atomic coordinate data resulting
# from the CCDC's data processing and validation procedures.
#
#######################################################################

data_CSD_CIF_TEVKAI
_audit_creation_date 2013-05-24
_audit_creation_method CSD-ConQuest-V1
_database_code_CSD TEVKAI
_database_code_depnum_ccdc_archive 'CCDC 859853'
_chemical_formula_sum 'C5 H9 N3 O2'
_chemical_formula_moiety
;
C5 H9 N3 O2
;
_journal_coden_Cambridge 222
_journal_volume 41
_journal_year 2012
_journal_page_first 11579
_journal_name_full 'Dalton Trans. '
loop_
_publ_author_name
"Guoxin Tian"
"S.J.Teat"
"Zhiyong Zhang"
"Linfeng Rao"
_chemical_name_systematic
;
N,N'-Dihydroxypiperidine-2,6-diimine
;
_chemical_name_common
;
Glutarimidedioxime
;
_cell_volume   1367.824
_exptl_crystal_colour 'colorless'
_exptl_crystal_density_diffrn 1.39
_exptl_crystal_description 'lath'
_diffrn_ambient_temperature 100
_diffrn_radiation_probe x-ray
_diffrn_source synchrotron
#These two values have been output from a single CSD field.
_refine_ls_R_factor_gt 0.0446
_refine_ls_wR_factor_gt 0.0446
_symmetry_cell_setting orthorhombic
_symmetry_space_group_name_H-M 'P b a m'
_symmetry_Int_Tables_number 55
loop_
_symmetry_equiv_pos_site_id
_symmetry_equiv_pos_as_xyz
1 x,y,z
2 -x,-y,z
3 1/2-x,1/2+y,-z
4 1/2+x,1/2-y,-z
5 -x,-y,-z
6 x,y,-z
7 -1/2+x,-1/2-y,z
8 -1/2-x,-1/2+y,z
_cell_length_a 7.1205(7)
_cell_length_b 14.1467(13)
_cell_length_c 13.5789(12)
_cell_angle_alpha 90
_cell_angle_beta 90
_cell_angle_gamma 90
_cell_formula_units_Z 8
loop_
_atom_type_symbol
_atom_type_radius_bond
C 0.68
H 0.23
N 0.68
O 0.68
loop_
_atom_site_label
_atom_site_type_symbol
_atom_site_fract_x
_atom_site_fract_y
_atom_site_fract_z
O1 O 0.68320(14) 0.40570(6) 0.15400(7)
H1 H 0.607(3) 0.3951(16) 0.2105(19)
N1 N 0.73902(16) 0.50098(8) 0.17088(7)
N2 N 0.7586(2) 0.49961(11) 0.00000
H2 H 0.708(4) 0.442(2) 0.00000
C1 C 0.77590(17) 0.54333(9) 0.09002(8)
C2 C 0.83881(19) 0.64519(9) 0.09189(9)
H3 H 0.97760 0.64810 0.09420
H4 H 0.78900 0.67670 0.15150
C3 C 0.7678(3) 0.69618(13) 0.00000
H5 H 0.81330 0.76230 0.00000
H6 H 0.62880 0.69720 0.00000
O2 O 0.69252(13) 0.59167(7) 0.34588(7)
H7 H 0.724(3) 0.5570(17) 0.2942(18)
N3 N 0.50240(16) 0.61691(8) 0.32884(7)
N4 N 0.5028(2) 0.62358(10) 0.50000
H8 H 0.623(4) 0.6023(18) 0.50000
C4 C 0.41580(18) 0.63303(8) 0.41003(8)
C5 C 0.21438(19) 0.66376(10) 0.40796(9)
H9 H 0.15230 0.63780 0.34860
H10 H 0.20780 0.73360 0.40460
C6 C 0.1123(3) 0.62918(14) 0.50000
H11 H 0.10750 0.55920 0.50000
H12 H -0.01820 0.65330 0.50000
O1E O 0.68320(14) 0.40570(6) -0.15400(7)
H1E H 0.607(3) 0.3951(16) -0.2105(19)
N1E N 0.73902(16) 0.50098(8) -0.17088(7)
C1E C 0.77590(17) 0.54333(9) -0.09002(8)
C2E C 0.83881(19) 0.64519(9) -0.09189(9)
H3E H 0.97760 0.64810 -0.09420
H4E H 0.78900 0.67670 -0.15150
O2E O 0.69252(13) 0.59167(7) 0.65412(7)
H7E H 0.724(3) 0.5570(17) 0.7058(18)
N3E N 0.50240(16) 0.61691(8) 0.67116(7)
C4E C 0.41580(18) 0.63303(8) 0.58997(8)
C5E C 0.21438(19) 0.66376(10) 0.59204(9)
H9E H 0.15230 0.63780 0.65140
H10E H 0.20780 0.73360 0.59540
#END
