
#######################################################################
#
#                 Cambridge Crystallographic Data Centre
#                                CCDC
#
#######################################################################
#
# If this CIF has been generated from an entry in the Cambridge
# Structural Database, then it will include bibliographic, chemical,
# crystal, experimental, refinement or atomic coordinate data resulting
# from the CCDC's data processing and validation procedures.
#
#######################################################################

data_CSD_CIF_TEVKAI01
_audit_creation_date 2016-06-28
_audit_creation_method CSD-ConQuest-V1
_database_code_CSD TEVKAI01
_database_code_depnum_ccdc_archive 'CCDC 867309'
_chemical_formula_sum 'C5 H9 N3 O2'
_chemical_formula_moiety
;
C5 H9 N3 O2
;
_journal_coden_Cambridge 1381
_journal_volume 51
_journal_year 2012
_journal_page_first 6619
_journal_name_full 'Ind.Eng.Chem.Res. '
loop_
_publ_author_name
"Sung Ok Kang"
"S.Vukovic"
"R.Custelcean"
"B.P.Hay"
_chemical_name_systematic
;
N,N'-dihydroxypiperidine-2,6-diimine
;
_cell_volume   1365.554
_exptl_crystal_colour 'colorless'
_exptl_crystal_density_diffrn 1.393
_exptl_crystal_description 'Rectangular parallelepiped'
_diffrn_ambient_temperature 100
#These two values have been output from a single CSD field.
_refine_ls_R_factor_gt 0.0402
_refine_ls_wR_factor_gt 0.0402
_symmetry_cell_setting orthorhombic
_symmetry_space_group_name_H-M 'P b a m'
_symmetry_Int_Tables_number 55
loop_
_symmetry_equiv_pos_site_id
_symmetry_equiv_pos_as_xyz
1 x,y,z
2 -x,-y,z
3 1/2-x,1/2+y,-z
4 1/2+x,1/2-y,-z
5 -x,-y,-z
6 x,y,-z
7 -1/2+x,-1/2-y,z
8 -1/2-x,-1/2+y,z
_cell_length_a 14.1588(4)
_cell_length_b 7.1036(2)
_cell_length_c 13.5770(4)
_cell_angle_alpha 90
_cell_angle_beta 90
_cell_angle_gamma 90
_cell_formula_units_Z 8
loop_
_atom_type_symbol
_atom_type_radius_bond
C 0.68
H 0.23
N 0.68
O 0.68
loop_
_atom_site_label
_atom_site_type_symbol
_atom_site_fract_x
_atom_site_fract_y
_atom_site_fract_z
O1 O 0.59452(8) 0.31614(17) 0.15408(8)
H1 H 0.6062(18) 0.389(4) 0.211(2)
N1 N 0.50063(15) 0.2416(3) 0.00000
H2 H 0.556(2) 0.292(4) 0.00000
N2 N 0.49923(10) 0.26089(19) 0.17063(9)
C1 C 0.45698(12) 0.2248(2) 0.09011(10)
C2 C 0.35516(12) 0.1625(2) 0.09181(12)
H3 H 0.3527(15) 0.025(3) 0.0933(13)
H4 H 0.3262(16) 0.206(3) 0.1527(16)
C3 C 0.30453(17) 0.2339(3) 0.00000
H5 H 0.304(2) 0.367(4) 0.00000
H6 H 0.240(2) 0.190(4) 0.00000
O2 O 0.59148(9) 0.69299(16) 0.65406(8)
H7 H 0.5574(18) 0.722(3) 0.706(2)
N3 N 0.62347(13) 0.5029(3) 0.50000
H8 H 0.602(2) 0.617(5) 0.50000
N4 N 0.61686(10) 0.5023(2) 0.67115(10)
C4 C 0.63311(11) 0.4164(2) 0.59002(10)
C5 C 0.66390(13) 0.2146(2) 0.59196(12)
H9 H 0.6403(15) 0.159(3) 0.6515(16)
H10 H 0.7304(16) 0.210(3) 0.5926(14)
C6 C 0.62955(18) 0.1118(4) 0.50000
H11 H 0.6496(19) -0.014(4) 0.50000
H12 H 0.558(2) 0.107(4) 0.50000
O1E O 0.59452(8) 0.31614(17) -0.15408(8)
H1E H 0.6062(18) 0.389(4) -0.211(2)
N2E N 0.49923(10) 0.26089(19) -0.17063(9)
C1E C 0.45698(12) 0.2248(2) -0.09011(10)
C2E C 0.35516(12) 0.1625(2) -0.09181(12)
H3E H 0.3527(15) 0.025(3) -0.0933(13)
H4E H 0.3262(16) 0.206(3) -0.1527(16)
O2E O 0.59148(9) 0.69299(16) 0.34594(8)
H7E H 0.5574(18) 0.722(3) 0.294(2)
N4E N 0.61686(10) 0.5023(2) 0.32885(10)
C4E C 0.63311(11) 0.4164(2) 0.40998(10)
C5E C 0.66390(13) 0.2146(2) 0.40804(12)
H9E H 0.6403(15) 0.159(3) 0.3485(16)
H10E H 0.7304(16) 0.210(3) 0.4074(14)
#END
