
#######################################################################
#
#                 Cambridge Crystallographic Data Centre
#                                CCDC
#
#######################################################################
#
# If this CIF has been generated from an entry in the Cambridge
# Structural Database, then it will include bibliographic, chemical,
# crystal, experimental, refinement or atomic coordinate data resulting
# from the CCDC's data processing and validation procedures.
#
#######################################################################

data_CSD_CIF_TEVSET
_audit_creation_date 2007-02-21
_audit_creation_method CSD-ConQuest-V1
_database_code_CSD TEVSET
_database_code_depnum_ccdc_archive 'CCDC 633684'
_chemical_formula_sum 'C18 H16 N4 O4'
_chemical_formula_moiety
;
C18 H16 N4 O4
;
_journal_coeditor_code "IUCr ER2023"
_journal_coden_Cambridge 1370
_journal_volume 63
_journal_year 2007
_journal_page_first o36
_journal_name_full 'Acta Crystallogr.,Sect.E:Struct.Rep.Online '
loop_
_publ_author_name
"Ding-Ben Chen"
"Ling Huang"
_chemical_name_systematic
;
4-((1E)-(2-Hydroxy-5-nitrophenyl)methyleneamino)-1,5-dimethyl-2-phenyl-1H-pyra
zol-3(2H)-one
;
_chemical_melting_point 472.4
_cell_volume   3321.315
_exptl_crystal_colour 'yellow'
_exptl_crystal_density_diffrn 1.409
_exptl_special_details
;
Melting point range 472.4-472.8K

;
_exptl_crystal_description 'Block'
_exptl_crystal_preparation 'methanol'
_diffrn_ambient_temperature 298
#These two values have been output from a single CSD field.
_refine_ls_R_factor_gt 0.0838
_refine_ls_wR_factor_gt 0.0838
_symmetry_cell_setting monoclinic
_symmetry_space_group_name_H-M 'P 21/c'
_symmetry_Int_Tables_number 14
loop_
_symmetry_equiv_pos_site_id
_symmetry_equiv_pos_as_xyz
1 x,y,z
2 -x,1/2+y,1/2-z
3 -x,-y,-z
4 x,-1/2-y,-1/2+z
_cell_length_a 8.4387(13)
_cell_length_b 36.870(5)
_cell_length_c 13.3937(16)
_cell_angle_alpha 90
_cell_angle_beta 127.155(7)
_cell_angle_gamma 90
_cell_formula_units_Z 8
loop_
_atom_type_symbol
_atom_type_radius_bond
C 0.68
H 0.23
N 0.68
O 0.68
loop_
_atom_site_label
_atom_site_type_symbol
_atom_site_fract_x
_atom_site_fract_y
_atom_site_fract_z
O1 O 0.2830(4) 0.77773(7) 0.1845(2)
H1 H 0.27810 0.79700 0.21300
O2 O 0.2315(5) 0.63006(7) 0.3851(3)
O3 O 0.2078(6) 0.66537(8) 0.5008(3)
O4 O 0.1932(4) 0.84480(6) 0.5249(2)
O5 O 0.7367(5) 0.78438(7) 0.7005(3)
H2 H 0.73040 0.80200 0.73530
O6 O 0.7847(6) 0.80468(11) 0.2595(4)
O7 O 0.7373(5) 0.86008(11) 0.2873(3)
O8 O 0.6736(4) 0.93631(6) 0.7206(2)
N1 N 0.2292(5) 0.66043(8) 0.4203(3)
N2 N 0.2536(4) 0.82060(7) 0.3278(2)
N3 N 0.2186(4) 0.91586(7) 0.3663(2)
N4 N 0.2107(4) 0.90198(7) 0.4606(2)
N5 N 0.7597(5) 0.82762(13) 0.3142(3)
N6 N 0.7401(4) 0.85204(7) 0.7526(3)
N7 N 0.7594(4) 0.90085(8) 0.9884(3)
N8 N 0.7023(4) 0.92895(7) 0.9023(3)
C1 C 0.2734(5) 0.75023(9) 0.2458(3)
C2 C 0.2529(5) 0.75591(8) 0.3415(3)
C3 C 0.2413(5) 0.72596(8) 0.3990(3)
H3 H 0.23000 0.72910 0.46340
C4 C 0.2464(5) 0.69151(8) 0.3615(3)
C5 C 0.2663(6) 0.68606(9) 0.2676(3)
H4 H 0.26880 0.66270 0.24260
C6 C 0.2821(6) 0.71525(10) 0.2121(3)
H5 H 0.29910 0.71160 0.15040
C7 C 0.2448(5) 0.79222(8) 0.3793(3)
H6 H 0.23270 0.79500 0.44340
C8 C 0.2443(4) 0.85527(8) 0.3666(3)
C9 C 0.2539(5) 0.88659(8) 0.3182(3)
C10 C 0.2141(5) 0.86419(8) 0.4594(3)
C11 C 0.1099(5) 0.92154(8) 0.4989(3)
C12 C -0.0439(5) 0.94483(10) 0.4193(3)
H7 H -0.08050 0.94930 0.33960
C13 C -0.1440(6) 0.96161(10) 0.4590(4)
H8 H -0.24770 0.97750 0.40570
C14 C -0.0918(6) 0.95497(10) 0.5754(4)
H9 H -0.16140 0.96590 0.60080
C15 C 0.0633(6) 0.93211(9) 0.6551(4)
H10 H 0.09910 0.92770 0.73470
C16 C 0.1666(5) 0.91571(9) 0.6181(3)
H11 H 0.27430 0.90070 0.67330
C17 C 0.2970(6) 0.89201(9) 0.2266(3)
H12 H 0.29180 0.86910 0.19080
H13 H 0.42710 0.90240 0.26850
H14 H 0.19980 0.90810 0.16140
C18 C 0.3341(6) 0.94947(9) 0.4015(4)
H15 H 0.46810 0.94520 0.47420
H16 H 0.27500 0.96790 0.42000
H17 H 0.33480 0.95730 0.33350
C19 C 0.7455(5) 0.79567(10) 0.6090(3)
C20 C 0.7461(5) 0.83279(9) 0.5852(3)
C21 C 0.7523(5) 0.84263(10) 0.4880(3)
H18 H 0.75270 0.86700 0.47030
C22 C 0.7578(5) 0.81638(11) 0.4175(3)
C23 C 0.7613(6) 0.77979(11) 0.4419(4)
H19 H 0.76780 0.76240 0.39420
C24 C 0.7549(6) 0.76974(10) 0.5375(4)
H20 H 0.75690 0.74530 0.55490
C25 C 0.7373(5) 0.86064(9) 0.6586(3)
H21 H 0.72940 0.88490 0.63720
C26 C 0.7324(5) 0.87798(9) 0.8248(3)
C27 C 0.7632(5) 0.86986(9) 0.9344(3)
C28 C 0.6992(5) 0.91661(9) 0.8030(3)
C29 C 0.7209(5) 0.96573(9) 0.9400(3)
C30 C 0.8807(6) 0.97718(11) 1.0564(3)
H22 H 0.97800 0.96070 1.11300
C31 C 0.8962(7) 1.01322(12) 1.0890(4)
H23 H 1.00440 1.02100 1.16770
C32 C 0.7532(7) 1.03746(11) 1.0061(4)
H24 H 0.76340 1.06170 1.02820
C33 C 0.5948(7) 1.02572(11) 0.8905(4)
H25 H 0.49800 1.04220 0.83370
C34 C 0.5771(6) 0.98988(10) 0.8572(3)
H26 H 0.46800 0.98210 0.77880
C35 C 0.7994(6) 0.83390(11) 0.9950(4)
H27 H 0.92320 0.83450 1.07780
H28 H 0.80510 0.81560 0.94630
H29 H 0.69330 0.82840 1.00010
C36 C 0.6904(7) 0.90264(12) 1.0652(4)
H30 H 0.54770 0.90300 1.01200
H31 H 0.74040 0.92430 1.11510
H32 H 0.73760 0.88180 1.11910
#END
