
#######################################################################
#
#                 Cambridge Crystallographic Data Centre
#                                CCDC
#
#######################################################################
#
# If this CIF has been generated from an entry in the Cambridge
# Structural Database, then it will include bibliographic, chemical,
# crystal, experimental, refinement or atomic coordinate data resulting
# from the CCDC's data processing and validation procedures.
#
#######################################################################

data_CSD_CIF_TEWHOS
_audit_creation_date 1997-03-05
_audit_creation_method CSD-ConQuest-V1
_database_code_CSD TEWHOS
_database_code_depnum_ccdc_archive 'CCDC 1269813; CCDC 405040'
_database_code_depnum_ccdc_fiz 'CSD 405040'
_chemical_formula_sum 'C13 H20 N6 O6'
_chemical_formula_moiety
;
C13 H20 N6 O6
;
_journal_coden_Cambridge 167
_journal_year 1996
_journal_page_first 1175
_journal_name_full 'Liebigs Ann. '
loop_
_publ_author_name
"J.J.Wolff"
"F.Gredel"
"D.Hillenbrand"
"H.Irngartinger"
_chemical_name_systematic
;
1,3-bis(Dimethylamino)-5-(isopropylamino)-2,4,6-trinitrobenzene
;
_chemical_melting_point 518.15
_cell_volume   1696.366
_exptl_crystal_colour 'yellow'
_exptl_crystal_density_diffrn 1.39
_exptl_special_details
;
Melts above 518.15K

;
_diffrn_ambient_temperature ?
_diffrn_special_details
;
The study was carried out at room temperature,in the range 283-303K

;
#These two values have been output from a single CSD field.
_refine_ls_R_factor_gt 0.065
_refine_ls_wR_factor_gt 0.065
_symmetry_cell_setting triclinic
_symmetry_space_group_name_H-M 'P -1'
_symmetry_Int_Tables_number 2
loop_
_symmetry_equiv_pos_site_id
_symmetry_equiv_pos_as_xyz
1 x,y,z
2 -x,-y,-z
_cell_length_a 12.623(2)
_cell_length_b 16.821(3)
_cell_length_c 8.888(2)
_cell_angle_alpha 100.98(2)
_cell_angle_beta 110.35(1)
_cell_angle_gamma 74.68(2)
_cell_formula_units_Z 4
loop_
_atom_type_symbol
_atom_type_radius_bond
C 0.68
H 0.23
N 0.68
O 0.68
loop_
_atom_site_label
_atom_site_type_symbol
_atom_site_fract_x
_atom_site_fract_y
_atom_site_fract_z
O1 O 0.3445(2) 0.0874(2) 1.0713(3)
O2 O 0.1769(2) 0.1711(2) 1.0384(3)
O3 O 0.0113(3) 0.0861(2) 0.2954(3)
O4 O -0.0952(2) 0.0863(2) 0.4415(4)
O5 O 0.3056(3) -0.0417(2) 0.3740(3)
O6 O 0.4051(3) -0.1090(2) 0.5826(4)
N1 N 0.2414(3) 0.1091(2) 0.9882(4)
N2 N -0.0036(3) 0.1299(2) 0.7759(4)
N3 N -0.0036(3) 0.0933(2) 0.4299(4)
N4 N 0.2318(3) 0.1370(2) 0.4727(4)
N5 N 0.3333(3) -0.0468(2) 0.5213(4)
N6 N 0.3509(3) -0.0582(2) 0.8506(4)
C1 C 0.2002(3) 0.0676(2) 0.8356(4)
C2 C 0.0893(3) 0.1020(2) 0.7258(4)
C3 C 0.0885(3) 0.1072(2) 0.5684(4)
C4 C 0.2029(3) 0.0889(2) 0.5452(4)
C5 C 0.2834(3) 0.0161(2) 0.6178(4)
C6 C 0.2824(3) 0.0042(2) 0.7716(4)
C7 C -0.0149(3) 0.0992(3) 0.9103(5)
C8 C -0.0996(4) 0.1962(3) 0.7062(6)
C9 C 0.1508(4) 0.2106(3) 0.4038(5)
C10 C 0.3478(3) 0.1233(3) 0.4571(5)
C11 C 0.3426(3) -0.0876(2) 0.9910(4)
C12 C 0.4602(4) -0.1036(3) 1.1180(5)
C13 C 0.2940(4) -0.1652(3) 0.9336(6)
H1 H 0.400(3) -0.094(2) 0.807(4)
H2 H -0.08710 0.12470 0.92960
H3 H -0.00800 0.03730 0.88940
H4 H 0.05040 0.10860 1.00990
H5 H -0.16030 0.20780 0.75730
H6 H -0.07230 0.24840 0.71960
H7 H -0.13520 0.18230 0.58800
H8 H 0.18810 0.23850 0.35290
H9 H 0.08200 0.19520 0.31770
H10 H 0.12490 0.25020 0.48600
H11 H 0.34960 0.16660 0.39760
H12 H 0.40560 0.12550 0.56370
H13 H 0.36640 0.06880 0.39650
H14 H 0.28930 -0.04460 1.04070
H15 H 0.45470 -0.12260 1.21230
H16 H 0.51380 -0.14640 1.07240
H17 H 0.49030 -0.05250 1.15240
H18 H 0.28750 -0.18680 1.02630
H19 H 0.21910 -0.15520 0.85240
H20 H 0.34860 -0.20920 0.88860
O7 O 0.0949(3) 0.6004(2) 0.2593(4)
O8 O 0.1999(3) 0.5392(2) 0.1023(3)
O9 O 0.4962(2) 0.4187(2) 0.2224(3)
O10 O 0.6011(2) 0.4178(2) 0.4740(4)
O11 O 0.1632(2) 0.3956(2) 0.6533(3)
O12 O 0.3314(3) 0.3116(2) 0.7163(3)
N7 N 0.1707(3) 0.5410(2) 0.2240(4)
N8 N 0.2805(2) 0.3599(2) 0.1382(4)
N9 N 0.5111(2) 0.4085(2) 0.3650(4)
N10 N 0.5118(3) 0.3650(2) 0.6800(4)
N11 N 0.2667(3) 0.3753(2) 0.6552(4)
N12 N 0.1535(3) 0.5469(2) 0.5437(4)
C14 C 0.2225(3) 0.4774(2) 0.3226(4)
C15 C 0.3060(3) 0.4070(2) 0.2763(4)
C16 C 0.4202(3) 0.3904(2) 0.3999(4)
C17 C 0.4183(3) 0.3915(2) 0.5583(4)
C18 C 0.3069(3) 0.4220(2) 0.5823(4)
C19 C 0.2232(3) 0.4856(2) 0.4839(4)
C20 C 0.1659(4) 0.3726(3) 0.0171(5)
C21 C 0.3648(4) 0.2887(3) 0.0953(5)
C22 C 0.6104(4) 0.3020(3) 0.6552(6)
C23 C 0.5195(4) 0.3915(3) 0.8477(5)
C24 C 0.1599(3) 0.5738(2) 0.7130(5)
C25 C 0.0436(3) 0.5814(3) 0.7344(5)
C26 C 0.1992(4) 0.6550(3) 0.7628(6)
H21 H 0.106(3) 0.581(2) 0.486(4)
H22 H 0.16510 0.33020 -0.07830
H23 H 0.10640 0.36790 0.06030
H24 H 0.14460 0.42770 -0.02180
H25 H 0.32990 0.26120 -0.01280
H26 H 0.43280 0.30680 0.09240
H27 H 0.39240 0.24780 0.17370
H28 H 0.67240 0.29040 0.75940
H29 H 0.58840 0.24910 0.60140
H30 H 0.64610 0.32020 0.58690
H31 H 0.59510 0.36550 0.92110
H32 H 0.51010 0.45240 0.87280
H33 H 0.45820 0.37570 0.87520
H34 H 0.21610 0.53100 0.78300
H35 H 0.01880 0.52840 0.69880
H36 H 0.04810 0.59810 0.84770
H37 H -0.01380 0.62390 0.66830
H38 H 0.14150 0.69820 0.69540
H39 H 0.20510 0.67530 0.87670
H40 H 0.27410 0.65000 0.74790
#END
