
#######################################################################
#
#                 Cambridge Crystallographic Data Centre
#                                CCDC
#
#######################################################################
#
# If this CIF has been generated from an entry in the Cambridge
# Structural Database, then it will include bibliographic, chemical,
# crystal, experimental, refinement or atomic coordinate data resulting
# from the CCDC's data processing and validation procedures.
#
#######################################################################

data_CSD_CIF_TEWHUY
_audit_creation_date 1997-03-05
_audit_creation_method CSD-ConQuest-V1
_database_code_CSD TEWHUY
_database_code_depnum_ccdc_archive 'CCDC 1269814'
_database_code_depnum_ccdc_fiz 'CSD 405035'
_chemical_formula_sum 'C14 H22 N6 O6'
_chemical_formula_moiety
;
C14 H22 N6 O6
;
_journal_coden_Cambridge 167
_journal_year 1996
_journal_page_first 1175
_journal_name_full 'Liebigs Ann. '
loop_
_publ_author_name
"J.J.Wolff"
"F.Gredel"
"D.Hillenbrand"
"H.Irngartinger"
_chemical_name_systematic
;
1-(Dimethylamino)-3,5-bis(isopropylamino)-2,4,6-trinitrobenzene
;
_chemical_melting_point 468.15
_cell_volume    900.159
_exptl_crystal_colour 'yellow'
_exptl_crystal_density_diffrn 1.38
_exptl_special_details
;
Melts above 468.15K

;
_diffrn_ambient_temperature ?
_diffrn_special_details
;
The study was carried out at room temperature,in the range 283-303K

;
#These two values have been output from a single CSD field.
_refine_ls_R_factor_gt 0.055
_refine_ls_wR_factor_gt 0.055
_symmetry_cell_setting triclinic
_symmetry_space_group_name_H-M 'P -1'
_symmetry_Int_Tables_number 2
loop_
_symmetry_equiv_pos_site_id
_symmetry_equiv_pos_as_xyz
1 x,y,z
2 -x,-y,-z
_cell_length_a 9.137(2)
_cell_length_b 11.942(3)
_cell_length_c 8.757(2)
_cell_angle_alpha 100.33(2)
_cell_angle_beta 106.72(2)
_cell_angle_gamma 86.15(2)
_cell_formula_units_Z 2
loop_
_atom_type_symbol
_atom_type_radius_bond
C 0.68
H 0.23
N 0.68
O 0.68
loop_
_atom_site_label
_atom_site_type_symbol
_atom_site_fract_x
_atom_site_fract_y
_atom_site_fract_z
O1 O 0.6290(3) 0.4348(2) 0.0805(3)
O2 O 0.8557(2) 0.3835(2) 0.2103(3)
O3 O 0.9803(2) 0.2151(2) 0.5668(3)
O4 O 0.8350(3) 0.1739(2) 0.7032(3)
O5 O 0.3182(2) 0.0500(2) 0.2810(3)
O6 O 0.2532(3) 0.1392(2) 0.0809(3)
N1 N 0.7146(3) 0.3713(2) 0.1649(3)
N2 N 0.8453(3) 0.1363(2) 0.2138(3)
N3 N 0.8526(3) 0.1916(2) 0.5753(3)
N4 N 0.5363(3) 0.1689(2) 0.5711(3)
N5 N 0.3386(3) 0.1308(2) 0.2194(3)
N6 N 0.3934(3) 0.3603(2) 0.1489(3)
C1 C 0.6503(3) 0.2850(2) 0.2093(3)
C2 C 0.7499(3) 0.1999(2) 0.2844(3)
C3 C 0.7266(3) 0.1840(3) 0.4358(3)
C4 C 0.5725(3) 0.1851(2) 0.4427(3)
C5 C 0.4585(3) 0.2066(2) 0.2977(3)
C6 C 0.4950(3) 0.2885(2) 0.2129(3)
C7 C 0.9357(4) 0.0426(3) 0.2779(4)
C8 C 0.8631(3) 0.1466(3) 0.0568(4)
C9 C 0.3886(3) 0.1937(3) 0.6114(4)
C10 C 0.3969(5) 0.1472(4) 0.7580(5)
C11 C 0.3542(5) 0.3199(4) 0.6395(6)
C12 C 0.2392(3) 0.3872(3) 0.1687(4)
C13 C 0.2400(4) 0.5086(3) 0.2715(5)
C14 C 0.1249(4) 0.3731(3) 0.0011(4)
H1 H 0.612(4) 0.151(3) 0.651(4)
H2 H 0.420(4) 0.398(3) 0.094(4)
H3 H 0.87020 -0.01440 0.28710
H4 H 0.99980 0.00690 0.20620
H5 H 1.00560 0.07550 0.38820
H6 H 0.89610 0.22550 0.06460
H7 H 0.93810 0.09140 0.02320
H8 H 0.76330 0.13210 -0.02900
H9 H 0.30620 0.15470 0.51800
H10 H 0.41700 0.06550 0.73800
H11 H 0.47980 0.18790 0.85180
H12 H 0.29930 0.16330 0.78730
H13 H 0.35330 0.35420 0.54890
H14 H 0.25660 0.33790 0.66880
H15 H 0.43670 0.36320 0.73940
H16 H 0.20960 0.33570 0.22800
H17 H 0.13560 0.53050 0.28530
H18 H 0.31330 0.51840 0.37730
H19 H 0.26370 0.56550 0.21230
H20 H 0.14930 0.42620 -0.05830
H21 H 0.12850 0.29310 -0.06230
H22 H 0.02020 0.38860 0.01130
#END
