
#######################################################################
#
#                 Cambridge Crystallographic Data Centre
#                                CCDC
#
#######################################################################
#
# If this CIF has been generated from an entry in the Cambridge
# Structural Database, then it will include bibliographic, chemical,
# crystal, experimental, refinement or atomic coordinate data resulting
# from the CCDC's data processing and validation procedures.
#
#######################################################################

data_CSD_CIF_TEWJUA
_audit_creation_date 1997-03-05
_audit_creation_method CSD-ConQuest-V1
_database_code_CSD TEWJUA
_database_code_depnum_ccdc_archive 'CCDC 1269819'
_database_code_depnum_ccdc_fiz 'CSD 405038'
_chemical_formula_sum 'C9 H12 N6 O6'
_chemical_formula_moiety
;
C9 H12 N6 O6
;
_journal_coden_Cambridge 167
_journal_year 1996
_journal_page_first 1175
_journal_name_full 'Liebigs Ann. '
loop_
_publ_author_name
"J.J.Wolff"
"F.Gredel"
"D.Hillenbrand"
"H.Irngartinger"
_chemical_name_systematic
;
1,3-Diamino-5-(isopropylamino)-2,4,6-trinitrobenzene
;
_chemical_melting_point 563.15
_cell_volume   2487.248
_exptl_crystal_colour 'yellow'
_exptl_crystal_density_diffrn 1.6
_exptl_special_details
;
Melts above 563.15K

;
_diffrn_ambient_temperature ?
_diffrn_special_details
;
The study was carried out at room temperature,in the range 283-303K

;
#These two values have been output from a single CSD field.
_refine_ls_R_factor_gt 0.041
_refine_ls_wR_factor_gt 0.041
_symmetry_cell_setting orthorhombic
_symmetry_space_group_name_H-M 'P b c a'
_symmetry_Int_Tables_number 61
loop_
_symmetry_equiv_pos_site_id
_symmetry_equiv_pos_as_xyz
1 x,y,z
2 1/2-x,-y,1/2+z
3 1/2+x,1/2-y,-z
4 -x,1/2+y,1/2-z
5 -x,-y,-z
6 -1/2+x,y,-1/2-z
7 -1/2-x,-1/2+y,z
8 x,-1/2-y,-1/2+z
_cell_length_a 9.088(1)
_cell_length_b 9.677(1)
_cell_length_c 28.282(4)
_cell_angle_alpha 90
_cell_angle_beta 90
_cell_angle_gamma 90
_cell_formula_units_Z 8
loop_
_atom_type_symbol
_atom_type_radius_bond
C 0.68
H 0.23
N 0.68
O 0.68
loop_
_atom_site_label
_atom_site_type_symbol
_atom_site_fract_x
_atom_site_fract_y
_atom_site_fract_z
O1 O -0.1771(1) 0.0391(2) 0.93093(6)
O2 O -0.1560(1) -0.1703(1) 0.90747(5)
O3 O 0.4828(1) -0.2531(2) 0.84496(5)
O4 O 0.2719(2) -0.3171(1) 0.81998(5)
O5 O 0.5101(2) 0.1227(2) 0.96788(6)
O6 O 0.3138(2) 0.2298(2) 0.98647(5)
N1 N -0.1019(2) -0.0564(2) 0.91498(5)
N2 N 0.0476(2) -0.1664(2) 0.83365(6)
N3 N 0.3463(2) -0.2381(1) 0.84553(5)
N4 N 0.5094(2) -0.0704(2) 0.90819(6)
N5 N 0.3745(2) 0.1347(2) 0.96438(5)
N6 N 0.0634(2) 0.1364(2) 0.96637(6)
C1 C 0.0526(2) -0.0357(2) 0.90617(6)
C2 C 0.1209(2) -0.1170(2) 0.87054(6)
C3 C 0.2780(2) -0.1401(2) 0.87476(6)
C4 C 0.3653(2) -0.0563(2) 0.90648(6)
C5 C 0.2912(2) 0.0445(2) 0.93536(6)
C6 C 0.1330(2) 0.0531(2) 0.93667(6)
C7 C -0.0918(2) -0.1237(2) 0.81167(7)
C8 C -0.0566(3) -0.0500(3) 0.76575(8)
C9 C -0.1867(2) -0.2514(3) 0.80436(9)
H1 H 0.096(2) -0.223(2) 0.8183(7)
H2 H 0.547(2) -0.134(2) 0.8903(8)
H3 H 0.555(2) -0.008(2) 0.9283(7)
H4 H -0.034(2) 0.139(2) 0.9646(8)
H5 H 0.122(2) 0.192(2) 0.9852(8)
H6 H -0.140(2) -0.063(2) 0.8325(6)
H7 H 0.007(3) 0.026(2) 0.7721(9)
H8 H -0.010(3) -0.117(2) 0.7441(8)
H9 H -0.152(3) -0.024(2) 0.7508(8)
H10 H -0.281(3) -0.224(3) 0.7878(8)
H11 H -0.202(3) -0.304(3) 0.8339(8)
H12 H -0.136(3) -0.307(2) 0.7806(9)
#END
