
#######################################################################
#
#                 Cambridge Crystallographic Data Centre
#                                CCDC
#
#######################################################################
#
# If this CIF has been generated from an entry in the Cambridge
# Structural Database, then it will include bibliographic, chemical,
# crystal, experimental, refinement or atomic coordinate data resulting
# from the CCDC's data processing and validation procedures.
#
#######################################################################

data_CSD_CIF_TEWJAG
_audit_creation_date 1997-03-05
_audit_creation_method CSD-ConQuest-V1
_database_code_CSD TEWJAG
_database_code_depnum_ccdc_archive 'CCDC 1269815; CCDC 405037'
_database_code_depnum_ccdc_fiz 'CSD 405037'
_chemical_formula_sum 'C16 H22 N6 O6'
_chemical_formula_moiety
;
C16 H22 N6 O6
;
_journal_coden_Cambridge 167
_journal_year 1996
_journal_page_first 1175
_journal_name_full 'Liebigs Ann. '
loop_
_publ_author_name
"J.J.Wolff"
"F.Gredel"
"D.Hillenbrand"
"H.Irngartinger"
_chemical_name_systematic
;
1-Amino-2,4,6-trinitro-3,5-dipiperidino-benzene
;
_chemical_melting_point 475.15
_cell_volume   1794.473
_exptl_crystal_colour 'yellow'
_exptl_crystal_density_diffrn 1.46
_exptl_special_details
;
Melting point range 475.15-477.65K

;
_diffrn_ambient_temperature ?
_diffrn_special_details
;
The study was carried out at room temperature,in the range 283-303K

;
#These two values have been output from a single CSD field.
_refine_ls_R_factor_gt 0.039
_refine_ls_wR_factor_gt 0.039
_symmetry_cell_setting monoclinic
_symmetry_space_group_name_H-M 'P 21/c'
_symmetry_Int_Tables_number 14
loop_
_symmetry_equiv_pos_site_id
_symmetry_equiv_pos_as_xyz
1 x,y,z
2 -x,1/2+y,1/2-z
3 -x,-y,-z
4 x,-1/2-y,-1/2+z
_cell_length_a 11.905(2)
_cell_length_b 9.788(2)
_cell_length_c 16.351(2)
_cell_angle_alpha 90
_cell_angle_beta 109.64(1)
_cell_angle_gamma 90
_cell_formula_units_Z 4
loop_
_atom_type_symbol
_atom_type_radius_bond
C 0.68
H 0.23
N 0.68
O 0.68
loop_
_atom_site_label
_atom_site_type_symbol
_atom_site_fract_x
_atom_site_fract_y
_atom_site_fract_z
O1 O 0.6382(1) 0.3313(1) 0.71473(8)
O2 O 0.5961(1) 0.2377(2) 0.58744(7)
O3 O 0.2657(1) 0.3358(1) 0.82574(7)
O4 O 0.4552(1) 0.3668(1) 0.85321(7)
O5 O 0.2069(2) -0.0436(2) 0.5025(1)
O6 O 0.1597(1) -0.1030(1) 0.6132(1)
N1 N 0.5787(1) 0.2502(2) 0.65863(8)
N2 N 0.5827(1) 0.1253(1) 0.82789(7)
N3 N 0.3621(1) 0.2979(1) 0.81935(8)
N4 N 0.1583(1) 0.1323(1) 0.71110(8)
N5 N 0.2139(1) -0.0271(2) 0.5793(1)
N6 N 0.3926(1) 0.1098(2) 0.52530(9)
C1 C 0.4875(1) 0.1742(2) 0.67440(9)
C2 C 0.4878(1) 0.1601(2) 0.76259(9)
C3 C 0.3701(1) 0.1813(2) 0.77192(9)
C4 C 0.2687(1) 0.1274(2) 0.70542(9)
C5 C 0.2884(1) 0.0780(2) 0.6288(1)
C6 C 0.3893(1) 0.1211(2) 0.60585(9)
C7 C 0.6990(1) 0.0954(2) 0.8172(1)
C8 C 0.7599(2) -0.0266(2) 0.8713(1)
C9 C 0.7712(2) -0.0131(2) 0.9661(1)
C10 C 0.6484(2) 0.0064(2) 0.9718(1)
C11 C 0.5845(1) 0.1275(2) 0.91897(9)
C12 C 0.1362(2) 0.0949(2) 0.7920(1)
C13 C 0.0393(2) 0.1799(2) 0.8082(1)
C14 C -0.0725(2) 0.1865(2) 0.7290(1)
C15 C -0.0411(1) 0.2334(2) 0.6511(1)
C16 C 0.0494(1) 0.1378(2) 0.6341(1)
H1 H 0.464(2) 0.135(2) 0.518(1)
H2 H 0.329(2) 0.074(2) 0.487(1)
H3 H 0.747(1) 0.178(2) 0.832(1)
H4 H 0.683(1) 0.076(2) 0.7570(9)
H5 H 0.833(2) -0.036(2) 0.862(1)
H6 H 0.715(1) -0.105(2) 0.849(1)
H7 H 0.818(2) 0.064(2) 0.988(1)
H8 H 0.807(2) -0.094(2) 0.998(1)
H9 H 0.649(2) 0.022(2) 1.030(1)
H10 H 0.599(1) -0.076(2) 0.950(1)
H11 H 0.503(1) 0.128(2) 0.919(1)
H12 H 0.622(1) 0.212(2) 0.945(1)
H13 H 0.112(2) -0.004(2) 0.783(1)
H14 H 0.215(1) 0.098(2) 0.839(1)
H15 H 0.070(2) 0.268(2) 0.824(1)
H16 H 0.020(2) 0.140(2) 0.858(1)
H17 H -0.133(2) 0.243(2) 0.738(1)
H18 H -0.108(2) 0.099(2) 0.715(1)
H19 H -0.006(1) 0.322(2) 0.661(1)
H20 H -0.109(2) 0.229(2) 0.600(1)
H21 H 0.076(1) 0.169(2) 0.586(1)
H22 H 0.017(1) 0.046(2) 0.621(1)
#END
