
#######################################################################
#
#                 Cambridge Crystallographic Data Centre
#                                CCDC
#
#######################################################################
#
# If this CIF has been generated from an entry in the Cambridge
# Structural Database, then it will include bibliographic, chemical,
# crystal, experimental, refinement or atomic coordinate data resulting
# from the CCDC's data processing and validation procedures.
#
#######################################################################

data_CSD_CIF_TEWJIO
_audit_creation_date 1997-03-05
_audit_creation_method CSD-ConQuest-V1
_database_code_CSD TEWJIO
_database_code_depnum_ccdc_archive 'CCDC 1269817; CCDC 405036'
_database_code_depnum_ccdc_fiz 'CSD 405036'
_chemical_formula_sum 'C12 H18 N6 O6'
_chemical_formula_moiety
;
C12 H18 N6 O6
;
_journal_coden_Cambridge 167
_journal_year 1996
_journal_page_first 1175
_journal_name_full 'Liebigs Ann. '
loop_
_publ_author_name
"J.J.Wolff"
"F.Gredel"
"D.Hillenbrand"
"H.Irngartinger"
_chemical_name_systematic
;
1-Amino-3,5-bis(isopropylamino)-2,4,6-trinitrobenzene
;
_chemical_melting_point 427.65
_cell_volume   1590.886
_exptl_crystal_colour 'dark yellow'
_exptl_special_details
;
Melting point range 427.65-429.65K

;
_diffrn_ambient_temperature ?
_diffrn_special_details
;
The study was carried out at room temperature,in the range 283-303K

;
#These two values have been output from a single CSD field.
_refine_ls_R_factor_gt 0.058
_refine_ls_wR_factor_gt 0.058
_symmetry_cell_setting triclinic
_symmetry_space_group_name_H-M 'P -1'
_symmetry_Int_Tables_number 2
loop_
_symmetry_equiv_pos_site_id
_symmetry_equiv_pos_as_xyz
1 x,y,z
2 -x,-y,-z
_cell_length_a 12.019(2)
_cell_length_b 19.014(3)
_cell_length_c 7.334(1)
_cell_angle_alpha 93.14(1)
_cell_angle_beta 105.37(1)
_cell_angle_gamma 79.88(1)
_cell_formula_units_Z 4
loop_
_atom_type_symbol
_atom_type_radius_bond
C 0.68
H 0.23
N 0.68
O 0.68
loop_
_atom_site_label
_atom_site_type_symbol
_atom_site_fract_x
_atom_site_fract_y
_atom_site_fract_z
O1 O 0.5386(2) -0.0740(1) 0.6480(4)
O2 O 0.6130(2) 0.0187(1) 0.7661(4)
O3 O 0.3239(3) 0.2349(1) 0.8726(6)
O4 O 0.1479(3) 0.2147(1) 0.7647(4)
O5 O 0.2416(2) -0.1131(1) 0.9153(3)
O6 O 0.0914(2) -0.0343(1) 0.9347(4)
N1 N 0.5273(2) -0.0136(2) 0.7257(4)
N2 N 0.4883(3) 0.1291(2) 0.8635(5)
N3 N 0.2525(3) 0.1931(2) 0.8329(5)
N4 N 0.1304(2) 0.0972(1) 0.9739(4)
N5 N 0.1865(2) -0.0514(1) 0.8920(4)
N6 N 0.3229(2) -0.0788(1) 0.6130(4)
C1 C 0.4220(3) 0.0163(2) 0.7676(4)
C2 C 0.4048(3) 0.0887(2) 0.8334(5)
C3 C 0.2917(3) 0.1183(2) 0.8562(5)
C4 C 0.2128(3) 0.0738(2) 0.8844(4)
C5 C 0.2339(2) 0.0014(2) 0.8220(4)
C6 C 0.3249(2) -0.0234(2) 0.7286(4)
C7 C 0.1250(3) 0.1573(2) 1.1106(5)
C8 C 0.0083(4) 0.2067(2) 1.0513(7)
C9 C 0.1469(4) 0.1262(2) 1.3054(6)
C10 C 0.2311(3) -0.1220(2) 0.5264(5)
C11 C 0.2731(3) -0.1660(2) 0.3706(5)
C12 C 0.1124(3) -0.0768(2) 0.4463(6)
H1 H 0.558(4) 0.105(3) 0.841(7)
H2 H 0.473(3) 0.173(2) 0.899(6)
H3 H 0.082(3) 0.067(2) 0.977(5)
H4 H 0.393(2) -0.088(2) 0.581(5)
H5 H 0.187(2) 0.183(2) 1.115(4)
H6 H 0.009(4) 0.242(2) 1.131(7)
H7 H -0.058(3) 0.182(2) 1.070(6)
H8 H -0.010(4) 0.223(3) 0.924(8)
H9 H 0.144(3) 0.161(2) 1.391(6)
H10 H 0.224(3) 0.099(2) 1.349(5)
H11 H 0.091(4) 0.095(2) 1.295(6)
H12 H 0.227(2) -0.154(1) 0.624(4)
H13 H 0.353(3) -0.195(2) 0.424(6)
H14 H 0.219(3) -0.199(2) 0.309(5)
H15 H 0.280(3) -0.136(2) 0.273(5)
H16 H 0.057(3) -0.110(2) 0.384(6)
H17 H 0.122(3) -0.047(2) 0.346(6)
H18 H 0.080(3) -0.050(2) 0.546(6)
O7 O -0.0379(2) 0.5937(1) 0.8188(4)
O8 O 0.0819(2) 0.4948(2) 0.8581(4)
O9 O -0.0664(3) 0.2749(2) 0.5045(5)
O10 O -0.2548(2) 0.2964(1) 0.4208(4)
O11 O -0.3085(2) 0.6104(1) 0.2006(4)
O12 O -0.4347(3) 0.5402(1) 0.1268(5)
N7 N -0.0148(2) 0.5292(2) 0.7760(4)
N8 N 0.0290(3) 0.3809(2) 0.6809(5)
N9 N -0.1591(3) 0.3166(2) 0.4578(4)
N10 N -0.3166(2) 0.4079(1) 0.1678(4)
N11 N -0.3428(3) 0.5561(1) 0.2261(4)
N12 N -0.2443(3) 0.6023(2) 0.6036(5)
C13 C -0.0951(3) 0.4970(2) 0.6335(5)
C14 C -0.0695(3) 0.4219(2) 0.5894(5)
C15 C -0.1572(3) 0.3920(2) 0.4534(5)
C16 C -0.2531(3) 0.4345(2) 0.3274(4)
C17 C -0.2734(3) 0.5082(2) 0.3727(5)
C18 C -0.2061(3) 0.5388(2) 0.5385(5)
C19 C -0.2796(3) 0.3478(2) 0.0505(5)
C20 C -0.2611(4) 0.3778(3) -0.1262(6)
C21 C -0.3693(4) 0.2983(2) -0.0001(6)
C22 C -0.3645(4) 0.6433(2) 0.5650(6)
C23 C -0.4422(5) 0.6048(4) 0.630(1)
C24 C -0.3557(6) 0.7149(3) 0.654(1)
H19 H 0.038(3) 0.336(2) 0.644(5)
H20 H 0.078(3) 0.403(2) 0.782(5)
H21 H -0.378(3) 0.431(2) 0.109(5)
H22 H -0.189(3) 0.618(2) 0.688(5)
H23 H -0.205(3) 0.322(2) 0.125(5)
H24 H -0.330(3) 0.410(2) -0.198(6)
H25 H -0.204(4) 0.411(3) -0.091(7)
H26 H -0.235(3) 0.339(2) -0.202(6)
H27 H -0.347(3) 0.261(2) -0.081(6)
H28 H -0.381(4) 0.283(2) 0.111(7)
H29 H -0.451(4) 0.320(2) -0.073(7)
H30 H -0.391(3) 0.655(2) 0.440(6)
H31 H -0.44510 0.55680 0.56360
H32 H -0.41340 0.59480 0.76710
H33 H -0.52260 0.63080 0.60320
H34 H -0.30090 0.73910 0.60740
H35 H -0.43120 0.74670 0.63160
H36 H -0.32210 0.71080 0.79550
#END
