
#######################################################################
#
#                 Cambridge Crystallographic Data Centre
#                                CCDC
#
#######################################################################
#
# If this CIF has been generated from an entry in the Cambridge
# Structural Database, then it will include bibliographic, chemical,
# crystal, experimental, refinement or atomic coordinate data resulting
# from the CCDC's data processing and validation procedures.
#
#######################################################################

data_CSD_CIF_TEWXIE
_audit_creation_date 2013-05-24
_audit_creation_method CSD-ConQuest-V1
_database_code_CSD TEWXIE
_database_code_depnum_ccdc_archive 'CCDC 857522'
_chemical_formula_sum 'C18 H27 N3 O11'
_chemical_formula_moiety
;
C18 H27 N3 O11
;
_journal_coden_Cambridge 1003
_journal_volume 43
_journal_year 2013
_journal_page_first 123
_journal_name_full 'J.Chem.Cryst. '
loop_
_publ_author_name
"J.R.Deschamps"
"J.E.Saavedra"
"Zhao Cao"
"L.K.Keefer"
"H.Chakrapani"
_chemical_name_systematic
;
2-(Acetoxymethyl)-6-((2-oxido-2-(pyrrolidin-1-yl)-2\l^5^-diazen-1-yl)oxy)tetra
hydro-2H-pyran-3,4,5-triyl triacetate
;
_cell_volume   2369.381
_exptl_crystal_colour 'colorless'
_exptl_crystal_density_diffrn 1.294
_exptl_crystal_description 'rod'
_diffrn_ambient_temperature 153
#These two values have been output from a single CSD field.
_refine_ls_R_factor_gt 0.0585
_refine_ls_wR_factor_gt 0.0585
_symmetry_cell_setting orthorhombic
_symmetry_space_group_name_H-M 'P 21 21 21'
_symmetry_Int_Tables_number 19
loop_
_symmetry_equiv_pos_site_id
_symmetry_equiv_pos_as_xyz
1 x,y,z
2 1/2-x,-y,1/2+z
3 -x,1/2+y,1/2-z
4 1/2+x,1/2-y,-z
_cell_length_a 5.6135(7)
_cell_length_b 18.202(2)
_cell_length_c 23.189(2)
_cell_angle_alpha 90
_cell_angle_beta 90
_cell_angle_gamma 90
_cell_formula_units_Z 4
loop_
_atom_type_symbol
_atom_type_radius_bond
C 0.68
H 0.23
N 0.68
O 0.68
loop_
_atom_site_label
_atom_site_type_symbol
_atom_site_fract_x
_atom_site_fract_y
_atom_site_fract_z
N1 N -0.2924(16) 0.1275(4) 0.9589(3)
C1 C -0.487(2) 0.1756(5) 0.9724(5)
H1 H -0.57260 0.18980 0.93780
H2 H -0.43140 0.21940 0.99190
C2 C -0.642(2) 0.1297(6) 1.0116(4)
H3 H -0.62330 0.14500 1.05140
H4 H -0.80850 0.13470 1.00090
C3 C -0.564(3) 0.0543(6) 1.0042(6)
H5 H -0.69410 0.02460 0.98980
H6 H -0.51350 0.03430 1.04100
C4 C -0.365(2) 0.0523(5) 0.9634(4)
H7 H -0.23650 0.02190 0.97790
H8 H -0.41620 0.03340 0.92630
N2 N -0.1543(14) 0.1478(4) 0.9123(3)
O1 O -0.1211(15) 0.2139(3) 0.9042(3)
N3 N -0.0658(15) 0.0941(4) 0.8849(3)
O2 O 0.0956(11) 0.1248(3) 0.8441(2)
C5 C 0.1586(17) 0.0679(4) 0.8065(3)
H9 H 0.01710 0.04010 0.79480
O3 O 0.3234(11) 0.0214(3) 0.8346(2)
C6 C 0.3727(16) -0.0427(4) 0.8011(3)
H10 H 0.22360 -0.06830 0.79200
C7 C 0.5282(17) -0.0911(4) 0.8363(3)
H11 H 0.58220 -0.13280 0.81380
H12 H 0.66640 -0.06430 0.85000
O4 O 0.3839(11) -0.1157(3) 0.8846(2)
O5 O 0.6947(18) -0.1683(6) 0.9240(4)
C8 C 0.490(3) -0.1535(6) 0.9257(5)
C9 C 0.4953(16) -0.0186(4) 0.7453(3)
H13 H 0.65770 -0.00200 0.75380
O6 O 0.5032(11) -0.0799(3) 0.7057(2)
C10 C 0.720(2) -0.1074(5) 0.6913(4)
O7 O 0.8986(12) -0.0854(4) 0.7131(3)
C11 C 0.691(2) -0.1671(5) 0.6476(4)
H14 H 0.84520 -0.18650 0.63770
H15 H 0.61680 -0.14760 0.61360
H16 H 0.59420 -0.20560 0.66330
C12 C 0.3603(15) 0.0420(4) 0.7140(3)
H17 H 0.22360 0.02110 0.69350
O8 O 0.5238(10) 0.0745(3) 0.6734(2)
C13 C 0.463(2) 0.0808(6) 0.6171(4)
O9 O 0.2658(19) 0.0649(6) 0.6018(3)
C14 C 0.660(2) 0.1124(6) 0.5827(4)
H18 H 0.61200 0.11640 0.54310
H19 H 0.79720 0.08100 0.58530
H20 H 0.69960 0.16020 0.59730
C15 C 0.2767(14) 0.1025(4) 0.7547(3)
H21 H 0.41140 0.13310 0.76670
O10 O 0.1002(10) 0.1463(3) 0.7254(2)
C16 C 0.150(2) 0.2174(5) 0.7175(5)
O11 O 0.3370(14) 0.2447(3) 0.7288(4)
C17 C -0.0635(17) 0.2574(5) 0.6931(4)
H22 H -0.02410 0.30820 0.68730
H23 H -0.19440 0.25370 0.71950
H24 H -0.10730 0.23570 0.65680
C18 C 0.318(2) -0.1736(5) 0.9722(4)
H25 H 0.39980 -0.20040 1.00190
H26 H 0.19360 -0.20360 0.95640
H27 H 0.25040 -0.12970 0.98830
#END
