
#######################################################################
#
#                 Cambridge Crystallographic Data Centre
#                                CCDC
#
#######################################################################
#
# If this CIF has been generated from an entry in the Cambridge
# Structural Database, then it will include bibliographic, chemical,
# crystal, experimental, refinement or atomic coordinate data resulting
# from the CCDC's data processing and validation procedures.
#
#######################################################################

data_CSD_CIF_TEXFIN
_audit_creation_date 2013-05-24
_audit_creation_method CSD-ConQuest-V1
_database_code_CSD TEXFIN
_database_code_depnum_ccdc_archive 'CCDC 856804'
_chemical_formula_sum 'C25 H17 N1 O2'
_chemical_formula_moiety
;
C25 H17 N1 O2
;
_journal_coden_Cambridge 171
_journal_volume 11
_journal_year 2012
_journal_page_first 1239
_journal_name_full 'Photochem.Photobiol.Sci. '
loop_
_publ_author_name
"N.Chowdhury"
"S.Dutta"
"S.Dasgupta"
"N.D.Pradeep Singh"
"M.Baidya"
"S.K.Ghosh"
_chemical_name_systematic
;
Phenyl(((1-(pyren-1-yl)ethylidene)amino)oxy)methanone
;
_cell_volume   3698.733
_exptl_crystal_density_diffrn 1.262
_diffrn_ambient_temperature 293
#These two values have been output from a single CSD field.
_refine_ls_R_factor_gt 0.0892
_refine_ls_wR_factor_gt 0.0892
_symmetry_cell_setting monoclinic
_symmetry_space_group_name_H-M 'P 21/c'
_symmetry_Int_Tables_number 14
loop_
_symmetry_equiv_pos_site_id
_symmetry_equiv_pos_as_xyz
1 x,y,z
2 -x,1/2+y,1/2-z
3 -x,-y,-z
4 x,-1/2-y,-1/2+z
_cell_length_a 29.964(8)
_cell_length_b 12.267(3)
_cell_length_c 10.108(3)
_cell_angle_alpha 90
_cell_angle_beta 95.426(9)
_cell_angle_gamma 90
_cell_formula_units_Z 8
loop_
_atom_type_symbol
_atom_type_radius_bond
C 0.68
H 0.23
N 0.68
O 0.68
loop_
_atom_site_label
_atom_site_type_symbol
_atom_site_fract_x
_atom_site_fract_y
_atom_site_fract_z
O1 O 0.46244(16) 0.1743(4) 0.1892(5)
C1 C 0.5204(2) 0.1668(6) 0.3633(7)
C2 C 0.4078(2) 0.1804(6) 0.0221(7)
N1 N 0.4306(2) 0.1145(5) 0.1007(6)
C3 C 0.3285(3) 0.1448(5) -0.0681(7)
C4 C 0.3120(3) 0.0205(7) -0.2565(8)
C5 C 0.2498(3) 0.1081(7) -0.1556(8)
C6 C 0.2662(3) 0.2270(6) 0.0344(7)
H1 H 0.25620 0.27150 0.09990
C7 C 0.4920(3) 0.1075(8) 0.2611(8)
C8 C 0.2970(3) 0.0904(6) -0.1596(7)
C9 C 0.3885(3) 0.0553(6) -0.1669(8)
H2 H 0.41900 0.04270 -0.17000
C10 C 0.5748(2) 0.2687(9) 0.5568(7)
H3 H 0.59390 0.30410 0.62060
O2 O 0.4937(2) 0.0119(5) 0.2428(6)
C11 C 0.2341(3) 0.1771(7) -0.0588(9)
C12 C 0.3102(3) 0.2121(5) 0.0313(6)
H4 H 0.32980 0.24620 0.09510
C13 C 0.4144(2) 0.3015(5) 0.0202(7)
H5 H 0.43740 0.32180 0.08840
H6 H 0.38690 0.33710 0.03600
H7 H 0.42310 0.32320 -0.06490
C14 C 0.3577(4) 0.0036(6) -0.2563(8)
H8 H 0.36800 -0.04410 -0.31820
C15 C 0.2192(4) 0.0536(8) -0.2466(9)
C16 C 0.3741(3) 0.1260(6) -0.0725(7)
C17 C 0.5223(2) 0.2788(6) 0.3653(7)
H9 H 0.50520 0.31960 0.30150
C18 C 0.2356(4) -0.0160(9) -0.3422(10)
H10 H 0.21520 -0.05070 -0.40340
C19 C 0.2802(4) -0.0340(8) -0.3475(8)
H11 H 0.28990 -0.08170 -0.41030
C20 C 0.5725(3) 0.1571(8) 0.5599(9)
C21 C 0.5500(3) 0.3300(6) 0.4638(8)
H12 H 0.55170 0.40560 0.46670
C22 C 0.1883(3) 0.1933(7) -0.0571(9)
H13 H 0.17760 0.23900 0.00610
C23 C 0.5460(3) 0.1085(6) 0.4592(9)
H14 H 0.54510 0.03270 0.45530
C24 C 0.1590(4) 0.1419(11) -0.1485(12)
H15 H 0.12850 0.15420 -0.14630
C25 C 0.1726(4) 0.0743(10) -0.2417(11)
H16 H 0.15170 0.04120 -0.30270
O3 O 0.02549(16) -0.0893(4) 0.2153(5)
N2 N 0.06603(19) -0.1370(5) 0.1721(5)
O4 O 0.01373(17) -0.2484(4) 0.3185(5)
C26 C 0.2080(2) -0.1111(5) 0.0627(6)
C27 C 0.1678(3) -0.0732(5) 0.1099(7)
C28 C 0.2502(2) -0.0776(6) 0.1255(7)
C29 C 0.2902(3) -0.1182(7) 0.0796(9)
C30 C 0.1646(3) -0.2163(6) -0.1046(7)
H17 H 0.16310 -0.26390 -0.17650
C31 C 0.1716(3) 0.0006(6) 0.2195(7)
H18 H 0.14560 0.02700 0.25180
C32 C 0.2118(3) 0.0331(6) 0.2776(7)
H19 H 0.21290 0.08180 0.34830
C33 C 0.2472(3) -0.2210(6) -0.0903(8)
H20 H 0.24640 -0.26850 -0.16220
C34 C 0.2064(3) -0.1829(6) -0.0464(7)
C35 C 0.1266(2) -0.1098(6) 0.0486(7)
C36 C -0.0297(2) -0.0925(6) 0.3631(7)
C37 C 0.0835(2) -0.0710(6) 0.0979(7)
C38 C -0.0515(2) -0.1448(6) 0.4589(8)
H21 H -0.04570 -0.21800 0.47720
C39 C 0.2523(3) -0.0051(6) 0.2336(8)
C40 C -0.0387(2) 0.0164(6) 0.3380(6)
H22 H -0.02390 0.05270 0.27440
C41 C -0.0903(2) 0.0194(7) 0.5014(8)
H23 H -0.11040 0.05700 0.54940
C42 C 0.2869(3) -0.1899(7) -0.0304(9)
H24 H 0.31300 -0.21620 -0.06190
C43 C -0.0819(2) -0.0888(7) 0.5278(7)
H25 H -0.09680 -0.12440 0.59200
C44 C 0.3319(3) -0.0817(8) 0.1405(10)
H26 H 0.35850 -0.10530 0.10900
C45 C -0.0696(2) 0.0724(6) 0.4060(8)
H27 H -0.07600 0.14510 0.38670
C46 C 0.0047(3) -0.1542(7) 0.2986(8)
C47 C 0.3331(3) -0.0114(8) 0.2462(10)
H28 H 0.36070 0.01010 0.28770
C48 C 0.1256(3) -0.1805(6) -0.0584(8)
H29 H 0.09810 -0.20390 -0.09940
C49 C 0.2945(3) 0.0282(6) 0.2929(8)
H30 H 0.29640 0.07710 0.36350
C50 C 0.0665(2) 0.0403(6) 0.0596(8)
H31 H 0.03880 0.05340 0.09790
H32 H 0.06140 0.04520 -0.03540
H33 H 0.08820 0.09390 0.09170
#END
