
#######################################################################
#
#                 Cambridge Crystallographic Data Centre
#                                CCDC
#
#######################################################################
#
# If this CIF has been generated from an entry in the Cambridge
# Structural Database, then it will include bibliographic, chemical,
# crystal, experimental, refinement or atomic coordinate data resulting
# from the CCDC's data processing and validation procedures.
#
#######################################################################

data_CSD_CIF_TEXRET
_audit_creation_date 1997-03-05
_audit_creation_method CSD-ConQuest-V1
_database_code_CSD TEXRET
_database_code_depnum_ccdc_archive 'CCDC 1269948; CCDC 402356'
_database_code_depnum_ccdc_fiz 'CSD 402356'
_chemical_formula_sum 'C27 H21 N1 O7'
_chemical_formula_moiety
;
C27 H21 N1 O7
;
_journal_coden_Cambridge 643
_journal_volume 211
_journal_year 1996
_journal_page_first 737
_journal_name_full 'Z.Krist.Cryst.Mater. '
loop_
_publ_author_name
"S.Henkel"
"M.Kleban"
"V.Jager"
_chemical_name_systematic
;
(3aR,4R,5S,6R)-4,5,6-Tribenzoyloxy-3a,4,5,6-tetrahydro-4H-cyclopent(c)isoxazol
e
;
_cell_volume   2353.790
_exptl_crystal_colour 'colorless'
_exptl_crystal_density_diffrn 1.33
_diffrn_ambient_temperature ?
_diffrn_special_details
;
The study was carried out at room temperature,in the range 283-303K

;
#These two values have been output from a single CSD field.
_refine_ls_R_factor_gt 0.0579
_refine_ls_wR_factor_gt 0.0579
_symmetry_cell_setting orthorhombic
_symmetry_space_group_name_H-M 'P 21 21 21'
_symmetry_Int_Tables_number 19
loop_
_symmetry_equiv_pos_site_id
_symmetry_equiv_pos_as_xyz
1 x,y,z
2 1/2-x,-y,1/2+z
3 1/2+x,1/2-y,-z
4 -x,1/2+y,1/2-z
_cell_length_a 8.135(1)
_cell_length_b 12.119(2)
_cell_length_c 23.875(4)
_cell_angle_alpha 90
_cell_angle_beta 90
_cell_angle_gamma 90
_cell_formula_units_Z 4
loop_
_atom_type_symbol
_atom_type_radius_bond
C 0.68
H 0.23
N 0.68
O 0.68
loop_
_atom_site_label
_atom_site_type_symbol
_atom_site_fract_x
_atom_site_fract_y
_atom_site_fract_z
N1 N 0.2183(5) 0.2298(3) -0.0676(2)
O1 O 0.3100(4) 0.1305(3) -0.0602(2)
C1 C 0.1954(5) 0.0392(4) -0.0582(2)
H1 H 0.2267(5) -0.0129(4) -0.0293(2)
H2 H 0.1925(5) 0.0009(4) -0.0939(2)
C2 C 0.0304(5) 0.0896(3) -0.0453(2)
H3 H 0.0001(5) 0.0790(3) -0.0059(2)
C3 C -0.1165(5) 0.0744(3) -0.0838(2)
H4 H -0.0796(5) 0.0644(3) -0.1225(2)
C4 C -0.2104(5) 0.1825(3) -0.0780(2)
H5 H -0.2814(5) 0.1788(3) -0.0449(2)
C5 C -0.0794(5) 0.2748(3) -0.0694(2)
H6 H -0.1076(5) 0.3218(3) -0.0374(2)
C6 C 0.0692(5) 0.2080(3) -0.0576(2)
O2 O -0.0654(3) 0.3386(2) -0.11996(11)
C7 C -0.0138(6) 0.4436(3) -0.1136(2)
O3 O 0.0336(5) 0.4800(2) -0.06984(15)
C8 C -0.0285(6) 0.5078(3) -0.1661(2)
C9 C 0.0398(7) 0.6125(3) -0.1675(2)
H7 H 0.0957(7) 0.6396(3) -0.1364(2)
C10 C 0.0249(10) 0.6760(4) -0.2146(3)
H8 H 0.0725(10) 0.7457(4) -0.2156(3)
C11 C -0.0586(10) 0.6381(5) -0.2597(3)
H9 H -0.069(1) 0.6824(5) -0.2913(3)
C12 C -0.1285(9) 0.5341(5) -0.2592(2)
H10 H -0.1856(9) 0.5083(5) -0.2903(2)
C13 C -0.1125(7) 0.4692(4) -0.2120(2)
H11 H -0.1588(7) 0.3990(4) -0.2113(2)
O4 O -0.3102(3) 0.1970(2) -0.12691(11)
C14 C -0.4117(5) 0.2855(3) -0.1253(2)
O5 O -0.4245(4) 0.3427(2) -0.08455(11)
C15 C -0.4954(5) 0.3048(3) -0.1795(2)
C16 C -0.5952(6) 0.3953(4) -0.1849(2)
H12 H -0.6155(6) 0.4396(4) -0.1538(2)
C17 C -0.6653(7) 0.4212(5) -0.2351(2)
H13 H -0.7330(7) 0.4827(5) -0.2384(2)
C18 C -0.6352(8) 0.3563(6) -0.2802(2)
H14 H -0.6824(8) 0.3738(6) -0.3146(2)
C19 C -0.5368(9) 0.2658(6) -0.2758(2)
H15 H -0.5167(9) 0.2225(6) -0.3072(2)
C20 C -0.4666(7) 0.2379(4) -0.2252(2)
H16 H -0.4013(7) 0.1753(4) -0.2219(2)
O6 O -0.2307(3) -0.0120(2) -0.06848(11)
C21 C -0.1814(6) -0.1165(3) -0.0779(2)
O7 O -0.0445(4) -0.1391(2) -0.09232(14)
C22 C -0.3180(5) -0.1963(3) -0.0705(2)
C23 C -0.4780(6) -0.1634(3) -0.0613(2)
H17 H -0.5019(6) -0.0889(3) -0.0569(2)
C24 C -0.6013(6) -0.2393(4) -0.0585(2)
H18 H -0.7091(6) -0.2164(4) -0.0527(2)
C25 C -0.5664(7) -0.3513(4) -0.0643(2)
H19 H -0.6502(7) -0.4033(4) -0.0623(2)
C26 C -0.4092(7) -0.3836(3) -0.0729(2)
H20 H -0.3855(7) -0.4583(3) -0.0768(2)
C27 C -0.2841(6) -0.3078(3) -0.0759(2)
H21 H -0.1766(6) -0.3313(3) -0.0816(2)
#END
