
#######################################################################
#
#                 Cambridge Crystallographic Data Centre
#                                CCDC
#
#######################################################################
#
# If this CIF has been generated from an entry in the Cambridge
# Structural Database, then it will include bibliographic, chemical,
# crystal, experimental, refinement or atomic coordinate data resulting
# from the CCDC's data processing and validation procedures.
#
#######################################################################

data_CSD_CIF_TEXXIF
_audit_creation_date 2013-05-24
_audit_creation_method CSD-ConQuest-V1
_database_code_CSD TEXXIF
_database_code_depnum_ccdc_archive 'CCDC 855036'
_chemical_formula_sum 'C22 H19 N1 O3'
_chemical_formula_moiety
;
C22 H19 N1 O3
;
_journal_coden_Cambridge 35
_journal_volume 77
_journal_year 2012
_journal_page_first 3627
_journal_name_full 'J.Org.Chem. '
loop_
_publ_author_name
"Zhigang She"
"Dongyue Niu"
"Lei Chen"
"M.A.Gunawan"
"X.Shanja"
"W.H.Hersh"
"Yu Chen"
_chemical_name_systematic
;
t-Butyl 3-phenylnaphtho[1,2-c][1,2]oxazole-5-carboxylate
;
_cell_volume   3460.435
_exptl_crystal_colour 'yellow'
_exptl_crystal_density_diffrn 1.326
_exptl_crystal_description 'spar'
_diffrn_ambient_temperature 100
#These two values have been output from a single CSD field.
_refine_ls_R_factor_gt 0.0384
_refine_ls_wR_factor_gt 0.0384
_symmetry_cell_setting monoclinic
_symmetry_space_group_name_H-M 'C 2/c'
_symmetry_Int_Tables_number 15
loop_
_symmetry_equiv_pos_site_id
_symmetry_equiv_pos_as_xyz
1 x,y,z
2 -x,y,1/2-z
3 1/2+x,1/2+y,z
4 1/2-x,1/2+y,1/2-z
5 -x,-y,-z
6 x,-y,-1/2+z
7 -1/2-x,-1/2-y,-z
8 -1/2+x,-1/2-y,-1/2+z
_cell_length_a 31.219(4)
_cell_length_b 6.1210(7)
_cell_length_c 18.877(2)
_cell_angle_alpha 90
_cell_angle_beta 106.402(1)
_cell_angle_gamma 90
_cell_formula_units_Z 8
loop_
_atom_type_symbol
_atom_type_radius_bond
C 0.68
H 0.23
N 0.68
O 0.68
loop_
_atom_site_label
_atom_site_type_symbol
_atom_site_fract_x
_atom_site_fract_y
_atom_site_fract_z
O1 O 0.20993(3) 0.45420(15) 0.48773(5)
O2 O 0.07804(3) -0.37453(15) 0.55878(5)
O3 O 0.06011(3) -0.03544(15) 0.58844(5)
N1 N 0.19879(4) 0.28576(18) 0.43485(6)
C1 C 0.18842(4) 0.4258(2) 0.54020(7)
C2 C 0.16229(4) 0.2416(2) 0.52302(7)
C3 C 0.17077(4) 0.1617(2) 0.45744(7)
C4 C 0.14969(4) -0.0342(2) 0.42138(7)
C5 C 0.15746(5) -0.1113(2) 0.35622(7)
H1 H 0.17700 -0.03370 0.33480
C6 C 0.13694(5) -0.2987(2) 0.32308(8)
H2 H 0.14210 -0.35000 0.27870
C7 C 0.10855(5) -0.4127(2) 0.35503(8)
H3 H 0.09440 -0.54220 0.33220
C8 C 0.10063(4) -0.3405(2) 0.41929(7)
H4 H 0.08140 -0.42180 0.44030
C9 C 0.12068(4) -0.1479(2) 0.45421(7)
C10 C 0.11206(4) -0.0591(2) 0.52108(7)
C11 C 0.13138(4) 0.1288(2) 0.55309(7)
H5 H 0.12440 0.18500 0.59540
C12 C 0.19795(4) 0.5889(2) 0.59896(7)
C13 C 0.22673(4) 0.7632(2) 0.59805(7)
H6 H 0.24050 0.77410 0.55930
C14 C 0.23528(4) 0.9202(2) 0.65304(7)
H7 H 0.25490 1.03780 0.65180
C15 C 0.21536(4) 0.9070(2) 0.70991(7)
H8 H 0.22120 1.01530 0.74750
C16 C 0.18686(4) 0.7342(2) 0.71147(7)
H9 H 0.17310 0.72460 0.75030
C17 C 0.17834(4) 0.5756(2) 0.65700(7)
H10 H 0.15910 0.45710 0.65900
C18 C 0.08192(4) -0.1786(2) 0.55714(7)
C19 C 0.02975(4) -0.1096(2) 0.63108(7)
C20 C -0.00770(4) -0.2485(2) 0.58367(8)
H11 H -0.02110 -0.17390 0.53670
H12 H -0.03050 -0.27140 0.60950
H13 H 0.00430 -0.39000 0.57410
C21 C 0.05654(5) -0.2289(3) 0.69992(8)
H14 H 0.06910 -0.36310 0.68560
H15 H 0.03700 -0.26600 0.73070
H16 H 0.08080 -0.13470 0.72790
C22 C 0.01187(5) 0.1058(2) 0.65075(9)
H17 H 0.03660 0.19270 0.68130
H18 H -0.00990 0.07740 0.67820
H19 H -0.00260 0.18620 0.60540
#END
