
#######################################################################
#
#                 Cambridge Crystallographic Data Centre
#                                CCDC
#
#######################################################################
#
# If this CIF has been generated from an entry in the Cambridge
# Structural Database, then it will include bibliographic, chemical,
# crystal, experimental, refinement or atomic coordinate data resulting
# from the CCDC's data processing and validation procedures.
#
#######################################################################

data_CSD_CIF_TEYHIO
_audit_creation_date 1997-03-12
_audit_creation_method CSD-ConQuest-V1
_database_code_CSD TEYHIO
_chemical_formula_sum 'C15 H13 N3 O8'
_chemical_formula_moiety
;
C15 H13 N3 O8
;
_journal_coden_Cambridge 35
_journal_volume 60
_journal_year 1995
_journal_page_first 6194
_journal_name_full 'J.Org.Chem. '
loop_
_publ_author_name
"M.S.Morales-Rios"
"N.X.Martinez-Galero"
"M.Loeza-Coria"
"P.Joseph-Nathan"
_chemical_name_systematic
;
(Z)-Dimethyl 2-cyano-3-(2-(N-carbomethoxyamino)-5-nitrophenyl)-2-butenedioate
;
_chemical_melting_point 468.15
_cell_volume    836.961
_exptl_crystal_colour 'yellow'
_exptl_crystal_density_diffrn 1.432
_exptl_special_details
;
Melts with decomposition.

;
_diffrn_ambient_temperature ?
_diffrn_special_details
;
The study was carried out at room temperature,in the range 283-303K

;
#These two values have been output from a single CSD field.
_refine_ls_R_factor_gt 0.0679
_refine_ls_wR_factor_gt 0.0679
_symmetry_cell_setting triclinic
_symmetry_space_group_name_H-M 'P -1'
_symmetry_Int_Tables_number 2
loop_
_symmetry_equiv_pos_site_id
_symmetry_equiv_pos_as_xyz
1 x,y,z
2 -x,-y,-z
_cell_length_a 7.9768(44)
_cell_length_b 9.2204(52)
_cell_length_c 12.9466(75)
_cell_angle_alpha 70.500(82)
_cell_angle_beta 78.808(45)
_cell_angle_gamma 69.387(45)
_cell_formula_units_Z 2
loop_
_atom_type_symbol
_atom_type_radius_bond
C 0.68
H 0.23
N 0.68
O 0.68
loop_
_atom_site_label
_atom_site_type_symbol
_atom_site_fract_x
_atom_site_fract_y
_atom_site_fract_z
N1 N 0.3514(4) -0.2598(4) 0.9407(2)
N2 N 0.2889(4) 0.3245(4) 0.7002(3)
N3 N 0.8944(4) 0.0429(3) 0.8134(2)
O1 O 0.2507(4) -0.0172(3) 0.5116(2)
O2 O 0.1168(3) 0.2411(3) 0.5159(2)
O3 O 0.2786(3) -0.2844(3) 0.7296(2)
O4 O 0.5533(3) -0.2946(3) 0.6390(2)
O5 O 0.3674(5) -0.3840(4) 1.1243(2)
O6 O 0.1588(3) -0.3910(3) 1.0336(2)
O7 O 0.9029(4) 0.1289(4) 0.7190(2)
O8 O 0.9967(4) 0.0230(3) 0.8805(2)
C1 C 0.4904(4) -0.1910(3) 0.9117(2)
C2 C 0.5156(4) -0.0983(3) 0.8010(2)
C3 C 0.6478(4) -0.0228(4) 0.7701(2)
C4 C 0.7571(4) -0.0389(4) 0.8491(3)
C5 C 0.7364(5) -0.1305(4) 0.9575(3)
C6 C 0.6042(4) -0.2056(4) 0.9893(3)
C7 C 0.4047(4) -0.0777(4) 0.7124(2)
C8 C 0.3156(4) 0.0691(4) 0.6499(2)
C9 C 0.2240(4) 0.0912(4) 0.5511(3)
C10 C 0.0110(6) 0.2751(5) 0.4253(3)
C11 C 0.2994(4) 0.2135(4) 0.6772(3)
C12 C 0.4018(4) -0.2300(4) 0.6938(2)
C13 C 0.5708(6) -0.4455(4) 0.6162(4)
C14 C 0.2999(5) -0.3491(4) 1.0414(3)
C15 C 0.0817(6) -0.4800(5) 1.1354(4)
H1 H 0.2849(61) -0.2634(50) 0.8924(39)
H2 H 0.66690 0.04870 0.68510
H3 H 0.82370 -0.14330 1.01720
H4 H 0.58720 -0.27670 1.07450
H5 H -0.06170 0.18740 0.44580
H6 H 0.10050 0.26660 0.35080
H7 H -0.08450 0.39680 0.41160
H8 H 0.54010 -0.53250 0.69210
H9 H 0.70790 -0.49570 0.58300
H10 H 0.47740 -0.42030 0.55640
H11 H 0.06240 -0.42030 1.19860
H12 H 0.17240 -0.60310 1.16190
H13 H -0.04750 -0.48340 1.12210
#END
