
#######################################################################
#
#                 Cambridge Crystallographic Data Centre
#                                CCDC
#
#######################################################################
#
# If this CIF has been generated from an entry in the Cambridge
# Structural Database, then it will include bibliographic, chemical,
# crystal, experimental, refinement or atomic coordinate data resulting
# from the CCDC's data processing and validation procedures.
#
#######################################################################

data_CSD_CIF_TEYLIS
_audit_creation_date 1997-03-12
_audit_creation_method CSD-ConQuest-V1
_database_code_CSD TEYLIS
_chemical_formula_sum 'C15 H21 N3 O4'
_chemical_formula_moiety
;
C15 H21 N3 O4
;
_journal_coden_Cambridge 16
_journal_volume 52
_journal_year 1996
_journal_page_first 9193
_journal_name_full 'Tetrahedron '
loop_
_publ_author_name
"L.A.Banuelos"
"P.Cuadrado"
"A.M.Gonzalez-Nogal"
"I.Lopez-Solera"
"F.J.Pulido"
"P.R.Raithby"
_chemical_name_systematic
;
trans,trans-3-Ethoxycarbonyl-2-ethyl-5-methyl-4-nitro-1-phenylpyrazolidine
;
_chemical_melting_point 333.15
_cell_volume   1661.162
_exptl_crystal_colour 'pale yellow'
_exptl_crystal_density_diffrn 1.229
_exptl_special_details
;
Melting point range 333.15-334.15K

;
_diffrn_ambient_temperature ?
_diffrn_special_details
;
The study was carried out at room temperature,in the range 283-303K

;
#These two values have been output from a single CSD field.
_refine_ls_R_factor_gt 0.056
_refine_ls_wR_factor_gt 0.056
_symmetry_cell_setting monoclinic
_symmetry_space_group_name_H-M 'P 21/c'
_symmetry_Int_Tables_number 14
loop_
_symmetry_equiv_pos_site_id
_symmetry_equiv_pos_as_xyz
1 x,y,z
2 -x,1/2+y,1/2-z
3 -x,-y,-z
4 x,-1/2-y,-1/2+z
_cell_length_a 8.733(2)
_cell_length_b 8.058(2)
_cell_length_c 23.985(5)
_cell_angle_alpha 90
_cell_angle_beta 100.20(3)
_cell_angle_gamma 90
_cell_formula_units_Z 4
loop_
_atom_type_symbol
_atom_type_radius_bond
C 0.68
N 0.68
O 0.68
loop_
_atom_site_label
_atom_site_type_symbol
_atom_site_fract_x
_atom_site_fract_y
_atom_site_fract_z
N1 N -0.3676(3) -0.1126(3) 0.8905(1)
N2 N -0.2495(3) 0.0016(3) 0.8806(1)
N3 N -0.0374(5) -0.3865(5) 0.9150(2)
O1 O 0.1367(3) -0.0169(4) 0.9267(1)
O2 O 0.0425(2) 0.0815(3) 0.8412(1)
O3 O 0.0679(8) -0.4268(7) 0.9485(3)
O4 O -0.0778(5) -0.4621(5) 0.8737(2)
C1 C -0.1147(3) -0.1042(4) 0.8799(1)
C2 C -0.1212(4) -0.2312(4) 0.9260(1)
C3 C -0.2955(4) -0.2580(4) 0.9230(1)
C4 C -0.4840(4) -0.1426(4) 0.8417(2)
C5 C -0.6023(4) -0.2550(5) 0.8457(2)
C6 C -0.7207(5) -0.2795(6) 0.7984(3)
C7 C -0.7210(5) -0.1935(7) 0.7500(2)
C8 C -0.6069(5) -0.0828(6) 0.7465(2)
C9 C -0.4886(4) -0.0550(5) 0.7919(1)
C10 C -0.2274(4) 0.1310(4) 0.9247(1)
C11 C -0.3696(5) 0.2378(5) 0.9197(2)
C12 C 0.0365(4) -0.0091(4) 0.8860(2)
C13 C 0.1828(4) 0.1796(5) 0.8414(2)
C14 C 0.1694(5) 0.2608(5) 0.7858(2)
C15 C -0.3451(6) -0.2736(5) 0.9804(2)
#END
