
#######################################################################
#
#                 Cambridge Crystallographic Data Centre
#                                CCDC
#
#######################################################################
#
# If this CIF has been generated from an entry in the Cambridge
# Structural Database, then it will include bibliographic, chemical,
# crystal, experimental, refinement or atomic coordinate data resulting
# from the CCDC's data processing and validation procedures.
#
#######################################################################

data_CSD_CIF_TEYMAN
_audit_creation_date 2013-05-24
_audit_creation_method CSD-ConQuest-V1
_database_code_CSD TEYMAN
_database_code_depnum_ccdc_archive 'CCDC 853740'
_chemical_formula_sum 'C29 H26 N2 O3'
_chemical_formula_moiety
;
C29 H26 N2 O3
;
_journal_coden_Cambridge 1048
_journal_volume 15
_journal_year 2013
_journal_page_first 1910
_journal_name_full 'Green Chemistry '
loop_
_publ_author_name
"S.Ray"
"M.Brown"
"A.Bhaumik"
"A.Dutta"
"C.Mukhopadhyay"
_chemical_name_systematic
;
7,7-Dimethyl-4-(4-nitrophenyl)-2,3-diphenyl-4,6,7,8-tetrahydroquinolin-5(1H)-o
ne
;
_cell_volume   2412.867
_exptl_crystal_density_diffrn 1.24
_diffrn_ambient_temperature 296
#These two values have been output from a single CSD field.
_refine_ls_R_factor_gt 0.0517
_refine_ls_wR_factor_gt 0.0517
_symmetry_cell_setting monoclinic
_symmetry_space_group_name_H-M 'P 21/c'
_symmetry_Int_Tables_number 14
loop_
_symmetry_equiv_pos_site_id
_symmetry_equiv_pos_as_xyz
1 x,y,z
2 -x,1/2+y,1/2-z
3 -x,-y,-z
4 x,-1/2-y,-1/2+z
_cell_length_a 19.1534(10)
_cell_length_b 10.4617(5)
_cell_length_c 12.4228(6)
_cell_angle_alpha 90
_cell_angle_beta 104.230(2)
_cell_angle_gamma 90
_cell_formula_units_Z 4
loop_
_atom_type_symbol
_atom_type_radius_bond
C 0.68
H 0.23
N 0.68
O 0.68
loop_
_atom_site_label
_atom_site_type_symbol
_atom_site_fract_x
_atom_site_fract_y
_atom_site_fract_z
O1 O 0.2308(2) 0.3442(3) 0.1414(2)
O2 O 0.14701(13) 0.2653(3) 0.19722(19)
O3 O 0.16938(8) 0.88911(15) 0.46601(11)
N1 N 0.19397(16) 0.3395(3) 0.20599(18)
N2 N 0.21073(8) 0.60207(16) 0.76481(13)
H1 H 0.19290 0.56160 0.81210
C1 C 0.21219(12) 0.4278(2) 0.30132(17)
C2 C 0.26043(14) 0.5247(2) 0.30305(18)
H2 H 0.28340 0.53370 0.24570
C3 C 0.27445(11) 0.6091(2) 0.39166(16)
H3 H 0.30640 0.67630 0.39270
C4 C 0.24167(9) 0.59503(19) 0.47864(14)
C5 C 0.25794(9) 0.68702(19) 0.57700(14)
H4 H 0.28350 0.76100 0.55700
C6 C 0.30780(9) 0.62052(18) 0.67657(15)
C7 C 0.28233(9) 0.57846(18) 0.76148(15)
C8 C 0.32294(10) 0.50641(19) 0.86033(15)
C9 C 0.38454(11) 0.5531(2) 0.93042(17)
H5 H 0.40400 0.63010 0.91410
C10 C 0.41810(13) 0.4859(2) 1.02582(18)
H6 H 0.45940 0.51890 1.07340
C11 C 0.39099(15) 0.3724(3) 1.0501(2)
H7 H 0.41380 0.32780 1.11380
C12 C 0.17975(12) 0.4093(2) 0.38726(18)
H8 H 0.14820 0.34140 0.38620
C13 C 0.19507(11) 0.4938(2) 0.47505(18)
H9 H 0.17330 0.48220 0.53360
C14 C 0.38279(10) 0.59779(19) 0.66731(14)
C15 C 0.42597(11) 0.6995(2) 0.65299(18)
H10 H 0.40830 0.78240 0.65220
C16 C 0.49465(12) 0.6801(3) 0.6399(2)
H11 H 0.52290 0.74970 0.63110
C17 C 0.52126(12) 0.5587(3) 0.63994(19)
H12 H 0.56740 0.54550 0.63050
C18 C 0.47944(13) 0.4569(3) 0.65396(19)
H13 H 0.49750 0.37430 0.65430
C19 C 0.41059(11) 0.4755(2) 0.66754(17)
H14 H 0.38280 0.40550 0.67690
C20 C 0.33082(16) 0.3246(3) 0.9815(2)
H15 H 0.31280 0.24620 0.99720
C21 C 0.29590(14) 0.3921(2) 0.8878(2)
H16 H 0.25350 0.35970 0.84270
C22 C 0.16885(10) 0.68740(19) 0.69502(15)
C23 C 0.18997(10) 0.73488(18) 0.60643(14)
C24 C 0.14904(10) 0.8352(2) 0.54114(15)
C25 C 0.08025(11) 0.8792(2) 0.56843(18)
H17 H 0.04630 0.90300 0.49970
H18 H 0.09070 0.95550 0.61390
C26 C 0.04402(10) 0.7824(2) 0.62877(17)
C27 C -0.01447(13) 0.8483(3) 0.6738(2)
H19 H -0.03450 0.78820 0.71640
H20 H -0.05180 0.87910 0.61290
H21 H 0.00620 0.91880 0.72020
C28 C 0.10177(10) 0.7297(2) 0.72615(16)
H22 H 0.11430 0.79510 0.78300
H23 H 0.08190 0.65770 0.75790
C29 C 0.01044(13) 0.6738(3) 0.5503(2)
H24 H 0.04690 0.63430 0.52050
H25 H -0.02670 0.70760 0.49060
H26 H -0.00980 0.61140 0.59050
#END
