
#######################################################################
#
#                 Cambridge Crystallographic Data Centre
#                                CCDC
#
#######################################################################
#
# If this CIF has been generated from an entry in the Cambridge
# Structural Database, then it will include bibliographic, chemical,
# crystal, experimental, refinement or atomic coordinate data resulting
# from the CCDC's data processing and validation procedures.
#
#######################################################################

data_CSD_CIF_TEYPOD
_audit_creation_date 2007-05-24
_audit_creation_method CSD-ConQuest-V1
_database_code_CSD TEYPOD
_database_code_depnum_ccdc_archive 'CCDC 626357'
_chemical_formula_sum 'C17 H18 N2 O4'
_chemical_formula_moiety
;
C17 H18 N2 O4
;
_journal_coden_Cambridge 35
_journal_volume 72
_journal_year 2007
_journal_page_first 1431
_journal_name_full 'J.Org.Chem. '
loop_
_publ_author_name
"F.F.Fleming"
"V.A.Vu"
"B.C.Shook"
"M.Rahman"
"O.W.Steward"
_chemical_name_systematic
;
7a-cyano-octahydro-1-H-inden-1-yl 4-nitrobenzoate
;
_cell_volume   1547.569
_exptl_crystal_colour 'colorless'
_exptl_crystal_density_diffrn 1.349
_exptl_crystal_description 'plate'
_diffrn_ambient_temperature 273
#These two values have been output from a single CSD field.
_refine_ls_R_factor_gt 0.0318
_refine_ls_wR_factor_gt 0.0318
_symmetry_cell_setting monoclinic
_symmetry_space_group_name_H-M 'P 21/c'
_symmetry_Int_Tables_number 14
loop_
_symmetry_equiv_pos_site_id
_symmetry_equiv_pos_as_xyz
1 x,y,z
2 -x,1/2+y,1/2-z
3 -x,-y,-z
4 x,-1/2-y,-1/2+z
_cell_length_a 11.6040(5)
_cell_length_b 13.2810(6)
_cell_length_c 10.7820(5)
_cell_angle_alpha 90
_cell_angle_beta 111.354(2)
_cell_angle_gamma 90
_cell_formula_units_Z 4
loop_
_atom_type_symbol
_atom_type_radius_bond
C 0.68
H 0.23
N 0.68
O 0.68
loop_
_atom_site_label
_atom_site_type_symbol
_atom_site_fract_x
_atom_site_fract_y
_atom_site_fract_z
C1 C 0.7811(3) 0.0228(2) 0.5624(3)
C2 C 0.8177(3) 0.0610(2) 0.4481(3)
H1 H 0.86470 0.01060 0.41960
C3 C 0.8930(3) 0.1544(2) 0.5036(3)
H2 H 0.88010 0.20420 0.43420
H3 H 0.98050 0.13820 0.54140
C4 C 0.8480(3) 0.1945(2) 0.6121(3)
H4 H 0.81390 0.26160 0.58960
H5 H 0.91610 0.19730 0.69730
C5 C 0.7474(3) 0.1207(2) 0.6189(3)
H6 H 0.66710 0.14420 0.55690
C6 C 0.7379(3) 0.1062(2) 0.7543(3)
H7 H 0.66330 0.06850 0.74330
H8 H 0.73040 0.17160 0.79060
C7 C 0.8483(3) 0.0511(3) 0.8535(3)
H9 H 0.92150 0.09310 0.87580
H10 H 0.83290 0.03830 0.93470
C8 C 0.8707(3) -0.0477(3) 0.7958(3)
H11 H 0.94270 -0.08050 0.85930
H12 H 0.80000 -0.09160 0.78020
C9 C 0.8910(3) -0.0314(2) 0.6668(3)
H13 H 0.90320 -0.09610 0.63150
H14 H 0.96540 0.00820 0.68390
C10 C 0.6744(4) -0.0464(3) 0.5153(3)
C11 C 0.7006(3) 0.0846(2) 0.2166(4)
C12 C 0.5770(3) 0.11518(19) 0.1195(4)
C13 C 0.4773(4) 0.1343(2) 0.1568(3)
H15 H 0.48680 0.13200 0.24620
C14 C 0.3639(3) 0.1569(2) 0.0619(5)
H16 H 0.29630 0.17030 0.08620
C15 C 0.3522(4) 0.1595(2) -0.0690(4)
C16 C 0.4495(4) 0.1428(2) -0.1090(3)
H17 H 0.43960 0.14640 -0.19840
C17 C 0.5627(3) 0.1202(2) -0.0127(4)
H18 H 0.63040 0.10830 -0.03750
N1 N 0.5928(3) -0.0998(2) 0.4820(3)
N2 N 0.2292(3) 0.1814(2) -0.1701(3)
O1 O 0.70318(17) 0.08851(14) 0.3415(3)
O2 O 0.7869(2) 0.05881(16) 0.1882(2)
O3 O 0.1443(3) 0.1961(2) -0.1314(3)
O4 O 0.2186(2) 0.18191(18) -0.2866(3)
#END
