
#######################################################################
#
#                 Cambridge Crystallographic Data Centre
#                                CCDC
#
#######################################################################
#
# If this CIF has been generated from an entry in the Cambridge
# Structural Database, then it will include bibliographic, chemical,
# crystal, experimental, refinement or atomic coordinate data resulting
# from the CCDC's data processing and validation procedures.
#
#######################################################################

data_CSD_CIF_TEZBAC
_audit_creation_date 2007-05-24
_audit_creation_method CSD-ConQuest-V1
_database_code_CSD TEZBAC
_database_code_depnum_ccdc_archive 'CCDC 631603'
_chemical_formula_sum 'C20 H25 N1 O7'
_chemical_formula_moiety
;
C20 H25 N1 O7
;
_journal_coden_Cambridge 24
_journal_volume 48
_journal_year 2007
_journal_page_first 2501
_journal_name_full 'Tetrahedron Lett. '
loop_
_publ_author_name
"J.S.Clark"
"S.T.Hayes"
"A.J.Blake"
"L.Gobbi"
_chemical_name_systematic
;
2-(Ethoxycarbonylmethyl)-6-(isopropenyl)-3-methylpyran-3-yl p-nitrobenzoate
;
_cell_volume   1007.393
_exptl_crystal_colour 'colorless'
_exptl_crystal_density_diffrn 1.29
_exptl_crystal_description 'lath'
_diffrn_ambient_temperature 150
#These two values have been output from a single CSD field.
_refine_ls_R_factor_gt 0.0927
_refine_ls_wR_factor_gt 0.0927
_symmetry_cell_setting triclinic
_symmetry_space_group_name_H-M 'P -1'
_symmetry_Int_Tables_number 2
loop_
_symmetry_equiv_pos_site_id
_symmetry_equiv_pos_as_xyz
1 x,y,z
2 -x,-y,-z
_cell_length_a 6.630(6)
_cell_length_b 7.385(7)
_cell_length_c 20.96(2)
_cell_angle_alpha 84.02(2)
_cell_angle_beta 81.78(2)
_cell_angle_gamma 84.95(2)
_cell_formula_units_Z 2
loop_
_atom_type_symbol
_atom_type_radius_bond
C 0.68
H 0.23
N 0.68
O 0.68
loop_
_atom_site_label
_atom_site_type_symbol
_atom_site_fract_x
_atom_site_fract_y
_atom_site_fract_z
N1 N 0.2820(4) 1.1265(3) -0.10943(11)
C1 C 0.3466(4) 0.8348(3) 0.31609(12)
O1 O 0.5104(3) 0.8211(2) 0.34718(9)
O2 O 0.2069(3) 0.9485(3) 0.32487(11)
C2 C 0.3622(4) 0.6929(4) 0.26909(13)
H1 H 0.46230 0.59220 0.28120
H2 H 0.41280 0.74750 0.22520
O3 O 0.1028(3) 0.5228(2) 0.33009(8)
C3 C 0.1569(4) 0.6165(3) 0.26802(12)
H3 H 0.05260 0.72040 0.26120
O4 O 0.1918(3) 0.6146(2) 0.15574(8)
C4 C 0.1594(4) 0.4867(3) 0.21521(12)
O5 O 0.1946(3) 0.3992(3) 0.08687(9)
C5 C -0.0512(4) 0.4120(4) 0.22136(12)
H4 H -0.15280 0.51200 0.20980
H5 H -0.04720 0.31790 0.19070
C6 C -0.1169(4) 0.3284(4) 0.29025(12)
H6 H -0.25940 0.29380 0.29420
H7 H -0.02810 0.21650 0.29950
O6 O 0.2792(4) 1.0833(3) -0.16396(10)
O7 O 0.2950(4) 1.2835(3) -0.09791(11)
C7 C -0.1019(4) 0.4640(3) 0.33905(12)
H8 H -0.19890 0.57280 0.33090
C8 C -0.1533(4) 0.3850(3) 0.40848(13)
C9 C -0.3448(5) 0.3977(4) 0.43694(14)
H9 H -0.37860 0.34370 0.47990
H10 H -0.44840 0.46080 0.41440
C10 C 0.0182(5) 0.2879(4) 0.44072(15)
H11 H -0.03590 0.23310 0.48370
H12 H 0.11740 0.37520 0.44520
H13 H 0.08560 0.19200 0.41440
C11 C 0.3332(4) 0.3381(4) 0.21603(13)
H14 H 0.32890 0.25970 0.18140
H15 H 0.31860 0.26460 0.25790
H16 H 0.46400 0.39420 0.20930
C12 C 0.5144(5) 0.9509(4) 0.39395(14)
H17 H 0.39510 0.94080 0.42810
H18 H 0.51030 1.07700 0.37260
C13 C 0.7099(5) 0.9062(4) 0.42291(15)
H19 H 0.71840 0.99150 0.45510
H20 H 0.82660 0.91690 0.38870
H21 H 0.71190 0.78120 0.44380
C14 C 0.2039(4) 0.5555(4) 0.09749(13)
C15 C 0.2289(4) 0.7103(4) 0.04453(12)
C16 C 0.2300(4) 0.8908(4) 0.05751(12)
H22 H 0.21760 0.92000 0.10110
C17 C 0.2492(4) 1.0294(4) 0.00701(13)
H23 H 0.25090 1.15330 0.01540
C18 C 0.2657(4) 0.9815(4) -0.05525(12)
C19 C 0.2660(4) 0.8037(4) -0.06954(13)
H24 H 0.27900 0.77530 -0.11320
C20 C 0.2469(4) 0.6659(4) -0.01855(14)
H25 H 0.24630 0.54230 -0.02720
#END
