
#######################################################################
#
#                 Cambridge Crystallographic Data Centre
#                                CCDC
#
#######################################################################
#
# If this CIF has been generated from an entry in the Cambridge
# Structural Database, then it will include bibliographic, chemical,
# crystal, experimental, refinement or atomic coordinate data resulting
# from the CCDC's data processing and validation procedures.
#
#######################################################################

data_CSD_CIF_TEZGOV
_audit_creation_date 2007-05-23
_audit_creation_method CSD-ConQuest-V1
_database_code_CSD TEZGOV
_database_code_depnum_ccdc_archive 'CCDC 624455'
_chemical_formula_sum 'C20 H29 N1 O2'
_chemical_formula_moiety
;
C20 H29 N1 O2
;
_journal_coden_Cambridge 692
_journal_volume 2007
_journal_year 2007
_journal_page_first 773
_journal_name_full 'Synthesis '
loop_
_publ_author_name
"I.M.Malkowsky"
"M.Nieger"
"O.Kataeva"
"S.R.Waldvogel"
_chemical_name_systematic
;
(-)-(1R,4aS,10aR)-1,4a-dimethyl-7-isopropyl-1,2,3,4,4a,9,10,10a-octahydro-1-ni
tromethylphenanthrene
;
_chemical_melting_point 379.15
_cell_volume   1744.098
_exptl_crystal_colour 'colorless'
_exptl_crystal_density_diffrn 1.201
_exptl_crystal_description 'plates'
_diffrn_ambient_temperature 123
#These two values have been output from a single CSD field.
_refine_ls_R_factor_gt 0.0416
_refine_ls_wR_factor_gt 0.0416
_symmetry_cell_setting orthorhombic
_symmetry_space_group_name_H-M 'P 21 21 21'
_symmetry_Int_Tables_number 19
loop_
_symmetry_equiv_pos_site_id
_symmetry_equiv_pos_as_xyz
1 x,y,z
2 1/2-x,-y,1/2+z
3 -x,1/2+y,1/2-z
4 1/2+x,1/2-y,-z
_cell_length_a 10.1215(3)
_cell_length_b 12.2335(3)
_cell_length_c 14.0856(5)
_cell_angle_alpha 90
_cell_angle_beta 90
_cell_angle_gamma 90
_cell_formula_units_Z 4
loop_
_atom_type_symbol
_atom_type_radius_bond
C 0.68
H 0.23
N 0.68
O 0.68
loop_
_atom_site_label
_atom_site_type_symbol
_atom_site_fract_x
_atom_site_fract_y
_atom_site_fract_z
C1 C 0.47409(16) 0.14263(13) 0.58453(12)
C2 C 0.51253(17) 0.11692(14) 0.48061(12)
H1 H 0.59090 0.16120 0.46350
H2 H 0.53810 0.03900 0.47620
N1 N 0.40639(16) 0.13861(15) 0.41054(11)
O1 O 0.32842(13) 0.06436(12) 0.39328(9)
O2 O 0.40134(14) 0.22928(12) 0.3738(1)
C3 C 0.60373(16) 0.12318(15) 0.63848(13)
H3 H 0.67020 0.17610 0.61730
H4 H 0.63530 0.04890 0.62590
H5 H 0.58840 0.13220 0.70670
C4 C 0.36692(16) 0.06171(13) 0.61628(12)
H6 H 0.29330 0.06340 0.57000
H7 H 0.40420 -0.01310 0.61620
C5 C 0.31351(17) 0.08716(13) 0.71437(13)
H8 H 0.38570 0.08170 0.76160
H9 H 0.24470 0.03310 0.73140
C6 C 0.25456(16) 0.20235(13) 0.71686(13)
H10 H 0.22030 0.21700 0.78140
H11 H 0.17910 0.20570 0.67230
C7 C 0.35505(15) 0.29225(13) 0.69026(12)
C8 C 0.45301(17) 0.30674(14) 0.77287(13)
H12 H 0.49960 0.23770 0.78410
H13 H 0.40470 0.32780 0.83030
H14 H 0.51710 0.36390 0.75680
C9 C 0.28575(15) 0.40294(13) 0.67669(12)
C10 C 0.17985(15) 0.43301(13) 0.73558(12)
H15 H 0.15060 0.38330 0.78300
C11 C 0.11676(16) 0.53289(14) 0.72661(12)
H16 H 0.04570 0.55030 0.76800
C12 C 0.15564(15) 0.60815(13) 0.65814(12)
C13 C 0.08197(15) 0.71533(13) 0.64521(13)
H17 H 0.02850 0.72730 0.70400
C14 C 0.17232(19) 0.81386(14) 0.63439(16)
H18 H 0.11880 0.88000 0.62620
H19 H 0.22900 0.80380 0.57870
H20 H 0.22740 0.82130 0.69130
C15 C -0.01524(19) 0.70748(15) 0.56229(13)
H21 H -0.07340 0.64430 0.57160
H22 H 0.03390 0.69880 0.50280
H23 H -0.06850 0.77430 0.55930
C16 C 0.26147(16) 0.57924(13) 0.60074(13)
H24 H 0.29070 0.62970 0.55400
C17 C 0.32713(15) 0.47880(13) 0.60877(12)
C18 C 0.43871(16) 0.45485(14) 0.53994(14)
H25 H 0.50080 0.51740 0.54030
H26 H 0.40150 0.44890 0.47510
C19 C 0.51527(17) 0.35107(13) 0.56202(13)
H27 H 0.57960 0.36530 0.61350
H28 H 0.56470 0.32710 0.50500
C20 C 0.41901(15) 0.26139(12) 0.59266(12)
H29 H 0.34500 0.26490 0.54580
#END
