
#######################################################################
#
#                 Cambridge Crystallographic Data Centre
#                                CCDC
#
#######################################################################
#
# If this CIF has been generated from an entry in the Cambridge
# Structural Database, then it will include bibliographic, chemical,
# crystal, experimental, refinement or atomic coordinate data resulting
# from the CCDC's data processing and validation procedures.
#
#######################################################################

data_CSD_CIF_TIBLIZ
_audit_creation_date 1997-03-12
_audit_creation_method CSD-ConQuest-V1
_database_code_CSD TIBLIZ
_chemical_formula_sum 'C15 H20 N2 O3'
_chemical_formula_moiety
;
C15 H20 N2 O3
;
_journal_coden_Cambridge 122
_journal_year 1996
_journal_page_first 1055
_journal_name_full 'Khim.Get.Soedin.,SSSR(Russ.)(Chem.Heterocycl.Compd.) '
loop_
_publ_author_name
"V.A.Samsonov"
"L.B.Volodarsky"
"I.Yu.Bagryanskaya"
"Yu.V.Gatilov"
_chemical_name_systematic
;
2-Methyl-4-hydroxy-4-phenyl-5-(N-morpholinyl)-1-pyrroline-1-oxide
;
_chemical_melting_point 470
_cell_volume   1461.830
_exptl_crystal_density_diffrn 1.256
_diffrn_ambient_temperature ?
_diffrn_special_details
;
The study was carried out at room temperature,in the range 283-303K

;
#These two values have been output from a single CSD field.
_refine_ls_R_factor_gt 0.0342
_refine_ls_wR_factor_gt 0.0342
_symmetry_cell_setting orthorhombic
_symmetry_space_group_name_H-M 'P 21 21 21'
_symmetry_Int_Tables_number 19
loop_
_symmetry_equiv_pos_site_id
_symmetry_equiv_pos_as_xyz
1 x,y,z
2 1/2-x,-y,1/2+z
3 1/2+x,1/2-y,-z
4 -x,1/2+y,1/2-z
_cell_length_a 7.355(2)
_cell_length_b 9.644(3)
_cell_length_c 20.609(5)
_cell_angle_alpha 90
_cell_angle_beta 90
_cell_angle_gamma 90
_cell_formula_units_Z 4
loop_
_atom_type_symbol
_atom_type_radius_bond
C 0.68
H 0.23
N 0.68
O 0.68
loop_
_atom_site_label
_atom_site_type_symbol
_atom_site_fract_x
_atom_site_fract_y
_atom_site_fract_z
N1 N -0.2470(3) 0.3061(2) 0.26124(11)
C1 C -0.2527(4) 0.3905(3) 0.21269(13)
C2 C -0.2081(4) 0.5339(3) 0.23288(12)
H1 H -0.3166(4) 0.5909(3) 0.23480(12)
H2 H -0.1220(4) 0.5760(3) 0.20316(12)
C3 C -0.1236(4) 0.5159(3) 0.30092(12)
C4 C -0.1990(4) 0.3738(3) 0.32484(12)
H3 H -0.0979(4) 0.3219(3) 0.34405(12)
C5 C -0.3027(5) 0.3452(4) 0.14644(14)
H4 H -0.2741(5) 0.4174(4) 0.11604(14)
H5 H -0.4306(5) 0.3258(4) 0.14482(14)
H6 H -0.2357(5) 0.2630(4) 0.13549(14)
C6 C -0.1496(4) 0.6386(3) 0.34637(12)
C7 C -0.1875(4) 0.7694(3) 0.32250(13)
H7 H -0.2035(4) 0.7814(3) 0.27809(13)
C8 C -0.2023(4) 0.8828(3) 0.36329(15)
H8 H -0.2275(4) 0.9700(3) 0.34623(15)
C9 C -0.1796(5) 0.8665(3) 0.42894(15)
H9 H -0.1929(5) 0.9418(3) 0.45671(15)
C10 C -0.1370(5) 0.7378(4) 0.45335(13)
H10 H -0.1185(5) 0.7271(4) 0.49771(13)
C11 C -0.1213(4) 0.6244(3) 0.41298(13)
H11 H -0.0918(4) 0.5382(3) 0.43020(13)
C12 C -0.3733(5) 0.2479(3) 0.40739(14)
H12 H -0.2575(5) 0.2102(3) 0.42150(14)
H13 H -0.4330(5) 0.1793(3) 0.38036(14)
C13 C -0.4894(5) 0.2804(4) 0.4651(2)
H14 H -0.5130(5) 0.1957(4) 0.4891(2)
H15 H -0.4244(5) 0.3433(4) 0.4936(2)
C14 C -0.6286(5) 0.4630(4) 0.40918(14)
H16 H -0.5673(5) 0.5318(4) 0.43565(14)
H17 H -0.7451(5) 0.5011(4) 0.39616(14)
C15 C -0.5161(4) 0.4345(3) 0.34954(13)
H18 H -0.5793(4) 0.3702(3) 0.32126(13)
H19 H -0.4952(4) 0.5199(3) 0.32581(13)
N2 N -0.3438(3) 0.3754(2) 0.37038(10)
O1 O -0.2856(3) 0.1732(2) 0.26068(10)
O2 O 0.0668(2) 0.4863(2) 0.29417(9)
H20 H 0.1219(61) 0.5643(41) 0.2740(19)
O3 O -0.6579(3) 0.3418(3) 0.44667(11)
#END
