
#######################################################################
#
#                 Cambridge Crystallographic Data Centre
#                                CCDC
#
#######################################################################
#
# If this CIF has been generated from an entry in the Cambridge
# Structural Database, then it will include bibliographic, chemical,
# crystal, experimental, refinement or atomic coordinate data resulting
# from the CCDC's data processing and validation procedures.
#
#######################################################################

data_CSD_CIF_TIBMUM
_audit_creation_date 1997-03-12
_audit_creation_method CSD-ConQuest-V1
_database_code_CSD TIBMUM
_database_code_depnum_ccdc_archive 'CCDC 1270764'
_chemical_formula_sum 'C5 H6 N6 O4'
_chemical_formula_moiety
;
C5 H6 N6 O4
;
_journal_coden_Cambridge 34
_journal_volume 33
_journal_year 1996
_journal_page_first 895
_journal_name_full 'J.Heterocycl.Chem. '
loop_
_publ_author_name
"R.A.Hollins"
"L.H.Merwin"
"R.A.Nissan"
"W.S.Wilson"
"R.Gilardi"
_chemical_name_systematic
;
3,5-Dinitro-2,4,6-triaminopyridine
;
_chemical_melting_point 626.15
_cell_volume   1563.723
_exptl_crystal_colour 'pale yellow'
_exptl_crystal_density_diffrn 1.819
_exptl_special_details
;
Melts with decomposition.

;
_diffrn_ambient_temperature ?
_diffrn_special_details
;
The study was carried out at room temperature,in the range 283-303K

;
#These two values have been output from a single CSD field.
_refine_ls_R_factor_gt 0.0466
_refine_ls_wR_factor_gt 0.0466
_symmetry_cell_setting monoclinic
_symmetry_space_group_name_H-M 'P 21/c'
_symmetry_Int_Tables_number 14
loop_
_symmetry_equiv_pos_site_id
_symmetry_equiv_pos_as_xyz
1 x,y,z
2 -x,1/2+y,1/2-z
3 -x,-y,-z
4 x,-1/2-y,-1/2+z
_cell_length_a 16.9579(7)
_cell_length_b 8.9339(6)
_cell_length_c 10.3507(8)
_cell_angle_alpha 90
_cell_angle_beta 94.298(5)
_cell_angle_gamma 90
_cell_formula_units_Z 8
loop_
_atom_type_symbol
_atom_type_radius_bond
C 0.68
H 0.23
N 0.68
O 0.68
loop_
_atom_site_label
_atom_site_type_symbol
_atom_site_fract_x
_atom_site_fract_y
_atom_site_fract_z
N1 N 0.32158(12) 0.2090(2) 0.1243(2)
C1 C 0.3639(2) 0.2781(3) 0.0384(2)
N2 N 0.3625(2) 0.4254(3) 0.0425(2)
H1 H 0.3375(18) 0.4745(38) 0.0928(30)
H2 H 0.3861(19) 0.4840(37) -0.0106(29)
C2 C 0.40713(14) 0.1966(3) -0.0530(2)
N3 N 0.45470(13) 0.2727(3) -0.1377(2)
O1 O 0.45723(12) 0.4117(2) -0.1377(2)
O2 O 0.49473(12) 0.2024(2) -0.2131(2)
C3 C 0.40075(14) 0.0355(3) -0.0573(2)
N4 N 0.4347(2) -0.0425(3) -0.1455(2)
H3 H 0.4269(17) -0.1346(39) -0.1461(28)
H4 H 0.4635(17) 0.0026(34) -0.2029(29)
C4 C 0.35577(15) -0.0335(3) 0.0381(2)
N5 N 0.34749(13) -0.1902(3) 0.0430(2)
O3 O 0.31174(13) -0.2511(2) 0.1291(2)
O4 O 0.37643(15) -0.2701(2) -0.0399(2)
C5 C 0.31807(15) 0.0594(3) 0.1298(2)
N6 N 0.2762(2) 0.0062(3) 0.2224(2)
H5 H 0.2548(18) 0.0738(37) 0.2675(29)
H6 H 0.2737(17) -0.0942(38) 0.2336(28)
N7 N 0.18241(12) 0.2164(2) 0.3827(2)
C6 C 0.14002(15) 0.1461(3) 0.4691(2)
N8 N 0.1457(2) -0.0015(3) 0.4680(3)
H7 H 0.1724(18) -0.0397(38) 0.4184(30)
H8 H 0.1166(18) -0.0583(37) 0.5223(29)
C7 C 0.09361(15) 0.2270(3) 0.5553(2)
N9 N 0.04839(13) 0.1477(3) 0.6425(2)
O5 O 0.04778(12) 0.0088(2) 0.6425(2)
O6 O 0.00860(13) 0.2163(2) 0.7193(2)
C8 C 0.09551(14) 0.3873(3) 0.5561(2)
N10 N 0.0582(2) 0.4659(3) 0.6401(2)
H9 H 0.0640(17) 0.5678(39) 0.6336(27)
H10 H 0.0309(18) 0.4184(36) 0.6973(29)
C9 C 0.14080(15) 0.4573(3) 0.4607(2)
N11 N 0.14541(13) 0.6144(3) 0.4530(2)
O7 O 0.18444(12) 0.6760(2) 0.3708(2)
O8 O 0.11013(14) 0.6943(2) 0.5289(2)
C10 C 0.18282(15) 0.3664(3) 0.3753(2)
N12 N 0.22611(14) 0.4201(3) 0.2839(2)
H11 H 0.2495(17) 0.3536(39) 0.2344(28)
H12 H 0.2260(17) 0.5187(38) 0.2679(28)
#END
