
#######################################################################
#
#                 Cambridge Crystallographic Data Centre
#                                CCDC
#
#######################################################################
#
# If this CIF has been generated from an entry in the Cambridge
# Structural Database, then it will include bibliographic, chemical,
# crystal, experimental, refinement or atomic coordinate data resulting
# from the CCDC's data processing and validation procedures.
#
#######################################################################

data_CSD_CIF_TICPIE
_audit_creation_date 1997-03-12
_audit_creation_method CSD-ConQuest-V1
_database_code_CSD TICPIE
_database_code_depnum_ccdc_archive 'CCDC 128280'
_chemical_formula_sum 'C19 H13 N1 O3'
_chemical_formula_moiety
;
C19 H13 N1 O3
;
_journal_coeditor_code "IUCr DE1029"
_journal_coden_Cambridge 591
_journal_volume 52
_journal_year 1996
_journal_page_first 3145
_journal_name_full 'Acta Crystallogr.,Sect.C:Cryst.Struct.Commun. '
loop_
_publ_author_name
"S.S.S.Raj"
"M.N.Ponnuswamy"
"G.Shanmugam"
"S.Nanjundan"
_chemical_name_systematic
;
1-(2-Naphthyl)-3-(4-nitrophenyl)prop-2-en-1-one
;
_cell_volume    718.798
_exptl_crystal_colour 'pale yellow'
_exptl_crystal_density_diffrn 1.4
_diffrn_ambient_temperature ?
_diffrn_special_details
;
The study was carried out at room temperature,in the range 283-303K

;
#These two values have been output from a single CSD field.
_refine_ls_R_factor_gt 0.058
_refine_ls_wR_factor_gt 0.058
_symmetry_cell_setting triclinic
_symmetry_space_group_name_H-M 'P -1'
_symmetry_Int_Tables_number 2
loop_
_symmetry_equiv_pos_site_id
_symmetry_equiv_pos_as_xyz
1 x,y,z
2 -x,-y,-z
_cell_length_a 6.060(2)
_cell_length_b 7.185(3)
_cell_length_c 16.872(6)
_cell_angle_alpha 101.44(3)
_cell_angle_beta 91.93(3)
_cell_angle_gamma 86.93(4)
_cell_formula_units_Z 2
loop_
_atom_type_symbol
_atom_type_radius_bond
C 0.68
H 0.23
N 0.68
O 0.68
loop_
_atom_site_label
_atom_site_type_symbol
_atom_site_fract_x
_atom_site_fract_y
_atom_site_fract_z
C1 C -0.0332(4) 0.6851(3) -0.1474(1)
C2 C 0.1102(4) 0.7424(4) -0.0838(1)
C3 C 0.3179(4) 0.8086(4) -0.0991(2)
C4 C 0.3719(4) 0.8180(4) -0.1754(2)
C5 C 0.2279(4) 0.7591(3) -0.2421(2)
C6 C 0.2807(5) 0.7640(4) -0.3232(2)
C7 C 0.1364(5) 0.7027(4) -0.3852(2)
C8 C -0.0675(5) 0.6332(4) -0.3704(2)
C9 C -0.1236(4) 0.6250(4) -0.2942(1)
C10 C 0.0204(4) 0.6891(3) -0.2274(1)
C11 C 0.0376(5) 0.7388(4) -0.0007(2)
C12 C 0.2071(5) 0.7439(4) 0.0657(2)
C13 C 0.1458(4) 0.7928(4) 0.1417(2)
C14 C 0.2818(4) 0.7946(3) 0.2153(1)
C15 C 0.1858(4) 0.8666(4) 0.2893(1)
C16 C 0.2963(4) 0.8632(4) 0.3613(1)
C17 C 0.5114(4) 0.7896(3) 0.3582(1)
C18 C 0.6164(4) 0.7198(3) 0.2863(1)
C19 C 0.4996(4) 0.7211(4) 0.2154(1)
O1 O -0.1580(3) 0.7293(3) 0.0126(1)
N1 N 0.6327(4) 0.7858(3) 0.4350(1)
O2 O 0.8326(3) 0.7908(4) 0.4358(1)
O3 O 0.5273(4) 0.7800(4) 0.4941(1)
H1 H -0.169(4) 0.646(3) -0.134(1)
H2 H 0.428(6) 0.839(5) -0.058(2)
H3 H 0.502(4) 0.861(4) -0.185(2)
H4 H 0.397(6) 0.751(5) -0.339(2)
H5 H 0.176(6) 0.713(5) -0.440(2)
H6 H -0.162(4) 0.596(4) -0.409(2)
H7 H -0.265(4) 0.580(4) -0.285(1)
H8 H 0.365(4) 0.696(4) 0.044(1)
H9 H -0.014(4) 0.840(4) 0.157(1)
H10 H 0.039(5) 0.913(4) 0.289(2)
H11 H 0.233(4) 0.914(4) 0.414(2)
H12 H 0.760(5) 0.672(4) 0.287(2)
H13 H 0.564(4) 0.677(3) 0.171(1)
#END
