
#######################################################################
#
#                 Cambridge Crystallographic Data Centre
#                                CCDC
#
#######################################################################
#
# If this CIF has been generated from an entry in the Cambridge
# Structural Database, then it will include bibliographic, chemical,
# crystal, experimental, refinement or atomic coordinate data resulting
# from the CCDC's data processing and validation procedures.
#
#######################################################################

data_CSD_CIF_TICSED
_audit_creation_date 1997-03-12
_audit_creation_method CSD-ConQuest-V1
_database_code_CSD TICSED
_database_code_depnum_ccdc_archive 'CCDC 128332'
_chemical_formula_sum 'C13 H19 N3 O7'
_chemical_formula_moiety
;
C13 H19 N3 O7
;
_journal_coeditor_code "IUCr SK1024"
_journal_coden_Cambridge 591
_journal_volume 52
_journal_year 1996
_journal_page_first 3173
_journal_name_full 'Acta Crystallogr.,Sect.C:Cryst.Struct.Commun. '
loop_
_publ_author_name
"S.Neidle"
"J.P.Chattopadhyaya"
"N.Hossain"
"A.Papchikhin"
_chemical_name_systematic
;
2'-Propoxy-3'-nitrothymidine
;
_cell_volume   1642.011
_exptl_crystal_colour 'pale yellow'
_exptl_crystal_density_diffrn 1.332
_exptl_special_details
;
analogous to antiHIV nucleoside agent AZT

;
_diffrn_ambient_temperature ?
_diffrn_special_details
;
The study was carried out at room temperature,in the range 283-303K

;
#These two values have been output from a single CSD field.
_refine_ls_R_factor_gt 0.064
_refine_ls_wR_factor_gt 0.064
_symmetry_cell_setting monoclinic
_symmetry_space_group_name_H-M 'C 2'
_symmetry_Int_Tables_number 5
loop_
_symmetry_equiv_pos_site_id
_symmetry_equiv_pos_as_xyz
1 x,y,z
2 -x,y,-z
3 1/2+x,1/2+y,z
4 1/2-x,1/2+y,-z
_cell_length_a 15.746(2)
_cell_length_b 9.373(1)
_cell_length_c 11.304(2)
_cell_angle_alpha 90
_cell_angle_beta 100.19(1)
_cell_angle_gamma 90
_cell_formula_units_Z 4
loop_
_atom_type_symbol
_atom_type_radius_bond
C 0.68
H 0.23
N 0.68
O 0.68
loop_
_atom_site_label
_atom_site_type_symbol
_atom_site_fract_x
_atom_site_fract_y
_atom_site_fract_z
C1 C 0.2588(3) 0.8400(5) 0.1512(4)
H1 H 0.2191(3) 0.8576(5) 0.0756(4)
C2 C 0.3485(3) 0.8927(5) 0.1404(4)
H2 H 0.3852(3) 0.8965(5) 0.2199(4)
O1 O 0.3427(2) 1.0289(4) 0.0870(3)
C3 C 0.4176(4) 1.1134(7) 0.1134(7)
H3 H 0.4103(4) 1.1969(7) 0.0619(7)
H4 H 0.4660(4) 1.0593(7) 0.0943(7)
C4 C 0.4385(7) 1.1605(8) 0.2389(10)
H5 H 0.4227(7) 1.2605(8) 0.2388(10)
H6 H 0.3989(7) 1.1104(8) 0.281(1)
C5 C 0.5145(11) 1.151(2) 0.3075(18)
H7 H 0.5117(11) 1.1886(20) 0.3857(18)
H8 H 0.5558(11) 1.2043(20) 0.2724(18)
H9 H 0.5319(11) 1.0526(20) 0.3148(18)
C6 C 0.3792(3) 0.7728(5) 0.0649(4)
H10 H 0.4420(3) 0.7613(5) 0.0847(4)
N1 N 0.3511(2) 0.8065(4) -0.0668(3)
O2 O 0.2756(2) 0.7966(5) -0.1094(3)
O3 O 0.4075(3) 0.8476(6) -0.1216(3)
C7 C 0.3328(3) 0.6399(5) 0.1025(4)
H11 H 0.3042(3) 0.5888(5) 0.0308(4)
O4 O 0.2690(2) 0.6911(4) 0.1699(3)
C8 C 0.3933(3) 0.5408(5) 0.1810(4)
H12 H 0.3603(3) 0.4666(5) 0.2120(4)
H13 H 0.4313(3) 0.4955(5) 0.1334(4)
O5 O 0.4438(2) 0.6153(4) 0.2789(3)
H14 H 0.4724(2) 0.6772(4) 0.2529(3)
N2 N 0.2232(2) 0.9007(5) 0.2506(3)
C9 C 0.1462(3) 0.9715(5) 0.2252(4)
O6 O 0.1043(2) 0.9885(5) 0.1218(3)
N3 N 0.1168(3) 1.0267(5) 0.3235(3)
H15 H 0.0688(3) 1.0725(5) 0.3096(3)
C10 C 0.1569(4) 1.0158(7) 0.4423(4)
O7 O 0.1225(3) 1.0716(7) 0.5197(4)
C11 C 0.2349(3) 0.9333(7) 0.4636(4)
C12 C 0.2802(5) 0.9099(12) 0.5920(5)
H16 H 0.2484(5) 0.9564(12) 0.6460(5)
H17 H 0.3374(5) 0.9491(12) 0.6022(5)
H18 H 0.2835(5) 0.8096(12) 0.6090(5)
C13 C 0.2646(3) 0.8804(6) 0.3678(4)
H19 H 0.3155(3) 0.8277(6) 0.3813(4)
#END
