
#######################################################################
#
#                 Cambridge Crystallographic Data Centre
#                                CCDC
#
#######################################################################
#
# If this CIF has been generated from an entry in the Cambridge
# Structural Database, then it will include bibliographic, chemical,
# crystal, experimental, refinement or atomic coordinate data resulting
# from the CCDC's data processing and validation procedures.
#
#######################################################################

data_CSD_CIF_TICSAZ
_audit_creation_date 1997-03-12
_audit_creation_method CSD-ConQuest-V1
_database_code_CSD TICSAZ
_database_code_depnum_ccdc_archive 'CCDC 128331'
_chemical_formula_sum 'C10 H13 N3 O6'
_chemical_formula_moiety
;
C10 H13 N3 O6
;
_journal_coeditor_code "IUCr SK1024"
_journal_coden_Cambridge 591
_journal_volume 52
_journal_year 1996
_journal_page_first 3173
_journal_name_full 'Acta Crystallogr.,Sect.C:Cryst.Struct.Commun. '
loop_
_publ_author_name
"S.Neidle"
"J.P.Chattopadhyaya"
"N.Hossain"
"A.Papchikhin"
_chemical_name_systematic
;
2',3'-Dideoxy-3'-nitrothymidine
;
_cell_volume   1197.308
_exptl_crystal_colour 'colorless'
_exptl_crystal_density_diffrn 1.505
_exptl_special_details
;
analogous to antiHIV agent AZT

;
_diffrn_ambient_temperature ?
_diffrn_special_details
;
The study was carried out at room temperature,in the range 283-303K

;
#These two values have been output from a single CSD field.
_refine_ls_R_factor_gt 0.0551
_refine_ls_wR_factor_gt 0.0551
_symmetry_cell_setting monoclinic
_symmetry_space_group_name_H-M 'P 21'
_symmetry_Int_Tables_number 4
loop_
_symmetry_equiv_pos_site_id
_symmetry_equiv_pos_as_xyz
1 x,y,z
2 -x,1/2+y,-z
_cell_length_a 5.588(1)
_cell_length_b 11.645(1)
_cell_length_c 18.561(2)
_cell_angle_alpha 90
_cell_angle_beta 97.56(1)
_cell_angle_gamma 90
_cell_formula_units_Z 4
loop_
_atom_type_symbol
_atom_type_radius_bond
C 0.68
H 0.23
N 0.68
O 0.68
loop_
_atom_site_label
_atom_site_type_symbol
_atom_site_fract_x
_atom_site_fract_y
_atom_site_fract_z
C1 C -0.1445(8) 0.3349(5) 0.9421(2)
H1 H -0.1527(8) 0.2515(5) 0.9348(2)
C2 C 0.0995(9) 0.3658(7) 0.9859(3)
H2 H 0.2150(9) 0.3039(7) 0.9845(3)
H3 H 0.1652(9) 0.4353(7) 0.9674(3)
C3 C 0.0377(10) 0.3835(6) 1.0625(3)
H4 H 0.1407(10) 0.4429(6) 1.0879(3)
N1 N 0.0588(14) 0.2737(7) 1.1043(3)
O1 O -0.0593(13) 0.1906(7) 1.0837(4)
O2 O 0.190(4) 0.2683(9) 1.1547(8)
C4 C -0.2231(10) 0.4231(5) 1.0493(3)
H5 H -0.308(1) 0.3969(5) 1.0893(3)
O3 O -0.3254(6) 0.3683(4) 0.9829(2)
C5 C -0.2388(12) 0.5515(5) 1.0436(3)
H6 H -0.1734(12) 0.5852(5) 1.0898(3)
H7 H -0.1413(12) 0.5776(5) 1.0072(3)
O4 O -0.4751(10) 0.5891(5) 1.0248(3)
H8 H -0.5569(10) 0.5693(5) 1.0563(3)
N2 N -0.1840(8) 0.3927(4) 0.8701(2)
C6 C -0.0365(8) 0.3570(4) 0.8210(2)
O5 O 0.1244(7) 0.2851(3) 0.8369(2)
N3 N -0.0807(8) 0.4054(4) 0.7531(2)
H9 H 0.0088(8) 0.3827(4) 0.7216(2)
C7 C -0.2552(9) 0.4873(5) 0.7301(3)
O6 O -0.2683(8) 0.5243(4) 0.6684(2)
C8 C -0.4046(9) 0.5200(4) 0.7843(3)
C9 C -0.5960(11) 0.6070(6) 0.7640(3)
H10 H -0.5956(11) 0.6290(6) 0.7142(3)
H11 H -0.5658(11) 0.6733(6) 0.7946(3)
H12 H -0.7504(11) 0.5750(6) 0.7701(3)
C10 C -0.3617(9) 0.4722(5) 0.8514(3)
H13 H -0.4574(9) 0.4945(5) 0.8863(3)
C11 C 0.5267(8) 0.2474(4) 0.5550(2)
H14 H 0.3708(8) 0.2869(4) 0.5458(2)
C12 C 0.7216(9) 0.3244(5) 0.5316(3)
H15 H 0.6809(9) 0.4049(5) 0.5360(3)
H16 H 0.8767(9) 0.3097(5) 0.5602(3)
C13 C 0.7236(9) 0.2905(5) 0.4526(3)
H17 H 0.8854(9) 0.2997(5) 0.4385(3)
N4 N 0.5411(9) 0.3591(5) 0.4034(2)
O7 O 0.3389(9) 0.3701(6) 0.4204(3)
O8 O 0.5884(13) 0.3884(8) 0.3456(4)
C14 C 0.6465(9) 0.1646(5) 0.4485(2)
H18 H 0.5352(9) 0.1520(5) 0.4039(2)
O9 O 0.5198(6) 0.1468(3) 0.5104(2)
C15 C 0.8548(9) 0.0811(6) 0.4509(3)
H19 H 0.7951(9) 0.0032(6) 0.4535(3)
H20 H 0.9294(9) 0.0883(6) 0.4068(3)
O10 O 1.0294(7) 0.1032(5) 0.5122(2)
H21 H 1.1406(7) 0.0570(5) 0.5130(2)
N5 N 0.5687(7) 0.2114(4) 0.6312(2)
C16 C 0.4115(8) 0.2496(4) 0.6779(2)
O11 O 0.2471(6) 0.3174(4) 0.6593(2)
N6 N 0.4569(7) 0.2068(4) 0.7464(2)
H22 H 0.3660(7) 0.2316(4) 0.7770(2)
C17 C 0.6327(9) 0.1277(4) 0.7728(3)
O12 O 0.6462(7) 0.0939(4) 0.8363(2)
C18 C 0.7908(8) 0.0922(5) 0.7210(3)
C19 C 0.9844(11) 0.0048(6) 0.7435(3)
H23 H 0.9828(11) -0.0150(6) 0.7936(3)
H24 H 1.1390(11) 0.0364(6) 0.7372(3)
H25 H 0.9551(11) -0.0627(6) 0.7140(3)
C20 C 0.7525(8) 0.1355(5) 0.6543(3)
H26 H 0.8554(8) 0.1134(5) 0.6213(3)
#END
