
#######################################################################
#
#                 Cambridge Crystallographic Data Centre
#                                CCDC
#
#######################################################################
#
# If this CIF has been generated from an entry in the Cambridge
# Structural Database, then it will include bibliographic, chemical,
# crystal, experimental, refinement or atomic coordinate data resulting
# from the CCDC's data processing and validation procedures.
#
#######################################################################

data_CSD_CIF_TICSIH
_audit_creation_date 1997-03-12
_audit_creation_method CSD-ConQuest-V1
_database_code_CSD TICSIH
_database_code_depnum_ccdc_archive 'CCDC 128281'
_chemical_formula_sum 'C16 H22 N2 O1'
_chemical_formula_moiety
;
C16 H22 N2 O1
;
_journal_coeditor_code "IUCr DE1035"
_journal_coden_Cambridge 591
_journal_volume 52
_journal_year 1996
_journal_page_first 3177
_journal_name_full 'Acta Crystallogr.,Sect.C:Cryst.Struct.Commun. '
loop_
_publ_author_name
"V.K.Ganesh"
"D.Velmurugan"
"A.Thiruvalluvar"
"V.Parthasarathi"
"N.Ramasubbu"
"D.Natarajan"
_chemical_name_systematic
;
1-Methyl-2-phenyldecahydroquinolin-4-one oxime
;
_cell_volume   1484.900
_exptl_crystal_colour 'colorless'
_exptl_crystal_density_diffrn 1.16
_diffrn_ambient_temperature ?
_diffrn_special_details
;
The study was carried out at room temperature,in the range 283-303K

;
#These two values have been output from a single CSD field.
_refine_ls_R_factor_gt 0.05
_refine_ls_wR_factor_gt 0.05
_symmetry_cell_setting monoclinic
_symmetry_space_group_name_H-M 'P 21/n'
_symmetry_Int_Tables_number 14
loop_
_symmetry_equiv_pos_site_id
_symmetry_equiv_pos_as_xyz
1 x,y,z
2 1/2-x,1/2+y,1/2-z
3 -x,-y,-z
4 -1/2+x,-1/2-y,-1/2+z
_cell_length_a 7.6940(1)
_cell_length_b 11.1350(1)
_cell_length_c 17.6949(1)
_cell_angle_alpha 90
_cell_angle_beta 101.62(1)
_cell_angle_gamma 90
_cell_formula_units_Z 4
loop_
_atom_type_symbol
_atom_type_radius_bond
C 0.68
H 0.23
N 0.68
O 0.68
loop_
_atom_site_label
_atom_site_type_symbol
_atom_site_fract_x
_atom_site_fract_y
_atom_site_fract_z
N1 N 0.4946(2) 0.6338(1) 0.1695(1)
C1 C 0.5584(3) 0.7195(2) 0.2337(1)
C2 C 0.4073(3) 0.7503(2) 0.2740(1)
C3 C 0.2528(3) 0.8000(2) 0.2177(1)
C4 C 0.0572(4) 0.7945(2) 0.0828(1)
C5 C -0.0031(4) 0.7138(3) 0.0128(2)
C6 C 0.1523(4) 0.6725(3) -0.0204(1)
C7 C 0.2948(4) 0.6126(2) 0.0401(1)
C8 C 0.3569(3) 0.6934(2) 0.1100(1)
C9 C 0.1966(3) 0.7308(2) 0.1436(1)
C10 C 0.6451(4) 0.5936(3) 0.1358(1)
N2 N 0.1631(3) 0.8927(2) 0.2282(1)
O1 O 0.2219(2) 0.9435(1) 0.3019(1)
C11 C 0.7153(3) 0.6719(2) 0.2924(1)
C12 C 0.8695(3) 0.7384(3) 0.3093(1)
C13 C 1.0118(4) 0.7001(3) 0.3645(2)
C14 C 1.0028(4) 0.5920(3) 0.4027(2)
C15 C 0.8482(4) 0.5257(2) 0.3859(2)
C16 C 0.7047(3) 0.5648(2) 0.3320(1)
H1 H 0.598(4) 0.802(2) 0.213(1)
H2 H 0.369(4) 0.666(2) 0.298(1)
H3 H 0.446(4) 0.811(2) 0.316(2)
H4 H -0.050(4) 0.821(2) 0.106(2)
H5 H 0.112(4) 0.870(2) 0.064(1)
H6 H -0.085(4) 0.763(2) -0.029(1)
H7 H -0.068(4) 0.639(2) 0.030(1)
H8 H 0.214(4) 0.747(2) -0.038(1)
H9 H 0.108(4) 0.618(2) -0.065(1)
H10 H 0.246(4) 0.534(2) 0.058(1)
H11 H 0.396(4) 0.594(2) 0.014(2)
H12 H 0.412(4) 0.774(2) 0.093(1)
H13 H 0.141(4) 0.651(2) 0.159(1)
H14 H 0.603(4) 0.527(2) 0.095(2)
H15 H 0.741(4) 0.557(2) 0.181(2)
H16 H 0.693(4) 0.666(2) 0.110(1)
H17 H 0.177(4) 1.012(2) 0.327(2)
H18 H 0.880(4) 0.817(2) 0.282(1)
H19 H 1.133(4) 0.745(2) 0.377(2)
H20 H 1.112(4) 0.559(2) 0.444(1)
H21 H 0.830(4) 0.447(2) 0.414(2)
H22 H 0.591(4) 0.516(2) 0.321(2)
#END
