
#######################################################################
#
#                 Cambridge Crystallographic Data Centre
#                                CCDC
#
#######################################################################
#
# If this CIF has been generated from an entry in the Cambridge
# Structural Database, then it will include bibliographic, chemical,
# crystal, experimental, refinement or atomic coordinate data resulting
# from the CCDC's data processing and validation procedures.
#
#######################################################################

data_CSD_CIF_TICVIL
_audit_creation_date 2007-09-25
_audit_creation_method CSD-ConQuest-V1
_database_code_CSD TICVIL
_database_code_depnum_ccdc_archive 'CCDC 615692'
_chemical_formula_sum 'C22 H32 N4 O6'
_chemical_formula_moiety
;
C22 H32 N4 O6
;
_journal_coden_Cambridge 580
_journal_volume 26
_journal_year 2007
_journal_page_first 1890
_journal_name_full 'Polyhedron '
loop_
_publ_author_name
"Y.Kanzaki"
"D.Shiomi"
"T.Ise"
"K.Sato"
"T.Takui"
_chemical_name_systematic
;
1,2-Dimethoxy-3,6-bis-(1-oxyl-4,4,5,5-tetramethyl-imidazolin-2-yl)benzene
;
_cell_volume   2302.660
_exptl_crystal_colour 'red'
_exptl_crystal_density_diffrn 1.294
_exptl_special_details
;
magnetic properties

;
_exptl_crystal_description 'block'
_exptl_crystal_preparation 'dichloromethane/hexane'
_diffrn_ambient_temperature 143.1
#These two values have been output from a single CSD field.
_refine_ls_R_factor_gt 0.0404
_refine_ls_wR_factor_gt 0.0404
_symmetry_cell_setting monoclinic
_symmetry_space_group_name_H-M 'P 21/a'
_symmetry_Int_Tables_number 14
loop_
_symmetry_equiv_pos_site_id
_symmetry_equiv_pos_as_xyz
1 x,y,z
2 1/2-x,1/2+y,-z
3 -x,-y,-z
4 -1/2+x,-1/2-y,z
_cell_length_a 11.8145(7)
_cell_length_b 13.6730(7)
_cell_length_c 14.3238(8)
_cell_angle_alpha 90
_cell_angle_beta 95.640(3)
_cell_angle_gamma 90
_cell_formula_units_Z 4
loop_
_atom_type_symbol
_atom_type_radius_bond
C 0.68
H 0.23
N 0.68
O 0.68
loop_
_atom_site_label
_atom_site_type_symbol
_atom_site_fract_x
_atom_site_fract_y
_atom_site_fract_z
O1 O 0.57585(6) 0.18593(6) 0.46836(6)
O2 O 0.77496(6) 0.02425(6) 0.25387(6)
O3 O 0.29776(6) -0.19265(6) 0.09030(6)
O4 O 0.12507(6) -0.02832(6) 0.31976(6)
O5 O 0.54726(6) 0.13119(6) 0.17210(6)
O6 O 0.34445(6) 0.03839(6) 0.10232(6)
N1 N 0.65680(6) 0.16093(6) 0.41963(6)
N2 N 0.75151(8) 0.08410(6) 0.31736(6)
N3 N 0.22151(8) -0.16181(6) 0.14070(6)
N4 N 0.13900(8) -0.08439(6) 0.25051(6)
C1 C 0.54603(9) 0.04144(8) 0.31466(8)
C2 C 0.49770(9) 0.06198(8) 0.22358(8)
C3 C 0.39536(9) 0.01622(8) 0.19029(8)
C4 C 0.34548(9) -0.05128(8) 0.24643(8)
C5 C 0.39524(9) -0.07222(8) 0.33656(8)
C6 C 0.49509(9) -0.02547(8) 0.37050(8)
C7 C 0.65009(9) 0.09415(8) 0.35058(8)
C8 C 0.76721(9) 0.21688(8) 0.42346(8)
C9 C 0.84174(9) 0.14447(8) 0.37201(8)
C10 C 0.73976(11) 0.31172(9) 0.36958(11)
C11 C 0.81021(11) 0.23916(10) 0.52470(9)
C12 C 0.91712(11) 0.1907(1) 0.30429(9)
C13 C 0.91078(11) 0.07411(10) 0.43792(10)
C14 C 0.23737(9) -0.09841(8) 0.21232(6)
C15 C 0.10438(9) -0.20657(9) 0.13465(9)
C16 C 0.04075(9) -0.13234(8) 0.19332(8)
C17 C 0.05665(12) -0.21481(13) 0.03269(11)
C18 C 0.11961(12) -0.30727(10) 0.18016(13)
C19 C -0.01913(11) -0.05073(10) 0.13415(10)
C20 C -0.03997(11) -0.17658(10) 0.25774(10)
C21 C 0.59470(12) 0.09285(10) 0.08985(10)
C22 C 0.26251(12) 0.11545(11) 0.10270(11)
H1 H 0.3607(12) -0.1192(10) 0.3748(10)
H2 H 0.5307(11) -0.0392(9) 0.4332(10)
H3 H 0.7091(13) 0.2994(10) 0.3036(11)
H4 H 0.6843(14) 0.3479(14) 0.4006(11)
H5 H 0.8096(14) 0.3491(12) 0.3680(11)
H6 H 0.7542(14) 0.2808(12) 0.5503(11)
H7 H 0.8193(13) 0.1769(12) 0.5597(11)
H8 H 0.8826(15) 0.2710(13) 0.5233(11)
H9 H 0.8718(14) 0.2242(12) 0.2504(11)
H10 H 0.9632(14) 0.1424(13) 0.2783(11)
H11 H 0.9669(14) 0.2368(12) 0.3389(11)
H12 H 0.9459(14) 0.0263(12) 0.4002(11)
H13 H 0.8609(13) 0.0427(11) 0.4822(10)
H14 H 0.9722(15) 0.1095(12) 0.4740(12)
H15 H 0.0666(16) -0.1513(15) -0.0032(13)
H16 H 0.0978(16) -0.2643(14) 0.0015(13)
H17 H -0.0258(16) -0.2400(13) 0.0340(11)
H18 H 0.1714(15) -0.3444(14) 0.1444(12)
H19 H 0.0472(16) -0.3405(15) 0.1728(13)
H20 H 0.1537(14) -0.3006(12) 0.2484(13)
H21 H 0.0324(13) -0.0196(11) 0.0913(10)
H22 H -0.0865(13) -0.0782(12) 0.0943(11)
H23 H -0.0501(14) -0.0023(12) 0.1779(12)
H24 H -0.0975(14) -0.2130(12) 0.2212(12)
H25 H -0.0779(16) -0.1271(13) 0.2903(13)
H26 H -0.0007(13) -0.2186(11) 0.3037(11)
H27 H 0.6407(14) 0.1486(13) 0.0658(12)
H28 H 0.6413(15) 0.0365(13) 0.1096(12)
H29 H 0.5338(16) 0.0765(14) 0.0411(13)
H30 H 0.3076(15) 0.1786(15) 0.1265(13)
H31 H 0.2330(15) 0.1241(12) 0.0390(13)
H32 H 0.2036(14) 0.0968(12) 0.1420(12)
#END
