
#######################################################################
#
#                 Cambridge Crystallographic Data Centre
#                                CCDC
#
#######################################################################
#
# If this CIF has been generated from an entry in the Cambridge
# Structural Database, then it will include bibliographic, chemical,
# crystal, experimental, refinement or atomic coordinate data resulting
# from the CCDC's data processing and validation procedures.
#
#######################################################################

data_CSD_CIF_TICVUX
_audit_creation_date 2007-09-25
_audit_creation_method CSD-ConQuest-V1
_database_code_CSD TICVUX
_database_code_depnum_ccdc_archive 'CCDC 615690'
_chemical_formula_sum 'C34 H45 N6 O7'
_chemical_formula_moiety
;
C34 H45 N6 O7
;
_journal_coden_Cambridge 580
_journal_volume 26
_journal_year 2007
_journal_page_first 1901
_journal_name_full 'Polyhedron '
loop_
_publ_author_name
"Y.Kanzaki"
"D.Shiomi"
"T.Ise"
"K.Sato"
"T.Takui"
_chemical_name_systematic
;
4-(1-Oxyl-4,4,5,5-tetramethyl-imidazolin-2-yl)benzyl 
3,5-bis-(1-oxyl-4,4,5,5-tetramethyl-imidazolin-2-yl)phenyl ether
;
_cell_volume   3367.341
_exptl_crystal_colour 'blue'
_exptl_crystal_density_diffrn 1.282
_exptl_special_details
;
magnetic properties

;
_exptl_crystal_description 'block'
_diffrn_ambient_temperature 143.1
#These two values have been output from a single CSD field.
_refine_ls_R_factor_gt 0.0988
_refine_ls_wR_factor_gt 0.0988
_symmetry_cell_setting monoclinic
_symmetry_space_group_name_H-M 'P 21/a'
_symmetry_Int_Tables_number 14
loop_
_symmetry_equiv_pos_site_id
_symmetry_equiv_pos_as_xyz
1 x,y,z
2 1/2-x,1/2+y,-z
3 -x,-y,-z
4 -1/2+x,-1/2-y,z
_cell_length_a 12.874(10)
_cell_length_b 27.517(20)
_cell_length_c 10.723(8)
_cell_angle_alpha 90
_cell_angle_beta 117.569(9)
_cell_angle_gamma 90
_cell_formula_units_Z 4
loop_
_atom_type_symbol
_atom_type_radius_bond
C 0.68
H 0.23
N 0.68
O 0.68
loop_
_atom_site_label
_atom_site_type_symbol
_atom_site_fract_x
_atom_site_fract_y
_atom_site_fract_z
O1 O 0.7621(2) 0.50806(12) 0.5308(2)
O2 O 0.8558(2) 0.40734(12) 0.9204(3)
O3 O 0.4567(2) 0.40071(13) 0.7834(3)
O4 O 0.3426(2) 0.34748(12) 0.3868(3)
O5 O 0.3746(2) 0.48115(12) 0.1419(3)
O6 O 0.9411(2) 0.71547(13) 0.2552(3)
O7 O 1.2634(2) 0.63481(13) 0.5881(3)
N1 N 0.7556(2) 0.40288(14) 0.9242(3)
N2 N 0.5682(2) 0.39880(13) 0.8576(3)
N3 N 0.3239(2) 0.37790(14) 0.2891(3)
N4 N 0.3387(2) 0.44152(14) 0.1745(3)
N5 N 1.0465(2) 0.70471(16) 0.3399(3)
N6 N 1.2010(2) 0.66579(13) 0.4957(3)
C1 C 0.6795(2) 0.47659(16) 0.5318(4)
C2 C 0.7047(3) 0.45784(17) 0.6602(4)
C3 C 0.6251(3) 0.42757(16) 0.6733(4)
C4 C 0.5192(3) 0.41500(17) 0.5557(4)
C5 C 0.4970(2) 0.43354(16) 0.4258(4)
C6 C 0.5750(3) 0.46432(16) 0.4111(4)
C7 C 0.6474(3) 0.40921(17) 0.8134(4)
C8 C 0.7530(3) 0.38578(19) 1.0548(4)
C9 C 0.6214(3) 0.38949(18) 1.0136(4)
C10 C 0.8323(4) 0.4169(2) 1.1742(5)
C11 C 0.8000(4) 0.3330(2) 1.0798(6)
C12 C 0.5657(4) 0.3440(2) 1.0370(5)
C13 C 0.5894(4) 0.4343(2) 1.0731(5)
C14 C 0.3888(3) 0.41881(16) 0.3006(4)
C15 C 0.2274(4) 0.3716(2) 0.1458(4)
C16 C 0.2282(3) 0.41770(18) 0.0686(4)
C17 C 0.2788(8) 0.3255(2) 0.0941(7)
C18 C 0.1232(4) 0.3548(3) 0.1495(8)
C19 C 0.2367(6) 0.4117(3) -0.0620(5)
C20 C 0.1320(4) 0.4531(2) 0.0549(10)
C21 C 0.7520(3) 0.52130(19) 0.3959(4)
C22 C 0.8454(3) 0.55730(18) 0.4163(4)
C23 C 0.8315(3) 0.6051(2) 0.4448(5)
C24 C 0.9104(3) 0.64066(17) 0.4514(5)
C25 C 1.0074(3) 0.62784(18) 0.4310(4)
C26 C 1.0206(3) 0.58086(19) 0.4030(4)
C27 C 0.9397(3) 0.54527(17) 0.3951(4)
C28 C 1.0842(3) 0.66575(17) 0.4233(4)
C29 C 1.1472(3) 0.73155(17) 0.3373(4)
C30 C 1.2517(3) 0.71222(17) 0.4724(5)
C31 C 1.1271(4) 0.7865(2) 0.3345(5)
C32 C 1.1487(5) 0.7163(2) 0.2004(6)
C33 C 1.2797(3) 0.74311(19) 0.6005(5)
C34 C 1.3611(4) 0.7003(2) 0.4596(8)
H1 H 0.77740 0.46490 0.73970
H2 H 0.46290 0.39520 0.56540
H3 H 0.55790 0.47720 0.32140
H4 H 0.83400 0.44870 1.14060
H5 H 0.90930 0.40380 1.21740
H6 H 0.80320 0.41830 1.24100
H7 H 0.85480 0.32980 1.04410
H8 H 0.83790 0.32650 1.17800
H9 H 0.73760 0.31060 1.03350
H10 H 0.62060 0.32890 1.12170
H11 H 0.54660 0.32240 0.96030
H12 H 0.49670 0.35190 1.04390
H13 H 0.58150 0.42500 1.15360
H14 H 0.51800 0.44810 1.00500
H15 H 0.65060 0.45750 1.09950
H16 H 0.32840 0.30650 0.17350
H17 H 0.32250 0.33770 0.04970
H18 H 0.21620 0.30600 0.02950
H19 H 0.12420 0.32030 0.15350
H20 H 0.05680 0.36530 0.06640
H21 H 0.11930 0.36760 0.22950
H22 H 0.31660 0.40730 -0.03980
H23 H 0.20670 0.43960 -0.12010
H24 H 0.19290 0.38390 -0.11050
H25 H 0.06750 0.45060 -0.03650
H26 H 0.16210 0.48530 0.06960
H27 H 0.10690 0.44560 0.12320
H28 H 0.76350 0.49330 0.35210
H29 H 0.67630 0.53430 0.33830
H30 H 0.76680 0.61380 0.46010
H31 H 0.90020 0.67350 0.47130
H32 H 1.08620 0.57230 0.38950
H33 H 0.95010 0.51240 0.37650
H34 H 1.08320 0.79300 0.38360
H35 H 1.08430 0.79720 0.23990
H36 H 1.19980 0.80320 0.37880
H37 H 1.07120 0.70800 0.13280
H38 H 1.17680 0.74210 0.16520
H39 H 1.19820 0.68880 0.21850
H40 H 1.29780 0.72280 0.67970
H41 H 1.21440 0.76310 0.58430
H42 H 1.34540 0.76300 0.61820
H43 H 1.42730 0.70140 0.55000
H44 H 1.35570 0.66910 0.41950
H45 H 1.36920 0.72420 0.40070
#END
