
#######################################################################
#
#                 Cambridge Crystallographic Data Centre
#                                CCDC
#
#######################################################################
#
# If this CIF has been generated from an entry in the Cambridge
# Structural Database, then it will include bibliographic, chemical,
# crystal, experimental, refinement or atomic coordinate data resulting
# from the CCDC's data processing and validation procedures.
#
#######################################################################

data_CSD_CIF_TICVUW
_audit_creation_date 1997-03-12
_audit_creation_method CSD-ConQuest-V1
_database_code_CSD TICVUW
_database_code_depnum_ccdc_archive 'CCDC 128325'
_chemical_formula_sum 'C7 H7 N1 O3'
_chemical_formula_moiety
;
C7 H7 N1 O3
;
_journal_coeditor_code "IUCr NA1253"
_journal_coden_Cambridge 591
_journal_volume 52
_journal_year 1996
_journal_page_first 3202
_journal_name_full 'Acta Crystallogr.,Sect.C:Cryst.Struct.Commun. '
loop_
_publ_author_name
"N.Sardone"
"O.Carugo"
"J.Charalambous"
"D.V.Raghvani"
_chemical_name_systematic
;
5-Methoxy-1,4-benzoquinone-4-oxime
;
_cell_volume   1373.044
_exptl_crystal_colour 'pale yellow'
_exptl_crystal_density_diffrn 1.482
_diffrn_ambient_temperature ?
_diffrn_special_details
;
The study was carried out at room temperature,in the range 283-303K

;
#These two values have been output from a single CSD field.
_refine_ls_R_factor_gt 0.034
_refine_ls_wR_factor_gt 0.034
_symmetry_cell_setting monoclinic
_symmetry_space_group_name_H-M 'P 21/c'
_symmetry_Int_Tables_number 14
loop_
_symmetry_equiv_pos_site_id
_symmetry_equiv_pos_as_xyz
1 x,y,z
2 -x,1/2+y,1/2-z
3 -x,-y,-z
4 x,-1/2-y,-1/2+z
_cell_length_a 3.846(1)
_cell_length_b 25.673(2)
_cell_length_c 13.992(1)
_cell_angle_alpha 90
_cell_angle_beta 96.36(1)
_cell_angle_gamma 90
_cell_formula_units_Z 8
loop_
_atom_type_symbol
_atom_type_radius_bond
C 0.68
H 0.23
N 0.68
O 0.68
loop_
_atom_site_label
_atom_site_type_symbol
_atom_site_fract_x
_atom_site_fract_y
_atom_site_fract_z
O1 O 0.2175(5) 0.04819(6) 0.9708(1)
O2 O 0.4270(4) 0.19849(5) 1.0100(1)
O3 O 0.1534(5) 0.17893(6) 1.3295(1)
N1 N 0.2987(4) 0.09987(6) 0.9810(1)
C1 C 0.2347(5) 0.11763(7) 1.0640(1)
C2 C 0.3193(5) 0.17266(7) 1.0846(1)
C3 C 0.2894(5) 0.19247(8) 1.1722(1)
C4 C 0.1682(5) 0.16110(8) 1.2474(1)
C5 C 0.0626(5) 0.10747(8) 1.2242(2)
C6 C 0.0945(5) 0.08733(8) 1.1380(2)
C7 C 0.5188(6) 0.25273(8) 1.0240(2)
O4 O 0.9605(5) 0.11090(7) 0.4566(1)
O5 O 0.8680(4) 0.17365(5) 0.71357(9)
O6 O 0.3839(4) 0.01367(6) 0.8019(1)
N2 N 0.9286(5) 0.13460(7) 0.5432(1)
C8 C 0.8139(5) 0.10286(8) 0.6046(1)
C9 C 0.7655(5) 0.12372(7) 0.6998(1)
C10 C 0.6287(5) 0.09392(8) 0.7656(1)
C11 C 0.5265(5) 0.04084(8) 0.7442(1)
C12 C 0.5921(6) 0.01916(8) 0.6513(2)
C13 C 0.7252(5) 0.04843(8) 0.5858(1)
C14 C 0.8232(6) 0.19582(8) 0.8063(2)
H1 H 0.300(7) 0.0409(10) 0.9102(18)
H2 H 1.053(7) 0.1393(11) 0.417(2)
H3 H 0.35685 0.22105 1.19112
H4 H -0.07581 0.09098 1.27062
H5 H 0.02867 0.05574 1.11727
H6 H 0.59327 0.26392 0.96662
H7 H 0.70629 0.24960 1.07834
H8 H 0.34101 0.27465 1.04206
H9 H 0.60198 0.10643 0.82227
H10 H 0.54105 -0.01885 0.64369
H11 H 0.78442 0.03618 0.52835
H12 H 0.92167 0.22806 0.80160
H13 H 0.55522 0.19083 0.81241
H14 H 0.98004 0.17238 0.85073
#END
