
#######################################################################
#
#                 Cambridge Crystallographic Data Centre
#                                CCDC
#
#######################################################################
#
# If this CIF has been generated from an entry in the Cambridge
# Structural Database, then it will include bibliographic, chemical,
# crystal, experimental, refinement or atomic coordinate data resulting
# from the CCDC's data processing and validation procedures.
#
#######################################################################

data_CSD_CIF_TICVOR
_audit_creation_date 2007-09-25
_audit_creation_method CSD-ConQuest-V1
_database_code_CSD TICVOR
_database_code_depnum_ccdc_archive 'CCDC 615693'
_chemical_formula_sum 'C22 H32 N4 O6'
_chemical_formula_moiety
;
C22 H32 N4 O6
;
_journal_coden_Cambridge 580
_journal_volume 26
_journal_year 2007
_journal_page_first 1890
_journal_name_full 'Polyhedron '
loop_
_publ_author_name
"Y.Kanzaki"
"D.Shiomi"
"T.Ise"
"K.Sato"
"T.Takui"
_chemical_name_systematic
;
1,4-Dimethoxy-2,5-bis-(1-oxyl-4,4,5,5-tetramethyl-imidazolin-2-yl)benzene
;
_cell_volume   1143.966
_exptl_crystal_colour 'blue'
_exptl_crystal_density_diffrn 1.302
_exptl_special_details
;
magnetic properties

;
_exptl_crystal_description 'block'
_exptl_crystal_preparation 'dichloromethane/hexane'
_diffrn_ambient_temperature 133.1
#These two values have been output from a single CSD field.
_refine_ls_R_factor_gt 0.0761
_refine_ls_wR_factor_gt 0.0761
_symmetry_cell_setting monoclinic
_symmetry_space_group_name_H-M 'P 21/c'
_symmetry_Int_Tables_number 14
loop_
_symmetry_equiv_pos_site_id
_symmetry_equiv_pos_as_xyz
1 x,y,z
2 -x,1/2+y,1/2-z
3 -x,-y,-z
4 x,-1/2-y,-1/2+z
_cell_length_a 7.0587(5)
_cell_length_b 10.1562(8)
_cell_length_c 16.0091(14)
_cell_angle_alpha 90
_cell_angle_beta 94.614(4)
_cell_angle_gamma 90
_cell_formula_units_Z 2
loop_
_atom_type_symbol
_atom_type_radius_bond
C 0.68
H 0.23
N 0.68
O 0.68
loop_
_atom_site_label
_atom_site_type_symbol
_atom_site_fract_x
_atom_site_fract_y
_atom_site_fract_z
O1 O 0.3162(2) 0.03846(14) 0.41175(9)
O2 O 0.3100(2) 0.32032(19) 0.50552(11)
O3 O -0.1651(2) 0.21602(16) 0.3017(1)
N1 N 0.2022(2) 0.32613(18) 0.43747(11)
N2 N -0.0254(2) 0.27672(16) 0.34118(11)
C1 C 0.1341(3) -0.1022(2) 0.49965(12)
C2 C 0.1637(2) 0.0148(2) 0.45699(12)
C3 C 0.0305(2) 0.1159(2) 0.45858(12)
C4 C 0.4401(3) -0.0698(2) 0.39759(14)
C5 C 0.0670(2) 0.2385(2) 0.41382(12)
C6 C 0.2224(3) 0.4323(2) 0.37408(14)
C7 C 0.0496(2) 0.40431(19) 0.30954(12)
C8 C 0.4146(4) 0.4042(7) 0.3404(2)
C9 C 0.2207(8) 0.5640(3) 0.4165(2)
C10 C 0.0998(3) 0.3828(2) 0.21952(13)
C11 C -0.1100(3) 0.5049(2) 0.30988(19)
H1 H 0.22920 -0.17320 0.49900
H2 H 0.37020 -0.14980 0.39630
H3 H 0.53820 -0.07310 0.44180
H4 H 0.49440 -0.05810 0.34570
H5 H 0.43710 0.31200 0.34330
H6 H 0.51290 0.44910 0.37290
H7 H 0.41260 0.43230 0.28370
H8 H 0.26980 0.55630 0.47330
H9 H 0.29530 0.62520 0.38850
H10 H 0.09300 0.59400 0.41430
H11 H 0.22840 0.35510 0.21990
H12 H 0.08340 0.46280 0.18900
H13 H 0.01910 0.31710 0.19370
H14 H -0.05690 0.59020 0.31890
H15 H -0.18420 0.50320 0.25770
H16 H -0.18830 0.48440 0.35370
O1B O -0.3162(2) -0.03846(14) 0.58825(9)
O2B O -0.3100(2) -0.32032(19) 0.49448(11)
O3B O 0.1651(2) -0.21602(16) 0.6983(1)
N1B N -0.2022(2) -0.32613(18) 0.56253(11)
N2B N 0.0254(2) -0.27672(16) 0.65882(11)
C1B C -0.1341(3) 0.1022(2) 0.50035(12)
C2B C -0.1637(2) -0.0148(2) 0.54301(12)
C3B C -0.0305(2) -0.1159(2) 0.54142(12)
C4B C -0.4401(3) 0.0698(2) 0.60241(14)
C5B C -0.0670(2) -0.2385(2) 0.58618(12)
C6B C -0.2224(3) -0.4323(2) 0.62592(14)
C7B C -0.0496(2) -0.40431(19) 0.69046(12)
C8B C -0.4146(4) -0.4042(7) 0.6596(2)
C9B C -0.2207(8) -0.5640(3) 0.5835(2)
C10B C -0.0998(3) -0.3828(2) 0.78048(13)
C11B C 0.1100(3) -0.5049(2) 0.69012(19)
H1B H -0.22920 0.17320 0.50100
H2B H -0.37020 0.14980 0.60370
H3B H -0.53820 0.07310 0.55820
H4B H -0.49440 0.05810 0.65430
H5B H -0.43710 -0.31200 0.65670
H6B H -0.51290 -0.44910 0.62710
H7B H -0.41260 -0.43230 0.71630
H8B H -0.26980 -0.55630 0.52670
H9B H -0.29530 -0.62520 0.61150
H10B H -0.09300 -0.59400 0.58570
H11B H -0.22840 -0.35510 0.78010
H12B H -0.08340 -0.46280 0.81100
H13B H -0.01910 -0.31710 0.80630
H14B H 0.05690 -0.59020 0.68110
H15B H 0.18420 -0.50320 0.74230
H16B H 0.18830 -0.48440 0.64630
#END
