
#######################################################################
#
#                 Cambridge Crystallographic Data Centre
#                                CCDC
#
#######################################################################
#
# If this CIF has been generated from an entry in the Cambridge
# Structural Database, then it will include bibliographic, chemical,
# crystal, experimental, refinement or atomic coordinate data resulting
# from the CCDC's data processing and validation procedures.
#
#######################################################################

data_CSD_CIF_TICWAE
_audit_creation_date 2007-09-25
_audit_creation_method CSD-ConQuest-V1
_database_code_CSD TICWAE
_database_code_depnum_ccdc_archive 'CCDC 615691'
_chemical_formula_sum 'C34 H45 N6 O7'
_chemical_formula_moiety
;
C34 H45 N6 O7
;
_journal_coden_Cambridge 580
_journal_volume 26
_journal_year 2007
_journal_page_first 1901
_journal_name_full 'Polyhedron '
loop_
_publ_author_name
"Y.Kanzaki"
"D.Shiomi"
"T.Ise"
"K.Sato"
"T.Takui"
_chemical_name_systematic
;
3-(1-Oxyl-4,4,5,5-tetramethyl-imidazolin-2-yl)benzyl 
3,5-bis-(1-oxyl-4,4,5,5-tetramethyl-imidazolin-2-yl)phenyl ether
;
_cell_volume   3314.927
_exptl_crystal_colour 'blue'
_exptl_crystal_density_diffrn 1.302
_exptl_crystal_description 'block'
_diffrn_ambient_temperature 193.1
#These two values have been output from a single CSD field.
_refine_ls_R_factor_gt 0.088
_refine_ls_wR_factor_gt 0.088
_symmetry_cell_setting monoclinic
_symmetry_space_group_name_H-M 'P 21/n'
_symmetry_Int_Tables_number 14
loop_
_symmetry_equiv_pos_site_id
_symmetry_equiv_pos_as_xyz
1 x,y,z
2 1/2-x,1/2+y,1/2-z
3 -x,-y,-z
4 -1/2+x,-1/2-y,-1/2+z
_cell_length_a 12.463(7)
_cell_length_b 11.835(6)
_cell_length_c 22.583(13)
_cell_angle_alpha 90
_cell_angle_beta 95.628(7)
_cell_angle_gamma 90
_cell_formula_units_Z 4
loop_
_atom_type_symbol
_atom_type_radius_bond
C 0.68
H 0.23
N 0.68
O 0.68
loop_
_atom_site_label
_atom_site_type_symbol
_atom_site_fract_x
_atom_site_fract_y
_atom_site_fract_z
O1 O 0.0121(2) 0.23483(18) 0.56492(12)
O2 O 0.2235(3) 0.0219(2) 0.70398(13)
O3 O 0.2253(2) -0.26279(18) 0.56639(13)
O4 O 0.3167(3) -0.1110(2) 0.42388(14)
O5 O 0.0384(2) 0.1340(2) 0.36034(13)
O6 O -0.2506(2) 0.6131(2) 0.42726(16)
O7 O -0.4013(2) 0.6581(2) 0.60464(17)
N1 N 0.2325(3) -0.0728(2) 0.68069(14)
N2 N 0.2370(2) -0.2088(2) 0.61539(14)
N3 N 0.2431(2) -0.0560(2) 0.39073(16)
N4 N 0.1163(2) 0.0619(2) 0.36148(13)
N5 N -0.3162(2) 0.6412(2) 0.46470(17)
N6 N -0.3863(2) 0.6645(2) 0.54862(17)
C1 C 0.0736(3) 0.1469(2) 0.54498(19)
C2 C 0.1120(3) 0.0719(2) 0.59019(17)
C3 C 0.1697(2) -0.0212(2) 0.57646(18)
C4 C 0.1891(3) -0.0399(2) 0.51690(18)
C5 C 0.1512(3) 0.0361(2) 0.47225(17)
C6 C 0.0912(3) 0.1307(2) 0.48701(18)
C7 C 0.2118(3) -0.0983(2) 0.62090(17)
C8 C 0.2907(4) -0.1689(2) 0.7165(2)
C9 C 0.2575(3) -0.2697(2) 0.67338(19)
C10 C 0.2548(4) -0.1728(3) 0.7769(2)
C11 C 0.4099(4) -0.1393(3) 0.7177(2)
C12 C 0.3434(4) -0.3576(2) 0.6692(2)
C13 C 0.1523(4) -0.3261(3) 0.6845(2)
C14 C 0.1684(3) 0.0139(2) 0.41021(17)
C15 C 0.2252(4) -0.0770(3) 0.3268(2)
C16 C 0.1612(4) 0.0287(2) 0.3049(2)
C17 C 0.3305(5) -0.0986(4) 0.3003(2)
C18 C 0.1553(5) -0.1846(3) 0.3172(2)
C19 C 0.2378(5) 0.1275(3) 0.2915(2)
C20 C 0.0719(6) 0.0153(6) 0.2571(2)
C21 C -0.0196(3) 0.3216(2) 0.52258(17)
C22 C -0.0764(3) 0.4135(2) 0.5556(2)
C23 C -0.1629(3) 0.4681(2) 0.52716(18)
C24 C -0.2134(3) 0.5560(2) 0.55526(19)
C25 C -0.1742(3) 0.5872(2) 0.6122(2)
C26 C -0.0870(3) 0.5303(3) 0.6408(2)
C27 C -0.0378(3) 0.4453(2) 0.6118(2)
C28 C -0.3045(3) 0.6190(2) 0.5233(2)
C29 C -0.4170(3) 0.7090(2) 0.4463(2)
C30 C -0.4696(3) 0.7215(2) 0.50476(19)
C31 C -0.4807(4) 0.6399(3) 0.3983(2)
C32 C -0.3802(4) 0.8211(3) 0.4212(2)
C33 C -0.5733(4) 0.6587(4) 0.5062(2)
C34 C -0.4826(5) 0.8422(3) 0.5278(2)
H1 H 0.09820 0.08510 0.63020
H2 H 0.22850 -0.10480 0.50700
H3 H 0.06490 0.18350 0.45740
H4 H 0.18190 -0.14820 0.77380
H5 H 0.29730 -0.12500 0.80360
H6 H 0.25900 -0.24820 0.79130
H7 H 0.41770 -0.05950 0.71690
H8 H 0.44560 -0.16820 0.75360
H9 H 0.44080 -0.17150 0.68470
H10 H 0.39130 -0.33230 0.64180
H11 H 0.38210 -0.36830 0.70720
H12 H 0.31150 -0.42710 0.65570
H13 H 0.16610 -0.39360 0.70670
H14 H 0.11340 -0.34360 0.64730
H15 H 0.11100 -0.27600 0.70600
H16 H 0.36050 -0.02920 0.28870
H17 H 0.37980 -0.13490 0.32890
H18 H 0.31680 -0.14600 0.26640
H19 H 0.19880 -0.25020 0.31570
H20 H 0.10940 -0.17790 0.28130
H21 H 0.11280 -0.19030 0.34980
H22 H 0.26530 0.15890 0.32860
H23 H 0.20040 0.18430 0.26790
H24 H 0.29570 0.09940 0.27140
H25 H 0.10070 0.03350 0.22090
H26 H 0.01390 0.06490 0.26280
H27 H 0.04650 -0.06040 0.25550
H28 H 0.04250 0.35230 0.50720
H29 H -0.06700 0.29200 0.49080
H30 H -0.19070 0.44560 0.48830
H31 H -0.20860 0.64650 0.63150
H32 H -0.06130 0.55050 0.68040
H33 H 0.02440 0.40880 0.63040
H34 H -0.45940 0.65950 0.36040
H35 H -0.55510 0.65620 0.39940
H36 H -0.46860 0.56150 0.40520
H37 H -0.43280 0.84770 0.39110
H38 H -0.31380 0.80970 0.40460
H39 H -0.37040 0.87520 0.45230
H40 H -0.63260 0.70870 0.49800
H41 H -0.57630 0.62610 0.54450
H42 H -0.57670 0.60060 0.47710
H43 H -0.53750 0.84520 0.55410
H44 H -0.50030 0.89210 0.49530
H45 H -0.41580 0.86430 0.54840
#END
