
#######################################################################
#
#                 Cambridge Crystallographic Data Centre
#                                CCDC
#
#######################################################################
#
# If this CIF has been generated from an entry in the Cambridge
# Structural Database, then it will include bibliographic, chemical,
# crystal, experimental, refinement or atomic coordinate data resulting
# from the CCDC's data processing and validation procedures.
#
#######################################################################

data_CSD_CIF_TICXEJ
_audit_creation_date 2007-09-25
_audit_creation_method CSD-ConQuest-V1
_database_code_CSD TICXEJ
_database_code_depnum_ccdc_archive 'CCDC 617091'
_chemical_formula_sum 'C12 H12 N2 O2'
_chemical_formula_moiety
;
C12 H12 N2 O2
;
_journal_coden_Cambridge 580
_journal_volume 26
_journal_year 2007
_journal_page_first 1965
_journal_name_full 'Polyhedron '
loop_
_publ_author_name
"A.Okazawa"
"T.Nogami"
"T.Ishida"
_chemical_name_systematic
;
N-(p-Anisyl)-2-pyridylhydroxylamine
;
_chemical_melting_point 368.15
_cell_volume   1087.986
_exptl_crystal_colour 'colorless'
_exptl_crystal_density_diffrn 1.32
_exptl_special_details
;
Melting point range 368.15-370.15K

;
_exptl_crystal_description 'block'
_exptl_crystal_preparation 'ether'
_diffrn_ambient_temperature 90.
#These two values have been output from a single CSD field.
_refine_ls_R_factor_gt 0.0393
_refine_ls_wR_factor_gt 0.0393
_symmetry_cell_setting triclinic
_symmetry_space_group_name_H-M 'P -1'
_symmetry_Int_Tables_number 2
loop_
_symmetry_equiv_pos_site_id
_symmetry_equiv_pos_as_xyz
1 x,y,z
2 -x,-y,-z
_cell_length_a 9.426(2)
_cell_length_b 9.774(3)
_cell_length_c 12.836(4)
_cell_angle_alpha 105.26(3)
_cell_angle_beta 106.32(2)
_cell_angle_gamma 91.72(3)
_cell_formula_units_Z 4
loop_
_atom_type_symbol
_atom_type_radius_bond
C 0.68
H 0.23
N 0.68
O 0.68
loop_
_atom_site_label
_atom_site_type_symbol
_atom_site_fract_x
_atom_site_fract_y
_atom_site_fract_z
O1 O 0.35955(9) 0.66307(9) 0.62727(6)
O2 O 0.0957(1) 0.39002(10) 0.10547(6)
O3 O -0.42455(9) 0.24493(10) 0.11677(6)
O4 O -0.39128(10) 0.07006(9) -0.37958(6)
N1 N 0.27248(11) 0.52819(10) 0.57749(8)
N2 N 0.35633(11) 0.48463(11) 0.75334(8)
N3 N -0.28902(10) 0.22563(11) 0.08846(8)
N4 N -0.18993(11) 0.18048(10) 0.26274(8)
C1 C 0.29690(12) 0.43207(12) 0.64064(10)
C2 C 0.24923(13) 0.28549(12) 0.58899(11)
C3 C 0.25934(14) 0.19590(14) 0.65665(12)
C4 C 0.31619(14) 0.24988(14) 0.77417(12)
C5 C 0.36446(13) 0.39294(13) 0.81704(11)
C6 C 0.23100(12) 0.48677(12) 0.45644(9)
C7 C 0.09578(12) 0.52206(12) 0.39681(10)
C8 C 0.05334(12) 0.48777(12) 0.27977(10)
C9 C 0.14640(12) 0.41701(12) 0.22068(10)
C10 C 0.28152(12) 0.38035(12) 0.27955(10)
C11 C 0.32275(12) 0.41531(12) 0.3969(1)
C12 C 0.18764(18) 0.31754(17) 0.04178(12)
C13 C -0.18672(12) 0.16241(12) 0.15624(9)
C14 C -0.07671(12) 0.09060(12) 0.11598(10)
C15 C 0.02962(13) 0.03796(13) 0.18836(11)
C16 C 0.02762(13) 0.05705(13) 0.29954(11)
C17 C -0.08274(13) 0.12912(12) 0.33183(10)
C18 C -0.31429(12) 0.18548(12) -0.03184(10)
C19 C -0.26088(12) 0.28020(12) -0.07921(10)
C20 C -0.28491(12) 0.24558(12) -0.19585(10)
C21 C -0.36240(12) 0.11496(12) -0.26453(9)
C22 C -0.41521(12) 0.01817(12) -0.21663(10)
C23 C -0.39103(12) 0.05328(12) -0.10118(10)
C24 C -0.35295(17) 0.17158(16) -0.43311(12)
H1 H 0.3030(19) 0.7186(19) 0.6725(14)
H2 H 0.2104(15) 0.2505(15) 0.5100(12)
H3 H 0.2272(17) 0.0959(18) 0.6231(12)
H4 H 0.3244(16) 0.1877(16) 0.8260(12)
H5 H 0.4082(15) 0.4386(15) 0.8999(11)
H6 H 0.0298(15) 0.5713(15) 0.4379(11)
H7 H -0.0437(16) 0.5108(15) 0.2339(11)
H8 H 0.3480(15) 0.3319(15) 0.2385(11)
H9 H 0.4165(15) 0.3895(14) 0.4386(11)
H10 H 0.2870(17) 0.3745(16) 0.0606(11)
H11 H 0.2003(17) 0.2184(17) 0.0515(12)
H12 H 0.1334(17) 0.3077(17) -0.0365(14)
H13 H -0.4032(19) 0.341(2) 0.1639(14)
H14 H -0.0760(14) 0.0806(14) 0.0395(11)
H15 H 0.1053(15) -0.0140(15) 0.1601(11)
H16 H 0.1023(16) 0.0230(15) 0.3515(11)
H17 H -0.0906(14) 0.1482(14) 0.4090(11)
H18 H -0.2047(14) 0.3725(15) -0.0279(11)
H19 H -0.2491(14) 0.3104(14) -0.2277(10)
H20 H -0.4643(14) -0.0714(14) -0.2635(10)
H21 H -0.4261(13) -0.0128(13) -0.068(1)
H22 H -0.3897(16) 0.1235(16) -0.5145(13)
H23 H -0.2407(17) 0.1985(16) -0.4079(12)
H24 H -0.4036(16) 0.2605(17) -0.4144(11)
#END
