
#######################################################################
#
#                 Cambridge Crystallographic Data Centre
#                                CCDC
#
#######################################################################
#
# If this CIF has been generated from an entry in the Cambridge
# Structural Database, then it will include bibliographic, chemical,
# crystal, experimental, refinement or atomic coordinate data resulting
# from the CCDC's data processing and validation procedures.
#
#######################################################################

data_CSD_CIF_TICXAF
_audit_creation_date 2007-09-24
_audit_creation_method CSD-ConQuest-V1
_database_code_CSD TICXAF
_database_code_depnum_ccdc_archive 'CCDC 619977'
_chemical_formula_sum 'C15 H20 N3 O3'
_chemical_formula_moiety
;
C15 H20 N3 O3
;
_journal_coden_Cambridge 580
_journal_volume 26
_journal_year 2007
_journal_page_first 1959
_journal_name_full 'Polyhedron '
loop_
_publ_author_name
"S.Aboaku"
"P.M.Lahti"
_chemical_name_systematic
;
2-(4-Acetamidophenyl)-4,4,5,5-tetramethyl-4,5-dihydro-1H-imidazole-3-oxide-1-o
xyl
;
_chemical_melting_point 477.15
_cell_volume   1544.554
_exptl_crystal_colour 'blue black'
_exptl_crystal_density_diffrn 1.249
_exptl_special_details
;
Melting point range 477.15-478.15K
magnetic properties

;
_exptl_crystal_description 'prism'
_exptl_crystal_preparation 'dichloromethane/ether'
_diffrn_ambient_temperature 293
#These two values have been output from a single CSD field.
_refine_ls_R_factor_gt 0.0461
_refine_ls_wR_factor_gt 0.0461
_symmetry_cell_setting monoclinic
_symmetry_space_group_name_H-M 'P 21/c'
_symmetry_Int_Tables_number 14
loop_
_symmetry_equiv_pos_site_id
_symmetry_equiv_pos_as_xyz
1 x,y,z
2 -x,1/2+y,1/2-z
3 -x,-y,-z
4 x,-1/2-y,-1/2+z
_cell_length_a 11.2200(2)
_cell_length_b 12.4690(2)
_cell_length_c 11.3440(2)
_cell_angle_alpha 90
_cell_angle_beta 103.289(1)
_cell_angle_gamma 90
_cell_formula_units_Z 4
loop_
_atom_type_symbol
_atom_type_radius_bond
C 0.68
H 0.23
N 0.68
O 0.68
loop_
_atom_site_label
_atom_site_type_symbol
_atom_site_fract_x
_atom_site_fract_y
_atom_site_fract_z
C1 C 0.4564(2) 0.42915(19) 0.6780(2)
O1 O 0.62548(14) 0.43683(11) 0.58363(15)
C2 C 0.54719(16) 0.38243(14) 0.61338(15)
N1 N 0.53545(14) 0.27591(12) 0.59157(13)
C3 C 0.60744(14) 0.20968(13) 0.53450(14)
C4 C 0.67310(18) 0.24756(15) 0.45262(17)
C5 C 0.73624(17) 0.17611(14) 0.39627(17)
C6 C 0.60857(15) 0.10091(13) 0.55913(15)
C7 C 0.67021(15) 0.02967(14) 0.50208(15)
C8 C 0.73479(14) 0.06665(13) 0.41870(14)
C9 C 0.79563(14) -0.00919(12) 0.35408(13)
N2 N 0.75348(12) -0.10672(11) 0.31628(12)
O2 O 0.65220(13) -0.14831(10) 0.32837(15)
N3 N 0.90202(13) 0.00710(12) 0.32033(12)
O3 O 0.97003(13) 0.09055(12) 0.34501(15)
C10 C 0.84095(16) -0.16913(13) 0.26110(14)
C11 C 0.9017(3) -0.2501(2) 0.3580(3)
C12 C 0.7720(3) -0.2256(2) 0.1484(2)
C13 C 0.92993(14) -0.07937(14) 0.23971(15)
C14 C 0.8988(2) -0.0328(2) 0.11119(19)
C15 C 1.0654(2) -0.1062(3) 0.2727(3)
H1 H 0.482(3) 0.500(3) 0.705(3)
H2 H 0.374(4) 0.436(3) 0.621(4)
H3 H 0.457(3) 0.392(3) 0.755(3)
H4 H 0.480(2) 0.2444(17) 0.6263(19)
H5 H 0.6757(19) 0.325(2) 0.4350(19)
H6 H 0.780(2) 0.2028(18) 0.335(2)
H7 H 0.5620(18) 0.0751(15) 0.6183(18)
H8 H 0.6729(18) -0.0447(18) 0.5227(18)
H9 H 0.944(4) -0.205(4) 0.446(4)
H10 H 0.833(3) -0.302(3) 0.367(3)
H11 H 0.960(3) -0.297(3) 0.329(3)
H12 H 0.727(2) -0.172(2) 0.099(2)
H13 H 0.833(3) -0.262(2) 0.105(3)
H14 H 0.725(3) -0.280(2) 0.177(2)
H15 H 0.947(2) 0.035(2) 0.107(2)
H16 H 0.925(2) -0.089(2) 0.063(3)
H17 H 0.806(3) -0.010(2) 0.089(2)
H18 H 1.075(2) -0.135(2) 0.355(3)
H19 H 1.116(4) -0.040(3) 0.262(3)
H20 H 1.084(3) -0.177(3) 0.225(3)
#END
