
#######################################################################
#
#                 Cambridge Crystallographic Data Centre
#                                CCDC
#
#######################################################################
#
# If this CIF has been generated from an entry in the Cambridge
# Structural Database, then it will include bibliographic, chemical,
# crystal, experimental, refinement or atomic coordinate data resulting
# from the CCDC's data processing and validation procedures.
#
#######################################################################

data_CSD_CIF_TICXIN
_audit_creation_date 2007-09-25
_audit_creation_method CSD-ConQuest-V1
_database_code_CSD TICXIN
_database_code_depnum_ccdc_archive 'CCDC 617092'
_chemical_formula_sum 'C13 H23 N3 O2'
_chemical_formula_moiety
;
C13 H23 N3 O2
;
_journal_coden_Cambridge 580
_journal_volume 26
_journal_year 2007
_journal_page_first 1965
_journal_name_full 'Polyhedron '
loop_
_publ_author_name
"A.Okazawa"
"T.Nogami"
"T.Ishida"
_chemical_name_systematic
;
2,6-bis(N-t-Butylhydroxyamino)pyridine
;
_chemical_melting_point 405.15
_cell_volume   2947.012
_exptl_crystal_colour 'colorless'
_exptl_crystal_density_diffrn 1.142
_exptl_special_details
;
Melting point range 405.15-407.15K

;
_exptl_crystal_description 'block'
_exptl_crystal_preparation 'ether/hexane'
_diffrn_ambient_temperature 90.
#These two values have been output from a single CSD field.
_refine_ls_R_factor_gt 0.0651
_refine_ls_wR_factor_gt 0.0651
_symmetry_cell_setting monoclinic
_symmetry_space_group_name_H-M 'P 21/c'
_symmetry_Int_Tables_number 14
loop_
_symmetry_equiv_pos_site_id
_symmetry_equiv_pos_as_xyz
1 x,y,z
2 -x,1/2+y,1/2-z
3 -x,-y,-z
4 x,-1/2-y,-1/2+z
_cell_length_a 12.405(10)
_cell_length_b 16.828(13)
_cell_length_c 14.131(12)
_cell_angle_alpha 90
_cell_angle_beta 92.52(7)
_cell_angle_gamma 90
_cell_formula_units_Z 8
loop_
_atom_type_symbol
_atom_type_radius_bond
C 0.68
H 0.23
N 0.68
O 0.68
loop_
_atom_site_label
_atom_site_type_symbol
_atom_site_fract_x
_atom_site_fract_y
_atom_site_fract_z
O1 O -0.03138(12) 0.29605(11) 0.70185(12)
O2 O 0.50307(12) 0.19503(10) 0.65401(12)
O3 O 0.45770(12) 0.35676(10) 0.52571(11)
O4 O 0.98741(12) 0.24326(11) 0.47548(12)
N1 N 0.23285(14) 0.25610(11) 0.63448(12)
N2 N 0.06342(14) 0.31263(12) 0.64875(12)
N3 N 0.40174(13) 0.20593(11) 0.60056(12)
N4 N 0.72596(14) 0.28775(11) 0.54360(12)
N5 N 0.55822(13) 0.34008(11) 0.57759(12)
N6 N 0.89265(14) 0.22713(12) 0.52880(12)
C1 C 0.15122(18) 0.26716(12) 0.69155(14)
C2 C 0.1493(2) 0.23604(14) 0.78320(17)
C3 C 0.2393(2) 0.19367(14) 0.81573(17)
C4 C 0.3252(2) 0.18208(14) 0.75861(17)
C5 C 0.31768(18) 0.21388(12) 0.66756(16)
C6 C 0.07980(19) 0.40223(13) 0.64848(17)
C7 C 0.1139(2) 0.43310(18) 0.7466(2)
C8 C -0.0275(2) 0.43936(17) 0.6145(2)
C9 C 0.1648(2) 0.42200(17) 0.5768(2)
C10 C 0.38981(19) 0.13639(13) 0.53269(16)
C11 C 0.2761(2) 0.13613(18) 0.4870(2)
C12 C 0.4727(2) 0.14927(17) 0.45743(19)
C13 C 0.4097(2) 0.05733(14) 0.5842(2)
C14 C 0.63919(18) 0.32717(12) 0.50916(16)
C15 C 0.6270(2) 0.35180(14) 0.41537(17)
C16 C 0.7098(2) 0.33436(17) 0.35586(18)
C17 C 0.8004(2) 0.29391(16) 0.38951(17)
C18 C 0.80384(19) 0.27094(13) 0.48461(16)
C19 C 0.58213(19) 0.40648(13) 0.64822(16)
C20 C 0.4772(2) 0.42776(17) 0.69440(19)
C21 C 0.6293(2) 0.47963(14) 0.6004(2)
C22 C 0.6623(2) 0.37449(17) 0.72400(18)
C23 C 0.87695(19) 0.13787(13) 0.53147(17)
C24 C 0.8474(2) 0.10457(18) 0.4336(2)
C25 C 0.9820(2) 0.10132(17) 0.5706(2)
C26 C 0.7881(2) 0.11989(17) 0.6002(2)
H1 H 0.088(2) 0.2477(15) 0.8232(17)
H2 H 0.2396(19) 0.1723(16) 0.8747(18)
H3 H 0.387(2) 0.1531(16) 0.7731(18)
H4 H 0.174(2) 0.416(2) 0.766(2)
H5 H 0.060(2) 0.4168(17) 0.795(2)
H6 H 0.109(2) 0.491(2) 0.748(2)
H7 H -0.081(2) 0.4349(17) 0.6619(19)
H8 H -0.016(2) 0.4953(17) 0.6076(18)
H9 H -0.054(2) 0.4159(16) 0.5537(19)
H10 H 0.1718(19) 0.4783(16) 0.5738(17)
H11 H 0.141(2) 0.4047(16) 0.5136(19)
H12 H 0.226(2) 0.4000(18) 0.5962(19)
H13 H -0.070(2) 0.270(2) 0.659(2)
H14 H 0.255(2) 0.1839(19) 0.4596(19)
H15 H 0.2681(19) 0.0977(16) 0.4363(18)
H16 H 0.222(2) 0.1230(16) 0.5337(19)
H17 H 0.4571(19) 0.1961(17) 0.4220(18)
H18 H 0.548(2) 0.1515(16) 0.4838(18)
H19 H 0.4661(18) 0.1068(15) 0.4120(17)
H20 H 0.481(2) 0.0530(16) 0.6084(19)
H21 H 0.399(2) 0.0146(19) 0.538(2)
H22 H 0.3564(18) 0.0511(13) 0.6317(16)
H23 H 0.536(2) 0.2360(19) 0.638(2)
H24 H 0.5660(19) 0.3800(14) 0.3956(16)
H25 H 0.7105(19) 0.3511(15) 0.2916(18)
H26 H 0.862(2) 0.2780(15) 0.3494(17)
H27 H 0.428(2) 0.4531(15) 0.6503(18)
H28 H 0.439(2) 0.3785(17) 0.7188(19)
H29 H 0.492(2) 0.4653(16) 0.7517(19)
H30 H 0.585(2) 0.5001(16) 0.5556(18)
H31 H 0.640(2) 0.5226(19) 0.652(2)
H32 H 0.702(2) 0.4676(14) 0.5742(17)
H33 H 0.634(2) 0.3272(18) 0.7594(19)
H34 H 0.680(2) 0.4170(16) 0.7736(18)
H35 H 0.730(2) 0.3616(14) 0.7012(17)
H36 H 0.849(2) 0.0443(19) 0.437(2)
H37 H 0.782(2) 0.1201(17) 0.4128(19)
H38 H 0.905(2) 0.1187(16) 0.3882(19)
H39 H 0.7796(19) 0.0605(16) 0.6046(17)
H40 H 0.732(2) 0.1420(18) 0.579(2)
H41 H 0.815(2) 0.1412(19) 0.659(2)
H42 H 1.0038(19) 0.1248(14) 0.6250(18)
H43 H 1.036(2) 0.1028(18) 0.525(2)
H44 H 0.415(2) 0.314(2) 0.539(2)
H45 H 0.9694(19) 0.0432(17) 0.5820(18)
H46 H 1.025(2) 0.2689(18) 0.525(2)
#END
