
#######################################################################
#
#                 Cambridge Crystallographic Data Centre
#                                CCDC
#
#######################################################################
#
# If this CIF has been generated from an entry in the Cambridge
# Structural Database, then it will include bibliographic, chemical,
# crystal, experimental, refinement or atomic coordinate data resulting
# from the CCDC's data processing and validation procedures.
#
#######################################################################

data_CSD_CIF_TICYOT
_audit_creation_date 1997-03-12
_audit_creation_method CSD-ConQuest-V1
_database_code_CSD TICYOT
_database_code_depnum_ccdc_archive 'CCDC 128229'
_chemical_formula_sum 'C6 H3 N3 O9'
_chemical_formula_moiety
;
C6 H3 N3 O9
;
_journal_coeditor_code "IUCr AB1389"
_journal_coden_Cambridge 591
_journal_volume 52
_journal_year 1996
_journal_page_first 3225
_journal_name_full 'Acta Crystallogr.,Sect.C:Cryst.Struct.Commun. '
loop_
_publ_author_name
"J.J.Wolff"
"F.Gredel"
"H.Irngartinger"
"T.Dreier"
_chemical_name_systematic
;
2,4,6-Trinitro-1,3,5-benzenetriol
;
_chemical_name_common
;
Trinitrophloroglucinol
;
_cell_volume    459.517
_exptl_crystal_colour 'light yellow'
_exptl_crystal_density_diffrn 1.89
_diffrn_ambient_temperature ?
_diffrn_special_details
;
The study was carried out at room temperature,in the range 283-303K

;
#These two values have been output from a single CSD field.
_refine_ls_R_factor_gt 0.037
_refine_ls_wR_factor_gt 0.037
_symmetry_cell_setting monoclinic
_symmetry_space_group_name_H-M 'P 21'
_symmetry_Int_Tables_number 4
loop_
_symmetry_equiv_pos_site_id
_symmetry_equiv_pos_as_xyz
1 x,y,z
2 -x,1/2+y,-z
_cell_length_a 8.397(1)
_cell_length_b 6.083(1)
_cell_length_c 9.671(1)
_cell_angle_alpha 90
_cell_angle_beta 111.53(1)
_cell_angle_gamma 90
_cell_formula_units_Z 2
loop_
_atom_type_symbol
_atom_type_radius_bond
C 0.68
H 0.23
N 0.68
O 0.68
loop_
_atom_site_label
_atom_site_type_symbol
_atom_site_fract_x
_atom_site_fract_y
_atom_site_fract_z
O1 O -0.4520(2) 0.2493(5) 0.5854(2)
O2 O -0.3954(2) -0.0422(4) 0.7197(2)
O3 O -0.0934(2) -0.1445(3) 0.8838(2)
O4 O 0.2754(2) 0.56900 0.6506(2)
O5 O 0.0390(2) 0.7419(4) 0.6053(2)
O6 O -0.2175(2) 0.5044(4) 0.5759(2)
O7 O 0.2490(2) -0.2561(4) 0.9582(2)
O8 O 0.3301(2) 0.0257(4) 1.0983(2)
O9 O 0.3523(2) 0.2726(4) 0.8545(2)
N1 N -0.3476(2) 0.1250(4) 0.6733(2)
N2 N 0.1278(2) 0.5827(4) 0.6519(2)
N3 N 0.2441(2) -0.0618(4) 0.9813(2)
C1 C -0.0503(2) 0.0303(4) 0.8240(2)
C2 C -0.1685(2) 0.1745(4) 0.7220(2)
C3 C -0.1125(2) 0.3637(4) 0.6676(2)
C4 C 0.0660(2) 0.3989(4) 0.7118(2)
C5 C 0.1839(2) 0.2537(4) 0.8099(2)
C6 C 0.1224(2) 0.0780(4) 0.8675(2)
H1 H -0.188(3) -0.163(6) 0.845(3)
H2 H -0.320(4) 0.446(9) 0.550(4)
H3 H 0.374(4) 0.370(7) 0.805(3)
#END
