
#######################################################################
#
#                 Cambridge Crystallographic Data Centre
#                                CCDC
#
#######################################################################
#
# If this CIF has been generated from an entry in the Cambridge
# Structural Database, then it will include bibliographic, chemical,
# crystal, experimental, refinement or atomic coordinate data resulting
# from the CCDC's data processing and validation procedures.
#
#######################################################################

data_CSD_CIF_TIDCIS
_audit_creation_date 1997-03-12
_audit_creation_method CSD-ConQuest-V1
_database_code_CSD TIDCIS
_database_code_depnum_ccdc_archive 'CCDC 128300'
_chemical_formula_sum 'C14 H7 N1 O6'
_chemical_formula_moiety
;
C14 H7 N1 O6
;
_journal_coeditor_code "IUCr KA1211"
_journal_coden_Cambridge 591
_journal_volume 52
_journal_year 1996
_journal_page_first 3258
_journal_name_full 'Acta Crystallogr.,Sect.C:Cryst.Struct.Commun. '
loop_
_publ_author_name
"A.V.Yatsenko"
"K.A.Paseshnichenko"
"S.I.Popov"
_chemical_name_systematic
;
4,5-Dihydroxy-1-nitro-9,10-anthracenedione
;
_cell_volume   2270.280
_exptl_crystal_colour 'yellow-orange'
_exptl_crystal_density_diffrn 1.669
_diffrn_ambient_temperature ?
_diffrn_special_details
;
The study was carried out at room temperature,in the range 283-303K

;
_refine_special_details
;
O9 and C9 are disordered over two sites.

;
#These two values have been output from a single CSD field.
_refine_ls_R_factor_gt 0.044
_refine_ls_wR_factor_gt 0.044
_symmetry_cell_setting monoclinic
_symmetry_space_group_name_H-M 'P 21/n'
_symmetry_Int_Tables_number 14
loop_
_symmetry_equiv_pos_site_id
_symmetry_equiv_pos_as_xyz
1 x,y,z
2 1/2-x,1/2+y,1/2-z
3 -x,-y,-z
4 -1/2+x,-1/2-y,-1/2+z
_cell_length_a 10.739(3)
_cell_length_b 15.452(5)
_cell_length_c 14.522(5)
_cell_angle_alpha 90
_cell_angle_beta 109.59(3)
_cell_angle_gamma 90
_cell_formula_units_Z 8
loop_
_atom_type_symbol
_atom_type_radius_bond
C 0.68
H 0.23
N 0.68
O 0.68
loop_
_atom_site_label
_atom_site_type_symbol
_atom_site_fract_x
_atom_site_fract_y
_atom_site_fract_z
N1 N 0.4532(2) 0.0590(1) 0.1089(2)
O1 O 0.3870(3) 0.0262(1) 0.0327(2)
O2 O 0.4827(2) 0.0230(1) 0.1865(2)
C1 C 0.5041(2) 0.1472(1) 0.1053(2)
C2 C 0.6301(2) 0.1524(2) 0.0996(2)
C3 C 0.6815(2) 0.2314(2) 0.0918(2)
O3 O 0.6693(2) 0.3818(1) 0.0830(1)
C4 C 0.6111(2) 0.3069(1) 0.0912(2)
O4 O 0.2320(2) 0.5286(1) 0.0840(2)
C5 C 0.1954(2) 0.4483(1) 0.0978(2)
C6 C 0.0708(2) 0.4396(2) 0.1069(2)
C7 C 0.0223(2) 0.3600(2) 0.1177(2)
C8 C 0.0954(2) 0.2863(2) 0.1198(2)
O5 O 0.2485(2) 0.1433(1) 0.1180(2)
C9 C 0.2953(2) 0.2127(1) 0.1126(2)
O6 O 0.4529(2) 0.4532(1) 0.0874(1)
C10 C 0.4056(2) 0.3812(1) 0.0951(2)
C11 C 0.2727(2) 0.3744(1) 0.1013(2)
C12 C 0.2199(2) 0.2928(1) 0.1120(2)
C13 C 0.4295(2) 0.2197(1) 0.1056(2)
C14 C 0.4829(2) 0.3024(1) 0.0984(2)
H1 H 0.616(3) 0.422(2) 0.087(2)
H2 H 0.767(2) 0.235(1) 0.081(2)
H3 H 0.678(2) 0.110(1) 0.100(2)
H4 H 0.062(2) 0.230(1) 0.128(1)
H5 H -0.060(2) 0.358(1) 0.122(2)
H6 H 0.023(2) 0.485(2) 0.098(2)
H7 H 0.302(3) 0.522(2) 0.081(2)
N2 N 0.5027(2) 0.5423(1) 0.3461(2)
O7 O 0.5834(2) 0.5723(1) 0.4190(2)
O8 O 0.4510(2) 0.5828(1) 0.2711(2)
C15 C 0.4545(2) 0.4540(1) 0.3503(2)
C16 C 0.3296(2) 0.4475(2) 0.3566(2)
C17 C 0.2793(3) 0.3689(2) 0.3660(2)
O9 O 0.2946(2) 0.2198(1) 0.3807(1)
C18 C 0.3514(2) 0.2938(1) 0.3696(2)
O10 O 0.7236(2) 0.0728(1) 0.3683(1)
C19 C 0.7641(2) 0.1529(1) 0.3578(2)
C20 C 0.8895(2) 0.1609(2) 0.3503(2)
C21 C 0.9386(2) 0.2403(2) 0.3400(2)
C22 C 0.8654(2) 0.3147(2) 0.3361(2)
O11 O 0.6982(2) 0.4576(1) 0.3136(1)
C23 C 0.6612(2) 0.3891(2) 0.3355(2)
O12 O 0.5084(1) 0.1490(1) 0.3702(1)
C24 C 0.5559(2) 0.2208(1) 0.3624(2)
C25 C 0.6879(2) 0.2277(1) 0.3548(2)
C26 C 0.7408(2) 0.3087(1) 0.3434(2)
C27 C 0.5310(2) 0.3819(1) 0.3509(2)
C28 C 0.4792(2) 0.2994(1) 0.3613(2)
H8 H 0.346(3) 0.1803(2) 0.376(2)
H9 H 0.195(3) 0.3634(2) 0.370(2)
H10 H 0.282(2) 0.4911(1) 0.351(2)
H11 H 0.897(2) 0.3675(1) 0.329(2)
H12 H 1.021(2) 0.2429(1) 0.333(2)
H13 H 0.939(2) 0.1101(2) 0.358(2)
H14 H 0.651(3) 0.0791(2) 0.373(3)
#END
