
#######################################################################
#
#                 Cambridge Crystallographic Data Centre
#                                CCDC
#
#######################################################################
#
# If this CIF has been generated from an entry in the Cambridge
# Structural Database, then it will include bibliographic, chemical,
# crystal, experimental, refinement or atomic coordinate data resulting
# from the CCDC's data processing and validation procedures.
#
#######################################################################

data_CSD_CIF_TIDDUI
_audit_creation_date 2018-05-07
_audit_creation_method CSD-ConQuest-V1
_database_code_CSD TIDDUI
_database_code_depnum_ccdc_archive 'CCDC 1814329'
_chemical_formula_sum 'C17 H13 N5 O3'
_chemical_formula_moiety
;
C17 H13 N5 O3
;
_journal_coden_Cambridge 35
_journal_volume 83
_journal_year 2018
_journal_page_first 5092
_journal_name_full 'J.Org.Chem. '
loop_
_publ_author_name
"Peiye Liu"
"R.J.Clark"
"Lei Zhu"
_chemical_name_systematic
;
5-(4-nitrophenyl)-1-(2-phenoxyethyl)-1H-1,2,3-triazole-4-carbonitrile
;
_cell_volume   1578.794
_exptl_crystal_colour 'colorless'
_exptl_crystal_density_diffrn 1.411
_exptl_crystal_description 'irregular'
_diffrn_ambient_temperature 103
#These two values have been output from a single CSD field.
_refine_ls_R_factor_gt 0.0315
_refine_ls_wR_factor_gt 0.0315
_symmetry_cell_setting monoclinic
_symmetry_space_group_name_H-M 'P 21'
_symmetry_Int_Tables_number 4
loop_
_symmetry_equiv_pos_site_id
_symmetry_equiv_pos_as_xyz
1 x,y,z
2 -x,1/2+y,-z
_cell_length_a 8.4077(5)
_cell_length_b 16.3992(9)
_cell_length_c 12.0895(6)
_cell_angle_alpha 90
_cell_angle_beta 108.7114(6)
_cell_angle_gamma 90
_cell_formula_units_Z 4
loop_
_atom_type_symbol
_atom_type_radius_bond
C 0.68
H 0.23
N 0.68
O 0.68
loop_
_atom_site_label
_atom_site_type_symbol
_atom_site_fract_x
_atom_site_fract_y
_atom_site_fract_z
C1 C 0.7660(2) 0.46199(11) 0.50997(16)
H1 H 0.66050 0.43490 0.48630
C2 C 0.8164(3) 0.50876(13) 0.43040(17)
H2 H 0.74300 0.51460 0.35260
C3 C 0.9715(3) 0.54671(12) 0.46334(19)
H3 H 1.00470 0.57810 0.40840
C4 C 1.0788(3) 0.53861(11) 0.57777(19)
H4 H 1.18650 0.56350 0.60020
C5 C 1.0296(2) 0.49464(11) 0.65869(16)
H5 H 1.10150 0.49080 0.73720
C6 C 0.8729(2) 0.45578(10) 0.62427(15)
C7 C 0.6769(2) 0.37333(11) 0.68096(15)
H6 H 0.67210 0.32730 0.62700
H7 H 0.58640 0.41240 0.64200
C8 C 0.6547(2) 0.3423(1) 0.79391(15)
H8 H 0.57010 0.29800 0.77560
H9 H 0.76240 0.31940 0.84450
C9 C 0.5571(2) 0.49941(11) 0.97113(16)
C10 C 0.6797(2) 0.44711(10) 0.95827(15)
C11 C 0.8540(2) 0.43631(10) 1.03441(14)
C12 C 0.8871(2) 0.43975(11) 1.15554(15)
H10 H 0.79750 0.44820 1.18620
C13 C 1.0496(2) 0.43095(11) 1.23083(15)
H11 H 1.07300 0.43280 1.31310
C14 C 1.1774(2) 0.41932(10) 1.18294(15)
C15 C 1.1499(2) 0.41672(11) 1.06358(15)
H12 H 1.24060 0.40920 1.03380
C16 C 0.9861(2) 0.42544(11) 0.98860(15)
H13 H 0.96380 0.42400 0.90650
C17 C 0.5729(2) 0.56010(11) 1.05917(17)
N1 N 0.60044(17) 0.40763(9) 0.85724(12)
N2 N 0.43955(18) 0.43344(10) 0.81095(14)
N3 N 0.41271(19) 0.48972(10) 0.87981(14)
N4 N 0.5878(2) 0.60890(11) 1.12957(17)
N5 N 1.3501(2) 0.41023(10) 1.26270(14)
O1 O 0.83660(15) 0.41262(8) 0.71066(10)
O2 O 1.46627(17) 0.42238(9) 1.22370(13)
O3 O 1.36956(19) 0.3907(1) 1.36452(13)
C18 C -0.0527(2) 0.70258(11) 0.15235(15)
H14 H -0.15900 0.72890 0.12770
C19 C 0.0053(2) 0.66043(12) 0.07249(16)
H15 H -0.06390 0.65660 -0.00670
C20 C 0.1629(2) 0.62390(11) 0.10717(17)
H16 H 0.20200 0.59650 0.05170
C21 C 0.2632(2) 0.62781(11) 0.22408(17)
H17 H 0.37110 0.60310 0.24810
C22 C 0.2062(2) 0.66757(10) 0.30549(15)
H18 H 0.27350 0.66910 0.38530
C23 C 0.0486(2) 0.7053(1) 0.26901(14)
C24 C -0.1499(2) 0.78816(11) 0.32312(14)
H19 H -0.24530 0.75190 0.28350
H20 H -0.14620 0.83300 0.26910
C25 C -0.1701(2) 0.82229(10) 0.43438(15)
H21 H -0.06150 0.84520 0.48370
H22 H -0.25330 0.86710 0.41450
C26 C -0.2739(2) 0.67417(10) 0.62124(15)
C27 C -0.1477(2) 0.72243(10) 0.60461(15)
C28 C 0.0274(2) 0.73379(10) 0.67999(14)
C29 C 0.0615(2) 0.7326(1) 0.80148(15)
H23 H -0.02770 0.72560 0.83290
C30 C 0.2250(2) 0.74160(11) 0.87603(14)
H24 H 0.24900 0.74100 0.95840
C31 C 0.3525(2) 0.75148(10) 0.82755(15)
C32 C 0.3237(2) 0.75144(11) 0.70784(15)
H25 H 0.41400 0.75730 0.67730
C33 C 0.1597(2) 0.74258(11) 0.63379(15)
H26 H 0.13710 0.74250 0.55160
C34 C -0.2677(2) 0.61996(11) 0.71529(16)
N6 N -0.22557(17) 0.75934(9) 0.50077(12)
N7 N -0.38807(18) 0.73583(10) 0.45667(13)
N8 N -0.41833(18) 0.68376(10) 0.52934(13)
N9 N -0.2659(2) 0.57746(10) 0.79074(15)
N10 N 0.52537(19) 0.76396(9) 0.90665(13)
O4 O 0.00405(14) 0.74345(8) 0.35601(10)
O5 O 0.64166(16) 0.75193(9) 0.86755(12)
O6 O 0.54413(17) 0.78678(9) 1.00668(12)
#END
