
#######################################################################
#
#                 Cambridge Crystallographic Data Centre
#                                CCDC
#
#######################################################################
#
# If this CIF has been generated from an entry in the Cambridge
# Structural Database, then it will include bibliographic, chemical,
# crystal, experimental, refinement or atomic coordinate data resulting
# from the CCDC's data processing and validation procedures.
#
#######################################################################

data_CSD_CIF_TIDHOE
_audit_creation_date 2007-09-25
_audit_creation_method CSD-ConQuest-V1
_database_code_CSD TIDHOE
_database_code_depnum_ccdc_archive 'CCDC 627520'
_chemical_formula_sum 'C20 H21 N1 O7'
_chemical_formula_moiety
;
C20 H21 N1 O7
;
_journal_coden_Cambridge 1336
_journal_volume 9
_journal_year 2007
_journal_page_first 2123
_journal_name_full 'Org.Lett. '
loop_
_publ_author_name
"E.Comer"
"E.Rohan"
"Li Deng"
"J.A.Porco Junior"
_chemical_name_systematic
;
Dimethyl 
12-(nitromethyl)-8-oxo-5,7,8,12-tetrahydro-6H-6,9-(metheno)benzo(10)annulene-1
1,11(10H)-dicarboxylate
;
_cell_volume   1788.048
_exptl_crystal_colour 'colorless'
_exptl_crystal_density_diffrn 1.439
_exptl_crystal_description 'block'
_diffrn_ambient_temperature 173
#These two values have been output from a single CSD field.
_refine_ls_R_factor_gt 0.0367
_refine_ls_wR_factor_gt 0.0367
_symmetry_cell_setting orthorhombic
_symmetry_space_group_name_H-M 'P 21 21 21'
_symmetry_Int_Tables_number 19
loop_
_symmetry_equiv_pos_site_id
_symmetry_equiv_pos_as_xyz
1 x,y,z
2 1/2-x,-y,1/2+z
3 -x,1/2+y,1/2-z
4 1/2+x,1/2-y,-z
_cell_length_a 8.8302(5)
_cell_length_b 13.5528(8)
_cell_length_c 14.9410(8)
_cell_angle_alpha 90
_cell_angle_beta 90
_cell_angle_gamma 90
_cell_formula_units_Z 4
loop_
_atom_type_symbol
_atom_type_radius_bond
C 0.68
H 0.23
N 0.68
O 0.68
loop_
_atom_site_label
_atom_site_type_symbol
_atom_site_fract_x
_atom_site_fract_y
_atom_site_fract_z
O1 O -0.22258(10) 0.93200(7) 0.24104(6)
O2 O -0.24143(9) 1.09553(6) 0.22611(6)
O3 O -0.24992(9) 1.07325(7) 0.03449(6)
O4 O -0.03523(11) 1.16071(7) 0.03851(6)
O5 O 0.12164(10) 0.72648(6) 0.10335(6)
O6 O 0.31094(11) 1.20178(7) 0.18444(6)
O7 O 0.27585(11) 1.19334(9) 0.32679(6)
N1 N 0.23435(10) 1.18119(7) 0.24979(6)
C1 C -0.06192(10) 1.01540(7) 0.13341(6)
C2 C -0.05488(11) 0.91308(8) 0.08557(7)
H1 H -0.074(2) 0.8616(13) 0.1256(10)
H2 H -0.135(2) 0.9074(14) 0.0417(12)
C3 C 0.09638(12) 0.89153(8) 0.04651(6)
C4 C 0.19237(13) 0.95225(8) 0.00452(6)
H3 H 0.168(2) 1.0154(13) -0.0178(12)
C5 C 0.35295(13) 0.92018(8) 0.01794(7)
H4 H 0.415(2) 0.9405(14) -0.0259(12)
C6 C 0.40873(12) 0.97520(9) 0.10410(7)
H5 H 0.392(2) 1.0478(14) 0.0987(12)
H6 H 0.520(2) 0.9626(14) 0.1105(11)
C7 C 0.33245(10) 0.94000(7) 0.18932(6)
C8 C 0.41218(11) 0.87122(8) 0.24080(7)
H7 H 0.506(2) 0.8538(12) 0.2216(10)
C9 C 0.35312(13) 0.83053(9) 0.31827(7)
H8 H 0.415(2) 0.7820(13) 0.3520(11)
C10 C 0.20968(13) 0.85775(9) 0.34626(7)
H9 H 0.167(3) 0.8305(17) 0.4004(14)
C11 C 0.12959(11) 0.92700(8) 0.29745(6)
H10 H 0.026(2) 0.9472(12) 0.3186(11)
C12 C 0.18688(10) 0.96892(7) 0.21891(6)
C13 C 0.09497(10) 1.04873(7) 0.17279(6)
H11 H 0.1424(17) 1.0697(11) 0.1235(9)
C14 C 0.17675(12) 0.79824(8) 0.06765(6)
C15 C 0.33770(13) 0.80914(8) 0.03357(7)
H12 H 0.4081(19) 0.7817(13) 0.0753(11)
H13 H 0.336(3) 0.7777(15) -0.0225(14)
C16 C 0.07948(10) 1.13919(8) 0.23412(6)
H14 H 0.035(2) 1.1303(16) 0.2968(13)
H15 H 0.018(2) 1.1916(13) 0.2064(12)
C17 C -0.18476(11) 1.00773(8) 0.20604(6)
C18 C -0.35855(13) 1.09617(11) 0.29404(8)
H16 H -0.312(4) 1.079(2) 0.3492(18)
H17 H -0.389(2) 1.1631(15) 0.2993(13)
H18 H -0.443(2) 1.0503(15) 0.2758(13)
C19 C -0.11144(11) 1.09307(8) 0.06456(6)
C20 C -0.30898(18) 1.14093(12) -0.03170(9)
H19 H -0.418(4) 1.130(2) -0.042(2)
H20 H -0.250(3) 1.129(2) -0.0811(17)
H21 H -0.295(3) 1.2071(16) -0.0147(15)
#END
