
#######################################################################
#
#                 Cambridge Crystallographic Data Centre
#                                CCDC
#
#######################################################################
#
# If this CIF has been generated from an entry in the Cambridge
# Structural Database, then it will include bibliographic, chemical,
# crystal, experimental, refinement or atomic coordinate data resulting
# from the CCDC's data processing and validation procedures.
#
#######################################################################

data_CSD_CIF_TIDHUK
_audit_creation_date 2007-09-25
_audit_creation_method CSD-ConQuest-V1
_database_code_CSD TIDHUK
_database_code_depnum_ccdc_archive 'CCDC 650945'
_chemical_formula_sum 'C21 H18 N2 O8'
_chemical_formula_moiety
;
C21 H18 N2 O8
;
_journal_coden_Cambridge 1336
_journal_volume 9
_journal_year 2007
_journal_page_first 2103
_journal_name_full 'Org.Lett. '
loop_
_publ_author_name
"J.A.Abramite"
"T.Sammakia"
_chemical_name_systematic
;
(Z)-2,4,7,8-Tetrahydro-1-methyl-4-oxo-1H-benzo(d)oxecin-8-yl 
3,5-dinitrobenzoate
;
_cell_volume   2133.835
_exptl_crystal_colour 'colorless'
_exptl_crystal_density_diffrn 1.327
_exptl_crystal_description 'needle'
_exptl_crystal_preparation 'toluene/hexanes'
_diffrn_ambient_temperature 147
#These two values have been output from a single CSD field.
_refine_ls_R_factor_gt 0.0602
_refine_ls_wR_factor_gt 0.0602
_symmetry_cell_setting monoclinic
_symmetry_space_group_name_H-M 'P 21/c'
_symmetry_Int_Tables_number 14
loop_
_symmetry_equiv_pos_site_id
_symmetry_equiv_pos_as_xyz
1 x,y,z
2 -x,1/2+y,1/2-z
3 -x,-y,-z
4 x,-1/2-y,-1/2+z
_cell_length_a 10.0686(5)
_cell_length_b 22.4772(13)
_cell_length_c 10.2181(6)
_cell_angle_alpha 90
_cell_angle_beta 112.670(1)
_cell_angle_gamma 90
_cell_formula_units_Z 4
loop_
_atom_type_symbol
_atom_type_radius_bond
C 0.68
H 0.23
N 0.68
O 0.68
loop_
_atom_site_label
_atom_site_type_symbol
_atom_site_fract_x
_atom_site_fract_y
_atom_site_fract_z
O1 O 0.30645(18) 0.22335(8) 0.73032(16)
O2 O 0.68964(19) 0.14130(8) 0.75173(18)
O3 O 0.8153(2) 0.22243(10) 0.7386(2)
O4 O 0.3132(2) 0.26419(8) 0.53221(18)
O5 O -0.1458(2) 0.38284(12) 0.8436(3)
O6 O 0.0070(2) 0.31354(10) 0.9532(2)
O7 O -0.1335(2) 0.46993(9) 0.4147(2)
O8 O 0.0036(2) 0.43147(10) 0.3191(2)
N1 N -0.0478(2) 0.34807(13) 0.8538(3)
N2 N -0.0440(3) 0.43371(11) 0.4120(3)
C1 C 0.4180(3) 0.18097(12) 0.7287(2)
H1 H 0.48610 0.20160 0.69390
C2 C 0.4990(3) 0.16155(13) 0.8834(3)
H2 H 0.43120 0.16160 0.93230
H3 H 0.53360 0.12030 0.88450
C3 C 0.6242(3) 0.20038(13) 0.9636(3)
H4 H 0.62580 0.21690 1.04980
C4 C 0.7345(3) 0.21443(13) 0.9273(3)
H5 H 0.80740 0.23930 0.99030
C5 C 0.7522(3) 0.19440(13) 0.7974(3)
C6 C 0.6700(3) 0.12257(14) 0.6100(3)
H6 H 0.68260 0.07890 0.60890
H7 H 0.74450 0.14150 0.58280
C7 C 0.5203(3) 0.13937(13) 0.5013(3)
H8 H 0.50840 0.18320 0.50890
C8 C 0.5216(3) 0.12704(15) 0.3533(3)
H9 H 0.42720 0.13680 0.28040
H10 H 0.54260 0.08490 0.34590
H11 H 0.59570 0.15150 0.33970
C9 C 0.3984(3) 0.10899(13) 0.5287(3)
C10 C 0.3296(3) 0.05876(14) 0.4503(3)
H12 H 0.36100 0.04350 0.38040
C11 C 0.2174(3) 0.03084(14) 0.4718(4)
H13 H 0.17260 -0.00270 0.41580
C12 C 0.1694(3) 0.05097(14) 0.5735(3)
H14 H 0.09270 0.03150 0.58840
C13 C 0.2356(3) 0.09999(13) 0.6528(3)
H15 H 0.20410 0.11410 0.72360
C14 C 0.3483(3) 0.12947(12) 0.6318(3)
C15 C 0.2662(3) 0.26244(11) 0.6239(2)
C16 C 0.1565(3) 0.30609(11) 0.6312(2)
C17 C 0.1062(3) 0.30564(12) 0.7411(3)
H16 H 0.13910 0.27680 0.81450
C18 C 0.0070(3) 0.34849(13) 0.7395(3)
C19 C -0.0431(3) 0.39146(13) 0.6353(3)
H17 H -0.11040 0.42080 0.63690
C20 C 0.0092(3) 0.38974(12) 0.5285(3)
C21 C 0.1068(3) 0.34795(12) 0.5239(3)
H18 H 0.13970 0.34780 0.44830
#END
