
#######################################################################
#
#                 Cambridge Crystallographic Data Centre
#                                CCDC
#
#######################################################################
#
# If this CIF has been generated from an entry in the Cambridge
# Structural Database, then it will include bibliographic, chemical,
# crystal, experimental, refinement or atomic coordinate data resulting
# from the CCDC's data processing and validation procedures.
#
#######################################################################

data_CSD_CIF_TIDJEW
_audit_creation_date 2007-09-25
_audit_creation_method CSD-ConQuest-V1
_database_code_CSD TIDJEW
_database_code_depnum_ccdc_archive 'CCDC 650947'
_chemical_formula_sum 'C23 H22 N2 O8'
_chemical_formula_moiety
;
C23 H22 N2 O8
;
_journal_coden_Cambridge 1336
_journal_volume 9
_journal_year 2007
_journal_page_first 2103
_journal_name_full 'Org.Lett. '
loop_
_publ_author_name
"J.A.Abramite"
"T.Sammakia"
_chemical_name_systematic
;
3,5-Dinitrobenzoic acid 
8-methyl-10-oxo-5,7,8,10,13,14-hexahydro-6H-9-oxabenzocyclododecin-14-yl 
ester
;
_cell_volume   2172.343
_exptl_crystal_colour 'colorless'
_exptl_crystal_density_diffrn 1.389
_exptl_crystal_preparation 'toluene/hexanes'
_diffrn_ambient_temperature 144
#These two values have been output from a single CSD field.
_refine_ls_R_factor_gt 0.0688
_refine_ls_wR_factor_gt 0.0688
_symmetry_cell_setting triclinic
_symmetry_space_group_name_H-M 'P -1'
_symmetry_Int_Tables_number 2
loop_
_symmetry_equiv_pos_site_id
_symmetry_equiv_pos_as_xyz
1 x,y,z
2 -x,-y,-z
_cell_length_a 7.1901(3)
_cell_length_b 16.9644(6)
_cell_length_c 18.5261(7)
_cell_angle_alpha 78.899(1)
_cell_angle_beta 79.339(1)
_cell_angle_gamma 83.573(1)
_cell_formula_units_Z 4
loop_
_atom_type_symbol
_atom_type_radius_bond
C 0.68
H 0.23
N 0.68
O 0.68
loop_
_atom_site_label
_atom_site_type_symbol
_atom_site_fract_x
_atom_site_fract_y
_atom_site_fract_z
N1 N 0.4988(3) 0.57920(13) 0.23648(12)
N2 N 1.1628(3) 0.58531(14) 0.11276(12)
N3 N 1.0648(3) 0.35013(13) 0.24232(12)
N4 N 0.4023(3) 0.34139(13) 0.36641(12)
O1 O 0.5684(3) 0.16029(11) -0.14862(10)
O2 O 0.2753(3) 0.12553(12) -0.08959(10)
O3 O 0.6036(2) 0.35639(11) 0.08737(10)
O4 O 0.9149(2) 0.34738(11) 0.03752(10)
O5 O 0.3582(3) 0.54153(12) 0.25550(11)
O6 O 0.5158(3) 0.64183(13) 0.25661(12)
O7 O 1.1695(3) 0.64851(13) 0.13409(11)
O8 O 1.3007(2) 0.54932(12) 0.07891(10)
O9 O 1.1570(3) 0.82764(11) 0.54268(11)
O10 O 1.3381(3) 0.90328(13) 0.44746(14)
O11 O 0.9614(2) 0.5694(1) 0.39586(9)
O12 O 0.6494(2) 0.57837(11) 0.44493(10)
O13 O 1.2068(3) 0.38741(12) 0.22544(10)
O14 O 1.0444(3) 0.29091(13) 0.21762(12)
O15 O 0.3966(3) 0.27865(12) 0.34395(11)
O16 O 0.2631(2) 0.37770(11) 0.39821(10)
C1 C 0.5673(4) 0.29030(15) 0.05190(14)
H1 H 0.65720 0.29030 0.00380
C2 C 0.3651(4) 0.31088(16) 0.03626(15)
H2 H 0.27530 0.31040 0.08380
H3 H 0.35410 0.36540 0.00570
C3 C 0.3184(4) 0.24940(16) -0.00483(15)
H4 H 0.22840 0.21200 0.02000
C4 C 0.3989(4) 0.24588(16) -0.07445(15)
H5 H 0.45650 0.29130 -0.10490
C5 C 0.3997(4) 0.17170(17) -0.10519(14)
C6 C 0.6407(4) 0.07758(17) -0.15560(15)
H6 H 0.53530 0.04110 -0.13750
C7 C 0.7147(4) 0.0760(2) -0.23711(17)
H7 H 0.61080 0.09230 -0.26570
H8 H 0.76680 0.02130 -0.24320
H9 H 0.81470 0.11330 -0.25530
C8 C 0.7912(4) 0.05448(18) -0.10570(16)
H10 H 0.89800 0.08890 -0.12600
H11 H 0.84080 -0.00200 -0.10780
C9 C 0.7226(4) 0.06235(17) -0.02366(16)
H12 H 0.76950 0.01310 0.00820
H13 H 0.58220 0.06480 -0.01380
C10 C 0.7854(4) 0.13603(16) -0.00005(15)
H14 H 0.92570 0.13210 -0.00610
H15 H 0.74520 0.18550 -0.03330
C11 C 0.7018(3) 0.14240(16) 0.08023(15)
C12 C 0.7274(4) 0.07514(17) 0.13523(16)
H16 H 0.79920 0.02840 0.12090
C13 C 0.6523(5) 0.07391(18) 0.20973(17)
H17 H 0.67420 0.02710 0.24560
C14 C 0.5453(4) 0.14078(18) 0.23218(16)
H18 H 0.49060 0.14010 0.28310
C15 C 0.5198(4) 0.20826(17) 0.17916(15)
H19 H 0.44650 0.25420 0.19430
C16 C 0.5981(3) 0.21138(16) 0.10405(14)
C17 C 0.7810(3) 0.37759(15) 0.07482(13)
C18 C 0.7939(3) 0.44839(15) 0.11089(13)
C19 C 0.6378(3) 0.47990(15) 0.15692(13)
H20 H 0.51980 0.45630 0.16760
C20 C 0.6609(3) 0.54645(15) 0.18634(13)
C21 C 0.8290(3) 0.58394(15) 0.17164(14)
H21 H 0.83970 0.63090 0.19100
C22 C 0.9800(3) 0.54936(15) 0.12742(13)
C23 C 0.9665(3) 0.48250(15) 0.09712(13)
H22 H 1.07380 0.46010 0.06730
C24 C 0.9873(3) 0.64245(14) 0.42340(14)
H23 H 0.90700 0.64270 0.47360
C25 C 1.1980(3) 0.63528(15) 0.43087(14)
H24 H 1.23350 0.58180 0.45940
H25 H 1.27880 0.64200 0.38100
C26 C 1.2228(4) 0.70068(16) 0.47127(15)
H26 H 1.17400 0.69370 0.52320
C27 C 1.3069(4) 0.76730(17) 0.44094(16)
H27 H 1.39070 0.76870 0.39470
C28 C 1.2752(4) 0.84013(18) 0.47651(19)
C29 C 1.0455(4) 0.89844(16) 0.56733(15)
H28 H 1.09220 0.94850 0.53400
C30 C 1.0749(6) 0.8986(2) 0.64611(19)
H29 H 1.02410 0.85080 0.67920
H30 H 1.00870 0.94720 0.66300
H31 H 1.21080 0.89800 0.64710
C31 C 0.8420(4) 0.89158(16) 0.56054(15)
H32 H 0.76400 0.93960 0.57530
H33 H 0.79490 0.84370 0.59610
C32 C 0.8135(4) 0.88435(16) 0.48188(15)
H34 H 0.92450 0.90440 0.44550
H35 H 0.70020 0.91960 0.46960
C33 C 0.7882(4) 0.79816(15) 0.47250(14)
H36 H 0.87400 0.75990 0.50110
H37 H 0.65630 0.78540 0.49420
C34 C 0.8285(3) 0.78553(15) 0.39226(13)
C35 C 0.7681(4) 0.84655(16) 0.33700(14)
H38 H 0.69760 0.89340 0.35140
C36 C 0.8074(4) 0.84085(16) 0.26241(15)
H39 H 0.76080 0.88270 0.22670
C37 C 0.9141(4) 0.77462(16) 0.23938(15)
H40 H 0.94620 0.77150 0.18790
C38 C 0.9739(3) 0.71246(15) 0.29300(14)
H41 H 1.04790 0.66670 0.27760
C39 C 0.9273(3) 0.71593(15) 0.36881(13)
C40 C 0.7843(3) 0.54747(15) 0.40851(13)
C41 C 0.7723(3) 0.47625(14) 0.37280(13)
C42 C 0.9261(3) 0.44618(14) 0.32554(13)
H42 H 1.04350 0.47030 0.31460
C43 C 0.9042(3) 0.38066(15) 0.29509(13)
C44 C 0.7368(4) 0.34365(15) 0.30814(13)
H43 H 0.72580 0.29810 0.28680
C45 C 0.5998(3) 0.44185(15) 0.38649(13)
H44 H 0.49340 0.46290 0.41770
C46 C 0.5858(3) 0.37637(15) 0.35389(13)
#END
