
#######################################################################
#
#                 Cambridge Crystallographic Data Centre
#                                CCDC
#
#######################################################################
#
# If this CIF has been generated from an entry in the Cambridge
# Structural Database, then it will include bibliographic, chemical,
# crystal, experimental, refinement or atomic coordinate data resulting
# from the CCDC's data processing and validation procedures.
#
#######################################################################

data_CSD_CIF_TIDJAS
_audit_creation_date 2007-09-25
_audit_creation_method CSD-ConQuest-V1
_database_code_CSD TIDJAS
_database_code_depnum_ccdc_archive 'CCDC 650946'
_chemical_formula_sum 'C21 H18 N2 O8'
_chemical_formula_moiety
;
C21 H18 N2 O8
;
_journal_coden_Cambridge 1336
_journal_volume 9
_journal_year 2007
_journal_page_first 2103
_journal_name_full 'Org.Lett. '
loop_
_publ_author_name
"J.A.Abramite"
"T.Sammakia"
_chemical_name_systematic
;
(Z)-2,4,7,8-Tetrahydro-2-methyl-4-oxo-1H-benzo(d)oxecin-8-yl 
3,5-dinitrobenzoate
;
_cell_volume    981.852
_exptl_crystal_colour 'colorless'
_exptl_crystal_density_diffrn 1.442
_exptl_crystal_description 'plate'
_exptl_crystal_preparation 'toluene/hexanes'
_diffrn_ambient_temperature 148
#These two values have been output from a single CSD field.
_refine_ls_R_factor_gt 0.0576
_refine_ls_wR_factor_gt 0.0576
_symmetry_cell_setting triclinic
_symmetry_space_group_name_H-M 'P -1'
_symmetry_Int_Tables_number 2
loop_
_symmetry_equiv_pos_site_id
_symmetry_equiv_pos_as_xyz
1 x,y,z
2 -x,-y,-z
_cell_length_a 8.4598(5)
_cell_length_b 11.1436(7)
_cell_length_c 11.9093(7)
_cell_angle_alpha 103.344(1)
_cell_angle_beta 111.130(1)
_cell_angle_gamma 99.178(1)
_cell_formula_units_Z 2
loop_
_atom_type_symbol
_atom_type_radius_bond
C 0.68
H 0.23
N 0.68
O 0.68
loop_
_atom_site_label
_atom_site_type_symbol
_atom_site_fract_x
_atom_site_fract_y
_atom_site_fract_z
O1 O 0.31921(14) 0.27474(12) 0.3534(1)
O2 O 0.42502(15) 0.41711(11) 0.74841(11)
O3 O 0.61054(15) 0.37147(12) 0.44241(11)
C1 C 0.4698(2) 0.25422(15) 0.22197(15)
C2 C 0.4765(2) 0.30804(15) 0.35204(15)
C3 C 0.3103(2) 0.30424(16) 0.47906(15)
H1 H 0.40820 0.38030 0.54160
N1 N 0.79005(19) 0.26349(16) 0.07373(14)
C4 C 0.3166(2) 0.17307(16) 0.12052(15)
H2 H 0.20930 0.15320 0.12970
C5 C 0.3259(2) 0.18648(16) 0.52104(15)
C6 C 0.4784(2) 0.14813(16) -0.01245(15)
H3 H 0.48200 0.11030 -0.09130
C7 C 0.3259(2) 0.12248(16) 0.00624(15)
C8 C 0.6247(2) 0.28618(16) 0.20645(15)
H4 H 0.72800 0.34400 0.27430
N2 N 0.16629(19) 0.03614(15) -0.10199(13)
O4 O 0.18693(19) -0.03946(13) -0.18566(12)
C9 C 0.6246(2) 0.23140(17) 0.08936(16)
C10 C 0.0597(2) 0.36494(16) 0.54578(16)
H5 H -0.05270 0.38040 0.51250
C11 C 0.1335(2) 0.33585(17) 0.44848(16)
O5 O 0.27921(19) 0.28992(16) 0.82210(14)
O6 O 0.02400(18) 0.04342(16) -0.10211(14)
O7 O 0.79743(19) 0.19820(17) -0.02155(13)
C12 C 0.4747(2) 0.18426(18) 0.62309(16)
C13 C 0.5892(2) 0.38462(18) 0.81087(16)
H6 H 0.57360 0.33440 0.86750
C14 C 0.1890(2) 0.07457(17) 0.45131(17)
H7 H 0.08950 0.07570 0.38160
C15 C 0.1153(2) 0.37407(17) 0.66784(17)
H8 H 0.03850 0.39690 0.70590
C16 C 0.6260(2) 0.30195(19) 0.70641(16)
H9 H 0.64790 0.35350 0.65340
H10 H 0.73360 0.27510 0.74550
C17 C 0.2790(2) 0.35395(17) 0.75331(16)
O8 O 0.90975(19) 0.35185(17) 0.15579(14)
C18 C 0.4785(3) 0.0694(2) 0.65130(18)
H11 H 0.57830 0.06650 0.71970
C19 C 0.3410(3) -0.03979(19) 0.5823(2)
H12 H 0.34630 -0.11640 0.60400
C20 C 0.1952(3) -0.03748(19) 0.4814(2)
H13 H 0.10040 -0.11240 0.43340
C21 C 0.7317(3) 0.5084(2) 0.8897(2)
H14 H 0.70020 0.55670 0.95470
H15 H 0.74340 0.55950 0.83490
H16 H 0.84360 0.48910 0.93070
H17 H 0.140(3) 0.405(2) 0.4197(19)
H18 H 0.043(3) 0.263(2) 0.375(2)
#END
