
#######################################################################
#
#                 Cambridge Crystallographic Data Centre
#                                CCDC
#
#######################################################################
#
# If this CIF has been generated from an entry in the Cambridge
# Structural Database, then it will include bibliographic, chemical,
# crystal, experimental, refinement or atomic coordinate data resulting
# from the CCDC's data processing and validation procedures.
#
#######################################################################

data_CSD_CIF_TIDSAC
_audit_creation_date 2013-05-25
_audit_creation_method CSD-ConQuest-V1
_database_code_CSD TIDSAC
_database_code_depnum_ccdc_archive 'CCDC 845660'
_chemical_formula_sum 'C12 H13 N5 O4'
_chemical_formula_moiety
;
C12 H13 N5 O4
;
_journal_coden_Cambridge 1350
_journal_volume 15
_journal_year 2013
_journal_page_first 4917
_journal_name_full 'CrystEngComm '
loop_
_publ_author_name
"A.C.Cunha"
"V.F.Ferreira"
"A.K.Jordao"
"M.C.B.V.de Souza"
"S.M.S.V.Wardell"
"J.L.Wardell"
"Peiyu Amelia Tan"
"R.P.A.Bettens"
"S.K.Seth"
"E.R.T.Tiekink"
_chemical_name_systematic
;
Ethyl 5-methyl-1-((4-nitrophenyl)amino)-1H-1,2,3-triazole-4-carboxylate
;
_cell_volume   2692.965
_exptl_crystal_colour 'yellow'
_exptl_crystal_density_diffrn 1.437
_exptl_crystal_description 'Prism'
_diffrn_ambient_temperature 98
#These two values have been output from a single CSD field.
_refine_ls_R_factor_gt 0.07
_refine_ls_wR_factor_gt 0.07
_symmetry_cell_setting monoclinic
_symmetry_space_group_name_H-M 'P 21/c'
_symmetry_Int_Tables_number 14
loop_
_symmetry_equiv_pos_site_id
_symmetry_equiv_pos_as_xyz
1 x,y,z
2 -x,1/2+y,1/2-z
3 -x,-y,-z
4 x,-1/2-y,-1/2+z
_cell_length_a 10.1622(19)
_cell_length_b 17.127(3)
_cell_length_c 15.487(3)
_cell_angle_alpha 90
_cell_angle_beta 92.476(7)
_cell_angle_gamma 90
_cell_formula_units_Z 8
loop_
_atom_type_symbol
_atom_type_radius_bond
C 0.68
H 0.23
N 0.68
O 0.68
loop_
_atom_site_label
_atom_site_type_symbol
_atom_site_fract_x
_atom_site_fract_y
_atom_site_fract_z
O1 O 0.69036(19) 0.18601(13) 1.10273(13)
O2 O 0.88596(18) 0.12530(11) 1.11678(13)
O3 O 0.7599(2) -0.01516(13) 0.52302(15)
O4 O 0.8946(2) 0.04799(14) 0.44343(15)
N1 N 0.9340(2) 0.21586(15) 0.87149(15)
N2 N 0.8198(2) 0.25899(15) 0.86893(16)
N3 N 0.7634(2) 0.24486(15) 0.94140(16)
N4 N 1.0104(2) 0.21285(16) 0.80028(16)
H1 H 1.066(3) 0.2520(13) 0.793(2)
N5 N 0.8429(2) 0.03626(15) 0.51261(17)
C1 C 0.9500(3) 0.17429(17) 0.94563(19)
C2 C 0.8395(3) 0.19343(17) 0.98959(19)
C3 C 1.0652(3) 0.12287(19) 0.9647(2)
H2 H 1.12210 0.14650 1.01020
H3 H 1.11490 0.11630 0.91230
H4 H 1.03470 0.07180 0.98410
C4 C 0.7966(3) 0.16838(17) 1.07444(19)
C5 C 0.8513(3) 0.10035(18) 1.20331(18)
H5 H 0.76200 0.07720 1.20150
H6 H 0.85260 0.14550 1.24330
C6 C 0.9513(3) 0.04103(19) 1.2331(2)
H7 H 0.94890 -0.00340 1.19320
H8 H 0.93140 0.02290 1.29120
H9 H 1.03920 0.06460 1.23460
C7 C 0.9618(3) 0.17296(16) 0.72779(19)
C8 C 0.8522(3) 0.12388(17) 0.7318(2)
H10 H 0.80480 0.12100 0.78320
C9 C 0.8132(3) 0.07953(17) 0.6607(2)
H11 H 0.73990 0.04530 0.66310
C10 C 0.8822(3) 0.08569(17) 0.58593(19)
C11 C 0.9883(3) 0.13580(17) 0.5798(2)
H12 H 1.03290 0.14000 0.52730
C12 C 1.0284(3) 0.17961(17) 0.65102(19)
H13 H 1.10110 0.21420 0.64790
O5 O 0.20217(19) 0.32329(12) -0.26021(13)
O6 O 0.39636(18) 0.38716(12) -0.25452(13)
O7 O 0.3202(2) 0.47226(13) 0.40373(14)
O8 O 0.4534(2) 0.38544(14) 0.46018(14)
N6 N 0.4117(2) 0.31071(14) -0.00197(15)
N7 N 0.2938(2) 0.27207(15) -0.00606(17)
N8 N 0.2432(2) 0.28513(15) -0.08328(16)
N9 N 0.4988(2) 0.30253(16) 0.06871(16)
H14 H 0.551(3) 0.2612(12) 0.067(2)
N10 N 0.3947(2) 0.41584(15) 0.39751(17)
C13 C 0.4369(3) 0.34786(17) -0.07606(19)
C14 C 0.3282(3) 0.33009(16) -0.12837(19)
C15 C 0.5568(3) 0.3961(2) -0.0872(2)
H15 H 0.61580 0.36910 -0.12570
H16 H 0.60220 0.40440 -0.03080
H17 H 0.53130 0.44670 -0.11240
C16 C 0.2999(3) 0.34594(17) -0.2202(2)
C17 C 0.3864(3) 0.40160(18) -0.34792(18)
H18 H 0.34040 0.35740 -0.37720
H19 H 0.47580 0.40540 -0.37050
C18 C 0.3121(3) 0.47600(18) -0.3672(2)
H20 H 0.35400 0.51910 -0.33480
H21 H 0.22080 0.47020 -0.35010
H22 H 0.31290 0.48710 -0.42920
C19 C 0.4633(3) 0.32825(17) 0.14931(19)
C20 C 0.3666(3) 0.38536(17) 0.15950(19)
H23 H 0.31710 0.40460 0.11060
C21 C 0.3437(3) 0.41332(18) 0.2406(2)
H24 H 0.27920 0.45270 0.24790
C22 C 0.4150(3) 0.38405(17) 0.31193(19)
C23 C 0.5083(3) 0.32621(17) 0.30316(19)
H25 H 0.55510 0.30590 0.35260
C24 C 0.5326(3) 0.29842(18) 0.22232(19)
H26 H 0.59680 0.25880 0.21580
#END
