
#######################################################################
#
#                 Cambridge Crystallographic Data Centre
#                                CCDC
#
#######################################################################
#
# If this CIF has been generated from an entry in the Cambridge
# Structural Database, then it will include bibliographic, chemical,
# crystal, experimental, refinement or atomic coordinate data resulting
# from the CCDC's data processing and validation procedures.
#
#######################################################################

data_CSD_CIF_TIFFEV
_audit_creation_date 2013-05-26
_audit_creation_method CSD-ConQuest-V1
_database_code_CSD TIFFEV
_database_code_depnum_ccdc_archive 'CCDC 844458'
_chemical_formula_sum 'C12 H15 N3 O2'
_chemical_formula_moiety
;
C12 H15 N3 O2
;
_journal_coden_Cambridge 1291
_journal_year 2013
_journal_page_first 4026
_journal_name_full 'Eur.J.Org.Chem. '
loop_
_publ_author_name
"S.Samai"
"Tanmoy Chanda"
"H.Ila"
"Maya Shankar Singh"
_chemical_name_systematic
;
4-(5-(1-Methyl-1H-pyrrol-3-yl)-1,2-oxazol-3-yl)morpholine
;
_cell_volume    576.250
_exptl_crystal_density_diffrn 1.344
_diffrn_ambient_temperature 293
#These two values have been output from a single CSD field.
_refine_ls_R_factor_gt 0.0451
_refine_ls_wR_factor_gt 0.0451
_symmetry_cell_setting monoclinic
_symmetry_space_group_name_H-M 'P 21'
_symmetry_Int_Tables_number 4
loop_
_symmetry_equiv_pos_site_id
_symmetry_equiv_pos_as_xyz
1 x,y,z
2 -x,1/2+y,-z
_cell_length_a 8.213(2)
_cell_length_b 5.9340(17)
_cell_length_c 11.992(4)
_cell_angle_alpha 90
_cell_angle_beta 99.604(8)
_cell_angle_gamma 90
_cell_formula_units_Z 2
loop_
_atom_type_symbol
_atom_type_radius_bond
C 0.68
H 0.23
N 0.68
O 0.68
loop_
_atom_site_label
_atom_site_type_symbol
_atom_site_fract_x
_atom_site_fract_y
_atom_site_fract_z
C1 C 0.8613(3) 1.5957(5) 0.5469(2)
H1 H 0.80960 1.65670 0.60640
H2 H 0.87740 1.71340 0.49490
H3 H 0.96630 1.53190 0.57870
O1 O 0.42273(19) 0.9762(3) 0.23601(12)
N1 N 0.7560(2) 1.4205(3) 0.48713(15)
C2 C 0.7243(3) 1.2176(5) 0.5315(2)
H4 H 0.76860 1.16590 0.60340
N2 N 0.3168(2) 0.9590(3) 0.12842(15)
N3 N 0.2044(2) 1.2145(3) -0.01225(15)
O2 O 0.0872(2) 1.2635(3) -0.24689(13)
C3 C 0.1493(3) 1.0194(4) -0.0835(2)
H5 H 0.10110 0.90800 -0.03960
H6 H 0.24330 0.95100 -0.10990
C4 C 0.1296(3) 1.4556(4) -0.17714(19)
H7 H 0.03180 1.51160 -0.15070
H8 H 0.17020 1.57380 -0.22120
C5 C 0.3996(3) 1.3198(4) 0.16354(17)
H9 H 0.41120 1.47380 0.15280
C6 C 0.4693(3) 1.1960(4) 0.25270(19)
C7 C 0.3047(3) 1.1651(4) 0.0895(2)
C8 C 0.0240(3) 1.0907(5) -0.1832(2)
H10 H -0.00730 0.96150 -0.23160
H11 H -0.07420 1.14540 -0.15680
C9 C 0.5810(3) 1.2428(4) 0.35660(18)
C10 C 0.2595(3) 1.3997(4) -0.0772(2)
H12 H 0.36100 1.35730 -0.10310
H13 H 0.28200 1.53140 -0.02920
C11 C 0.6692(3) 1.4386(4) 0.38133(18)
H14 H 0.66910 1.56210 0.33360
C12 C 0.6176(3) 1.1032(4) 0.45338(19)
H15 H 0.57590 0.95960 0.46170
#END
