
#######################################################################
#
#                 Cambridge Crystallographic Data Centre
#                                CCDC
#
#######################################################################
#
# If this CIF has been generated from an entry in the Cambridge
# Structural Database, then it will include bibliographic, chemical,
# crystal, experimental, refinement or atomic coordinate data resulting
# from the CCDC's data processing and validation procedures.
#
#######################################################################

data_CSD_CIF_TIFGUL
_audit_creation_date 2007-09-25
_audit_creation_method CSD-ConQuest-V1
_database_code_CSD TIFGUL
_database_code_depnum_ccdc_archive 'CCDC 640619'
_chemical_formula_sum 'C15 H20 N2 O2'
_chemical_formula_moiety
;
C15 H20 N2 O2
;
_journal_coden_Cambridge 1090
_journal_volume 18
_journal_year 2007
_journal_page_first 919
_journal_name_full 'Tetrahedron:Asymm. '
loop_
_publ_author_name
"P.S.Koranne"
"T.Tsujihara"
"M.A.Arai"
"G.B.Bajracharya"
"T.Suzuki"
"K.Onitsuka"
"H.Sasai"
_chemical_name_systematic
;
(R*,S*)-3,3',3'-Trimethyl-3',3a',4',5,5',6-hexahydro-4H-spiro((2,1-benzisoxazo
le)-7,6'-(cyclopenta(c)isoxazole))
;
_cell_volume   1413.930
_exptl_crystal_colour 'colorless'
_exptl_crystal_density_diffrn 1.223
_exptl_crystal_description 'prismatic'
_diffrn_ambient_temperature 298.1
#These two values have been output from a single CSD field.
_refine_ls_R_factor_gt 0.0338
_refine_ls_wR_factor_gt 0.0338
_symmetry_cell_setting orthorhombic
_symmetry_space_group_name_H-M 'P 21 21 21'
_symmetry_Int_Tables_number 19
loop_
_symmetry_equiv_pos_site_id
_symmetry_equiv_pos_as_xyz
1 x,y,z
2 1/2+x,1/2-y,-z
3 -x,1/2+y,1/2-z
4 1/2-x,-y,1/2+z
_cell_length_a 10.157(2)
_cell_length_b 24.022(3)
_cell_length_c 5.795(1)
_cell_angle_alpha 90
_cell_angle_beta 90
_cell_angle_gamma 90
_cell_formula_units_Z 4
loop_
_atom_type_symbol
_atom_type_radius_bond
C 0.68
H 0.23
N 0.68
O 0.68
loop_
_atom_site_label
_atom_site_type_symbol
_atom_site_fract_x
_atom_site_fract_y
_atom_site_fract_z
O1 O -0.00630 0.59680 0.85070
O2 O 0.54760 0.62870 0.76450
N1 N 0.09560 0.58590 0.69040
N2 N 0.42150 0.65500 0.73530
C1 C 0.37420 0.63630 0.54850
C2 C 0.13150 0.63490 0.61680
C3 C 0.23840 0.64320 0.44170
C4 C 0.05830 0.67870 0.71950
C5 C 0.45400 0.59330 0.42700
C6 C -0.02550 0.65270 0.86210
C7 C 0.20330 0.74600 0.51850
C8 C 0.24180 0.59610 0.25580
C9 C 0.55320 0.57890 0.61380
C10 C 0.34590 0.55430 0.33780
C11 C 0.07710 0.73870 0.65860
C12 C 0.22010 0.70150 0.33570
C13 C 0.51340 0.52940 0.75860
C14 C -0.12880 0.67270 1.02310
C15 C 0.69400 0.57450 0.52820
H1 H 0.49570 0.60970 0.28830
H2 H 0.37280 0.52760 0.22000
H3 H 0.31040 0.53150 0.47830
H4 H 0.15160 0.57830 0.24020
H5 H 0.26820 0.61570 0.10940
H6 H 0.30090 0.71140 0.23980
H7 H 0.13900 0.70020 0.23980
H8 H 0.20240 0.78220 0.44780
H9 H 0.27560 0.74420 0.63180
H10 H 0.00110 0.74990 0.55210
H11 H 0.07340 0.76070 0.81650
H12 H -0.21160 0.66270 0.98230
H13 H -0.11240 0.65630 1.17420
H14 H -0.12820 0.71550 1.02440
H15 H 0.72210 0.60760 0.45100
H16 H 0.75450 0.56750 0.64780
H17 H 0.69700 0.54290 0.41200
H18 H 0.57420 0.52570 0.89560
H19 H 0.51930 0.49410 0.65970
H20 H 0.41530 0.53520 0.80640
#END
