
#######################################################################
#
#                 Cambridge Crystallographic Data Centre
#                                CCDC
#
#######################################################################
#
# If this CIF has been generated from an entry in the Cambridge
# Structural Database, then it will include bibliographic, chemical,
# crystal, experimental, refinement or atomic coordinate data resulting
# from the CCDC's data processing and validation procedures.
#
#######################################################################

data_CSD_CIF_TIFHAS
_audit_creation_date 2007-09-25
_audit_creation_method CSD-ConQuest-V1
_database_code_CSD TIFHAS
_database_code_depnum_ccdc_archive 'CCDC 643958'
_chemical_formula_sum 'C21 H27 N1 O4'
_chemical_formula_moiety
;
C21 H27 N1 O4
;
_journal_coden_Cambridge 1090
_journal_volume 18
_journal_year 2007
_journal_page_first 1145
_journal_name_full 'Tetrahedron:Asymm. '
loop_
_publ_author_name
"A.Abate"
"E.Brenna"
"C.Fuganti"
"L.Malpezzi"
"S.Serra"
_chemical_name_systematic
;
(E,R*)-3-Methyl-4-((S*)-2,6,6-trimethylcyclohex-2-en-1-yl)but-3-en-2-yl 
4-nitrobenzoate
;
_chemical_melting_point 358.15
_cell_volume   2044.844
_exptl_crystal_colour 'colorless'
_exptl_crystal_density_diffrn 1.161
_exptl_special_details
;
Melting point range 358.15-361.15K

;
_exptl_crystal_description 'rod'
_exptl_crystal_preparation 'methanol'
_diffrn_ambient_temperature 293
_refine_special_details
;
The cyclohexene ring may be disordered although the disorder was not 
;
#These two values have been output from a single CSD field.
_refine_ls_R_factor_gt 0.1315
_refine_ls_wR_factor_gt 0.1315
_symmetry_cell_setting monoclinic
_symmetry_space_group_name_H-M 'P 21/n'
_symmetry_Int_Tables_number 14
loop_
_symmetry_equiv_pos_site_id
_symmetry_equiv_pos_as_xyz
1 x,y,z
2 1/2-x,1/2+y,1/2-z
3 -x,-y,-z
4 -1/2+x,-1/2-y,-1/2+z
_cell_length_a 7.378(1)
_cell_length_b 6.355(1)
_cell_length_c 43.730(6)
_cell_angle_alpha 90
_cell_angle_beta 94.210(2)
_cell_angle_gamma 90
_cell_formula_units_Z 4
loop_
_atom_type_symbol
_atom_type_radius_bond
C 0.68
H 0.23
N 0.68
O 0.68
loop_
_atom_site_label
_atom_site_type_symbol
_atom_site_fract_x
_atom_site_fract_y
_atom_site_fract_z
O1 O 0.2195(8) 0.1828(9) 0.07432(13)
O2 O 0.0757(9) 0.4227(10) 0.04383(14)
O3 O 0.2886(11) -0.1971(12) -0.07786(15)
O4 O 0.4041(10) -0.4282(11) -0.04647(15)
N1 N 0.3319(11) -0.2594(13) -0.0520(2)
C1 C 0.3031(16) 0.4843(17) 0.1070(2)
H1 H 0.28320 0.58250 0.09040
H2 H 0.42630 0.43480 0.10780
H3 H 0.28130 0.55260 0.12600
C2 C 0.1742(16) 0.2995(16) 0.1019(2)
H4 H 0.044(12) 0.321(14) 0.1008(19)
C3 C 0.1852(13) 0.1342(15) 0.1270(2)
C4 C 0.0373(14) 0.0992(15) 0.1414(2)
H5 H -0.084(9) 0.155(10) 0.1341(14)
C5 C 0.0109(19) -0.0559(19) 0.1669(2)
H6 H 0.107(9) -0.176(10) 0.1688(13)
C6 C -0.1528(19) -0.196(2) 0.1592(3)
C7 C -0.265(2) -0.246(3) 0.1789(4)
H7 H -0.36470 -0.32740 0.17180
C8 C -0.254(3) -0.189(5) 0.2109(5)
H8 H -0.29280 -0.30660 0.22310
H9 H -0.33320 -0.07050 0.21410
C9 C -0.045(4) -0.129(3) 0.2210(4)
H10 H -0.03500 -0.08070 0.24210
H11 H 0.03160 -0.25190 0.21960
C10 C 0.023(3) 0.053(3) 0.1992(3)
C11 C 0.203(3) 0.136(5) 0.2083(4)
H12 H 0.24340 0.22360 0.19220
H13 H 0.28680 0.02190 0.21210
H14 H 0.19780 0.21830 0.22670
C12 C -0.133(3) 0.213(2) 0.1999(3)
H15 H -0.10750 0.33140 0.18730
H16 H -0.14330 0.25870 0.22060
H17 H -0.24430 0.14780 0.19220
C13 C -0.1796(18) -0.2768(19) 0.1266(3)
H18 H -0.28800 -0.36060 0.12430
H19 H -0.07700 -0.36100 0.12200
H20 H -0.19080 -0.15980 0.11270
C14 C 0.3647(14) 0.0367(18) 0.1337(2)
H21 H 0.35700 -0.06720 0.14950
H22 H 0.45100 0.14290 0.14050
H23 H 0.40310 -0.02900 0.11550
C15 C 0.1608(12) 0.2643(16) 0.0473(2)
C16 C 0.2096(12) 0.1230(13) 0.02170(19)
C17 C 0.2828(10) -0.0774(12) 0.02689(19)
H24 H 0.30460 -0.12620 0.04690
C18 C 0.3226(12) -0.2016(14) 0.0030(2)
H25 H 0.37170 -0.33500 0.00650
C19 C 0.2894(11) -0.1271(13) -0.0260(2)
C20 C 0.2187(12) 0.0669(15) -0.0326(2)
H26 H 0.19880 0.11290 -0.05280
C21 C 0.1775(10) 0.1930(14) -0.0084(2)
H27 H 0.12790 0.32580 -0.01220
#END
