
#######################################################################
#
#                 Cambridge Crystallographic Data Centre
#                                CCDC
#
#######################################################################
#
# If this CIF has been generated from an entry in the Cambridge
# Structural Database, then it will include bibliographic, chemical,
# crystal, experimental, refinement or atomic coordinate data resulting
# from the CCDC's data processing and validation procedures.
#
#######################################################################

data_CSD_CIF_TIFSAC
_audit_creation_date 2002-01-10
_audit_creation_method CSD-ConQuest-V1
_database_code_CSD TIFSAC
_database_code_depnum_ccdc_archive 'CCDC 169124'
_chemical_formula_sum 'C21 H15 N3 O8'
_chemical_formula_moiety
;
C21 H15 N3 O8
;
_journal_coden_Cambridge 1350
_journal_volume 3
_journal_year 2001
_journal_page_first 170
_journal_name_full 'CrystEngComm '
loop_
_publ_author_name
"M.C.Grossel"
"C.A.Golden"
"J.R.Gomm"
"P.N.Horton"
"D.A.S.Merckel"
"M.E.Oszer"
"R.A.Parker"
_chemical_name_systematic
;
bis(4-Nitrobenzyl) pyridine-3,5-dicarboxylate
;
_chemical_melting_point 453.15
_cell_volume    930.079
_exptl_crystal_colour 'colorless'
_exptl_crystal_density_diffrn 1.562
_exptl_crystal_description 'needle'
_exptl_crystal_preparation 'acetone'
_diffrn_ambient_temperature 150
#These two values have been output from a single CSD field.
_refine_ls_R_factor_gt 0.0538
_refine_ls_wR_factor_gt 0.0538
_symmetry_cell_setting orthorhombic
_symmetry_space_group_name_H-M 'P 21 21 2'
_symmetry_Int_Tables_number 18
loop_
_symmetry_equiv_pos_site_id
_symmetry_equiv_pos_as_xyz
1 x,y,z
2 -x,-y,z
3 1/2-x,1/2+y,-z
4 1/2+x,1/2-y,-z
_cell_length_a 30.518(6)
_cell_length_b 4.863(1)
_cell_length_c 6.267(1)
_cell_angle_alpha 90
_cell_angle_beta 90
_cell_angle_gamma 90
_cell_formula_units_Z 2
loop_
_atom_type_symbol
_atom_type_radius_bond
C 0.68
H 0.23
N 0.68
O 0.68
loop_
_atom_site_label
_atom_site_type_symbol
_atom_site_fract_x
_atom_site_fract_y
_atom_site_fract_z
O1 O 0.08263(6) 0.5152(4) 0.0357(3)
O2 O 0.19476(6) 1.5056(4) 0.6068(3)
C1 C 0.06011(10) 0.3380(5) -0.0868(4)
C2 C 0.00000 0.00000 -0.0776(6)
N1 N 0.20742(8) 1.4554(4) 0.4252(4)
O3 O 0.23825(7) 1.5755(4) 0.3394(3)
C3 C 0.02818(10) 0.1695(6) 0.0340(4)
C4 C 0.11585(10) 0.6654(6) -0.0800(4)
H1 H 0.10220 0.77010 -0.19380
H2 H 0.13630 0.53690 -0.14390
O4 O 0.06640(8) 0.3143(4) -0.2756(3)
C5 C 0.18476(10) 1.2410(5) 0.3016(4)
C6 C 0.14018(10) 0.8572(5) 0.0659(4)
C7 C 0.17675(9) 0.9881(6) -0.0172(4)
H3 H 0.18600 0.94500 -0.15450
N2 N 0.00000 0.00000 0.3674(5)
C8 C 0.19961(9) 1.1806(5) 0.0995(4)
H4 H 0.22430 1.26690 0.04360
C9 C 0.1270(1) 0.9169(5) 0.2724(4)
H5 H 0.10310 0.82510 0.33130
C10 C 0.02612(10) 0.1664(6) 0.2546(4)
C11 C 0.14913(9) 1.1124(5) 0.3917(5)
H6 H 0.14010 1.15570 0.52950
H7 H 0.00000 0.00000 -0.225(6)
H8 H 0.0454(10) 0.289(6) 0.333(4)
C3A C -0.02818(10) -0.1695(6) 0.0340(4)
C1A C -0.06011(10) -0.3380(5) -0.0868(4)
O1A O -0.08263(6) -0.5152(4) 0.0357(3)
C4A C -0.11585(10) -0.6654(6) -0.0800(4)
H1A H -0.10220 -0.77010 -0.19380
H2A H -0.13630 -0.53690 -0.14390
C6A C -0.14018(10) -0.8572(5) 0.0659(4)
C7A C -0.17675(9) -0.9881(6) -0.0172(4)
H3A H -0.18600 -0.94500 -0.15450
C8A C -0.19961(9) -1.1806(5) 0.0995(4)
C5A C -0.18476(10) -1.2410(5) 0.3016(4)
N1A N -0.20742(8) -1.4554(4) 0.4252(4)
O2A O -0.19476(6) -1.5056(4) 0.6068(3)
O3A O -0.23825(7) -1.5755(4) 0.3394(3)
C11A C -0.14913(9) -1.1124(5) 0.3917(5)
C9A C -0.1270(1) -0.9169(5) 0.2724(4)
H5A H -0.10310 -0.82510 0.33130
H6A H -0.14010 -1.15570 0.52950
H4A H -0.22430 -1.26690 0.04360
O4A O -0.06640(8) -0.3143(4) -0.2756(3)
C10A C -0.02612(10) -0.1664(6) 0.2546(4)
H8A H -0.0454(10) -0.289(6) 0.333(4)
#END
