
#######################################################################
#
#                 Cambridge Crystallographic Data Centre
#                                CCDC
#
#######################################################################
#
# If this CIF has been generated from an entry in the Cambridge
# Structural Database, then it will include bibliographic, chemical,
# crystal, experimental, refinement or atomic coordinate data resulting
# from the CCDC's data processing and validation procedures.
#
#######################################################################

data_CSD_CIF_TIFTUY
_audit_creation_date 2007-09-25
_audit_creation_method CSD-ConQuest-V1
_database_code_CSD TIFTUY
_database_code_depnum_ccdc_archive 'CCDC 634600'
_chemical_formula_sum 'C28 H36 N2 O8'
_chemical_formula_moiety
;
C28 H36 N2 O8
;
_journal_coden_Cambridge 1366
_journal_volume 349
_journal_year 2007
_journal_page_first 1451
_journal_name_full 'Adv.Synth.Catal. '
loop_
_publ_author_name
"K.Kuhnel"
"S.C.Maurer"
"Y.Galeyeva"
"W.Frey"
"S.Laschat"
"V.B.Urlacher"
_chemical_name_systematic
;
1,9-bis(4-Nitrobenzoyloxy)-(2R,4R,6R,8R,9R)-tetramethyldecane
;
_chemical_melting_point 351.15
_cell_volume   1435.498
_exptl_crystal_colour 'colorless'
_exptl_crystal_density_diffrn 1.223
_exptl_crystal_description 'needle'
_exptl_crystal_preparation 'hexane'
_diffrn_ambient_temperature 293
#These two values have been output from a single CSD field.
_refine_ls_R_factor_gt 0.0677
_refine_ls_wR_factor_gt 0.0677
_symmetry_cell_setting triclinic
_symmetry_space_group_name_H-M 'P 1'
_symmetry_Int_Tables_number 1
loop_
_symmetry_equiv_pos_site_id
_symmetry_equiv_pos_as_xyz
1 x,y,z
_cell_length_a 6.8269(5)
_cell_length_b 13.5953(7)
_cell_length_c 16.2785(9)
_cell_angle_alpha 72.026(4)
_cell_angle_beta 87.903(6)
_cell_angle_gamma 87.685(6)
_cell_formula_units_Z 2
loop_
_atom_type_symbol
_atom_type_radius_bond
C 0.68
H 0.23
N 0.68
O 0.68
loop_
_atom_site_label
_atom_site_type_symbol
_atom_site_fract_x
_atom_site_fract_y
_atom_site_fract_z
N1 N 0.7287(8) 0.1920(4) 1.1417(3)
N2 N 0.9078(7) 0.7357(5) 1.0911(3)
O1 O 0.6994(8) 0.1089(4) 1.1312(3)
O2 O 0.7506(12) 0.2044(5) 1.2110(3)
O3 O 0.8432(6) 0.6280(3) 0.8479(2)
O4 O 0.6993(5) 0.5352(2) 0.77509(19)
O5 O 0.7617(7) 1.0763(3) 0.7297(3)
O6 O 0.8565(9) 1.1794(4) 0.8019(4)
O7 O 0.8590(7) 0.6514(4) 1.0880(3)
O8 O 0.9813(7) 0.7464(4) 1.1567(3)
C1 C 0.7638(7) 0.4531(3) 0.9212(3)
C2 C 0.7166(7) 0.3593(4) 0.9121(3)
H1 H 0.69290 0.35370 0.85780
C3 C 0.7048(7) 0.2727(4) 0.9858(3)
H2 H 0.67340 0.20860 0.98130
C4 C 0.7404(8) 0.2839(4) 1.0650(3)
C5 C 0.7884(9) 0.3754(4) 1.0747(3)
H3 H 0.81200 0.38040 1.12920
C6 C 0.8019(8) 0.4614(4) 1.0019(3)
H4 H 0.83650 0.52460 1.00710
C7 C 0.7761(8) 0.5484(4) 0.8457(3)
C8 C 0.6949(8) 0.6263(4) 0.6971(3)
H5 H 0.68020 0.68900 0.71470
C9 C 0.8872(8) 0.6293(4) 0.6467(3)
H6 H 0.99350 0.62550 0.68650
C10 C 0.9051(9) 0.7306(4) 0.5736(3)
H7 H 0.80100 0.73500 0.53350
H8 H 1.02870 0.72820 0.54280
C11 C 0.8958(9) 0.8304(4) 0.6001(3)
H9 H 0.76970 0.83250 0.63040
C12 C 0.8990(9) 0.9247(4) 0.5197(3)
H10 H 0.80060 0.91660 0.48090
H11 H 1.02570 0.92530 0.49060
C13 C 0.8621(10) 1.0306(4) 0.5346(4)
H12 H 0.95780 1.03740 0.57580
C14 C 0.6548(9) 1.0380(4) 0.5736(4)
H13 H 0.56100 1.02840 0.53360
H14 H 0.64250 0.98060 0.62640
C15 C 0.5955(11) 1.1364(4) 0.5945(4)
H15 H 0.59530 1.19280 0.53980
C16 C 0.7366(13) 1.1642(5) 0.6522(5)
H16 H 0.86190 1.18140 0.62220
H17 H 0.68580 1.22400 0.66770
C17 C 0.8273(9) 1.0931(5) 0.8002(4)
C18 C 0.5109(9) 0.6148(5) 0.6513(4)
H18 H 0.39840 0.61390 0.68870
H19 H 0.52060 0.55130 0.63710
H20 H 0.49770 0.67190 0.59940
C19 C 0.9163(11) 0.5362(4) 0.6110(4)
H21 H 1.03950 0.54130 0.57980
H22 H 0.81180 0.53670 0.57300
H23 H 0.91580 0.47290 0.65820
C20 C 1.0552(11) 0.8310(5) 0.6617(4)
H24 H 1.04190 0.89300 0.67820
H25 H 1.18100 0.82870 0.63390
H26 H 1.04420 0.77180 0.71220
C21 C 0.8940(14) 1.1181(5) 0.4490(5)
H27 H 0.87350 1.18390 0.45880
H28 H 0.80280 1.11210 0.40740
H29 H 1.02550 1.11270 0.42740
C22 C 0.3874(12) 1.1298(6) 0.6316(5)
H30 H 0.30170 1.11140 0.59360
H31 H 0.34550 1.19570 0.63750
H32 H 0.38340 1.07820 0.68730
C23 C 0.8479(7) 0.9997(4) 0.8741(4)
C24 C 0.8357(9) 0.9003(4) 0.8664(4)
H33 H 0.81340 0.89260 0.81280
C25 C 0.8564(8) 0.8143(5) 0.9370(4)
H34 H 0.84890 0.74830 0.93180
C26 C 0.8888(7) 0.8279(5) 1.0164(3)
C27 C 0.8997(9) 0.9235(5) 1.0259(4)
H35 H 0.91870 0.93060 1.08000
C28 C 0.8824(9) 1.0090(6) 0.9548(4)
H36 H 0.89410 1.07440 0.96070
N3 N 0.2457(8) 0.3544(4) 0.8023(3)
N4 N 0.3825(7) -0.1784(4) 0.8415(3)
O9 O 0.1800(7) 0.4343(3) 0.8126(3)
O10 O 0.3021(10) 0.3472(4) 0.7328(3)
O11 O 0.4100(6) -0.0823(3) 1.0909(2)
O12 O 0.2263(5) 0.0049(2) 1.16527(19)
O13 O 0.2705(9) -0.6257(4) 1.1153(3)
O14 O 0.3208(9) -0.5320(3) 1.2018(3)
O15 O 0.3512(8) -0.0939(4) 0.8510(3)
O16 O 0.4394(7) -0.1872(4) 0.7717(3)
C29 C 0.3037(7) 0.0926(4) 1.0205(3)
C30 C 0.2265(7) 0.1832(4) 1.0302(3)
H37 H 0.18810 0.18670 1.08470
C31 C 0.2060(7) 0.2700(4) 0.9576(3)
H38 H 0.15420 0.33210 0.96310
C32 C 0.2631(8) 0.2625(4) 0.8784(3)
C33 C 0.3427(8) 0.1728(4) 0.8673(3)
H39 H 0.38210 0.17030 0.81270
C34 C 0.3633(8) 0.0862(4) 0.9390(3)
H40 H 0.41620 0.02460 0.93310
C35 C 0.3243(8) -0.0043(4) 1.0945(3)
C36 C 0.2198(8) -0.0885(4) 1.2409(3)
H41 H 0.21860 -0.14950 1.22100
C37 C 0.4030(8) -0.0947(4) 1.2934(3)
H42 H 0.51720 -0.09220 1.25460
C38 C 0.4143(9) -0.1987(4) 1.3657(3)
H43 H 0.53250 -0.20060 1.39760
H44 H 0.30370 -0.20090 1.40530
C39 C 0.4151(9) -0.2963(4) 1.3382(3)
H45 H 0.29310 -0.29500 1.30790
C40 C 0.4151(10) -0.3922(4) 1.4176(3)
H46 H 0.53810 -0.39600 1.44660
H47 H 0.31100 -0.38300 1.45700
C41 C 0.3887(9) -0.4956(4) 1.4016(4)
H48 H 0.49000 -0.50290 1.35950
C42 C 0.1874(9) -0.5004(4) 1.3635(4)
H49 H 0.08650 -0.49310 1.40490
H50 H 0.17290 -0.44150 1.31190
C43 C 0.1502(12) -0.5978(5) 1.3400(4)
H51 H 0.15380 -0.65600 1.39360
C44 C 0.2999(14) -0.6216(5) 1.2782(4)
H52 H 0.42510 -0.63980 1.30610
H53 H 0.25910 -0.68010 1.26150
C45 C 0.3013(9) -0.5433(5) 1.1251(4)
C46 C 0.3199(8) -0.4471(4) 1.0532(4)
C47 C 0.3076(9) -0.4498(5) 0.9686(4)
H54 H 0.28650 -0.51260 0.95920
C48 C 0.3258(9) -0.3632(5) 0.8995(4)
H55 H 0.31410 -0.36600 0.84350
C49 C 0.3621(7) -0.2708(4) 0.9147(3)
C50 C 0.3723(8) -0.2640(5) 0.9973(4)
H56 H 0.39080 -0.20090 1.00650
C51 C 0.3544(8) -0.3533(5) 1.0655(4)
H57 H 0.36580 -0.35040 1.12140
C52 C 0.0246(9) -0.0783(5) 1.2862(4)
H58 H -0.08030 -0.07490 1.24760
H59 H 0.02160 -0.01640 1.30280
H60 H 0.00930 -0.13720 1.33660
C53 C 0.4146(10) -0.0041(4) 1.3304(4)
H61 H 0.53240 -0.01160 1.36260
H62 H 0.30280 -0.00380 1.36790
H63 H 0.41590 0.05990 1.28400
C54 C 0.5868(12) -0.2992(5) 1.2749(4)
H64 H 0.57940 -0.23850 1.22540
H65 H 0.57920 -0.35970 1.25670
H66 H 0.70870 -0.30120 1.30300
C55 C 0.4198(14) -0.5841(5) 1.4854(5)
H67 H 0.40620 -0.64910 1.47480
H68 H 0.32390 -0.57760 1.52820
H69 H 0.54890 -0.58100 1.50590
C56 C -0.0555(14) -0.5916(7) 1.3041(6)
H70 H -0.15010 -0.57700 1.34420
H71 H -0.08350 -0.65640 1.29570
H72 H -0.06200 -0.53750 1.24990
#END
