
#######################################################################
#
#                 Cambridge Crystallographic Data Centre
#                                CCDC
#
#######################################################################
#
# If this CIF has been generated from an entry in the Cambridge
# Structural Database, then it will include bibliographic, chemical,
# crystal, experimental, refinement or atomic coordinate data resulting
# from the CCDC's data processing and validation procedures.
#
#######################################################################

data_CSD_CIF_TIFWOX
_audit_creation_date 2018-05-08
_audit_creation_method CSD-ConQuest-V1
_database_code_CSD TIFWOX
_database_code_depnum_ccdc_archive 'CCDC 1583021'
_chemical_formula_sum 'C15 H12 N2 O3'
_chemical_formula_moiety
;
C15 H12 N2 O3
;
_journal_coden_Cambridge 119
_journal_volume 1168
_journal_year 2018
_journal_page_first 309
_journal_name_full 'J.Mol.Struct. '
loop_
_publ_author_name
"L.J.Michelini"
"M.R.C.Castro"
"J.M.F.Custodio"
"L.F.Nunes"
"W.F.Vaz"
"G.S.Lobon"
"F.T.Martins"
"C.N.Perez"
"H.B.Napolitano"
_chemical_name_systematic
;
(2E)-1-(2-aminophenyl)-3-(4-nitrophenyl)prop-2-en-1-one
;
_cell_volume   1302.557
_exptl_crystal_colour 'yellow'
_exptl_crystal_density_diffrn 1.368
_exptl_crystal_description 'prism'
_diffrn_ambient_temperature 296.1
#These two values have been output from a single CSD field.
_refine_ls_R_factor_gt 0.0461
_refine_ls_wR_factor_gt 0.0461
_symmetry_cell_setting monoclinic
_symmetry_space_group_name_H-M 'P 21/n'
_symmetry_Int_Tables_number 14
loop_
_symmetry_equiv_pos_site_id
_symmetry_equiv_pos_as_xyz
1 x,y,z
2 1/2-x,1/2+y,1/2-z
3 -x,-y,-z
4 -1/2+x,-1/2-y,-1/2+z
_cell_length_a 4.9692(3)
_cell_length_b 25.8304(18)
_cell_length_c 10.1698(7)
_cell_angle_alpha 90
_cell_angle_beta 93.755(4)
_cell_angle_gamma 90
_cell_formula_units_Z 4
loop_
_atom_type_symbol
_atom_type_radius_bond
C 0.68
H 0.23
N 0.68
O 0.68
loop_
_atom_site_label
_atom_site_type_symbol
_atom_site_fract_x
_atom_site_fract_y
_atom_site_fract_z
O1 O -0.6462(3) 0.05223(7) 0.46805(16)
O2 O -0.5852(3) 0.13425(7) 0.47632(17)
O3 O 0.5976(3) 0.06004(5) -0.14798(14)
N1 N -0.5339(4) 0.09150(8) 0.43467(16)
C1 C -0.3299(4) 0.08719(7) 0.33668(17)
C2 C -0.2698(4) 0.03973(8) 0.28714(19)
H1 H -0.358(4) 0.0104(8) 0.3140(19)
C3 C -0.0809(4) 0.03698(7) 0.19377(18)
H2 H -0.0366(4) 0.00484(7) 0.16011(18)
C4 C 0.0443(3) 0.08090(7) 0.14890(17)
C5 C 0.2436(4) 0.07608(7) 0.04958(18)
H3 H 0.3044(4) 0.04286(7) 0.03250(18)
C6 C 0.3450(4) 0.11400(7) -0.01783(18)
H4 H 0.2863(4) 0.14762(7) -0.00399(18)
C7 C 0.5504(4) 0.10505(7) -0.11542(18)
C8 C 0.6917(4) 0.14921(7) -0.16874(17)
C9 C 0.8717(4) 0.14267(8) -0.27038(17)
C10 C 1.0011(5) 0.18659(9) -0.3168(2)
H5 H 1.123(5) 0.1808(9) -0.382(2)
C11 C 0.9651(6) 0.23415(10) -0.2647(3)
H6 H 1.0554(6) 0.26243(10) -0.2974(3)
C12 C -0.2091(4) 0.13168(8) 0.29660(19)
H7 H -0.2513(4) 0.16349(8) 0.33280(19)
C13 C -0.0245(4) 0.12847(7) 0.20199(19)
H8 H 0.0557(4) 0.15853(7) 0.17293(19)
C14 C 0.7955(6) 0.24119(9) -0.1636(3)
H9 H 0.768(5) 0.2751(10) -0.127(3)
C15 C 0.6621(5) 0.19921(8) -0.1185(2)
H10 H 0.5462(5) 0.20405(8) -0.0514(2)
N2 N 0.9201(4) 0.09613(7) -0.32445(18)
H11 H 1.042(5) 0.0938(8) -0.381(2)
H12 H 0.845(5) 0.0673(9) -0.294(2)
#END
