
#######################################################################
#
#                 Cambridge Crystallographic Data Centre
#                                CCDC
#
#######################################################################
#
# If this CIF has been generated from an entry in the Cambridge
# Structural Database, then it will include bibliographic, chemical,
# crystal, experimental, refinement or atomic coordinate data resulting
# from the CCDC's data processing and validation procedures.
#
#######################################################################

data_CSD_CIF_TIGRIL
_audit_creation_date 2007-09-25
_audit_creation_method CSD-ConQuest-V1
_database_code_CSD TIGRIL
_database_code_depnum_ccdc_archive 'CCDC 657754'
_chemical_formula_sum 'C10 H14 N4 O8'
_chemical_formula_moiety
;
C10 H14 N4 O8
;
_journal_coeditor_code "IUCr RZ2154"
_journal_coden_Cambridge 1370
_journal_volume 63
_journal_year 2007
_journal_page_first o3484
_journal_name_full 'Acta Crystallogr.,Sect.E:Struct.Rep.Online '
loop_
_publ_author_name
"D.C.McCutcheon"
"P.Norris"
"M.Zeller"
_chemical_name_systematic
;
3,4-Di-O-acetyl-2-azidodeoxy-1-O-nitro-\a-L-fucose
;
_cell_volume   2841.588
_exptl_crystal_colour 'colorless'
_exptl_crystal_density_diffrn 1.488
_exptl_crystal_description 'block'
_exptl_crystal_preparation 'hexane/ethyl acetate'
_diffrn_ambient_temperature 100
#These two values have been output from a single CSD field.
_refine_ls_R_factor_gt 0.033
_refine_ls_wR_factor_gt 0.033
_symmetry_cell_setting orthorhombic
_symmetry_space_group_name_H-M 'P 21 21 21'
_symmetry_Int_Tables_number 19
loop_
_symmetry_equiv_pos_site_id
_symmetry_equiv_pos_as_xyz
1 x,y,z
2 1/2-x,-y,1/2+z
3 -x,1/2+y,1/2-z
4 1/2+x,1/2-y,-z
_cell_length_a 8.2169(6)
_cell_length_b 15.8825(12)
_cell_length_c 21.7738(16)
_cell_angle_alpha 90
_cell_angle_beta 90
_cell_angle_gamma 90
_cell_formula_units_Z 8
loop_
_atom_type_symbol
_atom_type_radius_bond
C 0.68
H 0.23
N 0.68
O 0.68
loop_
_atom_site_label
_atom_site_type_symbol
_atom_site_fract_x
_atom_site_fract_y
_atom_site_fract_z
C1 C 0.1519(2) 0.68931(11) 0.96074(8)
H1 H 0.16970 0.69070 1.00620
C2 C 0.3138(2) 0.70045(11) 0.92821(8)
H2 H 0.36530 0.75450 0.94160
C3 C 0.2871(2) 0.70192(11) 0.85901(8)
H3 H 0.24450 0.64600 0.84520
C4 C 0.1645(2) 0.77066(11) 0.84250(8)
H4 H 0.13940 0.76790 0.79760
C5 C 0.0083(2) 0.75793(11) 0.87924(8)
H5 H -0.04390 0.70430 0.86540
C6 C -0.1136(2) 0.82860(12) 0.87166(9)
H6 H -0.07300 0.87920 0.89240
H7 H -0.21780 0.81190 0.88980
H8 H -0.12880 0.84050 0.82790
C7 C 0.4653(2) 0.68822(11) 0.77365(8)
C8 C 0.6392(2) 0.69823(12) 0.75485(9)
H9 H 0.65330 0.67750 0.71280
H10 H 0.70890 0.66590 0.78270
H11 H 0.66940 0.75790 0.75670
C9 C 0.3093(3) 0.89460(12) 0.81195(9)
C10 C 0.3549(3) 0.98127(13) 0.83182(10)
H12 H 0.25680 1.01610 0.83470
H13 H 0.42970 1.00600 0.80180
H14 H 0.40820 0.97870 0.87200
C11 C 0.2547(2) 0.43484(11) 0.79007(8)
H15 H 0.30180 0.43670 0.74770
C12 C 0.3935(2) 0.43329(11) 0.83734(8)
H16 H 0.46270 0.38260 0.82970
C13 C 0.3204(2) 0.42703(11) 0.90164(8)
H17 H 0.25210 0.47770 0.91050
C14 C 0.2164(2) 0.34711(11) 0.90480(8)
H18 H 0.16640 0.34150 0.94650
C15 C 0.0837(2) 0.35172(11) 0.85600(8)
H19 H 0.01020 0.40000 0.86600
C16 C -0.0187(3) 0.27262(13) 0.85109(9)
H20 H 0.04900 0.22620 0.83610
H21 H -0.10860 0.28230 0.82240
H22 H -0.06240 0.25820 0.89160
C17 C 0.4189(2) 0.44343(11) 1.00306(8)
C18 C 0.5676(3) 0.43756(15) 1.04241(10)
H23 H 0.53600 0.44010 1.08580
H24 H 0.64070 0.48450 1.03290
H25 H 0.62340 0.38420 1.03430
C19 C 0.3866(2) 0.23554(11) 0.94182(9)
C20 C 0.5124(3) 0.17257(13) 0.92196(10)
H26 H 0.49290 0.11890 0.94280
H27 H 0.62100 0.19340 0.93260
H28 H 0.50540 0.16440 0.87740
N1 N -0.0035(2) 0.56522(10) 0.98752(7)
N2 N 0.41780(19) 0.62882(10) 0.94692(7)
N3 N 0.5655(2) 0.64117(10) 0.94132(7)
N4 N 0.7021(2) 0.64433(12) 0.93857(10)
N5 N 0.0763(2) 0.54341(10) 0.75172(7)
N6 N 0.4937(2) 0.5095(1) 0.82922(8)
N7 N 0.6420(2) 0.49697(10) 0.83443(8)
N8 N 0.7785(2) 0.49429(13) 0.83732(11)
O1 O 0.04098(16) 0.75143(8) 0.94464(6)
O2 O 0.09418(16) 0.60611(8) 0.94303(6)
O3 O 0.44471(16) 0.71616(8) 0.83227(6)
O4 O 0.22958(17) 0.85305(8) 0.85736(6)
O5 O -0.0240(2) 0.59973(10) 1.03602(7)
O6 O -0.05346(18) 0.49872(9) 0.96954(7)
O7 O 0.35749(18) 0.65942(9) 0.74306(6)
O8 O 0.3355(2) 0.86470(9) 0.76178(7)
O9 O 0.15313(16) 0.36579(8) 0.79517(6)
O10 O 0.16796(16) 0.51307(8) 0.80211(6)
O11 O 0.45529(16) 0.42301(8) 0.94370(6)
O12 O 0.32046(16) 0.27581(8) 0.89237(6)
O13 O 0.0821(2) 0.50576(10) 0.70412(7)
O14 O 0.00131(18) 0.60629(9) 0.76422(7)
O15 O 0.28545(17) 0.46294(9) 1.01992(6)
O16 O 0.3492(2) 0.25016(10) 0.99387(7)
#END
