
#######################################################################
#
#                 Cambridge Crystallographic Data Centre
#                                CCDC
#
#######################################################################
#
# If this CIF has been generated from an entry in the Cambridge
# Structural Database, then it will include bibliographic, chemical,
# crystal, experimental, refinement or atomic coordinate data resulting
# from the CCDC's data processing and validation procedures.
#
#######################################################################

data_CSD_CIF_TIGVOX
_audit_creation_date 2018-05-09
_audit_creation_method CSD-ConQuest-V1
_database_code_CSD TIGVOX
_database_code_depnum_ccdc_archive 'CCDC 1569863'
_chemical_formula_sum 'C23 H22 N2 O6'
_chemical_formula_moiety
;
C23 H22 N2 O6
;
_journal_coden_Cambridge 177
_journal_volume 16
_journal_year 2018
_journal_page_first 3801
_journal_name_full 'Org.Biomol.Chem. '
loop_
_publ_author_name
"Jin-Quan Chen"
"Yang Mi"
"Zi-Fa Shi"
"Xiao-Ping Cao"
_chemical_name_systematic
;
dimethyl (1-benzyl-4-nitro-1,3,4,5-tetrahydrobenzo[cd]indol-5-yl)propanedioate
;
_cell_volume   2158.435
_exptl_crystal_colour 'colorless'
_exptl_crystal_density_diffrn 1.3
_exptl_crystal_description 'block'
_diffrn_ambient_temperature 293
#These two values have been output from a single CSD field.
_refine_ls_R_factor_gt 0.0646
_refine_ls_wR_factor_gt 0.0646
_symmetry_cell_setting orthorhombic
_symmetry_space_group_name_H-M 'P 21 21 21'
_symmetry_Int_Tables_number 19
loop_
_symmetry_equiv_pos_site_id
_symmetry_equiv_pos_as_xyz
1 x,y,z
2 1/2-x,-y,1/2+z
3 1/2+x,1/2-y,-z
4 -x,1/2+y,1/2-z
_cell_length_a 9.6235(6)
_cell_length_b 13.3554(9)
_cell_length_c 16.7938(9)
_cell_angle_alpha 90
_cell_angle_beta 90
_cell_angle_gamma 90
_cell_formula_units_Z 4
loop_
_atom_type_symbol
_atom_type_radius_bond
C 0.68
H 0.23
N 0.68
O 0.68
loop_
_atom_site_label
_atom_site_type_symbol
_atom_site_fract_x
_atom_site_fract_y
_atom_site_fract_z
O1 O 0.1945(5) -0.3646(4) -0.2298(3)
O2 O 0.2142(5) -0.2103(4) -0.2079(3)
O3 O -0.3262(4) -0.0952(4) -0.0438(3)
O4 O -0.1273(4) -0.0141(3) -0.0605(3)
O5 O -0.0792(4) -0.1881(6) 0.0860(2)
O6 O 0.1080(4) -0.1638(3) 0.0144(2)
N1 N -0.2781(5) -0.3937(4) -0.3110(3)
N2 N 0.1599(5) -0.2902(5) -0.1957(3)
C1 C -0.1999(7) -0.4463(5) -0.2560(3)
H1 H -0.19540 -0.51570 -0.25300
C2 C -0.1311(6) -0.3828(4) -0.2073(3)
C3 C -0.1671(5) -0.2851(4) -0.2333(3)
C4 C -0.1252(5) -0.1935(4) -0.2026(3)
C5 C -0.1729(6) -0.1082(4) -0.2396(3)
H2 H -0.14510 -0.04550 -0.22160
C6 C -0.2642(7) -0.1165(5) -0.3048(3)
H3 H -0.29580 -0.05820 -0.32910
C7 C -0.3087(7) -0.2077(6) -0.3341(3)
H4 H -0.37030 -0.21150 -0.37670
C8 C -0.2580(6) -0.2931(5) -0.2978(3)
C9 C -0.3682(7) -0.4358(6) -0.3717(4)
H5 H -0.46220 -0.41170 -0.36330
H6 H -0.36930 -0.50810 -0.36640
C10 C -0.3228(6) -0.4088(5) -0.4549(3)
C11 C -0.1899(8) -0.4256(6) -0.4782(4)
H7 H -0.12740 -0.45430 -0.44270
C12 C -0.1475(11) -0.4014(7) -0.5520(5)
H8 H -0.05570 -0.41410 -0.56600
C13 C -0.2293(13) -0.3609(7) -0.6046(5)
H9 H -0.19450 -0.34420 -0.65450
C14 C -0.3648(11) -0.3427(6) -0.5874(5)
H10 H -0.42440 -0.31590 -0.62550
C15 C -0.4128(8) -0.3658(6) -0.5100(5)
H11 H -0.50440 -0.35220 -0.49590
C16 C -0.0306(5) -0.1980(4) -0.1296(3)
H12 H 0.03590 -0.14260 -0.13280
C17 C 0.0506(5) -0.2963(4) -0.1298(3)
H13 H 0.10030 -0.30070 -0.07900
C18 C -0.0338(6) -0.3930(4) -0.1392(3)
H14 H 0.02850 -0.44890 -0.14840
H15 H -0.08560 -0.40600 -0.09080
C19 C -0.1118(5) -0.1883(4) -0.0510(3)
H16 H -0.16990 -0.24780 -0.04370
C20 C -0.2039(6) -0.0958(5) -0.0513(3)
C21 C -0.2016(8) 0.0815(5) -0.0626(5)
H17 H -0.26370 0.08540 -0.01790
H18 H -0.25400 0.08610 -0.11110
H19 H -0.13600 0.13550 -0.06010
C22 C -0.0135(6) -0.1788(5) 0.0188(3)
C23 C 0.0079(7) -0.1837(11) 0.1576(4)
H20 H -0.04980 -0.17310 0.20350
H21 H 0.07290 -0.12950 0.15280
H22 H 0.05760 -0.24560 0.16350
#END
