
#######################################################################
#
#                 Cambridge Crystallographic Data Centre
#                                CCDC
#
#######################################################################
#
# If this CIF has been generated from an entry in the Cambridge
# Structural Database, then it will include bibliographic, chemical,
# crystal, experimental, refinement or atomic coordinate data resulting
# from the CCDC's data processing and validation procedures.
#
#######################################################################

data_CSD_CIF_TIGYOX
_audit_creation_date 2002-01-10
_audit_creation_method CSD-ConQuest-V1
_database_code_CSD TIGYOX
_database_code_depnum_ccdc_archive 'CCDC 171915'
_chemical_formula_sum 'C16 H27 N1 O8'
_chemical_formula_moiety
;
C16 H27 N1 O8
;
_journal_coden_Cambridge 35
_journal_volume 66
_journal_year 2001
_journal_page_first 7118
_journal_name_full 'J.Org.Chem. '
loop_
_publ_author_name
"Yanwen Fu"
"L.G.J.Hammarstrom"
"T.J.Miller"
"F.R.Fronczek"
"M.L.McLaughlin"
"R.P.Hammer"
_chemical_name_systematic
;
bis(t-Butyl) 3-ethylcarboxy-3-nitroglutarate
;
_chemical_melting_point 343
_cell_volume   1957.674
_exptl_crystal_colour 'colorless'
_exptl_crystal_density_diffrn 1.226
_exptl_crystal_description 'lath fragment'
_diffrn_ambient_temperature 120
#These two values have been output from a single CSD field.
_refine_ls_R_factor_gt 0.053
_refine_ls_wR_factor_gt 0.053
_symmetry_cell_setting monoclinic
_symmetry_space_group_name_H-M 'P 21/c'
_symmetry_Int_Tables_number 14
loop_
_symmetry_equiv_pos_site_id
_symmetry_equiv_pos_as_xyz
1 x,y,z
2 x,1/2-y,1/2+z
3 -x,-y,-z
4 -x,-1/2+y,-1/2-z
_cell_length_a 14.9589(2)
_cell_length_b 12.2035(2)
_cell_length_c 10.7542(3)
_cell_angle_alpha 90
_cell_angle_beta 94.2958(7)
_cell_angle_gamma 90
_cell_formula_units_Z 4
loop_
_atom_type_symbol
_atom_type_radius_bond
C 0.68
H 0.23
N 0.68
O 0.68
loop_
_atom_site_label
_atom_site_type_symbol
_atom_site_fract_x
_atom_site_fract_y
_atom_site_fract_z
O1 O 0.32004(9) 0.50096(10) 0.85302(11)
O2 O 0.20199(9) 0.59713(11) 0.88274(12)
O3 O 0.37464(7) 0.81601(8) 0.70732(9)
O4 O 0.38946(7) 0.73318(9) 0.89489(9)
O5 O 0.35508(7) 0.43075(8) 0.52000(9)
O6 O 0.22019(7) 0.46822(9) 0.59371(10)
O7 O 0.07669(7) 0.79738(9) 0.70923(11)
O8 O 0.20252(8) 0.84533(11) 0.82657(13)
N1 N 0.26905(9) 0.57758(11) 0.82860(11)
C1 C 0.29241(9) 0.65606(11) 0.72498(12)
C2 C 0.35680(9) 0.74019(11) 0.78978(12)
C3 C 0.43401(10) 0.90464(12) 0.75130(13)
H1 H 0.49360 0.87570 0.78140
H2 H 0.40850 0.94510 0.82010
C4 C 0.44144(12) 0.97784(13) 0.64027(15)
H3 H 0.46310 0.93520 0.57140
H4 H 0.48370 1.03740 0.66230
H5 H 0.38240 1.00870 0.61470
C5 C 0.34444(9) 0.59280(11) 0.63078(13)
H6 H 0.35510 0.64190 0.56010
H7 H 0.40360 0.57180 0.67120
C6 C 0.29716(10) 0.49073(11) 0.58059(13)
C7 C 0.32546(10) 0.32761(11) 0.45547(13)
C8 C 0.25298(10) 0.35423(14) 0.35392(14)
H8 H 0.19870 0.37780 0.39190
H9 H 0.23970 0.28890 0.30290
H10 H 0.27370 0.41320 0.30130
C9 C 0.29474(13) 0.24554(13) 0.54914(15)
H11 H 0.34150 0.23680 0.61720
H12 H 0.28330 0.17480 0.50790
H13 H 0.23960 0.27200 0.58280
C10 C 0.41072(11) 0.28841(13) 0.40104(15)
H14 H 0.42960 0.34250 0.34100
H15 H 0.39940 0.21810 0.35880
H16 H 0.45810 0.27930 0.46820
C11 C 0.20717(10) 0.70832(12) 0.66533(14)
H17 H 0.22160 0.74490 0.58710
H18 H 0.16330 0.64950 0.64280
C12 C 0.16329(10) 0.79128(13) 0.74619(15)
C13 C 0.01476(11) 0.87547(14) 0.76400(18)
C14 C -0.07306(13) 0.8484(2) 0.6954(3)
H19 H -0.06940 0.86230 0.60620
H20 H -0.12030 0.89410 0.72680
H21 H -0.08710 0.77090 0.70820
C15 C 0.04164(17) 0.99007(19) 0.7307(4)
H22 H 0.09920 1.00820 0.77540
H23 H -0.00420 1.04190 0.75430
H24 H 0.04730 0.99470 0.64060
H25? H -0.00430 1.02170 0.67150
H26? H 0.09910 0.98800 0.69260
H27? H 0.04760 1.03510 0.80630
C16 C 0.0133(2) 0.8559(4) 0.9006(3)
H28 H 0.07200 0.87420 0.94210
H29 H -0.00020 0.77860 0.91550
H30 H -0.03290 0.90190 0.93420
#END
