
#######################################################################
#
#                 Cambridge Crystallographic Data Centre
#                                CCDC
#
#######################################################################
#
# If this CIF has been generated from an entry in the Cambridge
# Structural Database, then it will include bibliographic, chemical,
# crystal, experimental, refinement or atomic coordinate data resulting
# from the CCDC's data processing and validation procedures.
#
#######################################################################

data_CSD_CIF_TIHFAS
_audit_creation_date 2007-09-25
_audit_creation_method CSD-ConQuest-V1
_database_code_CSD TIHFAS
_database_code_depnum_ccdc_archive 'CCDC 657814'
_chemical_formula_sum 'C16 H17 N1 O2'
_chemical_formula_moiety
;
C16 H17 N1 O2
;
_journal_coeditor_code "IUCr WK2064"
_journal_coden_Cambridge 1370
_journal_volume 63
_journal_year 2007
_journal_page_first o3568
_journal_name_full 'Acta Crystallogr.,Sect.E:Struct.Rep.Online '
loop_
_publ_author_name
"Li Yang"
"Hua Fang"
"Hu Zheng"
"Ling-Ling Weng"
_chemical_name_systematic
;
(3S)-4-Phenyl-3-(phenylaminoxy)butan-2-one
;
_cell_volume   1432.455
_exptl_crystal_colour 'colorless'
_exptl_crystal_density_diffrn 1.184
_exptl_special_details
;
Absolute configuration

;
_exptl_crystal_description 'block'
_exptl_crystal_preparation 'petroleum/ethyl acetate'
_diffrn_ambient_temperature 293
#These two values have been output from a single CSD field.
_refine_ls_R_factor_gt 0.0553
_refine_ls_wR_factor_gt 0.0553
_symmetry_cell_setting orthorhombic
_symmetry_space_group_name_H-M 'P 21 21 21'
_symmetry_Int_Tables_number 19
loop_
_symmetry_equiv_pos_site_id
_symmetry_equiv_pos_as_xyz
1 x,y,z
2 1/2-x,-y,1/2+z
3 -x,1/2+y,1/2-z
4 1/2+x,1/2-y,-z
_cell_length_a 5.5950(17)
_cell_length_b 15.847(5)
_cell_length_c 16.156(5)
_cell_angle_alpha 90
_cell_angle_beta 90
_cell_angle_gamma 90
_cell_formula_units_Z 4
loop_
_atom_type_symbol
_atom_type_radius_bond
C 0.68
H 0.23
N 0.68
O 0.68
loop_
_atom_site_label
_atom_site_type_symbol
_atom_site_fract_x
_atom_site_fract_y
_atom_site_fract_z
O1 O 0.5061(6) 0.4253(2) 0.66177(17)
O2 O 0.0167(5) 0.42246(18) 0.52562(16)
N1 N -0.0743(7) 0.4977(3) 0.5659(2)
C1 C 0.2625(7) 0.4174(3) 0.5431(2)
H1 H 0.34030 0.46990 0.52550
C2 C 0.3146(9) 0.4024(3) 0.6342(3)
C3 C 0.1367(10) 0.3571(3) 0.6863(3)
H2 H 0.05670 0.31530 0.65350
H3 H 0.02170 0.39660 0.70730
H4 H 0.21700 0.33020 0.73170
C4 C 0.3649(9) 0.3440(3) 0.4935(2)
H5 H 0.53130 0.33650 0.50860
H6 H 0.28010 0.29290 0.50850
C5 C 0.3484(8) 0.3561(3) 0.4006(3)
C6 C 0.5259(10) 0.3996(3) 0.3615(3)
H7 H 0.65460 0.41990 0.39210
C7 C 0.5168(12) 0.4142(3) 0.2759(3)
H8 H 0.63690 0.44490 0.24980
C8 C 0.3291(10) 0.3827(3) 0.2312(3)
H9 H 0.32180 0.39170 0.17440
C9 C 0.153(1) 0.3382(3) 0.2696(3)
H10 H 0.02590 0.31660 0.23910
C10 C 0.164(1) 0.3252(3) 0.3547(3)
H11 H 0.04330 0.29480 0.38060
C11 C -0.1670(8) 0.5573(3) 0.5071(3)
C12 C -0.0695(9) 0.5646(3) 0.4280(3)
H12 H 0.05690 0.53060 0.41130
C13 C -0.1665(12) 0.6238(3) 0.3757(3)
H13 H -0.10840 0.62830 0.32190
C14 C -0.3446(12) 0.6757(3) 0.4005(4)
H14 H -0.40650 0.71560 0.36420
C15 C -0.4343(10) 0.6694(3) 0.4799(4)
H15 H -0.55640 0.70510 0.49720
C16 C -0.3424(9) 0.6101(3) 0.5332(3)
H16 H -0.40040 0.60620 0.58700
H17 H -0.202(6) 0.480(3) 0.590(3)
#END
