
#######################################################################
#
#                 Cambridge Crystallographic Data Centre
#                                CCDC
#
#######################################################################
#
# If this CIF has been generated from an entry in the Cambridge
# Structural Database, then it will include bibliographic, chemical,
# crystal, experimental, refinement or atomic coordinate data resulting
# from the CCDC's data processing and validation procedures.
#
#######################################################################

data_CSD_CIF_TIHQEH
_audit_creation_date 2007-09-25
_audit_creation_method CSD-ConQuest-V1
_database_code_CSD TIHQEH
_database_code_depnum_ccdc_archive 'CCDC 659094'
_chemical_formula_sum 'C14 H21 N1 O4'
_chemical_formula_moiety
;
C14 H21 N1 O4
;
_journal_coeditor_code "IUCr HJ3042"
_journal_coden_Cambridge 1370
_journal_volume 63
_journal_year 2007
_journal_page_first o3552
_journal_name_full 'Acta Crystallogr.,Sect.E:Struct.Rep.Online '
loop_
_publ_author_name
"H.Guo"
"M.Zabawa"
"J.Woo"
"C.Zheng"
"Q.Yao"
_chemical_name_systematic
;
(Z)-N-t-Butyl-C-(2,3,4-trimethoxyphenyl)nitrone
;
_chemical_melting_point 395
_cell_volume    731.530
_exptl_crystal_colour 'colorless'
_exptl_crystal_density_diffrn 1.214
_exptl_special_details
;
Melting point range 395-396K

;
_exptl_crystal_description 'plate'
_exptl_crystal_preparation 'dichloromethane/hexane'
_diffrn_ambient_temperature 293
#These two values have been output from a single CSD field.
_refine_ls_R_factor_gt 0.0423
_refine_ls_wR_factor_gt 0.0423
_symmetry_cell_setting triclinic
_symmetry_space_group_name_H-M 'P -1'
_symmetry_Int_Tables_number 2
loop_
_symmetry_equiv_pos_site_id
_symmetry_equiv_pos_as_xyz
1 x,y,z
2 -x,-y,-z
_cell_length_a 8.7424(15)
_cell_length_b 9.5039(17)
_cell_length_c 9.8424(17)
_cell_angle_alpha 74.055(3)
_cell_angle_beta 68.612(3)
_cell_angle_gamma 82.108(3)
_cell_formula_units_Z 2
loop_
_atom_type_symbol
_atom_type_radius_bond
C 0.68
H 0.23
N 0.68
O 0.68
loop_
_atom_site_label
_atom_site_type_symbol
_atom_site_fract_x
_atom_site_fract_y
_atom_site_fract_z
O1 O 0.75304(15) 1.17217(13) 0.34565(15)
O2 O 1.29356(14) 0.62646(12) 0.30972(13)
O3 O 1.09014(13) 0.54726(11) 0.20004(11)
O4 O 0.82513(12) 0.72922(12) 0.16273(12)
N1 N 0.70119(15) 1.11834(13) 0.26398(14)
C1 C 1.00430(18) 0.94615(16) 0.31636(17)
H1 H 0.98380 1.03370 0.34620
C2 C 1.13649(18) 0.85577(16) 0.33577(17)
H2 H 1.20460 0.88370 0.37670
C3 C 1.16811(17) 0.72379(16) 0.29453(16)
C4 C 1.06241(17) 0.68092(15) 0.23628(15)
C5 C 0.93260(17) 0.77314(16) 0.21437(15)
C6 C 0.90073(17) 0.90925(16) 0.25308(16)
C7 C 0.76466(18) 0.99913(17) 0.22132(17)
H3 H 0.71750 0.96830 0.16420
C8 C 0.55423(19) 1.20292(18) 0.22727(18)
C9 C 0.5125(3) 1.1466(3) 0.1152(3)
H4 H 0.47500 1.04860 0.16040
H5 H 0.60870 1.14660 0.02750
H6 H 0.42750 1.20890 0.08670
C10 C 0.4129(2) 1.1846(3) 0.3765(2)
H7 H 0.31780 1.24030 0.36110
H8 H 0.44350 1.21900 0.44570
H9 H 0.38800 1.08300 0.41700
C11 C 0.6005(3) 1.3618(2) 0.1600(2)
H10 H 0.50670 1.42080 0.14580
H11 H 0.68790 1.37010 0.06470
H12 H 0.63630 1.39490 0.22680
C12 C 1.4108(2) 0.6695(2) 0.3579(3)
H13 H 1.46130 0.75670 0.28790
H14 H 1.49350 0.59240 0.36270
H15 H 1.35690 0.68830 0.45570
C13 C 1.0042(3) 0.43237(19) 0.3183(2)
H16 H 1.04390 0.41560 0.40070
H17 H 1.02160 0.34470 0.28320
H18 H 0.88890 0.45880 0.35140
C14 C 0.8909(2) 0.7105(2) 0.0131(2)
H19 H 0.90720 0.80470 -0.05700
H20 H 0.81550 0.65810 -0.00350
H21 H 0.99420 0.65610 -0.00110
#END
