
#######################################################################
#
#                 Cambridge Crystallographic Data Centre
#                                CCDC
#
#######################################################################
#
# If this CIF has been generated from an entry in the Cambridge
# Structural Database, then it will include bibliographic, chemical,
# crystal, experimental, refinement or atomic coordinate data resulting
# from the CCDC's data processing and validation procedures.
#
#######################################################################

data_CSD_CIF_TIHTEK
_audit_creation_date 2007-09-24
_audit_creation_method CSD-ConQuest-V1
_database_code_CSD TIHTEK
_database_code_depnum_ccdc_archive 'CCDC 659103'
_chemical_formula_sum 'C12 H10 N2 O1'
_chemical_formula_moiety
;
C12 H10 N2 O1
;
_journal_coeditor_code "IUCr HG2265"
_journal_coden_Cambridge 1370
_journal_volume 63
_journal_year 2007
_journal_page_first o3639
_journal_name_full 'Acta Crystallogr.,Sect.E:Struct.Rep.Online '
loop_
_publ_author_name
"S.P.G.Martinez"
"S.Bernes"
_chemical_name_systematic
;
trans-Diphenyldiazene oxide
;
_chemical_name_common
;
trans-Azoxybenzene
;
_chemical_melting_point 305
_cell_volume    999.035
_exptl_crystal_colour 'yellow'
_exptl_crystal_density_diffrn 1.318
_exptl_special_details
;
Melting point range 305-309K

;
_exptl_crystal_description 'needle'
_exptl_crystal_preparation 'ethanol'
_diffrn_ambient_temperature 299.0
_refine_special_details
;
The O atom is disordered over two sites with occupancy 0.60:0.40.

;
#These two values have been output from a single CSD field.
_refine_ls_R_factor_gt 0.0551
_refine_ls_wR_factor_gt 0.0551
_symmetry_cell_setting monoclinic
_symmetry_space_group_name_H-M 'P 21/n'
_symmetry_Int_Tables_number 14
loop_
_symmetry_equiv_pos_site_id
_symmetry_equiv_pos_as_xyz
1 x,y,z
2 1/2-x,1/2+y,1/2-z
3 -x,-y,-z
4 -1/2+x,-1/2-y,-1/2+z
_cell_length_a 5.844(3)
_cell_length_b 15.864(7)
_cell_length_c 11.073(5)
_cell_angle_alpha 90
_cell_angle_beta 103.30(4)
_cell_angle_gamma 90
_cell_formula_units_Z 4
loop_
_atom_type_symbol
_atom_type_radius_bond
C 0.68
H 0.23
N 0.68
O 0.68
loop_
_atom_site_label
_atom_site_type_symbol
_atom_site_fract_x
_atom_site_fract_y
_atom_site_fract_z
O1 O -0.0378(16) 0.4162(9) 0.5903(12)
N1 N 0.1816(4) 0.42455(16) 0.6174(2)
N2 N 0.3345(4) 0.39334(15) 0.5698(2)
C1 C 0.2717(5) 0.48817(17) 0.7134(3)
C2 C 0.1399(6) 0.50318(19) 0.7979(3)
H1 H -0.00680 0.47340 0.79360
C3 C 0.2203(6) 0.5616(2) 0.8893(3)
H2 H 0.13250 0.57130 0.95250
C4 C 0.4186(6) 0.6056(2) 0.8930(3)
H3 H 0.47120 0.64750 0.95730
C5 C 0.5464(6) 0.5911(2) 0.8052(3)
H4 H 0.68820 0.62320 0.80670
C6 C 0.4729(5) 0.53096(18) 0.7152(3)
H5 H 0.56380 0.51940 0.65390
C7 C 0.2709(5) 0.32809(17) 0.4804(2)
C8 C 0.4621(5) 0.28069(19) 0.4705(3)
H6 H 0.61530 0.29260 0.52360
C9 C 0.4369(5) 0.2169(2) 0.3863(3)
H7 H 0.57190 0.18260 0.38150
C10 C 0.2243(5) 0.20073(18) 0.3086(3)
H8 H 0.20770 0.15500 0.24900
C11 C 0.0350(5) 0.24936(18) 0.3153(3)
H9 H -0.11550 0.23890 0.25860
C12 C 0.0550(5) 0.31344(18) 0.4019(3)
H10 H -0.08040 0.34740 0.40710
O2? O -0.015(3) 0.3914(15) 0.6080(18)
#END
