
#######################################################################
#
#                 Cambridge Crystallographic Data Centre
#                                CCDC
#
#######################################################################
#
# If this CIF has been generated from an entry in the Cambridge
# Structural Database, then it will include bibliographic, chemical,
# crystal, experimental, refinement or atomic coordinate data resulting
# from the CCDC's data processing and validation procedures.
#
#######################################################################

data_CSD_CIF_TIJGIE
_audit_creation_date 2013-10-08
_audit_creation_method CSD-ConQuest-V1
_database_code_CSD TIJGIE
_database_code_depnum_ccdc_archive 'CCDC 773942'
_chemical_formula_sum 'C15 H23 N1 O5'
_chemical_formula_moiety
;
C15 H23 N1 O5
;
_journal_coden_Cambridge 35
_journal_volume 77
_journal_year 2012
_journal_page_first 9659
_journal_name_full 'J.Org.Chem. '
loop_
_publ_author_name
"A.Chatzimpaloglou"
"M.P.Yavropoulou"
"K.E.Rooij"
"R.Biedermann"
"U.Mueller"
"S.Kaskel"
"V.Sarli"
_chemical_name_systematic
;
3,4-Dihydroxy-6-methoxy-3-methyl-7-methylene-2-pentyl-3,4,6,7-tetrahydropyrano
[2,3-c]pyrrol-5(2H)-one
;
_chemical_name_common
;
(RRR)-Phaeosphaeride A
;
_cell_volume    834.737
_exptl_crystal_colour 'colorless'
_exptl_crystal_density_diffrn 1.183
_exptl_crystal_description 'needle'
_diffrn_ambient_temperature 293
_diffrn_radiation_probe x-ray
_diffrn_source synchrotron
#These two values have been output from a single CSD field.
_refine_ls_R_factor_gt 0.0778
_refine_ls_wR_factor_gt 0.0778
loop_
_citation_database_id_CSD
_citation_special_details
BUTBAV "is a stereoisomer of this entry"
_symmetry_cell_setting monoclinic
_symmetry_space_group_name_H-M 'P 21'
_symmetry_Int_Tables_number 4
loop_
_symmetry_equiv_pos_site_id
_symmetry_equiv_pos_as_xyz
1 x,y,z
2 -x,1/2+y,-z
_cell_length_a 10.213(2)
_cell_length_b 5.204(1)
_cell_length_c 15.962(3)
_cell_angle_alpha 90
_cell_angle_beta 100.28(3)
_cell_angle_gamma 90
_cell_formula_units_Z 2
loop_
_atom_type_symbol
_atom_type_radius_bond
C 0.68
H 0.23
N 0.68
O 0.68
loop_
_atom_site_label
_atom_site_type_symbol
_atom_site_fract_x
_atom_site_fract_y
_atom_site_fract_z
C1 C 0.7492(4) 0.3704(9) 0.6123(4)
C2 C 0.6238(4) 0.3642(9) 0.6471(4)
C3 C 0.6385(4) 0.1959(10) 0.7107(4)
C4 C 0.7720(5) 0.0807(12) 0.7242(4)
C5 C 0.8249(6) -0.0948(17) 0.7809(5)
H1 H 0.90910 -0.16070 0.77950
H2 H 0.77760 -0.15150 0.82210
C6 C 0.4949(3) 0.4920(8) 0.6155(4)
H3 H 0.49980 0.67280 0.63280
C7 C 0.3857(4) 0.3567(7) 0.6524(4)
C8 C 0.4328(5) 0.3075(11) 0.7466(5)
H4 H 0.45930 0.47240 0.77410
C9 C 0.2593(4) 0.5189(9) 0.6360(4)
H5 H 0.24280 0.57570 0.57780
H6 H 0.27000 0.66540 0.67310
H7 H 0.18540 0.41760 0.64670
C10 C 0.3334(6) 0.1816(15) 0.7937(5)
H8 H 0.25300 0.28460 0.78400
H9 H 0.31070 0.01510 0.76780
C11 C 0.9885(5) -0.0055(12) 0.5974(5)
H10 H 0.94760 -0.16730 0.60600
H11 H 1.08280 -0.02880 0.60230
H12 H 0.95230 0.05900 0.54170
N1 N 0.8274(3) 0.1870(11) 0.6588(4)
O1 O 0.7798(3) 0.4920(7) 0.5550(3)
O2 O 0.9633(2) 0.1697(7) 0.6589(3)
O3 O 0.5507(3) 0.1369(8) 0.7595(2)
O4 O 0.4621(2) 0.4747(5) 0.5256(3)
H13 H 0.49150 0.60060 0.50420
O5 O 0.3620(3) 0.1127(5) 0.6147(2)
H14 H 0.33230 0.12920 0.56380
C12 C 0.3715(9) 0.143(3) 0.8845(6)
H15 H 0.39790 0.30620 0.91200
H16 H 0.44690 0.02730 0.89590
C13 C 0.2567(13) 0.033(4) 0.9197(7)
H17 H 0.191(8) 0.156(17) 0.9145(10)
H18 H 0.223(4) -0.103(18) 0.885(4)
C14 C 0.2785(16) -0.053(6) 1.0031(14)
H19 H 0.31080 0.08740 1.04100
H20 H 0.34590 -0.18680 1.01030
C15 C 0.158(3) -0.153(6) 1.0244(17)
H21 H 0.17330 -0.20340 1.08320
H22 H 0.12910 -0.29890 0.98930
H23 H 0.09030 -0.02240 1.01520
#END
