
#######################################################################
#
#                 Cambridge Crystallographic Data Centre
#                                CCDC
#
#######################################################################
#
# If this CIF has been generated from an entry in the Cambridge
# Structural Database, then it will include bibliographic, chemical,
# crystal, experimental, refinement or atomic coordinate data resulting
# from the CCDC's data processing and validation procedures.
#
#######################################################################

data_CSD_CIF_TIJJOM
_audit_creation_date 2008-01-10
_audit_creation_method CSD-ConQuest-V1
_database_code_CSD TIJJOM
_database_code_depnum_ccdc_archive 'CCDC 625162'
_chemical_formula_sum 'C26 H19 N1 O2'
_chemical_formula_moiety
;
C26 H19 N1 O2
;
_journal_coden_Cambridge 1291
_journal_year 2007
_journal_page_first 4032
_journal_name_full 'Eur.J.Org.Chem. '
loop_
_publ_author_name
"A.Perzyna"
"C.Dal Zotto"
"J.-O.Durand"
"M.Granier"
"M.Smietana"
"O.Melnyk"
"I.G.Stara"
"I.Stary"
"B.Klepetarova"
"D.Saman"
_chemical_name_systematic
;
12-nitro-5,6,9,10-tetrahydrohexahelicene
;
_cell_volume   1910.869
_exptl_crystal_colour 'yellow'
_exptl_crystal_density_diffrn 1.312
_diffrn_ambient_temperature 295
#These two values have been output from a single CSD field.
_refine_ls_R_factor_gt 0.0312
_refine_ls_wR_factor_gt 0.0312
_symmetry_cell_setting triclinic
_symmetry_space_group_name_H-M 'P -1'
_symmetry_Int_Tables_number 2
loop_
_symmetry_equiv_pos_site_id
_symmetry_equiv_pos_as_xyz
1 x,y,z
2 -x,-y,-z
_cell_length_a 8.0168(10)
_cell_length_b 9.2014(12)
_cell_length_c 26.3482(18)
_cell_angle_alpha 79.947(8)
_cell_angle_beta 89.986(8)
_cell_angle_gamma 86.899(10)
_cell_formula_units_Z 4
loop_
_atom_type_symbol
_atom_type_radius_bond
C 0.68
H 0.23
N 0.68
O 0.68
loop_
_atom_site_label
_atom_site_type_symbol
_atom_site_fract_x
_atom_site_fract_y
_atom_site_fract_z
C1 C 0.7114(4) 0.3954(4) 0.08559(13)
C2 C 0.6877(4) 0.3793(4) 0.14237(13)
C3 C 0.6272(4) 0.4993(4) 0.16686(13)
C4 C 0.6344(4) 0.4832(4) 0.22189(13)
C5 C 0.6897(5) 0.3423(5) 0.24901(14)
C6 C 0.7206(5) 0.2226(5) 0.22576(16)
C7 C 0.7165(5) 0.2410(4) 0.17147(15)
C8 C 0.7456(6) 0.1085(5) 0.14556(19)
C9 C 0.6331(5) 0.1334(5) 0.09694(18)
C10 C 0.6730(4) 0.2748(4) 0.06280(15)
C11 C 0.6795(5) 0.2883(5) 0.00914(16)
C12 C 0.7180(5) 0.4191(5) -0.02066(15)
C13 C 0.7654(4) 0.5373(5) 0.00077(13)
C14 C 0.7759(4) 0.5203(4) 0.05499(12)
C15 C 0.8669(4) 0.6339(4) 0.07531(12)
C16 C 0.8658(4) 0.7768(4) 0.04752(14)
C17 C 0.7696(5) 0.8065(5) -0.00330(15)
C18 C 0.8099(5) 0.6798(5) -0.03169(14)
C19 C 0.9555(5) 0.8832(5) 0.06463(16)
C20 C 1.0532(5) 0.8467(5) 0.10936(17)
C21 C 1.0598(5) 0.7045(5) 0.13608(15)
C22 C 0.9685(4) 0.5978(4) 0.11957(13)
N1 N 0.7197(5) 0.3167(7) 0.30564(15)
O1 O 0.7710(6) 0.4176(6) 0.32450(15)
O2 O 0.6987(8) 0.1943(7) 0.32973(16)
C23 C 0.5731(5) 0.6019(5) 0.24535(16)
C24 C 0.5085(5) 0.7301(5) 0.21705(17)
C25 C 0.4976(5) 0.7456(4) 0.16293(16)
C26 C 0.5562(4) 0.6330(4) 0.13935(14)
C27 C 0.1871(5) 0.1539(7) 0.35500(17)
C28 C 0.1254(4) 0.0381(6) 0.33081(14)
C29 C 0.1370(5) 0.0485(5) 0.27619(14)
C30 C 0.1970(5) 0.1800(5) 0.24881(15)
C31 C 0.2279(6) 0.2998(6) 0.27105(18)
C32 C 0.2197(6) 0.2873(7) 0.3250(2)
C33 C 0.2465(8) 0.4199(8) 0.3501(2)
N2 N 0.2303(5) 0.1980(6) 0.19309(15)
O3 O 0.2723(6) 0.0855(5) 0.17516(14)
O4 O 0.2340(7) 0.3221(6) 0.16836(15)
C34 C 0.0757(5) -0.0670(6) 0.25346(16)
C35 C 0.0080(6) -0.1852(7) 0.2823(2)
C36 C -0.0062(6) -0.1936(7) 0.33621(19)
C37 C 0.0532(5) -0.0862(7) 0.35912(17)
C38 C 0.2097(5) 0.1389(8) 0.41151(17)
C39 C 0.2727(5) 0.0093(9) 0.44321(17)
C40 C 0.3655(5) -0.1151(8) 0.42455(16)
C41 C 0.4652(5) -0.0910(7) 0.38042(15)
C42 C 0.5554(5) -0.2075(7) 0.36535(17)
C43 C 0.5494(7) -0.3486(8) 0.3923(2)
C44 C 0.4535(7) -0.3713(9) 0.4368(2)
C45 C 0.3637(6) -0.2595(10) 0.45293(19)
C46 C 0.2646(5) -0.0007(10) 0.49751(17)
C47 C 0.2179(7) 0.1249(12) 0.5173(2)
C48 C 0.1793(6) 0.2575(12) 0.4868(3)
C49 C 0.1726(6) 0.2663(10) 0.4332(2)
C50 C 0.3078(7) -0.1514(11) 0.5309(2)
C51 C 0.2699(6) -0.2764(11) 0.5038(2)
C52 C 0.1331(7) 0.4083(10) 0.3976(3)
H1 H 0.74410 0.12710 0.24630
H2 H 0.86460 0.10170 0.13550
H3 H 0.71700 0.01670 0.16940
H4 H 0.65530 0.04890 0.07890
H5 H 0.51400 0.13880 0.10800
H6 H 0.66260 0.20460 -0.00670
H7 H 0.71180 0.43010 -0.05690
H8 H 0.79910 0.90210 -0.02440
H9 H 0.64930 0.80910 0.00460
H10 H 0.93080 0.67730 -0.04000
H11 H 0.74370 0.69400 -0.06390
H12 H 0.95050 0.98260 0.04610
H13 H 1.11190 0.92080 0.12150
H14 H 1.13030 0.67740 0.16600
H15 H 0.97600 0.49780 0.13820
H16 H 0.57750 0.59000 0.28230
H17 H 0.47260 0.80890 0.23370
H18 H 0.45090 0.83620 0.14300
H19 H 0.54990 0.64350 0.10270
H20 H 0.25370 0.39120 0.25010
H21 H 0.36250 0.41520 0.36240
H22 H 0.22380 0.51120 0.32530
H23 H 0.08620 -0.05890 0.21670
H24 H -0.02730 -0.26250 0.26640
H25 H -0.05730 -0.27490 0.35630
H26 H 0.04770 -0.09410 0.39530
H27 H 0.47280 0.00550 0.36190
H28 H 0.62570 -0.18920 0.33610
H29 H 0.60820 -0.42760 0.38060
H30 H 0.44750 -0.46660 0.45600
H31 H 0.21190 0.11870 0.55290
H32 H 0.16140 0.34280 0.50220
H33 H 0.24320 -0.15830 0.56250
H34 H 0.42770 -0.15750 0.53950
H35 H 0.29890 -0.37340 0.52530
H36 H 0.15140 -0.26990 0.49550
H37 H 0.14970 0.49290 0.41510
H38 H 0.01550 0.41220 0.38490
#END
