
#######################################################################
#
#                 Cambridge Crystallographic Data Centre
#                                CCDC
#
#######################################################################
#
# If this CIF has been generated from an entry in the Cambridge
# Structural Database, then it will include bibliographic, chemical,
# crystal, experimental, refinement or atomic coordinate data resulting
# from the CCDC's data processing and validation procedures.
#
#######################################################################

data_CSD_CIF_TIJJED
_audit_creation_date 2013-10-09
_audit_creation_method CSD-ConQuest-V1
_database_code_CSD TIJJED
_database_code_depnum_ccdc_archive 'CCDC 930725'
_chemical_formula_sum 'C26 H38 N4 O6'
_chemical_formula_moiety
;
C26 H38 N4 O6
;
_journal_coden_Cambridge 222
_journal_volume 42
_journal_year 2013
_journal_page_first 16264
_journal_name_full 'Dalton Trans. '
loop_
_publ_author_name
"V.Kumar"
"A.Kalita"
"B.Mondal"
_chemical_name_systematic
;
2,2'-(((2-(Dimethylamino)ethyl)imino)bis(methylene))bis(6-t-butyl-4-nitropheno
l)
;
_cell_volume   2813.942
_exptl_crystal_colour 'colorless'
_exptl_crystal_density_diffrn 1.186
_exptl_crystal_description 'plate'
_diffrn_ambient_temperature 293
#These two values have been output from a single CSD field.
_refine_ls_R_factor_gt 0.0895
_refine_ls_wR_factor_gt 0.0895
_symmetry_cell_setting monoclinic
_symmetry_space_group_name_H-M 'P 21/c'
_symmetry_Int_Tables_number 14
loop_
_symmetry_equiv_pos_site_id
_symmetry_equiv_pos_as_xyz
1 x,y,z
2 -x,1/2+y,1/2-z
3 -x,-y,-z
4 x,-1/2-y,-1/2+z
_cell_length_a 15.5224(11)
_cell_length_b 9.7342(9)
_cell_length_c 19.2871(12)
_cell_angle_alpha 90
_cell_angle_beta 105.076(7)
_cell_angle_gamma 90
_cell_formula_units_Z 4
loop_
_atom_type_symbol
_atom_type_radius_bond
C 0.68
H 0.23
N 0.68
O 0.68
loop_
_atom_site_label
_atom_site_type_symbol
_atom_site_fract_x
_atom_site_fract_y
_atom_site_fract_z
N1 N 0.1543(2) 0.8236(4) 0.94543(14)
N2 N 0.0969(3) 0.5277(4) 0.67579(17)
N3 N -0.0838(3) 0.6578(4) 1.1289(2)
N4 N 0.3243(2) 0.9433(4) 1.0111(2)
O1 O 0.21558(17) 0.5989(3) 1.02510(13)
H1 H 0.21670 0.66350 0.99810
O2 O 0.33637(17) 0.7465(4) 0.91556(14)
H2 H 0.31210 0.80580 0.93400
O3 O 0.1239(2) 0.4377(4) 0.64240(15)
O4 O 0.0197(2) 0.5699(4) 0.65958(15)
O5 O -0.0751(2) 0.6271(4) 1.19257(18)
O6 O -0.1503(2) 0.7117(4) 1.09074(18)
C1 C 0.0672(2) 0.6805(4) 1.00911(17)
C2 C 0.1414(3) 0.5423(4) 1.11512(18)
C3 C 0.1417(2) 0.6082(4) 1.04990(19)
C4 C -0.0069(2) 0.6943(4) 1.03451(18)
H3 H -0.05620 0.74320 1.00860
C5 C 0.1598(3) 0.5890(5) 0.73798(18)
C6 C 0.0649(3) 0.5605(4) 1.13899(19)
H4 H 0.06210 0.52210 1.18250
C7 C -0.0069(2) 0.6346(4) 1.0992(2)
C8 C 0.2761(3) 0.6932(5) 0.85675(19)
C9 C 0.1314(2) 0.6929(4) 0.77406(19)
H5 H 0.07340 0.72600 0.75830
C10 C 0.1893(3) 0.7481(5) 0.83404(19)
C11 C 0.2214(3) 0.4659(5) 1.15979(19)
C12 C 0.3063(3) 0.5866(5) 0.8193(2)
C13 C 0.1613(3) 0.8643(5) 0.87325(18)
H6 H 0.20430 0.93830 0.87800
H7 H 0.10400 0.89850 0.84550
C14 C 0.0707(2) 0.7430(5) 0.93865(17)
H8 H 0.06730 0.67060 0.90350
H9 H 0.01950 0.80280 0.92160
C15 C 0.2443(3) 0.5359(5) 0.75915(18)
H10 H 0.26040 0.46470 0.73290
C16 C 0.1609(3) 0.9423(5) 0.99363(19)
H11 H 0.11750 0.93300 1.02160
H12 H 0.14740 1.02580 0.96540
C17 C 0.2492(3) 0.3477(5) 1.1149(2)
H13 H 0.20020 0.28520 1.09890
H14 H 0.29950 0.29930 1.14420
H15 H 0.26500 0.38610 1.07400
C18 C 0.2523(3) 0.9523(7) 1.0430(3)
H16 H 0.25690 1.03910 1.06840
H17 H 0.25900 0.87980 1.07850
C19 C 0.3004(3) 0.5661(5) 1.1862(2)
H18 H 0.31670 0.60490 1.14560
H19 H 0.35050 0.51730 1.21560
H20 H 0.28330 0.63830 1.21380
C20 C 0.2015(3) 0.3951(5) 1.2261(2)
H21 H 0.18680 0.46350 1.25700
H22 H 0.25320 0.34490 1.25190
H23 H 0.15220 0.33310 1.21040
C21 C 0.3451(4) 1.0757(7) 0.9853(3)
H24 H 0.29100 1.11960 0.95920
H25 H 0.38380 1.06330 0.95430
H26 H 0.37430 1.13210 1.02540
C22 C 0.3996(3) 0.5237(6) 0.8450(3)
C23 C 0.4160(3) 0.4133(7) 0.7940(3)
H27 H 0.37700 0.33680 0.79430
H28 H 0.47690 0.38320 0.80940
H29 H 0.40440 0.45010 0.74630
C24 C 0.4070(4) 0.4582(7) 0.9193(3)
H30 H 0.36630 0.38230 0.91420
H31 H 0.39250 0.52540 0.95090
H32 H 0.46690 0.42600 0.93910
C25 C 0.4711(3) 0.6357(7) 0.8512(4)
H33 H 0.52920 0.59600 0.86960
H34 H 0.46190 0.70640 0.88320
H35 H 0.46680 0.67450 0.80470
C26 C 0.4046(4) 0.8949(8) 1.0621(3)
H36 H 0.42420 0.96230 1.09920
H37 H 0.45050 0.88000 1.03790
H38 H 0.39200 0.81020 1.08310
#END
