
#######################################################################
#
#                 Cambridge Crystallographic Data Centre
#                                CCDC
#
#######################################################################
#
# If this CIF has been generated from an entry in the Cambridge
# Structural Database, then it will include bibliographic, chemical,
# crystal, experimental, refinement or atomic coordinate data resulting
# from the CCDC's data processing and validation procedures.
#
#######################################################################

data_CSD_CIF_TIJKED
_audit_creation_date 2008-01-10
_audit_creation_method CSD-ConQuest-V1
_database_code_CSD TIJKED
_database_code_depnum_ccdc_archive 'CCDC 633371'
_chemical_formula_sum 'C14 H16 N2 O4'
_chemical_formula_moiety
;
C14 H16 N2 O4
;
_journal_coden_Cambridge 1137
_journal_volume 20
_journal_year 2007
_journal_page_first 491
_journal_name_full 'J.Phys.Org.Chem. '
loop_
_publ_author_name
"J.R.B.Gomes"
"E.A.Sousa"
"J.M.Gonclaves"
"L.Gales"
"A.M.Damas"
"P.Gomes"
"S.Pandey"
"W.E.Acree Junior"
"M.D.M.C.R.da Silva"
_chemical_name_systematic
;
2-t-butoxycarbonyl-3-methylquinoxaline-1,4-dioxide
;
_cell_volume    690.655
_exptl_crystal_colour 'yellow'
_exptl_crystal_density_diffrn 1.329
_exptl_crystal_description 'parallelepiped'
_diffrn_ambient_temperature 293
#These two values have been output from a single CSD field.
_refine_ls_R_factor_gt 0.0563
_refine_ls_wR_factor_gt 0.0563
_symmetry_cell_setting monoclinic
_symmetry_space_group_name_H-M 'P 21'
_symmetry_Int_Tables_number 4
loop_
_symmetry_equiv_pos_site_id
_symmetry_equiv_pos_as_xyz
1 x,y,z
2 -x,1/2+y,-z
_cell_length_a 5.9167(18)
_cell_length_b 9.708(5)
_cell_length_c 12.051(4)
_cell_angle_alpha 90
_cell_angle_beta 93.83(4)
_cell_angle_gamma 90
_cell_formula_units_Z 2
loop_
_atom_type_symbol
_atom_type_radius_bond
C 0.68
H 0.23
N 0.68
O 0.68
loop_
_atom_site_label
_atom_site_type_symbol
_atom_site_fract_x
_atom_site_fract_y
_atom_site_fract_z
N1 N 0.1765(4) 0.3544(2) 0.23581(18)
C1 C 0.0829(4) 0.2397(3) 0.1813(2)
C2 C -0.1286(4) 0.2518(3) 0.1207(2)
O1 O 0.3695(3) 0.3458(2) 0.29109(18)
N2 N -0.2373(3) 0.3789(3) 0.11283(19)
O2 O -0.4248(3) 0.3906(3) 0.0528(2)
O3 O 0.1545(3) 0.5751(2) 0.40068(15)
C3 C -0.2265(6) 0.1357(4) 0.0695(3)
C4 C 0.1673(4) 0.5929(3) 0.2925(2)
C5 C -0.1437(4) 0.4886(3) 0.1658(2)
C6 C 0.0608(4) 0.4724(3) 0.2299(2)
O4 O 0.2439(4) 0.6890(3) 0.2464(2)
C7 C -0.2635(6) 0.6219(5) 0.1517(3)
H1 H -0.17820 0.69240 0.19160
H2 H -0.41080 0.61460 0.18020
H3 H -0.27940 0.64520 0.07410
C8 C 0.0916(7) 0.0005(4) 0.1373(3)
C9 C 0.1922(5) 0.1130(3) 0.1877(3)
C10 C -0.1200(7) 0.0127(4) 0.0779(3)
C11 C 0.5191(5) 0.6788(5) 0.4620(3)
H4 H 0.58500 0.58850 0.46840
H5 H 0.59390 0.73880 0.51620
H6 H 0.53670 0.71440 0.38880
C12 C 0.2703(4) 0.6705(3) 0.4821(2)
C13 C 0.1562(8) 0.8076(5) 0.4748(5)
H7 H 0.18170 0.84950 0.40450
H8 H 0.21710 0.86560 0.53400
H9 H -0.00350 0.79590 0.48100
C14 C 0.2346(8) 0.6011(6) 0.5918(3)
H10 H 0.31140 0.51390 0.59490
H11 H 0.07560 0.58680 0.59860
H12 H 0.29420 0.65850 0.65170
H13 H -0.185(7) -0.065(5) 0.042(4)
H14 H 0.153(6) -0.086(4) 0.143(3)
H15 H 0.321(6) 0.103(3) 0.227(3)
H16 H -0.370(8) 0.150(6) 0.017(4)
#END
