
#######################################################################
#
#                 Cambridge Crystallographic Data Centre
#                                CCDC
#
#######################################################################
#
# If this CIF has been generated from an entry in the Cambridge
# Structural Database, then it will include bibliographic, chemical,
# crystal, experimental, refinement or atomic coordinate data resulting
# from the CCDC's data processing and validation procedures.
#
#######################################################################

data_CSD_CIF_TIJKEC
_audit_creation_date 2002-01-10
_audit_creation_method CSD-ConQuest-V1
_database_code_CSD TIJKEC
_database_code_depnum_ccdc_archive 'CCDC 174835'
_chemical_formula_sum 'C2 H7 N3 O2'
_chemical_formula_moiety
;
C2 H7 N3 O2
;
_journal_coeditor_code "IUCr AV1081"
_journal_coden_Cambridge 591
_journal_volume 57
_journal_year 2001
_journal_page_first 1192
_journal_name_full 'Acta Crystallogr.,Sect.C:Cryst.Struct.Commun. '
loop_
_publ_author_name
"A.D.Vasiliev"
"A.M.Astachov"
"Yu.V.Kekin"
"L.A.Kruglyakova"
"R.S.Stepanov"
_chemical_name_systematic
;
1-Amino-2-nitraminoethane
;
_cell_volume    223.358
_exptl_crystal_colour 'colorless'
_exptl_crystal_density_diffrn 1.563
_exptl_special_details
;
potential biological activity

;
_diffrn_ambient_temperature 293
#These two values have been output from a single CSD field.
_refine_ls_R_factor_gt 0.029
_refine_ls_wR_factor_gt 0.029
_symmetry_cell_setting triclinic
_symmetry_space_group_name_H-M 'P -1'
_symmetry_Int_Tables_number 2
loop_
_symmetry_equiv_pos_site_id
_symmetry_equiv_pos_as_xyz
1 x,y,z
2 -x,-y,-z
_cell_length_a 4.3449(2)
_cell_length_b 6.2955(3)
_cell_length_c 8.5432(5)
_cell_angle_alpha 105.240(5)
_cell_angle_beta 92.743(4)
_cell_angle_gamma 96.356(4)
_cell_formula_units_Z 2
loop_
_atom_type_symbol
_atom_type_radius_bond
C 0.68
H 0.23
N 0.68
O 0.68
loop_
_atom_site_label
_atom_site_type_symbol
_atom_site_fract_x
_atom_site_fract_y
_atom_site_fract_z
N1 N 0.0237(2) 0.32208(17) 0.21151(12)
O1 O -0.1902(2) 0.21586(15) 0.09892(11)
O2 O 0.0966(2) 0.23165(16) 0.32042(12)
N2 N 0.1460(2) 0.51362(17) 0.20486(12)
C1 C 0.3897(3) 0.6137(2) 0.33447(15)
H1 H 0.54170 0.51210 0.33520
H2 H 0.30150 0.64570 0.43910
C2 C 0.5438(3) 0.8261(2) 0.30539(16)
H3 H 0.39490 0.93200 0.31610
H4 H 0.71450 0.88970 0.38770
N3 N 0.6629(2) 0.78806(17) 0.14224(13)
H5 H 0.81180 0.68990 0.13280
H6 H 0.75330 0.92300 0.12820
H7 H 0.49890 0.72720 0.06250
#END
