
#######################################################################
#
#                 Cambridge Crystallographic Data Centre
#                                CCDC
#
#######################################################################
#
# If this CIF has been generated from an entry in the Cambridge
# Structural Database, then it will include bibliographic, chemical,
# crystal, experimental, refinement or atomic coordinate data resulting
# from the CCDC's data processing and validation procedures.
#
#######################################################################

data_CSD_CIF_TIJLIH
_audit_creation_date 2002-01-10
_audit_creation_method CSD-ConQuest-V1
_database_code_CSD TIJLIH
_database_code_depnum_ccdc_archive 'CCDC 174841'
_chemical_formula_sum 'C7 H5 N5 O3'
_chemical_formula_moiety
;
C7 H5 N5 O3
;
_journal_coeditor_code "IUCr AV1080"
_journal_coden_Cambridge 591
_journal_volume 57
_journal_year 2001
_journal_page_first 1204
_journal_name_full 'Acta Crystallogr.,Sect.C:Cryst.Struct.Commun. '
loop_
_publ_author_name
"A.S.Lyakhov"
"P.N.Gaponik"
"S.V.Voitekhovich"
"L.S.Ivashkevich"
"A.A.Kulak"
_chemical_name_systematic
;
4-Nitro-2-(1H-tetrazol-1-yl)phenol
;
_chemical_name_common
;
1-(2-hydroxy-5-nitrophenyl)-1H-tetrazole
;
_cell_volume    864.265
_exptl_crystal_colour 'colorless'
_exptl_crystal_density_diffrn 1.592
_exptl_crystal_description 'prism'
_exptl_crystal_preparation 'acetonitrile'
_diffrn_ambient_temperature 293
#These two values have been output from a single CSD field.
_refine_ls_R_factor_gt 0.0451
_refine_ls_wR_factor_gt 0.0451
_symmetry_cell_setting triclinic
_symmetry_space_group_name_H-M 'P -1'
_symmetry_Int_Tables_number 2
loop_
_symmetry_equiv_pos_site_id
_symmetry_equiv_pos_as_xyz
1 x,y,z
2 -x,-y,-z
_cell_length_a 7.116(2)
_cell_length_b 9.452(2)
_cell_length_c 13.895(3)
_cell_angle_alpha 86.43(2)
_cell_angle_beta 84.17(2)
_cell_angle_gamma 68.42(2)
_cell_formula_units_Z 4
loop_
_atom_type_symbol
_atom_type_radius_bond
C 0.68
H 0.23
N 0.68
O 0.68
loop_
_atom_site_label
_atom_site_type_symbol
_atom_site_fract_x
_atom_site_fract_y
_atom_site_fract_z
N1 N -0.23274(18) 0.27927(11) 0.65678(7)
N2 N -0.1978(3) 0.13495(15) 0.6340(1)
N3 N -0.1855(4) 0.05921(16) 0.71514(11)
N4 N -0.2115(2) 0.15010(14) 0.79045(9)
C1 C -0.2415(3) 0.28493(17) 0.75238(9)
H1 H -0.263(3) 0.370(3) 0.7874(17)
C2 C -0.2466(2) 0.39313(13) 0.58251(8)
C3 C -0.3695(2) 0.54479(13) 0.60096(8)
C4 C -0.3799(2) 0.65539(14) 0.52821(9)
H2 H -0.469(3) 0.760(2) 0.5431(14)
C5 C -0.2735(2) 0.61563(15) 0.43936(9)
H3 H -0.279(3) 0.694(2) 0.3885(12)
C6 C -0.1573(2) 0.46415(14) 0.42333(8)
C7 C -0.1411(2) 0.35108(14) 0.49369(8)
H4 H -0.052(3) 0.245(2) 0.4815(12)
N5 N -0.0407(2) 0.42126(14) 0.33021(8)
O1 O -0.47239(18) 0.57488(12) 0.68793(7)
H5 H -0.527(4) 0.677(3) 0.6941(17)
O2 O -0.0357(2) 0.52364(14) 0.27241(7)
O3 O 0.0505(3) 0.28802(15) 0.31489(9)
N6 N 0.29712(18) 0.04553(11) 0.83583(7)
N7 N 0.3183(3) 0.10098(16) 0.74517(9)
N8 N 0.3500(4) -0.00811(17) 0.68734(10)
N9 N 0.3511(2) -0.13475(14) 0.73721(9)
C8 C 0.3167(3) -0.09933(15) 0.82844(10)
H6 H 0.301(3) -0.168(2) 0.8801(14)
C9 C 0.26941(19) 0.13924(13) 0.91701(8)
C10 C 0.2350(2) 0.08549(13) 1.01118(8)
C11 C 0.2084(2) 0.18041(15) 1.08861(9)
H7 H 0.183(3) 0.1464(19) 1.1551(12)
C12 C 0.2206(2) 0.32217(15) 1.07342(9)
H8 H 0.204(3) 0.387(2) 1.1268(14)
C13 C 0.25793(19) 0.37022(13) 0.97979(9)
C14 C 0.2813(2) 0.28149(13) 0.90095(8)
H9 H 0.301(2) 0.3158(19) 0.8370(12)
N10 N 0.27468(19) 0.51941(12) 0.96311(9)
O4 O 0.23081(17) -0.05484(10) 1.02257(7)
H10 H 0.222(3) -0.078(3) 1.0888(17)
O5 O 0.2482(2) 0.59981(13) 1.03256(9)
O6 O 0.3140(2) 0.55774(13) 0.88040(8)
#END
