
#######################################################################
#
#                 Cambridge Crystallographic Data Centre
#                                CCDC
#
#######################################################################
#
# If this CIF has been generated from an entry in the Cambridge
# Structural Database, then it will include bibliographic, chemical,
# crystal, experimental, refinement or atomic coordinate data resulting
# from the CCDC's data processing and validation procedures.
#
#######################################################################

data_CSD_CIF_TIJNUW
_audit_creation_date 2008-01-10
_audit_creation_method CSD-ConQuest-V1
_database_code_CSD TIJNUW
_database_code_depnum_ccdc_archive 'CCDC 213691'
_chemical_formula_sum 'C24 H14 N6 O7'
_chemical_formula_moiety
;
C24 H14 N6 O7
;
_journal_coden_Cambridge 1137
_journal_volume 17
_journal_year 2004
_journal_page_first 865
_journal_name_full 'J.Phys.Org.Chem. '
loop_
_publ_author_name
"P.Naumov"
"Y.Ohashi"
_chemical_name_systematic
;
trans-bis(5-Nitro-2-(pyridine-2-carbonyl)-phenyl)diazene N-oxide
;
_cell_volume    520.775
_exptl_crystal_colour 'orange-red'
_exptl_crystal_density_diffrn 1.589
_exptl_special_details
;
irradiated product

;
_exptl_crystal_description 'prism'
_diffrn_ambient_temperature 95
_refine_special_details
;
The oxygen atom of the N-oxide moiety is equally disordered over two sites by 
symmetry.
;
#These two values have been output from a single CSD field.
_refine_ls_R_factor_gt 0.063
_refine_ls_wR_factor_gt 0.063
_symmetry_cell_setting triclinic
_symmetry_space_group_name_H-M 'P -1'
_symmetry_Int_Tables_number 2
loop_
_symmetry_equiv_pos_site_id
_symmetry_equiv_pos_as_xyz
1 x,y,z
2 -x,-y,-z
_cell_length_a 6.1113(4)
_cell_length_b 9.806
_cell_length_c 10.1754(7)
_cell_angle_alpha 63.007(2)
_cell_angle_beta 87.333(2)
_cell_angle_gamma 74.221(1)
_cell_formula_units_Z 1
loop_
_atom_type_symbol
_atom_type_radius_bond
C 0.68
H 0.23
N 0.68
O 0.68
loop_
_atom_site_label
_atom_site_type_symbol
_atom_site_fract_x
_atom_site_fract_y
_atom_site_fract_z
O1 O 1.2546(3) 0.7558(2) 0.4884(2)
O2 O 1.2401(19) 0.9259(12) 0.1003(10)
O3 O 0.4984(4) 0.6594(3) 0.0442(2)
O4 O 0.3835(3) 0.5632(3) 0.2643(2)
N1 N 0.9280(4) 1.1338(3) 0.2356(3)
N2 N 1.0437(4) 0.9552(3) 0.0644(3)
N3 N 0.5019(4) 0.6354(3) 0.1736(3)
C1 C 0.9213(5) 1.2886(4) 0.1796(3)
H1 H 0.78390 1.36720 0.12650
C2 C 1.1052(5) 1.3388(4) 0.1956(3)
H2 H 1.09300 1.44930 0.15410
C3 C 1.3059(5) 1.2267(4) 0.2723(3)
H3 H 1.43450 1.25860 0.28330
C4 C 1.3167(5) 1.0670(4) 0.3329(3)
H4 H 1.45170 0.98650 0.38740
C5 C 1.1230(5) 1.0278(3) 0.3114(3)
C6 C 1.1250(5) 0.8563(3) 0.3791(3)
C7 C 0.9592(5) 0.8066(3) 0.3169(3)
C8 C 0.9124(5) 0.8578(3) 0.1653(3)
C9 C 0.7623(5) 0.8038(3) 0.1162(3)
H5 H 0.73070 0.83850 0.01370
C10 C 0.6593(5) 0.6966(3) 0.2232(3)
C11 C 0.7026(5) 0.6421(3) 0.3728(3)
H6 H 0.63070 0.56800 0.44270
C12 C 0.8531(5) 0.6979(3) 0.4189(3)
H7 H 0.88480 0.66150 0.52180
O1A O 0.7454(3) 1.2442(2) -0.4884(2)
O2A O 0.7599(19) 1.0741(12) -0.1003(10)
O3A O 1.5016(4) 1.3406(3) -0.0442(2)
O4A O 1.6165(3) 1.4368(3) -0.2643(2)
N1A N 1.0720(4) 0.8662(3) -0.2356(3)
N2A N 0.9563(4) 1.0448(3) -0.0644(3)
N3A N 1.4981(4) 1.3646(3) -0.1736(3)
C1A C 1.0787(5) 0.7114(4) -0.1796(3)
H1A H 1.21610 0.63280 -0.12650
C2A C 0.8948(5) 0.6612(4) -0.1956(3)
H2A H 0.90700 0.55070 -0.15410
C3A C 0.6941(5) 0.7733(4) -0.2723(3)
H3A H 0.56550 0.74140 -0.28330
C4A C 0.6833(5) 0.9330(4) -0.3329(3)
H4A H 0.54830 1.01350 -0.38740
C5A C 0.8770(5) 0.9722(3) -0.3114(3)
C6A C 0.8750(5) 1.1437(3) -0.3791(3)
C7A C 1.0408(5) 1.1934(3) -0.3169(3)
C8A C 1.0876(5) 1.1422(3) -0.1653(3)
C9A C 1.2377(5) 1.1962(3) -0.1162(3)
H5A H 1.26930 1.16150 -0.01370
C10A C 1.3407(5) 1.3034(3) -0.2232(3)
C11A C 1.2974(5) 1.3579(3) -0.3728(3)
H6A H 1.36930 1.43200 -0.44270
C12A C 1.1469(5) 1.3021(3) -0.4189(3)
H7A H 1.11520 1.33850 -0.52180
#END
