
#######################################################################
#
#                 Cambridge Crystallographic Data Centre
#                                CCDC
#
#######################################################################
#
# If this CIF has been generated from an entry in the Cambridge
# Structural Database, then it will include bibliographic, chemical,
# crystal, experimental, refinement or atomic coordinate data resulting
# from the CCDC's data processing and validation procedures.
#
#######################################################################

data_CSD_CIF_TIJPIM
_audit_creation_date 2008-01-10
_audit_creation_method CSD-ConQuest-V1
_database_code_CSD TIJPIM
_database_code_depnum_ccdc_archive 'CCDC 213694'
_chemical_formula_sum 'C24 H16 N6 O8'
_chemical_formula_moiety
;
C24 H16 N6 O8
;
_journal_coden_Cambridge 1137
_journal_volume 17
_journal_year 2004
_journal_page_first 865
_journal_name_full 'J.Phys.Org.Chem. '
loop_
_publ_author_name
"P.Naumov"
"Y.Ohashi"
_chemical_name_systematic
;
1,2-bis(2',4'-Dinitrophenyl)-1,2-bis(2'-pyridyl)ethane
;
_cell_volume   1206.348
_exptl_crystal_colour 'colorless'
_exptl_crystal_density_diffrn 1.422
_exptl_special_details
;
irradiated product
gauche conformer

;
_exptl_crystal_description 'plate'
_diffrn_ambient_temperature 296
#These two values have been output from a single CSD field.
_refine_ls_R_factor_gt 0.0681
_refine_ls_wR_factor_gt 0.0681
_symmetry_cell_setting triclinic
_symmetry_space_group_name_H-M 'P -1'
_symmetry_Int_Tables_number 2
loop_
_symmetry_equiv_pos_site_id
_symmetry_equiv_pos_as_xyz
1 x,y,z
2 -x,-y,-z
_cell_length_a 9.1260(4)
_cell_length_b 10.9272(4)
_cell_length_c 13.8930(8)
_cell_angle_alpha 101.437(2)
_cell_angle_beta 107.156(3)
_cell_angle_gamma 106.639(2)
_cell_formula_units_Z 2
loop_
_atom_type_symbol
_atom_type_radius_bond
C 0.68
H 0.23
N 0.68
O 0.68
loop_
_atom_site_label
_atom_site_type_symbol
_atom_site_fract_x
_atom_site_fract_y
_atom_site_fract_z
O1 O 0.4202(7) 0.6263(4) 0.5862(3)
O2 O 0.4256(6) 0.8206(5) 0.6380(3)
O3 O 0.6952(4) 1.0832(3) 1.0050(3)
O4 O 0.7446(5) 0.9866(4) 1.1240(3)
O5 O 0.0600(4) 0.3408(3) 0.9010(2)
O6 O 0.1869(4) 0.5481(3) 1.0105(2)
O7 O -0.1087(5) 0.8159(4) 0.8707(3)
O8 O -0.1799(5) 0.7956(4) 0.7052(3)
N1 N 0.4509(4) 0.3034(3) 0.7841(2)
N2 N 0.4285(5) 0.7198(4) 0.6536(3)
N3 N 0.6892(5) 0.9820(4) 1.0315(4)
N4 N 0.0205(4) 0.2440(3) 0.5323(2)
N5 N 0.1091(4) 0.4651(4) 0.9211(3)
N6 N -0.1191(5) 0.7652(4) 0.7814(4)
C1 C 0.5456(5) 0.2318(4) 0.7901(3)
H1 H 0.55710 0.18940 0.84220
C2 C 0.6280(5) 0.2170(4) 0.7231(3)
H2 H 0.69510 0.16680 0.73080
C3 C 0.6106(5) 0.2764(4) 0.6451(4)
H3 H 0.66380 0.26570 0.59810
C4 C 0.5148(5) 0.3512(4) 0.6370(3)
H4 H 0.50190 0.39380 0.58510
C5 C 0.4364(4) 0.3626(3) 0.7082(3)
C6 C 0.3332(4) 0.4471(3) 0.7044(3)
C7 C 0.4382(4) 0.5907(3) 0.7866(3)
C8 C 0.4722(5) 0.7140(4) 0.7637(3)
C9 C 0.5527(5) 0.8415(4) 0.8427(3)
H5 H 0.56970 0.92000 0.82390
C10 C 0.6049(5) 0.8467(4) 0.9472(3)
C11 C 0.5815(5) 0.7294(4) 0.9752(3)
H6 H 0.62040 0.73290 1.04600
C12 C 0.4972(5) 0.6043(4) 0.8939(3)
H7 H 0.48040 0.52650 0.91370
C13 C -0.0975(5) 0.1301(4) 0.4527(3)
H8 H -0.11370 0.13040 0.38350
C14 C -0.1947(5) 0.0150(4) 0.4655(4)
H9 H -0.27330 -0.05690 0.40760
C15 C -0.1692(5) 0.0125(4) 0.5676(4)
H10 H -0.23040 -0.06120 0.58150
C16 C -0.0465(5) 0.1263(4) 0.6509(3)
H11 H -0.02530 0.12540 0.72040
C17 C 0.0450(4) 0.2412(3) 0.6320(3)
C18 C 0.1695(4) 0.3737(3) 0.7232(3)
C19 C 0.0835(4) 0.4703(3) 0.7382(3)
C20 C 0.0625(4) 0.5171(4) 0.8316(3)
C21 C -0.0003(4) 0.6149(4) 0.8481(3)
H12 H -0.00660 0.64940 0.91290
C22 C -0.0533(5) 0.6594(4) 0.7639(3)
C23 C -0.0432(5) 0.6122(4) 0.6679(3)
H13 H -0.08360 0.64330 0.61190
C24 C 0.0264(4) 0.5201(4) 0.6565(3)
H14 H 0.03630 0.48900 0.59230
H15 H 0.21270 0.35650 0.79890
H16 H 0.29010 0.44780 0.62620
#END
