
#######################################################################
#
#                 Cambridge Crystallographic Data Centre
#                                CCDC
#
#######################################################################
#
# If this CIF has been generated from an entry in the Cambridge
# Structural Database, then it will include bibliographic, chemical,
# crystal, experimental, refinement or atomic coordinate data resulting
# from the CCDC's data processing and validation procedures.
#
#######################################################################

data_CSD_CIF_TIJRUA
_audit_creation_date 2008-01-10
_audit_creation_method CSD-ConQuest-V1
_database_code_CSD TIJRUA
_database_code_depnum_ccdc_archive 'CCDC 633709'
_chemical_formula_sum 'C11 H10 N4 O6'
_chemical_formula_moiety
;
C11 H10 N4 O6
;
_journal_coden_Cambridge 1137
_journal_volume 20
_journal_year 2007
_journal_page_first 716
_journal_name_full 'J.Phys.Org.Chem. '
loop_
_publ_author_name
"J.Marten"
"W.Seichter"
"E.Weber"
"U.Bohme"
_chemical_name_systematic
;
3-(2,6-Dinitrophenylhydrazono)pentane-2,4-dione
;
_chemical_melting_point 426.15
_cell_volume   1250.600
_exptl_crystal_colour 'yellow'
_exptl_crystal_density_diffrn 1.563
_exptl_special_details
;
Melting point range 426.15-428.15K

;
_exptl_crystal_description 'needle'
_diffrn_ambient_temperature 93
#These two values have been output from a single CSD field.
_refine_ls_R_factor_gt 0.0368
_refine_ls_wR_factor_gt 0.0368
_symmetry_cell_setting monoclinic
_symmetry_space_group_name_H-M 'C c'
_symmetry_Int_Tables_number 9
loop_
_symmetry_equiv_pos_site_id
_symmetry_equiv_pos_as_xyz
1 x,y,z
2 x,-y,1/2+z
3 1/2+x,1/2+y,z
4 1/2+x,1/2-y,1/2+z
_cell_length_a 8.2901(5)
_cell_length_b 20.7103(13)
_cell_length_c 7.5758(4)
_cell_angle_alpha 90
_cell_angle_beta 105.953(4)
_cell_angle_gamma 90
_cell_formula_units_Z 4
loop_
_atom_type_symbol
_atom_type_radius_bond
C 0.68
H 0.23
N 0.68
O 0.68
loop_
_atom_site_label
_atom_site_type_symbol
_atom_site_fract_x
_atom_site_fract_y
_atom_site_fract_z
O1 O 0.47600(16) 0.33792(6) 0.1981(2)
O2 O 0.25301(18) 0.50271(7) -0.0546(2)
O3 O -0.26547(16) 0.36296(6) 0.01426(18)
O4 O -0.10268(16) 0.36228(6) 0.29352(18)
O5 O 0.36323(16) 0.19679(7) 0.1787(2)
O6 O 0.25631(19) 0.10134(6) 0.1233(2)
N1 N 0.12227(17) 0.35776(6) 0.07608(19)
N2 N 0.16834(17) 0.29767(7) 0.1300(2)
H1 H 0.263(4) 0.2863(13) 0.147(4)
N3 N -0.16476(17) 0.33718(7) 0.1435(2)
N4 N 0.2424(2) 0.15960(7) 0.1434(2)
C1 C 0.5326(2) 0.45043(9) 0.2138(3)
H2 H 0.64080 0.43720 0.29610
H3 H 0.48020 0.48250 0.27570
H4 H 0.55040 0.46940 0.10210
C2 C 0.4205(2) 0.39279(8) 0.1644(2)
C3 C 0.2362(2) 0.40205(8) 0.0829(2)
C4 C 0.1662(2) 0.46585(8) 0.0046(2)
C5 C -0.0116(2) 0.48153(8) -0.0014(3)
H5 H -0.03300 0.52740 -0.03020
H6 H -0.03020 0.47220 0.11830
H7 H -0.08780 0.45530 -0.09610
C6 C 0.04506(19) 0.25232(7) 0.1287(2)
C7 C -0.12016(19) 0.26956(8) 0.1226(2)
C8 C -0.2479(2) 0.22561(9) 0.1091(3)
H8 H -0.35830 0.24010 0.10210
C9 C -0.2138(3) 0.15987(9) 0.1058(3)
H9 H -0.30080 0.12900 0.09430
C10 C -0.0525(2) 0.14023(8) 0.1194(3)
H10 H -0.02750 0.09540 0.12150
C11 C 0.0752(2) 0.18537(8) 0.1301(2)
#END
