
#######################################################################
#
#                 Cambridge Crystallographic Data Centre
#                                CCDC
#
#######################################################################
#
# If this CIF has been generated from an entry in the Cambridge
# Structural Database, then it will include bibliographic, chemical,
# crystal, experimental, refinement or atomic coordinate data resulting
# from the CCDC's data processing and validation procedures.
#
#######################################################################

data_CSD_CIF_TILBAT
_audit_creation_date 2013-10-09
_audit_creation_method CSD-ConQuest-V1
_database_code_CSD TILBAT
_database_code_depnum_ccdc_archive 'CCDC 933132'
_chemical_formula_sum 'C17 H14 N2 O3'
_chemical_formula_moiety
;
C17 H14 N2 O3
;
_journal_coden_Cambridge 1220
_journal_volume 19
_journal_year 2013
_journal_page_first 10822
_journal_name_full 'Chem.-Eur.J. '
loop_
_publ_author_name
"C.C.J.Loh"
"I.Atodiresei"
"D.Enders"
_chemical_name_systematic
;
(1S,2R,3R)-3-(1H-Indol-3-yl)-2-nitro-2,3-dihydro-1H-inden-1-ol
;
_chemical_melting_point 421.15
_cell_volume   1387.328
_exptl_crystal_density_diffrn 1.409
_diffrn_ambient_temperature 120
#These two values have been output from a single CSD field.
_refine_ls_R_factor_gt 0.0272
_refine_ls_wR_factor_gt 0.0272
_symmetry_cell_setting orthorhombic
_symmetry_space_group_name_H-M 'P 21 21 21'
_symmetry_Int_Tables_number 19
loop_
_symmetry_equiv_pos_site_id
_symmetry_equiv_pos_as_xyz
1 x,y,z
2 1/2-x,-y,1/2+z
3 -x,1/2+y,1/2-z
4 1/2+x,1/2-y,-z
_cell_length_a 8.7746(4)
_cell_length_b 9.4784(4)
_cell_length_c 16.6808(7)
_cell_angle_alpha 90
_cell_angle_beta 90
_cell_angle_gamma 90
_cell_formula_units_Z 4
loop_
_atom_type_symbol
_atom_type_radius_bond
C 0.68
H 0.23
N 0.68
O 0.68
loop_
_atom_site_label
_atom_site_type_symbol
_atom_site_fract_x
_atom_site_fract_y
_atom_site_fract_z
C1 C 0.15050(16) 0.23937(14) 0.96215(8)
H1 H 0.19690 0.23590 0.91200
C2 C 0.08782(14) 0.12677(13) 1.00050(8)
C3 C 0.02964(13) 0.17812(13) 1.07597(8)
C4 C -0.04971(15) 0.11694(14) 1.14033(8)
H2 H -0.07020 0.02070 1.14070
C5 C -0.09685(16) 0.20143(15) 1.20299(8)
H3 H -0.15020 0.16160 1.24550
C6 C -0.06534(17) 0.34722(15) 1.20352(8)
H4 H -0.09900 0.40200 1.24630
C7 C 0.01450(17) 0.41057(14) 1.14183(8)
H5 H 0.03640 0.50660 1.14260
C8 C 0.06123(15) 0.32480(14) 1.07805(8)
C9 C 0.08693(14) -0.02330(13) 0.97083(7)
H6 H 0.00150 -0.07400 0.99530
C10 C 0.23684(14) -0.10276(13) 0.98897(7)
H7 H 0.32140 -0.03560 0.98490
C11 C 0.25708(15) -0.21632(13) 0.92253(8)
H8 H 0.36540 -0.23160 0.91110
C12 C 0.18055(15) -0.14394(13) 0.85315(8)
C13 C 0.19467(16) -0.17540(15) 0.77192(8)
H9 H 0.26350 -0.24330 0.75430
C14 C 0.10333(19) -0.10291(15) 0.71786(8)
H10 H 0.11110 -0.12180 0.66330
C15 C -0.0002(2) -0.00170(15) 0.74499(9)
H11 H -0.06220 0.04480 0.70830
C16 C -0.01188(17) 0.03053(14) 0.82596(9)
H12 H -0.08020 0.09880 0.84360
C17 C 0.07995(15) -0.04068(13) 0.87999(8)
N1 N 0.24423(13) -0.17176(11) 1.06978(7)
N2 N 0.13549(14) 0.35887(13) 1.00805(7)
O1 O 0.12656(11) -0.20686(12) 1.10262(6)
O2 O 0.37058(11) -0.19497(12) 1.09778(6)
O3 O 0.18439(11) -0.34687(10) 0.94367(6)
H13 H 0.09200 -0.33920 0.93780
H14 H 0.172(2) 0.438(2) 0.9963(11)
#END
