
#######################################################################
#
#                 Cambridge Crystallographic Data Centre
#                                CCDC
#
#######################################################################
#
# If this CIF has been generated from an entry in the Cambridge
# Structural Database, then it will include bibliographic, chemical,
# crystal, experimental, refinement or atomic coordinate data resulting
# from the CCDC's data processing and validation procedures.
#
#######################################################################

data_CSD_CIF_TILJOP
_audit_creation_date 2013-10-09
_audit_creation_method CSD-ConQuest-V1
_database_code_CSD TILJOP
_database_code_depnum_ccdc_archive 'CCDC 927929'
_chemical_formula_sum 'C3 H1 N7 O4'
_chemical_formula_moiety
;
C3 H1 N7 O4
;
_journal_coden_Cambridge 1220
_journal_volume 19
_journal_year 2013
_journal_page_first 14902
_journal_name_full 'Chem.-Eur.J. '
loop_
_publ_author_name
"Lixuan Liang"
"Kai Wang"
"Chengming Bian"
"Liming Ling"
"Zhiming Zhou"
_chemical_name_systematic
;
4-Nitro-3-(2H-tetrazol-5-yl)furoxan
;
_cell_volume   1431.150
_exptl_crystal_density_diffrn 1.848
_diffrn_ambient_temperature 143
_refine_special_details
;
The structure is disordered.

;
#These two values have been output from a single CSD field.
_refine_ls_R_factor_gt 0.0581
_refine_ls_wR_factor_gt 0.0581
_symmetry_cell_setting orthorhombic
_symmetry_space_group_name_H-M 'P b c a'
_symmetry_Int_Tables_number 61
loop_
_symmetry_equiv_pos_site_id
_symmetry_equiv_pos_as_xyz
1 x,y,z
2 1/2-x,-y,1/2+z
3 -x,1/2+y,1/2-z
4 1/2+x,1/2-y,-z
5 -x,-y,-z
6 -1/2+x,y,-1/2-z
7 x,-1/2-y,-1/2+z
8 -1/2-x,-1/2+y,z
_cell_length_a 13.514(3)
_cell_length_b 5.0446(11)
_cell_length_c 20.993(5)
_cell_angle_alpha 90
_cell_angle_beta 90
_cell_angle_gamma 90
_cell_formula_units_Z 8
loop_
_atom_type_symbol
_atom_type_radius_bond
C 0.68
H 0.23
N 0.68
O 0.68
loop_
_atom_site_label
_atom_site_type_symbol
_atom_site_fract_x
_atom_site_fract_y
_atom_site_fract_z
O1 O 0.32933 0.32027 0.27691
O2 O 0.43134 0.66297 0.24577
O3 O 0.43463 0.27449 0.47392
O4 O 0.32714 -0.02882 0.44895
N1 N 0.61474 0.47535 0.38697
N2 N 0.68019 0.66407 0.40052
N3 N 0.63018 0.88728 0.39249
H1 H 0.65781 1.04360 0.39797
N4 N 0.53708 0.86193 0.37590
N5 N 0.40902 0.51099 0.28890
N6 N 0.31456 0.17788 0.33200
N7 N 0.38057 0.16251 0.43680
C1 C 0.52958 0.60260 0.37157
C2 C 0.44091 0.46681 0.34821
C3 C 0.37884 0.26517 0.37201
O5? O 0.33640 0.09693 0.41619
O6? O 0.45485 0.23264 0.48808
O7? O 0.41557 0.65085 0.26351
O8? O 0.31154 0.34388 0.23520
N8? N 0.53239 0.84624 0.37782
N9? N 0.62504 0.92277 0.38894
H2? H 0.64856 1.08532 0.39039
N10? N 0.67360 0.69754 0.39732
N11? N 0.61998 0.48077 0.39671
N12? N 0.42019 0.26442 0.43479
N13? N 0.31053 0.16437 0.35491
N14? N 0.36501 0.45825 0.27404
C4? C 0.53157 0.57921 0.38549
C5? C 0.44126 0.41836 0.38472
C6? C 0.37336 0.34139 0.33723
#END
