
#######################################################################
#
#                 Cambridge Crystallographic Data Centre
#                                CCDC
#
#######################################################################
#
# If this CIF has been generated from an entry in the Cambridge
# Structural Database, then it will include bibliographic, chemical,
# crystal, experimental, refinement or atomic coordinate data resulting
# from the CCDC's data processing and validation procedures.
#
#######################################################################

data_CSD_CIF_TIMGOM
_audit_creation_date 2008-01-10
_audit_creation_method CSD-ConQuest-V1
_database_code_CSD TIMGOM
_database_code_depnum_ccdc_archive 'CCDC 652259'
_chemical_formula_sum 'C21 H17 N1 O7'
_chemical_formula_moiety
;
C21 H17 N1 O7
;
_journal_coden_Cambridge 471
_journal_volume 23
_journal_year 2007
_journal_page_first x171
_journal_name_full 'Anal.Sci.:X-Ray Struct.Anal.Online '
loop_
_publ_author_name
"I.Manolov"
"C.Maichle-Moessmer"
_chemical_name_systematic
;
4-acetoxy-3-(1-(4-nitrophenyl)-3-oxobutyl)-2H-1-benzopyran-2-one
;
_cell_volume   1849.177
_exptl_crystal_colour 'colorless'
_exptl_crystal_density_diffrn 1.42
_exptl_special_details
;
relatively low acute toxicity and high anticoagulant activity

;
_exptl_crystal_description 'needle'
_exptl_crystal_preparation 'ethyl acetate'
_diffrn_ambient_temperature 173
#These two values have been output from a single CSD field.
_refine_ls_R_factor_gt 0.0644
_refine_ls_wR_factor_gt 0.0644
_symmetry_cell_setting monoclinic
_symmetry_space_group_name_H-M 'P 21/a'
_symmetry_Int_Tables_number 14
loop_
_symmetry_equiv_pos_site_id
_symmetry_equiv_pos_as_xyz
1 x,y,z
2 1/2-x,1/2+y,-z
3 -x,-y,-z
4 -1/2+x,-1/2-y,z
_cell_length_a 9.5505(13)
_cell_length_b 11.9546(11)
_cell_length_c 16.336(2)
_cell_angle_alpha 90
_cell_angle_beta 97.497(12)
_cell_angle_gamma 90
_cell_formula_units_Z 4
loop_
_atom_type_symbol
_atom_type_radius_bond
C 0.68
H 0.23
N 0.68
O 0.68
loop_
_atom_site_label
_atom_site_type_symbol
_atom_site_fract_x
_atom_site_fract_y
_atom_site_fract_z
C1 C 0.2765(3) 0.1478(2) 0.49383(16)
H1 H 0.177(3) 0.147(2) 0.4975(16)
C2 C 0.3284(3) 0.1747(2) 0.42126(17)
H2 H 0.265(3) 0.198(2) 0.3782(18)
C3 C 0.4713(3) 0.1704(2) 0.41587(18)
H3 H 0.503(3) 0.190(2) 0.3609(18)
C4 C 0.5662(3) 0.1405(2) 0.48343(18)
H4 H 0.670(4) 0.134(3) 0.4821(19)
C5 C 0.5147(3) 0.11800(19) 0.55755(16)
C6 C 0.3707(2) 0.11983(19) 0.56431(14)
O1 O 0.61249(16) 0.09184(14) 0.62391(11)
C7 C 0.5746(2) 0.0637(2) 0.69967(16)
C8 C 0.4244(2) 0.06888(18) 0.71022(14)
C9 C 0.3295(2) 0.09451(19) 0.64454(14)
O2 O 0.18851(15) 0.10727(14) 0.6553(1)
C10 C 0.0929(2) 0.0286(2) 0.61884(15)
C11 C -0.0513(3) 0.0585(4) 0.6378(2)
H5 H -0.118(4) 0.017(4) 0.608(3)
H6 H -0.054(5) 0.016(4) 0.689(3)
H7 H -0.061(5) 0.131(5) 0.659(3)
O3 O 0.12615(17) -0.04675(15) 0.57769(11)
C12 C 0.3865(3) 0.0554(2) 0.79721(15)
H8 H 0.285(3) 0.065(2) 0.7948(15)
O4 O 0.66940(18) 0.03827(17) 0.75273(12)
C13 C 0.4513(2) 0.1542(2) 0.84809(14)
C14 C 0.3977(3) 0.2611(2) 0.83002(15)
H9 H 0.320(3) 0.269(2) 0.7913(16)
C15 C 0.4595(3) 0.3548(2) 0.86868(16)
H10 H 0.424(3) 0.425(3) 0.8569(17)
C16 C 0.5766(3) 0.3394(2) 0.92709(16)
C17 C 0.6306(3) 0.2354(2) 0.94864(16)
H11 H 0.713(3) 0.227(2) 0.9893(17)
C18 C 0.5668(3) 0.1425(2) 0.90885(16)
H12 H 0.605(3) 0.070(2) 0.9225(15)
C19 C 0.4250(3) -0.0599(2) 0.83528(17)
H13 H 0.526(3) -0.079(2) 0.8337(16)
H14 H 0.411(3) -0.058(2) 0.8953(19)
C20 C 0.3341(3) -0.1548(2) 0.79653(16)
O5 O 0.2238(2) -0.13758(18) 0.75233(13)
C21 C 0.3881(5) -0.2714(3) 0.8159(2)
H15 H 0.478(5) -0.286(4) 0.789(3)
H16 H 0.427(4) -0.274(3) 0.870(3)
H17 H 0.313(5) -0.329(4) 0.798(3)
N1 N 0.6496(3) 0.4382(2) 0.96606(16)
O6 O 0.7450(3) 0.4219(2) 1.02266(17)
O7 O 0.6123(3) 0.53128(19) 0.94058(14)
#END
