
#######################################################################
#
#                 Cambridge Crystallographic Data Centre
#                                CCDC
#
#######################################################################
#
# If this CIF has been generated from an entry in the Cambridge
# Structural Database, then it will include bibliographic, chemical,
# crystal, experimental, refinement or atomic coordinate data resulting
# from the CCDC's data processing and validation procedures.
#
#######################################################################

data_CSD_CIF_TIMLEI
_audit_creation_date 2013-10-09
_audit_creation_method CSD-ConQuest-V1
_database_code_CSD TIMLEI
_database_code_depnum_ccdc_archive 'CCDC 936564'
_chemical_formula_sum 'C24 H34 N4 O1'
_chemical_formula_moiety
;
C24 H34 N4 O1
;
_journal_coden_Cambridge 1336
_journal_volume 15
_journal_year 2013
_journal_page_first 4548
_journal_name_full 'Org.Lett. '
loop_
_publ_author_name
"Bo Zhang"
"A.Studer"
_chemical_name_systematic
;
2,2,6,6-Tetramethyl-1-((3-(4-phenyl-1H-1,2,3-triazol-1-yl)bicyclo[2.2.1]hept-2
-yl)oxy)piperidine
;
_cell_volume   2228.282
_exptl_crystal_colour 'colorless'
_exptl_crystal_density_diffrn 1.176
_exptl_crystal_description 'plate'
_diffrn_ambient_temperature 223
#These two values have been output from a single CSD field.
_refine_ls_R_factor_gt 0.0512
_refine_ls_wR_factor_gt 0.0512
_symmetry_cell_setting monoclinic
_symmetry_space_group_name_H-M 'P 21/c'
_symmetry_Int_Tables_number 14
loop_
_symmetry_equiv_pos_site_id
_symmetry_equiv_pos_as_xyz
1 x,y,z
2 -x,1/2+y,1/2-z
3 -x,-y,-z
4 x,-1/2-y,-1/2+z
_cell_length_a 14.7460(8)
_cell_length_b 14.2862(8)
_cell_length_c 11.1084(5)
_cell_angle_alpha 90
_cell_angle_beta 107.787(2)
_cell_angle_gamma 90
_cell_formula_units_Z 4
loop_
_atom_type_symbol
_atom_type_radius_bond
C 0.68
H 0.23
N 0.68
O 0.68
loop_
_atom_site_label
_atom_site_type_symbol
_atom_site_fract_x
_atom_site_fract_y
_atom_site_fract_z
O1 O 0.28693(12) 0.19989(12) 0.53157(15)
N1 N 0.52338(16) 0.25269(16) 0.6960(2)
N2 N 0.52420(18) 0.24580(18) 0.8175(2)
N3 N 0.61052(18) 0.21815(17) 0.8833(2)
C1 C 0.43930(19) 0.28560(19) 0.5958(2)
H1 H 0.43830 0.25650 0.51450
C2 C 0.4385(2) 0.3924(2) 0.5822(3)
H2 H 0.50170 0.42140 0.59590
C3 C 0.3645(3) 0.4160(2) 0.4560(3)
H3 H 0.37290 0.37670 0.38790
H4 H 0.36880 0.48200 0.43410
C4 C 0.2683(2) 0.3953(2) 0.4790(3)
H5 H 0.22890 0.45180 0.46820
H6 H 0.23290 0.34660 0.42170
C5 C 0.2989(2) 0.3620(2) 0.6158(3)
H7 H 0.24870 0.36680 0.65770
C6 C 0.34383(18) 0.26436(19) 0.6227(2)
H8 H 0.35680 0.23840 0.70900
C7 C 0.6091(2) 0.2306(2) 0.6858(3)
H9 H 0.62710 0.23060 0.61170
C8 C 0.3870(2) 0.4215(2) 0.6764(3)
H10 H 0.42080 0.40240 0.76330
H11 H 0.37290 0.48870 0.67340
C9 C 0.6650(2) 0.2080(2) 0.8052(3)
N4 N 0.25986(15) 0.11838(15) 0.59156(18)
C10 C 0.15365(19) 0.1193(2) 0.5594(3)
C11 C 0.1276(2) 0.0313(2) 0.6201(3)
H12 H 0.15250 0.03740 0.71220
H13 H 0.05810 0.02690 0.59730
C12 C 0.1656(2) -0.0578(2) 0.5810(3)
H14 H 0.13680 -0.06800 0.49000
H15 H 0.14930 -0.11120 0.62600
C13 C 0.2728(2) -0.0500(2) 0.6124(3)
H16 H 0.29700 -0.10680 0.58330
H17 H 0.30090 -0.04670 0.70440
C14 C 0.3052(2) 0.03501(19) 0.5531(2)
C15 C 0.1274(2) 0.2044(2) 0.6241(3)
H18 H 0.16910 0.20800 0.71050
H19 H 0.06190 0.19880 0.62430
H20 H 0.13440 0.26060 0.57880
C16 C 0.0981(2) 0.1254(2) 0.4174(3)
H21 H 0.12790 0.17130 0.37740
H22 H 0.03290 0.14410 0.40720
H23 H 0.09840 0.06480 0.37830
C17 C 0.4126(2) 0.0450(2) 0.6113(3)
H24 H 0.43560 0.09390 0.56750
H25 H 0.44320 -0.01370 0.60340
H26 H 0.42720 0.06130 0.69990
C18 C 0.2846(2) 0.0221(2) 0.4099(3)
H27 H 0.21990 -0.00030 0.37320
H28 H 0.32880 -0.02310 0.39430
H29 H 0.29200 0.08160 0.37190
C19 C 0.7650(2) 0.1790(2) 0.8522(3)
C20 C 0.8226(2) 0.1813(3) 0.7744(4)
H30 H 0.79780 0.20240 0.69060
C21 C 0.9176(3) 0.1522(3) 0.8201(5)
H31 H 0.95630 0.15340 0.76680
C22 C 0.9539(3) 0.1222(3) 0.9410(6)
H32 H 1.01780 0.10290 0.97060
C23 C 0.8995(3) 0.1197(3) 1.0202(5)
H33 H 0.92580 0.09930 1.10410
C24 C 0.8042(3) 0.1478(2) 0.9758(4)
H34 H 0.76620 0.14550 1.03010
#END
