
#######################################################################
#
#                 Cambridge Crystallographic Data Centre
#                                CCDC
#
#######################################################################
#
# If this CIF has been generated from an entry in the Cambridge
# Structural Database, then it will include bibliographic, chemical,
# crystal, experimental, refinement or atomic coordinate data resulting
# from the CCDC's data processing and validation procedures.
#
#######################################################################

data_CSD_CIF_TIMZAQ03
_audit_creation_date 2006-02-13
_audit_creation_method CSD-ConQuest-V1
_database_code_CSD TIMZAQ03
_database_code_depnum_ccdc_archive 'CCDC 294324'
_chemical_formula_sum 'C13 H10 N4 O3'
_chemical_formula_moiety
;
C13 H10 N4 O3
;
_journal_coeditor_code "IUCr SK1873"
_journal_coden_Cambridge 591
_journal_volume 61
_journal_year 2005
_journal_page_first o683
_journal_name_full 'Acta Crystallogr.,Sect.C:Cryst.Struct.Commun. '
loop_
_publ_author_name
"S.M.S.V.Wardell"
"M.V.N.de Souza"
"J.L.Wardell"
"J.N.Low"
"C.Glidewell"
_chemical_name_systematic
;
2-nitrobenzaldehyde isonicotinoylhydrazone
;
_chemical_melting_point 506
_cell_volume   1224.928
_exptl_crystal_colour 'colorless'
_exptl_crystal_density_diffrn 1.465
_exptl_special_details
;
Melting point range 506-508K

;
_exptl_crystal_description 'block'
_exptl_crystal_preparation 'methanol'
_diffrn_ambient_temperature 120
#These two values have been output from a single CSD field.
_refine_ls_R_factor_gt 0.0413
_refine_ls_wR_factor_gt 0.0413
_symmetry_cell_setting monoclinic
_symmetry_space_group_name_H-M 'P 21/c'
_symmetry_Int_Tables_number 14
loop_
_symmetry_equiv_pos_site_id
_symmetry_equiv_pos_as_xyz
1 x,y,z
2 -x,1/2+y,1/2-z
3 -x,-y,-z
4 x,-1/2-y,-1/2+z
_cell_length_a 7.3096(2)
_cell_length_b 10.9305(4)
_cell_length_c 15.3801(5)
_cell_angle_alpha 90
_cell_angle_beta 94.569(2)
_cell_angle_gamma 90
_cell_formula_units_Z 4
loop_
_atom_type_symbol
_atom_type_radius_bond
C 0.68
H 0.23
N 0.68
O 0.68
loop_
_atom_site_label
_atom_site_type_symbol
_atom_site_fract_x
_atom_site_fract_y
_atom_site_fract_z
O1 O 0.08020(15) 0.21824(9) 0.47946(6)
O2 O 0.51842(15) 0.7024(1) 0.63973(7)
O3 O 0.4526(2) 0.88911(10) 0.60316(7)
N1 N 0.46870(17) 0.78017(11) 0.58549(8)
N2 N -0.07663(16) 0.02299(11) 0.75912(7)
N3 N 0.13790(15) 0.37441(10) 0.57572(7)
N4 N 0.20703(15) 0.44586(10) 0.51250(7)
C1 C 0.01571(19) 0.12684(12) 0.77836(9)
C2 C 0.07177(19) 0.20654(12) 0.71560(9)
C3 C 0.02828(17) 0.18024(12) 0.62778(8)
C4 C -0.06644(19) 0.07294(12) 0.60728(9)
C5 C -0.1153(2) -0.00222(13) 0.67429(9)
C6 C 0.08315(18) 0.25879(12) 0.55360(8)
C7 C 0.34572(17) 0.63120(12) 0.47328(8)
C8 C 0.43125(18) 0.74275(12) 0.49441(8)
C9 C 0.49071(18) 0.82272(13) 0.43242(9)
C10 C 0.47090(19) 0.78891(13) 0.34564(9)
C11 C 0.39182(19) 0.67686(14) 0.32202(9)
C12 C 0.32823(18) 0.60028(13) 0.38482(9)
C13 C 0.26921(18) 0.55024(12) 0.53778(8)
H1 H 0.04410 0.14680 0.83800
H2 H 0.13910 0.27830 0.73230
H3 H -0.09750 0.05120 0.54810
H4 H -0.17980 -0.07570 0.65930
H5 H 0.12700 0.40680 0.62580
H6 H 0.54400 0.89920 0.44940
H7 H 0.51120 0.84210 0.30220
H8 H 0.38130 0.65260 0.26250
H9 H 0.27150 0.52510 0.36730
H10 H 0.26620 0.57510 0.59680
#END
