
#######################################################################
#
#                 Cambridge Crystallographic Data Centre
#                                CCDC
#
#######################################################################
#
# If this CIF has been generated from an entry in the Cambridge
# Structural Database, then it will include bibliographic, chemical,
# crystal, experimental, refinement or atomic coordinate data resulting
# from the CCDC's data processing and validation procedures.
#
#######################################################################

data_CSD_CIF_TIMZAQ
_audit_creation_date 1997-03-26
_audit_creation_method CSD-ConQuest-V1
_database_code_CSD TIMZAQ
_chemical_formula_sum 'C13 H10 N4 O3'
_chemical_formula_moiety
;
C13 H10 N4 O3
;
_journal_coden_Cambridge 95
_journal_year 1996
_journal_page_first 896
_journal_name_full 'Izv.Akad.Nauk SSSR,Ser.Khim.(Russ.)(Russ.Chem.Bull.) '
loop_
_publ_author_name
"I.I.Chuev"
"S.M.Aldoshin"
"E.G.Atovmyan"
"D.B.Frolov"
"A.N.Utenyshev"
_chemical_name_systematic
;
N'-(o-Nitrobenzylidene)-isonicotinohydrazide
;
_cell_volume   1251.572
_exptl_crystal_colour 'yellow'
_diffrn_ambient_temperature ?
_diffrn_special_details
;
The study was carried out at room temperature,in the range 283-303K

;
#These two values have been output from a single CSD field.
_refine_ls_R_factor_gt 0.055
_refine_ls_wR_factor_gt 0.055
_symmetry_cell_setting monoclinic
_symmetry_space_group_name_H-M 'P 1 1 21/b'
_symmetry_Int_Tables_number 14
loop_
_symmetry_equiv_pos_site_id
_symmetry_equiv_pos_as_xyz
1 x,y,z
2 -x,1/2-y,1/2+z
3 -x,-y,-z
4 x,-1/2+y,-1/2-z
_cell_length_a 7.460(4)
_cell_length_b 10.920(4)
_cell_length_c 15.420(5)
_cell_angle_alpha 90
_cell_angle_beta 90
_cell_angle_gamma 85.1(4)
_cell_formula_units_Z 4
loop_
_atom_type_symbol
_atom_type_radius_bond
C 0.68
H 0.23
N 0.68
O 0.68
loop_
_atom_site_label
_atom_site_type_symbol
_atom_site_fract_x
_atom_site_fract_y
_atom_site_fract_z
O1 O 0.5779(4) 0.2815(4) 0.5186(4)
N1 N 0.6358(4) 0.1292(4) 0.4243(4)
N2 N 0.7070(3) 0.0545(3) 0.4863(3)
N3 N 0.9589(4) -0.2841(4) 0.4146(4)
N4 N 0.4231(4) 0.4724(4) 0.2409(4)
C1 C 0.5805(4) 0.2432(4) 0.4450(4)
C2 C 0.7664(3) -0.0490(3) 0.4618(3)
C3 C 0.5258(4) 0.3169(4) 0.3719(4)
C4 C 0.4337(4) 0.4236(4) 0.3918(4)
C5 C 0.3835(3) 0.5002(3) 0.3255(3)
C6 C 0.5126(3) 0.3679(3) 0.2222(3)
C7 C 0.5671(4) 0.2918(4) 0.2847(4)
C8 C 0.8432(3) -0.1261(3) 0.5255(3)
C9 C 0.9242(4) -0.2366(4) 0.5058(4)
C10 C 0.9888(4) -0.3230(4) 0.5671(4)
C11 C 0.9697(4) -0.2840(4) 0.6536(4)
C12 C 0.8923(4) -0.1678(4) 0.6765(4)
C13 C 0.8310(3) -0.0963(3) 0.6126(3)
O2 O 1.0052(4) -0.2025(4) 0.3601(4)
O3 O 0.9422(3) -0.3930(3) 0.3991(3)
H1 H 0.659(2) 0.112(2) 0.382(2)
H2 H 0.7949(2) -0.064(2) 0.397(2)
H3? H 0.384(1) 0.347(1) 0.463(1)
H4? H 0.222(1) 0.570(1) 0.315(1)
H5 H 0.513(2) 0.338(2) 0.149(2)
H6 H 0.617(2) 0.238(2) 0.275(2)
H7? H -0.005(2) 0.429(2) 0.296(2)
H8 H 0.902(1) -0.111(1) 0.750(1)
H9 H 0.787(2) -0.019(2) 0.625(2)
#END
