
#######################################################################
#
#                 Cambridge Crystallographic Data Centre
#                                CCDC
#
#######################################################################
#
# If this CIF has been generated from an entry in the Cambridge
# Structural Database, then it will include bibliographic, chemical,
# crystal, experimental, refinement or atomic coordinate data resulting
# from the CCDC's data processing and validation procedures.
#
#######################################################################

data_CSD_CIF_TINCEY
_audit_creation_date 1997-03-26
_audit_creation_method CSD-ConQuest-V1
_database_code_CSD TINCEY
_chemical_formula_sum 'C19 H16 N4 O3'
_chemical_formula_moiety
;
C19 H16 N4 O3
;
_journal_coden_Cambridge 423
_journal_volume 220
_journal_year 1996
_journal_page_first 1173
_journal_name_full 'J.Chem.Res. '
loop_
_publ_author_name
"G.Grassi"
"F.Risitano"
"G.Bruno"
"F.Nicolo"
_chemical_name_systematic
;
9b-Methyl-3,9-diphenyl-6,6a,9a,9b-tetrahydro-isoxazolo(4,5-e) 
1,2,4-oxadiazolo(4,5-c)pyrimidin-5-one
;
_chemical_melting_point 518.15
_cell_volume    827.664
_exptl_crystal_colour 'colorless'
_exptl_crystal_density_diffrn 1.4
_diffrn_ambient_temperature ?
_diffrn_special_details
;
The study was carried out at room temperature,in the range 283-303K

;
#These two values have been output from a single CSD field.
_refine_ls_R_factor_gt 0.035
_refine_ls_wR_factor_gt 0.035
_symmetry_cell_setting triclinic
_symmetry_space_group_name_H-M 'P -1'
_symmetry_Int_Tables_number 2
loop_
_symmetry_equiv_pos_site_id
_symmetry_equiv_pos_as_xyz
1 x,y,z
2 -x,-y,-z
_cell_length_a 7.4575(7)
_cell_length_b 8.4628(7)
_cell_length_c 13.8348(14)
_cell_angle_alpha 99.92(1)
_cell_angle_beta 101.26(1)
_cell_angle_gamma 98.79(1)
_cell_formula_units_Z 2
loop_
_atom_type_symbol
_atom_type_radius_bond
C 0.68
H 0.23
N 0.68
O 0.68
loop_
_atom_site_label
_atom_site_type_symbol
_atom_site_fract_x
_atom_site_fract_y
_atom_site_fract_z
O1 O 0.1545(1) 0.3074(1) 0.1325(1)
O2 O 0.7529(2) 0.2486(2) 0.2252(1)
O3 O 0.5124(1) 0.3221(1) -0.0899(1)
N1 N 0.0479(2) 0.2890(2) 0.0323(1)
C1 C 0.5050(2) 0.3072(2) -0.0048(1)
N2 N 0.6589(2) 0.3219(2) 0.0699(1)
C2 C 0.6699(2) 0.3655(2) 0.1751(1)
C3 C 0.4847(2) 0.3634(2) 0.2055(1)
N3 N 0.6767(2) 0.2386(2) 0.3100(1)
C4 C 0.0849(2) 0.2340(2) -0.1367(1)
C5 C 0.1419(2) 0.1138(2) -0.1988(1)
C6 C 0.0508(3) 0.0617(2) -0.2989(1)
C7 C -0.0950(3) 0.1308(2) -0.3378(1)
C8 C -0.1505(3) 0.2517(2) -0.2771(2)
C9 C -0.0625(2) 0.3036(2) -0.1767(1)
C10 C 0.1588(2) 0.2713(2) -0.0273(1)
N4 N 0.3387(1) 0.2693(1) 0.0242(1)
C11 C 0.3008(3) 0.0700(2) 0.1309(2)
C12 C 0.3243(2) 0.2490(2) 0.1256(1)
C13 C 0.5308(2) 0.3020(2) 0.3021(1)
C14 C 0.4222(2) 0.3040(2) 0.3800(1)
C15 C 0.2575(2) 0.3625(2) 0.3686(1)
C16 C 0.1547(3) 0.3644(3) 0.4422(2)
C17 C 0.2171(3) 0.3079(3) 0.5273(2)
C18 C 0.3773(3) 0.2474(3) 0.5391(2)
C19 C 0.4811(3) 0.2446(3) 0.4665(2)
H1 H 0.7626(25) 0.3352(20) 0.0505(12)
H2 H 0.7552(23) 0.4741(22) 0.2037(12)
H3 H 0.4572(20) 0.4678(19) 0.2137(11)
H4 H 0.2410(24) 0.0640(21) -0.1705(12)
H5 H 0.0868(27) -0.0232(24) -0.3416(14)
H6 H -0.1617(29) 0.0939(25) -0.4088(16)
H7 H -0.2517(30) 0.2982(25) -0.3051(16)
H8 H -0.1017(26) 0.3816(24) -0.1326(14)
H9 H 0.4216(29) 0.0327(24) 0.1260(14)
H10 H 0.2652(27) 0.0519(23) 0.1916(15)
H11 H 0.2039(27) 0.0091(23) 0.0743(14)
H12 H 0.2146(26) 0.4041(24) 0.3086(15)
H13 H 0.0311(34) 0.4081(29) 0.4304(16)
H14 H 0.1494(36) 0.3077(32) 0.5806(20)
H15 H 0.4245(36) 0.1977(32) 0.5939(20)
H16 H 0.5904(32) 0.2001(27) 0.4706(16)
#END
