
#######################################################################
#
#                 Cambridge Crystallographic Data Centre
#                                CCDC
#
#######################################################################
#
# If this CIF has been generated from an entry in the Cambridge
# Structural Database, then it will include bibliographic, chemical,
# crystal, experimental, refinement or atomic coordinate data resulting
# from the CCDC's data processing and validation procedures.
#
#######################################################################

data_CSD_CIF_TINCIC
_audit_creation_date 1997-03-26
_audit_creation_method CSD-ConQuest-V1
_database_code_CSD TINCIC
_chemical_formula_sum 'C18 H14 N4 O2'
_chemical_formula_moiety
;
C18 H14 N4 O2
;
_journal_coden_Cambridge 423
_journal_volume 220
_journal_year 1996
_journal_page_first 1173
_journal_name_full 'J.Chem.Res. '
loop_
_publ_author_name
"G.Grassi"
"F.Risitano"
"G.Bruno"
"F.Nicolo"
_chemical_name_systematic
;
3,9-Diphenyl-9a,9b-dihydro-6aH-isoxazolo(4,5-d)-1,2,4-oxadiazolo(4,5-b) 
pyridazine
;
_chemical_melting_point 434.15
_cell_volume    772.263
_exptl_crystal_colour 'colorless'
_exptl_crystal_density_diffrn 1.37
_diffrn_ambient_temperature ?
_diffrn_special_details
;
The study was carried out at room temperature,in the range 283-303K

;
#These two values have been output from a single CSD field.
_refine_ls_R_factor_gt 0.042
_refine_ls_wR_factor_gt 0.042
_symmetry_cell_setting triclinic
_symmetry_space_group_name_H-M 'P -1'
_symmetry_Int_Tables_number 2
loop_
_symmetry_equiv_pos_site_id
_symmetry_equiv_pos_as_xyz
1 x,y,z
2 -x,-y,-z
_cell_length_a 12.220(2)
_cell_length_b 9.695(1)
_cell_length_c 6.976(1)
_cell_angle_alpha 85.03(2)
_cell_angle_beta 86.17(2)
_cell_angle_gamma 69.83(3)
_cell_formula_units_Z 2
loop_
_atom_type_symbol
_atom_type_radius_bond
C 0.68
N 0.68
O 0.68
loop_
_atom_site_label
_atom_site_type_symbol
_atom_site_fract_x
_atom_site_fract_y
_atom_site_fract_z
O1 O -0.1107(1) 0.9346(1) 0.3658(2)
O2 O 0.0451(1) 0.5339(1) 0.7651(2)
N1 N -0.2288(1) 1.0382(2) 0.3871(2)
N2 N -0.1955(1) 0.8765(2) 0.6384(2)
N3 N -0.2055(1) 0.8297(2) 0.8247(2)
N4 N 0.1202(1) 0.5147(2) 0.5985(2)
C1 C -0.3889(1) 1.0849(2) 0.6212(3)
C2 C -0.4330(2) 1.2356(2) 0.5760(3)
C3 C -0.5458(2) 1.3143(3) 0.6329(4)
C4 C -0.6142(2) 1.2450(4) 0.7361(4)
C5 C -0.5710(2) 1.0979(3) 0.7836(3)
C6 C -0.4575(2) 1.0164(3) 0.7263(3)
C7 C -0.2711(1) 1.0012(2) 0.5485(2)
C8 C -0.0977(1) 0.8149(2) 0.5059(2)
C9 C 0.0178(1) 0.7658(2) 0.6054(2)
C10 C 0.0057(2) 0.6892(2) 0.8010(3)
C11 C -0.1130(2) 0.7355(3) 0.8946(3)
C12 C 0.1084(1) 0.6400(2) 0.5098(3)
C13 C 0.1749(2) 0.6515(2) 0.3293(3)
C14 C 0.2568(2) 0.5267(3) 0.2559(4)
C15 C 0.3206(3) 0.5408(4) 0.0883(4)
C16 C 0.3026(3) 0.6765(4) -0.0079(4)
C17 C 0.2217(2) 0.7991(3) 0.0612(3)
C18 C 0.1580(2) 0.7868(2) 0.2296(3)
#END
