
#######################################################################
#
#                 Cambridge Crystallographic Data Centre
#                                CCDC
#
#######################################################################
#
# If this CIF has been generated from an entry in the Cambridge
# Structural Database, then it will include bibliographic, chemical,
# crystal, experimental, refinement or atomic coordinate data resulting
# from the CCDC's data processing and validation procedures.
#
#######################################################################

data_CSD_CIF_TINWUJ
_audit_creation_date 2008-01-10
_audit_creation_method CSD-ConQuest-V1
_database_code_CSD TINWUJ
_database_code_depnum_ccdc_archive 'CCDC 667431'
_chemical_formula_sum 'C10 H10 N2 O5'
_chemical_formula_moiety
;
C10 H10 N2 O5
;
_journal_coeditor_code "IUCr KJ2061"
_journal_coden_Cambridge 1370
_journal_volume 63
_journal_year 2007
_journal_page_first o4424
_journal_name_full 'Acta Crystallogr.,Sect.E:Struct.Rep.Online '
loop_
_publ_author_name
"N.P.Rath"
"H.J.Ravindra"
"M.R.S.Kumar"
"S.M.Dharmaprakash"
_chemical_name_systematic
;
3-((4-Nitrophenyl)aminocarbonyl)propanoic acid
;
_cell_volume   1002.534
_exptl_crystal_colour 'colorless'
_exptl_crystal_density_diffrn 1.578
_exptl_crystal_description 'irregular'
_exptl_crystal_preparation 'acetone'
_diffrn_ambient_temperature 100
#These two values have been output from a single CSD field.
_refine_ls_R_factor_gt 0.035
_refine_ls_wR_factor_gt 0.035
_symmetry_cell_setting monoclinic
_symmetry_space_group_name_H-M 'P 21/c'
_symmetry_Int_Tables_number 14
loop_
_symmetry_equiv_pos_site_id
_symmetry_equiv_pos_as_xyz
1 x,y,z
2 -x,1/2+y,1/2-z
3 -x,-y,-z
4 x,-1/2-y,-1/2+z
_cell_length_a 5.0179(4)
_cell_length_b 17.3056(15)
_cell_length_c 11.5804(9)
_cell_angle_alpha 90
_cell_angle_beta 94.487(4)
_cell_angle_gamma 90
_cell_formula_units_Z 4
loop_
_atom_type_symbol
_atom_type_radius_bond
C 0.68
H 0.23
N 0.68
O 0.68
loop_
_atom_site_label
_atom_site_type_symbol
_atom_site_fract_x
_atom_site_fract_y
_atom_site_fract_z
O1 O 0.31721(15) 0.59418(4) 0.95848(7)
O2 O 0.25598(14) 0.46856(4) 0.91943(6)
O3 O 0.20764(14) 0.50534(4) 0.63580(6)
O4 O 0.47768(17) 0.15785(4) 0.28173(7)
O5 O 0.68389(18) 0.26212(5) 0.23997(8)
N1 N -0.02051(16) 0.39108(5) 0.62342(7)
N2 N 0.52247(17) 0.22718(5) 0.29519(7)
C1 C 0.19088(18) 0.53594(5) 0.90384(8)
C2 C -0.04231(18) 0.55979(6) 0.82212(8)
C3 C -0.15950(19) 0.49103(6) 0.75392(8)
C4 C 0.02909(18) 0.46387(5) 0.66623(8)
C5 C 0.12121(18) 0.35175(5) 0.54208(8)
C6 C 0.05349(19) 0.27432(5) 0.51835(8)
C7 C 0.18377(19) 0.23258(6) 0.43764(8)
C8 C 0.38209(19) 0.26926(5) 0.38056(8)
C9 C 0.45402(19) 0.34517(6) 0.40309(8)
C10 C 0.32460(19) 0.38663(6) 0.48410(8)
H1 H 0.446(4) 0.5748(11) 1.0030(16)
H2 H -0.147(3) 0.3663(8) 0.6518(12)
H3 H -0.175(3) 0.5839(8) 0.8700(12)
H4 H 0.022(3) 0.5992(8) 0.7723(12)
H5 H -0.327(3) 0.5060(8) 0.7124(12)
H6 H -0.198(3) 0.4475(8) 0.8060(12)
H7 H -0.084(3) 0.2505(8) 0.5578(12)
H8 H 0.135(3) 0.1795(9) 0.4192(12)
H9 H 0.593(3) 0.3686(8) 0.3641(13)
H10 H 0.375(3) 0.4392(8) 0.5002(12)
#END
