
#######################################################################
#
#                 Cambridge Crystallographic Data Centre
#                                CCDC
#
#######################################################################
#
# If this CIF has been generated from an entry in the Cambridge
# Structural Database, then it will include bibliographic, chemical,
# crystal, experimental, refinement or atomic coordinate data resulting
# from the CCDC's data processing and validation procedures.
#
#######################################################################

data_CSD_CIF_TINXIY
_audit_creation_date 2008-01-10
_audit_creation_method CSD-ConQuest-V1
_database_code_CSD TINXIY
_database_code_depnum_ccdc_archive 'CCDC 667434'
_chemical_formula_sum 'C10 H11 N3 O5'
_chemical_formula_moiety
;
C10 H11 N3 O5
;
_journal_coeditor_code "IUCr HB2590"
_journal_coden_Cambridge 1370
_journal_volume 63
_journal_year 2007
_journal_page_first o4427
_journal_name_full 'Acta Crystallogr.,Sect.E:Struct.Rep.Online '
loop_
_publ_author_name
"Li Wang"
"Hui Li"
_chemical_name_systematic
;
Methyl 
1-methyl-8-nitro-5-oxo-1,2,3,5-tetrahydroimidazo(1,2-a)pyridine-7-carboxylate
;
_cell_volume   1137.206
_exptl_crystal_colour 'colorless'
_exptl_crystal_density_diffrn 1.479
_exptl_crystal_description 'prism'
_exptl_crystal_preparation 'ethyl acetate'
_diffrn_ambient_temperature 294
#These two values have been output from a single CSD field.
_refine_ls_R_factor_gt 0.04
_refine_ls_wR_factor_gt 0.04
_symmetry_cell_setting monoclinic
_symmetry_space_group_name_H-M 'P 21/n'
_symmetry_Int_Tables_number 14
loop_
_symmetry_equiv_pos_site_id
_symmetry_equiv_pos_as_xyz
1 x,y,z
2 1/2-x,1/2+y,1/2-z
3 -x,-y,-z
4 -1/2+x,-1/2-y,-1/2+z
_cell_length_a 9.848(5)
_cell_length_b 10.738(5)
_cell_length_c 11.318(6)
_cell_angle_alpha 90
_cell_angle_beta 108.165(8)
_cell_angle_gamma 90
_cell_formula_units_Z 4
loop_
_atom_type_symbol
_atom_type_radius_bond
C 0.68
H 0.23
N 0.68
O 0.68
loop_
_atom_site_label
_atom_site_type_symbol
_atom_site_fract_x
_atom_site_fract_y
_atom_site_fract_z
O1 O 0.4168(2) 0.36676(18) 0.40827(18)
O2 O 0.5293(2) 0.2252(2) 0.33881(18)
O3 O 0.30450(17) 0.10139(14) 0.15771(13)
O4 O 0.4560(2) -0.0553(2) 0.23765(17)
O5 O 0.12662(17) -0.10383(14) 0.53454(15)
N1 N 0.34353(19) 0.26613(16) 0.62403(16)
N2 N 0.23172(18) 0.08686(16) 0.55925(15)
N3 N 0.4424(2) 0.2564(2) 0.39231(17)
C1 C 0.4703(3) 0.3461(2) 0.6653(2)
H1 H 0.54920 0.30560 0.64830
H2 H 0.49370 0.36100 0.75300
H3 H 0.45100 0.42390 0.62150
C2 C 0.2644(3) 0.2399(2) 0.7117(2)
H4 H 0.19340 0.30390 0.70710
H5 H 0.32890 0.23610 0.79620
C3 C 0.1939(3) 0.1156(2) 0.6725(2)
H6 H 0.23130 0.05310 0.73620
H7 H 0.09120 0.12130 0.65460
C4 C 0.3190(2) 0.17757(19) 0.53658(18)
C5 C 0.3675(2) 0.16054(19) 0.43311(19)
C6 C 0.3348(2) 0.0470(2) 0.36515(19)
C7 C 0.2556(3) -0.0434(2) 0.3964(2)
H8 H 0.23750 -0.11710 0.35100
C8 C 0.1991(2) -0.0271(2) 0.49896(19)
C9 C 0.3759(2) 0.0253(2) 0.2483(2)
C10 C 0.3298(3) 0.0872(3) 0.0386(2)
H9 H 0.42560 0.11260 0.04640
H10 H 0.26340 0.13800 -0.02250
H11 H 0.31710 0.00150 0.01330
#END
