
#######################################################################
#
#                 Cambridge Crystallographic Data Centre
#                                CCDC
#
#######################################################################
#
# If this CIF has been generated from an entry in the Cambridge
# Structural Database, then it will include bibliographic, chemical,
# crystal, experimental, refinement or atomic coordinate data resulting
# from the CCDC's data processing and validation procedures.
#
#######################################################################

data_CSD_CIF_TIPNEN
_audit_creation_date 2013-10-10
_audit_creation_method CSD-ConQuest-V1
_database_code_CSD TIPNEN
_database_code_depnum_ccdc_archive 'CCDC 916794'
_chemical_formula_sum 'C7 H10 N4 O10'
_chemical_formula_moiety
;
C7 H10 N4 O10
;
_journal_coden_Cambridge 1220
_journal_volume 19
_journal_year 2013
_journal_page_first 15627
_journal_name_full 'Chem.-Eur.J. '
loop_
_publ_author_name
"A.Baumann"
"A.Erbacher"
"C.Evangelisti"
"T.M.Klapotke"
"B.Krumm"
"S.F.Rest"
"M.Reynders"
"V.Sproll"
_chemical_name_systematic
;
Ethyl N-((2,2,2-trinitroethoxy)carbonyl)glycinate
;
_cell_volume   1291.377
_exptl_crystal_colour 'colorless'
_exptl_crystal_density_diffrn 1.595
_exptl_crystal_description 'rod'
_diffrn_ambient_temperature 173
#These two values have been output from a single CSD field.
_refine_ls_R_factor_gt 0.051
_refine_ls_wR_factor_gt 0.051
_symmetry_cell_setting monoclinic
_symmetry_space_group_name_H-M 'P 21/c'
_symmetry_Int_Tables_number 14
loop_
_symmetry_equiv_pos_site_id
_symmetry_equiv_pos_as_xyz
1 x,y,z
2 -x,1/2+y,1/2-z
3 -x,-y,-z
4 x,-1/2-y,-1/2+z
_cell_length_a 13.132(3)
_cell_length_b 5.6826(17)
_cell_length_c 18.028(6)
_cell_angle_alpha 90
_cell_angle_beta 106.28(3)
_cell_angle_gamma 90
_cell_formula_units_Z 4
loop_
_atom_type_symbol
_atom_type_radius_bond
C 0.68
H 0.23
N 0.68
O 0.68
loop_
_atom_site_label
_atom_site_type_symbol
_atom_site_fract_x
_atom_site_fract_y
_atom_site_fract_z
O1 O 0.20628(15) 0.2377(4) 0.24120(11)
O2 O 0.61325(15) 0.0635(4) 0.38349(10)
O3 O 0.84118(18) 0.3652(4) 0.47938(12)
O4 O 0.64026(16) 0.3328(4) 0.52113(12)
O5 O 0.83578(16) 0.0557(4) 0.40725(12)
O6 O 0.77839(17) -0.2853(4) 0.58437(12)
O7 O 0.76366(17) 0.2102(4) 0.62205(12)
C1 C 0.7491(2) 0.0336(5) 0.50215(15)
N1 N 0.71474(19) 0.2080(4) 0.55369(14)
N2 N 0.81440(19) 0.1660(5) 0.45889(14)
O8 O 0.91696(17) -0.1213(4) 0.56381(14)
O9 O 0.45043(16) 0.0309(4) 0.40251(12)
N3 N 0.4852(2) 0.3049(5) 0.32115(15)
N4 N 0.8224(2) -0.1408(4) 0.55484(13)
O10 O 0.33669(17) 0.0432(4) 0.21119(12)
C2 C 0.3766(2) 0.3824(6) 0.29578(17)
H1 H 0.37260 0.53150 0.26670
H2 H 0.35070 0.41330 0.34140
C3 C 0.3066(2) 0.2011(6) 0.24508(17)
C4 C 0.6562(2) -0.0934(5) 0.44653(16)
H3 H 0.68080 -0.24040 0.42770
H4 H 0.60170 -0.13370 0.47280
C5 C 0.1294(2) 0.0737(6) 0.19359(18)
H5 H 0.14030 -0.08620 0.21630
H6 H 0.13770 0.06660 0.14070
C6 C 0.0226(2) 0.1615(7) 0.1913(2)
H7 H -0.03120 0.05460 0.16030
H8 H 0.01250 0.31890 0.16820
H9 H 0.01570 0.16930 0.24400
C7 C 0.5094(2) 0.1284(6) 0.37211(17)
H10 H 0.531(3) 0.366(6) 0.3085(19)
#END
