
#######################################################################
#
#                 Cambridge Crystallographic Data Centre
#                                CCDC
#
#######################################################################
#
# If this CIF has been generated from an entry in the Cambridge
# Structural Database, then it will include bibliographic, chemical,
# crystal, experimental, refinement or atomic coordinate data resulting
# from the CCDC's data processing and validation procedures.
#
#######################################################################

data_CSD_CIF_TIPNAJ
_audit_creation_date 2013-10-10
_audit_creation_method CSD-ConQuest-V1
_database_code_CSD TIPNAJ
_database_code_depnum_ccdc_archive 'CCDC 916795'
_chemical_formula_sum 'C7 H9 N5 O12'
_chemical_formula_moiety
;
C7 H9 N5 O12
;
_journal_coden_Cambridge 1220
_journal_volume 19
_journal_year 2013
_journal_page_first 15627
_journal_name_full 'Chem.-Eur.J. '
loop_
_publ_author_name
"A.Baumann"
"A.Erbacher"
"C.Evangelisti"
"T.M.Klapotke"
"B.Krumm"
"S.F.Rest"
"M.Reynders"
"V.Sproll"
_chemical_name_systematic
;
Ethyl (nitro((2,2,2-trinitroethoxy)carbonyl)amino)acetate
;
_cell_volume   1444.145
_exptl_crystal_colour 'colorless'
_exptl_crystal_density_diffrn 1.634
_exptl_crystal_description 'block'
_diffrn_ambient_temperature 195
_refine_special_details
;
N3A,N4A,N5A,O11A,O7A,O9A and N3B,N4B,N5B,O11B,O7B,O9B disordered over two 
sites with occupancies 0.50:0.50.
;
#These two values have been output from a single CSD field.
_refine_ls_R_factor_gt 0.0391
_refine_ls_wR_factor_gt 0.0391
_symmetry_cell_setting monoclinic
_symmetry_space_group_name_H-M 'P 21/c'
_symmetry_Int_Tables_number 14
loop_
_symmetry_equiv_pos_site_id
_symmetry_equiv_pos_as_xyz
1 x,y,z
2 -x,1/2+y,1/2-z
3 -x,-y,-z
4 x,-1/2-y,-1/2+z
_cell_length_a 12.8990(6)
_cell_length_b 5.6642(3)
_cell_length_c 19.7870(9)
_cell_angle_alpha 90
_cell_angle_beta 92.647(5)
_cell_angle_gamma 90
_cell_formula_units_Z 4
loop_
_atom_type_symbol
_atom_type_radius_bond
C 0.68
H 0.23
N 0.68
O 0.68
loop_
_atom_site_label
_atom_site_type_symbol
_atom_site_fract_x
_atom_site_fract_y
_atom_site_fract_z
O1 O 0.27573(12) 0.3478(2) 0.05008(8)
O2 O 0.18254(12) 0.9480(3) -0.03328(7)
O3 O 0.29627(17) 0.9659(3) 0.15544(8)
N1 N 0.2124(3) 0.4918(6) 0.04427(18)
N2 N 0.2421(2) 0.7782(7) 0.13611(17)
O4 O 0.2024(2) 0.6300(7) 0.16830(15)
N3 N 0.1662(3) 0.9073(8) 0.0261(2)
O5 O 0.0952(2) 0.9705(5) 0.05925(17)
O6 O 0.1217(2) 0.4587(5) 0.03149(14)
O7 O 0.43150(9) 0.6777(2) 0.07845(7)
O8 O 0.53002(10) 1.0062(2) 0.08894(7)
O9 O 0.83955(9) 0.7007(2) 0.17349(6)
C1 C 0.50651(13) 0.8129(3) 0.10691(8)
C2 C 0.25113(13) 0.7484(3) 0.06011(8)
N4 N 0.56076(11) 0.6979(3) 0.16041(7)
N5 N 0.52987(13) 0.4793(3) 0.18768(8)
C3 C 0.35772(13) 0.7929(3) 0.03332(9)
H1 H 0.36160 0.72800 -0.01300
H2 H 0.37200 0.96450 0.03180
O10 O 0.73135(10) 0.5246(3) 0.09652(7)
C4 C 0.66453(13) 0.7786(3) 0.18141(9)
H3 H 0.67580 0.75420 0.23070
H4 H 0.67010 0.95000 0.17230
C5 C 0.74772(13) 0.6495(3) 0.14486(9)
O11 O 0.43893(11) 0.4262(3) 0.18336(7)
O12 O 0.59967(12) 0.3661(3) 0.21608(7)
C6 C 0.93004(15) 0.5872(4) 0.14590(12)
H5 H 0.99160 0.68970 0.15350
H6 H 0.91810 0.56490 0.09650
C7 C 0.9496(2) 0.3548(5) 0.17881(16)
H7 H 1.01060 0.28110 0.16000
H8 H 0.88900 0.25250 0.17060
H9 H 0.96190 0.37730 0.22760
N6? N 0.2414(3) 0.5037(6) 0.0874(2)
N7? N 0.2336(3) 0.9188(8) 0.11993(18)
N8? N 0.1687(3) 0.7947(8) 0.0076(2)
O13? O 0.1446(2) 0.9842(5) 0.12443(16)
O14? O 0.0923(2) 0.6654(6) 0.00984(16)
O15? O 0.2076(3) 0.4841(7) 0.14432(19)
#END
