
#######################################################################
#
#                 Cambridge Crystallographic Data Centre
#                                CCDC
#
#######################################################################
#
# If this CIF has been generated from an entry in the Cambridge
# Structural Database, then it will include bibliographic, chemical,
# crystal, experimental, refinement or atomic coordinate data resulting
# from the CCDC's data processing and validation procedures.
#
#######################################################################

data_CSD_CIF_TIPVAR01
_audit_creation_date 2016-06-28
_audit_creation_method CSD-ConQuest-V1
_database_code_CSD TIPVAR01
_database_code_depnum_ccdc_archive 'CCDC 867294'
_chemical_formula_sum 'C8 H7 N3 O2'
_chemical_formula_moiety
;
C8 H7 N3 O2
;
_journal_coden_Cambridge 1381
_journal_volume 51
_journal_year 2012
_journal_page_first 6619
_journal_name_full 'Ind.Eng.Chem.Res. '
loop_
_publ_author_name
"Sung Ok Kang"
"S.Vukovic"
"R.Custelcean"
"B.P.Hay"
_chemical_name_systematic
;
N,N'-dihydroxy-1H-isoindole-1,3(2H)-diimine
;
_cell_volume    797.861
_exptl_crystal_density_diffrn 1.475
_diffrn_ambient_temperature 173
#These two values have been output from a single CSD field.
_refine_ls_R_factor_gt 0.0466
_refine_ls_wR_factor_gt 0.0466
_symmetry_cell_setting orthorhombic
_symmetry_space_group_name_H-M 'P n m a'
_symmetry_Int_Tables_number 62
loop_
_symmetry_equiv_pos_site_id
_symmetry_equiv_pos_as_xyz
1 x,y,z
2 1/2-x,-y,1/2+z
3 1/2+x,1/2-y,1/2-z
4 -x,1/2+y,-z
5 -x,-y,-z
6 -1/2+x,y,-1/2-z
7 -1/2-x,-1/2+y,-1/2+z
8 x,-1/2-y,z
_cell_length_a 12.2405(16)
_cell_length_b 14.1448(19)
_cell_length_c 4.6082(6)
_cell_angle_alpha 90
_cell_angle_beta 90
_cell_angle_gamma 90
_cell_formula_units_Z 4
loop_
_atom_type_symbol
_atom_type_radius_bond
C 0.68
H 0.23
N 0.68
O 0.68
loop_
_atom_site_label
_atom_site_type_symbol
_atom_site_fract_x
_atom_site_fract_y
_atom_site_fract_z
O1 O 0.69201(9) 0.58323(7) 0.0301(3)
N1 N 0.75058(14) 0.75000 0.1971(4)
C1 C 0.79698(11) 0.66933(9) 0.3142(3)
N2 N 0.7744(1) 0.58379(7) 0.2447(3)
C2 C 0.87765(11) 0.70028(9) 0.5297(3)
C3 C 0.94802(12) 0.64988(10) 0.7072(3)
H1 H 0.94830 0.58270 0.70700
C4 C 1.01824(12) 0.70076(11) 0.8857(3)
H2 H 1.06710 0.66780 1.00990
H3 H 0.7028(19) 0.75000 0.054(6)
H4 H 0.7014(15) 0.5257(18) -0.055(5)
O1G O 0.69201(9) 0.91677(7) 0.0301(3)
C1G C 0.79698(11) 0.83067(9) 0.3142(3)
N2G N 0.7744(1) 0.91621(7) 0.2447(3)
C2G C 0.87765(11) 0.79972(9) 0.5297(3)
C3G C 0.94802(12) 0.85012(10) 0.7072(3)
H1G H 0.94830 0.91730 0.70700
C4G C 1.01824(12) 0.79924(11) 0.8857(3)
H2G H 1.06710 0.83220 1.00990
H4G H 0.7014(15) 0.9743(18) -0.055(5)
#END
