
#######################################################################
#
#                 Cambridge Crystallographic Data Centre
#                                CCDC
#
#######################################################################
#
# If this CIF has been generated from an entry in the Cambridge
# Structural Database, then it will include bibliographic, chemical,
# crystal, experimental, refinement or atomic coordinate data resulting
# from the CCDC's data processing and validation procedures.
#
#######################################################################

data_CSD_CIF_TIQHUW
_audit_creation_date 1997-03-26
_audit_creation_method CSD-ConQuest-V1
_database_code_CSD TIQHUW
_database_code_depnum_ccdc_archive 'CCDC 128457'
_chemical_formula_sum 'C27 H36 N2 O6'
_chemical_formula_moiety
;
C27 H36 N2 O6
;
_journal_coeditor_code "IUCr PA1238"
_journal_coden_Cambridge 591
_journal_volume 53
_journal_year 1997
_journal_page_first 257
_journal_name_full 'Acta Crystallogr.,Sect.C:Cryst.Struct.Commun. '
loop_
_publ_author_name
"K.R.Rowan"
"E.M.Holt"
_chemical_name_systematic
;
Dihexyl 2,6-dimethyl-4-(3-nitrophenyl)pyridine-3,5-dicarboxylate
;
_cell_volume   1364.113
_exptl_crystal_colour 'colorless'
_exptl_crystal_density_diffrn 1.18
_diffrn_ambient_temperature ?
_diffrn_special_details
;
The study was carried out at room temperature,in the range 283-303K

;
_refine_special_details
;
The nitro group is disordered over two sites with occupancies 0.70:0.30.

;
#These two values have been output from a single CSD field.
_refine_ls_R_factor_gt 0.0583
_refine_ls_wR_factor_gt 0.0583
_symmetry_cell_setting triclinic
_symmetry_space_group_name_H-M 'P -1'
_symmetry_Int_Tables_number 2
loop_
_symmetry_equiv_pos_site_id
_symmetry_equiv_pos_as_xyz
1 x,y,z
2 -x,-y,-z
_cell_length_a 8.089(2)
_cell_length_b 11.495(2)
_cell_length_c 15.707(5)
_cell_angle_alpha 69.29(2)
_cell_angle_beta 88.12(2)
_cell_angle_gamma 87.03(2)
_cell_formula_units_Z 2
loop_
_atom_type_symbol
_atom_type_radius_bond
C 0.68
H 0.23
N 0.68
O 0.68
loop_
_atom_site_label
_atom_site_type_symbol
_atom_site_fract_x
_atom_site_fract_y
_atom_site_fract_z
N1 N 0.7482(12) 0.5018(13) 0.5650(7)
C1 C 0.6968(14) 0.5973(12) 0.4906(10)
C2 C 0.6449(14) 0.7117(9) 0.5104(8)
H1 H 0.6471(14) 0.6938(9) 0.5749(8)
H2 H 0.5347(14) 0.7384(9) 0.4888(8)
H3 H 0.7195(14) 0.7764(9) 0.4802(8)
C3 C 0.7106(11) 0.5847(9) 0.4090(8)
C4 C 0.6554(17) 0.6937(11) 0.3269(10)
O1 O 0.5324(12) 0.7565(8) 0.3242(7)
O2 O 0.7686(10) 0.7203(6) 0.2606(5)
C5 C 0.7652(11) 0.4742(10) 0.3971(7)
C6 C 0.8110(11) 0.3734(9) 0.4791(8)
C7 C 0.8691(16) 0.2505(11) 0.4749(8)
O3 O 0.9884(11) 0.1926(7) 0.5130(6)
O4 O 0.7642(9) 0.2077(6) 0.4307(4)
C8 C 0.8024(14) 0.3917(12) 0.5611(8)
C9 C 0.8506(14) 0.2923(11) 0.6490(6)
H4 H 0.8350(14) 0.3239(11) 0.6977(6)
H5 H 0.9648(14) 0.2669(11) 0.6456(6)
H6 H 0.7829(14) 0.2221(11) 0.6601(6)
C10 C 0.7762(19) 0.4589(8) 0.3088(8)
C11 C 0.6391(19) 0.4630(9) 0.2623(9)
H7 H 0.5389(19) 0.4750(9) 0.2894(9)
C12 C 0.631(3) 0.4504(13) 0.1725(13)
C13 C 0.798(4) 0.4393(14) 0.1449(12)
H8 H 0.8081(36) 0.4341(14) 0.0873(12)
C14 C 0.948(2) 0.4347(12) 0.1856(13)
C15 C 0.9301(18) 0.4441(8) 0.2695(9)
H9 H 1.0250(18) 0.4407(8) 0.3024(9)
C16 C 0.7245(19) 0.8216(11) 0.1771(9)
H10 H 0.7437(19) 0.9011(11) 0.1827(9)
H11 H 0.6085(19) 0.8197(11) 0.1640(9)
C17 C 0.831(3) 0.8038(15) 0.1026(10)
H12 H 0.8041(28) 0.7255(15) 0.0973(10)
H13 H 0.7994(28) 0.8691(15) 0.0461(10)
C18 C 1.012(3) 0.8032(16) 0.1088(12)
H14 H 1.0445(27) 0.7338(16) 0.1628(12)
H15 H 1.0383(27) 0.8786(16) 0.1187(12)
C19 C 1.117(3) 0.7947(15) 0.0319(11)
H16 H 1.0933(30) 0.7191(15) 0.0212(11)
H17 H 1.0886(30) 0.8648(15) -0.0226(11)
C20 C 1.294(3) 0.7939(19) 0.0488(13)
H18 H 1.3135(33) 0.8650(19) 0.0663(13)
H19 H 1.3221(33) 0.7196(19) 0.1005(13)
C21 C 1.402(3) 0.797(2) -0.0219(13)
H20 H 1.5137(26) 0.7955(20) -0.0028(13)
H21 H 1.3798(26) 0.8722(20) -0.0730(13)
H22 H 1.3868(26) 0.7263(20) -0.0392(13)
C22 C 0.8128(15) 0.0922(10) 0.4162(8)
H23 H 0.7915(15) 0.0214(10) 0.4709(8)
H24 H 0.9301(15) 0.0905(10) 0.4015(8)
C23 C 0.715(2) 0.0857(10) 0.3398(8)
H25 H 0.7516(20) 0.0115(10) 0.3276(8)
H26 H 0.7394(20) 0.1569(10) 0.2859(8)
C24 C 0.532(2) 0.0836(11) 0.3545(9)
H27 H 0.4946(20) 0.1544(11) 0.3712(9)
H28 H 0.5051(20) 0.0087(11) 0.4050(9)
C25 C 0.437(2) 0.0875(10) 0.2706(9)
H29 H 0.4641(21) 0.1618(10) 0.2198(9)
H30 H 0.4722(21) 0.016(1) 0.2544(9)
C26 C 0.254(2) 0.0872(12) 0.2853(9)
H31 H 0.2177(20) 0.1607(12) 0.2987(9)
H32 H 0.2268(20) 0.0148(12) 0.3377(9)
C27 C 0.1614(19) 0.0853(14) 0.2033(10)
H33 H 0.0446(19) 0.0842(14) 0.2163(10)
H34 H 0.1960(19) 0.0122(14) 0.1901(10)
H35 H 0.1850(19) 0.1581(14) 0.1517(10)
O5? O 1.248(2) 0.4197(15) 0.2001(10)
O6? O 1.1499(16) 0.4145(11) 0.0815(9)
N2? N 1.123(2) 0.4268(14) 0.1548(12)
O7 O 0.395(4) 0.454(2) 0.075(2)
N3 N 0.454(3) 0.463(3) 0.146(2)
O8 O 0.287(4) 0.472(3) 0.184(2)
#END
