
#######################################################################
#
#                 Cambridge Crystallographic Data Centre
#                                CCDC
#
#######################################################################
#
# If this CIF has been generated from an entry in the Cambridge
# Structural Database, then it will include bibliographic, chemical,
# crystal, experimental, refinement or atomic coordinate data resulting
# from the CCDC's data processing and validation procedures.
#
#######################################################################

data_CSD_CIF_TIQQIV
_audit_creation_date 2013-10-11
_audit_creation_method CSD-ConQuest-V1
_database_code_CSD TIQQIV
_database_code_depnum_ccdc_archive 'CCDC 902551'
_chemical_formula_sum 'C36 H33 N7 O6'
_chemical_formula_moiety
;
C36 H33 N7 O6
;
_journal_coden_Cambridge 1220
_journal_volume 19
_journal_year 2013
_journal_page_first 8839
_journal_name_full 'Chem.-Eur.J. '
loop_
_publ_author_name
"J.L.Kolanowski"
"E.Jeanneau"
"R.Steinhoff"
"J.Hasserodt"
_chemical_name_systematic
;
Dimethyl 
9-oxo-7-((5-phenyl-1,2,4-oxadiazol-3-yl)methyl)-2,4-bis(pyridin-2-yl)-3-(pyrid
in-2-ylmethyl)-3,7-diazabicyclo[3.3.1]nonane-1,5-dicarboxylate
;
_cell_volume   3253.116
_exptl_crystal_colour 'colorless'
_exptl_crystal_density_diffrn 1.347
_exptl_crystal_description 'needle'
_diffrn_ambient_temperature 110
#These two values have been output from a single CSD field.
_refine_ls_R_factor_gt 0.0459
_refine_ls_wR_factor_gt 0.0459
_symmetry_cell_setting monoclinic
_symmetry_space_group_name_H-M 'P 21/c'
_symmetry_Int_Tables_number 14
loop_
_symmetry_equiv_pos_site_id
_symmetry_equiv_pos_as_xyz
1 x,y,z
2 -x,1/2+y,1/2-z
3 -x,-y,-z
4 x,-1/2-y,-1/2+z
_cell_length_a 9.8633(8)
_cell_length_b 15.327(1)
_cell_length_c 21.604(2)
_cell_angle_alpha 90
_cell_angle_beta 95.087(8)
_cell_angle_gamma 90
_cell_formula_units_Z 4
loop_
_atom_type_symbol
_atom_type_radius_bond
C 0.68
H 0.23
N 0.68
O 0.68
loop_
_atom_site_label
_atom_site_type_symbol
_atom_site_fract_x
_atom_site_fract_y
_atom_site_fract_z
O1 O 0.38948(13) 0.78094(8) 0.94642(6)
C1 C 0.40190(16) 0.74444(11) 0.89797(7)
O2 O 0.45886(12) 0.78017(7) 0.85031(5)
C2 C 0.5141(2) 0.86649(12) 0.86108(9)
H1 H 0.56480 0.88160 0.82530
H2 H 0.44010 0.90900 0.86500
H3 H 0.57390 0.86470 0.89900
C3 C 0.35739(15) 0.65122(10) 0.88351(7)
C4 C 0.30525(17) 0.60966(10) 0.94252(7)
N1 N 0.27419(14) 0.51724(9) 0.93363(6)
C5 C 0.39267(16) 0.46914(10) 0.91574(8)
C6 C 0.43772(16) 0.50410(11) 0.85384(8)
C7 C 0.47963(17) 0.59734(11) 0.86860(7)
O3 O 0.59625(12) 0.62185(8) 0.87512(6)
C8 C 0.32258(16) 0.49905(10) 0.79891(7)
N2 N 0.21292(13) 0.56321(9) 0.80319(6)
C9 C 0.25245(16) 0.6509(1) 0.82435(7)
C10 C 0.12632(16) 0.70296(11) 0.83765(7)
N3 N 0.13115(14) 0.78762(9) 0.82324(7)
C11 C 0.02368(18) 0.83666(12) 0.83503(8)
C12 C -0.09087(18) 0.80453(13) 0.85976(9)
C13 C -0.09466(18) 0.71708(12) 0.87401(8)
C14 C 0.01588(17) 0.66515(12) 0.86340(8)
H4 H 0.01800 0.60400 0.87270
H5 H -0.17100 0.69160 0.89110
H6 H -0.16330 0.84250 0.86600
H7 H 0.02880 0.89960 0.82600
H8 H 0.29400 0.68280 0.79240
C15 C 0.12544(17) 0.56630(11) 0.74365(8)
C16 C 0.19331(16) 0.59137(11) 0.68607(8)
N4 N 0.22124(14) 0.52515(9) 0.64871(7)
C17 C 0.27776(18) 0.54472(12) 0.59627(8)
C18 C 0.31034(18) 0.62840(13) 0.57878(9)
C19 C 0.2828(2) 0.69631(13) 0.61789(9)
C20 C 0.22219(18) 0.67769(11) 0.67210(8)
H9 H 0.19810 0.72300 0.70010
H10 H 0.30300 0.75580 0.60800
H11 H 0.35070 0.63790 0.54070
H12 H 0.29300 0.49740 0.56910
H13 H 0.05140 0.60750 0.74890
H14 H 0.08930 0.50740 0.73780
C21 C 0.26706(18) 0.40666(11) 0.79742(8)
N5 N 0.35066(17) 0.34759(10) 0.77531(7)
C22 C 0.3140(2) 0.26367(13) 0.77685(10)
C23 C 0.1949(2) 0.23535(13) 0.79957(10)
C24 C 0.1094(2) 0.29677(13) 0.82183(9)
C25 C 0.14473(19) 0.38408(12) 0.82090(8)
H15 H 0.09000 0.42800 0.83550
H16 H 0.02900 0.28050 0.83790
H17 H 0.17320 0.17340 0.79940
H18 H 0.37590 0.22300 0.76130
H19 H 0.36710 0.50820 0.76100
C26 C 0.56511(17) 0.45474(11) 0.83784(8)
O4 O 0.60534(12) 0.48104(8) 0.78366(6)
C27 C 0.7282(2) 0.44126(18) 0.76575(11)
H20 H 0.74890 0.47250 0.72860
H21 H 0.80340 0.44880 0.79790
H22 H 0.71050 0.38130 0.75630
O5 O 0.62503(13) 0.40293(8) 0.87187(6)
H23 H 0.46920 0.47550 0.94810
H24 H 0.36920 0.40900 0.91240
C28 C 0.22563(17) 0.48235(11) 0.99110(8)
C29 C 0.16934(17) 0.39234(11) 0.98258(8)
N6 N 0.03826(15) 0.37783(10) 0.97668(8)
O6 O 0.02885(12) 0.28675(8) 0.96862(6)
C30 C 0.15868(17) 0.25717(11) 0.97071(8)
N7 N 0.24878(14) 0.31881(9) 0.97962(7)
C31 C 0.18145(17) 0.16496(11) 0.96005(8)
C32 C 0.07244(18) 0.10718(11) 0.94953(8)
C33 C 0.09683(18) 0.02075(12) 0.93617(9)
C34 C 0.22891(19) -0.00891(12) 0.93323(8)
C35 C 0.33766(19) 0.04873(12) 0.94398(9)
C36 C 0.31502(18) 0.13521(12) 0.95728(8)
H25 H 0.38780 0.17330 0.96530
H26 H 0.43030 0.02860 0.94250
H27 H 0.24530 -0.06800 0.92550
H28 H 0.02340 -0.01830 0.92910
H29 H -0.01900 0.12600 0.95150
H30 H 0.15680 0.52050 1.00250
H31 H 0.29770 0.48200 1.02460
H32 H 0.22280 0.63950 0.95400
H33 H 0.37560 0.61840 0.97730
#END
