
#######################################################################
#
#                 Cambridge Crystallographic Data Centre
#                                CCDC
#
#######################################################################
#
# If this CIF has been generated from an entry in the Cambridge
# Structural Database, then it will include bibliographic, chemical,
# crystal, experimental, refinement or atomic coordinate data resulting
# from the CCDC's data processing and validation procedures.
#
#######################################################################

data_CSD_CIF_TIQXEW
_audit_creation_date 1997-03-26
_audit_creation_method CSD-ConQuest-V1
_database_code_CSD TIQXEW
_chemical_formula_sum 'C20 H27 N1 O7'
_chemical_formula_moiety
;
C20 H27 N1 O7
;
_journal_coden_Cambridge 1090
_journal_volume 7
_journal_year 1996
_journal_page_first 1907
_journal_name_full 'Tetrahedron:Asymm. '
loop_
_publ_author_name
"R.L.Dorta"
"A.Martin"
"E.Suarez"
"T.Prange"
_chemical_name_systematic
;
3'-Methoxy-6'-(3-(4-nitrobenzoyloxy)propyl)oxane-2'-spiro-2-oxane
;
_chemical_melting_point 355.15
_cell_volume   4241.306
_exptl_crystal_density_diffrn 1.232
_diffrn_ambient_temperature ?
_diffrn_special_details
;
The study was carried out at room temperature,in the range 283-303K

;
#These two values have been output from a single CSD field.
_refine_ls_R_factor_gt 0.0502
_refine_ls_wR_factor_gt 0.0502
_symmetry_cell_setting tetragonal
_symmetry_space_group_name_H-M 'P 43 21 2'
_symmetry_Int_Tables_number 96
loop_
_symmetry_equiv_pos_site_id
_symmetry_equiv_pos_as_xyz
1 x,y,z
2 1/2-y,1/2+x,3/4+z
3 1/2+x,1/2-y,1/4-z
4 -x,-y,1/2+z
5 y,x,-z
6 1/2+y,1/2-x,1/4+z
7 1/2-x,1/2+y,3/4-z
8 -y,-x,1/2-z
_cell_length_a 11.259(2)
_cell_length_b 11.259(2)
_cell_length_c 33.458(11)
_cell_angle_alpha 90
_cell_angle_beta 90
_cell_angle_gamma 90
_cell_formula_units_Z 8
loop_
_atom_type_symbol
_atom_type_radius_bond
C 0.68
H 0.23
N 0.68
O 0.68
loop_
_atom_site_label
_atom_site_type_symbol
_atom_site_fract_x
_atom_site_fract_y
_atom_site_fract_z
C1 C 0.3298(7) -0.1702(5) 0.0151(2)
H1 H 0.2638(57) -0.2053(54) 0.0328(14)
C2 C 0.4317(8) -0.2556(6) 0.0078(2)
H2 H 0.4749(56) -0.2683(53) 0.0332(14)
H3 H 0.5002(54) -0.2115(56) -0.0091(16)
C3 C 0.3875(8) -0.3676(6) -0.0124(2)
H4 H 0.4611(56) -0.4137(51) -0.0146(15)
H5 H 0.3258(54) -0.4104(55) 0.0041(16)
C4 C 0.3178(7) -0.3391(5) -0.04998(15)
H6 H 0.2694(53) -0.4231(55) -0.0582(14)
O1 O 0.3935(5) -0.2875(3) -0.0793(1)
C5 C 0.4512(12) -0.3709(7) -0.1031(3)
H7 H 0.5085(55) -0.3320(53) -0.1204(16)
H8 H 0.5053(61) -0.4172(58) -0.0846(14)
H9 H 0.4121(62) -0.4375(60) -0.1094(18)
C6 C 0.2212(6) -0.2483(5) -0.04101(13)
O2 O 0.1413(5) -0.3121(3) -0.01601(10)
C7 C 0.1605(7) -0.2030(6) -0.0789(2)
H10 H 0.1373(60) -0.2839(56) -0.0911(15)
H11 H 0.2140(56) -0.1484(63) -0.0921(15)
C8 C 0.0498(9) -0.1345(8) -0.0690(2)
H12 H 0.0752(52) -0.0502(53) -0.0526(14)
H13 H 0.0035(54) -0.1148(59) -0.0912(15)
C9 C -0.0316(8) -0.2082(9) -0.0430(2)
H14 H -0.1111(57) -0.1601(56) -0.0309(14)
H15 H -0.0684(60) -0.2863(56) -0.0529(16)
C10 C 0.0365(9) -0.2481(8) -0.0057(2)
H16 H -0.0004(61) -0.2936(60) 0.0100(17)
H17 H 0.0671(55) -0.1744(53) 0.0109(16)
O3 O 0.2668(4) -0.1465(3) -0.02159(8)
C11 C 0.3722(6) -0.0495(6) 0.0299(2)
H18 H 0.4313(50) -0.0090(56) 0.0112(14)
H19 H 0.4272(52) -0.0545(55) 0.0542(14)
C12 C 0.2737(6) 0.0429(6) 0.0364(2)
H20 H 0.2090(56) 0.0131(56) 0.0585(14)
H21 H 0.2213(52) 0.0536(60) 0.0148(14)
C13 C 0.3295(6) 0.1570(6) 0.0496(2)
H22 H 0.3732(56) 0.1942(54) 0.0244(14)
H23 H 0.3694(58) 0.1410(59) 0.0741(14)
O4 O 0.2355(3) 0.2439(3) 0.05657(10)
C14 C 0.2745(5) 0.3537(6) 0.06493(14)
O5 O 0.3775(4) 0.3784(4) 0.06393(14)
C15 C 0.1809(4) 0.4380(5) 0.07552(12)
C16 C 0.0612(4) 0.4100(5) 0.07531(13)
H24 H 0.0365(4) 0.3348(5) 0.06732(13)
C17 C -0.0212(5) 0.4933(5) 0.08691(14)
H25 H -0.1020(5) 0.4762(5) 0.08653(14)
C18 C 0.0193(5) 0.6024(5) 0.09905(15)
C19 C 0.1354(6) 0.6339(5) 0.10001(14)
H26 H 0.1590(6) 0.7089(5) 0.10857(14)
C20 C 0.2161(5) 0.5515(6) 0.08797(15)
H27 H 0.3008(54) 0.5665(61) 0.0859(15)
N1 N -0.0683(7) 0.6911(5) 0.1129(2)
O6 O -0.1705(6) 0.6668(7) 0.1107(3)
O7 O -0.0367(6) 0.7836(5) 0.1250(2)
#END
