
#######################################################################
#
#                 Cambridge Crystallographic Data Centre
#                                CCDC
#
#######################################################################
#
# If this CIF has been generated from an entry in the Cambridge
# Structural Database, then it will include bibliographic, chemical,
# crystal, experimental, refinement or atomic coordinate data resulting
# from the CCDC's data processing and validation procedures.
#
#######################################################################

data_CSD_CIF_TIRJUZ
_audit_creation_date 1997-04-03
_audit_creation_method CSD-ConQuest-V1
_database_code_CSD TIRJUZ
_database_code_depnum_ccdc_archive 'CCDC 1271374; CCDC 402308'
_database_code_depnum_ccdc_fiz 'CSD 402308'
_chemical_formula_sum 'C11 H11 N1 O3'
_chemical_formula_moiety
;
C11 H11 N1 O3
;
_journal_coden_Cambridge 643
_journal_volume 211
_journal_year 1996
_journal_page_first 563
_journal_name_full 'Z.Krist.Cryst.Mater. '
loop_
_publ_author_name
"M.Crisma"
"G.Valle"
"F.Formaggio"
"C.Toniolo"
_chemical_name_systematic
;
1-(Phenylmethoxy)-2,5-pyrrolidinedione
;
_chemical_name_common
;
N-Benzyloxy-succinimide
;
_chemical_melting_point 414
_cell_volume    514.027
_exptl_crystal_colour 'colorless'
_exptl_crystal_density_diffrn 1.326
_exptl_special_details
;
Melting point range 414-415K

;
_diffrn_ambient_temperature ?
_diffrn_special_details
;
The study was carried out at room temperature,in the range 283-303K

;
#These two values have been output from a single CSD field.
_refine_ls_R_factor_gt 0.0446
_refine_ls_wR_factor_gt 0.0446
_symmetry_cell_setting monoclinic
_symmetry_space_group_name_H-M 'P 21'
_symmetry_Int_Tables_number 4
loop_
_symmetry_equiv_pos_site_id
_symmetry_equiv_pos_as_xyz
1 x,y,z
2 -x,1/2+y,-z
_cell_length_a 5.936(1)
_cell_length_b 7.965(1)
_cell_length_c 11.050(1)
_cell_angle_alpha 90
_cell_angle_beta 100.30(5)
_cell_angle_gamma 90
_cell_formula_units_Z 2
loop_
_atom_type_symbol
_atom_type_radius_bond
C 0.68
H 0.23
N 0.68
O 0.68
loop_
_atom_site_label
_atom_site_type_symbol
_atom_site_fract_x
_atom_site_fract_y
_atom_site_fract_z
O1 O 0.3824(4) 0.25150 1.1802(2)
O2 O 0.5680(4) 0.3091(4) 0.9673(2)
O3 O 0.0049(3) 0.0348(5) 1.1180(2)
N1 N 0.2945(4) 0.1916(4) 1.0633(2)
C1 C 0.3965(5) 0.2264(5) 0.9635(3)
C2 C 0.2552(5) 0.1401(5) 0.8564(3)
H1 H 0.3437(5) 0.0535(5) 0.8247(3)
H2 H 0.2023(5) 0.2197(5) 0.7911(3)
C3 C 0.0547(5) 0.0639(6) 0.9037(3)
H3 H -0.0869(5) 0.1193(6) 0.8675(3)
H4 H 0.0413(5) -0.0548(6) 0.8840(3)
C4 C 0.1040(4) 0.0896(5) 1.0410(2)
C5 C 0.5451(5) 0.1274(5) 1.2448(3)
H5 H 0.6613(5) 0.1011(5) 1.1962(3)
H6 H 0.4655(5) 0.0247(5) 1.2583(3)
C6 C 0.6526(3) 0.2030(4) 1.36477(14)
C7 C 0.5476(3) 0.1869(4) 1.4670(2)
H7 H 0.4084(4) 0.1309(5) 1.4602(3)
C8 C 0.6507(4) 0.2544(4) 1.57930(15)
H8 H 0.5805(6) 0.2436(5) 1.6477(2)
C9 C 0.8588(4) 0.3380(4) 1.5894(2)
H9 H 0.9278(5) 0.3832(5) 1.6645(2)
C10 C 0.9637(3) 0.3541(4) 1.4872(2)
H10 H 1.1029(4) 0.4101(5) 1.4939(3)
C11 C 0.8606(3) 0.2866(4) 1.3749(2)
H11 H 0.9309(5) 0.2974(5) 1.3065(2)
#END
