
#######################################################################
#
#                 Cambridge Crystallographic Data Centre
#                                CCDC
#
#######################################################################
#
# If this CIF has been generated from an entry in the Cambridge
# Structural Database, then it will include bibliographic, chemical,
# crystal, experimental, refinement or atomic coordinate data resulting
# from the CCDC's data processing and validation procedures.
#
#######################################################################

data_CSD_CIF_TIRKOW
_audit_creation_date 2013-10-11
_audit_creation_method CSD-ConQuest-V1
_database_code_CSD TIRKOW
_database_code_depnum_ccdc_archive 'CCDC 828352'
_chemical_formula_sum 'C32 H47 N1 O5'
_chemical_formula_moiety
;
C32 H47 N1 O5
;
_journal_coden_Cambridge 1500
_journal_volume 3
_journal_year 2013
_journal_page_first 23105
_journal_name_full 'RSC Advances '
loop_
_publ_author_name
"J.Romanski"
"P.Nowak"
"A.Maksymiuk"
"C.Chapuis"
"J.Jurczak"
_chemical_name_systematic
;
bis(2-Isopropyl-5-methylcyclohexyl) 
3-(4-methylphenyl)-4,5-dihydro-1,2-oxazole-4,5-dicarboxylate
;
_cell_volume   1519.155
_exptl_crystal_colour 'white'
_exptl_crystal_density_diffrn 1.149
_exptl_crystal_description 'prismatic'
_diffrn_ambient_temperature 100
#These two values have been output from a single CSD field.
_refine_ls_R_factor_gt 0.0405
_refine_ls_wR_factor_gt 0.0405
_symmetry_cell_setting monoclinic
_symmetry_space_group_name_H-M 'P 21'
_symmetry_Int_Tables_number 4
loop_
_symmetry_equiv_pos_site_id
_symmetry_equiv_pos_as_xyz
1 x,y,z
2 -x,1/2+y,-z
_cell_length_a 9.0578(3)
_cell_length_b 17.9136(7)
_cell_length_c 10.2169(4)
_cell_angle_alpha 90
_cell_angle_beta 113.597(2)
_cell_angle_gamma 90
_cell_formula_units_Z 2
loop_
_atom_type_symbol
_atom_type_radius_bond
C 0.68
H 0.23
N 0.68
O 0.68
loop_
_atom_site_label
_atom_site_type_symbol
_atom_site_fract_x
_atom_site_fract_y
_atom_site_fract_z
O1 O 0.62748(14) 0.49265(7) 0.99655(11)
O2 O 0.82640(19) 0.40899(8) 1.03626(16)
O3 O 0.62045(15) 0.43199(8) 0.71107(14)
O4 O 1.09754(13) 0.56422(6) 0.85283(12)
O5 O 0.85409(15) 0.59084(7) 0.68216(13)
N1 N 0.70642(17) 0.39664(8) 0.64082(15)
C1 C 0.9691(2) 0.52827(13) 1.3415(2)
H1 H 1.07210 0.54910 1.34880
H2 H 0.95500 0.47830 1.29900
H3 H 0.96830 0.52490 1.43690
C2 C 0.8320(2) 0.57874(10) 1.2476(2)
C3 C 0.6633(2) 0.54892(10) 1.22208(17)
C4 C 0.62006(19) 0.47725(9) 1.13485(16)
C5 C 0.7334(2) 0.45577(9) 0.96293(17)
C6 C 0.7273(2) 0.48195(9) 0.81893(18)
C7 C 0.89188(18) 0.47584(8) 0.81144(16)
C8 C 0.85244(19) 0.41912(8) 0.69143(16)
C9 C 0.96947(19) 0.38935(8) 0.63903(17)
C10 C 0.9185(2) 0.34995(10) 0.51106(19)
C11 C 1.0301(2) 0.32029(10) 0.46433(19)
C12 C 1.1946(2) 0.32855(9) 0.54346(19)
C13 C 1.3161(2) 0.29221(11) 0.4975(2)
H4 H 1.35660 0.24640 0.55290
H5 H 1.40600 0.32660 0.51430
H6 H 1.26490 0.27990 0.39570
C14 C 0.8570(3) 0.65759(13) 1.3116(3)
H7 H 0.86310 0.65520 1.40950
H8 H 0.76640 0.68940 1.25360
H9 H 0.95740 0.67840 1.31250
C15 C 0.4498(2) 0.45114(10) 1.10210(17)
C16 C 0.4191(2) 0.43974(10) 1.23739(18)
C17 C 0.2438(2) 0.41803(13) 1.1987(2)
H10 H 0.22710 0.40840 1.28620
H11 H 0.21840 0.37290 1.13950
H12 H 0.17330 0.45890 1.14550
C18 C 0.4644(2) 0.51015(11) 1.32786(18)
C19 C 0.6354(2) 0.53555(11) 1.35925(18)
C20 C 1.2448(2) 0.36969(10) 0.6700(2)
C21 C 1.1339(2) 0.39955(9) 0.71781(19)
C22 C 0.94389(19) 0.55064(9) 0.77325(16)
C23 C 1.16574(19) 0.63307(9) 0.82252(19)
C24 C 1.2639(2) 0.67053(9) 0.9638(2)
C25 C 1.1664(3) 0.68542(10) 1.0561(2)
C26 C 1.0149(3) 0.73248(12) 0.9808(3)
C27 C 1.2737(4) 0.71965(14) 1.1992(3)
H13 H 1.29660 0.77180 1.18500
H14 H 1.37500 0.69170 1.24020
H15 H 1.21850 0.71750 1.26430
C28 C 1.3437(3) 0.74031(11) 0.9312(3)
C29 C 1.4405(3) 0.72109(12) 0.8435(3)
C30 C 1.3400(2) 0.68152(11) 0.7041(3)
C31 C 1.2647(2) 0.61174(10) 0.7380(2)
C32 C 1.4356(3) 0.66304(15) 0.6143(3)
H16 H 1.46850 0.70940 0.58270
H17 H 1.36810 0.63380 0.53070
H18 H 1.53150 0.63410 0.67180
H19 H 0.582(2) 0.5866(12) 1.164(2)
H20 H 0.371(2) 0.4873(12) 1.045(2)
H21 H 0.684(2) 0.5310(11) 0.798(2)
H22 H 0.389(3) 0.5531(15) 1.279(3)
H23 H 0.720(3) 0.4965(14) 1.420(2)
H24 H 1.348(3) 0.5780(13) 0.795(2)
H25 H 0.699(3) 0.4378(14) 1.183(3)
H26 H 0.994(3) 0.2953(13) 0.372(2)
H27 H 0.969(2) 0.4526(12) 0.893(2)
H28 H 1.360(3) 0.3794(14) 0.729(3)
H29 H 0.970(3) 0.7390(15) 1.052(3)
H30 H 1.172(3) 0.4289(13) 0.801(3)
H31 H 0.434(3) 0.4037(13) 1.052(2)
H32 H 1.357(3) 0.6348(14) 1.016(2)
H33 H 0.485(3) 0.4017(13) 1.291(2)
H34 H 1.077(3) 0.6628(12) 0.763(2)
H35 H 0.807(3) 0.3430(14) 0.457(3)
H36 H 1.407(3) 0.7591(16) 1.029(3)
H37 H 0.657(3) 0.5833(14) 1.408(3)
H38 H 1.253(3) 0.7124(14) 0.644(2)
H39 H 1.192(3) 0.5846(13) 0.643(2)
H40 H 1.138(3) 0.6361(13) 1.073(2)
H41 H 1.248(3) 0.7760(16) 0.870(3)
H42 H 0.836(3) 0.5802(13) 1.149(3)
H43 H 0.942(3) 0.7067(14) 0.892(3)
H44 H 1.534(3) 0.6909(16) 0.905(3)
H45 H 1.046(3) 0.7781(18) 0.959(3)
H46 H 0.455(3) 0.5008(14) 1.420(3)
H47 H 1.490(4) 0.7668(18) 0.825(3)
#END
