
#######################################################################
#
#                 Cambridge Crystallographic Data Centre
#                                CCDC
#
#######################################################################
#
# If this CIF has been generated from an entry in the Cambridge
# Structural Database, then it will include bibliographic, chemical,
# crystal, experimental, refinement or atomic coordinate data resulting
# from the CCDC's data processing and validation procedures.
#
#######################################################################

data_CSD_CIF_TISGUZ
_audit_creation_date 2013-10-11
_audit_creation_method CSD-ConQuest-V1
_database_code_CSD TISGUZ
_database_code_depnum_ccdc_archive 'CCDC 942262'
_chemical_formula_sum 'C6 H12 N2 O6'
_chemical_formula_moiety
;
C6 H12 N2 O6
;
_journal_coden_Cambridge 1135
_journal_volume 23
_journal_year 2013
_journal_page_first 289
_journal_name_full 'Mendeleev Commun. '
loop_
_publ_author_name
"V.G.Shtamburg"
"O.V.Shishkin"
"R.I.Zubatyuk"
"V.V.Shtamburg"
"A.V.Tsygankov"
"A.V.Mazepa"
"G.K.Kadorkina"
"R.G.Kostyanovsky"
_chemical_name_systematic
;
Dimethyl 1,2-dimethoxyhydrazine-1,2-dicarboxylate
;
_cell_volume    985.001
_exptl_crystal_density_diffrn 1.404
_diffrn_ambient_temperature 293
#These two values have been output from a single CSD field.
_refine_ls_R_factor_gt 0.0414
_refine_ls_wR_factor_gt 0.0414
_symmetry_cell_setting monoclinic
_symmetry_space_group_name_H-M 'C 2/c'
_symmetry_Int_Tables_number 15
loop_
_symmetry_equiv_pos_site_id
_symmetry_equiv_pos_as_xyz
1 x,y,z
2 -x,y,1/2-z
3 1/2+x,1/2+y,z
4 1/2-x,1/2+y,1/2-z
5 -x,-y,-z
6 x,-y,-1/2+z
7 -1/2-x,-1/2-y,-z
8 -1/2+x,-1/2-y,-1/2+z
_cell_length_a 14.3113(13)
_cell_length_b 8.5900(5)
_cell_length_c 9.1538(7)
_cell_angle_alpha 90
_cell_angle_beta 118.918(11)
_cell_angle_gamma 90
_cell_formula_units_Z 4
loop_
_atom_type_symbol
_atom_type_radius_bond
C 0.68
H 0.23
N 0.68
O 0.68
loop_
_atom_site_label
_atom_site_type_symbol
_atom_site_fract_x
_atom_site_fract_y
_atom_site_fract_z
O1 O 0.5041(1) 0.69521(14) 0.60438(14)
O2 O 0.69868(10) 0.80660(15) 0.75573(16)
O3 O 0.65786(8) 0.96718(14) 0.91004(13)
N1 N 0.52654(10) 0.83104(15) 0.70491(16)
C1 C 0.47381(16) 0.7388(2) 0.4361(2)
H1 H 0.45890 0.64690 0.36870
H2 H 0.53100 0.79560 0.43430
H3 H 0.41120 0.80310 0.39240
C2 C 0.76716(14) 1.0230(2) 0.9945(2)
H4 H 0.78350 1.07110 0.91480
H5 H 0.81470 0.93700 1.04650
H6 H 0.77560 1.09770 1.07790
C3 C 0.63688(12) 0.86181(18) 0.79367(19)
O1A O 0.4959(1) 0.69521(14) 0.89562(14)
O2A O 0.30132(10) 0.80660(15) 0.74427(16)
O3A O 0.34214(8) 0.96718(14) 0.58996(13)
N1A N 0.47346(10) 0.83104(15) 0.79509(16)
C1A C 0.52619(16) 0.7388(2) 1.0639(2)
H1A H 0.54110 0.64690 1.13130
H2A H 0.46900 0.79560 1.06570
H3A H 0.58880 0.80310 1.10760
C2A C 0.23284(14) 1.0230(2) 0.5055(2)
H4A H 0.21650 1.07110 0.58520
H5A H 0.18530 0.93700 0.45350
H6A H 0.22440 1.09770 0.42210
C3A C 0.36312(12) 0.86181(18) 0.70633(19)
#END
