
#######################################################################
#
#                 Cambridge Crystallographic Data Centre
#                                CCDC
#
#######################################################################
#
# If this CIF has been generated from an entry in the Cambridge
# Structural Database, then it will include bibliographic, chemical,
# crystal, experimental, refinement or atomic coordinate data resulting
# from the CCDC's data processing and validation procedures.
#
#######################################################################

data_CSD_CIF_TISNEP
_audit_creation_date 2008-03-24
_audit_creation_method CSD-ConQuest-V1
_database_code_CSD TISNEP
_database_code_depnum_ccdc_archive 'CCDC 655288'
_chemical_formula_sum 'C30 H27 N3 O5'
_chemical_formula_moiety
;
C30 H27 N3 O5
;
_journal_coden_Cambridge 16
_journal_volume 63
_journal_year 2007
_journal_page_first 12866
_journal_name_full 'Tetrahedron '
loop_
_publ_author_name
"Wei-Min Dai"
"Huoming Li"
_chemical_name_systematic
;
N-Benzyl-2-(N'-benzyl-(4'-methoxycarbonyl-2'-nitrophenyl)amino)-2-phenylacetam
ide
;
_chemical_melting_point 390.15
_cell_volume   2655.671
_exptl_crystal_colour 'yellow'
_exptl_crystal_density_diffrn 1.274
_exptl_special_details
;
Melting point range 390.15-392.15K

;
_exptl_crystal_description 'chunk'
_diffrn_ambient_temperature 296
#These two values have been output from a single CSD field.
_refine_ls_R_factor_gt 0.055
_refine_ls_wR_factor_gt 0.055
_symmetry_cell_setting triclinic
_symmetry_space_group_name_H-M 'P -1'
_symmetry_Int_Tables_number 2
loop_
_symmetry_equiv_pos_site_id
_symmetry_equiv_pos_as_xyz
1 x,y,z
2 -x,-y,-z
_cell_length_a 10.3335(5)
_cell_length_b 11.9020(6)
_cell_length_c 22.0458(11)
_cell_angle_alpha 84.5543(13)
_cell_angle_beta 85.2849(15)
_cell_angle_gamma 80.4532(12)
_cell_formula_units_Z 4
loop_
_atom_type_symbol
_atom_type_radius_bond
C 0.68
H 0.23
N 0.68
O 0.68
loop_
_atom_site_label
_atom_site_type_symbol
_atom_site_fract_x
_atom_site_fract_y
_atom_site_fract_z
O1 O 0.15057(19) 0.55132(14) 0.49455(9)
O2 O 0.4546(2) 0.0075(2) 0.58695(12)
O3 O 0.4889(2) 0.1696(2) 0.5406(1)
O4 O 0.0290(2) 0.2427(2) 0.78104(9)
O5 O 0.22673(19) 0.13913(18) 0.78648(8)
N1 N 0.23339(19) 0.24718(16) 0.49730(9)
N2 N 0.3338(2) 0.43558(19) 0.52477(10)
N3 N 0.4217(2) 0.1090(2) 0.57318(11)
C1 C 0.1831(2) 0.3592(2) 0.46581(11)
C2 C 0.2196(2) 0.4572(2) 0.49731(11)
C3 C 0.3755(2) 0.5186(2) 0.56040(12)
C4 C 0.3111(2) 0.5197(2) 0.62366(12)
C5 C 0.2081(3) 0.6017(3) 0.63906(16)
C6 C 0.1495(4) 0.6023(5) 0.6968(2)
C7 C 0.1909(4) 0.5194(5) 0.7400(2)
C8 C 0.2927(4) 0.4374(3) 0.72685(17)
C9 C 0.3525(3) 0.4369(2) 0.66876(14)
C10 C 0.2396(2) 0.3718(2) 0.40029(11)
C11 C 0.3716(2) 0.3384(2) 0.38375(13)
C12 C 0.4197(4) 0.3617(3) 0.32362(18)
C13 C 0.3358(5) 0.4155(3) 0.28097(17)
C14 C 0.2066(5) 0.4483(2) 0.29669(14)
C15 C 0.1574(3) 0.4264(2) 0.35609(12)
C16 C 0.2358(2) 0.1452(2) 0.46453(12)
C17 C 0.1059(3) 0.1288(2) 0.44182(12)
C18 C -0.0120(2) 0.1488(2) 0.47636(13)
C19 C -0.1277(3) 0.1271(2) 0.45584(18)
C20 C -0.1276(5) 0.0850(3) 0.4009(2)
C21 C -0.0131(5) 0.0634(5) 0.3665(2)
C22 C 0.1049(4) 0.0862(3) 0.38625(17)
C23 C 0.2053(2) 0.23532(19) 0.56100(11)
C24 C 0.0939(2) 0.2948(2) 0.59065(11)
C25 C 0.0709(2) 0.2801(2) 0.65327(11)
C26 C 0.1577(2) 0.2065(2) 0.68896(11)
C27 C 0.2705(2) 0.1476(2) 0.66110(11)
C28 C 0.2935(2) 0.1640(2) 0.59864(11)
C29 C 0.1291(2) 0.1976(2) 0.75607(12)
C30 C 0.2077(3) 0.1307(3) 0.85200(12)
H1 H 0.08710 0.36780 0.46610
H2 H 0.17710 0.65860 0.60950
H3 H 0.08070 0.66020 0.70630
H4 H 0.14900 0.51880 0.77900
H5 H 0.32260 0.38110 0.75690
H6 H 0.42220 0.37940 0.65990
H7 H 0.42790 0.30060 0.41260
H8 H 0.50860 0.34080 0.31250
H9 H 0.36800 0.42950 0.24080
H10 H 0.15080 0.48560 0.26750
H11 H 0.06840 0.44860 0.36650
H12 H -0.01370 0.17750 0.51430
H13 H -0.20590 0.14150 0.47990
H14 H -0.20560 0.07100 0.38700
H15 H -0.01260 0.03290 0.32910
H16 H 0.18240 0.07250 0.36160
H17 H 0.03410 0.34520 0.56790
H18 H -0.00440 0.32040 0.67180
H19 H 0.32990 0.09760 0.68430
H20 H 0.47000 0.50020 0.56310
H21 H 0.35380 0.59410 0.53950
H22 H 0.38360 0.37080 0.52120
H23 H 0.26570 0.07890 0.49180
H24 H 0.29830 0.14920 0.42940
H25 H 0.27670 0.07560 0.86900
H26 H 0.20940 0.20390 0.86660
H27 H 0.12430 0.10720 0.86410
O6 O 0.66758(18) -0.06636(13) 1.01219(8)
O7 O 0.8485(2) 0.42467(19) 0.86240(12)
O8 O 0.9130(2) 0.2732(2) 0.92071(10)
O9 O 0.5720(2) 0.1485(2) 0.68938(9)
O10 O 0.7244(2) 0.2620(2) 0.67793(8)
N4 N 0.65580(19) 0.23218(14) 0.96759(8)
N5 N 0.82372(19) 0.03229(17) 0.96893(9)
N6 N 0.8396(2) 0.3277(2) 0.88376(11)
C31 C 0.6162(2) 0.13805(19) 1.00977(10)
C32 C 0.7046(2) 0.0253(2) 0.99653(10)
C33 C 0.9148(2) -0.0681(2) 0.95253(12)
C34 C 0.8860(2) -0.1149(2) 0.89489(12)
C35 C 0.8867(3) -0.2292(2) 0.89168(17)
C36 C 0.8649(4) -0.2721(3) 0.8371(2)
C37 C 0.8404(4) -0.2003(4) 0.7866(2)
C38 C 0.8374(4) -0.0873(3) 0.78921(17)
C39 C 0.8617(3) -0.0450(2) 0.84293(13)
C40 C 0.6290(2) 0.1563(2) 1.07617(11)
C41 C 0.5282(2) 0.1382(2) 1.11945(12)
C42 C 0.5425(3) 0.1462(3) 1.18058(13)
C43 C 0.6579(3) 0.1714(2) 1.19895(13)
C44 C 0.7574(3) 0.1906(2) 1.15658(12)
C45 C 0.7432(2) 0.1838(2) 1.09544(11)
C46 C 0.5994(2) 0.3499(2) 0.98312(12)
C47 C 0.4678(2) 0.3941(2) 0.95810(12)
C48 C 0.4602(3) 0.4662(2) 0.90479(12)
C49 C 0.3401(4) 0.5076(2) 0.88075(16)
C50 C 0.2291(4) 0.4755(3) 0.9086(2)
C51 C 0.2339(3) 0.4039(3) 0.9607(2)
C52 C 0.3533(3) 0.3634(2) 0.98537(17)
C53 C 0.6519(2) 0.21946(19) 0.90448(10)
C54 C 0.5647(2) 0.1611(2) 0.88069(11)
C55 C 0.5628(2) 0.1564(2) 0.81828(11)
C56 C 0.6459(2) 0.2121(2) 0.77752(11)
C57 C 0.7327(2) 0.2715(2) 0.80002(11)
C58 C 0.7366(2) 0.2722(2) 0.86254(11)
C59 C 0.6416(2) 0.2025(2) 0.71129(12)
C60 C 0.7291(3) 0.2591(3) 0.61268(12)
H28 H 0.90200 -0.27930 0.92630
H29 H 0.86710 -0.35020 0.83560
H30 H 0.82590 -0.22870 0.75040
H31 H 0.81890 -0.03740 0.75480
H32 H 0.86140 0.03300 0.84360
H33 H 0.45030 0.12040 1.10730
H34 H 0.47400 0.13460 1.20940
H35 H 0.66800 0.17540 1.24020
H36 H 0.83500 0.20840 1.16890
H37 H 0.81110 0.19770 1.06680
H38 H 0.53660 0.48710 0.88500
H39 H 0.33590 0.55720 0.84550
H40 H 0.14870 0.50270 0.89220
H41 H 0.15700 0.38220 0.97950
H42 H 0.35580 0.31470 1.02100
H43 H 0.50670 0.12470 0.90700
H44 H 0.50500 0.11530 0.80340
H45 H 0.78780 0.31060 0.77350
H46 H 0.52480 0.13160 1.00410
H47 H 0.84690 0.09850 0.96070
H48 H 0.91140 -0.12740 0.98580
H49 H 1.00260 -0.04830 0.94710
H50 H 0.66030 0.40090 0.96680
H51 H 0.58940 0.35030 1.02720
H52 H 0.64190 0.28030 0.59900
H53 H 0.76440 0.18330 0.60190
H54 H 0.78400 0.31180 0.59360
#END
