
#######################################################################
#
#                 Cambridge Crystallographic Data Centre
#                                CCDC
#
#######################################################################
#
# If this CIF has been generated from an entry in the Cambridge
# Structural Database, then it will include bibliographic, chemical,
# crystal, experimental, refinement or atomic coordinate data resulting
# from the CCDC's data processing and validation procedures.
#
#######################################################################

data_CSD_CIF_TITWAV
_audit_creation_date 2008-03-24
_audit_creation_method CSD-ConQuest-V1
_database_code_CSD TITWAV
_database_code_depnum_ccdc_archive 'CCDC 679965'
_chemical_formula_sum 'C11 H8 N4 O3'
_chemical_formula_moiety
;
C11 H8 N4 O3
;
_journal_coeditor_code "IUCr BM5049"
_journal_coden_Cambridge 622
_journal_volume 64
_journal_year 2008
_journal_page_first 84
_journal_name_full 'Acta Crystallogr.,Sect.B:Struct.Sci. '
loop_
_publ_author_name
"S.M.S.V.Wardell"
"M.V.N.de Souza"
"T.R.A.Vasconcelos"
"M.de L.Ferreira"
"J.L.Wardell"
"J.N.Low"
"C.Glidewell"
_chemical_name_systematic
;
N-(2-Nitrophenyl)pyrazine-2-carboxamide
;
_chemical_melting_point 443
_cell_volume   1041.956
_exptl_crystal_colour 'yellow'
_exptl_crystal_density_diffrn 1.557
_exptl_special_details
;
Melting point range 443-445K

;
_exptl_crystal_description 'lath'
_exptl_crystal_preparation 'ethanol'
_diffrn_ambient_temperature 120
#These two values have been output from a single CSD field.
_refine_ls_R_factor_gt 0.0601
_refine_ls_wR_factor_gt 0.0601
_symmetry_cell_setting monoclinic
_symmetry_space_group_name_H-M 'P 21/n'
_symmetry_Int_Tables_number 14
loop_
_symmetry_equiv_pos_site_id
_symmetry_equiv_pos_as_xyz
1 x,y,z
2 1/2-x,1/2+y,1/2-z
3 -x,-y,-z
4 -1/2+x,-1/2-y,-1/2+z
_cell_length_a 3.6598(2)
_cell_length_b 21.7123(17)
_cell_length_c 13.1158(10)
_cell_angle_alpha 90
_cell_angle_beta 91.281(5)
_cell_angle_gamma 90
_cell_formula_units_Z 4
loop_
_atom_type_symbol
_atom_type_radius_bond
C 0.68
H 0.23
N 0.68
O 0.68
loop_
_atom_site_label
_atom_site_type_symbol
_atom_site_fract_x
_atom_site_fract_y
_atom_site_fract_z
N1 N -0.1850(5) 0.53464(9) 0.88022(16)
C1 C -0.0416(6) 0.56080(11) 0.79746(19)
C2 C -0.0117(6) 0.62421(11) 0.7878(2)
N2 N -0.1205(5) 0.66273(9) 0.86046(17)
C3 C -0.2559(6) 0.63660(11) 0.9435(2)
C4 C -0.2905(6) 0.57313(11) 0.95331(19)
C5 C 0.0926(6) 0.51945(11) 0.71441(19)
O1 O 0.2630(5) 0.54106(7) 0.64350(13)
N3 N 0.0104(5) 0.45926(8) 0.72852(15)
C6 C 0.0908(6) 0.40893(10) 0.66584(19)
C7 C 0.0410(6) 0.34788(11) 0.69925(18)
N4 N -0.0980(5) 0.33331(10) 0.79989(16)
O2 O -0.2605(5) 0.37332(8) 0.84866(13)
O3 O -0.0514(6) 0.28109(9) 0.83390(15)
C8 C 0.1230(6) 0.29763(11) 0.63835(19)
C9 C 0.2538(6) 0.30676(12) 0.54240(19)
C10 C 0.3049(6) 0.36632(11) 0.5075(2)
C11 C 0.2267(6) 0.41660(11) 0.56828(18)
H1 H 0.08940 0.64080 0.72760
H2 H -0.33140 0.66220 0.99780
H3 H -0.39190 0.55670 1.01360
H4 H -0.10970 0.44900 0.78340
H5 H 0.08860 0.25700 0.66320
H6 H 0.30880 0.27260 0.50020
H7 H 0.39500 0.37280 0.44100
H8 H 0.26630 0.45700 0.54300
#END
