
#######################################################################
#
#                 Cambridge Crystallographic Data Centre
#                                CCDC
#
#######################################################################
#
# If this CIF has been generated from an entry in the Cambridge
# Structural Database, then it will include bibliographic, chemical,
# crystal, experimental, refinement or atomic coordinate data resulting
# from the CCDC's data processing and validation procedures.
#
#######################################################################

data_CSD_CIF_TITZOM
_audit_creation_date 2008-03-24
_audit_creation_method CSD-ConQuest-V1
_database_code_CSD TITZOM
_database_code_depnum_ccdc_archive 'CCDC 680659'
_chemical_formula_sum 'C34 H35 N3 O2'
_chemical_formula_moiety
;
C34 H35 N3 O2
;
_journal_coeditor_code "IUCr CI2561"
_journal_coden_Cambridge 1370
_journal_volume 64
_journal_year 2008
_journal_page_first o590
_journal_name_full 'Acta Crystallogr.,Sect.E:Struct.Rep.Online '
loop_
_publ_author_name
"G.C.Begum"
"R.S.Kumar"
"J.Suresh"
"C.Gopinathan"
"P.L.N.Lakshman"
_chemical_name_systematic
;
(3R*,4R*,5S*)-4-(4-Methylphenyl)-2,3-diphenyl-7-((R*)-1-phenylethyl)-1-oxa-2,7
-diazaspiro(4.5)decan-10-one oxime
;
_chemical_melting_point 418
_cell_volume   2930.415
_exptl_crystal_colour 'colorless'
_exptl_crystal_density_diffrn 1.173
_exptl_crystal_description 'block'
_exptl_crystal_preparation 'ethanol'
_diffrn_ambient_temperature 293
#These two values have been output from a single CSD field.
_refine_ls_R_factor_gt 0.05
_refine_ls_wR_factor_gt 0.05
_symmetry_cell_setting orthorhombic
_symmetry_space_group_name_H-M 'P 21 21 21'
_symmetry_Int_Tables_number 19
loop_
_symmetry_equiv_pos_site_id
_symmetry_equiv_pos_as_xyz
1 x,y,z
2 1/2-x,-y,1/2+z
3 1/2+x,1/2-y,-z
4 -x,1/2+y,1/2-z
_cell_length_a 10.448(7)
_cell_length_b 10.588(9)
_cell_length_c 26.490(16)
_cell_angle_alpha 90
_cell_angle_beta 90
_cell_angle_gamma 90
_cell_formula_units_Z 4
loop_
_atom_type_symbol
_atom_type_radius_bond
C 0.68
H 0.23
N 0.68
O 0.68
loop_
_atom_site_label
_atom_site_type_symbol
_atom_site_fract_x
_atom_site_fract_y
_atom_site_fract_z
C1 C 0.1491(7) 0.2999(7) 0.2896(2)
H1 H 0.15020 0.35890 0.31760
H2 H 0.17780 0.21850 0.30200
C2 C 0.0135(7) 0.2879(6) 0.2695(2)
H3 H -0.04210 0.25570 0.29590
H4 H -0.01780 0.37040 0.25940
C3 C 0.0111(6) 0.2011(7) 0.2257(2)
C4 C 0.1068(6) 0.2330(6) 0.1843(2)
C5 C 0.2378(6) 0.2497(7) 0.2084(2)
H5 H 0.26630 0.16910 0.22180
H6 H 0.29850 0.27570 0.18270
C6 C 0.1025(6) 0.1445(6) 0.1374(2)
H7 H 0.03220 0.08490 0.14300
C7 C 0.0593(6) 0.2344(6) 0.0951(2)
H8 H 0.13480 0.27570 0.08060
C8 C 0.3678(7) 0.3610(7) 0.2705(3)
H9 H 0.39490 0.28040 0.28520
C9 C 0.3704(8) 0.4613(7) 0.3123(2)
H10 H 0.34000 0.54020 0.29900
H11 H 0.45640 0.47140 0.32430
H12 H 0.31630 0.43500 0.33960
C10 C -0.0448(7) 0.4453(7) 0.0987(3)
C11 C -0.1389(8) 0.4467(8) 0.0614(3)
H13 H -0.17660 0.37120 0.05150
C12 C -0.1768(8) 0.5572(10) 0.0391(3)
H14 H -0.23950 0.55540 0.01420
C13 C -0.1238(10) 0.6699(8) 0.0530(3)
H15 H -0.15070 0.74510 0.03830
C14 C -0.0303(9) 0.6693(8) 0.0890(3)
H16 H 0.00810 0.74520 0.09800
C15 C 0.0098(8) 0.5574(8) 0.1127(3)
H17 H 0.07260 0.55950 0.13760
C16 C 0.2166(7) 0.0680(7) 0.1229(2)
C17 C 0.3230(7) 0.1135(7) 0.0978(3)
H18 H 0.33070 0.19980 0.09210
C18 C 0.4189(8) 0.0327(7) 0.0807(3)
H19 H 0.48840 0.06620 0.06330
C19 C 0.4133(9) -0.0953(8) 0.0889(3)
C20 C 0.3100(9) -0.1418(8) 0.1145(3)
H20 H 0.30360 -0.22810 0.12070
C21 C 0.2152(8) -0.0616(8) 0.1312(3)
H21 H 0.14670 -0.09600 0.14890
C22 C 0.5171(7) -0.1818(8) 0.0674(3)
H22 H 0.53200 -0.16080 0.03270
H23 H 0.48970 -0.26810 0.06990
H24 H 0.59480 -0.17070 0.08630
C23 C -0.0138(8) 0.1710(7) 0.0537(3)
C24 C 0.0338(8) 0.1661(7) 0.0054(3)
H25 H 0.11120 0.20500 -0.00220
C25 C -0.0344(13) 0.1023(11) -0.0326(4)
H26 H -0.00230 0.09920 -0.06540
C26 C -0.1453(13) 0.0462(13) -0.0216(6)
H27 H -0.18770 0.00160 -0.04680
C27 C -0.1984(11) 0.0517(11) 0.0251(5)
H28 H -0.27800 0.01610 0.03160
C28 C -0.1287(10) 0.1135(8) 0.0636(3)
H29 H -0.16130 0.11510 0.09620
C29 C 0.4635(7) 0.3974(8) 0.2304(3)
C30 C 0.5805(9) 0.3409(10) 0.2280(4)
H30 H 0.59800 0.27310 0.24920
C31 C 0.6745(11) 0.3822(11) 0.1947(5)
H31 H 0.75410 0.34300 0.19380
C32 C 0.6480(11) 0.4818(11) 0.1631(4)
H32 H 0.71070 0.51170 0.14120
C33 C 0.5312(9) 0.5363(8) 0.1637(3)
H33 H 0.51270 0.60160 0.14150
C34 C 0.4391(7) 0.4953(8) 0.1974(3)
H34 H 0.35940 0.53430 0.19780
N1 N 0.2373(5) 0.3445(5) 0.2497(2)
N2 N -0.0569(5) 0.1010(5) 0.2211(2)
N3 N -0.0164(5) 0.3297(5) 0.12360(19)
O1 O -0.1378(5) 0.0870(4) 0.26317(17)
H35 H -0.17260 0.01770 0.26210
O2 O 0.0736(4) 0.3573(4) 0.16451(15)
#END
