
#######################################################################
#
#                 Cambridge Crystallographic Data Centre
#                                CCDC
#
#######################################################################
#
# If this CIF has been generated from an entry in the Cambridge
# Structural Database, then it will include bibliographic, chemical,
# crystal, experimental, refinement or atomic coordinate data resulting
# from the CCDC's data processing and validation procedures.
#
#######################################################################

data_CSD_CIF_TIVMUH
_audit_creation_date 2008-07-29
_audit_creation_method CSD-ConQuest-V1
_database_code_CSD TIVMUH
_database_code_depnum_ccdc_archive 'CCDC 676838'
_chemical_formula_sum 'C14 H13 N3 O3'
_chemical_formula_moiety
;
C14 H13 N3 O3
;
_journal_coden_Cambridge 1147
_journal_volume 7
_journal_year 2007
_journal_page_first 2675
_journal_name_full 'Cryst.Growth Des. '
loop_
_publ_author_name
"L.S.Reddy"
"S.K.Chandran"
"S.George"
"N.J.Babu"
"A.Nangia"
_chemical_name_systematic
;
N-(3-Methylphenyl)-N'-(4-nitrophenyl)urea
;
_chemical_melting_point 497.15
_cell_volume   1304.063
_exptl_crystal_colour 'yellow'
_exptl_crystal_density_diffrn 1.382
_exptl_special_details
;
Melting point range 497.15-500.15K

;
_exptl_crystal_description 'block'
_exptl_crystal_preparation 'methanol'
_diffrn_ambient_temperature 298
#These two values have been output from a single CSD field.
_refine_ls_R_factor_gt 0.0433
_refine_ls_wR_factor_gt 0.0433
_symmetry_cell_setting triclinic
_symmetry_space_group_name_H-M 'P -1'
_symmetry_Int_Tables_number 2
loop_
_symmetry_equiv_pos_site_id
_symmetry_equiv_pos_as_xyz
1 x,y,z
2 -x,-y,-z
_cell_length_a 6.8807(5)
_cell_length_b 12.7415(10)
_cell_length_c 15.2876(11)
_cell_angle_alpha 84.972(1)
_cell_angle_beta 81.159(1)
_cell_angle_gamma 80.654(1)
_cell_formula_units_Z 4
loop_
_atom_type_symbol
_atom_type_radius_bond
C 0.68
H 0.23
N 0.68
O 0.68
loop_
_atom_site_label
_atom_site_type_symbol
_atom_site_fract_x
_atom_site_fract_y
_atom_site_fract_z
O1 O 0.4147(2) 0.92429(10) 0.31744(8)
N1 N 0.3807(2) 1.08348(11) 0.38082(10)
N2 N 0.8883(2) 0.45275(11) 0.8782(1)
O2 O 0.9845(2) 0.6107(1) 0.81995(8)
O3 O 1.2628(2) 0.20466(12) 0.54182(9)
O4 O 1.1302(2) 0.08087(11) 0.62238(10)
N3 N 0.8045(2) 0.59971(12) 0.95788(10)
C1 C 0.8997(2) 0.55975(13) 0.88050(11)
N4 N 0.2825(2) 0.93894(12) 0.46288(10)
N5 N 0.6320(2) 1.36700(13) 0.10322(11)
C2 C 0.3630(2) 0.97693(13) 0.38160(11)
C3 C 1.1000(3) 0.24497(13) 0.68023(11)
C4 C 0.7748(3) 0.70583(13) 0.98264(12)
O5 O 0.6007(2) 1.46304(11) 0.11474(10)
O6 O 0.7115(2) 1.33211(12) 0.03207(9)
C5 C 0.6073(3) 1.18580(15) 0.16226(12)
H1 H 0.67200 1.16190 0.10800
N6 N 1.1685(2) 0.17189(13) 0.61093(10)
C6 C 1.1033(3) 0.41180(14) 0.73830(11)
H2 H 1.15210 0.47620 0.73450
C7 C 0.2447(3) 0.83446(13) 0.48996(12)
C8 C 0.9623(3) 0.38659(13) 0.80976(10)
C9 C 0.4180(3) 1.25883(14) 0.32180(12)
H3 H 0.35600 1.28330 0.37620
C10 C 1.1692(3) 0.34089(14) 0.67383(11)
H4 H 1.26110 0.35790 0.62550
C11 C 0.5722(3) 1.29270(13) 0.17532(11)
C12 C 0.5472(3) 1.11412(14) 0.22904(12)
H5 H 0.57270 1.04150 0.22040
C13 C 0.4783(3) 1.33024(14) 0.25510(12)
H6 H 0.45610 1.40290 0.26350
C14 C 0.9624(3) 0.21739(14) 0.75096(12)
H7 H 0.91690 0.15200 0.75490
C15 C 0.8946(3) 0.28852(14) 0.81508(12)
H8 H 0.80200 0.27110 0.86290
C16 C 0.8337(3) 0.78999(14) 0.92665(13)
H9 H 0.89930 0.77750 0.86980
C17 C 0.2979(3) 0.74925(14) 0.43620(12)
H10 H 0.36170 0.75980 0.37860
C18 C 0.6771(3) 0.72492(15) 1.06756(12)
H11 H 0.63660 0.66870 1.10520
C19 C 0.4481(2) 1.14997(13) 0.30965(11)
C20 C 0.1495(3) 0.81835(16) 0.57576(12)
H12 H 0.11280 0.87510 0.61220
C21 C 0.6402(3) 0.82628(16) 1.09616(15)
H13 H 0.57610 0.83850 1.15330
C22 C 0.7951(3) 0.89329(14) 0.95508(15)
C23 C 0.2567(3) 0.64793(14) 0.46762(14)
C24 C 0.1618(3) 0.63386(16) 0.55339(15)
H14 H 0.13320 0.56680 0.57510
C25 C 0.1093(3) 0.71828(17) 0.60697(15)
H15 H 0.04620 0.70770 0.66470
C26 C 0.3161(4) 0.55616(16) 0.40821(17)
H16 H 0.44720 0.52110 0.41630
H17 H 0.31570 0.58250 0.34750
H18 H 0.22340 0.50640 0.42310
C27 C 0.6981(3) 0.90980(16) 1.04035(16)
H19 H 0.67170 0.97840 1.06010
C28 C 0.8552(4) 0.98406(17) 0.89199(19)
H20 H 0.75890 1.00430 0.85190
H21 H 0.98340 0.96190 0.85880
H22 H 0.86150 1.04380 0.92500
H23 H 0.820(3) 0.4251(15) 0.9251(13)
H24 H 0.245(2) 0.9846(14) 0.5031(12)
H25 H 0.331(3) 1.1144(15) 0.4291(13)
H26 H 0.757(3) 0.5568(16) 0.9979(13)
#END
