
#######################################################################
#
#                 Cambridge Crystallographic Data Centre
#                                CCDC
#
#######################################################################
#
# If this CIF has been generated from an entry in the Cambridge
# Structural Database, then it will include bibliographic, chemical,
# crystal, experimental, refinement or atomic coordinate data resulting
# from the CCDC's data processing and validation procedures.
#
#######################################################################

data_CSD_CIF_TIVMER
_audit_creation_date 2008-07-29
_audit_creation_method CSD-ConQuest-V1
_database_code_CSD TIVMER
_database_code_depnum_ccdc_archive 'CCDC 676835'
_chemical_formula_sum 'C14 H10 N4 O3'
_chemical_formula_moiety
;
C14 H10 N4 O3
;
_journal_coden_Cambridge 1147
_journal_volume 7
_journal_year 2007
_journal_page_first 2675
_journal_name_full 'Cryst.Growth Des. '
loop_
_publ_author_name
"L.S.Reddy"
"S.K.Chandran"
"S.George"
"N.J.Babu"
"A.Nangia"
_chemical_name_systematic
;
N-(4-Cyanophenyl)-N'-(4-nitrophenyl)urea
;
_chemical_melting_point 523.15
_cell_volume   1272.978
_exptl_crystal_density_diffrn 1.473
_exptl_special_details
;
Melts above 523.15K
isomorphous and isostructural with the 4-fluorophenyl, 4-chlorophenyl and 
4-bromophenyl analogues
;
_exptl_crystal_preparation 'THF/ethanol'
_diffrn_ambient_temperature 293
#These two values have been output from a single CSD field.
_refine_ls_R_factor_gt 0.0501
_refine_ls_wR_factor_gt 0.0501
_symmetry_cell_setting monoclinic
_symmetry_space_group_name_H-M 'P 21/n'
_symmetry_Int_Tables_number 14
loop_
_symmetry_equiv_pos_site_id
_symmetry_equiv_pos_as_xyz
1 x,y,z
2 1/2-x,1/2+y,1/2-z
3 -x,-y,-z
4 -1/2+x,-1/2-y,-1/2+z
_cell_length_a 7.919(4)
_cell_length_b 13.692(6)
_cell_length_c 11.777(6)
_cell_angle_alpha 90
_cell_angle_beta 94.517(10)
_cell_angle_gamma 90
_cell_formula_units_Z 4
loop_
_atom_type_symbol
_atom_type_radius_bond
C 0.68
H 0.23
N 0.68
O 0.68
loop_
_atom_site_label
_atom_site_type_symbol
_atom_site_fract_x
_atom_site_fract_y
_atom_site_fract_z
O1 O 0.3379(2) 0.55071(11) 0.41474(13)
O2 O 0.5262(2) 0.09406(12) 0.19751(14)
O3 O 0.4318(3) 0.00479(13) 0.32784(17)
N1 N 0.1890(3) 0.57033(13) 0.57232(16)
H1 H 0.153(3) 0.5421(15) 0.6253(17)
N2 N 0.2461(2) 0.41773(13) 0.51152(17)
H2 H 0.195(3) 0.4026(14) 0.5705(18)
N3 N 0.4550(2) 0.08513(14) 0.28554(17)
N4 N 0.1092(3) 1.05665(16) 0.64803(19)
C1 C 0.2651(3) 0.51660(15) 0.49241(17)
C2 C 0.3022(3) 0.33830(14) 0.45086(17)
C3 C 0.3776(3) 0.34622(16) 0.34890(18)
H3 H 0.39520 0.40740 0.31750
C4 C 0.4262(3) 0.26324(15) 0.29444(17)
H4 H 0.47670 0.26810 0.22600
C5 C 0.3998(3) 0.17262(15) 0.34141(17)
C6 C 0.3259(3) 0.16310(16) 0.44289(19)
H5 H 0.30900 0.10170 0.47380
C7 C 0.2777(3) 0.24575(16) 0.49729(18)
H6 H 0.22810 0.24030 0.56600
C8 C 0.1751(3) 0.67205(14) 0.58294(17)
C9 C 0.2282(3) 0.73801(15) 0.50284(18)
H7 H 0.27660 0.71560 0.43830
C10 C 0.2081(3) 0.83657(16) 0.52019(19)
H8 H 0.24350 0.88070 0.46690
C11 C 0.1358(3) 0.87111(15) 0.61575(19)
C12 C 0.0830(3) 0.80552(16) 0.69552(18)
H9 H 0.03440 0.82810 0.75990
C13 C 0.1030(3) 0.70644(16) 0.67865(18)
H10 H 0.06770 0.66240 0.73210
C14 C 0.1188(3) 0.97459(17) 0.63385(19)
#END
