
#######################################################################
#
#                 Cambridge Crystallographic Data Centre
#                                CCDC
#
#######################################################################
#
# If this CIF has been generated from an entry in the Cambridge
# Structural Database, then it will include bibliographic, chemical,
# crystal, experimental, refinement or atomic coordinate data resulting
# from the CCDC's data processing and validation procedures.
#
#######################################################################

data_CSD_CIF_TIVPUK
_audit_creation_date 2008-07-29
_audit_creation_method CSD-ConQuest-V1
_database_code_CSD TIVPUK
_database_code_depnum_ccdc_archive 'CCDC 676848'
_chemical_formula_sum 'C15 H16 N4 O3'
_chemical_formula_moiety
;
C15 H16 N4 O3
;
_journal_coden_Cambridge 1147
_journal_volume 7
_journal_year 2007
_journal_page_first 2675
_journal_name_full 'Cryst.Growth Des. '
loop_
_publ_author_name
"L.S.Reddy"
"S.K.Chandran"
"S.George"
"N.J.Babu"
"A.Nangia"
_chemical_name_systematic
;
N-(4-Dimethylaminophenyl)-N'-(4-nitrophenyl)urea
;
_chemical_melting_point ?
_cell_volume   1448.840
_exptl_crystal_density_diffrn 1.377
_exptl_special_details
;
Sublimes at 519.15K

;
_exptl_crystal_preparation 'ethyl acetate/hexane'
_diffrn_ambient_temperature 293
#These two values have been output from a single CSD field.
_refine_ls_R_factor_gt 0.0749
_refine_ls_wR_factor_gt 0.0749
_symmetry_cell_setting triclinic
_symmetry_space_group_name_H-M 'P -1'
_symmetry_Int_Tables_number 2
loop_
_symmetry_equiv_pos_site_id
_symmetry_equiv_pos_as_xyz
1 x,y,z
2 -x,-y,-z
_cell_length_a 6.0710(12)
_cell_length_b 7.5613(15)
_cell_length_c 31.715(6)
_cell_angle_alpha 89.95(3)
_cell_angle_beta 87.01(3)
_cell_angle_gamma 85.23(3)
_cell_formula_units_Z 4
loop_
_atom_type_symbol
_atom_type_radius_bond
C 0.68
H 0.23
N 0.68
O 0.68
loop_
_atom_site_label
_atom_site_type_symbol
_atom_site_fract_x
_atom_site_fract_y
_atom_site_fract_z
O1 O 0.7243(6) 0.4877(5) 0.25096(11)
O2 O 0.9603(11) 0.2316(8) 0.04949(16)
O3 O 1.2971(12) 0.3478(8) 0.05164(17)
O4 O 0.1747(6) 0.0209(5) 0.24796(11)
O5 O -0.2797(9) 0.1858(8) 0.43370(16)
O6 O -0.0071(9) 0.3372(9) 0.46262(15)
N1 N 0.8608(8) 0.7479(6) 0.27957(14)
H1 H 0.963(7) 0.831(6) 0.2833(13)
N2 N 1.0037(8) 0.6525(6) 0.22055(14)
H2 H 1.097(7) 0.738(6) 0.2262(12)
N3 N 1.1133(13) 0.3218(8) 0.06617(17)
N4 N 0.4443(9) 0.7649(7) 0.43369(15)
N5 N 0.4832(8) 0.1646(6) 0.22305(14)
H3 H 0.588(8) 0.232(6) 0.2323(15)
N6 N 0.3371(8) 0.2688(6) 0.28129(14)
H4 H 0.456(8) 0.339(6) 0.2810(13)
N7 N -0.0948(9) 0.2590(8) 0.43294(16)
N8 N 0.5368(8) -0.1815(7) 0.06817(15)
C1 C 0.8497(9) 0.6218(7) 0.25063(16)
C2 C 1.0242(9) 0.5597(7) 0.18342(15)
C3 C 0.8538(10) 0.4566(7) 0.16316(17)
H5 H 0.71990 0.44700 0.17830
C4 C 0.8811(10) 0.3773(7) 0.12469(17)
H6 H 0.77650 0.31410 0.11220
C5 C 1.0839(11) 0.4041(7) 0.10720(17)
C6 C 1.2579(10) 0.5053(7) 0.12660(18)
H7 H 1.39100 0.51580 0.11130
C7 C 1.2282(9) 0.5803(7) 0.16485(17)
H8 H 1.33530 0.64020 0.17750
C8 C 0.7459(9) 0.7393(7) 0.31790(16)
C9 C 0.5450(9) 0.8105(7) 0.32001(17)
H9 H 0.47490 0.85120 0.29600
C10 C 0.4434(9) 0.8228(7) 0.35817(18)
H10 H 0.29990 0.87660 0.36080
C11 C 0.5443(9) 0.7572(7) 0.39526(16)
C12 C 0.7404(10) 0.6816(7) 0.39184(17)
H11 H 0.81050 0.63470 0.41520
C13 C 0.8398(9) 0.6724(7) 0.35378(17)
H12 H 0.98250 0.61720 0.35100
C14 C 0.2728(11) 0.883(1) 0.4393(2)
H13 H 0.32250 1.00020 0.43820
H14 H 0.19940 0.86480 0.46630
H15 H 0.17170 0.86990 0.41740
C15 C 0.5741(14) 0.7218(10) 0.47158(19)
H16 H 0.68830 0.80170 0.47320
H17 H 0.63990 0.60200 0.46940
H18 H 0.47760 0.73390 0.49650
C16 C 0.3189(8) 0.1429(7) 0.24999(16)
C17 C 0.2186(9) 0.2645(7) 0.31831(16)
C18 C 0.0054(8) 0.1857(7) 0.32034(16)
H19 H -0.05370 0.13980 0.29660
C19 C -0.0970(9) 0.1841(7) 0.35809(17)
H20 H -0.23230 0.13580 0.36240
C20 C 0.0134(9) 0.2628(7) 0.39326(16)
C21 C 0.2186(9) 0.3474(8) 0.39113(17)
H21 H 0.27270 0.39930 0.41460
C22 C 0.3235(9) 0.3463(7) 0.35388(17)
H22 H 0.45870 0.39510 0.34990
C23 C 0.4872(9) 0.0668(6) 0.18478(16)
C24 C 0.3134(9) 0.0560(7) 0.15555(16)
H23 H 0.17560 0.11110 0.16400
C25 C 0.3286(9) -0.0261(7) 0.11684(17)
H24 H 0.20980 -0.03010 0.09960
C26 C 0.5248(9) -0.0974(7) 0.10681(16)
C27 C 0.6992(9) -0.0882(7) 0.13671(17)
H25 H 0.83730 -0.14350 0.12850
C28 C 0.6807(9) -0.0063(7) 0.17568(16)
H26 H 0.79740 -0.00440 0.19350
C29 C 0.7441(10) -0.2323(10) 0.05511(19)
H27 H 0.82780 -0.13020 0.05250
H28 H 0.74470 -0.29050 0.02820
H29 H 0.80940 -0.31290 0.07520
C30 C 0.3592(11) -0.177(1) 0.03637(18)
H30 H 0.30750 -0.05610 0.03100
H31 H 0.23800 -0.24000 0.04740
H32 H 0.41920 -0.23210 0.01050
#END
