
#######################################################################
#
#                 Cambridge Crystallographic Data Centre
#                                CCDC
#
#######################################################################
#
# If this CIF has been generated from an entry in the Cambridge
# Structural Database, then it will include bibliographic, chemical,
# crystal, experimental, refinement or atomic coordinate data resulting
# from the CCDC's data processing and validation procedures.
#
#######################################################################

data_CSD_CIF_TIVRIB
_audit_creation_date 2014-02-17
_audit_creation_method CSD-ConQuest-V1
_database_code_CSD TIVRIB
_database_code_depnum_ccdc_archive 'CCDC 930276'
_chemical_formula_sum 'C20 H23 N1 O3'
_chemical_formula_moiety
;
C20 H23 N1 O3
;
_journal_coden_Cambridge 4
_journal_volume 135
_journal_year 2013
_journal_page_first 5316
_journal_name_full 'J.Am.Chem.Soc. '
loop_
_publ_author_name
"J.L.-Y Chen"
"H.K.Scott"
"M.J.Hesse"
"C.L.Willis"
"V.K.Aggarwal"
_chemical_name_systematic
;
5-Methyl-1-(4-nitrophenyl)-5-phenylhept-3-en-1-ol
;
_cell_volume   1714.801
_exptl_crystal_colour 'colorless'
_exptl_crystal_density_diffrn 1.26
_exptl_crystal_description 'block'
_diffrn_ambient_temperature 100
_refine_special_details
;
C7A,O3A and C7B,O3B disordered over two sites with occupancies 0.922:0.078.

;
#These two values have been output from a single CSD field.
_refine_ls_R_factor_gt 0.0418
_refine_ls_wR_factor_gt 0.0418
_symmetry_cell_setting monoclinic
_symmetry_space_group_name_H-M 'P 21'
_symmetry_Int_Tables_number 4
loop_
_symmetry_equiv_pos_site_id
_symmetry_equiv_pos_as_xyz
1 x,y,z
2 -x,1/2+y,-z
_cell_length_a 10.9675(4)
_cell_length_b 9.6115(3)
_cell_length_c 16.2934(5)
_cell_angle_alpha 90
_cell_angle_beta 93.245(2)
_cell_angle_gamma 90
_cell_formula_units_Z 4
loop_
_atom_type_symbol
_atom_type_radius_bond
C 0.68
H 0.23
N 0.68
O 0.68
loop_
_atom_site_label
_atom_site_type_symbol
_atom_site_fract_x
_atom_site_fract_y
_atom_site_fract_z
N1 N 0.2782(2) -0.0094(2) 0.58587(13)
O1 O 0.19129(17) -0.0651(2) 0.61796(11)
O2 O 0.35288(18) -0.0766(2) 0.54915(13)
C1 C 0.2915(2) 0.1408(3) 0.59240(14)
C2 C 0.2029(2) 0.2166(3) 0.62970(15)
H1 H 0.13500 0.17160 0.65180
C3 C 0.2155(2) 0.3597(3) 0.63407(16)
H2 H 0.15550 0.41380 0.65930
C4 C 0.3158(2) 0.4253(3) 0.60166(15)
C5 C 0.4044(2) 0.3448(3) 0.56548(16)
H3 H 0.47340 0.38870 0.54400
C6 C 0.3925(2) 0.2023(3) 0.56070(16)
H4 H 0.45250 0.14740 0.53610
C7 C 0.3308(2) 0.5815(3) 0.60504(15)
H5 H 0.34010 0.61620 0.54790
O3 O 0.22282(17) 0.6380(2) 0.63385(12)
H6 H 0.21930 0.72330 0.62270
C8 C 0.4447(2) 0.6242(3) 0.65825(15)
H7 H 0.51810 0.59190 0.63120
H8 H 0.44820 0.72700 0.66100
C9 C 0.4486(2) 0.5676(3) 0.74391(15)
H9 H 0.38600 0.59550 0.77840
C10 C 0.5331(2) 0.4813(3) 0.77487(15)
H10 H 0.59590 0.45740 0.73960
C11 C 0.5423(2) 0.4159(3) 0.85944(15)
C12 C 0.6621(2) 0.4642(3) 0.90506(16)
H11 H 0.67190 0.41340 0.95790
H12 H 0.73130 0.43810 0.87180
C13 C 0.6694(3) 0.6201(3) 0.92277(17)
H13 H 0.75170 0.64360 0.94500
H14 H 0.60970 0.64480 0.96290
H15 H 0.65150 0.67200 0.87170
C14 C 0.5409(2) 0.2567(3) 0.84717(15)
C15 C 0.6312(2) 0.1679(3) 0.87977(16)
H16 H 0.69960 0.20570 0.91060
C16 C 0.6235(3) 0.0252(3) 0.86819(18)
H17 H 0.68670 -0.03330 0.89080
C17 C 0.5246(3) -0.0329(3) 0.82403(16)
H18 H 0.51840 -0.13090 0.81720
C18 C 0.4346(3) 0.0542(3) 0.79000(16)
H19 H 0.36670 0.01610 0.75900
C19 C 0.4435(2) 0.1968(3) 0.80102(16)
H20 H 0.38180 0.25530 0.77660
C20 C 0.4333(2) 0.4549(3) 0.91020(16)
H21 H 0.44070 0.40700 0.96340
H22 H 0.35720 0.42680 0.88040
H23 H 0.43270 0.55570 0.91920
C21? C 0.3308(2) 0.5815(3) 0.60504(15)
H24? H 0.25840 0.61960 0.63220
O4? O 0.341(2) 0.649(3) 0.5405(13)
H25? H 0.30980 0.72800 0.54550
N2 N 0.2007(2) 0.7361(2) 0.40235(13)
O5 O 0.28681(17) 0.7993(2) 0.37583(12)
O6 O 0.11301(18) 0.7946(2) 0.43164(12)
C22 C 0.1994(2) 0.5839(3) 0.39843(14)
C23 C 0.1054(2) 0.5138(3) 0.43324(16)
H26 H 0.04400 0.56260 0.46030
C24 C 0.1035(2) 0.3700(3) 0.42746(15)
H27 H 0.03990 0.31940 0.45110
C25 C 0.1929(2) 0.2990(3) 0.38778(14)
C26 C 0.2861(2) 0.3733(3) 0.35368(16)
H28 H 0.34760 0.32460 0.32660
C27 C 0.2911(2) 0.5174(3) 0.35847(16)
H29 H 0.35490 0.56830 0.33530
C28 C 0.1885(2) 0.1425(3) 0.37789(14)
H30 H 0.27090 0.10380 0.39430
O7 O 0.10314(17) 0.08888(19) 0.43171(11)
H31 H 0.10190 0.00170 0.42840
C29 C 0.1556(2) 0.1016(3) 0.28811(14)
H32 H 0.22450 0.12680 0.25430
H33 H 0.14530 -0.00060 0.28500
C30 C 0.0416(2) 0.1695(3) 0.25212(15)
H34 H -0.03340 0.15040 0.27630
C31 C 0.0407(2) 0.2545(3) 0.18838(14)
H35 H 0.11780 0.27050 0.16620
C32 C -0.0660(2) 0.3298(3) 0.14593(15)
C33 C -0.0649(2) 0.2954(3) 0.05296(14)
H36 H -0.12950 0.35060 0.02320
H37 H 0.01450 0.32500 0.03280
C34 C -0.0846(3) 0.1418(3) 0.03185(16)
H38 H -0.07980 0.12850 -0.02750
H39 H -0.16530 0.11270 0.04830
H40 H -0.02150 0.08580 0.06120
C35 C -0.0514(2) 0.4884(3) 0.15648(15)
C36 C 0.0488(3) 0.5482(3) 0.19922(15)
H41 H 0.10950 0.48980 0.22490
C37 C 0.0616(3) 0.6917(3) 0.20501(16)
H42 H 0.13160 0.73010 0.23360
C38 C -0.0267(3) 0.7794(3) 0.16952(15)
H43 H -0.01820 0.87750 0.17370
C39 C -0.1277(2) 0.7210(3) 0.12786(17)
H44 H -0.18920 0.77980 0.10350
C40 C -0.1400(2) 0.5784(3) 0.12131(16)
H45 H -0.21000 0.54060 0.09240
C41 C -0.1877(2) 0.2846(3) 0.17959(15)
H46 H -0.25540 0.32520 0.14580
H47 H -0.19150 0.31680 0.23650
H48 H -0.19390 0.18290 0.17800
#END
