
#######################################################################
#
#                 Cambridge Crystallographic Data Centre
#                                CCDC
#
#######################################################################
#
# If this CIF has been generated from an entry in the Cambridge
# Structural Database, then it will include bibliographic, chemical,
# crystal, experimental, refinement or atomic coordinate data resulting
# from the CCDC's data processing and validation procedures.
#
#######################################################################

data_CSD_CIF_TIVRIA
_audit_creation_date 2008-07-29
_audit_creation_method CSD-ConQuest-V1
_database_code_CSD TIVRIA
_database_code_depnum_ccdc_archive 'CCDC 659519'
_chemical_formula_sum 'C46 H31 N5 O4'
_chemical_formula_moiety
;
C46 H31 N5 O4
;
_journal_coden_Cambridge 222
_journal_year 2008
_journal_page_first 469
_journal_name_full 'Dalton Trans. '
loop_
_publ_author_name
"K.Heinze"
"A.Reinhart"
_chemical_name_systematic
;
5-(4-Nitrophenyl)-15-(4-(methoxycarbonyl)phenyl)-10,20-diphenylporphyrin
;
_cell_volume   1849.857
_exptl_crystal_colour 'purple'
_exptl_crystal_density_diffrn 1.289
_exptl_crystal_description 'needle'
_diffrn_ambient_temperature 173
#These two values have been output from a single CSD field.
_refine_ls_R_factor_gt 0.054
_refine_ls_wR_factor_gt 0.054
_symmetry_cell_setting triclinic
_symmetry_space_group_name_H-M 'P -1'
_symmetry_Int_Tables_number 2
loop_
_symmetry_equiv_pos_site_id
_symmetry_equiv_pos_as_xyz
1 x,y,z
2 -x,-y,-z
_cell_length_a 6.5450(9)
_cell_length_b 12.5885(18)
_cell_length_c 23.214(3)
_cell_angle_alpha 96.636(3)
_cell_angle_beta 91.808(3)
_cell_angle_gamma 102.738(3)
_cell_formula_units_Z 2
loop_
_atom_type_symbol
_atom_type_radius_bond
C 0.68
H 0.23
N 0.68
O 0.68
loop_
_atom_site_label
_atom_site_type_symbol
_atom_site_fract_x
_atom_site_fract_y
_atom_site_fract_z
O1 O 1.7335(2) 0.71855(12) 0.05515(6)
O2 O 1.5061(2) 0.62946(11) -0.01847(6)
O3 O -0.6404(2) 0.34006(13) 0.54295(6)
O4 O -0.8504(2) 0.25603(13) 0.46968(7)
N1 N 0.6956(2) 0.61977(12) 0.26726(6)
N2 N 0.2950(2) 0.56939(12) 0.32262(6)
N3 N 0.1903(2) 0.34445(12) 0.26516(6)
N4 N 0.5919(2) 0.39493(12) 0.20973(6)
N5 N -0.6799(3) 0.31054(14) 0.49085(8)
C1 C 0.8573(3) 0.62665(15) 0.23057(8)
C2 C 0.9672(3) 0.73932(15) 0.23646(8)
H1 H 1.08700 0.76900 0.21650
C3 C 0.8689(3) 0.79643(15) 0.27596(8)
H2 H 0.90950 0.87300 0.28860
C4 C 0.6953(3) 0.72211(14) 0.29511(8)
C5 C 0.5449(3) 0.74990(15) 0.33205(8)
C6 C 0.3584(3) 0.67791(15) 0.34410(8)
C7 C 0.2067(3) 0.71129(15) 0.38246(8)
H3 H 0.21570 0.78240 0.40260
C8 C 0.0511(3) 0.62188(15) 0.38386(8)
H4 H -0.07220 0.61770 0.40480
C9 C 0.1084(3) 0.53297(15) 0.34704(8)
C10 C -0.0137(3) 0.42474(15) 0.33942(8)
C11 C 0.0277(3) 0.33790(15) 0.30144(8)
C12 C -0.0783(3) 0.22470(15) 0.29722(8)
H5 H -0.19760 0.19540 0.31740
C13 C 0.0222(3) 0.16667(15) 0.25913(8)
H6 H -0.01510 0.08960 0.24790
C14 C 0.1940(3) 0.24180(15) 0.23895(8)
C15 C 0.3452(3) 0.21329(14) 0.20211(8)
C16 C 0.5303(3) 0.28546(14) 0.18895(8)
C17 C 0.6793(3) 0.25349(15) 0.14925(8)
H7 H 0.67160 0.18230 0.12930
C18 C 0.8300(3) 0.34372(15) 0.14610(8)
H8 H 0.94970 0.34880 0.12360
C19 C 0.7747(3) 0.43217(15) 0.18376(8)
C20 C 0.8960(3) 0.54085(15) 0.19149(8)
C21 C 1.0702(3) 0.56915(14) 0.15212(8)
C22 C 1.0235(3) 0.56027(14) 0.09231(8)
H9 H 0.88250 0.53390 0.07730
C23 C 1.1813(3) 0.58961(14) 0.05469(8)
H10 H 1.14780 0.58310 0.01410
C24 C 1.3889(3) 0.62870(14) 0.07640(8)
C25 C 1.4367(3) 0.63782(15) 0.13583(8)
H11 H 1.57780 0.66460 0.15080
C26 C 1.2788(3) 0.60792(15) 0.17344(8)
H12 H 1.31290 0.61390 0.21390
C27 C -0.1914(3) 0.39756(14) 0.37783(8)
C28 C -0.3968(3) 0.35392(15) 0.35554(8)
H13 H -0.42660 0.34380 0.31470
C29 C -0.5585(3) 0.32504(16) 0.39189(8)
H14 H -0.69800 0.29420 0.37650
C30 C -0.5109(3) 0.34237(15) 0.45140(8)
C31 C -0.3105(3) 0.38642(15) 0.47527(8)
H15 H -0.28270 0.39820 0.51620
C32 C -0.1510(3) 0.41307(14) 0.43829(8)
H16 H -0.01160 0.44240 0.45410
C33 C 0.5869(3) 0.86623(15) 0.36018(8)
C34 C 0.4594(3) 0.93548(16) 0.34648(9)
H17 H 0.34670 0.90950 0.31790
C35 C 0.4950(3) 1.04244(17) 0.37411(10)
H18 H 0.40510 1.08870 0.36510
C36 C 0.6620(4) 1.08154(17) 0.41493(10)
H19 H 0.68670 1.15470 0.43380
C37 C 0.7922(4) 1.01397(17) 0.42812(10)
H20 H 0.90760 1.04100 0.45570
C38 C 0.7546(3) 0.90634(16) 0.40103(9)
H21 H 0.84400 0.86000 0.41050
C39 C 0.3025(3) 0.09702(15) 0.17482(8)
C40 C 0.1261(3) 0.05430(16) 0.13690(9)
H22 H 0.03250 0.09960 0.12920
C41 C 0.0855(4) -0.05313(18) 0.11044(10)
H23 H -0.03520 -0.08130 0.08480
C42 C 0.2217(4) -0.11932(17) 0.12149(10)
H24 H 0.19420 -0.19310 0.10340
C43 C 0.3975(4) -0.07854(17) 0.15879(10)
H25 H 0.49110 -0.12410 0.16600
C44 C 0.4375(3) 0.02886(16) 0.18579(9)
H26 H 0.55720 0.05610 0.21190
C45 C 1.5618(3) 0.66478(15) 0.03808(8)
C46 C 1.6665(3) 0.66326(17) -0.05831(9)
H27 H 1.68960 0.74260 -0.05930
H28 H 1.62110 0.62470 -0.09730
H29 H 1.79740 0.64530 -0.04530
H30 H 0.59910 0.55880 0.27290
H31 H 0.27600 0.41020 0.26310
#END
