
#######################################################################
#
#                 Cambridge Crystallographic Data Centre
#                                CCDC
#
#######################################################################
#
# If this CIF has been generated from an entry in the Cambridge
# Structural Database, then it will include bibliographic, chemical,
# crystal, experimental, refinement or atomic coordinate data resulting
# from the CCDC's data processing and validation procedures.
#
#######################################################################

data_CSD_CIF_TIVSUM
_audit_creation_date 1997-04-03
_audit_creation_method CSD-ConQuest-V1
_database_code_CSD TIVSUM
_database_code_depnum_ccdc_archive 'CCDC 1271733'
_chemical_formula_sum 'C13 H7 N3 O7'
_chemical_formula_moiety
;
C13 H7 N3 O7
;
_journal_coden_Cambridge 3
_journal_volume 50
_journal_year 1996
_journal_page_first 587
_journal_name_full 'Acta Chem.Scand. '
loop_
_publ_author_name
"C.P.Butts"
"L.Eberson"
"M.P.Hartshorn"
"W.T.Robinson"
"B.R.Wood"
_chemical_name_systematic
;
3-Trinitromethyldibenzofuran
;
_chemical_melting_point 350.15
_cell_volume   1310.557
_exptl_crystal_colour 'pale yellow'
_exptl_crystal_density_diffrn 1.608
_exptl_special_details
;
Melting point range 350.15-351.15K

;
_diffrn_ambient_temperature 163
#These two values have been output from a single CSD field.
_refine_ls_R_factor_gt 0.05
_refine_ls_wR_factor_gt 0.05
_symmetry_cell_setting monoclinic
_symmetry_space_group_name_H-M 'P 21/c'
_symmetry_Int_Tables_number 14
loop_
_symmetry_equiv_pos_site_id
_symmetry_equiv_pos_as_xyz
1 x,y,z
2 -x,1/2+y,1/2-z
3 -x,-y,-z
4 x,-1/2-y,-1/2+z
_cell_length_a 12.296(4)
_cell_length_b 6.893(4)
_cell_length_c 16.337(6)
_cell_angle_alpha 90
_cell_angle_beta 108.83(1)
_cell_angle_gamma 90
_cell_formula_units_Z 4
loop_
_atom_type_symbol
_atom_type_radius_bond
C 0.68
H 0.23
N 0.68
O 0.68
loop_
_atom_site_label
_atom_site_type_symbol
_atom_site_fract_x
_atom_site_fract_y
_atom_site_fract_z
O1 O 0.0337(1) 0.0218(2) 0.3624(1)
O2 O -0.5337(2) 0.1334(4) 0.3489(1)
O3 O -0.5015(2) -0.1584(4) 0.3138(2)
O4 O -0.3117(3) 0.1835(4) 0.5301(2)
O5 O -0.3359(3) 0.3453(4) 0.4147(2)
O6 O -0.4072(2) -0.1934(4) 0.4930(2)
O7 O -0.2347(2) -0.2323(3) 0.4938(1)
N1 N -0.4727(2) -0.0043(4) 0.3505(1)
N2 N -0.3283(2) 0.1974(4) 0.4556(2)
N3 N -0.3273(2) -0.1569(3) 0.4690(1)
C1 C -0.2483(2) 0.0073(3) 0.2046(2)
C2 C -0.3168(2) 0.0033(3) 0.2561(2)
C3 C -0.2701(2) 0.0057(3) 0.3465(2)
C4 C -0.1512(2) 0.0168(3) 0.3872(2)
C5 C -0.0847(2) 0.0169(3) 0.3338(2)
C6 C -0.1296(2) 0.0146(3) 0.2442(1)
C7 C -0.0313(2) 0.0172(3) 0.2140(2)
C8 C -0.0163(2) 0.0169(3) 0.1334(2)
C9 C 0.0948(2) 0.0188(3) 0.1298(2)
C10 C 0.1883(2) 0.0222(3) 0.2049(2)
C11 C 0.1758(2) 0.0242(3) 0.2856(2)
C12 C 0.0645(2) 0.0215(3) 0.2878(2)
C13 C -0.3457(2) 0.0083(3) 0.4016(2)
H1 H -0.1189(2) 0.0238(3) 0.4470(2)
H2 H 0.2620(2) 0.0232(3) 0.2007(2)
H3 H -0.3962(2) -0.0012(3) 0.2305(2)
H4 H 0.2388(2) 0.0272(3) 0.3359(2)
H5 H -0.2802(2) 0.0052(3) 0.1446(2)
H6 H 0.1066(2) 0.0178(3) 0.0764(2)
H7 H -0.0792(2) 0.0155(3) 0.0830(2)
#END
