
#######################################################################
#
#                 Cambridge Crystallographic Data Centre
#                                CCDC
#
#######################################################################
#
# If this CIF has been generated from an entry in the Cambridge
# Structural Database, then it will include bibliographic, chemical,
# crystal, experimental, refinement or atomic coordinate data resulting
# from the CCDC's data processing and validation procedures.
#
#######################################################################

data_CSD_CIF_TIVSIA
_audit_creation_date 1997-04-03
_audit_creation_method CSD-ConQuest-V1
_database_code_CSD TIVSIA
_database_code_depnum_ccdc_archive 'CCDC 1271731'
_chemical_formula_sum 'C13 H8 N4 O9'
_chemical_formula_moiety
;
C13 H8 N4 O9
;
_journal_coden_Cambridge 3
_journal_volume 50
_journal_year 1996
_journal_page_first 587
_journal_name_full 'Acta Chem.Scand. '
loop_
_publ_author_name
"C.P.Butts"
"L.Eberson"
"M.P.Hartshorn"
"W.T.Robinson"
"B.R.Wood"
_chemical_name_systematic
;
t-2-Nitro-r-1-trinitromethyl-1,2-dihydrodibenzofuran
;
_chemical_melting_point 373.15
_cell_volume   2877.759
_exptl_crystal_colour 'colorless'
_exptl_special_details
;
Melts with decomposition.

;
_diffrn_ambient_temperature 163
#These two values have been output from a single CSD field.
_refine_ls_R_factor_gt 0.034
_refine_ls_wR_factor_gt 0.034
_symmetry_cell_setting orthorhombic
_symmetry_space_group_name_H-M 'P c a 21'
_symmetry_Int_Tables_number 29
loop_
_symmetry_equiv_pos_site_id
_symmetry_equiv_pos_as_xyz
1 x,y,z
2 -x,-y,1/2+z
3 1/2-x,y,1/2+z
4 1/2+x,-y,z
_cell_length_a 12.160(3)
_cell_length_b 8.519(2)
_cell_length_c 27.78(1)
_cell_angle_alpha 90
_cell_angle_beta 90
_cell_angle_gamma 90
_cell_formula_units_Z 8
loop_
_atom_type_symbol
_atom_type_radius_bond
C 0.68
H 0.23
N 0.68
O 0.68
loop_
_atom_site_label
_atom_site_type_symbol
_atom_site_fract_x
_atom_site_fract_y
_atom_site_fract_z
O1 O 0.9215(3) 0.2726(4) 0.3255(1)
O2 O 1.1762(4) 0.2046(5) 0.4857(2)
O3 O 1.0694(4) 0.0114(5) 0.4742(2)
O4 O 0.8066(3) 0.5053(4) 0.4971(2)
O5 O 0.8018(3) 0.5578(5) 0.4207(2)
O6 O 0.9628(3) 0.7339(5) 0.5233(1)
O7 O 1.0638(3) 0.5243(5) 0.5333(1)
O8 O 0.9466(3) 0.7836(5) 0.4091(2)
O9 O 1.1113(3) 0.7125(4) 0.4300(1)
N1 N 1.0874(4) 0.1497(6) 0.4766(2)
N2 N 0.8489(3) 0.5430(5) 0.4584(2)
N3 N 1.0030(4) 0.6103(6) 0.5107(2)
N4 N 1.0112(4) 0.7008(5) 0.4293(2)
C1 C 1.0286(5) 0.4079(6) 0.4415(2)
C2 C 0.9882(4) 0.2616(6) 0.4712(2)
C3 C 0.8911(4) 0.1764(6) 0.4515(2)
C4 C 0.8658(5) 0.1845(6) 0.4054(2)
C5 C 0.9312(4) 0.2808(6) 0.3746(2)
C6 C 1.0103(4) 0.3813(6) 0.3889(2)
C7 C 1.0592(4) 0.4456(6) 0.3452(2)
C8 C 1.1451(4) 0.5448(6) 0.3333(2)
C9 C 1.1705(5) 0.5698(6) 0.2845(2)
C10 C 1.1084(5) 0.4977(6) 0.2490(2)
C11 C 1.0233(5) 0.3970(6) 0.2599(2)
C12 C 1.0006(4) 0.3724(6) 0.3083(2)
C13 C 0.9711(4) 0.5592(6) 0.4592(2)
H1 H 1.1094(5) 0.4201(6) 0.4470(2)
H2 H 0.9682(4) 0.2994(6) 0.5041(2)
H3 H 0.8467(4) 0.1153(6) 0.4725(2)
H4 H 0.8052(5) 0.1273(6) 0.3929(2)
H5 H 1.1864(4) 0.5955(6) 0.3578(2)
H6 H 1.2303(5) 0.6360(6) 0.2759(2)
H7 H 1.1249(5) 0.5184(6) 0.2162(2)
H8 H 0.9820(5) 0.3466(6) 0.2353(2)
O10 O 0.3247(3) 0.2461(4) 0.2601(1)
O11 O 0.0465(3) 0.3268(4) 0.1382(1)
O12 O 0.1499(4) 0.4992(5) 0.1048(2)
O13 O 0.4164(3) 0.0205(3) 0.0850(2)
O14 O 0.4340(3) -0.0253(5) 0.1625(2)
O15 O 0.2601(4) -0.2165(4) 0.0648(1)
O16 O 0.1520(3) -0.0137(5) 0.0589(1)
O17 O 0.3036(3) -0.2631(5) 0.1778(2)
O18 O 0.1331(3) -0.2065(4) 0.1629(1)
N5 N 0.1322(4) 0.3700(6) 0.1213(2)
N6 N 0.3822(4) -0.0163(6) 0.1244(2)
N7 N 0.2201(4) -0.0949(6) 0.0790(2)
N8 N 0.2316(4) -0.1848(5) 0.1596(2)
C14 C 0.2000(4) 0.1068(6) 0.1476(2)
C15 C 0.2307(4) 0.2545(6) 0.1180(2)
C16 C 0.3316(4) 0.3392(6) 0.1330(2)
C17 C 0.3698(5) 0.3312(6) 0.1789(2)
C18 C 0.3077(4) 0.2349(6) 0.2113(2)
C19 C 0.2281(4) 0.1336(6) 0.2003(2)
C20 C 0.1852(4) 0.0749(6) 0.2447(2)
C21 C 0.0977(5) -0.0240(7) 0.2591(2)
C22 C 0.0788(5) -0.0436(7) 0.3076(2)
C23 C 0.1428(5) 0.0317(7) 0.3414(2)
C24 C 0.2296(5) 0.1298(7) 0.3295(2)
C25 C 0.2453(5) 0.1478(6) 0.2802(2)
C26 C 0.2604(4) -0.0384(6) 0.1289(2)
H9 H 0.11904 0.0887(6) 0.1448(2)
H10 H 0.2395(4) 0.2225(6) 0.0836(2)
H11 H 0.3704(4) 0.4005(6) 0.1100(2)
H12 H 0.4338(5) 0.3861(6) 0.1889(2)
H13 H 0.0531(5) -0.0755(7) 0.2359(2)
H14 H 0.0207(5) -0.1102(7) 0.3179(2)
H15 H 0.1266(5) 0.0156(7) 0.3745(2)
H16 H 0.2743(5) 0.1803(7) 0.3529(2)
#END
