
#######################################################################
#
#                 Cambridge Crystallographic Data Centre
#                                CCDC
#
#######################################################################
#
# If this CIF has been generated from an entry in the Cambridge
# Structural Database, then it will include bibliographic, chemical,
# crystal, experimental, refinement or atomic coordinate data resulting
# from the CCDC's data processing and validation procedures.
#
#######################################################################

data_CSD_CIF_TIVSOG
_audit_creation_date 1997-04-03
_audit_creation_method CSD-ConQuest-V1
_database_code_CSD TIVSOG
_database_code_depnum_ccdc_archive 'CCDC 1271732'
_chemical_formula_sum 'C13 H9 N3 O8'
_chemical_formula_moiety
;
C13 H9 N3 O8
;
_journal_coden_Cambridge 3
_journal_volume 50
_journal_year 1996
_journal_page_first 587
_journal_name_full 'Acta Chem.Scand. '
loop_
_publ_author_name
"C.P.Butts"
"L.Eberson"
"M.P.Hartshorn"
"W.T.Robinson"
"B.R.Wood"
_chemical_name_systematic
;
c-4-Hydroxy-r-1-trinitromethyl-1,4-dihydrodibenzofuran
;
_chemical_melting_point 379.15
_cell_volume   2693.526
_exptl_crystal_colour 'colorless'
_exptl_crystal_density_diffrn 1.653
_exptl_special_details
;
Melting point range 379.15-381.15K

;
_diffrn_ambient_temperature 166
#These two values have been output from a single CSD field.
_refine_ls_R_factor_gt 0.079
_refine_ls_wR_factor_gt 0.079
_symmetry_cell_setting orthorhombic
_symmetry_space_group_name_H-M 'P c c n'
_symmetry_Int_Tables_number 56
loop_
_symmetry_equiv_pos_site_id
_symmetry_equiv_pos_as_xyz
1 x,y,z
2 1/2-x,1/2-y,z
3 1/2+x,-y,1/2-z
4 -x,1/2+y,1/2-z
5 -x,-y,-z
6 -1/2+x,-1/2+y,-z
7 -1/2-x,y,-1/2+z
8 x,-1/2-y,-1/2+z
_cell_length_a 9.386(4)
_cell_length_b 10.914(4)
_cell_length_c 26.294(9)
_cell_angle_alpha 90
_cell_angle_beta 90
_cell_angle_gamma 90
_cell_formula_units_Z 8
loop_
_atom_type_symbol
_atom_type_radius_bond
C 0.68
H 0.23
N 0.68
O 0.68
loop_
_atom_site_label
_atom_site_type_symbol
_atom_site_fract_x
_atom_site_fract_y
_atom_site_fract_z
O1 O -0.0902(7) 0.7918(6) 0.2637(2)
O2 O 0.0525(7) 0.6171(5) 0.1874(2)
O3 O -0.2619(7) 0.8796(6) 0.0672(2)
O4 O -0.0551(6) 0.8971(6) 0.0316(2)
O5 O -0.2309(7) 0.9017(6) 0.1694(2)
O6 O -0.2232(8) 1.0998(6) 0.1623(2)
O7 O -0.1469(7) 1.1468(6) 0.0603(2)
O8 O 0.0591(8) 1.1609(5) 0.0978(2)
N1 N -0.1378(8) 0.9112(7) 0.0653(3)
N2 N -0.1885(8) 0.9952(8) 0.1509(3)
N3 N -0.0522(9) 1.1090(7) 0.0875(3)
C1 C 0.0626(10) 0.9253(8) 0.1325(3)
C2 C 0.0915(10) 0.9901(9) 0.1822(3)
C3 C 0.0796(10) 0.9366(9) 0.2272(4)
C4 C 0.0441(11) 0.8058(9) 0.2365(3)
C5 C 0.0444(10) 0.7430(9) 0.1855(3)
C6 C 0.0549(11) 0.7894(7) 0.1405(3)
C7 C 0.0766(11) 0.6867(9) 0.1063(3)
C8 C 0.0713(10) 0.5843(8) 0.1366(3)
C9 C 0.0849(10) 0.4657(8) 0.1202(4)
C10 C 0.1150(9) 0.4508(8) 0.0687(3)
C11 C 0.1252(10) 0.5524(8) 0.0371(3)
C12 C 0.1054(9) 0.6696(8) 0.0554(3)
C13 C -0.0756(9) 0.9808(8) 0.1105(3)
H1 H 0.1427(10) 0.9432(8) 0.1085(3)
H2 H 0.1197(10) 1.0737(9) 0.1812(3)
H3 H 0.0952(10) 0.9865(9) 0.2563(4)
H4 H 0.1217(11) 0.7692(9) 0.2577(3)
H5 H 0.0743(10) 0.3978(8) 0.1425(4)
H6 H 0.1287(9) 0.3710(8) 0.0552(3)
H7 H 0.1464(10) 0.5409(8) 0.0021(3)
H8 H 0.1115(9) 0.7379(8) 0.0332(3)
H9 H -0.1546(22) 0.8302(67) 0.2483(19)
#END
