
#######################################################################
#
#                 Cambridge Crystallographic Data Centre
#                                CCDC
#
#######################################################################
#
# If this CIF has been generated from an entry in the Cambridge
# Structural Database, then it will include bibliographic, chemical,
# crystal, experimental, refinement or atomic coordinate data resulting
# from the CCDC's data processing and validation procedures.
#
#######################################################################

data_CSD_CIF_TIVTUP
_audit_creation_date 2014-02-17
_audit_creation_method CSD-ConQuest-V1
_database_code_CSD TIVTUP
_database_code_depnum_ccdc_archive 'CCDC 905717'
_chemical_formula_sum 'C16 H28 N2 O3'
_chemical_formula_moiety
;
C16 H28 N2 O3
;
_journal_coden_Cambridge 4
_journal_volume 135
_journal_year 2013
_journal_page_first 3355
_journal_name_full 'J.Am.Chem.Soc. '
loop_
_publ_author_name
"S.Maity"
"S.Manna"
"Sujoy Rana"
"T.Naveen"
"A.Mallick"
"D.Maiti"
_chemical_name_systematic
;
2,2,6,6-Tetramethyl-1-((3-nitrobicyclo[2.2.1]hept-2-yl)oxy)piperidine
;
_cell_volume   1631.917
_exptl_crystal_colour 'colorless'
_exptl_crystal_density_diffrn 1.206
_exptl_crystal_description 'plate'
_diffrn_ambient_temperature 293
#These two values have been output from a single CSD field.
_refine_ls_R_factor_gt 0.0532
_refine_ls_wR_factor_gt 0.0532
_symmetry_cell_setting monoclinic
_symmetry_space_group_name_H-M 'P 21 1 1'
_symmetry_Int_Tables_number 4
loop_
_symmetry_equiv_pos_site_id
_symmetry_equiv_pos_as_xyz
1 x,y,z
2 1/2+x,-y,-z
_cell_length_a 8.0513(4)
_cell_length_b 10.4170(6)
_cell_length_c 19.4576(10)
_cell_angle_alpha 90
_cell_angle_beta 90
_cell_angle_gamma 90
_cell_formula_units_Z 4
loop_
_atom_type_symbol
_atom_type_radius_bond
C 0.68
H 0.23
N 0.68
O 0.68
loop_
_atom_site_label
_atom_site_type_symbol
_atom_site_fract_x
_atom_site_fract_y
_atom_site_fract_z
O1 O 0.4210(3) 0.1921(2) 0.14454(11)
N1 N 0.4238(4) 0.1870(3) 0.06939(13)
C1 C 0.3780(5) 0.0757(4) 0.25050(18)
H1 H 0.40590 -0.01410 0.26010
C2 C 0.3785(5) 0.3201(4) 0.04604(18)
C3 C 0.3270(5) 0.0885(4) 0.17326(18)
H2 H 0.34760 0.00840 0.14830
C4 C 0.5977(6) 0.1463(4) -0.0303(2)
H3 H 0.70570 0.11730 -0.04610
H4 H 0.51460 0.08950 -0.04970
N2 N 0.5255(5) 0.1586(4) 0.26719(18)
C5 C 0.3994(6) 0.3236(4) -0.03179(19)
H5 H 0.31530 0.26920 -0.05250
H6 H 0.38030 0.41060 -0.04770
C6 C 0.0595(6) -0.0077(4) 0.2088(2)
H7 H 0.10220 -0.08360 0.18590
H8 H -0.06020 -0.00490 0.20330
C7 C 0.7422(5) 0.2020(5) 0.0812(2)
H9 H 0.75760 0.28530 0.06110
H10 H 0.83940 0.15060 0.07330
H11 H 0.72450 0.21090 0.12980
C8 C 0.5913(5) 0.1368(4) 0.04852(19)
C9 C 0.1409(5) 0.1144(4) 0.1802(2)
H12 H 0.08830 0.14850 0.13860
C10 C 0.5994(6) -0.0053(4) 0.0681(2)
H13 H 0.60490 -0.01320 0.11720
H14 H 0.69650 -0.04340 0.04800
H15 H 0.50210 -0.04840 0.05150
C11 C 0.1347(6) 0.2034(4) 0.2414(2)
H16 H 0.02210 0.22260 0.25590
H17 H 0.19630 0.28220 0.23410
C12 C 0.1078(6) -0.0068(4) 0.2850(2)
H18 H 0.16590 -0.08490 0.29760
H19 H 0.01090 0.00310 0.31410
C13 C 0.2228(6) 0.1110(4) 0.2898(2)
H20 H 0.24160 0.14360 0.33640
O2 O 0.5023(6) 0.2651(3) 0.28981(18)
C14 C 0.4746(6) 0.4292(4) 0.0804(2)
H21 H 0.47680 0.41590 0.12920
H22 H 0.42130 0.50950 0.07040
H23 H 0.58630 0.43080 0.06300
O3 O 0.6611(5) 0.1132(4) 0.2571(2)
C15 C 0.5680(7) 0.2802(4) -0.0564(2)
H24 H 0.65330 0.33750 -0.03920
H25 H 0.57180 0.28120 -0.10620
C16 C 0.1928(6) 0.3386(4) 0.0606(2)
H26 H 0.13200 0.26620 0.04340
H27 H 0.15460 0.41540 0.03840
H28 H 0.17550 0.34590 0.10930
O4 O 0.5211(3) 0.6921(2) 0.35559(11)
N3 N 0.5181(4) 0.6864(3) 0.43060(13)
C17 C 0.5637(5) 0.8195(4) 0.45397(18)
C18 C 0.3443(6) 0.6463(4) 0.5298(2)
H29 H 0.23630 0.61720 0.54540
H30 H 0.42740 0.58940 0.54920
C19 C 0.3511(5) 0.6368(4) 0.4514(2)
C20 C 0.6155(5) 0.5889(4) 0.32687(18)
H31 H 0.59480 0.50880 0.35180
N4 N 0.4174(6) 0.6589(4) 0.23296(17)
C21 C 0.5637(5) 0.5760(4) 0.24968(18)
H32 H 0.53530 0.48630 0.24020
C22 C 0.5423(6) 0.8237(4) 0.53216(19)
H33 H 0.62630 0.76950 0.55310
H34 H 0.56100 0.91080 0.54790
O5 O 0.4397(6) 0.7652(3) 0.20973(19)
O6 O 0.2804(5) 0.6133(5) 0.2430(2)
C23 C 0.3419(6) 0.4947(4) 0.4323(3)
H35 H 0.32720 0.48640 0.38360
H36 H 0.24980 0.45560 0.45560
H37 H 0.44300 0.45280 0.44580
C24 C 0.2010(5) 0.7023(5) 0.4187(3)
H38 H 0.18890 0.78700 0.43740
H39 H 0.10280 0.65320 0.42820
H40 H 0.21700 0.70780 0.36990
C25 C 0.7198(6) 0.6109(4) 0.2100(2)
H41 H 0.70110 0.64380 0.16350
C26 C 0.8338(6) 0.4939(5) 0.2146(2)
H42 H 0.93070 0.50400 0.18550
H43 H 0.77560 0.41600 0.20170
C27 C 0.8063(6) 0.7036(4) 0.2590(3)
H44 H 0.91870 0.72410 0.24470
H45 H 0.74330 0.78170 0.26650
C28 C 0.8010(5) 0.6137(4) 0.3198(2)
H46 H 0.85370 0.64760 0.36140
C29 C 0.8824(6) 0.4922(4) 0.2915(2)
H47 H 0.83970 0.41610 0.31420
H48 H 1.00210 0.49510 0.29710
C30 C 0.4687(6) 0.9292(4) 0.4195(2)
H49 H 0.46980 0.91720 0.37060
H50 H 0.52070 1.00940 0.43070
H51 H 0.35600 0.92970 0.43570
C31 C 0.7488(6) 0.8390(5) 0.4392(3)
H52 H 0.81100 0.76910 0.45850
H53 H 0.78510 0.91830 0.45940
H54 H 0.76640 0.84200 0.39040
C32 C 0.3738(7) 0.7803(5) 0.5563(2)
H55 H 0.28870 0.83780 0.53910
H56 H 0.36940 0.78090 0.60610
#END
