
#######################################################################
#
#                 Cambridge Crystallographic Data Centre
#                                CCDC
#
#######################################################################
#
# If this CIF has been generated from an entry in the Cambridge
# Structural Database, then it will include bibliographic, chemical,
# crystal, experimental, refinement or atomic coordinate data resulting
# from the CCDC's data processing and validation procedures.
#
#######################################################################

data_CSD_CIF_TIVWIE
_audit_creation_date 1997-04-03
_audit_creation_method CSD-ConQuest-V1
_database_code_CSD TIVWIE
_chemical_formula_sum 'C14 H22 N2 O1'
_chemical_formula_moiety
;
C14 H22 N2 O1
;
_journal_coden_Cambridge 35
_journal_volume 61
_journal_year 1996
_journal_page_first 3177
_journal_name_full 'J.Org.Chem. '
loop_
_publ_author_name
"H.Sarker"
"M.L.Greer"
"S.C.Blackstock"
_chemical_name_systematic
;
Di-1-norbornylnitrosamine
;
_chemical_melting_point 395.15
_cell_volume   2531.117
_exptl_crystal_colour 'pale yellow'
_exptl_crystal_density_diffrn 1.23
_exptl_special_details
;
Melting point range 395.15-397.15K

;
_diffrn_ambient_temperature ?
_diffrn_special_details
;
The study was carried out at room temperature,in the range 283-303K

;
#These two values have been output from a single CSD field.
_refine_ls_R_factor_gt 0.052
_refine_ls_wR_factor_gt 0.052
_symmetry_cell_setting monoclinic
_symmetry_space_group_name_H-M 'C 2/c'
_symmetry_Int_Tables_number 15
loop_
_symmetry_equiv_pos_site_id
_symmetry_equiv_pos_as_xyz
1 x,y,z
2 -x,y,1/2-z
3 1/2+x,1/2+y,z
4 1/2-x,1/2+y,1/2-z
5 -x,-y,-z
6 x,-y,-1/2+z
7 -1/2-x,-1/2-y,-z
8 -1/2+x,-1/2-y,-1/2+z
_cell_length_a 18.818(5)
_cell_length_b 12.944(6)
_cell_length_c 10.892(6)
_cell_angle_alpha 90
_cell_angle_beta 107.44(3)
_cell_angle_gamma 90
_cell_formula_units_Z 8
loop_
_atom_type_symbol
_atom_type_radius_bond
C 0.68
H 0.23
N 0.68
O 0.68
loop_
_atom_site_label
_atom_site_type_symbol
_atom_site_fract_x
_atom_site_fract_y
_atom_site_fract_z
O1 O 0.6471(1) -0.1065(2) 0.6596(2)
N1 N 0.7123(1) 0.0343(1) 0.7101(2)
N2 N 0.7075(1) -0.0673(2) 0.7210(2)
C1 C 0.6491(1) 0.0964(2) 0.6301(2)
C2 C 0.6656(2) 0.2094(2) 0.6055(3)
C3 C 0.5854(2) 0.2328(2) 0.5259(3)
C4 C 0.5729(2) 0.1522(3) 0.4197(3)
C5 C 0.6180(2) 0.0586(2) 0.4902(3)
C6 C 0.7820(1) 0.0780(2) 0.7972(2)
C7 C 0.7711(2) 0.1482(2) 0.9040(3)
C8 C 0.8495(2) 0.1471(3) 1.0050(3)
C9 C 0.8940(2) 0.0762(3) 0.9441(3)
C10 C 0.8358(2) -0.0035(2) 0.8761(3)
C11 C 0.9096(2) 0.1313(3) 0.8319(3)
C12 C 0.5848(2) 0.1069(3) 0.6873(4)
C13 C 0.5425(2) 0.2031(3) 0.6171(4)
C14 C 0.8314(2) 0.1347(3) 0.7297(3)
H1 H 0.708(2) 0.214(2) 0.556(3)
H2 H 0.681(2) 0.248(2) 0.685(3)
H3 H 0.578(2) 0.308(2) 0.494(3)
H4 H 0.520(2) 0.134(3) 0.383(3)
H5 H 0.596(2) 0.171(2) 0.345(3)
H6 H 0.662(2) 0.047(2) 0.457(3)
H7 H 0.585(2) -0.004(3) 0.484(3)
H8 H 0.605(2) 0.120(3) 0.784(4)
H9 H 0.555(2) 0.046(2) 0.669(3)
H10 H 0.537(2) 0.259(3) 0.677(4)
H11 H 0.490(2) 0.188(3) 0.578(3)
H12 H 0.730(2) 0.121(2) 0.938(2)
H13 H 0.756(1) 0.223(2) 0.874(2)
H14 H 0.869(2) 0.220(3) 1.016(3)
H15 H 0.844(2) 0.118(3) 1.084(3)
H16 H 0.935(2) 0.046(2) 1.000(3)
H17 H 0.812(2) -0.043(2) 0.934(3)
H18 H 0.853(2) -0.053(2) 0.822(3)
H19 H 0.929(2) 0.200(3) 0.849(3)
H20 H 0.945(2) 0.088(2) 0.796(3)
H21 H 0.832(2) 0.097(2) 0.649(3)
H22 H 0.816(2) 0.209(2) 0.713(3)
#END
