
#######################################################################
#
#                 Cambridge Crystallographic Data Centre
#                                CCDC
#
#######################################################################
#
# If this CIF has been generated from an entry in the Cambridge
# Structural Database, then it will include bibliographic, chemical,
# crystal, experimental, refinement or atomic coordinate data resulting
# from the CCDC's data processing and validation procedures.
#
#######################################################################

data_CSD_CIF_TIWWUS
_audit_creation_date 2008-07-28
_audit_creation_method CSD-ConQuest-V1
_database_code_CSD TIWWUS
_database_code_depnum_ccdc_archive 'CCDC 674216'
_chemical_formula_sum 'C39 H55 N1 O10'
_chemical_formula_moiety
;
C39 H55 N1 O10
;
_journal_coden_Cambridge 24
_journal_volume 49
_journal_year 2008
_journal_page_first 2069
_journal_name_full 'Tetrahedron Lett. '
loop_
_publ_author_name
"K.S.Wankhede"
"V.V.Vaidya"
"P.S.Sarang"
"M.M.Salunkhe"
"G.K.Trivedi"
_chemical_name_systematic
;
3\b-Acetoxy-16\a-[5-(([5-(2,2-dimethyl-1,3-dioxolan-4-yl)-2,2-dimethyltetrahyd
rofuro[2,3-d][1,3]dioxol-6-yl]oxy)methyl)isoxazol-3-yl]-5-pregnen-20-one
;
_chemical_name_common
;
16-[5-(([5-(2,2-dimethyl-1,3-dioxolan-4-yl)-2,2-dimethyltetrahydrofuro[2,3-d][
1,3]dioxol-6-yl]oxy)methyl)isoxazol-3-yl]-17-formyl-10,13-dimethyl-2,3,4,7,8,9
,10,11,12,13,14,15,16,17-tetradecahydro-1H-cyclopenta[a]phenanthren-3-yl 
acetate
;
_chemical_melting_point 441.15
_cell_volume   1880.360
_exptl_crystal_colour 'colorless'
_exptl_crystal_density_diffrn 1.233
_exptl_special_details
;
Melting point range 441.15-443.15K

;
_exptl_crystal_description 'thin plate'
_diffrn_ambient_temperature 293
#These two values have been output from a single CSD field.
_refine_ls_R_factor_gt 0.0768
_refine_ls_wR_factor_gt 0.0768
_symmetry_cell_setting monoclinic
_symmetry_space_group_name_H-M 'P 21'
_symmetry_Int_Tables_number 4
loop_
_symmetry_equiv_pos_site_id
_symmetry_equiv_pos_as_xyz
1 x,y,z
2 -x,1/2+y,-z
_cell_length_a 17.2913(10)
_cell_length_b 5.8056(2)
_cell_length_c 20.0737(14)
_cell_angle_alpha 90
_cell_angle_beta 111.073(7)
_cell_angle_gamma 90
_cell_formula_units_Z 2
loop_
_atom_type_symbol
_atom_type_radius_bond
C 0.68
H 0.23
N 0.68
O 0.68
loop_
_atom_site_label
_atom_site_type_symbol
_atom_site_fract_x
_atom_site_fract_y
_atom_site_fract_z
O1 O 1.3320(3) -0.7991(9) 1.0607(4)
O2 O 1.3910(2) -0.4971(6) 1.0266(2)
O3 O 1.2384(2) -0.5812(6) 0.88972(19)
O4 O 1.2195(3) -0.4480(7) 0.7763(2)
O5 O 1.1610(2) -0.1209(6) 0.79587(18)
O6 O 1.13929(18) -0.3274(6) 0.95722(18)
O7 O 0.95796(19) -0.1849(6) 0.90992(17)
O8 O 0.9577(2) 0.5004(9) 0.7202(2)
O9 O 0.22863(19) 0.3143(7) 0.57717(19)
O10 O 0.1961(3) -0.0054(11) 0.5132(3)
N1 N 0.8926(2) -0.0585(7) 0.8603(2)
C1 C 1.4041(4) -0.7322(10) 1.0493(4)
C2 C 1.4136(5) -0.8727(12) 0.9907(5)
H1 H 1.42140 -1.03140 1.00500
H2 H 1.46080 -0.81940 0.98060
H3 H 1.36460 -0.85790 0.94860
C3 C 1.4791(4) -0.7425(15) 1.1160(4)
H4 H 1.46900 -0.65710 1.15300
H5 H 1.52550 -0.67700 1.10730
H6 H 1.49090 -0.90010 1.13070
C4 C 1.2721(3) -0.6415(9) 1.0399(3)
H7 H 1.21940 -0.65280 1.04220
C5 C 1.3072(3) -0.4394(8) 1.0117(3)
H8 H 1.30580 -0.30350 1.04020
C6 C 1.2635(3) -0.3784(8) 0.9336(3)
H9 H 1.30230 -0.29160 0.91770
C7 C 1.1848(2) -0.2396(8) 0.9157(2)
H10 H 1.19640 -0.07470 0.92410
C8 C 1.1397(3) -0.2918(8) 0.8367(3)
H11 H 1.07970 -0.30690 0.82420
C9 C 1.1797(3) -0.5125(9) 0.8237(3)
H12 H 1.13820 -0.63300 0.80310
C10 C 1.1945(4) -0.2268(10) 0.7485(3)
C11 C 1.1291(4) -0.2480(16) 0.6748(3)
H13 H 1.15310 -0.31480 0.64300
H14 H 1.10760 -0.09810 0.65770
H15 H 1.08500 -0.34470 0.67690
C12 C 1.2677(4) -0.0893(14) 0.7494(4)
H16 H 1.30860 -0.08890 0.79680
H17 H 1.25080 0.06590 0.73500
H18 H 1.29090 -0.15650 0.71710
C13 C 1.1011(3) -0.1565(10) 0.9851(2)
H19 H 1.14120 -0.03620 1.00670
H20 H 1.08520 -0.22470 1.02240
C14 C 1.0265(3) -0.0504(9) 0.9310(2)
C15 C 1.0084(3) 0.1529(9) 0.8979(2)
H21 H 1.04410 0.27680 0.90270
C16 C 0.9237(3) 0.1411(8) 0.8542(2)
C17 C 0.8703(2) 0.3231(7) 0.8078(2)
H22 H 0.90070 0.46910 0.81860
C18 C 0.7861(2) 0.3583(8) 0.8172(2)
H23 H 0.78040 0.25330 0.85270
H24 H 0.78070 0.51510 0.83160
C19 C 0.7208(2) 0.3067(7) 0.74313(19)
H25 H 0.71710 0.13840 0.73940
C20 C 0.7624(2) 0.3837(7) 0.6913(2)
C21 C 0.7724(3) 0.6480(8) 0.6900(3)
H26 H 0.79340 0.68880 0.65330
H27 H 0.81050 0.69900 0.73540
H28 H 0.71960 0.72030 0.68050
C22 C 0.8482(2) 0.2699(8) 0.7272(2)
H29 H 0.84010 0.10310 0.72120
C23 C 0.9142(3) 0.3348(11) 0.6977(3)
C24 C 0.9230(4) 0.1906(13) 0.6397(4)
H30 H 0.96260 0.25990 0.62250
H31 H 0.87030 0.17910 0.60140
H32 H 0.94160 0.03950 0.65790
C25 C 0.7096(2) 0.2999(7) 0.6167(2)
H33 H 0.73380 0.35310 0.58270
H34 H 0.70930 0.13280 0.61590
C26 C 0.6210(2) 0.3877(8) 0.5946(2)
H35 H 0.58840 0.32050 0.54880
H36 H 0.62100 0.55340 0.58830
C27 C 0.5791(2) 0.3318(7) 0.6487(2)
H37 H 0.57220 0.16410 0.64730
C28 C 0.6331(2) 0.3907(8) 0.7265(2)
H38 H 0.63420 0.55840 0.73240
C29 C 0.5940(3) 0.2834(10) 0.7765(2)
H39 H 0.60980 0.12240 0.78370
H40 H 0.61600 0.35960 0.82250
C30 C 0.5024(3) 0.2996(9) 0.7492(2)
H41 H 0.47580 0.25600 0.78000
C31 C 0.4555(2) 0.3706(8) 0.6851(2)
C32 C 0.4906(3) 0.4335(7) 0.6278(2)
C33 C 0.4906(3) 0.6989(8) 0.6223(3)
H42 H 0.43480 0.75500 0.60860
H43 H 0.51350 0.74380 0.58720
H44 H 0.52350 0.76290 0.66780
C34 C 0.4354(2) 0.3314(7) 0.5551(2)
H45 H 0.45100 0.40140 0.51790
H46 H 0.44670 0.16770 0.55530
C35 C 0.3426(2) 0.3646(9) 0.5365(2)
H47 H 0.32930 0.52730 0.52990
H48 H 0.31260 0.28580 0.49210
C36 C 0.3161(2) 0.2714(9) 0.5948(2)
H49 H 0.32680 0.10540 0.60010
C37 C 0.3624(3) 0.3910(9) 0.6642(2)
H50 H 0.34620 0.32480 0.70160
H51 H 0.34720 0.55260 0.65990
C38 C 0.1752(4) 0.1702(15) 0.5346(4)
C39 C 0.0876(3) 0.2477(16) 0.5171(4)
H52 H 0.08350 0.40930 0.50620
H53 H 0.07110 0.22020 0.55720
H54 H 0.05190 0.16340 0.47650
H55? H 0.46220 0.53040 0.70190
#END
