
#######################################################################
#
#                 Cambridge Crystallographic Data Centre
#                                CCDC
#
#######################################################################
#
# If this CIF has been generated from an entry in the Cambridge
# Structural Database, then it will include bibliographic, chemical,
# crystal, experimental, refinement or atomic coordinate data resulting
# from the CCDC's data processing and validation procedures.
#
#######################################################################

data_CSD_CIF_TIWXON
_audit_creation_date 2008-07-29
_audit_creation_method CSD-ConQuest-V1
_database_code_CSD TIWXON
_database_code_depnum_ccdc_archive 'CCDC 657150'
_chemical_formula_sum 'C72 H78 N2 O8'
_chemical_formula_moiety
;
C72 H78 N2 O8
;
_journal_coden_Cambridge 24
_journal_volume 49
_journal_year 2008
_journal_page_first 1750
_journal_name_full 'Tetrahedron Lett. '
loop_
_publ_author_name
"V.B.Ganga"
"E.Suresh"
"R.L.Varma"
_chemical_name_systematic
;
6,12,22,28-Tetra-t-butyl-15,31-bis(4-methoxyphenyl)-14,30-diphenyl-2,13,18,29-
tetraoxa-14,30-diazanonacyclo[24.6.1.11,4.110,17.117,20.03,8.012,16.019,24.028
,32] hexatriaconta-3,5,7,10,19,21,23,26-octaene-33,35-dione
;
_chemical_melting_point 573.15
_cell_volume   1569.526
_exptl_crystal_colour 'light yellow'
_exptl_crystal_density_diffrn 1.163
_exptl_special_details
;
Melts above 573.15K

;
_exptl_crystal_description 'plates'
_exptl_crystal_preparation 'dichloromethane/acetonitrile'
_diffrn_ambient_temperature 100
#These two values have been output from a single CSD field.
_refine_ls_R_factor_gt 0.0905
_refine_ls_wR_factor_gt 0.0905
_symmetry_cell_setting triclinic
_symmetry_space_group_name_H-M 'P -1'
_symmetry_Int_Tables_number 2
loop_
_symmetry_equiv_pos_site_id
_symmetry_equiv_pos_as_xyz
1 x,y,z
2 -x,-y,-z
_cell_length_a 9.9175(12)
_cell_length_b 12.9944(16)
_cell_length_c 13.8631(17)
_cell_angle_alpha 116.723(2)
_cell_angle_beta 93.648(2)
_cell_angle_gamma 97.024(2)
_cell_formula_units_Z 1
loop_
_atom_type_symbol
_atom_type_radius_bond
C 0.68
H 0.23
N 0.68
O 0.68
loop_
_atom_site_label
_atom_site_type_symbol
_atom_site_fract_x
_atom_site_fract_y
_atom_site_fract_z
O1 O 0.9577(3) 0.6517(2) 0.0474(2)
O2 O 0.6725(3) 0.4751(3) -0.0388(2)
O3 O 0.4297(4) 1.1124(3) 0.3540(3)
O4 O 0.8385(3) 0.6950(2) 0.3596(2)
N1 N 0.6966(3) 0.6812(3) 0.3259(3)
C1 C 0.7900(4) 0.3402(3) 0.0485(3)
H1 H 0.71370 0.31650 0.07860
H2 H 0.76280 0.30930 -0.02920
C2 C 0.8199(4) 0.4727(3) 0.1004(3)
C3 C 0.8911(4) 0.5382(3) 0.1994(3)
H3 H 0.93370 0.49890 0.23110
C4 C 0.9092(4) 0.6685(3) 0.2644(3)
C5 C 0.8298(4) 0.7209(3) 0.2040(3)
H4 H 0.86950 0.80330 0.23090
C6 C 0.8194(4) 0.6568(3) 0.0793(3)
C7 C 0.7600(4) 0.5285(3) 0.0395(3)
C8 C 0.9710(4) 0.7026(3) -0.0197(3)
C9 C 0.9106(4) 0.2884(3) 0.0661(3)
C10 C 0.9144(4) 0.2326(3) 0.1309(3)
H5 H 0.83760 0.22630 0.16430
C11 C 1.0268(4) 0.1852(3) 0.1491(3)
C12 C 1.1424(4) 0.1987(3) 0.1012(3)
H6 H 1.21950 0.16920 0.11210
C13 C 0.8566(4) 0.7443(3) -0.0377(3)
C14 C 0.7472(4) 0.7168(4) 0.0222(4)
H7 H 0.66760 0.66480 -0.02810
H8 H 0.71890 0.78750 0.07470
C15 C 0.6812(4) 0.7111(3) 0.2362(3)
H9 H 0.62150 0.64610 0.17440
C16 C 0.6183(4) 0.8204(3) 0.2684(3)
C17 C 0.5076(5) 0.8220(4) 0.2031(4)
H10 H 0.47240 0.75540 0.13830
C18 C 0.4489(5) 0.9215(4) 0.2329(4)
H11 H 0.37650 0.92200 0.18700
C19 C 0.4973(5) 1.0203(4) 0.3306(4)
C20 C 0.6054(5) 1.0191(4) 0.3971(4)
H12 H 0.63780 1.08470 0.46330
C21 C 0.6659(5) 0.9209(4) 0.3660(3)
H13 H 0.74020 0.92190 0.41100
C22 C 0.4692(5) 1.2107(4) 0.4583(4)
H14 H 0.46290 1.18590 0.51370
H15 H 0.40950 1.26660 0.46850
H16 H 0.56190 1.24600 0.46320
C23 C 0.6219(5) 0.5769(4) 0.3154(3)
C24 C 0.6768(5) 0.5115(4) 0.3598(4)
H17 H 0.76710 0.53390 0.39350
C25 C 0.5973(7) 0.4140(5) 0.3538(6)
H18 H 0.63580 0.36950 0.38170
C26 C 0.4059(6) 0.4476(5) 0.2670(4)
H19 H 0.31410 0.42710 0.23720
C27 C 0.4610(7) 0.3801(5) 0.3072(5)
H20 H 0.40840 0.31360 0.30310
C28 C 0.4833(5) 0.5447(4) 0.2700(4)
H21 H 0.44400 0.58880 0.24200
C29 C 1.0611(4) 0.7283(4) 0.3194(3)
C30 C 1.0670(5) 0.8604(4) 0.3913(4)
H22 H 1.16010 0.89670 0.42250
H23 H 1.01150 0.87260 0.44850
H24 H 1.03320 0.89420 0.34760
C31 C 1.1088(5) 0.6770(4) 0.3932(4)
H25 H 1.11640 0.59660 0.34940
H26 H 1.04330 0.68220 0.44270
H27 H 1.19640 0.72020 0.43390
C32 C 1.1584(5) 0.7120(6) 0.2358(4)
H28 H 1.25000 0.74700 0.27230
H29 H 1.13180 0.74860 0.19260
H30 H 1.15510 0.63000 0.18940
C33 C 1.0250(5) 0.1254(4) 0.2231(4)
C34 C 1.1105(6) 0.0275(5) 0.1830(4)
H31 H 1.07700 -0.02680 0.10830
H32 H 1.20460 0.06010 0.18870
H33 H 1.10340 -0.01240 0.22680
C35 C 1.0874(8) 0.2172(6) 0.3372(4)
H34 H 1.08820 0.18210 0.38510
H35 H 1.17960 0.24870 0.33570
H36 H 1.03400 0.27890 0.36290
C36 C 0.8818(6) 0.0708(6) 0.2232(6)
H37 H 0.82670 0.13090 0.25360
H38 H 0.84220 0.01670 0.14980
H39 H 0.88520 0.03020 0.26620
O1A O 1.0423(3) 0.3483(2) -0.0474(2)
O2A O 1.3275(3) 0.5249(3) 0.0388(2)
O3A O 1.5703(4) -0.1124(3) -0.3540(3)
O4A O 1.1615(3) 0.3050(2) -0.3596(2)
N1A N 1.3034(3) 0.3188(3) -0.3259(3)
C1A C 1.2100(4) 0.6598(3) -0.0485(3)
H1A H 1.28630 0.68350 -0.07860
H2A H 1.23720 0.69070 0.02920
C2A C 1.1801(4) 0.5273(3) -0.1004(3)
C3A C 1.1089(4) 0.4618(3) -0.1994(3)
H3A H 1.06630 0.50110 -0.23110
C4A C 1.0908(4) 0.3315(3) -0.2644(3)
C5A C 1.1702(4) 0.2791(3) -0.2040(3)
H4A H 1.13050 0.19670 -0.23090
C6A C 1.1806(4) 0.3432(3) -0.0793(3)
C7A C 1.2400(4) 0.4715(3) -0.0395(3)
C8A C 1.0290(4) 0.2974(3) 0.0197(3)
C9A C 1.0894(4) 0.7116(3) -0.0661(3)
C10A C 1.0856(4) 0.7674(3) -0.1309(3)
H5A H 1.16240 0.77370 -0.16430
C11A C 0.9732(4) 0.8148(3) -0.1491(3)
C12A C 0.8576(4) 0.8013(3) -0.1012(3)
H6A H 0.78050 0.83080 -0.11210
C13A C 1.1434(4) 0.2557(3) 0.0377(3)
C14A C 1.2528(4) 0.2832(4) -0.0222(4)
H7A H 1.33240 0.33520 0.02810
H8A H 1.28110 0.21250 -0.07470
C15A C 1.3188(4) 0.2889(3) -0.2362(3)
H9A H 1.37850 0.35390 -0.17440
C16A C 1.3817(4) 0.1796(3) -0.2684(3)
C17A C 1.4924(5) 0.1780(4) -0.2031(4)
H10A H 1.52760 0.24460 -0.13830
C18A C 1.5511(5) 0.0785(4) -0.2329(4)
H11A H 1.62350 0.07800 -0.18700
C19A C 1.5027(5) -0.0203(4) -0.3306(4)
C20A C 1.3946(5) -0.0191(4) -0.3971(4)
H12A H 1.36220 -0.08470 -0.46330
C21A C 1.3341(5) 0.0791(4) -0.3660(3)
H13A H 1.25980 0.07810 -0.41100
C22A C 1.5308(5) -0.2107(4) -0.4583(4)
H14A H 1.53710 -0.18590 -0.51370
H15A H 1.59050 -0.26660 -0.46850
H16A H 1.43810 -0.24600 -0.46320
C23A C 1.3781(5) 0.4231(4) -0.3154(3)
C24A C 1.3232(5) 0.4885(4) -0.3598(4)
H17A H 1.23290 0.46610 -0.39350
C25A C 1.4027(7) 0.5860(5) -0.3538(6)
H18A H 1.36420 0.63050 -0.38170
C26A C 1.5941(6) 0.5524(5) -0.2670(4)
H19A H 1.68590 0.57290 -0.23720
C27A C 1.5390(7) 0.6199(5) -0.3072(5)
H20A H 1.59160 0.68640 -0.30310
C28A C 1.5167(5) 0.4553(4) -0.2700(4)
H21A H 1.55600 0.41120 -0.24200
C29A C 0.9389(4) 0.2717(4) -0.3194(3)
C30A C 0.9330(5) 0.1396(4) -0.3913(4)
H22A H 0.83990 0.10330 -0.42250
H23A H 0.98850 0.12740 -0.44850
H24A H 0.96680 0.10580 -0.34760
C31A C 0.8912(5) 0.3230(4) -0.3932(4)
H25A H 0.88360 0.40340 -0.34940
H26A H 0.95670 0.31780 -0.44270
H27A H 0.80360 0.27980 -0.43390
C32A C 0.8416(5) 0.2880(6) -0.2358(4)
H28A H 0.75000 0.25300 -0.27230
H29A H 0.86820 0.25140 -0.19260
H30A H 0.84490 0.37000 -0.18940
C33A C 0.9750(5) 0.8746(4) -0.2231(4)
C34A C 0.8895(6) 0.9725(5) -0.1830(4)
H31A H 0.92300 1.02680 -0.10830
H32A H 0.79540 0.93990 -0.18870
H33A H 0.89660 1.01240 -0.22680
C35A C 0.9126(8) 0.7828(6) -0.3372(4)
H34A H 0.91180 0.81790 -0.38510
H35A H 0.82040 0.75130 -0.33570
H36A H 0.96600 0.72110 -0.36290
C36A C 1.1182(6) 0.9292(6) -0.2232(6)
H37A H 1.17330 0.86910 -0.25360
H38A H 1.15780 0.98330 -0.14980
H39A H 1.11480 0.96980 -0.26620
#END
