
#######################################################################
#
#                 Cambridge Crystallographic Data Centre
#                                CCDC
#
#######################################################################
#
# If this CIF has been generated from an entry in the Cambridge
# Structural Database, then it will include bibliographic, chemical,
# crystal, experimental, refinement or atomic coordinate data resulting
# from the CCDC's data processing and validation procedures.
#
#######################################################################

data_CSD_CIF_TIXPEV
_audit_creation_date 1997-04-16
_audit_creation_method CSD-ConQuest-V1
_database_code_CSD TIXPEV
_database_code_depnum_ccdc_archive 'CCDC 1271890; CCDC 400902'
_database_code_depnum_ccdc_fiz 'CSD 400902'
_chemical_formula_sum 'C11 H11 N5 O3'
_chemical_formula_moiety
;
C11 H11 N5 O3
;
_journal_coden_Cambridge 643
_journal_volume 211
_journal_year 1996
_journal_page_first 539
_journal_name_full 'Z.Krist.Cryst.Mater. '
loop_
_publ_author_name
"M.Ramm"
"P.Luger"
"K.Kirschke"
"E.Wolff"
_chemical_name_systematic
;
(Z)-5-Amino-3-methyl-1-(3-nitrobenzohydroximoyl)-1H-pyrazole
;
_chemical_melting_point 497.15
_cell_volume   2510.045
_exptl_crystal_colour 'yellow'
_exptl_crystal_density_diffrn 1.382
_exptl_special_details
;
Melting point range 497.15-499.15K

;
_exptl_crystal_description 'prism'
_diffrn_ambient_temperature ?
_diffrn_special_details
;
The study was carried out at room temperature,in the range 283-303K

;
#These two values have been output from a single CSD field.
_refine_ls_R_factor_gt 0.038
_refine_ls_wR_factor_gt 0.038
_symmetry_cell_setting monoclinic
_symmetry_space_group_name_H-M 'P 21/a'
_symmetry_Int_Tables_number 14
loop_
_symmetry_equiv_pos_site_id
_symmetry_equiv_pos_as_xyz
1 x,y,z
2 1/2-x,1/2+y,-z
3 -x,-y,-z
4 -1/2+x,-1/2-y,z
_cell_length_a 14.388(1)
_cell_length_b 9.5248(6)
_cell_length_c 19.666(2)
_cell_angle_alpha 90
_cell_angle_beta 111.355(7)
_cell_angle_gamma 90
_cell_formula_units_Z 8
loop_
_atom_type_symbol
_atom_type_radius_bond
C 0.68
H 0.23
N 0.68
O 0.68
loop_
_atom_site_label
_atom_site_type_symbol
_atom_site_fract_x
_atom_site_fract_y
_atom_site_fract_z
O1 O 0.74751(9) 0.0742(1) 0.98910(6)
O2 O 0.6176(2) -0.2599(3) 1.20381(8)
O3 O 0.4867(1) -0.3834(2) 1.17931(9)
N1 N 0.6490(1) -0.1331(2) 0.90186(7)
N2 N 0.6667(1) -0.2726(2) 0.89157(7)
N3 N 0.6237(2) 0.0872(2) 0.84067(9)
N4 N 0.6780(1) 0.0027(2) 1.00995(7)
N5 N 0.5435(1) -0.3133(2) 1.16077(9)
C1 C 0.6766(1) -0.2764(2) 0.82687(9)
C2 C 0.6648(1) -0.1430(2) 0.79562(9)
C3 C 0.6477(1) -0.0519(2) 0.84408(9)
C4 C 0.6981(2) -0.4124(3) 0.7982(1)
C5 C 0.6336(1) -0.0969(2) 0.96688(8)
C6 C 0.5655(1) -0.1864(2) 0.98864(9)
C7 C 0.5852(1) -0.2077(2) 1.06240(9)
C8 C 0.5211(1) -0.2901(2) 1.08269(9)
C9 C 0.4380(1) -0.3537(2) 1.0327(1)
C10 C 0.4193(1) -0.3321(3) 0.9596(1)
C11 C 0.4820(1) -0.2504(2) 0.93770(9)
H1 H 0.787(2) 0.132(3) 1.034(1)
H2 H 0.666(2) -0.114(2) 0.749(1)
H3 H 0.643(1) -0.169(2) 1.1011(8)
H4 H 0.399(2) -0.412(2) 1.047(1)
H5 H 0.366(2) -0.392(2) 0.923(1)
H6 H 0.469(1) -0.251(2) 0.887(1)
H7 H 0.676(2) 0.129(3) 0.884(2)
H8 H 0.619(2) 0.127(3) 0.799(1)
H9 H 0.660(2) -0.415(3) 0.749(1)
H10 H 0.760(2) -0.397(4) 0.795(2)
H11 H 0.721(2) -0.491(3) 0.829(1)
O4 O 0.24215(9) 0.5922(1) 0.50544(6)
O5 O 0.5874(2) 0.2243(3) 0.69337(9)
O6 O 0.6724(1) 0.0793(2) 0.6560(1)
N6 N 0.2454(1) 0.4082(2) 0.40493(7)
N7 N 0.2164(1) 0.2722(2) 0.38393(7)
N8 N 0.2132(1) 0.6422(2) 0.35925(9)
N9 N 0.3303(1) 0.5182(2) 0.52042(7)
N10 N 0.6076(1) 0.1669(2) 0.6448(1)
C12 C 0.1441(1) 0.2830(2) 0.31891(9)
C13 C 0.1257(1) 0.4236(2) 0.29772(9)
C14 C 0.1909(1) 0.5025(2) 0.35286(8)
C15 C 0.0952(2) 0.1530(3) 0.2805(1)
C16 C 0.3276(1) 0.4292(2) 0.47110(8)
C17 C 0.4142(1) 0.3349(2) 0.48547(8)
C18 C 0.4718(1) 0.2995(2) 0.55688(9)
C19 C 0.5498(1) 0.2079(2) 0.5690(1)
C20 C 0.5742(1) 0.1493(2) 0.5137(1)
C21 C 0.5178(1) 0.1865(2) 0.4432(1)
C22 C 0.4385(1) 0.2779(2) 0.42870(9)
H12 H 0.258(2) 0.653(3) 0.547(1)
H13 H 0.077(2) 0.467(2) 0.253(1)
H14 H 0.457(1) 0.335(2) 0.597(1)
H15 H 0.629(2) 0.086(3) 0.527(1)
H16 H 0.537(1) 0.147(2) 0.404(1)
H17 H 0.401(1) 0.304(2) 0.377(1)
H18 H 0.233(2) 0.683(3) 0.405(1)
H19 H 0.179(2) 0.690(2) 0.323(1)
H20 H 0.052(2) 0.173(4) 0.245(2)
H21 H 0.143(2) 0.120(4) 0.255(2)
H22 H 0.115(2) 0.079(3) 0.313(2)
#END
