
#######################################################################
#
#                 Cambridge Crystallographic Data Centre
#                                CCDC
#
#######################################################################
#
# If this CIF has been generated from an entry in the Cambridge
# Structural Database, then it will include bibliographic, chemical,
# crystal, experimental, refinement or atomic coordinate data resulting
# from the CCDC's data processing and validation procedures.
#
#######################################################################

data_CSD_CIF_TIXQUM02
_audit_creation_date 2005-09-27
_audit_creation_method CSD-ConQuest-V1
_database_code_CSD TIXQUM02
_chemical_formula_sum 'C7 H8 N2 O2'
_chemical_formula_moiety
;
C7 H8 N2 O2
;
_journal_coden_Cambridge 1277
_journal_volume 105
_journal_year 2001
_journal_page_first 8696
_journal_name_full 'J.Phys.Chem.A '
loop_
_publ_author_name
"J.Ellena"
"A.E.Goeta"
"J.A.K.Howard"
"G.Punte"
_chemical_name_systematic
;
2-Methyl-5-nitroaniline
;
_cell_volume    710.651
_exptl_crystal_colour 'orange'
_diffrn_ambient_temperature 100
#These two values have been output from a single CSD field.
_refine_ls_R_factor_gt 0.0132
_refine_ls_wR_factor_gt 0.0132
_symmetry_cell_setting monoclinic
_symmetry_space_group_name_H-M 'P 21/n'
_symmetry_Int_Tables_number 14
loop_
_symmetry_equiv_pos_site_id
_symmetry_equiv_pos_as_xyz
1 x,y,z
2 1/2-x,1/2+y,1/2-z
3 -x,-y,-z
4 -1/2+x,-1/2-y,-1/2+z
_cell_length_a 9.373(2)
_cell_length_b 5.562(1)
_cell_length_c 13.645(3)
_cell_angle_alpha 90
_cell_angle_beta 92.54(3)
_cell_angle_gamma 90
_cell_formula_units_Z 4
loop_
_atom_type_symbol
_atom_type_radius_bond
C 0.68
N 0.68
O 0.68
loop_
_atom_site_label
_atom_site_type_symbol
_atom_site_fract_x
_atom_site_fract_y
_atom_site_fract_z
O1 O 0.69874(5) 0.00210(9) 0.54417(3)
O2 O 0.83878(6) 0.30800(12) 0.56084(4)
N1 N 1.10892(3) 0.34340(5) 0.25508(2)
N2 N 0.79433(3) 0.13132(4) 0.51499(2)
C1 C 1.00945(2) 0.18938(4) 0.29191(2)
C2 C 0.96467(2) -0.01957(4) 0.23925(2)
C3 C 0.86978(3) -0.17848(4) 0.28156(2)
C4 C 0.81381(3) -0.13641(4) 0.37315(2)
C5 C 0.85628(2) 0.07371(4) 0.42126(2)
C6 C 0.95281(2) 0.23564(4) 0.38362(2)
C7 C 1.01882(3) -0.06674(6) 0.13906(2)
#END
