
#######################################################################
#
#                 Cambridge Crystallographic Data Centre
#                                CCDC
#
#######################################################################
#
# If this CIF has been generated from an entry in the Cambridge
# Structural Database, then it will include bibliographic, chemical,
# crystal, experimental, refinement or atomic coordinate data resulting
# from the CCDC's data processing and validation procedures.
#
#######################################################################

data_CSD_CIF_TIXQUM
_audit_creation_date 1997-04-16
_audit_creation_method CSD-ConQuest-V1
_database_code_CSD TIXQUM
_database_code_depnum_ccdc_journal 1003/5024
_chemical_formula_sum 'C7 H8 N2 O2'
_chemical_formula_moiety
;
C7 H8 N2 O2
;
_journal_coden_Cambridge 1003
_journal_volume 26
_journal_year 1996
_journal_page_first 319
_journal_name_full 'J.Chem.Cryst. '
loop_
_publ_author_name
"J.Ellena"
"G.Punte"
"B.E.Rivero"
_chemical_name_systematic
;
2-Methyl-5-nitroaniline
;
_cell_volume    735.918
_exptl_crystal_colour 'yellow'
_exptl_crystal_density_diffrn 1.374
_diffrn_ambient_temperature ?
_diffrn_special_details
;
The study was carried out at room temperature,in the range 283-303K

;
#These two values have been output from a single CSD field.
_refine_ls_R_factor_gt 0.038
_refine_ls_wR_factor_gt 0.038
_symmetry_cell_setting monoclinic
_symmetry_space_group_name_H-M 'P 21/n'
_symmetry_Int_Tables_number 14
loop_
_symmetry_equiv_pos_site_id
_symmetry_equiv_pos_as_xyz
1 x,y,z
2 1/2-x,1/2+y,1/2-z
3 -x,-y,-z
4 -1/2+x,-1/2-y,-1/2+z
_cell_length_a 9.552(2)
_cell_length_b 5.677(2)
_cell_length_c 13.586(3)
_cell_angle_alpha 90
_cell_angle_beta 92.68(2)
_cell_angle_gamma 90
_cell_formula_units_Z 4
loop_
_atom_type_symbol
_atom_type_radius_bond
C 0.68
H 0.23
N 0.68
O 0.68
loop_
_atom_site_label
_atom_site_type_symbol
_atom_site_fract_x
_atom_site_fract_y
_atom_site_fract_z
C1 C 1.0040(4) 0.1869(7) 0.2932(2)
C2 C 0.9620(4) -0.0205(7) 0.2425(3)
C3 C 0.8685(4) -0.1707(7) 0.2854(3)
C4 C 0.8136(4) -0.1272(7) 0.3755(3)
C5 C 0.8542(4) 0.0781(7) 0.4221(3)
C6 C 0.9481(4) 0.2350(7) 0.3842(3)
C7 C 1.0164(4) -0.0718(7) 0.1425(3)
N1 N 1.0990(4) 0.3380(7) 0.2548(3)
N2 N 0.7932(4) 0.1379(7) 0.5161(2)
O1 O 0.7059(3) 0.0083(6) 0.5485(2)
O2 O 0.8321(3) 0.3167(6) 0.5594(2)
H1 H 0.848(3) -0.313(6) 0.252(2)
H2 H 0.740(3) -0.231(6) 0.411(2)
H3 H 0.965(3) 0.372(6) 0.421(2)
H4 H 1.132(3) 0.316(7) 0.193(3)
H5 H 1.126(4) 0.462(7) 0.288(3)
H6 H 0.9792(4) -0.2203(7) 0.1123(3)
H7 H 1.1091(4) -0.0849(7) 0.1446(3)
H8 H 0.9993(4) 0.0689(7) 0.0970(3)
#END
