
#######################################################################
#
#                 Cambridge Crystallographic Data Centre
#                                CCDC
#
#######################################################################
#
# If this CIF has been generated from an entry in the Cambridge
# Structural Database, then it will include bibliographic, chemical,
# crystal, experimental, refinement or atomic coordinate data resulting
# from the CCDC's data processing and validation procedures.
#
#######################################################################

data_CSD_CIF_TIXWIH
_audit_creation_date 2008-07-28
_audit_creation_method CSD-ConQuest-V1
_database_code_CSD TIXWIH
_database_code_depnum_ccdc_archive 'CCDC 299719'
_chemical_formula_sum 'C20 H20 N4 O4'
_chemical_formula_moiety
;
C20 H20 N4 O4
;
_journal_coden_Cambridge 1200
_journal_volume 16
_journal_year 2008
_journal_page_first 3076
_journal_name_full 'Bioorg.Med.Chem. '
loop_
_publ_author_name
"Zhuo Chen"
"Xianyou Wang"
"Baoan Song"
"Hua Wang"
"P.S.Bhadury"
"Kai Yan"
"Huiping Zhang"
"Song Yang"
"Linhong Jin"
"Deyu Hu"
"Wei Xue"
"Song Zeng"
"Jun Wang"
_chemical_name_systematic
;
(E)-Ethyl 3-((R)-1-phenylethylamino)-3-(4-nitrophenylamino)-2-cyanoacrylate
;
_chemical_melting_point 473.15
_cell_volume   1951.965
_exptl_crystal_colour 'white'
_exptl_crystal_density_diffrn 1.294
_exptl_special_details
;
Melting point range 473.15-475.65K
In vivo tests showed some protection effect but no inactivation or curative 
effects against the tobacco mosaic virus (TMV)
;
_diffrn_ambient_temperature 294
#These two values have been output from a single CSD field.
_refine_ls_R_factor_gt 0.0539
_refine_ls_wR_factor_gt 0.0539
_symmetry_cell_setting orthorhombic
_symmetry_space_group_name_H-M 'P 21 21 21'
_symmetry_Int_Tables_number 19
loop_
_symmetry_equiv_pos_site_id
_symmetry_equiv_pos_as_xyz
1 x,y,z
2 1/2-x,-y,1/2+z
3 -x,1/2+y,1/2-z
4 1/2+x,1/2-y,-z
_cell_length_a 9.545(4)
_cell_length_b 10.757(4)
_cell_length_c 19.011(8)
_cell_angle_alpha 90
_cell_angle_beta 90
_cell_angle_gamma 90
_cell_formula_units_Z 4
loop_
_atom_type_symbol
_atom_type_radius_bond
C 0.68
H 0.23
N 0.68
O 0.68
loop_
_atom_site_label
_atom_site_type_symbol
_atom_site_fract_x
_atom_site_fract_y
_atom_site_fract_z
O1 O 0.7369(2) 0.0564(2) 0.03551(11)
O2 O 0.8878(2) -0.10366(19) 0.04561(11)
O3 O 0.9291(4) -0.2752(3) 0.45757(17)
O4 O 1.0698(3) -0.1406(4) 0.50366(16)
N1 N 1.0840(3) -0.0841(2) 0.19030(14)
N2 N 0.7398(2) 0.2227(2) 0.14133(12)
H1 H 0.72680 0.21140 0.09700
N3 N 0.8572(2) 0.1663(2) 0.24265(12)
H2 H 0.86110 0.24350 0.25410
N4 N 0.9866(4) -0.1736(4) 0.45848(17)
C1 C 0.7507(5) -0.2417(5) -0.0268(2)
H3 H 0.78610 -0.31150 -0.00090
H4 H 0.73220 -0.26630 -0.07450
H5 H 0.66550 -0.21280 -0.00540
C2 C 0.8545(4) -0.1417(3) -0.02636(17)
H6 H 0.81830 -0.07090 -0.05230
H7 H 0.93920 -0.16980 -0.04960
C3 C 0.8255(3) 0.0017(3) 0.07005(16)
C4 C 0.8740(3) 0.0345(3) 0.13908(14)
C5 C 0.9887(3) -0.0315(3) 0.16764(16)
C6 C 0.8218(3) 0.1406(2) 0.17476(14)
C7 C 0.8879(3) 0.0799(3) 0.29580(15)
C8 C 0.8154(3) -0.0325(3) 0.30129(17)
H8 H 0.74460 -0.05120 0.26940
C9 C 0.8488(3) -0.1161(3) 0.35411(17)
H9 H 0.80240 -0.19200 0.35720
C10 C 0.9514(3) -0.0857(3) 0.40203(16)
C11 C 1.0202(4) 0.0266(4) 0.39939(17)
H10 H 1.08720 0.04670 0.43300
C12 C 0.9880(3) 0.1101(3) 0.34549(16)
H11 H 1.03400 0.18620 0.34300
C13 C 0.6701(3) 0.3304(3) 0.17370(15)
H12 H 0.74190 0.38210 0.19610
C14 C 0.6020(4) 0.4061(3) 0.11476(16)
H13 H 0.67120 0.42650 0.08000
H14 H 0.56330 0.48120 0.13390
H15 H 0.52870 0.35810 0.09340
C15 C 0.5630(3) 0.2961(3) 0.22856(15)
C16 C 0.5585(3) 0.3580(3) 0.29245(16)
H16 H 0.62770 0.41600 0.30290
C17 C 0.4536(3) 0.3359(3) 0.34108(17)
H17 H 0.45200 0.37970 0.38320
C18 C 0.3524(4) 0.2496(3) 0.3272(2)
H18 H 0.28170 0.23450 0.35970
C19 C 0.3559(3) 0.1846(3) 0.2641(2)
H19 H 0.28730 0.12570 0.25430
C20 C 0.4607(3) 0.2071(3) 0.21604(18)
H20 H 0.46290 0.16180 0.17440
#END
