
#######################################################################
#
#                 Cambridge Crystallographic Data Centre
#                                CCDC
#
#######################################################################
#
# If this CIF has been generated from an entry in the Cambridge
# Structural Database, then it will include bibliographic, chemical,
# crystal, experimental, refinement or atomic coordinate data resulting
# from the CCDC's data processing and validation procedures.
#
#######################################################################

data_CSD_CIF_TIXXAB
_audit_creation_date 2014-02-18
_audit_creation_method CSD-ConQuest-V1
_database_code_CSD TIXXAB
_database_code_depnum_ccdc_archive 'CCDC 956128'
_chemical_formula_sum 'C8 H11 N3 O2'
_chemical_formula_moiety
;
C8 H11 N3 O2
;
_journal_coden_Cambridge 155
_journal_volume 412
_journal_year 2014
_journal_page_first 94
_journal_name_full 'Inorg.Chim.Acta '
loop_
_publ_author_name
"C.Riddles"
"M.Whited"
"S.Lotlikar"
"M.Patrauchan"
"K.Still"
"S.Silchenko"
"N.Gerasimchuk"
_chemical_name_systematic
;
2-(Hydroxyimino)-3-oxo-3-(piperidin-1-yl)propanenitrile
;
_chemical_melting_point 431
_cell_volume    909.195
_exptl_crystal_colour 'colorless'
_exptl_crystal_density_diffrn 1.324
_exptl_special_details
;
Melting point range 431-435K

;
_exptl_crystal_description 'prism'
_diffrn_ambient_temperature 120
_refine_special_details
;
N1,O1,O2 and N1A,O1A,O2A disordered over two sites with occupancies 
0.658:0.342.
;
#These two values have been output from a single CSD field.
_refine_ls_R_factor_gt 0.05
_refine_ls_wR_factor_gt 0.05
loop_
_citation_database_id_CSD
_citation_special_details
SABPUH "is a stereoisomer of this entry"
_symmetry_cell_setting monoclinic
_symmetry_space_group_name_H-M 'P 21/c'
_symmetry_Int_Tables_number 14
loop_
_symmetry_equiv_pos_site_id
_symmetry_equiv_pos_as_xyz
1 x,y,z
2 -x,1/2+y,1/2-z
3 -x,-y,-z
4 x,-1/2-y,-1/2+z
_cell_length_a 6.3640(9)
_cell_length_b 13.8997(19)
_cell_length_c 10.3185(14)
_cell_angle_alpha 90
_cell_angle_beta 95.059(2)
_cell_angle_gamma 90
_cell_formula_units_Z 4
loop_
_atom_type_symbol
_atom_type_radius_bond
C 0.68
H 0.23
N 0.68
O 0.68
loop_
_atom_site_label
_atom_site_type_symbol
_atom_site_fract_x
_atom_site_fract_y
_atom_site_fract_z
C1 C 0.1731(4) 0.4415(2) 0.3598(3)
C2 C 0.2514(5) 0.5380(2) 0.3821(3)
C3 C 0.3395(4) 0.3654(2) 0.3475(3)
C4 C 0.1812(5) 0.2608(2) 0.5092(3)
H1 H 0.07900 0.31410 0.51390
H2 H 0.26100 0.25420 0.59550
C5 C 0.0637(5) 0.1678(2) 0.4743(3)
H3 H -0.02700 0.17680 0.39230
H4 H -0.02830 0.15160 0.54370
C6 C 0.2178(5) 0.0852(2) 0.4583(3)
H5 H 0.29570 0.07050 0.54330
H6 H 0.13850 0.02690 0.42810
C7 C 0.3730(6) 0.1120(2) 0.3604(4)
H7 H 0.47940 0.06030 0.35750
H8 H 0.29670 0.11730 0.27290
C8 C 0.4840(5) 0.2062(2) 0.3944(4)
H9 H 0.57630 0.19870 0.47620
H10 H 0.57350 0.22420 0.32450
N1 N 0.3152(6) 0.6145(2) 0.3999(4)
N2 N 0.3275(4) 0.28280(18) 0.4104(3)
H11 H -0.260(11) 0.366(4) 0.289(6)
N3 N -0.0294(8) 0.4459(4) 0.3342(5)
O1 O -0.1075(5) 0.3570(2) 0.2980(3)
O2 O 0.4690(16) 0.3850(12) 0.2661(9)
N4? N -0.0170(12) 0.4031(7) 0.3394(10)
O3? O -0.1589(11) 0.4773(4) 0.3294(7)
H12? H -0.28210 0.45500 0.32100
O4? O 0.498(3) 0.390(3) 0.291(2)
#END
