
#######################################################################
#
#                 Cambridge Crystallographic Data Centre
#                                CCDC
#
#######################################################################
#
# If this CIF has been generated from an entry in the Cambridge
# Structural Database, then it will include bibliographic, chemical,
# crystal, experimental, refinement or atomic coordinate data resulting
# from the CCDC's data processing and validation procedures.
#
#######################################################################

data_CSD_CIF_TIYYAB
_audit_creation_date 1997-04-16
_audit_creation_method CSD-ConQuest-V1
_database_code_CSD TIYYAB
_chemical_formula_sum 'C34 H28 N4 O2'
_chemical_formula_moiety
;
C34 H28 N4 O2
;
_journal_coden_Cambridge 24
_journal_volume 37
_journal_year 1996
_journal_page_first 4237
_journal_name_full 'Tetrahedron Lett. '
loop_
_publ_author_name
"K.M.Sliedregt"
"A.Schouten"
"J.Kroon"
"R.M.J.Liskamp"
_chemical_name_systematic
;
N-Tritylphenylalanine oxybenzotriazolylamide
;
_cell_volume   2728.152
_diffrn_ambient_temperature ?
_diffrn_special_details
;
The study was carried out at room temperature,in the range 283-303K

;
_symmetry_cell_setting orthorhombic
_symmetry_space_group_name_H-M 'P 21 21 21'
_symmetry_Int_Tables_number 19
loop_
_symmetry_equiv_pos_site_id
_symmetry_equiv_pos_as_xyz
1 x,y,z
2 1/2-x,-y,1/2+z
3 1/2+x,1/2-y,-z
4 -x,1/2+y,1/2-z
_cell_length_a 8.7943(6)
_cell_length_b 14.943(1)
_cell_length_c 20.7601(8)
_cell_angle_alpha 90
_cell_angle_beta 90
_cell_angle_gamma 90
_cell_formula_units_Z 4
loop_
_atom_type_symbol
_atom_type_radius_bond
C 0.68
H 0.23
N 0.68
O 0.68
loop_
_atom_site_label
_atom_site_type_symbol
_atom_site_fract_x
_atom_site_fract_y
_atom_site_fract_z
O1 O 0.1950(2) 0.3951(1) 0.20805(8)
O2 O 0.7851(2) 0.3520(1) 0.3052(1)
N1 N 0.4328(2) 0.3714(1) 0.24411(9)
N2 N 0.5297(2) 0.3619(2) 0.2961(1)
N3 N 0.6670(2) 0.3610(1) 0.2710(1)
N4 N 0.0965(2) 0.4291(1) 0.34158(8)
C1 C 0.2749(3) 0.3828(2) 0.2542(1)
C2 C 0.6642(3) 0.3702(2) 0.2038(1)
C3 C 0.5140(3) 0.3775(2) 0.1869(1)
C4 C 0.4718(3) 0.3878(2) 0.1228(1)
C5 C 0.5881(3) 0.3895(2) 0.0789(1)
C6 C 0.7407(4) 0.3819(3) 0.0972(2)
C7 C 0.7832(3) 0.3732(2) 0.1601(1)
C8 C 0.2164(3) 0.3685(2) 0.3227(1)
C9 C 0.1548(3) 0.2707(2) 0.3224(1)
C10 C 0.1419(3) 0.2286(2) 0.3877(1)
C11 C 0.0328(3) 0.2540(2) 0.4322(1)
C12 C 0.0302(4) 0.2171(2) 0.4931(2)
C13 C 0.1337(4) 0.1537(2) 0.5106(2)
C14 C 0.2366(4) 0.1245(2) 0.4667(2)
C15 C 0.2418(3) 0.1615(2) 0.4061(2)
C16 C 0.1313(2) 0.5235(2) 0.3562(1)
C17 C 0.2171(3) 0.5668(2) 0.2992(1)
C18 C 0.3741(3) 0.5739(2) 0.2979(1)
C19 C 0.4480(3) 0.6079(2) 0.2446(2)
C20 C 0.3678(4) 0.6351(2) 0.1921(2)
C21 C 0.2113(4) 0.6273(2) 0.1914(1)
C22 C 0.1381(3) 0.5931(2) 0.2443(1)
C23 C -0.0212(3) 0.5711(2) 0.3692(1)
C24 C -0.0363(3) 0.6629(2) 0.3610(1)
C25 C -0.1695(3) 0.7065(2) 0.3765(1)
C26 C -0.2910(3) 0.6595(2) 0.4011(1)
C27 C -0.2781(3) 0.5693(2) 0.4104(1)
C28 C -0.1438(3) 0.5255(2) 0.3945(1)
C29 C 0.2203(3) 0.5316(2) 0.4197(1)
C30 C 0.2862(3) 0.6121(2) 0.4379(1)
C31 C 0.3572(3) 0.6219(2) 0.4968(2)
C32 C 0.3617(3) 0.5516(3) 0.5390(1)
C33 C 0.2961(4) 0.4717(2) 0.5228(1)
C34 C 0.2246(3) 0.4623(2) 0.4634(1)
H1 H 0.3706(3) 0.3932(2) 0.1105(1)
H2 H 0.0044(2) 0.4101(1) 0.34431(8)
H3 H 0.5648(3) 0.3959(2) 0.0354(1)
H4 H 0.8155(4) 0.3828(3) 0.0656(2)
H5 H 0.8845(3) 0.3695(2) 0.1728(1)
H6 H 0.3011(3) 0.3733(2) 0.3532(1)
H7 H 0.0552(3) 0.2705(2) 0.3023(1)
H8 H 0.2215(3) 0.2342(2) 0.2961(1)
H9 H -0.0397(3) 0.2965(2) 0.4208(1)
H10 H -0.0431(4) 0.2356(2) 0.5225(2)
H11 H 0.1338(4) 0.1307(2) 0.5522(2)
H12 H 0.3042(4) 0.0791(2) 0.4777(2)
H13 H 0.3139(3) 0.1411(2) 0.3768(2)
H14 H 0.4305(3) 0.5556(2) 0.3334(1)
H15 H 0.5535(3) 0.6122(2) 0.2445(2)
H16 H 0.4183(4) 0.6590(2) 0.1567(2)
H17 H 0.1560(4) 0.6451(2) 0.1554(1)
H18 H 0.0328(3) 0.5873(2) 0.2434(1)
H19 H 0.0450(3) 0.6956(2) 0.3448(1)
H20 H -0.1773(3) 0.7680(2) 0.3703(1)
H21 H -0.3810(3) 0.6889(2) 0.4112(1)
H22 H -0.3593(3) 0.5371(2) 0.4273(1)
H23 H -0.1364(3) 0.4640(2) 0.4011(1)
H24 H 0.2825(3) 0.6605(2) 0.4098(1)
H25 H 0.4019(3) 0.6762(2) 0.5078(2)
H26 H 0.4094(3) 0.5581(3) 0.5787(1)
H27 H 0.2993(4) 0.4239(2) 0.5514(1)
H28 H 0.1788(3) 0.4081(2) 0.4529(1)
#END
