
#######################################################################
#
#                 Cambridge Crystallographic Data Centre
#                                CCDC
#
#######################################################################
#
# If this CIF has been generated from an entry in the Cambridge
# Structural Database, then it will include bibliographic, chemical,
# crystal, experimental, refinement or atomic coordinate data resulting
# from the CCDC's data processing and validation procedures.
#
#######################################################################

data_CSD_CIF_TIZMOG
_audit_creation_date 2014-02-19
_audit_creation_method CSD-ConQuest-V1
_database_code_CSD TIZMOG
_database_code_depnum_ccdc_archive 'CCDC 987860'
_chemical_formula_sum 'C16 H20 N4 O9'
_chemical_formula_moiety
;
C16 H20 N4 O9
;
_journal_coden_Cambridge 156
_journal_volume 386
_journal_year 2014
_journal_page_first 99
_journal_name_full 'Carbohydr.Res. '
loop_
_publ_author_name
"S.Salamone"
"M.Boisbrun"
"C.Didierjean"
"Y.Chapleur"
_chemical_name_systematic
;
1-(2,4-dinitrophenyl)-2-(5,6,7-trimethoxytetrahydro-2H-furo[3,2-b]pyran-3(3aH)
-ylidene)hydrazine
;
_chemical_name_common
;
hydrazone 14
;
_cell_volume   1810.834
_exptl_crystal_colour 'orange'
_exptl_crystal_density_diffrn 1.513
_exptl_crystal_description 'prism'
_diffrn_ambient_temperature 100
#These two values have been output from a single CSD field.
_refine_ls_R_factor_gt 0.0514
_refine_ls_wR_factor_gt 0.0514
_symmetry_cell_setting monoclinic
_symmetry_space_group_name_H-M 'P 21'
_symmetry_Int_Tables_number 4
loop_
_symmetry_equiv_pos_site_id
_symmetry_equiv_pos_as_xyz
1 x,y,z
2 -x,1/2+y,-z
_cell_length_a 7.1660(6)
_cell_length_b 14.1229(11)
_cell_length_c 17.911(2)
_cell_angle_alpha 90
_cell_angle_beta 92.584(5)
_cell_angle_gamma 90
_cell_formula_units_Z 4
loop_
_atom_type_symbol
_atom_type_radius_bond
C 0.68
H 0.23
N 0.68
O 0.68
loop_
_atom_site_label
_atom_site_type_symbol
_atom_site_fract_x
_atom_site_fract_y
_atom_site_fract_z
O1 O 1.5520(5) 0.0465(3) 0.4080(2)
O2 O 1.6924(4) 0.1238(3) 0.32203(19)
O3 O 1.3856(5) 0.3708(3) 0.18841(19)
O4 O 1.1168(5) 0.4242(3) 0.21749(18)
O5 O 0.3716(4) 0.4668(2) 0.36876(17)
O6 O 0.8302(4) 0.5472(2) 0.32042(16)
O7 O 0.8439(4) 0.5589(2) 0.45145(15)
O8 O 0.7183(5) 0.7466(2) 0.43950(17)
O9 O 0.3427(4) 0.6820(2) 0.38561(16)
N1 N 1.5556(6) 0.1074(3) 0.3586(2)
N2 N 1.2460(5) 0.3665(3) 0.2258(2)
N3 N 0.9333(5) 0.3477(3) 0.32356(19)
H1 H 0.92980 0.39170 0.29040
N4 N 0.7887(5) 0.3393(3) 0.37260(19)
C1 C 1.3860(6) 0.1649(3) 0.3442(2)
C2 C 1.3864(6) 0.2328(3) 0.2896(2)
H2 H 1.48650 0.23860 0.25860
C3 C 1.2337(6) 0.2928(3) 0.2817(2)
C4 C 1.0793(6) 0.2866(3) 0.3279(2)
C5 C 1.0853(6) 0.2125(3) 0.3816(2)
H3 H 0.98420 0.20390 0.41160
C6 C 1.2358(6) 0.1536(3) 0.3902(2)
H4 H 1.23810 0.10640 0.42640
C7 C 0.6692(6) 0.4069(3) 0.3683(2)
C8 C 0.4977(6) 0.4088(3) 0.4134(2)
H5 H 0.44750 0.34560 0.41960
H6 H 0.52390 0.43670 0.46220
C9 C 0.4801(6) 0.5423(3) 0.3391(2)
H7 H 0.41540 0.56640 0.29360
C10 C 0.6634(6) 0.4922(3) 0.3172(2)
H8 H 0.64400 0.46920 0.26580
C11 C 0.8483(6) 0.6087(3) 0.3836(2)
H9 H 0.96600 0.64390 0.38190
C12 C 0.6853(6) 0.6782(3) 0.3816(2)
H10 H 0.67540 0.70990 0.33290
C13 C 0.5067(6) 0.6236(3) 0.3945(2)
H11 H 0.51350 0.59770 0.44530
C14 C 1.0105(6) 0.5077(4) 0.4727(3)
H12 H 1.05340 0.47390 0.43020
H13 H 0.98450 0.46370 0.51170
H14 H 1.10540 0.55130 0.49030
C15 C 0.7257(7) 0.8410(3) 0.4147(3)
H15 H 0.82680 0.84820 0.38180
H16 H 0.74510 0.88230 0.45690
H17 H 0.61010 0.85700 0.38850
C16 C 0.2942(6) 0.7325(4) 0.4509(2)
H18 H 0.30660 0.69150 0.49360
H19 H 0.16740 0.75410 0.44500
H20 H 0.37590 0.78590 0.45810
O10 O -0.0386(4) 0.5088(2) 0.06496(17)
O11 O -0.1881(4) 0.5682(3) 0.15664(18)
O12 O 0.3522(4) 0.8732(2) 0.28522(17)
O13 O 0.0767(4) 0.8177(2) 0.30142(17)
O14 O 1.1124(4) 0.9386(2) 0.14026(18)
O15 O 0.6458(4) 1.0057(2) 0.19023(16)
O16 O 0.6336(4) 1.0253(2) 0.06023(16)
O17 O 0.7400(5) 1.2147(2) 0.07972(19)
O18 O 1.1223(5) 1.1567(2) 0.12945(18)
N5 N -0.0485(5) 0.5623(3) 0.1195(2)
N6 N 0.2259(5) 0.8166(3) 0.2699(2)
N7 N 0.5563(5) 0.8068(3) 0.1797(2)
H21 H 0.55720 0.84680 0.21600
N8 N 0.7026(5) 0.8039(3) 0.1312(2)
C17 C 0.1115(6) 0.6222(3) 0.1391(2)
C18 C 0.1014(6) 0.6850(3) 0.1972(2)
H22 H -0.00270 0.68630 0.22640
C19 C 0.2503(6) 0.7466(3) 0.2117(2)
C20 C 0.4123(6) 0.7453(3) 0.1686(2)
C21 C 0.4157(6) 0.6772(3) 0.1107(2)
H23 H 0.52040 0.67330 0.08200
C22 C 0.2691(6) 0.6168(3) 0.0958(2)
H24 H 0.27410 0.57280 0.05740
C23 C 0.8193(6) 0.8722(3) 0.1381(2)
C24 C 0.9908(6) 0.8801(3) 0.0938(2)
H25 H 1.04590 0.81840 0.08580
H26 H 0.96280 0.90980 0.04580
C25 C 0.9970(6) 1.0106(3) 0.1727(2)
H27 H 1.05970 1.03350 0.21900
C26 C 0.8192(6) 0.9552(3) 0.1924(2)
H28 H 0.83990 0.92980 0.24300
C27 C 0.6234(6) 1.0705(3) 0.1293(2)
H29 H 0.50310 1.10300 0.13170
C28 C 0.7822(6) 1.1434(3) 0.1341(3)
H30 H 0.78950 1.17190 0.18410
C29 C 0.9652(6) 1.0941(3) 0.1194(2)
H31 H 0.96010 1.07050 0.06790
C30 C 0.4700(6) 0.9729(4) 0.0359(3)
H32 H 0.37630 0.97910 0.07220
H33 H 0.50180 0.90730 0.03040
H34 H 0.42270 0.99730 -0.01130
C31 C 0.7694(8) 1.3088(4) 0.1061(4)
H35 H 0.68510 1.32200 0.14490
H36 H 0.74720 1.35250 0.06560
H37 H 0.89580 1.31530 0.12550
C32 C 1.1812(7) 1.1982(4) 0.0618(3)
H38 H 1.21260 1.14910 0.02750
H39 H 1.28870 1.23730 0.07240
H40 H 1.08190 1.23610 0.03990
#END
