
#######################################################################
#
#                 Cambridge Crystallographic Data Centre
#                                CCDC
#
#######################################################################
#
# If this CIF has been generated from an entry in the Cambridge
# Structural Database, then it will include bibliographic, chemical,
# crystal, experimental, refinement or atomic coordinate data resulting
# from the CCDC's data processing and validation procedures.
#
#######################################################################

data_CSD_CIF_TIZXEH01
_audit_creation_date 2015-11-04
_audit_creation_method CSD-ConQuest-V1
_database_code_CSD TIZXEH01
_database_code_depnum_ccdc_archive 'CCDC 1435132'
_chemical_formula_sum 'C19 H33 N5 O5'
_chemical_formula_moiety
;
C19 H33 N5 O5
;
_journal_coden_Cambridge 1078
_journal_year 2015
_journal_name_full 'CSD Communication(Private Communication) '
loop_
_publ_author_name
"D.Schollmeyer"
"E.Tretyakov"
_chemical_name_systematic
;
2,2'-((t-butyl(oxido)imino)methylene)bis(4,4,5,5-tetramethyl-4,5-dihydro-1H-im
idazol-1-oxyl) 3,3'-dioxide
;
_cell_volume   2137.240
_exptl_crystal_colour 'brown'
_exptl_crystal_density_diffrn 1.279
_exptl_crystal_description 'needle'
_diffrn_ambient_temperature 193
#These two values have been output from a single CSD field.
_refine_ls_R_factor_gt 0.0425
_refine_ls_wR_factor_gt 0.0425
_symmetry_cell_setting monoclinic
_symmetry_space_group_name_H-M 'P 21/n'
_symmetry_Int_Tables_number 14
loop_
_symmetry_equiv_pos_site_id
_symmetry_equiv_pos_as_xyz
1 x,y,z
2 1/2-x,1/2+y,1/2-z
3 -x,-y,-z
4 -1/2+x,-1/2-y,-1/2+z
_cell_length_a 10.2862(4)
_cell_length_b 11.7024(7)
_cell_length_c 17.7921(8)
_cell_angle_alpha 90
_cell_angle_beta 93.695(3)
_cell_angle_gamma 90
_cell_formula_units_Z 4
loop_
_atom_type_symbol
_atom_type_radius_bond
C 0.68
H 0.23
N 0.68
O 0.68
loop_
_atom_site_label
_atom_site_type_symbol
_atom_site_fract_x
_atom_site_fract_y
_atom_site_fract_z
C1 C 0.32973(14) 0.79911(12) 0.66252(8)
N1 N 0.38509(12) 0.85966(11) 0.60921(7)
C2 C 0.29561(15) 0.87691(14) 0.54001(9)
C3 C 0.17057(15) 0.80972(13) 0.56116(9)
N2 N 0.20740(12) 0.77044(11) 0.63964(7)
O1 O 0.50111(12) 0.89911(12) 0.61449(7)
C4 C 0.36324(19) 0.8270(2) 0.47360(11)
H1 H 0.30150 0.82370 0.42940
H2 H 0.39440 0.74990 0.48630
H3 H 0.43720 0.87560 0.46250
C5 C 0.27501(19) 1.00450(16) 0.52883(14)
H4 H 0.35870 1.04130 0.52110
H5 H 0.23810 1.03700 0.57350
H6 H 0.21500 1.01750 0.48460
C6 C 0.1433(2) 0.70207(17) 0.51463(10)
H7 H 0.11950 0.72330 0.46230
H8 H 0.07150 0.65960 0.53510
H9 H 0.22150 0.65400 0.51660
C7 C 0.04644(18) 0.87965(18) 0.56219(14)
H10 H 0.01740 0.90130 0.51060
H11 H 0.06320 0.94870 0.59240
H12 H -0.02140 0.83410 0.58420
O2 O 0.12837(12) 0.71404(12) 0.67740(7)
C8 C 0.40201(14) 0.75355(13) 0.72887(8)
C9 C 0.51570(14) 0.68575(13) 0.71593(8)
N3 N 0.52967(12) 0.62134(11) 0.65365(7)
C10 C 0.66943(15) 0.58740(14) 0.64779(9)
C11 C 0.71913(14) 0.59450(14) 0.73212(9)
N4 N 0.62824(12) 0.68496(11) 0.75875(7)
O3 O 0.44023(11) 0.59939(10) 0.60214(6)
C12 C 0.72853(19) 0.67771(18) 0.59818(11)
H13 H 0.82010 0.65910 0.59190
H14 H 0.72290 0.75290 0.62210
H15 H 0.68050 0.67910 0.54880
C13 C 0.67676(19) 0.46952(17) 0.61266(11)
H16 H 0.63800 0.47190 0.56090
H17 H 0.62890 0.41480 0.64210
H18 H 0.76810 0.44580 0.61230
C14 C 0.85979(16) 0.63302(19) 0.74576(11)
H19 H 0.91730 0.57830 0.72260
H20 H 0.88230 0.63690 0.80010
H21 H 0.87050 0.70870 0.72340
C15 C 0.69399(19) 0.48622(16) 0.77677(10)
H22 H 0.60280 0.46310 0.76750
H23 H 0.71210 0.50110 0.83060
H24 H 0.75100 0.42490 0.76090
O4 O 0.65337(12) 0.74521(10) 0.81756(6)
N5 N 0.36185(12) 0.75805(11) 0.79883(7)
O5 O 0.40543(12) 0.68613(11) 0.84763(6)
C16 C 0.27647(15) 0.85275(14) 0.82993(9)
C17 C 0.3604(2) 0.9040(2) 0.89550(11)
H25 H 0.44080 0.93480 0.87680
H26 H 0.38200 0.84450 0.93300
H27 H 0.31220 0.96550 0.91870
C18 C 0.15598(18) 0.79599(19) 0.85759(12)
H28 H 0.10560 0.76110 0.81490
H29 H 0.10240 0.85330 0.88120
H30 H 0.18200 0.73680 0.89450
C19 C 0.2414(2) 0.94769(16) 0.77365(11)
H31 H 0.32020 0.97350 0.75060
H32 H 0.20280 1.01180 0.79970
H33 H 0.17860 0.91880 0.73440
#END
