
#######################################################################
#
#                 Cambridge Crystallographic Data Centre
#                                CCDC
#
#######################################################################
#
# If this CIF has been generated from an entry in the Cambridge
# Structural Database, then it will include bibliographic, chemical,
# crystal, experimental, refinement or atomic coordinate data resulting
# from the CCDC's data processing and validation procedures.
#
#######################################################################

data_CSD_CIF_TIZXEH
_audit_creation_date 2014-02-19
_audit_creation_method CSD-ConQuest-V1
_database_code_CSD TIZXEH
_database_code_depnum_ccdc_archive 'CCDC 925360'
_chemical_formula_sum 'C19 H33 N5 O5'
_chemical_formula_moiety
;
C19 H33 N5 O5
;
_journal_coden_Cambridge 1220
_journal_volume 20
_journal_year 2014
_journal_page_first 2793
_journal_name_full 'Chem.-Eur.J. '
loop_
_publ_author_name
"S.Tolstikov"
"E.Tretyakov"
"S.Fokin"
"E.Suturina"
"G.Romanenko"
"A.Bogomyakov"
"D.Stass"
"A.Maryasov"
"M.Fedin"
"N.Gritsan"
"V.Ovcharenko"
_chemical_name_systematic
;
2,2'-((t-butyl(oxido)imino)methylene)bis(4,4,5,5-tetramethyl-4,5-dihydro-1H-im
idazol-1-oxyl) 3,3'-dioxide
;
_cell_volume   2169.821
_exptl_crystal_colour 'brown'
_exptl_crystal_density_diffrn 1.26
_exptl_crystal_description 'bulk'
_diffrn_ambient_temperature 296
#These two values have been output from a single CSD field.
_refine_ls_R_factor_gt 0.0494
_refine_ls_wR_factor_gt 0.0494
_symmetry_cell_setting monoclinic
_symmetry_space_group_name_H-M 'P 21/n'
_symmetry_Int_Tables_number 14
loop_
_symmetry_equiv_pos_site_id
_symmetry_equiv_pos_as_xyz
1 x,y,z
2 1/2-x,1/2+y,1/2-z
3 -x,-y,-z
4 -1/2+x,-1/2-y,-1/2+z
_cell_length_a 10.2991(6)
_cell_length_b 11.7949(6)
_cell_length_c 17.9026(10)
_cell_angle_alpha 90
_cell_angle_beta 93.859(4)
_cell_angle_gamma 90
_cell_formula_units_Z 4
loop_
_atom_type_symbol
_atom_type_radius_bond
C 0.68
H 0.23
N 0.68
O 0.68
loop_
_atom_site_label
_atom_site_type_symbol
_atom_site_fract_x
_atom_site_fract_y
_atom_site_fract_z
C1 C 0.27787(19) 0.14937(16) 0.32879(10)
C2 C 0.1584(2) 0.2056(2) 0.35662(14)
H1 H 0.10350 0.14920 0.37680
H2 H 0.11160 0.24380 0.31580
H3 H 0.18430 0.25960 0.39490
C3 C 0.2414(2) 0.05552(17) 0.27273(12)
H4 H 0.18900 -0.00010 0.29580
H5 H 0.31910 0.02030 0.25710
H6 H 0.19310 0.08720 0.23000
C4 C 0.3625(2) 0.0980(2) 0.39318(12)
H7 H 0.31560 0.03820 0.41580
H8 H 0.38460 0.15550 0.42980
H9 H 0.44060 0.06790 0.37450
N1 N 0.36221(14) 0.24306(12) 0.29714(8)
O1 O 0.40586(13) 0.31418(11) 0.34593(7)
C5 C 0.40224(17) 0.24802(13) 0.22804(9)
C6 C 0.33051(17) 0.20259(14) 0.16212(9)
N2 N 0.20877(15) 0.23118(12) 0.13844(8)
O2 O 0.13009(13) 0.28861(12) 0.17534(8)
C7 C 0.17201(18) 0.19043(14) 0.06065(10)
C8 C 0.0485(2) 0.1213(2) 0.06236(15)
H10 H -0.02180 0.16960 0.07510
H11 H 0.06070 0.06230 0.09910
H12 H 0.02810 0.08830 0.01400
C9 C 0.1452(2) 0.29713(18) 0.01414(12)
H13 H 0.06780 0.33320 0.02950
H14 H 0.13340 0.27710 -0.03790
H15 H 0.21750 0.34820 0.02150
C10 C 0.29626(17) 0.12409(15) 0.04064(10)
C11 C 0.3643(2) 0.1730(2) -0.02487(12)
H16 H 0.43930 0.12780 -0.03360
H17 H 0.39110 0.24940 -0.01350
H18 H 0.30560 0.17270 -0.06880
C12 C 0.2758(2) -0.00223(18) 0.03021(15)
H19 H 0.35600 -0.03700 0.01810
H20 H 0.21060 -0.01520 -0.00970
H21 H 0.24790 -0.03450 0.07570
N3 N 0.38471(14) 0.14172(12) 0.10958(8)
O3 O 0.50062(13) 0.10189(12) 0.11560(8)
C13 C 0.51558(17) 0.31486(13) 0.21531(9)
O4 O 0.44026(13) 0.4020(1) 0.10309(7)
N4 N 0.52970(14) 0.37930(11) 0.15411(8)
C14 C 0.66931(18) 0.41337(15) 0.14883(10)
C15 C 0.6767(2) 0.53033(19) 0.11458(13)
H22 H 0.64400 0.52750 0.06310
H23 H 0.76550 0.55550 0.11750
H24 H 0.62510 0.58220 0.14150
C16 C 0.7275(2) 0.3240(2) 0.09881(13)
H25 H 0.69280 0.33400 0.04810
H26 H 0.70570 0.24970 0.11590
H27 H 0.82040 0.33230 0.10110
C17 C 0.71884(18) 0.40477(15) 0.23201(10)
C18 C 0.85904(19) 0.3663(2) 0.24644(13)
H28 H 0.88070 0.36360 0.29940
H29 H 0.91570 0.41880 0.22370
H30 H 0.86930 0.29230 0.22540
C19 C 0.6942(2) 0.51095(18) 0.27738(12)
H31 H 0.72720 0.49990 0.32830
H32 H 0.60240 0.52550 0.27610
H33 H 0.73750 0.57440 0.25640
N5 N 0.62772(14) 0.31539(12) 0.25801(8)
O5 O 0.65277(13) 0.25523(11) 0.31625(7)
#END
