
#######################################################################
#
#                 Cambridge Crystallographic Data Centre
#                                CCDC
#
#######################################################################
#
# If this CIF has been generated from an entry in the Cambridge
# Structural Database, then it will include bibliographic, chemical,
# crystal, experimental, refinement or atomic coordinate data resulting
# from the CCDC's data processing and validation procedures.
#
#######################################################################

data_CSD_CIF_TMANSB
_audit_creation_date 1977-09-12
_audit_creation_method CSD-ConQuest-V1
_database_code_CSD TMANSB
_database_code_depnum_ccdc_archive 'CCDC 1272327'
_chemical_formula_sum 'C10 H15 N3 O1'
_chemical_formula_moiety
;
C10 H15 N3 O1
;
_journal_coden_Cambridge 3
_journal_volume 30
_journal_year 1976
_journal_page_first 829
_journal_name_full 'Acta Chem.Scand. '
loop_
_publ_author_name
"H.J.Talberg"
_chemical_name_systematic
;
N,N,N',N'-Tetramethyl-1,5-diamino-4-nitrosobenzene
;
_cell_volume   1000.721
_exptl_crystal_density_diffrn 1.283
_exptl_special_details
;
H82,H102 DELETED FOR SUSPECTED COORDINATE ERRORS

;
_diffrn_ambient_temperature 103.15
#These two values have been output from a single CSD field.
_refine_ls_R_factor_gt 0.037
_refine_ls_wR_factor_gt 0.037
_symmetry_cell_setting orthorhombic
_symmetry_space_group_name_H-M 'P 21 21 21'
_symmetry_Int_Tables_number 19
loop_
_symmetry_equiv_pos_site_id
_symmetry_equiv_pos_as_xyz
1 x,y,z
2 1/2+x,1/2-y,-z
3 -x,1/2+y,1/2-z
4 1/2-x,-y,1/2+z
_cell_length_a 15.574(5)
_cell_length_b 9.884(2)
_cell_length_c 6.501(1)
_cell_angle_alpha 90
_cell_angle_beta 90
_cell_angle_gamma 90
_cell_formula_units_Z 4
loop_
_atom_type_symbol
_atom_type_radius_bond
C 0.68
H 0.23
N 0.68
O 0.68
loop_
_atom_site_label
_atom_site_type_symbol
_atom_site_fract_x
_atom_site_fract_y
_atom_site_fract_z
O1 O -0.33738 0.33394 0.42882
N1 N -0.70020 0.34485 0.05558
N2 N -0.40352 0.27284 0.49707
N3 N -0.56108 0.15937 0.64807
C1 C -0.63195 0.34197 0.18489
C2 C -0.56021 0.43120 0.15118
C3 C -0.48815 0.41396 0.26464
C4 C -0.48119 0.31347 0.41979
C5 C -0.55776 0.24028 0.47983
C6 C -0.63042 0.25395 0.35310
C7 C -0.70647 0.44105 -0.11371
C8 C -0.76786 0.24336 0.07508
C9 C -0.63549 0.07117 0.67889
C10 C -0.50104 0.16542 0.82031
H1 H -0.56120 0.49580 0.04970
H2 H -0.67860 0.20480 0.38760
H3 H -0.76760 0.43730 -0.15980
H4 H -0.80510 0.26240 0.19830
H5 H -0.80130 0.24490 -0.05370
H6 H -0.68840 0.12020 0.71340
H7 H -0.47240 0.25750 0.82460
H8 H -0.53500 0.14940 0.94950
H9 H -0.43840 0.47050 0.24380
H10 H -0.67210 0.41720 -0.21960
H11 H -0.69100 0.53220 -0.07050
H12 H -0.64760 0.01990 0.55170
H13 H -0.62350 0.00770 0.78610
#END
