
#######################################################################
#
#                 Cambridge Crystallographic Data Centre
#                                CCDC
#
#######################################################################
#
# If this CIF has been generated from an entry in the Cambridge
# Structural Database, then it will include bibliographic, chemical,
# crystal, experimental, refinement or atomic coordinate data resulting
# from the CCDC's data processing and validation procedures.
#
#######################################################################

data_CSD_CIF_TMANIA01
_audit_creation_date 1998-03-31
_audit_creation_method CSD-ConQuest-V1
_database_code_CSD TMANIA01
_database_code_depnum_ccdc_journal 188/73
_chemical_formula_sum 'C3 H9 N3 O2'
_chemical_formula_moiety
;
C3 H9 N3 O2
;
_journal_coden_Cambridge 188
_journal_year 1997
_journal_page_first 1329
_journal_name_full 'J.Chem.Soc.,Perkin Trans.2 '
loop_
_publ_author_name
"G.T.Smith"
"P.R.Mallinson"
"C.S.Frampton"
"J.A.K.Howard"
_chemical_name_systematic
;
Trimethylammonionitramidate
;
_chemical_name_common
;
Trimethylamine nitroimide
;
_cell_volume    563.289
_exptl_crystal_density_diffrn 1.405
_diffrn_ambient_temperature 123
#These two values have been output from a single CSD field.
_refine_ls_R_factor_gt 0.0288
_refine_ls_wR_factor_gt 0.0288
_symmetry_cell_setting orthorhombic
_symmetry_space_group_name_H-M 'P n m a'
_symmetry_Int_Tables_number 62
loop_
_symmetry_equiv_pos_site_id
_symmetry_equiv_pos_as_xyz
1 x,y,z
2 1/2-x,-y,1/2+z
3 1/2+x,1/2-y,1/2-z
4 -x,1/2+y,-z
5 -x,-y,-z
6 -1/2+x,y,-1/2-z
7 -1/2-x,-1/2+y,-1/2+z
8 x,-1/2-y,z
_cell_length_a 12.064(2)
_cell_length_b 6.622(2)
_cell_length_c 7.051(1)
_cell_angle_alpha 90
_cell_angle_beta 90
_cell_angle_gamma 90
_cell_formula_units_Z 4
loop_
_atom_type_symbol
_atom_type_radius_bond
C 0.68
H 0.23
N 0.68
O 0.68
loop_
_atom_site_label
_atom_site_type_symbol
_atom_site_fract_x
_atom_site_fract_y
_atom_site_fract_z
O1 O 0.49108(6) 0.25000 0.50075(10)
O2 O 0.37128(7) 0.25000 0.26804(9)
N1 N 0.33200(5) 0.25000 0.75775(8)
N2 N 0.30532(9) 0.25000 0.55406(11)
N3 N 0.39324(6) 0.25000 0.44379(8)
C1 C 0.21907(6) 0.25000 0.84579(10)
C2 C 0.39059(5) 0.06203(9) 0.82115(7)
H1 H 0.23118 0.25000 0.99467
H2 H 0.17801 0.11632 0.80219
H3 H 0.46935 0.05403 0.75504
H4 H 0.39531 0.06914 0.97108
H5 H 0.34150 -0.06328 0.77975
H2G H 0.17801 0.38368 0.80219
C2G C 0.39059(5) 0.43797(9) 0.82115(7)
H3G H 0.46935 0.44597 0.75504
H4G H 0.39531 0.43086 0.97108
H5G H 0.34150 0.56328 0.77975
#END
