
#######################################################################
#
#                 Cambridge Crystallographic Data Centre
#                                CCDC
#
#######################################################################
#
# If this CIF has been generated from an entry in the Cambridge
# Structural Database, then it will include bibliographic, chemical,
# crystal, experimental, refinement or atomic coordinate data resulting
# from the CCDC's data processing and validation procedures.
#
#######################################################################

data_CSD_CIF_TMCHOX
_audit_creation_date 1981-02-05
_audit_creation_method CSD-ConQuest-V1
_database_code_CSD TMCHOX
_database_code_depnum_ccdc_archive 'CCDC 1272390'
_chemical_formula_sum 'C10 H19 N1 O1'
_chemical_formula_moiety
;
C10 H19 N1 O1
;
_journal_coeditor_code "IUCr A19102"
_journal_coden_Cambridge 107
_journal_volume 36
_journal_year 1980
_journal_page_first 2168
_journal_name_full 'Acta Crystallogr.,Sect.B:Struct.Crystallogr.Cryst.Chem. '
loop_
_publ_author_name
"S.Toure"
"J.Lapasset"
"B.Boyer"
"G.Lamaty"
_chemical_name_systematic
;
3,3,5,5-Tetramethyl-cyclohexanone-oxime
;
_cell_volume    530.525
_diffrn_ambient_temperature ?
_diffrn_special_details
;
The study was carried out at room temperature,in the range 283-303K

;
#These two values have been output from a single CSD field.
_refine_ls_R_factor_gt 0.077
_refine_ls_wR_factor_gt 0.077
_symmetry_cell_setting triclinic
_symmetry_space_group_name_H-M 'P -1'
_symmetry_Int_Tables_number 2
loop_
_symmetry_equiv_pos_site_id
_symmetry_equiv_pos_as_xyz
1 x,y,z
2 -x,-y,-z
_cell_length_a 8.374(4)
_cell_length_b 11.650(5)
_cell_length_c 6.192(4)
_cell_angle_alpha 95.15(4)
_cell_angle_beta 66.93(4)
_cell_angle_gamma 107.25(4)
_cell_formula_units_Z 2
loop_
_atom_type_symbol
_atom_type_radius_bond
C 0.68
N 0.68
O 0.68
loop_
_atom_site_label
_atom_site_type_symbol
_atom_site_fract_x
_atom_site_fract_y
_atom_site_fract_z
O1 O 0.80230 0.00460 -0.00080
N1 N 0.90310 -0.07210 -0.15290
C1 C 0.84200 -0.11830 -0.30650
C2 C 0.68200 -0.09810 -0.33890
C3 C 0.54110 -0.21950 -0.33950
C4 C 0.63800 -0.30260 -0.51010
C5 C 0.80560 -0.32280 -0.48550
C6 C 0.93440 -0.19830 -0.47870
C7 C 0.41070 -0.19230 -0.43640
C8 C 0.43300 -0.27110 -0.09050
C9 C 0.90150 -0.38510 -0.70800
C10 C 0.75550 -0.39990 -0.27100
#END
