
#######################################################################
#
#                 Cambridge Crystallographic Data Centre
#                                CCDC
#
#######################################################################
#
# If this CIF has been generated from an entry in the Cambridge
# Structural Database, then it will include bibliographic, chemical,
# crystal, experimental, refinement or atomic coordinate data resulting
# from the CCDC's data processing and validation procedures.
#
#######################################################################

data_CSD_CIF_TMCPRP
_audit_creation_date 1978-10-27
_audit_creation_method CSD-ConQuest-V1
_database_code_CSD TMCPRP
_database_code_depnum_ccdc_archive 'CCDC 1272402'
_chemical_formula_sum 'C10 H18 N1 O3'
_chemical_formula_moiety
;
C10 H18 N1 O3
;
_journal_coden_Cambridge 189
_journal_volume 7
_journal_year 1978
_journal_page_first 409
_journal_name_full 'Cryst.Struct.Commun. '
loop_
_publ_author_name
"D.Bordeaux"
"G.d'Assenza"
_chemical_name_systematic
;
2,2,5,5-Tetramethyl-4-methoxycarbonyl-pyrroline-1-oxyl
;
_cell_volume   1119.177
_diffrn_ambient_temperature ?
_diffrn_special_details
;
The study was carried out at room temperature,in the range 283-303K

;
#These two values have been output from a single CSD field.
_refine_ls_R_factor_gt 0.08
_refine_ls_wR_factor_gt 0.08
_symmetry_cell_setting orthorhombic
_symmetry_space_group_name_H-M 'P n a 21'
_symmetry_Int_Tables_number 33
loop_
_symmetry_equiv_pos_site_id
_symmetry_equiv_pos_as_xyz
1 x,y,z
2 1/2-x,1/2+y,1/2+z
3 1/2+x,1/2-y,z
4 -x,-y,1/2+z
_cell_length_a 15.664(5)
_cell_length_b 8.976(3)
_cell_length_c 7.960(3)
_cell_angle_alpha 90
_cell_angle_beta 90
_cell_angle_gamma 90
_cell_formula_units_Z 4
loop_
_atom_type_symbol
_atom_type_radius_bond
C 0.68
N 0.68
O 0.68
loop_
_atom_site_label
_atom_site_type_symbol
_atom_site_fract_x
_atom_site_fract_y
_atom_site_fract_z
O1 O 0.19640 0.18370 0.32400
N1 N 0.18050 0.31730 0.27500
C1 C 0.22810 0.38820 0.13500
C2 C 0.18740 0.53940 0.13460
C3 C 0.12820 0.55000 0.25480
C4 C 0.11560 0.41130 0.35860
C5 C 0.32540 0.39480 0.17450
C6 C 0.21140 0.30410 -0.02750
C7 C 0.02680 0.34160 0.33630
C8 C 0.13750 0.42760 0.54410
C9 C 0.07580 0.68720 0.28910
C10 C 0.05020 0.93690 0.19450
O2 O 0.02120 0.69690 0.39530
O3 O 0.09780 0.79520 0.17930
#END
