
#######################################################################
#
#                 Cambridge Crystallographic Data Centre
#                                CCDC
#
#######################################################################
#
# If this CIF has been generated from an entry in the Cambridge
# Structural Database, then it will include bibliographic, chemical,
# crystal, experimental, refinement or atomic coordinate data resulting
# from the CCDC's data processing and validation procedures.
#
#######################################################################

data_CSD_CIF_TMEAMO
_audit_creation_date 1971-12-31
_audit_creation_method CSD-ConQuest-V1
_database_code_CSD TMEAMO
_chemical_formula_sum 'C3 H9 N1 O1'
_chemical_formula_moiety
;
C3 H9 N1 O1
;
_journal_coeditor_code "IUCr A04076"
_journal_coden_Cambridge 1
_journal_volume 17
_journal_year 1964
_journal_page_first 102
_journal_name_full 'Acta Crystallogr. '
loop_
_publ_author_name
"A.Caron"
"G.J.Palenik"
"E.Goldish"
"J.Donohue"
_chemical_name_systematic
;
Trimethylamine oxide
;
_cell_volume    446.884
_diffrn_ambient_temperature ?
_diffrn_special_details
;
The study was carried out at room temperature,in the range 283-303K

;
#These two values have been output from a single CSD field.
_refine_ls_R_factor_gt 0.079
_refine_ls_wR_factor_gt 0.079
_symmetry_cell_setting monoclinic
_symmetry_space_group_name_H-M 'C 2/m'
_symmetry_Int_Tables_number 12
loop_
_symmetry_equiv_pos_site_id
_symmetry_equiv_pos_as_xyz
1 x,y,z
2 1/2+x,1/2+y,z
3 -x,y,-z
4 1/2-x,1/2+y,-z
5 -x,-y,-z
6 -1/2-x,-1/2-y,-z
7 x,-y,z
8 -1/2+x,-1/2-y,z
_cell_length_a 10.154
_cell_length_b 8.793
_cell_length_c 5.006
_cell_angle_alpha 90
_cell_angle_beta 91.03
_cell_angle_gamma 90
_cell_formula_units_Z 4
loop_
_atom_type_symbol
_atom_type_radius_bond
C 0.68
H 0.20
N 0.68
O 0.68
loop_
_atom_site_label
_atom_site_type_symbol
_atom_site_fract_x
_atom_site_fract_y
_atom_site_fract_z
C1 C 0.34690 0.00000 0.77280
C2 C 0.14180 0.13730 0.77790
H1 H 0.34800 0.00000 0.96300
H2 H 0.39100 0.08300 0.69100
H3 H 0.14600 0.13300 0.98100
H4 H 0.04400 0.13100 0.69900
H5 H 0.18400 0.23000 0.68300
N1 N 0.20940 0.00000 0.67580
O1 O 0.20410 0.00000 0.39850
H2F H 0.39100 -0.08300 0.69100
C2F C 0.14180 -0.13730 0.77790
H3F H 0.14600 -0.13300 0.98100
H4F H 0.04400 -0.13100 0.69900
H5F H 0.18400 -0.23000 0.68300
#END
