
#######################################################################
#
#                 Cambridge Crystallographic Data Centre
#                                CCDC
#
#######################################################################
#
# If this CIF has been generated from an entry in the Cambridge
# Structural Database, then it will include bibliographic, chemical,
# crystal, experimental, refinement or atomic coordinate data resulting
# from the CCDC's data processing and validation procedures.
#
#######################################################################

data_CSD_CIF_TMOBUT
_audit_creation_date 1975-10-10
_audit_creation_method CSD-ConQuest-V1
_database_code_CSD TMOBUT
_chemical_formula_sum 'C22 H42 N2 O4'
_chemical_formula_moiety
;
C22 H42 N2 O4
;
_journal_coden_Cambridge 93
_journal_volume 215
_journal_year 1974
_journal_page_first 881
_journal_name_full 'Dokl.Akad.Nauk SSSR(Russ.)(Proc.Nat.Acad.Sci.USSR) '
loop_
_publ_author_name
"L.D.Arutyunyan"
"R.P.Shibaeva"
_chemical_name_systematic
;
1,4-bis-(2,2,6,6-Tetramethyl-1-hydroxy-4-oxy-4-piperidyl)-butane
;
_cell_volume   1231.433
_exptl_crystal_density_diffrn 1.08
_exptl_special_details
;
Y-COORD OF H8' UNREADABLE IN PAPER.VALUE HAS BEEN CALCULATED AS .275

;
_diffrn_ambient_temperature ?
_diffrn_special_details
;
The study was carried out at room temperature,in the range 283-303K

;
#These two values have been output from a single CSD field.
_refine_ls_R_factor_gt 0.11
_refine_ls_wR_factor_gt 0.11
_symmetry_cell_setting monoclinic
_symmetry_space_group_name_H-M 'P 21/a'
_symmetry_Int_Tables_number 14
loop_
_symmetry_equiv_pos_site_id
_symmetry_equiv_pos_as_xyz
1 x,y,z
2 1/2-x,1/2+y,-z
3 -x,-y,-z
4 -1/2+x,-1/2-y,z
_cell_length_a 16.203(4)
_cell_length_b 12.998(25)
_cell_length_c 6.096(1)
_cell_angle_alpha 90
_cell_angle_beta 106.43(5)
_cell_angle_gamma 90
_cell_formula_units_Z 2
loop_
_atom_type_symbol
_atom_type_radius_bond
C 0.68
H 0.23
N 0.68
O 0.68
loop_
_atom_site_label
_atom_site_type_symbol
_atom_site_fract_x
_atom_site_fract_y
_atom_site_fract_z
C1 C 0.35850 0.16180 0.22260
C2 C 0.42950 0.44660 0.21140
C3 C 0.15630 0.33460 0.18530
C4 C 0.48560 0.04400 0.41630
C5 C 0.38130 0.35020 0.10370
C6 C 0.39560 0.08280 0.40780
C7 C 0.27100 0.19520 0.24310
C8 C 0.41460 0.25860 0.25640
C9 C 0.22560 0.28370 0.08630
C10 C 0.39010 0.33880 -0.13850
C11 C 0.18300 0.25150 -0.15910
H1 H 0.31000 0.06200 -0.05300
H2 H 0.46700 0.43000 0.24300
H3 H 0.42500 0.46800 0.37300
H4 H 0.41900 0.52200 0.11300
H5 H 0.18400 0.36300 0.30600
H6 H 0.12900 0.28600 0.16200
H7 H 0.11400 0.38700 0.06700
H8 H 0.53100 0.10000 0.43900
H9 H 0.47200 0.01100 0.28500
H10 H 0.40100 0.11100 0.54600
H11 H 0.35400 0.02200 0.36600
H12 H 0.23200 0.14000 0.20400
H13 H 0.27800 0.21200 0.40800
H14 H 0.46800 0.23500 0.23100
H15 H 0.42000 0.28600 0.41600
H16 H 0.44900 0.31400 -0.13500
H17 H 0.37000 0.27500 -0.21300
H18 H 0.35900 0.40600 -0.23900
H19 H 0.21700 0.22700 -0.22500
H20 H 0.16700 0.31200 -0.31000
H21 H 0.12500 0.21100 -0.16400
N1 N 0.28970 0.36560 0.08800
O1 O 0.35270 0.12160 0.00170
O2 O 0.25850 0.45490 0.00190
C4B C 0.51440 -0.04400 0.58370
C6B C 0.60440 -0.08280 0.59220
H8B H 0.46900 -0.10000 0.56100
H9B H 0.52800 -0.01100 0.71500
C1B C 0.64150 -0.16180 0.77740
H10B H 0.59900 -0.11100 0.45400
H11B H 0.64600 -0.02200 0.63400
C7B C 0.72900 -0.19520 0.75690
C8B C 0.58540 -0.25860 0.74360
O1B O 0.64730 -0.12160 0.99830
C9B C 0.77440 -0.28370 0.91370
H12B H 0.76800 -0.14000 0.79600
H13B H 0.72200 -0.21200 0.59200
C5B C 0.61870 -0.35020 0.89630
H14B H 0.53200 -0.23500 0.76900
H15B H 0.58000 -0.28600 0.58400
H1B H 0.69000 -0.06200 1.05300
C3B C 0.84370 -0.33460 0.81470
C11B C 0.81700 -0.25150 1.15910
N1B N 0.71030 -0.36560 0.91200
C2B C 0.57050 -0.44660 0.78860
C10B C 0.60990 -0.33880 1.13850
H5B H 0.81600 -0.36300 0.69400
H6B H 0.87100 -0.28600 0.83800
H7B H 0.88600 -0.38700 0.93300
H19B H 0.78300 -0.22700 1.22500
H20B H 0.83300 -0.31200 1.31000
H21B H 0.87500 -0.21100 1.16400
O2B O 0.74150 -0.45490 0.99810
H2B H 0.53300 -0.43000 0.75700
H3B H 0.57500 -0.46800 0.62700
H4B H 0.58100 -0.52200 0.88700
H16B H 0.55100 -0.31400 1.13500
H17B H 0.63000 -0.27500 1.21300
H18B H 0.64100 -0.40600 1.23900
#END
