
#######################################################################
#
#                 Cambridge Crystallographic Data Centre
#                                CCDC
#
#######################################################################
#
# If this CIF has been generated from an entry in the Cambridge
# Structural Database, then it will include bibliographic, chemical,
# crystal, experimental, refinement or atomic coordinate data resulting
# from the CCDC's data processing and validation procedures.
#
#######################################################################

data_CSD_CIF_TMPDAC01
_audit_creation_date 1991-06-10
_audit_creation_method CSD-ConQuest-V1
_database_code_CSD TMPDAC01
_database_code_depnum_ccdc_fiz 'CSD 54110'
_chemical_formula_sum 'C22 H30 N2 O2'
_chemical_formula_moiety
;
C22 H30 N2 O2
;
_journal_coden_Cambridge 643
_journal_volume 191
_journal_year 1990
_journal_page_first 9
_journal_name_full 'Z.Krist.Cryst.Mater. '
loop_
_publ_author_name
"V.E.Shklover"
"I.A.Zamaev"
"Yu.T.Struchkov"
"T.V.Medvedeva"
"Yu.V.Korshak"
"A.A.Ovchinnikov"
"V.N.Spector"
_chemical_name_systematic
;
1,4-bis(1-Oxy-2,2,6,6-tetramethyl-\D^3^-dehydropiperidin-4-yl)-buta-1,3-diyne
;
_cell_volume   1013.206
_exptl_crystal_colour 'colorless'
_exptl_crystal_density_diffrn 1.16
_diffrn_ambient_temperature 150
#These two values have been output from a single CSD field.
_refine_ls_R_factor_gt 0.031
_refine_ls_wR_factor_gt 0.031
_symmetry_cell_setting monoclinic
_symmetry_space_group_name_H-M 'P 21/c'
_symmetry_Int_Tables_number 14
loop_
_symmetry_equiv_pos_site_id
_symmetry_equiv_pos_as_xyz
1 x,y,z
2 -x,1/2+y,1/2-z
3 -x,-y,-z
4 x,-1/2-y,-1/2+z
_cell_length_a 11.670(8)
_cell_length_b 8.401(3)
_cell_length_c 10.342(7)
_cell_angle_alpha 90
_cell_angle_beta 92.16(6)
_cell_angle_gamma 90
_cell_formula_units_Z 2
loop_
_atom_type_symbol
_atom_type_radius_bond
C 0.68
H 0.23
N 0.68
O 0.68
loop_
_atom_site_label
_atom_site_type_symbol
_atom_site_fract_x
_atom_site_fract_y
_atom_site_fract_z
C1 C 0.2734(2) 0.0790(3) 0.4714(2)
C2 C 0.3404(2) 0.0870(3) 0.3496(2)
C3 C 0.3508(2) -0.0332(3) 0.2662(2)
C4 C 0.2920(2) -0.1901(3) 0.2874(2)
C5 C 0.1796(2) -0.1712(3) 0.3587(2)
C6 C 0.1938(2) 0.2239(3) 0.4794(3)
C7 C 0.3580(2) 0.0755(3) 0.5897(2)
C8 C 0.0865(2) -0.0912(3) 0.2723(2)
C9 C 0.1399(2) -0.3339(3) 0.4040(2)
C10 C 0.4175(2) -0.0172(3) 0.1534(2)
C11 C 0.4701(2) -0.0077(3) 0.0556(2)
N1 N 0.2043(1) -0.0695(2) 0.4745(2)
O1 O 0.1404(1) -0.0848(2) 0.5723(1)
H1 H 0.379(2) 0.196(3) 0.334(2)
H2 H 0.276(2) -0.249(3) 0.205(2)
H3 H 0.351(3) -0.261(3) 0.342(2)
H4 H 0.133(2) 0.221(3) 0.402(2)
H5 H 0.240(2) 0.322(3) 0.479(2)
H6 H 0.149(2) 0.224(3) 0.564(2)
H7 H 0.414(2) 0.175(3) 0.589(2)
H8 H 0.315(2) 0.077(3) 0.673(2)
H9 H 0.411(2) -0.028(3) 0.587(3)
H10 H 0.113(2) 0.012(3) 0.233(2)
H11 H 0.058(2) -0.169(3) 0.194(2)
H12 H 0.017(2) -0.060(2) 0.321(2)
H13 H 0.200(2) -0.378(3) 0.466(2)
H14 H 0.058(2) -0.324(3) 0.444(2)
H15 H 0.126(2) -0.407(3) 0.322(2)
C11B C 0.5299(2) 0.0077(3) -0.0556(2)
C10B C 0.5825(2) 0.0172(3) -0.1534(2)
C3B C 0.6492(2) 0.0332(3) -0.2662(2)
C2B C 0.6596(2) -0.0870(3) -0.3496(2)
C4B C 0.7080(2) 0.1901(3) -0.2874(2)
C1B C 0.7266(2) -0.0790(3) -0.4714(2)
H1B H 0.621(2) -0.196(3) -0.334(2)
C5B C 0.8204(2) 0.1712(3) -0.3587(2)
H2B H 0.724(2) 0.249(3) -0.205(2)
H3B H 0.649(3) 0.261(3) -0.342(2)
C6B C 0.8062(2) -0.2239(3) -0.4794(3)
C7B C 0.6420(2) -0.0755(3) -0.5897(2)
N1B N 0.7957(1) 0.0695(2) -0.4745(2)
C8B C 0.9135(2) 0.0912(3) -0.2723(2)
C9B C 0.8601(2) 0.3339(3) -0.4040(2)
H4B H 0.867(2) -0.221(3) -0.402(2)
H5B H 0.760(2) -0.322(3) -0.479(2)
H6B H 0.851(2) -0.224(3) -0.564(2)
H7B H 0.586(2) -0.175(3) -0.589(2)
H8B H 0.685(2) -0.077(3) -0.673(2)
H9B H 0.589(2) 0.028(3) -0.587(3)
O1B O 0.8596(1) 0.0848(2) -0.5723(1)
H10B H 0.887(2) -0.012(3) -0.233(2)
H11B H 0.942(2) 0.169(3) -0.194(2)
H12B H 0.983(2) 0.060(2) -0.321(2)
H13B H 0.800(2) 0.378(3) -0.466(2)
H14B H 0.942(2) 0.324(3) -0.444(2)
H15B H 0.874(2) 0.407(3) -0.322(2)
#END
