
#######################################################################
#
#                 Cambridge Crystallographic Data Centre
#                                CCDC
#
#######################################################################
#
# If this CIF has been generated from an entry in the Cambridge
# Structural Database, then it will include bibliographic, chemical,
# crystal, experimental, refinement or atomic coordinate data resulting
# from the CCDC's data processing and validation procedures.
#
#######################################################################

data_CSD_CIF_TMPIMZ10
_audit_creation_date 1980-09-10
_audit_creation_method CSD-ConQuest-V1
_database_code_CSD TMPIMZ10
_chemical_formula_sum 'C13 H17 N2 O2'
_chemical_formula_moiety
;
C13 H17 N2 O2
;
_journal_coden_Cambridge 41
_journal_volume 24
_journal_year 1979
_journal_page_first 1217
_journal_name_full 'Kristallografiya(Russ.)(Crystallogr.Rep.) '
loop_
_publ_author_name
"A.A.Shevyrev"
"L.A.Muradyan"
"V.I.Simonov"
_chemical_name_systematic
;
2,2,5,5-Tetramethyl-4-phenyl-3-imidazoline-3-oxide-1-oxyl
;
_cell_volume   1268.043
_exptl_crystal_density_diffrn 1.22
_exptl_special_details
;
Y(C11)= 0.8304 not 0.2304

;
_diffrn_ambient_temperature ?
_diffrn_special_details
;
The study was carried out at room temperature,in the range 283-303K

;
_refine_special_details
;
deformation density refinement

;
_symmetry_cell_setting monoclinic
_symmetry_space_group_name_H-M 'B 1 1 b'
_symmetry_Int_Tables_number 9
loop_
_symmetry_equiv_pos_site_id
_symmetry_equiv_pos_as_xyz
1 x,y,z
2 1/2+x,y,1/2+z
3 x,1/2+y,-z
4 1/2+x,1/2+y,1/2-z
_cell_length_a 7.584
_cell_length_b 9.5
_cell_length_c 18.127
_cell_angle_alpha 90
_cell_angle_beta 90
_cell_angle_gamma 76.15
_cell_formula_units_Z 4
loop_
_atom_type_symbol
_atom_type_radius_bond
C 0.68
N 0.68
O 0.68
loop_
_atom_site_label
_atom_site_type_symbol
_atom_site_fract_x
_atom_site_fract_y
_atom_site_fract_z
O1 O 0.96670 0.45970 0.37870
O2 O 0.69530 0.09640 0.45770
N1 N 0.83720 0.39900 0.39370
N2 N 0.71440 0.21800 0.43550
C1 C 0.57340 0.59100 0.35570
C2 C 0.55910 0.33620 0.41080
C3 C 0.38330 0.63250 0.34980
C4 C 0.65980 0.44890 0.38500
C5 C 0.67360 0.69130 0.33440
C6 C 0.29650 0.77080 0.32410
C7 C 0.58880 0.83040 0.30710
C8 C 0.89160 0.25130 0.42800
C9 C 0.39810 0.86920 0.30210
C10 C 0.97700 0.25830 0.50360
C11 C 0.43690 0.38500 0.47890
C12 C 1.01260 0.14530 0.37440
C13 C 0.45830 0.27660 0.34810
#END
