
#######################################################################
#
#                 Cambridge Crystallographic Data Centre
#                                CCDC
#
#######################################################################
#
# If this CIF has been generated from an entry in the Cambridge
# Structural Database, then it will include bibliographic, chemical,
# crystal, experimental, refinement or atomic coordinate data resulting
# from the CCDC's data processing and validation procedures.
#
#######################################################################

data_CSD_CIF_TMPPIO12
_audit_creation_date 2007-09-12
_audit_creation_method CSD-ConQuest-V1
_database_code_CSD TMPPIO12
_database_code_depnum_ccdc_archive 'CCDC 651858'
_chemical_formula_sum 'C9 H18 N1 O1'
_chemical_formula_moiety
;
C9 H18 N1 O1
;
_journal_coden_Cambridge 241
_journal_volume 36
_journal_year 2007
_journal_page_first 866
_journal_name_full 'Chem.Lett. '
loop_
_publ_author_name
"Y.Yonekuta"
"K.Oyaizu"
"H.Nishide"
_chemical_name_systematic
;
2,2,6,6-Tetramethylpiperidine-1-oxyl
;
_cell_volume   3855.017
_exptl_crystal_colour 'red'
_exptl_crystal_density_diffrn 1.077
_exptl_special_details
;
orthorhombic polymorph

;
_exptl_crystal_description 'platelet'
_exptl_crystal_preparation 'acetonitrile/diethyl ether'
_diffrn_ambient_temperature 93.1
#These two values have been output from a single CSD field.
_refine_ls_R_factor_gt 0.0643
_refine_ls_wR_factor_gt 0.0643
_symmetry_cell_setting orthorhombic
_symmetry_space_group_name_H-M 'F d d 2'
_symmetry_Int_Tables_number 43
loop_
_symmetry_equiv_pos_site_id
_symmetry_equiv_pos_as_xyz
1 x,y,z
2 1/4-x,1/4+y,1/4+z
3 1/4+x,1/4-y,1/4+z
4 1/2-x,-y,1/2+z
5 x,1/2+y,1/2+z
6 1/4-x,3/4+y,3/4+z
7 1/4+x,3/4-y,3/4+z
8 1/2-x,1/2-y,z
9 1/2+x,y,1/2+z
10 3/4-x,1/4+y,3/4+z
11 3/4+x,1/4-y,3/4+z
12 -x,-y,z
13 1/2+x,1/2+y,z
14 3/4-x,3/4+y,1/4+z
15 3/4+x,3/4-y,1/4+z
16 -x,1/2-y,1/2+z
_cell_length_a 21.332(5)
_cell_length_b 22.771(5)
_cell_length_c 7.9362(18)
_cell_angle_alpha 90
_cell_angle_beta 90
_cell_angle_gamma 90
_cell_formula_units_Z 16
loop_
_atom_type_symbol
_atom_type_radius_bond
C 0.68
H 0.23
N 0.68
O 0.68
loop_
_atom_site_label
_atom_site_type_symbol
_atom_site_fract_x
_atom_site_fract_y
_atom_site_fract_z
O1 O 0.0887(2) 0.1624(2) 0.1831(7)
N1 N 0.1256(3) 0.1189(2) 0.1567(8)
C1 C 0.1777(4) 0.1286(3) 0.0386(10)
C2 C 0.2066(4) 0.0704(3) -0.0094(9)
C3 C 0.2191(4) 0.0299(3) 0.1338(9)
C4 C 0.1585(4) 0.0174(3) 0.2214(10)
C5 C 0.1268(4) 0.0737(3) 0.2945(10)
C6 C 0.2247(4) 0.1682(3) 0.1211(11)
C7 C 0.1492(4) 0.1593(4) -0.1186(10)
C8 C 0.1628(4) 0.0970(3) 0.4475(9)
C9 C 0.0604(3) 0.0613(4) 0.3444(12)
H1 H 0.23330 0.07980 -0.11280
H2 H 0.17930 0.05280 -0.11680
H3 H 0.26210 0.05270 0.21070
H4 H 0.25110 -0.01230 0.12580
H5 H 0.17170 -0.00520 0.35630
H6 H 0.11570 -0.01420 0.22130
H7 H 0.19830 0.20250 0.16640
H8 H 0.28130 0.15950 0.14240
H9 H 0.25850 0.18530 0.00450
H10 H 0.12080 0.19270 -0.09590
H11 H 0.10480 0.12770 -0.13690
H12 H 0.19280 0.16370 -0.19890
H13 H 0.13200 0.14050 0.47200
H14 H 0.20300 0.10350 0.33700
H15 H 0.15000 0.05650 0.54700
H16 H 0.02280 0.09820 0.38610
H17 H 0.03180 0.04520 0.22910
H18 H 0.05180 0.03120 0.44010
#END
