
#######################################################################
#
#                 Cambridge Crystallographic Data Centre
#                                CCDC
#
#######################################################################
#
# If this CIF has been generated from an entry in the Cambridge
# Structural Database, then it will include bibliographic, chemical,
# crystal, experimental, refinement or atomic coordinate data resulting
# from the CCDC's data processing and validation procedures.
#
#######################################################################

data_CSD_CIF_TMPYRO
_audit_creation_date 1975-08-29
_audit_creation_method CSD-ConQuest-V1
_database_code_CSD TMPYRO
_chemical_formula_sum 'C9 H17 N2 O2'
_chemical_formula_moiety
;
C9 H17 N2 O2
;
_journal_coeditor_code "IUCr A12173"
_journal_coden_Cambridge 107
_journal_volume 31
_journal_year 1975
_journal_page_first 1430
_journal_name_full 'Acta Crystallogr.,Sect.B:Struct.Crystallogr.Cryst.Chem. '
loop_
_publ_author_name
"B.Chion"
"J.Lajzerowicz"
_chemical_name_systematic
;
2,2,5,5-Tetramethyl-pyrrolidine-3-carboxamide 1-oxyl
;
_cell_volume    512.783
_exptl_crystal_density_diffrn 1.2
_exptl_special_details
;
optically active isomer

;
_diffrn_ambient_temperature ?
_diffrn_special_details
;
The study was carried out at room temperature,in the range 283-303K

;
loop_
_citation_database_id_CSD
_citation_special_details
RTMPRO "is a racemate of this entry"
_symmetry_cell_setting monoclinic
_symmetry_space_group_name_H-M 'P 21'
_symmetry_Int_Tables_number 4
loop_
_symmetry_equiv_pos_site_id
_symmetry_equiv_pos_as_xyz
1 x,y,z
2 -x,1/2+y,-z
_cell_length_a 6.551(2)
_cell_length_b 10.156(3)
_cell_length_c 8.098(2)
_cell_angle_alpha 90
_cell_angle_beta 107.87(1)
_cell_angle_gamma 90
_cell_formula_units_Z 2
loop_
_atom_type_symbol
_atom_type_radius_bond
C 0.68
H 0.23
N 0.68
O 0.68
loop_
_atom_site_label
_atom_site_type_symbol
_atom_site_fract_x
_atom_site_fract_y
_atom_site_fract_z
C1 C 0.23630 -0.01430 0.03110
C2 C 0.17330 -0.11670 -0.11250
C3 C 0.27560 0.12010 -0.03870
C4 C 0.04340 0.10260 0.38600
C5 C 0.07010 -0.14100 0.36150
C6 C 0.42600 -0.05830 0.18610
C7 C 0.38510 0.00710 0.34310
C8 C 0.13840 -0.00860 0.30720
C9 C 0.51860 -0.04980 0.51600
H1 H 0.42700 -0.16000 0.19500
H2 H -0.11000 0.10800 0.33000
H3 H 0.10000 0.17500 0.36600
H4 H 0.07800 0.09000 0.52700
H5 H -0.07500 -0.15000 0.32500
H6 H 0.11000 -0.14200 0.51600
H7 H 0.14500 -0.22200 0.31700
H8 H 0.67000 0.00800 0.77000
H9 H 0.58300 0.15000 0.63000
H10 H 0.56000 -0.01000 0.16200
H11 H 0.40600 0.10800 0.37300
H12 H 0.27500 -0.09200 -0.17500
H13 H 0.20600 -0.21400 -0.06000
H14 H 0.01200 -0.09400 -0.20000
H15 H 0.13300 0.15000 -0.13400
H16 H 0.31700 0.19100 0.06500
H17 H 0.39900 0.11200 -0.10200
N1 N 0.06420 0.00000 0.11460
N2 N 0.58990 0.04080 0.64270
O1 O -0.13160 0.01540 0.02770
O2 O 0.55760 -0.16690 0.53780
#END
