
#######################################################################
#
#                 Cambridge Crystallographic Data Centre
#                                CCDC
#
#######################################################################
#
# If this CIF has been generated from an entry in the Cambridge
# Structural Database, then it will include bibliographic, chemical,
# crystal, experimental, refinement or atomic coordinate data resulting
# from the CCDC's data processing and validation procedures.
#
#######################################################################

data_CSD_CIF_TMXPYO
_audit_creation_date 1976-05-27
_audit_creation_method CSD-ConQuest-V1
_database_code_CSD TMXPYO
_chemical_formula_sum 'C8 H16 N1 O2'
_chemical_formula_moiety
;
C8 H16 N1 O2
;
_journal_coeditor_code "IUCr A13113"
_journal_coden_Cambridge 107
_journal_volume 32
_journal_year 1976
_journal_page_first 339
_journal_name_full 'Acta Crystallogr.,Sect.B:Struct.Crystallogr.Cryst.Chem. '
loop_
_publ_author_name
"B.Chion"
"J.Lajzerowicz"
"A.Collet"
"J.Jacques"
_chemical_name_systematic
;
(+)-2,2,5,5-Tetramethyl-3-hydroxy-pyrrolidine N-oxide
;
_cell_volume    926.538
_exptl_crystal_density_diffrn 1.133
_exptl_special_details
;
Absolute configuration

;
_diffrn_ambient_temperature ?
_diffrn_special_details
;
The study was carried out at room temperature,in the range 283-303K

;
#These two values have been output from a single CSD field.
_refine_ls_R_factor_gt 0.08
_refine_ls_wR_factor_gt 0.08
_symmetry_cell_setting orthorhombic
_symmetry_space_group_name_H-M 'P 21 21 21'
_symmetry_Int_Tables_number 19
loop_
_symmetry_equiv_pos_site_id
_symmetry_equiv_pos_as_xyz
1 x,y,z
2 1/2+x,1/2-y,-z
3 -x,1/2+y,1/2-z
4 1/2-x,-y,1/2+z
_cell_length_a 9.953(3)
_cell_length_b 6.678(2)
_cell_length_c 13.940(4)
_cell_angle_alpha 90
_cell_angle_beta 90
_cell_angle_gamma 90
_cell_formula_units_Z 4
loop_
_atom_type_symbol
_atom_type_radius_bond
C 0.68
H 0.23
N 0.68
O 0.68
loop_
_atom_site_label
_atom_site_type_symbol
_atom_site_fract_x
_atom_site_fract_y
_atom_site_fract_z
C1 C 0.13870 -0.16580 0.39620
C2 C 0.38110 -0.26660 0.40220
C3 C 0.27670 -0.29130 0.16420
C4 C 0.28660 -0.49840 0.20960
C5 C 0.21630 -0.48090 0.30690
C6 C 0.25170 -0.27250 0.34290
C7 C 0.14240 -0.25480 0.11190
C8 C 0.39640 -0.24330 0.10070
H1 H 0.15000 -0.11000 0.07500
H2 H 0.37100 -0.35700 0.46700
H3 H 0.40600 -0.11300 0.42200
H4 H 0.46500 -0.32800 0.35900
H5 H 0.39400 -0.53400 0.22300
H6 H 0.25700 -0.59200 0.35600
H7 H 0.10800 -0.49100 0.29700
H8 H 0.06100 -0.24800 0.16400
H9 H 0.12600 -0.36300 0.05900
H10 H 0.50000 -0.25900 0.14200
H11 H 0.38800 -0.08400 0.07600
H12 H 0.39700 -0.33400 0.03700
H13 H 0.16600 -0.01000 0.40800
H14 H 0.12000 -0.23600 0.46500
H15 H 0.04600 -0.17000 0.35400
N1 N 0.28020 -0.16550 0.25140
O1 O 0.30650 0.01960 0.24810
O2 O 0.23040 -0.64610 0.15080
#END
