
#######################################################################
#
#                 Cambridge Crystallographic Data Centre
#                                CCDC
#
#######################################################################
#
# If this CIF has been generated from an entry in the Cambridge
# Structural Database, then it will include bibliographic, chemical,
# crystal, experimental, refinement or atomic coordinate data resulting
# from the CCDC's data processing and validation procedures.
#
#######################################################################

data_CSD_CIF_TNBENZ11
_audit_creation_date 2004-07-08
_audit_creation_method CSD-ConQuest-V1
_database_code_CSD TNBENZ11
_database_code_depnum_ccdc_archive 'CCDC 213310'
_chemical_formula_sum 'C6 H3 N3 O6'
_chemical_formula_moiety
;
C6 H3 N3 O6
;
_journal_coden_Cambridge 179
_journal_volume 43
_journal_year 2004
_journal_page_first 1149
_journal_name_full 'Angew.Chem.,Int.Ed. '
loop_
_publ_author_name
"P.K.Thallapally"
"R.K.R.Jetti"
"A.K.Katz"
"H.L.Carrel"
"K.Singh"
"K.Lahiri"
"S.Kotha"
"R.Boese"
"G.R.Desiraju"
_chemical_name_systematic
;
1,3,5-trinitrobenzene
;
_chemical_melting_point 395
_cell_volume   3274.033
_exptl_crystal_colour 'colorless'
_exptl_crystal_density_diffrn 1.729
_exptl_special_details
;
Polymorphism induced by trisindane additive
polymorph I

;
_exptl_crystal_description 'plate'
_diffrn_ambient_temperature 183
#These two values have been output from a single CSD field.
_refine_ls_R_factor_gt 0.045
_refine_ls_wR_factor_gt 0.045
_symmetry_cell_setting orthorhombic
_symmetry_space_group_name_H-M 'P b c a'
_symmetry_Int_Tables_number 61
loop_
_symmetry_equiv_pos_site_id
_symmetry_equiv_pos_as_xyz
1 x,y,z
2 1/2+x,y,1/2-z
3 x,1/2-y,1/2+z
4 1/2-x,1/2+y,z
5 -x,-y,-z
6 -1/2-x,-y,-1/2+z
7 -x,-1/2+y,-1/2-z
8 -1/2+x,-1/2-y,-z
_cell_length_a 12.587(11)
_cell_length_b 9.684(9)
_cell_length_c 26.86(2)
_cell_angle_alpha 90
_cell_angle_beta 90
_cell_angle_gamma 90
_cell_formula_units_Z 16
loop_
_atom_type_symbol
_atom_type_radius_bond
C 0.68
H 0.23
N 0.68
O 0.68
loop_
_atom_site_label
_atom_site_type_symbol
_atom_site_fract_x
_atom_site_fract_y
_atom_site_fract_z
N1 N 0.2754(2) -0.0368(3) 0.52463(10)
N2 N 0.2886(2) 0.0322(3) 0.34408(10)
N3 N 0.5139(2) 0.3076(3) 0.45455(10)
O1 O 0.3093(2) -0.0056(3) 0.56513(9)
O2 O 0.20416(19) -0.1192(2) 0.51822(8)
O3 O 0.22658(18) -0.0639(3) 0.33958(8)
O4 O 0.3209(2) 0.1038(3) 0.30972(9)
O5 O 0.57500(19) 0.2958(2) 0.48956(9)
O6 O 0.5124(2) 0.4047(2) 0.42559(9)
C1 C 0.3217(2) 0.0311(3) 0.48054(10)
C2 C 0.2840(2) -0.0025(3) 0.43420(11)
H1 H 0.23140 -0.07180 0.42990
C3 C 0.3257(2) 0.0680(3) 0.39426(10)
C4 C 0.4005(2) 0.1710(3) 0.39935(10)
H2 H 0.42610 0.22160 0.37150
C5 C 0.4363(2) 0.1962(3) 0.44678(10)
C6 C 0.3996(2) 0.1279(3) 0.48823(10)
H3 H 0.42700 0.14630 0.52050
N4 N 1.0483(3) 0.1450(3) 0.74051(9)
N5 N 0.9773(2) -0.2321(3) 0.62383(9)
N6 N 1.3406(2) -0.1157(3) 0.66739(11)
O7 O 1.1134(2) 0.2059(2) 0.76551(9)
O8 O 0.9540(2) 0.1718(2) 0.73935(9)
O9 O 0.88547(17) -0.1971(2) 0.62245(8)
O10 O 1.01131(17) -0.3352(2) 0.60248(8)
O11 O 1.36838(16) -0.2197(3) 0.64471(9)
O12 O 1.40073(19) -0.0314(3) 0.68521(10)
C7 C 1.0871(2) 0.0324(3) 0.70797(10)
C8 C 1.0147(2) -0.0442(3) 0.68200(9)
H4 H 0.94070 -0.02640 0.68460
C9 C 1.0527(2) -0.1475(3) 0.65194(9)
C10 C 1.1582(2) -0.1746(3) 0.64666(10)
H5 H 1.18320 -0.24610 0.62550
C11 C 1.2260(2) -0.0927(3) 0.67342(10)
C12 C 1.1938(2) 0.0109(3) 0.70455(10)
H6 H 1.24330 0.06510 0.72280
#END
