
#######################################################################
#
#                 Cambridge Crystallographic Data Centre
#                                CCDC
#
#######################################################################
#
# If this CIF has been generated from an entry in the Cambridge
# Structural Database, then it will include bibliographic, chemical,
# crystal, experimental, refinement or atomic coordinate data resulting
# from the CCDC's data processing and validation procedures.
#
#######################################################################

data_CSD_CIF_TNFLUO
_audit_creation_date 1973-04-16
_audit_creation_method CSD-ConQuest-V1
_database_code_CSD TNFLUO
_chemical_formula_sum 'C13 H5 N3 O7'
_chemical_formula_moiety
;
C13 H5 N3 O7
;
_journal_coeditor_code "IUCr A09365"
_journal_coden_Cambridge 107
_journal_volume 28
_journal_year 1972
_journal_page_first 3122
_journal_name_full 'Acta Crystallogr.,Sect.B:Struct.Crystallogr.Cryst.Chem. '
loop_
_publ_author_name
"D.L.Dorset"
"A.Hybl"
"H.L.Ammon"
_chemical_name_systematic
;
2,4,7-Trinitrofluoren-9-one
;
_chemical_melting_point 446.15
_cell_volume   1257.776
_exptl_crystal_density_diffrn 1.673
_exptl_special_details
;
Melting point range 446.15-448.15K
monoclinic P21/n polymorph
X-COORD OF C41 (C(4B)) SHOULD BE .1034 NOT .0134
;
_diffrn_ambient_temperature ?
_diffrn_special_details
;
The study was carried out at room temperature,in the range 283-303K

;
#These two values have been output from a single CSD field.
_refine_ls_R_factor_gt 0.057
_refine_ls_wR_factor_gt 0.057
_symmetry_cell_setting monoclinic
_symmetry_space_group_name_H-M 'P 21/n'
_symmetry_Int_Tables_number 14
loop_
_symmetry_equiv_pos_site_id
_symmetry_equiv_pos_as_xyz
1 x,y,z
2 1/2-x,1/2+y,1/2-z
3 -x,-y,-z
4 -1/2+x,-1/2-y,-1/2+z
_cell_length_a 22.470(3)
_cell_length_b 5.652(1)
_cell_length_c 10.278(2)
_cell_angle_alpha 90
_cell_angle_beta 105.51(1)
_cell_angle_gamma 90
_cell_formula_units_Z 4
loop_
_atom_type_symbol
_atom_type_radius_bond
C 0.68
H 0.23
N 0.68
O 0.68
loop_
_atom_site_label
_atom_site_type_symbol
_atom_site_fract_x
_atom_site_fract_y
_atom_site_fract_z
C1 C 0.19830 -0.24440 0.46000
C2 C 0.17970 -0.29770 0.57390
C3 C 0.13540 -0.17700 0.61500
C4 C 0.10850 0.01850 0.53740
C5 C 0.12390 0.08160 0.42040
C6 C 0.10340 0.27200 0.31350
C7 C 0.05900 0.44610 0.29290
C8 C 0.05150 0.59790 0.18140
C9 C 0.08880 0.56340 0.09520
C10 C 0.13160 0.38450 0.10900
C11 C 0.13840 0.24370 0.22050
C12 C 0.18030 0.03360 0.25890
C13 C 0.16990 -0.05050 0.38680
H1 H 0.22900 -0.33500 0.43200
H2 H 0.12000 -0.22300 0.69800
H3 H 0.03200 0.47500 0.35100
H4 H 0.02200 0.72500 0.17400
H5 H 0.15800 0.36900 0.04200
N1 N 0.20810 -0.51330 0.65480
N2 N 0.06290 0.14650 0.58910
N3 N 0.08080 0.72460 -0.02170
O1 O 0.24860 -0.61160 0.61760
O2 O 0.18920 -0.56780 0.75050
O3 O 0.03190 0.03720 0.65060
O4 O 0.05900 0.36370 0.57150
O5 O 0.05330 0.90490 -0.02370
O6 O 0.10250 0.66620 -0.11060
O7 O 0.21510 -0.04340 0.19750
#END
