
#######################################################################
#
#                 Cambridge Crystallographic Data Centre
#                                CCDC
#
#######################################################################
#
# If this CIF has been generated from an entry in the Cambridge
# Structural Database, then it will include bibliographic, chemical,
# crystal, experimental, refinement or atomic coordinate data resulting
# from the CCDC's data processing and validation procedures.
#
#######################################################################

data_CSD_CIF_TNIOAN02
_audit_creation_date 2013-10-25
_audit_creation_method CSD-ConQuest-V1
_database_code_CSD TNIOAN02
_database_code_depnum_ccdc_archive 'CCDC 947036'
_chemical_formula_sum 'C6 H4 N4 O6'
_chemical_formula_moiety
;
C6 H4 N4 O6
;
_journal_coden_Cambridge 1350
_journal_volume 15
_journal_year 2013
_journal_page_first 10086
_journal_name_full 'CrystEngComm '
loop_
_publ_author_name
"I.V.Fedyanin"
"K.A.Lyssenko"
_chemical_name_systematic
;
2,4,6-Trinitroaniline
;
_chemical_name_common
;
Picramid
;
_cell_volume    827.873
_exptl_crystal_colour 'yellow'
_exptl_crystal_density_diffrn 1.83
_exptl_crystal_description 'rod'
_diffrn_ambient_temperature 100
_refine_special_details
;
IAM refinement

;
#These two values have been output from a single CSD field.
_refine_ls_R_factor_gt 0.0349
_refine_ls_wR_factor_gt 0.0349
_symmetry_cell_setting monoclinic
_symmetry_space_group_name_H-M 'P 21/c'
_symmetry_Int_Tables_number 14
loop_
_symmetry_equiv_pos_site_id
_symmetry_equiv_pos_as_xyz
1 x,y,z
2 -x,1/2+y,1/2-z
3 -x,-y,-z
4 x,-1/2-y,-1/2+z
_cell_length_a 5.9722(1)
_cell_length_b 9.1789(1)
_cell_length_c 15.2935(2)
_cell_angle_alpha 90
_cell_angle_beta 99.073(1)
_cell_angle_gamma 90
_cell_formula_units_Z 4
loop_
_atom_type_symbol
_atom_type_radius_bond
C 0.68
H 0.23
N 0.68
O 0.68
loop_
_atom_site_label
_atom_site_type_symbol
_atom_site_fract_x
_atom_site_fract_y
_atom_site_fract_z
O1 O 0.16397(7) 1.02691(5) 0.07510(3)
O2 O 0.30330(7) 1.03080(5) 0.21418(2)
O3 O 1.01546(6) 0.83032(4) 0.32433(2)
O4 O 1.18358(6) 0.68377(4) 0.24430(3)
O5 O 0.75903(6) 0.49990(4) -0.02599(3)
O6 O 0.55612(7) 0.65625(6) -0.11023(2)
N1 N 0.30243(6) 0.82700(4) -0.02651(2)
N2 N 0.30672(6) 0.98848(4) 0.13876(2)
N3 N 1.02442(6) 0.76294(4) 0.25558(2)
N4 N 0.65664(6) 0.61608(4) -0.03779(2)
C1 C 0.47143(6) 0.81110(4) 0.04098(2)
C2 C 0.48486(6) 0.88840(4) 0.12304(2)
C3 C 0.66208(6) 0.87255(4) 0.19252(2)
C4 C 0.83682(6) 0.77805(4) 0.18301(2)
C5 C 0.83246(6) 0.69320(4) 0.10752(2)
C6 C 0.65431(6) 0.71040(4) 0.03903(2)
H1 H 0.1925(19) 0.8854(12) -0.0217(7)
H2 H 0.2939(19) 0.7723(12) -0.0715(7)
H3 H 0.6625(16) 0.9246(11) 0.2442(6)
H4 H 0.9433(17) 0.6237(11) 0.1040(6)
#END
