
#######################################################################
#
#                 Cambridge Crystallographic Data Centre
#                                CCDC
#
#######################################################################
#
# If this CIF has been generated from an entry in the Cambridge
# Structural Database, then it will include bibliographic, chemical,
# crystal, experimental, refinement or atomic coordinate data resulting
# from the CCDC's data processing and validation procedures.
#
#######################################################################

data_CSD_CIF_TNIOAN
_audit_creation_date 1973-07-16
_audit_creation_method CSD-ConQuest-V1
_database_code_CSD TNIOAN
_chemical_formula_sum 'C6 H4 N4 O6'
_chemical_formula_moiety
;
C6 H4 N4 O6
;
_journal_coden_Cambridge 37
_journal_volume 76
_journal_year 1972
_journal_page_first 3597
_journal_name_full 'J.Phys.Chem. '
loop_
_publ_author_name
"J.R.Holden"
"C.Dickinson"
"C.M.Bock"
_chemical_name_systematic
;
2,4,6-Trinitroaniline
;
_chemical_name_common
;
Picramid
;
_cell_volume    854.426
_exptl_crystal_density_diffrn 1.773
_diffrn_ambient_temperature ?
_diffrn_special_details
;
The study was carried out at room temperature,in the range 283-303K

;
#These two values have been output from a single CSD field.
_refine_ls_R_factor_gt 0.084
_refine_ls_wR_factor_gt 0.084
_symmetry_cell_setting monoclinic
_symmetry_space_group_name_H-M 'P 21/c'
_symmetry_Int_Tables_number 14
loop_
_symmetry_equiv_pos_site_id
_symmetry_equiv_pos_as_xyz
1 x,y,z
2 -x,1/2+y,1/2-z
3 -x,-y,-z
4 x,-1/2-y,-1/2+z
_cell_length_a 6.137(3)
_cell_length_b 9.217(7)
_cell_length_c 15.323(7)
_cell_angle_alpha 90
_cell_angle_beta 99.67(2)
_cell_angle_gamma 90
_cell_formula_units_Z 4
loop_
_atom_type_symbol
_atom_type_radius_bond
C 0.68
H 0.20
N 0.68
O 0.68
loop_
_atom_site_label
_atom_site_type_symbol
_atom_site_fract_x
_atom_site_fract_y
_atom_site_fract_z
C1 C 0.53340 0.30910 0.45970
C2 C 0.35390 0.21110 0.46190
C3 C 0.17760 0.19460 0.39460
C4 C 0.17440 0.27720 0.31930
C5 C 0.34300 0.36990 0.30890
C6 C 0.51720 0.38490 0.37760
H1 H 0.81090 0.38620 0.51390
H2 H 0.70470 0.27340 0.57590
H3 H 0.05360 0.12660 0.40290
H4 H 0.34520 0.42710 0.25480
N1 N 0.70150 0.32510 0.52710
N2 N 0.35150 0.11890 0.54040
N3 N -0.01290 0.26140 0.24640
N4 N 0.69080 0.48470 0.36080
O1 O 0.46060 0.15610 0.61080
O2 O 0.24020 0.00930 0.53050
O3 O -0.16560 0.18250 0.25830
O4 O -0.00570 0.32860 0.17820
O5 O 0.68340 0.53340 0.28760
O6 O 0.84080 0.51480 0.42200
#END
