
#######################################################################
#
#                 Cambridge Crystallographic Data Centre
#                                CCDC
#
#######################################################################
#
# If this CIF has been generated from an entry in the Cambridge
# Structural Database, then it will include bibliographic, chemical,
# crystal, experimental, refinement or atomic coordinate data resulting
# from the CCDC's data processing and validation procedures.
#
#######################################################################

data_CSD_CIF_TNOXYL
_audit_creation_date 1972-07-27
_audit_creation_method CSD-ConQuest-V1
_database_code_CSD TNOXYL
_chemical_formula_sum 'C8 H7 N3 O6'
_chemical_formula_moiety
;
C8 H7 N3 O6
;
_journal_coeditor_code "IUCr A09040"
_journal_coden_Cambridge 107
_journal_volume 28
_journal_year 1972
_journal_page_first 1395
_journal_name_full 'Acta Crystallogr.,Sect.B:Struct.Crystallogr.Cryst.Chem. '
loop_
_publ_author_name
"J.H.Bryden"
_chemical_name_systematic
;
2,4,6-Trinitro-m-xylene
;
_chemical_melting_point 453.15
_cell_volume    980.242
_exptl_crystal_density_diffrn 1.634
_diffrn_ambient_temperature ?
_diffrn_special_details
;
The study was carried out at room temperature,in the range 283-303K

;
#These two values have been output from a single CSD field.
_refine_ls_R_factor_gt 0.071
_refine_ls_wR_factor_gt 0.071
_symmetry_cell_setting orthorhombic
_symmetry_space_group_name_H-M 'P b c n'
_symmetry_Int_Tables_number 60
loop_
_symmetry_equiv_pos_site_id
_symmetry_equiv_pos_as_xyz
1 x,y,z
2 1/2-x,1/2+y,z
3 x,-y,1/2+z
4 1/2-x,1/2-y,1/2+z
5 -x,-y,-z
6 -1/2+x,-1/2-y,-z
7 -x,y,-1/2-z
8 -1/2+x,-1/2+y,-1/2-z
_cell_length_a 5.742(11)
_cell_length_b 14.996(6)
_cell_length_c 11.384(6)
_cell_angle_alpha 90
_cell_angle_beta 90
_cell_angle_gamma 90
_cell_formula_units_Z 4
loop_
_atom_type_symbol
_atom_type_radius_bond
C 0.68
H 0.20
N 0.68
O 0.68
loop_
_atom_site_label
_atom_site_type_symbol
_atom_site_fract_x
_atom_site_fract_y
_atom_site_fract_z
C1 C 0.15630 0.14460 0.17490
C2 C 0.15180 0.23750 0.17920
C3 C 0.30380 0.09120 0.09260
C4 C 0.00000 0.28370 0.25000
C5 C 0.00000 0.10360 0.25000
H1 H 0.22300 0.04400 0.06100
H2 H 0.46700 0.08000 0.12300
H3 H 0.35000 0.11900 0.02300
H4 H 0.00000 0.33700 0.25000
N1 N 0.31930 0.29090 0.11070
N2 N 0.00000 0.00490 0.25000
O1 O 0.24980 0.36220 0.07280
O2 O 0.51660 0.26170 0.09790
O3 O -0.15900 -0.03230 0.19990
C2F C -0.15180 0.23750 0.32080
C1F C -0.15630 0.14460 0.32510
O3F O 0.15900 -0.03230 0.30010
N1F N -0.31930 0.29090 0.38930
C3F C -0.30380 0.09120 0.40740
O1F O -0.24980 0.36220 0.42720
O2F O -0.51660 0.26170 0.40210
H1F H -0.22300 0.04400 0.43900
H2F H -0.46700 0.08000 0.37700
H3F H -0.35000 0.11900 0.47700
#END
