
#######################################################################
#
#                 Cambridge Crystallographic Data Centre
#                                CCDC
#
#######################################################################
#
# If this CIF has been generated from an entry in the Cambridge
# Structural Database, then it will include bibliographic, chemical,
# crystal, experimental, refinement or atomic coordinate data resulting
# from the CCDC's data processing and validation procedures.
#
#######################################################################

data_CSD_CIF_TNPHMR10
_audit_creation_date 1971-12-31
_audit_creation_method CSD-ConQuest-V1
_database_code_CSD TNPHMR10
_database_code_depnum_ccdc_archive 'CCDC 1272855'
_chemical_formula_sum 'C19 H12 N3 O6'
_chemical_formula_moiety
;
C19 H12 N3 O6
;
_journal_coden_Cambridge 3
_journal_volume 21
_journal_year 1967
_journal_page_first 2599
_journal_name_full 'Acta Chem.Scand. '
loop_
_publ_author_name
"P.Andersen"
"B.Klewe"
_chemical_name_systematic
;
Tri-p-nitrophenylmethyl radical
;
_cell_volume   1668.420
_exptl_crystal_density_diffrn 1.505
_diffrn_ambient_temperature ?
_diffrn_special_details
;
The study was carried out at room temperature,in the range 283-303K

;
#These two values have been output from a single CSD field.
_refine_ls_R_factor_gt 0.111
_refine_ls_wR_factor_gt 0.111
_symmetry_cell_setting orthorhombic
_symmetry_space_group_name_H-M 'P b c n'
_symmetry_Int_Tables_number 60
loop_
_symmetry_equiv_pos_site_id
_symmetry_equiv_pos_as_xyz
1 x,y,z
2 1/2-x,1/2-y,1/2+z
3 1/2+x,1/2-y,-z
4 -x,y,1/2-z
5 -x,-y,-z
6 -1/2+x,-1/2+y,-1/2-z
7 -1/2-x,-1/2+y,z
8 x,-y,-1/2+z
_cell_length_a 7.8
_cell_length_b 11.5
_cell_length_c 18.6
_cell_angle_alpha 90
_cell_angle_beta 90
_cell_angle_gamma 90
_cell_formula_units_Z 4
loop_
_atom_type_symbol
_atom_type_radius_bond
C 0.68
H 0.20
N 0.68
O 0.68
loop_
_atom_site_label
_atom_site_type_symbol
_atom_site_fract_x
_atom_site_fract_y
_atom_site_fract_z
C1 C 0.00000 0.22910 0.25000
C2 C 0.00000 0.10020 0.25000
C3 C -0.05730 0.04080 0.31480
C4 C 0.05030 0.28930 0.31070
C5 C -0.17250 0.08690 0.36380
C6 C 0.05810 0.41130 0.31060
C7 C -0.22600 0.02620 0.42420
C8 C 0.00000 0.46830 0.25000
C9 C -0.15210 -0.07770 0.43770
C10 C -0.03840 -0.12960 0.39420
C11 C 0.01340 -0.07210 0.33160
H1 H 0.07800 0.24810 0.35930
H2 H -0.21140 0.17030 0.35870
H3 H 0.11230 0.45200 0.35700
H4 H -0.33270 0.05400 0.45680
H5 H -0.00500 -0.21850 0.40530
H6 H 0.12270 -0.09180 0.29850
N1 N 0.00000 0.60120 0.25000
N2 N -0.21810 -0.13730 0.50400
O1 O 0.09150 0.63980 0.29560
O2 O -0.30620 -0.08580 0.54400
O3 O -0.14810 -0.23070 0.51520
C4C C -0.05030 0.28930 0.18930
C3C C 0.05730 0.04080 0.18520
C6C C -0.05810 0.41130 0.18940
O1C O -0.09150 0.63980 0.20440
H1C H -0.07800 0.24810 0.14070
C5C C 0.17250 0.08690 0.13620
C11C C -0.01340 -0.07210 0.16840
H3C H -0.11230 0.45200 0.14300
C7C C 0.22600 0.02620 0.07580
H2C H 0.21140 0.17030 0.14130
C10C C 0.03840 -0.12960 0.10580
H6C H -0.12270 -0.09180 0.20150
C9C C 0.15210 -0.07770 0.06230
H4C H 0.33270 0.05400 0.04320
H5C H 0.00500 -0.21850 0.09470
N2C N 0.21810 -0.13730 -0.00400
O2C O 0.30620 -0.08580 -0.04400
O3C O 0.14810 -0.23070 -0.01520
#END
