
#######################################################################
#
#                 Cambridge Crystallographic Data Centre
#                                CCDC
#
#######################################################################
#
# If this CIF has been generated from an entry in the Cambridge
# Structural Database, then it will include bibliographic, chemical,
# crystal, experimental, refinement or atomic coordinate data resulting
# from the CCDC's data processing and validation procedures.
#
#######################################################################

data_CSD_CIF_TNSOME
_audit_creation_date 1971-12-31
_audit_creation_method CSD-ConQuest-V1
_database_code_CSD TNSOME
_database_code_depnum_ccdc_archive 'CCDC 1272861'
_chemical_formula_sum 'C2 H6 N2 O2'
_chemical_formula_moiety
;
C2 H6 N2 O2
;
_journal_coden_Cambridge 54
_journal_volume 68
_journal_year 1959
_journal_page_first 244
_journal_name_full 'Bull.Soc.Chim.Belg. '
loop_
_publ_author_name
"M.van Meerssche"
"G.Germain"
_chemical_name_systematic
;
trans-Nitrosomethane dimer
;
_cell_volume    426.391
_exptl_crystal_density_diffrn 1.4
_diffrn_ambient_temperature ?
_diffrn_special_details
;
The study was carried out at room temperature,in the range 283-303K

;
_refine_special_details
;
Central N-N bond is disordered due to imposed mirror symmetry.

;
#These two values have been output from a single CSD field.
_refine_ls_R_factor_gt 0.11
_refine_ls_wR_factor_gt 0.11
loop_
_citation_database_id_CSD
_citation_special_details
NSOMET "is a stereoisomer of this entry"
_symmetry_cell_setting orthorhombic
_symmetry_space_group_name_H-M 'C m c m'
_symmetry_Int_Tables_number 63
loop_
_symmetry_equiv_pos_site_id
_symmetry_equiv_pos_as_xyz
1 x,y,z
2 1/2+x,1/2+y,z
3 -x,-y,1/2+z
4 1/2-x,1/2-y,1/2+z
5 x,-y,-z
6 1/2+x,1/2-y,-z
7 -x,y,1/2-z
8 1/2-x,1/2+y,1/2-z
9 -x,-y,-z
10 -1/2-x,-1/2-y,-z
11 x,y,-1/2-z
12 -1/2+x,-1/2+y,-1/2-z
13 -x,y,z
14 -1/2-x,-1/2+y,z
15 x,-y,-1/2+z
16 -1/2+x,-1/2-y,-1/2+z
_cell_length_a 7.25(1)
_cell_length_b 9.38(1)
_cell_length_c 6.27(1)
_cell_angle_alpha 90
_cell_angle_beta 90
_cell_angle_gamma 90
_cell_formula_units_Z 4
loop_
_atom_type_symbol
_atom_type_radius_bond
C 0.68
O 0.68
loop_
_atom_site_label
_atom_site_type_symbol
_atom_site_fract_x
_atom_site_fract_y
_atom_site_fract_z
C1 C 0.24300 0.61700 0.25000
O1 O 0.50000 0.43700 0.25000
O2 O 0.50000 0.79700 0.25000
#END
