
#######################################################################
#
#                 Cambridge Crystallographic Data Centre
#                                CCDC
#
#######################################################################
#
# If this CIF has been generated from an entry in the Cambridge
# Structural Database, then it will include bibliographic, chemical,
# crystal, experimental, refinement or atomic coordinate data resulting
# from the CCDC's data processing and validation procedures.
#
#######################################################################

data_CSD_CIF_TOCGEX
_audit_creation_date 1997-04-16
_audit_creation_method CSD-ConQuest-V1
_database_code_CSD TOCGEX
_chemical_formula_sum 'C18 H20 N2 O2'
_chemical_formula_moiety
;
C18 H20 N2 O2
;
_journal_coden_Cambridge 35
_journal_volume 61
_journal_year 1996
_journal_page_first 9028
_journal_name_full 'J.Org.Chem. '
loop_
_publ_author_name
"P.Merino"
"A.Lanaspa"
"F.L.Merchan"
"T.Tejero"
_chemical_name_systematic
;
anti-N-Benzyl-2-O-benzyl-1-cyano-1,3-dideoxy-1-(hydroxyamino)-L-erythro-tri-it
ol
;
_chemical_melting_point 368
_cell_volume   3268.050
_exptl_crystal_colour 'colorless'
_exptl_crystal_density_diffrn 1.205
_diffrn_ambient_temperature 173
#These two values have been output from a single CSD field.
_refine_ls_R_factor_gt 0.068
_refine_ls_wR_factor_gt 0.068
_symmetry_cell_setting monoclinic
_symmetry_space_group_name_H-M 'C c'
_symmetry_Int_Tables_number 9
loop_
_symmetry_equiv_pos_site_id
_symmetry_equiv_pos_as_xyz
1 x,y,z
2 x,-y,1/2+z
3 1/2+x,1/2+y,z
4 1/2+x,1/2-y,1/2+z
_cell_length_a 28.188(5)
_cell_length_b 9.578(5)
_cell_length_c 12.375(5)
_cell_angle_alpha 90
_cell_angle_beta 102.000(5)
_cell_angle_gamma 90
_cell_formula_units_Z 8
loop_
_atom_type_symbol
_atom_type_radius_bond
C 0.68
H 0.23
N 0.68
O 0.68
loop_
_atom_site_label
_atom_site_type_symbol
_atom_site_fract_x
_atom_site_fract_y
_atom_site_fract_z
O1 O 0.0204(2) -0.0241(4) 0.4843(4)
H1 H 0.0133(27) -0.0492(4) 0.4179(4)
O2 O -0.1005(2) 0.1662(5) 0.5501(4)
N1 N 0.0212(2) 0.1254(5) 0.4902(5)
N2 N 0.0026(2) 0.0627(7) 0.7523(5)
C1 C -0.0156(2) 0.1643(7) 0.5508(5)
H2 H -0.0151(2) 0.2684(7) 0.5574(5)
C2 C -0.0665(2) 0.1214(7) 0.4859(5)
H3 H -0.0679(2) 0.0172(7) 0.4802(5)
C3 C 0.0709(2) 0.1686(7) 0.5455(6)
H4 H 0.0804(2) 0.1215(7) 0.6180(6)
H5 H 0.0720(2) 0.2708(7) 0.5580(6)
C4 C 0.1051(2) 0.1281(7) 0.4715(6)
C5 C 0.1322(2) 0.0065(8) 0.4879(6)
H6 H 0.1310(2) -0.0509(8) 0.5499(6)
C6 C 0.1614(3) -0.0329(9) 0.4134(7)
H7 H 0.1796(3) -0.1170(9) 0.4247(7)
C7 C -0.0770(3) 0.1813(9) 0.3718(7)
H8 H -0.1094(3) 0.1522(9) 0.3331(7)
H9 H -0.0528(3) 0.1475(9) 0.3314(7)
H10 H -0.0756(3) 0.2834(9) 0.3762(7)
C8 C 0.1634(3) 0.0510(8) 0.3238(6)
H11 H 0.1828(3) 0.0245(8) 0.2728(6)
C9 C -0.0064(2) 0.1050(8) 0.6662(6)
C10 C 0.1375(3) 0.1727(9) 0.3088(6)
H12 H 0.1395(3) 0.2308(9) 0.2477(6)
C11 C 0.1085(2) 0.2129(8) 0.3795(6)
H13 H 0.0907(2) 0.2977(8) 0.3670(6)
C12 C -0.1433(3) 0.0856(10) 0.5275(9)
H14 H -0.1352(3) -0.0144(10) 0.5404(9)
H15 H -0.1597(3) 0.0973(10) 0.4491(9)
C13 C -0.2415(3) 0.2126(11) 0.7306(7)
H16 H -0.2637(3) 0.2389(11) 0.7752(7)
C14 C -0.2323(3) 0.2995(9) 0.6491(8)
H17 H -0.2478(3) 0.3879(9) 0.6376(8)
C15 C -0.1768(2) 0.1315(8) 0.6012(7)
C16 C -0.2003(3) 0.2576(9) 0.5831(7)
H18 H -0.1947(3) 0.3167(9) 0.5253(7)
C17 C -0.1863(3) 0.0472(9) 0.6855(7)
H19 H -0.1703(3) -0.0401(9) 0.7005(7)
C18 C -0.2181(3) 0.0890(11) 0.7459(7)
H20 H -0.2244(3) 0.0287(11) 0.8022(7)
O3 O 0.0092(2) 0.4747(4) 0.4709(4)
H21 H 0.0077(26) 0.4494(7) 0.4052(11)
O4 O -0.1093(2) 0.6922(5) 0.5309(4)
N3 N 0.0127(2) 0.6262(5) 0.4779(4)
N4 N -0.0124(2) 0.5628(7) 0.7338(5)
C19 C 0.0995(2) 0.6241(7) 0.4730(5)
C20 C 0.0899(2) 0.6391(7) 0.3595(6)
H22 H 0.0588(2) 0.6689(7) 0.3213(6)
C21 C 0.1259(3) 0.6104(8) 0.3017(6)
H23 H 0.1189(3) 0.6203(8) 0.2236(6)
C22 C -0.0253(2) 0.6729(7) 0.5357(5)
H24 H -0.0227(2) 0.7766(7) 0.5444(5)
C23 C 0.0619(2) 0.6580(8) 0.5394(6)
H25 H 0.0686(2) 0.6034(8) 0.6089(6)
H26 H 0.0640(2) 0.7583(8) 0.5591(6)
C24 C 0.1715(3) 0.5680(8) 0.3541(7)
H27 H 0.1958(3) 0.5485(8) 0.3134(7)
C25 C 0.1460(2) 0.5806(7) 0.5276(6)
H28 H 0.1532(2) 0.5695(7) 0.6056(6)
C26 C 0.1809(2) 0.5544(8) 0.4682(7)
H29 H 0.2124(2) 0.5263(8) 0.5060(7)
C27 C -0.0762(2) 0.6394(8) 0.4680(6)
H30 H -0.0802(2) 0.5359(8) 0.4595(6)
C28 C -0.0850(3) 0.7082(8) 0.3536(6)
H31 H -0.1177(3) 0.6848(8) 0.3127(6)
H32 H -0.0610(3) 0.6741(8) 0.3129(6)
H33 H -0.0820(3) 0.8098(8) 0.3622(6)
C29 C -0.0191(2) 0.6109(8) 0.6472(6)
C30 C -0.1572(4) 0.6365(15) 0.4947(9)
H34 H -0.1554(4) 0.5361(15) 0.4771(9)
H35 H -0.1740(4) 0.6858(15) 0.4273(9)
C31 C -0.1671(4) 0.6300(12) 0.6871(11)
H36 H -0.1344(4) 0.5995(12) 0.7074(11)
C32 C -0.2373(3) 0.6857(10) 0.7439(8)
H37 H -0.2526(3) 0.6926(10) 0.8052(8)
C33 C -0.2624(3) 0.7187(10) 0.6420(9)
H38 H -0.2953(3) 0.7484(10) 0.6286(9)
C34 C -0.1916(4) 0.6440(11) 0.7596(10)
H39 H -0.1759(4) 0.6225(11) 0.8334(10)
C35 C -0.1852(3) 0.656(1) 0.587(1)
C36 C -0.2349(6) 0.7053(11) 0.5517(8)
H40 H -0.2487(6) 0.7273(11) 0.4769(8)
#END
