
#######################################################################
#
#                 Cambridge Crystallographic Data Centre
#                                CCDC
#
#######################################################################
#
# If this CIF has been generated from an entry in the Cambridge
# Structural Database, then it will include bibliographic, chemical,
# crystal, experimental, refinement or atomic coordinate data resulting
# from the CCDC's data processing and validation procedures.
#
#######################################################################

data_CSD_CIF_TOCGAT
_audit_creation_date 1997-04-16
_audit_creation_method CSD-ConQuest-V1
_database_code_CSD TOCGAT
_chemical_formula_sum 'C14 H18 N2 O3'
_chemical_formula_moiety
;
C14 H18 N2 O3
;
_journal_coden_Cambridge 35
_journal_volume 61
_journal_year 1996
_journal_page_first 9028
_journal_name_full 'J.Org.Chem. '
loop_
_publ_author_name
"P.Merino"
"A.Lanaspa"
"F.L.Merchan"
"T.Tejero"
_chemical_name_systematic
;
anti-N-Benzyl-1-cyano-1-deoxy-1-(hydroxyamino)-2,3-O-isopropylidene-D-erythro-
tri-itol
;
_chemical_melting_point 412
_cell_volume    739.759
_exptl_crystal_colour 'colorless'
_exptl_crystal_density_diffrn 1.178
_diffrn_ambient_temperature 173
#These two values have been output from a single CSD field.
_refine_ls_R_factor_gt 0.0902
_refine_ls_wR_factor_gt 0.0902
_symmetry_cell_setting monoclinic
_symmetry_space_group_name_H-M 'P 21'
_symmetry_Int_Tables_number 4
loop_
_symmetry_equiv_pos_site_id
_symmetry_equiv_pos_as_xyz
1 x,y,z
2 -x,1/2+y,-z
_cell_length_a 5.924(1)
_cell_length_b 5.054(1)
_cell_length_c 24.730(5)
_cell_angle_alpha 90
_cell_angle_beta 92.41(3)
_cell_angle_gamma 90
_cell_formula_units_Z 2
loop_
_atom_type_symbol
_atom_type_radius_bond
C 0.68
H 0.23
N 0.68
O 0.68
loop_
_atom_site_label
_atom_site_type_symbol
_atom_site_fract_x
_atom_site_fract_y
_atom_site_fract_z
N1 N 0.1152(18) 0.0612(24) 0.7221(5)
O1 O 0.0753(15) 0.3513(19) 0.7202(4)
H1 H -0.013(21) 0.3877(39) 0.6938(36)
O2 O 0.0967(16) -0.3177(24) 0.8680(4)
C1 C 0.1728(23) 0.0681(29) 0.8197(5)
H2 H 0.1127(23) 0.2528(29) 0.8212(5)
O3 O 0.3357(15) 0.0231(21) 0.8640(4)
C2 C 0.2770(21) 0.0207(34) 0.7670(5)
H3 H 0.3267(21) -0.1683(34) 0.7662(5)
C3 C 0.0170(24) 0.0086(32) 0.6241(6)
C4 C 0.1998(23) -0.0008(37) 0.6692(6)
H4 H 0.2675(23) -0.1799(37) 0.6704(6)
H5 H 0.3204(23) 0.1266(37) 0.6609(6)
C5 C -0.0144(27) -0.1335(33) 0.8336(6)
H6 H -0.1386(27) -0.0450(33) 0.8521(6)
H7 H -0.0771(27) -0.2209(33) 0.8004(6)
C6 C 0.0221(24) 0.1951(36) 0.5837(6)
H8 H 0.1401(24) 0.3224(36) 0.5842(6)
C7 C -0.3400(23) -0.1444(38) 0.5843(6)
H9 H -0.4687(23) -0.2561(38) 0.5857(6)
C8 C 0.4814(25) 0.1898(35) 0.7622(6)
C9 C 0.2579(31) -0.1673(36) 0.9013(7)
C10 C -0.3311(24) 0.0298(37) 0.5422(6)
H10 H -0.4473(24) 0.0340(37) 0.5145(6)
C11 C -0.1479(28) 0.1999(40) 0.5409(7)
H11 H -0.1353(28) 0.3198(40) 0.5116(7)
N2 N 0.6306(20) 0.3378(34) 0.7568(6)
C12 C -0.1754(26) -0.1688(38) 0.6249(6)
H12 H -0.1873(26) -0.2977(38) 0.6526(6)
C13 C 0.4505(31) -0.3445(41) 0.9176(9)
H13 H 0.3997(31) -0.4771(41) 0.9433(9)
H14 H 0.5727(31) -0.2392(41) 0.9346(9)
H15 H 0.5055(31) -0.4335(41) 0.8855(9)
C14 C 0.1543(33) -0.0378(49) 0.9468(7)
H16 H 0.1019(33) -0.1721(49) 0.9720(7)
H17 H 0.0257(33) 0.0692(49) 0.9335(7)
H18 H 0.2659(33) 0.0766(49) 0.9656(7)
#END
