
#######################################################################
#
#                 Cambridge Crystallographic Data Centre
#                                CCDC
#
#######################################################################
#
# If this CIF has been generated from an entry in the Cambridge
# Structural Database, then it will include bibliographic, chemical,
# crystal, experimental, refinement or atomic coordinate data resulting
# from the CCDC's data processing and validation procedures.
#
#######################################################################

data_CSD_CIF_TOCMUV
_audit_creation_date 2014-02-20
_audit_creation_method CSD-ConQuest-V1
_database_code_CSD TOCMUV
_database_code_depnum_ccdc_archive 'CCDC 981058'
_chemical_formula_sum 'C17 H19 N1 O4'
_chemical_formula_moiety
;
C17 H19 N1 O4
;
_journal_coden_Cambridge 179
_journal_volume 53
_journal_year 2014
_journal_page_first 8714
_journal_name_full 'Angew.Chem.,Int.Ed. '
loop_
_publ_author_name
"B.Maji"
"H.Yamamoto"
_chemical_name_systematic
;
Benzyl hydroxy(1-hydroxy-3-phenylpropan-2-yl)carbamate
;
_cell_volume   1486.618
_exptl_crystal_colour 'colorless'
_exptl_crystal_density_diffrn 1.346
_exptl_crystal_description 'prism'
_exptl_crystal_preparation 'Ethyl acetate/hexane'
_diffrn_ambient_temperature 173
#These two values have been output from a single CSD field.
_refine_ls_R_factor_gt 0.1377
_refine_ls_wR_factor_gt 0.1377
_symmetry_cell_setting orthorhombic
_symmetry_space_group_name_H-M 'P 21 21 21'
_symmetry_Int_Tables_number 19
loop_
_symmetry_equiv_pos_site_id
_symmetry_equiv_pos_as_xyz
1 x,y,z
2 1/2+x,1/2-y,-z
3 -x,1/2+y,1/2-z
4 1/2-x,-y,1/2+z
_cell_length_a 6.477(5)
_cell_length_b 8.292(7)
_cell_length_c 27.68(3)
_cell_angle_alpha 90
_cell_angle_beta 90
_cell_angle_gamma 90
_cell_formula_units_Z 4
loop_
_atom_type_symbol
_atom_type_radius_bond
C 0.68
H 0.23
N 0.68
O 0.68
loop_
_atom_site_label
_atom_site_type_symbol
_atom_site_fract_x
_atom_site_fract_y
_atom_site_fract_z
O1 O 0.7834(11) 0.5478(7) 0.53220(19)
O2 O 0.6203(10) 0.2759(6) 0.56311(19)
O3 O 0.1022(10) 0.3563(6) 0.52119(16)
O4 O 0.5086(10) 0.6863(6) 0.56174(17)
N1 N 0.5085(12) 0.4173(7) 0.5642(2)
C1 C 0.7770(15) 0.8755(8) 0.5893(3)
C2 C 0.4934(16) 0.454(1) 0.6713(3)
C3 C 0.6135(13) 0.5505(8) 0.5516(3)
C4 C 0.1614(17) 0.2929(10) 0.5656(3)
C5 C 0.8578(16) 0.9870(9) 0.6661(3)
C6 C 0.6148(16) 0.8345(9) 0.5502(3)
C7 C 0.9829(15) 0.8292(10) 0.5841(4)
C8 C 0.3202(13) 0.4087(8) 0.5909(3)
C9 C 0.7166(15) 0.9557(9) 0.6311(3)
C10 C 1.0588(17) 0.9452(10) 0.6617(4)
C11 C 0.4038(19) 0.5908(11) 0.6954(3)
C12 C 0.3543(15) 0.3452(11) 0.6419(3)
C13 C 1.1204(12) 0.8681(11) 0.6204(3)
C14 C 0.7030(16) 0.4216(13) 0.6751(4)
C15 C 0.7468(18) 0.6424(13) 0.7283(4)
C16 C 0.540(2) 0.6791(12) 0.7237(3)
C17 C 0.8271(17) 0.5203(12) 0.7050(4)
H1 H 0.63250 0.24530 0.53510
H2 H -0.02080 0.37980 0.52200
H3 H 0.22380 0.18780 0.56090
H4 H 0.04080 0.27960 0.58600
H5 H 0.81470 1.03890 0.69420
H6 H 0.51550 0.92170 0.54780
H7 H 0.68270 0.82370 0.51910
H8 H 1.02660 0.77340 0.55680
H9 H 0.25990 0.51690 0.59290
H10 H 0.58000 0.98790 0.63500
H11 H 1.15280 0.96840 0.68620
H12 H 0.26520 0.61810 0.69230
H13 H 0.22200 0.33530 0.65800
H14 H 0.41540 0.23850 0.64010
H15 H 1.25890 0.84120 0.61680
H16 H 0.76120 0.33610 0.65810
H17 H 0.83010 0.70510 0.74820
H18 H 0.48960 0.76780 0.74050
H19 H 0.96710 0.49810 0.70820
#END
