
#######################################################################
#
#                 Cambridge Crystallographic Data Centre
#                                CCDC
#
#######################################################################
#
# If this CIF has been generated from an entry in the Cambridge
# Structural Database, then it will include bibliographic, chemical,
# crystal, experimental, refinement or atomic coordinate data resulting
# from the CCDC's data processing and validation procedures.
#
#######################################################################

data_CSD_CIF_TOCSUB
_audit_creation_date 2014-02-21
_audit_creation_method CSD-ConQuest-V1
_database_code_CSD TOCSUB
_database_code_depnum_ccdc_archive 'CCDC 961676'
_chemical_formula_sum 'C19 H21 N1 O1'
_chemical_formula_moiety
;
C19 H21 N1 O1
;
_journal_coden_Cambridge 179
_journal_volume 53
_journal_year 2014
_journal_page_first 1959
_journal_name_full 'Angew.Chem.,Int.Ed. '
loop_
_publ_author_name
"X.Peng"
"B.M.K.Tong"
"H.Hirao"
"S.Chiba"
_chemical_name_systematic
;
N-Hydroxy-2,2-dimethyl-1,5-diphenylpent-4-en-1-imine
;
_cell_volume   1575.625
_exptl_crystal_colour 'colorless'
_exptl_crystal_density_diffrn 1.178
_exptl_crystal_description 'plate'
_diffrn_ambient_temperature 103
#These two values have been output from a single CSD field.
_refine_ls_R_factor_gt 0.0464
_refine_ls_wR_factor_gt 0.0464
_symmetry_cell_setting monoclinic
_symmetry_space_group_name_H-M 'P 21/n'
_symmetry_Int_Tables_number 14
loop_
_symmetry_equiv_pos_site_id
_symmetry_equiv_pos_as_xyz
1 x,y,z
2 1/2-x,1/2+y,1/2-z
3 -x,-y,-z
4 -1/2+x,-1/2-y,-1/2+z
_cell_length_a 6.5980(5)
_cell_length_b 7.5341(8)
_cell_length_c 31.790(3)
_cell_angle_alpha 90
_cell_angle_beta 94.399(3)
_cell_angle_gamma 90
_cell_formula_units_Z 4
loop_
_atom_type_symbol
_atom_type_radius_bond
C 0.68
H 0.23
N 0.68
O 0.68
loop_
_atom_site_label
_atom_site_type_symbol
_atom_site_fract_x
_atom_site_fract_y
_atom_site_fract_z
C1 C 0.8083(2) 0.6010(2) 0.87977(5)
H1 H 0.67120 0.57890 0.86980
C2 C 0.9271(3) 0.7121(2) 0.85732(5)
H2 H 0.87180 0.76490 0.83180
C3 C 1.1266(3) 0.7468(2) 0.87185(5)
H3 H 1.20820 0.82250 0.85620
C4 C 1.2065(3) 0.6711(2) 0.90907(6)
H4 H 1.34260 0.69590 0.91920
C5 C 1.0881(2) 0.5587(2) 0.93160(5)
H5 H 1.14390 0.50690 0.95720
C6 C 0.8879(2) 0.5212(2) 0.91699(5)
C7 C 0.7618(2) 0.3961(2) 0.94048(4)
C8 C 0.7782(2) 0.1963(2) 0.93345(5)
C9 C 0.6280(2) 0.0920(2) 0.95824(5)
H6 H 0.65860 0.11220 0.98850
H7 H 0.64000 -0.03490 0.95210
H8 H 0.48920 0.13190 0.95000
C10 C 0.9964(2) 0.1368(2) 0.94794(5)
H9 H 1.09280 0.19320 0.93010
H10 H 1.00660 0.00750 0.94550
H11 H 1.02820 0.17200 0.97740
C11 C 0.7440(2) 0.1560(2) 0.88606(5)
H12 H 0.84550 0.22380 0.87120
H13 H 0.77170 0.02830 0.88180
C12 C 0.5372(2) 0.1969(2) 0.86539(5)
H14 H 0.45880 0.28700 0.87730
C13 C 0.4585(2) 0.1133(2) 0.83119(5)
H15 H 0.53910 0.02050 0.82100
C14 C 0.2632(2) 0.1452(2) 0.80700(5)
C15 C 0.1344(2) 0.2855(2) 0.81523(5)
H16 H 0.17350 0.36760 0.83710
C16 C -0.0498(2) 0.3066(2) 0.79198(5)
H17 H -0.13640 0.40230 0.79820
C17 C -0.1098(3) 0.1896(2) 0.75967(5)
H18 H -0.23740 0.20390 0.74410
C18 C 0.0182(3) 0.0520(3) 0.75048(5)
H19 H -0.01990 -0.02720 0.72800
C19 C 0.2020(3) 0.0295(2) 0.77397(5)
H20 H 0.28820 -0.06620 0.76750
N1 N 0.64053(18) 0.44770(17) 0.96772(4)
O1 O 0.64260(16) 0.63341(14) 0.97374(3)
H21 H 0.56330 0.66030 0.99220
#END
