
#######################################################################
#
#                 Cambridge Crystallographic Data Centre
#                                CCDC
#
#######################################################################
#
# If this CIF has been generated from an entry in the Cambridge
# Structural Database, then it will include bibliographic, chemical,
# crystal, experimental, refinement or atomic coordinate data resulting
# from the CCDC's data processing and validation procedures.
#
#######################################################################

data_CSD_CIF_TOCTAI
_audit_creation_date 2014-02-21
_audit_creation_method CSD-ConQuest-V1
_database_code_CSD TOCTAI
_database_code_depnum_ccdc_archive 'CCDC 961674'
_chemical_formula_sum 'C17 H17 N1 O1'
_chemical_formula_moiety
;
C17 H17 N1 O1
;
_journal_coden_Cambridge 179
_journal_volume 53
_journal_year 2014
_journal_page_first 1959
_journal_name_full 'Angew.Chem.,Int.Ed. '
loop_
_publ_author_name
"X.Peng"
"B.M.K.Tong"
"H.Hirao"
"S.Chiba"
_chemical_name_systematic
;
N-Hydroxy-1,5-diphenylpent-4-en-1-imine
;
_cell_volume   2724.244
_exptl_crystal_colour 'colorless'
_exptl_crystal_density_diffrn 1.225
_exptl_crystal_description 'block'
_diffrn_ambient_temperature 103
_refine_special_details
;
C52,C53,C54,C55,C56,C57,C58,C59,C60,C61,C62,C63,C64, C65,C66,C67,C68,N4,O4 
and C52A,C53A,C54A,C55A,C56A,C57A,C58A,C59A,C60A, 
C61A,C62A,C63A,C64A,C65A,C66A,C67A,C68A,N4A,O4A and C52B,C53B,C54B,C55B, 
C56B,C57B,C58B,C59B,C60B,C61B,C62B,C63B,C64B,C65B,C66B,C67B,C68B,N4B, O4B 
disordered over three sites with occupancies 0.432:0.389:0.179.
;
#These two values have been output from a single CSD field.
_refine_ls_R_factor_gt 0.0416
_refine_ls_wR_factor_gt 0.0416
_symmetry_cell_setting triclinic
_symmetry_space_group_name_H-M 'P -1'
_symmetry_Int_Tables_number 2
loop_
_symmetry_equiv_pos_site_id
_symmetry_equiv_pos_as_xyz
1 x,y,z
2 -x,-y,-z
_cell_length_a 12.0544(4)
_cell_length_b 14.3292(4)
_cell_length_c 17.2828(6)
_cell_angle_alpha 94.1786(12)
_cell_angle_beta 92.9499(11)
_cell_angle_gamma 113.2877(9)
_cell_formula_units_Z 8
loop_
_atom_type_symbol
_atom_type_radius_bond
C 0.68
H 0.23
N 0.68
O 0.68
loop_
_atom_site_label
_atom_site_type_symbol
_atom_site_fract_x
_atom_site_fract_y
_atom_site_fract_z
C1 C 0.80313(14) -0.02321(12) -0.02204(9)
H1 H 0.86130 0.04120 -0.03250
C2 C 0.77319(16) -0.10738(13) -0.07641(10)
H2 H 0.81070 -0.10000 -0.12390
C3 C 0.68905(16) -0.20205(12) -0.0620(1)
H3 H 0.66960 -0.25970 -0.09910
C4 C 0.63348(15) -0.21193(12) 0.00691(9)
H4 H 0.57520 -0.27660 0.01700
C5 C 0.66240(14) -0.12818(11) 0.06116(9)
H5 H 0.62330 -0.13570 0.10810
C6 C 0.74856(14) -0.03237(11) 0.04781(9)
C7 C 0.78262(13) 0.05637(11) 0.10755(9)
C8 C 0.84336(13) 0.16431(11) 0.08709(9)
H6 H 0.81010 0.20790 0.11630
H7 H 0.82530 0.16600 0.03080
C9 C 0.98151(14) 0.20745(11) 0.10625(9)
H8 H 0.99960 0.20860 0.16290
H9 H 1.01420 0.16200 0.07890
C10 C 1.04318(14) 0.31313(11) 0.08273(9)
H10 H 1.02420 0.36570 0.10760
C11 C 1.12247(13) 0.33813(11) 0.02951(9)
H11 H 1.14050 0.28440 0.00590
C12 C 1.18575(13) 0.43961(11) 0.00285(8)
C13 C 1.15808(14) 0.52301(11) 0.02549(9)
H12 H 1.09580 0.51490 0.05920
C14 C 1.22027(15) 0.61712(12) -0.00057(10)
H13 H 1.20070 0.67320 0.01560
C15 C 1.31099(15) 0.63045(12) -0.05005(10)
H14 H 1.35330 0.69530 -0.06790
C16 C 1.33951(15) 0.54898(12) -0.07329(10)
H15 H 1.40160 0.55750 -0.10730
C17 C 1.27720(14) 0.45446(11) -0.04687(9)
H16 H 1.29740 0.39880 -0.06310
N1 N 0.76123(12) 0.03373(9) 0.17710(7)
O1 O 0.79687(11) 0.11996(7) 0.23154(6)
H17 H 0.78400 0.10130 0.27640
C18 C -0.01517(14) -0.03896(12) 0.21253(9)
H18 H -0.00450 0.02540 0.19550
C19 C -0.05417(15) -0.12438(13) 0.15899(10)
H19 H -0.07100 -0.11840 0.10570
C20 C -0.06888(16) -0.21869(13) 0.18243(10)
H20 H -0.09560 -0.27730 0.14550
C21 C -0.04418(17) -0.22661(12) 0.26014(10)
H21 H -0.05400 -0.29100 0.27670
C22 C -0.00542(15) -0.14161(11) 0.31377(9)
H22 H 0.01190 -0.14810 0.36690
C23 C 0.00878(13) -0.04604(11) 0.29123(9)
C24 C 0.04888(13) 0.04453(11) 0.34985(9)
C25 C 0.10439(14) 0.15090(11) 0.32592(9)
H23 H 0.10390 0.19990 0.36920
H24 H 0.05450 0.15640 0.28060
C26 C 0.23471(14) 0.17959(11) 0.30456(9)
H25 H 0.28720 0.18450 0.35200
H26 H 0.23720 0.12490 0.26710
C27 C 0.28345(14) 0.27881(11) 0.26941(9)
H27 H 0.23650 0.28690 0.22660
C28 C 0.38729(14) 0.35613(11) 0.29371(9)
H28 H 0.42990 0.34800 0.33880
C29 C 0.44473(14) 0.45311(11) 0.25944(9)
C30 C 0.39210(15) 0.47881(12) 0.19503(10)
H29 H 0.31440 0.43290 0.17220
C31 C 0.45163(17) 0.57035(12) 0.16399(11)
H30 H 0.41480 0.58650 0.11990
C32 C 0.56459(17) 0.63847(12) 0.19701(10)
H31 H 0.60520 0.70130 0.17580
C33 C 0.61753(15) 0.61448(12) 0.26075(10)
H32 H 0.69460 0.66120 0.28400
C34 C 0.55878(15) 0.52232(11) 0.29120(9)
H33 H 0.59700 0.50610 0.33450
N2 N 0.03456(11) 0.02447(9) 0.42058(7)
O2 O 0.08085(10) 0.11129(7) 0.47499(6)
H34 H 0.06170 0.09420 0.51950
C35 C 0.70647(14) 1.04148(13) 0.53965(9)
H35 H 0.65250 0.97720 0.55350
C36 C 0.73923(15) 1.12813(14) 0.59208(10)
H36 H 0.70770 1.12250 0.64160
C37 C 0.81718(15) 1.22234(13) 0.57297(10)
H37 H 0.83850 1.28150 0.60880
C38 C 0.86383(14) 1.22963(12) 0.50116(9)
H38 H 0.91790 1.29410 0.48770
C39 C 0.83230(13) 1.14389(11) 0.44891(9)
H39 H 0.86550 1.14990 0.39990
C40 C 0.75210(13) 1.04815(11) 0.46701(9)
C41 C 0.71504(13) 0.95716(11) 0.40906(9)
C42 C 0.65975(14) 0.84990(11) 0.43183(9)
H40 H 0.68020 0.85060 0.48810
H41 H 0.69450 0.80720 0.40290
C43 C 0.52105(14) 0.80287(11) 0.41443(9)
H42 H 0.48650 0.84460 0.44490
H43 H 0.50100 0.80510 0.35850
C44 C 0.46372(14) 0.69498(11) 0.43365(9)
H44 H 0.49120 0.64700 0.41010
C45 C 0.37695(13) 0.66205(11) 0.48151(8)
H45 H 0.35300 0.71220 0.50530
C46 C 0.31314(13) 0.55764(11) 0.50244(8)
C47 C 0.34209(14) 0.47608(11) 0.47607(9)
H46 H 0.40620 0.48760 0.44340
C48 C 0.27867(14) 0.37901(11) 0.49693(9)
H47 H 0.29920 0.32440 0.47810
C49 C 0.18543(15) 0.36064(11) 0.54512(9)
H48 H 0.14260 0.29390 0.55970
C50 C 0.15522(14) 0.44010(11) 0.57186(9)
H49 H 0.09140 0.42820 0.60490
C51 C 0.21830(14) 0.53734(11) 0.55030(9)
H50 H 0.19640 0.59130 0.56860
N3 N 0.72971(12) 0.97694(9) 0.33824(7)
O3 O 0.69376(11) 0.88924(8) 0.28512(6)
H51 H 0.70620 0.90650 0.23990
C52 C 0.4876(12) 1.0472(11) 0.2828(8)
H52 H 0.45550 0.98180 0.30150
C53 C 0.5458(14) 1.1339(11) 0.3353(8)
H53 H 0.55820 1.12720 0.38890
C54 C 0.5857(17) 1.2303(10) 0.3090(7)
H54 H 0.62600 1.28970 0.34450
C55 C 0.5662(16) 1.2390(9) 0.2309(6)
H55 H 0.58790 1.30470 0.21320
C56 C 0.515(2) 1.1529(9) 0.1786(8)
H56 H 0.50710 1.16010 0.12460
C57 C 0.476(2) 1.0554(9) 0.2034(7)
C58 C 0.4172(16) 0.9635(7) 0.1463(7)
C59 C 0.3233(9) 0.8660(6) 0.1709(7)
H57 H 0.28660 0.88260 0.21700
H58 H 0.25800 0.83350 0.12820
C60 C 0.3796(5) 0.7921(4) 0.1902(3)
H59 H 0.40960 0.77150 0.14240
H60 H 0.45050 0.82790 0.22860
C61 C 0.2949(4) 0.6974(3) 0.2224(2)
H61 H 0.33200 0.65970 0.24860
C62 C 0.1778(4) 0.6611(3) 0.2187(2)
H62 H 0.13960 0.70020 0.19570
C63 C 0.0979(7) 0.5643(6) 0.2471(5)
C64 C -0.0236(7) 0.5188(9) 0.2190(7)
H63 H -0.05540 0.55010 0.18230
C65 C -0.0982(12) 0.4269(10) 0.2451(8)
H64 H -0.18120 0.39690 0.22560
C66 C -0.0572(11) 0.3766(10) 0.2987(8)
H65 H -0.10990 0.31340 0.31490
C67 C 0.0641(11) 0.4231(10) 0.3271(10)
H66 H 0.09580 0.39210 0.36410
C68 C 0.1393(10) 0.5155(7) 0.3014(7)
H67 H 0.22180 0.54630 0.32170
N4 N 0.458(2) 0.9752(13) 0.0794(9)
O4 O 0.408(2) 0.8892(15) 0.0232(11)
H68 H 0.44190 0.90360 -0.01830
C69? C 0.5061(19) 1.0482(12) 0.2858(9)
H69? H 0.48450 0.98080 0.29990
C70? C 0.5630(16) 1.1306(12) 0.3412(9)
H70? H 0.57740 1.11980 0.39370
C71? C 0.5988(17) 1.2285(12) 0.3200(8)
H71? H 0.63520 1.28540 0.35830
C72? C 0.5817(14) 1.2440(11) 0.2434(8)
H72? H 0.61130 1.31160 0.22880
C73? C 0.523(2) 1.1634(9) 0.1878(9)
H73? H 0.51090 1.17530 0.13520
C74? C 0.480(3) 1.0634(10) 0.2090(8)
C75? C 0.4183(17) 0.9764(8) 0.1486(8)
C76? C 0.3097(10) 0.8831(6) 0.1655(8)
H74? H 0.24550 0.86530 0.12220
H75? H 0.27720 0.89990 0.21350
C77? C 0.3398(5) 0.7911(5) 0.1755(4)
H76? H 0.40160 0.80750 0.22000
H77? H 0.37420 0.77490 0.12810
C78? C 0.2269(5) 0.6985(4) 0.1897(3)
H78? H 0.15590 0.68250 0.15580
C79? C 0.2203(5) 0.6399(3) 0.2446(3)
H79? H 0.29130 0.65920 0.27930
C80? C 0.1176(6) 0.5479(5) 0.2600(5)
C81? C 0.1341(8) 0.4856(6) 0.3141(4)
H80? H 0.21160 0.50340 0.34100
C82? C 0.0374(9) 0.3980(6) 0.3282(7)
H81? H 0.04830 0.35700 0.36620
C83? C -0.076(1) 0.369(1) 0.2875(8)
H82? H -0.14080 0.30760 0.29710
C84? C -0.0951(13) 0.4281(12) 0.2335(8)
H83? H -0.17200 0.40870 0.20530
C85? C 0.0026(8) 0.5178(10) 0.2217(8)
H84? H -0.01000 0.56050 0.18570
N5? N 0.454(2) 0.9866(13) 0.0799(9)
O5? O 0.3972(19) 0.8967(13) 0.0274(9)
H85? H 0.42220 0.90830 -0.01680
C86? C 0.511(3) 1.0329(15) 0.2840(11)
H86? H 0.49410 0.96640 0.29900
C87? C 0.553(3) 1.1153(16) 0.3396(13)
H87? H 0.56570 1.10550 0.39250
C88? C 0.576(2) 1.2118(16) 0.3195(13)
H88? H 0.60410 1.26820 0.35840
C89? C 0.557(3) 1.2267(14) 0.2421(14)
H89? H 0.57730 1.29370 0.22730
C90? C 0.508(3) 1.1424(13) 0.1868(13)
H90? H 0.48410 1.15070 0.13550
C91? C 0.4946(18) 1.0461(11) 0.2058(10)
C92? C 0.4529(10) 0.9568(8) 0.1451(7)
C93? C 0.3897(8) 0.8520(6) 0.1696(5)
H91? H 0.42940 0.84840 0.22020
H92? H 0.40010 0.80220 0.13090
C94? C 0.2515(9) 0.8200(7) 0.1777(6)
H93? H 0.23610 0.87440 0.20790
H94? H 0.20490 0.80360 0.12610
C95? C 0.2193(10) 0.7242(7) 0.2219(7)
H95? H 0.27400 0.72120 0.26230
C96? C 0.1201(10) 0.6507(7) 0.2035(6)
H96? H 0.07040 0.65860 0.16220
C97? C 0.0709(15) 0.5533(11) 0.2382(11)
C98? C -0.0476(13) 0.4874(10) 0.2119(9)
H97? H -0.09120 0.50600 0.17300
C99? C -0.1015(15) 0.3955(10) 0.2421(11)
H98? H -0.18260 0.35160 0.22430
C100? C -0.0395(18) 0.3657(15) 0.2982(14)
H99? H -0.07710 0.30100 0.31740
C101? C 0.077(2) 0.430(2) 0.326(2)
H100? H 0.12030 0.41090 0.36490
C102? C 0.130(2) 0.5245(17) 0.2968(17)
H101? H 0.20880 0.57040 0.31760
N6? N 0.469(4) 0.979(2) 0.0749(10)
O6? O 0.381(3) 0.902(3) 0.0212(18)
H102? H 0.39390 0.91740 -0.02440
#END
