
#######################################################################
#
#                 Cambridge Crystallographic Data Centre
#                                CCDC
#
#######################################################################
#
# If this CIF has been generated from an entry in the Cambridge
# Structural Database, then it will include bibliographic, chemical,
# crystal, experimental, refinement or atomic coordinate data resulting
# from the CCDC's data processing and validation procedures.
#
#######################################################################

data_CSD_CIF_TOFNEH
_audit_creation_date 1997-04-18
_audit_creation_method CSD-ConQuest-V1
_database_code_CSD TOFNEH
_database_code_depnum_ccdc_archive 'CCDC 1273214'
_chemical_formula_sum 'C11 H13 N3 O6'
_chemical_formula_moiety
;
C11 H13 N3 O6
;
_journal_coden_Cambridge 3
_journal_volume 50
_journal_year 1996
_journal_page_first 735
_journal_name_full 'Acta Chem.Scand. '
loop_
_publ_author_name
"C.P.Butts"
"L.Eberson"
"K.L.Fulton"
"M.P.Hartshorn"
"G.B.Jamieson"
"W.T.Robinson"
_chemical_name_systematic
;
2,3,4,5-Tetramethyl-1-trinitromethylbenzene
;
_chemical_melting_point 349.15
_cell_volume   2582.384
_exptl_crystal_colour 'yellow'
_exptl_crystal_density_diffrn 1.457
_exptl_special_details
;
Melting point range 349.15-350.15K
Space group should probably be P21/a (not P21/c)
;
_diffrn_ambient_temperature 166
#These two values have been output from a single CSD field.
_refine_ls_R_factor_gt 0.098
_refine_ls_wR_factor_gt 0.098
_symmetry_cell_setting monoclinic
_symmetry_space_group_name_H-M 'P 21/a'
_symmetry_Int_Tables_number 14
loop_
_symmetry_equiv_pos_site_id
_symmetry_equiv_pos_as_xyz
1 x,y,z
2 1/2-x,1/2+y,-z
3 -x,-y,-z
4 -1/2+x,-1/2-y,z
_cell_length_a 9.846(5)
_cell_length_b 16.829(7)
_cell_length_c 15.585(8)
_cell_angle_alpha 90
_cell_angle_beta 90.25(3)
_cell_angle_gamma 90
_cell_formula_units_Z 8
loop_
_atom_type_symbol
_atom_type_radius_bond
C 0.68
N 0.68
O 0.68
loop_
_atom_site_label
_atom_site_type_symbol
_atom_site_fract_x
_atom_site_fract_y
_atom_site_fract_z
O1 O -0.3833(8) 0.5899(5) 0.2233(6)
O2 O -0.4273(9) 0.7142(5) 0.2456(6)
O3 O -0.1619(8) 0.7402(4) 0.2931(6)
O4 O -0.2542(8) 0.7721(4) 0.4139(6)
O5 O -0.5302(8) 0.6694(5) 0.4014(7)
O6 O -0.3274(9) 0.6420(5) 0.4953(6)
N1 N -0.3789(9) 0.6498(6) 0.2645(7)
N2 N -0.2341(9) 0.7280(5) 0.3560(6)
N3 N -0.4135(10) 0.6531(5) 0.4228(8)
C1 C -0.2147(9) 0.5780(5) 0.3649(7)
C2 C -0.268(1) 0.5017(6) 0.3771(7)
C3 C -0.1758(11) 0.4368(5) 0.3862(7)
C4 C -0.0374(11) 0.4494(6) 0.3836(7)
C5 C 0.0146(10) 0.5261(6) 0.3724(7)
C6 C -0.0727(10) 0.5885(6) 0.3645(7)
C7 C -0.3057(11) 0.6472(6) 0.3529(7)
C8 C -0.4184(10) 0.4851(6) 0.3828(8)
C9 C -0.2327(14) 0.3543(6) 0.4005(9)
C10 C 0.0602(12) 0.3794(7) 0.3934(9)
C11 C 0.1661(10) 0.5412(7) 0.3696(9)
O7 O 0.3412(9) 0.3606(5) 0.2660(6)
O8 O 0.3523(8) 0.2571(5) 0.1860(6)
O9 O 0.2889(9) 0.3496(5) -0.0149(6)
O10 O 0.4609(8) 0.2830(5) 0.0331(6)
O11 O 0.5673(7) 0.4364(4) 0.0579(5)
O12 O 0.5800(7) 0.4092(4) 0.1932(5)
N4 N 0.3551(9) 0.3289(5) 0.1976(7)
N5 N 0.3727(10) 0.3322(6) 0.0382(7)
N6 N 0.5232(8) 0.4120(5) 0.1257(6)
C12 C 0.2743(9) 0.4516(5) 0.1230(7)
C13 C 0.1339(10) 0.4388(6) 0.1249(7)
C14 C 0.0494(10) 0.5028(7) 0.1283(7)
C15 C 0.1005(10) 0.5821(6) 0.1257(7)
C16 C 0.2399(10) 0.5940(6) 0.1235(7)
C17 C 0.3237(10) 0.5292(6) 0.1215(7)
C18 C 0.3733(9) 0.3829(6) 0.1203(7)
C19 C 0.0746(10) 0.3560(7) 0.1264(9)
C20 C -0.1036(10) 0.4907(8) 0.1281(10)
C21 C 0.0055(12) 0.6534(7) 0.1281(9)
C22 C 0.3009(11) 0.6760(6) 0.1223(8)
#END
