
#######################################################################
#
#                 Cambridge Crystallographic Data Centre
#                                CCDC
#
#######################################################################
#
# If this CIF has been generated from an entry in the Cambridge
# Structural Database, then it will include bibliographic, chemical,
# crystal, experimental, refinement or atomic coordinate data resulting
# from the CCDC's data processing and validation procedures.
#
#######################################################################

data_CSD_CIF_TOFNAD
_audit_creation_date 1997-04-18
_audit_creation_method CSD-ConQuest-V1
_database_code_CSD TOFNAD
_database_code_depnum_ccdc_archive 'CCDC 1273213'
_chemical_formula_sum 'C11 H14 N4 O8'
_chemical_formula_moiety
;
C11 H14 N4 O8
;
_journal_coden_Cambridge 3
_journal_volume 50
_journal_year 1996
_journal_page_first 735
_journal_name_full 'Acta Chem.Scand. '
loop_
_publ_author_name
"C.P.Butts"
"L.Eberson"
"K.L.Fulton"
"M.P.Hartshorn"
"G.B.Jamieson"
"W.T.Robinson"
_chemical_name_systematic
;
1,2,3,4-Tetramethyl-r-3-nitro-c-6-trinitromethylcyclohexa-1,4-diene
;
_chemical_melting_point 366.15
_cell_volume   2818.843
_exptl_crystal_colour 'colorless'
_exptl_crystal_density_diffrn 1.556
_exptl_special_details
;
Melts with decomposition.

;
_diffrn_ambient_temperature 151
#These two values have been output from a single CSD field.
_refine_ls_R_factor_gt 0.038
_refine_ls_wR_factor_gt 0.038
_symmetry_cell_setting monoclinic
_symmetry_space_group_name_H-M 'C 2/c'
_symmetry_Int_Tables_number 15
loop_
_symmetry_equiv_pos_site_id
_symmetry_equiv_pos_as_xyz
1 x,y,z
2 -x,y,1/2-z
3 1/2+x,1/2+y,z
4 1/2-x,1/2+y,1/2-z
5 -x,-y,-z
6 x,-y,-1/2+z
7 -1/2-x,-1/2-y,-z
8 -1/2+x,-1/2-y,-1/2+z
_cell_length_a 8.317(1)
_cell_length_b 10.277(2)
_cell_length_c 33.100(2)
_cell_angle_alpha 90
_cell_angle_beta 94.90(1)
_cell_angle_gamma 90
_cell_formula_units_Z 8
loop_
_atom_type_symbol
_atom_type_radius_bond
C 0.68
H 0.23
N 0.68
O 0.68
loop_
_atom_site_label
_atom_site_type_symbol
_atom_site_fract_x
_atom_site_fract_y
_atom_site_fract_z
O1 O 0.0589(3) 0.0123(3) 0.0418(1)
N1 N -0.2778(3) -0.0104(3) 0.0294(1)
O2 O -0.2880(3) 0.1050(2) 0.0226(1)
O3 O -0.3273(3) -0.0996(2) 0.0076(1)
O4 O -0.0204(3) 0.0660(2) 0.1163(1)
C1 C -0.4313(3) -0.1356(3) 0.1457(1)
C2 C -0.2514(4) -0.1702(3) 0.0906(1)
C3 C -0.1458(4) -0.2151(3) 0.1619(1)
O5 O 0.0128(3) -0.1954(2) 0.0452(1)
O6 O -0.2719(3) 0.1232(2) 0.1031(1)
N2 N -0.0188(3) -0.0812(3) 0.0509(1)
O7 O -0.2049(3) 0.0329(2) 0.1915(11)
C4 C -0.4108(4) -0.1365(3) 0.1062(1)
N3 N -0.2676(3) -0.0601(3) 0.2063(1)
O8 O -0.3021(3) -0.0650(2) 0.2409(1)
N4 N -0.1531(4) 0.0589(3) 0.0977(1)
C5 C -0.3040(4) -0.1817(3) 0.1775(1)
C6 C -0.1268(4) -0.2152(3) 0.1229(1)
C7 C -0.1798(4) -0.0534(3) 0.0685(1)
C8 C -0.5914(3) -0.0977(3) 0.1613(1)
C9 C -0.5490(3) -0.1088(3) 0.0748(1)
C10 C -0.0103(3) -0.2515(3) 0.1928(1)
C11 C -0.3675(4) -0.2901(3) 0.2030(1)
H1 H -0.2703(4) -0.2425(3) 0.0705(1)
H2 H -0.0271(4) -0.2460(3) 0.1146(1)
H3 H -0.5732(4) -0.0687(17) 0.1895(2)
H4 H -0.6639(9) -0.1731(6) 0.1598(5)
H5 H -0.6405(11) -0.0270(13) 0.1446(4)
H6 H -0.5414(14) -0.1662(13) 0.0514(3)
H7 H -0.5438(13) -0.0179(6) 0.0660(4)
H8 H -0.6516(3) -0.1242(18) 0.0865(2)
H9 H -0.0418(10) -0.3277(12) 0.2082(4)
H10 H 0.0129(15) -0.1785(7) 0.2115(4)
H11 H 0.0862(8) -0.2721(18) 0.1791(1)
H12 H -0.4718(11) -0.2642(8) 0.2122(5)
H13 H -0.2906(11) -0.3065(13) 0.2266(3)
H14 H -0.3812(22) -0.3694(6) 0.1867(2)
#END
