
#######################################################################
#
#                 Cambridge Crystallographic Data Centre
#                                CCDC
#
#######################################################################
#
# If this CIF has been generated from an entry in the Cambridge
# Structural Database, then it will include bibliographic, chemical,
# crystal, experimental, refinement or atomic coordinate data resulting
# from the CCDC's data processing and validation procedures.
#
#######################################################################

data_CSD_CIF_TOGWIX01
_audit_creation_date 2015-09-25
_audit_creation_method CSD-ConQuest-V1
_database_code_CSD TOGWIX01
_database_code_depnum_ccdc_archive 'CCDC 1427439'
_chemical_formula_sum 'C14 H16 N2 O5'
_chemical_formula_moiety
;
C14 H16 N2 O5
;
_journal_coden_Cambridge 1078
_journal_year 2015
_journal_name_full 'CSD Communication(Private Communication) '
loop_
_publ_author_name
"F.R.Fronczek"
_chemical_name_systematic
;
6,6-dimethyl-1,3-dinitro-7,8,9,10-tetrahydrobenzo[8]annulen-5(6H)-one
;
_cell_volume   2696.799
_exptl_crystal_colour 'yellow'
_exptl_crystal_density_diffrn 1.44
_exptl_crystal_description 'plate'
_exptl_crystal_preparation 'Re-crystallisation from solvent'
_diffrn_ambient_temperature 90
#These two values have been output from a single CSD field.
_refine_ls_R_factor_gt 0.057
_refine_ls_wR_factor_gt 0.057
_symmetry_cell_setting orthorhombic
_symmetry_space_group_name_H-M 'P b c a'
_symmetry_Int_Tables_number 61
loop_
_symmetry_equiv_pos_site_id
_symmetry_equiv_pos_as_xyz
1 x,y,z
2 1/2-x,-y,1/2+z
3 -x,1/2+y,1/2-z
4 1/2+x,1/2-y,-z
5 -x,-y,-z
6 -1/2+x,y,-1/2-z
7 x,-1/2-y,-1/2+z
8 -1/2-x,-1/2+y,z
_cell_length_a 7.0910(3)
_cell_length_b 19.4643(9)
_cell_length_c 19.5390(9)
_cell_angle_alpha 90
_cell_angle_beta 90
_cell_angle_gamma 90
_cell_formula_units_Z 8
loop_
_atom_type_symbol
_atom_type_radius_bond
C 0.68
H 0.23
N 0.68
O 0.68
loop_
_atom_site_label
_atom_site_type_symbol
_atom_site_fract_x
_atom_site_fract_y
_atom_site_fract_z
O1 O 0.3459(2) 0.87126(8) 0.64998(9)
O2 O 0.2206(2) 0.78368(8) 0.70090(8)
O3 O 0.7552(2) 0.58768(7) 0.74534(6)
O4 O 0.9396(2) 0.85823(9) 0.54873(11)
O5 O 1.1050(2) 0.76682(8) 0.54227(9)
N1 N 0.3486(2) 0.81156(9) 0.66924(8)
N2 N 0.9665(2) 0.79757(8) 0.56138(8)
C1 C 0.5169(2) 0.77034(10) 0.65265(8)
C2 C 0.5243(2) 0.70218(9) 0.67265(8)
H1 H 0.42140 0.68150 0.69600
C3 C 0.6865(2) 0.66462(9) 0.65770(8)
C4 C 0.7016(2) 0.59253(9) 0.68684(8)
C5 C 0.6460(2) 0.52954(9) 0.64451(9)
C6 C 0.7993(3) 0.51359(10) 0.58962(9)
H2 H 0.92050 0.50630 0.61370
H3 H 0.76560 0.46960 0.56740
C7 C 0.8325(3) 0.5668(1) 0.53314(9)
H4 H 0.84340 0.54250 0.48880
H5 H 0.72080 0.59720 0.53050
C8 C 1.0073(2) 0.61116(10) 0.54317(9)
H6 H 1.01260 0.64560 0.50590
H7 H 1.12040 0.58160 0.53900
C9 C 1.0152(3) 0.64875(10) 0.61194(10)
H8 H 1.02420 0.61460 0.64940
H9 H 1.12970 0.67780 0.61350
C10 C 0.8422(2) 0.69352(9) 0.62317(8)
C11 C 0.8204(2) 0.76174(10) 0.60242(8)
C12 C 0.6633(3) 0.80113(10) 0.61735(9)
H10 H 0.65620 0.84790 0.60380
C13 C 0.4554(3) 0.54158(10) 0.60966(9)
H11 H 0.35730 0.54700 0.64460
H12 H 0.42500 0.50220 0.58040
H13 H 0.46190 0.58330 0.58170
C14 C 0.6312(3) 0.46724(10) 0.69226(10)
H14 H 0.75580 0.45680 0.71130
H15 H 0.58490 0.42750 0.66640
H16 H 0.54350 0.47760 0.72960
#END
