
#######################################################################
#
#                 Cambridge Crystallographic Data Centre
#                                CCDC
#
#######################################################################
#
# If this CIF has been generated from an entry in the Cambridge
# Structural Database, then it will include bibliographic, chemical,
# crystal, experimental, refinement or atomic coordinate data resulting
# from the CCDC's data processing and validation procedures.
#
#######################################################################

data_CSD_CIF_TOHZEV
_audit_creation_date 1997-04-29
_audit_creation_method CSD-ConQuest-V1
_database_code_CSD TOHZEV
_chemical_formula_sum 'C16 H16 N8 O16'
_chemical_formula_moiety
;
C16 H16 N8 O16
;
_journal_coden_Cambridge 1003
_journal_volume 26
_journal_year 1996
_journal_page_first 381
_journal_name_full 'J.Chem.Cryst. '
loop_
_publ_author_name
"R.J.Butcher"
"R.D.Gilardi"
"C.George"
"J.Flippen-Anderson"
_chemical_name_systematic
;
1,2,4,7-tetrakis(N-Methoxycarbonylnitramino)cubane
;
_cell_volume   1141.873
_exptl_crystal_colour 'colorless'
_exptl_crystal_density_diffrn 1.676
_exptl_special_details
;
possible pharmacological activity

;
_diffrn_ambient_temperature ?
_diffrn_special_details
;
The study was carried out at room temperature,in the range 283-303K

;
#These two values have been output from a single CSD field.
_refine_ls_R_factor_gt 0.052
_refine_ls_wR_factor_gt 0.052
_symmetry_cell_setting monoclinic
_symmetry_space_group_name_H-M 'P 21/c'
_symmetry_Int_Tables_number 14
loop_
_symmetry_equiv_pos_site_id
_symmetry_equiv_pos_as_xyz
1 x,y,z
2 -x,1/2+y,1/2-z
3 -x,-y,-z
4 x,-1/2-y,-1/2+z
_cell_length_a 10.866(3)
_cell_length_b 6.866(2)
_cell_length_c 16.167(6)
_cell_angle_alpha 90
_cell_angle_beta 108.79(3)
_cell_angle_gamma 90
_cell_formula_units_Z 2
loop_
_atom_type_symbol
_atom_type_radius_bond
C 0.68
N 0.68
O 0.68
loop_
_atom_site_label
_atom_site_type_symbol
_atom_site_fract_x
_atom_site_fract_y
_atom_site_fract_z
C1 C 0.4630(3) 0.6223(5) 0.4304(2)
C2 C 0.3718(3) 0.5421(5) 0.4832(2)
C3 C 0.5178(3) 0.4128(5) 0.4295(2)
C4 C 0.5698(3) 0.6648(5) 0.5189(2)
N1 N 0.4365(3) 0.7646(4) 0.3607(2)
N2 N 0.3183(3) 0.7390(6) 0.2924(2)
O1 O 0.2934(3) 0.8459(6) 0.2301(3)
O2 O 0.2514(3) 0.6043(5) 0.3003(2)
C5 C 0.5416(3) 0.8383(6) 0.3351(2)
O3 O 0.6465(2) 0.7359(4) 0.3756(2)
C6 C 0.7661(4) 0.7886(7) 0.3596(3)
O4 O 0.5340(3) 0.9729(5) 0.2871(2)
N3 N 0.2378(3) 0.5791(4) 0.4734(2)
N4 N 0.2149(3) 0.7711(5) 0.4961(2)
O5 O 0.1139(3) 0.8021(5) 0.5104(2)
O6 O 0.3023(3) 0.8868(4) 0.5025(2)
C7 C 0.1278(3) 0.4874(6) 0.4119(2)
O7 O 0.1568(2) 0.3041(4) 0.4041(2)
C8 C 0.0590(5) 0.1933(8) 0.3392(4)
O8 O 0.0292(3) 0.5677(5) 0.3743(2)
C3B C 0.4822(3) 0.5872(5) 0.5705(2)
C1B C 0.5370(3) 0.3777(5) 0.5696(2)
C2B C 0.6282(3) 0.4579(5) 0.5168(2)
N3B N 0.7622(3) 0.4209(4) 0.5266(2)
N4B N 0.7851(3) 0.2289(5) 0.5039(2)
O5B O 0.8861(3) 0.1979(5) 0.4896(2)
O6B O 0.6977(3) 0.1132(4) 0.4975(2)
C7B C 0.8722(3) 0.5126(6) 0.5881(2)
O7B O 0.8432(2) 0.6959(4) 0.5959(2)
C8B C 0.9410(5) 0.8067(8) 0.6608(4)
O8B O 0.9708(3) 0.4323(5) 0.6257(2)
C4B C 0.4302(3) 0.3352(5) 0.4811(2)
N1B N 0.5635(3) 0.2354(4) 0.6393(2)
N2B N 0.6817(3) 0.2610(6) 0.7076(2)
O1B O 0.7066(3) 0.1541(6) 0.7699(3)
O2B O 0.7486(3) 0.3957(5) 0.6997(2)
C5B C 0.4584(3) 0.1617(6) 0.6649(2)
O3B O 0.3535(2) 0.2641(4) 0.6244(2)
C6B C 0.2339(4) 0.2114(7) 0.6404(3)
O4B O 0.4660(3) 0.0271(5) 0.7129(2)
#END
