
#######################################################################
#
#                 Cambridge Crystallographic Data Centre
#                                CCDC
#
#######################################################################
#
# If this CIF has been generated from an entry in the Cambridge
# Structural Database, then it will include bibliographic, chemical,
# crystal, experimental, refinement or atomic coordinate data resulting
# from the CCDC's data processing and validation procedures.
#
#######################################################################

data_CSD_CIF_TOJBUP
_audit_creation_date 1997-04-28
_audit_creation_method CSD-ConQuest-V1
_database_code_CSD TOJBUP
_database_code_depnum_ccdc_archive 'CCDC 1273424'
_chemical_formula_sum 'C16 H15 N1 O2'
_chemical_formula_moiety
;
C16 H15 N1 O2
;
_journal_coden_Cambridge 34
_journal_volume 33
_journal_year 1996
_journal_page_first 81
_journal_name_full 'J.Heterocycl.Chem. '
loop_
_publ_author_name
"P.Carloni"
"L.Greci"
"P.Stipa"
"D.Cauzzi"
"C.Rizzoli"
"P.Sgarabotto"
_chemical_name_systematic
;
1-Methoxy-2-methyl-2-phenylindolin-3-one
;
_cell_volume   1356.849
_exptl_crystal_colour 'green'
_exptl_crystal_density_diffrn 1.24
_diffrn_ambient_temperature ?
_diffrn_special_details
;
The study was carried out at room temperature,in the range 283-303K

;
#These two values have been output from a single CSD field.
_refine_ls_R_factor_gt 0.043
_refine_ls_wR_factor_gt 0.043
_symmetry_cell_setting triclinic
_symmetry_space_group_name_H-M 'P -1'
_symmetry_Int_Tables_number 2
loop_
_symmetry_equiv_pos_site_id
_symmetry_equiv_pos_as_xyz
1 x,y,z
2 -x,-y,-z
_cell_length_a 12.108(3)
_cell_length_b 10.534(2)
_cell_length_c 10.884(2)
_cell_angle_alpha 101.6(1)
_cell_angle_beta 90.5(1)
_cell_angle_gamma 86.2(1)
_cell_formula_units_Z 4
loop_
_atom_type_symbol
_atom_type_radius_bond
C 0.68
H 0.23
N 0.68
O 0.68
loop_
_atom_site_label
_atom_site_type_symbol
_atom_site_fract_x
_atom_site_fract_y
_atom_site_fract_z
O1 O 0.1825(2) 0.0687(2) 0.8812(2)
O2 O -0.0056(1) 0.2873(2) 0.6010(2)
N1 N 0.1313(1) 0.1865(2) 0.8566(2)
C1 C 0.0358(2) 0.1695(2) 0.7691(2)
C2 C 0.0567(2) 0.2668(2) 0.6836(2)
C3 C 0.1621(2) 0.3201(2) 0.7194(2)
C4 C 0.2206(2) 0.4104(2) 0.6717(2)
C5 C 0.3227(2) 0.4373(3) 0.7185(3)
C6 C 0.3686(2) 0.3758(3) 0.8107(3)
C7 C 0.3127(2) 0.2856(3) 0.8590(3)
C8 C 0.2065(2) 0.2614(2) 0.8132(2)
C9 C 0.0380(3) 0.0333(3) 0.6876(3)
C10 C 0.1579(4) 0.0578(4) 1.0055(4)
C11 C -0.0737(2) 0.2109(2) 0.8397(2)
C12 C -0.0754(2) 0.2839(3) 0.9602(2)
C13 C -0.1747(3) 0.3252(3) 1.0223(3)
C14 C -0.2727(3) 0.2928(3) 0.9664(3)
C15 C -0.2723(2) 0.2210(3) 0.8466(3)
C16 C -0.1738(2) 0.1804(3) 0.7829(2)
H1 H 0.185(2) 0.454(2) 0.611(2)
H2 H 0.368(2) 0.494(3) 0.692(3)
H3 H 0.447(2) 0.399(3) 0.844(3)
H4 H 0.351(2) 0.239(2) 0.922(2)
H5 H 0.118(3) 0.012(3) 0.655(3)
H6 H 0.027(3) -0.024(3) 0.746(3)
H7 H -0.013(3) 0.036(3) 0.623(3)
H8 H 0.198(3) -0.022(4) 1.016(3)
H9 H 0.069(3) 0.044(4) 1.007(4)
H10 H 0.192(3) 0.136(4) 1.065(4)
H11 H -0.005(2) 0.313(3) 1.001(2)
H12 H -0.165(2) 0.366(3) 1.109(3)
H13 H -0.347(3) 0.313(3) 1.009(3)
H14 H -0.337(3) 0.202(3) 0.802(3)
H15 H -0.173(2) 0.115(3) 0.691(3)
O3 O 0.3345(2) 0.0672(2) 0.3722(2)
O4 O 0.4768(2) 0.3542(2) 0.1415(2)
N2 N 0.3571(1) 0.1925(2) 0.3557(2)
C17 C 0.4553(2) 0.1965(2) 0.2763(2)
C18 C 0.4164(2) 0.3060(3) 0.2054(2)
C19 C 0.2996(2) 0.3345(2) 0.2296(2)
C20 C 0.2230(3) 0.4180(3) 0.1837(3)
C21 C 0.1138(3) 0.4222(3) 0.2202(3)
C22 C 0.0822(3) 0.3442(3) 0.3005(3)
C23 C 0.1560(2) 0.2614(3) 0.3463(2)
C24 C 0.2670(2) 0.2589(2) 0.3114(2)
C25 C 0.4769(3) 0.0714(4) 0.1792(3)
C26 C 0.3463(4) 0.0599(4) 0.5009(4)
C27 C 0.5551(2) 0.2370(2) 0.3573(2)
C28 C 0.5393(2) 0.3129(3) 0.4761(2)
C29 C 0.6279(3) 0.3558(3) 0.5504(3)
C30 C 0.7327(3) 0.3262(3) 0.5081(4)
C31 C 0.7507(2) 0.2526(3) 0.3905(4)
C32 C 0.6623(2) 0.2069(3) 0.3137(3)
H16 H 0.249(2) 0.465(3) 0.131(3)
H17 H 0.057(3) 0.488(3) 0.173(3)
H18 H 0.000(3) 0.356(3) 0.324(3)
H19 H 0.131(2) 0.205(3) 0.399(3)
H20 H 0.505(3) -0.006(3) 0.219(3)
H21 H 0.412(3) 0.034(3) 0.126(3)
H22 H 0.530(3) 0.096(3) 0.126(3)
H23 H 0.337(3) -0.042(4) 0.495(4)
H24 H 0.423(3) 0.086(3) 0.528(3)
H25 H 0.288(4) 0.104(4) 0.547(4)
H26 H 0.465(2) 0.324(3) 0.502(2)
H27 H 0.611(3) 0.420(4) 0.643(4)
H28 H 0.796(3) 0.350(3) 0.555(3)
H29 H 0.822(3) 0.227(3) 0.362(3)
H30 H 0.676(2) 0.156(2) 0.230(2)
#END
