
#######################################################################
#
#                 Cambridge Crystallographic Data Centre
#                                CCDC
#
#######################################################################
#
# If this CIF has been generated from an entry in the Cambridge
# Structural Database, then it will include bibliographic, chemical,
# crystal, experimental, refinement or atomic coordinate data resulting
# from the CCDC's data processing and validation procedures.
#
#######################################################################

data_CSD_CIF_TOJWIA
_audit_creation_date 2014-07-18
_audit_creation_method CSD-ConQuest-V1
_database_code_CSD TOJWIA
_database_code_depnum_ccdc_archive 'CCDC 1014947'
_chemical_formula_sum 'C11 H9 N1 O4'
_chemical_formula_moiety
;
C11 H9 N1 O4
;
_journal_coden_Cambridge 1078
_journal_year 2014
_journal_name_full 'CSD Communication(Private Communication) '
loop_
_publ_author_name
"J.Gabriel Garcia"
"F.R.Fronczek"
_chemical_name_systematic
;
2,2-dimethyl-5-nitro-1H-indene-1,3(2H)-dione
;
_chemical_melting_point 356
_cell_volume   1054.055
_exptl_crystal_density_diffrn 1.381
_exptl_special_details
;
Melting point range 356-358K

;
_exptl_crystal_preparation 'ethanol'
_diffrn_ambient_temperature 296
#These two values have been output from a single CSD field.
_refine_ls_R_factor_gt 0.0499
_refine_ls_wR_factor_gt 0.0499
_symmetry_cell_setting monoclinic
_symmetry_space_group_name_H-M 'P 21/c'
_symmetry_Int_Tables_number 14
loop_
_symmetry_equiv_pos_site_id
_symmetry_equiv_pos_as_xyz
1 x,y,z
2 -x,1/2+y,1/2-z
3 -x,-y,-z
4 x,-1/2-y,-1/2+z
_cell_length_a 9.019(2)
_cell_length_b 9.512(2)
_cell_length_c 12.346(3)
_cell_angle_alpha 90
_cell_angle_beta 95.621(15)
_cell_angle_gamma 90
_cell_formula_units_Z 4
loop_
_atom_type_symbol
_atom_type_radius_bond
C 0.68
H 0.23
N 0.68
O 0.68
loop_
_atom_site_label
_atom_site_type_symbol
_atom_site_fract_x
_atom_site_fract_y
_atom_site_fract_z
O1 O 0.19625(17) 0.78839(18) 0.79601(12)
O2 O 0.47488(19) 0.76277(18) 0.49288(12)
O3 O 0.0696(2) 0.18778(17) 0.45817(18)
O4 O 0.2045(2) 0.2921(2) 0.34955(17)
N1 N 0.15127(19) 0.28258(16) 0.43580(16)
C1 C 0.24811(18) 0.7526(2) 0.71382(13)
C2 C 0.21710(16) 0.61728(16) 0.65618(11)
C3 C 0.12593(18) 0.50709(19) 0.68145(14)
H1 H 0.07810 0.50840 0.74480
C4 C 0.10806(18) 0.39525(18) 0.60979(15)
H2 H 0.04770 0.31960 0.62420
C5 C 0.18120(17) 0.39731(16) 0.51618(13)
C6 C 0.27597(18) 0.50289(17) 0.49124(12)
H3 H 0.32600 0.50000 0.42890
C7 C 0.29285(16) 0.61365(16) 0.56385(11)
C8 C 0.3862(2) 0.74162(18) 0.55847(13)
C9 C 0.35359(19) 0.8395(2) 0.65131(14)
C10 C 0.4969(2) 0.8742(3) 0.72223(19)
H4 H 0.47530 0.93810 0.77880
H5 H 0.56670 0.91690 0.67840
H6 H 0.53900 0.78930 0.75420
C11 C 0.2747(3) 0.9716(2) 0.6057(3)
H7 H 0.18810 0.94550 0.55860
H8 H 0.34110 1.02470 0.56520
H9 H 0.24530 1.02780 0.66450
#END
