
#######################################################################
#
#                 Cambridge Crystallographic Data Centre
#                                CCDC
#
#######################################################################
#
# If this CIF has been generated from an entry in the Cambridge
# Structural Database, then it will include bibliographic, chemical,
# crystal, experimental, refinement or atomic coordinate data resulting
# from the CCDC's data processing and validation procedures.
#
#######################################################################

data_CSD_CIF_TOKXUN
_audit_creation_date 2009-05-12
_audit_creation_method CSD-ConQuest-V1
_database_code_CSD TOKXUN
_database_code_depnum_ccdc_archive 'CCDC 628864'
_chemical_formula_sum 'C43 H68 N2 O16'
_chemical_formula_moiety
;
C43 H68 N2 O16
;
_journal_coden_Cambridge 493
_journal_volume 43
_journal_year 2008
_journal_page_first 1657
_journal_name_full 'Eur.J.Med.Chem. '
loop_
_publ_author_name
"A.Heggelund"
"C.Romming"
"K.Undheim"
_chemical_name_systematic
;
(9E)-4''-O-Acetyl-N-demethylerythromycin A 
9-(O-allyloxime)-2',3'-carbamate-11,12-carbonate
;
_chemical_melting_point 531.15
_cell_volume   4797.721
_exptl_crystal_colour 'colorless'
_exptl_crystal_density_diffrn 1.203
_exptl_special_details
;
Melting point range 531.15-534.15K
low antibacterial activity

;
_exptl_crystal_preparation 'dichloromethane/diethyl ether'
_diffrn_ambient_temperature 105
#These two values have been output from a single CSD field.
_refine_ls_R_factor_gt 0.0419
_refine_ls_wR_factor_gt 0.0419
_symmetry_cell_setting orthorhombic
_symmetry_space_group_name_H-M 'P 21 21 21'
_symmetry_Int_Tables_number 19
loop_
_symmetry_equiv_pos_site_id
_symmetry_equiv_pos_as_xyz
1 x,y,z
2 1/2-x,-y,1/2+z
3 -x,1/2+y,1/2-z
4 1/2+x,1/2-y,-z
_cell_length_a 13.7300(18)
_cell_length_b 17.700(2)
_cell_length_c 19.742(3)
_cell_angle_alpha 90
_cell_angle_beta 90
_cell_angle_gamma 90
_cell_formula_units_Z 4
loop_
_atom_type_symbol
_atom_type_radius_bond
C 0.68
H 0.23
N 0.68
O 0.68
loop_
_atom_site_label
_atom_site_type_symbol
_atom_site_fract_x
_atom_site_fract_y
_atom_site_fract_z
O1 O 0.24868(11) 0.55031(8) -0.09586(8)
O2 O 0.51579(9) 0.50324(7) -0.00327(7)
O3 O 0.48466(10) 0.37602(7) -0.03061(7)
O4 O 0.69988(10) 0.42760(7) 0.04892(7)
O5 O 0.68947(10) 0.27211(7) 0.04485(7)
O6 O 0.67292(15) 0.17037(9) -0.02225(9)
O7 O 0.43398(10) 0.48885(8) 0.18442(7)
O8 O 0.49785(10) 0.37254(8) 0.20414(8)
O9 O 0.62699(11) 0.55198(9) 0.23520(8)
O10 O 0.76753(13) 0.60621(11) 0.27045(9)
O11 O 0.22204(10) 0.47615(8) 0.07415(7)
H1 H 0.2092(18) 0.4358(15) 0.0591(13)
O12 O 0.01031(11) 0.41575(8) 0.15902(8)
O13 O -0.01832(11) 0.58564(9) 0.00095(8)
O14 O -0.14285(12) 0.64164(11) -0.05335(9)
O15 O -0.01208(10) 0.70856(8) -0.02059(8)
O16 O 0.24523(9) 0.66022(7) -0.03770(7)
N1 N 0.74498(14) 0.47682(12) 0.27567(9)
N2 N -0.00309(13) 0.48586(10) 0.12529(9)
C1 C 0.28945(14) 0.59799(11) -0.0633(1)
C2 C 0.39713(13) 0.59789(11) -0.04665(11)
H2 H 0.4123(14) 0.6421(12) -0.0227(10)
C3 C 0.41732(13) 0.53036(11) 0.00178(10)
H3 H 0.3720(13) 0.4879(10) -0.0108(8)
C4 C 0.39854(14) 0.55424(11) 0.0752(1)
H4 H 0.3377(15) 0.5847(12) 0.0733(11)
C5 C 0.38148(14) 0.48383(11) 0.12068(10)
H5 H 0.4061(13) 0.4388(10) 0.0964(9)
C6 C 0.27276(14) 0.47108(11) 0.13766(10)
C7 C 0.23434(14) 0.53372(12) 0.18375(11)
H6 H 0.2447(14) 0.5844(12) 0.1594(10)
H7 H 0.2725(17) 0.5376(13) 0.2244(12)
C8 C 0.12682(15) 0.52656(12) 0.20611(10)
H8 H 0.1153(13) 0.4741(12) 0.2243(10)
C9 C 0.05517(14) 0.53645(12) 0.14818(10)
C10 C 0.04363(15) 0.61419(12) 0.11493(11)
H9 H 0.0887(15) 0.6441(12) 0.1333(10)
C11 C 0.06602(15) 0.61243(11) 0.03879(11)
H10 H 0.1171(16) 0.5778(13) 0.0299(11)
C12 C 0.08571(14) 0.68944(12) 0.00348(11)
C13 C 0.14700(15) 0.67727(12) -0.06074(11)
H11 H 0.1194(17) 0.6322(14) -0.0853(12)
C14 C 0.45335(17) 0.59788(14) -0.11364(12)
H12 H 0.4295(17) 0.5561(14) -0.1438(12)
H13 H 0.5252(17) 0.5901(12) -0.1065(11)
H14 H 0.442(2) 0.6431(16) -0.1389(14)
C15 C 0.52851(14) 0.44520(11) -0.05163(11)
H15 H 0.4927(15) 0.4566(12) -0.0926(11)
C16 C 0.63557(16) 0.43702(12) -0.06791(12)
H16 H 0.6418(14) 0.4115(13) -0.1093(11)
H17 H 0.6647(16) 0.4907(13) -0.0752(10)
C17 C 0.69558(14) 0.39194(12) -0.01621(11)
C18 C 0.63859(15) 0.31876(12) -0.00454(12)
H18 H 0.6340(13) 0.2906(10) -0.0445(10)
C19 C 0.53670(15) 0.33633(11) 0.02200(11)
H19 H 0.5395(13) 0.3693(11) 0.0627(10)
C20 C 0.79710(16) 0.37655(15) -0.04444(15)
H20 H 0.8278(18) 0.4245(15) -0.0585(13)
H21 H 0.7914(18) 0.3451(15) -0.0861(14)
H22 H 0.8369(19) 0.3491(15) -0.0094(13)
C21 C 0.74550(19) 0.50028(14) 0.05131(15)
H23 H 0.7390(18) 0.5152(14) 0.1010(13)
H24 H 0.714(2) 0.5382(17) 0.0235(15)
H25 H 0.814(2) 0.4991(13) 0.0447(12)
C22 C 0.69999(16) 0.19765(12) 0.02997(12)
C23 C 0.7492(2) 0.15620(15) 0.08587(16)
H26 H 0.714(3) 0.110(2) 0.0869(19)
H27 H 0.736(2) 0.1752(19) 0.1311(19)
H28 H 0.810(3) 0.1544(17) 0.0751(16)
C24 C 0.47633(18) 0.26768(13) 0.03872(15)
H29 H 0.5078(16) 0.2365(13) 0.0766(11)
H30 H 0.4667(16) 0.2408(14) -0.0020(13)
H31 H 0.4100(19) 0.2836(14) 0.0551(13)
C25 C 0.47727(18) 0.60714(13) 0.10199(12)
H32 H 0.4647(18) 0.6254(14) 0.1490(14)
H33 H 0.5458(16) 0.5829(13) 0.1031(10)
H34 H 0.4793(18) 0.6536(15) 0.0735(13)
C26 C 0.52125(15) 0.44907(12) 0.18552(11)
H35 H 0.5526(14) 0.4510(11) 0.1406(10)
C27 C 0.58832(16) 0.47625(13) 0.24050(11)
H36 H 0.5563(16) 0.4722(12) 0.2828(12)
C28 C 0.67914(16) 0.42782(13) 0.23791(12)
H37 H 0.6999(15) 0.4268(11) 0.1890(12)
C29 C 0.65532(18) 0.34892(14) 0.26057(13)
H38 H 0.6306(18) 0.3495(14) 0.3062(14)
H39 H 0.7093(19) 0.3181(14) 0.2575(12)
C30 C 0.57883(17) 0.31974(13) 0.21019(13)
H40 H 0.6096(15) 0.3136(12) 0.1655(11)
C31 C 0.5349(2) 0.24478(16) 0.23053(18)
H41 H 0.5035(18) 0.2526(14) 0.2778(13)
H42 H 0.585(2) 0.2053(19) 0.2325(16)
H43 H 0.480(2) 0.2267(17) 0.1949(15)
C32 C 0.71947(17) 0.55000(15) 0.26194(11)
C33 C 0.84800(19) 0.4564(2) 0.27978(17)
H44 H 0.870(3) 0.4480(19) 0.2348(19)
H45 H 0.884(2) 0.5001(16) 0.3010(14)
H46 H 0.844(2) 0.407(2) 0.3091(18)
C34 C 0.25993(18) 0.39274(12) 0.16923(13)
H47 H 0.2878(17) 0.3912(13) 0.2137(13)
H48 H 0.2939(16) 0.3566(13) 0.1416(11)
H49 H 0.192(2) 0.3797(15) 0.1760(13)
C35 C 0.10613(18) 0.58366(14) 0.26260(13)
H50 H 0.0393(18) 0.5837(13) 0.2749(11)
H51 H 0.1271(16) 0.6378(13) 0.247(1)
H52 H 0.1451(15) 0.5712(11) 0.3010(11)
C36 C -0.0440(2) 0.36004(14) 0.12271(14)
H53 H -0.0285(17) 0.3639(14) 0.0715(14)
H54 H -0.117(2) 0.3669(13) 0.1255(12)
C37 C -0.0248(2) 0.28453(16) 0.15373(15)
H55 H -0.057(2) 0.244(2) 0.1298(17)
C38 C 0.0312(3) 0.2701(2) 0.20477(19)
H56 H 0.072(2) 0.3108(19) 0.2275(16)
H57 H 0.040(3) 0.217(3) 0.220(2)
C39 C -0.05712(17) 0.64782(14) 0.13119(14)
H58 H -0.0631(17) 0.7018(14) 0.1134(11)
H59 H -0.0673(15) 0.6451(12) 0.1796(12)
H60 H -0.113(2) 0.6163(16) 0.1077(15)
C40 C -0.06496(17) 0.64486(14) -0.02683(12)
C41 C 0.12290(18) 0.75307(13) 0.04727(14)
H61 H 0.0859(17) 0.7597(12) 0.0856(12)
H62 H 0.191(2) 0.7432(13) 0.0628(12)
H63 H 0.1222(18) 0.7975(16) 0.0201(13)
C42 C 0.15482(19) 0.74584(14) -0.10781(12)
H64 H 0.1909(18) 0.7860(14) -0.0830(12)
H65 H 0.0884(18) 0.7572(13) -0.1206(12)
C43 C 0.2070(2) 0.72762(17) -0.17373(14)
H66 H 0.271(2) 0.7090(15) -0.1623(13)
H67 H 0.2077(17) 0.7721(15) -0.2030(12)
H68 H 0.169(3) 0.687(2) -0.1959(17)
#END
