
#######################################################################
#
#                 Cambridge Crystallographic Data Centre
#                                CCDC
#
#######################################################################
#
# If this CIF has been generated from an entry in the Cambridge
# Structural Database, then it will include bibliographic, chemical,
# crystal, experimental, refinement or atomic coordinate data resulting
# from the CCDC's data processing and validation procedures.
#
#######################################################################

data_CSD_CIF_TOLFEF
_audit_creation_date 1997-04-29
_audit_creation_method CSD-ConQuest-V1
_database_code_CSD TOLFEF
_database_code_depnum_ccdc_archive 'CCDC 1273653'
_database_code_depnum_ccdc_fiz 'CSD 405371'
_chemical_formula_sum 'C18 H20 N1 O1'
_chemical_formula_moiety
;
C18 H20 N1 O1
;
_journal_coden_Cambridge 167
_journal_year 1996
_journal_page_first 1413
_journal_name_full 'Liebigs Ann. '
loop_
_publ_author_name
"N.Benfaremo"
"M.Steenbock"
"M.Klapper"
"K.Mullen"
"V.Enkelmann"
"K.Cabrera"
_chemical_name_systematic
;
2,5-Dimethyl-2,5-diphenylpyrrolidine-1-oxyl
;
_chemical_melting_point 407.15
_cell_volume   1473.848
_exptl_crystal_colour 'orange'
_diffrn_ambient_temperature ?
_diffrn_special_details
;
The study was carried out at room temperature,in the range 283-303K

;
#These two values have been output from a single CSD field.
_refine_ls_R_factor_gt 0.058
_refine_ls_wR_factor_gt 0.058
loop_
_citation_database_id_CSD
_citation_special_details
GAQXOM "is a racemate of this entry"
_symmetry_cell_setting orthorhombic
_symmetry_space_group_name_H-M 'P 21 21 21'
_symmetry_Int_Tables_number 19
loop_
_symmetry_equiv_pos_site_id
_symmetry_equiv_pos_as_xyz
1 x,y,z
2 1/2-x,-y,1/2+z
3 1/2+x,1/2-y,-z
4 -x,1/2+y,1/2-z
_cell_length_a 6.8777(4)
_cell_length_b 6.3139(5)
_cell_length_c 33.940(2)
_cell_angle_alpha 90
_cell_angle_beta 90
_cell_angle_gamma 90
_cell_formula_units_Z 4
loop_
_atom_type_symbol
_atom_type_radius_bond
C 0.68
H 0.23
N 0.68
O 0.68
loop_
_atom_site_label
_atom_site_type_symbol
_atom_site_fract_x
_atom_site_fract_y
_atom_site_fract_z
O1 O 0.3845(4) 0.1635(4) 0.37645(7)
N1 N 0.4952(4) 0.3245(4) 0.37762(7)
C1 C 0.7085(5) 0.3142(5) 0.36944(9)
C2 C 0.7545(5) 0.5509(5) 0.3630(1)
C3 C 0.6092(5) 0.6670(6) 0.3890(1)
C4 C 0.4189(5) 0.5428(5) 0.38434(9)
C5 C 0.7487(5) 0.1820(5) 0.33274(9)
C6 C 0.9306(6) 0.0948(6) 0.3262(1)
C7 C 0.9698(7) -0.0187(7) 0.2917(1)
C8 C 0.8294(8) -0.0420(7) 0.2636(1)
C9 C 0.6487(7) 0.0443(8) 0.2693(1)
C10 C 0.6068(7) 0.1577(7) 0.3033(1)
C11 C 0.2945(5) 0.5529(6) 0.42168(9)
C12 C 0.2920(6) 0.3897(7) 0.44951(9)
C13 C 0.1796(6) 0.4107(8) 0.4836(1)
C14 C 0.0737(6) 0.5909(8) 0.4905(1)
C15 C 0.0790(6) 0.7541(8) 0.4634(1)
C16 C 0.1890(6) 0.7365(6) 0.4296(1)
C17 C 0.8077(6) 0.2271(6) 0.4068(1)
C18 C 0.3056(6) 0.6071(6) 0.34695(9)
H1 H 1.02800 0.10100 0.34600
H2 H 1.09200 -0.08300 0.28700
H3 H 0.86200 -0.10500 0.23900
H4 H 0.55300 0.01700 0.25000
H5 H 0.47600 0.19600 0.30900
H6 H 0.36200 0.26300 0.44400
H7 H 0.16600 0.29600 0.50100
H8 H -0.03500 0.61900 0.51700
H9 H 0.01600 0.88400 0.46900
H10 H 0.18300 0.84300 0.41000
H11 H 0.70200 0.54400 0.33100
H12 H 0.87400 0.62400 0.36700
H13 H 0.55300 0.82600 0.38000
H14 H 0.67900 0.67200 0.41300
H15 H 0.96100 0.18600 0.39700
H16 H 0.73900 0.10700 0.41600
H17 H 0.80600 0.33400 0.42600
H18 H 0.20600 0.46900 0.34500
H19 H 0.35300 0.63500 0.32000
H20 H 0.26500 0.74800 0.35300
#END
