
#######################################################################
#
#                 Cambridge Crystallographic Data Centre
#                                CCDC
#
#######################################################################
#
# If this CIF has been generated from an entry in the Cambridge
# Structural Database, then it will include bibliographic, chemical,
# crystal, experimental, refinement or atomic coordinate data resulting
# from the CCDC's data processing and validation procedures.
#
#######################################################################

data_CSD_CIF_TOLHIL
_audit_creation_date 1997-04-29
_audit_creation_method CSD-ConQuest-V1
_database_code_CSD TOLHIL
_database_code_depnum_ccdc_archive 'CCDC 1273668; CCDC 405282'
_database_code_depnum_ccdc_fiz 'CSD 405282'
_chemical_formula_sum 'C11 H19 N1 O4'
_chemical_formula_moiety
;
C11 H19 N1 O4
;
_journal_coden_Cambridge 24
_journal_volume 37
_journal_year 1996
_journal_page_first 6307
_journal_name_full 'Tetrahedron Lett. '
loop_
_publ_author_name
"G.Galley"
"J.Hubner"
"S.Anklam"
"P.G.Jones"
"M.Patzel"
_chemical_name_systematic
;
1-(2,2-Dimethyl-1,3-dioxolan-4-yl)-2,2,3-trimethyl-2-nitrocyclopropane
;
_cell_volume    649.076
_diffrn_ambient_temperature 143.15
#These two values have been output from a single CSD field.
_refine_ls_R_factor_gt 0.06
_refine_ls_wR_factor_gt 0.06
loop_
_citation_database_id_CSD
_citation_special_details
TOLHOR "is a stereoisomer of this entry"
_symmetry_cell_setting monoclinic
_symmetry_space_group_name_H-M 'P 21'
_symmetry_Int_Tables_number 4
loop_
_symmetry_equiv_pos_site_id
_symmetry_equiv_pos_as_xyz
1 x,y,z
2 -x,1/2+y,-z
_cell_length_a 6.638(2)
_cell_length_b 8.1071(14)
_cell_length_c 12.063(2)
_cell_angle_alpha 90
_cell_angle_beta 90.97(2)
_cell_angle_gamma 90
_cell_formula_units_Z 2
loop_
_atom_type_symbol
_atom_type_radius_bond
C 0.68
H 0.23
N 0.68
O 0.68
loop_
_atom_site_label
_atom_site_type_symbol
_atom_site_fract_x
_atom_site_fract_y
_atom_site_fract_z
C1 C 0.1422(6) 0.3024(5) 0.2524(3)
H1 H 0.0260(6) 0.3227(5) 0.2003(3)
C2 C 0.1884(8) 0.1191(6) 0.2605(4)
H2 H 0.1543(8) 0.0622(6) 0.1900(4)
H3 H 0.3326(8) 0.1004(6) 0.2787(4)
C3 C 0.0335(6) 0.1955(5) 0.4201(3)
C4 C -0.1843(8) 0.2018(8) 0.4487(5)
H4 H -0.2104(15) 0.3013(27) 0.4923(29)
H5 H -0.2190(16) 0.1040(26) 0.4922(29)
H6 H -0.2664(8) 0.2042(51) 0.3804(5)
C5 C 0.1687(9) 0.1807(6) 0.5227(4)
H7 H 0.1530(43) 0.2790(22) 0.5691(16)
H8 H 0.3094(10) 0.1711(47) 0.5003(4)
H9 H 0.1308(39) 0.0826(27) 0.5649(17)
C6 C 0.3201(5) 0.4037(5) 0.2210(2)
H10 H 0.4473(5) 0.3693(5) 0.2602(2)
C7 C 0.3527(4) 0.4576(5) 0.1037(2)
C8 C 0.3148(5) 0.5849(5) 0.1936(2)
C9 C 0.2085(5) 0.4281(6) 0.0085(3)
H11 H 0.0705(6) 0.4244(34) 0.0360(4)
H12 H 0.2406(27) 0.3228(17) -0.0270(14)
H13 H 0.2203(29) 0.5176(18) -0.0455(11)
C10 C 0.4814(6) 0.6923(6) 0.2372(3)
H14 H 0.4492(20) 0.7298(28) 0.3121(10)
H15 H 0.4966(27) 0.7880(18) 0.1885(13)
H16 H 0.6075(10) 0.6294(12) 0.2396(21)
C11 C 0.1147(6) 0.6757(5) 0.1872(3)
H17 H 0.1192(14) 0.7591(21) 0.1285(15)
H18 H 0.0897(19) 0.7297(26) 0.2584(8)
H19 H 0.0062(7) 0.5970(7) 0.1707(20)
N1 N 0.5653(4) 0.4506(5) 0.0651(2)
O1 O 0.0665(6) 0.0638(4) 0.3459(2)
O2 O 0.0901(6) 0.3438(3) 0.3635(2)
O3 O 0.6915(4) 0.3802(6) 0.1194(3)
O4 O 0.6032(5) 0.5202(6) -0.0200(3)
#END
