
#######################################################################
#
#                 Cambridge Crystallographic Data Centre
#                                CCDC
#
#######################################################################
#
# If this CIF has been generated from an entry in the Cambridge
# Structural Database, then it will include bibliographic, chemical,
# crystal, experimental, refinement or atomic coordinate data resulting
# from the CCDC's data processing and validation procedures.
#
#######################################################################

data_CSD_CIF_TOLHOR
_audit_creation_date 1997-04-29
_audit_creation_method CSD-ConQuest-V1
_database_code_CSD TOLHOR
_database_code_depnum_ccdc_archive 'CCDC 1273669; CCDC 405288'
_database_code_depnum_ccdc_fiz 'CSD 405288'
_chemical_formula_sum 'C11 H19 N1 O4'
_chemical_formula_moiety
;
C11 H19 N1 O4
;
_journal_coden_Cambridge 24
_journal_volume 37
_journal_year 1996
_journal_page_first 6307
_journal_name_full 'Tetrahedron Lett. '
loop_
_publ_author_name
"G.Galley"
"J.Hubner"
"S.Anklam"
"P.G.Jones"
"M.Patzel"
_chemical_name_systematic
;
1-(2,2-Dimethyl-1,3-dioxolan-4-yl)-2,2,3-trimethyl-2-nitrocyclopropane
;
_cell_volume   1244.268
_exptl_crystal_colour 'colorless'
_diffrn_ambient_temperature ?
_diffrn_special_details
;
The study was carried out at room temperature,in the range 283-303K

;
#These two values have been output from a single CSD field.
_refine_ls_R_factor_gt 0.1851
_refine_ls_wR_factor_gt 0.1851
loop_
_citation_database_id_CSD
_citation_special_details
TOLHIL "is a stereoisomer of this entry"
_symmetry_cell_setting tetragonal
_symmetry_space_group_name_H-M 'P 41'
_symmetry_Int_Tables_number 76
loop_
_symmetry_equiv_pos_site_id
_symmetry_equiv_pos_as_xyz
1 x,y,z
2 -y,x,1/4+z
3 -x,-y,1/2+z
4 y,-x,3/4+z
_cell_length_a 14.144(3)
_cell_length_b 14.144(3)
_cell_length_c 6.2197(12)
_cell_angle_alpha 90
_cell_angle_beta 90
_cell_angle_gamma 90
_cell_formula_units_Z 4
loop_
_atom_type_symbol
_atom_type_radius_bond
C 0.68
H 0.23
N 0.68
O 0.68
loop_
_atom_site_label
_atom_site_type_symbol
_atom_site_fract_x
_atom_site_fract_y
_atom_site_fract_z
C1 C 0.6486(9) 0.1471(9) 0.2897(21)
H1 H 0.6174(9) 0.1337(9) 0.4271(21)
C2 C 0.7204(9) 0.2308(9) 0.3123(26)
H2 H 0.7283(9) 0.2489(9) 0.4616(26)
H3 H 0.7815(9) 0.2141(9) 0.2527(26)
C3 C 0.5826(8) 0.2804(9) 0.1324(23)
C4 C 0.5144(10) 0.3214(10) 0.2892(23)
H4 H 0.4512(10) 0.3049(10) 0.2478(23)
H5 H 0.5208(10) 0.389(1) 0.2908(23)
H6 H 0.5273(10) 0.2968(10) 0.4300(23)
C5 C 0.5651(11) 0.3122(11) -0.0987(23)
H7 H 0.5016(11) 0.2962(11) -0.1398(23)
H8 H 0.6089(11) 0.2810(11) -0.1928(23)
H9 H 0.5737(11) 0.3794(11) -0.1090(23)
C6 C 0.6930(8) 0.0565(8) 0.1937(20)
H10 H 0.7042(8) 0.0620(8) 0.0387(20)
C7 C 0.7644(9) -0.0100(9) 0.3043(19)
C8 C 0.6593(9) -0.0406(9) 0.2570(24)
C9 C 0.8444(8) -0.0513(10) 0.1812(17)
H11 H 0.8815(8) -0.0906(10) 0.2744(17)
H12 H 0.8832(8) -0.0013(10) 0.1251(17)
H13 H 0.8202(8) -0.0885(10) 0.0646(17)
C10 C 0.6476(10) -0.1147(9) 0.0826(22)
H14 H 0.6918(10) -0.1026(9) -0.0313(22)
H15 H 0.5844(10) -0.1120(9) 0.0268(22)
H16 H 0.6592(10) -0.1763(9) 0.1418(22)
C11 C 0.5926(10) -0.0548(10) 0.4407(23)
H17 H 0.5793(10) -0.121(1) 0.4566(23)
H18 H 0.5349(10) -0.0213(10) 0.4129(23)
H19 H 0.6209(10) -0.0312(10) 0.5704(23)
N1 N 0.7860(9) 0.0038(9) 0.5353(17)
O1 O 0.6772(6) 0.3045(6) 0.1920(18)
O2 O 0.5822(6) 0.1774(6) 0.1328(15)
O3 O 0.8411(7) -0.0508(7) 0.6155(13)
O4 O 0.7502(7) 0.0702(7) 0.6326(14)
#END
