
#######################################################################
#
#                 Cambridge Crystallographic Data Centre
#                                CCDC
#
#######################################################################
#
# If this CIF has been generated from an entry in the Cambridge
# Structural Database, then it will include bibliographic, chemical,
# crystal, experimental, refinement or atomic coordinate data resulting
# from the CCDC's data processing and validation procedures.
#
#######################################################################

data_CSD_CIF_TOLKEK02
_audit_creation_date 2003-09-04
_audit_creation_method CSD-ConQuest-V1
_database_code_CSD TOLKEK02
_database_code_depnum_ccdc_archive 'CCDC 201184'
_chemical_formula_sum 'C7 H13 N2 O2'
_chemical_formula_moiety
;
C7 H13 N2 O2
;
_journal_coden_Cambridge 10
_journal_volume 86
_journal_year 2003
_journal_page_first 1234
_journal_name_full 'Helv.Chim.Acta '
loop_
_publ_author_name
"A.Zakrassov"
"V.Shteiman"
"Y.Sheynin"
"M.Botoshansky"
"M.Kapon"
"M.Kaftory"
"R.E.Del Sesto"
"J.S.Miller"
_chemical_name_systematic
;
4,5-Dihydro-4,4,5,5-tetramethyl-3-oxido-1H-imidazol-1-yloxyl radical
;
_cell_volume   3345.110
_exptl_crystal_colour 'red'
_exptl_crystal_density_diffrn 1.249
_exptl_special_details
;
beta polymorph
Cif has cell temperature 200 K, main diffraction temperature 293 K
;
_exptl_crystal_description 'plate'
_diffrn_ambient_temperature 200
#These two values have been output from a single CSD field.
_refine_ls_R_factor_gt 0.0588
_refine_ls_wR_factor_gt 0.0588
_symmetry_cell_setting monoclinic
_symmetry_space_group_name_H-M 'P 21/c'
_symmetry_Int_Tables_number 14
loop_
_symmetry_equiv_pos_site_id
_symmetry_equiv_pos_as_xyz
1 x,y,z
2 x,1/2-y,1/2+z
3 -x,-y,-z
4 -x,-1/2+y,-1/2-z
_cell_length_a 12.065(2)
_cell_length_b 14.033(3)
_cell_length_c 19.785(4)
_cell_angle_alpha 90
_cell_angle_beta 93.02(2)
_cell_angle_gamma 90
_cell_formula_units_Z 16
loop_
_atom_type_symbol
_atom_type_radius_bond
C 0.68
H 0.23
N 0.68
O 0.68
loop_
_atom_site_label
_atom_site_type_symbol
_atom_site_fract_x
_atom_site_fract_y
_atom_site_fract_z
O1 O 0.84432(15) 0.72046(14) 0.24459(12)
O2 O 0.88223(16) 0.39990(14) 0.20342(14)
N1 N 0.89026(16) 0.63986(14) 0.23406(11)
N2 N 0.90903(17) 0.48778(15) 0.21554(13)
C1 C 0.8379(2) 0.55829(19) 0.22454(14)
C2 C 1.01345(18) 0.62960(17) 0.22947(12)
C3 C 1.02655(18) 0.51931(18) 0.22222(12)
C4 C 1.0455(2) 0.6866(2) 0.16775(14)
H1 H 1.00730 0.66140 0.12790
H2 H 1.12410 0.68210 0.16320
H3 H 1.02510 0.75220 0.17330
C5 C 1.0700(2) 0.6724(2) 0.29280(14)
H4 H 1.05080 0.73860 0.29570
H5 H 1.14900 0.66630 0.29070
H6 H 1.04600 0.63950 0.33190
C6 C 1.0855(3) 0.4852(2) 0.16119(16)
H7 H 1.08660 0.41680 0.16060
H8 H 1.16020 0.50900 0.16350
H9 H 1.04710 0.50830 0.12070
C7 C 1.0772(3) 0.4693(2) 0.28508(16)
H10 H 1.03420 0.48380 0.32320
H11 H 1.15210 0.49100 0.29380
H12 H 1.07720 0.40170 0.27770
H13 H 0.767(2) 0.5474(19) 0.2281(13)
O3 O 0.39751(15) 0.98045(13) 0.25387(11)
O4 O 0.33808(14) 0.66072(13) 0.21386(10)
N3 N 0.41679(16) 0.89244(14) 0.24225(11)
N4 N 0.38876(16) 0.74032(14) 0.22317(11)
C8 C 0.3410(2) 0.82392(19) 0.23497(14)
C9 C 0.53018(19) 0.85854(18) 0.22776(13)
C10 C 0.51329(18) 0.74784(17) 0.22916(12)
C11 C 0.5540(3) 0.8992(2) 0.15865(15)
H14 H 0.50010 0.87540 0.12540
H15 H 0.62690 0.88020 0.14690
H16 H 0.54990 0.96740 0.16020
C12 C 0.6132(2) 0.8966(2) 0.28167(16)
H17 H 0.61600 0.96490 0.27880
H18 H 0.68530 0.87080 0.27460
H19 H 0.59060 0.87830 0.32560
C13 C 0.5630(2) 0.69360(18) 0.17156(13)
H20 H 0.54140 0.62780 0.17350
H21 H 0.64250 0.69820 0.17570
H22 H 0.53660 0.72050 0.12910
C14 C 0.5492(2) 0.70077(19) 0.29627(13)
H23 H 0.51670 0.73420 0.33270
H24 H 0.62860 0.70280 0.30240
H25 H 0.52480 0.63570 0.29590
H26 H 0.269(2) 0.8366(19) 0.2399(13)
O5 O 0.35498(16) -0.03356(14) -0.00113(14)
O6 O 0.41166(14) 0.28601(13) 0.03961(10)
N5 N 0.33518(16) 0.05362(15) 0.01194(12)
N6 N 0.36181(16) 0.20566(14) 0.03025(11)
C15 C 0.4104(2) 0.12242(18) 0.02053(14)
C16 C 0.22141(19) 0.08751(18) 0.02552(13)
C17 C 0.23718(18) 0.19768(17) 0.02127(12)
C18 C 0.1391(2) 0.0460(2) -0.02669(16)
H27 H 0.16470 0.05690 -0.07120
H28 H 0.06820 0.07600 -0.02290
H29 H 0.13210 -0.02130 -0.01920
C19 C 0.1983(3) 0.0505(2) 0.09572(15)
H30 H 0.20260 -0.01780 0.09600
H31 H 0.12540 0.07000 0.10730
H32 H 0.25240 0.07590 0.12820
C20 C 0.2054(2) 0.23962(19) -0.04809(13)
H33 H 0.23180 0.30400 -0.05010
H34 H 0.12610 0.23900 -0.05540
H35 H 0.23820 0.20230 -0.08240
C21 C 0.1833(2) 0.25531(19) 0.07561(13)
H36 H 0.21160 0.23460 0.11940
H37 H 0.10430 0.24610 0.07180
H38 H 0.19980 0.32160 0.06990
H39 H 0.483(2) 0.1084(17) 0.0169(12)
O7 O 0.91032(15) 0.21796(14) -0.00413(13)
O8 O 0.85902(15) 0.53734(13) 0.03278(13)
N7 N 0.86135(16) 0.29694(15) 0.00645(11)
N8 N 0.83627(16) 0.44923(14) 0.02293(11)
C22 C 0.9100(2) 0.38134(18) 0.01299(14)
C23 C 0.73866(18) 0.30232(17) 0.01626(12)
C24 C 0.71955(18) 0.41326(17) 0.01953(12)
C25 C 0.6782(2) 0.25292(18) -0.04318(13)
H40 H 0.69850 0.28210 -0.08460
H41 H 0.59950 0.25870 -0.03910
H42 H 0.69830 0.18670 -0.04340
C26 C 0.7180(2) 0.2498(2) 0.08122(13)
H43 H 0.74020 0.18440 0.07700
H44 H 0.64050 0.25260 0.08970
H45 H 0.76030 0.27890 0.11810
C27 C 0.6635(2) 0.4562(2) -0.04438(15)
H46 H 0.66420 0.52450 -0.04090
H47 H 0.58820 0.43420 -0.04940
H48 H 0.70290 0.43710 -0.08300
C28 C 0.6616(2) 0.4479(2) 0.08031(16)
H49 H 0.70450 0.43080 0.12080
H50 H 0.58950 0.41910 0.08090
H51 H 0.65390 0.51590 0.07810
H52 H 0.9848(19) 0.3953(16) 0.0084(11)
#END
