
#######################################################################
#
#                 Cambridge Crystallographic Data Centre
#                                CCDC
#
#######################################################################
#
# If this CIF has been generated from an entry in the Cambridge
# Structural Database, then it will include bibliographic, chemical,
# crystal, experimental, refinement or atomic coordinate data resulting
# from the CCDC's data processing and validation procedures.
#
#######################################################################

data_CSD_CIF_TOLKEK03
_audit_creation_date 2003-09-04
_audit_creation_method CSD-ConQuest-V1
_database_code_CSD TOLKEK03
_database_code_depnum_ccdc_archive 'CCDC 201185'
_chemical_formula_sum 'C7 H13 N2 O2'
_chemical_formula_moiety
;
C7 H13 N2 O2
;
_journal_coden_Cambridge 10
_journal_volume 86
_journal_year 2003
_journal_page_first 1234
_journal_name_full 'Helv.Chim.Acta '
loop_
_publ_author_name
"A.Zakrassov"
"V.Shteiman"
"Y.Sheynin"
"M.Botoshansky"
"M.Kapon"
"M.Kaftory"
"R.E.Del Sesto"
"J.S.Miller"
_chemical_name_systematic
;
4,5-Dihydro-4,4,5,5-tetramethyl-3-oxido-1H-imidazol-1-yloxyl radical
;
_cell_volume    818.445
_exptl_crystal_colour 'light yellow'
_exptl_crystal_density_diffrn 1.276
_exptl_special_details
;
alpha polymorph

;
_exptl_crystal_description 'prism'
_diffrn_ambient_temperature 293
#These two values have been output from a single CSD field.
_refine_ls_R_factor_gt 0.0618
_refine_ls_wR_factor_gt 0.0618
_symmetry_cell_setting monoclinic
_symmetry_space_group_name_H-M 'P 21/n'
_symmetry_Int_Tables_number 14
loop_
_symmetry_equiv_pos_site_id
_symmetry_equiv_pos_as_xyz
1 x,y,z
2 1/2+x,1/2-y,1/2+z
3 -x,-y,-z
4 -1/2-x,-1/2+y,-1/2-z
_cell_length_a 11.741(4)
_cell_length_b 11.502(4)
_cell_length_c 6.251(3)
_cell_angle_alpha 90
_cell_angle_beta 104.18(3)
_cell_angle_gamma 90
_cell_formula_units_Z 4
loop_
_atom_type_symbol
_atom_type_radius_bond
C 0.68
H 0.23
N 0.68
O 0.68
loop_
_atom_site_label
_atom_site_type_symbol
_atom_site_fract_x
_atom_site_fract_y
_atom_site_fract_z
O1 O 0.04120(19) 0.6783(2) 0.0634(4)
O2 O 0.1704(2) 0.40664(19) 0.6068(4)
N1 N 0.0976(2) 0.6318(2) 0.2436(4)
N2 N 0.1616(2) 0.5014(2) 0.4990(4)
C1 C 0.0893(3) 0.5221(3) 0.3037(5)
C2 C 0.2446(3) 0.6019(2) 0.5707(5)
C3 C 0.1743(3) 0.7017(3) 0.4288(5)
C4 C 0.2673(3) 0.6185(3) 0.8171(5)
H1 H 0.19380 0.62580 0.85740
H2 H 0.31300 0.68770 0.85940
H3 H 0.30960 0.55270 0.89120
C5 C 0.3573(3) 0.5698(3) 0.5057(5)
H4 H 0.38960 0.50030 0.58200
H5 H 0.41300 0.63200 0.54490
H6 H 0.34040 0.55680 0.34940
C6 C 0.0912(3) 0.7650(3) 0.5407(6)
H7 H 0.13600 0.80940 0.66270
H8 H 0.04350 0.70940 0.59340
H9 H 0.04180 0.81620 0.43680
C7 C 0.2477(3) 0.7877(3) 0.3386(6)
H10 H 0.29420 0.74690 0.25600
H11 H 0.29850 0.82870 0.45850
H12 H 0.19710 0.84200 0.24400
H13 H 0.039(3) 0.469(3) 0.213(5)
#END
