
#######################################################################
#
#                 Cambridge Crystallographic Data Centre
#                                CCDC
#
#######################################################################
#
# If this CIF has been generated from an entry in the Cambridge
# Structural Database, then it will include bibliographic, chemical,
# crystal, experimental, refinement or atomic coordinate data resulting
# from the CCDC's data processing and validation procedures.
#
#######################################################################

data_CSD_CIF_TOLXUO
_audit_creation_date 2009-05-12
_audit_creation_method CSD-ConQuest-V1
_database_code_CSD TOLXUO
_database_code_depnum_ccdc_archive 'CCDC 686081'
_chemical_formula_sum 'C19 H21 N3 O6'
_chemical_formula_moiety
;
C19 H21 N3 O6
;
_journal_coden_Cambridge 1352
_journal_volume 9
_journal_year 2008
_journal_page_first 2244
_journal_name_full 'ChemBioChem '
loop_
_publ_author_name
"S.Luisier"
"C.J.Leumann"
_chemical_name_systematic
;
1-(5-((Benzyloxy)imino)-3a,6-dihydroxyhexahydro-2H-cyclopenta[b]furan-2-yl)-5-
methyl-2,4(1H,3H)-pyrimidinedione
;
_chemical_name_common
;
(6'-Benzyloximino-2'-deoxy-3',5'-ethano-beta-D-ribofuranosyl)thymine
;
_chemical_melting_point 477.15
_cell_volume    891.929
_exptl_crystal_colour 'colorless'
_exptl_crystal_density_diffrn 1.442
_exptl_special_details
;
Melts with decomposition.
tested for uptake into HeLa cells

;
_exptl_crystal_description 'plate'
_exptl_crystal_preparation 'methanol'
_diffrn_ambient_temperature 173
#These two values have been output from a single CSD field.
_refine_ls_R_factor_gt 0.0353
_refine_ls_wR_factor_gt 0.0353
_symmetry_cell_setting monoclinic
_symmetry_space_group_name_H-M 'P 21'
_symmetry_Int_Tables_number 4
loop_
_symmetry_equiv_pos_site_id
_symmetry_equiv_pos_as_xyz
1 x,y,z
2 -x,1/2+y,-z
_cell_length_a 11.7411(16)
_cell_length_b 6.7662(6)
_cell_length_c 12.1812(19)
_cell_angle_alpha 90
_cell_angle_beta 112.825(16)
_cell_angle_gamma 90
_cell_formula_units_Z 2
loop_
_atom_type_symbol
_atom_type_radius_bond
C 0.68
H 0.23
N 0.68
O 0.68
loop_
_atom_site_label
_atom_site_type_symbol
_atom_site_fract_x
_atom_site_fract_y
_atom_site_fract_z
O1 O 0.75113(18) 0.7267(3) 0.0417(2)
O2 O 0.99266(19) 0.9519(3) 0.0975(2)
H1 H 1.048(2) 1.031(3) 0.151(2)
O3 O 0.8301(2) 0.3934(3) 0.1819(2)
H2 H 0.756(3) 0.3851(5) 0.1379(19)
O4 O 1.21575(18) 0.3455(4) 0.3174(2)
O5 O 0.31087(19) 0.8445(4) 0.1463(2)
O6 O 0.59888(19) 1.2083(3) 0.0777(2)
N1 N 1.0962(2) 0.2983(4) 0.2334(3)
N2 N 0.6509(2) 0.8907(4) 0.1472(2)
N3 N 0.4611(2) 1.0234(4) 0.1213(3)
H3 H 0.41120 1.12610 0.10440
C1 C 1.0326(3) 0.4570(5) 0.1970(3)
C2 C 1.0746(3) 0.6648(5) 0.2291(3)
H4 H 1.14580 0.69510 0.20740
H5 H 1.09940 0.68710 0.31560
C3 C 0.9636(3) 0.7931(5) 0.1578(3)
C4 C 0.8836(2) 0.8640(5) 0.2229(3)
H6 H 0.87830 0.76370 0.27990
H7 H 0.91470 0.98980 0.26560
C5 C 0.7601(2) 0.8917(5) 0.1190(3)
H8 H 0.76220 1.01710 0.07630
C6 C 0.8735(3) 0.6556(5) 0.0619(3)
H9 H 0.88870 0.66430 -0.01330
C7 C 0.8991(2) 0.4434(5) 0.1125(3)
H10 H 0.88730 0.34390 0.04830
C8 C 1.2915(3) 0.1733(5) 0.3427(3)
H11 H 1.37920 0.21490 0.37870
H12 H 1.27860 0.10600 0.26660
C9 C 1.2682(3) 0.0261(6) 0.4252(3)
C10 C 1.3369(3) -0.1474(6) 0.4502(3)
H13 H 1.39730 -0.16830 0.41750
C11 C 1.3176(4) -0.2888(7) 0.5222(4)
H14 H 1.36380 -0.40810 0.53840
C12 C 1.2304(5) -0.2563(8) 0.5710(4)
H15 H 1.21750 -0.35330 0.62150
C13 C 1.1630(4) -0.0864(8) 0.5472(4)
H16 H 1.10270 -0.06610 0.58020
C14 C 1.1822(3) 0.0582(6) 0.4743(4)
H17 H 1.13610 0.17770 0.45870
C15 C 0.6179(3) 0.7221(5) 0.1911(3)
H18 H 0.67660 0.61800 0.21750
C16 C 0.5084(3) 0.6954(5) 0.1990(3)
C17 C 0.4177(3) 0.8525(5) 0.1541(3)
C18 C 0.5724(3) 1.0516(5) 0.1122(3)
C19 C 0.4694(3) 0.5115(5) 0.2406(4)
H19 H 0.39860 0.45400 0.17540
H20 H 0.44580 0.54190 0.30760
H21 H 0.53800 0.41690 0.26640
#END
