
#######################################################################
#
#                 Cambridge Crystallographic Data Centre
#                                CCDC
#
#######################################################################
#
# If this CIF has been generated from an entry in the Cambridge
# Structural Database, then it will include bibliographic, chemical,
# crystal, experimental, refinement or atomic coordinate data resulting
# from the CCDC's data processing and validation procedures.
#
#######################################################################

data_CSD_CIF_TOMCOP
_audit_creation_date 2014-07-22
_audit_creation_method CSD-ConQuest-V1
_database_code_CSD TOMCOP
_database_code_depnum_ccdc_archive 'CCDC 914544'
_chemical_formula_sum 'C11 H7 N1 O3'
_chemical_formula_moiety
;
C11 H7 N1 O3
;
_journal_coden_Cambridge 493
_journal_volume 76
_journal_year 2014
_journal_page_first 460
_journal_name_full 'Eur.J.Med.Chem. '
loop_
_publ_author_name
"G.Saidachary"
"K.Veera Prasad"
"D.Divya"
"Ashita Singh"
"U.Ramesh"
"B.Sridhar"
"B.China Raju"
_chemical_name_systematic
;
3H,10H-Benzo[6,7]oxepino[3,4-c]isoxazol-3-one
;
_cell_volume   3573.105
_exptl_crystal_colour 'colorless'
_exptl_crystal_density_diffrn 1.496
_exptl_crystal_description 'block'
_diffrn_ambient_temperature 294
#These two values have been output from a single CSD field.
_refine_ls_R_factor_gt 0.0259
_refine_ls_wR_factor_gt 0.0259
_symmetry_cell_setting orthorhombic
_symmetry_space_group_name_H-M 'F d d 2'
_symmetry_Int_Tables_number 43
loop_
_symmetry_equiv_pos_site_id
_symmetry_equiv_pos_as_xyz
1 x,y,z
2 -x,-y,z
3 1/4+x,1/4-y,1/4+z
4 1/4-x,1/4+y,1/4+z
5 x,1/2+y,1/2+z
6 -x,1/2-y,1/2+z
7 1/4+x,3/4-y,3/4+z
8 1/4-x,3/4+y,3/4+z
9 1/2+x,y,1/2+z
10 1/2-x,-y,1/2+z
11 3/4+x,1/4-y,3/4+z
12 3/4-x,1/4+y,3/4+z
13 1/2+x,1/2+y,z
14 1/2-x,1/2-y,z
15 3/4+x,3/4-y,1/4+z
16 3/4-x,3/4+y,1/4+z
_cell_length_a 19.4953(19)
_cell_length_b 24.910(2)
_cell_length_c 7.3577(7)
_cell_angle_alpha 90
_cell_angle_beta 90
_cell_angle_gamma 90
_cell_formula_units_Z 16
loop_
_atom_type_symbol
_atom_type_radius_bond
C 0.68
H 0.23
N 0.68
O 0.68
loop_
_atom_site_label
_atom_site_type_symbol
_atom_site_fract_x
_atom_site_fract_y
_atom_site_fract_z
C1 C 0.08794(9) 0.17715(7) 0.1248(3)
C2 C 0.1462(1) 0.20163(8) 0.0567(3)
H1 H 0.14620 0.23840 0.03470
C3 C 0.20462(10) 0.17167(9) 0.0211(3)
H2 H 0.24360 0.18860 -0.02380
C4 C 0.20545(9) 0.11711(9) 0.0515(3)
H3 H 0.24470 0.09720 0.02660
C5 C 0.14767(10) 0.09243(8) 0.1192(3)
H4 H 0.14850 0.05560 0.13960
C6 C 0.08729(9) 0.12123(7) 0.1585(3)
C7 C 0.02873(9) 0.09049(7) 0.2186(3)
H5 H 0.03350 0.05340 0.21470
C8 C -0.03177(9) 0.10893(7) 0.2795(3)
C9 C -0.09209(10) 0.07646(8) 0.3229(3)
C10 C -0.05323(9) 0.16281(7) 0.3164(3)
C11 C -0.00734(10) 0.21052(7) 0.3041(3)
H6 H -0.03470 0.24300 0.30970
H7 H 0.02400 0.21070 0.40650
N1 N -0.11574(8) 0.16625(7) 0.3702(3)
O1 O 0.03102(6) 0.20977(5) 0.1382(2)
O2 O -0.14257(7) 0.11207(6) 0.3737(2)
O3 O -0.10345(8) 0.02920(6) 0.3160(3)
#END
