
#######################################################################
#
#                 Cambridge Crystallographic Data Centre
#                                CCDC
#
#######################################################################
#
# If this CIF has been generated from an entry in the Cambridge
# Structural Database, then it will include bibliographic, chemical,
# crystal, experimental, refinement or atomic coordinate data resulting
# from the CCDC's data processing and validation procedures.
#
#######################################################################

data_CSD_CIF_TOMCIJ
_audit_creation_date 2014-07-22
_audit_creation_method CSD-ConQuest-V1
_database_code_CSD TOMCIJ
_database_code_depnum_ccdc_archive 'CCDC 915647'
_chemical_formula_sum 'C19 H18 N2 O5'
_chemical_formula_moiety
;
C19 H18 N2 O5
;
_journal_coden_Cambridge 493
_journal_volume 73
_journal_year 2014
_journal_page_first 112
_journal_name_full 'Eur.J.Med.Chem. '
loop_
_publ_author_name
"D.V.Tsyganov"
"V.N.Khrustalev"
"L.D.Konyushkin"
"M.M.Raihstat"
"S.I.Firgang"
"R.V.Semenov"
"A.S.Kiselyov"
"M.N.Semenova"
"V.V.Semenov"
_chemical_name_systematic
;
5-(8-Methoxy-2,3-dihydro-1,4-benzodioxin-6-yl)-4-(4-methoxyphenyl)-1,2-oxazol-
3-amine
;
_cell_volume   1748.457
_exptl_crystal_colour 'colorless'
_exptl_crystal_density_diffrn 1.346
_exptl_crystal_description 'prism'
_diffrn_ambient_temperature 296
_refine_special_details
;
C15,C16 and C15',C16' disordered over two sites with occupancies 0.50:0.50; 
C34,C35 and C34',C35' disordered over two sites with occupancies 0.60:0.40.
;
#These two values have been output from a single CSD field.
_refine_ls_R_factor_gt 0.0476
_refine_ls_wR_factor_gt 0.0476
_symmetry_cell_setting triclinic
_symmetry_space_group_name_H-M 'P -1'
_symmetry_Int_Tables_number 2
loop_
_symmetry_equiv_pos_site_id
_symmetry_equiv_pos_as_xyz
1 x,y,z
2 -x,-y,-z
_cell_length_a 10.256(2)
_cell_length_b 10.895(2)
_cell_length_c 17.258(4)
_cell_angle_alpha 105.428(4)
_cell_angle_beta 93.505(4)
_cell_angle_gamma 107.801(4)
_cell_formula_units_Z 4
loop_
_atom_type_symbol
_atom_type_radius_bond
C 0.68
H 0.23
N 0.68
O 0.68
loop_
_atom_site_label
_atom_site_type_symbol
_atom_site_fract_x
_atom_site_fract_y
_atom_site_fract_z
O1 O 0.20701(10) 0.91271(9) 1.05815(6)
O2 O 0.40760(11) 0.95175(11) 0.63454(6)
O3 O 0.19419(14) 1.47964(11) 1.03509(8)
O4 O 0.04756(10) 1.31081(9) 1.12494(5)
O5 O 0.34545(13) 1.39442(11) 0.93038(7)
N1 N 0.23717(13) 0.78919(11) 1.04055(7)
N2 N 0.32436(17) 0.67054(14) 0.93424(9)
H1 H 0.347(2) 0.662(2) 0.8859(13)
H2 H 0.311(2) 0.604(2) 0.9544(12)
C1 C 0.28521(15) 0.77775(13) 0.97050(8)
C2 C 0.28923(13) 0.88785(13) 0.93956(8)
C3 C 0.23941(13) 0.96734(12) 0.99695(7)
C4 C 0.32546(13) 0.90253(12) 0.86007(7)
C5 C 0.46132(14) 0.93860(16) 0.84532(9)
H3 H 0.53230 0.95100 0.88590
C6 C 0.49376(15) 0.95668(17) 0.77087(9)
H4 H 0.58550 0.98130 0.76210
C7 C 0.38841(14) 0.93774(13) 0.71029(8)
C8 C 0.25152(14) 0.90077(15) 0.72388(8)
H5 H 0.18060 0.88760 0.68310
C9 C 0.22073(14) 0.88361(15) 0.79815(8)
H6 H 0.12890 0.85910 0.80680
C10 C 0.54762(19) 0.9918(3) 0.61875(11)
H7 H 0.54780 0.99300 0.56330
H8 H 0.59050 0.92880 0.62770
H9 H 0.59830 1.08040 0.65460
C11 C 0.22089(13) 1.09777(12) 1.00535(7)
C12 C 0.29393(14) 1.18078(13) 0.96136(8)
H10 H 0.35040 1.15130 0.92600
C13 C 0.28121(15) 1.30618(14) 0.97107(9)
C14 C 0.19816(15) 1.35216(13) 1.02554(8)
C15 C 0.1657(3) 1.5369(3) 1.12097(16)
H11 H 0.23930 1.54390 1.16170
H12 H 0.15760 1.62560 1.12850
C16 C 0.0296(4) 1.4362(4) 1.1267(2)
H13 H -0.00250 1.47160 1.17690
H14 H -0.03980 1.42220 1.08150
C17 C 0.12627(13) 1.26900(13) 1.06891(7)
C18 C 0.13641(13) 1.14160(12) 1.05850(7)
H15 H 0.08710 1.08590 1.08690
C19 C 0.4361(2) 1.35390(17) 0.87682(12)
H16 H 0.47410 1.42250 0.85140
H17 H 0.38490 1.27060 0.83580
H18 H 0.50990 1.34150 0.90740
C20? C 0.0634(3) 1.4929(3) 1.06615(16)
H19? H 0.06390 1.58520 1.07770
H20? H -0.01780 1.43360 1.02680
C21? C 0.0655(4) 1.4524(4) 1.1420(2)
H21? H 0.15310 1.50540 1.17730
H22? H -0.00800 1.47150 1.17050
O6 O 0.11873(10) 0.47302(9) 0.32395(6)
O7 O 0.43717(10) 0.60758(10) 0.77434(5)
O8 O 0.09601(13) -0.10672(10) 0.33723(6)
O9 O 0.05266(11) -0.00657(10) 0.20441(6)
O10 O 0.17197(13) 0.05696(10) 0.48548(6)
N3 N 0.13645(13) 0.61380(11) 0.34783(7)
N4 N 0.22444(16) 0.79058(13) 0.46911(8)
H23 H 0.256(2) 0.815(2) 0.5187(12)
H24 H 0.192(2) 0.841(2) 0.4487(12)
C22 C 0.19221(14) 0.65915(13) 0.42539(8)
C23 C 0.21356(13) 0.55490(13) 0.45533(8)
C24 C 0.16515(13) 0.44259(13) 0.38922(7)
C25 C 0.27485(13) 0.57189(12) 0.53910(7)
C26 C 0.41748(14) 0.61242(15) 0.56117(8)
H25 H 0.47490 0.63080 0.52310
C27 C 0.47635(14) 0.62619(16) 0.63933(9)
H26 H 0.57210 0.65400 0.65330
C28 C 0.39032(13) 0.59783(13) 0.69612(8)
C29 C 0.24731(14) 0.55761(14) 0.67508(8)
H27 H 0.18990 0.53880 0.71310
C30 C 0.19049(13) 0.54554(14) 0.59747(8)
H28 H 0.09480 0.51950 0.58390
C31 C 0.58423(15) 0.65898(17) 0.80000(9)
H29 H 0.60380 0.66740 0.85670
H30 H 0.62180 0.74600 0.79180
H31 H 0.62550 0.59800 0.76870
C32 C 0.15085(13) 0.30021(13) 0.37534(7)
C33 C 0.17043(14) 0.25114(13) 0.44119(8)
H32 H 0.19500 0.30950 0.49400
C34 C 0.15302(15) 0.11579(14) 0.42688(8)
C35 C 0.11367(14) 0.02682(13) 0.34739(8)
C36 C 0.0951(3) -0.1784(2) 0.24982(13)
H33 H 0.18810 -0.15140 0.23660
H34 H 0.06340 -0.27530 0.24090
C37 C 0.0008(3) -0.1434(2) 0.19668(15)
H35 H -0.00690 -0.19560 0.14050
H36 H -0.09090 -0.16550 0.21220
C38 C 0.09416(13) 0.07637(13) 0.28286(8)
C39 C 0.11465(13) 0.21291(13) 0.29658(7)
H37 H 0.10410 0.24580 0.25290
C40 C 0.2054(2) 0.14153(17) 0.56803(9)
H38 H 0.21450 0.08910 0.60350
H39 H 0.13300 0.17860 0.58110
H40 H 0.29130 0.21370 0.57490
C41? C -0.0002(4) -0.1976(3) 0.2641(2)
H41? H -0.09280 -0.19290 0.26730
H42? H -0.00390 -0.29020 0.25620
C42? C 0.0594(5) -0.1460(4) 0.1965(2)
H43? H 0.00800 -0.20770 0.14440
H44? H 0.15510 -0.14290 0.19810
#END
