
#######################################################################
#
#                 Cambridge Crystallographic Data Centre
#                                CCDC
#
#######################################################################
#
# If this CIF has been generated from an entry in the Cambridge
# Structural Database, then it will include bibliographic, chemical,
# crystal, experimental, refinement or atomic coordinate data resulting
# from the CCDC's data processing and validation procedures.
#
#######################################################################

data_CSD_CIF_TOMMUE
_audit_creation_date 2009-05-12
_audit_creation_method CSD-ConQuest-V1
_database_code_CSD TOMMUE
_database_code_depnum_ccdc_archive 'CCDC 695318'
_chemical_formula_sum 'C13 H14 N2 O4'
_chemical_formula_moiety
;
C13 H14 N2 O4
;
_journal_coden_Cambridge 16
_journal_volume 64
_journal_year 2008
_journal_page_first 11697
_journal_name_full 'Tetrahedron '
loop_
_publ_author_name
"A.Sartori"
"C.Curti"
"L.Battistini"
"P.Burreddu"
"G.Rassu"
"G.Pelosi"
"G.Casiraghi"
"F.Zanardi"
_chemical_name_systematic
;
syn-(R*)-4-Methoxy-5-[(S*)-2-nitro-1-phenylethyl]-1H-pyrrol-2(5H)-one
;
_chemical_melting_point 456.15
_cell_volume   1326.416
_exptl_crystal_colour 'colorless'
_exptl_crystal_density_diffrn 1.313
_exptl_special_details
;
Melting point range 456.15-458.15K

;
_diffrn_ambient_temperature 293
#These two values have been output from a single CSD field.
_refine_ls_R_factor_gt 0.0652
_refine_ls_wR_factor_gt 0.0652
_symmetry_cell_setting monoclinic
_symmetry_space_group_name_H-M 'P 21/a'
_symmetry_Int_Tables_number 14
loop_
_symmetry_equiv_pos_site_id
_symmetry_equiv_pos_as_xyz
1 x,y,z
2 1/2-x,1/2+y,-z
3 -x,-y,-z
4 -1/2+x,-1/2-y,z
_cell_length_a 9.4065(10)
_cell_length_b 10.8737(11)
_cell_length_c 13.1263(18)
_cell_angle_alpha 90
_cell_angle_beta 98.906(2)
_cell_angle_gamma 90
_cell_formula_units_Z 4
loop_
_atom_type_symbol
_atom_type_radius_bond
C 0.68
H 0.23
N 0.68
O 0.68
loop_
_atom_site_label
_atom_site_type_symbol
_atom_site_fract_x
_atom_site_fract_y
_atom_site_fract_z
O1 O 0.8916(2) -0.14956(16) 0.47841(16)
O2 O 0.53341(18) -0.00946(16) 0.66981(14)
O3 O 1.0442(3) 0.3056(3) 0.86341(18)
O4 O 0.8284(3) 0.3582(3) 0.8410(3)
N1 N 0.8467(3) 0.03097(18) 0.55743(15)
N2 N 0.9241(3) 0.3067(2) 0.8131(2)
C1 C 0.8115(3) 0.1215(2) 0.72801(19)
C2 C 0.8181(3) -0.0867(2) 0.52916(18)
C3 C 0.9037(3) 0.2355(3) 0.7165(2)
H1 H 0.99650 0.21050 0.70010
H2 H 0.85670 0.28640 0.66050
C4 C 0.6862(3) -0.1228(2) 0.56793(18)
C5 C 0.6440(2) -0.0263(2) 0.62008(17)
C6 C 0.7458(3) 0.0800(2) 0.61894(18)
C7 C 0.8866(3) 0.0202(2) 0.79305(17)
C8 C 0.8186(3) -0.0344(3) 0.8684(2)
C9 C 0.8835(4) -0.1298(3) 0.9276(3)
C10 C 1.0180(4) -0.1701(3) 0.9149(3)
C11 C 1.0859(4) -0.1163(4) 0.8417(3)
C12 C 1.0228(3) -0.0234(3) 0.7813(2)
C13 C 0.4380(3) -0.1112(3) 0.6732(3)
H3 H 0.36250 -0.08830 0.71100
H4 H 0.49030 -0.17960 0.70660
H5 H 0.39700 -0.13400 0.60420
H6 H 1.076(3) 0.012(3) 0.741(2)
H7 H 1.174(4) -0.141(4) 0.842(3)
H8 H 1.062(3) -0.241(3) 0.947(2)
H9 H 0.838(4) -0.179(4) 0.968(3)
H10 H 0.724(3) -0.011(3) 0.874(2)
H11 H 0.636(3) -0.202(3) 0.555(2)
H12 H 0.921(3) 0.068(3) 0.547(2)
H13 H 0.694(3) 0.157(2) 0.587(2)
H14 H 0.734(3) 0.161(3) 0.759(2)
#END
