
#######################################################################
#
#                 Cambridge Crystallographic Data Centre
#                                CCDC
#
#######################################################################
#
# If this CIF has been generated from an entry in the Cambridge
# Structural Database, then it will include bibliographic, chemical,
# crystal, experimental, refinement or atomic coordinate data resulting
# from the CCDC's data processing and validation procedures.
#
#######################################################################

data_CSD_CIF_TOMMIS
_audit_creation_date 2009-05-12
_audit_creation_method CSD-ConQuest-V1
_database_code_CSD TOMMIS
_database_code_depnum_ccdc_archive 'CCDC 695151'
_chemical_formula_sum 'C24 H16 N2 O4'
_chemical_formula_moiety
;
C24 H16 N2 O4
;
_journal_coden_Cambridge 16
_journal_volume 64
_journal_year 2008
_journal_page_first 11763
_journal_name_full 'Tetrahedron '
loop_
_publ_author_name
"A.V.Samet"
"K.A.Kislyi"
"V.N.Marshalkin"
"Yu.A.Strelenko"
"M.M.Raihstat"
"Yu.V.Nelyubina"
"V.V.Semenov"
_chemical_name_systematic
;
11-(4-Methylphenoxy)-9-nitrobenzo[f]naphtho[2,1-b][1,4]oxazepine
;
_chemical_melting_point 429.15
_cell_volume   3573.652
_exptl_crystal_colour 'colorless'
_exptl_crystal_density_diffrn 1.473
_exptl_special_details
;
Melting point range 429.15-432.15K

;
_exptl_crystal_description 'prism'
_exptl_crystal_preparation 'acetonitrile'
_diffrn_ambient_temperature 100
#These two values have been output from a single CSD field.
_refine_ls_R_factor_gt 0.049
_refine_ls_wR_factor_gt 0.049
_symmetry_cell_setting orthorhombic
_symmetry_space_group_name_H-M 'P b c a'
_symmetry_Int_Tables_number 61
loop_
_symmetry_equiv_pos_site_id
_symmetry_equiv_pos_as_xyz
1 x,y,z
2 1/2-x,-y,1/2+z
3 -x,1/2+y,1/2-z
4 1/2+x,1/2-y,-z
5 -x,-y,-z
6 -1/2+x,y,-1/2-z
7 x,-1/2-y,-1/2+z
8 -1/2-x,-1/2+y,z
_cell_length_a 7.2939(9)
_cell_length_b 13.9611(14)
_cell_length_c 35.094(5)
_cell_angle_alpha 90
_cell_angle_beta 90
_cell_angle_gamma 90
_cell_formula_units_Z 8
loop_
_atom_type_symbol
_atom_type_radius_bond
C 0.68
H 0.23
N 0.68
O 0.68
loop_
_atom_site_label
_atom_site_type_symbol
_atom_site_fract_x
_atom_site_fract_y
_atom_site_fract_z
C1 C -0.0192(3) -0.02282(16) 0.34988(7)
H1 H -0.07200 -0.01360 0.37370
C2 C 0.0484(3) -0.11080(16) 0.34040(7)
H2 H 0.03990 -0.16100 0.35770
C3 C 0.1306(3) -0.12609(17) 0.30475(7)
H3 H 0.17620 -0.18630 0.29860
C4 C 0.0751(3) 0.03941(16) 0.28772(6)
C5 C 0.1441(3) -0.05286(16) 0.27910(7)
H4 H 0.19940 -0.06380 0.25560
C6 C 0.0880(3) 0.11663(16) 0.26191(6)
H5 H 0.14510 0.10750 0.23850
C7 C 0.0179(3) 0.20455(17) 0.27079(6)
H6 H 0.02680 0.25470 0.25340
C8 C -0.0672(3) 0.21897(15) 0.30591(6)
O1 O -0.1512(2) 0.30877(11) 0.31141(4)
C9 C -0.0818(3) 0.36204(16) 0.34127(6)
C10 C -0.0262(3) 0.45483(15) 0.33371(6)
H7 H -0.02830 0.47960 0.30910
C11 C 0.0326(3) 0.50913(15) 0.36417(6)
C12 C 0.0441(3) 0.47508(16) 0.40100(6)
H8 H 0.09020 0.51290 0.42060
C13 C -0.0154(3) 0.38261(16) 0.40766(6)
C14 C -0.0840(3) 0.32470(15) 0.37818(6)
C15 C -0.1711(3) 0.23277(16) 0.38731(7)
H9 H -0.23160 0.23030 0.41060
N1 N -0.1758(3) 0.15548(13) 0.36773(5)
C16 C -0.0834(3) 0.14724(15) 0.33282(6)
C17 C -0.0102(3) 0.05490(16) 0.32376(6)
N2 N 0.0844(3) 0.61001(13) 0.35748(6)
O2 O 0.0664(2) 0.64185(11) 0.32517(5)
O3 O 0.1418(2) 0.65700(11) 0.38439(5)
O4 O -0.0186(2) 0.34417(11) 0.44376(4)
C18 C 0.1362(3) 0.36000(16) 0.46672(6)
C19 C 0.1075(3) 0.38987(15) 0.50349(6)
H10 H -0.01060 0.40220 0.51220
C20 C 0.2568(3) 0.40148(16) 0.52747(7)
H11 H 0.23780 0.42220 0.55230
C21 C 0.4336(3) 0.38286(16) 0.51523(7)
C22 C 0.4587(3) 0.35151(15) 0.47792(7)
H12 H 0.57640 0.33800 0.46930
C23 C 0.3105(3) 0.34011(16) 0.45338(7)
H13 H 0.32840 0.31950 0.42850
C24 C 0.5959(3) 0.39770(18) 0.54087(7)
H14 H 0.55490 0.40420 0.56670
H15 H 0.65990 0.45470 0.53340
H16 H 0.67680 0.34370 0.53890
#END
