
#######################################################################
#
#                 Cambridge Crystallographic Data Centre
#                                CCDC
#
#######################################################################
#
# If this CIF has been generated from an entry in the Cambridge
# Structural Database, then it will include bibliographic, chemical,
# crystal, experimental, refinement or atomic coordinate data resulting
# from the CCDC's data processing and validation procedures.
#
#######################################################################

data_CSD_CIF_TONZUS
_audit_creation_date 2009-05-12
_audit_creation_method CSD-ConQuest-V1
_database_code_CSD TONZUS
_database_code_depnum_ccdc_archive 'CCDC 680887'
_chemical_formula_sum 'C15 H17 N1 O6'
_chemical_formula_moiety
;
C15 H17 N1 O6
;
_journal_coden_Cambridge 10
_journal_volume 91
_journal_year 2008
_journal_page_first 1807
_journal_name_full 'Helv.Chim.Acta '
loop_
_publ_author_name
"R.Sanabria"
"R.Herrera"
"R.Aguilar"
"C.Gonzalez-Romero"
"H.A.Jimenez-Vazquez"
"F.Delgado"
"B.C.G.Soderberg"
"J.Tamariz"
_chemical_name_systematic
;
4-Nitrobenzoic acid 6-ethoxy-2-methyl-5,6-dihydro-4H-pyran-3-yl ester
;
_chemical_name_common
;
2-Ethoxy-6-methyl-3,4-dihydro-2H-pyran-5-yl 4-nitrobenzoate
;
_chemical_melting_point 360
_cell_volume    775.734
_exptl_crystal_colour 'yellow'
_exptl_crystal_density_diffrn 1.316
_exptl_special_details
;
Melting point range 360-362K

;
_exptl_crystal_description 'prism'
_diffrn_ambient_temperature 293
#These two values have been output from a single CSD field.
_refine_ls_R_factor_gt 0.042
_refine_ls_wR_factor_gt 0.042
_symmetry_cell_setting triclinic
_symmetry_space_group_name_H-M 'P -1'
_symmetry_Int_Tables_number 2
loop_
_symmetry_equiv_pos_site_id
_symmetry_equiv_pos_as_xyz
1 x,y,z
2 -x,-y,-z
_cell_length_a 7.8575(6)
_cell_length_b 10.1281(8)
_cell_length_c 10.3925(8)
_cell_angle_alpha 86.287(2)
_cell_angle_beta 78.957(2)
_cell_angle_gamma 72.879(2)
_cell_formula_units_Z 2
loop_
_atom_type_symbol
_atom_type_radius_bond
C 0.68
H 0.23
N 0.68
O 0.68
loop_
_atom_site_label
_atom_site_type_symbol
_atom_site_fract_x
_atom_site_fract_y
_atom_site_fract_z
C1 C 0.8115(3) 0.6308(2) 0.3274(2)
H1 H 0.81190 0.54390 0.37490
C2 C 0.6415(3) 0.6838(2) 0.2734(2)
H2 H 0.63550 0.61760 0.21220
H3 H 0.64070 0.76990 0.22630
C3 C 0.4790(3) 0.7077(2) 0.3835(2)
H4 H 0.37240 0.76710 0.35330
H5 H 0.45620 0.62040 0.41220
C4 C 0.5180(3) 0.77409(19) 0.49427(19)
C5 C 0.6764(3) 0.78657(19) 0.50515(18)
C6 C 0.7150(3) 0.8622(2) 0.6084(2)
H6 H 0.84180 0.85500 0.59290
H7 H 0.68190 0.82290 0.69270
H8 H 0.64630 0.95770 0.60650
C7 C 1.1265(3) 0.5292(3) 0.2628(3)
H9 H 1.11130 0.44600 0.30910
H10 H 1.16370 0.58250 0.32070
C8 C 1.2670(3) 0.4921(3) 0.1423(3)
H11 H 1.22750 0.44200 0.08420
H12 H 1.37840 0.43560 0.16560
H13 H 1.28560 0.57480 0.09920
C9 C 0.2880(3) 0.7649(2) 0.67497(19)
C10 C 0.1230(2) 0.84984(19) 0.76042(17)
C11 C 0.0303(3) 0.7826(2) 0.85706(19)
H14 H 0.07200 0.68720 0.86660
C12 C -0.1229(3) 0.8565(2) 0.93886(19)
H15 H -0.18590 0.81210 1.00370
C13 C -0.1805(2) 0.9969(2) 0.92251(18)
C14 C -0.0910(3) 1.0663(2) 0.8280(2)
H16 H -0.13290 1.16180 0.81930
C15 C 0.0610(3) 0.9917(2) 0.74688(19)
H17 H 0.12310 1.03680 0.68220
N1 N -0.3417(2) 1.0776(2) 1.0121(2)
O1 O 0.82884(17) 0.72933(13) 0.41441(13)
O2 O 0.96012(19) 0.60816(15) 0.22654(14)
O3 O 0.36557(18) 0.84315(13) 0.58778(13)
O4 O 0.3447(2) 0.64240(16) 0.68132(16)
O5 O -0.4054(2) 1.01845(19) 1.10704(16)
O6 O -0.4027(2) 1.1991(2) 0.98690(19)
H18? H 0.60480 0.90210 0.66840
H19? H 0.76480 0.93420 0.56870
H20? H 0.80040 0.79940 0.65490
#END
