
#######################################################################
#
#                 Cambridge Crystallographic Data Centre
#                                CCDC
#
#######################################################################
#
# If this CIF has been generated from an entry in the Cambridge
# Structural Database, then it will include bibliographic, chemical,
# crystal, experimental, refinement or atomic coordinate data resulting
# from the CCDC's data processing and validation procedures.
#
#######################################################################

data_CSD_CIF_TOPXUT
_audit_creation_date 2014-07-23
_audit_creation_method CSD-ConQuest-V1
_database_code_CSD TOPXUT
_database_code_depnum_ccdc_archive 'CCDC 846547'
_chemical_formula_sum 'C17 H17 N3 O4'
_chemical_formula_moiety
;
C17 H17 N3 O4
;
_journal_coden_Cambridge 315
_journal_volume 125
_journal_year 2014
_journal_page_first 328
_journal_name_full 'Spectrochim.Acta,Part A '
loop_
_publ_author_name
"R.Balachander"
_chemical_name_systematic
;
2-(Ethoxycarbonylmethoxy)-5-(phenylazo)benzaldoxime
;
_cell_volume   1640.462
_exptl_crystal_colour 'orange'
_exptl_crystal_density_diffrn 1.325
_exptl_crystal_description 'block'
_diffrn_ambient_temperature 293
#These two values have been output from a single CSD field.
_refine_ls_R_factor_gt 0.0508
_refine_ls_wR_factor_gt 0.0508
_symmetry_cell_setting monoclinic
_symmetry_space_group_name_H-M 'P 21/c'
_symmetry_Int_Tables_number 14
loop_
_symmetry_equiv_pos_site_id
_symmetry_equiv_pos_as_xyz
1 x,y,z
2 -x,1/2+y,1/2-z
3 -x,-y,-z
4 x,-1/2-y,-1/2+z
_cell_length_a 7.4640(11)
_cell_length_b 22.034(3)
_cell_length_c 10.5312(17)
_cell_angle_alpha 90
_cell_angle_beta 108.709(4)
_cell_angle_gamma 90
_cell_formula_units_Z 4
loop_
_atom_type_symbol
_atom_type_radius_bond
C 0.68
H 0.23
N 0.68
O 0.68
loop_
_atom_site_label
_atom_site_type_symbol
_atom_site_fract_x
_atom_site_fract_y
_atom_site_fract_z
C1 C 1.1293(5) 0.42913(12) 0.9739(3)
H1 H 1.02920 0.43090 1.01270
H2 H 1.14780 0.46860 0.94180
H3 H 1.24390 0.41610 1.04060
C2 C 1.0794(4) 0.38654(10) 0.8633(3)
H4 H 1.18350 0.38230 0.82760
H5 H 0.96970 0.40110 0.79210
C3 C 0.9638(2) 0.28599(8) 0.82014(18)
C4 C 0.9246(2) 0.22932(8) 0.88648(17)
H6 H 1.04160 0.21240 0.94570
H7 H 0.84190 0.23830 0.93880
C5 C 0.7975(2) 0.13083(7) 0.81702(17)
C6 C 0.7156(2) 0.09165(7) 0.70909(16)
C7 C 0.6879(2) 0.11254(8) 0.57226(17)
H8 H 0.73760 0.14980 0.55890
C8 C 0.6656(2) 0.03326(7) 0.73667(16)
H9 H 0.60800 0.00700 0.66630
C9 C 0.7007(2) 0.01406(7) 0.86769(17)
C10 C 0.7855(3) 0.05362(8) 0.97320(18)
H10 H 0.81050 0.04060 1.06120
C11 C 0.8322(3) 0.11158(8) 0.94797(18)
H11 H 0.88710 0.13790 1.01870
C12 C 0.6502(2) -0.12189(8) 1.03645(18)
C13 C 0.5579(3) -0.16588(9) 0.9452(2)
H12 H 0.51820 -0.15750 0.85390
C14 C 0.5249(3) -0.22202(9) 0.9898(2)
H13 H 0.46210 -0.25140 0.92820
C15 C 0.5837(3) -0.23523(10) 1.1243(2)
H14 H 0.56060 -0.27340 1.15350
C16 C 0.6770(3) -0.19195(11) 1.2157(2)
H15 H 0.71780 -0.20090 1.30680
C17 C 0.7098(3) -0.13537(10) 1.1720(2)
H16 H 0.77230 -0.10610 1.23390
N1 N 0.5979(2) 0.08110(7) 0.47215(14)
N2 N 0.6461(2) -0.04673(6) 0.88680(14)
N3 N 0.6957(2) -0.06171(7) 1.00705(15)
O1 O 1.0373(2) 0.32800(6) 0.91299(13)
O2 O 0.9358(2) 0.29232(7) 0.70352(14)
O3 O 0.83651(18) 0.18793(6) 0.78249(12)
O4 O 0.5941(2) 0.10968(7) 0.35304(13)
H17 H 0.53510 0.08860 0.28910
#END
