
#######################################################################
#
#                 Cambridge Crystallographic Data Centre
#                                CCDC
#
#######################################################################
#
# If this CIF has been generated from an entry in the Cambridge
# Structural Database, then it will include bibliographic, chemical,
# crystal, experimental, refinement or atomic coordinate data resulting
# from the CCDC's data processing and validation procedures.
#
#######################################################################

data_CSD_CIF_TOPYUU
_audit_creation_date 2014-07-23
_audit_creation_method CSD-ConQuest-V1
_database_code_CSD TOPYUU
_database_code_depnum_ccdc_archive 'CCDC 952279'
_chemical_formula_sum 'C16 H13 N3 O5'
_chemical_formula_moiety
;
C16 H13 N3 O5
;
_journal_coden_Cambridge 315
_journal_volume 121
_journal_year 2014
_journal_page_first 662
_journal_name_full 'Spectrochim.Acta,Part A '
loop_
_publ_author_name
"V.Suryanti"
"M.Bhadbhade"
"H.M.Chawla"
"D.S.Black"
"N.Kumar"
_chemical_name_systematic
;
2-(2-Acetamidophenyl)-N-(4-nitrophenyl)-2-oxoacetamide
;
_cell_volume    745.475
_exptl_crystal_colour 'yellow'
_exptl_crystal_density_diffrn 1.458
_exptl_crystal_description 'Plates'
_diffrn_ambient_temperature 155
#These two values have been output from a single CSD field.
_refine_ls_R_factor_gt 0.0258
_refine_ls_wR_factor_gt 0.0258
_symmetry_cell_setting monoclinic
_symmetry_space_group_name_H-M 'P c'
_symmetry_Int_Tables_number 7
loop_
_symmetry_equiv_pos_site_id
_symmetry_equiv_pos_as_xyz
1 x,y,z
2 x,-y,1/2+z
_cell_length_a 7.3289(9)
_cell_length_b 10.7810(13)
_cell_length_c 10.0984(11)
_cell_angle_alpha 90
_cell_angle_beta 110.886(3)
_cell_angle_gamma 90
_cell_formula_units_Z 2
loop_
_atom_type_symbol
_atom_type_radius_bond
C 0.68
H 0.23
N 0.68
O 0.68
loop_
_atom_site_label
_atom_site_type_symbol
_atom_site_fract_x
_atom_site_fract_y
_atom_site_fract_z
O1 O 0.5527(2) 0.49331(16) 0.61221(19)
O2 O 0.8594(3) 0.31710(16) 0.8263(2)
O3 O 0.9804(3) 0.50209(15) 0.58998(19)
O4 O 1.2854(3) 1.09695(18) 0.8040(2)
O5 O 1.3740(3) 1.06700(17) 1.0281(2)
N1 N 0.5850(3) 0.43679(17) 0.4055(2)
H1 H 0.57390 0.46340 0.32060
N2 N 0.9959(3) 0.54746(18) 0.8145(2)
H2 H 0.97490 0.51610 0.88830
N3 N 1.3008(3) 1.03108(19) 0.9053(3)
C1 C 0.6597(3) 0.3153(2) 0.4417(3)
C2 C 0.7655(3) 0.2745(2) 0.5798(3)
C3 C 0.8123(3) 0.1482(2) 0.6002(3)
H3 H 0.87740 0.11840 0.69380
C4 C 0.7671(4) 0.0660(2) 0.4889(3)
H4 H 0.79900 -0.01940 0.50580
C5 C 0.6743(3) 0.1091(2) 0.3518(3)
H5 H 0.64940 0.05430 0.27370
C6 C 0.6180(3) 0.2322(2) 0.3291(3)
H6 H 0.54990 0.26040 0.23520
C7 C 0.5290(3) 0.5161(2) 0.4871(3)
C8 C 0.4399(4) 0.6357(2) 0.4177(3)
H7 H 0.32730 0.65610 0.44440
H8 H 0.39710 0.62670 0.31450
H9 H 0.53700 0.70220 0.44880
C9 C 0.8463(3) 0.3531(2) 0.7094(3)
C10 C 0.9455(3) 0.4768(2) 0.6972(3)
C11 C 1.0794(3) 0.6675(2) 0.8306(3)
C12 C 1.1774(3) 0.7088(2) 0.9685(3)
H10 H 1.19320 0.65450 1.04590
C13 C 1.2517(3) 0.8273(2) 0.9939(3)
H11 H 1.31840 0.85570 1.08790
C14 C 1.2268(3) 0.9043(2) 0.8789(3)
C15 C 1.1368(3) 0.8643(2) 0.7415(3)
H12 H 1.12630 0.91810 0.66460
C16 C 1.0615(3) 0.7450(2) 0.7160(3)
H13 H 0.99870 0.71630 0.62160
#END
