
#######################################################################
#
#                 Cambridge Crystallographic Data Centre
#                                CCDC
#
#######################################################################
#
# If this CIF has been generated from an entry in the Cambridge
# Structural Database, then it will include bibliographic, chemical,
# crystal, experimental, refinement or atomic coordinate data resulting
# from the CCDC's data processing and validation procedures.
#
#######################################################################

data_CSD_CIF_TOQBEI
_audit_creation_date 2014-07-23
_audit_creation_method CSD-ConQuest-V1
_database_code_CSD TOQBEI
_database_code_depnum_ccdc_archive 'CCDC 974936'
_chemical_formula_sum 'C12 H12 N6 O4'
_chemical_formula_moiety
;
C12 H12 N6 O4
;
_journal_coden_Cambridge 315
_journal_volume 127
_journal_year 2014
_journal_page_first 303
_journal_name_full 'Spectrochim.Acta,Part A '
loop_
_publ_author_name
"E.Kucharska"
"I.Bryndal"
"J.Hanuza"
"T.Lis"
_chemical_name_systematic
;
2,2'-hydrazine-1,2-diylbis(4-methyl-3-nitropyridine)
;
_cell_volume    317.754
_exptl_crystal_colour 'colorless'
_exptl_crystal_density_diffrn 1.59
_exptl_crystal_description 'needle'
_diffrn_ambient_temperature 100
#These two values have been output from a single CSD field.
_refine_ls_R_factor_gt 0.0491
_refine_ls_wR_factor_gt 0.0491
_symmetry_cell_setting triclinic
_symmetry_space_group_name_H-M 'P -1'
_symmetry_Int_Tables_number 2
loop_
_symmetry_equiv_pos_site_id
_symmetry_equiv_pos_as_xyz
1 x,y,z
2 -x,-y,-z
_cell_length_a 3.837(1)
_cell_length_b 6.757(2)
_cell_length_c 12.348(4)
_cell_angle_alpha 85.70(5)
_cell_angle_beta 84.62(5)
_cell_angle_gamma 88.32(5)
_cell_formula_units_Z 1
loop_
_atom_type_symbol
_atom_type_radius_bond
C 0.68
H 0.23
N 0.68
O 0.68
loop_
_atom_site_label
_atom_site_type_symbol
_atom_site_fract_x
_atom_site_fract_y
_atom_site_fract_z
N1 N 0.5599(3) 0.51136(17) 0.44691(9)
H1 H 0.709(6) 0.606(3) 0.4245(15)
C1 C 0.5095(3) 0.36441(18) 0.38141(10)
C2 C 0.6267(3) 0.37433(17) 0.26933(10)
C3 C 0.5776(3) 0.21440(18) 0.20687(10)
C4 C 0.3982(3) 0.05495(18) 0.2605(1)
H2 H 0.35920 -0.05820 0.22240
C5 C 0.2764(4) 0.06008(18) 0.36871(10)
H3 H 0.14790 -0.04990 0.40210
N2 N 0.3271(3) 0.20960(15) 0.42987(8)
N3 N 0.7955(3) 0.55099(16) 0.21999(9)
O1 O 0.9330(3) 0.66108(14) 0.27855(8)
O2 O 0.7974(4) 0.58879(18) 0.12137(9)
C6 C 0.7135(4) 0.2018(2) 0.08959(10)
H4 H 0.71010 0.06370 0.07070
H5 H 0.95410 0.24920 0.07840
H6 H 0.56510 0.28440 0.04310
N1A N 0.4401(3) 0.48864(17) 0.55309(9)
H1A H 0.291(6) 0.394(3) 0.5755(15)
C1A C 0.4905(3) 0.63559(18) 0.61859(10)
C2A C 0.3733(3) 0.62567(17) 0.73067(10)
C3A C 0.4224(3) 0.78560(18) 0.79313(10)
C4A C 0.6018(3) 0.94505(18) 0.7395(1)
H2A H 0.64080 1.05820 0.77760
C5A C 0.7236(4) 0.93992(18) 0.63129(10)
H3A H 0.85210 1.04990 0.59790
N2A N 0.6729(3) 0.79040(15) 0.57013(8)
N3A N 0.2045(3) 0.44901(16) 0.78001(9)
O1A O 0.0670(3) 0.33892(14) 0.72145(8)
O2A O 0.2026(4) 0.41121(18) 0.87863(9)
C6A C 0.2865(4) 0.7982(2) 0.91041(10)
H4A H 0.28990 0.93630 0.92930
H5A H 0.04590 0.75080 0.92160
H6A H 0.43490 0.71560 0.95690
#END
