
#######################################################################
#
#                 Cambridge Crystallographic Data Centre
#                                CCDC
#
#######################################################################
#
# If this CIF has been generated from an entry in the Cambridge
# Structural Database, then it will include bibliographic, chemical,
# crystal, experimental, refinement or atomic coordinate data resulting
# from the CCDC's data processing and validation procedures.
#
#######################################################################

data_CSD_CIF_TOQBIM
_audit_creation_date 2014-07-23
_audit_creation_method CSD-ConQuest-V1
_database_code_CSD TOQBIM
_database_code_depnum_ccdc_archive 'CCDC 977628'
_chemical_formula_sum 'C30 H47 N1 O3'
_chemical_formula_moiety
;
C30 H47 N1 O3
;
_journal_coden_Cambridge 122
_journal_year 2014
_journal_page_first 72
_journal_name_full 'Khim.Get.Soedin.,SSSR(Russ.)(Chem.Heterocycl.Compd.) '
loop_
_publ_author_name
"N.V.Galaiko"
"A.V.Nazarov"
"I.A.Tolmacheva"
"P.A.Slepukhin"
"Yu.B.Vikharev"
"O.A.Maiorova"
"V.V.Grishko"
_chemical_name_systematic
;
2-(hydroxyimino)-19,28-epoxyoleanan-3-one
;
_cell_volume   2687.930
_exptl_crystal_colour 'colorless'
_exptl_crystal_density_diffrn 1.161
_exptl_crystal_description 'prism'
_diffrn_ambient_temperature 295
_refine_special_details
;
C23,C24,C4 and C23B,C24B,C4B disordered over two sites with occupancies 
0.50:0.50.
;
#These two values have been output from a single CSD field.
_refine_ls_R_factor_gt 0.0375
_refine_ls_wR_factor_gt 0.0375
_symmetry_cell_setting monoclinic
_symmetry_space_group_name_H-M 'P 21'
_symmetry_Int_Tables_number 4
loop_
_symmetry_equiv_pos_site_id
_symmetry_equiv_pos_as_xyz
1 x,y,z
2 -x,1/2+y,-z
_cell_length_a 14.3403(12)
_cell_length_b 11.9744(6)
_cell_length_c 15.7895(17)
_cell_angle_alpha 90
_cell_angle_beta 97.531(8)
_cell_angle_gamma 90
_cell_formula_units_Z 4
loop_
_atom_type_symbol
_atom_type_radius_bond
C 0.68
H 0.23
N 0.68
O 0.68
loop_
_atom_site_label
_atom_site_type_symbol
_atom_site_fract_x
_atom_site_fract_y
_atom_site_fract_z
O1 O 1.7453(2) 0.5603(2) 0.89123(17)
N1 N 1.6890(2) 0.6021(2) 0.94870(19)
C1 C 1.4997(8) 0.7901(13) 0.9492(12)
O2 O 1.2879(2) 0.6426(2) 0.35317(14)
C2 C 1.5560(3) 0.6946(3) 0.9765(3)
O3 O 1.5703(2) 0.6652(2) 1.05022(16)
C3 C 1.6143(3) 0.6500(3) 0.9124(2)
C4 C 1.5870(2) 0.6642(3) 0.81840(18)
H1 H 1.60170 0.59620 0.78960
H2 H 1.62410 0.72410 0.79830
C5 C 1.4826(2) 0.6909(3) 0.79447(19)
C6 C 1.4668(2) 0.7249(2) 0.69819(19)
H3 H 1.51390 0.78300 0.69340
C7 C 1.4903(2) 0.6343(3) 0.63782(19)
H4 H 1.44530 0.57400 0.63820
H5 H 1.55220 0.60460 0.65800
C8 C 1.4893(2) 0.6759(3) 0.54683(18)
H6 H 1.54060 0.72840 0.54490
H7 H 1.49970 0.61330 0.51020
C9 C 1.3972(2) 0.7324(3) 0.51298(19)
H8 H 1.34670 0.67750 0.51410
C10 C 1.3975(2) 0.7698(3) 0.4191(2)
H9 H 1.45480 0.81160 0.41250
C11 C 1.3844(3) 0.6713(3) 0.3566(2)
H10 H 1.42330 0.60840 0.37980
C12 C 1.4064(3) 0.6983(3) 0.2661(2)
C13 C 1.3397(3) 0.7928(3) 0.2310(2)
H11 H 1.36400 0.82710 0.18270
H12 H 1.27860 0.76120 0.21050
C14 C 1.3276(3) 0.8826(3) 0.2972(2)
H13 H 1.27530 0.93030 0.27530
H14 H 1.38380 0.92850 0.30530
C15 C 1.3099(3) 0.8358(3) 0.3840(2)
C16 C 1.2841(3) 0.9249(3) 0.4437(2)
H15 H 1.22180 0.95270 0.42290
H16 H 1.32780 0.98660 0.44310
C17 C 1.2850(3) 0.8848(3) 0.5357(2)
H17 H 1.23430 0.83170 0.53790
H18 H 1.27340 0.94800 0.57130
C18 C 1.3781(2) 0.8297(3) 0.5722(2)
C19 C 1.3718(2) 0.7814(3) 0.6646(2)
C20 C 1.3547(3) 0.8761(3) 0.7256(2)
H19 H 1.39910 0.93580 0.71930
H20 H 1.29190 0.90550 0.70920
C21 C 1.3643(3) 0.8418(3) 0.8181(2)
H21 H 1.31680 0.78640 0.82570
H22 H 1.35380 0.90620 0.85290
C22 C 1.4556(2) 0.9188(2) 0.5736(2)
H23 H 1.46660 0.93490 0.51620
H24 H 1.51250 0.89150 0.60570
H25 H 1.43610 0.98570 0.59980
C23 C 1.5090(2) 0.7328(3) 0.2677(2)
H26 H 1.54870 0.68100 0.30200
H27 H 1.51780 0.80640 0.29150
H28 H 1.52500 0.73280 0.21050
C24 C 1.3873(2) 0.5942(3) 0.21070(19)
H29 H 1.42930 0.53560 0.23260
H30 H 1.39700 0.61110 0.15310
H31 H 1.32350 0.57050 0.21160
C25 C 1.2906(2) 0.6971(3) 0.6615(2)
H32 H 1.26400 0.70000 0.71410
H33 H 1.31390 0.62330 0.65340
H34 H 1.24310 0.71550 0.61490
C26 C 1.2379(2) 0.7410(4) 0.3705(2)
H35 H 1.20740 0.73080 0.42120
H36 H 1.19020 0.75810 0.32280
C27 C 1.4280(2) 0.5857(2) 0.8152(2)
H37 H 1.44480 0.56640 0.87430
H38 H 1.44340 0.52500 0.77990
H39 H 1.36160 0.60030 0.80440
C28 C 1.5535(7) 0.8940(8) 0.9827(7)
H40 H 1.55860 0.89540 1.04400
H41 H 1.52060 0.95930 0.95980
H42 H 1.61530 0.89270 0.96560
C29 C 1.4082(8) 0.7824(10) 0.9927(8)
H43 H 1.42460 0.77710 1.05350
H44 H 1.37310 0.71740 0.97220
H45 H 1.37060 0.84790 0.97910
C30 C 1.4625(3) 0.7931(3) 0.84808(19)
H46 H 1.50370 0.84960 0.82770
H47 H 1.787(3) 0.533(3) 0.934(3)
C31? C 1.4864(7) 0.8810(8) 0.9896(6)
H48? H 1.54400 0.90930 0.97300
H49? H 1.49390 0.87030 1.05040
H50? H 1.43660 0.93340 0.97350
C32? C 1.3776(7) 0.7174(8) 0.9816(8)
H51? H 1.36020 0.64790 0.95350
H52? H 1.32550 0.76820 0.97290
H53? H 1.39440 0.70440 1.04160
C33? C 1.4619(9) 0.7678(13) 0.9443(12)
O4 O 1.2245(2) 1.0357(2) 0.88878(16)
N2 N 1.1628(2) 1.0021(3) 0.94427(19)
C34 C 0.9255(3) 0.9025(3) 0.9362(2)
O5 O 0.8987(2) 0.64908(19) 0.35110(14)
C35 C 1.0278(4) 0.9143(4) 0.9695(3)
O6 O 1.0559(2) 0.9080(3) 1.04589(18)
C36 C 1.0931(3) 0.9438(3) 0.9091(2)
C37 C 1.0775(2) 0.9128(3) 0.81633(19)
H54 H 1.13150 0.87140 0.80210
H55 H 1.07160 0.98020 0.78190
C38 C 0.9876(2) 0.8407(3) 0.7950(2)
C39 C 0.9608(2) 0.8481(3) 0.6956(2)
H56 H 0.96220 0.92820 0.68300
C40 C 1.0343(2) 0.7975(3) 0.64523(19)
H57 H 1.03510 0.71700 0.65260
H58 H 1.09600 0.82580 0.66770
C41 C 1.0141(2) 0.8251(3) 0.54980(19)
H59 H 1.02400 0.90430 0.54210
H60 H 1.05860 0.78510 0.51970
C42 C 0.9156(2) 0.7955(3) 0.5104(2)
H61 H 0.90940 0.71420 0.51470
C43 C 0.8993(2) 0.8247(2) 0.4153(2)
H62 H 0.91470 0.90350 0.40740
C44 C 0.9515(2) 0.7521(3) 0.3580(2)
H63 H 1.01570 0.73820 0.38540
C45 C 0.9536(3) 0.8027(3) 0.2693(2)
C46 C 0.8524(2) 0.8163(3) 0.2256(2)
H64 H 0.85220 0.86690 0.17770
H65 H 0.82950 0.74440 0.20340
C47 C 0.7855(2) 0.8609(3) 0.2852(2)
H66 H 0.72120 0.85070 0.25860
H67 H 0.79620 0.94030 0.29370
C48 C 0.7988(3) 0.8011(4) 0.3733(2)
C49 C 0.7229(2) 0.8393(3) 0.4260(2)
H68 H 0.71610 0.91980 0.42120
H69 H 0.66340 0.80590 0.40290
C50 C 0.7452(2) 0.8080(3) 0.5196(2)
H70 H 0.74210 0.72750 0.52480
H71 H 0.69740 0.83970 0.55050
C51 C 0.8420(2) 0.8477(3) 0.5615(2)
C52 C 0.8612(2) 0.8105(3) 0.6574(2)
C53 C 0.7894(2) 0.8651(3) 0.70874(19)
H72 H 0.78660 0.94450 0.69650
H73 H 0.72770 0.83390 0.69020
C54 C 0.8130(2) 0.8485(3) 0.8042(2)
H74 H 0.81270 0.76940 0.81710
H75 H 0.76530 0.88430 0.83310
C55 C 0.8439(2) 0.9763(3) 0.55196(19)
H76 H 0.84050 0.99540 0.49260
H77 H 0.90110 1.00510 0.58240
H78 H 0.79110 1.00810 0.57490
C56 C 1.0053(2) 0.7211(3) 0.21454(19)
H79 H 0.97110 0.65210 0.20730
H80 H 1.06760 0.70700 0.24290
H81 H 1.00910 0.75390 0.15960
C57 C 1.0073(2) 0.9159(3) 0.2763(2)
H82 H 0.97620 0.96710 0.31010
H83 H 1.00820 0.94640 0.22020
H84 H 1.07070 0.90410 0.30290
C58 C 0.8488(2) 0.6809(2) 0.6647(2)
H85 H 0.86970 0.65760 0.72220
H86 H 0.88550 0.64400 0.62640
H87 H 0.78370 0.66190 0.64990
C59 C 0.8038(3) 0.6760(3) 0.3601(2)
H88 H 0.78450 0.63680 0.40870
H89 H 0.76240 0.65410 0.30930
C60 C 1.0126(2) 0.7216(2) 0.82849(19)
H90 H 1.04650 0.72610 0.88500
H91 H 1.05100 0.68540 0.79130
H92 H 0.95590 0.67950 0.83000
C61 C 0.8785(3) 1.0117(3) 0.9652(2)
H93 H 0.88970 1.01760 1.02630
H94 H 0.81200 1.00900 0.94690
H95 H 0.90500 1.07530 0.94010
C62 C 0.8856(3) 0.8035(3) 0.9818(2)
H96 H 0.91630 0.73590 0.96800
H97 H 0.81930 0.79730 0.96350
H98 H 0.89620 0.81530 1.04240
C63 C 0.9092(2) 0.8974(3) 0.83725(19)
H99 H 0.90750 0.97510 0.81780
H100 H 1.269(2) 1.059(3) 0.929(2)
#END
