
#######################################################################
#
#                 Cambridge Crystallographic Data Centre
#                                CCDC
#
#######################################################################
#
# If this CIF has been generated from an entry in the Cambridge
# Structural Database, then it will include bibliographic, chemical,
# crystal, experimental, refinement or atomic coordinate data resulting
# from the CCDC's data processing and validation procedures.
#
#######################################################################

data_CSD_CIF_TOQMUH01
_audit_creation_date 1998-05-14
_audit_creation_method CSD-ConQuest-V1
_database_code_CSD TOQMUH01
_database_code_depnum_ccdc_archive 'CCDC 129748'
_chemical_formula_sum 'C5 H5 N3 O2'
_chemical_formula_moiety
;
C5 H5 N3 O2
;
_journal_coeditor_code "IUCr SK1128"
_journal_coden_Cambridge 591
_journal_volume 54
_journal_year 1998
_journal_page_first 441
_journal_name_full 'Acta Crystallogr.,Sect.C:Cryst.Struct.Commun. '
loop_
_publ_author_name
"O.Angelova"
"R.Petrova"
"V.Atanasov"
_chemical_name_systematic
;
2-(Nitramino)pyridine
;
_chemical_melting_point 463.15
_cell_volume   1137.249
_exptl_crystal_colour 'colorless'
_exptl_crystal_density_diffrn 1.624
_exptl_crystal_description 'prismatic'
_diffrn_ambient_temperature ?
_diffrn_special_details
;
The study was carried out at room temperature,in the range 283-303K

;
#These two values have been output from a single CSD field.
_refine_ls_R_factor_gt 0.043
_refine_ls_wR_factor_gt 0.043
_symmetry_cell_setting monoclinic
_symmetry_space_group_name_H-M 'I 2/a'
_symmetry_Int_Tables_number 15
loop_
_symmetry_equiv_pos_site_id
_symmetry_equiv_pos_as_xyz
1 x,y,z
2 1/2+x,1/2+y,1/2+z
3 1/2-x,y,-z
4 -x,1/2+y,1/2-z
5 -x,-y,-z
6 -1/2-x,-1/2-y,-1/2-z
7 -1/2+x,-y,z
8 x,-1/2-y,-1/2+z
_cell_length_a 18.331(4)
_cell_length_b 3.678(3)
_cell_length_c 17.052(1)
_cell_angle_alpha 90
_cell_angle_beta 98.43(2)
_cell_angle_gamma 90
_cell_formula_units_Z 8
loop_
_atom_type_symbol
_atom_type_radius_bond
C 0.68
H 0.23
N 0.68
O 0.68
loop_
_atom_site_label
_atom_site_type_symbol
_atom_site_fract_x
_atom_site_fract_y
_atom_site_fract_z
O1 O 0.41131(6) -0.1925(4) 0.15292(7)
O2 O 0.31355(7) 0.0426(4) 0.08584(7)
N1 N 0.31503(6) 0.0694(3) 0.34356(6)
N2 N 0.32041(6) 0.0516(4) 0.21382(6)
N3 N 0.35095(7) -0.0373(4) 0.14993(7)
C1 C 0.35668(7) -0.0279(3) 0.28721(7)
C2 C 0.42603(7) -0.1823(4) 0.31444(8)
C3 C 0.44784(8) -0.2285(4) 0.39414(9)
C4 C 0.40256(8) -0.1269(4) 0.44970(9)
C5 C 0.33611(8) 0.0230(5) 0.42173(8)
H1 H 0.45750 -0.25280 0.27760
H2 H 0.49450 -0.33360 0.41250
H3 H 0.41760 -0.16120 0.50490
H4 H 0.30410 0.09630 0.45800
H5 H 0.272(1) 0.200(7) 0.323(1)
#END
