
#######################################################################
#
#                 Cambridge Crystallographic Data Centre
#                                CCDC
#
#######################################################################
#
# If this CIF has been generated from an entry in the Cambridge
# Structural Database, then it will include bibliographic, chemical,
# crystal, experimental, refinement or atomic coordinate data resulting
# from the CCDC's data processing and validation procedures.
#
#######################################################################

data_CSD_CIF_TORLIW
_audit_creation_date 2009-05-12
_audit_creation_method CSD-ConQuest-V1
_database_code_CSD TORLIW
_database_code_depnum_ccdc_archive 'CCDC 694159'
_chemical_formula_sum 'C17 H21 N3 O9'
_chemical_formula_moiety
;
C17 H21 N3 O9
;
_journal_coden_Cambridge 1291
_journal_year 2008
_journal_page_first 6119
_journal_name_full 'Eur.J.Org.Chem. '
loop_
_publ_author_name
"F.Benfatti"
"A.Bottoni"
"G.Cardillo"
"L.Gentilucci"
"M.Monari"
"E.Mosconi"
"M.Stenta"
"A.Tolomelli"
_chemical_name_systematic
;
Ethyl 
2-(3,5-dinitrobenzoyl)-5-hydroxy-5-methyl-3-isopropyl-1,2-oxazolidine-4-carbox
ylate
;
_chemical_melting_point 421.15
_cell_volume   1934.213
_exptl_crystal_colour 'colorless'
_exptl_crystal_density_diffrn 1.413
_exptl_special_details
;
Melting point range 421.15-425.15K

;
_exptl_crystal_description 'needle'
_diffrn_ambient_temperature 296
#These two values have been output from a single CSD field.
_refine_ls_R_factor_gt 0.0757
_refine_ls_wR_factor_gt 0.0757
_symmetry_cell_setting monoclinic
_symmetry_space_group_name_H-M 'P 21/c'
_symmetry_Int_Tables_number 14
loop_
_symmetry_equiv_pos_site_id
_symmetry_equiv_pos_as_xyz
1 x,y,z
2 -x,1/2+y,1/2-z
3 -x,-y,-z
4 x,-1/2-y,-1/2+z
_cell_length_a 13.979(2)
_cell_length_b 14.167(2)
_cell_length_c 9.7668(14)
_cell_angle_alpha 90
_cell_angle_beta 90.175(2)
_cell_angle_gamma 90
_cell_formula_units_Z 4
loop_
_atom_type_symbol
_atom_type_radius_bond
C 0.68
H 0.23
N 0.68
O 0.68
loop_
_atom_site_label
_atom_site_type_symbol
_atom_site_fract_x
_atom_site_fract_y
_atom_site_fract_z
O1 O -0.06133(17) 0.1379(2) 0.0784(3)
O2 O -0.0168(2) 0.1883(2) 0.2869(4)
O3 O 0.15305(16) 0.23797(15) 0.0826(2)
O4 O 0.24545(14) 0.10257(14) 0.0803(2)
N1 N 0.24924(17) 0.10416(17) 0.2250(2)
C1 C -0.1483(3) 0.1956(4) 0.0854(7)
H1 H -0.16820 0.21330 -0.00630
H2 H -0.13540 0.25290 0.13660
C2 C -0.2262(3) 0.1412(4) 0.1534(6)
H3 H -0.24160 0.08670 0.09930
H4 H -0.28180 0.18040 0.16210
H5 H -0.20520 0.12150 0.24270
C3 C 0.0896(2) 0.0914(2) 0.1538(3)
C4 C 0.1540(2) 0.0781(2) 0.2787(3)
C5 C 0.1530(2) 0.1425(2) 0.0491(3)
C6 C 0.1321(3) 0.1236(3) -0.0994(3)
H6 H 0.06920 0.14640 -0.12170
H7 H 0.13510 0.05690 -0.11640
H8 H 0.17850 0.15530 -0.15510
C7 C -0.0008(2) 0.1455(3) 0.1835(4)
C8 C 0.3781(2) 0.2206(2) 0.2022(3)
C9 C 0.50777(19) 0.2255(2) 0.0461(3)
C10 C 0.4592(2) 0.3642(2) 0.1551(3)
C11 C 0.43773(19) 0.1736(2) 0.1110(3)
H9 H 0.43060 0.10930 0.09440
C12 C 0.3893(2) 0.3167(2) 0.2240(3)
H10 H 0.34970 0.34850 0.28500
C13 C 0.30260(19) 0.1726(2) 0.2842(3)
C14 C 0.5205(2) 0.3204(2) 0.0644(3)
H11 H 0.56790 0.35360 0.01830
N2 N 0.5712(2) 0.1763(2) -0.0499(3)
N3 N 0.4701(2) 0.4672(2) 0.1773(3)
O5 O 0.56293(19) 0.09189(19) -0.0627(3)
O6 O 0.5429(2) 0.50496(19) 0.1377(3)
O7 O 0.6280(2) 0.2229(2) -0.1146(3)
O8 O 0.4051(2) 0.5075(2) 0.2338(4)
O9 O 0.29276(15) 0.19238(16) 0.4057(2)
C15 C 0.2140(4) -0.0279(4) 0.4658(5)
H12 H 0.28030 -0.02330 0.44150
H13 H 0.20270 -0.08700 0.51120
H14 H 0.19750 0.02310 0.52590
H15 H 0.138(4) 0.123(3) 0.351(4)
H16 H 0.074(4) 0.037(3) 0.102(5)
H17 H 0.188(4) 0.262(4) 0.014(5)
C16 C 0.1535(3) -0.0226(3) 0.3384(4)
H18 H 0.17640 -0.06790 0.27010
C17 C 0.0525(6) -0.0482(7) 0.3832(10)
H19 H 0.05510 -0.10040 0.44560
H20 H 0.01510 -0.06530 0.30440
H21 H 0.02380 0.00510 0.42770
#END
