
#######################################################################
#
#                 Cambridge Crystallographic Data Centre
#                                CCDC
#
#######################################################################
#
# If this CIF has been generated from an entry in the Cambridge
# Structural Database, then it will include bibliographic, chemical,
# crystal, experimental, refinement or atomic coordinate data resulting
# from the CCDC's data processing and validation procedures.
#
#######################################################################

data_CSD_CIF_TORMUJ
_audit_creation_date 2009-05-12
_audit_creation_method CSD-ConQuest-V1
_database_code_CSD TORMUJ
_database_code_depnum_ccdc_archive 'CCDC 686804'
_chemical_formula_sum 'C24 H19 N5 O2'
_chemical_formula_moiety
;
C24 H19 N5 O2
;
_journal_coden_Cambridge 1291
_journal_year 2008
_journal_page_first 6168
_journal_name_full 'Eur.J.Org.Chem. '
loop_
_publ_author_name
"Xu-Guang Liu"
"Min Shi"
_chemical_name_systematic
;
4-Ethyl-5-nitro-2,6-diphenylcyclohexane-1,1,3,3-tetracarbonitrile
;
_chemical_melting_point 487.15
_cell_volume   2210.185
_exptl_crystal_colour 'colorless'
_exptl_crystal_density_diffrn 1.23
_exptl_special_details
;
Melting point range 487.15-489.15K

;
_exptl_crystal_description 'prismatic'
_diffrn_ambient_temperature 293
#These two values have been output from a single CSD field.
_refine_ls_R_factor_gt 0.0705
_refine_ls_wR_factor_gt 0.0705
_symmetry_cell_setting monoclinic
_symmetry_space_group_name_H-M 'P 21/n'
_symmetry_Int_Tables_number 14
loop_
_symmetry_equiv_pos_site_id
_symmetry_equiv_pos_as_xyz
1 x,y,z
2 1/2-x,1/2+y,1/2-z
3 -x,-y,-z
4 -1/2+x,-1/2-y,-1/2+z
_cell_length_a 11.0206(8)
_cell_length_b 9.3696(7)
_cell_length_c 21.9015(16)
_cell_angle_alpha 90
_cell_angle_beta 102.231(1)
_cell_angle_gamma 90
_cell_formula_units_Z 4
loop_
_atom_type_symbol
_atom_type_radius_bond
C 0.68
H 0.23
N 0.68
O 0.68
loop_
_atom_site_label
_atom_site_type_symbol
_atom_site_fract_x
_atom_site_fract_y
_atom_site_fract_z
N1 N 0.1505(2) 0.4947(2) 0.22036(9)
N2 N -0.2496(2) 0.6213(2) 0.09274(11)
N3 N -0.2515(3) 0.9017(3) 0.24217(12)
N4 N 0.2015(2) 1.0445(3) 0.09687(11)
N5 N -0.0316(2) 0.7080(3) 0.01072(10)
O1 O 0.25305(17) 0.52704(19) 0.24980(9)
O2 O 0.1060(2) 0.3770(2) 0.22059(11)
C1 C 0.1521(2) 0.7184(2) 0.1594(1)
H1 H 0.19620 0.77000 0.19640
C2 C 0.0698(2) 0.6076(2) 0.18187(10)
H2 H 0.01940 0.56090 0.14500
C3 C -0.0183(2) 0.6663(2) 0.22162(10)
H3 H -0.06980 0.58660 0.23010
C4 C -0.1063(2) 0.7745(2) 0.17891(11)
C5 C -0.0318(2) 0.8932(2) 0.15303(10)
H4 H 0.01850 0.93860 0.19020
C6 C 0.0645(2) 0.8293(2) 0.1175(1)
C7 C -0.1889(2) 0.6910(2) 0.12882(12)
C8 C -0.1886(3) 0.8455(3) 0.21548(12)
C9 C 0.1423(2) 0.9513(3) 0.10454(11)
C10 C 0.0084(2) 0.7629(2) 0.05676(11)
C11 C -0.1112(2) 1.0122(2) 0.11892(11)
C12 C -0.1956(3) 0.9938(3) 0.06340(13)
H5 H -0.20500 0.90470 0.04420
C13 C -0.2671(3) 1.1088(3) 0.03594(14)
H6 H -0.32490 1.09610 -0.00130
C14 C -0.2523(3) 1.2404(3) 0.06364(17)
H7 H -0.29840 1.31750 0.04450
C15 C -0.1709(4) 1.2588(3) 0.11881(18)
H8 H -0.16330 1.34750 0.13830
C16 C -0.0995(3) 1.1461(2) 0.14583(14)
H9 H -0.04210 1.16030 0.18310
C17 C 0.2497(2) 0.6543(2) 0.12830(11)
C18 C 0.3665(3) 0.7131(3) 0.13976(14)
H10 H 0.38330 0.79370 0.16490
C19 C 0.4582(3) 0.6543(4) 0.11459(17)
H11 H 0.53640 0.69640 0.12250
C20 C 0.4376(3) 0.5355(4) 0.07811(15)
H12 H 0.50150 0.49480 0.06230
C21 C 0.3212(3) 0.4767(3) 0.06512(13)
H13 H 0.30530 0.39720 0.03920
C22 C 0.2271(2) 0.5346(3) 0.09025(11)
H14 H 0.14860 0.49320 0.08160
C23 C 0.0452(2) 0.7301(3) 0.28528(10)
H15 H 0.13410 0.71540 0.29170
H16 H 0.03020 0.83210 0.28480
C24 C -0.0012(3) 0.6643(4) 0.33865(12)
H17 H -0.08850 0.68230 0.33350
H18 H 0.04220 0.70540 0.37730
H19 H 0.01320 0.56320 0.33930
#END
