
#######################################################################
#
#                 Cambridge Crystallographic Data Centre
#                                CCDC
#
#######################################################################
#
# If this CIF has been generated from an entry in the Cambridge
# Structural Database, then it will include bibliographic, chemical,
# crystal, experimental, refinement or atomic coordinate data resulting
# from the CCDC's data processing and validation procedures.
#
#######################################################################

data_CSD_CIF_TORQEY
_audit_creation_date 2014-12-18
_audit_creation_method CSD-ConQuest-V1
_database_code_CSD TORQEY
_database_code_depnum_ccdc_archive 'CCDC 1040106'
_chemical_formula_sum 'C18 H18 N2 O3'
_chemical_formula_moiety
;
C18 H18 N2 O3
;
_journal_coden_Cambridge 1336
_journal_volume 17
_journal_year 2015
_journal_page_first 720
_journal_name_full 'Org.Lett. '
loop_
_publ_author_name
"Xue Zhong"
"You Li"
"Jing Zhang"
"Fu-She Han"
_chemical_name_systematic
;
14-methoxy-5,14-diazapentacyclo[11.3.2.1^1,5^.0^6,11^.0^12,19^]nonadeca-6,8,10
,12(19)-tetraene-4,18-dione
;
_cell_volume   1464.441
_exptl_crystal_colour 'colorless'
_exptl_crystal_density_diffrn 1.408
_exptl_crystal_description 'block'
_diffrn_ambient_temperature 185
#These two values have been output from a single CSD field.
_refine_ls_R_factor_gt 0.0414
_refine_ls_wR_factor_gt 0.0414
_symmetry_cell_setting monoclinic
_symmetry_space_group_name_H-M 'P 21/n'
_symmetry_Int_Tables_number 14
loop_
_symmetry_equiv_pos_site_id
_symmetry_equiv_pos_as_xyz
1 x,y,z
2 1/2-x,1/2+y,1/2-z
3 -x,-y,-z
4 -1/2+x,-1/2-y,-1/2+z
_cell_length_a 8.2569(7)
_cell_length_b 11.5402(10)
_cell_length_c 15.7270(14)
_cell_angle_alpha 90
_cell_angle_beta 102.251(1)
_cell_angle_gamma 90
_cell_formula_units_Z 4
loop_
_atom_type_symbol
_atom_type_radius_bond
C 0.68
H 0.23
N 0.68
O 0.68
loop_
_atom_site_label
_atom_site_type_symbol
_atom_site_fract_x
_atom_site_fract_y
_atom_site_fract_z
C1 C 0.2692(2) 1.08120(14) 0.81037(11)
C2 C 0.2870(2) 1.11067(16) 0.90696(12)
H1 H 0.39670 1.14650 0.92910
H2 H 0.20110 1.16790 0.91340
C3 C 0.2697(2) 1.00329(16) 0.96141(11)
H3 H 0.36520 0.95150 0.96120
H4 H 0.27530 1.02790 1.02230
C4 C 0.1120(2) 0.93519(16) 0.93073(11)
C5 C 0.2314(2) 1.18905(15) 0.75105(12)
H5 H 0.15330 1.23960 0.77370
H6 H 0.33540 1.23310 0.75420
C6 C 0.1575(2) 1.16124(16) 0.65622(12)
C7 C 0.1300(2) 1.03212(15) 0.63282(11)
H7 H 0.05330 1.02450 0.57470
C8 C 0.3214(3) 0.90121(16) 0.49734(12)
H8 H 0.34640 0.92100 0.44090
H9 H 0.21070 0.86660 0.48830
H10 H 0.40370 0.84570 0.52750
C9 C 0.4344(2) 1.01705(16) 0.69490(12)
H11 H 0.45400 1.09770 0.67810
H12 H 0.53280 0.97100 0.68940
C10 C 0.4221(2) 1.01698(16) 0.79065(12)
H13 H 0.52360 1.05320 0.82540
H14 H 0.41940 0.93560 0.81030
N1 N 0.28915(19) 0.97116(13) 0.63182(9)
O1 O 0.04565(17) 0.87595(12) 0.97724(8)
O2 O 0.12122(19) 1.23647(12) 0.60173(9)
O3 O 0.32647(18) 1.00262(11) 0.54823(8)
C11 C -0.1826(2) 0.82979(15) 0.63779(11)
H15 H -0.18480 0.84250 0.57790
C12 C -0.2852(2) 0.74768(16) 0.66366(12)
H16 H -0.35680 0.70270 0.62090
C13 C -0.2849(2) 0.73028(16) 0.75087(13)
H17 H -0.35710 0.67370 0.76640
C14 C -0.1828(2) 0.79277(15) 0.81610(12)
H18 H -0.18500 0.78150 0.87570
C15 C -0.07735(19) 0.87246(14) 0.79046(11)
C16 C -0.07601(19) 0.89327(14) 0.70175(10)
C17 C 0.0529(2) 0.97762(14) 0.7013(1)
C18 C 0.1234(2) 1.00318(14) 0.78403(11)
N2 N 0.04824(17) 0.94135(12) 0.84140(8)
#END
