
#######################################################################
#
#                 Cambridge Crystallographic Data Centre
#                                CCDC
#
#######################################################################
#
# If this CIF has been generated from an entry in the Cambridge
# Structural Database, then it will include bibliographic, chemical,
# crystal, experimental, refinement or atomic coordinate data resulting
# from the CCDC's data processing and validation procedures.
#
#######################################################################

data_CSD_CIF_TORQAU
_audit_creation_date 2014-12-18
_audit_creation_method CSD-ConQuest-V1
_database_code_CSD TORQAU
_database_code_depnum_ccdc_archive 'CCDC 1040105'
_chemical_formula_sum 'C20 H22 N2 O5'
_chemical_formula_moiety
;
C20 H22 N2 O5
;
_journal_coden_Cambridge 1336
_journal_volume 17
_journal_year 2015
_journal_page_first 720
_journal_name_full 'Org.Lett. '
loop_
_publ_author_name
"Xue Zhong"
"You Li"
"Jing Zhang"
"Fu-She Han"
_chemical_name_systematic
;
methyl 
18-hydroxy-14-methoxy-4-oxo-5,14-diazapentacyclo[10.4.3.0^1,13^.0^5,13^.0^6,11
^]nonadeca-6,8,10,12(19)-tetraene-19-carboxylate
;
_cell_volume   3615.946
_exptl_crystal_colour 'white'
_exptl_crystal_density_diffrn 1.362
_exptl_crystal_preparation 'Re-crystallisation from solvent'
_diffrn_ambient_temperature 296
#These two values have been output from a single CSD field.
_refine_ls_R_factor_gt 0.074
_refine_ls_wR_factor_gt 0.074
_symmetry_cell_setting triclinic
_symmetry_space_group_name_H-M 'P -1'
_symmetry_Int_Tables_number 2
loop_
_symmetry_equiv_pos_site_id
_symmetry_equiv_pos_as_xyz
1 x,y,z
2 -x,-y,-z
_cell_length_a 9.272(5)
_cell_length_b 15.087(8)
_cell_length_c 26.669(14)
_cell_angle_alpha 75.828(11)
_cell_angle_beta 88.836(13)
_cell_angle_gamma 88.885(12)
_cell_formula_units_Z 8
loop_
_atom_type_symbol
_atom_type_radius_bond
C 0.68
H 0.23
N 0.68
O 0.68
loop_
_atom_site_label
_atom_site_type_symbol
_atom_site_fract_x
_atom_site_fract_y
_atom_site_fract_z
C1 C 1.2119(8) 0.3990(5) 0.3400(3)
H1 H 1.28690 0.40840 0.31570
C2 C 1.0704(9) 0.4089(5) 0.3245(3)
H2 H 1.05050 0.42690 0.28940
C3 C 0.9602(8) 0.3929(4) 0.3592(3)
H3 H 0.86570 0.39730 0.34770
C4 C 0.9870(7) 0.3696(4) 0.4125(3)
C5 C 1.1300(8) 0.3602(4) 0.4274(3)
C6 C 1.2410(8) 0.3749(4) 0.3925(3)
H4 H 1.33580 0.36880 0.40370
C7 C 0.8923(8) 0.3558(4) 0.4590(3)
C8 C 1.2532(8) 0.3248(5) 0.5122(3)
C9 C 1.2176(7) 0.2980(4) 0.5694(3)
H5 H 1.29980 0.30960 0.58870
H6 H 1.19790 0.23310 0.57980
C10 C 1.0875(7) 0.3515(5) 0.5818(3)
H7 H 1.10470 0.41650 0.56920
H8 H 1.07300 0.33850 0.61900
C11 C 0.9525(8) 0.3265(4) 0.5569(3)
C12 C 0.9904(7) 0.3094(4) 0.5031(3)
C13 C 0.7648(8) 0.3884(4) 0.4654(3)
C14 C 0.7125(7) 0.3971(4) 0.5179(3)
H9 H 0.65570 0.45390 0.51320
C15 C 0.8408(6) 0.4035(4) 0.5517(2)
H10 H 0.88820 0.46120 0.53740
H11 H 0.80480 0.40450 0.58600
C16 C 0.8937(8) 0.2332(4) 0.5890(2)
H12 H 0.96310 0.20300 0.61460
H13 H 0.80400 0.24220 0.60660
C17 C 0.8694(8) 0.1770(4) 0.5500(3)
H14 H 0.87590 0.11190 0.56570
H15 H 0.77740 0.19150 0.53310
C18 C 1.0982(7) 0.1234(4) 0.4630(3)
H16 H 1.09120 0.10370 0.43160
H17 H 1.10270 0.07100 0.49190
H18 H 1.18370 0.15880 0.46170
C19 C 0.5278(8) 0.5540(4) 0.3791(2)
H19 H 0.49810 0.61300 0.38330
H20 H 0.44420 0.51790 0.37820
H21 H 0.58190 0.56100 0.34740
C20 C 0.6667(8) 0.4258(5) 0.4206(3)
N1 N 1.1337(6) 0.3371(3) 0.4819(2)
N2 N 0.9884(6) 0.2077(4) 0.5152(2)
O1 O 0.9758(5) 0.1776(3) 0.46873(18)
O2 O 1.3735(5) 0.3391(3) 0.49323(18)
O3 O 0.6173(5) 0.5086(3) 0.42220(17)
O4 O 0.6399(5) 0.3887(3) 0.38744(18)
O5 O 0.6246(5) 0.3239(3) 0.54459(16)
H22 H 0.54700 0.32660 0.53000
C21 C 0.6314(8) -0.0794(5) 0.3141(3)
C22 C 0.6693(8) -0.1588(5) 0.2989(3)
H23 H 0.76560 -0.17470 0.29540
C23 C 0.5606(11) -0.2132(5) 0.2893(3)
H24 H 0.58340 -0.26720 0.27980
C24 C 0.421(1) -0.1881(6) 0.2936(3)
H25 H 0.35000 -0.22560 0.28630
C25 C 0.4870(9) -0.0567(5) 0.3180(3)
C26 C 0.3785(8) -0.1106(5) 0.3081(3)
H26 H 0.28160 -0.09520 0.31110
C27 C 0.7215(8) -0.0025(4) 0.3220(3)
C28 C 0.3513(10) 0.0749(5) 0.3390(3)
C29 C 0.3771(7) 0.1618(5) 0.3541(3)
H27 H 0.39330 0.14850 0.39100
H28 H 0.29170 0.20070 0.34680
C30 C 0.5056(7) 0.2126(4) 0.3256(3)
H29 H 0.51340 0.27090 0.33460
H30 H 0.49060 0.22490 0.28860
C31 C 0.6464(8) 0.1576(4) 0.3390(3)
C32 C 0.6169(7) 0.0535(5) 0.3477(3)
C33 C 0.7526(8) 0.1882(4) 0.2940(3)
H31 H 0.70320 0.18980 0.26210
H32 H 0.78170 0.25010 0.29290
C34 C 0.8484(8) 0.0281(5) 0.3020(3)
C35 C 0.8874(8) 0.1286(5) 0.2961(3)
H33 H 0.93900 0.14920 0.26300
C36 C 0.9458(8) -0.0281(6) 0.2786(3)
C37 C 0.7379(8) 0.0708(4) 0.4216(3)
H34 H 0.82990 0.04840 0.41140
H35 H 0.73600 0.06570 0.45860
C38 C 0.7039(7) 0.1678(4) 0.3907(3)
H36 H 0.79010 0.20450 0.38530
H37 H 0.63190 0.19650 0.40870
C39 C 1.0899(9) -0.0320(5) 0.2054(3)
H38 H 1.11640 0.00650 0.17230
H39 H 1.04410 -0.08580 0.20060
H40 H 1.17470 -0.04940 0.22570
C40 C 0.5191(8) -0.1079(5) 0.4563(3)
H41 H 0.53000 -0.17290 0.46860
H42 H 0.43080 -0.09380 0.43760
H43 H 0.51660 -0.08030 0.48510
N3 N 0.4750(6) 0.0285(4) 0.3322(2)
N4 N 0.6157(6) 0.0245(4) 0.4053(2)
O6 O 0.9816(6) -0.1052(3) 0.29862(18)
O7 O 0.9903(6) 0.0176(3) 0.2321(2)
O8 O 0.9800(5) 0.1405(3) 0.3353(2)
H44 H 1.05610 0.11260 0.33360
O9 O 0.2351(5) 0.0487(4) 0.3301(2)
O10 O 0.6394(5) -0.0725(3) 0.42247(18)
C41 C 0.4947(8) 0.6056(5) 0.1842(3)
C42 C 0.4592(8) 0.5355(5) 0.2252(3)
H45 H 0.36330 0.52100 0.23360
C43 C 0.5694(9) 0.4867(5) 0.2541(3)
H46 H 0.54710 0.43790 0.28180
C44 C 0.7108(9) 0.5085(5) 0.2427(3)
H47 H 0.78290 0.47540 0.26330
C45 C 0.7485(8) 0.5811(5) 0.2000(3)
C46 C 0.6362(8) 0.6297(5) 0.1703(3)
C47 C 0.7683(8) 0.7428(5) 0.1048(3)
C48 C 0.7391(7) 0.8173(4) 0.0580(3)
H48 H 0.72240 0.79140 0.02870
H49 H 0.82190 0.85690 0.04980
C49 C 0.6065(7) 0.8723(4) 0.0681(3)
H50 H 0.59600 0.92620 0.03980
H51 H 0.62010 0.89250 0.09950
C50 C 0.4690(8) 0.8159(5) 0.0736(3)
C51 C 0.5035(7) 0.7167(5) 0.1036(3)
C52 C 0.3560(8) 0.8582(4) 0.1026(3)
H52 H 0.40070 0.87190 0.13240
H53 H 0.32370 0.91580 0.08030
C53 C 0.2756(8) 0.7068(5) 0.1544(3)
C54 C 0.2254(8) 0.7998(5) 0.1211(3)
H54 H 0.16650 0.83010 0.14310
C55 C 0.1808(8) 0.6610(5) 0.1985(3)
C56 C 0.0456(9) 0.6864(5) 0.2687(3)
H55 H 0.02300 0.73400 0.28590
H56 H 0.09110 0.63600 0.29250
H57 H -0.04160 0.66620 0.25640
C57 C 0.4182(8) 0.8075(5) 0.0206(3)
H58 H 0.33060 0.84320 0.01080
H59 H 0.49180 0.82850 -0.00580
C58 C 0.4056(7) 0.6736(4) 0.1485(3)
C59 C 0.6027(8) 0.5246(4) 0.0636(3)
H60 H 0.59110 0.46000 0.07690
H61 H 0.69240 0.54270 0.07510
H62 H 0.60270 0.53910 0.02650
C60 C 0.3906(8) 0.7060(5) 0.0273(3)
H63 H 0.29720 0.68850 0.04330
H64 H 0.39850 0.68830 -0.00530
N5 N 0.6481(6) 0.7028(4) 0.1270(2)
N6 N 0.5083(6) 0.6683(4) 0.0616(2)
O11 O 0.4871(5) 0.5720(3) 0.08179(17)
O12 O 0.1406(6) 0.7204(3) 0.2261(2)
O13 O 0.1379(5) 0.5849(3) 0.20777(19)
O14 O 0.1406(5) 0.7919(3) 0.07945(18)
H65 H 0.06250 0.77000 0.09040
O15 O 0.8865(5) 0.7203(3) 0.1229(2)
C61 C -0.0240(8) 0.1806(4) 0.0981(3)
C62 C 0.1188(8) 0.1570(5) 0.0939(2)
C63 C 0.1546(8) 0.0839(4) 0.0730(2)
H66 H 0.25070 0.06790 0.06890
C64 C 0.0449(9) 0.0352(4) 0.0583(3)
H67 H 0.06800 -0.01480 0.04490
C65 C -0.0982(9) 0.0596(5) 0.0630(3)
H68 H -0.17010 0.02590 0.05280
C66 C -0.1352(7) 0.1333(5) 0.0827(2)
H69 H -0.23110 0.15080 0.08560
C67 C 0.2062(8) 0.2193(5) 0.1165(2)
C68 C 0.3320(8) 0.2056(5) 0.1409(3)
C69 C 0.3714(8) 0.2616(5) 0.1780(3)
H70 H 0.42010 0.22100 0.20740
C70 C 0.4306(8) 0.1310(5) 0.1363(3)
C71 C 0.2373(7) 0.2999(4) 0.1986(3)
H71 H 0.26740 0.33980 0.21980
H72 H 0.18660 0.24940 0.22110
C72 C 0.1301(8) 0.3531(5) 0.1595(3)
C73 C 0.1056(8) 0.2994(5) 0.1175(2)
C74 C -0.1597(9) 0.2990(5) 0.1305(3)
C75 C -0.1364(7) 0.3823(4) 0.1501(3)
H73 H -0.22240 0.39530 0.16840
H74 H -0.11960 0.43420 0.12100
C76 C -0.0084(7) 0.3693(4) 0.1860(3)
H75 H 0.00060 0.42320 0.19930
H76 H -0.02600 0.31760 0.21510
C77 C 0.2330(8) 0.4312(4) 0.0749(3)
H77 H 0.23370 0.48810 0.04830
H78 H 0.32520 0.39970 0.07480
C78 C 0.1942(7) 0.4463(4) 0.1278(2)
H79 H 0.12350 0.49550 0.12490
H80 H 0.27920 0.46160 0.14450
C79 C 0.0237(8) 0.3631(4) -0.0091(3)
H81 H 0.03970 0.33840 -0.03870
H82 H 0.01830 0.42860 -0.02000
H83 H -0.06510 0.34030 0.00790
C80 C 0.6002(8) 0.0237(5) 0.1820(3)
H84 H 0.63720 0.00180 0.21630
H85 H 0.67760 0.04810 0.15850
H86 H 0.55720 -0.02590 0.17130
N7 N -0.0377(6) 0.2573(4) 0.1197(2)
N8 N 0.1118(6) 0.3734(4) 0.0695(2)
O16 O 0.1391(5) 0.3365(3) 0.02565(17)
O17 O 0.4654(5) 0.3349(3) 0.1565(2)
H87 H 0.53840 0.31490 0.14500
O18 O 0.4924(5) 0.0946(3) 0.18190(18)
O19 O 0.4585(6) 0.1038(4) 0.0992(2)
O20 O -0.2795(5) 0.2701(3) 0.1259(2)
H88? H 0.80420 0.62440 0.21290
H89? H 0.81160 0.55630 0.17720
#END
