
#######################################################################
#
#                 Cambridge Crystallographic Data Centre
#                                CCDC
#
#######################################################################
#
# If this CIF has been generated from an entry in the Cambridge
# Structural Database, then it will include bibliographic, chemical,
# crystal, experimental, refinement or atomic coordinate data resulting
# from the CCDC's data processing and validation procedures.
#
#######################################################################

data_CSD_CIF_TOSCEJ
_audit_creation_date 1997-05-05
_audit_creation_method CSD-ConQuest-V1
_database_code_CSD TOSCEJ
_chemical_formula_sum 'C15 H15 N1 O4'
_chemical_formula_moiety
;
C15 H15 N1 O4
;
_journal_coden_Cambridge 16
_journal_volume 52
_journal_year 1996
_journal_page_first 11977
_journal_name_full 'Tetrahedron '
loop_
_publ_author_name
"D.E.Justice"
"J.R.Malpass"
_chemical_name_systematic
;
N-(Benzyloxycarbonyl)-3\a,4\a-epoxy-6-aza-7-oxabicyclo(3.2.2)non-8-ene
;
_chemical_melting_point 359.15
_cell_volume   2641.498
_exptl_crystal_colour 'colorless'
_exptl_crystal_density_diffrn 1.374
_exptl_special_details
;
Melting point range 359.15-360.15K

;
_diffrn_ambient_temperature ?
_diffrn_special_details
;
The study was carried out at room temperature,in the range 283-303K

;
#These two values have been output from a single CSD field.
_refine_ls_R_factor_gt 0.0677
_refine_ls_wR_factor_gt 0.0677
_symmetry_cell_setting orthorhombic
_symmetry_space_group_name_H-M 'P n a 21'
_symmetry_Int_Tables_number 33
loop_
_symmetry_equiv_pos_site_id
_symmetry_equiv_pos_as_xyz
1 x,y,z
2 -x,-y,1/2+z
3 1/2-x,1/2+y,1/2+z
4 1/2+x,1/2-y,z
_cell_length_a 16.711(4)
_cell_length_b 9.688(2)
_cell_length_c 16.316(2)
_cell_angle_alpha 90
_cell_angle_beta 90
_cell_angle_gamma 90
_cell_formula_units_Z 8
loop_
_atom_type_symbol
_atom_type_radius_bond
C 0.68
H 0.23
N 0.68
O 0.68
loop_
_atom_site_label
_atom_site_type_symbol
_atom_site_fract_x
_atom_site_fract_y
_atom_site_fract_z
C1 C 0.1075(6) 0.1368(10) 0.4459(8)
C2 C 0.0559(5) 0.134(1) 0.5215(8)
C3 C 0.0840(6) 0.2133(9) 0.5930(9)
C4 C 0.1549(5) 0.3024(9) 0.5915(8)
C5 C 0.2047(5) 0.3199(9) 0.5163(8)
N1 N 0.2392(4) 0.1842(6) 0.4971(7)
O1 O 0.1857(3) 0.0838(5) 0.46640
C6 C 0.1126(8) 0.2833(13) 0.4092(9)
C7 C 0.1623(7) 0.3724(10) 0.4474(9)
O2 O 0.0756(4) 0.3652(6) 0.5901(7)
C8 C 0.3154(5) 0.1668(8) 0.4768(7)
O3 O 0.3661(3) 0.2548(6) 0.4867(6)
O4 O 0.3311(3) 0.0408(5) 0.4493(6)
C9 C 0.4162(5) 0.0047(9) 0.4416(9)
C10 C 0.4202(4) -0.1451(4) 0.4238(6)
C11 C 0.38620 -0.23810 0.47900
C12 C 0.38920 -0.37940 0.46310
C13 C 0.42610 -0.42780 0.39200
C14 C 0.46010 -0.33490 0.33680
C15 C 0.45710 -0.19350 0.35270
C16 C 0.3445(5) 0.3703(9) 0.2077(8)
C17 C 0.2918(5) 0.3730(8) 0.1341(8)
C18 C 0.3162(5) 0.2800(9) 0.0644(8)
C19 C 0.3834(5) 0.1829(9) 0.0675(8)
C20 C 0.4321(5) 0.1684(9) 0.1444(8)
N2 N 0.4742(4) 0.2967(6) 0.1601(8)
O5 O 0.4253(3) 0.4094(5) 0.1835(6)
C21 C 0.3426(7) 0.2358(14) 0.2506(9)
C22 C 0.3852(7) 0.1343(10) 0.2181(9)
O6 O 0.3014(3) 0.1325(6) 0.0702(6)
C23 C 0.5511(5) 0.3003(8) 0.1874(7)
O7 O 0.5958(3) 0.2045(5) 0.1827(6)
O8 O 0.5697(3) 0.4257(5) 0.2127(6)
C24 C 0.6548(4) 0.4518(8) 0.2249(8)
C25 C 0.6644(3) 0.6036(4) 0.2377(5)
C26 C 0.70770 0.65180 0.30500
C27 C 0.71510 0.79340 0.31860
C28 C 0.67930 0.88680 0.26480
C29 C 0.63600 0.83860 0.19760
C30 C 0.62850 0.69700 0.18400
H1 H 0.08370 0.07740 0.40560
H2 H 0.05090 0.03900 0.53760
H3 H 0.00350 0.16630 0.50700
H4 H 0.07150 0.17270 0.64520
H5 H 0.18300 0.31360 0.64240
H6 H 0.24820 0.38130 0.52850
H7 H 0.08020 0.30960 0.36320
H8 H 0.17050 0.46310 0.42530
H9 H 0.44450 0.02610 0.49120
H10 H 0.43900 0.05670 0.39730
H11 H 0.36080 -0.20470 0.52790
H12 H 0.36580 -0.44350 0.50120
H13 H 0.42810 -0.52520 0.38110
H14 H 0.48550 -0.36820 0.28790
H15 H 0.48050 -0.12940 0.31470
H16 H 0.32550 0.44000 0.24470
H17 H 0.28820 0.46630 0.11470
H18 H 0.23920 0.34500 0.15100
H19 H 0.30510 0.31700 0.01100
H20 H 0.41190 0.16600 0.01740
H21 H 0.47100 0.09660 0.13660
H22 H 0.31230 0.22440 0.30020
H23 H 0.38580 0.04470 0.24320
H24 H 0.68510 0.42140 0.17830
H25 H 0.67360 0.40320 0.27250
H26 H 0.73240 0.58750 0.34200
H27 H 0.74490 0.82660 0.36490
H28 H 0.68440 0.98420 0.27420
H29 H 0.61130 0.90290 0.16060
H30 H 0.59880 0.66380 0.13770
#END
