
#######################################################################
#
#                 Cambridge Crystallographic Data Centre
#                                CCDC
#
#######################################################################
#
# If this CIF has been generated from an entry in the Cambridge
# Structural Database, then it will include bibliographic, chemical,
# crystal, experimental, refinement or atomic coordinate data resulting
# from the CCDC's data processing and validation procedures.
#
#######################################################################

data_CSD_CIF_TOSREA
_audit_creation_date 2014-12-18
_audit_creation_method CSD-ConQuest-V1
_database_code_CSD TOSREA
_database_code_depnum_ccdc_archive 'CCDC 1024905'
_chemical_formula_sum 'C13 H17 N1 O2'
_chemical_formula_moiety
;
C13 H17 N1 O2
;
_journal_coden_Cambridge 222
_journal_volume 44
_journal_year 2015
_journal_page_first 7163
_journal_name_full 'Dalton Trans. '
loop_
_publ_author_name
"D.D'Alessio"
"D.M.Lombardo"
"J.G.Vaughan"
"B.W.Skelton"
"K.R.Barnard"
"M.I.Ogden"
_chemical_name_systematic
;
1-(hydroxy(phenyl)carbonoimidoyl)cyclohexanol
;
_cell_volume  11263.772
_exptl_crystal_colour 'colorless'
_exptl_crystal_density_diffrn 1.164
_exptl_crystal_description 'slab'
_diffrn_ambient_temperature 100
_refine_special_details
;
Disordered solvent molecules were not modelled and the disordered density was 
taken into account using the SQUEEZE/PLATON procedure.
;
#These two values have been output from a single CSD field.
_refine_ls_R_factor_gt 0.0607
_refine_ls_wR_factor_gt 0.0607
_symmetry_cell_setting rhombohedral
_symmetry_space_group_name_H-M 'R -3'
_symmetry_Int_Tables_number 148
loop_
_symmetry_equiv_pos_site_id
_symmetry_equiv_pos_as_xyz
1 x,y,z
2 -y,x-y,z
3 -x+y,-x,z
4 2/3+x,1/3+y,1/3+z
5 2/3-y,1/3+x-y,1/3+z
6 2/3-x+y,1/3-x,1/3+z
7 1/3+x,2/3+y,2/3+z
8 1/3-y,2/3+x-y,2/3+z
9 1/3-x+y,2/3-x,2/3+z
10 -x,-y,-z
11 y,-x+y,-z
12 x-y,x,-z
13 -2/3-x,-1/3-y,-1/3-z
14 -2/3+y,-1/3-x+y,-1/3-z
15 -2/3+x-y,-1/3+x,-1/3-z
16 -1/3-x,-2/3-y,-2/3-z
17 -1/3+y,-2/3-x+y,-2/3-z
18 -1/3+x-y,-2/3+x,-2/3-z
_cell_length_a 33.0955(8)
_cell_length_b 33.0955(8)
_cell_length_c 11.8745(3)
_cell_angle_alpha 90
_cell_angle_beta 90
_cell_angle_gamma 120
_cell_formula_units_Z 36
loop_
_atom_type_symbol
_atom_type_radius_bond
C 0.68
H 0.23
N 0.68
O 0.68
loop_
_atom_site_label
_atom_site_type_symbol
_atom_site_fract_x
_atom_site_fract_y
_atom_site_fract_z
C1 C 0.39594(4) 0.17297(4) 0.23802(9)
N1 N 0.36800(3) 0.17310(3) 0.31250(8)
O1 O 0.33191(3) 0.12785(3) 0.34080(8)
C2 C 0.39326(4) 0.12964(4) 0.19284(9)
C3 C 0.40075(4) 0.10127(4) 0.26669(10)
H1 H 0.40540 0.10880 0.34460
C4 C 0.40142(4) 0.06207(4) 0.22705(11)
H2 H 0.40720 0.04330 0.27770
C5 C 0.39374(4) 0.05032(4) 0.11374(11)
H3 H 0.39420 0.02350 0.08670
C6 C 0.38539(5) 0.07789(4) 0.04024(10)
H4 H 0.37960 0.06960 -0.03710
C7 C 0.38549(4) 0.11778(4) 0.07915(10)
H5 H 0.38030 0.13680 0.02810
C8 C 0.43453(4) 0.22045(4) 0.19666(10)
O2 O 0.42332(4) 0.22559(3) 0.08211(8)
C9 C 0.43920(5) 0.26123(4) 0.26756(12)
H6 H 0.41000 0.26250 0.26190
H7 H 0.44370 0.25590 0.34750
C10 C 0.48012(5) 0.30766(5) 0.22911(14)
H8 H 0.48290 0.33280 0.27930
H9 H 0.47410 0.31460 0.15180
C11 C 0.52587(5) 0.30693(5) 0.23050(15)
H10 H 0.53330 0.30250 0.30860
H11 H 0.55150 0.33710 0.20270
C12 C 0.52172(5) 0.26738(5) 0.15606(15)
H12 H 0.51720 0.27350 0.07680
H13 H 0.55100 0.26620 0.16050
C13 C 0.48111(4) 0.22083(5) 0.19265(13)
H14 H 0.48780 0.21300 0.26830
H15 H 0.47820 0.19630 0.13980
H16 H 0.3184(7) 0.1329(7) 0.3909(18)
H17 H 0.3983(7) 0.2234(7) 0.0785(16)
C14 C 0.26865(4) 0.16220(4) 0.55589(9)
N2 N 0.30223(3) 0.16829(3) 0.49155(8)
O3 O 0.33977(3) 0.21467(3) 0.48903(8)
C15 C 0.27009(4) 0.20068(4) 0.62396(9)
C16 C 0.24489(4) 0.22223(4) 0.59149(10)
H18 H 0.22550 0.21150 0.52670
C17 C 0.24814(4) 0.25934(4) 0.65375(11)
H19 H 0.23090 0.27390 0.63140
C18 C 0.27648(5) 0.27522(4) 0.74828(11)
H20 H 0.27860 0.30050 0.79070
C19 C 0.30180(5) 0.25408(5) 0.78077(10)
H21 H 0.32140 0.26500 0.84530
C20 C 0.29860(4) 0.21687(4) 0.71905(10)
H22 H 0.31590 0.20240 0.74170
C21 C 0.22781(4) 0.11227(4) 0.56231(10)
O4 O 0.23432(3) 0.08295(3) 0.48544(8)
C22 C 0.22686(5) 0.09268(5) 0.68022(11)
H23 H 0.25600 0.09180 0.69220
H24 H 0.22560 0.11370 0.73750
C23 C 0.18522(6) 0.04378(5) 0.69596(13)
H25 H 0.18880 0.02180 0.64620
H26 H 0.18450 0.03370 0.77480
C24 C 0.13954(7) 0.04217(6) 0.66883(17)
H27 H 0.13400 0.06100 0.72480
H28 H 0.11360 0.00960 0.67440
C25 C 0.14015(5) 0.06084(5) 0.55058(17)
H29 H 0.11070 0.06100 0.53730
H30 H 0.14240 0.04010 0.49390
C26 C 0.18153(5) 0.11039(5) 0.53692(13)
H31 H 0.17770 0.13170 0.58860
H32 H 0.18210 0.12120 0.45890
H33 H 0.3553(6) 0.2139(6) 0.4394(15)
H34 H 0.2330(8) 0.0902(8) 0.4207(19)
#END
