
#######################################################################
#
#                 Cambridge Crystallographic Data Centre
#                                CCDC
#
#######################################################################
#
# If this CIF has been generated from an entry in the Cambridge
# Structural Database, then it will include bibliographic, chemical,
# crystal, experimental, refinement or atomic coordinate data resulting
# from the CCDC's data processing and validation procedures.
#
#######################################################################

data_CSD_CIF_TOTKAQ
_audit_creation_date 2014-12-19
_audit_creation_method CSD-ConQuest-V1
_database_code_CSD TOTKAQ
_database_code_depnum_ccdc_archive 'CCDC 1011015'
_chemical_formula_sum 'C23 H29 N1 O2'
_chemical_formula_moiety
;
C23 H29 N1 O2
;
_journal_coden_Cambridge 1291
_journal_year 2015
_journal_page_first 876
_journal_name_full 'Eur.J.Org.Chem. '
loop_
_publ_author_name
"Shuai Mao"
"Ya-Ru Gao"
"Shao-Liang Zhang"
"Dong-Dong Guo"
"Yong-Qiang Wang"
_chemical_name_systematic
;
1,2-diphenyl-2-((2,2,6,6-tetramethylpiperidin-1-yl)oxy)ethanone
;
_cell_volume   2008.754
_exptl_crystal_density_diffrn 1.162
_diffrn_ambient_temperature 296
#These two values have been output from a single CSD field.
_refine_ls_R_factor_gt 0.0491
_refine_ls_wR_factor_gt 0.0491
_symmetry_cell_setting monoclinic
_symmetry_space_group_name_H-M 'P 21/n'
_symmetry_Int_Tables_number 14
loop_
_symmetry_equiv_pos_site_id
_symmetry_equiv_pos_as_xyz
1 x,y,z
2 1/2-x,1/2+y,1/2-z
3 -x,-y,-z
4 -1/2+x,-1/2-y,-1/2+z
_cell_length_a 8.708(2)
_cell_length_b 10.662(2)
_cell_length_c 21.766(5)
_cell_angle_alpha 90
_cell_angle_beta 96.274(4)
_cell_angle_gamma 90
_cell_formula_units_Z 4
loop_
_atom_type_symbol
_atom_type_radius_bond
C 0.68
H 0.23
N 0.68
O 0.68
loop_
_atom_site_label
_atom_site_type_symbol
_atom_site_fract_x
_atom_site_fract_y
_atom_site_fract_z
N1 N 0.95842(18) 0.75561(13) 0.25863(6)
O1 O 1.01709(14) 0.71380(11) 0.20151(5)
O2 O 0.76075(16) 0.83834(14) 0.08337(7)
C1 C 0.7086(3) 0.6628(2) 0.22776(12)
H1 H 0.67970 0.74880 0.22030
H2 H 0.62450 0.61830 0.24280
H3 H 0.73280 0.62500 0.18990
C2 C 0.9127(4) 0.5216(2) 0.27749(12)
H4 H 0.95850 0.50500 0.24020
H5 H 0.82920 0.46410 0.28080
H6 H 0.98900 0.51150 0.31240
C3 C 0.8508(3) 0.65667(18) 0.27603(10)
C4 C 0.8016(4) 0.6942(2) 0.33858(12)
H7 H 0.73990 0.77000 0.33360
H8 H 0.73720 0.62850 0.35290
C5 C 0.9368(4) 0.7168(3) 0.38700(11)
H9 H 0.90000 0.74220 0.42560
H10 H 0.99670 0.64050 0.39420
C6 C 1.0352(3) 0.8183(2) 0.36403(10)
H11 H 1.12200 0.83400 0.39490
H12 H 0.97490 0.89490 0.35900
C7 C 1.0966(3) 0.78669(19) 0.30270(8)
C8 C 1.2219(3) 0.6857(2) 0.31134(11)
H13 H 1.18520 0.61620 0.33380
H14 H 1.31300 0.71990 0.33410
H15 H 1.24600 0.65740 0.27160
C9 C 1.1672(3) 0.9051(2) 0.27882(11)
H16 H 1.21560 0.88560 0.24240
H17 H 1.24300 0.93790 0.31000
H18 H 1.08760 0.96640 0.26890
C10 C 0.9823(2) 0.80275(16) 0.15275(8)
H19 H 0.94940 0.88100 0.17090
C11 C 1.1250(2) 0.83049(16) 0.11995(8)
C12 C 1.2603(2) 0.76404(19) 0.13188(9)
H20 H 1.26650 0.69990 0.16100
C13 C 1.3870(2) 0.7913(2) 0.10125(9)
H21 H 1.47810 0.74610 0.11010
C14 C 1.3788(3) 0.8840(2) 0.05812(9)
H22 H 1.46440 0.90200 0.03750
C15 C 1.2456(3) 0.9508(2) 0.04492(10)
H23 H 1.24000 1.01370 0.01510
C16 C 1.1187(2) 0.92459(19) 0.07604(9)
H24 H 1.02840 0.97080 0.06730
C17 C 0.8544(2) 0.75981(19) 0.10403(8)
C18 C 0.8495(2) 0.62964(18) 0.07865(8)
C19 C 0.9576(2) 0.53864(19) 0.09725(9)
H25 H 1.03730 0.55690 0.12790
C20 C 0.9484(3) 0.4212(2) 0.07083(9)
H26 H 1.02180 0.36050 0.08350
C21 C 0.8302(3) 0.3938(2) 0.02554(10)
H27 H 0.82380 0.31460 0.00760
C22 C 0.7225(3) 0.4829(3) 0.00698(10)
H28 H 0.64270 0.46410 -0.02360
C23 C 0.7313(2) 0.5993(2) 0.03305(9)
H29 H 0.65710 0.65910 0.02010
#END
