
#######################################################################
#
#                 Cambridge Crystallographic Data Centre
#                                CCDC
#
#######################################################################
#
# If this CIF has been generated from an entry in the Cambridge
# Structural Database, then it will include bibliographic, chemical,
# crystal, experimental, refinement or atomic coordinate data resulting
# from the CCDC's data processing and validation procedures.
#
#######################################################################

data_CSD_CIF_TOXISA10
_audit_creation_date 1977-02-08
_audit_creation_method CSD-ConQuest-V1
_database_code_CSD TOXISA10
_database_code_depnum_ccdc_archive 'CCDC 1274808'
_chemical_formula_sum 'C35 H46 N2 O6'
_chemical_formula_moiety
;
C35 H46 N2 O6
;
_journal_coeditor_code "IUCr A13656"
_journal_coden_Cambridge 107
_journal_volume 32
_journal_year 1976
_journal_page_first 2653
_journal_name_full 'Acta Crystallogr.,Sect.B:Struct.Crystallogr.Cryst.Chem. '
loop_
_publ_author_name
"C.H.Carlisle"
"P.F.Lindley"
_chemical_name_systematic
;
Toxisterol A~2~ 3,5-dinitrobenzoate
;
_cell_volume   1657.469
_exptl_crystal_density_diffrn 1.18
_exptl_special_details
;
ATOM LABEL H22 OCCURS TWICE IN COORD. TABLE. WE HAVE CALLED THE SECOND ATOM 
H220
;
_diffrn_ambient_temperature ?
_diffrn_special_details
;
The study was carried out at room temperature,in the range 283-303K

;
#These two values have been output from a single CSD field.
_refine_ls_R_factor_gt 0.056
_refine_ls_wR_factor_gt 0.056
_symmetry_cell_setting monoclinic
_symmetry_space_group_name_H-M 'P 21'
_symmetry_Int_Tables_number 4
loop_
_symmetry_equiv_pos_site_id
_symmetry_equiv_pos_as_xyz
1 x,y,z
2 -x,1/2+y,-z
_cell_length_a 6.358(1)
_cell_length_b 21.808(3)
_cell_length_c 12.259(2)
_cell_angle_alpha 90
_cell_angle_beta 102.81(1)
_cell_angle_gamma 90
_cell_formula_units_Z 2
loop_
_atom_type_symbol
_atom_type_radius_bond
C 0.68
H 0.23
N 0.68
O 0.68
loop_
_atom_site_label
_atom_site_type_symbol
_atom_site_fract_x
_atom_site_fract_y
_atom_site_fract_z
C1 C 0.37030 -0.26530 0.42500
C2 C 0.26540 -0.22030 0.48930
C3 C 0.78860 -0.20220 0.92890
C4 C 0.79100 -0.25370 1.01510
C5 C 0.56400 -0.28150 1.00360
C6 C 0.47860 -0.29990 0.88050
C7 C 0.27260 -0.33690 0.88100
C8 C 0.32750 -0.36920 0.99600
C9 C 0.55240 -0.34500 1.05730
C10 C 0.42000 -0.23600 1.05000
C11 C 0.15820 -0.16730 0.42060
C12 C 0.44490 -0.32350 0.49240
C13 C 0.58540 -0.35280 1.18580
C14 C 0.80250 -0.32900 1.25160
C15 C 0.55810 -0.41980 1.21050
C16 C 0.40190 -0.44470 1.24730
C17 C 0.37060 -0.51170 1.26250
C18 C 0.36350 -0.52860 1.38170
C19 C 0.57120 -0.51180 1.46160
C20 C 0.16180 -0.50630 1.40860
C21 C 0.17260 -0.53380 1.17500
C22 C 0.55640 -0.30780 0.61110
C23 C 0.85820 -0.44790 0.72760
C24 C 0.74200 -0.46550 0.80630
C25 C 0.79810 -0.51950 0.86570
C26 C 0.96350 -0.55610 0.85130
C27 C 1.07610 -0.53790 0.77240
C28 C 1.02820 -0.48470 0.71140
C29 C 0.80910 -0.39090 0.65980
C30 C 0.39890 -0.27780 0.66890
C31 C 0.28290 -0.22580 0.59930
C32 C 0.21520 -0.18530 0.67810
C33 C 0.30780 -0.19870 0.78370
C34 C 0.47460 -0.25030 0.78950
C35 C 0.70420 -0.22420 0.81010
H1 H 0.26390 -0.27700 0.35510
H2 H 0.69410 -0.16820 0.94490
H3 H 0.93900 -0.18660 0.93630
H4 H 0.49820 -0.24530 0.40510
H5 H 0.84080 -0.23660 1.09210
H6 H 0.89260 -0.28670 1.00260
H7 H 0.58410 -0.33110 0.86570
H8 H 0.24340 -0.36740 0.81860
H9 H 0.14510 -0.30920 0.87480
H10 H 0.33250 -0.41460 0.98580
H11 H 0.21700 -0.35900 1.03990
H12 H 0.66230 -0.37150 1.03320
H13 H 0.48720 -0.22670 1.13000
H14 H 0.40510 -0.19730 1.00530
H15 H 0.27440 -0.25460 1.04480
H16 H 0.16530 -0.17340 0.34060
H17 H 0.00400 -0.16480 0.42620
H18 H 0.23400 -0.12840 0.44910
H19 H 0.46900 -0.32940 1.21050
H20 H 0.54770 -0.34630 0.45610
H21 H 0.81300 -0.33540 1.33340
H22 H 0.92170 -0.35170 1.22810
H23 H 0.81480 -0.28420 1.23640
H24 H 0.67330 -0.44820 1.19700
H25 H 0.31680 -0.34990 0.49340
H26 H 0.29240 -0.41640 1.26720
H27 H 0.49900 -0.53290 1.24550
H28 H 0.35520 -0.57430 1.38310
H29 H 0.69550 -0.52940 1.43440
H30 H 0.58530 -0.46620 1.46620
H31 H 0.57080 -0.52880 1.53740
H32 H 0.15940 -0.51780 1.48730
H33 H 0.15370 -0.46070 1.40050
H34 H 0.03560 -0.52540 1.35630
H35 H 0.15120 -0.57870 1.18500
H36 H 0.04170 -0.51090 1.18490
H37 H 0.19630 -0.52600 1.09820
H38 H 0.68210 -0.28000 0.61180
H39 H 0.62040 -0.43960 0.81980
H40 H 1.00180 -0.59450 0.89590
H41 H 1.11450 -0.47260 0.65590
H42 H 0.28710 -0.30940 0.67340
H43 H 0.11020 -0.15100 0.65580
H44 H 0.27350 -0.17790 0.85030
H45 H 0.70440 -0.18880 0.75820
H46 H 0.80270 -0.25690 0.79360
N1 N 0.67310 -0.53800 0.94740
N2 N 1.25330 -0.57690 0.75450
O1 O 1.36120 -0.55780 0.69270
O2 O 1.27770 -0.62620 0.80190
O3 O 0.92010 -0.37230 0.59960
O4 O 0.62850 -0.36490 0.67310
O5 O 0.73180 -0.58310 1.00240
O6 O 0.51250 -0.50910 0.95140
#END
