
#######################################################################
#
#                 Cambridge Crystallographic Data Centre
#                                CCDC
#
#######################################################################
#
# If this CIF has been generated from an entry in the Cambridge
# Structural Database, then it will include bibliographic, chemical,
# crystal, experimental, refinement or atomic coordinate data resulting
# from the CCDC's data processing and validation procedures.
#
#######################################################################

data_CSD_CIF_TOXXIN
_audit_creation_date 1997-05-19
_audit_creation_method CSD-ConQuest-V1
_database_code_CSD TOXXIN
_database_code_depnum_ccdc_archive 'CCDC 1274867'
_chemical_formula_sum 'C12 H13 N3 O2'
_chemical_formula_moiety
;
C12 H13 N3 O2
;
_journal_coden_Cambridge 542
_journal_volume 31
_journal_year 1996
_journal_page_first 187
_journal_name_full 'Cryst.Res.Technol. '
loop_
_publ_author_name
"S.Ide"
"A.Topacli"
"S.Bayari"
_chemical_name_systematic
;
5-Methyl-3-isoxazole carboxylic acid 2-benzylhydrazine
;
_chemical_name_common
;
Isocarboxazid; Enerzer; Marplan; DrugBank: DB01247
;
_chemical_melting_point 378.15
_cell_volume   1177.105
_exptl_crystal_colour 'colorless'
_exptl_crystal_density_diffrn 1.305
_exptl_special_details
;
Melting point range 378.15-379.15K
antidepressant drug

;
_diffrn_ambient_temperature ?
_diffrn_special_details
;
The study was carried out at room temperature,in the range 283-303K

;
#These two values have been output from a single CSD field.
_refine_ls_R_factor_gt 0.047
_refine_ls_wR_factor_gt 0.047
_symmetry_cell_setting monoclinic
_symmetry_space_group_name_H-M 'P 21/c'
_symmetry_Int_Tables_number 14
loop_
_symmetry_equiv_pos_site_id
_symmetry_equiv_pos_as_xyz
1 x,y,z
2 -x,1/2+y,1/2-z
3 -x,-y,-z
4 x,-1/2-y,-1/2+z
_cell_length_a 6.376(1)
_cell_length_b 14.131(1)
_cell_length_c 13.256(1)
_cell_angle_alpha 90
_cell_angle_beta 99.75(1)
_cell_angle_gamma 90
_cell_formula_units_Z 4
loop_
_atom_type_symbol
_atom_type_radius_bond
C 0.68
N 0.68
O 0.68
loop_
_atom_site_label
_atom_site_type_symbol
_atom_site_fract_x
_atom_site_fract_y
_atom_site_fract_z
N1 N 0.1909(8) 0.4222(4) 0.4965(4)
C1 C 0.626(1) 0.3609(6) 0.3529(5)
N2 N 0.1347(9) 0.4354(4) 0.5953(4)
O1 O 0.3916(8) 0.3985(4) 0.2189(3)
O2 O 0.5061(7) 0.3549(4) 0.5604(3)
C2 C 0.596(1) 0.3726(5) 0.2524(5)
C3 C 0.429(1) 0.3824(5) 0.3820(5)
C4 C -0.114(1) 0.3795(6) 0.7879(5)
C5 C 0.060(1) 0.3456(5) 0.6353(5)
N3 N 0.2871(9) 0.4065(5) 0.3043(4)
C6 C 0.380(1) 0.3847(5) 0.4876(5)
C7 C 0.067(1) 0.3562(5) 0.7474(5)
C8 C -0.102(1) 0.3914(7) 0.8914(6)
C9 C 0.731(1) 0.3642(6) 0.1712(5)
C10 C 0.251(1) 0.3440(6) 0.8150(6)
C11 C 0.081(1) 0.3799(6) 0.9577(6)
C12 C 0.262(1) 0.3569(6) 0.9193(6)
#END
