
#######################################################################
#
#                 Cambridge Crystallographic Data Centre
#                                CCDC
#
#######################################################################
#
# If this CIF has been generated from an entry in the Cambridge
# Structural Database, then it will include bibliographic, chemical,
# crystal, experimental, refinement or atomic coordinate data resulting
# from the CCDC's data processing and validation procedures.
#
#######################################################################

data_CSD_CIF_TOXYAI
_audit_creation_date 2014-12-23
_audit_creation_method CSD-ConQuest-V1
_database_code_CSD TOXYAI
_database_code_depnum_ccdc_archive 'CCDC 1040851'
_chemical_formula_sum 'C15 H9 N1 O2'
_chemical_formula_moiety
;
C15 H9 N1 O2
;
_journal_coden_Cambridge 1336
_journal_volume 17
_journal_year 2015
_journal_page_first 426
_journal_name_full 'Org.Lett. '
loop_
_publ_author_name
"Wei Sun"
"Min Wang"
"Yicheng Zhang"
"Lei Wang"
_chemical_name_systematic
;
naphtho[1',2':4,5]furo[3,2-b]pyridine 11-oxide
;
_cell_volume   1079.548
_exptl_crystal_colour 'colorless'
_exptl_crystal_density_diffrn 1.447
_exptl_crystal_description 'block'
_diffrn_ambient_temperature 293
#These two values have been output from a single CSD field.
_refine_ls_R_factor_gt 0.0413
_refine_ls_wR_factor_gt 0.0413
_symmetry_cell_setting monoclinic
_symmetry_space_group_name_H-M 'P 21/c'
_symmetry_Int_Tables_number 14
loop_
_symmetry_equiv_pos_site_id
_symmetry_equiv_pos_as_xyz
1 x,y,z
2 -x,1/2+y,1/2-z
3 -x,-y,-z
4 x,-1/2-y,-1/2+z
_cell_length_a 7.1088(4)
_cell_length_b 11.6702(6)
_cell_length_c 14.3646(7)
_cell_angle_alpha 90
_cell_angle_beta 115.057(3)
_cell_angle_gamma 90
_cell_formula_units_Z 4
loop_
_atom_type_symbol
_atom_type_radius_bond
C 0.68
H 0.23
N 0.68
O 0.68
loop_
_atom_site_label
_atom_site_type_symbol
_atom_site_fract_x
_atom_site_fract_y
_atom_site_fract_z
C1 C 0.2054(3) 0.67147(19) -0.17155(18)
H1 H 0.18290 0.68030 -0.23980
C2 C 0.2369(3) 0.76749(19) -0.1107(2)
H2 H 0.23140 0.83950 -0.13950
C3 C 0.2757(3) 0.75979(18) -0.0096(2)
H3 H 0.29880 0.82400 0.03210
C4 C 0.2784(2) 0.65142(14) 0.02618(17)
C5 C 0.2437(2) 0.55224(13) -0.03341(13)
C6 C 0.2590(2) 0.45651(13) 0.03296(12)
C7 C 0.3029(2) 0.50717(15) 0.12729(13)
C8 C 0.3339(3) 0.44898(17) 0.21704(14)
H4 H 0.36290 0.48770 0.27820
C9 C 0.3200(3) 0.33376(17) 0.21132(14)
H5 H 0.34120 0.29220 0.27020
C10 C 0.2741(2) 0.27445(15) 0.11862(13)
C11 C 0.2591(3) 0.15322(16) 0.11621(16)
H6 H 0.27940 0.11340 0.17580
C12 C 0.2155(3) 0.09501(16) 0.02790(19)
H7 H 0.20850 0.01540 0.02760
C13 C 0.1810(3) 0.15309(16) -0.06220(17)
H8 H 0.14950 0.11200 -0.12240
C14 C 0.1929(3) 0.26968(15) -0.06359(14)
H9 H 0.16880 0.30710 -0.12480
C15 C 0.2412(2) 0.33384(13) 0.02654(12)
N1 N 0.2063(2) 0.56365(14) -0.13413(13)
O1 O 0.1718(2) 0.47588(13) -0.19393(10)
O2 O 0.31426(19) 0.62445(10) 0.12469(11)
#END
