
#######################################################################
#
#                 Cambridge Crystallographic Data Centre
#                                CCDC
#
#######################################################################
#
# If this CIF has been generated from an entry in the Cambridge
# Structural Database, then it will include bibliographic, chemical,
# crystal, experimental, refinement or atomic coordinate data resulting
# from the CCDC's data processing and validation procedures.
#
#######################################################################

data_CSD_CIF_TOYGIZ
_audit_creation_date 2014-12-23
_audit_creation_method CSD-ConQuest-V1
_database_code_CSD TOYGIZ
_database_code_depnum_ccdc_archive 'CCDC 1024000'
_chemical_formula_sum 'C8 H7 N1 O4'
_chemical_formula_moiety
;
C8 H7 N1 O4
;
_journal_coden_Cambridge 1350
_journal_volume 17
_journal_year 2015
_journal_page_first 1273
_journal_name_full 'CrystEngComm '
loop_
_publ_author_name
"S.Saha"
"L.Rajput"
"S.Joseph"
"M.K.Mishra"
"Somnath Ganguly"
"G.R.Desiraju"
_chemical_name_systematic
;
3-methyl-4-nitrobenzoic acid
;
_cell_volume    774.890
_exptl_crystal_colour 'colorless'
_exptl_crystal_density_diffrn 1.553
_exptl_crystal_description 'Block'
_diffrn_ambient_temperature 150
#These two values have been output from a single CSD field.
_refine_ls_R_factor_gt 0.0755
_refine_ls_wR_factor_gt 0.0755
_symmetry_cell_setting triclinic
_symmetry_space_group_name_H-M 'P -1'
_symmetry_Int_Tables_number 2
loop_
_symmetry_equiv_pos_site_id
_symmetry_equiv_pos_as_xyz
1 x,y,z
2 -x,-y,-z
_cell_length_a 7.463
_cell_length_b 7.747
_cell_length_c 15.435
_cell_angle_alpha 94.52
_cell_angle_beta 97.04
_cell_angle_gamma 117.68
_cell_formula_units_Z 4
loop_
_atom_type_symbol
_atom_type_radius_bond
C 0.68
H 0.23
N 0.68
O 0.68
loop_
_atom_site_label
_atom_site_type_symbol
_atom_site_fract_x
_atom_site_fract_y
_atom_site_fract_z
C1 C 0.7756(4) 1.3005(4) 0.33041(18)
N1 N 1.1294(4) 1.3731(4) 0.13047(17)
C2 C 0.6926(4) 1.3032(4) 0.24492(19)
H1 H 0.55880 1.29100 0.23380
C3 C 0.9971(4) 1.3450(4) 0.19751(18)
O1 O 0.4849(3) 1.2805(4) 0.38481(14)
H2 H 0.43210 1.26850 0.43050
O2 O 0.7275(4) 1.2646(4) 0.47785(14)
C4 C 0.7994(4) 1.3231(4) 0.17523(18)
C5 C 0.6547(4) 1.2800(5) 0.40187(19)
C6 C 1.0830(5) 1.3428(5) 0.2824(2)
H3 H 1.21790 1.35810 0.29430
C7 C 0.9699(5) 1.3180(5) 0.3490(2)
H4 H 1.02480 1.31300 0.40710
O3 O 1.0500(4) 1.3325(4) 0.05290(15)
O4 O 1.3122(3) 1.4330(3) 0.15627(16)
C8 C 0.6977(5) 1.3244(5) 0.0855(2)
H5 H 0.67140 1.20740 0.04530
H6 H 0.78810 1.44350 0.06270
H7 H 0.56720 1.32320 0.08970
C9 C 0.7806(5) 0.7985(4) 0.34246(19)
C10 C 0.7010(4) 0.8055(4) 0.25728(18)
H8 H 0.56740 0.79340 0.24520
N2 N 1.1434(4) 0.8827(4) 0.14687(16)
C11 C 0.8135(4) 0.8298(4) 0.18916(19)
C12 C 1.0886(4) 0.8360(4) 0.2963(2)
H9 H 1.22070 0.84450 0.30830
O5 O 0.4881(4) 0.7776(4) 0.39645(15)
H10 H 0.43400 0.76340 0.44180
C13 C 1.0076(4) 0.8472(4) 0.21238(19)
C14 C 0.6560(5) 0.7747(5) 0.41325(19)
O6 O 0.7260(4) 0.7529(4) 0.48815(14)
C15 C 0.9725(5) 0.8119(5) 0.3623(2)
H11 H 1.02430 0.80470 0.42050
C16 C 0.7179(4) 0.8281(5) 0.09715(18)
H12 H 0.78450 0.96160 0.08200
H13 H 0.57070 0.78320 0.09440
H14 H 0.73620 0.73850 0.05510
O7 O 1.2398(4) 0.7905(4) 0.14522(16)
O8 O 1.1592(4) 1.0050(3) 0.09998(16)
#END
