
#######################################################################
#
#                 Cambridge Crystallographic Data Centre
#                                CCDC
#
#######################################################################
#
# If this CIF has been generated from an entry in the Cambridge
# Structural Database, then it will include bibliographic, chemical,
# crystal, experimental, refinement or atomic coordinate data resulting
# from the CCDC's data processing and validation procedures.
#
#######################################################################

data_CSD_CIF_TOYYEL
_audit_creation_date 1997-05-19
_audit_creation_method CSD-ConQuest-V1
_database_code_CSD TOYYEL
_database_code_depnum_ccdc_archive 'CCDC 131625'
_chemical_formula_sum 'C13 H11 N3 O4'
_chemical_formula_moiety
;
C13 H11 N3 O4
;
_journal_coeditor_code "IUCr DE0002"
_journal_coden_Cambridge 622
_journal_volume 53
_journal_year 1997
_journal_page_first 306
_journal_name_full 'Acta Crystallogr.,Sect.B:Struct.Sci. '
loop_
_publ_author_name
"S.Khatib"
"M.Botoshansky"
"Y.Eichen"
_chemical_name_systematic
;
1-(2,4-Dinitrobenzyl)-1-(2-pyridyl)ethane
;
_cell_volume   1310.551
_exptl_crystal_colour 'colorless'
_exptl_crystal_density_diffrn 1.385
_diffrn_ambient_temperature ?
_diffrn_special_details
;
The study was carried out at room temperature,in the range 283-303K

;
#These two values have been output from a single CSD field.
_refine_ls_R_factor_gt 0.064
_refine_ls_wR_factor_gt 0.064
_symmetry_cell_setting triclinic
_symmetry_space_group_name_H-M 'P -1'
_symmetry_Int_Tables_number 2
loop_
_symmetry_equiv_pos_site_id
_symmetry_equiv_pos_as_xyz
1 x,y,z
2 -x,-y,-z
_cell_length_a 10.214(3)
_cell_length_b 13.221(4)
_cell_length_c 10.068(3)
_cell_angle_alpha 92.12(3)
_cell_angle_beta 105.29(3)
_cell_angle_gamma 89.55(3)
_cell_formula_units_Z 4
loop_
_atom_type_symbol
_atom_type_radius_bond
C 0.68
H 0.23
N 0.68
O 0.68
loop_
_atom_site_label
_atom_site_type_symbol
_atom_site_fract_x
_atom_site_fract_y
_atom_site_fract_z
C1 C -0.0752(6) 0.6362(5) 0.2579(7)
C2 C -0.0643(6) 0.6754(5) 0.3871(7)
C3 C 0.0503(7) 0.6528(5) 0.4878(7)
C4 C 0.1481(7) 0.5934(5) 0.4526(6)
C5 C 0.1283(4) 0.5557(3) 0.3182(5)
C6 C 0.2312(5) 0.4869(4) 0.2750(5)
C7 C 0.2920(4) 0.5365(3) 0.1698(4)
C8 C 0.2216(5) 0.5381(4) 0.0314(5)
C9 C 0.2695(6) 0.5836(4) -0.0680(6)
C10 C 0.3952(5) 0.6276(4) -0.0294(5)
C11 C 0.4748(5) 0.6269(4) 0.1041(5)
C12 C 0.4191(4) 0.5830(3) 0.2005(4)
C13 C 0.1652(7) 0.3834(5) 0.2201(8)
N1 N 0.0171(4) 0.5767(3) 0.2201(4)
N2 N 0.5083(5) 0.5862(3) 0.3447(5)
N3 N 0.4511(6) 0.6782(4) -0.1335(5)
O1 O 0.4561(4) 0.6106(3) 0.4380(4)
O2 O 0.6278(4) 0.5676(3) 0.3584(4)
O3 O 0.5666(5) 0.7113(3) -0.0964(5)
O4 O 0.3758(6) 0.6870(4) -0.2478(5)
C14 C 0.7386(10) 0.1482(5) -0.0795(7)
C15 C 0.8658(13) 0.1877(5) -0.0676(11)
C16 C 0.9684(11) 0.1627(7) 0.0419(11)
C17 C 0.9422(7) 0.1002(6) 0.1371(8)
C18 C 0.8122(5) 0.0628(4) 0.1209(5)
C19 C 0.7785(5) -0.0090(4) 0.2223(5)
C20 C 0.6771(4) 0.0389(3) 0.2937(4)
C21 C 0.5383(5) 0.0377(4) 0.2264(5)
C22 C 0.4422(6) 0.0780(4) 0.2868(6)
C23 C 0.4825(5) 0.1224(4) 0.4168(6)
C24 C 0.6157(6) 0.1258(4) 0.4878(6)
C25 C 0.7109(5) 0.0850(4) 0.4253(5)
C26 C 0.7282(8) -0.1107(5) 0.1491(7)
N4 N 0.7098(4) 0.0869(3) 0.0138(4)
N5 N 0.8536(5) 0.0920(4) 0.5095(5)
N6 N 0.3792(6) 0.1648(4) 0.4832(6)
O5 O 0.9429(4) 0.1068(3) 0.4526(4)
O6 O 0.8726(4) 0.0842(4) 0.6347(4)
O7 O 0.4179(5) 0.1944(3) 0.6045(5)
O8 O 0.2615(5) 0.1644(4) 0.4153(6)
H1 H -0.1440(51) 0.6463(38) 0.1850(51)
H2 H -0.1304(51) 0.7156(39) 0.4151(52)
H3 H 0.0643(57) 0.6819(45) 0.5774(63)
H4 H 0.2226(48) 0.5768(37) 0.511(5)
H5 H 0.2977(40) 0.4687(30) 0.3505(43)
H6 H 0.1413(40) 0.5061(29) 0.0037(38)
H7 H 0.2217(47) 0.5899(36) -0.1596(54)
H8 H 0.5642(44) 0.6616(32) 0.1349(43)
H9 H 0.1432(55) 0.3501(44) 0.2988(61)
H10 H 0.2273(46) 0.3412(35) 0.1909(45)
H11 H 0.0827(62) 0.3914(45) 0.1374(64)
H12 H 0.6611(55) 0.1669(43) -0.1517(60)
H13 H 0.8720(52) 0.2234(41) -0.1379(58)
H14 H 1.0621(72) 0.1876(53) 0.0520(69)
H15 H 1.0114(52) 0.0735(39) 0.2150(56)
H16 H 0.8560(43) -0.0280(32) 0.2902(45)
H17 H 0.5088(46) 0.0023(35) 0.1370(51)
H18 H 0.3482(46) 0.0782(32) 0.2404(43)
H19 H 0.6410(42) 0.1542(33) 0.5744(47)
H20 H 0.6558(52) -0.0999(39) 0.0691(57)
H21 H 0.6993(50) -0.1544(40) 0.2076(55)
H22 H 0.8029(51) -0.1387(38) 0.1126(51)
#END
