
#######################################################################
#
#                 Cambridge Crystallographic Data Centre
#                                CCDC
#
#######################################################################
#
# If this CIF has been generated from an entry in the Cambridge
# Structural Database, then it will include bibliographic, chemical,
# crystal, experimental, refinement or atomic coordinate data resulting
# from the CCDC's data processing and validation procedures.
#
#######################################################################

data_CSD_CIF_TOYYIP
_audit_creation_date 1997-05-19
_audit_creation_method CSD-ConQuest-V1
_database_code_CSD TOYYIP
_database_code_depnum_ccdc_archive 'CCDC 131626'
_chemical_formula_sum 'C18 H14 N4 O4'
_chemical_formula_moiety
;
C18 H14 N4 O4
;
_journal_coeditor_code "IUCr DE0002"
_journal_coden_Cambridge 622
_journal_volume 53
_journal_year 1997
_journal_page_first 306
_journal_name_full 'Acta Crystallogr.,Sect.B:Struct.Sci. '
loop_
_publ_author_name
"S.Khatib"
"M.Botoshansky"
"Y.Eichen"
_chemical_name_systematic
;
4'-(2,4-Dinitrobenzyl)-4-methyl-2,2'-bipyridine
;
_cell_volume   1681.432
_exptl_crystal_colour 'colorless'
_exptl_crystal_density_diffrn 1.384
_diffrn_ambient_temperature ?
_diffrn_special_details
;
The study was carried out at room temperature,in the range 283-303K

;
#These two values have been output from a single CSD field.
_refine_ls_R_factor_gt 0.0575
_refine_ls_wR_factor_gt 0.0575
_symmetry_cell_setting monoclinic
_symmetry_space_group_name_H-M 'P 21/c'
_symmetry_Int_Tables_number 14
loop_
_symmetry_equiv_pos_site_id
_symmetry_equiv_pos_as_xyz
1 x,y,z
2 -x,1/2+y,1/2-z
3 -x,-y,-z
4 x,-1/2-y,-1/2+z
_cell_length_a 9.941(3)
_cell_length_b 11.195(3)
_cell_length_c 15.463(5)
_cell_angle_alpha 90
_cell_angle_beta 102.29(3)
_cell_angle_gamma 90
_cell_formula_units_Z 4
loop_
_atom_type_symbol
_atom_type_radius_bond
C 0.68
H 0.23
N 0.68
O 0.68
loop_
_atom_site_label
_atom_site_type_symbol
_atom_site_fract_x
_atom_site_fract_y
_atom_site_fract_z
C1 C 0.1499(6) -0.0740(5) 0.9356(4)
C2 C 0.1938(5) -0.0037(4) 1.0079(3)
C3 C 0.2974(4) 0.0783(3) 1.0057(2)
C4 C 0.3483(4) 0.0809(4) 0.9294(3)
C5 C 0.2990(4) 0.0061(4) 0.8596(3)
C6 C 0.3554(5) 0.1558(5) 1.0851(3)
C7 C 0.2479(4) 0.2142(3) 1.1274(2)
C8 C 0.2335(5) 0.1737(4) 1.2094(3)
C9 C 0.1353(5) 0.2179(4) 1.2518(3)
C10 C 0.0496(4) 0.3057(4) 1.2101(3)
C11 C 0.0577(4) 0.3493(4) 1.1286(3)
C12 C 0.1571(4) 0.3021(3) 1.0890(2)
C13 C 0.3578(4) 0.0051(4) 0.7788(3)
C14 C 0.5167(5) 0.0830(5) 0.7070(4)
C15 C 0.4823(6) 0.0021(5) 0.6389(4)
C16 C 0.3781(5) -0.0789(5) 0.6390(3)
C17 C 0.3157(5) -0.0758(4) 0.7116(3)
C18 C 0.3322(10) -0.1678(9) 0.5654(5)
N1 N 0.1987(4) -0.0724(3) 0.8618(2)
N2 N 0.1622(5) 0.3518(3) 1.0013(2)
N3 N -0.0562(5) 0.3541(4) 1.2540(4)
N4 N 0.4579(3) 0.0860(3) 0.7775(2)
O1 O 0.2687(4) 0.3503(3) 0.9751(2)
O2 O 0.0522(5) 0.3881(4) 0.9573(2)
O3 O -0.1429(5) 0.4199(4) 1.2100(4)
O4 O -0.0528(5) 0.3265(4) 1.3299(3)
H1 H 0.0781(42) -0.1285(38) 0.9351(26)
H2 H 0.1626(34) -0.0101(32) 1.0623(23)
H3 H 0.4185(35) 0.1387(31) 0.9231(22)
H4 H 0.4176(37) 0.2125(32) 1.0699(23)
H5 H 0.4157(48) 0.1090(42) 1.1301(30)
H6 H 0.2902(38) 0.1089(35) 1.2358(25)
H7 H 0.1288(39) 0.1869(36) 1.3123(28)
H8 H -0.0066(40) 0.4127(37) 1.0993(25)
H9 H 0.5947(46) 0.1433(41) 0.7076(28)
H10 H 0.5280(45) 0.0088(41) 0.5869(29)
H11 H 0.2473(35) -0.1329(32) 0.7176(23)
H12 H 0.2304(94) -0.1413(89) 0.5218(60)
H13 H 0.3387(61) -0.2370(52) 0.5862(37)
H14 H 0.3942(70) -0.1686(67) 0.5310(46)
#END
