
#######################################################################
#
#                 Cambridge Crystallographic Data Centre
#                                CCDC
#
#######################################################################
#
# If this CIF has been generated from an entry in the Cambridge
# Structural Database, then it will include bibliographic, chemical,
# crystal, experimental, refinement or atomic coordinate data resulting
# from the CCDC's data processing and validation procedures.
#
#######################################################################

data_CSD_CIF_TRCHST
_audit_creation_date 1981-09-30
_audit_creation_method CSD-ConQuest-V1
_database_code_CSD TRCHST
_database_code_depnum_ccdc_archive 'CCDC 1275649'
_chemical_formula_sum 'C17 H22 N2 O3'
_chemical_formula_moiety
;
C17 H22 N2 O3
;
_journal_coeditor_code "IUCr A19991"
_journal_coden_Cambridge 107
_journal_volume 37
_journal_year 1981
_journal_page_first 718
_journal_name_full 'Acta Crystallogr.,Sect.B:Struct.Crystallogr.Cryst.Chem. '
loop_
_publ_author_name
"D.L.Eng-Wilmot"
"D.van der Helm"
_chemical_name_systematic
;
Trichostatin A
;
_cell_volume   3306.716
_exptl_crystal_colour 'colorless'
_exptl_special_details
;
antifungal antibiotic
At room temp. a=10.499(4) b=41.528(24) c=7.753(2) V=3380 dx=1.188
;
_diffrn_ambient_temperature 138
#These two values have been output from a single CSD field.
_refine_ls_R_factor_gt 0.097
_refine_ls_wR_factor_gt 0.097
_chemical_compound_source
;
Streptomyces hygroscopicus
;
_symmetry_cell_setting orthorhombic
_symmetry_space_group_name_H-M 'P 21 21 21'
_symmetry_Int_Tables_number 19
loop_
_symmetry_equiv_pos_site_id
_symmetry_equiv_pos_as_xyz
1 x,y,z
2 1/2+x,1/2-y,-z
3 -x,1/2+y,1/2-z
4 1/2-x,-y,1/2+z
_cell_length_a 10.446(3)
_cell_length_b 41.277(16)
_cell_length_c 7.669(2)
_cell_angle_alpha 90
_cell_angle_beta 90
_cell_angle_gamma 90
_cell_formula_units_Z 8
loop_
_atom_type_symbol
_atom_type_radius_bond
C 0.68
H 0.23
N 0.68
O 0.68
loop_
_atom_site_label
_atom_site_type_symbol
_atom_site_fract_x
_atom_site_fract_y
_atom_site_fract_z
O1 O 0.62600 0.10778 -0.93580
O2 O 0.54570 0.11796 -0.60310
O3 O 0.62010 0.01426 0.11140
N1 N 0.60250 0.08251 -0.81950
N2 N 0.54150 -0.13415 0.31220
C1 C 0.52340 -0.03715 0.15140
C2 C 0.41490 -0.05607 0.15960
C3 C 0.41660 -0.08782 0.21190
C4 C 0.53480 -0.10234 0.25980
C5 C 0.64410 -0.08290 0.25590
C6 C 0.63790 -0.05117 0.20800
C7 C 0.52570 -0.00288 0.09580
C8 C 0.40290 0.01084 0.01150
C9 C 0.43110 0.03745 -0.11600
C10 C 0.48680 0.03278 -0.27450
C11 C 0.50290 0.06163 -0.38550
C12 C 0.55520 0.06064 -0.54650
C13 C 0.56640 0.08988 -0.65330
C14 C 0.31510 0.02343 0.15880
C15 C 0.53230 0.00018 -0.33830
C16 C 0.66620 -0.15035 0.31760
C17 C 0.42770 -0.15416 0.31310
H1 H 0.32400 -0.04900 0.12700
H2 H 0.31900 -0.09600 0.22500
H3 H 0.74900 -0.09000 0.29600
H4 H 0.70200 -0.03900 0.20900
H5 H 0.32700 -0.00900 -0.04700
H6 H 0.41600 0.06400 -0.08700
H7 H 0.47400 0.08500 -0.32100
H8 H 0.58400 0.03500 -0.57700
H9 H 0.62000 0.05800 -0.82800
O4 O 0.34610 0.13803 -0.42710
O5 O 0.41720 0.12678 -0.09370
O6 O 0.38080 0.23431 0.62140
N3 N 0.38010 0.16286 -0.31280
N4 N 0.52940 0.38215 0.75620
C18 C 0.49800 0.28300 0.64980
C19 C 0.61730 0.29875 0.64530
C20 C 0.62660 0.33099 0.68800
C21 C 0.52050 0.35004 0.72720
C22 C 0.39870 0.33399 0.73130
C23 C 0.39160 0.30119 0.69890
C24 C 0.48140 0.24934 0.59890
C25 C 0.59560 0.23157 0.51930
C26 C 0.55580 0.20556 0.39220
C27 C 0.51010 0.21112 0.22950
C28 C 0.47770 0.18287 0.12370
C29 C 0.43320 0.18442 -0.04300
C30 C 0.40940 0.15591 -0.14400
C31 C 0.67800 0.21707 0.66840
C32 C 0.49270 0.24468 0.15280
C33 C 0.65550 0.39828 0.76760
C34 C 0.41730 0.40320 0.75930
H10 H 0.30000 0.29000 0.70000
H11 H 0.31100 0.34700 0.76500
H12 H 0.70000 0.34700 0.64000
H13 H 0.68600 0.28700 0.62100
H14 H 0.64800 0.25000 0.44600
H15 H 0.56600 0.18200 0.41700
H16 H 0.50200 0.16200 0.21000
H17 H 0.43800 0.20600 -0.07600
H18 H 0.40200 0.18400 -0.34000
#END
