
#######################################################################
#
#                 Cambridge Crystallographic Data Centre
#                                CCDC
#
#######################################################################
#
# If this CIF has been generated from an entry in the Cambridge
# Structural Database, then it will include bibliographic, chemical,
# crystal, experimental, refinement or atomic coordinate data resulting
# from the CCDC's data processing and validation procedures.
#
#######################################################################

data_CSD_CIF_TUBFUR
_audit_creation_date 1997-05-29
_audit_creation_method CSD-ConQuest-V1
_database_code_CSD TUBFUR
_database_code_depnum_ccdc_journal 179/89
_chemical_formula_sum 'C24 H28 N2 O8'
_chemical_formula_moiety
;
C24 H28 N2 O8
;
_journal_coden_Cambridge 179
_journal_volume 35
_journal_year 1996
_journal_page_first 2396
_journal_name_full 'Angew.Chem.,Int.Ed. '
loop_
_publ_author_name
"M.Gerster"
"K.Schenk"
"P.Renaud"
_chemical_name_systematic
;
2,2-Dimethyl-3-(3,5-dinitrobenzoyloxy)-4-(4-methoxyphenoxy)oct-7-ene
;
_cell_volume   2467.782
_exptl_crystal_density_diffrn 1.272
_diffrn_ambient_temperature ?
_diffrn_special_details
;
The study was carried out at room temperature,in the range 283-303K

;
#These two values have been output from a single CSD field.
_refine_ls_R_factor_gt 0.0573
_refine_ls_wR_factor_gt 0.0573
_symmetry_cell_setting monoclinic
_symmetry_space_group_name_H-M 'P 21/c'
_symmetry_Int_Tables_number 14
loop_
_symmetry_equiv_pos_site_id
_symmetry_equiv_pos_as_xyz
1 x,y,z
2 -x,1/2+y,1/2-z
3 -x,-y,-z
4 x,-1/2-y,-1/2+z
_cell_length_a 12.226(6)
_cell_length_b 16.643(6)
_cell_length_c 12.488(7)
_cell_angle_alpha 90
_cell_angle_beta 103.79(4)
_cell_angle_gamma 90
_cell_formula_units_Z 4
loop_
_atom_type_symbol
_atom_type_radius_bond
C 0.68
N 0.68
O 0.68
loop_
_atom_site_label
_atom_site_type_symbol
_atom_site_fract_x
_atom_site_fract_y
_atom_site_fract_z
O1 O -0.4684(2) -0.4113(1) -0.2725(2)
O2 O -0.3673(2) -0.4681(2) -0.3804(2)
O3 O -0.6023(2) -0.4532(1) -0.1582(2)
O4 O -0.8906(2) -0.4393(1) 0.1198(2)
O5 O -0.2923(3) -0.2925(2) 0.0732(2)
O6 O -0.1108(3) -0.2856(2) 0.1244(2)
O7 O 0.0920(2) -0.2935(2) -0.1656(3)
O8 O 0.0314(2) -0.3760(2) -0.3000(2)
N1 N -0.1980(4) -0.3003(2) 0.0573(3)
N2 N 0.0212(3) -0.3387(2) -0.2190(3)
C1 C -0.7542(4) -0.3795(3) -0.4665(5)
C2 C -0.6410(4) -0.3570(2) -0.3898(3)
C3 C -0.5773(3) -0.4337(2) -0.3404(3)
C4 C -0.6354(3) -0.4840(2) -0.2683(3)
C5 C -0.6034(4) -0.5735(2) -0.2682(3)
C6 C -0.6718(4) -0.6187(3) -0.3688(4)
C7 C -0.7922(5) -0.6301(3) -0.3642(5)
C8 C -0.8787(6) -0.6006(4) -0.4332(5)
C9 C -0.5716(4) -0.3136(3) -0.4598(4)
C10 C -0.6595(4) -0.3002(3) -0.3002(4)
C11 C -0.3742(3) -0.4290(2) -0.3014(3)
C12 C -0.2758(3) -0.3913(2) -0.2240(3)
C13 C -0.1749(3) -0.3852(3) -0.2540(3)
C14 C -0.0847(3) -0.3497(2) -0.1840(3)
C15 C -0.0888(3) -0.3223(2) -0.0809(3)
C16 C -0.1900(3) -0.3291(2) -0.0525(3)
C17 C -0.2842(3) -0.3627(2) -0.1217(3)
C18 C -0.6769(3) -0.4552(2) -0.0917(3)
C19 C -0.7841(3) -0.4871(2) -0.1190(3)
C20 C -0.8525(3) -0.4804(2) -0.0461(3)
C21 C -0.8146(3) -0.4437(2) 0.0546(3)
C22 C -0.7072(3) -0.4150(2) 0.0837(3)
C23 C -0.6379(3) -0.4209(2) 0.0102(3)
C24 C -0.8611(4) -0.3949(3) 0.2194(3)
#END
