
#######################################################################
#
#                 Cambridge Crystallographic Data Centre
#                                CCDC
#
#######################################################################
#
# If this CIF has been generated from an entry in the Cambridge
# Structural Database, then it will include bibliographic, chemical,
# crystal, experimental, refinement or atomic coordinate data resulting
# from the CCDC's data processing and validation procedures.
#
#######################################################################

data_CSD_CIF_TUBYIY02
_audit_creation_date 2002-10-24
_audit_creation_method CSD-ConQuest-V1
_database_code_CSD TUBYIY02
_chemical_formula_sum 'C3 H6 N2 O6'
_chemical_formula_moiety
;
C3 H6 N2 O6
;
_journal_coden_Cambridge 208
_journal_volume 157
_journal_year 2001
_journal_page_first 296
_journal_name_full 'J.Solid State Chem. '
loop_
_publ_author_name
"N.I.Golovina"
"A.V.Raevskii"
"B.S.Fedorov"
"I.G.Gusakovskaya"
"R.F.Trofimova"
"N.V.Chukanov"
"S.A.Vozchikova"
"G.V.Shilov"
"V.P.Tarasov"
"L.N.Erofeev"
"L.O.Atovmyan"
_chemical_name_systematic
;
2,2-Dinitropropane-1,3-diol
;
_chemical_melting_point 412
_cell_volume    667.801
_exptl_crystal_density_diffrn 1.651
_exptl_special_details
;
Melting point range 412-413K
orthorhombic polymorph
phase transition at 340K

;
_exptl_crystal_preparation 'dichloroethane'
_diffrn_ambient_temperature ?
_diffrn_special_details
;
The study was carried out at room temperature,in the range 283-303K

;
#These two values have been output from a single CSD field.
_refine_ls_R_factor_gt 0.074
_refine_ls_wR_factor_gt 0.074
_symmetry_cell_setting orthorhombic
_symmetry_space_group_name_H-M 'P 21 21 21'
_symmetry_Int_Tables_number 19
loop_
_symmetry_equiv_pos_site_id
_symmetry_equiv_pos_as_xyz
1 x,y,z
2 1/2-x,-y,1/2+z
3 1/2+x,1/2-y,-z
4 -x,1/2+y,1/2-z
_cell_length_a 9.767(2)
_cell_length_b 11.253(6)
_cell_length_c 6.076(3)
_cell_angle_alpha 90
_cell_angle_beta 90
_cell_angle_gamma 90
_cell_formula_units_Z 4
loop_
_atom_type_symbol
_atom_type_radius_bond
C 0.68
H 0.23
N 0.68
O 0.68
loop_
_atom_site_label
_atom_site_type_symbol
_atom_site_fract_x
_atom_site_fract_y
_atom_site_fract_z
O1 O 0.5342(20) 0.8293(10) 0.4994(20)
O2 O 0.4057(10) 0.7163(10) 0.6966(20)
O3 O 0.3009(10) 0.7114(10) 0.1969(20)
O4 O 0.3085(10) 0.5222(10) 0.2483(30)
O5 O 0.6523(8) 0.5470(8) 0.621(2)
O6 O 0.6145(8) 0.5768(7) 0.0521(10)
N1 N 0.4719(10) 0.7369(10) 0.5348(20)
N2 N 0.3534(10) 0.6209(10) 0.2669(20)
C1 C 0.5302(10) 0.5245(10) 0.5029(20)
C2 C 0.4933(9) 0.6361(9) 0.3746(20)
C3 C 0.5955(10) 0.6702(10) 0.1981(20)
H1 H 0.455(15) 0.502(12) 0.599(24)
H2 H 0.544(13) 0.457(12) 0.402(23)
H3 H 0.560(14) 0.740(12) 0.119(22)
H4 H 0.679(15) 0.694(10) 0.266(23)
H5 H 0.632(13) 0.555(12) 0.760(28)
H6 H 0.690(16) 0.541(12) 0.082(22)
#END
