
#######################################################################
#
#                 Cambridge Crystallographic Data Centre
#                                CCDC
#
#######################################################################
#
# If this CIF has been generated from an entry in the Cambridge
# Structural Database, then it will include bibliographic, chemical,
# crystal, experimental, refinement or atomic coordinate data resulting
# from the CCDC's data processing and validation procedures.
#
#######################################################################

data_CSD_CIF_TUBYIY03
_audit_creation_date 2002-10-24
_audit_creation_method CSD-ConQuest-V1
_database_code_CSD TUBYIY03
_chemical_formula_sum 'C3 H6 N2 O6'
_chemical_formula_moiety
;
C3 H6 N2 O6
;
_journal_coden_Cambridge 208
_journal_volume 157
_journal_year 2001
_journal_page_first 296
_journal_name_full 'J.Solid State Chem. '
loop_
_publ_author_name
"N.I.Golovina"
"A.V.Raevskii"
"B.S.Fedorov"
"I.G.Gusakovskaya"
"R.F.Trofimova"
"N.V.Chukanov"
"S.A.Vozchikova"
"G.V.Shilov"
"V.P.Tarasov"
"L.N.Erofeev"
"L.O.Atovmyan"
_chemical_name_systematic
;
2,2-Dinitropropane-1,3-diol
;
_cell_volume    667.160
_exptl_crystal_density_diffrn 1.652
_exptl_special_details
;
orthorhombic polymorph

;
_exptl_crystal_preparation 'dichloroethane'
_diffrn_ambient_temperature 306
#These two values have been output from a single CSD field.
_refine_ls_R_factor_gt 0.064
_refine_ls_wR_factor_gt 0.064
_symmetry_cell_setting orthorhombic
_symmetry_space_group_name_H-M 'P 21 21 21'
_symmetry_Int_Tables_number 19
loop_
_symmetry_equiv_pos_site_id
_symmetry_equiv_pos_as_xyz
1 x,y,z
2 1/2-x,-y,1/2+z
3 1/2+x,1/2-y,-z
4 -x,1/2+y,1/2-z
_cell_length_a 6.07(4)
_cell_length_b 9.769(61)
_cell_length_c 11.251(35)
_cell_angle_alpha 90
_cell_angle_beta 90
_cell_angle_gamma 90
_cell_formula_units_Z 4
loop_
_atom_type_symbol
_atom_type_radius_bond
C 0.68
H 0.23
N 0.68
O 0.68
loop_
_atom_site_label
_atom_site_type_symbol
_atom_site_fract_x
_atom_site_fract_y
_atom_site_fract_z
O1 O -0.0148(14) 0.5410(18) 0.3254(7)
O2 O -0.2052(17) 0.3987(18) 0.2271(10)
O3 O 0.3108(20) 0.2944(17) 0.2016(14)
O4 O 0.2364(20) 0.3064(10) 0.0227(10)
O5 O -0.1211(15) 0.6507(12) 0.0442(9)
O6 O 0.4481(14) 0.6105(14) 0.0771(9)
N1 N -0.0514(16) 0.4656(14) 0.2386(8)
N2 N 0.2299(20) 0.3652(10) 0.1205(8)
C1 C -0.0017(14) 0.5218(8) 0.0189(6)
C2 C 0.1253(17) 0.4943(10) 0.1508(9)
C3 C 0.2883(17) 0.6129(20) 0.1762(9)
H1 H 0.094(13) 0.5399(60) -0.0443(70)
H2 H -0.104(13) 0.4558(70) 0.0047(60)
H3 H 0.429(14) 0.6621(80) 0.0394(70)
H4 H -0.272(14) 0.6214(70) 0.0368(60)
H5 H 0.221(15) 0.6835(80) 0.1913(80)
H6 H 0.370(13) 0.5673(70) 0.2424(70)
#END
