
#######################################################################
#
#                 Cambridge Crystallographic Data Centre
#                                CCDC
#
#######################################################################
#
# If this CIF has been generated from an entry in the Cambridge
# Structural Database, then it will include bibliographic, chemical,
# crystal, experimental, refinement or atomic coordinate data resulting
# from the CCDC's data processing and validation procedures.
#
#######################################################################

data_CSD_CIF_TUCROZ
_audit_creation_date 2010-06-10
_audit_creation_method CSD-ConQuest-V1
_database_code_CSD TUCROZ
_database_code_depnum_ccdc_archive 'CCDC 714203'
_chemical_formula_sum 'C31 H22 N2 O2'
_chemical_formula_moiety
;
C31 H22 N2 O2
;
_journal_coden_Cambridge 1366
_journal_volume 351
_journal_year 2009
_journal_page_first 1517
_journal_name_full 'Adv.Synth.Catal. '
loop_
_publ_author_name
"Yuhua Lu"
"Xiangwei Du"
"Xueshun Jia"
"Yuanhong Liu"
_chemical_name_systematic
;
(Z)-5-nitro-3-(1,3,5-triphenylpent-2-en-4-ynyl)-1H-indole
;
_cell_volume   4862.250
_exptl_crystal_colour 'green'
_exptl_crystal_density_diffrn 1.242
_exptl_crystal_description 'prismatic'
_diffrn_ambient_temperature 293
#These two values have been output from a single CSD field.
_refine_ls_R_factor_gt 0.0742
_refine_ls_wR_factor_gt 0.0742
_symmetry_cell_setting orthorhombic
_symmetry_space_group_name_H-M 'P b c a'
_symmetry_Int_Tables_number 61
loop_
_symmetry_equiv_pos_site_id
_symmetry_equiv_pos_as_xyz
1 x,y,z
2 1/2-x,-y,1/2+z
3 -x,1/2+y,1/2-z
4 1/2+x,1/2-y,-z
5 -x,-y,-z
6 -1/2+x,y,-1/2-z
7 x,-1/2-y,-1/2+z
8 -1/2-x,-1/2+y,z
_cell_length_a 16.3011(16)
_cell_length_b 16.5942(16)
_cell_length_c 17.9748(18)
_cell_angle_alpha 90
_cell_angle_beta 90
_cell_angle_gamma 90
_cell_formula_units_Z 8
loop_
_atom_type_symbol
_atom_type_radius_bond
C 0.68
H 0.23
N 0.68
O 0.68
loop_
_atom_site_label
_atom_site_type_symbol
_atom_site_fract_x
_atom_site_fract_y
_atom_site_fract_z
N1 N 0.31786(18) 0.21981(16) 0.60500(12)
N2 N 0.36062(17) 0.27071(14) 0.30626(13)
O1 O 0.31876(18) 0.23073(14) 0.26446(12)
O2 O 0.40705(18) 0.32159(16) 0.28295(13)
C1 C 0.26918(19) 0.15289(17) 0.60346(14)
H1 H 0.24790 0.12740 0.64530
C2 C 0.25633(15) 0.12895(14) 0.53243(13)
C3 C 0.30000(15) 0.18527(14) 0.48673(12)
C4 C 0.33801(16) 0.24126(15) 0.53481(14)
C5 C 0.38504(18) 0.30516(17) 0.50827(16)
H2 H 0.41020 0.34110 0.54070
C6 C 0.39283(18) 0.31307(17) 0.43339(15)
H3 H 0.42410 0.35480 0.41380
C7 C 0.35379(17) 0.25846(15) 0.38572(13)
C8 C 0.30794(15) 0.19435(15) 0.41060(13)
H4 H 0.28330 0.15860 0.37760
C9 C 0.20932(15) 0.05676(15) 0.50367(13)
H5 H 0.17250 0.07510 0.46400
C10 C 0.26708(15) -0.00386(15) 0.47144(14)
H6 H 0.30770 -0.02290 0.50330
C11 C 0.26758(16) -0.03415(16) 0.40228(14)
C12 C 0.21511(17) -0.00284(17) 0.34461(15)
C13 C 0.17609(17) 0.02049(19) 0.29264(15)
C14 C 0.12916(16) 0.0481(2) 0.23013(15)
C15 C 0.08423(18) -0.0043(2) 0.18715(16)
H7 H 0.08430 -0.05900 0.19860
C16 C 0.0392(2) 0.0228(3) 0.12748(18)
H8 H 0.00940 -0.01360 0.09890
C17 C 0.0380(2) 0.1028(3) 0.1100(2)
H9 H 0.00720 0.12110 0.06990
C18 C 0.0825(3) 0.1556(3) 0.1517(2)
H10 H 0.08190 0.21010 0.13940
C19 C 0.1280(2) 0.1303(2) 0.21149(19)
H11 H 0.15790 0.16730 0.23940
C20 C 0.15756(16) 0.01792(15) 0.56417(13)
C21 C 0.19317(18) -0.02968(18) 0.61870(15)
H12 H 0.24960 -0.03800 0.61820
C22 C 0.1465(2) -0.06484(17) 0.67352(15)
H13 H 0.17180 -0.09600 0.70990
C23 C 0.0646(2) -0.05468(18) 0.67524(16)
H14 H 0.03320 -0.07950 0.71190
C24 C 0.0277(2) -0.0068(2) 0.62166(19)
H15 H -0.02870 0.00150 0.62270
C25 C 0.07461(18) 0.02860(18) 0.56674(17)
H16 H 0.04920 0.06030 0.53080
C26 C 0.32480(16) -0.09982(16) 0.38086(15)
C27 C 0.3497(2) -0.15656(19) 0.43330(18)
H17 H 0.32850 -0.15480 0.48130
C28 C 0.4058(2) -0.2153(2) 0.4144(2)
H18 H 0.42230 -0.25280 0.44980
C29 C 0.4373(3) -0.2186(3) 0.3439(3)
H19 H 0.47600 -0.25760 0.33160
C30 C 0.4115(2) -0.1644(2) 0.2918(2)
H20 H 0.43210 -0.16720 0.24360
C31 C 0.3555(2) -0.1059(2) 0.30986(17)
H21 H 0.33810 -0.06980 0.27360
H22 H 0.3337(17) 0.2408(17) 0.6437(13)
#END
