
#######################################################################
#
#                 Cambridge Crystallographic Data Centre
#                                CCDC
#
#######################################################################
#
# If this CIF has been generated from an entry in the Cambridge
# Structural Database, then it will include bibliographic, chemical,
# crystal, experimental, refinement or atomic coordinate data resulting
# from the CCDC's data processing and validation procedures.
#
#######################################################################

data_CSD_CIF_TUCYOH
_audit_creation_date 2015-05-08
_audit_creation_method CSD-ConQuest-V1
_database_code_CSD TUCYOH
_database_code_depnum_ccdc_archive 'CCDC 1042109'
_chemical_formula_sum 'C20 H25 N1 O6'
_chemical_formula_moiety
;
C20 H25 N1 O6
;
_journal_coden_Cambridge 1500
_journal_volume 5
_journal_year 2015
_journal_page_first 41520
_journal_name_full 'RSC Advances '
loop_
_publ_author_name
"A.Mishra"
"B.B.Mishra"
"V.K.Tiwari"
_chemical_name_systematic
;
5-(((5-((benzyloxy)methyl)-2,2-dimethyltetrahydrofuro[2,3-d][1,3]dioxol-6-yl)o
xy)methyl)-3-methyl-1,2-oxazole
;
_cell_volume   1972.356
_exptl_crystal_colour 'white'
_exptl_crystal_density_diffrn 1.261
_exptl_crystal_description 'rod'
_diffrn_ambient_temperature 293
#These two values have been output from a single CSD field.
_refine_ls_R_factor_gt 0.0515
_refine_ls_wR_factor_gt 0.0515
_symmetry_cell_setting orthorhombic
_symmetry_space_group_name_H-M 'P 21 21 21'
_symmetry_Int_Tables_number 19
loop_
_symmetry_equiv_pos_site_id
_symmetry_equiv_pos_as_xyz
1 x,y,z
2 1/2-x,-y,1/2+z
3 -x,1/2+y,1/2-z
4 1/2+x,1/2-y,-z
_cell_length_a 9.0447(15)
_cell_length_b 11.7121(19)
_cell_length_c 18.619(3)
_cell_angle_alpha 90
_cell_angle_beta 90
_cell_angle_gamma 90
_cell_formula_units_Z 4
loop_
_atom_type_symbol
_atom_type_radius_bond
C 0.68
H 0.23
N 0.68
O 0.68
loop_
_atom_site_label
_atom_site_type_symbol
_atom_site_fract_x
_atom_site_fract_y
_atom_site_fract_z
O1 O 0.91726(16) 0.45441(15) 0.12433(7)
O2 O 1.17178(16) 0.58101(11) -0.09582(8)
C1 C 1.1350(2) 0.15288(16) 0.04985(11)
O3 O 1.17021(15) 0.34866(11) 0.03051(8)
C2 C 1.1207(2) 0.45234(15) -0.00074(10)
H1 H 1.02750 0.44170 -0.02670
O4 O 1.25346(17) 0.58934(13) 0.06461(8)
O5 O 1.0929(2) 0.14987(13) 0.11861(8)
C3 C 1.2093(2) 0.05854(15) 0.03376(10)
H2 H 1.25050 0.03910 -0.01030
C4 C 1.2387(2) 0.50159(15) -0.0487(1)
H3 H 1.29630 0.44300 -0.07380
O6 O 1.35068(18) 0.67827(13) -0.03636(9)
C5 C 1.3322(2) 0.57574(16) 0.00050(11)
H4 H 1.42810 0.53960 0.00970
C6 C 1.1066(2) 0.54471(17) 0.05682(11)
H5 H 1.03960 0.60500 0.04030
C7 C 0.73425(15) 0.34235(15) 0.18481(8)
C8 C 0.6084(2) 0.40830(13) 0.17397(10)
H6 H 0.61700 0.48670 0.16740
C9 C 0.46988(16) 0.3570(2) 0.17288(12)
H7 H 0.38570 0.40110 0.16560
C10 C 0.4571(2) 0.2397(2) 0.18263(12)
H8 H 0.36440 0.20540 0.18190
C11 C 0.5829(3) 0.17379(14) 0.19347(11)
H9 H 0.57440 0.09530 0.20000
C12 C 0.7215(2) 0.22509(14) 0.19455(9)
H10 H 0.80570 0.18100 0.20180
C13 C 1.0601(2) 0.5038(2) 0.13009(11)
H11 H 1.13000 0.44760 0.14780
H12 H 1.05790 0.56730 0.16350
C14 C 1.2125(2) -0.00601(15) 0.09774(11)
N1 N 1.1447(3) 0.04628(17) 0.14881(11)
C15 C 1.0881(3) 0.25391(17) 0.00828(13)
H13 H 1.10390 0.24050 -0.04260
H14 H 0.98360 0.26800 0.01590
C16 C 1.2599(2) 0.68153(16) -0.09855(12)
C17 C 1.2821(3) -0.1196(2) 0.11098(14)
H15 H 1.26550 -0.14190 0.15990
H16 H 1.38650 -0.11470 0.10210
H17 H 1.23920 -0.17530 0.07940
C18 C 1.3561(3) 0.6798(3) -0.16450(15)
H18 H 1.41440 0.74830 -0.16620
H19 H 1.29500 0.67550 -0.20660
H20 H 1.42030 0.61460 -0.16280
C19 C 1.1591(3) 0.7821(2) -0.09566(19)
H21 H 1.21640 0.85110 -0.09780
H22 H 1.10390 0.78050 -0.05170
H23 H 1.09220 0.77970 -0.13570
C20 C 0.8830(3) 0.3940(3) 0.18851(12)
H24 H 0.88750 0.44600 0.22900
H25 H 0.95590 0.33450 0.19610
#END
