
#######################################################################
#
#                 Cambridge Crystallographic Data Centre
#                                CCDC
#
#######################################################################
#
# If this CIF has been generated from an entry in the Cambridge
# Structural Database, then it will include bibliographic, chemical,
# crystal, experimental, refinement or atomic coordinate data resulting
# from the CCDC's data processing and validation procedures.
#
#######################################################################

data_CSD_CIF_TUDKUA
_audit_creation_date 2015-05-08
_audit_creation_method CSD-ConQuest-V1
_database_code_CSD TUDKUA
_database_code_depnum_ccdc_archive 'CCDC 1033237'
_chemical_formula_sum 'C21 H19 N3 O3'
_chemical_formula_moiety
;
C21 H19 N3 O3
;
_journal_coden_Cambridge 1090
_journal_volume 26
_journal_year 2015
_journal_page_first 109
_journal_name_full 'Tetrahedron:Asymm. '
loop_
_publ_author_name
"Wei Dai"
"Han Lu"
"Xiao-Li Jiang"
"Ting-Ting Gao"
"Feng Shi"
_chemical_name_systematic
;
(R,E)-2-(1-(4-(2-(4-Nitrobenzylidene)hydrazino)phenyl)ethyl)phenol
;
_chemical_melting_point 455.15
_cell_volume   3491.507
_exptl_crystal_colour 'purple'
_exptl_crystal_density_diffrn 1.371
_exptl_special_details
;
Melting point range 455.15-456.15K
Absolute configuration

;
_exptl_crystal_description 'block'
_diffrn_ambient_temperature 130
_refine_special_details
;
C22,C23,C24,C25,C26,C27,O4 and C22',C23',C24',C25',C26',C27',O4' disordered 
over two sites with occupancies 0.576:0.424.
;
#These two values have been output from a single CSD field.
_refine_ls_R_factor_gt 0.072
_refine_ls_wR_factor_gt 0.072
_symmetry_cell_setting orthorhombic
_symmetry_space_group_name_H-M 'P 21 21 21'
_symmetry_Int_Tables_number 19
loop_
_symmetry_equiv_pos_site_id
_symmetry_equiv_pos_as_xyz
1 x,y,z
2 1/2+x,1/2-y,-z
3 -x,1/2+y,1/2-z
4 1/2-x,-y,1/2+z
_cell_length_a 10.4316(1)
_cell_length_b 13.4046(2)
_cell_length_c 24.9694(4)
_cell_angle_alpha 90
_cell_angle_beta 90
_cell_angle_gamma 90
_cell_formula_units_Z 8
loop_
_atom_type_symbol
_atom_type_radius_bond
C 0.68
H 0.23
N 0.68
O 0.68
loop_
_atom_site_label
_atom_site_type_symbol
_atom_site_fract_x
_atom_site_fract_y
_atom_site_fract_z
N1 N 0.5003(4) 0.1017(3) 0.21526(13)
H1 H 0.55460 0.09630 0.24210
N2 N 0.3749(4) 0.1103(3) 0.22522(13)
N3 N -0.1917(4) 0.1291(4) 0.32411(18)
O1 O 0.4868(4) 0.0926(3) -0.08133(17)
H2 H 0.42530 0.10190 -0.10250
O2 O -0.2686(4) 0.1488(4) 0.28801(16)
O3 O -0.2257(4) 0.1100(5) 0.37051(18)
C1 C 0.5477(4) 0.1814(4) -0.07183(18)
C2 C 0.5152(4) 0.2662(4) -0.10101(19)
H3 H 0.45100 0.26300 -0.12790
C3 C 0.5764(5) 0.3541(5) -0.0906(2)
H4 H 0.55600 0.41200 -0.11080
C4 C 0.6666(5) 0.3591(5) -0.0512(2)
H5 H 0.70870 0.42050 -0.04400
C5 C 0.6972(5) 0.2758(5) -0.0217(2)
H6 H 0.75860 0.28090 0.00620
C6 C 0.6398(4) 0.1843(4) -0.03206(17)
C7 C 0.6794(4) 0.0922(4) -0.00138(17)
H7 H 0.63240 0.03490 -0.01790
C8 C 0.8234(5) 0.0704(6) -0.0084(2)
H8 H 0.84120 0.05560 -0.04610
H9 H 0.84730 0.01300 0.01370
H10 H 0.87320 0.12890 0.00270
C9 C 0.6371(4) 0.0970(4) 0.05695(18)
C10 C 0.5088(4) 0.1162(4) 0.06819(18)
H11 H 0.45150 0.12810 0.03930
C11 C 0.4620(5) 0.1186(4) 0.11945(17)
H12 H 0.37380 0.13180 0.12570
C12 C 0.5458(4) 0.1012(3) 0.16291(17)
C13 C 0.6745(4) 0.0835(4) 0.15217(18)
H13 H 0.73220 0.07220 0.18100
C14 C 0.7194(4) 0.0821(4) 0.10036(19)
H14 H 0.80800 0.07080 0.09400
C15 C 0.3364(5) 0.1076(4) 0.27409(17)
H15 H 0.39680 0.09990 0.30220
C16 C 0.2018(4) 0.1163(3) 0.28632(16)
C17 C 0.1113(5) 0.1365(4) 0.24629(18)
H16 H 0.13900 0.14570 0.21040
C18 C -0.0177(5) 0.1434(4) 0.25838(18)
H17 H -0.07850 0.15910 0.23130
C19 C -0.0567(5) 0.1269(4) 0.31069(19)
C20 C 0.0302(5) 0.1068(4) 0.35109(19)
H18 H 0.00160 0.09610 0.38680
C21 C 0.1584(5) 0.1026(4) 0.33886(18)
H19 H 0.21870 0.09020 0.36660
N4 N 0.0108(3) 0.3989(3) 0.28054(13)
H20 H -0.03920 0.41320 0.25320
N5 N 0.1368(3) 0.3868(3) 0.27260(13)
N6 N 0.7027(4) 0.3587(3) 0.16955(15)
O4 O 0.7830(3) 0.3458(3) 0.20453(13)
O5 O 0.7322(3) 0.3707(3) 0.12200(13)
O6 O -0.2163(8) 0.1358(6) 0.5348(4)
H21 H -0.20360 0.08670 0.55510
C22 C -0.1512(9) 0.2184(5) 0.5546(4)
C23 C -0.0732(11) 0.2038(6) 0.5990(4)
H22 H -0.07130 0.14070 0.61630
C24 C 0.002(1) 0.2816(7) 0.6182(3)
H23 H 0.05530 0.27160 0.64860
C25 C -0.0008(9) 0.3740(6) 0.5929(4)
H24 H 0.05060 0.42710 0.60610
C26 C -0.0788(9) 0.3886(5) 0.5485(3)
H25 H -0.08070 0.45170 0.53120
C27 C -0.1540(8) 0.3108(5) 0.5293(3)
C28 C -0.2451(5) 0.3227(5) 0.4799(2)
H26 H -0.28730 0.25730 0.47210
C29 C -0.3479(5) 0.3992(5) 0.49753(19)
H27 H -0.39840 0.37130 0.52710
H28 H -0.40460 0.41400 0.46730
H29 H -0.30590 0.46070 0.50940
C30 C -0.1680(5) 0.3572(5) 0.4297(2)
C31 C -0.0378(6) 0.3416(5) 0.4234(2)
H30 H 0.00990 0.31920 0.45350
C32 C 0.0270(4) 0.3567(4) 0.37567(17)
H31 H 0.11670 0.34530 0.37320
C33 C -0.0425(4) 0.3890(3) 0.33160(15)
C34 C -0.1725(4) 0.4107(3) 0.33794(17)
H32 H -0.22030 0.43600 0.30850
C35 C -0.2317(5) 0.3957(4) 0.38638(19)
H33 H -0.31970 0.41250 0.39000
C36 C 0.1757(4) 0.3870(4) 0.22356(16)
H34 H 0.11530 0.39440 0.19540
C37 C 0.3113(4) 0.3759(3) 0.21102(15)
C38 C 0.4043(4) 0.3629(3) 0.25058(15)
H35 H 0.37910 0.35880 0.28710
C39 C 0.5325(4) 0.3559(3) 0.23721(16)
H36 H 0.59570 0.34750 0.26420
C40 C 0.5677(4) 0.3615(3) 0.18359(16)
C41 C 0.4787(4) 0.3723(5) 0.14368(17)
H37 H 0.50470 0.37540 0.10720
C42 C 0.3496(4) 0.3788(5) 0.15739(18)
H38 H 0.28690 0.38520 0.13000
O7? O -0.0772(10) 0.4655(7) 0.5309(4)
H39? H -0.02440 0.49420 0.55110
C43? C -0.1679(14) 0.1928(9) 0.5485(6)
H40? H -0.22000 0.14160 0.53370
C44? C -0.0927(15) 0.1733(7) 0.5933(5)
H41? H -0.09350 0.10880 0.60910
C45? C -0.0164(13) 0.2481(8) 0.6149(5)
H42? H 0.03490 0.23480 0.64550
C46? C -0.0153(13) 0.3424(7) 0.5918(5)
H43? H 0.03690 0.39360 0.60660
C47? C -0.0904(14) 0.3619(7) 0.5471(5)
C48? C -0.1667(14) 0.2871(10) 0.5254(5)
#END
