
#######################################################################
#
#                 Cambridge Crystallographic Data Centre
#                                CCDC
#
#######################################################################
#
# If this CIF has been generated from an entry in the Cambridge
# Structural Database, then it will include bibliographic, chemical,
# crystal, experimental, refinement or atomic coordinate data resulting
# from the CCDC's data processing and validation procedures.
#
#######################################################################

data_CSD_CIF_TUDXEW
_audit_creation_date 2010-06-03
_audit_creation_method CSD-ConQuest-V1
_database_code_CSD TUDXEW
_database_code_depnum_ccdc_archive 'CCDC 736783'
_chemical_formula_sum 'C21 H26 N2 O6'
_chemical_formula_moiety
;
C21 H26 N2 O6
;
_journal_coden_Cambridge 24
_journal_volume 50
_journal_year 2009
_journal_page_first 5723
_journal_name_full 'Tetrahedron Lett. '
loop_
_publ_author_name
"P.Bremond"
"N.Vanthuyne"
"G.Audran"
_chemical_name_systematic
;
(+)-2,3-Dimethyl-2-(3-methylpenta-2,4-dien-1-yl)cyclohexyl 3,5-dinitrobenzoate
;
_cell_volume   1597.380
_exptl_crystal_colour 'colorless'
_exptl_crystal_density_diffrn 1.255
_exptl_crystal_description 'prism'
_diffrn_ambient_temperature 293
#These two values have been output from a single CSD field.
_refine_ls_R_factor_gt 0.0559
_refine_ls_wR_factor_gt 0.0559
_symmetry_cell_setting hexagonal
_symmetry_space_group_name_H-M 'P 31'
_symmetry_Int_Tables_number 144
loop_
_symmetry_equiv_pos_site_id
_symmetry_equiv_pos_as_xyz
1 x,y,z
2 -y,x-y,1/3+z
3 -x+y,-x,2/3+z
_cell_length_a 15.888(5)
_cell_length_b 15.888(5)
_cell_length_c 7.307(5)
_cell_angle_alpha 90
_cell_angle_beta 90
_cell_angle_gamma 120
_cell_formula_units_Z 3
loop_
_atom_type_symbol
_atom_type_radius_bond
C 0.68
H 0.23
N 0.68
O 0.68
loop_
_atom_site_label
_atom_site_type_symbol
_atom_site_fract_x
_atom_site_fract_y
_atom_site_fract_z
C1 C 0.9179(3) 0.5493(3) 0.8852(5)
H1 H 0.98380 0.58650 0.93520
C2 C 0.8590(4) 0.4634(4) 1.0090(6)
H2 H 0.79290 0.42620 0.96370
H3 H 0.85700 0.48590 1.13140
C3 C 0.9056(5) 0.3994(4) 1.0142(7)
H4 H 0.96860 0.43460 1.07320
H5 H 0.86520 0.34170 1.08600
C4 C 0.9179(5) 0.3698(4) 0.8229(7)
H6 H 0.85430 0.32660 0.77130
H7 H 0.95290 0.33440 0.83040
C5 C 0.9725(4) 0.4566(3) 0.6966(6)
H8 H 1.03710 0.49680 0.75070
C6 C 0.9250(3) 0.5214(3) 0.6867(5)
C7 C 0.9886(6) 0.4247(4) 0.5091(8)
H9 H 1.02340 0.39010 0.52320
H10 H 1.02560 0.48090 0.43370
H11 H 0.92690 0.38310 0.45250
C8 C 0.8236(4) 0.4686(4) 0.5978(7)
H12 H 0.82860 0.44800 0.47670
H13 H 0.79810 0.51200 0.59100
H14 H 0.78100 0.41300 0.67020
C9 C 0.9879(4) 0.6135(3) 0.5717(6)
H15 H 0.98460 0.59410 0.44490
H16 H 0.95930 0.65490 0.57900
C10 C 1.0927(4) 0.6725(3) 0.6246(7)
H17 H 1.10480 0.68390 0.74920
C11 C 1.1707(4) 0.7108(4) 0.5177(7)
C12 C 1.2708(6) 0.7706(6) 0.5982(12)
H18 H 1.26580 0.77660 0.72790
H19 H 1.30250 0.83400 0.54340
H20 H 1.30810 0.73930 0.57450
C13 C 1.1648(5) 0.6999(6) 0.3200(9)
H21 H 1.10290 0.66650 0.26930
C14 C 1.2387(7) 0.7327(9) 0.2054(12)
H22 H 1.30200 0.76650 0.24960
H23 H 1.22740 0.72190 0.08040
C15 C 0.8998(3) 0.6775(3) 1.0131(5)
C16 C 0.8638(3) 0.7464(2) 0.9769(5)
C17 C 0.8755(3) 0.8119(3) 1.1131(5)
H24 H 0.90380 0.81160 1.22430
C18 C 0.8445(2) 0.8780(2) 1.0810(5)
C19 C 0.7997(3) 0.8794(3) 0.9206(5)
H25 H 0.77740 0.92300 0.90260
C20 C 0.7894(3) 0.8133(3) 0.7883(5)
C21 C 0.8208(3) 0.7472(3) 0.8114(5)
H26 H 0.81340 0.70410 0.71830
N1 N 0.7437(3) 0.8138(3) 0.6140(5)
N2 N 0.8627(2) 0.9507(2) 1.2222(4)
O1 O 0.8758(2) 0.61276(18) 0.8789(4)
O2 O 0.9459(2) 0.6819(2) 1.1458(4)
O3 O 0.7321(3) 0.7526(3) 0.5000(5)
O4 O 0.7220(4) 0.8760(3) 0.5902(5)
O5 O 0.8316(2) 1.0064(2) 1.1944(4)
O6 O 0.9098(2) 0.9543(2) 1.3571(4)
#END
