
#######################################################################
#
#                 Cambridge Crystallographic Data Centre
#                                CCDC
#
#######################################################################
#
# If this CIF has been generated from an entry in the Cambridge
# Structural Database, then it will include bibliographic, chemical,
# crystal, experimental, refinement or atomic coordinate data resulting
# from the CCDC's data processing and validation procedures.
#
#######################################################################

data_CSD_CIF_TUDZUO
_audit_creation_date 2010-06-03
_audit_creation_method CSD-ConQuest-V1
_database_code_CSD TUDZUO
_database_code_depnum_ccdc_archive 'CCDC 718715'
_chemical_formula_sum 'C18 H29 N3 O11'
_chemical_formula_moiety
;
C18 H29 N3 O11
;
_journal_coden_Cambridge 24
_journal_volume 50
_journal_year 2009
_journal_page_first 5917
_journal_name_full 'Tetrahedron Lett. '
loop_
_publ_author_name
"D.S.Bohle"
"L.K.Keefer"
"J.E.Saavedra"
_chemical_name_systematic
;
2-(Acetoxymethyl)-6-(((2-isopropyl-2-methyl-1-oxido-1-azonia-diazan-1-ylidene)
amino)oxy)tetrahydro-2H-pyran-3,4,5-triyl triacetate
;
_cell_volume   2285.777
_exptl_crystal_colour 'colorless'
_exptl_crystal_density_diffrn 1.326
_exptl_crystal_description 'plate'
_diffrn_ambient_temperature 100
_refine_special_details
;
The isopropyl group is disordered over two sites with occupancies 0.50:0.50.

;
#These two values have been output from a single CSD field.
_refine_ls_R_factor_gt 0.0577
_refine_ls_wR_factor_gt 0.0577
_symmetry_cell_setting orthorhombic
_symmetry_space_group_name_H-M 'P 21 21 21'
_symmetry_Int_Tables_number 19
loop_
_symmetry_equiv_pos_site_id
_symmetry_equiv_pos_as_xyz
1 x,y,z
2 1/2-x,-y,1/2+z
3 -x,1/2+y,1/2-z
4 1/2+x,1/2-y,-z
_cell_length_a 7.6597(10)
_cell_length_b 10.7105(14)
_cell_length_c 27.862(4)
_cell_angle_alpha 90
_cell_angle_beta 90
_cell_angle_gamma 90
_cell_formula_units_Z 4
loop_
_atom_type_symbol
_atom_type_radius_bond
C 0.68
H 0.23
N 0.68
O 0.68
loop_
_atom_site_label
_atom_site_type_symbol
_atom_site_fract_x
_atom_site_fract_y
_atom_site_fract_z
N1 N 0.1509(4) 0.7900(3) 0.26986(10)
O1 O 0.0324(5) 0.7514(3) 0.24428(11)
N2 N 0.1713(4) 0.7688(3) 0.31472(10)
O2 O 0.0370(3) 0.6893(2) 0.32947(8)
N3 N 0.2877(4) 0.8703(3) 0.25241(11)
C1 C 0.2078(8) 0.9513(6) 0.2165(2)
H1 H 0.10280 0.99010 0.23000
H2 H 0.17580 0.90180 0.18830
H3 H 0.29090 1.01640 0.20710
C2 C 0.4416(15) 0.7696(13) 0.2440(4)
C3 C 0.4121(11) 0.6896(8) 0.2006(3)
C4 C 0.6077(16) 0.8535(13) 0.2390(4)
C5 C 0.0781(4) 0.6478(3) 0.37637(12)
H4 H 0.15040 0.71100 0.39380
C6 C -0.0897(4) 0.6236(3) 0.40227(12)
H5 H -0.15790 0.55760 0.38510
C7 C -0.0449(4) 0.5796(3) 0.45300(11)
H6 H 0.01240 0.64810 0.47160
C8 C 0.0728(4) 0.4670(3) 0.45003(11)
H7 H 0.00440 0.39250 0.43940
C9 C 0.2278(4) 0.4878(3) 0.41655(11)
H8 H 0.31000 0.54920 0.43140
O3 O 0.1691(3) 0.5344(2) 0.37133(7)
O4 O -0.1897(3) 0.7361(2) 0.40495(8)
C10 C -0.3525(4) 0.7342(4) 0.38542(13)
O5 O -0.4215(4) 0.6400(3) 0.37155(12)
C11 C -0.4294(5) 0.8629(4) 0.38399(15)
H9 H -0.54590 0.85930 0.36950
H10 H -0.35420 0.91760 0.36480
H11 H -0.43830 0.89580 0.41670
O6 O -0.2046(3) 0.5412(2) 0.47591(8)
C12 C -0.2707(5) 0.6144(3) 0.51124(12)
O7 O -0.1993(3) 0.7082(2) 0.52559(8)
C13 C -0.4402(5) 0.5659(3) 0.52827(13)
H12 H -0.48470 0.61970 0.55390
H13 H -0.42470 0.48090 0.54060
H14 H -0.52360 0.56480 0.50160
O8 O 0.1438(3) 0.4457(2) 0.49783(8)
C14 C 0.1318(5) 0.3275(4) 0.51613(12)
O9 O 0.0627(4) 0.2439(3) 0.49564(9)
C15 C 0.2193(5) 0.3192(4) 0.56350(12)
H15 H 0.20810 0.23410 0.57600
H16 H 0.16450 0.37790 0.58590
H17 H 0.34320 0.34010 0.55990
C16 C 0.3238(5) 0.3682(3) 0.40610(13)
H18 H 0.42860 0.38540 0.38640
H19 H 0.36160 0.32830 0.43640
O10 O 0.2053(4) 0.2869(2) 0.38041(9)
C17 C 0.2337(5) 0.1640(4) 0.38174(17)
O11 O 0.3427(5) 0.1196(3) 0.40877(17)
C18 C 0.1104(6) 0.0947(4) 0.35083(15)
H20 H 0.13510 0.00510 0.35290
H21 H 0.12370 0.12240 0.31750
H22 H -0.00940 0.11060 0.36160
C19? C 0.4259(18) 0.8134(12) 0.2269(4)
C20? C 0.4818(19) 0.6972(12) 0.2542(6)
C21? C 0.5816(15) 0.9071(13) 0.2204(4)
#END
