
#######################################################################
#
#                 Cambridge Crystallographic Data Centre
#                                CCDC
#
#######################################################################
#
# If this CIF has been generated from an entry in the Cambridge
# Structural Database, then it will include bibliographic, chemical,
# crystal, experimental, refinement or atomic coordinate data resulting
# from the CCDC's data processing and validation procedures.
#
#######################################################################

data_CSD_CIF_TUFFEF
_audit_creation_date 1997-05-29
_audit_creation_method CSD-ConQuest-V1
_database_code_CSD TUFFEF
_database_code_depnum_ccdc_journal 1003/5088
_chemical_formula_sum 'C9 H9 N1 O2'
_chemical_formula_moiety
;
C9 H9 N1 O2
;
_journal_coden_Cambridge 1003
_journal_volume 26
_journal_year 1996
_journal_page_first 815
_journal_name_full 'J.Chem.Cryst. '
loop_
_publ_author_name
"J.F.Fuller"
"E.J.Valente"
_chemical_name_systematic
;
5-Nitroindane
;
_chemical_melting_point 314
_cell_volume   1610.770
_exptl_crystal_colour 'pale yellow'
_exptl_crystal_density_diffrn 1.346
_diffrn_ambient_temperature ?
_diffrn_special_details
;
The study was carried out at room temperature,in the range 283-303K

;
#These two values have been output from a single CSD field.
_refine_ls_R_factor_gt 0.0552
_refine_ls_wR_factor_gt 0.0552
_symmetry_cell_setting monoclinic
_symmetry_space_group_name_H-M 'P 21/c'
_symmetry_Int_Tables_number 14
loop_
_symmetry_equiv_pos_site_id
_symmetry_equiv_pos_as_xyz
1 x,y,z
2 -x,1/2+y,1/2-z
3 -x,-y,-z
4 x,-1/2-y,-1/2+z
_cell_length_a 10.946(8)
_cell_length_b 15.643(10)
_cell_length_c 9.415(6)
_cell_angle_alpha 90
_cell_angle_beta 92.34(5)
_cell_angle_gamma 90
_cell_formula_units_Z 8
loop_
_atom_type_symbol
_atom_type_radius_bond
C 0.68
H 0.23
N 0.68
O 0.68
loop_
_atom_site_label
_atom_site_type_symbol
_atom_site_fract_x
_atom_site_fract_y
_atom_site_fract_z
N1 N 0.7365(3) 0.5485(3) 0.0430(4)
O1 O 0.7584(3) 0.6249(2) 0.0393(4)
O2 O 0.7984(3) 0.4953(2) -0.0166(4)
C1 C 0.3429(4) 0.4221(3) 0.3556(5)
H1 H 0.3417(4) 0.4409(3) 0.4537(5)
H2 H 0.2636(4) 0.4333(3) 0.3096(5)
C2 C 0.3748(4) 0.3288(3) 0.3469(5)
H3 H 0.3015(4) 0.2949(3) 0.3299(5)
H4 H 0.4150(4) 0.3100(3) 0.4352(5)
C3 C 0.4599(4) 0.3190(2) 0.2247(5)
H5 H 0.5251(4) 0.2789(2) 0.2487(5)
H6 H 0.4156(4) 0.2992(2) 0.1396(5)
C4 C 0.5096(4) 0.4071(2) 0.2039(4)
C5 C 0.6070(3) 0.4334(2) 0.1266(4)
H7 H 0.6534(3) 0.3943(2) 0.0775(4)
C6 C 0.6332(3) 0.5192(3) 0.1244(4)
C7 C 0.5682(4) 0.5789(3) 0.1966(5)
H8 H 0.5892(4) 0.6365(3) 0.1934(5)
C8 C 0.4721(4) 0.5521(3) 0.2736(5)
H9 H 0.4265(4) 0.5917(3) 0.3226(5)
C9 C 0.4428(4) 0.4665(3) 0.2786(5)
N2 N 0.7440(3) 0.3185(3) 0.4410(4)
O3 O 0.7359(3) 0.3950(2) 0.4641(4)
O4 O 0.6795(3) 0.2658(2) 0.5005(4)
C10 C 1.1106(3) 0.1888(2) 0.0943(5)
H10 H 1.1918(3) 0.2020(2) 0.1334(5)
H11 H 1.1055(3) 0.2057(2) -0.0049(5)
C11 C 1.0826(4) 0.0949(3) 0.1099(5)
H12 H 1.0519(4) 0.0718(3) 0.0197(5)
H13 H 1.1564(4) 0.0640(3) 0.1387(5)
C12 C 0.9880(4) 0.0847(2) 0.2207(5)
H14 H 1.0233(4) 0.0586(2) 0.3062(5)
H15 H 0.9202(4) 0.0498(2) 0.1849(5)
C13 C 0.9464(4) 0.1750(2) 0.2496(4)
C14 C 0.8551(3) 0.2021(2) 0.3362(4)
H16 H 0.8083(3) 0.1633(2) 0.3855(4)
C15 C 0.8363(4) 0.2882(3) 0.3462(4)
C16 C 0.9013(4) 0.3477(2) 0.2715(4)
H17 H 0.8841(4) 0.4058(2) 0.2786(4)
C17 C 0.9914(4) 0.3192(2) 0.1868(4)
H18 H 1.0369(4) 0.3582(2) 0.1363(4)
C18 C 1.0150(3) 0.2334(3) 0.1760(4)
#END
