
#######################################################################
#
#                 Cambridge Crystallographic Data Centre
#                                CCDC
#
#######################################################################
#
# If this CIF has been generated from an entry in the Cambridge
# Structural Database, then it will include bibliographic, chemical,
# crystal, experimental, refinement or atomic coordinate data resulting
# from the CCDC's data processing and validation procedures.
#
#######################################################################

data_CSD_CIF_TUFKIQ
_audit_creation_date 2015-05-11
_audit_creation_method CSD-ConQuest-V1
_database_code_CSD TUFKIQ
_database_code_depnum_ccdc_archive 'CCDC 743221'
_chemical_formula_sum 'C16 H13 N3 O4'
_chemical_formula_moiety
;
C16 H13 N3 O4
;
_journal_coden_Cambridge 1489
_journal_volume 609
_journal_year 2015
_journal_page_first 118
_journal_name_full 'Mol.Cryst.Liq.Cryst. '
loop_
_publ_author_name
"M.M.Savant"
"L.B.Gowda"
"S.M.Anandalwar"
"J.S.Prasad"
"A.Shah  Y.T.Naliapara"
_chemical_name_systematic
;
6-(2-hydroxyphenyl)-5-nitro-4-phenyl-3,4-dihydropyrimidin-2(1H)-one
;
_cell_volume   1421.763
_exptl_crystal_colour 'lemon yellow'
_exptl_crystal_density_diffrn 1.454
_exptl_crystal_description 'rectangular'
_diffrn_ambient_temperature 293
#These two values have been output from a single CSD field.
_refine_ls_R_factor_gt 0.047
_refine_ls_wR_factor_gt 0.047
_symmetry_cell_setting monoclinic
_symmetry_space_group_name_H-M 'P 21/c'
_symmetry_Int_Tables_number 14
loop_
_symmetry_equiv_pos_site_id
_symmetry_equiv_pos_as_xyz
1 x,y,z
2 -x,1/2+y,1/2-z
3 -x,-y,-z
4 x,-1/2-y,-1/2+z
_cell_length_a 11.107(1)
_cell_length_b 8.8210(4)
_cell_length_c 15.1110(13)
_cell_angle_alpha 90
_cell_angle_beta 106.193(2)
_cell_angle_gamma 90
_cell_formula_units_Z 4
loop_
_atom_type_symbol
_atom_type_radius_bond
C 0.68
H 0.23
N 0.68
O 0.68
loop_
_atom_site_label
_atom_site_type_symbol
_atom_site_fract_x
_atom_site_fract_y
_atom_site_fract_z
N1 N 0.92612(13) 0.37169(15) 0.06867(9)
H1 H 0.97290 0.36530 0.03200
C1 C 0.86413(15) 0.50591(18) 0.07130(11)
N2 N 0.77046(14) 0.49822(16) 0.11023(11)
H2 H 0.74370 0.58090 0.12830
C2 C 0.71131(16) 0.35545(19) 0.12360(12)
H3 H 0.67330 0.36940 0.17430
C3 C 0.81561(16) 0.24016(19) 0.15388(11)
C4 C 0.91743(15) 0.24656(18) 0.12159(11)
C5 C 1.02369(16) 0.14058(18) 0.13352(11)
C6 C 1.14394(17) 0.2002(2) 0.15553(12)
H4 H 1.15570 0.30320 0.16790
C7 C 1.24626(18) 0.1098(2) 0.15945(14)
H5 H 1.32640 0.15120 0.17470
C8 C 1.22863(19) -0.0429(2) 0.14050(13)
H6 H 1.29730 -0.10430 0.14220
C9 C 1.11036(19) -0.1054(2) 0.11906(12)
H7 H 1.10000 -0.20870 0.10700
C10 C 1.00645(16) -0.01561(19) 0.11536(11)
O1 O 0.88982(12) -0.07304(14) 0.09241(10)
H8 H 0.89270 -0.16420 0.08240
O2 O 0.89603(12) 0.62367(13) 0.03930(9)
N3 N 0.80542(15) 0.13134(17) 0.2220(1)
O3 O 0.70311(15) 0.11985(18) 0.23786(11)
O4 O 0.89725(14) 0.05865(16) 0.26417(10)
C11 C 0.60793(16) 0.3076(2) 0.03819(13)
C12 C 0.60604(19) 0.3540(3) -0.04980(14)
H9 H 0.66840 0.41850 -0.05780
C13 C 0.5126(2) 0.3057(3) -0.12594(17)
H10 H 0.51260 0.33770 -0.18460
C14 C 0.4195(2) 0.2099(3) -0.11468(19)
H11 H 0.35760 0.17530 -0.16570
C15 C 0.4189(2) 0.1663(3) -0.0277(2)
H12 H 0.35550 0.10330 -0.01970
C16 C 0.5120(2) 0.2154(3) 0.04815(18)
H13 H 0.51010 0.18600 0.10680
#END
