
#######################################################################
#
#                 Cambridge Crystallographic Data Centre
#                                CCDC
#
#######################################################################
#
# If this CIF has been generated from an entry in the Cambridge
# Structural Database, then it will include bibliographic, chemical,
# crystal, experimental, refinement or atomic coordinate data resulting
# from the CCDC's data processing and validation procedures.
#
#######################################################################

data_CSD_CIF_TUFLOX
_audit_creation_date 2015-05-11
_audit_creation_method CSD-ConQuest-V1
_database_code_CSD TUFLOX
_database_code_depnum_ccdc_archive 'CCDC 1007440'
_chemical_formula_sum 'C20 H30 N2 O2'
_chemical_formula_moiety
;
C20 H30 N2 O2
;
_journal_coden_Cambridge 946
_journal_volume 45
_journal_year 2014
_journal_page_first 981
_journal_name_full 'Appl.Magn.Reson. '
loop_
_publ_author_name
"O.I.Gromov"
"E.N.Golubeva"
"V.N.Khrustalev"
"T.Kalai"
"K.Hideg"
"A.I.Kokorin"
_chemical_name_systematic
;
4,4'-ethyne-1,2-diylbis(2,2,6,6-tetramethyl-3,6-dihydropyridin-1(2H)-ol) 
biradical
;
_cell_volume    967.877
_exptl_crystal_colour 'colorless'
_exptl_crystal_density_diffrn 1.134
_exptl_crystal_description 'plate'
_diffrn_ambient_temperature 120
#These two values have been output from a single CSD field.
_refine_ls_R_factor_gt 0.0822
_refine_ls_wR_factor_gt 0.0822
_symmetry_cell_setting monoclinic
_symmetry_space_group_name_H-M 'P 21/c'
_symmetry_Int_Tables_number 14
loop_
_symmetry_equiv_pos_site_id
_symmetry_equiv_pos_as_xyz
1 x,y,z
2 -x,1/2+y,1/2-z
3 -x,-y,-z
4 x,-1/2-y,-1/2+z
_cell_length_a 11.1814(8)
_cell_length_b 8.3438(6)
_cell_length_c 10.6146(8)
_cell_angle_alpha 90
_cell_angle_beta 102.214(5)
_cell_angle_gamma 90
_cell_formula_units_Z 2
loop_
_atom_type_symbol
_atom_type_radius_bond
C 0.68
H 0.23
N 0.68
O 0.68
loop_
_atom_site_label
_atom_site_type_symbol
_atom_site_fract_x
_atom_site_fract_y
_atom_site_fract_z
O1 O 0.85757(17) 0.6011(2) 0.51726(16)
N1 N 0.78451(19) 0.5774(2) 0.40803(19)
C1 C 0.5354(2) 0.5108(3) 0.0502(2)
C2 C 0.6200(2) 0.5357(3) 0.1702(2)
C3 C 0.7102(3) 0.6471(4) 0.1809(3)
H1 H 0.70990 0.71500 0.10900
C4 C 0.8092(2) 0.6702(3) 0.2968(2)
C5 C 0.7119(3) 0.4268(3) 0.3920(2)
C6 C 0.6067(3) 0.4448(4) 0.2821(3)
H2 H 0.57960 0.33580 0.25220
H3 H 0.53920 0.49410 0.31570
C7 C 0.8134(4) 0.8481(4) 0.3334(3)
H4 H 0.73480 0.87980 0.35280
H5 H 0.82920 0.91240 0.26140
H6 H 0.87890 0.86590 0.40950
C8 C 0.9317(3) 0.6232(6) 0.2683(4)
H7 H 0.92830 0.51170 0.23870
H8 H 0.99560 0.63420 0.34670
H9 H 0.95050 0.69330 0.20090
C9 C 0.7937(4) 0.2913(4) 0.3654(6)
H10 H 0.81250 0.30620 0.28010
H11 H 0.75150 0.18880 0.36790
H12 H 0.86990 0.29150 0.43120
C10 C 0.6667(4) 0.4028(5) 0.5147(3)
H13 H 0.62590 0.50070 0.53470
H14 H 0.73610 0.37880 0.58550
H15 H 0.60860 0.31340 0.50370
O1B O 0.14243(17) 0.3989(2) -0.51726(16)
N1B N 0.21549(19) 0.4226(2) -0.40803(19)
C1B C 0.4646(2) 0.4892(3) -0.0502(2)
C2B C 0.3800(2) 0.4643(3) -0.1702(2)
C3B C 0.2898(3) 0.3529(4) -0.1809(3)
H1B H 0.29010 0.28500 -0.10900
C4B C 0.1908(2) 0.3298(3) -0.2968(2)
C5B C 0.2881(3) 0.5732(3) -0.3920(2)
C6B C 0.3933(3) 0.5552(4) -0.2821(3)
H2B H 0.42040 0.66420 -0.25220
H3B H 0.46080 0.50590 -0.31570
C7B C 0.1866(4) 0.1519(4) -0.3334(3)
H4B H 0.26520 0.12020 -0.35280
H5B H 0.17080 0.08760 -0.26140
H6B H 0.12110 0.13410 -0.40950
C8B C 0.0683(3) 0.3768(6) -0.2683(4)
H7B H 0.07170 0.48830 -0.23870
H8B H 0.00440 0.36580 -0.34670
H9B H 0.04950 0.30670 -0.20090
C9B C 0.2063(4) 0.7087(4) -0.3654(6)
H10B H 0.18750 0.69380 -0.28010
H11B H 0.24850 0.81120 -0.36790
H12B H 0.13010 0.70850 -0.43120
C10B C 0.3333(4) 0.5972(5) -0.5147(3)
H13B H 0.37410 0.49930 -0.53470
H14B H 0.26390 0.62120 -0.58550
H15B H 0.39140 0.68660 -0.50370
#END
