
#######################################################################
#
#                 Cambridge Crystallographic Data Centre
#                                CCDC
#
#######################################################################
#
# If this CIF has been generated from an entry in the Cambridge
# Structural Database, then it will include bibliographic, chemical,
# crystal, experimental, refinement or atomic coordinate data resulting
# from the CCDC's data processing and validation procedures.
#
#######################################################################

data_CSD_CIF_TUGTUL
_audit_creation_date 2010-06-03
_audit_creation_method CSD-ConQuest-V1
_database_code_CSD TUGTUL
_database_code_depnum_ccdc_archive 'CCDC 730034'
_chemical_formula_sum 'C15 H17 N1 O6'
_chemical_formula_moiety
;
C15 H17 N1 O6
;
_journal_coden_Cambridge 1220
_journal_volume 15
_journal_year 2009
_journal_page_first 8698
_journal_name_full 'Chem.-Eur.J. '
loop_
_publ_author_name
"Silong Xu"
"Lili Zhou"
"Renqin Ma"
"Haibin Song"
"Zhengjie He"
_chemical_name_systematic
;
(E)-Ethyl (5-(3-methoxy-2-nitrophenyl)dihydrofuran-2(3H)-ylidene)acetate
;
_cell_volume   1477.020
_exptl_crystal_density_diffrn 1.382
_diffrn_ambient_temperature 113
#These two values have been output from a single CSD field.
_refine_ls_R_factor_gt 0.1394
_refine_ls_wR_factor_gt 0.1394
_symmetry_cell_setting triclinic
_symmetry_space_group_name_H-M 'P -1'
_symmetry_Int_Tables_number 2
loop_
_symmetry_equiv_pos_site_id
_symmetry_equiv_pos_as_xyz
1 x,y,z
2 -x,-y,-z
_cell_length_a 9.844(2)
_cell_length_b 11.183(2)
_cell_length_c 14.390(3)
_cell_angle_alpha 87.44(3)
_cell_angle_beta 77.57(3)
_cell_angle_gamma 72.74(3)
_cell_formula_units_Z 4
loop_
_atom_type_symbol
_atom_type_radius_bond
C 0.68
H 0.23
N 0.68
O 0.68
loop_
_atom_site_label
_atom_site_type_symbol
_atom_site_fract_x
_atom_site_fract_y
_atom_site_fract_z
O1 O 0.3005(5) 0.4137(5) 0.6975(3)
O2 O 0.6329(6) 0.2922(6) 0.6421(4)
O3 O 0.5888(7) 0.4721(6) 0.5760(4)
O4 O 0.7864(5) 0.5026(5) 0.8476(3)
O5 O 0.8709(6) 0.8433(6) 0.8978(4)
O6 O 0.9693(5) 0.7389(5) 1.0170(3)
O7 O 1.2724(5) 0.2293(5) 0.5110(3)
O8 O 0.9720(6) 0.2571(6) 0.6221(4)
O9 O 0.9259(7) 0.3863(6) 0.5080(4)
O10 O 0.8025(5) 0.0578(5) 0.4027(3)
O11 O 0.6489(6) 0.0946(5) 0.1454(3)
O12 O 0.6046(5) -0.0919(5) 0.1835(3)
N1 N 0.5790(7) 0.4053(7) 0.6434(5)
N2 N 0.9837(6) 0.2850(7) 0.5385(4)
C1 C 0.5640(8) 0.5085(7) 0.7968(5)
C2 C 0.4774(7) 0.5643(7) 0.8851(4)
H1 H 0.51940 0.59750 0.92560
C3 C 0.3339(8) 0.5701(7) 0.9116(5)
H2 H 0.28020 0.60730 0.96990
C4 C 0.2648(8) 0.5207(7) 0.8522(5)
H3 H 0.16720 0.52380 0.87110
C5 C 0.3493(8) 0.4662(8) 0.7630(5)
C6 C 0.4934(7) 0.4643(7) 0.7395(5)
C7 C 0.1531(8) 0.4052(9) 0.7255(6)
H4 H 0.14530 0.35420 0.78080
H5 H 0.12990 0.36820 0.67440
H6 H 0.08640 0.48750 0.74000
C8 C 0.7228(8) 0.5034(8) 0.7637(4)
H7 H 0.77450 0.42530 0.72700
C9 C 0.7532(8) 0.6099(8) 0.7056(5)
H8 H 0.67640 0.64780 0.67160
H9 H 0.84540 0.58290 0.66030
C10 C 0.7582(8) 0.7005(7) 0.7799(5)
H10 H 0.82640 0.74690 0.75390
H11 H 0.66280 0.75930 0.80240
C11 C 0.8065(7) 0.6197(7) 0.8571(5)
C12 C 0.8672(8) 0.6329(7) 0.9291(5)
H12 H 0.88930 0.56700 0.97040
C13 C 0.9000(8) 0.7518(8) 0.9444(5)
C14 C 1.0147(8) 0.8477(7) 1.0340(5)
H13 H 0.93230 0.92280 1.04190
H14 H 1.08840 0.85880 0.98030
C15 C 1.0749(8) 0.8252(7) 1.1224(5)
H15 H 1.00260 0.81070 1.17440
H16 H 1.10130 0.89730 1.13680
H17 H 1.15940 0.75330 1.11260
C16 C 1.0112(7) 0.1238(7) 0.4147(4)
C17 C 1.1048(8) 0.0299(8) 0.3489(5)
H18 H 1.06630 -0.01450 0.31360
C18 C 1.2560(8) 0.0035(8) 0.3368(5)
H19 H 1.31650 -0.05920 0.29360
C19 C 1.3173(7) 0.0676(7) 0.3867(4)
H20 H 1.41790 0.05050 0.37550
C20 C 1.2271(8) 0.1594(8) 0.4550(5)
C21 C 1.0791(7) 0.1860(7) 0.4646(5)
C22 C 1.4283(7) 0.2104(8) 0.4953(5)
H21 H 1.47520 0.12740 0.51360
H22 H 1.44670 0.27050 0.53280
H23 H 1.46600 0.22090 0.42920
C23 C 0.8478(7) 0.1632(7) 0.4265(5)
H24 H 0.80290 0.18840 0.49310
C24 C 0.7876(8) 0.2669(7) 0.3641(5)
H25 H 0.85360 0.31700 0.34410
H26 H 0.69380 0.32070 0.39650
C25 C 0.7726(8) 0.1968(7) 0.2783(5)
H27 H 0.68740 0.24290 0.25430
H28 H 0.85810 0.18420 0.22730
C26 C 0.7580(7) 0.0771(8) 0.3171(5)
C27 C 0.7115(7) -0.0100(7) 0.2856(4)
H29 H 0.71490 -0.08350 0.31920
C28 C 0.6547(8) 0.0089(8) 0.1979(5)
C29 C 0.5398(8) -0.0765(7) 0.0996(5)
H30 H 0.60900 -0.06520 0.04340
H31 H 0.45410 -0.00410 0.10800
C30 C 0.4986(8) -0.1960(8) 0.0896(5)
H32 H 0.58380 -0.26700 0.08370
H33 H 0.45850 -0.19150 0.03390
H34 H 0.42780 -0.20450 0.14490
#END
