
#######################################################################
#
#                 Cambridge Crystallographic Data Centre
#                                CCDC
#
#######################################################################
#
# If this CIF has been generated from an entry in the Cambridge
# Structural Database, then it will include bibliographic, chemical,
# crystal, experimental, refinement or atomic coordinate data resulting
# from the CCDC's data processing and validation procedures.
#
#######################################################################

data_CSD_CIF_TUGXID
_audit_creation_date 2010-06-03
_audit_creation_method CSD-ConQuest-V1
_database_code_CSD TUGXID
_database_code_depnum_ccdc_archive 'CCDC 715150'
_chemical_formula_sum 'C28 H25 N1 O2'
_chemical_formula_moiety
;
C28 H25 N1 O2
;
_journal_coden_Cambridge 1220
_journal_volume 15
_journal_year 2009
_journal_page_first 8975
_journal_name_full 'Chem.-Eur.J. '
loop_
_publ_author_name
"Yu Bai"
"Jie Fang"
"Jun Ren"
"Zhongwen Wang"
_chemical_name_systematic
;
3-Methyl-1,5-diphenyl-4,5,9,13b-tetrahydro-8H-furo[3',4':4,5][1,2]oxazepino[3,
2-a]isoquinoline
;
_cell_volume   2117.148
_exptl_crystal_density_diffrn 1.278
_diffrn_ambient_temperature 113
#These two values have been output from a single CSD field.
_refine_ls_R_factor_gt 0.0514
_refine_ls_wR_factor_gt 0.0514
_symmetry_cell_setting monoclinic
_symmetry_space_group_name_H-M 'P 21/n'
_symmetry_Int_Tables_number 14
loop_
_symmetry_equiv_pos_site_id
_symmetry_equiv_pos_as_xyz
1 x,y,z
2 1/2-x,1/2+y,1/2-z
3 -x,-y,-z
4 -1/2+x,-1/2-y,-1/2+z
_cell_length_a 9.5186(19)
_cell_length_b 14.724(3)
_cell_length_c 15.186(3)
_cell_angle_alpha 90
_cell_angle_beta 95.88(3)
_cell_angle_gamma 90
_cell_formula_units_Z 4
loop_
_atom_type_symbol
_atom_type_radius_bond
C 0.68
H 0.23
N 0.68
O 0.68
loop_
_atom_site_label
_atom_site_type_symbol
_atom_site_fract_x
_atom_site_fract_y
_atom_site_fract_z
O1 O 0.45974(14) 0.35894(9) 0.04333(8)
O2 O 0.45750(14) 0.06530(9) 0.13248(8)
N1 N 0.34336(18) 0.33123(11) -0.0201(1)
C1 C 0.2637(2) 0.26209(13) 0.02554(11)
H1 H 0.22750 0.29130 0.07670
C2 C 0.1367(2) 0.23434(14) -0.03933(11)
C3 C 0.0782(2) 0.14739(14) -0.03765(11)
H2 H 0.11910 0.10460 0.00210
C4 C -0.0399(2) 0.12369(16) -0.09435(12)
H3 H -0.07710 0.06540 -0.09300
C5 C -0.1017(2) 0.18742(16) -0.15280(12)
H4 H -0.18260 0.17270 -0.18970
C6 C -0.0431(2) 0.27301(16) -0.15627(12)
H5 H -0.08470 0.31520 -0.19640
C7 C 0.0766(2) 0.29746(15) -0.10114(12)
C8 C 0.1423(2) 0.38935(16) -0.11234(13)
H6 H 0.06910 0.43540 -0.11490
H7 H 0.18390 0.39060 -0.16800
C9 C 0.2555(2) 0.41211(14) -0.03748(13)
H8 H 0.31260 0.46260 -0.05430
H9 H 0.21210 0.42910 0.01520
C10 C 0.5906(2) 0.32918(14) 0.01165(12)
H10 H 0.61360 0.37020 -0.03560
C11 C 0.7014(2) 0.33953(13) 0.08958(12)
C12 C 0.8405(2) 0.35948(14) 0.07479(13)
H11 H 0.86440 0.36480 0.01710
C13 C 0.9430(2) 0.37144(14) 0.14528(13)
H12 H 1.03540 0.38440 0.13480
C14 C 0.9086(2) 0.36421(14) 0.23136(14)
H13 H 0.97720 0.37360 0.27870
C15 C 0.7727(2) 0.34310(16) 0.24655(13)
H14 H 0.74980 0.33690 0.30430
C16 C 0.6691(2) 0.33087(14) 0.17632(13)
H15 H 0.57740 0.31680 0.18740
C17 C 0.5770(2) 0.23200(13) -0.02543(12)
H16 H 0.52570 0.23340 -0.08400
H17 H 0.67030 0.20760 -0.03080
C18 C 0.5011(2) 0.17144(13) 0.03350(12)
C19 C 0.5545(2) 0.09804(14) 0.07928(13)
C20 C 0.6882(2) 0.04612(16) 0.08176(14)
H18 H 0.66990 -0.01220 0.05480
H19 H 0.72710 0.03820 0.14210
H20 H 0.75420 0.07880 0.04990
C21 C 0.3613(2) 0.18644(13) 0.05947(11)
C22 C 0.3399(2) 0.12117(13) 0.12133(11)
C23 C 0.2310(2) 0.09893(13) 0.17887(11)
C24 C 0.1061(2) 0.14935(14) 0.17924(12)
H21 H 0.09090 0.19910 0.14180
C25 C 0.0048(2) 0.12582(16) 0.23494(13)
H22 H -0.07720 0.16020 0.23460
C26 C 0.0247(2) 0.05204(16) 0.29052(13)
H23 H -0.04410 0.03560 0.32680
C27 C 0.1482(2) 0.00276(16) 0.29172(12)
H24 H 0.16290 -0.04650 0.32980
C28 C 0.2497(2) 0.02532(14) 0.23760(12)
H25 H 0.33230 -0.00870 0.23990
#END
