
#######################################################################
#
#                 Cambridge Crystallographic Data Centre
#                                CCDC
#
#######################################################################
#
# If this CIF has been generated from an entry in the Cambridge
# Structural Database, then it will include bibliographic, chemical,
# crystal, experimental, refinement or atomic coordinate data resulting
# from the CCDC's data processing and validation procedures.
#
#######################################################################

data_CSD_CIF_TUGZUR
_audit_creation_date 2010-06-03
_audit_creation_method CSD-ConQuest-V1
_database_code_CSD TUGZUR
_database_code_depnum_ccdc_archive 'CCDC 699101'
_chemical_formula_sum 'C24 H20 N2 O4'
_chemical_formula_moiety
;
C24 H20 N2 O4
;
_journal_coden_Cambridge 1291
_journal_year 2009
_journal_page_first 4503
_journal_name_full 'Eur.J.Org.Chem. '
loop_
_publ_author_name
"P.M.Habib"
"V.Kavala"
"B.R.Raju"
"Chun-Wei Kuo"
"Wen-Chang Huang"
"Ching-Fa Yao"
_chemical_name_systematic
;
3-((2S*,3S*,4R*)-2-(4-Methoxyphenyl)-3-nitro-3,4-dihydro-2H-chromen-4-yl)-1H-i
ndole
;
_chemical_melting_point 474.15
_cell_volume   1978.244
_exptl_crystal_colour 'colorless'
_exptl_crystal_density_diffrn 1.344
_exptl_special_details
;
Melting point range 474.15-476.15K

;
_exptl_crystal_description 'prism'
_exptl_crystal_preparation 'hexane/ethyl acetate'
_diffrn_ambient_temperature 296
#These two values have been output from a single CSD field.
_refine_ls_R_factor_gt 0.0561
_refine_ls_wR_factor_gt 0.0561
loop_
_citation_database_id_CSD
_citation_special_details
TUHBAA "is a stereoisomer of this entry"
_symmetry_cell_setting monoclinic
_symmetry_space_group_name_H-M 'P 21/n'
_symmetry_Int_Tables_number 14
loop_
_symmetry_equiv_pos_site_id
_symmetry_equiv_pos_as_xyz
1 x,y,z
2 1/2-x,1/2+y,1/2-z
3 -x,-y,-z
4 -1/2+x,-1/2-y,-1/2+z
_cell_length_a 12.9428(14)
_cell_length_b 10.0881(10)
_cell_length_c 15.9582(18)
_cell_angle_alpha 90
_cell_angle_beta 108.301(7)
_cell_angle_gamma 90
_cell_formula_units_Z 4
loop_
_atom_type_symbol
_atom_type_radius_bond
C 0.68
H 0.23
N 0.68
O 0.68
loop_
_atom_site_label
_atom_site_type_symbol
_atom_site_fract_x
_atom_site_fract_y
_atom_site_fract_z
C1 C 0.6302(2) 0.2131(3) 0.96469(18)
H1 H 0.58380 0.20970 1.00280
C2 C 0.7466(2) 0.2355(3) 1.0236(2)
H2 H 0.79220 0.25800 0.98690
C3 C 0.7964(2) 0.1199(3) 1.0824(2)
C4 C 0.8843(3) 0.0561(3) 1.0714(2)
H3 H 0.91530 0.08810 1.03010
C5 C 0.9285(3) -0.0556(3) 1.1208(2)
H4 H 0.98780 -0.09880 1.11210
C6 C 0.8837(3) -0.1011(3) 1.1823(2)
C7 C 1.0124(4) -0.2778(3) 1.2243(3)
H5 H 1.02820 -0.35450 1.26190
H6 H 1.07310 -0.21800 1.24140
H7 H 0.99920 -0.30470 1.16420
C8 C 0.7974(3) -0.0365(3) 1.1962(2)
H8 H 0.76810 -0.06700 1.23890
C9 C 0.7538(3) 0.0751(3) 1.1463(2)
H9 H 0.69570 0.11950 1.15600
C10 C 0.6905(3) 0.4587(3) 1.0363(2)
C11 C 0.7164(3) 0.5771(3) 1.0824(2)
H10 H 0.76710 0.57860 1.13850
C12 C 0.6663(3) 0.6921(3) 1.0443(3)
H11 H 0.68300 0.77180 1.07490
C13 C 0.5918(3) 0.6900(3) 0.9612(3)
H12 H 0.55930 0.76840 0.93510
C14 C 0.5652(3) 0.5716(3) 0.9166(2)
H13 H 0.51270 0.57010 0.86130
C15 C 0.6160(2) 0.4547(3) 0.9533(2)
C16 C 0.5895(2) 0.3277(2) 0.89908(18)
H14 H 0.51010 0.32050 0.87420
C17 C 0.6364(2) 0.3341(3) 0.82342(19)
C18 C 0.7166(3) 0.4159(3) 0.8180(2)
H15 H 0.75390 0.47460 0.86200
C19 C 0.6651(3) 0.3071(3) 0.6905(2)
C20 C 0.6533(3) 0.2620(3) 0.6067(2)
H16 H 0.69660 0.29400 0.57450
C21 C 0.5753(3) 0.1684(4) 0.5727(2)
H17 H 0.56610 0.13460 0.51660
C22 C 0.5089(3) 0.1225(3) 0.6207(2)
H18 H 0.45540 0.05990 0.59550
C23 C 0.5214(3) 0.1682(3) 0.7045(2)
H19 H 0.47730 0.13660 0.73620
C24 C 0.6013(2) 0.2629(3) 0.74095(19)
N1 N 0.6170(3) 0.0846(3) 0.91575(17)
N2 N 0.7354(2) 0.4008(3) 0.73952(19)
H20 H 0.78340 0.44310 0.72310
O1 O 0.5304(3) 0.0284(2) 0.90043(18)
O2 O 0.6924(2) 0.0490(2) 0.89124(16)
O3 O 0.9184(2) -0.2132(2) 1.23255(15)
O4 O 0.74311(17) 0.34670(19) 1.07960(13)
#END
