
#######################################################################
#
#                 Cambridge Crystallographic Data Centre
#                                CCDC
#
#######################################################################
#
# If this CIF has been generated from an entry in the Cambridge
# Structural Database, then it will include bibliographic, chemical,
# crystal, experimental, refinement or atomic coordinate data resulting
# from the CCDC's data processing and validation procedures.
#
#######################################################################

data_CSD_CIF_TUHBII
_audit_creation_date 2010-06-03
_audit_creation_method CSD-ConQuest-V1
_database_code_CSD TUHBII
_database_code_depnum_ccdc_archive 'CCDC 728663'
_chemical_formula_sum 'C19 H18 N2 O3'
_chemical_formula_moiety
;
C19 H18 N2 O3
;
_journal_coden_Cambridge 1291
_journal_year 2009
_journal_page_first 4503
_journal_name_full 'Eur.J.Org.Chem. '
loop_
_publ_author_name
"P.M.Habib"
"V.Kavala"
"B.R.Raju"
"Chun-Wei Kuo"
"Wen-Chang Huang"
"Ching-Fa Yao"
_chemical_name_systematic
;
3-((3S*,4S*)-2,2-Dimethyl-3-nitro-3,4-dihydro-2H-chromen-4-yl)-1H-indole
;
_chemical_melting_point 470.15
_cell_volume    799.719
_exptl_crystal_colour 'colorless'
_exptl_crystal_density_diffrn 1.339
_exptl_special_details
;
Melting point range 470.15-472.15K

;
_exptl_crystal_description 'prism'
_diffrn_ambient_temperature 200
#These two values have been output from a single CSD field.
_refine_ls_R_factor_gt 0.0459
_refine_ls_wR_factor_gt 0.0459
loop_
_citation_database_id_CSD
_citation_special_details
TUHBEE "is a stereoisomer of this entry"
_symmetry_cell_setting triclinic
_symmetry_space_group_name_H-M 'P -1'
_symmetry_Int_Tables_number 2
loop_
_symmetry_equiv_pos_site_id
_symmetry_equiv_pos_as_xyz
1 x,y,z
2 -x,-y,-z
_cell_length_a 8.8496(3)
_cell_length_b 9.1080(3)
_cell_length_c 10.2057(4)
_cell_angle_alpha 83.973(1)
_cell_angle_beta 81.053(1)
_cell_angle_gamma 80.941(2)
_cell_formula_units_Z 2
loop_
_atom_type_symbol
_atom_type_radius_bond
C 0.68
H 0.23
N 0.68
O 0.68
loop_
_atom_site_label
_atom_site_type_symbol
_atom_site_fract_x
_atom_site_fract_y
_atom_site_fract_z
O1 O -0.1564(2) -0.37924(18) 0.24734(19)
O2 O -0.2775(2) -0.2519(2) 0.40847(19)
O3 O -0.15452(18) 0.11040(16) 0.12625(16)
N1 N -0.1917(2) -0.2633(2) 0.3027(2)
N2 N 0.2216(2) -0.4118(2) 0.49178(19)
H1 H 0.23980 -0.47520 0.56070
C1 C -0.1193(2) -0.1308(2) 0.2386(2)
H2 H -0.05580 -0.15890 0.15250
C2 C -0.2422(2) 0.0038(2) 0.2082(2)
C3 C -0.3494(3) -0.0374(3) 0.1205(3)
H3 H -0.28830 -0.08710 0.04480
H4 H -0.41280 0.05310 0.08780
H5 H -0.41670 -0.10500 0.17210
C4 C -0.3320(3) 0.0797(3) 0.3281(2)
H6 H -0.25960 0.10490 0.38280
H7 H -0.39840 0.01220 0.38100
H8 H -0.39600 0.17110 0.29780
C5 C -0.0252(2) 0.1426(2) 0.1726(2)
C6 C 0.0240(3) 0.2768(2) 0.1204(2)
H9 H -0.03290 0.34200 0.06070
C7 C 0.1565(3) 0.3150(3) 0.1561(3)
H10 H 0.19050 0.40700 0.12120
C8 C 0.2392(3) 0.2194(3) 0.2422(2)
H11 H 0.33100 0.24490 0.26560
C9 C 0.1883(2) 0.0865(2) 0.2943(2)
H12 H 0.24660 0.02110 0.35290
C10 C 0.0535(2) 0.0462(2) 0.2631(2)
C11 C -0.0109(2) -0.0929(2) 0.3295(2)
H13 H -0.07730 -0.06330 0.41390
C12 C 0.1062(2) -0.2223(2) 0.3675(2)
C13 C 0.0982(3) -0.3004(2) 0.4892(2)
H14 H 0.01860 -0.28050 0.56180
C14 C 0.3122(2) -0.4090(2) 0.3699(2)
C15 C 0.4492(3) -0.4986(2) 0.3257(3)
H15 H 0.49520 -0.57620 0.38300
C16 C 0.5151(3) -0.4711(3) 0.1972(3)
H16 H 0.60870 -0.53060 0.16450
C17 C 0.4473(3) -0.3568(3) 0.1121(3)
H17 H 0.49560 -0.34130 0.02290
C18 C 0.3121(3) -0.2662(3) 0.1554(2)
H18 H 0.26730 -0.18900 0.09720
C19 C 0.2424(2) -0.2912(2) 0.2875(2)
#END
