
#######################################################################
#
#                 Cambridge Crystallographic Data Centre
#                                CCDC
#
#######################################################################
#
# If this CIF has been generated from an entry in the Cambridge
# Structural Database, then it will include bibliographic, chemical,
# crystal, experimental, refinement or atomic coordinate data resulting
# from the CCDC's data processing and validation procedures.
#
#######################################################################

data_CSD_CIF_TUHBEE01
_audit_creation_date 2018-07-05
_audit_creation_method CSD-ConQuest-V1
_database_code_CSD TUHBEE01
_database_code_depnum_ccdc_archive 'CCDC 1853920'
_chemical_formula_sum 'C19 H18 N2 O3'
_chemical_formula_moiety
;
C19 H18 N2 O3
;
_journal_coden_Cambridge 1777
_journal_volume 70
_journal_year 2014
_journal_page_first 834
_journal_name_full 'Acta Crystallogr.,Sect.C:Cryst.Struct.Chem. '
loop_
_publ_author_name
"L.M.Henling"
"R.E.Marsh"
_chemical_name_systematic
;
3-((3R*,4S*)-2,2-Dimethyl-3-nitro-3,4-dihydro-2H-chromen-4-yl)-1H-indole
;
_cell_volume   3256.644
_exptl_crystal_colour 'colorless'
_exptl_crystal_density_diffrn 1.315
_exptl_crystal_description 'prism'
_diffrn_ambient_temperature 200
loop_
_citation_database_id_CSD
_citation_special_details
TUHBII "is a stereoisomer of this entry"
TUHBEE "is reinterpreted by this entry"
_symmetry_cell_setting monoclinic
_symmetry_space_group_name_H-M 'P 21/c'
_symmetry_Int_Tables_number 14
loop_
_symmetry_equiv_pos_site_id
_symmetry_equiv_pos_as_xyz
1 x,y,z
2 -x,1/2+y,1/2-z
3 -x,-y,-z
4 x,-1/2-y,-1/2+z
_cell_length_a 15.517(4)
_cell_length_b 12.726(4)
_cell_length_c 16.627(4)
_cell_angle_alpha 90
_cell_angle_beta 97.309(16)
_cell_angle_gamma 90
_cell_formula_units_Z 8
loop_
_atom_type_symbol
_atom_type_radius_bond
C 0.68
H 0.23
N 0.68
O 0.68
loop_
_atom_site_label
_atom_site_type_symbol
_atom_site_fract_x
_atom_site_fract_y
_atom_site_fract_z
C1 C 0.47260 0.69680 0.21980
H1 H 0.44830 0.76940 0.21120
N1 N 0.40890 0.62220 0.17800
O1 O 0.33880 0.65720 0.14710
O2 O 0.42880 0.52700 0.17700
C2 C 0.56100 0.69340 0.18560
C3 C 0.54620 0.69780 0.09340
H2 H 0.51240 0.63680 0.07270
H3 H 0.60200 0.69640 0.07290
H4 H 0.51500 0.76220 0.07600
C4 C 0.61740 0.78000 0.22090
H5 H 0.62960 0.77090 0.27960
H6 H 0.58770 0.84730 0.20900
H7 H 0.67200 0.77960 0.19710
O3 O 0.60240 0.59380 0.20300
C5 C 0.60240 0.55120 0.27660
C6 C 0.66100 0.46760 0.29900
H8 H 0.69950 0.44780 0.26220
C7 C 0.66400 0.41900 0.37160
H9 H 0.70370 0.36280 0.38440
C8 C 0.61180 0.44900 0.42540
H10 H 0.61480 0.41400 0.47610
C9 C 0.55320 0.53060 0.40710
H11 H 0.51760 0.55280 0.44640
C10 C 0.54560 0.58210 0.33060
C11 C 0.48380 0.67340 0.31200
H12 H 0.51420 0.73600 0.33860
C12 C 0.39980 0.66730 0.34380
C13 C 0.34720 0.57900 0.34480
H13 H 0.36020 0.51070 0.32740
N2 N 0.27180 0.60880 0.37520
H14 H 0.22760 0.56800 0.37890
C14 C 0.27730 0.71100 0.40040
C15 C 0.21760 0.77100 0.43780
H15 H 0.16480 0.74270 0.45120
C16 C 0.24190 0.87200 0.45340
H16 H 0.20380 0.91480 0.47860
C17 C 0.31580 0.91600 0.43560
H17 H 0.32660 0.98780 0.44680
C18 C 0.37660 0.85540 0.39920
H18 H 0.42970 0.88440 0.38710
C19 C 0.35580 0.75120 0.38240
C20 C 0.02730 0.36520 0.29200
H19 H 0.05300 0.29370 0.30220
N3 N 0.08910 0.44570 0.33780
O4 O 0.15770 0.41240 0.37320
O5 O 0.06970 0.53780 0.33800
C21 C -0.05960 0.36860 0.32660
C22 C -0.05470 0.36730 0.41680
H20 H -0.11310 0.37450 0.43260
H21 H -0.01880 0.42570 0.43920
H22 H -0.02900 0.30140 0.43740
C23 C -0.11400 0.27600 0.28650
H23 H -0.11840 0.28250 0.22740
H24 H -0.17220 0.27700 0.30320
H25 H -0.08540 0.20920 0.30340
O6 O -0.10690 0.46370 0.30380
C24 C -0.10330 0.50700 0.22730
C25 C -0.16030 0.58820 0.20600
H26 H -0.19840 0.61040 0.24310
C26 C -0.16200 0.63860 0.13320
H27 H -0.20320 0.69200 0.11850
C27 C -0.10320 0.60980 0.08160
H28 H -0.10340 0.64360 0.03070
C28 C -0.04230 0.52870 0.10540
H29 H -0.00040 0.51020 0.07080
C29 C -0.04300 0.47540 0.17900
C30 C 0.01790 0.38600 0.20200
H30 H -0.01080 0.32210 0.17570
C31 C 0.10560 0.39340 0.17210
C32 C 0.15990 0.47970 0.17470
H31 H 0.14850 0.54560 0.19780
N4 N 0.23130 0.45640 0.13860
H32 H 0.27460 0.49950 0.13440
C33 C 0.22540 0.35540 0.11040
C34 C 0.28160 0.29650 0.06840
H33 H 0.33420 0.32500 0.05480
C35 C 0.25700 0.19500 0.04800
H34 H 0.29430 0.15360 0.02060
C36 C 0.18120 0.15250 0.06620
H35 H 0.16610 0.08300 0.04920
C37 C 0.12520 0.20980 0.10880
H36 H 0.07300 0.17880 0.12200
C38 C 0.14620 0.31220 0.13200
#END
