
#######################################################################
#
#                 Cambridge Crystallographic Data Centre
#                                CCDC
#
#######################################################################
#
# If this CIF has been generated from an entry in the Cambridge
# Structural Database, then it will include bibliographic, chemical,
# crystal, experimental, refinement or atomic coordinate data resulting
# from the CCDC's data processing and validation procedures.
#
#######################################################################

data_CSD_CIF_TUHBAA
_audit_creation_date 2010-06-03
_audit_creation_method CSD-ConQuest-V1
_database_code_CSD TUHBAA
_database_code_depnum_ccdc_archive 'CCDC 699102'
_chemical_formula_sum 'C24 H20 N2 O4'
_chemical_formula_moiety
;
C24 H20 N2 O4
;
_journal_coden_Cambridge 1291
_journal_year 2009
_journal_page_first 4503
_journal_name_full 'Eur.J.Org.Chem. '
loop_
_publ_author_name
"P.M.Habib"
"V.Kavala"
"B.R.Raju"
"Chun-Wei Kuo"
"Wen-Chang Huang"
"Ching-Fa Yao"
_chemical_name_systematic
;
3-((2S*,3R*,4R*)-2-(4-Methoxyphenyl)-3-nitro-3,4-dihydro-2H-chromen-4-yl)-1H-i
ndole
;
_chemical_melting_point 458.15
_cell_volume   2049.318
_exptl_crystal_colour 'colorless'
_exptl_crystal_density_diffrn 1.298
_exptl_special_details
;
Melting point range 458.15-460.15K

;
_exptl_crystal_description 'prism'
_diffrn_ambient_temperature 296
#These two values have been output from a single CSD field.
_refine_ls_R_factor_gt 0.0574
_refine_ls_wR_factor_gt 0.0574
loop_
_citation_database_id_CSD
_citation_special_details
TUGZUR "is a stereoisomer of this entry"
_symmetry_cell_setting triclinic
_symmetry_space_group_name_H-M 'P -1'
_symmetry_Int_Tables_number 2
loop_
_symmetry_equiv_pos_site_id
_symmetry_equiv_pos_as_xyz
1 x,y,z
2 -x,-y,-z
_cell_length_a 9.5512(2)
_cell_length_b 9.7059(2)
_cell_length_c 22.4393(4)
_cell_angle_alpha 84.933(1)
_cell_angle_beta 89.470(1)
_cell_angle_gamma 81.506(1)
_cell_formula_units_Z 4
loop_
_atom_type_symbol
_atom_type_radius_bond
C 0.68
H 0.23
N 0.68
O 0.68
loop_
_atom_site_label
_atom_site_type_symbol
_atom_site_fract_x
_atom_site_fract_y
_atom_site_fract_z
C1 C 1.2251(2) 0.3848(3) 0.38913(11)
H1 H 1.18410 0.41290 0.34920
C2 C 1.1674(2) 0.2520(3) 0.41383(11)
H2 H 1.22610 0.17150 0.39840
C3 C 1.0192(2) 0.2587(3) 0.39056(11)
C4 C 0.9817(2) 0.2490(3) 0.32941(11)
C5 C 1.0603(3) 0.2323(3) 0.27731(12)
H3 H 1.15870 0.22070 0.27840
C6 C 0.9893(4) 0.2334(3) 0.22407(13)
H4 H 1.04030 0.22420 0.18880
C7 C 0.8423(4) 0.2481(3) 0.22241(14)
H5 H 0.79710 0.24780 0.18590
C8 C 0.7622(3) 0.2632(3) 0.27305(13)
H6 H 0.66400 0.27240 0.27160
C9 C 0.8335(3) 0.2642(3) 0.32663(12)
C10 C 0.8952(3) 0.2798(3) 0.42123(12)
H7 H 0.88770 0.29050 0.46200
C11 C 1.1747(2) 0.2340(3) 0.48126(11)
C12 C 1.1534(3) 0.1091(3) 0.51248(13)
H8 H 1.13700 0.03490 0.49130
C13 C 1.1557(3) 0.0920(3) 0.57377(14)
H9 H 1.13960 0.00770 0.59370
C14 C 1.1820(3) 0.1999(3) 0.60555(13)
H10 H 1.18380 0.18890 0.64710
C15 C 1.2056(3) 0.3242(3) 0.57603(12)
H11 H 1.22500 0.39670 0.59760
C16 C 1.2007(2) 0.3420(3) 0.51436(11)
C17 C 1.1821(3) 0.5049(3) 0.42812(11)
H12 H 1.07840 0.52390 0.42820
C18 C 1.2348(3) 0.6383(3) 0.40539(11)
C19 C 1.1660(3) 0.7210(3) 0.35810(13)
H13 H 1.08540 0.69510 0.34200
C20 C 1.2138(3) 0.8401(3) 0.33443(13)
H14 H 1.16520 0.89460 0.30280
C21 C 1.3342(3) 0.8797(3) 0.35741(12)
C22 C 1.5126(5) 1.0259(4) 0.34280(19)
H15 H 1.52860 1.11200 0.32120
H16 H 1.58120 0.95080 0.33090
H17 H 1.52150 1.03300 0.38500
C23 C 1.4035(3) 0.8001(3) 0.40452(13)
H18 H 1.48390 0.82660 0.42050
C24 C 1.3536(3) 0.6793(3) 0.42848(13)
H19 H 1.40110 0.62570 0.46050
C25 C 0.3511(2) 0.8981(3) 0.12729(11)
H20 H 0.41200 0.80730 0.13310
C26 C 0.4070(2) 0.9984(3) 0.16801(11)
H21 H 0.36460 0.98480 0.20760
C27 C 0.5640(2) 0.9550(3) 0.17429(10)
C28 C 0.6300(2) 0.8321(3) 0.20892(10)
C29 C 0.5790(3) 0.7263(3) 0.24632(11)
H22 H 0.48240 0.72880 0.25290
C30 C 0.6744(3) 0.6196(3) 0.27280(12)
H23 H 0.64190 0.54890 0.29740
C31 C 0.8194(3) 0.6153(3) 0.26338(12)
H24 H 0.88150 0.54130 0.28180
C32 C 0.8726(3) 0.7166(3) 0.22797(12)
H25 H 0.96960 0.71330 0.22230
C33 C 0.7771(3) 0.8247(3) 0.20073(10)
C34 C 0.6699(3) 1.0146(3) 0.14671(12)
H26 H 0.65720 1.09620 0.12110
C35 C 0.3632(3) 1.1486(3) 0.14431(12)
C36 C 0.3774(3) 1.2569(3) 0.17987(14)
H27 H 0.41910 1.23540 0.21750
C37 C 0.3317(4) 1.3937(4) 0.16078(17)
H28 H 0.34420 1.46400 0.18500
C38 C 0.2670(4) 1.4274(4) 0.10574(17)
H29 H 0.23330 1.52010 0.09320
C39 C 0.2525(3) 1.3236(3) 0.06958(15)
H30 H 0.20980 1.34610 0.03220
C40 C 0.3014(3) 1.1853(3) 0.08863(12)
C41 C 0.3596(3) 0.9523(3) 0.06166(11)
H31 H 0.45920 0.95860 0.05280
C42 C 0.3111(3) 0.8554(3) 0.01974(11)
C43 C 0.1717(3) 0.8650(4) 0.00295(14)
H32 H 0.10540 0.93720 0.01510
C44 C 0.1296(4) 0.7683(4) -0.03175(16)
H33 H 0.03500 0.77590 -0.04290
C45 C 0.2250(4) 0.6613(4) -0.04996(13)
C46 C 0.2563(5) 0.4673(4) -0.1063(2)
H34 H 0.20190 0.41410 -0.12880
H35 H 0.30590 0.40730 -0.07460
H36 H 0.32320 0.50710 -0.13220
C47 C 0.3654(4) 0.6531(3) -0.03530(13)
H37 H 0.43180 0.58260 -0.04870
C48 C 0.4071(3) 0.7502(3) -0.00057(11)
H38 H 0.50220 0.74430 0.00930
N1 N 1.3833(2) 0.3605(3) 0.38284(12)
N2 N 0.7835(2) 0.2829(2) 0.38322(10)
H39 H 0.69570 0.29470 0.39330
N3 N 0.2037(2) 0.8762(3) 0.14329(11)
N4 N 0.7980(2) 0.9373(2) 0.16204(10)
H40 H 0.87890 0.95630 0.14940
O1 O 1.4548(2) 0.3110(3) 0.42601(11)
O2 O 1.4324(2) 0.3902(3) 0.33413(12)
O3 O 1.22715(19) 0.46904(19) 0.48843(7)
O4 O 1.3750(2) 0.9990(2) 0.33004(10)
O5 O 0.1827(3) 0.7572(3) 0.15539(16)
O6 O 0.1119(2) 0.9758(3) 0.14192(12)
O7 O 0.2820(2) 1.0881(2) 0.04933(8)
O8 O 0.1686(4) 0.5712(3) -0.08275(12)
#END
