
#######################################################################
#
#                 Cambridge Crystallographic Data Centre
#                                CCDC
#
#######################################################################
#
# If this CIF has been generated from an entry in the Cambridge
# Structural Database, then it will include bibliographic, chemical,
# crystal, experimental, refinement or atomic coordinate data resulting
# from the CCDC's data processing and validation procedures.
#
#######################################################################

data_CSD_CIF_TUHBEE
_audit_creation_date 2010-06-03
_audit_creation_method CSD-ConQuest-V1
_database_code_CSD TUHBEE
_database_code_depnum_ccdc_archive 'CCDC 728662'
_chemical_formula_sum 'C19 H18 N2 O3'
_chemical_formula_moiety
;
C19 H18 N2 O3
;
_journal_coden_Cambridge 1291
_journal_year 2009
_journal_page_first 4503
_journal_name_full 'Eur.J.Org.Chem. '
loop_
_publ_author_name
"P.M.Habib"
"V.Kavala"
"B.R.Raju"
"Chun-Wei Kuo"
"Wen-Chang Huang"
"Ching-Fa Yao"
_chemical_name_systematic
;
3-((3R*,4S*)-2,2-Dimethyl-3-nitro-3,4-dihydro-2H-chromen-4-yl)-1H-indole
;
_chemical_melting_point 485.15
_cell_volume   3256.644
_exptl_crystal_colour 'colorless'
_exptl_crystal_density_diffrn 1.315
_exptl_special_details
;
Melting point range 485.15-487.15K

;
_exptl_crystal_description 'prism'
_diffrn_ambient_temperature 200
#These two values have been output from a single CSD field.
_refine_ls_R_factor_gt 0.1886
_refine_ls_wR_factor_gt 0.1886
loop_
_citation_database_id_CSD
_citation_special_details
TUHBII "is a stereoisomer of this entry"
TUHBEE01 "is a reinterpretation of this cif"
_symmetry_cell_setting monoclinic
_symmetry_space_group_name_H-M 'P 21'
_symmetry_Int_Tables_number 4
loop_
_symmetry_equiv_pos_site_id
_symmetry_equiv_pos_as_xyz
1 x,y,z
2 -x,1/2+y,-z
_cell_length_a 15.517(4)
_cell_length_b 12.726(4)
_cell_length_c 16.627(4)
_cell_angle_alpha 90
_cell_angle_beta 97.309(16)
_cell_angle_gamma 90
_cell_formula_units_Z 8
loop_
_atom_type_symbol
_atom_type_radius_bond
C 0.68
H 0.23
N 0.68
O 0.68
loop_
_atom_site_label
_atom_site_type_symbol
_atom_site_fract_x
_atom_site_fract_y
_atom_site_fract_z
C1 C 0.4730(14) 1.011(2) 0.4708(13)
H1 H 0.44760 1.08300 0.46150
C2 C 0.5640(14) 1.0077(19) 0.4388(13)
C3 C 0.5351(13) 1.005(2) 0.3426(12)
H2 H 0.49870 0.94260 0.32880
H3 H 0.58690 1.00100 0.31450
H4 H 0.50210 1.06820 0.32580
C4 C 0.6153(15) 1.093(2) 0.4690(14)
H5 H 0.62820 1.08730 0.52800
H6 H 0.58380 1.15880 0.45510
H7 H 0.66970 1.09320 0.44480
C5 C 0.6035(13) 0.8560(17) 0.5254(12)
C6 C 0.6596(16) 0.781(2) 0.5495(15)
H8 H 0.69990 0.76210 0.51360
C7 C 0.6650(14) 0.7290(19) 0.6208(12)
H9 H 0.70650 0.67460 0.63300
C8 C 0.6125(15) 0.755(2) 0.6721(14)
H10 H 0.61410 0.71640 0.72130
C9 C 0.5515(15) 0.840(2) 0.6561(13)
H11 H 0.51440 0.86170 0.69430
C10 C 0.5507(11) 0.8898(14) 0.5803(10)
C11 C 0.4790(15) 0.984(2) 0.5616(13)
H12 H 0.50670 1.04730 0.59020
C12 C 0.3986(14) 0.9712(18) 0.5940(13)
C13 C 0.3437(14) 0.890(2) 0.5923(12)
H13 H 0.35200 0.82280 0.56940
C14 C 0.2708(14) 1.023(2) 0.6466(13)
C15 C 0.2160(17) 1.081(2) 0.6877(15)
H14 H 0.16530 1.05210 0.70570
C16 C 0.2398(17) 1.182(2) 0.7006(15)
H15 H 0.19730 1.22630 0.71910
C17 C 0.3183(14) 1.230(2) 0.6903(13)
H16 H 0.33160 1.29950 0.70880
C18 C 0.3822(14) 1.1649(18) 0.6477(12)
H17 H 0.43500 1.19130 0.63230
C19 C 0.3544(14) 1.0675(17) 0.6350(13)
N1 N 0.4095(13) 0.9303(14) 0.4292(10)
N2 N 0.2767(10) 0.9183(16) 0.6277(11)
H18 H 0.23720 0.87270 0.63880
O1 O 0.3416(9) 0.9728(13) 0.3997(9)
O2 O 0.4354(12) 0.8404(16) 0.4244(11)
O3 O 0.6078(8) 0.9035(10) 0.4516(7)
C20 C 0.0295(15) 0.678(2) 0.5383(15)
H19 H 0.05390 0.60600 0.54920
C21 C -0.0539(11) 0.6872(14) 0.5769(10)
C22 C -0.0529(12) 0.6746(16) 0.6657(10)
H20 H -0.11190 0.68380 0.67980
H21 H -0.01450 0.72750 0.69410
H22 H -0.03180 0.60420 0.68200
C23 C -0.1155(13) 0.5849(17) 0.5369(12)
H23 H -0.12130 0.58850 0.47760
H24 H -0.17320 0.58880 0.55490
H25 H -0.08760 0.51860 0.55530
C24 C -0.1006(12) 0.8230(16) 0.4804(11)
C25 C -0.1577(14) 0.9047(19) 0.4505(14)
H26 H -0.19470 0.92950 0.48780
C26 C -0.1670(17) 0.948(2) 0.3863(15)
H27 H -0.21240 0.99660 0.37120
C27 C -0.1000(14) 0.918(2) 0.3296(14)
H28 H -0.09820 0.95220 0.27900
C28 C -0.0428(14) 0.8394(19) 0.3560(13)
H29 H 0.00040 0.81950 0.32330
C29 C -0.0464(13) 0.7883(17) 0.4289(12)
C30 C 0.0147(14) 0.694(2) 0.4514(13)
H30 H -0.01370 0.62930 0.42600
C31 C 0.1122(13) 0.7044(19) 0.4221(13)
C32 C 0.1663(14) 0.7868(17) 0.4181(11)
H31 H 0.15300 0.85500 0.43620
C33 C 0.2295(14) 0.670(2) 0.3609(14)
C34 C 0.2839(16) 0.605(2) 0.3165(13)
H32 H 0.33540 0.63050 0.29830
C35 C 0.2553(15) 0.498(2) 0.3018(13)
H33 H 0.29320 0.45170 0.27900
C36 C 0.1836(17) 0.463(3) 0.3170(15)
H34 H 0.16830 0.39340 0.29970
C37 C 0.1250(15) 0.519(2) 0.3578(13)
H35 H 0.07300 0.48710 0.37030
C38 C 0.1440(14) 0.6226(18) 0.3799(13)
N3 N 0.0899(16) 0.7577(19) 0.5873(13)
N4 N 0.2306(10) 0.7686(19) 0.3909(11)
H36 H 0.27390 0.81310 0.39010
O4 O 0.1549(13) 0.7278(15) 0.6274(10)
O5 O 0.0675(9) 0.8540(12) 0.5827(7)
O6 O -0.1083(10) 0.7755(11) 0.5545(8)
C39 C 0.9749(10) 0.9476(14) -0.0458(10)
H37 H 0.94790 1.01860 -0.05530
C40 C 1.0654(13) 0.9501(17) -0.0764(12)
C41 C 1.1124(17) 1.033(2) -0.0361(16)
H38 H 1.17130 1.03490 -0.05150
H39 H 1.11550 1.02350 0.02270
H40 H 1.08310 1.10010 -0.05140
C42 C 1.0565(19) 0.940(3) -0.1678(16)
H41 H 1.02320 0.87610 -0.18440
H42 H 1.11430 0.93480 -0.18530
H43 H 1.02610 1.00130 -0.19270
C43 C 1.1060(14) 0.8091(18) 0.0258(13)
C44 C 1.1629(11) 0.7282(14) 0.0385(10)
H44 H 1.20210 0.70870 0.00160
C45 C 1.1570(13) 0.6709(18) 0.1200(12)
H45 H 1.19390 0.61250 0.13420
C46 C 1.1064(14) 0.6985(18) 0.1663(14)
H46 H 1.10870 0.66510 0.21760
C47 C 1.0418(16) 0.782(2) 0.1453(15)
H47 H 1.00130 0.79900 0.18170
C48 C 1.0397(14) 0.8375(19) 0.0708(13)
C49 C 0.9789(12) 0.9220(17) 0.0475(11)
H48 H 1.00790 0.98510 0.07460
C50 C 0.9010(12) 0.9175(16) 0.0779(11)
C51 C 0.8465(12) 0.8274(16) 0.0687(11)
H49 H 0.85600 0.76390 0.04110
C52 C 0.7786(14) 0.9591(18) 0.1401(12)
C53 C 0.7207(15) 1.012(2) 0.1798(12)
H50 H 0.66710 0.98050 0.18870
C54 C 0.7412(14) 1.108(2) 0.2058(13)
H51 H 0.70460 1.14450 0.23790
C55 C 0.8213(14) 1.158(2) 0.1847(12)
H52 H 0.83610 1.22740 0.20120
C56 C 0.8747(14) 1.0995(19) 0.1401(12)
H53 H 0.92690 1.12950 0.12630
C57 C 0.8517(13) 0.9981(17) 0.1159(12)
N5 N 0.9117(10) 0.8663(17) -0.0882(10)
N6 N 0.7680(12) 0.8559(15) 0.1138(10)
H54 H 0.72460 0.81410 0.12140
O7 O 0.8395(10) 0.9031(15) -0.119(1)
O8 O 0.9281(13) 0.7784(15) -0.0934(11)
O9 O 1.1056(9) 0.8481(13) -0.0532(8)
C58 C 0.5279(12) 0.6174(17) 0.0312(10)
H55 H 0.55100 0.54420 0.03920
C59 C 0.4420(13) 0.6209(17) 0.0676(12)
C60 C 0.3805(14) 0.533(2) 0.0272(13)
H56 H 0.32560 0.53390 0.05060
H57 H 0.40840 0.46420 0.03700
H58 H 0.36890 0.54550 -0.03130
C61 C 0.4428(14) 0.6095(18) 0.1557(11)
H59 H 0.38300 0.60810 0.16870
H60 H 0.47380 0.66900 0.18340
H61 H 0.47220 0.54390 0.17370
C62 C 0.3988(15) 0.7535(19) -0.0279(15)
C63 C 0.3375(12) 0.8457(15) -0.0485(11)
H62 H 0.30090 0.87060 -0.01090
C64 C 0.3369(15) 0.891(2) -0.1223(14)
H63 H 0.29910 0.94900 -0.13580
C65 C 0.3888(14) 0.857(2) -0.1787(14)
H64 H 0.38460 0.88850 -0.23090
C66 C 0.4452(13) 0.7789(18) -0.1581(12)
H65 H 0.47920 0.75620 -0.19850
C67 C 0.4596(14) 0.7256(18) -0.0808(13)
C68 C 0.5115(11) 0.6371(16) -0.0623(10)
H66 H 0.47840 0.57520 -0.08700
C69 C 0.5989(12) 0.6366(16) -0.0935(12)
C70 C 0.6492(15) 0.732(2) -0.0973(13)
H67 H 0.63160 0.80140 -0.08550
C71 C 0.7162(12) 0.6011(16) -0.1541(11)
C72 C 0.7808(15) 0.539(2) -0.1879(13)
H68 H 0.83580 0.56670 -0.19660
C73 C 0.7560(15) 0.438(2) -0.2063(14)
H69 H 0.78960 0.39680 -0.23820
C74 C 0.6867(15) 0.398(2) -0.1809(13)
H70 H 0.67830 0.32390 -0.18480
C75 C 0.6289(16) 0.454(2) -0.1507(14)
H71 H 0.57560 0.42250 -0.14190
C76 C 0.6428(12) 0.5651(15) -0.1299(11)
N7 N 0.5917(14) 0.686(2) 0.0733(13)
N8 N 0.7331(11) 0.7008(16) -0.1228(10)
H72 H 0.78190 0.73670 -0.11900
O10 O 0.6640(14) 0.6584(16) 0.1055(12)
O11 O 0.5777(8) 0.7864(12) 0.0704(8)
O12 O 0.4031(9) 0.7160(13) 0.0457(9)
#END
