
#######################################################################
#
#                 Cambridge Crystallographic Data Centre
#                                CCDC
#
#######################################################################
#
# If this CIF has been generated from an entry in the Cambridge
# Structural Database, then it will include bibliographic, chemical,
# crystal, experimental, refinement or atomic coordinate data resulting
# from the CCDC's data processing and validation procedures.
#
#######################################################################

data_CSD_CIF_TUHDIJ
_audit_creation_date 1997-06-19
_audit_creation_method CSD-ConQuest-V1
_database_code_CSD TUHDIJ
_chemical_formula_sum 'C14 H16 N3 O1'
_chemical_formula_moiety
;
C14 H16 N3 O1
;
_journal_coden_Cambridge 1089
_journal_volume 8
_journal_year 1996
_journal_page_first 826
_journal_name_full 'Adv.Mater. '
loop_
_publ_author_name
"F.M.Romero"
"R.Ziessel"
"M.Drillon"
"J.-L.Tholence"
"C.Paulsen"
"N.Kyritsakas"
"J.Fisher"
_chemical_name_systematic
;
2-(6-Ethynyl-2-pyridyl)-4,4,5,5-tetramethylimidazoline-1-oxyl
;
_cell_volume   1321.879
_exptl_crystal_colour 'red'
_exptl_crystal_density_diffrn 1.217
_diffrn_ambient_temperature ?
_diffrn_special_details
;
The study was carried out at room temperature,in the range 283-303K

;
#These two values have been output from a single CSD field.
_refine_ls_R_factor_gt 0.051
_refine_ls_wR_factor_gt 0.051
_symmetry_cell_setting monoclinic
_symmetry_space_group_name_H-M 'P 21/n'
_symmetry_Int_Tables_number 14
loop_
_symmetry_equiv_pos_site_id
_symmetry_equiv_pos_as_xyz
1 x,y,z
2 1/2-x,1/2+y,1/2-z
3 -x,-y,-z
4 -1/2+x,-1/2-y,-1/2+z
_cell_length_a 6.312(1)
_cell_length_b 12.546(3)
_cell_length_c 16.718(5)
_cell_angle_alpha 90
_cell_angle_beta 93.17(2)
_cell_angle_gamma 90
_cell_formula_units_Z 4
loop_
_atom_type_symbol
_atom_type_radius_bond
C 0.68
H 0.23
N 0.68
O 0.68
loop_
_atom_site_label
_atom_site_type_symbol
_atom_site_fract_x
_atom_site_fract_y
_atom_site_fract_z
C1 C 1.0356(4) 0.0540(2) 0.3646(2)
C2 C 1.2550(4) 0.0524(2) 0.3728(2)
C3 C 1.3548(4) 0.0997(2) 0.4389(2)
C4 C 1.2328(4) 0.1486(2) 0.4939(2)
C5 C 1.0146(4) 0.1488(2) 0.4803(1)
N1 N 0.9129(3) 0.1018(2) 0.4172(1)
C6 C 0.8822(4) 0.2032(2) 0.5352(2)
C7 C 0.7845(5) 0.2523(3) 0.5803(2)
C8 C 0.9238(4) -0.0024(2) 0.2969(2)
N2 N 0.9881(4) 0.0102(2) 0.2196(1)
O1 O 1.1222(4) 0.0754(2) 0.1983(1)
C9 C 0.8437(5) -0.0499(2) 0.1628(2)
C10 C 0.7391(4) -0.1249(2) 0.2228(2)
N3 N 0.7712(4) -0.0703(2) 0.3024(1)
C11 C 0.6919(6) 0.0302(3) 0.1228(2)
C12 C 0.9737(6) -0.1040(3) 0.1001(2)
C13 C 0.8540(6) -0.2305(3) 0.2329(2)
C14 C 0.5059(5) -0.1462(3) 0.2052(2)
H1 H 1.33540 0.01920 0.33330
H2 H 1.50500 0.09850 0.44630
H3 H 1.29710 0.18140 0.54030
H4 H 0.76610 0.07330 0.08690
H5 H 0.58060 -0.00660 0.09380
H6 H 0.63370 0.07390 0.16240
H7 H 1.03070 -0.05140 0.06640
H8 H 1.08610 -0.14330 0.12600
H9 H 0.88500 -0.15090 0.06860
H10 H 0.78410 -0.27350 0.27010
H11 H 0.85370 -0.26590 0.18270
H12 H 0.99620 -0.21810 0.25230
H13 H 0.45550 -0.19260 0.24480
H14 H 0.42970 -0.08090 0.20570
H15 H 0.48550 -0.17850 0.15390
H16 H 0.70330 0.29900 0.62260
#END
