
#######################################################################
#
#                 Cambridge Crystallographic Data Centre
#                                CCDC
#
#######################################################################
#
# If this CIF has been generated from an entry in the Cambridge
# Structural Database, then it will include bibliographic, chemical,
# crystal, experimental, refinement or atomic coordinate data resulting
# from the CCDC's data processing and validation procedures.
#
#######################################################################

data_CSD_CIF_TUHSAQ
_audit_creation_date 1997-06-19
_audit_creation_method CSD-ConQuest-V1
_database_code_CSD TUHSAQ
_chemical_formula_sum 'C28 H41 N1 O4'
_chemical_formula_moiety
;
C28 H41 N1 O4
;
_journal_coden_Cambridge 444
_journal_volume 66
_journal_year 1996
_journal_page_first 859
_journal_name_full 'Zh.Obshch.Khim.(Russ.)(Russ.J.Gen.Chem.) '
loop_
_publ_author_name
"R.P.Litrinovskaya"
"V.A.Tereshko"
"S.V.Drach"
"V.A.Khripach"
_chemical_name_systematic
;
(22R)-22-Acetoxy-22-(3-methylisoxazolin-5-yl)-3\a,5-cyclo-23-nor-5\a-cholestan
-6-one
;
_cell_volume   2469.106
_diffrn_ambient_temperature ?
_diffrn_special_details
;
The study was carried out at room temperature,in the range 283-303K

;
#These two values have been output from a single CSD field.
_refine_ls_R_factor_gt 0.1011
_refine_ls_wR_factor_gt 0.1011
_symmetry_cell_setting orthorhombic
_symmetry_space_group_name_H-M 'P 21 21 21'
_symmetry_Int_Tables_number 19
loop_
_symmetry_equiv_pos_site_id
_symmetry_equiv_pos_as_xyz
1 x,y,z
2 1/2-x,-y,1/2+z
3 1/2+x,1/2-y,-z
4 -x,1/2+y,1/2-z
_cell_length_a 11.423
_cell_length_b 14.259
_cell_length_c 15.159
_cell_angle_alpha 90
_cell_angle_beta 90
_cell_angle_gamma 90
_cell_formula_units_Z 4
loop_
_atom_type_symbol
_atom_type_radius_bond
C 0.68
N 0.68
O 0.68
loop_
_atom_site_label
_atom_site_type_symbol
_atom_site_fract_x
_atom_site_fract_y
_atom_site_fract_z
O1 O -0.0298(5) 0.8366(3) 0.0404(3)
N1 N -0.1064(6) 0.7843(4) -0.0132(3)
C1 C -0.2380(7) 0.6536(7) -0.0106(5)
C2 C -0.1541(5) 0.7200(4) 0.0310(4)
C3 C -0.1203(6) 0.7187(4) 0.1262(3)
C4 C -0.0236(6) 0.7914(4) 0.1265(3)
C5 C 0.1211(9) 1.0729(5) 0.1075(6)
O2 O -0.0802(5) 1.0357(4) 0.1161(4)
C6 C 0.0179(7) 1.0162(4) 0.1321(4)
O3 O 0.0535(4) 0.9378(2) 0.1763(2)
C7 C -0.0349(5) 0.8690(4) 0.1970(3)
C8 C 0.0957(7) 0.7773(4) 0.3012(4)
C9 C -0.0186(5) 0.8336(4) 0.2917(3)
C10 C -0.1175(6) 0.8802(4) 0.7683(4)
C11 C -0.1520(6) 0.8302(4) 0.4694(4)
C12 C -0.0232(5) 0.9163(3) 0.3581(3)
C13 C -0.1207(6) 0.9889(4) 0.3414(3)
C14 C -0.1490(5) 1.0358(4) 0.4308(3)
C15 C -0.0609(4) 0.9912(3) 0.4946(3)
C16 C -0.0426(5) 0.8908(3) 0.4578(3)
C17 C 0.0606(5) 0.8491(4) 0.5088(3)
C18 C 0.0392(6) 0.8502(4) 0.6083(4)
C19 C -0.0163(5) 0.9458(4) 0.7461(3)
C20 C 0.0108(5) 0.9485(3) 0.6454(3)
C21 C -0.0880(5) 0.9957(3) 0.5932(2)
C22 C -0.1025(5) 1.0985(4) 0.6219(3)
C23 C -0.1102(5) 1.1138(3) 0.7203(3)
O4 O -0.1633(4) 1.1787(3) 0.7511(2)
C24 C -0.0425(5) 1.0468(4) 0.7769(3)
C25 C -0.0374(6) 1.0672(5) 0.8754(4)
C26 C 0.0699(5) 1.0860(5) 0.8210(4)
C27 C 0.1626(6) 1.0112(5) 0.8140(5)
C28 C 0.0946(6) 0.9210(5) 0.8003(4)
#END
