
#######################################################################
#
#                 Cambridge Crystallographic Data Centre
#                                CCDC
#
#######################################################################
#
# If this CIF has been generated from an entry in the Cambridge
# Structural Database, then it will include bibliographic, chemical,
# crystal, experimental, refinement or atomic coordinate data resulting
# from the CCDC's data processing and validation procedures.
#
#######################################################################

data_CSD_CIF_TUJDUY
_audit_creation_date 2010-06-03
_audit_creation_method CSD-ConQuest-V1
_database_code_CSD TUJDUY
_database_code_depnum_ccdc_archive 'CCDC 749583'
_chemical_formula_sum 'C15 H23 N1 O4'
_chemical_formula_moiety
;
C15 H23 N1 O4
;
_journal_coden_Cambridge 4
_journal_volume 131
_journal_year 2009
_journal_page_first 10092
_journal_name_full 'J.Am.Chem.Soc. '
loop_
_publ_author_name
"C.Riplinger"
"J.P.Y.Kao"
"G.M.Rosen"
"V.Kathirvelu"
"G.R.Eaton"
"S.S.Eaton"
"A.Kutateladze"
"F.Neese"
_chemical_name_systematic
;
2,5-Di-t-butyl-3-(ethoxycarbonyl)pyrrol-4-one-1-oxide
;
_cell_volume    815.997
_exptl_crystal_colour 'yellow'
_exptl_crystal_density_diffrn 1.145
_exptl_crystal_description 'prism'
_diffrn_ambient_temperature 220
#These two values have been output from a single CSD field.
_refine_ls_R_factor_gt 0.0382
_refine_ls_wR_factor_gt 0.0382
_symmetry_cell_setting triclinic
_symmetry_space_group_name_H-M 'P -1'
_symmetry_Int_Tables_number 2
loop_
_symmetry_equiv_pos_site_id
_symmetry_equiv_pos_as_xyz
1 x,y,z
2 -x,-y,-z
_cell_length_a 9.1990(6)
_cell_length_b 9.8972(6)
_cell_length_c 10.4887(6)
_cell_angle_alpha 112.724(1)
_cell_angle_beta 92.009(1)
_cell_angle_gamma 109.404(1)
_cell_formula_units_Z 2
loop_
_atom_type_symbol
_atom_type_radius_bond
C 0.68
H 0.23
N 0.68
O 0.68
loop_
_atom_site_label
_atom_site_type_symbol
_atom_site_fract_x
_atom_site_fract_y
_atom_site_fract_z
O1 O 0.39639(12) 0.74642(12) 0.76037(12)
N1 N 0.45256(13) 0.64917(12) 0.77086(11)
C1 C 0.59918(16) 0.66013(16) 0.77359(13)
C2 C 0.60121(17) 0.51650(16) 0.78402(14)
O2 O 0.71060(13) 0.47538(14) 0.78811(13)
C3 C 0.43684(16) 0.42398(15) 0.78775(13)
C4 C 0.34678(16) 0.50202(15) 0.78118(13)
C5 C 0.72791(17) 0.79741(18) 0.76679(16)
C6 C 0.7375(2) 0.95139(19) 0.8864(2)
H1 H 0.63720 0.96300 0.87950
H2 H 0.81830 1.03980 0.87980
H3 H 0.76300 0.94930 0.97600
C7 C 0.8859(2) 0.7794(3) 0.7797(2)
H4 H 0.91020 0.77760 0.86970
H5 H 0.96720 0.86770 0.77350
H6 H 0.88050 0.68150 0.70430
C8 C 0.6922(2) 0.8007(2) 0.62482(19)
H7 H 0.68690 0.70260 0.54960
H8 H 0.77470 0.88870 0.61920
H9 H 0.59260 0.81280 0.61550
C9 C 0.40295(17) 0.27361(16) 0.80321(14)
O3 O 0.41395(18) 0.26575(13) 0.91320(12)
O4 O 0.36593(13) 0.15152(11) 0.67925(10)
C10 C 0.3400(2) -0.00111(17) 0.68182(18)
H10 H 0.26050 -0.02350 0.73840
H11 H 0.43750 -0.00040 0.72330
C11 C 0.2863(3) -0.1224(2) 0.5352(2)
H12 H 0.18710 -0.12570 0.49680
H13 H 0.27280 -0.22480 0.53310
H14 H 0.36380 -0.09660 0.47930
C12 C 0.17675(16) 0.47585(17) 0.78528(15)
C13 C 0.1634(2) 0.60934(19) 0.91582(17)
H15 H 0.21520 0.61260 0.99970
H16 H 0.05360 0.59030 0.92000
H17 H 0.21310 0.70950 0.91020
C14 C 0.09411(19) 0.4681(2) 0.65153(18)
H18 H 0.14400 0.56710 0.64390
H19 H -0.01550 0.45010 0.65620
H20 H 0.10160 0.38230 0.56990
C15 C 0.09454(19) 0.31902(19) 0.7952(2)
H21 H 0.10420 0.23360 0.71460
H22 H -0.01560 0.30110 0.79640
H23 H 0.14290 0.32300 0.88090
#END
