
#######################################################################
#
#                 Cambridge Crystallographic Data Centre
#                                CCDC
#
#######################################################################
#
# If this CIF has been generated from an entry in the Cambridge
# Structural Database, then it will include bibliographic, chemical,
# crystal, experimental, refinement or atomic coordinate data resulting
# from the CCDC's data processing and validation procedures.
#
#######################################################################

data_CSD_CIF_TUJRUN
_audit_creation_date 2015-05-13
_audit_creation_method CSD-ConQuest-V1
_database_code_CSD TUJRUN
_database_code_depnum_ccdc_archive 'CCDC 933479'
_chemical_formula_sum 'C14 H15 N3 O5'
_chemical_formula_moiety
;
C14 H15 N3 O5
;
_journal_coden_Cambridge 1268
_journal_volume 19
_journal_year 2014
_journal_page_first 1150
_journal_name_full 'Molecules '
loop_
_publ_author_name
"H.J.Al-Najjar"
"A.Barakat"
"A.M.Al-Majid"
"Y.N.Mabkhot"
"M.Weber"
"H.A.Ghabbour"
"Hoong-Kun Fun"
_chemical_name_systematic
;
1,3-Dimethyl-5-(2-nitro-1-phenylethyl)pyrimidine-2,4,6(1H,3H,5H)-trione
;
_cell_volume   2926.993
_exptl_crystal_colour 'colorless'
_exptl_crystal_density_diffrn 1.386
_exptl_crystal_description 'block'
_diffrn_ambient_temperature 293
#These two values have been output from a single CSD field.
_refine_ls_R_factor_gt 0.0784
_refine_ls_wR_factor_gt 0.0784
_symmetry_cell_setting orthorhombic
_symmetry_space_group_name_H-M 'P 21 21 21'
_symmetry_Int_Tables_number 19
loop_
_symmetry_equiv_pos_site_id
_symmetry_equiv_pos_as_xyz
1 x,y,z
2 1/2-x,-y,1/2+z
3 1/2+x,1/2-y,-z
4 -x,1/2+y,1/2-z
_cell_length_a 12.5332(2)
_cell_length_b 14.3843(2)
_cell_length_c 16.2357(3)
_cell_angle_alpha 90
_cell_angle_beta 90
_cell_angle_gamma 90
_cell_formula_units_Z 8
loop_
_atom_type_symbol
_atom_type_radius_bond
C 0.68
H 0.23
N 0.68
O 0.68
loop_
_atom_site_label
_atom_site_type_symbol
_atom_site_fract_x
_atom_site_fract_y
_atom_site_fract_z
O1 O 0.6943(3) 0.7560(3) 0.0915(3)
O2 O 0.5063(3) 1.02032(19) 0.1267(2)
O3 O 0.3263(3) 0.7554(3) 0.0715(3)
O4 O 0.5853(4) 0.6792(4) -0.2085(3)
O5 O 0.4185(4) 0.6937(4) -0.2179(3)
N1 N 0.6014(3) 0.8897(2) 0.1079(2)
N2 N 0.4132(3) 0.8894(2) 0.0979(2)
N3 N 0.4979(5) 0.6846(3) -0.1781(2)
C1 C 0.6091(4) 0.7975(3) 0.0856(3)
C2 C 0.6974(4) 0.9400(4) 0.1334(5)
H1 H 0.75900 0.89930 0.12860
H2 H 0.69020 0.95940 0.18910
H3 H 0.70800 0.99270 0.09820
C3 C 0.5063(3) 0.9377(2) 0.1106(2)
C4 C 0.3120(4) 0.9402(4) 0.1109(5)
H4 H 0.32720 1.00340 0.12580
H5 H 0.27220 0.91100 0.15430
H6 H 0.27080 0.93920 0.06110
C5 C 0.4096(4) 0.7976(3) 0.0753(2)
C6 C 0.5140(4) 0.7542(2) 0.0493(2)
H7 H 0.51280 0.68910 0.06710
C7 C 0.5314(7) 0.7550(3) -0.0469(3)
H8 H 0.60730 0.73990 -0.05270
C8 C 0.5238(5) 0.8522(3) -0.0830(2)
C9 C 0.4283(5) 0.8942(4) -0.1035(3)
H9 H 0.36410 0.86270 -0.09630
C10 C 0.4292(6) 0.9851(4) -0.1354(4)
H10 H 0.36530 1.01440 -0.14850
C11 C 0.5205(6) 1.0289(3) -0.1468(3)
H11 H 0.52080 1.08880 -0.16840
C12 C 0.6139(6) 0.9868(5) -0.1273(4)
H12 H 0.67780 1.01790 -0.13640
C13 C 0.6156(5) 0.9007(4) -0.0948(3)
H13 H 0.68050 0.87400 -0.08030
C14 C 0.4823(8) 0.6837(4) -0.0868(3)
H14 H 0.40640 0.68630 -0.07520
H15 H 0.50910 0.62540 -0.06510
O6 O -0.3402(3) 0.6818(3) 0.4749(2)
O7 O -0.5038(3) 0.7512(2) 0.23500(16)
O8 O -0.7066(3) 0.6646(2) 0.4508(2)
O9 O -0.4282(4) 0.9523(4) 0.6535(3)
O10 O -0.5944(4) 0.9330(4) 0.6503(3)
N4 N -0.4186(3) 0.7193(2) 0.3543(2)
N5 N -0.6072(3) 0.7130(2) 0.3428(2)
N6 N -0.5068(4) 0.9067(3) 0.6378(2)
C15 C -0.4202(4) 0.6994(3) 0.4367(3)
C16 C -0.3155(4) 0.7272(5) 0.3132(4)
H16 H -0.25880 0.71790 0.35320
H17 H -0.30780 0.78790 0.28960
H18 H -0.30860 0.68100 0.27090
C17 C -0.5095(3) 0.7306(2) 0.3068(2)
C18 C -0.7002(4) 0.7139(4) 0.2885(4)
H19 H -0.76330 0.70030 0.32000
H20 H -0.69110 0.66710 0.24690
H21 H -0.70740 0.77360 0.26300
C19 C -0.6209(4) 0.6913(3) 0.4250(3)
C20 C -0.5270(4) 0.7077(3) 0.4788(2)
H22 H -0.52900 0.66080 0.52250
C21 C -0.5492(4) 0.8060(3) 0.5208(3)
H23 H -0.62460 0.80680 0.53670
C22 C -0.5328(5) 0.8855(3) 0.4597(3)
C23 C -0.4355(5) 0.9218(4) 0.4389(4)
H24 H -0.37380 0.89980 0.46390
C24 C -0.4296(6) 0.9930(4) 0.3790(4)
H25 H -0.36380 1.01760 0.36390
C25 C -0.5193(6) 1.0251(3) 0.3440(3)
H26 H -0.51590 1.07170 0.30430
C26 C -0.6142(6) 0.9896(4) 0.3663(4)
H27 H -0.67630 1.01200 0.34200
C27 C -0.6202(6) 0.9210(4) 0.4244(4)
H28 H -0.68680 0.89840 0.43980
C28 C -0.4873(6) 0.8153(3) 0.5963(3)
H29 H -0.41200 0.80960 0.58340
H30 H -0.50610 0.76530 0.63360
#END
