
#######################################################################
#
#                 Cambridge Crystallographic Data Centre
#                                CCDC
#
#######################################################################
#
# If this CIF has been generated from an entry in the Cambridge
# Structural Database, then it will include bibliographic, chemical,
# crystal, experimental, refinement or atomic coordinate data resulting
# from the CCDC's data processing and validation procedures.
#
#######################################################################

data_CSD_CIF_TUJRIB
_audit_creation_date 2015-05-13
_audit_creation_method CSD-ConQuest-V1
_database_code_CSD TUJRIB
_database_code_depnum_ccdc_archive 'CCDC 815292'
_chemical_formula_sum 'C12 H9 N1 O6'
_chemical_formula_moiety
;
C12 H9 N1 O6
;
_journal_coden_Cambridge 1268
_journal_volume 19
_journal_year 2014
_journal_page_first 1034
_journal_name_full 'Molecules '
loop_
_publ_author_name
"Xianglong Wu"
"Wutu Fan"
"Yalei Pan"
"Yuankun Zhai"
"Yinbo Niu"
"Chenrui Li"
"Qibing Mei"
_chemical_name_systematic
;
1-((1,3-Benzodioxol-5-ylcarbonyl)oxy)pyrrolidine-2,5-dione
;
_cell_volume   1213.252
_exptl_crystal_density_diffrn 1.441
_diffrn_ambient_temperature 296
#These two values have been output from a single CSD field.
_refine_ls_R_factor_gt 0.04
_refine_ls_wR_factor_gt 0.04
_symmetry_cell_setting monoclinic
_symmetry_space_group_name_H-M 'P 21/n'
_symmetry_Int_Tables_number 14
loop_
_symmetry_equiv_pos_site_id
_symmetry_equiv_pos_as_xyz
1 x,y,z
2 1/2-x,1/2+y,1/2-z
3 -x,-y,-z
4 -1/2+x,-1/2-y,-1/2+z
_cell_length_a 8.7694(11)
_cell_length_b 6.2631(8)
_cell_length_c 22.168(3)
_cell_angle_alpha 90
_cell_angle_beta 94.814(2)
_cell_angle_gamma 90
_cell_formula_units_Z 4
loop_
_atom_type_symbol
_atom_type_radius_bond
C 0.68
H 0.23
N 0.68
O 0.68
loop_
_atom_site_label
_atom_site_type_symbol
_atom_site_fract_x
_atom_site_fract_y
_atom_site_fract_z
O1 O 0.33331(12) 0.20308(18) 0.14195(4)
O2 O 0.14221(16) -0.2091(2) -0.10530(6)
O3 O 0.09160(19) -0.3222(2) -0.00960(6)
N1 N 0.39936(13) 0.3101(2) 0.19229(5)
C1 C 0.39556(17) 0.2653(2) 0.08896(6)
C2 C 0.32792(16) 0.1398(2) 0.03737(6)
C3 C 0.52062(16) 0.2227(3) 0.22754(7)
C4 C 0.23769(19) -0.0407(3) 0.04584(7)
H1 H 0.21670 -0.08690 0.08410
C5 C 0.34574(18) 0.5043(3) 0.21056(7)
C6 C 0.21348(18) -0.0778(3) -0.06268(7)
C7 C 0.36006(18) 0.2047(3) -0.01974(7)
H2 H 0.42140 0.32410 -0.02380
C8 C 0.18268(19) -0.1442(3) -0.00544(8)
C9 C 0.55634(17) 0.3782(3) 0.27800(8)
H3 H 0.66100 0.42840 0.27810
H4 H 0.54310 0.31200 0.31680
C10 C 0.3026(2) 0.0952(3) -0.07143(7)
H5 H 0.32400 0.13820 -0.11000
C11 C 0.4449(2) 0.5619(3) 0.26643(8)
H6 H 0.38340 0.58020 0.30050
H7 H 0.49950 0.69380 0.26040
C12 C 0.0714(3) -0.3720(3) -0.07263(9)
H8 H 0.11760 -0.50920 -0.08010
H9 H -0.03680 -0.38000 -0.08570
O4 O 0.57906(15) 0.0544(2) 0.21694(6)
O5 O 0.48958(15) 0.4024(2) 0.08941(5)
O6 O 0.23903(16) 0.5975(2) 0.18470(6)
#END
