
#######################################################################
#
#                 Cambridge Crystallographic Data Centre
#                                CCDC
#
#######################################################################
#
# If this CIF has been generated from an entry in the Cambridge
# Structural Database, then it will include bibliographic, chemical,
# crystal, experimental, refinement or atomic coordinate data resulting
# from the CCDC's data processing and validation procedures.
#
#######################################################################

data_CSD_CIF_TUKRIB
_audit_creation_date 2010-06-10
_audit_creation_method CSD-ConQuest-V1
_database_code_CSD TUKRIB
_database_code_depnum_ccdc_archive 'CCDC 739969'
_chemical_formula_sum 'C23 H22 N2 O6'
_chemical_formula_moiety
;
C23 H22 N2 O6
;
_journal_coden_Cambridge 179
_journal_volume 48
_journal_year 2009
_journal_page_first 7232
_journal_name_full 'Angew.Chem.,Int.Ed. '
loop_
_publ_author_name
"Jun-Feng Zhao"
"Teck-Peng Loh"
_chemical_name_systematic
;
7-(2-Phenylethyl)bicyclo[4.2.0]oct-1-en-3-yl 3,5-dinitrobenzoate
;
_cell_volume   2091.150
_exptl_crystal_colour 'colorless'
_exptl_crystal_density_diffrn 1.342
_exptl_crystal_description 'plate'
_diffrn_ambient_temperature 173
#These two values have been output from a single CSD field.
_refine_ls_R_factor_gt 0.0632
_refine_ls_wR_factor_gt 0.0632
_symmetry_cell_setting monoclinic
_symmetry_space_group_name_H-M 'P 21/c'
_symmetry_Int_Tables_number 14
loop_
_symmetry_equiv_pos_site_id
_symmetry_equiv_pos_as_xyz
1 x,y,z
2 -x,1/2+y,1/2-z
3 -x,-y,-z
4 x,-1/2-y,-1/2+z
_cell_length_a 7.4800(3)
_cell_length_b 19.4240(11)
_cell_length_c 14.7794(8)
_cell_angle_alpha 90
_cell_angle_beta 103.134(2)
_cell_angle_gamma 90
_cell_formula_units_Z 4
loop_
_atom_type_symbol
_atom_type_radius_bond
C 0.68
H 0.23
N 0.68
O 0.68
loop_
_atom_site_label
_atom_site_type_symbol
_atom_site_fract_x
_atom_site_fract_y
_atom_site_fract_z
C1 C 0.0556(3) 0.83446(12) 0.09045(17)
H1 H 0.08600 0.84490 0.15490
C2 C -0.0363(3) 0.88168(12) 0.02712(18)
C3 C -0.0775(3) 0.87038(13) -0.06745(18)
H2 H -0.13770 0.90410 -0.11030
C4 C -0.0263(3) 0.80719(14) -0.09644(16)
C5 C 0.0596(3) 0.75713(13) -0.03575(17)
H3 H 0.08840 0.71370 -0.05820
C6 C 0.1032(3) 0.77130(12) 0.05858(16)
C7 C 0.1955(3) 0.71945(12) 0.12773(17)
C8 C 0.2483(4) 0.59855(13) 0.15428(18)
H4 H 0.22990 0.60990 0.21750
C9 C 0.1208(4) 0.53926(14) 0.1140(2)
H5 H 0.00230 0.54530 0.13230
H6 H 0.09610 0.54130 0.04540
C10 C 0.1987(4) 0.46860(15) 0.1461(2)
H7 H 0.22360 0.46520 0.21470
H8 H 0.11040 0.43200 0.11910
C11 C 0.3753(4) 0.46083(13) 0.11298(18)
H9 H 0.34680 0.45370 0.04420
C12 C 0.4974(4) 0.52180(15) 0.13820(18)
C13 C 0.4461(4) 0.58448(14) 0.16120(18)
H10 H 0.53520 0.61930 0.18160
C14 C 0.6681(4) 0.47905(15) 0.1568(2)
H11 H 0.75450 0.48930 0.21660
H12 H 0.73180 0.47810 0.10490
C15 C 0.5406(4) 0.41534(14) 0.15989(18)
H13 H 0.53540 0.40480 0.22550
C16 C 0.5752(4) 0.35049(13) 0.11045(18)
H14 H 0.68910 0.32860 0.14600
H15 H 0.59470 0.36280 0.04840
C17 C 0.4174(4) 0.29835(15) 0.0984(2)
H16 H 0.40370 0.28340 0.16050
H17 H 0.30170 0.32120 0.06680
C18 C 0.4474(3) 0.23584(14) 0.04302(18)
C19 C 0.3945(4) 0.23536(14) -0.05333(19)
H18 H 0.33860 0.27510 -0.08520
C20 C 0.4226(4) 0.17719(16) -0.10395(19)
H19 H 0.38390 0.17720 -0.16980
C21 C 0.5058(4) 0.12039(15) -0.0587(2)
H20 H 0.52620 0.08100 -0.09310
C22 C 0.5601(4) 0.12005(15) 0.0370(2)
H21 H 0.61810 0.08050 0.06850
C23 C 0.5300(3) 0.17739(15) 0.08684(19)
H22 H 0.56690 0.17660 0.15270
N1 N -0.0957(3) 0.94689(12) 0.06115(18)
N2 N -0.0708(3) 0.79182(14) -0.19639(16)
O1 O -0.0488(4) 0.95921(11) 0.14391(16)
O2 O -0.1911(3) 0.9852(1) 0.00484(17)
O3 O -0.1148(3) 0.84041(13) -0.25052(14)
O4 O -0.0628(3) 0.73225(12) -0.22027(14)
O5 O 0.2691(3) 0.73356(10) 0.20674(13)
O6 O 0.1831(3) 0.65668(9) 0.09157(12)
#END
