
#######################################################################
#
#                 Cambridge Crystallographic Data Centre
#                                CCDC
#
#######################################################################
#
# If this CIF has been generated from an entry in the Cambridge
# Structural Database, then it will include bibliographic, chemical,
# crystal, experimental, refinement or atomic coordinate data resulting
# from the CCDC's data processing and validation procedures.
#
#######################################################################

data_CSD_CIF_TUKZIK
_audit_creation_date 2015-05-13
_audit_creation_method CSD-ConQuest-V1
_database_code_CSD TUKZIK
_database_code_depnum_ccdc_archive 'CCDC 1021073'
_chemical_formula_sum 'C15 H13 N1 O5'
_chemical_formula_moiety
;
C15 H13 N1 O5
;
_journal_coden_Cambridge 1366
_journal_volume 357
_journal_year 2015
_journal_page_first 1507
_journal_name_full 'Adv.Synth.Catal. '
loop_
_publ_author_name
"A.Zeiler"
"M.J.Ziegler"
"M.Rudolph"
"F.Rominger"
"A.Stephen K.Hashmi"
_chemical_name_systematic
;
4-nitrophenyl 3-(2,5-dimethyl-3-furyl)acrylate
;
_cell_volume   2782.471
_exptl_crystal_colour 'colorless'
_exptl_crystal_density_diffrn 1.371
_exptl_crystal_description 'plate'
_diffrn_ambient_temperature 200
#These two values have been output from a single CSD field.
_refine_ls_R_factor_gt 0.051
_refine_ls_wR_factor_gt 0.051
_symmetry_cell_setting monoclinic
_symmetry_space_group_name_H-M 'P 21/c'
_symmetry_Int_Tables_number 14
loop_
_symmetry_equiv_pos_site_id
_symmetry_equiv_pos_as_xyz
1 x,y,z
2 -x,1/2+y,1/2-z
3 -x,-y,-z
4 x,-1/2-y,-1/2+z
_cell_length_a 26.0740(14)
_cell_length_b 8.5073(4)
_cell_length_c 12.5490(7)
_cell_angle_alpha 90
_cell_angle_beta 91.640(4)
_cell_angle_gamma 90
_cell_formula_units_Z 8
loop_
_atom_type_symbol
_atom_type_radius_bond
C 0.68
H 0.23
N 0.68
O 0.68
loop_
_atom_site_label
_atom_site_type_symbol
_atom_site_fract_x
_atom_site_fract_y
_atom_site_fract_z
C1 C 0.43897(15) 1.1429(4) 0.5493(3)
H1 H 0.42200 1.18740 0.48550
H2 H 0.47510 1.17530 0.55230
H3 H 0.42190 1.18100 0.61290
O1 O 0.45954(9) 0.8884(3) 0.62911(18)
C2 C 0.43588(13) 0.9697(4) 0.5451(3)
C3 C 0.41449(13) 0.8685(4) 0.4761(3)
H4 H 0.39600 0.89390 0.41210
C4 C 0.42481(13) 0.7140(4) 0.5169(3)
C5 C 0.45274(14) 0.7321(5) 0.6093(3)
C6 C 0.47593(17) 0.6264(5) 0.6907(3)
H5 H 0.51290 0.64620 0.69700
H6 H 0.47000 0.51680 0.66950
H7 H 0.46030 0.64590 0.75950
C7 C 0.41203(15) 0.5601(5) 0.4755(3)
H8 H 0.42950 0.47780 0.51260
C8 C 0.38085(15) 0.5077(5) 0.3963(3)
H9 H 0.38130 0.39740 0.38450
C9 C 0.34674(15) 0.5966(5) 0.3268(3)
O2 O 0.34147(11) 0.7343(3) 0.3150(2)
O3 O 0.31583(10) 0.4925(3) 0.2691(2)
C10 C 0.27963(15) 0.5486(4) 0.1949(3)
C11 C 0.22929(16) 0.5073(5) 0.2092(3)
H10 H 0.22000 0.45230 0.27160
C12 C 0.19242(15) 0.5458(5) 0.1332(3)
H11 H 0.15750 0.51850 0.14260
C13 C 0.20683(15) 0.6237(4) 0.0441(3)
C14 C 0.25692(16) 0.6661(5) 0.0290(3)
H12 H 0.26610 0.72070 -0.03370
C15 C 0.29354(15) 0.6287(5) 0.1058(3)
H13 H 0.32830 0.65820 0.09710
N1 N 0.16766(15) 0.6634(4) -0.0379(3)
O4 O 0.12249(12) 0.6447(3) -0.0171(2)
O5 O 0.18210(12) 0.7120(4) -0.1234(2)
C16 C 0.06769(15) 0.6871(4) -0.3036(3)
H14 H 0.03280 0.72980 -0.30660
H15 H 0.08530 0.71490 -0.36890
H16 H 0.08650 0.73110 -0.24180
O6 O 0.04330(9) 0.4331(3) -0.37894(18)
C17 C 0.06539(13) 0.5130(4) -0.2934(3)
C18 C 0.08156(13) 0.4121(4) -0.2186(3)
H17 H 0.09790 0.43800 -0.15240
C19 C 0.06958(13) 0.2566(4) -0.2569(3)
C20 C 0.04582(14) 0.2758(4) -0.3542(3)
C21 C 0.02299(16) 0.1693(5) -0.4353(3)
H18 H 0.04510 0.16500 -0.49700
H19 H -0.01100 0.20840 -0.45770
H20 H 0.01970 0.06370 -0.40500
C22 C 0.07599(14) 0.1037(4) -0.2081(3)
H21 H 0.05550 0.02470 -0.24180
C23 C 0.10435(14) 0.0494(4) -0.1263(3)
H22 H 0.09870 -0.05700 -0.10700
C24 C 0.14317(14) 0.1338(5) -0.0625(3)
O7 O 0.15576(11) 0.2681(3) -0.0636(2)
O8 O 0.16631(10) 0.0273(3) 0.0064(2)
C25 C 0.20842(14) 0.0691(4) 0.0715(3)
C26 C 0.20538(15) 0.0281(5) 0.1761(3)
H23 H 0.17460 -0.01610 0.20170
C27 C 0.24662(15) 0.0504(5) 0.2445(3)
H24 H 0.24470 0.02320 0.31770
C28 C 0.29040(13) 0.1123(4) 0.2053(3)
C29 C 0.29412(14) 0.1547(4) 0.1005(3)
H25 H 0.32510 0.19740 0.07490
C30 C 0.25202(16) 0.1342(5) 0.0330(3)
H26 H 0.25330 0.16500 -0.03960
N2 N 0.33441(13) 0.1331(3) 0.2786(3)
O9 O 0.32752(10) 0.1319(3) 0.3748(2)
O10 O 0.37691(11) 0.1515(3) 0.2412(2)
#END
