
#######################################################################
#
#                 Cambridge Crystallographic Data Centre
#                                CCDC
#
#######################################################################
#
# If this CIF has been generated from an entry in the Cambridge
# Structural Database, then it will include bibliographic, chemical,
# crystal, experimental, refinement or atomic coordinate data resulting
# from the CCDC's data processing and validation procedures.
#
#######################################################################

data_CSD_CIF_TULCIO
_audit_creation_date 2015-05-13
_audit_creation_method CSD-ConQuest-V1
_database_code_CSD TULCIO
_database_code_depnum_ccdc_archive 'CCDC 987413'
_chemical_formula_sum 'C17 H14 N4 O5'
_chemical_formula_moiety
;
C17 H14 N4 O5
;
_journal_coden_Cambridge 1268
_journal_volume 19
_journal_year 2014
_journal_page_first 8661
_journal_name_full 'Molecules '
loop_
_publ_author_name
"M.G.Memeo"
"F.Lapolla"
"B.Bovio"
"P.Quadrelli"
_chemical_name_systematic
;
1-(8-benzoyl-3,9-dioxa-4,8-diazatricyclo[5.2.1.0^2,6^]dec-4-en-5-yl)pyrimidine
-2,4(1H,3H)-dione
;
_chemical_name_common
;
8-benzoyl-5-uracil-3m9-diuxA-4,7-diaza-[5.2.1.0(2,6)]dec-4-ene
;
_cell_volume   3288.343
_exptl_crystal_colour 'colorless'
_exptl_crystal_density_diffrn 1.431
_exptl_crystal_description 'Prism'
_diffrn_ambient_temperature 293
#These two values have been output from a single CSD field.
_refine_ls_R_factor_gt 0.0403
_refine_ls_wR_factor_gt 0.0403
_symmetry_cell_setting orthorhombic
_symmetry_space_group_name_H-M 'P b c a'
_symmetry_Int_Tables_number 61
loop_
_symmetry_equiv_pos_site_id
_symmetry_equiv_pos_as_xyz
1 x,y,z
2 1/2-x,-y,1/2+z
3 1/2+x,1/2-y,-z
4 -x,1/2+y,1/2-z
5 -x,-y,-z
6 -1/2+x,y,-1/2-z
7 -1/2-x,-1/2+y,z
8 x,-1/2-y,-1/2+z
_cell_length_a 9.977(4)
_cell_length_b 16.774(3)
_cell_length_c 19.649(3)
_cell_angle_alpha 90
_cell_angle_beta 90
_cell_angle_gamma 90
_cell_formula_units_Z 8
loop_
_atom_type_symbol
_atom_type_radius_bond
C 0.68
H 0.23
N 0.68
O 0.68
loop_
_atom_site_label
_atom_site_type_symbol
_atom_site_fract_x
_atom_site_fract_y
_atom_site_fract_z
C1 C -0.2015(2) 0.2303(2) 0.58384(12)
C2 C -0.1758(2) 0.1476(2) 0.61310(11)
O1 O -0.12698(15) 0.15075(11) 0.68260(7)
N1 N 0.0072(2) 0.12255(12) 0.68470(9)
C3 C 0.0449(2) 0.10526(13) 0.62471(10)
C4 C -0.0576(2) 0.11778(13) 0.57006(10)
C5 C -0.0341(2) 0.18851(14) 0.52163(10)
N2 N -0.1519(2) 0.18726(13) 0.47621(9)
O2 O -0.2625(2) 0.21571(12) 0.51760(8)
C6 C -0.0642(3) 0.2604(2) 0.56597(14)
N3 N 0.1767(2) 0.07565(10) 0.61560(8)
C7 C 0.2655(2) 0.0748(2) 0.66990(11)
C8 C 0.3911(2) 0.0509(2) 0.66429(12)
C9 C 0.4436(2) 0.0272(2) 0.59937(11)
O3 O 0.5601(2) 0.00747(13) 0.58774(9)
N4 N 0.3512(2) 0.02908(13) 0.54744(10)
C10 C 0.2197(2) 0.05099(13) 0.55147(10)
O4 O 0.1475(2) 0.04815(11) 0.50218(8)
C11 C -0.1576(2) 0.21406(15) 0.41010(11)
O5 O -0.2502(2) 0.25452(12) 0.38934(9)
C12 C -0.0485(2) 0.18407(15) 0.36493(10)
C13 C 0.0162(3) 0.1117(2) 0.37511(12)
C14 C 0.1163(3) 0.0873(2) 0.33169(14)
C15 C 0.1529(3) 0.1348(2) 0.27712(14)
C16 C 0.0876(3) 0.2056(2) 0.26587(12)
C17 C -0.0125(3) 0.2306(2) 0.30912(12)
H1 H -0.2614(23) 0.2653(15) 0.6100(12)
H2 H -0.2555(24) 0.1142(14) 0.6125(11)
H3 H -0.0759(19) 0.0699(12) 0.5449(10)
H4 H 0.0465(22) 0.1865(13) 0.4961(10)
H5 H -0.0643(25) 0.3085(17) 0.5379(13)
H6 H -0.0016(23) 0.2641(14) 0.6054(12)
H7 H 0.2273(23) 0.0959(14) 0.7098(12)
H8 H 0.4537(24) 0.0473(15) 0.7044(12)
H9 H 0.3900(45) 0.0111(29) 0.5026(22)
H10 H -0.0083(22) 0.0776(15) 0.4165(12)
H11 H 0.1632(30) 0.0389(20) 0.3385(15)
H12 H 0.2244(27) 0.1179(16) 0.2471(15)
H13 H 0.1200(24) 0.2394(16) 0.2248(14)
H14 H -0.0602(25) 0.2797(16) 0.2992(12)
#END
