
#######################################################################
#
#                 Cambridge Crystallographic Data Centre
#                                CCDC
#
#######################################################################
#
# If this CIF has been generated from an entry in the Cambridge
# Structural Database, then it will include bibliographic, chemical,
# crystal, experimental, refinement or atomic coordinate data resulting
# from the CCDC's data processing and validation procedures.
#
#######################################################################

data_CSD_CIF_TULTEZ
_audit_creation_date 1997-07-04
_audit_creation_method CSD-ConQuest-V1
_database_code_CSD TULTEZ
_chemical_formula_sum 'C15 H16 N2 O3'
_chemical_formula_moiety
;
C15 H16 N2 O3
;
_journal_coden_Cambridge 24
_journal_volume 37
_journal_year 1996
_journal_page_first 7205
_journal_name_full 'Tetrahedron Lett. '
loop_
_publ_author_name
"M.C.McMills"
"D.L.Wright"
"J.D.Zubkowski"
"E.J.Valente"
_chemical_name_systematic
;
9-Acetyl-8-methoxybenz(c)-1,8-diazatricyclo(4.4.0.0^7,9^)dec-3-en-10-one
;
_cell_volume   1359.768
_exptl_crystal_density_diffrn 1.33
_exptl_special_details
;
No space group given in paper for this structure; the author has confirmed 
that it is P21/c
;
_diffrn_ambient_temperature ?
_diffrn_special_details
;
The study was carried out at room temperature,in the range 283-303K

;
_refine_special_details
;
The H atoms belonging to methyl groups C19 and C20 are disordered over two 
positons each.
;
#These two values have been output from a single CSD field.
_refine_ls_R_factor_gt 0.0356
_refine_ls_wR_factor_gt 0.0356
_symmetry_cell_setting monoclinic
_symmetry_space_group_name_H-M 'P 21/c'
_symmetry_Int_Tables_number 14
loop_
_symmetry_equiv_pos_site_id
_symmetry_equiv_pos_as_xyz
1 x,y,z
2 -x,1/2+y,1/2-z
3 -x,-y,-z
4 x,-1/2-y,-1/2+z
_cell_length_a 11.855(3)
_cell_length_b 11.562(3)
_cell_length_c 10.101(3)
_cell_angle_alpha 90
_cell_angle_beta 100.85
_cell_angle_gamma 90
_cell_formula_units_Z 4
loop_
_atom_type_symbol
_atom_type_radius_bond
C 0.68
H 0.23
N 0.68
O 0.68
loop_
_atom_site_label
_atom_site_type_symbol
_atom_site_fract_x
_atom_site_fract_y
_atom_site_fract_z
N1 N 0.1683(1) 0.4175(1) 0.4908(2)
N2 N 0.0007(1) 0.4143(1) 0.2652(2)
O1 O 0.1422(1) 0.4531(1) 0.1451(1)
O2 O 0.2576(1) 0.3842(1) 0.6010(1)
O3 O 0.3213(1) 0.2077(1) 0.4219(2)
C1 C 0.1811(1) 0.3507(2) 0.3601(2)
C2 C 0.1091(2) 0.4130(2) 0.2432(2)
C3 C -0.0967(1) 0.4620(2) 0.1721(2)
C4 C -0.1969(1) 0.3791(2) 0.1492(2)
C5 C -0.2951(2) 0.4116(2) 0.0581(2)
C6 C -0.3909(2) 0.3413(2) 0.0362(2)
C7 C -0.3891(2) 0.2388(2) 0.1049(2)
C8 C -0.2925(2) 0.2056(2) 0.1959(2)
C9 C -0.1953(2) 0.2753(2) 0.2192(2)
C10 C -0.0910(2) 0.2393(2) 0.3210(2)
C11 C -0.0196(2) 0.3427(2) 0.3773(2)
C12 C 0.1013(2) 0.3134(2) 0.4485(2)
C13 C 0.2941(2) 0.2946(2) 0.3562(2)
C14 C 0.3408(2) 0.4741(2) 0.6220(2)
C15 C 0.3710(2) 0.3500(2) 0.2743(2)
H1 H -0.0740(1) 0.4787(2) 0.0867(2)
H2 H -0.1200(1) 0.5341(2) 0.2081(2)
H3 H -0.2962(2) 0.4811(2) 0.0116(2)
H4 H -0.4563(2) 0.3633(2) -0.0248(2)
H5 H -0.4535(2) 0.1912(2) 0.0901(2)
H6 H -0.2926(2) 0.1360(2) 0.2420(2)
H7 H -0.0443(2) 0.1873(2) 0.2785(2)
H8 H -0.1155(2) 0.1978(2) 0.3942(2)
H9 H -0.0595(2) 0.3873(2) 0.4370(2)
H10 H 0.1161(2) 0.2420(2) 0.5012(2)
H11 H 0.4015(2) 0.4537(2) 0.6954(2)
H12 H 0.3053(2) 0.5447(2) 0.6431(2)
H13 H 0.3719(2) 0.4847(2) 0.5417(2)
H14? H 0.3177(2) 0.5350(2) 0.5581(2)
H15? H 0.4138(2) 0.4441(2) 0.6104(2)
H16? H 0.3472(2) 0.5040(2) 0.7118(2)
H17 H 0.4400(2) 0.3052(2) 0.2808(2)
H18 H 0.3900(2) 0.4267(2) 0.3073(2)
H19 H 0.3326(2) 0.3538(2) 0.1818(2)
H20? H 0.3351(2) 0.4186(2) 0.2325(2)
H21? H 0.3851(2) 0.2971(2) 0.2060(2)
H22? H 0.4425(2) 0.3700(2) 0.3315(2)
#END
