
#######################################################################
#
#                 Cambridge Crystallographic Data Centre
#                                CCDC
#
#######################################################################
#
# If this CIF has been generated from an entry in the Cambridge
# Structural Database, then it will include bibliographic, chemical,
# crystal, experimental, refinement or atomic coordinate data resulting
# from the CCDC's data processing and validation procedures.
#
#######################################################################

data_CSD_CIF_TUMBEI
_audit_creation_date 1997-07-04
_audit_creation_method CSD-ConQuest-V1
_database_code_CSD TUMBEI
_database_code_depnum_ccdc_archive 'CCDC 1276801'
_chemical_formula_sum 'C11 H14 N4 O8'
_chemical_formula_moiety
;
C11 H14 N4 O8
;
_journal_coden_Cambridge 3
_journal_volume 50
_journal_year 1996
_journal_page_first 991
_journal_name_full 'Acta Chem.Scand. '
loop_
_publ_author_name
"C.P.Butts"
"L.Eberson"
"K.L.Fulton"
"M.P.Hartshorn"
"W.T.Robinson"
"D.J.Timmerman-Vaughan"
_chemical_name_systematic
;
trans-1,3,5,6-Tetramethyl-6-nitro-3-trinitromethylcyclohexa-1,4-diene
;
_chemical_melting_point 339.15
_cell_volume   1466.358
_exptl_crystal_colour 'colorless'
_exptl_crystal_density_diffrn 1.496
_exptl_special_details
;
Melting point range 339.15-341.15K

;
_diffrn_ambient_temperature 163
#These two values have been output from a single CSD field.
_refine_ls_R_factor_gt 0.0534
_refine_ls_wR_factor_gt 0.0534
_symmetry_cell_setting triclinic
_symmetry_space_group_name_H-M 'P -1'
_symmetry_Int_Tables_number 2
loop_
_symmetry_equiv_pos_site_id
_symmetry_equiv_pos_as_xyz
1 x,y,z
2 -x,-y,-z
_cell_length_a 9.344(3)
_cell_length_b 13.228(4)
_cell_length_c 13.459(3)
_cell_angle_alpha 113.99(2)
_cell_angle_beta 102.68(2)
_cell_angle_gamma 92.47(2)
_cell_formula_units_Z 4
loop_
_atom_type_symbol
_atom_type_radius_bond
C 0.68
H 0.23
N 0.68
O 0.68
loop_
_atom_site_label
_atom_site_type_symbol
_atom_site_fract_x
_atom_site_fract_y
_atom_site_fract_z
O1 O 0.5589(2) 0.4732(1) 0.3840(2)
O2 O 0.3876(2) 0.5539(2) 0.1178(2)
O3 O 0.5936(2) 0.5832(2) 0.2428(2)
N1 N 0.4603(2) 0.5605(2) 0.2069(2)
O4 O 0.5159(2) 0.6431(2) 0.4656(2)
O5 O 0.2010(2) 0.6201(2) 0.3739(2)
O6 O 0.3076(2) 0.7100(2) 0.2998(2)
O7 O -0.0694(2) 0.1692(2) 0.1118(2)
C1 C 0.1397(2) 0.4211(2) 0.1375(2)
N2 N 0.2845(2) 0.6308(2) 0.3202(2)
C2 C 0.3736(2) 0.5339(2) 0.2804(2)
N3 N -0.1299(2) 0.2463(2) 0.1613(2)
C3 C 0.0015(2) 0.3955(2) 0.1391(2)
O8 O -0.2612(2) 0.2381(2) 0.1570(2)
C4 C 0.2775(2) 0.4153(2) 0.2171(2)
N4 N 0.4928(2) 0.5510(2) 0.3869(2)
C5 C 0.2392(2) 0.3764(2) 0.3004(2)
C6 C 0.3670(3) 0.3297(2) 0.1476(2)
C7 C -0.0319(2) 0.3641(2) 0.2291(2)
C8 C 0.1028(3) 0.3473(2) 0.3024(2)
C9 C -0.1287(3) 0.3976(2) 0.0511(2)
C10 C -0.1219(3) 0.4446(2) 0.2983(2)
C11 C 0.0776(3) 0.2973(3) 0.3810(2)
H1 H 0.1530(2) 0.4449(2) 0.0820(2)
H2 H 0.3191(2) 0.3726(2) 0.3557(2)
H3 H 0.4604(8) 0.3296(10) 0.1978(3)
H4 H 0.3883(16) 0.3508(8) 0.0899(9)
H5 H 0.3087(8) 0.2548(3) 0.1114(11)
H6 H -0.1863(11) 0.4555(10) 0.0873(3)
H7 H -0.1919(10) 0.3245(5) 0.0135(10)
H8 H -0.0925(3) 0.4140(14) -0.0045(8)
H9 H -0.2108(12) 0.4506(13) 0.2477(3)
H10 H -0.0615(8) 0.5185(5) 0.3427(13)
H11 H -0.1514(19) 0.4164(9) 0.3490(12)
H12 H 0.0237(18) 0.2211(6) 0.3370(2)
H13 H 0.0192(18) 0.3431(9) 0.4300(11)
H14 H 0.1734(3) 0.2952(15) 0.4272(11)
O9 O 0.7621(2) 0.6721(1) 0.1081(2)
O10 O 0.3663(2) 0.9795(2) 0.3597(2)
O11 O 0.7798(2) 1.1246(2) 0.3895(2)
N5 N 0.6641(2) 1.1429(2) 0.3445(2)
O12 O 0.6363(2) 1.2315(2) 0.3413(2)
O13 O 0.4493(2) 1.0710(2) 0.1251(2)
N6 N 0.4687(2) 1.0519(2) 0.3840(2)
N7 N 0.8785(3) 0.7242(2) 0.1731(2)
C12 C 0.5837(2) 0.9281(2) 0.2260(2)
O14 O 0.5247(3) 1.1259(2) 0.4768(2)
C13 C 0.5358(3) 1.0455(2) 0.2880(2)
C14 C 0.8228(3) 0.9030(2) 0.1695(2)
N8 N 0.4208(3) 1.0784(2) 0.2113(2)
C15 C 0.7783(3) 0.8489(2) 0.3226(2)
C16 C 0.6936(3) 0.9394(2) 0.1625(2)
C17 C 0.6491(3) 0.8851(2) 0.3116(2)
C18 C 0.8806(2) 0.8520(2) 0.2505(2)
O15 O 0.3108(2) 1.1110(2) 0.2421(2)
C19 C 0.4468(3) 0.8440(2) 0.1405(2)
C20 C 0.8280(3) 0.7993(2) 0.4050(2)
C21 C 0.9201(3) 0.9081(2) 0.0951(2)
O16 O 0.9914(3) 0.6837(2) 0.1819(2)
C22 C 1.0387(3) 0.9018(3) 0.3199(3)
H15 H 0.6677(3) 0.9753(2) 0.1141(2)
H16 H 0.5923(3) 0.8841(2) 0.3619(2)
H17 H 0.4063(11) 0.8689(8) 0.0821(8)
H18 H 0.3712(8) 0.8399(11) 0.1795(3)
H19 H 0.4761(5) 0.7699(4) 0.1058(11)
H20 H 0.9184(12) 0.8454(9) 0.4616(9)
H21 H 0.8483(19) 0.7232(6) 0.3648(3)
H22 H 0.7497(9) 0.7970(14) 0.4423(11)
H23 H 0.9428(17) 0.8332(4) 0.0536(12)
H24 H 1.0125(9) 0.9589(12) 0.1418(3)
H25 H 0.8680(9) 0.9356(15) 0.0417(11)
H26 H 1.0432(5) 0.9818(5) 0.3665(14)
H27 H 1.1037(5) 0.8916(16) 0.2696(3)
H28 H 1.0712(9) 0.8641(13) 0.3686(13)
#END
