
#######################################################################
#
#                 Cambridge Crystallographic Data Centre
#                                CCDC
#
#######################################################################
#
# If this CIF has been generated from an entry in the Cambridge
# Structural Database, then it will include bibliographic, chemical,
# crystal, experimental, refinement or atomic coordinate data resulting
# from the CCDC's data processing and validation procedures.
#
#######################################################################

data_CSD_CIF_TUMBAE
_audit_creation_date 1997-07-04
_audit_creation_method CSD-ConQuest-V1
_database_code_CSD TUMBAE
_database_code_depnum_ccdc_archive 'CCDC 1276800'
_chemical_formula_sum 'C11 H13 N3 O6'
_chemical_formula_moiety
;
C11 H13 N3 O6
;
_journal_coden_Cambridge 3
_journal_volume 50
_journal_year 1996
_journal_page_first 991
_journal_name_full 'Acta Chem.Scand. '
loop_
_publ_author_name
"C.P.Butts"
"L.Eberson"
"K.L.Fulton"
"M.P.Hartshorn"
"W.T.Robinson"
"D.J.Timmerman-Vaughan"
_chemical_name_systematic
;
2,4,6-Trimethyl-1-(2',2',2'-trinitroethyl)benzene
;
_chemical_melting_point 356.15
_cell_volume   2554.530
_exptl_crystal_colour 'colorless'
_exptl_crystal_density_diffrn 1.473
_exptl_special_details
;
Melts with decomposition.

;
_diffrn_ambient_temperature 158
#These two values have been output from a single CSD field.
_refine_ls_R_factor_gt 0.0742
_refine_ls_wR_factor_gt 0.0742
_symmetry_cell_setting monoclinic
_symmetry_space_group_name_H-M 'P 21/c'
_symmetry_Int_Tables_number 14
loop_
_symmetry_equiv_pos_site_id
_symmetry_equiv_pos_as_xyz
1 x,y,z
2 -x,1/2+y,1/2-z
3 -x,-y,-z
4 x,-1/2-y,-1/2+z
_cell_length_a 13.399(6)
_cell_length_b 9.217(4)
_cell_length_c 20.976(8)
_cell_angle_alpha 90
_cell_angle_beta 99.56(3)
_cell_angle_gamma 90
_cell_formula_units_Z 8
loop_
_atom_type_symbol
_atom_type_radius_bond
C 0.68
H 0.23
N 0.68
O 0.68
loop_
_atom_site_label
_atom_site_type_symbol
_atom_site_fract_x
_atom_site_fract_y
_atom_site_fract_z
C1 C 0.7997(4) 0.6403(5) 0.1938(2)
C2 C 0.7605(4) 0.7280(5) 0.2384(2)
C3 C 0.8098(4) 0.7315(5) 0.3019(2)
C4 C 0.8972(4) 0.6505(5) 0.3233(2)
C5 C 0.9320(3) 0.5613(5) 0.2787(2)
C6 C 0.8862(3) 0.5541(5) 0.2142(2)
C7 C 0.7460(4) 0.6296(5) 0.1240(2)
C8 C 0.6651(4) 0.8167(6) 0.2208(3)
C9 C 0.9502(4) 0.6579(6) 0.3926(2)
C10 C 0.9299(4) 0.4509(6) 0.1704(2)
C11 C 0.7778(4) 0.7367(5) 0.0759(2)
N1 N 0.8899(3) 0.7278(5) 0.0738(2)
O1 O 0.9152(3) 0.6551(6) 0.0315(2)
O2 O 0.9466(3) 0.7883(5) 0.1176(2)
N2 N 0.7266(3) 0.7063(5) 0.0063(2)
O3 O 0.6798(3) 0.5932(5) -0.0037(2)
O4 O 0.7376(3) 0.7966(5) -0.0337(2)
N3 N 0.7442(4) 0.8925(5) 0.0864(2)
O5 O 0.6523(3) 0.9077(5) 0.0757(2)
O6 O 0.8045(4) 0.9832(6) 0.1033(3)
H1 H 0.7833(4) 0.7912(5) 0.3320(2)
H2 H 0.9896(3) 0.5025(5) 0.2927(2)
H3 H 0.7563(4) 0.5303(5) 0.1083(2)
H4 H 0.6725(4) 0.6418(5) 0.1237(2)
H5 H 0.6383(4) 0.8043(6) 0.1748(3)
H6 H 0.6804(4) 0.9194(6) 0.2299(3)
H7 H 0.6145(4) 0.7840(6) 0.2465(3)
H8 H 0.9146(4) 0.7265(6) 0.4166(2)
H9 H 1.0201(4) 0.6905(6) 0.3938(2)
H10 H 0.9502(4) 0.5616(6) 0.4123(2)
H11 H 0.8907(4) 0.4569(6) 0.1267(2)
H12 H 0.9270(4) 0.3517(6) 0.1868(2)
H13 H 1.0005(4) 0.4771(6) 0.1693(2)
C12 C 0.3021(3) 0.8518(5) 0.2056(2)
C13 C 0.3895(4) 0.9353(5) 0.2267(2)
C14 C 0.4359(4) 0.9264(5) 0.2910(2)
C15 C 0.3996(4) 0.8377(5) 0.3350(2)
C16 C 0.3124(4) 0.7584(5) 0.3133(2)
C17 C 0.2621(4) 0.7640(5) 0.2498(2)
C18 C 0.2459(4) 0.8670(6) 0.1363(2)
C19 C 0.4348(4) 1.0400(6) 0.1835(3)
C20 C 0.4524(4) 0.8274(7) 0.4041(2)
C21 C 0.1660(4) 0.6766(6) 0.2331(3)
C22 C 0.2721(4) 0.7599(6) 0.0864(2)
N4 N 0.2568(3) 0.6044(5) 0.1050(2)
O7 O 0.3218(3) 0.5524(4) 0.1464(2)
O8 O 0.1760(3) 0.5499(5) 0.0827(2)
N5 N 0.2030(4) 0.7805(5) 0.0208(2)
O9 O 0.1307(3) 0.8590(5) 0.0186(2)
O10 O 0.2273(3) 0.7095(5) -0.0239(2)
N6 N 0.3781(3) 0.7837(5) 0.0701(2)
O11 O 0.3852(3) 0.8975(5) 0.0421(2)
O12 O 0.4445(3) 0.6963(5) 0.0857(2)
H14 H 0.4946(4) 0.9833(5) 0.3051(2)
H15 H 0.2860(4) 0.6977(5) 0.3431(2)
H16 H 0.1725(4) 0.8587(6) 0.1373(2)
H17 H 0.2582(4) 0.9661(6) 0.1211(2)
H18 H 0.3957(4) 1.0362(6) 0.1397(3)
H19 H 0.5052(4) 1.0126(6) 0.1823(3)
H20 H 0.4327(4) 1.1387(6) 0.2006(3)
H21 H 0.4157(4) 0.7595(7) 0.4278(2)
H22 H 0.4540(4) 0.9233(7) 0.4244(2)
H23 H 0.5217(4) 0.7926(7) 0.4052(2)
H24 H 0.1382(4) 0.6897(6) 0.1872(3)
H25 H 0.1165(4) 0.7098(6) 0.2594(3)
H26 H 0.1809(4) 0.5737(6) 0.2417(3)
#END
