
#######################################################################
#
#                 Cambridge Crystallographic Data Centre
#                                CCDC
#
#######################################################################
#
# If this CIF has been generated from an entry in the Cambridge
# Structural Database, then it will include bibliographic, chemical,
# crystal, experimental, refinement or atomic coordinate data resulting
# from the CCDC's data processing and validation procedures.
#
#######################################################################

data_CSD_CIF_TUMTIE
_audit_creation_date 1997-07-04
_audit_creation_method CSD-ConQuest-V1
_database_code_CSD TUMTIE
_chemical_formula_sum 'C11 H12 N2 O5'
_chemical_formula_moiety
;
C11 H12 N2 O5
;
_journal_coden_Cambridge 456
_journal_volume 69
_journal_year 1995
_journal_page_first 389
_journal_name_full 'Pol.J.Chem. '
loop_
_publ_author_name
"G.Rusek"
"K.Krajewski"
"T.Lis"
_chemical_name_systematic
;
3-Acetamido-4-nitrobenzyl acetate
;
_chemical_melting_point 348.15
_cell_volume    574.202
_exptl_crystal_colour 'orange'
_exptl_crystal_density_diffrn 1.459
_exptl_special_details
;
Melting point range 348.15-349.15K

;
_diffrn_ambient_temperature ?
_diffrn_special_details
;
The study was carried out at room temperature,in the range 283-303K

;
#These two values have been output from a single CSD field.
_refine_ls_R_factor_gt 0.04
_refine_ls_wR_factor_gt 0.04
_symmetry_cell_setting triclinic
_symmetry_space_group_name_H-M 'P -1'
_symmetry_Int_Tables_number 2
loop_
_symmetry_equiv_pos_site_id
_symmetry_equiv_pos_as_xyz
1 x,y,z
2 -x,-y,-z
_cell_length_a 7.228(5)
_cell_length_b 8.148(5)
_cell_length_c 10.462(7)
_cell_angle_alpha 81.32(6)
_cell_angle_beta 88.65(6)
_cell_angle_gamma 70.58(5)
_cell_formula_units_Z 2
loop_
_atom_type_symbol
_atom_type_radius_bond
C 0.68
H 0.23
N 0.68
O 0.68
loop_
_atom_site_label
_atom_site_type_symbol
_atom_site_fract_x
_atom_site_fract_y
_atom_site_fract_z
C1 C 0.23647(30) 0.06765(25) 0.06151(18)
C2 C 0.25213(31) 0.04116(25) 0.19486(18)
C3 C 0.29005(30) -0.12490(25) 0.26839(18)
C4 C 0.31022(30) -0.26473(24) 0.19943(18)
C5 C 0.29162(33) -0.23753(26) 0.06570(19)
C6 C 0.25717(34) -0.07389(28) -0.00258(19)
C7 C 0.19839(35) 0.25121(27) -0.00443(18)
C8 C 0.17527(31) 0.41520(26) -0.21147(18)
C9 C 0.13394(40) 0.42381(32) -0.35131(21)
C10 C 0.24612(34) -0.02471(26) 0.48353(19)
C11 C 0.28593(42) -0.0965(3) 0.62381(21)
O1 O 0.40196(26) -0.48446(18) 0.37737(14)
O2 O 0.32276(30) -0.55066(21) 0.20229(16)
O3 O 0.17268(23) 0.26385(17) -0.14152(12)
O4 O 0.20604(26) 0.52838(19) -0.16467(14)
O5 O 0.16685(32) 0.12884(20) 0.44511(15)
N1 N 0.30740(28) -0.14895(20) 0.40302(15)
N2 N 0.34730(28) -0.44471(21) 0.26344(16)
H1 H 0.349(3) -0.257(3) 0.440(2)
H2 H 0.239(3) 0.141(3) 0.239(2)
H3 H 0.323(3) -0.337(3) 0.018(2)
H4 H 0.250(4) -0.061(3) -0.086(2)
H5 H 0.295(4) 0.283(4) 0.013(3)
H6 H 0.077(3) 0.336(3) 0.024(2)
H7 H 0.053(5) 0.536(5) -0.376(4)
H8 H 0.258(6) 0.404(5) -0.407(4)
H9 H 0.073(5) 0.350(4) -0.367(3)
H10 H 0.238(4) -0.017(4) 0.677(3)
H11 H 0.413(5) -0.174(5) 0.647(4)
H12 H 0.229(4) -0.174(4) 0.646(3)
#END
