
#######################################################################
#
#                 Cambridge Crystallographic Data Centre
#                                CCDC
#
#######################################################################
#
# If this CIF has been generated from an entry in the Cambridge
# Structural Database, then it will include bibliographic, chemical,
# crystal, experimental, refinement or atomic coordinate data resulting
# from the CCDC's data processing and validation procedures.
#
#######################################################################

data_CSD_CIF_TUMXOQ
_audit_creation_date 2015-05-13
_audit_creation_method CSD-ConQuest-V1
_database_code_CSD TUMXOQ
_database_code_depnum_ccdc_archive 'CCDC 1036835'
_chemical_formula_sum 'C24 H22 N2 O9'
_chemical_formula_moiety
;
C24 H22 N2 O9
;
_journal_coden_Cambridge 16
_journal_volume 71
_journal_year 2015
_journal_page_first 4154
_journal_name_full 'Tetrahedron '
loop_
_publ_author_name
"C.I.Tanase"
"C.Draghici"
"M.T.Caproiu"
"S.Shova"
"A.Cojocaru"
"C.V.A.Munteanu"
_chemical_name_systematic
;
4-(((4-nitrobenzoyl)oxy)methyl)octahydro-2H-pentaleno[1,6-bc]furan-6-yl 
4-nitrobenzoate
;
_cell_volume   1090.297
_exptl_crystal_colour 'light pink'
_exptl_crystal_density_diffrn 1.47
_exptl_crystal_description 'prism'
_diffrn_ambient_temperature 173.1
#These two values have been output from a single CSD field.
_refine_ls_R_factor_gt 0.0686
_refine_ls_wR_factor_gt 0.0686
_symmetry_cell_setting triclinic
_symmetry_space_group_name_H-M 'P -1'
_symmetry_Int_Tables_number 2
loop_
_symmetry_equiv_pos_site_id
_symmetry_equiv_pos_as_xyz
1 x,y,z
2 -x,-y,-z
_cell_length_a 6.7838(8)
_cell_length_b 11.1185(12)
_cell_length_c 14.8667(19)
_cell_angle_alpha 89.839(10)
_cell_angle_beta 81.028(10)
_cell_angle_gamma 79.957(10)
_cell_formula_units_Z 2
loop_
_atom_type_symbol
_atom_type_radius_bond
C 0.68
H 0.23
N 0.68
O 0.68
loop_
_atom_site_label
_atom_site_type_symbol
_atom_site_fract_x
_atom_site_fract_y
_atom_site_fract_z
O1 O 0.2146(5) 0.1849(3) 0.92607(18)
O2 O 0.2863(4) -0.3339(3) 0.68797(19)
O3 O 0.6985(4) -0.1648(3) 0.6536(2)
O4 O 0.4184(5) -0.5093(3) 0.7480(2)
O5 O 0.1953(5) 0.1345(3) 1.0734(2)
O6 O 0.2199(5) 0.7403(3) 1.1692(2)
O7 O -0.4227(5) -0.6188(4) 0.5354(2)
O8 O 0.2797(5) 0.7737(3) 1.0249(2)
C1 C 0.2635(6) 0.5398(4) 0.9789(3)
H1 H 0.28430 0.59360 0.93180
C2 C 0.2099(6) 0.5012(4) 1.1403(3)
H2 H 0.19670 0.52950 1.20020
C3 C 0.2562(6) 0.4186(4) 0.9611(3)
H3 H 0.27470 0.39000 0.90110
C4 C 0.1673(7) -0.6332(4) 0.6629(3)
H4 H 0.27380 -0.67970 0.68680
C5 C -0.1537(6) -0.4955(4) 0.5962(3)
H5 H -0.26410 -0.45000 0.57440
C6 C 0.2388(6) 0.5780(4) 1.0690(3)
N1 N 0.2466(5) 0.7070(4) 1.0891(3)
C7 C -0.0158(6) -0.4377(4) 0.6313(3)
H6 H -0.03220 -0.35290 0.63260
C8 C -0.1248(6) -0.6208(4) 0.5940(3)
C9 C 0.2985(7) -0.4533(4) 0.7055(3)
C10 C 0.2007(6) 0.3809(4) 1.1214(3)
H7 H 0.18040 0.32750 1.16880
C11 C 0.2219(6) 0.3395(4) 1.0314(3)
C12 C 0.4384(7) -0.2720(4) 0.7193(3)
H8 H 0.55320 -0.33040 0.73490
C13 C 0.0329(7) -0.6913(4) 0.6264(3)
H9 H 0.04950 -0.77610 0.62400
N2 N -0.2687(7) -0.6822(4) 0.5548(2)
C14 C 0.1467(6) -0.5072(4) 0.6646(3)
C15 C 0.3579(6) -0.0696(4) 0.6567(3)
H10 H 0.26980 -0.05480 0.61000
C16 C 0.5041(7) -0.1915(4) 0.6415(3)
H11 H 0.50660 -0.22890 0.58160
C17 C 0.4952(6) 0.0274(4) 0.6576(3)
H12 H 0.45690 0.09540 0.61810
C18 C 0.3422(7) -0.1839(4) 0.7977(3)
H13 H 0.44460 -0.16340 0.83100
H14 H 0.24450 -0.21940 0.83940
C19 C 0.2094(7) 0.2080(4) 1.0140(3)
O9 O -0.2258(6) -0.7927(4) 0.5406(3)
C20 C 0.2519(7) 0.0528(4) 0.7975(3)
H15 H 0.15610 0.11690 0.77400
C21 C 0.4667(7) 0.0704(4) 0.7573(3)
H16 H 0.56610 0.02190 0.78910
H17 H 0.47980 0.15560 0.76150
C22 C 0.2366(7) -0.0693(4) 0.7538(3)
H18 H 0.09480 -0.07450 0.75140
C23 C 0.7053(7) -0.0444(4) 0.6216(3)
H19 H 0.73200 -0.04440 0.55550
H20 H 0.80940 -0.01010 0.64530
C24 C 0.2047(8) 0.0598(4) 0.9004(3)
H21 H 0.07060 0.04160 0.92120
H22 H 0.30320 0.00220 0.92670
#END
