
#######################################################################
#
#                 Cambridge Crystallographic Data Centre
#                                CCDC
#
#######################################################################
#
# If this CIF has been generated from an entry in the Cambridge
# Structural Database, then it will include bibliographic, chemical,
# crystal, experimental, refinement or atomic coordinate data resulting
# from the CCDC's data processing and validation procedures.
#
#######################################################################

data_CSD_CIF_TUMYAD
_audit_creation_date 2015-05-13
_audit_creation_method CSD-ConQuest-V1
_database_code_CSD TUMYAD
_database_code_depnum_ccdc_archive 'CCDC 1036837'
_chemical_formula_sum 'C24 H22 N2 O9'
_chemical_formula_moiety
;
C24 H22 N2 O9
;
_journal_coden_Cambridge 16
_journal_volume 71
_journal_year 2015
_journal_page_first 4154
_journal_name_full 'Tetrahedron '
loop_
_publ_author_name
"C.I.Tanase"
"C.Draghici"
"M.T.Caproiu"
"S.Shova"
"A.Cojocaru"
"C.V.A.Munteanu"
_chemical_name_systematic
;
octahydropentaleno[1,2-b]oxirene-2,4-diylbis(methylene) bis(4-nitrobenzoate)
;
_cell_volume   1121.224
_exptl_crystal_colour 'colorless'
_exptl_crystal_density_diffrn 1.429
_exptl_crystal_description 'prism'
_diffrn_ambient_temperature 293
#These two values have been output from a single CSD field.
_refine_ls_R_factor_gt 0.0705
_refine_ls_wR_factor_gt 0.0705
_symmetry_cell_setting triclinic
_symmetry_space_group_name_H-M 'P -1'
_symmetry_Int_Tables_number 2
loop_
_symmetry_equiv_pos_site_id
_symmetry_equiv_pos_as_xyz
1 x,y,z
2 -x,-y,-z
_cell_length_a 5.6195(9)
_cell_length_b 11.9173(14)
_cell_length_c 17.304(2)
_cell_angle_alpha 81.500(11)
_cell_angle_beta 86.960(12)
_cell_angle_gamma 78.113(12)
_cell_formula_units_Z 2
loop_
_atom_type_symbol
_atom_type_radius_bond
C 0.68
H 0.23
N 0.68
O 0.68
loop_
_atom_site_label
_atom_site_type_symbol
_atom_site_fract_x
_atom_site_fract_y
_atom_site_fract_z
C1 C 0.6910(13) 0.5121(5) 0.0785(4)
H1 H 0.68850 0.45050 0.04690
C2 C 0.7441(12) 0.4845(5) 0.1617(4)
H2 H 0.86020 0.41180 0.17160
H3 H 0.59650 0.47720 0.19210
C3 C 0.8508(11) 0.5842(5) 0.1849(3)
H4 H 1.00090 0.55130 0.21350
C4 C 0.6877(10) 0.6719(5) 0.2310(3)
H5 H 0.78560 0.68610 0.27240
C5 C 0.6215(11) 0.7855(4) 0.1753(3)
H6 H 0.47110 0.78910 0.14910
H7 H 0.60240 0.85150 0.20340
C6 C 0.8344(11) 0.7844(5) 0.1164(3)
H8 H 0.96720 0.80840 0.13990
C7 C 0.9143(11) 0.6557(5) 0.1055(3)
H9 H 1.09010 0.63750 0.09510
C8 C 0.7855(13) 0.6163(5) 0.0451(4)
H10 H 0.84360 0.62480 -0.00940
C9 C 0.7626(11) 0.8652(4) 0.0429(3)
H11 H 0.61540 0.85050 0.02300
H12 H 0.73180 0.94480 0.05310
C10 C 0.9268(13) 0.9111(5) -0.0841(4)
C11 C 1.1316(12) 0.8757(5) -0.1398(4)
C12 C 1.3362(11) 0.7969(5) -0.1181(4)
H13 H 1.35360 0.76350 -0.06610
C13 C 1.5175(12) 0.7657(5) -0.1715(4)
H14 H 1.65760 0.71170 -0.15660
C14 C 1.4856(13) 0.8168(5) -0.2475(4)
C15 C 1.2866(13) 0.8981(5) -0.2721(4)
H15 H 1.27250 0.93270 -0.32390
C16 C 1.1062(12) 0.9270(5) -0.2168(4)
H16 H 0.96660 0.98150 -0.23160
C17 C 0.4565(10) 0.6399(5) 0.2693(3)
H17 H 0.36710 0.70230 0.29600
H18 H 0.35290 0.62550 0.23030
C18 C 0.3632(13) 0.5080(5) 0.3776(3)
C19 C 0.4665(11) 0.4033(5) 0.4324(3)
C20 C 0.7009(12) 0.3406(5) 0.4224(3)
H19 H 0.79740 0.36430 0.38030
C21 C 0.7914(12) 0.2442(5) 0.4740(4)
H20 H 0.94740 0.20180 0.46670
C22 C 0.6486(13) 0.2114(5) 0.5365(4)
C23 C 0.4158(13) 0.2696(5) 0.5476(3)
H21 H 0.32130 0.24480 0.59000
C24 C 0.3231(11) 0.3659(5) 0.4950(3)
H22 H 0.16430 0.40580 0.50150
N1 N 1.6776(12) 0.7833(6) -0.3065(4)
N2 N 0.7524(14) 0.1119(5) 0.5965(4)
O1 O 0.5245(9) 0.6233(4) 0.0631(3)
O2 O 0.9617(7) 0.8458(3) -0.0143(2)
O3 O 0.7519(9) 0.9847(4) -0.0992(3)
O4 O 1.8404(11) 0.7018(6) -0.2858(3)
O5 O 1.6632(10) 0.8360(4) -0.3719(3)
O6 O 0.5314(7) 0.5359(3) 0.3248(2)
O7 O 0.1620(8) 0.5641(4) 0.3825(3)
O8 O 0.9538(11) 0.0617(5) 0.5838(4)
O9 O 0.6269(10) 0.0910(4) 0.6534(3)
#END
