
#######################################################################
#
#                 Cambridge Crystallographic Data Centre
#                                CCDC
#
#######################################################################
#
# If this CIF has been generated from an entry in the Cambridge
# Structural Database, then it will include bibliographic, chemical,
# crystal, experimental, refinement or atomic coordinate data resulting
# from the CCDC's data processing and validation procedures.
#
#######################################################################

data_CSD_CIF_TUNQOI
_audit_creation_date 1997-07-04
_audit_creation_method CSD-ConQuest-V1
_database_code_CSD TUNQOI
_database_code_depnum_ccdc_archive 'CCDC 1276958'
_chemical_formula_sum 'C18 H15 N3 O2'
_chemical_formula_moiety
;
C18 H15 N3 O2
;
_journal_coden_Cambridge 7
_journal_volume 69
_journal_year 1996
_journal_page_first 1621
_journal_name_full 'Bull.Chem.Soc.Jpn. '
loop_
_publ_author_name
"Chunmin Li"
"Yunhong Go"
"Zihua Mao"
"K.Koyano"
"Y.Kai"
"N.Kanehisa"
"Qingtai Zhu"
"Zhonghua Zhou"
"Souyu Wu"
_chemical_name_systematic
;
Indirubin mono-oxime O-ethyl ether
;
_chemical_melting_point 514.15
_cell_volume   1517.927
_exptl_crystal_colour 'dark red'
_exptl_crystal_density_diffrn 1.336
_exptl_special_details
;
in vivo and in vitro antileukemic activity

;
_diffrn_ambient_temperature ?
_diffrn_special_details
;
The study was carried out at room temperature,in the range 283-303K

;
#These two values have been output from a single CSD field.
_refine_ls_R_factor_gt 0.0393
_refine_ls_wR_factor_gt 0.0393
_symmetry_cell_setting monoclinic
_symmetry_space_group_name_H-M 'P 21/c'
_symmetry_Int_Tables_number 14
loop_
_symmetry_equiv_pos_site_id
_symmetry_equiv_pos_as_xyz
1 x,y,z
2 -x,1/2+y,1/2-z
3 -x,-y,-z
4 x,-1/2-y,-1/2+z
_cell_length_a 9.743(1)
_cell_length_b 13.445(1)
_cell_length_c 11.807(3)
_cell_angle_alpha 90
_cell_angle_beta 101.06(1)
_cell_angle_gamma 90
_cell_formula_units_Z 4
loop_
_atom_type_symbol
_atom_type_radius_bond
C 0.68
N 0.68
O 0.68
loop_
_atom_site_label
_atom_site_type_symbol
_atom_site_fract_x
_atom_site_fract_y
_atom_site_fract_z
O1 O 0.1820(3) 1.0285(3) 0.0876(2)
O2 O 0.7738(3) 0.7921(2) 0.1116(3)
N1 N 0.0996(5) 0.9021(4) -0.0390(3)
N2 N 0.4579(4) 1.0160(3) 0.1702(3)
N3 N 0.6325(5) 0.8159(5) 0.0747(4)
C1 C 0.1549(3) 0.8208(5) -0.0881(6)
C2 C 0.0841(4) 0.7526(3) -0.1655(4)
C3 C 0.1607(3) 0.6764(4) -0.2023(4)
C4 C 0.3042(3) 0.6707(4) -0.1629(2)
C5 C 0.3748(4) 0.7395(2) -0.0855(3)
C6 C 0.3007(2) 0.8165(3) -0.0460(6)
C7 C 0.2018(5) 0.9526(6) 0.0321(4)
C8 C 0.3349(6) 0.9000(5) 0.0330(3)
C9 C 0.4542(5) 0.9330(3) 0.1025(4)
C10 C 0.6000(3) 0.8936(4) 0.1280(3)
C11 C 0.5888(4) 1.0313(5) 0.2389(6)
C12 C 0.6798(4) 0.9576(3) 0.2151(4)
C13 C 0.8193(4) 0.9591(4) 0.2709(5)
C14 C 0.8628(4) 1.0339(5) 0.3502(3)
C15 C 0.7705(5) 1.1060(3) 0.3741(4)
C16 C 0.6309(3) 1.1068(3) 0.3180(6)
C17 C 0.8050(3) 0.7052(4) 0.0489(3)
C18 C 0.7466(6) 0.6140(3) 0.0916(4)
#END
