
#######################################################################
#
#                 Cambridge Crystallographic Data Centre
#                                CCDC
#
#######################################################################
#
# If this CIF has been generated from an entry in the Cambridge
# Structural Database, then it will include bibliographic, chemical,
# crystal, experimental, refinement or atomic coordinate data resulting
# from the CCDC's data processing and validation procedures.
#
#######################################################################

data_CSD_CIF_TUNQIC
_audit_creation_date 1997-07-04
_audit_creation_method CSD-ConQuest-V1
_database_code_CSD TUNQIC
_database_code_depnum_ccdc_archive 'CCDC 1276957'
_chemical_formula_sum 'C18 H15 N3 O2'
_chemical_formula_moiety
;
C18 H15 N3 O2
;
_journal_coden_Cambridge 7
_journal_volume 69
_journal_year 1996
_journal_page_first 1621
_journal_name_full 'Bull.Chem.Soc.Jpn. '
loop_
_publ_author_name
"Chunmin Li"
"Yunhong Go"
"Zihua Mao"
"K.Koyano"
"Y.Kai"
"N.Kanehisa"
"Qingtai Zhu"
"Zhonghua Zhou"
"Souyu Wu"
_chemical_name_systematic
;
N-Methylindirubin mono-oxime O-methyl ether
;
_chemical_melting_point 514.15
_cell_volume   1443.662
_exptl_crystal_colour 'dark red'
_exptl_crystal_density_diffrn 1.405
_exptl_special_details
;
in vivo and in vitro antileukemic activity

;
_diffrn_ambient_temperature ?
_diffrn_special_details
;
The study was carried out at room temperature,in the range 283-303K

;
#These two values have been output from a single CSD field.
_refine_ls_R_factor_gt 0.0395
_refine_ls_wR_factor_gt 0.0395
_symmetry_cell_setting monoclinic
_symmetry_space_group_name_H-M 'P 21/c'
_symmetry_Int_Tables_number 14
loop_
_symmetry_equiv_pos_site_id
_symmetry_equiv_pos_as_xyz
1 x,y,z
2 -x,1/2+y,1/2-z
3 -x,-y,-z
4 x,-1/2-y,-1/2+z
_cell_length_a 16.236(2)
_cell_length_b 5.504(1)
_cell_length_c 16.662(2)
_cell_angle_alpha 90
_cell_angle_beta 104.17(2)
_cell_angle_gamma 90
_cell_formula_units_Z 4
loop_
_atom_type_symbol
_atom_type_radius_bond
C 0.68
N 0.68
O 0.68
loop_
_atom_site_label
_atom_site_type_symbol
_atom_site_fract_x
_atom_site_fract_y
_atom_site_fract_z
O1 O 0.4450(2) 0.7735(6) 0.7680(2)
O2 O 0.0888(2) 1.2640(7) 0.5610(2)
N1 N 0.3538(2) 0.5167(6) 0.8120(2)
N2 N 0.3635(2) 1.1178(7) 0.6623(2)
N3 N 0.1420(2) 1.1097(7) 0.6169(2)
C1 C 0.2658(3) 0.4943(8) 0.8011(2)
C2 C 0.2235(3) 0.3267(8) 0.8371(3)
C3 C 0.1357(3) 0.3450(1) 0.8196(3)
C4 C 0.0936(3) 0.5240(1) 0.7697(3)
C5 C 0.1363(3) 0.6924(9) 0.7341(3)
C6 C 0.2250(2) 0.6803(8) 0.7494(2)
C7 C 0.3718(3) 0.7102(8) 0.7678(2)
C8 C 0.2901(2) 0.8224(7) 0.7249(2)
C9 C 0.2905(2) 1.0149(8) 0.6739(2)
C10 C 0.2203(2) 1.1573(8) 0.6197(2)
C11 C 0.3469(2) 1.3072(8) 0.6056(2)
C12 C 0.2599(3) 1.3403(8) 0.5776(2)
C13 C 0.2286(3) 1.5230(9) 0.5218(3)
C14 C 0.2857(3) 1.6699(9) 0.4948(3)
C15 C 0.3716(3) 1.6314(9) 0.5226(3)
C16 C 0.4043(3) 1.4488(9) 0.5782(3)
C17 C 0.4168(3) 0.3615(9) 0.8615(3)
C18 C 0.0033(3) 1.2330(1) 0.5695(4)
#END
