
#######################################################################
#
#                 Cambridge Crystallographic Data Centre
#                                CCDC
#
#######################################################################
#
# If this CIF has been generated from an entry in the Cambridge
# Structural Database, then it will include bibliographic, chemical,
# crystal, experimental, refinement or atomic coordinate data resulting
# from the CCDC's data processing and validation procedures.
#
#######################################################################

data_CSD_CIF_TUNSEA01
_audit_creation_date 2018-01-18
_audit_creation_method CSD-ConQuest-V1
_database_code_CSD TUNSEA01
_database_code_depnum_ccdc_archive 'CCDC 1523658'
_chemical_formula_sum 'C17 H13 N1 O3'
_chemical_formula_moiety
;
C17 H13 N1 O3
;
_journal_coden_Cambridge 643
_journal_volume 232
_journal_year 2017
_journal_page_first 697
_journal_name_full 'Z.Krist.Cryst.Mater. '
loop_
_publ_author_name
"T.C.Baddeley"
"L.R.Gomes"
"J.N.Low"
"A.B.Turner"
"J.L.Wardell"
"G.J.R.Watson"
_chemical_name_systematic
;
(E)-2-(4-nitrobenzylidene)-3,4-dihydronaphthalen-1(2H)-one
;
_chemical_name_common
;
(E)-2-(4-nitrobenzylidene)-2,3-dihydro-1H-tetral-1-one
;
_cell_volume   1292.989
_exptl_crystal_colour 'yellow'
_exptl_crystal_density_diffrn 1.435
_exptl_crystal_description 'block'
_diffrn_ambient_temperature 100
#These two values have been output from a single CSD field.
_refine_ls_R_factor_gt 0.0366
_refine_ls_wR_factor_gt 0.0366
_symmetry_cell_setting triclinic
_symmetry_space_group_name_H-M 'P -1'
_symmetry_Int_Tables_number 2
loop_
_symmetry_equiv_pos_site_id
_symmetry_equiv_pos_as_xyz
1 x,y,z
2 -x,-y,-z
_cell_length_a 7.8732(2)
_cell_length_b 11.7558(3)
_cell_length_c 14.5546(4)
_cell_angle_alpha 81.045(2)
_cell_angle_beta 82.539(2)
_cell_angle_gamma 77.567(2)
_cell_formula_units_Z 4
loop_
_atom_type_symbol
_atom_type_radius_bond
C 0.68
H 0.23
N 0.68
O 0.68
loop_
_atom_site_label
_atom_site_type_symbol
_atom_site_fract_x
_atom_site_fract_y
_atom_site_fract_z
O1 O 1.04562(10) 0.83893(7) 0.23314(6)
O2 O 0.40446(11) 0.35607(8) 0.09270(6)
O3 O 0.17645(11) 0.49100(8) 0.12037(7)
N1 N 0.33530(12) 0.45324(9) 0.11435(7)
C1 C 0.93512(14) 0.90193(9) 0.18565(7)
C2 C 0.77665(14) 0.86093(9) 0.16767(7)
C3 C 0.62503(14) 0.95476(9) 0.13645(8)
H1 H 0.56500 0.99400 0.19060
H2 H 0.54030 0.91800 0.11290
C4 C 0.68478(15) 1.04651(10) 0.05955(8)
H3 H 0.71790 1.01140 0.00060
H4 H 0.58580 1.11350 0.04920
C5 C 0.86715(16) 1.20219(10) 0.04197(8)
H5 H 0.78830 1.25040 0.00090
C6 C 0.83722(14) 1.09134(9) 0.08257(7)
C7 C 1.01020(17) 1.24262(10) 0.06079(8)
H6 H 1.02790 1.31830 0.03290
C8 C 1.12795(16) 1.17327(10) 0.12011(8)
H7 H 1.22570 1.20130 0.13310
C9 C 1.10120(14) 1.06297(10) 0.16008(8)
H8 H 1.18200 1.01470 0.20000
C10 C 0.95598(14) 1.02193(9) 0.14220(7)
C11 C 0.66487(14) 0.67427(9) 0.16215(7)
C12 C 0.73455(14) 0.56563(9) 0.12996(8)
H9 H 0.85770 0.54170 0.11830
C13 C 0.62749(14) 0.49287(9) 0.11501(7)
H10 H 0.67540 0.41930 0.09350
C14 C 0.44835(14) 0.53004(9) 0.13224(7)
C15 C 0.37394(14) 0.63517(10) 0.16576(7)
H11 H 0.25070 0.65790 0.17770
C16 C 0.48323(14) 0.70682(9) 0.18153(8)
H12 H 0.43440 0.77870 0.20570
C17 C 0.79023(14) 0.74393(9) 0.17743(7)
H13 H 0.89780 0.69920 0.19730
O4 O 0.34865(10) 0.33609(7) 0.31010(6)
O5 O 1.25936(10) 0.66438(7) 0.39721(6)
O6 O 1.04257(11) 0.77820(7) 0.46599(6)
N2 N 1.10397(12) 0.69233(8) 0.42502(6)
C18 C 0.48317(13) 0.26714(9) 0.33018(7)
C19 C 0.64639(13) 0.30910(9) 0.33888(7)
C20 C 0.81487(13) 0.22143(9) 0.32721(8)
H14 H 0.90960 0.25140 0.34830
H15 H 0.84490 0.21290 0.26010
C21 C 0.80437(14) 0.10113(9) 0.38240(8)
H16 H 0.90690 0.04300 0.36100
H17 H 0.81090 0.10480 0.44930
C22 C 0.63785(14) -0.06041(9) 0.39144(7)
H18 H 0.74150 -0.11530 0.40600
C23 C 0.64119(13) 0.05931(9) 0.37291(7)
C24 C 0.48567(15) -0.10024(10) 0.38883(8)
H19 H 0.48540 -0.18190 0.40210
C25 C 0.33260(14) -0.02083(10) 0.36681(8)
H20 H 0.22790 -0.04820 0.36570
C26 C 0.33429(14) 0.09766(10) 0.34673(8)
H21 H 0.23070 0.15180 0.33100
C27 C 0.48816(13) 0.13866(9) 0.34935(7)
C28 C 0.75600(14) 0.48562(9) 0.37278(7)
C29 C 0.81414(14) 0.63965(9) 0.45123(7)
H22 H 0.77670 0.69730 0.49250
C30 C 0.70117(14) 0.57305(9) 0.43212(7)
H23 H 0.58370 0.58670 0.45980
C31 C 0.98381(14) 0.61970(9) 0.40827(7)
C32 C 1.04338(14) 0.53533(9) 0.34901(7)
H24 H 1.16060 0.52320 0.32100
C33 C 0.92877(14) 0.46871(9) 0.33122(7)
H25 H 0.96800 0.41080 0.29030
C34 C 0.62525(14) 0.42026(9) 0.35725(7)
H26 H 0.50800 0.46290 0.36070
#END
