
#######################################################################
#
#                 Cambridge Crystallographic Data Centre
#                                CCDC
#
#######################################################################
#
# If this CIF has been generated from an entry in the Cambridge
# Structural Database, then it will include bibliographic, chemical,
# crystal, experimental, refinement or atomic coordinate data resulting
# from the CCDC's data processing and validation procedures.
#
#######################################################################

data_CSD_CIF_TUNSIE01
_audit_creation_date 1999-01-19
_audit_creation_method CSD-ConQuest-V1
_database_code_CSD TUNSIE01
_database_code_depnum_ccdc_archive 'CCDC 1276967'
_chemical_formula_sum 'C16 H15 N1 O2'
_chemical_formula_moiety
;
C16 H15 N1 O2
;
_journal_coden_Cambridge 1234
_journal_volume 281
_journal_year 1996
_journal_page_first 251
_journal_name_full 'Mol.Cryst.Liq.Cryst.Sci.Technol.,Sect.A '
loop_
_publ_author_name
"A.N.Utenyshev"
"S.M.Aldoshin"
_chemical_name_systematic
;
1-(2-Hydroxyphenyl)-N-(4-methylphenyl)-4-oxo-4-aza-buta-1,3-diene
;
_chemical_name_common
;
C-(2-phenoxy-1-vinyl)-N-p-methyl-phenyl nitrone
;
_cell_volume   2650.365
_exptl_crystal_density_diffrn 1.278
_exptl_special_details
;
photosensitive
Space group should be P21/a (not P21/c)

;
_exptl_crystal_description 'plate-like'
_diffrn_ambient_temperature ?
_diffrn_special_details
;
The study was carried out at room temperature,in the range 283-303K

;
#These two values have been output from a single CSD field.
_refine_ls_R_factor_gt 0.037
_refine_ls_wR_factor_gt 0.037
_symmetry_cell_setting monoclinic
_symmetry_space_group_name_H-M 'P 21/a'
_symmetry_Int_Tables_number 14
loop_
_symmetry_equiv_pos_site_id
_symmetry_equiv_pos_as_xyz
1 x,y,z
2 1/2-x,1/2+y,-z
3 -x,-y,-z
4 -1/2+x,-1/2-y,z
_cell_length_a 21.521(7)
_cell_length_b 13.205(4)
_cell_length_c 9.339(3)
_cell_angle_alpha 90
_cell_angle_beta 87.0(2)
_cell_angle_gamma 90
_cell_formula_units_Z 8
loop_
_atom_type_symbol
_atom_type_radius_bond
C 0.56
H 0.23
N 0.68
O 0.68
loop_
_atom_site_label
_atom_site_type_symbol
_atom_site_fract_x
_atom_site_fract_y
_atom_site_fract_z
N1 N 0.5172(3) 0.6402(4) 0.5257(3)
O1 O 0.4737(3) 0.6834(4) 0.4524(4)
O2 O 0.4654(4) 0.6329(4) 1.1790(4)
C1 C 0.5082(4) 0.6212(4) 0.6634(4)
C2 C 0.4521(4) 0.6423(4) 0.7463(4)
C3 C 0.4493(4) 0.6293(3) 0.8892(4)
C4 C 0.3975(4) 0.6494(3) 0.9904(4)
C5 C 0.4070(4) 0.6500(3) 1.1387(4)
C6 C 0.3576(3) 0.6674(4) 1.2360(4)
C7 C 0.2988(3) 0.6836(3) 1.1906(4)
C8 C 0.2887(3) 0.6847(3) 1.0453(3)
C9 C 0.3374(4) 0.6677(3) 0.9472(3)
C10 C 0.5759(3) 0.6171(4) 0.4514(3)
C11 C 0.5975(3) 0.6806(4) 0.3424(4)
C12 C 0.6534(4) 0.6580(4) 0.2692(4)
C13 C 0.6880(4) 0.5745(3) 0.3006(4)
C14 C 0.7494(4) 0.5501(4) 0.2208(4)
C15 C 0.6653(4) 0.5128(4) 0.4116(3)
C16 C 0.6091(3) 0.5333(3) 0.4848(3)
H1 H 0.542(4) 0.590(3) 0.701(4)
H2 H 0.418(4) 0.671(3) 0.705(4)
H3 H 0.485(4) 0.602(4) 0.922(4)
H4 H 0.366(4) 0.672(4) 1.337(5)
H5 H 0.268(4) 0.700(4) 1.264(3)
H6 H 0.250(3) 0.696(4) 1.017(4)
H7 H 0.330(4) 0.666(4) 0.843(4)
H8 H 0.579(4) 0.735(5) 0.327(4)
H9 H 0.666(4) 0.710(4) 0.222(4)
H10 H 0.759(4) 0.495(4) 0.221(4)
H11 H 0.756(4) 0.589(4) 0.162(4)
H12 H 0.792(4) 0.563(4) 0.276(4)
H13 H 0.684(4) 0.453(4) 0.425(4)
H14 H 0.592(3) 0.493(4) 0.556(4)
H15 H 0.467(3) 0.654(4) 1.275(4)
N2 N 0.0905(3) 0.4941(3) 0.5707(4)
O3 O 0.1047(4) 0.5812(3) 0.5126(4)
O4 O 0.2926(4) 0.1740(3) 0.4277(4)
C17 C 0.1226(4) 0.4140(3) 0.5348(4)
C18 C 0.1749(4) 0.4146(4) 0.4373(4)
C19 C 0.2108(4) 0.3337(4) 0.4122(4)
C20 C 0.2658(4) 0.3259(4) 0.3137(3)
C21 C 0.3060(4) 0.2439(4) 0.3263(3)
C22 C 0.3578(3) 0.2347(4) 0.2287(3)
C23 C 0.3702(3) 0.3074(4) 0.1267(3)
C24 C 0.3324(3) 0.3906(4) 0.1180(4)
C25 C 0.2808(4) 0.3985(3) 0.2114(4)
C26 C 0.0371(4) 0.4935(4) 0.6709(3)
C27 C 0.0010(3) 0.5788(4) 0.6851(3)
C28 C -0.0501(3) 0.5807(4) 0.7807(3)
C29 C -0.0666(3) 0.4987(4) 0.8632(4)
C30 C -0.1228(4) 0.5016(4) 0.9669(4)
C31 C -0.0295(4) 0.4140(3) 0.8510(3)
C32 C 0.0221(4) 0.4112(3) 0.7548(4)
H16 H 0.108(5) 0.354(5) 0.572(5)
H17 H 0.184(4) 0.475(4) 0.394(5)
H18 H 0.199(5) 0.271(4) 0.444(5)
H19 H 0.381(4) 0.179(4) 0.238(5)
H20 H 0.405(4) 0.301(4) 0.067(4)
H21 H 0.340(4) 0.447(4) 0.066(4)
H22 H 0.257(4) 0.453(4) 0.204(4)
H23 H 0.011(5) 0.625(4) 0.636(4)
H24 H -0.075(5) 0.653(4) 0.792(5)
H25 H -0.149(5) 0.452(4) 0.937(5)
H26 H -0.131(4) 0.568(4) 0.977(5)
H27 H -0.117(4) 0.472(4) 1.084(4)
H28 H -0.039(4) 0.358(4) 0.898(4)
H29 H 0.049(5) 0.359(4) 0.755(4)
H30 H 0.325(5) 0.140(4) 0.445(4)
#END
