
#######################################################################
#
#                 Cambridge Crystallographic Data Centre
#                                CCDC
#
#######################################################################
#
# If this CIF has been generated from an entry in the Cambridge
# Structural Database, then it will include bibliographic, chemical,
# crystal, experimental, refinement or atomic coordinate data resulting
# from the CCDC's data processing and validation procedures.
#
#######################################################################

data_CSD_CIF_TUNSEA
_audit_creation_date 1997-07-04
_audit_creation_method CSD-ConQuest-V1
_database_code_CSD TUNSEA
_database_code_depnum_ccdc_archive 'CCDC 1276965'
_chemical_formula_sum 'C17 H13 N1 O3'
_chemical_formula_moiety
;
C17 H13 N1 O3
;
_journal_coden_Cambridge 82
_journal_volume 37
_journal_year 1996
_journal_page_first 591
_journal_name_full 'Zh.Strukt.Khim.(Russ.)(J.Struct.Chem.) '
loop_
_publ_author_name
"V.D.Orlov"
"Z.Kaluski"
"E.Figas"
"K.A.Potekhin"
"O.V.Shishkin"
_chemical_name_systematic
;
2-(4-Nitrobenzylidene)-1-tetralone
;
_cell_volume   1336.507
_exptl_crystal_density_diffrn 1.37
_diffrn_ambient_temperature ?
_diffrn_special_details
;
The study was carried out at room temperature,in the range 283-303K

;
#These two values have been output from a single CSD field.
_refine_ls_R_factor_gt 0.035
_refine_ls_wR_factor_gt 0.035
_symmetry_cell_setting triclinic
_symmetry_space_group_name_H-M 'P -1'
_symmetry_Int_Tables_number 2
loop_
_symmetry_equiv_pos_site_id
_symmetry_equiv_pos_as_xyz
1 x,y,z
2 -x,-y,-z
_cell_length_a 11.806(4)
_cell_length_b 7.915(2)
_cell_length_c 14.883(3)
_cell_angle_alpha 82.47(2)
_cell_angle_beta 98.91(2)
_cell_angle_gamma 102.08(2)
_cell_formula_units_Z 4
loop_
_atom_type_symbol
_atom_type_radius_bond
C 0.68
N 0.68
O 0.68
loop_
_atom_site_label
_atom_site_type_symbol
_atom_site_fract_x
_atom_site_fract_y
_atom_site_fract_z
O1 O 0.1623(2) -0.1510(3) -0.1863(2)
O2 O -0.2789(2) 0.5398(2) -0.0349(2)
O3 O -0.1670(2) 0.7550(3) -0.1027(2)
N1 N -0.1938(2) 0.6014(3) -0.0752(2)
C1 C 0.2308(2) -0.0172(4) -0.1675(2)
C2 C 0.1882(2) 0.1449(3) -0.1598(2)
C3 C 0.2757(2) 0.3108(4) -0.1713(2)
C4 C 0.3947(2) 0.2994(4) -0.1169(2)
C5 C 0.4364(2) 0.1370(4) -0.1275(2)
C6 C 0.5547(3) 0.1315(4) -0.1103(2)
C7 C 0.5947(3) -0.0184(4) -0.1141(2)
C8 C 0.5166(3) -0.1679(4) -0.1357(2)
C9 C 0.3990(3) -0.1660(4) -0.1534(2)
C10 C 0.3585(2) -0.0137(3) -0.1504(2)
C11 C 0.0784(2) 0.1253(3) -0.1418(2)
C12 C 0.0126(2) 0.2549(3) -0.1260(2)
C13 C -0.0746(2) 0.2004(4) -0.0695(2)
C14 C -0.1410(2) 0.3124(4) -0.0509(2)
C15 C -0.1217(2) 0.4806(4) -0.0920(2)
C16 C -0.0378(2) 0.5397(4) -0.1495(2)
C17 C 0.0289(2) 0.4261(4) -0.1663(2)
O4 O -0.3441(2) 0.5433(3) 0.7294(2)
O5 O 0.1384(2) -0.0976(3) 0.5947(2)
O6 O 0.0045(2) -0.3225(3) 0.6219(2)
N2 N 0.0421(2) -0.1657(3) 0.6158(2)
C18 C -0.4057(2) 0.4337(4) 0.6829(2)
C19 C -0.3629(2) 0.2770(3) 0.6657(2)
C20 C -0.4555(3) 0.1283(4) 0.6342(2)
C21 C -0.5473(3) 0.1865(4) 0.5598(2)
C22 C -0.5927(2) 0.3377(4) 0.5826(2)
C23 C -0.7032(3) 0.3676(4) 0.5429(2)
C24 C -0.7438(3) 0.5077(5) 0.5615(2)
C25 C -0.6774(3) 0.6224(4) 0.6193(2)
C26 C -0.5676(3) 0.5970(4) 0.6583(2)
C27 C -0.5252(2) 0.4544(4) 0.6408(2)
C28 C -0.2473(2) 0.2889(4) 0.6767(2)
C29 C -0.1777(2) 0.1645(4) 0.6624(2)
C30 C -0.0694(3) 0.2317(4) 0.6319(2)
C31 C 0.0020(2) 0.1247(4) 0.6172(2)
C32 C -0.0340(2) -0.0514(4) 0.6332(2)
C33 C -0.1381(3) -0.1230(4) 0.6662(2)
C34 C -0.2095(2) -0.0153(4) 0.6810(2)
#END
