
#######################################################################
#
#                 Cambridge Crystallographic Data Centre
#                                CCDC
#
#######################################################################
#
# If this CIF has been generated from an entry in the Cambridge
# Structural Database, then it will include bibliographic, chemical,
# crystal, experimental, refinement or atomic coordinate data resulting
# from the CCDC's data processing and validation procedures.
#
#######################################################################

data_CSD_CIF_TUNTUT
_audit_creation_date 2015-09-29
_audit_creation_method CSD-ConQuest-V1
_database_code_CSD TUNTUT
_database_code_depnum_ccdc_archive 'CCDC 1037901'
_chemical_formula_sum 'C19 H13 N3 O2'
_chemical_formula_moiety
;
C19 H13 N3 O2
;
_journal_coden_Cambridge 1135
_journal_volume 25
_journal_year 2015
_journal_page_first 315
_journal_name_full 'Mendeleev Commun. '
loop_
_publ_author_name
"Z.V.Chirkova"
"M.V.Kabanova"
"S.S.Sergeev"
"S.I.Filimonov"
"I.G.Abramov"
"A.V.Samet"
"K.Yu.Suponitsky"
_chemical_name_systematic
;
3-Formyl-1-methoxy-2-(4-methylphenyl)-1H-indole-5,6-dicarbonitrile
;
_cell_volume    807.539
_exptl_crystal_colour 'colorless'
_exptl_crystal_density_diffrn 1.297
_exptl_crystal_description 'prism'
_diffrn_ambient_temperature 120
#These two values have been output from a single CSD field.
_refine_ls_R_factor_gt 0.0451
_refine_ls_wR_factor_gt 0.0451
_symmetry_cell_setting triclinic
_symmetry_space_group_name_H-M 'P -1'
_symmetry_Int_Tables_number 2
loop_
_symmetry_equiv_pos_site_id
_symmetry_equiv_pos_as_xyz
1 x,y,z
2 -x,-y,-z
_cell_length_a 8.5169(4)
_cell_length_b 8.6573(4)
_cell_length_c 12.2902(6)
_cell_angle_alpha 103.399(1)
_cell_angle_beta 97.472(1)
_cell_angle_gamma 109.810(1)
_cell_formula_units_Z 2
loop_
_atom_type_symbol
_atom_type_radius_bond
C 0.68
H 0.23
N 0.68
O 0.68
loop_
_atom_site_label
_atom_site_type_symbol
_atom_site_fract_x
_atom_site_fract_y
_atom_site_fract_z
O1 O 0.71826(10) 0.79730(11) 0.00984(7)
O2 O 1.46325(10) 1.0364(1) 0.19439(8)
N1 N 1.29218(10) 0.95012(11) 0.14018(8)
N2 N 0.87506(14) 0.27678(13) -0.32650(9)
N3 N 1.36924(16) 0.39645(14) -0.21934(11)
C1 C 1.16118(12) 0.99453(12) 0.17228(9)
C2 C 1.01035(12) 0.88173(12) 0.09221(8)
C3 C 1.05434(12) 0.76495(12) 0.01014(9)
C4 C 0.95981(13) 0.62677(13) -0.08765(9)
H1 H 0.83990 0.59480 -0.11290
C5 C 1.04599(13) 0.53737(13) -0.14698(9)
C6 C 1.22561(13) 0.58418(13) -0.10960(9)
C7 C 1.32260(13) 0.72362(13) -0.01444(10)
H2 H 1.44300 0.75730 0.01000
C8 C 1.23323(12) 0.81118(12) 0.04317(9)
C9 C 1.18807(13) 1.13852(13) 0.27271(9)
C10 C 1.31064(13) 1.30149(13) 0.28727(9)
H3 H 1.38300 1.31800 0.23480
C11 C 1.32682(14) 1.43951(14) 0.37844(9)
H4 H 1.40980 1.55020 0.38730
C12 C 1.22285(14) 1.41806(14) 0.45734(9)
C13 C 1.10406(15) 1.25397(15) 0.44377(10)
H5 H 1.03470 1.23680 0.49790
C14 C 1.08520(14) 1.11471(14) 0.35219(10)
H6 H 1.00270 1.00390 0.34370
C15 C 1.23964(17) 1.57012(16) 0.55381(10)
H7 H 1.14270 1.53820 0.59040
H8 H 1.24020 1.66520 0.52320
H9 H 1.34700 1.60590 0.61060
C16 C 0.84409(13) 0.89309(14) 0.08583(9)
H10 H 0.83230 0.97970 0.14380
C17 C 0.95087(14) 0.39279(14) -0.24681(9)
C18 C 1.30677(15) 0.48120(14) -0.17057(10)
C19 C 1.50870(16) 0.96361(17) 0.28268(12)
H11 H 1.63100 1.02440 0.31900
H12 H 1.48450 0.84160 0.24810
H13 H 1.44130 0.97550 0.34070
#END
