
#######################################################################
#
#                 Cambridge Crystallographic Data Centre
#                                CCDC
#
#######################################################################
#
# If this CIF has been generated from an entry in the Cambridge
# Structural Database, then it will include bibliographic, chemical,
# crystal, experimental, refinement or atomic coordinate data resulting
# from the CCDC's data processing and validation procedures.
#
#######################################################################

data_CSD_CIF_TUNTAX
_audit_creation_date 1997-07-04
_audit_creation_method CSD-ConQuest-V1
_database_code_CSD TUNTAX
_chemical_formula_sum 'C10 H11 N1 O2'
_chemical_formula_moiety
;
C10 H11 N1 O2
;
_journal_coden_Cambridge 82
_journal_volume 37
_journal_year 1996
_journal_page_first 349
_journal_name_full 'Zh.Strukt.Khim.(Russ.)(J.Struct.Chem.) '
loop_
_publ_author_name
"A.N.Utenyshev"
"S.M.Aldoshin"
_chemical_name_systematic
;
2-(2-Phenoxy)-prop-2-en-1-ylidene-N-methyl-N-oxide
;
_cell_volume   1877.112
_exptl_crystal_density_diffrn 1.254
_diffrn_ambient_temperature ?
_diffrn_special_details
;
The study was carried out at room temperature,in the range 283-303K

;
#These two values have been output from a single CSD field.
_refine_ls_R_factor_gt 0.066
_refine_ls_wR_factor_gt 0.066
_symmetry_cell_setting monoclinic
_symmetry_space_group_name_H-M 'B 1 1 2/b'
_symmetry_Int_Tables_number 15
loop_
_symmetry_equiv_pos_site_id
_symmetry_equiv_pos_as_xyz
1 x,y,z
2 -x,1/2-y,z
3 1/2+x,y,1/2+z
4 1/2-x,1/2-y,1/2+z
5 -x,-y,-z
6 x,-1/2+y,-z
7 -1/2-x,-y,-1/2-z
8 -1/2+x,-1/2+y,-1/2-z
_cell_length_a 17.121(6)
_cell_length_b 13.926(4)
_cell_length_c 7.936(3)
_cell_angle_alpha 90
_cell_angle_beta 90
_cell_angle_gamma 82.77(2)
_cell_formula_units_Z 8
loop_
_atom_type_symbol
_atom_type_radius_bond
C 0.68
H 0.23
N 0.68
O 0.68
loop_
_atom_site_label
_atom_site_type_symbol
_atom_site_fract_x
_atom_site_fract_y
_atom_site_fract_z
N1 N 0.0649(3) 0.4657(3) 0.1624(3)
O1 O 0.0236(3) 0.5417(3) 0.2252(3)
O2 O 0.3778(3) 0.5460(3) -0.1612(3)
C1 C 0.1327(4) 0.4690(4) 0.1041(4)
C2 C 0.1729(4) 0.5571(4) 0.1069(4)
C3 C 0.2467(4) 0.5545(4) 0.0371(4)
C4 C 0.2925(3) 0.6391(3) 0.0308(3)
C5 C 0.3601(4) 0.6327(4) -0.0765(4)
C6 C 0.4021(4) 0.7121(4) -0.0895(4)
C7 C 0.3825(3) 0.7936(3) 0.0014(3)
C8 C 0.3155(3) 0.8012(3) 0.1100(3)
C9 C 0.2729(3) 0.7232(3) 0.1182(3)
C10 C 0.0272(4) 0.3757(4) 0.1561(4)
H1 H 0.165(4) 0.419(4) 0.069(4)
H2 H 0.143(5) 0.628(5) 0.160(5)
H3 H 0.271(4) 0.480(4) -0.017(4)
H4 H 0.453(4) 0.706(4) -0.170(4)
H5 H 0.416(4) 0.854(4) -0.009(4)
H6 H 0.297(4) 0.868(4) 0.182(4)
H7 H 0.219(4) 0.731(4) 0.197(4)
H8 H -0.013(4) 0.375(4) 0.172(4)
H9 H 0.057(5) 0.318(5) 0.247(5)
H10 H 0.039(5) 0.336(5) 0.032(5)
H11 H 0.447(4) 0.530(4) -0.215(4)
#END
