
#######################################################################
#
#                 Cambridge Crystallographic Data Centre
#                                CCDC
#
#######################################################################
#
# If this CIF has been generated from an entry in the Cambridge
# Structural Database, then it will include bibliographic, chemical,
# crystal, experimental, refinement or atomic coordinate data resulting
# from the CCDC's data processing and validation procedures.
#
#######################################################################

data_CSD_CIF_TUNWIJ
_audit_creation_date 2010-07-16
_audit_creation_method CSD-ConQuest-V1
_database_code_CSD TUNWIJ
_database_code_depnum_ccdc_archive 'CCDC 781298'
_chemical_formula_sum 'C10 H8 N2 O3'
_chemical_formula_moiety
;
C10 H8 N2 O3
;
_journal_coeditor_code "IUCr FJ2294"
_journal_coden_Cambridge 1370
_journal_volume 66
_journal_year 2010
_journal_page_first o1303
_journal_name_full 'Acta Crystallogr.,Sect.E:Struct.Rep.Online '
loop_
_publ_author_name
"J.H.Goh"
"H.-K.Fun"
"Nithinchandra"
"B.Kalluraya"
_chemical_name_systematic
;
4-Formyl-3-(4-methylphenyl)-1,2,3-oxadiazol-3-ium-5-olate
;
_chemical_name_common
;
4-Formyl-3-p-tolylsydnone
;
_cell_volume    936.339
_exptl_crystal_colour 'brown'
_exptl_crystal_density_diffrn 1.448
_exptl_crystal_description 'block'
_exptl_crystal_preparation 'DMF/ethanol'
_diffrn_ambient_temperature 100
#These two values have been output from a single CSD field.
_refine_ls_R_factor_gt 0.0419
_refine_ls_wR_factor_gt 0.0419
_symmetry_cell_setting monoclinic
_symmetry_space_group_name_H-M 'P 21/c'
_symmetry_Int_Tables_number 14
loop_
_symmetry_equiv_pos_site_id
_symmetry_equiv_pos_as_xyz
1 x,y,z
2 -x,1/2+y,1/2-z
3 -x,-y,-z
4 x,-1/2-y,-1/2+z
_cell_length_a 10.5663(4)
_cell_length_b 10.4088(3)
_cell_length_c 8.9630(3)
_cell_angle_alpha 90
_cell_angle_beta 108.222(1)
_cell_angle_gamma 90
_cell_formula_units_Z 4
loop_
_atom_type_symbol
_atom_type_radius_bond
C 0.68
H 0.23
N 0.68
O 0.68
loop_
_atom_site_label
_atom_site_type_symbol
_atom_site_fract_x
_atom_site_fract_y
_atom_site_fract_z
O1 O 0.34006(6) 0.22147(5) 0.96639(6)
O2 O 0.26550(6) 0.39559(5) 1.06918(7)
O3 O 0.53489(6) 0.55203(5) 1.23353(7)
N1 N 0.54958(6) 0.24689(5) 1.05402(6)
N2 N 0.45929(7) 0.17063(6) 0.96707(7)
C1 C 0.76823(8) 0.30000(7) 1.03217(9)
H1 H 0.73460 0.37730 0.98390
C2 C 0.90126(8) 0.26687(7) 1.05976(10)
H2 H 0.95710 0.32280 1.02890
C3 C 0.95243(8) 0.15115(7) 1.13297(9)
C4 C 0.86671(8) 0.06713(7) 1.17625(9)
H3 H 0.89960 -0.01060 1.22380
C5 C 0.73342(8) 0.09745(6) 1.14961(8)
H4 H 0.67680 0.04110 1.17830
C6 C 0.68736(7) 0.21424(6) 1.07890(7)
C7 C 0.35989(7) 0.33640(6) 1.05605(8)
C8 C 0.50088(7) 0.34990(6) 1.11215(8)
C9 C 0.58136(8) 0.44999(6) 1.20780(8)
H5 H 0.67240 0.43620 1.25170
C10 C 1.09685(9) 0.1171(1) 1.16471(12)
H6 H 1.14600 0.19280 1.15620
H7 H 1.10480 0.05450 1.08950
H8 H 1.13190 0.08230 1.26870
#END
