
#######################################################################
#
#                 Cambridge Crystallographic Data Centre
#                                CCDC
#
#######################################################################
#
# If this CIF has been generated from an entry in the Cambridge
# Structural Database, then it will include bibliographic, chemical,
# crystal, experimental, refinement or atomic coordinate data resulting
# from the CCDC's data processing and validation procedures.
#
#######################################################################

data_CSD_CIF_TUPFAL
_audit_creation_date 1997-07-04
_audit_creation_method CSD-ConQuest-V1
_database_code_CSD TUPFAL
_database_code_depnum_ccdc_journal 207/39
_chemical_formula_sum 'C32 H37 N3 O12'
_chemical_formula_moiety
;
C32 H37 N3 O12
;
_journal_coden_Cambridge 207
_journal_year 1996
_journal_page_first 2103
_journal_name_full 'J.Chem.Soc.,Perkin Trans.1 '
loop_
_publ_author_name
"A.C.Spivey"
"C.S.Frampton"
"A.R.Battersby"
_chemical_name_systematic
;
N-Nitroso-9-benzyloxycarbonyl-2,8-bis(methoxycarbonylethyl)-3,7-bis(methoxycar
bonylmethyl)-4-methyl-4,5-dihydrodipyrrin-1-(10H)-one
;
_chemical_melting_point 397.15
_cell_volume   3180.415
_exptl_crystal_colour 'yellow'
_exptl_crystal_density_diffrn 1.369
_exptl_special_details
;
Melting point range 397.15-399.15K

;
_diffrn_ambient_temperature 123
#These two values have been output from a single CSD field.
_refine_ls_R_factor_gt 0.037
_refine_ls_wR_factor_gt 0.037
_symmetry_cell_setting monoclinic
_symmetry_space_group_name_H-M 'P 21/c'
_symmetry_Int_Tables_number 14
loop_
_symmetry_equiv_pos_site_id
_symmetry_equiv_pos_as_xyz
1 x,y,z
2 -x,1/2+y,1/2-z
3 -x,-y,-z
4 x,-1/2-y,-1/2+z
_cell_length_a 14.047(2)
_cell_length_b 14.463(2)
_cell_length_c 16.802(2)
_cell_angle_alpha 90
_cell_angle_beta 111.297(2)
_cell_angle_gamma 90
_cell_formula_units_Z 4
loop_
_atom_type_symbol
_atom_type_radius_bond
C 0.68
H 0.23
N 0.68
O 0.68
loop_
_atom_site_label
_atom_site_type_symbol
_atom_site_fract_x
_atom_site_fract_y
_atom_site_fract_z
O1 O 1.2175(1) 1.0893(1) 0.8955(1)
O2 O 0.8630(1) 1.1598(1) 0.8810(1)
O3 O 0.8404(1) 1.0187(1) 0.9262(1)
O4 O 0.9068(1) 0.8652(1) 0.7045(1)
O5 O 0.8054(1) 0.9122(1) 0.5741(1)
O6 O 1.3711(1) 0.9211(1) 0.7970(1)
O7 O 1.2618(1) 0.5412(1) 0.7936(1)
O8 O 1.4053(1) 0.5697(1) 0.7695(1)
O9 O 1.4896(1) 0.6974(1) 1.0205(1)
O10 O 1.4224(1) 0.8251(1) 1.0504(1)
O11 O 1.0579(1) 0.6708(1) 0.9879(1)
O12 O 0.9824(1) 0.8005(1) 0.9170(1)
N1 N 1.2317(1) 0.9874(1) 0.7927(1)
N2 N 1.3319(1) 0.9724(1) 0.8344(1)
N3 N 1.0993(1) 0.8019(1) 0.8218(1)
C1 C 1.1785(1) 1.0451(1) 0.8305(1)
C2 C 1.0707(1) 1.0415(1) 0.7729(1)
C3 C 1.0633(1) 0.9905(1) 0.7044(1)
C4 C 1.1651(1) 0.9505(1) 0.7087(1)
C5 C 1.1643(1) 0.8432(1) 0.7057(1)
C6 C 1.1717(1) 0.7936(1) 0.7861(1)
C7 C 1.2443(1) 0.7307(1) 0.8345(1)
C8 C 1.2139(1) 0.6993(1) 0.9016(1)
C9 C 1.1225(1) 0.7436(1) 0.8912(1)
C10 C 0.9903(1) 1.0898(1) 0.7959(1)
C11 C 0.9601(1) 1.0313(1) 0.8590(1)
C12 C 0.8836(1) 1.0786(1) 0.8885(1)
C13 C 0.7628(2) 1.0576(1) 0.9541(1)
C14 C 0.9693(1) 0.9749(1) 0.6265(1)
C15 C 0.8921(1) 0.9115(1) 0.6409(1)
C16 C 0.7230(2) 0.8578(2) 0.5832(1)
C17 C 1.1960(1) 0.9903(1) 0.6370(1)
C18 C 1.3341(1) 0.6959(1) 0.8150(1)
C19 C 1.3266(1) 0.5942(1) 0.7915(1)
C20 C 1.4107(2) 0.4714(2) 0.7518(2)
C21 C 1.2719(1) 0.6343(1) 0.9728(1)
C22 C 1.3385(1) 0.6855(1) 1.0546(1)
C23 C 1.4253(1) 0.7344(1) 1.0405(1)
C24 C 1.4991(2) 0.8785(2) 1.0325(2)
C25 C 1.0539(1) 0.7328(1) 0.9379(1)
C26 C 0.9046(1) 0.7966(1) 0.9542(1)
C27 C 0.8018(1) 0.7720(1) 0.8890(1)
C28 C 0.7876(1) 0.7411(1) 0.8072(1)
C29 C 0.6911(2) 0.7158(1) 0.7514(1)
C30 C 0.6080(2) 0.7207(2) 0.7764(1)
C31 C 0.6212(2) 0.7551(2) 0.8570(2)
C32 C 0.7173(2) 0.7803(2) 0.9125(1)
H1 H 1.0196(14) 1.1490(14) 0.8230(12)
H2 H 0.9308(15) 1.1011(14) 0.7450(13)
H3 H 1.0216(15) 1.0169(13) 0.9085(12)
H4 H 0.9313(14) 0.9747(14) 0.8350(12)
H5 H 0.7900(18) 1.1040(18) 1.0001(16)
H6 H 0.7106(16) 1.0901(15) 0.9064(14)
H7 H 0.7347(16) 1.0048(16) 0.9740(14)
H8 H 0.9361(16) 1.0324(15) 0.6066(14)
H9 H 0.9853(16) 0.9468(15) 0.5791(14)
H10 H 0.6635(19) 0.8671(17) 0.5276(16)
H11 H 0.7059(16) 0.8826(15) 0.6317(14)
H12 H 0.7448(16) 0.7926(16) 0.5927(14)
H13 H 1.1509(15) 0.9639(14) 0.5824(13)
H14 H 1.2661(16) 0.9758(14) 0.6455(12)
H15 H 1.1905(15) 1.0583(16) 0.6362(13)
H16 H 1.2218(14) 0.8251(13) 0.6903(12)
H17 H 1.1008(15) 0.8262(14) 0.6581(13)
H18 H 1.3433(15) 0.7304(14) 0.7656(13)
H19 H 1.3972(15) 0.7013(13) 0.8624(12)
H20 H 1.4692(20) 0.4677(18) 0.7319(17)
H21 H 1.4312(20) 0.4382(19) 0.8094(18)
H22 H 1.3409(21) 0.4513(18) 0.7098(17)
H23 H 1.3170(14) 0.5945(13) 0.9548(11)
H24 H 1.2265(14) 0.5950(13) 0.9878(11)
H25 H 1.2982(14) 0.7290(14) 1.0737(12)
H26 H 1.3701(15) 0.6409(14) 1.1007(13)
H27 H 1.4874(25) 0.8792(24) 0.9699(23)
H28 H 1.4885(27) 0.9413(27) 1.0529(23)
H29 H 1.5663(23) 0.8549(20) 1.0589(19)
H30 H 0.9033(14) 0.8585(14) 0.9775(12)
H31 H 0.9251(14) 0.7511(14) 1.0011(13)
H32 H 0.8457(16) 0.7385(14) 0.7902(13)
H33 H 0.6828(17) 0.6915(16) 0.6941(15)
H34 H 0.5382(18) 0.7022(16) 0.7392(15)
H35 H 0.5645(19) 0.7583(17) 0.8759(16)
H36 H 0.7277(17) 0.8054(16) 0.9696(15)
H37 H 1.0383(15) 0.8319(13) 0.7970(12)
#END
