
#######################################################################
#
#                 Cambridge Crystallographic Data Centre
#                                CCDC
#
#######################################################################
#
# If this CIF has been generated from an entry in the Cambridge
# Structural Database, then it will include bibliographic, chemical,
# crystal, experimental, refinement or atomic coordinate data resulting
# from the CCDC's data processing and validation procedures.
#
#######################################################################

data_CSD_CIF_TUPZUA
_audit_creation_date 2010-07-26
_audit_creation_method CSD-ConQuest-V1
_database_code_CSD TUPZUA
_database_code_depnum_ccdc_archive 'CCDC 781416'
_chemical_formula_sum 'C12 H11 N3 O4'
_chemical_formula_moiety
;
C12 H11 N3 O4
;
_journal_coeditor_code "IUCr EZ2209"
_journal_coden_Cambridge 1370
_journal_volume 66
_journal_year 2010
_journal_page_first o1450
_journal_name_full 'Acta Crystallogr.,Sect.E:Struct.Rep.Online '
loop_
_publ_author_name
"G.A.Romeiro"
"C.M.R.Ribeiro"
"S.M.S.V.Wardell"
"J.L.Wardell"
"S.W.Ng"
"E.R.T.Tiekink"
_chemical_name_systematic
;
4-[(Dimethylamino)methylidene]-2-(4-nitrophenyl)-1,3-oxazol-5(4H)-one
;
_chemical_name_common
;
4-((Dimethylamino)methylene)-2-(4-nitrophenyl)-1,3-oxazol-5(4H)-one
;
_cell_volume   1133.153
_exptl_crystal_colour 'red'
_exptl_crystal_density_diffrn 1.531
_exptl_crystal_description 'block'
_diffrn_ambient_temperature 120
#These two values have been output from a single CSD field.
_refine_ls_R_factor_gt 0.065
_refine_ls_wR_factor_gt 0.065
_symmetry_cell_setting monoclinic
_symmetry_space_group_name_H-M 'P 21/c'
_symmetry_Int_Tables_number 14
loop_
_symmetry_equiv_pos_site_id
_symmetry_equiv_pos_as_xyz
1 x,y,z
2 -x,1/2+y,1/2-z
3 -x,-y,-z
4 x,-1/2-y,-1/2+z
_cell_length_a 9.5313(2)
_cell_length_b 9.5204(3)
_cell_length_c 13.0349(4)
_cell_angle_alpha 90
_cell_angle_beta 106.661(2)
_cell_angle_gamma 90
_cell_formula_units_Z 4
loop_
_atom_type_symbol
_atom_type_radius_bond
C 0.68
H 0.23
N 0.68
O 0.68
loop_
_atom_site_label
_atom_site_type_symbol
_atom_site_fract_x
_atom_site_fract_y
_atom_site_fract_z
O1 O 0.3806(2) 0.5986(2) 0.33548(17)
O2 O 0.2556(3) 0.4481(2) 0.20576(17)
O3 O 0.8419(3) 1.1001(3) 0.6327(2)
O4 O 0.7443(3) 1.0746(3) 0.76142(19)
N1 N 0.2875(3) 0.5457(3) 0.4711(2)
N2 N 0.0528(3) 0.3059(3) 0.4441(2)
N3 N 0.7556(3) 1.0430(3) 0.6733(2)
C1 C 0.3786(3) 0.6220(3) 0.4393(2)
C2 C 0.2186(3) 0.4617(3) 0.3831(2)
C3 C 0.2761(3) 0.4921(3) 0.2958(2)
C4 C 0.1130(3) 0.3590(3) 0.3735(2)
H1 H 0.07780 0.31990 0.30380
C5 C 0.0939(4) 0.3462(4) 0.5569(3)
H2 H 0.13780 0.26550 0.60120
H3 H 0.00660 0.37680 0.57610
H4 H 0.16490 0.42330 0.56910
C6 C -0.0548(4) 0.1947(4) 0.4138(3)
H5 H -0.07800 0.17780 0.33660
H6 H -0.14400 0.22230 0.43170
H7 H -0.01520 0.10860 0.45260
C7 C 0.4765(3) 0.7290(3) 0.4994(2)
C8 C 0.4797(3) 0.7571(3) 0.6051(2)
H8 H 0.41840 0.70560 0.63750
C9 C 0.5715(3) 0.8590(3) 0.6624(2)
H9 H 0.57350 0.87940 0.73420
C10 C 0.6608(3) 0.9314(3) 0.6135(2)
C11 C 0.6608(3) 0.9058(3) 0.5089(2)
H10 H 0.72310 0.95710 0.47720
C12 C 0.5676(3) 0.8035(3) 0.4519(2)
H11 H 0.56550 0.78380 0.38000
#END
