
#######################################################################
#
#                 Cambridge Crystallographic Data Centre
#                                CCDC
#
#######################################################################
#
# If this CIF has been generated from an entry in the Cambridge
# Structural Database, then it will include bibliographic, chemical,
# crystal, experimental, refinement or atomic coordinate data resulting
# from the CCDC's data processing and validation procedures.
#
#######################################################################

data_CSD_CIF_TUQCOX
_audit_creation_date 1997-07-03
_audit_creation_method CSD-ConQuest-V1
_database_code_CSD TUQCOX
_database_code_depnum_ccdc_archive 'CCDC 1277105'
_chemical_formula_sum 'C18 H15 N3 O2'
_chemical_formula_moiety
;
C18 H15 N3 O2
;
_journal_coden_Cambridge 34
_journal_volume 33
_journal_year 1996
_journal_page_first 1345
_journal_name_full 'J.Heterocycl.Chem. '
loop_
_publ_author_name
"P.Aulaskari"
"M.Ahlgren"
"J.Rouvinen"
"P.Vainiotalo"
"E.Pohjala"
"J.Vepsalainen"
_chemical_name_systematic
;
1-Benzyl-5-((2-nitro-2-phenyl)ethenyl)imidazole
;
_cell_volume   1597.221
_exptl_crystal_density_diffrn 1.27
_exptl_special_details
;
orthorhombic polymorph

;
_diffrn_ambient_temperature ?
_diffrn_special_details
;
The study was carried out at room temperature,in the range 283-303K

;
#These two values have been output from a single CSD field.
_refine_ls_R_factor_gt 0.061
_refine_ls_wR_factor_gt 0.061
_symmetry_cell_setting orthorhombic
_symmetry_space_group_name_H-M 'P n a 21'
_symmetry_Int_Tables_number 33
loop_
_symmetry_equiv_pos_site_id
_symmetry_equiv_pos_as_xyz
1 x,y,z
2 -x,-y,1/2+z
3 1/2-x,1/2+y,1/2+z
4 1/2+x,1/2-y,z
_cell_length_a 12.953(4)
_cell_length_b 5.896(1)
_cell_length_c 20.914(6)
_cell_angle_alpha 90
_cell_angle_beta 90
_cell_angle_gamma 90
_cell_formula_units_Z 4
loop_
_atom_type_symbol
_atom_type_radius_bond
C 0.68
N 0.68
O 0.68
loop_
_atom_site_label
_atom_site_type_symbol
_atom_site_fract_x
_atom_site_fract_y
_atom_site_fract_z
O1 O 0.4840(4) 1.1283(9) -0.1397(4)
O2 O 0.5780(4) 1.0735(9) -0.0564(4)
N1 N 0.4692(4) 0.3698(10) 0.04680
N2 N 0.3109(6) 0.2282(13) 0.0361(4)
N3 N 0.5044(5) 1.0231(11) -0.0905(4)
C1 C 0.4024(7) 0.2083(14) 0.0636(4)
C2 C 0.3208(6) 0.4151(13) -0.0028(5)
C3 C 0.4185(5) 0.5089(12) 0.0022(4)
C4 C 0.5747(5) 0.3909(13) 0.0706(4)
C5 C 0.5848(3) 0.5832(9) 0.1187(3)
C6 C 0.67250 0.72050 0.11830
C7 C 0.68330 0.89230 0.16370
C8 C 0.60650 0.92670 0.20940
C9 C 0.51880 0.78940 0.20980
C10 C 0.50790 0.61770 0.16440
C11 C 0.4705(5) 0.7021(12) -0.0251(4)
C12 C 0.4382(5) 0.8297(12) -0.0744(4)
C13 C 0.3458(3) 0.7946(7) -0.1160(3)
C14 C 0.34280 0.61080 -0.15800
C15 C 0.25810 0.58100 -0.19830
C16 C 0.17640 0.73500 -0.19670
C17 C 0.17940 0.91880 -0.15470
C18 C 0.26410 0.94860 -0.11440
#END
