
#######################################################################
#
#                 Cambridge Crystallographic Data Centre
#                                CCDC
#
#######################################################################
#
# If this CIF has been generated from an entry in the Cambridge
# Structural Database, then it will include bibliographic, chemical,
# crystal, experimental, refinement or atomic coordinate data resulting
# from the CCDC's data processing and validation procedures.
#
#######################################################################

data_CSD_CIF_TUQCUF
_audit_creation_date 2015-09-30
_audit_creation_method CSD-ConQuest-V1
_database_code_CSD TUQCUF
_database_code_depnum_ccdc_archive 'CCDC 1428739'
_chemical_formula_sum 'C18 H14 N2 O4'
_chemical_formula_moiety
;
C18 H14 N2 O4
;
_journal_coden_Cambridge 1277
_journal_volume 114
_journal_year 2010
_journal_page_first 172
_journal_name_full 'J.Phys.Chem.A '
loop_
_publ_author_name
"Y.Sonoda"
"S.Tsuzuki"
"M.Goto"
"N.Tohnai"
"M.Yoshida"
_chemical_name_systematic
;
1,1'-Hexa-1,3,5-triene-1,6-diylbis(2-nitrobenzene)
;
_cell_volume   1520.661
_exptl_crystal_colour 'yellow'
_exptl_crystal_density_diffrn 1.408
_exptl_crystal_description 'needle'
_diffrn_ambient_temperature 183
#These two values have been output from a single CSD field.
_refine_ls_R_factor_gt 0.0444
_refine_ls_wR_factor_gt 0.0444
_symmetry_cell_setting monoclinic
_symmetry_space_group_name_H-M 'P 21/n'
_symmetry_Int_Tables_number 14
loop_
_symmetry_equiv_pos_site_id
_symmetry_equiv_pos_as_xyz
1 x,y,z
2 1/2-x,1/2+y,1/2-z
3 -x,-y,-z
4 -1/2+x,-1/2-y,-1/2+z
_cell_length_a 19.3408(18)
_cell_length_b 3.8902(4)
_cell_length_c 20.2120(19)
_cell_angle_alpha 90
_cell_angle_beta 90.594(2)
_cell_angle_gamma 90
_cell_formula_units_Z 4
loop_
_atom_type_symbol
_atom_type_radius_bond
C 0.68
H 0.23
N 0.68
O 0.68
loop_
_atom_site_label
_atom_site_type_symbol
_atom_site_fract_x
_atom_site_fract_y
_atom_site_fract_z
C1 C 0.23137(7) -0.0065(4) 0.97209(7)
C2 C 0.17377(7) -0.0664(4) 0.93204(9)
H1 H 0.13360 -0.16900 0.95010
C3 C 0.17499(8) 0.0224(5) 0.86656(9)
H2 H 0.13550 -0.01440 0.83910
C4 C 0.23432(9) 0.1665(4) 0.84063(8)
H3 H 0.23530 0.23160 0.79540
C5 C 0.29231(8) 0.2162(4) 0.88042(7)
H4 H 0.33290 0.30930 0.86130
C6 C 0.29304(6) 0.1337(3) 0.94787(6)
C7 C 0.35660(6) 0.1767(3) 0.98743(6)
H5 H 0.36030 0.05360 1.02790
C8 C 0.40988(6) 0.3784(3) 0.97026(6)
H6 H 0.40570 0.51290 0.93120
C9 C 0.47290(6) 0.3999(3) 1.00835(6)
H7 H 0.47670 0.26580 1.04750
N1 N 0.22296(6) -0.0913(3) 1.04238(7)
O1 O 0.25922(6) 0.0514(4) 1.08385(6)
O2 O 0.17757(7) -0.2950(4) 1.05702(7)
C10 C 0.46700(8) 0.8452(4) 0.22788(6)
C11 C 0.42817(9) 0.7299(4) 0.17412(7)
H8 H 0.44600 0.74610 0.13060
C12 C 0.36394(11) 0.5927(5) 0.18431(9)
H9 H 0.33740 0.50710 0.14810
C13 C 0.33809(9) 0.5797(4) 0.24767(10)
H10 H 0.29370 0.48340 0.25490
C14 C 0.37621(8) 0.7056(4) 0.30084(8)
H11 H 0.35660 0.70150 0.34370
C15 C 0.44273(7) 0.8383(3) 0.29300(6)
C16 C 0.48148(7) 0.9777(4) 0.34985(6)
H12 H 0.51720 1.13920 0.34140
C17 C 0.46951(7) 0.8908(3) 0.41296(6)
H13 H 0.43530 0.72170 0.42160
C18 C 0.50596(7) 1.0411(4) 0.46816(6)
H14 H 0.54050 1.20810 0.45920
N2 N 0.53651(7) 0.9703(4) 0.21339(5)
O3 O 0.58352(6) 0.9104(4) 0.25247(5)
O4 O 0.54506(7) 1.1268(4) 0.16151(6)
C1B C 0.76863(7) 1.0065(4) 1.02791(7)
C2B C 0.82623(7) 1.0664(4) 1.06796(9)
H1B H 0.86640 1.16900 1.04990
C3B C 0.82501(8) 0.9776(5) 1.13344(9)
H2B H 0.86450 1.01440 1.16090
C4B C 0.76568(9) 0.8335(4) 1.15937(8)
H3B H 0.76470 0.76840 1.20460
C5B C 0.70769(8) 0.7838(4) 1.11958(7)
H4B H 0.66710 0.69070 1.13870
C6B C 0.70696(6) 0.8663(3) 1.05213(6)
C7B C 0.64340(6) 0.8233(3) 1.01257(6)
H5B H 0.63970 0.94640 0.97210
C8B C 0.59012(6) 0.6216(3) 1.02974(6)
H6B H 0.59430 0.48710 1.06880
C9B C 0.52710(6) 0.6001(3) 0.99165(6)
H7B H 0.52330 0.73420 0.95250
N1B N 0.77704(6) 1.0913(3) 0.95762(7)
O1B O 0.74078(6) 0.9486(4) 0.91615(6)
O2B O 0.82243(7) 1.2950(4) 0.94298(7)
C10B C 0.53300(8) 1.1548(4) 0.77212(6)
C11B C 0.57183(9) 1.2701(4) 0.82588(7)
H8B H 0.55400 1.25390 0.86940
C12B C 0.63606(11) 1.4073(5) 0.81569(9)
H9B H 0.66260 1.49290 0.85190
C13B C 0.66191(9) 1.4203(4) 0.75233(10)
H10B H 0.70630 1.51660 0.74510
C14B C 0.62379(8) 1.2944(4) 0.69916(8)
H11B H 0.64340 1.29850 0.65630
C15B C 0.55727(7) 1.1617(3) 0.70700(6)
C16B C 0.51852(7) 1.0223(4) 0.65015(6)
H12B H 0.48280 0.86080 0.65860
C17B C 0.53049(7) 1.1092(3) 0.58704(6)
H13B H 0.56470 1.27830 0.57840
C18B C 0.49404(7) 0.9589(4) 0.53184(6)
H14B H 0.45950 0.79190 0.54080
N2B N 0.46349(7) 1.0297(4) 0.78661(5)
O3B O 0.41648(6) 1.0896(4) 0.74753(5)
O4B O 0.45494(7) 0.8732(4) 0.83849(6)
#END
