
#######################################################################
#
#                 Cambridge Crystallographic Data Centre
#                                CCDC
#
#######################################################################
#
# If this CIF has been generated from an entry in the Cambridge
# Structural Database, then it will include bibliographic, chemical,
# crystal, experimental, refinement or atomic coordinate data resulting
# from the CCDC's data processing and validation procedures.
#
#######################################################################

data_CSD_CIF_TUQCOX01
_audit_creation_date 1997-07-03
_audit_creation_method CSD-ConQuest-V1
_database_code_CSD TUQCOX01
_database_code_depnum_ccdc_archive 'CCDC 1277106'
_chemical_formula_sum 'C18 H15 N3 O2'
_chemical_formula_moiety
;
C18 H15 N3 O2
;
_journal_coden_Cambridge 34
_journal_volume 33
_journal_year 1996
_journal_page_first 1345
_journal_name_full 'J.Heterocycl.Chem. '
loop_
_publ_author_name
"P.Aulaskari"
"M.Ahlgren"
"J.Rouvinen"
"P.Vainiotalo"
"E.Pohjala"
"J.Vepsalainen"
_chemical_name_systematic
;
1-Benzyl-5-((2-nitro-2-phenyl)ethenyl)imidazole
;
_cell_volume   1553.294
_exptl_crystal_density_diffrn 1.305
_exptl_special_details
;
monoclinic polymorph

;
_diffrn_ambient_temperature ?
_diffrn_special_details
;
The study was carried out at room temperature,in the range 283-303K

;
#These two values have been output from a single CSD field.
_refine_ls_R_factor_gt 0.051
_refine_ls_wR_factor_gt 0.051
_symmetry_cell_setting monoclinic
_symmetry_space_group_name_H-M 'P 21/c'
_symmetry_Int_Tables_number 14
loop_
_symmetry_equiv_pos_site_id
_symmetry_equiv_pos_as_xyz
1 x,y,z
2 -x,1/2+y,1/2-z
3 -x,-y,-z
4 x,-1/2-y,-1/2+z
_cell_length_a 19.866(4)
_cell_length_b 6.106(1)
_cell_length_c 12.932(3)
_cell_angle_alpha 90
_cell_angle_beta 98.03(2)
_cell_angle_gamma 90
_cell_formula_units_Z 4
loop_
_atom_type_symbol
_atom_type_radius_bond
C 0.68
H 0.23
N 0.68
O 0.68
loop_
_atom_site_label
_atom_site_type_symbol
_atom_site_fract_x
_atom_site_fract_y
_atom_site_fract_z
O1 O 0.1082(1) -0.6290(3) 0.4457(2)
O2 O 0.1933(1) -0.5689(3) 0.5620(2)
N1 N 0.2988(1) 0.1211(3) 0.4891(2)
N2 N 0.2906(1) 0.2650(4) 0.3306(2)
N3 N 0.1583(1) -0.5237(4) 0.4797(2)
C1 C 0.3182(1) 0.2835(5) 0.4290(2)
C2 C 0.2509(1) 0.0817(5) 0.3276(2)
C3 C 0.2540(1) -0.0135(4) 0.4246(2)
C4 C 0.3205(2) 0.0944(5) 0.6017(2)
C5 C 0.3707(1) -0.0910(4) 0.6255(2)
C6 C 0.3657(2) -0.2301(5) 0.7087(2)
C7 C 0.4115(2) -0.3994(6) 0.7325(3)
C8 C 0.4633(2) -0.4311(6) 0.6742(3)
C9 C 0.4686(2) -0.2940(6) 0.5912(3)
C10 C 0.4225(2) -0.1251(5) 0.5666(3)
C11 C 0.2248(1) -0.2036(4) 0.4662(2)
C12 C 0.1753(1) -0.3322(4) 0.4187(2)
C13 C 0.1333(1) -0.3043(4) 0.3148(2)
C14 C 0.0904(1) -0.1235(5) 0.2975(2)
C15 C 0.0506(2) -0.0957(5) 0.2011(2)
C16 C 0.0540(2) -0.2469(5) 0.1221(2)
C17 C 0.0964(2) -0.4249(5) 0.1389(2)
C18 C 0.1362(1) -0.4538(5) 0.2347(2)
H1 H 0.3485(14) 0.4041(48) 0.4580(21)
H2 H 0.2244(13) 0.0254(44) 0.2627(21)
H3 H 0.3413(14) 0.2464(46) 0.6226(20)
H4 H 0.2774(14) 0.0676(45) 0.6360(21)
H5 H 0.3272(14) -0.1993(44) 0.7542(21)
H6 H 0.4071(16) -0.5028(55) 0.7957(28)
H7 H 0.4969(17) -0.5540(57) 0.6912(25)
H8 H 0.5023(18) -0.3125(57) 0.5492(25)
H9 H 0.4264(14) -0.0313(47) 0.5087(23)
H10 H 0.2429(12) -0.2451(40) 0.5376(20)
H11 H 0.0887(13) -0.0237(45) 0.3575(21)
H12 H 0.0176(15) 0.0234(52) 0.1891(23)
H13 H 0.0232(15) -0.2360(49) 0.0546(24)
H14 H 0.0897(13) -0.5324(47) 0.0847(22)
H15 H 0.1679(15) -0.5448(48) 0.2494(21)
#END
