
#######################################################################
#
#                 Cambridge Crystallographic Data Centre
#                                CCDC
#
#######################################################################
#
# If this CIF has been generated from an entry in the Cambridge
# Structural Database, then it will include bibliographic, chemical,
# crystal, experimental, refinement or atomic coordinate data resulting
# from the CCDC's data processing and validation procedures.
#
#######################################################################

data_CSD_CIF_TUQDOA
_audit_creation_date 2015-09-30
_audit_creation_method CSD-ConQuest-V1
_database_code_CSD TUQDOA
_database_code_depnum_ccdc_archive 'CCDC 1428744'
_chemical_formula_sum 'C61 H61 N3 O1'
_chemical_formula_moiety
;
C61 H61 N3 O1
;
_journal_coden_Cambridge 1277
_journal_volume 114
_journal_year 2010
_journal_page_first 884
_journal_name_full 'J.Phys.Chem.A '
loop_
_publ_author_name
"Kazuya Suwa"
"J.Otsuki"
"Kei Goto"
_chemical_name_systematic
;
4-((4-t-Butyl-2,6-bis((2,2'',6,6''-tetramethyl-1,1':3',1''-terphenyl-2'-yl)met
hyl)phenyl)-NNO-azoxy)pyridine
;
_cell_volume   4825.238
_exptl_crystal_colour 'yellow'
_exptl_crystal_density_diffrn 1.173
_exptl_crystal_description 'block'
_diffrn_ambient_temperature 120
_refine_special_details
;
C84,C85,C86,C87,C88,C89,C90,C91 and 
H123,H124,H125,H126,H127,H128,H129,H130,H131 disordered over two sites with 
occupancies 0.74:0.26.
;
#These two values have been output from a single CSD field.
_refine_ls_R_factor_gt 0.066
_refine_ls_wR_factor_gt 0.066
_symmetry_cell_setting triclinic
_symmetry_space_group_name_H-M 'P -1'
_symmetry_Int_Tables_number 2
loop_
_symmetry_equiv_pos_site_id
_symmetry_equiv_pos_as_xyz
1 x,y,z
2 -x,-y,-z
_cell_length_a 13.967(8)
_cell_length_b 17.661(9)
_cell_length_c 20.091(11)
_cell_angle_alpha 95.541(9)
_cell_angle_beta 99.166(9)
_cell_angle_gamma 96.727(9)
_cell_formula_units_Z 4
loop_
_atom_type_symbol
_atom_type_radius_bond
C 0.68
H 0.23
N 0.68
O 0.68
loop_
_atom_site_label
_atom_site_type_symbol
_atom_site_fract_x
_atom_site_fract_y
_atom_site_fract_z
N1 N 0.01958(13) 0.15372(10) 0.15748(10)
N2 N 0.01209(13) 0.08878(11) 0.12094(10)
O1 O 0.04484(12) 0.07472(9) 0.06710(9)
C1 C -0.04458(18) 0.02423(14) 0.14431(14)
C2 C -0.0707(2) 0.03206(18) 0.20741(16)
H1 H -0.05150 0.07810 0.23760
C3 C -0.1268(3) -0.0309(2) 0.22466(18)
H2 H -0.14510 -0.02690 0.26830
N3 N -0.1568(2) -0.09674(17) 0.18398(17)
C4 C -0.1294(2) -0.10099(18) 0.12413(19)
H3 H -0.14960 -0.14750 0.09470
C5 C -0.0729(2) -0.04207(15) 0.10079(16)
H4 H -0.05500 -0.04760 0.05710
C6 C 0.06533(15) 0.21764(12) 0.13067(11)
C7 C 0.15931(15) 0.22159(12) 0.11399(11)
C8 C 0.19242(15) 0.28477(13) 0.08407(11)
H5 H 0.25480 0.28690 0.07070
C9 C 0.13872(16) 0.34531(13) 0.07268(11)
C10 C 0.05028(16) 0.34265(12) 0.09689(11)
H6 H 0.01440 0.38500 0.09300
C11 C 0.01289(15) 0.28044(12) 0.12637(11)
C12 C 0.17988(16) 0.41099(13) 0.03678(12)
C13 C 0.10697(19) 0.46760(15) 0.02157(14)
H7 H 0.04650 0.44030 -0.00630
H8 H 0.13520 0.50750 -0.00300
H9 H 0.09230 0.49140 0.06430
C14 C 0.2029(2) 0.37776(15) -0.03170(13)
H10 H 0.22900 0.41970 -0.05510
H11 H 0.14290 0.35010 -0.05980
H12 H 0.25150 0.34240 -0.02380
C15 C 0.27244(18) 0.45449(14) 0.08052(14)
H13 H 0.25700 0.47670 0.12350
H14 H 0.29920 0.49560 0.05660
H15 H 0.32080 0.41920 0.08970
C16 C 0.22705(15) 0.16258(12) 0.13043(12)
H16 H 0.23950 0.13660 0.08740
H17 H 0.19350 0.12330 0.15390
C17 C 0.32463(15) 0.19522(12) 0.17451(11)
C18 C 0.32859(16) 0.22811(13) 0.24168(12)
C19 C 0.41864(17) 0.25323(14) 0.28302(12)
H18 H 0.42050 0.27600 0.32810
C20 C 0.50544(18) 0.24582(15) 0.25990(14)
H19 H 0.56640 0.26160 0.28930
C21 C 0.50268(17) 0.21548(14) 0.19404(13)
H20 H 0.56230 0.21100 0.17780
C22 C 0.41352(16) 0.19092(13) 0.15027(12)
C23 C 0.23928(16) 0.23890(13) 0.27214(11)
C24 C 0.21119(17) 0.31261(14) 0.27894(12)
C25 C 0.13301(19) 0.32435(16) 0.31136(13)
H21 H 0.11210 0.37360 0.31480
C26 C 0.08518(19) 0.26535(17) 0.33870(14)
H22 H 0.03270 0.27450 0.36190
C27 C 0.11302(19) 0.19352(16) 0.33249(13)
H23 H 0.07960 0.15330 0.35160
C28 C 0.18964(18) 0.17866(14) 0.29862(12)
C29 C 0.2637(2) 0.37870(14) 0.25146(13)
H24 H 0.22250 0.41990 0.24770
H25 H 0.27740 0.36140 0.20650
H26 H 0.32530 0.39790 0.28220
C30 C 0.2167(2) 0.09872(14) 0.29206(13)
H27 H 0.21570 0.07730 0.33520
H28 H 0.28250 0.10030 0.28060
H29 H 0.16960 0.06650 0.25610
C31 C 0.41674(16) 0.16386(13) 0.07837(12)
C32 C 0.40668(17) 0.08605(14) 0.05484(12)
C33 C 0.40964(19) 0.06392(15) -0.01316(14)
H30 H 0.40380 0.01100 -0.02930
C34 C 0.4209(2) 0.11834(18) -0.05729(15)
H31 H 0.42010 0.10290 -0.10400
C35 C 0.4334(2) 0.19518(16) -0.03300(14)
H32 H 0.44200 0.23240 -0.06340
C36 C 0.43365(18) 0.21929(14) 0.03451(13)
C37 C 0.39555(19) 0.02681(14) 0.10295(13)
H33 H 0.39460 -0.02440 0.07900
H34 H 0.33420 0.02940 0.12030
H35 H 0.45070 0.03680 0.14090
C38 C 0.45606(19) 0.30318(14) 0.06017(15)
H36 H 0.52570 0.31570 0.07960
H37 H 0.41680 0.31510 0.09520
H38 H 0.44020 0.33350 0.02250
C39 C -0.07870(15) 0.28144(13) 0.15773(11)
H39 H -0.10850 0.22760 0.15700
H40 H -0.05880 0.30320 0.20590
C40 C -0.15681(15) 0.32541(12) 0.12540(11)
C41 C -0.21112(16) 0.29769(13) 0.06071(12)
C42 C -0.28343(16) 0.33754(14) 0.03130(13)
H41 H -0.31930 0.31890 -0.01260
C43 C -0.30406(16) 0.40397(13) 0.06497(12)
H42 H -0.35350 0.43100 0.04420
C44 C -0.25278(16) 0.43092(13) 0.12877(12)
H43 H -0.26750 0.47640 0.15200
C45 C -0.17927(15) 0.39219(13) 0.15983(11)
C46 C -0.19147(16) 0.22510(14) 0.02401(12)
C47 C -0.22637(17) 0.15426(14) 0.04343(13)
C48 C -0.20284(18) 0.08749(15) 0.01122(14)
H44 H -0.22520 0.03920 0.02440
C49 C -0.14716(19) 0.09040(16) -0.03989(14)
H45 H -0.13020 0.04450 -0.06090
C50 C -0.11663(18) 0.15967(16) -0.06011(13)
H46 H -0.07970 0.16110 -0.09590
C51 C -0.13852(17) 0.22810(15) -0.02948(12)
C52 C -0.2911(2) 0.14882(15) 0.09614(15)
H47 H -0.35950 0.14710 0.07450
H48 H -0.27270 0.19380 0.13040
H49 H -0.28320 0.10210 0.11790
C53 C -0.10680(19) 0.30232(16) -0.05462(13)
H50 H -0.15690 0.31200 -0.09170
H51 H -0.04480 0.29950 -0.07110
H52 H -0.09790 0.34420 -0.01750
C54 C -0.12587(16) 0.42359(13) 0.22954(11)
C55 C -0.05606(16) 0.48908(13) 0.23826(12)
C56 C -0.00567(18) 0.51651(14) 0.30305(13)
H53 H 0.04280 0.56020 0.30920
C57 C -0.02530(18) 0.48098(15) 0.35856(13)
H54 H 0.01010 0.49990 0.40260
C58 C -0.09608(18) 0.41825(14) 0.35006(12)
H55 H -0.11030 0.39500 0.38870
C59 C -0.14759(17) 0.38802(14) 0.28580(12)
C60 C -0.0349(2) 0.53040(15) 0.17935(13)
H56 H -0.08410 0.56470 0.16890
H57 H -0.03690 0.49290 0.13970
H58 H 0.03020 0.56060 0.19100
C61 C -0.22404(19) 0.31928(15) 0.27818(14)
H59 H -0.19840 0.27390 0.25970
H60 H -0.28240 0.32780 0.24720
H61 H -0.24120 0.31120 0.32260
N4 N 0.47642(13) -0.14972(10) 0.34166(10)
N5 N 0.48264(13) -0.08614(11) 0.37929(10)
O2 O 0.45418(12) -0.07509(9) 0.43548(9)
C62 C 0.53362(17) -0.01969(14) 0.35542(14)
C63 C 0.5589(2) -0.02586(17) 0.29182(15)
H62 H 0.54090 -0.07180 0.26140
C64 C 0.6123(2) 0.03860(19) 0.27437(18)
H63 H 0.62940 0.03570 0.23040
N6 N 0.6413(2) 0.10430(15) 0.31533(16)
C65 C 0.6144(2) 0.10709(17) 0.37621(19)
H64 H 0.63370 0.15330 0.40610
C66 C 0.56004(19) 0.04680(15) 0.39873(16)
H65 H 0.54190 0.05150 0.44240
C67 C 0.43794(15) -0.21700(12) 0.36746(11)
C68 C 0.49279(15) -0.27805(12) 0.36225(11)
C69 C 0.46165(16) -0.34599(13) 0.38648(11)
H66 H 0.49950 -0.38710 0.38380
C70 C 0.37732(16) -0.35588(13) 0.41440(12)
C71 C 0.32113(16) -0.29589(13) 0.41450(12)
H67 H 0.26190 -0.30210 0.43220
C72 C 0.34796(15) -0.22748(12) 0.38989(11)
C73 C 0.34422(17) -0.42994(14) 0.44353(13)
C74 C 0.4048(2) -0.49333(15) 0.42663(16)
H68 H 0.47380 -0.47650 0.44620
H69 H 0.39790 -0.50450 0.37720
H70 H 0.38160 -0.53970 0.44560
C75 C 0.3537(2) -0.41324(16) 0.52003(14)
H71 H 0.42170 -0.39300 0.53980
H72 H 0.33450 -0.46070 0.53900
H73 H 0.31090 -0.37520 0.53070
C76 C 0.23669(18) -0.46027(14) 0.41324(14)
H74 H 0.21680 -0.50750 0.43220
H75 H 0.22970 -0.47100 0.36380
H76 H 0.19510 -0.42160 0.42440
C77 C 0.58024(16) -0.27200(13) 0.32553(11)
H77 H 0.55710 -0.29370 0.27760
H78 H 0.60380 -0.21690 0.32570
C78 C 0.66659(15) -0.31093(12) 0.35329(11)
C79 C 0.69280(16) -0.37446(13) 0.31619(12)
C80 C 0.77354(17) -0.40806(14) 0.34318(12)
H79 H 0.79120 -0.45110 0.31810
C81 C 0.82813(18) -0.37970(14) 0.40587(13)
H80 H 0.88250 -0.40350 0.42400
C82 C 0.80340(17) -0.31669(14) 0.44204(12)
H81 H 0.84120 -0.29710 0.48520
C83 C 0.72367(16) -0.28128(13) 0.41614(12)
C84 C 0.6359(5) -0.4102(5) 0.2511(4)
C85 C 0.6390(5) -0.3725(4) 0.1914(4)
C86 C 0.5845(7) -0.4047(6) 0.1308(5)
H82 H 0.58590 -0.37820 0.09200
C87 C 0.5262(6) -0.4761(4) 0.1246(4)
H83 H 0.48900 -0.49800 0.08190
C88 C 0.5235(9) -0.5135(6) 0.1797(7)
H84 H 0.48380 -0.56180 0.17570
C89 C 0.5771(7) -0.4829(6) 0.2415(5)
C90 C 0.6994(7) -0.2920(6) 0.1952(5)
H85 H 0.72450 -0.28730 0.15270
H86 H 0.75440 -0.28570 0.23320
H87 H 0.65740 -0.25220 0.20220
C91 C 0.5780(5) -0.5288(4) 0.3031(3)
H88 H 0.52390 -0.57110 0.29320
H89 H 0.57040 -0.49490 0.34290
H90 H 0.64030 -0.54950 0.31220
C92 C 0.70118(16) -0.21247(13) 0.45650(12)
C93 C 0.65528(16) -0.22115(13) 0.51281(12)
C94 C 0.63327(18) -0.15641(14) 0.54960(12)
H91 H 0.60130 -0.16200 0.58760
C95 C 0.65739(18) -0.08433(14) 0.53142(13)
H92 H 0.64170 -0.04050 0.55660
C96 C 0.70446(17) -0.07576(14) 0.47655(13)
H93 H 0.72170 -0.02570 0.46480
C97 C 0.72698(16) -0.13867(13) 0.43841(12)
C98 C 0.6309(2) -0.29882(14) 0.53537(13)
H94 H 0.62150 -0.33840 0.49630
H95 H 0.57060 -0.30010 0.55470
H96 H 0.68460 -0.30860 0.56980
C99 C 0.78187(19) -0.12674(15) 0.38052(14)
H97 H 0.77350 -0.07640 0.36550
H98 H 0.75620 -0.16700 0.34270
H99 H 0.85160 -0.12910 0.39580
C100 C 0.27507(15) -0.16998(12) 0.38276(11)
H100 H 0.30070 -0.12800 0.35840
H101 H 0.26850 -0.14720 0.42850
C101 C 0.17443(16) -0.20592(12) 0.34461(11)
C102 C 0.16330(16) -0.23665(12) 0.27633(11)
C103 C 0.07146(17) -0.26866(14) 0.24127(12)
H102 H 0.06400 -0.28840 0.19480
C104 C -0.00949(18) -0.27208(15) 0.27344(13)
H103 H -0.07180 -0.29540 0.24940
C105 C 0.00075(17) -0.24171(14) 0.33997(13)
H104 H -0.05500 -0.24370 0.36170
C106 C 0.09164(16) -0.20802(13) 0.37626(12)
C107 C 0.24689(16) -0.23490(13) 0.23790(11)
C108 C 0.28623(16) -0.30294(14) 0.22245(11)
C109 C 0.36198(18) -0.30103(17) 0.18501(13)
H105 H 0.39010 -0.34640 0.17530
C110 C 0.3965(2) -0.23408(19) 0.16203(14)
H106 H 0.44810 -0.23340 0.13640
C111 C 0.3564(2) -0.16783(18) 0.17597(13)
H107 H 0.38020 -0.12200 0.15920
C112 C 0.28193(18) -0.16709(14) 0.21408(12)
C113 C 0.24830(19) -0.37788(14) 0.24429(13)
H108 H 0.19670 -0.40560 0.20850
H109 H 0.22160 -0.36820 0.28610
H110 H 0.30180 -0.40890 0.25260
C114 C 0.2410(2) -0.09322(15) 0.22798(14)
H111 H 0.17470 -0.10460 0.23800
H112 H 0.23870 -0.06530 0.18800
H113 H 0.28290 -0.06170 0.26700
C115 C 0.09576(16) -0.17223(14) 0.44696(12)
C116 C 0.09446(17) -0.09217(14) 0.45824(13)
C117 C 0.09575(19) -0.05858(17) 0.52372(15)
H114 H 0.09280 -0.00500 0.53150
C118 C 0.1012(2) -0.1012(2) 0.57764(16)
H115 H 0.10430 -0.07700 0.62240
C119 C 0.1022(2) -0.17888(19) 0.56659(14)
H116 H 0.10630 -0.20800 0.60400
C120 C 0.09730(17) -0.21577(15) 0.50159(13)
C121 C 0.0919(2) -0.04390(15) 0.40078(15)
H117 H 0.08410 0.00870 0.41720
H118 H 0.03680 -0.06520 0.36470
H119 H 0.15320 -0.04360 0.38290
C122 C 0.0918(2) -0.30198(16) 0.49175(15)
H120 H 0.15260 -0.31700 0.51500
H121 H 0.08280 -0.31980 0.44320
H122 H 0.03640 -0.32510 0.51070
H123? H 0.59630 -0.36750 0.08350
H124? H 0.49280 -0.47740 0.07610
H125? H 0.48920 -0.54870 0.16860
H126? H 0.68490 -0.24640 0.18530
H127? H 0.76120 -0.30150 0.16480
H128? H 0.75280 -0.28200 0.24290
H129? H 0.61920 -0.55940 0.28560
H130? H 0.50660 -0.54650 0.27840
H131? H 0.58760 -0.49200 0.33320
#END
