
#######################################################################
#
#                 Cambridge Crystallographic Data Centre
#                                CCDC
#
#######################################################################
#
# If this CIF has been generated from an entry in the Cambridge
# Structural Database, then it will include bibliographic, chemical,
# crystal, experimental, refinement or atomic coordinate data resulting
# from the CCDC's data processing and validation procedures.
#
#######################################################################

data_CSD_CIF_TUQDAM
_audit_creation_date 2015-09-30
_audit_creation_method CSD-ConQuest-V1
_database_code_CSD TUQDAM
_database_code_depnum_ccdc_archive 'CCDC 1428740'
_chemical_formula_sum 'C18 H14 N2 O4'
_chemical_formula_moiety
;
C18 H14 N2 O4
;
_journal_coden_Cambridge 1277
_journal_volume 114
_journal_year 2010
_journal_page_first 172
_journal_name_full 'J.Phys.Chem.A '
loop_
_publ_author_name
"Y.Sonoda"
"S.Tsuzuki"
"M.Goto"
"N.Tohnai"
"M.Yoshida"
_chemical_name_systematic
;
1,1'-Hexa-1,3,5-triene-1,6-diylbis(3-nitrobenzene)
;
_cell_volume    758.061
_exptl_crystal_colour 'yellow'
_exptl_crystal_density_diffrn 1.412
_exptl_crystal_description 'needle'
_diffrn_ambient_temperature 183
#These two values have been output from a single CSD field.
_refine_ls_R_factor_gt 0.0482
_refine_ls_wR_factor_gt 0.0482
_symmetry_cell_setting triclinic
_symmetry_space_group_name_H-M 'P -1'
_symmetry_Int_Tables_number 2
loop_
_symmetry_equiv_pos_site_id
_symmetry_equiv_pos_as_xyz
1 x,y,z
2 -x,-y,-z
_cell_length_a 6.3063(10)
_cell_length_b 10.8492(17)
_cell_length_c 12.374(2)
_cell_angle_alpha 107.847(3)
_cell_angle_beta 98.976(3)
_cell_angle_gamma 103.827(3)
_cell_formula_units_Z 2
loop_
_atom_type_symbol
_atom_type_radius_bond
C 0.68
H 0.23
N 0.68
O 0.68
loop_
_atom_site_label
_atom_site_type_symbol
_atom_site_fract_x
_atom_site_fract_y
_atom_site_fract_z
C1 C 0.4666(3) 0.60221(16) 0.64147(13)
C2 C 0.6946(3) 0.63711(18) 0.68965(15)
H1 H 0.76020 0.57320 0.70730
C3 C 0.8244(3) 0.76852(19) 0.71141(16)
H2 H 0.98190 0.79630 0.74530
C4 C 0.7256(3) 0.85973(17) 0.68394(14)
H3 H 0.81730 0.94970 0.69980
C5 C 0.4947(3) 0.82320(16) 0.63352(13)
C6 C 0.3639(3) 0.69062(16) 0.61259(13)
H4 H 0.20630 0.66180 0.57890
C7 C 0.4004(3) 0.92422(16) 0.60519(14)
H5 H 0.50120 1.01340 0.62820
C8 C 0.1878(3) 0.90399(16) 0.55040(14)
H6 H 0.08390 0.81540 0.52590
C9 C 0.1072(3) 1.00944(16) 0.52645(14)
H7 H 0.21220 1.09740 0.54950
N1 N 0.3239(3) 0.46400(14) 0.62136(12)
O1 O 0.4152(2) 0.38244(13) 0.63822(13)
O2 O 0.1203(2) 0.43792(13) 0.58914(13)
C10 C 1.1786(3) 0.66924(16) 0.02443(15)
C11 C 1.2534(3) 0.63878(17) 0.12089(16)
H8 H 1.36240 0.59170 0.12190
C12 C 1.1640(3) 0.67921(19) 0.21633(16)
H9 H 1.21120 0.65970 0.28430
C13 C 1.0064(3) 0.74780(18) 0.21318(15)
H10 H 0.94430 0.77290 0.27880
C14 C 0.9358(3) 0.78134(16) 0.11671(14)
C15 C 1.0244(3) 0.73970(16) 0.01967(15)
H11 H 0.97910 0.75960 -0.04830
C16 C 0.7778(3) 0.86117(18) 0.11944(15)
H12 H 0.72430 0.88450 0.18830
C17 C 0.7008(3) 0.90465(17) 0.03581(16)
H13 H 0.75410 0.88360 -0.03330
C18 C 0.5430(3) 0.98093(18) 0.04291(16)
H14 H 0.49620 1.00620 0.11370
N2 N 1.2655(3) 0.62489(15) -0.08042(14)
O3 O 1.4051(3) 0.56529(17) -0.07686(14)
O4 O 1.1930(3) 0.64942(17) -0.16601(13)
C1A C -0.4666(3) 1.39779(16) 0.35853(13)
C2A C -0.6946(3) 1.36289(18) 0.31035(15)
H1A H -0.76020 1.42680 0.29270
C3A C -0.8244(3) 1.23148(19) 0.28859(16)
H2A H -0.98190 1.20370 0.25470
C4A C -0.7256(3) 1.14027(17) 0.31606(14)
H3A H -0.81730 1.05030 0.30020
C5A C -0.4947(3) 1.17680(16) 0.36648(13)
C6A C -0.3639(3) 1.30938(16) 0.38741(13)
H4A H -0.20630 1.33820 0.42110
C7A C -0.4004(3) 1.07578(16) 0.39481(14)
H5A H -0.50120 0.98660 0.37180
C8A C -0.1878(3) 1.09601(16) 0.44960(14)
H6A H -0.08390 1.18460 0.47410
C9A C -0.1072(3) 0.99056(16) 0.47355(14)
H7A H -0.21220 0.90260 0.45050
N1A N -0.3239(3) 1.53600(14) 0.37864(12)
O1A O -0.4152(2) 1.61756(13) 0.36178(13)
O2A O -0.1203(2) 1.56208(13) 0.41086(13)
C10A C -0.1786(3) 1.33076(16) -0.02443(15)
C11A C -0.2534(3) 1.36122(17) -0.12089(16)
H8A H -0.36240 1.40830 -0.12190
C12A C -0.1640(3) 1.32079(19) -0.21633(16)
H9A H -0.21120 1.34030 -0.28430
C13A C -0.0064(3) 1.25220(18) -0.21318(15)
H10A H 0.05570 1.22710 -0.27880
C14A C 0.0642(3) 1.21866(16) -0.11671(14)
C15A C -0.0244(3) 1.26030(16) -0.01967(15)
H11A H 0.02090 1.24040 0.04830
C16A C 0.2222(3) 1.13883(18) -0.11944(15)
H12A H 0.27570 1.11550 -0.18830
C17A C 0.2992(3) 1.09535(17) -0.03581(16)
H13A H 0.24590 1.11640 0.03330
C18A C 0.4570(3) 1.01907(18) -0.04291(16)
H14A H 0.50380 0.99380 -0.11370
N2A N -0.2655(3) 1.37511(15) 0.08042(14)
O3A O -0.4051(3) 1.43471(17) 0.07686(14)
O4A O -0.1930(3) 1.35058(17) 0.16601(13)
#END
