
#######################################################################
#
#                 Cambridge Crystallographic Data Centre
#                                CCDC
#
#######################################################################
#
# If this CIF has been generated from an entry in the Cambridge
# Structural Database, then it will include bibliographic, chemical,
# crystal, experimental, refinement or atomic coordinate data resulting
# from the CCDC's data processing and validation procedures.
#
#######################################################################

data_CSD_CIF_TUQGET
_audit_creation_date 2015-09-30
_audit_creation_method CSD-ConQuest-V1
_database_code_CSD TUQGET
_database_code_depnum_ccdc_archive 'CCDC 1400345'
_chemical_formula_sum 'C6 H9 N1 O6'
_chemical_formula_moiety
;
C6 H9 N1 O6
;
_journal_coden_Cambridge 891
_journal_volume 10
_journal_year 2015
_journal_page_first 1724
_journal_name_full 'ChemMedChem '
loop_
_publ_author_name
"N.Santschi"
"S.Wagner"
"C.Daniliuc"
"S.Hermann"
"M.Schafers"
"Ryan Gilmour"
_chemical_name_systematic
;
(S)-6-hydroxyhexahydrofuro[3,2-b]furan-3-yl nitrate
;
_chemical_name_common
;
Isosorbide Mononitrate; DrugBank: DB01020
;
_cell_volume   1650.926
_exptl_crystal_colour 'colorless'
_exptl_crystal_density_diffrn 1.538
_exptl_special_details
;
Absolute configuration

;
_exptl_crystal_description 'needle'
_diffrn_ambient_temperature 223
#These two values have been output from a single CSD field.
_refine_ls_R_factor_gt 0.0367
_refine_ls_wR_factor_gt 0.0367
loop_
_citation_database_id_CSD
_citation_special_details
PIMKOO "is a stereoisomer of this entry"
TUQGOD "is a stereoisomer of this entry"
_symmetry_cell_setting tetragonal
_symmetry_space_group_name_H-M 'P 43'
_symmetry_Int_Tables_number 78
loop_
_symmetry_equiv_pos_site_id
_symmetry_equiv_pos_as_xyz
1 x,y,z
2 -x,-y,1/2+z
3 -y,x,3/4+z
4 y,-x,1/4+z
_cell_length_a 15.9260(1)
_cell_length_b 15.9260(1)
_cell_length_c 6.5090(1)
_cell_angle_alpha 90
_cell_angle_beta 90
_cell_angle_gamma 90
_cell_formula_units_Z 8
loop_
_atom_type_symbol
_atom_type_radius_bond
C 0.68
H 0.23
N 0.68
O 0.68
loop_
_atom_site_label
_atom_site_type_symbol
_atom_site_fract_x
_atom_site_fract_y
_atom_site_fract_z
O1 O 0.27975(9) 0.40088(10) 0.1326(2)
O2 O 0.32434(11) 0.32401(11) -0.3168(3)
O3 O 0.45918(11) 0.41669(11) 0.0737(3)
H1 H 0.501(2) 0.428(2) -0.012(5)
O4 O 0.16827(10) 0.31136(10) -0.0753(2)
O5 O 0.10784(13) 0.27381(14) 0.2090(3)
O6 O 0.09988(12) 0.40484(13) 0.1182(3)
N1 N 0.12138(12) 0.33329(16) 0.0999(3)
C1 C 0.34002(14) 0.33326(15) 0.1450(4)
H2 H 0.31330 0.27930 0.11370
H3 H 0.36480 0.33030 0.28260
C2 C 0.40552(15) 0.35399(15) -0.0119(4)
H4 H 0.43720 0.30360 -0.05600
C3 C 0.35254(15) 0.39022(15) -0.1856(4)
H5 H 0.38280 0.43450 -0.26250
C4 C 0.27330(15) 0.42453(14) -0.0772(4)
H6 H 0.27020 0.48640 -0.09070
C5 C 0.19942(15) 0.38227(15) -0.1918(4)
H7 H 0.15450 0.42260 -0.22790
C6 C 0.24109(16) 0.34475(17) -0.3792(4)
H8 H 0.21100 0.29440 -0.42460
H9 H 0.24210 0.38540 -0.49220
O7 O 0.03211(10) 0.73712(10) 0.3226(2)
O8 O 0.13385(11) 0.76134(11) -0.1112(3)
O9 O 0.04389(12) 0.92014(11) 0.2171(3)
H10 H 0.0583(18) 0.9635(18) 0.141(5)
O10 O 0.12427(11) 0.61323(10) 0.1572(3)
O11 O 0.14454(16) 0.54654(14) 0.4427(3)
O12 O 0.01780(14) 0.54830(11) 0.3169(4)
N2 N 0.09124(18) 0.56547(13) 0.3188(4)
C7 C 0.10286(16) 0.79268(15) 0.3489(4)
H11 H 0.15560 0.76090 0.34720
H12 H 0.09870 0.82290 0.47970
C8 C 0.09954(15) 0.85332(15) 0.1706(4)
H13 H 0.15620 0.87480 0.13700
C9 C 0.06558(15) 0.79862(16) -0.0020(4)
H14 H 0.02760 0.83020 -0.09440
C10 C 0.01966(14) 0.72595(15) 0.1082(4)
H15 H -0.04100 0.72700 0.07500
C11 C 0.06124(16) 0.64597(16) 0.0179(4)
H16 H 0.01930 0.60290 -0.02090
C12 C 0.10900(18) 0.67821(16) -0.1646(4)
H17 H 0.15830 0.64300 -0.19170
H18 H 0.07330 0.67870 -0.28720
#END
