
#######################################################################
#
#                 Cambridge Crystallographic Data Centre
#                                CCDC
#
#######################################################################
#
# If this CIF has been generated from an entry in the Cambridge
# Structural Database, then it will include bibliographic, chemical,
# crystal, experimental, refinement or atomic coordinate data resulting
# from the CCDC's data processing and validation procedures.
#
#######################################################################

data_CSD_CIF_TUQGOD
_audit_creation_date 2015-09-30
_audit_creation_method CSD-ConQuest-V1
_database_code_CSD TUQGOD
_database_code_depnum_ccdc_archive 'CCDC 1400347'
_chemical_formula_sum 'C6 H9 N1 O6'
_chemical_formula_moiety
;
C6 H9 N1 O6
;
_journal_coden_Cambridge 891
_journal_volume 10
_journal_year 2015
_journal_page_first 1724
_journal_name_full 'ChemMedChem '
loop_
_publ_author_name
"N.Santschi"
"S.Wagner"
"C.Daniliuc"
"S.Hermann"
"M.Schafers"
"Ryan Gilmour"
_chemical_name_systematic
;
(R)-6-hydroxyhexahydrofuro[3,2-b]furan-3-yl nitrate
;
_cell_volume   1920.298
_exptl_crystal_colour 'colorless'
_exptl_crystal_density_diffrn 1.488
_exptl_special_details
;
Absolute configuration

;
_exptl_crystal_description 'needle'
_diffrn_ambient_temperature 100
#These two values have been output from a single CSD field.
_refine_ls_R_factor_gt 0.0643
_refine_ls_wR_factor_gt 0.0643
loop_
_citation_database_id_CSD
_citation_special_details
TUQGET "is a stereoisomer of this entry"
_symmetry_cell_setting hexagonal
_symmetry_space_group_name_H-M 'P 32'
_symmetry_Int_Tables_number 145
loop_
_symmetry_equiv_pos_site_id
_symmetry_equiv_pos_as_xyz
1 x,y,z
2 -y,x-y,2/3+z
3 -x+y,-x,1/3+z
_cell_length_a 18.3484(6)
_cell_length_b 18.3484(6)
_cell_length_c 6.5863(3)
_cell_angle_alpha 90
_cell_angle_beta 90
_cell_angle_gamma 120
_cell_formula_units_Z 9
loop_
_atom_type_symbol
_atom_type_radius_bond
C 0.68
H 0.23
N 0.68
O 0.68
loop_
_atom_site_label
_atom_site_type_symbol
_atom_site_fract_x
_atom_site_fract_y
_atom_site_fract_z
N1 N 0.7631(6) 0.6390(5) 0.3746(14)
O1 O 0.7904(4) 0.5871(4) 0.0077(10)
O2 O 0.6157(4) 0.4178(4) 0.0249(9)
O3 O 0.7201(4) 0.3796(4) -0.187(1)
H1 H 0.687(6) 0.357(6) -0.306(13)
O4 O 0.6985(4) 0.5562(4) 0.3364(10)
O5 O 0.7647(4) 0.6951(4) 0.2757(11)
O6 O 0.8097(5) 0.6429(5) 0.5081(12)
C1 C 0.7992(6) 0.5136(6) -0.0165(14)
H2 H 0.78350 0.47980 0.10970
H3 H 0.85770 0.52970 -0.05310
C2 C 0.7388(6) 0.4650(6) -0.1883(15)
H4 H 0.76350 0.49190 -0.32190
C3 C 0.6637(6) 0.4765(5) -0.1361(14)
H5 H 0.62870 0.47180 -0.25700
C4 C 0.7050(5) 0.5628(6) -0.0378(14)
H6 H 0.70280 0.60470 -0.13110
C5 C 0.6512(6) 0.5505(6) 0.1559(14)
H7 H 0.62870 0.59010 0.15980
C6 C 0.5817(6) 0.4594(6) 0.1450(15)
H8 H 0.56650 0.43440 0.28260
H9 H 0.53090 0.45470 0.07980
N2 N 0.5907(6) 0.6565(6) 0.6992(13)
O7 O 0.5396(4) 0.6338(4) 0.3047(10)
O8 O 0.4672(4) 0.7604(4) 0.3648(9)
O9 O 0.3518(4) 0.6302(4) 0.1432(10)
H10 H 0.359(7) 0.670(6) 0.039(14)
O10 O 0.5460(4) 0.6997(4) 0.6621(9)
O11 O 0.6614(4) 0.6862(5) 0.633(1)
O12 O 0.5506(5) 0.5936(5) 0.8003(12)
C7 C 0.4491(6) 0.5913(6) 0.2805(15)
H11 H 0.42090 0.58750 0.41150
H12 H 0.42710 0.53390 0.22500
C8 C 0.4366(5) 0.6467(6) 0.1326(14)
H13 H 0.44970 0.63650 -0.00840
C9 C 0.5010(5) 0.7347(6) 0.2015(14)
H14 H 0.52170 0.77600 0.08690
C10 C 0.5708(6) 0.7225(6) 0.2936(15)
H15 H 0.62300 0.75090 0.20900
C11 C 0.5862(6) 0.7639(6) 0.5063(14)
H16 H 0.64720 0.80290 0.53440
C12 C 0.5364(5) 0.8088(6) 0.4993(14)
H17 H 0.51580 0.81150 0.63640
H18 H 0.57160 0.86680 0.44750
N3 N 0.0537(7) 0.7533(7) 0.6381(15)
O13 O 0.0797(4) 0.8266(4) 1.012(1)
O14 O -0.0707(4) 0.8631(4) 0.9558(9)
O15 O 0.0462(4) 0.9938(4) 1.1799(10)
H19 H 0.020(7) 0.996(7) 1.303(13)
O16 O 0.0028(4) 0.7891(4) 0.6625(10)
O17 O 0.0370(5) 0.6902(5) 0.7273(13)
O18 O 0.1094(7) 0.7924(7) 0.5195(15)
C13 C 0.1055(6) 0.9142(6) 1.0310(15)
H20 H 0.09970 0.93720 0.89990
H21 H 0.16470 0.94710 1.07690
C14 C 0.0466(5) 0.9160(6) 1.1878(14)
H22 H 0.06320 0.90740 1.32650
C15 C -0.0362(5) 0.8396(5) 1.1255(14)
H23 H -0.07670 0.81440 1.24090
C16 C -0.0101(6) 0.7794(6) 1.0358(15)
H24 H -0.02720 0.72990 1.12690
C17 C -0.0574(6) 0.7513(6) 0.8276(14)
H25 H -0.09120 0.68870 0.81520
C18 C -0.1117(6) 0.7902(6) 0.8257(16)
H26 H -0.11700 0.80700 0.68600
H27 H -0.16860 0.75010 0.87760
#END
