
#######################################################################
#
#                 Cambridge Crystallographic Data Centre
#                                CCDC
#
#######################################################################
#
# If this CIF has been generated from an entry in the Cambridge
# Structural Database, then it will include bibliographic, chemical,
# crystal, experimental, refinement or atomic coordinate data resulting
# from the CCDC's data processing and validation procedures.
#
#######################################################################

data_CSD_CIF_TUQHET
_audit_creation_date 2010-07-26
_audit_creation_method CSD-ConQuest-V1
_database_code_CSD TUQHET
_database_code_depnum_ccdc_archive 'CCDC 781440'
_chemical_formula_sum 'C8 H8 N2 O4'
_chemical_formula_moiety
;
C8 H8 N2 O4
;
_journal_coeditor_code "IUCr HB5463"
_journal_coden_Cambridge 1370
_journal_volume 66
_journal_year 2010
_journal_page_first o1484
_journal_name_full 'Acta Crystallogr.,Sect.E:Struct.Rep.Online '
loop_
_publ_author_name
"A.R.Raza"
"S.L.Rubab"
"M.N.Tahir"
_chemical_name_systematic
;
2-(Methylamino)-5-nitrobenzoic acid
;
_cell_volume    850.608
_exptl_crystal_colour 'colorless'
_exptl_crystal_density_diffrn 1.532
_exptl_crystal_description 'needle'
_diffrn_ambient_temperature 296
#These two values have been output from a single CSD field.
_refine_ls_R_factor_gt 0.0506
_refine_ls_wR_factor_gt 0.0506
_symmetry_cell_setting monoclinic
_symmetry_space_group_name_H-M 'P 21/c'
_symmetry_Int_Tables_number 14
loop_
_symmetry_equiv_pos_site_id
_symmetry_equiv_pos_as_xyz
1 x,y,z
2 -x,1/2+y,1/2-z
3 -x,-y,-z
4 x,-1/2-y,-1/2+z
_cell_length_a 7.2541(12)
_cell_length_b 14.037(2)
_cell_length_c 8.5972(14)
_cell_angle_alpha 90
_cell_angle_beta 103.673(6)
_cell_angle_gamma 90
_cell_formula_units_Z 4
loop_
_atom_type_symbol
_atom_type_radius_bond
C 0.68
H 0.23
N 0.68
O 0.68
loop_
_atom_site_label
_atom_site_type_symbol
_atom_site_fract_x
_atom_site_fract_y
_atom_site_fract_z
O1 O 0.5419(3) 0.38658(12) 0.5049(2)
O2 O 0.7127(3) 0.49628(11) 0.4158(3)
O3 O 1.2269(3) 0.42409(14) 0.1896(3)
O4 O 1.3096(3) 0.27893(14) 0.1606(3)
N1 N 0.6259(3) 0.20268(13) 0.4642(3)
N2 N 1.2080(3) 0.33798(16) 0.2050(3)
C1 C 0.7967(3) 0.33700(15) 0.3914(3)
C2 C 0.7635(3) 0.23711(16) 0.4028(3)
C3 C 0.8868(3) 0.17368(17) 0.3470(3)
C4 C 1.0304(4) 0.20647(17) 0.2851(3)
C5 C 1.0588(3) 0.30381(17) 0.2745(3)
C6 C 0.9435(4) 0.36766(16) 0.3270(3)
C7 C 0.6728(4) 0.40694(16) 0.4424(3)
C8 C 0.5800(4) 0.10286(17) 0.4683(4)
H1 H 0.55963 0.24247 0.50427
H2 H 0.63612 0.53160 0.44325
H3 H 0.86864 0.10833 0.35312
H4 H 1.10970 0.16375 0.24988
H5 H 0.96473 0.43263 0.31904
H6 H 0.68822 0.06878 0.52857
H7 H 0.54575 0.07839 0.36101
H8 H 0.47552 0.09499 0.51789
#END
