
#######################################################################
#
#                 Cambridge Crystallographic Data Centre
#                                CCDC
#
#######################################################################
#
# If this CIF has been generated from an entry in the Cambridge
# Structural Database, then it will include bibliographic, chemical,
# crystal, experimental, refinement or atomic coordinate data resulting
# from the CCDC's data processing and validation procedures.
#
#######################################################################

data_CSD_CIF_TUQJUM
_audit_creation_date 2015-09-30
_audit_creation_method CSD-ConQuest-V1
_database_code_CSD TUQJUM
_database_code_depnum_ccdc_archive 'CCDC 1409781'
_chemical_formula_sum 'C27 H23 N3 O1'
_chemical_formula_moiety
;
C27 H23 N3 O1
;
_journal_coden_Cambridge 440
_journal_volume 39
_journal_year 2015
_journal_page_first 9330
_journal_name_full 'New J.Chem. '
loop_
_publ_author_name
"A.S.Smirnov"
"E.S.Yandanova"
"N.A.Bokach"
"G.L.Starova"
"V.V.Gurzhiy"
"M.S.Avdontceva"
"A.A.Zolotarev"
"V.Yu.Kukushkin"
_chemical_name_systematic
;
2-Methyl-N,N,3,3-tetraphenyl-2,3-dihydro-1,2,4-oxadiazol-5-amine
;
_cell_volume   4217.819
_exptl_crystal_colour 'colorless'
_exptl_crystal_density_diffrn 1.277
_exptl_crystal_description 'prism'
_diffrn_ambient_temperature 100
_diffrn_special_details
;
twin

;
#These two values have been output from a single CSD field.
_refine_ls_R_factor_gt 0.0912
_refine_ls_wR_factor_gt 0.0912
_symmetry_cell_setting monoclinic
_symmetry_space_group_name_H-M 'P 21/n'
_symmetry_Int_Tables_number 14
loop_
_symmetry_equiv_pos_site_id
_symmetry_equiv_pos_as_xyz
1 x,y,z
2 1/2-x,1/2+y,1/2-z
3 -x,-y,-z
4 -1/2+x,-1/2-y,-1/2+z
_cell_length_a 22.9818(13)
_cell_length_b 8.6205(3)
_cell_length_c 23.3388(10)
_cell_angle_alpha 90
_cell_angle_beta 114.188(6)
_cell_angle_gamma 90
_cell_formula_units_Z 8
loop_
_atom_type_symbol
_atom_type_radius_bond
C 0.68
H 0.23
N 0.68
O 0.68
loop_
_atom_site_label
_atom_site_type_symbol
_atom_site_fract_x
_atom_site_fract_y
_atom_site_fract_z
O1 O 0.77680(12) 0.1691(3) 0.91021(12)
N1 N 0.82954(15) 0.2809(4) 0.85643(14)
N2 N 0.87196(15) 0.0617(4) 0.92443(14)
N3 N 0.77865(15) 0.0207(4) 0.94162(14)
C1 C 0.88143(18) 0.0694(4) 1.03256(17)
C2 C 0.83050(18) 0.1662(4) 0.89731(17)
C3 C 0.84900(17) -0.0117(4) 0.96857(17)
C4 C 0.94287(19) 0.2575(5) 0.87483(18)
H1 H 0.94950 0.18490 0.90640
C5 C 0.90312(18) -0.2546(5) 0.95415(17)
H2 H 0.91970 -0.19720 0.93060
C6 C 0.76853(17) 0.3545(4) 0.82124(17)
C7 C 0.88282(19) 0.3213(4) 0.84302(17)
C8 C 0.74025(19) -0.0843(5) 0.89037(18)
H3 H 0.69790 -0.04320 0.86940
H4 H 0.73820 -0.18460 0.90730
H5 H 0.75950 -0.09360 0.86100
C9 C 0.9785(2) 0.1432(5) 1.11989(19)
H6 H 1.02290 0.14710 1.13850
C10 C 0.94747(19) 0.0743(5) 1.06121(18)
H7 H 0.97120 0.03140 1.04110
C11 C 0.65146(19) 0.4902(5) 0.75154(19)
H8 H 0.61230 0.53620 0.72800
C12 C 0.86297(18) -0.1847(4) 0.97741(17)
C13 C 0.9438(2) 0.2058(5) 1.15065(18)
H9 H 0.96460 0.25040 1.19020
C14 C 0.9187(2) -0.4118(5) 0.96617(19)
H10 H 0.94630 -0.45810 0.95130
C15 C 0.6916(2) 0.5543(5) 0.8086(2)
H11 H 0.67890 0.64210 0.82360
C16 C 0.9850(2) 0.4115(5) 0.8138(2)
H12 H 1.01890 0.44110 0.80430
C17 C 0.8931(2) -0.4984(5) 1.00008(19)
H13 H 0.90320 -0.60300 1.00760
C18 C 0.84681(19) 0.1341(5) 1.06315(18)
H14 H 0.80250 0.13240 1.04410
C19 C 0.8777(2) 0.2015(5) 1.12203(19)
H15 H 0.85400 0.24390 1.14230
C20 C 0.8382(2) -0.2718(5) 1.01261(18)
H16 H 0.81200 -0.22510 1.02920
C21 C 0.72837(19) 0.2900(5) 0.76446(19)
H17 H 0.74060 0.20130 0.74960
C22 C 0.75086(19) 0.4882(5) 0.84355(18)
H18 H 0.77830 0.53270 0.88130
C23 C 0.9253(2) 0.4757(5) 0.7826(2)
H19 H 0.91900 0.54930 0.75150
C24 C 0.6695(2) 0.3587(5) 0.72972(18)
H20 H 0.64230 0.31540 0.69160
C25 C 0.8528(2) -0.4294(5) 1.0227(2)
H21 H 0.83510 -0.48820 1.04500
C26 C 0.8744(2) 0.4328(5) 0.79662(19)
H22 H 0.83460 0.47810 0.77520
C27 C 0.9932(2) 0.3010(5) 0.8601(2)
H23 H 1.03300 0.25570 0.88130
O2 O 0.91678(13) 0.1503(3) 0.27476(12)
N4 N 0.92908(15) 0.0495(4) 0.36898(14)
N5 N 0.85979(15) 0.2650(4) 0.32376(14)
N6 N 0.95063(15) 0.0021(4) 0.27965(14)
C28 C 0.90181(18) 0.1499(4) 0.32610(16)
C29 C 0.97582(18) -0.0244(4) 0.34926(17)
C30 C 0.98464(18) -0.1962(4) 0.36576(17)
C31 C 0.82565(18) 0.3408(4) 0.26331(17)
C32 C 1.03967(18) 0.0595(4) 0.38161(17)
C33 C 1.07286(19) 0.1211(5) 0.34880(19)
H24 H 1.05570 0.11420 0.30520
C34 C 0.84626(18) 0.3125(4) 0.37574(17)
C35 C 0.87477(19) 0.2447(5) 0.43460(18)
H25 H 0.90330 0.16320 0.44120
C36 C 1.02294(19) -0.2866(5) 0.34529(18)
H26 H 1.04200 -0.24230 0.32100
C37 C 1.1573(2) 0.2053(5) 0.4452(2)
H27 H 1.19640 0.25400 0.46630
C38 C 0.95735(18) -0.2633(5) 0.40316(17)
H28 H 0.93200 -0.20390 0.41710
C39 C 0.9680(2) -0.4197(5) 0.41973(19)
H29 H 0.94990 -0.46410 0.44480
C40 C 1.0056(2) -0.5090(5) 0.39895(19)
H30 H 1.01280 -0.61300 0.41020
C41 C 1.1242(2) 0.1440(5) 0.47854(19)
H31 H 1.14140 0.15150 0.52210
C42 C 1.0325(2) -0.4433(5) 0.36137(19)
H32 H 1.05700 -0.50390 0.34680
C43 C 0.8534(2) 0.4624(5) 0.24521(18)
H33 H 0.89420 0.49620 0.27100
C44 C 1.06598(19) 0.0724(5) 0.44721(18)
H34 H 1.04410 0.03250 0.46980
C45 C 0.90010(19) -0.1063(5) 0.24160(18)
H35 H 0.87030 -0.11930 0.26040
H36 H 0.91870 -0.20480 0.23970
H37 H 0.87840 -0.06550 0.19990
C46 C 1.1313(2) 0.1929(5) 0.38055(19)
H38 H 1.15330 0.23310 0.35810
C47 C 0.7645(2) 0.2928(6) 0.2263(2)
H39 H 0.74600 0.21210 0.23930
C48 C 0.7577(2) 0.4862(5) 0.14951(19)
H40 H 0.73510 0.53490 0.11120
C49 C 0.7306(2) 0.3671(6) 0.1687(2)
H41 H 0.68930 0.33520 0.14340
C50 C 0.8609(2) 0.2978(5) 0.48362(18)
H42 H 0.88060 0.25150 0.52290
C51 C 0.8188(2) 0.5336(5) 0.18736(19)
H43 H 0.83730 0.61410 0.17420
C52 C 0.8041(3) 0.4339(6) 0.3673(2)
H44 H 0.78430 0.48020 0.32800
C53 C 0.8191(2) 0.4169(6) 0.4753(2)
H45 H 0.80940 0.45020 0.50830
C54 C 0.7911(3) 0.4872(7) 0.4170(3)
H46 H 0.76360 0.57060 0.41100
#END
