
#######################################################################
#
#                 Cambridge Crystallographic Data Centre
#                                CCDC
#
#######################################################################
#
# If this CIF has been generated from an entry in the Cambridge
# Structural Database, then it will include bibliographic, chemical,
# crystal, experimental, refinement or atomic coordinate data resulting
# from the CCDC's data processing and validation procedures.
#
#######################################################################

data_CSD_CIF_TUQJOG
_audit_creation_date 2015-09-30
_audit_creation_method CSD-ConQuest-V1
_database_code_CSD TUQJOG
_database_code_depnum_ccdc_archive 'CCDC 1409105'
_chemical_formula_sum 'C23 H23 N3 O1'
_chemical_formula_moiety
;
C23 H23 N3 O1
;
_journal_coden_Cambridge 440
_journal_volume 39
_journal_year 2015
_journal_page_first 9330
_journal_name_full 'New J.Chem. '
loop_
_publ_author_name
"A.S.Smirnov"
"E.S.Yandanova"
"N.A.Bokach"
"G.L.Starova"
"V.V.Gurzhiy"
"M.S.Avdontceva"
"A.A.Zolotarev"
"V.Yu.Kukushkin"
_chemical_name_systematic
;
2-Benzyl-N,N-dimethyl-3,3-diphenyl-2,3-dihydro-1,2,4-oxadiazol-5-amine
;
_cell_volume    928.859
_exptl_crystal_colour 'colorless'
_exptl_crystal_density_diffrn 1.278
_exptl_crystal_description 'prism'
_diffrn_ambient_temperature 100
#These two values have been output from a single CSD field.
_refine_ls_R_factor_gt 0.0585
_refine_ls_wR_factor_gt 0.0585
_symmetry_cell_setting triclinic
_symmetry_space_group_name_H-M 'P -1'
_symmetry_Int_Tables_number 2
loop_
_symmetry_equiv_pos_site_id
_symmetry_equiv_pos_as_xyz
1 x,y,z
2 -x,-y,-z
_cell_length_a 6.1591(5)
_cell_length_b 12.0853(10)
_cell_length_c 12.7889(9)
_cell_angle_alpha 101.637(6)
_cell_angle_beta 93.380(6)
_cell_angle_gamma 92.887(7)
_cell_formula_units_Z 2
loop_
_atom_type_symbol
_atom_type_radius_bond
C 0.68
H 0.23
N 0.68
O 0.68
loop_
_atom_site_label
_atom_site_type_symbol
_atom_site_fract_x
_atom_site_fract_y
_atom_site_fract_z
O1 O 0.26089(18) 0.70239(9) 0.12959(9)
N1 N -0.0387(2) 0.66365(11) 0.21546(10)
N2 N 0.3220(2) 0.74701(11) 0.2436(1)
C1 C 0.3996(3) 1.03554(14) 0.17857(13)
H1 H 0.26880 1.06550 0.19920
C2 C -0.1014(3) 0.80101(14) 0.41762(13)
H2 H -0.21180 0.78570 0.36300
C3 C 0.6424(3) 0.88441(14) 0.16332(13)
H3 H 0.67690 0.81360 0.17480
C4 C 0.4479(3) 0.92900(13) 0.19721(12)
N3 N -0.0573(2) 0.64082(12) 0.02735(11)
C5 C 0.4330(3) 0.53373(14) 0.28090(13)
H4 H 0.53070 0.58000 0.25370
C6 C 0.1507(3) 0.68537(13) 0.29442(12)
C7 C 0.7373(3) 1.05187(16) 0.09639(14)
H5 H 0.83440 1.09280 0.06340
C8 C 0.2943(3) 0.86967(13) 0.25865(13)
H6 H 0.31780 0.90360 0.33420
H7 H 0.14550 0.88120 0.23590
C9 C -0.1370(3) 0.86919(14) 0.51561(13)
H8 H -0.27200 0.89920 0.52640
C10 C 0.0268(3) 0.89282(14) 0.59715(13)
H9 H 0.00310 0.93990 0.66200
C11 C 0.2307(3) 0.57109(13) 0.30955(12)
C12 C 0.5447(3) 1.09719(15) 0.12957(14)
H10 H 0.51250 1.16870 0.11910
C13 C 0.7849(3) 0.94547(15) 0.11242(13)
H11 H 0.91320 0.91460 0.08900
C14 C 0.1000(3) 0.75573(13) 0.40161(12)
C15 C 0.1459(3) 0.39570(14) 0.36616(14)
H12 H 0.05030 0.35030 0.39550
C16 C 0.0422(3) 0.66824(13) 0.12610(12)
C17 C 0.4886(3) 0.42616(15) 0.29330(14)
H13 H 0.62290 0.40060 0.27310
C18 C 0.2625(3) 0.77693(14) 0.48510(13)
H14 H 0.39550 0.74440 0.47560
C19 C 0.2269(3) 0.84602(14) 0.58197(13)
H15 H 0.33680 0.86110 0.63690
C20 C -0.2821(3) 0.59418(15) 0.01368(14)
H16 H -0.32070 0.57080 0.07800
H17 H -0.29730 0.53010 -0.04500
H18 H -0.37670 0.65080 -0.00090
C21 C 0.0895(3) 0.50178(14) 0.35308(13)
H19 H -0.04470 0.52710 0.37370
C22 C 0.3460(3) 0.35741(14) 0.33520(14)
H20 H 0.38390 0.28570 0.34270
C23 C 0.0417(3) 0.65972(16) -0.06822(14)
H21 H -0.04200 0.71060 -0.10040
H22 H 0.04480 0.58890 -0.11810
H23 H 0.18770 0.69220 -0.04950
#END
