
#######################################################################
#
#                 Cambridge Crystallographic Data Centre
#                                CCDC
#
#######################################################################
#
# If this CIF has been generated from an entry in the Cambridge
# Structural Database, then it will include bibliographic, chemical,
# crystal, experimental, refinement or atomic coordinate data resulting
# from the CCDC's data processing and validation procedures.
#
#######################################################################

data_CSD_CIF_TUQKAT
_audit_creation_date 2015-09-30
_audit_creation_method CSD-ConQuest-V1
_database_code_CSD TUQKAT
_database_code_depnum_ccdc_archive 'CCDC 1410193'
_chemical_formula_sum 'C17 H19 N3 O1'
_chemical_formula_moiety
;
C17 H19 N3 O1
;
_journal_coden_Cambridge 440
_journal_volume 39
_journal_year 2015
_journal_page_first 9330
_journal_name_full 'New J.Chem. '
loop_
_publ_author_name
"A.S.Smirnov"
"E.S.Yandanova"
"N.A.Bokach"
"G.L.Starova"
"V.V.Gurzhiy"
"M.S.Avdontceva"
"A.A.Zolotarev"
"V.Yu.Kukushkin"
_chemical_name_systematic
;
N,N,2-Trimethyl-3,3-diphenyl-2,3-dihydro-1,2,4-oxadiazol-5-amine
;
_cell_volume   1512.721
_exptl_crystal_colour 'colorless'
_exptl_crystal_density_diffrn 1.235
_exptl_crystal_description 'prism'
_diffrn_ambient_temperature 100
#These two values have been output from a single CSD field.
_refine_ls_R_factor_gt 0.0485
_refine_ls_wR_factor_gt 0.0485
_symmetry_cell_setting monoclinic
_symmetry_space_group_name_H-M 'P 21/c'
_symmetry_Int_Tables_number 14
loop_
_symmetry_equiv_pos_site_id
_symmetry_equiv_pos_as_xyz
1 x,y,z
2 -x,1/2+y,1/2-z
3 -x,-y,-z
4 x,-1/2-y,-1/2+z
_cell_length_a 9.5535(3)
_cell_length_b 6.1044(3)
_cell_length_c 26.1423(10)
_cell_angle_alpha 90
_cell_angle_beta 97.150(3)
_cell_angle_gamma 90
_cell_formula_units_Z 4
loop_
_atom_type_symbol
_atom_type_radius_bond
C 0.68
H 0.23
N 0.68
O 0.68
loop_
_atom_site_label
_atom_site_type_symbol
_atom_site_fract_x
_atom_site_fract_y
_atom_site_fract_z
O1 O 0.28470(12) 0.75350(19) 0.02688(4)
N1 N 0.27989(13) 0.4343(2) 0.07096(4)
N2 N 0.37969(13) 0.7893(2) 0.07480(5)
N3 N 0.17917(15) 0.4570(3) -0.01574(5)
C1 C 0.33395(14) 0.6062(2) 0.10741(5)
C2 C 0.24813(15) 0.5356(3) 0.02827(5)
C3 C 0.51549(17) 0.3237(3) 0.14205(7)
H1 H 0.48070 0.22960 0.11550
C4 C 0.1552(2) 0.5848(4) -0.06261(7)
H2 H 0.19300 0.50850 -0.08990
H3 H 0.20100 0.72440 -0.05720
H4 H 0.05570 0.60650 -0.07180
C5 C 0.1280(2) 0.2341(3) -0.01679(8)
H5 H 0.15880 0.16460 0.01560
H6 H 0.16440 0.15520 -0.04400
H7 H 0.02680 0.23430 -0.02260
C6 C 0.45589(15) 0.5277(3) 0.14610(5)
C7 C 0.21141(14) 0.6866(2) 0.13514(5)
C8 C 0.62785(19) 0.2592(4) 0.17784(9)
H8 H 0.66820 0.12180 0.17500
C9 C 0.67977(19) 0.3955(4) 0.21728(8)
H9 H 0.75540 0.35140 0.24090
C10 C 0.52134(18) 0.7597(3) 0.05943(7)
H10 H 0.59090 0.78450 0.08860
H11 H 0.53510 0.86220 0.03270
H12 H 0.53050 0.61320 0.04700
C11 C 0.61982(19) 0.5972(4) 0.22177(7)
H13 H 0.65450 0.68970 0.24870
C12 C 0.50781(17) 0.6642(3) 0.18646(6)
H14 H 0.46730 0.80120 0.18980
C13 C 0.14857(16) 0.5361(3) 0.16503(6)
H15 H 0.18580 0.39560 0.16940
C14 C 0.03139(17) 0.5925(3) 0.18832(6)
H16 H -0.01000 0.49000 0.20810
C15 C -0.02401(18) 0.8007(3) 0.18226(7)
H17 H -0.10360 0.83870 0.19750
C16 C 0.03892(18) 0.9515(3) 0.15363(7)
H18 H 0.00210 1.09240 0.14990
C17 C 0.15686(16) 0.8968(3) 0.13019(6)
H19 H 0.19910 1.00110 0.11120
#END
