
#######################################################################
#
#                 Cambridge Crystallographic Data Centre
#                                CCDC
#
#######################################################################
#
# If this CIF has been generated from an entry in the Cambridge
# Structural Database, then it will include bibliographic, chemical,
# crystal, experimental, refinement or atomic coordinate data resulting
# from the CCDC's data processing and validation procedures.
#
#######################################################################

data_CSD_CIF_TUQXOU
_audit_creation_date 2015-09-30
_audit_creation_method CSD-ConQuest-V1
_database_code_CSD TUQXOU
_database_code_depnum_ccdc_archive 'CCDC 1428866'
_chemical_formula_sum 'C20 H17 N1 O5'
_chemical_formula_moiety
;
C20 H17 N1 O5
;
_journal_coden_Cambridge 4
_journal_volume 137
_journal_year 2015
_journal_page_first 11258
_journal_name_full 'J.Am.Chem.Soc. '
loop_
_publ_author_name
"Kui Zhang"
"Lingchao Cai"
"Xing Jiang"
"M.A.Garcia-Garibay"
"Ohyun Kwon"
_chemical_name_systematic
;
ethyl 7-nitro-3-(phenoxymethyl)-2-naphthoate
;
_cell_volume   1612.415
_exptl_crystal_colour 'colorless'
_exptl_crystal_density_diffrn 1.447
_exptl_crystal_description 'needle'
_diffrn_ambient_temperature 100
#These two values have been output from a single CSD field.
_refine_ls_R_factor_gt 0.0351
_refine_ls_wR_factor_gt 0.0351
_symmetry_cell_setting monoclinic
_symmetry_space_group_name_H-M 'P 21/c'
_symmetry_Int_Tables_number 14
loop_
_symmetry_equiv_pos_site_id
_symmetry_equiv_pos_as_xyz
1 x,y,z
2 -x,1/2+y,1/2-z
3 -x,-y,-z
4 x,-1/2-y,-1/2+z
_cell_length_a 12.0823(4)
_cell_length_b 5.4689(2)
_cell_length_c 24.7977(9)
_cell_angle_alpha 90
_cell_angle_beta 100.248(2)
_cell_angle_gamma 90
_cell_formula_units_Z 4
loop_
_atom_type_symbol
_atom_type_radius_bond
C 0.68
H 0.23
N 0.68
O 0.68
loop_
_atom_site_label
_atom_site_type_symbol
_atom_site_fract_x
_atom_site_fract_y
_atom_site_fract_z
O1 O 0.06524(8) -0.17676(17) 0.39186(4)
O2 O 0.00022(8) -0.07160(18) 0.30793(4)
O3 O 0.57355(7) 0.96496(15) 0.34036(3)
O4 O 0.64632(7) 0.19990(16) 0.49845(4)
O5 O 0.71005(7) 0.55579(15) 0.47177(3)
N1 N 0.06792(9) -0.05138(19) 0.35087(4)
C1 C 0.52816(10) 0.4294(2) 0.42880(5)
C2 C 0.44262(10) 0.2639(2) 0.42914(5)
H1 H 0.45250 0.13570 0.45540
C3 C 0.34026(10) 0.2797(2) 0.39140(5)
C4 C 0.25311(10) 0.1061(2) 0.39094(5)
H2 H 0.26100 -0.02470 0.41660
C5 C 0.15754(10) 0.1316(2) 0.35273(5)
C6 C 0.14074(10) 0.3225(2) 0.31384(5)
H3 H 0.07280 0.33330 0.28790
C7 C 0.2240(1) 0.4913(2) 0.31418(5)
H4 H 0.21370 0.62160 0.28840
C8 C 0.32578(10) 0.4739(2) 0.35263(5)
C9 C 0.41481(10) 0.6436(2) 0.35338(5)
H5 H 0.40490 0.77510 0.32800
C10 C 0.51458(10) 0.6251(2) 0.38941(5)
C11 C 0.60824(10) 0.8034(2) 0.38558(5)
H6 H 0.62640 0.89870 0.42000
H7 H 0.67660 0.71330 0.38030
C12 C 0.65078(10) 1.1382(2) 0.33163(5)
C13 C 0.75895(11) 1.1581(2) 0.36181(5)
H8 H 0.78450 1.04740 0.39090
C14 C 0.82954(11) 1.3430(2) 0.34885(5)
H9 H 0.90340 1.35780 0.36950
C15 C 0.79388(11) 1.5049(2) 0.30645(5)
H10 H 0.84280 1.62930 0.29780
C16 C 0.68568(11) 1.4829(2) 0.27671(5)
H11 H 0.66040 1.59360 0.24760
C17 C 0.61398(11) 1.3013(2) 0.28891(5)
H12 H 0.54010 1.28790 0.26830
C18 C 0.63235(10) 0.3808(2) 0.46993(5)
C19 C 0.81644(10) 0.5111(2) 0.50791(5)
H13 H 0.85080 0.35770 0.49760
H14 H 0.80510 0.49690 0.54640
C20 C 0.89129(11) 0.7267(2) 0.50164(6)
H15 H 0.90740 0.72960 0.46430
H16 H 0.96190 0.71180 0.52790
H17 H 0.85310 0.87840 0.50870
#END
