
#######################################################################
#
#                 Cambridge Crystallographic Data Centre
#                                CCDC
#
#######################################################################
#
# If this CIF has been generated from an entry in the Cambridge
# Structural Database, then it will include bibliographic, chemical,
# crystal, experimental, refinement or atomic coordinate data resulting
# from the CCDC's data processing and validation procedures.
#
#######################################################################

data_CSD_CIF_TURDAN
_audit_creation_date 2015-09-30
_audit_creation_method CSD-ConQuest-V1
_database_code_CSD TURDAN
_database_code_depnum_ccdc_archive 'CCDC 1428895'
_chemical_formula_sum 'C38 H59 N1 O1'
_chemical_formula_moiety
;
C38 H59 N1 O1
;
_journal_coden_Cambridge 4
_journal_volume 137
_journal_year 2015
_journal_page_first 12231
_journal_name_full 'J.Am.Chem.Soc. '
loop_
_publ_author_name
"Pan Gao"
"Wei Guo"
"Jingjing Xue"
"Yue Zhao"
"Yu Yuan"
"Yuanzhi Xia"
"Zhuangzhi Shi"
_chemical_name_systematic
;
N-methoxy-28-(4-methylphenyl)lanost-8-en-3-imine
;
_cell_volume   1654.565
_exptl_crystal_colour 'colorless'
_exptl_crystal_density_diffrn 1.096
_exptl_special_details
;
Absolute configuration

;
_exptl_crystal_description 'planar'
_diffrn_ambient_temperature 296
#These two values have been output from a single CSD field.
_refine_ls_R_factor_gt 0.0663
_refine_ls_wR_factor_gt 0.0663
_symmetry_cell_setting monoclinic
_symmetry_space_group_name_H-M 'P 21'
_symmetry_Int_Tables_number 4
loop_
_symmetry_equiv_pos_site_id
_symmetry_equiv_pos_as_xyz
1 x,y,z
2 -x,1/2+y,-z
_cell_length_a 10.928(2)
_cell_length_b 7.4634(14)
_cell_length_c 20.727(4)
_cell_angle_alpha 90
_cell_angle_beta 101.834(3)
_cell_angle_gamma 90
_cell_formula_units_Z 2
loop_
_atom_type_symbol
_atom_type_radius_bond
C 0.68
H 0.23
N 0.68
O 0.68
loop_
_atom_site_label
_atom_site_type_symbol
_atom_site_fract_x
_atom_site_fract_y
_atom_site_fract_z
C1 C 1.2932(4) 0.0329(7) 0.8131(2)
H1 H 1.32220 0.06390 0.85860
H2 H 1.35170 0.07540 0.78790
H3 H 1.28570 -0.09490 0.80890
C2 C 1.0753(4) 0.0645(9) 0.8304(2)
H4 H 0.99770 0.12710 0.81610
H5 H 1.10970 0.09450 0.87560
H6 H 1.06070 -0.06230 0.82670
C3 C 1.1666(4) 0.1187(6) 0.78767(18)
H7 H 1.17740 0.24900 0.79100
C4 C 1.1194(4) 0.0720(6) 0.71466(18)
H8 H 1.18570 0.09640 0.69120
H9 H 1.10220 -0.05550 0.71120
C5 C 1.0032(4) 0.1719(6) 0.68081(17)
H10 H 1.01710 0.29960 0.68710
H11 H 0.93400 0.13880 0.70110
C6 C 0.9683(4) 0.1313(6) 0.60671(18)
H12 H 0.96430 0.00230 0.60090
H13 H 1.03480 0.17520 0.58630
C7 C 0.8450(3) 0.2116(5) 0.57031(18)
H14 H 0.77940 0.17530 0.59350
C8 C 0.8515(4) 0.4169(6) 0.57101(19)
H15 H 0.88180 0.45790 0.61530
H16 H 0.76970 0.46520 0.55460
H17 H 0.90720 0.45620 0.54360
C9 C 0.8117(3) 0.1349(5) 0.49967(18)
H18 H 0.87920 0.16880 0.47740
C10 C 0.8032(3) -0.0726(5) 0.49830(18)
H19 H 0.88270 -0.12400 0.49410
H20 H 0.78230 -0.11650 0.53880
C11 C 0.7005(4) -0.1256(5) 0.43867(19)
H21 H 0.73000 -0.21850 0.41290
H22 H 0.62650 -0.16840 0.45290
C12 C 0.6724(3) 0.0472(5) 0.39861(17)
C13 C 0.6866(3) 0.1920(5) 0.45414(17)
C14 C 0.5797(3) 0.1769(6) 0.49208(17)
H23 H 0.58920 0.26820 0.52540
H24 H 0.58230 0.06110 0.51250
H25 H 0.50090 0.19200 0.46200
C15 C 0.7709(4) 0.0647(6) 0.35493(18)
H26 H 0.75740 -0.02750 0.32190
H27 H 0.85310 0.05240 0.38180
H28 H 0.76320 0.18000 0.33400
C16 C 0.5452(4) 0.0646(5) 0.35186(17)
C17 C 0.5008(4) 0.2285(6) 0.33338(18)
C18 C 0.5654(4) 0.3964(5) 0.36428(18)
H29 H 0.50380 0.46810 0.38030
H30 H 0.59170 0.46460 0.32970
C19 C 0.6808(3) 0.3751(6) 0.42185(19)
H31 H 0.75640 0.39400 0.40510
H32 H 0.67760 0.46640 0.45480
C20 C 0.4821(4) -0.1061(5) 0.32480(19)
H33 H 0.47730 -0.18590 0.36110
H34 H 0.53270 -0.16430 0.29760
C21 C 0.3516(4) -0.0768(6) 0.28416(19)
H35 H 0.29320 -0.05870 0.31310
H36 H 0.32510 -0.18140 0.25710
C22 C 0.3521(3) 0.0865(6) 0.24056(17)
H37 H 0.42590 0.06960 0.22120
C23 C 0.3802(3) 0.2578(6) 0.28106(18)
C24 C 0.2740(4) 0.3184(6) 0.3145(2)
H38 H 0.29840 0.42610 0.33910
H39 H 0.25730 0.22600 0.34370
H40 H 0.20010 0.34080 0.28150
C25 C 0.2397(4) 0.0920(5) 0.17924(18)
C26 C 0.2197(4) 0.2790(6) 0.14981(19)
C27 C 0.2933(4) 0.4395(6) 0.17681(19)
H41 H 0.23790 0.52280 0.19250
H42 H 0.32330 0.49780 0.14120
C28 C 0.4051(4) 0.4037(5) 0.23275(19)
H43 H 0.42770 0.51410 0.25700
H44 H 0.47570 0.36750 0.21410
C29 C 0.1172(4) 0.0251(6) 0.1965(2)
H45 H 0.09550 0.10030 0.23000
H46 H 0.12800 -0.09590 0.21240
H47 H 0.05150 0.02900 0.15780
C30 C 0.2717(4) -0.0361(6) 0.12531(18)
H48 H 0.28170 -0.15660 0.14310
H49 H 0.20170 -0.03740 0.08800
C31 C 0.3882(4) 0.0140(6) 0.10112(18)
C32 C 0.3874(4) 0.1450(6) 0.05364(19)
H50 H 0.31190 0.19680 0.03340
C33 C 0.4966(4) 0.2004(7) 0.0358(2)
H51 H 0.49300 0.29030 0.00440
C34 C 0.6107(4) 0.1256(7) 0.0633(2)
C35 C 0.6118(4) -0.0100(7) 0.1084(2)
H52 H 0.68700 -0.06590 0.12670
C36 C 0.5022(4) -0.0653(6) 0.12715(19)
H53 H 0.50580 -0.15730 0.15780
C37 C 0.7282(4) 0.1871(8) 0.0436(2)
H54 H 0.79910 0.15060 0.07650
H55 H 0.72730 0.31530 0.03990
H56 H 0.73340 0.13480 0.00200
C38 C 0.0225(4) 0.4593(7) 0.0139(2)
H57 H 0.04640 0.37720 -0.01700
H58 H 0.01150 0.57670 -0.00530
H59 H -0.05460 0.42020 0.02470
N1 N 0.1305(3) 0.2885(4) 0.09832(16)
O1 O 0.1180(2) 0.4649(4) 0.07253(12)
#END
