
#######################################################################
#
#                 Cambridge Crystallographic Data Centre
#                                CCDC
#
#######################################################################
#
# If this CIF has been generated from an entry in the Cambridge
# Structural Database, then it will include bibliographic, chemical,
# crystal, experimental, refinement or atomic coordinate data resulting
# from the CCDC's data processing and validation procedures.
#
#######################################################################

data_CSD_CIF_TURWEI
_audit_creation_date 2003-06-05
_audit_creation_method CSD-ConQuest-V1
_database_code_CSD TURWEI
_database_code_depnum_ccdc_archive 'CCDC 182110'
_chemical_formula_sum 'C14 H18 N2 O4'
_chemical_formula_moiety
;
C14 H18 N2 O4
;
_journal_coden_Cambridge 493
_journal_volume 37
_journal_year 2002
_journal_page_first 635
_journal_name_full 'Eur.J.Med.Chem. '
loop_
_publ_author_name
"N.D.Eddington"
"D.S.Cox"
"R.R.Roberts"
"R.J.Butcher"
"I.O.Edafiogho"
"J.P.Stables"
"N.Cooke"
"A.M.Goodwin"
"C.A.Smith"
"K.R.Scott"
_chemical_name_systematic
;
Ethyl 
4-((5-methylisoxazol-3-yl)amino)-6-methyl-2-oxocyclohex-3-ene-1-carboxylate
;
_chemical_melting_point 468.15
_cell_volume   1463.347
_exptl_crystal_density_diffrn 1.263
_exptl_special_details
;
Melting point range 468.15-470.15K
anticonvulsant activity
The space group is P-1 as given in the supplementary data, not P1 as given in 
the paper
;
_exptl_crystal_description 'plate'
_exptl_crystal_preparation 'ethanol'
_diffrn_ambient_temperature 293
_refine_special_details
;
An ethyl group and a carboxylate group are disordered over two sites with 
occupancies 0.51:0.49 and 0.89:0.11, respectively.
;
#These two values have been output from a single CSD field.
_refine_ls_R_factor_gt 0.0617
_refine_ls_wR_factor_gt 0.0617
_symmetry_cell_setting triclinic
_symmetry_space_group_name_H-M 'P -1'
_symmetry_Int_Tables_number 2
loop_
_symmetry_equiv_pos_site_id
_symmetry_equiv_pos_as_xyz
1 x,y,z
2 -x,-y,-z
_cell_length_a 6.839(3)
_cell_length_b 11.619(5)
_cell_length_c 19.513(7)
_cell_angle_alpha 106.70(3)
_cell_angle_beta 91.64(3)
_cell_angle_gamma 98.80(4)
_cell_formula_units_Z 4
loop_
_atom_type_symbol
_atom_type_radius_bond
C 0.68
H 0.23
N 0.68
O 0.68
loop_
_atom_site_label
_atom_site_type_symbol
_atom_site_fract_x
_atom_site_fract_y
_atom_site_fract_z
O1 O -0.4418(6) 0.1140(3) 0.1131(2)
O2 O 0.3267(5) 0.1626(3) 0.29538(18)
O3 O 0.3381(5) 0.1586(3) 0.4533(2)
O4 O 0.5454(6) 0.0331(4) 0.4053(3)
N1 N -0.3255(6) -0.0571(4) 0.2257(2)
H1 H -0.406(7) -0.117(4) 0.231(2)
N2 N -0.3074(6) 0.0910(4) 0.1633(2)
C1 C -0.1459(6) -0.0274(4) 0.2638(2)
C2 C 0.0004(6) 0.0622(4) 0.2605(2)
H2 H -0.02170 0.11120 0.23170
C3 C 0.1875(7) 0.0841(4) 0.2995(2)
C4 C 0.2220(7) 0.0025(4) 0.3465(3)
H3 H 0.27020 -0.06810 0.31520
C5 C 0.3853(8) 0.0650(5) 0.4038(3)
C6 C 0.440(3) 0.2193(17) 0.5280(6)
H4 H 0.34370 0.24270 0.56270
H5 H 0.51580 0.16530 0.54280
C7 C 0.569(3) 0.326(2) 0.5208(16)
H6 H 0.63390 0.37240 0.56690
H7 H 0.49200 0.37460 0.50290
H8 H 0.66700 0.30010 0.48800
C8? C 0.526(2) 0.2195(15) 0.501(1)
H9? H 0.56020 0.17060 0.53090
H10? H 0.63700 0.23370 0.47270
C9? C 0.475(4) 0.3333(19) 0.5439(14)
H11? H 0.54170 0.35580 0.59100
H12? H 0.33430 0.32380 0.54750
H13? H 0.51560 0.39590 0.52160
C10 C 0.0354(7) -0.0469(5) 0.3729(3)
H14 H -0.01490 0.02230 0.40470
C11 C 0.0657(10) -0.1339(6) 0.4164(4)
H15 H 0.16550 -0.09400 0.45500
H16 H 0.10750 -0.20520 0.38580
H17 H -0.05670 -0.15710 0.43550
C12 C -0.1209(7) -0.1077(4) 0.3105(2)
H18 H -0.08310 -0.18280 0.28160
H19 H -0.24700 -0.12850 0.32930
C13 C -0.4020(7) -0.0044(4) 0.1775(2)
C14 C -0.5908(8) -0.0459(5) 0.1398(3)
H20 H -0.684(6) -0.115(4) 0.143(2)
C15 C -0.6077(8) 0.0300(5) 0.1018(3)
C16 C -0.7674(11) 0.0415(6) 0.0505(4)
H21 H -0.88940 0.04610 0.07350
H22 H -0.78590 -0.02830 0.00860
H23 H -0.72870 0.11400 0.03660
O5 O 0.9525(5) 0.5166(3) 0.36985(19)
O6 O 0.3710(5) 0.7450(3) 0.22398(18)
O7 O -0.0783(7) 0.6863(4) 0.1349(3)
O8 O 0.1564(7) 0.6122(4) 0.0678(2)
O9? O 0.017(4) 0.670(3) 0.0688(11)
O10? O -0.047(5) 0.661(4) 0.1651(19)
N3 N 0.4930(6) 0.3837(4) 0.2730(2)
H24 H 0.425(7) 0.314(4) 0.270(2)
N4 N 0.7862(6) 0.5243(3) 0.3271(2)
C17 C 0.3891(6) 0.4512(4) 0.2435(2)
C18 C 0.4478(7) 0.5688(4) 0.2469(2)
H25 H 0.57190 0.60850 0.26910
C19 C 0.3253(6) 0.6344(4) 0.2173(2)
C20 C 0.1267(7) 0.5677(4) 0.1782(3)
H26 H 0.014(7) 0.576(4) 0.216(2)
C21 C 0.0726(8) 0.6237(4) 0.1225(3)
C22 C -0.1393(12) 0.7344(7) 0.0799(4)
H27 H -0.076(9) 0.753(6) 0.040(3)
H28 H -0.152(9) 0.825(6) 0.097(3)
C23 C -0.3349(12) 0.6656(8) 0.0477(5)
H29 H -0.38170 0.69950 0.01220
H30 H -0.42670 0.67050 0.08430
H31 H -0.32410 0.58180 0.02550
C24 C 0.1106(8) 0.4330(4) 0.1525(3)
H32 H 0.19710 0.41740 0.11280
C25 C -0.0957(8) 0.3657(5) 0.1194(3)
H33 H -0.09540 0.27950 0.10430
H34 H -0.13010 0.39140 0.07870
H35 H -0.19120 0.38410 0.15430
C26 C 0.1934(7) 0.3810(4) 0.2059(3)
H36 H 0.20990 0.29800 0.18180
H37 H 0.09850 0.37800 0.24160
C27 C 0.6737(7) 0.4168(4) 0.3133(2)
C28 C 0.7580(8) 0.3391(5) 0.3445(3)
H38 H 0.709(6) 0.262(4) 0.339(2)
C29 C 0.9288(8) 0.4041(4) 0.3785(3)
C30 C 1.0915(9) 0.3786(6) 0.4214(3)
H39 H 1.04860 0.30400 0.43270
H40 H 1.12490 0.44430 0.46500
H41 H 1.20600 0.37100 0.39410
#END
