
#######################################################################
#
#                 Cambridge Crystallographic Data Centre
#                                CCDC
#
#######################################################################
#
# If this CIF has been generated from an entry in the Cambridge
# Structural Database, then it will include bibliographic, chemical,
# crystal, experimental, refinement or atomic coordinate data resulting
# from the CCDC's data processing and validation procedures.
#
#######################################################################

data_CSD_CIF_TUSJAT
_audit_creation_date 2010-10-12
_audit_creation_method CSD-ConQuest-V1
_database_code_CSD TUSJAT
_database_code_depnum_ccdc_archive 'CCDC 675835'
_chemical_formula_sum 'C22 H23 N1 O7'
_chemical_formula_moiety
;
C22 H23 N1 O7
;
_journal_coden_Cambridge 156
_journal_volume 345
_journal_year 2010
_journal_page_first 457
_journal_name_full 'Carbohydr.Res. '
loop_
_publ_author_name
"R.S.Kumar"
"K.Karthikeyan"
"B.V.N.P.Kumar"
"D.Muralidharan"
"P.T.Perumal"
_chemical_name_systematic
;
3-(3-Benzyloxy-4-hydroxy-5-nitromethyl-tetrahydro-furan-2-yl)-acrylic acid 
benzyl ester
;
_chemical_name_common
;
(Z)-Benzyl 
3-((2R,3R,4S,5R)-3-(benzyloxy)-4-hydroxy-5-(nitromethyl)tetrahydrofuran-2-yl)a
crylate
;
_chemical_melting_point 370.15
_cell_volume   1023.086
_exptl_crystal_density_diffrn 1.342
_exptl_special_details
;
Melting point range 370.15-372.15K

;
_exptl_crystal_description 'needle'
_diffrn_ambient_temperature 295
#These two values have been output from a single CSD field.
_refine_ls_R_factor_gt 0.0377
_refine_ls_wR_factor_gt 0.0377
_symmetry_cell_setting monoclinic
_symmetry_space_group_name_H-M 'P 21'
_symmetry_Int_Tables_number 4
loop_
_symmetry_equiv_pos_site_id
_symmetry_equiv_pos_as_xyz
1 x,y,z
2 -x,1/2+y,-z
_cell_length_a 12.6020(8)
_cell_length_b 5.3794(3)
_cell_length_c 16.0772(10)
_cell_angle_alpha 90
_cell_angle_beta 110.165(3)
_cell_angle_gamma 90
_cell_formula_units_Z 2
loop_
_atom_type_symbol
_atom_type_radius_bond
C 0.68
H 0.23
N 0.68
O 0.68
loop_
_atom_site_label
_atom_site_type_symbol
_atom_site_fract_x
_atom_site_fract_y
_atom_site_fract_z
C1 C 0.20073(15) 1.0720(4) 0.03845(11)
H1 H 0.15370 0.92250 0.03010
C2 C 0.31578(15) 1.0222(4) 0.11044(11)
H2 H 0.30860 0.90720 0.15550
C3 C 0.38230(16) 0.9060(4) 0.05736(11)
H3 H 0.46400 0.92630 0.08710
C4 C 0.33912(15) 1.0543(4) -0.02877(11)
H4 H 0.38440 1.20570 -0.02290
C5 C 0.13678(16) 1.2896(4) 0.05500(12)
C6 C 0.07098(17) 1.2948(4) 0.10410(13)
C7 C 0.05023(17) 1.0793(4) 0.15211(12)
C8 C -0.05907(18) 0.9277(5) 0.23577(14)
H5 H -0.06160 0.77340 0.20390
H6 H -0.13400 0.95790 0.23780
C9 C 0.02282(16) 0.9003(5) 0.32862(14)
C10 C 0.0220(2) 1.0713(6) 0.39301(16)
H7 H -0.02810 1.20440 0.37810
C11 C 0.0953(3) 1.0447(7) 0.47893(18)
H8 H 0.09450 1.16050 0.52170
C12 C 0.1687(2) 0.8501(6) 0.50161(18)
H9 H 0.21820 0.83330 0.55960
C13 C 0.1695(2) 0.6794(6) 0.43885(19)
H10 H 0.21910 0.54530 0.45420
C14 C 0.0966(2) 0.7059(6) 0.35243(16)
H11 H 0.09790 0.58950 0.31000
C15 C 0.37318(19) 1.2908(5) 0.23890(12)
H12 H 0.29620 1.29350 0.23890
H13 H 0.40650 1.45230 0.25870
C16 C 0.43885(16) 1.0959(4) 0.30244(11)
C17 C 0.39005(18) 0.9601(5) 0.35252(13)
H14 H 0.31520 0.98990 0.34700
C18 C 0.4514(2) 0.7794(6) 0.41118(14)
H15 H 0.41780 0.69040 0.44510
C19 C 0.5611(2) 0.7321(6) 0.41908(14)
H16 H 0.60210 0.61060 0.45810
C20 C 0.6102(2) 0.8647(6) 0.36923(14)
H17 H 0.68470 0.83230 0.37420
C21 C 0.54991(18) 1.0462(5) 0.31167(13)
H18 H 0.58440 1.13620 0.27860
C22 C 0.3415(2) 0.9088(5) -0.10811(12)
H19 H 0.41810 0.85270 -0.09820
H20 H 0.29370 0.76320 -0.11560
N1 N 0.30153(15) 1.0627(5) -0.19002(11)
O1 O 0.22539(11) 1.1198(3) -0.04114(8)
O2 O 0.09797(14) 0.8825(3) 0.16027(11)
O3 O -0.02882(12) 1.1310(3) 0.18761(10)
O4 O 0.37133(11) 1.2472(3) 0.14965(8)
O5 O 0.35276(14) 0.6544(3) 0.03592(9)
H21 H 0.36360 0.57470 0.08160
O6 O 0.33309(16) 1.2813(4) -0.18531(11)
O7 O 0.23747(17) 0.9715(5) -0.25654(10)
H22 H 0.0376(17) 1.448(5) 0.1113(13)
H23 H 0.1442(16) 1.424(5) 0.0250(13)
#END
