
#######################################################################
#
#                 Cambridge Crystallographic Data Centre
#                                CCDC
#
#######################################################################
#
# If this CIF has been generated from an entry in the Cambridge
# Structural Database, then it will include bibliographic, chemical,
# crystal, experimental, refinement or atomic coordinate data resulting
# from the CCDC's data processing and validation procedures.
#
#######################################################################

data_CSD_CIF_TUSNAX
_audit_creation_date 2010-10-11
_audit_creation_method CSD-ConQuest-V1
_database_code_CSD TUSNAX
_database_code_depnum_ccdc_archive 'CCDC 741375'
_chemical_formula_sum 'C17 H26 N3 O3'
_chemical_formula_moiety
;
C17 H26 N3 O3
;
_journal_coden_Cambridge 1220
_journal_volume 16
_journal_year 2010
_journal_page_first 5778
_journal_name_full 'Chem.-Eur.J. '
loop_
_publ_author_name
"A.Rajca"
"V.Kathirvelu"
"S.K.Roy"
"M.Pink"
"S.Rajca"
"S.Sarkar"
"S.S.Eaton"
"G.R.Eaton"
_chemical_name_systematic
;
13-Hydroxy-1,3,13-triazatrispiro[4.1.5^7^.1.5^14^.1^5^]icosane-2,4-dione
;
_cell_volume   1624.542
_exptl_crystal_colour 'light yellow'
_exptl_crystal_density_diffrn 1.31
_exptl_crystal_description 'prism'
_diffrn_ambient_temperature 100
_diffrn_radiation_probe x-ray
_diffrn_source synchrotron
#These two values have been output from a single CSD field.
_refine_ls_R_factor_gt 0.0429
_refine_ls_wR_factor_gt 0.0429
_symmetry_cell_setting triclinic
_symmetry_space_group_name_H-M 'P -1'
_symmetry_Int_Tables_number 2
loop_
_symmetry_equiv_pos_site_id
_symmetry_equiv_pos_as_xyz
1 x,y,z
2 -x,-y,-z
_cell_length_a 9.0949(2)
_cell_length_b 11.3226(3)
_cell_length_c 15.8775(5)
_cell_angle_alpha 95.976(1)
_cell_angle_beta 90.548(1)
_cell_angle_gamma 92.415(1)
_cell_formula_units_Z 4
loop_
_atom_type_symbol
_atom_type_radius_bond
C 0.68
H 0.23
N 0.68
O 0.68
loop_
_atom_site_label
_atom_site_type_symbol
_atom_site_fract_x
_atom_site_fract_y
_atom_site_fract_z
O1 O 0.52287(10) 0.42764(8) 0.41327(6)
O2 O 0.68059(10) 0.08519(9) 0.50757(6)
O3 O -0.06973(10) 0.32158(9) 0.41752(6)
N1 N 0.63764(11) 0.27075(10) 0.46502(7)
H1 H 0.72940 0.29880 0.46580
N2 N 0.44714(11) 0.14951(9) 0.48447(7)
H2 H 0.39580 0.08730 0.49890
N3 N 0.06348(11) 0.29151(9) 0.42802(6)
C1 C 0.38046(12) 0.25314(10) 0.45429(7)
C2 C 0.51914(13) 0.33218(11) 0.44097(7)
C3 C 0.59514(13) 0.15940(11) 0.48789(8)
C4 C 0.28018(13) 0.31705(11) 0.52005(8)
H3 H 0.28500 0.40300 0.51310
H4 H 0.31880 0.30770 0.57740
C5 C 0.11795(13) 0.27217(11) 0.51435(7)
C6 C 0.16021(13) 0.28705(11) 0.35214(7)
C7 C 0.29686(13) 0.21699(11) 0.36953(7)
H5 H 0.36670 0.22500 0.32280
H6 H 0.26590 0.13190 0.36750
C8 C 0.08923(13) 0.13947(11) 0.52561(8)
H7 H -0.01570 0.11730 0.51280
H8 H 0.14920 0.09100 0.48460
C9 C 0.12641(15) 0.11093(12) 0.61531(8)
H9 H 0.10230 0.02580 0.62020
H10 H 0.23320 0.12580 0.62650
C10 C 0.03989(16) 0.18739(13) 0.68090(9)
H11 H -0.06650 0.16600 0.67360
H12 H 0.07020 0.17130 0.73850
C11 C 0.06646(15) 0.31955(13) 0.67167(8)
H13 H 0.17070 0.34290 0.68560
H14 H 0.00430 0.36660 0.71230
C12 C 0.03061(14) 0.34766(12) 0.58129(8)
H15 H 0.05390 0.43290 0.57680
H16 H -0.07610 0.33240 0.56980
C13 C 0.07365(14) 0.21957(13) 0.27661(8)
H17 H 0.05970 0.13500 0.28650
H18 H -0.02490 0.25280 0.27320
C14 C 0.15185(15) 0.22748(14) 0.19202(8)
H19 H 0.24660 0.18770 0.19320
H20 H 0.09030 0.18560 0.14550
C15 C 0.18036(16) 0.35631(15) 0.17513(9)
H21 H 0.08540 0.39390 0.16800
H22 H 0.23600 0.35910 0.12200
C16 C 0.26796(15) 0.42524(13) 0.24839(9)
H23 H 0.27910 0.50990 0.23810
H24 H 0.36760 0.39360 0.25080
C17 C 0.19255(14) 0.41618(11) 0.33333(8)
H25 H 0.09890 0.45770 0.33340
H26 H 0.25620 0.45730 0.37920
O4 O 1.04293(10) 0.42212(8) 0.89612(6)
O5 O 1.16411(10) 0.05857(9) 0.96848(7)
O6 O 0.43135(10) 0.29674(9) 0.97572(6)
N4 N 1.14047(11) 0.24757(10) 0.92956(7)
H27 H 1.23460 0.26550 0.92340
N5 N 0.93729(11) 0.14074(9) 0.95180(7)
H28 H 0.87900 0.07850 0.95860
N6 N 0.57022(11) 0.28919(9) 0.96313(6)
C18 C 0.88454(12) 0.25813(10) 0.93881(7)
C19 C 1.03031(13) 0.32326(11) 0.91797(7)
C20 C 1.08599(14) 0.13920(11) 0.95214(8)
C21 C 0.82350(13) 0.32788(11) 1.01784(8)
H29 H 0.83010 0.41340 1.00960
H30 H 0.88830 0.31670 1.06660
C22 C 0.66464(13) 0.29587(11) 1.04149(7)
C23 C 0.61472(13) 0.23119(11) 0.87844(7)
C24 C 0.77794(13) 0.26312(11) 0.86414(7)
H31 H 0.81200 0.20870 0.81610
H32 H 0.78510 0.34460 0.84670
C25 C 0.61038(14) 0.39754(11) 1.10460(8)
H33 H 0.62860 0.47430 1.08100
H34 H 0.50290 0.38610 1.11200
C26 C 0.68835(14) 0.40202(13) 1.19125(8)
H35 H 0.79440 0.42200 1.18490
H36 H 0.64700 0.46540 1.23060
C27 C 0.67025(14) 0.28329(13) 1.22870(8)
H37 H 0.56560 0.26870 1.24250
H38 H 0.72870 0.28710 1.28190
C28 C 0.72047(14) 0.18053(12) 1.16700(8)
H39 H 0.69920 0.10450 1.19100
H40 H 0.82820 0.18920 1.15940
C29 C 0.64260(13) 0.17757(11) 1.08092(8)
H41 H 0.53600 0.16040 1.08780
H42 H 0.68100 0.11250 1.04190
C30 C 0.57957(13) 0.09586(11) 0.87301(8)
H43 H 0.64580 0.06040 0.91240
H44 H 0.47720 0.08170 0.89130
C31 C 0.59760(15) 0.03416(12) 0.78330(8)
H45 H 0.70300 0.03770 0.76830
H46 H 0.56530 -0.05060 0.78220
C32 C 0.50885(16) 0.09126(13) 0.71737(9)
H47 H 0.40240 0.07820 0.72750
H48 H 0.53040 0.05310 0.66010
C33 C 0.54652(15) 0.22459(13) 0.72166(8)
H49 H 0.48430 0.26050 0.68050
H50 H 0.65080 0.23780 0.70640
C34 C 0.52083(14) 0.28404(12) 0.81112(8)
H51 H 0.41540 0.27400 0.82490
H52 H 0.54540 0.37030 0.81290
#END
