
#######################################################################
#
#                 Cambridge Crystallographic Data Centre
#                                CCDC
#
#######################################################################
#
# If this CIF has been generated from an entry in the Cambridge
# Structural Database, then it will include bibliographic, chemical,
# crystal, experimental, refinement or atomic coordinate data resulting
# from the CCDC's data processing and validation procedures.
#
#######################################################################

data_CSD_CIF_TUSZOX
_audit_creation_date 2010-10-20
_audit_creation_method CSD-ConQuest-V1
_database_code_CSD TUSZOX
_database_code_depnum_ccdc_archive 'CCDC 750866'
_chemical_formula_sum 'C12 H15 N5 O4'
_chemical_formula_moiety
;
C12 H15 N5 O4
;
_journal_coden_Cambridge 1378
_journal_volume 29
_journal_year 2010
_journal_page_first 91
_journal_name_full 'Nucleosides, Nucleotides Nucleic Acids '
loop_
_publ_author_name
"M.Ganesan"
"K.M.Muraleedharan"
_chemical_name_systematic
;
3-(4-(((3-Nitrophenyl)amino)methyl)-1H-1,2,3-triazol-1-yl)propane-1,2-diol
;
_cell_volume   3111.698
_exptl_crystal_colour 'colorless'
_exptl_crystal_density_diffrn 1.408
_exptl_crystal_description 'block'
_exptl_crystal_preparation 'chloroform'
_diffrn_ambient_temperature 298
#These two values have been output from a single CSD field.
_refine_ls_R_factor_gt 0.039
_refine_ls_wR_factor_gt 0.039
_symmetry_cell_setting rhombohedral
_symmetry_space_group_name_H-M 'R 3'
_symmetry_Int_Tables_number 146
loop_
_symmetry_equiv_pos_site_id
_symmetry_equiv_pos_as_xyz
1 x,y,z
2 -y,x-y,z
3 -x+y,-x,z
4 2/3+x,1/3+y,1/3+z
5 2/3-y,1/3+x-y,1/3+z
6 2/3-x+y,1/3-x,1/3+z
7 1/3+x,2/3+y,2/3+z
8 1/3-y,2/3+x-y,2/3+z
9 1/3-x+y,2/3-x,2/3+z
_cell_length_a 27.5179(10)
_cell_length_b 27.5179(10)
_cell_length_c 4.745(13)
_cell_angle_alpha 90
_cell_angle_beta 90
_cell_angle_gamma 120
_cell_formula_units_Z 9
loop_
_atom_type_symbol
_atom_type_radius_bond
C 0.68
H 0.23
N 0.68
O 0.68
loop_
_atom_site_label
_atom_site_type_symbol
_atom_site_fract_x
_atom_site_fract_y
_atom_site_fract_z
C1 C 0.93886(18) 0.85365(18) 0.303(1)
C2 C 0.9709(2) 0.9058(2) 0.4255(13)
H1 H 0.96690 0.93620 0.37360
C3 C 1.0088(2) 0.9107(2) 0.6267(14)
H2 H 1.03090 0.94520 0.71370
C4 C 1.01498(18) 0.8664(2) 0.7023(11)
H3 H 1.04090 0.87120 0.84100
C5 C 0.98307(17) 0.81386(18) 0.5753(9)
C6 C 0.94412(17) 0.80792(18) 0.3722(9)
H4 H 0.92190 0.77350 0.28420
C7 C 0.96705(17) 0.71808(18) 0.4940(11)
H5 H 0.98880 0.70010 0.53720
H6 H 0.97220 0.72780 0.29540
C8 C 0.90648(17) 0.67720(17) 0.5456(10)
C9 C 0.86882(19) 0.67827(19) 0.7286(9)
H7 H 0.87500 0.70690 0.85350
C10 C 0.76744(18) 0.6073(2) 0.8474(10)
H8 H 0.76930 0.63660 0.96900
H9 H 0.76230 0.57640 0.96590
C11 C 0.71782(17) 0.58741(17) 0.6530(9)
H10 H 0.71720 0.55930 0.52410
C12 C 0.6642(2) 0.56127(19) 0.8192(10)
H11 H 0.63260 0.54950 0.69210
H12 H 0.65970 0.52830 0.91710
N1 N 0.89681(18) 0.84581(19) 0.0945(10)
N2 N 0.98879(15) 0.76902(16) 0.6568(9)
H13 H 1.00610 0.77140 0.81170
N3 N 0.87905(15) 0.62733(16) 0.4046(8)
N4 N 0.82688(14) 0.59819(15) 0.4949(9)
N5 N 0.82094(15) 0.62943(15) 0.6909(7)
O1 O 0.87039(17) 0.8009(2) -0.0208(9)
O2 O 0.88884(18) 0.8849(2) 0.0429(10)
O3 O 0.72596(14) 0.63511(12) 0.4928(6)
H14 H 0.70920 0.62450 0.34240
O4 O 0.66470(14) 0.60048(16) 1.0195(7)
H15 H 0.63370 0.59780 1.02430
#END
