
#######################################################################
#
#                 Cambridge Crystallographic Data Centre
#                                CCDC
#
#######################################################################
#
# If this CIF has been generated from an entry in the Cambridge
# Structural Database, then it will include bibliographic, chemical,
# crystal, experimental, refinement or atomic coordinate data resulting
# from the CCDC's data processing and validation procedures.
#
#######################################################################

data_CSD_CIF_TUVMEE02
_audit_creation_date 2015-10-01
_audit_creation_method CSD-ConQuest-V1
_database_code_CSD TUVMEE02
_database_code_depnum_ccdc_archive 'CCDC 718313'
_chemical_formula_sum 'C12 H18 N4 O6'
_chemical_formula_moiety
;
C12 H18 N4 O6
;
_journal_coden_Cambridge 1277
_journal_volume 113
_journal_year 2009
_journal_page_first 11354
_journal_name_full 'J.Phys.Chem.A '
loop_
_publ_author_name
"P.Naumov"
"Sang Cheol Lee"
"N.Ishizawa"
"Young Gyu Jeong"
"Ihn Hee Chung"
"Shunichi Fukuzumi"
_chemical_name_systematic
;
3,3'-((4,6-dinitro-1,3-phenylene)diimino)dipropan-1-ol
;
_cell_volume   1468.679
_exptl_crystal_colour 'yellow'
_exptl_crystal_density_diffrn 1.566
_exptl_crystal_description 'block'
_diffrn_ambient_temperature 293
#These two values have been output from a single CSD field.
_refine_ls_R_factor_gt 0.0372
_refine_ls_wR_factor_gt 0.0372
_symmetry_cell_setting monoclinic
_symmetry_space_group_name_H-M 'P 21/c'
_symmetry_Int_Tables_number 14
loop_
_symmetry_equiv_pos_site_id
_symmetry_equiv_pos_as_xyz
1 x,y,z
2 -x,1/2+y,1/2-z
3 -x,-y,-z
4 x,-1/2-y,-1/2+z
_cell_length_a 7.2445(12)
_cell_length_b 20.901(4)
_cell_length_c 9.7813(16)
_cell_angle_alpha 90
_cell_angle_beta 97.413(2)
_cell_angle_gamma 90
_cell_formula_units_Z 4
loop_
_atom_type_symbol
_atom_type_radius_bond
C 0.68
H 0.23
N 0.68
O 0.68
loop_
_atom_site_label
_atom_site_type_symbol
_atom_site_fract_x
_atom_site_fract_y
_atom_site_fract_z
N1 N 0.1409(2) 0.54038(7) 0.78352(15)
C1 C 0.34229(19) 0.52719(7) 1.14711(15)
O1 O 0.3708(2) 0.36928(6) 1.29777(13)
N2 N 0.4159(2) 0.56606(6) 1.24834(15)
O2 O 0.3694(2) 0.76477(6) 1.36187(13)
C2 C 0.3310(2) 0.45918(7) 1.16350(15)
C3 C 0.2742(2) 0.55147(7) 1.01735(15)
H1 H 0.27770 0.59550 1.00460
N3 N 0.1176(2) 0.40174(7) 0.82543(15)
C4 C 0.2595(2) 0.42120(7) 1.05537(16)
H2 H 0.25490 0.37720 1.06820
N4 N 0.3876(2) 0.42742(7) 1.29120(14)
C5 C 0.2012(2) 0.51379(7) 0.90570(15)
C6 C 0.1380(2) 0.60823(8) 0.75554(17)
H3 H 0.26170 0.62590 0.77970
H4 H 0.05480 0.62940 0.81130
C7 C 0.4240(2) 0.63524(7) 1.23751(16)
H5 H 0.29890 0.65270 1.22410
H6 H 0.48540 0.64710 1.15880
C8 C 0.1947(2) 0.44627(7) 0.92877(16)
O3 O 0.0527(2) 0.42173(6) 0.71102(13)
O4 O 0.21642(19) 0.72505(6) 0.58803(14)
O5 O 0.1168(2) 0.34471(6) 0.85222(15)
O6 O 0.4516(3) 0.45874(6) 1.39246(13)
C9 C 0.5301(2) 0.66222(7) 1.36772(16)
H7 H 0.46900 0.64910 1.44570
H8 H 0.65450 0.64420 1.38000
C10 C 0.0729(3) 0.62020(9) 0.60437(18)
H9 H 0.16320 0.60230 0.55000
H10 H -0.04430 0.59820 0.57880
C11 C 0.5447(2) 0.73409(8) 1.36748(19)
H11 H 0.62330 0.74770 1.45020
H12 H 0.60400 0.74740 1.28870
C12 C 0.0473(3) 0.69014(9) 0.5702(2)
H13 H -0.00950 0.69430 0.47530
H14 H -0.03730 0.70860 0.62860
H15 H 0.449(2) 0.5501(9) 1.326(2)
H16 H 0.096(2) 0.5144(9) 0.7225(19)
H17 H 0.258(3) 0.7283(11) 0.674(3)
H18 H 0.315(3) 0.7538(12) 1.428(3)
#END
