
#######################################################################
#
#                 Cambridge Crystallographic Data Centre
#                                CCDC
#
#######################################################################
#
# If this CIF has been generated from an entry in the Cambridge
# Structural Database, then it will include bibliographic, chemical,
# crystal, experimental, refinement or atomic coordinate data resulting
# from the CCDC's data processing and validation procedures.
#
#######################################################################

data_CSD_CIF_TUVMUU01
_audit_creation_date 2015-10-01
_audit_creation_method CSD-ConQuest-V1
_database_code_CSD TUVMUU01
_database_code_depnum_ccdc_archive 'CCDC 718315'
_chemical_formula_sum 'C14 H22 N4 O6'
_chemical_formula_moiety
;
C14 H22 N4 O6
;
_journal_coden_Cambridge 1277
_journal_volume 113
_journal_year 2009
_journal_page_first 11354
_journal_name_full 'J.Phys.Chem.A '
loop_
_publ_author_name
"P.Naumov"
"Sang Cheol Lee"
"N.Ishizawa"
"Young Gyu Jeong"
"Ihn Hee Chung"
"Shunichi Fukuzumi"
_chemical_name_systematic
;
4,4'-((4,6-dinitro-1,3-phenylene)diimino)dibutan-1-ol
;
_cell_volume   3267.659
_exptl_crystal_colour 'yellow'
_exptl_crystal_density_diffrn 1.392
_exptl_crystal_description 'prism'
_diffrn_ambient_temperature 293
#These two values have been output from a single CSD field.
_refine_ls_R_factor_gt 0.0547
_refine_ls_wR_factor_gt 0.0547
_symmetry_cell_setting monoclinic
_symmetry_space_group_name_H-M 'P 21/n'
_symmetry_Int_Tables_number 14
loop_
_symmetry_equiv_pos_site_id
_symmetry_equiv_pos_as_xyz
1 x,y,z
2 1/2-x,1/2+y,1/2-z
3 -x,-y,-z
4 -1/2+x,-1/2-y,-1/2+z
_cell_length_a 8.3906(19)
_cell_length_b 14.517(3)
_cell_length_c 26.835(6)
_cell_angle_alpha 90
_cell_angle_beta 91.427(3)
_cell_angle_gamma 90
_cell_formula_units_Z 8
loop_
_atom_type_symbol
_atom_type_radius_bond
C 0.68
H 0.23
N 0.68
O 0.68
loop_
_atom_site_label
_atom_site_type_symbol
_atom_site_fract_x
_atom_site_fract_y
_atom_site_fract_z
O1 O 1.2954(3) 0.46579(17) 0.45790(9)
H1 H 1.25570 0.51580 0.45070
H2 H 1.178(5) 0.667(3) 0.3052(14)
H3 H 1.077(4) 0.528(3) 0.0831(14)
H4 H 1.355(5) 0.138(3) 0.0080(14)
O2 O 0.8426(4) 0.7482(2) 0.08924(10)
C1 C 1.1557(4) 0.5692(2) 0.19945(12)
H5 H 1.21300 0.51590 0.20700
N1 N 1.0093(5) 0.7834(2) 0.26038(13)
C2 C 1.2841(4) 0.5365(2) 0.29860(12)
H6 H 1.38040 0.52930 0.27970
H7 H 1.21640 0.48350 0.29200
C3 C 1.3911(4) 0.4498(2) 0.37338(13)
H8 H 1.31260 0.40210 0.36660
H9 H 1.48640 0.43410 0.35550
C4 C 1.2717(5) 0.2808(3) 0.08024(13)
H10 H 1.38100 0.28240 0.09280
H11 H 1.20860 0.24770 0.10420
C5 C 1.0958(4) 0.5796(3) 0.15106(13)
C6 C 1.2096(5) 0.3779(3) 0.07514(13)
H12 H 1.27690 0.41150 0.05250
H13 H 1.10300 0.37590 0.06030
N2 N 1.2015(4) 0.6201(2) 0.28302(12)
C7 C 1.1357(4) 0.6333(2) 0.23749(13)
N3 N 1.1235(4) 0.5176(2) 0.11565(13)
C8 C 0.9775(4) 0.7239(3) 0.17793(14)
H14 H 0.91500 0.77540 0.17090
N4 N 0.9264(4) 0.6790(2) 0.09384(13)
O3 O 0.9468(4) 0.6261(2) 0.05862(10)
O4 O 1.3337(4) 0.1414(2) 0.03651(12)
C9 C 1.3267(4) 0.5409(2) 0.35354(12)
H15 H 1.23270 0.55770 0.37180
H16 H 1.40630 0.58850 0.35920
C10 C 1.0428(5) 0.7132(2) 0.22472(14)
C11 C 1.0020(4) 0.6604(3) 0.14124(13)
O5 O 0.9279(5) 0.8492(2) 0.24729(11)
O6 O 1.0592(4) 0.7767(2) 0.30366(11)
C12 C 1.2042(4) 0.4296(2) 0.12381(13)
H17 H 1.14740 0.39350 0.14810
H18 H 1.31170 0.44010 0.13670
C13 C 1.4306(4) 0.4505(3) 0.42841(14)
H19 H 1.47850 0.39200 0.43770
H20 H 1.50860 0.49840 0.43540
C14 C 1.2651(5) 0.2310(3) 0.03169(14)
H21 H 1.15500 0.22550 0.02020
H22 H 1.32240 0.26590 0.00710
H23 H 0.824(4) 0.164(2) 0.1999(12)
H24 H 0.914(5) 0.034(3) 0.4168(14)
H25 H 0.654(7) -0.401(4) 0.487(2)
N5 N 0.8049(4) 0.1233(2) 0.22043(13)
C15 C 0.9116(4) 0.0841(2) 0.35209(13)
C16 C 0.6825(4) 0.0448(2) 0.14990(12)
H26 H 0.77860 0.05910 0.13210
H27 H 0.60770 0.09480 0.14420
C17 C 0.8704(4) 0.1373(2) 0.26573(13)
C18 C 1.0073(4) 0.1638(3) 0.36187(13)
C19 C 0.9642(5) 0.2172(2) 0.27799(13)
N6 N 0.8814(4) 0.0220(2) 0.38736(13)
C20 C 0.5964(5) -0.0379(3) 0.07297(14)
H28 H 0.54170 0.01870 0.06370
H29 H 0.70220 -0.03560 0.05930
C21 C 0.7991(5) -0.0650(2) 0.37871(13)
H30 H 0.85580 -0.10090 0.35430
H31 H 0.69240 -0.05320 0.36550
N7 N 0.9976(5) 0.2868(2) 0.24241(14)
O7 O 0.9427(4) 0.2817(2) 0.19967(11)
N8 N 1.0887(4) 0.1794(2) 0.40862(13)
C22 C 0.8495(4) 0.0734(2) 0.30386(13)
H32 H 0.79050 0.02060 0.29660
O8 O 1.0550(4) 0.1326(2) 0.44515(10)
C23 C 0.6108(4) -0.0433(3) 0.12875(13)
H33 H 0.67770 -0.09520 0.13830
H34 H 0.50620 -0.05300 0.14250
C24 C 0.7160(5) -0.2680(3) 0.46594(14)
H35 H 0.82180 -0.27530 0.48080
H36 H 0.65080 -0.23480 0.48930
O9 O 0.6483(4) -0.3557(2) 0.45600(11)
C25 C 1.0312(4) 0.2267(3) 0.32480(14)
H37 H 1.09530 0.27760 0.33160
C26 C 0.7229(4) 0.0394(2) 0.20471(12)
H38 H 0.62600 0.03200 0.22330
H39 H 0.79070 -0.01360 0.21140
C27 C 0.7896(5) -0.1184(3) 0.42651(13)
H40 H 0.72090 -0.08590 0.44910
H41 H 0.89500 -0.12200 0.44210
O10 O 1.1946(4) 0.2385(2) 0.41081(10)
O11 O 1.0838(5) 0.3510(2) 0.25503(11)
C28 C 0.7260(5) -0.2146(2) 0.41826(13)
H42 H 0.62070 -0.21100 0.40260
H43 H 0.79490 -0.24710 0.39570
O12 O 0.5127(3) -0.11333(19) 0.05204(10)
H44 H 0.50790 -0.10790 0.02160
#END
