
#######################################################################
#
#                 Cambridge Crystallographic Data Centre
#                                CCDC
#
#######################################################################
#
# If this CIF has been generated from an entry in the Cambridge
# Structural Database, then it will include bibliographic, chemical,
# crystal, experimental, refinement or atomic coordinate data resulting
# from the CCDC's data processing and validation procedures.
#
#######################################################################

data_CSD_CIF_TUVNEF
_audit_creation_date 2015-10-01
_audit_creation_method CSD-ConQuest-V1
_database_code_CSD TUVNEF
_database_code_depnum_ccdc_archive 'CCDC 718316'
_chemical_formula_sum 'C16 H26 N4 O6'
_chemical_formula_moiety
;
C16 H26 N4 O6
;
_journal_coden_Cambridge 1277
_journal_volume 113
_journal_year 2009
_journal_page_first 11354
_journal_name_full 'J.Phys.Chem.A '
loop_
_publ_author_name
"P.Naumov"
"Sang Cheol Lee"
"N.Ishizawa"
"Young Gyu Jeong"
"Ihn Hee Chung"
"Shunichi Fukuzumi"
_chemical_name_systematic
;
5,5'-((4,6-dinitro-1,3-phenylene)diimino)dipentan-1-ol
;
_cell_volume    892.008
_exptl_crystal_colour 'yellow'
_exptl_crystal_density_diffrn 1.379
_exptl_crystal_description 'prism'
_diffrn_ambient_temperature 293
#These two values have been output from a single CSD field.
_refine_ls_R_factor_gt 0.0394
_refine_ls_wR_factor_gt 0.0394
_symmetry_cell_setting triclinic
_symmetry_space_group_name_H-M 'P -1'
_symmetry_Int_Tables_number 2
loop_
_symmetry_equiv_pos_site_id
_symmetry_equiv_pos_as_xyz
1 x,y,z
2 -x,-y,-z
_cell_length_a 4.7244(2)
_cell_length_b 12.1071(4)
_cell_length_c 15.6874(5)
_cell_angle_alpha 84.553(2)
_cell_angle_beta 87.211(2)
_cell_angle_gamma 88.585(2)
_cell_formula_units_Z 2
loop_
_atom_type_symbol
_atom_type_radius_bond
C 0.68
H 0.23
N 0.68
O 0.68
loop_
_atom_site_label
_atom_site_type_symbol
_atom_site_fract_x
_atom_site_fract_y
_atom_site_fract_z
N1 N 0.6278(3) 0.92204(11) 0.09807(9)
C1 C 0.4881(3) 1.05640(11) 0.33202(9)
C2 C 0.7386(3) 1.06006(11) 0.19488(9)
N2 N 0.9503(3) 1.11343(10) 0.13822(9)
N3 N 0.1491(3) 0.90960(11) 0.37236(9)
C3 C 0.5887(3) 0.96507(11) 0.17343(9)
C4 C 0.3376(3) 0.95950(11) 0.31572(9)
C5 C 0.3974(3) 0.91872(11) 0.23643(9)
H1 H 0.30250 0.85590 0.22470
C6 C 0.6847(3) 1.10217(11) 0.2724(1)
H2 H 0.78430 1.16350 0.28490
N4 N 0.4457(3) 1.10807(11) 0.41014(9)
O1 O 1.0846(3) 1.18881(10) 0.16215(8)
O2 O 0.9958(3) 1.08213(10) 0.06620(8)
C7 C 0.0050(3) 0.80792(12) 0.3615(1)
H3 H -0.06210 0.81220 0.30380
H4 H -0.15940 0.80180 0.40100
C8 C 0.1892(3) 0.70424(12) 0.37642(10)
H5 H 0.35070 0.70880 0.33570
H6 H 0.26040 0.70050 0.43360
C9 C 0.0296(4) 0.59935(12) 0.36702(11)
H7 H -0.14420 0.59960 0.40260
H8 H -0.02190 0.59930 0.30790
O3 O 0.5966(3) 1.18437(11) 0.42327(8)
C10 C 0.5053(4) 0.82001(13) 0.0772(1)
H9 H 0.49410 0.82200 0.01550
H10 H 0.31400 0.81480 0.10240
O4 O 0.2573(3) 1.07542(10) 0.46286(8)
C11 C 0.5177(4) 0.61015(13) 0.11140(12)
H11 H 0.39780 0.60150 0.16350
H12 H 0.39560 0.61410 0.06320
C12 C 0.1980(4) 0.49437(12) 0.39189(11)
H13 H 0.36910 0.49340 0.35520
H14 H 0.25490 0.49600 0.45030
C13 C 0.7114(4) 0.50943(13) 0.10814(12)
H15 H 0.86090 0.51510 0.14770
H16 H 0.79970 0.51040 0.05100
C14 C 0.6751(4) 0.71837(13) 0.10904(12)
H17 H 0.73330 0.72760 0.16630
H18 H 0.84540 0.71330 0.07240
O5 O 0.4952(3) 0.37870(12) 0.21760(9)
O6 O -0.0172(3) 0.37008(11) 0.30090(9)
C15 C 0.0405(4) 0.38855(13) 0.38567(11)
H19 H 0.15200 0.32640 0.41050
H20 H -0.13710 0.39150 0.41920
C16 C 0.5689(4) 0.39939(14) 0.12984(12)
H21 H 0.39910 0.39830 0.09760
H22 H 0.69540 0.34050 0.11250
H23 H 0.132(5) 0.3731(18) 0.2733(14)
H24 H 0.643(6) 0.383(2) 0.2469(15)
H25 H 0.133(4) 0.9331(14) 0.4193(11)
H26 H 0.742(4) 0.9485(15) 0.0643(12)
#END
