
#######################################################################
#
#                 Cambridge Crystallographic Data Centre
#                                CCDC
#
#######################################################################
#
# If this CIF has been generated from an entry in the Cambridge
# Structural Database, then it will include bibliographic, chemical,
# crystal, experimental, refinement or atomic coordinate data resulting
# from the CCDC's data processing and validation procedures.
#
#######################################################################

data_CSD_CIF_TUVZEP
_audit_creation_date 2003-06-05
_audit_creation_method CSD-ConQuest-V1
_database_code_CSD TUVZEP
_database_code_depnum_ccdc_archive 'CCDC 198906'
_chemical_formula_sum 'C26 H26 N2 O5'
_chemical_formula_moiety
;
C26 H26 N2 O5
;
_journal_coden_Cambridge 16
_journal_volume 59
_journal_year 2003
_journal_page_first 1951
_journal_name_full 'Tetrahedron '
loop_
_publ_author_name
"M.Heydenreich"
"A.Koch"
"L.Lazar"
"I.Szatmari"
"R.Sillanpaa"
"E.Kleinpeter"
"F.Fulop"
_chemical_name_systematic
;
(2R*,4S*,11bR*)-9,10-Dimethoxy-2-phenyl-4-(p-nitrophenyl)-1,6,7,11b-tetrahydro
-2H,4H-1,3-oxazino(4,3-a)isoquinoline
;
_cell_volume   4480.189
_exptl_crystal_colour 'pale yellow'
_exptl_crystal_density_diffrn 1.324
_exptl_crystal_description 'prism'
_exptl_crystal_preparation 'di-isopropyl ether/ethyl acetate'
_diffrn_ambient_temperature 294
#These two values have been output from a single CSD field.
_refine_ls_R_factor_gt 0.0553
_refine_ls_wR_factor_gt 0.0553
_symmetry_cell_setting orthorhombic
_symmetry_space_group_name_H-M 'P b c a'
_symmetry_Int_Tables_number 61
loop_
_symmetry_equiv_pos_site_id
_symmetry_equiv_pos_as_xyz
1 x,y,z
2 1/2-x,1/2+y,z
3 x,1/2-y,1/2+z
4 1/2+x,y,1/2-z
5 -x,-y,-z
6 -1/2+x,-1/2-y,-z
7 -x,-1/2+y,-1/2-z
8 -1/2-x,-y,-1/2+z
_cell_length_a 16.550(5)
_cell_length_b 29.566(3)
_cell_length_c 9.156(3)
_cell_angle_alpha 90
_cell_angle_beta 90
_cell_angle_gamma 90
_cell_formula_units_Z 8
loop_
_atom_type_symbol
_atom_type_radius_bond
C 0.68
H 0.23
N 0.68
O 0.68
loop_
_atom_site_label
_atom_site_type_symbol
_atom_site_fract_x
_atom_site_fract_y
_atom_site_fract_z
O1 O 0.37076(17) -0.16558(8) 0.0085(3)
O2 O 0.28544(17) -0.17277(9) 0.1854(3)
O3 O 0.16118(12) 0.04466(7) 0.1227(2)
O4 O 0.50442(14) 0.24842(9) 0.1468(3)
O5 O 0.38292(16) 0.26720(8) -0.0214(3)
N1 N 0.31941(19) -0.15048(10) 0.0900(4)
N2 N 0.29718(15) 0.06699(8) 0.0615(3)
C1 C 0.19138(19) 0.12510(11) 0.1110(4)
H1 H 0.20370 0.12930 0.21360
H2 H 0.17020 0.15340 0.07370
C2 C 0.12624(19) 0.08832(11) 0.0957(4)
H3 H 0.08800 0.09360 0.17560
C3 C 0.23118(18) 0.03631(10) 0.0327(4)
H4 H 0.21480 0.04070 -0.06910
C4 C 0.33132(19) 0.06392(11) 0.2104(3)
H5 H 0.34130 0.03250 0.23530
H6 H 0.29340 0.07630 0.28070
C5 C 0.40970(19) 0.09036(11) 0.2150(4)
H7 H 0.42730 0.09320 0.31560
H8 H 0.45100 0.07380 0.16210
C6 C 0.40103(19) 0.13701(11) 0.1490(4)
C7 C 0.4589(2) 0.17031(11) 0.1782(4)
H9 H 0.50280 0.16340 0.23740
C8 C 0.4517(2) 0.21332(11) 0.1204(4)
C9 C 0.3862(2) 0.22399(11) 0.0292(4)
C10 C 0.3299(2) 0.19094(11) 0.0003(4)
H10 H 0.28650 0.19770 -0.06040
C11 C 0.3361(2) 0.14738(10) 0.0601(3)
C12 C 0.26992(18) 0.11339(10) 0.0286(4)
H11 H 0.25810 0.11480 -0.07620
C13 C 0.25401(19) -0.01297(10) 0.0506(3)
C14 C 0.32703(19) -0.02846(11) -0.0069(4)
H12 H 0.36170 -0.00830 -0.05300
C15 C 0.34824(19) -0.07355(11) 0.0040(4)
H13 H 0.39670 -0.08400 -0.03500
C16 C 0.2962(2) -0.10269(11) 0.0737(4)
C17 C 0.2230(2) -0.08874(11) 0.1288(4)
H14 H 0.18830 -0.10920 0.17350
C18 C 0.2022(2) -0.04358(11) 0.1165(4)
H15 H 0.15290 -0.03370 0.15290
C19 C 0.5659(2) 0.24120(12) 0.2527(5)
H16 H 0.54170 0.23240 0.34370
H17 H 0.59610 0.26860 0.26620
H18 H 0.60150 0.21770 0.21980
C20 C 0.3122(2) 0.27947(12) -0.1002(5)
H19 H 0.30610 0.25990 -0.18310
H20 H 0.31690 0.31020 -0.13280
H21 H 0.26590 0.27660 -0.03780
C21 C 0.07642(18) 0.08908(12) -0.0436(4)
C22 C 0.05477(19) 0.04908(12) -0.1115(4)
H22 H 0.07390 0.02180 -0.07470
C23 C 0.0050(2) 0.04898(15) -0.2337(4)
H23 H -0.00870 0.02180 -0.27810
C24 C -0.0239(2) 0.08902(17) -0.2889(4)
H24 H -0.05710 0.08890 -0.37090
C25 C -0.0040(2) 0.12919(16) -0.2233(5)
H25 H -0.02390 0.15630 -0.26050
C26 C 0.0460(2) 0.12951(12) -0.1009(4)
H26 H 0.05940 0.15690 -0.05690
#END
