
#######################################################################
#
#                 Cambridge Crystallographic Data Centre
#                                CCDC
#
#######################################################################
#
# If this CIF has been generated from an entry in the Cambridge
# Structural Database, then it will include bibliographic, chemical,
# crystal, experimental, refinement or atomic coordinate data resulting
# from the CCDC's data processing and validation procedures.
#
#######################################################################

data_CSD_CIF_TUWCUJ
_audit_creation_date 2003-06-05
_audit_creation_method CSD-ConQuest-V1
_database_code_CSD TUWCUJ
_database_code_depnum_ccdc_archive 'CCDC 201039'
_chemical_formula_sum 'C14 H19 N1 O3'
_chemical_formula_moiety
;
C14 H19 N1 O3
;
_journal_coden_Cambridge 24
_journal_volume 44
_journal_year 2003
_journal_page_first 2587
_journal_name_full 'Tetrahedron Lett. '
loop_
_publ_author_name
"D.J.Wardrop"
"M.S.Burge"
"Wenming Zhang"
"J.A.Ortiz"
_chemical_name_systematic
;
(3S*,5R*)-6-Isopropyl-1-methoxy-4-methyl-1-azaspiro(4.5)deca-6,9-diene-2,8-dio
ne
;
_chemical_melting_point 374
_cell_volume   1422.230
_exptl_crystal_colour 'colorless'
_exptl_crystal_density_diffrn 1.164
_exptl_special_details
;
Melting point range 374-376K

;
_exptl_crystal_description 'prism'
_exptl_crystal_preparation 'ethyl acetate/hexane'
_diffrn_ambient_temperature 293
#These two values have been output from a single CSD field.
_refine_ls_R_factor_gt 0.0676
_refine_ls_wR_factor_gt 0.0676
_symmetry_cell_setting triclinic
_symmetry_space_group_name_H-M 'P -1'
_symmetry_Int_Tables_number 2
loop_
_symmetry_equiv_pos_site_id
_symmetry_equiv_pos_as_xyz
1 x,y,z
2 -x,-y,-z
_cell_length_a 8.7808(7)
_cell_length_b 11.3943(9)
_cell_length_c 15.3131(13)
_cell_angle_alpha 70.712(2)
_cell_angle_beta 88.155(2)
_cell_angle_gamma 79.707(2)
_cell_formula_units_Z 4
loop_
_atom_type_symbol
_atom_type_radius_bond
C 0.68
H 0.23
N 0.68
O 0.68
loop_
_atom_site_label
_atom_site_type_symbol
_atom_site_fract_x
_atom_site_fract_y
_atom_site_fract_z
N1 N 0.1708(3) 0.8917(3) 0.16664(17)
O1 O 0.2632(3) 0.9838(2) 0.15446(16)
C1 C 0.1297(7) 0.8687(4) 0.0905(3)
O2 O 0.1973(4) 0.8932(3) 0.0178(2)
C2 C -0.0103(7) 0.8091(4) 0.1138(4)
H1 H 0.00690 0.72770 0.10430
H2 H -0.09870 0.86260 0.07580
C3 C -0.0370(5) 0.7933(3) 0.2154(3)
H3 H 0.02200 0.71080 0.25170
C4 C 0.0441(3) 0.8961(3) 0.23118(19)
C5 C 0.4226(5) 0.9296(4) 0.1574(3)
H4 H 0.44570 0.85770 0.21260
H5 H 0.48450 0.99100 0.15730
H6 H 0.44520 0.90340 0.10420
C6 C -0.2035(5) 0.7987(5) 0.2491(5)
H7 H -0.25880 0.88400 0.22540
H8 H -0.20220 0.77060 0.31550
H9 H -0.25380 0.74490 0.22750
C7 C 0.1026(3) 0.8597(3) 0.32930(19)
C8 C 0.0463(4) 0.9314(3) 0.3801(2)
H10 H 0.08110 0.90500 0.44150
C9 C -0.0654(4) 1.0477(3) 0.3467(2)
O3 O -0.1203(3) 1.1074(2) 0.39759(16)
C10 C -0.1087(4) 1.0919(3) 0.2497(2)
H11 H -0.17300 1.16970 0.22410
C11 C -0.0578(4) 1.0230(3) 0.1969(2)
H12 H -0.08720 1.05540 0.13450
C12 C 0.3568(5) 0.7612(4) 0.4147(3)
H13 H 0.39820 0.83090 0.37310
H14 H 0.43510 0.68650 0.43060
H15 H 0.32410 0.77990 0.46980
C13 C 0.2194(4) 0.7397(3) 0.3680(2)
H16 H 0.25770 0.71080 0.31650
C14 C 0.1451(6) 0.6356(4) 0.4364(3)
H17 H 0.11990 0.65670 0.49150
H18 H 0.21630 0.55690 0.45180
H19 H 0.05230 0.62810 0.40870
N2 N 0.0940(3) 0.3829(2) 0.18699(18)
O4 O 0.0051(3) 0.4758(2) 0.2192(2)
C15 C 0.0389(7) 0.3654(4) 0.1096(3)
O5 O -0.0951(4) 0.3925(3) 0.0844(2)
C16 C 0.1746(7) 0.3093(4) 0.0672(3)
H20 H 0.19030 0.36580 0.00580
H21 H 0.15950 0.22940 0.06230
C17 C 0.3123(5) 0.2895(3) 0.1307(2)
H22 H 0.32050 0.20430 0.17580
C18 C 0.2593(4) 0.3850(3) 0.18500(18)
C19 C -0.1015(6) 0.4220(5) 0.2858(4)
H23 H -0.17290 0.38990 0.25730
H24 H -0.15740 0.48560 0.30880
H25 H -0.04610 0.35440 0.33600
C20 C 0.4768(6) 0.3001(4) 0.0875(3)
H26 H 0.51400 0.22770 0.06880
H27 H 0.54750 0.30340 0.13280
H28 H 0.46910 0.37550 0.03460
C21 C 0.3324(3) 0.3360(3) 0.28121(18)
C22 C 0.4227(4) 0.4028(3) 0.3056(2)
H29 H 0.47000 0.36860 0.36420
C23 C 0.4524(4) 0.5241(3) 0.2478(3)
O6 O 0.5352(3) 0.5828(2) 0.2735(2)
C24 C 0.3742(4) 0.5773(3) 0.1565(2)
H30 H 0.38670 0.65710 0.11780
C25 C 0.2868(4) 0.5137(3) 0.1286(2)
H31 H 0.23920 0.55100 0.07020
C26 C 0.2493(6) 0.2185(5) 0.4396(2)
H32 H 0.33010 0.23630 0.47140
H33 H 0.22050 0.13990 0.47640
H34 H 0.16100 0.28520 0.42950
C27 C 0.3071(4) 0.2092(3) 0.3464(2)
H35 H 0.22780 0.18110 0.31840
C28 C 0.4545(5) 0.1113(3) 0.3612(3)
H36 H 0.48500 0.10020 0.30330
H37 H 0.43630 0.03240 0.40430
H38 H 0.53540 0.13940 0.38550
#END
