
#######################################################################
#
#                 Cambridge Crystallographic Data Centre
#                                CCDC
#
#######################################################################
#
# If this CIF has been generated from an entry in the Cambridge
# Structural Database, then it will include bibliographic, chemical,
# crystal, experimental, refinement or atomic coordinate data resulting
# from the CCDC's data processing and validation procedures.
#
#######################################################################

data_CSD_CIF_TUWFOG
_audit_creation_date 2003-06-05
_audit_creation_method CSD-ConQuest-V1
_database_code_CSD TUWFOG
_database_code_depnum_ccdc_archive 'CCDC 197493'
_chemical_formula_sum 'C16 H16 N2 O6'
_chemical_formula_moiety
;
C16 H16 N2 O6
;
_journal_coden_Cambridge 24
_journal_volume 44
_journal_year 2003
_journal_page_first 2231
_journal_name_full 'Tetrahedron Lett. '
loop_
_publ_author_name
"Xuri Gao"
"D.G.Hall"
_chemical_name_systematic
;
5-Hydroxy-5-(hydroxy(4-nitrophenyl)methyl)-2-methyl-3a,4,5,7a-tetrahydro-1H-is
oindole-1,3(2H)-dione
;
_cell_volume   2979.054
_exptl_crystal_colour 'colorless'
_exptl_crystal_density_diffrn 1.482
_exptl_crystal_description 'prism'
_diffrn_ambient_temperature 193
#These two values have been output from a single CSD field.
_refine_ls_R_factor_gt 0.0352
_refine_ls_wR_factor_gt 0.0352
_symmetry_cell_setting monoclinic
_symmetry_space_group_name_H-M 'C 2/c'
_symmetry_Int_Tables_number 15
loop_
_symmetry_equiv_pos_site_id
_symmetry_equiv_pos_as_xyz
1 x,y,z
2 1/2+x,1/2+y,z
3 x,-y,1/2+z
4 1/2+x,1/2-y,1/2+z
5 -x,-y,-z
6 -1/2-x,-1/2-y,-z
7 -x,y,-1/2-z
8 -1/2-x,-1/2+y,-1/2-z
_cell_length_a 16.7357(9)
_cell_length_b 9.4027(5)
_cell_length_c 19.3073(11)
_cell_angle_alpha 90
_cell_angle_beta 101.3251(11)
_cell_angle_gamma 90
_cell_formula_units_Z 8
loop_
_atom_type_symbol
_atom_type_radius_bond
C 0.68
H 0.23
N 0.68
O 0.68
loop_
_atom_site_label
_atom_site_type_symbol
_atom_site_fract_x
_atom_site_fract_y
_atom_site_fract_z
O1 O 0.15272(6) 0.03813(10) 0.27002(5)
O2 O 0.07763(6) 0.22185(12) 0.04902(5)
O3 O 0.40913(5) 0.26410(9) 0.22776(4)
H1 H 0.38880 0.34600 0.22210
O4 O 0.50335(5) 0.12844(10) 0.14944(5)
H2 H 0.52260 0.18320 0.18290
O5 O 0.33033(7) -0.31298(12) -0.11668(5)
O6 O 0.31108(8) -0.46713(11) -0.03880(6)
N1 N 0.09852(7) 0.11547(11) 0.15812(6)
N2 N 0.33119(7) -0.34866(12) -0.05538(6)
C1 C 0.15733(8) 0.10936(13) 0.21820(6)
C2 C 0.22917(8) 0.19875(13) 0.20827(6)
H3 H 0.24650 0.26450 0.24920
C3 C 0.29810(7) 0.09586(13) 0.20051(6)
H4 H 0.32020 0.05180 0.24690
H5 H 0.27590 0.01900 0.16720
C4 C 0.36665(7) 0.17087(12) 0.17367(6)
C5 C 0.33354(8) 0.25364(13) 0.10731(6)
H6 H 0.36860 0.27320 0.07530
C6 C 0.25729(8) 0.30007(13) 0.09195(6)
H7 H 0.23950 0.34720 0.04810
C7 C 0.19759(8) 0.28217(13) 0.14011(6)
H8 H 0.18270 0.37950 0.15420
C8 C 0.11870(8) 0.20675(14) 0.10699(7)
C9 C 0.02554(8) 0.02640(16) 0.14515(8)
H9 H -0.00990 0.05320 0.17780
H10 H 0.04130 -0.07370 0.15250
H11 H -0.00370 0.03990 0.09640
C10 C 0.43273(7) 0.06096(13) 0.16378(6)
H12 H 0.44890 0.00750 0.20910
C11 C 0.40492(7) -0.04645(13) 0.10586(6)
C12 C 0.41220(7) -0.01687(13) 0.03650(6)
H13 H 0.43390 0.07190 0.02570
C13 C 0.38805(8) -0.11556(14) -0.01649(6)
H14 H 0.39270 -0.09560 -0.06380
C14 C 0.35695(7) -0.24385(13) 0.00080(6)
C15 C 0.34964(8) -0.27789(13) 0.06906(7)
H15 H 0.32840 -0.36720 0.07970
C16 C 0.37432(8) -0.17764(13) 0.12124(6)
H16 H 0.37030 -0.19880 0.16850
#END
