
#######################################################################
#
#                 Cambridge Crystallographic Data Centre
#                                CCDC
#
#######################################################################
#
# If this CIF has been generated from an entry in the Cambridge
# Structural Database, then it will include bibliographic, chemical,
# crystal, experimental, refinement or atomic coordinate data resulting
# from the CCDC's data processing and validation procedures.
#
#######################################################################

data_CSD_CIF_TUWLOM
_audit_creation_date 2003-06-05
_audit_creation_method CSD-ConQuest-V1
_database_code_CSD TUWLOM
_database_code_depnum_ccdc_archive 'CCDC 127842'
_chemical_formula_sum 'C17 H14 N2 O1'
_chemical_formula_moiety
;
C17 H14 N2 O1
;
_journal_coden_Cambridge 1320
_journal_year 2003
_journal_name_full 'Thesis '
loop_
_publ_author_name
"M.Zohri"
"H.M.R.Hoffmann"
"R.Wartchow"
_chemical_name_systematic
;
2,3,3a,8-Tetrahydro-1-oxa-12b-aza-dibenzo(e,h)azulene-2-carbonitrile
;
_chemical_melting_point 408
_cell_volume   5328.760
_exptl_crystal_colour 'colorless'
_exptl_crystal_density_diffrn 1.308
_exptl_special_details
;
contribution from the Thesis, M.Zohri, Universitat Hannover, Germany, (1999)

;
_exptl_crystal_description 'octahedron'
_diffrn_ambient_temperature 300
#These two values have been output from a single CSD field.
_refine_ls_R_factor_gt 0.0326
_refine_ls_wR_factor_gt 0.0326
_symmetry_cell_setting orthorhombic
_symmetry_space_group_name_H-M 'F 2 d d'
_symmetry_Int_Tables_number 43
loop_
_symmetry_equiv_pos_site_id
_symmetry_equiv_pos_as_xyz
1 x,y,z
2 x,-y,-z
3 1/4+x,1/4-y,1/4+z
4 1/4+x,1/4+y,1/4-z
5 x,1/2+y,1/2+z
6 x,1/2-y,1/2-z
7 1/4+x,-1/4-y,-1/4+z
8 1/4+x,-1/4+y,-1/4-z
9 1/2+x,y,1/2+z
10 1/2+x,-y,1/2-z
11 -1/4+x,1/4-y,-1/4+z
12 -1/4+x,1/4+y,-1/4-z
13 1/2+x,1/2+y,z
14 1/2+x,1/2-y,-z
15 -1/4+x,-1/4-y,1/4+z
16 -1/4+x,-1/4+y,1/4-z
_cell_length_a 9.934(1)
_cell_length_b 18.471(2)
_cell_length_c 29.041(2)
_cell_angle_alpha 90
_cell_angle_beta 90
_cell_angle_gamma 90
_cell_formula_units_Z 16
loop_
_atom_type_symbol
_atom_type_radius_bond
C 0.68
H 0.23
N 0.68
O 0.68
loop_
_atom_site_label
_atom_site_type_symbol
_atom_site_fract_x
_atom_site_fract_y
_atom_site_fract_z
O1 O 0.8487(2) 0.14971(11) 0.01710(5)
C1 C 0.8106(3) 0.2069(2) -0.01446(9)
H1 H 0.8083(3) 0.2535(2) 0.00159(9)
C2 C 0.6690(3) 0.1870(2) -0.03203(9)
H2 H 0.6052(3) 0.2255(2) -0.02580(9)
H3 H 0.6701(3) 0.1772(2) -0.06484(9)
C3 C 0.6346(3) 0.1194(2) -0.00494(8)
H4 H 0.6687(3) 0.0769(2) -0.02140(8)
C4 C 0.4862(3) 0.1102(2) 0.00367(9)
C5 C 0.4050(3) 0.1085(2) -0.03591(10)
H5 H 0.4456(3) 0.1108(2) -0.06473(10)
C6 C 0.2655(4) 0.1035(2) -0.03318(10)
H6 H 0.2132(4) 0.1037(2) -0.05974(10)
C7 C 0.2064(3) 0.0983(2) 0.00949(10)
H7 H 0.1131(3) 0.0959(2) 0.01189(10)
C8 C 0.2838(4) 0.0965(2) 0.04847(10)
H8 H 0.2418(4) 0.0917(2) 0.07693(10)
C9 C 0.4247(3) 0.1018(2) 0.04674(9)
C10 C 0.5016(3) 0.0997(2) 0.09178(8)
H9 H 0.5299(3) 0.1487(2) 0.09911(8)
H10 H 0.4403(3) 0.0843(2) 0.11584(8)
C11 C 0.6236(3) 0.0515(2) 0.09320(9)
C12 C 0.6335(4) -0.0066(2) 0.12266(9)
H11 H 0.5602(4) -0.0193(2) 0.14085(9)
C13 C 0.7496(4) -0.0459(2) 0.12551(10)
H12 H 0.7541(4) -0.0848(2) 0.14583(10)
C14 C 0.8594(4) -0.0293(2) 0.09908(9)
H13 H 0.9379(4) -0.0565(2) 0.10151(9)
C15 C 0.8525(4) 0.0280(2) 0.06885(8)
H14 H 0.9262(4) 0.0398(2) 0.05062(8)
C16 C 0.7353(4) 0.0679(2) 0.06582(9)
N1 N 0.7168(2) 0.13109(13) 0.03739(7)
C17 C 0.9161(4) 0.2077(2) -0.0510(1)
N2 N 0.9925(4) 0.2096(2) -0.07944(8)
#END
