
#######################################################################
#
#                 Cambridge Crystallographic Data Centre
#                                CCDC
#
#######################################################################
#
# If this CIF has been generated from an entry in the Cambridge
# Structural Database, then it will include bibliographic, chemical,
# crystal, experimental, refinement or atomic coordinate data resulting
# from the CCDC's data processing and validation procedures.
#
#######################################################################

data_CSD_CIF_TUWLUS
_audit_creation_date 2003-06-05
_audit_creation_method CSD-ConQuest-V1
_database_code_CSD TUWLUS
_database_code_depnum_ccdc_archive 'CCDC 127843'
_chemical_formula_sum 'C25 H20 N2 O3'
_chemical_formula_moiety
;
C25 H20 N2 O3
;
_journal_coden_Cambridge 1320
_journal_year 2003
_journal_name_full 'Thesis '
loop_
_publ_author_name
"M.Zohri"
"H.M.R.Hoffmann"
"R.Wartchow"
_chemical_name_systematic
;
2-(2,3,3a,8-Tetrahydro-1-oxa-12b-aza-dibenzo(e,h)azulene-2-ylmethyl)isoindole-
1,3-dione
;
_chemical_melting_point 453
_cell_volume   1934.365
_exptl_crystal_colour 'colorless'
_exptl_crystal_density_diffrn 1.361
_exptl_special_details
;
contribution from the Thesis, M.Zohri, Universitat Hannover, Germany, (1999)

;
_exptl_crystal_description 'needle'
_diffrn_ambient_temperature 300
#These two values have been output from a single CSD field.
_refine_ls_R_factor_gt 0.0318
_refine_ls_wR_factor_gt 0.0318
_symmetry_cell_setting orthorhombic
_symmetry_space_group_name_H-M 'P 21 n b'
_symmetry_Int_Tables_number 33
loop_
_symmetry_equiv_pos_site_id
_symmetry_equiv_pos_as_xyz
1 x,y,z
2 1/2+x,-y,-z
3 1/2+x,1/2-y,1/2+z
4 x,1/2+y,1/2-z
_cell_length_a 4.737(1)
_cell_length_b 12.728(2)
_cell_length_c 32.083(3)
_cell_angle_alpha 90
_cell_angle_beta 90
_cell_angle_gamma 90
_cell_formula_units_Z 4
loop_
_atom_type_symbol
_atom_type_radius_bond
C 0.68
H 0.23
N 0.68
O 0.68
loop_
_atom_site_label
_atom_site_type_symbol
_atom_site_fract_x
_atom_site_fract_y
_atom_site_fract_z
O1 O 0.2670(6) 0.1672(2) 0.14651(9)
O2 O 0.6377(9) -0.1873(2) 0.12061(10)
O3 O 0.6512(9) -0.0111(2) 0.24485(10)
N1 N 0.2601(7) 0.2187(3) 0.10649(11)
N2 N 0.6019(9) -0.0795(3) 0.17880(12)
C1 C 0.5113(10) 0.0958(3) 0.14803(14)
H1 H 0.6524(10) 0.1223(3) 0.16774(14)
C2 C 0.6306(11) 0.0941(3) 0.10479(12)
H2 H 0.6773(11) 0.0231(3) 0.09623(12)
H3 H 0.7982(11) 0.1376(3) 0.10281(12)
C3 C 0.3884(12) 0.1392(3) 0.07831(13)
H4 H 0.2494(12) 0.0831(3) 0.07426(13)
C4 C 0.4733(10) 0.1795(4) 0.03538(14)
C5 C 0.6640(12) 0.1176(3) 0.01309(15)
H5 H 0.7366(12) 0.0575(3) 0.02564(15)
C6 C 0.7486(13) 0.1422(4) -0.02672(15)
H6 H 0.8792(13) 0.1003(4) -0.04058(15)
C7 C 0.6359(13) 0.2304(4) -0.04590(14)
H7 H 0.6880(13) 0.2481(4) -0.07295(14)
C8 C 0.4451(12) 0.2916(4) -0.0242(2)
H8 H 0.3702(12) 0.3508(4) -0.0370(2)
C9 C 0.3610(11) 0.2678(3) 0.01634(14)
C10 C 0.1723(11) 0.3437(3) 0.03887(12)
H9 H 0.1181(11) 0.4003(3) 0.02025(12)
H10 H 0.0022(11) 0.3081(3) 0.04799(12)
C11 C 0.3244(10) 0.3872(3) 0.07548(14)
C12 C 0.4224(12) 0.4895(3) 0.0770(2)
H11 H 0.3853(12) 0.5343(3) 0.0548(2)
C13 C 0.5746(13) 0.5273(3) 0.1108(2)
H12 H 0.6354(13) 0.5968(3) 0.1112(2)
C14 C 0.6358(13) 0.4610(4) 0.14393(14)
H13 H 0.7399(13) 0.4850(4) 0.16658(14)
C15 C 0.5385(11) 0.3580(3) 0.14261(15)
H14 H 0.5738(11) 0.3133(3) 0.16492(15)
C16 C 0.3911(10) 0.3217(3) 0.10881(15)
C17 C 0.3855(10) -0.0080(3) 0.16400(14)
H15 H 0.2548(10) 0.0068(3) 0.18652(14)
H16 H 0.2804(10) -0.0413(3) 0.14168(14)
C18 C 0.7047(11) -0.1660(3) 0.15577(15)
C19 C 0.7117(12) -0.0768(3) 0.2188(2)
C20 C 0.9099(11) -0.1660(3) 0.22182(14)
C21 C 1.0730(12) -0.1993(3) 0.25443(15)
H17 H 1.0727(12) -0.1641(3) 0.27983(15)
C22 C 1.2394(12) -0.2879(4) 0.2481(2)
H18 H 1.3547(12) -0.3121(4) 0.2695(2)
C23 C 1.2356(11) -0.3406(3) 0.2103(2)
H19 H 1.3476(11) -0.4000(3) 0.2070(2)
C24 C 1.0705(11) -0.3073(3) 0.17762(15)
H20 H 1.0702(11) -0.3421(3) 0.15215(15)
C25 C 0.9051(11) -0.2195(3) 0.18444(14)
#END
