
#######################################################################
#
#                 Cambridge Crystallographic Data Centre
#                                CCDC
#
#######################################################################
#
# If this CIF has been generated from an entry in the Cambridge
# Structural Database, then it will include bibliographic, chemical,
# crystal, experimental, refinement or atomic coordinate data resulting
# from the CCDC's data processing and validation procedures.
#
#######################################################################

data_CSD_CIF_TUXPOT
_audit_creation_date 2015-10-02
_audit_creation_method CSD-ConQuest-V1
_database_code_CSD TUXPOT
_database_code_depnum_ccdc_archive 'CCDC 1407935'
_chemical_formula_sum 'C19 H29 N1 O4'
_chemical_formula_moiety
;
C19 H29 N1 O4
;
_journal_coden_Cambridge 4
_journal_volume 137
_journal_year 2015
_journal_page_first 11586
_journal_name_full 'J.Am.Chem.Soc. '
loop_
_publ_author_name
"S.J.Thompson"
"D.Q.Thach"
"Guangbin Dong"
_chemical_name_systematic
;
2-(((2,6-dimethoxybenzylidene)amino)oxy)-5-isopropyl-2-methylcyclohexanol
;
_cell_volume   1857.092
_exptl_crystal_colour 'colorless'
_exptl_crystal_density_diffrn 1.2
_exptl_crystal_description 'needle'
_diffrn_ambient_temperature 100
_diffrn_special_details
;
twin

;
_refine_special_details
;
O5A and O5B disordered over two sites with occupancies 0.66:0.34.

;
#These two values have been output from a single CSD field.
_refine_ls_R_factor_gt 0.1017
_refine_ls_wR_factor_gt 0.1017
_symmetry_cell_setting monoclinic
_symmetry_space_group_name_H-M 'P 21'
_symmetry_Int_Tables_number 4
loop_
_symmetry_equiv_pos_site_id
_symmetry_equiv_pos_as_xyz
1 x,y,z
2 -x,1/2+y,-z
_cell_length_a 5.9305(4)
_cell_length_b 20.1095(13)
_cell_length_c 15.573(2)
_cell_angle_alpha 90
_cell_angle_beta 90.69(1)
_cell_angle_gamma 90
_cell_formula_units_Z 4
loop_
_atom_type_symbol
_atom_type_radius_bond
C 0.68
H 0.23
N 0.68
O 0.68
loop_
_atom_site_label
_atom_site_type_symbol
_atom_site_fract_x
_atom_site_fract_y
_atom_site_fract_z
C1 C 0.5241(15) 0.6139(5) 0.3263(7)
C2 C 0.2936(13) 0.6462(5) 0.3458(6)
H1 H 0.27370 0.68650 0.30880
C3 C 0.2777(15) 0.6665(4) 0.4389(6)
H2 H 0.12430 0.68380 0.44980
H3 H 0.38620 0.70300 0.45050
C4 C 0.3280(15) 0.6078(4) 0.5020(6)
H4 H 0.21740 0.57170 0.48830
C5 C 0.5609(15) 0.5808(5) 0.4830(7)
H5 H 0.59250 0.54220 0.52070
H6 H 0.67520 0.61540 0.49560
C6 C 0.5790(15) 0.5594(4) 0.3891(7)
H7 H 0.73430 0.54360 0.37870
H8 H 0.47520 0.52170 0.37850
C7 C 0.5343(15) 0.5913(5) 0.2352(7)
H9 H 0.47660 0.62650 0.19740
H10 H 0.44200 0.55120 0.22790
H11 H 0.69090 0.58130 0.22060
C8 C 0.2921(17) 0.6278(5) 0.5967(6)
H12 H 0.13460 0.64520 0.60100
C9 C 0.308(2) 0.5670(6) 0.6549(8)
H13 H 0.46600 0.55280 0.65980
H14 H 0.21740 0.53080 0.63040
H15 H 0.25200 0.57830 0.71200
C10 C 0.449(2) 0.6826(6) 0.6282(8)
H16 H 0.40370 0.69690 0.68560
H17 H 0.44060 0.72040 0.58860
H18 H 0.60410 0.66580 0.63060
C11 C 0.8224(15) 0.7616(4) 0.3034(7)
H19 H 0.92430 0.75210 0.34930
C12 C 0.8477(15) 0.8248(4) 0.2574(6)
C13 C 0.7015(16) 0.8457(4) 0.1904(6)
C14 C 0.7338(19) 0.9095(5) 0.1532(7)
H20 H 0.63380 0.92490 0.10950
C15 C 0.909(2) 0.9488(5) 0.1805(7)
H21 H 0.93120 0.99070 0.15370
C16 C 1.0578(19) 0.9294(5) 0.2464(7)
H22 H 1.17690 0.95780 0.26500
C17 C 1.0255(16) 0.8670(5) 0.2842(7)
C18 C 0.3939(18) 0.8232(6) 0.0957(7)
H23 H 0.35100 0.87010 0.10150
H24 H 0.25810 0.79550 0.09570
H25 H 0.47410 0.81690 0.04170
C19 C 1.3412(18) 0.8820(6) 0.3793(8)
H26 H 1.28230 0.92260 0.40570
H27 H 1.43810 0.89390 0.33110
H28 H 1.42910 0.85690 0.42200
N1 N 0.6710(13) 0.7190(4) 0.2849(6)
O1 O 0.1272(11) 0.5986(3) 0.3229(5)
H29 H -0.00150 0.61440 0.33200
O2 O 0.6982(10) 0.6641(3) 0.3430(4)
O3 O 0.5388(12) 0.8045(3) 0.1668(5)
O4 O 1.1595(11) 0.8425(3) 0.3490(5)
C20 C -0.0128(14) 0.3854(5) 0.1409(6)
C21 C 0.2177(14) 0.3542(5) 0.1609(6)
H30 H 0.23720 0.31590 0.12280
C22 C 0.2318(14) 0.3295(4) 0.2539(6)
H31 H 0.12300 0.29270 0.26120
H32 H 0.38480 0.31160 0.26500
C23 C 0.1827(16) 0.3834(5) 0.3201(7)
H33 H 0.29760 0.41930 0.31250
C24 C -0.0503(16) 0.4141(5) 0.2993(7)
H34 H -0.16880 0.38020 0.30870
H35 H -0.07820 0.45160 0.33890
C25 C -0.0649(15) 0.4385(5) 0.2082(7)
H36 H 0.03850 0.47480 0.20140
H37 H -0.21870 0.45470 0.19770
C26 C -0.0270(17) 0.4098(5) 0.0491(7)
H38 H -0.01820 0.37190 0.00980
H39 H 0.09830 0.44030 0.03820
H40 H -0.17030 0.43320 0.03980
C27 C 0.2059(17) 0.3581(5) 0.4121(7)
H41 H 0.36190 0.33980 0.41890
C28 C 0.041(3) 0.3022(6) 0.4357(9)
H42 H 0.08230 0.28420 0.49230
H43 H 0.04930 0.26670 0.39270
H44 H -0.11240 0.31990 0.43720
C29 C 0.1809(19) 0.4142(5) 0.4789(7)
H45 H 0.03220 0.43490 0.47220
H46 H 0.29840 0.44770 0.47000
H47 H 0.19620 0.39560 0.53680
C30 C -0.3137(14) 0.2378(4) 0.1168(6)
H48 H -0.41100 0.24800 0.16300
C31 C -0.3490(15) 0.1744(4) 0.0722(6)
C32 C -0.5226(15) 0.1338(4) 0.1012(6)
C33 C -0.5669(17) 0.0722(4) 0.0631(7)
H49 H -0.69020 0.04580 0.08130
C34 C -0.4287(18) 0.0506(5) -0.0015(7)
H50 H -0.45580 0.00830 -0.02670
C35 C -0.2536(17) 0.0882(5) -0.0303(6)
H51 H -0.16050 0.07210 -0.07490
C36 C -0.2114(15) 0.1513(5) 0.0066(6)
C37 C -0.8379(16) 0.1240(5) 0.1934(7)
H52 H -0.94440 0.11730 0.14560
H53 H -0.91280 0.14820 0.23970
H54 H -0.78610 0.08080 0.21490
C38 C 0.0914(18) 0.1717(5) -0.0903(8)
H55 H 0.17500 0.13110 -0.07540
H56 H 0.19800 0.20730 -0.10390
H57 H -0.00620 0.16300 -0.14030
N2 N -0.1634(13) 0.2799(4) 0.0984(6)
O5 O 0.3851(16) 0.4003(5) 0.1425(8)
H58 H 0.32890 0.43140 0.11600
O6 O -0.186(1) 0.3354(3) 0.1546(5)
O7 O -0.0436(12) 0.1914(3) -0.0191(5)
O8 O -0.6531(11) 0.1608(3) 0.1651(5)
H59? H 0.33450 0.38630 0.15100
O9? O 0.089(3) 0.4931(10) 0.1956(14)
H60? H 0.01840 0.52280 0.17160
#END
