
#######################################################################
#
#                 Cambridge Crystallographic Data Centre
#                                CCDC
#
#######################################################################
#
# If this CIF has been generated from an entry in the Cambridge
# Structural Database, then it will include bibliographic, chemical,
# crystal, experimental, refinement or atomic coordinate data resulting
# from the CCDC's data processing and validation procedures.
#
#######################################################################

data_CSD_CIF_TUXQAG
_audit_creation_date 2015-10-02
_audit_creation_method CSD-ConQuest-V1
_database_code_CSD TUXQAG
_database_code_depnum_ccdc_archive 'CCDC 1407936'
_chemical_formula_sum 'C28 H29 N1 O4'
_chemical_formula_moiety
;
C28 H29 N1 O4
;
_journal_coden_Cambridge 4
_journal_volume 137
_journal_year 2015
_journal_page_first 11586
_journal_name_full 'J.Am.Chem.Soc. '
loop_
_publ_author_name
"S.J.Thompson"
"D.Q.Thach"
"Guangbin Dong"
_chemical_name_systematic
;
1-(2,6-dimethoxyphenyl)-N-((2,2-diphenyl-5-oxaspiro[3.4]oct-7-yl)oxy)methanimi
ne
;
_cell_volume   2322.333
_exptl_crystal_colour 'colorless'
_exptl_crystal_density_diffrn 1.269
_exptl_crystal_description 'prisms'
_diffrn_ambient_temperature 100
_refine_special_details
;
C5,C6,C7,C8,N1,O1,O2 and C5A,C6A,C7A,C8A,N1A,O1A,O2A disordered over two 
sites with occupancies 0.52:0.48.
;
#These two values have been output from a single CSD field.
_refine_ls_R_factor_gt 0.0542
_refine_ls_wR_factor_gt 0.0542
_symmetry_cell_setting monoclinic
_symmetry_space_group_name_H-M 'P 21/c'
_symmetry_Int_Tables_number 14
loop_
_symmetry_equiv_pos_site_id
_symmetry_equiv_pos_as_xyz
1 x,y,z
2 -x,1/2+y,1/2-z
3 -x,-y,-z
4 x,-1/2-y,-1/2+z
_cell_length_a 9.5712(10)
_cell_length_b 16.0938(19)
_cell_length_c 15.5175(15)
_cell_angle_alpha 90
_cell_angle_beta 103.693(10)
_cell_angle_gamma 90
_cell_formula_units_Z 4
loop_
_atom_type_symbol
_atom_type_radius_bond
C 0.68
H 0.23
N 0.68
O 0.68
loop_
_atom_site_label
_atom_site_type_symbol
_atom_site_fract_x
_atom_site_fract_y
_atom_site_fract_z
C1 C 0.2692(2) 0.65283(11) 0.56753(11)
C2 C 0.3831(2) 0.72055(11) 0.57137(12)
H1 H 0.42670 0.72070 0.51950
H2 H 0.45820 0.72120 0.62760
C3 C 0.26407(17) 0.78793(10) 0.56661(11)
C4 C 0.1670(2) 0.71805(11) 0.59117(12)
H3 H 0.16410 0.71780 0.65450
H4 H 0.06880 0.71650 0.55230
C5 C 0.23835(18) 0.23993(11) 0.43560(12)
C6 C 0.29858(19) 0.20442(12) 0.51945(12)
C7 C 0.3064(2) 0.11835(12) 0.52990(13)
H5 H 0.34710 0.09480 0.58640
C8 C 0.2546(2) 0.06723(12) 0.45733(14)
H6 H 0.25970 0.00860 0.46490
C9 C 0.1956(2) 0.09991(12) 0.37397(13)
H7 H 0.16070 0.06430 0.32480
C10 C 0.18858(18) 0.18556(11) 0.36358(12)
C11 C 0.30531(18) 0.85874(10) 0.63238(10)
C12 C 0.2162(2) 0.88400(11) 0.68660(12)
H8 H 0.12710 0.85650 0.68270
C13 C 0.2562(2) 0.94933(12) 0.74670(12)
H9 H 0.19470 0.96590 0.78350
C14 C 0.3857(2) 0.98995(12) 0.75263(12)
H10 H 0.41340 1.03430 0.79350
C15 C 0.4749(2) 0.96541(12) 0.69842(13)
H11 H 0.56390 0.99310 0.70240
C16 C 0.43465(19) 0.90073(11) 0.63849(12)
H12 H 0.49590 0.88490 0.60130
C17 C 0.20116(18) 0.82412(10) 0.47444(11)
C18 C 0.06315(19) 0.85781(11) 0.45586(12)
H13 H 0.00920 0.85650 0.49990
C19 C 0.0032(2) 0.89340(12) 0.37353(13)
H14 H -0.09100 0.91620 0.36190
C20 C 0.0808(2) 0.89555(11) 0.30846(12)
H15 H 0.03930 0.91860 0.25180
C21 C 0.2188(2) 0.86395(12) 0.32687(12)
H16 H 0.27340 0.86640 0.28310
C22 C 0.2786(2) 0.82848(11) 0.40938(12)
H17 H 0.37370 0.80700 0.42120
C23 C 0.3968(2) 0.22686(14) 0.67438(13)
H18 H 0.31780 0.19700 0.69090
H19 H 0.42830 0.27270 0.71600
H20 H 0.47730 0.18870 0.67650
C24 C 0.0930(2) 0.17399(14) 0.20626(13)
H21 H 0.17810 0.14440 0.19760
H22 H 0.05480 0.20950 0.15480
H23 H 0.01950 0.13370 0.21290
O1 O 0.34870(15) 0.25926(9) 0.58648(9)
O2 O 0.13184(15) 0.22405(8) 0.28427(8)
O3 O 0.3314(8) 0.5871(6) 0.6300(5)
O4 O 0.2281(10) 0.4638(3) 0.4379(4)
N1 N 0.2073(5) 0.3836(3) 0.4748(3)
C25 C 0.2904(8) 0.5094(5) 0.5927(3)
H24 H 0.19610 0.49230 0.60250
H25 H 0.36300 0.46650 0.61730
C26 C 0.2821(4) 0.5238(2) 0.4976(2)
H26 H 0.38270 0.53420 0.49230
C27 C 0.2027(9) 0.6068(4) 0.4788(6)
H27 H 0.09740 0.59980 0.46940
H28 H 0.22450 0.63550 0.42720
C28 C 0.2363(14) 0.3288(6) 0.4228(8)
H29 H 0.25890 0.34830 0.36990
O5? O 0.2934(8) 0.5886(6) 0.6335(5)
O6? O 0.1993(10) 0.4638(3) 0.4414(4)
N2? N 0.2676(5) 0.3843(3) 0.4700(3)
C29? C 0.2507(8) 0.5130(6) 0.5954(4)
H30? H 0.17990 0.48730 0.62460
H31? H 0.33460 0.47540 0.60310
C30? C 0.1860(5) 0.5249(2) 0.5011(3)
H32? H 0.08040 0.53060 0.49620
C31? C 0.2360(11) 0.6098(4) 0.4770(7)
H33? H 0.15920 0.63910 0.43360
H34? H 0.32270 0.60540 0.45290
C32? C 0.2103(15) 0.3297(6) 0.4140(8)
H35? H 0.14990 0.34570 0.35870
#END
