
#######################################################################
#
#                 Cambridge Crystallographic Data Centre
#                                CCDC
#
#######################################################################
#
# If this CIF has been generated from an entry in the Cambridge
# Structural Database, then it will include bibliographic, chemical,
# crystal, experimental, refinement or atomic coordinate data resulting
# from the CCDC's data processing and validation procedures.
#
#######################################################################

data_CSD_CIF_TUXSIQ
_audit_creation_date 2015-10-02
_audit_creation_method CSD-ConQuest-V1
_database_code_CSD TUXSIQ
_database_code_depnum_ccdc_archive 'CCDC 1038686'
_chemical_formula_sum 'C22 H23 N3 O7'
_chemical_formula_moiety
;
C22 H23 N3 O7
;
_journal_coden_Cambridge 4
_journal_volume 137
_journal_year 2015
_journal_page_first 11950
_journal_name_full 'J.Am.Chem.Soc. '
loop_
_publ_author_name
"J.Pous"
"T.Courant"
"G.Bernadat"
"B.I.Iorga"
"F.Blanchard"
"G.Masson"
_chemical_name_systematic
;
Ethyl 
4-(6-methyl-3-((((4-nitrobenzyl)oxy)carbonyl)amino)-3,6-dihydro-2H-1,2-oxazin-
2-yl)benzoate
;
_cell_volume   2275.032
_exptl_crystal_colour 'colorless'
_exptl_crystal_density_diffrn 1.289
_exptl_special_details
;
Absolute configuration

;
_exptl_crystal_description 'needle'
_diffrn_ambient_temperature 293
#These two values have been output from a single CSD field.
_refine_ls_R_factor_gt 0.0597
_refine_ls_wR_factor_gt 0.0597
_symmetry_cell_setting orthorhombic
_symmetry_space_group_name_H-M 'P 21 21 21'
_symmetry_Int_Tables_number 19
loop_
_symmetry_equiv_pos_site_id
_symmetry_equiv_pos_as_xyz
1 x,y,z
2 1/2-x,-y,1/2+z
3 1/2+x,1/2-y,-z
4 -x,1/2+y,1/2-z
_cell_length_a 8.0242(6)
_cell_length_b 15.8775(11)
_cell_length_c 17.8568(13)
_cell_angle_alpha 90
_cell_angle_beta 90
_cell_angle_gamma 90
_cell_formula_units_Z 4
loop_
_atom_type_symbol
_atom_type_radius_bond
C 0.68
H 0.23
N 0.68
O 0.68
loop_
_atom_site_label
_atom_site_type_symbol
_atom_site_fract_x
_atom_site_fract_y
_atom_site_fract_z
C1 C 0.7973(10) 1.0456(4) 0.3886(3)
H1 H 0.73640 1.08980 0.36420
H2 H 0.75390 1.03730 0.43820
H3 H 0.91290 1.06080 0.39160
C2 C 0.9837(6) 0.8346(3) 0.2790(3)
H4 H 0.96130 0.78760 0.24500
C3 C 0.9435(7) 0.9152(4) 0.2374(3)
H5 H 0.98940 0.92450 0.19030
C4 C 0.8453(8) 0.9718(4) 0.2668(3)
H6 H 0.81520 1.01810 0.23790
C5 C 0.7795(8) 0.9655(4) 0.3445(3)
H7 H 0.66200 0.94880 0.34290
C6 C 0.8770(7) 0.7557(3) 0.3890(3)
C7 C 0.8023(7) 0.7594(4) 0.4591(3)
H8 H 0.75750 0.80980 0.47640
C8 C 0.7948(7) 0.6877(4) 0.5030(3)
H9 H 0.74390 0.69050 0.54970
C9 C 0.8608(7) 0.6122(3) 0.4793(3)
C10 C 0.9368(7) 0.6089(3) 0.4089(3)
H10 H 0.98120 0.55840 0.39150
C11 C 0.9460(7) 0.6797(4) 0.3656(3)
H11 H 0.99960 0.67710 0.31950
C12 C 0.8449(8) 0.5360(4) 0.5277(4)
C13 C 0.8741(11) 0.3863(4) 0.5308(4)
H12 H 0.75880 0.37400 0.54290
H13 H 0.93720 0.38930 0.57710
C14 C 0.9436(13) 0.3199(5) 0.4812(4)
H14 H 0.93790 0.26640 0.50610
H15 H 0.88000 0.31750 0.43570
H16 H 1.05760 0.33280 0.46970
C15 C 1.2613(7) 0.7730(4) 0.2683(3)
C16 C 1.5375(6) 0.7244(3) 0.2603(3)
H17 H 1.65000 0.74610 0.26510
H18 H 1.51460 0.71700 0.20740
C17 C 1.5269(7) 0.6403(4) 0.2988(3)
C18 C 1.4605(8) 0.6323(4) 0.3685(3)
H19 H 1.42100 0.67980 0.39330
C19 C 1.4510(9) 0.5544(4) 0.4029(3)
H20 H 1.40430 0.54880 0.45040
C20 C 1.5123(8) 0.4855(4) 0.3652(3)
C21 C 1.5822(8) 0.4932(4) 0.2971(4)
H21 H 1.62630 0.44610 0.27330
C22 C 1.5884(7) 0.5705(4) 0.2629(3)
H22 H 1.63430 0.57570 0.21530
N1 N 1.1618(5) 0.8314(3) 0.2989(3)
N2 N 0.8711(5) 0.8265(3) 0.3421(2)
N3 N 1.4974(11) 0.4024(4) 0.4003(4)
O1 O 0.8737(5) 0.9030(2) 0.38455(18)
O2 O 1.4218(4) 0.7851(2) 0.29091(19)
O3 O 1.2184(4) 0.7168(2) 0.2261(2)
O4 O 0.8858(6) 0.4657(3) 0.4903(2)
O5 O 0.8021(5) 0.5363(2) 0.5923(2)
O6 O 1.5722(10) 0.3450(3) 0.3739(3)
O7 O 1.4245(15) 0.3944(4) 0.4554(5)
H23 H 1.195(6) 0.872(3) 0.328(3)
#END
