
#######################################################################
#
#                 Cambridge Crystallographic Data Centre
#                                CCDC
#
#######################################################################
#
# If this CIF has been generated from an entry in the Cambridge
# Structural Database, then it will include bibliographic, chemical,
# crystal, experimental, refinement or atomic coordinate data resulting
# from the CCDC's data processing and validation procedures.
#
#######################################################################

data_CSD_CIF_TUZPEJ
_audit_creation_date 2003-08-14
_audit_creation_method CSD-ConQuest-V1
_database_code_CSD TUZPEJ
_chemical_formula_sum 'C6 H6 N10 O3'
_chemical_formula_moiety
;
C6 H6 N10 O3
;
_journal_coden_Cambridge 603
_journal_volume 22
_journal_year 2003
_journal_page_first 25
_journal_name_full 'Jiegou Huaxue(Chin.)(Chin.J.Struct.Chem.) '
loop_
_publ_author_name
"Zhan-Xiong Li"
"Song-Qing Tang"
"Jin-Tao Liu"
"Jie Sun"
_chemical_name_systematic
;
3,4-bis(Azidoacetamido)-1,2,5-oxadiazole
;
_chemical_name_common
;
3,4-bis(Azidoacetamido)furazan
;
_chemical_melting_point 441.65
_cell_volume   1097.920
_exptl_crystal_colour 'colorless'
_exptl_crystal_density_diffrn 1.61
_exptl_crystal_description 'prismatic'
_exptl_crystal_preparation 'acetone/water 1'
_diffrn_ambient_temperature ?
_diffrn_special_details
;
The study was carried out at room temperature,in the range 283-303K

;
#These two values have been output from a single CSD field.
_refine_ls_R_factor_gt 0.037
_refine_ls_wR_factor_gt 0.037
_symmetry_cell_setting monoclinic
_symmetry_space_group_name_H-M 'P 21/n'
_symmetry_Int_Tables_number 14
loop_
_symmetry_equiv_pos_site_id
_symmetry_equiv_pos_as_xyz
1 x,y,z
2 1/2-x,1/2+y,1/2-z
3 -x,-y,-z
4 -1/2+x,-1/2-y,-1/2+z
_cell_length_a 8.402(3)
_cell_length_b 15.146(3)
_cell_length_c 9.247(3)
_cell_angle_alpha 90
_cell_angle_beta 111.09(2)
_cell_angle_gamma 90
_cell_formula_units_Z 4
loop_
_atom_type_symbol
_atom_type_radius_bond
C 0.68
N 0.68
O 0.68
loop_
_atom_site_label
_atom_site_type_symbol
_atom_site_fract_x
_atom_site_fract_y
_atom_site_fract_z
O1 O 0.2687(2) 0.2252(1) 1.0303(2)
O2 O 0.2354(2) 0.2407(1) 0.5769(2)
O3 O -0.1944(2) 0.0527(1) 0.6969(2)
N1 N 0.2722(3) 0.2031(2) 0.8862(2)
N2 N 0.1098(3) 0.2092(2) 1.0374(2)
N3 N 0.0677(2) 0.1486(1) 0.6531(2)
N4 N -0.0841(3) 0.0835(2) 0.3715(2)
N5 N -0.1596(3) 0.0570(2) 0.2396(3)
N6 N -0.2381(4) 0.0273(2) 0.1238(3)
N7 N -0.1559(2) 0.1656(1) 0.8677(2)
N8 N -0.5441(3) 0.0404(2) 0.6469(3)
N9 N -0.5032(3) -0.0384(2) 0.6724(3)
N10 N -0.4836(4) -0.1117(2) 0.6772(4)
C1 C 0.1185(3) 0.1769(2) 0.8065(3)
C2 C 0.0172(3) 0.1805(2) 0.9012(3)
C3 C 0.1281(3) 0.1823(2) 0.5476(3)
C4 C 0.0592(3) 0.1420(2) 0.3884(3)
C5 C -0.2510(3) 0.1028(2) 0.7690(3)
C6 C -0.4348(3) 0.1022(2) 0.7588(3)
#END
