
#######################################################################
#
#                 Cambridge Crystallographic Data Centre
#                                CCDC
#
#######################################################################
#
# If this CIF has been generated from an entry in the Cambridge
# Structural Database, then it will include bibliographic, chemical,
# crystal, experimental, refinement or atomic coordinate data resulting
# from the CCDC's data processing and validation procedures.
#
#######################################################################

data_CSD_CIF_UBASAT
_audit_creation_date 2011-10-27
_audit_creation_method CSD-ConQuest-V1
_database_code_CSD UBASAT
_database_code_depnum_ccdc_archive 'CCDC 805539'
_chemical_formula_sum 'C14 H19 N1 O3'
_chemical_formula_moiety
;
C14 H19 N1 O3
;
_journal_coden_Cambridge 692
_journal_year 2011
_journal_page_first 2415
_journal_name_full 'Synthesis '
loop_
_publ_author_name
"A.A.Tabolin"
"Y.A.Khomutova"
"Y.V.Nelyubina"
"S.L.Ioffe"
"V.A.Tartakovsky"
_chemical_name_systematic
;
N-Hydroxy-4-(4-methoxyphenyl)-6,6-dimethyldihydro-2H-pyran-3(4H)-imine
;
_cell_volume   1303.384
_exptl_crystal_colour 'colorless'
_exptl_crystal_density_diffrn 1.27
_exptl_crystal_description 'prism'
_diffrn_ambient_temperature 120
_refine_special_details
;
C2A,C3A,C5A,O1A and C2A',C3A',C5A',O1A' disordered over two sites with 
occupancies 0.819:0.181.
;
#These two values have been output from a single CSD field.
_refine_ls_R_factor_gt 0.0563
_refine_ls_wR_factor_gt 0.0563
_symmetry_cell_setting triclinic
_symmetry_space_group_name_H-M 'P -1'
_symmetry_Int_Tables_number 2
loop_
_symmetry_equiv_pos_site_id
_symmetry_equiv_pos_as_xyz
1 x,y,z
2 -x,-y,-z
_cell_length_a 5.8578(3)
_cell_length_b 10.9213(5)
_cell_length_c 20.6073(10)
_cell_angle_alpha 81.581(1)
_cell_angle_beta 89.8500(11)
_cell_angle_gamma 88.052(1)
_cell_formula_units_Z 4
loop_
_atom_type_symbol
_atom_type_radius_bond
C 0.68
H 0.23
N 0.68
O 0.68
loop_
_atom_site_label
_atom_site_type_symbol
_atom_site_fract_x
_atom_site_fract_y
_atom_site_fract_z
O1 O 0.9797(2) 0.13958(10) 0.15923(5)
N1 N 0.7044(2) 0.05578(12) 0.02636(7)
O2 O 0.6596(2) -0.0631(1) 0.06052(6)
H1 H 0.53240 -0.08510 0.04080
O3 O 0.4443(2) 0.43899(13) -0.20960(6)
C1 C 1.0620(3) 0.26224(14) 0.13710(8)
C2 C 0.9398(3) 0.31762(15) 0.07338(8)
H2 H 1.01160 0.39640 0.05580
H3 H 0.77870 0.33740 0.08370
C3 C 0.9435(3) 0.23347(15) 0.01969(8)
H4 H 1.10630 0.22340 0.00620
C4 C 0.8679(3) 0.10729(14) 0.05112(8)
C5 C 0.9989(3) 0.05569(14) 0.11231(8)
H5 H 0.93790 -0.02520 0.13120
H6 H 1.16170 0.04250 0.10140
C6 C 0.9905(3) 0.33602(17) 0.19128(9)
H7 H 1.07040 0.30190 0.23200
H8 H 0.82520 0.33090 0.19810
H9 H 1.02950 0.42280 0.17870
C7 C 1.3204(3) 0.25740(17) 0.13097(9)
H10 H 1.38800 0.21740 0.17250
H11 H 1.37540 0.34180 0.12060
H12 H 1.36460 0.20990 0.09580
C8 C 0.8096(3) 0.28856(14) -0.04145(8)
C9 C 0.5936(3) 0.34616(16) -0.03923(8)
H13 H 0.52570 0.35210 0.00220
C10 C 0.4769(3) 0.39453(15) -0.09570(9)
H14 H 0.32980 0.43280 -0.09290
C11 C 0.5738(3) 0.38745(15) -0.15650(8)
C12 C 0.7878(3) 0.33135(16) -0.16042(8)
H15 H 0.85540 0.32640 -0.20190
C13 C 0.9036(3) 0.28203(15) -0.10271(9)
H16 H 1.05010 0.24320 -0.10560
C14 C 0.5477(4) 0.45266(19) -0.27230(9)
H17 H 0.44420 0.50060 -0.30450
H18 H 0.57980 0.37070 -0.28500
H19 H 0.69090 0.49610 -0.27090
O4 O 0.4299(3) 0.83628(13) 0.32670(7)
C15 C 0.4224(5) 0.8332(2) 0.39584(13)
H20 H 0.57770 0.81550 0.41440
H21 H 0.32270 0.76630 0.41550
C16 C 0.4750(4) 1.05757(17) 0.30667(9)
H22 H 0.31880 1.07180 0.28820
H23 H 0.57110 1.12420 0.28480
C17 C 0.4666(3) 1.06476(16) 0.38153(9)
H24 H 0.62620 1.05410 0.39910
N2 N 0.1691(2) 0.97315(12) 0.45098(7)
O5 O 0.0585(2) 0.8639(1) 0.47705(6)
H25 H -0.03870 0.89670 0.50340
O6 O 0.1599(2) 1.53818(11) 0.43551(6)
C18 C 0.5715(4) 0.93175(16) 0.29192(9)
C19 C 0.3322(3) 0.95523(15) 0.41222(8)
C20 C 0.5110(4) 0.9224(2) 0.22152(11)
H26 H 0.56880 0.84270 0.21050
H27 H 0.58030 0.99000 0.19230
H28 H 0.34460 0.92840 0.21610
C21 C 0.8242(4) 0.9120(2) 0.30248(10)
H29 H 0.87280 0.83150 0.29060
H30 H 0.86030 0.91400 0.34870
H31 H 0.90450 0.97780 0.27500
C22 C 0.3700(3) 1.18943(15) 0.39474(8)
C23 C 0.1582(3) 1.23957(16) 0.37204(8)
H32 H 0.06550 1.19350 0.34730
C24 C 0.0783(3) 1.35586(15) 0.38463(8)
H33 H -0.06680 1.38850 0.36880
C25 C 0.2151(3) 1.42267(14) 0.42070(8)
C26 C 0.4241(3) 1.37144(16) 0.44448(9)
H34 H 0.51600 1.41600 0.47020
C27 C 0.4998(3) 1.25734(16) 0.43138(9)
H35 H 0.64400 1.22450 0.44780
C28 C -0.0485(3) 1.59568(17) 0.40996(11)
H36 H -0.06770 1.67750 0.42390
H37 H -0.17620 1.54430 0.42640
H38 H -0.04560 1.60490 0.36190
C29? C 0.583(3) 1.0488(13) 0.3281(7)
C30? C 0.372(3) 1.0692(13) 0.3531(8)
C31? C 0.349(2) 0.8301(11) 0.3782(6)
H39? H 0.69790 1.03390 0.36380
H40? H 0.62750 1.12180 0.29690
H41? H 0.24950 1.07710 0.31900
H42? H 0.32060 0.75620 0.41080
H43? H 0.23700 0.83420 0.34210
H44? H 0.90530 0.96970 0.27020
H45? H 0.86900 0.82670 0.29730
H46? H 0.86330 0.92680 0.34680
O7? O 0.5763(10) 0.8254(5) 0.3539(3)
#END
