
#######################################################################
#
#                 Cambridge Crystallographic Data Centre
#                                CCDC
#
#######################################################################
#
# If this CIF has been generated from an entry in the Cambridge
# Structural Database, then it will include bibliographic, chemical,
# crystal, experimental, refinement or atomic coordinate data resulting
# from the CCDC's data processing and validation procedures.
#
#######################################################################

data_CSD_CIF_UBAWEB
_audit_creation_date 2011-10-26
_audit_creation_method CSD-ConQuest-V1
_database_code_CSD UBAWEB
_database_code_depnum_ccdc_archive 'CCDC 787020'
_chemical_formula_sum 'C19 H20 N2 O5'
_chemical_formula_moiety
;
C19 H20 N2 O5
;
_journal_coden_Cambridge 692
_journal_volume 2011
_journal_year 2011
_journal_page_first 2310
_journal_name_full 'Synthesis '
loop_
_publ_author_name
"D.M.Aparicio"
"J.L.Teran"
"L.F.Roa"
"D.Gnecco"
"J.R.Juarez"
"M.L.Orea"
"A.Mendoza"
"M.Flores-Alamo"
"L.Micouin"
_chemical_name_systematic
;
(6R,7R)-(-)-6-hydroxy-7-(3-nitrophenyl)-4-((S)-1'-phenylethyl)-1,4-oxazepan-5-
one
;
_cell_volume    866.522
_exptl_crystal_colour 'colorless'
_exptl_crystal_density_diffrn 1.366
_exptl_crystal_description 'prism'
_diffrn_ambient_temperature 130
#These two values have been output from a single CSD field.
_refine_ls_R_factor_gt 0.033
_refine_ls_wR_factor_gt 0.033
_symmetry_cell_setting monoclinic
_symmetry_space_group_name_H-M 'P 21'
_symmetry_Int_Tables_number 4
loop_
_symmetry_equiv_pos_site_id
_symmetry_equiv_pos_as_xyz
1 x,y,z
2 -x,1/2+y,-z
_cell_length_a 7.3370(4)
_cell_length_b 8.2280(6)
_cell_length_c 14.4570(8)
_cell_angle_alpha 90
_cell_angle_beta 96.850(5)
_cell_angle_gamma 90
_cell_formula_units_Z 2
loop_
_atom_type_symbol
_atom_type_radius_bond
C 0.68
H 0.23
N 0.68
O 0.68
loop_
_atom_site_label
_atom_site_type_symbol
_atom_site_fract_x
_atom_site_fract_y
_atom_site_fract_z
O1 O 0.44239(15) 0.9263(2) 0.53544(7)
O2 O -0.12817(15) 0.90189(18) 0.41538(8)
O3 O -0.02298(18) 0.8316(2) 0.58379(9)
N1 N 0.14272(18) 0.8665(2) 0.35837(9)
C1 C 0.3071(2) 0.9386(3) 0.67382(11)
C2 C 0.2695(2) 0.9519(3) 0.56899(11)
H1 H 0.22750 1.06250 0.55270
C3 C 0.1227(2) 0.8308(3) 0.52753(11)
H2 H 0.17650 0.72170 0.52850
C4 C 0.0614(2) 0.9059(3) 0.26249(11)
H3 H -0.07210 0.90720 0.26260
O4 O 0.3809(2) 1.3466(2) 0.83685(11)
C5 C 0.1136(3) 0.6113(3) 0.22298(15)
H4 H 0.09810 0.58440 0.28400
O5 O 0.3830(2) 1.2047(2) 0.96237(10)
C6 C 0.3430(2) 0.8406(3) 0.37479(12)
H5 H 0.39200 0.84350 0.31540
H6 H 0.36650 0.73320 0.40120
C7 C 0.1175(3) 1.0748(3) 0.23612(14)
H7 H 0.09240 1.15030 0.28360
H8 H 0.04940 1.10540 0.17790
H9 H 0.24640 1.07600 0.23010
C8 C 0.4434(2) 0.9638(3) 0.43875(12)
H10 H 0.56960 0.97050 0.42530
H11 H 0.38740 1.06960 0.42620
C9 C 0.3232(2) 1.0795(3) 0.72659(12)
H12 H 0.30800 1.18090 0.69830
C10 C 0.3755(3) 0.7805(3) 0.81468(13)
H13 H 0.39390 0.67990 0.84360
C11 C 0.3624(2) 1.0663(3) 0.82240(13)
C12 C 0.3343(2) 0.7887(3) 0.71846(13)
H14 H 0.32480 0.69350 0.68350
C13 C 0.1278(2) 0.8081(3) 0.10361(12)
H15 H 0.12370 0.91560 0.08360
C14 C 0.3893(2) 0.9200(3) 0.86747(12)
H16 H 0.41610 0.91520 0.93190
C15 C 0.1454(3) 0.4899(3) 0.16074(17)
H17 H 0.15280 0.38230 0.18060
C16 C 0.1047(2) 0.7726(3) 0.19526(12)
N2 N 0.3762(2) 1.2164(2) 0.87785(12)
C17 C 0.1661(3) 0.5261(4) 0.07005(17)
H18 H 0.18610 0.44400 0.02830
C18 C 0.1567(3) 0.6856(4) 0.04169(15)
H19 H 0.17000 0.71120 -0.01980
C19 C 0.0380(2) 0.8709(3) 0.42742(11)
H20 H -0.119(3) 0.849(3) 0.5429(13)
#END
