
#######################################################################
#
#                 Cambridge Crystallographic Data Centre
#                                CCDC
#
#######################################################################
#
# If this CIF has been generated from an entry in the Cambridge
# Structural Database, then it will include bibliographic, chemical,
# crystal, experimental, refinement or atomic coordinate data resulting
# from the CCDC's data processing and validation procedures.
#
#######################################################################

data_CSD_CIF_UBEGIU
_audit_creation_date 2016-11-09
_audit_creation_method CSD-ConQuest-V1
_database_code_CSD UBEGIU
_database_code_depnum_ccdc_archive 'CCDC 1515977'
_chemical_formula_sum 'C43 H54 N2 O3'
_chemical_formula_moiety
;
C43 H54 N2 O3
;
_journal_coden_Cambridge 1078
_journal_year 2016
_journal_name_full 'CSD Communication(Private Communication) '
loop_
_publ_author_name
"N.K.Ishida"
_chemical_name_systematic
;
4,4'-(2,7-di-t-butyl-9,9-dimethyl-9H-xanthene-4,5-diyl)bis(N-t-butyl-N-oxylani
line)
;
_chemical_melting_point 468
_cell_volume   3717.901
_exptl_crystal_colour 'red'
_exptl_crystal_density_diffrn 1.156
_exptl_special_details
;
, Magnetic properties

;
_exptl_crystal_preparation 'dichloromethane/hexane'
_diffrn_ambient_temperature 100
#These two values have been output from a single CSD field.
_refine_ls_R_factor_gt 0.0634
_refine_ls_wR_factor_gt 0.0634
_symmetry_cell_setting monoclinic
_symmetry_space_group_name_H-M 'P 21/c'
_symmetry_Int_Tables_number 14
loop_
_symmetry_equiv_pos_site_id
_symmetry_equiv_pos_as_xyz
1 x,y,z
2 -x,1/2+y,1/2-z
3 -x,-y,-z
4 x,-1/2-y,-1/2+z
_cell_length_a 15.387(3)
_cell_length_b 24.551(4)
_cell_length_c 10.5244(18)
_cell_angle_alpha 90
_cell_angle_beta 110.749(7)
_cell_angle_gamma 90
_cell_formula_units_Z 4
loop_
_atom_type_symbol
_atom_type_radius_bond
C 0.68
H 0.23
N 0.68
O 0.68
loop_
_atom_site_label
_atom_site_type_symbol
_atom_site_fract_x
_atom_site_fract_y
_atom_site_fract_z
O1 O 0.38884(11) 0.69880(7) 0.65827(16)
O2 O 0.43658(12) 0.56363(8) 0.52591(18)
O3 O -0.0003(1) 0.60400(6) 0.18306(15)
N1 N 0.37968(12) 0.70659(7) 0.53256(19)
N2 N 0.38769(13) 0.53235(8) 0.5739(2)
C1 C 0.28804(14) 0.70473(8) 0.4355(2)
C2 C 0.22162(15) 0.67567(9) 0.4700(2)
C3 C 0.13076(16) 0.67293(9) 0.3816(2)
C4 C 0.10235(14) 0.69948(8) 0.2561(2)
C5 C 0.16945(15) 0.72873(9) 0.2233(2)
C6 C 0.26128(16) 0.73160(9) 0.3110(2)
C7 C 0.46790(15) 0.7148(1) 0.5030(2)
C8 C 0.54661(19) 0.68926(13) 0.6207(3)
C9 C 0.46039(19) 0.68525(11) 0.3717(3)
C10 C 0.4849(2) 0.77595(11) 0.4963(3)
C11 C 0.29274(15) 0.52609(9) 0.4937(2)
C12 C 0.22802(17) 0.50051(10) 0.5394(3)
C13 C 0.13572(16) 0.49619(9) 0.4545(2)
C14 C 0.10489(15) 0.51714(9) 0.3229(2)
C15 C 0.17008(15) 0.54336(9) 0.2794(2)
C16 C 0.26180(16) 0.54770(9) 0.3630(2)
C17 C 0.43792(16) 0.5054(1) 0.7084(2)
C18 C 0.54103(18) 0.51680(13) 0.7458(3)
C19 C 0.4051(2) 0.53072(15) 0.8156(3)
C20 C 0.4235(2) 0.44367(12) 0.6949(4)
C21 C -0.04790(14) 0.65045(8) 0.1241(2)
C22 C 0.00358(15) 0.69897(8) 0.1606(2)
C23 C -0.04015(15) 0.74705(9) 0.1035(2)
C24 C -0.13280(15) 0.74894(8) 0.0142(2)
C25 C -0.17994(16) 0.69948(9) -0.0182(2)
C26 C -0.13950(14) 0.64962(9) 0.0357(2)
C27 C -0.19583(15) 0.59714(9) -0.0038(2)
C28 C -0.13783(15) 0.54880(9) 0.0725(2)
C29 C -0.17620(16) 0.49621(9) 0.0566(2)
C30 C -0.12722(15) 0.45110(9) 0.1254(2)
C31 C -0.03528(16) 0.45956(9) 0.2133(2)
C32 C 0.00669(15) 0.51055(9) 0.2305(2)
C33 C -0.04633(15) 0.55469(9) 0.1587(2)
C34 C -0.22421(19) 0.58733(10) -0.1577(2)
C35 C -0.28400(17) 0.60214(10) 0.0336(3)
C36 C -0.17930(15) 0.80377(8) -0.0372(2)
C37 C -0.1915(2) 0.83408(11) 0.0833(3)
C38 C -0.11745(19) 0.83813(12) -0.0924(3)
C39 C -0.27413(19) 0.79725(11) -0.1486(3)
C40 C -0.16871(15) 0.39361(9) 0.1120(2)
C41 C -0.10443(19) 0.35251(10) 0.0792(3)
C42 C -0.1774(2) 0.37861(10) 0.2486(3)
C43 C -0.26472(18) 0.38946(11) 0.0007(3)
H1 H 0.2386(14) 0.6563(9) 0.554(2)
H2 H 0.0857(15) 0.6534(9) 0.407(2)
H3 H 0.1510(13) 0.7476(8) 0.138(2)
H4 H 0.3058(13) 0.7517(8) 0.2835(19)
H5 H 0.5353(19) 0.6486(13) 0.623(3)
H6 H 0.5551(17) 0.7057(11) 0.711(3)
H7 H 0.6044(17) 0.6937(9) 0.599(2)
H8 H 0.4399(16) 0.6462(11) 0.372(2)
H9 H 0.5228(18) 0.6835(10) 0.365(2)
H10 H 0.4181(17) 0.7017(10) 0.289(3)
H11 H 0.5446(17) 0.7807(9) 0.484(2)
H12 H 0.4340(19) 0.7944(11) 0.420(3)
H13 H 0.488(2) 0.7949(12) 0.578(3)
H14 H 0.2420(15) 0.4859(9) 0.625(2)
H15 H 0.0909(15) 0.4816(9) 0.492(2)
H16 H 0.1489(14) 0.5591(9) 0.183(2)
H17 H 0.3081(14) 0.5653(8) 0.329(2)
H18 H 0.5553(16) 0.5566(11) 0.755(2)
H19 H 0.5623(17) 0.5009(10) 0.671(3)
H20 H 0.5760(19) 0.4987(11) 0.833(3)
H21 H 0.409(2) 0.5737(16) 0.815(3)
H22 H 0.444(2) 0.5163(12) 0.910(3)
H23 H 0.338(2) 0.5214(11) 0.803(3)
H24 H 0.445(2) 0.4310(15) 0.616(4)
H25 H 0.3567(18) 0.4337(9) 0.675(2)
H26 H 0.4624(18) 0.4272(11) 0.786(3)
H27 H -0.0050(13) 0.7814(8) 0.1312(19)
H28 H -0.2471(15) 0.7001(8) -0.085(2)
H29 H -0.2409(16) 0.4923(9) -0.001(2)
H30 H 0.0029(14) 0.4295(9) 0.266(2)
H31 H -0.1652(15) 0.5837(8) -0.179(2)
H32 H -0.2622(15) 0.5514(9) -0.186(2)
H33 H -0.2640(16) 0.6184(10) -0.207(2)
H34 H -0.2675(16) 0.6097(10) 0.131(3)
H35 H -0.3199(16) 0.5666(11) 0.014(2)
H36 H -0.3241(17) 0.6324(11) -0.014(3)
H37 H -0.1297(18) 0.8393(10) 0.158(3)
H38 H -0.2286(18) 0.8137(10) 0.124(3)
H39 H -0.2185(16) 0.8711(11) 0.055(2)
H40 H -0.0548(18) 0.8474(10) -0.017(3)
H41 H -0.1454(17) 0.8730(11) -0.124(3)
H42 H -0.1085(17) 0.8191(10) -0.169(3)
H43 H -0.2643(17) 0.7794(11) -0.228(3)
H44 H -0.3027(15) 0.8362(10) -0.182(2)
H45 H -0.3197(18) 0.7774(11) -0.124(3)
H46 H -0.0416(18) 0.353(1) 0.150(3)
H47 H -0.1016(15) 0.3623(9) -0.017(3)
H48 H -0.1328(14) 0.3161(9) 0.072(2)
H49 H -0.1130(17) 0.3792(9) 0.320(2)
H50 H -0.2051(15) 0.3421(10) 0.242(2)
H51 H -0.2164(15) 0.4053(9) 0.276(2)
H52 H -0.2636(15) 0.3975(9) -0.094(3)
H53 H -0.3112(15) 0.4137(9) 0.017(2)
H54 H -0.2896(16) 0.3519(11) -0.006(2)
#END
