
#######################################################################
#
#                 Cambridge Crystallographic Data Centre
#                                CCDC
#
#######################################################################
#
# If this CIF has been generated from an entry in the Cambridge
# Structural Database, then it will include bibliographic, chemical,
# crystal, experimental, refinement or atomic coordinate data resulting
# from the CCDC's data processing and validation procedures.
#
#######################################################################

data_CSD_CIF_UBENIY
_audit_creation_date 2001-09-19
_audit_creation_method CSD-ConQuest-V1
_database_code_CSD UBENIY
_chemical_formula_sum 'C13 H18 N4 O2'
_chemical_formula_moiety
;
C13 H18 N4 O2
;
_journal_coden_Cambridge 1061
_journal_volume 16
_journal_year 2000
_journal_page_first 775
_journal_name_full 'Anal.Sci. '
loop_
_publ_author_name
"S.Isik"
"S.Ozturk"
"M.Macit"
"H.K.Fun"
_chemical_name_systematic
;
(E,E)-1-Benzyl-4-piperazineglyoxime
;
_cell_volume   1353.304
_exptl_crystal_colour 'colorless'
_exptl_crystal_density_diffrn 1.287
_exptl_crystal_preparation 'ethanol'
_diffrn_ambient_temperature 293
#These two values have been output from a single CSD field.
_refine_ls_R_factor_gt 0.06
_refine_ls_wR_factor_gt 0.06
_symmetry_cell_setting monoclinic
_symmetry_space_group_name_H-M 'P 21/c'
_symmetry_Int_Tables_number 14
loop_
_symmetry_equiv_pos_site_id
_symmetry_equiv_pos_as_xyz
1 x,y,z
2 -x,1/2+y,1/2-z
3 -x,-y,-z
4 x,-1/2-y,-1/2+z
_cell_length_a 12.2327(3)
_cell_length_b 8.3338(3)
_cell_length_c 13.3045(2)
_cell_angle_alpha 90
_cell_angle_beta 93.825(2)
_cell_angle_gamma 90
_cell_formula_units_Z 4
loop_
_atom_type_symbol
_atom_type_radius_bond
C 0.68
N 0.68
O 0.68
loop_
_atom_site_label
_atom_site_type_symbol
_atom_site_fract_x
_atom_site_fract_y
_atom_site_fract_z
O1 O -0.0876(2) 0.3598(3) -0.0380(2)
O2 O -0.2316(2) -0.0846(3) 0.0944(2)
N1 N 0.2459(2) 0.1279(3) 0.3069(2)
N2 N 0.0732(2) 0.1528(3) 0.1506(2)
N3 N 0.0012(2) 0.3304(3) 0.0336(2)
N4 N -0.1267(2) -0.0235(3) 0.1135(2)
C1 C 0.6553(3) 0.2226(5) 0.3775(4)
C2 C 0.5818(4) 0.2793(5) 0.4408(4)
C3 C 0.4753(3) 0.2184(4) 0.4346(3)
C4 C 0.4447(2) 0.1027(4) 0.3648(2)
C5 C 0.5214(3) 0.0485(5) 0.3015(3)
C6 C 0.6263(3) 0.1075(5) 0.3072(4)
C7 C 0.3326(3) 0.0303(4) 0.3609(3)
C8 C 0.2679(2) 0.1540(4) 0.2019(2)
C9 C 0.1750(2) 0.2436(4) 0.1459(2)
C10 C 0.0490(2) 0.1254(4) 0.2555(2)
C11 C 0.1430(2) 0.0384(4) 0.3103(3)
C12 C -0.0137(2) 0.2022(3) 0.0854(2)
C13 C -0.1156(3) 0.1132(4) 0.0764(2)
#END
