
#######################################################################
#
#                 Cambridge Crystallographic Data Centre
#                                CCDC
#
#######################################################################
#
# If this CIF has been generated from an entry in the Cambridge
# Structural Database, then it will include bibliographic, chemical,
# crystal, experimental, refinement or atomic coordinate data resulting
# from the CCDC's data processing and validation procedures.
#
#######################################################################

data_CSD_CIF_UBIZEM
_audit_creation_date 2012-01-16
_audit_creation_method CSD-ConQuest-V1
_database_code_CSD UBIZEM
_database_code_depnum_ccdc_archive 'CCDC 790313'
_chemical_formula_sum 'C22 H17 N3 O3'
_chemical_formula_moiety
;
C22 H17 N3 O3
;
_journal_coden_Cambridge 1086
_journal_volume 23
_journal_year 2011
_journal_page_first 543
_journal_name_full 'Chirality '
loop_
_publ_author_name
"K.Matsumoto"
"K.Miki"
"T.Inagaki"
"T.Nehira"
"G.Pescitelli"
"Y.Hirao"
"H.Kurata"
"T.Kawase"
"T.Kubo"
_chemical_name_systematic
;
rac-(1-Oxypyridin-2-yl)(1-oxypyridin-3-yl)(1-oxypyridin-4-yl)phenylmethane
;
_cell_volume    846.697
_exptl_crystal_colour 'yellow'
_exptl_crystal_density_diffrn 1.457
_exptl_crystal_description 'block'
_diffrn_ambient_temperature 200
#These two values have been output from a single CSD field.
_refine_ls_R_factor_gt 0.0649
_refine_ls_wR_factor_gt 0.0649
_symmetry_cell_setting triclinic
_symmetry_space_group_name_H-M 'P -1'
_symmetry_Int_Tables_number 2
loop_
_symmetry_equiv_pos_site_id
_symmetry_equiv_pos_as_xyz
1 x,y,z
2 -x,-y,-z
_cell_length_a 7.2706(10)
_cell_length_b 9.1391(14)
_cell_length_c 14.682(2)
_cell_angle_alpha 78.731(4)
_cell_angle_beta 77.960(4)
_cell_angle_gamma 63.316(4)
_cell_formula_units_Z 2
loop_
_atom_type_symbol
_atom_type_radius_bond
C 0.68
H 0.23
N 0.68
O 0.68
loop_
_atom_site_label
_atom_site_type_symbol
_atom_site_fract_x
_atom_site_fract_y
_atom_site_fract_z
O1 O 0.5395(3) -0.0013(3) 0.31888(18)
O2 O 0.0501(4) -0.1854(3) 0.44621(19)
O3 O 0.8919(4) 0.2322(3) -0.01241(19)
N1 N 0.4623(4) 0.1267(3) 0.36260(18)
N2 N 0.0672(4) -0.1059(3) 0.3614(2)
N3 N 0.7233(4) 0.2397(3) 0.0436(2)
C1 C 0.1992(4) 0.2532(3) 0.2530(2)
C2 C 0.2809(4) 0.2604(3) 0.3401(2)
C3 C 0.2029(5) 0.3935(4) 0.3901(2)
C4 C 0.3028(5) 0.3962(4) 0.4602(2)
C5 C 0.4830(5) 0.2622(4) 0.4799(2)
C6 C 0.5604(5) 0.1300(4) 0.4313(2)
C7 C 0.1438(4) 0.1073(3) 0.2635(2)
C8 C 0.0884(4) 0.0722(3) 0.1883(2)
C9 C 0.0308(5) -0.0558(4) 0.2005(2)
C10 C 0.0189(5) -0.1430(4) 0.2875(2)
C11 C 0.1288(4) 0.0171(3) 0.3501(2)
C12 C 0.3771(4) 0.2482(3) 0.1725(2)
C13 C 0.4442(5) 0.3730(4) 0.1594(2)
C14 C 0.6153(5) 0.3666(4) 0.0954(2)
C15 C 0.6572(5) 0.1202(4) 0.0527(2)
C16 C 0.4887(5) 0.1226(4) 0.1171(2)
C17 C -0.0069(4) 0.4084(3) 0.2377(2)
C18 C -0.1801(5) 0.4294(4) 0.3051(2)
C19 C -0.3680(5) 0.5634(4) 0.2943(2)
C20 C -0.3870(5) 0.6784(4) 0.2158(2)
C21 C -0.2199(5) 0.6573(4) 0.1485(2)
C22 C -0.0289(5) 0.5219(4) 0.1586(2)
H1 H 0.07770 0.48580 0.37620
H2 H 0.24730 0.48900 0.49400
H3 H 0.55390 0.26190 0.52750
H4 H 0.68550 0.03790 0.44550
H5 H 0.09010 0.13580 0.12890
H6 H -0.00080 -0.08390 0.14860
H7 H -0.02340 -0.22970 0.29570
H8 H 0.16250 0.04190 0.40260
H9 H 0.37100 0.46370 0.19520
H10 H 0.65780 0.45310 0.08770
H11 H 0.72790 0.03340 0.01420
H12 H 0.44860 0.03510 0.12350
H13 H -0.16870 0.35070 0.35900
H14 H -0.48480 0.57680 0.34100
H15 H -0.51590 0.77160 0.20900
H16 H -0.23330 0.73530 0.09410
H17 H 0.08630 0.50780 0.11080
#END
