
#######################################################################
#
#                 Cambridge Crystallographic Data Centre
#                                CCDC
#
#######################################################################
#
# If this CIF has been generated from an entry in the Cambridge
# Structural Database, then it will include bibliographic, chemical,
# crystal, experimental, refinement or atomic coordinate data resulting
# from the CCDC's data processing and validation procedures.
#
#######################################################################

data_CSD_CIF_UBOLAA
_audit_creation_date 2012-01-16
_audit_creation_method CSD-ConQuest-V1
_database_code_CSD UBOLAA
_database_code_depnum_ccdc_archive 'CCDC 775950'
_chemical_formula_sum 'C27 H30 N2 O5'
_chemical_formula_moiety
;
C27 H30 N2 O5
;
_journal_coden_Cambridge 692
_journal_volume 2011
_journal_year 2011
_journal_page_first 3277
_journal_name_full 'Synthesis '
loop_
_publ_author_name
"K.Ramachandiran"
"K.Karthikeyan"
"T.Nandhakumar"
"D.Muralidharan"
"P.T.Perumal"
_chemical_name_systematic
;
t-Butyl 
3-(6-ethoxy-3a,4-dihydro-3H,10H-[1]benzoxepino[4,3-c][1,2]oxazol-10-yl)-2-meth
yl-1H-indole-1-carboxylate
;
_cell_volume   2409.297
_exptl_crystal_colour 'colorless'
_exptl_crystal_density_diffrn 1.275
_exptl_crystal_description 'block'
_diffrn_ambient_temperature 298
#These two values have been output from a single CSD field.
_refine_ls_R_factor_gt 0.0556
_refine_ls_wR_factor_gt 0.0556
_symmetry_cell_setting monoclinic
_symmetry_space_group_name_H-M 'P 21/n'
_symmetry_Int_Tables_number 14
loop_
_symmetry_equiv_pos_site_id
_symmetry_equiv_pos_as_xyz
1 x,y,z
2 1/2-x,1/2+y,1/2-z
3 -x,-y,-z
4 -1/2+x,-1/2-y,-1/2+z
_cell_length_a 11.5441(6)
_cell_length_b 10.3947(6)
_cell_length_c 20.1231(9)
_cell_angle_alpha 90
_cell_angle_beta 93.841(3)
_cell_angle_gamma 90
_cell_formula_units_Z 4
loop_
_atom_type_symbol
_atom_type_radius_bond
C 0.68
H 0.23
N 0.68
O 0.68
loop_
_atom_site_label
_atom_site_type_symbol
_atom_site_fract_x
_atom_site_fract_y
_atom_site_fract_z
C1 C 0.4701(2) 0.0659(2) 0.22877(11)
C2 C 0.3534(2) 0.0383(3) 0.21429(12)
H1 H 0.32350 -0.04120 0.22570
C3 C 0.2823(2) 0.1290(3) 0.18308(13)
H2 H 0.20470 0.10930 0.17230
C4 C 0.32388(18) 0.2478(3) 0.16768(11)
H3 H 0.27390 0.30890 0.14790
C5 C 0.44062(16) 0.2777(2) 0.18142(10)
C6 C 0.48132(16) 0.4150(2) 0.1719(1)
H4 H 0.41060 0.46650 0.16420
C7 C 0.53736(16) 0.4603(2) 0.23799(10)
C8 C 0.6618(2) 0.5034(2) 0.32943(12)
H5 H 0.69070 0.45270 0.36750
H6 H 0.71310 0.57630 0.32480
C9 C 0.65550(16) 0.4223(2) 0.2667(1)
H7 H 0.71530 0.44890 0.23720
C10 C 0.66305(18) 0.2787(2) 0.28019(11)
H8 H 0.74180 0.25660 0.29600
H9 H 0.61200 0.25640 0.31480
C11 C 0.51284(16) 0.1848(2) 0.21077(10)
C12 C 0.5036(3) -0.1129(3) 0.30217(17)
H10 H 0.43150 -0.08420 0.31940
H11 H 0.48760 -0.18990 0.27590
C13 C 0.5851(4) -0.1412(4) 0.35574(19)
H12 H 0.65240 -0.18090 0.33890
H13 H 0.55080 -0.19890 0.38610
H14 H 0.60750 -0.06310 0.37860
C14 C 0.55636(15) 0.4474(2) 0.11522(9)
C15 C 0.61136(15) 0.3725(2) 0.07181(9)
C16 C 0.64872(16) 0.5829(2) 0.04569(10)
C17 C 0.6845(2) 0.6986(2) 0.01888(11)
H15 H 0.73280 0.70010 -0.01630
C18 C 0.6461(2) 0.8108(2) 0.04624(13)
H16 H 0.66870 0.88920 0.02900
C19 C 0.5744(2) 0.8101(2) 0.09887(13)
H17 H 0.54930 0.88750 0.11610
C20 C 0.54027(19) 0.6956(2) 0.12577(11)
H18 H 0.49260 0.69530 0.16120
C21 C 0.57780(16) 0.5804(2) 0.09936(10)
C22 C 0.60799(19) 0.2300(2) 0.06232(11)
H19 H 0.68110 0.19360 0.07820
H20 H 0.59350 0.21070 0.01590
H21 H 0.54720 0.19410 0.08680
C23 C 0.74809(18) 0.4220(2) -0.01945(10)
C24 C 0.8599(2) 0.2422(3) -0.06002(11)
C25 C 0.8100(3) 0.2521(3) -0.13089(13)
H22 H 0.73170 0.22040 -0.13380
H23 H 0.85610 0.20170 -0.15920
H24 H 0.81050 0.34040 -0.14490
C26 C 0.9768(2) 0.3051(4) -0.04998(16)
H25 H 0.97310 0.39010 -0.06860
H26 H 1.03310 0.25510 -0.07170
H27 H 0.99880 0.31030 -0.00320
C27 C 0.8618(4) 0.1035(3) -0.03691(19)
H28 H 0.88540 0.10000 0.00970
H29 H 0.91560 0.05540 -0.06150
H30 H 0.78560 0.06700 -0.04430
N1 N 0.47963(17) 0.5260(2) 0.27647(10)
N2 N 0.67066(13) 0.45439(16) 0.02877(8)
O1 O 0.54585(16) 0.54594(19) 0.33765(9)
O2 O 0.63098(10) 0.20667(13) 0.22140(7)
O3 O 0.54797(16) -0.01459(16) 0.26095(9)
O4 O 0.78044(17) 0.49882(18) -0.05840(9)
O5 O 0.77937(13) 0.30084(16) -0.01404(7)
#END
