
#######################################################################
#
#                 Cambridge Crystallographic Data Centre
#                                CCDC
#
#######################################################################
#
# If this CIF has been generated from an entry in the Cambridge
# Structural Database, then it will include bibliographic, chemical,
# crystal, experimental, refinement or atomic coordinate data resulting
# from the CCDC's data processing and validation procedures.
#
#######################################################################

data_CSD_CIF_UBUBAX
_audit_creation_date 2016-12-16
_audit_creation_method CSD-ConQuest-V1
_database_code_CSD UBUBAX
_database_code_depnum_ccdc_archive 'CCDC 1523189'
_chemical_formula_sum 'C25 H19 N3 O3'
_chemical_formula_moiety
;
C25 H19 N3 O3
;
_journal_coden_Cambridge 1078
_journal_year 2016
_journal_name_full 'CSD Communication(Private Communication) '
loop_
_publ_author_name
"W.Clegg"
"R.W.Harrington"
_chemical_name_systematic
;
(4-nitrobenzyl)(3-oxo-1,3-diphenylpropyl)malononitrile
;
_cell_volume   1029.987
_exptl_crystal_colour 'colorless'
_exptl_crystal_density_diffrn 1.32
_exptl_crystal_description 'block'
_diffrn_ambient_temperature 150
#These two values have been output from a single CSD field.
_refine_ls_R_factor_gt 0.0414
_refine_ls_wR_factor_gt 0.0414
_symmetry_cell_setting triclinic
_symmetry_space_group_name_H-M 'P -1'
_symmetry_Int_Tables_number 2
loop_
_symmetry_equiv_pos_site_id
_symmetry_equiv_pos_as_xyz
1 x,y,z
2 -x,-y,-z
_cell_length_a 6.1119(4)
_cell_length_b 12.8711(7)
_cell_length_c 14.6606(9)
_cell_angle_alpha 112.086(6)
_cell_angle_beta 94.482(5)
_cell_angle_gamma 101.937(5)
_cell_formula_units_Z 2
loop_
_atom_type_symbol
_atom_type_radius_bond
C 0.68
H 0.23
N 0.68
O 0.68
loop_
_atom_site_label
_atom_site_type_symbol
_atom_site_fract_x
_atom_site_fract_y
_atom_site_fract_z
O1 O 0.42917(17) 0.75876(9) 0.11292(8)
O2 O 0.2120(2) 1.66895(10) 0.48284(9)
O3 O 0.5318(2) 1.71201(10) 0.43614(10)
N1 N 0.3881(2) 1.13992(12) 0.05465(11)
N2 N -0.1781(2) 1.08625(12) 0.18469(11)
N3 N 0.3694(2) 1.64177(11) 0.44082(9)
C1 C 0.2809(3) 0.55936(13) -0.06191(12)
H1 H 0.43110 0.57549 -0.02825
C2 C 0.1860(3) 0.45287(14) -0.13975(12)
H2 H 0.27180 0.39688 -0.16022
C3 C -0.0337(3) 0.42798(14) -0.18773(11)
H3 H -0.10052 0.35433 -0.24046
C4 C -0.1552(3) 0.51006(15) -0.15896(12)
H4 H -0.30663 0.49267 -0.19189
C5 C -0.0592(3) 0.61837(14) -0.08217(11)
H5 H -0.14339 0.67527 -0.06397
C6 C 0.1597(2) 0.64316(12) -0.03219(10)
C7 C 0.2678(2) 0.75336(12) 0.05602(10)
C8 C 0.1774(2) 0.85938(12) 0.07274(10)
H6 H 0.00953 0.83677 0.06280
H7 H 0.22262 0.89182 0.02357
C9 C 0.2713(2) 0.95116(12) 0.17856(10)
H8 H 0.43800 0.95784 0.19009
C10 C 0.1748(2) 0.91524(11) 0.25749(10)
C11 C -0.0570(2) 0.87064(12) 0.24983(11)
H9 H -0.15920 0.86168 0.19353
C12 C -0.1401(3) 0.83919(13) 0.32370(12)
H10 H -0.29854 0.80893 0.31773
C13 C 0.0064(3) 0.85167(13) 0.40573(12)
H11 H -0.05103 0.83072 0.45649
C14 C 0.2365(3) 0.89464(13) 0.41383(11)
H12 H 0.33777 0.90259 0.47000
C15 C 0.3204(3) 0.92623(12) 0.34045(10)
H13 H 0.47923 0.95577 0.34672
C16 C 0.2453(2) 1.07522(12) 0.19373(10)
C17 C 0.3292(2) 1.10994(12) 0.11479(11)
C18 C 0.0046(2) 1.07925(12) 0.18763(11)
C19 C 0.3817(3) 1.16447(12) 0.29769(11)
H14 H 0.32588 1.13881 0.34931
H15 H 0.54289 1.16232 0.29918
C20 C 0.3711(2) 1.28836(12) 0.32632(10)
C21 C 0.1898(3) 1.32445(13) 0.36865(11)
H16 H 0.06768 1.26937 0.37440
C22 C 0.1852(3) 1.43934(13) 0.40238(10)
H17 H 0.05906 1.46349 0.42940
C23 C 0.3667(2) 1.51833(12) 0.39618(10)
C24 C 0.5480(3) 1.48595(13) 0.35300(11)
H18 H 0.67013 1.54174 0.34818
C25 C 0.5465(3) 1.36978(13) 0.31693(11)
H19 H 0.66750 1.34521 0.28521
#END
