
#######################################################################
#
#                 Cambridge Crystallographic Data Centre
#                                CCDC
#
#######################################################################
#
# If this CIF has been generated from an entry in the Cambridge
# Structural Database, then it will include bibliographic, chemical,
# crystal, experimental, refinement or atomic coordinate data resulting
# from the CCDC's data processing and validation procedures.
#
#######################################################################

data_CSD_CIF_UBUNUA
_audit_creation_date 2001-09-19
_audit_creation_method CSD-ConQuest-V1
_database_code_CSD UBUNUA
_database_code_depnum_ccdc_archive 'CCDC 168429'
_chemical_formula_sum 'C17 H22 N4 O5'
_chemical_formula_moiety
;
C17 H22 N4 O5
;
_journal_coden_Cambridge 1336
_journal_volume 3
_journal_year 2001
_journal_page_first 1901
_journal_name_full 'Org.Lett. '
loop_
_publ_author_name
"P.Chiu"
"Chun-Pong Szeto"
"Zhe Geng"
"Kin-Fai Cheng"
_chemical_name_systematic
;
(4aR*,8S*,8aS*)-8-Hydroxy-8-methyloctahydronaphthalen-1-(2,4-dinitrophenylhydr
azone)
;
_cell_volume    885.393
_exptl_crystal_colour 'colorless'
_exptl_crystal_density_diffrn 1.359
_exptl_crystal_description 'block'
_diffrn_ambient_temperature 273.2
#These two values have been output from a single CSD field.
_refine_ls_R_factor_gt 0.0446
_refine_ls_wR_factor_gt 0.0446
_symmetry_cell_setting triclinic
_symmetry_space_group_name_H-M 'P -1'
_symmetry_Int_Tables_number 2
loop_
_symmetry_equiv_pos_site_id
_symmetry_equiv_pos_as_xyz
1 x,y,z
2 -x,-y,-z
_cell_length_a 7.507(1)
_cell_length_b 8.541(1)
_cell_length_c 14.796(1)
_cell_angle_alpha 79.02(1)
_cell_angle_beta 87.56(1)
_cell_angle_gamma 71.96(1)
_cell_formula_units_Z 2
loop_
_atom_type_symbol
_atom_type_radius_bond
C 0.68
H 0.23
N 0.68
O 0.68
loop_
_atom_site_label
_atom_site_type_symbol
_atom_site_fract_x
_atom_site_fract_y
_atom_site_fract_z
O1 O 0.4461(3) 0.8842(3) 0.6775(1)
O2 O 0.3102(4) 0.9146(3) 0.4896(2)
O3 O 0.3074(4) 0.9024(3) 0.3462(2)
O4 O 0.1278(4) 0.4914(3) 0.2390(2)
O5 O 0.1120(3) 0.2683(3) 0.3321(2)
N1 N 0.3571(4) 0.5381(3) 0.7002(2)
N2 N 0.3176(3) 0.6482(3) 0.6156(2)
N3 N 0.2939(4) 0.8429(3) 0.4276(2)
N4 N 0.1426(4) 0.4040(4) 0.3163(2)
C1 C 0.3692(4) 0.8937(4) 0.7679(2)
C2 C 0.2570(5) 1.0752(4) 0.7713(2)
C3 C 0.1384(5) 1.0924(4) 0.8573(2)
C4 C 0.0008(5) 0.9943(5) 0.8597(2)
C5 C 0.0917(5) 0.8090(4) 0.8551(2)
C6 C 0.2324(4) 0.7894(4) 0.7749(2)
C7 C 0.3269(4) 0.6064(4) 0.7721(2)
C8 C 0.3844(5) 0.4849(4) 0.8619(2)
C9 C 0.2344(6) 0.5137(5) 0.9353(2)
C10 C 0.1695(5) 0.6960(5) 0.9460(2)
C11 C 0.5310(5) 0.8315(4) 0.8375(2)
C12 C 0.2822(4) 0.5894(4) 0.5421(2)
C13 C 0.2639(4) 0.4258(4) 0.5529(2)
C14 C 0.2235(4) 0.3641(4) 0.4806(2)
C15 C 0.1980(4) 0.4630(4) 0.3928(2)
C16 C 0.2212(4) 0.6179(4) 0.3776(2)
C17 C 0.2634(4) 0.6817(4) 0.4505(2)
H1 H 0.34280 1.13710 0.77070
H2 H 0.17730 1.11880 0.71870
H3 H 0.21730 1.05020 0.91050
H4 H 0.07180 1.20730 0.85550
H5 H -0.06670 1.00080 0.91540
H6 H -0.08390 1.04430 0.80880
H7 H 0.40800 0.37360 0.85090
H8 H 0.49620 0.49500 0.88450
H9 H 0.13220 0.48340 0.91850
H10 H 0.28730 0.44570 0.99270
H11 H 0.27190 0.72500 0.96570
H12 H 0.07410 0.71060 0.99080
H13 H -0.00670 0.77190 0.83810
H14 H 0.15710 0.83250 0.72030
H15 H 0.48200 0.83560 0.89750
H16 H 0.60060 0.71980 0.83350
H17 H 0.60920 0.90130 0.82450
H18 H 0.28050 0.35740 0.61280
H19 H 0.21360 0.25370 0.49000
H20 H 0.20860 0.68200 0.31680
H21 H 0.29850 0.77500 0.60880
H22 H 0.54450 0.95160 0.66760
#END
