
#######################################################################
#
#                 Cambridge Crystallographic Data Centre
#                                CCDC
#
#######################################################################
#
# If this CIF has been generated from an entry in the Cambridge
# Structural Database, then it will include bibliographic, chemical,
# crystal, experimental, refinement or atomic coordinate data resulting
# from the CCDC's data processing and validation procedures.
#
#######################################################################

data_CSD_CIF_UBUPAI
_audit_creation_date 2001-09-19
_audit_creation_method CSD-ConQuest-V1
_database_code_CSD UBUPAI
_database_code_depnum_ccdc_archive 'CCDC 168430'
_chemical_formula_sum 'C20 H26 N4 O7'
_chemical_formula_moiety
;
C20 H26 N4 O7
;
_journal_coden_Cambridge 1336
_journal_volume 3
_journal_year 2001
_journal_page_first 1901
_journal_name_full 'Org.Lett. '
loop_
_publ_author_name
"P.Chiu"
"Chun-Pong Szeto"
"Zhe Geng"
"Kin-Fai Cheng"
_chemical_name_systematic
;
(1S*,3aR*,7aS*)-1-(7a-Hydroxy-3a-(ethoxycarbonyl)octahydroinden-1-yl)ethane-1-
(2,4-dinitrophenylhydrazone)
;
_cell_volume   1074.227
_exptl_crystal_colour 'orange'
_exptl_crystal_density_diffrn 1.343
_exptl_crystal_description 'block'
_diffrn_ambient_temperature 273.2
#These two values have been output from a single CSD field.
_refine_ls_R_factor_gt 0.0578
_refine_ls_wR_factor_gt 0.0578
_symmetry_cell_setting triclinic
_symmetry_space_group_name_H-M 'P -1'
_symmetry_Int_Tables_number 2
loop_
_symmetry_equiv_pos_site_id
_symmetry_equiv_pos_as_xyz
1 x,y,z
2 -x,-y,-z
_cell_length_a 7.212(1)
_cell_length_b 9.493(1)
_cell_length_c 16.608(2)
_cell_angle_alpha 75.73(1)
_cell_angle_beta 78.37(1)
_cell_angle_gamma 81.84(1)
_cell_formula_units_Z 2
loop_
_atom_type_symbol
_atom_type_radius_bond
C 0.68
H 0.23
N 0.68
O 0.68
loop_
_atom_site_label
_atom_site_type_symbol
_atom_site_fract_x
_atom_site_fract_y
_atom_site_fract_z
O1 O 0.4318(3) 0.5618(2) 0.6405(1)
O2 O 0.3614(3) 0.6207(3) 0.4707(1)
O3 O 0.3207(4) 0.8626(3) 0.4350(1)
O4 O 0.3544(3) 0.3295(3) 1.0461(1)
O5 O 0.2532(4) 0.1748(3) 1.1598(2)
O6 O -0.2441(4) -0.1079(3) 1.1801(2)
O7 O -0.4190(4) -0.0600(3) 1.0840(2)
N1 N 0.1041(3) 0.5043(2) 0.8538(1)
N2 N 0.1548(3) 0.4126(3) 0.9265(1)
N3 N 0.2401(4) 0.2417(3) 1.0878(2)
N4 N -0.2891(5) -0.0349(3) 1.1137(2)
C1 C 0.1195(4) 0.4935(3) 0.6462(2)
C2 C -0.0865(5) 0.5444(4) 0.6398(3)
C3 C -0.1033(5) 0.6714(4) 0.5651(3)
C4 C -0.0040(5) 0.7961(4) 0.5719(2)
C5 C 0.2084(4) 0.7539(3) 0.5759(2)
C6 C 0.2350(4) 0.6142(3) 0.6460(2)
C7 C 0.1820(4) 0.6748(3) 0.7265(2)
C8 C 0.2614(7) 0.8242(4) 0.7008(2)
C9 C 0.2936(5) 0.8694(3) 0.6053(2)
C10 C 0.3080(4) 0.7368(4) 0.4894(2)
C11 C 0.4067(7) 0.8619(5) 0.3479(2)
C12 C 0.2652(8) 0.8532(5) 0.2996(3)
C13 C 0.2382(4) 0.5719(3) 0.8035(2)
C14 C 0.4376(5) 0.5520(5) 0.8184(2)
C15 C 0.0437(4) 0.3092(3) 0.9740(2)
C16 C -0.1178(4) 0.2815(3) 0.9473(2)
C17 C -0.2262(4) 0.1717(3) 0.9927(2)
C18 C -0.1779(4) 0.0853(3) 1.0671(2)
C19 C -0.0273(4) 0.1105(3) 1.0969(2)
C20 C 0.0836(4) 0.2208(3) 1.0520(2)
H1 H 0.04740 0.69260 0.73730
H2 H 0.12360 0.42200 0.69700
H3 H 0.17520 0.45170 0.59940
H4 H -0.14600 0.46600 0.63300
H5 H -0.14820 0.57380 0.68990
H6 H -0.04640 0.64100 0.51480
H7 H -0.23360 0.70310 0.56410
H8 H -0.01580 0.87310 0.52390
H9 H -0.06460 0.82770 0.62150
H10 H 0.17280 0.89420 0.72410
H11 H 0.37810 0.81750 0.72060
H12 H 0.42620 0.86910 0.58340
H13 H 0.23180 0.96330 0.58730
H14 H 0.46570 0.94990 0.32300
H15 H 0.49950 0.78080 0.34650
H16 H 0.17190 0.93430 0.30010
H17 H 0.32440 0.85350 0.24270
H18 H 0.20640 0.76520 0.32320
H19 H 0.48640 0.45260 0.82150
H20 H 0.51310 0.61290 0.77380
H21 H 0.44030 0.57660 0.87040
H22 H -0.15300 0.34060 0.89660
H23 H -0.33410 0.15480 0.97310
H24 H 0.00220 0.05180 1.14890
H25 H 0.25680 0.42160 0.94110
H26 H 0.47460 0.52960 0.58770
#END
