
#######################################################################
#
#                 Cambridge Crystallographic Data Centre
#                                CCDC
#
#######################################################################
#
# If this CIF has been generated from an entry in the Cambridge
# Structural Database, then it will include bibliographic, chemical,
# crystal, experimental, refinement or atomic coordinate data resulting
# from the CCDC's data processing and validation procedures.
#
#######################################################################

data_CSD_CIF_UBUVOE
_audit_creation_date 2012-01-16
_audit_creation_method CSD-ConQuest-V1
_database_code_CSD UBUVOE
_database_code_depnum_ccdc_archive 'CCDC 855794'
_chemical_formula_sum 'C18 H29 N1 O1'
_chemical_formula_moiety
;
C18 H29 N1 O1
;
_journal_coden_Cambridge 1340
_journal_volume 12
_journal_year 1996
_journal_page_first 4760
_journal_name_full 'Langmuir '
loop_
_publ_author_name
"F.J.Hoogesteger"
"J.M.Kroon"
"L.W.Jenneskens"
"E.J.R.Sudholter"
"T.J.M.de Bruin"
"J.W.Zwikker"
"E.ten Grotenhuis"
"C.H.M.Maree"
"N.Veldman"
"A.L.Spek"
_chemical_name_systematic
;
N-Hydroxy-1,1':4',1''-ter(cyclohexan)-1(1')-en-4-imine
;
_cell_volume    761.935
_exptl_crystal_colour 'colorless'
_exptl_crystal_density_diffrn 1.2
_exptl_crystal_description 'needle'
_diffrn_ambient_temperature 150
_refine_special_details
;
O11 and O12 disordered over two sites with occupancies 0.682:0.318.

;
#These two values have been output from a single CSD field.
_refine_ls_R_factor_gt 0.0971
_refine_ls_wR_factor_gt 0.0971
_symmetry_cell_setting triclinic
_symmetry_space_group_name_H-M 'P -1'
_symmetry_Int_Tables_number 2
loop_
_symmetry_equiv_pos_site_id
_symmetry_equiv_pos_as_xyz
1 x,y,z
2 -x,-y,-z
_cell_length_a 4.5394(4)
_cell_length_b 6.1336(8)
_cell_length_c 29.137(4)
_cell_angle_alpha 90.541(10)
_cell_angle_beta 94.173(8)
_cell_angle_gamma 109.557(9)
_cell_formula_units_Z 2
loop_
_atom_type_symbol
_atom_type_radius_bond
C 0.68
H 0.23
N 0.68
O 0.68
loop_
_atom_site_label
_atom_site_type_symbol
_atom_site_fract_x
_atom_site_fract_y
_atom_site_fract_z
O1 O 0.9609(13) 1.2194(9) 0.4732(2)
H1 H 1.10720 1.23020 0.49650
N1 N 0.7503(11) 0.9851(8) 0.4623(2)
C1 C 0.5423(13) 0.9699(10) 0.4293(2)
C2 C 0.3176(14) 0.7390(9) 0.4131(2)
H2 H 0.1004(14) 0.7328(9) 0.4173(2)
H3 H 0.3605(14) 0.6165(9) 0.4316(2)
C3 C 0.3518(14) 0.6976(9) 0.3624(2)
H4 H 0.1870(14) 0.5518(9) 0.3510(2)
H5 H 0.5581(14) 0.6795(9) 0.3592(2)
C4 C 0.3251(12) 0.8971(9) 0.3329(2)
C5 C 0.5540(13) 1.1269(9) 0.3524(2)
H6 H 0.7706(13) 1.1304(9) 0.3487(2)
H7 H 0.5194(13) 1.2536(9) 0.3344(2)
C6 C 0.5223(14) 1.1701(10) 0.4026(2)
H8 H 0.6916(14) 1.3128(10) 0.4144(2)
H9 H 0.3184(14) 1.1916(10) 0.4062(2)
C7 C 0.1338(12) 0.8719(9) 0.2949(2)
C8 C -0.0924(12) 0.6443(8) 0.2753(2)
H10 H -0.3097(12) 0.6434(8) 0.2773(2)
H11 H -0.0660(12) 0.5173(8) 0.2941(2)
C9 C -0.0436(12) 0.6003(8) 0.2255(2)
H12 H -0.2056(12) 0.4537(8) 0.2138(2)
H13 H 0.1637(12) 0.5810(8) 0.2242(2)
C10 C -0.0594(12) 0.7944(8) 0.1939(2)
H14 H -0.2773(12) 0.7996(8) 0.1937(2)
C11 C 0.1611(12) 1.0263(8) 0.2149(2)
H15 H 0.1303(12) 1.1530(8) 0.1965(2)
H16 H 0.3807(12) 1.0326(8) 0.2130(2)
C12 C 0.1087(13) 1.0661(8) 0.2651(2)
H17 H 0.2662(13) 1.2138(8) 0.2773(2)
H18 H -0.1017(13) 1.0795(8) 0.2667(2)
C13 C -0.0038(12) 0.7533(8) 0.1441(2)
H19 H 0.2140(12) 0.7479(8) 0.1442(2)
C14 C -0.2257(12) 0.5209(9) 0.1234(2)
H20 H -0.1955(12) 0.3947(9) 0.1420(2)
H21 H -0.4449(12) 0.5156(9) 0.1253(2)
C15 C -0.1759(14) 0.4782(9) 0.0735(2)
H22 H 0.0322(14) 0.4605(9) 0.0721(2)
H23 H -0.3371(14) 0.3317(9) 0.0616(2)
C16 C -0.1941(13) 0.6731(9) 0.0431(2)
H24 H -0.4109(13) 0.6770(9) 0.0408(2)
H25 H -0.1403(13) 0.6453(9) 0.0118(2)
C17 C 0.0322(13) 0.9057(9) 0.0630(2)
H26 H 0.2507(13) 0.9091(9) 0.0612(2)
H27 H 0.0033(13) 1.0320(9) 0.0443(2)
C18 C -0.0207(13) 0.9462(8) 0.1126(2)
H28 H -0.2295(13) 0.9632(8) 0.1136(2)
H29 H 0.1386(13) 1.0935(8) 0.1245(2)
H30? H 0.88050 0.76960 0.50570
O2? O 0.7356(29) 0.7589(23) 0.4826(5)
#END
