
#######################################################################
#
#                 Cambridge Crystallographic Data Centre
#                                CCDC
#
#######################################################################
#
# If this CIF has been generated from an entry in the Cambridge
# Structural Database, then it will include bibliographic, chemical,
# crystal, experimental, refinement or atomic coordinate data resulting
# from the CCDC's data processing and validation procedures.
#
#######################################################################

data_CSD_CIF_UBUVIY
_audit_creation_date 2012-01-16
_audit_creation_method CSD-ConQuest-V1
_database_code_CSD UBUVIY
_database_code_depnum_ccdc_archive 'CCDC 855793'
_chemical_formula_sum 'C16 H27 N1 O1'
_chemical_formula_moiety
;
C16 H27 N1 O1
;
_journal_coden_Cambridge 1340
_journal_volume 12
_journal_year 1996
_journal_page_first 4760
_journal_name_full 'Langmuir '
loop_
_publ_author_name
"F.J.Hoogesteger"
"J.M.Kroon"
"L.W.Jenneskens"
"E.J.R.Sudholter"
"T.J.M.de Bruin"
"J.W.Zwikker"
"E.ten Grotenhuis"
"C.H.M.Maree"
"N.Veldman"
"A.L.Spek"
_chemical_name_systematic
;
4'-t-Butyl-N-hydroxy-1,1'-bi-(cyclohexylidene)-4-imine
;
_cell_volume    720.837
_exptl_crystal_colour 'colorless'
_exptl_crystal_density_diffrn 1.149
_exptl_crystal_description 'needle'
_diffrn_ambient_temperature 150
_refine_special_details
;
O11 and O12 disordered over two sites with occupancies 0.579:0.421.

;
#These two values have been output from a single CSD field.
_refine_ls_R_factor_gt 0.074
_refine_ls_wR_factor_gt 0.074
_symmetry_cell_setting triclinic
_symmetry_space_group_name_H-M 'P -1'
_symmetry_Int_Tables_number 2
loop_
_symmetry_equiv_pos_site_id
_symmetry_equiv_pos_as_xyz
1 x,y,z
2 -x,-y,-z
_cell_length_a 6.1950(9)
_cell_length_b 10.413(2)
_cell_length_c 12.499(2)
_cell_angle_alpha 110.96(2)
_cell_angle_beta 92.096(13)
_cell_angle_gamma 104.745(15)
_cell_formula_units_Z 2
loop_
_atom_type_symbol
_atom_type_radius_bond
C 0.68
H 0.23
N 0.68
O 0.68
loop_
_atom_site_label
_atom_site_type_symbol
_atom_site_fract_x
_atom_site_fract_y
_atom_site_fract_z
O1 O 0.7673(7) 0.8839(4) 0.5011(4)
H1 H 0.81810 0.96340 0.52290
N1 N 0.9550(5) 0.8367(3) 0.4501(3)
C1 C 0.9299(7) 0.7028(4) 0.4218(3)
C2 C 0.7237(7) 0.6038(4) 0.4387(3)
H2 H 0.6045(7) 0.6530(4) 0.4558(3)
H3 H 0.7599(7) 0.5802(4) 0.5060(3)
C3 C 0.6358(6) 0.4654(4) 0.3318(3)
H4 H 0.5121(6) 0.3979(4) 0.3496(3)
H5 H 0.5739(6) 0.4870(4) 0.2682(3)
C4 C 0.8213(6) 0.3954(4) 0.2931(3)
C5 C 1.0108(6) 0.4966(4) 0.2650(3)
H6 H 0.9538(6) 0.5183(4) 0.2003(3)
H7 H 1.1312(6) 0.4502(4) 0.2402(3)
C6 C 1.1082(6) 0.6370(4) 0.3714(3)
H8 H 1.1884(6) 0.6171(4) 0.4309(3)
H9 H 1.2191(6) 0.7061(4) 0.3485(3)
C7 C 0.8192(6) 0.2653(4) 0.2881(3)
C8 C 0.6308(6) 0.1653(4) 0.3185(3)
H10 H 0.5027(6) 0.2069(4) 0.3329(3)
H11 H 0.6842(6) 0.1573(4) 0.3909(3)
C9 C 0.5486(6) 0.0152(4) 0.2232(3)
H12 H 0.4317(6) -0.0469(4) 0.2494(3)
H13 H 0.4789(6) 0.0215(4) 0.1534(3)
C10 C 0.7408(6) -0.0528(4) 0.1921(3)
H14 H 0.8095(6) -0.0538(4) 0.2654(3)
C11 C 0.9226(6) 0.0488(4) 0.1558(3)
H15 H 1.0510(6) 0.0081(4) 0.1370(3)
H16 H 0.8595(6) 0.0569(4) 0.0854(3)
C12 C 1.0063(6) 0.1973(4) 0.2518(3)
H17 H 1.0810(6) 0.1897(4) 0.3198(3)
H18 H 1.1201(6) 0.2602(4) 0.2248(3)
C13 C 0.6669(6) -0.2107(4) 0.1043(3)
C14 C 0.5052(7) -0.3021(4) 0.1566(3)
H19 H 0.5725(18) -0.2833(19) 0.2348(8)
H20 H 0.4774(32) -0.4040(4) 0.1083(12)
H21 H 0.3624(15) -0.2775(18) 0.1601(19)
C15 C 0.8737(7) -0.2665(4) 0.0854(4)
H22 H 0.9608(23) -0.2424(23) 0.1605(4)
H23 H 0.9678(22) -0.2219(20) 0.0396(18)
H24 H 0.8249(7) -0.3710(5) 0.0440(19)
C16 C 0.5523(7) -0.2275(4) -0.0109(3)
H25 H 0.6573(15) -0.1720(21) -0.046(1)
H26 H 0.4191(24) -0.1924(24) 0.0010(4)
H27 H 0.5062(37) -0.3291(5) -0.0624(8)
H28? H 1.18190 1.03660 0.47710
O2? O 1.1714(11) 0.9188(7) 0.4294(6)
#END
