
#######################################################################
#
#                 Cambridge Crystallographic Data Centre
#                                CCDC
#
#######################################################################
#
# If this CIF has been generated from an entry in the Cambridge
# Structural Database, then it will include bibliographic, chemical,
# crystal, experimental, refinement or atomic coordinate data resulting
# from the CCDC's data processing and validation procedures.
#
#######################################################################

data_CSD_CIF_UBUWOG
_audit_creation_date 2016-12-19
_audit_creation_method CSD-ConQuest-V1
_database_code_CSD UBUWOG
_database_code_depnum_ccdc_archive 'CCDC 1498806'
_chemical_formula_sum 'C12 H11 N3 O1'
_chemical_formula_moiety
;
C12 H11 N3 O1
;
_journal_coden_Cambridge 222
_journal_volume 46
_journal_year 2017
_journal_page_first 709
_journal_name_full 'Dalton Trans. '
loop_
_publ_author_name
"C.Deville"
"V.McKee"
"C.J.McKenzie"
_chemical_name_systematic
;
N-hydroxy-1,2-bis(pyridin-2-yl)ethan-1-imine
;
_cell_volume   1064.655
_exptl_crystal_colour 'colorless'
_exptl_crystal_density_diffrn 1.33
_exptl_special_details
;
tetramer polymorph 1

;
_exptl_crystal_description 'prism'
_diffrn_ambient_temperature 150
#These two values have been output from a single CSD field.
_refine_ls_R_factor_gt 0.0337
_refine_ls_wR_factor_gt 0.0337
_symmetry_cell_setting triclinic
_symmetry_space_group_name_H-M 'P -1'
_symmetry_Int_Tables_number 2
loop_
_symmetry_equiv_pos_site_id
_symmetry_equiv_pos_as_xyz
1 x,y,z
2 -x,-y,-z
_cell_length_a 7.3692(7)
_cell_length_b 12.7821(12)
_cell_length_c 13.2426(13)
_cell_angle_alpha 61.872(4)
_cell_angle_beta 81.346(5)
_cell_angle_gamma 75.593(4)
_cell_formula_units_Z 4
loop_
_atom_type_symbol
_atom_type_radius_bond
C 0.68
H 0.23
N 0.68
O 0.68
loop_
_atom_site_label
_atom_site_type_symbol
_atom_site_fract_x
_atom_site_fract_y
_atom_site_fract_z
O1 O 0.79225(11) 0.84712(7) 0.38097(7)
H1 H 0.85720 0.88780 0.38940
N1 N 0.57869(15) 0.78615(9) 0.10615(9)
C1 C 0.7895(2) 0.92287(13) 0.03825(11)
H2 H 0.86760 0.96110 0.05520
N2 N 0.80178(13) 0.87169(8) 0.26628(8)
C2 C 0.7741(2) 0.94613(14) -0.07310(12)
H3 H 0.84270 0.99960 -0.13390
N3 N 0.63923(13) 0.57941(8) 0.52938(8)
C3 C 0.6577(2) 0.89075(12) -0.09476(11)
H4 H 0.64220 0.90640 -0.17090
C4 C 0.5639(2) 0.81203(13) -0.00362(12)
H5 H 0.48410 0.77370 -0.01920
C5 C 0.68926(16) 0.84256(10) 0.12588(10)
C6 C 0.69451(15) 0.81831(9) 0.24698(9)
C7 C 0.56884(15) 0.74147(10) 0.33782(9)
H6 H 0.46910 0.73510 0.29980
H7 H 0.50750 0.78300 0.38470
C8 C 0.66845(15) 0.6151(1) 0.41647(9)
C9 C 0.77982(16) 0.53757(11) 0.37446(10)
H8 H 0.79710 0.56360 0.29420
C10 C 0.86505(17) 0.42203(11) 0.45114(11)
H9 H 0.94280 0.36840 0.42400
C11 C 0.83577(16) 0.38562(10) 0.56751(11)
H10 H 0.89330 0.30720 0.62180
C12 C 0.72054(16) 0.46661(10) 0.60253(10)
H11 H 0.69760 0.44130 0.68240
O2 O 0.42802(11) 0.72368(7) 0.61637(6)
H12 H 0.49070 0.68320 0.58340
N4 N 0.18131(15) 0.69075(9) 0.96883(9)
N5 N 0.39473(13) 0.64599(8) 0.73111(8)
N6 N -0.01251(12) 1.00606(8) 0.63406(8)
C13 C 0.28145(16) 0.50275(10) 0.95732(10)
H13 H 0.33020 0.46170 0.91210
C14 C 0.23663(17) 0.43911(11) 1.07235(10)
H14 H 0.25490 0.35330 1.10770
C15 C 0.16463(18) 0.50211(12) 1.1356(1)
H15 H 0.13400 0.46050 1.21510
C16 C 0.1386(2) 0.62673(12) 1.08030(11)
H16 H 0.08750 0.66970 1.12370
C17 C 0.25355(15) 0.62882(10) 0.90889(9)
C18 C 0.30158(15) 0.70383(10) 0.78612(9)
C19 C 0.23744(15) 0.83963(10) 0.73400(9)
H17 H 0.33080 0.87760 0.67380
H18 H 0.23310 0.86580 0.79400
C20 C 0.04696(14) 0.88514(9) 0.68206(9)
C21 C -0.06041(15) 0.80977(10) 0.68242(9)
H19 H -0.01460 0.72460 0.71520
C22 C -0.23536(16) 0.85983(11) 0.63443(10)
H20 H -0.31060 0.80960 0.63390
C23 C -0.29824(15) 0.98449(10) 0.58733(9)
H21 H -0.41860 1.02140 0.55560
C24 C -0.18100(15) 1.05368(10) 0.58782(9)
H22 H -0.22230 1.13920 0.55360
#END
