
#######################################################################
#
#                 Cambridge Crystallographic Data Centre
#                                CCDC
#
#######################################################################
#
# If this CIF has been generated from an entry in the Cambridge
# Structural Database, then it will include bibliographic, chemical,
# crystal, experimental, refinement or atomic coordinate data resulting
# from the CCDC's data processing and validation procedures.
#
#######################################################################

data_CSD_CIF_UCAFIP
_audit_creation_date 2012-01-16
_audit_creation_method CSD-ConQuest-V1
_database_code_CSD UCAFIP
_database_code_depnum_ccdc_archive 'CCDC 855767'
_chemical_formula_sum 'C12 H21 N1 O1'
_chemical_formula_moiety
;
C12 H21 N1 O1
;
_journal_coden_Cambridge 229
_journal_volume 191
_journal_year 1998
_journal_page_first 834
_journal_name_full 'J.Cryst.Growth '
loop_
_publ_author_name
"E.ten Grotenhuis"
"A.W.Marsman"
"F.J.Hoogesteger"
"J.C.van Miltenburg"
"J.P.van der Eerden"
"L.W.Jenneskens"
"W.J.J.Smeets"
"A.L.Spek"
_chemical_name_systematic
;
N-Hydroxy-1,1'-bi(cyclohexyl)-4-imine
;
_cell_volume    564.887
_exptl_crystal_colour 'colorless'
_exptl_crystal_density_diffrn 1.148
_exptl_crystal_description 'plate'
_diffrn_ambient_temperature 150
_refine_special_details
;
O1 and O11 disordered over two sites with occupancies 0.607:0.393.

;
#These two values have been output from a single CSD field.
_refine_ls_R_factor_gt 0.0716
_refine_ls_wR_factor_gt 0.0716
_symmetry_cell_setting triclinic
_symmetry_space_group_name_H-M 'P -1'
_symmetry_Int_Tables_number 2
loop_
_symmetry_equiv_pos_site_id
_symmetry_equiv_pos_as_xyz
1 x,y,z
2 -x,-y,-z
_cell_length_a 5.416(2)
_cell_length_b 5.9418(9)
_cell_length_c 19.172(5)
_cell_angle_alpha 86.280(17)
_cell_angle_beta 81.93(2)
_cell_angle_gamma 67.64(2)
_cell_formula_units_Z 2
loop_
_atom_type_symbol
_atom_type_radius_bond
C 0.68
H 0.23
N 0.68
O 0.68
loop_
_atom_site_label
_atom_site_type_symbol
_atom_site_fract_x
_atom_site_fract_y
_atom_site_fract_z
C1 C -0.0271(5) 0.4017(4) 0.19611(11)
H1 H 0.12250 0.44670 0.17410
N1 N 0.3387(5) 0.4629(4) 0.44683(10)
C2 C -0.0494(6) 0.6372(4) 0.30497(12)
H2 H -0.21510 0.76210 0.29270
H3 H 0.09900 0.68010 0.28250
C3 C 0.1893(5) 0.4278(4) 0.40679(12)
C4 C -0.0512(6) 0.6323(4) 0.38520(12)
H4 H -0.05140 0.78530 0.40000
H5 H -0.21360 0.61330 0.40820
C5 C -0.2868(6) 0.5933(4) 0.17406(12)
H6 H -0.43900 0.56080 0.19880
H7 H -0.30220 0.75230 0.18820
C6 C 0.2397(6) 0.1841(4) 0.37863(12)
H8 H 0.10370 0.12550 0.40150
H9 H 0.41380 0.07010 0.38940
C7 C -0.0220(5) 0.3925(4) 0.27631(11)
H10 H -0.17610 0.35450 0.29860
C8 C -0.2998(7) 0.5985(5) 0.09534(13)
H11 H -0.16110 0.65040 0.07070
H12 H -0.47280 0.71620 0.08510
C9 C 0.0131(6) 0.1554(4) 0.16668(12)
H13 H 0.18690 0.03780 0.17640
H14 H -0.12390 0.10050 0.19090
O1 O 0.5675(6) 0.2435(5) 0.46245(14)
C10 C 0.2339(6) 0.1950(4) 0.29905(12)
H15 H 0.24750 0.03820 0.28350
H16 H 0.38940 0.22590 0.27590
C11 C -0.2616(6) 0.3504(5) 0.06839(13)
H17 H -0.41070 0.30520 0.08890
H18 H -0.25850 0.35780 0.01760
C12 C -0.0006(6) 0.1623(5) 0.08792(13)
H19 H 0.14870 0.19890 0.06310
H20 H 0.01700 0.00330 0.07310
H21 H 0.631(5) 0.293(5) 0.4957(12)
O2? O 0.2386(10) 0.7164(8) 0.4742(2)
#END
