
#######################################################################
#
#                 Cambridge Crystallographic Data Centre
#                                CCDC
#
#######################################################################
#
# If this CIF has been generated from an entry in the Cambridge
# Structural Database, then it will include bibliographic, chemical,
# crystal, experimental, refinement or atomic coordinate data resulting
# from the CCDC's data processing and validation procedures.
#
#######################################################################

data_CSD_CIF_UCAPUM
_audit_creation_date 2016-12-19
_audit_creation_method CSD-ConQuest-V1
_database_code_CSD UCAPUM
_database_code_depnum_ccdc_archive 'CCDC 1508492'
_chemical_formula_sum 'C17 H15 N3 O3'
_chemical_formula_moiety
;
C17 H15 N3 O3
;
_journal_coden_Cambridge 177
_journal_volume 15
_journal_year 2017
_journal_page_first 576
_journal_name_full 'Org.Biomol.Chem. '
loop_
_publ_author_name
"T.A.Reekie"
"S.M.Wilkinson"
"Vivian Law"
"D.E.Hibbs"
"J.A.Ong"
"M.Kassiou"
_chemical_name_systematic
;
N-(1-methyl-1H-indol-3-yl)-2-(4-nitrophenyl)acetamide
;
_cell_volume    728.697
_exptl_crystal_colour 'yellow'
_exptl_crystal_density_diffrn 1.41
_exptl_crystal_description 'needle'
_diffrn_ambient_temperature 150.2
#These two values have been output from a single CSD field.
_refine_ls_R_factor_gt 0.0395
_refine_ls_wR_factor_gt 0.0395
_symmetry_cell_setting monoclinic
_symmetry_space_group_name_H-M 'P c'
_symmetry_Int_Tables_number 7
loop_
_symmetry_equiv_pos_site_id
_symmetry_equiv_pos_as_xyz
1 x,y,z
2 x,-y,1/2+z
_cell_length_a 4.7845(14)
_cell_length_b 7.017(2)
_cell_length_c 21.720(6)
_cell_angle_alpha 90
_cell_angle_beta 92.133(4)
_cell_angle_gamma 90
_cell_formula_units_Z 2
loop_
_atom_type_symbol
_atom_type_radius_bond
C 0.68
H 0.23
N 0.68
O 0.68
loop_
_atom_site_label
_atom_site_type_symbol
_atom_site_fract_x
_atom_site_fract_y
_atom_site_fract_z
C1 C -0.1301(8) 1.4284(5) -0.22517(16)
H1 H -0.02780 1.31250 -0.22660
C2 C -0.3231(7) 1.4744(5) -0.18199(15)
C3 C -0.4306(7) 1.6571(5) -0.19719(15)
C4 C -0.6310(8) 1.7771(5) -0.17174(16)
H2 H -0.72830 1.73910 -0.13640
C5 C -0.6832(8) 1.9512(5) -0.19909(17)
H3 H -0.81890 2.03340 -0.18240
C6 C -0.5404(8) 2.0097(5) -0.25104(16)
H4 H -0.58140 2.13090 -0.26870
C7 C -0.3428(8) 1.8964(5) -0.27712(16)
H5 H -0.24550 1.93710 -0.31210
C8 C -0.2906(7) 1.7176(5) -0.24982(14)
C9 C -0.2253(8) 1.2664(5) -0.09377(15)
C10 C -0.3602(8) 1.1433(5) -0.04566(16)
H6 H -0.44920 1.22670 -0.01530
H7 H -0.50880 1.06470 -0.06590
C11 C -0.1516(7) 1.0135(5) -0.01221(14)
C12 C 0.0016(8) 1.0776(5) 0.03924(15)
H8 H -0.03010 1.20290 0.05400
C13 C 0.1979(8) 0.9649(5) 0.06939(15)
H9 H 0.30180 1.01020 0.10450
C14 C 0.2392(7) 0.7813(5) 0.04645(15)
C15 C 0.0905(8) 0.7109(5) -0.00420(16)
H10 H 0.12100 0.58530 -0.01880
C16 C -0.1055(8) 0.8302(5) -0.03306(16)
H11 H -0.21050 0.78480 -0.06800
C17 C 0.0719(8) 1.5785(5) -0.31818(16)
H12 H -0.03890 1.55020 -0.35590
H13 H 0.21860 1.48210 -0.31220
H14 H 0.15770 1.70470 -0.32170
N1 N -0.1097(6) 1.5764(4) -0.26559(12)
N2 N -0.4051(7) 1.3588(4) -0.13172(14)
N3 N 0.4507(7) 0.6597(5) 0.07765(14)
O1 O 0.0300(5) 1.2796(4) -0.09662(12)
O2 O 0.5948(6) 0.7286(4) 0.12020(12)
O3 O 0.4740(6) 0.4936(4) 0.06022(12)
H15 H -0.579(8) 1.343(5) -0.1283(15)
#END
