
#######################################################################
#
#                 Cambridge Crystallographic Data Centre
#                                CCDC
#
#######################################################################
#
# If this CIF has been generated from an entry in the Cambridge
# Structural Database, then it will include bibliographic, chemical,
# crystal, experimental, refinement or atomic coordinate data resulting
# from the CCDC's data processing and validation procedures.
#
#######################################################################

data_CSD_CIF_UCAXOO
_audit_creation_date 2016-12-19
_audit_creation_method CSD-ConQuest-V1
_database_code_CSD UCAXOO
_database_code_depnum_ccdc_archive 'CCDC 1485673'
_chemical_formula_sum 'C14 H9 N3 O7'
_chemical_formula_moiety
;
C14 H9 N3 O7
;
_journal_coden_Cambridge 154
_journal_volume 69
_journal_year 2016
_journal_page_first 1193
_journal_name_full 'Aust.J.Chem. '
loop_
_publ_author_name
"A.L.Albright"
"Lucy Collins"
"John Li"
"B.Harris"
"J.M.White"
_chemical_name_systematic
;
N-((3,5-dinitrobenzoyl)oxy)benzamide
;
_cell_volume   4166.730
_exptl_crystal_colour 'colorless'
_exptl_crystal_density_diffrn 1.584
_exptl_crystal_description 'rod'
_diffrn_ambient_temperature 105
#These two values have been output from a single CSD field.
_refine_ls_R_factor_gt 0.0398
_refine_ls_wR_factor_gt 0.0398
_symmetry_cell_setting monoclinic
_symmetry_space_group_name_H-M 'C c'
_symmetry_Int_Tables_number 9
loop_
_symmetry_equiv_pos_site_id
_symmetry_equiv_pos_as_xyz
1 x,y,z
2 x,-y,1/2+z
3 1/2+x,1/2+y,z
4 1/2+x,1/2-y,1/2+z
_cell_length_a 13.5295(4)
_cell_length_b 27.3074(7)
_cell_length_c 12.2084(3)
_cell_angle_alpha 90
_cell_angle_beta 112.513(3)
_cell_angle_gamma 90
_cell_formula_units_Z 12
loop_
_atom_type_symbol
_atom_type_radius_bond
C 0.68
H 0.23
N 0.68
O 0.68
loop_
_atom_site_label
_atom_site_type_symbol
_atom_site_fract_x
_atom_site_fract_y
_atom_site_fract_z
C1 C 0.30154(17) 0.25213(7) 0.50499(18)
C2 C 0.22726(18) 0.24987(8) 0.55806(19)
H1 H 0.19680 0.22000 0.56430
C3 C 0.1982(2) 0.29225(8) 0.6019(2)
H2 H 0.14820 0.29070 0.63700
C4 C 0.2442(2) 0.33683(8) 0.5931(2)
H3 H 0.22510 0.36510 0.62260
C5 C 0.3184(2) 0.33917(8) 0.5406(2)
H4 H 0.34910 0.36900 0.53490
C6 C 0.34720(18) 0.29707(8) 0.49649(19)
H5 H 0.39700 0.29880 0.46120
C7 C 0.33430(17) 0.20865(7) 0.45214(18)
C8 C 0.43209(17) 0.09848(7) 0.50082(18)
C9 C 0.44022(17) 0.05576(7) 0.42857(17)
C10 C 0.53181(17) 0.02654(7) 0.47369(18)
H6 H 0.58540 0.03310 0.54720
C11 C 0.54014(17) -0.01263(7) 0.40510(19)
C12 C 0.46380(18) -0.02343(7) 0.29502(18)
H7 H 0.47170 -0.04960 0.25030
C13 C 0.37458(17) 0.00669(7) 0.25418(17)
C14 C 0.36008(17) 0.04587(7) 0.31855(17)
H8 H 0.29860 0.06500 0.28910
N1 N 0.32734(17) 0.16528(7) 0.50111(17)
N2 N 0.63614(16) -0.04410(7) 0.45114(17)
N3 N 0.29207(15) -0.00242(6) 0.13561(16)
O1 O 0.36765(15) 0.21257(6) 0.37184(15)
O2 O 0.34039(13) 0.12388(5) 0.43954(14)
O3 O 0.49553(14) 0.10886(6) 0.59759(14)
O4 O 0.70552(14) -0.03351(7) 0.54721(15)
O5 O 0.63955(16) -0.07896(7) 0.38968(17)
O6 O 0.30702(15) -0.03586(7) 0.07672(15)
O7 O 0.21292(14) 0.02379(6) 0.10194(14)
H9 H 0.295(3) 0.1576(12) 0.543(3)
C15 C 0.52774(17) 0.11822(8) 1.23795(17)
C16 C 0.59195(18) 0.07881(8) 1.23363(19)
H10 H 0.56640 0.05610 1.17250
C17 C 0.69389(19) 0.07356(9) 1.3204(2)
H11 H 0.73670 0.04730 1.31760
C18 C 0.73175(19) 0.10757(9) 1.4114(2)
H12 H 0.80020 0.10420 1.46940
C19 C 0.66789(19) 0.14661(9) 1.4161(2)
H13 H 0.69360 0.16920 1.47740
C20 C 0.56592(18) 0.15208(8) 1.32968(19)
H14 H 0.52330 0.17830 1.33310
C21 C 0.42070(17) 0.12166(8) 1.13992(18)
C22 C 0.17555(16) 0.14034(8) 1.06559(18)
C23 C 0.08073(16) 0.14130(7) 0.95310(17)
C24 C 0.06886(16) 0.17639(8) 0.86575(18)
H15 H 0.11960 0.20090 0.87690
C25 C -0.02137(17) 0.17337(8) 0.76181(18)
C26 C -0.09836(17) 0.13735(8) 0.74023(18)
H16 H -0.15730 0.13580 0.66880
C27 C -0.08353(17) 0.10373(7) 0.82990(18)
C28 C 0.00411(17) 0.10479(8) 0.93605(18)
H17 H 0.01180 0.08170 0.99480
N4 N 0.35643(16) 0.15819(8) 1.14886(18)
N5 N -0.03507(16) 0.20914(7) 0.66733(17)
N6 N -0.16452(16) 0.06500(7) 0.80890(18)
O8 O 0.39279(14) 0.09397(6) 1.05384(14)
O9 O 0.26002(12) 0.16293(6) 1.05109(14)
O10 O 0.17981(13) 0.12238(6) 1.15682(13)
O11 O 0.02066(18) 0.24585(7) 0.69292(18)
O12 O -0.10191(18) 0.20028(8) 0.56860(16)
O13 O -0.23764(15) 0.06327(7) 0.71138(17)
O14 O -0.15326(17) 0.03693(7) 0.89053(18)
H18 H 0.359(2) 0.1745(10) 1.209(3)
C29 C 0.13677(17) 0.07073(7) 0.72134(18)
C30 C 0.04211(19) 0.06515(8) 0.62249(19)
H19 H 0.02680 0.08610 0.55810
C31 C -0.02946(19) 0.02834(8) 0.6199(2)
H20 H -0.09290 0.02480 0.55390
C32 C -0.0066(2) -0.00329(8) 0.7156(2)
H21 H -0.05420 -0.02820 0.71310
C33 C 0.08739(19) 0.00222(8) 0.8150(2)
H22 H 0.10230 -0.01880 0.87920
C34 C 0.15927(18) 0.03931(8) 0.81835(18)
H23 H 0.22210 0.04320 0.88500
C35 C 0.21332(18) 0.10917(7) 0.71523(18)
C36 C 0.44640(17) 0.22489(8) 0.80909(18)
C37 C 0.44144(17) 0.27445(8) 0.83249(18)
H24 H 0.39100 0.28630 0.86040
C38 C 0.51372(18) 0.30563(7) 0.81298(18)
C39 C 0.58706(18) 0.28993(8) 0.76705(18)
H25 H 0.63320 0.31160 0.75180
C40 C 0.58845(17) 0.24041(8) 0.74486(18)
C41 C 0.52137(17) 0.20679(8) 0.76630(18)
H26 H 0.52600 0.17350 0.75280
C42 C 0.36326(18) 0.19285(8) 0.82384(19)
N7 N 0.30589(16) 0.11207(7) 0.81197(18)
N8 N 0.51154(17) 0.35812(7) 0.83939(17)
N9 N 0.66284(16) 0.22228(7) 0.69243(18)
O15 O 0.19667(15) 0.13410(6) 0.62589(14)
O16 O 0.38314(13) 0.14480(6) 0.80539(15)
O17 O 0.28906(15) 0.20650(7) 0.84607(16)
O18 O 0.43391(16) 0.37355(7) 0.85650(18)
O19 O 0.58814(18) 0.38288(6) 0.84382(19)
O20 O 0.68966(15) 0.17947(7) 0.70813(17)
O21 O 0.69207(19) 0.25138(7) 0.6345(2)
H27 H 0.315(2) 0.1032(10) 0.881(3)
#END
