
#######################################################################
#
#                 Cambridge Crystallographic Data Centre
#                                CCDC
#
#######################################################################
#
# If this CIF has been generated from an entry in the Cambridge
# Structural Database, then it will include bibliographic, chemical,
# crystal, experimental, refinement or atomic coordinate data resulting
# from the CCDC's data processing and validation procedures.
#
#######################################################################

data_CSD_CIF_UCAXAZ
_audit_creation_date 2012-01-25
_audit_creation_method CSD-ConQuest-V1
_database_code_CSD UCAXAZ
_database_code_depnum_ccdc_archive 'CCDC 823509'
_chemical_formula_sum 'C22 H26 N2 O4'
_chemical_formula_moiety
;
C22 H26 N2 O4
;
_journal_coden_Cambridge 1336
_journal_volume 13
_journal_year 2011
_journal_page_first 5556
_journal_name_full 'Org.Lett. '
loop_
_publ_author_name
"Cheng Zhong"
"Yikai Wang"
"A.W.Hung"
"S.L.Schreiber"
"D.W.Young"
_chemical_name_systematic
;
4-Benzyl-8-methyl-7-nitro-6-phenyloctahydropyrido[2,1-c][1,4]oxazin-8-ol
;
_cell_volume   4073.812
_exptl_crystal_colour 'colorless'
_exptl_crystal_density_diffrn 1.247
_exptl_special_details
;
Absolute configuration

;
_diffrn_ambient_temperature 100
#These two values have been output from a single CSD field.
_refine_ls_R_factor_gt 0.0268
_refine_ls_wR_factor_gt 0.0268
_symmetry_cell_setting orthorhombic
_symmetry_space_group_name_H-M 'P 21 21 21'
_symmetry_Int_Tables_number 19
loop_
_symmetry_equiv_pos_site_id
_symmetry_equiv_pos_as_xyz
1 x,y,z
2 1/2+x,1/2-y,-z
3 -x,1/2+y,1/2-z
4 1/2-x,-y,1/2+z
_cell_length_a 10.3717(2)
_cell_length_b 16.0215(3)
_cell_length_c 24.5159(4)
_cell_angle_alpha 90
_cell_angle_beta 90
_cell_angle_gamma 90
_cell_formula_units_Z 8
loop_
_atom_type_symbol
_atom_type_radius_bond
C 0.68
H 0.23
N 0.68
O 0.68
loop_
_atom_site_label
_atom_site_type_symbol
_atom_site_fract_x
_atom_site_fract_y
_atom_site_fract_z
O1 O 0.85519(10) 0.74157(6) 0.34283(4)
O2 O 1.07244(9) 0.49089(6) 0.43991(4)
H1 H 1.0879(17) 0.4447(12) 0.4576(7)
O3 O 0.9413(1) 0.28576(6) 0.36774(4)
O4 O 0.9004(1) 0.34635(6) 0.44440(4)
N1 N 0.83243(10) 0.56665(6) 0.35499(4)
N2 N 0.92399(10) 0.34828(7) 0.39536(4)
C1 C 0.72100(13) 0.62218(8) 0.36501(5)
H2 H 0.64180 0.59250 0.35210
C2 C 0.73747(15) 0.69980(8) 0.32993(6)
H3 H 0.73770 0.68380 0.29090
H4 H 0.66400 0.73810 0.33610
C3 C 0.96233(14) 0.68798(8) 0.33346(6)
H5 H 1.04290 0.71820 0.34230
H6 H 0.96520 0.67280 0.29430
C4 C 0.95512(12) 0.60911(8) 0.36743(5)
H7 H 0.95830 0.62370 0.40710
C5 C 1.06925(12) 0.55434(8) 0.35297(5)
H8 H 1.15000 0.58430 0.36190
H9 H 1.06880 0.54360 0.31320
C6 C 1.06716(12) 0.47151(8) 0.38320(5)
C7 C 0.93669(12) 0.43143(7) 0.36775(5)
H10 H 0.93630 0.42180 0.32740
C8 C 0.81838(12) 0.48487(8) 0.38212(5)
H11 H 0.81370 0.49290 0.42250
C9 C 0.69881(13) 0.64728(9) 0.42547(5)
H12 H 0.71140 0.59770 0.44900
H13 H 0.76360 0.68960 0.43610
C10 C 0.56564(14) 0.68204(8) 0.43479(5)
C11 C 0.54490(15) 0.76765(9) 0.44129(6)
H14 H 0.61590 0.80500 0.43990
C12 C 0.42160(16) 0.79854(10) 0.44979(6)
H15 H 0.40860 0.85690 0.45370
C13 C 0.31737(15) 0.74475(10) 0.45258(6)
H16 H 0.23320 0.76610 0.45870
C14 C 0.33623(14) 0.65995(10) 0.44644(5)
H17 H 0.26520 0.62270 0.44860
C15 C 0.45952(14) 0.62933(9) 0.43704(5)
H18 H 0.47150 0.57100 0.43200
C16 C 1.17984(12) 0.41677(8) 0.36632(6)
H19 H 1.17930 0.36530 0.38800
H20 H 1.26080 0.44680 0.37260
H21 H 1.17210 0.40280 0.32750
C17 C 0.69868(12) 0.43964(8) 0.36241(5)
C18 C 0.67787(13) 0.42851(8) 0.30637(5)
H22 H 0.73490 0.45350 0.28080
C19 C 0.57493(13) 0.38141(8) 0.28798(6)
H23 H 0.56160 0.37450 0.24990
C20 C 0.49095(14) 0.34419(9) 0.32478(7)
H24 H 0.42090 0.31140 0.31200
C21 C 0.51019(13) 0.35527(9) 0.38004(6)
H25 H 0.45250 0.33040 0.40540
C22 C 0.61341(12) 0.40256(8) 0.39875(6)
H26 H 0.62580 0.40960 0.43690
O5 O 0.17682(9) 0.35600(6) 0.49936(4)
O6 O 0.34658(10) 0.61879(6) 0.59436(4)
H27 H 0.3546(18) 0.6627(12) 0.6167(8)
O7 O 0.50714(11) 0.55421(8) 0.73364(4)
O8 O 0.31729(11) 0.60633(6) 0.71881(4)
N3 N 0.25067(10) 0.41846(6) 0.60331(4)
N4 N 0.40602(12) 0.55927(7) 0.70752(5)
C23 C 0.12168(12) 0.38192(8) 0.59493(5)
H28 H 0.09910 0.35060 0.62890
C24 C 0.13167(13) 0.31823(8) 0.54894(5)
H29 H 0.19170 0.27320 0.55990
H30 H 0.04590 0.29290 0.54250
C25 C 0.30094(13) 0.39196(9) 0.50866(5)
H31 H 0.33270 0.41720 0.47430
H32 H 0.36210 0.34740 0.51940
C26 C 0.29756(12) 0.45814(8) 0.55284(5)
H33 H 0.23750 0.50400 0.54190
C27 C 0.43225(13) 0.49290(8) 0.56030(5)
H34 H 0.46010 0.52030 0.52610
H35 H 0.49260 0.44650 0.56790
C28 C 0.43828(13) 0.55585(8) 0.60685(5)
C29 C 0.39537(13) 0.50513(8) 0.65770(5)
H36 H 0.45530 0.45670 0.66210
C30 C 0.25728(13) 0.47128(8) 0.65240(5)
H37 H 0.19570 0.51890 0.64870
C31 C 0.01047(12) 0.44547(8) 0.58415(6)
H38 H 0.03220 0.49970 0.60120
H39 H 0.00120 0.45440 0.54440
C32 C -0.11509(12) 0.41402(8) 0.60714(5)
C33 C -0.19651(13) 0.36211(9) 0.57753(6)
H40 H -0.17680 0.34980 0.54050
C34 C -0.30640(14) 0.32779(9) 0.60117(6)
H41 H -0.36000 0.29150 0.58050
C35 C -0.33788(13) 0.34644(9) 0.65481(6)
H42 H -0.41220 0.32250 0.67120
C36 C -0.25994(14) 0.40025(9) 0.68427(6)
H43 H -0.28250 0.41460 0.72060
C37 C -0.14939(13) 0.43329(9) 0.66110(6)
H44 H -0.09610 0.46940 0.68200
C38 C 0.57334(13) 0.59115(9) 0.61276(6)
H45 H 0.63360 0.54590 0.62130
H46 H 0.57450 0.63240 0.64230
H47 H 0.59910 0.61800 0.57850
C39 C 0.22339(12) 0.42066(8) 0.70296(5)
C40 C 0.27247(13) 0.34060(8) 0.71011(5)
H48 H 0.32810 0.31720 0.68340
C41 C 0.24051(15) 0.29475(9) 0.75621(6)
H49 H 0.27390 0.24000 0.76070
C42 C 0.16036(15) 0.32825(10) 0.79559(6)
H50 H 0.13790 0.29640 0.82680
C43 C 0.11306(13) 0.40832(10) 0.78929(6)
H51 H 0.05930 0.43190 0.81660
C44 C 0.14403(13) 0.45430(9) 0.74317(5)
H52 H 0.11080 0.50920 0.73900
#END
