
#######################################################################
#
#                 Cambridge Crystallographic Data Centre
#                                CCDC
#
#######################################################################
#
# If this CIF has been generated from an entry in the Cambridge
# Structural Database, then it will include bibliographic, chemical,
# crystal, experimental, refinement or atomic coordinate data resulting
# from the CCDC's data processing and validation procedures.
#
#######################################################################

data_CSD_CIF_UCAXED
_audit_creation_date 2012-01-25
_audit_creation_method CSD-ConQuest-V1
_database_code_CSD UCAXED
_database_code_depnum_ccdc_archive 'CCDC 823510'
_chemical_formula_sum 'C16 H22 N2 O4'
_chemical_formula_moiety
;
C16 H22 N2 O4
;
_journal_coden_Cambridge 1336
_journal_volume 13
_journal_year 2011
_journal_page_first 5556
_journal_name_full 'Org.Lett. '
loop_
_publ_author_name
"Cheng Zhong"
"Yikai Wang"
"A.W.Hung"
"S.L.Schreiber"
"D.W.Young"
_chemical_name_systematic
;
4-Benzyl-8-methyl-7-nitro-octahydropyrido[2,1-c][1,4]oxazin-8-ol
;
_cell_volume    763.091
_exptl_crystal_colour 'colorless'
_exptl_crystal_density_diffrn 1.333
_exptl_special_details
;
Absolute configuration

;
_exptl_crystal_description 'needle'
_diffrn_ambient_temperature 100
#These two values have been output from a single CSD field.
_refine_ls_R_factor_gt 0.032
_refine_ls_wR_factor_gt 0.032
_symmetry_cell_setting monoclinic
_symmetry_space_group_name_H-M 'P 21'
_symmetry_Int_Tables_number 4
loop_
_symmetry_equiv_pos_site_id
_symmetry_equiv_pos_as_xyz
1 x,y,z
2 -x,1/2+y,-z
_cell_length_a 10.2144(8)
_cell_length_b 5.5884(4)
_cell_length_c 13.5096(11)
_cell_angle_alpha 90
_cell_angle_beta 98.294(4)
_cell_angle_gamma 90
_cell_formula_units_Z 2
loop_
_atom_type_symbol
_atom_type_radius_bond
C 0.68
H 0.23
N 0.68
O 0.68
loop_
_atom_site_label
_atom_site_type_symbol
_atom_site_fract_x
_atom_site_fract_y
_atom_site_fract_z
O1 O 0.10420(11) 0.6487(2) 0.92185(8)
O2 O -0.16312(11) 0.85235(19) 0.55127(8)
O3 O -0.32747(10) 0.3043(2) 0.45423(8)
O4 O -0.12818(10) 0.3993(2) 0.43298(7)
N1 N -0.01544(11) 0.4356(2) 0.74078(9)
N2 N -0.21598(11) 0.3703(2) 0.48608(9)
C1 C 0.43935(16) 0.5488(3) 0.86727(12)
H1 H 0.40240 0.69410 0.88700
C2 C 0.56387(17) 0.4768(4) 0.91338(13)
H2 H 0.61150 0.57410 0.96390
C3 C 0.61822(16) 0.2666(4) 0.88646(14)
H3 H 0.70300 0.21770 0.91830
C4 C 0.54856(16) 0.1262(3) 0.81245(13)
H4 H 0.58590 -0.01950 0.79350
C5 C 0.42420(16) 0.1971(3) 0.76568(12)
H5 H 0.37720 0.09920 0.71510
C6 C 0.36844(14) 0.4095(3) 0.79237(11)
C7 C 0.23257(14) 0.4873(3) 0.74304(11)
H6 H 0.22370 0.45170 0.67060
H7 H 0.22440 0.66260 0.75070
C8 C 0.11891(14) 0.3632(3) 0.78712(11)
H8 H 0.12730 0.18720 0.77610
C9 C 0.12603(16) 0.4035(3) 0.89951(11)
H9 H 0.05860 0.30320 0.92530
H10 H 0.21410 0.35360 0.93360
C10 C -0.02486(15) 0.7171(3) 0.87664(11)
H11 H -0.03980 0.88710 0.89240
H12 H -0.09110 0.62000 0.90550
C11 C -0.04533(14) 0.6846(3) 0.76360(11)
H13 H 0.01490 0.79470 0.73300
C12 C -0.18863(14) 0.7425(3) 0.72301(11)
H14 H -0.20480 0.91370 0.73560
H15 H -0.24680 0.64760 0.76070
C13 C -0.22788(14) 0.6925(3) 0.61072(11)
C14 C -0.18501(14) 0.4309(3) 0.59555(10)
H16 H -0.23760 0.32280 0.63380
C15 C -0.03859(13) 0.3919(3) 0.63257(10)
H17 H -0.01310 0.22600 0.61810
H18 H 0.01540 0.50310 0.59820
C16 C -0.37495(14) 0.7347(3) 0.58038(12)
H19 H -0.39730 0.89760 0.59900
H20 H -0.42500 0.61930 0.61460
H21 H -0.39750 0.71470 0.50790
H22 H -0.088(2) 0.823(5) 0.5625(17)
#END
