
#######################################################################
#
#                 Cambridge Crystallographic Data Centre
#                                CCDC
#
#######################################################################
#
# If this CIF has been generated from an entry in the Cambridge
# Structural Database, then it will include bibliographic, chemical,
# crystal, experimental, refinement or atomic coordinate data resulting
# from the CCDC's data processing and validation procedures.
#
#######################################################################

data_CSD_CIF_UCEFOX
_audit_creation_date 2002-01-16
_audit_creation_method CSD-ConQuest-V1
_database_code_CSD UCEFOX
_database_code_depnum_ccdc_archive 'CCDC 1277722'
_chemical_formula_sum 'C18 H17 N1 O4'
_chemical_formula_moiety
;
C18 H17 N1 O4
;
_journal_coden_Cambridge 542
_journal_volume 32
_journal_year 1997
_journal_page_first 1015
_journal_name_full 'Cryst.Res.Technol. '
loop_
_publ_author_name
"R.Sanmartin"
"R.Olivera"
"E.Dominguez"
"X.Solans"
"M.K.Urtiaga"
"M.Font-Bardia"
_chemical_name_systematic
;
4-Phenyl-5-(2,3,4-trimethoxyphenyl)isoxazole
;
_cell_volume   1614.549
_exptl_crystal_colour 'colorless'
_exptl_crystal_density_diffrn 1.281
_exptl_crystal_description 'prismatic'
_exptl_crystal_preparation 'methanol/water'
_diffrn_ambient_temperature 293
#These two values have been output from a single CSD field.
_refine_ls_R_factor_gt 0.0587
_refine_ls_wR_factor_gt 0.0587
_symmetry_cell_setting monoclinic
_symmetry_space_group_name_H-M 'P 21/c'
_symmetry_Int_Tables_number 14
loop_
_symmetry_equiv_pos_site_id
_symmetry_equiv_pos_as_xyz
1 x,y,z
2 -x,1/2+y,1/2-z
3 -x,-y,-z
4 x,-1/2-y,-1/2+z
_cell_length_a 9.933(2)
_cell_length_b 21.508(2)
_cell_length_c 8.183(2)
_cell_angle_alpha 90
_cell_angle_beta 112.55(2)
_cell_angle_gamma 90
_cell_formula_units_Z 4
loop_
_atom_type_symbol
_atom_type_radius_bond
C 0.68
N 0.68
O 0.68
loop_
_atom_site_label
_atom_site_type_symbol
_atom_site_fract_x
_atom_site_fract_y
_atom_site_fract_z
C1 C 0.0689(2) 0.3587(1) 0.3669(2)
C2 C -0.0687(2) 0.3563(1) 0.3702(3)
C3 C -0.0946(3) 0.3215(1) 0.4966(3)
C4 C 0.0181(3) 0.2906(1) 0.6219(3)
C5 C 0.1559(3) 0.2928(1) 0.6207(3)
C6 C 0.1844(2) 0.3267(1) 0.4917(2)
C7 C 0.3301(2) 0.3253(1) 0.4853(2)
C8 C 0.4354(2) 0.2771(1) 0.5523(3)
N1 N 0.5503(2) 0.2852(1) 0.5172(3)
O1 O 0.5266(2) 0.3418(1) 0.4226(2)
C9 C 0.3940(2) 0.3643(1) 0.4064(2)
C10 C 0.3502(2) 0.4239(1) 0.3137(2)
C11 C 0.3328(2) 0.4299(1) 0.1358(2)
C12 C 0.2828(2) 0.4852(1) 0.0469(2)
C13 C 0.2533(2) 0.5359(1) 0.1345(3)
C14 C 0.2739(2) 0.5305(1) 0.3123(3)
C15 C 0.3207(2) 0.4747(1) 0.3984(3)
O2 O 0.3588(2) 0.3794(1) 0.0510(2)
C16 C 0.4786(3) 0.3865(1) -0.0036(4)
O3 O 0.2637(2) 0.4913(1) -0.1284(2)
C17 C 0.1246(3) 0.4707(1) -0.2486(3)
O4 O 0.2046(2) 0.5872(1) 0.0338(2)
C18 C 0.1746(4) 0.6413(1) 0.1132(3)
#END
