
#######################################################################
#
#                 Cambridge Crystallographic Data Centre
#                                CCDC
#
#######################################################################
#
# If this CIF has been generated from an entry in the Cambridge
# Structural Database, then it will include bibliographic, chemical,
# crystal, experimental, refinement or atomic coordinate data resulting
# from the CCDC's data processing and validation procedures.
#
#######################################################################

data_CSD_CIF_UCEJIW
_audit_creation_date 2006-06-27
_audit_creation_method CSD-ConQuest-V1
_database_code_CSD UCEJIW
_database_code_depnum_ccdc_archive 'CCDC 295785'
_chemical_formula_sum 'C9 H17 N4 O1'
_chemical_formula_moiety
;
C9 H17 N4 O1
;
_journal_coden_Cambridge 603
_journal_volume 25
_journal_year 2006
_journal_page_first 127
_journal_name_full 'Jiegou Huaxue(Chin.)(Chin.J.Struct.Chem.) '
loop_
_publ_author_name
"Bao-Han Zhou"
"Yun-Feng Chen"
"Guo-Dong Yin"
"An-Xin Wu"
_chemical_name_systematic
;
4-Azido-2,2,6,6-tetramethylpiperidine-1-oxyl radical
;
_chemical_melting_point 345.15
_cell_volume    546.993
_exptl_crystal_colour 'red'
_exptl_crystal_density_diffrn 1.198
_exptl_special_details
;
Melting point range 345.15-346.15K
chair conformer

;
_exptl_crystal_description 'needle'
_diffrn_ambient_temperature 292
#These two values have been output from a single CSD field.
_refine_ls_R_factor_gt 0.0495
_refine_ls_wR_factor_gt 0.0495
_symmetry_cell_setting triclinic
_symmetry_space_group_name_H-M 'P -1'
_symmetry_Int_Tables_number 2
loop_
_symmetry_equiv_pos_site_id
_symmetry_equiv_pos_as_xyz
1 x,y,z
2 -x,-y,-z
_cell_length_a 5.8464(12)
_cell_length_b 8.2476(17)
_cell_length_c 11.954(2)
_cell_angle_alpha 101.973(4)
_cell_angle_beta 97.186(3)
_cell_angle_gamma 100.232(3)
_cell_formula_units_Z 2
loop_
_atom_type_symbol
_atom_type_radius_bond
C 0.68
H 0.23
N 0.68
O 0.68
loop_
_atom_site_label
_atom_site_type_symbol
_atom_site_fract_x
_atom_site_fract_y
_atom_site_fract_z
N1 N 0.4476(2) 0.84014(15) 0.29938(10)
C1 C 0.5846(3) 0.96376(17) 0.24457(13)
O1 O 0.3156(2) 0.89948(14) 0.3689(1)
N2 N 0.9531(2) 0.70375(16) 0.00166(12)
C2 C 0.7832(3) 0.72471(18) 0.16694(13)
H1 H 0.92140 0.77270 0.22790
C3 C 0.6669(3) 0.86471(19) 0.13967(13)
H2 H 0.53220 0.81590 0.07820
H3 H 0.77750 0.94240 0.11140
C4 C 0.6093(3) 0.60043(18) 0.20711(14)
H4 H 0.68390 0.50970 0.22300
H5 H 0.47620 0.55080 0.14500
C5 C 0.5190(3) 0.68006(18) 0.31545(13)
C6 C 0.7911(3) 1.0791(2) 0.33293(15)
H6 H 0.73770 1.11810 0.40450
H7 H 0.85340 1.17460 0.30350
H8 H 0.91210 1.01710 0.34630
C7 C 0.4185(3) 1.0708(2) 0.20358(16)
H9 H 0.27820 0.99770 0.15650
H10 H 0.49530 1.14120 0.15880
H11 H 0.37760 1.14080 0.26960
C8 C 0.2983(3) 0.5608(2) 0.32907(18)
H12 H 0.24270 0.60940 0.39800
H13 H 0.33520 0.45370 0.33500
H14 H 0.17800 0.54420 0.26280
C9 C 0.7055(3) 0.7180(3) 0.42434(15)
H15 H 0.84980 0.78210 0.41170
H16 H 0.73250 0.61340 0.44120
H17 H 0.65140 0.78210 0.48860
N3 N 1.0433(4) 0.7595(2) -0.06272(16)
N4 N 0.8538(3) 0.62415(18) 0.06297(14)
#END
