
#######################################################################
#
#                 Cambridge Crystallographic Data Centre
#                                CCDC
#
#######################################################################
#
# If this CIF has been generated from an entry in the Cambridge
# Structural Database, then it will include bibliographic, chemical,
# crystal, experimental, refinement or atomic coordinate data resulting
# from the CCDC's data processing and validation procedures.
#
#######################################################################

data_CSD_CIF_UCEWIJ
_audit_creation_date 2006-06-27
_audit_creation_method CSD-ConQuest-V1
_database_code_CSD UCEWIJ
_database_code_depnum_ccdc_archive 'CCDC 603463'
_chemical_formula_sum 'C24 H15 N1 O2'
_chemical_formula_moiety
;
C24 H15 N1 O2
;
_journal_coden_Cambridge 35
_journal_volume 71
_journal_year 2006
_journal_page_first 1055
_journal_name_full 'J.Org.Chem. '
loop_
_publ_author_name
"A.Natarajan"
"J.T.Mague"
"K.Venkatesan"
"T.Arai"
"V.Ramamurthy"
_chemical_name_systematic
;
cis-1-(2-(4-Nitrophenyl)vinyl)pyrene
;
_chemical_name_common
;
p-Nitrostyrylpyrene
;
_chemical_melting_point 414.15
_cell_volume   1712.754
_exptl_crystal_colour 'yellow'
_exptl_crystal_density_diffrn 1.355
_exptl_special_details
;
Melting point range 414.15-415.15K
undergoes photoisomerization to trans isomer
;
_exptl_crystal_description 'plate'
_diffrn_ambient_temperature 100
#These two values have been output from a single CSD field.
_refine_ls_R_factor_gt 0.0408
_refine_ls_wR_factor_gt 0.0408
_symmetry_cell_setting orthorhombic
_symmetry_space_group_name_H-M 'P n a 21'
_symmetry_Int_Tables_number 33
loop_
_symmetry_equiv_pos_site_id
_symmetry_equiv_pos_as_xyz
1 x,y,z
2 -x,-y,1/2+z
3 1/2+x,1/2-y,z
4 1/2-x,1/2+y,1/2+z
_cell_length_a 20.673(2)
_cell_length_b 10.939(1)
_cell_length_c 7.5738(8)
_cell_angle_alpha 90
_cell_angle_beta 90
_cell_angle_gamma 90
_cell_formula_units_Z 4
loop_
_atom_type_symbol
_atom_type_radius_bond
C 0.68
H 0.23
N 0.68
O 0.68
loop_
_atom_site_label
_atom_site_type_symbol
_atom_site_fract_x
_atom_site_fract_y
_atom_site_fract_z
O1 O 0.20465(6) 0.75513(11) 1.50113(18)
O2 O 0.22489(6) 0.94837(11) 1.52148(17)
N1 N 0.22639(7) 0.85081(14) 1.44144(19)
C1 C 0.25607(8) 0.84875(17) 1.2653(2)
C2 C 0.25564(8) 0.74104(16) 1.1699(2)
H1 H 0.23630 0.66930 1.21700
C3 C 0.28381(8) 0.73986(16) 1.0051(3)
H2 H 0.28340 0.66650 0.93790
C4 C 0.31291(8) 0.84432(16) 0.9349(2)
C5 C 0.31143(9) 0.95210(16) 1.0341(2)
H3 H 0.32990 1.02460 0.98680
C6 C 0.28345(8) 0.95477(16) 1.1997(2)
H4 H 0.28300 1.02800 1.26720
C7 C 0.34269(9) 0.84455(17) 0.7586(3)
H5 H 0.33810 0.91760 0.69200
C8 C 0.37551(8) 0.75388(16) 0.6810(3)
H6 H 0.38680 0.76550 0.56050
C9 C 0.39613(8) 0.63761(16) 0.7628(2)
C10 C 0.42265(8) 0.63787(18) 0.9321(2)
H7 H 0.42610 0.71310 0.99410
C11 C 0.44401(8) 0.53188(17) 1.0124(2)
H8 H 0.46060 0.53510 1.12930
C12 C 0.44152(8) 0.41972(17) 0.9235(2)
C13 C 0.41632(8) 0.41707(16) 0.7482(2)
C14 C 0.39289(8) 0.52643(16) 0.6687(2)
C15 C 0.36710(8) 0.51737(16) 0.4921(2)
H9 H 0.34970 0.58830 0.43770
C16 C 0.36707(9) 0.41102(16) 0.4021(2)
H10 H 0.35020 0.40940 0.28540
C17 C 0.39176(8) 0.30032(17) 0.4776(2)
C18 C 0.39315(9) 0.18993(17) 0.3862(3)
H11 H 0.37660 0.18640 0.26930
C19 C 0.41805(10) 0.08591(18) 0.4624(3)
H12 H 0.41900 0.01170 0.39720
C20 C 0.44179(9) 0.08848(17) 0.6339(3)
H13 H 0.45870 0.01590 0.68510
C21 C 0.44103(8) 0.19641(17) 0.7316(2)
C22 C 0.46436(8) 0.20312(18) 0.9111(3)
H14 H 0.48000 0.13110 0.96660
C23 C 0.46439(8) 0.30880(17) 1.0013(3)
H15 H 0.48000 0.30990 1.11930
C24 C 0.41607(8) 0.30467(16) 0.6530(2)
#END
