
#######################################################################
#
#                 Cambridge Crystallographic Data Centre
#                                CCDC
#
#######################################################################
#
# If this CIF has been generated from an entry in the Cambridge
# Structural Database, then it will include bibliographic, chemical,
# crystal, experimental, refinement or atomic coordinate data resulting
# from the CCDC's data processing and validation procedures.
#
#######################################################################

data_CSD_CIF_UCINEC
_audit_creation_date 2016-12-20
_audit_creation_method CSD-ConQuest-V1
_database_code_CSD UCINEC
_database_code_depnum_ccdc_archive 'CCDC 1486043'
_chemical_formula_sum 'C25 H42 N2 O2'
_chemical_formula_moiety
;
C25 H42 N2 O2
;
_journal_coden_Cambridge 1102
_journal_volume 191
_journal_year 2016
_journal_page_first 1679
_journal_name_full 'Phosphorus,Sulfur,Silicon,Relat.Elem. '
loop_
_publ_author_name
"I.V.Galkina"
"E.R.Kiyamova"
"A.Z.Gaynullin"
"D.I.Bakhtiyarov"
"M.P.Shulaeva"
"O.K.Pozdeev"
"S.N.Egorova"
"K.A.Ivshin"
"O.N.Kataeva"
"Y.V.Bakhtiyarova"
"A.R.Garifzanov"
"V.I.Galkin"
_chemical_name_systematic
;
1-(4-nitrophenyl)-N-octadecylmethanimine
;
_cell_volume   2377.202
_exptl_crystal_colour 'colorless'
_exptl_crystal_density_diffrn 1.125
_exptl_crystal_description 'plate'
_diffrn_ambient_temperature 150
#These two values have been output from a single CSD field.
_refine_ls_R_factor_gt 0.0693
_refine_ls_wR_factor_gt 0.0693
_symmetry_cell_setting monoclinic
_symmetry_space_group_name_H-M 'P 21'
_symmetry_Int_Tables_number 4
loop_
_symmetry_equiv_pos_site_id
_symmetry_equiv_pos_as_xyz
1 x,y,z
2 -x,1/2+y,-z
_cell_length_a 4.6112(6)
_cell_length_b 80.735(11)
_cell_length_c 6.5786(8)
_cell_angle_alpha 90
_cell_angle_beta 103.919(6)
_cell_angle_gamma 90
_cell_formula_units_Z 4
loop_
_atom_type_symbol
_atom_type_radius_bond
C 0.68
H 0.23
N 0.68
O 0.68
loop_
_atom_site_label
_atom_site_type_symbol
_atom_site_fract_x
_atom_site_fract_y
_atom_site_fract_z
O1 O 0.6304(18) 0.52934(10) 2.4325(11)
O2 O 0.872(2) 0.50777(10) 2.3843(13)
N1 N 0.790(2) 0.52204(12) 2.3406(13)
C1 C 0.888(2) 0.53038(12) 2.1714(14)
C2 C 0.828(2) 0.54692(12) 2.1385(14)
H1 H 0.72290 0.55280 2.22350
C3 C 0.922(2) 0.55494(12) 1.9819(14)
H2 H 0.87770 0.56640 1.95580
C4 C 1.083(2) 0.54624(11) 1.8604(12)
C5 C 1.139(2) 0.52944(11) 1.8958(14)
H3 H 1.24560 0.52350 1.81240
C6 C 1.040(2) 0.52128(12) 2.0511(14)
H4 H 1.07590 0.50980 2.07500
C7 C 1.198(2) 0.55495(12) 1.7019(13)
H5 H 1.28530 0.54860 1.61050
N2 N 1.1889(19) 0.57048(10) 1.6799(12)
C8 C 1.316(2) 0.57765(11) 1.5150(14)
H6 H 1.38150 0.56860 1.43460
H7 H 1.49330 0.58440 1.58010
C9 C 1.092(2) 0.58833(10) 1.3686(14)
H8 H 1.01750 0.59690 1.45100
H9 H 0.91920 0.58140 1.29860
C10 C 1.220(2) 0.59673(11) 1.2026(14)
H10 H 1.38380 0.60420 1.27210
H11 H 1.30660 0.58820 1.12630
C11 C 0.989(2) 0.60650(11) 1.0481(14)
H12 H 0.89260 0.61440 1.12610
H13 H 0.83260 0.59880 0.97250
C12 C 1.114(2) 0.61597(11) 0.8894(14)
H14 H 1.26210 0.62410 0.96550
H15 H 1.22090 0.60810 0.81840
C13 C 1.011(2) 0.63523(10) 0.5684(13)
H16 H 1.15370 0.64350 0.64670
H17 H 1.12380 0.62770 0.49650
C14 C 0.7763(19) 0.64411(10) 0.4056(13)
H18 H 0.66520 0.65170 0.47750
H19 H 0.63260 0.63580 0.32850
C15 C 0.9004(19) 0.65394(10) 0.2497(14)
H20 H 1.01240 0.64630 0.17870
H21 H 1.04390 0.66220 0.32720
C16 C 0.6652(19) 0.66296(10) 0.0834(13)
H22 H 0.55340 0.67060 0.15400
H23 H 0.52150 0.65470 0.00560
C17 C 0.794(2) 0.67278(11) -0.0725(14)
H24 H 0.90330 0.66510 -0.14520
H25 H 0.93900 0.68100 0.00470
C18 C 0.5534(19) 0.68185(10) -0.2359(13)
H26 H 0.40960 0.67360 -0.31440
H27 H 0.44270 0.68940 -0.16330
C19 C 0.684(2) 0.69176(11) -0.3897(14)
H28 H 0.79440 0.68420 -0.46200
H29 H 0.82850 0.69990 -0.31070
C20 C 0.4447(19) 0.70106(10) -0.5555(13)
H30 H 0.29740 0.69290 -0.63200
H31 H 0.33750 0.70890 -0.48320
C21 C 0.5735(19) 0.71066(10) -0.7125(13)
H32 H 0.67630 0.70290 -0.78790
H33 H 0.72390 0.71860 -0.63630
C22 C 0.333(2) 0.72007(10) -0.8720(13)
H34 H 0.23650 0.72820 -0.79720
H35 H 0.17760 0.71220 -0.94360
C23 C 0.461(2) 0.72910(11) -1.0362(16)
H36 H 0.61130 0.73730 -0.96500
H37 H 0.56270 0.72100 -1.10790
C24 C 0.219(2) 0.73802(12) -1.1991(14)
H38 H 0.31080 0.74360 -1.30050
H39 H 0.07180 0.73000 -1.27220
H40 H 0.12040 0.74620 -1.12930
C25 C 0.885(2) 0.6252(1) 0.7234(14)
H41 H 0.77270 0.63280 0.79460
H42 H 0.74100 0.61710 0.64400
O3 O 0.4721(18) 0.49360(9) 1.9529(12)
O4 O 0.4369(17) 0.47074(9) 2.1131(11)
N3 N 0.5190(17) 0.47885(11) 1.9785(12)
C26 C 0.6887(18) 0.47026(11) 1.8468(13)
C27 C 0.736(2) 0.45345(11) 1.8734(13)
H43 H 0.66690 0.44750 1.97740
C28 C 0.886(2) 0.44557(11) 1.7451(13)
H44 H 0.92770 0.43410 1.76410
C29 C 0.9763(18) 0.45401(10) 1.5885(12)
C30 C 0.9273(18) 0.47074(11) 1.5659(13)
H45 H 0.99670 0.47660 1.46200
C31 C 0.7778(18) 0.47905(12) 1.6929(13)
H46 H 0.73730 0.49060 1.67470
C32 C 1.135(2) 0.44547(12) 1.4492(14)
H47 H 1.20900 0.45180 1.35110
N4 N 1.1761(17) 0.43001(10) 1.4553(11)
C33 C 1.326(2) 0.42309(12) 1.3052(14)
H48 H 1.50100 0.41650 1.37890
H49 H 1.39700 0.43210 1.22770
C34 C 1.106(2) 0.41192(11) 1.1509(13)
H50 H 1.03010 0.40320 1.23120
H51 H 0.93330 0.41870 1.07730
C35 C 1.245(2) 0.40361(11) 0.9888(15)
H52 H 1.40600 0.39610 1.06140
H53 H 1.33610 0.41220 0.91660
C36 C 1.018(2) 0.39374(11) 0.8256(14)
H54 H 0.91770 0.38570 0.89940
H55 H 0.86350 0.40150 0.74830
C37 C 1.148(2) 0.38450(11) 0.6700(13)
H56 H 1.30060 0.37660 0.74650
H57 H 1.25070 0.39250 0.59680
C38 C 0.918(2) 0.3750(1) 0.5081(14)
H58 H 0.81270 0.36720 0.58210
H59 H 0.76820 0.38290 0.43040
C39 C 1.044(2) 0.36527(10) 0.3516(14)
H60 H 1.18860 0.35700 0.42820
H61 H 1.15300 0.37300 0.27940
C40 C 0.804(2) 0.35620(11) 0.1867(15)
H62 H 0.69320 0.34860 0.25870
H63 H 0.66000 0.36440 0.10890
C41 C 0.932(2) 0.34632(11) 0.0312(15)
H64 H 1.07600 0.33810 0.10960
H65 H 1.04440 0.35400 -0.03950
C42 C 0.701(2) 0.33729(11) -0.1342(14)
H66 H 0.58950 0.32960 -0.06320
H67 H 0.55620 0.34550 -0.21160
C43 C 0.825(2) 0.32754(11) -0.2900(14)
H68 H 0.97090 0.31940 -0.21300
H69 H 0.93370 0.33520 -0.36290
C44 C 0.589(2) 0.31843(11) -0.4527(14)
H70 H 0.44160 0.32660 -0.52880
H71 H 0.48160 0.31070 -0.38000
C45 C 0.716(2) 0.30873(10) -0.6116(13)
H72 H 0.86770 0.30080 -0.53530
H73 H 0.81700 0.31650 -0.68780
C46 C 0.480(2) 0.29924(11) -0.7689(14)
H74 H 0.37810 0.29150 -0.69250
H75 H 0.32920 0.30720 -0.84570
C47 C 0.605(2) 0.28941(11) -0.9272(14)
H76 H 0.71130 0.29710 -1.00120
H77 H 0.75350 0.28140 -0.85030
C48 C 0.371(2) 0.28011(11) -1.0886(14)
H78 H 0.27280 0.27190 -1.01510
H79 H 0.21570 0.28810 -1.15960
C49 C 0.492(2) 0.27119(11) -1.2528(13)
H80 H 0.64350 0.26310 -1.18270
H81 H 0.59170 0.27930 -1.32550
C50 C 0.252(2) 0.26225(12) -1.4138(15)
H82 H 0.34290 0.25670 -1.51570
H83 H 0.15460 0.25400 -1.34340
H84 H 0.10270 0.27030 -1.48630
#END
