
#######################################################################
#
#                 Cambridge Crystallographic Data Centre
#                                CCDC
#
#######################################################################
#
# If this CIF has been generated from an entry in the Cambridge
# Structural Database, then it will include bibliographic, chemical,
# crystal, experimental, refinement or atomic coordinate data resulting
# from the CCDC's data processing and validation procedures.
#
#######################################################################

data_CSD_CIF_UCIPON
_audit_creation_date 2012-01-25
_audit_creation_method CSD-ConQuest-V1
_database_code_CSD UCIPON
_database_code_depnum_ccdc_archive 'CCDC 856578'
_chemical_formula_sum 'C14 H8 N4 O1'
_chemical_formula_moiety
;
C14 H8 N4 O1
;
_journal_coden_Cambridge 35
_journal_volume 76
_journal_year 2011
_journal_page_first 8421
_journal_name_full 'J.Org.Chem. '
loop_
_publ_author_name
"M.J.Haddadin"
"M.El-Khatib"
"T.A.Shoker"
"C.M.Beavers"
"M.M.Olmstead"
"J.C.Fettinger"
"K.M.Farber"
"M.J.Kurth"
_chemical_name_systematic
;
quinoxalino[2,3-c]cinnoline-5-N-oxide
;
_cell_volume   1076.817
_exptl_crystal_colour 'orange'
_exptl_crystal_density_diffrn 1.531
_exptl_crystal_description 'block'
_diffrn_ambient_temperature 90
#These two values have been output from a single CSD field.
_refine_ls_R_factor_gt 0.043
_refine_ls_wR_factor_gt 0.043
_symmetry_cell_setting triclinic
_symmetry_space_group_name_H-M 'P -1'
_symmetry_Int_Tables_number 2
loop_
_symmetry_equiv_pos_site_id
_symmetry_equiv_pos_as_xyz
1 x,y,z
2 -x,-y,-z
_cell_length_a 7.1044(3)
_cell_length_b 11.6958(5)
_cell_length_c 13.3132(5)
_cell_angle_alpha 84.733(4)
_cell_angle_beta 83.587(4)
_cell_angle_gamma 79.155(3)
_cell_formula_units_Z 4
loop_
_atom_type_symbol
_atom_type_radius_bond
C 0.68
H 0.23
N 0.68
O 0.68
loop_
_atom_site_label
_atom_site_type_symbol
_atom_site_fract_x
_atom_site_fract_y
_atom_site_fract_z
O1 O 0.94979(12) 0.11938(7) -0.29811(6)
N1 N 0.89029(12) 0.09093(7) -0.20826(6)
N2 N 0.86455(12) -0.01639(7) -0.18593(6)
N3 N 0.77318(11) -0.15765(7) -0.07160(6)
N4 N 0.70739(11) -0.00262(7) 0.08734(6)
C1 C 0.85368(13) 0.17957(8) -0.13659(7)
C2 C 0.87675(14) 0.29360(9) -0.17068(7)
H1 H 0.91640 0.31290 -0.23970
C3 C 0.83971(14) 0.37725(9) -0.10028(8)
H2 H 0.85320 0.45530 -0.12160
C4 C 0.78285(14) 0.34904(9) 0.00161(8)
H3 H 0.76040 0.40760 0.04870
C5 C 0.75902(13) 0.23634(8) 0.03431(7)
H4 H 0.71980 0.21770 0.10350
C6 C 0.79300(12) 0.14958(8) -0.03525(7)
C7 C 0.76474(13) 0.03073(8) -0.00767(7)
C8 C 0.68112(13) -0.11527(8) 0.10454(7)
C9 C 0.61915(14) -0.15637(9) 0.20455(7)
H5 H 0.60130 -0.10630 0.25850
C10 C 0.58521(14) -0.26893(9) 0.22283(8)
H6 H 0.54220 -0.29590 0.28940
C11 C 0.61411(14) -0.34521(9) 0.14273(8)
H7 H 0.58960 -0.42250 0.15660
C12 C 0.67666(14) -0.30893(8) 0.04618(8)
H8 H 0.69640 -0.36100 -0.00630
C13 C 0.71214(13) -0.19264(8) 0.02452(7)
C14 C 0.79933(13) -0.04728(8) -0.08674(7)
O2 O 0.45109(12) 0.34636(7) 0.20014(5)
N5 N 0.39437(12) 0.36780(7) 0.29068(6)
N6 N 0.37802(12) 0.47498(7) 0.31552(6)
N7 N 0.29797(12) 0.61038(7) 0.43303(6)
N8 N 0.19052(11) 0.43886(7) 0.58428(6)
C15 C 0.35076(13) 0.27235(8) 0.36034(7)
C16 C 0.37451(14) 0.16080(9) 0.32484(8)
H9 H 0.42010 0.14730 0.25630
C17 C 0.32922(15) 0.07091(9) 0.39311(8)
H10 H 0.34370 -0.00550 0.37090
C18 C 0.26249(15) 0.09066(9) 0.49429(8)
H11 H 0.23350 0.02750 0.53990
C19 C 0.23845(14) 0.20115(8) 0.52833(7)
H12 H 0.19240 0.21400 0.59690
C20 C 0.28259(13) 0.29454(8) 0.46094(7)
C21 C 0.25838(13) 0.41280(8) 0.49037(7)
C22 C 0.17528(13) 0.55229(8) 0.60468(7)
C23 C 0.10234(14) 0.58611(9) 0.70340(7)
H13 H 0.06860 0.52940 0.75460
C24 C 0.08057(14) 0.70122(9) 0.72482(8)
H14 H 0.02980 0.72390 0.79060
C25 C 0.13373(15) 0.78622(9) 0.64905(8)
H15 H 0.11810 0.86520 0.66490
C26 C 0.20708(15) 0.75622(9) 0.55355(8)
H16 H 0.24330 0.81400 0.50400
C27 C 0.22897(13) 0.63825(8) 0.52862(7)
C28 C 0.31078(13) 0.49922(8) 0.41469(7)
#END
