
#######################################################################
#
#                 Cambridge Crystallographic Data Centre
#                                CCDC
#
#######################################################################
#
# If this CIF has been generated from an entry in the Cambridge
# Structural Database, then it will include bibliographic, chemical,
# crystal, experimental, refinement or atomic coordinate data resulting
# from the CCDC's data processing and validation procedures.
#
#######################################################################

data_CSD_CIF_UCIRAA
_audit_creation_date 2006-06-27
_audit_creation_method CSD-ConQuest-V1
_database_code_CSD UCIRAA
_database_code_depnum_ccdc_archive 'CCDC 285467'
_chemical_formula_sum 'C23 H25 N5 O7'
_chemical_formula_moiety
;
C23 H25 N5 O7
;
_journal_coden_Cambridge 16
_journal_volume 62
_journal_year 2006
_journal_page_first 4188
_journal_name_full 'Tetrahedron '
loop_
_publ_author_name
"Aihua Zhou"
"Liwei Cao"
"Haiqing Li"
"Zhuqing Liu"
"Hosouk Cho"
"W.P.Henry"
"C.U.Pittman Junior"
_chemical_name_systematic
;
3,3,4,10,10-Pentamethyl-6,8-bis(4-nitrophenyl)-1-oxa-4,6,8-triazaspiro(4.5)dec
ane-7,9-dione
;
_chemical_melting_point 468.15
_cell_volume   2366.443
_exptl_crystal_colour 'yellow'
_exptl_crystal_density_diffrn 1.357
_exptl_special_details
;
Melting point range 468.15-470.15K

;
_exptl_crystal_description 'irregular'
_diffrn_ambient_temperature 297
#These two values have been output from a single CSD field.
_refine_ls_R_factor_gt 0.0609
_refine_ls_wR_factor_gt 0.0609
_symmetry_cell_setting triclinic
_symmetry_space_group_name_H-M 'P -1'
_symmetry_Int_Tables_number 2
loop_
_symmetry_equiv_pos_site_id
_symmetry_equiv_pos_as_xyz
1 x,y,z
2 -x,-y,-z
_cell_length_a 11.648(3)
_cell_length_b 14.817(4)
_cell_length_c 15.191(4)
_cell_angle_alpha 101.002(5)
_cell_angle_beta 112.573(4)
_cell_angle_gamma 90.562(5)
_cell_formula_units_Z 4
loop_
_atom_type_symbol
_atom_type_radius_bond
C 0.68
H 0.23
N 0.68
O 0.68
loop_
_atom_site_label
_atom_site_type_symbol
_atom_site_fract_x
_atom_site_fract_y
_atom_site_fract_z
O1 O 0.3439(3) 0.2043(2) 0.4883(2)
O2 O 0.2275(3) 0.5535(2) 0.0971(2)
N1 N 0.3579(4) 0.6445(3) 0.0558(3)
O3 O 0.2525(3) 0.3326(2) 0.2193(2)
N2 N 0.2745(4) 0.2664(3) 0.3465(3)
N3 N 0.2703(4) 0.7432(3) -0.0527(3)
N4 N 0.2604(4) 0.1769(3) 0.1964(3)
O4 O 0.4719(3) 0.7122(2) -0.0115(2)
C1 C 0.2402(5) 0.6388(3) 0.0743(4)
N5 N 0.1551(4) 0.1465(3) 0.3767(3)
O5 O 0.2874(5) 0.0256(3) 0.1796(3)
O6 O 0.0664(4) 0.7634(3) -0.1090(3)
C2 C 0.2746(5) 0.3566(3) 0.4047(4)
C3 C 0.3750(6) 0.6994(3) -0.0016(4)
C4 C 0.1306(5) 0.6412(3) -0.0219(4)
C5 C 0.1499(6) 0.7213(4) -0.0639(4)
C6 C 0.2942(4) 0.8153(4) -0.0972(4)
C7 C 0.2198(6) 0.1698(3) 0.0922(4)
C8 C 0.4693(5) 0.6111(3) 0.1175(4)
C9 C 0.6816(5) 0.5460(4) 0.2326(4)
N6 N 0.7982(5) 0.5140(4) 0.2951(4)
C10 C 0.2740(5) 0.1809(3) 0.3879(4)
N7 N 0.2427(4) 0.7049(3) 0.1565(3)
C11 C 0.2847(5) 0.7950(4) -0.1921(4)
O7 O 0.8027(4) 0.4317(3) 0.2890(3)
C12 C 0.1423(6) 0.1542(4) -0.1024(4)
C13 C 0.4764(6) 0.5155(4) 0.1123(4)
N8 N 0.3706(5) 1.0257(4) -0.2215(5)
N9 N 0.0990(6) 0.1457(4) -0.2086(4)
C14 C 0.2597(5) 0.2649(4) 0.2539(4)
C15 C 0.3417(5) 0.9526(4) -0.1781(5)
C16 C 0.5693(5) 0.6714(4) 0.1789(4)
C17 C 0.6794(6) 0.6407(4) 0.2378(4)
C18 C 0.3227(6) 0.9049(4) -0.0440(5)
C19 C 0.5833(6) 0.4849(5) 0.1736(5)
C20 C 0.2889(6) 0.2144(4) 0.0563(5)
C21 C 0.3092(5) 0.8648(4) -0.2337(5)
C22 C 0.2821(8) 0.5259(4) 0.5121(5)
O8 O 0.3431(5) 1.0106(3) -0.3083(4)
O9 O 0.3860(6) 0.6476(3) 0.6441(5)
N10 N 0.2923(8) 0.6227(4) 0.5688(5)
C23 C 0.3818(6) 0.3921(4) 0.4831(4)
C24 C 0.1692(7) 0.4032(4) 0.3795(5)
C25 C 0.3845(7) 0.4797(4) 0.5387(5)
C26 C 0.3466(6) 0.1118(3) 0.3430(4)
C27 C 0.2492(6) 0.2072(4) -0.0432(5)
C28 C 0.3495(6) 0.9733(4) -0.0854(5)
C29 C 0.2494(5) 0.6648(4) 0.2392(4)
C30 C 0.2942(6) 0.0991(4) 0.2338(5)
O10 O 0.0027(5) 0.1011(3) -0.2609(3)
C31 C 0.3396(10) 0.0188(5) 0.3709(7)
O11 O 0.4241(5) 1.0982(3) -0.1657(4)
C32 C 0.0080(6) 0.6454(5) -0.0087(6)
C33 C 0.0695(7) 0.1092(4) -0.0686(5)
C34 C 0.2452(10) 0.5628(6) 0.1957(5)
C35 C 0.2674(9) 0.8023(5) 0.1667(7)
C36 C 0.1230(5) 0.5536(4) -0.0989(4)
H1 H 0.06030 0.55790 -0.16100
H2 H 0.10170 0.50010 -0.07940
H3 H 0.20240 0.54860 -0.10410
C37 C 0.1091(6) 0.1177(4) 0.0307(4)
O12 O 0.8837(5) 0.5700(3) 0.3446(4)
C38 C 0.1379(7) 0.1608(5) 0.4689(4)
C39 C 0.1756(8) 0.4923(5) 0.4358(6)
O13 O 0.1596(5) 0.1856(4) -0.2391(3)
C40 C 0.4831(8) 0.1513(6) 0.3811(7)
O14 O 0.2081(7) 0.6679(4) 0.5398(4)
C41 C 0.0514(5) 0.1297(4) 0.2847(4)
H4 H 0.03000 0.18720 0.26500
H5 H -0.01870 0.10070 0.29030
H6 H 0.07330 0.08990 0.23680
C42 C 0.2648(7) 0.2013(5) 0.5379(5)
H7 H 0.26030 0.26320 0.57070
H8 H 0.29840 0.16440 0.58690
C43 C 0.1054(9) 0.0693(5) 0.4869(5)
H9 H 0.03000 0.03990 0.43420
H10 H 0.09340 0.07890 0.54700
H11 H 0.17220 0.03060 0.49100
C44 C 0.1363(9) 0.6849(8) 0.2638(8)
C45 C 0.3681(6) 0.6956(5) 0.3276(4)
H12 H 0.43780 0.67530 0.31270
H13 H 0.36550 0.66950 0.38010
H14 H 0.37680 0.76180 0.34660
C46 C 0.0441(8) 0.2285(6) 0.4744(6)
H15 H -0.03450 0.20800 0.42080
H16 H 0.07330 0.28810 0.47130
H17 H 0.03370 0.23240 0.53470
H18 H 0.286(4) 0.244(3) -0.069(3)
H19 H 0.351(5) 0.822(4) 0.177(4)
H20 H 0.185(7) 0.521(5) 0.200(5)
H21 H 0.403(4) 0.470(3) 0.068(3)
H22 H 0.139(4) 0.658(3) 0.314(4)
H23 H 0.367(5) 0.024(4) 0.428(4)
H24 H 0.263(4) 0.729(3) -0.225(3)
H25 H 0.758(5) 0.684(4) 0.284(4)
H26 H 0.367(4) 1.035(3) -0.050(4)
H27 H -0.061(4) 0.651(3) -0.068(4)
H28 H -0.010(4) 0.594(3) 0.018(3)
H29 H 0.103(5) 0.515(4) 0.416(4)
H30 H 0.526(5) 0.104(4) 0.360(4)
H31 H 0.225(7) 0.831(5) 0.110(6)
H32 H 0.396(5) -0.023(4) 0.339(4)
H33 H 0.017(5) 0.716(4) 0.033(4)
H34 H 0.460(5) 0.361(3) 0.503(3)
H35 H 0.245(5) 0.833(4) 0.211(4)
H36 H 0.149(6) 0.753(5) 0.287(5)
H37 H 0.253(7) -0.025(5) 0.335(5)
H38 H -0.008(5) 0.073(4) -0.115(4)
H39 H 0.335(5) 0.919(4) 0.030(4)
H40 H 0.492(5) 0.202(4) 0.356(4)
H41 H 0.303(5) 0.856(4) -0.303(5)
H42 H 0.334(6) 0.547(4) 0.225(5)
H43 H 0.590(5) 0.425(4) 0.170(4)
H44 H 0.568(4) 0.740(4) 0.188(4)
H45 H 0.081(7) 0.373(5) 0.329(5)
H46 H 0.064(5) 0.083(3) 0.062(4)
H47 H 0.462(5) 0.503(4) 0.594(4)
H48 H 0.364(4) 0.239(3) 0.092(3)
H49 H 0.525(7) 0.158(5) 0.456(6)
H50 H 0.046(7) 0.660(5) 0.197(6)
#END
