
#######################################################################
#
#                 Cambridge Crystallographic Data Centre
#                                CCDC
#
#######################################################################
#
# If this CIF has been generated from an entry in the Cambridge
# Structural Database, then it will include bibliographic, chemical,
# crystal, experimental, refinement or atomic coordinate data resulting
# from the CCDC's data processing and validation procedures.
#
#######################################################################

data_CSD_CIF_UCIYEN
_audit_creation_date 2016-12-20
_audit_creation_method CSD-ConQuest-V1
_database_code_CSD UCIYEN
_database_code_depnum_ccdc_archive 'CCDC 1490184'
_chemical_formula_sum 'C3 H6 N2 O4'
_chemical_formula_moiety
;
C3 H6 N2 O4
;
_journal_coden_Cambridge 920
_journal_volume 11
_journal_year 2016
_journal_page_first 3134
_journal_name_full 'Chem.Asian J. '
loop_
_publ_author_name
"T.M.Klapotke"
"B.Krumm"
"R.Scharf"
_chemical_name_systematic
;
(methyl(nitro)amino)acetic acid
;
_cell_volume    551.201
_exptl_crystal_colour 'colorless'
_exptl_crystal_density_diffrn 1.616
_exptl_crystal_description 'plate'
_diffrn_ambient_temperature 123
#These two values have been output from a single CSD field.
_refine_ls_R_factor_gt 0.0284
_refine_ls_wR_factor_gt 0.0284
_symmetry_cell_setting monoclinic
_symmetry_space_group_name_H-M 'P 21/c'
_symmetry_Int_Tables_number 14
loop_
_symmetry_equiv_pos_site_id
_symmetry_equiv_pos_as_xyz
1 x,y,z
2 -x,1/2+y,1/2-z
3 -x,-y,-z
4 x,-1/2-y,-1/2+z
_cell_length_a 5.8782(3)
_cell_length_b 9.1488(5)
_cell_length_c 10.2741(5)
_cell_angle_alpha 90
_cell_angle_beta 93.968(4)
_cell_angle_gamma 90
_cell_formula_units_Z 4
loop_
_atom_type_symbol
_atom_type_radius_bond
C 0.68
H 0.23
N 0.68
O 0.68
loop_
_atom_site_label
_atom_site_type_symbol
_atom_site_fract_x
_atom_site_fract_y
_atom_site_fract_z
C1 C 0.4881(2) 0.33815(13) 0.88337(11)
C2 C 0.4727(2) 0.20694(14) 0.79353(12)
C3 C 0.8641(2) 0.09123(15) 0.81446(13)
N1 N 0.68766(17) 0.17425(11) 0.73938(9)
N2 N 0.76206(18) 0.27420(11) 0.65420(9)
O1 O 0.29283(15) 0.36459(10) 0.93382(9)
O2 O 0.66231(14) 0.40873(9) 0.90450(8)
O3 O 0.62065(15) 0.36241(9) 0.60546(8)
O4 O 0.96164(15) 0.26678(10) 0.62684(9)
H1 H 0.314(3) 0.441(2) 0.9861(19)
H2 H 0.357(3) 0.2277(15) 0.7278(14)
H3 H 0.434(2) 0.1211(16) 0.8445(14)
H4 H 0.782(3) 0.0221(17) 0.8648(15)
H5 H 0.959(3) 0.0424(17) 0.7543(15)
H6 H 0.955(3) 0.1539(18) 0.8736(16)
#END
