
#######################################################################
#
#                 Cambridge Crystallographic Data Centre
#                                CCDC
#
#######################################################################
#
# If this CIF has been generated from an entry in the Cambridge
# Structural Database, then it will include bibliographic, chemical,
# crystal, experimental, refinement or atomic coordinate data resulting
# from the CCDC's data processing and validation procedures.
#
#######################################################################

data_CSD_CIF_UCOBAS
_audit_creation_date 2016-12-20
_audit_creation_method CSD-ConQuest-V1
_database_code_CSD UCOBAS
_database_code_depnum_ccdc_archive 'CCDC 1499251'
_chemical_formula_sum 'C27 H35 N3 O6'
_chemical_formula_moiety
;
C27 H35 N3 O6
;
_journal_coden_Cambridge 1336
_journal_volume 18
_journal_year 2016
_journal_page_first 6268
_journal_name_full 'Org.Lett. '
loop_
_publ_author_name
"S.K.Liew"
"S.J.Kaldas"
"A.K.Yudin"
_chemical_name_systematic
;
N-(5-hydroxy-2-methyl-8-(4-methylphenyl)-8-(morpholin-4-yloxy)oct-6-en-4-yl)-4
-nitrobenzamide
;
_cell_volume   1325.359
_exptl_crystal_colour 'colorless'
_exptl_crystal_density_diffrn 1.247
_exptl_special_details
;
Absolute configuration

;
_exptl_crystal_description 'needle'
_diffrn_ambient_temperature 250
_refine_special_details
;
C19,C20,C21,C4,C5 and C19A,C20A,C21A,C4A,C5A disordered over two sites with 
occupancies 0.778,0.778,0.778,0.739,0.739:0.222,0.222,0.222,0.261,0.261.
;
#These two values have been output from a single CSD field.
_refine_ls_R_factor_gt 0.0422
_refine_ls_wR_factor_gt 0.0422
_symmetry_cell_setting monoclinic
_symmetry_space_group_name_H-M 'P 21'
_symmetry_Int_Tables_number 4
loop_
_symmetry_equiv_pos_site_id
_symmetry_equiv_pos_as_xyz
1 x,y,z
2 -x,1/2+y,-z
_cell_length_a 5.1132(1)
_cell_length_b 29.4098(7)
_cell_length_c 8.8232(2)
_cell_angle_alpha 90
_cell_angle_beta 92.686(1)
_cell_angle_gamma 90
_cell_formula_units_Z 2
loop_
_atom_type_symbol
_atom_type_radius_bond
C 0.68
H 0.23
N 0.68
O 0.68
loop_
_atom_site_label
_atom_site_type_symbol
_atom_site_fract_x
_atom_site_fract_y
_atom_site_fract_z
O1 O 0.3429(4) 0.51024(8) 0.4498(3)
H1 H 0.285(9) 0.5301(17) 0.376(6)
O2 O 1.0490(4) 0.40722(9) 0.4466(4)
O3 O 0.9938(4) 0.61523(8) 0.7790(2)
O4 O 1.1573(8) 0.56599(11) 1.2086(3)
O5 O 0.3743(12) 0.22111(13) 0.0875(5)
O6 O 0.7146(9) 0.23257(13) -0.0365(5)
N1 N 0.6259(4) 0.42603(8) 0.4700(3)
H2 H 0.46450 0.41940 0.44320
N2 N 0.9456(6) 0.59444(9) 0.9235(3)
N3 N 0.5667(9) 0.24235(12) 0.0629(4)
C1 C 0.8144(5) 0.40018(10) 0.4189(4)
C2 C 0.6756(5) 0.46523(9) 0.5694(3)
H3 H 0.86460 0.46540 0.59960
C3 C 0.6146(6) 0.50913(10) 0.4831(3)
H4 H 0.69910 0.50660 0.38470
C4 C 0.7425(9) 0.54896(12) 0.5658(4)
H5 H 0.92590 0.54910 0.57940
C5 C 0.6121(8) 0.58347(12) 0.6199(4)
H6 H 0.42820 0.58330 0.61030
C6 C 0.7499(7) 0.62370(9) 0.6976(3)
H7 H 0.62910 0.63500 0.77360
C7 C 1.1106(11) 0.55472(14) 0.9372(5)
H8 H 1.29370 0.56310 0.92410
H9 H 1.05820 0.53240 0.85910
C8 C 1.0802(14) 0.53470(15) 1.0940(5)
H10 H 0.89690 0.52610 1.10530
H11 H 1.18710 0.50710 1.10510
C9 C 0.9995(13) 0.60544(18) 1.1935(5)
H12 H 1.05210 0.62730 1.27290
H13 H 0.81590 0.59730 1.20610
C10 C 1.0272(11) 0.62684(14) 1.0397(4)
H14 H 0.91850 0.65420 1.03060
H15 H 1.20990 0.63560 1.02740
C11 C 0.7918(7) 0.66319(9) 0.5909(3)
C12 C 0.9888(11) 0.69335(16) 0.6115(6)
H16 H 1.11190 0.68930 0.69280
C13 C 1.0140(13) 0.73018(18) 0.5156(7)
H17 H 1.15430 0.75040 0.53390
C14 C 0.8442(9) 0.73809(12) 0.3966(4)
C15 C 0.6551(12) 0.70707(16) 0.3736(6)
H18 H 0.53630 0.71040 0.28970
C16 C 0.6290(11) 0.67040(16) 0.4689(6)
H19 H 0.49230 0.64960 0.44790
C17 C 0.8735(14) 0.77885(16) 0.2941(6)
H20 H 1.02200 0.79690 0.33060
H21 H 0.90150 0.76860 0.19160
H22 H 0.71570 0.79720 0.29420
C18 C 0.5240(7) 0.46120(11) 0.7134(3)
H23 H 0.50820 0.49170 0.75680
H24 H 0.34660 0.45070 0.68470
C19 C 0.6350(18) 0.4302(2) 0.8358(7)
H25 H 0.82210 0.43810 0.85450
C20 C 0.619(4) 0.3828(2) 0.7964(9)
H26 H 0.70420 0.37780 0.70170
H27 H 0.70650 0.36480 0.87600
H28 H 0.43720 0.37370 0.78480
C21 C 0.504(2) 0.4355(3) 0.9790(7)
H29 H 0.51030 0.46710 1.00990
H30 H 0.32330 0.42580 0.96540
H31 H 0.59260 0.41690 1.05660
C22 C 0.7358(6) 0.35943(9) 0.3252(3)
C23 C 0.8924(7) 0.34722(11) 0.2070(4)
H32 H 1.03720 0.36540 0.18530
C24 C 0.8383(8) 0.30892(12) 0.1213(4)
H33 H 0.94450 0.30070 0.04150
C25 C 0.6274(8) 0.28326(11) 0.1550(4)
C26 C 0.4696(8) 0.29361(12) 0.2709(5)
H34 H 0.32630 0.27500 0.29180
C27 C 0.5252(7) 0.33220(11) 0.3573(4)
H35 H 0.41930 0.33980 0.43780
H36? H 0.72110 0.51360 0.39340
C28? C 0.799(2) 0.5796(4) 0.5956(13)
H37? H 0.95620 0.57440 0.54770
C29? C 0.599(3) 0.5515(4) 0.5848(13)
H38? H 0.44800 0.55710 0.63870
H39? H 0.59000 0.62420 0.75660
H40? H 0.33680 0.46530 0.68830
H41? H 0.58010 0.48530 0.78430
C30? C 0.568(2) 0.4145(4) 0.7904(15)
H42? H 0.51630 0.39170 0.71210
C31? C 0.850(2) 0.4048(6) 0.8320(18)
H43? H 0.95490 0.41080 0.74550
H44? H 0.90820 0.42410 0.91610
H45? H 0.86920 0.37310 0.86150
C32? C 0.393(2) 0.4058(6) 0.9206(18)
H46? H 0.21280 0.41250 0.88870
H47? H 0.40700 0.37410 0.95110
H48? H 0.44600 0.42510 1.00570
#END
