
#######################################################################
#
#                 Cambridge Crystallographic Data Centre
#                                CCDC
#
#######################################################################
#
# If this CIF has been generated from an entry in the Cambridge
# Structural Database, then it will include bibliographic, chemical,
# crystal, experimental, refinement or atomic coordinate data resulting
# from the CCDC's data processing and validation procedures.
#
#######################################################################

data_CSD_CIF_UCOGIF
_audit_creation_date 2016-12-20
_audit_creation_method CSD-ConQuest-V1
_database_code_CSD UCOGIF
_database_code_depnum_ccdc_archive 'CCDC 1479111'
_chemical_formula_sum 'C18 H27 N1 O2'
_chemical_formula_moiety
;
C18 H27 N1 O2
;
_journal_coden_Cambridge 1336
_journal_volume 18
_journal_year 2016
_journal_page_first 6228
_journal_name_full 'Org.Lett. '
loop_
_publ_author_name
"D.K.Barange"
"M.T.Johnson"
"A.G.Cairns"
"R.Olsson"
"F.Almqvist"
_chemical_name_systematic
;
(5R,6S)-5-(1-hydroxybutyl)-4-phenyl-6-propyl-5,6-dihydropyridin-1(2H)-ol
;
_cell_volume   1859.399
_exptl_crystal_colour 'colorless'
_exptl_crystal_density_diffrn 1.034
_exptl_crystal_description 'block'
_diffrn_ambient_temperature 293
#These two values have been output from a single CSD field.
_refine_ls_R_factor_gt 0.0782
_refine_ls_wR_factor_gt 0.0782
_symmetry_cell_setting monoclinic
_symmetry_space_group_name_H-M 'P 21/c'
_symmetry_Int_Tables_number 14
loop_
_symmetry_equiv_pos_site_id
_symmetry_equiv_pos_as_xyz
1 x,y,z
2 -x,1/2+y,1/2-z
3 -x,-y,-z
4 x,-1/2-y,-1/2+z
_cell_length_a 9.422
_cell_length_b 17.0347
_cell_length_c 12.4925
_cell_angle_alpha 90
_cell_angle_beta 111.9739
_cell_angle_gamma 90
_cell_formula_units_Z 4
loop_
_atom_type_symbol
_atom_type_radius_bond
C 0.68
H 0.23
N 0.68
O 0.68
loop_
_atom_site_label
_atom_site_type_symbol
_atom_site_fract_x
_atom_site_fract_y
_atom_site_fract_z
O1 O 0.8090(5) 0.4601(3) 0.0697(4)
N1 N 0.6875(7) 0.4074(4) 0.0045(6)
O2 O 0.3811(5) 0.4344(3) -0.1158(5)
C1 C 0.1845(11) 0.1064(6) -0.3101(11)
C2 C 0.2070(12) 0.1261(6) -0.1991(10)
C3 C 0.3856(9) 0.1975(5) -0.3026(6)
C4 C 0.4058(7) 0.2166(4) -0.1895(8)
C5 C 0.2752(10) 0.1407(5) -0.3614(8)
C6 C 0.6898(7) 0.3962(4) -0.1124(6)
C7 C 0.5203(7) 0.2790(4) -0.1230(6)
C8 C 0.3148(10) 0.1813(5) -0.1393(9)
C9 C 0.8362(7) 0.3577(4) -0.1192(7)
C10 C 0.7151(8) 0.3313(5) 0.0657(6)
C11 C 0.5391(7) 0.3526(4) -0.1840(5)
C12 C 0.6040(9) 0.2692(4) -0.0090(8)
C13 C 0.8564(10) 0.3703(5) -0.2327(7)
C14 C 0.3927(8) 0.4040(4) -0.2181(6)
C15 C 0.3902(9) 0.4680(4) -0.3100(8)
C16 C 0.9991(10) 0.3328(6) -0.2368(8)
C17 C 0.2407(13) 0.5063(6) -0.3593(9)
C18 C 0.2421(13) 0.5667(8) -0.4506(12)
H1 H 0.10671 0.06927 -0.35163
H2 H 0.14674 0.10103 -0.16172
H3 H 0.44597 0.22252 -0.33991
H4 H 0.26309 0.12579 -0.43842
H5 H 0.69485 0.44692 -0.14438
H6 H 0.32628 0.19522 -0.06204
H7 H 0.83569 0.30241 -0.10421
H8 H 0.92489 0.37675 -0.05703
H9 H 0.70032 0.33712 0.13727
H10 H 0.81848 0.31482 0.08177
H11 H 0.54986 0.33884 -0.25515
H12 H 0.600(7) 0.222(4) 0.035(6)
H13 H 0.76853 0.35028 -0.29478
H14 H 0.85769 0.42553 -0.24744
H15 H 0.30249 0.37312 -0.25608
H16 H 0.46753 0.50670 -0.27413
H17 H 0.41429 0.44380 -0.37053
H18 H 1.00543 0.34282 -0.31049
H19 H 1.08726 0.35450 -0.17686
H20 H 0.99561 0.27719 -0.22558
H21 H 0.21862 0.53241 -0.29926
H22 H 0.16331 0.46753 -0.39481
H23 H 0.13965 0.57451 -0.50512
H24 H 0.28238 0.61558 -0.41341
H25 H 0.30516 0.54763 -0.49010
H26 H 0.37437 0.45200 -0.05677
#END
