
#######################################################################
#
#                 Cambridge Crystallographic Data Centre
#                                CCDC
#
#######################################################################
#
# If this CIF has been generated from an entry in the Cambridge
# Structural Database, then it will include bibliographic, chemical,
# crystal, experimental, refinement or atomic coordinate data resulting
# from the CCDC's data processing and validation procedures.
#
#######################################################################

data_CSD_CIF_UCOJEC
_audit_creation_date 2006-06-27
_audit_creation_method CSD-ConQuest-V1
_database_code_CSD UCOJEC
_database_code_depnum_ccdc_archive 'CCDC 605690'
_chemical_formula_sum 'C11 H13 N1 O2'
_chemical_formula_moiety
;
C11 H13 N1 O2
;
_journal_coeditor_code "IUCr SF1027"
_journal_coden_Cambridge 591
_journal_volume 62
_journal_year 2006
_journal_page_first o199
_journal_name_full 'Acta Crystallogr.,Sect.C:Cryst.Struct.Commun. '
loop_
_publ_author_name
"V.Langer"
"D.Gyepesova"
"P.Mach"
"E.Scholtzova"
"M.Salisova"
"A.Bohac"
"B.Gaspar"
_chemical_name_systematic
;
anti-2-Hydroxy-2-methyl-1-tetralone oxime
;
_chemical_melting_point 387
_cell_volume    990.219
_exptl_crystal_colour 'colorless'
_exptl_crystal_density_diffrn 1.283
_exptl_special_details
;
Melting point range 387-389K

;
_exptl_crystal_description 'plate'
_diffrn_ambient_temperature 173
#These two values have been output from a single CSD field.
_refine_ls_R_factor_gt 0.0512
_refine_ls_wR_factor_gt 0.0512
_symmetry_cell_setting triclinic
_symmetry_space_group_name_H-M 'P -1'
_symmetry_Int_Tables_number 2
loop_
_symmetry_equiv_pos_site_id
_symmetry_equiv_pos_as_xyz
1 x,y,z
2 -x,-y,-z
_cell_length_a 7.3655(2)
_cell_length_b 9.6851(2)
_cell_length_c 14.4720(1)
_cell_angle_alpha 93.375(1)
_cell_angle_beta 99.476(1)
_cell_angle_gamma 102.288(1)
_cell_formula_units_Z 4
loop_
_atom_type_symbol
_atom_type_radius_bond
C 0.68
H 0.23
N 0.68
O 0.68
loop_
_atom_site_label
_atom_site_type_symbol
_atom_site_fract_x
_atom_site_fract_y
_atom_site_fract_z
O1 O 0.3489(2) 0.75256(16) 0.18986(10)
H1 H 0.238(4) 0.7465(14) 0.2117(16)
O2 O 0.0373(2) 0.87794(18) -0.06966(10)
H2 H -0.041(3) 0.936(3) -0.0787(7)
O3 O 0.0573(3) 0.7526(2) 0.28386(11)
H3 H -0.048(4) 0.756(3) 0.2598(9)
O4 O -0.4307(2) 0.7460(2) 0.35495(11)
H4 H -0.511(3) 0.748(3) 0.3003(16)
N1 N 0.1423(3) 0.9074(2) 0.02217(12)
N2 N -0.2541(3) 0.7382(2) 0.33542(13)
C1 C 0.3873(3) 0.8794(2) 0.14159(15)
C2 C 0.5965(3) 0.9124(2) 0.13849(16)
H5 H 0.66900 0.93400 0.20360
H6 H 0.62770 0.99800 0.10490
C3 C 0.6564(3) 0.7913(3) 0.09017(16)
H7 H 0.78470 0.82650 0.07660
H8 H 0.66340 0.71680 0.13380
C4 C 0.5262(3) 0.7263(2) 0.00020(15)
C5 C 0.3416(3) 0.7438(2) -0.02187(15)
C6 C 0.2770(3) 0.8420(2) 0.04107(15)
C7 C 0.5921(4) 0.6411(3) -0.06167(17)
H9 H 0.71900 0.63120 -0.04740
C8 C 0.4779(4) 0.5717(3) -0.14241(18)
H10 H 0.52570 0.51540 -0.18430
C9 C 0.2933(4) 0.5838(3) -0.16252(18)
H11 H 0.21250 0.53380 -0.21770
C10 C 0.2249(4) 0.6680(3) -0.10315(17)
H12 H 0.09670 0.67470 -0.11750
C11 C 0.3396(4) 1.0023(3) 0.19507(16)
H13 H 0.20510 0.97930 0.19890
H14 H 0.36780 1.08780 0.16220
H15 H 0.41530 1.01930 0.25870
C12 C 0.0653(3) 0.7416(3) 0.38287(16)
C13 C 0.2028(4) 0.8707(3) 0.43698(18)
H16 H 0.32940 0.87590 0.42080
H17 H 0.16120 0.95750 0.41870
C14 C 0.2152(4) 0.8641(3) 0.54285(18)
H18 H 0.30380 0.80390 0.56450
H19 H 0.26910 0.96090 0.57480
C15 C 0.0292(4) 0.8066(3) 0.57317(17)
C16 C -0.1370(3) 0.7500(2) 0.50857(15)
C17 C -0.1258(3) 0.7414(2) 0.40720(15)
C18 C 0.0222(4) 0.8073(3) 0.66868(18)
H20 H 0.13430 0.84520 0.71340
C19 C -0.1427(4) 0.7546(3) 0.69970(18)
H21 H -0.14390 0.75540 0.76530
C20 C -0.3069(4) 0.7003(3) 0.63567(17)
H22 H -0.42160 0.66470 0.65700
C21 C -0.3042(4) 0.6979(3) 0.54069(16)
H23 H -0.41750 0.66040 0.49670
C22 C 0.1253(3) 0.6042(2) 0.40441(17)
H24 H 0.03180 0.52360 0.36840
H25 H 0.13370 0.59380 0.47180
H26 H 0.24890 0.60680 0.38690
#END
