
#######################################################################
#
#                 Cambridge Crystallographic Data Centre
#                                CCDC
#
#######################################################################
#
# If this CIF has been generated from an entry in the Cambridge
# Structural Database, then it will include bibliographic, chemical,
# crystal, experimental, refinement or atomic coordinate data resulting
# from the CCDC's data processing and validation procedures.
#
#######################################################################

data_CSD_CIF_UCOLEG
_audit_creation_date 2016-12-20
_audit_creation_method CSD-ConQuest-V1
_database_code_CSD UCOLEG
_database_code_depnum_ccdc_archive 'CCDC 1490180'
_chemical_formula_sum 'C6 H12 N6 O6'
_chemical_formula_moiety
;
C6 H12 N6 O6
;
_journal_coden_Cambridge 920
_journal_volume 11
_journal_year 2016
_journal_page_first 3134
_journal_name_full 'Chem.Asian J. '
loop_
_publ_author_name
"T.M.Klapotke"
"B.Krumm"
"R.Scharf"
_chemical_name_systematic
;
2-(methyl(nitro)amino)-N'-((methyl(nitro)amino)acetyl)acetohydrazide
;
_cell_volume    551.877
_exptl_crystal_colour 'colorless'
_exptl_crystal_density_diffrn 1.59
_exptl_crystal_description 'plates'
_diffrn_ambient_temperature 123
#These two values have been output from a single CSD field.
_refine_ls_R_factor_gt 0.0385
_refine_ls_wR_factor_gt 0.0385
_symmetry_cell_setting triclinic
_symmetry_space_group_name_H-M 'P -1'
_symmetry_Int_Tables_number 2
loop_
_symmetry_equiv_pos_site_id
_symmetry_equiv_pos_as_xyz
1 x,y,z
2 -x,-y,-z
_cell_length_a 6.3435(4)
_cell_length_b 8.6488(8)
_cell_length_c 10.5766(9)
_cell_angle_alpha 99.172(7)
_cell_angle_beta 91.181(6)
_cell_angle_gamma 105.107(7)
_cell_formula_units_Z 2
loop_
_atom_type_symbol
_atom_type_radius_bond
C 0.68
H 0.23
N 0.68
O 0.68
loop_
_atom_site_label
_atom_site_type_symbol
_atom_site_fract_x
_atom_site_fract_y
_atom_site_fract_z
C1 C 0.3216(2) 0.4599(2) 0.36081(16)
C2 C 0.3083(3) 0.5487(2) 0.24871(17)
C3 C 0.0626(4) 0.3432(2) 0.07424(19)
N1 N 0.4790(2) 0.53873(19) 0.45016(13)
N2 N 0.1003(2) 0.48507(18) 0.17556(13)
N3 N -0.0759(2) 0.51063(19) 0.23771(15)
O1 O 0.19774(19) 0.32525(14) 0.36530(11)
O2 O -0.0402(2) 0.61343(18) 0.33677(13)
O3 O -0.2588(2) 0.43369(18) 0.18901(14)
H1 H 0.569(4) 0.632(3) 0.444(2)
H2 H 0.417(3) 0.532(2) 0.1920(17)
H3 H 0.333(3) 0.659(3) 0.2798(19)
H4 H 0.039(3) 0.241(3) 0.1079(19)
H5 H 0.187(4) 0.359(3) 0.031(2)
H6 H -0.056(4) 0.338(3) 0.015(2)
C4 C 0.7591(3) 0.9920(2) 0.40786(15)
C5 C 0.6895(3) 1.1037(2) 0.32808(17)
C6 C 0.3106(3) 0.9934(3) 0.2080(2)
N4 N 0.9615(2) 1.04612(18) 0.46105(13)
N5 N 0.5452(2) 1.01142(18) 0.21875(13)
N6 N 0.6282(2) 0.91366(18) 0.13375(14)
O4 O 0.63251(18) 0.86250(14) 0.42330(12)
O5 O 0.82665(19) 0.92538(17) 0.14816(12)
O6 O 0.5031(2) 0.82005(17) 0.04709(12)
H7 H 1.059(3) 1.139(3) 0.455(2)
H8 H 0.813(3) 1.177(2) 0.3020(17)
H9 H 0.608(3) 1.166(2) 0.3815(17)
H10 H 0.228(4) 0.886(3) 0.234(2)
H11 H 0.267(3) 0.991(3) 0.123(2)
H12 H 0.283(3) 1.082(3) 0.266(2)
C1A C 0.6784(2) 0.5401(2) 0.63919(16)
C2A C 0.6917(3) 0.4513(2) 0.75129(17)
C3A C 0.9374(4) 0.6568(2) 0.92576(19)
N1A N 0.5210(2) 0.46127(19) 0.54984(13)
N2A N 0.8997(2) 0.51493(18) 0.82444(13)
N3A N 1.0759(2) 0.48937(19) 0.76229(15)
O1A O 0.80226(19) 0.67475(14) 0.63470(11)
O2A O 1.0402(2) 0.38657(18) 0.66323(13)
O3A O 1.2588(2) 0.56631(18) 0.81099(14)
H1A H 0.431(4) 0.368(3) 0.556(2)
H2A H 0.583(3) 0.468(2) 0.8080(17)
H3A H 0.667(3) 0.341(3) 0.7202(19)
H4A H 0.961(3) 0.759(3) 0.8921(19)
H5A H 0.813(4) 0.641(3) 0.969(2)
H6A H 1.056(4) 0.662(3) 0.985(2)
C4A C 1.2409(3) 1.0080(2) 0.59214(15)
C5A C 1.3105(3) 0.8963(2) 0.67192(17)
C6A C 1.6894(3) 1.0066(3) 0.7920(2)
N4A N 1.0385(2) 0.95388(18) 0.53895(13)
N5A N 1.4548(2) 0.98858(18) 0.78125(13)
N6A N 1.3718(2) 1.08634(18) 0.86625(14)
O4A O 1.36749(18) 1.13750(14) 0.57670(12)
O5A O 1.17335(19) 1.07462(17) 0.85184(12)
O6A O 1.4969(2) 1.17995(17) 0.95291(12)
H7A H 0.941(3) 0.861(3) 0.545(2)
H8A H 1.187(3) 0.823(2) 0.6980(17)
H9A H 1.392(3) 0.834(2) 0.6185(17)
H10A H 1.772(4) 1.114(3) 0.766(2)
H11A H 1.733(3) 1.009(3) 0.877(2)
H12A H 1.717(3) 0.918(3) 0.734(2)
#END
