
#######################################################################
#
#                 Cambridge Crystallographic Data Centre
#                                CCDC
#
#######################################################################
#
# If this CIF has been generated from an entry in the Cambridge
# Structural Database, then it will include bibliographic, chemical,
# crystal, experimental, refinement or atomic coordinate data resulting
# from the CCDC's data processing and validation procedures.
#
#######################################################################

data_CSD_CIF_UCOLII
_audit_creation_date 2006-06-27
_audit_creation_method CSD-ConQuest-V1
_database_code_CSD UCOLII
_database_code_depnum_ccdc_archive 'CCDC 605699'
_chemical_formula_sum 'C13 H9 N5 O6'
_chemical_formula_moiety
;
C13 H9 N5 O6
;
_journal_coeditor_code "IUCr GG3003"
_journal_coden_Cambridge 591
_journal_volume 62
_journal_year 2006
_journal_page_first o222
_journal_name_full 'Acta Crystallogr.,Sect.C:Cryst.Struct.Commun. '
loop_
_publ_author_name
"T.R.A.Vasconcelos"
"M.V.N.de Souza"
"S.M.S.V.Wardell"
"J.L.Wardell"
"J.N.Low"
"C.Glidewell"
_chemical_name_systematic
;
N-3,5-dinitrobenzoyl-N'-isonicotinoylhydrazine
;
_chemical_melting_point 531
_cell_volume   1330.355
_exptl_crystal_colour 'yellow'
_exptl_crystal_density_diffrn 1.654
_exptl_special_details
;
Melting point range 531-533K
Bactericidal activity towards Mycobacterium tuberculosis
;
_exptl_crystal_description 'block'
_exptl_crystal_preparation 'ethanol'
_diffrn_ambient_temperature 120
#These two values have been output from a single CSD field.
_refine_ls_R_factor_gt 0.0369
_refine_ls_wR_factor_gt 0.0369
_symmetry_cell_setting monoclinic
_symmetry_space_group_name_H-M 'P 21/n'
_symmetry_Int_Tables_number 14
loop_
_symmetry_equiv_pos_site_id
_symmetry_equiv_pos_as_xyz
1 x,y,z
2 1/2-x,1/2+y,1/2-z
3 -x,-y,-z
4 -1/2+x,-1/2-y,-1/2+z
_cell_length_a 7.4534(2)
_cell_length_b 22.1762(6)
_cell_length_c 8.1006(2)
_cell_angle_alpha 90
_cell_angle_beta 96.4890(16)
_cell_angle_gamma 90
_cell_formula_units_Z 4
loop_
_atom_type_symbol
_atom_type_radius_bond
C 0.68
H 0.23
N 0.68
O 0.68
loop_
_atom_site_label
_atom_site_type_symbol
_atom_site_fract_x
_atom_site_fract_y
_atom_site_fract_z
N1 N 0.29107(15) 0.77611(5) 0.18882(14)
C1 C 0.29407(18) 0.76568(6) 0.35161(16)
C2 C 0.37705(18) 0.71574(6) 0.43050(16)
C3 C 0.45741(17) 0.67366(5) 0.33512(16)
C4 C 0.45568(17) 0.68411(6) 0.16552(16)
C5 C 0.37324(19) 0.73597(6) 0.09849(16)
C6 C 0.53402(17) 0.61583(6) 0.40841(16)
O1 O 0.52800(14) 0.56838(4) 0.32958(13)
N2 N 0.60258(15) 0.61959(5) 0.56963(13)
N3 N 0.68100(15) 0.56676(5) 0.63692(14)
C7 C 0.69292(17) 0.55863(6) 0.80285(16)
O2 O 0.64901(14) 0.59731(4) 0.89848(12)
C8 C 0.77229(16) 0.49956(5) 0.86527(16)
C9 C 0.86809(17) 0.46194(6) 0.76805(16)
C10 C 0.93238(16) 0.40760(6) 0.83413(16)
N4 N 1.03185(15) 0.36794(5) 0.73068(14)
O3 O 1.06419(15) 0.38698(5) 0.59570(14)
O4 O 1.07576(15) 0.31778(5) 0.78513(13)
C11 C 0.90610(17) 0.38855(6) 0.99209(17)
C12 C 0.81494(17) 0.42775(6) 1.08553(16)
N5 N 0.78968(16) 0.40949(5) 1.25585(15)
O5 O 0.80620(16) 0.35600(5) 1.29025(14)
O6 O 0.75444(15) 0.44909(5) 1.35295(13)
C13 C 0.74794(16) 0.48310(6) 1.02698(16)
H1 H 0.23650 0.79390 0.41660
H2 H 0.37880 0.71050 0.54710
H3 H 0.50990 0.65630 0.09710
H4 H 0.37490 0.74350 -0.01680
H5 H 0.65470 0.65340 0.60640
H6 H 0.68330 0.53710 0.56500
H7 H 0.88860 0.47350 0.65880
H8 H 0.94850 0.35050 1.03410
H9 H 0.68710 0.50910 1.09550
#END
