
#######################################################################
#
#                 Cambridge Crystallographic Data Centre
#                                CCDC
#
#######################################################################
#
# If this CIF has been generated from an entry in the Cambridge
# Structural Database, then it will include bibliographic, chemical,
# crystal, experimental, refinement or atomic coordinate data resulting
# from the CCDC's data processing and validation procedures.
#
#######################################################################

data_CSD_CIF_UCOLAC
_audit_creation_date 2016-12-20
_audit_creation_method CSD-ConQuest-V1
_database_code_CSD UCOLAC
_database_code_depnum_ccdc_archive 'CCDC 1490179'
_chemical_formula_sum 'C3 H5 N5 O3'
_chemical_formula_moiety
;
C3 H5 N5 O3
;
_journal_coden_Cambridge 920
_journal_volume 11
_journal_year 2016
_journal_page_first 3134
_journal_name_full 'Chem.Asian J. '
loop_
_publ_author_name
"T.M.Klapotke"
"B.Krumm"
"R.Scharf"
_chemical_name_systematic
;
(methyl(nitro)amino)acetyl azide
;
_cell_volume    661.258
_exptl_crystal_colour 'colorless'
_exptl_crystal_density_diffrn 1.598
_exptl_crystal_description 'plate'
_diffrn_ambient_temperature 173
#These two values have been output from a single CSD field.
_refine_ls_R_factor_gt 0.0392
_refine_ls_wR_factor_gt 0.0392
_symmetry_cell_setting monoclinic
_symmetry_space_group_name_H-M 'P 21/c'
_symmetry_Int_Tables_number 14
loop_
_symmetry_equiv_pos_site_id
_symmetry_equiv_pos_as_xyz
1 x,y,z
2 -x,1/2+y,1/2-z
3 -x,-y,-z
4 x,-1/2-y,-1/2+z
_cell_length_a 11.4947(8)
_cell_length_b 5.5082(3)
_cell_length_c 10.8210(7)
_cell_angle_alpha 90
_cell_angle_beta 105.170(7)
_cell_angle_gamma 90
_cell_formula_units_Z 4
loop_
_atom_type_symbol
_atom_type_radius_bond
C 0.68
H 0.23
N 0.68
O 0.68
loop_
_atom_site_label
_atom_site_type_symbol
_atom_site_fract_x
_atom_site_fract_y
_atom_site_fract_z
O1 O 0.12593(12) 0.2858(3) 0.19868(13)
O2 O 0.39549(12) 0.4132(2) 0.25471(13)
O3 O 0.43632(11) 0.3349(2) 0.07262(13)
N1 N 0.15108(13) 0.0721(3) 0.38802(15)
N2 N 0.05736(14) 0.1783(3) 0.40006(15)
N3 N -0.02418(15) 0.2638(3) 0.41799(16)
N4 N 0.33001(13) 0.0731(3) 0.15184(14)
N5 N 0.39068(13) 0.2830(3) 0.16001(14)
C1 C 0.18065(15) 0.1407(3) 0.27380(17)
C2 C 0.29064(17) 0.0024(3) 0.26277(18)
C3 C 0.32979(18) -0.0879(3) 0.04577(18)
H1 H 0.30750 0.00370 -0.03460
H2 H 0.27140 -0.21880 0.04300
H3 H 0.41040 -0.15750 0.05720
H4 H 0.2726(16) -0.168(4) 0.2537(17)
H5 H 0.3498(18) 0.020(3) 0.338(2)
#END
