
#######################################################################
#
#                 Cambridge Crystallographic Data Centre
#                                CCDC
#
#######################################################################
#
# If this CIF has been generated from an entry in the Cambridge
# Structural Database, then it will include bibliographic, chemical,
# crystal, experimental, refinement or atomic coordinate data resulting
# from the CCDC's data processing and validation procedures.
#
#######################################################################

data_CSD_CIF_UCONIJ01
_audit_creation_date 2008-06-05
_audit_creation_method CSD-ConQuest-V1
_database_code_CSD UCONIJ01
_database_code_depnum_ccdc_archive 'CCDC 625655'
_chemical_formula_sum 'C4 H6 N2 O1'
_chemical_formula_moiety
;
C4 H6 N2 O1
;
_journal_coden_Cambridge 155
_journal_volume 360
_journal_year 2007
_journal_page_first 4017
_journal_name_full 'Inorg.Chim.Acta '
loop_
_publ_author_name
"R.E.Marsh"
"D.A.Clemente"
_chemical_name_systematic
;
N-Nitrosopyrroline
;
_cell_volume    474.980
_diffrn_ambient_temperature 113.2
loop_
_citation_database_id_CSD
_citation_special_details
UCONIJ "is reinterpreted by this entry"
_symmetry_cell_setting orthorhombic
_symmetry_space_group_name_H-M 'P n m a'
_symmetry_Int_Tables_number 62
loop_
_symmetry_equiv_pos_site_id
_symmetry_equiv_pos_as_xyz
1 x,y,z
2 1/2-x,-y,1/2+z
3 1/2+x,1/2-y,1/2-z
4 -x,1/2+y,-z
5 -x,-y,-z
6 -1/2+x,y,-1/2-z
7 -1/2-x,-1/2+y,-1/2+z
8 x,-1/2-y,z
_cell_length_a 12.74(2)
_cell_length_b 6.372(7)
_cell_length_c 5.851(8)
_cell_angle_alpha 90
_cell_angle_beta 90
_cell_angle_gamma 90
_cell_formula_units_Z 4
loop_
_atom_type_symbol
_atom_type_radius_bond
C 0.68
H 0.23
N 0.68
O 0.68
loop_
_atom_site_label
_atom_site_type_symbol
_atom_site_fract_x
_atom_site_fract_y
_atom_site_fract_z
O1 O -0.05871 0.75000 -0.18480
N1 N -0.04170 0.75000 0.02580
N2 N 0.05847 0.75000 0.07660
C1 C 0.09180 0.75000 0.31690
C2 C 0.20920 0.75000 0.28910
C3 C 0.23820 0.75000 0.07380
C4 C 0.14540 0.75000 -0.08640
H1 H 0.06780 0.87090 0.39300
H2 H 0.25490 0.75000 0.42100
H3 H 0.30980 0.75000 0.02140
H4 H 0.14510 0.87110 -0.18460
H1G H 0.06780 0.62910 0.39300
H4G H 0.14510 0.62890 -0.18460
#END
