
#######################################################################
#
#                 Cambridge Crystallographic Data Centre
#                                CCDC
#
#######################################################################
#
# If this CIF has been generated from an entry in the Cambridge
# Structural Database, then it will include bibliographic, chemical,
# crystal, experimental, refinement or atomic coordinate data resulting
# from the CCDC's data processing and validation procedures.
#
#######################################################################

data_CSD_CIF_UCULOT
_audit_creation_date 2002-01-16
_audit_creation_method CSD-ConQuest-V1
_database_code_CSD UCULOT
_database_code_depnum_ccdc_archive 'CCDC 174980'
_chemical_formula_sum 'C8 H16 N2 O1'
_chemical_formula_moiety
;
C8 H16 N2 O1
;
_journal_coeditor_code "IUCr NA0119"
_journal_coden_Cambridge 622
_journal_volume 57
_journal_year 2001
_journal_page_first 705
_journal_name_full 'Acta Crystallogr.,Sect.B:Struct.Sci. '
loop_
_publ_author_name
"P.R.Olivato"
"D.S.Ribeiro"
"J.Zukerman-Schpector"
"G.Bombieri"
_chemical_name_systematic
;
(E)-2-(Dimethylamino)cyclohexanone oxime
;
_cell_volume   1838.797
_exptl_crystal_colour 'colorless'
_exptl_crystal_density_diffrn 1.129
_exptl_crystal_description 'irregular'
_exptl_crystal_preparation 'chloroform/n-hexane'
_diffrn_ambient_temperature 293
#These two values have been output from a single CSD field.
_refine_ls_R_factor_gt 0.039
_refine_ls_wR_factor_gt 0.039
_symmetry_cell_setting orthorhombic
_symmetry_space_group_name_H-M 'P b c a'
_symmetry_Int_Tables_number 61
loop_
_symmetry_equiv_pos_site_id
_symmetry_equiv_pos_as_xyz
1 x,y,z
2 1/2-x,1/2+y,z
3 x,1/2-y,1/2+z
4 1/2+x,y,1/2-z
5 -x,-y,-z
6 -1/2+x,-1/2-y,-z
7 -x,-1/2+y,-1/2-z
8 -1/2-x,-y,-1/2+z
_cell_length_a 12.5662(6)
_cell_length_b 10.1714(6)
_cell_length_c 14.3863(9)
_cell_angle_alpha 90
_cell_angle_beta 90
_cell_angle_gamma 90
_cell_formula_units_Z 8
loop_
_atom_type_symbol
_atom_type_radius_bond
C 0.68
H 0.23
N 0.68
O 0.68
loop_
_atom_site_label
_atom_site_type_symbol
_atom_site_fract_x
_atom_site_fract_y
_atom_site_fract_z
O1 O -0.05575(9) 0.35642(12) -0.35904(8)
H1 H -0.07650 0.43280 -0.35810
N1 N 0.02743(10) 0.34050(12) -0.29412(9)
N2 N 0.11821(10) 0.12029(12) -0.14452(8)
C1 C 0.06343(11) 0.22353(13) -0.29175(10)
C2 C 0.02896(12) 0.10937(14) -0.35024(10)
H2 H -0.02070 0.13950 -0.39720
H3 H -0.00730 0.04550 -0.31150
C3 C 0.12415(13) 0.04428(17) -0.39733(12)
H4 H 0.10140 -0.03700 -0.42650
H5 H 0.15120 0.10190 -0.44560
C4 C 0.21218(13) 0.01500(16) -0.32876(13)
H6 H 0.27290 -0.02130 -0.36150
H7 H 0.18780 -0.04990 -0.28420
C5 C 0.24547(13) 0.13890(18) -0.27787(13)
H8 H 0.27300 0.20190 -0.32240
H9 H 0.30230 0.11780 -0.23470
C6 C 0.15332(11) 0.20147(14) -0.22444(10)
H10 H 0.17680 0.28710 -0.20090
C7 C 0.02834(15) 0.1829(2) -0.09780(13)
H11 H -0.03080 0.18840 -0.13990
H12 H 0.04830 0.26970 -0.07830
H13 H 0.00840 0.13180 -0.04450
C8 C 0.20447(16) 0.1016(2) -0.07750(14)
H14 H 0.23390 0.18550 -0.06100
H15 H 0.25890 0.04770 -0.10470
H16 H 0.17720 0.05930 -0.02280
#END
