
#######################################################################
#
#                 Cambridge Crystallographic Data Centre
#                                CCDC
#
#######################################################################
#
# If this CIF has been generated from an entry in the Cambridge
# Structural Database, then it will include bibliographic, chemical,
# crystal, experimental, refinement or atomic coordinate data resulting
# from the CCDC's data processing and validation procedures.
#
#######################################################################

data_CSD_CIF_UDACIM
_audit_creation_date 2006-06-27
_audit_creation_method CSD-ConQuest-V1
_database_code_CSD UDACIM
_database_code_depnum_ccdc_archive 'CCDC 293037'
_chemical_formula_sum 'C27 H21 N3 O2'
_chemical_formula_moiety
;
C27 H21 N3 O2
;
_journal_coden_Cambridge 35
_journal_volume 71
_journal_year 2006
_journal_page_first 2480
_journal_name_full 'J.Org.Chem. '
loop_
_publ_author_name
"L.I.Robins"
"R.D.Carpenter"
"J.C.Fettinger"
"M.J.Haddadin"
"D.S.Tinti"
"M.J.Kurth"
_chemical_name_systematic
;
3,8-Diphenyl-6-(3-phenylisoxazol-5-yl)-6,7-dihydro-5H-(1,2)diazocin-4-one
;
_chemical_melting_point 398.15
_cell_volume   4176.017
_exptl_crystal_colour 'colorless'
_exptl_crystal_density_diffrn 1.334
_exptl_special_details
;
Melting point range 398.15-399.15K

;
_exptl_crystal_description 'Needle'
_exptl_crystal_preparation 'methanol'
_diffrn_ambient_temperature 90
#These two values have been output from a single CSD field.
_refine_ls_R_factor_gt 0.0496
_refine_ls_wR_factor_gt 0.0496
_symmetry_cell_setting orthorhombic
_symmetry_space_group_name_H-M 'P n a 21'
_symmetry_Int_Tables_number 33
loop_
_symmetry_equiv_pos_site_id
_symmetry_equiv_pos_as_xyz
1 x,y,z
2 -x,-y,1/2+z
3 1/2+x,1/2-y,z
4 1/2-x,1/2+y,1/2+z
_cell_length_a 22.9793(17)
_cell_length_b 5.2856(4)
_cell_length_c 34.382(3)
_cell_angle_alpha 90
_cell_angle_beta 90
_cell_angle_gamma 90
_cell_formula_units_Z 8
loop_
_atom_type_symbol
_atom_type_radius_bond
C 0.68
H 0.23
N 0.68
O 0.68
loop_
_atom_site_label
_atom_site_type_symbol
_atom_site_fract_x
_atom_site_fract_y
_atom_site_fract_z
N1 N 0.53509(7) 0.4521(3) 0.83122(5)
N2 N 0.54271(7) 0.2985(3) 0.79882(5)
C1 C 0.59319(9) 0.2861(4) 0.78308(6)
C2 C 0.64632(9) 0.4155(4) 0.80044(6)
O1 O 0.65586(7) 0.6395(3) 0.79668(4)
C3 C 0.68537(8) 0.2419(4) 0.82398(6)
H1 H 0.6848(9) 0.072(4) 0.8131(7)
H2 H 0.7242(9) 0.311(4) 0.8233(6)
C4 C 0.66300(8) 0.2210(4) 0.86622(6)
H3 H 0.6700(9) 0.387(4) 0.8788(6)
C5 C 0.59713(8) 0.1546(4) 0.86905(6)
H4 H 0.5904(11) 0.055(5) 0.8950(9)
H5 H 0.5858(9) 0.027(4) 0.8502(6)
C6 C 0.55805(8) 0.3833(4) 0.86373(6)
C7 C 0.60294(9) 0.1167(4) 0.74949(5)
C8 C 0.56309(9) -0.0723(4) 0.74027(6)
H6 H 0.5261(10) -0.082(4) 0.7545(7)
C9 C 0.57550(9) -0.2436(4) 0.71073(6)
H7 H 0.5498(10) -0.373(5) 0.7064(7)
C10 C 0.62737(9) -0.2283(5) 0.69048(6)
H8 H 0.6367(12) -0.361(5) 0.6683(8)
C11 C 0.66707(10) -0.0409(5) 0.69904(6)
H9 H 0.7029(10) -0.024(4) 0.6845(7)
C12 C 0.65492(9) 0.1333(4) 0.72835(6)
H10 H 0.6836(10) 0.274(5) 0.7344(7)
C13 C 0.54514(8) 0.5463(4) 0.89798(6)
C14 C 0.49877(8) 0.7165(4) 0.89694(6)
H11 H 0.4745(10) 0.723(4) 0.8730(7)
C15 C 0.48849(9) 0.8799(4) 0.92794(6)
H12 H 0.4554(10) 1.005(4) 0.9263(7)
C16 C 0.52444(9) 0.8766(4) 0.96034(6)
H13 H 0.5154(13) 0.997(6) 0.9811(9)
C17 C 0.56993(10) 0.7060(4) 0.96204(6)
H14 H 0.5985(12) 0.694(5) 0.9838(8)
C18 C 0.58021(9) 0.5400(4) 0.93147(6)
H15 H 0.6124(9) 0.429(4) 0.9334(6)
O2 O 0.68590(6) 0.0062(3) 0.92597(4)
N3 N 0.72009(7) -0.1887(3) 0.94160(5)
C19 C 0.75107(8) -0.2767(4) 0.91230(5)
C20 C 0.73809(9) -0.1455(4) 0.87701(5)
H16 H 0.7543(11) -0.187(5) 0.8493(7)
C21 C 0.69754(8) 0.0272(4) 0.88733(5)
C22 C 0.79242(8) -0.4850(4) 0.91863(5)
C23 C 0.83038(9) -0.5602(4) 0.88898(6)
H17 H 0.8282(9) -0.469(4) 0.8643(7)
C24 C 0.86937(9) -0.7576(4) 0.89525(6)
H18 H 0.9010(11) -0.797(5) 0.8764(8)
C25 C 0.87059(9) -0.8816(4) 0.93071(6)
H19 H 0.8981(11) -1.017(5) 0.9336(7)
C26 C 0.83329(9) -0.8076(4) 0.96018(7)
H20 H 0.8348(12) -0.896(5) 0.9842(8)
C27 C 0.79425(9) -0.6111(4) 0.95421(6)
H21 H 0.7652(10) -0.557(4) 0.9764(6)
N4 N 0.80132(7) 0.0522(3) 0.65943(5)
N5 N 0.80467(7) 0.2170(3) 0.69084(5)
C28 C 0.85342(8) 0.2488(4) 0.70822(5)
C29 C 0.90965(8) 0.1348(4) 0.69332(5)
O3 O 0.92418(7) -0.0814(3) 0.69992(4)
C30 C 0.94586(9) 0.3141(4) 0.66883(6)
H22 H 0.9406(9) 0.496(4) 0.6770(7)
H23 H 0.9862(9) 0.259(4) 0.6715(6)
C31 C 0.92616(8) 0.3071(4) 0.62590(6)
H24 H 0.9336(11) 0.139(5) 0.6159(7)
C32 C 0.85997(8) 0.3531(4) 0.62000(6)
H25 H 0.8515(8) 0.413(4) 0.5947(6)
H26 H 0.8468(10) 0.485(4) 0.6389(7)
C33 C 0.82336(8) 0.1197(4) 0.62643(6)
C34 C 0.85691(8) 0.4276(4) 0.74126(5)
C35 C 0.81364(9) 0.6101(4) 0.74673(6)
H27 H 0.781(1) 0.608(4) 0.7302(7)
C36 C 0.81961(11) 0.7900(4) 0.77585(6)
H28 H 0.7892(10) 0.925(5) 0.7798(7)
C37 C 0.86881(11) 0.7905(5) 0.79922(7)
H29 H 0.8738(12) 0.912(6) 0.8197(9)
C38 C 0.9118(1) 0.6094(5) 0.79430(6)
H30 H 0.9457(10) 0.613(4) 0.8077(7)
C39 C 0.90561(9) 0.4263(4) 0.76537(6)
H31 H 0.9362(10) 0.290(5) 0.7621(7)
C40 C 0.81049(8) -0.0515(4) 0.59313(5)
C41 C 0.76251(8) -0.2148(4) 0.59461(6)
H32 H 0.7354(11) -0.210(5) 0.6160(8)
C42 C 0.75058(9) -0.3799(4) 0.56442(6)
H33 H 0.7169(10) -0.491(4) 0.5663(7)
C43 C 0.78723(10) -0.3861(4) 0.53201(6)
H34 H 0.7793(10) -0.506(5) 0.5120(7)
C44 C 0.83432(10) -0.2257(4) 0.52993(6)
H35 H 0.8604(11) -0.235(5) 0.5085(8)
C45 C 0.84619(9) -0.0556(4) 0.56005(5)
H36 H 0.8811(9) 0.056(4) 0.5578(6)
O4 O 0.95187(6) 0.4947(3) 0.56427(4)
N6 N 0.98621(7) 0.6858(3) 0.54736(5)
C46 C 1.01384(8) 0.7956(4) 0.57619(5)
C47 C 0.99771(8) 0.6849(4) 0.61259(6)
H37 H 1.0120(11) 0.728(5) 0.6366(8)
C48 C 0.95998(8) 0.5008(3) 0.60338(5)
C49 C 1.05471(8) 1.0024(4) 0.56843(6)
C50 C 1.08471(9) 1.1201(4) 0.59874(6)
H38 H 1.0794(10) 1.070(4) 0.6247(8)
C51 C 1.12360(9) 1.3152(4) 0.59131(6)
H39 H 1.1458(12) 1.388(5) 0.6138(8)
C52 C 1.13304(9) 1.3964(4) 0.55355(6)
H40 H 1.1615(10) 1.533(4) 0.5482(7)
C53 C 1.10281(10) 1.2836(4) 0.52325(6)
H41 H 1.1092(10) 1.337(4) 0.4968(8)
C54 C 1.06391(9) 1.0887(4) 0.53045(6)
H42 H 1.0456(10) 1.009(4) 0.5112(7)
#END
