
#######################################################################
#
#                 Cambridge Crystallographic Data Centre
#                                CCDC
#
#######################################################################
#
# If this CIF has been generated from an entry in the Cambridge
# Structural Database, then it will include bibliographic, chemical,
# crystal, experimental, refinement or atomic coordinate data resulting
# from the CCDC's data processing and validation procedures.
#
#######################################################################

data_CSD_CIF_UDATUR
_audit_creation_date 2017-01-03
_audit_creation_method CSD-ConQuest-V1
_database_code_CSD UDATUR
_database_code_depnum_ccdc_archive 'CCDC 898162'
_chemical_formula_sum 'C16 H19 N4 O1'
_chemical_formula_moiety
;
C16 H19 N4 O1
;
_journal_coden_Cambridge 1078
_journal_year 2016
_journal_name_full 'CSD Communication(Private Communication) '
loop_
_publ_author_name
"I.Yu.Bagryanskaya"
"E.A.Mosotovich"
"D.G.Mazhukin"
_chemical_name_systematic
;
2-(1-ethenyl-1H-benzimidazol-2-yl)-4,4,5,5-tetramethyl-4,5-dihydro-1H-imidazol
-1-olate radical
;
_cell_volume   1482.957
_exptl_crystal_colour 'dark orange'
_exptl_crystal_density_diffrn 1.269
_exptl_crystal_description 'plate'
_diffrn_ambient_temperature 173
#These two values have been output from a single CSD field.
_refine_ls_R_factor_gt 0.0448
_refine_ls_wR_factor_gt 0.0448
_symmetry_cell_setting monoclinic
_symmetry_space_group_name_H-M 'P 21/n'
_symmetry_Int_Tables_number 14
loop_
_symmetry_equiv_pos_site_id
_symmetry_equiv_pos_as_xyz
1 x,y,z
2 1/2-x,1/2+y,1/2-z
3 -x,-y,-z
4 -1/2+x,-1/2-y,-1/2+z
_cell_length_a 12.216(3)
_cell_length_b 10.643(3)
_cell_length_c 12.866(3)
_cell_angle_alpha 90
_cell_angle_beta 117.560(9)
_cell_angle_gamma 90
_cell_formula_units_Z 4
loop_
_atom_type_symbol
_atom_type_radius_bond
C 0.68
H 0.23
N 0.68
O 0.68
loop_
_atom_site_label
_atom_site_type_symbol
_atom_site_fract_x
_atom_site_fract_y
_atom_site_fract_z
N1 N 0.87762(12) 0.49092(12) 0.06528(11)
N2 N 0.91157(12) 0.82224(13) 0.16430(12)
N3 N 1.04733(12) 0.57537(13) 0.21440(12)
O1 O 1.01809(12) 0.85394(12) 0.18041(13)
N4 N 0.74720(13) 0.69916(13) 0.12365(13)
C1 C 0.85912(14) 0.70213(15) 0.14059(14)
C2 C 0.75521(15) 0.48353(17) -0.02705(14)
H1 H 0.71500 0.55970 -0.06290
C3 C 0.93087(15) 0.59164(15) 0.14022(14)
C4 C 0.97164(14) 0.40243(15) 0.09586(14)
C5 C 0.97768(16) 0.28563(16) 0.04959(15)
H2 H 0.90820 0.25030 -0.01530
C6 C 1.07522(15) 0.45636(16) 0.18892(14)
C7 C 1.19322(17) 0.27567(17) 0.19703(16)
H3 H 1.26840 0.22960 0.23160
C8 C 1.18781(16) 0.39280(17) 0.24059(15)
H4 H 1.25840 0.42890 0.30370
C9 C 1.08980(17) 0.22385(17) 0.10284(16)
H5 H 1.09680 0.14340 0.07440
C10 C 0.82683(15) 0.90845(16) 0.18486(15)
C11 C 0.70540(15) 0.83163(16) 0.12143(15)
C12 C 0.87729(19) 0.9164(2) 0.31757(17)
H6 H 0.95360 0.96590 0.35120
H7 H 0.89450 0.83160 0.35100
H8 H 0.81610 0.95690 0.33570
C13 C 0.62228(18) 0.83938(19) 0.1800(2)
H9 H 0.54790 0.78900 0.13560
H10 H 0.59890 0.92710 0.18190
H11 H 0.66660 0.80710 0.26030
C14 C 0.82710(19) 1.03736(17) 0.13477(19)
H12 H 0.90770 1.07720 0.18080
H13 H 0.76250 1.08940 0.13790
H14 H 0.81130 1.02880 0.05310
C15 C 0.69383(17) 0.37821(19) -0.06616(18)
H15 H 0.73140 0.30030 -0.03220
H16 H 0.61190 0.37980 -0.12840
C16 C 0.63179(18) 0.8649(2) -0.00813(17)
H17 H 0.55630 0.81410 -0.04360
H18 H 0.68190 0.84770 -0.04800
H19 H 0.60990 0.95420 -0.01610
#END
