
#######################################################################
#
#                 Cambridge Crystallographic Data Centre
#                                CCDC
#
#######################################################################
#
# If this CIF has been generated from an entry in the Cambridge
# Structural Database, then it will include bibliographic, chemical,
# crystal, experimental, refinement or atomic coordinate data resulting
# from the CCDC's data processing and validation procedures.
#
#######################################################################

data_CSD_CIF_UDAVED
_audit_creation_date 2017-01-03
_audit_creation_method CSD-ConQuest-V1
_database_code_CSD UDAVED
_database_code_depnum_ccdc_archive 'CCDC 898160'
_chemical_formula_sum 'C12 H17 N4 O2'
_chemical_formula_moiety
;
C12 H17 N4 O2
;
_journal_coden_Cambridge 1078
_journal_year 2016
_journal_name_full 'CSD Communication(Private Communication) '
loop_
_publ_author_name
"I.Yu.Bagryanskaya"
"E.A.Mosotovich"
"D.G.Mazhukin"
_chemical_name_systematic
;
2-(1-ethenyl-1H-imidazol-2-yl)-4,4,5,5-tetramethyl-3-oxo-4,5-dihydro-1H-imidaz
ol-1-olate radical
;
_chemical_melting_point 462
_cell_volume   2548.410
_exptl_crystal_colour 'dark violet'
_exptl_crystal_density_diffrn 1.3
_exptl_crystal_description 'prism'
_diffrn_ambient_temperature 296
#These two values have been output from a single CSD field.
_refine_ls_R_factor_gt 0.0421
_refine_ls_wR_factor_gt 0.0421
_symmetry_cell_setting orthorhombic
_symmetry_space_group_name_H-M 'P b c a'
_symmetry_Int_Tables_number 61
loop_
_symmetry_equiv_pos_site_id
_symmetry_equiv_pos_as_xyz
1 x,y,z
2 1/2-x,-y,1/2+z
3 -x,1/2+y,1/2-z
4 1/2+x,1/2-y,-z
5 -x,-y,-z
6 -1/2+x,y,-1/2-z
7 x,-1/2-y,-1/2+z
8 -1/2-x,-1/2+y,z
_cell_length_a 14.3672(5)
_cell_length_b 11.3844(3)
_cell_length_c 15.5807(6)
_cell_angle_alpha 90
_cell_angle_beta 90
_cell_angle_gamma 90
_cell_formula_units_Z 8
loop_
_atom_type_symbol
_atom_type_radius_bond
C 0.68
H 0.23
N 0.68
O 0.68
loop_
_atom_site_label
_atom_site_type_symbol
_atom_site_fract_x
_atom_site_fract_y
_atom_site_fract_z
C1 C 0.23740(8) 0.28859(10) 0.17740(7)
C2 C 0.09946(8) 0.23527(10) 0.24768(7)
C3 C 0.30101(8) 0.33614(11) 0.11290(7)
C4 C 0.18392(8) 0.20863(11) 0.30713(7)
C5 C 0.35114(9) 0.14289(12) 0.05796(8)
H1 H 0.31100 0.10510 0.09580
C6 C 0.21333(11) 0.07980(12) 0.30861(9)
H2 H 0.21760 0.05090 0.25090
H3 H 0.16800 0.03470 0.33970
H4 H 0.27280 0.07280 0.33620
C7 C 0.40632(9) 0.34243(12) 0.01127(8)
H5 H 0.44950 0.32230 -0.03070
C8 C 0.38205(9) 0.45206(12) 0.03630(8)
H6 H 0.40680 0.52070 0.01340
C9 C 0.04948(9) 0.34943(12) 0.26937(9)
H7 H 0.09420 0.41180 0.27430
H8 H 0.01690 0.34060 0.32280
H9 H 0.00590 0.36790 0.22470
C10 C 0.03147(9) 0.13449(12) 0.23755(8)
H10 H -0.01860 0.15810 0.20060
H11 H 0.00700 0.11330 0.29280
H12 H 0.06290 0.06820 0.21290
C11 C 0.17523(11) 0.25588(14) 0.39752(8)
H13 H 0.22990 0.23560 0.42970
H14 H 0.12140 0.22220 0.42460
H15 H 0.16880 0.33980 0.39560
C12 C 0.40038(12) 0.07758(15) 0.00655(11)
H16 H 0.44130 0.11230 -0.03220
H17 H 0.39470 -0.00370 0.00860
N1 N 0.14838(7) 0.25843(9) 0.16390(6)
N2 N 0.26016(7) 0.27209(9) 0.26021(6)
N3 N 0.35411(7) 0.26670(9) 0.06053(6)
N4 N 0.31589(8) 0.44855(10) 0.10025(7)
O1 O 0.10553(7) 0.26245(10) 0.09233(6)
O2 O 0.33866(6) 0.29362(10) 0.29435(6)
#END
