
#######################################################################
#
#                 Cambridge Crystallographic Data Centre
#                                CCDC
#
#######################################################################
#
# If this CIF has been generated from an entry in the Cambridge
# Structural Database, then it will include bibliographic, chemical,
# crystal, experimental, refinement or atomic coordinate data resulting
# from the CCDC's data processing and validation procedures.
#
#######################################################################

data_CSD_CIF_UDAVAZ
_audit_creation_date 2017-01-03
_audit_creation_method CSD-ConQuest-V1
_database_code_CSD UDAVAZ
_database_code_depnum_ccdc_archive 'CCDC 898161'
_chemical_formula_sum 'C16 H19 N4 O2'
_chemical_formula_moiety
;
C16 H19 N4 O2
;
_journal_coden_Cambridge 1078
_journal_year 2016
_journal_name_full 'CSD Communication(Private Communication) '
loop_
_publ_author_name
"I.Yu.Bagryanskaya"
"E.A.Mosotovich"
"D.G.Mazhukin"
_chemical_name_systematic
;
2-(1-ethenyl-1H-benzimidazol-2-yl)-4,4,5,5-tetramethyl-3-oxo-4,5-dihydro-1H-im
idazol-1-olate radical
;
_chemical_melting_point 425
_cell_volume   1554.854
_exptl_crystal_colour 'dark violet'
_exptl_crystal_density_diffrn 1.279
_exptl_crystal_description 'plate'
_diffrn_ambient_temperature 223
#These two values have been output from a single CSD field.
_refine_ls_R_factor_gt 0.0622
_refine_ls_wR_factor_gt 0.0622
_symmetry_cell_setting monoclinic
_symmetry_space_group_name_H-M 'P 21/c'
_symmetry_Int_Tables_number 14
loop_
_symmetry_equiv_pos_site_id
_symmetry_equiv_pos_as_xyz
1 x,y,z
2 -x,1/2+y,1/2-z
3 -x,-y,-z
4 x,-1/2-y,-1/2+z
_cell_length_a 11.690(3)
_cell_length_b 12.080(3)
_cell_length_c 11.740(4)
_cell_angle_alpha 90
_cell_angle_beta 110.304(9)
_cell_angle_gamma 90
_cell_formula_units_Z 4
loop_
_atom_type_symbol
_atom_type_radius_bond
C 0.68
H 0.23
N 0.68
O 0.68
loop_
_atom_site_label
_atom_site_type_symbol
_atom_site_fract_x
_atom_site_fract_y
_atom_site_fract_z
C1 C 0.7471(2) 0.4329(2) 0.5697(3)
C2 C 0.8161(3) 0.1277(2) 0.6160(3)
C3 C 0.6323(3) 0.4441(3) 0.7109(3)
H1 H 0.67710 0.38510 0.75760
C4 C 0.6537(3) 0.5920(2) 0.5658(3)
C5 C 0.7161(3) 0.5898(3) 0.4840(3)
C6 C 0.7935(2) 0.3211(2) 0.6080(3)
C7 C 0.5375(3) 0.4771(3) 0.7349(3)
H2 H 0.48970 0.53580 0.69070
H3 H 0.51670 0.44230 0.79660
C8 C 0.9262(3) 0.1817(2) 0.7175(3)
C9 C 0.7201(3) 0.0822(3) 0.6637(4)
H4 H 0.69900 0.13830 0.71220
H5 H 0.75220 0.01750 0.71360
H6 H 0.64790 0.06170 0.59600
C10 C 0.5904(3) 0.6851(3) 0.5809(3)
H7 H 0.54750 0.68620 0.63540
C11 C 0.9531(3) 0.1338(3) 0.8435(3)
H8 H 1.01830 0.17560 0.90160
H9 H 0.97780 0.05700 0.84420
H10 H 0.88050 0.13800 0.86530
C12 C 0.7174(3) 0.6828(3) 0.4137(3)
H11 H 0.75900 0.68240 0.35810
C13 C 1.0421(3) 0.1862(3) 0.6875(3)
H12 H 1.02300 0.21120 0.60450
H13 H 1.07830 0.11300 0.69660
H14 H 1.09910 0.23730 0.74230
C14 C 0.5944(3) 0.7761(3) 0.5107(3)
H15 H 0.55390 0.84120 0.51910
C15 C 0.8491(3) 0.0443(3) 0.5372(3)
H16 H 0.77520 0.01590 0.47680
H17 H 0.89400 -0.01630 0.58720
H18 H 0.89920 0.07940 0.49690
C16 C 0.6554(3) 0.7751(3) 0.4290(4)
H19 H 0.65460 0.83880 0.38280
N1 N 0.7600(2) 0.22884(19) 0.5421(2)
N2 N 0.6746(2) 0.48813(18) 0.6214(2)
N3 N 0.8813(2) 0.2986(2) 0.7144(2)
N4 N 0.7734(2) 0.4889(2) 0.4877(2)
O1 O 0.6807(2) 0.22249(17) 0.4354(2)
O2 O 0.9330(2) 0.36927(18) 0.7961(2)
#END
