
#######################################################################
#
#                 Cambridge Crystallographic Data Centre
#                                CCDC
#
#######################################################################
#
# If this CIF has been generated from an entry in the Cambridge
# Structural Database, then it will include bibliographic, chemical,
# crystal, experimental, refinement or atomic coordinate data resulting
# from the CCDC's data processing and validation procedures.
#
#######################################################################

data_CSD_CIF_UDEGUH
_audit_creation_date 2013-07-30
_audit_creation_method CSD-ConQuest-V1
_database_code_CSD UDEGUH
_database_code_depnum_ccdc_archive 'CCDC 891138'
_chemical_formula_sum 'C14 H14 N2 O7'
_chemical_formula_moiety
;
C14 H14 N2 O7
;
_journal_coden_Cambridge 1137
_journal_volume 26
_journal_year 2013
_journal_page_first 64
_journal_name_full 'J.Phys.Org.Chem. '
loop_
_publ_author_name
"K.Yamaguchi"
"M.Eto"
"Y.Yoshitake"
"K.Harano"
_chemical_name_systematic
;
Dimethyl 
6-oxo-10,14-dioxa-8,9-diazapentacyclo[6.5.1.0^2,7^.0^4,11^.0^5,9^]tetradec-12-
ene-5,7-dicarboxylate
;
_cell_volume    662.003
_exptl_crystal_colour 'colorless'
_exptl_crystal_density_diffrn 1.617
_exptl_crystal_description 'prism'
_diffrn_ambient_temperature 288
#These two values have been output from a single CSD field.
_refine_ls_R_factor_gt 0.0515
_refine_ls_wR_factor_gt 0.0515
_symmetry_cell_setting triclinic
_symmetry_space_group_name_H-M 'P -1'
_symmetry_Int_Tables_number 2
loop_
_symmetry_equiv_pos_site_id
_symmetry_equiv_pos_as_xyz
1 x,y,z
2 -x,-y,-z
_cell_length_a 9.8624(13)
_cell_length_b 10.8024(12)
_cell_length_c 6.8313(8)
_cell_angle_alpha 70.311(3)
_cell_angle_beta 82.120(4)
_cell_angle_gamma 75.392(4)
_cell_formula_units_Z 2
loop_
_atom_type_symbol
_atom_type_radius_bond
C 0.68
H 0.23
N 0.68
O 0.68
loop_
_atom_site_label
_atom_site_type_symbol
_atom_site_fract_x
_atom_site_fract_y
_atom_site_fract_z
O1 O 0.0669(4) 0.8037(4) 0.6911(5)
O2 O 0.4860(3) 0.6384(3) 0.3799(5)
O3 O 0.4599(3) 0.8915(3) 0.2679(4)
O4 O 0.2856(4) 0.5202(4) 0.8993(5)
O5 O 0.1690(4) 0.4729(4) 0.6874(5)
O6 O 0.1661(4) 1.0441(3) 0.6682(5)
O7 O 0.2566(4) 1.1323(3) 0.3493(5)
N1 N 0.4093(4) 0.6866(3) 0.5373(5)
N2 N 0.3938(4) 0.8481(3) 0.4647(5)
C1 C 0.2658(5) 0.6672(4) 0.5471(6)
C2 C 0.2414(5) 0.6683(5) 0.3260(6)
C3 C 0.1562(5) 0.8111(5) 0.1991(7)
C4 C 0.2166(5) 0.9268(4) 0.2098(6)
C5 C 0.2425(4) 0.9082(4) 0.4399(6)
C6 C 0.1726(5) 0.7952(5) 0.5841(7)
C7 C 0.3927(5) 0.6324(4) 0.2328(7)
C8 C 0.4253(5) 0.7190(5) 0.0177(7)
C9 C 0.4129(5) 0.8464(5) -0.0375(7)
C10 C 0.3612(5) 0.9296(5) 0.1030(6)
C11 C 0.2449(5) 0.5464(5) 0.7294(7)
C12 C 0.1414(9) 0.3584(7) 0.8577(9)
C13 C 0.2134(5) 1.0365(4) 0.5001(7)
C14 C 0.2507(6) 1.2545(5) 0.3968(8)
H1 H 0.19110 0.59840 0.33750
H2 H 0.15890 0.81720 0.05230
H3 H 0.05870 0.82270 0.25570
H4 H 0.15120 1.01320 0.15250
H5 H 0.41180 0.53890 0.23310
H6 H 0.45650 0.67660 -0.08340
H7 H 0.43700 0.89000 -0.17570
H8 H 0.36070 1.02370 0.02090
H9 H 0.08970 0.38800 0.97300
H10 H 0.08610 0.31050 0.81190
H11 H 0.23130 0.29780 0.90450
H12 H 0.31050 1.23360 0.51210
H13 H 0.28470 1.31970 0.27350
H14 H 0.15400 1.29300 0.43620
#END
