
#######################################################################
#
#                 Cambridge Crystallographic Data Centre
#                                CCDC
#
#######################################################################
#
# If this CIF has been generated from an entry in the Cambridge
# Structural Database, then it will include bibliographic, chemical,
# crystal, experimental, refinement or atomic coordinate data resulting
# from the CCDC's data processing and validation procedures.
#
#######################################################################

data_CSD_CIF_UDEKET
_audit_creation_date 2002-04-16
_audit_creation_method CSD-ConQuest-V1
_database_code_CSD UDEKET
_chemical_formula_sum 'C18 H18 N2 O4'
_chemical_formula_moiety
;
C18 H18 N2 O4
;
_journal_coden_Cambridge 1336
_journal_volume 2
_journal_year 2000
_journal_page_first 4007
_journal_name_full 'Org.Lett. '
loop_
_publ_author_name
"D.C.Bland"
"B.C.Raudenbush"
"S.M.Weinreb"
_chemical_name_systematic
;
Ethyl 
8-cyano-2-oxo-3,3a,6,7-tetrahydro-2H-isoxazolo(2,3-a)pyridine-8-carboxylate
;
_cell_volume   1593.646
_exptl_crystal_colour 'colorless'
_exptl_crystal_density_diffrn 1.36
_exptl_crystal_description 'prism'
_diffrn_ambient_temperature 133
#These two values have been output from a single CSD field.
_refine_ls_R_factor_gt 0.0369
_refine_ls_wR_factor_gt 0.0369
_symmetry_cell_setting monoclinic
_symmetry_space_group_name_H-M 'P n'
_symmetry_Int_Tables_number 7
loop_
_symmetry_equiv_pos_site_id
_symmetry_equiv_pos_as_xyz
1 x,y,z
2 1/2+x,-y,1/2+z
_cell_length_a 16.4533(18)
_cell_length_b 6.3629(6)
_cell_length_c 17.252(2)
_cell_angle_alpha 90
_cell_angle_beta 118.072(2)
_cell_angle_gamma 90
_cell_formula_units_Z 4
loop_
_atom_type_symbol
_atom_type_radius_bond
C 0.68
H 0.23
N 0.68
O 0.68
loop_
_atom_site_label
_atom_site_type_symbol
_atom_site_fract_x
_atom_site_fract_y
_atom_site_fract_z
C1 C 0.26694(14) 0.6441(3) 0.26763(14)
C2 C 0.24134(15) 0.7335(3) 0.33808(13)
C3 C 0.32599(16) 0.8009(3) 0.42019(14)
C4 C 0.41118(16) 0.7520(3) 0.43820(15)
C5 C 0.43490(14) 0.6301(3) 0.37772(14)
C6 C 0.50738(16) 0.4604(3) 0.42419(14)
C7 C 0.49187(16) 0.2720(3) 0.36353(14)
C8 C 0.44641(15) 0.3281(3) 0.26825(14)
O1 O 0.37201(10) 0.4602(2) 0.24030(9)
N1 N 0.35180(12) 0.5182(2) 0.31239(11)
C9 C 0.19443(15) 0.4966(3) 0.20798(14)
N2 N 0.13855(13) 0.3837(3) 0.16223(13)
C10 C 0.27526(15) 0.8287(3) 0.21323(14)
O2 O 0.33884(12) 0.9481(2) 0.24184(11)
O3 O 0.20275(10) 0.8384(2) 0.13411(10)
C11 C 0.20379(18) 1.0017(3) 0.07426(15)
C12 C 0.25291(17) 0.9205(4) 0.02575(16)
C13 C 0.18356(14) 0.5824(3) 0.36086(14)
C14 C 0.09717(15) 0.6456(3) 0.34878(14)
C15 C 0.04411(16) 0.5127(4) 0.37050(15)
C16 C 0.07668(16) 0.3148(4) 0.40395(14)
C17 C 0.16202(17) 0.2506(3) 0.41572(14)
C18 C 0.21515(16) 0.3836(3) 0.39451(15)
O4 O 0.46775(11) 0.2710(2) 0.21404(11)
C19 C 0.27421(14) 0.8508(3) 0.74897(13)
C20 C 0.29704(14) 0.7866(3) 0.67382(13)
C21 C 0.21027(15) 0.7519(3) 0.58866(14)
C22 C 0.12776(15) 0.8155(3) 0.57319(14)
C23 C 0.10853(14) 0.9147(3) 0.64149(13)
C24 C 0.04618(15) 1.1072(3) 0.60945(14)
C25 C 0.03259(14) 1.1984(3) 0.68513(13)
C26 C 0.10523(14) 1.1507(3) 0.77639(14)
O5 O 0.17969(10) 1.0296(2) 0.79018(9)
N3 N 0.19538(11) 0.9964(3) 0.71352(10)
C27 C 0.35279(14) 0.9707(3) 0.81753(14)
N4 N 0.41323(12) 1.0641(3) 0.86938(12)
C28 C 0.25542(14) 0.6513(3) 0.78964(13)
O6 O 0.19412(11) 0.5327(2) 0.74749(10)
O7 O 0.31575(10) 0.6315(2) 0.87370(9)
C29 C 0.30282(15) 0.4483(3) 0.91829(14)
C30 C 0.38415(16) 0.4406(3) 1.00824(15)
C31 C 0.35904(15) 0.9422(3) 0.65924(13)
C32 C 0.44499(15) 0.8798(3) 0.67099(14)
C33 C 0.49962(15) 1.0169(3) 0.65306(15)
C34 C 0.46919(16) 1.2178(3) 0.62389(14)
C35 C 0.38360(16) 1.2823(3) 0.61193(15)
C36 C 0.32871(16) 1.1446(3) 0.62920(14)
O8 O 0.10116(10) 1.2027(2) 0.84153(10)
H1 H 0.20320 0.86230 0.31230
H2 H 0.31760 0.88380 0.46170
H3 H 0.46010 0.79700 0.49280
H4 H 0.45710 0.72850 0.34660
H5 H 0.50440 0.41350 0.47750
H6 H 0.56950 0.51960 0.44270
H7 H 0.55210 0.20550 0.37930
H8 H 0.45330 0.16710 0.37350
H9 H 0.23550 1.12860 0.10820
H10 H 0.13990 1.04100 0.03180
H11 H 0.24440 1.01920 -0.02110
H12 H 0.22760 0.78310 0.00000
H13 H 0.31880 0.90620 0.06660
H14 H 0.07440 0.78090 0.32540
H15 H -0.01440 0.55740 0.36240
H16 H 0.04050 0.22330 0.41880
H17 H 0.18430 0.11450 0.43850
H18 H 0.27380 0.33830 0.40310
H19 H 0.33050 0.64940 0.69090
H20 H 0.21540 0.67930 0.54300
H21 H 0.07800 0.79740 0.51570
H22 H 0.08120 0.80820 0.66510
H23 H -0.01420 1.06730 0.56020
H24 H 0.07430 1.21470 0.58790
H25 H 0.02750 1.35300 0.67820
H26 H -0.02700 1.14620 0.67870
H27 H 0.29940 0.31810 0.88550
H28 H 0.24510 0.46220 0.92240
H29 H 0.37840 0.31920 1.04030
H30 H 0.38640 0.56990 1.04010
H31 H 0.44080 0.42780 1.00320
H32 H 0.46660 0.74200 0.69150
H33 H 0.55810 0.97220 0.66090
H34 H 0.50680 1.31180 0.61200
H35 H 0.36250 1.42070 0.59190
H36 H 0.26990 1.18910 0.62040
#END
