
#######################################################################
#
#                 Cambridge Crystallographic Data Centre
#                                CCDC
#
#######################################################################
#
# If this CIF has been generated from an entry in the Cambridge
# Structural Database, then it will include bibliographic, chemical,
# crystal, experimental, refinement or atomic coordinate data resulting
# from the CCDC's data processing and validation procedures.
#
#######################################################################

data_CSD_CIF_UDEQEB
_audit_creation_date 2013-07-30
_audit_creation_method CSD-ConQuest-V1
_database_code_CSD UDEQEB
_database_code_depnum_ccdc_archive 'CCDC 941853'
_chemical_formula_sum 'C6 H4 N12 O17'
_chemical_formula_moiety
;
C6 H4 N12 O17
;
_journal_coden_Cambridge 1220
_journal_volume 19
_journal_year 2013
_journal_page_first 12446
_journal_name_full 'Chem.-Eur.J. '
loop_
_publ_author_name
"A.B.Sheremetev"
"N.S.Aleksandrova"
"N.V.Palysaeva"
"M.I.Struchkova"
"V.A.Tartakovsky"
"K.Yu.Suponitsky"
_chemical_name_systematic
;
N,N'-Dinitro-N,N'-bis(2,2,2-trinitroethyl)-1,2,5-oxadiazole-3,4-diamine
;
_cell_volume   1772.421
_exptl_crystal_colour 'yellow'
_exptl_crystal_density_diffrn 1.935
_exptl_crystal_description 'prism'
_diffrn_ambient_temperature 100
#These two values have been output from a single CSD field.
_refine_ls_R_factor_gt 0.0496
_refine_ls_wR_factor_gt 0.0496
_symmetry_cell_setting monoclinic
_symmetry_space_group_name_H-M 'P 21/n'
_symmetry_Int_Tables_number 14
loop_
_symmetry_equiv_pos_site_id
_symmetry_equiv_pos_as_xyz
1 x,y,z
2 1/2-x,1/2+y,1/2-z
3 -x,-y,-z
4 -1/2+x,-1/2-y,-1/2+z
_cell_length_a 16.001(5)
_cell_length_b 6.852(2)
_cell_length_c 16.772(5)
_cell_angle_alpha 90
_cell_angle_beta 105.449(4)
_cell_angle_gamma 90
_cell_formula_units_Z 4
loop_
_atom_type_symbol
_atom_type_radius_bond
C 0.68
H 0.23
N 0.68
O 0.68
loop_
_atom_site_label
_atom_site_type_symbol
_atom_site_fract_x
_atom_site_fract_y
_atom_site_fract_z
O1 O 0.61927(11) 0.2547(3) 0.90004(12)
O2 O 0.81158(12) 0.7125(3) 0.93726(12)
O3 O 0.81596(12) 0.8787(3) 1.05035(12)
O4 O 0.66682(13) 1.1162(3) 1.11250(14)
O5 O 0.75797(13) 0.9527(3) 1.20949(13)
O6 O 0.58648(14) 0.8272(3) 1.21530(14)
O7 O 0.58255(12) 0.5341(3) 1.16398(13)
O8 O 0.62423(12) 0.8704(3) 0.97466(12)
O9 O 0.51653(12) 0.7915(3) 1.02511(13)
O10 O 0.86145(12) 0.2796(3) 1.08641(12)
O11 O 0.96617(12) 0.1543(3) 1.04237(12)
O12 O 1.01807(12) 0.3958(3) 0.93130(12)
O13 O 1.04630(12) 0.3264(3) 0.81388(13)
O14 O 0.92791(13) -0.0058(3) 0.75947(13)
O15 O 0.87127(13) 0.2425(3) 0.68147(13)
O16 O 0.89183(13) 0.6125(3) 0.79992(13)
O17 O 0.77406(11) 0.4375(3) 0.78113(12)
N1 N 0.63055(14) 0.4170(3) 0.94928(15)
N2 N 0.69764(13) 0.1782(3) 0.89515(14)
N3 N 0.74750(14) 0.5947(3) 1.02958(14)
N4 N 0.79489(14) 0.7381(4) 1.00373(15)
N5 N 0.69824(15) 0.9668(4) 1.14719(15)
N6 N 0.60453(15) 0.7039(4) 1.17039(16)
N7 N 0.59284(14) 0.8143(3) 1.02924(15)
N8 N 0.84536(13) 0.2606(3) 0.94901(13)
N9 N 0.89499(14) 0.2265(3) 1.03311(14)
N10 N 0.99890(14) 0.3376(3) 0.85990(15)
N11 N 0.90077(14) 0.1604(4) 0.74736(15)
N12 N 0.85271(15) 0.4612(3) 0.80038(14)
C1 C 0.71428(17) 0.4423(4) 0.97448(17)
C2 C 0.75628(16) 0.2915(4) 0.94128(17)
C3 C 0.72727(18) 0.6165(5) 1.10786(18)
H1 H 0.7784(17) 0.660(4) 1.1503(18)
H2 H 0.7054(19) 0.493(5) 1.122(2)
C4 C 0.65843(16) 0.7712(4) 1.11138(17)
C5 C 0.86997(18) 0.1478(4) 0.88508(18)
H3 H 0.8217(19) 0.090(4) 0.8503(19)
H4 H 0.9126(17) 0.057(4) 0.9077(18)
C6 C 0.90478(16) 0.2752(4) 0.82619(17)
#END
