
#######################################################################
#
#                 Cambridge Crystallographic Data Centre
#                                CCDC
#
#######################################################################
#
# If this CIF has been generated from an entry in the Cambridge
# Structural Database, then it will include bibliographic, chemical,
# crystal, experimental, refinement or atomic coordinate data resulting
# from the CCDC's data processing and validation procedures.
#
#######################################################################

data_CSD_CIF_UDEYEJ
_audit_creation_date 2013-07-30
_audit_creation_method CSD-ConQuest-V1
_database_code_CSD UDEYEJ
_database_code_depnum_ccdc_archive 'CCDC 932928'
_chemical_formula_sum 'C5 H2 N8 O9'
_chemical_formula_moiety
;
C5 H2 N8 O9
;
_journal_coden_Cambridge 1220
_journal_volume 19
_journal_year 2013
_journal_page_first 12446
_journal_name_full 'Chem.-Eur.J. '
loop_
_publ_author_name
"A.B.Sheremetev"
"N.S.Aleksandrova"
"N.V.Palysaeva"
"M.I.Struchkova"
"V.A.Tartakovsky"
"K.Yu.Suponitsky"
_chemical_name_systematic
;
4-(Nitro(2,2,2-trinitroethyl)amino)-1,2,5-oxadiazole-3-carbonitrile
;
_cell_volume   1100.935
_exptl_crystal_colour 'yellow'
_exptl_crystal_density_diffrn 1.919
_exptl_crystal_description 'prism'
_diffrn_ambient_temperature 100
#These two values have been output from a single CSD field.
_refine_ls_R_factor_gt 0.0334
_refine_ls_wR_factor_gt 0.0334
_symmetry_cell_setting monoclinic
_symmetry_space_group_name_H-M 'P 21/n'
_symmetry_Int_Tables_number 14
loop_
_symmetry_equiv_pos_site_id
_symmetry_equiv_pos_as_xyz
1 x,y,z
2 1/2-x,1/2+y,1/2-z
3 -x,-y,-z
4 -1/2+x,-1/2-y,-1/2+z
_cell_length_a 6.9438(6)
_cell_length_b 7.2939(6)
_cell_length_c 21.7730(18)
_cell_angle_alpha 90
_cell_angle_beta 93.284(1)
_cell_angle_gamma 90
_cell_formula_units_Z 4
loop_
_atom_type_symbol
_atom_type_radius_bond
C 0.68
H 0.23
N 0.68
O 0.68
loop_
_atom_site_label
_atom_site_type_symbol
_atom_site_fract_x
_atom_site_fract_y
_atom_site_fract_z
O1 O 0.74951(11) 0.46692(11) 0.05840(3)
O2 O 0.30450(11) 0.57826(10) 0.18838(3)
O3 O 0.14062(10) 0.32911(10) 0.20457(3)
O4 O 0.46151(11) -0.18299(11) 0.08469(4)
O5 O 0.15839(11) -0.23505(11) 0.05901(4)
O6 O 0.05334(11) -0.08189(10) 0.18066(3)
O7 O -0.10457(10) 0.06937(11) 0.10742(3)
O8 O 0.14555(11) 0.32237(10) 0.06217(3)
O9 O 0.24656(12) 0.10922(11) 0.00137(3)
N1 N 0.59023(12) 0.36577(12) 0.07142(4)
N2 N 0.81700(12) 0.56800(12) 0.10810(4)
N3 N 0.41580(11) 0.30954(11) 0.15826(4)
N4 N 0.27651(11) 0.41359(11) 0.18553(3)
N5 N 0.29101(12) -0.14386(11) 0.08113(4)
N6 N 0.04067(12) 0.01046(11) 0.13408(4)
N7 N 0.20495(11) 0.16975(11) 0.05079(4)
N8 N 0.75126(13) 0.67540(13) 0.25901(4)
C1 C 0.56026(13) 0.40169(12) 0.12868(4)
C2 C 0.70235(13) 0.52845(12) 0.15189(4)
C3 C 0.39112(13) 0.11368(12) 0.15393(4)
C4 C 0.23550(12) 0.04514(12) 0.10627(4)
C5 C 0.73005(13) 0.60939(13) 0.21145(4)
H1 H 0.360(2) 0.063(2) 0.1937(7)
H2 H 0.5130(19) 0.0672(19) 0.1424(6)
#END
