
#######################################################################
#
#                 Cambridge Crystallographic Data Centre
#                                CCDC
#
#######################################################################
#
# If this CIF has been generated from an entry in the Cambridge
# Structural Database, then it will include bibliographic, chemical,
# crystal, experimental, refinement or atomic coordinate data resulting
# from the CCDC's data processing and validation procedures.
#
#######################################################################

data_CSD_CIF_UDEYAF
_audit_creation_date 2013-07-30
_audit_creation_method CSD-ConQuest-V1
_database_code_CSD UDEYAF
_database_code_depnum_ccdc_archive 'CCDC 932930'
_chemical_formula_sum 'C5 H5 N7 O9'
_chemical_formula_moiety
;
C5 H5 N7 O9
;
_journal_coden_Cambridge 1220
_journal_volume 19
_journal_year 2013
_journal_page_first 12446
_journal_name_full 'Chem.-Eur.J. '
loop_
_publ_author_name
"A.B.Sheremetev"
"N.S.Aleksandrova"
"N.V.Palysaeva"
"M.I.Struchkova"
"V.A.Tartakovsky"
"K.Yu.Suponitsky"
_chemical_name_systematic
;
4-Methyl-N-nitro-N-(2,2,2-trinitroethyl)-1,2,5-oxadiazol-3-amine
;
_cell_volume   1142.786
_exptl_crystal_colour 'colorless'
_exptl_crystal_density_diffrn 1.785
_exptl_crystal_description 'plate'
_diffrn_ambient_temperature 100
#These two values have been output from a single CSD field.
_refine_ls_R_factor_gt 0.0336
_refine_ls_wR_factor_gt 0.0336
_symmetry_cell_setting monoclinic
_symmetry_space_group_name_H-M 'P 21/c'
_symmetry_Int_Tables_number 14
loop_
_symmetry_equiv_pos_site_id
_symmetry_equiv_pos_as_xyz
1 x,y,z
2 -x,1/2+y,1/2-z
3 -x,-y,-z
4 x,-1/2-y,-1/2+z
_cell_length_a 10.1651(6)
_cell_length_b 9.8338(6)
_cell_length_c 11.5304(7)
_cell_angle_alpha 90
_cell_angle_beta 97.481(1)
_cell_angle_gamma 90
_cell_formula_units_Z 4
loop_
_atom_type_symbol
_atom_type_radius_bond
C 0.68
H 0.23
N 0.68
O 0.68
loop_
_atom_site_label
_atom_site_type_symbol
_atom_site_fract_x
_atom_site_fract_y
_atom_site_fract_z
O1 O 0.68911(8) 0.79830(8) 0.55563(7)
O2 O 0.51983(7) 0.94490(7) 0.23506(6)
O3 O 0.48314(7) 1.16314(7) 0.23054(6)
O4 O 0.73140(8) 1.28658(8) 0.21925(6)
O5 O 0.79808(10) 1.47651(8) 0.30475(7)
O6 O 0.68360(8) 1.44794(8) 0.53725(7)
O7 O 0.89824(8) 1.41727(9) 0.56145(7)
O8 O 0.89910(7) 1.12264(8) 0.52177(7)
O9 O 0.96699(8) 1.20521(10) 0.36472(8)
N1 N 0.63053(8) 0.92091(8) 0.52420(7)
N2 N 0.76981(8) 0.75513(9) 0.47346(8)
N3 N 0.63922(7) 1.07596(7) 0.36741(6)
N4 N 0.53799(7) 1.06113(7) 0.27016(6)
N5 N 0.76536(8) 1.35813(8) 0.30394(7)
N6 N 0.78576(8) 1.39442(8) 0.51611(7)
N7 N 0.89056(8) 1.19682(8) 0.43663(7)
C1 C 0.67387(8) 0.95244(8) 0.42621(7)
C2 C 0.76207(9) 0.84997(9) 0.39404(8)
C3 C 0.64094(8) 1.20335(8) 0.43146(7)
C4 C 0.76690(8) 1.28616(8) 0.42103(7)
C5 C 0.83582(11) 0.84587(12) 0.29130(9)
H1 H 0.8991(17) 0.9206(17) 0.2961(15)
H2 H 0.778(2) 0.860(2) 0.2225(17)
H3 H 0.8842(17) 0.7609(18) 0.2916(15)
H4 H 0.6399(12) 1.1828(12) 0.5127(11)
H5 H 0.5669(12) 1.2563(13) 0.4044(10)
#END
