
#######################################################################
#
#                 Cambridge Crystallographic Data Centre
#                                CCDC
#
#######################################################################
#
# If this CIF has been generated from an entry in the Cambridge
# Structural Database, then it will include bibliographic, chemical,
# crystal, experimental, refinement or atomic coordinate data resulting
# from the CCDC's data processing and validation procedures.
#
#######################################################################

data_CSD_CIF_UDIDIW
_audit_creation_date 2013-07-30
_audit_creation_method CSD-ConQuest-V1
_database_code_CSD UDIDIW
_database_code_depnum_ccdc_archive 'CCDC 926109'
_chemical_formula_sum 'C12 H8 N4 O1'
_chemical_formula_moiety
;
C12 H8 N4 O1
;
_journal_coden_Cambridge 1290
_journal_year 2013
_journal_page_first 4931
_journal_name_full 'Eur.J.Inorg.Chem. '
loop_
_publ_author_name
"Julia Klingele"
"D.Kaase"
"M.Schmucker"
"L.Meier"
_chemical_name_systematic
;
2,2'-(1,2,4-Oxadiazole-3,5-diyl)dipyridine
;
_cell_volume   8273.408
_exptl_crystal_colour 'colorless'
_exptl_crystal_density_diffrn 1.44
_exptl_crystal_description 'plate'
_diffrn_ambient_temperature 113
#These two values have been output from a single CSD field.
_refine_ls_R_factor_gt 0.0437
_refine_ls_wR_factor_gt 0.0437
_symmetry_cell_setting orthorhombic
_symmetry_space_group_name_H-M 'F d d 2'
_symmetry_Int_Tables_number 43
loop_
_symmetry_equiv_pos_site_id
_symmetry_equiv_pos_as_xyz
1 x,y,z
2 -x,-y,z
3 1/4-x,1/4+y,1/4+z
4 3/4+x,3/4-y,1/4+z
5 x,1/2+y,1/2+z
6 -x,1/2-y,1/2+z
7 1/4-x,3/4+y,3/4+z
8 3/4+x,1/4-y,3/4+z
9 1/2+x,y,1/2+z
10 1/2-x,-y,1/2+z
11 3/4-x,1/4+y,3/4+z
12 1/4+x,3/4-y,3/4+z
13 1/2+x,1/2+y,z
14 1/2-x,1/2-y,z
15 3/4-x,3/4+y,1/4+z
16 1/4+x,1/4-y,1/4+z
_cell_length_a 16.987(3)
_cell_length_b 22.724(5)
_cell_length_c 21.433(4)
_cell_angle_alpha 90
_cell_angle_beta 90
_cell_angle_gamma 90
_cell_formula_units_Z 32
loop_
_atom_type_symbol
_atom_type_radius_bond
C 0.68
H 0.23
N 0.68
O 0.68
loop_
_atom_site_label
_atom_site_type_symbol
_atom_site_fract_x
_atom_site_fract_y
_atom_site_fract_z
O1 O 0.8402(1) 0.02575(8) -0.85438(8)
N1 N 0.99098(10) -0.11074(8) -0.90005(10)
N2 N 0.89178(10) -0.02354(8) -0.85863(8)
N3 N 0.74151(11) 0.11777(9) -0.87717(9)
N4 N 0.86404(10) 0.00867(8) -0.95501(9)
C1 C 1.03699(14) -0.15390(12) -0.92112(11)
H1 H 1.06350 -0.17770 -0.89140
C2 C 1.04849(13) -0.16614(11) -0.98411(11)
H2 H 1.08160 -0.19760 -0.99700
C3 C 1.01022(13) -0.13119(11) -1.02740(12)
H3 H 1.01680 -0.13820 -1.07080
C4 C 0.96214(13) -0.08581(11) -1.00683(11)
H4 H 0.93530 -0.06110 -1.03560
C5 C 0.95441(12) -0.07763(10) -0.94307(11)
C6 C 0.90298(12) -0.03043(10) -0.91914(10)
C7 C 0.82698(12) 0.04137(10) -0.91301(11)
C8 C 0.77633(12) 0.09235(10) -0.92684(11)
C9 C 0.76851(13) 0.11169(11) -0.98745(11)
H5 H 0.79460 0.09220 -1.02080
C10 C 0.72103(14) 0.16088(11) -0.99847(12)
H6 H 0.71480 0.17600 -1.03950
C11 C 0.68355(15) 0.18691(11) -0.94874(13)
H7 H 0.65020 0.22000 -0.95490
C12 C 0.69511(14) 0.16420(11) -0.88956(12)
H8 H 0.66870 0.18250 -0.85570
O2 O 0.47033(10) 0.08375(7) -0.79011(8)
N5 N 0.60158(11) 0.23604(9) -0.77380(9)
N6 N 0.52163(10) 0.13332(8) -0.79563(8)
N7 N 0.37202(11) -0.00261(8) -0.75127(9)
N8 N 0.49352(10) 0.11868(8) -0.69440(9)
C13 C 0.64757(13) 0.28322(10) -0.76259(12)
H9 H 0.66330 0.30680 -0.79700
C14 C 0.67296(13) 0.29898(11) -0.70376(12)
H10 H 0.70520 0.33270 -0.69810
C15 C 0.65089(13) 0.26515(11) -0.65311(12)
H11 H 0.66740 0.27520 -0.61210
C16 C 0.60393(12) 0.21608(10) -0.66368(11)
H12 H 0.58790 0.19170 -0.63000
C17 C 0.58084(12) 0.20329(11) -0.72424(11)
C18 C 0.53189(12) 0.15149(10) -0.73776(10)
C19 C 0.45682(12) 0.07868(10) -0.7291(1)
C20 C 0.40369(12) 0.03226(10) -0.70692(11)
C21 C 0.38667(13) 0.02719(10) -0.64381(11)
H13 H 0.41140 0.05200 -0.61400
C22 C 0.33266(13) -0.0150(1) -0.62546(12)
H14 H 0.31890 -0.01930 -0.58270
C23 C 0.29909(14) -0.05067(11) -0.67013(11)
H15 H 0.26190 -0.07990 -0.65850
C24 C 0.32014(13) -0.04355(11) -0.73207(11)
H16 H 0.29690 -0.06870 -0.76240
#END
