
#######################################################################
#
#                 Cambridge Crystallographic Data Centre
#                                CCDC
#
#######################################################################
#
# If this CIF has been generated from an entry in the Cambridge
# Structural Database, then it will include bibliographic, chemical,
# crystal, experimental, refinement or atomic coordinate data resulting
# from the CCDC's data processing and validation procedures.
#
#######################################################################

data_CSD_CIF_UDOMUW
_audit_creation_date 2007-09-12
_audit_creation_method CSD-ConQuest-V1
_database_code_CSD UDOMUW
_database_code_depnum_ccdc_archive 'CCDC 659419'
_chemical_formula_sum 'C11 H21 N2 O2'
_chemical_formula_moiety
;
C11 H21 N2 O2
;
_journal_coden_Cambridge 241
_journal_volume 36
_journal_year 2007
_journal_page_first 866
_journal_name_full 'Chem.Lett. '
loop_
_publ_author_name
"Y.Yonekuta"
"K.Oyaizu"
"H.Nishide"
_chemical_name_systematic
;
4-acetamide-2,2,6,6-tetramethylpiperidine-1-oxyl
;
_cell_volume   1226.218
_exptl_crystal_colour 'red'
_exptl_crystal_density_diffrn 1.155
_exptl_crystal_description 'platelet'
_exptl_crystal_preparation 'acetonitrile/diethyl ether'
_diffrn_ambient_temperature 296.1
#These two values have been output from a single CSD field.
_refine_ls_R_factor_gt 0.0435
_refine_ls_wR_factor_gt 0.0435
_symmetry_cell_setting monoclinic
_symmetry_space_group_name_H-M 'P 21/a'
_symmetry_Int_Tables_number 14
loop_
_symmetry_equiv_pos_site_id
_symmetry_equiv_pos_as_xyz
1 x,y,z
2 1/2-x,1/2+y,-z
3 -x,-y,-z
4 -1/2+x,-1/2-y,z
_cell_length_a 10.2123(11)
_cell_length_b 10.8058(11)
_cell_length_c 11.8824(18)
_cell_angle_alpha 90
_cell_angle_beta 110.747(5)
_cell_angle_gamma 90
_cell_formula_units_Z 4
loop_
_atom_type_symbol
_atom_type_radius_bond
C 0.68
H 0.23
N 0.68
O 0.68
loop_
_atom_site_label
_atom_site_type_symbol
_atom_site_fract_x
_atom_site_fract_y
_atom_site_fract_z
O1 O 0.79294(18) 0.29445(14) 0.67226(14)
O2 O 0.65752(18) -0.27017(17) 0.79535(16)
N1 N 0.81640(17) 0.17866(16) 0.69684(15)
N2 N 0.85348(18) -0.20869(16) 0.76529(16)
C1 C 0.8091(2) 0.0970(2) 0.59326(18)
C2 C 0.8623(2) -0.0333(2) 0.63802(19)
C3 C 0.8038(2) -0.08218(19) 0.73021(18)
C4 C 0.8501(2) 0.0030(2) 0.83846(19)
C5 C 0.7961(2) 0.1353(2) 0.80931(19)
C6 C 0.9014(2) 0.1533(2) 0.5297(2)
C7 C 0.6575(2) 0.0935(2) 0.5054(2)
C8 C 0.8793(3) 0.2212(2) 0.9119(2)
C9 C 0.6397(2) 0.1425(2) 0.7918(2)
C10 C 0.7769(2) -0.2920(2) 0.79755(19)
C11 C 0.8448(3) -0.4163(2) 0.8363(2)
H1 H 0.97300 -0.03360 0.68620
H2 H 0.83100 -0.08460 0.55720
H3 H 0.69570 -0.09090 0.69980
H4 H 0.96130 0.00630 0.87080
H5 H 0.81430 -0.03170 0.90280
H6 H 0.99410 0.15450 0.58600
H7 H 0.86510 0.24150 0.49900
H8 H 0.88710 0.09450 0.45410
H9 H 0.62360 0.18570 0.47460
H10 H 0.59860 0.05970 0.55560
H11 H 0.64150 0.03170 0.43060
H12 H 0.99180 0.21560 0.93120
H13 H 0.85280 0.31560 0.88420
H14 H 0.86080 0.19460 0.98420
H15 H 0.59980 0.23240 0.76390
H16 H 0.62680 0.12340 0.87390
H17 H 0.57880 0.08340 0.72090
H18 H 0.95980 -0.22660 0.77430
H19 H 0.94380 -0.41420 0.84430
H20 H 0.79980 -0.47620 0.77030
H21 H 0.83780 -0.44020 0.91630
#END
