
#######################################################################
#
#                 Cambridge Crystallographic Data Centre
#                                CCDC
#
#######################################################################
#
# If this CIF has been generated from an entry in the Cambridge
# Structural Database, then it will include bibliographic, chemical,
# crystal, experimental, refinement or atomic coordinate data resulting
# from the CCDC's data processing and validation procedures.
#
#######################################################################

data_CSD_CIF_UDOQIP
_audit_creation_date 2013-07-31
_audit_creation_method CSD-ConQuest-V1
_database_code_CSD UDOQIP
_database_code_depnum_ccdc_archive 'CCDC 936982'
_chemical_formula_sum 'C15 H11 N3 O6'
_chemical_formula_moiety
;
C15 H11 N3 O6
;
_journal_coden_Cambridge 1078
_journal_year 2013
_journal_name_full 'CSD Communication(Private Communication) '
loop_
_publ_author_name
"X.G.Mera"
_chemical_name_systematic
;
6,7-Dihydro-5H-cyclopenta[b]pyridin-7-yl 3,5-dinitrobenzoate
;
_cell_volume   1410.945
_exptl_crystal_colour 'colorless'
_exptl_crystal_density_diffrn 1.55
_exptl_special_details
;
contribution from Dpto. de Quimica Organica, Facultade de Farmacia, 
Universidade de Santiago de Compostela, 15782 - Santiago de Compostela, 
Galiza, Spain
;
_exptl_crystal_description 'prism'
_diffrn_ambient_temperature 100
#These two values have been output from a single CSD field.
_refine_ls_R_factor_gt 0.0369
_refine_ls_wR_factor_gt 0.0369
_symmetry_cell_setting monoclinic
_symmetry_space_group_name_H-M 'P 21'
_symmetry_Int_Tables_number 4
loop_
_symmetry_equiv_pos_site_id
_symmetry_equiv_pos_as_xyz
1 x,y,z
2 -x,1/2+y,-z
_cell_length_a 17.8786(9)
_cell_length_b 4.6661(3)
_cell_length_c 18.6319(8)
_cell_angle_alpha 90
_cell_angle_beta 114.804(2)
_cell_angle_gamma 90
_cell_formula_units_Z 4
loop_
_atom_type_symbol
_atom_type_radius_bond
C 0.68
H 0.23
N 0.68
O 0.68
loop_
_atom_site_label
_atom_site_type_symbol
_atom_site_fract_x
_atom_site_fract_y
_atom_site_fract_z
C1 C 0.74292(8) 1.1077(3) 0.27299(7)
H1 H 0.70450 1.27530 0.25820
C2 C 0.74231(8) 0.9573(4) 0.19952(8)
H2 H 0.71780 1.08400 0.15280
H3 H 0.70950 0.77880 0.18880
C3 C 0.83280(8) 0.8882(4) 0.21687(8)
H4 H 0.84530 0.68340 0.23050
H5 H 0.84460 0.93430 0.17080
C4 C 0.88148(8) 1.0775(4) 0.28617(8)
C5 C 0.96498(9) 1.1411(4) 0.32226(8)
H6 H 1.00230 1.05740 0.30400
C6 C 0.99246(9) 1.3288(4) 0.38526(8)
H7 H 1.04910 1.37970 0.41050
C7 C 0.93653(9) 1.4427(4) 0.41144(8)
H8 H 0.95650 1.57210 0.45480
N1 N 0.85624(7) 1.3801(3) 0.37895(7)
C8 C 0.83106(8) 1.2012(3) 0.31751(7)
O1 O 0.72494(5) 0.9085(2) 0.32435(5)
C9 C 0.64529(7) 0.8663(3) 0.30827(7)
O2 O 0.58838(5) 0.9882(2) 0.25740(5)
C10 C 0.63596(8) 0.6473(3) 0.36268(7)
C11 C 0.55705(8) 0.5857(3) 0.35677(7)
H9 H 0.51030 0.68480 0.31990
C12 C 0.54859(8) 0.3780(3) 0.40559(7)
C13 C 0.61485(8) 0.2300(3) 0.46142(7)
H10 H 0.60780 0.08770 0.49450
C14 C 0.69172(8) 0.3020(3) 0.46600(7)
C15 C 0.70441(8) 0.5055(3) 0.41836(7)
H11 H 0.75840 0.54780 0.42340
N2 N 0.46571(7) 0.3093(3) 0.39952(7)
O3 O 0.40867(6) 0.4609(3) 0.35737(6)
O4 O 0.45864(7) 0.1039(3) 0.43738(6)
N3 N 0.76415(7) 0.1508(3) 0.52408(6)
O5 O 0.75207(7) -0.0632(3) 0.55609(6)
O6 O 0.83218(6) 0.2487(3) 0.53735(6)
C16 C 0.24177(8) 1.0488(4) 0.22550(8)
H12 H 0.27620 1.22650 0.23720
C17 C 0.24393(8) 0.9067(4) 0.30014(8)
H13 H 0.25500 1.05050 0.34250
H14 H 0.28740 0.75820 0.31950
C18 C 0.15797(9) 0.7703(4) 0.27630(8)
H15 H 0.15820 0.56530 0.26270
H16 H 0.13960 0.78820 0.31930
C19 C 0.10410(8) 0.9422(4) 0.20527(7)
C20 C 0.01931(8) 0.9589(4) 0.16552(8)
H17 H -0.01550 0.84050 0.17980
C21 C -0.01296(9) 1.1542(4) 0.10423(8)
H18 H -0.07090 1.17670 0.07660
C22 C 0.03995(9) 1.3173(4) 0.08334(8)
H19 H 0.01630 1.45330 0.04190
N4 N 0.12218(8) 1.2941(3) 0.11811(7)
C23 C 0.15134(8) 1.1090(4) 0.17814(7)
O7 O 0.26291(6) 0.8428(2) 0.17725(5)
C24 C 0.34206(8) 0.8240(3) 0.18979(7)
O8 O 0.39729(5) 0.9658(2) 0.23648(5)
C25 C 0.35310(8) 0.6061(3) 0.13595(7)
C26 C 0.43237(8) 0.5658(3) 0.14007(7)
H20 H 0.47770 0.67390 0.17590
C27 C 0.44291(8) 0.3645(3) 0.09064(7)
C28 C 0.37899(8) 0.2053(3) 0.03611(7)
H21 H 0.38780 0.06890 0.00260
C29 C 0.30146(8) 0.2566(3) 0.03328(7)
C30 C 0.28662(8) 0.4512(3) 0.08202(7)
H22 H 0.23260 0.47830 0.07870
N5 N 0.52643(7) 0.3178(3) 0.09493(6)
O9 O 0.58045(6) 0.4866(2) 0.13416(6)
O10 O 0.53684(6) 0.1151(3) 0.05829(6)
N6 N 0.23128(7) 0.0975(3) -0.02508(6)
O11 O 0.24620(6) -0.1040(3) -0.05937(6)
O12 O 0.16197(6) 0.1748(3) -0.03625(6)
#END
