
#######################################################################
#
#                 Cambridge Crystallographic Data Centre
#                                CCDC
#
#######################################################################
#
# If this CIF has been generated from an entry in the Cambridge
# Structural Database, then it will include bibliographic, chemical,
# crystal, experimental, refinement or atomic coordinate data resulting
# from the CCDC's data processing and validation procedures.
#
#######################################################################

data_CSD_CIF_UDUGEI
_audit_creation_date 2018-07-30
_audit_creation_method CSD-ConQuest-V1
_database_code_CSD UDUGEI
_database_code_depnum_ccdc_archive 'CCDC 1839209'
_chemical_formula_sum 'C21 H20 N2 O1'
_chemical_formula_moiety
;
C21 H20 N2 O1
;
_journal_coden_Cambridge 16
_journal_volume 74
_journal_year 2018
_journal_page_first 5665
_journal_name_full 'Tetrahedron '
loop_
_publ_author_name
"K.K.Afanaseva"
"M.M.Efremova"
"S.V.Kuznetsova"
"A.V.Ivanov"
"G.L.Starova"
"A.P.Molchanov"
_chemical_name_systematic
;
2-(2-phenyl-1H-pyrrol-1-yl)-1,5,6,10b-tetrahydro-2H-[1,2]oxazolo[3,2-a]isoquin
oline
;
_cell_volume   1643.614
_exptl_crystal_colour 'colorless'
_exptl_crystal_density_diffrn 1.279
_exptl_crystal_description 'prism'
_diffrn_ambient_temperature 100
#These two values have been output from a single CSD field.
_refine_ls_R_factor_gt 0.0298
_refine_ls_wR_factor_gt 0.0298
_symmetry_cell_setting orthorhombic
_symmetry_space_group_name_H-M 'P n a 21'
_symmetry_Int_Tables_number 33
loop_
_symmetry_equiv_pos_site_id
_symmetry_equiv_pos_as_xyz
1 x,y,z
2 -x,-y,1/2+z
3 1/2-x,1/2+y,1/2+z
4 1/2+x,1/2-y,z
_cell_length_a 11.6753(2)
_cell_length_b 19.6276(4)
_cell_length_c 7.17240(17)
_cell_angle_alpha 90
_cell_angle_beta 90
_cell_angle_gamma 90
_cell_formula_units_Z 4
loop_
_atom_type_symbol
_atom_type_radius_bond
C 0.68
H 0.23
N 0.68
O 0.68
loop_
_atom_site_label
_atom_site_type_symbol
_atom_site_fract_x
_atom_site_fract_y
_atom_site_fract_z
O1 O -0.50943(10) -0.29350(6) -0.47065(18)
N1 N -0.46412(11) -0.17734(7) -0.4583(2)
N2 N -0.48764(12) -0.34233(7) -0.3210(2)
C1 C -0.43310(13) -0.12061(8) -0.5611(2)
C2 C -0.35014(14) -0.12334(8) -0.7159(2)
C3 C -0.41685(13) -0.24548(8) -0.4839(2)
H1 H -0.38132 -0.24878 -0.60731
C4 C -0.40607(14) -0.30638(8) -0.1989(2)
H2 H -0.44913 -0.27375 -0.12291
C5 C -0.33043(14) -0.26604(8) -0.3353(3)
H3 H -0.29665 -0.22648 -0.27574
H4 H -0.27010 -0.29429 -0.38695
C6 C -0.35001(15) -0.42479(9) -0.0899(3)
C7 C -0.34305(15) -0.35404(8) -0.0692(2)
C8 C -0.23601(14) -0.14348(8) -0.6895(2)
H5 H -0.21085 -0.15608 -0.57136
C9 C -0.49546(14) -0.06605(9) -0.4953(2)
H6 H -0.49191 -0.02154 -0.53943
C10 C -0.38597(15) -0.10491(8) -0.8956(2)
H7 H -0.46159 -0.09192 -0.91550
C11 C -0.54488(14) -0.15845(9) -0.3277(2)
H8 H -0.57908 -0.18715 -0.24087
C12 C -0.27657(15) -0.32570(9) 0.0730(2)
H9 H -0.27220 -0.27861 0.08556
C13 C -0.56616(14) -0.09002(9) -0.3479(3)
H10 H -0.61732 -0.06417 -0.27813
C14 C -0.30967(16) -0.10588(8) -1.0442(3)
H11 H -0.33422 -0.09324 -1.16260
C15 C -0.16023(14) -0.14467(9) -0.8394(3)
H12 H -0.08479 -0.15827 -0.82077
C16 C -0.19634(15) -0.12576(9) -1.0160(3)
H13 H -0.14517 -0.12633 -1.11539
C17 C -0.22522(16) -0.43792(9) 0.1784(3)
H14 H -0.18683 -0.46612 0.26172
C18 C -0.43597(15) -0.40367(9) -0.4042(3)
H15 H -0.36287 -0.39259 -0.46084
H16 H -0.48593 -0.42226 -0.49952
C19 C -0.41952(16) -0.45507(8) -0.2476(3)
H17 H -0.49373 -0.46923 -0.20083
H18 H -0.38063 -0.49504 -0.29579
C20 C -0.29061(15) -0.46598(9) 0.0368(3)
H19 H -0.29517 -0.51310 0.02563
C21 C -0.21701(15) -0.36738(9) 0.1958(2)
H20 H -0.17191 -0.34833 0.28909
#END
