
#######################################################################
#
#                 Cambridge Crystallographic Data Centre
#                                CCDC
#
#######################################################################
#
# If this CIF has been generated from an entry in the Cambridge
# Structural Database, then it will include bibliographic, chemical,
# crystal, experimental, refinement or atomic coordinate data resulting
# from the CCDC's data processing and validation procedures.
#
#######################################################################

data_CSD_CIF_UFADIQ
_audit_creation_date 2013-07-31
_audit_creation_method CSD-ConQuest-V1
_database_code_CSD UFADIQ
_database_code_depnum_ccdc_archive 'CCDC 740295'
_chemical_formula_sum 'C14 H19 N1 O5'
_chemical_formula_moiety
;
C14 H19 N1 O5
;
_journal_coden_Cambridge 1078
_journal_year 2009
_journal_name_full 'CSD Communication(Private Communication) '
loop_
_publ_author_name
"S.S.Barasa"
"J.E.Warren"
"J.M.Gardiner"
_chemical_name_systematic
;
5-(4-Methoxybenzyl)-2,2-dimethyl-5-nitro-1,3-dioxane
;
_cell_volume   1401.630
_exptl_crystal_colour 'colorless'
_exptl_crystal_density_diffrn 1.332
_exptl_special_details
;
contribution from Manchester Interdisciplinary Biocentre, The University of 
Manchester, Manchester M1 7DN, UK
;
_exptl_crystal_description 'needle'
_diffrn_ambient_temperature 150
#These two values have been output from a single CSD field.
_refine_ls_R_factor_gt 0.0469
_refine_ls_wR_factor_gt 0.0469
_symmetry_cell_setting monoclinic
_symmetry_space_group_name_H-M 'P 21/c'
_symmetry_Int_Tables_number 14
loop_
_symmetry_equiv_pos_site_id
_symmetry_equiv_pos_as_xyz
1 x,y,z
2 -x,1/2+y,1/2-z
3 -x,-y,-z
4 x,-1/2-y,-1/2+z
_cell_length_a 23.3757(10)
_cell_length_b 5.9794(2)
_cell_length_c 10.0425(3)
_cell_angle_alpha 90
_cell_angle_beta 93.087(1)
_cell_angle_gamma 90
_cell_formula_units_Z 4
loop_
_atom_type_symbol
_atom_type_radius_bond
C 0.68
H 0.23
N 0.68
O 0.68
loop_
_atom_site_label
_atom_site_type_symbol
_atom_site_fract_x
_atom_site_fract_y
_atom_site_fract_z
C1 C 0.09281(7) 0.0576(3) 0.12472(17)
C2 C 0.19377(7) 0.0845(3) 0.17615(16)
H1 H 0.22240 0.04040 0.24490
H2 H 0.19520 0.24270 0.16270
C3 C 0.20653(7) -0.0292(3) 0.04609(15)
C4 C 0.15562(7) -0.0014(3) -0.05378(16)
H3 H 0.15800 -0.10130 -0.13330
H4 H 0.15610 0.15990 -0.08270
C5 C 0.08227(8) 0.3062(3) 0.1002(2)
H5 H 0.11390 0.38370 0.05910
H6 H 0.07660 0.38270 0.18680
H7 H 0.04500 0.32240 0.04310
C6 C 0.04214(8) -0.0551(3) 0.1830(2)
H8 H 0.03660 0.00690 0.27620
H9 H 0.00590 -0.02940 0.12530
H10 H 0.05200 -0.21820 0.19120
C7 C 0.26306(7) 0.0518(3) -0.01157(16)
H11 H 0.26730 -0.03190 -0.09740
H12 H 0.25570 0.21010 -0.03140
C8 C 0.31481(7) 0.0247(3) 0.08392(17)
C9 C 0.34868(7) -0.1658(3) 0.08288(17)
H13 H 0.34010 -0.28110 0.01130
C10 C 0.39408(8) -0.1997(3) 0.17681(18)
H14 H 0.41730 -0.33880 0.17310
C11 C 0.40528(7) -0.0409(3) 0.27496(17)
C12 C 0.37247(8) 0.1540(3) 0.27650(18)
H15 H 0.38050 0.26800 0.34720
C13 C 0.32833(8) 0.1862(3) 0.18193(18)
H16 H 0.30560 0.32430 0.18560
C14 C 0.48309(9) -0.2500(4) 0.3758(2)
H17 H 0.51160 -0.22630 0.45450
H18 H 0.45970 -0.38640 0.38950
H19 H 0.50170 -0.26480 0.29180
N1 N 0.21499(6) -0.2796(2) 0.07290(13)
O1 O 0.10328(5) -0.0599(2) 0.00444(11)
O2 O 0.13957(5) 0.02031(19) 0.22037(11)
O3 O 0.21154(6) -0.4062(2) -0.02280(12)
O4 O 0.22725(6) -0.3428(2) 0.18647(12)
O5 O 0.44799(5) -0.0561(2) 0.37390(13)
#END
