
#######################################################################
#
#                 Cambridge Crystallographic Data Centre
#                                CCDC
#
#######################################################################
#
# If this CIF has been generated from an entry in the Cambridge
# Structural Database, then it will include bibliographic, chemical,
# crystal, experimental, refinement or atomic coordinate data resulting
# from the CCDC's data processing and validation procedures.
#
#######################################################################

data_CSD_CIF_UFAJIV
_audit_creation_date 2007-09-12
_audit_creation_method CSD-ConQuest-V1
_database_code_CSD UFAJIV
_database_code_depnum_ccdc_archive 'CCDC 659073'
_chemical_formula_sum 'C19 H22 N2 O7'
_chemical_formula_moiety
;
C19 H22 N2 O7
;
_journal_coeditor_code "IUCr EZ2085"
_journal_coden_Cambridge 1370
_journal_volume 63
_journal_year 2007
_journal_page_first o3451
_journal_name_full 'Acta Crystallogr.,Sect.E:Struct.Rep.Online '
loop_
_publ_author_name
"Feng-Xia Sun"
"Fu-Gang Rong"
"Xiao-He Chu"
"Shu-Xia Yan"
_chemical_name_systematic
;
3-(2-Methoxyethyl) 5-methyl 
2,6-dimethyl-4-(3-nitrophenyl)-1,4-dihydropyridine-3,5-dicarboxylate
;
_chemical_melting_point 413
_cell_volume   1899.113
_exptl_crystal_colour 'yellow'
_exptl_crystal_density_diffrn 1.365
_exptl_special_details
;
Melting point range 413-414K

;
_exptl_crystal_description 'block'
_exptl_crystal_preparation 'ethyl acetate/petroleum ether'
_diffrn_ambient_temperature 293
#These two values have been output from a single CSD field.
_refine_ls_R_factor_gt 0.055
_refine_ls_wR_factor_gt 0.055
_symmetry_cell_setting monoclinic
_symmetry_space_group_name_H-M 'P 21/c'
_symmetry_Int_Tables_number 14
loop_
_symmetry_equiv_pos_site_id
_symmetry_equiv_pos_as_xyz
1 x,y,z
2 -x,1/2+y,1/2-z
3 -x,-y,-z
4 x,-1/2-y,-1/2+z
_cell_length_a 14.575(3)
_cell_length_b 9.909(2)
_cell_length_c 14.522(3)
_cell_angle_alpha 90
_cell_angle_beta 115.11(3)
_cell_angle_gamma 90
_cell_formula_units_Z 4
loop_
_atom_type_symbol
_atom_type_radius_bond
C 0.68
H 0.23
N 0.68
O 0.68
loop_
_atom_site_label
_atom_site_type_symbol
_atom_site_fract_x
_atom_site_fract_y
_atom_site_fract_z
O1 O 0.60094(10) 0.61768(13) 1.13994(9)
O2 O 0.49017(10) 0.70189(13) 1.19424(9)
O3 O 0.24981(11) 1.05799(13) 1.00474(10)
O4 O 0.2042(1) 1.08548(14) 0.8381(1)
O5 O 0.12560(11) 1.32144(15) 0.70977(11)
O6 O 0.14553(13) 0.79275(18) 1.19824(13)
O7 O 0.04605(11) 0.62697(15) 1.12708(12)
N1 N 0.45194(12) 0.83737(15) 0.86965(11)
N2 N 0.11639(12) 0.70158(17) 1.13617(12)
C1 C 0.58383(15) 0.67373(19) 0.94922(14)
H1 H 0.64740 0.69930 1.00330
H2 H 0.58660 0.68740 0.88500
H3 H 0.57070 0.58030 0.95640
C2 C 0.50064(13) 0.75855(17) 0.95394(13)
C3 C 0.47090(13) 0.76349(17) 1.03097(13)
C4 C 0.37869(13) 0.84412(17) 1.02140(13)
H4 H 0.39800 0.89900 1.08290
C5 C 0.34163(14) 0.93896(17) 0.93035(13)
C6 C 0.37773(13) 0.93152(17) 0.85898(13)
C7 C 0.35141(16) 1.01866(19) 0.76676(13)
H5 H 0.30900 1.09180 0.76860
H6 H 0.31590 0.96580 0.70660
H7 H 0.41240 1.05410 0.76600
C8 C 0.51996(13) 0.69282(17) 1.12730(13)
C9 C 0.64973(16) 0.5507(2) 1.23687(14)
H8 H 0.66560 0.61560 1.29050
H9 H 0.71100 0.50850 1.24200
H10 H 0.60510 0.48340 1.24260
C10 C 0.29293(13) 0.75040(17) 1.01454(12)
C11 C 0.26034(14) 0.64731(18) 0.94289(14)
H11 H 0.29170 0.63570 0.89950
C12 C 0.18251(14) 0.56185(19) 0.93470(15)
H12 H 0.16190 0.49380 0.88600
C13 C 0.13505(14) 0.57720(19) 0.99865(14)
H13 H 0.08330 0.51930 0.99470
C14 C 0.16678(13) 0.68103(17) 1.06860(13)
C15 C 0.24447(14) 0.76776(17) 1.07778(13)
H14 H 0.26390 0.83680 1.12570
C16 C 0.26331(14) 1.03323(17) 0.92952(13)
C17 C 0.12072(16) 1.1692(2) 0.83370(16)
H15 H 0.14610 1.24410 0.88080
H16 H 0.07480 1.11680 0.85210
C18 C 0.06682(15) 1.2205(2) 0.72745(16)
H17 H 0.05530 1.14690 0.67980
H18 H 0.00150 1.25730 0.71730
C19 C 0.08013(19) 1.3655(3) 0.60699(18)
H19 H 0.07610 1.29130 0.56300
H20 H 0.12030 1.43630 0.59760
H21 H 0.01320 1.39880 0.59100
H22 H 0.4693(16) 0.831(2) 0.8182(12)
#END
