
#######################################################################
#
#                 Cambridge Crystallographic Data Centre
#                                CCDC
#
#######################################################################
#
# If this CIF has been generated from an entry in the Cambridge
# Structural Database, then it will include bibliographic, chemical,
# crystal, experimental, refinement or atomic coordinate data resulting
# from the CCDC's data processing and validation procedures.
#
#######################################################################

data_CSD_CIF_UFALOC
_audit_creation_date 2002-04-16
_audit_creation_method CSD-ConQuest-V1
_database_code_CSD UFALOC
_database_code_depnum_ccdc_archive 'CCDC 166140'
_chemical_formula_sum 'C27 H25 N5 O7'
_chemical_formula_moiety
;
C27 H25 N5 O7
;
_journal_coden_Cambridge 1094
_journal_volume 13
_journal_year 2002
_journal_page_first 27
_journal_name_full 'Struct.Chem. '
loop_
_publ_author_name
"A.Castaldo"
"R.Centore"
"A.Peluso"
"A.Sirigu"
"A.Tuzi"
_chemical_name_systematic
;
2-(4-(4-(N,N-bis(2-(Acetoxy)ethyl)amino)phenylazo)phenyl)-6-nitrobenzoxazole
;
_cell_volume   2579.542
_exptl_crystal_colour 'brown'
_exptl_crystal_density_diffrn 1.369
_exptl_crystal_description 'plate'
_exptl_crystal_preparation 'toluene/methanol'
_diffrn_ambient_temperature 293
#These two values have been output from a single CSD field.
_refine_ls_R_factor_gt 0.0837
_refine_ls_wR_factor_gt 0.0837
_symmetry_cell_setting triclinic
_symmetry_space_group_name_H-M 'P -1'
_symmetry_Int_Tables_number 2
loop_
_symmetry_equiv_pos_site_id
_symmetry_equiv_pos_as_xyz
1 x,y,z
2 -x,-y,-z
_cell_length_a 8.766(9)
_cell_length_b 12.381(3)
_cell_length_c 24.498(7)
_cell_angle_alpha 83.35(2)
_cell_angle_beta 83.98(5)
_cell_angle_gamma 78.59(4)
_cell_formula_units_Z 4
loop_
_atom_type_symbol
_atom_type_radius_bond
C 0.68
H 0.23
N 0.68
O 0.68
loop_
_atom_site_label
_atom_site_type_symbol
_atom_site_fract_x
_atom_site_fract_y
_atom_site_fract_z
O1 O 0.4562(6) 0.4284(4) 0.4303(2)
O2 O 0.8775(7) 0.5007(5) 0.2777(3)
O3 O 0.9876(7) 0.3348(5) 0.2637(2)
O4 O -0.8671(7) 0.6639(5) 0.8562(2)
O5 O -0.9543(8) 0.8300(5) 0.8138(3)
O6 O -0.6269(8) 0.3419(5) 0.9304(3)
O7 O -0.4472(9) 0.1945(7) 0.9458(3)
N1 N -0.6052(8) 0.4813(5) 0.8249(3)
N2 N -0.1741(8) 0.3937(5) 0.6403(3)
N3 N -0.0909(8) 0.4632(5) 0.6247(3)
N4 N 0.4205(8) 0.2535(5) 0.4298(3)
N5 N 0.8835(8) 0.4009(7) 0.2855(3)
C1 C -0.5065(9) 0.4660(7) 0.7772(3)
C2 C -0.4050(9) 0.5388(6) 0.7568(3)
H1 H -0.41170 0.60260 0.77430
C3 C -0.2969(9) 0.5207(6) 0.7127(3)
H2 H -0.23200 0.57130 0.70090
C4 C -0.2847(9) 0.4268(7) 0.6860(3)
C5 C -0.3876(9) 0.3546(6) 0.7032(3)
H3 H -0.38310 0.29320 0.68410
C6 C -0.4970(9) 0.3723(6) 0.7483(3)
H4 H -0.56370 0.32250 0.75940
C7 C 0.0264(9) 0.4261(8) 0.5812(3)
C8 C 0.1106(9) 0.5055(7) 0.5561(3)
H5 H 0.08800 0.57660 0.56730
C9 C 0.2275(9) 0.4795(6) 0.5147(3)
H6 H 0.28610 0.53180 0.49890
C10 C 0.2564(9) 0.3747(7) 0.4969(3)
C11 C 0.1715(9) 0.2954(7) 0.5223(3)
H7 H 0.19240 0.22480 0.51060
C12 C 0.0582(9) 0.3200(7) 0.5643(3)
H8 H 0.00330 0.26640 0.58130
C13 C 0.3762(9) 0.3470(7) 0.4524(3)
C14 C 0.5595(9) 0.3805(7) 0.3905(3)
C15 C 0.6671(9) 0.4273(6) 0.3560(3)
H9 H 0.67580 0.50110 0.35550
C16 C 0.7607(9) 0.3560(7) 0.3223(3)
C17 C 0.7469(9) 0.2477(7) 0.3198(3)
H10 H 0.81290 0.20450 0.29520
C18 C 0.6351(9) 0.2040(6) 0.3540(3)
H11 H 0.62350 0.13120 0.35290
C19 C 0.5404(9) 0.2716(7) 0.3899(3)
C20 C -0.6043(9) 0.5716(7) 0.8586(3)
H12 H -0.49770 0.58290 0.85810
H13 H -0.63870 0.54920 0.89640
C21 C -0.7056(10) 0.6799(7) 0.8402(3)
H14 H -0.68270 0.73970 0.85840
H15 H -0.68940 0.69700 0.80060
C22 C -0.9817(14) 0.7494(9) 0.8418(4)
C23 C -1.1404(11) 0.7231(9) 0.8622(4)
H16 H -1.12760 0.65240 0.88360
H17 H -1.19810 0.72110 0.83120
H18 H -1.19620 0.77910 0.88460
C24 C -0.7162(9) 0.4090(7) 0.8431(3)
H19 H -0.75400 0.38770 0.81080
H20 H -0.80490 0.45020 0.86370
C25 C -0.6522(9) 0.3061(7) 0.8783(4)
H21 H -0.72590 0.25600 0.88390
H22 H -0.55480 0.26830 0.86090
C26 C -0.5232(13) 0.2768(10) 0.9612(5)
C27 C -0.5126(12) 0.3241(8) 1.0131(4)
H23 H -0.58760 0.39180 1.01520
H24 H -0.40940 0.33890 1.01390
H25 H -0.53380 0.27230 1.04400
O8 O 0.9796(6) 0.1478(4) 0.4247(2)
O9 O 1.3787(8) 0.1938(6) 0.2613(3)
O10 O 1.3718(7) 0.0530(6) 0.2167(3)
O11 O -0.0602(7) 0.3425(5) 0.9045(3)
O12 O -0.2213(15) 0.4680(8) 0.9406(4)
O13 O 0.1172(11) 0.0677(6) 0.9217(3)
O14 O 0.1660(9) -0.1149(6) 0.9305(3)
N6 N -0.0615(8) 0.1743(5) 0.8302(3)
N7 N 0.4112(7) 0.1067(5) 0.6581(3)
N8 N 0.4449(7) 0.1883(6) 0.6267(3)
N9 N 0.9030(8) -0.0178(6) 0.4227(3)
N10 N 1.3344(9) 0.1076(7) 0.2563(3)
C28 C 0.0572(10) 0.1624(7) 0.7884(3)
C29 C 0.0773(9) 0.2475(7) 0.7480(3)
H26 H 0.01010 0.31550 0.74960
C30 C 0.1928(9) 0.2349(7) 0.7056(3)
H27 H 0.20520 0.29470 0.68000
C31 C 0.2913(9) 0.1332(7) 0.7010(3)
C32 C 0.2731(9) 0.0487(7) 0.7407(3)
H28 H 0.33980 -0.01940 0.73840
C33 C 0.1592(9) 0.0604(7) 0.7844(3)
H29 H 0.15050 0.00120 0.81090
C34 C 0.5580(9) 0.1551(7) 0.5821(3)
C35 C 0.6430(9) 0.2330(7) 0.5574(3)
H30 H 0.62860 0.30220 0.57050
C36 C 0.7512(9) 0.2067(7) 0.5125(3)
H31 H 0.80670 0.25940 0.49490
C37 C 0.7757(8) 0.1036(7) 0.4944(3)
C38 C 0.6878(9) 0.0281(6) 0.5192(3)
H32 H 0.70240 -0.04120 0.50620
C39 C 0.5791(9) 0.0523(7) 0.5629(3)
H33 H 0.52070 0.00030 0.57910
C40 C 0.8855(10) 0.0737(7) 0.4475(3)
C41 C 1.0602(9) 0.0974(7) 0.3800(3)
C42 C 1.1672(9) 0.1382(7) 0.3423(4)
H34 H 1.19860 0.20510 0.34420
C43 C 1.2236(9) 0.0687(8) 0.3010(3)
C44 C 1.1818(10) -0.0296(8) 0.2973(4)
H35 H 1.22340 -0.07040 0.26780
C45 C 1.0787(10) -0.0693(7) 0.3366(3)
H36 H 1.05150 -0.13770 0.33530
C46 C 1.0157(9) -0.0024(7) 0.3791(3)
C47 C -0.1725(9) 0.2782(8) 0.8320(3)
H37 H -0.26350 0.26410 0.85580
H38 H -0.20620 0.30060 0.79530
C48 C -0.1185(10) 0.3745(7) 0.8515(4)
H39 H -0.03700 0.39730 0.82540
H40 H -0.20500 0.43670 0.85390
C49 C -0.1179(15) 0.3923(10) 0.9465(4)
C50 C -0.0500(14) 0.3506(9) 0.9984(4)
H41 H 0.03250 0.28830 0.99260
H42 H -0.12910 0.32810 1.02500
H43 H -0.00880 0.40780 1.01180
C51 C -0.1018(10) 0.0807(7) 0.8662(4)
H44 H -0.05500 0.01300 0.84980
H45 H -0.21420 0.08620 0.86910
C52 C -0.0487(14) 0.0737(8) 0.9232(4)
H46 H -0.10220 0.13830 0.94110
H47 H -0.07640 0.00870 0.94490
C53 C 0.2157(16) -0.0297(9) 0.9233(4)
C54 C 0.3845(14) -0.0207(9) 0.9180(5)
H48 H 0.39320 0.05600 0.91280
H49 H 0.43700 -0.05730 0.88690
H50 H 0.43140 -0.05490 0.95090
#END
