
#######################################################################
#
#                 Cambridge Crystallographic Data Centre
#                                CCDC
#
#######################################################################
#
# If this CIF has been generated from an entry in the Cambridge
# Structural Database, then it will include bibliographic, chemical,
# crystal, experimental, refinement or atomic coordinate data resulting
# from the CCDC's data processing and validation procedures.
#
#######################################################################

data_CSD_CIF_UFEDOY
_audit_creation_date 2002-04-16
_audit_creation_method CSD-ConQuest-V1
_database_code_CSD UFEDOY
_database_code_depnum_ccdc_archive 'CCDC 183012'
_chemical_formula_sum 'C10 H10 N4 O3'
_chemical_formula_moiety
;
C10 H10 N4 O3
;
_journal_coeditor_code "IUCr BM1482"
_journal_coden_Cambridge 591
_journal_volume 58
_journal_year 2002
_journal_page_first o174
_journal_name_full 'Acta Crystallogr.,Sect.C:Cryst.Struct.Commun. '
loop_
_publ_author_name
"S.Saha"
_chemical_name_systematic
;
4-Nitro-7-(pyrrolidin-1-yl)-2,1,3-benzoxadiazole
;
_cell_volume   1021.921
_exptl_crystal_colour 'red'
_exptl_crystal_density_diffrn 1.522
_exptl_crystal_description 'plate'
_exptl_crystal_preparation 'absolute ethanol'
_diffrn_ambient_temperature 293
#These two values have been output from a single CSD field.
_refine_ls_R_factor_gt 0.04
_refine_ls_wR_factor_gt 0.04
_symmetry_cell_setting monoclinic
_symmetry_space_group_name_H-M 'P 21/c'
_symmetry_Int_Tables_number 14
loop_
_symmetry_equiv_pos_site_id
_symmetry_equiv_pos_as_xyz
1 x,y,z
2 x,1/2-y,1/2+z
3 -x,-y,-z
4 -x,-1/2+y,-1/2-z
_cell_length_a 7.0305(12)
_cell_length_b 7.686(2)
_cell_length_c 18.951(4)
_cell_angle_alpha 90
_cell_angle_beta 93.69(2)
_cell_angle_gamma 90
_cell_formula_units_Z 4
loop_
_atom_type_symbol
_atom_type_radius_bond
C 0.68
H 0.23
N 0.68
O 0.68
loop_
_atom_site_label
_atom_site_type_symbol
_atom_site_fract_x
_atom_site_fract_y
_atom_site_fract_z
O1 O 0.2690(3) 0.8573(3) -0.09335(10)
O2 O -0.4294(3) 0.5178(3) -0.09702(11)
O3 O -0.2182(3) 0.6025(3) -0.16753(11)
N1 N 0.1009(4) 0.7768(3) -0.11805(12)
N2 N 0.2838(3) 0.8727(3) -0.02154(11)
N3 N 0.1732(3) 0.8478(3) 0.1262(1)
N4 N -0.2778(4) 0.5912(3) -0.10808(13)
C1 C 0.0126(4) 0.7436(3) -0.06054(12)
C2 C 0.1267(3) 0.8039(3) -0.00047(12)
C3 C 0.0666(3) 0.7902(3) 0.07072(12)
C4 C -0.1128(4) 0.7131(4) 0.07570(13)
H1 H -0.16120 0.70240 0.12000
C5 C -0.2204(4) 0.6522(3) 0.01718(14)
H2 H -0.33750 0.60100 0.02430
C6 C -0.1646(4) 0.6630(3) -0.05071(13)
C7 C 0.1109(4) 0.8452(4) 0.19888(13)
H3 H 0.10660 0.72730 0.21690
H4 H -0.01390 0.89800 0.20110
C8 C 0.2615(5) 0.9508(5) 0.23955(15)
H5 H 0.22670 1.07290 0.23990
H6 H 0.27980 0.91000 0.28790
C9 C 0.4362(5) 0.9238(5) 0.20103(15)
H7 H 0.49900 0.81620 0.21580
H8 H 0.52470 1.01940 0.20970
C10 C 0.3690(4) 0.9159(4) 0.12478(13)
H9 H 0.36950 1.03050 0.10330
H10 H 0.44830 0.83860 0.09880
#END
