
#######################################################################
#
#                 Cambridge Crystallographic Data Centre
#                                CCDC
#
#######################################################################
#
# If this CIF has been generated from an entry in the Cambridge
# Structural Database, then it will include bibliographic, chemical,
# crystal, experimental, refinement or atomic coordinate data resulting
# from the CCDC's data processing and validation procedures.
#
#######################################################################

data_CSD_CIF_UFEDUE
_audit_creation_date 2002-04-16
_audit_creation_method CSD-ConQuest-V1
_database_code_CSD UFEDUE
_database_code_depnum_ccdc_archive 'CCDC 183013'
_chemical_formula_sum 'C11 H12 N4 O3'
_chemical_formula_moiety
;
C11 H12 N4 O3
;
_journal_coeditor_code "IUCr BM1482"
_journal_coden_Cambridge 591
_journal_volume 58
_journal_year 2002
_journal_page_first o174
_journal_name_full 'Acta Crystallogr.,Sect.C:Cryst.Struct.Commun. '
loop_
_publ_author_name
"S.Saha"
_chemical_name_systematic
;
4-Nitro-7-(piperidin-1-yl)-2,1,3-benzoxadiazole
;
_cell_volume   1117.858
_exptl_crystal_colour 'red'
_exptl_crystal_density_diffrn 1.475
_exptl_crystal_description 'plate'
_exptl_crystal_preparation 'absolute ethanol'
_diffrn_ambient_temperature 293
#These two values have been output from a single CSD field.
_refine_ls_R_factor_gt 0.069
_refine_ls_wR_factor_gt 0.069
_symmetry_cell_setting monoclinic
_symmetry_space_group_name_H-M 'P 21/c'
_symmetry_Int_Tables_number 14
loop_
_symmetry_equiv_pos_site_id
_symmetry_equiv_pos_as_xyz
1 x,y,z
2 x,1/2-y,1/2+z
3 -x,-y,-z
4 -x,-1/2+y,-1/2-z
_cell_length_a 6.7644(19)
_cell_length_b 21.277(6)
_cell_length_c 7.788(6)
_cell_angle_alpha 90
_cell_angle_beta 94.22(5)
_cell_angle_gamma 90
_cell_formula_units_Z 4
loop_
_atom_type_symbol
_atom_type_radius_bond
C 0.68
H 0.23
N 0.68
O 0.68
loop_
_atom_site_label
_atom_site_type_symbol
_atom_site_fract_x
_atom_site_fract_y
_atom_site_fract_z
O1 O 1.2708(6) 0.1956(2) 0.5115(5)
O2 O 0.8613(7) 0.41196(19) 0.2956(6)
O3 O 1.1369(7) 0.3836(2) 0.4337(6)
N1 N 1.2214(7) 0.2591(2) 0.4846(7)
N2 N 1.1279(7) 0.1568(2) 0.4370(6)
N3 N 0.7555(7) 0.1166(2) 0.2282(6)
N4 N 0.9771(8) 0.3714(2) 0.3535(6)
C1 C 1.0516(8) 0.2576(3) 0.3919(7)
C2 C 0.9927(7) 0.1935(3) 0.3611(6)
C3 C 0.8069(8) 0.1761(3) 0.2639(7)
C4 C 0.6909(8) 0.2287(3) 0.2131(7)
H1 H 0.56730 0.22180 0.15570
C5 C 0.7508(8) 0.2900(3) 0.2441(7)
H2 H 0.66640 0.32210 0.20350
C6 C 0.9263(8) 0.3065(3) 0.3306(6)
C7 C 0.5635(8) 0.1013(3) 0.1391(8)
H3 H 0.58310 0.08650 0.02390
H4 H 0.48200 0.13890 0.12920
C8 C 0.4588(8) 0.0514(3) 0.2361(8)
H5 H 0.42070 0.06880 0.34400
H6 H 0.33890 0.03880 0.16890
C9 C 0.5864(8) -0.0050(3) 0.2723(7)
H7 H 0.60730 -0.02630 0.16500
H8 H 0.51930 -0.03390 0.34470
C10 C 0.7837(8) 0.0128(3) 0.3607(7)
H9 H 0.86710 -0.02420 0.37390
H10 H 0.76450 0.02920 0.47450
C11 C 0.8844(7) 0.0617(3) 0.2572(7)
H11 H 1.00800 0.07440 0.31850
H12 H 0.91470 0.04410 0.14740
#END
