
#######################################################################
#
#                 Cambridge Crystallographic Data Centre
#                                CCDC
#
#######################################################################
#
# If this CIF has been generated from an entry in the Cambridge
# Structural Database, then it will include bibliographic, chemical,
# crystal, experimental, refinement or atomic coordinate data resulting
# from the CCDC's data processing and validation procedures.
#
#######################################################################

data_CSD_CIF_UFEFAM
_audit_creation_date 2002-04-16
_audit_creation_method CSD-ConQuest-V1
_database_code_CSD UFEFAM
_database_code_depnum_ccdc_archive 'CCDC 183014'
_chemical_formula_sum 'C12 H14 N4 O3'
_chemical_formula_moiety
;
C12 H14 N4 O3
;
_journal_coeditor_code "IUCr BM1482"
_journal_coden_Cambridge 591
_journal_volume 58
_journal_year 2002
_journal_page_first o174
_journal_name_full 'Acta Crystallogr.,Sect.C:Cryst.Struct.Commun. '
loop_
_publ_author_name
"S.Saha"
_chemical_name_systematic
;
4-(Azepan-1-yl)-7-nitro-2,1,3-benzoxadiazole
;
_cell_volume   1206.746
_exptl_crystal_colour 'red'
_exptl_crystal_density_diffrn 1.444
_exptl_crystal_description 'plate'
_exptl_crystal_preparation 'absolute ethanol'
_diffrn_ambient_temperature 293
#These two values have been output from a single CSD field.
_refine_ls_R_factor_gt 0.051
_refine_ls_wR_factor_gt 0.051
_symmetry_cell_setting monoclinic
_symmetry_space_group_name_H-M 'P 21/c'
_symmetry_Int_Tables_number 14
loop_
_symmetry_equiv_pos_site_id
_symmetry_equiv_pos_as_xyz
1 x,y,z
2 -x,1/2+y,1/2-z
3 -x,-y,-z
4 x,-1/2-y,-1/2+z
_cell_length_a 7.4909(16)
_cell_length_b 10.8002(14)
_cell_length_c 15.1001(19)
_cell_angle_alpha 90
_cell_angle_beta 98.958(14)
_cell_angle_gamma 90
_cell_formula_units_Z 4
loop_
_atom_type_symbol
_atom_type_radius_bond
C 0.68
H 0.23
N 0.68
O 0.68
loop_
_atom_site_label
_atom_site_type_symbol
_atom_site_fract_x
_atom_site_fract_y
_atom_site_fract_z
O1 O 0.8728(4) -0.1494(2) 0.06047(15)
O2 O 0.4812(4) -0.0492(2) -0.27555(16)
O3 O 0.6308(4) -0.1977(2) -0.20052(18)
N1 N 0.7892(4) -0.1647(2) -0.02781(18)
N2 N 0.8594(4) -0.0311(2) 0.09053(17)
N3 N 0.7419(4) 0.2345(2) 0.08964(17)
N4 N 0.5748(4) -0.0910(3) -0.20698(18)
C1 C 0.7237(4) -0.0540(3) -0.0513(2)
C2 C 0.7682(4) 0.0303(3) 0.02302(19)
C3 C 0.7099(4) 0.1577(3) 0.0190(2)
C4 C 0.6087(5) 0.1927(3) -0.0638(2)
H1 H 0.56800 0.27390 -0.07100
C5 C 0.5672(4) 0.1114(3) -0.1349(2)
H2 H 0.49890 0.14080 -0.18750
C6 C 0.6217(4) -0.0107(3) -0.13214(19)
C7 C 0.6450(5) 0.3529(3) 0.0889(3)
H3 H 0.62380 0.37130 0.14930
H4 H 0.52830 0.34470 0.05130
C8 C 0.7461(6) 0.4605(3) 0.0551(3)
H5 H 0.79170 0.43450 0.00130
H6 H 0.66160 0.52770 0.03850
C9 C 0.9029(6) 0.5090(3) 0.1219(3)
H7 H 0.96600 0.57150 0.09260
H8 H 0.85480 0.54900 0.17060
C10 C 1.0379(5) 0.4115(3) 0.1611(3)
H9 H 1.14000 0.45230 0.19680
H10 H 1.08250 0.36880 0.11240
C11 C 0.9609(5) 0.3161(3) 0.2194(3)
H11 H 1.05820 0.28710 0.26460
H12 H 0.87340 0.35720 0.25030
C12 C 0.8711(5) 0.2050(3) 0.1709(2)
H13 H 0.96400 0.15110 0.15430
H14 H 0.80790 0.15940 0.21200
#END
