
#######################################################################
#
#                 Cambridge Crystallographic Data Centre
#                                CCDC
#
#######################################################################
#
# If this CIF has been generated from an entry in the Cambridge
# Structural Database, then it will include bibliographic, chemical,
# crystal, experimental, refinement or atomic coordinate data resulting
# from the CCDC's data processing and validation procedures.
#
#######################################################################

data_CSD_CIF_UFEGAN
_audit_creation_date 2002-04-16
_audit_creation_method CSD-ConQuest-V1
_database_code_CSD UFEGAN
_database_code_depnum_ccdc_archive 'CCDC 183033'
_chemical_formula_sum 'C18 H16 N4 O2'
_chemical_formula_moiety
;
C18 H16 N4 O2
;
_journal_coeditor_code "IUCr OA1128"
_journal_coden_Cambridge 591
_journal_volume 58
_journal_year 2002
_journal_page_first o183
_journal_name_full 'Acta Crystallogr.,Sect.C:Cryst.Struct.Commun. '
loop_
_publ_author_name
"M.Kaftory"
"V.Shteiman"
"M.Botoshansky"
_chemical_name_systematic
;
Dispiro(2H-benzimidazole-2,1'-cyclohexane-4',2''-(2H)benzimidazole)-1,1''-diox
ide
;
_cell_volume    377.126
_exptl_crystal_colour 'yellow'
_exptl_crystal_density_diffrn 1.411
_exptl_crystal_description 'plate'
_diffrn_ambient_temperature 293
#These two values have been output from a single CSD field.
_refine_ls_R_factor_gt 0.0534
_refine_ls_wR_factor_gt 0.0534
_symmetry_cell_setting triclinic
_symmetry_space_group_name_H-M 'P -1'
_symmetry_Int_Tables_number 2
loop_
_symmetry_equiv_pos_site_id
_symmetry_equiv_pos_as_xyz
1 x,y,z
2 -x,-y,-z
_cell_length_a 5.416(2)
_cell_length_b 7.290(2)
_cell_length_c 10.426(3)
_cell_angle_alpha 104.39(3)
_cell_angle_beta 104.15(3)
_cell_angle_gamma 98.41(3)
_cell_formula_units_Z 1
loop_
_atom_type_symbol
_atom_type_radius_bond
C 0.68
H 0.23
N 0.68
O 0.68
loop_
_atom_site_label
_atom_site_type_symbol
_atom_site_fract_x
_atom_site_fract_y
_atom_site_fract_z
O1 O -0.0836(4) 0.7268(3) 0.3112(2)
N1 N 0.0766(4) 0.7937(3) 0.2539(2)
N2 N 0.2981(4) 0.8060(3) 0.0879(2)
C1 C 0.2504(5) 0.9603(4) 0.2994(3)
C2 C 0.3161(6) 1.1149(4) 0.4242(3)
C3 C 0.5157(6) 1.2607(4) 0.4436(3)
C4 C 0.6519(6) 1.2672(4) 0.3419(3)
C5 C 0.5908(6) 1.1253(4) 0.2206(3)
C6 C 0.3842(5) 0.9614(4) 0.1951(3)
C7 C 0.0962(5) 0.6816(4) 0.1158(3)
C8 C -0.1671(5) 0.6423(4) 0.0080(3)
C9 C 0.1757(5) 0.4932(4) 0.1304(3)
H1 H 0.22490 1.11480 0.48900
H2 H 0.56840 1.36160 0.52590
H3 H 0.78730 1.37340 0.36030
H4 H 0.68000 1.13350 0.15570
H5 H -0.30260 0.58520 0.04140
H6 H -0.20260 0.76430 -0.00470
H7 H 0.35120 0.52390 0.19290
H8 H 0.05920 0.42800 0.17050
C9A C -0.1757(5) 0.5068(4) -0.1304(3)
C7A C -0.0962(5) 0.3184(4) -0.1158(3)
N1A N -0.0766(4) 0.2063(3) -0.2539(2)
O1A O 0.0836(4) 0.2732(3) -0.3112(2)
C1A C -0.2504(5) 0.0397(4) -0.2994(3)
C2A C -0.3161(6) -0.1149(4) -0.4242(3)
C3A C -0.5157(6) -0.2607(4) -0.4436(3)
C4A C -0.6519(6) -0.2672(4) -0.3419(3)
C5A C -0.5908(6) -0.1253(4) -0.2206(3)
C6A C -0.3842(5) 0.0386(4) -0.1951(3)
N2A N -0.2981(4) 0.1940(3) -0.0879(2)
C8A C 0.1671(5) 0.3577(4) -0.0080(3)
H5A H 0.30260 0.41480 -0.04140
H6A H 0.20260 0.23570 0.00470
H4A H -0.68000 -0.13350 -0.15570
H3A H -0.78730 -0.37340 -0.36030
H2A H -0.56840 -0.36160 -0.52590
H1A H -0.22490 -0.11480 -0.48900
H7A H -0.35120 0.47610 -0.19290
H8A H -0.05920 0.57200 -0.17050
#END
