
#######################################################################
#
#                 Cambridge Crystallographic Data Centre
#                                CCDC
#
#######################################################################
#
# If this CIF has been generated from an entry in the Cambridge
# Structural Database, then it will include bibliographic, chemical,
# crystal, experimental, refinement or atomic coordinate data resulting
# from the CCDC's data processing and validation procedures.
#
#######################################################################

data_CSD_CIF_UFEPAW
_audit_creation_date 2002-09-02
_audit_creation_method CSD-ConQuest-V1
_database_code_CSD UFEPAW
_chemical_formula_sum 'C13 H19 N1 O1'
_chemical_formula_moiety
;
C13 H19 N1 O1
;
_journal_coden_Cambridge 35
_journal_volume 66
_journal_year 2001
_journal_page_first 5641
_journal_name_full 'J.Org.Chem. '
loop_
_publ_author_name
"C.J.Cramer"
"M.Harmata"
"P.Rashatasakhon"
_chemical_name_systematic
;
8-Methyl-1,2,3,4,5,6,7,9a-octahydro-3a,6-methanocyclopentacycloocten-10-one 
oxime
;
_cell_volume   1139.709
_exptl_crystal_density_diffrn 1.196
_diffrn_ambient_temperature 173
#These two values have been output from a single CSD field.
_refine_ls_R_factor_gt 0.0547
_refine_ls_wR_factor_gt 0.0547
_symmetry_cell_setting monoclinic
_symmetry_space_group_name_H-M 'P 21/c'
_symmetry_Int_Tables_number 14
loop_
_symmetry_equiv_pos_site_id
_symmetry_equiv_pos_as_xyz
1 x,y,z
2 -x,1/2+y,1/2-z
3 -x,-y,-z
4 x,-1/2-y,-1/2+z
_cell_length_a 8.4097(6)
_cell_length_b 21.5673(16)
_cell_length_c 6.4084(5)
_cell_angle_alpha 90
_cell_angle_beta 101.320(2)
_cell_angle_gamma 90
_cell_formula_units_Z 4
loop_
_atom_type_symbol
_atom_type_radius_bond
C 0.68
H 0.23
N 0.68
O 0.68
loop_
_atom_site_label
_atom_site_type_symbol
_atom_site_fract_x
_atom_site_fract_y
_atom_site_fract_z
O1 O 0.1875(2) 0.4876(1) 0.9852(2)
N1 N 0.0898(2) 0.5311(1) 0.8496(2)
C1 C 0.0969(2) 0.6099(1) 0.5783(3)
C2 C 0.1705(2) 0.5606(1) 0.7334(3)
C3 C 0.3486(2) 0.5550(1) 0.7301(3)
C4 C 0.4465(2) 0.5912(1) 0.9160(3)
C5 C 0.4116(2) 0.6596(1) 0.9299(3)
C6 C 0.2812(2) 0.6910(1) 0.8344(3)
C7 C 0.1240(2) 0.6736(1) 0.6910(3)
C8 C 0.1944(3) 0.6016(1) 0.4011(3)
C9 C 0.3646(3) 0.5814(1) 0.5106(3)
C10 C -0.0883(2) 0.6068(1) 0.5050(3)
C11 C -0.1624(3) 0.6513(1) 0.6391(4)
C12 C -0.0213(2) 0.6799(1) 0.7958(4)
C13 C 0.5461(3) 0.6935(1) 1.0771(4)
H1 H 0.38170 0.51040 0.74030
H2 H 0.42950 0.57140 1.04930
H3 H 0.56280 0.58650 0.91090
H4 H 0.28940 0.73420 0.86350
H5 H 0.10740 0.70500 0.57400
H6 H 0.14370 0.56970 0.29830
H7 H 0.19910 0.64110 0.32380
H8 H 0.43980 0.61720 0.52850
H9 H 0.40670 0.54930 0.42520
H10 H -0.11920 0.61830 0.35290
H11 H -0.12730 0.56410 0.52250
H12 H -0.23640 0.62920 0.71620
H13 H -0.22460 0.68380 0.54910
H14 H -0.04310 0.72410 0.82150
H15 H -0.00300 0.65750 0.93330
H16 H 0.51390 0.73670 1.09190
H17 H 0.64500 0.69240 1.01780
H18 H 0.56670 0.67350 1.21710
H19 H 0.117(3) 0.4755(11) 1.059(4)
#END
