
#######################################################################
#
#                 Cambridge Crystallographic Data Centre
#                                CCDC
#
#######################################################################
#
# If this CIF has been generated from an entry in the Cambridge
# Structural Database, then it will include bibliographic, chemical,
# crystal, experimental, refinement or atomic coordinate data resulting
# from the CCDC's data processing and validation procedures.
#
#######################################################################

data_CSD_CIF_UFIMEE
_audit_creation_date 2018-08-01
_audit_creation_method CSD-ConQuest-V1
_database_code_CSD UFIMEE
_database_code_depnum_ccdc_archive 'CCDC 1842430'
_chemical_formula_sum 'C10 H9 N1 O5'
_chemical_formula_moiety
;
C10 H9 N1 O5
;
_journal_coden_Cambridge 119
_journal_volume 1173
_journal_year 2018
_journal_page_first 964
_journal_name_full 'J.Mol.Struct. '
loop_
_publ_author_name
"Monu Joy"
"N.Joseph"
"V.Mary"
"V.Jose"
"C.Sudarsanakumar"
_chemical_name_systematic
;
3-(2H-1,3-benzodioxol-5-yl)-2-nitroprop-2-en-1-ol
;
_cell_volume    499.973
_exptl_crystal_colour 'gold'
_exptl_crystal_density_diffrn 1.482
_exptl_crystal_description 'block'
_diffrn_ambient_temperature 293
#These two values have been output from a single CSD field.
_refine_ls_R_factor_gt 0.0444
_refine_ls_wR_factor_gt 0.0444
_symmetry_cell_setting triclinic
_symmetry_space_group_name_H-M 'P -1'
_symmetry_Int_Tables_number 2
loop_
_symmetry_equiv_pos_site_id
_symmetry_equiv_pos_as_xyz
1 x,y,z
2 -x,-y,-z
_cell_length_a 6.6540(2)
_cell_length_b 8.2655(2)
_cell_length_c 9.4233(2)
_cell_angle_alpha 83.015(1)
_cell_angle_beta 88.634(1)
_cell_angle_gamma 76.391(1)
_cell_formula_units_Z 2
loop_
_atom_type_symbol
_atom_type_radius_bond
C 0.68
H 0.23
N 0.68
O 0.68
loop_
_atom_site_label
_atom_site_type_symbol
_atom_site_fract_x
_atom_site_fract_y
_atom_site_fract_z
C1 C 0.3440(3) 0.9827(2) -0.28653(18)
C2 C 0.1519(3) 0.9193(2) -0.2947(2)
H1 H 0.11260 0.92750 -0.39430
H2 H 0.18160 0.80180 -0.25640
C3 C 0.5040(3) 0.9278(2) -0.19657(18)
H3 H 0.61920 0.97150 -0.21830
C4 C 0.5201(3) 0.8075(2) -0.06821(18)
C5 C 0.3444(3) 0.7792(2) 0.00912(18)
H4 H 0.21120 0.83390 -0.02120
C6 C 0.3791(3) 0.6681(2) 0.12999(18)
C7 C 0.5747(3) 0.5853(2) 0.17831(19)
C8 C 0.7479(3) 0.6130(3) 0.1078(2)
H5 H 0.88000 0.55850 0.14080
C9 C 0.7165(3) 0.7266(2) -0.0157(2)
H6 H 0.83110 0.74950 -0.06520
C10 C 0.3481(3) 0.5056(3) 0.3332(2)
H7 H 0.31850 0.54540 0.42590
H8 H 0.30890 0.39950 0.33540
N1 N 0.3550(3) 1.1227(2) -0.39563(17)
O1 O 0.5202(2) 1.16084(18) -0.42247(15)
O2 O 0.1924(3) 1.1976(2) -0.45600(19)
O3 O -0.0157(2) 1.0077(2) -0.21951(18)
H9 H -0.04780 1.10570 -0.25550
O4 O 0.2344(2) 0.62494(18) 0.22424(14)
O5 O 0.5623(2) 0.48426(17) 0.30241(15)
#END
