
#######################################################################
#
#                 Cambridge Crystallographic Data Centre
#                                CCDC
#
#######################################################################
#
# If this CIF has been generated from an entry in the Cambridge
# Structural Database, then it will include bibliographic, chemical,
# crystal, experimental, refinement or atomic coordinate data resulting
# from the CCDC's data processing and validation procedures.
#
#######################################################################

data_CSD_CIF_UFINEE
_audit_creation_date 2013-08-01
_audit_creation_method CSD-ConQuest-V1
_database_code_CSD UFINEE
_database_code_depnum_ccdc_archive 'CCDC 923771'
_chemical_formula_sum 'C18 H20 N2 O5'
_chemical_formula_moiety
;
C18 H20 N2 O5
;
_journal_coden_Cambridge 1291
_journal_year 2013
_journal_page_first 6062
_journal_name_full 'Eur.J.Org.Chem. '
loop_
_publ_author_name
"P.Cankar"
"Igor Popa"
"Z.Travnicek"
"J.Styskala"
"P.Hradil"
"Jan Slouka"
_chemical_name_systematic
;
3-Methoxy-17-methyl-1-nitro-7,8-didehydro-4,5-epoxymorphinan-6-ol
;
_chemical_name_common
;
1-Nitrocodeine
;
_chemical_melting_point 497.15
_cell_volume   3147.761
_exptl_crystal_colour 'colorless'
_exptl_crystal_density_diffrn 1.451
_exptl_special_details
;
Melting point range 497.15-498.15K

;
_exptl_crystal_description 'prism'
_exptl_crystal_preparation 'ethanol'
_diffrn_ambient_temperature 100
#These two values have been output from a single CSD field.
_refine_ls_R_factor_gt 0.04
_refine_ls_wR_factor_gt 0.04
_symmetry_cell_setting orthorhombic
_symmetry_space_group_name_H-M 'P 21 21 21'
_symmetry_Int_Tables_number 19
loop_
_symmetry_equiv_pos_site_id
_symmetry_equiv_pos_as_xyz
1 x,y,z
2 1/2-x,-y,1/2+z
3 -x,1/2+y,1/2-z
4 1/2+x,1/2-y,-z
_cell_length_a 9.7706(6)
_cell_length_b 10.4284(6)
_cell_length_c 30.8932(19)
_cell_angle_alpha 90
_cell_angle_beta 90
_cell_angle_gamma 90
_cell_formula_units_Z 8
loop_
_atom_type_symbol
_atom_type_radius_bond
C 0.68
H 0.23
N 0.68
O 0.68
loop_
_atom_site_label
_atom_site_type_symbol
_atom_site_fract_x
_atom_site_fract_y
_atom_site_fract_z
C1 C 0.5185(4) 0.4818(3) 0.45763(10)
O1 O 0.6560(3) 0.5331(3) 0.51628(8)
O2 O 0.4962(3) 0.3941(3) 0.52635(7)
C2 C 0.4356(4) 0.3844(4) 0.44128(11)
H1 H 0.41820 0.31040 0.45830
C3 C 0.3782(4) 0.3946(3) 0.40018(11)
C4 C 0.4079(4) 0.5076(3) 0.37752(11)
C5 C 0.3822(4) 0.6808(3) 0.33286(11)
H2 H 0.40670 0.69350 0.30170
C6 C 0.2616(4) 0.7679(4) 0.34439(11)
H3 H 0.27880 0.84980 0.32850
C7 C 0.2569(4) 0.8046(3) 0.39157(11)
H4 H 0.17220 0.80380 0.40660
C8 C 0.3700(4) 0.8377(3) 0.41198(12)
H5 H 0.36640 0.86670 0.44110
C9 C 0.6309(4) 0.8231(3) 0.41857(11)
H6 H 0.63010 0.90280 0.43650
O3 O 0.1351(3) 0.7216(3) 0.32804(8)
H7 H 0.1258(5) 0.646(4) 0.3347(4)
C10 C 0.6288(4) 0.7084(3) 0.45028(11)
H8 H 0.72440 0.68450 0.45720
H9 H 0.58460 0.73620 0.47750
C11 C 0.5553(4) 0.5909(3) 0.43380(11)
C12 C 0.4996(4) 0.5953(3) 0.39247(10)
C13 C 0.5092(4) 0.7058(3) 0.36103(11)
C14 C 0.5046(4) 0.8290(3) 0.38878(11)
H10 H 0.51380 0.90490 0.36920
C15 C 0.6409(4) 0.7028(4) 0.33471(12)
H11 H 0.64630 0.62060 0.31880
H12 H 0.63900 0.77310 0.31320
C16 C 0.7670(4) 0.7172(4) 0.36297(13)
H13 H 0.77850 0.63970 0.38110
H14 H 0.84920 0.72630 0.34450
N1 N 0.7531(3) 0.8297(3) 0.39064(10)
C17 C 0.8779(4) 0.8566(4) 0.41457(14)
H15 H 0.95220 0.87520 0.39420
H16 H 0.90230 0.78180 0.43220
H17 H 0.86330 0.93080 0.43350
O4 O 0.3441(3) 0.5444(2) 0.34000(7)
O5 O 0.2938(3) 0.3085(2) 0.38082(7)
C18 C 0.2555(5) 0.1975(4) 0.40605(12)
H18 H 0.19450 0.14280 0.38890
H19 H 0.20820 0.22530 0.43240
H20 H 0.33780 0.14920 0.41390
N2 N 0.5604(3) 0.4685(3) 0.50301(9)
O6 O 0.1445(3) 0.3693(2) 0.55820(7)
C19 C 0.3002(4) 0.2172(3) 0.58221(11)
O7 O 0.2364(3) 0.2435(2) 0.51057(7)
C20 C 0.3926(4) 0.1234(4) 0.56857(11)
H21 H 0.39850 0.10240 0.53870
C21 C 0.4753(4) 0.0609(3) 0.5978(1)
C22 C 0.4539(4) 0.0895(3) 0.64140(11)
C23 C 0.4906(4) 0.1153(4) 0.71421(10)
H22 H 0.47280 0.05310 0.73820
C24 C 0.6060(4) 0.2059(4) 0.72767(11)
C25 C 0.6026(4) 0.3295(4) 0.70175(11)
H23 H 0.68500 0.36390 0.69020
C26 C 0.4854(4) 0.3893(4) 0.69519(11)
H24 H 0.48300 0.46810 0.67980
C27 C 0.2203(4) 0.3830(4) 0.69395(10)
H25 H 0.21860 0.47740 0.69950
C28 C 0.2064(4) 0.3636(3) 0.64432(10)
H26 H 0.10800 0.35490 0.63720
H27 H 0.24040 0.44170 0.62960
C29 C 0.2812(4) 0.2495(3) 0.62596(11)
C30 C 0.3549(4) 0.1735(3) 0.65451(10)
C31 C 0.3571(4) 0.1861(3) 0.70324(10)
C32 C 0.3558(4) 0.3310(3) 0.71252(11)
H28 H 0.35450 0.34340 0.74460
C33 C 0.2331(4) 0.1237(3) 0.72510(11)
H29 H 0.22960 0.03190 0.71710
H30 H 0.24400 0.12920 0.75690
C34 C 0.0999(4) 0.1870(4) 0.71230(11)
H31 H 0.08060 0.16950 0.68140
H32 H 0.02410 0.15100 0.72970
N3 N 0.1088(3) 0.3255(3) 0.71940(9)
C35 C -0.0221(4) 0.3880(4) 0.71171(12)
H33 H -0.01270 0.48040 0.71660
H34 H -0.09080 0.35300 0.73160
H35 H -0.05090 0.37250 0.68180
O8 O 0.7355(3) 0.1441(3) 0.72719(8)
H36 H 0.7479(7) 0.1140(16) 0.7046(12)
O9 O 0.5317(2) 0.0434(2) 0.67474(7)
O10 O 0.5748(3) -0.0268(2) 0.58826(7)
C36 C 0.6051(4) -0.0440(4) 0.54321(11)
H37 H 0.68340 -0.10200 0.54010
H38 H 0.62720 0.03910 0.53020
H39 H 0.52540 -0.08100 0.52860
N4 N 0.2230(3) 0.2810(3) 0.54838(10)
#END
