
#######################################################################
#
#                 Cambridge Crystallographic Data Centre
#                                CCDC
#
#######################################################################
#
# If this CIF has been generated from an entry in the Cambridge
# Structural Database, then it will include bibliographic, chemical,
# crystal, experimental, refinement or atomic coordinate data resulting
# from the CCDC's data processing and validation procedures.
#
#######################################################################

data_CSD_CIF_UFOCIE
_audit_creation_date 2018-08-01
_audit_creation_method CSD-ConQuest-V1
_database_code_CSD UFOCIE
_database_code_depnum_ccdc_archive 'CCDC 1840056'
_chemical_formula_sum 'C26 H25 N3 O5'
_chemical_formula_moiety
;
C26 H25 N3 O5
;
_journal_coden_Cambridge 177
_journal_volume 16
_journal_year 2018
_journal_page_first 5823
_journal_name_full 'Org.Biomol.Chem. '
loop_
_publ_author_name
"W.Niwetmarin"
"H.R.Campello"
"H.A.Sparkes"
"V.K.Aggarwal"
"T.Gallagher"
_chemical_name_systematic
;
(3-benzyl-8-oxo-1,3,4,5,6,8-hexahydro-2H-1,5-methanopyrido[1,2-a][1,5]diazocin
-6-yl)methyl 4-nitrobenzoate
;
_cell_volume   1096.114
_exptl_crystal_colour 'colorless'
_exptl_crystal_density_diffrn 1.392
_exptl_crystal_description 'plate'
_diffrn_ambient_temperature 100
#These two values have been output from a single CSD field.
_refine_ls_R_factor_gt 0.0517
_refine_ls_wR_factor_gt 0.0517
_symmetry_cell_setting monoclinic
_symmetry_space_group_name_H-M 'P 21'
_symmetry_Int_Tables_number 4
loop_
_symmetry_equiv_pos_site_id
_symmetry_equiv_pos_as_xyz
1 x,y,z
2 -x,1/2+y,-z
_cell_length_a 7.1313(16)
_cell_length_b 8.764(2)
_cell_length_c 17.546(4)
_cell_angle_alpha 90
_cell_angle_beta 91.710(5)
_cell_angle_gamma 90
_cell_formula_units_Z 2
loop_
_atom_type_symbol
_atom_type_radius_bond
C 0.68
H 0.23
N 0.68
O 0.68
loop_
_atom_site_label
_atom_site_type_symbol
_atom_site_fract_x
_atom_site_fract_y
_atom_site_fract_z
C1 C 1.2534(4) -0.0744(3) 0.93178(16)
C2 C 1.0625(4) -0.1027(4) 0.93405(16)
H1 H 1.01660 -0.20220 0.94420
C3 C 0.9400(4) 0.0185(4) 0.92103(16)
H2 H 0.80840 0.00370 0.92400
C4 C 1.0115(4) 0.1620(3) 0.90365(15)
C5 C 1.2037(4) 0.1887(3) 0.90469(16)
H3 H 1.25030 0.28810 0.89510
C6 C 1.3275(4) 0.0689(4) 0.91984(17)
H4 H 1.45930 0.08530 0.92190
C7 C 0.8733(4) 0.2863(3) 0.88478(16)
C8 C 0.8399(4) 0.5414(3) 0.83893(17)
H5 H 0.91590 0.63200 0.85330
H6 H 0.73210 0.53680 0.87310
C9 C 0.7672(4) 0.5582(3) 0.75594(16)
H7 H 0.87720 0.55640 0.72190
C10 C 0.8110(4) 0.8344(3) 0.74868(15)
C11 C 0.7305(4) 0.9846(3) 0.74916(16)
H8 H 0.81060 1.07080 0.74570
C12 C 0.5432(4) 1.0065(3) 0.75438(16)
H9 H 0.49450 1.10730 0.75680
C13 C 0.4200(4) 0.8806(3) 0.75624(16)
H10 H 0.28870 0.89640 0.75960
C14 C 0.4904(4) 0.7364(3) 0.75316(15)
C15 C 0.3585(4) 0.6017(3) 0.74154(16)
H11 H 0.23880 0.62150 0.76810
C16 C 0.4449(4) 0.4531(3) 0.77038(16)
H12 H 0.35980 0.36640 0.75860
H13 H 0.46760 0.45760 0.82630
C17 C 0.6298(4) 0.4331(3) 0.72985(16)
H14 H 0.68460 0.33220 0.74500
C18 C 0.5947(4) 0.4327(3) 0.64339(16)
H15 H 0.71630 0.42480 0.61790
H16 H 0.51880 0.34210 0.62890
C19 C 0.3183(4) 0.5881(3) 0.65520(16)
H17 H 0.23680 0.49880 0.64440
H18 H 0.25270 0.68070 0.63620
C20 C 0.4748(4) 0.5759(4) 0.53421(16)
H19 H 0.38630 0.65880 0.51990
H20 H 0.41960 0.47850 0.51580
C21 C 0.6590(4) 0.6026(3) 0.49535(16)
C22 C 0.6960(4) 0.5284(3) 0.42779(17)
H21 H 0.60710 0.45830 0.40670
C23 C 0.8632(4) 0.5557(4) 0.39026(18)
H22 H 0.88770 0.50390 0.34400
C24 C 0.9929(5) 0.6583(4) 0.42065(19)
H23 H 1.10660 0.67680 0.39540
C25 C 0.9564(4) 0.7337(4) 0.48785(19)
H24 H 1.04460 0.80500 0.50840
C26 C 0.7906(4) 0.7054(4) 0.52546(17)
H25 H 0.76710 0.75650 0.57190
N1 N 1.3829(4) -0.2062(3) 0.93820(14)
N2 N 0.6814(3) 0.7125(2) 0.75199(13)
N3 N 0.4971(3) 0.5703(3) 0.61692(13)
O1 O 1.5514(3) -0.1807(3) 0.94649(13)
O2 O 1.3147(3) -0.3349(2) 0.93360(14)
O3 O 0.7086(3) 0.2795(2) 0.89948(12)
O4 O 0.9533(3) 0.4049(2) 0.84922(11)
O5 O 0.9803(3) 0.8062(2) 0.74608(12)
#END
