
#######################################################################
#
#                 Cambridge Crystallographic Data Centre
#                                CCDC
#
#######################################################################
#
# If this CIF has been generated from an entry in the Cambridge
# Structural Database, then it will include bibliographic, chemical,
# crystal, experimental, refinement or atomic coordinate data resulting
# from the CCDC's data processing and validation procedures.
#
#######################################################################

data_CSD_CIF_UFOHAA
_audit_creation_date 2013-08-01
_audit_creation_method CSD-ConQuest-V1
_database_code_CSD UFOHAA
_database_code_depnum_ccdc_archive 'CCDC 936757'
_chemical_formula_sum 'C24 H22 N2 O5'
_chemical_formula_moiety
;
C24 H22 N2 O5
;
_journal_coden_Cambridge 177
_journal_volume 11
_journal_year 2013
_journal_page_first 5793
_journal_name_full 'Org.Biomol.Chem. '
loop_
_publ_author_name
"A.M.Hardman"
"S.S.So"
"A.E.Mattson"
_chemical_name_systematic
;
Methyl 4-nitro-2,3,6-triphenyl-1,2-oxazinane-4-carboxylate
;
_cell_volume   1013.686
_exptl_crystal_colour 'colorless'
_exptl_crystal_density_diffrn 1.371
_exptl_crystal_description 'triangular plate'
_diffrn_ambient_temperature 150
#These two values have been output from a single CSD field.
_refine_ls_R_factor_gt 0.0419
_refine_ls_wR_factor_gt 0.0419
loop_
_citation_database_id_CSD
_citation_special_details
UFOGUT "is a stereoisomer of this entry"
_symmetry_cell_setting triclinic
_symmetry_space_group_name_H-M 'P -1'
_symmetry_Int_Tables_number 2
loop_
_symmetry_equiv_pos_site_id
_symmetry_equiv_pos_as_xyz
1 x,y,z
2 -x,-y,-z
_cell_length_a 8.2132(1)
_cell_length_b 8.7380(1)
_cell_length_c 15.5338(3)
_cell_angle_alpha 84.567(1)
_cell_angle_beta 79.398(1)
_cell_angle_gamma 67.733(1)
_cell_formula_units_Z 2
loop_
_atom_type_symbol
_atom_type_radius_bond
C 0.68
H 0.23
N 0.68
O 0.68
loop_
_atom_site_label
_atom_site_type_symbol
_atom_site_fract_x
_atom_site_fract_y
_atom_site_fract_z
C1 C 0.16601(18) 0.82866(17) 0.36592(9)
H1 H 0.06000 0.93460 0.37260
C2 C 0.17728(19) 0.74656(17) 0.28136(9)
H2 H 0.27290 0.63540 0.27930
H3 H 0.06340 0.73220 0.28130
C3 C 0.21503(18) 0.84723(16) 0.20008(9)
C4 C 0.35894(18) 0.91873(16) 0.20510(8)
H4 H 0.33680 1.01520 0.16270
C5 C 0.15667(18) 0.71714(16) 0.44529(8)
C6 C 0.29330(19) 0.56364(17) 0.45162(9)
H5 H 0.39540 0.53230 0.40730
C7 C 0.2815(2) 0.45680(18) 0.52173(10)
H6 H 0.37580 0.35280 0.52560
C8 C 0.1330(2) 0.50072(18) 0.58628(9)
H7 H 0.12370 0.42560 0.63360
C9 C -0.0018(2) 0.65365(19) 0.58218(9)
H8 H -0.10290 0.68480 0.62720
C10 C 0.01060(19) 0.76226(18) 0.51185(9)
H9 H -0.08160 0.86800 0.50940
C11 C 0.54872(18) 0.80197(17) 0.17444(9)
C12 C 0.6350(2) 0.83763(19) 0.09327(9)
H10 H 0.57440 0.93320 0.06040
C13 C 0.8067(2) 0.7367(2) 0.05971(10)
H11 H 0.86280 0.76320 0.00430
C14 C 0.8967(2) 0.5976(2) 0.10664(10)
H12 H 1.01440 0.52750 0.08360
C15 C 0.8140(2) 0.56117(18) 0.18754(10)
H13 H 0.87570 0.46560 0.22000
C16 C 0.64181(19) 0.66268(17) 0.22185(9)
H14 H 0.58740 0.63700 0.27780
C17 C 0.43406(17) 1.07094(16) 0.30631(9)
C18 C 0.44106(19) 1.20288(16) 0.24964(9)
H15 H 0.37200 1.23510 0.20360
C19 C 0.5487(2) 1.28699(17) 0.26043(9)
H16 H 0.55530 1.37500 0.22080
C20 C 0.64689(19) 1.24377(17) 0.32862(10)
H17 H 0.72130 1.30100 0.33560
C21 C 0.6353(2) 1.11636(18) 0.38636(10)
H18 H 0.69960 1.08850 0.43420
C22 C 0.53069(19) 1.02844(17) 0.37538(9)
H19 H 0.52530 0.93990 0.41480
C23 C 0.26730(18) 0.74226(17) 0.11781(9)
C24 C 0.3035(2) 0.7515(2) -0.03625(10)
H20 H 0.43040 0.68150 -0.04290
H21 H 0.28240 0.83190 -0.08540
H22 H 0.23320 0.68240 -0.03570
N1 N 0.31889(15) 0.98993(13) 0.29298(7)
N2 N 0.03848(16) 0.99192(15) 0.18656(8)
O1 O 0.32766(12) 0.86158(11) 0.36000(6)
O2 O 0.03794(15) 1.13154(13) 0.16984(7)
O3 O -0.09101(14) 0.95346(13) 0.19108(8)
O4 O 0.31870(14) 0.59463(12) 0.11993(7)
O5 O 0.25075(14) 0.83886(12) 0.04578(6)
#END
