
#######################################################################
#
#                 Cambridge Crystallographic Data Centre
#                                CCDC
#
#######################################################################
#
# If this CIF has been generated from an entry in the Cambridge
# Structural Database, then it will include bibliographic, chemical,
# crystal, experimental, refinement or atomic coordinate data resulting
# from the CCDC's data processing and validation procedures.
#
#######################################################################

data_CSD_CIF_UGAHOZ
_audit_creation_date 2002-09-02
_audit_creation_method CSD-ConQuest-V1
_database_code_CSD UGAHOZ
_database_code_depnum_ccdc_archive 'CCDC 174989'
_chemical_formula_sum 'C17 H18 N2 O4'
_chemical_formula_moiety
;
C17 H18 N2 O4
;
_journal_coden_Cambridge 179
_journal_volume 41
_journal_year 2002
_journal_page_first 1876
_journal_name_full 'Angew.Chem.,Int.Ed. '
loop_
_publ_author_name
"F.Effenberger"
"J.Roos"
"C.Kobler"
_chemical_name_systematic
;
cis-4-Isopropenyl-1-(4-nitrobenzoyloxy)cyclohexanecarbonitrile
;
_chemical_name_common
;
cis-4-Isopropenyl-1-(4-nitrobenzoyloxy)cyclohexancarbonitrile; 
4-Isopropenyl-1-(4-nitrobenzoyloxy)cyclohexanecarbonitrile
;
_chemical_melting_point 380.15
_cell_volume    834.424
_exptl_crystal_density_diffrn 1.251
_diffrn_ambient_temperature 293
_refine_special_details
;
Three C-atoms are disordered over two sites.

;
#These two values have been output from a single CSD field.
_refine_ls_R_factor_gt 0.0801
_refine_ls_wR_factor_gt 0.0801
_symmetry_cell_setting triclinic
_symmetry_space_group_name_H-M 'P -1'
_symmetry_Int_Tables_number 2
loop_
_symmetry_equiv_pos_site_id
_symmetry_equiv_pos_as_xyz
1 x,y,z
2 -x,-y,-z
_cell_length_a 6.8616(8)
_cell_length_b 7.1533(14)
_cell_length_c 17.564(3)
_cell_angle_alpha 80.622(12)
_cell_angle_beta 80.239(11)
_cell_angle_gamma 83.077(10)
_cell_formula_units_Z 2
loop_
_atom_type_symbol
_atom_type_radius_bond
C 0.68
H 0.23
N 0.68
O 0.68
loop_
_atom_site_label
_atom_site_type_symbol
_atom_site_fract_x
_atom_site_fract_y
_atom_site_fract_z
O1 O 0.4005(5) 0.8735(4) 0.8002(2)
C1 C 0.4449(8) 1.0118(7) 0.7313(3)
N1 N 0.6516(12) 1.2767(10) 0.7558(4)
N2 N 0.1750(6) 0.3293(7) 1.1206(3)
O2 O 0.2715(7) 1.0960(5) 0.8762(2)
C2 C 0.2586(9) 1.1020(8) 0.7002(3)
O3 O 0.2157(7) 0.1659(6) 1.1085(2)
C3 C 0.1519(9) 0.9566(10) 0.6717(4)
O4 O 0.1032(8) 0.3755(6) 1.1835(3)
C4 C 0.4707(11) 0.7603(10) 0.6453(4)
C5 C 0.5799(8) 0.9036(9) 0.6728(3)
C6 C 0.5571(11) 1.1609(9) 0.7499(4)
C7 C 0.0818(12) 0.5894(9) 0.6169(4)
C8 C 0.286(3) 0.890(5) 0.5998(15)
C9 C 0.136(2) 0.7647(13) 0.5851(7)
C10 C 0.054(2) 0.8526(18) 0.5099(6)
C11 C 0.3143(7) 0.9296(7) 0.8683(3)
C12 C 0.2812(6) 0.7689(6) 0.9324(2)
C13 C 0.3064(6) 0.5810(6) 0.9192(3)
C14 C 0.2726(6) 0.4360(6) 0.9812(3)
C15 C 0.2118(6) 0.4839(6) 1.0541(3)
C16 C 0.1851(7) 0.6675(7) 1.0689(3)
C17 C 0.2183(7) 0.8110(6) 1.0074(3)
H1 H 0.29250 1.20230 0.65730
H2 H 0.16970 1.15920 0.74100
H3 H 0.02490 1.01440 0.65790
H4 H 0.12830 0.84920 0.71250
H5 H 0.41500 0.67220 0.68940
H6 H 0.56050 0.68840 0.60930
H7 H 0.69160 0.83740 0.69640
H8 H 0.63140 0.99250 0.62820
H9 H 0.12390 0.53060 0.66510
H10 H -0.00920 0.53280 0.59530
H11 H 0.32780 0.99000 0.55700
H12 H 0.13640 0.94740 0.48120
H13 H -0.07900 0.91050 0.52300
H14 H 0.05180 0.75490 0.47850
H15 H 0.34600 0.55230 0.86880
H16 H 0.29090 0.30930 0.97330
H17 H 0.14520 0.69480 1.11950
H18 H 0.19850 0.93720 1.01610
C18? C 0.2902(14) 0.8434(16) 0.6124(6)
C19? C 0.2398(17) 0.6761(17) 0.5772(6)
C20? C 0.357(2) 0.601(2) 0.5034(8)
H19? H 0.03440 0.48640 0.60200
H20? H 0.00770 0.64070 0.66390
H21? H 0.33470 0.93810 0.56780
H22? H 0.43760 0.69590 0.47360
H23? H 0.26590 0.57090 0.47230
H24? H 0.44080 0.48780 0.51860
#END
