
#######################################################################
#
#                 Cambridge Crystallographic Data Centre
#                                CCDC
#
#######################################################################
#
# If this CIF has been generated from an entry in the Cambridge
# Structural Database, then it will include bibliographic, chemical,
# crystal, experimental, refinement or atomic coordinate data resulting
# from the CCDC's data processing and validation procedures.
#
#######################################################################

data_CSD_CIF_UGAVOQ
_audit_creation_date 2018-08-03
_audit_creation_method CSD-ConQuest-V1
_database_code_CSD UGAVOQ
_database_code_depnum_ccdc_archive 'CCDC 1846311'
_chemical_formula_sum 'C4 H5 N7 O8'
_chemical_formula_moiety
;
C4 H5 N7 O8
;
_journal_coden_Cambridge 182
_journal_volume 54
_journal_year 2018
_journal_page_first 9333
_journal_name_full 'Chem.Commun. '
loop_
_publ_author_name
"Chao Yan"
"Hongwei Yang"
"Xiujuan Qi"
"Yunhe Jin"
"Kangcai Wang"
"Tianlin Liu"
"Junjun Tian"
"Fude Nie"
"Guangbin Cheng"
"Qinghua Zhang"
_chemical_name_systematic
;
3-nitro-6-(trinitromethyl)-1,2,3,4-tetrahydro-1,3,5-triazine
;
_cell_volume   2033.248
_exptl_crystal_colour 'colorless'
_exptl_crystal_density_diffrn 1.824
_exptl_crystal_description 'block'
_diffrn_ambient_temperature 173
#These two values have been output from a single CSD field.
_refine_ls_R_factor_gt 0.0531
_refine_ls_wR_factor_gt 0.0531
_symmetry_cell_setting monoclinic
_symmetry_space_group_name_H-M 'P 21/n'
_symmetry_Int_Tables_number 14
loop_
_symmetry_equiv_pos_site_id
_symmetry_equiv_pos_as_xyz
1 x,y,z
2 1/2-x,1/2+y,1/2-z
3 -x,-y,-z
4 -1/2+x,-1/2-y,-1/2+z
_cell_length_a 18.913(11)
_cell_length_b 5.827(3)
_cell_length_c 18.914(10)
_cell_angle_alpha 90
_cell_angle_beta 102.724(13)
_cell_angle_gamma 90
_cell_formula_units_Z 8
loop_
_atom_type_symbol
_atom_type_radius_bond
C 0.68
H 0.23
N 0.68
O 0.68
loop_
_atom_site_label
_atom_site_type_symbol
_atom_site_fract_x
_atom_site_fract_y
_atom_site_fract_z
O1 O 0.52521(11) 0.4328(4) 0.19127(13)
O2 O 0.45988(13) 0.4344(4) 0.08153(13)
O3 O 0.33107(12) 0.8899(4) 0.34870(14)
N1 N 0.33045(13) 0.3632(4) 0.24712(13)
N2 N 0.37311(12) 0.5320(4) 0.36794(13)
O4 O 0.44627(13) 0.8362(4) 0.38888(15)
N3 N 0.45538(12) 0.3700(4) 0.30249(13)
H1 H 0.50020 0.37060 0.29650
N4 N 0.38442(14) 0.7677(4) 0.36734(14)
N5 N 0.47013(14) 0.3922(4) 0.14565(15)
O5 O 0.47029(14) -0.0475(4) 0.13449(15)
O6 O 0.32252(14) 0.4866(5) 0.10082(13)
O7 O 0.40966(15) -0.1068(4) 0.21757(14)
N6 N 0.43303(15) 0.0119(4) 0.17577(16)
N7 N 0.34179(15) 0.2904(6) 0.11476(15)
C1 C 0.39713(15) 0.3476(4) 0.24598(15)
O8 O 0.31256(14) 0.1163(5) 0.08864(14)
C2 C 0.43816(15) 0.3928(5) 0.37334(16)
H2 H 0.47930 0.46580 0.40740
H3 H 0.43030 0.23900 0.39240
C3 C 0.41089(15) 0.2676(5) 0.17358(16)
C4 C 0.31170(15) 0.4422(5) 0.31389(16)
H4 H 0.29000 0.31280 0.33560
H5 H 0.27450 0.56380 0.30170
O9 O 0.84745(13) 0.2793(4) 0.33469(12)
O10 O 0.89304(14) 0.3474(4) 0.44851(12)
O11 O 0.60039(12) 0.6520(4) 0.32949(13)
N8 N 0.87042(13) 0.6442(4) 0.37093(13)
N9 N 0.74680(13) 0.7897(4) 0.32866(13)
N10 N 0.80503(13) 0.8072(4) 0.45243(13)
H6 H 0.79990 0.81150 0.49750
N11 N 0.65187(14) 0.7708(4) 0.47422(13)
O12 O 0.71564(14) 1.2659(4) 0.40511(15)
O13 O 0.58844(12) 1.0205(4) 0.31053(14)
O14 O 0.58951(12) 0.7214(5) 0.46807(13)
N12 N 0.86878(14) 0.4076(4) 0.38593(14)
O15 O 0.69955(14) 0.7429(5) 0.52764(13)
N13 N 0.61486(14) 0.8514(5) 0.34348(14)
N14 N 0.67499(16) 1.1478(4) 0.42978(16)
C5 C 0.74728(15) 0.8172(4) 0.39523(15)
C6 C 0.81434(15) 0.7236(5) 0.30959(15)
H7 H 0.83330 0.85670 0.28710
H8 H 0.80410 0.59980 0.27290
O16 O 0.63410(18) 1.2103(4) 0.46646(19)
C7 C 0.87604(16) 0.7889(5) 0.43446(17)
H9 H 0.89350 0.94330 0.42460
H10 H 0.91130 0.72190 0.47580
C8 C 0.67487(15) 0.8896(5) 0.41083(15)
#END
