
#######################################################################
#
#                 Cambridge Crystallographic Data Centre
#                                CCDC
#
#######################################################################
#
# If this CIF has been generated from an entry in the Cambridge
# Structural Database, then it will include bibliographic, chemical,
# crystal, experimental, refinement or atomic coordinate data resulting
# from the CCDC's data processing and validation procedures.
#
#######################################################################

data_CSD_CIF_UGAZEJ
_audit_creation_date 2015-04-21
_audit_creation_method CSD-ConQuest-V1
_database_code_CSD UGAZEJ
_database_code_depnum_ccdc_archive 'CCDC 1060837'
_chemical_formula_sum 'C20 H19 N3 O3'
_chemical_formula_moiety
;
C20 H19 N3 O3
;
_journal_coden_Cambridge 1078
_journal_year 2015
_journal_name_full 'CSD Communication(Private Communication) '
loop_
_publ_author_name
"Zhou Jinhui"
_chemical_name_systematic
;
ethyl 1-(2-(hydroxyimino)-2-phenylethyl)-3-phenyl-1H-pyrazole-5-carboxylate
;
_cell_volume   1818.306
_exptl_crystal_colour 'colorless'
_exptl_crystal_density_diffrn 1.276
_exptl_crystal_description 'block'
_diffrn_ambient_temperature 273.1
#These two values have been output from a single CSD field.
_refine_ls_R_factor_gt 0.0584
_refine_ls_wR_factor_gt 0.0584
_symmetry_cell_setting monoclinic
_symmetry_space_group_name_H-M 'P 2/c'
_symmetry_Int_Tables_number 13
loop_
_symmetry_equiv_pos_site_id
_symmetry_equiv_pos_as_xyz
1 x,y,z
2 -x,y,1/2-z
3 -x,-y,-z
4 x,-y,-1/2+z
_cell_length_a 8.6343(11)
_cell_length_b 9.6158(12)
_cell_length_c 22.190(3)
_cell_angle_alpha 90
_cell_angle_beta 99.265(2)
_cell_angle_gamma 90
_cell_formula_units_Z 4
loop_
_atom_type_symbol
_atom_type_radius_bond
C 0.68
H 0.23
N 0.68
O 0.68
loop_
_atom_site_label
_atom_site_type_symbol
_atom_site_fract_x
_atom_site_fract_y
_atom_site_fract_z
N1 N 0.39030(19) 0.29713(16) 0.03755(8)
C1 C 0.2292(2) 0.4816(2) -0.01648(9)
N2 N 0.48912(19) 0.28322(16) 0.09071(8)
O1 O 0.6341(2) -0.08473(19) 0.05140(9)
H1 H 0.63800 -0.14610 0.02600
C2 C 0.3066(3) 0.03227(19) 0.1177(1)
O2 O 0.6253(2) 0.55909(18) 0.19338(8)
N3 N 0.4893(2) -0.0874(2) 0.07020(9)
C3 C 0.4590(3) 0.0286(2) 0.09594(9)
C4 C 0.5089(2) 0.4059(2) 0.12105(9)
C5 C 0.3436(2) 0.43000(19) 0.03474(9)
C6 C 0.2879(3) 0.1039(2) 0.1707(1)
H2 H 0.37240 0.15210 0.19230
C7 C 0.4171(2) 0.5020(2) 0.08628(9)
H3 H 0.40600 0.59560 0.09510
O3 O 0.6780(3) 0.3348(2) 0.21155(9)
C8 C 0.6131(3) 0.4248(2) 0.17974(10)
C9 C 0.1771(3) -0.0359(2) 0.08542(12)
H4 H 0.18580 -0.08180 0.04920
C10 C 0.5693(3) 0.1503(2) 0.10423(12)
H5 H 0.62370 0.15150 0.14600
H6 H 0.64730 0.13890 0.07770
C11 C 0.1459(3) 0.1042(3) 0.19143(13)
H7 H 0.13500 0.15260 0.22680
C12 C 0.1803(4) 0.6177(2) -0.01850(13)
H8 H 0.22310 0.67860 0.01230
C13 C 0.0352(3) -0.0354(3) 0.10703(14)
H9 H -0.05070 -0.08190 0.08550
C14 C 0.1639(4) 0.3981(3) -0.06372(14)
H10 H 0.19600 0.30580 -0.06440
C15 C 0.0041(3) 0.5808(3) -0.11127(12)
H11 H -0.07140 0.61400 -0.14260
C16 C 0.0686(4) 0.6654(3) -0.06543(14)
H12 H 0.03700 0.75790 -0.06550
C17 C 0.0514(4) 0.4471(3) -0.11058(15)
H13 H 0.00820 0.38730 -0.14180
C18 C 0.7333(4) 0.5972(3) 0.24843(14)
H14 H 0.83590 0.55670 0.24790
H15 H 0.69430 0.56470 0.28460
C19 C 0.0208(3) 0.0333(3) 0.16001(14)
H16 H -0.07420 0.03170 0.17460
C20 C 0.7426(6) 0.7516(4) 0.2482(2)
H17 H 0.78380 0.78190 0.21270
H18 H 0.81030 0.78260 0.28430
H19 H 0.63960 0.78990 0.24740
#END
