
#######################################################################
#
#                 Cambridge Crystallographic Data Centre
#                                CCDC
#
#######################################################################
#
# If this CIF has been generated from an entry in the Cambridge
# Structural Database, then it will include bibliographic, chemical,
# crystal, experimental, refinement or atomic coordinate data resulting
# from the CCDC's data processing and validation procedures.
#
#######################################################################

data_CSD_CIF_UGECOZ
_audit_creation_date 2010-04-15
_audit_creation_method CSD-ConQuest-V1
_database_code_CSD UGECOZ
_database_code_depnum_ccdc_archive 'CCDC 719997'
_chemical_formula_sum 'C27 H31 N1 O3'
_chemical_formula_moiety
;
C27 H31 N1 O3
;
_journal_coden_Cambridge 179
_journal_volume 48
_journal_year 2009
_journal_page_first 5500
_journal_name_full 'Angew.Chem.,Int.Ed. '
loop_
_publ_author_name
"Xiaoping Fu"
"Jingjin Chen"
"Guangyu Li"
"Yuanhong Liu"
_chemical_name_systematic
;
1-(4-Nitrophenyl)-2-pentyl-5-phenyldeca-2,3,4-trien-1-one
;
_chemical_melting_point 389.15
_cell_volume   1200.619
_exptl_crystal_colour 'yellow'
_exptl_crystal_density_diffrn 1.155
_exptl_special_details
;
Melting point range 389.15-391.15K

;
_exptl_crystal_description 'prismatic'
_diffrn_ambient_temperature 293
#These two values have been output from a single CSD field.
_refine_ls_R_factor_gt 0.0728
_refine_ls_wR_factor_gt 0.0728
_symmetry_cell_setting triclinic
_symmetry_space_group_name_H-M 'P -1'
_symmetry_Int_Tables_number 2
loop_
_symmetry_equiv_pos_site_id
_symmetry_equiv_pos_as_xyz
1 x,y,z
2 -x,-y,-z
_cell_length_a 5.7676(19)
_cell_length_b 7.696(3)
_cell_length_c 27.249(10)
_cell_angle_alpha 87.539(6)
_cell_angle_beta 87.232(7)
_cell_angle_gamma 84.004(6)
_cell_formula_units_Z 2
loop_
_atom_type_symbol
_atom_type_radius_bond
C 0.68
H 0.23
N 0.68
O 0.68
loop_
_atom_site_label
_atom_site_type_symbol
_atom_site_fract_x
_atom_site_fract_y
_atom_site_fract_z
O1 O 0.7059(5) 1.1341(3) 0.26380(9)
O2 O 0.2348(7) 0.8736(5) 0.49949(11)
O3 O 0.5709(6) 0.7326(5) 0.49592(12)
N1 N 0.4154(8) 0.8289(4) 0.47789(13)
C1 C 0.5421(6) 1.0499(4) 0.27715(13)
C2 C 0.3797(6) 1.0024(4) 0.24118(12)
C3 C 0.2553(5) 0.8674(4) 0.25219(11)
C4 C 0.1429(5) 0.7397(4) 0.26186(11)
C5 C 0.0118(5) 0.6095(4) 0.27514(11)
C6 C 0.5062(6) 0.9973(4) 0.32995(12)
C7 C 0.6930(6) 0.9091(4) 0.35427(14)
H1 H 0.83780 0.88790 0.33790
C8 C 0.6627(6) 0.8527(4) 0.40300(14)
H2 H 0.78520 0.79130 0.41940
C9 C 0.4512(6) 0.8890(4) 0.42612(12)
C10 C 0.2673(6) 0.9828(4) 0.40402(12)
H3 H 0.12740 1.01240 0.42150
C11 C 0.2957(6) 1.0322(4) 0.35486(13)
H4 H 0.17030 1.08980 0.33850
C12 C 0.3776(7) 1.1000(5) 0.19204(13)
H5 H 0.36690 1.22420 0.19770
H6 H 0.52560 1.06890 0.17460
C13 C 0.1863(7) 1.0682(5) 0.15966(13)
H7 H 0.03760 1.10130 0.17660
H8 H 0.19530 0.94410 0.15400
C14 C 0.1935(8) 1.1669(6) 0.11066(14)
H9 H 0.18510 1.29090 0.11640
H10 H 0.34240 1.13370 0.09380
C15 C 0.0059(10) 1.1372(7) 0.07827(15)
H11 H -0.14310 1.17470 0.09460
H12 H 0.01050 1.01280 0.07340
C16 C 0.0207(11) 1.2320(8) 0.02850(18)
H13 H 0.00980 1.35570 0.03290
H14 H -0.10530 1.20550 0.00920
H15 H 0.16680 1.19480 0.01190
C17 C -0.1576(6) 0.5535(4) 0.23963(12)
H16 H -0.12920 0.42780 0.23680
H17 H -0.31470 0.57870 0.25370
C18 C -0.1472(6) 0.6374(5) 0.18877(12)
H18 H 0.00590 0.60570 0.17350
H19 H -0.16680 0.76350 0.19140
C19 C -0.3307(6) 0.5850(5) 0.15598(13)
H20 H -0.30980 0.45910 0.15310
H21 H -0.48360 0.61530 0.17150
C20 C -0.3243(8) 0.6698(6) 0.10518(14)
H22 H -0.17430 0.63470 0.08900
H23 H -0.33740 0.79570 0.10800
C21 C -0.5163(9) 0.6235(8) 0.07333(15)
H24 H -0.49270 0.50130 0.06670
H25 H -0.51260 0.69110 0.04290
H26 H -0.66510 0.64900 0.09030
C22 C 0.0214(5) 0.5297(4) 0.32527(11)
C23 C 0.1988(5) 0.5581(4) 0.35599(12)
H27 H 0.32020 0.62070 0.34400
C24 C 0.1958(6) 0.4947(4) 0.40368(13)
H28 H 0.31610 0.51450 0.42360
C25 C 0.0188(6) 0.4024(4) 0.42270(13)
H29 H 0.01570 0.36350 0.45550
C26 C -0.1541(6) 0.3685(4) 0.39244(13)
H30 H -0.27280 0.30370 0.40480
C27 C -0.1537(5) 0.4294(4) 0.34395(12)
H31 H -0.26990 0.40360 0.32380
#END
