
#######################################################################
#
#                 Cambridge Crystallographic Data Centre
#                                CCDC
#
#######################################################################
#
# If this CIF has been generated from an entry in the Cambridge
# Structural Database, then it will include bibliographic, chemical,
# crystal, experimental, refinement or atomic coordinate data resulting
# from the CCDC's data processing and validation procedures.
#
#######################################################################

data_CSD_CIF_UGEDIV
_audit_creation_date 2015-04-21
_audit_creation_method CSD-ConQuest-V1
_database_code_CSD UGEDIV
_database_code_depnum_ccdc_archive 'CCDC 1060962'
_chemical_formula_sum 'C6 H11 N5 O2'
_chemical_formula_moiety
;
C6 H11 N5 O2
;
_journal_coden_Cambridge 1078
_journal_year 2015
_journal_name_full 'CSD Communication(Private Communication) '
loop_
_publ_author_name
"J.C.Gallucci"
"V.Maralla"
"H.Shechter"
_chemical_name_systematic
;
4-(t-butyl-NNO-azoxy)-1,2,5-oxadiazol-3-amine
;
_cell_volume    448.596
_exptl_crystal_colour 'colorless'
_exptl_crystal_density_diffrn 1.371
_exptl_special_details
;
contribution from Department of Chemistry and Biochemistry, Ohio State 
University, 100 West 18th Avenue, Columbus, OH 43210
;
_exptl_crystal_description 'hexagonal plate'
_diffrn_ambient_temperature 200
#These two values have been output from a single CSD field.
_refine_ls_R_factor_gt 0.0374
_refine_ls_wR_factor_gt 0.0374
_symmetry_cell_setting monoclinic
_symmetry_space_group_name_H-M 'P 21/m'
_symmetry_Int_Tables_number 11
loop_
_symmetry_equiv_pos_site_id
_symmetry_equiv_pos_as_xyz
1 x,y,z
2 -x,1/2+y,-z
3 -x,-y,-z
4 x,-1/2-y,z
_cell_length_a 6.4208(2)
_cell_length_b 6.7388(2)
_cell_length_c 10.3678(3)
_cell_angle_alpha 90
_cell_angle_beta 90.206(1)
_cell_angle_gamma 90
_cell_formula_units_Z 2
loop_
_atom_type_symbol
_atom_type_radius_bond
C 0.68
H 0.23
N 0.68
O 0.68
loop_
_atom_site_label
_atom_site_type_symbol
_atom_site_fract_x
_atom_site_fract_y
_atom_site_fract_z
O1 O 0.6872(2) 0.25000 1.23062(12)
O2 O 0.48745(19) 0.25000 0.86514(13)
N1 N 0.9044(2) 0.25000 1.21347(15)
N2 N 0.5854(2) 0.25000 1.11479(15)
N3 N 1.1190(3) 0.25000 1.0312(2)
H1 H 1.129(4) 0.25000 0.946(3)
H2 H 1.233(4) 0.25000 1.072(2)
N4 N 0.6778(2) 0.25000 0.89396(14)
N5 N 0.8361(2) 0.25000 0.82085(14)
C1 C 0.9325(3) 0.25000 1.08857(18)
C2 C 0.7311(3) 0.25000 1.02906(17)
C3 C 0.8000(3) 0.25000 0.67899(18)
C4 C 1.0202(3) 0.25000 0.62344(19)
H3 H 1.02000 0.25000 0.52160
H4 H 1.10000 0.12590 0.65820
C5 C 0.6853(2) 0.0621(2) 0.63702(13)
H5 H 0.68060 0.05590 0.54260
H6 H 0.54300 0.06460 0.67090
H7 H 0.75860 -0.05460 0.67060
H4C H 1.10000 0.37410 0.65820
C5C C 0.6853(2) 0.4379(2) 0.63702(13)
H5C H 0.68060 0.44410 0.54260
H6C H 0.54300 0.43540 0.67090
H7C H 0.75860 0.55460 0.67060
#END
