
#######################################################################
#
#                 Cambridge Crystallographic Data Centre
#                                CCDC
#
#######################################################################
#
# If this CIF has been generated from an entry in the Cambridge
# Structural Database, then it will include bibliographic, chemical,
# crystal, experimental, refinement or atomic coordinate data resulting
# from the CCDC's data processing and validation procedures.
#
#######################################################################

data_CSD_CIF_UGICIX
_audit_creation_date 2010-05-14
_audit_creation_method CSD-ConQuest-V1
_database_code_CSD UGICIX
_database_code_depnum_ccdc_archive 'CCDC 716898'
_chemical_formula_sum 'C31 H25 N1 O2'
_chemical_formula_moiety
;
C31 H25 N1 O2
;
_journal_coden_Cambridge 179
_journal_volume 48
_journal_year 2009
_journal_page_first 5505
_journal_name_full 'Angew.Chem.,Int.Ed. '
loop_
_publ_author_name
"Feng Liu"
"Yinhua Yu"
"Junliang Zhang"
_chemical_name_systematic
;
(1R*,4S*)-7-methyl-1,3,4,5-tetraphenyl-3,4-dihydro-1H-furo[3,4-d][1,2]oxazine
;
_cell_volume   2352.639
_exptl_crystal_colour 'light'
_exptl_crystal_density_diffrn 1.252
_exptl_crystal_description 'block'
_diffrn_ambient_temperature 173
#These two values have been output from a single CSD field.
_refine_ls_R_factor_gt 0.0356
_refine_ls_wR_factor_gt 0.0356
_symmetry_cell_setting monoclinic
_symmetry_space_group_name_H-M 'P 21/n'
_symmetry_Int_Tables_number 14
loop_
_symmetry_equiv_pos_site_id
_symmetry_equiv_pos_as_xyz
1 x,y,z
2 1/2-x,1/2+y,1/2-z
3 -x,-y,-z
4 -1/2+x,-1/2-y,-1/2+z
_cell_length_a 14.6442(2)
_cell_length_b 10.5076(2)
_cell_length_c 15.9170(3)
_cell_angle_alpha 90
_cell_angle_beta 106.145(1)
_cell_angle_gamma 90
_cell_formula_units_Z 4
loop_
_atom_type_symbol
_atom_type_radius_bond
C 0.68
H 0.23
N 0.68
O 0.68
loop_
_atom_site_label
_atom_site_type_symbol
_atom_site_fract_x
_atom_site_fract_y
_atom_site_fract_z
O1 O 0.81194(6) 0.72323(8) -0.00762(6)
O2 O 0.86464(6) 1.09337(9) -0.12814(6)
N1 N 0.77923(8) 0.81068(10) 0.04837(7)
C1 C 0.75239(10) 1.31119(13) -0.14371(9)
H1 H 0.80760 1.31150 -0.16400
C2 C 0.69747(11) 1.42033(14) -0.15134(11)
H2 H 0.71540 1.49470 -0.17670
C3 C 0.61716(12) 1.42177(15) -0.12245(11)
H3 H 0.58050 1.49730 -0.12660
C4 C 0.59028(12) 1.31283(15) -0.08739(11)
H4 H 0.53420 1.31290 -0.06850
C5 C 0.64457(11) 1.20334(14) -0.07962(10)
H5 H 0.62510 1.12870 -0.05560
C6 C 0.72753(10) 1.20113(13) -0.10660(9)
C7 C 0.63402(10) 0.80893(13) -0.15334(9)
H6 H 0.69210 0.80750 -0.16890
C8 C 0.55277(11) 0.76023(14) -0.21044(10)
H7 H 0.55550 0.72490 -0.26460
C9 C 0.46743(11) 0.76247(15) -0.18933(11)
H8 H 0.41140 0.72970 -0.22900
C10 C 0.46448(11) 0.81277(16) -0.10997(11)
H9 H 0.40610 0.81460 -0.09500
C11 C 0.54609(10) 0.86045(14) -0.05223(10)
H10 H 0.54340 0.89380 0.00250
C12 C 0.63194(9) 0.86018(12) -0.07326(9)
C13 C 0.71215(11) 0.80030(17) 0.17027(10)
H11 H 0.72770 0.88770 0.18110
C14 C 0.67103(12) 0.7335(2) 0.22520(12)
H12 H 0.65790 0.77550 0.27340
C15 C 0.64900(13) 0.6068(2) 0.21053(14)
H13 H 0.62220 0.56070 0.24930
C16 C 0.66587(13) 0.54716(18) 0.13963(14)
H14 H 0.64990 0.45980 0.12910
C17 C 0.70590(11) 0.61305(14) 0.08322(11)
H15 H 0.71630 0.57140 0.03370
C18 C 0.73065(9) 0.73950(14) 0.09926(9)
C19 C 0.90003(11) 0.65239(14) -0.15242(10)
H16 H 0.83750 0.68090 -0.18070
C20 C 0.94708(13) 0.57355(15) -0.19627(11)
H17 H 0.91620 0.54690 -0.25420
C21 C 1.03838(13) 0.53359(15) -0.15634(12)
H18 H 1.07080 0.48040 -0.18690
C22 C 1.08239(12) 0.57075(17) -0.07233(12)
H19 H 1.14550 0.54360 -0.04460
C23 C 1.03505(11) 0.64767(15) -0.02800(11)
H20 H 1.06560 0.67200 0.03060
C24 C 0.94408(9) 0.68973(12) -0.06736(9)
C25 C 0.72157(9) 0.91132(12) -0.00914(9)
H21 H 0.70260 0.97590 0.02900
C26 C 0.78901(9) 0.97384(12) -0.05306(9)
C27 C 0.87134(9) 0.90694(12) -0.06079(9)
C28 C 0.89814(9) 0.77961(13) -0.01803(9)
H22 H 0.94290 0.79370 0.04130
C29 C 0.78722(9) 1.08753(13) -0.09432(9)
C30 C 0.91493(9) 0.98142(12) -0.10696(9)
C31 C 0.99914(10) 0.96560(14) -0.1407(1)
H23 H 1.02900 0.88310 -0.12180
H24 H 1.04480 1.03390 -0.11780
H25 H 0.97910 0.96940 -0.20470
#END
