
#######################################################################
#
#                 Cambridge Crystallographic Data Centre
#                                CCDC
#
#######################################################################
#
# If this CIF has been generated from an entry in the Cambridge
# Structural Database, then it will include bibliographic, chemical,
# crystal, experimental, refinement or atomic coordinate data resulting
# from the CCDC's data processing and validation procedures.
#
#######################################################################

data_CSD_CIF_UGIROT
_audit_creation_date 2015-04-22
_audit_creation_method CSD-ConQuest-V1
_database_code_CSD UGIROT
_database_code_depnum_ccdc_archive 'CCDC 1003961'
_chemical_formula_sum 'C29 H39 N3 O4'
_chemical_formula_moiety
;
C29 H39 N3 O4
;
_journal_coden_Cambridge 371
_journal_year 2014
_journal_page_first 890
_journal_name_full 'Khim.Prir.Soedin(Russ.)(Chem.Nat.Compd.) '
loop_
_publ_author_name
"N.Sh.Nadaraia"
"M.L.Kahabrishvili"
"E.O.Onashvili"
"N.N.Barbakadze"
"M.Z.Getia"
"A.Pishet"
"M.I.Siharulidze"
"U.S.Makhmudov"
_chemical_name_systematic
;
20-((4-nitrophenyl)hydrazono)pregn-16-en-3-yl acetate
;
_cell_volume   1351.881
_exptl_crystal_colour 'yellow'
_exptl_crystal_density_diffrn 1.213
_exptl_crystal_description 'prism'
_diffrn_ambient_temperature 293
#These two values have been output from a single CSD field.
_refine_ls_R_factor_gt 0.0516
_refine_ls_wR_factor_gt 0.0516
_symmetry_cell_setting monoclinic
_symmetry_space_group_name_H-M 'P 21'
_symmetry_Int_Tables_number 4
loop_
_symmetry_equiv_pos_site_id
_symmetry_equiv_pos_as_xyz
1 x,y,z
2 -x,1/2+y,-z
_cell_length_a 10.427(2)
_cell_length_b 7.469(1)
_cell_length_c 17.841(2)
_cell_angle_alpha 90
_cell_angle_beta 103.353(9)
_cell_angle_gamma 90
_cell_formula_units_Z 2
loop_
_atom_type_symbol
_atom_type_radius_bond
C 0.68
H 0.23
N 0.68
O 0.68
loop_
_atom_site_label
_atom_site_type_symbol
_atom_site_fract_x
_atom_site_fract_y
_atom_site_fract_z
O1 O -0.0429(2) -0.2653(5) -1.17726(15)
O2 O -0.1901(3) -0.2012(10) -1.1153(2)
C1 C -0.2823(3) -0.2190(4) -1.50100(19)
H1 H -0.36620 -0.20020 -1.48630
N1 N -0.5275(4) 0.1608(7) -1.8603(2)
N2 N -0.2123(5) 0.7328(8) -1.9003(2)
C2 C -0.1321(4) -0.4143(6) -1.2983(3)
H2 H -0.16400 -0.51400 -1.27290
H3 H -0.04200 -0.43990 -1.30090
C3 C -0.1776(3) -0.2341(5) -1.4242(2)
C4 C -0.3711(4) -0.0386(5) -1.6266(2)
H4 H -0.45540 -0.00970 -1.61540
H5 H -0.34750 0.05830 -1.65700
O3 O -0.0943(4) 0.7237(7) -1.8734(2)
O4 O -0.2651(5) 0.8692(8) -1.9330(2)
N3 N -0.4829(3) 0.0308(6) -1.80464(19)
C5 C -0.3837(3) -0.2130(5) -1.6730(2)
C6 C -0.2383(4) 0.4336(8) -1.8506(2)
H6 H -0.14790 0.43160 -1.82970
C7 C -0.2655(4) -0.0554(5) -1.5503(2)
H7 H -0.17930 -0.06170 -1.56220
H8 H -0.26750 0.05210 -1.52010
C8 C -0.3322(5) -0.5484(5) -1.5029(2)
H9 H -0.33370 -0.65810 -1.53220
H10 H -0.41940 -0.53120 -1.49360
C9 C -0.2948(4) 0.5805(7) -1.89359(19)
C10 C -0.3139(4) 0.2924(7) -1.8388(2)
H11 H -0.27590 0.19450 -1.80990
C11 C -0.3010(4) -0.3941(5) -1.5499(2)
H12 H -0.21930 -0.42030 -1.56600
C12 C -0.4280(4) 0.5842(8) -1.92647(19)
H13 H -0.46560 0.68190 -1.95580
C13 C -0.4108(4) -0.3610(5) -1.6210(2)
H14 H -0.48520 -0.31750 -1.60110
C14 C -0.2177(3) -0.3938(5) -1.3798(2)
H15 H -0.30600 -0.36460 -1.37310
C15 C -0.1355(3) -0.2449(6) -1.2523(2)
H16 H -0.22470 -0.22600 -1.24480
C16 C -0.0381(3) -0.2614(7) -1.4393(2)
H17 H 0.02540 -0.27060 -1.39100
H18 H -0.01650 -0.16120 -1.46780
H19 H -0.03700 -0.36920 -1.46840
C17 C -0.1762(4) -0.0673(5) -1.3749(2)
H20 H -0.26620 -0.03790 -1.37350
H21 H -0.14160 0.03190 -1.39930
C18 C -0.0941(4) -0.0861(6) -1.2917(2)
H22 H -0.00170 -0.09760 -1.29220
H23 H -0.10420 0.02130 -1.26290
C19 C -0.4481(4) 0.2967(8) -1.87042(19)
C20 C -0.4689(5) -0.5116(6) -1.6778(3)
H24 H -0.40030 -0.58150 -1.69260
H25 H -0.52560 -0.59030 -1.65670
C21 C -0.5545(4) -0.1041(8) -1.8027(2)
C22 C -0.5034(4) -0.2342(7) -1.7427(2)
C23 C -0.2571(4) -0.2441(7) -1.7019(2)
H26 H -0.18160 -0.23100 -1.65980
H27 H -0.25260 -0.15790 -1.74120
H28 H -0.25830 -0.36260 -1.72290
C24 C -0.5034(4) 0.4436(8) -1.91540(19)
H29 H -0.59320 0.44440 -1.93790
C25 C -0.2343(5) -0.5684(5) -1.4266(3)
H30 H -0.14960 -0.60380 -1.43570
H31 H -0.26360 -0.66250 -1.39700
C26 C -0.5450(5) -0.4043(8) -1.7435(3)
H32 H -0.61410 -0.45030 -1.78110
C27 C -0.0791(4) -0.2414(7) -1.1142(2)
C28 C -0.6837(4) -0.1451(9) -1.8597(3)
H33 H -0.70700 -0.04670 -1.89480
H34 H -0.75190 -0.16300 -1.83230
H35 H -0.67400 -0.25160 -1.88800
C29 C 0.0261(4) -0.2710(8) -1.0434(2)
H36 H -0.00890 -0.25060 -0.99880
H37 H 0.09760 -0.18970 -1.04280
H38 H 0.05750 -0.39200 -1.04270
H39 H -0.604(4) 0.185(5) -1.879(2)
#END
