
#######################################################################
#
#                 Cambridge Crystallographic Data Centre
#                                CCDC
#
#######################################################################
#
# If this CIF has been generated from an entry in the Cambridge
# Structural Database, then it will include bibliographic, chemical,
# crystal, experimental, refinement or atomic coordinate data resulting
# from the CCDC's data processing and validation procedures.
#
#######################################################################

data_CSD_CIF_UGIRIM
_audit_creation_date 2010-05-25
_audit_creation_method CSD-ConQuest-V1
_database_code_CSD UGIRIM
_database_code_depnum_ccdc_archive 'CCDC 697174'
_chemical_formula_sum 'C50 H34 N6 O1'
_chemical_formula_moiety
;
C50 H34 N6 O1
;
_journal_coden_Cambridge 1229
_journal_volume 13
_journal_year 2009
_journal_page_first 215
_journal_name_full 'J.Porphyrins Phthalocyanines '
loop_
_publ_author_name
"M.Toganoh"
"T.Hihara"
"K.Yonekura"
"Y.Ishikawa"
"H.Furuta"
_chemical_name_systematic
;
24-(2-Hydroxy-2-phenyl-2\l^5^-diazen-1-yl)-2,7,12,17-tetraphenyl-4,21,22,23-te
traazapentacyclo[16.2.1.1^3,6^.1^8,11^.1^13,16^]tetracosa-1(20),2,4,6(24),7,9,
11,13(22),14,16,18-undecaene
;
_chemical_name_common
;
5,10,15,20-Tetraphenyl-21-phenylazoxy-2-aza-21-carbaporphyrin
;
_cell_volume   3718.668
_exptl_crystal_colour 'violet'
_exptl_crystal_density_diffrn 1.313
_exptl_crystal_description 'rectangular solid'
_exptl_crystal_preparation 'dichloromethane/methanol'
_diffrn_ambient_temperature 223
#These two values have been output from a single CSD field.
_refine_ls_R_factor_gt 0.0453
_refine_ls_wR_factor_gt 0.0453
_symmetry_cell_setting monoclinic
_symmetry_space_group_name_H-M 'P 21/n'
_symmetry_Int_Tables_number 14
loop_
_symmetry_equiv_pos_site_id
_symmetry_equiv_pos_as_xyz
1 x,y,z
2 1/2-x,1/2+y,1/2-z
3 -x,-y,-z
4 -1/2+x,-1/2-y,-1/2+z
_cell_length_a 11.812(2)
_cell_length_b 13.019(2)
_cell_length_c 24.880(4)
_cell_angle_alpha 90
_cell_angle_beta 103.607(3)
_cell_angle_gamma 90
_cell_formula_units_Z 4
loop_
_atom_type_symbol
_atom_type_radius_bond
C 0.68
H 0.23
N 0.68
O 0.68
loop_
_atom_site_label
_atom_site_type_symbol
_atom_site_fract_x
_atom_site_fract_y
_atom_site_fract_z
C1 C 0.79605(13) 0.75315(13) 0.89655(7)
H1 H 0.86170 0.71650 0.91580
C2 C 0.68154(12) 0.74123(12) 0.90601(6)
C3 C 0.60983(12) 0.80788(11) 0.86702(6)
C4 C 0.68517(12) 0.86230(12) 0.83990(7)
C5 C 0.66588(13) 0.94748(12) 0.80382(6)
C6 C 0.57917(13) 1.02168(12) 0.80308(6)
C7 C 0.54569(14) 1.10608(12) 0.76631(7)
H2 H 0.57640 1.12150 0.73570
C8 C 0.46192(14) 1.16063(12) 0.78292(7)
H3 H 0.42460 1.21990 0.76570
C9 C 0.44056(13) 1.11270(11) 0.83076(6)
C10 C 0.36121(13) 1.14121(11) 0.86218(7)
C11 C 0.33922(13) 1.08633(12) 0.90723(7)
C12 C 0.25773(14) 1.12180(12) 0.93871(7)
H4 H 0.21810 1.18500 0.93460
C13 C 0.24981(14) 1.04767(12) 0.97457(7)
H5 H 0.20360 1.04850 1.00060
C14 C 0.32635(12) 0.96522(12) 0.96569(6)
C15 C 0.33203(12) 0.87058(12) 0.99385(6)
C16 C 0.41294(12) 0.79229(12) 0.99357(6)
C17 C 0.41972(13) 0.69314(12) 1.01834(6)
H6 H 0.36810 0.66650 1.03840
C18 C 0.51376(13) 0.64366(12) 1.00802(6)
H7 H 0.53980 0.57790 1.02080
C19 C 0.56605(12) 0.70793(11) 0.97467(6)
C20 C 0.65970(12) 0.68525(11) 0.95076(6)
N1 N 0.79864(12) 0.82080(12) 0.85799(7)
N2 N 0.51265(11) 1.02975(9) 0.84126(5)
H8 H 0.51610 0.98740 0.86860
N3 N 0.38376(10) 0.99223(9) 0.92621(5)
N4 N 0.50267(10) 0.79749(9) 0.96768(5)
H9 H 0.51770 0.85050 0.94920
C21 C 0.74795(13) 0.96331(12) 0.76744(6)
C22 C 0.77522(14) 0.88228(13) 0.73657(7)
H10 H 0.74160 0.81740 0.73880
C23 C 0.85155(15) 0.89596(15) 0.70248(7)
H11 H 0.86920 0.84020 0.68180
C24 C 0.90148(15) 0.98957(15) 0.69856(7)
H12 H 0.95270 0.99840 0.67520
C25 C 0.87625(17) 1.07047(16) 0.72903(8)
H13 H 0.91070 1.13490 0.72670
C26 C 0.80023(16) 1.05738(14) 0.76311(8)
H14 H 0.78360 1.11340 0.78380
C27 C 0.29364(14) 1.23753(12) 0.84413(7)
C28 C 0.17371(16) 1.23409(15) 0.82256(8)
H15 H 0.13460 1.17070 0.81920
C29 C 0.11154(18) 1.32378(17) 0.80604(9)
H16 H 0.03060 1.32090 0.79150
C30 C 0.16826(19) 1.41701(16) 0.81089(8)
H17 H 0.12590 1.47760 0.79980
C31 C 0.28665(18) 1.42162(14) 0.83181(8)
H18 H 0.32520 1.48530 0.83510
C32 C 0.34902(15) 1.33226(12) 0.84803(7)
H19 H 0.43010 1.33580 0.86190
C33 C 0.23972(13) 0.84926(11) 1.02426(6)
C34 C 0.12308(14) 0.85343(14) 0.99627(7)
H20 H 0.10330 0.87030 0.95850
C35 C 0.03606(16) 0.83315(16) 1.02320(9)
H21 H -0.04240 0.83690 1.00380
C36 C 0.06363(18) 0.80750(16) 1.07844(9)
H22 H 0.00430 0.79410 1.09690
C37 C 0.17799(19) 0.80166(16) 1.10633(8)
H23 H 0.19690 0.78290 1.14390
C38 C 0.26620(15) 0.82308(13) 1.07992(7)
H24 H 0.34440 0.81990 1.09980
C39 C 0.73788(12) 0.59914(12) 0.97353(7)
C40 C 0.77431(14) 0.53161(13) 0.93750(7)
H25 H 0.74910 0.54170 0.89910
C41 C 0.84681(15) 0.45022(13) 0.95743(8)
H26 H 0.87040 0.40530 0.93260
C42 C 0.88478(16) 0.43440(13) 1.01351(9)
H27 H 0.93370 0.37860 1.02700
C43 C 0.85069(15) 0.50076(13) 1.04966(8)
H28 H 0.87740 0.49070 1.08800
C44 C 0.77750(14) 0.58208(12) 1.03011(7)
H29 H 0.75410 0.62650 1.05530
N5 N 0.4909(1) 0.82309(9) 0.85165(5)
N6 N 0.42145(10) 0.74846(9) 0.85460(5)
C45 C 0.29927(12) 0.77677(12) 0.84425(6)
C46 C 0.26005(14) 0.86588(13) 0.81611(7)
H30 H 0.31090 0.90750 0.80170
C47 C 0.14442(15) 0.89292(16) 0.80947(8)
H31 H 0.11590 0.95300 0.79000
C48 C 0.07039(15) 0.83194(18) 0.83133(8)
H32 H -0.00780 0.85140 0.82740
C49 C 0.11136(15) 0.74304(17) 0.85875(8)
H33 H 0.06050 0.70130 0.87300
C50 C 0.22646(14) 0.71412(14) 0.86563(7)
H34 H 0.25450 0.65320 0.88440
O1 O 0.44986(9) 0.65658(8) 0.86690(5)
#END
