
#######################################################################
#
#                 Cambridge Crystallographic Data Centre
#                                CCDC
#
#######################################################################
#
# If this CIF has been generated from an entry in the Cambridge
# Structural Database, then it will include bibliographic, chemical,
# crystal, experimental, refinement or atomic coordinate data resulting
# from the CCDC's data processing and validation procedures.
#
#######################################################################

data_CSD_CIF_UGIXUF
_audit_creation_date 2015-04-22
_audit_creation_method CSD-ConQuest-V1
_database_code_CSD UGIXUF
_database_code_depnum_ccdc_archive 'CCDC 1058381'
_chemical_formula_sum 'C7 H5 N1 O4'
_chemical_formula_moiety
;
C7 H5 N1 O4
;
_journal_coeditor_code "su5113"
_journal_coden_Cambridge 1828
_journal_volume 71
_journal_year 2015
_journal_page_first o328
_journal_name_full 'Acta Crystallogr.,Sect.E:Cryst.Commun. '
loop_
_publ_author_name
"H.Bano"
"S.Yousuf"
_chemical_name_systematic
;
5-Hydroxy-2-nitrobenzaldehyde
;
_cell_volume    705.210
_exptl_crystal_colour 'colorless'
_exptl_crystal_density_diffrn 1.574
_exptl_crystal_description 'Block'
_diffrn_ambient_temperature 273
#These two values have been output from a single CSD field.
_refine_ls_R_factor_gt 0.046
_refine_ls_wR_factor_gt 0.046
_symmetry_cell_setting monoclinic
_symmetry_space_group_name_H-M 'P 21/c'
_symmetry_Int_Tables_number 14
loop_
_symmetry_equiv_pos_site_id
_symmetry_equiv_pos_as_xyz
1 x,y,z
2 -x,1/2+y,1/2-z
3 -x,-y,-z
4 x,-1/2-y,-1/2+z
_cell_length_a 9.6648(18)
_cell_length_b 5.0917(10)
_cell_length_c 14.920(3)
_cell_angle_alpha 90
_cell_angle_beta 106.159(4)
_cell_angle_gamma 90
_cell_formula_units_Z 4
loop_
_atom_type_symbol
_atom_type_radius_bond
C 0.68
H 0.23
N 0.68
O 0.68
loop_
_atom_site_label
_atom_site_type_symbol
_atom_site_fract_x
_atom_site_fract_y
_atom_site_fract_z
O1 O 0.0034(2) 0.9749(4) -0.12613(15)
O2 O 0.1401(2) 0.9319(3) -0.21588(12)
O3 O 0.42366(18) 0.1329(3) 0.09957(10)
O4 O 0.39446(19) 0.3765(4) -0.22575(10)
N1 N 0.1039(2) 0.8710(4) -0.14662(14)
C1 C 0.1847(2) 0.6689(4) -0.08470(13)
C2 C 0.1690(2) 0.6549(4) 0.00439(15)
H1 H 0.10500 0.76720 0.02180
C3 C 0.2468(2) 0.4774(4) 0.06721(14)
H2 H 0.23560 0.46910 0.12710
C4 C 0.3419(2) 0.3104(4) 0.04173(12)
C5 C 0.3562(2) 0.3232(4) -0.04816(12)
H3 H 0.41920 0.20860 -0.06540
C6 C 0.2793(2) 0.5012(4) -0.11264(12)
C7 C 0.2988(3) 0.4856(4) -0.20759(14)
H4 H 0.23070 0.56770 -0.25600
H5 H 0.411(3) 0.140(5) 0.156(2)
#END
