
#######################################################################
#
#                 Cambridge Crystallographic Data Centre
#                                CCDC
#
#######################################################################
#
# If this CIF has been generated from an entry in the Cambridge
# Structural Database, then it will include bibliographic, chemical,
# crystal, experimental, refinement or atomic coordinate data resulting
# from the CCDC's data processing and validation procedures.
#
#######################################################################

data_CSD_CIF_UGOMEJ
_audit_creation_date 2010-04-15
_audit_creation_method CSD-ConQuest-V1
_database_code_CSD UGOMEJ
_database_code_depnum_ccdc_archive 'CCDC 679280'
_chemical_formula_sum 'C26 H28 N2 O2'
_chemical_formula_moiety
;
C26 H28 N2 O2
;
_journal_coden_Cambridge 392
_journal_volume 76
_journal_year 2008
_journal_page_first 471
_journal_name_full 'Heterocycles '
loop_
_publ_author_name
"N.Asao"
"S.Yudha S."
"T.Nogami"
"Y.Yamamoto"
_chemical_name_systematic
;
anti-3-Butyl-2-(1-(1-naphthyl)ethyl)-1-(nitromethyl)-1,2-dihydroisoquinoline
;
_cell_volume   1065.701
_exptl_crystal_colour 'colorless'
_exptl_crystal_density_diffrn 1.248
_exptl_crystal_description 'prism'
_exptl_crystal_preparation 'hexane/dichloromethane'
_diffrn_ambient_temperature 173.1
#These two values have been output from a single CSD field.
_refine_ls_R_factor_gt 0.0457
_refine_ls_wR_factor_gt 0.0457
_symmetry_cell_setting triclinic
_symmetry_space_group_name_H-M 'P -1'
_symmetry_Int_Tables_number 2
loop_
_symmetry_equiv_pos_site_id
_symmetry_equiv_pos_as_xyz
1 x,y,z
2 -x,-y,-z
_cell_length_a 10.254(3)
_cell_length_b 10.656(4)
_cell_length_c 11.184(3)
_cell_angle_alpha 68.826(15)
_cell_angle_beta 70.071(15)
_cell_angle_gamma 77.726(17)
_cell_formula_units_Z 2
loop_
_atom_type_symbol
_atom_type_radius_bond
C 0.68
H 0.23
N 0.68
O 0.68
loop_
_atom_site_label
_atom_site_type_symbol
_atom_site_fract_x
_atom_site_fract_y
_atom_site_fract_z
O1 O 0.34437(18) 0.71404(17) 0.35121(17)
O2 O 0.5243(2) 0.6906(2) 0.41660(17)
N1 N 0.68017(13) 0.56253(13) 0.16599(13)
N2 N 0.4680(2) 0.72545(17) 0.33052(18)
C1 C 0.58968(18) 0.68009(17) 0.11091(17)
C2 C 0.82105(18) 0.57936(17) 0.13240(17)
C3 C 0.87713(18) 0.68607(17) 0.02958(17)
C4 C 0.80185(18) 0.77358(17) -0.06358(17)
C5 C 0.8646(2) 0.86504(17) -0.18769(18)
C6 C 0.7892(2) 0.93747(19) -0.27683(19)
C7 C 0.6502(2) 0.91874(18) -0.24667(19)
C8 C 0.58586(19) 0.83056(18) -0.12389(18)
C9 C 0.65942(18) 0.76108(17) -0.03221(17)
C10 C 0.55072(19) 0.78165(17) 0.19048(17)
C11 C 0.63738(17) 0.42362(16) 0.22662(17)
C12 C 0.70282(17) 0.33808(17) 0.13248(17)
C13 C 0.73832(18) 0.19513(18) 0.18488(18)
C14 C 0.7199(2) 0.12554(18) 0.32358(18)
C15 C 0.7578(2) -0.0110(2) 0.3680(2)
C16 C 0.8158(2) -0.08543(19) 0.2774(2)
C17 C 0.83335(19) -0.02223(18) 0.1439(2)
C18 C 0.79453(18) 0.11751(18) 0.09424(18)
C19 C 0.80986(18) 0.18244(18) -0.04448(18)
C20 C 0.77478(18) 0.31819(19) -0.09155(18)
C21 C 0.72306(18) 0.39590(18) -0.00250(17)
C22 C 0.47933(17) 0.41875(18) 0.27610(18)
C23 C 0.90993(18) 0.47445(17) 0.21275(17)
C24 C 0.87741(19) 0.47417(18) 0.35705(17)
C25 C 0.95918(19) 0.35518(19) 0.43760(18)
C26 C 1.1168(2) 0.36292(19) 0.38571(19)
H1 H 0.96780 0.70460 0.01870
H2 H 0.96010 0.87710 -0.21020
H3 H 0.83250 1.00060 -0.35950
H4 H 0.60000 0.96570 -0.31020
H5 H 0.49070 0.81780 -0.10270
H6 H 0.50670 0.65100 0.11440
H7 H 0.67090 0.38150 0.30280
H8 H 0.70400 0.49110 -0.03760
H9 H 0.78410 0.36060 -0.18440
H10 H 0.84480 0.13090 -0.10470
H11 H 0.87150 -0.07330 0.08340
H12 H 0.84320 -0.17960 0.30950
H13 H 0.74530 -0.05530 0.46100
H14 H 0.67970 0.17380 0.38640
H15 H 0.49920 0.85970 0.14710
H16 H 0.63440 0.80630 0.19060
H17 H 0.89460 0.38810 0.21650
H18 H 1.00520 0.48870 0.16800
H19 H 0.90160 0.55660 0.35440
H20 H 0.78050 0.46820 0.40020
H21 H 0.92850 0.35440 0.52820
H22 H 0.94040 0.27360 0.43340
H23 H 1.15630 0.31790 0.32010
H24 H 1.15670 0.32070 0.45770
H25 H 1.13530 0.45500 0.34670
H26 H 0.46610 0.31560 0.33920
H27 H 0.42910 0.48260 0.33120
H28 H 0.43810 0.44260 0.19720
#END
