
#######################################################################
#
#                 Cambridge Crystallographic Data Centre
#                                CCDC
#
#######################################################################
#
# If this CIF has been generated from an entry in the Cambridge
# Structural Database, then it will include bibliographic, chemical,
# crystal, experimental, refinement or atomic coordinate data resulting
# from the CCDC's data processing and validation procedures.
#
#######################################################################

data_CSD_CIF_UGOQUD
_audit_creation_date 2010-04-15
_audit_creation_method CSD-ConQuest-V1
_database_code_CSD UGOQUD
_database_code_depnum_ccdc_archive 'CCDC 664442'
_chemical_formula_sum 'C19 H14 N2 O7'
_chemical_formula_moiety
;
C19 H14 N2 O7
;
_journal_coden_Cambridge 392
_journal_volume 78
_journal_year 2009
_journal_page_first 1977
_journal_name_full 'Heterocycles '
loop_
_publ_author_name
"C.Roussel"
"K.Ciamala"
"J.Vebrel"
"C.Riche"
_chemical_name_systematic
;
3'-(4-nitrobenzoyl)-2'-phenyl-2',3'-dihydrospiroisoxazolino[5':3]succinic 
anhydride
;
_chemical_melting_point 421.15
_cell_volume   3421.817
_exptl_crystal_colour 'colorless'
_exptl_crystal_density_diffrn 1.484
_exptl_special_details
;
Melting point range 421.15-423.15K

;
_exptl_crystal_description 'prism'
_diffrn_ambient_temperature 293
#These two values have been output from a single CSD field.
_refine_ls_R_factor_gt 0.0331
_refine_ls_wR_factor_gt 0.0331
_symmetry_cell_setting orthorhombic
_symmetry_space_group_name_H-M 'P b c n'
_symmetry_Int_Tables_number 60
loop_
_symmetry_equiv_pos_site_id
_symmetry_equiv_pos_as_xyz
1 x,y,z
2 1/2-x,1/2-y,1/2+z
3 1/2+x,1/2-y,-z
4 -x,y,1/2-z
5 -x,-y,-z
6 -1/2+x,-1/2+y,-1/2-z
7 -1/2-x,-1/2+y,z
8 x,-y,-1/2+z
_cell_length_a 17.904(8)
_cell_length_b 11.057(5)
_cell_length_c 17.285(7)
_cell_angle_alpha 90
_cell_angle_beta 90
_cell_angle_gamma 90
_cell_formula_units_Z 8
loop_
_atom_type_symbol
_atom_type_radius_bond
C 0.68
H 0.23
N 0.68
O 0.68
loop_
_atom_site_label
_atom_site_type_symbol
_atom_site_fract_x
_atom_site_fract_y
_atom_site_fract_z
O1 O 0.07985(7) 0.03384(11) 0.48511(7)
N1 N 0.10632(9) -0.06262(14) 0.53545(9)
C1 C 0.13196(11) -0.15286(18) 0.47970(11)
H1 H 0.16700 -0.20930 0.50410
C2 C 0.17065(12) -0.08028(19) 0.41689(12)
H2 H 0.16830 -0.12150 0.36740
H3 H 0.22250 -0.06480 0.43000
C3 C 0.12515(11) 0.03691(18) 0.41572(11)
C4 C 0.07504(13) 0.05864(19) 0.34614(12)
H4 H 0.07300 -0.01280 0.31360
H5 H 0.02480 0.07880 0.36260
C5 C 0.10912(14) 0.1611(2) 0.30371(15)
O2 O 0.16542(9) 0.21283(13) 0.34899(9)
C6 C 0.17445(13) 0.1493(2) 0.41694(14)
O3 O 0.21497(9) 0.18490(14) 0.46604(10)
C7 C 0.15897(11) -0.01559(18) 0.59047(11)
C8 C 0.13692(14) 0.0847(2) 0.63251(13)
H6 H 0.09050 0.11960 0.62320
C9 C 0.18325(17) 0.1335(2) 0.68809(14)
H7 H 0.16860 0.20180 0.71550
C10 C 0.25136(18) 0.0802(3) 0.70267(15)
H8 H 0.28310 0.11290 0.73970
C11 C 0.27209(15) -0.0208(3) 0.66251(16)
H9 H 0.31780 -0.05710 0.67310
C12 C 0.22636(13) -0.0697(2) 0.60652(13)
H10 H 0.24100 -0.13870 0.57980
C13 C 0.06245(12) -0.21952(19) 0.45103(14)
O4 O 0.04320(9) -0.21211(14) 0.38410(9)
C14 C 0.01907(12) -0.29517(17) 0.50693(12)
C15 C -0.04737(12) -0.34717(19) 0.48133(14)
H11 H -0.06420 -0.33130 0.43150
C16 C -0.08832(13) -0.4215(2) 0.52867(15)
H12 H -0.13270 -0.45600 0.51150
C17 C -0.06218(12) -0.44363(19) 0.60186(14)
C18 C 0.00278(13) -0.39420(19) 0.62949(13)
H13 H 0.01910 -0.41070 0.67950
C19 C 0.04345(12) -0.31944(19) 0.58147(12)
H14 H 0.08760 -0.28500 0.59920
N2 N -0.10552(12) -0.52431(18) 0.65273(15)
O5 O -0.16135(11) -0.57210(18) 0.62622(13)
O6 O -0.08297(11) -0.54184(18) 0.71824(12)
O7 O 0.09497(11) 0.20326(17) 0.24256(11)
#END
