
#######################################################################
#
#                 Cambridge Crystallographic Data Centre
#                                CCDC
#
#######################################################################
#
# If this CIF has been generated from an entry in the Cambridge
# Structural Database, then it will include bibliographic, chemical,
# crystal, experimental, refinement or atomic coordinate data resulting
# from the CCDC's data processing and validation procedures.
#
#######################################################################

data_CSD_CIF_UGOWOD
_audit_creation_date 2010-04-15
_audit_creation_method CSD-ConQuest-V1
_database_code_CSD UGOWOD
_database_code_depnum_ccdc_archive 'CCDC 722590'
_chemical_formula_sum 'C20 H31 N1 O4'
_chemical_formula_moiety
;
C20 H31 N1 O4
;
_journal_coden_Cambridge 1200
_journal_volume 17
_journal_year 2009
_journal_page_first 6348
_journal_name_full 'Bioorg.Med.Chem. '
loop_
_publ_author_name
"Shwu-Fen Chang"
"Bo-Hon Chou"
"Li-Ming Yang"
"Feng-Lin Hsu"
"Wen-Kuang Lin"
"Yi Ho"
"Shwu-Jiuan Lin"
_chemical_name_systematic
;
ent-7\a-hydroxy-16-E-hydroxyiminobeyeran-19-oic acid
;
_chemical_melting_point 487.15
_cell_volume    898.030
_exptl_crystal_density_diffrn 1.292
_exptl_special_details
;
Melting point range 487.15-489.15K
biological activity

;
_diffrn_ambient_temperature 295
#These two values have been output from a single CSD field.
_refine_ls_R_factor_gt 0.0312
_refine_ls_wR_factor_gt 0.0312
_symmetry_cell_setting monoclinic
_symmetry_space_group_name_H-M 'P 21'
_symmetry_Int_Tables_number 4
loop_
_symmetry_equiv_pos_site_id
_symmetry_equiv_pos_as_xyz
1 x,y,z
2 -x,1/2+y,-z
_cell_length_a 8.6480(1)
_cell_length_b 8.8921(1)
_cell_length_c 11.6901(1)
_cell_angle_alpha 90
_cell_angle_beta 92.600(1)
_cell_angle_gamma 90
_cell_formula_units_Z 2
loop_
_atom_type_symbol
_atom_type_radius_bond
C 0.68
H 0.23
N 0.68
O 0.68
loop_
_atom_site_label
_atom_site_type_symbol
_atom_site_fract_x
_atom_site_fract_y
_atom_site_fract_z
O1 O -0.01285(13) -0.18790(11) 0.72521(10)
O2 O 0.03314(12) -0.06446(12) 0.88841(8)
O3 O 0.01707(12) 0.53171(11) 0.81028(10)
O4 O 0.69873(13) 0.37190(14) 0.98744(9)
N1 N 0.68835(13) 0.48309(14) 0.90058(10)
C1 C 0.16287(18) 0.16936(16) 0.55497(11)
H1 H 0.11410 0.25700 0.51960
H2 H 0.25940 0.15220 0.51790
C2 C 0.0582(2) 0.03441(17) 0.53314(12)
H3 H 0.11160 -0.05630 0.55890
H4 H 0.03420 0.02490 0.45160
C3 C -0.09072(17) 0.05111(16) 0.59575(12)
H5 H -0.15270 -0.03890 0.58350
H6 H -0.14900 0.13520 0.56320
C4 C -0.06434(14) 0.07650(13) 0.72451(11)
C5 C 0.04395(14) 0.21537(13) 0.74275(11)
H7 H -0.01140 0.29750 0.70270
C6 C 0.06832(14) 0.27195(14) 0.86575(10)
H8 H -0.02890 0.26810 0.90390
H9 H 0.14190 0.20750 0.90730
C7 C 0.12867(15) 0.43266(14) 0.86629(11)
H10 H 0.14580 0.46530 0.94590
C8 C 0.28116(14) 0.44433(14) 0.80636(10)
C9 C 0.27544(14) 0.36298(14) 0.68874(11)
H11 H 0.20980 0.42630 0.63800
C10 C 0.19973(15) 0.20387(14) 0.68259(10)
C11 C 0.43626(16) 0.36698(17) 0.63798(12)
H12 H 0.50250 0.29450 0.67830
H13 H 0.42640 0.33620 0.55840
C12 C 0.51367(16) 0.52049(17) 0.64472(13)
H14 H 0.46600 0.58540 0.58650
H15 H 0.62200 0.50940 0.62840
C13 C 0.50173(15) 0.59552(16) 0.76202(12)
C14 C 0.32900(15) 0.60861(15) 0.78608(12)
H16 H 0.27080 0.65160 0.72110
H17 H 0.31360 0.66990 0.85330
C15 C 0.41720(15) 0.39038(16) 0.88699(11)
H18 H 0.39410 0.40570 0.96660
H19 H 0.43840 0.28460 0.87500
C16 C 0.55257(15) 0.48567(16) 0.85497(12)
C17 C 0.58718(19) 0.74491(18) 0.76670(17)
H20 H 0.69390 0.72890 0.75100
H21 H 0.58040 0.78820 0.84150
H22 H 0.54120 0.81200 0.71050
C18 C -0.22264(15) 0.11097(17) 0.77497(14)
H23 H -0.28980 0.02570 0.76400
H24 H -0.26820 0.19690 0.73690
H25 H -0.20820 0.13160 0.85530
C19 C -0.00684(14) -0.06429(15) 0.78780(11)
C20 C 0.30436(16) 0.07851(15) 0.73279(13)
H26 H 0.25110 -0.01600 0.72640
H27 H 0.32980 0.09940 0.81200
H28 H 0.39760 0.07370 0.69140
H29 H 0.782(2) 0.386(2) 1.0238(16)
H30 H 0.002(2) -0.256(2) 0.7662(14)
H31 H -0.067(2) 0.515(2) 0.8418(16)
#END
