
#######################################################################
#
#                 Cambridge Crystallographic Data Centre
#                                CCDC
#
#######################################################################
#
# If this CIF has been generated from an entry in the Cambridge
# Structural Database, then it will include bibliographic, chemical,
# crystal, experimental, refinement or atomic coordinate data resulting
# from the CCDC's data processing and validation procedures.
#
#######################################################################

data_CSD_CIF_UGOXAQ
_audit_creation_date 2010-04-15
_audit_creation_method CSD-ConQuest-V1
_database_code_CSD UGOXAQ
_database_code_depnum_ccdc_archive 'CCDC 722592'
_chemical_formula_sum 'C20 H31 N1 O5'
_chemical_formula_moiety
;
C20 H31 N1 O5
;
_journal_coden_Cambridge 1200
_journal_volume 17
_journal_year 2009
_journal_page_first 6348
_journal_name_full 'Bioorg.Med.Chem. '
loop_
_publ_author_name
"Shwu-Fen Chang"
"Bo-Hon Chou"
"Li-Ming Yang"
"Feng-Lin Hsu"
"Wen-Kuang Lin"
"Yi Ho"
"Shwu-Jiuan Lin"
_chemical_name_systematic
;
ent-1\b,7\a-dihydroxy-16-E-hydroxyiminobeyeran-19-oic acid
;
_chemical_melting_point 490.15
_cell_volume    956.747
_exptl_crystal_density_diffrn 1.269
_exptl_special_details
;
Melting point range 490.15-492.15K
biological activity

;
_diffrn_ambient_temperature 295
#These two values have been output from a single CSD field.
_refine_ls_R_factor_gt 0.0299
_refine_ls_wR_factor_gt 0.0299
_symmetry_cell_setting monoclinic
_symmetry_space_group_name_H-M 'P 21'
_symmetry_Int_Tables_number 4
loop_
_symmetry_equiv_pos_site_id
_symmetry_equiv_pos_as_xyz
1 x,y,z
2 -x,1/2+y,-z
_cell_length_a 7.053
_cell_length_b 18.4418(1)
_cell_length_c 7.649
_cell_angle_alpha 90
_cell_angle_beta 105.92
_cell_angle_gamma 90
_cell_formula_units_Z 2
loop_
_atom_type_symbol
_atom_type_radius_bond
C 0.68
H 0.23
N 0.68
O 0.68
loop_
_atom_site_label
_atom_site_type_symbol
_atom_site_fract_x
_atom_site_fract_y
_atom_site_fract_z
O1 O 0.70440(17) 0.78926(8) 0.99084(14)
H1 H 0.663(4) 0.8276(16) 0.981(3)
O2 O 0.8857(2) 0.85428(8) 1.6722(2)
O3 O 0.8740(2) 0.73847(7) 1.74195(16)
H2 H 0.808(3) 0.7561(15) 1.806(3)
O4 O 1.22236(17) 0.58132(8) 1.3486(2)
H3 H 1.260(3) 0.5456(14) 1.325(3)
O5 O 0.3949(2) 0.44419(8) 1.29918(19)
H4 H 0.314(4) 0.4183(16) 1.298(4)
N1 N 0.44539(19) 0.44054(8) 1.13197(19)
C1 C 0.8656(2) 0.77670(8) 1.15107(19)
H5 H 0.98160 0.76520 1.10920
C2 C 0.9132(2) 0.84534(9) 1.2631(2)
H6 H 0.80140 0.85860 1.30720
H7 H 0.93690 0.88460 1.18730
C3 C 1.0938(2) 0.83498(9) 1.4236(2)
H8 H 1.11680 0.87900 1.49560
H9 H 1.20790 0.82690 1.37860
C4 C 1.0729(2) 0.77154(8) 1.5449(2)
C5 C 1.0166(2) 0.70285(8) 1.42355(18)
H10 H 1.12330 0.69850 1.36480
C6 C 1.0237(2) 0.63100(9) 1.52483(19)
H11 H 1.13430 0.63100 1.63320
H12 H 0.90350 0.62480 1.56160
C7 C 1.0453(2) 0.56971(9) 1.4012(2)
H13 H 1.05710 0.52400 1.46880
C8 C 0.8641(2) 0.56567(8) 1.2369(2)
C9 C 0.8121(2) 0.63975(9) 1.13772(18)
H14 H 0.91000 0.64670 1.06980
C10 C 0.82625(19) 0.70983(8) 1.26020(17)
C11 C 0.6130(2) 0.63108(10) 0.9926(2)
H15 H 0.50860 0.62840 1.05270
H16 H 0.58950 0.67370 0.91540
C12 C 0.6028(3) 0.56360(11) 0.8733(2)
H17 H 0.68040 0.57220 0.78850
H18 H 0.46720 0.55620 0.80300
C13 C 0.6778(2) 0.49429(10) 0.9817(2)
C14 C 0.8906(2) 0.50945(9) 1.0960(2)
H19 H 0.96940 0.52910 1.02130
H20 H 0.95290 0.46570 1.15520
C15 C 0.6879(2) 0.53227(9) 1.2939(2)
H21 H 0.73410 0.50310 1.40290
H22 H 0.60160 0.57000 1.31650
C16 C 0.5825(2) 0.48599(9) 1.1351(2)
C17 C 0.6541(3) 0.42908(12) 0.8563(3)
H23 H 0.51790 0.42380 0.79030
H24 H 0.69790 0.38620 0.92710
H25 H 0.73160 0.43600 0.77230
C18 C 1.2741(2) 0.76094(11) 1.6873(2)
H26 H 1.30650 0.80380 1.76080
H27 H 1.37410 0.75230 1.62620
H28 H 1.26670 0.72020 1.76320
C19 C 0.9321(2) 0.79215(10) 1.6558(2)
C20 C 0.6377(2) 0.72261(9) 1.3202(2)
H29 H 0.65320 0.76540 1.39420
H30 H 0.61450 0.68160 1.38890
H31 H 0.52760 0.72880 1.21480
#END
