
#######################################################################
#
#                 Cambridge Crystallographic Data Centre
#                                CCDC
#
#######################################################################
#
# If this CIF has been generated from an entry in the Cambridge
# Structural Database, then it will include bibliographic, chemical,
# crystal, experimental, refinement or atomic coordinate data resulting
# from the CCDC's data processing and validation procedures.
#
#######################################################################

data_CSD_CIF_UGUHEJ
_audit_creation_date 2003-01-21
_audit_creation_method CSD-ConQuest-V1
_database_code_CSD UGUHEJ
_database_code_depnum_ccdc_archive 'CCDC 197464'
_chemical_formula_sum 'C8 H8 N2 O3'
_chemical_formula_moiety
;
C8 H8 N2 O3
;
_journal_coeditor_code "IUCr OB6163"
_journal_coden_Cambridge 1370
_journal_volume 58
_journal_year 2002
_journal_page_first o983
_journal_name_full 'Acta Crystallogr.,Sect.E:Struct.Rep.Online '
loop_
_publ_author_name
"L.Mahalakshmi"
"V.Upadhyaya"
"T.N.G.Row"
_chemical_name_systematic
;
3-Nitroacetanilide
;
_chemical_melting_point 428
_cell_volume   1679.668
_exptl_crystal_colour 'pale orange'
_exptl_crystal_density_diffrn 1.425
_exptl_crystal_description 'pyramidal'
_exptl_crystal_preparation 'methanol'
_diffrn_ambient_temperature 293
#These two values have been output from a single CSD field.
_refine_ls_R_factor_gt 0.0588
_refine_ls_wR_factor_gt 0.0588
_symmetry_cell_setting monoclinic
_symmetry_space_group_name_H-M 'P 21'
_symmetry_Int_Tables_number 4
loop_
_symmetry_equiv_pos_site_id
_symmetry_equiv_pos_as_xyz
1 x,y,z
2 -x,1/2+y,-z
_cell_length_a 9.767(2)
_cell_length_b 13.298(3)
_cell_length_c 13.272(3)
_cell_angle_alpha 90
_cell_angle_beta 102.991(5)
_cell_angle_gamma 90
_cell_formula_units_Z 8
loop_
_atom_type_symbol
_atom_type_radius_bond
C 0.68
H 0.23
N 0.68
O 0.68
loop_
_atom_site_label
_atom_site_type_symbol
_atom_site_fract_x
_atom_site_fract_y
_atom_site_fract_z
O1 O 0.40737(15) -0.12836(15) 0.59043(16)
O2 O 0.5769(2) 0.18262(18) 0.61497(19)
O3 O 0.4883(3) 0.32085(18) 0.6499(2)
N1 N 0.18951(18) -0.07173(14) 0.59296(15)
N2 N 0.4811(2) 0.23191(18) 0.63255(17)
C1 C 0.2156(2) 0.02897(16) 0.61683(17)
C2 C 0.3408(2) 0.07837(18) 0.61529(17)
C3 C 0.3483(2) 0.18004(18) 0.63493(18)
C4 C 0.2398(3) 0.2365(2) 0.6551(2)
C5 C 0.1173(3) 0.1858(2) 0.6579(2)
C6 C 0.1049(3) 0.08470(19) 0.6393(2)
C7 C 0.2823(2) -0.14436(18) 0.57975(18)
C8 C 0.2182(2) -0.2456(2) 0.5525(2)
O4 O 0.55675(19) -0.05282(18) 0.1092(2)
O5 O 1.0841(2) 0.30344(19) 0.1431(2)
O6 O 0.9631(3) 0.43087(18) 0.1721(2)
N3 N 0.76854(19) 0.01203(16) 0.10646(16)
N4 N 0.9766(2) 0.34116(19) 0.15559(17)
C9 C 0.7508(2) 0.11361(19) 0.12941(17)
C10 C 0.8666(2) 0.17544(19) 0.13413(18)
C11 C 0.8534(2) 0.2766(2) 0.15133(17)
C12 C 0.7304(3) 0.3204(2) 0.1643(2)
C13 C 0.6178(3) 0.2572(3) 0.1622(2)
C14 C 0.6272(3) 0.1552(2) 0.1452(2)
C15 C 0.6742(2) -0.0633(2) 0.0955(2)
C16 C 0.7256(3) -0.1619(2) 0.0629(3)
O7 O 0.08930(15) 0.35198(14) 0.40532(16)
O8 O -0.0786(2) 0.04216(18) 0.3677(2)
O9 O 0.0097(3) -0.09399(17) 0.3273(2)
N5 N 0.30552(18) 0.30065(15) 0.39430(16)
N6 N 0.0192(2) -0.00567(17) 0.34860(16)
C17 C 0.2826(2) 0.19893(17) 0.37088(16)
C18 C 0.1565(2) 0.14871(17) 0.36811(17)
C19 C 0.1522(2) 0.04701(18) 0.34935(17)
C20 C 0.2643(3) -0.00889(19) 0.33469(18)
C21 C 0.3879(3) 0.0427(2) 0.3357(2)
C22 C 0.3962(2) 0.14423(19) 0.3528(2)
C23 C 0.2141(2) 0.37025(19) 0.41255(19)
C24 C 0.2760(3) 0.4722(2) 0.4417(3)
O10 O 0.04660(17) 0.95677(17) 0.08361(18)
O11 O 0.5722(2) 0.6000(2) 0.1172(2)
O12 O 0.4545(3) 0.47362(19) 0.1525(2)
N7 N 0.26410(19) 0.89451(16) 0.09509(16)
N8 N 0.4658(2) 0.56315(19) 0.13404(18)
C25 C 0.2456(2) 0.79236(17) 0.11558(17)
C26 C 0.3586(2) 0.72909(18) 0.11594(16)
C27 C 0.3446(3) 0.62859(19) 0.13368(18)
C28 C 0.2233(3) 0.5863(2) 0.1507(2)
C29 C 0.1138(3) 0.6502(2) 0.1521(2)
C30 C 0.1220(2) 0.7513(2) 0.1357(2)
C31 C 0.1684(2) 0.96886(19) 0.07988(19)
C32 C 0.2229(3) 1.0694(2) 0.0566(2)
H1 H 0.10368 -0.09081 0.58554
H2 H 0.41709 0.04364 0.60139
H3 H 0.24844 0.30550 0.66630
H4 H 0.04187 0.22099 0.67265
H5 H 0.02123 0.05240 0.64175
H6 H 0.26080 -0.27666 0.50185
H7 H 0.11909 -0.23830 0.52475
H8 H 0.23350 -0.28682 0.61337
H9 H 0.85059 -0.00424 0.09832
H10 H 0.95148 0.14895 0.12582
H11 H 0.72377 0.38937 0.17397
H12 H 0.53394 0.28373 0.17247
H13 H 0.54994 0.11414 0.14441
H14 H 0.76729 -0.20048 0.12316
H15 H 0.79432 -0.14975 0.02279
H16 H 0.64797 -0.19854 0.02201
H17 H 0.38962 0.32176 0.39751
H18 H 0.07790 0.18294 0.37863
H19 H 0.25756 -0.07808 0.32456
H20 H 0.46586 0.00802 0.32466
H21 H 0.47975 0.17750 0.35223
H22 H 0.25511 0.51560 0.38236
H23 H 0.37600 0.46637 0.46563
H24 H 0.23650 0.49995 0.49559
H25 H 0.34785 0.91179 0.09184
H26 H 0.44244 0.75449 0.10433
H27 H 0.21601 0.51748 0.16089
H28 H 0.03095 0.62385 0.16454
H29 H 0.04601 0.79267 0.13798
H30 H 0.15750 1.09981 -0.00012
H31 H 0.31201 1.06106 0.03844
H32 H 0.23418 1.11179 0.11641
#END
