
#######################################################################
#
#                 Cambridge Crystallographic Data Centre
#                                CCDC
#
#######################################################################
#
# If this CIF has been generated from an entry in the Cambridge
# Structural Database, then it will include bibliographic, chemical,
# crystal, experimental, refinement or atomic coordinate data resulting
# from the CCDC's data processing and validation procedures.
#
#######################################################################

data_CSD_CIF_UGUHEJ01
_audit_creation_date 2011-06-07
_audit_creation_method CSD-ConQuest-V1
_database_code_CSD UGUHEJ01
_database_code_depnum_ccdc_archive 'CCDC 825787'
_chemical_formula_sum 'C8 H8 N2 O3'
_chemical_formula_moiety
;
C8 H8 N2 O3
;
_journal_coden_Cambridge 1065
_journal_year 2008
_journal_page_first 541
_journal_name_full 'University of Southampton, Crystal Structure Report Archive '
loop_
_publ_author_name
"S.L.Huth"
"T.L.Threlfall"
"M.B.Hursthouse"
_chemical_name_systematic
;
N-(3-Nitrophenyl)acetamide
;
_cell_volume   1636.479
_exptl_crystal_colour 'colorless'
_exptl_crystal_density_diffrn 1.463
_exptl_crystal_description 'cut prism'
_diffrn_ambient_temperature 120
#These two values have been output from a single CSD field.
_refine_ls_R_factor_gt 0.0503
_refine_ls_wR_factor_gt 0.0503
_symmetry_cell_setting monoclinic
_symmetry_space_group_name_H-M 'P 21'
_symmetry_Int_Tables_number 4
loop_
_symmetry_equiv_pos_site_id
_symmetry_equiv_pos_as_xyz
1 x,y,z
2 -x,1/2+y,-z
_cell_length_a 9.7285(5)
_cell_length_b 13.3392(7)
_cell_length_c 12.9849(5)
_cell_angle_alpha 90
_cell_angle_beta 103.791(3)
_cell_angle_gamma 90
_cell_formula_units_Z 8
loop_
_atom_type_symbol
_atom_type_radius_bond
C 0.68
H 0.23
N 0.68
O 0.68
loop_
_atom_site_label
_atom_site_type_symbol
_atom_site_fract_x
_atom_site_fract_y
_atom_site_fract_z
C1 C 0.2454(3) 1.30074(18) 0.11686(19)
C2 C 0.1218(3) 1.3421(2) 0.1381(2)
H1 H 0.04450 1.29990 0.14190
C3 C 0.1133(3) 1.4442(2) 0.1535(2)
H2 H 0.02870 1.47130 0.16640
C4 C 0.2235(3) 1.5075(2) 0.1506(2)
H3 H 0.21620 1.57780 0.16010
C5 C 0.3453(3) 1.46493(18) 0.13319(19)
C6 C 0.3596(3) 1.36344(19) 0.11526(18)
H4 H 0.44480 1.33730 0.10230
C7 C 0.1668(3) 1.1240(2) 0.0804(2)
C8 C 0.2211(3) 1.0224(2) 0.0582(2)
H5 H 0.23850 0.98160 0.12270
H6 H 0.30950 1.03040 0.03540
H7 H 0.15050 0.98930 0.00200
N1 N 0.2637(2) 1.19887(16) 0.09612(16)
H8 H 0.34980 1.18130 0.09290
N2 N 0.4662(2) 1.53039(18) 0.13185(17)
O1 O 0.04253(19) 1.13759(15) 0.08322(15)
O2 O 0.4548(2) 1.62105(16) 0.14884(18)
O3 O 0.5740(2) 1.49334(17) 0.11431(16)
C9 C -0.2492(3) 0.9780(2) 0.13120(18)
C10 C -0.3751(3) 0.9380(2) 0.1467(2)
H9 H -0.45340 0.98060 0.14640
C11 C -0.3857(3) 0.8352(2) 0.16270(19)
H10 H -0.47210 0.80840 0.17260
C12 C -0.2722(3) 0.7707(2) 0.16443(19)
H11 H -0.27960 0.70040 0.17330
C13 C -0.1479(3) 0.81499(19) 0.15241(18)
C14 C -0.1338(3) 0.91582(19) 0.13551(18)
H12 H -0.04660 0.94240 0.12690
C15 C -0.3251(3) 1.1564(2) 0.0973(2)
C16 C -0.2752(3) 1.2546(2) 0.0635(2)
H13 H -0.35450 1.28900 0.01600
H14 H -0.20020 1.24260 0.02630
H15 H -0.23840 1.29630 0.12610
N3 N -0.2315(2) 1.08094(16) 0.10784(16)
H16 H -0.14740 1.09730 0.09910
N4 N -0.0243(2) 0.74998(17) 0.15628(16)
O4 O -0.4448(2) 1.14630(16) 0.11303(18)
O5 O -0.0378(2) 0.65892(14) 0.17157(16)
O6 O 0.0853(2) 0.78761(16) 0.14418(16)
C17 C -0.2845(3) 0.39599(19) 0.63007(17)
C18 C -0.1568(3) 0.44536(18) 0.63382(18)
H17 H -0.07590 0.40970 0.62490
C19 C -0.1518(3) 0.54820(19) 0.65097(18)
C20 C -0.2656(3) 0.6044(2) 0.66419(18)
H18 H -0.25850 0.67500 0.67400
C21 C -0.3910(3) 0.5538(2) 0.6626(2)
H19 H -0.47110 0.58980 0.67250
C22 C -0.3998(3) 0.45158(18) 0.64673(19)
H20 H -0.48580 0.41800 0.64710
C23 C -0.2145(3) 0.22452(19) 0.58921(18)
C24 C -0.2762(3) 0.12180(19) 0.5586(2)
H21 H -0.23860 0.09510 0.50060
H22 H -0.37950 0.12680 0.53560
H23 H -0.25070 0.07690 0.61990
N5 N -0.3083(2) 0.29371(15) 0.60669(16)
H24 H -0.39480 0.27190 0.60290
N6 N -0.0184(2) 0.60018(16) 0.65211(16)
O7 O -0.08824(18) 0.24254(14) 0.59654(14)
O8 O -0.0090(2) 0.68981(15) 0.67441(16)
O9 O 0.0797(2) 0.55152(15) 0.63142(16)
C25 C 0.2132(3) 0.06453(18) 0.61685(18)
C26 C 0.3408(3) 0.01571(19) 0.61613(18)
H25 H 0.41910 0.05170 0.60300
C27 C 0.3489(3) -0.08549(19) 0.63504(18)
C28 C 0.2400(3) -0.1433(2) 0.65555(19)
H26 H 0.25000 -0.21350 0.66740
C29 C 0.1149(3) -0.0930(2) 0.6578(2)
H27 H 0.03760 -0.12910 0.67250
C30 C 0.1025(3) 0.00840(19) 0.6390(2)
H28 H 0.01650 0.04110 0.64120
C31 C 0.2800(3) 0.23891(19) 0.57951(18)
C32 C 0.2145(3) 0.3401(2) 0.5519(2)
H29 H 0.23800 0.38360 0.61450
H30 H 0.11150 0.33310 0.52840
H31 H 0.25130 0.36980 0.49490
N7 N 0.1870(2) 0.16632(15) 0.59255(15)
H32 H 0.09870 0.18590 0.58470
N8 N 0.4828(2) -0.13760(17) 0.63241(16)
O10 O 0.40699(17) 0.22271(13) 0.58988(14)
O11 O 0.4899(2) -0.22768(15) 0.64919(17)
O12 O 0.5792(2) -0.08739(15) 0.61439(15)
#END
