
#######################################################################
#
#                 Cambridge Crystallographic Data Centre
#                                CCDC
#
#######################################################################
#
# If this CIF has been generated from an entry in the Cambridge
# Structural Database, then it will include bibliographic, chemical,
# crystal, experimental, refinement or atomic coordinate data resulting
# from the CCDC's data processing and validation procedures.
#
#######################################################################

data_CSD_CIF_UGULEN
_audit_creation_date 2003-01-21
_audit_creation_method CSD-ConQuest-V1
_database_code_CSD UGULEN
_database_code_depnum_ccdc_archive 'CCDC 197479'
_chemical_formula_sum 'C6 H6 N4 O10'
_chemical_formula_moiety
;
C6 H6 N4 O10
;
_journal_coeditor_code "IUCr CV6131"
_journal_coden_Cambridge 1370
_journal_volume 58
_journal_year 2002
_journal_page_first o1018
_journal_name_full 'Acta Crystallogr.,Sect.E:Struct.Rep.Online '
loop_
_publ_author_name
"J.L.Flippen-Anderson"
"J.R.Deschamps"
"C.George"
"R.D.Gilardi"
_chemical_name_systematic
;
4,4,8,8-Tetranitro-2,6-dioxabicyclo(3.3.0)octane
;
_cell_volume   3173.694
_exptl_crystal_colour 'colorless'
_exptl_crystal_density_diffrn 1.847
_exptl_special_details
;
Cell data collected in 1984 for a monoclinic unit cell are a=9.631(1), 
b=11.538(20), c=10.205(1), beta= 105.30(1), space group P21 and R factor 
0.042. There were two molecules in the asymmetric unit, one of which was 
disordered
;
_exptl_crystal_description 'irregular'
_exptl_crystal_preparation '2-butanone/octane'
_diffrn_ambient_temperature 113
#These two values have been output from a single CSD field.
_refine_ls_R_factor_gt 0.049
_refine_ls_wR_factor_gt 0.049
_symmetry_cell_setting monoclinic
_symmetry_space_group_name_H-M 'P 21'
_symmetry_Int_Tables_number 4
loop_
_symmetry_equiv_pos_site_id
_symmetry_equiv_pos_as_xyz
1 x,y,z
2 -x,1/2+y,-z
_cell_length_a 9.5746(9)
_cell_length_b 11.347(1)
_cell_length_c 29.241(3)
_cell_angle_alpha 90
_cell_angle_beta 92.546(2)
_cell_angle_gamma 90
_cell_formula_units_Z 12
loop_
_atom_type_symbol
_atom_type_radius_bond
C 0.68
H 0.23
N 0.68
O 0.68
loop_
_atom_site_label
_atom_site_type_symbol
_atom_site_fract_x
_atom_site_fract_y
_atom_site_fract_z
C1 C 0.7474(3) 0.7821(2) 0.96469(9)
H1 H 0.76890 0.77380 0.93240
O1 O 0.7411(2) 0.90256(17) 0.97859(7)
C2 C 0.6165(3) 0.9248(3) 1.00244(9)
H2 H 0.58090 1.00330 0.99580
H3 H 0.63360 0.91690 1.03520
C3 C 0.5143(3) 0.8310(2) 0.98434(9)
N1 N 0.3999(2) 0.8012(2) 1.01641(8)
O2 O 0.3914(2) 0.8608(2) 1.05046(7)
O3 O 0.3264(2) 0.7168(2) 1.00495(8)
N2 N 0.4415(2) 0.8728(2) 0.94002(8)
O4 O 0.3222(2) 0.9098(2) 0.94140(7)
O5 O 0.5135(2) 0.8680(2) 0.90667(7)
C4 C 0.6080(3) 0.7240(2) 0.97549(9)
H4 H 0.57070 0.67430 0.95040
O6 O 0.6295(2) 0.66020(18) 1.01752(6)
C5 C 0.7669(3) 0.6821(3) 1.03756(9)
H5 H 0.80470 0.61190 1.05250
H6 H 0.76510 0.74550 1.05980
C6 C 0.8533(3) 0.7169(2) 0.99663(9)
N3 N 0.9080(3) 0.6074(2) 0.97344(8)
O7 O 0.8218(2) 0.55481(18) 0.94906(7)
O8 O 1.0296(2) 0.5804(2) 0.98126(8)
N4 N 0.9794(2) 0.7912(2) 1.00924(8)
O9 O 1.0165(2) 0.7961(2) 1.04939(7)
O10 O 1.0351(2) 0.83997(19) 0.97747(7)
C7 C -0.0577(3) 0.6007(2) 0.84852(9)
H7 H -0.09090 0.52870 0.86300
O11 O -0.02962(19) 0.69369(18) 0.88088(6)
C8 C 0.1028(3) 0.7485(3) 0.87306(9)
H8 H 0.14820 0.77490 0.90160
H9 H 0.09160 0.81510 0.85240
C9 C 0.1855(3) 0.6499(3) 0.85155(9)
N5 N 0.3029(3) 0.6909(2) 0.82219(8)
O12 O 0.3145(3) 0.7956(2) 0.81530(9)
O13 O 0.3744(2) 0.6123(2) 0.80674(7)
N6 N 0.2533(2) 0.5734(2) 0.88862(8)
O14 O 0.1897(2) 0.4850(2) 0.89928(7)
O15 O 0.3626(2) 0.6082(2) 0.90666(8)
C10 C 0.0761(3) 0.5803(3) 0.82240(9)
H10 H 0.09990 0.49660 0.82030
O16 O 0.0571(2) 0.63390(19) 0.77838(6)
C11 C -0.0671(3) 0.7060(3) 0.77668(9)
H11 H -0.11110 0.70660 0.74620
H12 H -0.04570 0.78630 0.78590
C12 C -0.1601(3) 0.6460(3) 0.81062(9)
N7 N -0.2380(3) 0.5457(2) 0.78677(8)
O17 O -0.1808(2) 0.45007(18) 0.78872(7)
O18 O -0.3463(2) 0.5695(2) 0.76567(8)
N8 N -0.2691(3) 0.7220(2) 0.83167(8)
O19 O -0.2621(3) 0.8282(2) 0.82540(8)
O20 O -0.3498(2) 0.6708(2) 0.85547(7)
C13 C 0.2723(3) 0.7564(2) 0.64048(9)
H13 H 0.23520 0.70340 0.61640
O21 O 0.28881(19) 0.69885(18) 0.68363(6)
C14 C 0.4243(3) 0.7234(3) 0.70494(9)
H14 H 0.46010 0.65550 0.72190
H15 H 0.42010 0.79010 0.72560
C15 C 0.5154(3) 0.7514(2) 0.66449(9)
N9 N 0.6410(2) 0.8261(2) 0.67695(8)
O22 O 0.6743(2) 0.83470(19) 0.71781(7)
O23 O 0.7013(2) 0.86862(19) 0.64514(7)
N10 N 0.5718(3) 0.6375(2) 0.64442(8)
O24 O 0.6943(2) 0.61284(19) 0.65238(8)
O25 O 0.4848(2) 0.57985(18) 0.62275(7)
C16 C 0.4143(3) 0.8100(2) 0.62874(9)
H16 H 0.43880 0.79180 0.59730
O26 O 0.4081(2) 0.93369(17) 0.63671(7)
C17 C 0.2828(3) 0.9648(3) 0.65868(9)
H17 H 0.24780 1.04040 0.64780
H18 H 0.29930 0.96890 0.69160
C18 C 0.1799(3) 0.8664(3) 0.64578(9)
N11 N 0.1021(2) 0.8966(2) 0.60126(8)
O27 O 0.1664(2) 0.87608(19) 0.56706(6)
O28 O -0.0137(2) 0.9412(2) 0.60270(7)
N12 N 0.0700(2) 0.8431(2) 0.68031(8)
O29 O 0.0721(2) 0.9036(2) 0.71487(7)
O30 O -0.0100(2) 0.7621(2) 0.67099(7)
C19 C 0.6017(3) 0.6045(2) 0.51792(9)
H19 H 0.57590 0.53270 0.53420
O31 O 0.62420(19) 0.70275(18) 0.54808(6)
C20 C 0.7528(3) 0.7621(3) 0.53860(9)
H20 H 0.79760 0.79340 0.56640
H21 H 0.73630 0.82600 0.51700
C21 C 0.8409(3) 0.6659(2) 0.51821(9)
N13 N 0.9547(2) 0.7077(2) 0.48771(8)
O32 O 0.9552(2) 0.8113(2) 0.47753(8)
O33 O 1.0337(2) 0.6320(2) 0.47494(7)
N14 N 0.9139(2) 0.5950(2) 0.55646(8)
O34 O 1.0171(2) 0.6390(2) 0.57511(7)
O35 O 0.8594(2) 0.5026(2) 0.56688(7)
C22 C 0.7351(3) 0.5884(3) 0.49087(8)
H22 H 0.76470 0.50590 0.48930
O36 O 0.7085(2) 0.63959(19) 0.44642(6)
C23 C 0.5772(3) 0.7020(3) 0.44469(10)
H23 H 0.53150 0.69680 0.41450
H24 H 0.59050 0.78430 0.45270
C24 C 0.4932(3) 0.6387(2) 0.47998(9)
N15 N 0.4264(3) 0.5292(2) 0.45793(8)
O37 O 0.3165(2) 0.5413(2) 0.43630(8)
O38 O 0.4933(2) 0.4380(2) 0.46263(7)
N16 N 0.3716(3) 0.7048(2) 0.49816(8)
O39 O 0.3389(2) 0.7968(2) 0.48068(8)
O40 O 0.3139(2) 0.6564(2) 0.52969(7)
C25 C -0.0568(3) 0.7540(2) 0.31042(8)
H25 H -0.09600 0.70020 0.28700
O41 O -0.03320(19) 0.69704(18) 0.35343(6)
C26 C 0.1045(3) 0.7231(3) 0.37243(9)
H26 H 0.14380 0.65570 0.38880
H27 H 0.10240 0.78980 0.39320
C27 C 0.1887(3) 0.7521(2) 0.33080(9)
N17 N 0.3152(2) 0.8274(2) 0.34100(8)
O42 O 0.3514(2) 0.8391(2) 0.38137(7)
O43 O 0.3724(2) 0.86805(19) 0.30805(7)
N18 N 0.2443(2) 0.6377(2) 0.31033(8)
O44 O 0.3652(2) 0.61142(19) 0.31918(8)
O45 O 0.1581(2) 0.58172(18) 0.28765(7)
C28 C 0.0821(3) 0.8096(2) 0.29646(9)
H28 H 0.10250 0.79250 0.26460
O46 O 0.0757(2) 0.93289(17) 0.30534(7)
C29 C -0.0464(3) 0.9621(3) 0.3294(1)
H29 H -0.08330 1.03820 0.31970
H30 H -0.02590 0.96400 0.36220
C30 C -0.1502(3) 0.8632(2) 0.31665(9)
N19 N -0.2299(2) 0.8937(2) 0.27259(7)
O47 O -0.3439(2) 0.94119(19) 0.27512(7)
O48 O -0.1696(2) 0.87099(19) 0.23780(7)
N20 N -0.2577(2) 0.8384(2) 0.35187(8)
O49 O -0.2543(2) 0.8987(2) 0.38644(7)
O50 O -0.3380(2) 0.7579(2) 0.34257(7)
C31 C 0.2773(3) 0.6021(2) 0.18613(9)
H31 H 0.25170 0.53430 0.20480
O51 O 0.30123(19) 0.70436(17) 0.21379(6)
C32 C 0.4285(3) 0.7615(3) 0.20131(9)
H32 H 0.47360 0.80110 0.22740
H33 H 0.41070 0.81820 0.17690
C33 C 0.5175(3) 0.6586(2) 0.18516(9)
N21 N 0.6325(2) 0.6932(2) 0.15387(8)
O52 O 0.6389(2) 0.7946(2) 0.14153(8)
O53 O 0.7080(2) 0.6123(2) 0.14278(8)
N22 N 0.5883(2) 0.5956(2) 0.22558(8)
O54 O 0.6923(3) 0.6420(2) 0.24301(8)
O55 O 0.5331(2) 0.5069(2) 0.23893(7)
C34 C 0.4120(3) 0.5772(2) 0.16058(8)
H34 H 0.43990 0.49410 0.16140
O56 O 0.3890(2) 0.62222(18) 0.11537(6)
C35 C 0.2465(3) 0.5975(3) 0.10231(9)
H35 H 0.23500 0.51590 0.09290
H36 H 0.21360 0.64830 0.07740
C36 C 0.1678(3) 0.6224(2) 0.14578(9)
N23 N 0.0419(3) 0.5420(2) 0.14822(8)
O57 O 0.0079(2) 0.5065(2) 0.18562(7)
O58 O -0.0189(2) 0.5210(2) 0.11127(7)
N24 N 0.1099(3) 0.7468(2) 0.14659(8)
O59 O -0.0009(2) 0.7625(2) 0.16355(8)
O60 O 0.1855(2) 0.82098(19) 0.13063(7)
#END
