
#######################################################################
#
#                 Cambridge Crystallographic Data Centre
#                                CCDC
#
#######################################################################
#
# If this CIF has been generated from an entry in the Cambridge
# Structural Database, then it will include bibliographic, chemical,
# crystal, experimental, refinement or atomic coordinate data resulting
# from the CCDC's data processing and validation procedures.
#
#######################################################################

data_CSD_CIF_UHASIG
_audit_creation_date 2010-04-15
_audit_creation_method CSD-ConQuest-V1
_database_code_CSD UHASIG
_database_code_depnum_ccdc_archive 'CCDC 702823'
_chemical_formula_sum 'C27 H22 N2 O4'
_chemical_formula_moiety
;
C27 H22 N2 O4
;
_journal_coden_Cambridge 392
_journal_volume 78
_journal_year 2009
_journal_page_first 1485
_journal_name_full 'Heterocycles '
loop_
_publ_author_name
"M.Eto"
"F.Ito"
"H.Sato"
"I.Shinohara"
"K.Yamaguchi"
"Y.Yoshitake"
"K.Harano"
_chemical_name_systematic
;
(3,3-Dimethyl-2-(2-naphthyloxy)-2,3-dihydro-1H-indol-1-yl)(4-nitrophenyl)metha
none
;
_chemical_melting_point 427.15
_cell_volume   2268.725
_exptl_crystal_colour 'colorless'
_exptl_crystal_density_diffrn 1.284
_exptl_special_details
;
Melting point range 427.15-429.15K

;
_exptl_crystal_description 'prismatic'
_exptl_crystal_preparation 'ethanol'
_diffrn_ambient_temperature 293.1
#These two values have been output from a single CSD field.
_refine_ls_R_factor_gt 0.057
_refine_ls_wR_factor_gt 0.057
_symmetry_cell_setting monoclinic
_symmetry_space_group_name_H-M 'P 21/a'
_symmetry_Int_Tables_number 14
loop_
_symmetry_equiv_pos_site_id
_symmetry_equiv_pos_as_xyz
1 x,y,z
2 1/2-x,1/2+y,-z
3 -x,-y,-z
4 -1/2+x,-1/2-y,z
_cell_length_a 12.281(2)
_cell_length_b 20.134(5)
_cell_length_c 9.854(1)
_cell_angle_alpha 90
_cell_angle_beta 111.39(1)
_cell_angle_gamma 90
_cell_formula_units_Z 4
loop_
_atom_type_symbol
_atom_type_radius_bond
C 0.68
H 0.23
N 0.68
O 0.68
loop_
_atom_site_label
_atom_site_type_symbol
_atom_site_fract_x
_atom_site_fract_y
_atom_site_fract_z
O1 O -0.0198(4) 0.2857(2) 0.1180(4)
O2 O 0.1147(2) 0.1047(1) 0.0560(2)
O3 O 0.3242(4) 0.3722(2) -0.2807(5)
O4 O 0.2023(5) 0.3090(4) -0.4405(6)
N1 N 0.0938(2) 0.1952(1) 0.1875(3)
N2 N 0.2451(5) 0.3322(2) -0.3179(6)
C1 C 0.1796(3) 0.1481(2) 0.1723(4)
C2 C 0.2269(3) 0.1119(2) 0.3219(4)
C3 C 0.1267(3) 0.1215(2) 0.3745(4)
C4 C 0.1055(4) 0.0903(2) 0.4887(4)
C5 C 0.0104(4) 0.1117(2) 0.5221(4)
C6 C -0.0594(4) 0.1626(2) 0.4462(4)
C7 C -0.0390(3) 0.1945(2) 0.3330(4)
C8 C 0.0544(3) 0.1726(2) 0.2992(4)
C9 C 0.3347(4) 0.1497(2) 0.4230(4)
C10 C 0.2570(4) 0.0387(2) 0.3113(5)
C11 C 0.0542(4) 0.2497(2) 0.1041(4)
C12 C 0.1102(3) 0.2663(2) -0.0046(4)
C13 C 0.0767(5) 0.2364(2) -0.1384(5)
C14 C 0.1215(4) 0.2579(3) -0.2407(5)
C15 C 0.1993(4) 0.3087(2) -0.2075(5)
C16 C 0.2368(4) 0.3386(2) -0.0735(5)
C17 C 0.1905(4) 0.3176(2) 0.0266(5)
C18 C 0.1730(3) 0.0722(2) -0.0216(3)
C19 C 0.2782(3) 0.0898(2) -0.0281(4)
C20 C 0.3265(3) 0.0525(2) -0.1145(4)
C21 C 0.4346(4) 0.0701(2) -0.1233(5)
C22 C 0.4805(4) 0.0336(2) -0.2074(5)
C23 C 0.4212(4) -0.0218(2) -0.2841(4)
C24 C 0.3171(4) -0.0403(2) -0.2771(4)
C25 C 0.2659(3) -0.0033(2) -0.1924(3)
C26 C 0.1572(3) -0.0191(2) -0.1839(4)
C27 C 0.1111(3) 0.0173(2) -0.1019(4)
H1 H 0.24030 0.17010 0.15200
H2 H 0.15460 0.05550 0.54220
H3 H -0.00630 0.09060 0.59860
H4 H -0.12340 0.17640 0.47180
H5 H -0.08730 0.22990 0.28100
H6 H 0.34020 0.14490 0.52110
H7 H 0.32700 0.19540 0.39670
H8 H 0.40330 0.13230 0.41300
H9 H 0.28190 0.03300 0.23140
H10 H 0.31780 0.02540 0.39870
H11 H 0.18980 0.01210 0.29710
H12 H 0.02230 0.20080 -0.16110
H13 H 0.09810 0.23720 -0.33360
H14 H 0.29370 0.37300 -0.05040
H15 H 0.21390 0.33880 0.11900
H16 H 0.31920 0.12720 0.02530
H17 H 0.47620 0.10740 -0.07060
H18 H 0.55320 0.04620 -0.21340
H19 H 0.45390 -0.04680 -0.34160
H20 H 0.27790 -0.07830 -0.32930
H21 H 0.11480 -0.05620 -0.23690
H22 H 0.03700 0.00580 -0.09870
#END
