
#######################################################################
#
#                 Cambridge Crystallographic Data Centre
#                                CCDC
#
#######################################################################
#
# If this CIF has been generated from an entry in the Cambridge
# Structural Database, then it will include bibliographic, chemical,
# crystal, experimental, refinement or atomic coordinate data resulting
# from the CCDC's data processing and validation procedures.
#
#######################################################################

data_CSD_CIF_UHATON
_audit_creation_date 2010-04-15
_audit_creation_method CSD-ConQuest-V1
_database_code_CSD UHATON
_database_code_depnum_ccdc_archive 'CCDC 703896'
_chemical_formula_sum 'C9 H9 N5 O4'
_chemical_formula_moiety
;
C9 H9 N5 O4
;
_journal_coden_Cambridge 392
_journal_volume 78
_journal_year 2009
_journal_page_first 1445
_journal_name_full 'Heterocycles '
loop_
_publ_author_name
"Xue-Qin Cao"
"Zhan-Xiong Li"
"Wen-Xing Zhong"
"Li-Hua Qiu"
"Guo-Qiang Chen"
_chemical_name_systematic
;
(Z)-4-Amino-5-(hydroxyimino)-2-(2-nitrophenyl)-2,5-dihydro-1H-imidazol-3-oxide
;
_chemical_melting_point 464.15
_cell_volume    533.150
_exptl_crystal_colour 'yellow'
_exptl_crystal_density_diffrn 1.565
_exptl_special_details
;
Melts with decomposition.

;
_exptl_crystal_description 'block'
_diffrn_ambient_temperature 293
#These two values have been output from a single CSD field.
_refine_ls_R_factor_gt 0.0787
_refine_ls_wR_factor_gt 0.0787
_symmetry_cell_setting triclinic
_symmetry_space_group_name_H-M 'P -1'
_symmetry_Int_Tables_number 2
loop_
_symmetry_equiv_pos_site_id
_symmetry_equiv_pos_as_xyz
1 x,y,z
2 -x,-y,-z
_cell_length_a 7.6372(17)
_cell_length_b 7.8628(15)
_cell_length_c 10.0673(15)
_cell_angle_alpha 110.100(17)
_cell_angle_beta 106.261(19)
_cell_angle_gamma 95.21(3)
_cell_formula_units_Z 2
loop_
_atom_type_symbol
_atom_type_radius_bond
C 0.68
H 0.23
N 0.68
O 0.68
loop_
_atom_site_label
_atom_site_type_symbol
_atom_site_fract_x
_atom_site_fract_y
_atom_site_fract_z
O1 O 0.7766(5) 0.5574(4) 0.0587(4)
O2 O 0.6813(5) -0.1101(5) 0.1586(4)
H1 H 0.70420 -0.21360 0.14340
O3 O 0.3021(6) 0.3949(8) 0.2593(6)
O4 O 0.2340(8) 0.664(1) 0.3225(8)
N1 N 0.7454(5) 0.4133(5) 0.0959(4)
N2 N 0.6337(5) 0.2288(5) 0.1956(4)
H2 H 0.58420 0.18700 0.24820
N3 N 0.9258(6) 0.2360(5) -0.0236(5)
H3 H 0.95700 0.31780 -0.05620
H4 H 0.96680 0.13500 -0.04420
N4 N 0.7762(6) -0.0213(5) 0.0915(4)
N5 N 0.3460(7) 0.5629(10) 0.3174(6)
C1 C 0.6144(6) 0.4031(6) 0.1779(5)
H5 H 0.48680 0.39530 0.11660
C2 C 0.8146(6) 0.2656(6) 0.0586(5)
C3 C 0.7411(6) 0.1406(6) 0.1174(5)
C4 C 0.6722(7) 0.5679(6) 0.3253(5)
C5 C 0.5437(8) 0.6485(7) 0.3852(6)
C6 C 0.5997(13) 0.8093(9) 0.5166(7)
H6 H 0.51180 0.86340 0.55500
C7 C 0.7858(14) 0.8851(9) 0.5871(7)
H7 H 0.82440 0.99190 0.67410
C8 C 0.9146(10) 0.8072(9) 0.5325(7)
H8 H 1.04070 0.85930 0.58300
C9 C 0.8597(8) 0.6511(7) 0.4021(6)
H9 H 0.94970 0.60020 0.36470
#END
