
#######################################################################
#
#                 Cambridge Crystallographic Data Centre
#                                CCDC
#
#######################################################################
#
# If this CIF has been generated from an entry in the Cambridge
# Structural Database, then it will include bibliographic, chemical,
# crystal, experimental, refinement or atomic coordinate data resulting
# from the CCDC's data processing and validation procedures.
#
#######################################################################

data_CSD_CIF_UHAVEF
_audit_creation_date 2010-04-15
_audit_creation_method CSD-ConQuest-V1
_database_code_CSD UHAVEF
_database_code_depnum_ccdc_archive 'CCDC 700651'
_chemical_formula_sum 'C19 H17 N3 O3'
_chemical_formula_moiety
;
C19 H17 N3 O3
;
_journal_coden_Cambridge 392
_journal_volume 78
_journal_year 2009
_journal_page_first 1183
_journal_name_full 'Heterocycles '
loop_
_publ_author_name
"H.Cho"
"Y.Iwama"
"K.Sugimoto"
"Eunsang Kwon"
"H.Tokuyama"
_chemical_name_systematic
;
(4-Nitrophenyl)(3,4,5,6-tetrahydroazepino[3,2-b]indol-1(2H)-yl)methanone
;
_cell_volume   3381.241
_exptl_crystal_colour 'colorless'
_exptl_crystal_density_diffrn 1.317
_exptl_crystal_description 'prism'
_diffrn_ambient_temperature 293.1
#These two values have been output from a single CSD field.
_refine_ls_R_factor_gt 0.039
_refine_ls_wR_factor_gt 0.039
_symmetry_cell_setting monoclinic
_symmetry_space_group_name_H-M 'P 21/c'
_symmetry_Int_Tables_number 14
loop_
_symmetry_equiv_pos_site_id
_symmetry_equiv_pos_as_xyz
1 x,y,z
2 -x,1/2+y,1/2-z
3 -x,-y,-z
4 x,-1/2-y,-1/2+z
_cell_length_a 8.481(2)
_cell_length_b 21.573(6)
_cell_length_c 18.718(5)
_cell_angle_alpha 90
_cell_angle_beta 99.133(3)
_cell_angle_gamma 90
_cell_formula_units_Z 8
loop_
_atom_type_symbol
_atom_type_radius_bond
C 0.68
H 0.23
N 0.68
O 0.68
loop_
_atom_site_label
_atom_site_type_symbol
_atom_site_fract_x
_atom_site_fract_y
_atom_site_fract_z
O1 O 0.45087(11) 0.37789(5) -0.02404(7)
O2 O 0.81228(15) 0.07888(5) -0.03371(7)
O3 O 0.62188(16) 0.06655(6) 0.02913(7)
O4 O 0.00751(11) 0.05311(6) 0.18487(6)
O5 O 0.2653(2) 0.18429(8) -0.12530(7)
O6 O 0.10411(17) 0.25267(7) -0.09559(8)
N1 N 0.71218(11) 0.39899(5) -0.02233(6)
N2 N 1.13597(12) 0.37881(5) 0.00262(6)
N3 N 0.70562(17) 0.09914(7) -0.00292(7)
N4 N 0.27547(12) 0.04392(5) 0.21148(6)
N5 N 0.68369(12) 0.07354(6) 0.19581(6)
N6 N 0.18052(18) 0.20519(7) -0.08398(8)
C1 C 0.99261(14) 0.39231(6) -0.03970(7)
C2 C 0.87484(14) 0.38238(6) 0.00061(7)
C3 C 0.94540(14) 0.36282(6) 0.07155(7)
C4 C 0.88905(16) 0.34746(7) 0.13509(8)
C5 C 0.99704(18) 0.33125(8) 0.19523(8)
C6 C 1.16007(18) 0.32953(7) 0.19291(9)
C7 C 1.21898(16) 0.34385(7) 0.13119(9)
C8 C 1.11101(14) 0.36068(6) 0.07007(8)
C9 C 0.97853(16) 0.41636(7) -0.11504(8)
C10 C 0.89823(16) 0.47958(7) -0.12404(8)
C11 C 0.72179(16) 0.47991(7) -0.11614(8)
C12 C 0.68113(16) 0.46405(7) -0.04220(8)
C13 C 0.58974(14) 0.35966(7) -0.01916(7)
C14 C 0.62645(14) 0.29184(7) -0.01248(7)
C15 C 0.55746(16) 0.25543(8) 0.03529(8)
C16 C 0.58292(18) 0.19242(8) 0.03940(8)
C17 C 0.67612(16) 0.16638(7) -0.00627(8)
C18 C 0.74339(17) 0.20071(7) -0.05552(8)
C19 C 0.71854(15) 0.26385(7) -0.05818(7)
C20 C 0.55232(14) 0.03570(6) 0.18848(7)
C21 C 0.42866(13) 0.06893(6) 0.20714(7)
C22 C 0.48392(14) 0.12970(6) 0.22791(7)
C23 C 0.41675(16) 0.18248(7) 0.25408(8)
C24 C 0.50904(19) 0.23453(7) 0.26825(9)
C25 C 0.66654(19) 0.23573(7) 0.25647(9)
C26 C 0.73723(17) 0.18459(7) 0.23236(8)
C27 C 0.64538(15) 0.13118(6) 0.21873(7)
C28 C 0.55606(16) -0.02991(7) 0.16482(8)
C29 C 0.49114(19) -0.07560(7) 0.21487(9)
C30 C 0.31613(19) -0.06902(7) 0.22278(9)
C31 C 0.26878(17) -0.00999(7) 0.25838(8)
C32 C 0.14075(15) 0.06677(7) 0.17211(8)
C33 C 0.15951(14) 0.10626(7) 0.10811(7)
C34 C 0.22400(17) 0.07917(7) 0.05204(8)
C35 C 0.23041(18) 0.11130(8) -0.01080(8)
C36 C 0.17280(17) 0.17087(7) -0.01698(8)
C37 C 0.10854(17) 0.19911(7) 0.03770(8)
C38 C 0.10177(16) 0.16625(7) 0.10037(8)
H1 H 1.23300 0.38100 -0.01260
H2 H 0.77770 0.34790 0.13680
H3 H 0.95940 0.32130 0.23900
H4 H 1.23200 0.31810 0.23500
H5 H 1.33040 0.34250 0.12980
H6 H 1.08260 0.41930 -0.12750
H7 H 0.91660 0.38800 -0.14670
H8 H 0.95290 0.50630 -0.08800
H9 H 0.90830 0.49510 -0.17060
H10 H 0.68040 0.52000 -0.12900
H11 H 0.66950 0.45020 -0.14920
H12 H 0.57150 0.47260 -0.04150
H13 H 0.74520 0.48930 -0.00750
H14 H 0.49220 0.27460 0.06570
H15 H 0.53660 0.16750 0.07250
H16 H 0.80550 0.18100 -0.08700
H17 H 0.76420 0.28860 -0.09150
H18 H 0.30920 0.18190 0.26250
H19 H 0.46410 0.27070 0.28590
H20 H 0.72680 0.27280 0.26570
H21 H 0.84550 0.18530 0.22500
H22 H 0.78360 0.06330 0.18490
H23 H 0.66340 -0.04060 0.16160
H24 H 0.49250 -0.03340 0.11840
H25 H 0.55150 -0.07020 0.26170
H26 H 0.50740 -0.11630 0.19810
H27 H 0.28730 -0.10340 0.24970
H28 H 0.25640 -0.07010 0.17540
H29 H 0.16350 -0.01410 0.26920
H30 H 0.34140 -0.00400 0.30200
H31 H 0.26380 0.03800 0.05750
H32 H 0.27410 0.09280 -0.04940
H33 H 0.06930 0.24030 0.03200
H34 H 0.05780 0.18480 0.13880
#END
