
#######################################################################
#
#                 Cambridge Crystallographic Data Centre
#                                CCDC
#
#######################################################################
#
# If this CIF has been generated from an entry in the Cambridge
# Structural Database, then it will include bibliographic, chemical,
# crystal, experimental, refinement or atomic coordinate data resulting
# from the CCDC's data processing and validation procedures.
#
#######################################################################

data_CSD_CIF_UHIBIW
_audit_creation_date 2003-10-08
_audit_creation_method CSD-ConQuest-V1
_database_code_CSD UHIBIW
_database_code_depnum_ccdc_archive 'CCDC 205610'
_chemical_formula_sum 'C21 H23 N1 O6'
_chemical_formula_moiety
;
C21 H23 N1 O6
;
_journal_coden_Cambridge 1336
_journal_volume 5
_journal_year 2003
_journal_page_first 1423
_journal_name_full 'Org.Lett. '
loop_
_publ_author_name
"R.G.Soengas"
"J.C.Estevez"
"R.J.Estevez"
_chemical_name_systematic
;
(3R,5S,6R,7R)-6,7-bis(Benzyloxy)-3-methoxy-5-nitro-2-oxabicyclo(2.2.1)heptane
;
_chemical_melting_point 372.15
_cell_volume   2042.624
_exptl_crystal_colour 'colorless'
_exptl_special_details
;
Melting point range 372.15-374.15K

;
_exptl_crystal_description 'prism'
_diffrn_ambient_temperature 293
#These two values have been output from a single CSD field.
_refine_ls_R_factor_gt 0.0426
_refine_ls_wR_factor_gt 0.0426
loop_
_citation_database_id_CSD
_citation_special_details
FIWZIW "is a stereoisomer of this entry"
_symmetry_cell_setting orthorhombic
_symmetry_space_group_name_H-M 'P 21 21 21'
_symmetry_Int_Tables_number 19
loop_
_symmetry_equiv_pos_site_id
_symmetry_equiv_pos_as_xyz
1 x,y,z
2 1/2-x,-y,1/2+z
3 1/2+x,1/2-y,-z
4 -x,1/2+y,1/2-z
_cell_length_a 10.3143(3)
_cell_length_b 10.6589(5)
_cell_length_c 18.5796(7)
_cell_angle_alpha 90
_cell_angle_beta 90
_cell_angle_gamma 90
_cell_formula_units_Z 4
loop_
_atom_type_symbol
_atom_type_radius_bond
C 0.68
H 0.23
N 0.68
O 0.68
loop_
_atom_site_label
_atom_site_type_symbol
_atom_site_fract_x
_atom_site_fract_y
_atom_site_fract_z
O1 O 0.54859(17) 0.68090(18) 0.49782(10)
C1 C 0.5494(3) 0.7593(3) 0.43515(13)
H1 H 0.49260 0.72990 0.39640
C2 C 0.5114(2) 0.8866(3) 0.46595(13)
H2 H 0.42560 0.88560 0.48860
C3 C 0.6225(2) 0.8847(3) 0.52135(13)
H3 H 0.62650 0.95670 0.55410
C4 C 0.5945(3) 0.7592(3) 0.55620(15)
H4 H 0.52670 0.76850 0.59280
C5 C 0.6905(2) 0.7831(2) 0.41147(14)
H5 H 0.69180 0.82990 0.36610
C6 C 0.7402(2) 0.8661(3) 0.47283(13)
H6 H 0.80710 0.82030 0.49960
N1 N 0.7967(2) 0.9875(3) 0.44581(14)
O2 O 0.8543(2) 0.9860(2) 0.38884(12)
O3 O 0.7865(3) 1.0804(2) 0.48322(13)
O4 O 0.70607(16) 0.7076(2) 0.58695(10)
C7 C 0.6804(3) 0.5944(4) 0.62570(19)
H7 H 0.64520 0.53280 0.59350
H8 H 0.61910 0.61100 0.66340
H9 H 0.75950 0.56330 0.64620
O5 O 0.77068(16) 0.67717(19) 0.40626(9)
C8 C 0.7411(3) 0.5968(4) 0.3477(2)
H10 H 0.72860 0.64570 0.30420
H11 H 0.66200 0.55070 0.35740
C9 C 0.8515(3) 0.5078(3) 0.33805(16)
C10 C 0.9574(4) 0.5416(3) 0.29792(17)
H12 H 0.95880 0.61970 0.27560
C11 C 1.0611(4) 0.4624(5) 0.2900(2)
H13 H 1.13250 0.48620 0.26270
C12 C 1.0576(5) 0.3482(5) 0.3229(3)
H14 H 1.12810 0.29440 0.31800
C13 C 0.9559(5) 0.3117(4) 0.3617(3)
H15 H 0.95500 0.23290 0.38330
C14 C 0.8520(4) 0.3917(4) 0.36963(19)
H16 H 0.78100 0.36650 0.39690
O6 O 0.52230(16) 0.97893(18) 0.41209(9)
C15 C 0.4811(3) 1.1001(3) 0.43414(15)
H17 H 0.53330 1.12860 0.47440
H18 H 0.39120 1.09720 0.44940
C16 C 0.4959(3) 1.1889(3) 0.37173(14)
C17 C 0.5848(3) 1.1690(3) 0.31795(16)
H19 H 0.63660 1.09760 0.31930
C18 C 0.5987(3) 1.2528(3) 0.26198(17)
H20 H 0.65920 1.23740 0.22600
C19 C 0.5241(4) 1.3581(3) 0.25923(19)
H21 H 0.53270 1.41420 0.22120
C20 C 0.4366(4) 1.3807(4) 0.3129(2)
H22 H 0.38690 1.45350 0.31180
C21 C 0.4215(3) 1.2965(4) 0.36847(19)
H23 H 0.36050 1.31230 0.40420
#END
