
#######################################################################
#
#                 Cambridge Crystallographic Data Centre
#                                CCDC
#
#######################################################################
#
# If this CIF has been generated from an entry in the Cambridge
# Structural Database, then it will include bibliographic, chemical,
# crystal, experimental, refinement or atomic coordinate data resulting
# from the CCDC's data processing and validation procedures.
#
#######################################################################

data_CSD_CIF_UHIGAV
_audit_creation_date 2015-04-23
_audit_creation_method CSD-ConQuest-V1
_database_code_CSD UHIGAV
_database_code_depnum_ccdc_archive 'CCDC 1046946'
_chemical_formula_sum 'C13 H13 N3 O3'
_chemical_formula_moiety
;
C13 H13 N3 O3
;
_journal_coden_Cambridge 1048
_journal_volume 17
_journal_year 2015
_journal_page_first 3266
_journal_name_full 'Green Chemistry '
loop_
_publ_author_name
"Yong Zhang"
"Biao-Wen Wei"
"Hui Lin"
"Ling Zhang"
"Jin-Xiang Liu"
"Hai-Qing Luo"
"Xiao-Lin Fan"
_chemical_name_systematic
;
3-((4-amino-3-methyl-1,2-oxazol-5-yl)methyl)-3-hydroxy-1,3-dihydro-2H-indol-2-
one
;
_chemical_name_common
;
3-((4-amino-3-methylisoxazol-5-yl)methyl)-3-hydroxyindolin-2-one
;
_cell_volume   1211.833
_exptl_crystal_colour 'light colorless'
_exptl_crystal_density_diffrn 1.421
_exptl_crystal_description 'plate'
_diffrn_ambient_temperature 294.7
#These two values have been output from a single CSD field.
_refine_ls_R_factor_gt 0.0673
_refine_ls_wR_factor_gt 0.0673
_symmetry_cell_setting monoclinic
_symmetry_space_group_name_H-M 'P 21/c'
_symmetry_Int_Tables_number 14
loop_
_symmetry_equiv_pos_site_id
_symmetry_equiv_pos_as_xyz
1 x,y,z
2 -x,1/2+y,1/2-z
3 -x,-y,-z
4 x,-1/2-y,-1/2+z
_cell_length_a 6.3186(4)
_cell_length_b 11.7574(8)
_cell_length_c 16.3886(12)
_cell_angle_alpha 90
_cell_angle_beta 95.537(7)
_cell_angle_gamma 90
_cell_formula_units_Z 4
loop_
_atom_type_symbol
_atom_type_radius_bond
C 0.68
H 0.23
N 0.68
O 0.68
loop_
_atom_site_label
_atom_site_type_symbol
_atom_site_fract_x
_atom_site_fract_y
_atom_site_fract_z
O1 O -0.1820(4) 0.6282(2) 0.41327(14)
O2 O 0.1680(3) 0.53975(18) 0.31793(14)
H1 H 0.14020 0.47960 0.33980
O3 O 0.3653(4) 0.71859(18) 0.20837(14)
N1 N -0.3724(5) 0.5403(2) 0.30438(17)
H2 H -0.49170 0.53300 0.32510
N2 N -0.0949(5) 0.8391(3) 0.0956(2)
N3 N 0.4544(5) 0.7567(2) 0.13756(18)
C1 C -0.3363(6) 0.5033(3) 0.2254(2)
C2 C -0.4766(6) 0.4477(3) 0.1697(3)
H3 H -0.61310 0.42910 0.18180
C3 C -0.4056(7) 0.4205(3) 0.0943(2)
H4 H -0.49650 0.38290 0.05520
C4 C -0.2017(7) 0.4483(3) 0.0765(2)
H5 H -0.15750 0.43010 0.02560
C5 C -0.0642(6) 0.5033(3) 0.1344(2)
H6 H 0.07310 0.52140 0.12290
C6 C -0.1323(5) 0.5310(2) 0.20928(19)
C7 C -0.0229(5) 0.5915(3) 0.28361(19)
C8 C -0.1976(6) 0.5889(3) 0.3441(2)
C9 C 0.0242(6) 0.7171(3) 0.26859(19)
H7 H -0.11020 0.75700 0.25880
H8 H 0.09770 0.74810 0.31840
C10 C 0.1524(5) 0.7426(2) 0.1999(2)
C11 C 0.1033(5) 0.7934(2) 0.12643(19)
C12 C 0.2965(6) 0.8005(3) 0.0896(2)
C13 C 0.3325(6) 0.8541(3) 0.0100(2)
H9 H 0.29840 0.93360 0.01170
H10 H 0.24350 0.81820 -0.03330
H11 H 0.47890 0.84530 0.00010
H12 H -0.205(6) 0.799(3) 0.1095(19)
H13 H -0.113(7) 0.843(3) 0.043(3)
#END
