
#######################################################################
#
#                 Cambridge Crystallographic Data Centre
#                                CCDC
#
#######################################################################
#
# If this CIF has been generated from an entry in the Cambridge
# Structural Database, then it will include bibliographic, chemical,
# crystal, experimental, refinement or atomic coordinate data resulting
# from the CCDC's data processing and validation procedures.
#
#######################################################################

data_CSD_CIF_UHIWIR
_audit_creation_date 2003-10-08
_audit_creation_method CSD-ConQuest-V1
_database_code_CSD UHIWIR
_database_code_depnum_ccdc_archive 'CCDC 213151'
_chemical_formula_sum 'C9 H10 N2 O4'
_chemical_formula_moiety
;
C9 H10 N2 O4
;
_journal_coden_Cambridge 4
_journal_volume 125
_journal_year 2003
_journal_page_first 5598
_journal_name_full 'J.Am.Chem.Soc. '
loop_
_publ_author_name
"A.Mandal"
"D.Hilvert"
_chemical_name_systematic
;
8-Cyano-6-nitro-3,9-dioxatricyclo(4.3.1.0^2,4^)decane
;
_cell_volume   1912.767
_exptl_crystal_density_diffrn 1.46
_exptl_crystal_description 'plate'
_diffrn_ambient_temperature 293
_diffrn_special_details
;
Twinning of the structure is indicated

;
_refine_special_details
;
Disorder is indicated but not modelled.

;
#These two values have been output from a single CSD field.
_refine_ls_R_factor_gt 0.2672
_refine_ls_wR_factor_gt 0.2672
_symmetry_cell_setting monoclinic
_symmetry_space_group_name_H-M 'C 2/c'
_symmetry_Int_Tables_number 15
loop_
_symmetry_equiv_pos_site_id
_symmetry_equiv_pos_as_xyz
1 x,y,z
2 1/2+x,1/2+y,z
3 x,-y,1/2+z
4 1/2+x,1/2-y,1/2+z
5 -x,-y,-z
6 -1/2-x,-1/2-y,-z
7 -x,y,-1/2-z
8 -1/2-x,-1/2+y,-1/2-z
_cell_length_a 23.707(7)
_cell_length_b 7.050(4)
_cell_length_c 13.174(7)
_cell_angle_alpha 90
_cell_angle_beta 119.69(4)
_cell_angle_gamma 90
_cell_formula_units_Z 8
loop_
_atom_type_symbol
_atom_type_radius_bond
C 0.68
H 0.23
N 0.68
O 0.68
loop_
_atom_site_label
_atom_site_type_symbol
_atom_site_fract_x
_atom_site_fract_y
_atom_site_fract_z
O1 O 0.2909(5) 0.1517(18) 0.1396(10)
C1 C 0.3826(7) 0.274(2) 0.3696(12)
O2 O 0.3308(6) 0.6484(14) 0.2371(17)
C2 C 0.3072(6) 0.3125(18) 0.3005(16)
H1 H 0.28360 0.21150 0.31320
H2 H 0.29680 0.43220 0.32370
C3 C 0.3957(9) 0.082(2) 0.323(2)
H3 H 0.44180 0.07060 0.35040
H4 H 0.38300 -0.02340 0.35460
O3 O 0.4697(7) 0.222(2) 0.5624(11)
C4 C 0.3860(14) 0.535(4) 0.2401(18)
H5 H 0.41440 0.59660 0.21580
C5 C 0.3158(9) 0.482(3) 0.1454(18)
H6 H 0.30000 0.51050 0.06280
C6 C 0.3578(9) 0.073(2) 0.1891(16)
H7 H 0.35400 -0.06030 0.16630
N1 N 0.4135(12) 0.221(3) 0.4950(16)
C7 C 0.2921(9) 0.3181(18) 0.1792(14)
C8 C 0.4132(9) 0.467(3) 0.3551(13)
H8 H 0.40820 0.56400 0.40230
H9 H 0.45930 0.44800 0.38580
C9 C 0.3898(8) 0.184(3) 0.1245(17)
N2 N 0.4261(14) 0.231(2) 0.0996(18)
O4 O 0.3729(10) 0.227(3) 0.5359(15)
#END
