
#######################################################################
#
#                 Cambridge Crystallographic Data Centre
#                                CCDC
#
#######################################################################
#
# If this CIF has been generated from an entry in the Cambridge
# Structural Database, then it will include bibliographic, chemical,
# crystal, experimental, refinement or atomic coordinate data resulting
# from the CCDC's data processing and validation procedures.
#
#######################################################################

data_CSD_CIF_UHOPEN
_audit_creation_date 2010-04-23
_audit_creation_method CSD-ConQuest-V1
_database_code_CSD UHOPEN
_database_code_depnum_ccdc_archive 'CCDC 683982'
_chemical_formula_sum 'C11 H17 N4 O1'
_chemical_formula_moiety
;
C11 H17 N4 O1
;
_journal_coden_Cambridge 1291
_journal_year 2009
_journal_page_first 2548
_journal_name_full 'Eur.J.Org.Chem. '
loop_
_publ_author_name
"E.Tretyakov"
"S.Tolstikov"
"A.Mareev"
"A.Medvedeva"
"G.Romanenko"
"D.Stass"
"A.Bogomyakov"
"V.Ovcharenko"
_chemical_name_systematic
;
4,4,5,5-Tetramethyl-2-(1-methyl-1H-pyrazol-4-yl)-4,5-dihydro-1H-imidazole-1-ox
yl
;
_cell_volume   2449.404
_exptl_crystal_colour 'black'
_exptl_crystal_density_diffrn 1.2
_diffrn_ambient_temperature 240
#These two values have been output from a single CSD field.
_refine_ls_R_factor_gt 0.0534
_refine_ls_wR_factor_gt 0.0534
_symmetry_cell_setting monoclinic
_symmetry_space_group_name_H-M 'C 2/c'
_symmetry_Int_Tables_number 15
loop_
_symmetry_equiv_pos_site_id
_symmetry_equiv_pos_as_xyz
1 x,y,z
2 -x,y,1/2-z
3 1/2+x,1/2+y,z
4 1/2-x,1/2+y,1/2-z
5 -x,-y,-z
6 x,-y,-1/2+z
7 -1/2-x,-1/2-y,-z
8 -1/2+x,-1/2-y,-1/2+z
_cell_length_a 16.243(7)
_cell_length_b 14.823(7)
_cell_length_c 12.470(6)
_cell_angle_alpha 90
_cell_angle_beta 125.332(6)
_cell_angle_gamma 90
_cell_formula_units_Z 8
loop_
_atom_type_symbol
_atom_type_radius_bond
C 0.68
H 0.23
N 0.68
O 0.68
loop_
_atom_site_label
_atom_site_type_symbol
_atom_site_fract_x
_atom_site_fract_y
_atom_site_fract_z
O1 O 0.60414(10) -0.04489(8) 0.19598(12)
N1 N 0.66418(10) -0.01227(9) 0.31131(13)
C1 C 0.72131(12) -0.06870(11) 0.43342(15)
N2 N 0.74154(11) 0.09256(9) 0.47054(13)
C2 C 0.64339(16) -0.10248(14) 0.4563(2)
N3 N 0.55789(11) 0.28906(9) 0.16620(15)
C3 C 0.77109(15) -0.14820(12) 0.4147(2)
N4 N 0.50144(11) 0.22508(9) 0.07357(14)
C4 C 0.79381(13) 0.00541(11) 0.53259(16)
C5 C 0.89418(15) 0.00910(15) 0.5484(2)
C6 C 0.8139(2) -0.00154(15) 0.66828(19)
C7 C 0.67458(12) 0.07896(10) 0.34685(15)
C8 C 0.61360(11) 0.14867(10) 0.24974(15)
C9 C 0.62552(13) 0.24274(11) 0.27240(17)
C10 C 0.41662(19) 0.25155(16) -0.0568(2)
C11 C 0.53215(12) 0.14074(11) 0.11981(16)
H1 H 0.4982(14) 0.0910(14) 0.0640(19)
H2 H 0.7219(17) -0.1916(16) 0.353(2)
H3 H 0.6756(14) 0.2722(13) 0.351(2)
H4 H 0.8188(15) -0.1777(15) 0.501(2)
H5 H 0.9349(17) -0.0450(17) 0.601(2)
H6 H 0.6142(18) -0.0499(17) 0.474(2)
H7 H 0.6783(17) -0.1424(16) 0.535(2)
H8 H 0.8131(16) -0.1314(14) 0.384(2)
H9 H 0.9353(18) 0.0592(18) 0.607(2)
H10 H 0.5915(18) -0.1382(16) 0.378(2)
H11 H 0.7488(19) 0.0055(15) 0.656(2)
H12 H 0.8848(17) 0.0149(15) 0.464(2)
H13 H 0.8480(18) -0.0602(18) 0.711(2)
H14 H 0.864(2) 0.0471(19) 0.731(3)
H15 H 0.375(2) 0.290(2) -0.051(3)
H16 H 0.391(2) 0.202(2) -0.109(3)
H17 H 0.438(3) 0.288(2) -0.103(3)
#END
