
#######################################################################
#
#                 Cambridge Crystallographic Data Centre
#                                CCDC
#
#######################################################################
#
# If this CIF has been generated from an entry in the Cambridge
# Structural Database, then it will include bibliographic, chemical,
# crystal, experimental, refinement or atomic coordinate data resulting
# from the CCDC's data processing and validation procedures.
#
#######################################################################

data_CSD_CIF_UHOPIQ
_audit_creation_date 2003-10-08
_audit_creation_method CSD-ConQuest-V1
_database_code_CSD UHOPIQ
_database_code_depnum_ccdc_archive 'CCDC 212733'
_chemical_formula_sum 'C15 H14 N2 O4'
_chemical_formula_moiety
;
C15 H14 N2 O4
;
_journal_coden_Cambridge 1336
_journal_volume 5
_journal_year 2003
_journal_page_first 1265
_journal_name_full 'Org.Lett. '
loop_
_publ_author_name
"R.Yamasaki"
"A.Tanatani"
"I.Azumaya"
"S.Saito"
"K.Yamaguchi"
"H.Kagechika"
_chemical_name_systematic
;
N-(4-methoxyphenyl)-N-(4-nitrophenyl)acetamide
;
_chemical_melting_point 375.15
_cell_volume   2844.146
_exptl_crystal_colour 'orange'
_exptl_crystal_density_diffrn 1.337
_exptl_crystal_description 'prisms'
_exptl_crystal_preparation 'benzene/n-hexane'
_diffrn_ambient_temperature 297
#These two values have been output from a single CSD field.
_refine_ls_R_factor_gt 0.08
_refine_ls_wR_factor_gt 0.08
_symmetry_cell_setting orthorhombic
_symmetry_space_group_name_H-M 'P c a 21'
_symmetry_Int_Tables_number 29
loop_
_symmetry_equiv_pos_site_id
_symmetry_equiv_pos_as_xyz
1 x,y,z
2 -x,-y,1/2+z
3 1/2-x,y,1/2+z
4 1/2+x,-y,z
_cell_length_a 7.184(2)
_cell_length_b 14.80(2)
_cell_length_c 26.75(1)
_cell_angle_alpha 90
_cell_angle_beta 90
_cell_angle_gamma 90
_cell_formula_units_Z 8
loop_
_atom_type_symbol
_atom_type_radius_bond
C 0.68
H 0.23
N 0.68
O 0.68
loop_
_atom_site_label
_atom_site_type_symbol
_atom_site_fract_x
_atom_site_fract_y
_atom_site_fract_z
O1 O 0.919(2) 0.1120(8) 0.63580
O2 O 0.154(1) 0.2374(8) 0.4517(3)
O3 O 0.411(3) -0.034(1) 0.2708(6)
O4 O 0.430(3) -0.148(1) 0.3181(6)
O5 O 0.586(2) 0.388(1) 0.0990(3)
O6 O 1.346(1) 0.2653(9) 0.27720
O7 O 1.070(3) 0.648(1) 0.4131(6)
O8 O 1.080(4) 0.533(1) 0.4613(6)
N1 N 0.413(2) 0.1649(8) 0.4778(5)
N2 N 0.424(2) -0.066(1) 0.3105(6)
N3 N 1.082(2) 0.3368(8) 0.2530(6)
N4 N 1.073(2) 0.569(1) 0.4182(6)
C1 C 0.845(2) 0.077(1) 0.6814(6)
C2 C 0.784(2) 0.125(1) 0.5948(6)
C3 C 0.842(2) 0.157(1) 0.5528(8)
C4 C 0.730(2) 0.173(1) 0.5133(6)
C5 C 0.537(2) 0.147(1) 0.5176(7)
C6 C 0.482(2) 0.112(1) 0.5628(6)
C7 C 0.604(3) 0.092(1) 0.5992(6)
C8 C 0.283(2) 0.232(1) 0.4810(7)
C9 C 0.419(2) 0.1043(9) 0.4342(5)
C10 C 0.413(2) 0.1391(10) 0.3893(7)
C11 C 0.408(2) 0.081(1) 0.3470(6)
C12 C 0.429(2) -0.004(1) 0.3547(6)
C13 C 0.443(2) -0.0453(10) 0.4007(6)
C14 C 0.434(2) 0.011(1) 0.4412(6)
C15 C 0.315(2) 0.298(1) 0.5245(8)
C16 C 0.643(3) 0.417(2) 0.0512(8)
C17 C 0.711(2) 0.381(1) 0.1330(6)
C18 C 0.895(3) 0.402(1) 0.1272(7)
C19 C 1.014(2) 0.396(1) 0.1703(7)
C20 C 0.945(2) 0.354(1) 0.2129(6)
C21 C 0.773(2) 0.327(1) 0.2169(7)
C22 C 0.644(2) 0.338(1) 0.1785(7)
C23 C 1.215(2) 0.269(1) 0.2486(6)
C24 C 1.081(2) 0.392(1) 0.2932(7)
C25 C 1.063(2) 0.4853(10) 0.2879(6)
C26 C 1.063(2) 0.543(1) 0.3280(7)
C27 C 1.077(2) 0.510(1) 0.3760(6)
C28 C 1.081(2) 0.414(1) 0.3834(7)
C29 C 1.093(2) 0.358(1) 0.3446(6)
C30 C 1.205(2) 0.200(1) 0.2094(6)
H1 H 0.93500 0.08160 0.70670
H2 H 0.81440 0.01490 0.67590
H3 H 0.73630 0.10930 0.68990
H4 H 0.96920 0.17150 0.54980
H5 H 0.77680 0.19790 0.48330
H6 H 0.35280 0.10080 0.56810
H7 H 0.56970 0.05560 0.62740
H8 H 0.41010 0.27450 0.54560
H9 H 0.35120 0.35410 0.51130
H10 H 0.20290 0.30380 0.54300
H11 H 0.41030 0.20320 0.38540
H12 H 0.38670 0.10720 0.31530
H13 H 0.45920 -0.10960 0.40510
H14 H 0.45180 -0.00680 0.47300
H15 H 0.72490 0.37180 0.03670
H16 H 0.70840 0.47240 0.05260
H17 H 0.53840 0.42300 0.02940
H18 H 0.94280 0.41730 0.09610
H19 H 1.13800 0.42070 0.16830
H20 H 0.73340 0.29740 0.24680
H21 H 0.51660 0.31970 0.18230
H22 H 1.31320 0.20300 0.18910
H23 H 1.09760 0.20880 0.18980
H24 H 1.19960 0.14100 0.22450
H25 H 1.04850 0.50920 0.25540
H26 H 1.05800 0.60590 0.32410
H27 H 1.07140 0.39070 0.41700
H28 H 1.10970 0.29530 0.35060
#END
