
#######################################################################
#
#                 Cambridge Crystallographic Data Centre
#                                CCDC
#
#######################################################################
#
# If this CIF has been generated from an entry in the Cambridge
# Structural Database, then it will include bibliographic, chemical,
# crystal, experimental, refinement or atomic coordinate data resulting
# from the CCDC's data processing and validation procedures.
#
#######################################################################

data_CSD_CIF_UHOPIR
_audit_creation_date 2010-04-23
_audit_creation_method CSD-ConQuest-V1
_database_code_CSD UHOPIR
_database_code_depnum_ccdc_archive 'CCDC 683983'
_chemical_formula_sum 'C12 H19 N4 O1'
_chemical_formula_moiety
;
C12 H19 N4 O1
;
_journal_coden_Cambridge 1291
_journal_year 2009
_journal_page_first 2548
_journal_name_full 'Eur.J.Org.Chem. '
loop_
_publ_author_name
"E.Tretyakov"
"S.Tolstikov"
"A.Mareev"
"A.Medvedeva"
"G.Romanenko"
"D.Stass"
"A.Bogomyakov"
"V.Ovcharenko"
_chemical_name_systematic
;
2-(1-Ethyl-1H-pyrazol-4-yl)-4,4,5,5-tetramethyl-4,5-dihydro-1H-imidazole-1-oxy
l
;
_cell_volume   2537.964
_exptl_crystal_density_diffrn 1.232
_diffrn_ambient_temperature 298
#These two values have been output from a single CSD field.
_refine_ls_R_factor_gt 0.0518
_refine_ls_wR_factor_gt 0.0518
_symmetry_cell_setting monoclinic
_symmetry_space_group_name_H-M 'C 2/c'
_symmetry_Int_Tables_number 15
loop_
_symmetry_equiv_pos_site_id
_symmetry_equiv_pos_as_xyz
1 x,y,z
2 -x,y,1/2-z
3 1/2+x,1/2+y,z
4 1/2-x,1/2+y,1/2-z
5 -x,-y,-z
6 x,-y,-1/2+z
7 -1/2-x,-1/2-y,-z
8 -1/2+x,-1/2-y,-1/2+z
_cell_length_a 16.271(6)
_cell_length_b 15.317(5)
_cell_length_c 12.371(4)
_cell_angle_alpha 90
_cell_angle_beta 124.596(4)
_cell_angle_gamma 90
_cell_formula_units_Z 8
loop_
_atom_type_symbol
_atom_type_radius_bond
C 0.68
H 0.23
N 0.68
O 0.68
loop_
_atom_site_label
_atom_site_type_symbol
_atom_site_fract_x
_atom_site_fract_y
_atom_site_fract_z
N1 N 0.33231(9) 0.00717(8) 0.68238(12)
O1 O 0.39250(9) 0.04189(8) 0.79344(11)
C1 C 0.27251(11) 0.05758(10) 0.55765(14)
N2 N 0.25628(10) -0.09889(8) 0.53294(12)
C2 C 0.34628(16) 0.08978(16) 0.5277(2)
H1 H 0.3083(16) 0.1266(14) 0.450(2)
H2 H 0.3957(19) 0.1240(15) 0.601(2)
H3 H 0.384(2) 0.0410(19) 0.522(3)
N3 N 0.44782(11) -0.27797(9) 0.84261(13)
C3 C 0.22263(16) 0.13445(12) 0.5743(2)
H4 H 0.1790(19) 0.1647(15) 0.493(2)
H5 H 0.2710(16) 0.1756(15) 0.638(2)
H6 H 0.1817(16) 0.1172(13) 0.603(2)
N4 N 0.50409(9) -0.21403(8) 0.92843(12)
C4 C 0.20290(12) -0.01716(10) 0.46574(14)
C5 C 0.1823(2) -0.01611(15) 0.32967(18)
H7 H 0.1531(17) 0.0366(16) 0.288(2)
H8 H 0.2464(17) -0.0219(14) 0.339(2)
H9 H 0.1385(19) -0.0618(18) 0.276(3)
C6 C 0.10427(14) -0.02027(14) 0.4531(2)
H10 H 0.0651(17) 0.0315(16) 0.399(2)
H11 H 0.1148(15) -0.0203(13) 0.543(2)
H12 H 0.0703(17) -0.0726(16) 0.406(2)
C7 C 0.32388(10) -0.08183(9) 0.65376(14)
C8 C 0.38674(11) -0.14563(9) 0.75305(14)
C9 C 0.47015(11) -0.13454(10) 0.87897(15)
H13 H 0.5024(13) -0.0825(12) 0.9293(17)
C10 C 0.59344(13) -0.23658(13) 1.05569(17)
H14 H 0.6348(16) -0.2727(13) 1.0409(19)
H15 H 0.6253(15) -0.1822(14) 1.0909(19)
C11 C 0.5691(2) -0.28373(18) 1.1398(2)
H16 H 0.6299(19) -0.3019(16) 1.224(3)
H17 H 0.530(2) -0.3346(19) 1.094(2)
H18 H 0.534(2) -0.241(2) 1.160(3)
C12 C 0.37711(12) -0.23654(11) 0.73680(16)
H19 H 0.3291(13) -0.2670(12) 0.6623(18)
#END
