
#######################################################################
#
#                 Cambridge Crystallographic Data Centre
#                                CCDC
#
#######################################################################
#
# If this CIF has been generated from an entry in the Cambridge
# Structural Database, then it will include bibliographic, chemical,
# crystal, experimental, refinement or atomic coordinate data resulting
# from the CCDC's data processing and validation procedures.
#
#######################################################################

data_CSD_CIF_UHOPOX
_audit_creation_date 2010-04-23
_audit_creation_method CSD-ConQuest-V1
_database_code_CSD UHOPOX
_database_code_depnum_ccdc_archive 'CCDC 683985'
_chemical_formula_sum 'C11 H17 N4 O1'
_chemical_formula_moiety
;
C11 H17 N4 O1
;
_journal_coden_Cambridge 1291
_journal_year 2009
_journal_page_first 2548
_journal_name_full 'Eur.J.Org.Chem. '
loop_
_publ_author_name
"E.Tretyakov"
"S.Tolstikov"
"A.Mareev"
"A.Medvedeva"
"G.Romanenko"
"D.Stass"
"A.Bogomyakov"
"V.Ovcharenko"
_chemical_name_systematic
;
4,4,5,5-Tetramethyl-2-(1-methyl-1H-pyrazol-5-yl)-4,5-dihydro-1H-imidazole-1-ox
yl
;
_cell_volume   1180.379
_exptl_crystal_colour 'black'
_exptl_crystal_density_diffrn 1.245
_diffrn_ambient_temperature 240
#These two values have been output from a single CSD field.
_refine_ls_R_factor_gt 0.0628
_refine_ls_wR_factor_gt 0.0628
_symmetry_cell_setting orthorhombic
_symmetry_space_group_name_H-M 'P 21 21 21'
_symmetry_Int_Tables_number 19
loop_
_symmetry_equiv_pos_site_id
_symmetry_equiv_pos_as_xyz
1 x,y,z
2 1/2-x,-y,1/2+z
3 -x,1/2+y,1/2-z
4 1/2+x,1/2-y,-z
_cell_length_a 6.4188(19)
_cell_length_b 11.928(3)
_cell_length_c 15.417(4)
_cell_angle_alpha 90
_cell_angle_beta 90
_cell_angle_gamma 90
_cell_formula_units_Z 4
loop_
_atom_type_symbol
_atom_type_radius_bond
C 0.68
H 0.23
N 0.68
O 0.68
loop_
_atom_site_label
_atom_site_type_symbol
_atom_site_fract_x
_atom_site_fract_y
_atom_site_fract_z
N1 N 0.1718(4) 0.6335(2) 0.20527(14)
O1 O 0.3025(5) 0.5914(2) 0.25654(15)
C1 C 0.0166(5) 0.7195(3) 0.23163(18)
N2 N -0.0225(4) 0.6514(2) 0.08604(15)
C2 C -0.1378(7) 0.6613(4) 0.2915(2)
H1 H -0.07170 0.64630 0.34690
H2 H -0.18210 0.59120 0.26550
H3 H -0.25790 0.70930 0.30040
N3 N 0.2945(4) 0.3569(2) -0.00382(17)
C3 C 0.1222(8) 0.8125(4) 0.2809(3)
H4 H 0.17330 0.78380 0.33580
H5 H 0.02330 0.87240 0.29150
H6 H 0.23810 0.84100 0.24710
N4 N 0.1635(4) 0.4407(2) 0.01657(14)
C4 C -0.0737(5) 0.7500(2) 0.14122(18)
C5 C 0.0369(8) 0.8486(3) 0.0991(2)
H7 H -0.02450 0.86340 0.04280
H8 H 0.18350 0.83100 0.09210
H9 H 0.02240 0.91440 0.13560
C6 C -0.3050(6) 0.7687(4) 0.1409(3)
H10 H -0.35110 0.78420 0.08220
H11 H -0.33850 0.83180 0.17800
H12 H -0.37460 0.70200 0.16240
C7 C 0.1196(4) 0.5947(2) 0.12282(16)
C8 C 0.2306(4) 0.4981(2) 0.08691(17)
C9 C 0.4141(5) 0.4497(3) 0.1119(2)
H13 H 0.50030 0.47020 0.15850
C10 C 0.4444(5) 0.3639(3) 0.0531(2)
H14 H 0.56030 0.31570 0.05400
C11 C -0.0242(6) 0.4543(3) -0.0345(2)
H15 H -0.02560 0.39940 -0.08090
H16 H -0.02750 0.52920 -0.05910
H17 H -0.14520 0.44350 0.00230
#END
