
#######################################################################
#
#                 Cambridge Crystallographic Data Centre
#                                CCDC
#
#######################################################################
#
# If this CIF has been generated from an entry in the Cambridge
# Structural Database, then it will include bibliographic, chemical,
# crystal, experimental, refinement or atomic coordinate data resulting
# from the CCDC's data processing and validation procedures.
#
#######################################################################

data_CSD_CIF_UHOQIS
_audit_creation_date 2010-04-23
_audit_creation_method CSD-ConQuest-V1
_database_code_CSD UHOQIS
_database_code_depnum_ccdc_archive 'CCDC 710699'
_chemical_formula_sum 'C11 H21 N2 O4'
_chemical_formula_moiety
;
C11 H21 N2 O4
;
_journal_coden_Cambridge 1291
_journal_year 2009
_journal_page_first 2548
_journal_name_full 'Eur.J.Org.Chem. '
loop_
_publ_author_name
"E.Tretyakov"
"S.Tolstikov"
"A.Mareev"
"A.Medvedeva"
"G.Romanenko"
"D.Stass"
"A.Bogomyakov"
"V.Ovcharenko"
_chemical_name_systematic
;
2-(2,2-Dimethoxyethyl)-4,4,5,5-tetramethyl-4,5-dihydro-1H-imidazole-1-oxyl 
3-oxide
;
_chemical_melting_point 342.15
_cell_volume   1336.388
_exptl_crystal_colour 'yellow'
_exptl_crystal_density_diffrn 1.219
_exptl_special_details
;
Melting point range 342.15-343.15K

;
_exptl_crystal_description 'plate'
_diffrn_ambient_temperature 293
#These two values have been output from a single CSD field.
_refine_ls_R_factor_gt 0.0517
_refine_ls_wR_factor_gt 0.0517
_symmetry_cell_setting orthorhombic
_symmetry_space_group_name_H-M 'P 21 21 21'
_symmetry_Int_Tables_number 19
loop_
_symmetry_equiv_pos_site_id
_symmetry_equiv_pos_as_xyz
1 x,y,z
2 1/2-x,-y,1/2+z
3 -x,1/2+y,1/2-z
4 1/2+x,1/2-y,-z
_cell_length_a 7.7576(16)
_cell_length_b 9.975(2)
_cell_length_c 17.270(4)
_cell_angle_alpha 90
_cell_angle_beta 90
_cell_angle_gamma 90
_cell_formula_units_Z 4
loop_
_atom_type_symbol
_atom_type_radius_bond
C 0.68
H 0.23
N 0.68
O 0.68
loop_
_atom_site_label
_atom_site_type_symbol
_atom_site_fract_x
_atom_site_fract_y
_atom_site_fract_z
O1 O 0.8826(2) 0.51621(14) 0.16405(9)
N1 N 0.7980(2) 0.62560(15) 0.15537(8)
C1 C 0.8200(3) 0.74310(18) 0.20975(10)
C2 C 0.8080(4) 0.6953(3) 0.29344(13)
H1 H 0.901(4) 0.640(3) 0.3046(17)
H2 H 0.697(4) 0.640(4) 0.3025(18)
H3 H 0.801(4) 0.771(3) 0.3276(17)
C3 C 0.9982(3) 0.7999(3) 0.19313(17)
H4 H 1.083(4) 0.728(3) 0.2014(16)
H5 H 1.018(3) 0.869(3) 0.2256(15)
H6 H 1.010(4) 0.838(3) 0.1446(18)
C4 C 0.6673(3) 0.83394(19) 0.18309(11)
C5 C 0.7110(4) 0.9829(2) 0.17794(19)
H7 H 0.606(4) 1.024(3) 0.1611(17)
H8 H 0.804(5) 0.999(3) 0.144(2)
H9 H 0.738(4) 1.020(3) 0.2274(19)
C6 C 0.4990(3) 0.8129(3) 0.22754(17)
H10 H 0.403(4) 0.861(3) 0.2007(17)
H11 H 0.514(4) 0.843(3) 0.279(2)
H12 H 0.469(4) 0.726(3) 0.2284(18)
N2 N 0.6332(2) 0.77946(16) 0.10313(9)
O2 O 0.5300(2) 0.83809(15) 0.05551(9)
C7 C 0.7004(2) 0.65662(17) 0.09407(9)
C8 C 0.6673(3) 0.5664(2) 0.02752(11)
H13 H 0.775(4) 0.536(3) 0.0015(14)
H14 H 0.608(4) 0.609(2) -0.0092(15)
C9 C 0.5689(2) 0.44067(19) 0.05235(10)
H15 H 0.639(3) 0.3890(19) 0.0830(11)
O3 O 0.42278(18) 0.46690(14) 0.09812(8)
C10 C 0.2908(3) 0.5449(3) 0.06190(17)
H16 H 0.194(4) 0.535(3) 0.0944(16)
H17 H 0.255(4) 0.506(3) 0.0109(18)
H18 H 0.331(4) 0.637(4) 0.0563(18)
O4 O 0.5294(2) 0.37270(15) -0.01662(8)
C11 C 0.4666(4) 0.2398(3) -0.0036(2)
H19 H 0.458(5) 0.194(4) -0.049(2)
H20 H 0.361(6) 0.245(3) 0.023(2)
H21 H 0.552(5) 0.187(3) 0.031(2)
#END
