
#######################################################################
#
#                 Cambridge Crystallographic Data Centre
#                                CCDC
#
#######################################################################
#
# If this CIF has been generated from an entry in the Cambridge
# Structural Database, then it will include bibliographic, chemical,
# crystal, experimental, refinement or atomic coordinate data resulting
# from the CCDC's data processing and validation procedures.
#
#######################################################################

data_CSD_CIF_UHOQUE
_audit_creation_date 2010-04-22
_audit_creation_method CSD-ConQuest-V1
_database_code_CSD UHOQUE
_database_code_depnum_ccdc_archive 'CCDC 710701'
_chemical_formula_sum 'C7 H14 N2 O3'
_chemical_formula_moiety
;
C7 H14 N2 O3
;
_journal_coden_Cambridge 1291
_journal_year 2009
_journal_page_first 2548
_journal_name_full 'Eur.J.Org.Chem. '
loop_
_publ_author_name
"E.Tretyakov"
"S.Tolstikov"
"A.Mareev"
"A.Medvedeva"
"G.Romanenko"
"D.Stass"
"A.Bogomyakov"
"V.Ovcharenko"
_chemical_name_systematic
;
N-(2,3-Dimethyl-3-nitrobutan-2-yl)formamide
;
_chemical_melting_point 462.15
_cell_volume    438.767
_exptl_crystal_colour 'colorless'
_exptl_crystal_density_diffrn 1.319
_exptl_special_details
;
Melting point range 462.15-463.15K

;
_exptl_crystal_description 'plate'
_diffrn_ambient_temperature 240
#These two values have been output from a single CSD field.
_refine_ls_R_factor_gt 0.0516
_refine_ls_wR_factor_gt 0.0516
_symmetry_cell_setting triclinic
_symmetry_space_group_name_H-M 'P -1'
_symmetry_Int_Tables_number 2
loop_
_symmetry_equiv_pos_site_id
_symmetry_equiv_pos_as_xyz
1 x,y,z
2 -x,-y,-z
_cell_length_a 6.266(4)
_cell_length_b 6.481(4)
_cell_length_c 12.301(7)
_cell_angle_alpha 94.775(9)
_cell_angle_beta 97.707(9)
_cell_angle_gamma 116.117(8)
_cell_formula_units_Z 2
loop_
_atom_type_symbol
_atom_type_radius_bond
C 0.68
H 0.23
N 0.68
O 0.68
loop_
_atom_site_label
_atom_site_type_symbol
_atom_site_fract_x
_atom_site_fract_y
_atom_site_fract_z
O1 O 0.1290(2) 0.8022(2) 1.00275(10)
N1 N -0.1218(3) 0.6092(2) 1.11593(11)
N2 N -0.0951(3) 0.4320(3) 1.33524(12)
O2 O 0.0627(3) 0.4140(3) 1.29328(13)
C1 C -0.2820(3) 0.5915(3) 1.19570(13)
C2 C 0.0080(3) 0.7972(3) 1.07358(14)
C3 C -0.1401(3) 0.6424(3) 1.31957(13)
O3 O -0.2216(3) 0.2867(3) 1.38689(13)
C4 C -0.2891(4) 0.6619(4) 1.40469(16)
H1 H -0.216(4) 0.654(4) 1.4789(19)
H2 H -0.460(5) 0.526(5) 1.3871(19)
H3 H -0.294(4) 0.809(5) 1.4006(19)
C5 C 0.1075(4) 0.8541(3) 1.34185(17)
H4 H 0.199(4) 0.874(4) 1.4182(19)
H5 H 0.090(4) 1.000(4) 1.3330(17)
H6 H 0.218(4) 0.843(4) 1.2910(19)
C6 C -0.4901(4) 0.3451(4) 1.16743(17)
H7 H -0.588(4) 0.327(4) 1.0952(19)
H8 H -0.598(4) 0.308(4) 1.222(2)
H9 H -0.429(5) 0.235(5) 1.160(2)
C7 C -0.3845(4) 0.7654(4) 1.18295(18)
H10 H -0.450(4) 0.750(4) 1.105(2)
H11 H -0.261(4) 0.929(4) 1.2119(16)
H12 H -0.520(4) 0.722(4) 1.2238(18)
H13 H 0.003(3) 0.944(3) 1.1009(13)
H14 H -0.113(3) 0.474(3) 1.0904(15)
#END
