
#######################################################################
#
#                 Cambridge Crystallographic Data Centre
#                                CCDC
#
#######################################################################
#
# If this CIF has been generated from an entry in the Cambridge
# Structural Database, then it will include bibliographic, chemical,
# crystal, experimental, refinement or atomic coordinate data resulting
# from the CCDC's data processing and validation procedures.
#
#######################################################################

data_CSD_CIF_UHOREP
_audit_creation_date 2010-04-23
_audit_creation_method CSD-ConQuest-V1
_database_code_CSD UHOREP
_database_code_depnum_ccdc_archive 'CCDC 710703'
_chemical_formula_sum 'C12 H19 N4 O1'
_chemical_formula_moiety
;
C12 H19 N4 O1
;
_journal_coden_Cambridge 1291
_journal_year 2009
_journal_page_first 2548
_journal_name_full 'Eur.J.Org.Chem. '
loop_
_publ_author_name
"E.Tretyakov"
"S.Tolstikov"
"A.Mareev"
"A.Medvedeva"
"G.Romanenko"
"D.Stass"
"A.Bogomyakov"
"V.Ovcharenko"
_chemical_name_systematic
;
4,4,5,5-Tetramethyl-2-(1,5-dimethyl-1H-pyrazol-4-yl)-4,5-dihydro-1H-imidazol-1
-oxyl
;
_cell_volume   2684.090
_exptl_crystal_density_diffrn 1.165
_diffrn_ambient_temperature 240
#These two values have been output from a single CSD field.
_refine_ls_R_factor_gt 0.0709
_refine_ls_wR_factor_gt 0.0709
_symmetry_cell_setting monoclinic
_symmetry_space_group_name_H-M 'P 21/c'
_symmetry_Int_Tables_number 14
loop_
_symmetry_equiv_pos_site_id
_symmetry_equiv_pos_as_xyz
1 x,y,z
2 -x,1/2+y,1/2-z
3 -x,-y,-z
4 x,-1/2-y,-1/2+z
_cell_length_a 7.159(3)
_cell_length_b 18.000(7)
_cell_length_c 20.900(8)
_cell_angle_alpha 90
_cell_angle_beta 94.718(7)
_cell_angle_gamma 90
_cell_formula_units_Z 8
loop_
_atom_type_symbol
_atom_type_radius_bond
C 0.68
H 0.23
N 0.68
O 0.68
loop_
_atom_site_label
_atom_site_type_symbol
_atom_site_fract_x
_atom_site_fract_y
_atom_site_fract_z
N1 N 0.4283(4) 0.51442(15) 0.18307(13)
O1 O 0.3077(4) 0.56589(17) 0.18476(15)
C1 C 0.3980(5) 0.44609(19) 0.14436(15)
N2 N 0.6945(4) 0.45546(17) 0.20474(14)
C2 C 0.246(1) 0.4013(4) 0.1765(4)
H1 H 0.12580 0.42580 0.16850
H2 H 0.27900 0.39840 0.22240
H3 H 0.23840 0.35150 0.15860
N3 N 0.8226(4) 0.63798(15) 0.33456(12)
N4 N 0.6582(4) 0.67388(16) 0.32520(13)
C3 C 0.3274(17) 0.4685(5) 0.0783(3)
H4 H 0.42290 0.49700 0.05900
H5 H 0.21550 0.49850 0.08010
H6 H 0.29770 0.42440 0.05270
C4 C 0.5881(5) 0.4107(2) 0.15517(18)
C5 C 0.5994(12) 0.3330(3) 0.1746(5)
H7 H 0.53350 0.32620 0.21290
H8 H 0.72980 0.31910 0.18360
H9 H 0.54250 0.30220 0.14030
C6 C 0.6970(9) 0.4183(6) 0.0939(3)
H10 H 0.81900 0.39500 0.10140
H11 H 0.71300 0.47050 0.08410
H12 H 0.62680 0.39420 0.05810
C7 C 0.6001(4) 0.51308(17) 0.21795(14)
C8 C 0.6578(4) 0.57103(16) 0.26337(13)
C9 C 0.5587(5) 0.63371(18) 0.28199(14)
H13 H 0.43610 0.64560 0.26560
C10 C 0.9650(7) 0.6702(3) 0.3795(2)
H14 H 1.07610 0.63910 0.38190
H15 H 0.91780 0.67360 0.42160
H16 H 0.99660 0.71950 0.36500
C11 C 0.8299(4) 0.57640(17) 0.29842(14)
C12 C 0.9981(6) 0.5280(2) 0.3007(2)
H17 H 1.09480 0.54830 0.33090
H18 H 1.04410 0.52560 0.25830
H19 H 0.96520 0.47850 0.31420
N5 N 0.7928(5) 0.76402(17) 0.54271(14)
C13 C 0.9480(5) 0.80051(19) 0.58100(16)
O2 O 0.7083(7) 0.79317(19) 0.49375(18)
N6 N 0.8607(4) 0.67953(17) 0.61587(16)
C14 C 1.0979(9) 0.8162(5) 0.5366(3)
H20 H 1.05530 0.85470 0.50640
H21 H 1.12460 0.77130 0.51340
H22 H 1.21080 0.83270 0.56150
N7 N 0.3555(4) 0.6095(2) 0.47252(15)
C15 C 0.8733(10) 0.8732(3) 0.6049(3)
H23 H 0.85140 0.90740 0.56910
H24 H 0.96410 0.89460 0.63670
H25 H 0.75650 0.86430 0.62410
C16 C 0.9916(4) 0.74045(19) 0.63254(16)
N8 N 0.3753(4) 0.56914(17) 0.52859(14)
C17 C 1.1839(6) 0.7076(3) 0.6338(3)
H26 H 1.19900 0.67040 0.66740
H27 H 1.27660 0.74640 0.64210
H28 H 1.20070 0.68470 0.59270
C18 C 0.9565(11) 0.7653(3) 0.6998(2)
H29 H 0.98580 0.72500 0.72970
H30 H 0.82590 0.77920 0.70100
H31 H 1.03540 0.80780 0.71170
C19 C 0.7513(4) 0.69587(18) 0.56749(15)
C20 C 0.5959(4) 0.65231(18) 0.53946(14)
C21 C 0.4895(5) 0.6592(2) 0.48004(17)
H32 H 0.51190 0.69550 0.44920
C22 C 0.2380(6) 0.5107(3) 0.5386(3)
H33 H 0.26960 0.48690 0.57970
H34 H 0.23980 0.47420 0.50450
H35 H 0.11400 0.53250 0.53810
C23 C 0.5155(4) 0.59250(18) 0.56909(15)
C24 C 0.5589(6) 0.5573(2) 0.63332(18)
H36 H 0.47490 0.51570 0.63800
H37 H 0.54250 0.59350 0.66680
H38 H 0.68750 0.53970 0.63690
#END
