
#######################################################################
#
#                 Cambridge Crystallographic Data Centre
#                                CCDC
#
#######################################################################
#
# If this CIF has been generated from an entry in the Cambridge
# Structural Database, then it will include bibliographic, chemical,
# crystal, experimental, refinement or atomic coordinate data resulting
# from the CCDC's data processing and validation procedures.
#
#######################################################################

data_CSD_CIF_UHORAL
_audit_creation_date 2010-04-23
_audit_creation_method CSD-ConQuest-V1
_database_code_CSD UHORAL
_database_code_depnum_ccdc_archive 'CCDC 710702'
_chemical_formula_sum 'C12 H19 N4 O1'
_chemical_formula_moiety
;
C12 H19 N4 O1
;
_journal_coden_Cambridge 1291
_journal_year 2009
_journal_page_first 2548
_journal_name_full 'Eur.J.Org.Chem. '
loop_
_publ_author_name
"E.Tretyakov"
"S.Tolstikov"
"A.Mareev"
"A.Medvedeva"
"G.Romanenko"
"D.Stass"
"A.Bogomyakov"
"V.Ovcharenko"
_chemical_name_systematic
;
4,4,5,5-Tetramethyl-2-(1,3-dimethyl-1H-pyrazol-4-yl)-4,5-dihydro-1H-imidazol-1
-oxyl
;
_cell_volume   2698.681
_exptl_crystal_density_diffrn 1.158
_diffrn_ambient_temperature 240
#These two values have been output from a single CSD field.
_refine_ls_R_factor_gt 0.0782
_refine_ls_wR_factor_gt 0.0782
_symmetry_cell_setting monoclinic
_symmetry_space_group_name_H-M 'P 21/c'
_symmetry_Int_Tables_number 14
loop_
_symmetry_equiv_pos_site_id
_symmetry_equiv_pos_as_xyz
1 x,y,z
2 -x,1/2+y,1/2-z
3 -x,-y,-z
4 x,-1/2-y,-1/2+z
_cell_length_a 9.727(3)
_cell_length_b 19.233(7)
_cell_length_c 14.495(5)
_cell_angle_alpha 90
_cell_angle_beta 95.620(7)
_cell_angle_gamma 90
_cell_formula_units_Z 8
loop_
_atom_type_symbol
_atom_type_radius_bond
C 0.68
H 0.23
N 0.68
O 0.68
loop_
_atom_site_label
_atom_site_type_symbol
_atom_site_fract_x
_atom_site_fract_y
_atom_site_fract_z
N1 N 1.0594(3) -0.02949(13) 0.30701(17)
O1 O 1.0700(3) -0.03025(12) 0.39517(16)
C1 C 1.1138(3) -0.08474(17) 0.2512(2)
N2 N 0.9975(3) 0.00912(14) 0.16399(18)
C2 C 1.2641(5) -0.0949(5) 0.2787(4)
H1 H 1.27720 -0.11290 0.34150
H2 H 1.31180 -0.05080 0.27580
H3 H 1.30130 -0.12770 0.23670
N3 N 0.8236(3) 0.18628(13) 0.29866(18)
C3 C 1.0283(7) -0.1502(2) 0.2730(3)
H4 H 1.05690 -0.16610 0.33540
H5 H 1.04390 -0.18680 0.22920
H6 H 0.93080 -0.13850 0.26790
N4 N 0.8547(3) 0.15835(13) 0.38529(16)
C4 C 1.0725(3) -0.05648(16) 0.1521(2)
C5 C 0.9771(6) -0.1042(2) 0.0937(4)
H7 H 0.89880 -0.11610 0.12720
H8 H 1.02630 -0.14620 0.08000
H9 H 0.94470 -0.08100 0.03620
C6 C 1.1938(5) -0.0384(3) 0.0985(4)
H10 H 1.16000 -0.02110 0.03760
H11 H 1.24950 -0.07960 0.09180
H12 H 1.24960 -0.00290 0.13170
C7 C 0.9930(3) 0.02222(14) 0.2507(2)
C8 C 0.9296(3) 0.08210(14) 0.28997(19)
C9 C 0.8686(3) 0.13963(15) 0.2413(2)
C10 C 0.8506(4) 0.15320(19) 0.1388(2)
H13 H 0.80460 0.19750 0.12710
H14 H 0.79520 0.11650 0.10810
H15 H 0.94050 0.15440 0.11510
C11 C 0.8218(5) 0.1977(2) 0.4663(3)
H16 H 0.85000 0.17140 0.52210
H17 H 0.72300 0.20610 0.46240
H18 H 0.87030 0.24180 0.46840
C12 C 0.9174(3) 0.09715(16) 0.3822(2)
H19 H 0.94800 0.06920 0.43330
N5 N 1.4670(3) 0.15616(15) 0.3362(2)
O2 O 1.4980(3) 0.15291(14) 0.42398(19)
C13 C 1.3753(4) 0.21162(18) 0.2928(3)
N6 N 1.4514(3) 0.12444(15) 0.1873(2)
C14 C 1.2314(5) 0.1971(4) 0.3239(5)
H20 H 1.23130 0.20820 0.38910
H21 H 1.20880 0.14830 0.31410
H22 H 1.16330 0.22550 0.28800
N7 N 1.6822(3) -0.05925(13) 0.2884(2)
C15 C 1.4258(7) 0.2815(2) 0.3283(4)
H23 H 1.51630 0.29060 0.30810
H24 H 1.43180 0.28180 0.39540
H25 H 1.36170 0.31730 0.30400
N8 N 1.6784(3) -0.03996(14) 0.3781(2)
C16 C 1.3912(4) 0.19604(19) 0.1896(3)
C17 C 1.2546(5) 0.1947(3) 0.1249(5)
H26 H 1.18830 0.16490 0.15140
H27 H 1.27240 0.17700 0.06460
H28 H 1.21760 0.24150 0.11820
C18 C 1.4921(4) 0.2437(2) 0.1462(3)
H29 H 1.57860 0.24530 0.18560
H30 H 1.45330 0.29010 0.13970
H31 H 1.50860 0.22590 0.08560
C19 C 1.4965(3) 0.10685(17) 0.2700(3)
C20 C 1.5701(3) 0.04306(16) 0.2971(2)
C21 C 1.6172(3) -0.00885(17) 0.2387(2)
C22 C 1.6028(4) -0.0130(2) 0.1346(3)
H32 H 1.64630 -0.05520 0.11530
H33 H 1.64730 0.02700 0.10950
H34 H 1.50570 -0.01330 0.11180
C23 C 1.7430(4) -0.0839(2) 0.4517(3)
H35 H 1.73100 -0.06300 0.51140
H36 H 1.84080 -0.08840 0.44490
H37 H 1.70020 -0.12950 0.44810
C24 C 1.6131(3) 0.02080(17) 0.3865(3)
H38 H 1.59910 0.04380 0.44200
#END
