
#######################################################################
#
#                 Cambridge Crystallographic Data Centre
#                                CCDC
#
#######################################################################
#
# If this CIF has been generated from an entry in the Cambridge
# Structural Database, then it will include bibliographic, chemical,
# crystal, experimental, refinement or atomic coordinate data resulting
# from the CCDC's data processing and validation procedures.
#
#######################################################################

data_CSD_CIF_UHOYEX
_audit_creation_date 2015-04-24
_audit_creation_method CSD-ConQuest-V1
_database_code_CSD UHOYEX
_database_code_depnum_ccdc_archive 'CCDC 1007707'
_chemical_formula_sum 'C10 H10 N6 O2'
_chemical_formula_moiety
;
C10 H10 N6 O2
;
_journal_coden_Cambridge 1500
_journal_volume 5
_journal_year 2015
_journal_page_first 37617
_journal_name_full 'RSC Advances '
loop_
_publ_author_name
"A.B.Sheremetev"
"B.V.Lyalin"
"A.M.Kozeev"
"N.V.Palysaeva"
"M.I.Struchkova"
"K.Yu.Suponitsky"
_chemical_name_systematic
;
3,3'-diazene-1,2-diylbis(4-cyclopropyl-1,2,5-oxadiazole)
;
_cell_volume   1132.397
_exptl_crystal_colour 'orange'
_exptl_crystal_density_diffrn 1.444
_exptl_crystal_description 'prism'
_diffrn_ambient_temperature 100
#These two values have been output from a single CSD field.
_refine_ls_R_factor_gt 0.0426
_refine_ls_wR_factor_gt 0.0426
_symmetry_cell_setting orthorhombic
_symmetry_space_group_name_H-M 'P b c a'
_symmetry_Int_Tables_number 61
loop_
_symmetry_equiv_pos_site_id
_symmetry_equiv_pos_as_xyz
1 x,y,z
2 1/2-x,-y,1/2+z
3 -x,1/2+y,1/2-z
4 1/2+x,1/2-y,-z
5 -x,-y,-z
6 -1/2+x,y,-1/2-z
7 x,-1/2-y,-1/2+z
8 -1/2-x,-1/2+y,z
_cell_length_a 7.6654(5)
_cell_length_b 9.6969(6)
_cell_length_c 15.2346(10)
_cell_angle_alpha 90
_cell_angle_beta 90
_cell_angle_gamma 90
_cell_formula_units_Z 4
loop_
_atom_type_symbol
_atom_type_radius_bond
C 0.68
H 0.23
N 0.68
O 0.68
loop_
_atom_site_label
_atom_site_type_symbol
_atom_site_fract_x
_atom_site_fract_y
_atom_site_fract_z
O1 O 0.05338(9) 0.14573(8) 0.07292(5)
N1 N 0.05449(11) 0.17608(9) -0.01685(5)
N2 N 0.20325(11) 0.08115(9) 0.09712(5)
N3 N 0.45872(10) 0.00521(8) 0.03554(5)
C1 C 0.29609(11) 0.06999(9) 0.02539(6)
C2 C 0.20320(11) 0.13036(9) -0.04731(6)
C3 C 0.25260(13) 0.14428(10) -0.14006(6)
H1 H 0.37690 0.12250 -0.15430
C4 C 0.12087(14) 0.10917(12) -0.21028(7)
H2 H 0.16420 0.06470 -0.26450
H3 H 0.00370 0.07860 -0.19110
C5 C 0.16906(17) 0.25539(11) -0.19482(7)
H4 H 0.08170 0.31560 -0.16610
H5 H 0.24220 0.30170 -0.23950
O1D O 0.94662(9) -0.14573(8) -0.07292(5)
N1D N 0.94551(11) -0.17608(9) 0.01685(5)
N2D N 0.79675(11) -0.08115(9) -0.09712(5)
N3D N 0.54128(10) -0.00521(8) -0.03554(5)
C1D C 0.70391(11) -0.06999(9) -0.02539(6)
C2D C 0.79680(11) -0.13036(9) 0.04731(6)
C3D C 0.74740(13) -0.14428(10) 0.14006(6)
H1D H 0.62310 -0.12250 0.15430
C4D C 0.87913(14) -0.10917(12) 0.21028(7)
H2D H 0.83580 -0.06470 0.26450
H3D H 0.99630 -0.07860 0.19110
C5D C 0.83094(17) -0.25539(11) 0.19482(7)
H4D H 0.91830 -0.31560 0.16610
H5D H 0.75780 -0.30170 0.23950
#END
