
#######################################################################
#
#                 Cambridge Crystallographic Data Centre
#                                CCDC
#
#######################################################################
#
# If this CIF has been generated from an entry in the Cambridge
# Structural Database, then it will include bibliographic, chemical,
# crystal, experimental, refinement or atomic coordinate data resulting
# from the CCDC's data processing and validation procedures.
#
#######################################################################

data_CSD_CIF_UHUJAK
_audit_creation_date 2015-04-25
_audit_creation_method CSD-ConQuest-V1
_database_code_CSD UHUJAK
_database_code_depnum_ccdc_archive 'CCDC 1025354'
_chemical_formula_sum 'C16 H10 N2 O5'
_chemical_formula_moiety
;
C16 H10 N2 O5
;
_journal_coeditor_code "IUCr lh5762"
_journal_coden_Cambridge 1828
_journal_volume 71
_journal_year 2015
_journal_page_first 547
_journal_name_full 'Acta Crystallogr.,Sect.E:Cryst.Commun. '
loop_
_publ_author_name
"L.R.Gomes"
"J.N.Low"
"F.Cagide"
"D.Chavarria"
"F.Borges"
_chemical_name_systematic
;
N-(2-nitrophenyl)-4-oxo-4H-chromene-3-carboxamide
;
_cell_volume   1293.697
_exptl_crystal_colour 'yellow'
_exptl_crystal_density_diffrn 1.593
_exptl_crystal_description 'rod'
_diffrn_ambient_temperature 100
#These two values have been output from a single CSD field.
_refine_ls_R_factor_gt 0.0766
_refine_ls_wR_factor_gt 0.0766
_symmetry_cell_setting monoclinic
_symmetry_space_group_name_H-M 'P 21/c'
_symmetry_Int_Tables_number 14
loop_
_symmetry_equiv_pos_site_id
_symmetry_equiv_pos_as_xyz
1 x,y,z
2 -x,1/2+y,1/2-z
3 -x,-y,-z
4 x,-1/2-y,-1/2+z
_cell_length_a 14.104(9)
_cell_length_b 12.692(8)
_cell_length_c 7.340(5)
_cell_angle_alpha 90
_cell_angle_beta 100.065(13)
_cell_angle_gamma 90
_cell_formula_units_Z 4
loop_
_atom_type_symbol
_atom_type_radius_bond
C 0.68
H 0.23
N 0.68
O 0.68
loop_
_atom_site_label
_atom_site_type_symbol
_atom_site_fract_x
_atom_site_fract_y
_atom_site_fract_z
O1 O 0.06264(13) 0.90167(15) 0.2131(3)
O2 O 0.33472(14) 0.85362(16) 0.4843(3)
O3 O 0.15266(14) 0.59520(16) 0.2912(3)
O4 O 0.37222(16) 0.41995(16) 0.8305(3)
O5 O 0.27802(14) 0.48771(16) 0.5956(3)
N1 N 0.32255(17) 0.67310(19) 0.4733(3)
H1 H 0.278(3) 0.616(3) 0.447(5)
N2 N 0.35685(17) 0.48317(19) 0.7022(3)
C1 C 0.1510(2) 0.8769(2) 0.3047(4)
H2 H 0.19180 0.93370 0.35230
C2 C 0.18677(19) 0.7789(2) 0.3351(4)
C3 C 0.1266(2) 0.6879(2) 0.2674(4)
C4 C 0.03017(19) 0.7160(2) 0.1659(4)
C5 C -0.0351(2) 0.6377(2) 0.0908(4)
H3 H -0.01800 0.56550 0.10710
C6 C -0.1244(2) 0.6653(2) -0.0068(4)
H4 H -0.16810 0.61190 -0.05880
C7 C -0.1509(2) 0.7710(3) -0.0296(4)
H5 H -0.21260 0.78890 -0.09690
C8 C -0.0884(2) 0.8501(2) 0.0448(4)
H6 H -0.10630 0.92220 0.03110
C9 C 0.0017(2) 0.8203(2) 0.1405(4)
C10 C 0.2891(2) 0.7728(2) 0.4371(4)
C11 C 0.4162(2) 0.6460(2) 0.5629(4)
C12 C 0.43423(19) 0.5536(2) 0.6708(4)
C13 C 0.5268(2) 0.5248(2) 0.7552(4)
H7 H 0.53670 0.46270 0.82840
C14 C 0.6038(2) 0.5870(2) 0.7320(4)
H8 H 0.66730 0.56770 0.78800
C15 C 0.5883(2) 0.6778(2) 0.6266(4)
H9 H 0.64160 0.72030 0.61030
C16 C 0.4957(2) 0.7078(2) 0.5439(4)
H10 H 0.48660 0.77110 0.47390
#END
