
#######################################################################
#
#                 Cambridge Crystallographic Data Centre
#                                CCDC
#
#######################################################################
#
# If this CIF has been generated from an entry in the Cambridge
# Structural Database, then it will include bibliographic, chemical,
# crystal, experimental, refinement or atomic coordinate data resulting
# from the CCDC's data processing and validation procedures.
#
#######################################################################

data_CSD_CIF_UHUMER
_audit_creation_date 2015-04-27
_audit_creation_method CSD-ConQuest-V1
_database_code_CSD UHUMER
_database_code_depnum_ccdc_archive 'CCDC 1044690'
_chemical_formula_sum 'C20 H20 N2 O7'
_chemical_formula_moiety
;
C20 H20 N2 O7
;
_journal_coden_Cambridge 179
_journal_volume 54
_journal_year 2015
_journal_page_first 6870
_journal_name_full 'Angew.Chem.,Int.Ed. '
loop_
_publ_author_name
"Stephanie Y.Y Yip"
"C.Aissa"
_chemical_name_systematic
;
2-(methoxymethyl)-2-phenylpent-3-en-1-yl 3,5-dinitrobenzoate
;
_chemical_melting_point 341
_cell_volume   1910.029
_exptl_crystal_colour 'colorless'
_exptl_crystal_density_diffrn 1.392
_exptl_special_details
;
Melting point range 341-343K
Absolute configuration

;
_exptl_crystal_description 'block'
_diffrn_ambient_temperature 150.0
#These two values have been output from a single CSD field.
_refine_ls_R_factor_gt 0.0318
_refine_ls_wR_factor_gt 0.0318
_symmetry_cell_setting monoclinic
_symmetry_space_group_name_H-M 'P 21'
_symmetry_Int_Tables_number 4
loop_
_symmetry_equiv_pos_site_id
_symmetry_equiv_pos_as_xyz
1 x,y,z
2 -x,1/2+y,-z
_cell_length_a 13.1111(4)
_cell_length_b 8.4907(3)
_cell_length_c 17.8251(5)
_cell_angle_alpha 90
_cell_angle_beta 105.729(1)
_cell_angle_gamma 90
_cell_formula_units_Z 4
loop_
_atom_type_symbol
_atom_type_radius_bond
C 0.68
H 0.23
N 0.68
O 0.68
loop_
_atom_site_label
_atom_site_type_symbol
_atom_site_fract_x
_atom_site_fract_y
_atom_site_fract_z
O1 O 0.65574(11) 0.59154(19) 0.78527(8)
O2 O 0.72251(13) 0.9383(2) 0.88779(10)
O3 O 0.58632(13) 0.4201(2) 0.85364(10)
O4 O 0.38595(14) 0.4789(3) 0.44497(10)
O5 O 0.52334(14) 0.6149(3) 0.50517(11)
O6 O 0.19989(14) 0.1659(2) 0.59086(12)
N1 N 0.45092(15) 0.5237(2) 0.50454(12)
O7 O 0.23579(15) 0.2025(3) 0.71553(13)
N2 N 0.25339(15) 0.2212(3) 0.65219(14)
C1 C 0.58594(16) 0.4835(2) 0.79336(13)
C2 C 0.81385(15) 0.7458(3) 0.83191(11)
C3 C 0.51673(16) 0.5055(3) 0.64713(13)
H1 H 0.57490 0.57070 0.64530
C4 C 0.84555(15) 0.6970(3) 0.75808(12)
C5 C 0.50599(16) 0.4491(3) 0.71758(13)
C6 C 0.44074(16) 0.4645(3) 0.57968(13)
C7 C 0.34641(16) 0.3178(3) 0.65038(15)
C8 C 0.75162(17) 0.9015(3) 0.81912(13)
H2 H 0.79610 0.98680 0.80690
H3 H 0.68750 0.89080 0.77480
C9 C 0.35439(17) 0.3704(3) 0.57918(14)
H4 H 0.30320 0.34360 0.53210
C10 C 0.41969(17) 0.3537(3) 0.71969(14)
H5 H 0.41180 0.31470 0.76780
C11 C 0.94226(18) 0.6986(3) 0.96619(14)
H6 H 0.89620 0.62090 0.97720
C12 C 0.74544(16) 0.6159(3) 0.85296(12)
H7 H 0.78690 0.51740 0.86620
H8 H 0.72060 0.64800 0.89840
C13 C 0.91289(15) 0.7721(3) 0.89862(12)
H9 H 0.95960 0.85180 0.89050
C14 C 0.68098(18) 1.0935(3) 0.88544(15)
H10 H 0.61740 1.10270 0.84150
H11 H 0.73430 1.16940 0.87900
H12 H 0.66270 1.11530 0.93420
C15 C 0.93927(17) 0.6134(3) 0.76486(14)
H13 H 0.98540 0.59450 0.81520
C16 C 0.78021(17) 0.7231(3) 0.68318(13)
H14 H 0.71650 0.78140 0.67650
C17 C 0.8071(2) 0.6650(3) 0.61847(14)
H15 H 0.76080 0.68190 0.56800
C18 C 0.9666(2) 0.5574(3) 0.69992(16)
H16 H 1.03110 0.50150 0.70600
C19 C 0.9001(2) 0.5828(3) 0.62639(15)
H17 H 0.91830 0.54400 0.58170
C20 C 1.04468(19) 0.7308(4) 1.02677(14)
H18 H 1.08530 0.80980 1.00700
H19 H 1.08590 0.63330 1.03860
H20 H 1.02960 0.77040 1.07430
O8 O -0.17811(11) 0.41151(19) 0.20461(8)
O9 O -0.09954(13) 0.5613(2) 0.13277(9)
O10 O -0.02668(13) 0.3453(2) 0.47938(10)
O11 O -0.44340(12) 0.2531(3) 0.02554(10)
O12 O 0.10921(13) 0.4826(2) 0.54063(9)
O13 O 0.24708(15) 0.7924(2) 0.27015(12)
O14 O 0.29428(13) 0.8016(2) 0.39641(11)
N3 N 0.23536(15) 0.7596(2) 0.33427(13)
N4 N 0.04428(14) 0.4392(2) 0.48081(10)
C21 C -0.01780(16) 0.5317(2) 0.26892(13)
C22 C 0.06716(16) 0.6289(3) 0.26689(13)
H21 H 0.07260 0.67310 0.21920
C23 C -0.02508(16) 0.4688(2) 0.33908(12)
H22 H -0.08260 0.40210 0.34080
C24 C 0.05248(16) 0.5046(3) 0.40615(12)
C25 C -0.10153(16) 0.5044(3) 0.19439(12)
C26 C 0.14328(16) 0.6595(3) 0.33584(14)
C27 C -0.28098(16) 0.2366(3) 0.30657(12)
H23 H -0.22580 0.17100 0.29920
C28 C -0.27451(17) 0.4029(3) 0.14133(12)
H24 H -0.25730 0.38090 0.09160
H25 H -0.31310 0.50430 0.13620
C29 C -0.35617(16) 0.2968(3) 0.24177(13)
C30 C 0.13773(16) 0.6008(3) 0.40672(13)
H26 H 0.19000 0.62530 0.45370
C31 C -0.43744(18) 0.3886(3) 0.25565(15)
H27 H -0.49020 0.43020 0.21270
C32 C -0.34335(16) 0.2701(3) 0.15975(12)
C33 C -0.3666(2) 0.3633(3) 0.39376(15)
H28 H -0.36940 0.38670 0.44530
C34 C -0.4428(2) 0.4204(3) 0.33070(16)
H29 H -0.49940 0.48210 0.33860
C35 C -0.45371(18) 0.2818(3) 0.09962(13)
H30 H -0.50260 0.20380 0.11240
H31 H -0.48380 0.38810 0.10170
C36 C -0.29814(19) 0.1097(3) 0.15276(13)
H32 H -0.33000 0.02480 0.17280
C37 C -0.28592(18) 0.2713(3) 0.38121(13)
H33 H -0.23300 0.23130 0.42460
C38 C -0.22060(18) 0.0711(3) 0.12271(16)
H34 H -0.18370 0.15460 0.10610
C39 C -0.5432(2) 0.2653(4) -0.03046(15)
H35 H -0.53510 0.24090 -0.08230
H36 H -0.57050 0.37270 -0.03020
H37 H -0.59290 0.19080 -0.01760
C40 C -0.1858(2) -0.0923(4) 0.11257(18)
H38 H -0.19450 -0.11290 0.05710
H39 H -0.22880 -0.16710 0.13270
H40 H -0.11100 -0.10470 0.14120
#END
