
#######################################################################
#
#                 Cambridge Crystallographic Data Centre
#                                CCDC
#
#######################################################################
#
# If this CIF has been generated from an entry in the Cambridge
# Structural Database, then it will include bibliographic, chemical,
# crystal, experimental, refinement or atomic coordinate data resulting
# from the CCDC's data processing and validation procedures.
#
#######################################################################

data_CSD_CIF_UHUREW
_audit_creation_date 2015-04-27
_audit_creation_method CSD-ConQuest-V1
_database_code_CSD UHUREW
_database_code_depnum_ccdc_archive 'CCDC 1051703'
_chemical_formula_sum 'C16 H14 N2 O7'
_chemical_formula_moiety
;
C16 H14 N2 O7
;
_journal_coden_Cambridge 1291
_journal_year 2015
_journal_page_first 3513
_journal_name_full 'Eur.J.Org.Chem. '
loop_
_publ_author_name
"P.Raju"
"G.G.Rajeshwaran"
"M.Nandakumar"
"A.K.Mohanakrishnan"
_chemical_name_systematic
;
(2S,3S)-2,3-bis(5-methoxy-2-nitrophenyl)oxirane
;
_chemical_melting_point 441
_cell_volume   1561.097
_exptl_crystal_colour 'colorless'
_exptl_crystal_density_diffrn 1.473
_exptl_special_details
;
Melting point range 441-443K

;
_exptl_crystal_description 'triclinic'
_exptl_crystal_preparation 'Re-crystallisation from solvent'
_diffrn_ambient_temperature 293
#These two values have been output from a single CSD field.
_refine_ls_R_factor_gt 0.0407
_refine_ls_wR_factor_gt 0.0407
_symmetry_cell_setting triclinic
_symmetry_space_group_name_H-M 'P -1'
_symmetry_Int_Tables_number 2
loop_
_symmetry_equiv_pos_site_id
_symmetry_equiv_pos_as_xyz
1 x,y,z
2 -x,-y,-z
_cell_length_a 8.3888(2)
_cell_length_b 10.3595(2)
_cell_length_c 18.7561(4)
_cell_angle_alpha 78.077(1)
_cell_angle_beta 86.902(1)
_cell_angle_gamma 78.219(1)
_cell_formula_units_Z 4
loop_
_atom_type_symbol
_atom_type_radius_bond
C 0.68
H 0.23
N 0.68
O 0.68
loop_
_atom_site_label
_atom_site_type_symbol
_atom_site_fract_x
_atom_site_fract_y
_atom_site_fract_z
C1 C 0.2903(3) 0.60102(19) 0.64797(10)
H1 H 0.30940 0.68250 0.61670
H2 H 0.34920 0.58570 0.69240
H3 H 0.17600 0.60920 0.65890
C2 C 0.2840(2) 0.49858(16) 0.54547(8)
C3 C 0.1732(2) 0.60770(15) 0.50944(8)
H4 H 0.13210 0.68040 0.53150
C4 C 0.12513(19) 0.60689(15) 0.44072(8)
H5 H 0.05190 0.68010 0.41580
C5 C 0.18446(18) 0.49831(14) 0.40831(8)
C6 C 0.29280(18) 0.38480(14) 0.44430(8)
C7 C 0.3411(2) 0.38807(15) 0.51304(8)
H6 H 0.41350 0.31470 0.53830
C8 C 0.36321(18) 0.26499(14) 0.41174(8)
H7 H 0.38490 0.28380 0.35910
C9 C 0.3324(2) 0.12966(14) 0.44270(8)
H8 H 0.25650 0.12210 0.48430
C10 C 0.34383(19) 0.02832(14) 0.39511(7)
C11 C 0.4948(2) -0.01975(15) 0.36723(8)
H9 H 0.58460 0.01190 0.37840
C12 C 0.5161(2) -0.11442(15) 0.32277(8)
C13 C 0.3849(2) -0.16514(15) 0.30631(8)
H10 H 0.39880 -0.22950 0.27730
C14 C 0.2340(2) -0.11838(15) 0.33374(8)
H11 H 0.14480 -0.15120 0.32290
C15 C 0.2126(2) -0.02322(14) 0.37715(8)
C16 C 0.7020(3) -0.23823(19) 0.24829(10)
H12 H 0.67850 -0.32430 0.27110
H13 H 0.81440 -0.24890 0.23340
H14 H 0.63420 -0.20090 0.20640
N1 N 0.13088(17) 0.50643(14) 0.33512(7)
N2 N 0.04755(18) 0.02281(14) 0.40192(8)
O1 O 0.34428(17) 0.49048(12) 0.61210(6)
O2 O 0.0760(2) 0.61712(14) 0.29831(8)
O3 O 0.1396(2) 0.40407(14) 0.31229(8)
O4 O 0.48363(14) 0.16542(11) 0.45449(6)
O5 O 0.67050(16) -0.15016(13) 0.29868(7)
O6 O 0.01855(17) 0.12511(14) 0.42663(8)
O7 O -0.05649(18) -0.04192(16) 0.39674(9)
C17 C -0.2239(2) 1.1518(2) 0.22820(12)
H15 H -0.25590 1.17870 0.17810
H16 H -0.30470 1.19650 0.25790
H17 H -0.21380 1.05610 0.24340
C18 C 0.05623(19) 1.13528(14) 0.19717(8)
C19 C 0.2008(2) 1.17623(15) 0.20548(8)
H18 H 0.20350 1.23790 0.23480
C20 C 0.3381(2) 1.12564(15) 0.17051(8)
H19 H 0.43500 1.15280 0.17610
C21 C 0.33464(19) 1.03351(14) 0.12648(8)
C22 C 0.19091(18) 0.99198(13) 0.11619(7)
C23 C 0.05149(19) 1.04492(14) 0.15208(8)
H20 H -0.04630 1.01970 0.14590
C24 C 0.17725(18) 0.89537(14) 0.06863(8)
H21 H 0.23760 0.90520 0.02220
C25 C 0.15099(18) 0.75977(14) 0.10098(8)
H22 H 0.14850 0.73650 0.15430
C26 C 0.20507(17) 0.64527(14) 0.06263(7)
C27 C 0.13492(19) 0.65092(15) -0.00312(8)
H23 H 0.05830 0.72680 -0.02260
C28 C 0.17541(19) 0.54631(15) -0.04117(8)
C29 C 0.28860(19) 0.43211(15) -0.01322(8)
H24 H 0.31610 0.36190 -0.03830
C30 C 0.35979(19) 0.42412(15) 0.05237(8)
H25 H 0.43580 0.34770 0.07170
C31 C 0.31959(17) 0.52848(14) 0.08987(8)
C32 C 0.1376(2) 0.4701(2) -0.14939(9)
H26 H 0.24890 0.46590 -0.16520
H27 H 0.06810 0.49570 -0.19110
H28 H 0.12440 0.38340 -0.12240
N3 N 0.48800(17) 0.98008(15) 0.09384(7)
N4 N 0.40293(17) 0.51419(14) 0.15756(7)
O8 O -0.07204(15) 1.18722(11) 0.23596(6)
O9 O 0.60234(17) 1.03693(18) 0.09417(8)
O10 O 0.49934(16) 0.87919(14) 0.06816(7)
O11 O 0.01999(13) 0.86222(11) 0.06753(7)
O12 O 0.09500(15) 0.56676(12) -0.10419(6)
O13 O 0.40443(18) 0.61384(13) 0.18230(7)
O14 O 0.4739(2) 0.40285(14) 0.18704(8)
#END
