
#######################################################################
#
#                 Cambridge Crystallographic Data Centre
#                                CCDC
#
#######################################################################
#
# If this CIF has been generated from an entry in the Cambridge
# Structural Database, then it will include bibliographic, chemical,
# crystal, experimental, refinement or atomic coordinate data resulting
# from the CCDC's data processing and validation procedures.
#
#######################################################################

data_CSD_CIF_UJAFER
_audit_creation_date 2010-04-15
_audit_creation_method CSD-ConQuest-V1
_database_code_CSD UJAFER
_database_code_depnum_ccdc_archive 'CCDC 741126'
_chemical_formula_sum 'C15 H15 N1 O4'
_chemical_formula_moiety
;
C15 H15 N1 O4
;
_journal_coden_Cambridge 1336
_journal_volume 11
_journal_year 2009
_journal_page_first 2273
_journal_name_full 'Org.Lett. '
loop_
_publ_author_name
"J.V.Ruppel"
"T.J.Gauthier"
"N.L.Snyder"
"J.A.Perman"
"X.P.Zhang"
_chemical_name_systematic
;
(R,R)-2,5-Dioxopyrrolidin-1-yl 2-p-tolylcyclopropanecarboxylate
;
_chemical_name_common
;
(R,R)-1-(((2-(4-Methylphenyl)cyclopropyl)carbonyl)oxy)pyrrolidine-2,5-dione
;
_cell_volume   1446.443
_exptl_crystal_colour 'colorless'
_exptl_crystal_density_diffrn 1.255
_exptl_special_details
;
Absolute configuration

;
_exptl_crystal_description 'plate'
_diffrn_ambient_temperature 296
#These two values have been output from a single CSD field.
_refine_ls_R_factor_gt 0.0392
_refine_ls_wR_factor_gt 0.0392
_symmetry_cell_setting orthorhombic
_symmetry_space_group_name_H-M 'P 21 21 21'
_symmetry_Int_Tables_number 19
loop_
_symmetry_equiv_pos_site_id
_symmetry_equiv_pos_as_xyz
1 x,y,z
2 1/2-x,-y,1/2+z
3 -x,1/2+y,1/2-z
4 1/2+x,1/2-y,-z
_cell_length_a 5.8676(2)
_cell_length_b 8.9556(3)
_cell_length_c 27.5262(8)
_cell_angle_alpha 90
_cell_angle_beta 90
_cell_angle_gamma 90
_cell_formula_units_Z 4
loop_
_atom_type_symbol
_atom_type_radius_bond
C 0.68
H 0.23
N 0.68
O 0.68
loop_
_atom_site_label
_atom_site_type_symbol
_atom_site_fract_x
_atom_site_fract_y
_atom_site_fract_z
C1 C 0.1734(4) 0.6453(4) 0.85675(9)
C2 C 0.2428(5) 0.6603(3) 0.90755(9)
H1 H 0.12380 0.65130 0.93240
C3 C 0.7073(5) 0.4373(3) 0.97271(9)
H2 H 0.79600 0.41660 0.94550
C4 C -0.2111(6) 0.7618(4) 0.78554(11)
C5 C 0.5273(5) 0.5356(3) 0.96844(8)
C6 C 0.7589(6) 0.3695(3) 1.01598(10)
H3 H 0.88240 0.30450 1.01760
C7 C -0.1999(6) 0.5015(4) 0.78532(11)
C8 C -0.3093(7) 0.7138(3) 0.73768(10)
H4 H -0.46530 0.74820 0.73450
H5 H -0.22040 0.75410 0.71100
C9 C 0.4017(6) 0.5641(4) 1.01000(9)
H6 H 0.28130 0.63160 1.00880
C10 C -0.3001(7) 0.5478(3) 0.73758(10)
H7 H -0.20590 0.51250 0.71100
H8 H -0.45190 0.50660 0.73380
C11 C 0.6306(6) 0.3957(4) 1.05732(9)
C12 C 0.4804(4) 0.6080(3) 0.92101(8)
H9 H 0.56800 0.56700 0.89380
C13 C 0.4335(6) 0.7689(3) 0.91720(12)
H10 H 0.49700 0.82200 0.88960
H11 H 0.42750 0.82610 0.94710
C14 C 0.4530(7) 0.4935(4) 1.05314(10)
H12 H 0.36380 0.51320 1.08030
C15 C 0.6908(9) 0.3200(4) 1.10502(11)
H13 H 0.55670 0.31210 1.12480
H14 H 0.80380 0.37800 1.12170
H15 H 0.75000 0.22200 1.09860
O1 O -0.0616(3) 0.6354(3) 0.85524(5)
O2 O 0.2862(3) 0.6450(3) 0.82119(6)
O3 O -0.1873(5) 0.8842(3) 0.80233(9)
O4 O -0.1706(6) 0.3806(3) 0.80242(9)
N1 N -0.1474(4) 0.6323(3) 0.80839(7)
#END
