
#######################################################################
#
#                 Cambridge Crystallographic Data Centre
#                                CCDC
#
#######################################################################
#
# If this CIF has been generated from an entry in the Cambridge
# Structural Database, then it will include bibliographic, chemical,
# crystal, experimental, refinement or atomic coordinate data resulting
# from the CCDC's data processing and validation procedures.
#
#######################################################################

data_CSD_CIF_UJAWOS
_audit_creation_date 2011-04-19
_audit_creation_method CSD-ConQuest-V1
_database_code_CSD UJAWOS
_database_code_depnum_ccdc_archive 'CCDC 784469'
_chemical_formula_sum 'C19 H24 N4 O4'
_chemical_formula_moiety
;
C19 H24 N4 O4
;
_journal_coden_Cambridge 36
_journal_volume 696
_journal_year 2011
_journal_page_first 388
_journal_name_full 'J.Organomet.Chem. '
loop_
_publ_author_name
"Y.Harrak"
"M.Makhlouf"
"S.Azzaro"
"E.Mainetti"
"J.M.L.Romero"
"K.Cariou"
"V.Gandon"
"J.-P.Goddard"
"M.Malacria"
"L.Fensterbank"
_chemical_name_systematic
;
1-(1,1-Dimethyldecahydro-2H-cyclopropa[b]naphthalen-2-ylidene)-2-(2,4-dinitrop
henyl)hydrazine
;
_cell_volume   3665.029
_exptl_crystal_colour 'orange'
_exptl_crystal_density_diffrn 1.35
_exptl_crystal_description 'needle'
_diffrn_ambient_temperature 200
#These two values have been output from a single CSD field.
_refine_ls_R_factor_gt 0.05
_refine_ls_wR_factor_gt 0.05
_symmetry_cell_setting monoclinic
_symmetry_space_group_name_H-M 'C 2/c'
_symmetry_Int_Tables_number 15
loop_
_symmetry_equiv_pos_site_id
_symmetry_equiv_pos_as_xyz
1 x,y,z
2 -x,y,1/2-z
3 1/2+x,1/2+y,z
4 1/2-x,1/2+y,1/2-z
5 -x,-y,-z
6 x,-y,-1/2+z
7 -1/2-x,-1/2-y,-z
8 -1/2+x,-1/2-y,-1/2+z
_cell_length_a 33.524(6)
_cell_length_b 5.9919(6)
_cell_length_c 19.334(3)
_cell_angle_alpha 90
_cell_angle_beta 109.317(12)
_cell_angle_gamma 90
_cell_formula_units_Z 8
loop_
_atom_type_symbol
_atom_type_radius_bond
C 0.68
H 0.23
N 0.68
O 0.68
loop_
_atom_site_label
_atom_site_type_symbol
_atom_site_fract_x
_atom_site_fract_y
_atom_site_fract_z
N1 N 0.10938(5) 0.0630(2) 0.03163(8)
N2 N 0.13711(5) 0.1155(2) -0.00543(8)
H1 H 0.1614(5) 0.0504(14) 0.0035(2)
N3 N 0.19631(5) 0.2528(2) -0.07881(9)
N4 N 0.10772(6) 0.8960(2) -0.17268(8)
O1 O 0.20736(5) 0.0963(2) -0.03485(8)
O2 O 0.21604(5) 0.3072(2) -0.11888(8)
O3 O 0.13569(5) 0.9655(2) -0.19497(7)
O4 O 0.07412(5) 0.9925(2) -0.18257(7)
C1 C 0.11942(6) -0.1122(3) 0.07287(9)
C2 C 0.09096(6) -0.1641(3) 0.11742(10)
H2 H 0.1024(2) -0.0794(15) 0.1639(8)
C3 C 0.04539(6) -0.0932(3) 0.07926(11)
H3 H 0.03436(15) -0.1791(10) 0.0315(6)
H4 H 0.04507(6) 0.0654(19) 0.06964(17)
C4 C 0.01755(7) -0.1442(3) 0.12569(11)
H5 H 0.02668(13) -0.0516(14) 0.1696(6)
H6 H -0.0121(4) -0.0994(8) 0.0989(4)
C5 C 0.02047(7) -0.3893(3) 0.14688(12)
H7 H 0.00831(19) -0.4847(13) 0.1004(6)
H8 H 0.0019(3) -0.4149(5) 0.1760(4)
C6 C 0.06583(7) -0.4589(3) 0.18545(11)
H9 H 0.06600(7) -0.628(2) 0.19635(19)
H10 H 0.07598(15) -0.3797(10) 0.2319(6)
C7 C 0.09430(6) -0.4106(3) 0.14008(10)
H11 H 0.0831(2) -0.4968(16) 0.0929(9)
C8 C 0.14008(7) -0.4720(3) 0.18017(11)
H12 H 0.14119(7) -0.633(2) 0.1952(2)
H13 H 0.15040(15) -0.3823(11) 0.2255(6)
C9 C 0.16758(6) -0.4420(3) 0.13274(10)
H14 H 0.17606(17) -0.577(2) 0.1135(4)
C10 C 0.19740(6) -0.2520(3) 0.13923(10)
C11 C 0.15542(6) -0.2569(2) 0.07655(10)
H15 H 0.15815(8) -0.2895(7) 0.0316(9)
C12 C 0.20433(7) -0.0806(3) 0.19885(11)
H16 H 0.21458(13) 0.0536(15) 0.18542(17)
H17 H 0.1781(3) -0.0437(5) 0.20853(15)
H18 H 0.2257(2) -0.1253(5) 0.2436(5)
C13 C 0.23556(7) -0.2969(3) 0.11671(11)
H19 H 0.24331(11) -0.1566(15) 0.0953(3)
H20 H 0.2593(3) -0.3409(6) 0.1577(5)
H21 H 0.23031(8) -0.4187(14) 0.0792(4)
C14 C 0.12980(6) 0.2992(2) -0.04849(9)
C15 C 0.15837(6) 0.3739(3) -0.08311(9)
C16 C 0.15093(6) 0.5702(3) -0.12382(9)
H22 H 0.1706(4) 0.6139(9) -0.1444(4)
C17 C 0.11503(6) 0.6881(3) -0.13126(9)
C18 C 0.08506(6) 0.6139(3) -0.10141(9)
H23 H 0.0606(5) 0.6968(17) -0.10917(18)
C19 C 0.09239(6) 0.4228(3) -0.06103(10)
H24 H 0.0738(4) 0.3727(10) -0.0401(4)
#END
