
#######################################################################
#
#                 Cambridge Crystallographic Data Centre
#                                CCDC
#
#######################################################################
#
# If this CIF has been generated from an entry in the Cambridge
# Structural Database, then it will include bibliographic, chemical,
# crystal, experimental, refinement or atomic coordinate data resulting
# from the CCDC's data processing and validation procedures.
#
#######################################################################

data_CSD_CIF_UJESEH
_audit_creation_date 2003-10-08
_audit_creation_method CSD-ConQuest-V1
_database_code_CSD UJESEH
_database_code_depnum_ccdc_archive 'CCDC 217919'
_chemical_formula_sum 'C20 H20 N2 O2'
_chemical_formula_moiety
;
C20 H20 N2 O2
;
_journal_coden_Cambridge 1078
_journal_year 2003
_journal_name_full 'CSD Communication(Private Communication) '
loop_
_publ_author_name
"M.B.Hursthouse"
"D.E.Hibbs"
"J.Hepworth"
_chemical_name_systematic
;
4-(4-(Diethylamino)phenyl)naphthalene-1,2-dione 2-oxime
;
_cell_volume   1650.208
_exptl_crystal_density_diffrn 1.29
_exptl_special_details
;
contribution from Department of Chemistry, University of Cardiff, Cardiff 
CF10 3TB, UK
;
_diffrn_ambient_temperature 293
#These two values have been output from a single CSD field.
_refine_ls_R_factor_gt 0.0466
_refine_ls_wR_factor_gt 0.0466
_symmetry_cell_setting monoclinic
_symmetry_space_group_name_H-M 'P 21/c'
_symmetry_Int_Tables_number 14
loop_
_symmetry_equiv_pos_site_id
_symmetry_equiv_pos_as_xyz
1 x,y,z
2 x,1/2-y,1/2+z
3 -x,-y,-z
4 -x,-1/2+y,-1/2-z
_cell_length_a 6.2650(7)
_cell_length_b 11.3610(8)
_cell_length_c 23.196(5)
_cell_angle_alpha 90
_cell_angle_beta 91.790(7)
_cell_angle_gamma 90
_cell_formula_units_Z 4
loop_
_atom_type_symbol
_atom_type_radius_bond
C 0.68
H 0.23
N 0.68
O 0.68
loop_
_atom_site_label
_atom_site_type_symbol
_atom_site_fract_x
_atom_site_fract_y
_atom_site_fract_z
O1 O 0.0582(5) 0.0903(2) 0.05562(12)
H1 H -0.0341(44) 0.0393(23) 0.0571(10)
O2 O 0.4116(5) 0.0600(2) -0.08627(12)
N1 N 0.7841(6) 0.6085(3) 0.23053(15)
N2 N 0.1736(6) 0.0751(3) 0.00640(15)
C1 C 0.9939(7) 0.6139(3) 0.2581(2)
H2 H 1.0167(7) 0.6931(3) 0.2726(2)
H3 H 1.0992(7) 0.5996(3) 0.2291(2)
C2 C 1.0339(8) 0.5278(3) 0.3076(2)
H4 H 1.1782(15) 0.5360(17) 0.3222(8)
H5 H 1.0116(45) 0.4488(4) 0.2940(3)
H6 H 0.9371(30) 0.5442(16) 0.3379(5)
C3 C 0.6112(8) 0.6656(4) 0.2625(2)
H7 H 0.6526(8) 0.6701(4) 0.3031(2)
H8 H 0.4827(8) 0.6182(4) 0.2589(2)
C4 C 0.5661(9) 0.7861(4) 0.2401(2)
H9 H 0.6850(25) 0.8366(9) 0.2495(14)
H10 H 0.4401(33) 0.8163(13) 0.2574(12)
H11 H 0.5441(60) 0.7830(6) 0.1990(3)
C5 C 0.7370(7) 0.5300(3) 0.1866(2)
C6 C 0.8871(6) 0.4464(3) 0.1677(2)
H12 H 1.0213(6) 0.4424(3) 0.1859(2)
C7 C 0.8380(7) 0.3710(3) 0.1228(2)
H13 H 0.9388(7) 0.3157(3) 0.1122(2)
C8 C 0.6441(7) 0.3747(3) 0.0930(2)
C9 C 0.4946(7) 0.4582(3) 0.1108(2)
H14 H 0.3620(7) 0.4627(3) 0.0917(2)
C10 C 0.5403(7) 0.5334(3) 0.1557(2)
H15 H 0.4382(7) 0.5882(3) 0.1661(2)
C11 C 0.5852(7) 0.2912(3) 0.0460(2)
C12 C 0.4058(7) 0.2245(3) 0.0498(2)
H16 H 0.3245(7) 0.2317(3) 0.0825(2)
C13 C 0.3363(7) 0.1428(3) 0.0053(2)
C14 C 0.4703(7) 0.1291(3) -0.0469(2)
C15 C 0.6624(7) 0.2022(3) -0.0507(2)
C16 C 0.7855(7) 0.1912(3) -0.0985(2)
H17 H 0.7476(7) 0.1374(3) -0.1273(2)
C17 C 0.9647(7) 0.2599(3) -0.1037(2)
H18 H 1.0472(7) 0.2526(3) -0.1361(2)
C18 C 1.0231(7) 0.3400(3) -0.0610(2)
H19 H 1.1444(7) 0.3863(3) -0.0645(2)
C19 C 0.8998(7) 0.3500(3) -0.0135(2)
H20 H 0.9380(7) 0.4050(3) 0.0147(2)
C20 C 0.7203(7) 0.2810(3) -0.0058(2)
#END
