
#######################################################################
#
#                 Cambridge Crystallographic Data Centre
#                                CCDC
#
#######################################################################
#
# If this CIF has been generated from an entry in the Cambridge
# Structural Database, then it will include bibliographic, chemical,
# crystal, experimental, refinement or atomic coordinate data resulting
# from the CCDC's data processing and validation procedures.
#
#######################################################################

data_CSD_CIF_UJIBOE
_audit_creation_date 2003-10-08
_audit_creation_method CSD-ConQuest-V1
_database_code_CSD UJIBOE
_database_code_depnum_ccdc_archive 'CCDC 218007'
_chemical_formula_sum 'C32 H22 N4 O2'
_chemical_formula_moiety
;
C32 H22 N4 O2
;
_journal_coden_Cambridge 1078
_journal_year 2003
_journal_name_full 'CSD Communication(Private Communication) '
loop_
_publ_author_name
"M.B.Hursthouse"
"M.E.Light"
"A.Amoroso"
_chemical_name_systematic
;
4',4''-Diphenyl-2,2':6',2'':6'',2'''-quaterpyridine 1,1'''-dioxide
;
_cell_volume   1205.315
_exptl_crystal_density_diffrn 1.363
_exptl_special_details
;
contribution from Department of Chemistry, University of Cardiff, Cardiff 
CF10 3TB, UK
;
_diffrn_ambient_temperature 120
#These two values have been output from a single CSD field.
_refine_ls_R_factor_gt 0.0387
_refine_ls_wR_factor_gt 0.0387
_symmetry_cell_setting monoclinic
_symmetry_space_group_name_H-M 'P 21/c'
_symmetry_Int_Tables_number 14
loop_
_symmetry_equiv_pos_site_id
_symmetry_equiv_pos_as_xyz
1 x,y,z
2 x,1/2-y,1/2+z
3 -x,-y,-z
4 -x,-1/2+y,-1/2-z
_cell_length_a 9.5654(2)
_cell_length_b 11.8872(2)
_cell_length_c 11.3594(2)
_cell_angle_alpha 90
_cell_angle_beta 111.065(3)
_cell_angle_gamma 90
_cell_formula_units_Z 2
loop_
_atom_type_symbol
_atom_type_radius_bond
C 0.68
H 0.23
N 0.68
O 0.68
loop_
_atom_site_label
_atom_site_type_symbol
_atom_site_fract_x
_atom_site_fract_y
_atom_site_fract_z
H1 H 0.6376(18) 0.2299(13) 0.3518(17)
H2 H 0.3198(15) 0.4934(12) 0.5833(14)
H3 H 0.4309(17) 0.1586(14) 0.6279(16)
H4 H 0.0746(17) 0.4127(13) 0.5383(16)
H5 H -0.126(2) 0.3710(14) 0.6005(18)
H6 H -0.101(2) 0.2309(13) 0.7629(18)
H7 H 0.1285(19) 0.1317(14) 0.8468(19)
H8 H 0.3313(19) 0.1746(13) 0.7837(16)
C1 C 0.77867(18) -0.00376(12) 0.58580(18)
C2 C 0.81114(17) -0.00535(13) 0.47888(17)
C3 C 0.76175(18) 0.08082(13) 0.39107(18)
C4 C 0.67893(17) 0.16667(12) 0.41581(16)
C5 C 0.64449(15) 0.16690(11) 0.52407(15)
C6 C 0.55167(16) 0.25661(11) 0.55008(14)
C7 C 0.48588(16) 0.44366(11) 0.52266(14)
C8 C 0.37489(16) 0.42849(12) 0.57309(15)
C9 C 0.34926(16) 0.32126(11) 0.61103(15)
C10 C 0.44243(16) 0.23464(12) 0.60087(15)
C11 C 0.22456(16) 0.29817(11) 0.65619(14)
C12 C 0.08814(17) 0.35530(13) 0.60424(16)
C13 C -0.03118(18) 0.33067(13) 0.64194(17)
C14 C -0.01667(18) 0.24872(13) 0.73259(16)
C15 C 0.11806(18) 0.19162(13) 0.78489(16)
C16 C 0.23764(18) 0.21598(13) 0.74727(16)
N1 N 0.69716(14) 0.08147(10) 0.61045(13)
N2 N 0.57349(13) 0.35940(9) 0.50997(12)
O1 O 0.67589(13) 0.08260(9) 0.71734(12)
H9 H 0.8103(18) -0.0567(14) 0.6503(18)
H10 H 0.8708(19) -0.0665(14) 0.4676(17)
H11 H 0.7842(19) 0.0815(13) 0.3121(18)
C7B C 0.51412(16) 0.55634(11) 0.47734(14)
C8B C 0.62511(16) 0.57151(12) 0.42691(15)
H2B H 0.6802(15) 0.5066(12) 0.4167(14)
C9B C 0.65074(16) 0.67874(11) 0.38897(15)
C10B C 0.55757(16) 0.76536(12) 0.39913(15)
H3B H 0.5691(17) 0.8414(14) 0.3721(16)
C6B C 0.44833(16) 0.74339(11) 0.44992(14)
C5B C 0.35551(15) 0.83310(11) 0.47593(15)
C4B C 0.32107(17) 0.83333(12) 0.58419(16)
H1B H 0.3624(18) 0.7701(13) 0.6482(17)
C3B C 0.23825(18) 0.91918(13) 0.60893(18)
C2B C 0.18886(17) 1.00535(13) 0.52112(17)
C1B C 0.22133(18) 1.00376(12) 0.41420(18)
N1B N 0.30284(14) 0.91853(10) 0.38955(13)
O1B O 0.32411(13) 0.91740(9) 0.28266(12)
H9B H 0.1897(18) 1.0567(14) 0.3497(18)
H10B H 0.1292(19) 1.0665(14) 0.5324(17)
H11B H 0.2158(19) 0.9185(13) 0.6879(18)
N2B N 0.42651(13) 0.64060(9) 0.49003(12)
C11B C 0.77544(16) 0.70183(11) 0.34381(14)
C12B C 0.91186(17) 0.64470(13) 0.39576(16)
H4B H 0.9254(17) 0.5873(13) 0.4617(16)
C13B C 1.03118(18) 0.66933(13) 0.35806(17)
H5B H 1.126(2) 0.6290(14) 0.3995(18)
C14B C 1.01667(18) 0.75128(13) 0.26741(16)
H6B H 1.101(2) 0.7691(13) 0.2371(18)
C15B C 0.88194(18) 0.80838(13) 0.21511(16)
H7B H 0.8715(19) 0.8683(14) 0.1532(19)
C16B C 0.76236(18) 0.78402(13) 0.25273(16)
H8B H 0.6687(19) 0.8254(13) 0.2163(16)
#END
