
#######################################################################
#
#                 Cambridge Crystallographic Data Centre
#                                CCDC
#
#######################################################################
#
# If this CIF has been generated from an entry in the Cambridge
# Structural Database, then it will include bibliographic, chemical,
# crystal, experimental, refinement or atomic coordinate data resulting
# from the CCDC's data processing and validation procedures.
#
#######################################################################

data_CSD_CIF_UJIGIE
_audit_creation_date 2011-03-31
_audit_creation_method CSD-ConQuest-V1
_database_code_CSD UJIGIE
_database_code_depnum_ccdc_archive 'CCDC 761578'
_chemical_formula_sum 'C15 H14 N4 O3'
_chemical_formula_moiety
;
C15 H14 N4 O3
;
_journal_coden_Cambridge 1003
_journal_volume 40
_journal_year 2010
_journal_page_first 1159
_journal_name_full 'J.Chem.Cryst. '
loop_
_publ_author_name
"G.M.de Lima"
"S.M.S.V.Wardell"
"J.L.Wardell"
"E.R.T.Tiekink"
_chemical_name_systematic
;
N-(4-(4-Nitrobenzenecarbohydrazonoyl)phenyl)acetamide
;
_cell_volume   1400.834
_exptl_crystal_colour 'red'
_exptl_crystal_density_diffrn 1.414
_exptl_crystal_description 'block'
_diffrn_ambient_temperature 120
#These two values have been output from a single CSD field.
_refine_ls_R_factor_gt 0.048
_refine_ls_wR_factor_gt 0.048
_symmetry_cell_setting monoclinic
_symmetry_space_group_name_H-M 'P 21/c'
_symmetry_Int_Tables_number 14
loop_
_symmetry_equiv_pos_site_id
_symmetry_equiv_pos_as_xyz
1 x,y,z
2 -x,1/2+y,1/2-z
3 -x,-y,-z
4 x,-1/2-y,-1/2+z
_cell_length_a 10.8152(3)
_cell_length_b 10.9469(2)
_cell_length_c 12.9198(4)
_cell_angle_alpha 90
_cell_angle_beta 113.679(1)
_cell_angle_gamma 90
_cell_formula_units_Z 4
loop_
_atom_type_symbol
_atom_type_radius_bond
C 0.68
H 0.23
N 0.68
O 0.68
loop_
_atom_site_label
_atom_site_type_symbol
_atom_site_fract_x
_atom_site_fract_y
_atom_site_fract_z
O1 O 1.25570(11) 0.4016(1) 0.66871(10)
O2 O 0.26855(13) 0.09487(13) 0.80053(10)
O3 O 0.07832(11) 0.05377(11) 0.66266(10)
N1 N 1.15650(12) 0.38774(11) 0.47603(11)
H1 H 1.17150 0.40290 0.41520
N2 N 0.57782(12) 0.18582(11) 0.43828(11)
N3 N 0.44798(12) 0.14269(11) 0.39891(11)
H2 H 0.40370 0.12560 0.32680
N4 N 0.19887(13) 0.08031(12) 0.69809(11)
C1 C 1.38235(16) 0.46666(15) 0.56269(14)
H3 H 1.45630 0.47520 0.63740
H4 H 1.36050 0.54680 0.52610
H5 H 1.40990 0.41120 0.51630
C2 C 1.26013(16) 0.41566(13) 0.57545(13)
C3 C 1.02837(15) 0.33806(13) 0.45540(13)
C4 C 0.94932(15) 0.30231(15) 0.34458(13)
H6 H 0.98260 0.31220 0.28730
C5 C 0.82268(15) 0.25263(15) 0.31798(13)
H7 H 0.77040 0.22780 0.24250
C6 C 0.76995(15) 0.23812(14) 0.39970(13)
C7 C 0.85085(16) 0.27361(15) 0.51026(13)
H8 H 0.81770 0.26330 0.56760
C8 C 0.97817(15) 0.32342(14) 0.53849(13)
H9 H 1.03090 0.34750 0.61420
C9 C 0.63345(15) 0.18969(13) 0.36753(13)
H10 H 0.58520 0.16060 0.29280
C10 C 0.38831(15) 0.12657(13) 0.47323(13)
C11 C 0.25229(15) 0.08811(13) 0.43234(13)
H11 H 0.20380 0.07250 0.35400
C12 C 0.18985(15) 0.07321(13) 0.50534(14)
H12 H 0.09810 0.04830 0.47780
C13 C 0.26254(15) 0.09501(13) 0.62047(13)
C14 C 0.39712(15) 0.13105(13) 0.66249(14)
H13 H 0.44540 0.14470 0.74120
C15 C 0.45987(15) 0.14673(14) 0.59000(13)
H14 H 0.55180 0.17120 0.61850
#END
