
#######################################################################
#
#                 Cambridge Crystallographic Data Centre
#                                CCDC
#
#######################################################################
#
# If this CIF has been generated from an entry in the Cambridge
# Structural Database, then it will include bibliographic, chemical,
# crystal, experimental, refinement or atomic coordinate data resulting
# from the CCDC's data processing and validation procedures.
#
#######################################################################

data_CSD_CIF_UJIHAX
_audit_creation_date 2011-03-31
_audit_creation_method CSD-ConQuest-V1
_database_code_CSD UJIHAX
_database_code_depnum_ccdc_archive 'CCDC 783191'
_chemical_formula_sum 'C11 H11 N5 O3'
_chemical_formula_moiety
;
C11 H11 N5 O3
;
_journal_coden_Cambridge 777
_journal_volume 7
_journal_year 2011
_journal_page_first 75
_journal_name_full 'Soft Matter '
loop_
_publ_author_name
"G.O.Lloyd"
"J.W.Steed"
_chemical_name_systematic
;
1-(5-Methyl-1H-pyrazol-3-yl)-3-(3-nitrophenyl)urea
;
_cell_volume   1150.250
_exptl_crystal_colour 'yellow'
_exptl_crystal_density_diffrn 1.509
_exptl_crystal_description 'prism'
_diffrn_ambient_temperature 120
#These two values have been output from a single CSD field.
_refine_ls_R_factor_gt 0.0488
_refine_ls_wR_factor_gt 0.0488
_symmetry_cell_setting monoclinic
_symmetry_space_group_name_H-M 'P 21/n'
_symmetry_Int_Tables_number 14
loop_
_symmetry_equiv_pos_site_id
_symmetry_equiv_pos_as_xyz
1 x,y,z
2 1/2-x,1/2+y,1/2-z
3 -x,-y,-z
4 -1/2+x,-1/2-y,-1/2+z
_cell_length_a 10.4699(10)
_cell_length_b 5.4899(5)
_cell_length_c 20.581(2)
_cell_angle_alpha 90
_cell_angle_beta 103.507(4)
_cell_angle_gamma 90
_cell_formula_units_Z 4
loop_
_atom_type_symbol
_atom_type_radius_bond
C 0.68
H 0.23
N 0.68
O 0.68
loop_
_atom_site_label
_atom_site_type_symbol
_atom_site_fract_x
_atom_site_fract_y
_atom_site_fract_z
O1 O 0.16308(10) 0.45714(19) 0.05653(5)
O2 O 0.76303(10) -0.3354(2) 0.16798(5)
O3 O 0.64367(11) -0.4335(2) 0.07059(5)
N1 N 0.25825(12) 0.1059(2) 0.02988(6)
H1 H 0.24570 -0.01680 0.00160
N2 N 0.66718(12) -0.3052(2) 0.12035(6)
C1 C 0.57706(13) -0.1045(3) 0.12510(7)
N3 N 0.06339(12) 0.2496(2) -0.03623(6)
H2 H 0.00150 0.36150 -0.04260
C2 C -0.06549(14) 0.0378(3) -0.13721(7)
H3 H -0.14190 0.13710 -0.14750
C3 C 0.61213(14) 0.0580(3) 0.17768(7)
H4 H 0.69270 0.04280 0.21020
C4 C 0.46087(13) -0.0906(3) 0.07669(7)
H5 H 0.44070 -0.20730 0.04170
N4 N 0.13616(12) -0.1030(2) -0.08471(6)
C5 C 0.16263(14) 0.2810(3) 0.01939(7)
C6 C 0.37362(13) 0.0997(3) 0.08043(7)
C7 C 0.52415(14) 0.2440(3) 0.18066(7)
H6 H 0.54470 0.35850 0.21620
C8 C -0.03942(14) -0.1661(3) -0.17077(7)
C9 C 0.04575(13) 0.0668(3) -0.08433(7)
C10 C 0.40657(14) 0.2672(3) 0.13296(7)
H7 H 0.34840 0.39720 0.13600
N5 N 0.08124(12) -0.2437(2) -0.13861(6)
H8 H 0.12030 -0.37150 -0.15110
C11 C -0.11928(16) -0.2990(3) -0.22946(8)
H9 H -0.10040 -0.23400 -0.27060
H10 H -0.21280 -0.27780 -0.23080
H11 H -0.09720 -0.47270 -0.22560
#END
