
#######################################################################
#
#                 Cambridge Crystallographic Data Centre
#                                CCDC
#
#######################################################################
#
# If this CIF has been generated from an entry in the Cambridge
# Structural Database, then it will include bibliographic, chemical,
# crystal, experimental, refinement or atomic coordinate data resulting
# from the CCDC's data processing and validation procedures.
#
#######################################################################

data_CSD_CIF_UJIHUS
_audit_creation_date 2016-03-24
_audit_creation_method CSD-ConQuest-V1
_database_code_CSD UJIHUS
_database_code_depnum_ccdc_archive 'CCDC 1437622'
_chemical_formula_sum 'C24 H25 N3 O2'
_chemical_formula_moiety
;
C24 H25 N3 O2
;
_journal_coden_Cambridge 1088
_journal_volume 27
_journal_year 2015
_journal_page_first 1397
_journal_name_full 'Synlett '
loop_
_publ_author_name
"Yin Xu"
"Fukai Wang"
"Jiling Li"
"Xusheng Shao"
"Xiaoyong Xu"
"Zhong Li"
_chemical_name_systematic
;
4-(3,5-dimethylbenzyl)-N-(3-(3,5-dimethylphenyl)prop-2-yn-1-yl)-3-nitro-1H-pyr
rol-2-amine
;
_cell_volume   1014.789
_exptl_crystal_colour 'yellow'
_exptl_crystal_density_diffrn 1.268
_exptl_crystal_description 'block'
_diffrn_ambient_temperature 130
#These two values have been output from a single CSD field.
_refine_ls_R_factor_gt 0.0682
_refine_ls_wR_factor_gt 0.0682
_symmetry_cell_setting triclinic
_symmetry_space_group_name_H-M 'P -1'
_symmetry_Int_Tables_number 2
loop_
_symmetry_equiv_pos_site_id
_symmetry_equiv_pos_as_xyz
1 x,y,z
2 -x,-y,-z
_cell_length_a 7.1591(17)
_cell_length_b 10.085(2)
_cell_length_c 14.807(4)
_cell_angle_alpha 91.497(4)
_cell_angle_beta 98.577(4)
_cell_angle_gamma 105.775(4)
_cell_formula_units_Z 2
loop_
_atom_type_symbol
_atom_type_radius_bond
C 0.68
H 0.23
N 0.68
O 0.68
loop_
_atom_site_label
_atom_site_type_symbol
_atom_site_fract_x
_atom_site_fract_y
_atom_site_fract_z
O1 O 0.4792(3) 1.14227(17) 0.87045(13)
O2 O 0.5139(3) 0.93921(17) 0.90307(13)
N1 N -0.1002(3) 0.9721(2) 0.88130(16)
H1 H -0.219(4) 0.995(3) 0.880(2)
N2 N 0.1167(3) 1.1850(2) 0.85485(15)
H2 H 0.24010 1.23340 0.85770
N3 N 0.4067(3) 1.0188(2) 0.88847(15)
C1 C 0.0792(4) 1.0528(2) 0.87398(17)
C2 C 0.2103(4) 0.9717(2) 0.89175(17)
C3 C 0.1016(4) 0.8351(2) 0.91233(18)
C4 C -0.0860(4) 0.8410(2) 0.90505(18)
H3 H -0.19370 0.76660 0.91470
C5 C 0.1787(4) 0.7161(2) 0.93953(18)
H4 H 0.07480 0.64730 0.96410
H5 H 0.29140 0.74950 0.98990
C6 C 0.2446(4) 0.6439(2) 0.86467(18)
C7 C 0.1463(4) 0.6234(2) 0.77515(18)
H6 H 0.03950 0.66180 0.75880
C8 C 0.2007(4) 0.5478(2) 0.70866(19)
C9 C 0.3597(4) 0.4947(3) 0.7340(2)
H7 H 0.39680 0.44140 0.68970
C10 C 0.4652(4) 0.5173(2) 0.8217(2)
C11 C 0.4047(4) 0.5902(2) 0.88670(19)
H8 H 0.47370 0.60390 0.94770
C12 C 0.6431(4) 0.4646(3) 0.8444(2)
H9 H 0.61830 0.37390 0.81210
H10 H 0.66970 0.45630 0.91050
H11 H 0.75700 0.52940 0.82530
C13 C 0.0926(4) 0.5273(3) 0.6126(2)
H12 H 0.13000 0.61340 0.58200
H13 H -0.04940 0.50100 0.61330
H14 H 0.12630 0.45400 0.57930
C14 C -0.0367(4) 1.2531(3) 0.82949(18)
H15 H 0.02160 1.35420 0.84110
H16 H -0.13760 1.22420 0.86950
C15 C -0.1327(4) 1.2236(2) 0.7341(2)
C16 C -0.2083(4) 1.2050(3) 0.6555(2)
C17 C -0.2965(4) 1.1867(3) 0.56072(19)
C18 C -0.4471(4) 1.2469(3) 0.5294(2)
H17 H -0.49030 1.30080 0.57110
C19 C -0.5333(4) 1.2282(3) 0.4378(2)
C20 C -0.4668(4) 1.1504(3) 0.3790(2)
H18 H -0.52430 1.13820 0.31620
C21 C -0.3180(4) 1.0889(3) 0.4083(2)
C22 C -0.2341(4) 1.1081(3) 0.49948(19)
H19 H -0.13240 1.06700 0.52060
C23 C -0.2507(5) 1.0042(3) 0.3424(2)
H20 H -0.16910 1.06530 0.30430
H21 H -0.36530 0.94210 0.30330
H22 H -0.17350 0.94950 0.37640
C24 C -0.6972(5) 1.2904(4) 0.4043(3)
H23 H -0.71840 1.28650 0.33720
H24 H -0.66190 1.38690 0.42860
H25 H -0.81800 1.23850 0.42520
#END
