
#######################################################################
#
#                 Cambridge Crystallographic Data Centre
#                                CCDC
#
#######################################################################
#
# If this CIF has been generated from an entry in the Cambridge
# Structural Database, then it will include bibliographic, chemical,
# crystal, experimental, refinement or atomic coordinate data resulting
# from the CCDC's data processing and validation procedures.
#
#######################################################################

data_CSD_CIF_UJIHOM
_audit_creation_date 2016-03-24
_audit_creation_method CSD-ConQuest-V1
_database_code_CSD UJIHOM
_database_code_depnum_ccdc_archive 'CCDC 1437621'
_chemical_formula_sum 'C24 H23 N3 O1'
_chemical_formula_moiety
;
C24 H23 N3 O1
;
_journal_coden_Cambridge 1088
_journal_volume 27
_journal_year 2015
_journal_page_first 1397
_journal_name_full 'Synlett '
loop_
_publ_author_name
"Yin Xu"
"Fukai Wang"
"Jiling Li"
"Xusheng Shao"
"Xiaoyong Xu"
"Zhong Li"
_chemical_name_systematic
;
6-(3,5-dimethylbenzyl)-3-(3,5-dimethylphenyl)-4H-imidazo[1',2':1,2]pyrrolo[3,4
-c][1,2]oxazole
;
_chemical_melting_point 471
_cell_volume   3857.847
_exptl_crystal_colour 'greyish white'
_exptl_crystal_density_diffrn 1.272
_exptl_special_details
;
Melting point range 471-471.7K

;
_exptl_crystal_description 'prismatic'
_diffrn_ambient_temperature 293
#These two values have been output from a single CSD field.
_refine_ls_R_factor_gt 0.0464
_refine_ls_wR_factor_gt 0.0464
_symmetry_cell_setting monoclinic
_symmetry_space_group_name_H-M 'C 2/c'
_symmetry_Int_Tables_number 15
loop_
_symmetry_equiv_pos_site_id
_symmetry_equiv_pos_as_xyz
1 x,y,z
2 -x,y,1/2-z
3 1/2+x,1/2+y,z
4 1/2-x,1/2+y,1/2-z
5 -x,-y,-z
6 x,-y,-1/2+z
7 -1/2-x,-1/2-y,-z
8 -1/2+x,-1/2-y,-1/2+z
_cell_length_a 34.037(6)
_cell_length_b 8.0572(13)
_cell_length_c 14.117(2)
_cell_angle_alpha 90
_cell_angle_beta 94.811(4)
_cell_angle_gamma 90
_cell_formula_units_Z 8
loop_
_atom_type_symbol
_atom_type_radius_bond
C 0.68
H 0.23
N 0.68
O 0.68
loop_
_atom_site_label
_atom_site_type_symbol
_atom_site_fract_x
_atom_site_fract_y
_atom_site_fract_z
N1 N 0.07206(5) 0.0155(2) 0.35037(11)
N2 N 0.12354(4) 0.07651(17) 0.57603(9)
N3 N 0.15933(5) -0.06738(19) 0.48063(11)
O1 O 0.03437(4) 0.08925(17) 0.35376(8)
C1 C 0.03089(5) 0.1566(2) 0.44153(12)
C2 C 0.08868(5) 0.0415(2) 0.43559(12)
C3 C 0.06480(5) 0.1289(2) 0.49488(11)
C4 C 0.08608(5) 0.1567(2) 0.59122(11)
H1 H 0.08940 0.27380 0.60560
H2 H 0.07280 0.10290 0.64120
C5 C 0.12571(5) 0.0063(2) 0.48880(12)
C6 C 0.17936(6) -0.0425(2) 0.56753(14)
H3 H 0.20480 -0.08120 0.58350
C7 C 0.15819(5) 0.0451(2) 0.62834(12)
C8 C 0.16779(6) 0.1055(2) 0.72640(12)
H4 H 0.18820 0.03540 0.75720
H5 H 0.14460 0.09480 0.76140
C9 C 0.18167(5) 0.2841(2) 0.73193(11)
C10 C 0.17377(5) 0.3820(2) 0.80786(12)
H6 H 0.15890 0.33900 0.85460
C11 C 0.18748(6) 0.5431(2) 0.81586(13)
C12 C 0.20967(6) 0.6039(2) 0.74638(14)
H7 H 0.21910 0.71220 0.75140
C13 C 0.21829(5) 0.5090(2) 0.66979(13)
C14 C 0.20379(5) 0.3495(2) 0.66368(12)
H8 H 0.20910 0.28400 0.61200
C15 C 0.17711(9) 0.6514(3) 0.89686(17)
H9 H 0.19940 0.71840 0.91800
H10 H 0.16990 0.58290 0.94830
H11 H 0.15530 0.72180 0.87590
C16 C 0.24179(7) 0.5777(3) 0.59373(16)
H12 H 0.22420 0.61360 0.54090
H13 H 0.25900 0.49330 0.57300
H14 H 0.25720 0.67030 0.61850
C17 C -0.00615(5) 0.2343(2) 0.45829(12)
C18 C -0.03694(6) 0.2467(2) 0.38751(13)
H15 H -0.03370 0.20600 0.32700
C19 C -0.07223(6) 0.3187(2) 0.40588(14)
C20 C -0.07596(6) 0.3778(3) 0.49638(16)
H16 H -0.09970 0.42680 0.50930
C21 C -0.04624(6) 0.3676(3) 0.56834(15)
C22 C -0.01128(6) 0.2955(3) 0.54758(13)
H17 H 0.00930 0.28790 0.59490
C23 C -0.10612(6) 0.3299(3) 0.33161(15)
H18 H -0.12960 0.29030 0.35730
H19 H -0.10070 0.26320 0.27780
H20 H -0.10980 0.44330 0.31200
C24 C -0.05188(8) 0.4287(4) 0.66670(17)
H21 H -0.04350 0.34470 0.71220
H22 H -0.07930 0.45310 0.67150
H23 H -0.03650 0.52750 0.67930
#END
