
#######################################################################
#
#                 Cambridge Crystallographic Data Centre
#                                CCDC
#
#######################################################################
#
# If this CIF has been generated from an entry in the Cambridge
# Structural Database, then it will include bibliographic, chemical,
# crystal, experimental, refinement or atomic coordinate data resulting
# from the CCDC's data processing and validation procedures.
#
#######################################################################

data_CSD_CIF_UJIKOP
_audit_creation_date 2016-03-24
_audit_creation_method CSD-ConQuest-V1
_database_code_CSD UJIKOP
_database_code_depnum_ccdc_archive 'CCDC 1444651'
_chemical_formula_sum 'C16 H17 N3 O3'
_chemical_formula_moiety
;
C16 H17 N3 O3
;
_journal_coden_Cambridge 1336
_journal_volume 18
_journal_year 2016
_journal_page_first 1318
_journal_name_full 'Org.Lett. '
loop_
_publ_author_name
"Lin-Bao Zhang"
"Shou-Kun Zhang"
"Donghui Wei"
"Xinju Zhu"
"Xin-Qi Hao"
"Jian-Hang Su"
"Jun-Long Niu"
"Mao-Ping Song"
_chemical_name_systematic
;
2-(Morpholin-4-yl)-N-(1-oxidopyridin-2-yl)benzamide
;
_cell_volume   1440.341
_exptl_crystal_density_diffrn 1.38
_exptl_crystal_description 'prismatic'
_diffrn_ambient_temperature 291.1
#These two values have been output from a single CSD field.
_refine_ls_R_factor_gt 0.0417
_refine_ls_wR_factor_gt 0.0417
_symmetry_cell_setting triclinic
_symmetry_space_group_name_H-M 'P -1'
_symmetry_Int_Tables_number 2
loop_
_symmetry_equiv_pos_site_id
_symmetry_equiv_pos_as_xyz
1 x,y,z
2 -x,-y,-z
_cell_length_a 8.6512(6)
_cell_length_b 13.1178(7)
_cell_length_c 13.2085(9)
_cell_angle_alpha 94.755(5)
_cell_angle_beta 97.921(6)
_cell_angle_gamma 102.375(5)
_cell_formula_units_Z 4
loop_
_atom_type_symbol
_atom_type_radius_bond
C 0.68
H 0.23
N 0.68
O 0.68
loop_
_atom_site_label
_atom_site_type_symbol
_atom_site_fract_x
_atom_site_fract_y
_atom_site_fract_z
C1 C 0.82669(19) 0.45962(12) 0.30269(12)
C2 C 0.8984(2) 0.37475(14) 0.31004(15)
H1 H 0.94270 0.35140 0.25480
C3 C 0.9051(3) 0.32424(16) 0.39795(16)
H2 H 0.95290 0.26720 0.40110
C4 C 0.8411(2) 0.35837(16) 0.48066(15)
H3 H 0.84590 0.32480 0.54000
C5 C 0.7699(2) 0.44244(15) 0.47514(14)
H4 H 0.72780 0.46570 0.53150
C6 C 0.7594(2) 0.49353(13) 0.38698(13)
C7 C 0.6708(2) 0.58024(14) 0.39154(12)
C8 C 0.51061(19) 0.67680(13) 0.28458(12)
C9 C 0.4611(2) 0.73841(14) 0.35799(13)
H5 H 0.48630 0.73120 0.42740
C10 C 0.3744(2) 0.81048(15) 0.32824(15)
H6 H 0.34150 0.85240 0.37750
C11 C 0.3364(2) 0.82035(15) 0.22537(15)
H7 H 0.27870 0.86930 0.20480
C12 C 0.3841(2) 0.75775(15) 0.15398(14)
H8 H 0.35740 0.76390 0.08450
C13 C 0.9417(2) 0.61291(13) 0.22465(13)
H9 H 1.04860 0.59970 0.23120
H10 H 0.93430 0.65530 0.28670
C14 C 0.9130(2) 0.67141(13) 0.13243(14)
H11 H 0.80960 0.68950 0.12960
H12 H 0.99470 0.73620 0.14000
C15 C 0.8322(2) 0.45117(13) 0.11667(13)
H13 H 0.75360 0.38480 0.10700
H14 H 0.93790 0.43650 0.12000
C16 C 0.8010(2) 0.51310(14) 0.02812(13)
H15 H 0.80460 0.47210 -0.03580
H16 H 0.69470 0.52670 0.02480
N1 N 0.60136(17) 0.60315(11) 0.30006(10)
H17 H 0.61560 0.56780 0.24570
N2 N 0.46952(16) 0.68678(12) 0.18236(10)
N3 N 0.82194(16) 0.51246(10) 0.21241(10)
O1 O 0.6591(2) 0.62516(13) 0.47336(10)
O2 O 0.51639(17) 0.62779(11) 0.11358(9)
O3 O 0.91641(16) 0.61023(10) 0.03905(10)
C17 C 0.1779(2) 1.00793(13) 0.73204(13)
C18 C 0.0740(2) 1.07446(16) 0.71615(16)
H18 H 0.01280 1.08690 0.76650
C19 C 0.0594(3) 1.12238(16) 0.62763(17)
H19 H -0.01140 1.16630 0.61850
C20 C 0.1500(3) 1.10529(15) 0.55227(17)
H20 H 0.14210 1.13860 0.49300
C21 C 0.2519(2) 1.03849(15) 0.56581(15)
H21 H 0.31150 1.02630 0.51450
C22 C 0.2680(2) 0.98841(13) 0.65468(13)
C23 C 0.3824(2) 0.91645(14) 0.65557(13)
C24 C 0.50077(19) 0.79626(13) 0.75639(12)
C25 C 0.5821(2) 0.75341(15) 0.68679(13)
H22 H 0.58120 0.77550 0.62170
C26 C 0.6640(2) 0.67834(16) 0.71375(14)
H23 H 0.71810 0.64930 0.66680
C27 C 0.6659(2) 0.64616(16) 0.81038(14)
H24 H 0.72120 0.59540 0.82910
C28 C 0.5859(2) 0.68921(15) 0.87871(14)
H25 H 0.58740 0.66770 0.94410
C29 C 0.2471(2) 1.03922(14) 0.91844(13)
H26 H 0.16880 1.08150 0.92420
H27 H 0.34800 1.08540 0.91170
C30 C 0.2684(2) 0.98405(14) 1.01357(14)
H28 H 0.35130 0.94520 1.00900
H29 H 0.30340 1.03600 1.07360
C31 C 0.0412(2) 0.88994(14) 0.84044(14)
H30 H 0.00420 0.83670 0.78160
H31 H -0.04030 0.92990 0.84520
C32 C 0.0677(2) 0.83814(15) 0.93724(15)
H32 H -0.03230 0.79220 0.94610
H33 H 0.14520 0.79540 0.93040
N4 N 0.40961(16) 0.86989(11) 0.74257(10)
H34 H 0.36580 0.88810 0.79370
N5 N 0.50442(16) 0.76286(11) 0.8521(1)
N6 N 0.19220(16) 0.96033(11) 0.82663(11)
O4 O 0.4454(2) 0.90128(13) 0.58087(11)
O5 O 0.42525(15) 0.80206(10) 0.91732(9)
O6 O 0.12421(15) 0.91374(10) 1.02586(9)
#END
