
#######################################################################
#
#                 Cambridge Crystallographic Data Centre
#                                CCDC
#
#######################################################################
#
# If this CIF has been generated from an entry in the Cambridge
# Structural Database, then it will include bibliographic, chemical,
# crystal, experimental, refinement or atomic coordinate data resulting
# from the CCDC's data processing and validation procedures.
#
#######################################################################

data_CSD_CIF_UJIWEP
_audit_creation_date 2003-12-08
_audit_creation_method CSD-ConQuest-V1
_database_code_CSD UJIWEP
_database_code_depnum_ccdc_archive 'CCDC 201303'
_chemical_formula_sum 'C27 H47 N1 O3'
_chemical_formula_moiety
;
C27 H47 N1 O3
;
_journal_coden_Cambridge 179
_journal_volume 42
_journal_year 2003
_journal_page_first 2265
_journal_name_full 'Angew.Chem.,Int.Ed. '
loop_
_publ_author_name
"G.Masson"
"P.Cividino"
"S.Py"
"Y.Vallee"
_chemical_name_systematic
;
rac-4-(N-hydroxy-N-(1-(2,4,6-tri-isopropylphenyl)ethyl)amino)-6-methylheptanoi
c acid ethyl ester
;
_cell_volume   2870.976
_exptl_crystal_colour 'colorless'
_exptl_crystal_density_diffrn 1.003
_exptl_crystal_description 'prism'
_diffrn_ambient_temperature 293
#These two values have been output from a single CSD field.
_refine_ls_R_factor_gt 0.0701
_refine_ls_wR_factor_gt 0.0701
_symmetry_cell_setting orthorhombic
_symmetry_space_group_name_H-M 'P c a 21'
_symmetry_Int_Tables_number 29
loop_
_symmetry_equiv_pos_site_id
_symmetry_equiv_pos_as_xyz
1 x,y,z
2 -x,-y,1/2+z
3 1/2-x,y,1/2+z
4 1/2+x,-y,z
_cell_length_a 11.4084(9)
_cell_length_b 13.9228(4)
_cell_length_c 18.075(1)
_cell_angle_alpha 90
_cell_angle_beta 90
_cell_angle_gamma 90
_cell_formula_units_Z 4
loop_
_atom_type_symbol
_atom_type_radius_bond
C 0.68
H 0.23
N 0.68
O 0.68
loop_
_atom_site_label
_atom_site_type_symbol
_atom_site_fract_x
_atom_site_fract_y
_atom_site_fract_z
O1 O 0.0371(2) 0.3011(1) 0.3192(1)
O2 O -0.2742(2) 0.5528(2) 0.3265(2)
O3 O -0.1155(2) 0.6310(2) 0.2871(2)
N1 N -0.0727(2) 0.3340(2) 0.2840(2)
C1 C -0.1066(4) 0.7784(3) 0.2234(3)
C2 C -0.1829(3) 0.6959(3) 0.2431(3)
C3 C -0.1688(3) 0.5634(2) 0.3263(2)
C4 C -0.0834(3) 0.5055(2) 0.3696(2)
C5 C -0.1280(3) 0.4116(2) 0.4009(2)
C6 C -0.1612(3) 0.3350(2) 0.3442(2)
C7 C -0.1818(3) 0.2369(2) 0.3811(2)
C8 C -0.2738(4) 0.2329(3) 0.4426(2)
C9 C -0.3918(4) 0.2610(5) 0.4148(4)
C10 C -0.2767(6) 0.1333(4) 0.4770(3)
C11 C -0.0954(3) 0.2620(2) 0.2251(2)
C12 C -0.2179(3) 0.2770(3) 0.1900(2)
C13 C 0.0015(3) 0.2616(2) 0.1663(2)
C14 C 0.0318(3) 0.3447(2) 0.1258(2)
C15 C 0.1167(3) 0.3380(2) 0.0703(2)
C16 C 0.1716(3) 0.2540(2) 0.0524(2)
C17 C 0.1391(3) 0.1718(2) 0.0917(2)
C18 C 0.0566(3) 0.1736(2) 0.1483(2)
C19 C 0.0289(4) 0.0783(2) 0.1882(3)
C20 C 0.031(1) -0.0060(5) 0.1283(5)
C21 C 0.1085(8) 0.0491(6) 0.2413(5)
C22 C 0.2604(4) 0.2485(3) -0.0112(3)
C23 C 0.2297(6) 0.1771(5) -0.0685(3)
C24 C 0.3822(5) 0.2319(5) 0.0162(3)
C25 C -0.0229(3) 0.4436(2) 0.1378(2)
C26 C 0.0691(3) 0.5198(3) 0.1550(3)
C27 C -0.0980(3) 0.4740(3) 0.0710(2)
H1 H 0.06310 0.37070 0.31020
H2 H -0.14990 0.82290 0.19440
H3 H -0.08010 0.80900 0.26730
H4 H -0.04120 0.75600 0.19580
H5 H -0.20900 0.66440 0.19940
H6 H -0.24880 0.71780 0.27050
H7 H -0.01900 0.49130 0.33810
H8 H -0.05740 0.54380 0.40990
H9 H -0.19550 0.42510 0.42980
H10 H -0.06830 0.38570 0.43170
H11 H -0.23350 0.35410 0.32270
H12 H -0.20520 0.19310 0.34360
H13 H -0.10930 0.21660 0.40170
H14 H -0.25160 0.27730 0.47990
H15 H -0.41450 0.21900 0.37590
H16 H -0.38920 0.32510 0.39680
H17 H -0.44720 0.25680 0.45390
H18 H -0.29440 0.08710 0.44000
H19 H -0.20240 0.11920 0.49820
H20 H -0.33510 0.13130 0.51450
H21 H -0.09550 0.20050 0.24790
H22 H -0.23190 0.22820 0.15440
H23 H -0.27610 0.27400 0.22750
H24 H -0.22070 0.33810 0.16660
H25 H 0.13720 0.39450 0.04380
H26 H 0.17490 0.11240 0.07920
H27 H -0.04690 0.08220 0.20970
H28 H -0.02610 0.00680 0.09110
H29 H 0.01290 -0.06530 0.15170
H30 H 0.10620 -0.00960 0.10630
H31 H 0.18510 0.04850 0.22070
H32 H 0.10630 0.09230 0.28200
H33 H 0.08880 -0.01360 0.25780
H34 H 0.26020 0.30960 -0.03460
H35 H 0.15510 0.19210 -0.08870
H36 H 0.22740 0.11480 -0.04700
H37 H 0.28700 0.17830 -0.10660
H38 H 0.43440 0.22830 -0.02470
H39 H 0.40490 0.28350 0.04750
H40 H 0.38500 0.17350 0.04320
H41 H -0.07340 0.43910 0.17950
H42 H 0.12120 0.52570 0.11420
H43 H 0.03160 0.57970 0.16360
H44 H 0.11200 0.50150 0.19780
H45 H -0.15810 0.42800 0.06320
H46 H -0.04990 0.47790 0.02820
H47 H -0.13220 0.53500 0.08050
#END
