
#######################################################################
#
#                 Cambridge Crystallographic Data Centre
#                                CCDC
#
#######################################################################
#
# If this CIF has been generated from an entry in the Cambridge
# Structural Database, then it will include bibliographic, chemical,
# crystal, experimental, refinement or atomic coordinate data resulting
# from the CCDC's data processing and validation procedures.
#
#######################################################################

data_CSD_CIF_UJOKUA
_audit_creation_date 2011-03-21
_audit_creation_method CSD-ConQuest-V1
_database_code_CSD UJOKUA
_database_code_depnum_ccdc_archive 'CCDC 673357'
_chemical_formula_sum 'C13 H16 N2 O3'
_chemical_formula_moiety
;
C13 H16 N2 O3
;
_journal_coden_Cambridge 1003
_journal_volume 40
_journal_year 2010
_journal_page_first 924
_journal_name_full 'J.Chem.Cryst. '
loop_
_publ_author_name
"A.Saeed"
"S.Hussain"
"M.Bolte"
_chemical_name_systematic
;
N-Cyclohexyl-2-nitrobenzamide
;
_cell_volume   2541.251
_exptl_crystal_colour 'colorless'
_exptl_crystal_density_diffrn 1.298
_exptl_crystal_description 'needle'
_diffrn_ambient_temperature 173
#These two values have been output from a single CSD field.
_refine_ls_R_factor_gt 0.038
_refine_ls_wR_factor_gt 0.038
_symmetry_cell_setting monoclinic
_symmetry_space_group_name_H-M 'P 21/n'
_symmetry_Int_Tables_number 14
loop_
_symmetry_equiv_pos_site_id
_symmetry_equiv_pos_as_xyz
1 x,y,z
2 1/2-x,1/2+y,1/2-z
3 -x,-y,-z
4 -1/2+x,-1/2-y,-1/2+z
_cell_length_a 13.9913(10)
_cell_length_b 8.8475(4)
_cell_length_c 20.5627(15)
_cell_angle_alpha 90
_cell_angle_beta 93.278(6)
_cell_angle_gamma 90
_cell_formula_units_Z 8
loop_
_atom_type_symbol
_atom_type_radius_bond
C 0.68
H 0.23
N 0.68
O 0.68
loop_
_atom_site_label
_atom_site_type_symbol
_atom_site_fract_x
_atom_site_fract_y
_atom_site_fract_z
C1 C 0.22936(9) 0.46898(16) 0.21603(6)
N1 N 0.24390(9) 0.39513(15) 0.27197(6)
H1 H 0.2209(12) 0.308(2) 0.2744(9)
N2 N 0.24494(8) 0.44146(15) 0.07487(6)
O1 O 0.27521(7) 0.58216(11) 0.20068(5)
O2 O 0.24712(8) 0.53105(14) 0.02932(5)
O3 O 0.31410(7) 0.36938(14) 0.09704(5)
C2 C 0.14706(9) 0.41537(15) 0.17120(6)
C3 C 0.15194(9) 0.41553(16) 0.10353(7)
C4 C 0.07408(10) 0.38758(17) 0.06089(7)
H2 H 0.08060 0.38790 0.01510
C5 C -0.01373(10) 0.35902(18) 0.08639(7)
H3 H -0.06850 0.34030 0.05800
C6 C -0.02159(10) 0.35775(18) 0.15319(7)
H4 H -0.08190 0.33790 0.17040
C7 C 0.05782(10) 0.38527(17) 0.19530(7)
H5 H 0.05120 0.38360 0.24100
C8 C 0.31874(10) 0.43879(17) 0.32162(7)
H6 H 0.32790 0.55070 0.31920
C9 C 0.28573(11) 0.40022(19) 0.38917(7)
H7 H 0.26940 0.29150 0.39090
H8 H 0.22730 0.45890 0.39730
C10 C 0.36359(12) 0.4360(2) 0.44225(7)
H9 H 0.37370 0.54670 0.44440
H10 H 0.34230 0.40210 0.48500
C11 C 0.45765(11) 0.3583(2) 0.42880(8)
H11 H 0.44920 0.24730 0.43090
H12 H 0.50730 0.38750 0.46270
C12 C 0.49056(11) 0.4020(2) 0.36186(8)
H13 H 0.55050 0.34760 0.35350
H14 H 0.50400 0.51190 0.36090
C13 C 0.41353(10) 0.36272(19) 0.30872(7)
H15 H 0.43480 0.39590 0.26590
H16 H 0.40450 0.25180 0.30710
C14 C 0.74126(10) 0.72746(16) 0.22052(7)
N3 N 0.75580(9) 0.65279(15) 0.27660(6)
H17 H 0.7326(12) 0.569(2) 0.2787(8)
N4 N 0.76212(8) 0.69950(15) 0.08072(6)
O4 O 0.78652(7) 0.84127(11) 0.20581(5)
O5 O 0.76640(8) 0.78787(14) 0.03486(5)
O6 O 0.83007(7) 0.62561(14) 0.10400(5)
C15 C 0.66069(9) 0.67165(16) 0.17503(7)
C16 C 0.6681(1) 0.67499(16) 0.10748(7)
C17 C 0.59154(10) 0.64839(18) 0.06357(7)
H18 H 0.59910 0.65320 0.01800
C18 C 0.50351(10) 0.61459(19) 0.08742(8)
H19 H 0.44970 0.59730 0.05810
C19 C 0.49375(10) 0.60588(18) 0.15414(8)
H20 H 0.43360 0.58030 0.17030
C20 C 0.57152(10) 0.63445(18) 0.19738(7)
H21 H 0.56380 0.62850 0.24290
C21 C 0.83595(10) 0.69012(18) 0.32302(7)
H22 H 0.84710 0.80170 0.32140
C22 C 0.81111(13) 0.6483(2) 0.39212(8)
H23 H 0.79300 0.54020 0.39350
H24 H 0.75560 0.70900 0.40460
C23 C 0.89638(15) 0.6773(2) 0.44063(8)
H25 H 0.90890 0.78740 0.44330
H26 H 0.88030 0.64200 0.48440
C24 C 0.98591(14) 0.5971(2) 0.42082(9)
H27 H 0.97590 0.48640 0.42250
H28 H 1.04010 0.62270 0.45190
C25 C 1.01055(12) 0.6426(2) 0.35215(9)
H29 H 1.02630 0.75170 0.35130
H30 H 1.06750 0.58550 0.33960
C26 C 0.92655(11) 0.6104(2) 0.30349(8)
H31 H 0.94260 0.64510 0.25970
H32 H 0.91500 0.50010 0.30130
#END
