
#######################################################################
#
#                 Cambridge Crystallographic Data Centre
#                                CCDC
#
#######################################################################
#
# If this CIF has been generated from an entry in the Cambridge
# Structural Database, then it will include bibliographic, chemical,
# crystal, experimental, refinement or atomic coordinate data resulting
# from the CCDC's data processing and validation procedures.
#
#######################################################################

data_CSD_CIF_UJUKUF
_audit_creation_date 2003-12-08
_audit_creation_method CSD-ConQuest-V1
_database_code_CSD UJUKUF
_database_code_depnum_ccdc_archive 'CCDC 203664'
_chemical_formula_sum 'C8 H8 N2 O2'
_chemical_formula_moiety
;
C8 H8 N2 O2
;
_journal_coden_Cambridge 440
_journal_volume 27
_journal_year 2003
_journal_page_first 1084
_journal_name_full 'New J.Chem. '
loop_
_publ_author_name
"E.A.Bruton"
"L.Brammer"
"F.C.Pigge"
"C.B.Aakeroy"
"D.S.Leinen"
_chemical_name_systematic
;
(E,E)-Terephthaldehyde dioxime
;
_chemical_name_common
;
(E,E)-Terephthalaldoxime
;
_chemical_melting_point 492
_cell_volume    771.030
_exptl_crystal_colour 'colorless'
_exptl_crystal_density_diffrn 1.414
_exptl_special_details
;
Melting point range 492-493K

;
_exptl_crystal_description 'needle'
_exptl_crystal_preparation 'methanol'
_diffrn_ambient_temperature 173
#These two values have been output from a single CSD field.
_refine_ls_R_factor_gt 0.0443
_refine_ls_wR_factor_gt 0.0443
_symmetry_cell_setting monoclinic
_symmetry_space_group_name_H-M 'C 2/c'
_symmetry_Int_Tables_number 15
loop_
_symmetry_equiv_pos_site_id
_symmetry_equiv_pos_as_xyz
1 x,y,z
2 1/2+x,1/2+y,z
3 x,-y,1/2+z
4 1/2+x,1/2-y,1/2+z
5 -x,-y,-z
6 -1/2-x,-1/2-y,-z
7 -x,y,-1/2-z
8 -1/2-x,-1/2+y,-1/2-z
_cell_length_a 13.6142(8)
_cell_length_b 4.5032(3)
_cell_length_c 13.1697(8)
_cell_angle_alpha 90
_cell_angle_beta 107.263(4)
_cell_angle_gamma 90
_cell_formula_units_Z 4
loop_
_atom_type_symbol
_atom_type_radius_bond
C 0.68
H 0.23
N 0.68
O 0.68
loop_
_atom_site_label
_atom_site_type_symbol
_atom_site_fract_x
_atom_site_fract_y
_atom_site_fract_z
O1 O 0.27326(9) 0.2438(3) 0.15499(10)
N1 N 0.19903(11) 0.4653(3) 0.15030(11)
C1 C 0.04855(14) 0.9062(4) -0.07278(14)
C2 C 0.07954(13) 0.7881(4) 0.02996(13)
C3 C 0.02937(13) 0.8856(4) 0.10258(13)
C4 C 0.16054(13) 0.5627(4) 0.05576(13)
H1 H 0.283(2) 0.158(7) 0.225(3)
H2 H 0.0829(15) 0.846(4) -0.1238(16)
H3 H 0.0460(15) 0.806(4) 0.1753(17)
H4 H 0.1833(14) 0.480(4) -0.0029(15)
C3D C -0.02937(13) 1.1144(4) -0.10258(13)
C2D C -0.07954(13) 1.2119(4) -0.02996(13)
C1D C -0.04855(14) 1.0938(4) 0.07278(14)
H2D H -0.0829(15) 1.154(4) 0.1238(16)
C4D C -0.16054(13) 1.4373(4) -0.05576(13)
N1D N -0.19903(11) 1.5347(3) -0.15030(11)
O1D O -0.27326(9) 1.7562(3) -0.15499(10)
H1D H -0.283(2) 1.842(7) -0.225(3)
H4D H -0.1833(14) 1.520(4) 0.0029(15)
H3D H -0.0460(15) 1.194(4) -0.1753(17)
#END
