
#######################################################################
#
#                 Cambridge Crystallographic Data Centre
#                                CCDC
#
#######################################################################
#
# If this CIF has been generated from an entry in the Cambridge
# Structural Database, then it will include bibliographic, chemical,
# crystal, experimental, refinement or atomic coordinate data resulting
# from the CCDC's data processing and validation procedures.
#
#######################################################################

data_CSD_CIF_UJUKOZ
_audit_creation_date 2003-12-08
_audit_creation_method CSD-ConQuest-V1
_database_code_CSD UJUKOZ
_database_code_depnum_ccdc_archive 'CCDC 203663'
_chemical_formula_sum 'C8 H10 N4 O2'
_chemical_formula_moiety
;
C8 H10 N4 O2
;
_journal_coden_Cambridge 440
_journal_volume 27
_journal_year 2003
_journal_page_first 1084
_journal_name_full 'New J.Chem. '
loop_
_publ_author_name
"E.A.Bruton"
"L.Brammer"
"F.C.Pigge"
"C.B.Aakeroy"
"D.S.Leinen"
_chemical_name_systematic
;
Benzene-1,3-dicarboxamide dioxime
;
_chemical_melting_point 453.15
_cell_volume   1850.774
_exptl_crystal_colour 'colorless'
_exptl_crystal_density_diffrn 1.394
_exptl_special_details
;
Melting point range 453.15-454.15K

;
_exptl_crystal_description 'plate'
_exptl_crystal_preparation 'nitromethane'
_diffrn_ambient_temperature 123
#These two values have been output from a single CSD field.
_refine_ls_R_factor_gt 0.0475
_refine_ls_wR_factor_gt 0.0475
_symmetry_cell_setting monoclinic
_symmetry_space_group_name_H-M 'C 2/c'
_symmetry_Int_Tables_number 15
loop_
_symmetry_equiv_pos_site_id
_symmetry_equiv_pos_as_xyz
1 x,y,z
2 1/2+x,1/2+y,z
3 x,-y,1/2+z
4 1/2+x,1/2-y,1/2+z
5 -x,-y,-z
6 -1/2-x,-1/2-y,-z
7 -x,y,-1/2-z
8 -1/2-x,-1/2+y,-1/2-z
_cell_length_a 13.1956(15)
_cell_length_b 12.1099(17)
_cell_length_c 11.8156(17)
_cell_angle_alpha 90
_cell_angle_beta 101.412(8)
_cell_angle_gamma 90
_cell_formula_units_Z 8
loop_
_atom_type_symbol
_atom_type_radius_bond
C 0.68
H 0.23
N 0.68
O 0.68
loop_
_atom_site_label
_atom_site_type_symbol
_atom_site_fract_x
_atom_site_fract_y
_atom_site_fract_z
O1 O 0.92571(10) 0.52481(13) 0.36165(13)
H1 H 0.961(2) 0.591(2) 0.359(3)
N1 N 0.86217(11) 0.51381(13) 0.25068(15)
C1 C 0.73592(14) 0.39673(15) 0.13843(19)
O2 O 0.34595(9) 0.18721(11) 0.10705(13)
H2 H 0.3515(17) 0.124(2) 0.157(2)
C2 C 0.63674(14) 0.35828(15) 0.1429(2)
H3 H 0.6158(15) 0.3509(16) 0.218(2)
N2 N 0.81485(16) 0.35464(16) 0.33708(19)
H4 H 0.8582(17) 0.3678(19) 0.403(2)
H5 H 0.7798(19) 0.291(2) 0.334(2)
N3 N 0.45220(11) 0.21124(13) 0.10624(15)
C3 C 0.56632(14) 0.33599(15) 0.04117(19)
C4 C 0.59529(16) 0.34931(16) -0.0646(2)
H6 H 0.5467(15) 0.3340(16) -0.1333(19)
N4 N 0.37945(14) 0.35975(15) -0.01028(18)
H7 H 0.3147(17) 0.3478(17) 0.004(2)
H8 H 0.3928(15) 0.4266(19) -0.0310(19)
C5 C 0.69488(16) 0.38464(17) -0.0687(2)
H9 H 0.7135(16) 0.3923(19) -0.145(2)
C6 C 0.76458(16) 0.40829(15) 0.0319(2)
H10 H 0.8340(15) 0.4315(16) 0.0300(19)
C7 C 0.80888(14) 0.42338(16) 0.24713(19)
C8 C 0.45984(14) 0.29945(15) 0.04805(19)
#END
