
#######################################################################
#
#                 Cambridge Crystallographic Data Centre
#                                CCDC
#
#######################################################################
#
# If this CIF has been generated from an entry in the Cambridge
# Structural Database, then it will include bibliographic, chemical,
# crystal, experimental, refinement or atomic coordinate data resulting
# from the CCDC's data processing and validation procedures.
#
#######################################################################

data_CSD_CIF_UJUKIT
_audit_creation_date 2003-12-08
_audit_creation_method CSD-ConQuest-V1
_database_code_CSD UJUKIT
_database_code_depnum_ccdc_archive 'CCDC 203662'
_chemical_formula_sum 'C10 H12 N2 O2'
_chemical_formula_moiety
;
C10 H12 N2 O2
;
_journal_coden_Cambridge 440
_journal_volume 27
_journal_year 2003
_journal_page_first 1084
_journal_name_full 'New J.Chem. '
loop_
_publ_author_name
"E.A.Bruton"
"L.Brammer"
"F.C.Pigge"
"C.B.Aakeroy"
"D.S.Leinen"
_chemical_name_systematic
;
1,3-Diacetylbenzene dioxime
;
_chemical_melting_point 479.15
_cell_volume    937.271
_exptl_crystal_colour 'colorless'
_exptl_crystal_density_diffrn 1.362
_exptl_special_details
;
Melting point range 479.15-481.15K

;
_exptl_crystal_description 'rectangle'
_exptl_crystal_preparation 'acetone'
_diffrn_ambient_temperature 148
#These two values have been output from a single CSD field.
_refine_ls_R_factor_gt 0.0614
_refine_ls_wR_factor_gt 0.0614
_symmetry_cell_setting monoclinic
_symmetry_space_group_name_H-M 'P 21/n'
_symmetry_Int_Tables_number 14
loop_
_symmetry_equiv_pos_site_id
_symmetry_equiv_pos_as_xyz
1 x,y,z
2 1/2+x,1/2-y,1/2+z
3 -x,-y,-z
4 -1/2-x,-1/2+y,-1/2-z
_cell_length_a 3.897(2)
_cell_length_b 14.757(9)
_cell_length_c 16.305(9)
_cell_angle_alpha 90
_cell_angle_beta 91.668(14)
_cell_angle_gamma 90
_cell_formula_units_Z 4
loop_
_atom_type_symbol
_atom_type_radius_bond
C 0.68
H 0.23
N 0.68
O 0.68
loop_
_atom_site_label
_atom_site_type_symbol
_atom_site_fract_x
_atom_site_fract_y
_atom_site_fract_z
O1 O 0.1185(5) 0.43342(9) 0.07626(10)
O2 O 0.8361(5) 0.95486(11) -0.08330(9)
N1 N 0.1924(5) 0.52713(11) 0.07555(11)
N2 N 0.7937(5) 0.91362(11) -0.00559(11)
C1 C 0.4467(5) 0.65219(13) 0.14153(12)
C2 C 0.5660(5) 0.79217(13) 0.06896(12)
C3 C 0.5940(6) 0.83736(14) 0.14437(13)
C4 C 0.6197(5) 0.83956(13) -0.00996(12)
C5 C 0.3620(5) 0.55398(13) 0.13960(12)
C6 C 0.4912(5) 0.69998(13) 0.06827(13)
C7 C 0.4830(6) 0.69772(14) 0.21599(13)
C8 C 0.4791(6) 0.79980(16) -0.08888(14)
C9 C 0.5533(6) 0.79016(15) 0.21675(14)
C10 C 0.4714(7) 0.49404(16) 0.20942(16)
H1 H 0.479(6) 0.6661(15) 0.0189(14)
H2 H 0.452(6) 0.6662(17) 0.2676(15)
H3 H 0.571(7) 0.8233(18) 0.2674(16)
H4 H 0.252(7) 0.7732(17) -0.0803(15)
H5 H 0.644(6) 0.8988(17) 0.1481(15)
H6 H 0.676(8) 0.514(2) 0.2338(18)
H7 H 0.627(8) 0.7538(19) -0.1094(18)
H8 H 0.456(8) 0.847(2) -0.1298(18)
H9 H 0.965(8) 1.008(2) -0.0643(19)
H10 H 0.469(8) 0.433(2) 0.1954(19)
H11 H 0.015(9) 0.430(2) 0.028(2)
H12 H 0.33(1) 0.501(3) 0.254(2)
#END
