
#######################################################################
#
#                 Cambridge Crystallographic Data Centre
#                                CCDC
#
#######################################################################
#
# If this CIF has been generated from an entry in the Cambridge
# Structural Database, then it will include bibliographic, chemical,
# crystal, experimental, refinement or atomic coordinate data resulting
# from the CCDC's data processing and validation procedures.
#
#######################################################################

data_CSD_CIF_UJUKOB
_audit_creation_date 2016-04-04
_audit_creation_method CSD-ConQuest-V1
_database_code_CSD UJUKOB
_database_code_depnum_ccdc_archive 'CCDC 1470135'
_chemical_formula_sum 'C14 H11 N3 O2'
_chemical_formula_moiety
;
C14 H11 N3 O2
;
_journal_coeditor_code "sj4014"
_journal_coden_Cambridge 1959
_journal_volume 1
_journal_year 2016
_journal_page_first x160485
_journal_name_full 'IUCrData '
loop_
_publ_author_name
"M.Boulhaoua"
"M.M.Abdelahi"
"M.Benchidmi"
"E.M.Essassi"
"J.T.Mague"
_chemical_name_systematic
;
1-Benzyl-5-nitro-1H-indazole
;
_cell_volume   2400.578
_exptl_crystal_colour 'colorless'
_exptl_crystal_density_diffrn 1.401
_exptl_crystal_description 'thick plate'
_diffrn_ambient_temperature 150
#These two values have been output from a single CSD field.
_refine_ls_R_factor_gt 0.0365
_refine_ls_wR_factor_gt 0.0365
_symmetry_cell_setting monoclinic
_symmetry_space_group_name_H-M 'P 21/n'
_symmetry_Int_Tables_number 14
loop_
_symmetry_equiv_pos_site_id
_symmetry_equiv_pos_as_xyz
1 x,y,z
2 1/2-x,1/2+y,1/2-z
3 -x,-y,-z
4 -1/2+x,-1/2-y,-1/2+z
_cell_length_a 14.0236(3)
_cell_length_b 6.9976(1)
_cell_length_c 25.3551(5)
_cell_angle_alpha 90
_cell_angle_beta 105.245(1)
_cell_angle_gamma 90
_cell_formula_units_Z 8
loop_
_atom_type_symbol
_atom_type_radius_bond
C 0.68
H 0.23
N 0.68
O 0.68
loop_
_atom_site_label
_atom_site_type_symbol
_atom_site_fract_x
_atom_site_fract_y
_atom_site_fract_z
O1 O 0.58982(9) 0.48868(18) 0.69442(5)
O2 O 0.74164(10) 0.54713(19) 0.73731(4)
N1 N 0.81889(8) 0.27863(14) 0.52227(4)
N2 N 0.91894(8) 0.29139(15) 0.54421(5)
N3 N 0.67906(10) 0.48846(17) 0.69708(5)
C1 C 0.93186(9) 0.33746(18) 0.59595(5)
H1 H 0.99460 0.35440 0.62130
C2 C 0.84003(9) 0.35852(17) 0.60908(5)
C3 C 0.81071(10) 0.41041(18) 0.65552(5)
H2 H 0.85750 0.43760 0.68920
C4 C 0.71084(10) 0.42037(18) 0.65016(5)
C5 C 0.63849(10) 0.37740(18) 0.60129(6)
H3 H 0.57040 0.38360 0.60030
C6 C 0.66655(9) 0.32670(18) 0.55531(5)
H4 H 0.61920 0.29750 0.52200
C7 C 0.76849(9) 0.31984(16) 0.55972(5)
C8 C 0.77899(10) 0.24803(18) 0.46378(5)
H5 H 0.71740 0.17210 0.45740
H6 H 0.82710 0.17410 0.44960
C9 C 0.75716(9) 0.43506(18) 0.43307(5)
C10 C 0.83424(9) 0.56089(18) 0.43277(5)
H7 H 0.90030 0.52610 0.45060
C11 C 0.81532(10) 0.73627(19) 0.40663(5)
H8 H 0.86820 0.82170 0.40710
C12 C 0.71933(11) 0.7866(2) 0.37989(6)
H9 H 0.70620 0.90630 0.36180
C13 C 0.64270(11) 0.6621(2) 0.37965(6)
H10 H 0.57680 0.69650 0.36120
C14 C 0.66151(10) 0.4867(2) 0.40624(6)
H11 H 0.60840 0.40210 0.40600
O3 O 0.96938(8) 0.32608(19) 0.92541(6)
O4 O 0.93680(8) 0.2992(2) 1.00357(5)
N4 N 0.51068(8) 0.37236(15) 0.85992(4)
N5 N 0.47236(8) 0.33620(16) 0.90328(5)
N6 N 0.91111(9) 0.32284(18) 0.95410(6)
C15 C 0.54843(10) 0.31492(18) 0.94615(5)
H12 H 0.54330 0.29070 0.98220
C16 C 0.63952(9) 0.33289(17) 0.93161(5)
C17 C 0.73991(10) 0.31849(17) 0.95871(5)
H13 H 0.76170 0.29190 0.99670
C18 C 0.80552(9) 0.34486(18) 0.92748(6)
C19 C 0.77729(10) 0.38914(19) 0.87135(6)
H14 H 0.82630 0.40960 0.85220
C20 C 0.67933(10) 0.40277(18) 0.84434(5)
H15 H 0.65850 0.43240 0.80650
C21 C 0.61093(9) 0.37104(17) 0.87506(5)
C22 C 0.44581(11) 0.3748(2) 0.80465(6)
H16 H 0.47530 0.45750 0.78150
H17 H 0.38150 0.43110 0.80550
C23 C 0.42832(10) 0.17754(19) 0.77920(5)
C24 C 0.3593(1) 0.0558(2) 0.79196(6)
H18 H 0.32380 0.09540 0.81720
C25 C 0.34200(12) -0.1238(2) 0.76785(6)
H19 H 0.29460 -0.20630 0.77660
C26 C 0.39368(12) -0.1827(2) 0.73113(6)
H20 H 0.38100 -0.30470 0.71430
C27 C 0.46371(12) -0.0641(2) 0.71898(6)
H21 H 0.50000 -0.10510 0.69420
C28 C 0.48104(11) 0.1157(2) 0.74309(6)
H22 H 0.52940 0.19690 0.73480
#END
