
#######################################################################
#
#                 Cambridge Crystallographic Data Centre
#                                CCDC
#
#######################################################################
#
# If this CIF has been generated from an entry in the Cambridge
# Structural Database, then it will include bibliographic, chemical,
# crystal, experimental, refinement or atomic coordinate data resulting
# from the CCDC's data processing and validation procedures.
#
#######################################################################

data_CSD_CIF_UJULOA
_audit_creation_date 2003-12-08
_audit_creation_method CSD-ConQuest-V1
_database_code_CSD UJULOA
_database_code_depnum_ccdc_archive 'CCDC 203668'
_chemical_formula_sum 'C4 H10 N4 O2'
_chemical_formula_moiety
;
C4 H10 N4 O2
;
_journal_coden_Cambridge 440
_journal_volume 27
_journal_year 2003
_journal_page_first 1084
_journal_name_full 'New J.Chem. '
loop_
_publ_author_name
"E.A.Bruton"
"L.Brammer"
"F.C.Pigge"
"C.B.Aakeroy"
"D.S.Leinen"
_chemical_name_systematic
;
Succinamide dioxime
;
_chemical_melting_point 446
_cell_volume    326.496
_exptl_crystal_colour 'colorless'
_exptl_crystal_density_diffrn 1.487
_exptl_special_details
;
Melting point range 446-449K

;
_exptl_crystal_description 'hexagonal prism'
_exptl_crystal_preparation 'ethanol/water'
_diffrn_ambient_temperature 173
#These two values have been output from a single CSD field.
_refine_ls_R_factor_gt 0.0512
_refine_ls_wR_factor_gt 0.0512
_symmetry_cell_setting monoclinic
_symmetry_space_group_name_H-M 'P 21/n'
_symmetry_Int_Tables_number 14
loop_
_symmetry_equiv_pos_site_id
_symmetry_equiv_pos_as_xyz
1 x,y,z
2 1/2+x,1/2-y,1/2+z
3 -x,-y,-z
4 -1/2-x,-1/2+y,-1/2-z
_cell_length_a 4.8552(5)
_cell_length_b 5.1714(2)
_cell_length_c 13.2126(8)
_cell_angle_alpha 90
_cell_angle_beta 100.205(6)
_cell_angle_gamma 90
_cell_formula_units_Z 2
loop_
_atom_type_symbol
_atom_type_radius_bond
C 0.68
H 0.23
N 0.68
O 0.68
loop_
_atom_site_label
_atom_site_type_symbol
_atom_site_fract_x
_atom_site_fract_y
_atom_site_fract_z
N1 N -0.1138(4) 0.1991(4) 0.05877(16)
N2 N -0.0976(5) 0.4479(4) 0.20805(16)
H1 H 0.09990 0.37950 0.23920
H2 H -0.14820 0.62870 0.23920
O1 O 0.1190(4) 0.0705(4) 0.12066(14)
H3 H 0.16960 -0.07090 0.08020
C1 C -0.2020(5) 0.3867(5) 0.10803(19)
C2 C -0.4454(5) 0.5434(5) 0.0548(2)
H4 H -0.60530 0.53890 0.10110
H5 H -0.39060 0.72890 0.06110
C2B C -0.5546(5) 0.4566(5) -0.0548(2)
C1B C -0.7980(5) 0.6133(5) -0.10803(19)
N1B N -0.8862(4) 0.8009(4) -0.05877(16)
O1B O -1.1190(4) 0.9295(4) -0.12066(14)
H3B H -1.16960 1.07090 -0.08020
N2B N -0.9024(5) 0.5521(4) -0.20805(16)
H1B H -1.09990 0.62050 -0.23920
H2B H -0.85180 0.37130 -0.23920
H4B H -0.39470 0.46110 -0.10110
H5B H -0.60940 0.27110 -0.06110
#END
