
#######################################################################
#
#                 Cambridge Crystallographic Data Centre
#                                CCDC
#
#######################################################################
#
# If this CIF has been generated from an entry in the Cambridge
# Structural Database, then it will include bibliographic, chemical,
# crystal, experimental, refinement or atomic coordinate data resulting
# from the CCDC's data processing and validation procedures.
#
#######################################################################

data_CSD_CIF_UJULAM
_audit_creation_date 2003-12-08
_audit_creation_method CSD-ConQuest-V1
_database_code_CSD UJULAM
_database_code_depnum_ccdc_archive 'CCDC 203665'
_chemical_formula_sum 'C10 H12 N2 O2'
_chemical_formula_moiety
;
C10 H12 N2 O2
;
_journal_coden_Cambridge 440
_journal_volume 27
_journal_year 2003
_journal_page_first 1084
_journal_name_full 'New J.Chem. '
loop_
_publ_author_name
"E.A.Bruton"
"L.Brammer"
"F.C.Pigge"
"C.B.Aakeroy"
"D.S.Leinen"
_chemical_name_systematic
;
1,4-Diacetylbenzene dioxime
;
_chemical_melting_point 443.15
_cell_volume    935.339
_exptl_crystal_colour 'colorless'
_exptl_crystal_density_diffrn 1.365
_exptl_special_details
;
Melts with decomposition.

;
_exptl_crystal_description 'rod'
_exptl_crystal_preparation 'sublimation'
_diffrn_ambient_temperature 173
#These two values have been output from a single CSD field.
_refine_ls_R_factor_gt 0.1139
_refine_ls_wR_factor_gt 0.1139
_symmetry_cell_setting monoclinic
_symmetry_space_group_name_H-M 'P 21/c'
_symmetry_Int_Tables_number 14
loop_
_symmetry_equiv_pos_site_id
_symmetry_equiv_pos_as_xyz
1 x,y,z
2 x,1/2-y,1/2+z
3 -x,-y,-z
4 -x,-1/2+y,-1/2-z
_cell_length_a 8.1553(14)
_cell_length_b 14.208(3)
_cell_length_c 8.5134(14)
_cell_angle_alpha 90
_cell_angle_beta 108.525(4)
_cell_angle_gamma 90
_cell_formula_units_Z 4
loop_
_atom_type_symbol
_atom_type_radius_bond
C 0.68
H 0.23
N 0.68
O 0.68
loop_
_atom_site_label
_atom_site_type_symbol
_atom_site_fract_x
_atom_site_fract_y
_atom_site_fract_z
O1 O 1.2371(8) 0.2396(4) 1.4802(9)
H1 H 1.29970 0.19420 1.57210
O2 O 0.2536(8) 0.0126(4) 0.5211(8)
H2 H 0.20030 0.05460 0.42680
N1 N 1.1116(10) 0.1824(6) 1.3634(10)
N2 N 0.3743(10) 0.0698(6) 0.6383(10)
C1 C 0.8761(12) 0.1771(7) 1.1211(13)
C2 C 0.8854(12) 0.0788(6) 1.1088(12)
H3 H 0.97710 0.04530 1.18570
C3 C 0.7622(12) 0.0302(6) 0.9858(12)
H4 H 0.77420 -0.03590 0.97790
C4 C 0.6234(13) 0.0740(7) 0.8749(13)
C5 C 0.6096(11) 0.1721(6) 0.8906(11)
H5 H 0.51290 0.20460 0.81880
C6 C 0.7341(12) 0.2209(7) 1.0082(12)
H6 H 0.72340 0.28730 1.01310
C7 C 1.0098(9) 0.2332(8) 1.2506(9)
C8 C 1.0130(9) 0.3367(8) 1.2355(9)
H7 H 1.10890 0.36230 1.32650
H8 H 0.90360 0.36290 1.24040
H9 H 1.02870 0.35340 1.12950
C9 C 0.4888(10) 0.0235(8) 0.740(1)
C10 C 0.4963(10) -0.0848(9) 0.7387(10)
H10 H 0.40470 -0.10890 0.64230
H11 H 0.47990 -0.10940 0.84030
H12 H 0.60910 -0.10500 0.73290
#END
