
#######################################################################
#
#                 Cambridge Crystallographic Data Centre
#                                CCDC
#
#######################################################################
#
# If this CIF has been generated from an entry in the Cambridge
# Structural Database, then it will include bibliographic, chemical,
# crystal, experimental, refinement or atomic coordinate data resulting
# from the CCDC's data processing and validation procedures.
#
#######################################################################

data_CSD_CIF_UKABAJ
_audit_creation_date 2003-12-08
_audit_creation_method CSD-ConQuest-V1
_database_code_CSD UKABAJ
_database_code_depnum_ccdc_archive 'CCDC 212060'
_chemical_formula_sum 'C18 H19 N1 O8'
_chemical_formula_moiety
;
C18 H19 N1 O8
;
_journal_coden_Cambridge 182
_journal_year 2003
_journal_page_first 2044
_journal_name_full 'Chem.Commun. '
loop_
_publ_author_name
"Hong-Min Liu"
"Fuyi Zhang"
"Da-Peng Zou"
_chemical_name_systematic
;
2-Methoxy-13-methyl-7-phenyl-3,6,8,11,16-pentaoxa-12-azatetracyclo(8.3.3.0^1,1
0^.0^4,9^)hexadec-12-en-15-one N-oxide
;
_cell_volume   1877.196
_exptl_crystal_colour 'colorless'
_exptl_crystal_density_diffrn 1.335
_exptl_crystal_description 'prismatic'
_diffrn_ambient_temperature 291
#These two values have been output from a single CSD field.
_refine_ls_R_factor_gt 0.0546
_refine_ls_wR_factor_gt 0.0546
_symmetry_cell_setting orthorhombic
_symmetry_space_group_name_H-M 'P 21 21 21'
_symmetry_Int_Tables_number 19
loop_
_symmetry_equiv_pos_site_id
_symmetry_equiv_pos_as_xyz
1 x,y,z
2 1/2-x,-y,1/2+z
3 -x,1/2+y,1/2-z
4 1/2+x,1/2-y,-z
_cell_length_a 11.070(2)
_cell_length_b 19.530(4)
_cell_length_c 8.6828(17)
_cell_angle_alpha 90
_cell_angle_beta 90
_cell_angle_gamma 90
_cell_formula_units_Z 4
loop_
_atom_type_symbol
_atom_type_radius_bond
C 0.68
H 0.23
N 0.68
O 0.68
loop_
_atom_site_label
_atom_site_type_symbol
_atom_site_fract_x
_atom_site_fract_y
_atom_site_fract_z
O1 O 0.4019(3) 0.24886(15) 0.1391(3)
O2 O 0.5682(3) 0.2075(2) 0.7821(3)
O3 O 0.6460(2) 0.20555(15) 0.5460(3)
O4 O 0.7305(2) 0.11676(14) 0.2805(3)
O5 O 0.4050(2) 0.13830(14) 0.2398(3)
O6 O 0.6590(3) 0.03803(16) 0.0984(3)
O7 O 0.6748(2) 0.24959(14) 0.3023(3)
O8 O 0.6784(3) 0.36725(18) 0.2880(4)
N1 N 0.6138(3) 0.31767(19) 0.3231(4)
C1 C 0.3862(4) 0.2092(2) 0.2709(4)
H1 H 0.30340 0.21540 0.30830
C2 C 0.4745(4) 0.2363(2) 0.3940(4)
C3 C 0.6040(3) 0.2051(2) 0.3873(4)
C4 C 0.6095(4) 0.1336(2) 0.3235(4)
H2 H 0.58380 0.10180 0.40440
C5 C 0.5255(4) 0.1254(2) 0.1875(5)
H3 H 0.54760 0.15670 0.10400
C6 C 0.5354(4) 0.0512(2) 0.1358(5)
H4 H 0.50900 0.02090 0.21750
H5 H 0.48470 0.04350 0.04630
C7 C 0.3162(5) 0.2325(3) 0.0184(5)
H6 H 0.33170 0.26070 -0.06980
H7 H 0.23560 0.24060 0.05490
H8 H 0.32460 0.18510 -0.00960
C8 C 0.4360(4) 0.2201(2) 0.5586(4)
H9 H 0.38820 0.25730 0.60090
H10 H 0.38830 0.17850 0.56180
C9 C 0.5044(4) 0.3102(2) 0.3719(5)
C10 C 0.4245(5) 0.3699(3) 0.3950(6)
H11 H 0.46760 0.41110 0.36960
H12 H 0.39920 0.37170 0.50060
H13 H 0.35500 0.36570 0.32960
C11 C 0.7365(4) 0.0472(2) 0.2253(5)
H14 H 0.71320 0.01570 0.30810
C12 C 0.8651(4) 0.0334(2) 0.1785(5)
C13 C 0.9233(5) -0.0239(3) 0.2328(5)
H15 H 0.88250 -0.05450 0.29630
C14 C 1.0427(6) -0.0363(3) 0.1934(6)
H16 H 1.08240 -0.07460 0.23200
C15 C 1.1018(6) 0.0078(4) 0.0980(8)
H17 H 1.18260 0.00020 0.07400
C16 C 1.0431(7) 0.0629(4) 0.0373(9)
H18 H 1.08310 0.09160 -0.03130
C17 C 0.9245(6) 0.0766(3) 0.0771(7)
H19 H 0.88490 0.11450 0.03600
C18 C 0.5505(4) 0.2115(2) 0.6475(5)
#END
