
#######################################################################
#
#                 Cambridge Crystallographic Data Centre
#                                CCDC
#
#######################################################################
#
# If this CIF has been generated from an entry in the Cambridge
# Structural Database, then it will include bibliographic, chemical,
# crystal, experimental, refinement or atomic coordinate data resulting
# from the CCDC's data processing and validation procedures.
#
#######################################################################

data_CSD_CIF_UKENOO
_audit_creation_date 2011-04-07
_audit_creation_method CSD-ConQuest-V1
_database_code_CSD UKENOO
_database_code_depnum_ccdc_archive 'CCDC 773238'
_chemical_formula_sum 'C21 H14 N2 O7'
_chemical_formula_moiety
;
C21 H14 N2 O7
;
_journal_coden_Cambridge 177
_journal_volume 9
_journal_year 2011
_journal_page_first 367
_journal_name_full 'Org.Biomol.Chem. '
loop_
_publ_author_name
"V.V.E.Ramesh"
"A.Roy"
"K.N.Vijayadas"
"A.M.Kendhale"
"P.Prabhakaran"
"R.Gonnade"
"V.G.Puranik"
"G.J.Sanjayan"
_chemical_name_systematic
;
Methyl 
3-methoxy-4-(4-nitro-1,3-dioxo-1,3-dihydro-2H-isoindol-2-yl)-2-naphthoate
;
_chemical_melting_point 512.15
_cell_volume   3835.596
_exptl_crystal_colour 'yellow'
_exptl_crystal_density_diffrn 1.407
_exptl_crystal_description 'rectangular'
_exptl_crystal_preparation 'dichloromethane/methanol'
_diffrn_ambient_temperature 293
_refine_special_details
;
O6,O7 and O6',O7' disordered over two sites with occupancies 0.50:0.50; 
C13,O3 and C13',O3' disordered over two sites with occupancies 0.50:0.50.
;
#These two values have been output from a single CSD field.
_refine_ls_R_factor_gt 0.0525
_refine_ls_wR_factor_gt 0.0525
_symmetry_cell_setting orthorhombic
_symmetry_space_group_name_H-M 'P b c a'
_symmetry_Int_Tables_number 61
loop_
_symmetry_equiv_pos_site_id
_symmetry_equiv_pos_as_xyz
1 x,y,z
2 1/2-x,-y,1/2+z
3 -x,1/2+y,1/2-z
4 1/2+x,1/2-y,-z
5 -x,-y,-z
6 -1/2+x,y,-1/2-z
7 x,-1/2-y,-1/2+z
8 -1/2-x,-1/2+y,z
_cell_length_a 11.8387(17)
_cell_length_b 16.585(2)
_cell_length_c 19.535(3)
_cell_angle_alpha 90
_cell_angle_beta 90
_cell_angle_gamma 90
_cell_formula_units_Z 8
loop_
_atom_type_symbol
_atom_type_radius_bond
C 0.68
H 0.23
N 0.68
O 0.68
loop_
_atom_site_label
_atom_site_type_symbol
_atom_site_fract_x
_atom_site_fract_y
_atom_site_fract_z
O1 O 0.6814(2) -0.11999(14) 0.57432(15)
O2 O 0.6461(3) 0.00321(17) 0.61030(16)
O3 O 0.9264(2) 0.23305(12) 0.45890(12)
O4 O 0.66925(17) 0.12031(10) 0.31346(10)
N1 N 0.80117(17) 0.15843(11) 0.39428(12)
N2 N 0.5915(4) 0.2713(2) 0.2347(2)
C1 C 0.6146(5) -0.1509(3) 0.6311(3)
H1 H 0.63090 -0.12030 0.67160
H2 H 0.63300 -0.20650 0.63870
H3 H 0.53570 -0.14620 0.62030
C2 C 0.6896(3) -0.0412(2) 0.5701(2)
C3 C 0.7612(2) -0.01653(15) 0.51120(13)
C4 C 0.8468(2) -0.06605(14) 0.48906(13)
H4 H 0.85660 -0.11570 0.51040
C5 C 0.9197(2) -0.04475(14) 0.43567(12)
C6 C 1.0050(2) -0.09698(16) 0.41183(14)
H5 H 1.01480 -0.14700 0.43250
C7 C 1.0725(3) -0.07511(19) 0.35929(17)
H6 H 1.12730 -0.11060 0.34340
C8 C 1.0605(3) 0.00051(19) 0.32874(16)
H7 H 1.10880 0.01540 0.29340
C9 C 0.9797(2) 0.05230(16) 0.34991(13)
H8 H 0.97230 0.10220 0.32870
C10 C 0.9067(2) 0.03123(13) 0.40383(12)
C11 C 0.8181(2) 0.08172(13) 0.42680(13)
C12 C 0.7460(2) 0.05980(16) 0.47834(15)
C13 C 0.8568(3) 0.22896(15) 0.41362(16)
C14 C 0.8124(2) 0.29299(14) 0.36828(15)
C15 C 0.8410(3) 0.37380(17) 0.36423(18)
H9 H 0.89550 0.39640 0.39270
C16 C 0.7841(4) 0.41944(18) 0.3156(2)
H10 H 0.80060 0.47410 0.31190
C17 C 0.7042(4) 0.3865(2) 0.2727(2)
H11 H 0.66840 0.41850 0.24020
C18 C 0.6782(3) 0.30669(16) 0.27833(17)
C19 C 0.7323(2) 0.25926(14) 0.32602(14)
C20 C 0.7250(2) 0.17140(14) 0.34103(14)
O5 O 0.6052(11) 0.2955(8) 0.1779(6)
O6 O 0.5081(10) 0.2481(6) 0.2639(5)
O7 O 0.6587(3) 0.1085(5) 0.4892(5)
C21 C 0.6697(9) 0.1666(7) 0.5373(7)
C22? C 0.671(2) 0.1813(13) 0.5471(14)
O8? O 0.6448(10) 0.1090(8) 0.5005(7)
O9? O 0.6202(10) 0.2347(5) 0.1806(5)
O10? O 0.5043(15) 0.2657(11) 0.2422(10)
#END
