
#######################################################################
#
#                 Cambridge Crystallographic Data Centre
#                                CCDC
#
#######################################################################
#
# If this CIF has been generated from an entry in the Cambridge
# Structural Database, then it will include bibliographic, chemical,
# crystal, experimental, refinement or atomic coordinate data resulting
# from the CCDC's data processing and validation procedures.
#
#######################################################################

data_CSD_CIF_UKEPIK01
_audit_creation_date 2011-09-23
_audit_creation_method CSD-ConQuest-V1
_database_code_CSD UKEPIK01
_database_code_depnum_ccdc_archive 'CCDC 837066'
_chemical_formula_sum 'C12 H13 N1 O4'
_chemical_formula_moiety
;
C12 H13 N1 O4
;
_journal_coden_Cambridge 35
_journal_volume 75
_journal_year 2010
_journal_page_first 6900
_journal_name_full 'J.Org.Chem. '
loop_
_publ_author_name
"Dengfu Lu"
"Yajun Li"
"Yuefa Gong"
_chemical_name_systematic
;
3-Ethyl-4-(nitromethyl)chroman-2-one
;
_cell_volume    562.943
_exptl_crystal_colour 'colorless'
_exptl_crystal_density_diffrn 1.388
_exptl_crystal_description 'block'
_diffrn_ambient_temperature 298
#These two values have been output from a single CSD field.
_refine_ls_R_factor_gt 0.0474
_refine_ls_wR_factor_gt 0.0474
_symmetry_cell_setting monoclinic
_symmetry_space_group_name_H-M 'P 21'
_symmetry_Int_Tables_number 4
loop_
_symmetry_equiv_pos_site_id
_symmetry_equiv_pos_as_xyz
1 x,y,z
2 -x,1/2+y,-z
_cell_length_a 5.7278(17)
_cell_length_b 7.530(2)
_cell_length_c 13.217(4)
_cell_angle_alpha 90
_cell_angle_beta 99.059(5)
_cell_angle_gamma 90
_cell_formula_units_Z 2
loop_
_atom_type_symbol
_atom_type_radius_bond
C 0.68
H 0.23
N 0.68
O 0.68
loop_
_atom_site_label
_atom_site_type_symbol
_atom_site_fract_x
_atom_site_fract_y
_atom_site_fract_z
O1 O 0.4676(2) 0.6926(2) 0.14058(11)
C1 C 0.1264(3) 0.5582(3) 0.19868(13)
C2 C 0.1297(3) 0.6998(3) 0.27961(14)
H1 H -0.03640 0.72520 0.28370
O2 O 0.6039(3) 0.9514(3) 0.19322(13)
C3 C 0.3028(4) 0.4326(3) 0.06011(16)
H2 H 0.41840 0.43700 0.01800
C4 C -0.0394(4) 0.4223(3) 0.18504(16)
H3 H -0.15540 0.41780 0.22690
C5 C 0.4488(4) 0.8457(3) 0.19376(15)
C6 C 0.2947(3) 0.5608(3) 0.13431(14)
C7 C 0.2321(3) 0.8730(3) 0.24346(14)
H4 H 0.11090 0.91830 0.18890
N1 N 0.4822(4) 0.5597(3) 0.38944(12)
C8 C 0.2377(4) 0.6296(3) 0.38549(15)
H5 H 0.24010 0.72470 0.43520
H6 H 0.13780 0.53560 0.40500
C9 C 0.2724(4) 1.0222(3) 0.32298(16)
H7 H 0.40130 0.98820 0.37620
H8 H 0.32120 1.12810 0.29010
O3 O 0.6330(3) 0.6628(4) 0.37304(17)
C10 C 0.1363(4) 0.2974(3) 0.04918(18)
H9 H 0.14120 0.20940 0.00020
C11 C -0.0361(4) 0.2938(3) 0.11087(18)
H10 H -0.15020 0.20490 0.10260
C12 C 0.0586(5) 1.0673(3) 0.37274(19)
H11 H -0.07190 1.09770 0.32070
H12 H 0.09530 1.16620 0.41830
H13 H 0.01690 0.96650 0.41070
O4 O 0.5205(5) 0.4066(3) 0.4107(2)
#END
