
#######################################################################
#
#                 Cambridge Crystallographic Data Centre
#                                CCDC
#
#######################################################################
#
# If this CIF has been generated from an entry in the Cambridge
# Structural Database, then it will include bibliographic, chemical,
# crystal, experimental, refinement or atomic coordinate data resulting
# from the CCDC's data processing and validation procedures.
#
#######################################################################

data_CSD_CIF_UKEQOR
_audit_creation_date 2011-04-07
_audit_creation_method CSD-ConQuest-V1
_database_code_CSD UKEQOR
_database_code_depnum_ccdc_archive 'CCDC 778973'
_chemical_formula_sum 'C19 H16 N2 O6'
_chemical_formula_moiety
;
C19 H16 N2 O6
;
_journal_coden_Cambridge 177
_journal_volume 9
_journal_year 2011
_journal_page_first 363
_journal_name_full 'Org.Biomol.Chem. '
loop_
_publ_author_name
"De-Wei Wang"
"Siang-en Syu"
"Yi-Ting Hung"
"Pei-yi Chen"
"Chia-Jui Lee"
"Ko-Wei Chen"
"Yu-Jhang Chen"
"Wenwei Lin"
_chemical_name_systematic
;
threo-2-(2-(Hydroxy(4-nitrophenyl)methyl)-3-oxobutyl)-1H-isoindole-1,3(2H)-dio
ne
;
_chemical_melting_point 432.05
_cell_volume   3596.712
_exptl_crystal_colour 'colorless'
_exptl_crystal_density_diffrn 1.36
_exptl_special_details
;
Melting point range 432.05-432.55K

;
_exptl_crystal_description 'prism'
_diffrn_ambient_temperature 293
#These two values have been output from a single CSD field.
_refine_ls_R_factor_gt 0.0543
_refine_ls_wR_factor_gt 0.0543
_symmetry_cell_setting orthorhombic
_symmetry_space_group_name_H-M 'P c a b'
_symmetry_Int_Tables_number 61
loop_
_symmetry_equiv_pos_site_id
_symmetry_equiv_pos_as_xyz
1 x,y,z
2 -x,1/2-y,1/2+z
3 1/2+x,-y,1/2-z
4 1/2-x,1/2+y,-z
5 -x,-y,-z
6 x,-1/2+y,-1/2-z
7 -1/2-x,y,-1/2+z
8 -1/2+x,-1/2-y,z
_cell_length_a 11.2975(2)
_cell_length_b 15.8036(3)
_cell_length_c 20.1450(6)
_cell_angle_alpha 90
_cell_angle_beta 90
_cell_angle_gamma 90
_cell_formula_units_Z 8
loop_
_atom_type_symbol
_atom_type_radius_bond
C 0.68
H 0.23
N 0.68
O 0.68
loop_
_atom_site_label
_atom_site_type_symbol
_atom_site_fract_x
_atom_site_fract_y
_atom_site_fract_z
C1 C 0.7636(3) 0.18431(18) 0.25766(13)
C2 C 0.6701(3) 0.2402(2) 0.25791(15)
H1 H 0.65420 0.27330 0.29500
C3 C 0.6009(3) 0.24590(19) 0.20192(14)
H2 H 0.53710 0.28310 0.20130
C4 C 0.6250(2) 0.19675(15) 0.14632(12)
C5 C 0.7193(2) 0.14142(18) 0.14831(14)
H3 H 0.73610 0.10800 0.11150
C6 C 0.7891(3) 0.13504(19) 0.20437(15)
H4 H 0.85260 0.09760 0.20560
C7 C 0.5521(2) 0.20626(17) 0.08385(13)
H5 H 0.59670 0.18240 0.04660
C8 C 0.4316(2) 0.16311(16) 0.08712(12)
H6 H 0.38620 0.18960 0.12300
C9 C 0.3622(2) 0.17385(17) 0.02305(13)
C10 C 0.4223(3) 0.1663(2) -0.04264(14)
H7 H 0.36550 0.17460 -0.07750
H8 H 0.45690 0.11100 -0.04670
H9 H 0.48320 0.20840 -0.04600
C11 C 0.4423(2) 0.06799(17) 0.10263(14)
H10 H 0.48770 0.04060 0.06790
H11 H 0.48460 0.06060 0.14410
C12 C 0.2724(2) -0.01565(16) 0.05601(12)
C13 C 0.1540(2) -0.04075(16) 0.08141(12)
C14 C 0.0651(3) -0.0856(2) 0.05126(15)
H12 H 0.07270 -0.10510 0.00790
C15 C -0.0361(3) -0.1005(2) 0.08795(17)
H13 H -0.09830 -0.13020 0.06870
C16 C -0.0466(3) -0.0726(2) 0.15200(16)
H14 H -0.11560 -0.08410 0.17550
C17 C 0.0431(3) -0.0276(2) 0.18252(14)
H15 H 0.03550 -0.00840 0.22600
C18 C 0.1442(2) -0.01221(16) 0.14615(12)
C19 C 0.2544(2) 0.03315(17) 0.16335(12)
N1 N 0.8393(3) 0.1789(2) 0.31694(15)
N2 N 0.32714(19) 0.02819(13) 0.10757(10)
O1 O 0.9267(3) 0.13255(19) 0.31419(13)
O2 O 0.8116(3) 0.2192(2) 0.36624(14)
O3 O 0.52736(18) 0.29282(12) 0.06994(10)
H16 H 0.55590 0.32260 0.09920
O4 O 0.25573(17) 0.18342(15) 0.02575(11)
O5 O 0.31693(18) -0.02867(13) 0.00228(10)
O6 O 0.28240(19) 0.06787(14) 0.21436(9)
#END
