
#######################################################################
#
#                 Cambridge Crystallographic Data Centre
#                                CCDC
#
#######################################################################
#
# If this CIF has been generated from an entry in the Cambridge
# Structural Database, then it will include bibliographic, chemical,
# crystal, experimental, refinement or atomic coordinate data resulting
# from the CCDC's data processing and validation procedures.
#
#######################################################################

data_CSD_CIF_UKIGEC
_audit_creation_date 2016-04-04
_audit_creation_method CSD-ConQuest-V1
_database_code_CSD UKIGEC
_database_code_depnum_ccdc_archive 'CCDC 1472178'
_chemical_formula_sum 'C21 H23 N1 O1'
_chemical_formula_moiety
;
C21 H23 N1 O1
;
_journal_coden_Cambridge 35
_journal_volume 81
_journal_year 2016
_journal_page_first 3042
_journal_name_full 'J.Org.Chem. '
loop_
_publ_author_name
"Fei Chen"
"Xiu-Long Yang"
"Zhi-Wei Wu"
"Bing Han"
_chemical_name_systematic
;
4,4-dimethyl-5-phenyl-2-(1-phenylprop-1-en-1-yl)-3,4-dihydro-2H-pyrrole 
1-oxide
;
_cell_volume    901.128
_exptl_crystal_colour 'light colorless'
_exptl_crystal_density_diffrn 1.126
_exptl_crystal_description 'block'
_diffrn_ambient_temperature 295.4
#These two values have been output from a single CSD field.
_refine_ls_R_factor_gt 0.059
_refine_ls_wR_factor_gt 0.059
_symmetry_cell_setting triclinic
_symmetry_space_group_name_H-M 'P -1'
_symmetry_Int_Tables_number 2
loop_
_symmetry_equiv_pos_site_id
_symmetry_equiv_pos_as_xyz
1 x,y,z
2 -x,-y,-z
_cell_length_a 9.6457(18)
_cell_length_b 10.255(2)
_cell_length_c 10.4809(19)
_cell_angle_alpha 114.778(19)
_cell_angle_beta 103.217(16)
_cell_angle_gamma 93.707(16)
_cell_formula_units_Z 2
loop_
_atom_type_symbol
_atom_type_radius_bond
C 0.68
H 0.23
N 0.68
O 0.68
loop_
_atom_site_label
_atom_site_type_symbol
_atom_site_fract_x
_atom_site_fract_y
_atom_site_fract_z
O1 O 0.69938(16) 0.47594(15) 0.05630(16)
N1 N 0.67882(18) 0.58662(19) 0.16539(18)
C1 C 0.8905(3) 0.9043(2) 0.1848(2)
H1 H 0.82700 0.96830 0.21280
C2 C 1.0071(3) 0.9459(3) 0.1456(3)
H2 H 1.02020 1.03670 0.14600
C3 C 1.1032(3) 0.8547(3) 0.1064(3)
H3 H 1.18120 0.88320 0.07990
C4 C 1.0841(3) 0.7210(3) 0.1064(3)
H4 H 1.15040 0.65960 0.08160
C5 C 0.9663(2) 0.6771(2) 0.1432(2)
H5 H 0.95360 0.58560 0.14130
C6 C 0.8667(2) 0.7679(2) 0.1829(2)
C7 C 0.7449(2) 0.7228(2) 0.2254(2)
C8 C 0.6726(2) 0.8192(2) 0.3359(2)
C9 C 0.5951(3) 0.7051(2) 0.3675(2)
H6 H 0.65800 0.69340 0.44710
H7 H 0.50800 0.73420 0.39380
C10 C 0.5581(2) 0.5646(2) 0.2268(2)
H8 H 0.46650 0.56400 0.16220
C11 C 0.5476(2) 0.4235(2) 0.2393(2)
C12 C 0.6746(2) 0.3952(2) 0.3299(3)
C13 C 0.7865(3) 0.3406(3) 0.2758(3)
H9 H 0.78540 0.32330 0.18110
C14 C 0.9011(3) 0.3110(3) 0.3609(4)
H10 H 0.97610 0.27470 0.32250
C15 C 0.9052(3) 0.3344(3) 0.4990(4)
H11 H 0.98150 0.31280 0.55480
C16 C 0.7966(3) 0.3896(4) 0.5545(3)
H12 H 0.79890 0.40650 0.64940
C17 C 0.6833(3) 0.4208(3) 0.4723(3)
H13 H 0.61070 0.46000 0.51320
C18 C 0.4232(3) 0.3301(3) 0.1732(3)
H14 H 0.34970 0.35520 0.11790
C19 C 0.3887(4) 0.1873(3) 0.1784(4)
H15 H 0.37100 0.10820 0.08230
H16 H 0.30410 0.18620 0.21190
H17 H 0.46910 0.17660 0.24450
C20 C 0.5604(3) 0.8875(3) 0.2656(3)
H18 H 0.60910 0.95470 0.24110
H19 H 0.50800 0.93860 0.33340
H20 H 0.49410 0.81190 0.17830
C21 C 0.7794(3) 0.9373(3) 0.4754(3)
H21 H 0.85160 0.89360 0.51490
H22 H 0.72850 0.98480 0.54610
H23 H 0.82520 1.00790 0.45300
#END
