
#######################################################################
#
#                 Cambridge Crystallographic Data Centre
#                                CCDC
#
#######################################################################
#
# If this CIF has been generated from an entry in the Cambridge
# Structural Database, then it will include bibliographic, chemical,
# crystal, experimental, refinement or atomic coordinate data resulting
# from the CCDC's data processing and validation procedures.
#
#######################################################################

data_CSD_CIF_UKIHIH
_audit_creation_date 2016-04-04
_audit_creation_method CSD-ConQuest-V1
_database_code_CSD UKIHIH
_database_code_depnum_ccdc_archive 'CCDC 1442344'
_chemical_formula_sum 'C4 H3 N5 O6'
_chemical_formula_moiety
;
C4 H3 N5 O6
;
_journal_coden_Cambridge 1699
_journal_volume 4
_journal_year 2016
_journal_page_first 5495
_journal_name_full 'J.Mater.Chem.A '
loop_
_publ_author_name
"X.X.Zhao"
"S.H.Li"
"Y.Wang"
"Y.C.Li"
"F.Q.Zhao"
"S.P.Pang"
_chemical_name_systematic
;
1-(dinitromethyl)-3-nitro-1H-pyrazole
;
_cell_volume   1583.062
_exptl_crystal_density_diffrn 1.822
_exptl_crystal_description 'monoclinic'
_diffrn_ambient_temperature 101.7
#These two values have been output from a single CSD field.
_refine_ls_R_factor_gt 0.0587
_refine_ls_wR_factor_gt 0.0587
_symmetry_cell_setting monoclinic
_symmetry_space_group_name_H-M 'P 21/c'
_symmetry_Int_Tables_number 14
loop_
_symmetry_equiv_pos_site_id
_symmetry_equiv_pos_as_xyz
1 x,y,z
2 -x,1/2+y,1/2-z
3 -x,-y,-z
4 x,-1/2-y,-1/2+z
_cell_length_a 12.7070(8)
_cell_length_b 11.6741(8)
_cell_length_c 10.8273(8)
_cell_angle_alpha 90
_cell_angle_beta 99.727(7)
_cell_angle_gamma 90
_cell_formula_units_Z 8
loop_
_atom_type_symbol
_atom_type_radius_bond
C 0.68
H 0.23
N 0.68
O 0.68
loop_
_atom_site_label
_atom_site_type_symbol
_atom_site_fract_x
_atom_site_fract_y
_atom_site_fract_z
O1 O 0.16654(14) 0.02156(15) 0.30487(17)
N1 N 0.39479(16) -0.24496(17) 0.7558(2)
N2 N 0.18423(16) 0.07997(18) 0.4005(2)
N3 N 0.35245(16) -0.08813(17) 0.61302(19)
N4 N 0.28721(15) -0.07316(17) 0.50071(18)
O2 O 0.56166(15) -0.08327(17) 0.6192(2)
O3 O 0.14845(16) 0.17543(16) 0.41215(18)
N5 N 0.52843(17) -0.1785(2) 0.6332(2)
O4 O 0.57927(15) -0.26668(16) 0.6459(2)
C1 C 0.40819(19) -0.1927(2) 0.6305(2)
H1 H 0.37870 -0.24670 0.56150
O5 O 0.31611(16) -0.30352(18) 0.75345(18)
C2 C 0.25430(18) 0.0325(2) 0.5085(2)
C3 C 0.3592(2) 0.0079(2) 0.6863(3)
H2 H 0.40110 0.01690 0.76710
C4 C 0.2945(2) 0.0880(2) 0.6214(3)
H3 H 0.28000 0.16350 0.64660
O6 O 0.45796(18) -0.2213(2) 0.8479(2)
O7 O -0.07069(14) -0.22879(16) 0.86000(17)
N6 N 0.33481(17) 0.02101(18) 1.0715(2)
O8 O 0.05416(14) -0.33284(15) 0.64391(17)
N7 N 0.13714(15) -0.14560(17) 0.89547(19)
N8 N 0.00222(16) -0.29782(18) 0.87089(19)
N9 N 0.09380(16) -0.24829(17) 0.6989(2)
O9 O 0.41507(14) -0.03943(16) 1.0919(2)
O10 O 0.12481(16) -0.16387(16) 0.65141(18)
N10 N 0.23661(15) -0.13468(18) 0.9651(2)
O11 O -0.00131(15) -0.39767(15) 0.89859(19)
O12 O 0.32789(16) 0.11771(16) 1.1106(2)
C5 C 0.08320(19) -0.0438(2) 0.8811(2)
H4 H 0.01370 -0.03130 0.83480
C6 C 0.14802(19) 0.0360(2) 0.9458(2)
H5 H 0.13410 0.11510 0.95590
C7 C 0.10898(18) -0.2537(2) 0.8431(2)
H6 H 0.16650 -0.31010 0.87470
C8 C 0.23958(18) -0.0254(2) 0.9938(2)
#END
