
#######################################################################
#
#                 Cambridge Crystallographic Data Centre
#                                CCDC
#
#######################################################################
#
# If this CIF has been generated from an entry in the Cambridge
# Structural Database, then it will include bibliographic, chemical,
# crystal, experimental, refinement or atomic coordinate data resulting
# from the CCDC's data processing and validation procedures.
#
#######################################################################

data_CSD_CIF_UKIJIJ
_audit_creation_date 2016-04-04
_audit_creation_method CSD-ConQuest-V1
_database_code_CSD UKIJIJ
_database_code_depnum_ccdc_archive 'CCDC 1442348'
_chemical_formula_sum 'C3 H3 N7 O7'
_chemical_formula_moiety
;
C3 H3 N7 O7
;
_journal_coden_Cambridge 1699
_journal_volume 4
_journal_year 2016
_journal_page_first 5495
_journal_name_full 'J.Mater.Chem.A '
loop_
_publ_author_name
"X.X.Zhao"
"S.H.Li"
"Y.Wang"
"Y.C.Li"
"F.Q.Zhao"
"S.P.Pang"
_chemical_name_systematic
;
2,2-dinitro-2-(5-nitro-2H-tetrazol-2-yl)ethanol
;
_cell_volume    907.114
_exptl_crystal_colour 'colorless'
_exptl_crystal_density_diffrn 1.824
_exptl_crystal_description 'Block'
_diffrn_ambient_temperature 153
#These two values have been output from a single CSD field.
_refine_ls_R_factor_gt 0.0402
_refine_ls_wR_factor_gt 0.0402
_symmetry_cell_setting monoclinic
_symmetry_space_group_name_H-M 'P 21/c'
_symmetry_Int_Tables_number 14
loop_
_symmetry_equiv_pos_site_id
_symmetry_equiv_pos_as_xyz
1 x,y,z
2 -x,1/2+y,1/2-z
3 -x,-y,-z
4 x,-1/2-y,-1/2+z
_cell_length_a 11.481(3)
_cell_length_b 6.6275(16)
_cell_length_c 12.722(3)
_cell_angle_alpha 90
_cell_angle_beta 110.433(3)
_cell_angle_gamma 90
_cell_formula_units_Z 4
loop_
_atom_type_symbol
_atom_type_radius_bond
C 0.68
H 0.23
N 0.68
O 0.68
loop_
_atom_site_label
_atom_site_type_symbol
_atom_site_fract_x
_atom_site_fract_y
_atom_site_fract_z
O1 O 0.14622(8) 0.14364(14) 0.64303(7)
O2 O 0.24688(9) 0.74944(13) 0.23645(7)
O3 O 0.05033(9) 0.78990(17) 0.21131(8)
O4 O 0.47030(9) 0.45703(18) 0.67409(9)
O5 O 0.49894(9) 0.2415(2) 0.55719(10)
O6 O 0.33712(10) -0.07657(14) 0.56641(8)
O7 O 0.2152(1) 0.05999(14) 0.41165(7)
N1 N 0.08841(8) 0.62828(14) 0.41791(7)
N2 N 0.12947(8) 0.50575(14) 0.50293(7)
N3 N 0.23171(8) 0.42099(13) 0.49430(7)
N4 N 0.26029(8) 0.48324(14) 0.40629(7)
N5 N 0.15445(9) 0.72575(14) 0.26139(8)
N6 N 0.43759(9) 0.32495(16) 0.60420(8)
N7 N 0.28327(9) 0.06453(15) 0.50944(8)
C1 C 0.16888(9) 0.61072(15) 0.36232(8)
C2 C 0.30008(9) 0.26777(16) 0.57065(8)
C3 C 0.26078(10) 0.24335(17) 0.67390(9)
H1 H 0.32450 0.16480 0.73240
H2 H 0.25380 0.37770 0.70520
H3 H 0.0892(19) 0.228(3) 0.6243(16)
#END
