
#######################################################################
#
#                 Cambridge Crystallographic Data Centre
#                                CCDC
#
#######################################################################
#
# If this CIF has been generated from an entry in the Cambridge
# Structural Database, then it will include bibliographic, chemical,
# crystal, experimental, refinement or atomic coordinate data resulting
# from the CCDC's data processing and validation procedures.
#
#######################################################################

data_CSD_CIF_UKOZUP
_audit_creation_date 2004-01-28
_audit_creation_method CSD-ConQuest-V1
_database_code_CSD UKOZUP
_database_code_depnum_ccdc_archive 'CCDC 214302'
_chemical_formula_sum 'C22 H27 N1 O5'
_chemical_formula_moiety
;
C22 H27 N1 O5
;
_journal_coden_Cambridge 24
_journal_volume 44
_journal_year 2003
_journal_page_first 7055
_journal_name_full 'Tetrahedron Lett. '
loop_
_publ_author_name
"G.Mehta"
"R.S.Kumaran"
_chemical_name_systematic
;
(1S,3R,4aS,5S,8aS)-4a-Hydroxy-3-isopropenyl-5,8a-dimethyl-1,2,3,4,4a,5,8,8a-oc
tahydro-1-naphthalenyl 4-nitrobenzoate
;
_cell_volume   2036.964
_exptl_crystal_density_diffrn 1.257
_diffrn_ambient_temperature 293
#These two values have been output from a single CSD field.
_refine_ls_R_factor_gt 0.0576
_refine_ls_wR_factor_gt 0.0576
_symmetry_cell_setting monoclinic
_symmetry_space_group_name_H-M 'P 21'
_symmetry_Int_Tables_number 4
loop_
_symmetry_equiv_pos_site_id
_symmetry_equiv_pos_as_xyz
1 x,y,z
2 -x,1/2+y,-z
_cell_length_a 8.265(2)
_cell_length_b 13.123(4)
_cell_length_c 18.829(5)
_cell_angle_alpha 90
_cell_angle_beta 94.113(5)
_cell_angle_gamma 90
_cell_formula_units_Z 4
loop_
_atom_type_symbol
_atom_type_radius_bond
C 0.68
H 0.23
N 0.68
O 0.68
loop_
_atom_site_label
_atom_site_type_symbol
_atom_site_fract_x
_atom_site_fract_y
_atom_site_fract_z
O1 O 0.4550(3) -0.09509(16) 0.35134(9)
H1 H 0.366(5) -0.058(3) 0.351(2)
O2 O 0.3130(2) 0.09486(13) 0.37040(9)
C1 C 0.5956(3) 0.0559(2) 0.40093(13)
C2 C 0.5368(4) -0.0970(3) 0.47595(14)
H2 H 0.523(3) -0.166(3) 0.4758(14)
H3 H 0.627(3) -0.0839(19) 0.5083(13)
C3 C 0.3889(4) 0.0673(2) 0.49576(15)
H4 H 0.283(4) 0.098(2) 0.5068(15)
H5 H 0.460(4) 0.094(2) 0.5299(16)
C4 C 0.5810(3) -0.0610(2) 0.40220(12)
C5 C 0.3807(3) -0.0483(2) 0.49863(14)
H6 H 0.294(3) -0.0708(19) 0.4650(14)
C6 C 0.7367(4) -0.1111(3) 0.37859(17)
H7 H 0.740(3) -0.093(2) 0.3272(16)
C7 C 0.0979(3) 0.15562(19) 0.29341(13)
C8 C -0.1147(3) 0.1315(3) 0.17666(14)
C9 C 0.2133(3) 0.1727(2) 0.35720(14)
N1 N -0.2271(3) 0.1174(3) 0.11182(15)
C10 C -0.1014(4) 0.2241(3) 0.20779(17)
H8 H -0.160(4) 0.284(2) 0.1913(16)
C11 C 0.0063(4) 0.2363(2) 0.26744(17)
H9 H 0.025(4) 0.297(3) 0.2886(17)
C12 C 0.4449(3) 0.1080(2) 0.42656(14)
H10 H 0.468(3) 0.179(2) 0.4293(13)
C13 C 0.0808(4) 0.0621(2) 0.26020(15)
H11 H 0.146(4) 0.004(3) 0.2769(17)
C14 C -0.0264(4) 0.0498(3) 0.20112(15)
H12 H -0.036(4) -0.014(3) 0.1741(19)
C15 C 0.6272(5) 0.0952(3) 0.32607(19)
H13 H 0.539(5) 0.069(3) 0.289(2)
H14 H 0.736(6) 0.071(3) 0.313(2)
H15 H 0.614(4) 0.164(3) 0.3263(17)
C16 C 0.3388(5) -0.0840(3) 0.57176(17)
C17 C 0.7409(4) 0.0890(3) 0.4522(2)
H16 H 0.751(4) 0.159(3) 0.4438(18)
H17 H 0.707(4) 0.083(2) 0.5033(19)
O3 O 0.2144(3) 0.24883(18) 0.39191(13)
O4 O -0.2889(3) 0.1945(3) 0.08665(15)
C18 C 0.8842(5) -0.0645(4) 0.4135(2)
H18 H 0.993(5) -0.097(3) 0.411(2)
O5 O -0.2486(4) 0.0318(3) 0.08852(16)
C19 C 0.8886(4) 0.0234(4) 0.4455(2)
H19 H 0.984(5) 0.050(3) 0.4717(18)
C20 C 0.7377(7) -0.2265(3) 0.3867(3)
H20 H 0.771(5) -0.255(3) 0.439(2)
H21 H 0.822(5) -0.251(3) 0.369(2)
H22 H 0.623(6) -0.261(3) 0.364(2)
C21 C 0.1947(7) -0.1275(5) 0.5785(3)
H23 H 0.176(6) -0.148(4) 0.626(3)
H24 H 0.119(7) -0.155(4) 0.528(3)
C22 C 0.4583(8) -0.0719(6) 0.6317(2)
H25 H 0.429(5) -0.099(4) 0.675(3)
H26 H 0.471(9) 0.013(7) 0.639(4)
H27 H 0.570(9) -0.120(6) 0.622(4)
O6 O 0.8369(2) 0.29121(13) 0.91541(9)
O7 O 0.6517(2) 0.11028(15) 0.91905(12)
H28 H 0.628(4) 0.127(3) 0.9549(18)
C23 C 1.0328(3) 0.32445(18) 1.00851(12)
C24 C 0.7139(3) 0.3182(2) 0.85857(13)
H29 H 0.710(3) 0.3915(19) 0.8582(11)
N2 N 1.3851(3) 0.2228(3) 1.16396(13)
C25 C 0.7733(3) 0.2775(2) 0.78992(13)
H30 H 0.883(4) 0.302(2) 0.7883(14)
H31 H 0.711(3) 0.306(2) 0.7500(14)
C26 C 1.0664(3) 0.22166(19) 1.01540(12)
H32 H 1.013(3) 0.1765(18) 0.9850(12)
C27 C 0.5377(3) 0.1605(2) 0.86935(12)
C28 C 1.2627(3) 0.2584(2) 1.10905(12)
C29 C 0.5914(3) 0.1270(2) 0.79710(14)
H33 H 0.512(3) 0.156(2) 0.7590(13)
H34 H 0.584(3) 0.055(2) 0.7939(12)
C30 C 1.1819(3) 0.1884(2) 1.06579(13)
H35 H 1.209(3) 0.119(2) 1.0704(14)
C31 C 0.9082(3) 0.3641(2) 0.95439(14)
C32 C 0.7632(3) 0.1625(2) 0.78431(13)
H36 H 0.832(3) 0.1358(18) 0.8186(12)
C33 C 1.2330(4) 0.3612(2) 1.10245(15)
H37 H 1.292(4) 0.402(2) 1.1304(17)
C34 C 0.5488(3) 0.2778(2) 0.87601(12)
C35 C 0.8208(3) 0.1210(3) 0.71603(15)
C36 C 1.1178(4) 0.3934(2) 1.05208(15)
H38 H 1.094(4) 0.459(3) 1.0472(16)
C37 C 0.4230(3) 0.3275(3) 0.82111(17)
H39 H 0.409(4) 0.393(3) 0.8370(16)
H40 H 0.460(3) 0.328(2) 0.7752(15)
C38 C 0.5076(5) 0.3147(3) 0.94994(16)
H41 H 0.536(3) 0.383(3) 0.9540(15)
H42 H 0.574(3) 0.283(2) 0.9892(16)
H43 H 0.391(4) 0.303(3) 0.9582(17)
O8 O 1.4167(3) 0.1323(2) 1.16587(13)
O9 O 0.8771(3) 0.45262(16) 0.94804(14)
C39 C 0.3654(3) 0.1235(3) 0.88248(17)
H44 H 0.355(3) 0.135(2) 0.9336(17)
C40 C 0.2644(4) 0.2776(3) 0.81673(18)
H45 H 0.176(4) 0.317(2) 0.7911(15)
O10 O 1.4502(4) 0.2844(2) 1.20398(14)
C41 C 0.8102(6) 0.1730(4) 0.6557(2)
H46 H 0.853(4) 0.145(3) 0.614(2)
H47 H 0.776(5) 0.243(3) 0.651(2)
C42 C 0.3370(6) 0.0102(3) 0.8697(3)
H48 H 0.327(6) 0.001(4) 0.814(3)
H49 H 0.245(5) -0.015(3) 0.8872(19)
H50 H 0.420(5) -0.028(3) 0.900(2)
C43 C 0.2372(4) 0.1881(3) 0.84338(18)
H51 H 0.132(5) 0.161(3) 0.8426(16)
C44 C 0.8800(8) 0.0148(4) 0.7191(3)
H52 H 0.923(5) 0.002(3) 0.677(2)
H53 H 0.781(16) -0.026(10) 0.742(7)
H54 H 0.981(7) 0.016(4) 0.748(3)
#END
