
#######################################################################
#
#                 Cambridge Crystallographic Data Centre
#                                CCDC
#
#######################################################################
#
# If this CIF has been generated from an entry in the Cambridge
# Structural Database, then it will include bibliographic, chemical,
# crystal, experimental, refinement or atomic coordinate data resulting
# from the CCDC's data processing and validation procedures.
#
#######################################################################

data_CSD_CIF_UKOZUP02
_audit_creation_date 2015-02-11
_audit_creation_method CSD-ConQuest-V1
_database_code_CSD UKOZUP02
_database_code_depnum_ccdc_archive 'CCDC 602354'
_chemical_formula_sum 'C22 H27 N1 O5'
_chemical_formula_moiety
;
C22 H27 N1 O5
;
_journal_coden_Cambridge 16
_journal_volume 71
_journal_year 2015
_journal_page_first 1718
_journal_name_full 'Tetrahedron '
loop_
_publ_author_name
"R.Senthil Kumaran"
"G.Mehta"
_chemical_name_systematic
;
(1S,3R,4aS,5S,8aS)-4a-Hydroxy-3-isopropenyl-5,8a-dimethyl-1,2,3,4,4a,5,8,8a-oc
tahydro-1-naphthalenyl 4-nitrobenzoate
;
_cell_volume   2005.585
_exptl_crystal_density_diffrn 1.277
_diffrn_ambient_temperature 293
#These two values have been output from a single CSD field.
_refine_ls_R_factor_gt 0.1075
_refine_ls_wR_factor_gt 0.1075
_symmetry_cell_setting orthorhombic
_symmetry_space_group_name_H-M 'P 21 21 21'
_symmetry_Int_Tables_number 19
loop_
_symmetry_equiv_pos_site_id
_symmetry_equiv_pos_as_xyz
1 x,y,z
2 1/2-x,-y,1/2+z
3 -x,1/2+y,1/2-z
4 1/2+x,1/2-y,-z
_cell_length_a 7.559(2)
_cell_length_b 13.008(4)
_cell_length_c 20.397(6)
_cell_angle_alpha 90
_cell_angle_beta 90
_cell_angle_gamma 90
_cell_formula_units_Z 4
loop_
_atom_type_symbol
_atom_type_radius_bond
C 0.68
H 0.23
N 0.68
O 0.68
loop_
_atom_site_label
_atom_site_type_symbol
_atom_site_fract_x
_atom_site_fract_y
_atom_site_fract_z
H1 H 0.552(9) 0.260(4) 0.143(3)
H2 H 0.945(5) 0.243(3) 0.2411(19)
H3 H 1.244(8) -0.111(5) -0.047(3)
H4 H 1.008(8) 0.468(5) 0.070(3)
H5 H 1.214(8) -0.102(4) 0.167(3)
H6 H 1.005(7) -0.080(4) 0.159(2)
H7 H 0.857(9) 0.197(5) 0.023(3)
H8 H 1.292(7) 0.358(4) 0.113(3)
H9 H 0.823(6) -0.235(4) -0.108(2)
H10 H 1.087(6) -0.030(4) 0.021(2)
H11 H 1.119(7) 0.139(4) 0.114(3)
H12 H 0.676(6) 0.242(3) 0.033(2)
H13 H 1.262(6) 0.368(4) 0.187(3)
H14 H 0.776(7) -0.002(4) 0.201(2)
H15 H 0.667(7) 0.282(4) 0.203(3)
H16 H 0.670(7) 0.353(5) 0.148(3)
H17 H 0.839(6) 0.376(3) -0.003(2)
H18 H 1.231(7) 0.456(5) 0.147(3)
H19 H 0.637(6) 0.102(3) 0.1237(19)
H20 H 0.964(5) 0.397(3) 0.1700(18)
H21 H 0.971(5) 0.092(3) 0.269(2)
H22 H 1.137(5) 0.231(3) 0.2302(17)
H23 H 0.720(6) 0.097(3) 0.226(2)
O1 O 0.8425(4) 0.0434(2) 0.08371(15)
C1 C 0.8579(7) -0.0820(3) 0.0023(2)
O2 O 1.1151(4) 0.1954(3) 0.10498(15)
C2 C 1.0238(7) 0.3604(4) 0.1394(2)
O3 O 0.5983(5) -0.0476(3) 0.06291(19)
C3 C 0.9876(6) 0.2447(3) 0.14585(19)
C4 C 0.9770(7) 0.0945(4) 0.2267(2)
C5 C 0.7536(7) 0.1066(4) 0.1323(3)
C6 C 1.1311(6) 0.0251(4) 0.2090(2)
C7 C 0.7489(7) -0.0282(3) 0.0527(2)
C8 C 0.7993(6) 0.2196(4) 0.1210(2)
C9 C 0.7967(7) 0.0659(5) 0.1998(3)
C10 C 0.8737(14) -0.2037(5) -0.0834(3)
C11 C 1.0138(7) 0.2094(4) 0.2157(2)
C12 C 0.9630(8) 0.4009(5) 0.0743(3)
C13 C 0.7887(8) 0.2476(5) 0.0478(3)
C14 C 1.1310(12) -0.1179(5) -0.0501(4)
N1 N 1.1519(13) -0.2463(4) -0.1373(3)
O4 O 1.0711(10) -0.2914(4) -0.1804(2)
C15 C 0.8628(8) 0.3516(5) 0.0343(3)
O5 O 1.3100(11) -0.2453(5) -0.1319(3)
C16 C 0.777(1) -0.1519(4) -0.0378(3)
C17 C 1.2158(8) 0.3887(5) 0.1496(4)
C18 C 1.0331(9) -0.0664(4) -0.0047(3)
C19 C 1.1145(11) -0.0592(5) 0.1757(3)
C20 C 1.0488(11) -0.1873(4) -0.0889(3)
C21 C 0.6594(9) 0.2822(6) 0.1577(4)
C22 C 1.3052(8) 0.0525(5) 0.2379(4)
H24 H 1.38730 -0.00270 0.23090
H25 H 1.29180 0.06420 0.28410
H26 H 1.34920 0.11380 0.21740
H27 H 0.657(8) -0.164(4) -0.035(3)
#END
