
#######################################################################
#
#                 Cambridge Crystallographic Data Centre
#                                CCDC
#
#######################################################################
#
# If this CIF has been generated from an entry in the Cambridge
# Structural Database, then it will include bibliographic, chemical,
# crystal, experimental, refinement or atomic coordinate data resulting
# from the CCDC's data processing and validation procedures.
#
#######################################################################

data_CSD_CIF_ULABAM
_audit_creation_date 2016-04-27
_audit_creation_method CSD-ConQuest-V1
_database_code_CSD ULABAM
_database_code_depnum_ccdc_archive 'CCDC 1037784'
_chemical_formula_sum 'C6 H9 N5 O2'
_chemical_formula_moiety
;
C6 H9 N5 O2
;
_journal_coden_Cambridge 444
_journal_volume 85
_journal_year 2015
_journal_page_first 1623
_journal_name_full 'Zh.Obshch.Khim.(Russ.)(Russ.J.Gen.Chem.) '
loop_
_publ_author_name
"O.Yu.Ozerova"
"T.P.Efimova"
"T.A.Novikova"
"V.V.Gurzhii"
"V.M.Berestovitskaya"
_chemical_name_systematic
;
3,5-dimethyl-N'-nitro-1H-pyrazole-1-carboximidamide
;
_cell_volume   1232.598
_exptl_crystal_colour 'colorless'
_exptl_crystal_density_diffrn 1.481
_exptl_crystal_description 'prism'
_diffrn_ambient_temperature 100
#These two values have been output from a single CSD field.
_refine_ls_R_factor_gt 0.0475
_refine_ls_wR_factor_gt 0.0475
_symmetry_cell_setting triclinic
_symmetry_space_group_name_H-M 'P -1'
_symmetry_Int_Tables_number 2
loop_
_symmetry_equiv_pos_site_id
_symmetry_equiv_pos_as_xyz
1 x,y,z
2 -x,-y,-z
_cell_length_a 8.5457(7)
_cell_length_b 11.8721(8)
_cell_length_c 12.6530(7)
_cell_angle_alpha 105.533(5)
_cell_angle_beta 93.338(6)
_cell_angle_gamma 92.345(6)
_cell_formula_units_Z 6
loop_
_atom_type_symbol
_atom_type_radius_bond
C 0.68
H 0.23
N 0.68
O 0.68
loop_
_atom_site_label
_atom_site_type_symbol
_atom_site_fract_x
_atom_site_fract_y
_atom_site_fract_z
O1 O 0.53591(15) 0.51305(11) 0.82588(11)
O2 O 0.57443(15) 0.63859(11) 0.98699(10)
N1 N 0.25688(17) 0.75134(12) 0.74639(11)
N2 N 0.17653(17) 0.73183(13) 0.64453(12)
N3 N 0.36908(17) 0.57718(13) 0.67629(12)
H1 H 0.42880 0.52190 0.68110
H2 H 0.31780 0.57420 0.61500
N4 N 0.42213(17) 0.69032(13) 0.86468(12)
N5 N 0.51451(17) 0.60943(13) 0.89163(12)
C1 C 0.0927(2) 0.82466(15) 0.65317(14)
C2 C 0.1180(2) 0.90489(16) 0.75893(14)
H3 H 0.07160 0.97580 0.78360
C3 C 0.2235(2) 0.85795(15) 0.81747(14)
C4 C 0.2924(2) 0.90755(16) 0.93233(14)
H4 H 0.25830 0.85900 0.97730
H5 H 0.25830 0.98530 0.96080
H6 H 0.40480 0.91030 0.93290
C5 C -0.0138(2) 0.83640(17) 0.55909(15)
H7 H 0.02590 0.79480 0.49100
H8 H -0.01880 0.91770 0.56140
H9 H -0.11710 0.80430 0.56450
C6 C 0.3562(2) 0.66566(15) 0.76215(14)
O3 O 0.47503(15) 0.64292(11) 0.4163(1)
O4 O 0.66655(15) 0.62078(11) 0.52814(11)
N6 N 0.44200(16) 0.96229(13) 0.63060(11)
N7 N 0.33529(17) 1.04184(13) 0.61321(12)
N8 N 0.35390(17) 0.84599(13) 0.46031(11)
H10 H 0.35300 0.78340 0.40680
H11 H 0.29370 0.90100 0.45560
N9 N 0.54944(17) 0.78579(13) 0.57568(12)
N10 N 0.56214(17) 0.67941(13) 0.50248(12)
C7 C 0.3536(2) 1.12990(15) 0.70334(14)
C8 C 0.4706(2) 1.10932(15) 0.77929(14)
H12 H 0.50290 1.15900 0.84810
C9 C 0.5264(2) 1.00337(15) 0.73240(14)
C10 C 0.6525(2) 0.94158(16) 0.77631(15)
H13 H 0.60910 0.86930 0.78570
H14 H 0.69650 0.99020 0.84590
H15 H 0.73330 0.92550 0.72560
C11 C 0.2589(2) 1.23543(16) 0.71691(16)
H16 H 0.20480 1.23370 0.64780
H17 H 0.32740 1.30500 0.74120
H18 H 0.18380 1.23540 0.77050
C12 C 0.4467(2) 0.85745(15) 0.54882(14)
O5 O 0.25969(15) 0.69372(11) 1.23473(10)
O6 O 0.12675(15) 0.85005(11) 1.27564(10)
N11 N 0.04205(17) 0.63099(12) 0.92886(12)
N12 N 0.07054(17) 0.53559(13) 0.84270(12)
N13 N 0.22266(17) 0.56214(13) 1.03360(12)
H19 H 0.27890 0.56620 1.09330
H20 H 0.22990 0.50440 0.97650
N14 N 0.09394(17) 0.74071(13) 1.10551(12)
N15 N 0.16443(17) 0.76038(13) 1.20874(12)
C13 C -0.0256(2) 0.54414(15) 0.76003(14)
C14 C -0.1166(2) 0.64319(16) 0.79058(15)
H21 H -0.19170 0.66640 0.74580
C15 C -0.0734(2) 0.69807(15) 0.89777(15)
C16 C -0.1323(2) 0.80694(16) 0.96905(15)
H22 H -0.17110 0.79100 1.03360
H23 H -0.21560 0.83350 0.92920
H24 H -0.04830 0.86650 0.99030
C17 C -0.0289(2) 0.45754(17) 0.64928(15)
H25 H 0.00220 0.49680 0.59600
H26 H -0.13330 0.42250 0.62870
H27 H 0.04230 0.39780 0.65220
C18 C 0.1260(2) 0.64413(15) 1.02969(14)
#END
