
#######################################################################
#
#                 Cambridge Crystallographic Data Centre
#                                CCDC
#
#######################################################################
#
# If this CIF has been generated from an entry in the Cambridge
# Structural Database, then it will include bibliographic, chemical,
# crystal, experimental, refinement or atomic coordinate data resulting
# from the CCDC's data processing and validation procedures.
#
#######################################################################

data_CSD_CIF_ULAKUN
_audit_creation_date 2004-01-28
_audit_creation_method CSD-ConQuest-V1
_database_code_CSD ULAKUN
_database_code_depnum_ccdc_archive 'CCDC 220437'
_chemical_formula_sum 'C18 H30 N2 O5'
_chemical_formula_moiety
;
C18 H30 N2 O5
;
_journal_coden_Cambridge 35
_journal_volume 68
_journal_year 2003
_journal_page_first 6591
_journal_name_full 'J.Org.Chem. '
loop_
_publ_author_name
"T.Mineno"
"M.J.Miller"
_chemical_name_systematic
;
(+-)-Methyl 
4-t-butoxycarbonylamino-3-(1-ethylpropyl)-4,5,6,6a-tetrahydro-3aH-cyclopenta[d
]isoxazole-6-carboxylate
;
_chemical_melting_point 380.15
_cell_volume   1939.385
_exptl_crystal_density_diffrn 1.214
_exptl_special_details
;
Melting point range 380.15-382.15K

;
_exptl_crystal_preparation 'hexanes/dichloromethane'
_diffrn_ambient_temperature 100
#These two values have been output from a single CSD field.
_refine_ls_R_factor_gt 0.0477
_refine_ls_wR_factor_gt 0.0477
_symmetry_cell_setting triclinic
_symmetry_space_group_name_H-M 'P -1'
_symmetry_Int_Tables_number 2
loop_
_symmetry_equiv_pos_site_id
_symmetry_equiv_pos_as_xyz
1 x,y,z
2 -x,-y,-z
_cell_length_a 10.4329(6)
_cell_length_b 12.6758(7)
_cell_length_c 15.2821(8)
_cell_angle_alpha 76.440(1)
_cell_angle_beta 83.586(1)
_cell_angle_gamma 82.105(1)
_cell_formula_units_Z 4
loop_
_atom_type_symbol
_atom_type_radius_bond
C 0.68
H 0.23
N 0.68
O 0.68
loop_
_atom_site_label
_atom_site_type_symbol
_atom_site_fract_x
_atom_site_fract_y
_atom_site_fract_z
N1 N -0.1620(1) 0.3107(1) 0.2413(1)
O1 O -0.1122(1) 0.1991(1) 0.2425(1)
C1 C -0.0716(1) 0.3716(1) 0.2115(1)
N2 N 0.2315(1) 0.3992(1) 0.0820(1)
C2 C 0.0574(1) 0.3109(1) 0.1881(1)
O2 O 0.1495(1) 0.5676(1) 0.0052(1)
C3 C 0.1157(1) 0.3460(1) 0.0884(1)
O3 O 0.3399(1) 0.5392(1) 0.0721(1)
O4 O -0.0445(1) 0.0036(1) 0.1582(1)
C4 C 0.1399(1) 0.2388(1) 0.0556(1)
O5 O 0.1306(1) 0.0119(1) 0.0586(1)
C5 C 0.0282(1) 0.1756(1) 0.1041(1)
C6 C 0.0190(1) 0.1958(1) 0.2003(1)
C7 C -0.0967(1) 0.4936(1) 0.2013(1)
C8 C -0.2347(1) 0.5273(1) 0.2386(1)
C9 C -0.2671(2) 0.6496(1) 0.2326(1)
C10 C 0.0098(1) 0.5362(1) 0.2411(1)
C11 C 0.0111(2) 0.4988(1) 0.3429(1)
C12 C 0.2322(1) 0.5080(1) 0.0490(1)
C13 C 0.3673(1) 0.6535(1) 0.0430(1)
C14 C 0.3876(1) 0.6839(1) -0.0596(1)
C15 C 0.2606(1) 0.7278(1) 0.0817(1)
C16 C 0.4935(1) 0.6504(1) 0.0850(1)
C17 C 0.0462(1) 0.0561(1) 0.1025(1)
C18 C -0.0367(2) -0.1118(1) 0.1632(1)
N3 N 0.3540(1) 0.1655(1) 0.2434(1)
O6 O 0.3629(1) 0.2781(1) 0.2420(1)
C19 C 0.4600(1) 0.1085(1) 0.2682(1)
N4 N 0.7287(1) 0.0811(1) 0.3939(1)
O7 O 0.6777(1) -0.0763(1) 0.4919(1)
C20 C 0.5587(1) 0.1725(1) 0.2898(1)
O8 O 0.8827(1) -0.0557(1) 0.4248(1)
C21 C 0.5983(1) 0.1361(1) 0.3885(1)
O9 O 0.3595(1) 0.4310(1) 0.4610(1)
C22 C 0.5766(1) 0.2429(1) 0.4223(1)
O10 O 0.4553(1) 0.4962(1) 0.3254(1)
C23 C 0.4529(1) 0.3015(1) 0.3779(1)
C24 C 0.4805(1) 0.2850(1) 0.2815(1)
C25 C 0.4813(1) -0.0130(1) 0.2768(1)
C26 C 0.3573(1) -0.0604(1) 0.2688(1)
C27 C 0.3755(2) -0.1847(1) 0.2852(1)
C28 C 0.5954(2) -0.0433(1) 0.2110(2)
C29 C 0.5678(3) -0.0137(2) 0.1133(2)
C30 C 0.7552(1) -0.0223(1) 0.4418(1)
C31 C 0.9404(1) -0.1627(1) 0.4735(1)
C32 C 0.9274(1) -0.1683(1) 0.5744(1)
C33 C 1.0823(1) -0.1624(1) 0.4370(1)
C34 C 0.8820(2) -0.2535(1) 0.4476(1)
C35 C 0.4237(1) 0.4199(1) 0.3824(1)
C36 C 0.3287(2) 0.5420(1) 0.4720(1)
H1 H 0.30370 0.35960 0.10020
H2 H 0.12180 0.31220 0.23150
H3 H 0.04920 0.39710 0.05230
H4 H 0.13770 0.25290 -0.01080
H5 H 0.22480 0.19830 0.07250
H6 H -0.05360 0.21020 0.07560
H7 H 0.07920 0.14050 0.23890
H8 H -0.09100 0.52670 0.13510
H9 H -0.29700 0.50330 0.20510
H10 H -0.24670 0.48850 0.30270
H11 H -0.35650 0.66450 0.25790
H12 H -0.25840 0.68880 0.16920
H13 H -0.20740 0.67410 0.26680
H14 H 0.09530 0.51170 0.21280
H15 H -0.00220 0.61710 0.22490
H16 H 0.08090 0.52940 0.36320
H17 H 0.02580 0.41880 0.35950
H18 H -0.07250 0.52400 0.37170
H19 H 0.45740 0.63310 -0.08040
H20 H 0.41120 0.75850 -0.07900
H21 H 0.30720 0.67950 -0.08550
H22 H 0.18000 0.72930 0.05380
H23 H 0.28600 0.80180 0.06920
H24 H 0.24680 0.70020 0.14720
H25 H 0.56140 0.60210 0.05950
H26 H 0.48080 0.62280 0.15050
H27 H 0.51950 0.72420 0.07230
H28 H -0.10660 -0.14240 0.20590
H29 H 0.04750 -0.14750 0.18380
H30 H -0.04570 -0.12410 0.10330
H31 H 0.79350 0.11620 0.36500
H32 H 0.63650 0.17470 0.24510
H33 H 0.53670 0.08530 0.42470
H34 H 0.65090 0.28620 0.40190
H35 H 0.56290 0.22830 0.48900
H36 H 0.37730 0.26210 0.40760
H37 H 0.53030 0.34340 0.24270
H38 H 0.50800 -0.04600 0.33910
H39 H 0.28840 -0.03800 0.31300
H40 H 0.32780 -0.02960 0.20760
H41 H 0.29350 -0.21060 0.27880
H42 H 0.40210 -0.21590 0.34630
H43 H 0.44250 -0.20750 0.24100
H44 H 0.67020 -0.00640 0.21800
H45 H 0.62130 -0.12300 0.22830
H46 H 0.64540 -0.03530 0.07630
H47 H 0.54400 0.06530 0.09480
H48 H 0.49600 -0.05190 0.10500
H49 H 0.96650 -0.10760 0.58640
H50 H 0.97200 -0.23770 0.60580
H51 H 0.83530 -0.16320 0.59630
H52 H 1.11890 -0.10360 0.45410
H53 H 1.08860 -0.15060 0.37110
H54 H 1.13080 -0.23270 0.46250
H55 H 0.79080 -0.25310 0.47160
H56 H 0.93010 -0.32410 0.47290
H57 H 0.88740 -0.24180 0.38160
H58 H 0.28180 0.54190 0.53130
H59 H 0.27420 0.58390 0.42450
H60 H 0.40910 0.57540 0.46770
#END
