
#######################################################################
#
#                 Cambridge Crystallographic Data Centre
#                                CCDC
#
#######################################################################
#
# If this CIF has been generated from an entry in the Cambridge
# Structural Database, then it will include bibliographic, chemical,
# crystal, experimental, refinement or atomic coordinate data resulting
# from the CCDC's data processing and validation procedures.
#
#######################################################################

data_CSD_CIF_ULANAW
_audit_creation_date 2004-01-28
_audit_creation_method CSD-ConQuest-V1
_database_code_CSD ULANAW
_database_code_depnum_ccdc_archive 'CCDC 220488'
_chemical_formula_sum 'C34 H20 N2 O8'
_chemical_formula_moiety
;
C34 H20 N2 O8
;
_journal_coden_Cambridge 35
_journal_volume 68
_journal_year 2003
_journal_page_first 5500
_journal_name_full 'J.Org.Chem. '
loop_
_publ_author_name
"Xiaolin Li"
"J.B.Hewgley"
"C.A.Mulrooney"
"J.Yang"
"M.C.Kozlowski"
_chemical_name_systematic
;
3,3'-bis(4-Nitrobenzoyl)-binaphthyl-2,2'-diol
;
_cell_volume   1328.259
_exptl_crystal_density_diffrn 1.462
_diffrn_ambient_temperature 143
#These two values have been output from a single CSD field.
_refine_ls_R_factor_gt 0.0367
_refine_ls_wR_factor_gt 0.0367
_symmetry_cell_setting monoclinic
_symmetry_space_group_name_H-M 'P 21'
_symmetry_Int_Tables_number 4
loop_
_symmetry_equiv_pos_site_id
_symmetry_equiv_pos_as_xyz
1 x,y,z
2 -x,1/2+y,-z
_cell_length_a 12.411(3)
_cell_length_b 7.973(2)
_cell_length_c 13.496(3)
_cell_angle_alpha 90
_cell_angle_beta 95.956(5)
_cell_angle_gamma 90
_cell_formula_units_Z 2
loop_
_atom_type_symbol
_atom_type_radius_bond
C 0.68
H 0.23
N 0.68
O 0.68
loop_
_atom_site_label
_atom_site_type_symbol
_atom_site_fract_x
_atom_site_fract_y
_atom_site_fract_z
C1 C 0.5042(2) 0.2045(3) 0.1754(2)
C2 C 0.5546(2) 0.2216(3) 0.0860(2)
C3 C 0.6677(2) 0.2441(3) 0.0860(2)
H1 H 0.7110(2) 0.2511(3) 0.1464(2)
C4 C 0.7144(2) 0.2558(3) -0.0009(2)
H2 H 0.7891(2) 0.2690(3) 0.0012(2)
C5 C 0.6512(2) 0.2482(3) -0.0940(2)
H3 H 0.6839(2) 0.2566(3) -0.1528(2)
C6 C 0.5425(2) 0.2285(3) -0.0971(2)
H4 H 0.5009(2) 0.2241(3) -0.1584(2)
C7 C 0.4908(2) 0.2146(3) -0.0084(2)
C8 C 0.3788(2) 0.1955(3) -0.0106(2)
H5 H 0.3370(2) 0.1917(3) -0.0719(2)
C9 C 0.3280(2) 0.1820(3) 0.0753(2)
C10 C 0.3941(2) 0.1806(3) 0.1698(2)
C11 C 0.2104(2) 0.1595(3) 0.0716(2)
C12 C 0.1355(2) 0.2071(3) -0.0190(2)
C13 C 0.1546(2) 0.3422(3) -0.0801(2)
H6 H 0.2167(2) 0.4068(3) -0.0663(2)
C14 C 0.0810(2) 0.3811(3) -0.1617(2)
H7 H 0.0935(2) 0.4707(3) -0.2032(2)
C15 C -0.0108(2) 0.2842(3) -0.1800(2)
C16 C -0.0331(2) 0.1518(3) -0.1192(2)
H8 H -0.0963(2) 0.0894(3) -0.1323(2)
C17 C 0.0407(2) 0.1146(3) -0.0385(2)
H9 H 0.0269(2) 0.0264(3) 0.0034(2)
C18 C 0.5715(2) 0.2084(3) 0.2742(2)
C19 C 0.5688(2) 0.3496(3) 0.3391(2)
C20 C 0.4977(2) 0.4869(3) 0.3179(2)
H10 H 0.4517(2) 0.4876(3) 0.2590(2)
C21 C 0.4958(2) 0.6181(3) 0.3825(2)
H11 H 0.4488(2) 0.7071(3) 0.3665(2)
C22 C 0.5638(2) 0.6215(4) 0.4731(2)
H12 H 0.5611(2) 0.7115(4) 0.5166(2)
C23 C 0.6330(2) 0.4922(3) 0.4962(2)
H13 H 0.6777(2) 0.4941(3) 0.5560(2)
C24 C 0.6383(2) 0.3539(3) 0.4304(2)
C25 C 0.7083(2) 0.2187(3) 0.4544(2)
H14 H 0.7543(2) 0.2220(3) 0.5133(2)
C26 C 0.7105(2) 0.0810(3) 0.3928(2)
C27 C 0.6394(2) 0.0770(3) 0.3013(2)
C28 C 0.7800(2) -0.0624(3) 0.4212(2)
C29 C 0.8600(2) -0.0569(3) 0.5130(2)
C30 C 0.8451(2) -0.1634(3) 0.5916(2)
H15 H 0.7823(2) -0.2275(3) 0.5902(2)
C31 C 0.9228(2) -0.1746(3) 0.6718(2)
H16 H 0.9129(2) -0.2442(3) 0.7254(2)
C32 C 1.0151(2) -0.0806(3) 0.6708(2)
C33 C 1.0325(2) 0.0281(3) 0.5946(2)
H17 H 1.0959(2) 0.0907(3) 0.5962(2)
C34 C 0.9524(2) 0.0406(3) 0.5160(2)
H18 H 0.9607(2) 0.1154(3) 0.4644(2)
N1 N -0.0882(2) 0.3217(3) -0.26771(14)
N2 N 1.1000(2) -0.0969(3) 0.75509(14)
O1 O 0.34816(12) 0.1562(3) 0.25597(11)
H19 H 0.2841(7) 0.132(4) 0.24294(11)
O2 O 0.16827(12) 0.1025(2) 0.14377(11)
O3 O -0.0638(2) 0.4309(3) -0.32495(13)
O4 O -0.17246(14) 0.2412(3) -0.27916(12)
O5 O 0.64077(13) -0.0567(2) 0.23935(11)
H20 H 0.683(2) -0.128(2) 0.2649(9)
O6 O 0.7757(2) -0.1933(2) 0.37239(12)
O7 O 1.08675(14) -0.2038(3) 0.81891(13)
O8 O 1.17803(14) -0.0029(3) 0.75913(13)
#END
