
#######################################################################
#
#                 Cambridge Crystallographic Data Centre
#                                CCDC
#
#######################################################################
#
# If this CIF has been generated from an entry in the Cambridge
# Structural Database, then it will include bibliographic, chemical,
# crystal, experimental, refinement or atomic coordinate data resulting
# from the CCDC's data processing and validation procedures.
#
#######################################################################

data_CSD_CIF_ULAQON
_audit_creation_date 2004-01-28
_audit_creation_method CSD-ConQuest-V1
_database_code_CSD ULAQON
_database_code_depnum_ccdc_archive 'CCDC 205439'
_chemical_formula_sum 'C17 H22 N2 O6'
_chemical_formula_moiety
;
C17 H22 N2 O6
;
_journal_coden_Cambridge 177
_journal_volume 1
_journal_year 2003
_journal_page_first 3094
_journal_name_full 'Org.Biomol.Chem. '
loop_
_publ_author_name
"M.Spiniello"
"J.M.White"
_chemical_name_systematic
;
cis-4-t-Butylcyclohexyl 2,4-dinitrobenzoate
;
_chemical_melting_point 362.65
_cell_volume   1705.901
_exptl_crystal_colour 'yellow'
_exptl_crystal_density_diffrn 1.364
_exptl_special_details
;
Melting point range 362.65-363.65K

;
_exptl_crystal_description 'slabs'
_exptl_crystal_preparation 'diethyl ether'
_diffrn_ambient_temperature 130.0
#These two values have been output from a single CSD field.
_refine_ls_R_factor_gt 0.0421
_refine_ls_wR_factor_gt 0.0421
_symmetry_cell_setting monoclinic
_symmetry_space_group_name_H-M 'P 21/c'
_symmetry_Int_Tables_number 14
loop_
_symmetry_equiv_pos_site_id
_symmetry_equiv_pos_as_xyz
1 x,y,z
2 x,1/2-y,1/2+z
3 -x,-y,-z
4 -x,-1/2+y,-1/2-z
_cell_length_a 15.388(5)
_cell_length_b 7.129(1)
_cell_length_c 16.839(6)
_cell_angle_alpha 90
_cell_angle_beta 112.56(3)
_cell_angle_gamma 90
_cell_formula_units_Z 4
loop_
_atom_type_symbol
_atom_type_radius_bond
C 0.68
H 0.23
N 0.68
O 0.68
loop_
_atom_site_label
_atom_site_type_symbol
_atom_site_fract_x
_atom_site_fract_y
_atom_site_fract_z
C1 C 0.72333(14) 0.5798(3) 0.05189(13)
H1 H 0.73340 0.45540 0.02930
C2 C 0.61885(14) 0.6181(3) 0.02241(13)
H2 H 0.58800 0.50810 0.03630
H3 H 0.59210 0.63390 -0.04080
C3 C 0.59658(13) 0.7923(3) 0.06375(12)
H4 H 0.52750 0.80400 0.04550
H5 H 0.61960 0.90490 0.04340
C4 C 0.64212(13) 0.7838(3) 0.16209(12)
H6 H 0.61780 0.66770 0.17980
C5 C 0.74868(13) 0.7566(3) 0.18905(12)
H7 H 0.77530 0.86810 0.17150
H8 H 0.77850 0.74660 0.25250
C6 C 0.77208(14) 0.5819(3) 0.14896(12)
H9 H 0.84100 0.57570 0.16490
H10 H 0.75310 0.46930 0.17270
C7 C 0.61510(13) 0.9508(3) 0.20753(12)
C8 C 0.64759(15) 1.1391(3) 0.18508(14)
H11 H 0.71590 1.13640 0.20090
H12 H 0.63160 1.23970 0.21670
H13 H 0.61620 1.16180 0.12320
C9 C 0.66088(15) 0.9241(3) 0.30551(13)
H14 H 0.72940 0.91930 0.32360
H15 H 0.63860 0.80670 0.32130
H16 H 0.64380 1.02940 0.33410
C10 C 0.50833(14) 0.9561(3) 0.18173(14)
H17 H 0.49170 1.06240 0.21010
H18 H 0.48750 0.83910 0.19940
H19 H 0.47740 0.97030 0.11920
C11 C 0.84148(13) 0.6946(3) 0.00463(12)
C12 C 0.86919(13) 0.8504(3) -0.04093(11)
C13 C 0.83455(12) 1.0331(3) -0.04923(11)
C14 C 0.85605(13) 1.1673(3) -0.09753(12)
H20 H 0.83080 1.29050 -0.10330
C15 C 0.91591(13) 1.1152(3) -0.13733(12)
C16 C 0.95376(13) 0.9374(3) -0.13050(12)
H21 H 0.99520 0.90630 -0.15830
C17 C 0.92966(13) 0.8056(3) -0.08198(12)
H22 H 0.95480 0.68240 -0.07660
N1 N 0.77733(11) 1.0995(2) -0.00208(11)
N2 N 0.94115(12) 1.2581(2) -0.18833(11)
O1 O 0.76166(9) 0.73029(18) 0.01427(8)
O2 O 0.88637(10) 0.5506(2) 0.02498(10)
O3 O 0.81521(10) 1.1043(2) 0.07652(9)
O4 O 0.69733(10) 1.1520(2) -0.04435(10)
O5 O 0.90349(11) 1.4123(2) -0.19672(10)
O6 O 0.99891(13) 1.2138(2) -0.21819(12)
#END
