
#######################################################################
#
#                 Cambridge Crystallographic Data Centre
#                                CCDC
#
#######################################################################
#
# If this CIF has been generated from an entry in the Cambridge
# Structural Database, then it will include bibliographic, chemical,
# crystal, experimental, refinement or atomic coordinate data resulting
# from the CCDC's data processing and validation procedures.
#
#######################################################################

data_CSD_CIF_ULARII
_audit_creation_date 2004-01-28
_audit_creation_method CSD-ConQuest-V1
_database_code_CSD ULARII
_database_code_depnum_ccdc_archive 'CCDC 205443'
_chemical_formula_sum 'C16 H23 N1 O3'
_chemical_formula_moiety
;
C16 H23 N1 O3
;
_journal_coden_Cambridge 177
_journal_volume 1
_journal_year 2003
_journal_page_first 3094
_journal_name_full 'Org.Biomol.Chem. '
loop_
_publ_author_name
"M.Spiniello"
"J.M.White"
_chemical_name_systematic
;
cis-4-t-Butylcyclohexyl 4-nitrophenoxide
;
_chemical_melting_point 353.15
_cell_volume    745.278
_exptl_crystal_colour 'yellow'
_exptl_crystal_density_diffrn 1.236
_exptl_special_details
;
Melting point range 353.15-356.15K

;
_exptl_crystal_description 'plates'
_exptl_crystal_preparation 'methanol'
_diffrn_ambient_temperature 130.0
#These two values have been output from a single CSD field.
_refine_ls_R_factor_gt 0.0439
_refine_ls_wR_factor_gt 0.0439
_symmetry_cell_setting triclinic
_symmetry_space_group_name_H-M 'P -1'
_symmetry_Int_Tables_number 2
loop_
_symmetry_equiv_pos_site_id
_symmetry_equiv_pos_as_xyz
1 x,y,z
2 -x,-y,-z
_cell_length_a 6.179(2)
_cell_length_b 11.071(3)
_cell_length_c 11.130(2)
_cell_angle_alpha 100.57(2)
_cell_angle_beta 90.17(2)
_cell_angle_gamma 95.16(2)
_cell_formula_units_Z 2
loop_
_atom_type_symbol
_atom_type_radius_bond
C 0.68
H 0.23
N 0.68
O 0.68
loop_
_atom_site_label
_atom_site_type_symbol
_atom_site_fract_x
_atom_site_fract_y
_atom_site_fract_z
C1 C 0.3865(3) 0.07958(15) 0.85672(14)
H1 H 0.45090 0.11440 0.93970
C2 C 0.1834(3) -0.00456(16) 0.86885(15)
H2 H 0.07080 0.04570 0.90980
H3 H 0.21740 -0.06360 0.92150
C3 C 0.0918(3) -0.07673(15) 0.74619(15)
H4 H 0.04250 -0.01850 0.69650
H5 H -0.03580 -0.13280 0.76050
C4 C 0.2623(2) -0.15245(14) 0.67575(14)
H6 H 0.31320 -0.20670 0.73060
C5 C 0.4576(3) -0.06245(15) 0.65725(14)
H7 H 0.57110 -0.10930 0.61260
H8 H 0.41150 -0.00430 0.60650
C6 C 0.5537(3) 0.01078(15) 0.77855(15)
H9 H 0.61640 -0.04650 0.82480
H10 H 0.67310 0.07080 0.76160
C7 C 0.1731(3) -0.23881(15) 0.55625(15)
C8 C 0.3532(3) -0.31444(18) 0.49629(17)
H11 H 0.40940 -0.36120 0.55440
H12 H 0.47120 -0.25880 0.47270
H13 H 0.29410 -0.37170 0.42350
C9 C 0.0866(3) -0.16610(18) 0.46449(16)
H14 H 0.20310 -0.10740 0.44450
H15 H -0.03420 -0.12110 0.50050
H16 H 0.03550 -0.22330 0.38990
C10 C -0.0119(3) -0.32990(17) 0.58622(17)
H17 H 0.04110 -0.37710 0.64480
H18 H -0.06270 -0.38650 0.51120
H19 H -0.13220 -0.28430 0.62180
C11 C 0.4309(3) 0.29030(15) 0.82239(14)
C12 C 0.6414(3) 0.31271(15) 0.87319(15)
H20 H 0.71230 0.24740 0.89600
C13 C 0.7453(3) 0.43071(16) 0.89000(15)
H21 H 0.88850 0.44660 0.92400
C14 C 0.6412(3) 0.52519(15) 0.85750(14)
C15 C 0.4310(3) 0.50498(15) 0.80790(14)
H22 H 0.35940 0.57120 0.78770
C16 C 0.3292(3) 0.38710(16) 0.78880(15)
H23 H 0.18790 0.37140 0.75230
N1 N 0.7489(2) 0.65006(13) 0.88015(12)
O1 O 0.31333(18) 0.17921(10) 0.80173(10)
O2 O 0.6475(2) 0.73451(11) 0.85959(12)
O3 O 0.9383(2) 0.66542(12) 0.91877(13)
#END
