
#######################################################################
#
#                 Cambridge Crystallographic Data Centre
#                                CCDC
#
#######################################################################
#
# If this CIF has been generated from an entry in the Cambridge
# Structural Database, then it will include bibliographic, chemical,
# crystal, experimental, refinement or atomic coordinate data resulting
# from the CCDC's data processing and validation procedures.
#
#######################################################################

data_CSD_CIF_ULASEF
_audit_creation_date 2004-01-28
_audit_creation_method CSD-ConQuest-V1
_database_code_CSD ULASEF
_database_code_depnum_ccdc_archive 'CCDC 205447'
_chemical_formula_sum 'C16 H19 N1 O3'
_chemical_formula_moiety
;
C16 H19 N1 O3
;
_journal_coden_Cambridge 177
_journal_volume 1
_journal_year 2003
_journal_page_first 3094
_journal_name_full 'Org.Biomol.Chem. '
loop_
_publ_author_name
"M.Spiniello"
"J.M.White"
_chemical_name_systematic
;
2-Adamantyl 4-nitrophenoxide
;
_chemical_melting_point 357.15
_cell_volume    668.494
_exptl_crystal_colour 'yellow'
_exptl_crystal_density_diffrn 1.358
_exptl_special_details
;
Melting point range 357.15-358.65K

;
_exptl_crystal_description 'blocks'
_exptl_crystal_preparation 'methanol'
_diffrn_ambient_temperature 130.0
#These two values have been output from a single CSD field.
_refine_ls_R_factor_gt 0.0355
_refine_ls_wR_factor_gt 0.0355
_symmetry_cell_setting triclinic
_symmetry_space_group_name_H-M 'P -1'
_symmetry_Int_Tables_number 2
loop_
_symmetry_equiv_pos_site_id
_symmetry_equiv_pos_as_xyz
1 x,y,z
2 -x,-y,-z
_cell_length_a 6.767(2)
_cell_length_b 9.556(3)
_cell_length_c 10.887(3)
_cell_angle_alpha 99.43(3)
_cell_angle_beta 90.68(2)
_cell_angle_gamma 105.38(2)
_cell_formula_units_Z 2
loop_
_atom_type_symbol
_atom_type_radius_bond
C 0.68
H 0.23
N 0.68
O 0.68
loop_
_atom_site_label
_atom_site_type_symbol
_atom_site_fract_x
_atom_site_fract_y
_atom_site_fract_z
C1 C 0.48825(16) 0.63447(11) 0.69257(10)
C2 C 0.34849(16) 0.69076(12) 0.78584(10)
C3 C 0.39468(17) 0.85886(12) 0.79987(10)
C4 C 0.62073(18) 0.93109(12) 0.84273(11)
C5 C 0.75913(17) 0.87597(13) 0.74688(11)
C6 C 0.71412(17) 0.70787(13) 0.73553(11)
C7 C 0.44371(18) 0.67279(12) 0.56558(10)
C8 C 0.48815(18) 0.84055(12) 0.57682(10)
C9 C 0.34885(18) 0.89566(13) 0.67191(11)
C10 C 0.71411(18) 0.91372(13) 0.61984(11)
C11 C 0.26685(16) 0.66067(11) 0.9981(1)
C12 C 0.33363(17) 0.63317(12) 1.11156(10)
C13 C 0.21936(17) 0.64610(12) 1.21493(10)
C14 C 0.03772(17) 0.68617(11) 1.20374(10)
C15 C -0.03125(17) 0.71279(12) 1.09216(11)
C16 C 0.08340(16) 0.70014(12) 0.98884(10)
N1 N -0.08397(15) 0.70039(10) 1.31250(9)
O1 O 0.38949(12) 0.64466(8) 0.90237(7)
O2 O -0.03123(15) 0.66393(11) 1.40805(8)
O3 O -0.23567(13) 0.74666(10) 1.30323(8)
H1 H 0.457(2) 0.5275(15) 0.6870(12)
H2 H 0.204(2) 0.6430(14) 0.7589(12)
H3 H 0.307(2) 0.8952(15) 0.8607(13)
H4 H 0.647(2) 1.0370(17) 0.8497(13)
H5 H 0.652(2) 0.9109(16) 0.9268(14)
H6 H 0.904(2) 0.9211(16) 0.7745(14)
H7 H 0.747(2) 0.6817(16) 0.8147(14)
H8 H 0.806(2) 0.6701(16) 0.6750(14)
H9 H 0.297(2) 0.6230(16) 0.5361(13)
H10 H 0.532(2) 0.6369(16) 0.5050(13)
H11 H 0.460(2) 0.8637(15) 0.4951(14)
H12 H 0.201(2) 0.8500(16) 0.6440(14)
H13 H 0.371(2) 1.0025(17) 0.6783(14)
H14 H 0.744(2) 1.0218(16) 0.6253(13)
H15 H 0.805(2) 0.8794(16) 0.5592(14)
H16 H 0.459(2) 0.6043(15) 1.1160(13)
H17 H 0.266(2) 0.6280(16) 1.2921(14)
H18 H -0.154(2) 0.7409(16) 1.0873(13)
H19 H 0.035(2) 0.7189(16) 0.9126(14)
#END
