
#######################################################################
#
#                 Cambridge Crystallographic Data Centre
#                                CCDC
#
#######################################################################
#
# If this CIF has been generated from an entry in the Cambridge
# Structural Database, then it will include bibliographic, chemical,
# crystal, experimental, refinement or atomic coordinate data resulting
# from the CCDC's data processing and validation procedures.
#
#######################################################################

data_CSD_CIF_ULASIJ
_audit_creation_date 2004-01-28
_audit_creation_method CSD-ConQuest-V1
_database_code_CSD ULASIJ
_database_code_depnum_ccdc_archive 'CCDC 205448'
_chemical_formula_sum 'C17 H18 N2 O6'
_chemical_formula_moiety
;
C17 H18 N2 O6
;
_journal_coden_Cambridge 177
_journal_volume 1
_journal_year 2003
_journal_page_first 3094
_journal_name_full 'Org.Biomol.Chem. '
loop_
_publ_author_name
"M.Spiniello"
"J.M.White"
_chemical_name_systematic
;
2-Adamantyl 2,4-dinitrobenzoate
;
_chemical_melting_point 407.15
_cell_volume   3166.337
_exptl_crystal_colour 'colorless'
_exptl_crystal_density_diffrn 1.453
_exptl_special_details
;
Melting point range 407.15-408.65K

;
_exptl_crystal_description 'blocks'
_exptl_crystal_preparation 'diethyl ether'
_diffrn_ambient_temperature 130.0
#These two values have been output from a single CSD field.
_refine_ls_R_factor_gt 0.0481
_refine_ls_wR_factor_gt 0.0481
_symmetry_cell_setting monoclinic
_symmetry_space_group_name_H-M 'P 21/c'
_symmetry_Int_Tables_number 14
loop_
_symmetry_equiv_pos_site_id
_symmetry_equiv_pos_as_xyz
1 x,y,z
2 x,1/2-y,1/2+z
3 -x,-y,-z
4 -x,-1/2+y,-1/2-z
_cell_length_a 29.1896(6)
_cell_length_b 7.0518(1)
_cell_length_c 15.4150(3)
_cell_angle_alpha 90
_cell_angle_beta 93.717(1)
_cell_angle_gamma 90
_cell_formula_units_Z 8
loop_
_atom_type_symbol
_atom_type_radius_bond
C 0.68
H 0.23
N 0.68
O 0.68
loop_
_atom_site_label
_atom_site_type_symbol
_atom_site_fract_x
_atom_site_fract_y
_atom_site_fract_z
O1 O 0.16332(5) 0.34452(19) 0.63848(10)
O2 O 0.20781(5) 0.1177(2) 0.58553(13)
O3 O 0.17829(5) 0.7574(2) 0.70084(10)
O4 O 0.16019(5) 0.7205(2) 0.56405(9)
O5 O 0.34177(5) 0.9811(2) 0.61348(10)
O6 O 0.38908(5) 0.7444(2) 0.61111(11)
N1 N 0.18643(6) 0.7037(2) 0.62829(11)
N2 N 0.35042(6) 0.8105(3) 0.61122(11)
C1 C 0.09771(8) 0.1855(3) 0.56135(15)
H1 H 0.11820 0.14210 0.51570
C2 C 0.12534(7) 0.2080(3) 0.64725(16)
H2 H 0.13830 0.08220 0.66600
C3 C 0.09557(8) 0.2837(3) 0.71676(15)
H3 H 0.11480 0.30350 0.77210
C4 C 0.07265(8) 0.4703(3) 0.68816(15)
H4 H 0.09640 0.56730 0.67920
H5 H 0.05320 0.51640 0.73400
C5 C 0.04322(8) 0.4396(3) 0.60358(15)
H6 H 0.02810 0.56150 0.58500
C6 C 0.07457(8) 0.3723(3) 0.53333(15)
H7 H 0.05620 0.35410 0.47770
H8 H 0.09820 0.46970 0.52440
C7 C 0.06068(8) 0.0338(3) 0.57497(16)
H9 H 0.04210 0.01210 0.51980
H10 H 0.07550 -0.08740 0.59300
C8 C 0.02963(7) 0.1014(3) 0.64505(16)
H11 H 0.00560 0.00340 0.65400
C9 C 0.05873(8) 0.1330(3) 0.73061(16)
H12 H 0.03880 0.17550 0.77640
H13 H 0.07360 0.01250 0.74980
C10 C 0.00651(8) 0.2889(3) 0.61768(16)
H14 H -0.01340 0.33180 0.66330
H15 H -0.01290 0.27040 0.56320
C11 C 0.20160(8) 0.2796(3) 0.60793(16)
C12 C 0.23829(7) 0.4266(3) 0.60507(14)
C13 C 0.23231(7) 0.6215(3) 0.61717(13)
C14 C 0.26810(7) 0.7484(3) 0.61905(13)
H16 H 0.26310 0.88020 0.62690
C15 C 0.31148(7) 0.6775(3) 0.60913(13)
C16 C 0.31969(7) 0.4873(3) 0.59606(14)
H17 H 0.34990 0.44220 0.58900
C17 C 0.28277(7) 0.3642(3) 0.59351(15)
H18 H 0.28790 0.23320 0.58360
O7 O 0.33594(5) 0.3406(2) 0.37032(11)
O8 O 0.28408(6) 0.1332(2) 0.31145(13)
O9 O 0.32788(5) 0.7081(2) 0.2923(1)
O10 O 0.33024(5) 0.7834(2) 0.42827(10)
O11 O 0.15825(5) 0.9861(2) 0.39295(10)
O12 O 0.10977(5) 0.7526(2) 0.38658(11)
N3 N 0.31195(6) 0.7100(2) 0.36337(12)
N4 N 0.14876(6) 0.8163(3) 0.38824(11)
C18 C 0.40169(8) 0.2569(4) 0.28477(16)
H19 H 0.38120 0.26410 0.23030
C19 C 0.37378(8) 0.2036(3) 0.36124(17)
H20 H 0.36050 0.07420 0.35110
C20 C 0.40343(8) 0.2026(4) 0.44472(16)
H21 H 0.38410 0.17420 0.49440
C21 C 0.42694(9) 0.3912(4) 0.45967(17)
H22 H 0.44610 0.38790 0.51500
H23 H 0.40360 0.49230 0.46390
C22 C 0.45697(8) 0.4346(3) 0.38462(18)
H24 H 0.47290 0.55870 0.39530
C23 C 0.42600(8) 0.4468(4) 0.30160(17)
H25 H 0.44450 0.47850 0.25200
H26 H 0.40300 0.54830 0.30720
C24 C 0.43744(9) 0.0992(4) 0.27699(19)
H27 H 0.45610 0.12540 0.22700
H28 H 0.42170 -0.02390 0.26670
C25 C 0.46876(8) 0.0887(3) 0.36121(16)
H29 H 0.49210 -0.01360 0.35590
C26 C 0.43930(8) 0.0443(4) 0.43702(18)
H30 H 0.45900 0.03560 0.49170
H31 H 0.42360 -0.07910 0.42710
C27 C 0.49278(8) 0.2778(3) 0.37629(18)
H32 H 0.51180 0.30630 0.32710
H33 H 0.51320 0.27180 0.43010
C28 C 0.29409(8) 0.2858(3) 0.34308(16)
C29 C 0.25812(7) 0.4321(3) 0.35710(14)
C30 C 0.26597(7) 0.6263(3) 0.36978(13)
C31 C 0.23112(7) 0.7524(3) 0.38293(13)
H34 H 0.23720 0.88360 0.39190
C32 C 0.18708(7) 0.6817(3) 0.38265(13)
C33 C 0.17718(7) 0.4910(3) 0.37264(14)
H35 H 0.14660 0.44550 0.37460
C34 C 0.21318(7) 0.3683(3) 0.35971(15)
H36 H 0.20700 0.23680 0.35240
#END
