
#######################################################################
#
#                 Cambridge Crystallographic Data Centre
#                                CCDC
#
#######################################################################
#
# If this CIF has been generated from an entry in the Cambridge
# Structural Database, then it will include bibliographic, chemical,
# crystal, experimental, refinement or atomic coordinate data resulting
# from the CCDC's data processing and validation procedures.
#
#######################################################################

data_CSD_CIF_ULAWAH
_audit_creation_date 2016-04-28
_audit_creation_method CSD-ConQuest-V1
_database_code_CSD ULAWAH
_database_code_depnum_ccdc_archive 'CCDC 617197'
_chemical_formula_sum 'C11 H12 N2 O3'
_chemical_formula_moiety
;
C11 H12 N2 O3
;
_journal_coden_Cambridge 122
_journal_volume 51
_journal_year 2015
_journal_page_first 553
_journal_name_full 'Khim.Get.Soedin.,SSSR(Russ.)(Chem.Heterocycl.Compd.) '
loop_
_publ_author_name
"V.G.Shtamburg"
"V.V.Shtamburg"
"A.A.Anishchenko"
"R.I.Zubatyuk"
"A.V.Mazepa"
"E.A.Klotz"
"S.V.Kravchenko"
"R.G.Kostyanovsky"
_chemical_name_systematic
;
3-ethoxy-5-phenylimidazolidine-2,4-dione
;
_chemical_name_common
;
3-ethoxy-5-phenylhydantoin
;
_cell_volume   1083.877
_exptl_crystal_density_diffrn 1.35
_diffrn_ambient_temperature 295
#These two values have been output from a single CSD field.
_refine_ls_R_factor_gt 0.0651
_refine_ls_wR_factor_gt 0.0651
_symmetry_cell_setting monoclinic
_symmetry_space_group_name_H-M 'P 21/c'
_symmetry_Int_Tables_number 14
loop_
_symmetry_equiv_pos_site_id
_symmetry_equiv_pos_as_xyz
1 x,y,z
2 -x,1/2+y,1/2-z
3 -x,-y,-z
4 x,-1/2-y,-1/2+z
_cell_length_a 12.0187(10)
_cell_length_b 8.7729(4)
_cell_length_c 11.1179(9)
_cell_angle_alpha 90
_cell_angle_beta 112.391(8)
_cell_angle_gamma 90
_cell_formula_units_Z 4
loop_
_atom_type_symbol
_atom_type_radius_bond
C 0.68
H 0.23
N 0.68
O 0.68
loop_
_atom_site_label
_atom_site_type_symbol
_atom_site_fract_x
_atom_site_fract_y
_atom_site_fract_z
O1 O 0.68687(15) 0.05806(18) 0.49364(15)
O2 O 0.58579(13) -0.14544(15) 0.62638(14)
O3 O 0.52247(16) 0.02935(18) 0.80187(17)
N1 N 0.61365(15) 0.00663(18) 0.65232(16)
N2 N 0.59242(18) 0.2335(2) 0.7205(2)
H1 H 0.56550 0.30420 0.75660
C1 C 0.64632(19) 0.2595(2) 0.6254(2)
H2 H 0.59200 0.32140 0.55370
C2 C 0.65275(17) 0.0985(2) 0.57698(19)
C3 C 0.56933(19) 0.0885(2) 0.7340(2)
C4 C 0.76911(18) 0.3329(2) 0.6794(2)
C5 C 0.8078(2) 0.4160(3) 0.5972(2)
H3 H 0.75720 0.42760 0.51040
C6 C 0.9199(3) 0.4818(3) 0.6417(3)
H4 H 0.94410 0.53790 0.58510
C7 C 0.9950(3) 0.4656(4) 0.7671(4)
H5 H 1.07120 0.50940 0.79620
C8 C 0.9591(3) 0.3842(4) 0.8523(3)
H6 H 1.01080 0.37370 0.93890
C9 C 0.8449(2) 0.3174(3) 0.8082(2)
H7 H 0.82010 0.26290 0.86540
C10 C 0.6921(2) -0.2404(3) 0.6755(3)
H8 H 0.74890 -0.20580 0.63850
H9 H 0.66980 -0.34430 0.64650
C11 C 0.7519(3) -0.2395(4) 0.8184(3)
H10 H 0.81850 -0.30920 0.84470
H11 H 0.69560 -0.27010 0.85600
H12 H 0.78060 -0.13870 0.84750
#END
