
#######################################################################
#
#                 Cambridge Crystallographic Data Centre
#                                CCDC
#
#######################################################################
#
# If this CIF has been generated from an entry in the Cambridge
# Structural Database, then it will include bibliographic, chemical,
# crystal, experimental, refinement or atomic coordinate data resulting
# from the CCDC's data processing and validation procedures.
#
#######################################################################

data_CSD_CIF_ULAWUB
_audit_creation_date 2016-04-28
_audit_creation_method CSD-ConQuest-V1
_database_code_CSD ULAWUB
_database_code_depnum_ccdc_archive 'CCDC 1051542'
_chemical_formula_sum 'C10 H10 N2 O3'
_chemical_formula_moiety
;
C10 H10 N2 O3
;
_journal_coden_Cambridge 122
_journal_volume 51
_journal_year 2015
_journal_page_first 553
_journal_name_full 'Khim.Get.Soedin.,SSSR(Russ.)(Chem.Heterocycl.Compd.) '
loop_
_publ_author_name
"V.G.Shtamburg"
"V.V.Shtamburg"
"A.A.Anishchenko"
"R.I.Zubatyuk"
"A.V.Mazepa"
"E.A.Klotz"
"S.V.Kravchenko"
"R.G.Kostyanovsky"
_chemical_name_systematic
;
3-Methoxy-5-phenylimidazolidine-2,4-dione
;
_cell_volume    499.897
_exptl_crystal_colour 'colorless'
_exptl_crystal_density_diffrn 1.37
_diffrn_ambient_temperature 293
_diffrn_special_details
;
twin

;
#These two values have been output from a single CSD field.
_refine_ls_R_factor_gt 0.0387
_refine_ls_wR_factor_gt 0.0387
_symmetry_cell_setting monoclinic
_symmetry_space_group_name_H-M 'P 21'
_symmetry_Int_Tables_number 4
loop_
_symmetry_equiv_pos_site_id
_symmetry_equiv_pos_as_xyz
1 x,y,z
2 -x,1/2+y,-z
_cell_length_a 5.1263(14)
_cell_length_b 8.6668(15)
_cell_length_c 11.257(2)
_cell_angle_alpha 90
_cell_angle_beta 91.76(2)
_cell_angle_gamma 90
_cell_formula_units_Z 2
loop_
_atom_type_symbol
_atom_type_radius_bond
C 0.68
H 0.23
N 0.68
O 0.68
loop_
_atom_site_label
_atom_site_type_symbol
_atom_site_fract_x
_atom_site_fract_y
_atom_site_fract_z
O1 O 1.1696(4) 0.0812(4) 0.2607(2)
O2 O 0.8107(5) -0.1162(3) 0.3822(2)
O3 O 0.4753(5) 0.0778(3) 0.5058(3)
N1 N 0.8226(6) 0.0435(3) 0.3816(3)
N2 N 0.7047(5) 0.2777(3) 0.4233(2)
H1 H 0.61670 0.35470 0.44890
C1 C 0.9367(6) 0.2945(4) 0.3519(3)
H2 H 1.07870 0.33780 0.40170
C2 C 1.0003(7) 0.1280(4) 0.3234(3)
C3 C 0.6436(7) 0.1313(4) 0.4448(3)
C4 C 0.9019(6) 0.3910(4) 0.2425(3)
C5 C 1.0784(8) 0.5044(5) 0.2185(4)
H3 H 1.21510 0.52370 0.27270
C6 C 1.0581(11) 0.5892(8) 0.1171(6)
H4 H 1.17780 0.66750 0.10370
C7 C 0.8644(13) 0.5605(8) 0.0354(4)
H5 H 0.85350 0.61690 -0.03490
C8 C 0.6843(10) 0.4473(7) 0.0572(4)
H6 H 0.54970 0.42770 0.00200
C9 C 0.7033(7) 0.3624(5) 0.1614(4)
H7 H 0.58100 0.28610 0.17620
C10 C 0.6546(7) -0.1715(5) 0.2826(3)
H8 H 0.73250 -0.14010 0.21000
H9 H 0.48190 -0.12920 0.28600
H10 H 0.64540 -0.28210 0.28540
#END
