
#######################################################################
#
#                 Cambridge Crystallographic Data Centre
#                                CCDC
#
#######################################################################
#
# If this CIF has been generated from an entry in the Cambridge
# Structural Database, then it will include bibliographic, chemical,
# crystal, experimental, refinement or atomic coordinate data resulting
# from the CCDC's data processing and validation procedures.
#
#######################################################################

data_CSD_CIF_ULECOF
_audit_creation_date 2016-04-28
_audit_creation_method CSD-ConQuest-V1
_database_code_CSD ULECOF
_database_code_depnum_ccdc_archive 'CCDC 1442133'
_chemical_formula_sum 'C15 H18 N2 O5'
_chemical_formula_moiety
;
C15 H18 N2 O5
;
_journal_coden_Cambridge 1366
_journal_volume 358
_journal_year 2016
_journal_page_first 1208
_journal_name_full 'Adv.Synth.Catal. '
loop_
_publ_author_name
"Peidong Song"
"Qing Li"
"Congcong Wang"
"Wenfa Wu"
"Xu Mao"
"Jiajia Wang"
"Xiangdong Hu"
_chemical_name_systematic
;
5-Hydroxy-4-methoxy-1,3,5-trimethyl-6-(4-nitrophenyl)-5,6-dihydropyridin-2(1H)
-one
;
_cell_volume   1513.027
_exptl_crystal_density_diffrn 1.345
_exptl_crystal_description 'block'
_diffrn_ambient_temperature 296
#These two values have been output from a single CSD field.
_refine_ls_R_factor_gt 0.0566
_refine_ls_wR_factor_gt 0.0566
_symmetry_cell_setting monoclinic
_symmetry_space_group_name_H-M 'P 21/n'
_symmetry_Int_Tables_number 14
loop_
_symmetry_equiv_pos_site_id
_symmetry_equiv_pos_as_xyz
1 x,y,z
2 1/2-x,1/2+y,1/2-z
3 -x,-y,-z
4 -1/2+x,-1/2-y,-1/2+z
_cell_length_a 7.6658(19)
_cell_length_b 18.906(5)
_cell_length_c 10.529(3)
_cell_angle_alpha 90
_cell_angle_beta 97.466(5)
_cell_angle_gamma 90
_cell_formula_units_Z 4
loop_
_atom_type_symbol
_atom_type_radius_bond
C 0.68
H 0.23
N 0.68
O 0.68
loop_
_atom_site_label
_atom_site_type_symbol
_atom_site_fract_x
_atom_site_fract_y
_atom_site_fract_z
N1 N -0.1797(2) 0.26311(10) 0.2794(2)
N2 N 0.2449(4) 0.48792(14) 0.6638(3)
O1 O 0.2915(2) 0.24895(10) 0.2675(2)
H1 H 0.35820 0.22050 0.30740
O2 O 0.2429(3) 0.13484(11) 0.4035(3)
O3 O -0.3651(2) 0.18991(9) 0.36484(17)
O4 O 0.3769(4) 0.52036(16) 0.6538(4)
O5 O 0.1614(4) 0.49603(13) 0.7529(3)
C1 C 0.0697(4) 0.18948(16) 0.1256(3)
H2 H 0.09430 0.22220 0.06040
H3 H -0.05310 0.17770 0.11330
H4 H 0.13810 0.14730 0.12020
C2 C 0.1172(3) 0.22322(13) 0.2571(3)
C3 C 0.0915(3) 0.17009(13) 0.3606(3)
C4 C -0.0637(3) 0.16021(12) 0.4016(2)
C5 C -0.2136(3) 0.20529(13) 0.3466(2)
C6 C -0.0018(3) 0.28757(13) 0.2699(2)
H5 H -0.00740 0.31380 0.18910
C7 C 0.2653(5) 0.06420(19) 0.3953(5)
H6 H 0.26200 0.04310 0.47790
H7 H 0.37690 0.05460 0.36690
H8 H 0.17290 0.04470 0.33530
C8 C -0.1070(4) 0.10641(15) 0.4979(3)
H9 H -0.18040 0.07020 0.45520
H10 H -0.16810 0.12910 0.56080
H11 H -0.00030 0.08560 0.53930
C9 C -0.3221(3) 0.31063(14) 0.2327(3)
H12 H -0.41240 0.28470 0.18050
H13 H -0.27820 0.34740 0.18260
H14 H -0.37000 0.33120 0.30400
C10 C 0.0636(3) 0.33926(12) 0.3756(2)
C11 C 0.0021(3) 0.33895(13) 0.4932(3)
H15 H -0.07960 0.30490 0.50960
C12 C 0.0583(4) 0.38764(14) 0.5868(3)
H16 H 0.01490 0.38690 0.66520
C13 C 0.1794(4) 0.43712(14) 0.5617(3)
C14 C 0.2451(4) 0.43948(15) 0.4479(3)
H17 H 0.32870 0.47320 0.43340
C15 C 0.1857(4) 0.39112(14) 0.3545(3)
H18 H 0.22790 0.39310 0.27560
#END
