
#######################################################################
#
#                 Cambridge Crystallographic Data Centre
#                                CCDC
#
#######################################################################
#
# If this CIF has been generated from an entry in the Cambridge
# Structural Database, then it will include bibliographic, chemical,
# crystal, experimental, refinement or atomic coordinate data resulting
# from the CCDC's data processing and validation procedures.
#
#######################################################################

data_CSD_CIF_ULEMIH
_audit_creation_date 2004-01-28
_audit_creation_method CSD-ConQuest-V1
_database_code_CSD ULEMIH
_database_code_depnum_ccdc_archive 'CCDC 221295'
_chemical_formula_sum 'C19 H25 N1 O5'
_chemical_formula_moiety
;
C19 H25 N1 O5
;
_journal_coden_Cambridge 1336
_journal_volume 5
_journal_year 2003
_journal_page_first 3309
_journal_name_full 'Org.Lett. '
loop_
_publ_author_name
"K.I.Booker-Milburn"
"H.Jenkins"
"J.P.H.Charmant"
"P.Mohr"
_chemical_name_systematic
;
(3S*,3aS*,5R*,8R*,8aS*)-8-Hydroxy-3,8-dimethyldecahydro-5-azulenyl 
4-nitrobenzoate
;
_chemical_melting_point 372.15
_cell_volume   3512.053
_exptl_crystal_colour 'colorless'
_exptl_crystal_density_diffrn 1.314
_exptl_special_details
;
Melting point range 372.15-374.15K

;
_exptl_crystal_description 'block'
_diffrn_ambient_temperature 100
#These two values have been output from a single CSD field.
_refine_ls_R_factor_gt 0.0473
_refine_ls_wR_factor_gt 0.0473
_symmetry_cell_setting orthorhombic
_symmetry_space_group_name_H-M 'P b c a'
_symmetry_Int_Tables_number 61
loop_
_symmetry_equiv_pos_site_id
_symmetry_equiv_pos_as_xyz
1 x,y,z
2 1/2+x,y,1/2-z
3 x,1/2-y,1/2+z
4 1/2-x,1/2+y,z
5 -x,-y,-z
6 -1/2-x,-y,-1/2+z
7 -x,-1/2+y,-1/2-z
8 -1/2+x,-1/2-y,-z
_cell_length_a 12.774(7)
_cell_length_b 10.955(4)
_cell_length_c 25.097(9)
_cell_angle_alpha 90
_cell_angle_beta 90
_cell_angle_gamma 90
_cell_formula_units_Z 8
loop_
_atom_type_symbol
_atom_type_radius_bond
C 0.68
H 0.23
N 0.68
O 0.68
loop_
_atom_site_label
_atom_site_type_symbol
_atom_site_fract_x
_atom_site_fract_y
_atom_site_fract_z
C1 C 0.79549(18) 0.02514(19) 0.55030(8)
H1 H 0.74100 -0.01700 0.52840
C2 C 0.74444(18) 0.0694(2) 0.60138(8)
H2 H 0.70040 0.00260 0.61560
H3 H 0.69730 0.13820 0.59240
C3 C 0.81836(18) 0.11124(19) 0.64542(8)
H4 H 0.86790 0.17240 0.63000
C4 C 0.7621(2) 0.1709(2) 0.69315(9)
H5 H 0.74770 0.25870 0.68510
C5 C 0.8461(2) 0.1617(2) 0.73634(9)
H6 H 0.90190 0.22310 0.73060
H7 H 0.81540 0.17400 0.77220
C6 C 0.8893(2) 0.0326(2) 0.73048(9)
H8 H 0.84620 -0.02650 0.75070
H9 H 0.96240 0.02810 0.74340
C7 C 0.88353(18) 0.0063(2) 0.66989(8)
H10 H 0.84260 -0.07070 0.66510
C8 C 0.99104(19) -0.0130(2) 0.64337(9)
C9 C 0.98532(19) -0.0031(2) 0.58243(8)
H11 H 0.98820 0.08440 0.57270
H12 H 1.04840 -0.04260 0.56730
C10 C 0.88871(19) -0.0596(2) 0.55569(9)
H13 H 0.90890 -0.08820 0.51970
H14 H 0.86700 -0.13200 0.57650
C11 C 0.6608(2) 0.1075(3) 0.70947(10)
H15 H 0.67470 0.02080 0.71600
H16 H 0.60910 0.11570 0.68080
H17 H 0.63360 0.14530 0.74200
C12 C 1.0367(2) -0.1351(2) 0.65991(10)
H18 H 1.10960 -0.14040 0.64790
H19 H 0.99600 -0.20120 0.64370
H20 H 1.03410 -0.14250 0.69880
C13 C 0.76718(18) 0.18900(19) 0.48862(8)
C14 C 0.81895(17) 0.28985(18) 0.45845(8)
C15 C 0.92155(17) 0.32652(18) 0.46944(8)
H21 H 0.96180 0.28390 0.49530
C16 C 0.96416(18) 0.42487(19) 0.44263(8)
H22 H 1.03340 0.45170 0.45010
C17 C 0.90382(17) 0.48311(19) 0.40480(9)
C18 C 0.80360(18) 0.44605(19) 0.39164(8)
H23 H 0.76500 0.48630 0.36450
C19 C 0.76144(18) 0.34906(19) 0.41913(8)
H24 H 0.69240 0.32230 0.41120
N1 N 0.94621(18) 0.59422(17) 0.37974(8)
O1 O 1.06656(12) 0.07549(14) 0.66190(6)
H25 H 1.04380 0.14620 0.65620
O2 O 0.83515(12) 0.12997(12) 0.51971(5)
O3 O 0.67447(12) 0.16535(13) 0.48500(6)
O4 O 0.89253(15) 0.64672(14) 0.34648(7)
O5 O 1.03286(14) 0.63046(15) 0.39431(7)
#END
