
#######################################################################
#
#                 Cambridge Crystallographic Data Centre
#                                CCDC
#
#######################################################################
#
# If this CIF has been generated from an entry in the Cambridge
# Structural Database, then it will include bibliographic, chemical,
# crystal, experimental, refinement or atomic coordinate data resulting
# from the CCDC's data processing and validation procedures.
#
#######################################################################

data_CSD_CIF_ULEYUH
_audit_creation_date 2016-04-29
_audit_creation_method CSD-ConQuest-V1
_database_code_CSD ULEYUH
_database_code_depnum_ccdc_archive 'CCDC 960588'
_chemical_formula_sum 'C6 H6 N6 O8'
_chemical_formula_moiety
;
C6 H6 N6 O8
;
_journal_coden_Cambridge 82
_journal_volume 56
_journal_year 2015
_journal_page_first 1160
_journal_name_full 'Zh.Strukt.Khim.(Russ.)(J.Struct.Chem.) '
loop_
_publ_author_name
"Z.G.Aliev"
"A.V.Shastin"
"S.M.Aldoshin"
_chemical_name_systematic
;
2,4-dimethoxy-6-(trinitromethyl)-1,3,5-triazine
;
_cell_volume   1116.170
_exptl_crystal_colour 'colorless'
_exptl_crystal_density_diffrn 1.727
_exptl_crystal_description 'prism'
_diffrn_ambient_temperature 150
#These two values have been output from a single CSD field.
_refine_ls_R_factor_gt 0.0334
_refine_ls_wR_factor_gt 0.0334
_symmetry_cell_setting orthorhombic
_symmetry_space_group_name_H-M 'P n m a'
_symmetry_Int_Tables_number 62
loop_
_symmetry_equiv_pos_site_id
_symmetry_equiv_pos_as_xyz
1 x,y,z
2 1/2-x,-y,1/2+z
3 -x,1/2+y,-z
4 1/2+x,1/2-y,1/2-z
5 -x,-y,-z
6 -1/2+x,y,-1/2-z
7 x,-1/2-y,z
8 -1/2-x,-1/2+y,-1/2+z
_cell_length_a 6.18398(17)
_cell_length_b 13.1706(3)
_cell_length_c 13.7043(4)
_cell_angle_alpha 90
_cell_angle_beta 90
_cell_angle_gamma 90
_cell_formula_units_Z 4
loop_
_atom_type_symbol
_atom_type_radius_bond
C 0.68
H 0.23
N 0.68
O 0.68
loop_
_atom_site_label
_atom_site_type_symbol
_atom_site_fract_x
_atom_site_fract_y
_atom_site_fract_z
O1 O 0.4451(2) 0.25000 0.3937(1)
O2 O 0.1486(3) 0.25000 0.30863(10)
O3 O 0.0391(2) 0.08699(9) 0.42298(9)
O4 O -0.1685(2) 0.14978(10) 0.53357(11)
O5 O 0.53201(15) 0.08043(7) 0.71572(7)
N1 N 0.32346(17) 0.15942(8) 0.59917(7)
N2 N 0.5296(2) 0.25000 0.71787(11)
N3 N 0.2499(3) 0.25000 0.38455(11)
N4 N -0.02086(18) 0.15344(9) 0.47744(8)
C1 C 0.1185(3) 0.25000 0.47916(12)
C2 C 0.2662(3) 0.25000 0.56799(12)
C3 C 0.4583(2) 0.16529(10) 0.67620(9)
C4 C 0.4685(3) -0.01408(11) 0.66985(11)
H1 H 0.314(3) -0.0181(14) 0.6648(12)
H2 H 0.533(3) -0.0182(13) 0.6053(12)
H3 H 0.525(3) -0.0669(13) 0.7134(12)
O3F O 0.0391(2) 0.41301(9) 0.42298(9)
O4F O -0.1685(2) 0.35022(10) 0.53357(11)
O5F O 0.53201(15) 0.41957(7) 0.71572(7)
N1F N 0.32346(17) 0.34058(8) 0.59917(7)
N4F N -0.02086(18) 0.34656(9) 0.47744(8)
C3F C 0.4583(2) 0.33471(10) 0.67620(9)
C4F C 0.4685(3) 0.51408(11) 0.66985(11)
H1F H 0.314(3) 0.5181(14) 0.6648(12)
H2F H 0.533(3) 0.5182(13) 0.6053(12)
H3F H 0.525(3) 0.5669(13) 0.7134(12)
#END
