
#######################################################################
#
#                 Cambridge Crystallographic Data Centre
#                                CCDC
#
#######################################################################
#
# If this CIF has been generated from an entry in the Cambridge
# Structural Database, then it will include bibliographic, chemical,
# crystal, experimental, refinement or atomic coordinate data resulting
# from the CCDC's data processing and validation procedures.
#
#######################################################################

data_CSD_CIF_ULEZAN
_audit_creation_date 2011-03-25
_audit_creation_method CSD-ConQuest-V1
_database_code_CSD ULEZAN
_database_code_depnum_ccdc_archive 'CCDC 815603'
_chemical_formula_sum 'C16 H23 N3 O3'
_chemical_formula_moiety
;
C16 H23 N3 O3
;
_journal_coeditor_code "IUCr GK2342"
_journal_coden_Cambridge 1370
_journal_volume 67
_journal_year 2011
_journal_page_first o669
_journal_name_full 'Acta Crystallogr.,Sect.E:Struct.Rep.Online '
loop_
_publ_author_name
"Y.Ouzidan"
"Y.Kandri Rodi"
"E.M.Essassi"
"L.El Ammari"
"F.R.Fronczek"
"R.Venkatraman"
_chemical_name_systematic
;
5-Nitro-1-nonyl-1,3-dihydro-2H-benzimidazol-2-one
;
_chemical_name_common
;
5-Nitro-1-nonyl-1H-benzimidazol-2(3H)-one
;
_chemical_melting_point 392
_cell_volume    779.882
_exptl_crystal_colour 'colorless'
_exptl_crystal_density_diffrn 1.3
_exptl_special_details
;
Melting point range 392-394K

;
_exptl_crystal_description 'needle'
_diffrn_ambient_temperature 90
#These two values have been output from a single CSD field.
_refine_ls_R_factor_gt 0.0404
_refine_ls_wR_factor_gt 0.0404
_symmetry_cell_setting triclinic
_symmetry_space_group_name_H-M 'P -1'
_symmetry_Int_Tables_number 2
loop_
_symmetry_equiv_pos_site_id
_symmetry_equiv_pos_as_xyz
1 x,y,z
2 -x,-y,-z
_cell_length_a 5.483(1)
_cell_length_b 10.2092(15)
_cell_length_c 14.746(3)
_cell_angle_alpha 74.275(9)
_cell_angle_beta 79.727(6)
_cell_angle_gamma 83.410(8)
_cell_formula_units_Z 2
loop_
_atom_type_symbol
_atom_type_radius_bond
C 0.68
H 0.23
N 0.68
O 0.68
loop_
_atom_site_label
_atom_site_type_symbol
_atom_site_fract_x
_atom_site_fract_y
_atom_site_fract_z
O1 O 0.92795(11) 1.07035(6) 0.37556(4)
O2 O 0.40529(12) 0.45052(6) 0.71989(4)
O3 O 0.12666(12) 0.41865(6) 0.64166(5)
N1 N 0.78463(12) 0.88673(7) 0.50035(5)
H1 H 0.87510 0.89040 0.54310
N2 N 0.61923(12) 0.93607(7) 0.36748(4)
N3 N 0.29292(13) 0.48382(7) 0.65097(5)
C1 C 0.79248(13) 0.97452(8) 0.41127(5)
C2 C 0.50448(13) 0.82444(7) 0.42883(5)
C3 C 0.61268(13) 0.79137(8) 0.51286(5)
C4 C 0.54726(13) 0.68061(8) 0.58770(5)
H2 H 0.62290 0.65650 0.64370
C5 C 0.36219(13) 0.60623(7) 0.57568(5)
C6 C 0.24677(14) 0.63920(8) 0.49481(6)
H3 H 0.11930 0.58600 0.49120
C7 C 0.31799(14) 0.75013(8) 0.41917(5)
H4 H 0.24210 0.77400 0.36320
C8 C 0.56136(14) 1.00911(8) 0.27295(5)
H5 H 0.64750 1.09480 0.25080
H6 H 0.38040 1.03380 0.27780
C9 C 0.63787(14) 0.92606(8) 0.19926(5)
H7 H 0.57140 0.97580 0.14020
H8 H 0.55890 0.83820 0.22370
C10 C 0.91760(14) 0.89612(8) 0.17380(5)
H9 H 0.98480 0.83970 0.23110
H10 H 1.00050 0.98290 0.15220
C11 C 0.97314(15) 0.82089(8) 0.09493(6)
H11 H 0.89590 0.73250 0.11860
H12 H 0.89360 0.87510 0.04000
C12 C 1.24889(15) 0.79376(8) 0.06003(6)
H13 H 1.32810 0.73490 0.11370
H14 H 1.32930 0.88130 0.03860
C13 C 1.29159(14) 0.72462(8) -0.02204(6)
H15 H 1.21880 0.63490 0.00100
H16 H 1.20180 0.78090 -0.07350
C14 C 1.56428(15) 0.70296(8) -0.06374(6)
H17 H 1.63460 0.79280 -0.09180
H18 H 1.65750 0.65220 -0.01180
C15 C 1.59873(15) 0.62433(9) -0.14015(6)
H19 H 1.53500 0.53300 -0.11110
H20 H 1.49810 0.67280 -0.19030
C16 C 1.86819(17) 0.60708(10) -0.18635(7)
H21 H 1.92710 0.69670 -0.22150
H22 H 1.87950 0.54920 -0.23040
H23 H 1.97120 0.56430 -0.13680
#END
