
#######################################################################
#
#                 Cambridge Crystallographic Data Centre
#                                CCDC
#
#######################################################################
#
# If this CIF has been generated from an entry in the Cambridge
# Structural Database, then it will include bibliographic, chemical,
# crystal, experimental, refinement or atomic coordinate data resulting
# from the CCDC's data processing and validation procedures.
#
#######################################################################

data_CSD_CIF_ULEZES
_audit_creation_date 2016-04-29
_audit_creation_method CSD-ConQuest-V1
_database_code_CSD ULEZES
_database_code_depnum_ccdc_archive 'CCDC 960624'
_chemical_formula_sum 'C8 H12 N8 O6'
_chemical_formula_moiety
;
C8 H12 N8 O6
;
_journal_coden_Cambridge 82
_journal_volume 56
_journal_year 2015
_journal_page_first 1160
_journal_name_full 'Zh.Strukt.Khim.(Russ.)(J.Struct.Chem.) '
loop_
_publ_author_name
"Z.G.Aliev"
"A.V.Shastin"
"S.M.Aldoshin"
_chemical_name_systematic
;
N,N,N',N'-tetramethyl-6-(trinitromethyl)-1,3,5-triazine-2,4-diamine
;
_cell_volume   1423.553
_exptl_crystal_colour 'colorless'
_exptl_crystal_density_diffrn 1.476
_exptl_crystal_description 'prism'
_diffrn_ambient_temperature 200
#These two values have been output from a single CSD field.
_refine_ls_R_factor_gt 0.0629
_refine_ls_wR_factor_gt 0.0629
_symmetry_cell_setting monoclinic
_symmetry_space_group_name_H-M 'P 21/n'
_symmetry_Int_Tables_number 14
loop_
_symmetry_equiv_pos_site_id
_symmetry_equiv_pos_as_xyz
1 x,y,z
2 1/2-x,1/2+y,1/2-z
3 -x,-y,-z
4 -1/2+x,-1/2-y,-1/2+z
_cell_length_a 8.9024(6)
_cell_length_b 12.6341(7)
_cell_length_c 13.3369(7)
_cell_angle_alpha 90
_cell_angle_beta 108.377(6)
_cell_angle_gamma 90
_cell_formula_units_Z 4
loop_
_atom_type_symbol
_atom_type_radius_bond
C 0.68
H 0.23
N 0.68
O 0.68
loop_
_atom_site_label
_atom_site_type_symbol
_atom_site_fract_x
_atom_site_fract_y
_atom_site_fract_z
O1 O 0.22516(16) 1.15529(12) 0.29269(10)
O2 O 0.33119(17) 1.07949(11) 0.44471(9)
O3 O 0.60440(18) 1.15015(14) 0.41781(12)
O4 O 0.70015(17) 1.02122(13) 0.35123(12)
O5 O 0.5068(2) 0.85650(11) 0.32287(12)
O6 O 0.2770(3) 0.89338(14) 0.33744(14)
N1 N 0.46088(16) 1.13355(11) 0.16348(9)
N2 N 0.32807(16) 1.08030(11) -0.01553(9)
N3 N 0.31645(16) 1.09489(12) 0.35187(10)
N4 N 0.59354(17) 1.07095(13) 0.36589(10)
N5 N 0.4028(2) 0.91564(12) 0.32695(10)
N6 N 0.29169(16) 0.98159(10) 0.12852(9)
N7 N 0.48503(17) 1.22859(12) 0.02127(11)
N8 N 0.16388(18) 0.93479(12) -0.04482(10)
C1 C 0.38992(18) 1.05106(11) 0.18815(10)
C2 C 0.42243(18) 1.14553(13) 0.05584(11)
C3 C 0.42605(18) 1.03314(12) 0.30637(11)
C4 C 0.26376(18) 1.00076(12) 0.02312(11)
C5 C 0.4538(3) 1.2442(2) -0.09228(16)
H1 H 0.536(4) 1.226(2) -0.113(2)
H2 H 0.349(4) 1.229(3) -0.126(2)
H3 H 0.461(4) 1.320(3) -0.101(2)
C6 C 0.5768(3) 1.3082(2) 0.0923(2)
H4 H 0.577(4) 1.306(3) 0.163(3)
H5 H 0.673(4) 1.315(2) 0.085(2)
H6 H 0.526(5) 1.377(4) 0.082(3)
C7 C 0.0830(3) 0.84994(16) -0.00857(17)
H7 H -0.020(3) 0.836(2) -0.057(2)
H8 H 0.058(3) 0.865(2) 0.051(2)
H9 H 0.134(4) 0.786(3) -0.001(2)
C8 C 0.1315(3) 0.9479(3) -0.15830(15)
H10 H 0.046(4) 0.997(3) -0.184(2)
H11 H 0.211(4) 0.965(3) -0.176(2)
H12 H 0.083(5) 0.894(3) -0.199(3)
#END
