
#######################################################################
#
#                 Cambridge Crystallographic Data Centre
#                                CCDC
#
#######################################################################
#
# If this CIF has been generated from an entry in the Cambridge
# Structural Database, then it will include bibliographic, chemical,
# crystal, experimental, refinement or atomic coordinate data resulting
# from the CCDC's data processing and validation procedures.
#
#######################################################################

data_CSD_CIF_ULIQUB
_audit_creation_date 2004-01-28
_audit_creation_method CSD-ConQuest-V1
_database_code_CSD ULIQUB
_database_code_depnum_ccdc_archive 'CCDC 212185'
_chemical_formula_sum 'C25 H25 N1 O4'
_chemical_formula_moiety
;
C25 H25 N1 O4
;
_journal_coden_Cambridge 177
_journal_volume 1
_journal_year 2003
_journal_page_first 3430
_journal_name_full 'Org.Biomol.Chem. '
loop_
_publ_author_name
"A.-M.E.Gillson"
"S.A.Glover"
"D.J.Tucker"
"P.Turner"
_chemical_name_systematic
;
N-Benzoyloxy-N-(4-t-butylbenzyloxy)benzamide
;
_chemical_melting_point 360.15
_cell_volume   2177.371
_exptl_crystal_colour 'colorless'
_exptl_crystal_density_diffrn 1.231
_exptl_special_details
;
Melting point range 360.15-362.15K

;
_exptl_crystal_description 'prismatic'
_exptl_crystal_preparation 'ethyl acetate/petroleum spirit'
_diffrn_ambient_temperature 150
#These two values have been output from a single CSD field.
_refine_ls_R_factor_gt 0.0349
_refine_ls_wR_factor_gt 0.0349
_symmetry_cell_setting monoclinic
_symmetry_space_group_name_H-M 'P 21/c'
_symmetry_Int_Tables_number 14
loop_
_symmetry_equiv_pos_site_id
_symmetry_equiv_pos_as_xyz
1 x,y,z
2 x,1/2-y,1/2+z
3 -x,-y,-z
4 -x,-1/2+y,-1/2-z
_cell_length_a 9.974(3)
_cell_length_b 14.182(5)
_cell_length_c 16.104(5)
_cell_angle_alpha 90
_cell_angle_beta 107.088(5)
_cell_angle_gamma 90
_cell_formula_units_Z 4
loop_
_atom_type_symbol
_atom_type_radius_bond
C 0.68
H 0.23
N 0.68
O 0.68
loop_
_atom_site_label
_atom_site_type_symbol
_atom_site_fract_x
_atom_site_fract_y
_atom_site_fract_z
O1 O 0.26038(7) 0.46516(5) 0.43436(4)
O2 O 0.02781(7) 0.49480(5) 0.37669(4)
O3 O 0.34392(7) 0.45881(5) 0.57991(4)
O4 O 0.19397(9) 0.29077(5) 0.43682(5)
N1 N 0.22874(8) 0.43106(6) 0.51069(5)
C1 C 0.19359(10) 0.55728(6) 0.30869(6)
C2 C 0.33386(10) 0.57967(7) 0.32145(6)
H1 H 0.40250 0.56200 0.37380
C3 C 0.37314(12) 0.62799(7) 0.25729(7)
H2 H 0.46880 0.64370 0.26580
C4 C 0.27292(12) 0.65333(8) 0.18082(7)
H3 H 0.30040 0.68540 0.13670
C5 C 0.13310(12) 0.63203(8) 0.16856(7)
H4 H 0.06460 0.65030 0.11640
C6 C 0.09290(11) 0.58418(8) 0.23229(6)
H5 H -0.00320 0.56970 0.22400
C7 C 0.14613(10) 0.50491(6) 0.37493(6)
C8 C 0.30183(10) 0.63089(7) 0.55867(6)
C9 C 0.42055(11) 0.67314(7) 0.54692(7)
H6 H 0.51040 0.64750 0.57510
C10 C 0.40992(11) 0.75225(7) 0.49472(7)
H7 H 0.49270 0.77970 0.48770
C11 C 0.27972(10) 0.79237(7) 0.45228(6)
C12 C 0.16108(10) 0.74850(7) 0.46387(7)
H8 H 0.07100 0.77340 0.43520
C13 C 0.1714(1) 0.66964(7) 0.51603(6)
H9 H 0.08870 0.64170 0.52280
C14 C 0.31239(11) 0.54685(7) 0.61713(7)
H10 H 0.38660 0.55890 0.67230
H11 H 0.22260 0.53960 0.63090
C15 C 0.26341(11) 0.88205(7) 0.39719(7)
C16 C 0.20712(14) 0.96100(8) 0.44322(8)
H12 H 0.11380 0.94370 0.44670
H13 H 0.20090 1.01980 0.41040
H14 H 0.27080 0.96980 0.50200
C17 C 0.40252(13) 0.91436(9) 0.38455(9)
H15 H 0.46920 0.92890 0.44120
H16 H 0.38670 0.97090 0.34790
H17 H 0.44070 0.86400 0.35640
C18 C 0.16014(13) 0.86452(8) 0.30704(7)
H18 H 0.19490 0.81300 0.27850
H19 H 0.15120 0.92190 0.27190
H20 H 0.06830 0.84750 0.31310
C19 C 0.22487(10) 0.28071(7) 0.58907(6)
C20 C 0.25165(11) 0.18431(7) 0.59175(7)
H21 H 0.26300 0.15330 0.54200
C21 C 0.26181(12) 0.13329(8) 0.66674(8)
H22 H 0.28110 0.06760 0.66850
C22 C 0.24387(12) 0.17787(8) 0.73880(7)
H23 H 0.25310 0.14310 0.79060
C23 C 0.21250(11) 0.27300(8) 0.73582(7)
H24 H 0.19760 0.30300 0.78510
C24 C 0.20265(11) 0.32471(7) 0.66135(7)
H25 H 0.18080 0.39000 0.65950
C25 C 0.21768(10) 0.32973(7) 0.50628(6)
#END
