
#######################################################################
#
#                 Cambridge Crystallographic Data Centre
#                                CCDC
#
#######################################################################
#
# If this CIF has been generated from an entry in the Cambridge
# Structural Database, then it will include bibliographic, chemical,
# crystal, experimental, refinement or atomic coordinate data resulting
# from the CCDC's data processing and validation procedures.
#
#######################################################################

data_CSD_CIF_ULIRAI
_audit_creation_date 2004-01-28
_audit_creation_method CSD-ConQuest-V1
_database_code_CSD ULIRAI
_database_code_depnum_ccdc_archive 'CCDC 212186'
_chemical_formula_sum 'C33 H41 N1 O4'
_chemical_formula_moiety
;
C33 H41 N1 O4
;
_journal_coden_Cambridge 177
_journal_volume 1
_journal_year 2003
_journal_page_first 3430
_journal_name_full 'Org.Biomol.Chem. '
loop_
_publ_author_name
"A.-M.E.Gillson"
"S.A.Glover"
"D.J.Tucker"
"P.Turner"
_chemical_name_systematic
;
N-(4-t-Butylbenzoyloxy)-N-(4-t-butylbenzyloxy)-4-t-butylbenzamide
;
_chemical_melting_point 421.15
_cell_volume   2926.234
_exptl_crystal_colour 'colorless'
_exptl_crystal_density_diffrn 1.171
_exptl_special_details
;
Melting point range 421.15-423.15K

;
_exptl_crystal_description 'prism'
_exptl_crystal_preparation 'ethyl acetate/petroleum spirit'
_diffrn_ambient_temperature 150
#These two values have been output from a single CSD field.
_refine_ls_R_factor_gt 0.0425
_refine_ls_wR_factor_gt 0.0425
_symmetry_cell_setting monoclinic
_symmetry_space_group_name_H-M 'P 21/n'
_symmetry_Int_Tables_number 14
loop_
_symmetry_equiv_pos_site_id
_symmetry_equiv_pos_as_xyz
1 x,y,z
2 1/2+x,1/2-y,1/2+z
3 -x,-y,-z
4 -1/2-x,-1/2+y,-1/2-z
_cell_length_a 9.2910(19)
_cell_length_b 17.063(4)
_cell_length_c 18.640(4)
_cell_angle_alpha 90
_cell_angle_beta 98.007(4)
_cell_angle_gamma 90
_cell_formula_units_Z 4
loop_
_atom_type_symbol
_atom_type_radius_bond
C 0.68
H 0.23
N 0.68
O 0.68
loop_
_atom_site_label
_atom_site_type_symbol
_atom_site_fract_x
_atom_site_fract_y
_atom_site_fract_z
O1 O 0.4383(1) 0.42571(5) 0.15084(4)
O2 O 0.59934(11) 0.51008(6) 0.11150(5)
O3 O 0.28450(9) 0.36392(5) 0.06418(5)
O4 O 0.62065(11) 0.31569(6) 0.13662(5)
N1 N 0.42903(11) 0.38885(6) 0.08076(6)
C1 C 0.51465(13) 0.53254(7) 0.22523(7)
C2 C 0.42769(15) 0.50655(8) 0.27505(7)
H1 H 0.37110 0.46040 0.26560
C3 C 0.42335(15) 0.54801(8) 0.33853(8)
H2 H 0.36440 0.52900 0.37250
C4 C 0.50266(13) 0.61685(7) 0.35432(7)
C5 C 0.58981(14) 0.64201(7) 0.30386(7)
H3 H 0.64580 0.68850 0.31300
C6 C 0.59628(14) 0.60038(7) 0.24045(7)
H4 H 0.65720 0.61840 0.20700
C7 C 0.52545(13) 0.49097(7) 0.15624(7)
C8 C 0.49660(14) 0.65960(8) 0.42626(7)
C9 C 0.5513(2) 0.74387(9) 0.42445(9)
H5 H 0.49300 0.77240 0.38500
H6 H 0.65340 0.74370 0.41650
H7 H 0.54270 0.76960 0.47070
C10 C 0.59289(19) 0.61420(11) 0.48579(9)
H8 H 0.58920 0.63950 0.53270
H9 H 0.69330 0.61390 0.47530
H10 H 0.55770 0.56020 0.48740
C11 C 0.34111(16) 0.66162(11) 0.44445(9)
H11 H 0.27740 0.68700 0.40490
H12 H 0.33890 0.69120 0.48930
H13 H 0.30740 0.60800 0.45080
C12 C 0.16699(14) 0.49341(8) 0.06088(7)
C13 C 0.06798(15) 0.48975(8) 0.11015(7)
H14 H 0.01740 0.44220 0.11570
C14 C 0.04215(15) 0.55426(8) 0.15124(7)
H15 H -0.02650 0.55020 0.18440
C15 C 0.11420(13) 0.62531(7) 0.14540(6)
C16 C 0.21056(14) 0.62874(8) 0.09461(7)
H16 H 0.25990 0.67650 0.08830
C17 C 0.23635(14) 0.56405(8) 0.05293(7)
H17 H 0.30240 0.56840 0.01850
C18 C 0.19966(15) 0.42203(8) 0.01861(7)
H18 H 0.10720 0.39800 -0.00370
H19 H 0.25430 0.43800 -0.02090
C19 C 0.08470(15) 0.69656(8) 0.19125(7)
C20 C 0.2156(2) 0.75057(11) 0.20399(13)
H20 H 0.23420 0.77280 0.15770
H21 H 0.30080 0.72080 0.22570
H22 H 0.19620 0.79300 0.23670
C21 C 0.0474(3) 0.67119(11) 0.26481(9)
H23 H 0.03280 0.71770 0.29380
H24 H 0.12730 0.63970 0.28990
H25 H -0.04180 0.63980 0.25800
C22 C -0.0443(2) 0.74098(11) 0.15255(10)
H26 H -0.06770 0.78490 0.18280
H27 H -0.12820 0.70580 0.14350
H28 H -0.02050 0.76100 0.10640
C23 C 0.49829(13) 0.26654(7) 0.02469(7)
C24 C 0.52482(13) 0.18738(7) 0.03885(7)
H29 H 0.55830 0.17050 0.08680
C25 C 0.50267(13) 0.13335(7) -0.01663(7)
H30 H 0.51820 0.07940 -0.00580
C26 C 0.45796(12) 0.15580(7) -0.08831(7)
C27 C 0.43568(14) 0.23551(7) -0.10174(7)
H31 H 0.40780 0.25280 -0.15010
C28 C 0.45316(13) 0.29034(7) -0.04610(7)
H32 H 0.43420 0.34420 -0.05650
C29 C 0.52385(14) 0.32176(7) 0.08669(7)
C30 C 0.43538(14) 0.09334(8) -0.14781(7)
C31 C 0.39322(18) 0.12852(9) -0.22340(8)
H33 H 0.30210 0.15780 -0.22480
H34 H 0.38040 0.08630 -0.25940
H35 H 0.47020 0.16400 -0.23440
C32 C 0.31379(18) 0.03776(9) -0.13161(9)
H36 H 0.34020 0.01440 -0.08350
H37 H 0.30060 -0.00380 -0.16820
H38 H 0.22300 0.06720 -0.13270
C33 C 0.57756(17) 0.04690(9) -0.14718(8)
H39 H 0.65610 0.08280 -0.15510
H40 H 0.56500 0.00750 -0.18580
H41 H 0.60210 0.02080 -0.10020
#END
