
#######################################################################
#
#                 Cambridge Crystallographic Data Centre
#                                CCDC
#
#######################################################################
#
# If this CIF has been generated from an entry in the Cambridge
# Structural Database, then it will include bibliographic, chemical,
# crystal, experimental, refinement or atomic coordinate data resulting
# from the CCDC's data processing and validation procedures.
#
#######################################################################

data_CSD_CIF_ULIZUL
_audit_creation_date 2011-05-12
_audit_creation_method CSD-ConQuest-V1
_database_code_CSD ULIZUL
_database_code_depnum_ccdc_archive 'CCDC 814931'
_chemical_formula_sum 'C19 H20 N2 O5'
_chemical_formula_moiety
;
C19 H20 N2 O5
;
_journal_coden_Cambridge 1336
_journal_volume 12
_journal_year 2010
_journal_page_first 3246
_journal_name_full 'Org.Lett. '
loop_
_publ_author_name
"Yingjie Xu"
"S.Matsunaga"
"M.Shibasaki"
_chemical_name_systematic
;
4-(4-Methoxyphenyl)-3-methyl-5-nitro-2-oxo-N-phenylpentanamide
;
_cell_volume   1824.520
_exptl_crystal_colour 'colorless'
_exptl_crystal_density_diffrn 1.297
_exptl_special_details
;
Absolute configuration

;
_exptl_crystal_description 'block'
_diffrn_ambient_temperature 153.1
#These two values have been output from a single CSD field.
_refine_ls_R_factor_gt 0.0311
_refine_ls_wR_factor_gt 0.0311
_symmetry_cell_setting orthorhombic
_symmetry_space_group_name_H-M 'P 21 21 21'
_symmetry_Int_Tables_number 19
loop_
_symmetry_equiv_pos_site_id
_symmetry_equiv_pos_as_xyz
1 x,y,z
2 1/2+x,1/2-y,-z
3 -x,1/2+y,1/2-z
4 1/2-x,-y,1/2+z
_cell_length_a 9.6820(3)
_cell_length_b 9.9137(4)
_cell_length_c 19.0085(7)
_cell_angle_alpha 90
_cell_angle_beta 90
_cell_angle_gamma 90
_cell_formula_units_Z 4
loop_
_atom_type_symbol
_atom_type_radius_bond
C 0.68
H 0.23
N 0.68
O 0.68
loop_
_atom_site_label
_atom_site_type_symbol
_atom_site_fract_x
_atom_site_fract_y
_atom_site_fract_z
O1 O -0.21275(11) 0.29848(15) 0.31425(6)
O2 O 0.35349(15) 0.05098(13) 0.44799(7)
O3 O 0.44513(17) -0.04218(14) 0.35778(7)
O4 O 0.61075(12) 0.38859(11) 0.44661(5)
O5 O 0.60927(12) 0.64378(11) 0.32172(6)
N1 N 0.40910(14) 0.05648(14) 0.39059(8)
N2 N 0.75210(14) 0.61155(14) 0.41636(6)
H1 H 0.77020 0.55370 0.45020
C1 C 0.20487(16) 0.29854(16) 0.36868(8)
C2 C 0.16649(18) 0.2875(2) 0.29878(8)
H2 H 0.23620 0.27970 0.26390
C3 C 0.02891(18) 0.2875(2) 0.27833(8)
H3 H 0.00540 0.27900 0.23000
C4 C -0.07399(16) 0.30000(18) 0.32844(8)
C5 C -0.03745(16) 0.31158(15) 0.39868(8)
H4 H -0.10730 0.31990 0.43350
C6 C 0.09946(17) 0.31116(15) 0.41828(8)
H5 H 0.12270 0.31960 0.46660
C7 C -0.2519(2) 0.2839(4) 0.24314(9)
H6 H -0.35200 0.29570 0.23880
H7 H -0.22610 0.19380 0.22650
H8 H -0.20470 0.35220 0.21470
C8 C 0.35514(15) 0.30559(15) 0.39052(8)
H9 H 0.35900 0.29600 0.44290
C9 C 0.44151(16) 0.19151(16) 0.35855(8)
H10 H 0.42410 0.18750 0.30730
H11 H 0.54070 0.21160 0.36560
C10 C 0.41917(16) 0.44367(16) 0.37131(8)
H12 H 0.42330 0.45250 0.31890
C11 C 0.33331(17) 0.56106(17) 0.40173(9)
H13 H 0.32740 0.55180 0.45300
H14 H 0.24020 0.55900 0.38150
H15 H 0.37780 0.64700 0.39000
C12 C 0.56229(15) 0.45988(15) 0.40116(7)
C13 C 0.64451(16) 0.58250(16) 0.37425(8)
C14 C 0.83938(16) 0.72633(16) 0.41157(8)
C15 C 0.78808(18) 0.84951(17) 0.38913(8)
H16 H 0.69410 0.85790 0.37540
C16 C 0.87513(19) 0.96026(17) 0.38697(9)
H17 H 0.84020 1.04500 0.37190
C17 C 1.01222(19) 0.94908(18) 0.40643(8)
H18 H 1.07140 1.02540 0.40440
C18 C 1.06220(19) 0.82603(17) 0.42880(8)
H19 H 1.15630 0.81790 0.44230
C19 C 0.97670(17) 0.71443(17) 0.43174(8)
H20 H 1.01170 0.63010 0.44750
#END
