
#######################################################################
#
#                 Cambridge Crystallographic Data Centre
#                                CCDC
#
#######################################################################
#
# If this CIF has been generated from an entry in the Cambridge
# Structural Database, then it will include bibliographic, chemical,
# crystal, experimental, refinement or atomic coordinate data resulting
# from the CCDC's data processing and validation procedures.
#
#######################################################################

data_CSD_CIF_ULIZOF
_audit_creation_date 2011-05-12
_audit_creation_method CSD-ConQuest-V1
_database_code_CSD ULIZOF
_database_code_depnum_ccdc_archive 'CCDC 773799'
_chemical_formula_sum 'C16 H20 N4 O7'
_chemical_formula_moiety
;
C16 H20 N4 O7
;
_journal_coden_Cambridge 1336
_journal_volume 12
_journal_year 2010
_journal_page_first 3222
_journal_name_full 'Org.Lett. '
loop_
_publ_author_name
"M.R.Medeiros"
"R.S.Narayan"
"N.T.McDougal"
"S.E.Schaus"
"J.A.Porco Junior"
_chemical_name_systematic
;
1-(2,4-Dinitrophenyl)-2-((7-(methoxymethyl)-4-methyl-6,8-dioxabicyclo[3.2.1]oc
t-2-yl)methylene)hydrazine
;
_cell_volume   3463.098
_exptl_crystal_colour 'orange'
_exptl_crystal_density_diffrn 1.459
_exptl_special_details
;
Absolute configuration

;
_exptl_crystal_description 'prism'
_diffrn_ambient_temperature 100
#These two values have been output from a single CSD field.
_refine_ls_R_factor_gt 0.0238
_refine_ls_wR_factor_gt 0.0238
_symmetry_cell_setting monoclinic
_symmetry_space_group_name_H-M 'P 21'
_symmetry_Int_Tables_number 4
loop_
_symmetry_equiv_pos_site_id
_symmetry_equiv_pos_as_xyz
1 x,y,z
2 -x,1/2+y,-z
_cell_length_a 9.757(8)
_cell_length_b 29.99(2)
_cell_length_c 11.970(9)
_cell_angle_alpha 90
_cell_angle_beta 98.610(19)
_cell_angle_gamma 90
_cell_formula_units_Z 8
loop_
_atom_type_symbol
_atom_type_radius_bond
C 0.68
H 0.23
N 0.68
O 0.68
loop_
_atom_site_label
_atom_site_type_symbol
_atom_site_fract_x
_atom_site_fract_y
_atom_site_fract_z
O1 O -1.12218(11) -0.19588(4) -1.06398(10)
O2 O -0.54096(12) 0.10399(4) -0.34103(9)
O3 O -0.80328(11) 0.11854(4) -0.91618(9)
O4 O -0.73502(13) 0.17640(4) -0.81507(10)
O5 O -0.52835(13) 0.16535(4) -0.43541(10)
O6 O -1.22496(11) -0.04929(4) -0.98760(9)
O7 O -1.25915(11) -0.12282(4) -0.95281(9)
N1 N -0.56212(13) 0.12616(5) -0.42898(10)
N2 N -0.87186(13) -0.00347(5) -0.80940(11)
N3 N -0.75878(12) 0.13631(5) -0.82371(11)
N4 N -0.83038(12) 0.04054(4) -0.81881(10)
H1 H -0.84620 0.05410 -0.88280
C1 C -1.03820(18) -0.23412(6) -1.04270(16)
H2 H -1.01970 -0.23950 -0.96280
H3 H -0.95240 -0.22950 -1.07110
H4 H -1.08540 -0.25940 -1.07970
C2 C -1.05639(16) -0.15688(5) -1.01584(13)
H5 H -0.97750 -0.14960 -1.05300
H6 H -1.02360 -0.16160 -0.93620
C3 C -1.15979(15) -0.11952(5) -1.03076(12)
H7 H -1.21010 -0.12080 -1.10800
C4 C -1.10225(15) -0.07237(5) -1.00897(12)
H8 H -1.06990 -0.06050 -1.07670
C5 C -0.98992(15) -0.06720(5) -0.90547(12)
H9 H -0.91150 -0.08610 -0.91730
C6 C -0.94034(15) -0.01967(5) -0.89909(12)
H10 H -0.96030 -0.00160 -0.96250
C7 C -0.76512(14) 0.06181(5) -0.72672(12)
C8 C -0.73076(14) 0.10805(5) -0.72464(12)
C9 C -0.66577(14) 0.12889(6) -0.62733(13)
H11 H -0.64620 0.15920 -0.62740
C10 C -0.63067(15) 0.10395(6) -0.53073(12)
C11 C -0.72564(15) 0.03780(5) -0.62395(13)
H12 H -0.74520 0.00750 -0.62170
C12 C -0.65987(14) 0.05827(6) -0.52876(13)
H13 H -0.63460 0.04190 -0.46290
C13 C -1.04281(16) -0.08347(5) -0.79671(12)
H14 H -1.03080 -0.11550 -0.79060
H15 H -0.98670 -0.07000 -0.73170
C14 C -1.19577(16) -0.07215(6) -0.79381(13)
H16 H -1.20150 -0.04060 -0.77380
C15 C -1.25628(19) -0.09961(6) -0.70578(14)
H17 H -1.20250 -0.09490 -0.63280
H18 H -1.25410 -0.13070 -0.72500
H19 H -1.35040 -0.09060 -0.70410
C16 C -1.27719(16) -0.07872(5) -0.91122(13)
H20 H -1.37580 -0.07280 -0.91020
O8 O -1.05769(11) 0.12362(4) -0.79526(9)
O9 O -1.55129(11) -0.20604(4) -1.42752(10)
O10 O -1.08676(12) 0.18463(4) -0.89301(9)
O11 O -1.64405(13) -0.05431(4) -1.43893(10)
O12 O -1.68987(11) -0.12432(4) -1.37938(10)
O13 O -1.24300(11) 0.11574(4) -1.38031(8)
O14 O -1.18362(12) 0.17739(4) -1.29170(9)
N5 N -1.09095(12) 0.14380(4) -0.88457(10)
N6 N -1.28449(13) 0.04278(4) -1.26977(10)
H21 H -1.28660 0.05300 -1.33720
N7 N -1.32874(13) -0.00020(5) -1.25211(11)
N8 N -1.21021(12) 0.13726(4) -1.29154(10)
C17 C -1.13833(14) 0.11784(5) -0.98598(12)
C18 C -1.15430(14) 0.13884(5) -1.08859(12)
H22 H -1.13440 0.16900 -1.09380
C19 C -1.20125(14) 0.11383(5) -1.18543(12)
C20 C -1.23813(14) 0.06821(5) -1.17939(12)
C21 C -1.37018(16) -0.02261(6) -1.34053(13)
H23 H -1.37040 -0.00960 -1.41110
C22 C -1.41919(16) -0.07007(5) -1.33288(12)
H24 H -1.33890 -0.08980 -1.33100
C23 C -1.52078(18) -0.08020(6) -1.44089(13)
H25 H -1.47870 -0.07320 -1.50820
C24 C -1.58130(17) -0.12752(6) -1.44859(13)
H26 H -1.62380 -0.13310 -1.52680
C25 C -1.48052(17) -0.16462(6) -1.41175(14)
H27 H -1.40500 -0.16390 -1.45600
H28 H -1.44200 -0.16090 -1.33280
C26 C -1.46048(19) -0.24254(6) -1.40069(18)
H29 H -1.41700 -0.24020 -1.32350
H30 H -1.39080 -0.24230 -1.44950
H31 H -1.51200 -0.26990 -1.41090
C27 C -1.22092(15) 0.04873(5) -1.06953(12)
H32 H -1.24450 0.01900 -1.06180
C28 C -1.17063(15) 0.07275(5) -0.97538(12)
H33 H -1.15790 0.05920 -0.90470
C29 C -1.70788(17) -0.07766(6) -1.35678(15)
H34 H -1.80680 -0.07040 -1.36560
C30 C -1.63906(17) -0.06589(6) -1.23901(14)
H35 H -1.64500 -0.03350 -1.22930
C31 C -1.48620(16) -0.07902(6) -1.22600(13)
H36 H -1.47770 -0.11050 -1.20770
H37 H -1.43560 -0.06250 -1.16320
C32 C -1.7123(2) -0.08869(7) -1.14962(17)
H38 H -1.66640 -0.08090 -1.07560
H39 H -1.70930 -0.12040 -1.15920
H40 H -1.80710 -0.07900 -1.15820
O15 O -0.32757(14) 0.32898(5) -1.28401(11)
O16 O -1.07487(14) -0.01607(4) -1.55969(10)
O17 O -0.39960(11) 0.20396(4) -1.06310(9)
O18 O -0.33543(11) 0.27667(4) -1.07259(9)
O19 O -0.93846(13) -0.00079(4) -1.17248(9)
O20 O -0.88071(11) 0.06240(4) -1.09137(8)
O21 O -1.08695(11) 0.04112(4) -1.67206(8)
N9 N -0.76462(13) 0.17101(4) -1.23757(11)
N10 N -0.82726(13) 0.13147(5) -1.21417(10)
H41 H -0.82900 0.12350 -1.14540
N11 N -1.05796(13) 0.02376(5) -1.57836(10)
N12 N -0.91367(12) 0.03919(4) -1.17733(10)
C33 C -0.3217(2) 0.36354(7) -1.20384(18)
H42 H -0.27910 0.35270 -1.13150
H43 H -0.41390 0.37370 -1.19880
H44 H -0.26810 0.38780 -1.22660
C34 C -0.42464(17) 0.29508(6) -1.27036(13)
H45 H -0.45490 0.28120 -1.34300
H46 H -0.50520 0.30850 -1.24520
C35 C -0.36679(15) 0.25956(6) -1.18655(13)
H47 H -0.28070 0.24820 -1.20900
C36 C -0.46091(16) 0.21980(5) -1.17278(13)
H48 H -0.45360 0.19720 -1.23080
C37 C -0.61439(15) 0.23158(5) -1.16854(12)
H49 H -0.65360 0.24500 -1.24100
C38 C -0.69255(15) 0.18979(5) -1.15293(13)
H50 H -0.68860 0.17740 -1.08130
C39 C -0.88603(14) 0.10541(5) -1.30087(13)
C40 C -0.90987(14) 0.12239(5) -1.41303(12)
H51 H -0.88540 0.15170 -1.42590
C41 C -0.96769(14) 0.09685(5) -1.50238(12)
H52 H -0.98430 0.10890 -1.57470
C42 C -1.00175(14) 0.05230(5) -1.48414(12)
C43 C -0.38355(16) 0.24417(6) -0.99941(13)
H53 H -0.31470 0.24010 -0.93170
C44 C -0.52116(16) 0.25789(6) -0.96629(13)
H54 H -0.55520 0.23330 -0.92400
C45 C -0.62580(15) 0.26576(6) -1.07376(13)
H55 H -0.61180 0.29550 -1.10210
H56 H -0.71880 0.26450 -1.05450
C46 C -0.92668(14) 0.06061(5) -1.28675(12)
C47 C -0.98224(14) 0.03400(5) -1.37778(12)
H57 H -1.00570 0.00440 -1.36670
C48 C -0.50721(19) 0.29890(7) -0.89178(14)
H58 H -0.59600 0.30630 -0.87150
H59 H -0.47400 0.32340 -0.93200
H60 H -0.44280 0.29300 -0.82460
O22 O -0.95854(13) 0.36558(4) -0.70759(10)
O23 O -1.58781(12) 0.06016(5) -1.12068(9)
O24 O -0.90232(11) 0.22090(4) -0.55174(9)
O25 O -0.87099(11) 0.29586(4) -0.52907(8)
O26 O -1.60713(16) 0.00157(5) -1.01769(11)
O27 O -1.40395(12) -0.00198(4) -0.63660(9)
O28 O -1.32974(11) 0.05750(4) -0.54413(8)
N13 N -1.27314(13) 0.17774(5) -0.66672(11)
N14 N -1.30925(13) 0.13366(5) -0.65022(11)
H61 H -1.29090 0.12160 -0.58450
N15 N -1.57040(14) 0.04012(5) -1.02962(11)
N16 N -1.37895(12) 0.03801(4) -0.63342(10)
C49 C -0.92077(19) 0.39002(6) -0.60575(16)
H62 H -0.83800 0.37750 -0.56410
H63 H -0.99440 0.38840 -0.56100
H64 H -0.90440 0.42060 -0.62350
C50 C -1.02918(17) 0.32536(6) -0.69140(13)
H65 H -1.08120 0.31610 -0.76320
H66 H -1.09510 0.33100 -0.63990
C51 C -0.93463(15) 0.28767(6) -0.64499(12)
H67 H -0.86100 0.28470 -0.69190
C52 C -1.00237(15) 0.24192(5) -0.63631(12)
H68 H -1.00900 0.22590 -0.70830
C53 C -1.14413(15) 0.24247(5) -0.59349(12)
H69 H -1.21100 0.25850 -0.64840
C54 C -1.19220(15) 0.19539(5) -0.58535(13)
H70 H -1.16280 0.17890 -0.52040
C55 C -1.37336(14) 0.11019(5) -0.73876(13)
C56 C -1.40798(15) 0.06422(5) -0.73564(12)
C57 C -1.47203(15) 0.04145(6) -0.83019(13)
H71 H -1.49300 0.01130 -0.82580
C58 C -1.50394(15) 0.06414(6) -0.93038(13)
C59 C -0.87911(15) 0.25487(6) -0.46862(13)
H72 H -0.79140 0.24940 -0.41890
C60 C -0.99783(16) 0.25584(6) -0.39936(13)
H73 H -1.00570 0.22630 -0.36610
C61 C -1.13417(15) 0.26616(6) -0.47810(13)
H74 H -1.14130 0.29810 -0.49030
H75 H -1.21170 0.25700 -0.44140
C62 C -1.47218(15) 0.10931(6) -0.93859(13)
H76 H -1.49350 0.12410 -1.00740
C63 C -1.40987(15) 0.13178(6) -0.84562(13)
H77 H -1.39060 0.16200 -0.85190
C64 C -0.97366(17) 0.28987(7) -0.30454(14)
H78 H -0.89500 0.28110 -0.25100
H79 H -1.05420 0.29150 -0.26750
H80 H -0.95640 0.31860 -0.33520
#END
