
#######################################################################
#
#                 Cambridge Crystallographic Data Centre
#                                CCDC
#
#######################################################################
#
# If this CIF has been generated from an entry in the Cambridge
# Structural Database, then it will include bibliographic, chemical,
# crystal, experimental, refinement or atomic coordinate data resulting
# from the CCDC's data processing and validation procedures.
#
#######################################################################

data_CSD_CIF_ULUJEQ
_audit_creation_date 2004-03-09
_audit_creation_method CSD-ConQuest-V1
_database_code_CSD ULUJEQ
_database_code_depnum_ccdc_archive 'CCDC 212702 (not 212701 as published)'
_chemical_formula_sum 'C18 H21 N3 O4'
_chemical_formula_moiety
;
C18 H21 N3 O4
;
_journal_coden_Cambridge 16
_journal_volume 59
_journal_year 2003
_journal_page_first 8731
_journal_name_full 'Tetrahedron '
loop_
_publ_author_name
"C.L.L.Chai"
"A.J.Edwards"
"B.A.Wilkes"
"R.C.J.Woodgate"
_chemical_name_systematic
;
9-Acetyl-4-methyl-3-mesityl-1-oxa-2,6,9-triazaspiro(4.5)dec-2-ene-7,10-dione
;
_chemical_melting_point 479.15
_cell_volume   1734.325
_exptl_crystal_colour 'colorless'
_exptl_crystal_density_diffrn 1.315
_exptl_special_details
;
Melting point range 479.15-480.15K

;
_exptl_crystal_description 'plate'
_diffrn_ambient_temperature 200
#These two values have been output from a single CSD field.
_refine_ls_R_factor_gt 0.0466
_refine_ls_wR_factor_gt 0.0466
_symmetry_cell_setting triclinic
_symmetry_space_group_name_H-M 'P -1'
_symmetry_Int_Tables_number 2
loop_
_symmetry_equiv_pos_site_id
_symmetry_equiv_pos_as_xyz
1 x,y,z
2 -x,-y,-z
_cell_length_a 9.3920(3)
_cell_length_b 14.3339(4)
_cell_length_c 14.9874(5)
_cell_angle_alpha 61.919(2)
_cell_angle_beta 78.6084(14)
_cell_angle_gamma 79.114(2)
_cell_formula_units_Z 4
loop_
_atom_type_symbol
_atom_type_radius_bond
C 0.68
H 0.23
N 0.68
O 0.68
loop_
_atom_site_label
_atom_site_type_symbol
_atom_site_fract_x
_atom_site_fract_y
_atom_site_fract_z
O1 O 0.5979(6) 0.5130(4) 0.1005(4)
O2 O 0.2517(6) 0.8450(4) 0.1169(4)
O3 O 0.2927(5) 0.5306(4) 0.2067(3)
O4 O 0.4929(5) 0.7735(4) -0.1582(3)
O5 O -0.1792(7) -0.0031(4) 0.3980(4)
O6 O 0.2166(6) -0.3135(4) 0.3826(4)
O7 O 0.1489(5) -0.0060(4) 0.3143(3)
O8 O -0.0586(6) -0.2530(4) 0.6587(3)
N1 N 0.4798(6) 0.6786(4) 0.0125(4)
N2 N 0.3717(6) 0.6808(4) 0.1981(4)
N3 N 0.2788(6) 0.4350(4) 0.3003(4)
N4 N -0.0436(6) -0.1612(4) 0.4877(4)
N5 N 0.0880(6) -0.1514(4) 0.3011(4)
N6 N 0.1768(6) 0.0894(4) 0.2221(4)
C1 C 0.4203(7) 0.5793(5) 0.1995(5)
C2 C 0.5104(7) 0.5877(5) 0.0999(5)
C3 C 0.3520(7) 0.7544(6) 0.0169(5)
C4 C 0.3218(8) 0.7640(6) 0.1143(6)
C5 C 0.4936(7) 0.4990(5) 0.2930(5)
C6 C 0.3882(7) 0.4180(5) 0.3466(5)
C7 C 0.4009(7) 0.3246(5) 0.4486(5)
C8 C 0.3012(7) 0.3179(5) 0.5337(5)
C9 C 0.3215(8) 0.2315(6) 0.6263(6)
C10 C 0.4375(8) 0.1513(6) 0.6388(6)
C11 C 0.5330(8) 0.1588(6) 0.5528(5)
C12 C 0.5182(7) 0.2442(5) 0.4581(5)
C13 C 0.1742(7) 0.4021(6) 0.5269(5)
C14 C 0.460(1) 0.0586(7) 0.7416(6)
C15 C 0.6231(8) 0.2460(6) 0.3649(5)
C16 C 0.5497(7) 0.7017(6) -0.0879(5)
C17 C 0.6913(7) 0.6383(6) -0.1003(6)
C18 C 0.5338(8) 0.5410(6) 0.3619(5)
C19 C 0.0296(7) -0.0522(5) 0.3041(5)
C20 C -0.0769(8) -0.0707(6) 0.4013(5)
C21 C 0.0897(7) -0.2330(6) 0.4846(5)
C22 C 0.1371(8) -0.2368(6) 0.3857(5)
C23 C -0.0295(7) 0.0323(5) 0.2063(5)
C24 C 0.0813(7) 0.1095(5) 0.1633(5)
C25 C 0.0843(7) 0.2033(5) 0.0634(5)
C26 C 0.1886(7) 0.2071(5) -0.0176(5)
C27 C 0.1856(8) 0.2969(6) -0.1124(6)
C28 C 0.0809(7) 0.3861(6) -0.1269(5)
C29 C -0.0181(8) 0.3833(6) -0.0446(5)
C30 C -0.0179(7) 0.2938(5) 0.0507(5)
C31 C 0.3081(8) 0.1149(6) -0.0053(6)
C32 C 0.0800(9) 0.4823(6) -0.2288(6)
C33 C -0.1256(8) 0.2954(6) 0.1400(5)
C34 C -0.1205(8) -0.1869(6) 0.5881(6)
C35 C -0.2683(8) -0.1317(6) 0.5984(6)
C36 C -0.0587(8) -0.0049(6) 0.1315(5)
H1 H 0.3783(6) 0.6907(4) 0.2555(4)
H2 H 0.1295(6) -0.1548(4) 0.2375(4)
H3 H 0.3697(7) 0.8263(6) -0.0402(5)
H4 H 0.2641(7) 0.7312(6) 0.0080(5)
H5 H 0.5941(7) 0.4720(5) 0.2719(5)
H6 H 0.2513(8) 0.2261(6) 0.6877(6)
H7 H 0.6151(8) 0.1011(6) 0.5596(5)
H8 H 0.1150(7) 0.3823(6) 0.5952(5)
H9 H 0.2130(7) 0.4714(6) 0.5032(5)
H10 H 0.1114(7) 0.4090(6) 0.4770(5)
H11 H 0.548(1) 0.0103(7) 0.7343(6)
H12 H 0.473(1) 0.0851(7) 0.7900(6)
H13 H 0.372(1) 0.0187(7) 0.7685(6)
H14 H 0.6990(8) 0.1831(6) 0.3867(5)
H15 H 0.6716(8) 0.3129(6) 0.3299(5)
H16 H 0.5658(8) 0.2431(6) 0.3168(5)
H17 H 0.7277(7) 0.6630(6) -0.1744(6)
H18 H 0.7652(7) 0.6472(6) -0.0659(6)
H19 H 0.6752(7) 0.5616(6) -0.0684(6)
H20 H 0.5838(8) 0.4813(6) 0.4189(5)
H21 H 0.6003(8) 0.5978(6) 0.3210(5)
H22 H 0.4423(8) 0.5711(6) 0.3907(5)
H23 H 0.0719(7) -0.3066(6) 0.5381(5)
H24 H 0.1710(7) -0.2095(6) 0.5005(5)
H25 H -0.1312(7) 0.0629(5) 0.2206(5)
H26 H 0.2594(8) 0.2982(6) -0.1710(6)
H27 H -0.0925(8) 0.4462(6) -0.0542(5)
H28 H 0.3728(8) 0.1311(6) -0.0712(6)
H29 H 0.3676(8) 0.1038(6) 0.0481(6)
H30 H 0.2616(8) 0.0490(6) 0.0163(6)
H31 H -0.0012(9) 0.5366(6) -0.2240(6)
H32 H 0.1753(9) 0.5129(6) -0.2494(6)
H33 H 0.0640(9) 0.4616(6) -0.2809(6)
H34 H -0.1908(8) 0.3641(6) 0.1177(5)
H35 H -0.0695(8) 0.2874(6) 0.1938(5)
H36 H -0.1862(8) 0.2349(6) 0.1682(5)
H37 H -0.3084(8) -0.1586(6) 0.6721(6)
H38 H -0.2618(8) -0.0536(6) 0.5677(6)
H39 H -0.3343(8) -0.1452(6) 0.5619(6)
H40 H -0.0998(8) 0.0567(6) 0.0714(5)
H41 H -0.1293(8) -0.0595(6) 0.1665(5)
H42 H 0.0360(8) -0.0370(6) 0.1081(5)
#END
