
#######################################################################
#
#                 Cambridge Crystallographic Data Centre
#                                CCDC
#
#######################################################################
#
# If this CIF has been generated from an entry in the Cambridge
# Structural Database, then it will include bibliographic, chemical,
# crystal, experimental, refinement or atomic coordinate data resulting
# from the CCDC's data processing and validation procedures.
#
#######################################################################

data_CSD_CIF_UMATOT
_audit_creation_date 2016-05-04
_audit_creation_method CSD-ConQuest-V1
_database_code_CSD UMATOT
_database_code_depnum_ccdc_archive 'CCDC 1426663'
_chemical_formula_sum 'C13 H12 N4 O1'
_chemical_formula_moiety
;
C13 H12 N4 O1
;
_journal_coden_Cambridge 575
_journal_volume 160
_journal_year 2016
_journal_page_first 336
_journal_name_full 'J.Photochem.Photobiol.,B '
loop_
_publ_author_name
"N.Bandyopadhyay"
"A.B.Pradhan"
"S.Das"
"Liping Lu"
"Miaoli Zhu"
"Shubhamoy Chowdhury"
"J.P.Naskar"
_chemical_name_systematic
;
N-Hydroxy-2-phenyl-2-(pyridin-2-ylhydrazono)ethanimine
;
_cell_volume   1226.762
_exptl_crystal_density_diffrn 1.301
_diffrn_ambient_temperature 298
_refine_special_details
;
C2A,C3A,C5A,C6A and C2B,C3B,C5B,C6B disordered over two sites with 
occupancies 0.502:0.498.
;
#These two values have been output from a single CSD field.
_refine_ls_R_factor_gt 0.0519
_refine_ls_wR_factor_gt 0.0519
_symmetry_cell_setting monoclinic
_symmetry_space_group_name_H-M 'P 21/c'
_symmetry_Int_Tables_number 14
loop_
_symmetry_equiv_pos_site_id
_symmetry_equiv_pos_as_xyz
1 x,y,z
2 -x,1/2+y,1/2-z
3 -x,-y,-z
4 x,-1/2-y,-1/2+z
_cell_length_a 16.346(6)
_cell_length_b 4.9972(19)
_cell_length_c 15.788(6)
_cell_angle_alpha 90
_cell_angle_beta 107.964(5)
_cell_angle_gamma 90
_cell_formula_units_Z 4
loop_
_atom_type_symbol
_atom_type_radius_bond
C 0.68
H 0.23
N 0.68
O 0.68
loop_
_atom_site_label
_atom_site_type_symbol
_atom_site_fract_x
_atom_site_fract_y
_atom_site_fract_z
C1 C 0.32843(16) 0.6372(6) 0.51148(16)
C2 C 0.4826(2) 0.5503(7) 0.6453(2)
H1 H 0.53400 0.52280 0.69060
C3 C 0.24584(16) 0.6832(5) 0.43959(16)
C4 C 0.17348(17) 0.5113(6) 0.43546(17)
H2 H 0.18190 0.36370 0.47300
C5 C 0.17911(17) 1.1270(5) 0.25592(17)
C6 C 0.25053(18) 1.2860(6) 0.26479(18)
H3 H 0.30030 1.26380 0.31260
C7 C 0.2460(2) 1.4766(6) 0.2013(2)
H4 H 0.29290 1.58640 0.20520
C8 C 0.1703(2) 1.5044(7) 0.1310(2)
H5 H 0.16550 1.63360 0.08730
C9 C 0.1038(2) 1.3388(7) 0.1276(2)
H6 H 0.05340 1.35830 0.08040
C10 C 0.3317(4) 0.5349(15) 0.5927(5)
H7 H 0.28090 0.48930 0.60390
C11 C 0.4100(4) 0.4978(16) 0.6589(5)
H8 H 0.41020 0.43380 0.71430
C12 C 0.4842(4) 0.6496(17) 0.5616(5)
H9 H 0.53610 0.68390 0.55120
C13 C 0.4070(4) 0.6944(16) 0.4959(4)
H10 H 0.40690 0.76270 0.44100
N1 N 0.09867(14) 0.5559(5) 0.38192(15)
N2 N 0.24801(13) 0.8784(5) 0.38510(14)
N3 N 0.17617(13) 0.9340(4) 0.31723(14)
H11 H 0.12910 0.84970 0.31240
N4 N 0.10616(14) 1.1484(5) 0.18828(15)
O1 O 0.03997(12) 0.3619(4) 0.38784(15)
H12 H -0.00900 0.41560 0.36310
C14? C 0.3446(4) 0.3952(18) 0.5550(5)
H13? H 0.30360 0.26020 0.53890
C15? C 0.4210(4) 0.348(2) 0.6225(5)
H14? H 0.43090 0.18460 0.65200
C16? C 0.4641(4) 0.7959(15) 0.6069(5)
H15? H 0.50270 0.93620 0.62650
C17? C 0.3876(4) 0.8387(14) 0.5384(4)
H16? H 0.37670 1.00520 0.51090
#END
