
#######################################################################
#
#                 Cambridge Crystallographic Data Centre
#                                CCDC
#
#######################################################################
#
# If this CIF has been generated from an entry in the Cambridge
# Structural Database, then it will include bibliographic, chemical,
# crystal, experimental, refinement or atomic coordinate data resulting
# from the CCDC's data processing and validation procedures.
#
#######################################################################

data_CSD_CIF_UMATUX
_audit_creation_date 2004-03-09
_audit_creation_method CSD-ConQuest-V1
_database_code_CSD UMATUX
_database_code_depnum_ccdc_archive 'CCDC 214073'
_chemical_formula_sum 'C13 H14 N2 O2'
_chemical_formula_moiety
;
C13 H14 N2 O2
;
_journal_coden_Cambridge 182
_journal_year 2003
_journal_page_first 2830
_journal_name_full 'Chem.Commun. '
loop_
_publ_author_name
"Lin-Ping Zhang"
"Wen-Jie Lu"
"T.C.W.Mak"
_chemical_name_systematic
;
1,3-bis(4-Pyridyl)propane-N,N'-dioxide
;
_cell_volume   1199.561
_exptl_crystal_colour 'colorless'
_exptl_crystal_density_diffrn 1.275
_exptl_crystal_description 'block'
_exptl_crystal_preparation 'ethanol'
_diffrn_ambient_temperature 293
#These two values have been output from a single CSD field.
_refine_ls_R_factor_gt 0.044
_refine_ls_wR_factor_gt 0.044
_symmetry_cell_setting orthorhombic
_symmetry_space_group_name_H-M 'P n m a'
_symmetry_Int_Tables_number 62
loop_
_symmetry_equiv_pos_site_id
_symmetry_equiv_pos_as_xyz
1 x,y,z
2 1/2-x,-y,1/2+z
3 -x,1/2+y,-z
4 1/2+x,1/2-y,1/2-z
5 -x,-y,-z
6 -1/2+x,y,-1/2-z
7 x,-1/2-y,z
8 -1/2-x,-1/2+y,-1/2+z
_cell_length_a 9.1586(16)
_cell_length_b 7.7990(14)
_cell_length_c 16.794(3)
_cell_angle_alpha 90
_cell_angle_beta 90
_cell_angle_gamma 90
_cell_formula_units_Z 4
loop_
_atom_type_symbol
_atom_type_radius_bond
C 0.68
H 0.23
N 0.68
O 0.68
loop_
_atom_site_label
_atom_site_type_symbol
_atom_site_fract_x
_atom_site_fract_y
_atom_site_fract_z
O1 O 0.29243(17) 0.25000 1.21795(8)
N1 N 0.37768(18) 0.25000 1.15496(9)
C1 C 0.3202(2) 0.25000 1.08089(12)
H1 H 0.21930 0.25000 1.07470
C2 C 0.4077(2) 0.25000 1.01478(11)
H2 H 0.36470 0.25000 0.96460
C3 C 0.5589(2) 0.25000 1.02071(10)
C4 C 0.6145(2) 0.25000 1.09767(10)
H3 H 0.71510 0.25000 1.10500
C5 C 0.5248(2) 0.25000 1.16334(11)
H4 H 0.56560 0.25000 1.21410
C6 C 0.6613(2) 0.25000 0.95056(11)
H5 H 0.72360 0.14990 0.95490
C7 C 0.5943(2) 0.25000 0.86791(10)
H6 H 0.53340 0.14930 0.86140
C8 C 0.7142(2) 0.25000 0.80471(11)
H7 H 0.77510 0.14950 0.81220
C9 C 0.6556(2) 0.25000 0.72054(10)
C10 C 0.62691(15) 0.09842(19) 0.68024(8)
H8 H 0.64410 -0.00590 0.70540
C11 C 0.57331(15) 0.09993(19) 0.60345(7)
H9 H 0.55430 -0.00310 0.57760
N2 N 0.54822(15) 0.25000 0.56550(8)
O2 O 0.50030(16) 0.25000 0.49131(7)
H5F H 0.72360 0.35010 0.95490
H6F H 0.53340 0.35070 0.86140
H7F H 0.77510 0.35050 0.81220
C11F C 0.57331(15) 0.40007(19) 0.60345(7)
C10F C 0.62691(15) 0.40158(19) 0.68024(8)
H8F H 0.64410 0.50590 0.70540
H9F H 0.55430 0.50310 0.57760
#END
