
#######################################################################
#
#                 Cambridge Crystallographic Data Centre
#                                CCDC
#
#######################################################################
#
# If this CIF has been generated from an entry in the Cambridge
# Structural Database, then it will include bibliographic, chemical,
# crystal, experimental, refinement or atomic coordinate data resulting
# from the CCDC's data processing and validation procedures.
#
#######################################################################

data_CSD_CIF_UMIKEG
_audit_creation_date 2004-03-09
_audit_creation_method CSD-ConQuest-V1
_database_code_CSD UMIKEG
_database_code_depnum_ccdc_archive 'CCDC 211589'
_chemical_formula_sum 'C25 H32 N2 O3'
_chemical_formula_moiety
;
C25 H32 N2 O3
;
_journal_coden_Cambridge 16
_journal_volume 59
_journal_year 2003
_journal_page_first 9713
_journal_name_full 'Tetrahedron '
loop_
_publ_author_name
"R.Luisi"
"V.Capriati"
"L.Degennaro"
"S.Florio"
_chemical_name_systematic
;
(2R,3R,4R,7S,11S)-(+)-10-t-Butyl-7-isopropyl-2,11-diphenyl-1,5,9-trioxa-8,10-d
iazadispiro(2.0.4.3)undecane
;
_chemical_melting_point 431.15
_cell_volume   2293.245
_exptl_special_details
;
Melting point range 431.15-434.15K

;
_diffrn_ambient_temperature 293
#These two values have been output from a single CSD field.
_refine_ls_R_factor_gt 0.0499
_refine_ls_wR_factor_gt 0.0499
_symmetry_cell_setting orthorhombic
_symmetry_space_group_name_H-M 'P 21 21 21'
_symmetry_Int_Tables_number 19
loop_
_symmetry_equiv_pos_site_id
_symmetry_equiv_pos_as_xyz
1 x,y,z
2 1/2-x,-y,1/2+z
3 1/2+x,1/2-y,-z
4 -x,1/2+y,1/2-z
_cell_length_a 9.7843(1)
_cell_length_b 10.7880(2)
_cell_length_c 21.7260(5)
_cell_angle_alpha 90
_cell_angle_beta 90
_cell_angle_gamma 90
_cell_formula_units_Z 4
loop_
_atom_type_symbol
_atom_type_radius_bond
C 0.68
H 0.23
N 0.68
O 0.68
loop_
_atom_site_label
_atom_site_type_symbol
_atom_site_fract_x
_atom_site_fract_y
_atom_site_fract_z
O1 O 0.0456(2) 0.12325(16) 0.41335(8)
O2 O -0.0774(2) -0.18395(16) 0.39470(9)
N1 N -0.0078(2) 0.0059(2) 0.52747(9)
O3 O 0.11606(19) -0.0146(2) 0.48975(8)
C1 C 0.0692(3) -0.0026(2) 0.42808(10)
N2 N 0.1724(2) -0.0496(2) 0.38797(10)
H1? H 0.13270 -0.08480 0.35440
H2 H 0.20100 -0.12890 0.40290
C2 C -0.0668(3) -0.0716(2) 0.42976(10)
C3 C -0.1111(3) -0.0745(2) 0.49734(11)
H3 H -0.10660 -0.15540 0.51560
C4 C -0.3610(3) -0.0992(3) 0.52329(13)
H4 H -0.34450 -0.18490 0.53260
C5 C -0.1387(3) -0.0193(3) 0.31695(12)
C6 C -0.1613(3) -0.0795(3) 0.37828(11)
H5 H -0.25510 -0.10530 0.38010
C7 C 0.2535(3) 0.0596(3) 0.37001(10)
H6 H 0.32120 0.07410 0.40120
C8 C -0.2536(3) -0.0232(3) 0.50573(11)
C9 C 0.0330(3) -0.0289(3) 0.59150(11)
C10 C -0.5185(3) 0.0691(3) 0.51441(14)
H7 H -0.60890 0.10300 0.51790
C11 C -0.2810(3) 0.1001(3) 0.49248(13)
H8 H -0.20910 0.15400 0.47880
C12 C 0.1464(3) 0.1613(3) 0.36936(13)
H9 H 0.18690 0.23980 0.37930
H10 H 0.10920 0.16450 0.32850
C13 C -0.1897(4) 0.0977(3) 0.30736(16)
H11 H -0.23680 0.14000 0.33990
C14 C -0.4928(3) -0.0523(4) 0.52778(16)
H12 H -0.56600 -0.10690 0.53930
C15 C -0.0956(4) -0.0198(4) 0.63061(13)
H13 H -0.16010 -0.08160 0.61770
H14 H -0.13480 0.06110 0.62540
H15 H -0.07320 -0.03230 0.67320
C16 C 0.0962(4) -0.1577(4) 0.59629(15)
H16 H 0.02950 -0.21770 0.58360
H17 H 0.12390 -0.17470 0.63780
H18 H 0.17420 -0.16200 0.56960
C17 C -0.4121(4) 0.1469(3) 0.49717(14)
H19 H -0.43090 0.23270 0.48920
C18 C 0.3302(3) 0.0413(3) 0.31010(12)
H20 H 0.26440 0.01950 0.27920
C19 C -0.1700(4) 0.1568(4) 0.25181(18)
H21 H -0.20440 0.23920 0.24570
C20 C -0.0718(4) -0.0792(4) 0.27000(13)
H22 H -0.03750 -0.16130 0.27730
C21 C 0.1356(4) 0.0674(4) 0.61287(14)
H23 H 0.09460 0.14810 0.61050
H24 H 0.21390 0.06410 0.58630
H25 H 0.16360 0.05140 0.65450
C22 C 0.4004(5) 0.1612(4) 0.29127(19)
H26 H 0.33420 0.22640 0.28700
H27 H 0.44660 0.14910 0.25280
H28 H 0.46570 0.18340 0.32240
C23 C -0.0988(4) 0.0987(4) 0.20547(16)
H29 H -0.08710 0.14190 0.16720
C24 C 0.4320(4) -0.0632(4) 0.31509(19)
H30 H 0.38630 -0.13840 0.32680
H31 H 0.49730 -0.04120 0.34620
H32 H 0.47830 -0.07550 0.27660
C25 C -0.0513(4) -0.0179(4) 0.21401(14)
H33 H -0.00360 -0.05690 0.18060
#END
