
#######################################################################
#
#                 Cambridge Crystallographic Data Centre
#                                CCDC
#
#######################################################################
#
# If this CIF has been generated from an entry in the Cambridge
# Structural Database, then it will include bibliographic, chemical,
# crystal, experimental, refinement or atomic coordinate data resulting
# from the CCDC's data processing and validation procedures.
#
#######################################################################

data_CSD_CIF_UMOLUF
_audit_creation_date 2016-05-05
_audit_creation_method CSD-ConQuest-V1
_database_code_CSD UMOLUF
_database_code_depnum_ccdc_archive 'CCDC 1448267'
_chemical_formula_sum 'C22 H15 N1 O2'
_chemical_formula_moiety
;
C22 H15 N1 O2
;
_journal_coden_Cambridge 1350
_journal_volume 18
_journal_year 2016
_journal_page_first 3667
_journal_name_full 'CrystEngComm '
loop_
_publ_author_name
"Xinyuan Zhang"
"Xingxing Jiang"
"Pengxiang Liu"
"Yin Li"
"Heng Tu"
"Zheshuai Lin"
"Degang Xu"
"Guochun Zhang"
"Yicheng Wu"
"Jianquan Yao"
_chemical_name_systematic
;
4-(biphenyl-4-ylmethylene)-3-phenyl-1,2-oxazol-5(4H)-one
;
_cell_volume   1619.066
_exptl_crystal_colour 'yellow'
_exptl_crystal_density_diffrn 1.335
_exptl_crystal_description 'Prism'
_diffrn_ambient_temperature 153
_refine_special_details
;
C17,C18,C19,C20,C21,C22 and C17',C18',C19',C20',C21',C22' disordered over two 
sites with occupancies 0.530:0.470.
;
#These two values have been output from a single CSD field.
_refine_ls_R_factor_gt 0.0549
_refine_ls_wR_factor_gt 0.0549
_symmetry_cell_setting monoclinic
_symmetry_space_group_name_H-M 'P 21/c'
_symmetry_Int_Tables_number 14
loop_
_symmetry_equiv_pos_site_id
_symmetry_equiv_pos_as_xyz
1 x,y,z
2 -x,1/2+y,1/2-z
3 -x,-y,-z
4 x,-1/2-y,-1/2+z
_cell_length_a 24.695(7)
_cell_length_b 5.6676(15)
_cell_length_c 11.644(3)
_cell_angle_alpha 90
_cell_angle_beta 96.552(4)
_cell_angle_gamma 90
_cell_formula_units_Z 4
loop_
_atom_type_symbol
_atom_type_radius_bond
C 0.68
H 0.23
N 0.68
O 0.68
loop_
_atom_site_label
_atom_site_type_symbol
_atom_site_fract_x
_atom_site_fract_y
_atom_site_fract_z
O1 O 0.33238(4) -0.0412(2) 0.51109(9)
O2 O 0.26810(5) 0.2061(2) 0.55909(10)
N1 N 0.37012(5) -0.0579(2) 0.42506(11)
C1 C 0.16728(6) 0.9559(3) 0.33431(13)
C2 C 0.17858(8) 0.7900(4) 0.42194(18)
H1 H 0.15700 0.78990 0.48450
C3 C 0.21954(8) 0.6265(4) 0.42176(16)
H2 H 0.22540 0.51570 0.48310
C4 C 0.25270(6) 0.6212(3) 0.33271(12)
C5 C 0.24198(6) 0.7880(3) 0.24516(14)
H3 H 0.26380 0.78940 0.18300
C6 C 0.20057(7) 0.9511(3) 0.24622(14)
H4 H 0.19470 1.06270 0.18520
C7 C 0.29733(6) 0.4601(3) 0.32454(12)
H5 H 0.31640 0.48960 0.25970
C8 C 0.30107(6) 0.1602(3) 0.49321(13)
C9 C 0.31787(6) 0.2750(3) 0.38998(12)
C10 C 0.36137(6) 0.1246(3) 0.35899(12)
C11 C 0.39522(6) 0.1618(3) 0.26311(12)
C12 C 0.39685(6) -0.0083(3) 0.17701(13)
H6 H 0.37570 -0.14800 0.17880
C13 C 0.42920(6) 0.0263(3) 0.08893(13)
H7 H 0.42990 -0.08880 0.02980
C14 C 0.46053(6) 0.2282(3) 0.08680(13)
H8 H 0.48310 0.25000 0.02680
C15 C 0.45924(6) 0.3986(3) 0.17161(13)
H9 H 0.48090 0.53670 0.17000
C16 C 0.42603(6) 0.3667(3) 0.25909(12)
H10 H 0.42440 0.48510 0.31630
C17 C 0.12166(12) 1.1271(5) 0.3358(3)
C18 C 0.12041(15) 1.3336(6) 0.2685(3)
H11 H 0.14950 1.36610 0.22400
C19 C 0.07709(17) 1.4908(7) 0.2665(4)
H12 H 0.07560 1.62400 0.21670
C20 C 0.0364(4) 1.4554(16) 0.3358(7)
H13 H 0.00730 1.56510 0.33560
C21 C 0.03835(15) 1.2578(8) 0.4058(4)
H14 H 0.01030 1.23130 0.45370
C22 C 0.08107(9) 1.0975(4) 0.40660(19)
H15 H 0.08230 0.96520 0.45690
C23? C 0.12301(9) 1.1317(4) 0.33599(19)
C24? C 0.10375(9) 1.2615(4) 0.23681(19)
H16? H 0.11860 1.23420 0.16620
C25? C 0.0630(2) 1.4297(10) 0.2415(4)
H17? H 0.05180 1.52310 0.17530
C26? C 0.0389(5) 1.462(2) 0.3410(9)
H18? H 0.01040 1.57380 0.34310
C27? C 0.0566(3) 1.3299(12) 0.4377(5)
H19? H 0.04070 1.35390 0.50740
C28? C 0.0975(2) 1.1621(9) 0.4342(4)
H20? H 0.10800 1.06740 0.50030
#END
