
#######################################################################
#
#                 Cambridge Crystallographic Data Centre
#                                CCDC
#
#######################################################################
#
# If this CIF has been generated from an entry in the Cambridge
# Structural Database, then it will include bibliographic, chemical,
# crystal, experimental, refinement or atomic coordinate data resulting
# from the CCDC's data processing and validation procedures.
#
#######################################################################

data_CSD_CIF_UMOMAM
_audit_creation_date 2016-05-05
_audit_creation_method CSD-ConQuest-V1
_database_code_CSD UMOMAM
_database_code_depnum_ccdc_archive 'CCDC 1448253'
_chemical_formula_sum 'C28 H20 N2 O2'
_chemical_formula_moiety
;
C28 H20 N2 O2
;
_journal_coden_Cambridge 1350
_journal_volume 18
_journal_year 2016
_journal_page_first 3667
_journal_name_full 'CrystEngComm '
loop_
_publ_author_name
"Xinyuan Zhang"
"Xingxing Jiang"
"Pengxiang Liu"
"Yin Li"
"Heng Tu"
"Zheshuai Lin"
"Degang Xu"
"Guochun Zhang"
"Yicheng Wu"
"Jianquan Yao"
_chemical_name_systematic
;
4-(4-(diphenylamino)benzylidene)-3-phenyl-1,2-oxazol-5(4H)-one
;
_cell_volume   4305.882
_exptl_crystal_colour 'orange'
_exptl_crystal_density_diffrn 1.285
_exptl_crystal_description 'slice'
_diffrn_ambient_temperature 293
#These two values have been output from a single CSD field.
_refine_ls_R_factor_gt 0.0451
_refine_ls_wR_factor_gt 0.0451
_symmetry_cell_setting orthorhombic
_symmetry_space_group_name_H-M 'P b c a'
_symmetry_Int_Tables_number 61
loop_
_symmetry_equiv_pos_site_id
_symmetry_equiv_pos_as_xyz
1 x,y,z
2 1/2-x,-y,1/2+z
3 1/2+x,1/2-y,-z
4 -x,1/2+y,1/2-z
5 -x,-y,-z
6 -1/2+x,y,-1/2-z
7 -1/2-x,-1/2+y,z
8 x,-1/2-y,-1/2+z
_cell_length_a 11.550(2)
_cell_length_b 11.294(2)
_cell_length_c 33.009(6)
_cell_angle_alpha 90
_cell_angle_beta 90
_cell_angle_gamma 90
_cell_formula_units_Z 8
loop_
_atom_type_symbol
_atom_type_radius_bond
C 0.68
H 0.23
N 0.68
O 0.68
loop_
_atom_site_label
_atom_site_type_symbol
_atom_site_fract_x
_atom_site_fract_y
_atom_site_fract_z
O1 O 0.74891(14) 0.25398(15) 0.15268(5)
O2 O 0.87578(12) 0.18571(13) 0.19804(5)
N1 N 0.25595(16) 0.08786(19) 0.06631(6)
N2 N 0.88459(14) 0.08989(16) 0.22679(5)
C1 C 0.0944(2) 0.0596(3) 0.11314(8)
H1 H 0.13420 0.10270 0.13270
C2 C -0.0131(2) 0.0137(3) 0.12216(9)
H2 H -0.04350 0.02330 0.14800
C3 C -0.0744(2) -0.0448(3) 0.09394(10)
H3 H -0.14760 -0.07430 0.09990
C4 C -0.0278(2) -0.0603(2) 0.05663(9)
H4 H -0.07050 -0.09960 0.03690
C5 C 0.0818(2) -0.01914(19) 0.04719(7)
H5 H 0.11310 -0.03330 0.02170
C6 C 0.14376(18) 0.04247(19) 0.07550(7)
C7 C 0.2744(2) 0.1469(2) 0.02887(7)
C8 C 0.2041(3) 0.2383(2) 0.01703(9)
H6 H 0.14480 0.26440 0.03390
C9 C 0.2221(4) 0.2919(3) -0.02052(13)
H7 H 0.17530 0.35460 -0.02860
C10 C 0.3083(5) 0.2527(5) -0.04552(12)
H8 H 0.31970 0.28830 -0.07060
C11 C 0.3765(3) 0.1623(4) -0.03377(11)
H9 H 0.43470 0.13530 -0.05090
C12 C 0.3609(3) 0.1096(3) 0.00354(9)
H10 H 0.40960 0.04830 0.01150
C13 C 0.34851(19) 0.0693(2) 0.09306(6)
C14 C 0.4377(2) 0.1514(2) 0.09616(7)
H11 H 0.43720 0.21790 0.07950
C15 C 0.52656(19) 0.13625(19) 0.12325(7)
H12 H 0.58460 0.19310 0.12490
C16 C 0.53156(16) 0.03713(17) 0.14841(6)
C17 C 0.44297(19) -0.0464(2) 0.14412(6)
H13 H 0.44510 -0.11460 0.15990
C18 C 0.35334(19) -0.0312(2) 0.11751(7)
H14 H 0.29540 -0.08820 0.11570
C19 C 0.61755(16) 0.01420(17) 0.17889(6)
H15 H 0.60430 -0.05610 0.19280
C20 C 0.71392(16) 0.07206(17) 0.19197(6)
C21 C 0.77206(18) 0.1789(2) 0.17734(7)
C22 C 0.79138(16) 0.02774(17) 0.22301(6)
C23 C 0.77223(16) -0.07415(17) 0.25023(6)
C24 C 0.85561(17) -0.16177(19) 0.25490(7)
H16 H 0.92440 -0.15740 0.24030
C25 C 0.8369(2) -0.2551(2) 0.28097(8)
H17 H 0.89320 -0.31340 0.28380
C26 C 0.7363(2) -0.2630(2) 0.30276(8)
H18 H 0.72380 -0.32670 0.32010
C27 C 0.6539(2) -0.1762(2) 0.29879(7)
H19 H 0.58610 -0.18050 0.31390
C28 C 0.67072(18) -0.08268(18) 0.27260(6)
H20 H 0.61380 -0.02500 0.26990
#END
