
#######################################################################
#
#                 Cambridge Crystallographic Data Centre
#                                CCDC
#
#######################################################################
#
# If this CIF has been generated from an entry in the Cambridge
# Structural Database, then it will include bibliographic, chemical,
# crystal, experimental, refinement or atomic coordinate data resulting
# from the CCDC's data processing and validation procedures.
#
#######################################################################

data_CSD_CIF_UMOMIU
_audit_creation_date 2016-05-05
_audit_creation_method CSD-ConQuest-V1
_database_code_CSD UMOMIU
_database_code_depnum_ccdc_archive 'CCDC 1448263'
_chemical_formula_sum 'C18 H13 N1 O2'
_chemical_formula_moiety
;
C18 H13 N1 O2
;
_journal_coden_Cambridge 1350
_journal_volume 18
_journal_year 2016
_journal_page_first 3667
_journal_name_full 'CrystEngComm '
loop_
_publ_author_name
"Xinyuan Zhang"
"Xingxing Jiang"
"Pengxiang Liu"
"Yin Li"
"Heng Tu"
"Zheshuai Lin"
"Degang Xu"
"Guochun Zhang"
"Yicheng Wu"
"Jianquan Yao"
_chemical_name_systematic
;
4-(9H-fluoren-2-ylmethylene)-3-methyl-1,2-oxazol-5(4H)-one
;
_cell_volume   2056.809
_exptl_crystal_colour 'orange'
_exptl_crystal_density_diffrn 1.334
_exptl_crystal_description 'slice'
_diffrn_ambient_temperature 293
#These two values have been output from a single CSD field.
_refine_ls_R_factor_gt 0.076
_refine_ls_wR_factor_gt 0.076
_symmetry_cell_setting triclinic
_symmetry_space_group_name_H-M 'P -1'
_symmetry_Int_Tables_number 2
loop_
_symmetry_equiv_pos_site_id
_symmetry_equiv_pos_as_xyz
1 x,y,z
2 -x,-y,-z
_cell_length_a 10.6405(18)
_cell_length_b 12.712(2)
_cell_length_c 16.534(3)
_cell_angle_alpha 107.075(4)
_cell_angle_beta 90.263(4)
_cell_angle_gamma 105.029(4)
_cell_formula_units_Z 6
loop_
_atom_type_symbol
_atom_type_radius_bond
C 0.68
H 0.23
N 0.68
O 0.68
loop_
_atom_site_label
_atom_site_type_symbol
_atom_site_fract_x
_atom_site_fract_y
_atom_site_fract_z
O1 O -0.2108(4) 0.3492(3) 0.6024(3)
O2 O -0.1387(4) 0.2554(3) 0.4850(3)
N1 N -0.1898(4) 0.3726(4) 0.6926(3)
C1 C 0.3932(5) -0.0832(4) 0.3518(4)
H1 H 0.43000 -0.09500 0.39840
C2 C 0.4290(6) -0.1257(5) 0.2703(6)
H2 H 0.49040 -0.16740 0.26150
C3 C 0.3742(7) -0.1061(5) 0.2030(5)
H3 H 0.40050 -0.13400 0.14910
C4 C 0.2831(6) -0.0476(4) 0.2123(4)
H4 H 0.24590 -0.03630 0.16550
C5 C 0.2467(5) -0.0052(4) 0.2919(4)
C6 C 0.3000(5) -0.0225(4) 0.3607(4)
C7 C 0.2410(4) 0.0344(3) 0.4369(3)
C8 C 0.1539(4) 0.0829(3) 0.4108(3)
C9 C 0.1464(5) 0.0619(4) 0.3180(3)
H5 H 0.16990 0.13300 0.30380
H6 H 0.05980 0.01730 0.29150
C10 C 0.0816(4) 0.1440(3) 0.4702(3)
H7 H 0.02200 0.17670 0.45270
C11 C 0.1031(4) 0.1531(3) 0.5550(3)
C12 C 0.1937(4) 0.1014(3) 0.5784(3)
H8 H 0.20820 0.10810 0.63540
C13 C 0.2611(5) 0.0416(4) 0.5201(4)
H9 H 0.31910 0.00670 0.53690
C14 C 0.0387(4) 0.2134(3) 0.6231(3)
H10 H 0.06840 0.21410 0.67630
C15 C -0.0544(4) 0.2686(3) 0.6270(3)
C16 C -0.1319(5) 0.2854(4) 0.5618(4)
C17 C -0.1017(4) 0.3252(4) 0.7045(3)
C18 C -0.0597(5) 0.3336(4) 0.7915(3)
H11 H -0.10330 0.38080 0.83110
H12 H 0.03310 0.36700 0.80200
H13 H -0.08120 0.25860 0.79810
O3 O 0.5593(4) 0.1482(3) 0.1306(2)
O4 O 0.4169(4) 0.2395(3) 0.1916(2)
N2 N 0.6616(4) 0.1063(3) 0.1561(3)
C19 C 0.1630(5) 0.5198(4) 0.5848(4)
H14 H 0.12850 0.52370 0.53430
C20 C 0.1175(5) 0.5692(4) 0.6642(5)
H15 H 0.05240 0.60650 0.66740
C21 C 0.1739(6) 0.5596(4) 0.7366(4)
H16 H 0.14690 0.59210 0.78940
C22 C 0.2672(5) 0.5040(4) 0.7319(3)
H17 H 0.30250 0.49760 0.78120
C23 C 0.3085(5) 0.4589(4) 0.6585(4)
C24 C 0.2605(5) 0.4659(3) 0.5856(3)
C25 C 0.3257(4) 0.4062(3) 0.5116(3)
C26 C 0.4126(5) 0.3646(4) 0.5483(3)
C27 C 0.4139(5) 0.3898(4) 0.6392(3)
H18 H 0.49900 0.43580 0.66740
H19 H 0.38840 0.32050 0.65570
C28 C 0.4934(4) 0.3034(3) 0.4955(3)
H20 H 0.55270 0.27510 0.51820
C29 C 0.4793(4) 0.2887(3) 0.4099(3)
C30 C 0.3893(4) 0.3343(3) 0.3775(3)
H21 H 0.38130 0.32360 0.31940
C31 C 0.3136(5) 0.3938(4) 0.4286(4)
H22 H 0.25620 0.42440 0.40630
C32 C 0.5628(4) 0.2274(3) 0.3576(3)
H23 H 0.62180 0.20910 0.38920
C33 C 0.5734(4) 0.1914(3) 0.2739(3)
C34 C 0.6677(4) 0.1314(3) 0.2371(3)
C35 C 0.7635(5) 0.0983(4) 0.2811(3)
H24 H 0.81580 0.06250 0.24060
H25 H 0.71880 0.04550 0.30970
H26 H 0.81860 0.16500 0.32190
C36 C 0.5051(5) 0.1998(4) 0.2006(3)
O5 O 0.8937(3) 0.8673(2) 0.16520(19)
O6 O 0.7391(3) 0.7344(3) 0.1954(2)
N3 N 0.9119(4) 0.9308(3) 0.1038(2)
C37 C 0.1145(4) 0.2979(3) 0.1581(3)
H27 H 0.14270 0.28060 0.20470
C38 C -0.0083(5) 0.2419(4) 0.1167(3)
H28 H -0.06260 0.18570 0.13590
C39 C -0.0527(4) 0.2663(4) 0.0485(3)
H29 H -0.13650 0.22770 0.02240
C40 C 0.0269(4) 0.3485(3) 0.0181(3)
H30 H -0.00210 0.36590 -0.02830
C41 C 0.1525(4) 0.4051(3) 0.0590(3)
C42 C 0.1943(4) 0.3805(3) 0.1284(3)
C43 C 0.3304(4) 0.4536(3) 0.1613(3)
H31 H 0.33310 0.50150 0.21940
H32 H 0.39080 0.40740 0.15850
C44 C 0.3604(4) 0.5240(3) 0.1014(2)
C45 C 0.2550(4) 0.4952(3) 0.0412(2)
C46 C 0.2617(4) 0.5487(3) -0.0203(3)
H33 H 0.19200 0.52850 -0.06100
C47 C 0.3730(4) 0.6324(3) -0.0208(3)
H34 H 0.37700 0.66970 -0.06180
C48 C 0.4805(4) 0.6632(3) 0.0386(2)
C49 C 0.4736(4) 0.6071(3) 0.1006(2)
H35 H 0.54400 0.62550 0.14050
C50 C 0.5913(4) 0.7527(3) 0.0317(2)
H36 H 0.57870 0.78040 -0.01300
C51 C 0.7095(4) 0.8053(3) 0.0758(2)
C52 C 0.8068(4) 0.8946(3) 0.0548(3)
C53 C 0.7932(4) 0.9445(3) -0.0143(3)
H37 H 0.72520 0.98250 -0.00370
H38 H 0.77140 0.88460 -0.06760
H39 H 0.87410 0.99850 -0.01640
C54 C 0.7719(4) 0.7929(4) 0.1494(3)
#END
