
#######################################################################
#
#                 Cambridge Crystallographic Data Centre
#                                CCDC
#
#######################################################################
#
# If this CIF has been generated from an entry in the Cambridge
# Structural Database, then it will include bibliographic, chemical,
# crystal, experimental, refinement or atomic coordinate data resulting
# from the CCDC's data processing and validation procedures.
#
#######################################################################

data_CSD_CIF_UMOMEQ
_audit_creation_date 2016-05-05
_audit_creation_method CSD-ConQuest-V1
_database_code_CSD UMOMEQ
_database_code_depnum_ccdc_archive 'CCDC 1448262'
_chemical_formula_sum 'C15 H16 N2 O2'
_chemical_formula_moiety
;
C15 H16 N2 O2
;
_journal_coden_Cambridge 1350
_journal_volume 18
_journal_year 2016
_journal_page_first 3667
_journal_name_full 'CrystEngComm '
loop_
_publ_author_name
"Xinyuan Zhang"
"Xingxing Jiang"
"Pengxiang Liu"
"Yin Li"
"Heng Tu"
"Zheshuai Lin"
"Degang Xu"
"Guochun Zhang"
"Yicheng Wu"
"Jianquan Yao"
_chemical_name_systematic
;
3-methyl-4-(4-(pyrrolidin-1-yl)benzylidene)-1,2-oxazol-5(4H)-one
;
_cell_volume   1324.473
_exptl_crystal_colour 'orange'
_exptl_crystal_density_diffrn 1.285
_exptl_crystal_description 'block'
_diffrn_ambient_temperature 296
#These two values have been output from a single CSD field.
_refine_ls_R_factor_gt 0.0565
_refine_ls_wR_factor_gt 0.0565
_symmetry_cell_setting monoclinic
_symmetry_space_group_name_H-M 'P 21/c'
_symmetry_Int_Tables_number 14
loop_
_symmetry_equiv_pos_site_id
_symmetry_equiv_pos_as_xyz
1 x,y,z
2 -x,1/2+y,1/2-z
3 -x,-y,-z
4 x,-1/2-y,-1/2+z
_cell_length_a 11.971(5)
_cell_length_b 6.692(3)
_cell_length_c 17.466(8)
_cell_angle_alpha 90
_cell_angle_beta 108.810(8)
_cell_angle_gamma 90
_cell_formula_units_Z 4
loop_
_atom_type_symbol
_atom_type_radius_bond
C 0.68
H 0.23
N 0.68
O 0.68
loop_
_atom_site_label
_atom_site_type_symbol
_atom_site_fract_x
_atom_site_fract_y
_atom_site_fract_z
C1 C 0.2130(2) 0.7474(4) 0.17935(15)
H1 H 0.16710 0.70000 0.21240
H2 H 0.26750 0.64340 0.17570
C2 C 0.1340(3) 0.8089(5) 0.09648(17)
H3 H 0.17310 0.78840 0.05640
H4 H 0.06120 0.73270 0.08090
C3 C 0.1101(3) 1.0236(5) 0.10401(18)
H5 H 0.04450 1.04130 0.12450
H6 H 0.09180 1.09010 0.05210
C4 C 0.2236(2) 1.1063(4) 0.16346(14)
H7 H 0.27530 1.15860 0.13540
H8 H 0.20700 1.21120 0.19660
C5 C 0.3691(2) 0.9412(3) 0.28152(13)
C6 C 0.4106(2) 0.7709(3) 0.32993(14)
H9 H 0.37170 0.64990 0.31440
C7 C 0.5051(2) 0.7775(3) 0.39832(13)
H10 H 0.52930 0.66130 0.42830
C8 C 0.56818(19) 0.9576(3) 0.42521(12)
C9 C 0.5247(2) 1.1282(3) 0.37815(12)
H11 H 0.56190 1.25000 0.39510
C10 C 0.4301(2) 1.1236(3) 0.30864(14)
H12 H 0.40560 1.24020 0.27900
C11 C 0.66841(19) 0.9781(3) 0.49544(12)
H13 H 0.69410 1.10970 0.50510
C12 C 0.73596(19) 0.8481(3) 0.55231(12)
C13 C 0.7288(2) 0.6327(4) 0.56216(15)
C14 C 0.8340(2) 0.9055(3) 0.62115(13)
C15 C 0.8873(2) 1.1093(4) 0.63962(15)
H14 H 0.94850 1.10740 0.69110
H15 H 0.82750 1.20330 0.64120
H16 H 0.92000 1.14810 0.59840
N1 N 0.27598(18) 0.9322(3) 0.21238(12)
N2 N 0.8801(2) 0.7610(3) 0.66985(13)
O1 O 0.66853(17) 0.4998(3) 0.52199(11)
O2 O 0.81310(17) 0.5843(3) 0.63422(11)
#END
