
#######################################################################
#
#                 Cambridge Crystallographic Data Centre
#                                CCDC
#
#######################################################################
#
# If this CIF has been generated from an entry in the Cambridge
# Structural Database, then it will include bibliographic, chemical,
# crystal, experimental, refinement or atomic coordinate data resulting
# from the CCDC's data processing and validation procedures.
#
#######################################################################

data_CSD_CIF_UMOTUM
_audit_creation_date 2011-06-15
_audit_creation_method CSD-ConQuest-V1
_database_code_CSD UMOTUM
_database_code_depnum_ccdc_archive 'CCDC 760839'
_chemical_formula_sum 'C9 H8 N2 O2'
_chemical_formula_moiety
;
C9 H8 N2 O2
;
_journal_coden_Cambridge 155
_journal_volume 368
_journal_year 2011
_journal_page_first 58
_journal_name_full 'Inorg.Chim.Acta '
loop_
_publ_author_name
"A.Alagha"
"L.Parthasarathi"
"D.Gaynor"
"H.Muller-Bunz"
"Z.A.Starikova"
"E.Farkas"
"E.C.O'Brien"
"M.-J.Gil"
"K.B.Nolan"
_chemical_name_systematic
;
3-Hydroxy-2-methylquinazolin-4(3H)-one
;
_chemical_melting_point 547.15
_cell_volume    391.051
_exptl_crystal_density_diffrn 1.496
_exptl_special_details
;
Melting point range 547.15-549.15K

;
_diffrn_ambient_temperature 100
#These two values have been output from a single CSD field.
_refine_ls_R_factor_gt 0.0398
_refine_ls_wR_factor_gt 0.0398
_symmetry_cell_setting monoclinic
_symmetry_space_group_name_H-M 'P 21'
_symmetry_Int_Tables_number 4
loop_
_symmetry_equiv_pos_site_id
_symmetry_equiv_pos_as_xyz
1 x,y,z
2 -x,1/2+y,-z
_cell_length_a 4.3271(6)
_cell_length_b 9.3902(13)
_cell_length_c 9.6743(13)
_cell_angle_alpha 90
_cell_angle_beta 95.837(3)
_cell_angle_gamma 90
_cell_formula_units_Z 2
loop_
_atom_type_symbol
_atom_type_radius_bond
C 0.68
H 0.23
N 0.68
O 0.68
loop_
_atom_site_label
_atom_site_type_symbol
_atom_site_fract_x
_atom_site_fract_y
_atom_site_fract_z
N1 N 1.0455(3) 0.07617(12) 0.39211(13)
C1 C 0.9495(3) 0.16188(14) 0.48478(14)
C2 C 1.0696(3) 0.14725(17) 0.63397(14)
H1 H 0.90960 0.10380 0.68520
H2 H 1.12290 0.24150 0.67280
H3 H 1.25520 0.08680 0.64210
N2 N 0.7343(3) 0.26611(12) 0.45010(12)
O1 O 0.6222(3) 0.34215(13) 0.55673(11)
H4 H 0.735(6) 0.423(3) 0.565(3)
C3 C 0.5922(3) 0.29204(15) 0.31595(14)
O2 O 0.3958(3) 0.38387(13) 0.29342(11)
C4 C 0.7081(3) 0.19824(14) 0.21235(14)
C5 C 0.5956(3) 0.21356(16) 0.07203(15)
H5 H 0.44830 0.28580 0.04450
C6 C 0.6995(3) 0.12343(17) -0.02583(14)
H6 H 0.62350 0.13340 -0.12100
C7 C 0.9169(3) 0.01717(17) 0.01503(15)
H7 H 0.98790 -0.04450 -0.05290
C8 C 1.0295(3) 0.00100(15) 0.15301(14)
H8 H 1.17650 -0.07160 0.17960
C9 C 0.9258(3) 0.09227(14) 0.25407(14)
#END
