
#######################################################################
#
#                 Cambridge Crystallographic Data Centre
#                                CCDC
#
#######################################################################
#
# If this CIF has been generated from an entry in the Cambridge
# Structural Database, then it will include bibliographic, chemical,
# crystal, experimental, refinement or atomic coordinate data resulting
# from the CCDC's data processing and validation procedures.
#
#######################################################################

data_CSD_CIF_UMUKUK
_audit_creation_date 2016-05-05
_audit_creation_method CSD-ConQuest-V1
_database_code_CSD UMUKUK
_database_code_depnum_ccdc_archive 'CCDC 1448255'
_chemical_formula_sum 'C23 H15 N1 O2'
_chemical_formula_moiety
;
C23 H15 N1 O2
;
_journal_coden_Cambridge 1350
_journal_volume 18
_journal_year 2016
_journal_page_first 3667
_journal_name_full 'CrystEngComm '
loop_
_publ_author_name
"Xinyuan Zhang"
"Xingxing Jiang"
"Pengxiang Liu"
"Yin Li"
"Heng Tu"
"Zheshuai Lin"
"Degang Xu"
"Guochun Zhang"
"Yicheng Wu"
"Jianquan Yao"
_chemical_name_systematic
;
4-(9H-fluoren-2-ylmethylene)-3-phenyl-1,2-oxazol-5(4H)-one
;
_cell_volume   1623.984
_exptl_crystal_colour 'yellow'
_exptl_crystal_density_diffrn 1.38
_exptl_crystal_description 'Prism'
_diffrn_ambient_temperature 153
#These two values have been output from a single CSD field.
_refine_ls_R_factor_gt 0.0478
_refine_ls_wR_factor_gt 0.0478
_symmetry_cell_setting monoclinic
_symmetry_space_group_name_H-M 'C c'
_symmetry_Int_Tables_number 9
loop_
_symmetry_equiv_pos_site_id
_symmetry_equiv_pos_as_xyz
1 x,y,z
2 x,-y,1/2+z
3 1/2+x,1/2+y,z
4 1/2+x,1/2-y,1/2+z
_cell_length_a 24.442(8)
_cell_length_b 5.6023(19)
_cell_length_c 11.966(4)
_cell_angle_alpha 90
_cell_angle_beta 97.638(3)
_cell_angle_gamma 90
_cell_formula_units_Z 4
loop_
_atom_type_symbol
_atom_type_radius_bond
C 0.68
H 0.23
N 0.68
O 0.68
loop_
_atom_site_label
_atom_site_type_symbol
_atom_site_fract_x
_atom_site_fract_y
_atom_site_fract_z
O1 O 0.38762(5) 1.2953(2) 0.56477(11)
O2 O 0.32174(6) 1.0502(3) 0.60974(11)
N1 N 0.42530(7) 1.3102(3) 0.48152(13)
C1 C 0.17547(8) 0.1291(3) 0.39991(16)
C2 C 0.15159(9) -0.0609(4) 0.33535(17)
H1 H 0.16680 -0.11670 0.27110
C3 C 0.10434(9) -0.1664(4) 0.36888(18)
H2 H 0.08700 -0.29610 0.32700
C4 C 0.08275(8) -0.0820(4) 0.46310(18)
H3 H 0.05010 -0.15190 0.48360
C5 C 0.10782(9) 0.1009(4) 0.52696(17)
H4 H 0.09330 0.15380 0.59240
C6 C 0.15398(8) 0.2063(4) 0.49554(16)
C7 C 0.18875(9) 0.4129(4) 0.54956(16)
H5 H 0.16600 0.55770 0.55470
H6 H 0.20690 0.37000 0.62590
C8 C 0.23067(8) 0.4498(3) 0.46931(15)
C9 C 0.27175(8) 0.6209(3) 0.47312(15)
H7 H 0.27660 0.73520 0.53220
C10 C 0.30608(7) 0.6222(3) 0.38801(14)
C11 C 0.29791(8) 0.4488(3) 0.30041(15)
H8 H 0.32110 0.45100 0.24270
C12 C 0.25691(8) 0.2767(3) 0.29732(15)
H9 H 0.25210 0.16040 0.23900
C13 C 0.22334(7) 0.2791(3) 0.38122(14)
C14 C 0.35075(7) 0.7881(3) 0.38141(14)
H10 H 0.36990 0.76010 0.31850
C15 C 0.35533(8) 1.0937(3) 0.54684(14)
C16 C 0.37142(7) 0.9761(3) 0.44586(13)
C17 C 0.41573(7) 1.1264(3) 0.41606(14)
C18 C 0.44889(7) 1.0873(3) 0.32312(14)
C19 C 0.44888(7) 1.2573(3) 0.23776(15)
H11 H 0.42750 1.39870 0.23920
C20 C 0.48019(8) 1.2187(3) 0.15066(15)
H12 H 0.48000 1.33350 0.09210
C21 C 0.51164(8) 1.0145(3) 0.14876(15)
H13 H 0.53310 0.98980 0.08910
C22 C 0.51211(8) 0.8448(3) 0.23357(16)
H14 H 0.53410 0.70510 0.23220
C23 C 0.48048(8) 0.8798(3) 0.32015(14)
H15 H 0.48030 0.76270 0.37750
#END
