
#######################################################################
#
#                 Cambridge Crystallographic Data Centre
#                                CCDC
#
#######################################################################
#
# If this CIF has been generated from an entry in the Cambridge
# Structural Database, then it will include bibliographic, chemical,
# crystal, experimental, refinement or atomic coordinate data resulting
# from the CCDC's data processing and validation procedures.
#
#######################################################################

data_CSD_CIF_UNAYUD
_audit_creation_date 2004-04-19
_audit_creation_method CSD-ConQuest-V1
_database_code_CSD UNAYUD
_database_code_depnum_ccdc_archive 'CCDC 208177'
_chemical_formula_sum 'C13 H11 N1 O7'
_chemical_formula_moiety
;
C13 H11 N1 O7
;
_journal_coden_Cambridge 1336
_journal_volume 5
_journal_year 2003
_journal_page_first 4273
_journal_name_full 'Org.Lett. '
loop_
_publ_author_name
"Chao-Qun Li"
"Min Shi"
_chemical_name_systematic
;
4-Methoxy-5-oxo-2-(4-nitrophenyl)-2,5-dihydrofuran-3-carboxylic acid methyl 
ester
;
_chemical_melting_point 373.15
_cell_volume   1288.496
_exptl_crystal_colour 'colorless'
_exptl_crystal_density_diffrn 1.512
_exptl_special_details
;
Melting point range 373.15-375.15K
published cell parameters are for compound 2h rather than 3a
;
_exptl_crystal_description 'prismatic'
_diffrn_ambient_temperature 293
#These two values have been output from a single CSD field.
_refine_ls_R_factor_gt 0.0503
_refine_ls_wR_factor_gt 0.0503
_symmetry_cell_setting monoclinic
_symmetry_space_group_name_H-M 'P 2/n'
_symmetry_Int_Tables_number 13
loop_
_symmetry_equiv_pos_site_id
_symmetry_equiv_pos_as_xyz
1 x,y,z
2 1/2+x,-y,1/2+z
3 -x,-y,-z
4 -1/2-x,y,-1/2-z
_cell_length_a 9.2310(12)
_cell_length_b 14.4957(19)
_cell_length_c 9.6872(12)
_cell_angle_alpha 90
_cell_angle_beta 96.267(3)
_cell_angle_gamma 90
_cell_formula_units_Z 4
loop_
_atom_type_symbol
_atom_type_radius_bond
C 0.68
H 0.23
N 0.68
O 0.68
loop_
_atom_site_label
_atom_site_type_symbol
_atom_site_fract_x
_atom_site_fract_y
_atom_site_fract_z
N1 N 0.5197(2) 0.34247(18) 1.1981(2)
O1 O -0.01539(16) -0.03097(10) 0.81231(15)
O2 O 0.07701(15) 0.11016(10) 0.78909(14)
O3 O -0.23892(16) 0.05381(10) 0.93645(15)
O4 O -0.31471(16) 0.27316(11) 0.93737(16)
O5 O -0.11137(16) 0.35191(10) 0.91095(16)
O6 O 0.5863(2) 0.28933(15) 1.2787(2)
O7 O 0.5477(2) 0.42507(15) 1.1925(2)
C1 C -0.0224(2) 0.05055(15) 0.8299(2)
C2 C -0.1335(2) 0.10450(14) 0.8941(2)
C3 C -0.0999(2) 0.19417(14) 0.89034(19)
C4 C 0.0435(2) 0.20351(14) 0.8305(2)
C5 C 0.1688(2) 0.23937(14) 0.9282(2)
C6 C 0.2391(2) 0.18362(16) 1.0301(2)
C7 C 0.3544(2) 0.21646(17) 1.1176(2)
C8 C 0.4003(2) 0.30557(16) 1.1022(2)
C9 C 0.3332(2) 0.36261(16) 1.0014(2)
C10 C 0.2176(2) 0.32922(15) 0.9150(2)
C11 C -0.3184(3) 0.0856(2) 1.0481(3)
C12 C -0.1889(2) 0.27435(15) 0.9183(2)
C13 C -0.1867(4) 0.43616(19) 0.9376(4)
H1 H 0.027(2) 0.2407(12) 0.7437(16)
H2 H 0.203(2) 0.1255(16) 1.039(2)
H3 H 0.407(2) 0.1819(13) 1.191(2)
H4 H 0.374(2) 0.4213(14) 0.996(2)
H5 H 0.162(2) 0.3672(14) 0.843(2)
H6 H -0.255(3) 0.1228(18) 1.110(3)
H7 H -0.406(3) 0.1173(17) 1.009(3)
H8 H -0.352(3) 0.0335(14) 1.091(3)
H9 H -0.123(2) 0.4855(16) 0.907(3)
H10 H -0.203(3) 0.4395(17) 1.032(3)
H11 H -0.277(3) 0.4401(16) 0.884(3)
#END
