
#######################################################################
#
#                 Cambridge Crystallographic Data Centre
#                                CCDC
#
#######################################################################
#
# If this CIF has been generated from an entry in the Cambridge
# Structural Database, then it will include bibliographic, chemical,
# crystal, experimental, refinement or atomic coordinate data resulting
# from the CCDC's data processing and validation procedures.
#
#######################################################################

data_CSD_CIF_UNILIO
_audit_creation_date 2016-06-03
_audit_creation_method CSD-ConQuest-V1
_database_code_CSD UNILIO
_database_code_depnum_ccdc_archive 'CCDC 933270'
_chemical_formula_sum 'C14 H19 N1 O3'
_chemical_formula_moiety
;
C14 H19 N1 O3
;
_journal_coden_Cambridge 35
_journal_volume 78
_journal_year 2013
_journal_page_first 7100
_journal_name_full 'J.Org.Chem. '
loop_
_publ_author_name
"T.A.Reekie"
"M.G.Banwell"
"A.C.Willis"
_chemical_name_systematic
;
2,2-Dimethyl-3a,8,9,10,11,11b-hexahydro-5aH-benzo[c][1,3]benzodioxolo[4,5-d][1
,2]oxazole
;
_cell_volume   1310.188
_exptl_crystal_colour 'colorless'
_exptl_crystal_density_diffrn 1.264
_exptl_crystal_description 'block'
_diffrn_ambient_temperature 200
#These two values have been output from a single CSD field.
_refine_ls_R_factor_gt 0.0332
_refine_ls_wR_factor_gt 0.0332
_symmetry_cell_setting orthorhombic
_symmetry_space_group_name_H-M 'P 21 21 21'
_symmetry_Int_Tables_number 19
loop_
_symmetry_equiv_pos_site_id
_symmetry_equiv_pos_as_xyz
1 x,y,z
2 1/2+x,1/2-y,-z
3 -x,1/2+y,1/2-z
4 1/2-x,-y,1/2+z
_cell_length_a 7.8250(2)
_cell_length_b 8.9113(2)
_cell_length_c 18.7892(5)
_cell_angle_alpha 90
_cell_angle_beta 90
_cell_angle_gamma 90
_cell_formula_units_Z 4
loop_
_atom_type_symbol
_atom_type_radius_bond
C 0.68
H 0.23
N 0.68
O 0.68
loop_
_atom_site_label
_atom_site_type_symbol
_atom_site_fract_x
_atom_site_fract_y
_atom_site_fract_z
C1 C 0.6636(2) 0.77384(18) 0.38990(9)
C2 C 0.4880(3) 0.7991(2) 0.41791(9)
C3 C 0.3633(2) 0.69987(19) 0.41603(9)
C4 C 0.38498(17) 0.54452(16) 0.38868(8)
O1 O 0.32519(12) 0.43912(13) 0.44094(6)
C5 C 0.47057(18) 0.37596(16) 0.47742(7)
O2 O 0.61664(11) 0.44949(11) 0.44859(5)
C6 C 0.57048(16) 0.49935(15) 0.37866(7)
C7 C 0.69641(18) 0.62086(16) 0.35576(7)
C8 C 0.88248(19) 0.5634(2) 0.36361(9)
C9 C 0.9205(2) 0.4362(3) 0.31223(10)
C10 C 0.8919(3) 0.4816(3) 0.23449(10)
C11 C 0.7119(2) 0.5476(3) 0.22237(8)
C12 C 0.68017(19) 0.66192(17) 0.27805(8)
N1 N 0.6816(2) 0.80391(17) 0.26643(8)
O3 O 0.6886(2) 0.88152(13) 0.33210(7)
C13 C 0.4637(3) 0.4104(2) 0.55583(9)
C14 C 0.4762(2) 0.20955(18) 0.46265(10)
H1 H 0.759(3) 0.802(2) 0.426(1)
H2 H 0.462(3) 0.900(3) 0.4382(11)
H3 H 0.254(3) 0.725(2) 0.4338(10)
H4 H 0.317(2) 0.5326(18) 0.3449(9)
H5 H 0.571(2) 0.4151(18) 0.3459(8)
H6 H 0.954(3) 0.646(2) 0.3542(10)
H7 H 0.898(2) 0.533(2) 0.4127(10)
H8 H 1.041(3) 0.402(2) 0.3174(11)
H9 H 0.851(3) 0.352(2) 0.3216(11)
H10 H 0.981(3) 0.564(2) 0.2207(11)
H11 H 0.898(3) 0.387(3) 0.2008(12)
H12 H 0.710(3) 0.596(2) 0.1770(11)
H13 H 0.623(3) 0.466(2) 0.2236(11)
H14 H 0.566(3) 0.357(3) 0.5783(11)
H15 H 0.470(3) 0.518(3) 0.5617(11)
H16 H 0.362(3) 0.370(3) 0.5757(12)
H17 H 0.577(3) 0.165(2) 0.491(1)
H18 H 0.365(3) 0.162(2) 0.4777(11)
H19 H 0.486(3) 0.195(2) 0.4122(11)
#END
