
#######################################################################
#
#                 Cambridge Crystallographic Data Centre
#                                CCDC
#
#######################################################################
#
# If this CIF has been generated from an entry in the Cambridge
# Structural Database, then it will include bibliographic, chemical,
# crystal, experimental, refinement or atomic coordinate data resulting
# from the CCDC's data processing and validation procedures.
#
#######################################################################

data_CSD_CIF_UNOHIQ
_audit_creation_date 2016-06-03
_audit_creation_method CSD-ConQuest-V1
_database_code_CSD UNOHIQ
_database_code_depnum_ccdc_archive 'CCDC 985669'
_chemical_formula_sum 'C20 H21 N1 O7'
_chemical_formula_moiety
;
C20 H21 N1 O7
;
_journal_coden_Cambridge 1336
_journal_volume 16
_journal_year 2014
_journal_page_first 1708
_journal_name_full 'Org.Lett. '
loop_
_publ_author_name
"B.Ghavimi"
"P.Magnus"
_chemical_name_systematic
;
6-ethoxy-3,8-dimethoxy-12-nitro-1,5,6,12a-tetrahydro-2H-naphtho[8a,1,2-de]chro
men-2-one
;
_cell_volume   1834.996
_exptl_crystal_colour 'yellow'
_exptl_crystal_density_diffrn 1.402
_exptl_crystal_description 'needle'
_diffrn_ambient_temperature 153
#These two values have been output from a single CSD field.
_refine_ls_R_factor_gt 0.0839
_refine_ls_wR_factor_gt 0.0839
_symmetry_cell_setting triclinic
_symmetry_space_group_name_H-M 'P -1'
_symmetry_Int_Tables_number 2
loop_
_symmetry_equiv_pos_site_id
_symmetry_equiv_pos_as_xyz
1 x,y,z
2 -x,-y,-z
_cell_length_a 10.348(3)
_cell_length_b 10.853(3)
_cell_length_c 17.384(5)
_cell_angle_alpha 102.934(6)
_cell_angle_beta 93.21
_cell_angle_gamma 103.857(6)
_cell_formula_units_Z 4
loop_
_atom_type_symbol
_atom_type_radius_bond
C 0.68
H 0.23
N 0.68
O 0.68
loop_
_atom_site_label
_atom_site_type_symbol
_atom_site_fract_x
_atom_site_fract_y
_atom_site_fract_z
O1 O 0.4144(3) 0.8195(2) 0.27002(15)
O2 O 0.2709(3) 0.9551(2) 0.34997(15)
O3 O -0.0786(3) 0.2917(3) -0.00987(18)
O4 O 0.0499(3) 0.1929(3) 0.04151(17)
O5 O 0.3107(3) 0.3694(3) -0.08470(17)
O6 O 0.3550(3) 0.6285(3) -0.06091(15)
O7 O 0.6051(3) 0.7555(3) 0.29273(15)
N1 N 0.0150(3) 0.2916(3) 0.0364(2)
C1 C 0.2782(4) 0.7697(4) 0.2529(2)
C2 C 0.2002(4) 0.8452(4) 0.2957(2)
C3 C 0.0629(4) 0.8071(4) 0.2789(2)
H1 H 0.01020 0.85850 0.30720
C4 C 0.0010(4) 0.6948(4) 0.2211(2)
H2 H -0.09390 0.66990 0.20960
C5 C 0.0769(4) 0.6176(4) 0.1796(2)
C6 C 0.0173(4) 0.4986(4) 0.1194(2)
H3 H -0.07490 0.47900 0.10020
C7 C 0.0887(4) 0.4160(4) 0.0904(2)
C8 C 0.2353(4) 0.4330(3) 0.1181(2)
H4 H 0.24030 0.39090 0.16340
C9 C 0.3117(4) 0.3722(4) 0.0529(2)
H5 H 0.40430 0.38200 0.07590
H6 H 0.26800 0.27750 0.03400
C10 C 0.3170(4) 0.4328(4) -0.0165(2)
C11 C 0.3357(4) 0.5767(4) 0.0039(2)
C12 C 0.3340(4) 0.6426(4) 0.0781(2)
H7 H 0.35320 0.73520 0.08830
C13 C 0.3035(4) 0.5810(4) 0.1481(2)
C14 C 0.4340(4) 0.6019(3) 0.2027(2)
H8 H 0.41270 0.56150 0.24770
H9 H 0.49540 0.55780 0.17250
C15 C 0.5027(4) 0.7445(4) 0.2343(2)
H10 H 0.54160 0.78110 0.19030
C16 C 0.2182(4) 0.6566(4) 0.1963(2)
C17 C 0.1960(4) 1.0385(4) 0.3922(3)
H11 H 0.13780 1.06120 0.35410
H12 H 0.25800 1.11860 0.42480
H13 H 0.14110 0.99270 0.42650
C18 C 0.3837(4) 0.7686(4) -0.0448(2)
H14 H 0.30790 0.79740 -0.02260
H15 H 0.39840 0.79620 -0.09430
H16 H 0.46440 0.80780 -0.00660
C19 C 0.7067(4) 0.8775(4) 0.3120(3)
H17 H 0.71600 0.91130 0.26360
H18 H 0.79330 0.86060 0.32730
C20 C 0.6810(5) 0.9798(4) 0.3765(3)
H19 H 0.60580 1.01030 0.35800
H20 H 0.76110 1.05350 0.39200
H21 H 0.65890 0.94370 0.42240
O8 O 0.6299(3) 0.1670(2) 0.22972(16)
O9 O 0.7925(3) 0.0453(3) 0.16167(16)
O10 O 1.0701(3) 0.7395(3) 0.50931(19)
O11 O 0.9262(3) 0.8160(3) 0.45136(17)
O12 O 0.6584(3) 0.6286(3) 0.57281(17)
O13 O 0.6433(3) 0.3768(3) 0.55888(15)
O14 O 0.4268(3) 0.2026(3) 0.20114(16)
N2 N 0.9732(3) 0.7252(3) 0.4608(2)
C21 C 0.7631(4) 0.2278(4) 0.2513(2)
C22 C 0.8525(5) 0.1597(4) 0.2165(2)
C23 C 0.9885(5) 0.2113(4) 0.2372(3)
H22 H 1.04950 0.16690 0.21210
C24 C 1.0360(4) 0.3272(4) 0.2942(2)
H23 H 1.12960 0.36030 0.30980
C25 C 0.9485(4) 0.3962(4) 0.3290(2)
C26 C 0.9949(4) 0.5204(4) 0.3877(2)
H24 H 1.08580 0.54860 0.41050
C27 C 0.9128(4) 0.5956(4) 0.4101(2)
C28 C 0.7668(4) 0.5627(3) 0.3770(2)
H25 H 0.76180 0.59880 0.32910
C29 C 0.6769(4) 0.6179(4) 0.4343(2)
H26 H 0.71130 0.71430 0.45090
H27 H 0.58560 0.59760 0.40630
C30 C 0.6690(4) 0.5643(4) 0.5074(2)
C31 C 0.6671(4) 0.4245(4) 0.4927(2)
C32 C 0.6826(4) 0.3561(4) 0.4219(2)
H28 H 0.67530 0.26540 0.41560
C33 C 0.7113(4) 0.4123(3) 0.3499(2)
C34 C 0.5834(4) 0.3758(4) 0.2915(2)
H29 H 0.51430 0.41280 0.31820
H30 H 0.60310 0.41470 0.24580
C35 C 0.5300(4) 0.2297(4) 0.2620(2)
H31 H 0.49500 0.19200 0.30650
C36 C 0.8093(4) 0.3453(4) 0.3078(2)
C37 C 0.8765(5) -0.0354(4) 0.1273(3)
H32 H 0.93480 0.00940 0.09400
H33 H 0.82040 -0.11890 0.09470
H34 H 0.93160 -0.05170 0.16970
C38 C 0.6153(4) 0.2371(4) 0.5467(2)
H35 H 0.54410 0.19470 0.50250
H36 H 0.58610 0.21240 0.59510
H37 H 0.69640 0.20880 0.53420
C39 C 0.3524(5) 0.0666(5) 0.1805(3)
H38 H 0.41570 0.01060 0.17350
H39 H 0.30010 0.04770 0.22440
C40 C 0.2631(5) 0.0358(5) 0.1087(3)
H40 H 0.20700 0.09760 0.11340
H41 H 0.20600 -0.05340 0.09990
H42 H 0.31540 0.04220 0.06380
#END
