
#######################################################################
#
#                 Cambridge Crystallographic Data Centre
#                                CCDC
#
#######################################################################
#
# If this CIF has been generated from an entry in the Cambridge
# Structural Database, then it will include bibliographic, chemical,
# crystal, experimental, refinement or atomic coordinate data resulting
# from the CCDC's data processing and validation procedures.
#
#######################################################################

data_CSD_CIF_UNOZIH01
_audit_creation_date 2016-06-03
_audit_creation_method CSD-ConQuest-V1
_database_code_CSD UNOZIH01
_database_code_depnum_ccdc_archive 'CCDC 1429482'
_chemical_formula_sum 'C29 H49 N1 O3'
_chemical_formula_moiety
;
C29 H49 N1 O3
;
_journal_coden_Cambridge 119
_journal_volume 1122
_journal_year 2016
_journal_page_first 100
_journal_name_full 'J.Mol.Struct. '
loop_
_publ_author_name
"A.U.Khan"
"F.Avecilla"
"N.Malik"
"Md S.Khan"
"Mohd Shahid Khan"
"Md Mushtaque"
_chemical_name_systematic
;
3\b-acetoxy-5\a-cholestan-6-one oxime
;
_cell_volume   2749.417
_exptl_crystal_colour 'colorless'
_exptl_crystal_density_diffrn 1.111
_exptl_crystal_description 'block'
_diffrn_ambient_temperature 100
#These two values have been output from a single CSD field.
_refine_ls_R_factor_gt 0.0395
_refine_ls_wR_factor_gt 0.0395
_symmetry_cell_setting monoclinic
_symmetry_space_group_name_H-M 'P 21'
_symmetry_Int_Tables_number 4
loop_
_symmetry_equiv_pos_site_id
_symmetry_equiv_pos_as_xyz
1 x,y,z
2 -x,1/2+y,-z
_cell_length_a 11.3788(3)
_cell_length_b 9.6670(3)
_cell_length_c 25.0425(8)
_cell_angle_alpha 90
_cell_angle_beta 93.531(2)
_cell_angle_gamma 90
_cell_formula_units_Z 4
loop_
_atom_type_symbol
_atom_type_radius_bond
C 0.68
H 0.23
N 0.68
O 0.68
loop_
_atom_site_label
_atom_site_type_symbol
_atom_site_fract_x
_atom_site_fract_y
_atom_site_fract_z
N1 N 0.97778(11) 1.06230(16) 0.15323(6)
O1 O 0.53077(11) 1.20584(14) 0.17381(6)
C1 C 0.39622(15) 1.0331(2) 0.13723(8)
H1 H 0.34000 1.10610 0.13060
H2 H 0.36000 0.95860 0.15550
H3 H 0.42270 1.00020 0.10380
O2 O 1.08664(10) 1.07918(17) 0.12941(5)
H4 H 1.055(2) 1.099(3) 0.0957(10)
C2 C 0.49892(14) 1.0867(2) 0.17113(7)
O3 O 0.55498(10) 0.98446(13) 0.19909(5)
C3 C 0.65922(14) 1.02378(19) 0.23232(7)
H5 H 0.6472(15) 1.116(2) 0.2473(7)
C4 C 0.76542(14) 1.03101(19) 0.19824(7)
H6 H 0.7685(15) 0.944(2) 0.1783(7)
H7 H 0.7544(14) 1.107(2) 0.1711(7)
C5 C 0.87648(14) 1.05825(17) 0.23397(7)
H8 H 0.8663(15) 1.142(2) 0.2517(7)
C6 C 0.98686(14) 1.07523(18) 0.20405(6)
C7 C 1.09796(15) 1.1067(2) 0.23683(7)
H9 H 1.0889(16) 1.205(2) 0.2492(8)
H10 H 1.1656(16) 1.102(2) 0.2127(7)
C8 C 1.11733(14) 1.01200(18) 0.28572(7)
H11 H 1.1379(14) 0.920(2) 0.2730(6)
C9 C 1.00410(14) 1.00178(18) 0.31614(7)
H12 H 0.9855(15) 1.103(2) 0.3267(7)
C10 C 0.89779(14) 0.95006(18) 0.27946(6)
C11 C 0.92350(15) 0.80762(18) 0.25592(7)
H13 H 0.94850 0.74540 0.28430
H14 H 0.98460 0.81600 0.23140
H15 H 0.85350 0.77220 0.23740
C12 C 0.78600(15) 0.9420(2) 0.31101(7)
H16 H 0.7791(17) 1.032(2) 0.3297(8)
H17 H 0.7952(16) 0.868(2) 0.3397(8)
C13 C 0.67449(16) 0.9151(2) 0.27543(7)
H18 H 0.6800(16) 0.825(2) 0.2605(7)
H19 H 0.6029(16) 0.912(2) 0.2976(8)
C14 C 1.02491(17) 0.9216(2) 0.36856(7)
H20 H 0.9540(18) 0.930(2) 0.3890(8)
H21 H 1.0346(16) 0.821(2) 0.3618(7)
C15 C 1.12993(16) 0.9753(2) 0.40385(7)
H22 H 1.1117(16) 1.076(2) 0.4162(8)
H23 H 1.1373(16) 0.923(2) 0.4386(8)
C16 C 1.24344(15) 0.97747(18) 0.37405(7)
C17 C 1.21822(14) 1.06440(17) 0.32277(6)
H24 H 1.1922(14) 1.156(2) 0.3352(6)
C18 C 1.28186(17) 0.82930(19) 0.36113(7)
H25 H 1.22290 0.78660 0.33750
H26 H 1.29140 0.77680 0.39360
H27 H 1.35520 0.83210 0.34420
C19 C 1.33940(15) 1.0828(2) 0.30079(7)
H28 H 1.3612(16) 1.005(2) 0.2784(8)
H29 H 1.3455(17) 1.164(3) 0.2805(8)
C20 C 1.42219(16) 1.0971(2) 0.35175(7)
H30 H 1.4895(19) 1.032(3) 0.3512(9)
H31 H 1.4538(16) 1.199(3) 0.3555(8)
C21 C 1.34930(15) 1.05986(18) 0.40030(7)
H32 H 1.3195(16) 1.153(2) 0.4151(7)
C22 C 1.42645(16) 0.9954(2) 0.44655(7)
H33 H 1.4648(15) 0.916(2) 0.4327(7)
C23 C 1.35650(18) 0.9491(2) 0.49318(7)
H34 H 1.30990 1.02490 0.50480
H35 H 1.40970 0.91930 0.52220
H36 H 1.30570 0.87380 0.48200
C24 C 1.52086(17) 1.1000(2) 0.46590(8)
H37 H 1.55750 1.13590 0.43480
H38 H 1.48180 1.17690 0.48230
C25 C 1.61753(18) 1.0486(3) 0.50529(9)
H39 H 1.58200 1.00920 0.53610
H40 H 1.66540 1.12660 0.51770
C26 C 1.69721(18) 0.9396(2) 0.48152(8)
H41 H 1.65380 0.85350 0.47750
H42 H 1.71630 0.96960 0.44610
C27 C 1.81083(19) 0.9126(3) 0.51462(10)
H43 H 1.7906(18) 0.895(3) 0.5549(9)
C28 C 1.8927(2) 1.0358(3) 0.51419(11)
H44 H 1.96500 1.01420 0.53420
H45 H 1.85610 1.11380 0.53010
H46 H 1.90880 1.05760 0.47800
C29 C 1.8713(2) 0.7867(3) 0.49433(11)
H47 H 1.89100 0.80200 0.45810
H48 H 1.81970 0.70840 0.49560
H49 H 1.94190 0.76920 0.51630
N2 N -0.04690(11) 0.11789(15) 0.03619(5)
O4 O 0.47463(12) 0.39442(15) -0.03203(6)
O5 O -0.15814(9) 0.08598(14) 0.05617(5)
H50 H -0.1358(19) 0.068(3) 0.0898(10)
O6 O 0.37419(9) 0.23463(13) 0.01131(5)
C30 C 0.56876(15) 0.2730(2) 0.04247(8)
H51 H 0.63780 0.32510 0.03510
H52 H 0.58530 0.17600 0.03990
H53 H 0.54630 0.29400 0.07790
C31 C 0.47049(14) 0.31032(19) 0.00276(8)
C32 C 0.27319(14) 0.25044(18) -0.02711(7)
H54 H 0.2635(15) 0.354(2) -0.0340(7)
C33 C 0.16761(14) 0.20079(18) 0.00172(7)
H55 H 0.1848(14) 0.107(2) 0.0169(7)
H56 H 0.1526(16) 0.262(2) 0.0317(7)
C34 C 0.05797(13) 0.20031(17) -0.03667(6)
H57 H 0.0424(14) 0.298(2) -0.0495(7)
C35 C -0.05419(13) 0.16570(17) -0.01113(6)
C36 C -0.16401(15) 0.1858(2) -0.04616(7)
H58 H -0.2334(15) 0.164(2) -0.0281(7)
H59 H -0.1716(15) 0.279(2) -0.0555(7)
C37 C -0.15662(13) 0.09852(18) -0.09709(6)
H60 H -0.1605(15) 0.002(2) -0.0844(7)
C38 C -0.04101(14) 0.12609(17) -0.12483(6)
H61 H -0.0406(14) 0.231(2) -0.1343(7)
C39 C 0.07091(13) 0.10704(17) -0.08681(6)
C40 C 0.08737(15) -0.04521(18) -0.07038(7)
H62 H 0.10430 -0.09920 -0.10110
H63 H 0.01660 -0.07880 -0.05590
H64 H 0.15150 -0.05280 -0.04380
C41 C 0.18032(14) 0.15971(19) -0.11404(7)
H65 H 0.19460 0.09980 -0.14400
H66 H 0.16420 0.25170 -0.12810
C42 C 0.29152(15) 0.1649(2) -0.07658(7)
H67 H 0.3190(15) 0.064(2) -0.0641(7)
H68 H 0.3584(18) 0.202(2) -0.0921(8)
C43 C -0.03971(14) 0.04130(19) -0.17670(7)
H69 H -0.0310(16) -0.057(2) -0.1674(7)
H70 H 0.0329(16) 0.069(2) -0.1955(7)
C44 C -0.15002(15) 0.06256(19) -0.21444(7)
H71 H -0.1433(15) 0.004(2) -0.2462(7)
H72 H -0.1468(16) 0.162(2) -0.2275(8)
C45 C -0.26306(13) 0.03302(17) -0.18662(7)
C46 C -0.26078(14) 0.12566(17) -0.13661(6)
H73 H -0.2513(15) 0.223(2) -0.1498(7)
C47 C -0.27166(15) -0.12083(18) -0.17235(7)
H74 H -0.27270 -0.17520 -0.20450
H75 H -0.34270 -0.13690 -0.15450
H76 H -0.20490 -0.14660 -0.14910
C48 C -0.38501(14) 0.1139(2) -0.11720(7)
H77 H -0.3912(15) 0.034(2) -0.0908(7)
H78 H -0.4066(15) 0.200(2) -0.0963(7)
C49 C -0.46362(15) 0.1004(2) -0.16941(7)
H79 H -0.5206(15) 0.017(2) -0.1689(7)
H80 H -0.5115(16) 0.187(2) -0.1731(7)
C50 C -0.38032(14) 0.08146(18) -0.21594(6)
H81 H -0.3662(16) 0.176(2) -0.2328(8)
C51 C -0.43527(14) -0.01041(18) -0.26124(7)
H82 H -0.4486(14) -0.103(2) -0.2460(6)
C52 C -0.35473(16) -0.0296(2) -0.30755(7)
H83 H -0.39830 -0.07220 -0.33720
H84 H -0.28940 -0.08750 -0.29610
H85 H -0.32610 0.05890 -0.31830
C53 C -0.55528(15) 0.04737(19) -0.28239(7)
H86 H -0.59680 0.08140 -0.25240
H87 H -0.54200 0.12540 -0.30560
C54 C -0.63323(15) -0.0570(2) -0.31308(8)
H88 H -0.63510 -0.14210 -0.29260
H89 H -0.59930 -0.07790 -0.34680
C55 C -0.75926(15) -0.0048(2) -0.32437(8)
H90 H -0.78630 0.03510 -0.29180
H91 H -0.75830 0.06860 -0.35070
C56 C -0.84736(16) -0.1136(2) -0.34443(7)
H92 H -0.8394(15) -0.191(2) -0.3197(7)
C57 C -0.82208(18) -0.1707(3) -0.39893(9)
H93 H -0.87990 -0.23940 -0.40940
H94 H -0.74520 -0.21180 -0.39720
H95 H -0.82520 -0.09700 -0.42470
C58 C -0.97277(17) -0.0581(3) -0.34497(9)
H96 H -0.98040 0.02040 -0.36840
H97 H -0.99000 -0.03060 -0.30940
H98 H -1.02690 -0.12890 -0.35730
#END
