
#######################################################################
#
#                 Cambridge Crystallographic Data Centre
#                                CCDC
#
#######################################################################
#
# If this CIF has been generated from an entry in the Cambridge
# Structural Database, then it will include bibliographic, chemical,
# crystal, experimental, refinement or atomic coordinate data resulting
# from the CCDC's data processing and validation procedures.
#
#######################################################################

data_CSD_CIF_UNOZIH
_audit_creation_date 2011-05-02
_audit_creation_method CSD-ConQuest-V1
_database_code_CSD UNOZIH
_database_code_depnum_ccdc_archive 'CCDC 820122'
_chemical_formula_sum 'C29 H49 N1 O3'
_chemical_formula_moiety
;
C29 H49 N1 O3
;
_journal_coeditor_code "IUCr HB5806"
_journal_coden_Cambridge 1370
_journal_volume 67
_journal_year 2011
_journal_page_first o773
_journal_name_full 'Acta Crystallogr.,Sect.E:Struct.Rep.Online '
loop_
_publ_author_name
"K.A.Ketuly"
"A.H.A.Hadi"
"S.W.Ng"
"E.R.T.Tiekink"
_chemical_name_systematic
;
3\b-Acetoxy-6-hydroxyiminocholestane
;
_chemical_name_common
;
(3S,8S,9S,10R,13R,14S,17R)-17-((1R)-1,5-Dimethylhexyl)-6-hydroxyimino-10,13-di
methyl-2,3,4,7,8,9,10,11,12,13,14,15,16,17-tetradecahydro-1H-cyclopenta[a]phen
anthren-3-yl acetate
;
_chemical_melting_point 474
_cell_volume   2748.109
_exptl_crystal_colour 'colorless'
_exptl_crystal_density_diffrn 1.111
_exptl_special_details
;
Melting point range 474-475K

;
_exptl_crystal_description 'plate'
_exptl_crystal_preparation 'methanol/water'
_diffrn_ambient_temperature 100
#These two values have been output from a single CSD field.
_refine_ls_R_factor_gt 0.05
_refine_ls_wR_factor_gt 0.05
_symmetry_cell_setting monoclinic
_symmetry_space_group_name_H-M 'P 21'
_symmetry_Int_Tables_number 4
loop_
_symmetry_equiv_pos_site_id
_symmetry_equiv_pos_as_xyz
1 x,y,z
2 -x,1/2+y,-z
_cell_length_a 11.3934(13)
_cell_length_b 9.6588(11)
_cell_length_c 25.018(3)
_cell_angle_alpha 90
_cell_angle_beta 93.466(2)
_cell_angle_gamma 90
_cell_formula_units_Z 4
loop_
_atom_type_symbol
_atom_type_radius_bond
C 0.68
H 0.23
N 0.68
O 0.68
loop_
_atom_site_label
_atom_site_type_symbol
_atom_site_fract_x
_atom_site_fract_y
_atom_site_fract_z
O1 O 0.84194(18) 0.5005(3) 0.55612(8)
O2 O 1.37405(18) 0.6484(2) 0.51114(8)
O3 O 1.4744(2) 0.8086(3) 0.46763(10)
N1 N 0.9531(2) 0.5325(3) 0.53618(10)
C1 C 0.9457(3) 0.5799(3) 0.48875(12)
C2 C 1.0580(3) 0.6150(3) 0.46315(12)
H1 H 1.04850 0.71200 0.44950
C3 C 1.1680(3) 0.6152(4) 0.50172(12)
H2 H 1.15540 0.67700 0.53240
H3 H 1.18290 0.52060 0.51570
C4 C 1.2728(3) 0.6646(4) 0.47275(12)
H4 H 1.26270 0.76430 0.46270
C5 C 1.2916(3) 0.5790(4) 0.42338(12)
H5 H 1.31420 0.48370 0.43430
H6 H 1.35690 0.61920 0.40410
C6 C 1.1800(3) 0.5736(4) 0.38548(12)
H7 H 1.19470 0.51220 0.35490
H8 H 1.16370 0.66760 0.37110
C7 C 1.0709(3) 0.5212(3) 0.41278(11)
C8 C 1.4698(3) 0.7243(4) 0.50283(14)
C9 C 1.5689(3) 0.6876(4) 0.54238(14)
H9 H 1.64070 0.73510 0.53280
H10 H 1.58170 0.58720 0.54190
H11 H 1.54920 0.71630 0.57830
C10 C 1.0868(3) 0.3688(3) 0.42964(13)
H12 H 1.15210 0.36130 0.45680
H13 H 1.10400 0.31300 0.39840
H14 H 1.01440 0.33510 0.44450
C11 C 0.9585(3) 0.5404(3) 0.37497(11)
H15 H 0.95680 0.63990 0.36400
C12 C 0.9603(3) 0.4552(3) 0.32305(12)
H16 H 0.96720 0.35580 0.33240
H17 H 1.03070 0.48120 0.30400
C13 C 0.8498(3) 0.4763(4) 0.28501(12)
H18 H 0.84840 0.57260 0.27150
H19 H 0.85370 0.41350 0.25390
C14 C 0.7370(3) 0.4477(3) 0.31316(12)
C15 C 0.7391(3) 0.5408(3) 0.36309(11)
H20 H 0.74780 0.63810 0.35020
C16 C 0.8436(3) 0.5132(3) 0.40277(11)
H21 H 0.84190 0.41340 0.41320
C17 C 0.8359(3) 0.6006(4) 0.45354(12)
H22 H 0.82730 0.69960 0.44390
H23 H 0.76650 0.57240 0.47280
C18 C 0.7281(3) 0.2929(3) 0.32761(13)
H24 H 0.65530 0.27650 0.34550
H25 H 0.79560 0.26670 0.35160
H26 H 0.72780 0.23720 0.29490
C19 C 0.6195(3) 0.4962(3) 0.28363(11)
H27 H 0.63350 0.58970 0.26800
C20 C 0.5362(3) 0.5155(4) 0.33006(12)
H28 H 0.48770 0.59990 0.32410
H29 H 0.48300 0.43490 0.33210
C21 C 0.6149(3) 0.5290(4) 0.38261(12)
H30 H 0.59400 0.61250 0.40290
H31 H 0.60750 0.44640 0.40560
C22 C 0.5642(3) 0.4040(3) 0.23836(12)
H32 H 0.54990 0.31060 0.25390
C23 C 0.6450(3) 0.3848(4) 0.19192(12)
H33 H 0.60100 0.34050 0.16170
H34 H 0.71200 0.32640 0.20370
H35 H 0.67370 0.47540 0.18070
C24 C 0.4450(3) 0.4623(3) 0.21712(13)
H36 H 0.40270 0.49760 0.24770
H37 H 0.45900 0.54160 0.19330
C25 C 0.3664(3) 0.3576(4) 0.18636(13)
H38 H 0.36450 0.27070 0.20730
H39 H 0.40090 0.33630 0.15190
C26 C 0.2406(3) 0.4099(4) 0.17519(14)
H40 H 0.21340 0.45120 0.20850
H41 H 0.24150 0.48430 0.14800
C27 C 0.1525(3) 0.3005(4) 0.15556(13)
H42 H 0.15810 0.22200 0.18160
C28 C 0.0275(3) 0.3572(4) 0.15502(15)
H43 H 0.01060 0.38740 0.19120
H44 H -0.02830 0.28460 0.14310
H45 H 0.01970 0.43610 0.13040
C29 C 0.1768(3) 0.2427(5) 0.10086(15)
H46 H 0.25460 0.19920 0.10250
H47 H 0.17450 0.31800 0.07460
H48 H 0.11690 0.17360 0.09020
H49 H 0.871(4) 0.480(5) 0.5931(17)
O4 O 1.08653(19) 0.4934(3) 0.62945(9)
O5 O 0.55480(19) 0.3995(2) 0.69942(9)
O6 O 0.5309(2) 0.6211(3) 0.67381(10)
N2 N 0.9777(2) 0.4768(3) 0.65324(10)
C30 C 0.7648(3) 0.4453(4) 0.69849(12)
H50 H 0.75330 0.51990 0.67160
H51 H 0.77320 0.35670 0.67920
C31 C 0.6589(3) 0.4380(3) 0.73216(12)
H52 H 0.64620 0.53050 0.74880
C32 C 0.6743(3) 0.3301(3) 0.77571(12)
H53 H 0.67890 0.23710 0.75930
H54 H 0.60530 0.33160 0.79790
C33 C 0.7860(3) 0.3571(4) 0.81116(12)
H55 H 0.79550 0.28230 0.83810
H56 H 0.77700 0.44540 0.83060
C34 C 0.8974(3) 0.3646(3) 0.77964(12)
C35 C 0.8765(3) 0.4736(3) 0.73399(12)
H57 H 0.86400 0.56440 0.75200
C36 C 0.4993(3) 0.5018(4) 0.67105(13)
C37 C 0.3957(3) 0.4475(4) 0.63748(14)
H58 H 0.34140 0.52370 0.62820
H59 H 0.35510 0.37700 0.65770
H60 H 0.42290 0.40630 0.60460
C38 C 0.9238(3) 0.2221(3) 0.75585(13)
H61 H 0.95340 0.15980 0.78450
H62 H 0.98320 0.23200 0.72940
H63 H 0.85160 0.18350 0.73850
C39 C 1.0043(3) 0.4165(3) 0.81616(11)
H64 H 0.98500 0.51350 0.82650
C40 C 1.0249(3) 0.3368(4) 0.86832(12)
H65 H 1.03830 0.23810 0.85990
H66 H 0.95290 0.34220 0.88850
C41 C 1.1297(3) 0.3902(4) 0.90420(12)
H67 H 1.11270 0.48520 0.91640
H68 H 1.14060 0.33030 0.93620
C42 C 1.2428(3) 0.3912(3) 0.87421(12)
C43 C 1.2180(3) 0.4791(3) 0.82297(11)
H69 H 1.19390 0.57280 0.83530
C44 C 1.1168(3) 0.4260(3) 0.78592(12)
H70 H 1.13720 0.33130 0.77320
C45 C 1.0981(3) 0.5218(4) 0.73689(11)
H71 H 1.09530 0.61900 0.74920
H72 H 1.16580 0.51240 0.71420
C46 C 0.9867(3) 0.4894(3) 0.70391(11)
C47 C 1.2818(3) 0.2435(3) 0.86097(13)
H73 H 1.22100 0.19910 0.83740
H74 H 1.29340 0.18990 0.89420
H75 H 1.35570 0.24710 0.84290
C48 C 1.3496(3) 0.4747(3) 0.90062(12)
H76 H 1.31760 0.56330 0.91450
C49 C 1.4219(3) 0.5117(4) 0.85183(12)
H77 H 1.45180 0.60770 0.85520
H78 H 1.48980 0.44830 0.85010
C50 C 1.3397(3) 0.4970(4) 0.80088(12)
H79 H 1.34250 0.58080 0.77820
H80 H 1.36110 0.41530 0.77970
C51 C 1.4265(3) 0.4091(4) 0.94657(12)
H81 H 1.46690 0.32630 0.93230
C52 C 1.3565(3) 0.3630(4) 0.99354(13)
H82 H 1.30370 0.28710 0.98210
H83 H 1.31010 0.44100 1.00580
H84 H 1.41070 0.33130 1.02290
C53 C 1.5206(3) 0.5147(4) 0.96584(14)
H85 H 1.55810 0.55140 0.93410
H86 H 1.48080 0.59320 0.98260
C54 C 1.6177(3) 0.4619(4) 1.00560(15)
H87 H 1.58110 0.42130 1.03690
H88 H 1.66670 0.54110 1.01850
C55 C 1.6970(3) 0.3526(4) 0.98144(14)
H89 H 1.65280 0.26460 0.97750
H90 H 1.71610 0.38330 0.94520
C56 C 1.8112(3) 0.3258(4) 1.01455(15)
H91 H 1.79150 0.30760 1.05230
C57 C 1.8932(3) 0.4494(5) 1.01459(17)
H92 H 1.96740 0.42620 1.03450
H93 H 1.85650 0.52830 1.03170
H94 H 1.90870 0.47350 0.97760
C58 C 1.8720(3) 0.1987(5) 0.99400(17)
H95 H 1.94530 0.18250 1.01570
H96 H 1.88980 0.21320 0.95660
H97 H 1.82030 0.11810 0.99650
H98 H 1.057(3) 0.508(4) 0.5936(15)
#END
