
#######################################################################
#
#                 Cambridge Crystallographic Data Centre
#                                CCDC
#
#######################################################################
#
# If this CIF has been generated from an entry in the Cambridge
# Structural Database, then it will include bibliographic, chemical,
# crystal, experimental, refinement or atomic coordinate data resulting
# from the CCDC's data processing and validation procedures.
#
#######################################################################

data_CSD_CIF_UNUFOZ
_audit_creation_date 2011-04-26
_audit_creation_method CSD-ConQuest-V1
_database_code_CSD UNUFOZ
_database_code_depnum_ccdc_archive 'CCDC 820143'
_chemical_formula_sum 'C10 H13 N1 O4'
_chemical_formula_moiety
;
C10 H13 N1 O4
;
_journal_coeditor_code "IUCr TK2724"
_journal_coden_Cambridge 1370
_journal_volume 67
_journal_year 2011
_journal_page_first o800
_journal_name_full 'Acta Crystallogr.,Sect.E:Struct.Rep.Online '
loop_
_publ_author_name
"Z.Akhter"
"V.McKee"
"M.S.U.Khan"
"B.Iftikhar"
"H.M.Siddiqi"
_chemical_name_systematic
;
4-(4-Nitrophenoxy)butanol
;
_chemical_melting_point 416
_cell_volume    503.458
_exptl_crystal_colour 'yellow'
_exptl_crystal_density_diffrn 1.393
_exptl_crystal_description 'block'
_exptl_crystal_preparation 'ethanol'
_diffrn_ambient_temperature 150
#These two values have been output from a single CSD field.
_refine_ls_R_factor_gt 0.0451
_refine_ls_wR_factor_gt 0.0451
_symmetry_cell_setting triclinic
_symmetry_space_group_name_H-M 'P -1'
_symmetry_Int_Tables_number 2
loop_
_symmetry_equiv_pos_site_id
_symmetry_equiv_pos_as_xyz
1 x,y,z
2 -x,-y,-z
_cell_length_a 4.7971(6)
_cell_length_b 10.6035(13)
_cell_length_c 11.2523(14)
_cell_angle_alpha 117.521(2)
_cell_angle_beta 92.451(2)
_cell_angle_gamma 94.971(2)
_cell_formula_units_Z 2
loop_
_atom_type_symbol
_atom_type_radius_bond
C 0.68
H 0.23
N 0.68
O 0.68
loop_
_atom_site_label
_atom_site_type_symbol
_atom_site_fract_x
_atom_site_fract_y
_atom_site_fract_z
O1 O 0.44295(19) 0.42787(10) 0.15618(9)
C1 C 0.2302(3) 0.33362(13) 0.06879(12)
C2 C 0.1670(3) 0.34735(14) -0.04730(13)
H1 H 0.27440 0.41780 -0.06170
C3 C -0.0513(3) 0.25860(14) -0.14057(13)
H2 H -0.09610 0.26780 -0.21910
C4 C -0.2045(3) 0.15560(13) -0.11787(12)
N1 N -0.4365(2) 0.06242(11) -0.21523(11)
O2 O -0.4898(2) 0.07525(11) -0.31628(10)
O3 O -0.5727(2) -0.02676(11) -0.19184(10)
C5 C -0.1435(3) 0.13965(13) -0.00455(12)
H3 H -0.25080 0.06840 0.00870
C6 C 0.0756(3) 0.22859(13) 0.08947(12)
H4 H 0.12030 0.21820 0.16730
C7 C 0.5221(3) 0.41461(14) 0.27521(13)
H5 H 0.58880 0.32040 0.24940
H6 H 0.35880 0.42280 0.32810
C8 C 0.7545(3) 0.53402(14) 0.35747(13)
H7 H 0.90780 0.52940 0.30000
H8 H 0.83160 0.51880 0.43230
C9 C 0.6588(3) 0.68272(14) 0.41563(13)
H9 H 0.58730 0.69910 0.34070
H10 H 0.50150 0.68650 0.47090
C10 C 0.8899(3) 0.80179(15) 0.50147(13)
H11 H 1.05440 0.79560 0.44970
H12 H 0.82250 0.89610 0.52870
O4 O 0.9673(3) 0.78689(13) 0.61746(11)
H13 H 1.096(5) 0.847(3) 0.661(2)
#END
