
#######################################################################
#
#                 Cambridge Crystallographic Data Centre
#                                CCDC
#
#######################################################################
#
# If this CIF has been generated from an entry in the Cambridge
# Structural Database, then it will include bibliographic, chemical,
# crystal, experimental, refinement or atomic coordinate data resulting
# from the CCDC's data processing and validation procedures.
#
#######################################################################

data_CSD_CIF_UNUHIV
_audit_creation_date 2011-04-26
_audit_creation_method CSD-ConQuest-V1
_database_code_CSD UNUHIV
_database_code_depnum_ccdc_archive 'CCDC 820152'
_chemical_formula_sum 'C15 H13 N3 O4'
_chemical_formula_moiety
;
C15 H13 N3 O4
;
_journal_coeditor_code "IUCr SJ5112"
_journal_coden_Cambridge 1370
_journal_volume 67
_journal_year 2011
_journal_page_first o812
_journal_name_full 'Acta Crystallogr.,Sect.E:Struct.Rep.Online '
loop_
_publ_author_name
"Hai-Yun Zhu"
_chemical_name_systematic
;
N'-(2-Methoxybenzylidene)-4-nitrobenzohydrazide
;
_cell_volume   1441.279
_exptl_crystal_colour 'yellow'
_exptl_crystal_density_diffrn 1.379
_exptl_crystal_description 'cut from needle'
_diffrn_ambient_temperature 298
#These two values have been output from a single CSD field.
_refine_ls_R_factor_gt 0.0577
_refine_ls_wR_factor_gt 0.0577
_symmetry_cell_setting monoclinic
_symmetry_space_group_name_H-M 'P 21/c'
_symmetry_Int_Tables_number 14
loop_
_symmetry_equiv_pos_site_id
_symmetry_equiv_pos_as_xyz
1 x,y,z
2 -x,1/2+y,1/2-z
3 -x,-y,-z
4 x,-1/2-y,-1/2+z
_cell_length_a 10.737(2)
_cell_length_b 14.728(2)
_cell_length_c 9.132(1)
_cell_angle_alpha 90
_cell_angle_beta 93.572(2)
_cell_angle_gamma 90
_cell_formula_units_Z 4
loop_
_atom_type_symbol
_atom_type_radius_bond
C 0.68
H 0.23
N 0.68
O 0.68
loop_
_atom_site_label
_atom_site_type_symbol
_atom_site_fract_x
_atom_site_fract_y
_atom_site_fract_z
N1 N 0.30611(19) 0.83021(15) 1.0924(2)
N2 N 0.2592(2) 0.75864(15) 1.0066(2)
N3 N 0.0510(2) 0.38411(19) 0.7154(3)
O1 O 0.27693(19) 1.07382(12) 0.9099(2)
O2 O 0.22796(17) 0.67342(11) 1.2070(2)
O3 O 0.0703(2) 0.30882(15) 0.7635(3)
O4 O -0.0029(2) 0.39878(16) 0.5963(3)
C1 C 0.3456(2) 1.07183(19) 1.0414(3)
C2 C 0.3634(2) 0.98652(18) 1.1036(3)
C3 C 0.4307(2) 0.9800(2) 1.2379(3)
H1 H 0.44280 0.92340 1.28170
C4 C 0.4799(3) 1.0566(2) 1.3077(4)
H2 H 0.52480 1.05160 1.39770
C5 C 0.4618(3) 1.1399(2) 1.2431(4)
H3 H 0.49580 1.19120 1.28960
C6 C 0.3947(3) 1.1492(2) 1.1112(4)
H4 H 0.38210 1.20620 1.06910
C7 C 0.2470(4) 1.1582(2) 0.8462(4)
H5 H 0.20780 1.19570 0.91600
H6 H 0.19080 1.14960 0.76140
H7 H 0.32180 1.18720 0.81760
C8 C 0.3139(2) 0.90618(17) 1.0267(3)
H8 H 0.28740 0.91050 0.92800
C9 C 0.2221(2) 0.68303(17) 1.0733(3)
C10 C 0.1746(2) 0.60759(16) 0.9749(3)
C11 C 0.1895(2) 0.51927(17) 1.0271(3)
H9 H 0.22680 0.50960 1.12040
C12 C 0.1499(2) 0.44613(18) 0.9432(3)
H10 H 0.16150 0.38710 0.97750
C13 C 0.0927(2) 0.46272(17) 0.8069(3)
C14 C 0.0734(2) 0.54826(19) 0.7530(3)
H11 H 0.03320 0.55730 0.66100
C15 C 0.1148(2) 0.62158(18) 0.8380(3)
H12 H 0.10230 0.68040 0.80290
H13 H 0.251(2) 0.7686(17) 0.9092(12)
#END
