
#######################################################################
#
#                 Cambridge Crystallographic Data Centre
#                                CCDC
#
#######################################################################
#
# If this CIF has been generated from an entry in the Cambridge
# Structural Database, then it will include bibliographic, chemical,
# crystal, experimental, refinement or atomic coordinate data resulting
# from the CCDC's data processing and validation procedures.
#
#######################################################################

data_CSD_CIF_UNUJUJ
_audit_creation_date 2011-04-26
_audit_creation_method CSD-ConQuest-V1
_database_code_CSD UNUJUJ
_database_code_depnum_ccdc_archive 'CCDC 820159'
_chemical_formula_sum 'C9 H9 N3 O5'
_chemical_formula_moiety
;
C9 H9 N3 O5
;
_journal_coeditor_code "IUCr SU2259"
_journal_coden_Cambridge 1370
_journal_volume 67
_journal_year 2011
_journal_page_first o822
_journal_name_full 'Acta Crystallogr.,Sect.E:Struct.Rep.Online '
loop_
_publ_author_name
"Jia-Ying Xu"
"Wei-Hua Cheng"
_chemical_name_systematic
;
N-Ethyl-3,5-dinitrobenzamide
;
_cell_volume    532.258
_exptl_crystal_colour 'colorless'
_exptl_crystal_density_diffrn 1.492
_exptl_crystal_description 'block'
_exptl_crystal_preparation 'ethanol'
_diffrn_ambient_temperature 293
#These two values have been output from a single CSD field.
_refine_ls_R_factor_gt 0.051
_refine_ls_wR_factor_gt 0.051
_symmetry_cell_setting triclinic
_symmetry_space_group_name_H-M 'P -1'
_symmetry_Int_Tables_number 2
loop_
_symmetry_equiv_pos_site_id
_symmetry_equiv_pos_as_xyz
1 x,y,z
2 -x,-y,-z
_cell_length_a 4.854(1)
_cell_length_b 10.488(2)
_cell_length_c 10.851(2)
_cell_angle_alpha 101.49(3)
_cell_angle_beta 97.84(3)
_cell_angle_gamma 95.25(3)
_cell_formula_units_Z 2
loop_
_atom_type_symbol
_atom_type_radius_bond
C 0.68
H 0.23
N 0.68
O 0.68
loop_
_atom_site_label
_atom_site_type_symbol
_atom_site_fract_x
_atom_site_fract_y
_atom_site_fract_z
C1 C 0.1490(5) 0.7075(2) 0.2465(2)
H1 H -0.00170 0.64730 0.24940
N1 N 0.0031(5) 0.6713(2) 0.0152(2)
O1 O 0.0675(6) 0.6862(3) -0.0856(2)
N2 N 0.8248(5) 0.9842(2) 0.2289(3)
C2 C 0.1956(5) 0.7377(2) 0.1327(2)
O2 O -0.2072(5) 0.6034(2) 0.02613(19)
N3 N 0.4868(4) 0.7427(2) 0.57021(18)
H2 H 0.65130 0.76770 0.55630
C3 C 0.4127(5) 0.8280(2) 0.1236(2)
H3 H 0.43920 0.84800 0.04590
O3 O 0.8469(5) 1.0119(2) 0.1269(2)
C4 C 0.5890(5) 0.8874(2) 0.2352(2)
O4 O 0.9911(4) 1.0292(2) 0.3254(2)
O5 O 0.0241(3) 0.70717(19) 0.49151(17)
C5 C 0.5555(5) 0.8591(2) 0.3510(2)
H4 H 0.68030 0.89970 0.42410
C6 C 0.3318(4) 0.7688(2) 0.3573(2)
C7 C 0.2693(4) 0.7366(2) 0.4798(2)
C8 C 0.4582(5) 0.7087(2) 0.6918(2)
H5 H 0.27830 0.72930 0.71440
H6 H 0.60350 0.76120 0.75720
C9 C 0.4794(7) 0.5668(3) 0.6881(3)
H7 H 0.45820 0.54840 0.76970
H8 H 0.65920 0.54650 0.66800
H9 H 0.33450 0.51450 0.62420
#END
