
#######################################################################
#
#                 Cambridge Crystallographic Data Centre
#                                CCDC
#
#######################################################################
#
# If this CIF has been generated from an entry in the Cambridge
# Structural Database, then it will include bibliographic, chemical,
# crystal, experimental, refinement or atomic coordinate data resulting
# from the CCDC's data processing and validation procedures.
#
#######################################################################

data_CSD_CIF_UNUZAF
_audit_creation_date 2011-05-17
_audit_creation_method CSD-ConQuest-V1
_database_code_CSD UNUZAF
_database_code_depnum_ccdc_archive 'CCDC 820225'
_chemical_formula_sum 'C19 H18 N2 O2'
_chemical_formula_moiety
;
C19 H18 N2 O2
;
_journal_coeditor_code "IUCr PV2397"
_journal_coden_Cambridge 1370
_journal_volume 67
_journal_year 2011
_journal_page_first o905
_journal_name_full 'Acta Crystallogr.,Sect.E:Struct.Rep.Online '
loop_
_publ_author_name
"K.Swaminathan"
"K.Sethusankar"
"G.Murugan"
"M.Bakthadoss"
_chemical_name_systematic
;
1-Methyl-3-(2-methylphenyl)-1,9b-dihydro-3H-chromeno[4,3-c][1,2]oxazole-3a(4H)
-carbonitrile
;
_cell_volume   1592.545
_exptl_crystal_colour 'colorless'
_exptl_crystal_density_diffrn 1.278
_exptl_crystal_description 'block'
_diffrn_ambient_temperature 293
#These two values have been output from a single CSD field.
_refine_ls_R_factor_gt 0.0509
_refine_ls_wR_factor_gt 0.0509
_symmetry_cell_setting monoclinic
_symmetry_space_group_name_H-M 'P 21/n'
_symmetry_Int_Tables_number 14
loop_
_symmetry_equiv_pos_site_id
_symmetry_equiv_pos_as_xyz
1 x,y,z
2 1/2-x,1/2+y,1/2-z
3 -x,-y,-z
4 -1/2+x,-1/2-y,-1/2+z
_cell_length_a 11.0120(4)
_cell_length_b 13.0368(4)
_cell_length_c 11.1977(3)
_cell_angle_alpha 90
_cell_angle_beta 97.836(2)
_cell_angle_gamma 90
_cell_formula_units_Z 4
loop_
_atom_type_symbol
_atom_type_radius_bond
C 0.68
H 0.23
N 0.68
O 0.68
loop_
_atom_site_label
_atom_site_type_symbol
_atom_site_fract_x
_atom_site_fract_y
_atom_site_fract_z
C1 C 0.38107(11) 0.12807(10) 0.10789(11)
C2 C 0.43271(13) 0.21739(11) 0.15852(13)
H1 H 0.47060 0.21780 0.23800
C3 C 0.42782(15) 0.30530(12) 0.09094(15)
H2 H 0.46350 0.36520 0.12450
C4 C 0.37052(14) 0.30563(12) -0.02619(15)
H3 H 0.36850 0.36530 -0.07200
C5 C 0.31626(13) 0.21749(10) -0.07520(13)
H4 H 0.27540 0.21870 -0.15350
C6 C 0.32143(11) 0.12627(9) -0.0095(1)
C7 C 0.25834(11) 0.03122(9) -0.06218(10)
H5 H 0.17450 0.04730 -0.09870
C8 C 0.25759(10) -0.05625(9) 0.02964(10)
C9 C 0.37624(12) -0.05094(10) 0.11822(11)
H6 H 0.37760 -0.10680 0.17560
H7 H 0.44580 -0.05930 0.07440
C10 C 0.25780(11) -0.1546(1) -0.05147(10)
H8 H 0.33440 -0.19230 -0.02880
C11 C 0.15148(11) -0.22621(9) -0.04883(10)
C12 C 0.03836(12) -0.19982(11) -0.11130(12)
H9 H 0.03130 -0.14110 -0.15890
C13 C -0.06361(13) -0.25916(12) -0.10388(13)
H10 H -0.13900 -0.24070 -0.14620
C14 C -0.05336(13) -0.34544(11) -0.03398(13)
H11 H -0.12210 -0.38540 -0.02780
C15 C 0.05804(14) -0.37299(10) 0.02683(12)
H12 H 0.06380 -0.43220 0.07350
C16 C 0.16284(12) -0.31509(10) 0.02085(10)
C17 C 0.28229(15) -0.35091(13) 0.08907(14)
H13 H 0.33720 -0.36980 0.03310
H14 H 0.26790 -0.40920 0.13760
H15 H 0.31810 -0.29660 0.14000
C18 C 0.31258(15) 0.02789(12) -0.26883(11)
H16 H 0.34410 -0.01710 -0.32510
H17 H 0.35740 0.09120 -0.26410
H18 H 0.22750 0.04130 -0.29530
C19 C 0.15272(11) -0.05003(9) 0.09694(11)
N1 N 0.32585(9) -0.02011(8) -0.15097(8)
N2 N 0.07493(11) -0.04521(10) 0.1534(1)
O1 O 0.38708(8) 0.04332(7) 0.18095(7)
O2 O 0.25538(9) -0.11520(7) -0.17000(7)
#END
