
#######################################################################
#
#                 Cambridge Crystallographic Data Centre
#                                CCDC
#
#######################################################################
#
# If this CIF has been generated from an entry in the Cambridge
# Structural Database, then it will include bibliographic, chemical,
# crystal, experimental, refinement or atomic coordinate data resulting
# from the CCDC's data processing and validation procedures.
#
#######################################################################

data_CSD_CIF_UPAGOI
_audit_creation_date 2011-05-17
_audit_creation_method CSD-ConQuest-V1
_database_code_CSD UPAGOI
_database_code_depnum_ccdc_archive 'CCDC 820253'
_chemical_formula_sum 'C25 H23 N3 O3'
_chemical_formula_moiety
;
C25 H23 N3 O3
;
_journal_coeditor_code "IUCr LD2003"
_journal_coden_Cambridge 1370
_journal_volume 67
_journal_year 2011
_journal_page_first o945
_journal_name_full 'Acta Crystallogr.,Sect.E:Struct.Rep.Online '
loop_
_publ_author_name
"M.Rida"
"E.M.Essassi"
"S.Massip"
"S.Lazar"
"H.Zouihri"
_chemical_name_systematic
;
rac-(3S,4S)-3-Hydroxy-4-phenyl-1-[(S)-(3-phenyl-4,5-dihydro-1,2-oxazol-5-yl)me
thyl]-4,5-dihydro-1H-1,5-benzodiazepin-2(3H)-one
;
_chemical_name_common
;
3-Hydroxy-4-phenyl-1-((3-phenyl-4,5-dihydro-1,2-oxazol-5-yl)methyl)-1,3,4,5-te
trahydro-2H-1,5-benzodiazepin-2-one
;
_cell_volume   1058.910
_exptl_crystal_colour 'colorless'
_exptl_crystal_density_diffrn 1.297
_exptl_crystal_description 'prism'
_diffrn_ambient_temperature 293
#These two values have been output from a single CSD field.
_refine_ls_R_factor_gt 0.0503
_refine_ls_wR_factor_gt 0.0503
_symmetry_cell_setting triclinic
_symmetry_space_group_name_H-M 'P -1'
_symmetry_Int_Tables_number 2
loop_
_symmetry_equiv_pos_site_id
_symmetry_equiv_pos_as_xyz
1 x,y,z
2 -x,-y,-z
_cell_length_a 8.981(2)
_cell_length_b 9.044(2)
_cell_length_c 13.685(1)
_cell_angle_alpha 95.373(10)
_cell_angle_beta 102.433(10)
_cell_angle_gamma 100.03(2)
_cell_formula_units_Z 2
loop_
_atom_type_symbol
_atom_type_radius_bond
C 0.68
H 0.23
N 0.68
O 0.68
loop_
_atom_site_label
_atom_site_type_symbol
_atom_site_fract_x
_atom_site_fract_y
_atom_site_fract_z
O1 O -0.14283(18) 0.8107(2) 0.54940(13)
O2 O 0.1367(2) 0.8258(3) 0.51556(12)
O3 O 0.45964(14) 1.08367(16) 0.74426(11)
N1 N 0.25123(17) 0.78999(18) 0.67247(11)
N2 N 0.0378(2) 0.52139(19) 0.67025(15)
N3 N 0.61410(18) 1.11628(19) 0.80393(13)
C1 C -0.2338(2) 0.5566(2) 0.66492(17)
C2 C -0.2327(3) 0.6165(3) 0.76241(19)
C3 C -0.3594(3) 0.5798(4) 0.8033(2)
C4 C -0.4916(3) 0.4842(3) 0.7485(3)
C5 C -0.4981(3) 0.4269(3) 0.6516(3)
C6 C -0.3691(3) 0.4630(3) 0.6095(2)
C7 C -0.0924(2) 0.5884(2) 0.62070(16)
C8 C -0.0343(2) 0.7579(2) 0.62179(15)
C9 C 0.1256(2) 0.7912(2) 0.59864(14)
C10 C 0.2384(2) 0.7330(2) 0.76507(14)
C11 C 0.1330(2) 0.5989(2) 0.76299(17)
C12 C 0.3373(3) 0.8063(3) 0.85519(15)
C13 C 0.3345(3) 0.7461(4) 0.94383(18)
C14 C 0.2311(4) 0.6129(4) 0.9423(2)
C15 C 0.1311(3) 0.5418(3) 0.8540(2)
C16 C 0.4057(2) 0.8317(2) 0.65084(14)
C17 C 0.4573(2) 0.9998(2) 0.64844(14)
C18 C 0.7062(2) 1.0913(2) 0.74752(14)
C19 C 0.6252(2) 1.0381(2) 0.63910(14)
C20 C 0.8751(2) 1.1172(2) 0.78925(14)
C21 C 0.9750(2) 1.1281(2) 0.72391(16)
C22 C 1.1338(2) 1.1536(3) 0.76154(19)
C23 C 1.1953(3) 1.1658(3) 0.8629(2)
C24 C 1.0978(3) 1.1550(3) 0.92885(19)
C25 C 0.9385(3) 1.1308(3) 0.89236(16)
H1 H -0.14430 0.68290 0.80100
H2 H -0.35480 0.62080 0.86910
H3 H -0.57620 0.45840 0.77680
H4 H -0.58860 0.36350 0.61310
H5 H -0.37520 0.42300 0.54330
H6 H -0.12440 0.54200 0.54980
H7 H -0.02830 0.81090 0.68880
H8 H 0.001(3) 0.421(2) 0.677(2)
H9 H -0.10160 0.83990 0.50480
H10 H 0.40580 0.89640 0.85590
H11 H 0.40160 0.79470 1.00420
H12 H 0.22960 0.57140 1.00180
H13 H 0.06030 0.45380 0.85460
H14 H 0.40420 0.77700 0.58610
H15 H 0.48170 0.79940 0.70180
H16 H 0.38790 1.03360 0.59320
H17 H 0.65900 0.94960 0.61260
H18 H 0.64030 1.11740 0.59710
H19 H 0.93420 1.11810 0.65460
H20 H 1.19960 1.16260 0.71750
H21 H 1.30250 1.18130 0.88770
H22 H 1.13970 1.16410 0.99800
H23 H 0.87350 1.12350 0.93700
#END
