
#######################################################################
#
#                 Cambridge Crystallographic Data Centre
#                                CCDC
#
#######################################################################
#
# If this CIF has been generated from an entry in the Cambridge
# Structural Database, then it will include bibliographic, chemical,
# crystal, experimental, refinement or atomic coordinate data resulting
# from the CCDC's data processing and validation procedures.
#
#######################################################################

data_CSD_CIF_UPAGEY
_audit_creation_date 2011-05-17
_audit_creation_method CSD-ConQuest-V1
_database_code_CSD UPAGEY
_database_code_depnum_ccdc_archive 'CCDC 820251'
_chemical_formula_sum 'C22 H18 N2 O2'
_chemical_formula_moiety
;
C22 H18 N2 O2
;
_journal_coeditor_code "IUCr PV2398"
_journal_coden_Cambridge 1370
_journal_volume 67
_journal_year 2011
_journal_page_first o942
_journal_name_full 'Acta Crystallogr.,Sect.E:Struct.Rep.Online '
loop_
_publ_author_name
"R.Gangadharan"
"K.SethuSankar"
"G.Murugan"
"M.Bakthadoss"
_chemical_name_systematic
;
1-Methyl-3-(naphthalen-1-yl)-3,3a,4,9b-tetrahydro-1H-chromeno[4,3-c]isoxazole-
3a-carbonitrile
;
_chemical_name_common
;
1-Methyl-3-(1-naphthyl)-1,9b-dihydro-3H-chromeno[4,3-c][1,2]oxazole-3a(4H)-car
bonitrile
;
_cell_volume   1707.899
_exptl_crystal_colour 'colorless'
_exptl_crystal_density_diffrn 1.332
_exptl_crystal_description 'block'
_diffrn_ambient_temperature 293
#These two values have been output from a single CSD field.
_refine_ls_R_factor_gt 0.0544
_refine_ls_wR_factor_gt 0.0544
_symmetry_cell_setting monoclinic
_symmetry_space_group_name_H-M 'P 21/c'
_symmetry_Int_Tables_number 14
loop_
_symmetry_equiv_pos_site_id
_symmetry_equiv_pos_as_xyz
1 x,y,z
2 -x,1/2+y,1/2-z
3 -x,-y,-z
4 x,-1/2-y,-1/2+z
_cell_length_a 10.622(6)
_cell_length_b 12.969(7)
_cell_length_c 12.423(7)
_cell_angle_alpha 90
_cell_angle_beta 93.64(3)
_cell_angle_gamma 90
_cell_formula_units_Z 4
loop_
_atom_type_symbol
_atom_type_radius_bond
C 0.68
H 0.23
N 0.68
O 0.68
loop_
_atom_site_label
_atom_site_type_symbol
_atom_site_fract_x
_atom_site_fract_y
_atom_site_fract_z
C1 C 0.14265(14) 0.10109(13) 0.82608(15)
C2 C 0.09651(16) 0.01485(15) 0.77009(18)
H1 H 0.06780 0.02070 0.69810
C3 C 0.09339(19) -0.07866(16) 0.8210(2)
H2 H 0.06340 -0.13640 0.78310
C4 C 0.1342(2) -0.08753(16) 0.9273(2)
H3 H 0.13170 -0.15100 0.96190
C5 C 0.17889(19) -0.00189(15) 0.98249(19)
H4 H 0.20530 -0.00820 1.05500
C6 C 0.18571(15) 0.09400(13) 0.93287(14)
C7 C 0.23100(15) 0.18759(13) 0.99341(13)
H5 H 0.19470 0.18970 1.06400
C8 C 0.20434(14) 0.28953(12) 0.93319(12)
C9 C 0.22192(14) 0.27038(13) 0.81394(12)
H6 H 0.20690 0.33400 0.77410
H7 H 0.30820 0.24920 0.80510
C10 C 0.30763(15) 0.36307(13) 0.98762(13)
H8 H 0.26530 0.41500 1.02980
C11 C 0.4298(2) 0.12639(17) 1.08402(16)
H9 H 0.51720 0.14460 1.09570
H10 H 0.42310 0.05720 1.05670
H11 H 0.38960 0.13070 1.15090
C12 C 0.39286(14) 0.41856(12) 0.91194(13)
C13 C 0.51461(16) 0.38596(14) 0.90491(16)
H12 H 0.54340 0.32930 0.94520
C14 C 0.59706(16) 0.43657(15) 0.83792(19)
H13 H 0.67970 0.41350 0.83490
C15 C 0.55729(17) 0.51739(15) 0.77876(18)
H14 H 0.61220 0.54930 0.73380
C16 C 0.43293(16) 0.55539(13) 0.78330(15)
C17 C 0.34944(14) 0.50587(12) 0.85222(14)
C18 C 0.22757(16) 0.54867(14) 0.85861(17)
H15 H 0.17190 0.51880 0.90430
C19 C 0.19061(18) 0.63210(15) 0.7997(2)
H16 H 0.11070 0.65980 0.80660
C20 C 0.2715(2) 0.67751(17) 0.7281(2)
H17 H 0.24380 0.73290 0.68540
C21 C 0.3899(2) 0.64047(16) 0.72136(19)
H18 H 0.44370 0.67180 0.67500
C22 C 0.07561(16) 0.32612(14) 0.94773(14)
N1 N 0.36917(13) 0.19627(11) 1.00702(11)
N2 N -0.02444(16) 0.35439(15) 0.95782(16)
O1 O 0.13851(10) 0.19321(9) 0.77127(9)
O2 O 0.37728(12) 0.29730(9) 1.05968(9)
#END
