
#######################################################################
#
#                 Cambridge Crystallographic Data Centre
#                                CCDC
#
#######################################################################
#
# If this CIF has been generated from an entry in the Cambridge
# Structural Database, then it will include bibliographic, chemical,
# crystal, experimental, refinement or atomic coordinate data resulting
# from the CCDC's data processing and validation procedures.
#
#######################################################################

data_CSD_CIF_UPAHAV
_audit_creation_date 2011-05-17
_audit_creation_method CSD-ConQuest-V1
_database_code_CSD UPAHAV
_database_code_depnum_ccdc_archive 'CCDC 820255'
_chemical_formula_sum 'C18 H12 N6 O6'
_chemical_formula_moiety
;
C18 H12 N6 O6
;
_journal_coeditor_code "IUCr LH5220"
_journal_coden_Cambridge 1370
_journal_volume 67
_journal_year 2011
_journal_page_first o948
_journal_name_full 'Acta Crystallogr.,Sect.E:Struct.Rep.Online '
loop_
_publ_author_name
"G.Smith"
"U.D.Wermuth"
_chemical_name_systematic
;
2,4,6-Trinitro-N-(4-(phenyldiazenyl)phenyl)aniline
;
_chemical_name_common
;
N-picryl(phenylazo)aniline
;
_cell_volume    909.511
_exptl_crystal_colour 'orange red'
_exptl_crystal_density_diffrn 1.491
_exptl_crystal_description 'plate'
_diffrn_ambient_temperature 200
#These two values have been output from a single CSD field.
_refine_ls_R_factor_gt 0.0371
_refine_ls_wR_factor_gt 0.0371
_symmetry_cell_setting monoclinic
_symmetry_space_group_name_H-M 'P 21'
_symmetry_Int_Tables_number 4
loop_
_symmetry_equiv_pos_site_id
_symmetry_equiv_pos_as_xyz
1 x,y,z
2 -x,1/2+y,-z
_cell_length_a 7.4255(4)
_cell_length_b 7.6613(4)
_cell_length_c 16.1510(9)
_cell_angle_alpha 90
_cell_angle_beta 98.160(5)
_cell_angle_gamma 90
_cell_formula_units_Z 2
loop_
_atom_type_symbol
_atom_type_radius_bond
C 0.68
H 0.23
N 0.68
O 0.68
loop_
_atom_site_label
_atom_site_type_symbol
_atom_site_fract_x
_atom_site_fract_y
_atom_site_fract_z
O1 O 0.7894(3) 0.0405(2) 0.33042(15)
O2 O 0.8395(3) -0.0131(3) 0.20499(15)
O3 O 0.7046(3) 0.3737(3) -0.01934(12)
O4 O 0.5573(3) 0.6113(3) -0.00428(13)
O5 O 0.4815(3) 0.8150(3) 0.26498(14)
O6 O 0.4238(2) 0.6124(3) 0.35215(12)
N1 N 0.6941(3) 0.3543(3) 0.36913(14)
N2 N 0.7860(3) 0.0827(3) 0.25675(17)
N3 N 0.8515(3) 0.7986(3) 0.64591(15)
N4 N 0.6334(3) 0.4775(3) 0.02299(15)
N5 N 0.4931(3) 0.6655(3) 0.29240(16)
N6 N 0.7964(3) 0.7460(3) 0.71112(15)
C1 C 0.7256(3) 0.4761(4) 0.43607(17)
C2 C 0.6660(3) 0.3836(3) 0.28559(17)
C3 C 0.8086(3) 0.6339(3) 0.42983(17)
C4 C 0.7143(3) 0.2547(3) 0.22900(18)
C5 C 0.8466(3) 0.7381(4) 0.50001(17)
C6 C 0.7034(3) 0.2855(3) 0.14441(17)
C7 C 0.8030(3) 0.6843(4) 0.57641(18)
C8 C 0.6397(3) 0.4442(4) 0.11242(17)
C9 C 0.7209(4) 0.5221(4) 0.58222(18)
C10 C 0.5793(3) 0.5688(3) 0.16261(17)
C11 C 0.6810(4) 0.4184(4) 0.51302(18)
C12 C 0.5887(3) 0.5373(3) 0.24652(17)
C13 C 0.9043(4) 1.0521(4) 0.92620(19)
C14 C 0.9363(3) 1.1240(4) 0.8506(2)
C15 C 0.9046(3) 1.0274(4) 0.77855(17)
C16 C 0.8401(3) 0.8580(3) 0.78142(17)
C17 C 0.8078(3) 0.7876(4) 0.85652(18)
C18 C 0.8423(4) 0.8851(4) 0.92962(19)
H1 H 0.69280 0.24650 0.38380
H2 H 0.83930 0.67080 0.37880
H3 H 0.90220 0.84590 0.49580
H4 H 0.73870 0.19990 0.10920
H5 H 0.69290 0.48390 0.63360
H6 H 0.53250 0.67380 0.14000
H7 H 0.62490 0.31080 0.51700
H8 H 0.92550 1.11840 0.97480
H9 H 0.97920 1.23780 0.84890
H10 H 0.92630 1.07520 0.72800
H11 H 0.76280 0.67450 0.85820
H12 H 0.82320 0.83690 0.98050
#END
