
#######################################################################
#
#                 Cambridge Crystallographic Data Centre
#                                CCDC
#
#######################################################################
#
# If this CIF has been generated from an entry in the Cambridge
# Structural Database, then it will include bibliographic, chemical,
# crystal, experimental, refinement or atomic coordinate data resulting
# from the CCDC's data processing and validation procedures.
#
#######################################################################

data_CSD_CIF_UPAJIF
_audit_creation_date 2011-05-17
_audit_creation_method CSD-ConQuest-V1
_database_code_CSD UPAJIF
_database_code_depnum_ccdc_archive 'CCDC 820263'
_chemical_formula_sum 'C9 H6 N2 O2'
_chemical_formula_moiety
;
C9 H6 N2 O2
;
_journal_coeditor_code "IUCr HG5010"
_journal_coden_Cambridge 1370
_journal_volume 67
_journal_year 2011
_journal_page_first o957
_journal_name_full 'Acta Crystallogr.,Sect.E:Struct.Rep.Online '
loop_
_publ_author_name
"Liang Xu"
"Bao-Li Xu"
"Shu-Jun Lu"
"Bing Wang"
"Ting-Guo Kang"
_chemical_name_systematic
;
8-Nitroquinoline
;
_cell_volume    795.385
_exptl_crystal_colour 'yellow'
_exptl_crystal_density_diffrn 1.454
_exptl_crystal_description 'block'
_exptl_crystal_preparation 'dichloromethane/hexane'
_diffrn_ambient_temperature 296
#These two values have been output from a single CSD field.
_refine_ls_R_factor_gt 0.0452
_refine_ls_wR_factor_gt 0.0452
_symmetry_cell_setting monoclinic
_symmetry_space_group_name_H-M 'P 21/c'
_symmetry_Int_Tables_number 14
loop_
_symmetry_equiv_pos_site_id
_symmetry_equiv_pos_as_xyz
1 x,y,z
2 -x,1/2+y,1/2-z
3 -x,-y,-z
4 x,-1/2-y,-1/2+z
_cell_length_a 7.2421(11)
_cell_length_b 16.688(3)
_cell_length_c 7.2089(11)
_cell_angle_alpha 90
_cell_angle_beta 114.086(4)
_cell_angle_gamma 90
_cell_formula_units_Z 4
loop_
_atom_type_symbol
_atom_type_radius_bond
C 0.68
H 0.23
N 0.68
O 0.68
loop_
_atom_site_label
_atom_site_type_symbol
_atom_site_fract_x
_atom_site_fract_y
_atom_site_fract_z
C1 C 0.25070(14) 0.69710(6) 0.26068(13)
C2 C 0.25541(15) 0.61239(7) 0.26308(15)
N1 N 0.41946(14) 0.73928(6) 0.28382(15)
C3 C 0.06270(16) 0.73360(7) 0.22521(16)
N2 N 0.44722(15) 0.57111(6) 0.30592(16)
C4 C -0.10800(18) 0.68516(9) 0.1935(2)
H1 H -0.23040 0.70920 0.17380
C5 C 0.08895(19) 0.56627(8) 0.2262(2)
H2 H 0.09730 0.51070 0.22410
C6 C 0.0561(2) 0.81833(8) 0.21989(19)
H3 H -0.06340 0.84520 0.19850
C7 C 0.4030(2) 0.81781(8) 0.27567(19)
H4 H 0.51690 0.84740 0.29050
C8 C -0.09546(19) 0.60401(9) 0.1914(2)
H5 H -0.21010 0.57320 0.16680
O1 O 0.59089(14) 0.58621(7) 0.46328(17)
C9 C 0.2259(2) 0.86002(8) 0.2462(2)
H6 H 0.22480 0.91570 0.24480
O2 O 0.45132(17) 0.52226(7) 0.18178(19)
#END
