
#######################################################################
#
#                 Cambridge Crystallographic Data Centre
#                                CCDC
#
#######################################################################
#
# If this CIF has been generated from an entry in the Cambridge
# Structural Database, then it will include bibliographic, chemical,
# crystal, experimental, refinement or atomic coordinate data resulting
# from the CCDC's data processing and validation procedures.
#
#######################################################################

data_CSD_CIF_UPETEQ
_audit_creation_date 2016-06-07
_audit_creation_method CSD-ConQuest-V1
_database_code_CSD UPETEQ
_database_code_depnum_ccdc_archive 'CCDC 1482365'
_chemical_formula_sum 'C26 H26 N4 O9'
_chemical_formula_moiety
;
C26 H26 N4 O9
;
_journal_coden_Cambridge 1336
_journal_volume 18
_journal_year 2016
_journal_page_first 3650
_journal_name_full 'Org.Lett. '
loop_
_publ_author_name
"Shengtian Chen"
"Junfeng Wang"
"Xiuping Lin"
"Bingxin Zhao"
"Xiaoyi Wei"
"Guangqiang Li"
"K.Kaliaperumal"
"Shengrong Liao"
"Bin Yang"
"Xuefeng Zhou"
"Juan Liu"
"Shihai Xu"
"Yonghong Liu"
_chemical_name_systematic
;
(1R,3R,4R,6R)-(3,6-dimethyl-7-oxa-2,5-diazabicyclo[2.2.1]heptane-2,5-diyl)bis(
(1S,3R)-(2-methyl-3-(4-nitrophenyl)oxiran-2-yl)methanone)
;
_chemical_name_common
;
chrysamide A
;
_cell_volume   7857.248
_exptl_crystal_colour 'colorless'
_exptl_crystal_density_diffrn 1.366
_exptl_special_details
;
Absolute configuration

;
_exptl_crystal_description 'block'
_diffrn_ambient_temperature 150
#These two values have been output from a single CSD field.
_refine_ls_R_factor_gt 0.0324
_refine_ls_wR_factor_gt 0.0324
_chemical_compound_source
;
deep-sea-derived fungus Penicillium chrysogenum SCSIO41001
;
_symmetry_cell_setting hexagonal
_symmetry_space_group_name_H-M 'P 65 2 2'
_symmetry_Int_Tables_number 179
loop_
_symmetry_equiv_pos_site_id
_symmetry_equiv_pos_as_xyz
1 x,y,z
2 x-y,x,5/6+z
3 -y,x-y,2/3+z
4 -x,-y,1/2+z
5 -x+y,-x,1/3+z
6 y,-x+y,1/6+z
7 x-y,-y,-z
8 -x,-x+y,1/3-z
9 y,x,2/3-z
10 -y,-x,1/6-z
11 -x+y,y,1/2-z
12 x,x-y,5/6-z
_cell_length_a 10.6856(1)
_cell_length_b 10.6856(1)
_cell_length_c 79.4588(9)
_cell_angle_alpha 90
_cell_angle_beta 90
_cell_angle_gamma 120
_cell_formula_units_Z 12
loop_
_atom_type_symbol
_atom_type_radius_bond
C 0.68
H 0.23
N 0.68
O 0.68
loop_
_atom_site_label
_atom_site_type_symbol
_atom_site_fract_x
_atom_site_fract_y
_atom_site_fract_z
C1 C 0.3206(2) 0.0768(2) 0.95070(3)
H1 H 0.24250 -0.02700 0.95090
C2 C 0.4314(2) 0.1194(2) 0.96500(3)
H2 H 0.46160 0.04490 0.96590
C3 C 0.6904(2) 0.2914(2) 0.96111(2)
C4 C 0.8060(2) 0.3968(2) 0.94940(2)
C5 C 0.9038(2) 0.5458(2) 0.95520(3)
H3 H 0.88800 0.56770 0.96700
C6 C 1.0538(2) 0.6318(2) 0.94880(3)
C7 C 1.0818(2) 0.6901(2) 0.93265(3)
H4 H 1.00400 0.67810 0.92580
C8 C 1.2219(2) 0.7654(2) 0.92651(3)
H5 H 1.24080 0.80310 0.91540
C9 C 1.3335(2) 0.7843(2) 0.93699(3)
C10 C 1.3093(3) 0.7292(3) 0.95313(3)
H6 H 1.38790 0.74400 0.96010
C11 C 1.1690(3) 0.6523(2) 0.95903(3)
H7 H 1.15080 0.61310 0.97010
C12 C 0.3836(3) 0.1414(3) 0.98220(3)
H8 H 0.35150 0.21250 0.98130
H9 H 0.46470 0.17640 0.99010
H10 H 0.30370 0.04940 0.98630
C13 C 0.8525(3) 0.3234(3) 0.93677(3)
H11 H 0.88550 0.26460 0.94270
H12 H 0.93170 0.39660 0.92990
H13 H 0.77080 0.26130 0.92950
C14 C 0.4994(2) 0.2662(2) 0.94083(2)
H14 H 0.57830 0.32560 0.93270
C15 C 0.3876(2) 0.3153(2) 0.94282(3)
H15 H 0.35840 0.33160 0.93140
C16 C 0.1286(2) 0.1445(3) 0.94752(3)
C17 C 0.0110(2) 0.0015(3) 0.95447(3)
C18 C -0.0234(2) -0.0004(3) 0.97254(3)
H16 H 0.03200 0.09360 0.97860
C19 C -0.1692(2) -0.1031(2) 0.97943(2)
C20 C -0.1983(2) -0.2370(2) 0.98551(3)
H17 H -0.12400 -0.26120 0.98560
C21 C -0.3341(3) -0.3353(2) 0.99144(3)
H18 H -0.35420 -0.42690 0.99560
C22 C -0.4395(2) -0.2972(2) 0.99119(2)
C23 C -0.4128(2) -0.1629(2) 0.98586(3)
H19 H -0.48670 -0.13820 0.98620
C24 C -0.2762(2) -0.0652(2) 0.97998(3)
H20 H -0.25550 0.02790 0.97630
C25 C 0.4315(3) 0.4473(3) 0.95363(3)
H21 H 0.45800 0.43080 0.96490
H22 H 0.35050 0.46550 0.95450
H23 H 0.51440 0.53110 0.94850
C26 C -0.0998(3) -0.0959(3) 0.94186(3)
H24 H -0.15300 -0.04970 0.93760
H25 H -0.16730 -0.18790 0.94720
H26 H -0.05130 -0.11370 0.93250
N1 N 0.55178(18) 0.25312(19) 0.95746(2)
N2 N 1.4830(2) 0.8708(2) 0.93104(3)
N3 N 0.26746(19) 0.17972(19) 0.95012(2)
N4 N -0.5862(2) -0.4044(2) 0.99641(2)
O1 O 0.72208(17) 0.24030(17) 0.97312(2)
O2 O 0.78881(16) 0.51525(16) 0.94346(2)
O3 O 1.50349(19) 0.8979(2) 0.91597(2)
O4 O 1.58005(19) 0.9149(2) 0.94156(2)
O5 O 0.41155(16) 0.11780(16) 0.93595(2)
O6 O 0.09546(19) 0.2262(2) 0.94053(3)
O7 O 0.05902(17) -0.06500(18) 0.96681(2)
O8 O -0.60601(19) -0.51864(19) 1.00258(2)
O9 O -0.68334(18) -0.3768(2) 0.99398(2)
#END
