
#######################################################################
#
#                 Cambridge Crystallographic Data Centre
#                                CCDC
#
#######################################################################
#
# If this CIF has been generated from an entry in the Cambridge
# Structural Database, then it will include bibliographic, chemical,
# crystal, experimental, refinement or atomic coordinate data resulting
# from the CCDC's data processing and validation procedures.
#
#######################################################################

data_CSD_CIF_UPICED
_audit_creation_date 2016-06-07
_audit_creation_method CSD-ConQuest-V1
_database_code_CSD UPICED
_database_code_depnum_ccdc_archive 'CCDC 1481952'
_chemical_formula_sum 'C30 H32 N2 O7'
_chemical_formula_moiety
;
C30 H32 N2 O7
;
_journal_coden_Cambridge 1078
_journal_year 2016
_journal_name_full 'CSD Communication(Private Communication) '
loop_
_publ_author_name
"G.R.Gossweiler"
"S.L.Craig"
"R.D.Sommer"
_chemical_name_systematic
;
3',3'-dimethyl-6-nitro-1'-(2-(pent-4-enoyloxy)ethyl)-1',3'-dihydrospiro[chrome
ne-2,2'-indol]-8-yl pent-4-enoate
;
_chemical_name_common
;
3',3'-dimethyl-6-nitro-1'-(2-(pent-4-enoyloxy)ethyl)spiro[chromene-2,2'-indoli
n]-8-yl pent-4-enoate
;
_cell_volume   1315.675
_exptl_crystal_colour 'yellow'
_exptl_crystal_density_diffrn 1.344
_exptl_special_details
;
Department of Chemistry, Duke University, Box 90354, Durham, NC 27708-0354

;
_exptl_crystal_description 'plate'
_diffrn_ambient_temperature 119
#These two values have been output from a single CSD field.
_refine_ls_R_factor_gt 0.0421
_refine_ls_wR_factor_gt 0.0421
_symmetry_cell_setting triclinic
_symmetry_space_group_name_H-M 'P -1'
_symmetry_Int_Tables_number 2
loop_
_symmetry_equiv_pos_site_id
_symmetry_equiv_pos_as_xyz
1 x,y,z
2 -x,-y,-z
_cell_length_a 8.5981(2)
_cell_length_b 9.4861(2)
_cell_length_c 17.4115(3)
_cell_angle_alpha 98.215(1)
_cell_angle_beta 96.299(2)
_cell_angle_gamma 108.373(1)
_cell_formula_units_Z 2
loop_
_atom_type_symbol
_atom_type_radius_bond
C 0.68
H 0.23
N 0.68
O 0.68
loop_
_atom_site_label
_atom_site_type_symbol
_atom_site_fract_x
_atom_site_fract_y
_atom_site_fract_z
O1 O 0.93662(8) 0.77165(7) 0.22478(4)
O2 O 1.29961(10) 0.50494(9) -0.01955(5)
O3 O 1.22072(11) 0.31987(9) 0.04360(5)
O4 O 0.92541(8) 0.49486(7) 0.24701(4)
O5 O 1.14537(9) 0.64363(9) 0.33756(4)
O6 O 0.52286(8) 0.97702(8) 0.09747(4)
O7 O 0.75650(9) 1.15965(8) 0.08479(5)
N1 N 0.74093(9) 0.89458(8) 0.20518(4)
N2 N 1.23046(10) 0.44749(10) 0.03216(5)
C1 C 0.91741(11) 0.91820(9) 0.21432(5)
C2 C 0.99459(11) 0.97496(10) 0.14679(6)
H1 H 0.98740 1.06780 0.13520
C3 C 1.07290(11) 0.90323(10) 0.10185(6)
H2 H 1.12200 0.94730 0.06090
C4 C 1.08391(11) 0.75853(10) 0.11493(5)
C5 C 1.15654(11) 0.67511(10) 0.06723(5)
H3 H 1.20640 0.71360 0.02510
C6 C 1.15481(11) 0.53502(10) 0.08232(5)
C7 C 1.08114(11) 0.47311(10) 0.14250(5)
H4 H 1.08080 0.37650 0.15140
C8 C 1.00867(11) 0.55612(10) 0.18884(5)
C9 C 1.00968(10) 0.69896(9) 0.17638(5)
C10 C 0.98758(11) 1.02677(10) 0.29646(5)
C11 C 0.83763(11) 0.98268(10) 0.33716(5)
C12 C 0.82440(12) 1.01215(11) 0.41575(6)
H5 H 0.92060 1.06390 0.45420
C13 C 0.66712(13) 0.96461(12) 0.43794(6)
H6 H 0.65630 0.98330 0.49180
C14 C 0.52710(12) 0.89033(12) 0.38137(6)
H7 H 0.42110 0.85840 0.39720
C15 C 0.53871(11) 0.86141(10) 0.30147(6)
H8 H 0.44230 0.81170 0.26290
C16 C 0.69588(11) 0.90779(10) 0.28040(5)
C17 C 1.02482(12) 1.19237(10) 0.28674(6)
H9 H 0.92660 1.20300 0.25720
H10 H 1.11840 1.22160 0.25810
H11 H 1.05320 1.25790 0.33870
C18 C 1.14290(12) 1.00732(11) 0.33827(6)
H12 H 1.18660 1.08310 0.38690
H13 H 1.22720 1.02050 0.30380
H14 H 1.11460 0.90580 0.35100
C19 C 1.00652(11) 0.55471(10) 0.32267(5)
C20 C 0.89870(12) 0.49775(11) 0.38119(6)
H15 H 0.96310 0.46850 0.42300
H16 H 0.80350 0.40720 0.35490
C21 C 0.83535(14) 0.62138(12) 0.41740(7)
H17 H 0.93180 0.71340 0.44020
H18 H 0.76770 0.64660 0.37520
C22 C 0.73286(14) 0.57843(16) 0.48010(7)
H19 H 0.69170 0.65240 0.50450
C23 C 0.69396(15) 0.44894(19) 0.50492(7)
H20 H 0.73200 0.37110 0.48250
H21 H 0.62780 0.43330 0.54530
C24 C 0.62915(11) 0.78693(10) 0.13813(5)
H22 H 0.52370 0.73360 0.15520
H23 H 0.67980 0.71050 0.11980
C25 C 0.59159(12) 0.86139(10) 0.07011(5)
H24 H 0.69470 0.90730 0.04930
H25 H 0.51110 0.78470 0.02720
C26 C 0.62257(12) 1.12208(11) 0.10594(5)
C27 C 0.54735(13) 1.23087(11) 0.14499(6)
H26 H 0.43830 1.21620 0.11370
H27 H 0.62040 1.33580 0.14660
C28 C 0.52441(13) 1.20781(12) 0.22831(6)
H28 H 0.43810 1.10840 0.22550
H29 H 0.62960 1.20470 0.25620
C29 C 0.47551(13) 1.32746(12) 0.27567(6)
H30 H 0.45970 1.31610 0.32790
C30 C 0.45223(15) 1.44656(13) 0.25235(8)
H31 H 0.46640 1.46320 0.20070
H32 H 0.42120 1.51580 0.28720
#END
