
#######################################################################
#
#                 Cambridge Crystallographic Data Centre
#                                CCDC
#
#######################################################################
#
# If this CIF has been generated from an entry in the Cambridge
# Structural Database, then it will include bibliographic, chemical,
# crystal, experimental, refinement or atomic coordinate data resulting
# from the CCDC's data processing and validation procedures.
#
#######################################################################

data_CSD_CIF_UPIMOX
_audit_creation_date 2016-06-07
_audit_creation_method CSD-ConQuest-V1
_database_code_CSD UPIMOX
_database_code_depnum_ccdc_archive 'CCDC 1473027'
_chemical_formula_sum 'C20 H18 N2 O4'
_chemical_formula_moiety
;
C20 H18 N2 O4
;
_journal_coden_Cambridge 1078
_journal_year 2016
_journal_name_full 'CSD Communication(Private Communication) '
loop_
_publ_author_name
"T.Arai"
"A.Tsuchida"
"A.Awata"
_chemical_name_systematic
;
methyl 
2-((1S)-2-nitro-1-phenyl-1,2,3,4-tetrahydrocyclopenta[b]indol-3-yl)acetate
;
_cell_volume   1755.282
_exptl_crystal_colour 'colorless'
_exptl_crystal_density_diffrn 1.322
_exptl_special_details
;
Department of Chemistry, Graduate School of Science, Chiba University, Inage, 
Chiba 263 8522, Japan
;
_exptl_crystal_description 'plate'
_diffrn_ambient_temperature 173
#These two values have been output from a single CSD field.
_refine_ls_R_factor_gt 0.0396
_refine_ls_wR_factor_gt 0.0396
_symmetry_cell_setting monoclinic
_symmetry_space_group_name_H-M 'C 2'
_symmetry_Int_Tables_number 5
loop_
_symmetry_equiv_pos_site_id
_symmetry_equiv_pos_as_xyz
1 x,y,z
2 -x,y,-z
3 1/2+x,1/2+y,z
4 1/2-x,1/2+y,-z
_cell_length_a 32.711(5)
_cell_length_b 5.6403(7)
_cell_length_c 9.9643(13)
_cell_angle_alpha 90
_cell_angle_beta 107.296(3)
_cell_angle_gamma 90
_cell_formula_units_Z 4
loop_
_atom_type_symbol
_atom_type_radius_bond
C 0.68
H 0.23
N 0.68
O 0.68
loop_
_atom_site_label
_atom_site_type_symbol
_atom_site_fract_x
_atom_site_fract_y
_atom_site_fract_z
C1 C 0.89017(10) 0.6458(6) 0.5492(3)
C2 C 0.91362(12) 0.7958(8) 0.6551(4)
H1 H 0.90040 0.92490 0.68730
C3 C 0.95666(13) 0.7505(10) 0.7114(4)
H2 H 0.97350 0.85270 0.78220
C4 C 0.97605(11) 0.5591(10) 0.6673(4)
H3 H 1.00580 0.53160 0.70970
C5 C 0.95304(10) 0.4078(8) 0.5631(4)
H4 H 0.96650 0.27660 0.53380
C6 C 0.90931(9) 0.4529(7) 0.5016(3)
C7 C 0.87580(9) 0.3435(6) 0.3917(3)
C8 C 0.83961(9) 0.4696(6) 0.3780(3)
C9 C 0.80173(8) 0.3913(6) 0.2588(3)
H5 H 0.79740 0.50280 0.17780
C10 C 0.81994(9) 0.1544(6) 0.2246(3)
H6 H 0.80980 0.02830 0.27770
C11 C 0.87043(9) 0.1552(6) 0.2814(3)
H7 H 0.88080 -0.00040 0.32710
C12 C 0.75912(9) 0.3534(6) 0.2911(3)
H8 H 0.73890 0.27180 0.21040
H9 H 0.76410 0.24840 0.37400
C13 C 0.73904(9) 0.5781(7) 0.3194(3)
C14 C 0.67342(12) 0.7682(10) 0.3000(4)
H10 H 0.64290 0.73030 0.27870
H11 H 0.67760 0.88000 0.22990
H12 H 0.68360 0.83980 0.39370
C15 C 0.89369(9) 0.2132(6) 0.1739(3)
C16 C 0.88684(11) 0.4244(7) 0.1003(3)
H13 H 0.86720 0.53680 0.11670
C17 C 0.90851(12) 0.4744(9) 0.0019(4)
H14 H 0.90370 0.62030 -0.04810
C18 C 0.93685(11) 0.3120(9) -0.0225(4)
H15 H 0.95140 0.34490 -0.08980
C19 C 0.94402(12) 0.1032(9) 0.0505(4)
H16 H 0.96380 -0.00850 0.03410
C20 C 0.92251(11) 0.0536(8) 0.1485(4)
H17 H 0.92770 -0.09200 0.19870
N1 N 0.84723(8) 0.6553(5) 0.4712(2)
H18 H 0.82840 0.76090 0.48000
N2 N 0.80437(8) 0.0863(5) 0.0713(3)
O1 O 0.78275(9) 0.2232(6) -0.0138(2)
O2 O 0.81480(9) -0.1101(5) 0.0416(3)
O3 O 0.75804(7) 0.7618(5) 0.3585(3)
O4 O 0.69715(7) 0.5543(5) 0.2968(3)
#END
