
#######################################################################
#
#                 Cambridge Crystallographic Data Centre
#                                CCDC
#
#######################################################################
#
# If this CIF has been generated from an entry in the Cambridge
# Structural Database, then it will include bibliographic, chemical,
# crystal, experimental, refinement or atomic coordinate data resulting
# from the CCDC's data processing and validation procedures.
#
#######################################################################

data_CSD_CIF_UPISES
_audit_creation_date 2011-06-16
_audit_creation_method CSD-ConQuest-V1
_database_code_CSD UPISES
_database_code_depnum_ccdc_archive 'CCDC 773144'
_chemical_formula_sum 'C23 H22 N2 O4'
_chemical_formula_moiety
;
C23 H22 N2 O4
;
_journal_coden_Cambridge 1336
_journal_volume 12
_journal_year 2010
_journal_page_first 4212
_journal_name_full 'Org.Lett. '
loop_
_publ_author_name
"M.Presset"
"Y.Coquerel"
"J.Rodriguez"
_chemical_name_systematic
;
3,3-Dimethyl-7-(4-nitrophenyl)-10-phenyl-7-azaspiro[4.5]dec-8-ene-1,6-dione
;
_cell_volume   3901.227
_exptl_crystal_colour 'colorless'
_exptl_crystal_density_diffrn 1.329
_exptl_crystal_description 'prism'
_diffrn_ambient_temperature 293
#These two values have been output from a single CSD field.
_refine_ls_R_factor_gt 0.0718
_refine_ls_wR_factor_gt 0.0718
_symmetry_cell_setting monoclinic
_symmetry_space_group_name_H-M 'P 21/c'
_symmetry_Int_Tables_number 14
loop_
_symmetry_equiv_pos_site_id
_symmetry_equiv_pos_as_xyz
1 x,y,z
2 -x,1/2+y,1/2-z
3 -x,-y,-z
4 x,-1/2-y,-1/2+z
_cell_length_a 10.2408(2)
_cell_length_b 19.6871(4)
_cell_length_c 19.3546(3)
_cell_angle_alpha 90
_cell_angle_beta 91.221(2)
_cell_angle_gamma 90
_cell_formula_units_Z 8
loop_
_atom_type_symbol
_atom_type_radius_bond
C 0.68
H 0.23
N 0.68
O 0.68
loop_
_atom_site_label
_atom_site_type_symbol
_atom_site_fract_x
_atom_site_fract_y
_atom_site_fract_z
C1 C 0.0641(3) 0.15287(13) 0.16895(15)
H1 H 0.05960 0.11280 0.14360
C2 C -0.0437(3) 0.17906(13) 0.19165(15)
H2 H -0.12260 0.15730 0.18200
C3 C -0.0434(2) 0.24383(12) 0.23321(12)
H3 H -0.02450 0.23100 0.28130
C4 C 0.0724(2) 0.29023(11) 0.20996(11)
C5 C 0.1993(2) 0.24870(12) 0.20730(12)
C6 C 0.0429(2) 0.32034(12) 0.13724(11)
C7 C 0.0107(3) 0.39389(13) 0.14532(13)
H4 H -0.08140 0.40000 0.15410
H5 H 0.03270 0.41920 0.10420
C8 C 0.0945(3) 0.41685(12) 0.20741(12)
C9 C 0.0912(2) 0.35399(12) 0.25494(11)
H6 H 0.17220 0.35070 0.28160
H7 H 0.01980 0.35800 0.28690
C10 C 0.2334(3) 0.43158(15) 0.18347(15)
H8 H 0.26770 0.39210 0.16120
H9 H 0.28790 0.44300 0.22270
H10 H 0.23150 0.46890 0.15150
C11 C 0.0389(3) 0.47917(14) 0.24292(15)
H11 H 0.03990 0.51710 0.21170
H12 H 0.09110 0.48960 0.28330
H13 H -0.04920 0.47010 0.25610
C12 C -0.1741(2) 0.27942(13) 0.23223(13)
C13 C -0.2521(3) 0.28358(15) 0.17284(15)
H14 H -0.22390 0.26380 0.13210
C14 C -0.3716(3) 0.31684(17) 0.1734(2)
H15 H -0.42330 0.31870 0.13340
C15 C -0.4136(3) 0.34692(16) 0.2329(2)
H16 H -0.49290 0.36990 0.23310
C16 C -0.3385(3) 0.34295(15) 0.29159(19)
H17 H -0.36740 0.36300 0.33200
C17 C -0.2201(3) 0.30954(14) 0.29189(15)
H18 H -0.17040 0.30720 0.33260
C18 C 0.3030(2) 0.14342(12) 0.17227(12)
C19 C 0.3081(3) 0.07712(12) 0.19766(13)
H19 H 0.23780 0.05970 0.22160
C20 C 0.4168(3) 0.03735(13) 0.18745(13)
H20 H 0.42040 -0.00710 0.20350
C21 C 0.5196(2) 0.06519(13) 0.15295(12)
C22 C 0.5177(3) 0.13080(14) 0.12832(14)
H21 H 0.58930 0.14850 0.10570
C23 C 0.4081(3) 0.16968(13) 0.13778(13)
H22 H 0.40480 0.21390 0.12090
C24 C 0.3129(2) 0.32757(13) 0.45643(13)
H23 H 0.31760 0.36810 0.48100
C25 C 0.4213(2) 0.30041(12) 0.43380(13)
H24 H 0.50030 0.32220 0.44300
C26 C 0.4210(2) 0.23518(12) 0.39350(12)
H25 H 0.40050 0.24690 0.34530
C27 C 0.3068(2) 0.18912(11) 0.41906(11)
C28 C 0.1799(2) 0.23074(12) 0.42066(11)
C29 C 0.3402(2) 0.16057(12) 0.49225(12)
C30 C 0.3688(3) 0.08618(13) 0.48539(13)
H26 H 0.34670 0.06210 0.52730
H27 H 0.46040 0.07880 0.47620
C31 C 0.2830(3) 0.06233(12) 0.42435(13)
C32 C 0.2879(2) 0.12444(12) 0.37547(12)
H28 H 0.35960 0.11950 0.34390
H29 H 0.20730 0.12750 0.34840
C33 C 0.3346(4) -0.00119(15) 0.39014(17)
H30 H 0.42390 0.00580 0.37770
H31 H 0.28300 -0.01090 0.34930
H32 H 0.32960 -0.03870 0.42170
C34 C 0.1441(3) 0.05046(15) 0.44958(17)
H33 H 0.08810 0.03860 0.41110
H34 H 0.11250 0.09120 0.47080
H35 H 0.14480 0.01410 0.48270
C35 C 0.5514(2) 0.19941(13) 0.39417(14)
C36 C 0.6295(3) 0.19564(15) 0.45363(17)
H36 H 0.60220 0.21620 0.49410
C37 C 0.7487(3) 0.16113(18) 0.4530(2)
H37 H 0.80110 0.15910 0.49280
C38 C 0.7882(3) 0.13006(19) 0.3931(3)
H38 H 0.86670 0.10640 0.39270
C39 C 0.7124(4) 0.13395(18) 0.3345(2)
H39 H 0.74010 0.11320 0.29420
C40 C 0.5957(3) 0.16825(15) 0.33428(17)
H40 H 0.54550 0.17070 0.29370
C41 C 0.0757(2) 0.33845(12) 0.44879(11)
C42 C -0.0406(3) 0.31290(13) 0.47388(13)
H41 H -0.04520 0.26790 0.48830
C43 C -0.1490(3) 0.35400(14) 0.47752(13)
H42 H -0.22700 0.33690 0.49410
C44 C -0.1407(3) 0.42071(13) 0.45630(12)
C45 C -0.0262(3) 0.44709(13) 0.43187(12)
H43 H -0.02170 0.49230 0.41830
C46 C 0.0819(3) 0.40571(12) 0.42766(12)
H44 H 0.15930 0.42290 0.41060
N1 N 0.1880(2) 0.18299(10) 0.18142(10)
N2 N 0.6358(3) 0.02367(13) 0.14163(12)
N3 N 0.18937(19) 0.29695(10) 0.44452(10)
N4 N -0.2565(3) 0.46403(13) 0.46009(11)
O1 O 0.30338(16) 0.27107(9) 0.22651(10)
O2 O 0.0486(2) 0.28969(10) 0.08369(9)
O3 O 0.7362(2) 0.05161(12) 0.12290(13)
O4 O 0.6276(2) -0.03779(12) 0.15225(13)
O5 O 0.07616(17) 0.20704(9) 0.40135(10)
O6 O 0.3435(2) 0.19267(10) 0.54476(9)
O7 O -0.2420(2) 0.52526(11) 0.45174(12)
O8 O -0.3627(2) 0.43762(13) 0.46997(14)
#END
