
#######################################################################
#
#                 Cambridge Crystallographic Data Centre
#                                CCDC
#
#######################################################################
#
# If this CIF has been generated from an entry in the Cambridge
# Structural Database, then it will include bibliographic, chemical,
# crystal, experimental, refinement or atomic coordinate data resulting
# from the CCDC's data processing and validation procedures.
#
#######################################################################

data_CSD_CIF_UPOCEJ
_audit_creation_date 2016-06-07
_audit_creation_method CSD-ConQuest-V1
_database_code_CSD UPOCEJ
_database_code_depnum_ccdc_archive 'CCDC 1437717'
_chemical_formula_sum 'C15 H15 N5 O9'
_chemical_formula_moiety
;
C15 H15 N5 O9
;
_journal_coden_Cambridge 35
_journal_volume 81
_journal_year 2016
_journal_page_first 4530
_journal_name_full 'J.Org.Chem. '
loop_
_publ_author_name
"N.S.Freeman"
"C.E.Moore"
"L.Marcus Wilhelmsson"
"Y.Tor"
_chemical_name_systematic
;
1-(3,4-dihydroxy-5-(hydroxymethyl)tetrahydrofuran-2-yl)-5-((4-nitrophenyl)hydr
azono)pyrimidine-2,4,6(1H,3H,5H)-trione
;
_chemical_name_common
;
5-(4-nitrophenylhydrazono)-6-oxouridine
;
_cell_volume   1629.159
_exptl_crystal_colour 'yellow'
_exptl_crystal_density_diffrn 1.669
_exptl_special_details
;
Absolute configuration

;
_exptl_crystal_description 'Needle'
_diffrn_ambient_temperature 100
#These two values have been output from a single CSD field.
_refine_ls_R_factor_gt 0.0419
_refine_ls_wR_factor_gt 0.0419
_symmetry_cell_setting orthorhombic
_symmetry_space_group_name_H-M 'P 21 21 21'
_symmetry_Int_Tables_number 19
loop_
_symmetry_equiv_pos_site_id
_symmetry_equiv_pos_as_xyz
1 x,y,z
2 1/2-x,-y,1/2+z
3 -x,1/2+y,1/2-z
4 1/2+x,1/2-y,-z
_cell_length_a 6.7215(4)
_cell_length_b 10.5793(6)
_cell_length_c 22.9108(14)
_cell_angle_alpha 90
_cell_angle_beta 90
_cell_angle_gamma 90
_cell_formula_units_Z 4
loop_
_atom_type_symbol
_atom_type_radius_bond
C 0.68
H 0.23
N 0.68
O 0.68
loop_
_atom_site_label
_atom_site_type_symbol
_atom_site_fract_x
_atom_site_fract_y
_atom_site_fract_z
O1 O 0.5534(4) 0.2428(2) 0.39424(11)
O2 O 0.0250(4) 0.2134(2) 0.41501(13)
H1 H 0.043(8) 0.149(4) 0.4420(17)
O3 O 0.2561(4) 0.0130(2) 0.43282(11)
H2 H 0.292(10) -0.067(3) 0.424(3)
O4 O 0.5143(4) 0.1594(2) 0.27395(11)
H3 H 0.523(11) 0.239(3) 0.285(3)
O5 O 0.3452(4) 0.4634(2) 0.50296(10)
O6 O 0.4022(4) 0.8049(2) 0.37175(11)
O7 O 0.3941(4) 0.4041(2) 0.30601(10)
O8 O 0.4608(4) 1.0089(3) 0.76909(11)
O9 O 0.3787(5) 1.1615(3) 0.71087(13)
N1 N 0.3665(4) 0.4269(3) 0.40515(12)
N2 N 0.3967(5) 0.6020(3) 0.34118(12)
H4 H 0.422(8) 0.635(5) 0.3067(15)
N3 N 0.3737(4) 0.7293(3) 0.48453(12)
N4 N 0.3688(5) 0.6973(3) 0.53896(13)
H5 H 0.367(9) 0.616(3) 0.547(3)
N5 N 0.4112(4) 1.0487(3) 0.72151(13)
C1 C 0.3695(5) 0.2890(3) 0.41509(15)
H6 H 0.36200 0.27300 0.45810
C2 C 0.2066(5) 0.2113(3) 0.38482(15)
H7 H 0.18580 0.24480 0.34450
C3 C 0.3067(5) 0.0808(3) 0.38112(15)
H8 H 0.26200 0.03410 0.34550
C4 C 0.5291(6) 0.1113(3) 0.37790(16)
H9 H 0.60140 0.05730 0.40680
C5 C 0.6217(6) 0.0926(3) 0.31846(16)
H10 H 0.76100 0.12290 0.31930
H11 H 0.62340 0.00130 0.30900
C6 C 0.3607(5) 0.5058(3) 0.45400(14)
C7 C 0.3723(5) 0.6429(3) 0.44336(15)
C8 C 0.3900(5) 0.6927(3) 0.38397(15)
C9 C 0.3870(5) 0.4730(3) 0.34820(15)
C10 C 0.3759(5) 0.7896(3) 0.58358(16)
C11 C 0.3984(6) 0.7456(3) 0.63989(16)
H12 H 0.40680 0.65740 0.64740
C12 C 0.4084(5) 0.8319(3) 0.68531(16)
H13 H 0.42530 0.80390 0.72440
C13 C 0.3935(5) 0.9594(3) 0.67273(14)
C14 C 0.3696(5) 1.0052(3) 0.61704(15)
H14 H 0.35820 1.09340 0.60990
C15 C 0.3624(5) 0.9176(4) 0.57086(15)
H15 H 0.34860 0.94560 0.53170
#END
