
#######################################################################
#
#                 Cambridge Crystallographic Data Centre
#                                CCDC
#
#######################################################################
#
# If this CIF has been generated from an entry in the Cambridge
# Structural Database, then it will include bibliographic, chemical,
# crystal, experimental, refinement or atomic coordinate data resulting
# from the CCDC's data processing and validation procedures.
#
#######################################################################

data_CSD_CIF_UPODUA
_audit_creation_date 2016-06-07
_audit_creation_method CSD-ConQuest-V1
_database_code_CSD UPODUA
_database_code_depnum_ccdc_archive 'CCDC 1444537'
_chemical_formula_sum 'C25 H28 N1 O3'
_chemical_formula_moiety
;
C25 H28 N1 O3
;
_journal_coden_Cambridge 35
_journal_volume 81
_journal_year 2016
_journal_page_first 4031
_journal_name_full 'J.Org.Chem. '
loop_
_publ_author_name
"I.Aparici-Espert"
"A.Frances-Monerris"
"G.M.Rodriguez-Muniz"
"D.Roca-Sanjuan"
"V.Lhiaubet-Vallet"
"M.A.Miranda"
_chemical_name_systematic
;
2,2,6,6-tetramethyl-4-(9-anthracenylacetoxy)piperidine-1-oxyl
;
_cell_volume   8310.395
_exptl_crystal_colour 'orange coral'
_exptl_crystal_density_diffrn 1.248
_exptl_special_details
;
Luminescent

;
_exptl_crystal_description 'plate'
_diffrn_ambient_temperature 100
_refine_special_details
;
C16_2a,O17_2a and C16_2b,O17_2b disordered over two sites with occupancies 
0.738:0.262.
;
#These two values have been output from a single CSD field.
_refine_ls_R_factor_gt 0.0851
_refine_ls_wR_factor_gt 0.0851
_symmetry_cell_setting monoclinic
_symmetry_space_group_name_H-M 'C 2/c'
_symmetry_Int_Tables_number 15
loop_
_symmetry_equiv_pos_site_id
_symmetry_equiv_pos_as_xyz
1 x,y,z
2 -x,y,1/2-z
3 1/2+x,1/2+y,z
4 1/2-x,1/2+y,1/2-z
5 -x,-y,-z
6 x,-y,-1/2+z
7 -1/2-x,-1/2-y,-z
8 -1/2+x,-1/2-y,-1/2+z
_cell_length_a 20.7493(11)
_cell_length_b 15.5182(8)
_cell_length_c 25.9268(14)
_cell_angle_alpha 90
_cell_angle_beta 95.456(3)
_cell_angle_gamma 90
_cell_formula_units_Z 16
loop_
_atom_type_symbol
_atom_type_radius_bond
C 0.68
H 0.23
N 0.68
O 0.68
loop_
_atom_site_label
_atom_site_type_symbol
_atom_site_fract_x
_atom_site_fract_y
_atom_site_fract_z
C1 C -0.09971(18) 0.9766(2) 0.08699(15)
C2 C -0.03341(18) 0.9684(2) 0.07934(15)
C3 C 0.01433(17) 1.0123(2) 0.11320(15)
C4 C -0.00508(18) 1.0609(2) 0.15444(15)
H1 H 0.02660 1.09110 0.17630
C5 C -0.07033(18) 1.0659(2) 0.16422(15)
C6 C -0.11808(18) 1.0224(2) 0.13009(15)
C7 C -0.01063(18) 0.9165(2) 0.03942(15)
H2 H -0.04100 0.88600 0.01650
C8 C 0.05363(19) 0.9096(2) 0.03339(16)
H3 H 0.06740 0.87410 0.00670
C9 C 0.10018(19) 0.9547(3) 0.06660(16)
H4 H 0.14490 0.94960 0.06200
C10 C 0.08118(18) 1.0049(2) 0.10467(16)
H5 H 0.11270 1.03580 0.12630
C11 C -0.18359(19) 1.0283(2) 0.14169(16)
H6 H -0.21640 1.00090 0.11950
C12 C -0.20054(19) 1.0723(3) 0.18375(16)
H7 H -0.24470 1.07430 0.19050
C13 C -0.1531(2) 1.1151(3) 0.21766(17)
H8 H -0.16540 1.14520 0.24710
C14 C -0.08981(19) 1.1126(3) 0.20749(16)
H9 H -0.05820 1.14250 0.22960
C15 C -0.15149(18) 0.9377(2) 0.04938(15)
H10 H -0.18570 0.98150 0.04140
H11 H -0.13230 0.92480 0.01670
C16 C -0.18293(18) 0.8568(2) 0.06709(16)
O1 O -0.23868(14) 0.8397(2) 0.05718(15)
O2 O -0.14033(12) 0.80510(17) 0.09258(12)
C17 C -0.1634(2) 0.7242(3) 0.11283(17)
H12 H -0.21020 0.72870 0.11880
C18 C -0.12288(19) 0.7084(3) 0.16265(16)
H13 H -0.12970 0.75620 0.18690
H14 H -0.07670 0.70880 0.15600
C19 C -0.1379(2) 0.6234(3) 0.18833(17)
N1 N -0.14289(15) 0.5530(2) 0.14942(13)
C20 C -0.1700(2) 0.5636(3) 0.09492(17)
C21 C -0.1532(2) 0.6534(3) 0.07506(17)
H15 H -0.10730 0.65370 0.06750
H16 H -0.18020 0.66500 0.04220
C22 C -0.2014(2) 0.6295(3) 0.2142(2)
H17 H -0.23620 0.64930 0.18870
H18 H -0.19600 0.67050 0.24300
H19 H -0.21240 0.57270 0.22720
C23 C -0.0824(3) 0.6017(3) 0.22839(19)
H20 H -0.04320 0.59080 0.21100
H21 H -0.09330 0.55020 0.24760
H22 H -0.07470 0.65010 0.25250
C24 C -0.2443(2) 0.5514(3) 0.0923(2)
H23 H -0.26330 0.59850 0.11100
H24 H -0.25400 0.49630 0.10840
H25 H -0.26250 0.55160 0.05610
C25 C -0.1401(3) 0.4950(3) 0.0632(2)
H26 H -0.15490 0.50290 0.02640
H27 H -0.15310 0.43790 0.07450
H28 H -0.09280 0.49990 0.06800
O3 O -0.14309(14) 0.47544(18) 0.16797(12)
C26 C 0.13787(18) 0.7275(2) 0.09588(16)
C27 C 0.20278(19) 0.7184(2) 0.08474(15)
C28 C 0.25269(18) 0.7652(2) 0.11505(15)
C29 C 0.23691(18) 0.8180(2) 0.15535(15)
H29 H 0.27010 0.84990 0.17460
C30 C 0.17294(18) 0.8248(2) 0.16799(15)
C31 C 0.12232(18) 0.7785(2) 0.13788(15)
C32 C 0.2232(2) 0.6649(2) 0.04410(16)
H30 H 0.19180 0.63170 0.02370
C33 C 0.2865(2) 0.6606(3) 0.03399(17)
H31 H 0.29820 0.62550 0.00630
C34 C 0.3348(2) 0.7071(3) 0.06395(17)
H32 H 0.37870 0.70290 0.05670
C35 C 0.31861(19) 0.7580(3) 0.10309(16)
H33 H 0.35140 0.78950 0.12300
C36 C 0.05785(19) 0.7889(3) 0.15167(17)
H34 H 0.02340 0.75900 0.13260
C37 C 0.0447(2) 0.8413(3) 0.19185(18)
H35 H 0.00140 0.84710 0.20020
C38 C 0.0943(2) 0.8866(3) 0.22098(18)
H36 H 0.08440 0.92260 0.24870
C39 C 0.1563(2) 0.8787(3) 0.20949(16)
H37 H 0.18950 0.90970 0.22940
C40 C 0.0836(2) 0.6853(2) 0.06104(18)
H38 H 0.09950 0.67100 0.02720
H39 H 0.04720 0.72630 0.05470
C41 C 0.0589(6) 0.6010(7) 0.0863(6)
O4 O 0.0170(3) 0.5979(3) 0.1159(4)
O5 O 0.09584(14) 0.53736(18) 0.07603(13)
C42 C 0.0828(2) 0.4554(3) 0.10075(18)
H40 H 0.03680 0.45250 0.10910
C43 C 0.1283(2) 0.4466(3) 0.14869(17)
H41 H 0.12000 0.49410 0.17270
H42 H 0.17320 0.45290 0.13930
C44 C 0.1225(2) 0.3612(3) 0.17685(17)
N2 N 0.11931(17) 0.2896(2) 0.13820(13)
C45 C 0.0870(2) 0.2951(3) 0.08470(16)
C46 C 0.09666(19) 0.3856(3) 0.06277(17)
H43 H 0.14180 0.39140 0.05390
H44 H 0.06760 0.39300 0.03050
C47 C 0.0617(3) 0.3571(3) 0.2064(2)
H45 H 0.02390 0.37600 0.18370
H46 H 0.06740 0.39500 0.23680
H47 H 0.05500 0.29780 0.21770
C48 C 0.1834(3) 0.3473(3) 0.2138(2)
H48 H 0.17900 0.29400 0.23350
H49 H 0.18930 0.39610 0.23770
H50 H 0.22110 0.34270 0.19380
C49 C 0.0154(2) 0.2726(3) 0.08522(19)
H51 H -0.00500 0.26980 0.04960
H52 H -0.00610 0.31690 0.10440
H53 H 0.01120 0.21650 0.10200
C50 C 0.1195(2) 0.2291(3) 0.05120(17)
H54 H 0.10350 0.23700 0.01470
H55 H 0.10930 0.17060 0.06220
H56 H 0.16650 0.23760 0.05540
O6 O 0.12722(16) 0.21297(18) 0.15700(11)
H57? H 0.04710 0.72650 0.05640
H58? H 0.09940 0.67640 0.02660
C51? C 0.061(2) 0.613(3) 0.076(2)
O7? O 0.0056(6) 0.5867(10) 0.0700(16)
#END
