
#######################################################################
#
#                 Cambridge Crystallographic Data Centre
#                                CCDC
#
#######################################################################
#
# If this CIF has been generated from an entry in the Cambridge
# Structural Database, then it will include bibliographic, chemical,
# crystal, experimental, refinement or atomic coordinate data resulting
# from the CCDC's data processing and validation procedures.
#
#######################################################################

data_CSD_CIF_UPURAA
_audit_creation_date 2016-06-28
_audit_creation_method CSD-ConQuest-V1
_database_code_CSD UPURAA
_database_code_depnum_ccdc_archive 'CCDC 1455554'
_chemical_formula_sum 'C34 H25 N5 O1'
_chemical_formula_moiety
;
C34 H25 N5 O1
;
_journal_coden_Cambridge 1700
_journal_volume 4
_journal_year 2016
_journal_page_first 4818
_journal_name_full 'J.Mater.Chem.B '
loop_
_publ_author_name
"Hui Wang"
"Xiaohe Tian"
"Wei Du"
"Qiong Zhang"
"Lijuan Guan"
"Aidong Wang"
"Yujin Zhang"
"Chuankui Wang"
"Hongping Zhou"
"Jieying Wu"
"Yupeng Tian"
_chemical_name_systematic
;
4-((hydroxyimino)methyl)-N-phenyl-N-(4-(2,2':6',2''-terpyridin-4'-yl)phenyl)an
iline
;
_cell_volume   1336.139
_exptl_crystal_density_diffrn 1.292
_exptl_crystal_description 'block'
_diffrn_ambient_temperature 296
#These two values have been output from a single CSD field.
_refine_ls_R_factor_gt 0.0789
_refine_ls_wR_factor_gt 0.0789
_symmetry_cell_setting triclinic
_symmetry_space_group_name_H-M 'P -1'
_symmetry_Int_Tables_number 2
loop_
_symmetry_equiv_pos_site_id
_symmetry_equiv_pos_as_xyz
1 x,y,z
2 -x,-y,-z
_cell_length_a 8.8941(17)
_cell_length_b 10.241(2)
_cell_length_c 15.811(3)
_cell_angle_alpha 79.530(2)
_cell_angle_beta 86.870(2)
_cell_angle_gamma 70.650(2)
_cell_formula_units_Z 2
loop_
_atom_type_symbol
_atom_type_radius_bond
C 0.68
H 0.23
N 0.68
O 0.68
loop_
_atom_site_label
_atom_site_type_symbol
_atom_site_fract_x
_atom_site_fract_y
_atom_site_fract_z
N1 N 0.8156(3) 0.6286(3) 0.78735(15)
N2 N 0.7487(4) 0.3426(3) 0.32231(18)
C1 C 0.8072(4) 0.5313(3) 0.63307(19)
N3 N 0.9587(5) 0.2594(3) 0.86668(18)
C2 C 0.7733(4) 0.6726(3) 0.63535(19)
H1 H 0.74710 0.73770 0.58460
C3 C 0.8518(4) 0.4917(3) 0.78548(18)
C4 C 0.7776(4) 0.7186(3) 0.71216(19)
C5 C 0.8946(4) 0.3950(3) 0.86951(19)
N4 N 0.7311(4) 0.9561(3) 0.6409(2)
C6 C 0.8495(4) 0.4399(3) 0.70992(19)
H2 H 0.87650 0.34360 0.71150
C7 C 0.7952(4) 0.4820(3) 0.55243(19)
C8 C 0.8900(4) 0.3526(4) 0.53582(19)
H3 H 0.96560 0.29460 0.57660
C9 C 0.8704(4) 0.4457(4) 0.9463(2)
H4 H 0.82640 0.54170 0.94650
C10 C 0.7646(4) 0.3889(4) 0.3993(2)
C11 C 0.7410(4) 0.8698(3) 0.7160(2)
C12 C 0.8768(4) 0.3056(4) 0.4607(2)
H5 H 0.94360 0.21780 0.45150
C13 C 0.6894(4) 0.4367(4) 0.2481(2)
C14 C 0.7592(5) 0.1983(4) 0.3265(2)
C15 C 0.7209(5) 0.9173(4) 0.7933(2)
H6 H 0.73030 0.85420 0.84470
C16 C 0.7392(5) 0.5515(5) 0.2226(2)
H7 H 0.81570 0.56480 0.25480
C17 C 0.6844(4) 0.5654(4) 0.4897(2)
H8 H 0.61970 0.65420 0.49820
C18 C 0.6682(5) 0.5194(4) 0.4152(2)
H9 H 0.59130 0.57670 0.37480
C19 C 0.9123(5) 0.3524(4) 1.0222(2)
H10 H 0.89420 0.38430 1.07450
C20 C 0.5553(5) 0.6220(5) 0.1013(2)
C21 C 0.9805(6) 0.2133(4) 1.0201(2)
H11 H 1.01160 0.14810 1.07050
N5 N 0.4897(7) 0.8329(6) 0.0075(3)
C22 C 0.5781(5) 0.4179(5) 0.1969(3)
H12 H 0.54460 0.34010 0.21340
C23 C 0.6759(5) 1.1455(4) 0.7186(3)
H13 H 0.65350 1.24120 0.71740
C24 C 0.6875(6) 1.0564(4) 0.7945(3)
H14 H 0.67280 1.08980 0.84630
C25 C 1.0022(6) 0.1717(4) 0.9409(3)
H15 H 1.05010 0.07650 0.93920
C26 C 0.6761(5) 0.1354(5) 0.3866(3)
H16 H 0.61530 0.18520 0.42730
C27 C 0.6767(5) 0.6457(5) 0.1505(3)
H17 H 0.71010 0.72330 0.13270
C28 C 0.6975(6) 1.0934(4) 0.6445(3)
H18 H 0.68860 1.15600 0.59300
C29 C 0.8527(8) -0.0137(7) 0.2678(4)
H19 H 0.91250 -0.06390 0.22700
C30 C 0.8507(6) 0.1228(6) 0.2673(3)
H20 H 0.91060 0.16280 0.22730
C31 C 0.5193(5) 0.5054(6) 0.1266(3)
H21 H 0.44970 0.48520 0.09320
C32 C 0.7675(8) -0.0757(6) 0.3277(5)
H22 H 0.76850 -0.16670 0.32750
C33 C 0.6818(7) -0.0009(5) 0.3873(4)
H23 H 0.62630 -0.04250 0.42920
C34 C 0.4764(7) 0.7198(6) 0.0247(3)
H24 H 0.41570 0.69290 -0.01050
O1 O 0.3966(8) 0.9223(5) -0.0690(4)
H25 H 0.37720 0.87240 -0.09910
#END
