
#######################################################################
#
#                 Cambridge Crystallographic Data Centre
#                                CCDC
#
#######################################################################
#
# If this CIF has been generated from an entry in the Cambridge
# Structural Database, then it will include bibliographic, chemical,
# crystal, experimental, refinement or atomic coordinate data resulting
# from the CCDC's data processing and validation procedures.
#
#######################################################################

data_CSD_CIF_UPUWUY
_audit_creation_date 2011-07-11
_audit_creation_method CSD-ConQuest-V1
_database_code_CSD UPUWUY
_database_code_depnum_ccdc_archive 'CCDC 804662'
_chemical_formula_sum 'C28 H19 N3 O5'
_chemical_formula_moiety
;
C28 H19 N3 O5
;
_journal_coden_Cambridge 16
_journal_volume 67
_journal_year 2011
_journal_page_first 2863
_journal_name_full 'Tetrahedron '
loop_
_publ_author_name
"Hui Li"
"Chao-Guo Yan"
_chemical_name_systematic
;
14-(4-Nitrobenzyl)-4,12-dioxa-14,17-diazahexacyclo[11.11.1.0^2,11^.0^5,10^.0^1
5,24^.0^16,21^]pentacosa-2(11),5,7,9,15,17,19,21,23-nonaen-3-one
;
_cell_volume   1090.908
_exptl_crystal_colour 'colorless'
_exptl_crystal_density_diffrn 1.454
_exptl_crystal_description 'block'
_diffrn_ambient_temperature 296
#These two values have been output from a single CSD field.
_refine_ls_R_factor_gt 0.0442
_refine_ls_wR_factor_gt 0.0442
_symmetry_cell_setting triclinic
_symmetry_space_group_name_H-M 'P -1'
_symmetry_Int_Tables_number 2
loop_
_symmetry_equiv_pos_site_id
_symmetry_equiv_pos_as_xyz
1 x,y,z
2 -x,-y,-z
_cell_length_a 7.8949(13)
_cell_length_b 8.0130(13)
_cell_length_c 17.810(3)
_cell_angle_alpha 78.896(2)
_cell_angle_beta 86.915(2)
_cell_angle_gamma 80.746(2)
_cell_formula_units_Z 2
loop_
_atom_type_symbol
_atom_type_radius_bond
C 0.68
H 0.23
N 0.68
O 0.68
loop_
_atom_site_label
_atom_site_type_symbol
_atom_site_fract_x
_atom_site_fract_y
_atom_site_fract_z
O1 O 0.29731(15) 0.49872(15) 0.28899(7)
O2 O 0.74970(14) 0.67229(14) 0.31559(6)
N1 N 0.81249(16) 0.83372(15) 0.19224(7)
N2 N 0.82826(18) 1.08584(18) 0.05862(8)
C1 C 0.88427(19) 1.03772(19) 0.26760(9)
C2 C 0.75677(18) 0.8100(2) 0.12158(9)
O3 O 1.42246(17) 1.13345(19) 0.36856(9)
C3 C 0.7298(2) 0.5124(2) 0.18486(10)
H1 H 0.73440 0.40060 0.16960
C4 C 1.1410(2) 1.10126(19) 0.35174(9)
N3 N 1.2790(2) 1.12942(18) 0.39793(10)
C5 C 0.3199(2) 0.5684(2) 0.35183(10)
C6 C 0.4723(2) 0.62755(19) 0.36214(9)
C7 C 0.7481(2) 0.99228(19) 0.22202(9)
H2 H 0.64700 0.97570 0.25440
H3 H 0.71540 1.08620 0.17970
C8 C 0.6058(2) 0.60989(19) 0.30434(10)
C9 C 0.5870(2) 0.5355(2) 0.2436(1)
C10 C 0.9848(2) 1.0792(2) 0.3867(1)
H4 H 0.96560 1.08610 0.43810
C11 C 0.8721(2) 0.6873(2) 0.25012(9)
H5 H 0.98200 0.70390 0.26840
C12 C 0.4858(2) 0.6992(2) 0.42712(10)
H6 H 0.58570 0.74070 0.43470
C13 C 0.8567(2) 1.0465(2) 0.34422(9)
H7 H 0.75070 1.03020 0.36740
O4 O 1.24454(19) 1.1472(2) 0.46396(9)
C14 C 0.76113(19) 0.9416(2) 0.05438(9)
C15 C 0.71053(19) 0.6539(2) 0.11484(10)
C16 C 1.0422(2) 1.0654(2) 0.23355(10)
H8 H 1.06060 1.06320 0.18170
O5 O 0.39822(18) 0.40309(18) 0.18452(8)
C17 C 0.1843(2) 0.5779(2) 0.40447(11)
H9 H 0.08330 0.53820 0.39700
C18 C 0.7020(2) 0.9129(3) -0.01558(10)
C19 C 1.1723(2) 1.0962(2) 0.27529(10)
H10 H 1.27840 1.11310 0.25240
C20 C 0.4290(2) 0.4737(2) 0.23525(10)
C21 C 0.6511(2) 0.7538(3) -0.01935(11)
H11 H 0.61240 0.73530 -0.06500
C22 C 0.6588(2) 0.6281(3) 0.04393(11)
H12 H 0.62920 0.52220 0.04050
C23 C 0.8990(2) 0.5205(2) 0.22042(11)
H13 H 0.92680 0.42330 0.26180
H14 H 0.99160 0.51940 0.18240
C24 C 0.7022(2) 1.0478(3) -0.07945(11)
H15 H 0.65730 1.03810 -0.12540
C25 C 0.3528(3) 0.7084(2) 0.47938(11)
H16 H 0.36270 0.75530 0.52250
C26 C 0.8330(2) 1.2032(3) -0.00440(12)
H17 H 0.88290 1.29970 -0.00230
C27 C 0.2020(3) 0.6472(3) 0.46794(12)
H18 H 0.11230 0.65350 0.50380
C28 C 0.7671(3) 1.1903(3) -0.07431(12)
H19 H 0.76830 1.27900 -0.11650
#END
