
#######################################################################
#
#                 Cambridge Crystallographic Data Centre
#                                CCDC
#
#######################################################################
#
# If this CIF has been generated from an entry in the Cambridge
# Structural Database, then it will include bibliographic, chemical,
# crystal, experimental, refinement or atomic coordinate data resulting
# from the CCDC's data processing and validation procedures.
#
#######################################################################

data_CSD_CIF_UPUYIO
_audit_creation_date 2011-07-11
_audit_creation_method CSD-ConQuest-V1
_database_code_CSD UPUYIO
_database_code_depnum_ccdc_archive 'CCDC 784316'
_chemical_formula_sum 'C15 H25 N3 O4'
_chemical_formula_moiety
;
C15 H25 N3 O4
;
_journal_coden_Cambridge 16
_journal_volume 67
_journal_year 2011
_journal_page_first 2925
_journal_name_full 'Tetrahedron '
loop_
_publ_author_name
"G.Cremonesi"
"P.D.Croce"
"A.Forni"
"M.Gallanti"
"C.La Rosa"
_chemical_name_systematic
;
(1R)-1-[(2S,5R)-5-isopropyl-3,6-dimethoxy-2,5-dihydropyrazin-2-yl]-1-[(5S)-3-m
ethyl-4,5-dihydro-isoxazol-5-yl]ethanol
;
_cell_volume   1666.949
_exptl_crystal_colour 'colorless'
_exptl_crystal_density_diffrn 1.241
_exptl_crystal_description 'prism'
_diffrn_ambient_temperature 100
#These two values have been output from a single CSD field.
_refine_ls_R_factor_gt 0.0352
_refine_ls_wR_factor_gt 0.0352
loop_
_citation_database_id_CSD
_citation_special_details
UPUYOU "is a stereoisomer of this entry"
_symmetry_cell_setting orthorhombic
_symmetry_space_group_name_H-M 'P 21 21 21'
_symmetry_Int_Tables_number 19
loop_
_symmetry_equiv_pos_site_id
_symmetry_equiv_pos_as_xyz
1 x,y,z
2 1/2-x,-y,1/2+z
3 -x,1/2+y,1/2-z
4 1/2+x,1/2-y,-z
_cell_length_a 6.5252(8)
_cell_length_b 6.8964(9)
_cell_length_c 37.043(5)
_cell_angle_alpha 90
_cell_angle_beta 90
_cell_angle_gamma 90
_cell_formula_units_Z 4
loop_
_atom_type_symbol
_atom_type_radius_bond
C 0.68
H 0.23
N 0.68
O 0.68
loop_
_atom_site_label
_atom_site_type_symbol
_atom_site_fract_x
_atom_site_fract_y
_atom_site_fract_z
O1 O 0.5463(2) 0.5322(2) 0.91896(3)
O2 O 0.3200(2) 0.05378(19) 0.93627(4)
H1 H 0.40950 -0.02550 0.92940
O3 O 0.2644(2) 0.4741(2) 0.85028(3)
O4 O 0.8910(2) -0.0263(2) 0.86154(3)
N1 N 0.5036(3) 0.6708(2) 0.94626(4)
N2 N 0.5621(2) 0.0473(2) 0.87715(4)
N3 N 0.5900(2) 0.3941(2) 0.83449(4)
C1 C 0.4537(4) 0.6943(4) 1.01083(5)
H2 H 0.44470 0.83330 1.00560
H3 H 0.56820 0.67040 1.02740
H4 H 0.32570 0.65050 1.02200
C2 C 0.4880(3) 0.5858(3) 0.97661(5)
C3 C 0.5180(3) 0.3715(3) 0.97469(5)
H5 H 0.40070 0.30110 0.98540
H6 H 0.64590 0.33150 0.98700
C4 C 0.5306(3) 0.3384(3) 0.93409(5)
H7 H 0.65850 0.26440 0.92840
C5 C 0.3457(3) 0.2326(3) 0.91751(5)
C6 C 0.1465(3) 0.3432(3) 0.92281(5)
H8 H 0.11240 0.34710 0.94860
H9 H 0.03620 0.27800 0.90960
H10 H 0.16240 0.47570 0.91370
C7 C 0.3918(3) 0.1848(3) 0.87692(5)
H11 H 0.26960 0.11510 0.86710
C8 C 0.7234(3) 0.0877(3) 0.85974(5)
C9 C 0.8768(3) -0.1925(3) 0.88507(5)
H12 H 0.78770 -0.29040 0.87400
H13 H 0.81930 -0.15270 0.90840
H14 H 1.01370 -0.24740 0.88880
C10 C 0.7610(3) 0.2589(3) 0.83532(5)
H15 H 0.88310 0.33020 0.84480
C11 C 0.8130(3) 0.1893(3) 0.79648(5)
H16 H 0.93560 0.10270 0.79800
C12 C 0.6374(4) 0.0723(3) 0.78061(5)
H17 H 0.67590 0.02560 0.75660
H18 H 0.51530 0.15440 0.77870
H19 H 0.60790 -0.03870 0.79630
C13 C 0.8688(4) 0.3617(3) 0.77262(5)
H20 H 0.74980 0.44750 0.77030
H21 H 0.90970 0.31500 0.74870
H22 H 0.98260 0.43330 0.78360
C14 C 0.4309(3) 0.3577(3) 0.85262(4)
C15 C 0.2937(3) 0.6497(3) 0.82987(5)
H23 H 0.35260 0.61810 0.80630
H24 H 0.38700 0.73600 0.84300
H25 H 0.16140 0.71450 0.82650
#END
