
#######################################################################
#
#                 Cambridge Crystallographic Data Centre
#                                CCDC
#
#######################################################################
#
# If this CIF has been generated from an entry in the Cambridge
# Structural Database, then it will include bibliographic, chemical,
# crystal, experimental, refinement or atomic coordinate data resulting
# from the CCDC's data processing and validation procedures.
#
#######################################################################

data_CSD_CIF_UQACEV
_audit_creation_date 2011-07-18
_audit_creation_method CSD-ConQuest-V1
_database_code_CSD UQACEV
_database_code_depnum_ccdc_archive 'CCDC 787967'
_chemical_formula_sum 'C10 H8 N2 O4'
_chemical_formula_moiety
;
C10 H8 N2 O4
;
_journal_coden_Cambridge 603
_journal_volume 29
_journal_year 2010
_journal_page_first 1175
_journal_name_full 'Jiegou Huaxue(Chin.)(Chin.J.Struct.Chem.) '
loop_
_publ_author_name
"Xin Fang"
"Hai-Yang Yu"
"Ming-Dong Huang"
"Jun-Dong Wang"
_chemical_name_systematic
;
Methyl 5-nitro-1H-indole-2-carboxylate
;
_cell_volume    960.928
_exptl_crystal_colour 'colorless'
_exptl_crystal_density_diffrn 1.522
_exptl_crystal_description 'parallelepiped'
_diffrn_ambient_temperature 298
#These two values have been output from a single CSD field.
_refine_ls_R_factor_gt 0.0859
_refine_ls_wR_factor_gt 0.0859
_symmetry_cell_setting monoclinic
_symmetry_space_group_name_H-M 'P 21/c'
_symmetry_Int_Tables_number 14
loop_
_symmetry_equiv_pos_site_id
_symmetry_equiv_pos_as_xyz
1 x,y,z
2 -x,1/2+y,1/2-z
3 -x,-y,-z
4 x,-1/2-y,-1/2+z
_cell_length_a 3.759(8)
_cell_length_b 10.80(3)
_cell_length_c 23.67(6)
_cell_angle_alpha 90
_cell_angle_beta 90.23(3)
_cell_angle_gamma 90
_cell_formula_units_Z 4
loop_
_atom_type_symbol
_atom_type_radius_bond
C 0.68
H 0.23
N 0.68
O 0.68
loop_
_atom_site_label
_atom_site_type_symbol
_atom_site_fract_x
_atom_site_fract_y
_atom_site_fract_z
O1 O -0.5151(15) 0.3549(5) -0.3099(2)
O2 O -0.4268(15) 0.5547(5) -0.3181(2)
O3 O 0.4440(13) 0.3375(5) 0.02883(19)
O4 O 0.1952(13) 0.1552(4) 0.00198(18)
N1 N -0.4083(16) 0.4557(6) -0.2910(2)
N2 N 0.1894(15) 0.4481(5) -0.0739(2)
H1 H 0.28650 0.50310 -0.05250
C1 C -0.2501(18) 0.4579(7) -0.2335(3)
C2 C -0.1175(19) 0.5737(7) -0.2127(3)
H2 H -0.13200 0.64470 -0.23480
C3 C 0.0342(19) 0.5784(7) -0.1585(3)
H3 H 0.12360 0.65210 -0.14390
C4 C 0.0470(18) 0.4684(7) -0.1270(3)
C5 C -0.0839(18) 0.3542(6) -0.1477(3)
C6 C -0.2426(18) 0.3491(6) -0.2026(3)
H4 H -0.33660 0.27590 -0.21700
C7 C 0.1483(18) 0.3230(7) -0.0609(3)
C8 C -0.0244(17) 0.2617(7) -0.1052(3)
H5 H -0.08740 0.17850 -0.10680
C9 C 0.2762(18) 0.2754(7) -0.0055(3)
C10 C 0.317(2) 0.0996(7) 0.0558(3)
H6 H 0.24570 0.01420 0.05710
H7 H 0.21190 0.14340 0.08680
H8 H 0.57110 0.10500 0.05830
#END
