
#######################################################################
#
#                 Cambridge Crystallographic Data Centre
#                                CCDC
#
#######################################################################
#
# If this CIF has been generated from an entry in the Cambridge
# Structural Database, then it will include bibliographic, chemical,
# crystal, experimental, refinement or atomic coordinate data resulting
# from the CCDC's data processing and validation procedures.
#
#######################################################################

data_CSD_CIF_UQELOT
_audit_creation_date 2016-06-29
_audit_creation_method CSD-ConQuest-V1
_database_code_CSD UQELOT
_database_code_depnum_ccdc_archive 'CCDC 1482514'
_chemical_formula_sum 'C24 H24 N4 O5'
_chemical_formula_moiety
;
C24 H24 N4 O5
;
_journal_coden_Cambridge 24
_journal_volume 57
_journal_year 2016
_journal_page_first 3485
_journal_name_full 'Tetrahedron Lett. '
loop_
_publ_author_name
"E.V.Zaliznaya"
"O.K.Farat"
"S.A.Varenichenko"
"A.V.Mazepa"
"V.I.Markov"
_chemical_name_systematic
;
2-(2',5'-dioxo-2,3,5,6,7,8-hexahydro-1H-spiro[acridine-4,3'-pyrrolidin]-4'-yl)
-N-(2-nitrophenyl)acetamide
;
_cell_volume   2066.279
_exptl_crystal_colour 'colorless'
_exptl_crystal_density_diffrn 1.442
_exptl_crystal_description 'prism'
_diffrn_ambient_temperature 120
#These two values have been output from a single CSD field.
_refine_ls_R_factor_gt 0.0584
_refine_ls_wR_factor_gt 0.0584
_symmetry_cell_setting orthorhombic
_symmetry_space_group_name_H-M 'P n a 21'
_symmetry_Int_Tables_number 33
loop_
_symmetry_equiv_pos_site_id
_symmetry_equiv_pos_as_xyz
1 x,y,z
2 -x,-y,1/2+z
3 1/2+x,1/2-y,z
4 1/2-x,1/2+y,1/2+z
_cell_length_a 14.315(2)
_cell_length_b 19.086(3)
_cell_length_c 7.5628(12)
_cell_angle_alpha 90
_cell_angle_beta 90
_cell_angle_gamma 90
_cell_formula_units_Z 4
loop_
_atom_type_symbol
_atom_type_radius_bond
C 0.68
H 0.23
N 0.68
O 0.68
loop_
_atom_site_label
_atom_site_type_symbol
_atom_site_fract_x
_atom_site_fract_y
_atom_site_fract_z
O1 O 0.34808(16) 0.56102(11) 0.3616(3)
O2 O 0.04953(15) 0.50418(11) 0.5765(3)
O3 O 0.17012(16) 0.59272(11) 1.0790(3)
O4 O 0.26305(17) 0.80810(12) 0.3432(4)
O5 O 0.3552(2) 0.88871(12) 0.2614(5)
N1 N 0.31728(18) 0.67801(13) 0.3525(4)
H1 H 0.275(3) 0.7099(19) 0.375(5)
N2 N 0.09437(17) 0.54257(12) 0.8483(3)
H2 H 0.046(3) 0.5354(19) 0.905(5)
N3 N 0.23345(15) 0.69801(11) 0.7891(3)
N4 N 0.33938(19) 0.82752(13) 0.2913(4)
C1 C 0.2966(2) 0.60992(15) 0.3904(4)
C2 C 0.2021(2) 0.59991(16) 0.4722(4)
H3 H 0.175(2) 0.6446(19) 0.508(5)
H4 H 0.164(3) 0.576(2) 0.384(6)
C3 C 0.20596(19) 0.54833(14) 0.6250(3)
H5 H 0.234(3) 0.5059(19) 0.590(5)
C4 C 0.10762(19) 0.52787(15) 0.6739(4)
C5 C 0.16960(19) 0.57300(14) 0.9296(4)
C6 C 0.25077(18) 0.57300(13) 0.8013(3)
C7 C 0.3215(2) 0.51951(15) 0.8721(4)
H6 H 0.333(2) 0.5294(19) 0.997(5)
H7 H 0.293(2) 0.4699(18) 0.871(5)
C8 C 0.4122(2) 0.52314(16) 0.7693(5)
H8 H 0.452(2) 0.4858(17) 0.810(4)
H9 H 0.403(2) 0.5128(18) 0.649(5)
C9 C 0.4573(2) 0.59468(16) 0.7898(6)
H10 H 0.502(3) 0.6040(19) 0.705(5)
H11 H 0.484(3) 0.597(2) 0.907(6)
C10 C 0.38959(19) 0.65452(14) 0.7835(4)
C11 C 0.4207(2) 0.72315(16) 0.7716(5)
H12 H 0.484(3) 0.7313(17) 0.766(5)
C12 C 0.3604(2) 0.77863(14) 0.7696(4)
C13 C 0.3956(2) 0.85287(16) 0.7632(5)
H13 H 0.441(3) 0.8525(19) 0.688(5)
H14 H 0.426(3) 0.8633(18) 0.880(5)
C14 C 0.3202(3) 0.90679(16) 0.7257(5)
H15 H 0.305(3) 0.9062(19) 0.604(6)
H16 H 0.344(3) 0.952(2) 0.747(6)
C15 C 0.2333(3) 0.89054(17) 0.8308(5)
H17 H 0.192(3) 0.929(2) 0.820(6)
H18 H 0.249(3) 0.887(2) 0.955(6)
C16 C 0.1935(2) 0.82022(15) 0.7750(5)
H19 H 0.141(3) 0.806(2) 0.857(6)
H20 H 0.172(3) 0.8218(19) 0.658(5)
C17 C 0.26513(19) 0.76320(14) 0.7791(4)
C18 C 0.29387(18) 0.64494(13) 0.7921(4)
C19 C 0.4005(2) 0.70524(15) 0.2911(4)
C20 C 0.4771(2) 0.66261(17) 0.2569(5)
H21 H 0.469(2) 0.6154(18) 0.280(5)
C21 C 0.5604(2) 0.69041(19) 0.2008(5)
H22 H 0.609(3) 0.660(2) 0.179(6)
C22 C 0.5713(2) 0.76155(19) 0.1765(5)
H23 H 0.626(3) 0.779(2) 0.132(6)
C23 C 0.4981(2) 0.80482(17) 0.2087(4)
H24 H 0.503(3) 0.854(2) 0.196(5)
C24 C 0.4135(2) 0.77730(15) 0.2636(4)
#END
