
#######################################################################
#
#                 Cambridge Crystallographic Data Centre
#                                CCDC
#
#######################################################################
#
# If this CIF has been generated from an entry in the Cambridge
# Structural Database, then it will include bibliographic, chemical,
# crystal, experimental, refinement or atomic coordinate data resulting
# from the CCDC's data processing and validation procedures.
#
#######################################################################

data_CSD_CIF_UQIKAH
_audit_creation_date 2011-07-22
_audit_creation_method CSD-ConQuest-V1
_database_code_CSD UQIKAH
_database_code_depnum_ccdc_archive 'CCDC 757190'
_chemical_formula_sum 'C11 H13 N1 O5'
_chemical_formula_moiety
;
C11 H13 N1 O5
;
_journal_coden_Cambridge 1048
_journal_volume 12
_journal_year 2010
_journal_page_first 1090
_journal_name_full 'Green Chemistry '
loop_
_publ_author_name
"M.J.Raihan"
"V.Kavala"
"Chun-Wei Kuo"
"B.R.Raju"
"Ching-Fa Yao"
_chemical_name_systematic
;
7,7-Dimethyl-5a,5b,8a,9a-tetrahydro-4H-[1,3]dioxolo[4',5']furo[2',3':5,6]pyran
o[4,3-c][1,2]oxazole
;
_cell_volume   1148.476
_exptl_crystal_colour 'colorless'
_exptl_crystal_density_diffrn 1.384
_exptl_crystal_description 'prism'
_diffrn_ambient_temperature 296
#These two values have been output from a single CSD field.
_refine_ls_R_factor_gt 0.0366
_refine_ls_wR_factor_gt 0.0366
_symmetry_cell_setting orthorhombic
_symmetry_space_group_name_H-M 'P 21 21 21'
_symmetry_Int_Tables_number 19
loop_
_symmetry_equiv_pos_site_id
_symmetry_equiv_pos_as_xyz
1 x,y,z
2 1/2-x,-y,1/2+z
3 -x,1/2+y,1/2-z
4 1/2+x,1/2-y,-z
_cell_length_a 8.4490(8)
_cell_length_b 11.2583(12)
_cell_length_c 12.0738(12)
_cell_angle_alpha 90
_cell_angle_beta 90
_cell_angle_gamma 90
_cell_formula_units_Z 4
loop_
_atom_type_symbol
_atom_type_radius_bond
C 0.68
H 0.23
N 0.68
O 0.68
loop_
_atom_site_label
_atom_site_type_symbol
_atom_site_fract_x
_atom_site_fract_y
_atom_site_fract_z
C1 C 1.1179(3) 0.3397(2) 0.6993(2)
H1 H 1.14450 0.26650 0.66900
C2 C 1.0966(3) 0.35988(19) 0.80759(18)
C3 C 1.0987(3) 0.2857(2) 0.9107(2)
H2 H 1.06010 0.20640 0.89450
H3 H 1.20600 0.27920 0.93860
C4 C 1.0494(2) 0.45866(18) 1.01652(16)
H4 H 1.15930 0.46080 1.04250
C5 C 1.0222(2) 0.54312(18) 0.91933(16)
H5 H 1.08700 0.61480 0.92730
C6 C 1.0585(2) 0.48108(18) 0.81231(16)
C7 C 0.8032(2) 0.56447(18) 1.03480(15)
H6 H 0.70710 0.51600 1.03940
C8 C 0.9362(2) 0.5085(2) 1.10163(17)
H7 H 0.89910 0.44900 1.15490
C9 C 0.8963(3) 0.7004(2) 1.16397(16)
C10 C 0.9746(3) 0.8158(2) 1.1378(2)
H8 H 1.05430 0.83220 1.19240
H9 H 0.89720 0.87820 1.13830
H10 H 1.02280 0.81130 1.06590
C11 C 0.8218(3) 0.6964(2) 1.2772(2)
H11 H 0.90080 0.71240 1.33230
H12 H 0.77730 0.61910 1.28970
H13 H 0.73970 0.75520 1.28180
N1 N 1.0567(2) 0.53232(17) 0.71516(15)
O1 O 1.0954(2) 0.43952(16) 0.64043(12)
O2 O 0.99936(19) 0.34125(13) 0.99196(12)
O3 O 0.85705(16) 0.57198(12) 0.92353(11)
O4 O 0.77782(17) 0.67623(13) 1.08140(12)
O5 O 1.01016(17) 0.60766(15) 1.15244(12)
#END
