
#######################################################################
#
#                 Cambridge Crystallographic Data Centre
#                                CCDC
#
#######################################################################
#
# If this CIF has been generated from an entry in the Cambridge
# Structural Database, then it will include bibliographic, chemical,
# crystal, experimental, refinement or atomic coordinate data resulting
# from the CCDC's data processing and validation procedures.
#
#######################################################################

data_CSD_CIF_UQOHIS
_audit_creation_date 2011-07-11
_audit_creation_method CSD-ConQuest-V1
_database_code_CSD UQOHIS
_database_code_depnum_ccdc_archive 'CCDC 801332'
_chemical_formula_sum 'C19 H20 N2 O4'
_chemical_formula_moiety
;
C19 H20 N2 O4
;
_journal_coden_Cambridge 177
_journal_volume 9
_journal_year 2011
_journal_page_first 3428
_journal_name_full 'Org.Biomol.Chem. '
loop_
_publ_author_name
"S.Bondalapati"
"U.C.Reddy"
"P.Saha"
"A.K.Saikia"
_chemical_name_systematic
;
N-(4-Methyl-2-(3-nitrophenyl)tetrahydro-2H-pyran-4-yl)benzamide
;
_cell_volume   3593.856
_exptl_crystal_colour 'colorless'
_exptl_crystal_density_diffrn 1.258
_exptl_crystal_description 'needle'
_diffrn_ambient_temperature 296
#These two values have been output from a single CSD field.
_refine_ls_R_factor_gt 0.0522
_refine_ls_wR_factor_gt 0.0522
_symmetry_cell_setting monoclinic
_symmetry_space_group_name_H-M 'P 21/n'
_symmetry_Int_Tables_number 14
loop_
_symmetry_equiv_pos_site_id
_symmetry_equiv_pos_as_xyz
1 x,y,z
2 1/2-x,1/2+y,1/2-z
3 -x,-y,-z
4 -1/2+x,-1/2-y,-1/2+z
_cell_length_a 11.6207(12)
_cell_length_b 19.274(2)
_cell_length_c 16.3163(15)
_cell_angle_alpha 90
_cell_angle_beta 100.451(7)
_cell_angle_gamma 90
_cell_formula_units_Z 8
loop_
_atom_type_symbol
_atom_type_radius_bond
C 0.68
H 0.23
N 0.68
O 0.68
loop_
_atom_site_label
_atom_site_type_symbol
_atom_site_fract_x
_atom_site_fract_y
_atom_site_fract_z
C1 C -0.0283(6) 0.3607(4) 0.9258(4)
H1 H -0.05280 0.32590 0.96200
H2 H 0.05430 0.36970 0.94530
C2 C -0.0453(5) 0.3327(3) 0.8384(5)
H3 H -0.12670 0.31990 0.82040
H4 H 0.00190 0.29130 0.83760
C3 C -0.0110(7) 0.3860(3) 0.7777(4)
C4 C -0.0778(5) 0.4531(3) 0.7900(4)
H5 H -0.05190 0.48980 0.75690
H6 H -0.16070 0.44580 0.76980
C5 C -0.0593(5) 0.4759(4) 0.8808(4)
H7 H 0.02400 0.48580 0.89950
C6 C -0.1279(7) 0.5403(5) 0.8928(5)
C7 C -0.2173(8) 0.5425(4) 0.9382(4)
H8 H -0.23570 0.50300 0.96590
C8 C -0.2802(6) 0.6038(6) 0.9426(4)
H9 H -0.34210 0.60440 0.97170
C9 C -0.2512(8) 0.6629(4) 0.9044(5)
H10 H -0.29130 0.70420 0.90810
C10 C -0.1607(8) 0.6594(6) 0.8604(4)
C11 C -0.1004(6) 0.5995(6) 0.8534(4)
H11 H -0.04100 0.59880 0.82210
C12 C -0.0424(5) 0.3615(3) 0.6872(4)
H12 H -0.02390 0.39730 0.65080
H13 H -0.12460 0.35130 0.67400
H14 H 0.00150 0.32050 0.68000
C13 C 0.2040(8) 0.3567(5) 0.8047(3)
C14 C 0.3234(8) 0.3886(5) 0.8160(4)
C15 C 0.3503(9) 0.4540(6) 0.8473(4)
H15 H 0.29310 0.48050 0.86580
C16 C 0.4609(12) 0.4808(4) 0.8516(5)
H16 H 0.47850 0.52470 0.87410
C17 C 0.5455(7) 0.4428(6) 0.8228(5)
H17 H 0.61940 0.46170 0.82370
C18 C 0.5208(10) 0.3769(6) 0.7928(4)
H18 H 0.57820 0.35070 0.77440
C19 C 0.4111(11) 0.3500(4) 0.7901(4)
H19 H 0.39510 0.30510 0.77060
C20 C 0.3118(8) 0.6685(4) 0.5426(4)
H20 H 0.33660 0.70130 0.50410
H21 H 0.36020 0.67560 0.59700
C21 C 0.1848(7) 0.6820(3) 0.5480(4)
H22 H 0.13720 0.67790 0.49290
H23 H 0.17700 0.72900 0.56750
C22 C 0.1399(7) 0.6313(4) 0.6068(5)
C23 C 0.1720(7) 0.5577(4) 0.5817(4)
H24 H 0.15650 0.52520 0.62380
H25 H 0.12160 0.54540 0.52960
C24 C 0.2964(8) 0.5500(4) 0.5716(5)
H26 H 0.34720 0.55590 0.62610
C25 C 0.3173(6) 0.4788(5) 0.5378(8)
C26 C 0.3191(9) 0.4214(8) 0.5870(6)
H27 H 0.31170 0.42740 0.64240
C27 C 0.3314(10) 0.3546(7) 0.5586(9)
H28 H 0.32960 0.31690 0.59390
C28 C 0.3460(8) 0.3447(5) 0.479(1)
H29 H 0.35590 0.30060 0.45830
C29 C 0.3457(6) 0.4027(8) 0.4302(6)
C30 C 0.3305(6) 0.4690(5) 0.4572(8)
H30 H 0.32920 0.50660 0.42120
C31 C 0.0082(6) 0.6375(3) 0.6024(4)
H31 H -0.01660 0.60450 0.63980
H32 H -0.03130 0.62820 0.54650
H33 H -0.01050 0.68350 0.61820
C32 C 0.1961(6) 0.6121(4) 0.7622(5)
C33 C 0.2684(8) 0.6393(4) 0.8400(5)
C34 C 0.3700(9) 0.6769(4) 0.8408(5)
H34 H 0.39400 0.68740 0.79090
C35 C 0.4361(6) 0.6991(3) 0.9152(8)
H35 H 0.50420 0.72440 0.91490
C36 C 0.4017(9) 0.6840(4) 0.9901(5)
H36 H 0.44670 0.69820 1.04040
C37 C 0.2992(9) 0.6474(4) 0.9888(6)
H37 H 0.27370 0.63780 1.03850
C38 C 0.2359(6) 0.6255(3) 0.9158(7)
H38 H 0.16790 0.60020 0.91650
N1 N 0.1153(6) 0.4028(3) 0.7975(3)
H39 H 0.13390 0.44590 0.80500
N2 N -0.1323(7) 0.7230(4) 0.8208(5)
N3 N 0.2011(4) 0.6475(2) 0.6919(4)
H40 H 0.24510 0.68380 0.69720
N4 N 0.3629(7) 0.3932(4) 0.3433(6)
O1 O -0.0926(4) 0.4232(3) 0.9318(3)
O2 O 0.1898(4) 0.2934(3) 0.8035(3)
O3 O -0.1858(5) 0.7762(3) 0.8281(3)
O4 O -0.0513(7) 0.7213(3) 0.7843(4)
O5 O 0.3279(4) 0.5998(3) 0.5152(3)
O6 O 0.1361(4) 0.5591(2) 0.7626(3)
O7 O 0.3803(7) 0.3360(4) 0.3195(4)
O8 O 0.3546(7) 0.4417(4) 0.2980(4)
#END
