
#######################################################################
#
#                 Cambridge Crystallographic Data Centre
#                                CCDC
#
#######################################################################
#
# If this CIF has been generated from an entry in the Cambridge
# Structural Database, then it will include bibliographic, chemical,
# crystal, experimental, refinement or atomic coordinate data resulting
# from the CCDC's data processing and validation procedures.
#
#######################################################################

data_CSD_CIF_URAGIF
_audit_creation_date 2016-06-30
_audit_creation_method CSD-ConQuest-V1
_database_code_CSD URAGIF
_database_code_depnum_ccdc_archive 'CCDC 1489250'
_chemical_formula_sum 'C24 H25 N1 O10'
_chemical_formula_moiety
;
C24 H25 N1 O10
;
_journal_coden_Cambridge 1291
_journal_year 2015
_journal_page_first 7670
_journal_name_full 'Eur.J.Org.Chem. '
loop_
_publ_author_name
"H.Shigehisa"
"H.Kikuchi"
"T.Suzuki"
"K.Hiroya"
_chemical_name_systematic
;
9,10-dihydroxy-4-methyl-16-oxo-5,11,19-trioxapentacyclo[8.7.1.1^3,6^.0^6,18^.0
^12,17^]nonadec-12(17)-en-15-yl 4-nitrobenzoate
;
_cell_volume   1125.624
_exptl_crystal_density_diffrn 1.438
_diffrn_ambient_temperature 200
#These two values have been output from a single CSD field.
_refine_ls_R_factor_gt 0.0407
_refine_ls_wR_factor_gt 0.0407
_symmetry_cell_setting monoclinic
_symmetry_space_group_name_H-M 'P 21'
_symmetry_Int_Tables_number 4
loop_
_symmetry_equiv_pos_site_id
_symmetry_equiv_pos_as_xyz
1 x,y,z
2 -x,1/2+y,-z
_cell_length_a 5.6668(9)
_cell_length_b 10.4043(16)
_cell_length_c 19.157(3)
_cell_angle_alpha 90
_cell_angle_beta 94.735(2)
_cell_angle_gamma 90
_cell_formula_units_Z 2
loop_
_atom_type_symbol
_atom_type_radius_bond
C 0.68
H 0.23
N 0.68
O 0.68
loop_
_atom_site_label
_atom_site_type_symbol
_atom_site_fract_x
_atom_site_fract_y
_atom_site_fract_z
C1 C 0.0281(5) 0.2802(3) 0.5688(1)
C2 C 0.1705(5) 0.3808(3) 0.5927(1)
C3 C 0.3426(5) 0.4225(2) 0.5518(1)
C4 C 0.3705(4) 0.3636(2) 0.4872(1)
C5 C 0.2203(5) 0.2648(2) 0.4644(1)
C6 C 0.0480(5) 0.2218(3) 0.5052(1)
C7 C 0.5658(5) 0.4082(2) 0.4467(1)
C8 C 0.7381(4) 0.3900(2) 0.3378(1)
C9 C 0.8134(4) 0.2653(2) 0.3048(1)
C10 C 0.9188(4) 0.2729(2) 0.2381(1)
C11 C 0.9163(4) 0.3853(2) 0.2035(1)
C12 C 0.8208(5) 0.5085(2) 0.2292(2)
C13 C 0.6455(5) 0.4874(3) 0.2837(1)
C14 C 1.0171(4) 0.1507(2) 0.2099(1)
C15 C 1.0641(4) 0.1704(2) 0.1322(1)
C16 C 1.1585(4) 0.3032(2) 0.1179(1)
C17 C 1.2322(4) 0.0687(2) 0.1071(1)
C18 C 1.2818(5) 0.0871(3) 0.0314(1)
C19 C 1.3560(5) 0.2258(3) 0.0157(1)
C20 C 1.1769(4) 0.3212(3) 0.0400(1)
C21 C 1.2365(4) 0.1016(2) 0.2547(1)
C22 C 1.3727(4) 0.0061(3) 0.2144(1)
C23 C 1.2259(5) -0.1064(2) 0.1835(1)
C24 C 1.3683(7) -0.2275(3) 0.1728(1)
N1 N -0.1529(5) 0.2324(3) 0.6132(1)
O1 O -0.2697(5) 0.1413(3) 0.5945(2)
O2 O -0.1815(5) 0.2889(3) 0.6668(1)
O3 O 0.7224(4) 0.4785(2) 0.4688(1)
O4 O 0.5529(3) 0.3580(2) 0.3820(1)
O5 O 0.7907(3) 0.1623(2) 0.3349(1)
O6 O 1.0047(3) 0.4015(2) 0.1402(1)
O7 O 1.3792(3) 0.3301(2) 0.1545(1)
O8 O 0.9483(3) 0.2989(2) 0.0058(1)
O9 O 1.4463(3) 0.0673(2) 0.1517(1)
O10 O 1.1324(3) -0.0568(2) 0.1159(1)
H1 H 0.15000 0.42040 0.63650
H2 H 0.44330 0.49160 0.56730
H3 H 0.23630 0.22620 0.42010
H4 H -0.05470 0.15350 0.48980
H5 H 0.87560 0.42740 0.36700
H6 H 0.74190 0.55620 0.18910
H7 H 0.95360 0.56190 0.24970
H8 H 0.61590 0.56990 0.30720
H9 H 0.49330 0.45680 0.26050
H10 H 0.89170 0.08340 0.21130
H11 H 0.90930 0.16070 0.10360
H12 H 1.13800 0.06490 0.00090
H13 H 1.40960 0.02760 0.02010
H14 H 1.51360 0.24360 0.04000
H15 H 1.36800 0.23600 -0.03520
H16 H 1.22890 0.41090 0.03050
H17 H 1.34040 0.17510 0.26900
H18 H 1.18640 0.06030 0.29760
H19 H 1.51370 -0.02610 0.24410
H20 H 1.09330 -0.12570 0.21330
H21 H 1.26940 -0.28970 0.14540
H22 H 1.42050 -0.26490 0.21840
H23 H 1.50680 -0.20600 0.14770
H24 H 1.45760 0.26190 0.16010
H25 H 0.94030 0.33190 -0.03430
#END
