
#######################################################################
#
#                 Cambridge Crystallographic Data Centre
#                                CCDC
#
#######################################################################
#
# If this CIF has been generated from an entry in the Cambridge
# Structural Database, then it will include bibliographic, chemical,
# crystal, experimental, refinement or atomic coordinate data resulting
# from the CCDC's data processing and validation procedures.
#
#######################################################################

data_CSD_CIF_URATOX
_audit_creation_date 2011-06-16
_audit_creation_method CSD-ConQuest-V1
_database_code_CSD URATOX
_database_code_depnum_ccdc_archive 'CCDC 825424'
_chemical_formula_sum 'C7 H11 N1 O3'
_chemical_formula_moiety
;
C7 H11 N1 O3
;
_journal_coeditor_code "IUCr BT5507"
_journal_coden_Cambridge 1370
_journal_volume 67
_journal_year 2011
_journal_page_first o1116
_journal_name_full 'Acta Crystallogr.,Sect.E:Struct.Rep.Online '
loop_
_publ_author_name
"M.F.Flores"
"P.Garcia"
"N.M.Garrido"
"F.Sanz"
"D.Diez"
_chemical_name_systematic
;
(3aR,6aS)-2,2-Dimethyl-4,6a-dihydro-3aH-[1,3]dioxolo[4,5-c]pyrrole 5-oxide
;
_chemical_name_common
;
(3R,4S)-3,4-Isopropylidenedioxy-3,4-dihydro-2H-pyrrole 1-oxide
;
_cell_volume   1604.273
_exptl_crystal_colour 'colorless'
_exptl_crystal_density_diffrn 1.302
_exptl_crystal_description 'prismatic'
_exptl_crystal_preparation 'dichloromethane/methanol'
_diffrn_ambient_temperature 298
#These two values have been output from a single CSD field.
_refine_ls_R_factor_gt 0.0333
_refine_ls_wR_factor_gt 0.0333
_symmetry_cell_setting monoclinic
_symmetry_space_group_name_H-M 'C 2'
_symmetry_Int_Tables_number 5
loop_
_symmetry_equiv_pos_site_id
_symmetry_equiv_pos_as_xyz
1 x,y,z
2 -x,y,-z
3 1/2+x,1/2+y,z
4 1/2-x,1/2+y,-z
_cell_length_a 11.335(2)
_cell_length_b 5.4467(11)
_cell_length_c 26.508(5)
_cell_angle_alpha 90
_cell_angle_beta 101.40(3)
_cell_angle_gamma 90
_cell_formula_units_Z 8
loop_
_atom_type_symbol
_atom_type_radius_bond
C 0.68
H 0.23
N 0.68
O 0.68
loop_
_atom_site_label
_atom_site_type_symbol
_atom_site_fract_x
_atom_site_fract_y
_atom_site_fract_z
O1 O 0.30975(12) 0.5460(3) 0.84350(5)
O2 O 0.44334(11) 0.8279(3) 0.88116(5)
O3 O 0.14788(12) 0.7976(4) 0.96810(6)
N1 N 0.23631(12) 0.7223(3) 0.94785(5)
C1 C 0.33483(16) 0.4762(4) 0.89604(7)
H1 H 0.37290 0.31420 0.90130
C2 C 0.34095(15) 0.8196(4) 0.95186(6)
H2 H 0.36570 0.96010 0.97090
C3 C 0.41764(14) 0.6811(4) 0.92243(6)
H3 H 0.49070 0.61680 0.94450
C4 C 0.40764(17) 0.6940(4) 0.83486(7)
C5 C 0.3627(3) 0.8714(6) 0.79227(9)
H4 H 0.29850 0.96740 0.80090
H5 H 0.33370 0.78260 0.76100
H6 H 0.42710 0.97800 0.78760
C6 C 0.5109(3) 0.5377(6) 0.82529(12)
H7 H 0.48600 0.44580 0.79410
H8 H 0.53490 0.42660 0.85360
H9 H 0.57760 0.64130 0.82210
C7 C 0.22244(16) 0.4919(4) 0.91839(8)
H10 H 0.15100 0.49650 0.89130
H11 H 0.21680 0.35280 0.94060
O4 O 0.09613(11) 0.3663(3) 0.62016(5)
O5 O 0.21761(13) 0.6589(3) 0.66182(5)
O6 O 0.36792(14) 0.3733(4) 0.52993(7)
N2 N 0.29356(13) 0.4731(4) 0.55436(6)
C8 C 0.10961(15) 0.5348(4) 0.58059(7)
H12 H 0.03410 0.61860 0.56590
C9 C 0.16439(16) 0.4088(4) 0.54033(7)
H13 H 0.15300 0.23250 0.54130
H14 H 0.12930 0.46870 0.50620
C10 C 0.31507(17) 0.6385(4) 0.58935(8)
H15 H 0.39100 0.70490 0.60140
C11 C 0.20620(17) 0.7127(4) 0.60855(7)
H16 H 0.18470 0.88480 0.60070
C12 C 0.12362(18) 0.4967(4) 0.66756(7)
C13 C 0.0151(3) 0.6365(7) 0.67681(11)
H17 H -0.04640 0.52280 0.68160
H18 H -0.01480 0.73940 0.64770
H19 H 0.03740 0.73650 0.70700
C14 C 0.1714(3) 0.3142(6) 0.70956(9)
H20 H 0.24040 0.23200 0.70160
H21 H 0.11010 0.19580 0.71200
H22 H 0.19420 0.39900 0.74180
#END
