
#######################################################################
#
#                 Cambridge Crystallographic Data Centre
#                                CCDC
#
#######################################################################
#
# If this CIF has been generated from an entry in the Cambridge
# Structural Database, then it will include bibliographic, chemical,
# crystal, experimental, refinement or atomic coordinate data resulting
# from the CCDC's data processing and validation procedures.
#
#######################################################################

data_CSD_CIF_UREAOH04
_audit_creation_date 1976-08-17
_audit_creation_method CSD-ConQuest-V1
_database_code_CSD UREAOH04
_database_code_depnum_ccdc_archive 'CCDC 1278483'
_chemical_formula_sum 'C1 H4 N2 O2'
_chemical_formula_moiety
;
C1 H4 N2 O2
;
_journal_coeditor_code "IUCr A13274"
_journal_coden_Cambridge 107
_journal_volume 32
_journal_year 1976
_journal_page_first 1042
_journal_name_full 'Acta Crystallogr.,Sect.B:Struct.Crystallogr.Cryst.Chem. '
loop_
_publ_author_name
"N.Armagan"
"J.P.G.Richards"
"A.A.Uraz"
_chemical_name_systematic
;
N-Hydroxyurea
;
_chemical_name_common
;
Droxia; Hydrea; Litalir; Onco-Carbide; DrugBank: DB01005
;
_cell_volume    304.657
_exptl_crystal_density_diffrn 1.658
_exptl_special_details
;
antineoplastic agent
BONDS INVOLVING HYDROGEN ATOMS DO NOT RECALCULATE CORRECTLY. THEY ARE AS 
FOLLOWS (RECALC VALUES IN PARENTHESES).....N1-H2 0.94(0.96), N2-H3 0.94 
(0.83) O1-H1 1.05(0.92), N2-H4 0.90(0.82)
;
_diffrn_ambient_temperature 133.15
#These two values have been output from a single CSD field.
_refine_ls_R_factor_gt 0.048
_refine_ls_wR_factor_gt 0.048
_symmetry_cell_setting monoclinic
_symmetry_space_group_name_H-M 'P 21/c'
_symmetry_Int_Tables_number 14
loop_
_symmetry_equiv_pos_site_id
_symmetry_equiv_pos_as_xyz
1 x,y,z
2 -x,1/2+y,1/2-z
3 -x,-y,-z
4 x,-1/2-y,-1/2+z
_cell_length_a 8.305(3)
_cell_length_b 4.886(2)
_cell_length_c 8.797(2)
_cell_angle_alpha 90
_cell_angle_beta 121.41(2)
_cell_angle_gamma 90
_cell_formula_units_Z 4
loop_
_atom_type_symbol
_atom_type_radius_bond
C 0.68
H 0.23
N 0.68
O 0.68
loop_
_atom_site_label
_atom_site_type_symbol
_atom_site_fract_x
_atom_site_fract_y
_atom_site_fract_z
C1 C 0.27430 0.02610 0.02640
H1 H 0.18800 -0.15800 -0.31600
H2 H 0.07000 -0.23700 -0.12200
H3 H 0.32000 0.30500 -0.09700
H4 H 0.43200 0.33500 0.09100
N1 N 0.15970 -0.12540 -0.11740
N2 N 0.35590 0.24590 0.00440
O1 O 0.12500 -0.03900 -0.28480
O2 O 0.30250 -0.04720 0.17610
#END
