
#######################################################################
#
#                 Cambridge Crystallographic Data Centre
#                                CCDC
#
#######################################################################
#
# If this CIF has been generated from an entry in the Cambridge
# Structural Database, then it will include bibliographic, chemical,
# crystal, experimental, refinement or atomic coordinate data resulting
# from the CCDC's data processing and validation procedures.
#
#######################################################################

data_CSD_CIF_UREJIL01
_audit_creation_date 2011-11-16
_audit_creation_method CSD-ConQuest-V1
_database_code_CSD UREJIL01
_database_code_depnum_ccdc_archive 'CCDC 846085'
_chemical_formula_sum 'C14 H9 N3 O6'
_chemical_formula_moiety
;
C14 H9 N3 O6
;
_journal_coden_Cambridge 1078
_journal_year 2011
_journal_name_full 'CSD Communication(Private Communication) '
loop_
_publ_author_name
"M.Bolte"
_chemical_name_systematic
;
4-Nitro-N-(4-nitrobenzoyl)benzamide
;
_cell_volume   2792.524
_exptl_crystal_colour 'colorless'
_exptl_crystal_density_diffrn 1.5
_exptl_crystal_description 'block'
_diffrn_ambient_temperature 173
#These two values have been output from a single CSD field.
_refine_ls_R_factor_gt 0.0468
_refine_ls_wR_factor_gt 0.0468
_symmetry_cell_setting orthorhombic
_symmetry_space_group_name_H-M 'P b c a'
_symmetry_Int_Tables_number 61
loop_
_symmetry_equiv_pos_site_id
_symmetry_equiv_pos_as_xyz
1 x,y,z
2 1/2-x,-y,1/2+z
3 -x,1/2+y,1/2-z
4 1/2+x,1/2-y,-z
5 -x,-y,-z
6 -1/2+x,y,-1/2-z
7 x,-1/2-y,-1/2+z
8 -1/2-x,-1/2+y,z
_cell_length_a 13.445(3)
_cell_length_b 8.4558(17)
_cell_length_c 24.563(5)
_cell_angle_alpha 90
_cell_angle_beta 90
_cell_angle_gamma 90
_cell_formula_units_Z 8
loop_
_atom_type_symbol
_atom_type_radius_bond
C 0.68
H 0.23
N 0.68
O 0.68
loop_
_atom_site_label
_atom_site_type_symbol
_atom_site_fract_x
_atom_site_fract_y
_atom_site_fract_z
N1 N 0.78550(9) 0.38437(15) 0.34611(6)
H1 H 0.8023(16) 0.485(3) 0.3502(9)
N2 N 1.26173(12) 0.4512(3) 0.32314(7)
N3 N 0.48294(12) 0.78101(17) 0.49938(6)
O1 O 0.82584(8) 0.15979(12) 0.29821(5)
O2 O 0.65265(8) 0.21550(12) 0.35491(5)
O3 O 1.28926(12) 0.5429(3) 0.35810(8)
O4 O 1.31781(11) 0.3970(3) 0.29047(8)
O5 O 0.52974(12) 0.85655(18) 0.53333(6)
O6 O 0.39317(10) 0.79136(17) 0.49318(6)
C1 C 0.85119(11) 0.28453(16) 0.31820(6)
C2 C 0.69232(11) 0.34246(17) 0.36427(6)
C3 C 0.95667(11) 0.34022(17) 0.31723(6)
C4 C 1.02095(12) 0.2767(2) 0.27837(6)
H2 H 0.99580 0.20770 0.25120
C5 C 1.12126(13) 0.3138(2) 0.27923(7)
H3 H 1.16560 0.27100 0.25300
C6 C 1.15494(12) 0.4152(2) 0.31953(7)
C7 C 1.09355(12) 0.4807(2) 0.35827(7)
H4 H 1.11920 0.55030 0.38520
C8 C 0.99341(11) 0.44261(18) 0.35698(6)
H5 H 0.94950 0.48640 0.38330
C9 C 0.64081(11) 0.46242(17) 0.39923(6)
C10 C 0.69189(11) 0.55255(18) 0.43790(6)
H6 H 0.76200 0.54230 0.44140
C11 C 0.64037(12) 0.65705(19) 0.47115(6)
H7 H 0.67420 0.71780 0.49790
C12 C 0.53870(12) 0.67051(18) 0.46435(6)
C13 C 0.48610(11) 0.58334(18) 0.42620(6)
H8 H 0.41630 0.59610 0.42230
C14 C 0.53776(11) 0.47748(18) 0.39399(6)
H9 H 0.50310 0.41460 0.36820
#END
