
#######################################################################
#
#                 Cambridge Crystallographic Data Centre
#                                CCDC
#
#######################################################################
#
# If this CIF has been generated from an entry in the Cambridge
# Structural Database, then it will include bibliographic, chemical,
# crystal, experimental, refinement or atomic coordinate data resulting
# from the CCDC's data processing and validation procedures.
#
#######################################################################

data_CSD_CIF_UREJIL
_audit_creation_date 2011-06-24
_audit_creation_method CSD-ConQuest-V1
_database_code_CSD UREJIL
_database_code_depnum_ccdc_archive 'CCDC 825484'
_chemical_formula_sum 'C14 H9 N3 O6'
_chemical_formula_moiety
;
C14 H9 N3 O6
;
_journal_coeditor_code "IUCr HB5852"
_journal_coden_Cambridge 1370
_journal_volume 67
_journal_year 2011
_journal_page_first o1194
_journal_name_full 'Acta Crystallogr.,Sect.E:Struct.Rep.Online '
loop_
_publ_author_name
"S.Saeed"
"N.Rashid"
"S.W.Ng"
"E.R.T.Tiekink"
_chemical_name_systematic
;
4-Nitro-N-(4-nitrobenzoyl)benzamide
;
_cell_volume   2826.675
_exptl_crystal_colour 'colorless'
_exptl_crystal_density_diffrn 1.482
_exptl_crystal_description 'prism'
_diffrn_ambient_temperature 295
_refine_special_details
;
O1,O2 and O1',O2' disordered over two sites with occupancies 0.50:0.50; O5,O6 
and O5',O6' disordered over two sites with occupancies 0.50:0.50.
;
#These two values have been output from a single CSD field.
_refine_ls_R_factor_gt 0.0654
_refine_ls_wR_factor_gt 0.0654
_symmetry_cell_setting orthorhombic
_symmetry_space_group_name_H-M 'P b c a'
_symmetry_Int_Tables_number 61
loop_
_symmetry_equiv_pos_site_id
_symmetry_equiv_pos_as_xyz
1 x,y,z
2 1/2-x,-y,1/2+z
3 -x,1/2+y,1/2-z
4 1/2+x,1/2-y,-z
5 -x,-y,-z
6 -1/2+x,y,-1/2-z
7 x,-1/2-y,-1/2+z
8 -1/2-x,-1/2+y,z
_cell_length_a 13.4757(7)
_cell_length_b 8.5170(6)
_cell_length_c 24.6285(17)
_cell_angle_alpha 90
_cell_angle_beta 90
_cell_angle_gamma 90
_cell_formula_units_Z 8
loop_
_atom_type_symbol
_atom_type_radius_bond
C 0.68
H 0.23
N 0.68
O 0.68
loop_
_atom_site_label
_atom_site_type_symbol
_atom_site_fract_x
_atom_site_fract_y
_atom_site_fract_z
O1 O 0.975(3) 0.868(3) 0.4716(10)
O2 O 1.1108(6) 0.774(4) 0.5041(14)
O3 O 0.84634(19) 0.2233(3) 0.64513(11)
O4 O 0.67456(19) 0.1707(3) 0.70172(11)
O5 O 0.1877(10) 0.4334(12) 0.7162(4)
O6 O 0.2086(12) 0.5041(11) 0.6323(4)
N1 N 1.0204(3) 0.7784(4) 0.50161(13)
N2 N 0.71486(19) 0.3916(4) 0.65368(12)
H1 H 0.69510 0.48820 0.64710
N3 N 0.2410(3) 0.4541(4) 0.67600(15)
C1 C 0.8597(2) 0.4671(4) 0.60108(14)
C2 C 0.9620(3) 0.4820(5) 0.60666(15)
H2 H 0.99550 0.42180 0.63230
C3 C 1.0139(3) 0.5855(5) 0.57437(15)
H3 H 1.08210 0.59760 0.57840
C4 C 0.9630(3) 0.6702(4) 0.53628(14)
C5 C 0.8623(3) 0.6587(5) 0.52915(15)
H4 H 0.82990 0.71740 0.50270
C6 C 0.8110(3) 0.5574(5) 0.56230(15)
H5 H 0.74250 0.54920 0.55870
C7 C 0.8080(3) 0.3493(4) 0.63559(15)
C8 C 0.6499(3) 0.2939(5) 0.68146(14)
C9 C 0.5444(2) 0.3483(4) 0.68244(14)
C10 C 0.4802(3) 0.2851(5) 0.72057(15)
H6 H 0.50480 0.21800 0.74710
C11 C 0.3815(3) 0.3200(6) 0.71968(17)
H7 H 0.33850 0.27830 0.74540
C12 C 0.3472(3) 0.4188(5) 0.67959(17)
C13 C 0.4080(3) 0.4851(5) 0.64193(17)
H8 H 0.38280 0.55320 0.61580
C14 C 0.5079(3) 0.4492(5) 0.64323(15)
H9 H 0.55070 0.49290 0.61770
O7? O 0.974(3) 0.835(3) 0.4633(9)
O8? O 1.1072(6) 0.804(4) 0.5128(14)
O9? O 0.1823(10) 0.3657(12) 0.6995(4)
O10? O 0.2166(12) 0.5728(10) 0.6491(4)
#END
