
#######################################################################
#
#                 Cambridge Crystallographic Data Centre
#                                CCDC
#
#######################################################################
#
# If this CIF has been generated from an entry in the Cambridge
# Structural Database, then it will include bibliographic, chemical,
# crystal, experimental, refinement or atomic coordinate data resulting
# from the CCDC's data processing and validation procedures.
#
#######################################################################

data_CSD_CIF_UREJAD
_audit_creation_date 2011-06-24
_audit_creation_method CSD-ConQuest-V1
_database_code_CSD UREJAD
_database_code_depnum_ccdc_archive 'CCDC 825482'
_chemical_formula_sum 'C10 H6 N4 O4'
_chemical_formula_moiety
;
C10 H6 N4 O4
;
_journal_coeditor_code "IUCr BQ2296"
_journal_coden_Cambridge 1370
_journal_volume 67
_journal_year 2011
_journal_page_first o1191
_journal_name_full 'Acta Crystallogr.,Sect.E:Struct.Rep.Online '
loop_
_publ_author_name
"Yong Wang"
"Jing-Yi Xu"
"De-Yong Li"
"Lu Shi"
_chemical_name_systematic
;
3,3'-Dinitro-4,4'-bipyridine
;
_cell_volume   1064.794
_exptl_crystal_colour 'yellow'
_exptl_crystal_density_diffrn 1.536
_exptl_crystal_description 'block'
_diffrn_ambient_temperature 293
#These two values have been output from a single CSD field.
_refine_ls_R_factor_gt 0.055
_refine_ls_wR_factor_gt 0.055
_symmetry_cell_setting orthorhombic
_symmetry_space_group_name_H-M 'P n a 21'
_symmetry_Int_Tables_number 33
loop_
_symmetry_equiv_pos_site_id
_symmetry_equiv_pos_as_xyz
1 x,y,z
2 -x,-y,1/2+z
3 1/2-x,1/2+y,1/2+z
4 1/2+x,1/2-y,z
_cell_length_a 9.3580(19)
_cell_length_b 17.815(4)
_cell_length_c 6.3870(13)
_cell_angle_alpha 90
_cell_angle_beta 90
_cell_angle_gamma 90
_cell_formula_units_Z 4
loop_
_atom_type_symbol
_atom_type_radius_bond
C 0.68
H 0.23
N 0.68
O 0.68
loop_
_atom_site_label
_atom_site_type_symbol
_atom_site_fract_x
_atom_site_fract_y
_atom_site_fract_z
N1 N 0.6207(7) 0.3139(2) 0.2435(8)
C1 C 0.6194(6) 0.1867(3) 0.3674(10)
H1 H 0.58900 0.15320 0.46990
O1 O 0.8746(5) 0.2549(2) -0.2244(9)
N2 N 0.8363(5) -0.0689(2) 0.2211(10)
O2 O 0.8568(5) 0.1406(2) -0.1756(6)
C2 C 0.5853(7) 0.2620(3) 0.3771(10)
H2 H 0.53110 0.27720 0.49160
N3 N 0.8294(4) 0.2037(2) -0.1255(7)
O3 O 0.5400(5) 0.1011(2) -0.1225(8)
C3 C 0.7017(6) 0.2911(3) 0.0879(10)
H3 H 0.73330 0.32690 -0.00750
N4 N 0.6084(5) 0.0441(3) -0.1202(8)
O4 O 0.5987(6) 0.0001(3) -0.2657(8)
C4 C 0.7423(5) 0.2184(2) 0.0572(8)
C5 C 0.7021(5) 0.1625(2) 0.1959(8)
C6 C 0.7473(5) 0.0821(2) 0.1935(8)
C7 C 0.7029(5) 0.0261(3) 0.0504(9)
C8 C 0.7463(6) -0.0465(3) 0.0707(11)
H4 H 0.71210 -0.08190 -0.02380
C9 C 0.8758(6) -0.0164(3) 0.3553(9)
H5 H 0.93540 -0.03100 0.46450
C10 C 0.8368(5) 0.0574(3) 0.3476(8)
H6 H 0.87120 0.09080 0.44750
#END
