
#######################################################################
#
#                 Cambridge Crystallographic Data Centre
#                                CCDC
#
#######################################################################
#
# If this CIF has been generated from an entry in the Cambridge
# Structural Database, then it will include bibliographic, chemical,
# crystal, experimental, refinement or atomic coordinate data resulting
# from the CCDC's data processing and validation procedures.
#
#######################################################################

data_CSD_CIF_URELAF
_audit_creation_date 2011-06-24
_audit_creation_method CSD-ConQuest-V1
_database_code_CSD URELAF
_database_code_depnum_ccdc_archive 'CCDC 825492'
_chemical_formula_sum 'C16 H19 N3 O6'
_chemical_formula_moiety
;
C16 H19 N3 O6
;
_journal_coeditor_code "IUCr RZ2583"
_journal_coden_Cambridge 1370
_journal_volume 67
_journal_year 2011
_journal_page_first o1206
_journal_name_full 'Acta Crystallogr.,Sect.E:Struct.Rep.Online '
loop_
_publ_author_name
"S.-X.Li"
"D.-H.Zhang"
"H.-K.Fun"
"M.Hemamalini"
_chemical_name_systematic
;
4-(2-(2-(2-(2-Nitro-1H-imidazol-1-yl)ethoxy)ethoxy)ethoxy)benzaldehyde
;
_cell_volume   1592.715
_exptl_crystal_colour 'colorless'
_exptl_crystal_density_diffrn 1.457
_exptl_crystal_description 'needle'
_diffrn_ambient_temperature 100
#These two values have been output from a single CSD field.
_refine_ls_R_factor_gt 0.0474
_refine_ls_wR_factor_gt 0.0474
_symmetry_cell_setting orthorhombic
_symmetry_space_group_name_H-M 'P 21 21 21'
_symmetry_Int_Tables_number 19
loop_
_symmetry_equiv_pos_site_id
_symmetry_equiv_pos_as_xyz
1 x,y,z
2 1/2-x,-y,1/2+z
3 -x,1/2+y,1/2-z
4 1/2+x,1/2-y,-z
_cell_length_a 4.4403(3)
_cell_length_b 11.4686(8)
_cell_length_c 31.2763(19)
_cell_angle_alpha 90
_cell_angle_beta 90
_cell_angle_gamma 90
_cell_formula_units_Z 4
loop_
_atom_type_symbol
_atom_type_radius_bond
C 0.68
H 0.23
N 0.68
O 0.68
loop_
_atom_site_label
_atom_site_type_symbol
_atom_site_fract_x
_atom_site_fract_y
_atom_site_fract_z
O1 O 0.9164(4) 0.80126(13) 0.06764(4)
O2 O 1.0360(4) 0.59396(12) 0.11489(4)
O3 O 0.9292(4) 0.36579(13) 0.15473(4)
O4 O 0.0201(4) 1.14948(13) -0.02814(5)
O5 O 0.3451(4) 0.06021(15) 0.17441(5)
O6 O 0.5051(5) -0.10825(14) 0.19678(5)
N1 N 0.7409(5) 0.17301(15) 0.22943(5)
N2 N 0.8668(5) -0.00344(17) 0.25495(6)
N3 N 0.5073(5) -0.00129(17) 0.19754(5)
C1 C 0.6176(6) 0.87874(18) 0.01331(7)
H1 H 0.67780 0.81690 -0.00390
C2 C 0.4203(6) 0.96061(18) -0.00235(7)
H2 H 0.34710 0.95360 -0.03010
C3 C 0.3288(5) 1.05450(19) 0.02312(7)
C4 C 0.4436(6) 1.06324(19) 0.06456(7)
H3 H 0.38400 1.12520 0.08180
C5 C 0.6446(6) 0.98164(19) 0.08066(7)
H4 H 0.72220 0.98930 0.10810
C6 C 0.7279(5) 0.88797(18) 0.05488(7)
C7 C 1.0208(6) 0.80108(18) 0.11112(6)
H5 H 0.85150 0.79730 0.13070
H6 H 1.13390 0.87160 0.11710
C8 C 1.2175(6) 0.69626(19) 0.11638(7)
H7 H 1.36650 0.69400 0.09370
H8 H 1.32260 0.70020 0.14350
C9 C 1.2191(6) 0.4924(2) 0.11083(7)
H9 H 1.36310 0.48930 0.13410
H10 H 1.32990 0.49520 0.08410
C10 C 1.0220(6) 0.38626(18) 0.11178(6)
H11 H 0.84710 0.39820 0.09370
H12 H 1.13220 0.31930 0.10110
C11 C 0.7292(6) 0.27044(19) 0.15794(7)
H13 H 0.83360 0.19840 0.15140
H14 H 0.56440 0.27970 0.13780
C12 C 0.6082(7) 0.26698(19) 0.20368(7)
H15 H 0.64930 0.34110 0.21740
H16 H 0.39140 0.25680 0.20280
C13 C 0.9408(6) 0.1895(2) 0.26212(7)
H17 H 1.01290 0.26050 0.27210
C14 C 1.0146(7) 0.0807(2) 0.27736(7)
H18 H 1.14690 0.06660 0.29980
C15 C 0.7066(6) 0.05487(19) 0.22695(6)
C16 C 0.1127(6) 1.14220(19) 0.00810(7)
H19 H 0.04180 1.19610 0.02790
#END
