
#######################################################################
#
#                 Cambridge Crystallographic Data Centre
#                                CCDC
#
#######################################################################
#
# If this CIF has been generated from an entry in the Cambridge
# Structural Database, then it will include bibliographic, chemical,
# crystal, experimental, refinement or atomic coordinate data resulting
# from the CCDC's data processing and validation procedures.
#
#######################################################################

data_CSD_CIF_URERUG
_audit_creation_date 2016-07-04
_audit_creation_method CSD-ConQuest-V1
_database_code_CSD URERUG
_database_code_depnum_ccdc_archive 'CCDC 1489812'
_chemical_formula_sum 'C18 H17 N1 O3'
_chemical_formula_moiety
;
C18 H17 N1 O3
;
_journal_coden_Cambridge 1078
_journal_year 2016
_journal_name_full 'CSD Communication(Private Communication) '
loop_
_publ_author_name
"Xie-Xue Peng"
"Bing Han"
_chemical_name_systematic
;
(5-hydroxy-4,4-dimethyl-3-phenyl-4,5-dihydro-1,2-oxazol-5-yl)(phenyl)methanone
;
_cell_volume   1173.084
_exptl_crystal_colour 'light colorless'
_exptl_crystal_density_diffrn 1.254
_exptl_crystal_description 'block'
_diffrn_ambient_temperature 273.8
#These two values have been output from a single CSD field.
_refine_ls_R_factor_gt 0.0538
_refine_ls_wR_factor_gt 0.0538
_symmetry_cell_setting hexagonal
_symmetry_space_group_name_H-M 'P 32'
_symmetry_Int_Tables_number 145
loop_
_symmetry_equiv_pos_site_id
_symmetry_equiv_pos_as_xyz
1 x,y,z
2 -y,x-y,2/3+z
3 -x+y,-x,1/3+z
_cell_length_a 10.8566(8)
_cell_length_b 10.8566(8)
_cell_length_c 11.4924(8)
_cell_angle_alpha 90
_cell_angle_beta 90
_cell_angle_gamma 120
_cell_formula_units_Z 3
loop_
_atom_type_symbol
_atom_type_radius_bond
C 0.68
H 0.23
N 0.68
O 0.68
loop_
_atom_site_label
_atom_site_type_symbol
_atom_site_fract_x
_atom_site_fract_y
_atom_site_fract_z
O1 O -0.3014(3) -0.5115(3) -0.1085(4)
O2 O -0.1769(3) -0.2180(3) -0.2113(2)
H1 H -0.10460 -0.14190 -0.22450
O3 O -0.1792(3) -0.1645(3) -0.0156(2)
N1 N -0.0365(3) -0.0607(3) 0.0160(3)
C1 C -0.5569(5) -0.5489(4) -0.0241(4)
H2 H -0.54010 -0.62450 -0.01530
C2 C -0.6904(5) -0.5689(6) -0.0031(4)
H3 H -0.76310 -0.65760 0.02070
C3 C -0.7168(5) -0.4589(7) -0.0170(4)
H4 H -0.80760 -0.47320 -0.00410
C4 C -0.6085(5) -0.3274(6) -0.0500(4)
H5 H -0.62640 -0.25260 -0.05900
C5 C -0.4732(4) -0.3048(5) -0.0701(3)
H6 H -0.40020 -0.21500 -0.09120
C6 C -0.4466(4) -0.4164(4) -0.0586(3)
C7 C -0.3081(4) -0.4058(5) -0.0868(3)
C8 C -0.1717(4) -0.2617(4) -0.0982(3)
C9 C -0.0312(4) -0.2550(4) -0.0654(3)
C10 C 0.0468(4) -0.1066(4) -0.0149(3)
C11 C 0.1990(4) -0.0209(4) 0.0160(3)
C12 C 0.3053(5) 0.0090(5) -0.0639(4)
H7 H 0.28220 -0.02790 -0.13880
C13 C 0.4463(5) 0.0939(5) -0.0323(5)
H8 H 0.51740 0.11390 -0.08660
C14 C 0.4828(6) 0.1489(6) 0.0776(6)
H9 H 0.57790 0.20620 0.09780
C15 C 0.3774(7) 0.1183(6) 0.1577(5)
H10 H 0.40150 0.15480 0.23270
C16 C 0.2348(5) 0.0331(5) 0.1278(4)
H11 H 0.16400 0.01270 0.18250
C17 C 0.0396(4) -0.2875(5) -0.1667(3)
H12 H 0.06120 -0.21910 -0.22760
H13 H -0.02380 -0.38120 -0.19590
H14 H 0.12590 -0.28240 -0.14020
C18 C -0.0487(5) -0.3535(5) 0.0377(4)
H15 H 0.04290 -0.32550 0.07050
H16 H -0.09160 -0.45000 0.01080
H17 H -0.10820 -0.34630 0.09590
#END
