
#######################################################################
#
#                 Cambridge Crystallographic Data Centre
#                                CCDC
#
#######################################################################
#
# If this CIF has been generated from an entry in the Cambridge
# Structural Database, then it will include bibliographic, chemical,
# crystal, experimental, refinement or atomic coordinate data resulting
# from the CCDC's data processing and validation procedures.
#
#######################################################################

data_CSD_CIF_URICOP
_audit_creation_date 2016-07-04
_audit_creation_method CSD-ConQuest-V1
_database_code_CSD URICOP
_database_code_depnum_ccdc_archive 'CCDC 1489815'
_chemical_formula_sum 'C16 H11 N3 O2'
_chemical_formula_moiety
;
C16 H11 N3 O2
;
_journal_coden_Cambridge 1078
_journal_year 2016
_journal_name_full 'CSD Communication(Private Communication) '
loop_
_publ_author_name
"Bing Han"
"Junlong Zhan"
_chemical_name_systematic
;
2-(4-nitrophenyl)-4-phenylpyrimidine
;
_cell_volume   1298.143
_exptl_crystal_colour 'light colorless'
_exptl_crystal_density_diffrn 1.419
_exptl_crystal_description 'block'
_diffrn_ambient_temperature 293.2
#These two values have been output from a single CSD field.
_refine_ls_R_factor_gt 0.0579
_refine_ls_wR_factor_gt 0.0579
_symmetry_cell_setting monoclinic
_symmetry_space_group_name_H-M 'P 21/n'
_symmetry_Int_Tables_number 14
loop_
_symmetry_equiv_pos_site_id
_symmetry_equiv_pos_as_xyz
1 x,y,z
2 1/2-x,1/2+y,1/2-z
3 -x,-y,-z
4 -1/2+x,-1/2-y,-1/2+z
_cell_length_a 6.2494(5)
_cell_length_b 7.7015(8)
_cell_length_c 26.997(2)
_cell_angle_alpha 90
_cell_angle_beta 92.479(8)
_cell_angle_gamma 90
_cell_formula_units_Z 4
loop_
_atom_type_symbol
_atom_type_radius_bond
C 0.68
H 0.23
N 0.68
O 0.68
loop_
_atom_site_label
_atom_site_type_symbol
_atom_site_fract_x
_atom_site_fract_y
_atom_site_fract_z
O1 O 0.6061(3) 0.1316(3) 0.39713(7)
O2 O 0.8874(4) 0.0757(3) 0.44317(8)
N1 N 0.1030(3) 0.4881(3) 0.59513(9)
N2 N 0.4113(3) 0.4214(3) 0.64705(8)
N3 N 0.7043(4) 0.1296(3) 0.43733(9)
C1 C 0.6485(4) 0.4175(4) 0.7378(1)
H1 H 0.70520 0.36740 0.70990
C2 C 0.7658(4) 0.4150(4) 0.78238(11)
H2 H 0.90080 0.36400 0.78420
C3 C 0.6838(5) 0.4877(4) 0.82418(11)
H3 H 0.76310 0.48600 0.85410
C4 C 0.4847(5) 0.5623(4) 0.82125(11)
H4 H 0.42820 0.61050 0.84940
C5 C 0.3678(5) 0.5664(4) 0.77692(10)
H5 H 0.23350 0.61860 0.77550
C6 C 0.4471(4) 0.4938(3) 0.73416(9)
C7 C 0.3221(4) 0.4974(3) 0.68599(10)
C8 C 0.1201(4) 0.5727(4) 0.68021(11)
H6 H 0.05660 0.62790 0.70650
C9 C 0.0182(4) 0.5625(4) 0.63427(11)
H7 H -0.11810 0.61020 0.63020
C10 C 0.3006(4) 0.4210(3) 0.60363(9)
C11 C 0.4031(4) 0.3414(3) 0.56075(9)
C12 C 0.2958(4) 0.3347(4) 0.51436(9)
H8 H 0.15700 0.37770 0.51060
C13 C 0.3933(4) 0.2653(4) 0.47425(10)
H9 H 0.32170 0.26160 0.44330
C14 C 0.5979(4) 0.2014(3) 0.48038(9)
C15 C 0.7088(4) 0.2035(4) 0.52577(9)
H10 H 0.84690 0.15900 0.52930
C16 C 0.6091(4) 0.2736(4) 0.56581(9)
H11 H 0.68090 0.27540 0.59670
#END
