
#######################################################################
#
#                 Cambridge Crystallographic Data Centre
#                                CCDC
#
#######################################################################
#
# If this CIF has been generated from an entry in the Cambridge
# Structural Database, then it will include bibliographic, chemical,
# crystal, experimental, refinement or atomic coordinate data resulting
# from the CCDC's data processing and validation procedures.
#
#######################################################################

data_CSD_CIF_URIYUR
_audit_creation_date 2016-07-04
_audit_creation_method CSD-ConQuest-V1
_database_code_CSD URIYUR
_database_code_depnum_ccdc_archive 'CCDC 1457715'
_chemical_formula_sum 'C26 H26 N2 O1'
_chemical_formula_moiety
;
C26 H26 N2 O1
;
_journal_coden_Cambridge 177
_journal_volume 14
_journal_year 2016
_journal_page_first 7053
_journal_name_full 'Org.Biomol.Chem. '
loop_
_publ_author_name
"L.Herrera"
"D.E.Stephens"
"A.D'Avila"
"K.G.George"
"H.Arman"
"Yu Zhang"
"G.Perry"
"R.Lleonart"
"O.V.Larionov"
"P.L.Fernandez"
_chemical_name_systematic
;
9-(2,5-dimethylbenzyl)-4a-methyl-3-phenyl-4,4a,9,9a-tetrahydro[1,2]oxazino[6,5
-b]indole
;
_cell_volume    996.728
_exptl_crystal_colour 'colorless'
_exptl_crystal_density_diffrn 1.274
_exptl_special_details
;
activity against leishmania major and leishmania panamensis

;
_exptl_crystal_description 'plate'
_diffrn_ambient_temperature 98
#These two values have been output from a single CSD field.
_refine_ls_R_factor_gt 0.0448
_refine_ls_wR_factor_gt 0.0448
_symmetry_cell_setting triclinic
_symmetry_space_group_name_H-M 'P -1'
_symmetry_Int_Tables_number 2
loop_
_symmetry_equiv_pos_site_id
_symmetry_equiv_pos_as_xyz
1 x,y,z
2 -x,-y,-z
_cell_length_a 6.8190(12)
_cell_length_b 8.4731(15)
_cell_length_c 17.387(3)
_cell_angle_alpha 91.130(4)
_cell_angle_beta 90.978(5)
_cell_angle_gamma 96.993(4)
_cell_formula_units_Z 2
loop_
_atom_type_symbol
_atom_type_radius_bond
C 0.68
H 0.23
N 0.68
O 0.68
loop_
_atom_site_label
_atom_site_type_symbol
_atom_site_fract_x
_atom_site_fract_y
_atom_site_fract_z
O1 O 0.64768(13) 0.90408(10) 0.79100(5)
N1 N 0.48170(15) 0.64328(12) 0.76364(6)
N2 N 0.64608(15) 0.96685(12) 0.71442(6)
C1 C 0.19393(17) 0.73055(13) 0.72280(7)
C2 C 0.71411(17) 0.30767(14) 0.85620(7)
C3 C 0.58172(17) 0.41875(13) 0.84072(7)
C4 C 0.27772(17) 0.84847(14) 0.78551(7)
C5 C 0.31874(17) 0.61164(14) 0.71469(7)
C6 C 0.02385(17) 0.72588(14) 0.67820(7)
H1 H -0.05800 0.80550 0.68310
C7 C 0.41429(17) 0.42194(14) 0.88529(7)
H2 H 0.32680 0.49480 0.87410
C8 C 0.47279(19) 1.10373(14) 0.62403(7)
C9 C -0.02357(18) 0.59914(15) 0.62539(7)
H3 H -0.13790 0.59410 0.59500
C10 C 0.48558(18) 1.02654(13) 0.69929(7)
C11 C 0.62871(17) 0.53691(14) 0.77701(7)
H4 H 0.75390 0.60020 0.78950
H5 H 0.64520 0.47810 0.72960
C12 C 0.37397(18) 0.31916(15) 0.94624(7)
C13 C 0.67194(19) 0.20373(14) 0.91640(7)
H6 H 0.75690 0.12870 0.92710
C14 C 0.2957(2) 1.08955(15) 0.58183(8)
H7 H 0.18280 1.03360 0.60180
C15 C 0.89666(18) 0.30058(15) 0.80929(7)
H8 H 0.85890 0.27010 0.75710
H9 H 0.97360 0.22380 0.83060
H10 H 0.97380 0.40330 0.81020
C16 C 0.32020(17) 1.01826(14) 0.75560(7)
H11 H 0.20240 1.04850 0.73070
H12 H 0.35650 1.09200 0.79830
C17 C 0.10021(19) 0.48121(15) 0.61844(7)
H13 H 0.06690 0.39760 0.58340
C18 C 0.50522(19) 0.20973(15) 0.96096(7)
H14 H 0.48140 0.13950 1.00110
C19 C 0.27345(18) 0.48502(14) 0.66280(7)
H15 H 0.35560 0.40560 0.65780
C20 C 0.47932(17) 0.78984(14) 0.80653(7)
H16 H 0.48090 0.76670 0.86150
C21 C 0.14184(19) 0.84519(16) 0.85501(7)
H17 H 0.01660 0.87630 0.83950
H18 H 0.20140 0.91770 0.89430
H19 H 0.12250 0.73960 0.87480
C22 C 0.6404(2) 1.19111(16) 0.59419(8)
H20 H 0.75940 1.20150 0.62180
C23 C 0.2868(2) 1.15831(16) 0.51022(8)
H21 H 0.16900 1.14580 0.48170
C24 C 0.1958(2) 0.32953(18) 0.99541(8)
H22 H 0.22320 0.41650 1.03180
H23 H 0.16600 0.23210 1.02250
H24 H 0.08480 0.34660 0.96330
C25 C 0.6294(2) 1.26240(17) 0.52334(8)
H25 H 0.74080 1.32180 0.50400
C26 C 0.4534(2) 1.24559(17) 0.48121(8)
H26 H 0.44710 1.29280 0.43350
#END
