
#######################################################################
#
#                 Cambridge Crystallographic Data Centre
#                                CCDC
#
#######################################################################
#
# If this CIF has been generated from an entry in the Cambridge
# Structural Database, then it will include bibliographic, chemical,
# crystal, experimental, refinement or atomic coordinate data resulting
# from the CCDC's data processing and validation procedures.
#
#######################################################################

data_CSD_CIF_UROCOU
_audit_creation_date 2011-07-17
_audit_creation_method CSD-ConQuest-V1
_database_code_CSD UROCOU
_database_code_depnum_ccdc_archive 'CCDC 771509'
_chemical_formula_sum 'C13 H24 N2 O3'
_chemical_formula_moiety
;
C13 H24 N2 O3
;
_journal_coden_Cambridge 1326
_journal_volume 12
_journal_year 2010
_journal_page_first 5841
_journal_name_full 'Phys.Chem.Chem.Phys.(PCCP) '
loop_
_publ_author_name
"C.Ysacco"
"E.Rizzato"
"M.-A.Virolleaud"
"H.Karoui"
"A.Rockenbauer"
"F.Le Moigne"
"D.Siri"
"O.Ouari"
"R.G.Griffin"
"P.Tordo"
_chemical_name_systematic
;
2,2,7,7,9,9-Hexamethyl-3-oxa-1,8-diazaspiro(4.5)decane-1,8-dioxyl
;
_cell_volume   1480.460
_exptl_special_details
;
The temperature and R-factor were not reported

;
_diffrn_ambient_temperature ?
_diffrn_special_details
;
The study was carried out at room temperature,in the range 283-303K

;
_symmetry_cell_setting triclinic
_symmetry_space_group_name_H-M 'P -1'
_symmetry_Int_Tables_number 2
loop_
_symmetry_equiv_pos_site_id
_symmetry_equiv_pos_as_xyz
1 x,y,z
2 -x,-y,-z
_cell_length_a 6.6543(1)
_cell_length_b 13.8276(2)
_cell_length_c 17.7131(4)
_cell_angle_alpha 109.2943(8)
_cell_angle_beta 97.6136(9)
_cell_angle_gamma 100.371(2)
_cell_formula_units_Z 4
loop_
_atom_type_symbol
_atom_type_radius_bond
C 0.68
H 0.23
N 0.68
O 0.68
loop_
_atom_site_label
_atom_site_type_symbol
_atom_site_fract_x
_atom_site_fract_y
_atom_site_fract_z
O1 O 0.2876(5) -0.22699(18) 1.00310(11)
O2 O -0.3415(3) -0.3619(2) 0.70265(13)
O3 O 0.0764(2) -0.43552(14) 0.62289(9)
N1 N 0.1936(4) -0.26227(16) 0.92825(11)
N2 N -0.1640(3) -0.37327(17) 0.68883(11)
C1 C 0.0275(3) -0.33925(17) 0.75330(12)
C2 C 0.0340(5) -0.2267(2) 0.80973(16)
H1 H 0.06190 -0.17990 0.77990
H2 H -0.10330 -0.22540 0.82220
C3 C 0.1908(5) -0.18363(19) 0.88844(15)
C4 C 0.1634(4) -0.37704(18) 0.88281(13)
C5 C 0.0050(4) -0.41214(17) 0.80207(13)
H3 H 0.01560 -0.48130 0.76770
H4 H -0.13400 -0.41980 0.81380
C6 C 0.4141(6) -0.1472(3) 0.8756(2)
H5 H 0.42130 -0.08720 0.85930
H6 H 0.44590 -0.20360 0.83380
H7 H 0.51330 -0.12830 0.92570
C7 C 0.1404(9) -0.0882(3) 0.9475(2)
H8 H 0.14400 -0.03440 0.92430
H9 H 0.24150 -0.06180 0.99800
H10 H 0.00360 -0.10790 0.95770
C8 C 0.3732(5) -0.4019(2) 0.87074(17)
H11 H 0.35310 -0.47630 0.84160
H12 H 0.46400 -0.38180 0.92310
H13 H 0.43500 -0.36350 0.83990
C9 C 0.0708(7) -0.4357(3) 0.93474(18)
H14 H 0.03820 -0.51040 0.90470
H15 H -0.05420 -0.41470 0.94760
H16 H 0.17040 -0.41880 0.98440
C10 C 0.1835(4) -0.3510(2) 0.69785(13)
H17 H 0.22820 -0.28620 0.68810
H18 H 0.30530 -0.36800 0.72220
C11 C -0.1306(3) -0.42568(17) 0.60632(12)
C12 C -0.1531(5) -0.3563(2) 0.55625(15)
H19 H -0.28980 -0.34260 0.55350
H20 H -0.13410 -0.39160 0.50200
H21 H -0.04960 -0.29070 0.58160
C13 C -0.2750(5) -0.5340(2) 0.56585(18)
H22 H -0.41650 -0.52890 0.56710
H23 H -0.23940 -0.57860 0.59450
H24 H -0.26090 -0.56350 0.51010
O4 O 0.0679(4) 0.32861(15) 0.76731(12)
O5 O 0.2122(3) -0.09721(15) 0.66811(16)
O6 O 0.6815(4) 0.04482(18) 0.6588(2)
N3 N 0.1594(3) 0.25259(15) 0.74759(12)
N4 N 0.3732(4) -0.02792(16) 0.67639(16)
C14 C 0.3844(4) 0.08734(18) 0.70584(17)
C15 C 0.2491(4) 0.11019(19) 0.64109(15)
H25 H 0.11560 0.05910 0.62400
H26 H 0.31430 0.09820 0.59400
C16 C 0.2067(4) 0.22110(19) 0.66445(15)
C17 C 0.2729(5) 0.2301(2) 0.81591(15)
C18 C 0.2998(5) 0.1169(2) 0.78339(16)
H27 H 0.39320 0.10670 0.82550
H28 H 0.16540 0.06880 0.77350
C19 C 0.3857(5) 0.3055(2) 0.6606(2)
H29 H 0.40780 0.28690 0.60560
H30 H 0.51100 0.30960 0.69650
H31 H 0.35020 0.37260 0.67720
C20 C 0.0130(5) 0.2150(3) 0.60419(17)
H32 H 0.03570 0.18870 0.54940
H33 H -0.01270 0.28410 0.61600
H34 H -0.10550 0.16830 0.60940
C21 C 0.4830(6) 0.3126(3) 0.8543(2)
H35 H 0.55680 0.29750 0.89780
H36 H 0.45760 0.38180 0.87570
H37 H 0.56530 0.31000 0.81340
C22 C 0.1405(8) 0.2387(3) 0.8805(2)
H38 H 0.21220 0.22530 0.92540
H39 H 0.00900 0.18790 0.85710
H40 H 0.11690 0.30840 0.89980
C23 C 0.6194(5) 0.1249(2) 0.7158(3)
H41 H 0.65230 0.19000 0.70550
H42 H 0.69030 0.13720 0.77080
C24 C 0.5633(5) -0.0549(2) 0.6506(2)
C25 C 0.5178(9) -0.1287(4) 0.5635(3)
H43 H 0.42830 -0.19450 0.55790
H44 H 0.64610 -0.14090 0.54750
H45 H 0.44960 -0.09820 0.52910
C26 C 0.6744(6) -0.0982(3) 0.7073(3)
H46 H 0.58510 -0.16200 0.70570
H47 H 0.70880 -0.04710 0.76200
H48 H 0.80020 -0.11310 0.69020
#END
