
#######################################################################
#
#                 Cambridge Crystallographic Data Centre
#                                CCDC
#
#######################################################################
#
# If this CIF has been generated from an entry in the Cambridge
# Structural Database, then it will include bibliographic, chemical,
# crystal, experimental, refinement or atomic coordinate data resulting
# from the CCDC's data processing and validation procedures.
#
#######################################################################

data_CSD_CIF_URODAH
_audit_creation_date 2011-07-18
_audit_creation_method CSD-ConQuest-V1
_database_code_CSD URODAH
_database_code_depnum_ccdc_archive 'CCDC 748895'
_chemical_formula_sum 'C42 H34 N4 O2'
_chemical_formula_moiety
;
C42 H34 N4 O2
;
_journal_coden_Cambridge 1326
_journal_volume 12
_journal_year 2010
_journal_page_first 7772
_journal_name_full 'Phys.Chem.Chem.Phys.(PCCP) '
loop_
_publ_author_name
"H.Nakano"
"S.Seki"
"H.Kageyama"
_chemical_name_systematic
;
N-(9,9-Dimethyl-9H-fluoren-2-yl)-9,9-dimethyl-N-(4-((4-nitrophenyl)diazenyl)ph
enyl)-9H-fluoren-2-amine
;
_cell_volume   3444.953
_exptl_crystal_colour 'black'
_exptl_crystal_density_diffrn 1.208
_exptl_crystal_description 'prism'
_diffrn_ambient_temperature 296
#These two values have been output from a single CSD field.
_refine_ls_R_factor_gt 0.0501
_refine_ls_wR_factor_gt 0.0501
_symmetry_cell_setting monoclinic
_symmetry_space_group_name_H-M 'P 21/a'
_symmetry_Int_Tables_number 14
loop_
_symmetry_equiv_pos_site_id
_symmetry_equiv_pos_as_xyz
1 x,y,z
2 1/2-x,1/2+y,-z
3 -x,-y,-z
4 -1/2+x,-1/2-y,z
_cell_length_a 16.5256(3)
_cell_length_b 12.1737(2)
_cell_length_c 17.4298(3)
_cell_angle_alpha 90
_cell_angle_beta 100.7497(7)
_cell_angle_gamma 90
_cell_formula_units_Z 4
loop_
_atom_type_symbol
_atom_type_radius_bond
C 0.68
H 0.23
N 0.68
O 0.68
loop_
_atom_site_label
_atom_site_type_symbol
_atom_site_fract_x
_atom_site_fract_y
_atom_site_fract_z
O1 O 0.8458(1) -0.4332(1) -0.14177(10)
O2 O 0.8232(1) -0.5956(1) -0.1050(1)
N1 N 0.33184(8) -0.0453(1) 0.20832(8)
N2 N 0.53419(9) -0.2537(1) 0.02875(9)
N3 N 0.55894(9) -0.3484(1) 0.04645(9)
N4 N 0.8080(1) -0.4985(2) -0.10891(9)
C1 C 0.37952(10) -0.1008(1) 0.16212(9)
C2 C 0.4071(1) -0.2075(1) 0.18107(10)
C3 C 0.4560(1) -0.2619(1) 0.1385(1)
C4 C 0.4787(1) -0.2114(1) 0.07401(10)
C5 C 0.4496(1) -0.1068(2) 0.05373(10)
C6 C 0.4011(1) -0.0515(1) 0.09666(10)
C7 C 0.6217(1) -0.3834(2) 0.0043(1)
C8 C 0.6337(1) -0.4938(2) -0.0030(1)
C9 C 0.6935(1) -0.5314(2) -0.0410(1)
C10 C 0.7425(1) -0.4570(2) -0.0706(1)
C11 C 0.7329(1) -0.3467(2) -0.0633(1)
C12 C 0.6710(1) -0.3090(1) -0.0255(1)
C13 C 0.41668(9) 0.2353(1) 0.24727(9)
C14 C 0.41293(9) 0.1247(1) 0.22940(9)
C15 C 0.33781(9) 0.0700(1) 0.22097(9)
C16 C 0.26716(9) 0.1283(1) 0.2292(1)
C17 C 0.27120(9) 0.2376(1) 0.2486(1)
C18 C 0.34605(9) 0.2918(1) 0.25838(9)
C19 C 0.36935(10) 0.4051(1) 0.28250(9)
C20 C 0.3234(1) 0.4911(1) 0.3038(1)
C21 C 0.3634(1) 0.5877(1) 0.3299(1)
C22 C 0.4465(2) 0.5983(2) 0.3338(1)
C23 C 0.4926(1) 0.5142(2) 0.3106(1)
C24 C 0.45413(10) 0.4166(1) 0.28544(9)
C25 C 0.49126(9) 0.3110(1) 0.26030(9)
C26 C 0.5244(1) 0.3268(2) 0.1841(1)
C27 C 0.55996(10) 0.2680(2) 0.3245(1)
C28 C 0.23226(9) -0.1476(1) 0.36818(8)
C29 C 0.28359(10) -0.0885(1) 0.32947(9)
C30 C 0.27987(10) -0.1065(1) 0.25008(9)
C31 C 0.2252(1) -0.1831(1) 0.21077(9)
C32 C 0.17454(10) -0.2436(1) 0.24939(9)
C33 C 0.17838(9) -0.2254(1) 0.32850(9)
C34 C 0.13311(10) -0.2769(1) 0.38425(10)
C35 C 0.0740(1) -0.3584(1) 0.3738(1)
C36 C 0.0403(2) -0.3899(2) 0.4378(2)
C37 C 0.0655(2) -0.3418(2) 0.5092(2)
C38 C 0.1243(2) -0.2606(2) 0.5195(1)
C39 C 0.1590(1) -0.2277(1) 0.45688(10)
C40 C 0.2245(1) -0.1417(1) 0.45366(9)
C41 C 0.1974(1) -0.0268(2) 0.4753(1)
C42 C 0.3059(1) -0.1735(2) 0.5066(1)
H1 H 0.39140 -0.24320 0.22450
H2 H 0.47460 -0.33420 0.15290
H3 H 0.46360 -0.07250 0.00900
H4 H 0.38220 0.02050 0.08180
H5 H 0.60030 -0.54450 0.01850
H6 H 0.70120 -0.60810 -0.04690
H7 H 0.76760 -0.29650 -0.08360
H8 H 0.66280 -0.23230 -0.02020
H9 H 0.46120 0.08620 0.22290
H10 H 0.21550 0.09160 0.22130
H11 H 0.22290 0.27590 0.25530
H12 H 0.26560 0.48400 0.30060
H13 H 0.33280 0.64730 0.34520
H14 H 0.47300 0.66480 0.35290
H15 H 0.55000 0.52340 0.31200
H16 H 0.53940 0.25750 0.16590
H17 H 0.48300 0.35930 0.14570
H18 H 0.57140 0.37340 0.19370
H19 H 0.54040 0.26330 0.37230
H20 H 0.57660 0.19720 0.31050
H21 H 0.60560 0.31670 0.33050
H22 H 0.32090 -0.03610 0.35670
H23 H 0.22260 -0.19420 0.15640
H24 H 0.13770 -0.29660 0.22230
H25 H 0.05690 -0.39210 0.32420
H26 H -0.00070 -0.44550 0.43180
H27 H 0.04190 -0.36480 0.55230
H28 H 0.14090 -0.22720 0.56920
H29 H 0.23920 0.02500 0.47050
H30 H 0.14780 -0.00710 0.44110
H31 H 0.18850 -0.02740 0.52760
H32 H 0.32480 -0.24130 0.48950
H33 H 0.34580 -0.11810 0.50430
H34 H 0.29760 -0.18100 0.55880
#END
