
#######################################################################
#
#                 Cambridge Crystallographic Data Centre
#                                CCDC
#
#######################################################################
#
# If this CIF has been generated from an entry in the Cambridge
# Structural Database, then it will include bibliographic, chemical,
# crystal, experimental, refinement or atomic coordinate data resulting
# from the CCDC's data processing and validation procedures.
#
#######################################################################

data_CSD_CIF_USAHEC
_audit_creation_date 2011-07-22
_audit_creation_method CSD-ConQuest-V1
_database_code_CSD USAHEC
_database_code_depnum_ccdc_archive 'CCDC 786978'
_chemical_formula_sum 'C19 H18 N2 O4'
_chemical_formula_moiety
;
C19 H18 N2 O4
;
_journal_coden_Cambridge 24
_journal_volume 51
_journal_year 2010
_journal_page_first 6806
_journal_name_full 'Tetrahedron Lett. '
loop_
_publ_author_name
"G.R.Stephenson"
"A.M.Balfe"
"D.L.Hughes"
"R.D.Kelsey"
_chemical_name_systematic
;
3-(4-((4-Nitrobenzyl)oxy)phenyl)-2-oxa-3-azabicyclo[2.2.2]oct-5-ene
;
_cell_volume   1605.506
_exptl_crystal_colour 'pale yellow'
_exptl_crystal_density_diffrn 1.4
_exptl_crystal_description 'rectangular prism'
_diffrn_ambient_temperature 140
#These two values have been output from a single CSD field.
_refine_ls_R_factor_gt 0.0421
_refine_ls_wR_factor_gt 0.0421
_symmetry_cell_setting monoclinic
_symmetry_space_group_name_H-M 'P 21/n'
_symmetry_Int_Tables_number 14
loop_
_symmetry_equiv_pos_site_id
_symmetry_equiv_pos_as_xyz
1 x,y,z
2 1/2-x,1/2+y,1/2-z
3 -x,-y,-z
4 -1/2+x,-1/2-y,-1/2+z
_cell_length_a 9.528(4)
_cell_length_b 5.563(1)
_cell_length_c 30.560(6)
_cell_angle_alpha 90
_cell_angle_beta 97.62(3)
_cell_angle_gamma 90
_cell_formula_units_Z 4
loop_
_atom_type_symbol
_atom_type_radius_bond
C 0.68
H 0.23
N 0.68
O 0.68
loop_
_atom_site_label
_atom_site_type_symbol
_atom_site_fract_x
_atom_site_fract_y
_atom_site_fract_z
N1 N -0.2891(2) -0.0166(3) 0.43232(5)
O1 O -0.38066(19) 0.1001(3) 0.44745(4)
O2 O -0.23733(19) -0.1998(2) 0.44991(5)
C1 C -0.2395(2) 0.0679(3) 0.39143(5)
C2 C -0.2996(2) 0.2716(3) 0.37044(5)
H1 H -0.36970 0.35760 0.38210
C3 C -0.2517(2) 0.3427(3) 0.33153(5)
H2 H -0.28930 0.48000 0.31710
C4 C -0.1484(2) 0.2123(3) 0.31367(5)
C5 C -0.0894(2) 0.0121(3) 0.33615(5)
H3 H -0.01820 -0.07350 0.32490
C6 C -0.1356(2) -0.0616(3) 0.37517(5)
H4 H -0.09670 -0.19670 0.39010
C7 C -0.0998(2) 0.2908(3) 0.27088(5)
H5 H -0.18060 0.32980 0.24930
H6 H -0.03980 0.43180 0.27560
O3 O -0.02287(16) 0.09527(19) 0.25588(4)
C8 C 0.0568(2) 0.1278(3) 0.22189(5)
C9 C 0.0468(2) 0.3199(3) 0.19297(5)
H7 H -0.01610 0.44460 0.19610
C10 C 0.1311(2) 0.3265(3) 0.15916(5)
H8 H 0.12310 0.45560 0.13970
C11 C 0.2268(2) 0.1441(3) 0.15399(5)
C12 C 0.2369(2) -0.0488(3) 0.18398(5)
H9 H 0.30090 -0.17240 0.18130
C13 C 0.1527(2) -0.0559(3) 0.21723(5)
H10 H 0.16000 -0.18480 0.23680
N2 N 0.32175(18) 0.1438(2) 0.12123(4)
O4 O 0.29559(16) 0.35898(18) 0.09420(4)
C14 C 0.3044(2) -0.0728(3) 0.09126(6)
H11 H 0.32380 -0.22120 0.10830
C15 C 0.1555(2) -0.0717(3) 0.06828(6)
H12 H 0.09290 -0.19920 0.06930
C16 C 0.1222(2) 0.1301(3) 0.04626(6)
H13 H 0.03260 0.16250 0.03140
C17 C 0.2443(2) 0.2996(3) 0.04794(6)
H14 H 0.21550 0.44630 0.03140
C18 C 0.3670(2) 0.1802(3) 0.02909(6)
H15 H 0.44670 0.28970 0.03030
H16 H 0.33860 0.13450 -0.00140
C19 C 0.4082(2) -0.0441(3) 0.05752(6)
H17 H 0.40520 -0.18560 0.03890
H18 H 0.50380 -0.02670 0.07260
#END
