
#######################################################################
#
#                 Cambridge Crystallographic Data Centre
#                                CCDC
#
#######################################################################
#
# If this CIF has been generated from an entry in the Cambridge
# Structural Database, then it will include bibliographic, chemical,
# crystal, experimental, refinement or atomic coordinate data resulting
# from the CCDC's data processing and validation procedures.
#
#######################################################################

data_CSD_CIF_USAHAY
_audit_creation_date 2011-07-22
_audit_creation_method CSD-ConQuest-V1
_database_code_CSD USAHAY
_database_code_depnum_ccdc_archive 'CCDC 786977'
_chemical_formula_sum 'C12 H12 N2 O3'
_chemical_formula_moiety
;
C12 H12 N2 O3
;
_journal_coden_Cambridge 24
_journal_volume 51
_journal_year 2010
_journal_page_first 6806
_journal_name_full 'Tetrahedron Lett. '
loop_
_publ_author_name
"G.R.Stephenson"
"A.M.Balfe"
"D.L.Hughes"
"R.D.Kelsey"
_chemical_name_systematic
;
3-(4-Nitrophenyl)-2-oxa-3-azabicyclo[2.2.2]oct-5-ene
;
_cell_volume    534.762
_exptl_crystal_colour 'yellow'
_exptl_crystal_density_diffrn 1.442
_exptl_crystal_description 'needle-plate'
_diffrn_ambient_temperature 140
#These two values have been output from a single CSD field.
_refine_ls_R_factor_gt 0.0414
_refine_ls_wR_factor_gt 0.0414
_symmetry_cell_setting monoclinic
_symmetry_space_group_name_H-M 'P 21'
_symmetry_Int_Tables_number 4
loop_
_symmetry_equiv_pos_site_id
_symmetry_equiv_pos_as_xyz
1 x,y,z
2 -x,1/2+y,-z
_cell_length_a 5.6029(14)
_cell_length_b 15.353(4)
_cell_length_c 6.2519(18)
_cell_angle_alpha 90
_cell_angle_beta 96.09(2)
_cell_angle_gamma 90
_cell_formula_units_Z 2
loop_
_atom_type_symbol
_atom_type_radius_bond
C 0.68
H 0.23
N 0.68
O 0.68
loop_
_atom_site_label
_atom_site_type_symbol
_atom_site_fract_x
_atom_site_fract_y
_atom_site_fract_z
C1 C 0.6841(8) 0.5954(3) 0.4820(8)
C2 C 0.8541(8) 0.5338(3) 0.4238(8)
H1 H 0.99080 0.52260 0.51760
C3 C 0.8195(8) 0.4903(3) 0.2297(8)
H2 H 0.93290 0.45040 0.19190
C4 C 0.6124(8) 0.5067(3) 0.0908(8)
C5 C 0.4382(8) 0.5651(3) 0.1483(8)
H3 H 0.29850 0.57440 0.05680
C6 C 0.4757(8) 0.6090(3) 0.3426(8)
H4 H 0.36050 0.64800 0.38070
N1 N 0.7232(6) 0.6348(3) 0.6861(6)
O1 O 0.5210(5) 0.6916(2) 0.7201(5)
C7 C 0.6031(8) 0.7827(4) 0.7622(8)
H5 H 0.46420 0.82140 0.76350
C8 C 0.7562(9) 0.8116(4) 0.5903(8)
H6 H 0.72020 0.85910 0.50060
C9 C 0.9486(9) 0.7612(3) 0.5815(8)
H7 H 1.06690 0.77220 0.49140
C10 C 0.9546(7) 0.6844(4) 0.7335(7)
H8 H 1.09310 0.64690 0.71740
C11 C 0.9583(8) 0.7173(3) 0.9677(8)
H9 H 1.11040 0.74570 1.01150
H10 H 0.94170 0.66840 1.06320
C12 C 0.7493(8) 0.7827(3) 0.9846(8)
H11 H 0.65040 0.76440 1.09460
H12 H 0.81150 0.84050 1.02020
N2 N 0.5737(7) 0.4615(3) -0.1160(7)
O2 O 0.3861(6) 0.4760(2) -0.2324(6)
O3 O 0.7291(7) 0.4094(3) -0.1651(6)
#END
