
#######################################################################
#
#                 Cambridge Crystallographic Data Centre
#                                CCDC
#
#######################################################################
#
# If this CIF has been generated from an entry in the Cambridge
# Structural Database, then it will include bibliographic, chemical,
# crystal, experimental, refinement or atomic coordinate data resulting
# from the CCDC's data processing and validation procedures.
#
#######################################################################

data_CSD_CIF_USAXOC
_audit_creation_date 2011-08-29
_audit_creation_method CSD-ConQuest-V1
_database_code_CSD USAXOC
_database_code_depnum_ccdc_archive 'CCDC 642711'
_chemical_formula_sum 'C6 H4 N2 O3'
_chemical_formula_moiety
;
C6 H4 N2 O3
;
_journal_coden_Cambridge 1350
_journal_volume 13
_journal_year 2011
_journal_page_first 4307
_journal_name_full 'CrystEngComm '
loop_
_publ_author_name
"I.Halasz"
"H.Vancik"
_chemical_name_systematic
;
4-(Nitro)nitrosobenzene
;
_cell_volume    318.953
_exptl_crystal_colour 'green'
_exptl_crystal_density_diffrn 1.584
_exptl_crystal_description 'plate'
_diffrn_ambient_temperature 100
_refine_special_details
;
The nitroso and nitro groups are equally disordered over two sites by 
symmetry.
;
#These two values have been output from a single CSD field.
_refine_ls_R_factor_gt 0.0502
_refine_ls_wR_factor_gt 0.0502
_symmetry_cell_setting monoclinic
_symmetry_space_group_name_H-M 'P 21/n'
_symmetry_Int_Tables_number 14
loop_
_symmetry_equiv_pos_site_id
_symmetry_equiv_pos_as_xyz
1 x,y,z
2 1/2-x,1/2+y,1/2-z
3 -x,-y,-z
4 -1/2+x,-1/2-y,-1/2+z
_cell_length_a 5.8638(12)
_cell_length_b 5.0832(11)
_cell_length_c 10.708(2)
_cell_angle_alpha 90
_cell_angle_beta 92.124(16)
_cell_angle_gamma 90
_cell_formula_units_Z 2
loop_
_atom_type_symbol
_atom_type_radius_bond
C 0.68
H 0.23
N 0.73
O 0.68
loop_
_atom_site_label
_atom_site_type_symbol
_atom_site_fract_x
_atom_site_fract_y
_atom_site_fract_z
N1 N 0.3132(11) -0.3953(14) 0.6401(5)
O1 O 0.440(2) -0.495(3) 0.7200(12)
O2 O 0.1145(10) -0.4544(13) 0.6186(7)
C1 C 0.4137(2) -0.1956(3) 0.56909(14)
C2 C 0.2858(3) -0.1046(3) 0.46716(15)
H1 H 0.14360 -0.17700 0.44650
C3 C 0.6268(3) -0.0954(3) 0.60315(15)
H2 H 0.70890 -0.16190 0.67210
N2? N 0.6223(18) 0.4289(19) 0.3339(9)
O3? O 0.8176(18) 0.5241(19) 0.3590(11)
N3? N 0.733(4) 0.420(4) 0.3741(17)
O4? O 0.607(5) 0.508(8) 0.285(2)
N1B N 0.6868(11) 0.3953(14) 0.3599(5)
O1B O 0.560(2) 0.495(3) 0.2800(12)
O2B O 0.8855(10) 0.4544(13) 0.3814(7)
C1B C 0.5863(2) 0.1956(3) 0.43091(14)
C2B C 0.7142(3) 0.1046(3) 0.53284(15)
H1B H 0.85640 0.17700 0.55350
C3B C 0.3732(3) 0.0954(3) 0.39685(15)
H2B H 0.29110 0.16190 0.32790
#END
