
#######################################################################
#
#                 Cambridge Crystallographic Data Centre
#                                CCDC
#
#######################################################################
#
# If this CIF has been generated from an entry in the Cambridge
# Structural Database, then it will include bibliographic, chemical,
# crystal, experimental, refinement or atomic coordinate data resulting
# from the CCDC's data processing and validation procedures.
#
#######################################################################

data_CSD_CIF_USIFAF
_audit_creation_date 2016-08-09
_audit_creation_method CSD-ConQuest-V1
_database_code_CSD USIFAF
_database_code_depnum_ccdc_archive 'CCDC 1498363'
_chemical_formula_sum 'C26 H29 N1 O4'
_chemical_formula_moiety
;
C26 H29 N1 O4
;
_journal_coden_Cambridge 35
_journal_volume 81
_journal_year 2016
_journal_page_first 5795
_journal_name_full 'J.Org.Chem. '
loop_
_publ_author_name
"F.E.Zhurkin"
"Xile Hu"
_chemical_name_systematic
;
ethyl 5-cyclohexyl-2-methylene-3-(2-nitrophenyl)-4-phenylpent-4-enoate
;
_cell_volume   4468.663
_exptl_crystal_colour 'colorless'
_exptl_crystal_density_diffrn 1.247
_exptl_crystal_description 'irregular'
_diffrn_ambient_temperature 140
_refine_special_details
;
O3A,O4A and O3B,O4B disordered over two sites with occupancies 0.63:0.37.

;
#These two values have been output from a single CSD field.
_refine_ls_R_factor_gt 0.0603
_refine_ls_wR_factor_gt 0.0603
_symmetry_cell_setting monoclinic
_symmetry_space_group_name_H-M 'P 21/c'
_symmetry_Int_Tables_number 14
loop_
_symmetry_equiv_pos_site_id
_symmetry_equiv_pos_as_xyz
1 x,y,z
2 -x,1/2+y,1/2-z
3 -x,-y,-z
4 x,-1/2-y,-1/2+z
_cell_length_a 20.7774(14)
_cell_length_b 13.3315(5)
_cell_length_c 17.7511(11)
_cell_angle_alpha 90
_cell_angle_beta 114.656(8)
_cell_angle_gamma 90
_cell_formula_units_Z 8
loop_
_atom_type_symbol
_atom_type_radius_bond
C 0.68
H 0.23
N 0.68
O 0.68
loop_
_atom_site_label
_atom_site_type_symbol
_atom_site_fract_x
_atom_site_fract_y
_atom_site_fract_z
O1 O 0.44666(7) 0.66026(9) 0.41996(8)
O2 O 0.35216(8) 0.74126(10) 0.42022(9)
O3 O 0.4051(6) 0.6420(6) 0.6122(5)
O4 O 0.4181(6) 0.5968(7) 0.7319(3)
N1 N 0.39369(9) 0.58330(12) 0.65678(10)
C1 C 0.52989(12) 0.72532(18) 0.37282(16)
H1 H 0.57050 0.71240 0.42560
H2 H 0.54080 0.78160 0.34460
H3 H 0.51990 0.66540 0.33780
C2 C 0.46671(11) 0.75050(14) 0.38869(13)
H4 H 0.47820 0.80520 0.43000
H5 H 0.42720 0.77290 0.33680
C3 C 0.38655(10) 0.66519(13) 0.43014(11)
C4 C 0.36591(10) 0.56701(13) 0.45436(11)
C5 C 0.40206(10) 0.48405(13) 0.45784(12)
H6 H 0.44200 0.48610 0.44480
H7 H 0.38810 0.42240 0.47340
C6 C 0.29978(9) 0.57094(12) 0.4702(1)
H8 H 0.29930 0.63830 0.49480
C7 C 0.30145(10) 0.49274(12) 0.53455(11)
C8 C 0.34356(10) 0.49953(13) 0.62007(11)
C9 C 0.34210(11) 0.42855(14) 0.67640(12)
H9 H 0.37110 0.43660 0.73390
C10 C 0.29809(11) 0.34589(14) 0.64836(12)
H10 H 0.29610 0.29710 0.68630
C11 C 0.25723(11) 0.33550(14) 0.56461(13)
H11 H 0.22750 0.27840 0.54470
C12 C 0.2590(1) 0.40748(13) 0.50905(12)
H12 H 0.23030 0.39830 0.45160
C13 C 0.23160(9) 0.56377(12) 0.39031(11)
C14 C 0.1688(1) 0.61295(13) 0.39512(11)
C15 C 0.10853(10) 0.55814(15) 0.38485(12)
H13 H 0.10730 0.48810 0.37460
C16 C 0.05060(11) 0.60406(17) 0.38931(13)
H14 H 0.01000 0.56550 0.38220
C17 C 0.05147(12) 0.70604(18) 0.40402(14)
H15 H 0.01170 0.73770 0.40710
C18 C 0.11057(13) 0.76132(16) 0.41423(14)
H16 H 0.11120 0.83140 0.42410
C19 C 0.16922(11) 0.71590(14) 0.41026(12)
H17 H 0.20970 0.75490 0.41790
C20 C 0.22782(10) 0.51664(13) 0.32228(11)
H18 H 0.27000 0.48500 0.32580
C21 C 0.16411(10) 0.50795(14) 0.24041(11)
H19 H 0.12070 0.50760 0.25140
C22 C 0.16603(13) 0.41013(15) 0.19660(12)
H20 H 0.16350 0.35280 0.23070
H21 H 0.21150 0.40560 0.19130
C23 C 0.10478(15) 0.40307(17) 0.11035(14)
H22 H 0.11010 0.34130 0.08260
H23 H 0.05950 0.39840 0.11610
C24 C 0.10252(13) 0.49358(17) 0.05690(13)
H24 H 0.14570 0.49490 0.04640
H25 H 0.06100 0.48830 0.00280
C25 C 0.09776(12) 0.58955(16) 0.10018(13)
H26 H 0.05280 0.59030 0.10680
H27 H 0.09780 0.64790 0.06570
C26 C 0.15991(11) 0.59807(15) 0.18518(12)
H28 H 0.15480 0.66020 0.21270
H29 H 0.20460 0.60310 0.17800
O5? O 0.3922(12) 0.6576(13) 0.6192(10)
O6? O 0.4446(10) 0.5603(15) 0.7214(12)
O7 O 0.07552(8) 0.16207(10) 0.3795(1)
O8 O 0.16275(8) 0.24364(10) 0.36039(9)
O9 O 0.13315(9) 0.15747(11) 0.16275(10)
O10 O 0.08771(10) 0.07305(13) 0.05163(10)
N2 N 0.12887(9) 0.08100(12) 0.12408(10)
C27 C 0.00047(15) 0.30792(19) 0.33802(17)
H30 H 0.02050 0.33090 0.29990
H31 H -0.01590 0.36590 0.35910
H32 H -0.03950 0.26290 0.30870
C28 C 0.05558(12) 0.25350(16) 0.40836(15)
H33 H 0.09770 0.29690 0.43510
H34 H 0.03720 0.23710 0.45010
C29 C 0.12877(10) 0.16810(14) 0.35558(12)
C30 C 0.14244(10) 0.07060(13) 0.32312(11)
C31 C 0.09631(11) -0.00454(15) 0.30512(13)
H35 H 0.05400 0.00330 0.31280
H36 H 0.10570 -0.06600 0.28460
C32 C 0.21155(10) 0.06745(13) 0.31372(11)
H37 H 0.21640 0.13380 0.29040
C33 C 0.21165(9) -0.01236(12) 0.25161(11)
C34 C 0.17394(10) -0.00579(13) 0.16515(11)
C35 C 0.17616(11) -0.08012(14) 0.11100(12)
H38 H 0.14970 -0.07290 0.05290
C36 C 0.21737(12) -0.16438(14) 0.14286(13)
H39 H 0.22040 -0.21490 0.10670
C37 C 0.25407(11) -0.17449(14) 0.22743(13)
H40 H 0.28190 -0.23270 0.24970
C38 C 0.25063(10) -0.10000(13) 0.28020(12)
H41 H 0.27600 -0.10920 0.33830
C39 C 0.27569(10) 0.05676(13) 0.39696(11)
C40 C 0.34246(10) 0.09781(13) 0.39697(10)
C41 C 0.40044(10) 0.03582(14) 0.40981(11)
H42 H 0.39810 -0.03350 0.42070
C42 C 0.46136(11) 0.07468(16) 0.40677(12)
H43 H 0.50030 0.03170 0.41540
C43 C 0.46567(11) 0.17530(16) 0.39136(12)
H44 H 0.50740 0.20170 0.38940
C44 C 0.40864(11) 0.23782(15) 0.37881(12)
H45 H 0.41170 0.30730 0.36880
C45 C 0.34743(11) 0.19958(14) 0.38077(11)
H46 H 0.30840 0.24280 0.37100
C46 C 0.27193(10) 0.01418(13) 0.46289(11)
H47 H 0.22700 -0.01230 0.45460
C47 C 0.32976(10) 0.00275(14) 0.54878(11)
H48 H 0.37620 0.01630 0.54650
C48 C 0.33131(15) -0.10272(15) 0.58170(13)
H49 H 0.34290 -0.15070 0.54660
H50 H 0.28370 -0.11990 0.57780
C49 C 0.38546(15) -0.11403(16) 0.67177(13)
H51 H 0.38250 -0.18270 0.69120
H52 H 0.43370 -0.10450 0.67480
C50 C 0.37292(12) -0.03943(16) 0.72746(12)
H53 H 0.41060 -0.04590 0.78430
H54 H 0.32690 -0.05360 0.72960
C51 C 0.37255(16) 0.06562(17) 0.69665(14)
H55 H 0.42060 0.08260 0.70170
H56 H 0.36060 0.11290 0.73190
C52 C 0.31954(14) 0.07848(15) 0.60653(13)
H57 H 0.27090 0.07180 0.60310
H58 H 0.32430 0.14690 0.58780
#END
