
#######################################################################
#
#                 Cambridge Crystallographic Data Centre
#                                CCDC
#
#######################################################################
#
# If this CIF has been generated from an entry in the Cambridge
# Structural Database, then it will include bibliographic, chemical,
# crystal, experimental, refinement or atomic coordinate data resulting
# from the CCDC's data processing and validation procedures.
#
#######################################################################

data_CSD_CIF_USIKEO
_audit_creation_date 2016-08-09
_audit_creation_method CSD-ConQuest-V1
_database_code_CSD USIKEO
_database_code_depnum_ccdc_archive 'CCDC 1469470'
_chemical_formula_sum 'C2 H1 N5 O1'
_chemical_formula_moiety
;
C2 H1 N5 O1
;
_journal_coden_Cambridge 1291
_journal_year 2016
_journal_page_first 3845
_journal_name_full 'Eur.J.Org.Chem. '
loop_
_publ_author_name
"M.S.Klenov"
"O.V.Anikin"
"A.A.Guskov"
"A.M.Churakov"
"Y.A.Strelenko"
"I.V.Ananyev"
"I.S.Bushmarinov"
"A.O.Dmitrienko"
"K.A.Lyssenko"
"V.A.Tartakovsky"
_chemical_name_systematic
;
1-hydroxy-1H-tetrazole-5-carbonitrile
;
_cell_volume    441.684
_exptl_crystal_colour 'colorless'
_exptl_crystal_density_diffrn 1.67
_exptl_crystal_description 'prism'
_diffrn_ambient_temperature 110
#These two values have been output from a single CSD field.
_refine_ls_R_factor_gt 0.041
_refine_ls_wR_factor_gt 0.041
_symmetry_cell_setting monoclinic
_symmetry_space_group_name_H-M 'P 21/c'
_symmetry_Int_Tables_number 14
loop_
_symmetry_equiv_pos_site_id
_symmetry_equiv_pos_as_xyz
1 x,y,z
2 -x,1/2+y,1/2-z
3 -x,-y,-z
4 x,-1/2-y,-1/2+z
_cell_length_a 6.322(2)
_cell_length_b 7.745(3)
_cell_length_c 9.024(3)
_cell_angle_alpha 90
_cell_angle_beta 91.571(7)
_cell_angle_gamma 90
_cell_formula_units_Z 4
loop_
_atom_type_symbol
_atom_type_radius_bond
C 0.68
H 0.23
N 0.68
O 0.68
loop_
_atom_site_label
_atom_site_type_symbol
_atom_site_fract_x
_atom_site_fract_y
_atom_site_fract_z
N1 N 0.1725(2) 0.43955(17) 0.74920(14)
O1 O 0.1427(2) 0.48974(16) 0.88911(12)
H1 H 0.157(4) 0.395(4) 0.940(3)
N2 N 0.1213(2) 0.28468(18) 0.69874(14)
N3 N 0.1745(2) 0.28712(19) 0.55922(15)
N4 N 0.2564(2) 0.43975(18) 0.51931(15)
C1 C 0.2554(2) 0.5349(2) 0.64126(16)
C2 C 0.3294(3) 0.7073(2) 0.65960(18)
N5 N 0.3871(3) 0.8464(2) 0.67432(18)
#END
