
#######################################################################
#
#                 Cambridge Crystallographic Data Centre
#                                CCDC
#
#######################################################################
#
# If this CIF has been generated from an entry in the Cambridge
# Structural Database, then it will include bibliographic, chemical,
# crystal, experimental, refinement or atomic coordinate data resulting
# from the CCDC's data processing and validation procedures.
#
#######################################################################

data_CSD_CIF_USIKOY
_audit_creation_date 2016-08-09
_audit_creation_method CSD-ConQuest-V1
_database_code_CSD USIKOY
_database_code_depnum_ccdc_archive 'CCDC 1406899'
_chemical_formula_sum 'C6 H9 N5 O1'
_chemical_formula_moiety
;
C6 H9 N5 O1
;
_journal_coden_Cambridge 1291
_journal_year 2016
_journal_page_first 3845
_journal_name_full 'Eur.J.Org.Chem. '
loop_
_publ_author_name
"M.S.Klenov"
"O.V.Anikin"
"A.A.Guskov"
"A.M.Churakov"
"Y.A.Strelenko"
"I.V.Ananyev"
"I.S.Bushmarinov"
"A.O.Dmitrienko"
"K.A.Lyssenko"
"V.A.Tartakovsky"
_chemical_name_systematic
;
2-t-butyl-2H-tetrazole-5-carbonitrile 4-oxide
;
_cell_volume    853.856
_exptl_crystal_colour 'colorless'
_exptl_crystal_density_diffrn 1.3
_exptl_crystal_description 'prism'
_diffrn_ambient_temperature 100
_diffrn_special_details
;
twin

;
#These two values have been output from a single CSD field.
_refine_ls_R_factor_gt 0.0541
_refine_ls_wR_factor_gt 0.0541
_symmetry_cell_setting monoclinic
_symmetry_space_group_name_H-M 'P 21/c'
_symmetry_Int_Tables_number 14
loop_
_symmetry_equiv_pos_site_id
_symmetry_equiv_pos_as_xyz
1 x,y,z
2 -x,1/2+y,1/2-z
3 -x,-y,-z
4 x,-1/2-y,-1/2+z
_cell_length_a 6.0345(7)
_cell_length_b 18.418(2)
_cell_length_c 7.6883(9)
_cell_angle_alpha 90
_cell_angle_beta 92.232(2)
_cell_angle_gamma 90
_cell_formula_units_Z 4
loop_
_atom_type_symbol
_atom_type_radius_bond
C 0.68
H 0.23
N 0.68
O 0.68
loop_
_atom_site_label
_atom_site_type_symbol
_atom_site_fract_x
_atom_site_fract_y
_atom_site_fract_z
O1 O 0.2433(2) 0.51971(7) -0.14883(17)
N1 N 0.2670(3) 0.50324(8) 0.2971(2)
N2 N 0.2546(3) 0.43679(8) 0.23469(19)
N3 N 0.2453(3) 0.43148(8) 0.06227(19)
N4 N 0.2507(3) 0.50070(9) 0.0101(2)
C1 C 0.2636(3) 0.54375(10) 0.1549(2)
C2 C 0.2728(4) 0.62100(11) 0.1447(3)
N5 N 0.2790(4) 0.68285(10) 0.1338(3)
C3 C 0.2664(3) 0.37086(9) 0.3506(2)
C4 C 0.5098(4) 0.35909(13) 0.3995(3)
H1 H 0.59130 0.34940 0.29410
H2 H 0.52530 0.31760 0.47880
H3 H 0.57010 0.40270 0.45700
C5 C 0.1322(4) 0.38833(13) 0.5091(3)
H4 H 0.20240 0.42850 0.57390
H5 H 0.12650 0.34550 0.58430
H6 H -0.01880 0.40220 0.47100
C6 C 0.1687(5) 0.30698(12) 0.2481(3)
H7 H 0.25820 0.29760 0.14680
H8 H 0.01620 0.31840 0.20890
H9 H 0.16880 0.26380 0.32250
#END
