
#######################################################################
#
#                 Cambridge Crystallographic Data Centre
#                                CCDC
#
#######################################################################
#
# If this CIF has been generated from an entry in the Cambridge
# Structural Database, then it will include bibliographic, chemical,
# crystal, experimental, refinement or atomic coordinate data resulting
# from the CCDC's data processing and validation procedures.
#
#######################################################################

data_CSD_CIF_USIMUF
_audit_creation_date 2011-08-14
_audit_creation_method CSD-ConQuest-V1
_database_code_CSD USIMUF
_database_code_depnum_ccdc_archive 'CCDC 793072'
_chemical_formula_sum 'C9 H19 N1 O1'
_chemical_formula_moiety
;
C9 H19 N1 O1
;
_journal_coden_Cambridge 177
_journal_volume 9
_journal_year 2011
_journal_page_first 3672
_journal_name_full 'Org.Biomol.Chem. '
loop_
_publ_author_name
"N.A.Giffin"
"M.Makramalla"
"A.D.Hendsbee"
"K.N.Robertson"
"C.Sherren"
"C.C.Pye"
"J.D.Masuda"
"J.A.C.Clyburne"
_chemical_name_systematic
;
2,2,6,6-Tetramethylpiperidin-1-ol
;
_cell_volume  13228.789
_exptl_crystal_colour 'colorless'
_exptl_crystal_density_diffrn 1.066
_exptl_crystal_description 'block'
_diffrn_ambient_temperature 100
#These two values have been output from a single CSD field.
_refine_ls_R_factor_gt 0.042
_refine_ls_wR_factor_gt 0.042
_symmetry_cell_setting rhombohedral
_symmetry_space_group_name_H-M 'R -3'
_symmetry_Int_Tables_number 148
loop_
_symmetry_equiv_pos_site_id
_symmetry_equiv_pos_as_xyz
1 x,y,z
2 -y,x-y,z
3 -x+y,-x,z
4 2/3+x,1/3+y,1/3+z
5 2/3-y,1/3+x-y,1/3+z
6 2/3-x+y,1/3-x,1/3+z
7 1/3+x,2/3+y,2/3+z
8 1/3-y,2/3+x-y,2/3+z
9 1/3-x+y,2/3-x,2/3+z
10 -x,-y,-z
11 y,-x+y,-z
12 x-y,x,-z
13 -2/3-x,-1/3-y,-1/3-z
14 -2/3+y,-1/3-x+y,-1/3-z
15 -2/3+x-y,-1/3+x,-1/3-z
16 -1/3-x,-2/3-y,-2/3-z
17 -1/3+y,-2/3-x+y,-2/3-z
18 -1/3+x-y,-2/3+x,-2/3-z
_cell_length_a 18.7761(16)
_cell_length_b 18.7761(16)
_cell_length_c 43.329(4)
_cell_angle_alpha 90
_cell_angle_beta 90
_cell_angle_gamma 120
_cell_formula_units_Z 54
loop_
_atom_type_symbol
_atom_type_radius_bond
C 0.68
H 0.23
N 0.68
O 0.68
loop_
_atom_site_label
_atom_site_type_symbol
_atom_site_fract_x
_atom_site_fract_y
_atom_site_fract_z
C1 C 0.43867(9) 0.88770(9) 0.05179(3)
C2 C 0.44323(10) 0.80825(9) 0.05139(4)
H1 H 0.38670 0.76050 0.05090
H2 H 0.47170 0.80700 0.03230
C3 C 0.48817(10) 0.80023(10) 0.07917(4)
H3 H 0.54620 0.84530 0.07910
H4 H 0.48750 0.74720 0.07830
C4 C 0.44589(10) 0.80432(9) 0.10849(4)
H5 H 0.47610 0.80040 0.12650
H6 H 0.38950 0.75630 0.10910
C5 C 0.44090(9) 0.88321(9) 0.11124(3)
C6 C 0.52309(9) 0.96321(9) 0.04438(4)
H7 H 0.52150 1.01360 0.04880
H8 H 0.53590 0.96230 0.02250
H9 H 0.56550 0.96170 0.05710
C7 C 0.37741(10) 0.88183(10) 0.02712(4)
H10 H 0.32260 0.83590 0.03200
H11 H 0.39480 0.87270 0.00690
H12 H 0.37570 0.93320 0.02670
C8 C 0.52568(10) 0.95751(10) 0.11905(4)
H13 H 0.56730 0.95830 0.10520
H14 H 0.53990 0.95310 0.14050
H15 H 0.52380 1.00840 0.11650
C9 C 0.38134(10) 0.87241(11) 0.13729(4)
H16 H 0.38010 0.92360 0.14000
H17 H 0.39960 0.85900 0.15650
H18 H 0.32610 0.82770 0.13210
N1 N 0.40209(7) 0.88946(7) 0.08206(3)
O1 O 0.40098(7) 0.96606(7) 0.08365(3)
H19 H 0.3479(12) 0.9519(12) 0.0835(4)
C10 C 0.13622(9) 0.92369(10) 0.05602(4)
C11 C 0.04761(9) 0.90668(10) 0.05926(4)
H20 H 0.04850 0.95980 0.05990
H21 H 0.01590 0.87640 0.04080
C12 C 0.00387(10) 0.85727(10) 0.08790(4)
H22 H -0.05150 0.85120 0.08940
H23 H -0.00260 0.80170 0.08660
C13 C 0.05399(10) 0.90142(10) 0.11632(4)
H24 H 0.02630 0.86800 0.13480
H25 H 0.05550 0.95470 0.11850
C14 C 0.14266(10) 0.91737(10) 0.11512(4)
C15 C 0.17887(10) 0.98814(11) 0.03075(4)
H26 H 0.18400 1.04040 0.03740
H27 H 0.14630 0.96960 0.01170
H28 H 0.23370 0.99580 0.02690
C16 C 0.13786(10) 0.8456(1) 0.04654(4)
H29 H 0.19320 0.85400 0.04970
H30 H 0.12300 0.83380 0.02470
H31 H 0.09840 0.79920 0.05910
C17 C 0.14494(11) 0.83738(10) 0.11962(4)
H32 H 0.10230 0.79380 0.10690
H33 H 0.13500 0.82110 0.14140
H34 H 0.19900 0.84620 0.11350
C18 C 0.19152(11) 0.97562(10) 0.14134(4)
H35 H 0.24640 0.98150 0.14230
H36 H 0.16280 0.95330 0.16090
H37 H 0.19680 1.02950 0.13770
N2 N 0.17829(8) 0.96283(8) 0.08564(3)
O2 O 0.26268(7) 0.97813(8) 0.08345(3)
H38 H 0.2951(13) 1.0324(13) 0.0842(5)
C19 C 0.44384(10) 0.19759(10) 0.05389(4)
C20 C 0.37702(10) 0.22182(10) 0.05473(4)
H39 H 0.38180 0.25420 0.03600
H40 H 0.32230 0.17130 0.05440
C21 C 0.38302(11) 0.27193(11) 0.08310(5)
H41 H 0.33740 0.28400 0.08310
H42 H 0.43560 0.32480 0.08270
C22 C 0.37857(10) 0.22410(11) 0.11217(4)
H43 H 0.32390 0.17370 0.11320
H44 H 0.38440 0.25810 0.13050
C23 C 0.44553(10) 0.19994(10) 0.11309(4)
C24 C 0.52893(10) 0.27252(11) 0.04696(4)
H45 H 0.53570 0.32010 0.05880
H46 H 0.53330 0.28510 0.02490
H47 H 0.57190 0.26010 0.05290
C25 C 0.42402(11) 0.13382(11) 0.02860(4)
H48 H 0.46990 0.12320 0.02640
H49 H 0.41550 0.15460 0.00900
H50 H 0.37400 0.08260 0.03410
C26 C 0.53113(10) 0.27533(10) 0.11907(4)
H51 H 0.57370 0.26270 0.11280
H52 H 0.53710 0.28890 0.14110
H53 H 0.53700 0.32230 0.10710
C27 C 0.42696(11) 0.13799(11) 0.13910(4)
H54 H 0.37630 0.08660 0.13430
H55 H 0.42000 0.16060 0.15850
H56 H 0.47260 0.12710 0.14110
N3 N 0.43711(8) 0.15470(8) 0.08371(3)
O3 O 0.50268(7) 0.13435(7) 0.08374(3)
H57 H 0.4741(13) 0.0768(14) 0.0837(5)
#END
