
#######################################################################
#
#                 Cambridge Crystallographic Data Centre
#                                CCDC
#
#######################################################################
#
# If this CIF has been generated from an entry in the Cambridge
# Structural Database, then it will include bibliographic, chemical,
# crystal, experimental, refinement or atomic coordinate data resulting
# from the CCDC's data processing and validation procedures.
#
#######################################################################

data_CSD_CIF_USOKIX
_audit_creation_date 2011-08-02
_audit_creation_method CSD-ConQuest-V1
_database_code_CSD USOKIX
_database_code_depnum_ccdc_archive 'CCDC 831184'
_chemical_formula_sum 'C14 H17 N1 O5'
_chemical_formula_moiety
;
C14 H17 N1 O5
;
_journal_coden_Cambridge 1336
_journal_volume 12
_journal_year 2010
_journal_page_first 5620
_journal_name_full 'Org.Lett. '
loop_
_publ_author_name
"J.-C.Kizirian"
"N.Aiguabella"
"A.Pesquer"
"S.Fustero"
"P.Bello"
"X.Verdaguer"
"A.Riera"
_chemical_name_systematic
;
Ethyl 3-(nitromethyl)-5-oxotricyclo[5.2.1.0^2,6^]dec-8-ene-3-carboxylate
;
_cell_volume    634.079
_exptl_crystal_colour 'colorless'
_exptl_crystal_density_diffrn 1.463
_exptl_crystal_description 'block'
_diffrn_ambient_temperature 100
#These two values have been output from a single CSD field.
_refine_ls_R_factor_gt 0.0364
_refine_ls_wR_factor_gt 0.0364
_symmetry_cell_setting triclinic
_symmetry_space_group_name_H-M 'P -1'
_symmetry_Int_Tables_number 2
loop_
_symmetry_equiv_pos_site_id
_symmetry_equiv_pos_as_xyz
1 x,y,z
2 -x,-y,-z
_cell_length_a 8.2737(3)
_cell_length_b 8.8338(3)
_cell_length_c 8.9645(3)
_cell_angle_alpha 95.219(2)
_cell_angle_beta 96.834(1)
_cell_angle_gamma 101.066(1)
_cell_formula_units_Z 2
loop_
_atom_type_symbol
_atom_type_radius_bond
C 0.68
H 0.23
N 0.68
O 0.68
loop_
_atom_site_label
_atom_site_type_symbol
_atom_site_fract_x
_atom_site_fract_y
_atom_site_fract_z
C1 C 0.27941(7) 0.73442(6) 0.68027(6)
C2 C 0.46293(7) 0.81987(6) 0.71211(7)
H1 H 0.50770 0.82030 0.81960
H2 H 0.53080 0.76810 0.64820
C3 C 0.46669(7) 0.98455(6) 0.67489(6)
C4 C 0.29357(7) 1.01760(6) 0.65014(6)
H3 H 0.26860 1.05340 0.54890
C5 C 0.26593(7) 1.13575(7) 0.78167(7)
H4 H 0.35340 1.23280 0.80830
C6 C 0.08876(8) 1.15746(7) 0.74226(7)
H5 H 0.05630 1.24830 0.71070
C7 C -0.01323(8) 1.02521(7) 0.76009(7)
H6 H -0.13130 1.00500 0.74350
C8 C 0.09442(7) 0.91304(7) 0.81184(7)
H7 H 0.03940 0.82590 0.86400
C9 C 0.17242(7) 0.86514(6) 0.66756(6)
H8 H 0.08420 0.83620 0.57750
C10 C 0.24193(7) 1.02875(7) 0.90711(7)
H9 H 0.21090 1.08050 0.99900
H10 H 0.33930 0.98160 0.93380
C11 C 0.21752(7) 0.63624(6) 0.80117(6)
C12 C 0.23467(8) 0.61356(7) 1.06480(7)
H11 H 0.11260 0.60520 1.05050
H12 H 0.28160 0.68200 1.15990
C13 C 0.27255(9) 0.45437(8) 1.07815(8)
H13 H 0.21450 0.38280 0.98970
H14 H 0.23510 0.41630 1.17010
H15 H 0.39270 0.46060 1.08330
C14 C 0.24058(7) 0.63019(6) 0.52891(7)
H16 H 0.11910 0.60800 0.49550
H17 H 0.29560 0.68620 0.45180
N1 N 0.29794(7) 0.47882(6) 0.53879(6)
O1 O 0.59351(6) 1.07841(5) 0.66804(6)
O2 O 0.09525(6) 0.53189(5) 0.77395(5)
O3 O 0.30369(6) 0.68330(5) 0.93808(5)
O4 O 0.41420(6) 0.47370(6) 0.63582(6)
O5 O 0.22569(7) 0.36818(6) 0.44710(6)
#END
