
#######################################################################
#
#                 Cambridge Crystallographic Data Centre
#                                CCDC
#
#######################################################################
#
# If this CIF has been generated from an entry in the Cambridge
# Structural Database, then it will include bibliographic, chemical,
# crystal, experimental, refinement or atomic coordinate data resulting
# from the CCDC's data processing and validation procedures.
#
#######################################################################

data_CSD_CIF_USORUQ
_audit_creation_date 2011-08-02
_audit_creation_method CSD-ConQuest-V1
_database_code_CSD USORUQ
_database_code_depnum_ccdc_archive 'CCDC 772619'
_chemical_formula_sum 'C23 H19 N3 O3'
_chemical_formula_moiety
;
C23 H19 N3 O3
;
_journal_coden_Cambridge 16
_journal_volume 66
_journal_year 2010
_journal_page_first 9650
_journal_name_full 'Tetrahedron '
loop_
_publ_author_name
"D.K.Sreenivas"
"R.Nagarajan"
_chemical_name_systematic
;
6,12-Diethyl-3-nitro-6,12-dihydro-5H-indolo[2,3-b]phenanthridin-5-one
;
_cell_volume   3560.220
_exptl_crystal_colour 'red'
_exptl_crystal_density_diffrn 1.438
_exptl_crystal_description 'block'
_diffrn_ambient_temperature 298
#These two values have been output from a single CSD field.
_refine_ls_R_factor_gt 0.0425
_refine_ls_wR_factor_gt 0.0425
_symmetry_cell_setting monoclinic
_symmetry_space_group_name_H-M 'C 2/c'
_symmetry_Int_Tables_number 15
loop_
_symmetry_equiv_pos_site_id
_symmetry_equiv_pos_as_xyz
1 x,y,z
2 -x,y,1/2-z
3 1/2+x,1/2+y,z
4 1/2-x,1/2+y,1/2-z
5 -x,-y,-z
6 x,-y,-1/2+z
7 -1/2-x,-1/2-y,-z
8 -1/2+x,-1/2-y,-1/2+z
_cell_length_a 25.978(15)
_cell_length_b 11.634(2)
_cell_length_c 13.874(8)
_cell_angle_alpha 90
_cell_angle_beta 121.89(8)
_cell_angle_gamma 90
_cell_formula_units_Z 8
loop_
_atom_type_symbol
_atom_type_radius_bond
C 0.68
H 0.23
N 0.68
O 0.68
loop_
_atom_site_label
_atom_site_type_symbol
_atom_site_fract_x
_atom_site_fract_y
_atom_site_fract_z
C1 C 1.1026(2) 0.1633(4) 0.2345(3)
O1 O 1.28808(12) 0.2126(3) 0.4438(2)
O2 O 1.08190(11) 0.3618(3) 0.1984(2)
N1 N 1.00068(16) 0.2416(3) 0.1225(2)
C2 C 1.2036(2) 0.0937(4) 0.3558(3)
C3 C 1.01482(18) 0.0328(4) 0.1413(3)
C4 C 1.1219(2) -0.0388(3) 0.2715(3)
H1 H 1.10780 -0.11410 0.26010
C5 C 1.08023(17) 0.0510(4) 0.2164(3)
C6 C 0.9758(2) 0.1296(4) 0.0962(3)
O3 O 1.30262(13) 0.0300(3) 0.4675(2)
N2 N 0.89337(18) -0.1905(3) 0.0065(3)
N3 N 1.26917(17) 0.1136(4) 0.4285(3)
C7 C 1.0625(2) 0.2630(4) 0.1854(3)
C8 C 0.9899(2) -0.0771(4) 0.1150(3)
H2 H 1.01490 -0.14120 0.14490
C9 C 0.8896(2) 0.0046(5) -0.0006(3)
C10 C 1.1648(2) 0.1840(4) 0.3050(4)
H3 H 1.17970 0.25870 0.31720
C11 C 0.9134(2) 0.1143(4) 0.0247(3)
H4 H 0.88790 0.17770 -0.00580
C12 C 0.8284(2) -0.0387(4) -0.0716(3)
C13 C 0.9280(2) -0.0906(4) 0.0443(3)
C14 C 1.1827(2) -0.0185(4) 0.3414(3)
H5 H 1.20950 -0.07890 0.37860
C15 C 0.8327(2) -0.1588(4) -0.0639(3)
C16 C 0.91413(16) -0.3071(4) 0.0419(3)
H6 H 0.95580 -0.31310 0.06110
H7 H 0.88980 -0.35840 -0.02140
C17 C 0.96060(17) 0.3419(3) 0.0839(3)
H8 H 0.98220 0.40620 0.13360
H9 H 0.92600 0.32530 0.09050
C18 C 0.7258(2) -0.1748(5) -0.1869(4)
H10 H 0.69110 -0.21950 -0.22650
C19 C 0.7814(2) -0.2281(4) -0.1222(4)
H11 H 0.78450 -0.30780 -0.11780
C20 C 0.7207(2) -0.0555(5) -0.1941(3)
H12 H 0.68270 -0.02180 -0.23770
C21 C 0.7717(2) 0.0133(4) -0.1368(4)
H13 H 0.76820 0.09290 -0.14170
C22 C 0.91086(18) -0.3460(3) 0.1418(3)
H14 H 0.93630 -0.29790 0.20600
H15 H 0.92440 -0.42430 0.15970
H16 H 0.86980 -0.34070 0.12350
C23 C 0.93789(16) 0.3771(3) -0.0375(3)
H17 H 0.97090 0.40770 -0.04180
H18 H 0.90690 0.43450 -0.06130
H19 H 0.92140 0.31120 -0.08620
#END
