
#######################################################################
#
#                 Cambridge Crystallographic Data Centre
#                                CCDC
#
#######################################################################
#
# If this CIF has been generated from an entry in the Cambridge
# Structural Database, then it will include bibliographic, chemical,
# crystal, experimental, refinement or atomic coordinate data resulting
# from the CCDC's data processing and validation procedures.
#
#######################################################################

data_CSD_CIF_USOSUR
_audit_creation_date 2011-08-01
_audit_creation_method CSD-ConQuest-V1
_database_code_CSD USOSUR
_database_code_depnum_ccdc_archive 'CCDC 795383'
_chemical_formula_sum 'C14 H26 N2 O3'
_chemical_formula_moiety
;
C14 H26 N2 O3
;
_journal_coden_Cambridge 16
_journal_volume 66
_journal_year 2010
_journal_page_first 9733
_journal_name_full 'Tetrahedron '
loop_
_publ_author_name
"Xiao-Wei Chang"
"Qing-Chuan Han"
"Zhi-Gang Jiao"
"Lin-Hong Weng"
"Dan-Wei Zhang"
_chemical_name_systematic
;
1-((((2,2-Dimethylpropanoyl)amino)oxy)methyl)-N-isobutylcyclopropanecarboxamid
e
;
_cell_volume   1652.920
_exptl_crystal_density_diffrn 1.086
_diffrn_ambient_temperature 293
#These two values have been output from a single CSD field.
_refine_ls_R_factor_gt 0.1015
_refine_ls_wR_factor_gt 0.1015
_symmetry_cell_setting triclinic
_symmetry_space_group_name_H-M 'P -1'
_symmetry_Int_Tables_number 2
loop_
_symmetry_equiv_pos_site_id
_symmetry_equiv_pos_as_xyz
1 x,y,z
2 -x,-y,-z
_cell_length_a 10.25(3)
_cell_length_b 10.88(3)
_cell_length_c 16.30(4)
_cell_angle_alpha 90.00(4)
_cell_angle_beta 90.00(5)
_cell_angle_gamma 114.59(4)
_cell_formula_units_Z 4
loop_
_atom_type_symbol
_atom_type_radius_bond
C 0.68
H 0.23
N 0.68
O 0.68
loop_
_atom_site_label
_atom_site_type_symbol
_atom_site_fract_x
_atom_site_fract_y
_atom_site_fract_z
N1 N -0.1497(5) 0.1651(5) 0.2216(2)
N2 N 0.0909(4) 0.2608(4) 0.4146(3)
O1 O 0.0891(3) 0.2571(3) 0.23473(18)
O2 O -0.1614(3) 0.1798(3) 0.30628(16)
O3 O 0.0151(4) 0.2063(4) 0.5429(2)
C1 C -0.1484(5) 0.0888(4) 0.4363(3)
C2 C -0.2805(5) 0.0756(6) 0.4850(3)
H1 H -0.26630 0.13530 0.53150
H2 H -0.36880 0.05440 0.45490
C3 C -0.2280(6) -0.0306(6) 0.4921(3)
H3 H -0.28430 -0.11700 0.46640
H4 H -0.18180 -0.03600 0.54310
C4 C -0.1672(5) 0.0606(5) 0.3471(3)
H5 H -0.09170 0.03700 0.32660
H6 H -0.25880 -0.01460 0.33670
C5 C -0.0166(5) 0.2163(5) 0.1900(3)
C6 C -0.0104(5) 0.2153(5) 0.0967(3)
C7 C -0.1176(7) 0.0813(6) 0.0606(4)
H7 H -0.21350 0.07320 0.06930
H8 H -0.10610 0.00770 0.08720
H9 H -0.10040 0.07910 0.00290
C8 C 0.1401(6) 0.2373(7) 0.0714(3)
H10 H 0.14780 0.24230 0.01270
H11 H 0.15970 0.16330 0.09070
H12 H 0.20810 0.32010 0.09480
C9 C -0.0446(8) 0.3297(7) 0.0641(4)
H13 H 0.02230 0.41410 0.08640
H14 H -0.14020 0.31480 0.08010
H15 H -0.03760 0.33250 0.00540
C10 C -0.0086(5) 0.1898(5) 0.4691(3)
C11 C 0.2306(5) 0.3642(5) 0.4372(3)
H16 H 0.24700 0.35330 0.49480
H17 H 0.30330 0.34920 0.40610
C12 C 0.2489(9) 0.4975(8) 0.4245(8)
H18 H 0.20910 0.49930 0.47890
C13 C 0.3983(9) 0.6037(9) 0.4525(10)
H19 H 0.41180 0.69150 0.43330
H20 H 0.47190 0.58060 0.43030
H21 H 0.40340 0.60440 0.51140
C14 C 0.1677(15) 0.5605(11) 0.3906(13)
H22 H 0.09280 0.49710 0.35720
H23 H 0.22820 0.63560 0.35760
H24 H 0.12590 0.59230 0.43390
H25 H 0.073(4) 0.255(4) 0.364(3)
H26 H -0.236(5) 0.139(4) 0.193(3)
N3 N 0.0572(4) 0.8095(4) 0.2931(2)
H27 H 0.00730 0.80710 0.33590
N4 N 0.3695(4) 0.9251(4) 0.1385(2)
H28 H 0.28040 0.88620 0.15190
O4 O 0.0625(3) 0.7466(3) 0.16322(19)
O5 O 0.2033(3) 0.8943(3) 0.28961(17)
O6 O 0.5792(3) 1.1063(4) 0.1571(2)
C15 C 0.3800(4) 1.0965(4) 0.2363(3)
C16 C 0.4761(5) 1.1784(5) 0.3050(3)
H29 H 0.43290 1.17430 0.35840
H30 H 0.57380 1.18620 0.30630
C17 C 0.4374(5) 1.2487(5) 0.2391(4)
H31 H 0.51140 1.29990 0.20000
H32 H 0.37050 1.28790 0.25210
C18 C 0.2246(4) 1.0207(4) 0.2535(3)
H33 H 0.19230 1.07180 0.29080
H34 H 0.17000 1.00590 0.20310
C19 C -0.0029(5) 0.7320(4) 0.2279(3)
C20 C -0.1579(5) 0.6279(5) 0.2377(3)
C21 C -0.2461(7) 0.6774(9) 0.2903(5)
H35 H -0.20730 0.69440 0.34480
H36 H -0.34320 0.61020 0.29210
H37 H -0.24440 0.75950 0.26750
C22 C -0.1512(8) 0.5049(7) 0.2789(6)
H38 H -0.10690 0.46440 0.24240
H39 H -0.24650 0.44050 0.29190
H40 H -0.09580 0.53240 0.32850
C23 C -0.2278(6) 0.5889(7) 0.1541(3)
H41 H -0.22340 0.66830 0.12620
H42 H -0.32630 0.52640 0.16060
H43 H -0.17810 0.54740 0.12240
C24 C 0.4511(5) 1.0425(5) 0.1747(3)
C25 C 0.4220(6) 0.8603(6) 0.0784(3)
H44 H 0.38040 0.86510 0.02570
H45 H 0.52500 0.91120 0.07380
C26 C 0.3935(11) 0.7230(9) 0.0941(4)
H46 H 0.29090 0.67950 0.08120
C27 C 0.3934(15) 0.6653(12) 0.1759(5)
H47 H 0.48800 0.70690 0.19910
H48 H 0.36520 0.56970 0.17110
H49 H 0.32710 0.68170 0.21100
C28 C 0.4523(10) 0.6611(9) 0.0288(5)
H50 H 0.55370 0.71370 0.02330
H51 H 0.40600 0.66010 -0.02260
H52 H 0.43430 0.57040 0.04410
#END
