
#######################################################################
#
#                 Cambridge Crystallographic Data Centre
#                                CCDC
#
#######################################################################
#
# If this CIF has been generated from an entry in the Cambridge
# Structural Database, then it will include bibliographic, chemical,
# crystal, experimental, refinement or atomic coordinate data resulting
# from the CCDC's data processing and validation procedures.
#
#######################################################################

data_CSD_CIF_UTADAW
_audit_creation_date 2016-08-10
_audit_creation_method CSD-ConQuest-V1
_database_code_CSD UTADAW
_database_code_depnum_ccdc_archive 'CCDC 1495947'
_chemical_formula_sum 'C15 H18 N4 O4'
_chemical_formula_moiety
;
C15 H18 N4 O4
;
_journal_coden_Cambridge 16
_journal_volume 72
_journal_year 2016
_journal_page_first 6037
_journal_name_full 'Tetrahedron '
loop_
_publ_author_name
"S.Nourian"
"R.P.Lesko"
"D.A.Guthrie"
"J.P.Toscano"
_chemical_name_systematic
;
N-((4-(N-methoxyethanimidoyl)-3-methyl-5-oxo-1-phenyl-4,5-dihydro-1H-pyrazol-4
-yl)oxy)acetamide
;
_cell_volume   1620.875
_exptl_crystal_colour 'colorless'
_exptl_crystal_density_diffrn 1.304
_exptl_crystal_description 'block'
_diffrn_ambient_temperature 110
#These two values have been output from a single CSD field.
_refine_ls_R_factor_gt 0.0315
_refine_ls_wR_factor_gt 0.0315
_symmetry_cell_setting monoclinic
_symmetry_space_group_name_H-M 'C c'
_symmetry_Int_Tables_number 9
loop_
_symmetry_equiv_pos_site_id
_symmetry_equiv_pos_as_xyz
1 x,y,z
2 x,-y,1/2+z
3 1/2+x,1/2+y,z
4 1/2+x,1/2-y,1/2+z
_cell_length_a 14.9994(5)
_cell_length_b 12.1027(4)
_cell_length_c 9.3258(3)
_cell_angle_alpha 90
_cell_angle_beta 106.778(3)
_cell_angle_gamma 90
_cell_formula_units_Z 4
loop_
_atom_type_symbol
_atom_type_radius_bond
C 0.68
H 0.23
N 0.68
O 0.68
loop_
_atom_site_label
_atom_site_type_symbol
_atom_site_fract_x
_atom_site_fract_y
_atom_site_fract_z
C1 C 0.48675(15) 0.11448(18) 0.0325(2)
H1 H 0.42370 0.11270 -0.02760
C2 C 0.55820(17) 0.08642(19) -0.0274(3)
H2 H 0.54370 0.06580 -0.12980
C3 C 0.65021(17) 0.0878(2) 0.0593(3)
H3 H 0.69840 0.06880 0.01650
C4 C 0.67135(15) 0.1171(2) 0.2085(3)
H4 H 0.73440 0.11720 0.26850
C5 C 0.60162(14) 0.14618(18) 0.2717(2)
H5 H 0.61650 0.16640 0.37430
C6 C 0.50907(14) 0.14529(15) 0.1823(2)
C7 C 0.35553(13) 0.22795(15) 0.1794(2)
C8 C 0.30950(13) 0.24584(16) 0.3063(2)
C9 C 0.38400(13) 0.20062(17) 0.4390(2)
C10 C 0.37661(14) 0.19610(19) 0.5945(2)
H6 H 0.32470 0.14780 0.59750
H7 H 0.36560 0.27060 0.62690
H8 H 0.43470 0.16690 0.66160
C11 C 0.40184(13) 0.48389(16) 0.4558(2)
C12 C 0.47268(15) 0.56837(18) 0.4465(2)
H9 H 0.45080 0.64200 0.46410
H10 H 0.48200 0.56600 0.34670
H11 H 0.53170 0.55250 0.52240
C13 C 0.21819(12) 0.18350(17) 0.27205(19)
C14 C 0.12952(14) 0.23734(19) 0.1863(2)
H12 H 0.09840 0.19150 0.09980
H13 H 0.14300 0.31020 0.15170
H14 H 0.08880 0.24580 0.25110
C15 C 0.1584(2) -0.0811(2) 0.3383(4)
H15 H 0.20140 -0.12130 0.29560
H16 H 0.09890 -0.12060 0.31540
H17 H 0.18520 -0.07560 0.44710
N1 N 0.43759(11) 0.17638(15) 0.24634(17)
N2 N 0.45449(12) 0.16346(14) 0.40350(18)
N3 N 0.36810(11) 0.42432(14) 0.32829(17)
H18 H 0.3738(19) 0.448(2) 0.247(3)
N4 N 0.22810(12) 0.08378(15) 0.3178(2)
O1 O 0.32387(10) 0.25571(12) 0.04936(14)
O2 O 0.28827(9) 0.35999(11) 0.31853(14)
O3 O 0.37729(11) 0.46695(13) 0.56869(15)
O4 O 0.14352(10) 0.02681(13) 0.27550(17)
#END
