
#######################################################################
#
#                 Cambridge Crystallographic Data Centre
#                                CCDC
#
#######################################################################
#
# If this CIF has been generated from an entry in the Cambridge
# Structural Database, then it will include bibliographic, chemical,
# crystal, experimental, refinement or atomic coordinate data resulting
# from the CCDC's data processing and validation procedures.
#
#######################################################################

data_CSD_CIF_UTADEA
_audit_creation_date 2016-08-10
_audit_creation_method CSD-ConQuest-V1
_database_code_CSD UTADEA
_database_code_depnum_ccdc_archive 'CCDC 1495948'
_chemical_formula_sum 'C13 H15 N3 O3'
_chemical_formula_moiety
;
C13 H15 N3 O3
;
_journal_coden_Cambridge 16
_journal_volume 72
_journal_year 2016
_journal_page_first 6037
_journal_name_full 'Tetrahedron '
loop_
_publ_author_name
"S.Nourian"
"R.P.Lesko"
"D.A.Guthrie"
"J.P.Toscano"
_chemical_name_systematic
;
N-(3,4-dimethyl-5-oxo-1-phenyl-4,5-dihydro-1H-pyrazol-4-yl)-N-hydroxyacetamide
;
_cell_volume   1348.287
_exptl_crystal_colour 'colorless'
_exptl_crystal_density_diffrn 1.287
_exptl_crystal_description 'irregular'
_diffrn_ambient_temperature 110
_diffrn_special_details
;
twin

;
#These two values have been output from a single CSD field.
_refine_ls_R_factor_gt 0.0561
_refine_ls_wR_factor_gt 0.0561
_symmetry_cell_setting orthorhombic
_symmetry_space_group_name_H-M 'P n a 21'
_symmetry_Int_Tables_number 33
loop_
_symmetry_equiv_pos_site_id
_symmetry_equiv_pos_as_xyz
1 x,y,z
2 -x,-y,1/2+z
3 1/2+x,1/2-y,z
4 1/2-x,1/2+y,1/2+z
_cell_length_a 10.0574(8)
_cell_length_b 11.5181(9)
_cell_length_c 11.639(1)
_cell_angle_alpha 90
_cell_angle_beta 90
_cell_angle_gamma 90
_cell_formula_units_Z 4
loop_
_atom_type_symbol
_atom_type_radius_bond
C 0.68
H 0.23
N 0.68
O 0.68
loop_
_atom_site_label
_atom_site_type_symbol
_atom_site_fract_x
_atom_site_fract_y
_atom_site_fract_z
C1 C 0.5025(4) 0.1382(3) 0.1721(4)
H1 H 0.44090 0.15530 0.11260
C2 C 0.6259(4) 0.1906(4) 0.1741(5)
H2 H 0.64920 0.24370 0.11490
C3 C 0.7158(4) 0.1674(4) 0.2603(5)
H3 H 0.79930 0.20580 0.26160
C4 C 0.6838(4) 0.0873(4) 0.3455(5)
H4 H 0.74660 0.06990 0.40400
C5 C 0.5606(4) 0.0326(4) 0.3457(4)
H5 H 0.53910 -0.02200 0.40400
C6 C 0.4689(4) 0.0586(3) 0.2599(4)
C7 C 0.2490(4) 0.0057(3) 0.1760(4)
C8 C 0.1330(4) -0.0653(4) 0.2256(4)
C9 C 0.1908(5) -0.1060(4) 0.3370(4)
C10 C 0.1238(6) -0.1839(6) 0.4204(5)
H6 H 0.18160 -0.19560 0.48720
H7 H 0.10570 -0.25890 0.38390
H8 H 0.03990 -0.14860 0.44530
C11 C 0.0159(5) 0.0162(5) 0.2496(6)
H9 H -0.01100 0.05450 0.17810
H10 H 0.04270 0.07500 0.30590
H11 H -0.05890 -0.02870 0.28020
C12 C 0.1812(4) -0.2438(4) 0.1220(5)
C13 C 0.1381(6) -0.3330(5) 0.0359(6)
H12 H 0.20230 -0.39700 0.03490
H13 H 0.13360 -0.29750 -0.04050
H14 H 0.05020 -0.36290 0.05710
N1 N 0.3417(3) 0.0073(3) 0.2618(3)
N2 N 0.3052(4) -0.0607(3) 0.3587(3)
N3 N 0.0933(3) -0.1607(3) 0.1498(4)
O1 O 0.2545(3) 0.0483(3) 0.0817(3)
O2 O -0.0133(3) -0.1402(3) 0.0764(4)
H15 H -0.08240 -0.17050 0.10390
O3 O 0.2911(3) -0.2418(3) 0.1667(4)
#END
