
#######################################################################
#
#                 Cambridge Crystallographic Data Centre
#                                CCDC
#
#######################################################################
#
# If this CIF has been generated from an entry in the Cambridge
# Structural Database, then it will include bibliographic, chemical,
# crystal, experimental, refinement or atomic coordinate data resulting
# from the CCDC's data processing and validation procedures.
#
#######################################################################

data_CSD_CIF_UTAFOM
_audit_creation_date 2016-08-10
_audit_creation_method CSD-ConQuest-V1
_database_code_CSD UTAFOM
_database_code_depnum_ccdc_archive 'CCDC 1472066'
_chemical_formula_sum 'C18 H21 N3 O2'
_chemical_formula_moiety
;
C18 H21 N3 O2
;
_journal_coden_Cambridge 200
_journal_volume 117
_journal_year 2017
_journal_page_first 77
_journal_name_full 'Steroids '
loop_
_publ_author_name
"T.S.Khlebnicova"
"Y.A.Piven"
"A.V.Baranovsky"
"F.A.Lakhvich"
"S.V.Shishkina"
"D.Zicane"
"Z.Tetere"
"I.Ravina"
"V.Kumpins"
"I.Rijkure"
"I.Mierina"
"U.Peipins"
"M.Turks"
_chemical_name_systematic
;
(E)-3,6,6-Trimethyl-1-phenyl-1,5,6,7-tetrahydro- 4H-indazol-4-one O-acetyl 
oxime
;
_chemical_melting_point 446
_cell_volume   1625.463
_exptl_crystal_colour 'colorless'
_exptl_crystal_density_diffrn 1.272
_exptl_special_details
;
Melting point range 446-448K

;
_exptl_crystal_description 'block'
_diffrn_ambient_temperature 190
#These two values have been output from a single CSD field.
_refine_ls_R_factor_gt 0.0524
_refine_ls_wR_factor_gt 0.0524
_symmetry_cell_setting monoclinic
_symmetry_space_group_name_H-M 'P 21/n'
_symmetry_Int_Tables_number 14
loop_
_symmetry_equiv_pos_site_id
_symmetry_equiv_pos_as_xyz
1 x,y,z
2 1/2-x,1/2+y,1/2-z
3 -x,-y,-z
4 -1/2+x,-1/2-y,-1/2+z
_cell_length_a 12.0216(5)
_cell_length_b 8.6746(3)
_cell_length_c 15.8382(9)
_cell_angle_alpha 90
_cell_angle_beta 100.216(2)
_cell_angle_gamma 90
_cell_formula_units_Z 4
loop_
_atom_type_symbol
_atom_type_radius_bond
C 0.68
H 0.23
N 0.68
O 0.68
loop_
_atom_site_label
_atom_site_type_symbol
_atom_site_fract_x
_atom_site_fract_y
_atom_site_fract_z
O1 O 0.05636(11) 0.30281(13) 0.72045(8)
O2 O -0.00459(12) 0.19262(15) 0.83362(9)
N1 N 0.08419(13) 0.14922(16) 0.69649(10)
N2 N 0.21594(13) -0.14744(16) 0.50175(9)
C1 C 0.10322(15) 0.1495(2) 0.61878(12)
N3 N 0.21509(13) -0.23240(17) 0.5753(1)
C2 C 0.17087(15) -0.1401(2) 0.62731(12)
C3 C 0.26575(15) -0.21292(19) 0.43473(11)
C4 C 0.17297(14) -0.00383(19) 0.50794(11)
C5 C 0.14327(14) 0.00559(19) 0.58800(11)
C6 C 0.08730(16) 0.2812(2) 0.55557(12)
H1 H 0.09680 0.37730 0.58730
H2 H 0.01030 0.27840 0.52430
C7 C 0.26426(17) -0.2609(2) 0.28606(13)
H3 H 0.23220 -0.24630 0.22870
C8 C 0.16347(16) 0.12358(19) 0.44428(12)
H4 H 0.09260 0.11460 0.40430
H5 H 0.22470 0.11640 0.41200
C9 C 0.21527(16) -0.1927(2) 0.34964(12)
H6 H 0.14970 -0.13450 0.33550
C10 C 0.01903(16) 0.3047(2) 0.79697(12)
C11 C 0.36367(15) -0.3003(2) 0.45657(12)
H7 H 0.39760 -0.31190 0.51370
C12 C 0.28934(16) 0.3139(2) 0.53603(13)
H8 H 0.33900 0.31580 0.49470
H9 H 0.31320 0.23470 0.57760
H10 H 0.29170 0.41200 0.56440
C13 C 0.13090(17) 0.4072(2) 0.42409(13)
H11 H 0.13220 0.50510 0.45250
H12 H 0.05550 0.38590 0.39470
H13 H 0.18130 0.40990 0.38340
C14 C 0.16849(15) 0.28096(19) 0.49033(12)
C15 C 0.40976(16) -0.3697(2) 0.39223(13)
H14 H 0.47450 -0.42970 0.40630
C16 C 0.15756(17) -0.1942(2) 0.71457(12)
H15 H 0.18530 -0.29780 0.72310
H16 H 0.07910 -0.19150 0.71940
H17 H 0.19970 -0.12800 0.75720
C17 C 0.36041(17) -0.3505(2) 0.30701(13)
H18 H 0.39180 -0.39770 0.26400
C18 C 0.0103(2) 0.4670(2) 0.82596(14)
H19 H -0.01970 0.46810 0.87820
H20 H -0.03900 0.52390 0.78260
H21 H 0.08390 0.51350 0.83570
#END
