
#######################################################################
#
#                 Cambridge Crystallographic Data Centre
#                                CCDC
#
#######################################################################
#
# If this CIF has been generated from an entry in the Cambridge
# Structural Database, then it will include bibliographic, chemical,
# crystal, experimental, refinement or atomic coordinate data resulting
# from the CCDC's data processing and validation procedures.
#
#######################################################################

data_CSD_CIF_UTAGED
_audit_creation_date 2016-08-10
_audit_creation_method CSD-ConQuest-V1
_database_code_CSD UTAGED
_database_code_depnum_ccdc_archive 'CCDC 1474459'
_chemical_formula_sum 'C46 H63 N3 O3'
_chemical_formula_moiety
;
C46 H63 N3 O3
;
_journal_coden_Cambridge 200
_journal_volume 117
_journal_year 2017
_journal_page_first 77
_journal_name_full 'Steroids '
loop_
_publ_author_name
"T.S.Khlebnicova"
"Y.A.Piven"
"A.V.Baranovsky"
"F.A.Lakhvich"
"S.V.Shishkina"
"D.Zicane"
"Z.Tetere"
"I.Ravina"
"V.Kumpins"
"I.Rijkure"
"I.Mierina"
"U.Peipins"
"M.Turks"
_chemical_name_systematic
;
(E)-3,6,6-trimethyl-1-phenyl-6,7-dihydro-1H-imidazol-4(5H)-one 
O-(3-oxolup-20(29)-en-28-oyl) oxime
;
_cell_volume   4205.260
_exptl_crystal_density_diffrn 1.115
_diffrn_ambient_temperature 293.1
#These two values have been output from a single CSD field.
_refine_ls_R_factor_gt 0.0694
_refine_ls_wR_factor_gt 0.0694
_symmetry_cell_setting orthorhombic
_symmetry_space_group_name_H-M 'P 21 21 21'
_symmetry_Int_Tables_number 19
loop_
_symmetry_equiv_pos_site_id
_symmetry_equiv_pos_as_xyz
1 x,y,z
2 1/2-x,-y,1/2+z
3 -x,1/2+y,1/2-z
4 1/2+x,1/2-y,-z
_cell_length_a 9.1315(5)
_cell_length_b 15.3697(10)
_cell_length_c 29.963(2)
_cell_angle_alpha 90
_cell_angle_beta 90
_cell_angle_gamma 90
_cell_formula_units_Z 4
loop_
_atom_type_symbol
_atom_type_radius_bond
C 0.68
H 0.23
N 0.68
O 0.68
loop_
_atom_site_label
_atom_site_type_symbol
_atom_site_fract_x
_atom_site_fract_y
_atom_site_fract_z
O1 O 1.1780(4) 0.0438(3) 0.90653(17)
O2 O 0.1808(4) 0.41864(19) 0.84710(9)
O3 O 0.2441(3) 0.55631(18) 0.83149(8)
N1 N 0.1285(4) 0.5800(2) 0.86251(11)
N2 N -0.0535(4) 0.7741(2) 0.95946(10)
N3 N -0.1508(5) 0.7057(2) 0.95523(12)
C1 C 0.8116(5) 0.0729(2) 0.87255(13)
H1 H 0.85000 0.07770 0.84250
H2 H 0.72280 0.03840 0.87120
C2 C 0.9243(5) 0.0253(3) 0.90178(16)
H3 H 0.87930 0.01090 0.93020
H4 H 0.95150 -0.02880 0.88730
C3 C 1.0579(6) 0.0769(3) 0.91010(15)
C4 C 1.0425(5) 0.1719(3) 0.92290(13)
C5 C 0.9204(4) 0.2143(3) 0.89450(12)
H5 H 0.96060 0.21520 0.86420
C6 C 0.8929(5) 0.3104(2) 0.90531(13)
H6 H 0.83920 0.31500 0.93310
H7 H 0.98580 0.34020 0.90890
C7 C 0.8061(5) 0.3533(2) 0.86817(13)
H8 H 0.86400 0.35180 0.84100
H9 H 0.79040 0.41380 0.87590
C8 C 0.6588(4) 0.3114(2) 0.85886(11)
C9 C 0.6809(4) 0.2114(2) 0.85238(11)
H10 H 0.73990 0.20620 0.82520
C10 C 0.7736(4) 0.1641(2) 0.88973(11)
C11 C 0.5366(5) 0.1665(2) 0.84118(13)
H11 H 0.47450 0.16710 0.86750
H12 H 0.55640 0.10620 0.83380
C12 C 0.4529(5) 0.2086(2) 0.80229(13)
H13 H 0.50500 0.19730 0.77470
H14 H 0.35680 0.18220 0.80000
C13 C 0.4354(4) 0.3070(2) 0.80822(12)
H15 H 0.38150 0.31530 0.83620
C14 C 0.5867(4) 0.3505(2) 0.81492(11)
C15 C 0.5707(5) 0.4510(2) 0.81883(13)
H16 H 0.52700 0.46460 0.84750
H17 H 0.66760 0.47680 0.81830
C16 C 0.4787(4) 0.4926(3) 0.78232(13)
H18 H 0.52710 0.48560 0.75370
H19 H 0.46840 0.55440 0.78810
C17 C 0.3281(4) 0.4503(3) 0.78075(11)
C18 C 0.3466(4) 0.3520(3) 0.77208(12)
H20 H 0.40380 0.34680 0.74450
C19 C 0.1892(5) 0.3199(3) 0.76054(14)
H21 H 0.13840 0.30710 0.78860
C20 C 0.1165(6) 0.4014(3) 0.73927(17)
H22 H 0.09060 0.38980 0.70840
H23 H 0.02810 0.41670 0.75540
C21 C 0.2268(5) 0.4754(3) 0.74177(13)
H24 H 0.17820 0.53040 0.74760
H25 H 0.28160 0.48020 0.71410
C22 C 0.1760(6) 0.2411(3) 0.73064(16)
C23 C 0.0806(7) 0.1784(4) 0.7409(2)
H26 H 0.06700 0.13180 0.72150
H27 H 0.02770 0.18140 0.76740
C24 C 0.2602(7) 0.2384(4) 0.68953(17)
H28 H 0.32250 0.28860 0.68790
H29 H 0.31900 0.18670 0.68900
H30 H 0.19460 0.23820 0.66450
C25 C 1.1880(5) 0.2191(3) 0.91364(17)
H31 H 1.17880 0.27930 0.92170
H32 H 1.26460 0.19280 0.93100
H33 H 1.21140 0.21460 0.88250
C26 C 1.0158(5) 0.1754(3) 0.97409(13)
H34 H 1.00550 0.23490 0.98330
H35 H 0.92800 0.14400 0.98120
H36 H 1.09740 0.14950 0.98930
C27 C 0.6881(5) 0.1534(3) 0.93387(12)
H37 H 0.66280 0.20980 0.94540
H38 H 0.60040 0.12060 0.92850
H39 H 0.74790 0.12330 0.95520
C28 C 0.5567(5) 0.3316(3) 0.89913(12)
H40 H 0.46240 0.30570 0.89410
H41 H 0.59870 0.30800 0.92590
H42 H 0.54600 0.39340 0.90220
C29 C 0.6859(4) 0.3349(3) 0.77364(12)
H43 H 0.77920 0.36230 0.77830
H44 H 0.69980 0.27360 0.76940
H45 H 0.64030 0.35930 0.74760
C30 C 0.2422(5) 0.4688(3) 0.82358(13)
C31 C 0.1610(5) 0.6518(3) 0.88227(12)
C32 C 0.2974(5) 0.7043(3) 0.87880(14)
H46 H 0.34150 0.69400 0.84980
H47 H 0.36600 0.68450 0.90130
C33 C 0.2736(5) 0.8029(3) 0.88465(13)
C34 C 0.1956(5) 0.8205(3) 0.92938(12)
H48 H 0.26330 0.81060 0.95380
H49 H 0.16440 0.88070 0.93050
C35 C 0.0670(5) 0.7628(3) 0.93445(12)
C36 C -0.0844(5) 0.6521(3) 0.92661(15)
C37 C 0.0492(5) 0.6845(3) 0.91282(12)
C38 C 0.4210(5) 0.8491(3) 0.88487(18)
H50 H 0.47960 0.82740 0.90900
H51 H 0.47030 0.83870 0.85710
H52 H 0.40600 0.91050 0.88860
C39 C 0.1800(6) 0.8374(3) 0.84623(13)
H53 H 0.08710 0.80820 0.84610
H54 H 0.16490 0.89880 0.85000
H55 H 0.22930 0.82700 0.81840
C40 C -0.1572(6) 0.5679(3) 0.91466(18)
H56 H -0.09680 0.53660 0.89390
H57 H -0.17060 0.53360 0.94110
H58 H -0.25070 0.57950 0.90130
C41 C -0.0984(5) 0.8468(3) 0.98561(12)
C42 C 0.0014(5) 0.8891(3) 1.01227(13)
H59 H 0.09810 0.87030 1.01390
C43 C -0.0462(7) 0.9607(3) 1.03672(15)
H60 H 0.02110 0.99200 1.05360
C44 C -0.1881(7) 0.9857(3) 1.03650(17)
H61 H -0.21830 1.03210 1.05410
C45 C -0.2873(6) 0.9424(3) 1.01028(16)
H62 H -0.38450 0.96050 1.00950
C46 C -0.2427(6) 0.8718(3) 0.98497(14)
H63 H -0.31010 0.84150 0.96770
#END
