
#######################################################################
#
#                 Cambridge Crystallographic Data Centre
#                                CCDC
#
#######################################################################
#
# If this CIF has been generated from an entry in the Cambridge
# Structural Database, then it will include bibliographic, chemical,
# crystal, experimental, refinement or atomic coordinate data resulting
# from the CCDC's data processing and validation procedures.
#
#######################################################################

data_CSD_CIF_UTILEQ
_audit_creation_date 2016-08-11
_audit_creation_method CSD-ConQuest-V1
_database_code_CSD UTILEQ
_database_code_depnum_ccdc_archive 'CCDC 1457757'
_chemical_formula_sum 'C65 H68 N4 O5'
_chemical_formula_moiety
;
C65 H68 N4 O5
;
_journal_coden_Cambridge 35
_journal_volume 81
_journal_year 2016
_journal_page_first 6832
_journal_name_full 'J.Org.Chem. '
loop_
_publ_author_name
"T.Ikeda"
"T.Iijima"
"Ryo Sekiya"
"O.Takahashi"
"T.Haino"
_chemical_name_systematic
;
3,6-bis(3-(4-(decyloxy)phenyl)-1,2-oxazol-5-yl)-9-(4-(5-phenyl-1,2-oxazol-3-yl
)phenyl)-9H-carbazole
;
_cell_volume   2632.702
_exptl_crystal_colour 'colorless'
_exptl_crystal_density_diffrn 1.243
_exptl_crystal_description 'needle'
_diffrn_ambient_temperature 123
_refine_special_details
;
C51B,C52B,C54B,C55B and C51A,C52A,C54A,C55A disordered over two sites with 
occupancies 0.503:0.497.
;
#These two values have been output from a single CSD field.
_refine_ls_R_factor_gt 0.0623
_refine_ls_wR_factor_gt 0.0623
_symmetry_cell_setting triclinic
_symmetry_space_group_name_H-M 'P -1'
_symmetry_Int_Tables_number 2
loop_
_symmetry_equiv_pos_site_id
_symmetry_equiv_pos_as_xyz
1 x,y,z
2 -x,-y,-z
_cell_length_a 5.3511(9)
_cell_length_b 22.840(4)
_cell_length_c 23.657(4)
_cell_angle_alpha 66.346(2)
_cell_angle_beta 83.962(2)
_cell_angle_gamma 89.040(2)
_cell_formula_units_Z 2
loop_
_atom_type_symbol
_atom_type_radius_bond
C 0.68
H 0.23
N 0.68
O 0.68
loop_
_atom_site_label
_atom_site_type_symbol
_atom_site_fract_x
_atom_site_fract_y
_atom_site_fract_z
C1 C 0.6283(9) 0.3800(2) -0.4974(2)
H1 H 0.66750 0.39180 -0.54070
C2 C 0.4403(9) 0.4097(2) -0.4751(2)
H2 H 0.34920 0.44230 -0.50370
C3 C 0.3804(8) 0.3929(2) -0.41109(19)
C4 C 0.5164(8) 0.3463(2) -0.36885(19)
H3 H 0.48040 0.33520 -0.32560
C5 C 0.7056(8) 0.3162(2) -0.39095(18)
C6 C 0.7581(8) 0.3325(2) -0.45498(19)
C7 C 1.0304(8) 0.2550(2) -0.40727(19)
C8 C 1.2197(8) 0.2109(2) -0.39302(19)
H4 H 1.31660 0.20210 -0.42460
C9 C 1.2634(8) 0.1803(2) -0.33168(19)
H5 H 1.39570 0.15080 -0.32120
C10 C 1.1172(8) 0.1915(2) -0.28428(19)
C11 C 0.9250(8) 0.2353(2) -0.29938(19)
H6 H 0.82490 0.24310 -0.26760
C12 C 0.8803(8) 0.2674(2) -0.36089(18)
C13 C -0.1164(8) 0.4657(2) -0.3446(2)
C14 C -0.2956(8) 0.4806(2) -0.3010(2)
C15 C -0.2835(9) 0.4530(2) -0.2383(2)
H7 H -0.15770 0.42270 -0.22220
C16 C -0.4499(9) 0.4680(2) -0.1977(2)
H8 H -0.43960 0.44730 -0.15430
C17 C -0.6301(8) 0.5127(2) -0.2195(2)
C18 C -0.6456(11) 0.5404(3) -0.2818(2)
H9 H -0.76990 0.57110 -0.29800
C19 C -0.4807(11) 0.5238(3) -0.3214(2)
H10 H -0.49620 0.54310 -0.36470
C20 C 1.1612(8) 0.1598(2) -0.21931(19)
C21 C 1.0142(8) 0.14983(19) -0.16578(19)
H11 H 0.84430 0.16150 -0.16140
C22 C 1.1681(8) 0.11827(19) -0.11767(18)
C23 C 1.1038(8) 0.09682(19) -0.05012(18)
C24 C 0.8826(8) 0.1141(2) -0.02525(19)
H12 H 0.76960 0.14110 -0.05200
C25 C 0.8263(8) 0.0920(2) 0.03830(19)
H13 H 0.67500 0.10430 0.05490
C26 C 0.9883(8) 0.0523(2) 0.07802(19)
C27 C 1.2094(8) 0.0348(2) 0.05429(19)
H14 H 1.32220 0.00790 0.08120
C28 C 1.2645(8) 0.0573(2) -0.00964(19)
H15 H 1.41660 0.04520 -0.02620
C29 C -0.9723(9) 0.5715(2) -0.1958(2)
H16 H -1.08290 0.56070 -0.22150
H17 H -0.89250 0.61420 -0.22100
C30 C -1.1220(9) 0.5718(2) -0.1385(2)
H18 H -1.18100 0.52750 -0.11150
H19 H -1.27230 0.59790 -0.15070
C31 C -0.9763(9) 0.5978(2) -0.1016(2)
H20 H -0.92230 0.64250 -0.12830
H21 H -0.82290 0.57260 -0.09080
C32 C -1.1230(9) 0.5963(2) -0.0422(2)
H22 H -1.28800 0.61580 -0.05200
H23 H -1.15430 0.55120 -0.01260
C33 C -0.9858(9) 0.6316(2) -0.0116(2)
H24 H -0.82250 0.61120 -0.00130
H25 H -0.94980 0.67610 -0.04200
C34 C -1.1257(9) 0.6331(2) 0.0467(2)
H26 H -1.15420 0.58880 0.07820
H27 H -1.29210 0.65200 0.03710
C35 C -0.9849(9) 0.6716(3) 0.0736(2)
H28 H -0.81970 0.65210 0.08330
H29 H -0.95270 0.71540 0.04120
C36 C -1.1158(9) 0.6764(2) 0.1313(2)
H30 H -0.99410 0.69400 0.14970
H31 H -1.16710 0.63280 0.16200
C37 C -1.3465(10) 0.7179(2) 0.1207(2)
H32 H -1.46770 0.70140 0.10140
H33 H -1.29580 0.76210 0.09160
C38 C -1.4744(10) 0.7187(2) 0.1812(2)
H34 H -1.53180 0.67530 0.20940
H35 H -1.61900 0.74670 0.17240
H36 H -1.35470 0.73470 0.20060
C39 C 1.1023(8) 0.0024(2) 0.18186(18)
H37 H 1.25820 0.02930 0.16940
H38 H 1.14320 -0.03950 0.18060
C40 C 0.9941(9) -0.0065(2) 0.24643(18)
H39 H 0.83340 -0.03130 0.25740
H40 H 0.95840 0.03580 0.24730
C41 C 1.1740(8) -0.0413(2) 0.29430(18)
H41 H 1.19110 -0.08560 0.29720
H42 H 1.34180 -0.01980 0.27990
C42 C 1.0887(9) -0.0433(2) 0.35854(19)
H43 H 0.92240 -0.06560 0.37320
H44 H 1.06790 0.00100 0.35540
C43 C 1.2699(9) -0.0768(3) 0.4064(2)
H45 H 1.44060 -0.05760 0.38980
H46 H 1.27630 -0.12240 0.41310
C44 C 1.1962(9) -0.0722(3) 0.4684(2)
H47 H 1.17100 -0.02670 0.46090
H48 H 1.03360 -0.09550 0.48690
C45 C 1.3876(10) -0.0989(3) 0.5151(2)
H49 H 1.55440 -0.07880 0.49540
H50 H 1.39990 -0.14540 0.52620
C46 C 1.3198(10) -0.0874(3) 0.5751(2)
H51 H 1.30470 -0.04080 0.56360
H52 H 1.15360 -0.10790 0.59480
C47 C 1.5063(12) -0.1124(3) 0.6211(2)
H53 H 1.67220 -0.09150 0.60160
H54 H 1.52260 -0.15880 0.63240
C48 C 1.4358(12) -0.1012(3) 0.6791(2)
H55 H 1.43250 -0.05520 0.66870
H56 H 1.55970 -0.12070 0.70850
H57 H 1.26910 -0.12060 0.69800
C49 C 1.0308(9) 0.2908(2) -0.52261(19)
C50 C 1.1781(8) 0.2838(2) -0.63667(18)
C51 C 1.2606(9) 0.2780(2) -0.69553(19)
C52 C 1.1269(8) 0.2528(2) -0.72952(19)
H58 H 0.95730 0.23740 -0.72010
C53 C 1.2873(8) 0.2550(2) -0.77772(18)
C54 C 1.2742(8) 0.2358(2) -0.82933(18)
C55 C 1.0700(9) 0.1991(2) -0.8293(2)
H59 H 0.93820 0.18770 -0.79630
C56 C 1.0565(9) 0.1791(2) -0.8768(2)
H60 H 0.91640 0.15380 -0.87610
C57 C 1.2456(9) 0.1959(2) -0.9251(2)
H61 H 1.23590 0.18230 -0.95790
C58 C 1.4471(9) 0.2320(2) -0.9257(2)
H62 H 1.57870 0.24340 -0.95880
C59 C 1.4599(9) 0.2523(2) -0.87802(19)
H63 H 1.59960 0.27800 -0.87920
C60 C 0.1799(8) 0.4243(2) -0.38858(19)
C61 C 0.0641(8) 0.4173(2) -0.3327(2)
H64 H 0.09710 0.38630 -0.29340
N1 N 0.9521(7) 0.29459(17) -0.46508(15)
N2 N -0.1097(9) 0.4998(2) -0.40377(18)
N3 N 1.3946(7) 0.10910(17) -0.14020(15)
N4 N 1.4891(8) 0.2953(2) -0.72209(17)
O1 O 0.0770(7) 0.47391(16) -0.43243(14)
O2 O -0.7839(6) 0.52428(14) -0.17565(13)
O3 O 1.3903(5) 0.13531(14) -0.20574(12)
O4 O 0.9150(5) 0.03322(14) 0.14036(12)
O5 O 1.5073(6) 0.28112(17) -0.77534(14)
C62 C 1.1268(16) 0.3480(4) -0.5750(4)
H65 H 1.14330 0.38750 -0.57110
C63 C 1.1930(16) 0.3433(4) -0.6307(4)
H66 H 1.25010 0.38060 -0.66610
C64 C 1.0773(16) 0.2319(4) -0.5849(4)
H67 H 1.05430 0.19240 -0.58840
C65 C 1.0080(17) 0.2354(4) -0.5281(4)
H68 H 0.94460 0.19830 -0.49320
C66? C 1.2827(17) 0.2872(4) -0.5407(4)
H69? H 1.40430 0.28730 -0.51420
C67? C 1.3610(17) 0.2833(4) -0.5970(4)
H70? H 1.53440 0.28040 -0.60880
C68? C 0.9331(18) 0.2838(4) -0.6179(4)
H71? H 0.81210 0.28190 -0.64380
C69? C 0.8532(17) 0.2865(4) -0.5615(4)
H72? H 0.67850 0.28560 -0.54870
#END
