
#######################################################################
#
#                 Cambridge Crystallographic Data Centre
#                                CCDC
#
#######################################################################
#
# If this CIF has been generated from an entry in the Cambridge
# Structural Database, then it will include bibliographic, chemical,
# crystal, experimental, refinement or atomic coordinate data resulting
# from the CCDC's data processing and validation procedures.
#
#######################################################################

data_CSD_CIF_UTOCUD
_audit_creation_date 2016-08-11
_audit_creation_method CSD-ConQuest-V1
_database_code_CSD UTOCUD
_database_code_depnum_ccdc_archive 'CCDC 1434068'
_chemical_formula_sum 'C21 H22 N2 O4'
_chemical_formula_moiety
;
C21 H22 N2 O4
;
_journal_coden_Cambridge 1336
_journal_volume 18
_journal_year 2016
_journal_page_first 3046
_journal_name_full 'Org.Lett. '
loop_
_publ_author_name
"R.Gurubrahamam"
"Yan ming Chen"
"Wan-Yun Huang"
"Yu-Te Chan"
"Hsiang-Kai Chang"
"Ming-Kang Tsai"
"Kwunmin Chen"
_chemical_name_systematic
;
ethyl 5-methyl-3-nitro-1,4-diphenyl-1,2,3,4-tetrahydropyridine-2-carboxylate
;
_cell_volume    969.395
_exptl_crystal_colour 'pale brown'
_exptl_crystal_density_diffrn 1.255
_exptl_crystal_description 'prism'
_diffrn_ambient_temperature 200
#These two values have been output from a single CSD field.
_refine_ls_R_factor_gt 0.0439
_refine_ls_wR_factor_gt 0.0439
_symmetry_cell_setting triclinic
_symmetry_space_group_name_H-M 'P 1'
_symmetry_Int_Tables_number 1
loop_
_symmetry_equiv_pos_site_id
_symmetry_equiv_pos_as_xyz
1 x,y,z
_cell_length_a 9.1177(5)
_cell_length_b 9.4662(5)
_cell_length_c 13.0980(6)
_cell_angle_alpha 73.993(3)
_cell_angle_beta 70.653(3)
_cell_angle_gamma 67.249(3)
_cell_formula_units_Z 2
loop_
_atom_type_symbol
_atom_type_radius_bond
C 0.68
H 0.23
N 0.68
O 0.68
loop_
_atom_site_label
_atom_site_type_symbol
_atom_site_fract_x
_atom_site_fract_y
_atom_site_fract_z
C1 C 0.5956(3) 0.4342(3) 0.35531(17)
H1 H 0.71120 0.36620 0.35510
C2 C 0.5228(3) 0.3490(3) 0.31211(18)
H2 H 0.40020 0.39370 0.33500
C3 C 0.5725(3) 0.1759(3) 0.35798(19)
C4 C 0.4573(3) 0.1040(3) 0.4180(2)
H3 H 0.34400 0.16390 0.43360
C5 C 0.5050(4) -0.0556(3) 0.4561(2)
H4 H 0.42410 -0.10380 0.49690
C6 C 0.6686(4) -0.1436(3) 0.4349(2)
H5 H 0.70090 -0.25240 0.46120
C7 C 0.7859(4) -0.0734(3) 0.3754(2)
H6 H 0.89930 -0.13330 0.36150
C8 C 0.7374(3) 0.0851(3) 0.3362(2)
H7 H 0.81830 0.13250 0.29360
C9 C 0.5772(3) 0.3761(3) 0.18681(18)
C10 C 0.5220(4) 0.2947(3) 0.1303(2)
H8 H 0.45580 0.23450 0.18530
H9 H 0.61850 0.22460 0.08700
H10 H 0.45590 0.37180 0.08160
C11 C 0.6680(3) 0.4663(3) 0.13016(18)
H11 H 0.70840 0.46800 0.05320
C12 C 0.8398(3) 0.6165(3) 0.12183(18)
C13 C 0.9739(3) 0.5341(3) 0.0466(2)
H12 H 0.97460 0.44140 0.03140
C14 C 1.1060(4) 0.5892(5) -0.0055(2)
H13 H 1.19650 0.53410 -0.05710
C15 C 1.1077(4) 0.7227(5) 0.0168(3)
H14 H 1.19960 0.75810 -0.01810
C16 C 0.9749(4) 0.8041(4) 0.0900(3)
H15 H 0.97520 0.89660 0.10490
C17 C 0.8409(3) 0.7531(3) 0.1421(2)
H16 H 0.74960 0.81120 0.19180
C18 C 0.6049(3) 0.5913(3) 0.28311(18)
H17 H 0.65810 0.63700 0.31540
C19 C 0.4329(3) 0.7041(3) 0.27906(19)
C20 C 0.2746(4) 0.9226(4) 0.1796(3)
H18 H 0.22340 0.98240 0.24080
H19 H 0.20130 0.86660 0.18180
C21 C 0.2986(5) 1.0286(4) 0.0736(3)
H20 H 0.19190 1.10370 0.06450
H21 H 0.34930 0.96840 0.01360
H22 H 0.37040 1.08410 0.07240
N1 N 0.5077(2) 0.4571(2) 0.47305(15)
N2 N 0.7083(2) 0.5588(2) 0.17581(15)
O1 O 0.5526(3) 0.5325(2) 0.51200(14)
O2 O 0.4045(2) 0.3941(2) 0.52373(14)
O3 O 0.3113(2) 0.6968(2) 0.34944(16)
O4 O 0.4344(2) 0.8127(2) 0.19022(15)
C22 C 0.7250(3) 0.6516(3) 0.72883(18)
H23 H 0.68180 0.72560 0.66630
C23 C 0.8380(3) 0.7157(3) 0.75281(18)
H24 H 0.86940 0.65180 0.82180
C24 C 0.7564(3) 0.8839(3) 0.76925(19)
C25 C 0.6845(4) 1.0008(3) 0.6933(2)
H25 H 0.68540 0.97750 0.62700
C26 C 0.6107(4) 1.1527(3) 0.7138(3)
H26 H 0.55900 1.23200 0.66210
C27 C 0.6119(4) 1.1890(4) 0.8079(3)
H27 H 0.55900 1.29240 0.82230
C28 C 0.6898(5) 1.0754(4) 0.8806(3)
H28 H 0.69610 1.10090 0.94390
C29 C 0.7590(4) 0.9245(3) 0.8630(2)
H29 H 0.80960 0.84620 0.91570
C30 C 0.9925(3) 0.6944(3) 0.6595(2)
C31 C 1.1113(4) 0.7707(4) 0.6565(3)
H30 H 1.06590 0.83060 0.71660
H31 H 1.12940 0.84040 0.58610
H32 H 1.21600 0.69080 0.66480
C32 C 1.0276(3) 0.6070(3) 0.58475(19)
H33 H 1.12230 0.60520 0.52540
C33 C 0.9714(3) 0.4364(3) 0.50313(18)
C34 C 1.0364(3) 0.4993(3) 0.39526(19)
H34 H 1.05580 0.59540 0.38050
C35 C 1.0725(3) 0.4218(3) 0.3098(2)
H35 H 1.11640 0.46570 0.23680
C36 C 1.0459(3) 0.2824(4) 0.3291(2)
H36 H 1.07090 0.23030 0.27000
C37 C 0.9821(3) 0.2186(3) 0.4359(2)
H37 H 0.96390 0.12200 0.44960
C38 C 0.9447(3) 0.2937(3) 0.5227(2)
H38 H 0.90110 0.24870 0.59540
C39 C 0.8175(3) 0.4925(3) 0.69180(18)
H39 H 0.73710 0.45450 0.68000
C40 C 0.8992(3) 0.3740(3) 0.78065(19)
C41 C 1.1247(5) 0.1535(5) 0.8162(3)
H40 H 1.17460 0.20140 0.84820
H41 H 1.04810 0.10760 0.87650
C42 C 1.2514(5) 0.0346(4) 0.7562(4)
H42 H 1.31240 -0.04620 0.80620
H43 H 1.32690 0.08120 0.69720
H44 H 1.20060 -0.01150 0.72450
N3 N 0.5771(2) 0.6417(2) 0.82453(17)
N4 N 0.9334(2) 0.5175(2) 0.58816(15)
O5 O 0.4829(2) 0.5896(3) 0.80968(19)
O6 O 0.5559(2) 0.6897(2) 0.90689(14)
O7 O 0.8373(3) 0.3748(2) 0.87714(14)
O8 O 1.0363(2) 0.2708(2) 0.73847(15)
#END
