
#######################################################################
#
#                 Cambridge Crystallographic Data Centre
#                                CCDC
#
#######################################################################
#
# If this CIF has been generated from an entry in the Cambridge
# Structural Database, then it will include bibliographic, chemical,
# crystal, experimental, refinement or atomic coordinate data resulting
# from the CCDC's data processing and validation procedures.
#
#######################################################################

data_CSD_CIF_UVAYUM
_audit_creation_date 2011-09-06
_audit_creation_method CSD-ConQuest-V1
_database_code_CSD UVAYUM
_database_code_depnum_ccdc_archive 'CCDC 802266'
_chemical_formula_sum 'C21 H21 N1 O5'
_chemical_formula_moiety
;
C21 H21 N1 O5
;
_journal_coden_Cambridge 1336
_journal_volume 13
_journal_year 2011
_journal_page_first 1278
_journal_name_full 'Org.Lett. '
loop_
_publ_author_name
"Bor-Cherng Hong"
"R.Y.Nimje"
"Cheng-Wei Lin"
"Ju-Hsiou Liao"
_chemical_name_systematic
;
4a-(Hydroxymethyl)-6-nitro-5,7-diphenylhexahydrocyclopenta[c]pyran-3(1H)-one
;
_cell_volume   1830.593
_exptl_crystal_colour 'colorless'
_exptl_crystal_density_diffrn 1.333
_exptl_crystal_description 'rod-like'
_diffrn_ambient_temperature 294
_refine_special_details
;
The nitro O atoms are disordered over two sites with occupancies of 
;
#These two values have been output from a single CSD field.
_refine_ls_R_factor_gt 0.0699
_refine_ls_wR_factor_gt 0.0699
_symmetry_cell_setting monoclinic
_symmetry_space_group_name_H-M 'P 21'
_symmetry_Int_Tables_number 4
loop_
_symmetry_equiv_pos_site_id
_symmetry_equiv_pos_as_xyz
1 x,y,z
2 -x,1/2+y,-z
_cell_length_a 11.5628(10)
_cell_length_b 8.5095(7)
_cell_length_c 18.6080(16)
_cell_angle_alpha 90
_cell_angle_beta 91.064(2)
_cell_angle_gamma 90
_cell_formula_units_Z 4
loop_
_atom_type_symbol
_atom_type_radius_bond
C 0.68
H 0.23
N 0.68
O 0.68
loop_
_atom_site_label
_atom_site_type_symbol
_atom_site_fract_x
_atom_site_fract_y
_atom_site_fract_z
N1 N 0.1490(2) 0.6598(3) 0.71437(14)
O1 O -0.23028(18) 1.0784(3) 0.77485(13)
H1 H -0.28780 1.03670 0.79160
O2 O -0.1288(2) 1.4154(3) 0.73957(13)
O3 O 0.2353(10) 0.7116(16) 0.6903(8)
O4 O 0.1407(11) 0.5261(14) 0.7317(18)
O5 O -0.0146(2) 1.2892(3) 0.81597(13)
C1 C 0.0559(2) 0.7702(3) 0.74004(14)
H2 H -0.01270 0.71020 0.75360
C2 C 0.0234(2) 0.8911(3) 0.68218(14)
H3 H 0.09520 0.94120 0.66700
C3 C -0.0383(2) 0.8315(3) 0.61527(15)
C4 C -0.0210(3) 0.9102(4) 0.55090(16)
H4 H 0.03310 0.99090 0.54870
C5 C -0.0848(5) 0.8679(6) 0.48958(19)
H5 H -0.07430 0.92240 0.44690
C6 C -0.1623(4) 0.7476(6) 0.4916(2)
H6 H -0.20480 0.72040 0.45060
C7 C -0.1772(3) 0.6675(6) 0.5541(2)
H7 H -0.22970 0.58480 0.55540
C8 C -0.1153(3) 0.7076(4) 0.61535(17)
H8 H -0.12560 0.65040 0.65730
C9 C -0.0447(2) 1.0151(3) 0.72663(14)
C10 C -0.1725(2) 0.9700(3) 0.73098(17)
H9 H -0.20740 0.96990 0.68320
H10 H -0.17940 0.86520 0.75090
C11 C -0.0351(2) 1.1825(3) 0.69674(15)
H11 H 0.04350 1.20000 0.68110
H12 H -0.08610 1.19280 0.65510
C12 C -0.0652(3) 1.3047(4) 0.75023(18)
C13 C 0.0678(3) 1.1601(4) 0.82414(17)
H13 H 0.09510 1.15470 0.87370
H14 H 0.13400 1.17900 0.79400
C14 C 0.0119(2) 1.0068(3) 0.80329(14)
H15 H -0.04860 0.98320 0.83790
C15 C 0.0986(2) 0.8690(4) 0.80328(14)
H16 H 0.17450 0.91170 0.79100
C16 C 0.1111(3) 0.7893(4) 0.87567(15)
C17 C 0.0270(3) 0.6927(5) 0.90294(19)
H17 H -0.03820 0.66910 0.87500
C18 C 0.0381(4) 0.6307(6) 0.9709(2)
H18 H -0.01920 0.56490 0.98830
C19 C 0.1315(5) 0.6648(6) 1.0127(2)
H19 H 0.13770 0.62540 1.05920
C20 C 0.2160(5) 0.7567(6) 0.9861(2)
H20 H 0.28100 0.77870 1.01460
C21 C 0.2080(3) 0.8184(5) 0.91767(18)
H21 H 0.26780 0.87960 0.90000
O6 O 0.72216(17) 0.5514(3) 0.83536(12)
H22 H 0.77430 0.51750 0.81050
O7 O 0.6094(2) 0.8877(3) 0.83705(13)
O8 O 0.2785(2) 0.2150(3) 0.68086(15)
O9 O 0.3791(3) 0.0249(4) 0.7157(2)
O10 O 0.59684(18) 0.7931(3) 0.72702(12)
N2 N 0.3666(2) 0.1615(4) 0.70520(13)
C22 C 0.4628(2) 0.2708(3) 0.72695(14)
H23 H 0.53170 0.21030 0.74100
C23 C 0.4278(2) 0.3790(3) 0.78845(13)
H24 H 0.35870 0.43570 0.77160
C24 C 0.3973(2) 0.3050(3) 0.85980(14)
C25 C 0.4552(3) 0.1761(4) 0.88826(17)
H25 H 0.51300 0.12830 0.86190
C26 C 0.4284(4) 0.1174(5) 0.9551(2)
H26 H 0.46840 0.03110 0.97350
C27 C 0.3430(4) 0.1861(5) 0.99403(18)
H27 H 0.32460 0.14640 1.03900
C28 C 0.2850(3) 0.3125(5) 0.96697(18)
H28 H 0.22750 0.35990 0.99370
C29 C 0.3109(3) 0.3704(4) 0.90047(15)
H29 H 0.26940 0.45560 0.88230
C30 C 0.4925(2) 0.3871(4) 0.66713(14)
H30 H 0.42030 0.43600 0.65010
C31 C 0.5628(2) 0.5131(3) 0.70982(14)
H31 H 0.64530 0.48870 0.70620
C32 C 0.5421(3) 0.6764(4) 0.68104(16)
H32 H 0.57280 0.68430 0.63300
H33 H 0.45950 0.69640 0.67800
C33 C 0.5695(3) 0.7888(4) 0.79690(18)
C34 C 0.4899(2) 0.6606(3) 0.81838(15)
H34 H 0.41260 0.68360 0.80010
H35 H 0.48690 0.65650 0.87040
C35 C 0.5280(2) 0.5000(3) 0.78995(14)
C36 C 0.6311(2) 0.4426(3) 0.83603(15)
H36 H 0.60670 0.42670 0.88510
H37 H 0.65790 0.34250 0.81770
C37 C 0.5550(3) 0.3267(4) 0.60274(15)
C38 C 0.5330(4) 0.3949(5) 0.53637(17)
H38 H 0.47400 0.46860 0.53100
C39 C 0.5994(5) 0.3530(7) 0.4777(2)
H39 H 0.58590 0.40140 0.43350
C40 C 0.6828(5) 0.2431(8) 0.4841(2)
H40 H 0.72600 0.21460 0.44450
C41 C 0.7028(4) 0.1763(9) 0.5471(3)
H41 H 0.76030 0.10030 0.55120
C42 C 0.6400(3) 0.2165(6) 0.6075(2)
H42 H 0.65630 0.16780 0.65120
O11? O 0.2414(11) 0.701(2) 0.7088(15)
O12? O 0.1160(14) 0.533(3) 0.6886(15)
#END
