
#######################################################################
#
#                 Cambridge Crystallographic Data Centre
#                                CCDC
#
#######################################################################
#
# If this CIF has been generated from an entry in the Cambridge
# Structural Database, then it will include bibliographic, chemical,
# crystal, experimental, refinement or atomic coordinate data resulting
# from the CCDC's data processing and validation procedures.
#
#######################################################################

data_CSD_CIF_UVAZUN
_audit_creation_date 2011-09-06
_audit_creation_method CSD-ConQuest-V1
_database_code_CSD UVAZUN
_database_code_depnum_ccdc_archive 'CCDC 837751'
_chemical_formula_sum 'C44 H26 N6 O1'
_chemical_formula_moiety
;
C44 H26 N6 O1
;
_journal_coden_Cambridge 1336
_journal_volume 13
_journal_year 2011
_journal_page_first 1322
_journal_name_full 'Org.Lett. '
loop_
_publ_author_name
"J.Akhigbe"
"M.Zeller"
"C.Brockner"
_chemical_name_systematic
;
27,32-Diphenyl-9,12,15,36,37,38-hexa-azanonacyclo-[31.2.1.1^23,26^.1^28,31^.0^
2,11^.0^3,8^.0^10,14^.0^13,22^.0^16,21^]-octatriaconta-1,3,5,7,10(14),11,13(22
),16,18,20,23,25,27,29,31(37),32,34-heptadecaen-9-oxide
;
_cell_volume   6159.099
_exptl_crystal_colour 'black'
_exptl_crystal_density_diffrn 1.412
_exptl_crystal_description 'plate'
_diffrn_ambient_temperature 100
_refine_special_details
;
An O atom and one half of a fragment are disordered over two sites with 
occupancies of 0.732:0.268 and 0.522:0.478.
;
#These two values have been output from a single CSD field.
_refine_ls_R_factor_gt 0.0692
_refine_ls_wR_factor_gt 0.0692
_symmetry_cell_setting monoclinic
_symmetry_space_group_name_H-M 'P 21/c'
_symmetry_Int_Tables_number 14
loop_
_symmetry_equiv_pos_site_id
_symmetry_equiv_pos_as_xyz
1 x,y,z
2 -x,1/2+y,1/2-z
3 -x,-y,-z
4 x,-1/2-y,-1/2+z
_cell_length_a 25.595(6)
_cell_length_b 9.572(2)
_cell_length_c 25.369(6)
_cell_angle_alpha 90
_cell_angle_beta 97.710(4)
_cell_angle_gamma 90
_cell_formula_units_Z 8
loop_
_atom_type_symbol
_atom_type_radius_bond
C 0.68
H 0.23
N 0.68
O 0.68
loop_
_atom_site_label
_atom_site_type_symbol
_atom_site_fract_x
_atom_site_fract_y
_atom_site_fract_z
C1 C 0.10325(11) 0.2322(3) 0.49284(11)
C2 C 0.04821(11) 0.2202(4) 0.49671(11)
H1 H 0.02930 0.27040 0.52040
C3 C 0.02779(11) 0.1234(3) 0.46027(11)
H2 H -0.00800 0.09450 0.45400
C4 C 0.0692(1) 0.0729(3) 0.4331(1)
C5 C 0.06455(11) -0.0288(3) 0.39380(11)
C6 C 0.10738(11) -0.0904(3) 0.37158(11)
C7 C 0.10142(12) -0.1837(4) 0.32691(12)
H3 H 0.06910 -0.21600 0.30800
C8 C 0.15022(12) -0.2168(4) 0.31672(12)
H4 H 0.15900 -0.27610 0.28920
C9 C 0.18650(11) -0.1451(3) 0.35570(11)
C10 C 0.24162(11) -0.1589(3) 0.36025(11)
C11 C 0.27745(10) -0.1100(3) 0.40276(11)
C12 C 0.33337(10) -0.1239(3) 0.41046(11)
H5 H 0.35410 -0.16360 0.38590
C13 C 0.35193(11) -0.0708(3) 0.45896(11)
H6 H 0.38780 -0.06810 0.47460
C14 C 0.30806(10) -0.0199(3) 0.48210(11)
C15 C 0.30777(10) 0.0518(3) 0.53162(11)
C16 C 0.26794(10) 0.1440(3) 0.54118(10)
C17 C 0.27408(10) 0.2274(3) 0.58904(10)
C18 C 0.22683(10) 0.3100(3) 0.58538(11)
C19 C 0.19459(10) 0.2652(3) 0.5373(1)
C20 C 0.14197(11) 0.3084(3) 0.52721(10)
C21 C 0.01017(11) -0.0767(3) 0.37325(11)
C22 C -0.02797(11) 0.0197(4) 0.35228(11)
H7 H -0.01920 0.11610 0.35150
C23 C -0.07878(12) -0.0241(4) 0.33242(12)
H8 H -0.10440 0.04200 0.31780
C24 C -0.09162(12) -0.1635(4) 0.33417(13)
H9 H -0.12630 -0.19360 0.32120
C25 C -0.05430(12) -0.2592(4) 0.35462(12)
H10 H -0.06340 -0.35540 0.35550
C26 C -0.00348(12) -0.2169(4) 0.37408(11)
H11 H 0.02200 -0.28410 0.38800
C27 C 0.26335(10) -0.2361(3) 0.31691(11)
C28 C 0.25520(11) -0.1826(3) 0.26511(11)
H12 H 0.23630 -0.09770 0.25820
C29 C 0.27430(12) -0.2520(3) 0.22406(13)
H13 H 0.26910 -0.21420 0.18910
C30 C 0.30093(13) -0.3759(4) 0.23378(15)
H14 H 0.31380 -0.42410 0.20540
C31 C 0.30922(12) -0.4313(4) 0.28465(15)
H15 H 0.32770 -0.51700 0.29110
C32 C 0.29044(11) -0.3610(3) 0.32618(13)
H16 H 0.29620 -0.39870 0.36110
C33 C 0.34781(10) 0.0277(3) 0.57708(11)
C34 C 0.38242(11) -0.0889(3) 0.58066(12)
H17 H 0.38100 -0.15190 0.55160
C35 C 0.41817(11) -0.1123(3) 0.62557(12)
H18 H 0.44040 -0.19220 0.62740
C36 C 0.42183(11) -0.0190(4) 0.66847(13)
H19 H 0.44790 -0.03270 0.69840
C37 C 0.38812(11) 0.0913(3) 0.66720(12)
H20 H 0.39040 0.15350 0.69660
C38 C 0.34998(11) 0.1140(3) 0.62271(11)
C39 C 0.12688(11) 0.4200(3) 0.56077(11)
C40 C 0.16099(11) 0.4619(3) 0.60661(11)
C41 C 0.14624(12) 0.5641(3) 0.64151(12)
H21 H 0.16950 0.58860 0.67250
C42 C 0.09843(13) 0.6278(4) 0.63075(13)
H22 H 0.08770 0.69410 0.65500
C43 C 0.06546(14) 0.5956(4) 0.58440(13)
H23 H 0.03270 0.64290 0.57640
C44 C 0.07965(12) 0.4963(4) 0.55003(12)
H24 H 0.05690 0.47850 0.51800
N1 N 0.11456(9) 0.1415(3) 0.45458(9)
H25 H 0.14600 0.12850 0.44500
N2 N 0.15934(9) -0.0676(3) 0.38886(9)
N3 N 0.26419(8) -0.0420(2) 0.44724(8)
H26 H 0.23210 -0.01710 0.45210
N4 N 0.22035(9) 0.1691(2) 0.51075(9)
N5 N 0.31326(9) 0.2188(3) 0.62779(10)
N6 N 0.21107(9) 0.4003(2) 0.61966(9)
O1 O 0.23859(10) 0.4376(3) 0.66256(10)
C45 C 0.36761(11) 0.1756(3) 0.33999(10)
C46 C 0.39483(10) 0.2031(3) 0.39096(10)
C47 C 0.4479(1) 0.1585(3) 0.40883(10)
H27 H 0.47020 0.10760 0.38870
C48 C 0.4599(1) 0.2022(3) 0.45932(10)
H28 H 0.49210 0.18740 0.48190
C49 C 0.41411(10) 0.2764(3) 0.47245(10)
C50 C 0.41255(10) 0.3486(3) 0.52065(10)
C51 C 0.37142(10) 0.4302(3) 0.53423(11)
C52 C 0.36787(11) 0.4892(3) 0.58501(11)
H29 H 0.39350 0.48000 0.61560
C53 C 0.32169(11) 0.5611(3) 0.58254(12)
H30 H 0.30940 0.60980 0.61110
C54 C 0.29500(11) 0.5508(3) 0.52971(12)
C55 C 0.39797(11) 0.1164(3) 0.29882(10)
C56 C 0.38441(12) -0.0121(3) 0.27511(11)
H31 H 0.35610 -0.06430 0.28600
C57 C 0.41166(12) -0.0646(4) 0.23598(12)
H32 H 0.40230 -0.15270 0.22030
C58 C 0.45273(13) 0.0114(4) 0.21959(12)
H33 H 0.47140 -0.02460 0.19260
C59 C 0.46652(12) 0.1404(4) 0.24275(12)
H34 H 0.49430 0.19340 0.23120
C60 C 0.43989(11) 0.1912(3) 0.28243(11)
H35 H 0.45010 0.27800 0.29880
C61 C 0.46106(10) 0.3431(3) 0.56113(10)
C62 C 0.47718(10) 0.2190(3) 0.58769(10)
H36 H 0.45720 0.13600 0.58030
C63 C 0.52215(11) 0.2170(3) 0.62464(11)
H37 H 0.53220 0.13310 0.64330
C64 C 0.55256(11) 0.3359(3) 0.63459(11)
H38 H 0.58360 0.33330 0.65970
C65 C 0.53768(11) 0.4581(3) 0.60803(11)
H39 H 0.55870 0.53980 0.61450
C66 C 0.49149(11) 0.4617(3) 0.57140(11)
H40 H 0.48100 0.54640 0.55350
O2 O 0.08962(14) 0.7150(5) 0.46321(14)
C67 C 0.2279(6) 0.271(3) 0.3351(8)
C68 C 0.2331(7) 0.229(3) 0.2822(8)
H41 H 0.20520 0.22790 0.25350
C69 C 0.2837(7) 0.193(3) 0.2788(6)
H42 H 0.29700 0.16210 0.24760
C70 C 0.3134(4) 0.209(3) 0.3300(5)
N7 N 0.2775(7) 0.260(3) 0.3616(8)
H43 H 0.28600 0.28320 0.39530
C71 C 0.2465(6) 0.6196(18) 0.5109(8)
C72 C 0.2179(6) 0.5595(18) 0.4661(6)
C73 C 0.1630(6) 0.596(2) 0.4509(9)
C74 C 0.1445(4) 0.5094(11) 0.4067(6)
C75 C 0.1899(5) 0.4230(16) 0.3995(5)
C76 C 0.1838(4) 0.3285(13) 0.3574(4)
N8 N 0.2343(6) 0.4582(18) 0.4335(6)
C77 C 0.2217(4) 0.7299(12) 0.5382(5)
C78 C 0.2461(4) 0.8087(14) 0.5814(5)
H44 H 0.28160 0.78850 0.59540
C79 C 0.2202(4) 0.9142(12) 0.6044(4)
H45 H 0.23790 0.96590 0.63330
C80 C 0.1683(4) 0.9447(14) 0.5851(4)
H46 H 0.15050 1.01650 0.60150
C81 C 0.1425(4) 0.8739(12) 0.5432(5)
H47 H 0.10720 0.89770 0.52960
C82 C 0.1684(4) 0.7648(12) 0.5201(5)
N9 N 0.1383(5) 0.6918(13) 0.4773(4)
N10 N 0.0974(4) 0.5021(9) 0.3810(4)
C83 C 0.1301(3) 0.3100(9) 0.3297(4)
C84 C 0.0896(3) 0.4006(9) 0.3422(4)
C85 C 0.0382(3) 0.3866(9) 0.3159(3)
H48 H 0.01180 0.45160 0.32250
C86 C 0.0259(3) 0.2809(10) 0.2809(3)
H49 H -0.00860 0.27530 0.26190
C87 C 0.0634(3) 0.1799(8) 0.2721(3)
H50 H 0.05350 0.10190 0.24980
C88 C 0.1150(3) 0.1949(10) 0.2964(4)
H51 H 0.14060 0.12670 0.29060
N11 N 0.37445(8) 0.2751(2) 0.43030(8)
N12 N 0.32560(9) 0.4682(2) 0.50211(9)
H52 H 0.31730 0.44290 0.46870
O3? O 0.0544(2) 0.5065(6) 0.3788(2)
C89? C 0.2316(6) 0.243(3) 0.3247(10)
C90? C 0.2344(7) 0.204(4) 0.2714(9)
H53? H 0.20560 0.19940 0.24360
C91? C 0.2855(8) 0.174(3) 0.2668(6)
H54? H 0.29890 0.14490 0.23530
C92? C 0.3153(5) 0.193(3) 0.3178(6)
N13? N 0.2807(8) 0.236(4) 0.3523(9)
H55? H 0.28920 0.25640 0.38630
C93? C 0.2427(6) 0.585(2) 0.5026(9)
C94? C 0.2161(6) 0.528(2) 0.4551(7)
C95? C 0.1607(7) 0.558(3) 0.440(1)
C96? C 0.1427(5) 0.4604(12) 0.3991(6)
C97? C 0.1893(6) 0.3865(17) 0.3869(6)
C98? C 0.1867(4) 0.2954(14) 0.3441(4)
N14? N 0.2319(7) 0.429(2) 0.4223(7)
C99? C 0.2125(4) 0.6963(13) 0.5249(6)
C100? C 0.2345(5) 0.7882(15) 0.5648(5)
H56? H 0.27090 0.77910 0.57760
C101? C 0.2064(4) 0.8907(13) 0.5865(5)
H57? H 0.22300 0.94520 0.61520
C102? C 0.1540(5) 0.9152(15) 0.5668(5)
H58? H 0.13470 0.98740 0.58120
C103? C 0.1307(5) 0.8330(14) 0.5261(5)
H59? H 0.09470 0.84810 0.51240
C104? C 0.1590(4) 0.7265(14) 0.5043(6)
N15? N 0.1326(6) 0.6508(14) 0.4619(5)
N16? N 0.0952(5) 0.4403(11) 0.3706(5)
C105? C 0.1337(4) 0.2538(10) 0.3214(5)
C106? C 0.0896(4) 0.3345(9) 0.3321(4)
C107? C 0.0390(3) 0.3082(11) 0.3065(4)
H60? H 0.01040 0.36640 0.31270
C108? C 0.0308(3) 0.1978(10) 0.2722(3)
H61? H -0.00350 0.17990 0.25420
C109? C 0.0728(3) 0.1107(9) 0.2633(3)
H62? H 0.06660 0.03160 0.24070
C110? C 0.1234(4) 0.1404(12) 0.2874(5)
H63? H 0.15180 0.08190 0.28060
O4? O 0.3238(3) 0.290(1) 0.6661(3)
#END
