
#######################################################################
#
#                 Cambridge Crystallographic Data Centre
#                                CCDC
#
#######################################################################
#
# If this CIF has been generated from an entry in the Cambridge
# Structural Database, then it will include bibliographic, chemical,
# crystal, experimental, refinement or atomic coordinate data resulting
# from the CCDC's data processing and validation procedures.
#
#######################################################################

data_CSD_CIF_UVINOD
_audit_creation_date 2011-08-30
_audit_creation_method CSD-ConQuest-V1
_database_code_CSD UVINOD
_database_code_depnum_ccdc_archive 'CCDC 824855'
_chemical_formula_sum 'C21 H17 N1 O4'
_chemical_formula_moiety
;
C21 H17 N1 O4
;
_journal_coden_Cambridge 182
_journal_volume 47
_journal_year 2011
_journal_page_first 7974
_journal_name_full 'Chem.Commun. '
loop_
_publ_author_name
"R.T.McBurney"
"A.M.Z.Slawin"
"L.A.Smart"
"Yanping Yu"
"J.C.Walton"
_chemical_name_systematic
;
((((4'-Methoxybiphenyl-2-yl)methylene)amino)oxy)(phenoxy)methanone
;
_cell_volume   1743.370
_exptl_crystal_colour 'colorless'
_exptl_crystal_density_diffrn 1.323
_exptl_crystal_description 'prism'
_diffrn_ambient_temperature 93
#These two values have been output from a single CSD field.
_refine_ls_R_factor_gt 0.0373
_refine_ls_wR_factor_gt 0.0373
_symmetry_cell_setting orthorhombic
_symmetry_space_group_name_H-M 'P 21 21 21'
_symmetry_Int_Tables_number 19
loop_
_symmetry_equiv_pos_site_id
_symmetry_equiv_pos_as_xyz
1 x,y,z
2 1/2-x,-y,1/2+z
3 -x,1/2+y,1/2-z
4 1/2+x,1/2-y,-z
_cell_length_a 8.5885(19)
_cell_length_b 13.388(3)
_cell_length_c 15.162(4)
_cell_angle_alpha 90
_cell_angle_beta 90
_cell_angle_gamma 90
_cell_formula_units_Z 4
loop_
_atom_type_symbol
_atom_type_radius_bond
C 0.68
H 0.23
N 0.68
O 0.68
loop_
_atom_site_label
_atom_site_type_symbol
_atom_site_fract_x
_atom_site_fract_y
_atom_site_fract_z
C1 C 0.31086(19) 0.50198(11) 0.37441(11)
C2 C 0.2931(2) 0.40268(12) 0.34502(11)
C3 C 0.3260(2) 0.32359(13) 0.40258(11)
H1 H 0.31200 0.25670 0.38320
C4 C 0.3786(2) 0.34161(13) 0.48723(11)
H2 H 0.39850 0.28760 0.52620
C5 C 0.4021(2) 0.43916(14) 0.51476(12)
H3 H 0.44110 0.45190 0.57230
C6 C 0.3693(2) 0.51796(13) 0.45913(12)
H4 H 0.38680 0.58440 0.47890
C7 C 0.2671(2) 0.58851(11) 0.3180(1)
C8 C 0.1116(2) 0.59991(12) 0.28991(11)
H5 H 0.03540 0.55250 0.30760
C9 C 0.0690(2) 0.67932(13) 0.23692(10)
H6 H -0.03610 0.68630 0.21850
C10 C 0.1793(2) 0.74887(12) 0.21062(11)
O1 O 0.12432(14) 0.82566(8) 0.15882(8)
C11 C 0.3333(2) 0.73914(12) 0.23774(11)
H7 H 0.40920 0.78640 0.21950
C12 C 0.3750(2) 0.65944(12) 0.29189(11)
H8 H 0.47980 0.65360 0.31130
C13 C 0.24726(19) 0.38275(11) 0.25382(11)
H9 H 0.21160 0.43590 0.21750
N1 N 0.25485(17) 0.29472(9) 0.22289(8)
O2 O 0.19839(15) 0.29774(7) 0.13300(7)
C14 C 0.2067(2) 0.20612(12) 0.09529(11)
O3 O 0.25677(14) 0.13157(8) 0.12582(7)
O4 O 0.14388(15) 0.21847(8) 0.01462(7)
C15 C 0.1497(2) 0.13385(12) -0.04107(11)
C16 C 0.2805(2) 0.11890(13) -0.09121(11)
H10 H 0.36770 0.16220 -0.08620
C17 C 0.2825(2) 0.03885(14) -0.14949(12)
H11 H 0.37210 0.02730 -0.18480
C18 C 0.1563(3) -0.02386(14) -0.15662(13)
H12 H 0.15880 -0.07850 -0.19650
C19 C 0.0251(3) -0.00680(14) -0.10509(13)
H13 H -0.06240 -0.04990 -0.10990
C20 C 0.0214(2) 0.07333(13) -0.04645(12)
H14 H -0.06790 0.08570 -0.01110
C21 C 0.2376(2) 0.88852(13) 0.11733(12)
H15 H 0.29510 0.92560 0.16250
H16 H 0.18500 0.93560 0.07780
H17 H 0.31020 0.84730 0.08320
#END
