
#######################################################################
#
#                 Cambridge Crystallographic Data Centre
#                                CCDC
#
#######################################################################
#
# If this CIF has been generated from an entry in the Cambridge
# Structural Database, then it will include bibliographic, chemical,
# crystal, experimental, refinement or atomic coordinate data resulting
# from the CCDC's data processing and validation procedures.
#
#######################################################################

data_CSD_CIF_UVIPAR
_audit_creation_date 2011-08-30
_audit_creation_method CSD-ConQuest-V1
_database_code_CSD UVIPAR
_database_code_depnum_ccdc_archive 'CCDC 824857'
_chemical_formula_sum 'C14 H10 N2 O2'
_chemical_formula_moiety
;
C14 H10 N2 O2
;
_journal_coden_Cambridge 182
_journal_volume 47
_journal_year 2011
_journal_page_first 7974
_journal_name_full 'Chem.Commun. '
loop_
_publ_author_name
"R.T.McBurney"
"A.M.Z.Slawin"
"L.A.Smart"
"Yanping Yu"
"J.C.Walton"
_chemical_name_systematic
;
6-Methyl-3-nitrophenanthridine
;
_cell_volume   1087.784
_exptl_crystal_colour 'brown'
_exptl_crystal_density_diffrn 1.455
_exptl_crystal_description 'prism'
_diffrn_ambient_temperature 173
#These two values have been output from a single CSD field.
_refine_ls_R_factor_gt 0.1223
_refine_ls_wR_factor_gt 0.1223
_symmetry_cell_setting monoclinic
_symmetry_space_group_name_H-M 'P 21/n'
_symmetry_Int_Tables_number 14
loop_
_symmetry_equiv_pos_site_id
_symmetry_equiv_pos_as_xyz
1 x,y,z
2 1/2-x,1/2+y,1/2-z
3 -x,-y,-z
4 -1/2+x,-1/2-y,-1/2+z
_cell_length_a 4.469(3)
_cell_length_b 13.268(10)
_cell_length_c 18.459(16)
_cell_angle_alpha 90
_cell_angle_beta 96.36(2)
_cell_angle_gamma 90
_cell_formula_units_Z 4
loop_
_atom_type_symbol
_atom_type_radius_bond
C 0.68
H 0.23
N 0.68
O 0.68
loop_
_atom_site_label
_atom_site_type_symbol
_atom_site_fract_x
_atom_site_fract_y
_atom_site_fract_z
N1 N 0.0596(8) 0.6289(3) 0.1786(2)
C1 C -0.0102(10) 0.7068(3) 0.2229(2)
C2 C -0.1904(10) 0.6829(3) 0.2779(2)
H1 H -0.25600 0.61550 0.28350
C3 C -0.2721(11) 0.7567(3) 0.3239(2)
N2 N -0.4641(9) 0.7314(3) 0.3797(2)
O1 O -0.5468(8) 0.6439(3) 0.38422(18)
O2 O -0.5311(8) 0.7989(2) 0.42105(18)
C4 C -0.1772(11) 0.8561(3) 0.3177(3)
H2 H -0.23360 0.90630 0.35030
C5 C -0.0031(11) 0.8804(3) 0.2645(2)
H3 H 0.05990 0.94820 0.25980
C6 C 0.0861(10) 0.8072(3) 0.2160(2)
C7 C 0.2703(10) 0.8291(3) 0.1584(2)
C8 C 0.3794(10) 0.9258(3) 0.1447(3)
H4 H 0.33240 0.98070 0.17450
C9 C 0.5507(11) 0.9419(3) 0.0896(2)
H5 H 0.62190 1.00790 0.08120
C10 C 0.6237(11) 0.8625(4) 0.0449(3)
H6 H 0.74770 0.87440 0.00720
C11 C 0.5166(11) 0.7680(3) 0.0556(3)
H7 H 0.56270 0.71470 0.02430
C12 C 0.3382(10) 0.7484(3) 0.1125(2)
C13 C 0.2223(10) 0.6492(3) 0.1256(3)
C14 C 0.2928(11) 0.5632(3) 0.0773(3)
H8 H 0.20100 0.50130 0.09350
H9 H 0.51150 0.55440 0.08010
H10 H 0.21200 0.57790 0.02690
#END
