
#######################################################################
#
#                 Cambridge Crystallographic Data Centre
#                                CCDC
#
#######################################################################
#
# If this CIF has been generated from an entry in the Cambridge
# Structural Database, then it will include bibliographic, chemical,
# crystal, experimental, refinement or atomic coordinate data resulting
# from the CCDC's data processing and validation procedures.
#
#######################################################################

data_CSD_CIF_UVOKAT
_audit_creation_date 2016-09-07
_audit_creation_method CSD-ConQuest-V1
_database_code_CSD UVOKAT
_database_code_depnum_ccdc_archive 'CCDC 1503282'
_chemical_formula_sum 'C4 H2 N4 O1'
_chemical_formula_moiety
;
C4 H2 N4 O1
;
_journal_coden_Cambridge 34
_journal_volume 49
_journal_year 2012
_journal_page_first 919
_journal_name_full 'J.Heterocycl.Chem. '
loop_
_publ_author_name
"R.L.Willer"
"R.F.Storey"
"C.G.Campbell"
"S.W.Bunte"
"D.Parrish"
_chemical_name_systematic
;
[1,2,5]oxadiazolo[3,4-b]pyrazine
;
_cell_volume    500.612
_exptl_crystal_density_diffrn 1.62
_diffrn_ambient_temperature 100
#These two values have been output from a single CSD field.
_refine_ls_R_factor_gt 0.057
_refine_ls_wR_factor_gt 0.057
_symmetry_cell_setting orthorhombic
_symmetry_space_group_name_H-M 'A b a 2'
_symmetry_Int_Tables_number 41
loop_
_symmetry_equiv_pos_site_id
_symmetry_equiv_pos_as_xyz
1 x,y,z
2 -x,-y,z
3 1/2+x,1/2-y,z
4 1/2-x,1/2+y,z
5 x,1/2+y,1/2+z
6 -x,1/2-y,1/2+z
7 1/2+x,-y,1/2+z
8 1/2-x,y,1/2+z
_cell_length_a 6.395(8)
_cell_length_b 6.179(8)
_cell_length_c 12.669(16)
_cell_angle_alpha 90
_cell_angle_beta 90
_cell_angle_gamma 90
_cell_formula_units_Z 4
loop_
_atom_type_symbol
_atom_type_radius_bond
C 0.68
H 0.23
N 0.68
O 0.68
loop_
_atom_site_label
_atom_site_type_symbol
_atom_site_fract_x
_atom_site_fract_y
_atom_site_fract_z
O1 O 0.50000 0.00000 0.3607(2)
N1 N 0.3815(4) 0.1398(4) 0.3016(3)
C1 C 0.4258(4) 0.0864(4) 0.2036(3)
N2 N 0.3471(4) 0.1771(4) 0.1140(2)
C2 C 0.4231(5) 0.0877(5) 0.0297(3)
H1 H 0.37560 0.13970 -0.03670
N1A N 0.6185(4) -0.1398(4) 0.3016(3)
C1A C 0.5742(4) -0.0864(4) 0.2036(3)
N2A N 0.6529(4) -0.1771(4) 0.1140(2)
C2A C 0.5769(5) -0.0877(5) 0.0297(3)
H1A H 0.62440 -0.13970 -0.03670
#END
