
#######################################################################
#
#                 Cambridge Crystallographic Data Centre
#                                CCDC
#
#######################################################################
#
# If this CIF has been generated from an entry in the Cambridge
# Structural Database, then it will include bibliographic, chemical,
# crystal, experimental, refinement or atomic coordinate data resulting
# from the CCDC's data processing and validation procedures.
#
#######################################################################

data_CSD_CIF_UWIRID
_audit_creation_date 2016-09-12
_audit_creation_method CSD-ConQuest-V1
_database_code_CSD UWIRID
_database_code_depnum_ccdc_archive 'CCDC 1462871'
_chemical_formula_sum 'C16 H15 N1 O3'
_chemical_formula_moiety
;
C16 H15 N1 O3
;
_journal_coden_Cambridge 35
_journal_volume 81
_journal_year 2016
_journal_page_first 7952
_journal_name_full 'J.Org.Chem. '
loop_
_publ_author_name
"L.G.Donadio"
"M.A.Galetti"
"G.Giorgi"
"M.Rasparini"
"M.J.Comin"
_chemical_name_systematic
;
(2S,3R)-4-nitro-2,3-diphenylbutanal
;
_cell_volume    695.428
_exptl_crystal_colour 'colorless'
_exptl_crystal_density_diffrn 1.286
_exptl_crystal_description 'prism'
_diffrn_ambient_temperature 293
#These two values have been output from a single CSD field.
_refine_ls_R_factor_gt 0.0392
_refine_ls_wR_factor_gt 0.0392
_symmetry_cell_setting monoclinic
_symmetry_space_group_name_H-M 'P n'
_symmetry_Int_Tables_number 7
loop_
_symmetry_equiv_pos_site_id
_symmetry_equiv_pos_as_xyz
1 x,y,z
2 1/2+x,-y,1/2+z
_cell_length_a 5.8149(7)
_cell_length_b 7.7454(9)
_cell_length_c 15.5132(13)
_cell_angle_alpha 90
_cell_angle_beta 95.543(8)
_cell_angle_gamma 90
_cell_formula_units_Z 2
loop_
_atom_type_symbol
_atom_type_radius_bond
C 0.68
H 0.23
N 0.68
O 0.68
loop_
_atom_site_label
_atom_site_type_symbol
_atom_site_fract_x
_atom_site_fract_y
_atom_site_fract_z
C1 C 0.6296(8) 0.5638(5) 0.6901(3)
H1 H 0.63180 0.44370 0.69090
O1 O 0.7988(4) 0.6345(3) 0.67196(15)
C2 C 0.4106(6) 0.6509(5) 0.7121(2)
H2 H 0.27830 0.58760 0.68370
C3 C 0.3988(5) 0.8390(5) 0.67963(18)
H3 H 0.54080 0.89700 0.70340
C4 C 0.1961(7) 0.9312(5) 0.7154(2)
H4 H 0.05280 0.88070 0.68980
H5 H 0.20440 0.91250 0.77750
N1 N 0.1922(7) 1.1203(4) 0.6980(2)
O2 O 0.3696(7) 1.1964(4) 0.7025(3)
O3 O 0.0053(6) 1.1870(4) 0.68147(19)
C5 C 0.4052(6) 0.6359(5) 0.8107(2)
C6 C 0.5771(7) 0.7098(5) 0.8658(2)
H6 H 0.70060 0.76430 0.84330
C7 C 0.5675(7) 0.7035(5) 0.9547(2)
H7 H 0.68330 0.75500 0.99160
C8 C 0.3866(7) 0.6212(6) 0.9886(2)
H8 H 0.37970 0.61750 1.04820
C9 C 0.2174(8) 0.5449(6) 0.9344(3)
H9 H 0.09660 0.48730 0.95720
C10 C 0.2252(6) 0.5531(5) 0.8455(2)
H10 H 0.10810 0.50240 0.80890
C11 C 0.3869(6) 0.8522(5) 0.58218(19)
C12 C 0.2052(6) 0.7775(5) 0.5299(2)
H11 H 0.08940 0.71940 0.55550
C13 C 0.1943(7) 0.7882(5) 0.4405(2)
H12 H 0.07160 0.73760 0.40680
C14 C 0.3613(8) 0.8722(6) 0.4019(2)
H13 H 0.35380 0.87890 0.34180
C15 C 0.5428(8) 0.9478(6) 0.4523(3)
H14 H 0.65810 1.00510 0.42600
C16 C 0.5540(6) 0.9390(5) 0.5414(2)
H15 H 0.67570 0.99210 0.57450
#END
