
#######################################################################
#
#                 Cambridge Crystallographic Data Centre
#                                CCDC
#
#######################################################################
#
# If this CIF has been generated from an entry in the Cambridge
# Structural Database, then it will include bibliographic, chemical,
# crystal, experimental, refinement or atomic coordinate data resulting
# from the CCDC's data processing and validation procedures.
#
#######################################################################

data_CSD_CIF_UWUJED
_audit_creation_date 2016-10-05
_audit_creation_method CSD-ConQuest-V1
_database_code_CSD UWUJED
_database_code_depnum_ccdc_archive 'CCDC 1447652'
_chemical_formula_sum 'C17 H12 N2 O3'
_chemical_formula_moiety
;
C17 H12 N2 O3
;
_journal_coden_Cambridge 1220
_journal_volume 22
_journal_year 2016
_journal_page_first 15650
_journal_name_full 'Chem.-Eur.J. '
loop_
_publ_author_name
"Juhua Feng"
"Xiao Yuan"
"Weiwei Luo"
"Lili Lin"
"Xiaohua Liu"
"Xiaoming Feng"
_chemical_name_systematic
;
(4S,5S)-5-nitro-2,4-diphenyl-4,5-dihydrofuran-3-carbonitrile
;
_cell_volume   2258.840
_exptl_crystal_colour 'yellow'
_exptl_crystal_density_diffrn 1.289
_exptl_special_details
;
Absolute configuration

;
_exptl_crystal_description 'block'
_diffrn_ambient_temperature 292
_refine_special_details
;
C13',C14',C16',C17' and C13,C14,C16,C17 disordered over two sites with 
occupancies 0.570:0.430.
;
#These two values have been output from a single CSD field.
_refine_ls_R_factor_gt 0.0513
_refine_ls_wR_factor_gt 0.0513
_symmetry_cell_setting hexagonal
_symmetry_space_group_name_H-M 'P 65'
_symmetry_Int_Tables_number 170
loop_
_symmetry_equiv_pos_site_id
_symmetry_equiv_pos_as_xyz
1 x,y,z
2 -y,x-y,2/3+z
3 -x+y,-x,1/3+z
4 -x,-y,1/2+z
5 y,-x+y,1/6+z
6 x-y,x,5/6+z
_cell_length_a 9.21666(15)
_cell_length_b 9.21666(15)
_cell_length_c 30.7049(5)
_cell_angle_alpha 90
_cell_angle_beta 90
_cell_angle_gamma 120
_cell_formula_units_Z 6
loop_
_atom_type_symbol
_atom_type_radius_bond
C 0.68
H 0.23
N 0.68
O 0.68
loop_
_atom_site_label
_atom_site_type_symbol
_atom_site_fract_x
_atom_site_fract_y
_atom_site_fract_z
O1 O 0.5003(3) 0.8565(3) 0.51685(8)
O2 O 0.3831(5) 0.9690(6) 0.57606(14)
O3 O 0.5914(6) 1.0358(5) 0.61905(9)
N1 N 0.7486(5) 1.3702(5) 0.43943(13)
N2 N 0.5180(5) 0.9867(4) 0.58475(10)
C1 C 0.2767(5) 0.7097(7) 0.4512(2)
H1 H 0.27880 0.64820 0.47500
C2 C 0.1629(8) 0.6316(12) 0.4183(3)
H2 H 0.08910 0.51680 0.42000
C3 C 0.1551(9) 0.7142(16) 0.3844(3)
H3 H 0.07610 0.65860 0.36270
C4 C 0.2648(11) 0.8839(14) 0.3813(2)
H4 H 0.26170 0.94290 0.35710
C5 C 0.3794(8) 0.9666(9) 0.41400(18)
H5 H 0.45090 1.08180 0.41230
C6 C 0.3881(4) 0.8796(5) 0.44893(13)
C7 C 0.5127(4) 0.9601(4) 0.48312(10)
C8 C 0.6447(4) 1.1144(4) 0.48854(9)
C9 C 0.7411(4) 1.1199(4) 0.52892(10)
H6 H 0.75750 1.21280 0.54770
C10 C 0.6117(4) 0.9516(4) 0.54933(10)
H7 H 0.66720 0.89350 0.56140
C11 C 0.7003(4) 1.2546(4) 0.46061(12)
C12 C 0.9076(4) 1.1318(4) 0.5193(1)
C13 C 0.9198(13) 1.0089(11) 0.5015(6)
H8 H 0.82410 0.91020 0.49330
C14 C 1.0795(18) 1.0287(14) 0.4948(8)
H9 H 1.08490 0.93700 0.48430
C15 C 1.2142(7) 1.1597(10) 0.5020(2)
H10 H 1.326(17) 1.139(16) 0.501(4)
C16 C 1.208(1) 1.3036(14) 0.5183(3)
H11 H 1.30560 1.40610 0.52210
C17 C 1.0531(8) 1.2848(11) 0.5280(3)
H12 H 1.04540 1.37300 0.54030
C18? C 0.9388(17) 1.075(2) 0.4794(3)
H13? H 0.85740 1.03280 0.45770
C19? C 1.091(2) 1.082(3) 0.4728(4)
H14? H 1.10680 1.03280 0.44830
H15? H 1.32540 1.20030 0.49410
C20? C 1.1711(18) 1.179(3) 0.5452(8)
H16? H 1.24110 1.19420 0.56870
C21? C 1.0205(18) 1.172(2) 0.5502(6)
H17? H 0.99610 1.19880 0.57740
#END
