
#######################################################################
#
#                 Cambridge Crystallographic Data Centre
#                                CCDC
#
#######################################################################
#
# If this CIF has been generated from an entry in the Cambridge
# Structural Database, then it will include bibliographic, chemical,
# crystal, experimental, refinement or atomic coordinate data resulting
# from the CCDC's data processing and validation procedures.
#
#######################################################################

data_CSD_CIF_UWUJED01
_audit_creation_date 2017-08-13
_audit_creation_method CSD-ConQuest-V1
_database_code_CSD UWUJED01
_database_code_depnum_ccdc_archive 'CCDC 1556321'
_chemical_formula_sum 'C17 H12 N2 O3'
_chemical_formula_moiety
;
C17 H12 N2 O3
;
_journal_coden_Cambridge 24
_journal_volume 58
_journal_year 2017
_journal_page_first 3722
_journal_name_full 'Tetrahedron Lett. '
loop_
_publ_author_name
"Rongshun Chen"
"Xia Fan"
"Zhaozhong Xu"
"Zhengjie He"
_chemical_name_systematic
;
5-nitro-2,4-diphenyl-4,5-dihydrofuran-3-carbonitrile
;
_cell_volume    707.108
_exptl_crystal_colour 'colorless'
_exptl_crystal_density_diffrn 1.373
_exptl_crystal_description 'prism'
_diffrn_ambient_temperature 113
#These two values have been output from a single CSD field.
_refine_ls_R_factor_gt 0.0358
_refine_ls_wR_factor_gt 0.0358
_symmetry_cell_setting triclinic
_symmetry_space_group_name_H-M 'P -1'
_symmetry_Int_Tables_number 2
loop_
_symmetry_equiv_pos_site_id
_symmetry_equiv_pos_as_xyz
1 x,y,z
2 -x,-y,-z
_cell_length_a 7.3388(8)
_cell_length_b 9.3749(9)
_cell_length_c 12.121(1)
_cell_angle_alpha 64.332(10)
_cell_angle_beta 73.964(11)
_cell_angle_gamma 72.729(11)
_cell_formula_units_Z 2
loop_
_atom_type_symbol
_atom_type_radius_bond
C 0.68
H 0.23
N 0.68
O 0.68
loop_
_atom_site_label
_atom_site_type_symbol
_atom_site_fract_x
_atom_site_fract_y
_atom_site_fract_z
O1 O 0.17978(11) 0.72318(9) 0.74330(7)
O2 O 0.50031(12) 0.74377(10) 0.57839(8)
O3 O 0.35886(12) 0.95996(10) 0.44178(7)
N1 N 0.25251(15) 1.04572(12) 0.93799(10)
N2 N 0.36223(14) 0.85256(11) 0.54562(9)
C1 C 0.20364(15) 0.74956(14) 0.84202(10)
C2 C 0.20190(16) 0.90595(13) 0.81073(10)
C3 C 0.16939(16) 1.00588(13) 0.67822(10)
H1 H 0.28150 1.05950 0.62910
C4 C 0.17658(16) 0.86783(13) 0.63846(10)
H2 H 0.06120 0.89230 0.59980
C5 C 0.22415(16) 0.60595(14) 0.95579(11)
C6 C 0.18852(18) 0.61901(15) 1.07058(11)
H3 H 0.14740 0.72260 1.07540
C7 C 0.21292(18) 0.48174(15) 1.17729(12)
H4 H 0.18900 0.49120 1.25520
C8 C 0.27216(17) 0.33054(15) 1.17084(12)
H5 H 0.29020 0.23650 1.24420
C9 C 0.30511(17) 0.31621(15) 1.05798(12)
H6 H 0.34450 0.21220 1.05400
C10 C 0.28086(17) 0.45305(14) 0.95063(11)
H7 H 0.30300 0.44260 0.87320
C11 C 0.22982(17) 0.97817(14) 0.88478(11)
C12 C -0.01773(16) 1.13128(13) 0.66306(10)
C13 C -0.18246(17) 1.10878(14) 0.75415(11)
H8 H -0.17790 1.01430 0.82830
C14 C -0.35330(17) 1.22375(15) 0.73715(12)
H9 H -0.46530 1.20770 0.79960
C15 C -0.36110(18) 1.36144(15) 0.62964(13)
H10 H -0.47830 1.44010 0.61840
C16 C -0.19816(19) 1.38492(15) 0.53829(12)
H11 H -0.20360 1.47940 0.46420
C17 C -0.02686(17) 1.27030(14) 0.55514(11)
H12 H 0.08490 1.28690 0.49250
#END
