
#######################################################################
#
#                 Cambridge Crystallographic Data Centre
#                                CCDC
#
#######################################################################
#
# If this CIF has been generated from an entry in the Cambridge
# Structural Database, then it will include bibliographic, chemical,
# crystal, experimental, refinement or atomic coordinate data resulting
# from the CCDC's data processing and validation procedures.
#
#######################################################################

data_CSD_CIF_UWUPUZ
_audit_creation_date 2016-10-05
_audit_creation_method CSD-ConQuest-V1
_database_code_CSD UWUPUZ
_database_code_depnum_ccdc_archive 'CCDC 1450448'
_chemical_formula_sum 'C23 H18 N2 O3'
_chemical_formula_moiety
;
C23 H18 N2 O3
;
_journal_coden_Cambridge 692
_journal_volume 48
_journal_year 2016
_journal_page_first 4477
_journal_name_full 'Synthesis '
loop_
_publ_author_name
"Z.Al-Jaroudi"
"P.P.Mohapatra"
"T.Stanley Cameron"
"A.Jha"
_chemical_name_systematic
;
3-methyl-5-(4-nitrophenyl)-6,6a-dihydroisoindolo[2,1-a]quinolin-11(5H)-one
;
_cell_volume   1882.564
_exptl_crystal_colour 'colorless'
_exptl_crystal_density_diffrn 1.307
_exptl_crystal_description 'needles'
_diffrn_ambient_temperature 293
#These two values have been output from a single CSD field.
_refine_ls_R_factor_gt 0.0494
_refine_ls_wR_factor_gt 0.0494
_symmetry_cell_setting monoclinic
_symmetry_space_group_name_H-M 'P 21/n'
_symmetry_Int_Tables_number 14
loop_
_symmetry_equiv_pos_site_id
_symmetry_equiv_pos_as_xyz
1 x,y,z
2 1/2-x,1/2+y,1/2-z
3 -x,-y,-z
4 -1/2+x,-1/2-y,-1/2+z
_cell_length_a 6.2330(4)
_cell_length_b 21.6398(14)
_cell_length_c 13.9695(7)
_cell_angle_alpha 90
_cell_angle_beta 92.401(3)
_cell_angle_gamma 90
_cell_formula_units_Z 4
loop_
_atom_type_symbol
_atom_type_radius_bond
C 0.68
H 0.23
N 0.68
O 0.68
loop_
_atom_site_label
_atom_site_type_symbol
_atom_site_fract_x
_atom_site_fract_y
_atom_site_fract_z
O1 O -0.3421(3) 0.06922(12) -0.02796(17)
O2 O 0.3182(6) 0.25835(17) 0.59655(19)
O3 O 0.6161(7) 0.21025(16) 0.6173(2)
N1 N -0.0150(3) 0.07377(10) 0.05720(15)
N2 N 0.4514(6) 0.22104(16) 0.5722(2)
C1 C -0.1587(4) 0.08754(14) -0.0175(2)
C2 C -0.0429(4) 0.13008(13) -0.08095(19)
C3 C -0.1157(4) 0.15768(15) -0.1661(2)
C4 C 0.0255(5) 0.19574(16) -0.2122(2)
C5 C 0.2326(5) 0.20507(14) -0.1749(2)
C6 C 0.3040(4) 0.17694(14) -0.0906(2)
C7 C 0.1622(4) 0.13971(12) -0.04340(18)
C8 C 0.1984(3) 0.10171(12) 0.04536(17)
C9 C 0.2684(4) 0.13564(13) 0.13579(18)
C10 C 0.2869(4) 0.08928(12) 0.21870(19)
C11 C 0.0910(4) 0.04694(11) 0.22051(18)
C12 C -0.0539(3) 0.04106(11) 0.14183(19)
C13 C -0.2325(4) 0.00227(12) 0.1483(2)
C14 C -0.2610(5) -0.03120(13) 0.2313(2)
C15 C -0.1175(6) -0.02769(14) 0.3089(2)
C16 C 0.0560(5) 0.01214(14) 0.3015(2)
C17 C 0.3310(4) 0.12283(12) 0.31273(18)
C18 C 0.1746(4) 0.15976(14) 0.3521(2)
C19 C 0.2139(5) 0.19233(14) 0.4353(2)
C20 C 0.4119(5) 0.18709(14) 0.4805(2)
C21 C 0.5702(5) 0.15129(17) 0.4451(2)
C22 C 0.5297(4) 0.11883(15) 0.3605(2)
C23 C -0.1443(9) -0.0667(2) 0.3975(3)
H1 H -0.25730 0.15070 -0.19170
H2 H -0.01990 0.21570 -0.27010
H3 H 0.32690 0.23130 -0.20790
H4 H 0.44670 0.18290 -0.06570
H5 H 0.29910 0.06990 0.03340
H6 H 0.40390 0.15460 0.12750
H7 H 0.16540 0.16640 0.14960
H8 H 0.40790 0.06380 0.20800
H9 H -0.33380 -0.00110 0.09590
H10 H -0.38300 -0.05730 0.23490
H11 H 0.15530 0.01560 0.35470
H12 H 0.03690 0.16250 0.32050
H13 H 0.10640 0.21780 0.46080
H14 H 0.70660 0.14860 0.47780
H15 H 0.63880 0.09370 0.33530
H16 H -0.15980 -0.10890 0.37960
H17 H -0.02170 -0.06210 0.43960
H18 H -0.26870 -0.05360 0.42910
#END
