
#######################################################################
#
#                 Cambridge Crystallographic Data Centre
#                                CCDC
#
#######################################################################
#
# If this CIF has been generated from an entry in the Cambridge
# Structural Database, then it will include bibliographic, chemical,
# crystal, experimental, refinement or atomic coordinate data resulting
# from the CCDC's data processing and validation procedures.
#
#######################################################################

data_CSD_CIF_UWUREL
_audit_creation_date 2016-10-05
_audit_creation_method CSD-ConQuest-V1
_database_code_CSD UWUREL
_database_code_depnum_ccdc_archive 'CCDC 1488193'
_chemical_formula_sum 'C31 H30 N2 O8'
_chemical_formula_moiety
;
C31 H30 N2 O8
;
_journal_coden_Cambridge 692
_journal_volume 49
_journal_year 2017
_journal_page_first 880
_journal_name_full 'Synthesis '
loop_
_publ_author_name
"D.Kowalczyk"
"J.Wojciechowski"
"L.Albrecht"
_chemical_name_systematic
;
diethyl 
2'-(2-hydroxy-5-nitrophenyl)-1-oxo-4'-phenyl-3,4-dihydro-1H,5'H-spiro[naphthal
ene-2,3'-pyrrolidine]-5',5'-dicarboxylate
;
_cell_volume   2613.073
_exptl_crystal_colour 'colorless'
_exptl_crystal_density_diffrn 1.42
_exptl_crystal_description 'plate'
_diffrn_ambient_temperature 100
_refine_special_details
;
C30A,C31A and C30B,C31B disordered over two sites with occupancies 
0.854:0.146.
;
#These two values have been output from a single CSD field.
_refine_ls_R_factor_gt 0.0371
_refine_ls_wR_factor_gt 0.0371
_symmetry_cell_setting monoclinic
_symmetry_space_group_name_H-M 'P 21/c'
_symmetry_Int_Tables_number 14
loop_
_symmetry_equiv_pos_site_id
_symmetry_equiv_pos_as_xyz
1 x,y,z
2 -x,1/2+y,1/2-z
3 -x,-y,-z
4 x,-1/2-y,-1/2+z
_cell_length_a 11.936(2)
_cell_length_b 19.629(4)
_cell_length_c 11.370(2)
_cell_angle_alpha 90
_cell_angle_beta 101.21(3)
_cell_angle_gamma 90
_cell_formula_units_Z 4
loop_
_atom_type_symbol
_atom_type_radius_bond
C 0.68
H 0.23
N 0.68
O 0.68
loop_
_atom_site_label
_atom_site_type_symbol
_atom_site_fract_x
_atom_site_fract_y
_atom_site_fract_z
O1 O 0.57574(8) 0.46911(5) 0.88087(9)
H1 H 0.6089(18) 0.4795(11) 0.815(2)
O2 O 0.77869(8) 0.38386(5) 0.85972(8)
O3 O 0.34458(10) 0.18958(6) 0.91282(11)
O4 O 0.35138(11) 0.19012(6) 0.72475(12)
O5 O 0.91766(8) 0.49223(5) 0.74384(8)
O6 O 0.77019(7) 0.54502(4) 0.80041(8)
O7 O 0.61020(8) 0.54751(5) 0.47997(8)
O8 O 0.79963(7) 0.55589(5) 0.50304(8)
N1 N 0.61995(9) 0.46257(5) 0.66623(9)
H2 H 0.5645(15) 0.4845(9) 0.6168(15)
N2 N 0.36999(10) 0.21654(6) 0.82409(12)
C1 C 0.72667(10) 0.47695(6) 0.62724(10)
C2 C 0.59764(10) 0.38866(6) 0.66303(10)
H3 H 0.54360 0.37920 0.58590
C3 C 0.53804(10) 0.36645(6) 0.76304(11)
C4 C 0.48179(10) 0.30475(7) 0.75081(12)
H4 H 0.48240 0.27740 0.68200
C5 C 0.42444(11) 0.28238(7) 0.83839(13)
C6 C 0.41552(12) 0.32196(8) 0.93663(12)
H5 H 0.37610 0.30580 0.99610
C7 C 0.46498(12) 0.38518(8) 0.94601(12)
H6 H 0.45620 0.41410 1.01060
C8 C 0.52809(11) 0.40776(7) 0.86217(11)
C9 C 0.7124(1) 0.35505(6) 0.65315(10)
C10 C 0.7933(1) 0.35009(6) 0.77471(10)
C11 C 0.89249(10) 0.30346(6) 0.78331(11)
C12 C 0.97851(11) 0.30704(7) 0.88544(11)
H7 H 0.97380 0.34000 0.94540
C13 C 1.07023(12) 0.26325(7) 0.90027(13)
H8 H 1.12890 0.26600 0.96970
C14 C 1.07595(12) 0.21494(8) 0.81242(13)
H9 H 1.13780 0.18360 0.82280
C15 C 0.99261(12) 0.21229(7) 0.71065(13)
H10 H 0.99850 0.17960 0.65060
C16 C 0.89988(11) 0.25641(6) 0.69349(11)
C17 C 0.81042(11) 0.25347(7) 0.58069(11)
H11 H 0.79830 0.20540 0.55470
H12 H 0.83770 0.27880 0.51640
C18 C 0.69785(11) 0.28361(6) 0.59851(11)
H13 H 0.66380 0.25340 0.65180
H14 H 0.64450 0.28580 0.52020
C19 C 0.76687(10) 0.40853(6) 0.57886(10)
H15 H 0.85180 0.40570 0.60420
C20 C 0.73731(11) 0.40349(6) 0.44314(11)
C21 C 0.82511(12) 0.41187(7) 0.38047(12)
H16 H 0.90140 0.41600 0.42350
C22 C 0.80363(13) 0.41430(8) 0.25646(13)
H17 H 0.86480 0.42100 0.21530
C23 C 0.69354(14) 0.40709(8) 0.19253(12)
H18 H 0.67860 0.40830 0.10740
C24 C 0.60538(13) 0.39806(7) 0.25364(12)
H19 H 0.52950 0.39250 0.21010
C25 C 0.62648(11) 0.39700(7) 0.37773(12)
H20 H 0.56470 0.39180 0.41860
C26 C 0.81802(10) 0.50454(6) 0.73121(10)
C27 C 0.84465(12) 0.57299(7) 0.90561(12)
H21 H 0.81950 0.61970 0.92060
H22 H 0.92370 0.57560 0.89130
C28 C 0.84214(14) 0.52958(8) 1.01267(13)
H23 H 0.76450 0.52880 1.02890
H24 H 0.89460 0.54830 1.08220
H25 H 0.86570 0.48310 0.99720
C29 C 0.70463(10) 0.53140(6) 0.52888(11)
C30 C 0.7798(2) 0.60017(12) 0.3969(2)
H26 H 0.74060 0.64250 0.41340
H27 H 0.73160 0.57660 0.32820
C31 C 0.89409(14) 0.61620(8) 0.36938(14)
H28 H 0.94070 0.63970 0.43790
H29 H 0.88470 0.64560 0.29850
H30 H 0.93200 0.57380 0.35360
C32? C 0.8200(15) 0.6129(10) 0.419(2)
H31? H 0.76440 0.65030 0.41960
H32? H 0.89810 0.63160 0.44360
C33? C 0.8063(12) 0.5847(7) 0.3046(11)
H33? H 0.87750 0.56240 0.29520
H34? H 0.78730 0.62070 0.24440
H35? H 0.74450 0.55100 0.29390
#END
