
#######################################################################
#
#                 Cambridge Crystallographic Data Centre
#                                CCDC
#
#######################################################################
#
# If this CIF has been generated from an entry in the Cambridge
# Structural Database, then it will include bibliographic, chemical,
# crystal, experimental, refinement or atomic coordinate data resulting
# from the CCDC's data processing and validation procedures.
#
#######################################################################

data_CSD_CIF_UWUSOV
_audit_creation_date 2011-10-11
_audit_creation_method CSD-ConQuest-V1
_database_code_CSD UWUSOV
_database_code_depnum_ccdc_archive 'CCDC 675563'
_chemical_formula_sum 'C11 H9 N5 O8'
_chemical_formula_moiety
;
C11 H9 N5 O8
;
_journal_coden_Cambridge 1220
_journal_volume 17
_journal_year 2011
_journal_page_first 7592
_journal_name_full 'Chem.-Eur.J. '
loop_
_publ_author_name
"D.V.Steglenko"
"M.E.Kletsky"
"S.V.Kurbatov"
"A.V.Tatarov"
"V.I.Minkin"
"R.Goumont"
"F.Terrier"
_chemical_name_systematic
;
10-methoxy-10a-nitro-6b,9,10,10a-tetrahydronaphtho[1,2-c:3,4-c']bis[1,2,5]oxad
iazol-8(7H)-one 3,6-dioxide
;
_cell_volume   1313.828
_exptl_crystal_colour 'colorless'
_exptl_crystal_density_diffrn 1.715
_exptl_crystal_description 'prism'
_diffrn_ambient_temperature 100
#These two values have been output from a single CSD field.
_refine_ls_R_factor_gt 0.0413
_refine_ls_wR_factor_gt 0.0413
_symmetry_cell_setting monoclinic
_symmetry_space_group_name_H-M 'P 21/n'
_symmetry_Int_Tables_number 14
loop_
_symmetry_equiv_pos_site_id
_symmetry_equiv_pos_as_xyz
1 x,y,z
2 1/2-x,1/2+y,1/2-z
3 -x,-y,-z
4 -1/2+x,-1/2-y,-1/2+z
_cell_length_a 6.3441(5)
_cell_length_b 10.0090(8)
_cell_length_c 20.8567(17)
_cell_angle_alpha 90
_cell_angle_beta 97.231(5)
_cell_angle_gamma 90
_cell_formula_units_Z 4
loop_
_atom_type_symbol
_atom_type_radius_bond
C 0.68
H 0.23
N 0.68
O 0.68
loop_
_atom_site_label
_atom_site_type_symbol
_atom_site_fract_x
_atom_site_fract_y
_atom_site_fract_z
O1 O -0.2017(2) 0.26240(15) 0.30114(8)
O2 O -0.0716(2) 0.33654(14) 0.40367(7)
O3 O 0.0365(2) 0.57832(15) 0.16251(7)
O4 O 0.1798(2) 0.78865(15) 0.17772(7)
O5 O 0.5333(2) 0.50911(16) 0.42356(7)
O6 O 0.5389(2) 0.59837(16) 0.32942(8)
O7 O -0.0219(3) 1.00445(17) 0.40940(8)
O8 O 0.4282(2) 0.79391(14) 0.44822(7)
N1 N -0.1056(3) 0.35015(18) 0.33336(8)
N2 N -0.0281(3) 0.47941(17) 0.20114(8)
N3 N 0.0500(3) 0.44207(17) 0.42868(8)
N4 N 0.1245(3) 0.68783(17) 0.20413(8)
N5 N 0.4563(3) 0.57559(17) 0.37799(9)
C1 C 0.2305(3) 0.6355(2) 0.38259(10)
C2 C 0.1741(3) 0.7310(2) 0.32439(9)
H1 H 0.30180 0.78640 0.31880
C3 C 0.1148(3) 0.6507(2) 0.26410(9)
C4 C 0.0175(3) 0.5240(2) 0.26051(9)
C5 C -0.0109(3) 0.46241(19) 0.32060(9)
C6 C 0.0857(3) 0.5161(2) 0.37948(9)
C7 C 0.2505(3) 0.7080(2) 0.44796(10)
H2 H 0.27790 0.64160 0.48390
C8 C 0.0482(4) 0.7875(2) 0.45536(10)
H3 H -0.07340 0.72540 0.45510
H4 H 0.06600 0.83530 0.49720
C9 C 0.0036(3) 0.8861(2) 0.40128(10)
C10 C -0.0130(3) 0.8256(2) 0.33451(10)
H5 H -0.01890 0.89860 0.30230
H6 H -0.14770 0.77490 0.32640
C11 C 0.5229(4) 0.8257(3) 0.51277(11)
H7 H 0.64380 0.88580 0.51080
H8 H 0.57190 0.74330 0.53530
H9 H 0.41740 0.86950 0.53610
#END
