
#######################################################################
#
#                 Cambridge Crystallographic Data Centre
#                                CCDC
#
#######################################################################
#
# If this CIF has been generated from an entry in the Cambridge
# Structural Database, then it will include bibliographic, chemical,
# crystal, experimental, refinement or atomic coordinate data resulting
# from the CCDC's data processing and validation procedures.
#
#######################################################################

data_CSD_CIF_UWUXUH
_audit_creation_date 2016-10-05
_audit_creation_method CSD-ConQuest-V1
_database_code_CSD UWUXUH
_database_code_depnum_ccdc_archive 'CCDC 1481738'
_chemical_formula_sum 'C18 H22 N4 O4'
_chemical_formula_moiety
;
C18 H22 N4 O4
;
_journal_coden_Cambridge 692
_journal_volume 48
_journal_year 2016
_journal_page_first 3199
_journal_name_full 'Synthesis '
loop_
_publ_author_name
"S.Guelen"
"M.Blazejak"
"V.Mouries-Mansuy"
"L.Fensterbank"
_chemical_name_systematic
;
1-(decahydrobenzo[a]cyclopropa[d][7]annulen-2(1H)-ylidene)-2-(2,4-dinitropheny
l)hydrazine
;
_cell_volume   1726.523
_exptl_crystal_colour 'red'
_exptl_crystal_density_diffrn 1.379
_exptl_crystal_description 'prism'
_diffrn_ambient_temperature 200
#These two values have been output from a single CSD field.
_refine_ls_R_factor_gt 0.0491
_refine_ls_wR_factor_gt 0.0491
_symmetry_cell_setting monoclinic
_symmetry_space_group_name_H-M 'P 21/c'
_symmetry_Int_Tables_number 14
loop_
_symmetry_equiv_pos_site_id
_symmetry_equiv_pos_as_xyz
1 x,y,z
2 -x,1/2+y,1/2-z
3 -x,-y,-z
4 x,-1/2-y,-1/2+z
_cell_length_a 14.1341(3)
_cell_length_b 13.9591(3)
_cell_length_c 9.0324(2)
_cell_angle_alpha 90
_cell_angle_beta 104.345(2)
_cell_angle_gamma 90
_cell_formula_units_Z 4
loop_
_atom_type_symbol
_atom_type_radius_bond
C 0.68
H 0.23
N 0.68
O 0.68
loop_
_atom_site_label
_atom_site_type_symbol
_atom_site_fract_x
_atom_site_fract_y
_atom_site_fract_z
O1 O 0.40005(7) 0.28411(7) 0.09269(13)
O2 O 0.52148(8) 0.26010(7) -0.00663(15)
O3 O 0.78812(8) 0.47163(9) 0.06559(15)
O4 O 0.78611(8) 0.60765(9) 0.17817(16)
N1 N 0.34356(7) 0.50580(7) 0.31943(11)
N2 N 0.38903(7) 0.43867(7) 0.24768(11)
H1 H 0.36130 0.38280 0.22070
N3 N 0.47956(7) 0.30854(7) 0.07003(12)
N4 N 0.74985(7) 0.52989(8) 0.13335(13)
C1 C 0.27121(8) 0.47436(8) 0.36965(12)
C2 C 0.24151(10) 0.37302(9) 0.36086(15)
H2 H 0.29470 0.32660 0.35720
C3 C 0.14102(12) 0.34609(11) 0.26120(17)
H3 H 0.13990 0.28490 0.20320
C4 C 0.07292(12) 0.42278(13) 0.17593(18)
H4 H 0.10330 0.45070 0.09800
H5 H 0.01170 0.39110 0.12060
C5 C 0.04594(9) 0.50453(12) 0.26808(18)
H6 H 0.02710 0.47650 0.35730
H7 H -0.01280 0.53610 0.20420
C6 C 0.12201(8) 0.58203(10) 0.32706(14)
H8 H 0.13920 0.61180 0.23640
C7 C 0.21821(8) 0.54962(8) 0.43837(12)
H9 H 0.20120 0.52060 0.52960
C8 C 0.16238(12) 0.33374(11) 0.43013(18)
H10 H 0.17040 0.26760 0.47090
H11 H 0.13090 0.37870 0.48800
C9 C 0.07312(10) 0.66013(12) 0.40413(18)
H12 H 0.01520 0.68480 0.32840
H13 H 0.05000 0.63040 0.48830
C10 C 0.13905(13) 0.74362(11) 0.46777(19)
H14 H 0.15380 0.78030 0.38250
H15 H 0.10480 0.78690 0.52420
C11 C 0.23324(11) 0.70976(11) 0.57358(16)
H16 H 0.21950 0.68040 0.66580
H17 H 0.27730 0.76510 0.60640
C12 C 0.28272(9) 0.63697(9) 0.49312(14)
H18 H 0.34430 0.61570 0.56400
H19 H 0.29940 0.66780 0.40420
C13 C 0.47569(7) 0.45935(8) 0.21959(11)
C14 C 0.52280(7) 0.39779(8) 0.13452(12)
C15 C 0.61221(8) 0.42127(8) 0.10617(12)
H20 H 0.64250 0.37950 0.04870
C16 C 0.65603(7) 0.50594(8) 0.16281(12)
C17 C 0.61326(8) 0.56850(8) 0.24779(13)
H21 H 0.64510 0.62660 0.28590
C18 C 0.52519(8) 0.54562(8) 0.27588(12)
H22 H 0.49650 0.58830 0.33420
#END
