
#######################################################################
#
#                 Cambridge Crystallographic Data Centre
#                                CCDC
#
#######################################################################
#
# If this CIF has been generated from an entry in the Cambridge
# Structural Database, then it will include bibliographic, chemical,
# crystal, experimental, refinement or atomic coordinate data resulting
# from the CCDC's data processing and validation procedures.
#
#######################################################################

data_CSD_CIF_UWUXOB
_audit_creation_date 2016-10-05
_audit_creation_method CSD-ConQuest-V1
_database_code_CSD UWUXOB
_database_code_depnum_ccdc_archive 'CCDC 1481737'
_chemical_formula_sum 'C15 H16 N4 O4'
_chemical_formula_moiety
;
C15 H16 N4 O4
;
_journal_coden_Cambridge 692
_journal_volume 48
_journal_year 2016
_journal_page_first 3199
_journal_name_full 'Synthesis '
loop_
_publ_author_name
"S.Guelen"
"M.Blazejak"
"V.Mouries-Mansuy"
"L.Fensterbank"
_chemical_name_systematic
;
1-(2,4-dinitrophenyl)-2-(tricyclo[5.2.0.0^3,5^]nonan-2-ylidene)hydrazine
;
_cell_volume   1459.621
_exptl_crystal_colour 'yellow'
_exptl_crystal_density_diffrn 1.439
_exptl_crystal_description 'plate'
_diffrn_ambient_temperature 200
#These two values have been output from a single CSD field.
_refine_ls_R_factor_gt 0.0444
_refine_ls_wR_factor_gt 0.0444
_symmetry_cell_setting monoclinic
_symmetry_space_group_name_H-M 'P 21/n'
_symmetry_Int_Tables_number 14
loop_
_symmetry_equiv_pos_site_id
_symmetry_equiv_pos_as_xyz
1 x,y,z
2 1/2-x,1/2+y,1/2-z
3 -x,-y,-z
4 -1/2+x,-1/2-y,-1/2+z
_cell_length_a 7.3808(2)
_cell_length_b 8.8881(3)
_cell_length_c 22.5371(7)
_cell_angle_alpha 90
_cell_angle_beta 99.157(2)
_cell_angle_gamma 90
_cell_formula_units_Z 4
loop_
_atom_type_symbol
_atom_type_radius_bond
C 0.68
H 0.23
N 0.68
O 0.68
loop_
_atom_site_label
_atom_site_type_symbol
_atom_site_fract_x
_atom_site_fract_y
_atom_site_fract_z
N1 N 1.0586(2) 0.05300(18) 0.10955(7)
N2 N 0.9434(2) 0.10361(17) 0.05901(6)
H1 H 0.825(3) 0.0809(6) 0.05358(15)
N3 N 0.6995(2) 0.21819(18) -0.04596(7)
N4 N 1.1940(2) 0.53173(19) -0.09090(7)
O1 O 0.63458(19) 0.12337(18) -0.01548(6)
O2 O 0.6080(2) 0.2769(2) -0.08968(7)
O3 O 1.0892(2) 0.57584(19) -0.13482(6)
O4 O 1.3481(2) 0.58371(19) -0.07595(8)
C1 C 0.9778(3) -0.0305(2) 0.14404(8)
C2 C 0.7802(3) -0.0710(2) 0.13303(8)
H2 H 0.74260 -0.14870 0.10140
C3 C 0.6355(3) 0.0434(3) 0.14218(9)
H3 H 0.67660 0.14700 0.15340
H4 H 0.51470 0.03660 0.11600
C4 C 0.6857(3) -0.0783(3) 0.1875(1)
H5 H 0.59440 -0.16080 0.18870
C5 C 0.8102(3) -0.0427(4) 0.24511(10)
H6 H 0.74580 -0.06450 0.27950
H7 H 0.84100 0.06580 0.24610
C6 C 0.9851(3) -0.1344(3) 0.25117(9)
H8 H 0.96570 -0.24480 0.25610
C7 C 1.1463(3) -0.0701(3) 0.29527(10)
H9 H 1.10880 0.00070 0.32500
H10 H 1.23080 -0.14780 0.31530
C8 C 1.2155(3) 0.0069(4) 0.24294(12)
H11 H 1.34810 -0.00850 0.24240
H12 H 1.18300 0.11490 0.23880
C9 C 1.0911(3) -0.0952(2) 0.19928(9)
H13 H 1.16120 -0.18480 0.18860
C10 C 1.0041(2) 0.20255(19) 0.02176(7)
C11 C 0.8898(2) 0.26223(19) -0.02964(7)
C12 C 0.9537(2) 0.3679(2) -0.06653(7)
H14 H 0.87480 0.40630 -0.10060
C13 C 1.1315(2) 0.41631(19) -0.05334(8)
C14 C 1.2501(2) 0.3592(2) -0.00389(8)
H15 H 1.37380 0.39290 0.00430
C15 C 1.1881(2) 0.2557(2) 0.03235(8)
H16 H 1.27010 0.21760 0.06580
#END
