
#######################################################################
#
#                 Cambridge Crystallographic Data Centre
#                                CCDC
#
#######################################################################
#
# If this CIF has been generated from an entry in the Cambridge
# Structural Database, then it will include bibliographic, chemical,
# crystal, experimental, refinement or atomic coordinate data resulting
# from the CCDC's data processing and validation procedures.
#
#######################################################################

data_CSD_CIF_UWUZET
_audit_creation_date 2016-10-05
_audit_creation_method CSD-ConQuest-V1
_database_code_CSD UWUZET
_database_code_depnum_ccdc_archive 'CCDC 1474975'
_chemical_formula_sum 'C16 H15 N3 O5'
_chemical_formula_moiety
;
C16 H15 N3 O5
;
_journal_coden_Cambridge 692
_journal_volume 48
_journal_year 2016
_journal_page_first 3207
_journal_name_full 'Synthesis '
loop_
_publ_author_name
"Ugur Kaya"
"Pankaj Chauhan"
"K.Deckers"
"R.Puttreddy"
"K.Rissanen"
"G.Raabe"
"D.Enders"
_chemical_name_systematic
;
1,3-dimethyl-5-(nitromethyl)-7-phenyl-1,5-dihydro-2H-pyrano[2,3-d]pyrimidine-2
,4(3H)-dione
;
_cell_volume   1442.135
_exptl_crystal_colour 'colorless'
_exptl_crystal_density_diffrn 1.517
_exptl_special_details
;
Absolute configuration

;
_exptl_crystal_description 'block'
_diffrn_ambient_temperature 120.0
#These two values have been output from a single CSD field.
_refine_ls_R_factor_gt 0.0285
_refine_ls_wR_factor_gt 0.0285
_symmetry_cell_setting monoclinic
_symmetry_space_group_name_H-M 'P 21'
_symmetry_Int_Tables_number 4
loop_
_symmetry_equiv_pos_site_id
_symmetry_equiv_pos_as_xyz
1 x,y,z
2 -x,1/2+y,-z
_cell_length_a 9.39709(12)
_cell_length_b 13.14900(13)
_cell_length_c 12.39423(13)
_cell_angle_alpha 90
_cell_angle_beta 109.6655(13)
_cell_angle_gamma 90
_cell_formula_units_Z 4
loop_
_atom_type_symbol
_atom_type_radius_bond
C 0.68
H 0.23
N 0.68
O 0.68
loop_
_atom_site_label
_atom_site_type_symbol
_atom_site_fract_x
_atom_site_fract_y
_atom_site_fract_z
O1 O 0.22011(16) 0.74819(13) -0.16543(11)
O2 O -0.03836(17) 0.71892(13) 0.08604(13)
O3 O 0.47184(16) 0.72833(12) 0.23491(11)
O4 O 0.4080(2) 0.50084(17) -0.0427(2)
O5 O 0.6194(2) 0.52509(16) 0.09158(15)
N1 N 0.08877(19) 0.73496(14) -0.04012(14)
N2 N 0.21879(19) 0.72202(14) 0.15839(13)
N3 N 0.5220(2) 0.55046(15) 0.00253(17)
C1 C 0.8826(2) 0.76781(18) 0.35197(18)
H1 H 0.90800 0.77960 0.28670
C2 C 0.9946(2) 0.76906(19) 0.45896(19)
H2 H 1.09430 0.78220 0.46520
C3 C 0.9577(2) 0.75059(18) 0.55703(18)
H3 H 1.03270 0.75060 0.62870
C4 C 0.8095(2) 0.73233(18) 0.54737(17)
H4 H 0.78490 0.72020 0.61290
C5 C 0.6958(2) 0.73192(18) 0.44009(18)
H5 H 0.59600 0.72020 0.43460
C6 C 0.7320(2) 0.74905(16) 0.34117(17)
C7 C 0.6154(2) 0.74511(16) 0.22640(17)
C8 C 0.6352(2) 0.75356(18) 0.12577(17)
H6 H 0.73160 0.76860 0.12520
C9 C 0.5112(2) 0.74036(17) 0.01280(16)
H7 H 0.51040 0.80110 -0.03320
C10 C 0.3608(2) 0.73505(16) 0.03084(17)
C11 C 0.2233(2) 0.73978(16) -0.06595(17)
C12 C 0.0821(2) 0.72479(16) 0.06896(17)
C13 C 0.3523(2) 0.72841(16) 0.13737(16)
C14 C 0.2155(2) 0.72022(18) 0.27571(17)
H8 H 0.22020 0.78860 0.30400
H9 H 0.30050 0.68230 0.32380
H10 H 0.12360 0.68860 0.27630
C15 C -0.0572(2) 0.74286(18) -0.13306(17)
H11 H -0.11210 0.68040 -0.13860
H12 H -0.04040 0.75550 -0.20410
H13 H -0.11450 0.79780 -0.11730
C16 C 0.5419(3) 0.64781(18) -0.05300(18)
H14 H 0.47300 0.64930 -0.13140
H15 H 0.64420 0.65160 -0.05470
O6 O 0.24254(17) 0.47731(12) 0.20035(12)
O7 O -0.00504(16) 0.50771(12) 0.45838(13)
O8 O 0.50337(16) 0.48827(12) 0.60005(12)
O9 O 0.41782(19) 0.23110(15) 0.29085(15)
O10 O 0.6138(2) 0.25399(14) 0.44184(14)
N4 N 0.11714(19) 0.48612(14) 0.32920(15)
N5 N 0.25219(19) 0.50179(14) 0.52567(14)
N6 N 0.5275(2) 0.28117(15) 0.34788(15)
C17 C 0.9172(2) 0.49442(18) 0.71528(18)
H16 H 0.94430 0.50230 0.65020
C18 C 1.0287(2) 0.49073(18) 0.82296(19)
H17 H 1.12990 0.49560 0.82920
C19 C 0.9898(2) 0.47981(17) 0.92138(17)
H18 H 1.06450 0.47680 0.99310
C20 C 0.8385(2) 0.47357(16) 0.91101(17)
H19 H 0.81170 0.46730 0.97640
C21 C 0.7264(2) 0.47656(16) 0.80380(18)
H20 H 0.62530 0.47200 0.79800
C22 C 0.7647(2) 0.48633(16) 0.70487(17)
C23 C 0.6475(2) 0.48376(16) 0.59003(17)
C24 C 0.6664(2) 0.47620(16) 0.48878(17)
H21 H 0.76470 0.47410 0.48760
C25 C 0.5393(2) 0.47082(17) 0.37611(17)
H22 H 0.54580 0.53280 0.33410
C26 C 0.3896(2) 0.47560(16) 0.39625(17)
C27 C 0.2496(2) 0.47948(16) 0.30113(18)
C28 C 0.1129(2) 0.49851(15) 0.43892(17)
C29 C 0.3836(2) 0.48744(16) 0.50337(17)
C30 C 0.2553(2) 0.52666(19) 0.64217(18)
H23 H 0.25790 0.46500 0.68420
H24 H 0.16640 0.56470 0.63800
H25 H 0.34350 0.56650 0.68030
C31 C -0.0298(2) 0.48989(18) 0.23658(18)
H26 H -0.01420 0.49650 0.16420
H27 H -0.08650 0.54720 0.24800
H28 H -0.08490 0.42850 0.23700
C32 C 0.5553(2) 0.38090(17) 0.30118(18)
H29 H 0.48390 0.38940 0.22420
H30 H 0.65630 0.38120 0.29650
#END
