
#######################################################################
#
#                 Cambridge Crystallographic Data Centre
#                                CCDC
#
#######################################################################
#
# If this CIF has been generated from an entry in the Cambridge
# Structural Database, then it will include bibliographic, chemical,
# crystal, experimental, refinement or atomic coordinate data resulting
# from the CCDC's data processing and validation procedures.
#
#######################################################################

data_CSD_CIF_UXAFEG
_audit_creation_date 2016-10-05
_audit_creation_method CSD-ConQuest-V1
_database_code_CSD UXAFEG
_database_code_depnum_ccdc_archive 'CCDC 1474917'
_chemical_formula_sum 'C22 H22 N2 O6'
_chemical_formula_moiety
;
C22 H22 N2 O6
;
_journal_coden_Cambridge 1500
_journal_volume 6
_journal_year 2016
_journal_page_first 95314
_journal_name_full 'RSC Advances '
loop_
_publ_author_name
"Chieh-Hung Peng"
"Bor-Cherng Hong"
"Arun Raja"
"Chun-Wei Chang"
"Gene-Hsiang Lee"
_chemical_name_systematic
;
3a-hydroxy-7a-methyl-4,6-dinitro-5,7-diphenyloctahydro-1H-inden-1-one
;
_cell_volume   1966.827
_exptl_crystal_colour 'colorless'
_exptl_crystal_density_diffrn 1.386
_exptl_crystal_description 'plate'
_diffrn_ambient_temperature 200
#These two values have been output from a single CSD field.
_refine_ls_R_factor_gt 0.0586
_refine_ls_wR_factor_gt 0.0586
loop_
_citation_database_id_CSD
_citation_special_details
UXAFUW "is a stereoisomer of this entry"
_symmetry_cell_setting monoclinic
_symmetry_space_group_name_H-M 'P 21/c'
_symmetry_Int_Tables_number 14
loop_
_symmetry_equiv_pos_site_id
_symmetry_equiv_pos_as_xyz
1 x,y,z
2 -x,1/2+y,1/2-z
3 -x,-y,-z
4 x,-1/2-y,-1/2+z
_cell_length_a 11.4563(7)
_cell_length_b 6.7710(4)
_cell_length_c 25.4114(15)
_cell_angle_alpha 90
_cell_angle_beta 93.8075(14)
_cell_angle_gamma 90
_cell_formula_units_Z 4
loop_
_atom_type_symbol
_atom_type_radius_bond
C 0.68
H 0.23
N 0.68
O 0.68
loop_
_atom_site_label
_atom_site_type_symbol
_atom_site_fract_x
_atom_site_fract_y
_atom_site_fract_z
O1 O 0.54065(13) -0.0499(2) 0.12294(6)
O2 O 0.42600(12) 0.61284(18) 0.08705(5)
H1 H 0.45780 0.71860 0.09770
O3 O 0.13121(14) -0.0623(2) 0.11933(6)
O4 O 0.06561(13) 0.2366(2) 0.11876(6)
O5 O 0.48775(15) 0.6198(2) 0.23931(6)
O6 O 0.35752(14) 0.7671(2) 0.18804(7)
N1 N 0.14411(15) 0.1158(3) 0.12407(6)
N2 N 0.41631(14) 0.6239(2) 0.20144(6)
C1 C 0.54335(17) 0.1270(3) 0.12081(8)
C2 C 0.63837(18) 0.2558(3) 0.14644(9)
H2 H 0.71460 0.22650 0.13190
H3 H 0.64560 0.23410 0.18500
C3 C 0.60081(17) 0.4683(3) 0.13375(8)
H4 H 0.64290 0.52080 0.10400
H5 H 0.61680 0.55480 0.16480
C4 C 0.46866(16) 0.4558(3) 0.11892(7)
C5 C 0.45410(17) 0.2570(3) 0.08902(7)
C6 C 0.33056(16) 0.1649(3) 0.08307(7)
H6 H 0.34360 0.01980 0.07910
C7 C 0.26837(16) 0.1873(3) 0.13485(7)
H7 H 0.30760 0.09540 0.16130
C8 C 0.27051(16) 0.3919(3) 0.15928(7)
H8 H 0.23440 0.48900 0.13340
C9 C 0.40131(16) 0.4372(2) 0.16954(7)
H9 H 0.43730 0.32670 0.19110
C10 C 0.25320(17) 0.2254(3) 0.03452(7)
C11 C 0.2068(2) 0.0750(3) 0.00241(9)
H10 H 0.22770 -0.05810 0.01010
C12 C 0.1304(2) 0.1163(4) -0.0407(1)
H11 H 0.09850 0.01150 -0.06190
C13 C 0.1007(2) 0.3071(4) -0.05288(9)
H12 H 0.04900 0.33520 -0.08270
C14 C 0.1462(2) 0.4585(4) -0.02164(9)
H13 H 0.12570 0.59130 -0.03000
C15 C 0.22164(19) 0.4183(3) 0.02188(8)
H14 H 0.25210 0.52380 0.04330
C16 C 0.20872(16) 0.4019(3) 0.21055(7)
C17 C 0.13456(18) 0.5583(3) 0.21912(8)
H15 H 0.11870 0.65320 0.19210
C18 C 0.0832(2) 0.5782(4) 0.26664(9)
H16 H 0.03330 0.68720 0.27230
C19 C 0.10467(18) 0.4392(4) 0.30566(8)
H17 H 0.06960 0.45230 0.33830
C20 C 0.1766(2) 0.2821(4) 0.29738(9)
H18 H 0.19030 0.18560 0.32420
C21 C 0.22964(18) 0.2628(3) 0.25016(8)
H19 H 0.28030 0.15450 0.24490
C22 C 0.5048(2) 0.2700(3) 0.03452(8)
H20 H 0.58660 0.31320 0.03880
H21 H 0.45940 0.36510 0.01250
H22 H 0.50080 0.13980 0.01760
#END
