
#######################################################################
#
#                 Cambridge Crystallographic Data Centre
#                                CCDC
#
#######################################################################
#
# If this CIF has been generated from an entry in the Cambridge
# Structural Database, then it will include bibliographic, chemical,
# crystal, experimental, refinement or atomic coordinate data resulting
# from the CCDC's data processing and validation procedures.
#
#######################################################################

data_CSD_CIF_UXAFIK01
_audit_creation_date 2016-10-05
_audit_creation_method CSD-ConQuest-V1
_database_code_CSD UXAFIK01
_database_code_depnum_ccdc_archive 'CCDC 1488798'
_chemical_formula_sum 'C22 H20 N4 O10'
_chemical_formula_moiety
;
C22 H20 N4 O10
;
_journal_coden_Cambridge 1500
_journal_volume 6
_journal_year 2016
_journal_page_first 95314
_journal_name_full 'RSC Advances '
loop_
_publ_author_name
"Chieh-Hung Peng"
"Bor-Cherng Hong"
"Arun Raja"
"Chun-Wei Chang"
"Gene-Hsiang Lee"
_chemical_name_systematic
;
3a-hydroxy-7a-methyl-4,6-dinitro-5,7-bis(2-nitrophenyl)octahydro-1H-inden-1-on
e
;
_cell_volume   2151.672
_exptl_crystal_colour 'colorless'
_exptl_crystal_density_diffrn 1.545
_exptl_special_details
;
Absolute configuration

;
_exptl_crystal_description 'block'
_diffrn_ambient_temperature 200
#These two values have been output from a single CSD field.
_refine_ls_R_factor_gt 0.024
_refine_ls_wR_factor_gt 0.024
_symmetry_cell_setting orthorhombic
_symmetry_space_group_name_H-M 'P 21 21 21'
_symmetry_Int_Tables_number 19
loop_
_symmetry_equiv_pos_site_id
_symmetry_equiv_pos_as_xyz
1 x,y,z
2 1/2-x,-y,1/2+z
3 -x,1/2+y,1/2-z
4 1/2+x,1/2-y,-z
_cell_length_a 9.3839(2)
_cell_length_b 11.6090(2)
_cell_length_c 19.7514(4)
_cell_angle_alpha 90
_cell_angle_beta 90
_cell_angle_gamma 90
_cell_formula_units_Z 4
loop_
_atom_type_symbol
_atom_type_radius_bond
C 0.68
H 0.23
N 0.68
O 0.68
loop_
_atom_site_label
_atom_site_type_symbol
_atom_site_fract_x
_atom_site_fract_y
_atom_site_fract_z
O1 O 1.18730(15) 0.84551(12) 0.08226(7)
O2 O 0.95526(13) 1.19361(10) 0.01313(7)
H1 H 0.99660 1.24550 0.03530
O3 O 0.72972(17) 0.73110(11) 0.06303(7)
O4 O 0.60840(14) 0.85899(12) 0.00801(7)
O5 O 0.88844(15) 1.15158(11) -0.12811(7)
O6 O 1.10273(16) 1.09336(14) -0.14797(7)
O7 O 0.91931(18) 0.84491(15) 0.23075(8)
O8 O 0.7276(2) 0.74215(14) 0.22317(9)
O9 O 0.59525(16) 1.10423(13) -0.07538(9)
O10 O 0.42979(17) 1.0148(2) -0.12695(10)
N1 N 0.72001(17) 0.81882(12) 0.02883(7)
N2 N 0.99389(17) 1.09505(13) -0.11409(7)
N3 N 0.7962(2) 0.82995(14) 0.21286(8)
N4 N 0.55397(16) 1.02577(15) -0.11107(8)
C1 C 1.17282(19) 0.94341(16) 0.06322(8)
C2 C 1.28043(19) 1.01284(16) 0.0236(1)
H2 H 1.31230 0.96990 -0.01700
H3 H 1.36460 1.03070 0.05190
C3 C 1.20303(19) 1.12341(15) 0.00314(9)
H4 H 1.22630 1.14480 -0.04410
H5 H 1.22990 1.18790 0.03340
C4 C 1.04307(18) 1.09491(13) 0.01027(8)
C5 C 1.03724(18) 1.01547(14) 0.07429(8)
C6 C 0.90725(18) 0.93488(14) 0.08461(8)
H6 H 0.94300 0.86860 0.11210
C7 C 0.85829(18) 0.88234(14) 0.01563(8)
H7 H 0.93130 0.82460 0.00120
C8 C 0.84202(17) 0.97135(14) -0.04136(8)
H8 H 0.77490 1.03340 -0.02670
C9 C 0.99164(18) 1.02216(14) -0.05059(8)
H9 H 1.06000 0.95700 -0.05690
C10 C 1.0650(2) 1.08615(17) 0.13921(9)
H10 H 1.06080 1.03520 0.17870
H11 H 0.99220 1.14630 0.14350
H12 H 1.15940 1.12180 0.13660
C11 C 0.78121(18) 0.98365(14) 0.12367(8)
C12 C 0.7226(2) 0.92697(15) 0.17970(8)
C13 C 0.5952(2) 0.95852(17) 0.20980(9)
H13 H 0.55900 0.91630 0.24720
C14 C 0.5215(2) 1.05218(17) 0.1847(1)
H14 H 0.43340 1.07460 0.20440
C15 C 0.5771(2) 1.11281(17) 0.13072(10)
H15 H 0.52760 1.17810 0.11370
C16 C 0.7044(2) 1.07946(15) 0.10110(9)
H16 H 0.74070 1.12310 0.06430
C17 C 0.78868(18) 0.91768(13) -0.10716(8)
C18 C 0.65608(19) 0.93931(15) -0.13713(9)
C19 C 0.6105(2) 0.88120(16) -0.19475(9)
H17 H 0.51830 0.89540 -0.21270
C20 C 0.6999(2) 0.80287(16) -0.22570(9)
H18 H 0.66980 0.76330 -0.26530
C21 C 0.8327(2) 0.78239(15) -0.19891(9)
H19 H 0.89550 0.73010 -0.22080
C22 C 0.87556(19) 0.83781(14) -0.14005(9)
H20 H 0.96670 0.82080 -0.12160
#END
