
#######################################################################
#
#                 Cambridge Crystallographic Data Centre
#                                CCDC
#
#######################################################################
#
# If this CIF has been generated from an entry in the Cambridge
# Structural Database, then it will include bibliographic, chemical,
# crystal, experimental, refinement or atomic coordinate data resulting
# from the CCDC's data processing and validation procedures.
#
#######################################################################

data_CSD_CIF_UXAFIK02
_audit_creation_date 2016-10-05
_audit_creation_method CSD-ConQuest-V1
_database_code_CSD UXAFIK02
_database_code_depnum_ccdc_archive 'CCDC 1485986'
_chemical_formula_sum 'C22 H20 N4 O10'
_chemical_formula_moiety
;
C22 H20 N4 O10
;
_journal_coden_Cambridge 1500
_journal_volume 6
_journal_year 2016
_journal_page_first 95314
_journal_name_full 'RSC Advances '
loop_
_publ_author_name
"Chieh-Hung Peng"
"Bor-Cherng Hong"
"Arun Raja"
"Chun-Wei Chang"
"Gene-Hsiang Lee"
_chemical_name_systematic
;
3a-hydroxy-7a-methyl-4,6-dinitro-5,7-bis(2-nitrophenyl)octahydro-1H-inden-1-on
e
;
_cell_volume   2152.316
_exptl_crystal_colour 'colorless'
_exptl_crystal_density_diffrn 1.544
_exptl_special_details
;
Absolute configuration

;
_exptl_crystal_description 'block'
_diffrn_ambient_temperature 200
#These two values have been output from a single CSD field.
_refine_ls_R_factor_gt 0.0255
_refine_ls_wR_factor_gt 0.0255
_symmetry_cell_setting orthorhombic
_symmetry_space_group_name_H-M 'P 21 21 21'
_symmetry_Int_Tables_number 19
loop_
_symmetry_equiv_pos_site_id
_symmetry_equiv_pos_as_xyz
1 x,y,z
2 1/2-x,-y,1/2+z
3 -x,1/2+y,1/2-z
4 1/2+x,1/2-y,-z
_cell_length_a 9.3887(2)
_cell_length_b 11.6113(3)
_cell_length_c 19.7433(5)
_cell_angle_alpha 90
_cell_angle_beta 90
_cell_angle_gamma 90
_cell_formula_units_Z 4
loop_
_atom_type_symbol
_atom_type_radius_bond
C 0.68
H 0.23
N 0.68
O 0.68
loop_
_atom_site_label
_atom_site_type_symbol
_atom_site_fract_x
_atom_site_fract_y
_atom_site_fract_z
O1 O 0.68729(15) 0.65448(12) 0.91768(7)
O2 O 0.45526(13) 0.30639(10) 0.98683(7)
H1 H 0.49620 0.25480 0.96430
O3 O 0.22974(17) 0.76877(11) 0.93703(7)
O4 O 0.10838(14) 0.64100(12) 0.99190(8)
O5 O 0.38832(16) 0.34847(12) 1.12809(8)
O6 O 0.60266(17) 0.40665(15) 1.14790(8)
O7 O 0.41918(18) 0.65517(16) 0.76928(8)
O8 O 0.2277(2) 0.75795(14) 0.77685(10)
O9 O 0.09513(17) 0.39583(13) 1.07535(9)
O10 O -0.07032(18) 0.4849(2) 1.12700(11)
N1 N 0.21995(17) 0.68133(12) 0.97116(7)
N2 N 0.49391(17) 0.40495(13) 1.11404(8)
N3 N 0.2961(2) 0.66993(14) 0.78724(8)
N4 N 0.05403(17) 0.47416(15) 1.11100(8)
C1 C 0.67306(19) 0.55672(16) 0.93681(9)
C2 C 0.78040(18) 0.48735(17) 0.97651(10)
H2 H 0.81200 0.53030 1.01720
H3 H 0.86470 0.46960 0.94830
C3 C 0.70307(19) 0.37650(15) 0.99685(10)
H4 H 0.72630 0.35500 1.04410
H5 H 0.72990 0.31220 0.96650
C4 C 0.54305(18) 0.40508(13) 0.98970(9)
C5 C 0.53722(18) 0.48440(14) 0.92575(9)
C6 C 0.40718(18) 0.56520(14) 0.91539(8)
H6 H 0.44290 0.63150 0.88790
C7 C 0.35831(17) 0.61749(14) 0.98438(9)
H7 H 0.43130 0.67510 0.99890
C8 C 0.34188(17) 0.52884(14) 1.04128(9)
H8 H 0.27470 0.46690 1.02660
C9 C 0.49170(18) 0.47768(14) 1.05057(9)
H9 H 0.56010 0.54280 1.05690
C10 C 0.5650(2) 0.41390(17) 0.86080(9)
H10 H 0.56050 0.46490 0.82130
H11 H 0.49250 0.35360 0.85650
H12 H 0.65960 0.37850 0.86330
C11 C 0.28115(18) 0.51633(14) 0.87632(9)
C12 C 0.22249(19) 0.57329(15) 0.82030(9)
C13 C 0.0950(2) 0.54164(17) 0.79012(10)
H13 H 0.05880 0.58380 0.75270
C14 C 0.0215(2) 0.44800(17) 0.81524(11)
H14 H -0.06670 0.42570 0.79560
C15 C 0.0770(2) 0.38707(17) 0.86919(11)
H15 H 0.02770 0.32170 0.88610
C16 C 0.2044(2) 0.42060(14) 0.89888(9)
H16 H 0.24070 0.37700 0.93580
C17 C 0.28870(18) 0.58231(13) 1.10709(9)
C18 C 0.15600(18) 0.56069(15) 1.13716(9)
C19 C 0.1106(2) 0.61879(17) 1.19469(10)
H17 H 0.01840 0.60460 1.21270
C20 C 0.1998(2) 0.69728(16) 1.22571(9)
H18 H 0.16970 0.73690 1.26530
C21 C 0.3327(2) 0.71773(15) 1.19884(10)
H19 H 0.39530 0.77020 1.22070
C22 C 0.37562(19) 0.66218(14) 1.14001(9)
H20 H 0.46680 0.67900 1.12160
#END
