
#######################################################################
#
#                 Cambridge Crystallographic Data Centre
#                                CCDC
#
#######################################################################
#
# If this CIF has been generated from an entry in the Cambridge
# Structural Database, then it will include bibliographic, chemical,
# crystal, experimental, refinement or atomic coordinate data resulting
# from the CCDC's data processing and validation procedures.
#
#######################################################################

data_CSD_CIF_UXAFIK
_audit_creation_date 2016-10-05
_audit_creation_method CSD-ConQuest-V1
_database_code_CSD UXAFIK
_database_code_depnum_ccdc_archive 'CCDC 1488808'
_chemical_formula_sum 'C22 H20 N4 O10'
_chemical_formula_moiety
;
C22 H20 N4 O10
;
_journal_coden_Cambridge 1500
_journal_volume 6
_journal_year 2016
_journal_page_first 95314
_journal_name_full 'RSC Advances '
loop_
_publ_author_name
"Chieh-Hung Peng"
"Bor-Cherng Hong"
"Arun Raja"
"Chun-Wei Chang"
"Gene-Hsiang Lee"
_chemical_name_systematic
;
3a-hydroxy-7a-methyl-4,6-dinitro-5,7-bis(2-nitrophenyl)octahydro-1H-inden-1-on
e
;
_cell_volume   2151.763
_exptl_crystal_colour 'colorless'
_exptl_crystal_density_diffrn 1.545
_exptl_special_details
;
Absolute configuration

;
_exptl_crystal_description 'block'
_diffrn_ambient_temperature 200
#These two values have been output from a single CSD field.
_refine_ls_R_factor_gt 0.0247
_refine_ls_wR_factor_gt 0.0247
_symmetry_cell_setting orthorhombic
_symmetry_space_group_name_H-M 'P 21 21 21'
_symmetry_Int_Tables_number 19
loop_
_symmetry_equiv_pos_site_id
_symmetry_equiv_pos_as_xyz
1 x,y,z
2 1/2-x,-y,1/2+z
3 -x,1/2+y,1/2-z
4 1/2+x,1/2-y,-z
_cell_length_a 9.3881(1)
_cell_length_b 11.6070(2)
_cell_length_c 19.7468(3)
_cell_angle_alpha 90
_cell_angle_beta 90
_cell_angle_gamma 90
_cell_formula_units_Z 4
loop_
_atom_type_symbol
_atom_type_radius_bond
C 0.68
H 0.23
N 0.68
O 0.68
loop_
_atom_site_label
_atom_site_type_symbol
_atom_site_fract_x
_atom_site_fract_y
_atom_site_fract_z
O1 O 1.18722(16) 0.84539(12) 0.08221(7)
O2 O 0.95549(14) 1.1936(1) 0.01314(7)
H1 H 0.99580 1.24470 0.03640
O3 O 0.72978(17) 0.73118(11) 0.06300(7)
O4 O 0.60844(14) 0.85899(12) 0.00805(7)
O5 O 0.88868(16) 1.15156(12) -0.12819(7)
O6 O 1.10297(17) 1.09329(15) -0.14797(7)
O7 O 0.91928(18) 0.84498(16) 0.23079(8)
O8 O 0.7279(2) 0.74210(15) 0.22314(10)
O9 O 0.59537(17) 1.10430(13) -0.07540(9)
O10 O 0.42971(17) 1.0150(2) -0.12704(10)
N1 N 0.72005(17) 0.81873(12) 0.02893(7)
N2 N 0.99397(17) 1.09503(13) -0.11412(8)
N3 N 0.7961(2) 0.82992(14) 0.21285(8)
N4 N 0.55406(17) 1.02569(15) -0.11110(8)
C1 C 1.1731(2) 0.94325(16) 0.06322(9)
C2 C 1.28032(19) 1.01290(17) 0.02348(10)
H2 H 1.31210 0.97000 -0.01710
H3 H 1.36460 1.03080 0.05170
C3 C 1.20315(19) 1.12329(15) 0.00308(9)
H4 H 1.22650 1.14470 -0.04420
H5 H 1.23000 1.18770 0.03330
C4 C 1.04311(18) 1.09487(14) 0.01020(9)
C5 C 1.03724(18) 1.01553(14) 0.07425(8)
C6 C 0.90720(18) 0.93484(14) 0.08460(8)
H6 H 0.94300 0.86850 0.11210
C7 C 0.85849(18) 0.88226(14) 0.01558(9)
H7 H 0.93150 0.82450 0.00110
C8 C 0.84213(17) 0.97141(14) -0.04138(8)
H8 H 0.77500 1.03340 -0.02670
C9 C 0.99168(18) 1.02221(14) -0.05066(8)
H9 H 1.05990 0.95700 -0.05700
C10 C 1.0650(2) 1.08614(17) 0.13924(9)
H10 H 1.06010 1.03520 0.17880
H11 H 0.99270 1.14670 0.14340
H12 H 1.15970 1.12130 0.13680
C11 C 0.78110(18) 0.98360(14) 0.12371(8)
C12 C 0.7225(2) 0.92692(16) 0.17972(9)
C13 C 0.5948(2) 0.95853(17) 0.20984(10)
H13 H 0.55840 0.91630 0.24720
C14 C 0.5216(2) 1.05215(18) 0.18469(11)
H14 H 0.43350 1.07470 0.20440
C15 C 0.5773(2) 1.11285(17) 0.13065(11)
H15 H 0.52780 1.17810 0.11360
C16 C 0.7046(2) 1.07950(15) 0.10109(9)
H16 H 0.74110 1.12320 0.06430
C17 C 0.78878(18) 0.91759(14) -0.10723(8)
C18 C 0.65604(19) 0.93925(15) -0.13718(9)
C19 C 0.6107(2) 0.88114(17) -0.19476(10)
H17 H 0.51850 0.89530 -0.21280
C20 C 0.6998(2) 0.80281(17) -0.22570(9)
H18 H 0.66970 0.76320 -0.26530
C21 C 0.8328(2) 0.78240(16) -0.19887(9)
H19 H 0.89560 0.73010 -0.22080
C22 C 0.87560(19) 0.83778(15) -0.14010(9)
H20 H 0.96670 0.82090 -0.12170
#END
