
#######################################################################
#
#                 Cambridge Crystallographic Data Centre
#                                CCDC
#
#######################################################################
#
# If this CIF has been generated from an entry in the Cambridge
# Structural Database, then it will include bibliographic, chemical,
# crystal, experimental, refinement or atomic coordinate data resulting
# from the CCDC's data processing and validation procedures.
#
#######################################################################

data_CSD_CIF_UXAYEY
_audit_creation_date 2011-10-11
_audit_creation_method CSD-ConQuest-V1
_database_code_CSD UXAYEY
_database_code_depnum_ccdc_archive 'CCDC 789893'
_chemical_formula_sum 'C34 H37 N1 O9'
_chemical_formula_moiety
;
C34 H37 N1 O9
;
_journal_coden_Cambridge 35
_journal_volume 75
_journal_year 2010
_journal_page_first 8457
_journal_name_full 'J.Org.Chem. '
loop_
_publ_author_name
"P.K.Kancharla"
"Y.D.Vankar"
_chemical_name_systematic
;
Methyl 
3-((2S,3R,4R,5R,6R)-4,5-bis(benzyloxy)-6-((benzyloxy)methyl)-3-nitro-2-(prop-2
-yn-1-yloxy)tetrahydro-2H-pyran-3-yl)propanoate
;
_cell_volume   1581.342
_exptl_crystal_colour 'colorless'
_exptl_crystal_density_diffrn 1.268
_exptl_special_details
;
Absolute configuration

;
_exptl_crystal_description 'cuboid'
_diffrn_ambient_temperature 293
#These two values have been output from a single CSD field.
_refine_ls_R_factor_gt 0.0625
_refine_ls_wR_factor_gt 0.0625
_symmetry_cell_setting monoclinic
_symmetry_space_group_name_H-M 'P 21'
_symmetry_Int_Tables_number 4
loop_
_symmetry_equiv_pos_site_id
_symmetry_equiv_pos_as_xyz
1 x,y,z
2 -x,1/2+y,-z
_cell_length_a 13.157(4)
_cell_length_b 9.516(3)
_cell_length_c 13.529(4)
_cell_angle_alpha 90
_cell_angle_beta 111.001(5)
_cell_angle_gamma 90
_cell_formula_units_Z 2
loop_
_atom_type_symbol
_atom_type_radius_bond
C 0.68
H 0.23
N 0.68
O 0.68
loop_
_atom_site_label
_atom_site_type_symbol
_atom_site_fract_x
_atom_site_fract_y
_atom_site_fract_z
O1 O 0.57854(19) 0.1874(2) 1.14171(17)
O2 O 0.90458(19) -0.1952(3) 0.8977(2)
O3 O 0.49291(19) 0.0182(2) 1.01358(18)
O4 O 0.80381(19) 0.2691(3) 1.1302(2)
O5 O 0.8239(2) 0.0640(3) 1.20282(19)
O6 O 0.71107(19) 0.2163(2) 0.90346(18)
O7 O 0.2945(2) 0.1532(3) 0.77513(19)
O8 O 0.7775(2) -0.3036(3) 0.9445(2)
O9 O 0.53008(19) 0.0514(2) 0.80925(17)
N1 N 0.7769(2) 0.1465(3) 1.1316(2)
C1 C 0.8260(3) -0.1993(4) 0.9384(3)
C2 C 0.7210(3) 0.3568(4) 0.8700(3)
H1 H 0.75560 0.41680 0.93080
H2 H 0.64980 0.39520 0.82980
C3 C 0.5226(3) 0.1632(4) 0.8762(3)
H3 H 0.49270 0.24560 0.83190
C4 C 0.6356(3) 0.2019(3) 0.9561(2)
H4 H 0.63050 0.29140 0.98990
C5 C 0.1593(3) 0.1935(5) 0.6041(3)
C6 C 0.6775(3) 0.0889(3) 1.0412(3)
C7 C 0.5537(3) -0.0222(4) 0.6521(3)
C8 C 0.5177(3) 0.0961(4) 0.7042(3)
H5 H 0.56180 0.17890 0.70720
H6 H 0.44220 0.11930 0.66460
C9 C 0.5411(3) 0.0714(4) 1.2828(3)
C10 C 0.9310(3) -0.3284(4) 0.8608(3)
H7 H 0.95020 -0.39550 0.91760
H8 H 0.99130 -0.31590 0.83760
H9 H 0.86910 -0.36190 0.80300
C11 C 0.7083(3) -0.0537(3) 1.0076(3)
H10 H 0.72120 -0.11880 1.06610
H11 H 0.64630 -0.08860 0.94900
C12 C 0.8075(3) -0.0561(4) 0.9744(3)
H12 H 0.79700 0.01070 0.91740
H13 H 0.87130 -0.02750 1.03380
C13 C 0.1826(3) 0.3346(5) 0.6132(3)
H14 H 0.22900 0.37060 0.67740
C14 C 0.5040(3) 0.1741(4) 1.1969(3)
H15 H 0.43330 0.14580 1.14720
H16 H 0.49560 0.26480 1.22570
C15 C 0.8956(3) 0.2976(4) 0.8439(3)
H17 H 0.92440 0.27150 0.91480
C16 C 0.2022(3) 0.0944(4) 0.6962(3)
H18 H 0.14610 0.07610 0.72540
H19 H 0.22190 0.00580 0.67240
C17 C 0.5904(3) 0.0626(4) 1.0916(3)
H20 H 0.61640 -0.01150 1.14510
C18 C 0.9592(3) 0.2863(5) 0.7824(3)
H21 H 1.03010 0.25260 0.81190
C19 C 0.4454(3) 0.1236(4) 0.9333(3)
H22 H 0.42910 0.20770 0.96680
C20 C 0.0437(3) 0.2304(6) 0.4227(3)
H23 H -0.00330 0.19470 0.35870
C21 C 0.1378(4) 0.4241(6) 0.5275(4)
H24 H 0.15490 0.51930 0.53410
C22 C 0.3406(3) 0.0596(4) 0.8617(3)
H25 H 0.35430 -0.03130 0.83640
H26 H 0.29110 0.04650 0.89960
C23 C 0.6623(4) -0.0469(5) 0.6750(3)
H27 H 0.71460 0.01440 0.71800
C24 C 0.7897(3) 0.3471(4) 0.8022(3)
C25 C 0.7479(3) 0.3849(5) 0.6961(3)
H28 H 0.67680 0.41750 0.66610
C26 C 0.9178(4) 0.3249(6) 0.6772(3)
H29 H 0.96030 0.31790 0.63540
C27 C 0.0676(4) 0.3713(6) 0.4323(4)
H30 H 0.03670 0.43110 0.37500
C28 C 0.4766(4) -0.1128(5) 0.5850(3)
H31 H 0.40310 -0.09510 0.56980
C29 C 0.0889(3) 0.1421(5) 0.5073(3)
H32 H 0.07250 0.04670 0.50000
C30 C 0.5066(7) -0.2264(5) 0.5415(4)
H33 H 0.45380 -0.28380 0.49470
C31 C 0.5713(4) -0.0118(5) 1.3515(3)
H34 H 0.59520 -0.07760 1.40570
C32 C 0.6112(8) -0.2555(6) 0.5658(4)
H35 H 0.63050 -0.33640 0.53810
C33 C 0.6934(5) -0.1690(8) 0.6315(4)
H36 H 0.76640 -0.19040 0.64650
C34 C 0.8124(4) 0.3739(6) 0.6349(3)
H37 H 0.78410 0.40020 0.56410
#END
