
#######################################################################
#
#                 Cambridge Crystallographic Data Centre
#                                CCDC
#
#######################################################################
#
# If this CIF has been generated from an entry in the Cambridge
# Structural Database, then it will include bibliographic, chemical,
# crystal, experimental, refinement or atomic coordinate data resulting
# from the CCDC's data processing and validation procedures.
#
#######################################################################

data_CSD_CIF_UXOMAW
_audit_creation_date 2011-10-11
_audit_creation_method CSD-ConQuest-V1
_database_code_CSD UXOMAW
_database_code_depnum_ccdc_archive 'CCDC 808923'
_chemical_formula_sum 'C21 H18 N2 O6'
_chemical_formula_moiety
;
C21 H18 N2 O6
;
_journal_coden_Cambridge 16
_journal_volume 67
_journal_year 2011
_journal_page_first 5415
_journal_name_full 'Tetrahedron '
loop_
_publ_author_name
"E.Ghabraie"
"S.Balalaie"
"M.Bararjanian"
"H.R.Bijanzadeh"
"F.Rominger"
_chemical_name_systematic
;
Dimethyl 1-benzyl-4-(3-nitrophenyl)-1H-pyrrole-2,3-dicarboxylate
;
_cell_volume    917.993
_exptl_crystal_colour 'yellow'
_exptl_crystal_density_diffrn 1.427
_exptl_crystal_description 'plate'
_diffrn_ambient_temperature 200
#These two values have been output from a single CSD field.
_refine_ls_R_factor_gt 0.0526
_refine_ls_wR_factor_gt 0.0526
_symmetry_cell_setting triclinic
_symmetry_space_group_name_H-M 'P -1'
_symmetry_Int_Tables_number 2
loop_
_symmetry_equiv_pos_site_id
_symmetry_equiv_pos_as_xyz
1 x,y,z
2 -x,-y,-z
_cell_length_a 9.0976(2)
_cell_length_b 9.2228(2)
_cell_length_c 11.7610(1)
_cell_angle_alpha 90.524(1)
_cell_angle_beta 110.998(1)
_cell_angle_gamma 94.304(1)
_cell_formula_units_Z 2
loop_
_atom_type_symbol
_atom_type_radius_bond
C 0.68
H 0.23
N 0.68
O 0.68
loop_
_atom_site_label
_atom_site_type_symbol
_atom_site_fract_x
_atom_site_fract_y
_atom_site_fract_z
N1 N 0.40770(17) 0.33668(16) 0.27202(13)
C1 C 0.2786(2) 0.4179(2) 0.24457(16)
C2 C 0.3321(2) 0.5559(2) 0.29809(15)
C3 C 0.4989(2) 0.5589(2) 0.35855(15)
C4 C 0.5391(2) 0.4216(2) 0.33892(16)
H1 H 0.64330 0.39140 0.36800
C5 C 0.1168(2) 0.3549(2) 0.17846(16)
O1 O 0.07764(16) 0.22695(15) 0.15344(14)
O2 O 0.01623(15) 0.45851(15) 0.15046(13)
C6 C -0.1489(2) 0.4115(3) 0.0886(2)
H2 H -0.16320 0.36100 0.01120
H3 H -0.21100 0.49630 0.07260
H4 H -0.18450 0.34520 0.13990
C7 C 0.2277(2) 0.6723(2) 0.29883(17)
O3 O 0.19009(17) 0.70203(16) 0.38404(12)
O4 O 0.18170(16) 0.74053(15) 0.19350(12)
C8 C 0.0547(2) 0.8339(2) 0.1743(2)
H5 H -0.02810 0.78400 0.19830
H6 H 0.01060 0.85660 0.08800
H7 H 0.09560 0.92420 0.22370
C9 C 0.4126(2) 0.1874(2) 0.22988(17)
H8 H 0.33160 0.12340 0.24740
H9 H 0.51710 0.15310 0.27670
C10 C 0.3844(2) 0.1730(2) 0.09560(17)
C11 C 0.4346(2) 0.2827(2) 0.03485(19)
H10 H 0.48430 0.37180 0.07710
C12 C 0.4126(3) 0.2627(3) -0.0877(2)
H11 H 0.44800 0.33800 -0.12870
C13 C 0.3400(3) 0.1346(3) -0.1496(2)
H12 H 0.32410 0.12190 -0.23360
C14 C 0.2904(2) 0.0247(2) -0.09012(19)
H13 H 0.24070 -0.06420 -0.13280
C15 C 0.3129(2) 0.0439(2) 0.03219(18)
H14 H 0.27890 -0.03250 0.07300
C16 C 0.6132(2) 0.6797(2) 0.42580(16)
C17 C 0.7710(2) 0.6525(2) 0.48847(16)
H15 H 0.80260 0.55620 0.49230
C18 C 0.8797(2) 0.7676(2) 0.54450(16)
C19 C 0.8425(2) 0.9096(2) 0.54449(17)
H16 H 0.92090 0.98620 0.58340
C20 C 0.6864(2) 0.9359(2) 0.48548(18)
H17 H 0.65570 1.03210 0.48520
C21 C 0.5742(2) 0.8235(2) 0.42674(17)
H18 H 0.46780 0.84460 0.38590
N2 N 1.04566(19) 0.7351(2) 0.60676(14)
O5 O 1.07415(16) 0.60728(18) 0.61858(14)
O6 O 1.14653(17) 0.83690(18) 0.64498(14)
#END
