
#######################################################################
#
#                 Cambridge Crystallographic Data Centre
#                                CCDC
#
#######################################################################
#
# If this CIF has been generated from an entry in the Cambridge
# Structural Database, then it will include bibliographic, chemical,
# crystal, experimental, refinement or atomic coordinate data resulting
# from the CCDC's data processing and validation procedures.
#
#######################################################################

data_CSD_CIF_UXUCUM
_audit_creation_date 2011-10-11
_audit_creation_method CSD-ConQuest-V1
_database_code_CSD UXUCUM
_database_code_depnum_ccdc_archive 'CCDC 819779'
_chemical_formula_sum 'C33 H26 N4 O4'
_chemical_formula_moiety
;
C33 H26 N4 O4
;
_journal_coden_Cambridge 24
_journal_volume 52
_journal_year 2011
_journal_page_first 4497
_journal_name_full 'Tetrahedron Lett. '
loop_
_publ_author_name
"Qin Fu"
"Chao-Guo Yan"
_chemical_name_systematic
;
2-((4-Methoxybenzylidene)amino)-5-(4-methoxyphenyl)-1-(4-methylphenyl)-4-(4-ni
trophenyl)-1H-pyrrole-3-carbonitrile
;
_cell_volume   2799.003
_exptl_crystal_colour 'yellow'
_exptl_crystal_density_diffrn 1.288
_exptl_crystal_description 'block'
_diffrn_ambient_temperature 296
#These two values have been output from a single CSD field.
_refine_ls_R_factor_gt 0.0501
_refine_ls_wR_factor_gt 0.0501
_symmetry_cell_setting monoclinic
_symmetry_space_group_name_H-M 'P 21/c'
_symmetry_Int_Tables_number 14
loop_
_symmetry_equiv_pos_site_id
_symmetry_equiv_pos_as_xyz
1 x,y,z
2 -x,1/2+y,1/2-z
3 -x,-y,-z
4 x,-1/2-y,-1/2+z
_cell_length_a 9.3082(17)
_cell_length_b 13.883(3)
_cell_length_c 21.843(4)
_cell_angle_alpha 90
_cell_angle_beta 97.426(3)
_cell_angle_gamma 90
_cell_formula_units_Z 4
loop_
_atom_type_symbol
_atom_type_radius_bond
C 0.68
H 0.23
N 0.68
O 0.68
loop_
_atom_site_label
_atom_site_type_symbol
_atom_site_fract_x
_atom_site_fract_y
_atom_site_fract_z
C1 C 0.1159(3) 0.01239(19) 0.40340(12)
H1 H 0.03900 -0.02070 0.38150
C2 C 0.1608(3) -0.0108(2) 0.46395(14)
H2 H 0.11390 -0.06030 0.48220
C3 C 0.2727(3) 0.0367(2) 0.49839(12)
C4 C 0.3162(3) 0.0137(3) 0.56594(13)
H3 H 0.40120 0.04980 0.58120
H4 H 0.33630 -0.05400 0.57060
H5 H 0.23860 0.03050 0.58890
C5 C 0.3401(3) 0.1069(2) 0.46888(14)
H6 H 0.41760 0.13970 0.49060
C6 C 0.2970(3) 0.13080(19) 0.40782(12)
H7 H 0.34550 0.17890 0.38910
C7 C 0.1838(2) 0.08401(16) 0.37522(10)
C8 C 0.2021(2) 0.09269(15) 0.2612(1)
C9 C 0.3428(2) 0.04196(16) 0.26504(10)
C10 C 0.3663(3) -0.04648(16) 0.29396(10)
H8 H 0.29260 -0.07440 0.31290
C11 C 0.4971(3) -0.09406(17) 0.29531(10)
H9 H 0.51110 -0.15310 0.31530
C12 C 0.6073(3) -0.05360(18) 0.26689(11)
C13 C 0.8440(3) -0.0762(2) 0.23613(14)
H10 H 0.80510 -0.06950 0.19350
H11 H 0.92050 -0.12310 0.24000
H12 H 0.88150 -0.01540 0.25180
C14 C 0.5874(2) 0.03394(17) 0.23813(11)
H13 H 0.66170 0.06150 0.21940
C15 C 0.4553(2) 0.08150(17) 0.23701(11)
H14 H 0.44210 0.14070 0.21720
C16 C 0.1188(2) 0.13159(15) 0.21074(10)
C17 C 0.1373(2) 0.12277(16) 0.14498(10)
C18 C 0.1600(2) 0.03305(17) 0.11996(11)
H15 H 0.16970 -0.02060 0.14570
C19 C 0.1686(2) 0.02165(17) 0.05754(11)
H16 H 0.18410 -0.03880 0.04120
C20 C 0.1538(2) 0.10149(19) 0.02050(11)
C21 C 0.1333(2) 0.19182(18) 0.04307(12)
H17 H 0.12450 0.24500 0.01700
C22 C 0.1258(2) 0.20191(17) 0.10568(12)
H18 H 0.11290 0.26290 0.12170
C23 C -0.0039(2) 0.17628(15) 0.23272(11)
C24 C -0.1199(3) 0.22060(16) 0.19393(11)
C25 C 0.0072(2) 0.16186(15) 0.29578(10)
C26 C -0.1860(2) 0.23973(16) 0.33179(11)
H19 H -0.21520 0.25990 0.29150
C27 C -0.2705(2) 0.26982(16) 0.37980(11)
C28 C -0.3973(2) 0.32223(18) 0.36446(11)
H20 H -0.42810 0.33640 0.32320
C29 C -0.4778(2) 0.35343(18) 0.40894(12)
H21 H -0.56220 0.38860 0.39780
C30 C -0.4340(2) 0.33269(17) 0.46982(11)
C31 C -0.4776(3) 0.3532(2) 0.57466(12)
H22 H -0.46970 0.28560 0.58360
H23 H -0.54770 0.38150 0.59780
H24 H -0.38520 0.38350 0.58590
C32 C -0.3076(2) 0.28102(17) 0.48704(11)
H25 H -0.27740 0.26710 0.52840
C33 C -0.2274(2) 0.25063(16) 0.44174(11)
H26 H -0.14230 0.21640 0.45310
N1 N 0.13302(19) 0.11074(12) 0.31296(8)
N2 N -0.07356(19) 0.18698(13) 0.34238(8)
N3 N -0.2110(2) 0.25592(17) 0.16155(10)
N4 N 0.1615(2) 0.0895(2) -0.04611(10)
O1 O 0.73254(19) -0.10707(13) 0.27053(8)
O2 O -0.52245(16) 0.36669(14) 0.51031(8)
O3 O 0.1359(2) 0.15899(17) -0.07946(9)
O4 O 0.1935(2) 0.01044(16) -0.06489(9)
#END
