
#######################################################################
#
#                 Cambridge Crystallographic Data Centre
#                                CCDC
#
#######################################################################
#
# If this CIF has been generated from an entry in the Cambridge
# Structural Database, then it will include bibliographic, chemical,
# crystal, experimental, refinement or atomic coordinate data resulting
# from the CCDC's data processing and validation procedures.
#
#######################################################################

data_CSD_CIF_UXUFOJ
_audit_creation_date 2011-10-11
_audit_creation_method CSD-ConQuest-V1
_database_code_CSD UXUFOJ
_database_code_depnum_ccdc_archive 'CCDC 827413'
_chemical_formula_sum 'C5 H5 N3 O3'
_chemical_formula_moiety
;
C5 H5 N3 O3
;
_journal_coden_Cambridge 24
_journal_volume 52
_journal_year 2011
_journal_page_first 4771
_journal_name_full 'Tetrahedron Lett. '
loop_
_publ_author_name
"L.E.Cheruzel"
"Jinlan Cui"
"M.S.Mashuta"
"C.A.Grapperhaus"
"R.M.Buchanan"
_chemical_name_systematic
;
1-Methyl-4-nitro-1H-imidazole-2-carbaldehyde
;
_cell_volume   1317.929
_exptl_crystal_colour 'colorless'
_exptl_crystal_density_diffrn 1.564
_exptl_crystal_description 'block'
_diffrn_ambient_temperature 100
#These two values have been output from a single CSD field.
_refine_ls_R_factor_gt 0.0348
_refine_ls_wR_factor_gt 0.0348
_symmetry_cell_setting monoclinic
_symmetry_space_group_name_H-M 'P 21/c'
_symmetry_Int_Tables_number 14
loop_
_symmetry_equiv_pos_site_id
_symmetry_equiv_pos_as_xyz
1 x,y,z
2 -x,1/2+y,1/2-z
3 -x,-y,-z
4 x,-1/2-y,-1/2+z
_cell_length_a 11.4305(15)
_cell_length_b 10.4593(14)
_cell_length_c 11.0941(15)
_cell_angle_alpha 90
_cell_angle_beta 96.462(2)
_cell_angle_gamma 90
_cell_formula_units_Z 8
loop_
_atom_type_symbol
_atom_type_radius_bond
C 0.68
H 0.23
N 0.68
O 0.68
loop_
_atom_site_label
_atom_site_type_symbol
_atom_site_fract_x
_atom_site_fract_y
_atom_site_fract_z
O1 O 0.11443(8) 1.11672(9) 0.73244(8)
O2 O -0.06584(8) 1.07492(9) 0.76591(9)
O3 O 0.13001(9) 0.63171(9) 0.40024(9)
N1 N -0.03357(9) 0.77394(10) 0.53711(9)
N2 N 0.11921(9) 0.90394(10) 0.59082(9)
N3 N 0.02479(9) 1.05108(10) 0.71902(9)
C1 C 0.08255(11) 0.80144(12) 0.52704(11)
C2 C 0.02328(11) 0.94000(11) 0.64285(11)
C3 C -0.07214(11) 0.86237(12) 0.61172(10)
H1 H -0.14850 0.86940 0.63710
C4 C -0.10492(11) 0.66818(12) 0.48126(11)
H2 H -0.18650 0.67790 0.49900
H3 H -0.07340 0.58670 0.51430
H4 H -0.10240 0.66940 0.39330
C5 C 0.15996(11) 0.72815(13) 0.45563(12)
H5 H 0.23800 0.75820 0.45270
O4 O 0.62719(9) -0.06898(10) 0.89205(9)
O5 O 0.54098(9) 0.26383(10) 0.42023(9)
O6 O 0.35366(8) 0.22045(9) 0.39747(8)
N4 N 0.43251(9) 0.02289(10) 0.71578(9)
N5 N 0.57389(9) 0.11875(10) 0.62438(9)
N6 N 0.45315(9) 0.21334(10) 0.45342(9)
C6 C 0.55057(11) 0.04690(12) 0.71707(11)
C7 C 0.46647(11) 0.14010(11) 0.56357(11)
C8 C 0.37730(11) 0.08247(12) 0.61721(11)
H6 H 0.29530 0.08420 0.59090
C9 C 0.64321(12) 0.00050(14) 0.80837(12)
H7 H 0.72170 0.02690 0.80140
C10 C 0.37327(12) -0.04892(14) 0.80528(12)
H8 H 0.28800 -0.04770 0.78170
H9 H 0.39090 -0.00940 0.88540
H10 H 0.40130 -0.13750 0.80840
#END
