
#######################################################################
#
#                 Cambridge Crystallographic Data Centre
#                                CCDC
#
#######################################################################
#
# If this CIF has been generated from an entry in the Cambridge
# Structural Database, then it will include bibliographic, chemical,
# crystal, experimental, refinement or atomic coordinate data resulting
# from the CCDC's data processing and validation procedures.
#
#######################################################################

data_CSD_CIF_UXUHUS
_audit_creation_date 2016-10-07
_audit_creation_method CSD-ConQuest-V1
_database_code_CSD UXUHUS
_database_code_depnum_ccdc_archive 'CCDC 1484300'
_chemical_formula_sum 'C16 H13 N3 O4'
_chemical_formula_moiety
;
C16 H13 N3 O4
;
_journal_coden_Cambridge 1267
_journal_volume 231
_journal_year 2016
_journal_page_first 1077
_journal_name_full 'Z.Kristallogr.-New Cryst.Struct. '
loop_
_publ_author_name
"Yunchun Luo"
"Wen Yi"
"Yuzhou Yao"
"Ni Zhu"
"Pengfei Qin"
_chemical_name_systematic
;
2-amino-4-(4-nitrophenyl)-5-oxo-5,6,7,8-tetrahydro- 4H-chromene-3-carbonitrile
;
_cell_volume   2977.629
_exptl_crystal_colour 'colorless'
_exptl_crystal_density_diffrn 1.389
_exptl_crystal_description 'block'
_diffrn_ambient_temperature 293
#These two values have been output from a single CSD field.
_refine_ls_R_factor_gt 0.0533
_refine_ls_wR_factor_gt 0.0533
_symmetry_cell_setting monoclinic
_symmetry_space_group_name_H-M 'C 2/c'
_symmetry_Int_Tables_number 15
loop_
_symmetry_equiv_pos_site_id
_symmetry_equiv_pos_as_xyz
1 x,y,z
2 -x,y,1/2-z
3 1/2+x,1/2+y,z
4 1/2-x,1/2+y,1/2-z
5 -x,-y,-z
6 x,-y,-1/2+z
7 -1/2-x,-1/2-y,-z
8 -1/2+x,-1/2-y,-1/2+z
_cell_length_a 13.8536(12)
_cell_length_b 11.0922(7)
_cell_length_c 20.432(2)
_cell_angle_alpha 90
_cell_angle_beta 108.491(10)
_cell_angle_gamma 90
_cell_formula_units_Z 8
loop_
_atom_type_symbol
_atom_type_radius_bond
C 0.68
H 0.23
N 0.68
O 0.68
loop_
_atom_site_label
_atom_site_type_symbol
_atom_site_fract_x
_atom_site_fract_y
_atom_site_fract_z
C1 C 0.28139(18) 0.6659(2) 0.43156(12)
C2 C 0.26607(17) 0.54934(19) 0.44472(12)
C3 C 0.16180(17) 0.49328(18) 0.42857(12)
H1 H 0.15540 0.46050 0.47160
C4 C 0.08253(18) 0.58851(18) 0.40315(12)
C5 C 0.10368(17) 0.7018(2) 0.39009(12)
C6 C 0.02913(19) 0.7992(2) 0.36293(15)
H2 H 0.04900 0.84550 0.32900
H3 H 0.02870 0.85300 0.40020
C7 C -0.0764(2) 0.7482(3) 0.33002(19)
H4 H -0.12600 0.81290 0.32180
H5 H -0.08080 0.71260 0.28580
C8 C -0.1013(2) 0.6543(2) 0.3753(2)
H6 H -0.10780 0.69310 0.41620
H7 H -0.16650 0.61810 0.35070
C9 C -0.02312(18) 0.5574(2) 0.39671(14)
C10 C 0.35026(19) 0.4738(2) 0.47195(13)
C11 C 0.14793(16) 0.38958(18) 0.37728(12)
C12 C 0.13462(19) 0.27397(19) 0.39707(13)
H8 H 0.13040 0.26040 0.44100
C13 C 0.12739(19) 0.1782(2) 0.35316(14)
H9 H 0.11860 0.10030 0.36720
C14 C 0.13320(18) 0.1989(2) 0.28918(14)
C15 C 0.1440(2) 0.3131(2) 0.26668(14)
H10 H 0.14650 0.32600 0.22230
C16 C 0.15119(19) 0.4080(2) 0.31136(13)
H11 H 0.15830 0.48590 0.29680
O1 O 0.20223(12) 0.74254(13) 0.40217(9)
O2 O -0.04389(13) 0.45638(15) 0.41209(11)
O3 O 0.1369(3) 0.1106(2) 0.18894(15)
O4 O 0.1262(3) -0.0012(2) 0.26441(17)
N1 N 0.37054(15) 0.72362(17) 0.44523(11)
H12 H 0.42650 0.68580 0.46460
H13 H 0.37180 0.79850 0.43460
N2 N 0.41695(18) 0.4076(2) 0.49423(13)
N3 N 0.1304(2) 0.0956(2) 0.24350(16)
#END
