
#######################################################################
#
#                 Cambridge Crystallographic Data Centre
#                                CCDC
#
#######################################################################
#
# If this CIF has been generated from an entry in the Cambridge
# Structural Database, then it will include bibliographic, chemical,
# crystal, experimental, refinement or atomic coordinate data resulting
# from the CCDC's data processing and validation procedures.
#
#######################################################################

data_CSD_CIF_UXUKUV01
_audit_creation_date 2018-09-22
_audit_creation_method CSD-ConQuest-V1
_database_code_CSD UXUKUV01
_database_code_depnum_ccdc_archive 'CCDC 1835056'
_chemical_formula_sum 'C3 H2 N4 O4'
_chemical_formula_moiety
;
C3 H2 N4 O4
;
_journal_coden_Cambridge 1564
_journal_volume 83
_journal_year 2018
_journal_page_first 804
_journal_name_full 'ChemPlusChem '
loop_
_publ_author_name
"M.F.Bolter"
"A.Harter"
"T.M.Klapotke"
"J.Stierstorfer"
_chemical_name_systematic
;
3,4-dinitro-1H-pyrazole
;
_cell_volume   1149.349
_exptl_crystal_colour 'light yellow'
_exptl_crystal_density_diffrn 1.827
_exptl_crystal_description 'block'
_diffrn_ambient_temperature 123
#These two values have been output from a single CSD field.
_refine_ls_R_factor_gt 0.0324
_refine_ls_wR_factor_gt 0.0324
_symmetry_cell_setting monoclinic
_symmetry_space_group_name_H-M 'P 21/c'
_symmetry_Int_Tables_number 14
loop_
_symmetry_equiv_pos_site_id
_symmetry_equiv_pos_as_xyz
1 x,y,z
2 -x,1/2+y,1/2-z
3 -x,-y,-z
4 x,-1/2-y,-1/2+z
_cell_length_a 9.8326(4)
_cell_length_b 12.0559(4)
_cell_length_c 9.7190(4)
_cell_angle_alpha 90
_cell_angle_beta 93.959(4)
_cell_angle_gamma 90
_cell_formula_units_Z 8
loop_
_atom_type_symbol
_atom_type_radius_bond
C 0.68
H 0.23
N 0.68
O 0.68
loop_
_atom_site_label
_atom_site_type_symbol
_atom_site_fract_x
_atom_site_fract_y
_atom_site_fract_z
O1 O 0.66993(13) -0.26387(10) 0.49943(13)
C1 C 0.92622(14) -0.39163(11) 0.64312(14)
C2 C 0.82107(14) -0.40573(11) 0.54028(14)
N1 N 0.99703(12) -0.29154(9) 0.67835(13)
N2 N 0.86111(12) -0.56206(10) 0.62890(13)
N3 N 0.75517(12) -0.32179(10) 0.45058(13)
C3 C 0.94907(15) -0.49543(12) 0.69871(15)
N4 N 0.78022(12) -0.50937(10) 0.53007(12)
O2 O 0.97485(12) -0.21103(8) 0.60418(12)
O3 O 1.07750(13) -0.29173(9) 0.78093(13)
O4 O 0.78873(14) -0.31727(11) 0.33281(12)
H1 H 1.0098(18) -0.5214(15) 0.7723(18)
H2 H 0.8517(18) -0.6305(16) 0.6353(17)
N5 N 0.75151(12) 0.05821(10) 0.54021(12)
O5 O 0.48914(11) 0.03964(9) 0.15539(10)
N6 N 0.69440(12) 0.24867(9) 0.49514(12)
N7 N 0.61756(13) 0.30403(10) 0.39604(12)
C4 C 0.68134(13) 0.14418(11) 0.45719(14)
C5 C 0.55796(14) 0.23894(11) 0.29955(15)
C6 C 0.59816(13) 0.13259(11) 0.33522(14)
N8 N 0.55956(12) 0.03293(9) 0.26479(13)
O6 O 0.84656(12) 0.01192(10) 0.49259(12)
O7 O 0.59999(13) -0.05442(8) 0.31698(14)
O8 O 0.71043(14) 0.03994(11) 0.65315(12)
H3 H 0.5032(18) 0.2656(15) 0.2266(18)
H4 H 0.6135(17) 0.3763(16) 0.4016(16)
#END
