
#######################################################################
#
#                 Cambridge Crystallographic Data Centre
#                                CCDC
#
#######################################################################
#
# If this CIF has been generated from an entry in the Cambridge
# Structural Database, then it will include bibliographic, chemical,
# crystal, experimental, refinement or atomic coordinate data resulting
# from the CCDC's data processing and validation procedures.
#
#######################################################################

data_CSD_CIF_UXUKII
_audit_creation_date 2011-10-11
_audit_creation_method CSD-ConQuest-V1
_database_code_CSD UXUKII
_database_code_depnum_ccdc_archive 'CCDC 818187'
_chemical_formula_sum 'C7 H9 N3 O2'
_chemical_formula_moiety
;
C7 H9 N3 O2
;
_journal_coden_Cambridge 16
_journal_volume 67
_journal_year 2011
_journal_page_first 6352
_journal_name_full 'Tetrahedron '
loop_
_publ_author_name
"G.Saint-Andre"
"M.Kliachyna"
"S.Kodepelly"
"L.Louise-Leriche"
"E.Gillon"
"P.-Y.Renard"
"F.Nachon"
"R.Baati"
"A.Wagner"
_chemical_name_systematic
;
2-(N'-Hydroxycarbamimidoyl)-1-methylpyridinium-3-olate
;
_cell_volume    362.123
_exptl_crystal_colour 'colorless'
_exptl_crystal_density_diffrn 1.533
_exptl_crystal_description 'block'
_diffrn_ambient_temperature 173
#These two values have been output from a single CSD field.
_refine_ls_R_factor_gt 0.0564
_refine_ls_wR_factor_gt 0.0564
_symmetry_cell_setting triclinic
_symmetry_space_group_name_H-M 'P -1'
_symmetry_Int_Tables_number 2
loop_
_symmetry_equiv_pos_site_id
_symmetry_equiv_pos_as_xyz
1 x,y,z
2 -x,-y,-z
_cell_length_a 6.9464(5)
_cell_length_b 6.9984(5)
_cell_length_c 7.9374(5)
_cell_angle_alpha 98.413(4)
_cell_angle_beta 104.965(4)
_cell_angle_gamma 98.211(4)
_cell_formula_units_Z 2
loop_
_atom_type_symbol
_atom_type_radius_bond
C 0.68
H 0.23
N 0.68
O 0.68
loop_
_atom_site_label
_atom_site_type_symbol
_atom_site_fract_x
_atom_site_fract_y
_atom_site_fract_z
C1 C 0.5247(2) 0.2907(2) 0.75002(18)
C2 C 0.3391(2) 0.1787(2) 0.63169(18)
C3 C 0.2061(2) 0.2888(2) 0.5371(2)
H1 H 0.08030 0.22220 0.45580
C4 C 0.2569(2) 0.4899(2) 0.5617(2)
H2 H 0.16690 0.56010 0.49550
C5 C 0.4369(2) 0.5914(2) 0.6814(2)
H3 H 0.47030 0.73060 0.69850
C6 C 0.6772(2) 0.1911(2) 0.85368(18)
C7 C 0.7546(2) 0.6052(2) 0.9030(2)
H4 H 0.86920 0.59170 0.85440
H5 H 0.77630 0.55530 1.01420
H6 H 0.74410 0.74420 0.92620
N1 N 0.56438(19) 0.49081(17) 0.77331(16)
N2 N 0.66582(19) 0.18516(19) 1.01180(17)
N3 N 0.8164(2) 0.1276(2) 0.77606(18)
O1 O 0.29723(16) -0.01004(15) 0.61358(14)
O2 O 0.81898(16) 0.09006(16) 1.10329(14)
H7 H 0.897(4) 0.057(3) 0.839(3)
H8 H 0.784(3) 0.111(3) 0.649(3)
H9 H 0.777(4) 0.066(3) 1.205(3)
#END
