
#######################################################################
#
#                 Cambridge Crystallographic Data Centre
#                                CCDC
#
#######################################################################
#
# If this CIF has been generated from an entry in the Cambridge
# Structural Database, then it will include bibliographic, chemical,
# crystal, experimental, refinement or atomic coordinate data resulting
# from the CCDC's data processing and validation procedures.
#
#######################################################################

data_CSD_CIF_UXULEF
_audit_creation_date 2011-10-11
_audit_creation_method CSD-ConQuest-V1
_database_code_CSD UXULEF
_database_code_depnum_ccdc_archive 'CCDC 815828'
_chemical_formula_sum 'C20 H25 N1 O2'
_chemical_formula_moiety
;
C20 H25 N1 O2
;
_journal_coden_Cambridge 16
_journal_volume 67
_journal_year 2011
_journal_page_first 6382
_journal_name_full 'Tetrahedron '
loop_
_publ_author_name
"S.G.Davies"
"J.A.Lee"
"P.M.Roberts"
"J.E.Thomson"
"Jingda Yin"
_chemical_name_systematic
;
N-t-Butoxy-N-(1-(1-naphthyl)ethyl)but-2-enamide
;
_chemical_melting_point 341.15
_cell_volume   1809.107
_exptl_crystal_colour 'colorless'
_exptl_crystal_density_diffrn 1.143
_exptl_special_details
;
Melting point range 341.15-343.15K

;
_exptl_crystal_description 'block'
_diffrn_ambient_temperature 150
#These two values have been output from a single CSD field.
_refine_ls_R_factor_gt 0.0426
_refine_ls_wR_factor_gt 0.0426
_symmetry_cell_setting monoclinic
_symmetry_space_group_name_H-M 'P 21'
_symmetry_Int_Tables_number 4
loop_
_symmetry_equiv_pos_site_id
_symmetry_equiv_pos_as_xyz
1 x,y,z
2 -x,1/2+y,-z
_cell_length_a 13.1038(2)
_cell_length_b 9.7412(2)
_cell_length_c 14.4605(3)
_cell_angle_alpha 90
_cell_angle_beta 101.4490(9)
_cell_angle_gamma 90
_cell_formula_units_Z 4
loop_
_atom_type_symbol
_atom_type_radius_bond
C 0.68
H 0.23
N 0.68
O 0.68
loop_
_atom_site_label
_atom_site_type_symbol
_atom_site_fract_x
_atom_site_fract_y
_atom_site_fract_z
O1 O 0.21569(10) 0.97203(16) 0.12576(10)
N1 N 0.29308(13) 0.88058(19) 0.17082(12)
C1 C 0.39264(16) 0.9089(2) 0.15784(15)
O2 O 0.46707(11) 0.8460(2) 0.20436(12)
C2 C 0.40584(17) 1.0146(3) 0.08778(16)
C3 C 0.49971(19) 1.0467(3) 0.07394(18)
C4 C 0.5249(2) 1.1594(4) 0.0127(2)
C5 C 0.27995(16) 0.8403(2) 0.26722(15)
C6 C 0.20103(16) 0.7256(2) 0.26532(15)
C7 C 0.22087(17) 0.5913(2) 0.23268(15)
C8 C 0.14371(19) 0.4872(3) 0.23041(16)
C9 C 0.05154(19) 0.5173(3) 0.26323(18)
C10 C 0.03612(19) 0.6436(3) 0.29686(19)
C11 C 0.11068(18) 0.7486(3) 0.29778(17)
C12 C 0.1623(2) 0.3545(3) 0.19794(19)
C13 C 0.2526(2) 0.3234(3) 0.1700(2)
C14 C 0.3297(2) 0.4257(3) 0.1727(2)
C15 C 0.31433(19) 0.5559(3) 0.20241(19)
C16 C 0.2589(2) 0.9672(3) 0.32139(17)
C17 C 0.14034(17) 0.9181(3) 0.04296(15)
C18 C 0.1810(3) 0.7932(3) 0.0007(2)
C19 C 0.1278(3) 1.0369(4) -0.0258(2)
C20 C 0.0394(2) 0.8879(6) 0.0749(2)
O3 O 0.13381(11) 0.77598(19) 0.75992(11)
C21 C 0.21719(16) 0.7371(2) 0.74201(14)
N2 N 0.27678(13) 0.8289(2) 0.70152(13)
O4 O 0.37874(10) 0.78262(18) 0.7000(1)
C22 C 0.39858(18) 0.7490(3) 0.60500(16)
C23 C 0.3055(2) 0.6824(3) 0.54277(18)
C24 C 0.4319(2) 0.8774(3) 0.5598(2)
C25 C 0.4900(2) 0.6514(3) 0.6305(2)
C26 C 0.27117(17) 0.9762(2) 0.72789(15)
C27 C 0.26874(16) 1.0758(2) 0.64671(15)
C28 C 0.18363(17) 1.0730(2) 0.56749(15)
C29 C 0.10226(16) 0.9734(3) 0.55715(15)
C30 C 0.02066(18) 0.9775(3) 0.48129(16)
C31 C 0.0145(2) 1.0799(3) 0.41215(18)
C32 C 0.0906(2) 1.1752(3) 0.41907(18)
C33 C 0.1776(2) 1.1750(3) 0.49564(16)
C34 C 0.2582(2) 1.2737(3) 0.5034(2)
C35 C 0.3384(2) 1.2740(3) 0.5784(2)
C36 C 0.34339(19) 1.1755(3) 0.65112(19)
C37 C 0.3550(2) 1.0055(3) 0.81536(18)
C38 C 0.25475(18) 0.5949(3) 0.76083(16)
C39 C 0.2023(2) 0.5101(3) 0.80631(18)
C40 C 0.2329(2) 0.3663(3) 0.8341(2)
H1 H 0.34520 1.06030 0.05270
H2 H 0.55760 0.99090 0.10850
H3 H 0.56470 1.12400 -0.03350
H4 H 0.56700 1.23160 0.05120
H5 H 0.46050 1.20040 -0.02260
H6 H 0.34920 0.80360 0.29890
H7 H -0.00100 0.44670 0.26030
H8 H -0.02810 0.66250 0.32060
H9 H 0.09760 0.83970 0.32230
H10 H 0.11020 0.28690 0.19520
H11 H 0.26400 0.22970 0.14870
H12 H 0.39580 0.40440 0.15340
H13 H 0.36590 0.62590 0.20410
H14 H 0.25240 0.94090 0.38560
H15 H 0.31560 1.03160 0.32110
H16 H 0.19200 1.00640 0.28770
H17 H 0.13410 0.77290 -0.05950
H18 H 0.25290 0.81280 -0.01010
H19 H 0.18060 0.71630 0.04410
H20 H 0.07100 1.01380 -0.07930
H21 H 0.10840 1.11890 0.00610
H22 H 0.19580 1.05030 -0.04740
H23 H -0.01450 0.87500 0.01780
H24 H 0.02180 0.96400 0.11060
H25 H 0.04870 0.80380 0.11340
H26 H 0.32470 0.65310 0.48450
H27 H 0.24630 0.74460 0.52960
H28 H 0.28630 0.60280 0.57670
H29 H 0.45580 0.85100 0.50170
H30 H 0.48680 0.92040 0.60440
H31 H 0.37110 0.94010 0.54410
H32 H 0.51390 0.62630 0.57230
H33 H 0.54540 0.69650 0.67430
H34 H 0.46570 0.56800 0.65850
H35 H 0.20000 0.98720 0.74620
H36 H 0.10740 0.90410 0.60610
H37 H -0.03500 0.90850 0.47510
H38 H -0.04300 1.08430 0.35900
H39 H 0.08800 1.24450 0.37180
H40 H 0.25340 1.34230 0.45450
H41 H 0.39350 1.34090 0.58340
H42 H 0.39970 1.17940 0.70500
H43 H 0.34790 1.10170 0.83710
H44 H 0.35090 0.94050 0.86570
H45 H 0.42490 0.99700 0.79950
H46 H 0.31780 0.56690 0.74210
H47 H 0.13880 0.54510 0.82210
H48 H 0.18120 0.32060 0.86390
H49 H 0.29720 0.36960 0.87990
H50 H 0.24780 0.31180 0.78360
#END
