
#######################################################################
#
#                 Cambridge Crystallographic Data Centre
#                                CCDC
#
#######################################################################
#
# If this CIF has been generated from an entry in the Cambridge
# Structural Database, then it will include bibliographic, chemical,
# crystal, experimental, refinement or atomic coordinate data resulting
# from the CCDC's data processing and validation procedures.
#
#######################################################################

data_CSD_CIF_UXULIJ
_audit_creation_date 2011-10-11
_audit_creation_method CSD-ConQuest-V1
_database_code_CSD UXULIJ
_database_code_depnum_ccdc_archive 'CCDC 815829'
_chemical_formula_sum 'C25 H27 N1 O2'
_chemical_formula_moiety
;
C25 H27 N1 O2
;
_journal_coden_Cambridge 16
_journal_volume 67
_journal_year 2011
_journal_page_first 6382
_journal_name_full 'Tetrahedron '
loop_
_publ_author_name
"S.G.Davies"
"J.A.Lee"
"P.M.Roberts"
"J.E.Thomson"
"Jingda Yin"
_chemical_name_systematic
;
N-t-Butoxy-N-(1-(1-naphthyl)ethyl)-3-phenylacrylamide
;
_chemical_melting_point 358.15
_cell_volume   2048.570
_exptl_crystal_colour 'colorless'
_exptl_crystal_density_diffrn 1.211
_exptl_special_details
;
Melting point range 358.15-359.15K

;
_exptl_crystal_description 'plate'
_diffrn_ambient_temperature 150
#These two values have been output from a single CSD field.
_refine_ls_R_factor_gt 0.0277
_refine_ls_wR_factor_gt 0.0277
_symmetry_cell_setting orthorhombic
_symmetry_space_group_name_H-M 'P 21 21 21'
_symmetry_Int_Tables_number 19
loop_
_symmetry_equiv_pos_site_id
_symmetry_equiv_pos_as_xyz
1 x,y,z
2 1/2+x,1/2-y,-z
3 -x,1/2+y,1/2-z
4 1/2-x,-y,1/2+z
_cell_length_a 8.1118(1)
_cell_length_b 26.0315(4)
_cell_length_c 9.7014(2)
_cell_angle_alpha 90
_cell_angle_beta 90
_cell_angle_gamma 90
_cell_formula_units_Z 4
loop_
_atom_type_symbol
_atom_type_radius_bond
C 0.68
H 0.23
N 0.68
O 0.68
loop_
_atom_site_label
_atom_site_type_symbol
_atom_site_fract_x
_atom_site_fract_y
_atom_site_fract_z
O1 O 0.65404(13) 0.29858(4) 0.17460(12)
N1 N 0.82226(16) 0.31098(5) 0.19220(14)
C1 C 0.8629(2) 0.36511(6) 0.16043(17)
C2 C 0.7922(2) 0.40039(6) 0.26897(17)
C3 C 0.8685(2) 0.40281(6) 0.40197(17)
C4 C 1.0161(2) 0.37603(7) 0.43506(18)
C5 C 1.0867(2) 0.38051(7) 0.56237(19)
C6 C 1.0132(3) 0.41057(7) 0.6651(2)
C7 C 0.8697(3) 0.43611(7) 0.63790(19)
C8 C 0.7953(2) 0.43367(6) 0.50641(19)
C9 C 0.6495(2) 0.46170(7) 0.4758(2)
C10 C 0.5814(2) 0.45992(7) 0.3475(2)
C11 C 0.6535(2) 0.42927(7) 0.24390(19)
C12 C 0.8140(2) 0.37752(7) 0.01235(18)
C13 C 0.9326(2) 0.27276(6) 0.15854(18)
O2 O 1.08195(15) 0.28175(5) 0.16213(15)
C14 C 0.8645(2) 0.22193(6) 0.12138(17)
C15 C 0.9405(2) 0.17879(6) 0.15768(19)
C16 C 0.8918(2) 0.12622(6) 0.11905(18)
C17 C 0.9595(2) 0.08457(7) 0.1890(2)
C18 C 0.9232(3) 0.03456(7) 0.1502(2)
C19 C 0.8186(3) 0.02527(7) 0.0407(2)
C20 C 0.7487(2) 0.06629(7) -0.0286(2)
C21 C 0.7844(2) 0.11649(7) 0.0098(2)
C22 C 0.5644(2) 0.28130(6) 0.30118(17)
C23 C 0.4647(2) 0.23568(7) 0.2497(2)
C24 C 0.4507(3) 0.32464(7) 0.3455(2)
C25 C 0.6796(2) 0.26632(8) 0.41703(19)
H1 H 0.98620 0.36670 0.16580
H2 H 1.06490 0.35440 0.36400
H3 H 1.18680 0.36260 0.58170
H4 H 1.06310 0.41270 0.75570
H5 H 0.81770 0.45610 0.70780
H6 H 0.60220 0.48290 0.54760
H7 H 0.48370 0.47950 0.32710
H8 H 0.60330 0.42800 0.15460
H9 H 0.84140 0.41350 -0.00510
H10 H 0.87250 0.35480 -0.05160
H11 H 0.69530 0.37210 0.00200
H12 H 0.76560 0.21990 0.07040
H13 H 1.03750 0.18320 0.21320
H14 H 1.03520 0.09150 0.26460
H15 H 0.97230 0.00630 0.20060
H16 H 0.79770 -0.00960 0.01310
H17 H 0.67420 0.05990 -0.10360
H18 H 0.73740 0.14460 -0.03960
H19 H 0.39170 0.22510 0.32420
H20 H 0.54060 0.20750 0.22590
H21 H 0.40160 0.24640 0.17100
H22 H 0.37470 0.30970 0.41260
H23 H 0.39220 0.33640 0.26370
H24 H 0.51940 0.35220 0.38470
H25 H 0.61280 0.25550 0.49410
H26 H 0.75160 0.23810 0.38870
H27 H 0.74470 0.29580 0.44310
#END
