
#######################################################################
#
#                 Cambridge Crystallographic Data Centre
#                                CCDC
#
#######################################################################
#
# If this CIF has been generated from an entry in the Cambridge
# Structural Database, then it will include bibliographic, chemical,
# crystal, experimental, refinement or atomic coordinate data resulting
# from the CCDC's data processing and validation procedures.
#
#######################################################################

data_CSD_CIF_UXULOP
_audit_creation_date 2011-10-11
_audit_creation_method CSD-ConQuest-V1
_database_code_CSD UXULOP
_database_code_depnum_ccdc_archive 'CCDC 815830'
_chemical_formula_sum 'C35 H42 N2 O2'
_chemical_formula_moiety
;
C35 H42 N2 O2
;
_journal_coden_Cambridge 16
_journal_volume 67
_journal_year 2011
_journal_page_first 6382
_journal_name_full 'Tetrahedron '
loop_
_publ_author_name
"S.G.Davies"
"J.A.Lee"
"P.M.Roberts"
"J.E.Thomson"
"Jingda Yin"
_chemical_name_systematic
;
3-(Benzyl(1-phenylethyl)amino)-N-t-butoxy-N-(1-(1-naphthyl)ethyl)butanamide
;
_cell_volume   1494.640
_exptl_crystal_colour 'colorless'
_exptl_crystal_density_diffrn 1.161
_exptl_crystal_description 'plate'
_diffrn_ambient_temperature 150
#These two values have been output from a single CSD field.
_refine_ls_R_factor_gt 0.0326
_refine_ls_wR_factor_gt 0.0326
_symmetry_cell_setting monoclinic
_symmetry_space_group_name_H-M 'P 21'
_symmetry_Int_Tables_number 4
loop_
_symmetry_equiv_pos_site_id
_symmetry_equiv_pos_as_xyz
1 x,y,z
2 -x,1/2+y,-z
_cell_length_a 11.6903(3)
_cell_length_b 10.8507(3)
_cell_length_c 12.1629(3)
_cell_angle_alpha 90
_cell_angle_beta 104.3593(14)
_cell_angle_gamma 90
_cell_formula_units_Z 2
loop_
_atom_type_symbol
_atom_type_radius_bond
C 0.68
H 0.23
N 0.68
O 0.68
loop_
_atom_site_label
_atom_site_type_symbol
_atom_site_fract_x
_atom_site_fract_y
_atom_site_fract_z
O1 O 0.20973(11) 0.35484(12) 0.33047(10)
N1 N 0.22634(13) 0.22596(14) 0.32883(12)
C1 C 0.14197(16) 0.16298(18) 0.24910(14)
O2 O 0.15952(12) 0.05378(13) 0.22932(11)
C2 C 0.03049(16) 0.22801(18) 0.18726(14)
C3 C -0.07495(16) 0.13838(17) 0.15729(14)
N2 N -0.17198(13) 0.17511(15) 0.06051(12)
C4 C -0.19858(16) 0.30688(17) 0.05453(14)
C5 C -0.32634(16) 0.33366(17) -0.00354(14)
C6 C -0.41664(17) 0.2634(2) 0.02118(15)
C7 C -0.53415(17) 0.2909(2) -0.02903(16)
C8 C -0.56227(19) 0.3879(2) -0.10494(18)
C9 C -0.4731(2) 0.4570(2) -0.13106(19)
C10 C -0.35596(19) 0.43008(19) -0.08078(17)
C11 C -0.16946(16) 0.12428(17) -0.05171(14)
C12 C -0.06541(15) 0.16486(17) -0.09811(14)
C13 C -0.07879(17) 0.26290(18) -0.17432(14)
C14 C 0.01217(19) 0.2979(2) -0.22215(16)
C15 C 0.11858(19) 0.2362(2) -0.19448(17)
C16 C 0.13456(18) 0.1397(2) -0.11659(17)
C17 C 0.04365(17) 0.10550(19) -0.06869(15)
C18 C -0.18738(19) -0.01505(19) -0.05501(17)
C19 C -0.12406(19) 0.1161(2) 0.26114(15)
C20 C 0.35123(16) 0.18741(18) 0.34299(14)
C21 C 0.41988(16) 0.18673(18) 0.46641(15)
C22 C 0.38274(16) 0.10587(19) 0.54465(15)
C23 C 0.44489(19) 0.1107(2) 0.66181(16)
C24 C 0.5416(2) 0.1913(3) 0.69665(18)
C25 C 0.5776(2) 0.2630(3) 0.6200(2)
C26 C 0.51648(19) 0.2601(2) 0.50438(19)
C27 C 0.4082(2) 0.0319(3) 0.73946(18)
C28 C 0.3169(3) -0.0468(3) 0.7050(2)
C29 C 0.2554(2) -0.0525(2) 0.5896(2)
C30 C 0.28759(18) 0.02283(19) 0.51171(17)
C31 C 0.40612(19) 0.2631(2) 0.26337(16)
C32 C 0.17820(18) 0.40597(19) 0.43268(14)
C33 C 0.2896(2) 0.4434(3) 0.5208(2)
C34 C 0.1081(3) 0.5195(2) 0.38439(19)
C35 C 0.1058(2) 0.3172(2) 0.48282(18)
H1 H 0.01450 0.30160 0.23000
H2 H 0.04430 0.25660 0.11440
H3 H -0.04450 0.05900 0.13520
H4 H -0.18230 0.34000 0.13400
H5 H -0.14560 0.34700 0.01450
H6 H -0.39920 0.19590 0.07120
H7 H -0.59430 0.23990 -0.01060
H8 H -0.64290 0.40680 -0.13940
H9 H -0.49180 0.52160 -0.18500
H10 H -0.29540 0.47870 -0.10040
H11 H -0.24190 0.15920 -0.10120
H12 H -0.15200 0.30880 -0.19480
H13 H 0.00070 0.36620 -0.27490
H14 H 0.18120 0.26040 -0.22710
H15 H 0.20920 0.09770 -0.09460
H16 H 0.05540 0.04110 -0.01540
H17 H -0.19870 -0.04440 -0.13580
H18 H -0.25700 -0.03100 -0.02610
H19 H -0.11740 -0.04940 -0.00690
H20 H -0.18590 0.04950 0.24350
H21 H -0.05970 0.08830 0.32610
H22 H -0.15790 0.19450 0.28170
H23 H 0.34850 0.09900 0.31730
H24 H 0.57910 0.19750 0.77550
H25 H 0.64410 0.31520 0.64410
H26 H 0.54390 0.30780 0.45030
H27 H 0.44880 0.03410 0.81680
H28 H 0.29470 -0.10020 0.75810
H29 H 0.19220 -0.10910 0.56880
H30 H 0.24670 0.02190 0.43450
H31 H 0.48620 0.23750 0.26960
H32 H 0.40690 0.35110 0.28530
H33 H 0.35860 0.25410 0.18500
H34 H 0.26590 0.49640 0.57690
H35 H 0.33100 0.36880 0.55780
H36 H 0.33810 0.49190 0.48190
H37 H 0.08450 0.56430 0.44490
H38 H 0.16090 0.56910 0.35220
H39 H 0.04010 0.49210 0.32740
H40 H 0.08400 0.35250 0.54790
H41 H 0.15190 0.23990 0.50770
H42 H 0.03240 0.29340 0.42700
#END
