
#######################################################################
#
#                 Cambridge Crystallographic Data Centre
#                                CCDC
#
#######################################################################
#
# If this CIF has been generated from an entry in the Cambridge
# Structural Database, then it will include bibliographic, chemical,
# crystal, experimental, refinement or atomic coordinate data resulting
# from the CCDC's data processing and validation procedures.
#
#######################################################################

data_CSD_CIF_UXUNAD
_audit_creation_date 2012-01-16
_audit_creation_method CSD-ConQuest-V1
_database_code_CSD UXUNAD
_database_code_depnum_ccdc_archive 'CCDC 824260'
_chemical_formula_sum 'C13 H13 N1 O4'
_chemical_formula_moiety
;
C13 H13 N1 O4
;
_journal_coden_Cambridge 4
_journal_volume 133
_journal_year 2011
_journal_page_first 10430
_journal_name_full 'J.Am.Chem.Soc. '
loop_
_publ_author_name
"C.P.Frazier"
"J.R.Engelking"
"J.R.de Alaniz"
_chemical_name_systematic
;
Benzyl 3-methyl-4-methylene-5-oxo-1,2-oxazolidine-2-carboxylate
;
_cell_volume   1250.785
_exptl_crystal_colour 'colorless'
_exptl_crystal_density_diffrn 1.313
_exptl_special_details
;
Absolute configuration

;
_exptl_crystal_description 'needle'
_exptl_crystal_preparation 'ethyl acetate/hexane'
_diffrn_ambient_temperature 293
#These two values have been output from a single CSD field.
_refine_ls_R_factor_gt 0.0603
_refine_ls_wR_factor_gt 0.0603
_symmetry_cell_setting monoclinic
_symmetry_space_group_name_H-M 'P 21'
_symmetry_Int_Tables_number 4
loop_
_symmetry_equiv_pos_site_id
_symmetry_equiv_pos_as_xyz
1 x,y,z
2 -x,1/2+y,-z
_cell_length_a 6.2292(4)
_cell_length_b 13.0040(8)
_cell_length_c 15.5592(10)
_cell_angle_alpha 90
_cell_angle_beta 97.069(4)
_cell_angle_gamma 90
_cell_formula_units_Z 4
loop_
_atom_type_symbol
_atom_type_radius_bond
C 0.68
H 0.23
N 0.68
O 0.68
loop_
_atom_site_label
_atom_site_type_symbol
_atom_site_fract_x
_atom_site_fract_y
_atom_site_fract_z
C1 C 0.8155(5) 0.8427(2) 0.18770(18)
C2 C 1.0376(5) 0.8062(2) 0.18783(18)
C3 C 1.0801(5) 0.7233(2) 0.25412(18)
H1 H 1.17130 0.74970 0.30510
C4 C 1.1788(7) 0.6259(3) 0.2219(2)
H2 H 1.31930 0.64110 0.20580
H3 H 1.08740 0.59980 0.17250
H4 H 1.19210 0.57520 0.26710
C5 C 1.1677(6) 0.8454(4) 0.1357(3)
H5 H 1.11900 0.89780 0.09740
H6 H 1.30820 0.82070 0.13710
C6 C 0.8307(6) 0.6705(3) 0.3589(2)
C7 C 0.5722(7) 0.6496(3) 0.4583(2)
H7 H 0.67510 0.59660 0.47940
H8 H 0.43060 0.61790 0.44690
C8 C 0.5674(6) 0.7307(3) 0.5260(2)
C9 C 0.3958(7) 0.7344(3) 0.5735(2)
H9 H 0.28200 0.68830 0.56140
C10 C 0.3892(10) 0.8064(5) 0.6395(3)
H10 H 0.27200 0.80840 0.67110
C11 C 0.5560(11) 0.8735(5) 0.6573(3)
H11 H 0.55360 0.92090 0.70190
C12 C 0.729(1) 0.8721(5) 0.6096(4)
H12 H 0.84030 0.91970 0.62110
C13 C 0.7360(7) 0.8007(4) 0.5456(3)
H13 H 0.85470 0.79880 0.51480
C14 C 0.7446(5) -0.0508(3) -0.05177(19)
C15 C 0.5177(5) -0.0257(2) -0.04703(19)
C16 C 0.5086(4) 0.0676(2) 0.00902(17)
H14 H 0.45900 0.04800 0.06410
C17 C 0.3593(6) -0.0786(3) -0.0894(3)
H15 H 0.38990 -0.13390 -0.12370
H16 H 0.21650 -0.06070 -0.08510
C18 C 0.3704(5) 0.1545(3) -0.0317(2)
H17 H 0.22130 0.13390 -0.03890
H18 H 0.41390 0.17080 -0.08720
H19 H 0.38830 0.21390 0.00500
C19 C 0.8262(4) 0.1324(2) 0.10656(16)
C20 C 1.1470(5) 0.1630(3) 0.20179(19)
H20 H 1.06450 0.22120 0.21880
H21 H 1.28940 0.18730 0.19240
C21 C 1.1681(4) 0.0838(2) 0.27256(16)
C22 C 0.9998(5) 0.0668(3) 0.32171(19)
H22 H 0.87280 0.10480 0.31090
C23 C 1.0207(7) -0.0066(3) 0.3868(2)
H23 H 0.90740 -0.01800 0.41940
C24 C 1.2085(7) -0.0627(3) 0.4032(2)
H24 H 1.22220 -0.11170 0.44710
C25 C 1.3760(7) -0.0463(3) 0.3551(3)
H25 H 1.50260 -0.08440 0.36630
C26 C 1.3563(6) 0.0272(3) 0.2896(2)
H26 H 1.47020 0.03830 0.25730
N1 N 0.8595(4) 0.7027(2) 0.27575(16)
N2 N 0.7410(4) 0.09859(18) 0.02417(14)
O1 O 0.7135(3) 0.78327(18) 0.24340(12)
O2 O 0.7157(4) 0.9098(2) 0.14774(16)
O3 O 0.6334(4) 0.6929(2) 0.37759(14)
O4 O 0.9696(5) 0.6235(3) 0.40214(17)
O5 O 0.8745(3) 0.02154(17) -0.01026(12)
O6 O 0.8239(4) -0.1219(2) -0.0869(2)
O7 O 0.7111(4) 0.17518(19) 0.15237(14)
O8 O 1.0375(3) 0.11833(18) 0.12098(11)
#END
