
#######################################################################
#
#                 Cambridge Crystallographic Data Centre
#                                CCDC
#
#######################################################################
#
# If this CIF has been generated from an entry in the Cambridge
# Structural Database, then it will include bibliographic, chemical,
# crystal, experimental, refinement or atomic coordinate data resulting
# from the CCDC's data processing and validation procedures.
#
#######################################################################

data_CSD_CIF_UYADAA
_audit_creation_date 2011-11-07
_audit_creation_method CSD-ConQuest-V1
_database_code_CSD UYADAA
_database_code_depnum_ccdc_archive 'CCDC 795984'
_chemical_formula_sum 'C26 H21 N1 O4'
_chemical_formula_moiety
;
C26 H21 N1 O4
;
_journal_coden_Cambridge 182
_journal_volume 47
_journal_year 2011
_journal_page_first 794
_journal_name_full 'Chem.Commun. '
loop_
_publ_author_name
"Siyu Ye"
"Zhi-Xiang Yu"
_chemical_name_systematic
;
(1-(4-Nitrobenzyl)-3-phenyl-2-oxabicyclo[3.2.0]hept-3-en-4-yl)(phenyl)methanon
e
;
_cell_volume   2061.122
_exptl_crystal_colour 'colorless'
_exptl_crystal_density_diffrn 1.326
_exptl_crystal_description 'block'
_diffrn_ambient_temperature 173
#These two values have been output from a single CSD field.
_refine_ls_R_factor_gt 0.058
_refine_ls_wR_factor_gt 0.058
_symmetry_cell_setting monoclinic
_symmetry_space_group_name_H-M 'P 21/c'
_symmetry_Int_Tables_number 14
loop_
_symmetry_equiv_pos_site_id
_symmetry_equiv_pos_as_xyz
1 x,y,z
2 -x,1/2+y,1/2-z
3 -x,-y,-z
4 x,-1/2-y,-1/2+z
_cell_length_a 8.3226(18)
_cell_length_b 13.634(3)
_cell_length_c 18.604(4)
_cell_angle_alpha 90
_cell_angle_beta 102.480(3)
_cell_angle_gamma 90
_cell_formula_units_Z 4
loop_
_atom_type_symbol
_atom_type_radius_bond
C 0.68
H 0.23
N 0.68
O 0.68
loop_
_atom_site_label
_atom_site_type_symbol
_atom_site_fract_x
_atom_site_fract_y
_atom_site_fract_z
O1 O 0.15224(16) 0.28823(10) 0.26941(7)
O2 O -0.2637(2) 0.65965(14) 0.41208(12)
O3 O -0.4042(2) 0.52764(14) 0.41697(11)
O4 O 0.23310(19) 0.58323(11) 0.16268(9)
N1 N -0.2767(2) 0.57025(16) 0.41230(11)
C1 C 0.3024(2) 0.33355(15) 0.31256(11)
C2 C 0.4550(3) 0.28643(17) 0.29258(13)
H1 H 0.43080 0.22540 0.26340
H2 H 0.54760 0.27660 0.33540
C3 C 0.4745(3) 0.37794(18) 0.24583(14)
H3 H 0.45480 0.36450 0.19230
H4 H 0.58010 0.41290 0.26300
C4 C 0.3259(2) 0.42790(15) 0.26999(11)
H5 H 0.35540 0.48730 0.30170
C5 C 0.1678(2) 0.43636(14) 0.21412(11)
C6 C 0.0824(2) 0.35152(15) 0.21543(11)
C7 C 0.2869(3) 0.33829(16) 0.39208(11)
H6 H 0.27600 0.27100 0.41040
H7 H 0.38800 0.36760 0.42230
C8 C 0.1396(3) 0.39845(15) 0.40040(11)
C9 C 0.1507(3) 0.49975(16) 0.40610(11)
H8 H 0.25390 0.53060 0.40810
C10 C 0.0152(3) 0.55679(16) 0.40898(12)
H9 H 0.02370 0.62620 0.41190
C11 C -0.1325(2) 0.51061(16) 0.40748(11)
C12 C -0.1476(3) 0.40967(17) 0.40348(12)
H10 H -0.25010 0.37910 0.40360
C13 C -0.0119(3) 0.35421(16) 0.39932(12)
H11 H -0.02150 0.28490 0.39570
C14 C 0.1250(3) 0.52437(15) 0.16983(11)
C15 C -0.0511(3) 0.54583(14) 0.13479(11)
C16 C -0.0876(3) 0.57714(15) 0.06228(12)
H12 H -0.00090 0.58810 0.03740
C17 C -0.2477(3) 0.59247(17) 0.02597(14)
H13 H -0.27160 0.61200 -0.02420
C18 C -0.3736(3) 0.57951(17) 0.06242(16)
H14 H -0.48440 0.58920 0.03710
C19 C -0.3388(3) 0.55240(16) 0.13572(16)
H15 H -0.42550 0.54610 0.16130
C20 C -0.1778(3) 0.53432(15) 0.17197(13)
H16 H -0.15420 0.51410 0.22200
C21 C -0.0671(2) 0.31220(14) 0.16689(11)
C22 C -0.0937(3) 0.32721(15) 0.09132(11)
H17 H -0.01460 0.36200 0.07140
C23 C -0.2348(3) 0.29189(15) 0.04480(12)
H18 H -0.25260 0.30290 -0.00670
C24 C -0.3493(3) 0.24063(16) 0.07369(13)
H19 H -0.44740 0.21760 0.04210
C25 C -0.3216(3) 0.22280(16) 0.14835(13)
H20 H -0.39970 0.18630 0.16780
C26 C -0.1806(3) 0.25775(15) 0.19529(12)
H21 H -0.16160 0.24460 0.24660
#END
