
#######################################################################
#
#                 Cambridge Crystallographic Data Centre
#                                CCDC
#
#######################################################################
#
# If this CIF has been generated from an entry in the Cambridge
# Structural Database, then it will include bibliographic, chemical,
# crystal, experimental, refinement or atomic coordinate data resulting
# from the CCDC's data processing and validation procedures.
#
#######################################################################

data_CSD_CIF_UYECOS
_audit_creation_date 2016-10-10
_audit_creation_method CSD-ConQuest-V1
_database_code_CSD UYECOS
_database_code_depnum_ccdc_archive 'CCDC 1058076; CCDC 979123'
_chemical_formula_sum 'C9 H11 N3 O3'
_chemical_formula_moiety
;
C9 H11 N3 O3
;
_journal_coden_Cambridge 1489
_journal_volume 634
_journal_year 2016
_journal_page_first 61
_journal_name_full 'Mol.Cryst.Liq.Cryst. '
loop_
_publ_author_name
"P.Kurnaz"
"C.Y.Ataol"
"H.Bati"
"Orhan Buyukgungor"
_chemical_name_systematic
;
N'-(3-(hydroxyimino)butan-2-ylidene)-2-furohydrazide
;
_cell_volume    487.959
_exptl_crystal_colour 'colorless'
_exptl_crystal_density_diffrn 1.424
_exptl_crystal_description 'leaf'
_diffrn_ambient_temperature 296
_refine_special_details
;
H9A,H9B,H9C and H9D,H9E,H9F disordered over two sites with occupancies 
0.5:0.5.
;
#These two values have been output from a single CSD field.
_refine_ls_R_factor_gt 0.0435
_refine_ls_wR_factor_gt 0.0435
_symmetry_cell_setting triclinic
_symmetry_space_group_name_H-M 'P -1'
_symmetry_Int_Tables_number 2
loop_
_symmetry_equiv_pos_site_id
_symmetry_equiv_pos_as_xyz
1 x,y,z
2 -x,-y,-z
_cell_length_a 7.1568(8)
_cell_length_b 7.6648(9)
_cell_length_c 9.7394(11)
_cell_angle_alpha 79.424(9)
_cell_angle_beta 68.514(9)
_cell_angle_gamma 83.273(9)
_cell_formula_units_Z 2
loop_
_atom_type_symbol
_atom_type_radius_bond
C 0.68
H 0.23
N 0.68
O 0.68
loop_
_atom_site_label
_atom_site_type_symbol
_atom_site_fract_x
_atom_site_fract_y
_atom_site_fract_z
C1 C 0.7484(5) 0.7294(4) 0.5888(3)
C2 C 0.7623(6) 0.7633(4) 0.7153(4)
H1 H 0.77400 0.67980 0.79450
C3 C 0.7557(6) 0.9507(4) 0.7048(4)
H2 H 0.76170 1.01400 0.77580
C4 C 0.7392(6) 1.0184(4) 0.5736(4)
H3 H 0.73200 1.13910 0.53780
C5 C 0.7524(5) 0.5625(4) 0.5360(3)
C6 C 0.7333(5) 0.4972(4) 0.1922(3)
C7 C 0.6936(6) 0.6848(4) 0.1292(4)
H4 H 0.79890 0.75620 0.12290
H5 H 0.56700 0.73040 0.19290
H6 H 0.68940 0.68840 0.03140
C8 C 0.7640(5) 0.3534(4) 0.1028(3)
C9 C 0.7906(6) 0.1648(4) 0.1658(4)
H7 H 0.80790 0.09070 0.09210
H8 H 0.67390 0.13200 0.25190
H9 H 0.90710 0.14960 0.19440
N1 N 0.7354(5) 0.5876(4) 0.3988(3)
H10 H 0.71520 0.69420 0.35820
N2 N 0.7495(4) 0.4487(3) 0.3222(3)
N3 N 0.7691(5) 0.4103(3) -0.0316(3)
O1 O 0.7345(4) 0.8859(3) 0.4988(2)
O2 O 0.7687(4) 0.4167(3) 0.6076(2)
O3 O 0.8066(4) 0.2718(3) -0.1166(2)
H11 H 0.80920 0.31310 -0.20110
H12? H 0.78470 0.15750 0.26680
H13? H 0.91870 0.11620 0.10700
H14? H 0.68550 0.09860 0.16450
#END
