
#######################################################################
#
#                 Cambridge Crystallographic Data Centre
#                                CCDC
#
#######################################################################
#
# If this CIF has been generated from an entry in the Cambridge
# Structural Database, then it will include bibliographic, chemical,
# crystal, experimental, refinement or atomic coordinate data resulting
# from the CCDC's data processing and validation procedures.
#
#######################################################################

data_CSD_CIF_UYENES
_audit_creation_date 2011-10-03
_audit_creation_method CSD-ConQuest-V1
_database_code_CSD UYENES
_database_code_depnum_ccdc_archive 'CCDC 184769'
_chemical_formula_sum 'C4 H8 N2 O2'
_chemical_formula_moiety
;
C4 H8 N2 O2
;
_journal_coden_Cambridge 580
_journal_volume 30
_journal_year 2011
_journal_page_first 2320
_journal_name_full 'Polyhedron '
loop_
_publ_author_name
"I.V.Raspertova"
"O.Osetska"
"K.Gubina"
"R.D.Lampeka"
_chemical_name_systematic
;
N,N'-Dihydroxy-N,N'-dimethylethene-1,2-diamine
;
_cell_volume    293.001
_exptl_crystal_colour 'colorless'
_exptl_crystal_density_diffrn 1.32
_exptl_crystal_description 'block'
_diffrn_ambient_temperature 293
#These two values have been output from a single CSD field.
_refine_ls_R_factor_gt 0.0314
_refine_ls_wR_factor_gt 0.0314
_symmetry_cell_setting monoclinic
_symmetry_space_group_name_H-M 'P 21/n'
_symmetry_Int_Tables_number 14
loop_
_symmetry_equiv_pos_site_id
_symmetry_equiv_pos_as_xyz
1 x,y,z
2 1/2-x,1/2+y,1/2-z
3 -x,-y,-z
4 -1/2+x,-1/2-y,-1/2+z
_cell_length_a 4.204(1)
_cell_length_b 7.795(2)
_cell_length_c 9.017(3)
_cell_angle_alpha 90
_cell_angle_beta 97.44(2)
_cell_angle_gamma 90
_cell_formula_units_Z 2
loop_
_atom_type_symbol
_atom_type_radius_bond
C 0.68
H 0.23
N 0.68
O 0.68
loop_
_atom_site_label
_atom_site_type_symbol
_atom_site_fract_x
_atom_site_fract_y
_atom_site_fract_z
O1 O 0.1266(3) 0.13625(12) 0.2433(1)
N1 N -0.0500(3) 0.17587(14) 0.12062(11)
C1 C -0.0804(3) 0.07954(16) 0.00105(14)
C2 C -0.2230(4) 0.33924(19) 0.12233(18)
H1 H -0.205(4) 0.1198(19) -0.0814(17)
H2 H -0.337(4) 0.360(2) 0.020(2)
H3 H -0.070(5) 0.427(2) 0.153(2)
H4 H -0.368(5) 0.330(3) 0.195(2)
O1B O -0.1266(3) -0.13625(12) -0.2433(1)
N1B N 0.0500(3) -0.17587(14) -0.12062(11)
C1B C 0.0804(3) -0.07954(16) -0.00105(14)
C2B C 0.2230(4) -0.33924(19) -0.12233(18)
H1B H 0.205(4) -0.1198(19) 0.0814(17)
H2B H 0.337(4) -0.360(2) -0.020(2)
H3B H 0.070(5) -0.427(2) -0.153(2)
H4B H 0.368(5) -0.330(3) -0.195(2)
#END
