
#######################################################################
#
#                 Cambridge Crystallographic Data Centre
#                                CCDC
#
#######################################################################
#
# If this CIF has been generated from an entry in the Cambridge
# Structural Database, then it will include bibliographic, chemical,
# crystal, experimental, refinement or atomic coordinate data resulting
# from the CCDC's data processing and validation procedures.
#
#######################################################################

data_CSD_CIF_UYOJUO
_audit_creation_date 2011-11-16
_audit_creation_method CSD-ConQuest-V1
_database_code_CSD UYOJUO
_database_code_depnum_ccdc_archive 'CCDC 771339'
_chemical_formula_sum 'C24 H39 N2 O2'
_chemical_formula_moiety
;
C24 H39 N2 O2
;
_journal_coden_Cambridge 971
_journal_volume 13
_journal_year 2011
_journal_page_first 1852
_journal_name_full 'Solid State Sciences '
loop_
_publ_author_name
"V.T.Kasumov"
"I.Ucar"
"A.Bulut"
"Y.Yerli"
_chemical_name_systematic
;
4-((3,5-Di-t-butyl-2-hydroxybenzylidene)amino)-2,2,6,6-tetramethylpiperidin-1-
ol
;
_cell_volume   2347.122
_exptl_crystal_colour 'light brown'
_exptl_crystal_density_diffrn 1.097
_exptl_crystal_description 'prism'
_diffrn_ambient_temperature 297
#These two values have been output from a single CSD field.
_refine_ls_R_factor_gt 0.0669
_refine_ls_wR_factor_gt 0.0669
_symmetry_cell_setting monoclinic
_symmetry_space_group_name_H-M 'P 21/n'
_symmetry_Int_Tables_number 14
loop_
_symmetry_equiv_pos_site_id
_symmetry_equiv_pos_as_xyz
1 x,y,z
2 1/2-x,1/2+y,1/2-z
3 -x,-y,-z
4 -1/2+x,-1/2-y,-1/2+z
_cell_length_a 6.0064(3)
_cell_length_b 22.4238(11)
_cell_length_c 17.4271(11)
_cell_angle_alpha 90
_cell_angle_beta 90.442(5)
_cell_angle_gamma 90
_cell_formula_units_Z 4
loop_
_atom_type_symbol
_atom_type_radius_bond
C 0.68
H 0.23
N 0.68
O 0.68
loop_
_atom_site_label
_atom_site_type_symbol
_atom_site_fract_x
_atom_site_fract_y
_atom_site_fract_z
C1 C 1.2581(6) 0.3922(2) 0.4856(2)
H1 H 1.18520 0.42160 0.45440
H2 H 1.32160 0.41100 0.53020
H3 H 1.15180 0.36270 0.50130
C2 C 1.2436(4) 0.35894(12) 0.09961(14)
H4 H 1.17160 0.39150 0.12510
H5 H 1.13790 0.32750 0.09090
H6 H 1.30110 0.37240 0.05140
C3 C 0.2274(4) 0.07150(11) 0.16254(13)
H7 H 0.14000 0.03570 0.16310
H8 H 0.28800 0.07730 0.11230
H9 H 0.13500 0.10490 0.17550
C4 C 0.2555(4) 0.09149(12) 0.43050(13)
H10 H 0.15870 0.12240 0.41180
H11 H 0.32620 0.10440 0.47720
H12 H 0.17030 0.05610 0.44020
O1 O 0.1526(3) 0.02474(7) 0.3043(1)
N1 N 0.3151(3) 0.06154(7) 0.29806(9)
C5 C 1.6130(6) 0.40985(16) 0.42150(17)
H13 H 1.54620 0.44060 0.39060
H14 H 1.73240 0.39160 0.39370
H15 H 1.67010 0.42690 0.46820
C6 C 0.5590(3) 0.12281(9) 0.21780(11)
C7 C 1.6098(4) 0.38498(11) 0.15594(14)
H16 H 1.66070 0.39540 0.10560
H17 H 1.73310 0.37100 0.18630
H18 H 1.54580 0.41940 0.17990
C8 C 0.5743(4) 0.13390(9) 0.35726(11)
C9 C 1.4386(4) 0.36287(10) 0.44052(12)
C10 C 0.4171(3) 0.06624(8) 0.22106(11)
C11 C 1.4341(3) 0.33582(8) 0.14955(10)
C12 C 1.4188(3) 0.34614(9) 0.29499(11)
C13 C 1.3430(3) 0.33318(9) 0.36858(11)
C14 C 0.4332(3) 0.07807(8) 0.37043(10)
C15 C 1.1799(4) 0.29054(9) 0.37469(11)
C16 C 1.3439(3) 0.31851(8) 0.2286(1)
C17 C 1.0980(3) 0.26081(8) 0.31119(11)
C18 C 1.1801(3) 0.27392(8) 0.23782(11)
C19 C 0.9319(3) 0.21389(9) 0.32314(12)
O2 O 1.1036(2) 0.24359(6) 0.17680(8)
N2 N 0.8633(3) 0.18051(7) 0.26977(9)
C20 C 0.7143(3) 0.12987(8) 0.28553(11)
C21 C 1.5517(7) 0.31557(16) 0.4908(2)
H19 H 1.62570 0.33460 0.53320
H20 H 1.65860 0.29410 0.46090
H21 H 1.44160 0.28840 0.50980
C22 C 1.5421(4) 0.28176(10) 0.11099(14)
H22 H 1.43380 0.25060 0.10520
H23 H 1.66370 0.26780 0.14220
H24 H 1.59650 0.29310 0.06140
C23 C 0.5539(4) 0.01043(10) 0.20442(15)
H25 H 0.68540 0.01040 0.23600
H26 H 0.59550 0.01010 0.15140
H27 H 0.46660 -0.02440 0.21540
C24 C 0.5795(4) 0.02625(10) 0.39784(14)
H28 H 0.49110 -0.00930 0.40120
H29 H 0.64110 0.03550 0.44740
H30 H 0.69800 0.02010 0.36210
H31 H 0.460(3) 0.1587(10) 0.2153(11)
H32 H 0.487(4) 0.1673(11) 0.3565(13)
H33 H 1.529(4) 0.3743(10) 0.2908(12)
H34 H 1.103(3) 0.2662(8) 0.4192(10)
H35 H 0.649(4) 0.1196(11) 0.1743(15)
H36 H 0.873(5) 0.2075(13) 0.3768(17)
H37 H 0.667(4) 0.1387(11) 0.4073(15)
H38 H 0.989(6) 0.2137(17) 0.208(2)
H39 H 0.822(4) 0.0958(10) 0.2900(12)
#END
