
#######################################################################
#
#                 Cambridge Crystallographic Data Centre
#                                CCDC
#
#######################################################################
#
# If this CIF has been generated from an entry in the Cambridge
# Structural Database, then it will include bibliographic, chemical,
# crystal, experimental, refinement or atomic coordinate data resulting
# from the CCDC's data processing and validation procedures.
#
#######################################################################

data_CSD_CIF_UZAWEZ
_audit_creation_date 2016-11-04
_audit_creation_method CSD-ConQuest-V1
_database_code_CSD UZAWEZ
_database_code_depnum_ccdc_archive 'CCDC 1506284'
_chemical_formula_sum 'C4 H6 N4 O7'
_chemical_formula_moiety
;
C4 H6 N4 O7
;
_journal_coden_Cambridge 222
_journal_volume 45
_journal_year 2016
_journal_page_first 18909
_journal_name_full 'Dalton Trans. '
loop_
_publ_author_name
"Q.J.Axthammer"
"T.M.Klapotke"
"B.Krumm"
"R.Scharf"
"C.C.Unger"
_chemical_name_systematic
;
4,4,4-trinitrobutanamide
;
_cell_volume    401.797
_exptl_crystal_colour 'colorless'
_exptl_crystal_density_diffrn 1.836
_exptl_crystal_description 'plate'
_diffrn_ambient_temperature 100
#These two values have been output from a single CSD field.
_refine_ls_R_factor_gt 0.0308
_refine_ls_wR_factor_gt 0.0308
_symmetry_cell_setting triclinic
_symmetry_space_group_name_H-M 'P -1'
_symmetry_Int_Tables_number 2
loop_
_symmetry_equiv_pos_site_id
_symmetry_equiv_pos_as_xyz
1 x,y,z
2 -x,-y,-z
_cell_length_a 6.1081(5)
_cell_length_b 7.5366(6)
_cell_length_c 8.8543(7)
_cell_angle_alpha 80.728(7)
_cell_angle_beta 87.505(7)
_cell_angle_gamma 88.355(6)
_cell_formula_units_Z 2
loop_
_atom_type_symbol
_atom_type_radius_bond
C 0.68
H 0.23
N 0.68
O 0.68
loop_
_atom_site_label
_atom_site_type_symbol
_atom_site_fract_x
_atom_site_fract_y
_atom_site_fract_z
C1 C 0.60494(18) 0.69331(16) 0.23573(13)
C2 C 0.74978(19) 0.55286(16) 0.32417(13)
C3 C 0.7997(2) 0.38700(16) 0.24931(14)
C4 C 0.89121(18) 0.23470(16) 0.36527(13)
N1 N 0.57563(16) 0.86215(13) 0.31264(11)
N2 N 0.37105(16) 0.63111(14) 0.21820(12)
N3 N 0.70263(16) 0.75246(13) 0.07520(11)
N4 N 1.01006(17) 0.10997(15) 0.30589(12)
O1 O 0.63973(14) 0.84792(12) 0.4416(1)
O2 O 0.49001(15) 0.99389(12) 0.23761(11)
O3 O 0.25978(15) 0.72431(14) 0.12417(12)
O4 O 0.31492(14) 0.49514(12) 0.30229(10)
O5 O 0.66121(16) 0.65946(13) -0.01991(10)
O6 O 0.82850(14) 0.87652(12) 0.05792(10)
O7 O 0.84909(14) 0.22584(11) 0.50422(9)
H1 H 0.880(2) 0.612(2) 0.3408(17)
H2 H 0.673(2) 0.519(2) 0.4216(17)
H3 H 0.670(2) 0.342(2) 0.2123(17)
H4 H 0.905(2) 0.412(2) 0.1609(17)
H5 H 1.040(2) 0.128(2) 0.2056(18)
H6 H 1.066(2) 0.016(2) 0.3620(17)
#END
