
#######################################################################
#
#                 Cambridge Crystallographic Data Centre
#                                CCDC
#
#######################################################################
#
# If this CIF has been generated from an entry in the Cambridge
# Structural Database, then it will include bibliographic, chemical,
# crystal, experimental, refinement or atomic coordinate data resulting
# from the CCDC's data processing and validation procedures.
#
#######################################################################

data_CSD_CIF_UZENUK
_audit_creation_date 2016-11-07
_audit_creation_method CSD-ConQuest-V1
_database_code_CSD UZENUK
_database_code_depnum_ccdc_archive 'CCDC 1006037'
_chemical_formula_sum 'C12 H14 N2 O3'
_chemical_formula_moiety
;
C12 H14 N2 O3
;
_journal_coden_Cambridge 177
_journal_volume 14
_journal_year 2016
_journal_page_first 10953
_journal_name_full 'Org.Biomol.Chem. '
loop_
_publ_author_name
"R.C.Furnival"
"Rungroj Saruengkhanphasit"
"H.E.Holberry"
"J.R.Shewring"
"H.D.S.Guerrand"
"H.Adams"
"I.Coldham"
_chemical_name_systematic
;
(2R*,3R*,3aR*)-3-nitro-2-phenylhexahydropyrrolo[1,2-b][1,2]oxazole
;
_cell_volume   1108.190
_exptl_crystal_colour 'yellow'
_exptl_crystal_density_diffrn 1.404
_exptl_crystal_description 'needle'
_diffrn_ambient_temperature 100
#These two values have been output from a single CSD field.
_refine_ls_R_factor_gt 0.0375
_refine_ls_wR_factor_gt 0.0375
_symmetry_cell_setting monoclinic
_symmetry_space_group_name_H-M 'P 21/c'
_symmetry_Int_Tables_number 14
loop_
_symmetry_equiv_pos_site_id
_symmetry_equiv_pos_as_xyz
1 x,y,z
2 -x,1/2+y,1/2-z
3 -x,-y,-z
4 x,-1/2-y,-1/2+z
_cell_length_a 9.0398(3)
_cell_length_b 7.2748(3)
_cell_length_c 17.0449(6)
_cell_angle_alpha 90
_cell_angle_beta 98.643(2)
_cell_angle_gamma 90
_cell_formula_units_Z 4
loop_
_atom_type_symbol
_atom_type_radius_bond
C 0.68
H 0.23
N 0.68
O 0.68
loop_
_atom_site_label
_atom_site_type_symbol
_atom_site_fract_x
_atom_site_fract_y
_atom_site_fract_z
O1 O 0.65219(8) 0.44571(11) 0.09679(4)
O2 O 0.95185(11) 0.25979(11) 0.07699(5)
O3 O 1.05127(9) 0.27789(12) 0.20034(5)
N1 N 0.70082(10) 0.57143(12) 0.03968(5)
N2 N 0.97325(10) 0.33883(12) 0.14103(5)
C1 C 0.72546(12) 0.88731(15) 0.01958(6)
H1 H 0.69300 1.01040 0.03070
H2 H 0.74290 0.88080 -0.03510
C2 C 0.61293(12) 0.74379(16) 0.03706(7)
H3 H 0.57900 0.76740 0.08750
H4 H 0.52710 0.73980 -0.00460
C3 C 0.7398(1) 0.48324(14) 0.17184(6)
H5 H 0.70320 0.59730 0.19270
C4 C 0.72009(10) 0.32974(14) 0.22872(6)
C5 C 0.65505(12) 0.16319(15) 0.20205(6)
H6 H 0.62750 0.14300 0.14800
C6 C 0.63109(13) 0.02695(15) 0.25594(7)
H7 H 0.58710 -0.08370 0.23770
C7 C 0.67255(12) 0.05527(16) 0.33677(7)
H8 H 0.65600 -0.03580 0.37270
C8 C 0.86492(12) 0.83122(14) 0.07706(6)
H9 H 0.85900 0.87250 0.13060
H10 H 0.95510 0.88000 0.06040
C9 C 0.86029(11) 0.62076(14) 0.07143(6)
H11 H 0.92660 0.57850 0.03460
C10 C 0.89696(10) 0.51957(13) 0.15009(6)
H12 H 0.95650 0.59680 0.19010
C11 C 0.76213(11) 0.35732(15) 0.30995(6)
H13 H 0.80590 0.46790 0.32830
C12 C 0.73883(12) 0.21999(16) 0.36364(6)
H14 H 0.76780 0.23880 0.41770
#END
