
#######################################################################
#
#                 Cambridge Crystallographic Data Centre
#                                CCDC
#
#######################################################################
#
# If this CIF has been generated from an entry in the Cambridge
# Structural Database, then it will include bibliographic, chemical,
# crystal, experimental, refinement or atomic coordinate data resulting
# from the CCDC's data processing and validation procedures.
#
#######################################################################

data_CSD_CIF_UZEPAS
_audit_creation_date 2016-11-07
_audit_creation_method CSD-ConQuest-V1
_database_code_CSD UZEPAS
_database_code_depnum_ccdc_archive 'CCDC 1006038'
_chemical_formula_sum 'C15 H17 N1 O5'
_chemical_formula_moiety
;
C15 H17 N1 O5
;
_journal_coden_Cambridge 177
_journal_volume 14
_journal_year 2016
_journal_page_first 10953
_journal_name_full 'Org.Biomol.Chem. '
loop_
_publ_author_name
"R.C.Furnival"
"Rungroj Saruengkhanphasit"
"H.E.Holberry"
"J.R.Shewring"
"H.D.S.Guerrand"
"H.Adams"
"I.Coldham"
_chemical_name_systematic
;
(1S*,2S*,10bR*)-dimethyl 
1,5,6,10b-tetrahydro-2H-[1,2]oxazolo[3,2-a]isoquinoline-1,2-dicarboxylate
;
_cell_volume   2782.531
_exptl_crystal_colour 'colorless'
_exptl_crystal_density_diffrn 1.391
_exptl_crystal_description 'needle'
_diffrn_ambient_temperature 296
#These two values have been output from a single CSD field.
_refine_ls_R_factor_gt 0.0473
_refine_ls_wR_factor_gt 0.0473
_symmetry_cell_setting monoclinic
_symmetry_space_group_name_H-M 'P 21/c'
_symmetry_Int_Tables_number 14
loop_
_symmetry_equiv_pos_site_id
_symmetry_equiv_pos_as_xyz
1 x,y,z
2 -x,1/2+y,1/2-z
3 -x,-y,-z
4 x,-1/2-y,-1/2+z
_cell_length_a 9.1248(8)
_cell_length_b 32.242(3)
_cell_length_c 9.4579(9)
_cell_angle_alpha 90
_cell_angle_beta 90.000(6)
_cell_angle_gamma 90
_cell_formula_units_Z 8
loop_
_atom_type_symbol
_atom_type_radius_bond
C 0.68
H 0.23
N 0.68
O 0.68
loop_
_atom_site_label
_atom_site_type_symbol
_atom_site_fract_x
_atom_site_fract_y
_atom_site_fract_z
N1 N 0.9357(2) 0.15550(6) 0.7238(2)
O1 O 0.96062(19) 0.17816(5) 0.85472(19)
O2 O 0.7533(2) 0.23647(5) 0.9420(2)
O3 O 0.6706(2) 0.19237(5) 1.1075(2)
O4 O 0.8041(2) 0.08398(5) 1.0837(2)
O5 O 0.5846(2) 0.08554(5) 0.97478(19)
C1 C 0.7886(3) 0.09408(7) 0.6554(3)
C2 C 0.7461(3) 0.05328(8) 0.6789(3)
H1 H 0.76810 0.04060 0.76450
C3 C 0.6707(3) 0.03133(8) 0.5748(3)
H2 H 0.64200 0.00410 0.59070
C4 C 0.6389(3) 0.05037(8) 0.4482(3)
H3 H 0.58820 0.03580 0.37870
C5 C 0.6817(3) 0.09089(8) 0.4234(3)
H4 H 0.65990 0.10330 0.33720
C6 C 0.7572(3) 0.11324(7) 0.5262(3)
C7 C 0.8115(3) 0.15671(8) 0.4987(3)
H5 H 0.74040 0.17130 0.44110
H6 H 0.90280 0.15540 0.44630
C8 C 0.8358(3) 0.18056(7) 0.6358(3)
H7 H 0.87900 0.20740 0.61630
H8 H 0.74340 0.18480 0.68430
C9 C 0.8514(3) 0.16665(7) 0.9574(3)
H9 H 0.90050 0.15610 1.04230
C10 C 0.7603(3) 0.13199(7) 0.8923(3)
H10 H 0.67050 0.14350 0.85110
C11 C 0.8650(3) 0.11717(7) 0.7728(3)
H11 H 0.93990 0.09910 0.81390
C12 C 0.7224(3) 0.09826(8) 0.9960(3)
C13 C 0.5314(3) 0.05269(8) 1.0653(3)
H12 H 0.60790 0.03270 1.07980
H13 H 0.44890 0.03940 1.02140
H14 H 0.50220 0.06420 1.15470
C14 C 0.7556(3) 0.20345(7) 0.9981(3)
C15 C 0.5678(3) 0.22354(8) 1.1585(3)
H15 H 0.61790 0.24250 1.22030
H16 H 0.48990 0.21020 1.20920
H17 H 0.52800 0.23850 1.07970
N2 N 0.4333(2) 0.15449(6) 0.7135(2)
O6 O 0.45967(19) 0.17710(5) 0.58286(19)
O7 O 0.2556(2) 0.23550(5) 0.4947(2)
O8 O 0.1734(2) 0.19153(5) 0.3282(2)
O9 O 0.3048(2) 0.08300(6) 0.3522(2)
O10 O 0.0863(2) 0.08366(5) 0.46294(19)
C16 C 0.2879(3) 0.09217(7) 0.7791(3)
C17 C 0.2479(3) 0.05123(7) 0.7551(3)
H18 H 0.27260 0.03860 0.66980
C18 C 0.1715(3) 0.02883(8) 0.8565(3)
H19 H 0.14530 0.00140 0.83930
C19 C 0.1349(3) 0.04763(8) 0.9831(3)
H20 H 0.08240 0.03300 1.05100
C20 C 0.1764(3) 0.08838(8) 1.0088(3)
H21 H 0.15210 0.10070 1.09460
C21 C 0.2539(3) 0.11117(8) 0.9085(3)
C22 C 0.3048(3) 0.15446(7) 0.9378(3)
H22 H 0.39420 0.15350 0.99310
H23 H 0.23110 0.16880 0.99340
C23 C 0.3330(3) 0.17861(8) 0.8030(3)
H24 H 0.24150 0.18340 0.75350
H25 H 0.37620 0.20530 0.82550
C24 C 0.3527(3) 0.16580(8) 0.4801(3)
H26 H 0.40270 0.15530 0.39560
C25 C 0.2597(3) 0.13060(7) 0.5443(2)
H27 H 0.16970 0.14200 0.58540
C26 C 0.3651(3) 0.11595(7) 0.6641(3)
H28 H 0.44100 0.09820 0.62260
C27 C 0.2227(3) 0.09689(7) 0.4403(3)
C28 C 0.0339(3) 0.05075(8) 0.3727(3)
H29 H -0.00300 0.06230 0.28630
H30 H -0.04320 0.03600 0.41990
H31 H 0.11290 0.03210 0.35190
C29 C 0.2572(3) 0.20242(8) 0.4387(3)
C30 C 0.0734(3) 0.22291(8) 0.2768(3)
H32 H 0.01220 0.23230 0.35310
H33 H 0.01330 0.21140 0.20330
H34 H 0.12820 0.24590 0.24010
#END
