
#######################################################################
#
#                 Cambridge Crystallographic Data Centre
#                                CCDC
#
#######################################################################
#
# If this CIF has been generated from an entry in the Cambridge
# Structural Database, then it will include bibliographic, chemical,
# crystal, experimental, refinement or atomic coordinate data resulting
# from the CCDC's data processing and validation procedures.
#
#######################################################################

data_CSD_CIF_UZEPEW
_audit_creation_date 2016-11-07
_audit_creation_method CSD-ConQuest-V1
_database_code_CSD UZEPEW
_database_code_depnum_ccdc_archive 'CCDC 1006039'
_chemical_formula_sum 'C14 H14 N2 O3'
_chemical_formula_moiety
;
C14 H14 N2 O3
;
_journal_coden_Cambridge 177
_journal_volume 14
_journal_year 2016
_journal_page_first 10953
_journal_name_full 'Org.Biomol.Chem. '
loop_
_publ_author_name
"R.C.Furnival"
"Rungroj Saruengkhanphasit"
"H.E.Holberry"
"J.R.Shewring"
"H.D.S.Guerrand"
"H.Adams"
"I.Coldham"
_chemical_name_systematic
;
(8aR*,11aS*,11bR*)-10-methyl-5,8a,11a,11b-tetrahydropyrrolo[3',4':4,5][1,2]oxa
zolo[3,2-a]isoquinoline-9,11(6H,10H)-dione
;
_cell_volume   1175.904
_exptl_crystal_colour 'colorless'
_exptl_crystal_density_diffrn 1.459
_exptl_crystal_description 'block'
_diffrn_ambient_temperature 296
#These two values have been output from a single CSD field.
_refine_ls_R_factor_gt 0.0362
_refine_ls_wR_factor_gt 0.0362
_symmetry_cell_setting monoclinic
_symmetry_space_group_name_H-M 'P 21/c'
_symmetry_Int_Tables_number 14
loop_
_symmetry_equiv_pos_site_id
_symmetry_equiv_pos_as_xyz
1 x,y,z
2 -x,1/2+y,1/2-z
3 -x,-y,-z
4 x,-1/2-y,-1/2+z
_cell_length_a 6.8159(2)
_cell_length_b 26.7835(7)
_cell_length_c 7.0628(2)
_cell_angle_alpha 90
_cell_angle_beta 114.214(1)
_cell_angle_gamma 90
_cell_formula_units_Z 4
loop_
_atom_type_symbol
_atom_type_radius_bond
C 0.68
H 0.23
N 0.68
O 0.68
loop_
_atom_site_label
_atom_site_type_symbol
_atom_site_fract_x
_atom_site_fract_y
_atom_site_fract_z
O1 O 0.19953(15) 0.40169(3) 0.58453(15)
O2 O 0.41904(13) 0.45019(3) 0.33767(13)
O3 O 0.55151(17) 0.28393(3) 0.37779(16)
N1 N 0.34161(17) 0.33519(4) 0.47711(16)
N2 N 0.52407(15) 0.44610(4) 0.19623(15)
C1 C 0.98081(19) 0.35087(5) -0.09319(18)
H1 H 1.07470 0.34180 -0.15250
C2 C 0.98247(18) 0.39944(4) -0.02346(18)
H2 H 1.07630 0.42270 -0.03860
C3 C 0.84490(18) 0.41385(4) 0.06920(17)
C4 C 0.70338(17) 0.37844(4) 0.08794(17)
C5 C 0.55064(17) 0.39208(4) 0.18478(17)
H3 H 0.40970 0.37770 0.09920
C6 C 0.61747(18) 0.37374(4) 0.41278(17)
H4 H 0.77390 0.37240 0.49100
C7 C 0.5095(2) 0.32520(4) 0.42034(18)
C8 C 0.1976(2) 0.29649(5) 0.4900(2)
H5 H 0.15420 0.27540 0.36970
H6 H 0.07290 0.31170 0.49640
H7 H 0.27080 0.27680 0.61260
C9 C 0.33063(19) 0.38484(4) 0.52739(17)
C10 C 0.51216(18) 0.41269(4) 0.49827(18)
H8 H 0.61480 0.42720 0.62860
C11 C 0.73497(19) 0.47144(4) 0.29039(19)
H9 H 0.82400 0.45590 0.42180
H10 H 0.71560 0.50630 0.31560
C12 C 0.84188(19) 0.46697(4) 0.13972(19)
H11 H 0.76540 0.48780 0.01950
H12 H 0.98840 0.47920 0.20630
C13 C 0.83909(19) 0.31578(4) -0.07453(18)
H13 H 0.83770 0.28330 -0.12150
C14 C 0.69988(19) 0.32971(4) 0.01475(18)
H14 H 0.60370 0.30650 0.02600
#END
