
#######################################################################
#
#                 Cambridge Crystallographic Data Centre
#                                CCDC
#
#######################################################################
#
# If this CIF has been generated from an entry in the Cambridge
# Structural Database, then it will include bibliographic, chemical,
# crystal, experimental, refinement or atomic coordinate data resulting
# from the CCDC's data processing and validation procedures.
#
#######################################################################

data_CSD_CIF_UZEQEX
_audit_creation_date 2016-11-07
_audit_creation_method CSD-ConQuest-V1
_database_code_CSD UZEQEX
_database_code_depnum_ccdc_archive 'CCDC 1051097'
_chemical_formula_sum 'C9 H12 N2 O3'
_chemical_formula_moiety
;
C9 H12 N2 O3
;
_journal_coden_Cambridge 177
_journal_volume 14
_journal_year 2016
_journal_page_first 10953
_journal_name_full 'Org.Biomol.Chem. '
loop_
_publ_author_name
"R.C.Furnival"
"Rungroj Saruengkhanphasit"
"H.E.Holberry"
"J.R.Shewring"
"H.D.S.Guerrand"
"H.Adams"
"I.Coldham"
_chemical_name_systematic
;
2-methylhexahydro-1H-dipyrrolo[1,2-b:3',4'-d][1,2]oxazole-1,3(2H)-dione
;
_cell_volume    888.615
_exptl_crystal_colour 'colorless'
_exptl_crystal_density_diffrn 1.467
_exptl_crystal_description 'block'
_diffrn_ambient_temperature 100
#These two values have been output from a single CSD field.
_refine_ls_R_factor_gt 0.0338
_refine_ls_wR_factor_gt 0.0338
_symmetry_cell_setting orthorhombic
_symmetry_space_group_name_H-M 'P n a 21'
_symmetry_Int_Tables_number 33
loop_
_symmetry_equiv_pos_site_id
_symmetry_equiv_pos_as_xyz
1 x,y,z
2 -x,-y,1/2+z
3 1/2+x,1/2-y,z
4 1/2-x,1/2+y,1/2+z
_cell_length_a 7.9208(3)
_cell_length_b 16.5681(9)
_cell_length_c 6.7713(3)
_cell_angle_alpha 90
_cell_angle_beta 90
_cell_angle_gamma 90
_cell_formula_units_Z 4
loop_
_atom_type_symbol
_atom_type_radius_bond
C 0.68
H 0.23
N 0.68
O 0.68
loop_
_atom_site_label
_atom_site_type_symbol
_atom_site_fract_x
_atom_site_fract_y
_atom_site_fract_z
O1 O 0.87160(12) 0.65515(7) 0.66420(18)
O2 O 0.60741(13) 0.68810(7) 0.97928(18)
O3 O 0.37857(13) 0.53697(7) 0.4852(2)
N1 N 0.78684(15) 0.67915(8) 0.4753(2)
N2 N 0.45790(15) 0.62008(8) 0.7399(2)
C1 C 1.0152(2) 0.64162(10) 0.2496(3)
H1 H 1.01280 0.64760 0.10420
H2 H 1.13430 0.63900 0.29370
C2 C 0.91860(18) 0.56548(10) 0.3138(3)
H3 H 0.90030 0.52880 0.20040
H4 H 0.98070 0.53610 0.41830
C3 C 0.74994(18) 0.59818(9) 0.3924(2)
H5 H 0.66480 0.60200 0.28370
C4 C 0.67690(17) 0.55294(9) 0.5699(3)
H6 H 0.70810 0.49450 0.57060
C5 C 0.48756(18) 0.56635(9) 0.5879(2)
C6 C 0.29016(18) 0.65096(10) 0.7871(3)
H7 H 0.21300 0.60560 0.80940
H8 H 0.24870 0.68380 0.67690
H9 H 0.29620 0.68420 0.90660
C7 C 0.60359(18) 0.64255(9) 0.8401(2)
C8 C 0.75403(18) 0.59961(9) 0.7443(2)
H10 H 0.81000 0.56210 0.83980
C9 C 0.92245(18) 0.71245(10) 0.3501(3)
H11 H 1.00250 0.74390 0.43170
H12 H 0.87390 0.74880 0.24880
#END
