
#######################################################################
#
#                 Cambridge Crystallographic Data Centre
#                                CCDC
#
#######################################################################
#
# If this CIF has been generated from an entry in the Cambridge
# Structural Database, then it will include bibliographic, chemical,
# crystal, experimental, refinement or atomic coordinate data resulting
# from the CCDC's data processing and validation procedures.
#
#######################################################################

data_CSD_CIF_UZEWED
_audit_creation_date 2016-11-07
_audit_creation_method CSD-ConQuest-V1
_database_code_CSD UZEWED
_database_code_depnum_ccdc_archive 'CCDC 1500626'
_chemical_formula_sum 'C5 H6 N6 O8'
_chemical_formula_moiety
;
C5 H6 N6 O8
;
_journal_coden_Cambridge 1699
_journal_volume 4
_journal_year 2016
_journal_page_first 17791
_journal_name_full 'J.Mater.Chem.A '
loop_
_publ_author_name
"Yuangang Xu"
"Cheng Shen"
"Qiuhan Lin"
"Pengcheng Wang"
"Chao Jiang"
"Ming Lu"
_chemical_name_systematic
;
1-nitro-2-(trinitromethyl)-1,4,5,6-tetrahydropyrimidine
;
_cell_volume   1075.209
_exptl_crystal_density_diffrn 1.718
_exptl_crystal_description 'rod'
_diffrn_ambient_temperature 293
#These two values have been output from a single CSD field.
_refine_ls_R_factor_gt 0.0525
_refine_ls_wR_factor_gt 0.0525
_symmetry_cell_setting monoclinic
_symmetry_space_group_name_H-M 'P 21'
_symmetry_Int_Tables_number 4
loop_
_symmetry_equiv_pos_site_id
_symmetry_equiv_pos_as_xyz
1 x,y,z
2 -x,1/2+y,-z
_cell_length_a 10.821(2)
_cell_length_b 8.8200(18)
_cell_length_c 11.286(2)
_cell_angle_alpha 90
_cell_angle_beta 93.44(3)
_cell_angle_gamma 90
_cell_formula_units_Z 4
loop_
_atom_type_symbol
_atom_type_radius_bond
C 0.68
H 0.23
N 0.68
O 0.68
loop_
_atom_site_label
_atom_site_type_symbol
_atom_site_fract_x
_atom_site_fract_y
_atom_site_fract_z
N1 N 0.8264(7) 0.2997(6) 0.1425(5)
O1 O 0.8848(9) -0.0184(7) 0.3816(6)
C1 C 0.8145(9) 0.4555(8) 0.1826(7)
H1 H 0.83920 0.52320 0.12060
H2 H 0.72830 0.47570 0.19560
N2 N 0.8729(5) 0.2223(6) 0.3356(5)
O2 O 0.8959(5) 0.1460(7) 0.5206(4)
C2 C 0.8850(9) 0.4865(8) 0.2857(6)
H3 H 0.86100 0.58560 0.31370
H4 H 0.97090 0.49340 0.26610
C3 C 0.8778(7) 0.3803(8) 0.3830(5)
H5 H 0.80440 0.40060 0.42560
H6 H 0.94970 0.39200 0.43790
N3 N 0.8804(7) 0.1123(8) 0.4195(5)
O3 O 0.7276(10) 0.0486(11) -0.0084(7)
C4 C 0.8516(5) 0.1981(7) 0.2178(5)
N4 N 0.8415(13) 0.0580(11) 0.0217(9)
O4 O 0.9258(12) 0.0755(14) -0.0222(10)
N5 N 0.9756(5) -0.0441(7) 0.1821(7)
C5 C 0.8612(6) 0.0414(6) 0.1606(5)
O5 O 1.0564(6) 0.0310(8) 0.2224(6)
N6 N 0.7538(5) -0.0599(7) 0.1907(7)
O6 O 0.9890(5) -0.1702(6) 0.1557(6)
O7 O 0.6698(6) 0.0017(8) 0.2349(7)
O8 O 0.7499(5) -0.1893(6) 0.1709(6)
C6 C 0.3278(6) -0.1848(7) 0.3196(5)
H7 H 0.36130 -0.24470 0.38620
H8 H 0.24360 -0.21870 0.30110
N7 N 0.3250(5) -0.0245(5) 0.3559(4)
C7 C 0.4003(6) -0.2140(7) 0.2181(5)
H9 H 0.38170 -0.31490 0.18770
H10 H 0.48770 -0.21050 0.24270
N8 N 0.3875(4) 0.0534(5) 0.1738(4)
C8 C 0.3732(6) -0.0996(8) 0.1213(6)
H11 H 0.43010 -0.11270 0.05890
H12 H 0.28950 -0.11310 0.08730
N9 N 0.4308(5) 0.1641(7) 0.1018(5)
O9 O 0.4403(5) 0.1313(6) -0.0002(4)
C9 C 0.3555(4) 0.0778(6) 0.2898(5)
C10 C 0.3477(6) 0.2348(6) 0.3394(5)
O10 O 0.4538(5) 0.2861(6) 0.1488(4)
N10 N 0.2608(5) 0.3448(6) 0.2692(5)
N11 N 0.4733(6) 0.3063(8) 0.3681(5)
O11 O 0.2491(5) 0.4685(5) 0.3085(5)
N12 N 0.2890(6) 0.2228(6) 0.4591(5)
O12 O 0.2081(4) 0.2901(6) 0.1860(5)
O13 O 0.5555(4) 0.2139(7) 0.3857(5)
O14 O 0.4835(5) 0.4404(7) 0.3792(6)
O15 O 0.1746(4) 0.2121(6) 0.4521(4)
O16 O 0.3555(5) 0.2204(7) 0.5475(4)
#END
