
#######################################################################
#
#                 Cambridge Crystallographic Data Centre
#                                CCDC
#
#######################################################################
#
# If this CIF has been generated from an entry in the Cambridge
# Structural Database, then it will include bibliographic, chemical,
# crystal, experimental, refinement or atomic coordinate data resulting
# from the CCDC's data processing and validation procedures.
#
#######################################################################

data_CSD_CIF_UZEWON
_audit_creation_date 2016-11-07
_audit_creation_method CSD-ConQuest-V1
_database_code_CSD UZEWON
_database_code_depnum_ccdc_archive 'CCDC 1500624'
_chemical_formula_sum 'C5 H6 N6 O8'
_chemical_formula_moiety
;
C5 H6 N6 O8
;
_journal_coden_Cambridge 1699
_journal_volume 4
_journal_year 2016
_journal_page_first 17791
_journal_name_full 'J.Mater.Chem.A '
loop_
_publ_author_name
"Yuangang Xu"
"Cheng Shen"
"Qiuhan Lin"
"Pengcheng Wang"
"Chao Jiang"
"Ming Lu"
_chemical_name_systematic
;
4-methyl-1-nitro-2-(trinitromethyl)-4,5-dihydro-1H-imidazole
;
_cell_volume   1107.755
_exptl_crystal_density_diffrn 1.668
_exptl_crystal_description 'plate'
_diffrn_ambient_temperature 293
#These two values have been output from a single CSD field.
_refine_ls_R_factor_gt 0.0667
_refine_ls_wR_factor_gt 0.0667
_symmetry_cell_setting triclinic
_symmetry_space_group_name_H-M 'P -1'
_symmetry_Int_Tables_number 2
loop_
_symmetry_equiv_pos_site_id
_symmetry_equiv_pos_as_xyz
1 x,y,z
2 -x,-y,-z
_cell_length_a 8.4150(17)
_cell_length_b 10.916(2)
_cell_length_c 12.774(3)
_cell_angle_alpha 72.30(3)
_cell_angle_beta 83.98(3)
_cell_angle_gamma 83.60(3)
_cell_formula_units_Z 4
loop_
_atom_type_symbol
_atom_type_radius_bond
C 0.68
H 0.23
N 0.68
O 0.68
loop_
_atom_site_label
_atom_site_type_symbol
_atom_site_fract_x
_atom_site_fract_y
_atom_site_fract_z
O1 O 0.0468(4) 1.0001(3) 0.1226(2)
O2 O 0.1948(4) 0.9240(3) 0.2602(3)
O3 O 0.5020(5) 0.7524(4) 0.3551(3)
O4 O 0.4408(4) 0.7388(3) 0.2014(3)
O5 O 0.4306(5) 0.4779(3) 0.3616(3)
O6 O 0.2248(5) 0.4654(3) 0.4779(3)
O7 O 0.2702(5) 0.7114(4) 0.5159(3)
O8 O 0.0452(5) 0.7401(4) 0.4468(3)
N1 N 0.1034(4) 0.5765(3) 0.2520(2)
N2 N 0.0733(4) 0.7924(3) 0.2018(2)
N3 N 0.1074(4) 0.9121(3) 0.1936(3)
N4 N 0.4167(4) 0.7269(4) 0.2973(4)
N5 N 0.3129(5) 0.5222(3) 0.4025(3)
N6 N 0.1849(6) 0.7126(3) 0.4464(3)
C1 C -0.0207(5) 0.6164(4) 0.1703(3)
H1 H 0.01260 0.58040 0.10910
C2 C -0.0285(5) 0.7635(4) 0.1277(3)
H2 H 0.01420 0.79310 0.05160
H3 H -0.13730 0.80190 0.13430
C3 C 0.1453(4) 0.6752(4) 0.2668(3)
C4 C -0.1759(6) 0.5656(6) 0.2260(4)
H4 H -0.16340 0.47300 0.25060
H5 H -0.25800 0.59370 0.17500
H6 H -0.20580 0.59750 0.28820
C5 C 0.2614(4) 0.6657(3) 0.3510(3)
O9 O 0.3323(4) 0.2926(3) 0.0328(2)
O10 O 0.0893(4) 0.3202(3) 0.1030(2)
O11 O 0.4738(6) 0.0390(4) 0.1166(4)
O12 O 0.6837(4) 0.1107(4) 0.0210(3)
O13 O 0.7898(5) 0.2167(7) 0.2575(4)
O14 O 0.7526(5) 0.0271(6) 0.2535(3)
O15 O 0.7116(5) 0.3510(4) 0.0188(3)
O16 O 0.5367(5) 0.4196(4) 0.1273(3)
N7 N 0.4470(4) 0.1513(4) 0.3427(2)
N8 N 0.2819(3) 0.2431(3) 0.2125(2)
N9 N 0.2305(5) 0.2881(3) 0.1095(3)
N10 N 0.5784(5) 0.1096(4) 0.0913(3)
N11 N 0.7266(6) 0.1446(7) 0.2304(3)
N12 N 0.6127(5) 0.3362(5) 0.0953(3)
C6 C 0.2880(4) 0.1638(4) 0.4004(3)
H7 H 0.29200 0.22420 0.44310
C7 C 0.1732(4) 0.2255(4) 0.3105(3)
H8 H 0.09170 0.16870 0.31170
H9 H 0.12180 0.30720 0.31700
C8 C 0.4343(4) 0.1961(4) 0.2411(3)
C9 C 0.2471(6) 0.0418(5) 0.4760(4)
H10 H 0.32560 0.01110 0.52950
H11 H 0.24500 -0.01960 0.43620
H12 H 0.14340 0.05270 0.51290
C10 C 0.5784(4) 0.1996(4) 0.1620(3)
#END
