
#######################################################################
#
#                 Cambridge Crystallographic Data Centre
#                                CCDC
#
#######################################################################
#
# If this CIF has been generated from an entry in the Cambridge
# Structural Database, then it will include bibliographic, chemical,
# crystal, experimental, refinement or atomic coordinate data resulting
# from the CCDC's data processing and validation procedures.
#
#######################################################################

data_CSD_CIF_UZEWUT
_audit_creation_date 2016-11-07
_audit_creation_method CSD-ConQuest-V1
_database_code_CSD UZEWUT
_database_code_depnum_ccdc_archive 'CCDC 1502271'
_chemical_formula_sum 'C8 H10 N6 O8'
_chemical_formula_moiety
;
C8 H10 N6 O8
;
_journal_coden_Cambridge 1699
_journal_volume 4
_journal_year 2016
_journal_page_first 17791
_journal_name_full 'J.Mater.Chem.A '
loop_
_publ_author_name
"Yuangang Xu"
"Cheng Shen"
"Qiuhan Lin"
"Pengcheng Wang"
"Chao Jiang"
"Ming Lu"
_chemical_name_systematic
;
trans-1-nitro-2-(trinitromethyl)-3a,4,5,6,7,7a-hexahydro-1H-benzimidazole
;
_cell_volume   2652.008
_exptl_crystal_density_diffrn 1.594
_exptl_crystal_description 'plate'
_diffrn_ambient_temperature 293
#These two values have been output from a single CSD field.
_refine_ls_R_factor_gt 0.0556
_refine_ls_wR_factor_gt 0.0556
loop_
_citation_database_id_CSD
_citation_special_details
UZEXAA "is a stereoisomer of this entry"
_symmetry_cell_setting monoclinic
_symmetry_space_group_name_H-M 'C 2/c'
_symmetry_Int_Tables_number 15
loop_
_symmetry_equiv_pos_site_id
_symmetry_equiv_pos_as_xyz
1 x,y,z
2 -x,y,1/2-z
3 1/2+x,1/2+y,z
4 1/2-x,1/2+y,1/2-z
5 -x,-y,-z
6 x,-y,-1/2+z
7 -1/2-x,-1/2-y,-z
8 -1/2+x,-1/2-y,-1/2+z
_cell_length_a 21.390(4)
_cell_length_b 12.501(3)
_cell_length_c 9.957(2)
_cell_angle_alpha 90
_cell_angle_beta 95.08(3)
_cell_angle_gamma 90
_cell_formula_units_Z 8
loop_
_atom_type_symbol
_atom_type_radius_bond
C 0.68
H 0.23
N 0.68
O 0.68
loop_
_atom_site_label
_atom_site_type_symbol
_atom_site_fract_x
_atom_site_fract_y
_atom_site_fract_z
O1 O 0.30626(12) 0.9508(2) 0.0678(3)
C1 C 0.34816(16) 0.7366(3) 0.2978(3)
H1 H 0.31390 0.69000 0.26130
N1 N 0.41975(13) 0.6996(2) 0.1351(3)
N2 N 0.35148(12) 0.8235(2) 0.1987(3)
O2 O 0.26933(12) 0.9106(2) 0.2564(3)
C2 C 0.3382(2) 0.7515(3) 0.4432(4)
H2 H 0.29770 0.78430 0.45230
H3 H 0.37070 0.79730 0.48660
N3 N 0.30557(12) 0.8989(2) 0.1723(3)
O3 O 0.29811(13) 0.7618(3) -0.0910(3)
C3 C 0.3411(2) 0.6415(3) 0.5069(4)
H4 H 0.34170 0.65030 0.60380
H5 H 0.30280 0.60380 0.47700
N4 N 0.33618(14) 0.8187(3) -0.1312(3)
O4 O 0.33416(15) 0.8595(3) -0.2397(3)
C4 C 0.3958(2) 0.5720(3) 0.4784(4)
H6 H 0.38750 0.49950 0.50690
H7 H 0.43290 0.59710 0.53240
N5 N 0.41849(13) 0.9464(2) -0.0247(3)
O5 O 0.44391(14) 0.9684(2) 0.0854(3)
C5 C 0.4098(3) 0.5694(3) 0.3318(4)
H8 H 0.45130 0.53990 0.32470
H9 H 0.37950 0.52410 0.28070
N6 N 0.44581(14) 0.7684(2) -0.1034(3)
O6 O 0.41347(13) 1.0018(2) -0.1226(3)
C6 C 0.40653(18) 0.6785(3) 0.2768(3)
H10 H 0.43940 0.71770 0.33130
C7 C 0.38843(14) 0.7818(2) 0.0998(3)
O7 O 0.49854(12) 0.8016(2) -0.0833(3)
O8 O 0.42797(14) 0.6916(2) -0.1678(3)
C8 C 0.39517(14) 0.8309(2) -0.0352(3)
#END
