
#######################################################################
#
#                 Cambridge Crystallographic Data Centre
#                                CCDC
#
#######################################################################
#
# If this CIF has been generated from an entry in the Cambridge
# Structural Database, then it will include bibliographic, chemical,
# crystal, experimental, refinement or atomic coordinate data resulting
# from the CCDC's data processing and validation procedures.
#
#######################################################################

data_CSD_CIF_UZIRIF
_audit_creation_date 2011-11-16
_audit_creation_method CSD-ConQuest-V1
_database_code_CSD UZIRIF
_database_code_depnum_ccdc_archive 'CCDC 804940'
_chemical_formula_sum 'C20 H25 N3 O5'
_chemical_formula_moiety
;
C20 H25 N3 O5
;
_journal_coden_Cambridge 4
_journal_volume 133
_journal_year 2011
_journal_page_first 13337
_journal_name_full 'J.Am.Chem.Soc. '
loop_
_publ_author_name
"Risong Na"
"Chengfeng Jing"
"Qihai Xu"
"Hui Jiang"
"Xi Wu"
"Jiayan Shi"
"Jiangchun Zhong"
"Min Wang"
"D.Benitez"
"E.Tkatchouk"
"W.A.Goddard III"
"Hongchao Guo"
"Ohyun Kwon"
_chemical_name_systematic
;
Ethyl 
4-methyl-2-(3-(4-nitrophenyl)-7-oxotetrahydro-1H,5H-pyrazolo[1,2-a]pyrazol-1-y
lidene)pentanoate
;
_cell_volume    944.266
_exptl_crystal_colour 'colorless'
_exptl_crystal_density_diffrn 1.363
_exptl_crystal_description 'block'
_exptl_crystal_preparation 'dichloromethane/hexane'
_diffrn_ambient_temperature 100
#These two values have been output from a single CSD field.
_refine_ls_R_factor_gt 0.0391
_refine_ls_wR_factor_gt 0.0391
_symmetry_cell_setting triclinic
_symmetry_space_group_name_H-M 'P -1'
_symmetry_Int_Tables_number 2
loop_
_symmetry_equiv_pos_site_id
_symmetry_equiv_pos_as_xyz
1 x,y,z
2 -x,-y,-z
_cell_length_a 8.961(3)
_cell_length_b 9.259(3)
_cell_length_c 12.207(4)
_cell_angle_alpha 77.131(4)
_cell_angle_beta 81.294(4)
_cell_angle_gamma 73.893(4)
_cell_formula_units_Z 2
loop_
_atom_type_symbol
_atom_type_radius_bond
C 0.68
H 0.23
N 0.68
O 0.68
loop_
_atom_site_label
_atom_site_type_symbol
_atom_site_fract_x
_atom_site_fract_y
_atom_site_fract_z
O1 O 0.44806(9) 0.46370(9) 0.39542(6)
O2 O -0.28564(11) 0.71550(12) 1.12500(7)
O3 O -0.39206(11) 0.56264(11) 1.07155(8)
O4 O 0.41437(9) 0.99737(8) 0.31608(6)
O5 O 0.24456(9) 1.03294(9) 0.46916(7)
N1 N 0.10856(10) 0.53723(10) 0.58357(7)
N2 N 0.20902(10) 0.5775(1) 0.48240(7)
N3 N -0.29694(11) 0.63929(12) 1.05756(8)
C1 C -0.18789(12) 0.63845(12) 0.95450(9)
C2 C -0.06078(13) 0.69782(12) 0.94799(9)
H1 H -0.04720 0.74400 1.00670
C3 C 0.04673(12) 0.68840(12) 0.85346(9)
H2 H 0.13620 0.72650 0.84840
C4 C 0.02535(11) 0.62384(12) 0.76577(8)
C5 C -0.10673(12) 0.56866(12) 0.77407(9)
H3 H -0.12400 0.52740 0.71390
C6 C -0.21346(12) 0.57349(13) 0.86968(9)
H4 H -0.30170 0.53310 0.87650
C7 C 0.14687(11) 0.61423(12) 0.66556(8)
H5 H 0.25140 0.55750 0.69190
C8 C 0.15684(12) 0.76918(12) 0.59142(8)
H6 H 0.05290 0.84290 0.58920
H7 H 0.22940 0.81320 0.61920
C9 C 0.21801(11) 0.72949(11) 0.47620(8)
C10 C 0.34188(12) 0.45579(11) 0.46878(9)
C11 C 0.32383(12) 0.32135(12) 0.56060(9)
H8 H 0.39680 0.30310 0.61840
H9 H 0.34320 0.22730 0.52920
C12 C 0.15582(12) 0.36788(12) 0.61033(9)
H10 H 0.08840 0.32450 0.57650
H11 H 0.14740 0.33070 0.69300
C13 C 0.27168(11) 0.81521(11) 0.38266(8)
C14 C 0.30377(11) 0.95884(12) 0.39616(8)
C15 C 0.45988(12) 1.13336(12) 0.32198(9)
H12 H 0.51570 1.11550 0.38970
H13 H 0.36670 1.22030 0.32620
C16 C 0.56512(14) 1.16784(14) 0.21651(10)
H14 H 0.66040 1.08440 0.21620
H15 H 0.59230 1.26390 0.21450
H16 H 0.51110 1.17760 0.15010
C17 C 0.30612(12) 0.77600(12) 0.26640(8)
H17 H 0.28240 0.67680 0.26960
H18 H 0.41870 0.76410 0.24210
C18 C 0.21044(12) 0.89956(12) 0.17874(9)
H19 H 0.21740 1.00200 0.18830
C19 C 0.03923(13) 0.89689(14) 0.19727(10)
H20 H -0.01950 0.97870 0.14230
H21 H -0.00270 0.91260 0.27390
H22 H 0.02970 0.79760 0.18760
C20 C 0.27912(15) 0.87823(16) 0.05968(10)
H23 H 0.27810 0.77640 0.04980
H24 H 0.38680 0.88810 0.04790
H25 H 0.21670 0.95650 0.00470
#END
