
#######################################################################
#
#                 Cambridge Crystallographic Data Centre
#                                CCDC
#
#######################################################################
#
# If this CIF has been generated from an entry in the Cambridge
# Structural Database, then it will include bibliographic, chemical,
# crystal, experimental, refinement or atomic coordinate data resulting
# from the CCDC's data processing and validation procedures.
#
#######################################################################

data_CSD_CIF_UZIRUR
_audit_creation_date 2011-11-16
_audit_creation_method CSD-ConQuest-V1
_database_code_CSD UZIRUR
_database_code_depnum_ccdc_archive 'CCDC 804942'
_chemical_formula_sum 'C16 H17 N3 O5'
_chemical_formula_moiety
;
C16 H17 N3 O5
;
_journal_coden_Cambridge 4
_journal_volume 133
_journal_year 2011
_journal_page_first 13337
_journal_name_full 'J.Am.Chem.Soc. '
loop_
_publ_author_name
"Risong Na"
"Chengfeng Jing"
"Qihai Xu"
"Hui Jiang"
"Xi Wu"
"Jiayan Shi"
"Jiangchun Zhong"
"Min Wang"
"D.Benitez"
"E.Tkatchouk"
"W.A.Goddard III"
"Hongchao Guo"
"Ohyun Kwon"
_chemical_name_systematic
;
Ethyl 
(3-(4-nitrophenyl)-7-oxotetrahydro-1H,5H-pyrazolo[1,2-a]pyrazol-1-ylidene)acet
ate
;
_cell_volume   1556.417
_exptl_crystal_colour 'colorless'
_exptl_crystal_density_diffrn 1.414
_exptl_crystal_description 'block'
_exptl_crystal_preparation 'dichloromethane/hexane'
_diffrn_ambient_temperature 100
_refine_special_details
;
C31,C32 and C31A,C32A disordered over two sites with occupancies 0.804:0.196.

;
#These two values have been output from a single CSD field.
_refine_ls_R_factor_gt 0.0402
_refine_ls_wR_factor_gt 0.0402
_symmetry_cell_setting triclinic
_symmetry_space_group_name_H-M 'P -1'
_symmetry_Int_Tables_number 2
loop_
_symmetry_equiv_pos_site_id
_symmetry_equiv_pos_as_xyz
1 x,y,z
2 -x,-y,-z
_cell_length_a 7.5943(7)
_cell_length_b 14.3844(14)
_cell_length_c 14.7836(14)
_cell_angle_alpha 77.337(1)
_cell_angle_beta 84.962(1)
_cell_angle_gamma 81.670(2)
_cell_formula_units_Z 4
loop_
_atom_type_symbol
_atom_type_radius_bond
C 0.68
H 0.23
N 0.68
O 0.68
loop_
_atom_site_label
_atom_site_type_symbol
_atom_site_fract_x
_atom_site_fract_y
_atom_site_fract_z
O1 O 1.21561(14) -0.03562(6) 0.80455(7)
O2 O 1.11786(19) 0.04044(8) 0.67340(7)
O3 O 0.93679(12) 0.63671(6) 0.80046(6)
O4 O 0.80898(11) 0.75047(5) 0.87827(6)
O5 O 0.61018(12) 0.51137(6) 1.13953(6)
N1 N 1.13311(14) 0.03361(7) 0.75609(7)
N2 N 0.79994(12) 0.33341(6) 1.01783(6)
N3 N 0.75293(12) 0.43112(6) 1.03039(6)
C1 C 1.04771(14) 0.11330(7) 0.79853(7)
C2 C 0.95042(14) 0.19103(7) 0.74333(7)
H1 H 0.94010 0.19300 0.67930
C3 C 0.86904(14) 0.26546(7) 0.78386(7)
H2 H 0.80160 0.31920 0.74730
C4 C 0.88483(13) 0.26264(7) 0.87793(7)
C5 C 0.98393(14) 0.18364(7) 0.93143(7)
H3 H 0.99530 0.18160 0.99530
C6 C 1.06628(14) 0.10776(7) 0.89206(7)
H4 H 1.13340 0.05370 0.92830
C7 C 0.78989(14) 0.34637(7) 0.91655(7)
H5 H 0.66180 0.35660 0.90150
C8 C 0.87022(14) 0.44117(7) 0.87999(7)
H6 H 1.00210 0.42960 0.87460
H7 H 0.82570 0.47460 0.81880
C9 C 0.80499(13) 0.49760(7) 0.95378(7)
C10 C 0.65802(14) 0.43704(8) 1.11271(7)
C11 C 0.62970(15) 0.33489(8) 1.15854(7)
H8 H 0.50700 0.33200 1.18680
H9 H 0.71570 0.30710 1.20700
C12 C 0.66183(15) 0.28263(8) 1.07800(7)
H10 H 0.70550 0.21370 1.09990
H11 H 0.55170 0.28850 1.04490
C13 C 0.79430(14) 0.59249(7) 0.95130(7)
H12 H 0.74600 0.61680 1.00420
C14 C 0.85561(15) 0.65836(7) 0.86868(7)
C15 C 0.8643(2) 0.82393(8) 0.8018(1)
H13 H 0.97100 0.79720 0.76780
H14 H 0.89620 0.87790 0.82590
C16 C 0.7155(3) 0.85975(10) 0.73698(11)
H15 H 0.68870 0.80680 0.71070
H16 H 0.75190 0.91130 0.68670
H17 H 0.60910 0.88440 0.77130
O6 O 0.61044(12) 0.07835(6) 1.00043(5)
O7 O 0.71468(12) -0.00219(6) 0.89533(6)
O8 O 0.37035(13) 0.66368(6) 0.63173(6)
O9 O 0.15972(12) 0.52095(6) 0.35409(5)
N4 N 0.62296(12) 0.06629(6) 0.92009(6)
N5 N 0.30908(12) 0.34900(6) 0.54931(6)
N6 N 0.26858(12) 0.44549(6) 0.49515(6)
C17 C 0.52570(13) 0.13911(7) 0.84979(7)
C18 C 0.54628(14) 0.12945(7) 0.75822(7)
H18 H 0.61480 0.07430 0.74160
C19 C 0.46428(14) 0.20235(7) 0.69105(7)
H19 H 0.47740 0.19730 0.62780
C20 C 0.36303(13) 0.28280(7) 0.71583(7)
C21 C 0.34284(14) 0.28910(7) 0.80915(7)
H20 H 0.27250 0.34330 0.82650
C22 C 0.42421(14) 0.21712(7) 0.87694(7)
H21 H 0.41040 0.22140 0.94040
C23 C 0.27162(14) 0.36358(7) 0.64542(7)
H22 H 0.14000 0.36910 0.66040
C24 C 0.33569(15) 0.46210(7) 0.63986(7)
H23 H 0.26960 0.49570 0.68670
H24 H 0.46500 0.45480 0.64900
C25 C 0.29432(14) 0.51490(7) 0.54250(7)
C26 C 0.19868(15) 0.44798(8) 0.41212(7)
C27 C 0.18406(16) 0.34461(8) 0.41061(8)
H25 H 0.28600 0.31680 0.37430
H26 H 0.07160 0.33900 0.38430
C28 C 0.18683(16) 0.29587(8) 0.51353(7)
H27 H 0.06640 0.30280 0.54480
H28 H 0.23320 0.22680 0.52180
C29 C 0.28036(15) 0.60936(7) 0.50355(7)
H29 H 0.25210 0.63040 0.44040
C30 C 0.30786(16) 0.67991(7) 0.55654(7)
O10 O 0.25284(14) 0.77008(6) 0.50931(6)
C31 C 0.2818(4) 0.84617(17) 0.55631(18)
H30 H 0.40430 0.83490 0.57800
H31 H 0.19610 0.84770 0.61060
C32 C 0.2541(3) 0.93917(11) 0.48599(12)
H32 H 0.26930 0.99250 0.51470
H33 H 0.13350 0.94850 0.46400
H34 H 0.34160 0.93710 0.43340
C33? C 0.2143(15) 0.8499(9) 0.5542(9)
C34? C 0.3790(12) 0.8993(5) 0.5314(6)
H35? H 0.19390 0.82790 0.62210
H36? H 0.10800 0.89310 0.52940
H37? H 0.36900 0.95240 0.56400
H38? H 0.39160 0.92430 0.46430
H39? H 0.48380 0.85320 0.55120
#END
