
#######################################################################
#
#                 Cambridge Crystallographic Data Centre
#                                CCDC
#
#######################################################################
#
# If this CIF has been generated from an entry in the Cambridge
# Structural Database, then it will include bibliographic, chemical,
# crystal, experimental, refinement or atomic coordinate data resulting
# from the CCDC's data processing and validation procedures.
#
#######################################################################

data_CSD_CIF_UZIROL
_audit_creation_date 2011-11-16
_audit_creation_method CSD-ConQuest-V1
_database_code_CSD UZIROL
_database_code_depnum_ccdc_archive 'CCDC 804941'
_chemical_formula_sum 'C20 H23 N3 O7'
_chemical_formula_moiety
;
C20 H23 N3 O7
;
_journal_coden_Cambridge 4
_journal_volume 133
_journal_year 2011
_journal_page_first 13337
_journal_name_full 'J.Am.Chem.Soc. '
loop_
_publ_author_name
"Risong Na"
"Chengfeng Jing"
"Qihai Xu"
"Hui Jiang"
"Xi Wu"
"Jiayan Shi"
"Jiangchun Zhong"
"Min Wang"
"D.Benitez"
"E.Tkatchouk"
"W.A.Goddard III"
"Hongchao Guo"
"Ohyun Kwon"
_chemical_name_systematic
;
Diethyl 
2-(3-(4-nitrophenyl)-7-oxotetrahydro-1H,5H-pyrazolo[1,2-a]pyrazol-1-ylidene)su
ccinate
;
_cell_volume   2000.414
_exptl_crystal_colour 'colorless'
_exptl_crystal_density_diffrn 1.386
_exptl_crystal_description 'block'
_exptl_crystal_preparation 'dichloromethane/hexane'
_diffrn_ambient_temperature 173
_refine_special_details
;
C39,C40,O14 and C39',C40',O14' disordered over two sites with occupancies 
0.538:0.462.
;
#These two values have been output from a single CSD field.
_refine_ls_R_factor_gt 0.0585
_refine_ls_wR_factor_gt 0.0585
_symmetry_cell_setting triclinic
_symmetry_space_group_name_H-M 'P -1'
_symmetry_Int_Tables_number 2
loop_
_symmetry_equiv_pos_site_id
_symmetry_equiv_pos_as_xyz
1 x,y,z
2 -x,-y,-z
_cell_length_a 10.0906(17)
_cell_length_b 10.702(2)
_cell_length_c 19.365(3)
_cell_angle_alpha 94.622(6)
_cell_angle_beta 104.715(6)
_cell_angle_gamma 95.703(7)
_cell_formula_units_Z 4
loop_
_atom_type_symbol
_atom_type_radius_bond
C 0.68
H 0.23
N 0.68
O 0.68
loop_
_atom_site_label
_atom_site_type_symbol
_atom_site_fract_x
_atom_site_fract_y
_atom_site_fract_z
O1 O -0.00482(16) 1.11019(14) 0.24597(9)
O2 O 0.18740(17) 1.22228(13) 0.30193(8)
O3 O 0.43222(13) 0.33608(12) 0.45556(7)
O4 O 0.09119(14) 0.39281(13) 0.60975(7)
O5 O 0.14642(14) 0.59433(12) 0.59225(7)
O6 O 0.34491(14) 0.25383(13) 0.59435(7)
O7 O 0.19601(17) 0.09169(13) 0.52936(8)
O8 O 0.37083(19) 1.26242(13) 0.19416(9)
O9 O 0.49951(17) 1.17757(14) 0.28038(9)
O10 O 0.07405(13) 0.26220(11) 0.05450(7)
O11 O 0.29488(15) 0.57316(13) -0.09845(7)
O12 O 0.41512(13) 0.40738(12) -0.09641(7)
O13 O 0.16024(15) 0.20861(13) -0.10335(8)
N1 N 0.11048(18) 1.12172(14) 0.28670(8)
N2 N 0.26446(15) 0.57261(13) 0.36497(7)
N3 N 0.27691(15) 0.47306(13) 0.41210(7)
N4 N 0.40800(19) 1.17007(15) 0.22402(10)
N5 N 0.18002(15) 0.57530(13) 0.13572(7)
N6 N 0.17888(15) 0.46736(13) 0.08493(7)
C1 C 0.16087(19) 1.01078(16) 0.31967(9)
C2 C 0.08043(19) 0.89499(16) 0.29816(10)
H1 H -0.00480 0.88710 0.26230
C3 C 0.12727(18) 0.79117(16) 0.33019(9)
H2 H 0.07210 0.71130 0.31720
C4 C 0.25398(18) 0.80198(15) 0.38111(9)
C5 C 0.33224(19) 0.92003(16) 0.40085(9)
H3 H 0.41910 0.92790 0.43550
C6 C 0.2859(2) 1.02617(16) 0.37099(10)
H4 H 0.33850 1.10700 0.38540
C7 C 0.30584(18) 0.68926(15) 0.41627(9)
H5 H 0.40860 0.70400 0.43510
C8 C 0.36259(19) 0.54838(17) 0.32116(9)
H6 H 0.41160 0.62900 0.31380
H7 H 0.31260 0.50320 0.27360
C9 C 0.46436(19) 0.46809(17) 0.36241(9)
H8 H 0.48240 0.39960 0.32980
H9 H 0.55290 0.52020 0.38730
C10 C 0.39551(18) 0.41492(16) 0.41545(9)
C11 C 0.23035(17) 0.51246(16) 0.47223(9)
C12 C 0.23949(18) 0.65512(15) 0.47675(9)
H10 H 0.29770 0.69460 0.52410
H11 H 0.14660 0.68300 0.46890
C13 C 0.18431(17) 0.43026(16) 0.51227(9)
C14 C 0.13705(18) 0.46906(17) 0.57611(9)
C15 C 0.0955(2) 0.6364(2) 0.6530(1)
H12 H 0.01160 0.57970 0.65290
H13 H 0.06960 0.72270 0.64800
C16 C 0.2011(2) 0.6367(2) 0.72244(11)
H14 H 0.17030 0.67910 0.76130
H15 H 0.28890 0.68170 0.71990
H16 H 0.21380 0.54950 0.73190
C17 C 0.16179(19) 0.28973(16) 0.49202(10)
H17 H 0.18300 0.27210 0.44530
H18 H 0.06290 0.25970 0.48530
C18 C 0.2467(2) 0.21447(17) 0.54562(10)
C19 C 0.2606(3) 0.0043(2) 0.57690(14)
H19 H 0.36100 0.03250 0.59480
H20 H 0.24800 -0.08070 0.55010
C20 C 0.1994(3) -0.0022(3) 0.63805(16)
H21 H 0.24060 -0.06460 0.66840
H22 H 0.09950 -0.02700 0.62020
H23 H 0.21710 0.08090 0.66630
C21 C 0.3395(2) 1.04379(16) 0.19158(10)
C22 C 0.3927(2) 0.93978(17) 0.22087(10)
H24 H 0.47040 0.94960 0.26150
C23 C 0.32960(19) 0.82142(16) 0.18932(10)
H25 H 0.36390 0.74860 0.20870
C24 C 0.21667(18) 0.80711(16) 0.12965(9)
C25 C 0.1638(2) 0.91367(17) 0.10312(10)
H26 H 0.08410 0.90420 0.06350
C26 C 0.2256(2) 1.03355(17) 0.13359(10)
H27 H 0.19040 1.10660 0.11500
C27 C 0.15748(18) 0.67899(15) 0.08937(9)
H28 H 0.05640 0.67780 0.06700
C28 C 0.06342(19) 0.53818(17) 0.16665(10)
H29 H -0.02200 0.56950 0.14020
H30 H 0.08490 0.57190 0.21790
C29 C 0.0477(2) 0.39460(17) 0.15818(10)
H31 H 0.10430 0.36250 0.20110
H32 H -0.05000 0.35910 0.15040
C30 C 0.09802(18) 0.36151(16) 0.09334(9)
C31 C 0.23380(18) 0.50444(15) 0.02945(9)
C32 C 0.23021(19) 0.64540(16) 0.03101(9)
H33 H 0.17800 0.66730 -0.01610
H34 H 0.32490 0.69090 0.04320
C33 C 0.29220(18) 0.42919(16) -0.01016(9)
C34 C 0.33174(18) 0.48008(16) -0.07185(9)
C35 C 0.4403(2) 0.4314(2) -0.16501(10)
H35 H 0.53800 0.42430 -0.16340
H36 H 0.42140 0.51790 -0.17540
C36 C 0.3475(2) 0.3366(2) -0.22260(11)
H37 H 0.36740 0.34900 -0.26870
H38 H 0.25100 0.34790 -0.22590
H39 H 0.36350 0.25110 -0.21080
C37 C 0.32730(19) 0.30008(16) 0.0064(1)
H40 H 0.30650 0.28310 0.05230
H41 H 0.42760 0.29860 0.01290
C38 C 0.2499(2) 0.19666(18) -0.05111(11)
O14 O 0.2854(9) 0.0842(6) -0.0280(4)
C39 C 0.2306(10) -0.0294(8) -0.0778(5)
H42 H 0.14340 -0.01560 -0.11200
H43 H 0.21040 -0.10060 -0.05090
C40 C 0.3331(10) -0.0613(12) -0.1181(7)
H44 H 0.33830 0.00050 -0.15240
H45 H 0.30420 -0.14600 -0.14420
H46 H 0.42410 -0.05920 -0.08430
C41? C 0.2514(12) -0.0131(9) -0.0999(7)
C42? C 0.3546(9) -0.1044(6) -0.0863(6)
H47? H 0.23690 0.01210 -0.14900
H48? H 0.16170 -0.04990 -0.09360
H49? H 0.44110 -0.06730 -0.09460
H50? H 0.31920 -0.18220 -0.11880
H51? H 0.37140 -0.12390 -0.03640
O15? O 0.3122(10) 0.0935(8) -0.0466(6)
#END
