
#######################################################################
#
#                 Cambridge Crystallographic Data Centre
#                                CCDC
#
#######################################################################
#
# If this CIF has been generated from an entry in the Cambridge
# Structural Database, then it will include bibliographic, chemical,
# crystal, experimental, refinement or atomic coordinate data resulting
# from the CCDC's data processing and validation procedures.
#
#######################################################################

data_CSD_CIF_UZISAY
_audit_creation_date 2011-11-16
_audit_creation_method CSD-ConQuest-V1
_database_code_CSD UZISAY
_database_code_depnum_ccdc_archive 'CCDC 804944'
_chemical_formula_sum 'C20 H23 N3 O7'
_chemical_formula_moiety
;
C20 H23 N3 O7
;
_journal_coden_Cambridge 4
_journal_volume 133
_journal_year 2011
_journal_page_first 13337
_journal_name_full 'J.Am.Chem.Soc. '
loop_
_publ_author_name
"Risong Na"
"Chengfeng Jing"
"Qihai Xu"
"Hui Jiang"
"Xi Wu"
"Jiayan Shi"
"Jiangchun Zhong"
"Min Wang"
"D.Benitez"
"E.Tkatchouk"
"W.A.Goddard III"
"Hongchao Guo"
"Ohyun Kwon"
_chemical_name_systematic
;
Diethyl 
8-methyl-5-(4-nitrophenyl)-1-oxo-2,3,5,6-tetrahydro-1H-pyrazolo[1,2-a]pyridazi
ne-6,7-dicarboxylate unknown solvate
;
_cell_volume   1221.403
_exptl_crystal_colour 'colorless'
_exptl_crystal_density_diffrn 1.135
_exptl_crystal_description 'prism'
_exptl_crystal_preparation 'dichloromethane/hexane'
_diffrn_ambient_temperature 173
_refine_special_details
;
C18',C19' and C18,C19 disordered over two sites with occupancies 0.60:0.40; 
The SQUEEZE/PLATON program has been used to model some disorder.
;
#These two values have been output from a single CSD field.
_refine_ls_R_factor_gt 0.0752
_refine_ls_wR_factor_gt 0.0752
_symmetry_cell_setting triclinic
_symmetry_space_group_name_H-M 'P -1'
_symmetry_Int_Tables_number 2
loop_
_symmetry_equiv_pos_site_id
_symmetry_equiv_pos_as_xyz
1 x,y,z
2 -x,-y,-z
_cell_length_a 10.019(2)
_cell_length_b 11.019(2)
_cell_length_c 12.228(2)
_cell_angle_alpha 82.353(17)
_cell_angle_beta 80.257(15)
_cell_angle_gamma 67.002(11)
_cell_formula_units_Z 2
loop_
_atom_type_symbol
_atom_type_radius_bond
C 0.68
H 0.23
N 0.68
O 0.68
loop_
_atom_site_label
_atom_site_type_symbol
_atom_site_fract_x
_atom_site_fract_y
_atom_site_fract_z
O1 O 0.3280(3) 0.7919(2) 0.4430(2)
O2 O 0.4744(3) -0.1171(2) 0.2100(2)
O3 O 0.2425(3) -0.0441(3) 0.1982(2)
O4 O 0.0146(2) 0.3686(2) 0.6656(2)
O5 O 0.2032(2) 0.1719(2) 0.6630(2)
O6 O 0.0857(3) 0.5810(2) 0.8318(2)
O7 O 0.2191(3) 0.3626(2) 0.8283(2)
N1 N 0.3050(3) 0.5885(2) 0.4923(2)
N2 N 0.3536(3) 0.4651(2) 0.4404(2)
N3 N 0.3496(3) -0.0375(3) 0.2312(2)
C1 C 0.3391(3) 0.6844(3) 0.4200(3)
C2 C 0.3929(4) 0.6275(3) 0.3082(3)
H1 H 0.50020 0.60140 0.29070
H2 H 0.34530 0.69240 0.24870
C3 C 0.3516(4) 0.5082(3) 0.3192(3)
H3 H 0.25320 0.53210 0.29740
H4 H 0.42340 0.43800 0.27290
C4 C 0.2478(3) 0.4017(3) 0.4805(3)
H5 H 0.14720 0.46740 0.47090
C5 C 0.2576(3) 0.3633(3) 0.6053(3)
H6 H 0.35740 0.29700 0.61610
C6 C 0.2280(3) 0.4873(3) 0.6628(3)
C7 C 0.2524(3) 0.5928(3) 0.6061(3)
C8 C 0.2795(3) 0.2847(3) 0.4146(3)
C9 C 0.4111(3) 0.1751(3) 0.4128(3)
H7 H 0.48460 0.17310 0.45370
C10 C 0.4355(4) 0.0696(3) 0.3523(3)
H8 H 0.52580 -0.00420 0.34980
C11 C 0.3249(4) 0.0739(3) 0.2953(3)
C12 C 0.1929(4) 0.1807(3) 0.2950(3)
H9 H 0.11880 0.18140 0.25530
C13 C 0.1727(3) 0.2861(3) 0.3543(3)
H10 H 0.08390 0.36130 0.35400
C14 C 0.1441(3) 0.3032(3) 0.6495(3)
C15 C 0.1011(4) 0.1049(4) 0.6942(3)
H11 H 0.01820 0.15730 0.74680
H12 H 0.15090 0.01740 0.73260
C16 C 0.0448(4) 0.0869(4) 0.5953(4)
H13 H -0.02230 0.04040 0.61870
H14 H 0.12670 0.03480 0.54330
H15 H -0.00730 0.17350 0.55860
C17 C 0.1694(3) 0.4869(3) 0.7820(3)
C18 C 0.171(3) 0.3437(14) 0.9469(10)
H16 H 0.06300 0.38290 0.96180
H17 H 0.21140 0.38710 0.99120
C19 C 0.225(3) 0.1996(11) 0.9776(15)
H18 H 0.21090 0.15430 0.91920
H19 H 0.16950 0.18230 1.04810
H20 H 0.32860 0.16680 0.98590
C20 C 0.2298(4) 0.7163(3) 0.6572(3)
H21 H 0.20240 0.70590 0.73770
H22 H 0.15170 0.79080 0.62490
H23 H 0.32060 0.73310 0.64260
C21? C 0.135(3) 0.343(2) 0.9346(16)
C22? C 0.176(5) 0.198(2) 0.964(3)
H24? H 0.02870 0.38510 0.92830
H25? H 0.15540 0.38410 0.99350
H26? H 0.15640 0.15760 0.90520
H27? H 0.11750 0.18440 1.03440
H28? H 0.27970 0.15750 0.97310
#END
