
#######################################################################
#
#                 Cambridge Crystallographic Data Centre
#                                CCDC
#
#######################################################################
#
# If this CIF has been generated from an entry in the Cambridge
# Structural Database, then it will include bibliographic, chemical,
# crystal, experimental, refinement or atomic coordinate data resulting
# from the CCDC's data processing and validation procedures.
#
#######################################################################

data_CSD_CIF_UZUBAU
_audit_creation_date 2016-11-08
_audit_creation_method CSD-ConQuest-V1
_database_code_CSD UZUBAU
_database_code_depnum_ccdc_archive 'CCDC 942802'
_chemical_formula_sum 'C10 H8 N4 O3'
_chemical_formula_moiety
;
C10 H8 N4 O3
;
_journal_coden_Cambridge 1078
_journal_year 2016
_journal_name_full 'CSD Communication(Private Communication) '
loop_
_publ_author_name
"D.Jakubiec"
"A.Brzeczek"
"K.K.Walczak"
"N.Kuznik"
_chemical_name_systematic
;
3-(1,3-dimethyl-2,4-dioxo-1,2,3,4-tetrahydropyrimidin-5-yl)-1,2-oxazole-5-carb
onitrile
;
_chemical_name_common
;
3-(1,3-dimethyl-2,4-dioxo-1,2,3,4-tetrahydropyrimidin-5-yl)isoxazole-5-carboni
trile
;
_chemical_melting_point 460.15
_cell_volume   2069.826
_exptl_crystal_colour 'white'
_exptl_crystal_density_diffrn 1.497
_exptl_special_details
;
Melting point range 460.15-462.15K

;
_exptl_crystal_description 'prism'
_diffrn_ambient_temperature 293
#These two values have been output from a single CSD field.
_refine_ls_R_factor_gt 0.0432
_refine_ls_wR_factor_gt 0.0432
_symmetry_cell_setting orthorhombic
_symmetry_space_group_name_H-M 'P n a 21'
_symmetry_Int_Tables_number 33
loop_
_symmetry_equiv_pos_site_id
_symmetry_equiv_pos_as_xyz
1 x,y,z
2 -x,-y,1/2+z
3 1/2+x,1/2-y,z
4 1/2-x,1/2+y,1/2+z
_cell_length_a 16.199(3)
_cell_length_b 9.5597(19)
_cell_length_c 13.366(3)
_cell_angle_alpha 90
_cell_angle_beta 90
_cell_angle_gamma 90
_cell_formula_units_Z 8
loop_
_atom_type_symbol
_atom_type_radius_bond
C 0.68
H 0.23
N 0.68
O 0.68
loop_
_atom_site_label
_atom_site_type_symbol
_atom_site_fract_x
_atom_site_fract_y
_atom_site_fract_z
O1 O 0.12712(14) 0.2286(2) 0.7505(2)
O2 O -0.13558(14) 0.0857(2) 0.8084(2)
C1 C -0.05101(17) 0.4206(3) 0.8176(2)
H1 H -0.06900 0.51130 0.83000
C2 C 0.08686(18) 0.5183(3) 0.7971(2)
N1 N -0.00294(15) 0.1565(2) 0.7839(2)
O3 O 0.12912(15) 0.7325(2) 0.8117(2)
C3 C -0.08517(19) 0.1791(3) 0.8045(2)
N2 N 0.06099(17) 0.6443(3) 0.8182(3)
C4 C 0.02965(16) 0.4010(3) 0.7978(2)
N3 N -0.10705(14) 0.3169(3) 0.82048(18)
C5 C 0.17315(17) 0.5183(3) 0.7775(2)
H2 H 0.20690 0.44270 0.76190
C6 C 0.19430(18) 0.6536(3) 0.7869(2)
C7 C 0.05802(18) 0.2608(3) 0.7749(2)
C8 C 0.0211(2) 0.0112(4) 0.7645(4)
H3 H -0.02590 -0.04870 0.77280
H4 H 0.06360 -0.01590 0.81070
H5 H 0.04150 0.00320 0.69730
N4 N 0.3307(2) 0.7864(4) 0.7697(3)
C9 C -0.19469(18) 0.3462(4) 0.8398(3)
H6 H -0.20220 0.44500 0.84900
H7 H -0.21190 0.29770 0.89910
H8 H -0.22720 0.31520 0.78400
C10 C 0.2705(2) 0.7259(3) 0.7771(3)
O4 O 0.64071(14) 0.0861(2) 0.5237(2)
O5 O 0.90379(13) 0.2279(2) 0.5823(2)
N5 N 0.77300(14) 0.1574(2) 0.55008(19)
C11 C 0.72386(17) 0.4234(3) 0.5237(2)
H9 H 0.70540 0.51450 0.51360
C12 C 0.83341(17) 0.2614(3) 0.5607(2)
C13 C 0.86289(19) 0.5198(3) 0.54588(19)
N6 N 0.83734(18) 0.6452(3) 0.5230(3)
N7 N 0.66879(15) 0.3182(3) 0.5173(2)
C14 C 0.80453(16) 0.4028(3) 0.5440(2)
O6 O 0.90595(16) 0.7332(2) 0.5303(2)
C15 C 0.94869(17) 0.5190(3) 0.5653(2)
H10 H 0.98190 0.44280 0.58110
C16 C 0.69102(18) 0.1796(3) 0.5302(2)
C17 C 0.97104(18) 0.6533(3) 0.5559(2)
C18 C 0.58161(17) 0.3463(4) 0.4964(3)
H11 H 0.57340 0.44520 0.48910
H12 H 0.54840 0.31230 0.55070
H13 H 0.56580 0.29980 0.43570
C19 C 0.8023(2) 0.0112(3) 0.5592(3)
H14 H 0.75660 -0.05160 0.55100
H15 H 0.82650 -0.00240 0.62410
H16 H 0.84290 -0.00700 0.50850
C20 C 1.0484(2) 0.7232(3) 0.5645(3)
N8 N 1.1091(2) 0.7815(3) 0.5697(3)
#END
