
#######################################################################
#
#                 Cambridge Crystallographic Data Centre
#                                CCDC
#
#######################################################################
#
# If this CIF has been generated from an entry in the Cambridge
# Structural Database, then it will include bibliographic, chemical,
# crystal, experimental, refinement or atomic coordinate data resulting
# from the CCDC's data processing and validation procedures.
#
#######################################################################

data_CSD_CIF_VABJUD
_audit_creation_date 1989-07-11
_audit_creation_method CSD-ConQuest-V1
_database_code_CSD VABJUD
_chemical_formula_sum 'C3 H4 N8 O4'
_chemical_formula_moiety
;
C3 H4 N8 O4
;
_journal_coden_Cambridge 35
_journal_volume 53
_journal_year 1988
_journal_page_first 5371
_journal_name_full 'J.Org.Chem. '
loop_
_publ_author_name
"R.L.Willer"
"R.A.Henry"
_chemical_name_systematic
;
5,8-Dinitro-5,6,7,8-tetrahydrotetrazolo(1,5-b)triazine
;
_chemical_melting_point 375.15
_cell_volume    805.740
_exptl_special_details
;
Melts with decomposition.

;
_diffrn_ambient_temperature ?
_diffrn_special_details
;
The study was carried out at room temperature,in the range 283-303K

;
#These two values have been output from a single CSD field.
_refine_ls_R_factor_gt 0.041
_refine_ls_wR_factor_gt 0.041
_symmetry_cell_setting monoclinic
_symmetry_space_group_name_H-M 'P 21/c'
_symmetry_Int_Tables_number 14
loop_
_symmetry_equiv_pos_site_id
_symmetry_equiv_pos_as_xyz
1 x,y,z
2 -x,1/2+y,1/2-z
3 -x,-y,-z
4 x,-1/2-y,-1/2+z
_cell_length_a 9.160(3)
_cell_length_b 6.911(3)
_cell_length_c 12.728
_cell_angle_alpha 90
_cell_angle_beta 90.15(2)
_cell_angle_gamma 90
_cell_formula_units_Z 4
loop_
_atom_type_symbol
_atom_type_radius_bond
C 0.68
N 0.68
O 0.68
loop_
_atom_site_label
_atom_site_type_symbol
_atom_site_fract_x
_atom_site_fract_y
_atom_site_fract_z
N1 N 0.8246(3) 0.1118(4) 0.6388(2)
N2 N 0.9313(3) -0.0281(4) 0.6305(2)
N3 N 0.9575(3) -0.1113(4) 0.7188(2)
N4 N 0.8637(2) -0.0298(3) 0.7879(2)
N5 N 0.8614(2) -0.0752(3) 0.8927(2)
N6 N 0.7583(3) -0.2399(4) 0.9092(3)
N7 N 0.6906(2) 0.2172(3) 0.7956(2)
N8 N 0.5808(3) 0.3206(3) 0.7461(2)
O1 O 0.7431(3) -0.3467(4) 0.8352(2)
O2 O 0.7100(3) -0.2536(4) 0.9960(2)
O3 O 0.5902(2) 0.3452(4) 0.6523(2)
O4 O 0.4850(2) 0.3806(3) 0.8034(2)
C1 C 0.7859(3) 0.1068(4) 0.7374(2)
C2 C 0.8172(3) 0.0989(4) 0.9513(2)
C3 C 0.6775(3) 0.1861(5) 0.9098(2)
#END
