
#######################################################################
#
#                 Cambridge Crystallographic Data Centre
#                                CCDC
#
#######################################################################
#
# If this CIF has been generated from an entry in the Cambridge
# Structural Database, then it will include bibliographic, chemical,
# crystal, experimental, refinement or atomic coordinate data resulting
# from the CCDC's data processing and validation procedures.
#
#######################################################################

data_CSD_CIF_VABWOK
_audit_creation_date 1989-07-11
_audit_creation_method CSD-ConQuest-V1
_database_code_CSD VABWOK
_chemical_formula_sum 'C10 H14 N4 O4'
_chemical_formula_moiety
;
C10 H14 N4 O4
;
_journal_coden_Cambridge 423
_journal_volume 282
_journal_year 1988
_journal_page_first 2157
_journal_name_full 'J.Chem.Res. '
loop_
_publ_author_name
"A.Ranise"
"F.Bondavalli"
"P.Schenone"
"F.Sancassan"
"A.Mugnoli"
_chemical_name_systematic
;
1,7,7-Trimethyl-N,N'-dinitrobicyclo(2.2.1)heptan-2,3-diimine
;
_chemical_name_common
;
Camphorquinone dinitrimine
;
_chemical_melting_point 388.15
_cell_volume   2533.437
_exptl_crystal_colour 'white'
_exptl_crystal_density_diffrn 1.333
_exptl_special_details
;
Melting point range 388.15-389.15K

;
_diffrn_ambient_temperature ?
_diffrn_special_details
;
The study was carried out at room temperature,in the range 283-303K

;
#These two values have been output from a single CSD field.
_refine_ls_R_factor_gt 0.059
_refine_ls_wR_factor_gt 0.059
_symmetry_cell_setting monoclinic
_symmetry_space_group_name_H-M 'P 21'
_symmetry_Int_Tables_number 4
loop_
_symmetry_equiv_pos_site_id
_symmetry_equiv_pos_as_xyz
1 x,y,z
2 -x,1/2+y,-z
_cell_length_a 14.616(3)
_cell_length_b 11.051(5)
_cell_length_c 16.508(3)
_cell_angle_alpha 90
_cell_angle_beta 108.17(2)
_cell_angle_gamma 90
_cell_formula_units_Z 8
loop_
_atom_type_symbol
_atom_type_radius_bond
C 0.68
H 0.23
N 0.68
O 0.68
loop_
_atom_site_label
_atom_site_type_symbol
_atom_site_fract_x
_atom_site_fract_y
_atom_site_fract_z
C1 C 0.0659(3) 0.2465(4) 0.5900(2)
C2 C 0.0592(2) 0.2804(3) 0.4992(2)
C3 C 0.1579(2) 0.3299(3) 0.5056(2)
C4 C 0.2137(2) 0.3237(4) 0.5990(2)
C5 C 0.2339(3) 0.1878(5) 0.6154(3)
C6 C 0.1342(3) 0.1361(5) 0.6096(3)
C7 C 0.1329(2) 0.3504(4) 0.6397(2)
C8 C -0.0313(3) 0.2276(5) 0.6036(3)
C9 C 0.0906(4) 0.4756(4) 0.6194(3)
C10 C 0.1672(3) 0.3332(6) 0.7351(2)
N1 N -0.0155(2) 0.2667(3) 0.4367(2)
N2 N -0.0070(2) 0.3017(3) 0.3546(2)
N3 N 0.1776(2) 0.3621(3) 0.4394(2)
N4 N 0.2770(3) 0.4036(5) 0.4596(2)
O1 O 0.0169(2) 0.2236(3) 0.3151(2)
O2 O -0.0324(3) 0.4024(3) 0.3305(2)
O3 O 0.2859(3) 0.5094(5) 0.4507(3)
O4 O 0.3389(3) 0.3266(5) 0.4786(3)
C11 C 0.0342(2) 0.4669(3) 0.0897(2)
C12 C 0.0397(2) 0.4566(3) 0.0005(2)
C13 C 0.1371(2) 0.4036(3) 0.0099(2)
C14 C 0.1795(2) 0.3804(3) 0.1033(2)
C15 C 0.1185(3) 0.2743(4) 0.1213(2)
C16 C 0.0217(3) 0.3330(4) 0.1135(2)
C17 C 0.1420(3) 0.4919(4) 0.1404(2)
C18 C -0.0415(3) 0.5536(5) 0.1014(3)
C19 C 0.1787(4) 0.6118(4) 0.1160(3)
C20 C 0.1648(3) 0.4854(5) 0.2380(2)
N5 N -0.0290(2) 0.4868(3) -0.0656(2)
N6 N -0.0132(2) 0.4628(3) -0.1464(2)
N7 N 0.1665(2) 0.3918(3) -0.0537(2)
N8 N 0.2629(3) 0.3449(5) -0.0341(2)
O5 O -0.0369(2) 0.3635(3) -0.1766(2)
O6 O 0.0120(2) 0.5477(3) -0.1790(2)
O7 O 0.3267(3) 0.4171(5) -0.0058(3)
O8 O 0.2706(3) 0.2414(5) -0.0537(3)
C21 C 0.7048(2) 0.4437(4) 0.6491(2)
C22 C 0.6971(2) 0.4487(3) 0.7380(2)
C23 C 0.6023(2) 0.3888(4) 0.7322(2)
C24 C 0.5631(3) 0.3476(4) 0.6417(2)
C25 C 0.6302(3) 0.2428(5) 0.6332(3)
C26 C 0.7255(3) 0.3080(4) 0.6385(3)
C27 C 0.5949(3) 0.4551(4) 0.5960(2)
C28 C 0.7765(3) 0.5304(6) 0.6322(3)
C29 C 0.5494(4) 0.5755(5) 0.6098(4)
C30 C 0.5760(3) 0.4319(7) 0.5008(3)
N9 N 0.7611(2) 0.4935(3) 0.8001(2)
N10 N 0.7450(2) 0.4844(4) 0.8829(2)
N11 N 0.5734(2) 0.3829(4) 0.7964(2)
N12 N 0.4787(3) 0.3290(7) 0.7775(3)
O9 O 0.7710(2) 0.3915(4) 0.9218(2)
O10 O 0.7150(3) 0.5729(4) 0.9063(2)
O11 O 0.4114(3) 0.3950(8) 0.7548(3)
O12 O 0.4759(5) 0.2250(8) 0.7896(5)
C31 C 0.6788(3) 0.2564(4) 0.1481(2)
C32 C 0.6804(2) 0.2743(4) 0.2384(2)
C33 C 0.5825(2) 0.3199(4) 0.2338(2)
C34 C 0.5292(3) 0.3247(5) 0.1397(2)
C35 C 0.5111(4) 0.1933(6) 0.1118(3)
C36 C 0.6116(4) 0.1463(6) 0.1171(4)
C37 C 0.6123(3) 0.3639(5) 0.1052(3)
C38 C 0.7755(3) 0.2451(7) 0.1346(3)
C39 C 0.6532(5) 0.4861(6) 0.1357(4)
C40 C 0.5780(4) 0.3597(8) 0.0060(3)
N13 N 0.7556(2) 0.2537(4) 0.3028(2)
N14 N 0.7445(2) 0.2778(5) 0.3851(2)
N15 N 0.5582(2) 0.3435(4) 0.2989(2)
N16 N 0.4602(3) 0.3875(6) 0.2787(3)
O13 O 0.7232(3) 0.1913(4) 0.4193(2)
O14 O 0.7669(3) 0.3757(4) 0.4152(2)
O15 O 0.4543(4) 0.4929(6) 0.2851(4)
O16 O 0.3985(3) 0.3146(6) 0.2619(3)
H1 H 0.27300 0.37600 0.61900
H2 H 0.28100 0.17300 0.67300
H3 H 0.25900 0.15100 0.57100
H4 H 0.11300 0.07500 0.56300
H5 H 0.13500 0.09800 0.66500
H6 H -0.02700 0.20900 0.66400
H7 H -0.06300 0.15900 0.56600
H8 H -0.07000 0.30300 0.58500
H9 H 0.06300 0.49000 0.55700
H10 H 0.14100 0.53800 0.64500
H11 H 0.03800 0.48200 0.64600
H12 H 0.19100 0.24800 0.74800
H13 H 0.11100 0.34700 0.75700
H14 H 0.22000 0.39100 0.76400
H15 H 0.25100 0.36500 0.12400
H16 H 0.14900 0.24100 0.18000
H17 H 0.11100 0.20800 0.07800
H18 H -0.03100 0.29300 0.06800
H19 H 0.00700 0.32800 0.16900
H20 H -0.04200 0.54400 0.16200
H21 H -0.10600 0.53200 0.06100
H22 H -0.02600 0.63900 0.09200
H23 H 0.16900 0.61800 0.05300
H24 H 0.24900 0.61700 0.14800
H25 H 0.14400 0.68000 0.13400
H26 H 0.14500 0.40600 0.25600
H27 H 0.12900 0.55200 0.25500
H28 H 0.23600 0.49700 0.26600
H29 H 0.49300 0.32500 0.62200
H30 H 0.60300 0.20000 0.57700
H31 H 0.64000 0.18300 0.68100
H32 H 0.77900 0.27800 0.68900
H33 H 0.74300 0.29500 0.58500
H34 H 0.77600 0.52400 0.57200
H35 H 0.84100 0.50500 0.67100
H36 H 0.76300 0.61600 0.64500
H37 H 0.56400 0.59000 0.67200
H38 H 0.47800 0.56900 0.58300
H39 H 0.57500 0.64400 0.58400
H40 H 0.60400 0.35100 0.49600
H41 H 0.61200 0.49600 0.48000
H42 H 0.50700 0.43300 0.46600
H43 H 0.46900 0.37500 0.12300
H44 H 0.48400 0.14700 0.15100
H45 H 0.46600 0.18700 0.05200
H46 H 0.63100 0.07800 0.15900
H47 H 0.61300 0.11900 0.06000
H48 H 0.76600 0.23700 0.07200
H49 H 0.81200 0.17300 0.16500
H50 H 0.81300 0.32100 0.15600
H51 H 0.67900 0.48800 0.19900
H52 H 0.60200 0.54900 0.11500
H53 H 0.70700 0.50200 0.11200
H54 H 0.55100 0.27700 -0.01200
H55 H 0.63300 0.37600 -0.01600
H56 H 0.52700 0.42200 -0.01700
#END
