
#######################################################################
#
#                 Cambridge Crystallographic Data Centre
#                                CCDC
#
#######################################################################
#
# If this CIF has been generated from an entry in the Cambridge
# Structural Database, then it will include bibliographic, chemical,
# crystal, experimental, refinement or atomic coordinate data resulting
# from the CCDC's data processing and validation procedures.
#
#######################################################################

data_CSD_CIF_VABXED
_audit_creation_date 2010-12-14
_audit_creation_method CSD-ConQuest-V1
_database_code_CSD VABXED
_database_code_depnum_ccdc_archive 'CCDC 799691'
_chemical_formula_sum 'C20 H21 N3 O4'
_chemical_formula_moiety
;
C20 H21 N3 O4
;
_journal_coeditor_code "IUCr BT5370"
_journal_coden_Cambridge 1370
_journal_volume 66
_journal_year 2010
_journal_page_first o2935
_journal_name_full 'Acta Crystallogr.,Sect.E:Struct.Rep.Online '
loop_
_publ_author_name
"R.Gangadharan"
"K.SethuSankar"
"M.Bakthadoss"
"N.Sivakumar"
"D.Velmurugan"
_chemical_name_systematic
;
3'-Hydroxymethyl-1'-methyl-3'-nitro-4'-(o-tolyl)spiro[indoline-3,2'-pyrrolidin
]-2-one
;
_cell_volume   1815.065
_exptl_crystal_colour 'black'
_exptl_crystal_density_diffrn 1.345
_exptl_crystal_description 'block'
_diffrn_ambient_temperature 293
#These two values have been output from a single CSD field.
_refine_ls_R_factor_gt 0.0454
_refine_ls_wR_factor_gt 0.0454
_symmetry_cell_setting triclinic
_symmetry_space_group_name_H-M 'P -1'
_symmetry_Int_Tables_number 2
loop_
_symmetry_equiv_pos_site_id
_symmetry_equiv_pos_as_xyz
1 x,y,z
2 -x,-y,-z
_cell_length_a 10.8757(18)
_cell_length_b 13.625(2)
_cell_length_c 13.656(2)
_cell_angle_alpha 66.116(8)
_cell_angle_beta 83.715(8)
_cell_angle_gamma 78.991(9)
_cell_formula_units_Z 4
loop_
_atom_type_symbol
_atom_type_radius_bond
C 0.68
H 0.23
N 0.68
O 0.68
loop_
_atom_site_label
_atom_site_type_symbol
_atom_site_fract_x
_atom_site_fract_y
_atom_site_fract_z
C1 C 0.9263(2) 0.78067(16) 0.12135(15)
H1 H 0.86160 0.77280 0.08720
C2 C 1.0088(2) 0.84968(17) 0.06218(15)
H2 H 1.00020 0.88720 -0.01130
C3 C 1.1032(2) 0.86301(17) 0.11143(15)
H3 H 1.15880 0.91000 0.07150
C4 C 1.11632(19) 0.80676(14) 0.22033(13)
H4 H 1.18080 0.81650 0.25330
C5 C 1.03477(15) 0.73560(12) 0.28191(11)
C6 C 0.93751(16) 0.72207(13) 0.23161(13)
C7 C 0.84219(18) 0.65016(16) 0.29240(15)
H5 H 0.88440 0.57800 0.33230
H6 H 0.78770 0.64780 0.24290
H7 H 0.79370 0.67880 0.34080
C8 C 1.04939(14) 0.67486(11) 0.40162(11)
H8 H 1.01780 0.60630 0.42200
C9 C 1.18353(15) 0.64548(13) 0.43989(12)
H9 H 1.22550 0.57840 0.43410
H10 H 1.23170 0.70310 0.39880
C10 C 1.28322(17) 0.61668(16) 0.60404(15)
H11 H 1.32310 0.67990 0.56900
H12 H 1.33810 0.55420 0.59980
H13 H 1.26500 0.60540 0.67790
C11 C 1.07282(14) 0.72425(10) 0.55415(11)
C12 C 0.97488(13) 0.73354(10) 0.47288(10)
C13 C 0.90941(15) 0.84833(11) 0.40830(11)
H14 H 0.96470 0.88350 0.34870
H15 H 0.83490 0.84330 0.37870
C14 C 1.12455(15) 0.83425(12) 0.51371(12)
C15 C 1.05989(15) 0.79408(12) 0.68790(12)
C16 C 1.03173(14) 0.70849(11) 0.66827(11)
C17 C 0.98993(15) 0.62187(12) 0.75116(12)
H16 H 0.97360 0.56300 0.73950
C18 C 0.97263(17) 0.62392(14) 0.85264(12)
H17 H 0.94420 0.56590 0.90930
C19 C 0.99680(18) 0.71000(16) 0.87043(13)
H18 H 0.98350 0.71000 0.93890
C20 C 1.04078(18) 0.79743(16) 0.78823(14)
H19 H 1.05680 0.85620 0.80030
N1 N 0.87235(12) 0.66862(9) 0.53968(9)
N2 N 1.16682(12) 0.63274(9) 0.55149(10)
N3 N 1.11411(14) 0.86594(11) 0.59629(10)
H20 H 1.13820 0.92390 0.59280
O1 O 0.89335(12) 0.57011(8) 0.57472(9)
O2 O 0.77393(11) 0.72006(9) 0.55803(10)
O3 O 0.87436(11) 0.91441(8) 0.46729(8)
H21 H 0.81820 0.89120 0.51120
O4 O 1.16951(12) 0.88053(9) 0.42497(9)
C21 C 0.2916(2) 0.53247(16) 0.0557(2)
H22 H 0.23970 0.58770 0.00490
C22 C 0.3238(3) 0.54936(18) 0.1412(2)
H23 H 0.29220 0.61430 0.14900
C23 C 0.4028(3) 0.46985(19) 0.2153(2)
H24 H 0.42630 0.48090 0.27310
C24 C 0.4473(2) 0.37329(16) 0.20326(17)
H25 H 0.50220 0.32020 0.25280
C25 C 0.41187(17) 0.35323(13) 0.11889(13)
C26 C 0.33357(18) 0.43623(15) 0.04218(15)
C27 C 0.2939(2) 0.42400(18) -0.05373(17)
H26 H 0.23900 0.48860 -0.09510
H27 H 0.25090 0.36260 -0.03030
H28 H 0.36660 0.41300 -0.09710
C28 C 0.45817(16) 0.24525(13) 0.10977(12)
H29 H 0.44040 0.25560 0.03710
C29 C 0.59902(17) 0.20421(14) 0.12277(14)
H30 H 0.64580 0.23890 0.05670
H31 H 0.62940 0.21750 0.17980
C30 C 0.73427(17) 0.02658(16) 0.17691(16)
H32 H 0.75920 0.03090 0.24020
H33 H 0.79240 0.05600 0.11860
H34 H 0.73370 -0.04810 0.19000
C31 C 0.51057(15) 0.05040(12) 0.23065(11)
C32 C 0.39654(15) 0.14565(12) 0.18795(12)
C33 C 0.30840(17) 0.16622(13) 0.27485(13)
H35 H 0.34050 0.21610 0.29620
H36 H 0.22710 0.20170 0.24460
C34 C 0.54213(17) 0.03808(14) 0.34425(12)
C35 C 0.52243(17) -0.13051(14) 0.35819(15)
C36 C 0.49706(16) -0.06504(13) 0.25191(14)
C37 C 0.47687(19) -0.11189(17) 0.18355(19)
H37 H 0.46340 -0.06960 0.11140
C38 C 0.4771(2) -0.2231(2) 0.2245(3)
H38 H 0.46220 -0.25530 0.17940
C39 C 0.4988(2) -0.28621(19) 0.3300(3)
H39 H 0.49700 -0.36050 0.35580
C40 C 0.5232(2) -0.24172(17) 0.3991(2)
H40 H 0.53960 -0.28490 0.47060
N4 N 0.31886(15) 0.10989(13) 0.12409(13)
N5 N 0.55111(16) -0.06837(12) 0.40917(11)
H41 H 0.57230 -0.09470 0.47490
N6 N 0.60896(12) 0.08871(11) 0.14952(10)
O5 O 0.23358(14) 0.06078(13) 0.17280(14)
O6 O 0.34711(16) 0.12759(14) 0.03015(11)
O7 O 0.29185(12) 0.07180(9) 0.36754(9)
H42 H 0.25180 0.03470 0.35280
O8 O 0.55874(14) 0.11090(11) 0.36834(9)
#END
