
#######################################################################
#
#                 Cambridge Crystallographic Data Centre
#                                CCDC
#
#######################################################################
#
# If this CIF has been generated from an entry in the Cambridge
# Structural Database, then it will include bibliographic, chemical,
# crystal, experimental, refinement or atomic coordinate data resulting
# from the CCDC's data processing and validation procedures.
#
#######################################################################

data_CSD_CIF_VABXEB
_audit_creation_date 1989-07-10
_audit_creation_method CSD-ConQuest-V1
_database_code_CSD VABXEB
_database_code_depnum_ccdc_archive 'CCDC 1278678'
_chemical_formula_sum 'C15 H17 N1 O2'
_chemical_formula_moiety
;
C15 H17 N1 O2
;
_journal_coden_Cambridge 34
_journal_volume 25
_journal_year 1988
_journal_page_first 1067
_journal_name_full 'J.Heterocycl.Chem. '
loop_
_publ_author_name
"B.E.Marron"
"L.Schlicksupp"
"N.R.Natale"
_chemical_name_systematic
;
4-(2-Formyl-2-phenylpropyl)-3,5-dimethylisoxazole
;
_chemical_melting_point 373.15
_cell_volume   1312.404
_exptl_crystal_density_diffrn 1.23
_exptl_special_details
;
Melting point range 373.15-375.15K
x(O1) should be -0.0056 not 0.0056

;
_diffrn_ambient_temperature ?
_diffrn_special_details
;
The study was carried out at room temperature,in the range 283-303K

;
#These two values have been output from a single CSD field.
_refine_ls_R_factor_gt 0.041
_refine_ls_wR_factor_gt 0.041
_symmetry_cell_setting monoclinic
_symmetry_space_group_name_H-M 'P 21/n'
_symmetry_Int_Tables_number 14
loop_
_symmetry_equiv_pos_site_id
_symmetry_equiv_pos_as_xyz
1 x,y,z
2 1/2-x,1/2+y,1/2-z
3 -x,-y,-z
4 -1/2+x,-1/2-y,-1/2+z
_cell_length_a 10.715(1)
_cell_length_b 11.277(3)
_cell_length_c 10.909(2)
_cell_angle_alpha 90
_cell_angle_beta 95.36(1)
_cell_angle_gamma 90
_cell_formula_units_Z 4
loop_
_atom_type_symbol
_atom_type_radius_bond
C 0.68
H 0.23
N 0.68
O 0.68
loop_
_atom_site_label
_atom_site_type_symbol
_atom_site_fract_x
_atom_site_fract_y
_atom_site_fract_z
C1 C 0.3160(2) 0.7675(2) 0.0640(2)
O1 O -0.0056(2) 0.5241(1) -0.1734(2)
N1 N 0.1129(2) 0.5190(2) -0.2195(2)
C2 C 0.0952(2) 0.6939(2) -0.1250(2)
C3 C 0.1702(2) 0.6202(2) -0.1891(2)
C4 C -0.1325(2) 0.6573(2) -0.0644(2)
C5 C 0.3352(2) 0.6575(2) 0.1200(2)
O2 O 0.1738(2) 1.0408(1) 0.0240(2)
C6 C 0.4507(2) 0.6035(2) 0.1260(2)
C7 C -0.0137(2) 0.6291(2) -0.1181(2)
C8 C 0.2107(2) 0.9580(2) 0.0837(2)
C9 C 0.1240(2) 0.8176(2) -0.0806(2)
C10 C 0.1880(2) 0.8287(2) 0.0520(2)
C11 C 0.5495(2) 0.6572(2) 0.0793(2)
C12 C 0.4175(2) 0.8213(2) 0.0161(2)
C13 C 0.1008(2) 0.7840(2) 0.1455(2)
C14 C 0.2968(2) 0.6399(2) -0.2307(2)
C15 C 0.5339(2) 0.7663(2) 0.0243(2)
H1 H -0.11950 0.65220 0.02370
H2 H -0.19610 0.60190 -0.09440
H3 H -0.15860 0.73620 -0.08770
H4 H 0.26710 0.61880 0.15510
H5 H 0.46170 0.52680 0.16360
H6 H 0.26000 0.97460 0.15980
H7 H 0.17830 0.85320 -0.13540
H8 H 0.04640 0.86080 -0.08450
H9 H 0.62980 0.61890 0.08470
H10 H 0.40710 0.89730 -0.02300
H11 H 0.07970 0.70260 0.12850
H12 H 0.02570 0.83090 0.13940
H13 H 0.14220 0.79060 0.22710
H14 H 0.30280 0.71970 -0.26000
H15 H 0.31000 0.58540 -0.29590
H16 H 0.35920 0.62710 -0.16300
H17 H 0.60360 0.80460 -0.00860
#END
