
#######################################################################
#
#                 Cambridge Crystallographic Data Centre
#                                CCDC
#
#######################################################################
#
# If this CIF has been generated from an entry in the Cambridge
# Structural Database, then it will include bibliographic, chemical,
# crystal, experimental, refinement or atomic coordinate data resulting
# from the CCDC's data processing and validation procedures.
#
#######################################################################

data_CSD_CIF_VABZED
_audit_creation_date 1989-07-19
_audit_creation_method CSD-ConQuest-V1
_database_code_CSD VABZED
_database_code_depnum_ccdc_archive 'CCDC 1278690'
_chemical_formula_sum 'C13 H15 N1 O3'
_chemical_formula_moiety
;
C13 H15 N1 O3
;
_journal_coden_Cambridge 423
_journal_volume 328
_journal_year 1988
_journal_page_first 2548
_journal_name_full 'J.Chem.Res. '
loop_
_publ_author_name
"A.J.Blake"
"I.M.Dawson"
"A.C.Forsyth"
"T.Johnson"
"R.M.Paton"
"R.A.C.Rennie"
"P.Taylor"
_chemical_name_systematic
;
2-Methoxy-9-phenyl-3,7-dioxa-8-azabicyclo(4.3.0)non-8-ene
;
_chemical_name_common
;
4-Methoxy-3-phenyltetrahydropyrano(3,4-d)isoxazole
;
_chemical_melting_point 329.15
_cell_volume   1191.744
_exptl_crystal_colour 'white'
_exptl_crystal_density_diffrn 1.3
_diffrn_ambient_temperature ?
_diffrn_special_details
;
The study was carried out at room temperature,in the range 283-303K

;
#These two values have been output from a single CSD field.
_refine_ls_R_factor_gt 0.0407
_refine_ls_wR_factor_gt 0.0407
_symmetry_cell_setting orthorhombic
_symmetry_space_group_name_H-M 'P n a 21'
_symmetry_Int_Tables_number 33
loop_
_symmetry_equiv_pos_site_id
_symmetry_equiv_pos_as_xyz
1 x,y,z
2 1/2-x,1/2+y,1/2+z
3 1/2+x,1/2-y,z
4 -x,-y,1/2+z
_cell_length_a 28.208(16)
_cell_length_b 8.448(4)
_cell_length_c 5.001(3)
_cell_angle_alpha 90
_cell_angle_beta 90
_cell_angle_gamma 90
_cell_formula_units_Z 4
loop_
_atom_type_symbol
_atom_type_radius_bond
C 0.68
H 0.23
N 0.68
O 0.68
loop_
_atom_site_label
_atom_site_type_symbol
_atom_site_fract_x
_atom_site_fract_y
_atom_site_fract_z
C1 C 0.3233(1) 0.4089(3) 0.3782(10)
C2 C 0.2715(1) 0.3699(3) 0.4214(11)
C3 C 0.2586(1) 0.2103(3) 0.3020(12)
O1 O 0.29110 0.0933(2) 0.39300
C4 C 0.33650 0.1207(3) 0.2844(10)
C5 C 0.35840 0.2732(3) 0.395(1)
C6 C 0.39530 0.3369(3) 0.2092(9)
N1 N 0.37920 0.4406(3) 0.0458(9)
O2 O 0.33060 0.4675(2) 0.1079(9)
O3 O 0.36590 -0.0041(2) 0.3527(9)
C7 C 0.3535(1) -0.1489(3) 0.2196(16)
C8 C 0.44600 0.2909(3) 0.1961(9)
C9 C 0.4646(1) 0.1855(3) 0.3806(10)
C10 C 0.5124(1) 0.1479(4) 0.3739(12)
C11 C 0.5421(1) 0.2154(4) 0.1826(11)
C12 C 0.5233(1) 0.3197(4) -0.0015(11)
C13 C 0.4756(1) 0.3578(3) 0.0049(10)
H1 H 0.33000 0.49120 0.53900
H2 H 0.26440 0.36740 0.63350
H3 H 0.25020 0.46040 0.32820
H4 H 0.26020 0.21760 0.08660
H5 H 0.22320 0.17830 0.36320
H6 H 0.33290 0.13140 0.07020
H7 H 0.37060 0.24230 0.59300
H8 H 0.37760 -0.24150 0.28040
H9 H 0.35590 -0.13240 0.00590
H10 H 0.31770 -0.18170 0.27230
H11 H 0.44190 0.13250 0.52940
H12 H 0.52680 0.06580 0.51820
H13 H 0.57940 0.18640 0.17850
H14 H 0.54610 0.37190 -0.15150
H15 H 0.46140 0.43990 -0.13960
#END
