
#######################################################################
#
#                 Cambridge Crystallographic Data Centre
#                                CCDC
#
#######################################################################
#
# If this CIF has been generated from an entry in the Cambridge
# Structural Database, then it will include bibliographic, chemical,
# crystal, experimental, refinement or atomic coordinate data resulting
# from the CCDC's data processing and validation procedures.
#
#######################################################################

data_CSD_CIF_VACKAN
_audit_creation_date 2010-11-24
_audit_creation_method CSD-ConQuest-V1
_database_code_CSD VACKAN
_database_code_depnum_ccdc_archive 'CCDC 757708'
_chemical_formula_sum 'C20 H24 N2 O6'
_chemical_formula_moiety
;
C20 H24 N2 O6
;
_journal_coeditor_code "IUCr XU5040"
_journal_coden_Cambridge 1370
_journal_volume 66
_journal_year 2010
_journal_page_first o2831
_journal_name_full 'Acta Crystallogr.,Sect.E:Struct.Rep.Online '
loop_
_publ_author_name
"Yin-Xia Sun"
"Xiu-Yan Dong"
"Hu Zhao"
_chemical_name_systematic
;
4,4'-Dimethoxy-2,2'-[(butane-1,4-diyldioxy)bis(nitrilomethylidyne)]diphenol
;
_chemical_name_common
;
2,2'-(3,8-Dioxa-2,9-diazadeca-1,9-diene-1,10-diyl)bis(4-methoxyphenol)
;
_chemical_melting_point 398
_cell_volume    994.503
_exptl_crystal_colour 'pale yellow'
_exptl_crystal_density_diffrn 1.297
_exptl_special_details
;
Melting point range 398-399K

;
_exptl_crystal_description 'needle'
_diffrn_ambient_temperature 298
#These two values have been output from a single CSD field.
_refine_ls_R_factor_gt 0.0499
_refine_ls_wR_factor_gt 0.0499
_symmetry_cell_setting monoclinic
_symmetry_space_group_name_H-M 'P 21/c'
_symmetry_Int_Tables_number 14
loop_
_symmetry_equiv_pos_site_id
_symmetry_equiv_pos_as_xyz
1 x,y,z
2 -x,1/2+y,1/2-z
3 -x,-y,-z
4 x,-1/2-y,-1/2+z
_cell_length_a 4.7310(4)
_cell_length_b 17.1418(16)
_cell_length_c 12.2648(12)
_cell_angle_alpha 90
_cell_angle_beta 90.981(1)
_cell_angle_gamma 90
_cell_formula_units_Z 2
loop_
_atom_type_symbol
_atom_type_radius_bond
C 0.68
H 0.23
N 0.68
O 0.68
loop_
_atom_site_label
_atom_site_type_symbol
_atom_site_fract_x
_atom_site_fract_y
_atom_site_fract_z
N1 N 0.4274(5) 0.32971(13) 0.62366(17)
O1 O 0.2476(4) 0.37363(10) 0.55503(13)
O2 O 0.6869(5) 0.27865(12) 0.80239(14)
H1 H 0.57440 0.30540 0.76720
O3 O 1.2686(5) 0.07207(12) 0.54439(19)
C1 C 0.1003(7) 0.43013(16) 0.6187(2)
H2 H 0.23360 0.46420 0.65620
H3 H -0.01470 0.40430 0.67260
C2 C -0.0830(7) 0.47634(15) 0.5412(2)
H4 H -0.19980 0.51160 0.58290
H5 H -0.20800 0.44080 0.50210
C3 C 0.5649(7) 0.27896(16) 0.5696(2)
H6 H 0.53410 0.27520 0.49470
C4 C 0.7676(6) 0.22699(15) 0.6220(2)
C5 C 0.8222(7) 0.22862(17) 0.7338(2)
C6 C 1.0185(8) 0.17800(19) 0.7794(2)
H7 H 1.05210 0.17810 0.85440
C7 C 1.1646(8) 0.12723(18) 0.7136(3)
H8 H 1.29990 0.09420 0.74440
C8 C 1.1118(7) 0.12492(17) 0.6016(2)
C9 C 0.9145(6) 0.17495(16) 0.5571(2)
H9 H 0.87870 0.17400 0.48230
C10 C 1.2332(8) 0.07222(19) 0.4288(3)
H10 H 1.04140 0.05890 0.40990
H11 H 1.35880 0.03470 0.39750
H12 H 1.27570 0.12320 0.40100
N1B N -0.4274(5) 0.67029(13) 0.37634(17)
O1B O -0.2476(4) 0.62637(10) 0.44497(13)
O2B O -0.6869(5) 0.72135(12) 0.19761(14)
H1B H -0.57440 0.69460 0.23280
O3B O -1.2686(5) 0.92793(12) 0.45561(19)
C1B C -0.1003(7) 0.56987(16) 0.3813(2)
H2B H -0.23360 0.53580 0.34380
H3B H 0.01470 0.59570 0.32740
C2B C 0.0830(7) 0.52366(15) 0.4588(2)
H4B H 0.19980 0.48840 0.41710
H5B H 0.20800 0.55920 0.49790
C3B C -0.5649(7) 0.72104(16) 0.4304(2)
H6B H -0.53410 0.72480 0.50530
C4B C -0.7676(6) 0.77301(15) 0.3780(2)
C5B C -0.8222(7) 0.77138(17) 0.2662(2)
C6B C -1.0185(8) 0.82200(19) 0.2206(2)
H7B H -1.05210 0.82190 0.14560
C7B C -1.1646(8) 0.87277(18) 0.2864(3)
H8B H -1.29990 0.90580 0.25560
C8B C -1.1118(7) 0.87508(17) 0.3984(2)
C9B C -0.9145(6) 0.82505(16) 0.4429(2)
H9B H -0.87870 0.82600 0.51770
C10B C -1.2332(8) 0.92778(19) 0.5712(3)
H10B H -1.04140 0.94110 0.59010
H11B H -1.35880 0.96530 0.60250
H12B H -1.27570 0.87680 0.59900
#END
