
#######################################################################
#
#                 Cambridge Crystallographic Data Centre
#                                CCDC
#
#######################################################################
#
# If this CIF has been generated from an entry in the Cambridge
# Structural Database, then it will include bibliographic, chemical,
# crystal, experimental, refinement or atomic coordinate data resulting
# from the CCDC's data processing and validation procedures.
#
#######################################################################

data_CSD_CIF_VACMET
_audit_creation_date 2010-11-24
_audit_creation_method CSD-ConQuest-V1
_database_code_CSD VACMET
_database_code_depnum_ccdc_archive 'CCDC 799851'
_chemical_formula_sum 'C15 H13 N1 O3'
_chemical_formula_moiety
;
C15 H13 N1 O3
;
_journal_coeditor_code "IUCr SI2304"
_journal_coden_Cambridge 1370
_journal_volume 66
_journal_year 2010
_journal_page_first o2984
_journal_name_full 'Acta Crystallogr.,Sect.E:Struct.Rep.Online '
loop_
_publ_author_name
"A.R.Kennedy"
"Z.R.Kipkorir"
"C.I.Muhanji"
"M.O.Okoth"
_chemical_name_systematic
;
Benzyl 4-(2-nitrovinyl)phenyl ether
;
_chemical_name_common
;
1-Benzyloxy-4-(2-nitroethenyl)benzene
;
_cell_volume   1890.955
_exptl_crystal_colour 'pale yellow'
_exptl_crystal_density_diffrn 1.345
_exptl_crystal_description 'cut slab'
_diffrn_ambient_temperature 120
#These two values have been output from a single CSD field.
_refine_ls_R_factor_gt 0.0877
_refine_ls_wR_factor_gt 0.0877
_symmetry_cell_setting triclinic
_symmetry_space_group_name_H-M 'P -1'
_symmetry_Int_Tables_number 2
loop_
_symmetry_equiv_pos_site_id
_symmetry_equiv_pos_as_xyz
1 x,y,z
2 -x,-y,-z
_cell_length_a 9.9522(8)
_cell_length_b 14.0456(13)
_cell_length_c 14.2506(10)
_cell_angle_alpha 74.416(5)
_cell_angle_beta 84.188(5)
_cell_angle_gamma 80.888(4)
_cell_formula_units_Z 6
loop_
_atom_type_symbol
_atom_type_radius_bond
C 0.68
H 0.23
N 0.68
O 0.68
loop_
_atom_site_label
_atom_site_type_symbol
_atom_site_fract_x
_atom_site_fract_y
_atom_site_fract_z
O1 O 0.9330(2) 0.37883(19) 0.37919(17)
O2 O 1.0417(3) -0.0863(2) 0.9274(2)
O3 O 0.8252(3) -0.0489(2) 0.9037(2)
O4 O 0.7595(2) 0.6336(2) 0.93137(18)
O5 O 0.8521(3) 1.0608(2) 0.40189(19)
O6 O 0.6349(3) 1.1069(2) 0.3947(2)
O7 O 0.4798(2) 0.3091(2) 0.71568(17)
O8 O 0.6922(3) -0.0535(2) 1.2632(2)
O9 O 0.4823(3) -0.0710(2) 1.31177(19)
N1 N 0.9451(3) -0.0400(2) 0.8780(2)
N2 N 0.7348(3) 1.0530(2) 0.4349(2)
N3 N 0.5696(3) -0.0360(2) 1.2495(2)
C1 C 0.9316(4) 0.3020(3) 0.4612(2)
C2 C 1.0458(3) 0.2566(3) 0.5139(3)
H1 H 1.13260 0.27690 0.49150
C3 C 1.0318(4) 0.1819(3) 0.5989(3)
H2 H 1.10990 0.15070 0.63430
C4 C 0.9047(4) 0.1516(3) 0.6337(3)
C5 C 0.7925(4) 0.1967(3) 0.5792(3)
H3 H 0.70560 0.17660 0.60140
C6 C 0.8055(4) 0.2702(3) 0.4936(3)
H4 H 0.72820 0.29920 0.45670
C7 C 0.8843(4) 0.0774(3) 0.7258(3)
H5 H 0.79420 0.06190 0.74380
C8 C 0.9796(4) 0.0295(3) 0.7866(3)
H6 H 1.07160 0.04080 0.77000
C9 C 1.0559(4) 0.4252(3) 0.3534(3)
H7 H 1.13050 0.37880 0.33160
H8 H 1.08460 0.44230 0.41070
C10 C 1.0263(3) 0.5182(3) 0.2724(3)
C11 C 0.9907(4) 0.5121(3) 0.1823(3)
H9 H 0.98360 0.44900 0.17230
C12 C 0.9657(4) 0.5980(3) 0.1072(3)
H10 H 0.94120 0.59290 0.04620
C13 C 0.9756(4) 0.6894(3) 0.1196(3)
H11 H 0.95800 0.74770 0.06780
C14 C 1.0117(4) 0.6963(3) 0.2085(3)
H12 H 1.02000 0.75970 0.21760
C15 C 1.0359(4) 0.6109(3) 0.2849(3)
H13 H 1.05910 0.61650 0.34600
C16 C 0.7608(4) 0.7089(3) 0.8479(2)
C17 C 0.6479(4) 0.7507(3) 0.7931(3)
H14 H 0.56140 0.72950 0.81470
C18 C 0.6632(4) 0.8231(3) 0.7073(3)
H15 H 0.58590 0.85140 0.67020
C19 C 0.7888(4) 0.8564(3) 0.6729(3)
C20 C 0.8995(4) 0.8146(3) 0.7303(3)
H16 H 0.98610 0.83580 0.70920
C21 C 0.8855(4) 0.7429(3) 0.8170(3)
H17 H 0.96170 0.71670 0.85580
C22 C 0.8072(4) 0.9304(3) 0.5808(3)
H18 H 0.89750 0.94370 0.55940
C23 C 0.7081(4) 0.9805(3) 0.5246(3)
H19 H 0.61700 0.96830 0.54410
C24 C 0.6366(4) 0.5879(3) 0.9591(3)
H20 H 0.60560 0.57100 0.90240
H21 H 0.56340 0.63450 0.98190
C25 C 0.6680(3) 0.4951(3) 1.0395(3)
C26 C 0.7175(4) 0.4054(3) 1.0175(3)
H22 H 0.73090 0.40240 0.95140
C27 C 0.7477(4) 0.3194(3) 1.0922(3)
H23 H 0.78230 0.25810 1.07660
C28 C 0.7279(4) 0.3225(3) 1.1887(3)
H24 H 0.74680 0.26350 1.23950
C29 C 0.6802(4) 0.4122(3) 1.2100(3)
H25 H 0.66830 0.41550 1.27610
C30 C 0.6495(4) 0.4976(3) 1.1359(3)
H26 H 0.61510 0.55880 1.15180
C31 C 0.5003(4) 0.2542(3) 0.8087(2)
C32 C 0.3980(4) 0.2181(3) 0.8771(3)
H27 H 0.30550 0.23350 0.86080
C33 C 0.4313(4) 0.1599(3) 0.9687(3)
H28 H 0.36110 0.13550 1.01500
C34 C 0.5662(4) 0.1366(3) 0.9941(3)
C35 C 0.6680(4) 0.1754(3) 0.9255(3)
H29 H 0.76040 0.16130 0.94210
C36 C 0.6354(4) 0.2333(3) 0.8347(3)
H30 H 0.70530 0.25950 0.78920
C37 C 0.6052(4) 0.0718(3) 1.0889(3)
H31 H 0.69910 0.06050 1.10130
C38 C 0.5207(4) 0.0273(3) 1.1591(3)
H32 H 0.42590 0.03750 1.14940
C39 C 0.3446(4) 0.3208(3) 0.6810(3)
H33 H 0.27960 0.36510 0.71300
H34 H 0.31130 0.25520 0.69510
C40 C 0.3582(3) 0.3660(3) 0.5727(3)
C41 C 0.4149(4) 0.3069(3) 0.5108(3)
H35 H 0.44140 0.23740 0.53650
C42 C 0.4326(4) 0.3493(3) 0.4114(3)
H36 H 0.47050 0.30860 0.36910
C43 C 0.3955(4) 0.4507(3) 0.3735(3)
H37 H 0.40900 0.47970 0.30550
C44 C 0.3390(4) 0.5096(3) 0.4347(3)
H38 H 0.31320 0.57910 0.40890
C45 C 0.3199(4) 0.4670(3) 0.5338(3)
H39 H 0.28010 0.50760 0.57570
#END
