
#######################################################################
#
#                 Cambridge Crystallographic Data Centre
#                                CCDC
#
#######################################################################
#
# If this CIF has been generated from an entry in the Cambridge
# Structural Database, then it will include bibliographic, chemical,
# crystal, experimental, refinement or atomic coordinate data resulting
# from the CCDC's data processing and validation procedures.
#
#######################################################################

data_CSD_CIF_VACQIA
_audit_creation_date 2003-03-19
_audit_creation_method CSD-ConQuest-V1
_database_code_CSD VACQIA
_database_code_depnum_ccdc_archive 'CCDC 188656'
_chemical_formula_sum 'C12 H17 N1 O3'
_chemical_formula_moiety
;
C12 H17 N1 O3
;
_journal_coden_Cambridge 294
_journal_volume 617
_journal_year 2002
_journal_page_first 189
_journal_name_full 'J.Mol.Struct.:THEOCHEM '
loop_
_publ_author_name
"P.Dapporto"
"A.Guerri"
"P.Paoli"
"P.Rossi"
"M.Altamura"
"F.R.Calabri"
"A.Guidi"
_chemical_name_systematic
;
(3R,5R)-trans-1-Benzyl-1-oxypiperidine-3,5-diol
;
_cell_volume   1136.675
_exptl_crystal_colour 'colorless'
_exptl_crystal_density_diffrn 1.305
_exptl_crystal_description 'parallelepiped'
_exptl_crystal_preparation 'methanol/diethyl ether'
_diffrn_ambient_temperature 293
#These two values have been output from a single CSD field.
_refine_ls_R_factor_gt 0.0347
_refine_ls_wR_factor_gt 0.0347
_symmetry_cell_setting orthorhombic
_symmetry_space_group_name_H-M 'P 21 21 21'
_symmetry_Int_Tables_number 19
loop_
_symmetry_equiv_pos_site_id
_symmetry_equiv_pos_as_xyz
1 x,y,z
2 1/2-x,-y,1/2+z
3 1/2+x,1/2-y,-z
4 -x,1/2+y,1/2-z
_cell_length_a 5.239(1)
_cell_length_b 8.4137(7)
_cell_length_c 25.787(4)
_cell_angle_alpha 90
_cell_angle_beta 90
_cell_angle_gamma 90
_cell_formula_units_Z 4
loop_
_atom_type_symbol
_atom_type_radius_bond
C 0.68
H 0.23
N 0.68
O 0.68
loop_
_atom_site_label
_atom_site_type_symbol
_atom_site_fract_x
_atom_site_fract_y
_atom_site_fract_z
O1 O 1.1921(3) -0.06790(19) 0.36290(6)
O2 O 0.6979(3) -0.03294(18) 0.22596(5)
O3 O 1.1134(2) 0.22907(14) 0.33292(4)
N1 N 0.8510(3) 0.20885(16) 0.34108(5)
C1 C 0.8107(4) 0.0831(2) 0.38186(6)
C2 C 0.9207(4) -0.0755(2) 0.36464(7)
C3 C 0.8059(4) -0.1280(2) 0.31283(7)
C4 C 0.8362(4) 0.0010(2) 0.27185(6)
C5 C 0.7275(4) 0.1578(2) 0.29107(6)
C6 C 0.7305(4) 0.3650(2) 0.35833(7)
C7 C 0.8548(4) 0.4359(2) 0.40560(6)
C8 C 0.7539(5) 0.4095(3) 0.45457(8)
C9 C 0.8658(6) 0.4806(3) 0.49786(8)
C10 C 1.0757(6) 0.5775(3) 0.49214(8)
C11 C 1.1760(5) 0.6047(3) 0.44381(9)
C12 C 1.0641(4) 0.5340(2) 0.40031(7)
H1 H 1.210(9) 0.038(5) 0.3508(14)
H2 H 0.797(6) -0.117(4) 0.2089(11)
H3 H 0.616(4) 0.074(2) 0.3869(7)
H4 H 0.891(4) 0.128(2) 0.4124(8)
H5 H 0.872(5) -0.157(3) 0.3915(8)
H6 H 0.610(5) -0.140(3) 0.3187(9)
H7 H 0.894(6) -0.230(3) 0.3034(9)
H8 H 1.016(5) 0.016(3) 0.2652(7)
H9 H 0.541(4) 0.151(3) 0.2972(7)
H10 H 0.759(5) 0.240(3) 0.2667(8)
H11 H 0.543(5) 0.341(3) 0.3646(7)
H12 H 0.757(5) 0.434(3) 0.3278(10)
H13 H 0.808(6) 0.459(3) 0.5301(12)
H14 H 0.603(6) 0.350(3) 0.4588(9)
H15 H 1.122(5) 0.554(3) 0.3649(9)
H16 H 1.342(6) 0.669(4) 0.4395(10)
H17 H 1.163(5) 0.627(3) 0.5215(10)
#END
