
#######################################################################
#
#                 Cambridge Crystallographic Data Centre
#                                CCDC
#
#######################################################################
#
# If this CIF has been generated from an entry in the Cambridge
# Structural Database, then it will include bibliographic, chemical,
# crystal, experimental, refinement or atomic coordinate data resulting
# from the CCDC's data processing and validation procedures.
#
#######################################################################

data_CSD_CIF_VACROG
_audit_creation_date 1989-07-31
_audit_creation_method CSD-ConQuest-V1
_database_code_CSD VACROG
_chemical_formula_sum 'C6 H9 N5 O4'
_chemical_formula_moiety
;
C6 H9 N5 O4
;
_journal_coeditor_code "IUCr AN0171"
_journal_coden_Cambridge 622
_journal_volume 44
_journal_year 1988
_journal_page_first 672
_journal_name_full 'Acta Crystallogr.,Sect.B:Struct.Sci. '
loop_
_publ_author_name
"R.McKenna"
"T.C.Jenkins"
"S.Neidle"
_chemical_name_systematic
;
N-(2-Hydroxyethyl)-2-(3-nitro-1,2,4-triazol-1-yl)acetamide
;
_chemical_melting_point 358
_cell_volume   1808.274
_exptl_crystal_colour 'very pale yellow'
_exptl_crystal_density_diffrn 1.588
_exptl_special_details
;
Melting point range 358-359K
potential anticancer agent (RB-6110)

;
_diffrn_ambient_temperature ?
_diffrn_special_details
;
The study was carried out at room temperature,in the range 283-303K

;
#These two values have been output from a single CSD field.
_refine_ls_R_factor_gt 0.042
_refine_ls_wR_factor_gt 0.042
_symmetry_cell_setting monoclinic
_symmetry_space_group_name_H-M 'C 2/c'
_symmetry_Int_Tables_number 15
loop_
_symmetry_equiv_pos_site_id
_symmetry_equiv_pos_as_xyz
1 x,y,z
2 1/2+x,1/2+y,z
3 -x,y,1/2-z
4 1/2-x,1/2+y,1/2-z
5 -x,-y,-z
6 -1/2-x,-1/2-y,-z
7 x,-y,-1/2+z
8 -1/2+x,-1/2-y,-1/2+z
_cell_length_a 20.595(3)
_cell_length_b 4.713(1)
_cell_length_c 19.914(4)
_cell_angle_alpha 90
_cell_angle_beta 110.69(1)
_cell_angle_gamma 90
_cell_formula_units_Z 8
loop_
_atom_type_symbol
_atom_type_radius_bond
C 0.68
H 0.23
N 0.68
O 0.68
loop_
_atom_site_label
_atom_site_type_symbol
_atom_site_fract_x
_atom_site_fract_y
_atom_site_fract_z
N1 N 0.14815(8) 0.2825(4) -0.11511(9)
N2 N 0.20488(8) 0.4416(4) -0.10762(9)
C1 C 0.1825(1) 0.5931(5) -0.1666(1)
N3 N 0.11706(9) 0.5506(4) -0.21065(9)
C2 C 0.0968(1) 0.3508(5) -0.1758(1)
N4 N 0.22642(9) 0.8022(4) -0.1826(1)
O1 O 0.28497(8) 0.8323(4) -0.1395(1)
O2 O 0.20197(9) 0.9368(4) -0.23776(9)
C3 C 0.1455(1) 0.0937(5) -0.0585(1)
C4 C 0.1165(1) 0.2474(5) -0.0079(1)
O3 O 0.10589(9) 0.5033(4) -0.01263(8)
N5 N 0.10194(9) 0.0810(4) 0.03806(9)
C5 C 0.0744(1) 0.1948(5) 0.0907(1)
C6 C 0.0561(1) -0.0409(5) 0.1315(1)
O4 O 0.02384(7) 0.0679(4) 0.17839(8)
H1 H 0.050(1) 0.264(6) -0.190(1)
H2 H 0.191(1) 0.027(6) -0.033(1)
H3 H 0.114(1) -0.065(6) -0.081(1)
H4 H 0.11500 -0.11100 0.03300
H5 H 0.109(1) 0.323(5) 0.125(1)
H6 H 0.027(1) 0.301(6) 0.063(1)
H7 H 0.022(1) -0.173(5) 0.096(1)
H8 H 0.102(1) -0.148(5) 0.159(1)
H9 H 0.05800 0.22100 0.21300
#END
