
#######################################################################
#
#                 Cambridge Crystallographic Data Centre
#                                CCDC
#
#######################################################################
#
# If this CIF has been generated from an entry in the Cambridge
# Structural Database, then it will include bibliographic, chemical,
# crystal, experimental, refinement or atomic coordinate data resulting
# from the CCDC's data processing and validation procedures.
#
#######################################################################

data_CSD_CIF_VACRAT
_audit_creation_date 2003-03-19
_audit_creation_method CSD-ConQuest-V1
_database_code_CSD VACRAT
_database_code_depnum_ccdc_archive 'CCDC 184322'
_chemical_formula_sum 'C6 H7 N3 O3'
_chemical_formula_moiety
;
C6 H7 N3 O3
;
_journal_coden_Cambridge 15
_journal_volume 80
_journal_year 2002
_journal_page_first 1242
_journal_name_full 'Can.J.Chem. '
loop_
_publ_author_name
"A.Szemik-Hojniak"
"T.Glowiak"
"I.Deperasinska"
"A.Puszko"
_chemical_name_systematic
;
5-Methyl-2-(nitroamino)pyridine N-oxide
;
_cell_volume   2927.897
_exptl_crystal_colour 'light brown'
_exptl_crystal_density_diffrn 1.535
_exptl_crystal_preparation 'methanol/water'
_diffrn_ambient_temperature 293
#These two values have been output from a single CSD field.
_refine_ls_R_factor_gt 0.0469
_refine_ls_wR_factor_gt 0.0469
_symmetry_cell_setting monoclinic
_symmetry_space_group_name_H-M 'C 2/c'
_symmetry_Int_Tables_number 15
loop_
_symmetry_equiv_pos_site_id
_symmetry_equiv_pos_as_xyz
1 x,y,z
2 1/2+x,1/2+y,z
3 x,-y,1/2+z
4 1/2+x,1/2-y,1/2+z
5 -x,-y,-z
6 -1/2-x,-1/2-y,-z
7 -x,y,-1/2-z
8 -1/2-x,-1/2+y,-1/2-z
_cell_length_a 29.984(6)
_cell_length_b 7.406(1)
_cell_length_c 13.584(3)
_cell_angle_alpha 90
_cell_angle_beta 103.92(3)
_cell_angle_gamma 90
_cell_formula_units_Z 16
loop_
_atom_type_symbol
_atom_type_radius_bond
C 0.68
H 0.23
N 0.68
O 0.68
loop_
_atom_site_label
_atom_site_type_symbol
_atom_site_fract_x
_atom_site_fract_y
_atom_site_fract_z
O1 O 0.42001(7) 0.0310(3) 0.05845(19)
O2 O 0.29722(8) -0.3180(4) 0.0555(2)
O3 O 0.34899(10) -0.5192(4) 0.1086(3)
N1 N 0.44048(8) -0.1341(3) 0.08460(17)
N2 N 0.36814(8) -0.2392(3) 0.06748(18)
N3 N 0.33802(9) -0.3667(4) 0.0776(2)
C1 C 0.41371(9) -0.2806(4) 0.0858(2)
C2 C 0.43764(12) -0.4462(5) 0.1048(2)
C3 C 0.48435(12) -0.4497(5) 0.1194(2)
C4 C 0.51046(10) -0.2956(5) 0.1174(2)
C5 C 0.48638(10) -0.1373(5) 0.0995(2)
C6 C 0.56194(13) -0.2967(8) 0.1355(3)
O4 O 0.32264(7) 0.0773(3) 0.03587(15)
O5 O 0.45321(8) 0.1699(4) 0.2769(2)
O6 O 0.4041(1) 0.2558(5) 0.3596(2)
N4 N 0.30616(8) 0.0950(3) 0.12153(17)
N5 N 0.38126(8) 0.1171(3) 0.20772(18)
N6 N 0.41325(9) 0.1817(4) 0.2861(2)
C7 C 0.3364(1) 0.1218(4) 0.2123(2)
C8 C 0.31616(12) 0.1415(5) 0.2948(2)
C9 C 0.26966(12) 0.1412(5) 0.2810(3)
C10 C 0.24007(10) 0.1229(4) 0.1856(3)
C11 C 0.26033(10) 0.0947(4) 0.1069(3)
C12 C 0.18856(13) 0.1290(7) 0.1679(4)
H1 H 0.4054(14) 0.059(6) 0.113(3)
H2 H 0.3403(15) -0.030(7) 0.049(4)
H3 H 0.4189(10) -0.549(5) 0.100(2)
H4 H 0.4977(11) -0.555(5) 0.129(2)
H5 H 0.4995(11) -0.020(5) 0.100(2)
H6 H 0.5707(17) -0.397(8) 0.119(4)
H7 H 0.5767(13) -0.253(6) 0.197(3)
H8 H 0.5723(19) -0.220(9) 0.071(5)
H9 H 0.3343(11) 0.152(5) 0.359(3)
H10 H 0.2570(12) 0.157(5) 0.336(3)
H11 H 0.2452(10) 0.077(4) 0.037(2)
H12 H 0.1772(16) 0.033(7) 0.209(4)
H13 H 0.1782(19) 0.230(8) 0.175(4)
H14 H 0.1729(16) 0.081(7) 0.098(4)
#END
