
#######################################################################
#
#                 Cambridge Crystallographic Data Centre
#                                CCDC
#
#######################################################################
#
# If this CIF has been generated from an entry in the Cambridge
# Structural Database, then it will include bibliographic, chemical,
# crystal, experimental, refinement or atomic coordinate data resulting
# from the CCDC's data processing and validation procedures.
#
#######################################################################

data_CSD_CIF_VACTOL
_audit_creation_date 2016-03-05
_audit_creation_method CSD-ConQuest-V1
_database_code_CSD VACTOL
_database_code_depnum_ccdc_archive 'CCDC 1455917'
_chemical_formula_sum 'C15 H9 N1 O5'
_chemical_formula_moiety
;
C15 H9 N1 O5
;
_journal_coeditor_code "lh4004"
_journal_coden_Cambridge 1959
_journal_volume 1
_journal_year 2016
_journal_page_first x160329
_journal_name_full 'IUCrData '
loop_
_publ_author_name
"S.Walki"
"S.Naveen"
"S.Kenchanna"
"K.M.Mahadevan"
"M.N.Kumara"
"N.K.Lokanath"
_chemical_name_systematic
;
7-hydroxy-3-(4-nitrophenyl)-2H-chromen-2-one
;
_cell_volume   1248.391
_exptl_crystal_colour 'brown'
_exptl_crystal_density_diffrn 1.507
_exptl_crystal_description 'Rectangle'
_diffrn_ambient_temperature 296
#These two values have been output from a single CSD field.
_refine_ls_R_factor_gt 0.0675
_refine_ls_wR_factor_gt 0.0675
_symmetry_cell_setting orthorhombic
_symmetry_space_group_name_H-M 'P 21 21 21'
_symmetry_Int_Tables_number 19
loop_
_symmetry_equiv_pos_site_id
_symmetry_equiv_pos_as_xyz
1 x,y,z
2 1/2-x,-y,1/2+z
3 1/2+x,1/2-y,-z
4 -x,1/2+y,1/2-z
_cell_length_a 7.0087(9)
_cell_length_b 13.0242(13)
_cell_length_c 13.6761(17)
_cell_angle_alpha 90
_cell_angle_beta 90
_cell_angle_gamma 90
_cell_formula_units_Z 4
loop_
_atom_type_symbol
_atom_type_radius_bond
C 0.68
H 0.23
N 0.68
O 0.68
loop_
_atom_site_label
_atom_site_type_symbol
_atom_site_fract_x
_atom_site_fract_y
_atom_site_fract_z
O1 O 0.4270(5) 0.6104(2) 0.3410(3)
O2 O 0.4770(5) 0.7766(2) 0.3319(3)
O3 O 0.3610(6) 0.2463(2) 0.3452(3)
O4 O 0.4326(6) 1.0871(3) 0.7822(3)
O5 O 0.3441(6) 1.1717(3) 0.6546(3)
N1 N 0.3856(6) 1.0912(3) 0.6965(4)
C1 C 0.3786(7) 0.5216(4) 0.3899(4)
C2 C 0.3933(7) 0.4300(4) 0.3393(5)
C3 C 0.3449(8) 0.3408(4) 0.3889(5)
C4 C 0.2816(8) 0.3427(4) 0.4851(4)
C5 C 0.2686(8) 0.4342(4) 0.5349(5)
C6 C 0.3205(8) 0.5259(4) 0.4875(4)
C7 C 0.3137(7) 0.6256(4) 0.5334(4)
C8 C 0.3675(7) 0.7127(4) 0.4860(4)
C9 C 0.4251(7) 0.7064(4) 0.3859(4)
C10 C 0.3718(7) 0.8134(4) 0.5380(4)
C11 C 0.4250(7) 0.8149(4) 0.6359(4)
C12 C 0.4280(7) 0.9056(4) 0.6883(4)
C13 C 0.3772(8) 0.9957(4) 0.6398(4)
C14 C 0.3265(8) 0.9975(4) 0.5432(4)
C15 C 0.3210(7) 0.9055(4) 0.4914(4)
H1 H 0.43400 0.42830 0.27460
H2 H 0.24780 0.28180 0.51610
H3 H 0.22590 0.43540 0.59930
H4 H 0.27110 0.63050 0.59770
H5 H 0.40080 0.25340 0.28920
H6 H 0.45900 0.75380 0.66660
H7 H 0.46290 0.90660 0.75390
H8 H 0.29620 1.05920 0.51260
H9 H 0.28390 0.90510 0.42610
#END
