
#######################################################################
#
#                 Cambridge Crystallographic Data Centre
#                                CCDC
#
#######################################################################
#
# If this CIF has been generated from an entry in the Cambridge
# Structural Database, then it will include bibliographic, chemical,
# crystal, experimental, refinement or atomic coordinate data resulting
# from the CCDC's data processing and validation procedures.
#
#######################################################################

data_CSD_CIF_VACWIH
_audit_creation_date 2011-03-04
_audit_creation_method CSD-ConQuest-V1
_database_code_CSD VACWIH
_database_code_depnum_ccdc_archive 'CCDC 750066'
_chemical_formula_sum 'C26 H23 N1 O5'
_chemical_formula_moiety
;
C26 H23 N1 O5
;
_journal_coden_Cambridge 16
_journal_volume 66
_journal_year 2010
_journal_page_first 8503
_journal_name_full 'Tetrahedron '
loop_
_publ_author_name
"M.Thoss"
"R.W.Seidel"
"M.Feigel"
_chemical_name_systematic
;
(R)-2'-Methoxy-6'-nitro-1,1'-binaphthalen-2-yl pivalate
;
_cell_volume   2203.631
_exptl_crystal_colour 'yellow'
_exptl_crystal_density_diffrn 1.294
_exptl_crystal_description 'prism'
_diffrn_ambient_temperature 294
#These two values have been output from a single CSD field.
_refine_ls_R_factor_gt 0.0516
_refine_ls_wR_factor_gt 0.0516
_symmetry_cell_setting orthorhombic
_symmetry_space_group_name_H-M 'P 21 21 21'
_symmetry_Int_Tables_number 19
loop_
_symmetry_equiv_pos_site_id
_symmetry_equiv_pos_as_xyz
1 x,y,z
2 1/2-x,-y,1/2+z
3 -x,1/2+y,1/2-z
4 1/2+x,1/2-y,-z
_cell_length_a 8.5926(11)
_cell_length_b 13.399(4)
_cell_length_c 19.140(2)
_cell_angle_alpha 90
_cell_angle_beta 90
_cell_angle_gamma 90
_cell_formula_units_Z 4
loop_
_atom_type_symbol
_atom_type_radius_bond
C 0.68
H 0.23
N 0.68
O 0.68
loop_
_atom_site_label
_atom_site_type_symbol
_atom_site_fract_x
_atom_site_fract_y
_atom_site_fract_z
O1 O 0.3707(3) 0.6634(2) 0.30313(18)
O2 O 0.6874(3) 0.6565(2) 0.21013(13)
O3 O 0.9010(4) 0.5645(3) 0.2079(2)
O4 O 0.8588(7) 0.1704(3) 0.4437(3)
O5 O 1.0728(7) 0.2527(3) 0.4356(3)
N1 N 0.9313(8) 0.2465(3) 0.4316(2)
C1 C 0.5985(5) 0.5882(3) 0.34261(18)
C2 C 0.4413(5) 0.5788(3) 0.3271(2)
C3 C 0.3641(5) 0.4884(3) 0.3358(2)
H1 H 0.25880 0.48350 0.32500
C4 C 0.4414(6) 0.4076(4) 0.3600(2)
H2 H 0.38750 0.34820 0.36700
C5 C 0.6885(6) 0.3277(3) 0.3978(2)
H3 H 0.63780 0.26720 0.40500
C6 C 0.8431(6) 0.3346(3) 0.4094(2)
C7 C 0.9230(6) 0.4253(3) 0.4017(2)
H4 H 1.02910 0.42900 0.41090
C8 C 0.8444(5) 0.5068(3) 0.3809(2)
H5 H 0.89790 0.56660 0.37550
C9 C 0.6812(5) 0.5043(3) 0.36697(19)
C10 C 0.6030(5) 0.4116(3) 0.3749(2)
C11 C 0.6807(4) 0.6849(3) 0.3325(2)
C12 C 0.7362(4) 0.7118(3) 0.26842(19)
C13 C 0.8250(5) 0.7980(3) 0.2581(2)
H6 H 0.86660 0.81190 0.21430
C14 C 0.8501(5) 0.8611(3) 0.3123(2)
H7 H 0.90950 0.91830 0.30550
C15 C 0.8000(5) 0.9096(3) 0.4361(3)
H8 H 0.85250 0.96960 0.42980
C16 C 0.7365(7) 0.8881(4) 0.4991(3)
H9 H 0.74520 0.93360 0.53560
C17 C 0.6582(7) 0.7982(4) 0.5097(3)
H10 H 0.61810 0.78310 0.55360
C18 C 0.6404(6) 0.7333(4) 0.4571(2)
H11 H 0.58530 0.67450 0.46480
C19 C 0.7035(4) 0.7520(3) 0.39006(19)
C20 C 0.7871(5) 0.8411(3) 0.3791(2)
C21 C 0.7746(5) 0.5811(3) 0.1859(2)
C22 C 0.6869(5) 0.5195(3) 0.1328(2)
C23 C 0.6249(9) 0.4283(4) 0.1708(3)
H12 H 0.70900 0.39490 0.19410
H13 H 0.57770 0.38370 0.13780
H14 H 0.54870 0.44870 0.20460
C24 C 0.5527(7) 0.5757(5) 0.0999(3)
H15 H 0.48180 0.59680 0.13570
H16 H 0.49940 0.53280 0.06760
H17 H 0.59190 0.63310 0.07550
C25 C 0.7974(6) 0.4887(5) 0.0749(3)
H18 H 0.84190 0.54720 0.05390
H19 H 0.74140 0.45150 0.04010
H20 H 0.87890 0.44790 0.09390
C26 C 0.2178(5) 0.6555(5) 0.2743(3)
H21 H 0.21730 0.60590 0.23820
H22 H 0.18740 0.71870 0.25510
H23 H 0.14600 0.63670 0.31040
#END
