
#######################################################################
#
#                 Cambridge Crystallographic Data Centre
#                                CCDC
#
#######################################################################
#
# If this CIF has been generated from an entry in the Cambridge
# Structural Database, then it will include bibliographic, chemical,
# crystal, experimental, refinement or atomic coordinate data resulting
# from the CCDC's data processing and validation procedures.
#
#######################################################################

data_CSD_CIF_VACWON
_audit_creation_date 2011-03-04
_audit_creation_method CSD-ConQuest-V1
_database_code_CSD VACWON
_database_code_depnum_ccdc_archive 'CCDC 750067'
_chemical_formula_sum 'C26 H23 N1 O5'
_chemical_formula_moiety
;
C26 H23 N1 O5
;
_journal_coden_Cambridge 16
_journal_volume 66
_journal_year 2010
_journal_page_first 8503
_journal_name_full 'Tetrahedron '
loop_
_publ_author_name
"M.Thoss"
"R.W.Seidel"
"M.Feigel"
_chemical_name_systematic
;
2'-Methoxy-8'-nitro-1,1'-binaphthalen-2-yl pivalate
;
_cell_volume   4425.801
_exptl_crystal_colour 'yellow'
_exptl_crystal_density_diffrn 1.289
_exptl_crystal_description 'prism'
_diffrn_ambient_temperature 115
#These two values have been output from a single CSD field.
_refine_ls_R_factor_gt 0.0324
_refine_ls_wR_factor_gt 0.0324
_symmetry_cell_setting orthorhombic
_symmetry_space_group_name_H-M 'P n a 21'
_symmetry_Int_Tables_number 33
loop_
_symmetry_equiv_pos_site_id
_symmetry_equiv_pos_as_xyz
1 x,y,z
2 -x,-y,1/2+z
3 1/2+x,1/2-y,z
4 1/2-x,1/2+y,1/2+z
_cell_length_a 15.8256(5)
_cell_length_b 10.2927(4)
_cell_length_c 27.1708(9)
_cell_angle_alpha 90
_cell_angle_beta 90
_cell_angle_gamma 90
_cell_formula_units_Z 8
loop_
_atom_type_symbol
_atom_type_radius_bond
C 0.68
H 0.23
N 0.68
O 0.68
loop_
_atom_site_label
_atom_site_type_symbol
_atom_site_fract_x
_atom_site_fract_y
_atom_site_fract_z
O1 O -0.02869(18) 0.5617(3) 0.17371(10)
O2 O 0.00336(18) 0.5430(3) 0.32690(9)
O3 O -0.0889(2) 0.6720(3) 0.28716(12)
O4 O 0.16555(18) 0.2650(3) 0.27006(12)
O5 O 0.1413(2) 0.2996(3) 0.34755(12)
N1 N 0.1185(2) 0.2715(3) 0.30602(15)
C1 C -0.0002(2) 0.4127(3) 0.23607(13)
C2 C -0.0551(3) 0.4550(4) 0.19922(14)
C3 C -0.1327(2) 0.3932(4) 0.19051(14)
H1 H -0.16920 0.42430 0.16540
C4 C -0.1555(2) 0.2895(4) 0.21794(15)
H2 H -0.20920 0.25080 0.21260
C5 C -0.1269(3) 0.1280(4) 0.28181(16)
H3 H -0.18090 0.09070 0.27590
C6 C -0.0762(3) 0.0746(4) 0.31659(16)
H4 H -0.09460 0.00140 0.33500
C7 C 0.0041(3) 0.1287(4) 0.32506(15)
H5 H 0.04030 0.09210 0.34920
C8 C 0.0298(3) 0.2342(4) 0.29851(14)
C9 C -0.0216(2) 0.2969(4) 0.26239(13)
C10 C -0.1019(3) 0.2372(4) 0.25426(15)
C11 C 0.0725(3) 0.4997(3) 0.25032(14)
C12 C 0.0685(3) 0.5690(4) 0.29298(14)
C13 C 0.1317(3) 0.6580(4) 0.30732(17)
H6 H 0.12590 0.70600 0.33700
C14 C 0.2008(3) 0.6745(4) 0.27860(16)
H7 H 0.24370 0.73370 0.28850
C15 C 0.2827(3) 0.6191(5) 0.20439(17)
H8 H 0.32590 0.67750 0.21430
C16 C 0.2922(3) 0.5518(5) 0.16224(17)
H9 H 0.34110 0.56380 0.14250
C17 C 0.2295(3) 0.4642(4) 0.14771(16)
H10 H 0.23620 0.41600 0.11810
C18 C 0.1591(3) 0.4472(4) 0.17558(14)
H11 H 0.11740 0.38670 0.16520
C19 C 0.1463(3) 0.5174(4) 0.21959(14)
C20 C 0.2098(3) 0.6052(4) 0.23431(15)
C21 C -0.0842(3) 0.6097(5) 0.13574(17)
H12 H -0.05850 0.68580 0.12000
H13 H -0.13850 0.63420 0.15030
H14 H -0.09320 0.54160 0.11110
C22 C -0.0745(3) 0.5983(4) 0.32020(16)
C23 C -0.1381(3) 0.5539(4) 0.35877(15)
C24 C -0.1021(3) 0.4483(4) 0.39298(17)
H15 H -0.08590 0.37220 0.37340
H16 H -0.14510 0.42320 0.41710
H17 H -0.05230 0.48220 0.41010
C25 C -0.1629(3) 0.6738(4) 0.38851(16)
H18 H -0.11300 0.70800 0.40550
H19 H -0.20600 0.65000 0.41280
H20 H -0.18550 0.74030 0.36630
C26 C -0.2147(3) 0.4991(4) 0.33144(17)
H21 H -0.23560 0.56380 0.30790
H22 H -0.25940 0.47840 0.35510
H23 H -0.19830 0.42010 0.31380
O6 O 0.39508(18) 0.7923(3) 0.52155(9)
O7 O 0.45020(17) 0.4064(2) 0.49630(9)
O8 O 0.52026(17) 0.5042(3) 0.43434(10)
O9 O 0.32544(18) 0.2156(3) 0.55128(10)
O10 O 0.23905(17) 0.3726(3) 0.56908(10)
N2 N 0.3076(2) 0.3179(3) 0.57213(12)
C27 C 0.3818(2) 0.5900(4) 0.55947(13)
C28 C 0.4147(3) 0.7145(4) 0.56079(14)
C29 C 0.4678(3) 0.7573(4) 0.59891(15)
H24 H 0.49030 0.84280 0.59850
C30 C 0.4866(3) 0.6748(4) 0.63648(15)
H25 H 0.52360 0.70330 0.66180
C31 C 0.4733(3) 0.4663(4) 0.67915(15)
H26 H 0.50760 0.49880 0.70510
C32 C 0.4448(3) 0.3430(4) 0.68122(15)
H27 H 0.45990 0.28870 0.70810
C33 C 0.3930(3) 0.2954(4) 0.64360(15)
H28 H 0.37350 0.20820 0.64460
C34 C 0.3706(2) 0.3744(4) 0.60542(14)
C35 C 0.3990(2) 0.5053(4) 0.59997(14)
C36 C 0.4529(2) 0.5488(4) 0.63885(14)
C37 C 0.3364(2) 0.5484(3) 0.51359(13)
C38 C 0.3729(2) 0.4632(3) 0.48211(13)
C39 C 0.3349(3) 0.4222(4) 0.43782(14)
H29 H 0.36210 0.36010 0.41740
C40 C 0.2593(3) 0.4723(4) 0.42469(15)
H30 H 0.23400 0.44690 0.39450
C41 C 0.1384(3) 0.6128(5) 0.44303(19)
H31 H 0.11210 0.58580 0.41330
C42 C 0.0986(3) 0.6990(5) 0.4722(2)
H32 H 0.04600 0.73510 0.46230
C43 C 0.1350(3) 0.7354(4) 0.5170(2)
H33 H 0.10610 0.79450 0.53790
C44 C 0.2110(3) 0.6872(4) 0.53101(17)
H34 H 0.23460 0.71230 0.56170
C45 C 0.2554(2) 0.6003(4) 0.50044(15)
C46 C 0.2177(3) 0.5617(4) 0.45552(15)
C47 C 0.4099(3) 0.9289(4) 0.52644(16)
H35 H 0.38830 0.95880 0.55830
H36 H 0.38080 0.97530 0.49990
H37 H 0.47070 0.94620 0.52450
C48 C 0.5215(2) 0.4322(4) 0.46912(14)
C49 C 0.5953(2) 0.3556(4) 0.48917(14)
C50 C 0.6084(3) 0.3918(4) 0.54335(14)
H38 H 0.62210 0.48450 0.54590
H39 H 0.65490 0.34040 0.55700
H40 H 0.55660 0.37390 0.56190
C51 C 0.5758(3) 0.2120(4) 0.48427(17)
H41 H 0.52680 0.19030 0.50470
H42 H 0.62470 0.16120 0.49520
H43 H 0.56340 0.19160 0.44980
C52 C 0.6742(3) 0.3905(5) 0.46015(16)
H44 H 0.66640 0.36630 0.42560
H45 H 0.72280 0.34340 0.47370
H46 H 0.68440 0.48420 0.46250
#END
