
#######################################################################
#
#                 Cambridge Crystallographic Data Centre
#                                CCDC
#
#######################################################################
#
# If this CIF has been generated from an entry in the Cambridge
# Structural Database, then it will include bibliographic, chemical,
# crystal, experimental, refinement or atomic coordinate data resulting
# from the CCDC's data processing and validation procedures.
#
#######################################################################

data_CSD_CIF_VADHEQ
_audit_creation_date 2016-03-07
_audit_creation_method CSD-ConQuest-V1
_database_code_CSD VADHEQ
_database_code_depnum_ccdc_archive 'CCDC 1451082'
_chemical_formula_sum 'C20 H15 N3 O3'
_chemical_formula_moiety
;
C20 H15 N3 O3
;
_journal_coden_Cambridge 1748
_journal_volume 3
_journal_year 2016
_journal_page_first 561
_journal_name_full 'Org.Chem.Front. '
loop_
_publ_author_name
"W.A.Nack"
"B.Wang"
"X.Wu"
"R.Jiao"
"G.He"
"G.Chen"
_chemical_name_systematic
;
5-(3-Nitrophenyl)-2-(quinolin-8-yl)-2-azabicyclo[2.2.0]hexan-3-one
;
_cell_volume   3257.997
_exptl_crystal_colour 'yellow'
_exptl_crystal_density_diffrn 1.408
_exptl_crystal_description 'block'
_diffrn_ambient_temperature 298
#These two values have been output from a single CSD field.
_refine_ls_R_factor_gt 0.153
_refine_ls_wR_factor_gt 0.153
_symmetry_cell_setting monoclinic
_symmetry_space_group_name_H-M 'I 2/a'
_symmetry_Int_Tables_number 15
loop_
_symmetry_equiv_pos_site_id
_symmetry_equiv_pos_as_xyz
1 x,y,z
2 1/2-x,y,-z
3 1/2+x,1/2+y,1/2+z
4 -x,1/2+y,1/2-z
5 -x,-y,-z
6 -1/2+x,-y,z
7 -1/2-x,-1/2-y,-1/2-z
8 x,-1/2-y,-1/2+z
_cell_length_a 13.6461(19)
_cell_length_b 10.7230(15)
_cell_length_c 22.268(4)
_cell_angle_alpha 90
_cell_angle_beta 90.915(2)
_cell_angle_gamma 90
_cell_formula_units_Z 8
loop_
_atom_type_symbol
_atom_type_radius_bond
C 0.68
H 0.23
N 0.68
O 0.68
loop_
_atom_site_label
_atom_site_type_symbol
_atom_site_fract_x
_atom_site_fract_y
_atom_site_fract_z
O1 O 0.5989(2) 0.6066(3) 0.48435(11)
N1 N 0.5898(2) 0.6911(3) 0.38643(12)
C1 C 0.6881(3) 0.8256(3) 0.32167(14)
O2 O 0.3951(4) 0.5991(4) 0.63971(16)
C2 C 0.3822(3) 0.7843(4) 0.47869(18)
N2 N 0.6078(2) 0.8446(3) 0.28673(13)
C3 C 0.3829(3) 0.7184(4) 0.41939(16)
H1 H 0.31640 0.68880 0.41000
N3 N 0.3861(3) 0.7106(4) 0.64228(16)
C4 C 0.3860(3) 0.7184(4) 0.53238(17)
H2 H 0.39140 0.63190 0.53220
C5 C 0.4958(3) 0.6770(3) 0.35371(16)
H3 H 0.49490 0.63330 0.31500
C6 C 0.7606(3) 0.7237(4) 0.40918(15)
H4 H 0.75520 0.67230 0.44260
C7 C 0.4567(3) 0.6080(3) 0.41024(15)
H5 H 0.43180 0.52260 0.40630
C8 C 0.3817(3) 0.7824(4) 0.58580(18)
C9 C 0.8611(3) 0.8532(4) 0.34729(18)
H6 H 0.92190 0.88780 0.33920
C10 C 0.6800(3) 0.7457(3) 0.37315(14)
C11 C 0.7812(3) 0.8784(3) 0.30937(16)
C12 C 0.7852(4) 0.9564(4) 0.25821(19)
H7 H 0.84400 0.99450 0.24820
C13 C 0.5574(3) 0.6299(3) 0.43732(15)
C14 C 0.7045(4) 0.9758(4) 0.22397(19)
H8 H 0.70680 1.02730 0.19040
C15 C 0.4238(3) 0.7845(4) 0.36329(18)
H9 H 0.37600 0.79380 0.33090
H10 H 0.45560 0.86340 0.37220
C16 C 0.6175(4) 0.9174(4) 0.23973(17)
H11 H 0.56260 0.93070 0.21530
C17 C 0.3763(4) 0.9103(4) 0.5896(2)
H12 H 0.37480 0.95100 0.62650
C18 C 0.8503(3) 0.7781(4) 0.39597(18)
H13 H 0.90420 0.76270 0.42100
C19 C 0.3732(4) 0.9751(4) 0.5361(3)
H14 H 0.36900 1.06160 0.53680
C20 C 0.3762(4) 0.9140(4) 0.4816(2)
H15 H 0.37430 0.96010 0.44620
O3 O 0.3811(4) 0.7663(4) 0.68911(16)
#END
