
#######################################################################
#
#                 Cambridge Crystallographic Data Centre
#                                CCDC
#
#######################################################################
#
# If this CIF has been generated from an entry in the Cambridge
# Structural Database, then it will include bibliographic, chemical,
# crystal, experimental, refinement or atomic coordinate data resulting
# from the CCDC's data processing and validation procedures.
#
#######################################################################

data_CSD_CIF_VADTAV
_audit_creation_date 1989-07-31
_audit_creation_method CSD-ConQuest-V1
_database_code_CSD VADTAV
_chemical_formula_sum 'C17 H11 N3 O2'
_chemical_formula_moiety
;
C17 H11 N3 O2
;
_journal_coden_Cambridge 692
_journal_year 1988
_journal_page_first 884
_journal_name_full 'Synthesis '
loop_
_publ_author_name
"R.Nesi"
"D.Giomi"
"S.Papaleo"
"S.Bracci"
"P.Dapporto"
_chemical_name_systematic
;
6-Benzoyl-3-phenyl-5H-pyrazolo(3,4-d)isoxazole
;
_chemical_melting_point 460.15
_cell_volume   1350.892
_exptl_crystal_colour 'white'
_exptl_crystal_density_diffrn 1.422
_exptl_special_details
;
Melting point range 460.15-461.15K

;
_diffrn_ambient_temperature ?
_diffrn_special_details
;
The study was carried out at room temperature,in the range 283-303K

;
#These two values have been output from a single CSD field.
_refine_ls_R_factor_gt 0.088
_refine_ls_wR_factor_gt 0.088
_symmetry_cell_setting monoclinic
_symmetry_space_group_name_H-M 'P 21/n'
_symmetry_Int_Tables_number 14
loop_
_symmetry_equiv_pos_site_id
_symmetry_equiv_pos_as_xyz
1 x,y,z
2 1/2-x,1/2+y,1/2-z
3 -x,-y,-z
4 -1/2+x,-1/2-y,-1/2+z
_cell_length_a 5.119(2)
_cell_length_b 9.817(2)
_cell_length_c 26.949(9)
_cell_angle_alpha 90
_cell_angle_beta 94.05(3)
_cell_angle_gamma 90
_cell_formula_units_Z 4
loop_
_atom_type_symbol
_atom_type_radius_bond
C 0.68
H 0.23
N 0.68
O 0.68
loop_
_atom_site_label
_atom_site_type_symbol
_atom_site_fract_x
_atom_site_fract_y
_atom_site_fract_z
O1 O 0.5439(11) 0.3936(6) -0.0827(3)
O2 O 0.2591(11) 0.0601(7) 0.0287(2)
N1 N 0.0893(14) 0.1385(8) -0.0616(3)
N2 N 0.0137(13) 0.1793(8) -0.1080(3)
N3 N 0.4743(15) 0.4436(8) -0.1324(3)
C1 C 0.3039(17) 0.2015(9) -0.0373(4)
C2 C 0.3807(17) 0.1560(9) 0.0123(4)
C3 C 0.6012(16) 0.2186(9) 0.0430(4)
C4 C 0.1408(19) 0.4086(11) -0.1997(4)
C5 C 0.1975(19) 0.2783(9) -0.1146(4)
C6 C 0.8588(20) 0.2188(11) 0.1223(4)
H1 H 0.9027(20) 0.1780(11) 0.1592(4)
C7 C 1.0045(17) 0.3286(11) 0.1049(4)
H2 H 1.1618(17) 0.3721(11) 0.1286(4)
C8 C 0.6523(17) 0.1650(11) 0.0902(4)
H3 H 0.5379(17) 0.0808(11) 0.1026(4)
C9 C 0.7439(17) 0.3289(10) 0.0258(4)
H4 H 0.7000(17) 0.3705(10) -0.0109(4)
C10 C 0.2664(20) 0.3765(10) -0.1513(5)
C11 C 0.3686(18) 0.2924(9) -0.0739(4)
C12 C 0.9446(19) 0.3811(11) 0.0572(4)
H5 H 1.0584(19) 0.4656(11) 0.0448(4)
C13 C 0.2237(21) 0.5168(12) -0.2278(5)
H6 H 0.3836(21) 0.5804(12) -0.2134(5)
C14 C -0.0703(21) 0.3272(12) -0.2176(4)
H7 H -0.1408(21) 0.2444(12) -0.1957(4)
C15 C -0.1103(23) 0.4622(13) -0.2938(5)
H8 H -0.2072(23) 0.4844(13) -0.3298(5)
C16 C -0.1890(23) 0.3541(15) -0.2646(5)
H9 H -0.3484(23) 0.2905(15) -0.2794(5)
C17 C 0.0963(25) 0.5418(13) -0.2747(5)
H10 H 0.1660(25) 0.6247(13) -0.2966(5)
H11 H 0.026(14) 0.0709(76) -0.0451(26)
#END
