
#######################################################################
#
#                 Cambridge Crystallographic Data Centre
#                                CCDC
#
#######################################################################
#
# If this CIF has been generated from an entry in the Cambridge
# Structural Database, then it will include bibliographic, chemical,
# crystal, experimental, refinement or atomic coordinate data resulting
# from the CCDC's data processing and validation procedures.
#
#######################################################################

data_CSD_CIF_VADWAY
_audit_creation_date 1989-07-30
_audit_creation_method CSD-ConQuest-V1
_database_code_CSD VADWAY
_database_code_depnum_ccdc_archive 'CCDC 1278900'
_chemical_formula_sum 'C25 H31 N1 O8'
_chemical_formula_moiety
;
C25 H31 N1 O8
;
_journal_coden_Cambridge 15
_journal_volume 66
_journal_year 1988
_journal_page_first 506
_journal_name_full 'Can.J.Chem. '
loop_
_publ_author_name
"W.A.Ayer"
"J.D.F.Villar"
"B.S.Migaj"
_chemical_name_systematic
;
Lachnellulone p-nitrobenzoate
;
_chemical_melting_point 411.15
_cell_volume   1248.019
_exptl_crystal_colour 'pale yellow'
_exptl_crystal_density_diffrn 1.26
_exptl_special_details
;
Melting point range 411.15-412.15K
lachnellulone has activity against wood fungi, particularly Dutch elm disease
;
_diffrn_ambient_temperature ?
_diffrn_special_details
;
The study was carried out at room temperature,in the range 283-303K

;
#These two values have been output from a single CSD field.
_refine_ls_R_factor_gt 0.07
_refine_ls_wR_factor_gt 0.07
_chemical_compound_source
;
Lachnellula fuscosanguinea
;
_symmetry_cell_setting monoclinic
_symmetry_space_group_name_H-M 'P 21'
_symmetry_Int_Tables_number 4
loop_
_symmetry_equiv_pos_site_id
_symmetry_equiv_pos_as_xyz
1 x,y,z
2 -x,1/2+y,-z
_cell_length_a 13.923(4)
_cell_length_b 5.211(3)
_cell_length_c 17.205(4)
_cell_angle_alpha 90
_cell_angle_beta 91.15(2)
_cell_angle_gamma 90
_cell_formula_units_Z 2
loop_
_atom_type_symbol
_atom_type_radius_bond
C 0.68
H 0.23
N 0.68
O 0.68
loop_
_atom_site_label
_atom_site_type_symbol
_atom_site_fract_x
_atom_site_fract_y
_atom_site_fract_z
O1 O 0.3249(3) 1.291(1) 0.7207(3)
O2 O 0.2704(4) 1.418(1) 0.6074(3)
O3 O 0.4913(3) 0.727(1) 0.6300(3)
O4 O 0.5001(3) 0.817(1) 0.7834(3)
O5 O 0.7931(4) -0.093(2) 0.9874(4)
O6 O 0.6502(4) -0.118(2) 1.0301(3)
O7 O 0.2798(3) 1.085(1) 0.4919(3)
O8 O 0.6505(4) 0.917(1) 0.7497(3)
N1 N 0.7116(4) -0.028(2) 0.9894(3)
C1 C 0.2959(5) 0.874(2) 0.7802(4)
C2 C 0.2028(6) 0.963(2) 0.8199(4)
C3 C 0.1362(6) 0.737(2) 0.8344(5)
C4 C 0.0445(6) 0.818(3) 0.8735(7)
C5 C -0.0163(8) 0.614(5) 0.8869(9)
C6 C 0.3914(5) 0.761(2) 0.4858(4)
C7 C 0.3241(6) 0.723(2) 0.4174(5)
C8 C 0.1619(6) 0.936(2) 0.3975(5)
C9 C 0.1036(6) 1.186(2) 0.3945(5)
C10 C -0.0029(6) 1.149(2) 0.3827(6)
C11 C -0.0606(7) 1.394(3) 0.3812(7)
C12 C 0.3187(5) 1.263(2) 0.6416(4)
C13 C 0.5971(5) 0.782(2) 0.7852(4)
C14 C 0.3706(5) 1.045(2) 0.6073(4)
C15 C 0.4443(5) 0.911(2) 0.6515(4)
C16 C 0.4597(5) 1.015(2) 0.7339(4)
C17 C 0.3654(5) 1.092(2) 0.7696(4)
C18 C 0.3486(5) 0.972(2) 0.5325(4)
C19 C 0.2703(5) 0.974(2) 0.4132(4)
C20 C 0.6234(5) 0.570(2) 0.8375(4)
C21 C 0.5562(5) 0.450(2) 0.8846(4)
C22 C 0.5860(5) 0.255(2) 0.9341(4)
C23 C 0.6797(5) 0.181(2) 0.9360(4)
C24 C 0.7476(6) 0.294(2) 0.8899(5)
C25 C 0.7186(6) 0.492(2) 0.8407(5)
H1 H 0.50100 1.16600 0.73000
H2 H 0.37800 1.15900 0.82100
H3 H 0.32600 0.75300 0.81200
H4 H 0.28000 0.81100 0.73100
H5 H 0.17000 1.09000 0.78700
H6 H 0.21900 1.04800 0.86800
H7 H 0.16900 0.62400 0.86700
H8 H 0.12000 0.66600 0.78600
H9 H 0.01300 0.94600 0.84100
H10 H 0.06100 0.90300 0.92200
H11 H -0.07200 0.68800 0.91100
H12 H -0.03400 0.54600 0.83900
H13 H 0.01500 0.50300 0.92000
H14 H 0.39600 0.61600 0.51600
H15 H 0.45300 0.81600 0.46900
H16 H 0.28200 0.59200 0.42600
H17 H 0.35900 0.70200 0.37100
H18 H 0.29500 1.08200 0.37200
H19 H 0.13700 0.83900 0.43800
H20 H 0.15400 0.85800 0.34900
H21 H 0.12600 1.29400 0.35300
H22 H 0.11400 1.28200 0.44200
H23 H -0.02500 1.05400 0.42400
H24 H -0.01300 1.07100 0.33500
H25 H -0.12700 1.36200 0.37400
H26 H -0.05200 1.49000 0.42900
H27 H -0.04000 1.50700 0.34000
H28 H 0.49100 0.50900 0.88300
H29 H 0.54100 0.17900 0.96700
H30 H 0.81300 0.24600 0.89200
H31 H 0.76400 0.58200 0.80900
#END
