
#######################################################################
#
#                 Cambridge Crystallographic Data Centre
#                                CCDC
#
#######################################################################
#
# If this CIF has been generated from an entry in the Cambridge
# Structural Database, then it will include bibliographic, chemical,
# crystal, experimental, refinement or atomic coordinate data resulting
# from the CCDC's data processing and validation procedures.
#
#######################################################################

data_CSD_CIF_VADZEF
_audit_creation_date 1989-07-31
_audit_creation_method CSD-ConQuest-V1
_database_code_CSD VADZEF
_chemical_formula_sum 'C13 H14 N2 O7'
_chemical_formula_moiety
;
C13 H14 N2 O7
;
_journal_coeditor_code "IUCr AN0196"
_journal_coden_Cambridge 591
_journal_volume 45
_journal_year 1989
_journal_page_first 249
_journal_name_full 'Acta Crystallogr.,Sect.C:Cryst.Struct.Commun. '
loop_
_publ_author_name
"P.G.Jones"
"M.R.Edwards"
"A.J.Kirby"
_chemical_name_systematic
;
trans-2-Hydroxycyclohexyl 2,4-dinitrobenzoate
;
_chemical_melting_point 357
_cell_volume    705.151
_exptl_crystal_colour 'pale yellow'
_exptl_crystal_density_diffrn 1.46
_exptl_special_details
;
Melting point range 357-359K

;
_diffrn_ambient_temperature ?
_diffrn_special_details
;
The study was carried out at room temperature,in the range 283-303K

;
#These two values have been output from a single CSD field.
_refine_ls_R_factor_gt 0.046
_refine_ls_wR_factor_gt 0.046
_symmetry_cell_setting triclinic
_symmetry_space_group_name_H-M 'P -1'
_symmetry_Int_Tables_number 2
loop_
_symmetry_equiv_pos_site_id
_symmetry_equiv_pos_as_xyz
1 x,y,z
2 -x,-y,-z
_cell_length_a 7.562(2)
_cell_length_b 8.352(2)
_cell_length_c 12.790(2)
_cell_angle_alpha 91.73(2)
_cell_angle_beta 100.83(2)
_cell_angle_gamma 116.33(1)
_cell_formula_units_Z 2
loop_
_atom_type_symbol
_atom_type_radius_bond
C 0.68
H 0.23
N 0.68
O 0.68
loop_
_atom_site_label
_atom_site_type_symbol
_atom_site_fract_x
_atom_site_fract_y
_atom_site_fract_z
C1 C 0.3483(2) -0.0770(2) 0.2035(1)
C2 C 0.4722(2) -0.1605(2) 0.1688(1)
C3 C 0.3380(3) -0.3245(2) 0.0865(1)
C4 C 0.2209(3) -0.2797(2) -0.0078(1)
C5 C 0.0988(3) -0.1947(2) 0.0277(1)
C6 C 0.2324(3) -0.0291(2) 0.1108(1)
O1 O 0.4930(2) 0.0875(1) 0.2768(1)
O2 O 0.5676(2) -0.2136(1) 0.2584(1)
C7 C 0.4235(2) 0.1464(2) 0.3487(1)
O3 O 0.2571(2) 0.0693(2) 0.3659(1)
C8 C 0.5824(2) 0.3210(2) 0.4148(1)
C9 C 0.7058(2) 0.4748(2) 0.3748(1)
C10 C 0.8499(2) 0.6291(2) 0.4403(1)
C11 C 0.8679(2) 0.6275(2) 0.5493(1)
C12 C 0.7484(3) 0.4801(2) 0.5933(1)
C13 C 0.6063(3) 0.3281(2) 0.5251(1)
N1 N 0.6806(3) 0.4817(2) 0.2582(1)
O4 O 0.5097(2) 0.4011(2) 0.2027(1)
O5 O 0.8315(3) 0.5699(2) 0.2250(1)
N2 N 1.0224(2) 0.7902(2) 0.6217(1)
O6 O 1.0407(2) 0.7868(2) 0.7182(1)
O7 O 1.1236(2) 0.9202(2) 0.5804(1)
H1 H 0.24820 -0.16200 0.23690
H2 H 0.57390 -0.07190 0.13800
H3 H 0.42090 -0.36940 0.06080
H4 H 0.24380 -0.41540 0.12000
H5 H 0.13050 -0.38860 -0.05520
H6 H 0.31480 -0.19730 -0.04530
H7 H 0.03670 -0.15930 -0.03360
H8 H -0.00430 -0.28130 0.05870
H9 H 0.14900 0.01470 0.13700
H10 H 0.32650 0.06290 0.07780
H11 H 0.6603(26) -0.1244(22) 0.2932(13)
H12 H 0.93430 0.73350 0.41110
H13 H 0.76360 0.48320 0.66970
H14 H 0.52170 0.22450 0.55480
#END
