
#######################################################################
#
#                 Cambridge Crystallographic Data Centre
#                                CCDC
#
#######################################################################
#
# If this CIF has been generated from an entry in the Cambridge
# Structural Database, then it will include bibliographic, chemical,
# crystal, experimental, refinement or atomic coordinate data resulting
# from the CCDC's data processing and validation procedures.
#
#######################################################################

data_CSD_CIF_VAFCOV
_audit_creation_date 2003-03-19
_audit_creation_method CSD-ConQuest-V1
_database_code_CSD VAFCOV
_database_code_depnum_ccdc_archive 'CCDC 188723'
_chemical_formula_sum 'C15 H9 N1 O5'
_chemical_formula_moiety
;
C15 H9 N1 O5
;
_journal_coden_Cambridge 24
_journal_volume 43
_journal_year 2002
_journal_page_first 8153
_journal_name_full 'Tetrahedron Lett. '
loop_
_publ_author_name
"F.C.de Abreu"
"A.de O.Lopes"
"M.A.Pereita"
"C.A.De Simone"
"M.O.F.Goulart"
_chemical_name_systematic
;
2-(Nitroxymethyl)-9,10-anthraquinone
;
_chemical_melting_point 450.15
_cell_volume   1224.025
_exptl_crystal_colour 'colorless'
_exptl_crystal_density_diffrn 1.537
_exptl_special_details
;
Melting point range 450.15-450.95K
potential drug activity

;
_diffrn_ambient_temperature 293
#These two values have been output from a single CSD field.
_refine_ls_R_factor_gt 0.053
_refine_ls_wR_factor_gt 0.053
_symmetry_cell_setting monoclinic
_symmetry_space_group_name_H-M 'P 21/c'
_symmetry_Int_Tables_number 14
loop_
_symmetry_equiv_pos_site_id
_symmetry_equiv_pos_as_xyz
1 x,y,z
2 -x,1/2+y,1/2-z
3 -x,-y,-z
4 x,-1/2-y,-1/2+z
_cell_length_a 6.957(4)
_cell_length_b 21.740(1)
_cell_length_c 8.105(3)
_cell_angle_alpha 90
_cell_angle_beta 93.12(3)
_cell_angle_gamma 90
_cell_formula_units_Z 4
loop_
_atom_type_symbol
_atom_type_radius_bond
C 0.68
H 0.23
N 0.68
O 0.68
loop_
_atom_site_label
_atom_site_type_symbol
_atom_site_fract_x
_atom_site_fract_y
_atom_site_fract_z
O1 O 0.7406(4) 0.50225(11) 0.2708(2)
O2 O 0.5320(4) 0.68050(12) 1.2382(3)
O3 O 0.3675(4) 0.73969(13) 1.0685(3)
O4 O 0.8624(4) 0.39626(11) 0.8666(2)
N1 N 0.4719(4) 0.69719(14) 1.1043(3)
O5 O 0.5264(3) 0.66475(11) 0.9674(3)
C1 C 0.6550(5) 0.61425(16) 1.0057(4)
H1 H 0.60110 0.58750 1.08700
H2 H 0.77820 0.62950 1.05040
C2 C 0.6802(4) 0.57976(15) 0.8478(3)
C3 C 0.6503(4) 0.60701(15) 0.6929(4)
H3 H 0.61120 0.64790 0.68510
C4 C 0.6784(4) 0.57375(15) 0.5504(4)
H4 H 0.65740 0.59230 0.44760
C5 C 0.7376(4) 0.51312(14) 0.5608(3)
C6 C 0.7663(4) 0.47778(15) 0.4059(3)
C7 C 0.8294(4) 0.41269(15) 0.4210(3)
C8 C 0.8553(4) 0.37812(17) 0.2786(4)
H5 H 0.83160 0.39570 0.17490
C9 C 0.9161(5) 0.31786(18) 0.2920(4)
H6 H 0.93100 0.29460 0.19720
C10 C 0.9551(5) 0.29191(17) 0.4459(4)
H7 H 0.99950 0.25160 0.45390
C11 C 0.9287(5) 0.32521(15) 0.5879(4)
H8 H 0.95340 0.30710 0.69080
C12 C 0.8651(4) 0.38572(14) 0.5770(3)
C13 C 0.8348(4) 0.42054(14) 0.7310(3)
C14 C 0.7699(4) 0.48525(14) 0.7159(3)
C15 C 0.7400(4) 0.51929(15) 0.8590(3)
H9 H 0.76070 0.50100 0.96220
#END
