
#######################################################################
#
#                 Cambridge Crystallographic Data Centre
#                                CCDC
#
#######################################################################
#
# If this CIF has been generated from an entry in the Cambridge
# Structural Database, then it will include bibliographic, chemical,
# crystal, experimental, refinement or atomic coordinate data resulting
# from the CCDC's data processing and validation procedures.
#
#######################################################################

data_CSD_CIF_VAFCIP
_audit_creation_date 2003-03-19
_audit_creation_method CSD-ConQuest-V1
_database_code_CSD VAFCIP
_database_code_depnum_ccdc_archive 'CCDC 188722'
_chemical_formula_sum 'C12 H9 N1 O5'
_chemical_formula_moiety
;
C12 H9 N1 O5
;
_journal_coden_Cambridge 24
_journal_volume 43
_journal_year 2002
_journal_page_first 8153
_journal_name_full 'Tetrahedron Lett. '
loop_
_publ_author_name
"F.C.de Abreu"
"A.de O.Lopes"
"M.A.Pereita"
"C.A.De Simone"
"M.O.F.Goulart"
_chemical_name_systematic
;
2-Methyl-3-(nitroxymethyl)-(1,4)-naphthoquinone
;
_chemical_melting_point 381.35
_cell_volume   1115.651
_exptl_crystal_colour 'colorless'
_exptl_special_details
;
Melting point range 381.35-384.15K
potential drug activity

;
_exptl_crystal_preparation 'hexane/ethyl acetate'
_diffrn_ambient_temperature 293
#These two values have been output from a single CSD field.
_refine_ls_R_factor_gt 0.05
_refine_ls_wR_factor_gt 0.05
_symmetry_cell_setting monoclinic
_symmetry_space_group_name_H-M 'P 21/c'
_symmetry_Int_Tables_number 14
loop_
_symmetry_equiv_pos_site_id
_symmetry_equiv_pos_as_xyz
1 x,y,z
2 -x,1/2+y,1/2-z
3 -x,-y,-z
4 x,-1/2-y,-1/2+z
_cell_length_a 8.193(1)
_cell_length_b 11.351(2)
_cell_length_c 12.511(1)
_cell_angle_alpha 90
_cell_angle_beta 106.49(1)
_cell_angle_gamma 90
_cell_formula_units_Z 4
loop_
_atom_type_symbol
_atom_type_radius_bond
C 0.68
H 0.23
N 0.68
O 0.68
loop_
_atom_site_label
_atom_site_type_symbol
_atom_site_fract_x
_atom_site_fract_y
_atom_site_fract_z
O1 O 0.4547(2) -0.11481(17) 0.68069(15)
O2 O 0.2537(2) 0.02092(16) 0.82817(12)
C1 C 0.2005(3) 0.01361(18) 0.42399(16)
C2 C 0.3095(3) 0.06547(19) 0.65991(16)
C3 C 0.3639(3) -0.0456(2) 0.61692(18)
C4 C 0.3032(3) -0.06837(18) 0.49547(17)
C5 C 0.2080(3) 0.14413(19) 0.59262(17)
O3 O 0.1851(3) -0.0211(2) 0.97734(17)
N1 N 0.2800(3) 0.03596(18) 0.94157(15)
C6 C 0.3753(3) 0.0832(2) 0.78359(17)
H1 H 0.48850 0.05020 0.81240
H2 H 0.37900 0.16620 0.80230
O4 O 0.3892(2) 0.10218(17) 0.99059(14)
O5 O 0.0681(3) 0.19819(19) 0.40882(16)
C7 C 0.1478(4) 0.2551(2) 0.6335(2)
H3 H 0.07680 0.29790 0.57140
H4 H 0.24410 0.30260 0.67060
H5 H 0.08380 0.23590 0.68460
C8 C 0.1520(3) 0.12406(19) 0.46954(18)
C9 C 0.1466(3) -0.0085(2) 0.31025(19)
H6 H 0.07830 0.04600 0.26230
C10 C 0.1940(4) -0.1111(3) 0.2682(2)
H7 H 0.15780 -0.12560 0.19190
C11 C 0.3495(4) -0.1719(2) 0.4523(2)
H8 H 0.41710 -0.22730 0.49950
C12 C 0.2944(4) -0.1920(3) 0.3386(3)
H9 H 0.32580 -0.26100 0.30960
#END
