
#######################################################################
#
#                 Cambridge Crystallographic Data Centre
#                                CCDC
#
#######################################################################
#
# If this CIF has been generated from an entry in the Cambridge
# Structural Database, then it will include bibliographic, chemical,
# crystal, experimental, refinement or atomic coordinate data resulting
# from the CCDC's data processing and validation procedures.
#
#######################################################################

data_CSD_CIF_VAFCIO01
_audit_creation_date 2006-06-13
_audit_creation_method CSD-ConQuest-V1
_database_code_CSD VAFCIO01
_database_code_depnum_ccdc_archive 'CCDC 225917'
_chemical_formula_sum 'C16 H13 N1 O4'
_chemical_formula_moiety
;
C16 H13 N1 O4
;
_journal_coden_Cambridge 119
_journal_volume 738
_journal_year 2005
_journal_page_first 113
_journal_name_full 'J.Mol.Struct. '
loop_
_publ_author_name
"S.Chandrashekhar"
"D.Chopra"
"T.N.G.Row"
"R.Hota"
"T.Kanai"
_chemical_name_systematic
;
(+-)-indanyl 4-nitrobenzoate
;
_chemical_melting_point 349.15
_cell_volume   1411.840
_exptl_crystal_density_diffrn 1.333
_exptl_crystal_preparation 'ethyl acetate/hexane'
_diffrn_ambient_temperature 293
#These two values have been output from a single CSD field.
_refine_ls_R_factor_gt 0.0683
_refine_ls_wR_factor_gt 0.0683
_symmetry_cell_setting triclinic
_symmetry_space_group_name_H-M 'P -1'
_symmetry_Int_Tables_number 2
loop_
_symmetry_equiv_pos_site_id
_symmetry_equiv_pos_as_xyz
1 x,y,z
2 -x,-y,-z
_cell_length_a 8.170(5)
_cell_length_b 12.816(8)
_cell_length_c 13.986(9)
_cell_angle_alpha 100.216(10)
_cell_angle_beta 100.997(10)
_cell_angle_gamma 91.608(10)
_cell_formula_units_Z 4
loop_
_atom_type_symbol
_atom_type_radius_bond
C 0.68
H 0.23
N 0.68
O 0.68
loop_
_atom_site_label
_atom_site_type_symbol
_atom_site_fract_x
_atom_site_fract_y
_atom_site_fract_z
H1 H 0.407(4) 0.352(3) 0.095(3)
H2 H 0.835(5) 0.918(3) 0.917(3)
H3 H 0.795(6) 0.893(4) 1.054(4)
O1 O 0.2998(2) 0.72556(13) 0.72269(12)
O2 O 0.1014(3) 0.76122(15) 0.59945(14)
C1 C 0.1713(3) 0.5761(2) 0.47407(19)
C2 C 0.2026(3) 0.70344(19) 0.63261(18)
C3 C 0.3280(3) 0.52503(19) 0.6201(2)
C4 C 0.2926(3) 0.40939(18) 0.46440(19)
C5 C 0.2350(3) 0.59864(17) 0.57539(17)
O3 O 0.2468(3) 0.28478(19) 0.31952(19)
C6 C 0.2002(3) 0.4813(2) 0.4179(2)
O4 O 0.4327(3) 0.25473(16) 0.44179(18)
N1 N 0.3270(3) 0.30913(18) 0.4040(2)
C7 C 0.4466(3) 0.85321(19) 0.85955(19)
C8 C 0.3569(3) 0.4294(2) 0.5644(2)
C9 C 0.2884(3) 0.8315(2) 0.7830(2)
C10 C 0.4136(4) 0.8404(2) 0.9506(2)
C11 C 0.6039(4) 0.8827(3) 0.8461(3)
C12 C 0.1490(4) 0.8317(3) 0.8401(3)
C13 C 0.5427(9) 0.8560(3) 1.0317(3)
C14 C 0.7002(9) 0.8829(4) 1.0210(5)
C15 C 0.2292(5) 0.8104(3) 0.9414(3)
C16 C 0.7334(5) 0.8976(4) 0.9286(5)
O5 O 0.1350(2) 0.76054(13) 0.26749(13)
C17 C 0.2851(3) 1.04987(18) 0.55792(18)
C18 C 0.1668(3) 0.92529(18) 0.37569(18)
C19 C 0.2773(3) 0.88580(19) 0.44750(18)
N2 N 0.3516(4) 1.11782(19) 0.65539(18)
C20 C 0.3383(3) 0.9484(2) 0.53894(19)
C21 C 0.1746(3) 1.0908(2) 0.4885(2)
C22 C 0.1797(3) 0.6023(2) 0.15547(17)
O6 O 0.4519(4) 1.0823(2) 0.71545(17)
C23 C 0.1177(3) 1.0287(2) 0.3972(2)
C24 C 0.0980(4) 0.8612(2) 0.2758(2)
O7 O 0.0170(4) 0.89628(19) 0.2101(2)
C25 C 0.0959(3) 0.5043(2) 0.13849(18)
C26 C 0.0633(4) 0.6890(2) 0.1733(2)
O8 O 0.3062(4) 1.20769(19) 0.67074(19)
C27 C 0.1802(4) 0.4129(2) 0.1175(2)
C28 C 0.3460(4) 0.4218(3) 0.1138(3)
C29 C 0.3496(4) 0.6115(3) 0.1514(2)
C30 C -0.0858(4) 0.5133(3) 0.1442(3)
C31 C 0.4300(4) 0.5202(3) 0.1297(3)
C32 C -0.0997(5) 0.6294(4) 0.1807(5)
H4 H 0.401(3) 0.682(2) 0.161(2)
H5 H 0.311(3) 0.819(2) 0.4327(18)
H6 H 0.375(3) 0.5421(18) 0.6861(19)
H7 H 0.142(3) 1.158(2) 0.505(2)
H8 H 0.275(3) 0.881(2) 0.7362(18)
H9 H 0.415(3) 0.923(2) 0.590(2)
H10 H 0.108(3) 0.630(2) 0.444(2)
H11 H 0.418(4) 0.377(2) 0.595(2)
H12 H 0.158(4) 0.465(2) 0.351(2)
H13 H 0.054(4) 0.737(3) 0.120(2)
H14 H 0.047(3) 1.055(2) 0.348(2)
H15 H 0.546(5) 0.531(3) 0.127(3)
H16 H 0.109(4) 0.344(3) 0.112(2)
H17 H 0.055(4) 0.775(3) 0.802(3)
H18 H 0.624(4) 0.891(3) 0.778(3)
H19 H 0.185(5) 0.853(3) 1.000(3)
H20 H -0.118(5) 0.457(3) 0.177(3)
H21 H 0.212(5) 0.730(3) 0.950(3)
H22 H -0.160(5) 0.493(3) 0.074(3)
H23 H 0.104(4) 0.907(3) 0.845(3)
H24 H -0.199(7) 0.658(4) 0.156(4)
H25 H -0.108(8) 0.644(5) 0.244(5)
H26 H 0.505(5) 0.845(3) 1.096(3)
#END
