
#######################################################################
#
#                 Cambridge Crystallographic Data Centre
#                                CCDC
#
#######################################################################
#
# If this CIF has been generated from an entry in the Cambridge
# Structural Database, then it will include bibliographic, chemical,
# crystal, experimental, refinement or atomic coordinate data resulting
# from the CCDC's data processing and validation procedures.
#
#######################################################################

data_CSD_CIF_VAFCEK
_audit_creation_date 1989-08-09
_audit_creation_method CSD-ConQuest-V1
_database_code_CSD VAFCEK
_chemical_formula_sum 'C16 H15 N1 O4'
_chemical_formula_moiety
;
C16 H15 N1 O4
;
_journal_coeditor_code "IUCr AN0185"
_journal_coden_Cambridge 591
_journal_volume 45
_journal_year 1989
_journal_page_first 226
_journal_name_full 'Acta Crystallogr.,Sect.C:Cryst.Struct.Commun. '
loop_
_publ_author_name
"P.G.Jones"
"A.Dolle"
"A.J.Kirby"
"J.K.Parker"
_chemical_name_systematic
;
2,6-Dimethylbenzyl 4-nitrobenzoate
;
_chemical_melting_point 367
_cell_volume   1462.041
_exptl_crystal_colour 'colorless'
_exptl_crystal_density_diffrn 1.3
_exptl_special_details
;
Melting point range 367-367.5K
triclinic polymorph

;
_exptl_crystal_description 'blocks'
_diffrn_ambient_temperature ?
_diffrn_special_details
;
The study was carried out at room temperature,in the range 283-303K

;
_refine_special_details
;
The methyl groups are disordered and are refined as 6 half-occupied H atoms 
in a regular hexagon. Not retained.
;
#These two values have been output from a single CSD field.
_refine_ls_R_factor_gt 0.048
_refine_ls_wR_factor_gt 0.048
_symmetry_cell_setting triclinic
_symmetry_space_group_name_H-M 'P -1'
_symmetry_Int_Tables_number 2
loop_
_symmetry_equiv_pos_site_id
_symmetry_equiv_pos_as_xyz
1 x,y,z
2 -x,-y,-z
_cell_length_a 8.208(1)
_cell_length_b 13.496(1)
_cell_length_c 14.215(2)
_cell_angle_alpha 105.67(1)
_cell_angle_beta 103.13(1)
_cell_angle_gamma 93.99(1)
_cell_formula_units_Z 4
loop_
_atom_type_symbol
_atom_type_radius_bond
C 0.68
H 0.23
N 0.68
O 0.68
loop_
_atom_site_label
_atom_site_type_symbol
_atom_site_fract_x
_atom_site_fract_y
_atom_site_fract_z
C1 C -0.0424(3) 0.1438(2) 0.1600(2)
C2 C -0.0145(3) 0.1439(2) 0.0595(2)
C3 C 0.1487(3) 0.1462(2) 0.0464(2)
C4 C 0.1708(3) 0.1381(2) -0.0492(2)
C5 C 0.0364(3) 0.1284(2) -0.1295(2)
C6 C -0.1228(3) 0.1262(2) -0.1168(2)
C7 C -0.1519(3) 0.1346(2) -0.0227(2)
C8 C 0.3003(3) 0.1567(2) 0.1317(2)
C9 C -0.3307(4) 0.1321(3) -0.0130(3)
N1 N 0.3588(3) 0.6182(2) 0.6348(2)
O1 O 0.0266(2) 0.2446(1) 0.2340(1)
C10 C 0.0058(3) 0.2526(2) 0.3258(2)
C11 C 0.0995(3) 0.3498(2) 0.4030(2)
C12 C 0.1938(3) 0.4249(2) 0.3806(2)
C13 C 0.2800(3) 0.5128(2) 0.4565(2)
C14 C 0.2678(3) 0.5238(2) 0.5529(2)
C15 C 0.1767(3) 0.4514(2) 0.5776(2)
C16 C 0.0923(3) 0.3634(2) 0.5023(2)
O2 O 0.4475(3) 0.6792(2) 0.6125(2)
O3 O -0.0763(2) 0.1869(1) 0.3449(1)
O4 O 0.3345(3) 0.6302(2) 0.7186(2)
C17 C 0.4538(3) 0.7867(2) 0.3621(2)
C18 C 0.4146(3) 0.8945(2) 0.3686(2)
C19 C 0.2688(3) 0.9256(2) 0.3967(2)
C20 C 0.2357(3) 1.0254(2) 0.4011(2)
C21 C 0.3429(3) 1.0934(2) 0.3794(2)
C22 C 0.4844(3) 1.0632(2) 0.3513(2)
C23 C 0.5226(3) 0.9636(2) 0.3453(2)
C24 C 0.1479(3) 0.8539(2) 0.4214(2)
C25 C 0.6786(3) 0.9331(2) 0.3130(2)
N2 N 0.1392(3) 0.3951(2) -0.1792(2)
O5 O 0.3837(2) 0.7234(1) 0.2568(1)
C26 C 0.3997(3) 0.6228(2) 0.2367(2)
C27 C 0.3302(3) 0.5656(2) 0.1277(2)
C28 C 0.2344(3) 0.6096(2) 0.0612(2)
C29 C 0.1705(3) 0.5543(2) -0.0395(2)
C30 C 0.2071(3) 0.4552(2) -0.0716(2)
C31 C 0.3040(4) 0.4099(2) -0.0076(2)
C32 C 0.3646(3) 0.4654(2) 0.0936(2)
O6 O 0.4626(3) 0.5829(1) 0.2992(1)
O7 O 0.0181(3) 0.4233(2) -0.2288(2)
O8 O 0.2100(3) 0.3221(2) -0.2126(2)
H1 H 0.01300 0.09060 0.18200
H2 H -0.16130 0.13030 0.15390
H3 H 0.28280 0.13940 -0.05900
H4 H 0.05440 0.12320 -0.19500
H5 H -0.21660 0.11870 -0.17380
H6 H 0.19960 0.41620 0.31220
H7 H 0.34710 0.56500 0.44160
H8 H 0.17110 0.46130 0.64620
H9 H 0.02800 0.31120 0.51870
H10 H 0.40280 0.75940 0.40600
H11 H 0.57380 0.78710 0.38120
H12 H 0.13570 1.04760 0.41970
H13 H 0.31840 1.16280 0.38410
H14 H 0.55790 1.11130 0.33560
H15 H 0.21170 0.67960 0.08510
H16 H 0.10210 0.58460 -0.08570
H17 H 0.32960 0.34080 -0.03240
H18 H 0.43030 0.43430 0.13990
#END
