
#######################################################################
#
#                 Cambridge Crystallographic Data Centre
#                                CCDC
#
#######################################################################
#
# If this CIF has been generated from an entry in the Cambridge
# Structural Database, then it will include bibliographic, chemical,
# crystal, experimental, refinement or atomic coordinate data resulting
# from the CCDC's data processing and validation procedures.
#
#######################################################################

data_CSD_CIF_VAFCIO
_audit_creation_date 1989-08-09
_audit_creation_method CSD-ConQuest-V1
_database_code_CSD VAFCIO
_chemical_formula_sum 'C16 H13 N1 O4'
_chemical_formula_moiety
;
C16 H13 N1 O4
;
_journal_coeditor_code "IUCr AN0184"
_journal_coden_Cambridge 591
_journal_volume 45
_journal_year 1989
_journal_page_first 224
_journal_name_full 'Acta Crystallogr.,Sect.C:Cryst.Struct.Commun. '
loop_
_publ_author_name
"A.J.Kirby"
"J.K.Parker"
"P.R.Raithby"
_chemical_name_systematic
;
1-Indanol 4-nitrobenzoate ester
;
_chemical_melting_point 349
_cell_volume   1395.865
_exptl_crystal_density_diffrn 1.348
_exptl_special_details
;
Melting point range 349-350K
z(C26) is 0.6323, not 0.5323

;
_diffrn_ambient_temperature ?
_diffrn_special_details
;
The study was carried out at room temperature,in the range 283-303K

;
#These two values have been output from a single CSD field.
_refine_ls_R_factor_gt 0.058
_refine_ls_wR_factor_gt 0.058
_symmetry_cell_setting triclinic
_symmetry_space_group_name_H-M 'P -1'
_symmetry_Int_Tables_number 2
loop_
_symmetry_equiv_pos_site_id
_symmetry_equiv_pos_as_xyz
1 x,y,z
2 -x,-y,-z
_cell_length_a 8.116(1)
_cell_length_b 12.784(1)
_cell_length_c 13.954(2)
_cell_angle_alpha 100.15(1)
_cell_angle_beta 101.03(1)
_cell_angle_gamma 91.66(1)
_cell_formula_units_Z 4
loop_
_atom_type_symbol
_atom_type_radius_bond
C 0.68
H 0.23
N 0.68
O 0.68
loop_
_atom_site_label
_atom_site_type_symbol
_atom_site_fract_x
_atom_site_fract_y
_atom_site_fract_z
C1 C 0.9365(4) 0.8111(2) 0.8260(2)
C2 C 0.8208(3) 0.8978(2) 0.8447(2)
C3 C 0.9043(2) 0.9962(2) 0.8616(2)
C4 C 1.0868(4) 0.9872(3) 0.8560(3)
C5 C 1.0997(4) 0.8701(3) 0.8180(3)
C6 C 0.6505(4) 0.8884(3) 0.8480(2)
C7 C 0.5700(4) 0.9801(3) 0.8702(3)
C8 C 0.6539(4) 1.0787(3) 0.8862(3)
C9 C 0.8205(4) 1.0868(2) 0.8830(3)
O1 O 0.8649(3) 0.7397(1) 0.7324(1)
C10 C 0.9024(4) 0.6390(2) 0.7247(2)
O2 O 0.9833(4) 0.6037(2) 0.7898(2)
C11 C 0.8332(3) 0.5749(2) 0.6243(2)
C12 C 0.7228(3) 0.6145(2) 0.5529(2)
C13 C 0.6615(3) 0.5516(2) 0.4607(2)
C14 C 0.7147(3) 0.4494(2) 0.4419(2)
C15 C 0.8257(3) 0.4087(2) 0.5116(2)
C16 C 0.8828(3) 0.4709(2) 0.6027(2)
N1 N 0.6476(3) 0.3818(2) 0.3445(2)
O3 O 0.5461(4) 0.4178(2) 0.2846(2)
O4 O 0.6939(4) 0.2921(2) 0.3294(2)
C17 C 0.2887(3) 0.3313(2) 0.7822(2)
C18 C 0.4464(4) 0.3536(2) 0.8594(2)
C19 C 0.4126(4) 0.3402(2) 0.9513(2)
C20 C 0.2295(5) 0.3103(3) 0.9415(3)
C21 C 0.1495(4) 0.3312(3) 0.8397(3)
C22 C 0.6039(4) 0.3821(3) 0.8461(3)
C23 C 0.7327(5) 0.3969(3) 0.9293(4)
C24 C 0.7005(7) 0.3830(3) 1.0210(4)
C25 C 0.5418(7) 0.3560(3) 1.0312(3)
O5 O 0.2996(2) 0.2257(1) 0.7225(1)
C26 C 0.2019(3) 0.2036(2) 0.6323(2)
O6 O 0.1009(3) 0.2612(2) 0.5998(2)
C27 C 0.2345(3) 0.0987(2) 0.5755(2)
C28 C 0.1706(3) 0.0761(2) 0.4738(2)
C29 C 0.2006(3) -0.0190(2) 0.4174(2)
C30 C 0.2925(3) -0.0905(2) 0.4644(2)
C31 C 0.3568(3) -0.0707(2) 0.5642(2)
C32 C 0.3282(3) 0.0253(2) 0.6203(2)
N2 N 0.3271(3) -0.1913(2) 0.4041(2)
O7 O 0.2468(3) -0.2158(2) 0.3192(2)
O8 O 0.4325(3) -0.2453(2) 0.4415(2)
H1 H 0.95480 0.76860 0.87690
H2 H 1.11760 1.02930 0.81080
H3 H 1.15750 1.00950 0.92040
H4 H 1.11230 0.85910 0.75000
H5 H 1.19470 0.84450 0.85760
H6 H 0.59110 0.81980 0.83510
H7 H 0.45350 0.97520 0.87470
H8 H 0.59480 1.14190 0.89960
H9 H 0.87920 1.15560 0.89560
H10 H 0.68860 0.68590 0.56730
H11 H 0.58390 0.57820 0.41100
H12 H 0.86220 0.33800 0.49640
H13 H 0.95790 0.44300 0.65260
H14 H 0.27040 0.38180 0.73840
H15 H 0.21220 0.23660 0.94500
H16 H 0.18420 0.35360 0.99250
H17 H 0.10050 0.39890 0.84570
H18 H 0.06420 0.27610 0.80690
H19 H 0.62380 0.39120 0.78230
H20 H 0.84500 0.41700 0.92370
H21 H 0.79120 0.39240 1.07780
H22 H 0.52130 0.34820 1.09510
H23 H 0.10540 0.12680 0.44260
H24 H 0.15810 -0.03470 0.34700
H25 H 0.42070 -0.12230 0.59480
H26 H 0.37360 0.04090 0.69050
#END
