
#######################################################################
#
#                 Cambridge Crystallographic Data Centre
#                                CCDC
#
#######################################################################
#
# If this CIF has been generated from an entry in the Cambridge
# Structural Database, then it will include bibliographic, chemical,
# crystal, experimental, refinement or atomic coordinate data resulting
# from the CCDC's data processing and validation procedures.
#
#######################################################################

data_CSD_CIF_VAFQUQ
_audit_creation_date 2011-03-15
_audit_creation_method CSD-ConQuest-V1
_database_code_CSD VAFQUQ
_database_code_depnum_ccdc_archive 'CCDC 767571'
_chemical_formula_sum 'C11 H17 N1 O4'
_chemical_formula_moiety
;
C11 H17 N1 O4
;
_journal_coden_Cambridge 24
_journal_volume 51
_journal_year 2010
_journal_page_first 5801
_journal_name_full 'Tetrahedron Lett. '
loop_
_publ_author_name
"M.Buchlovic"
"S.Man"
"M.Potacek"
_chemical_name_systematic
;
Methyl 
6-hydroxy-3a,5,5-trimethyl-3a,4,5,6-tetrahydropyrrolo[1,2-b][1,2]oxazole-3-car
boxylate
;
_cell_volume    576.369
_exptl_crystal_density_diffrn 1.309
_diffrn_ambient_temperature 120
#These two values have been output from a single CSD field.
_refine_ls_R_factor_gt 0.0326
_refine_ls_wR_factor_gt 0.0326
_symmetry_cell_setting triclinic
_symmetry_space_group_name_H-M 'P -1'
_symmetry_Int_Tables_number 2
loop_
_symmetry_equiv_pos_site_id
_symmetry_equiv_pos_as_xyz
1 x,y,z
2 -x,-y,-z
_cell_length_a 7.6528(10)
_cell_length_b 8.2681(12)
_cell_length_c 10.5646(15)
_cell_angle_alpha 99.629(12)
_cell_angle_beta 110.257(13)
_cell_angle_gamma 106.072(12)
_cell_formula_units_Z 2
loop_
_atom_type_symbol
_atom_type_radius_bond
C 0.68
H 0.23
N 0.68
O 0.68
loop_
_atom_site_label
_atom_site_type_symbol
_atom_site_fract_x
_atom_site_fract_y
_atom_site_fract_z
O1 O 0.38562(13) -0.02878(12) 0.59467(9)
O2 O 0.76386(14) 0.34555(13) 1.04396(10)
O3 O 0.91321(13) 0.18226(13) 0.96195(9)
O4 O 0.14845(14) 0.14842(13) 0.42010(9)
H1 H 0.03400 0.09700 0.41520
N1 N 0.27253(15) 0.07506(14) 0.63349(10)
C1 C 0.28603(19) 0.21362(17) 0.56152(13)
H2 H 0.42340 0.25630 0.56440
C2 C 0.26470(19) 0.36234(17) 0.65672(13)
C3 C 0.3913(2) 0.35737(18) 0.80412(14)
H3 H 0.33460 0.38970 0.87140
H4 H 0.53010 0.44130 0.83920
C4 C 0.38792(18) 0.16750(17) 0.78909(12)
C5 C 0.58726(18) 0.14767(17) 0.81577(13)
C6 C 0.56902(18) 0.03295(17) 0.70342(13)
H5 H 0.67530 -0.00280 0.69950
C7 C 0.3481(2) 0.5370(2) 0.63051(17)
H6 H 0.27080 0.53060 0.53280
H7 H 0.48830 0.56160 0.64700
H8 H 0.33890 0.63120 0.69490
C8 C 0.0474(2) 0.3242(2) 0.63532(15)
H9 H -0.03350 0.31540 0.53770
H10 H 0.04040 0.41980 0.69980
H11 H -0.00360 0.21300 0.65480
C9 C 0.2879(2) 0.0717(2) 0.87068(14)
H12 H 0.27300 -0.05240 0.84490
H13 H 0.15590 0.08040 0.84780
H14 H 0.37030 0.12530 0.97210
C10 C 0.76034(19) 0.23644(17) 0.95087(13)
C11 C 1.0875(2) 0.2690(2) 1.09421(14)
H15 H 1.18850 0.21680 1.09630
H16 H 1.04980 0.25440 1.17250
H17 H 1.14240 0.39460 1.10350
#END
