
#######################################################################
#
#                 Cambridge Crystallographic Data Centre
#                                CCDC
#
#######################################################################
#
# If this CIF has been generated from an entry in the Cambridge
# Structural Database, then it will include bibliographic, chemical,
# crystal, experimental, refinement or atomic coordinate data resulting
# from the CCDC's data processing and validation procedures.
#
#######################################################################

data_CSD_CIF_VAGWUW
_audit_creation_date 2003-03-19
_audit_creation_method CSD-ConQuest-V1
_database_code_CSD VAGWUW
_database_code_depnum_ccdc_archive 'CCDC 204714'
_chemical_formula_sum 'C32 H21 N1 O2'
_chemical_formula_moiety
;
C32 H21 N1 O2
;
_journal_coeditor_code "IUCr FL6016"
_journal_coden_Cambridge 1370
_journal_volume 59
_journal_year 2003
_journal_page_first o227
_journal_name_full 'Acta Crystallogr.,Sect.E:Struct.Rep.Online '
loop_
_publ_author_name
"B.R.Kaafarani"
"B.Wex"
"A.G.Oliver"
"J.A.K.Bauer"
"D.C.Neckers"
_chemical_name_systematic
;
2,4-bis(Phenylethynyl)-4-phenyl-1-(4-nitrophenyl)butadiene
;
_cell_volume   2394.232
_exptl_crystal_colour 'orange'
_exptl_crystal_density_diffrn 1.253
_exptl_crystal_description 'needle'
_exptl_crystal_preparation 'methanol-methylene chloride'
_diffrn_ambient_temperature 173
_diffrn_radiation_probe x-ray
_diffrn_source synchrotron
#These two values have been output from a single CSD field.
_refine_ls_R_factor_gt 0.0587
_refine_ls_wR_factor_gt 0.0587
_symmetry_cell_setting monoclinic
_symmetry_space_group_name_H-M 'P 21/c'
_symmetry_Int_Tables_number 14
loop_
_symmetry_equiv_pos_site_id
_symmetry_equiv_pos_as_xyz
1 x,y,z
2 x,1/2-y,1/2+z
3 -x,-y,-z
4 -x,-1/2+y,-1/2-z
_cell_length_a 13.583(3)
_cell_length_b 7.6515(14)
_cell_length_c 23.399(5)
_cell_angle_alpha 90
_cell_angle_beta 100.093(11)
_cell_angle_gamma 90
_cell_formula_units_Z 4
loop_
_atom_type_symbol
_atom_type_radius_bond
C 0.68
H 0.23
N 0.68
O 0.68
loop_
_atom_site_label
_atom_site_type_symbol
_atom_site_fract_x
_atom_site_fract_y
_atom_site_fract_z
O1 O 0.02775(16) 0.9713(3) 0.13521(12)
O2 O -0.05727(15) 0.8194(3) 0.18773(11)
N1 N 0.02171(19) 0.8735(3) 0.17582(13)
C1 C 0.38061(18) 0.6603(3) 0.32111(12)
H1 H 0.37250 0.63620 0.35980
C2 C 0.47420(17) 0.6394(3) 0.30964(11)
C3 C 0.49742(17) 0.6450(3) 0.25153(11)
H2 H 0.44470 0.61190 0.22120
C4 C 0.58388(17) 0.6910(3) 0.23476(11)
C5 C 0.55104(19) 0.5937(3) 0.35773(12)
C6 C 0.6116(2) 0.5504(3) 0.39859(12)
C7 C 0.66254(18) 0.7693(3) 0.27574(11)
C8 C 0.72854(18) 0.8400(3) 0.30769(11)
C9 C 0.29091(18) 0.7152(3) 0.28175(11)
C10 C 0.29205(18) 0.8179(3) 0.23300(12)
H3 H 0.35440 0.85250 0.22350
C11 C 0.20470(19) 0.8709(3) 0.19798(12)
H4 H 0.20620 0.94120 0.16470
C12 C 0.11478(18) 0.8188(3) 0.21268(12)
C13 C 0.11026(19) 0.7179(3) 0.26037(13)
H5 H 0.04760 0.68330 0.26940
C14 C 0.19769(19) 0.6675(3) 0.29493(12)
H6 H 0.19520 0.59890 0.32850
C15 C 0.68427(18) 0.4998(3) 0.44801(11)
C16 C 0.6596(2) 0.3797(3) 0.48760(13)
H7 H 0.59420 0.33150 0.48240
C17 C 0.7305(2) 0.3304(3) 0.53474(12)
H8 H 0.71370 0.24730 0.56160
C18 C 0.8246(2) 0.4003(3) 0.54289(12)
H9 H 0.87270 0.36620 0.57550
C19 C 0.8495(2) 0.5194(3) 0.50418(12)
H10 H 0.91480 0.56830 0.51010
C20 C 0.78007(19) 0.5686(3) 0.45645(12)
H11 H 0.79810 0.64990 0.42940
C21 C 0.81010(18) 0.9151(3) 0.34704(11)
C22 C 0.7951(2) 1.0115(3) 0.39437(12)
H12 H 0.72910 1.03080 0.40130
C23 C 0.8757(3) 1.0803(4) 0.43174(14)
H13 H 0.86520 1.14660 0.46450
C24 C 0.9715(3) 1.0527(4) 0.42150(15)
H14 H 1.02680 1.10060 0.44720
C25 C 0.9872(2) 0.9574(4) 0.37489(14)
H15 H 1.05330 0.93820 0.36830
C26 C 0.90747(19) 0.8890(3) 0.33745(12)
H16 H 0.91870 0.82340 0.30470
C27 C 0.60290(18) 0.6674(3) 0.17517(11)
C28 C 0.6912(2) 0.7229(3) 0.15912(14)
H17 H 0.74030 0.77740 0.18740
C29 C 0.7102(3) 0.7023(4) 0.10406(16)
H18 H 0.77130 0.74350 0.09460
C30 C 0.6417(3) 0.6226(4) 0.06259(14)
H19 H 0.65380 0.61040 0.02400
C31 C 0.5545(2) 0.5600(4) 0.07773(14)
H20 H 0.50700 0.50190 0.04940
C32 C 0.5354(2) 0.5805(4) 0.13287(13)
H21 H 0.47530 0.53480 0.14250
#END
