
#######################################################################
#
#                 Cambridge Crystallographic Data Centre
#                                CCDC
#
#######################################################################
#
# If this CIF has been generated from an entry in the Cambridge
# Structural Database, then it will include bibliographic, chemical,
# crystal, experimental, refinement or atomic coordinate data resulting
# from the CCDC's data processing and validation procedures.
#
#######################################################################

data_CSD_CIF_VAJFUH
_audit_creation_date 1989-11-29
_audit_creation_method CSD-ConQuest-V1
_database_code_CSD VAJFUH
_database_code_depnum_ccdc_archive 'CCDC 1279343'
_chemical_formula_sum 'C6 H11 N1 O6'
_chemical_formula_moiety
;
C6 H11 N1 O6
;
_journal_coden_Cambridge 167
_journal_year 1988
_journal_page_first 685
_journal_name_full 'Liebigs Ann. '
loop_
_publ_author_name
"P.Koll"
"J.Kopf"
"D.Wess"
"H.Brandenburg"
_chemical_name_systematic
;
2,5-Anhydro-1-deoxy-1-nitro-D-altrohexitol
;
_chemical_melting_point 412.15
_cell_volume    426.640
_exptl_crystal_density_diffrn 1.5
_exptl_special_details
;
Melting point range 412.15-413.15K

;
_diffrn_ambient_temperature ?
_diffrn_special_details
;
The study was carried out at room temperature,in the range 283-303K

;
#These two values have been output from a single CSD field.
_refine_ls_R_factor_gt 0.026
_refine_ls_wR_factor_gt 0.026
_symmetry_cell_setting monoclinic
_symmetry_space_group_name_H-M 'P 21'
_symmetry_Int_Tables_number 4
loop_
_symmetry_equiv_pos_site_id
_symmetry_equiv_pos_as_xyz
1 x,y,z
2 -x,1/2+y,-z
_cell_length_a 5.349(2)
_cell_length_b 7.607(3)
_cell_length_c 10.688(4)
_cell_angle_alpha 90
_cell_angle_beta 101.18(3)
_cell_angle_gamma 90
_cell_formula_units_Z 2
loop_
_atom_type_symbol
_atom_type_radius_bond
C 0.68
H 0.23
N 0.68
O 0.68
loop_
_atom_site_label
_atom_site_type_symbol
_atom_site_fract_x
_atom_site_fract_y
_atom_site_fract_z
O1 O 0.2291(4) 0.9280(5) 0.4192(1)
O2 O 0.6074(4) 0.9547(5) 0.5166(2)
O3 O 0.3775(3) 0.73180 0.7255(1)
O4 O 0.2256(3) 1.0223(3) 0.8787(1)
O5 O 0.0643(3) 0.7223(3) 0.9964(1)
O6 O 0.5915(3) 0.3883(3) 0.8179(1)
N1 N 0.3839(5) 0.9638(4) 0.5130(2)
C1 C 0.2869(4) 1.0156(4) 0.6302(2)
C2 C 0.1792(4) 0.8556(4) 0.6847(2)
C3 C 0.0666(4) 0.8993(4) 0.8020(2)
C4 C 0.0872(4) 0.7189(4) 0.8663(2)
C5 C 0.3422(4) 0.6511(4) 0.8427(2)
C6 C 0.3481(5) 0.4536(4) 0.8312(2)
H1 H 0.150(5) 1.093(3) 0.602(2)
H2 H 0.429(4) 1.067(3) 0.689(2)
H3 H 0.045(4) 0.800(3) 0.622(2)
H4 H -0.105(4) 0.945(3) 0.783(2)
H5 H -0.054(4) 0.644(2) 0.825(2)
H6 H 0.477(4) 0.695(3) 0.913(2)
H7 H 0.218(4) 0.420(3) 0.756(2)
H8 H 0.304(4) 0.401(4) 0.908(2)
H9 H 0.124(5) 1.077(3) 0.924(2)
H10 H 0.180(5) 0.788(3) 1.036(2)
H11 H 0.616(4) 0.408(3) 0.740(2)
#END
