
#######################################################################
#
#                 Cambridge Crystallographic Data Centre
#                                CCDC
#
#######################################################################
#
# If this CIF has been generated from an entry in the Cambridge
# Structural Database, then it will include bibliographic, chemical,
# crystal, experimental, refinement or atomic coordinate data resulting
# from the CCDC's data processing and validation procedures.
#
#######################################################################

data_CSD_CIF_VAJGES
_audit_creation_date 1989-11-29
_audit_creation_method CSD-ConQuest-V1
_database_code_CSD VAJGES
_database_code_depnum_ccdc_archive 'CCDC 1279345'
_chemical_formula_sum 'C7 H13 N1 O7'
_chemical_formula_moiety
;
C7 H13 N1 O7
;
_journal_coden_Cambridge 167
_journal_year 1988
_journal_page_first 685
_journal_name_full 'Liebigs Ann. '
loop_
_publ_author_name
"P.Koll"
"J.Kopf"
"D.Wess"
"H.Brandenburg"
_chemical_name_systematic
;
2,5-Anhydro-1-deoxy-1-nitro-D-glycero-L-glucoheptitol
;
_chemical_name_common
;
3,6-Anhydro-7-desoxy-7-nitro-D-glycero-L-galactoheptitol
;
_chemical_melting_point 436.15
_cell_volume    943.079
_exptl_crystal_density_diffrn 1.57
_exptl_special_details
;
Melting point range 436.15-439.15K

;
_diffrn_ambient_temperature ?
_diffrn_special_details
;
The study was carried out at room temperature,in the range 283-303K

;
#These two values have been output from a single CSD field.
_refine_ls_R_factor_gt 0.05
_refine_ls_wR_factor_gt 0.05
_symmetry_cell_setting orthorhombic
_symmetry_space_group_name_H-M 'P 21 21 21'
_symmetry_Int_Tables_number 19
loop_
_symmetry_equiv_pos_site_id
_symmetry_equiv_pos_as_xyz
1 x,y,z
2 1/2+x,1/2-y,-z
3 -x,1/2+y,1/2-z
4 1/2-x,-y,1/2+z
_cell_length_a 5.254(2)
_cell_length_b 12.234(2)
_cell_length_c 14.672(2)
_cell_angle_alpha 90
_cell_angle_beta 90
_cell_angle_gamma 90
_cell_formula_units_Z 4
loop_
_atom_type_symbol
_atom_type_radius_bond
C 0.68
H 0.23
N 0.68
O 0.68
loop_
_atom_site_label
_atom_site_type_symbol
_atom_site_fract_x
_atom_site_fract_y
_atom_site_fract_z
O1 O 0.7497(4) -0.1799(2) 0.0052(2)
O2 O 0.6688(8) -0.1624(3) -0.1365(2)
O3 O 0.5286(4) 0.0599(2) 0.0774(1)
O4 O 0.0123(4) 0.0640(2) 0.0179(1)
O5 O 0.1958(4) -0.0113(2) 0.2501(1)
O6 O 0.6567(4) 0.2724(2) 0.1111(1)
O7 O 0.2959(5) 0.4114(2) 0.2050(2)
N1 N 0.6271(5) -0.1423(2) -0.0578(2)
C1 C 0.4041(5) -0.0694(2) -0.0383(2)
C2 C 0.3810(5) -0.0371(2) 0.0609(2)
C3 C 0.1142(5) -0.0032(2) 0.0875(2)
C4 C 0.1657(5) 0.0610(2) 0.1749(1)
C5 C 0.4222(5) 0.1151(2) 0.1560(2)
C6 C 0.4084(5) 0.2368(2) 0.1364(2)
C7 C 0.3206(8) 0.2967(2) 0.2209(2)
H1 H 0.25200 -0.10800 -0.05500
H2 H 0.41800 -0.00400 -0.07400
H3 H 0.43200 -0.10000 0.09500
H4 H -0.00800 -0.06000 0.09600
H5 H 0.03100 0.11100 0.19000
H6 H 0.52600 0.10800 0.20900
H7 H 0.28800 0.25100 0.08900
H8 H 0.43900 0.28400 0.27000
H9 H 0.15500 0.27000 0.23900
H10 H -0.16300 0.06300 0.03200
H11 H 0.34800 -0.03200 0.26900
H12 H 0.64400 0.32000 0.06100
H13 H 0.14900 0.43100 0.22600
#END
