
#######################################################################
#
#                 Cambridge Crystallographic Data Centre
#                                CCDC
#
#######################################################################
#
# If this CIF has been generated from an entry in the Cambridge
# Structural Database, then it will include bibliographic, chemical,
# crystal, experimental, refinement or atomic coordinate data resulting
# from the CCDC's data processing and validation procedures.
#
#######################################################################

data_CSD_CIF_VAKNEB
_audit_creation_date 2003-09-16
_audit_creation_method CSD-ConQuest-V1
_database_code_CSD VAKNEB
_database_code_depnum_ccdc_archive 'CCDC 194270'
_chemical_formula_sum 'C14 H25 N1 O2'
_chemical_formula_moiety
;
C14 H25 N1 O2
;
_journal_coden_Cambridge 1291
_journal_year 2003
_journal_page_first 1789
_journal_name_full 'Eur.J.Org.Chem. '
loop_
_publ_author_name
"C.Uncuta"
"A.Tudose"
"M.T.Caproiu"
"S.Udrea"
"C.Roussel"
_chemical_name_systematic
;
1,3-Di-t-butyl-5-methyl-2,7-dioxa-6-azabicyclo(3.2.1)oct-3-ene
;
_chemical_melting_point 390.15
_cell_volume   1475.586
_exptl_crystal_colour 'colorless'
_exptl_crystal_density_diffrn 1.077
_exptl_special_details
;
Melting point range 390.15-392.15K

;
_exptl_crystal_description 'prism'
_diffrn_ambient_temperature 293
#These two values have been output from a single CSD field.
_refine_ls_R_factor_gt 0.0569
_refine_ls_wR_factor_gt 0.0569
_symmetry_cell_setting monoclinic
_symmetry_space_group_name_H-M 'P 21/n'
_symmetry_Int_Tables_number 14
loop_
_symmetry_equiv_pos_site_id
_symmetry_equiv_pos_as_xyz
1 x,y,z
2 1/2+x,1/2-y,1/2+z
3 -x,-y,-z
4 -1/2-x,-1/2+y,-1/2-z
_cell_length_a 11.7550(5)
_cell_length_b 8.3880(2)
_cell_length_c 16.0820(7)
_cell_angle_alpha 90
_cell_angle_beta 111.478(2)
_cell_angle_gamma 90
_cell_formula_units_Z 4
loop_
_atom_type_symbol
_atom_type_radius_bond
C 0.68
H 0.23
N 0.68
O 0.68
loop_
_atom_site_label
_atom_site_type_symbol
_atom_site_fract_x
_atom_site_fract_y
_atom_site_fract_z
O1 O 0.73466(10) 0.12483(15) 0.82939(8)
O2 O 0.5409(1) 0.04685(12) 0.82038(7)
N1 N 0.73633(13) 0.15930(19) 0.74011(10)
H1 H 0.78150 0.25750 0.74910
C1 C 0.60623(14) 0.19551(19) 0.68806(10)
C2 C 0.57146(14) 0.29251(18) 0.75546(10)
H2 H 0.61390 0.39740 0.76790
H3 H 0.47860 0.30770 0.73460
C3 C 0.62231(13) 0.18122(17) 0.83434(9)
C4 C 0.50440(13) -0.02145(17) 0.73669(10)
C5 C 0.53555(15) 0.04090(19) 0.67222(10)
H4 H 0.51450 -0.01840 0.61480
C6 C 0.5956(2) 0.2819(3) 0.60260(12)
H5 H 0.64740 0.37990 0.61570
H6 H 0.62940 0.20340 0.56110
H7 H 0.50510 0.30960 0.56110
C7 C 0.64659(17) 0.2404(2) 0.92958(10)
C8 C 0.7367(2) 0.3807(3) 0.95114(14)
H8 H 0.69520 0.47800 0.90920
H9 H 0.75700 0.42400 1.01880
H10 H 0.82530 0.33110 0.94250
C9 C 0.7027(2) 0.1051(3) 0.99642(13)
H11 H 0.64250 0.00600 0.98250
H12 H 0.71280 0.14870 1.06400
H13 H 0.78650 0.05730 0.98430
C10 C 0.5259(2) 0.2948(3) 0.93660(14)
H14 H 0.54600 0.32430 1.00010
H15 H 0.49090 0.40080 0.89390
H16 H 0.48300 0.19070 0.93050
C11 C 0.42296(15) -0.16427(19) 0.73174(11)
C12 C 0.48558(18) -0.2758(2) 0.81072(14)
H17 H 0.56630 -0.32370 0.80430
H18 H 0.49630 -0.20660 0.86970
H19 H 0.42630 -0.36880 0.79810
C13 C 0.30314(18) -0.1021(3) 0.73712(18)
H20 H 0.31850 -0.02590 0.79350
H21 H 0.25750 -0.03830 0.67540
H22 H 0.24800 -0.19540 0.73240
C14 C 0.3968(2) -0.2563(3) 0.64498(15)
H23 H 0.34550 -0.34960 0.64290
H24 H 0.35230 -0.18880 0.59310
H25 H 0.48100 -0.29840 0.63940
#END
