
#######################################################################
#
#                 Cambridge Crystallographic Data Centre
#                                CCDC
#
#######################################################################
#
# If this CIF has been generated from an entry in the Cambridge
# Structural Database, then it will include bibliographic, chemical,
# crystal, experimental, refinement or atomic coordinate data resulting
# from the CCDC's data processing and validation procedures.
#
#######################################################################

data_CSD_CIF_VAKROR
_audit_creation_date 2016-03-09
_audit_creation_method CSD-ConQuest-V1
_database_code_CSD VAKROR
_database_code_depnum_ccdc_archive 'CCDC 1461796'
_chemical_formula_sum 'C21 H29 N1 O6'
_chemical_formula_moiety
;
C21 H29 N1 O6
;
_journal_coden_Cambridge 1336
_journal_volume 18
_journal_year 2016
_journal_page_first 1032
_journal_name_full 'Org.Lett. '
loop_
_publ_author_name
"Xin-Yue Shen"
"Xiao-Shui Peng"
"H.N.C.Wong"
_chemical_name_systematic
;
(3,5,6a-triethyl-3-hydroxyhexahydro-2H-cyclopenta[b]furan-4-yl)methyl 
4-nitrobenzoate
;
_cell_volume   2138.415
_exptl_crystal_colour 'colorless'
_exptl_crystal_density_diffrn 1.216
_exptl_crystal_description 'plate'
_diffrn_ambient_temperature 296
#These two values have been output from a single CSD field.
_refine_ls_R_factor_gt 0.061
_refine_ls_wR_factor_gt 0.061
_symmetry_cell_setting monoclinic
_symmetry_space_group_name_H-M 'P 21/n'
_symmetry_Int_Tables_number 14
loop_
_symmetry_equiv_pos_site_id
_symmetry_equiv_pos_as_xyz
1 x,y,z
2 1/2-x,1/2+y,1/2-z
3 -x,-y,-z
4 -1/2+x,-1/2-y,-1/2+z
_cell_length_a 15.7725(6)
_cell_length_b 9.1679(3)
_cell_length_c 16.4313(6)
_cell_angle_alpha 90
_cell_angle_beta 115.840(1)
_cell_angle_gamma 90
_cell_formula_units_Z 4
loop_
_atom_type_symbol
_atom_type_radius_bond
C 0.68
H 0.23
N 0.68
O 0.68
loop_
_atom_site_label
_atom_site_type_symbol
_atom_site_fract_x
_atom_site_fract_y
_atom_site_fract_z
N1 N 0.1019(2) 1.8496(3) 0.1571(2)
O1 O 0.46259(10) 0.94077(19) 0.08573(10)
O2 O 0.40464(13) 1.1898(2) -0.03913(10)
H1 H 0.44900 1.14580 -0.04110
O3 O 0.18224(13) 1.3115(2) -0.04112(11)
O4 O 0.06202(17) 1.4040(3) -0.15845(11)
O5 O 0.1599(2) 1.8456(3) 0.23597(17)
O6 O 0.0403(3) 1.9423(3) 0.1252(2)
C1 C 0.23730(15) 1.0696(3) -0.03746(14)
H2 H 0.18880 1.03650 -0.01950
C2 C 0.25953(16) 0.9386(3) -0.08376(14)
H3 H 0.30500 0.96990 -0.10610
C3 C 0.30899(17) 0.8371(3) -0.00409(15)
H4 H 0.34960 0.76990 -0.01620
H5 H 0.26330 0.78120 0.00770
C4 C 0.36708(14) 0.9345(3) 0.07682(13)
C5 C 0.32795(14) 1.0913(3) 0.05076(13)
H6 H 0.31120 1.12960 0.09750
C6 C 0.41124(16) 1.1815(3) 0.05076(14)
C7 C 0.49375(15) 1.0867(3) 0.11020(14)
H7 H 0.54830 1.10690 0.09930
H8 H 0.51030 1.10370 0.17360
C8 C 0.17463(19) 0.8707(4) -0.16219(17)
H9 H 0.12950 0.83930 -0.14040
H10 H 0.14450 0.94460 -0.20810
C9 C 0.1999(3) 0.7422(5) -0.2047(3)
H11 H 0.14380 0.70410 -0.25300
H12 H 0.22880 0.66780 -0.16000
H13 H 0.24300 0.77300 -0.22830
C10 C 0.36922(17) 0.8826(3) 0.16617(15)
H14 H 0.40670 0.95060 0.21340
H15 H 0.30560 0.88490 0.16100
C11 C 0.4087(2) 0.7310(3) 0.1944(2)
H16 H 0.40790 0.70670 0.25090
H17 H 0.47220 0.72780 0.20120
H18 H 0.37090 0.66220 0.14900
C12 C 0.4189(2) 1.3358(3) 0.0867(2)
H19 H 0.41050 1.33380 0.14170
H20 H 0.36850 1.39430 0.04270
C13 C 0.5131(3) 1.4077(4) 0.1066(3)
H21 H 0.51410 1.50470 0.12900
H22 H 0.52140 1.41210 0.05210
H23 H 0.56330 1.35170 0.15120
C14 C 0.1975(2) 1.2000(4) -0.09687(16)
H24 H 0.24130 1.23500 -0.11950
H25 H 0.13860 1.17520 -0.14800
C15 C 0.11599(17) 1.4081(3) -0.08051(14)
C16 C 0.11277(15) 1.5209(3) -0.01649(14)
C17 C 0.17044(17) 1.5120(3) 0.07602(14)
H26 H 0.21200 1.43430 0.09930
C18 C 0.16568(17) 1.6184(3) 0.13292(15)
H27 H 0.20320 1.61280 0.19490
C19 C 0.10497(18) 1.7325(3) 0.09684(17)
C20 C 0.0470(2) 1.7443(3) 0.00554(18)
H28 H 0.00620 1.82290 -0.01740
C21 C 0.05153(18) 1.6362(3) -0.05041(16)
H29 H 0.01260 1.64100 -0.11210
#END
