
#######################################################################
#
#                 Cambridge Crystallographic Data Centre
#                                CCDC
#
#######################################################################
#
# If this CIF has been generated from an entry in the Cambridge
# Structural Database, then it will include bibliographic, chemical,
# crystal, experimental, refinement or atomic coordinate data resulting
# from the CCDC's data processing and validation procedures.
#
#######################################################################

data_CSD_CIF_VALLOL
_audit_creation_date 2012-05-22
_audit_creation_method CSD-ConQuest-V1
_database_code_CSD VALLOL
_database_code_depnum_ccdc_archive 'CCDC 831575'
_chemical_formula_sum 'C18 H15 N1 O4'
_chemical_formula_moiety
;
C18 H15 N1 O4
;
_journal_coden_Cambridge 35
_journal_volume 76
_journal_year 2011
_journal_page_first 8869
_journal_name_full 'J.Org.Chem. '
loop_
_publ_author_name
"Dengfu Lu"
"Yirong Zhou"
"Yajun Li"
"Shaobai Yan"
"Yuefa Gong"
_chemical_name_systematic
;
1-(4-((3-(Nitromethyl)-2-benzofuran-1(3H)-ylidene)methyl)phenyl)ethanone
;
_cell_volume   1565.888
_exptl_crystal_colour 'yellow'
_exptl_crystal_density_diffrn 1.312
_exptl_crystal_description 'block'
_diffrn_ambient_temperature 298
_refine_special_details
;
O3,O4 and O3',O4' disordered over two sites with occupancies 0.81:0.19; O7,O8 
and O7',O8' disordered over two sites with occupancies 0.73:0.27.
;
#These two values have been output from a single CSD field.
_refine_ls_R_factor_gt 0.0671
_refine_ls_wR_factor_gt 0.0671
_symmetry_cell_setting monoclinic
_symmetry_space_group_name_H-M 'P 21'
_symmetry_Int_Tables_number 4
loop_
_symmetry_equiv_pos_site_id
_symmetry_equiv_pos_as_xyz
1 x,y,z
2 -x,1/2+y,-z
_cell_length_a 4.8303(9)
_cell_length_b 19.076(3)
_cell_length_c 16.995(3)
_cell_angle_alpha 90
_cell_angle_beta 90.576(4)
_cell_angle_gamma 90
_cell_formula_units_Z 4
loop_
_atom_type_symbol
_atom_type_radius_bond
C 0.68
H 0.23
N 0.68
O 0.68
loop_
_atom_site_label
_atom_site_type_symbol
_atom_site_fract_x
_atom_site_fract_y
_atom_site_fract_z
C1 C -0.4551(10) 0.0119(3) -0.1689(3)
H1 H -0.57530 0.02470 -0.21180
H2 H -0.56190 0.00640 -0.12200
H3 H -0.36370 -0.03140 -0.18090
C2 C -0.244(1) 0.0681(2) -0.1563(3)
C3 C -0.0880(9) 0.0724(2) -0.0817(3)
C4 C 0.0890(9) 0.1290(2) -0.0666(3)
H4 H 0.10380 0.16470 -0.10370
C5 C 0.2408(9) 0.1330(3) 0.0018(3)
H5 H 0.35770 0.17110 0.01000
C6 C 0.2235(9) 0.0812(2) 0.0589(2)
C7 C 0.0479(11) 0.0257(3) 0.0442(3)
H6 H 0.03280 -0.00930 0.08190
C8 C -0.1084(10) 0.0201(3) -0.0251(3)
H7 H -0.22450 -0.01810 -0.03330
C9 C 0.3728(9) 0.0822(3) 0.1338(3)
H8 H 0.32980 0.04560 0.16770
C10 C 0.5602(10) 0.1269(3) 0.1613(3)
C11 C 0.7075(10) 0.1260(3) 0.2376(3)
C12 C 0.8902(10) 0.1823(3) 0.2409(3)
C13 C 0.8728(9) 0.2210(2) 0.1628(2)
H9 H 1.04800 0.21710 0.13460
C14 C 1.0487(11) 0.1964(3) 0.3059(3)
H10 H 1.16410 0.23540 0.30810
C15 C 1.0302(13) 0.1500(4) 0.3687(3)
H11 H 1.14110 0.15710 0.41310
C16 C 0.8543(13) 0.0946(4) 0.3669(3)
H12 H 0.84440 0.06490 0.41020
C17 C 0.6887(11) 0.0815(3) 0.3011(3)
H13 H 0.56790 0.04360 0.30010
C18 C 0.7923(11) 0.2968(2) 0.1720(3)
H14 H 0.92100 0.31970 0.20780
H15 H 0.60880 0.29960 0.19440
C19 C -0.9399(10) 0.4591(3) 0.3377(3)
H16 H -0.84310 0.50250 0.33030
H17 H -1.05340 0.46240 0.38360
H18 H -1.05470 0.44980 0.29240
C20 C -0.7362(10) 0.4012(3) 0.3481(3)
C21 C -0.5705(9) 0.3976(2) 0.4228(2)
C22 C -0.5615(10) 0.4524(3) 0.4755(3)
H19 H -0.66790 0.49220 0.46580
C23 C -0.4000(11) 0.4494(3) 0.5411(3)
H20 H -0.39510 0.48810 0.57440
C24 C -0.2415(10) 0.3912(3) 0.5609(3)
C25 C -0.2487(10) 0.3352(2) 0.5061(2)
H21 H -0.14380 0.29520 0.51560
C26 C -0.4094(10) 0.3397(2) 0.4390(3)
H22 H -0.40930 0.30260 0.40360
C27 C -0.0794(10) 0.3910(3) 0.6328(3)
H23 H -0.07650 0.43380 0.65900
C28 C 0.0666(9) 0.3408(3) 0.6686(3)
C29 C 0.2244(9) 0.3437(3) 0.7422(2)
C30 C 0.3405(10) 0.2809(3) 0.7543(3)
C31 C 0.2425(9) 0.2309(2) 0.6922(3)
H24 H 0.11950 0.19580 0.71530
C32 C 0.5111(12) 0.2676(3) 0.8201(3)
H25 H 0.59000 0.22380 0.82830
C33 C 0.5561(12) 0.3209(4) 0.8709(3)
H26 H 0.66980 0.31380 0.91460
C34 C 0.4358(13) 0.3858(4) 0.8588(3)
H27 H 0.46720 0.42170 0.89490
C35 C 0.2707(12) 0.3975(3) 0.7942(3)
H28 H 0.19130 0.44130 0.78570
C36 C 0.4638(9) 0.1966(3) 0.6503(3)
H29 H 0.57860 0.17100 0.68760
H30 H 0.57860 0.23190 0.62570
N1 N 0.7939(16) 0.3343(3) 0.0929(4)
N2 N 0.3574(12) 0.1461(3) 0.5875(3)
O1 O -0.1966(8) 0.1097(2) -0.2090(2)
O2 O 0.6525(6) 0.18450(16) 0.12015(15)
O3 O 0.9775(18) 0.3230(5) 0.0482(5)
O4 O 0.5717(17) 0.3615(4) 0.0760(4)
O5 O 0.5014(19) 0.1384(4) 0.5309(5)
O6 O 0.1365(15) 0.1174(4) 0.5916(4)
O7 O -0.7057(8) 0.3568(2) 0.2970(2)
O8 O 0.0891(7) 0.27489(16) 0.63868(18)
O9? O 0.879(8) 0.2912(15) 0.0431(19)
O10? O 0.782(8) 0.3907(15) 0.0848(18)
O11? O 0.437(6) 0.1654(13) 0.5264(13)
O12? O 0.285(4) 0.0936(9) 0.6150(11)
#END
