
#######################################################################
#
#                 Cambridge Crystallographic Data Centre
#                                CCDC
#
#######################################################################
#
# If this CIF has been generated from an entry in the Cambridge
# Structural Database, then it will include bibliographic, chemical,
# crystal, experimental, refinement or atomic coordinate data resulting
# from the CCDC's data processing and validation procedures.
#
#######################################################################

data_CSD_CIF_VALPII
_audit_creation_date 2003-09-16
_audit_creation_method CSD-ConQuest-V1
_database_code_CSD VALPII
_chemical_formula_sum 'C5 H12 N6 O5'
_chemical_formula_moiety
;
C5 H12 N6 O5
;
_journal_coden_Cambridge 82
_journal_volume 43
_journal_year 2002
_journal_page_first 954
_journal_name_full 'Zh.Strukt.Khim.(Russ.)(J.Struct.Chem.) '
loop_
_publ_author_name
"A.D.Vasil'ev"
"A.M.Astakhov"
"L.A.Kruglyakova"
"R.S.Stepanov"
_chemical_name_systematic
;
N,N'-bis(2-(Nitroamino)ethyl)urea
;
_cell_volume   1009.855
_exptl_crystal_density_diffrn 1.553
_exptl_special_details
;
beta polymorph

;
_diffrn_ambient_temperature 295
#These two values have been output from a single CSD field.
_refine_ls_R_factor_gt 0.036
_refine_ls_wR_factor_gt 0.036
_symmetry_cell_setting monoclinic
_symmetry_space_group_name_H-M 'P 21/c'
_symmetry_Int_Tables_number 14
loop_
_symmetry_equiv_pos_site_id
_symmetry_equiv_pos_as_xyz
1 x,y,z
2 -x,1/2+y,1/2-z
3 -x,-y,-z
4 x,-1/2-y,-1/2+z
_cell_length_a 6.4141(6)
_cell_length_b 8.9561(8)
_cell_length_c 17.903(2)
_cell_angle_alpha 90
_cell_angle_beta 100.91(1)
_cell_angle_gamma 90
_cell_formula_units_Z 4
loop_
_atom_type_symbol
_atom_type_radius_bond
C 0.68
H 0.23
N 0.68
O 0.68
loop_
_atom_site_label
_atom_site_type_symbol
_atom_site_fract_x
_atom_site_fract_y
_atom_site_fract_z
O1 O 0.4083(3) 0.6284(2) 0.2363(1)
O2 O -0.0330(3) 0.5078(2) 0.3643(1)
O3 O -0.2243(4) 0.5904(2) 0.4427(1)
O4 O 0.3202(3) 0.5006(2) 0.0633(1)
O5 O 0.0213(3) 0.5892(2) 0.0831(1)
N1 N 0.3923(3) 0.8484(3) 0.2958(1)
N2 N 0.5600(3) 0.8331(3) 0.1947(1)
N3 N -0.0865(4) 0.7468(3) 0.3728(2)
N4 N -0.1153(4) 0.6090(3) 0.3941(2)
N5 N 0.2648(4) 0.7424(3) 0.0548(1)
N6 N 0.1996(4) 0.6048(2) 0.0693(1)
C1 C 0.4511(4) 0.7631(3) 0.2417(1)
C2 C 0.2725(4) 0.7937(3) 0.3502(1)
C3 C 0.0394(4) 0.7835(4) 0.3169(2)
C4 C 0.6325(4) 0.7575(3) 0.1335(2)
C5 C 0.4851(5) 0.7732(3) 0.0573(2)
H1 H 0.429(4) 0.931(3) 0.296(1)
H2 H 0.582(4) 0.922(3) 0.202(1)
H3 H -0.139(4) 0.807(3) 0.397(2)
H4 H 0.194(4) 0.804(3) 0.072(2)
#END
