
#######################################################################
#
#                 Cambridge Crystallographic Data Centre
#                                CCDC
#
#######################################################################
#
# If this CIF has been generated from an entry in the Cambridge
# Structural Database, then it will include bibliographic, chemical,
# crystal, experimental, refinement or atomic coordinate data resulting
# from the CCDC's data processing and validation procedures.
#
#######################################################################

data_CSD_CIF_VALSUY01
_audit_creation_date 2012-05-21
_audit_creation_method CSD-ConQuest-V1
_database_code_CSD VALSUY01
_database_code_depnum_ccdc_archive 'CCDC 812190'
_chemical_formula_sum 'C9 H8 N12 O28'
_chemical_formula_moiety
;
C9 H8 N12 O28
;
_journal_coden_Cambridge 29
_journal_volume 637
_journal_year 2011
_journal_page_first 2103
_journal_name_full 'Z.Anorg.Allg.Chem. '
loop_
_publ_author_name
"T.M.Klapotke"
"B.Krumm"
"R.Moll"
"S.F.Rest"
_chemical_name_systematic
;
1,1,1-Trinitro-2-(tris(2,2,2-trinitroethoxy)methoxy)ethane
;
_chemical_name_common
;
2,2,2-Trinitroethyl orthocarbonate
;
_cell_volume   2690.547
_exptl_crystal_colour 'colorless'
_exptl_crystal_density_diffrn 1.808
_exptl_special_details
;
beta polymorph

;
_exptl_crystal_description 'platelet'
_diffrn_ambient_temperature 258
#These two values have been output from a single CSD field.
_refine_ls_R_factor_gt 0.0875
_refine_ls_wR_factor_gt 0.0875
_symmetry_cell_setting tetragonal
_symmetry_space_group_name_H-M 'I -4 2 d'
_symmetry_Int_Tables_number 122
loop_
_symmetry_equiv_pos_site_id
_symmetry_equiv_pos_as_xyz
1 x,y,z
2 -x,-y,z
3 x,1/2-y,1/4-z
4 -x,1/2+y,1/4-z
5 y,1/2+x,1/4+z
6 -y,1/2-x,1/4+z
7 -y,x,-z
8 y,-x,-z
9 1/2+x,1/2+y,1/2+z
10 1/2-x,1/2-y,1/2+z
11 1/2+x,-y,3/4-z
12 1/2-x,y,3/4-z
13 1/2+y,x,3/4+z
14 1/2-y,-x,3/4+z
15 1/2-y,1/2+x,1/2-z
16 1/2+y,1/2-x,1/2-z
_cell_length_a 13.356(2)
_cell_length_b 13.356(2)
_cell_length_c 15.083(3)
_cell_angle_alpha 90
_cell_angle_beta 90
_cell_angle_gamma 90
_cell_formula_units_Z 4
loop_
_atom_type_symbol
_atom_type_radius_bond
C 0.68
H 0.23
N 0.68
O 0.68
loop_
_atom_site_label
_atom_site_type_symbol
_atom_site_fract_x
_atom_site_fract_y
_atom_site_fract_z
O1 O 0.5824(3) 0.9699(3) 0.6996(2)
C1 C 0.50000 1.00000 0.75000
C2 C 0.6381(6) 1.0471(5) 0.6576(4)
H1 H 0.66710 1.09340 0.70200
H2 H 0.59540 1.08580 0.61630
C3 C 0.7175(5) 0.9934(5) 0.6092(3)
O2 O 0.7816(5) 1.1505(6) 0.5753(4)
N1 N 0.7957(5) 0.9457(6) 0.6689(6)
N2 N 0.6774(7) 0.9088(9) 0.5537(6)
N3 N 0.7755(7) 1.0641(7) 0.5516(6)
O3 O 0.7753(7) 0.9350(9) 0.7436(6)
O4 O 0.6988(9) 0.8254(7) 0.5645(7)
O5 O 0.7815(13) 1.0222(10) 0.4723(5)
O6 O 0.6091(11) 0.9292(9) 0.5090(6)
O7 O 0.8785(8) 0.9409(13) 0.6338(10)
O1A O 0.4176(3) 1.0301(3) 0.6996(2)
O1N O 0.5301(3) 1.0824(3) 0.8004(2)
O1O O 0.4699(3) 0.9176(3) 0.8004(2)
C2A C 0.3619(6) 0.9529(5) 0.6576(4)
C2N C 0.4529(6) 1.1381(5) 0.8424(4)
C2O C 0.5471(6) 0.8619(5) 0.8424(4)
H1A H 0.33290 0.90660 0.70200
H1N H 0.40660 1.16710 0.79800
H1O H 0.59340 0.83290 0.79800
H2A H 0.40460 0.91420 0.61630
H2N H 0.41420 1.09540 0.88370
H2O H 0.58580 0.90460 0.88370
C3A C 0.2825(5) 1.0066(5) 0.6092(3)
C3N C 0.5066(5) 1.2175(5) 0.8908(3)
C3O C 0.4934(5) 0.7825(5) 0.8908(3)
O2A O 0.2184(5) 0.8495(6) 0.5753(4)
O2N O 0.3495(5) 1.2816(6) 0.9247(4)
O2O O 0.6505(5) 0.7184(6) 0.9247(4)
N1A N 0.2043(5) 1.0543(6) 0.6689(6)
N1N N 0.5543(5) 1.2957(6) 0.8311(6)
N1O N 0.4457(5) 0.7043(6) 0.8311(6)
N2A N 0.3226(7) 1.0912(9) 0.5537(6)
N2N N 0.5912(7) 1.1774(9) 0.9463(6)
N2O N 0.4088(7) 0.8226(9) 0.9463(6)
N3A N 0.2245(7) 0.9359(7) 0.5516(6)
N3N N 0.4359(7) 1.2755(7) 0.9484(6)
N3O N 0.5641(7) 0.7245(7) 0.9484(6)
O3A O 0.2247(7) 1.0650(9) 0.7436(6)
O3N O 0.5650(7) 1.2753(9) 0.7564(6)
O3O O 0.4350(7) 0.7247(9) 0.7564(6)
O4A O 0.3012(9) 1.1746(7) 0.5645(7)
O4N O 0.6746(9) 1.1988(7) 0.9355(7)
O4O O 0.3254(9) 0.8012(7) 0.9355(7)
O5A O 0.2185(13) 0.9778(10) 0.4723(5)
O5N O 0.4778(13) 1.2815(10) 1.0277(5)
O5O O 0.5222(13) 0.7185(10) 1.0277(5)
O6A O 0.3909(11) 1.0708(9) 0.5090(6)
O6N O 0.5708(11) 1.1091(9) 0.9910(6)
O6O O 0.4292(11) 0.8909(9) 0.9910(6)
O7A O 0.1215(8) 1.0591(13) 0.6338(10)
O7N O 0.5591(8) 1.3785(13) 0.8662(10)
O7O O 0.4409(8) 0.6215(13) 0.8662(10)
#END
