
#######################################################################
#
#                 Cambridge Crystallographic Data Centre
#                                CCDC
#
#######################################################################
#
# If this CIF has been generated from an entry in the Cambridge
# Structural Database, then it will include bibliographic, chemical,
# crystal, experimental, refinement or atomic coordinate data resulting
# from the CCDC's data processing and validation procedures.
#
#######################################################################

data_CSD_CIF_VALSUY
_audit_creation_date 2012-05-21
_audit_creation_method CSD-ConQuest-V1
_database_code_CSD VALSUY
_database_code_depnum_ccdc_archive 'CCDC 812189'
_chemical_formula_sum 'C9 H8 N12 O28'
_chemical_formula_moiety
;
C9 H8 N12 O28
;
_journal_coden_Cambridge 29
_journal_volume 637
_journal_year 2011
_journal_page_first 2103
_journal_name_full 'Z.Anorg.Allg.Chem. '
loop_
_publ_author_name
"T.M.Klapotke"
"B.Krumm"
"R.Moll"
"S.F.Rest"
_chemical_name_systematic
;
1,1,1-Trinitro-2-(tris(2,2,2-trinitroethoxy)methoxy)ethane
;
_chemical_name_common
;
2,2,2-Trinitroethyl orthocarbonate
;
_cell_volume   5019.379
_exptl_crystal_colour 'colorless'
_exptl_crystal_density_diffrn 1.938
_exptl_special_details
;
alpha polymorph

;
_exptl_crystal_description 'block'
_diffrn_ambient_temperature 200
#These two values have been output from a single CSD field.
_refine_ls_R_factor_gt 0.0326
_refine_ls_wR_factor_gt 0.0326
_symmetry_cell_setting orthorhombic
_symmetry_space_group_name_H-M 'F d d 2'
_symmetry_Int_Tables_number 43
loop_
_symmetry_equiv_pos_site_id
_symmetry_equiv_pos_as_xyz
1 x,y,z
2 -x,-y,z
3 1/4-x,1/4+y,1/4+z
4 1/4+x,1/4-y,1/4+z
5 x,1/2+y,1/2+z
6 -x,1/2-y,1/2+z
7 1/4-x,3/4+y,3/4+z
8 1/4+x,3/4-y,3/4+z
9 1/2+x,y,1/2+z
10 1/2-x,-y,1/2+z
11 3/4-x,1/4+y,3/4+z
12 3/4+x,1/4-y,3/4+z
13 1/2+x,1/2+y,z
14 1/2-x,1/2-y,z
15 3/4-x,3/4+y,1/4+z
16 3/4+x,3/4-y,1/4+z
_cell_length_a 16.6356(9)
_cell_length_b 18.7450(8)
_cell_length_c 16.0963(8)
_cell_angle_alpha 90
_cell_angle_beta 90
_cell_angle_gamma 90
_cell_formula_units_Z 8
loop_
_atom_type_symbol
_atom_type_radius_bond
C 0.68
H 0.23
N 0.68
O 0.68
loop_
_atom_site_label
_atom_site_type_symbol
_atom_site_fract_x
_atom_site_fract_y
_atom_site_fract_z
O1 O 0.56571(7) 0.02049(7) 0.31299(8)
O2 O 0.47734(7) 0.05805(7) 0.40727(8)
C1 C 0.50000 0.00000 0.36052(16)
O3 O 0.70011(9) 0.05210(7) 0.18992(8)
C2 C 0.62652(11) 0.13048(10) 0.26912(12)
O4 O 0.34592(10) 0.23829(8) 0.47756(10)
N1 N 0.32588(9) 0.12053(9) 0.55716(11)
O5 O 0.26331(9) 0.10239(8) 0.52473(9)
O6 O 0.67333(11) 0.20347(9) 0.16113(12)
N2 N 0.47233(9) 0.13275(9) 0.54895(10)
O7 O 0.33850(9) 0.13653(8) 0.62847(10)
N3 N 0.70398(9) 0.09113(8) 0.24933(10)
C3 C 0.39666(11) 0.12345(9) 0.49747(11)
O8 O 0.76205(8) 0.10259(8) 0.29342(10)
C4 C 0.55325(11) 0.08286(10) 0.26400(12)
H1 H 0.50540 0.10890 0.28450
H2 H 0.54340 0.06920 0.20550
O9 O 0.49369(9) 0.07965(8) 0.58533(9)
N4 N 0.38537(10) 0.19171(8) 0.44636(10)
O10 O 0.50334(9) 0.19079(8) 0.55016(10)
O11 O 0.55131(10) 0.21849(8) 0.20596(11)
O12 O 0.62946(10) 0.1317(1) 0.41271(10)
N5 N 0.64117(10) 0.16717(11) 0.35146(12)
N6 N 0.61710(12) 0.19004(9) 0.20504(11)
O13 O 0.41805(9) 0.19297(8) 0.37906(9)
O14 O 0.66709(12) 0.2277(1) 0.34845(12)
C5 C 0.40061(11) 0.0557(1) 0.44657(12)
H3 H 0.39600 0.01310 0.48270
H4 H 0.35700 0.05450 0.40480
O1A O 0.43429(7) -0.02049(7) 0.31299(8)
O2A O 0.52266(7) -0.05805(7) 0.40727(8)
O3A O 0.29989(9) -0.05210(7) 0.18992(8)
C2A C 0.37348(11) -0.13048(10) 0.26912(12)
O4A O 0.65408(10) -0.23829(8) 0.47756(10)
N1A N 0.67412(9) -0.12053(9) 0.55716(11)
O5A O 0.73669(9) -0.10239(8) 0.52473(9)
O6A O 0.32667(11) -0.20347(9) 0.16113(12)
N2A N 0.52767(9) -0.13275(9) 0.54895(10)
O7A O 0.66150(9) -0.13653(8) 0.62847(10)
N3A N 0.29602(9) -0.09113(8) 0.24933(10)
C3A C 0.60334(11) -0.12345(9) 0.49747(11)
O8A O 0.23795(8) -0.10259(8) 0.29342(10)
C4A C 0.44675(11) -0.08286(10) 0.26400(12)
H1A H 0.49460 -0.10890 0.28450
H2A H 0.45660 -0.06920 0.20550
O9A O 0.50631(9) -0.07965(8) 0.58533(9)
N4A N 0.61463(10) -0.19171(8) 0.44636(10)
O10A O 0.49666(9) -0.19079(8) 0.55016(10)
O11A O 0.44869(10) -0.21849(8) 0.20596(11)
O12A O 0.37054(10) -0.1317(1) 0.41271(10)
N5A N 0.35883(10) -0.16717(11) 0.35146(12)
N6A N 0.38290(12) -0.19004(9) 0.20504(11)
O13A O 0.58195(9) -0.19297(8) 0.37906(9)
O14A O 0.33291(12) -0.2277(1) 0.34845(12)
C5A C 0.59939(11) -0.0557(1) 0.44657(12)
H3A H 0.60400 -0.01310 0.48270
H4A H 0.64300 -0.05450 0.40480
#END
