
#######################################################################
#
#                 Cambridge Crystallographic Data Centre
#                                CCDC
#
#######################################################################
#
# If this CIF has been generated from an entry in the Cambridge
# Structural Database, then it will include bibliographic, chemical,
# crystal, experimental, refinement or atomic coordinate data resulting
# from the CCDC's data processing and validation procedures.
#
#######################################################################

data_CSD_CIF_VALTEJ
_audit_creation_date 2012-05-21
_audit_creation_method CSD-ConQuest-V1
_database_code_CSD VALTEJ
_database_code_depnum_ccdc_archive 'CCDC 812191'
_chemical_formula_sum 'C5 H6 N6 O14'
_chemical_formula_moiety
;
C5 H6 N6 O14
;
_journal_coden_Cambridge 29
_journal_volume 637
_journal_year 2011
_journal_page_first 2103
_journal_name_full 'Z.Anorg.Allg.Chem. '
loop_
_publ_author_name
"T.M.Klapotke"
"B.Krumm"
"R.Moll"
"S.F.Rest"
_chemical_name_systematic
;
1,1,1-Trinitro-2-((2,2,2-trinitroethoxy)methoxy)ethane
;
_chemical_name_common
;
2,2,2-Trinitroethyl formal
;
_cell_volume   1397.463
_exptl_crystal_colour 'colorless'
_exptl_crystal_density_diffrn 1.778
_exptl_special_details
;
alpha polymorph

;
_exptl_crystal_description 'block'
_diffrn_ambient_temperature 200
#These two values have been output from a single CSD field.
_refine_ls_R_factor_gt 0.0347
_refine_ls_wR_factor_gt 0.0347
_symmetry_cell_setting monoclinic
_symmetry_space_group_name_H-M 'P 21/c'
_symmetry_Int_Tables_number 14
loop_
_symmetry_equiv_pos_site_id
_symmetry_equiv_pos_as_xyz
1 x,y,z
2 -x,1/2+y,1/2-z
3 -x,-y,-z
4 x,-1/2-y,-1/2+z
_cell_length_a 10.4605(5)
_cell_length_b 11.0072(5)
_cell_length_c 12.3025(6)
_cell_angle_alpha 90
_cell_angle_beta 99.409(4)
_cell_angle_gamma 90
_cell_formula_units_Z 4
loop_
_atom_type_symbol
_atom_type_radius_bond
C 0.68
H 0.23
N 0.68
O 0.68
loop_
_atom_site_label
_atom_site_type_symbol
_atom_site_fract_x
_atom_site_fract_y
_atom_site_fract_z
O1 O 0.24468(12) -0.04813(12) 0.80406(10)
O2 O 0.20826(11) 0.15363(11) 0.7520(1)
N1 N 0.16262(17) -0.15643(15) 1.06544(14)
O3 O 0.24279(15) -0.17603(16) 1.14602(12)
N2 N 0.32555(15) 0.33150(18) 0.93652(13)
N3 N 0.20813(16) 0.38886(15) 0.75533(16)
C1 C 0.20146(16) -0.16392(17) 0.95229(14)
O4 O 0.36178(14) 0.42451(15) 0.98321(11)
N4 N 0.44642(17) 0.39911(17) 0.79837(14)
O5 O 0.05024(13) -0.12829(14) 1.06206(11)
C2 C 0.33629(16) 0.19814(17) 0.76896(15)
H1 H 0.37100 0.19970 0.69880
H2 H 0.39320 0.14640 0.82220
O6 O 0.43129(16) 0.50130(16) 0.76498(14)
N5 N 0.34530(17) -0.19066(19) 0.96339(15)
O7 O 0.20089(15) 0.39627(14) 0.65680(12)
O8 O 0.13074(14) 0.42284(16) 0.81122(14)
O9 O 0.37711(15) -0.28310(17) 0.92286(14)
C3 C 0.32889(15) 0.32513(17) 0.81385(14)
O10 O 0.54803(13) 0.34780(16) 0.82565(13)
C4 C 0.19772(19) 0.03155(18) 0.71804(15)
H3 H 0.10570 0.01250 0.69030
H4 H 0.24710 0.01950 0.65670
O11 O 0.28716(17) 0.24209(17) 0.97733(11)
N6 N 0.12812(18) -0.27386(18) 0.90084(18)
O12 O 0.07601(14) -0.26440(16) 0.80728(14)
O13 O 0.41453(14) -0.11232(17) 1.00999(13)
C5 C 0.17050(18) -0.04718(18) 0.89062(15)
H5 H 0.07680 -0.04250 0.86070
H6 H 0.19420 0.02330 0.93970
O14 O 0.1274(2) -0.36116(16) 0.96092(17)
#END
