
#######################################################################
#
#                 Cambridge Crystallographic Data Centre
#                                CCDC
#
#######################################################################
#
# If this CIF has been generated from an entry in the Cambridge
# Structural Database, then it will include bibliographic, chemical,
# crystal, experimental, refinement or atomic coordinate data resulting
# from the CCDC's data processing and validation procedures.
#
#######################################################################

data_CSD_CIF_VALTEJ01
_audit_creation_date 2012-05-21
_audit_creation_method CSD-ConQuest-V1
_database_code_CSD VALTEJ01
_database_code_depnum_ccdc_archive 'CCDC 812192'
_chemical_formula_sum 'C5 H6 N6 O14'
_chemical_formula_moiety
;
C5 H6 N6 O14
;
_journal_coden_Cambridge 29
_journal_volume 637
_journal_year 2011
_journal_page_first 2103
_journal_name_full 'Z.Anorg.Allg.Chem. '
loop_
_publ_author_name
"T.M.Klapotke"
"B.Krumm"
"R.Moll"
"S.F.Rest"
_chemical_name_systematic
;
1,1,1-Trinitro-2-((2,2,2-trinitroethoxy)methoxy)ethane
;
_chemical_name_common
;
2,2,2-Trinitroethyl formal
;
_cell_volume   1347.612
_exptl_crystal_colour 'colorless'
_exptl_crystal_density_diffrn 1.844
_exptl_special_details
;
beta polymorph

;
_exptl_crystal_description 'platelet'
_diffrn_ambient_temperature 200
#These two values have been output from a single CSD field.
_refine_ls_R_factor_gt 0.034
_refine_ls_wR_factor_gt 0.034
_symmetry_cell_setting orthorhombic
_symmetry_space_group_name_H-M 'P b c n'
_symmetry_Int_Tables_number 60
loop_
_symmetry_equiv_pos_site_id
_symmetry_equiv_pos_as_xyz
1 x,y,z
2 1/2-x,1/2-y,1/2+z
3 1/2+x,1/2-y,-z
4 -x,y,1/2-z
5 -x,-y,-z
6 -1/2+x,-1/2+y,-1/2-z
7 -1/2-x,-1/2+y,z
8 x,-y,-1/2+z
_cell_length_a 9.9980(6)
_cell_length_b 11.8416(7)
_cell_length_c 11.3826(9)
_cell_angle_alpha 90
_cell_angle_beta 90
_cell_angle_gamma 90
_cell_formula_units_Z 4
loop_
_atom_type_symbol
_atom_type_radius_bond
C 0.68
H 0.23
N 0.68
O 0.68
loop_
_atom_site_label
_atom_site_type_symbol
_atom_site_fract_x
_atom_site_fract_y
_atom_site_fract_z
O1 O 0.04232(12) 0.17664(9) 0.65441(13)
C1 C 0.00000 0.2430(3) 0.75000
O2 O 0.26737(16) 0.30003(11) 0.47223(18)
C2 C 0.25764(19) 0.13277(14) 0.5821(2)
N1 N 0.39259(18) 0.07995(15) 0.61198(18)
O3 O 0.31022(17) 0.06128(12) 0.39630(15)
O4 O 0.30981(16) 0.30598(12) 0.66001(19)
C3 C 0.15606(19) 0.10879(15) 0.6775(2)
H1 H 0.13120 0.02790 0.67700
H2 H 0.19380 0.12750 0.75560
O5 O 0.38647(13) -0.01749(11) 0.64247(16)
O6 O 0.49070(15) 0.13778(11) 0.6027(2)
N2 N 0.28059(18) 0.25852(15) 0.5687(2)
N3 N 0.2201(2) 0.08601(14) 0.46263(19)
O7 O 0.10215(17) 0.07698(16) 0.44204(16)
H3 H 0.0719(14) 0.2898(12) 0.7818(16)
O1C O -0.04232(12) 0.17664(9) 0.84559(13)
O2C O -0.26737(16) 0.30003(11) 1.02777(18)
C2C C -0.25764(19) 0.13277(14) 0.9179(2)
N1C N -0.39259(18) 0.07995(15) 0.88802(18)
O3C O -0.31022(17) 0.06128(12) 1.10370(15)
O4C O -0.30981(16) 0.30598(12) 0.83999(19)
C3C C -0.15606(19) 0.10879(15) 0.8225(2)
H1C H -0.13120 0.02790 0.82300
H2C H -0.19380 0.12750 0.74440
O5C O -0.38647(13) -0.01749(11) 0.85753(16)
O6C O -0.49070(15) 0.13778(11) 0.8973(2)
N2C N -0.28059(18) 0.25852(15) 0.9313(2)
N3C N -0.2201(2) 0.08601(14) 1.03737(19)
O7C O -0.10215(17) 0.07698(16) 1.05796(16)
H3C H -0.0719(14) 0.2898(12) 0.7182(16)
#END
