
#######################################################################
#
#                 Cambridge Crystallographic Data Centre
#                                CCDC
#
#######################################################################
#
# If this CIF has been generated from an entry in the Cambridge
# Structural Database, then it will include bibliographic, chemical,
# crystal, experimental, refinement or atomic coordinate data resulting
# from the CCDC's data processing and validation procedures.
#
#######################################################################

data_CSD_CIF_VALVIO
_audit_creation_date 2003-09-16
_audit_creation_method CSD-ConQuest-V1
_database_code_CSD VALVIO
_database_code_depnum_ccdc_archive 'CCDC 191971'
_chemical_formula_sum 'C18 H19 N3 O3'
_chemical_formula_moiety
;
C18 H19 N3 O3
;
_journal_coden_Cambridge 41
_journal_volume 47
_journal_year 2002
_journal_page_first 1042
_journal_name_full 'Kristallografiya(Russ.)(Crystallogr.Rep.) '
loop_
_publ_author_name
"V.B.Rybakov"
"E.V.Babaev"
"A.A.Tsisevich"
"A.V.Arakcheeva"
"A.Schoenleber"
_chemical_name_systematic
;
1-Piperidyl-4-(5-(4-nitrophenyl)oxazol-2-yl)buta-1,3-diene
;
_cell_volume   1656.541
_exptl_crystal_colour 'dark red'
_exptl_crystal_density_diffrn 1.305
_exptl_special_details
;
antimicrobial

;
_exptl_crystal_description 'prism'
_exptl_crystal_preparation 'acetonitrile'
_diffrn_ambient_temperature 295
#These two values have been output from a single CSD field.
_refine_ls_R_factor_gt 0.0992
_refine_ls_wR_factor_gt 0.0992
_symmetry_cell_setting monoclinic
_symmetry_space_group_name_H-M 'P 21'
_symmetry_Int_Tables_number 4
loop_
_symmetry_equiv_pos_site_id
_symmetry_equiv_pos_as_xyz
1 x,y,z
2 -x,1/2+y,-z
_cell_length_a 16.181(6)
_cell_length_b 5.939(3)
_cell_length_c 17.337(9)
_cell_angle_alpha 90
_cell_angle_beta 96.13(2)
_cell_angle_gamma 90
_cell_formula_units_Z 4
loop_
_atom_type_symbol
_atom_type_radius_bond
C 0.68
H 0.23
N 0.68
O 0.68
loop_
_atom_site_label
_atom_site_type_symbol
_atom_site_fract_x
_atom_site_fract_y
_atom_site_fract_z
N1 N 0.63186(2) 1.43364(7) 1.14739(3)
C1 C 0.62475(3) 1.65804(8) 1.18423(4)
H1 H 0.66580 1.67090 1.22900
H2 H 0.63540 1.77550 1.14770
C2 C 0.54478(2) 1.6852(4) 1.20726(3)
H3 H 0.54010 1.83460 1.22900
H4 H 0.53660 1.57640 1.24750
C3 C 0.47523(4) 1.65325(8) 1.13772(3)
H5 H 0.42070 1.66360 1.15590
H6 H 0.47970 1.76940 1.09910
C4 C 0.48681(3) 1.42755(8) 1.10357(5)
H7 H 0.47500 1.31270 1.14060
H8 H 0.44760 1.40930 1.05760
C5 C 0.56868(2) 1.3964(3) 1.08324(3)
H9 H 0.57790 1.49920 1.04150
H10 H 0.57400 1.24420 1.06410
C6 C 0.70604(3) 1.33050(8) 1.15208(4)
H11 H 0.74640 1.38690 1.18930
C7 C 0.72975(3) 1.15486(9) 1.10966(4)
H12 H 0.69300 1.09400 1.07020
C8 C 0.81055(3) 1.06473(8) 1.12570(5)
H13 H 0.84510 1.14100 1.16330
C9 C 0.84442(5) 0.88662(8) 1.09483(3)
H14 H 0.89840 0.84950 1.11450
C10 C 0.80547(2) 0.74592(8) 1.03394(3)
C11 C 0.80085(2) 0.46547(7) 0.95301(3)
C12 C 0.72776(3) 0.57780(8) 0.94649(4)
H15 H 0.68210 0.54230 0.91140
C13 C 0.83193(2) 0.27174(7) 0.91579(3)
C14 C 0.91458(3) 0.19961(9) 0.92953(5)
H16 H 0.95150 0.27840 0.96440
C15 C 0.94156(4) 0.01592(8) 0.89261(3)
H17 H 0.99640 -0.03180 0.90300
C16 C 0.88816(2) -0.09815(7) 0.84035(3)
C17 C 0.80713(3) -0.02964(9) 0.82474(5)
H18 H 0.77050 -0.10740 0.78920
C18 C 0.78170(4) 0.15315(8) 0.86203(3)
H19 H 0.72700 0.20080 0.85050
O1 O 0.85160(3) 0.57144(8) 1.00818(3)
N2 N 0.73033(3) 0.74995(10) 0.99844(3)
N3 N 0.915591(18) -0.30193(8) 0.80074(2)
O2 O 0.98589(2) -0.36921(17) 0.82015(5)
O3 O 0.86931(3) -0.38897(14) 0.74891(3)
N4 N 0.86875(3) -0.12044(7) 0.35440(3)
C19 C 0.93130(3) -0.0607(2) 0.41774(3)
H20 H 0.91860 -0.13420 0.46500
H21 H 0.93060 0.10070 0.42610
C20 C 1.01527(3) -0.13119(8) 0.39931(5)
H22 H 1.03600 -0.01580 0.36680
H23 H 1.05180 -0.13380 0.44740
C21 C 1.02288(4) -0.35141(8) 0.36022(3)
H24 H 1.02490 -0.46950 0.39900
H25 H 1.07520 -0.35430 0.33760
C22 C 0.95457(2) -0.40263(19) 0.29850(4)
H26 H 0.96820 -0.33720 0.25020
H27 H 0.95140 -0.56450 0.29140
C23 C 0.87528(3) -0.32226(8) 0.31369(4)
H28 H 0.84190 -0.30630 0.26410
H29 H 0.84960 -0.43920 0.34210
C24 C 0.79472(3) -0.01138(8) 0.34966(5)
H30 H 0.75480 -0.06730 0.31200
C25 C 0.76947(3) 0.16278(9) 0.38997(5)
H31 H 0.80500 0.22130 0.43080
C26 C 0.69032(3) 0.25969(9) 0.37202(5)
H32 H 0.65740 0.19330 0.33100
C27 C 0.65549(5) 0.43551(8) 0.40603(3)
H33 H 0.60030 0.46750 0.38910
C28 C 0.69510(2) 0.57593(8) 0.46506(3)
C29 C 0.69960(3) 0.85488(7) 0.54767(3)
C30 C 0.77277(3) 0.74518(8) 0.55261(4)
H34 H 0.81900 0.78470 0.58640
C31 C 0.66886(2) 1.04935(7) 0.58558(3)
C32 C 0.72252(4) 1.17673(8) 0.63867(3)
H35 H 0.77830 1.13680 0.64820
C33 C 0.69368(3) 1.35479(9) 0.67543(5)
H36 H 0.72900 1.43200 0.71220
C34 C 0.61240(2) 1.42449(8) 0.65938(3)
C35 C 0.55916(4) 1.30677(8) 0.60646(3)
H37 H 0.50430 1.35340 0.59550
C36 C 0.58651(3) 1.12459(9) 0.57059(5)
H38 H 0.55000 1.04680 0.53510
O4 O 0.64835(3) 0.74484(8) 0.48947(3)
N5 N 0.77068(3) 0.56645(10) 0.50130(4)
N6 N 0.582270(18) 1.61633(8) 0.69871(2)
O5 O 0.62874(3) 1.70135(14) 0.74886(3)
O6 O 0.51411(2) 1.68772(17) 0.67800(5)
#END
