
#######################################################################
#
#                 Cambridge Crystallographic Data Centre
#                                CCDC
#
#######################################################################
#
# If this CIF has been generated from an entry in the Cambridge
# Structural Database, then it will include bibliographic, chemical,
# crystal, experimental, refinement or atomic coordinate data resulting
# from the CCDC's data processing and validation procedures.
#
#######################################################################

data_CSD_CIF_VALVEK
_audit_creation_date 2003-09-16
_audit_creation_method CSD-ConQuest-V1
_database_code_CSD VALVEK
_database_code_depnum_ccdc_archive 'CCDC 191972'
_chemical_formula_sum 'C19 H21 N3 O3'
_chemical_formula_moiety
;
C19 H21 N3 O3
;
_journal_coden_Cambridge 41
_journal_volume 47
_journal_year 2002
_journal_page_first 1042
_journal_name_full 'Kristallografiya(Russ.)(Crystallogr.Rep.) '
loop_
_publ_author_name
"V.B.Rybakov"
"E.V.Babaev"
"A.A.Tsisevich"
"A.V.Arakcheeva"
"A.Schoenleber"
_chemical_name_systematic
;
1-Hexamethyleneimine-4-(5-(4-nitrophenyl)-1,3-oxazol-2-yl)buta-1,3-diene
;
_cell_volume   3564.892
_exptl_crystal_colour 'dark red'
_exptl_crystal_density_diffrn 1.265
_exptl_special_details
;
antimicrobial

;
_exptl_crystal_description 'plate'
_diffrn_ambient_temperature 295
#These two values have been output from a single CSD field.
_refine_ls_R_factor_gt 0.238
_refine_ls_wR_factor_gt 0.238
_symmetry_cell_setting monoclinic
_symmetry_space_group_name_H-M 'P 21/c'
_symmetry_Int_Tables_number 14
loop_
_symmetry_equiv_pos_site_id
_symmetry_equiv_pos_as_xyz
1 x,y,z
2 x,1/2-y,1/2+z
3 -x,-y,-z
4 -x,-1/2+y,-1/2-z
_cell_length_a 7.470(1)
_cell_length_b 10.990(2)
_cell_length_c 43.434(6)
_cell_angle_alpha 90
_cell_angle_beta 91.24(1)
_cell_angle_gamma 90
_cell_formula_units_Z 8
loop_
_atom_type_symbol
_atom_type_radius_bond
C 0.68
H 0.23
N 0.68
O 0.68
loop_
_atom_site_label
_atom_site_type_symbol
_atom_site_fract_x
_atom_site_fract_y
_atom_site_fract_z
N1 N 0.211(4) 0.9620(9) 0.0866(3)
C1 C 0.190(4) 0.8727(15) 0.0615(3)
H1 H 0.21640 0.79350 0.07040
H2 H 0.06440 0.87210 0.05550
C2 C 0.289(5) 0.8807(19) 0.0336(5)
H3 H 0.41470 0.87840 0.03960
H4 H 0.26500 0.80600 0.02230
C3 C 0.270(6) 0.9779(14) 0.0117(5)
H5 H 0.15900 0.96530 0.00010
H6 H 0.36690 0.97160 -0.00270
C4 C 0.269(5) 1.0998(19) 0.0236(6)
H7 H 0.39350 1.12310 0.02630
H8 H 0.22020 1.15060 0.00720
C5 C 0.181(5) 1.1372(18) 0.0511(3)
H9 H 0.05500 1.12080 0.04760
H10 H 0.19320 1.22510 0.05200
C6 C 0.222(6) 1.0944(15) 0.0817(5)
H11 H 0.14130 1.13390 0.09570
H12 H 0.34260 1.12050 0.08730
C7 C 0.294(6) 0.906(2) 0.1131(5)
H13 H 0.31520 0.82310 0.11320
C8 C 0.343(4) 0.9748(13) 0.1382(3)
H14 H 0.34130 1.05940 0.13780
C9 C 0.395(5) 0.9085(13) 0.1646(3)
H15 H 0.37060 0.82560 0.16360
C10 C 0.475(5) 0.9462(17) 0.1912(4)
H16 H 0.49490 1.02970 0.19190
C11 C 0.537(3) 0.8827(13) 0.2188(4)
O1 O 0.566(3) 0.9464(8) 0.24522(17)
C12 C 0.629(4) 0.8525(12) 0.2644(3)
C13 C 0.634(4) 0.7505(16) 0.2505(4)
H17 H 0.67100 0.67680 0.25890
N2 N 0.573(4) 0.7691(14) 0.2203(4)
C14 C 0.706(4) 0.8891(11) 0.2957(4)
C15 C 0.702(4) 1.0152(13) 0.3061(3)
H18 H 0.67430 1.07560 0.29180
C16 C 0.738(4) 1.0479(14) 0.3355(3)
H19 H 0.73210 1.12920 0.34130
C17 C 0.783(4) 0.958(1) 0.3573(4)
C18 C 0.785(5) 0.8340(13) 0.3495(4)
H20 H 0.80930 0.77520 0.36440
C19 C 0.752(5) 0.8021(15) 0.3199(4)
H21 H 0.75850 0.72020 0.31480
N3 N 0.826(4) 0.9894(10) 0.3888(4)
O2 O 0.835(4) 1.0997(12) 0.3956(3)
O3 O 0.871(5) 0.9093(13) 0.4078(3)
N4 N 1.378(4) 0.9725(11) 0.4077(3)
C20 C 1.403(3) 0.8778(16) 0.4314(4)
H22 H 1.42390 0.80220 0.42050
H23 H 1.51420 0.89720 0.44230
C21 C 1.274(5) 0.8515(19) 0.4544(5)
H24 H 1.15670 0.84060 0.44470
H25 H 1.30590 0.77670 0.46500
C22 C 1.268(6) 0.9498(17) 0.4762(5)
H26 H 1.38690 0.95910 0.48520
H27 H 1.18980 0.92520 0.49260
C23 C 1.209(4) 1.068(2) 0.4657(7)
H28 H 1.10100 1.05790 0.45320
H29 H 1.18010 1.11670 0.48340
C24 C 1.340(5) 1.1312(19) 0.4479(4)
H30 H 1.45790 1.11430 0.45660
H31 H 1.31880 1.21790 0.44980
C25 C 1.338(6) 1.0997(17) 0.4159(4)
H32 H 1.42440 1.15120 0.40570
H33 H 1.22090 1.11980 0.40730
C26 C 1.306(6) 0.920(2) 0.3798(5)
H34 H 1.28040 0.83740 0.37910
C27 C 1.275(5) 0.9906(13) 0.3543(3)
H35 H 1.27560 1.07520 0.35520
C28 C 1.243(5) 0.9265(13) 0.3267(3)
H36 H 1.25160 0.84240 0.32840
C29 C 1.200(5) 0.9680(17) 0.2981(4)
H37 H 1.21090 1.05180 0.29590
C30 C 1.142(4) 0.9050(14) 0.2702(4)
O4 O 1.083(3) 0.9706(8) 0.24552(17)
C31 C 1.051(3) 0.8760(12) 0.2245(3)
C32 C 1.086(4) 0.7720(16) 0.2361(4)
H38 H 1.07270 0.69730 0.22620
N5 N 1.147(4) 0.7898(14) 0.2663(4)
C33 C 0.977(4) 0.9101(13) 0.1928(4)
C34 C 0.917(4) 1.0326(14) 0.1849(3)
H39 H 0.93270 1.09410 0.19940
C35 C 0.841(4) 1.0605(14) 0.1573(4)
H40 H 0.80480 1.13980 0.15310
C36 C 0.817(4) 0.9688(12) 0.1351(4)
C37 C 0.871(4) 0.8484(14) 0.1408(4)
H41 H 0.85430 0.78860 0.12580
C38 C 0.947(4) 0.8211(16) 0.1684(4)
H42 H 0.98260 0.74110 0.17200
N6 N 0.745(4) 1.0021(10) 0.1053(4)
O5 O 0.724(4) 1.1126(12) 0.0997(3)
O6 O 0.722(5) 0.9237(13) 0.0848(3)
#END
