
#######################################################################
#
#                 Cambridge Crystallographic Data Centre
#                                CCDC
#
#######################################################################
#
# If this CIF has been generated from an entry in the Cambridge
# Structural Database, then it will include bibliographic, chemical,
# crystal, experimental, refinement or atomic coordinate data resulting
# from the CCDC's data processing and validation procedures.
#
#######################################################################

data_CSD_CIF_VAMBET
_audit_creation_date 2016-03-11
_audit_creation_method CSD-ConQuest-V1
_database_code_CSD VAMBET
_database_code_depnum_ccdc_archive 'CCDC 1456732'
_chemical_formula_sum 'C17 H12 N4 O3'
_chemical_formula_moiety
;
C17 H12 N4 O3
;
_journal_coeditor_code "su5283"
_journal_coden_Cambridge 1828
_journal_volume 72
_journal_year 2016
_journal_page_first 452
_journal_name_full 'Acta Crystallogr.,Sect.E:Cryst.Commun. '
loop_
_publ_author_name
"Kh U.Khodjaniyazov"
"J.M.Ashurov"
_chemical_name_systematic
;
9-(4-nitrobenzylidene)-8,9-dihydropyrido[2,3-d]pyrrolo[1,2-a]pyrimidin-5(7H)-o
ne
;
_cell_volume   1434.119
_exptl_crystal_colour 'yellow'
_exptl_crystal_density_diffrn 1.483
_exptl_crystal_description 'block'
_diffrn_ambient_temperature 293
#These two values have been output from a single CSD field.
_refine_ls_R_factor_gt 0.0571
_refine_ls_wR_factor_gt 0.0571
_symmetry_cell_setting monoclinic
_symmetry_space_group_name_H-M 'P 21/c'
_symmetry_Int_Tables_number 14
loop_
_symmetry_equiv_pos_site_id
_symmetry_equiv_pos_as_xyz
1 x,y,z
2 -x,1/2+y,1/2-z
3 -x,-y,-z
4 x,-1/2-y,-1/2+z
_cell_length_a 7.1755(3)
_cell_length_b 11.5855(3)
_cell_length_c 17.2515(5)
_cell_angle_alpha 90
_cell_angle_beta 90.360(3)
_cell_angle_gamma 90
_cell_formula_units_Z 4
loop_
_atom_type_symbol
_atom_type_radius_bond
C 0.68
H 0.23
N 0.68
O 0.68
loop_
_atom_site_label
_atom_site_type_symbol
_atom_site_fract_x
_atom_site_fract_y
_atom_site_fract_z
O1 O 0.7005(3) -0.09081(15) 0.54727(12)
O2 O 0.9284(3) 0.88109(16) 0.33072(13)
O3 O 0.9755(5) 0.7632(2) 0.23673(14)
N1 N 0.6413(3) 0.24377(15) 0.62105(12)
N2 N 0.7312(3) 0.10238(16) 0.52922(11)
N3 N 0.5181(4) 0.18637(18) 0.73866(13)
N4 N 0.9345(3) 0.78291(19) 0.30362(13)
C1 C 0.7062(3) 0.21345(18) 0.55449(13)
C2 C 0.6831(4) 0.00730(19) 0.57260(15)
C3 C 0.5521(4) -0.0476(2) 0.70117(16)
H1 H 0.56550 -0.12530 0.68910
C4 C 0.4772(4) -0.0150(2) 0.76967(16)
H2 H 0.43620 -0.06980 0.80510
C5 C 0.4631(5) 0.1021(2) 0.78581(16)
H3 H 0.41140 0.12320 0.83300
C6 C 0.5898(3) 0.15420(19) 0.66978(14)
C7 C 0.6088(3) 0.03714(19) 0.64897(13)
C8 C 0.7641(3) 0.29244(19) 0.49255(13)
C9 C 0.8364(4) 0.2207(2) 0.42615(14)
H4 H 0.96780 0.23560 0.41780
H5 H 0.76850 0.23790 0.37870
C10 C 0.8050(4) 0.0949(2) 0.45079(15)
H6 H 0.71670 0.05720 0.41640
H7 H 0.92130 0.05220 0.45030
C11 C 0.7470(3) 0.4070(2) 0.50057(14)
H8 H 0.69390 0.43080 0.54690
C12 C 0.7990(3) 0.50060(19) 0.44770(13)
C13 C 0.8910(4) 0.4833(2) 0.37725(15)
H9 H 0.92310 0.40890 0.36210
C14 C 0.9345(4) 0.5759(2) 0.33012(14)
H10 H 0.99380 0.56430 0.28300
C15 C 0.8886(3) 0.6858(2) 0.35404(13)
C16 C 0.8010(4) 0.7066(2) 0.42325(14)
H11 H 0.77320 0.78160 0.43850
C17 C 0.7552(3) 0.6140(2) 0.46970(14)
H12 H 0.69440 0.62700 0.51630
#END
