
#######################################################################
#
#                 Cambridge Crystallographic Data Centre
#                                CCDC
#
#######################################################################
#
# If this CIF has been generated from an entry in the Cambridge
# Structural Database, then it will include bibliographic, chemical,
# crystal, experimental, refinement or atomic coordinate data resulting
# from the CCDC's data processing and validation procedures.
#
#######################################################################

data_CSD_CIF_VAMPEG
_audit_creation_date 2012-04-10
_audit_creation_method CSD-ConQuest-V1
_database_code_CSD VAMPEG
_database_code_depnum_ccdc_archive 'CCDC 834529'
_chemical_formula_sum 'C17 H23 N3 O3'
_chemical_formula_moiety
;
C17 H23 N3 O3
;
_journal_coden_Cambridge 24
_journal_volume 53
_journal_year 2012
_journal_page_first 522
_journal_name_full 'Tetrahedron Lett. '
loop_
_publ_author_name
"L.O.Davis"
"W.F.M.Daniel"
"S.L.Tobey"
_chemical_name_systematic
;
(4-Nitrophenyl)(3,3,6-trimethyloctahydro-2H-indazol-2-yl)methanone
;
_cell_volume   3327.279
_exptl_crystal_colour 'yellow'
_exptl_crystal_density_diffrn 1.267
_exptl_crystal_description 'parallelepiped'
_diffrn_ambient_temperature 193
#These two values have been output from a single CSD field.
_refine_ls_R_factor_gt 0.0605
_refine_ls_wR_factor_gt 0.0605
_symmetry_cell_setting monoclinic
_symmetry_space_group_name_H-M 'P 21/n'
_symmetry_Int_Tables_number 14
loop_
_symmetry_equiv_pos_site_id
_symmetry_equiv_pos_as_xyz
1 x,y,z
2 1/2-x,1/2+y,1/2-z
3 -x,-y,-z
4 -1/2+x,-1/2-y,-1/2+z
_cell_length_a 8.0912(14)
_cell_length_b 11.382(2)
_cell_length_c 36.319(6)
_cell_angle_alpha 90
_cell_angle_beta 95.861(2)
_cell_angle_gamma 90
_cell_formula_units_Z 8
loop_
_atom_type_symbol
_atom_type_radius_bond
C 0.68
H 0.23
N 0.68
O 0.68
loop_
_atom_site_label
_atom_site_type_symbol
_atom_site_fract_x
_atom_site_fract_y
_atom_site_fract_z
O1 O 0.2434(2) -0.06388(14) 0.10795(5)
O2 O 0.7010(4) -0.2882(2) 0.27242(8)
O3 O 0.6949(4) -0.4209(2) 0.23054(7)
N1 N 0.3880(2) 0.09695(16) 0.12637(5)
N2 N 0.5055(3) 0.15739(17) 0.15201(6)
H1 H 0.601(3) 0.141(2) 0.1430(6)
N3 N 0.6651(3) -0.3226(2) 0.24113(8)
C1 C 0.3461(3) -0.0157(2) 0.13068(6)
C2 C 0.4643(3) 0.2823(2) 0.14435(7)
H2 H 0.36250 0.30280 0.15650
C3 C 0.4216(3) 0.2852(2) 0.10229(7)
H3 H 0.35320 0.35660 0.09540
C4 C 0.3123(3) 0.1746(2) 0.09567(7)
C5 C 0.4292(3) -0.0881(2) 0.16236(6)
C6 C 0.4310(4) -0.2085(2) 0.15591(8)
H4 H 0.37930 -0.23850 0.13320
C7 C 0.5058(4) -0.2849(2) 0.18170(8)
H5 H 0.50790 -0.36690 0.17680
C8 C 0.5770(3) -0.2407(2) 0.21444(7)
C9 C 0.5726(4) -0.1234(2) 0.22259(7)
H6 H 0.61900 -0.09480 0.24600
C10 C 0.4992(3) -0.0469(2) 0.19602(7)
H7 H 0.49710 0.03490 0.20110
C11 C 0.6052(4) 0.3642(2) 0.15915(8)
H8 H 0.56160 0.44540 0.15940
H9 H 0.64170 0.34200 0.18510
C12 C 0.7539(3) 0.3630(2) 0.13749(8)
H10 H 0.80830 0.28420 0.14060
C13 C 0.6987(4) 0.3811(2) 0.09672(8)
H11 H 0.79690 0.37880 0.08260
H12 H 0.64630 0.45940 0.09310
C14 C 0.5757(3) 0.2869(2) 0.08211(7)
H13 H 0.54320 0.30090 0.05540
H14 H 0.63040 0.20920 0.08460
C15 C 0.8793(4) 0.4567(3) 0.15272(10)
H15 H 0.82740 0.53440 0.15030
H16 H 0.97660 0.45470 0.13870
H17 H 0.91400 0.44070 0.17890
C16 C 0.3212(3) 0.1190(2) 0.05765(7)
H18 H 0.43460 0.09140 0.05560
H19 H 0.29070 0.17760 0.03840
H20 H 0.24410 0.05250 0.05460
C17 C 0.1318(3) 0.2001(2) 0.10158(8)
H21 H 0.07000 0.12610 0.10170
H22 H 0.08200 0.25030 0.08150
H23 H 0.12750 0.24040 0.12530
O4 O 0.7534(2) 0.00188(17) 0.12299(5)
O5 O 1.2588(3) -0.2280(2) 0.28089(6)
O6 O 1.2406(3) -0.0419(2) 0.28800(6)
N4 N 0.8740(2) -0.15413(17) 0.09858(5)
N5 N 0.9947(3) -0.24677(17) 0.10188(6)
H24 H 1.092(3) -0.213(2) 0.0992(7)
N6 N 1.2125(3) -0.1308(3) 0.26987(7)
C18 C 0.8507(3) -0.0823(2) 0.12703(7)
C19 C 0.9427(3) -0.3218(2) 0.06999(6)
H25 H 0.84510 -0.36910 0.07620
C20 C 0.8810(3) -0.2346(2) 0.03924(6)
H26 H 0.80240 -0.27520 0.02030
C21 C 0.7857(3) -0.1435(2) 0.06041(7)
C22 C 0.9481(3) -0.1020(2) 0.16400(7)
C23 C 1.0021(3) -0.0021(2) 0.18372(7)
H27 H 0.97890 0.07340 0.17320
C24 C 1.0889(3) -0.0111(2) 0.21825(7)
H28 H 1.12800 0.05720 0.23140
C25 C 1.1178(3) -0.1210(2) 0.23331(7)
C26 C 1.0627(4) -0.2215(2) 0.21499(7)
H29 H 1.08250 -0.29650 0.22610
C27 C 0.9781(4) -0.2113(2) 0.18021(7)
H30 H 0.93980 -0.28000 0.16720
C28 C 1.0765(3) -0.4068(2) 0.06069(7)
H31 H 1.02330 -0.47090 0.04530
H32 H 1.12770 -0.44240 0.08400
C29 C 1.2141(3) -0.3528(2) 0.04022(7)
H33 H 1.28120 -0.29930 0.05770
C30 C 1.1374(3) -0.2797(2) 0.00784(7)
H34 H 1.22680 -0.24340 -0.00500
H35 H 1.07150 -0.33130 -0.01000
C31 C 1.0264(3) -0.1843(2) 0.02086(7)
H36 H 0.98310 -0.13570 -0.00060
H37 H 1.09280 -0.13280 0.03870
C32 C 1.3300(4) -0.4476(3) 0.02765(9)
H38 H 1.26630 -0.50210 0.01080
H39 H 1.38060 -0.49080 0.04930
H40 H 1.41740 -0.41070 0.01480
C33 C 0.7934(3) -0.0191(2) 0.04512(7)
H41 H 0.72410 0.03300 0.05860
H42 H 0.75250 -0.01910 0.01880
H43 H 0.90860 0.00880 0.04820
C34 C 0.6041(3) -0.1809(3) 0.06113(8)
H44 H 0.59990 -0.26270 0.06940
H45 H 0.54580 -0.17370 0.03620
H46 H 0.55060 -0.13020 0.07820
#END
