
#######################################################################
#
#                 Cambridge Crystallographic Data Centre
#                                CCDC
#
#######################################################################
#
# If this CIF has been generated from an entry in the Cambridge
# Structural Database, then it will include bibliographic, chemical,
# crystal, experimental, refinement or atomic coordinate data resulting
# from the CCDC's data processing and validation procedures.
#
#######################################################################

data_CSD_CIF_VANCEV
_audit_creation_date 2017-04-28
_audit_creation_method CSD-ConQuest-V1
_database_code_CSD VANCEV
_database_code_depnum_ccdc_archive 'CCDC 1544812'
_chemical_formula_sum 'C15 H17 N1 O2'
_chemical_formula_moiety
;
C15 H17 N1 O2
;
_journal_coeditor_code "hb4139"
_journal_coden_Cambridge 1959
_journal_volume 2
_journal_year 2017
_journal_page_first x170584
_journal_name_full 'IUCrData '
loop_
_publ_author_name
"A.Benharref"
"L.El Ammari"
"M.Saadi"
"N.Mazoir"
"J.-C.Daran"
"M.Berraho"
_chemical_name_systematic
;
4,7-dimethyl-1-nitro-2-(propan-2-yl)naphthalene
;
_cell_volume   1305.468
_exptl_crystal_colour 'yellow'
_exptl_crystal_density_diffrn 1.238
_exptl_crystal_description 'box'
_diffrn_ambient_temperature 173
#These two values have been output from a single CSD field.
_refine_ls_R_factor_gt 0.0401
_refine_ls_wR_factor_gt 0.0401
_symmetry_cell_setting orthorhombic
_symmetry_space_group_name_H-M 'P n m a'
_symmetry_Int_Tables_number 62
loop_
_symmetry_equiv_pos_site_id
_symmetry_equiv_pos_as_xyz
1 x,y,z
2 1/2-x,-y,1/2+z
3 -x,1/2+y,-z
4 1/2+x,1/2-y,1/2-z
5 -x,-y,-z
6 -1/2+x,y,-1/2-z
7 x,-1/2-y,z
8 -1/2-x,-1/2+y,-1/2+z
_cell_length_a 15.6744(12)
_cell_length_b 6.9475(5)
_cell_length_c 11.9880(8)
_cell_angle_alpha 90
_cell_angle_beta 90
_cell_angle_gamma 90
_cell_formula_units_Z 4
loop_
_atom_type_symbol
_atom_type_radius_bond
C 0.68
H 0.23
N 0.68
O 0.68
loop_
_atom_site_label
_atom_site_type_symbol
_atom_site_fract_x
_atom_site_fract_y
_atom_site_fract_z
C1 C 0.45971(10) 0.75000 0.51511(14)
C2 C 0.3787(1) 0.75000 0.56986(14)
C3 C 0.37553(10) 0.75000 0.68398(15)
H1 H 0.32130 0.75000 0.71940
C4 C 0.44979(11) 0.75000 0.75165(15)
C5 C 0.52612(10) 0.75000 0.69686(14)
C6 C 0.53587(10) 0.75000 0.57949(14)
C7 C 0.61626(11) 0.75000 0.52544(15)
H2 H 0.66680 0.75000 0.56920
C8 C 0.62275(11) 0.75000 0.41138(15)
C9 C 0.54670(12) 0.75000 0.34848(15)
H3 H 0.55020 0.75000 0.26940
C10 C 0.46828(11) 0.75000 0.39775(15)
H4 H 0.41860 0.75000 0.35240
C11 C 0.29772(11) 0.75000 0.50229(16)
C12 C 0.44162(12) 0.75000 0.87820(14)
H5 H 0.50050 0.75000 0.91020
C13 C 0.39654(12) 0.5696(2) 0.91927(12)
H6 H 0.39240 0.57300 1.00080
H7 H 0.42900 0.45570 0.89640
H8 H 0.33910 0.56370 0.88710
C14 C 0.70823(12) 0.75000 0.35406(17)
N1 N 0.60582(9) 0.75000 0.76224(12)
O1 O 0.63733(8) 0.90193(18) 0.78734(12)
H9? H 0.29140 0.87430 0.46450
H10? H 0.24880 0.72890 0.55180
H11? H 0.30020 0.64680 0.44660
H12? H 0.72470 0.61740 0.33650
H13? H 0.75100 0.80760 0.40340
H14? H 0.70460 0.82500 0.28500
C13F C 0.39654(12) 0.9304(2) 0.91927(12)
H6F H 0.39240 0.92700 1.00080
H7F H 0.42900 1.04430 0.89640
H8F H 0.33910 0.93630 0.88710
O1F O 0.63733(8) 0.59807(18) 0.78734(12)
#END
