
#######################################################################
#
#                 Cambridge Crystallographic Data Centre
#                                CCDC
#
#######################################################################
#
# If this CIF has been generated from an entry in the Cambridge
# Structural Database, then it will include bibliographic, chemical,
# crystal, experimental, refinement or atomic coordinate data resulting
# from the CCDC's data processing and validation procedures.
#
#######################################################################

data_CSD_CIF_VANKEA
_audit_creation_date 1990-01-22
_audit_creation_method CSD-ConQuest-V1
_database_code_CSD VANKEA
_chemical_formula_sum 'C38 H40 N2 O4'
_chemical_formula_moiety
;
C38 H40 N2 O4
;
_journal_coeditor_code "IUCr BX0285"
_journal_coden_Cambridge 591
_journal_volume 45
_journal_year 1989
_journal_page_first 760
_journal_name_full 'Acta Crystallogr.,Sect.C:Cryst.Struct.Commun. '
loop_
_publ_author_name
"H.G.Aurich"
"G.Baum"
"W.Massa"
"K.-D.Mogendorf"
_chemical_name_systematic
;
4,8-Dibenzoyl-2,6-di-t-butyl-4,8-diphenyl-3,7-dioxa-2,6-diazabicyclo(3.3.0)oct
ane
;
_cell_volume   3200.946
_exptl_crystal_colour 'colorless'
_exptl_crystal_density_diffrn 1.222
_diffrn_ambient_temperature ?
_diffrn_special_details
;
The study was carried out at room temperature,in the range 283-303K

;
#These two values have been output from a single CSD field.
_refine_ls_R_factor_gt 0.05
_refine_ls_wR_factor_gt 0.05
_symmetry_cell_setting monoclinic
_symmetry_space_group_name_H-M 'C c'
_symmetry_Int_Tables_number 9
loop_
_symmetry_equiv_pos_site_id
_symmetry_equiv_pos_as_xyz
1 x,y,z
2 1/2+x,1/2+y,z
3 x,-y,1/2+z
4 1/2+x,1/2-y,1/2+z
_cell_length_a 9.524(2)
_cell_length_b 18.681(5)
_cell_length_c 17.994(5)
_cell_angle_alpha 90
_cell_angle_beta 91.02(5)
_cell_angle_gamma 90
_cell_formula_units_Z 4
loop_
_atom_type_symbol
_atom_type_radius_bond
C 0.68
H 0.23
N 0.68
O 0.68
loop_
_atom_site_label
_atom_site_type_symbol
_atom_site_fract_x
_atom_site_fract_y
_atom_site_fract_z
O1 O 0.69330 0.1164(2) 0.55680
N1 N 0.6493(4) 0.0472(2) 0.5265(2)
C1 C 0.5053(5) 0.0592(3) 0.4972(3)
C2 C 0.4932(5) 0.0803(2) 0.4137(3)
C3 C 0.4204(5) 0.0187(3) 0.3703(3)
O2 O 0.4375(4) -0.0421(2) 0.3907(2)
C4 C 0.6658(5) -0.0089(3) 0.5848(3)
C5 C 0.6468(7) -0.0804(3) 0.5452(4)
C6 C 0.8189(5) -0.0029(3) 0.6132(3)
C7 C 0.5696(6) -0.0031(3) 0.6500(3)
C8 C 0.6295(5) 0.0946(3) 0.3730(3)
C9 C 0.6556(5) 0.1601(3) 0.3417(3)
C10 C 0.7762(7) 0.1718(4) 0.3017(3)
C11 C 0.8709(7) 0.1180(5) 0.2927(4)
C12 C 0.8462(7) 0.0520(5) 0.3227(4)
C13 C 0.7262(6) 0.0404(3) 0.3634(3)
C14 C 0.3326(5) 0.0331(3) 0.3003(3)
C15 C 0.2554(6) -0.0235(3) 0.2724(3)
C16 C 0.1720(6) -0.0146(3) 0.2083(3)
C17 C 0.1710(5) 0.0495(3) 0.1722(3)
C18 C 0.2468(6) 0.1055(3) 0.1985(3)
C19 C 0.3294(5) 0.0980(3) 0.2637(3)
O3 O 0.4089(3) 0.1435(2) 0.4127(2)
N2 N 0.3568(4) 0.1626(2) 0.4853(2)
C20 C 0.4446(5) 0.1230(3) 0.5380(3)
C21 C 0.5780(5) 0.1636(2) 0.5689(3)
C22 C 0.5612(6) 0.1772(3) 0.6518(3)
O4 O 0.4474(5) 0.1873(3) 0.6780(2)
C23 C 0.2015(5) 0.1482(3) 0.4882(3)
C24 C 0.1363(6) 0.1905(4) 0.4230(4)
C25 C 0.1598(6) 0.0708(3) 0.4828(4)
C26 C 0.1533(6) 0.1814(4) 0.5604(4)
C27 C 0.6085(5) 0.2348(3) 0.5314(3)
C28 C 0.5161(5) 0.2920(3) 0.5376(3)
C29 C 0.5476(7) 0.3564(3) 0.5040(3)
C30 C 0.6683(8) 0.3650(3) 0.4659(3)
C31 C 0.7612(6) 0.3101(3) 0.4605(3)
C32 C 0.7308(5) 0.2442(3) 0.4918(3)
C33 C 0.6902(6) 0.1786(3) 0.7042(3)
C34 C 0.6707(7) 0.1593(3) 0.7771(3)
C35 C 0.7881(9) 0.1583(4) 0.8263(4)
C36 C 0.9179(9) 0.1778(3) 0.8023(4)
C37 C 0.9370(7) 0.1968(3) 0.7301(4)
C38 C 0.8208(6) 0.1969(3) 0.6805(3)
H1 H 0.45880 0.01470 0.50380
H2 H 0.59000 0.19800 0.34760
H3 H 0.79310 0.21750 0.28050
H4 H 0.95410 0.12630 0.26570
H5 H 0.91120 0.01410 0.31560
H6 H 0.71020 -0.00530 0.38490
H7 H 0.25880 -0.06860 0.29670
H8 H 0.11610 -0.05310 0.19010
H9 H 0.11640 0.05490 0.12790
H10 H 0.24430 0.15000 0.17290
H11 H 0.38250 0.13730 0.28240
H12 H 0.65640 -0.11830 0.58020
H13 H 0.71600 -0.08530 0.50820
H14 H 0.55600 -0.08230 0.52250
H15 H 0.83570 -0.03770 0.65080
H16 H 0.83460 0.04350 0.63310
H17 H 0.88070 -0.01090 0.57320
H18 H 0.47480 -0.00680 0.63300
H19 H 0.58360 0.04170 0.67380
H20 H 0.58960 -0.04070 0.68410
H21 H 0.03750 0.18350 0.42180
H22 H 0.17470 0.17400 0.37770
H23 H 0.15650 0.23990 0.42910
H24 H 0.20050 0.04510 0.52330
H25 H 0.19220 0.05140 0.43740
H26 H 0.06040 0.06700 0.48420
H27 H 0.05530 0.17390 0.56530
H28 H 0.17250 0.23130 0.56000
H29 H 0.20210 0.15970 0.60100
H30 H 0.38460 0.11280 0.57830
H31 H 0.43190 0.28680 0.56470
H32 H 0.48390 0.39530 0.50770
H33 H 0.68790 0.40960 0.44300
H34 H 0.84700 0.31690 0.43540
H35 H 0.79400 0.20530 0.48610
H36 H 0.58000 0.14690 0.79410
H37 H 0.77660 0.14390 0.87650
H38 H 0.99540 0.17800 0.83630
H39 H 1.02750 0.20990 0.71350
H40 H 0.83340 0.20980 0.63000
#END
