
#######################################################################
#
#                 Cambridge Crystallographic Data Centre
#                                CCDC
#
#######################################################################
#
# If this CIF has been generated from an entry in the Cambridge
# Structural Database, then it will include bibliographic, chemical,
# crystal, experimental, refinement or atomic coordinate data resulting
# from the CCDC's data processing and validation procedures.
#
#######################################################################

data_CSD_CIF_VANKAW
_audit_creation_date 1990-01-22
_audit_creation_method CSD-ConQuest-V1
_database_code_CSD VANKAW
_chemical_formula_sum 'C42 H32 N2 O4'
_chemical_formula_moiety
;
C42 H32 N2 O4
;
_journal_coeditor_code "IUCr BX0285"
_journal_coden_Cambridge 591
_journal_volume 45
_journal_year 1989
_journal_page_first 760
_journal_name_full 'Acta Crystallogr.,Sect.C:Cryst.Struct.Commun. '
loop_
_publ_author_name
"H.G.Aurich"
"G.Baum"
"W.Massa"
"K.-D.Mogendorf"
_chemical_name_systematic
;
4,8-Dibenzoyl-2,4,6,8-tetraphenyl-3,7-dioxa-2,6-diazabicyclo(3.3.0)octane
;
_cell_volume   1658.073
_exptl_crystal_colour 'colorless'
_exptl_crystal_density_diffrn 1.259
_diffrn_ambient_temperature ?
_diffrn_special_details
;
The study was carried out at room temperature,in the range 283-303K

;
#These two values have been output from a single CSD field.
_refine_ls_R_factor_gt 0.037
_refine_ls_wR_factor_gt 0.037
_symmetry_cell_setting triclinic
_symmetry_space_group_name_H-M 'P -1'
_symmetry_Int_Tables_number 2
loop_
_symmetry_equiv_pos_site_id
_symmetry_equiv_pos_as_xyz
1 x,y,z
2 -x,-y,-z
_cell_length_a 14.232(4)
_cell_length_b 11.991(2)
_cell_length_c 10.293(3)
_cell_angle_alpha 107.38(3)
_cell_angle_beta 88.75(7)
_cell_angle_gamma 98.37(3)
_cell_formula_units_Z 2
loop_
_atom_type_symbol
_atom_type_radius_bond
C 0.68
H 0.23
N 0.68
O 0.68
loop_
_atom_site_label
_atom_site_type_symbol
_atom_site_fract_x
_atom_site_fract_y
_atom_site_fract_z
O1 O 0.6803(1) 0.1107(1) 0.7554(1)
N1 N 0.6301(1) 0.2109(2) 0.8021(2)
C1 C 0.6968(2) 0.3082(2) 0.8878(2)
C2 C 0.6807(2) 0.3311(2) 1.0417(2)
C3 C 0.7091(2) 0.4637(2) 1.1172(2)
O2 O 0.7121(1) 0.5347(2) 1.0534(2)
C4 C 0.5800(2) 0.2335(2) 0.6964(2)
C5 C 0.5456(2) 0.3400(3) 0.7219(3)
C6 C 0.4945(2) 0.3632(3) 0.6225(3)
C7 C 0.4768(2) 0.2797(3) 0.4969(3)
C8 C 0.5076(2) 0.1734(3) 0.4737(3)
C9 C 0.5580(2) 0.1479(3) 0.5722(3)
C10 C 0.5795(2) 0.2906(2) 1.0752(2)
C11 C 0.5111(2) 0.3633(2) 1.0851(3)
C12 C 0.4181(2) 0.3275(3) 1.1139(3)
C13 C 0.3928(2) 0.2190(3) 1.1318(3)
C14 C 0.4599(2) 0.1447(3) 1.1209(3)
C15 C 0.5530(2) 0.1802(2) 1.0923(2)
C16 C 0.7301(2) 0.5064(2) 1.2669(2)
C17 C 0.6996(2) 0.4401(3) 1.3535(3)
C18 C 0.7208(3) 0.4883(4) 1.4930(3)
C19 C 0.7705(3) 0.5992(4) 1.5416(4)
C20 C 0.8008(3) 0.6641(3) 1.4572(4)
C21 C 0.7805(2) 0.6186(3) 1.3194(3)
O3 O 0.7424(1) 0.2613(1) 1.0816(1)
N2 N 0.8228(1) 0.2528(2) 0.9937(2)
C22 C 0.7955(2) 0.2702(2) 0.8664(2)
C23 C 0.7797(2) 0.1567(2) 0.7453(2)
C24 C 0.7934(2) 0.1866(2) 0.6089(2)
O4 O 0.8229(2) 0.2875(2) 0.6125(2)
C25 C 0.9089(2) 0.3173(2) 1.0610(3)
C26 C 0.9176(2) 0.3640(3) 1.2006(3)
C27 C 1.0057(3) 0.4224(3) 1.2594(4)
C28 C 1.0834(3) 0.4313(3) 1.1818(4)
C29 C 1.0745(2) 0.3814(4) 1.0451(4)
C30 C 0.9883(2) 0.3252(3) 0.9837(3)
C31 C 0.8408(2) 0.0664(2) 0.7553(2)
C32 C 0.8154(2) -0.0057(2) 0.8367(3)
C33 C 0.8751(2) -0.0823(3) 0.8516(3)
C34 C 0.9600(3) -0.0874(3) 0.7868(4)
C35 C 0.9857(2) -0.0162(3) 0.7060(4)
C36 C 0.9270(2) 0.0602(3) 0.6898(3)
C37 C 0.7690(2) 0.0938(2) 0.4766(2)
C38 C 0.7819(2) 0.1294(3) 0.3598(3)
C39 C 0.7579(3) 0.0497(4) 0.2344(3)
C40 C 0.7212(3) -0.0646(4) 0.2230(3)
C41 C 0.7079(2) -0.1015(3) 0.3378(3)
C42 C 0.7332(2) -0.0224(3) 0.4648(3)
H1 H 0.695(2) 0.384(2) 0.866(3)
H2 H 0.557(2) 0.403(2) 0.813(3)
H3 H 0.472(2) 0.445(2) 0.646(3)
H4 H 0.445(2) 0.300(2) 0.433(3)
H5 H 0.496(2) 0.112(2) 0.385(3)
H6 H 0.580(2) 0.072(2) 0.557(3)
H7 H 0.530(2) 0.444(3) 1.074(3)
H8 H 0.372(2) 0.380(2) 1.121(3)
H9 H 0.326(2) 0.194(2) 1.153(3)
H10 H 0.443(2) 0.068(3) 1.134(3)
H11 H 0.601(2) 0.124(2) 1.081(3)
H12 H 0.666(2) 0.355(2) 1.319(3)
H13 H 0.697(2) 0.436(2) 1.546(3)
H14 H 0.782(2) 0.638(2) 1.639(3)
H15 H 0.837(2) 0.740(3) 1.490(3)
H16 H 0.799(2) 0.660(2) 1.254(3)
H17 H 0.861(2) 0.357(2) 1.256(3)
H18 H 1.006(2) 0.452(2) 1.354(3)
H19 H 1.145(2) 0.475(2) 1.228(3)
H20 H 1.130(2) 0.385(2) 0.987(3)
H21 H 0.982(2) 0.284(2) 0.886(3)
H22 H 0.841(2) 0.330(2) 0.842(3)
H23 H 0.753(2) 0.000(2) 0.886(3)
H24 H 0.853(2) -0.128(2) 0.912(3)
H25 H 1.001(2) -0.137(3) 0.803(3)
H26 H 1.046(2) -0.011(2) 0.667(3)
H27 H 0.947(2) 0.120(2) 0.634(3)
H28 H 0.809(2) 0.216(3) 0.375(3)
H29 H 0.765(2) 0.076(2) 0.161(3)
H30 H 0.703(2) -0.121(2) 0.137(3)
H31 H 0.678(2) -0.185(3) 0.336(3)
H32 H 0.721(2) -0.051(2) 0.544(3)
#END
