
#######################################################################
#
#                 Cambridge Crystallographic Data Centre
#                                CCDC
#
#######################################################################
#
# If this CIF has been generated from an entry in the Cambridge
# Structural Database, then it will include bibliographic, chemical,
# crystal, experimental, refinement or atomic coordinate data resulting
# from the CCDC's data processing and validation procedures.
#
#######################################################################

data_CSD_CIF_VANNOQ
_audit_creation_date 2017-04-28
_audit_creation_method CSD-ConQuest-V1
_database_code_CSD VANNOQ
_database_code_depnum_ccdc_archive 'CCDC 1500799'
_chemical_formula_sum 'C13 H25 N1 O5'
_chemical_formula_moiety
;
C13 H25 N1 O5
;
_journal_coden_Cambridge 1220
_journal_volume 23
_journal_year 2017
_journal_page_first 541
_journal_name_full 'Chem.-Eur.J. '
loop_
_publ_author_name
"A.M.Haydl"
"B.Breit"
_chemical_name_systematic
;
t-butyl 3-hydroxy-5-(methoxy(methyl)amino)-4,4-dimethyl-5-oxopentanoate
;
_cell_volume    747.184
_exptl_crystal_colour 'colorless'
_exptl_crystal_density_diffrn 1.224
_exptl_special_details
;
Absolute configuration

;
_exptl_crystal_description 'block'
_diffrn_ambient_temperature 100
#These two values have been output from a single CSD field.
_refine_ls_R_factor_gt 0.0278
_refine_ls_wR_factor_gt 0.0278
_symmetry_cell_setting monoclinic
_symmetry_space_group_name_H-M 'P 21'
_symmetry_Int_Tables_number 4
loop_
_symmetry_equiv_pos_site_id
_symmetry_equiv_pos_as_xyz
1 x,y,z
2 -x,1/2+y,-z
_cell_length_a 5.9353(6)
_cell_length_b 9.8885(11)
_cell_length_c 12.7628(14)
_cell_angle_alpha 90
_cell_angle_beta 94.060(6)
_cell_angle_gamma 90
_cell_formula_units_Z 2
loop_
_atom_type_symbol
_atom_type_radius_bond
C 0.68
H 0.23
N 0.68
O 0.68
loop_
_atom_site_label
_atom_site_type_symbol
_atom_site_fract_x
_atom_site_fract_y
_atom_site_fract_z
O1 O 0.5006(2) 0.53059(14) 0.21937(10)
N1 N 0.6423(2) 0.60975(16) 0.28727(12)
C1 C 0.2757(3) 0.5872(2) 0.20994(16)
H1 H 0.17640 0.52860 0.16520
H2 H 0.28050 0.67740 0.17840
H3 H 0.21750 0.59390 0.27970
O2 O 0.8791(2) 0.62269(14) 0.42973(10)
C2 C 0.7247(3) 0.73181(19) 0.24039(16)
H4 H 0.83310 0.77670 0.29040
H5 H 0.59760 0.79280 0.22240
H6 H 0.79910 0.70860 0.17660
O3 O 0.7231(2) 0.26721(13) 0.56793(11)
H7 H 0.84380 0.22360 0.56450
C3 C 0.7320(3) 0.55725(17) 0.37864(14)
C4 C 0.6609(3) 0.41676(17) 0.41608(14)
O4 O 0.9573(2) 0.49654(16) 0.73016(12)
C5 C 0.4043(3) 0.39162(19) 0.40955(15)
H8 H 0.36990 0.31920 0.45830
H9 H 0.35320 0.36510 0.33780
H10 H 0.32640 0.47460 0.42840
O5 O 0.6105(2) 0.54253(15) 0.78337(10)
C6 C 0.7784(3) 0.31215(19) 0.34898(15)
H11 H 0.74000 0.22070 0.37140
H12 H 0.94240 0.32490 0.35800
H13 H 0.72750 0.32430 0.27490
C7 C 0.7569(3) 0.50908(18) 0.71182(15)
C8 C 0.7544(3) 0.40278(18) 0.53224(15)
H14 H 0.91920 0.42490 0.53790
C9 C 0.6324(3) 0.49470(19) 0.60531(15)
H15 H 0.61380 0.58520 0.57270
H16 H 0.47990 0.45770 0.61410
C10 C 0.6880(3) 0.5788(2) 0.89188(15)
C11 C 0.8105(4) 0.4610(2) 0.94668(18)
H17 H 0.84300 0.48270 1.02110
H18 H 0.95240 0.44410 0.91410
H19 H 0.71530 0.38000 0.94020
C12 C 0.4681(4) 0.6070(3) 0.94100(18)
H20 H 0.49900 0.62700 1.01580
H21 H 0.36970 0.52760 0.93290
H22 H 0.39310 0.68480 0.90600
C13 C 0.8329(4) 0.7049(2) 0.89084(18)
H23 H 0.87970 0.73120 0.96320
H24 H 0.74560 0.77850 0.85620
H25 H 0.96690 0.68660 0.85250
#END
