
#######################################################################
#
#                 Cambridge Crystallographic Data Centre
#                                CCDC
#
#######################################################################
#
# If this CIF has been generated from an entry in the Cambridge
# Structural Database, then it will include bibliographic, chemical,
# crystal, experimental, refinement or atomic coordinate data resulting
# from the CCDC's data processing and validation procedures.
#
#######################################################################

data_CSD_CIF_VAPKIG
_audit_creation_date 1990-01-22
_audit_creation_method CSD-ConQuest-V1
_database_code_CSD VAPKIG
_database_code_depnum_ccdc_archive 'CCDC 1279987'
_chemical_formula_sum 'C20 H16 N2 O5'
_chemical_formula_moiety
;
C20 H16 N2 O5
;
_journal_coden_Cambridge 53
_journal_volume 91
_journal_year 1987
_journal_page_first 918
_journal_name_full 'Ber.Bunsenges.Phys.Chem. '
loop_
_publ_author_name
"P.Strohriegl"
"H.Schultes"
"D.Heindl"
"P.Gruner-Bauer"
"V.Enkelmann"
"E.Dormann"
_chemical_name_systematic
;
6-(4-Methylanilinocarboxylato)-1-(4-nitrophenoxy)hexa-2,4-diyne
;
_chemical_melting_point 392.15
_cell_volume   7044.138
_exptl_crystal_colour 'light yellow'
_exptl_crystal_density_diffrn 1.37
_exptl_special_details
;
Melts with decomposition.
I polymorph
light-sensitive
CSD number not given

;
_diffrn_ambient_temperature ?
_diffrn_special_details
;
The study was carried out at room temperature,in the range 283-303K

;
#These two values have been output from a single CSD field.
_refine_ls_R_factor_gt 0.049
_refine_ls_wR_factor_gt 0.049
_symmetry_cell_setting orthorhombic
_symmetry_space_group_name_H-M 'F d d 2'
_symmetry_Int_Tables_number 43
loop_
_symmetry_equiv_pos_site_id
_symmetry_equiv_pos_as_xyz
1 x,y,z
2 x,1/2+y,1/2+z
3 1/2+x,y,1/2+z
4 1/2+x,1/2+y,z
5 1/4-x,1/4+y,1/4+z
6 1/4-x,3/4+y,3/4+z
7 3/4-x,1/4+y,3/4+z
8 3/4-x,3/4+y,1/4+z
9 1/4+x,1/4-y,1/4+z
10 1/4+x,3/4-y,3/4+z
11 3/4+x,1/4-y,3/4+z
12 3/4+x,3/4-y,1/4+z
13 1/2-x,-y,1/2+z
14 1/2-x,1/2-y,z
15 -x,-y,z
16 -x,1/2-y,1/2+z
_cell_length_a 77.649(12)
_cell_length_b 19.687(2)
_cell_length_c 4.608(1)
_cell_angle_alpha 90
_cell_angle_beta 90
_cell_angle_gamma 90
_cell_formula_units_Z 16
loop_
_atom_type_symbol
_atom_type_radius_bond
C 0.68
N 0.68
O 0.68
loop_
_atom_site_label
_atom_site_type_symbol
_atom_site_fract_x
_atom_site_fract_y
_atom_site_fract_z
O1 O 0.05210 0.5746(2) 0.16600
O2 O 0.04770 0.4866(2) 0.470(1)
O3 O -0.02480 0.2312(2) 0.986(1)
O4 O -0.08920 0.2574(3) 0.172(1)
O5 O -0.07970 0.1571(2) 0.054(1)
N1 N 0.07240 0.4918(2) 0.237(1)
N2 N -0.07900 0.2092(3) 0.196(1)
C1 C 0.12650 0.5597(4) -0.552(2)
C2 C 0.11190 0.5412(4) -0.347(2)
C3 C 0.10990 0.4755(2) -0.242(2)
C4 C 0.09670 0.4603(3) -0.049(2)
C5 C 0.08540 0.5115(3) 0.035(1)
C6 C 0.08740 0.5768(3) -0.064(2)
C7 C 0.10060 0.5911(3) -0.261(2)
C8 C 0.05710 0.5239(3) 0.277(2)
C9 C 0.03100 0.5157(3) 0.535(2)
C10 C 0.02010 0.4621(3) 0.662(2)
C11 C 0.01050 0.4219(3) 0.759(2)
C12 C -0.00060 0.3771(3) 0.881(2)
C13 C -0.01030 0.3393(3) 0.996(2)
C14 C -0.02120 0.2912(3) 1.150(2)
C15 C -0.03850 0.2307(3) 0.798(1)
C16 C -0.04090 0.1694(3) 0.653(2)
C17 C -0.05400 0.1623(3) 0.452(2)
C18 C -0.06500 0.2171(3) 0.410(2)
C19 C -0.06290 0.2778(3) 0.554(2)
C20 C -0.04960 0.2860(3) 0.752(2)
#END
