
#######################################################################
#
#                 Cambridge Crystallographic Data Centre
#                                CCDC
#
#######################################################################
#
# If this CIF has been generated from an entry in the Cambridge
# Structural Database, then it will include bibliographic, chemical,
# crystal, experimental, refinement or atomic coordinate data resulting
# from the CCDC's data processing and validation procedures.
#
#######################################################################

data_CSD_CIF_VAQHOL
_audit_creation_date 2004-02-10
_audit_creation_method CSD-ConQuest-V1
_database_code_CSD VAQHOL
_database_code_depnum_ccdc_archive 'CCDC 202196'
_chemical_formula_sum 'C17 H17 N1 O7'
_chemical_formula_moiety
;
C17 H17 N1 O7
;
_journal_coden_Cambridge 504
_journal_volume 58
_journal_year 2003
_journal_page_first 539
_journal_name_full 'Pharmazie '
loop_
_publ_author_name
"K.Gorlitzer"
"J.Trittmacher"
"P.G.Jones"
"P.Frohberg"
"G.Drutkowski"
_chemical_name_systematic
;
dimethyl 2,6-dimethyl-4-(2-nitrophenyl)-4H-pyran-3,5-dicarboxylate
;
_cell_volume   1599.084
_exptl_crystal_colour 'colorless'
_exptl_crystal_density_diffrn 1.443
_exptl_crystal_description 'prism'
_diffrn_ambient_temperature 133
#These two values have been output from a single CSD field.
_refine_ls_R_factor_gt 0.0406
_refine_ls_wR_factor_gt 0.0406
_symmetry_cell_setting monoclinic
_symmetry_space_group_name_H-M 'P 21/n'
_symmetry_Int_Tables_number 14
loop_
_symmetry_equiv_pos_site_id
_symmetry_equiv_pos_as_xyz
1 x,y,z
2 1/2+x,1/2-y,1/2+z
3 -x,-y,-z
4 -1/2-x,-1/2+y,-1/2-z
_cell_length_a 7.7841(6)
_cell_length_b 16.2649(14)
_cell_length_c 13.0476(11)
_cell_angle_alpha 90
_cell_angle_beta 104.531(4)
_cell_angle_gamma 90
_cell_formula_units_Z 4
loop_
_atom_type_symbol
_atom_type_radius_bond
C 0.68
H 0.23
N 0.68
O 0.68
loop_
_atom_site_label
_atom_site_type_symbol
_atom_site_fract_x
_atom_site_fract_y
_atom_site_fract_z
O1 O 0.22556(12) 0.51497(5) 0.49474(6)
C1 C 0.27406(15) 0.59437(7) 0.52787(9)
C2 C 0.36199(15) 0.60952(7) 0.62868(9)
C3 C 0.39941(15) 0.54175(7) 0.71083(8)
H1 H 0.52180 0.54920 0.75730
C4 C 0.38750(15) 0.45857(7) 0.65778(9)
C5 C 0.29892(16) 0.44829(7) 0.55661(10)
C6 C 0.21321(19) 0.65177(8) 0.43645(10)
H2 H 0.11020 0.68290 0.44540
H3 H 0.18010 0.62010 0.37050
H4 H 0.30940 0.68990 0.43360
C7 C 0.42693(15) 0.69130(7) 0.67105(9)
O2 O 0.52033(14) 0.70011(6) 0.75933(7)
O3 O 0.37252(12) 0.75370(5) 0.60529(7)
C8 C 0.42375(19) 0.83465(7) 0.64805(10)
H5 H 0.38880 0.84140 0.71470
H6 H 0.36450 0.87650 0.59730
H7 H 0.55270 0.84090 0.66120
C9 C 0.48464(15) 0.39165(7) 0.72611(9)
O4 O 0.61725(11) 0.40426(6) 0.79559(7)
O5 O 0.41180(12) 0.31733(5) 0.70431(7)
C10 C 0.50648(19) 0.25074(7) 0.76838(11)
H8 H 0.62430 0.24480 0.75500
H9 H 0.43990 0.19940 0.74990
H10 H 0.51920 0.26300 0.84350
C11 C 0.26004(18) 0.37212(8) 0.49034(10)
H11 H 0.33960 0.32790 0.52430
H12 H 0.27850 0.38310 0.42000
H13 H 0.13660 0.35550 0.48330
C12 C 0.26490(14) 0.54779(7) 0.77887(9)
C13 C 0.29852(14) 0.57956(7) 0.88119(9)
N1 N 0.47780(13) 0.60483(7) 0.93977(7)
O6 O 0.60235(11) 0.55913(6) 0.93817(7)
O7 O 0.49178(13) 0.66938(6) 0.98980(8)
C14 C 0.16784(16) 0.58888(8) 0.93607(10)
H14 H 0.19640 0.61180 1.00530
C15 C -0.00350(16) 0.56455(8) 0.88898(10)
H15 H -0.09360 0.56940 0.92610
C16 C -0.04318(16) 0.53288(7) 0.78686(10)
H16 H -0.16100 0.51620 0.75380
C17 C 0.08863(15) 0.52555(7) 0.73298(9)
H17 H 0.05830 0.50480 0.66270
#END
