
#######################################################################
#
#                 Cambridge Crystallographic Data Centre
#                                CCDC
#
#######################################################################
#
# If this CIF has been generated from an entry in the Cambridge
# Structural Database, then it will include bibliographic, chemical,
# crystal, experimental, refinement or atomic coordinate data resulting
# from the CCDC's data processing and validation procedures.
#
#######################################################################

data_CSD_CIF_VAQPEJ
_audit_creation_date 2004-02-10
_audit_creation_method CSD-ConQuest-V1
_database_code_CSD VAQPEJ
_database_code_depnum_ccdc_archive 'CCDC 199899'
_chemical_formula_sum 'C21 H18 N4 O12'
_chemical_formula_moiety
;
C21 H18 N4 O12
;
_journal_coden_Cambridge 179
_journal_volume 42
_journal_year 2003
_journal_page_first 1280
_journal_name_full 'Angew.Chem.,Int.Ed. '
loop_
_publ_author_name
"K.Yamamoto"
"R.M.Garbaccio"
"S.J.Stachel"
"D.B.Solit"
"G.Chiosis"
"N.Rosen"
"S.J.Danishefsky"
_chemical_name_systematic
;
2-(2-(((3,5-dinitrobenzoyl)oxy)methyl)cyclopropyl)-1-methylethyl 
3,5-dinitrobenzoate
;
_chemical_name_common
;
(2S,3S,5R)-2,3-cyclopropylhexan-1,5-diol bis(3,5-dinitrobenzoate)
;
_cell_volume   1163.481
_exptl_crystal_colour 'beige'
_exptl_crystal_density_diffrn 1.48
_exptl_crystal_description 'needles'
_exptl_crystal_preparation 'EtOAc/hexanes'
_diffrn_ambient_temperature 295
#These two values have been output from a single CSD field.
_refine_ls_R_factor_gt 0.0431
_refine_ls_wR_factor_gt 0.0431
_symmetry_cell_setting monoclinic
_symmetry_space_group_name_H-M 'P 21'
_symmetry_Int_Tables_number 4
loop_
_symmetry_equiv_pos_site_id
_symmetry_equiv_pos_as_xyz
1 x,y,z
2 -x,1/2+y,-z
_cell_length_a 11.776(2)
_cell_length_b 17.295(3)
_cell_length_c 5.794(1)
_cell_angle_alpha 90
_cell_angle_beta 99.61(2)
_cell_angle_gamma 90
_cell_formula_units_Z 2
loop_
_atom_type_symbol
_atom_type_radius_bond
C 0.68
H 0.23
N 0.68
O 0.68
loop_
_atom_site_label
_atom_site_type_symbol
_atom_site_fract_x
_atom_site_fract_y
_atom_site_fract_z
O1 O 0.6072(5) 0.10400 0.2987(9)
O2 O 0.5534(5) 0.0215(4) -0.003(1)
O3 O 0.8688(6) -0.1061(4) 0.432(1)
O4 O 0.6828(5) -0.0759(4) 0.425(1)
O5 O 0.1035(6) -0.1148(7) 0.301(2)
O6 O 0.1994(7) -0.1264(5) 0.022(1)
O7 O 0.3598(6) 0.1599(4) 0.845(1)
O8 O 0.2126(5) 0.0847(5) 0.879(1)
O9 O 0.9861(6) -0.2771(5) -0.131(1)
O10 O 0.8650(6) -0.3173(5) -0.425(1)
O11 O 0.4196(6) -0.1455(5) -0.301(1)
O12 O 0.4770(7) -0.2225(5) -0.553(1)
N1 N 0.1839(8) -0.0999(6) 0.208(2)
N2 N 0.2952(6) 0.1044(5) 0.788(1)
N3 N 0.8900(6) -0.2802(5) -0.244(1)
N4 N 0.4927(7) -0.1852(5) -0.368(1)
C1 C 0.7139(8) 0.1232(6) 0.214(2)
C2 C 0.7966(8) 0.1469(6) 0.430(2)
C3 C 0.8232(8) 0.0809(6) 0.601(1)
C4 C 0.9185(8) 0.0237(6) 0.579(1)
C5 C 0.9082(9) -0.0575(6) 0.638(2)
C6 C 0.689(1) 0.1888(6) 0.036(2)
C7 C 0.9351(9) 0.0822(7) 0.772(2)
C8 C 0.5385(8) 0.0529(6) 0.179(2)
C9 C 0.4384(7) 0.0324(5) 0.298(1)
C10 C 0.3631(7) -0.0247(6) 0.205(1)
C11 C 0.2675(8) -0.0399(6) 0.303(2)
C12 C 0.2428(8) 0.0008(6) 0.500(2)
C13 C 0.3204(8) 0.0568(6) 0.586(1)
C14 C 0.4181(7) 0.0758(6) 0.490(1)
C15 C 0.7577(8) -0.1076(6) 0.343(1)
C16 C 0.7342(8) -0.1533(6) 0.119(1)
C17 C 0.8232(8) -0.1963(5) 0.047(1)
C18 C 0.7950(8) -0.2369(6) -0.167(1)
C19 C 0.6889(8) -0.2341(6) -0.298(1)
C20 C 0.6056(8) -0.1920(5) -0.220(2)
C21 C 0.6264(8) -0.1522(6) -0.008(1)
H1 H 0.74700 0.08000 0.13200
H2 H 0.76200 0.19000 0.50900
H3 H 0.87000 0.16500 0.38300
H4 H 0.75500 0.05900 0.66200
H5 H 0.96200 0.03400 0.44900
H6 H 0.98500 -0.07700 0.71600
H7 H 0.85200 -0.06200 0.74900
H8 H 0.76100 0.20300 -0.02300
H9 H 0.62900 0.17200 -0.09700
H10 H 0.66000 0.23500 0.11300
H11 H 0.93600 0.06500 0.93800
H12 H 0.99100 0.12600 0.76900
H13 H 0.37800 -0.05500 0.06600
H14 H 0.17300 -0.01100 0.57200
H15 H 0.47100 0.11800 0.55600
H16 H 0.90200 -0.19800 0.14300
H17 H 0.67200 -0.26300 -0.45100
H18 H 0.56300 -0.12300 0.05000
#END
