
#######################################################################
#
#                 Cambridge Crystallographic Data Centre
#                                CCDC
#
#######################################################################
#
# If this CIF has been generated from an entry in the Cambridge
# Structural Database, then it will include bibliographic, chemical,
# crystal, experimental, refinement or atomic coordinate data resulting
# from the CCDC's data processing and validation procedures.
#
#######################################################################

data_CSD_CIF_VAQZUJ
_audit_creation_date 2004-02-10
_audit_creation_method CSD-ConQuest-V1
_database_code_CSD VAQZUJ
_database_code_depnum_ccdc_archive 'CCDC 208797'
_chemical_formula_sum 'C19 H22 N4 O3'
_chemical_formula_moiety
;
C19 H22 N4 O3
;
_journal_coden_Cambridge 1291
_journal_year 2003
_journal_page_first 3840
_journal_name_full 'Eur.J.Org.Chem. '
loop_
_publ_author_name
"G.Verardo"
"P.Geatti"
"P.Martinuzzi"
"M.Merli"
"N.Toniutti"
_chemical_name_systematic
;
5-Isobutyl-2-(2-nitrophenyl)-3-(phenylamino)imidazolidin-4-one
;
_chemical_melting_point 408.15
_cell_volume   1911.246
_exptl_crystal_density_diffrn 1.232
_diffrn_ambient_temperature 298
#These two values have been output from a single CSD field.
_refine_ls_R_factor_gt 0.0646
_refine_ls_wR_factor_gt 0.0646
_symmetry_cell_setting monoclinic
_symmetry_space_group_name_H-M 'P 21'
_symmetry_Int_Tables_number 4
loop_
_symmetry_equiv_pos_site_id
_symmetry_equiv_pos_as_xyz
1 x,y,z
2 -x,1/2+y,-z
_cell_length_a 9.769(5)
_cell_length_b 22.121(13)
_cell_length_c 9.798(5)
_cell_angle_alpha 90
_cell_angle_beta 115.49(3)
_cell_angle_gamma 90
_cell_formula_units_Z 4
loop_
_atom_type_symbol
_atom_type_radius_bond
C 0.68
H 0.23
N 0.68
O 0.68
loop_
_atom_site_label
_atom_site_type_symbol
_atom_site_fract_x
_atom_site_fract_y
_atom_site_fract_z
C1 C 0.9251(12) 0.1332(6) 0.6506(11)
H1 H 0.88620 0.11390 0.71440
H2 H 0.99060 0.16590 0.70470
H3 H 0.98120 0.10440 0.62160
C2 C 0.5037(11) 0.3638(4) 0.6639(9)
H4 H 0.60200 0.37930 0.68230
H5 H 0.51510 0.32960 0.72820
H6 H 0.44670 0.39480 0.68520
C3 C 0.7933(10) 0.1579(4) 0.5092(10)
H7 H 0.72720 0.12340 0.46060
C4 C 0.4212(8) 0.3448(3) 0.5009(7)
H8 H 0.48480 0.31470 0.48230
C5 C 0.7016(12) 0.2007(5) 0.5569(12)
H9 H 0.66860 0.18030 0.62380
H10 H 0.61480 0.21440 0.46920
H11 H 0.76320 0.23480 0.60800
C6 C 0.2703(11) 0.3142(5) 0.4695(10)
H12 H 0.28850 0.27950 0.53400
H13 H 0.22200 0.30160 0.36570
H14 H 0.20580 0.34210 0.48920
C7 C 0.8344(8) 0.1833(4) 0.4000(7)
H15 H 0.90000 0.21750 0.44710
H16 H 0.74270 0.19940 0.31980
C8 C 0.4008(8) 0.3970(3) 0.3937(8)
H17 H 0.32010 0.42300 0.39220
H18 H 0.49340 0.42070 0.43150
C9 C 0.9126(7) 0.1452(3) 0.3254(7)
H19 H 0.98540 0.11840 0.40200
C10 C 0.3636(6) 0.3770(3) 0.2349(7)
H20 H 0.29190 0.34320 0.20980
C11 C 0.9757(6) 0.1522(3) 0.1213(7)
H21 H 0.96140 0.18230 0.04300
C12 C 0.4941(6) 0.3782(3) 0.0742(7)
H22 H 0.47780 0.34490 0.00300
C13 C 0.8037(7) 0.1067(3) 0.1959(8)
C14 C 0.2984(7) 0.4235(3) 0.1139(7)
C15 C 1.1146(6) 0.1123(3) 0.1509(7)
C16 C 0.6373(6) 0.4130(3) 0.1000(7)
C17 C 1.1142(7) 0.0525(3) 0.1834(7)
H23 H 1.02540 0.03610 0.18080
C18 C 0.6449(7) 0.4742(3) 0.1264(7)
H24 H 0.56090 0.49330 0.12850
C19 C 1.2390(9) 0.0140(3) 0.2207(8)
H25 H 1.23380 -0.02650 0.24320
C20 C 0.7701(8) 0.5088(4) 0.1500(8)
H26 H 0.76900 0.55030 0.16490
C21 C 1.3704(8) 0.0384(4) 0.2229(9)
H27 H 1.45530 0.01410 0.24690
C22 C 0.8973(8) 0.4814(4) 0.1513(9)
H28 H 0.98440 0.50390 0.17180
C23 C 1.3755(8) 0.0971(4) 0.1904(9)
H29 H 1.46470 0.11340 0.19400
C24 C 0.8943(7) 0.4203(4) 0.1221(8)
H30 H 0.97750 0.40170 0.11720
C25 C 1.2507(7) 0.1330(3) 0.1520(8)
C26 C 0.7673(7) 0.3870(3) 0.1002(7)
C27 C 0.6226(7) 0.1086(3) -0.1574(7)
C28 C 0.1660(7) 0.4212(3) -0.2291(8)
C29 C 0.5467(8) 0.0765(4) -0.2884(8)
H31 H 0.58910 0.04220 -0.30970
C30 C 0.0881(8) 0.4535(4) -0.3613(8)
H32 H 0.12680 0.48940 -0.37970
C31 C 0.3965(10) 0.0981(5) -0.3932(9)
H33 H 0.34060 0.07730 -0.48240
C32 C -0.0486(11) 0.4307(6) -0.4648(10)
H34 H -0.10120 0.45200 -0.55410
C33 C 0.3401(10) 0.1481(5) -0.3598(13)
H35 H 0.24530 0.16170 -0.42850
C34 C -0.1101(13) 0.3789(7) -0.4430(14)
H36 H -0.20290 0.36480 -0.51450
C35 C 0.4149(9) 0.1801(4) -0.230(1)
H37 H 0.37230 0.21450 -0.20930
C36 C -0.0288(13) 0.3480(6) -0.3094(14)
H38 H -0.06850 0.31240 -0.29070
C37 C 0.5604(7) 0.1592(3) -0.1276(8)
H39 H 0.61440 0.18030 -0.03830
C38 C 0.1076(9) 0.3683(4) -0.2048(9)
H40 H 0.16110 0.34620 -0.11700
N1 N 0.9933(6) 0.1811(2) 0.2596(6)
H41 H 1.04280 0.21390 0.29660
N2 N 0.5000(5) 0.3561(3) 0.2160(6)
H42 H 0.57150 0.33410 0.27990
N3 N 0.8389(5) 0.1159(2) 0.0803(6)
N4 N 0.3650(5) 0.4191(2) 0.0194(6)
N5 N 1.2678(9) 0.1966(4) 0.1211(10)
N6 N 0.7773(7) 0.3230(3) 0.0793(7)
N7 N 0.7720(5) 0.0886(3) -0.0600(6)
H43 H 0.81780 0.06120 -0.08700
N8 N 0.3092(5) 0.4431(2) -0.1231(5)
H44 H 0.35830 0.47000 -0.14730
O1 O 0.7020(5) 0.0733(2) 0.1908(5)
O2 O 0.1927(5) 0.4584(2) 0.0947(5)
O3 O 1.1680(9) 0.2304(4) 0.0655(13)
O4 O 0.6969(7) 0.2887(2) 0.1079(6)
O5 O 1.3902(9) 0.2166(3) 0.1580(13)
O6 O 0.8644(9) 0.3031(3) 0.0314(9)
#END
