
#######################################################################
#
#                 Cambridge Crystallographic Data Centre
#                                CCDC
#
#######################################################################
#
# If this CIF has been generated from an entry in the Cambridge
# Structural Database, then it will include bibliographic, chemical,
# crystal, experimental, refinement or atomic coordinate data resulting
# from the CCDC's data processing and validation procedures.
#
#######################################################################

data_CSD_CIF_VARJAZ
_audit_creation_date 1990-02-14
_audit_creation_method CSD-ConQuest-V1
_database_code_CSD VARJAZ
_database_code_depnum_ccdc_archive 'CCDC 1280186'
_chemical_formula_sum 'C21 H17 N3 O1'
_chemical_formula_moiety
;
C21 H17 N3 O1
;
_journal_coden_Cambridge 48
_journal_volume 122
_journal_year 1989
_journal_page_first 1107
_journal_name_full 'Chem.Ber. '
loop_
_publ_author_name
"D.Korbonits"
"I.Kanzel-Szvoboda"
"C.Gonczi"
"K.Simon"
"P.Kolonits"
_chemical_name_systematic
;
1-Benzyl-2-phenyl-4(1H)-quinazolone oxime
;
_chemical_melting_point 460.15
_cell_volume   1680.466
_exptl_crystal_colour 'yellow'
_exptl_crystal_density_diffrn 1.279
_exptl_special_details
;
Melting point range 460.15-462.15K

;
_diffrn_ambient_temperature ?
_diffrn_special_details
;
The study was carried out at room temperature,in the range 283-303K

;
#These two values have been output from a single CSD field.
_refine_ls_R_factor_gt 0.103
_refine_ls_wR_factor_gt 0.103
_symmetry_cell_setting monoclinic
_symmetry_space_group_name_H-M 'P 21/c'
_symmetry_Int_Tables_number 14
loop_
_symmetry_equiv_pos_site_id
_symmetry_equiv_pos_as_xyz
1 x,y,z
2 -x,1/2+y,1/2-z
3 -x,-y,-z
4 x,-1/2-y,-1/2+z
_cell_length_a 9.152(2)
_cell_length_b 10.884(3)
_cell_length_c 16.956(3)
_cell_angle_alpha 90
_cell_angle_beta 95.76(5)
_cell_angle_gamma 90
_cell_formula_units_Z 4
loop_
_atom_type_symbol
_atom_type_radius_bond
C 0.68
H 0.23
N 0.68
O 0.68
loop_
_atom_site_label
_atom_site_type_symbol
_atom_site_fract_x
_atom_site_fract_y
_atom_site_fract_z
N1 N 0.0490(3) 0.2335(3) 0.1757(2)
C1 C -0.0237(4) 0.1305(3) 0.1509(2)
N2 N 0.0276(3) 0.0193(3) 0.1602(2)
C2 C 0.1698(4) 0.0020(4) 0.1964(2)
C3 C 0.3894(5) 0.0945(5) 0.2759(3)
C4 C 0.4618(5) 0.1982(6) 0.3074(3)
C5 C 0.3966(5) 0.3117(5) 0.2985(3)
C6 C 0.2600(4) 0.3256(5) 0.2556(3)
C7 C 0.1876(4) 0.2216(4) 0.2215(2)
C8 C 0.2504(4) 0.1069(4) 0.2319(2)
C9 C 0.0067(4) 0.3560(3) 0.1445(2)
C10 C 0.1072(4) 0.3990(3) 0.0855(2)
C11 C 0.1634(5) 0.5155(4) 0.0893(3)
C12 C 0.2537(5) 0.5572(4) 0.0325(3)
C13 C 0.2863(5) 0.4794(5) -0.0278(3)
C14 C 0.2279(5) 0.3633(5) -0.0334(3)
C15 C 0.1383(5) 0.3216(4) 0.0232(3)
C16 C -0.1747(4) 0.1417(3) 0.1093(2)
C17 C -0.2875(4) 0.1959(4) 0.1455(3)
C18 C -0.4278(4) 0.2032(4) 0.1048(3)
C19 C -0.4542(4) 0.1577(4) 0.0285(3)
C20 C -0.3424(5) 0.1032(4) -0.0068(3)
C21 C -0.2020(4) 0.0932(4) 0.0333(2)
N3 N 0.2278(5) -0.1056(4) 0.1995(2)
O1 O 0.1340(5) -0.1954(3) 0.1643(2)
H1 H 0.43500 0.01000 0.28500
H2 H 0.56300 0.19000 0.33700
H3 H 0.44800 0.38700 0.32300
H4 H 0.21300 0.40900 0.24900
H5 H 0.01200 0.41700 0.19000
H6 H -0.09700 0.35300 0.11800
H7 H 0.14000 0.57200 0.13300
H8 H 0.29400 0.64400 0.03600
H9 H 0.35300 0.50900 -0.06800
H10 H 0.25100 0.30800 -0.07800
H11 H 0.09600 0.23600 0.01900
H12 H -0.26900 0.23000 0.20100
H13 H -0.51100 0.24100 0.13200
H14 H -0.55500 0.16600 -0.00100
H15 H -0.36200 0.07000 -0.06200
H16 H -0.12100 0.05100 0.00700
H17 H 0.04360 -0.17460 0.14260
#END
