
#######################################################################
#
#                 Cambridge Crystallographic Data Centre
#                                CCDC
#
#######################################################################
#
# If this CIF has been generated from an entry in the Cambridge
# Structural Database, then it will include bibliographic, chemical,
# crystal, experimental, refinement or atomic coordinate data resulting
# from the CCDC's data processing and validation procedures.
#
#######################################################################

data_CSD_CIF_VARPOW
_audit_creation_date 2017-05-02
_audit_creation_method CSD-ConQuest-V1
_database_code_CSD VARPOW
_database_code_depnum_ccdc_archive 'CCDC 1503869'
_chemical_formula_sum 'C33 H26 N2 O3'
_chemical_formula_moiety
;
C33 H26 N2 O3
;
_journal_coden_Cambridge 574
_journal_volume 143
_journal_year 2017
_journal_page_first 393
_journal_name_full 'Dyes Pigm. '
loop_
_publ_author_name
"K.Prakash"
"P.R.Sahoo"
"S.Kumar"
_chemical_name_systematic
;
5a-(2-(9-anthryl)vinyl)-6,6-dimethyl-2-nitro-5a,6-dihydro-12H-indolo[2,1-b][1,
3]benzoxazine
;
_cell_volume   2913.536
_exptl_crystal_colour 'dull light white'
_exptl_crystal_description 'needle'
_diffrn_ambient_temperature 297
#These two values have been output from a single CSD field.
_refine_ls_R_factor_gt 0.136
_refine_ls_wR_factor_gt 0.136
_symmetry_cell_setting triclinic
_symmetry_space_group_name_H-M 'P -1'
_symmetry_Int_Tables_number 2
loop_
_symmetry_equiv_pos_site_id
_symmetry_equiv_pos_as_xyz
1 x,y,z
2 -x,-y,-z
_cell_length_a 11.051(2)
_cell_length_b 16.514(4)
_cell_length_c 18.028(4)
_cell_angle_alpha 69.02(2)
_cell_angle_beta 83.123(16)
_cell_angle_gamma 71.525(19)
_cell_formula_units_Z 4
loop_
_atom_type_symbol
_atom_type_radius_bond
C 0.68
H 0.23
N 0.68
O 0.68
loop_
_atom_site_label
_atom_site_type_symbol
_atom_site_fract_x
_atom_site_fract_y
_atom_site_fract_z
O1 O 0.1439(4) 0.3031(4) 0.3202(3)
N1 N -0.0478(5) 0.2952(4) 0.2767(4)
C1 C 0.1325(7) 0.3850(6) 0.2625(5)
C2 C -0.0905(7) 0.3919(6) 0.2326(5)
H1 H -0.15610 0.42230 0.26260
H2 H -0.12670 0.40220 0.18240
C3 C 0.0242(7) 0.4310(6) 0.2172(5)
C4 C 0.0277(7) 0.2739(5) 0.3451(5)
C5 C 0.1246(10) 0.5485(8) 0.1482(6)
C6 C 0.2333(8) 0.4184(7) 0.2500(6)
H3 H 0.30550 0.38630 0.28150
C7 C -0.0049(8) 0.2351(8) 0.1659(6)
H4 H -0.05360 0.28830 0.12940
C8 C 0.0774(8) 0.1695(6) 0.3755(5)
C9 C 0.0791(8) 0.1542(6) 0.2949(6)
C10 C -0.0025(7) 0.3623(6) 0.4349(5)
H5 H 0.08040 0.36590 0.42330
C11 C -0.0869(7) 0.4110(7) 0.4915(6)
C12 C 0.0201(9) 0.5155(7) 0.1609(6)
H6 H -0.05360 0.55030 0.13130
C13 C 0.1383(9) 0.0777(7) 0.2747(7)
H7 H 0.18540 0.02410 0.31150
C14 C -0.0563(5) 0.2678(6) 0.6041(4)
H8 H -0.00100 0.23610 0.57390
C15 C -0.1131(7) 0.3608(6) 0.5705(3)
C16 C -0.1957(6) 0.4082(4) 0.6155(5)
C17 C -0.2215(5) 0.3627(6) 0.6942(5)
H9 H -0.27670 0.39450 0.72430
C18 C -0.1646(6) 0.2698(6) 0.7278(3)
H10 H -0.18190 0.23930 0.78040
C19 C -0.0820(6) 0.2223(4) 0.6827(5)
H11 H -0.04400 0.16010 0.70520
C20 C 0.0090(8) 0.2297(6) 0.2425(6)
C21 C -0.2441(9) 0.4995(8) 0.5830(6)
H12 H -0.29500 0.53030 0.61520
C22 C -0.0453(8) 0.3168(5) 0.4035(5)
H13 H -0.12640 0.31070 0.41850
N2 N 0.1159(17) 0.6397(8) 0.0869(7)
C23 C 0.0559(10) 0.1589(10) 0.1445(7)
H14 H 0.04860 0.16030 0.09320
C24 C 0.2289(11) 0.5011(8) 0.1898(6)
H15 H 0.29980 0.52250 0.17920
C25 C 0.1247(10) 0.0838(8) 0.1982(8)
H16 H 0.16540 0.03340 0.18310
C26 C -0.0278(10) 0.1312(6) 0.4276(6)
H17 H -0.02570 0.13270 0.48020
H18 H -0.01280 0.06960 0.43030
H19 H -0.10990 0.16740 0.40460
O2 O 0.2099(12) 0.6643(6) 0.0766(6)
O3 O 0.0201(15) 0.6816(8) 0.0508(8)
C27 C -0.1168(5) 0.5537(5) 0.3790(5)
H20 H -0.06270 0.52330 0.34750
C28 C -0.1422(6) 0.5057(3) 0.4570(5)
C29 C -0.2231(6) 0.5511(5) 0.5041(4)
C30 C -0.2785(5) 0.6445(5) 0.4732(5)
H21 H -0.33260 0.67490 0.50480
C31 C -0.2530(5) 0.6925(3) 0.3953(5)
H22 H -0.29000 0.75500 0.37460
C32 C -0.1721(6) 0.6471(5) 0.3482(4)
H23 H -0.15510 0.67920 0.29600
C33 C 0.2065(9) 0.1310(5) 0.4160(5)
H24 H 0.27050 0.14760 0.37770
H25 H 0.22730 0.06610 0.43810
H26 H 0.20310 0.15510 0.45760
O4 O 0.5214(5) 0.1588(4) 0.2197(4)
N3 N 0.7260(6) 0.1705(5) 0.1631(5)
C34 C 0.4639(9) 0.2340(7) 0.1596(6)
C35 C 0.5330(8) 0.2882(7) 0.1063(6)
C36 C 0.5836(6) 0.2951(5) 0.3724(5)
C37 C 0.4669(10) 0.3685(7) 0.0481(6)
H27 H 0.51130 0.40710 0.01430
C38 C 0.6532(8) 0.1453(6) 0.2344(6)
C39 C 0.5946(5) 0.1607(4) 0.4938(4)
H28 H 0.58590 0.12790 0.46330
C40 C 0.5957(5) 0.2503(4) 0.4574(3)
C41 C 0.6087(5) 0.2994(3) 0.5029(4)
C42 C 0.6204(5) 0.2590(4) 0.5849(4)
H29 H 0.62910 0.29180 0.61540
C43 C 0.6192(5) 0.1694(4) 0.6214(3)
H30 H 0.62710 0.14240 0.67620
C44 C 0.6063(5) 0.1203(3) 0.5758(4)
H31 H 0.60550 0.06040 0.60020
C45 C 0.5912(5) 0.4342(4) 0.3830(3)
C46 C 0.5791(5) 0.3870(3) 0.3355(4)
C47 C 0.5630(5) 0.4306(4) 0.2540(4)
H32 H 0.55490 0.39900 0.22220
C48 C 0.5591(5) 0.5214(4) 0.2201(3)
H33 H 0.54830 0.55060 0.16550
C49 C 0.5712(5) 0.5686(3) 0.2676(4)
H34 H 0.56860 0.62930 0.24490
C50 C 0.5873(5) 0.5250(4) 0.3491(4)
H35 H 0.59540 0.55660 0.38090
O5 O 0.3228(7) 0.5260(6) -0.0556(5)
N4 N 0.2633(10) 0.4728(7) -0.0161(5)
C51 C 0.3358(10) 0.3909(7) 0.0408(6)
C52 C 0.3318(9) 0.2563(8) 0.1508(6)
H36 H 0.28600 0.21880 0.18440
C53 C 0.2699(9) 0.3363(8) 0.0906(6)
H37 H 0.18210 0.35200 0.08480
C54 C 0.6583(8) 0.2023(5) 0.2831(6)
H38 H 0.73650 0.21220 0.28350
C55 C 0.6768(8) 0.2635(6) 0.1102(6)
H39 H 0.71360 0.26960 0.05760
H40 H 0.70000 0.30420 0.12980
C56 C 0.6069(6) 0.3919(7) 0.4652(6)
H41 H 0.61640 0.42450 0.49570
O6 O 0.1496(7) 0.4887(5) -0.0228(5)
C57 C 0.5704(8) 0.2379(6) 0.3232(5)
H42 H 0.49110 0.22940 0.32330
C58 C 0.7149(9) 0.0407(6) 0.2755(6)
C59 C 0.6177(10) -0.0057(6) 0.3237(6)
H43 H 0.57450 0.02470 0.36020
H44 H 0.66060 -0.06800 0.35280
H45 H 0.55670 -0.00310 0.28860
C60 C 0.8342(10) 0.0201(6) 0.3222(6)
H46 H 0.89370 0.04790 0.28760
H47 H 0.87270 -0.04440 0.34330
H48 H 0.81090 0.04390 0.36500
C61 C 0.7992(7) -0.0670(5) 0.1874(6)
H49 H 0.79820 -0.12020 0.22880
C62 C 0.7587(6) 0.0155(6) 0.2006(4)
C63 C 0.7602(6) 0.0951(5) 0.1387(5)
C64 C 0.8021(7) 0.0922(6) 0.0636(4)
H50 H 0.80310 0.14550 0.02220
C65 C 0.8426(7) 0.0097(8) 0.0504(5)
H51 H 0.87070 0.00780 0.00020
C66 C 0.8411(7) -0.0699(6) 0.1123(7)
H52 H 0.86820 -0.12500 0.10350
#END
