
#######################################################################
#
#                 Cambridge Crystallographic Data Centre
#                                CCDC
#
#######################################################################
#
# If this CIF has been generated from an entry in the Cambridge
# Structural Database, then it will include bibliographic, chemical,
# crystal, experimental, refinement or atomic coordinate data resulting
# from the CCDC's data processing and validation procedures.
#
#######################################################################

data_CSD_CIF_VASFIE
_audit_creation_date 1999-03-24
_audit_creation_method CSD-ConQuest-V1
_database_code_CSD VASFIE
_database_code_depnum_ccdc_archive 'CCDC 117516 101281'
_chemical_formula_sum 'C10 H15 N1 O4'
_chemical_formula_moiety
;
C10 H15 N1 O4
;
_journal_coden_Cambridge 10
_journal_volume 81
_journal_year 1998
_journal_page_first 1373
_journal_name_full 'Helv.Chim.Acta '
loop_
_publ_author_name
"A.Yurdakul"
"C.Gurtner"
"E.-S.Jung"
"A.Lorenzi-Riatsch"
"A.Linden"
"A.Guggisberg"
"S.Bienz"
"M.Hesse"
_chemical_name_systematic
;
2,4-Diethyl-1-hydroxy-4-nitrocyclohexen-3-one
;
_chemical_melting_point 378.15
_cell_volume   1073.202
_exptl_crystal_colour 'Colorless'
_exptl_crystal_density_diffrn 1.32
_exptl_special_details
;
Melting point range 378.15-383.15K

;
_exptl_crystal_description 'needle'
_exptl_crystal_preparation 'dichloromethane/hexane'
_diffrn_ambient_temperature 173
#These two values have been output from a single CSD field.
_refine_ls_R_factor_gt 0.0458
_refine_ls_wR_factor_gt 0.0458
_symmetry_cell_setting monoclinic
_symmetry_space_group_name_H-M 'P 21/c'
_symmetry_Int_Tables_number 14
loop_
_symmetry_equiv_pos_site_id
_symmetry_equiv_pos_as_xyz
1 x,y,z
2 -x,1/2+y,1/2-z
3 -x,-y,-z
4 x,-1/2-y,-1/2+z
_cell_length_a 13.455(5)
_cell_length_b 7.324(4)
_cell_length_c 12.122(6)
_cell_angle_alpha 90
_cell_angle_beta 116.05(3)
_cell_angle_gamma 90
_cell_formula_units_Z 4
loop_
_atom_type_symbol
_atom_type_radius_bond
C 0.68
H 0.23
N 0.68
O 0.68
loop_
_atom_site_label
_atom_site_type_symbol
_atom_site_fract_x
_atom_site_fract_y
_atom_site_fract_z
O1 O 0.7809(1) 0.0271(2) 0.1274(2)
O2 O 0.5799(2) 0.2463(3) -0.0461(2)
O3 O 0.4714(2) 0.0510(3) -0.1753(2)
O4 O 0.8688(2) 0.3604(3) -0.1449(2)
N1 N 0.5637(2) 0.1027(3) -0.1024(2)
C1 C 0.7645(2) 0.0695(3) 0.0210(2)
C2 C 0.6631(2) -0.0199(3) -0.0837(2)
C3 C 0.6718(2) -0.0200(4) -0.2043(2)
C4 C 0.7086(2) 0.1637(4) -0.2322(2)
C5 C 0.8062(2) 0.2386(3) -0.1237(2)
C6 C 0.8328(2) 0.1930(3) -0.0052(2)
C7 C 0.6382(2) -0.2086(4) -0.0470(3)
C8 C 0.7298(3) -0.3445(5) -0.0218(4)
C9 C 0.9305(2) 0.2797(4) 0.0994(2)
C10 C 1.0342(3) 0.1661(6) 0.1428(4)
H1 H 0.849(3) 0.385(5) -0.210(3)
H2 H 0.602(2) -0.057(3) -0.269(2)
H3 H 0.726(2) -0.112(3) -0.204(2)
H4 H 0.730(2) 0.153(4) -0.300(2)
H5 H 0.652(2) 0.253(4) -0.262(2)
H6 H 0.618(2) -0.194(3) 0.023(2)
H7 H 0.570(2) -0.255(4) -0.108(2)
H8 H 0.804(3) -0.306(4) 0.040(3)
H9 H 0.710(2) -0.450(4) -0.001(3)
H10 H 0.743(2) -0.372(4) -0.091(3)
H11 H 0.911(2) 0.300(3) 0.165(2)
H12 H 0.950(2) 0.403(4) 0.082(2)
H13 H 1.093(2) 0.218(4) 0.209(2)
H14 H 1.059(3) 0.134(5) 0.090(3)
H15 H 1.020(3) 0.041(5) 0.172(3)
#END
