
#######################################################################
#
#                 Cambridge Crystallographic Data Centre
#                                CCDC
#
#######################################################################
#
# If this CIF has been generated from an entry in the Cambridge
# Structural Database, then it will include bibliographic, chemical,
# crystal, experimental, refinement or atomic coordinate data resulting
# from the CCDC's data processing and validation procedures.
#
#######################################################################

data_CSD_CIF_VASFAW
_audit_creation_date 1999-03-24
_audit_creation_method CSD-ConQuest-V1
_database_code_CSD VASFAW
_database_code_depnum_ccdc_archive 'CCDC 117515; CCDC 101281'
_chemical_formula_sum 'C13 H19 N1 O4'
_chemical_formula_moiety
;
C13 H19 N1 O4
;
_journal_coden_Cambridge 10
_journal_volume 81
_journal_year 1998
_journal_page_first 1373
_journal_name_full 'Helv.Chim.Acta '
loop_
_publ_author_name
"A.Yurdakul"
"C.Gurtner"
"E.-S.Jung"
"A.Lorenzi-Riatsch"
"A.Linden"
"A.Guggisberg"
"S.Bienz"
"M.Hesse"
_chemical_name_systematic
;
10-Hydroxy-1-nitrobicyclo(7.3.1)tridec-9-en-13-one
;
_chemical_melting_point 378.15
_cell_volume   2578.974
_exptl_crystal_colour 'Colorless'
_exptl_crystal_density_diffrn 1.305
_exptl_special_details
;
Melting point range 378.15-389.15K

;
_exptl_crystal_description 'plate'
_exptl_crystal_preparation 'dichloromethane/hexane'
_diffrn_ambient_temperature 173
#These two values have been output from a single CSD field.
_refine_ls_R_factor_gt 0.0416
_refine_ls_wR_factor_gt 0.0416
_symmetry_cell_setting orthorhombic
_symmetry_space_group_name_H-M 'P b c a'
_symmetry_Int_Tables_number 61
loop_
_symmetry_equiv_pos_site_id
_symmetry_equiv_pos_as_xyz
1 x,y,z
2 1/2-x,-y,1/2+z
3 1/2+x,1/2-y,-z
4 -x,1/2+y,1/2-z
5 -x,-y,-z
6 -1/2+x,y,-1/2-z
7 -1/2-x,-1/2+y,z
8 x,-1/2-y,-1/2+z
_cell_length_a 17.153(6)
_cell_length_b 13.588(6)
_cell_length_c 11.065(6)
_cell_angle_alpha 90
_cell_angle_beta 90
_cell_angle_gamma 90
_cell_formula_units_Z 8
loop_
_atom_type_symbol
_atom_type_radius_bond
C 0.68
H 0.23
N 0.68
O 0.68
loop_
_atom_site_label
_atom_site_type_symbol
_atom_site_fract_x
_atom_site_fract_y
_atom_site_fract_z
O1 O 0.6737(1) 0.5954(1) 0.0298(2)
O2 O 0.7734(2) 0.4275(2) -0.0625(2)
O3 O 0.8441(1) 0.5565(2) -0.0308(2)
O4 O 0.6265(1) 0.8328(1) -0.2657(2)
N1 N 0.7896(2) 0.5138(2) -0.0792(2)
C1 C 0.6819(2) 0.6304(2) -0.0735(2)
C2 C 0.7355(2) 0.5749(2) -0.1609(2)
C3 C 0.7855(2) 0.6477(2) -0.2319(3)
C4 C 0.7342(2) 0.7221(2) -0.2985(2)
C5 C 0.6664(1) 0.7566(2) -0.2236(2)
C6 C 0.6417(1) 0.7146(2) -0.1185(2)
C7 C 0.5708(2) 0.7549(2) -0.0535(3)
C8 C 0.4930(2) 0.7175(2) -0.1050(3)
C9 C 0.4896(2) 0.6055(2) -0.1215(3)
C10 C 0.5138(2) 0.5708(2) -0.2481(3)
C11 C 0.5438(2) 0.4654(3) -0.2550(3)
C12 C 0.6214(2) 0.4472(2) -0.1896(3)
C13 C 0.6898(2) 0.5062(2) -0.2449(3)
H1 H 0.644(2) 0.857(2) -0.344(3)
H2 H 0.822(2) 0.682(2) -0.173(2)
H3 H 0.819(1) 0.613(2) -0.292(2)
H4 H 0.714(1) 0.698(2) -0.372(2)
H5 H 0.766(1) 0.781(2) -0.324(2)
H6 H 0.573(1) 0.735(2) 0.029(3)
H7 H 0.574(2) 0.831(2) -0.053(2)
H8 H 0.481(1) 0.751(2) -0.178(2)
H9 H 0.449(2) 0.738(2) -0.050(3)
H10 H 0.524(1) 0.572(2) -0.065(2)
H11 H 0.435(1) 0.581(2) -0.101(2)
H12 H 0.469(2) 0.579(2) -0.306(3)
H13 H 0.556(2) 0.615(2) -0.286(2)
H14 H 0.549(2) 0.444(2) -0.344(3)
H15 H 0.505(2) 0.418(2) -0.213(2)
H16 H 0.615(1) 0.461(2) -0.096(2)
H17 H 0.635(2) 0.377(2) -0.187(3)
H18 H 0.668(1) 0.548(2) -0.314(2)
H19 H 0.729(2) 0.462(2) -0.287(2)
#END
