
#######################################################################
#
#                 Cambridge Crystallographic Data Centre
#                                CCDC
#
#######################################################################
#
# If this CIF has been generated from an entry in the Cambridge
# Structural Database, then it will include bibliographic, chemical,
# crystal, experimental, refinement or atomic coordinate data resulting
# from the CCDC's data processing and validation procedures.
#
#######################################################################

data_CSD_CIF_VASKUV
_audit_creation_date 1999-03-24
_audit_creation_method CSD-ConQuest-V1
_database_code_CSD VASKUV
_database_code_depnum_ccdc_archive 'CCDC 117518 101281'
_chemical_formula_sum 'C15 H25 N1 O4'
_chemical_formula_moiety
;
C15 H25 N1 O4
;
_journal_coden_Cambridge 10
_journal_volume 81
_journal_year 1998
_journal_page_first 1373
_journal_name_full 'Helv.Chim.Acta '
loop_
_publ_author_name
"A.Yurdakul"
"C.Gurtner"
"E.-S.Jung"
"A.Lorenzi-Riatsch"
"A.Linden"
"A.Guggisberg"
"S.Bienz"
"M.Hesse"
_chemical_name_systematic
;
12-Hydroxy-1-nitrobicyclo(9.3.1)pentadecan-15-one
;
_cell_volume   1539.964
_exptl_crystal_colour 'colorless'
_exptl_crystal_density_diffrn 1.222
_exptl_crystal_description 'prism'
_exptl_crystal_preparation 'ethyl acetate/hexane'
_diffrn_ambient_temperature 173
#These two values have been output from a single CSD field.
_refine_ls_R_factor_gt 0.0379
_refine_ls_wR_factor_gt 0.0379
_symmetry_cell_setting triclinic
_symmetry_space_group_name_H-M 'P -1'
_symmetry_Int_Tables_number 2
loop_
_symmetry_equiv_pos_site_id
_symmetry_equiv_pos_as_xyz
1 x,y,z
2 -x,-y,-z
_cell_length_a 11.384(4)
_cell_length_b 17.360(4)
_cell_length_c 8.360(2)
_cell_angle_alpha 99.57(2)
_cell_angle_beta 107.43(2)
_cell_angle_gamma 94.47(3)
_cell_formula_units_Z 4
loop_
_atom_type_symbol
_atom_type_radius_bond
C 0.68
H 0.23
N 0.68
O 0.68
loop_
_atom_site_label
_atom_site_type_symbol
_atom_site_fract_x
_atom_site_fract_y
_atom_site_fract_z
O1 O 0.4323(1) 0.2394(1) -0.2172(2)
O2 O 0.4435(1) 0.3642(1) -0.1471(2)
O3 O 0.5770(1) 0.42733(8) 0.3833(2)
O4 O 0.4218(1) 0.27118(7) 0.1420(2)
N1 N 0.4812(1) 0.3021(1) -0.1239(2)
C1 C 0.5919(2) 0.3018(1) 0.0370(2)
C2 C 0.6684(2) 0.2362(1) -0.0036(3)
C3 C 0.6087(2) 0.1501(1) -0.0415(3)
C4 C 0.7049(2) 0.0930(1) 0.0012(3)
C5 C 0.7493(2) 0.0882(1) 0.1900(3)
C6 C 0.6525(2) 0.0441(1) 0.2469(3)
C7 C 0.6754(3) 0.0589(1) 0.4394(3)
C8 C 0.6761(2) 0.1446(1) 0.5212(3)
C9 C 0.5524(2) 0.1773(1) 0.4569(3)
C10 C 0.5685(2) 0.2670(1) 0.4800(2)
C11 C 0.6250(2) 0.2956(1) 0.3521(2)
C12 C 0.6799(2) 0.3830(1) 0.3999(2)
C13 C 0.7519(2) 0.4006(1) 0.2807(3)
C14 C 0.6692(2) 0.3842(1) 0.0942(3)
C15 C 0.5333(2) 0.2857(1) 0.1741(2)
O5 O -0.0755(1) 0.31426(9) -0.3666(2)
O6 O -0.0908(2) 0.4145(1) -0.1901(2)
O7 O 0.3409(1) 0.42803(8) 0.4145(2)
O8 O -0.0571(1) 0.3230(1) 0.0604(2)
N2 N -0.0374(2) 0.3598(1) -0.2300(2)
C16 C 0.0833(2) 0.3487(1) -0.0961(2)
C17 C 0.1368(2) 0.2775(1) -0.1683(2)
C18 C 0.0601(2) 0.1961(1) -0.2046(3)
C19 C 0.1416(2) 0.1292(1) -0.1916(3)
C20 C 0.2056(2) 0.1223(1) -0.0074(3)
C21 C 0.1200(2) 0.0832(1) 0.0740(3)
C22 C 0.1699(2) 0.0942(1) 0.2691(3)
C23 C 0.1986(2) 0.1798(1) 0.3646(3)
C24 C 0.0864(2) 0.2254(1) 0.3389(3)
C25 C 0.1225(2) 0.3147(1) 0.3676(3)
C26 C 0.1606(2) 0.3386(1) 0.2200(2)
C27 C 0.2368(2) 0.4208(1) 0.2621(2)
C28 C 0.2787(2) 0.4361(1) 0.1136(3)
C29 C 0.1702(2) 0.4274(1) -0.0522(3)
C30 C 0.0493(2) 0.3352(1) 0.0626(2)
H1 H 0.690(1) 0.2655(9) 0.343(2)
H2 H 0.734(2) 0.3925(9) 0.522(2)
H3 H 0.692(2) 0.247(1) -0.101(2)
H4 H 0.743(2) 0.246(1) 0.098(2)
H5 H 0.551(2) 0.143(1) 0.026(2)
H6 H 0.556(2) 0.133(1) -0.165(2)
H7 H 0.772(2) 0.107(1) -0.037(2)
H8 H 0.669(2) 0.039(1) -0.067(2)
H9 H 0.775(2) 0.141(1) 0.260(2)
H10 H 0.827(2) 0.062(1) 0.215(2)
H11 H 0.567(2) 0.057(1) 0.186(2)
H12 H 0.650(2) -0.012(1) 0.201(2)
H13 H 0.756(2) 0.042(1) 0.493(3)
H14 H 0.609(2) 0.023(1) 0.461(3)
H15 H 0.747(2) 0.179(1) 0.503(2)
H16 H 0.696(2) 0.150(1) 0.644(3)
H17 H 0.512(2) 0.154(1) 0.334(2)
H18 H 0.499(2) 0.160(1) 0.517(2)
H19 H 0.491(2) 0.288(1) 0.471(2)
H20 H 0.626(2) 0.292(1) 0.600(2)
H21 H 0.604(2) 0.476(1) 0.441(2)
H22 H 0.789(2) 0.458(1) 0.313(2)
H23 H 0.822(2) 0.369(1) 0.295(2)
H24 H 0.612(2) 0.423(1) 0.081(2)
H25 H 0.716(2) 0.387(1) 0.016(2)
H26 H 0.184(2) 0.463(1) 0.292(2)
H27 H 0.219(2) 0.2791(9) -0.084(2)
H28 H 0.153(1) 0.288(1) -0.274(2)
H29 H 0.014(2) 0.195(1) -0.124(2)
H30 H -0.003(2) 0.187(1) -0.323(2)
H31 H 0.204(2) 0.137(1) -0.251(2)
H32 H 0.086(2) 0.080(1) -0.257(2)
H33 H 0.240(1) 0.175(1) 0.060(2)
H34 H 0.279(2) 0.091(1) -0.003(2)
H35 H 0.041(2) 0.105(1) 0.042(2)
H36 H 0.103(2) 0.026(1) 0.021(2)
H37 H 0.245(2) 0.068(1) 0.297(2)
H38 H 0.106(2) 0.066(1) 0.309(2)
H39 H 0.262(2) 0.208(1) 0.330(2)
H40 H 0.234(2) 0.180(1) 0.488(3)
H41 H 0.027(2) 0.208(1) 0.224(2)
H42 H 0.041(2) 0.212(1) 0.420(2)
H43 H 0.188(2) 0.332(1) 0.471(2)
H44 H 0.051(2) 0.346(1) 0.384(2)
H45 H 0.210(1) 0.3020(9) 0.184(2)
H46 H 0.400(2) 0.414(1) 0.387(3)
H47 H 0.323(2) 0.490(1) 0.142(2)
H48 H 0.336(2) 0.398(1) 0.095(2)
H49 H 0.202(2) 0.430(1) -0.149(2)
H50 H 0.118(2) 0.470(1) -0.038(2)
#END
