
#######################################################################
#
#                 Cambridge Crystallographic Data Centre
#                                CCDC
#
#######################################################################
#
# If this CIF has been generated from an entry in the Cambridge
# Structural Database, then it will include bibliographic, chemical,
# crystal, experimental, refinement or atomic coordinate data resulting
# from the CCDC's data processing and validation procedures.
#
#######################################################################

data_CSD_CIF_VASKOQ
_audit_creation_date 2004-02-10
_audit_creation_method CSD-ConQuest-V1
_database_code_CSD VASKOQ
_database_code_depnum_ccdc_archive 'CCDC 216572'
_chemical_formula_sum 'C19 H16 N2 O3'
_chemical_formula_moiety
;
C19 H16 N2 O3
;
_journal_coden_Cambridge 692
_journal_volume 2003
_journal_year 2003
_journal_page_first 2089
_journal_name_full 'Synthesis '
loop_
_publ_author_name
"Changsheng Wang"
"A.S.Batsanov"
"M.R.Bryce"
"I.Sage"
_chemical_name_systematic
;
2-(3-Hydroxy-3-methylbutynyl)-4-nitro-5-(2-phenylethynyl)aniline
;
_chemical_melting_point 418.0
_cell_volume    775.250
_exptl_crystal_colour 'brown'
_exptl_crystal_density_diffrn 1.372
_exptl_special_details
;
Melting point range 418.0-418.9K

;
_exptl_crystal_description 'block'
_exptl_crystal_preparation 'deuterochloroform'
_diffrn_ambient_temperature 120
#These two values have been output from a single CSD field.
_refine_ls_R_factor_gt 0.0413
_refine_ls_wR_factor_gt 0.0413
_symmetry_cell_setting triclinic
_symmetry_space_group_name_H-M 'P -1'
_symmetry_Int_Tables_number 2
loop_
_symmetry_equiv_pos_site_id
_symmetry_equiv_pos_as_xyz
1 x,y,z
2 -x,-y,-z
_cell_length_a 7.532(2)
_cell_length_b 10.486(3)
_cell_length_c 11.069(3)
_cell_angle_alpha 72.46(1)
_cell_angle_beta 72.83(1)
_cell_angle_gamma 72.68(1)
_cell_formula_units_Z 2
loop_
_atom_type_symbol
_atom_type_radius_bond
C 0.68
H 0.23
N 0.68
O 0.68
loop_
_atom_site_label
_atom_site_type_symbol
_atom_site_fract_x
_atom_site_fract_y
_atom_site_fract_z
O1 O 0.7542(1) 0.27099(7) 0.68522(7)
O2 O 0.54382(11) 0.25910(7) 0.86671(7)
O3 O 0.93152(9) 0.95017(6) 0.21710(6)
H1 H 1.034(2) 0.8898(15) 0.2361(14)
N1 N 0.61234(11) 0.32508(8) 0.76026(7)
N2 N 0.34970(12) 0.89271(8) 0.58947(8)
H2 H 0.3921(18) 0.9338(13) 0.5090(13)
H3 H 0.2554(19) 0.9388(13) 0.6420(13)
C1 C 0.53120(12) 0.47034(8) 0.71875(8)
C2 C 0.38992(12) 0.54528(9) 0.80444(8)
C3 C 0.33056(12) 0.68652(9) 0.75755(8)
H4 H 0.2339(17) 0.7434(12) 0.8106(11)
C4 C 0.40680(12) 0.75457(9) 0.63055(8)
C5 C 0.54717(12) 0.67636(8) 0.54643(8)
C6 C 0.60561(12) 0.53578(9) 0.59226(8)
H5 H 0.6992(17) 0.4780(12) 0.5405(11)
C7 C 0.30728(13) 0.48412(9) 0.93532(9)
C8 C 0.23802(13) 0.43249(9) 1.04502(9)
C9 C 0.63539(13) 0.74341(9) 0.41883(8)
C10 C 0.71505(13) 0.80260(9) 0.31538(9)
C11 C 0.17593(12) 0.34844(9) 1.17088(8)
C12 C 0.21739(14) 0.20614(9) 1.18529(9)
H6 H 0.2821(19) 0.1704(13) 1.1097(12)
C13 C 0.16763(14) 0.11974(10) 1.30636(9)
H7 H 0.2014(17) 0.0206(12) 1.3115(12)
C14 C 0.07681(14) 0.1744(1) 1.41398(9)
H8 H 0.0445(19) 0.1119(13) 1.4995(12)
C15 C 0.03514(13) 0.31596(10) 1.40061(9)
H9 H -0.0258(19) 0.3540(13) 1.4791(13)
C16 C 0.08240(13) 0.40292(9) 1.27987(9)
H10 H 0.0520(18) 0.5044(13) 1.2732(12)
C17 C 0.81520(12) 0.87918(9) 0.19014(8)
C18 C 0.67033(14) 0.99101(10) 0.12186(9)
H11 H 0.7350(18) 1.0361(13) 0.0371(12)
H12 H 0.5826(18) 0.9516(12) 0.1075(11)
H13 H 0.6002(18) 1.0594(13) 0.1724(13)
C19 C 0.93969(14) 0.78199(10) 0.10320(9)
H14 H 0.9956(18) 0.8330(12) 0.0208(12)
H15 H 0.8682(18) 0.7260(12) 0.0911(12)
H16 H 1.0446(18) 0.7238(13) 0.1409(11)
#END
