
#######################################################################
#
#                 Cambridge Crystallographic Data Centre
#                                CCDC
#
#######################################################################
#
# If this CIF has been generated from an entry in the Cambridge
# Structural Database, then it will include bibliographic, chemical,
# crystal, experimental, refinement or atomic coordinate data resulting
# from the CCDC's data processing and validation procedures.
#
#######################################################################

data_CSD_CIF_VASLOQ
_audit_creation_date 1999-03-24
_audit_creation_method CSD-ConQuest-V1
_database_code_CSD VASLOQ
_database_code_depnum_ccdc_archive 'CCDC 117519 101281'
_chemical_formula_sum 'C16 H25 N1 O4'
_chemical_formula_moiety
;
C16 H25 N1 O4
;
_journal_coden_Cambridge 10
_journal_volume 81
_journal_year 1998
_journal_page_first 1373
_journal_name_full 'Helv.Chim.Acta '
loop_
_publ_author_name
"A.Yurdakul"
"C.Gurtner"
"E.-S.Jung"
"A.Lorenzi-Riatsch"
"A.Linden"
"A.Guggisberg"
"S.Bienz"
"M.Hesse"
_chemical_name_systematic
;
12-Methoxy-1-nitrobicyclo(9.3.1)pentadec-11-en-15-one
;
_chemical_melting_point 426.15
_cell_volume   1547.611
_exptl_crystal_colour 'colorless'
_exptl_crystal_density_diffrn 1.268
_exptl_special_details
;
Melting point range 426.15-428.15K

;
_exptl_crystal_description 'needle'
_exptl_crystal_preparation 'dichloromethane/hexane'
_diffrn_ambient_temperature 173
#These two values have been output from a single CSD field.
_refine_ls_R_factor_gt 0.0396
_refine_ls_wR_factor_gt 0.0396
_symmetry_cell_setting monoclinic
_symmetry_space_group_name_H-M 'P 21/c'
_symmetry_Int_Tables_number 14
loop_
_symmetry_equiv_pos_site_id
_symmetry_equiv_pos_as_xyz
1 x,y,z
2 -x,1/2+y,1/2-z
3 -x,-y,-z
4 x,-1/2-y,-1/2+z
_cell_length_a 5.842(2)
_cell_length_b 13.809(2)
_cell_length_c 19.196(2)
_cell_angle_alpha 90
_cell_angle_beta 92.03(2)
_cell_angle_gamma 90
_cell_formula_units_Z 4
loop_
_atom_type_symbol
_atom_type_radius_bond
C 0.68
H 0.23
N 0.68
O 0.68
loop_
_atom_site_label
_atom_site_type_symbol
_atom_site_fract_x
_atom_site_fract_y
_atom_site_fract_z
O1 O 0.3148(3) 0.4664(1) 0.07946(7)
O2 O -0.0655(3) 0.1663(1) 0.31486(9)
O3 O -0.2249(3) 0.3074(1) 0.30563(9)
O4 O -0.2323(3) 0.2499(1) 0.15848(8)
N1 N -0.0797(3) 0.2477(2) 0.28962(9)
C1 C 0.0402(4) 0.3582(2) 0.1150(1)
C2 C 0.2249(4) 0.4138(1) 0.1314(1)
C3 C 0.3386(4) 0.4198(2) 0.2027(1)
C4 C 0.1970(4) 0.3743(2) 0.2594(1)
C5 C 0.0931(3) 0.2781(2) 0.2354(1)
C6 C -0.0515(3) 0.2941(2) 0.1673(1)
C7 C -0.0852(4) 0.3584(2) 0.0441(1)
C8 C -0.0590(4) 0.2640(2) 0.0028(1)
C9 C 0.1828(4) 0.2457(2) -0.0216(1)
C10 C 0.2346(5) 0.1382(2) -0.0350(1)
C11 C 0.2336(5) 0.0758(2) 0.0307(1)
C12 C 0.4212(4) 0.1015(2) 0.0846(1)
C13 C 0.3927(5) 0.0548(2) 0.1557(1)
C14 C 0.2035(5) 0.1004(2) 0.1976(1)
C15 C 0.2748(4) 0.2000(2) 0.2271(1)
C16 C 0.4847(5) 0.5398(2) 0.0947(1)
H1 H 0.370(4) 0.489(2) 0.215(1)
H2 H 0.489(4) 0.391(1) 0.200(1)
H3 H 0.297(4) 0.364(1) 0.302(1)
H4 H 0.068(4) 0.419(2) 0.272(1)
H5 H -0.260(4) 0.369(2) 0.052(1)
H6 H -0.034(4) 0.415(2) 0.017(1)
H7 H -0.114(4) 0.211(1) 0.032(1)
H8 H -0.171(4) 0.268(1) -0.039(1)
H9 H 0.298(3) 0.272(1) 0.014(1)
H10 H 0.212(4) 0.284(2) -0.065(1)
H11 H 0.389(4) 0.130(2) -0.057(1)
H12 H 0.115(4) 0.113(2) -0.070(1)
H13 H 0.245(4) 0.009(2) 0.018(1)
H14 H 0.079(4) 0.081(2) 0.055(1)
H15 H 0.574(4) 0.085(2) 0.068(1)
H16 H 0.430(4) 0.172(2) 0.090(1)
H17 H 0.367(4) -0.015(2) 0.148(1)
H18 H 0.540(4) 0.060(2) 0.184(1)
H19 H 0.062(4) 0.108(1) 0.168(1)
H20 H 0.158(4) 0.060(2) 0.234(1)
H21 H 0.383(3) 0.229(1) 0.197(1)
H22 H 0.353(3) 0.191(1) 0.274(1)
H23 H 0.623(4) 0.512(2) 0.119(1)
H24 H 0.421(4) 0.592(2) 0.122(1)
H25 H 0.532(4) 0.564(2) 0.048(1)
#END
