
#######################################################################
#
#                 Cambridge Crystallographic Data Centre
#                                CCDC
#
#######################################################################
#
# If this CIF has been generated from an entry in the Cambridge
# Structural Database, then it will include bibliographic, chemical,
# crystal, experimental, refinement or atomic coordinate data resulting
# from the CCDC's data processing and validation procedures.
#
#######################################################################

data_CSD_CIF_VASLEG
_audit_creation_date 1990-02-23
_audit_creation_method CSD-ConQuest-V1
_database_code_CSD VASLEG
_database_code_depnum_ccdc_archive 'CCDC 1280290'
_chemical_formula_sum 'C21 H24 N2 O5'
_chemical_formula_moiety
;
C21 H24 N2 O5
;
_journal_coden_Cambridge 194
_journal_volume 37
_journal_year 1989
_journal_page_first 887
_journal_name_full 'Chem.Pharm.Bull. '
loop_
_publ_author_name
"F.Abe"
"Rong-Fu Chen"
"T.Yamauchi"
"N.Marubayashi"
"I.Ueda"
_chemical_name_systematic
;
Alschomine
;
_chemical_melting_point 506.15
_cell_volume   3813.419
_exptl_crystal_density_diffrn 1.339
_exptl_special_details
;
Melts with decomposition.

;
_diffrn_ambient_temperature ?
_diffrn_special_details
;
The study was carried out at room temperature,in the range 283-303K

;
#These two values have been output from a single CSD field.
_refine_ls_R_factor_gt 0.043
_refine_ls_wR_factor_gt 0.043
_chemical_compound_source
;
Leaves of Alstonia scholaris
;
_symmetry_cell_setting orthorhombic
_symmetry_space_group_name_H-M 'P 21 21 21'
_symmetry_Int_Tables_number 19
loop_
_symmetry_equiv_pos_site_id
_symmetry_equiv_pos_as_xyz
1 x,y,z
2 1/2+x,1/2-y,-z
3 -x,1/2+y,1/2-z
4 1/2-x,-y,1/2+z
_cell_length_a 16.305(3)
_cell_length_b 27.483(5)
_cell_length_c 8.510(1)
_cell_angle_alpha 90
_cell_angle_beta 90
_cell_angle_gamma 90
_cell_formula_units_Z 8
loop_
_atom_type_symbol
_atom_type_radius_bond
C 0.68
N 0.68
O 0.68
loop_
_atom_site_label
_atom_site_type_symbol
_atom_site_fract_x
_atom_site_fract_y
_atom_site_fract_z
O1 O 0.7566(2) 0.0890(1) 0.2599(3)
O2 O 0.6038(2) 0.1403(1) 0.3397(4)
O3 O 0.7891(2) 0.0229(1) 0.4135(4)
O4 O 0.9681(3) 0.1589(1) 0.6255(5)
O5 O 0.9753(2) 0.2371(1) 0.5625(4)
N1 N 0.8324(2) 0.1390(1) 0.0868(4)
N2 N 0.6691(2) 0.1655(1) 0.3775(4)
C1 C 0.7934(2) 0.1359(1) 0.2390(5)
C2 C 0.7278(3) 0.1759(1) 0.2490(5)
C3 C 0.7681(3) 0.0715(1) 0.4161(5)
C4 C 0.8370(3) 0.1018(2) 0.4907(5)
C5 C 0.8649(2) 0.1375(1) 0.3608(5)
C6 C 0.9353(2) 0.1188(1) 0.2606(5)
C7 C 1.0140(3) 0.1050(2) 0.3026(6)
C8 C 1.0709(3) 0.0942(2) 0.1861(8)
C9 C 1.0482(3) 0.0979(2) 0.0288(7)
C10 C 0.9688(3) 0.1106(2) -0.0164(6)
C11 C 0.9128(3) 0.1212(1) 0.1018(5)
C12 C 0.7659(3) 0.2262(1) 0.2763(5)
C13 C 0.8116(3) 0.2249(1) 0.4342(5)
C14 C 0.8863(2) 0.1903(1) 0.4108(5)
C15 C 0.9458(3) 0.1925(2) 0.5461(6)
C16 C 0.8194(4) 0.2530(2) 0.7981(6)
C17 C 0.7573(3) 0.2218(2) 0.7166(5)
C18 C 0.7532(3) 0.2099(1) 0.5642(5)
C19 C 0.6828(3) 0.1810(2) 0.5197(5)
C20 C 0.7216(3) -0.0083(2) 0.3708(9)
C21 C 1.0312(3) 0.2449(2) 0.6938(8)
O6 O 0.5271(2) 0.1667(1) 0.7454(3)
O7 O 0.6835(2) 0.1228(1) 0.8576(4)
O8 O 0.4788(2) 0.2296(1) 0.8981(4)
O9 O 0.3073(2) 0.0810(1) 1.0635(4)
O10 O 0.3076(2) 0.0057(1) 0.9669(4)
N3 N 0.4710(2) 0.1127(1) 0.5562(4)
N4 N 0.6193(2) 0.0948(1) 0.8815(4)
C22 C 0.4995(2) 0.1180(1) 0.7155(5)
C23 C 0.5710(2) 0.0818(1) 0.7408(5)
C24 C 0.5039(3) 0.1826(1) 0.9009(5)
C25 C 0.4348(2) 0.1486(1) 0.9554(5)
C26 C 0.4215(2) 0.1125(1) 0.8201(5)
C27 C 0.3551(2) 0.1279(1) 0.7031(5)
C28 C 0.2724(3) 0.1375(1) 0.7264(6)
C29 C 0.2240(3) 0.1457(2) 0.5937(7)
C30 C 0.2570(3) 0.1437(2) 0.4443(7)
C31 C 0.3395(3) 0.1344(2) 0.4212(6)
C32 C 0.3883(2) 0.1261(1) 0.5532(5)
C33 C 0.5400(2) 0.0296(1) 0.7610(5)
C34 C 0.4837(3) 0.0282(1) 0.9048(5)
C35 C 0.4056(2) 0.0579(1) 0.8617(5)
C36 C 0.3365(2) 0.0513(1) 0.9760(5)
C37 C 0.4502(4) 0.0018(2) 1.2592(7)
C38 C 0.5147(3) 0.0354(2) 1.1970(6)
C39 C 0.5297(3) 0.0469(1) 1.0457(5)
C40 C 0.5991(3) 0.0786(1) 1.0202(5)
C41 C 0.5464(3) 0.2631(2) 0.8687(7)
C42 C 0.2406(3) -0.0075(2) 1.0706(7)
#END
