
#######################################################################
#
#                 Cambridge Crystallographic Data Centre
#                                CCDC
#
#######################################################################
#
# If this CIF has been generated from an entry in the Cambridge
# Structural Database, then it will include bibliographic, chemical,
# crystal, experimental, refinement or atomic coordinate data resulting
# from the CCDC's data processing and validation procedures.
#
#######################################################################

data_CSD_CIF_VASQEL
_audit_creation_date 1999-03-24
_audit_creation_method CSD-ConQuest-V1
_database_code_CSD VASQEL
_database_code_depnum_ccdc_archive 'CCDC 117521 101281'
_chemical_formula_sum 'C25 H35 N1 O7'
_chemical_formula_moiety
;
C25 H35 N1 O7
;
_journal_coden_Cambridge 10
_journal_volume 81
_journal_year 1998
_journal_page_first 1373
_journal_name_full 'Helv.Chim.Acta '
loop_
_publ_author_name
"A.Yurdakul"
"C.Gurtner"
"E.-S.Jung"
"A.Lorenzi-Riatsch"
"A.Linden"
"A.Guggisberg"
"S.Bienz"
"M.Hesse"
_chemical_name_systematic
;
(+)-(1R)-1-Nitro-15-oxobicyclo(9.3.1)pentadec-11-en-12-yl 
4,7,7-trimethyl-3-oxo-2-oxabicyclo(2.2.1)heptanecarboxylate
;
_chemical_melting_point 399.15
_cell_volume   2400.912
_exptl_crystal_colour 'colorless'
_exptl_crystal_density_diffrn 1.277
_exptl_special_details
;
Melting point range 399.15-400.15K

;
_exptl_crystal_description 'prism'
_exptl_crystal_preparation 'diethyl ether/pentane'
_diffrn_ambient_temperature 173
#These two values have been output from a single CSD field.
_refine_ls_R_factor_gt 0.0327
_refine_ls_wR_factor_gt 0.0327
_symmetry_cell_setting orthorhombic
_symmetry_space_group_name_H-M 'P 21 21 21'
_symmetry_Int_Tables_number 19
loop_
_symmetry_equiv_pos_site_id
_symmetry_equiv_pos_as_xyz
1 x,y,z
2 1/2-x,-y,1/2+z
3 1/2+x,1/2-y,-z
4 -x,1/2+y,1/2-z
_cell_length_a 8.278(3)
_cell_length_b 40.038(5)
_cell_length_c 7.244(1)
_cell_angle_alpha 90
_cell_angle_beta 90
_cell_angle_gamma 90
_cell_formula_units_Z 4
loop_
_atom_type_symbol
_atom_type_radius_bond
C 0.68
H 0.23
N 0.68
O 0.68
loop_
_atom_site_label
_atom_site_type_symbol
_atom_site_fract_x
_atom_site_fract_y
_atom_site_fract_z
O1 O -0.2807(3) 0.16955(6) 0.8133(3)
O2 O -0.1224(3) 0.13305(5) 0.9388(3)
O3 O 0.2849(2) 0.09861(4) 0.3014(3)
O4 O 0.1352(2) 0.17272(4) 0.7769(3)
O5 O 0.4705(2) 0.01905(4) 0.2246(2)
O6 O 0.5649(2) -0.02226(4) 0.0443(3)
O7 O 0.2859(2) 0.05112(4) 0.4692(3)
N1 N -0.1694(3) 0.14968(5) 0.8073(4)
C1 C -0.0815(3) 0.14425(6) 0.6221(4)
C2 C -0.1524(3) 0.16582(6) 0.4695(4)
C3 C -0.1281(4) 0.20387(6) 0.4779(5)
C4 C -0.1474(4) 0.21967(7) 0.2857(5)
C5 C -0.0035(4) 0.21331(7) 0.1590(5)
C6 C 0.1464(5) 0.23380(7) 0.2090(5)
C7 C 0.3061(5) 0.21933(8) 0.1411(5)
C8 C 0.3526(4) 0.18563(7) 0.2265(4)
C9 C 0.3842(3) 0.18746(6) 0.4344(4)
C10 C 0.3834(3) 0.15322(6) 0.5318(4)
C11 C 0.2159(3) 0.13812(5) 0.5308(4)
C12 C 0.1713(3) 0.11234(5) 0.4248(4)
C13 C 0.0054(3) 0.09755(6) 0.4104(4)
C14 C -0.0960(3) 0.10670(6) 0.5784(4)
C15 C 0.0967(3) 0.15308(6) 0.6566(4)
C16 C 0.4506(3) 0.05501(5) 0.1942(3)
C17 C 0.5318(3) 0.00685(6) 0.0623(4)
C18 C 0.5522(3) 0.03596(6) -0.0678(4)
C19 C 0.6942(3) 0.05591(7) 0.0198(4)
C20 C 0.6228(3) 0.06935(6) 0.2035(4)
C21 C 0.4023(3) 0.05740(6) -0.0120(3)
C22 C 0.3331(3) 0.06669(6) 0.3387(3)
C23 C 0.5756(4) 0.02587(9) -0.2676(5)
C24 C 0.4033(4) 0.09237(7) -0.0938(4)
C25 C 0.2412(3) 0.04045(7) -0.0526(4)
H1 H -0.100(3) 0.1563(5) 0.364(3)
H2 H -0.266(3) 0.1601(6) 0.463(4)
H3 H -0.201(3) 0.2131(6) 0.568(4)
H4 H -0.017(3) 0.2101(6) 0.527(4)
H5 H -0.255(3) 0.2117(6) 0.227(4)
H6 H -0.161(3) 0.2421(6) 0.303(4)
H7 H 0.024(3) 0.1889(6) 0.164(4)
H8 H -0.038(3) 0.2184(6) 0.028(4)
H9 H 0.136(3) 0.2577(6) 0.155(4)
H10 H 0.147(4) 0.2349(7) 0.345(4)
H11 H 0.394(3) 0.2334(6) 0.161(4)
H12 H 0.302(4) 0.2162(6) 0.008(4)
H13 H 0.265(3) 0.1680(5) 0.203(3)
H14 H 0.449(3) 0.1787(6) 0.169(4)
H15 H 0.302(3) 0.2030(5) 0.496(3)
H16 H 0.489(3) 0.1996(6) 0.458(4)
H17 H 0.460(3) 0.1387(6) 0.477(4)
H18 H 0.424(3) 0.1542(6) 0.666(4)
H19 H 0.017(3) 0.0728(6) 0.406(3)
H20 H -0.046(3) 0.1060(6) 0.292(4)
H21 H -0.059(3) 0.0935(5) 0.687(3)
H22 H -0.212(3) 0.1015(5) 0.553(4)
H23 H 0.790(3) 0.0423(6) 0.042(4)
H24 H 0.731(3) 0.0739(5) -0.062(3)
H25 H 0.618(3) 0.0934(5) 0.205(3)
H26 H 0.675(3) 0.0612(5) 0.311(3)
H27 H 0.592(4) 0.0461(7) -0.342(4)
H28 H 0.479(3) 0.0131(7) -0.314(4)
H29 H 0.676(3) 0.0095(7) -0.273(4)
H30 H 0.311(3) 0.1043(5) -0.051(4)
H31 H 0.402(3) 0.0895(6) -0.229(4)
H32 H 0.502(4) 0.1061(7) -0.065(5)
H33 H 0.154(3) 0.0526(5) 0.008(4)
H34 H 0.243(3) 0.0139(6) -0.011(4)
H35 H 0.220(3) 0.0408(6) -0.182(4)
#END
