
#######################################################################
#
#                 Cambridge Crystallographic Data Centre
#                                CCDC
#
#######################################################################
#
# If this CIF has been generated from an entry in the Cambridge
# Structural Database, then it will include bibliographic, chemical,
# crystal, experimental, refinement or atomic coordinate data resulting
# from the CCDC's data processing and validation procedures.
#
#######################################################################

data_CSD_CIF_VASTAM
_audit_creation_date 2012-05-09
_audit_creation_method CSD-ConQuest-V1
_database_code_CSD VASTAM
_database_code_depnum_ccdc_archive 'CCDC 836410'
_chemical_formula_sum 'C26 H20 N2 O2'
_chemical_formula_moiety
;
C26 H20 N2 O2
;
_journal_coden_Cambridge 24
_journal_volume 53
_journal_year 2012
_journal_page_first 752
_journal_name_full 'Tetrahedron Lett. '
loop_
_publ_author_name
"L.Bianchi"
"G.Giorgi"
"M.Maccagno"
"G.Petrillo"
"C.Scapolla"
"C.Tavani"
_chemical_name_systematic
;
1,4-bis(4-methylphenyl)-3-nitro-9H-carbazole
;
_chemical_name_common
;
3-Nitro-1,4-bis(p-tolyl)-9H-carbazole
;
_cell_volume   2091.785
_exptl_crystal_colour 'yellow'
_exptl_crystal_density_diffrn 1.246
_exptl_crystal_description 'prism'
_diffrn_ambient_temperature 293
#These two values have been output from a single CSD field.
_refine_ls_R_factor_gt 0.0422
_refine_ls_wR_factor_gt 0.0422
_symmetry_cell_setting monoclinic
_symmetry_space_group_name_H-M 'P 21/c'
_symmetry_Int_Tables_number 14
loop_
_symmetry_equiv_pos_site_id
_symmetry_equiv_pos_as_xyz
1 x,y,z
2 -x,1/2+y,1/2-z
3 -x,-y,-z
4 x,-1/2-y,-1/2+z
_cell_length_a 11.8668(6)
_cell_length_b 16.6803(7)
_cell_length_c 10.7031(6)
_cell_angle_alpha 90
_cell_angle_beta 99.124(5)
_cell_angle_gamma 90
_cell_formula_units_Z 4
loop_
_atom_type_symbol
_atom_type_radius_bond
C 0.68
H 0.23
N 0.68
O 0.68
loop_
_atom_site_label
_atom_site_type_symbol
_atom_site_fract_x
_atom_site_fract_y
_atom_site_fract_z
C1 C 0.53867(13) 0.65571(9) 0.29038(16)
C2 C 0.49762(13) 0.57928(10) 0.30270(17)
H1 H 0.53320 0.53680 0.26840
C3 C 0.40550(14) 0.56298(9) 0.36408(16)
C4 C 0.34635(13) 0.62205(10) 0.41913(16)
C5 C 0.38564(13) 0.70073(10) 0.40722(15)
C6 C 0.35054(13) 0.77725(9) 0.45318(15)
C7 C 0.26611(14) 0.80255(10) 0.52153(17)
H2 H 0.21620 0.76570 0.54840
C8 C 0.25774(15) 0.88267(11) 0.54848(17)
H3 H 0.20180 0.89970 0.59420
C9 C 0.33125(15) 0.93878(10) 0.50879(18)
H4 H 0.32360 0.99260 0.52820
C10 C 0.41537(14) 0.91562(10) 0.44103(17)
H5 H 0.46480 0.95290 0.41430
C11 C 0.42337(14) 0.83501(10) 0.41440(16)
N1 N 0.49961(12) 0.79725(8) 0.34747(14)
H6 H 0.5522(14) 0.8249(10) 0.3107(16)
C12 C 0.47889(13) 0.71637(9) 0.34301(16)
C13 C 0.63879(14) 0.66923(10) 0.22684(16)
C14 C 0.72982(15) 0.61533(11) 0.24643(19)
H7 H 0.72940 0.57370 0.30410
C15 C 0.82055(16) 0.62320(12) 0.1810(2)
H8 H 0.87970 0.58610 0.19450
C16 C 0.82566(17) 0.68448(13) 0.0964(2)
C17 C 0.73650(16) 0.73921(11) 0.07920(19)
H9 H 0.73870 0.78190 0.02370
C18 C 0.64462(14) 0.73149(11) 0.14295(17)
H10 H 0.58570 0.76880 0.12920
C19 C 0.92564(19) 0.69203(14) 0.0238(3)
H11 H 0.98550 0.72250 0.07300
H12 H 0.90090 0.71870 -0.05520
H13 H 0.95360 0.63960 0.00800
C20 C 0.24768(13) 0.60961(9) 0.48734(18)
C21 C 0.26460(14) 0.60464(10) 0.61750(19)
H14 H 0.33870 0.60450 0.66160
C22 C 0.17461(16) 0.59996(10) 0.68376(19)
H15 H 0.18890 0.59710 0.77160
C23 C 0.06377(16) 0.59938(11) 0.6222(2)
C24 C 0.04639(15) 0.60384(12) 0.4925(2)
H16 H -0.02780 0.60320 0.44860
C25 C 0.13685(14) 0.60920(11) 0.42548(19)
H17 H 0.12250 0.61260 0.33770
C26 C -0.03512(16) 0.59478(13) 0.6957(2)
H18 H -0.04610 0.64620 0.73240
H19 H -0.01870 0.55550 0.76170
H20 H -0.10320 0.57980 0.63970
N2 N 0.37157(12) 0.47863(9) 0.36657(17)
O1 O 0.40277(14) 0.43318(8) 0.28979(17)
O2 O 0.31530(11) 0.45553(7) 0.44522(15)
#END
