
#######################################################################
#
#                 Cambridge Crystallographic Data Centre
#                                CCDC
#
#######################################################################
#
# If this CIF has been generated from an entry in the Cambridge
# Structural Database, then it will include bibliographic, chemical,
# crystal, experimental, refinement or atomic coordinate data resulting
# from the CCDC's data processing and validation procedures.
#
#######################################################################

data_CSD_CIF_VATNIP
_audit_creation_date 2012-05-09
_audit_creation_method CSD-ConQuest-V1
_database_code_CSD VATNIP
_database_code_depnum_ccdc_archive 'CCDC 697835'
_chemical_formula_sum 'C14 H10 N2 O2'
_chemical_formula_moiety
;
C14 H10 N2 O2
;
_journal_coden_Cambridge 757
_journal_volume 14
_journal_year 2010
_journal_page_first 643
_journal_name_full 'Mol.Diversity '
loop_
_publ_author_name
"F.T.Martins"
"A.P.Ayala"
"W.Porcal"
"H.Cerecetto"
"M.Gonzales"
"J.Ellena"
_chemical_name_systematic
;
6-(2-Phenylvinyl)-2,1,3-benzoxadiazole 1-oxide
;
_cell_volume   1176.023
_exptl_crystal_colour 'yellow'
_exptl_crystal_density_diffrn 1.346
_exptl_crystal_description 'needle'
_diffrn_ambient_temperature 293
#These two values have been output from a single CSD field.
_refine_ls_R_factor_gt 0.0438
_refine_ls_wR_factor_gt 0.0438
_symmetry_cell_setting orthorhombic
_symmetry_space_group_name_H-M 'P 21 21 21'
_symmetry_Int_Tables_number 19
loop_
_symmetry_equiv_pos_site_id
_symmetry_equiv_pos_as_xyz
1 x,y,z
2 1/2-x,-y,1/2+z
3 1/2+x,1/2-y,-z
4 -x,1/2+y,1/2-z
_cell_length_a 7.2368(6)
_cell_length_b 12.613(1)
_cell_length_c 12.884(1)
_cell_angle_alpha 90
_cell_angle_beta 90
_cell_angle_gamma 90
_cell_formula_units_Z 4
loop_
_atom_type_symbol
_atom_type_radius_bond
C 0.68
H 0.23
N 0.68
O 0.68
loop_
_atom_site_label
_atom_site_type_symbol
_atom_site_fract_x
_atom_site_fract_y
_atom_site_fract_z
C1 C 0.8766(4) 0.1464(2) 0.1758(2)
C2 C 0.8746(4) 0.2291(2) 0.0959(2)
H1 H 0.85190 0.29810 0.11800
C3 C 0.8919(4) 0.29523(19) -0.0863(2)
C4 C 0.9015(4) 0.2152(2) -0.0032(2)
H2 H 0.93030 0.14650 -0.02390
O1 O 0.8983(3) 0.43688(19) -0.40859(18)
N1 N 0.8693(4) 0.5072(2) -0.3284(2)
O2 O 0.9519(5) 0.2584(2) -0.4255(2)
C5 C 0.9162(4) 0.2639(2) -0.1861(2)
H3 H 0.93970 0.19340 -0.20240
N2 N 0.9219(4) 0.3312(2) -0.3655(2)
C6 C 0.8593(4) 0.4051(2) -0.0650(2)
H4 H 0.84310 0.42540 0.00380
C7 C 0.8730(4) 0.4490(2) -0.2423(2)
C8 C 0.9047(4) 0.3412(2) -0.2636(2)
C9 C 0.8681(4) 0.0387(2) 0.1530(2)
H5 H 0.86440 0.01700 0.08400
C10 C 0.8691(5) -0.0061(3) 0.3316(3)
H6 H 0.86580 -0.05740 0.38330
C11 C 0.8509(4) 0.4806(2) -0.1386(2)
H7 H 0.83110 0.55130 -0.12130
C12 C 0.8807(5) 0.1746(3) 0.2800(2)
H8 H 0.88540 0.24590 0.29810
C13 C 0.8650(4) -0.0360(3) 0.2303(3)
H9 H 0.86000 -0.10760 0.21330
C14 C 0.8779(5) 0.0981(3) 0.3579(3)
H10 H 0.88210 0.11810 0.42730
#END
