
#######################################################################
#
#                 Cambridge Crystallographic Data Centre
#                                CCDC
#
#######################################################################
#
# If this CIF has been generated from an entry in the Cambridge
# Structural Database, then it will include bibliographic, chemical,
# crystal, experimental, refinement or atomic coordinate data resulting
# from the CCDC's data processing and validation procedures.
#
#######################################################################

data_CSD_CIF_VATPAI
_audit_creation_date 2004-02-10
_audit_creation_method CSD-ConQuest-V1
_database_code_CSD VATPAI
_database_code_depnum_ccdc_archive 'CCDC 226952'
_chemical_formula_sum 'C5 H10 N2 O2'
_chemical_formula_moiety
;
C5 H10 N2 O2
;
_journal_coeditor_code "IUCr FL6064"
_journal_coden_Cambridge 1370
_journal_volume 59
_journal_year 2003
_journal_page_first o1648
_journal_name_full 'Acta Crystallogr.,Sect.E:Struct.Rep.Online '
loop_
_publ_author_name
"M.M.Olmstead"
"J.J.Sahbari"
_chemical_name_systematic
;
Acetylacetone dioxime
;
_chemical_name_common
;
Pentane-2,4-dione dioxime
;
_cell_volume    703.663
_exptl_crystal_colour 'colorless'
_exptl_crystal_density_diffrn 1.229
_exptl_crystal_description 'block'
_exptl_crystal_preparation 'perfluorocyclohexane'
_diffrn_ambient_temperature 130
#These two values have been output from a single CSD field.
_refine_ls_R_factor_gt 0.0279
_refine_ls_wR_factor_gt 0.0279
_symmetry_cell_setting tetragonal
_symmetry_space_group_name_H-M 'P -4 n 2'
_symmetry_Int_Tables_number 118
loop_
_symmetry_equiv_pos_site_id
_symmetry_equiv_pos_as_xyz
1 x,y,z
2 -x,-y,z
3 y,-x,-z
4 -y,x,-z
5 1/2+x,1/2-y,1/2+z
6 1/2-x,1/2+y,1/2+z
7 1/2+y,1/2+x,1/2-z
8 1/2-y,1/2-x,1/2-z
_cell_length_a 10.852(2)
_cell_length_b 10.852(2)
_cell_length_c 5.9751(15)
_cell_angle_alpha 90
_cell_angle_beta 90
_cell_angle_gamma 90
_cell_formula_units_Z 4
loop_
_atom_type_symbol
_atom_type_radius_bond
C 0.68
H 0.23
N 0.68
O 0.68
loop_
_atom_site_label
_atom_site_type_symbol
_atom_site_fract_x
_atom_site_fract_y
_atom_site_fract_z
O1 O 0.33898(10) 0.4057(1) 0.2077(2)
H1 H 0.390(2) 0.383(2) 0.076(5)
N1 N 0.31472(12) 0.52870(11) 0.1520(3)
C1 C 0.24110(13) 0.58023(13) 0.2909(3)
C2 C 0.18573(18) 0.51634(19) 0.4866(3)
H2 H 0.122(2) 0.565(2) 0.557(5)
H3 H 0.149(2) 0.436(2) 0.447(4)
H4 H 0.248(2) 0.496(3) 0.597(5)
C3 C 0.21494(15) 0.71494(15) 0.25000
H5 H 0.263(2) 0.744(2) 0.121(3)
C1F C 0.08023(13) 0.74110(13) 0.2091(3)
N1F N 0.02870(12) 0.81472(11) 0.3480(3)
O1F O -0.0943(1) 0.83898(10) 0.2923(2)
H1F H -0.117(2) 0.890(2) 0.424(5)
C2F C 0.01634(18) 0.68573(19) 0.0134(3)
H2F H 0.065(2) 0.622(2) -0.057(5)
H3F H -0.064(2) 0.649(2) 0.053(4)
H4F H -0.004(2) 0.748(3) -0.097(5)
H5F H 0.244(2) 0.763(2) 0.379(3)
#END
