
#######################################################################
#
#                 Cambridge Crystallographic Data Centre
#                                CCDC
#
#######################################################################
#
# If this CIF has been generated from an entry in the Cambridge
# Structural Database, then it will include bibliographic, chemical,
# crystal, experimental, refinement or atomic coordinate data resulting
# from the CCDC's data processing and validation procedures.
#
#######################################################################

data_CSD_CIF_VATXAR
_audit_creation_date 2012-04-25
_audit_creation_method CSD-ConQuest-V1
_database_code_CSD VATXAR
_database_code_depnum_ccdc_archive 'CCDC 846035'
_chemical_formula_sum 'C15 H13 N1 O5'
_chemical_formula_moiety
;
C15 H13 N1 O5
;
_journal_coden_Cambridge 119
_journal_volume 1010
_journal_year 2012
_journal_page_first 79
_journal_name_full 'J.Mol.Struct. '
loop_
_publ_author_name
"Lihua Lu"
"Liang He"
_chemical_name_systematic
;
(4-Ethoxy-2-hydroxyphenyl)(3-nitrophenyl)methanone
;
_cell_volume   1356.096
_exptl_crystal_density_diffrn 1.407
_diffrn_ambient_temperature 298
#These two values have been output from a single CSD field.
_refine_ls_R_factor_gt 0.1085
_refine_ls_wR_factor_gt 0.1085
_symmetry_cell_setting monoclinic
_symmetry_space_group_name_H-M 'P 21/n'
_symmetry_Int_Tables_number 14
loop_
_symmetry_equiv_pos_site_id
_symmetry_equiv_pos_as_xyz
1 x,y,z
2 1/2-x,1/2+y,1/2-z
3 -x,-y,-z
4 -1/2+x,-1/2-y,-1/2+z
_cell_length_a 3.9765(5)
_cell_length_b 11.8286(15)
_cell_length_c 28.867(3)
_cell_angle_alpha 90
_cell_angle_beta 92.871(1)
_cell_angle_gamma 90
_cell_formula_units_Z 4
loop_
_atom_type_symbol
_atom_type_radius_bond
C 0.68
H 0.23
N 0.68
O 0.68
loop_
_atom_site_label
_atom_site_type_symbol
_atom_site_fract_x
_atom_site_fract_y
_atom_site_fract_z
N1 N 0.8830(19) 0.7973(7) 0.0317(2)
O1 O 0.2766(14) 0.6652(4) 0.17504(16)
O2 O 0.2529(13) 0.6095(4) 0.26037(16)
H1 H 0.21430 0.60490 0.23230
O3 O 0.7768(14) 0.8348(4) 0.37386(16)
O4 O 0.9752(18) 0.6984(5) 0.03512(19)
O5 O 0.904(2) 0.8524(5) -0.0036(2)
C1 C 0.4305(19) 0.7551(6) 0.1862(2)
C2 C 0.5151(18) 0.7811(5) 0.2348(2)
C3 C 0.4317(18) 0.7046(5) 0.2702(2)
C4 C 0.5192(19) 0.7266(5) 0.3155(2)
H2 H 0.46040 0.67560 0.33830
C5 C 0.6925(18) 0.8229(6) 0.3282(2)
C6 C 0.7810(18) 0.9017(6) 0.2947(2)
H3 H 0.89250 0.96820 0.30330
C7 C 0.6984(18) 0.8782(6) 0.2486(2)
H4 H 0.76610 0.92820 0.22600
C8 C 0.947(2) 0.9363(6) 0.3901(2)
H5 H 0.80440 1.00180 0.38430
H6 H 1.15380 0.94680 0.37420
C9 C 1.024(3) 0.9222(8) 0.4418(3)
H7 H 0.82340 0.93480 0.45810
H8 H 1.19320 0.97600 0.45200
H9 H 1.10570 0.84700 0.44790
C10 C 0.5128(19) 0.8323(5) 0.1474(2)
C11 C 0.6558(19) 0.7834(6) 0.1084(2)
H10 H 0.70520 0.70660 0.10790
C12 C 0.720(2) 0.8505(6) 0.0719(2)
C13 C 0.646(2) 0.9645(6) 0.0700(2)
H11 H 0.68880 1.00730 0.04390
C14 C 0.506(2) 1.0125(6) 0.1077(2)
H12 H 0.45200 1.08900 0.10710
C15 C 0.4459(18) 0.9500(5) 0.1462(2)
H13 H 0.35990 0.98500 0.17190
#END
