
#######################################################################
#
#                 Cambridge Crystallographic Data Centre
#                                CCDC
#
#######################################################################
#
# If this CIF has been generated from an entry in the Cambridge
# Structural Database, then it will include bibliographic, chemical,
# crystal, experimental, refinement or atomic coordinate data resulting
# from the CCDC's data processing and validation procedures.
#
#######################################################################

data_CSD_CIF_VATYOE
_audit_creation_date 1990-03-16
_audit_creation_method CSD-ConQuest-V1
_database_code_CSD VATYOE
_database_code_depnum_ccdc_archive 'CCDC 1280443'
_chemical_formula_sum 'C18 H19 N3 O3'
_chemical_formula_moiety
;
C18 H19 N3 O3
;
_journal_coden_Cambridge 182
_journal_year 1989
_journal_page_first 986
_journal_name_full 'Chem.Commun. '
loop_
_publ_author_name
"N.G.Argyropoulos"
"J.K.Gallos"
"Ze-Ying Zhang"
"G.L.Palenik"
_chemical_name_systematic
;
3-Mesityl-6,7-dimethylbenzo(c)(1,2,5)triazine tri-N-oxide
;
_cell_volume   1629.607
_exptl_crystal_colour 'yellow'
_exptl_crystal_density_diffrn 1.33
_diffrn_ambient_temperature ?
_diffrn_special_details
;
The study was carried out at room temperature,in the range 283-303K

;
#These two values have been output from a single CSD field.
_refine_ls_R_factor_gt 0.037
_refine_ls_wR_factor_gt 0.037
_symmetry_cell_setting monoclinic
_symmetry_space_group_name_H-M 'P 21/n'
_symmetry_Int_Tables_number 14
loop_
_symmetry_equiv_pos_site_id
_symmetry_equiv_pos_as_xyz
1 x,y,z
2 1/2-x,1/2+y,1/2-z
3 -x,-y,-z
4 -1/2+x,-1/2-y,-1/2+z
_cell_length_a 8.722(4)
_cell_length_b 11.194(6)
_cell_length_c 16.691(7)
_cell_angle_alpha 90
_cell_angle_beta 90.12(4)
_cell_angle_gamma 90
_cell_formula_units_Z 4
loop_
_atom_type_symbol
_atom_type_radius_bond
C 0.68
H 0.23
N 0.68
O 0.68
loop_
_atom_site_label
_atom_site_type_symbol
_atom_site_fract_x
_atom_site_fract_y
_atom_site_fract_z
C1 C -0.0770(3) 0.2149(3) 0.1089(2)
C2 C -0.2381(3) 0.3099(3) 0.0127(2)
C3 C -0.3461(3) 0.2203(3) 0.0222(2)
C4 C -0.4847(4) 0.2279(3) -0.0189(2)
C5 C -0.5158(4) 0.3227(3) -0.0672(2)
C6 C -0.4049(4) 0.4130(3) -0.0783(2)
C7 C -0.2675(4) 0.4047(3) -0.0382(2)
C8 C -0.6702(5) 0.3320(5) -0.1081(3)
C9 C -0.4327(5) 0.5154(4) -0.1345(2)
C10 C 0.0595(4) 0.2156(3) 0.1596(2)
C11 C 0.1811(3) 0.1411(3) 0.1431(2)
C12 C 0.3110(4) 0.1491(3) 0.1911(2)
C13 C 0.3196(4) 0.2284(3) 0.2543(2)
C14 C 0.1958(4) 0.3002(3) 0.2701(2)
C15 C 0.0640(3) 0.2960(3) 0.2234(2)
C16 C -0.0671(4) 0.3798(4) 0.2390(2)
C17 C 0.4648(4) 0.2380(4) 0.3040(3)
C18 C 0.1747(4) 0.0542(3) 0.0747(2)
N1 N -0.3166(3) 0.1251(2) 0.0723(1)
N2 N -0.1837(3) 0.1259(2) 0.1171(2)
N3 N -0.1010(3) 0.3025(2) 0.0559(2)
O1 O -0.4057(2) 0.0387(2) 0.0819(1)
O2 O -0.1635(3) 0.0412(2) 0.1649(1)
O3 O 0.0013(3) 0.3830(2) 0.0458(2)
H1 H -0.5537(29) 0.1636(25) -0.0120(16)
H2 H -0.1948(29) 0.4641(22) -0.0414(15)
H3 H -0.7240(43) 0.2546(36) -0.1040(21)
H4 H -0.6648(34) 0.3522(27) -0.1600(18)
H5 H -0.7288(56) 0.4007(47) -0.0871(26)
H6 H -0.3466(39) 0.5724(31) -0.1310(19)
H7 H -0.5116(36) 0.5643(30) -0.1163(19)
H8 H 0.3943(32) 0.1018(25) 0.1800(16)
H9 H 0.1893(37) 0.3579(28) 0.3128(19)
H10 H -0.1702(41) 0.345(3) 0.2287(19)
H11 H -0.0690(41) 0.4456(34) 0.1986(21)
H12 H -0.0713(44) 0.4059(34) 0.2947(22)
H13 H 0.5054(66) 0.3231(58) 0.3060(32)
H14 H 0.5399(66) 0.2018(61) 0.2840(33)
H15 H 0.4509(50) 0.2160(43) 0.3551(25)
H16 H 0.2732(48) 0.0216(37) 0.0646(22)
H17 H 0.1289(41) 0.0999(34) 0.0270(21)
H18 H 0.0841(43) 0.0011(32) 0.0827(22)
H19 H -0.4498(48) 0.4934(36) -0.1928(24)
#END
