
#######################################################################
#
#                 Cambridge Crystallographic Data Centre
#                                CCDC
#
#######################################################################
#
# If this CIF has been generated from an entry in the Cambridge
# Structural Database, then it will include bibliographic, chemical,
# crystal, experimental, refinement or atomic coordinate data resulting
# from the CCDC's data processing and validation procedures.
#
#######################################################################

data_CSD_CIF_VAVMEM
_audit_creation_date 2012-04-25
_audit_creation_method CSD-ConQuest-V1
_database_code_CSD VAVMEM
_database_code_depnum_ccdc_archive 'CCDC 842786'
_chemical_formula_sum 'C21 H30 N2 O4'
_chemical_formula_moiety
;
C21 H30 N2 O4
;
_journal_coden_Cambridge 1336
_journal_volume 14
_journal_year 2012
_journal_page_first 58
_journal_name_full 'Org.Lett. '
loop_
_publ_author_name
"M.Jacolot"
"M.Jean"
"N.Levoin"
"P.van de Weghe"
_chemical_name_systematic
;
4-Nitro-N-(2,3,5,7-tetramethyl-1-oxaspiro[5.5]undec-4-yl)benzamide
;
_cell_volume   3155.581
_exptl_crystal_colour 'colorless'
_exptl_crystal_density_diffrn 1.182
_exptl_crystal_description 'prism'
_diffrn_ambient_temperature 150
#These two values have been output from a single CSD field.
_refine_ls_R_factor_gt 0.0363
_refine_ls_wR_factor_gt 0.0363
_symmetry_cell_setting hexagonal
_symmetry_space_group_name_H-M 'P 61'
_symmetry_Int_Tables_number 169
loop_
_symmetry_equiv_pos_site_id
_symmetry_equiv_pos_as_xyz
1 x,y,z
2 -x,-y,1/2+z
3 -y,x-y,1/3+z
4 -x+y,-x,2/3+z
5 x-y,x,1/6+z
6 y,-x+y,5/6+z
_cell_length_a 12.570(3)
_cell_length_b 12.570(3)
_cell_length_c 23.061(5)
_cell_angle_alpha 90
_cell_angle_beta 90
_cell_angle_gamma 120
_cell_formula_units_Z 6
loop_
_atom_type_symbol
_atom_type_radius_bond
C 0.68
H 0.23
N 0.68
O 0.68
loop_
_atom_site_label
_atom_site_type_symbol
_atom_site_fract_x
_atom_site_fract_y
_atom_site_fract_z
C1 C 0.8008(2) 0.4704(2) 0.72917(16)
H1 H 0.88890 0.50350 0.73550
H2 H 0.76910 0.50440 0.75820
H3 H 0.78760 0.49310 0.69030
C2 C 0.7333(2) 0.3302(2) 0.73469(12)
H4 H 0.74640 0.30990 0.77510
C3 C 0.7905(2) 0.2782(2) 0.69309(14)
H5 H 0.78270 0.30150 0.65300
H6 H 0.87920 0.31600 0.70190
C4 C 0.7322(2) 0.1397(2) 0.69634(14)
H7 H 0.74740 0.11580 0.73500
H8 H 0.76950 0.11120 0.66680
C5 C 0.5937(2) 0.0790(2) 0.68578(13)
H9 H 0.57840 0.09610 0.64570
H10 H 0.55530 -0.01110 0.69040
C6 C 0.5369(2) 0.1283(2) 0.72875(11)
H11 H 0.54910 0.10690 0.76860
H12 H 0.44730 0.08760 0.72160
C7 C 0.5921(2) 0.26890(19) 0.72468(10)
C8 C 0.5318(2) 0.31991(19) 0.76572(9)
H13 H 0.58200 0.41130 0.76190
C9 C 0.4007(2) 0.28662(18) 0.74759(9)
H14 H 0.38060 0.34270 0.76980
C10 C 0.39594(19) 0.31425(19) 0.68323(8)
H15 H 0.44440 0.40560 0.67870
C11 C 0.45887(19) 0.26153(19) 0.64600(9)
H16 H 0.41050 0.16980 0.64760
O1 O 0.58131(13) 0.30331(13) 0.66619(6)
C12 C 0.5373(3) 0.2936(2) 0.83013(10)
H17 H 0.49700 0.32920 0.85300
H18 H 0.62330 0.33020 0.84220
H19 H 0.49510 0.20460 0.83640
C13 C 0.2657(2) 0.2732(2) 0.66243(10)
H20 H 0.22340 0.18520 0.65340
H21 H 0.26930 0.31950 0.62760
H22 H 0.22080 0.28850 0.69300
C14 C 0.4737(2) 0.3032(2) 0.58329(10)
H23 H 0.52390 0.39290 0.58160
H24 H 0.39270 0.27700 0.56650
H25 H 0.51410 0.26650 0.56130
N1 N 0.30617(15) 0.16035(15) 0.76310(7)
H26 H 0.29520 0.09930 0.74040
C15 C 0.23674(19) 0.13578(18) 0.81043(8)
O2 O 0.24438(15) 0.21594(14) 0.84391(6)
C16 C 0.14609(19) 0.00252(19) 0.82265(8)
C17 C 0.1664(2) -0.0920(2) 0.80580(9)
H27 H 0.23840 -0.07360 0.78460
C18 C 0.0826(2) -0.2126(2) 0.81966(10)
H28 H 0.09650 -0.27740 0.80830
C19 C -0.0216(2) -0.2370(2) 0.85025(10)
C20 C -0.0443(2) -0.1454(2) 0.86778(11)
H29 H -0.11690 -0.16460 0.88860
C21 C 0.0408(2) -0.0251(2) 0.85440(9)
H30 H 0.02760 0.03930 0.86690
N2 N -0.11004(19) -0.36572(19) 0.86580(11)
O3 O -0.07824(18) -0.44217(17) 0.86111(11)
O4 O -0.21169(18) -0.38928(18) 0.88253(12)
#END
