
#######################################################################
#
#                 Cambridge Crystallographic Data Centre
#                                CCDC
#
#######################################################################
#
# If this CIF has been generated from an entry in the Cambridge
# Structural Database, then it will include bibliographic, chemical,
# crystal, experimental, refinement or atomic coordinate data resulting
# from the CCDC's data processing and validation procedures.
#
#######################################################################

data_CSD_CIF_VAVPEP
_audit_creation_date 2012-04-25
_audit_creation_method CSD-ConQuest-V1
_database_code_CSD VAVPEP
_database_code_depnum_ccdc_archive 'CCDC 870160'
_chemical_formula_sum 'C26 H28 N2 O4'
_chemical_formula_moiety
;
C26 H28 N2 O4
;
_journal_coden_Cambridge 1336
_journal_volume 14
_journal_year 2012
_journal_page_first 138
_journal_name_full 'Org.Lett. '
loop_
_publ_author_name
"Keunsoo Kim"
"J.W.Lauher"
"K.A.Parker"
_chemical_name_systematic
;
N-(2-Hydroxy-1-phenylethyl)-1,3,5-trimethyl-8-(4-nitrophenyl)bicyclo[4.2.0]oct
a-2,4-diene-7-carboxamide
;
_cell_volume   2438.334
_exptl_crystal_colour 'colorless'
_exptl_crystal_density_diffrn 1.178
_exptl_crystal_description 'needle'
_diffrn_ambient_temperature 292
#These two values have been output from a single CSD field.
_refine_ls_R_factor_gt 0.0364
_refine_ls_wR_factor_gt 0.0364
_symmetry_cell_setting orthorhombic
_symmetry_space_group_name_H-M 'P 21 21 21'
_symmetry_Int_Tables_number 19
loop_
_symmetry_equiv_pos_site_id
_symmetry_equiv_pos_as_xyz
1 x,y,z
2 1/2-x,-y,1/2+z
3 -x,1/2+y,1/2-z
4 1/2+x,1/2-y,-z
_cell_length_a 6.9954(4)
_cell_length_b 11.7795(7)
_cell_length_c 29.5906(17)
_cell_angle_alpha 90
_cell_angle_beta 90
_cell_angle_gamma 90
_cell_formula_units_Z 4
loop_
_atom_type_symbol
_atom_type_radius_bond
C 0.68
H 0.23
N 0.68
O 0.68
loop_
_atom_site_label
_atom_site_type_symbol
_atom_site_fract_x
_atom_site_fract_y
_atom_site_fract_z
N1 N 0.9572(2) 0.14232(16) 0.03421(7)
H1 H 0.84080 0.16570 0.03350
C1 C 1.0415(4) 0.1299(2) 0.07450(9)
C2 C 0.7647(3) -0.0255(2) 0.15447(8)
O1 O 1.0299(2) 0.3099(2) -0.03614(6)
C3 C 0.4963(4) -0.1954(2) 0.15976(9)
C4 C 0.9218(3) 0.1563(2) 0.11572(8)
H2 H 0.792(3) 0.1793(16) 0.1070(6)
C5 C 0.9459(4) 0.3591(3) 0.14935(10)
C6 C 1.0071(4) 0.2402(2) 0.15164(9)
H3 H 1.147(3) 0.2356(18) 0.1517(7)
O2 O 1.2105(2) 0.10134(14) 0.07850(5)
C7 C 1.0525(4) 0.1182(3) -0.00853(9)
H4 H 1.189(3) 0.1337(18) -0.0044(7)
C8 C 0.9802(3) 0.1962(3) -0.04507(8)
H5 H 1.03410 0.17350 -0.07390
H6 H 0.84230 0.18980 -0.04720
C9 C 0.5781(4) -0.0072(2) 0.14157(8)
H7 H 0.54260 0.06410 0.13100
C10 C 0.9159(3) 0.0649(2) 0.15294(8)
H8 H 1.040(3) 0.0269(17) 0.1532(7)
C11 C 0.9224(4) 0.1626(2) 0.18925(8)
C12 C 0.8124(4) -0.1323(2) 0.16994(8)
H9 H 0.93740 -0.14620 0.17910
N2 N 0.3548(4) -0.2875(2) 0.16264(10)
C13 C 0.7322(4) 0.2053(3) 0.20445(8)
H10 H 0.65210 0.15550 0.21980
C14 C 0.6805(4) -0.2192(2) 0.17229(8)
H11 H 0.71540 -0.29140 0.18200
C15 C 0.4432(4) -0.0916(2) 0.14390(9)
H12 H 0.31800 -0.07820 0.13480
O3 O 0.1940(3) -0.26912(18) 0.14997(9)
C16 C 0.6706(4) 0.3109(3) 0.19727(9)
C17 C 0.7860(5) 0.3893(2) 0.17048(10)
H13 H 0.74550 0.46430 0.16810
C18 C 1.0490(4) 0.1368(2) 0.22989(8)
H14 H 1.06760 0.20480 0.24720
H15 H 1.17050 0.10890 0.21960
H16 H 0.98860 0.08030 0.24840
O4 O 0.4054(4) -0.3784(2) 0.17748(9)
C19 C 1.0606(4) 0.4394(2) 0.1210(1)
H17 H 1.00980 0.51470 0.12410
H18 H 1.05410 0.41640 0.08990
H19 H 1.19130 0.43860 0.13090
C20 C 0.4847(4) 0.3552(2) 0.2154(1)
H20 H 0.41640 0.29460 0.22990
H21 H 0.40940 0.38480 0.19100
H22 H 0.50950 0.41440 0.23690
C21 C 1.0325(7) -0.0034(4) -0.02203(10)
C22 C 0.999(2) -0.2276(9) -0.0508(3)
H23 H 0.98930 -0.30350 -0.05930
C23 C 0.8464(12) -0.1699(6) -0.03609(18)
H24 H 0.72750 -0.20520 -0.03590
C24 C 1.1899(8) -0.0586(5) -0.03844(13)
H25 H 1.30810 -0.02270 -0.03990
C25 C 0.8615(8) -0.0585(4) -0.02106(13)
H26 H 0.75370 -0.02120 -0.01020
C26 C 1.1669(16) -0.1721(8) -0.0531(3)
H27 H 1.27250 -0.21010 -0.06480
H28 H 0.934(4) 0.359(3) -0.0423(10)
#END
