
#######################################################################
#
#                 Cambridge Crystallographic Data Centre
#                                CCDC
#
#######################################################################
#
# If this CIF has been generated from an entry in the Cambridge
# Structural Database, then it will include bibliographic, chemical,
# crystal, experimental, refinement or atomic coordinate data resulting
# from the CCDC's data processing and validation procedures.
#
#######################################################################

data_CSD_CIF_VAVVIZ
_audit_creation_date 2012-04-25
_audit_creation_method CSD-ConQuest-V1
_database_code_CSD VAVVIZ
_database_code_depnum_ccdc_archive 'CCDC 870184'
_chemical_formula_sum 'C20 H22 N2 O6'
_chemical_formula_moiety
;
C20 H22 N2 O6
;
_journal_coden_Cambridge 1336
_journal_volume 14
_journal_year 2012
_journal_page_first 252
_journal_name_full 'Org.Lett. '
loop_
_publ_author_name
"R.Hayashi"
"Zhi-Xiong Ma"
"R.P.Hsung"
_chemical_name_systematic
;
9-Methylenetricyclo[6.2.2.0^1,6^]dodec-10-yl 2,4-dinitrobenzoate
;
_cell_volume    911.118
_exptl_crystal_colour 'colorless'
_exptl_crystal_density_diffrn 1.408
_exptl_crystal_description 'block'
_diffrn_ambient_temperature 173
#These two values have been output from a single CSD field.
_refine_ls_R_factor_gt 0.0298
_refine_ls_wR_factor_gt 0.0298
_symmetry_cell_setting monoclinic
_symmetry_space_group_name_H-M 'P 21'
_symmetry_Int_Tables_number 4
loop_
_symmetry_equiv_pos_site_id
_symmetry_equiv_pos_as_xyz
1 x,y,z
2 -x,1/2+y,-z
_cell_length_a 7.7364(3)
_cell_length_b 11.3727(5)
_cell_length_c 10.3702(5)
_cell_angle_alpha 90
_cell_angle_beta 93.049(1)
_cell_angle_gamma 90
_cell_formula_units_Z 2
loop_
_atom_type_symbol
_atom_type_radius_bond
C 0.68
H 0.23
N 0.68
O 0.68
loop_
_atom_site_label
_atom_site_type_symbol
_atom_site_fract_x
_atom_site_fract_y
_atom_site_fract_z
O1 O 0.55979(16) 0.56714(11) 0.74760(11)
O2 O 0.6809(2) 0.51682(16) 0.56258(15)
O3 O 0.7581(2) 0.32623(15) 0.75031(19)
O4 O 0.6784(2) 0.14719(18) 0.7402(3)
O5 O 0.0766(2) 0.05257(14) 0.64841(17)
O6 O -0.0633(2) 0.16642(19) 0.51222(17)
N1 N 0.6513(2) 0.25084(15) 0.72432(18)
N2 N 0.0585(2) 0.14388(16) 0.58821(17)
C1 C 0.7553(2) 0.67643(15) 0.89791(15)
C2 C 0.8524(2) 0.56228(16) 0.93101(17)
H1 H 0.89150 0.56360 1.02350
H2 H 0.77200 0.49510 0.91750
C3 C 1.0089(2) 0.54359(17) 0.84990(19)
H3 H 0.97020 0.53670 0.75770
H4 H 1.06830 0.46960 0.87630
C4 C 1.1340(2) 0.64655(19) 0.8679(2)
H5 H 1.23480 0.63400 0.81460
H6 H 1.17660 0.65110 0.95950
C5 C 1.0446(2) 0.76158(18) 0.8287(2)
H7 H 1.01390 0.75990 0.73480
H8 H 1.12610 0.82760 0.84560
C6 C 0.8810(2) 0.78292(16) 0.90154(18)
H9 H 0.91830 0.79680 0.99410
C7 C 0.7842(2) 0.89501(16) 0.8525(2)
H10 H 0.81200 0.96140 0.91180
H11 H 0.82220 0.91630 0.76590
C8 C 0.5878(2) 0.87247(16) 0.84543(18)
H12 H 0.52300 0.94670 0.82450
C9 C 0.5485(2) 0.78069(15) 0.74319(16)
C10 C 0.6652(2) 0.67395(15) 0.76216(15)
H13 H 0.75440 0.67440 0.69580
C11 C 0.6166(2) 0.69921(18) 0.99559(17)
H14 H 0.66930 0.69270 1.08440
H15 H 0.52440 0.63910 0.98490
C12 C 0.5369(3) 0.8229(2) 0.97564(18)
H16 H 0.40930 0.81810 0.97730
H17 H 0.57940 0.87570 1.04630
C13 C 0.4261(3) 0.78908(18) 0.65028(18)
H18 H 0.35450 0.85700 0.64430
H19 H 0.40930 0.72720 0.58930
C14 C 0.5814(2) 0.50017(16) 0.64533(16)
C15 C 0.4475(2) 0.40354(15) 0.63842(16)
C16 C 0.4797(2) 0.28693(16) 0.67129(16)
C17 C 0.3540(2) 0.20076(16) 0.65648(17)
H20 H 0.37760 0.12140 0.68010
C18 C 0.1932(2) 0.23440(17) 0.60617(17)
C19 C 0.1548(3) 0.34918(19) 0.5708(2)
H21 H 0.04310 0.36970 0.53540
C20 C 0.2829(3) 0.43307(17) 0.5882(2)
H22 H 0.25810 0.51250 0.56540
#END
