
#######################################################################
#
#                 Cambridge Crystallographic Data Centre
#                                CCDC
#
#######################################################################
#
# If this CIF has been generated from an entry in the Cambridge
# Structural Database, then it will include bibliographic, chemical,
# crystal, experimental, refinement or atomic coordinate data resulting
# from the CCDC's data processing and validation procedures.
#
#######################################################################

data_CSD_CIF_VAWFIK
_audit_creation_date 2012-04-25
_audit_creation_method CSD-ConQuest-V1
_database_code_CSD VAWFIK
_database_code_depnum_ccdc_archive 'CCDC 842679'
_chemical_formula_sum 'C25 H27 N3 O4'
_chemical_formula_moiety
;
C25 H27 N3 O4
;
_journal_coden_Cambridge 1336
_journal_volume 14
_journal_year 2012
_journal_page_first 448
_journal_name_full 'Org.Lett. '
loop_
_publ_author_name
"Bor-Cherng Hong"
"N.S.Dange"
"Chun-Feng Ding"
"Ju-Hsiou Liao"
_chemical_name_systematic
;
2,4-Dimethyl-8-nitro-6,9-diphenyl-2,3,4,6,6a,7,8,9,10,10a-decahydro-1H-isochro
meno[3,4-d]pyrimidin-1-one
;
_cell_volume   2241.380
_exptl_crystal_colour 'colorless'
_exptl_crystal_density_diffrn 1.285
_exptl_crystal_description 'rod'
_diffrn_ambient_temperature 295
#These two values have been output from a single CSD field.
_refine_ls_R_factor_gt 0.0561
_refine_ls_wR_factor_gt 0.0561
_symmetry_cell_setting orthorhombic
_symmetry_space_group_name_H-M 'P 21 21 21'
_symmetry_Int_Tables_number 19
loop_
_symmetry_equiv_pos_site_id
_symmetry_equiv_pos_as_xyz
1 x,y,z
2 1/2-x,-y,1/2+z
3 -x,1/2+y,1/2-z
4 1/2+x,1/2-y,-z
_cell_length_a 6.1676(9)
_cell_length_b 13.819(2)
_cell_length_c 26.298(4)
_cell_angle_alpha 90
_cell_angle_beta 90
_cell_angle_gamma 90
_cell_formula_units_Z 4
loop_
_atom_type_symbol
_atom_type_radius_bond
C 0.68
H 0.23
N 0.68
O 0.68
loop_
_atom_site_label
_atom_site_type_symbol
_atom_site_fract_x
_atom_site_fract_y
_atom_site_fract_z
O1 O 0.7509(3) 0.62284(15) 0.19686(7)
O2 O 0.2336(3) 0.87227(16) 0.18102(7)
O3 O 0.9516(5) 0.8586(2) -0.01749(9)
O4 O 1.2401(5) 0.9143(2) 0.01479(11)
N1 N 0.2708(4) 0.7886(2) 0.25502(9)
N2 N 0.5290(5) 0.66259(18) 0.26153(9)
N3 N 1.0612(5) 0.88076(19) 0.01875(10)
C1 C 0.4234(6) 0.7417(2) 0.28768(12)
H1 H 0.34920 0.71720 0.31750
H2 H 0.53150 0.78810 0.29880
C2 C 0.6056(5) 0.6872(2) 0.21471(10)
C3 C 0.8071(5) 0.6298(2) 0.14291(10)
C4 C 0.8438(5) 0.73655(19) 0.13081(11)
C5 C 0.9348(6) 0.7552(2) 0.07775(12)
C6 C 0.9730(5) 0.8631(2) 0.07148(10)
C7 C 0.7693(5) 0.9236(2) 0.07922(11)
C8 C 0.6733(6) 0.8999(2) 0.13175(11)
C9 C 0.6307(5) 0.79172(19) 0.13816(10)
C10 C 0.5342(5) 0.76591(19) 0.18883(10)
C11 C 0.3409(5) 0.8144(2) 0.20689(11)
C12 C 0.0898(6) 0.8374(3) 0.27793(14)
H3 H 0.14050 0.89310 0.29620
H4 H 0.01760 0.79420 0.30100
H5 H -0.00970 0.85750 0.25190
C13 C 0.6331(9) 0.5908(3) 0.29230(14)
H6 H 0.65520 0.53320 0.27260
H7 H 0.54330 0.57610 0.32110
H8 H 0.77050 0.61490 0.30380
C14 C 0.9991(5) 0.56407(19) 0.13573(10)
C15 C 1.1573(5) 0.5540(2) 0.17248(12)
H9 H 1.14720 0.58900 0.20260
C16 C 1.3302(5) 0.4926(2) 0.16486(13)
H10 H 1.43400 0.48540 0.19020
C17 C 1.3509(6) 0.4421(2) 0.12036(14)
H11 H 1.46850 0.40100 0.11540
C18 C 1.1975(7) 0.4525(3) 0.08336(13)
H12 H 1.21230 0.41930 0.05280
C19 C 1.0207(6) 0.5118(2) 0.09092(11)
H13 H 0.91510 0.51690 0.06580
C20 C 0.7971(5) 1.0322(2) 0.07437(10)
C21 C 0.9795(6) 1.0800(3) 0.09129(14)
H14 H 1.09500 1.04480 0.10450
C22 C 0.9927(7) 1.1808(3) 0.08881(16)
H15 H 1.11640 1.21230 0.10040
C23 C 0.8251(8) 1.2329(3) 0.06948(15)
H16 H 0.83480 1.30000 0.06740
C24 C 0.6435(8) 1.1868(3) 0.05319(14)
H17 H 0.52770 1.22240 0.04050
C25 C 0.6305(6) 1.0876(2) 0.05550(12)
H18 H 0.50540 1.05710 0.04400
H19 H 0.683(5) 0.6047(19) 0.1215(10)
H20 H 0.935(4) 0.7611(17) 0.1537(10)
H21 H 0.828(6) 0.729(3) 0.0512(14)
H22 H 1.058(4) 0.7219(18) 0.0734(9)
H23 H 1.091(4) 0.8881(18) 0.0915(9)
H24 H 0.673(5) 0.903(2) 0.0539(12)
H25 H 0.756(5) 0.919(2) 0.1554(10)
H26 H 0.527(5) 0.939(2) 0.1372(9)
H27 H 0.532(4) 0.7746(18) 0.1102(11)
#END
