
#######################################################################
#
#                 Cambridge Crystallographic Data Centre
#                                CCDC
#
#######################################################################
#
# If this CIF has been generated from an entry in the Cambridge
# Structural Database, then it will include bibliographic, chemical,
# crystal, experimental, refinement or atomic coordinate data resulting
# from the CCDC's data processing and validation procedures.
#
#######################################################################

data_CSD_CIF_VAWFOO
_audit_creation_date 1990-03-16
_audit_creation_method CSD-ConQuest-V1
_database_code_CSD VAWFOO
_chemical_formula_sum 'C13 H6 N2 O5'
_chemical_formula_moiety
;
C13 H6 N2 O5
;
_journal_coden_Cambridge 82
_journal_volume 29
_journal_year 1988
_journal_page_first 187-2
_journal_name_full 'Zh.Strukt.Khim.(Russ.)(J.Struct.Chem.) '
loop_
_publ_author_name
"O.V.Semidetko"
"L.A.Chetkina"
"V.K.Bel'skii"
"A.N.Poplavskii"
"A.M.Andrievskii"
"K.M.Dyumaev"
_chemical_name_systematic
;
4,5-Dinitrofluorenone
;
_cell_volume   1142.571
_exptl_crystal_density_diffrn 1.57
_exptl_special_details
;
isomer II, sensitizing action for electrophotography

;
_diffrn_ambient_temperature ?
_diffrn_special_details
;
The study was carried out at room temperature,in the range 283-303K

;
#These two values have been output from a single CSD field.
_refine_ls_R_factor_gt 0.032
_refine_ls_wR_factor_gt 0.032
_symmetry_cell_setting orthorhombic
_symmetry_space_group_name_H-M 'P 21 21 21'
_symmetry_Int_Tables_number 19
loop_
_symmetry_equiv_pos_site_id
_symmetry_equiv_pos_as_xyz
1 x,y,z
2 1/2+x,1/2-y,-z
3 -x,1/2+y,1/2-z
4 1/2-x,-y,1/2+z
_cell_length_a 6.849(1)
_cell_length_b 10.222(2)
_cell_length_c 16.320(4)
_cell_angle_alpha 90
_cell_angle_beta 90
_cell_angle_gamma 90
_cell_formula_units_Z 4
loop_
_atom_type_symbol
_atom_type_radius_bond
C 0.68
N 0.68
O 0.68
loop_
_atom_site_label
_atom_site_type_symbol
_atom_site_fract_x
_atom_site_fract_y
_atom_site_fract_z
O1 O 0.9819(7) 0.2608(4) 0.1687(2)
O2 O 0.8974(7) -0.2713(4) -0.1004(3)
O3 O 0.7479(5) -0.0848(3) -0.1211(2)
O4 O 1.1520(6) -0.0291(4) -0.1482(2)
O5 O 0.9912(8) 0.0725(3) -0.2433(2)
N1 N 0.8493(7) -0.1611(4) -0.0796(3)
N2 N 1.0487(7) 0.0606(3) -0.1728(2)
C1 C 0.9519(9) -0.0452(6) 0.1641(3)
C2 C 0.9215(10) -0.1730(6) 0.1441(3)
C3 C 0.8950(9) -0.2079(5) 0.0635(3)
C4 C 0.9063(7) -0.1161(5) 0.0016(3)
C5 C 0.9960(7) 0.1631(4) -0.1138(2)
C6 C 0.9907(8) 0.2906(5) -0.1429(3)
C7 C 0.9743(8) 0.3940(5) -0.0897(4)
C8 C 0.9691(7) 0.3704(5) -0.0065(3)
C9 C 0.9735(7) 0.1939(5) 0.1082(3)
C10 C 0.9657(7) 0.0478(4) 0.1022(3)
C11 C 0.9501(8) 0.0141(5) 0.0190(3)
C12 C 0.9723(7) 0.1356(4) -0.0309(3)
C13 C 0.9657(7) 0.2437(4) 0.0211(2)
#END
