
#######################################################################
#
#                 Cambridge Crystallographic Data Centre
#                                CCDC
#
#######################################################################
#
# If this CIF has been generated from an entry in the Cambridge
# Structural Database, then it will include bibliographic, chemical,
# crystal, experimental, refinement or atomic coordinate data resulting
# from the CCDC's data processing and validation procedures.
#
#######################################################################

data_CSD_CIF_VAWWEV03
_audit_creation_date 2018-01-25
_audit_creation_method CSD-ConQuest-V1
_database_code_CSD VAWWEV03
_database_code_depnum_ccdc_archive 'CCDC 1444479'
_chemical_formula_sum 'C21 H26 N2 O7'
_chemical_formula_moiety
;
C21 H26 N2 O7
;
_journal_coden_Cambridge 1660
_journal_volume 32
_journal_year 2016
_journal_page_first 2241
_journal_name_full 'Acta Physico-Chimica Sinica '
loop_
_publ_author_name
"Guo Dong"
"Song Jia-Xi"
"Li Dan"
"Chen Jia-Mei"
"Lin Li-Rong"
"Lu Tong-Bu"
"Zhang Hui"
_chemical_name_systematic
;
isopropyl 2-methoxyethyl 
2,6-dimethyl-4-(3-nitrophenyl)-1,4-dihydropyridine-3,5-dicarboxylate
;
_chemical_name_common
;
Nimodipine; Periplum
;
_chemical_melting_point 397
_cell_volume   2063.407
_exptl_crystal_colour 'yellow'
_exptl_crystal_density_diffrn 1.347
_exptl_special_details
;
Melting point range 397-401.5K

;
_exptl_crystal_description 'block'
_diffrn_ambient_temperature 100.0
#These two values have been output from a single CSD field.
_refine_ls_R_factor_gt 0.0319
_refine_ls_wR_factor_gt 0.0319
loop_
_citation_database_id_CSD
_citation_special_details
VAWWEW "is a racemate of this entry"
_symmetry_cell_setting orthorhombic
_symmetry_space_group_name_H-M 'P 21 21 21'
_symmetry_Int_Tables_number 19
loop_
_symmetry_equiv_pos_site_id
_symmetry_equiv_pos_as_xyz
1 x,y,z
2 1/2-x,-y,1/2+z
3 -x,1/2+y,1/2-z
4 1/2+x,1/2-y,-z
_cell_length_a 11.4185(1)
_cell_length_b 12.4866(1)
_cell_length_c 14.4721(1)
_cell_angle_alpha 90
_cell_angle_beta 90
_cell_angle_gamma 90
_cell_formula_units_Z 4
loop_
_atom_type_symbol
_atom_type_radius_bond
C 0.68
H 0.23
N 0.68
O 0.68
loop_
_atom_site_label
_atom_site_type_symbol
_atom_site_fract_x
_atom_site_fract_y
_atom_site_fract_z
O1 O 0.1585(1) 0.67184(9) 1.10465(7)
O2 O 0.16891(11) 0.68246(9) 0.66794(8)
O3 O 0.09306(10) 0.58804(9) 0.78569(8)
O4 O 0.31529(13) 0.21814(9) 0.97338(9)
O5 O 0.14654(12) 0.29442(10) 0.98836(9)
O6 O 0.02416(10) 0.49091(9) 1.17094(9)
N1 N 0.25259(13) 0.29779(11) 0.97671(10)
O7 O 0.20681(11) 0.83947(9) 1.14679(8)
N2 N 0.33528(12) 0.87503(11) 0.87222(9)
C1 C 0.47845(15) 0.51161(13) 0.95417(11)
H1 H 0.55950 0.51930 0.95480
C2 C 0.30485(15) 0.86453(12) 0.70814(11)
H2 H 0.36800 0.82690 0.67870
H3 H 0.32520 0.93880 0.71440
H4 H 0.23530 0.85810 0.67120
C3 C 0.28606(14) 0.59275(12) 0.94013(10)
C4 C 0.15942(13) 0.66833(12) 0.75023(11)
C5 C 0.40732(14) 0.60140(12) 0.94181(10)
H5 H 0.44180 0.66840 0.93460
C6 C 0.30832(15) 0.40409(12) 0.96478(11)
C7 C 0.28305(13) 0.81737(12) 0.80204(11)
C8 C 0.20802(14) 0.69094(12) 0.92399(10)
H6 H 0.12670 0.66960 0.93530
C9 C 0.30709(13) 0.86411(12) 0.96417(11)
C10 C 0.42873(15) 0.41053(13) 0.96560(12)
H7 H 0.47500 0.34990 0.97350
C11 C 0.00996(17) 0.37829(13) 1.18322(13)
H8 H 0.07300 0.34120 1.15310
H9 H -0.06330 0.35610 1.15680
H10 H 0.01060 0.36170 1.24800
C12 C 0.20179(14) 0.77156(12) 1.08741(11)
C13 C 0.23793(13) 0.78114(12) 0.99077(11)
C14 C 0.23553(14) 0.49204(12) 0.95325(10)
H11 H 0.15460 0.48410 0.95420
C15 C 0.35878(15) 0.95000(13) 1.02408(12)
H12 H 0.30350 1.00740 1.03080
H13 H 0.42910 0.97680 0.99600
H14 H 0.37690 0.92080 1.08380
C16 C 0.13547(15) 0.64899(13) 1.20053(11)
H15 H 0.06200 0.68140 1.21930
H16 H 0.19760 0.67780 1.23890
C17 C 0.21720(14) 0.72979(12) 0.82367(11)
C18 C 0.12921(14) 0.52919(13) 1.21096(12)
H17 H 0.19590 0.49630 1.18070
H18 H 0.13160 0.51030 1.27590
C19 C 0.03570(15) 0.51719(13) 0.71816(12)
H19 H 0.08630 0.50930 0.66390
C20 C 0.02389(17) 0.40980(14) 0.76615(13)
H20 H 0.09970 0.38560 0.78570
H21 H -0.00930 0.35870 0.72410
H22 H -0.02620 0.41720 0.81900
C21 C -0.07968(16) 0.56603(16) 0.68896(13)
H23 H -0.12760 0.57800 0.74250
H24 H -0.11920 0.51810 0.64750
H25 H -0.06550 0.63300 0.65830
H26 H 0.3838(19) 0.9211(17) 0.8579(14)
#END
