
#######################################################################
#
#                 Cambridge Crystallographic Data Centre
#                                CCDC
#
#######################################################################
#
# If this CIF has been generated from an entry in the Cambridge
# Structural Database, then it will include bibliographic, chemical,
# crystal, experimental, refinement or atomic coordinate data resulting
# from the CCDC's data processing and validation procedures.
#
#######################################################################

data_CSD_CIF_VAWWEV
_audit_creation_date 1990-04-21
_audit_creation_method CSD-ConQuest-V1
_database_code_CSD VAWWEV
_database_code_depnum_ccdc_archive 'CCDC 1280648'
_chemical_formula_sum 'C21 H26 N2 O7'
_chemical_formula_moiety
;
C21 H26 N2 O7
;
_journal_coeditor_code "IUCr GR0018"
_journal_coden_Cambridge 591
_journal_volume 45
_journal_year 1989
_journal_page_first 1748
_journal_name_full 'Acta Crystallogr.,Sect.C:Cryst.Struct.Commun. '
loop_
_publ_author_name
"S.D.Wang"
"L.G.Herbette"
"D.G.Rhodes"
_chemical_name_systematic
;
Isopropyl 2-methoxyethyl 
2,6-dimethyl-4-(3-nitrophenyl)-1,4-dihydro-3,5-pyridinedicarboxylate
;
_cell_volume   2144.815
_exptl_crystal_density_diffrn 1.3
_exptl_special_details
;
calcium channel antagonistic activity

;
_diffrn_ambient_temperature ?
_diffrn_special_details
;
The study was carried out at room temperature,in the range 283-303K

;
#These two values have been output from a single CSD field.
_refine_ls_R_factor_gt 0.047
_refine_ls_wR_factor_gt 0.047
loop_
_citation_database_id_CSD
_citation_special_details
VAWWEW "is a racemate of this entry"
_symmetry_cell_setting orthorhombic
_symmetry_space_group_name_H-M 'P 21 21 21'
_symmetry_Int_Tables_number 19
loop_
_symmetry_equiv_pos_site_id
_symmetry_equiv_pos_as_xyz
1 x,y,z
2 1/2+x,1/2-y,-z
3 -x,1/2+y,1/2-z
4 1/2-x,-y,1/2+z
_cell_length_a 12.5897(6)
_cell_length_b 14.6410(9)
_cell_length_c 11.636(1)
_cell_angle_alpha 90
_cell_angle_beta 90
_cell_angle_gamma 90
_cell_formula_units_Z 4
loop_
_atom_type_symbol
_atom_type_radius_bond
C 0.68
N 0.68
O 0.68
loop_
_atom_site_label
_atom_site_type_symbol
_atom_site_fract_x
_atom_site_fract_y
_atom_site_fract_z
N1 N 0.6318(2) 0.6269(2) 0.3325(3)
C1 C 0.6424(3) 0.5364(2) 0.3033(3)
C2 C 0.5554(3) 0.4774(3) 0.3522(4)
C3 C 0.7252(3) 0.5097(2) 0.2377(3)
C4 C 0.7353(3) 0.4147(2) 0.2014(3)
O1 O 0.6692(2) 0.3556(2) 0.2079(3)
O2 O 0.8327(2) 0.3979(2) 0.1578(2)
C5 C 0.8557(3) 0.3033(3) 0.1337(4)
C6 C 0.9738(4) 0.2943(3) 0.1219(3)
O3 O 1.0072(2) 0.3299(2) 0.0163(2)
C7 C 1.1167(3) 0.3180(4) -0.0035(5)
C8 C 0.8151(2) 0.5763(2) 0.2084(3)
C9 C 0.7761(3) 0.6750(2) 0.2174(3)
C10 C 0.8374(3) 0.7476(2) 0.1601(3)
O4 O 0.8219(2) 0.8285(2) 0.1692(3)
O5 O 0.9158(2) 0.7129(2) 0.0943(2)
C11 C 0.9848(4) 0.7794(3) 0.0360(4)
C12 C 1.0908(4) 0.7324(4) 0.0228(5)
C13 C 0.9347(5) 0.8063(4) -0.0762(4)
C14 C 0.6903(3) 0.6961(2) 0.2825(3)
C15 C 0.6450(3) 0.7892(2) 0.3049(3)
C16 C 0.9118(3) 0.5603(2) 0.2866(3)
C17 C 1.0121(3) 0.5468(2) 0.2370(3)
C18 C 1.0982(3) 0.5347(2) 0.3093(4)
N2 N 1.2041(3) 0.5221(3) 0.2547(4)
O6 O 1.2077(3) 0.5101(3) 0.1506(4)
O7 O 1.2817(2) 0.5229(3) 0.3155(4)
C19 C 1.0905(3) 0.5345(3) 0.4264(4)
C20 C 0.9916(4) 0.5468(3) 0.4740(3)
C21 C 0.9026(3) 0.5591(2) 0.4046(3)
#END
