
#######################################################################
#
#                 Cambridge Crystallographic Data Centre
#                                CCDC
#
#######################################################################
#
# If this CIF has been generated from an entry in the Cambridge
# Structural Database, then it will include bibliographic, chemical,
# crystal, experimental, refinement or atomic coordinate data resulting
# from the CCDC's data processing and validation procedures.
#
#######################################################################

data_CSD_CIF_VAWWEW
_audit_creation_date 1991-07-04
_audit_creation_method CSD-ConQuest-V1
_database_code_CSD VAWWEW
_database_code_depnum_ccdc_archive 'CCDC 1280649'
_chemical_formula_sum 'C21 H26 N2 O7'
_chemical_formula_moiety
;
C21 H26 N2 O7
;
_journal_coden_Cambridge 1070
_journal_volume 4
_journal_year 1990
_journal_page_first 215
_journal_name_full 'J.Comput.-Aided Mol.Des. '
loop_
_publ_author_name
"D.A.Langs"
"P.D.Strong"
"D.J.Triggle"
_chemical_name_systematic
;
Isopropyl (2-methoxyethyl) 
1,4-dihydro-2,6-dimethyl-4-(3-nitrophenyl)-3,5-pyridinedicarboxylate
;
_chemical_name_common
;
Nimodipine; Nimotop; Nymalize; Periplum; DrugBank: DB00393
;
_cell_volume   2194.803
_exptl_special_details
;
calcium ion antagonist activity

;
_diffrn_ambient_temperature ?
_diffrn_special_details
;
The study was carried out at room temperature,in the range 283-303K

;
#These two values have been output from a single CSD field.
_refine_ls_R_factor_gt 0.067
_refine_ls_wR_factor_gt 0.067
loop_
_citation_database_id_CSD
_citation_special_details
VAWWEV "is a stereoisomer of this entry"
_symmetry_cell_setting monoclinic
_symmetry_space_group_name_H-M 'P 21/c'
_symmetry_Int_Tables_number 14
loop_
_symmetry_equiv_pos_site_id
_symmetry_equiv_pos_as_xyz
1 x,y,z
2 -x,1/2+y,1/2-z
3 -x,-y,-z
4 x,-1/2-y,-1/2+z
_cell_length_a 13.933(1)
_cell_length_b 10.985(1)
_cell_length_c 14.839(1)
_cell_angle_alpha 90
_cell_angle_beta 104.90(1)
_cell_angle_gamma 90
_cell_formula_units_Z 4
loop_
_atom_type_symbol
_atom_type_radius_bond
C 0.68
H 0.23
N 0.68
O 0.68
loop_
_atom_site_label
_atom_site_type_symbol
_atom_site_fract_x
_atom_site_fract_y
_atom_site_fract_z
N1 N 0.51857(13) -0.03405(16) 0.14719(11)
C1 C 0.49537(13) 0.08791(17) 0.14714(11)
C2 C 0.39981(13) 0.12181(15) 0.13702(11)
C3 C 0.32001(12) 0.02737(14) 0.13733(10)
C4 C 0.35137(13) -0.09783(15) 0.11137(11)
C5 C 0.44825(14) -0.12486(16) 0.12254(11)
C6 C 0.29608(13) 0.02075(14) 0.23222(11)
C7 C 0.20004(15) 0.03614(19) 0.23978(13)
C8 C 0.18162(18) 0.02423(23) 0.32731(15)
C9 C 0.2545(2) -0.00275(22) 0.40670(14)
C10 C 0.35066(19) -0.01507(21) 0.39871(13)
C11 C 0.37105(15) -0.00434(16) 0.31235(12)
C12 C 0.58446(18) 0.16898(24) 0.16038(20)
C13 C 0.37170(14) 0.25148(16) 0.13241(12)
C14 C 0.23857(20) 0.38561(19) 0.14138(15)
C15 C 0.19557(16) 0.39304(24) 0.22337(17)
C16 C 0.23717(40) 0.38323(63) 0.38747(27)
C17 C 0.27427(16) -0.19272(18) 0.08305(13)
C18 C 0.09874(23) -0.22575(26) 0.03401(31)
C19 C 0.07005(44) -0.22281(55) -0.07233(42)
C20 C 0.01606(42) -0.17816(62) 0.06232(78)
C21 C 0.49329(20) -0.24607(21) 0.11018(17)
N2 N 0.07970(19) 0.03728(30) 0.33483(19)
O1 O 0.06101(20) 0.02782(29) 0.40976(18)
O2 O 0.01524(19) 0.05899(47) 0.26513(22)
O3 O 0.42234(13) 0.33718(15) 0.12556(18)
O4 O 0.27617(11) 0.26441(12) 0.13611(10)
O5 O 0.27225(11) 0.38884(19) 0.30682(11)
O6 O 0.28754(15) -0.30031(16) 0.07650(18)
O7 O 0.18275(12) -0.14438(13) 0.06440(13)
H1 H 0.5763(23) -0.0566(27) 0.1533(20)
H2 H 0.2596(15) 0.0476(18) 0.0930(14)
H3 H 0.1532(18) 0.0634(23) 0.1894(18)
H4 H 0.2388(21) -0.0186(25) 0.4691(20)
H5 H 0.4034(21) -0.0397(25) 0.4565(21)
H6 H 0.4399(19) -0.0159(23) 0.3072(18)
H7 H 0.6384(33) 0.1460(35) 0.200(3)
H8 H 0.5682(29) 0.2421(40) 0.1770(28)
H9 H 0.6154(35) 0.1687(43) 0.1159(36)
H10 H 0.2915(19) 0.4455(23) 0.1424(17)
H11 H 0.1842(24) 0.4031(27) 0.0813(23)
H12 H 0.1516(19) 0.3252(24) 0.2232(17)
H13 H 0.1673(24) 0.4584(32) 0.2185(23)
H14 H 0.1900(35) 0.4587(43) 0.3828(31)
H15 H 0.3142(51) 0.3956(52) 0.4314(46)
H16 H 0.1712(57) 0.3320(68) 0.3678(49)
H17 H 0.1132(24) -0.3042(34) 0.0680(23)
#END
