
#######################################################################
#
#                 Cambridge Crystallographic Data Centre
#                                CCDC
#
#######################################################################
#
# If this CIF has been generated from an entry in the Cambridge
# Structural Database, then it will include bibliographic, chemical,
# crystal, experimental, refinement or atomic coordinate data resulting
# from the CCDC's data processing and validation procedures.
#
#######################################################################

data_CSD_CIF_VAXLAJ
_audit_creation_date 2012-10-03
_audit_creation_method CSD-ConQuest-V1
_database_code_CSD VAXLAJ
_database_code_depnum_ccdc_archive 'CCDC 862521'
_chemical_formula_sum 'C11 H13 N3 O6'
_chemical_formula_moiety
;
C11 H13 N3 O6
;
_journal_coden_Cambridge 24
_journal_volume 53
_journal_year 2012
_journal_page_first 4154
_journal_name_full 'Tetrahedron Lett. '
loop_
_publ_author_name
"M.C.Davis"
"T.J.Groshens"
_chemical_name_systematic
;
t-Butyl (2,4-dinitrophenyl)carbamate
;
_chemical_melting_point 393
_cell_volume   1302.152
_exptl_crystal_colour 'colorless'
_exptl_crystal_density_diffrn 1.445
_exptl_crystal_description 'needle'
_diffrn_ambient_temperature 296
#These two values have been output from a single CSD field.
_refine_ls_R_factor_gt 0.0342
_refine_ls_wR_factor_gt 0.0342
_symmetry_cell_setting monoclinic
_symmetry_space_group_name_H-M 'P 21/c'
_symmetry_Int_Tables_number 14
loop_
_symmetry_equiv_pos_site_id
_symmetry_equiv_pos_as_xyz
1 x,y,z
2 -x,1/2+y,1/2-z
3 -x,-y,-z
4 x,-1/2-y,-1/2+z
_cell_length_a 13.4412(5)
_cell_length_b 6.0008(2)
_cell_length_c 16.9685(6)
_cell_angle_alpha 90
_cell_angle_beta 107.933(1)
_cell_angle_gamma 90
_cell_formula_units_Z 4
loop_
_atom_type_symbol
_atom_type_radius_bond
C 0.68
H 0.23
N 0.68
O 0.68
loop_
_atom_site_label
_atom_site_type_symbol
_atom_site_fract_x
_atom_site_fract_y
_atom_site_fract_z
O1 O 0.86810(7) 0.43896(17) 1.04488(6)
O2 O 0.27513(10) -0.0835(2) 0.84388(10)
O3 O 0.70352(8) 0.5569(2) 1.02960(8)
O4 O 0.80554(8) -0.0509(2) 0.87690(7)
O5 O 0.70273(10) -0.3141(2) 0.81799(10)
O6 O 0.34429(11) -0.3211(3) 0.78261(10)
N1 N 0.73957(9) 0.2610(2) 0.95748(7)
H1 H 0.79030 0.20530 0.94300
N2 N 0.34902(11) -0.1563(3) 0.82517(9)
N3 N 0.71922(10) -0.1389(2) 0.85539(7)
C1 C 0.90608(16) 0.8327(3) 1.07963(11)
H2 H 0.92720 0.84430 1.03060
H3 H 0.94690 0.93320 1.12110
H4 H 0.83340 0.87040 1.06650
C2 C 0.92295(11) 0.5971(2) 1.11212(8)
C3 C 0.76512(11) 0.4341(2) 1.01375(8)
C4 C 0.64279(10) 0.1667(2) 0.92165(8)
C5 C 0.63115(10) -0.0306(2) 0.87398(8)
C6 C 0.53571(11) -0.1337(2) 0.84225(8)
H5 H 0.52990 -0.26400 0.81150
C7 C 0.44936(11) -0.0423(2) 0.85644(8)
C8 C 1.03589(12) 0.5271(3) 1.1298(1)
H6 H 1.04330 0.37320 1.14610
H7 H 1.07950 0.61710 1.17370
H8 H 1.05650 0.54640 1.08080
C9 C 0.88577(13) 0.5600(3) 1.18634(9)
H9 H 0.81570 0.61540 1.17470
H10 H 0.93100 0.63740 1.23330
H11 H 0.88690 0.40340 1.19830
C10 C 0.55099(11) 0.2558(3) 0.93165(9)
H12 H 0.55480 0.38880 0.96060
C11 C 0.45611(12) 0.1538(3) 0.90031(9)
H13 H 0.39660 0.21580 0.90850
#END
