
#######################################################################
#
#                 Cambridge Crystallographic Data Centre
#                                CCDC
#
#######################################################################
#
# If this CIF has been generated from an entry in the Cambridge
# Structural Database, then it will include bibliographic, chemical,
# crystal, experimental, refinement or atomic coordinate data resulting
# from the CCDC's data processing and validation procedures.
#
#######################################################################

data_CSD_CIF_VAYCUU
_audit_creation_date 2006-02-21
_audit_creation_method CSD-ConQuest-V1
_database_code_CSD VAYCUU
_database_code_depnum_ccdc_archive 'CCDC 272158'
_chemical_formula_sum 'C22 H28 N6 O6'
_chemical_formula_moiety
;
C22 H28 N6 O6
;
_journal_coden_Cambridge 24
_journal_volume 46
_journal_year 2005
_journal_page_first 7255
_journal_name_full 'Tetrahedron Lett. '
loop_
_publ_author_name
"D.Saravanakumar"
"N.Sengottuvelan"
"M.Kandaswamy"
"P.G.Aravindan"
"D.Velmurugan"
_chemical_name_systematic
;
N,N'-bis(3-(2-nitrobenzyl)aminopropyl)oxamide
;
_chemical_melting_point 407.15
_cell_volume   1208.866
_exptl_crystal_colour 'light yellow'
_exptl_crystal_density_diffrn 1.298
_exptl_crystal_description 'prism'
_exptl_crystal_preparation 'methanol/acetonitrile'
_diffrn_ambient_temperature 293
#These two values have been output from a single CSD field.
_refine_ls_R_factor_gt 0.0698
_refine_ls_wR_factor_gt 0.0698
_symmetry_cell_setting monoclinic
_symmetry_space_group_name_H-M 'P 21/n'
_symmetry_Int_Tables_number 14
loop_
_symmetry_equiv_pos_site_id
_symmetry_equiv_pos_as_xyz
1 x,y,z
2 1/2-x,1/2+y,1/2-z
3 -x,-y,-z
4 -1/2+x,-1/2-y,-1/2+z
_cell_length_a 6.762(1)
_cell_length_b 5.062(3)
_cell_length_c 35.356(4)
_cell_angle_alpha 90
_cell_angle_beta 92.70(2)
_cell_angle_gamma 90
_cell_formula_units_Z 2
loop_
_atom_type_symbol
_atom_type_radius_bond
C 0.68
H 0.23
N 0.68
O 0.68
loop_
_atom_site_label
_atom_site_type_symbol
_atom_site_fract_x
_atom_site_fract_y
_atom_site_fract_z
C1 C 1.0845(4) 1.0134(8) 0.17656(8)
C2 C 1.0506(6) 1.1072(11) 0.21229(9)
H1 H 1.13930 1.06840 0.23240
C3 C 0.8875(8) 1.2566(11) 0.21818(11)
H2 H 0.86170 1.31310 0.24250
C4 C 0.7595(7) 1.3246(9) 0.18773(11)
H3 H 0.65180 1.43450 0.19130
C5 C 0.7952(5) 1.2255(7) 0.15185(9)
H4 H 0.70550 1.26350 0.13180
C6 C 0.9586(4) 1.0734(6) 0.14505(7)
C7 C 0.9960(4) 0.9787(7) 0.10529(7)
H5 H 1.10700 1.07590 0.09580
H6 H 1.03190 0.79330 0.10620
C8 C 0.6915(3) 0.7868(5) 0.07923(6)
H7 H 0.65060 0.75480 0.10480
H8 H 0.75960 0.63050 0.07080
C9 C 0.5106(3) 0.8381(4) 0.05325(6)
H9 H 0.43600 0.98420 0.06320
H10 H 0.55270 0.88800 0.02840
C10 C 0.3800(3) 0.5994(4) 0.04971(7)
H11 H 0.45370 0.45470 0.03920
H12 H 0.34090 0.54670 0.07470
C11 C 0.0910(3) 0.4553(4) 0.01200(5)
O1 O 1.3315(6) 0.7408(12) 0.20015(10)
O2 O 1.3398(4) 0.8460(12) 0.14384(8)
O3 O 0.1258(2) 0.2196(3) 0.01771(5)
N1 N 1.2617(4) 0.8551(9) 0.17326(8)
N2 N 0.8255(3) 1.0123(4) 0.07925(6)
H13 H 0.80570 1.15010 0.06540
N3 N 0.2030(3) 0.6498(4) 0.02550(5)
H14 H 0.17110 0.81010 0.01990
C1B C -1.0845(4) -0.0134(8) -0.17656(8)
C2B C -1.0506(6) -0.1072(11) -0.21229(9)
H1B H -1.13930 -0.06840 -0.23240
C3B C -0.8875(8) -0.2566(11) -0.21818(11)
H2B H -0.86170 -0.31310 -0.24250
C4B C -0.7595(7) -0.3246(9) -0.18773(11)
H3B H -0.65180 -0.43450 -0.19130
C5B C -0.7952(5) -0.2255(7) -0.15185(9)
H4B H -0.70550 -0.26350 -0.13180
C6B C -0.9586(4) -0.0734(6) -0.14505(7)
C7B C -0.9960(4) 0.0213(7) -0.10529(7)
H5B H -1.10700 -0.07590 -0.09580
H6B H -1.03190 0.20670 -0.10620
C8B C -0.6915(3) 0.2132(5) -0.07923(6)
H7B H -0.65060 0.24520 -0.10480
H8B H -0.75960 0.36950 -0.07080
C9B C -0.5106(3) 0.1619(4) -0.05325(6)
H9B H -0.43600 0.01580 -0.06320
H10B H -0.55270 0.11200 -0.02840
C10B C -0.3800(3) 0.4006(4) -0.04971(7)
H11B H -0.45370 0.54530 -0.03920
H12B H -0.34090 0.45330 -0.07470
C11B C -0.0910(3) 0.5447(4) -0.01200(5)
O1B O -1.3315(6) 0.2592(12) -0.20015(10)
O2B O -1.3398(4) 0.1540(12) -0.14384(8)
O3B O -0.1258(2) 0.7804(3) -0.01771(5)
N1B N -1.2617(4) 0.1449(9) -0.17326(8)
N2B N -0.8255(3) -0.0123(4) -0.07925(6)
H13B H -0.80570 -0.15010 -0.06540
N3B N -0.2030(3) 0.3502(4) -0.02550(5)
H14B H -0.17110 0.18990 -0.01990
#END
