
#######################################################################
#
#                 Cambridge Crystallographic Data Centre
#                                CCDC
#
#######################################################################
#
# If this CIF has been generated from an entry in the Cambridge
# Structural Database, then it will include bibliographic, chemical,
# crystal, experimental, refinement or atomic coordinate data resulting
# from the CCDC's data processing and validation procedures.
#
#######################################################################

data_CSD_CIF_VAYFAD
_audit_creation_date 2006-02-21
_audit_creation_method CSD-ConQuest-V1
_database_code_CSD VAYFAD
_database_code_depnum_ccdc_archive 'CCDC 270389'
_chemical_formula_sum 'C21 H19 N3 O7'
_chemical_formula_moiety
;
C21 H19 N3 O7
;
_journal_coden_Cambridge 1078
_journal_year 2003
_journal_name_full 'CSD Communication(Private Communication) '
loop_
_publ_author_name
"M.B.Hursthouse"
"G.Pattenden"
"D.E.Hibbs"
_chemical_name_systematic
;
9-Acetyl-2,3,4,4a,9,9a-hexahydro-1H-carbazol-4-yl 3,5-dinitrobenzoate
;
_cell_volume   3858.889
_exptl_crystal_density_diffrn 1.464
_exptl_special_details
;
contribution from Queen Mary College, University of London, UK

;
_diffrn_ambient_temperature 108
#These two values have been output from a single CSD field.
_refine_ls_R_factor_gt 0.0425
_refine_ls_wR_factor_gt 0.0425
_symmetry_cell_setting monoclinic
_symmetry_space_group_name_H-M 'P 21/c'
_symmetry_Int_Tables_number 14
loop_
_symmetry_equiv_pos_site_id
_symmetry_equiv_pos_as_xyz
1 x,y,z
2 -x,1/2+y,1/2-z
3 -x,-y,-z
4 x,-1/2-y,-1/2+z
_cell_length_a 10.614(7)
_cell_length_b 13.978(8)
_cell_length_c 26.478(7)
_cell_angle_alpha 90
_cell_angle_beta 100.79(3)
_cell_angle_gamma 90
_cell_formula_units_Z 8
loop_
_atom_type_symbol
_atom_type_radius_bond
C 0.68
H 0.23
N 0.68
O 0.68
loop_
_atom_site_label
_atom_site_type_symbol
_atom_site_fract_x
_atom_site_fract_y
_atom_site_fract_z
C1 C -0.3416(5) -0.4296(3) 0.0706(2)
C2 C -0.2749(4) -0.4533(3) 0.1187(2)
C3 C -0.1458(5) -0.4326(3) 0.1299(2)
C4 C -0.0845(4) -0.3859(3) 0.0941(2)
C5 C -0.1531(5) -0.3622(3) 0.0468(2)
C6 C -0.2818(5) -0.3863(4) 0.0352(2)
C7 C -0.0743(5) -0.4852(4) 0.2202(2)
C8 C 0.0360(4) -0.5114(4) 0.2612(2)
C9 C 0.0772(4) -0.4485(3) 0.1589(2)
C10 C 0.0548(4) -0.3683(3) 0.1183(2)
C11 C 0.1477(4) -0.3633(4) 0.0821(2)
C12 C 0.1774(4) -0.4599(4) 0.0618(2)
C13 C 0.2164(4) -0.5316(4) 0.1040(2)
C14 C 0.1099(4) -0.5432(4) 0.1354(2)
C15 C 0.3437(5) -0.2734(4) 0.0884(2)
C16 C 0.4686(5) -0.2507(3) 0.1192(2)
C17 C 0.4924(4) -0.2582(3) 0.1723(2)
C18 C 0.6142(5) -0.2351(3) 0.1983(2)
C19 C 0.7122(5) -0.2071(3) 0.1755(2)
C20 C 0.6836(5) -0.1961(3) 0.1227(2)
C21 C 0.5629(5) -0.2178(3) 0.0938(2)
N1 N -0.0511(3) -0.4567(3) 0.1744(2)
N2 N 0.6405(4) -0.2402(3) 0.2547(2)
N3 N 0.7847(4) -0.1634(3) 0.0960(2)
O1 O -0.1845(3) -0.4887(3) 0.2283(1)
O2 O 0.2685(3) -0.3263(2) 0.1132(1)
O3 O 0.3113(3) -0.2480(2) 0.0438(1)
O4 O 0.5480(3) -0.2495(3) 0.2770(1)
O5 O 0.7508(3) -0.2302(3) 0.2785(1)
O6 O 0.8909(3) -0.1455(3) 0.1221(1)
O7 O 0.7574(3) -0.1518(2) 0.0487(1)
C22 C 0.6938(5) 0.0591(3) 0.0819(2)
C23 C 0.6661(5) 0.0417(3) 0.1293(2)
C24 C 0.5449(5) 0.0615(3) 0.1366(2)
C25 C 0.4543(5) 0.1044(3) 0.0983(2)
C26 C 0.4844(5) 0.1213(3) 0.0511(2)
C27 C 0.6063(5) 0.0960(3) 0.0426(2)
C28 C 0.5477(5) 0.0146(4) 0.2278(2)
C29 C 0.4686(4) -0.0073(3) 0.2664(2)
C30 C 0.3427(4) 0.0496(4) 0.1624(2)
C31 C 0.3321(4) 0.1254(3) 0.1189(2)
C32 C 0.2088(4) 0.1231(4) 0.0810(2)
C33 C 0.1608(4) 0.0236(4) 0.0635(2)
C34 C 0.1580(4) -0.0406(4) 0.1083(2)
C35 C 0.2915(4) -0.0481(4) 0.1425(2)
C36 C 0.0130(5) 0.2132(4) 0.0792(2)
C37 C -0.0844(4) 0.2429(3) 0.1091(2)
C38 C -0.0652(4) 0.2361(3) 0.1621(2)
C39 C -0.1618(5) 0.2626(3) 0.1871(2)
C40 C -0.2786(5) 0.2942(3) 0.1622(2)
C41 C -0.2946(5) 0.3046(3) 0.1093(2)
C42 C -0.1991(5) 0.2792(3) 0.0827(2)
N4 N 0.4858(3) 0.0430(3) 0.1804(2)
N5 N -0.1428(5) 0.2561(3) 0.2437(2)
N6 N -0.4164(4) 0.3413(3) 0.0800(2)
O8 O 0.6657(3) 0.0093(3) 0.2370(1)
O9 O 0.1118(3) 0.1665(2) 0.1074(1)
O10 O 0.0026(3) 0.2272(2) 0.0331(1)
O11 O -0.0326(3) 0.2383(3) 0.2664(1)
O12 O -0.2338(3) 0.2698(3) 0.2653(1)
O13 O -0.5032(3) 0.3568(3) 0.1043(1)
O14 O -0.4257(3) 0.3534(3) 0.0335(1)
H1 H -0.4289(5) -0.4432(3) 0.0621(2)
H2 H -0.3157(4) -0.4823(3) 0.1428(2)
H3 H -0.1142(5) -0.3305(3) 0.0229(2)
H4 H -0.3286(5) -0.3728(4) 0.0026(2)
H5 H 0.0914(15) -0.4571(7) 0.2693(8)
H6 H 0.0828(16) -0.5630(14) 0.2495(4)
H7 H 0.0049(4) -0.5311(20) 0.2914(4)
H8 H 0.1438(4) -0.4305(3) 0.1883(2)
H9 H 0.0591(4) -0.3072(3) 0.1367(2)
H10 H 0.1158(4) -0.3196(4) 0.0536(2)
H11 H 0.1022(4) -0.4834(4) 0.0385(2)
H12 H 0.2460(4) -0.4531(4) 0.0425(2)
H13 H 0.2945(4) -0.5105(4) 0.1263(2)
H14 H 0.2333(4) -0.5928(4) 0.0893(2)
H15 H 0.1370(4) -0.5892(4) 0.1627(2)
H16 H 0.0336(4) -0.5681(4) 0.1134(2)
H17 H 0.4288(4) -0.2780(3) 0.1898(2)
H18 H 0.7940(5) -0.1960(3) 0.1942(2)
H19 H 0.5463(5) -0.2104(3) 0.0583(2)
H20 H 0.7756(5) 0.0451(3) 0.0763(2)
H21 H 0.7278(5) 0.0173(3) 0.1557(2)
H22 H 0.4247(5) 0.1491(3) 0.0250(2)
H23 H 0.6273(5) 0.1043(3) 0.0103(2)
H24 H 0.4083(18) -0.0567(14) 0.2536(4)
H25 H 0.4231(20) 0.0492(6) 0.2733(8)
H26 H 0.5227(5) -0.0285(18) 0.2976(4)
H27 H 0.3004(4) 0.0719(4) 0.1901(2)
H28 H 0.3408(4) 0.1889(3) 0.1349(2)
H29 H 0.2171(4) 0.1618(4) 0.0509(2)
H30 H 0.0752(4) 0.0284(4) 0.0430(2)
H31 H 0.2165(4) -0.0038(4) 0.0422(2)
H32 H 0.1292(4) -0.1037(4) 0.0960(2)
H33 H 0.0976(4) -0.0158(4) 0.1284(2)
H34 H 0.2870(4) -0.0896(4) 0.1714(2)
H35 H 0.3504(4) -0.0767(4) 0.1229(2)
H36 H 0.0125(4) 0.2139(3) 0.1806(2)
H37 H -0.3443(5) 0.3082(3) 0.1799(2)
H38 H -0.2120(5) 0.2866(3) 0.0472(2)
#END
