
#######################################################################
#
#                 Cambridge Crystallographic Data Centre
#                                CCDC
#
#######################################################################
#
# If this CIF has been generated from an entry in the Cambridge
# Structural Database, then it will include bibliographic, chemical,
# crystal, experimental, refinement or atomic coordinate data resulting
# from the CCDC's data processing and validation procedures.
#
#######################################################################

data_CSD_CIF_VAYLUC
_audit_creation_date 1990-05-24
_audit_creation_method CSD-ConQuest-V1
_database_code_CSD VAYLUC
_chemical_formula_sum 'C13 H6 N2 O6'
_chemical_formula_moiety
;
C13 H6 N2 O6
;
_journal_coden_Cambridge 41
_journal_volume 33
_journal_year 1988
_journal_page_first 514
_journal_name_full 'Kristallografiya(Russ.)(Crystallogr.Rep.) '
loop_
_publ_author_name
"E.G.Popova"
"L.A.Chetkina"
"V.E.Zavodnik"
"A.M.Andrievskii"
"A.N.Poplavskii"
_chemical_name_systematic
;
3,10-Dinitro-6H-dibenzo(b,d)pyran-6-one
;
_cell_volume   2273.412
_exptl_crystal_colour 'yellow'
_exptl_crystal_density_diffrn 1.67
_diffrn_ambient_temperature ?
_diffrn_special_details
;
The study was carried out at room temperature,in the range 283-303K

;
#These two values have been output from a single CSD field.
_refine_ls_R_factor_gt 0.033
_refine_ls_wR_factor_gt 0.033
_symmetry_cell_setting monoclinic
_symmetry_space_group_name_H-M 'A 1 1 2/a'
_symmetry_Int_Tables_number 15
loop_
_symmetry_equiv_pos_site_id
_symmetry_equiv_pos_as_xyz
1 x,y,z
2 x,1/2+y,1/2+z
3 1/2-x,-y,z
4 1/2-x,1/2-y,1/2+z
5 -x,-y,-z
6 -x,-1/2-y,-1/2-z
7 -1/2+x,y,-z
8 -1/2+x,-1/2+y,-1/2-z
_cell_length_a 16.158(4)
_cell_length_b 13.036(4)
_cell_length_c 10.823(3)
_cell_angle_alpha 90
_cell_angle_beta 90
_cell_angle_gamma 85.74(2)
_cell_formula_units_Z 8
loop_
_atom_type_symbol
_atom_type_radius_bond
C 0.68
N 0.68
O 0.68
loop_
_atom_site_label
_atom_site_type_symbol
_atom_site_fract_x
_atom_site_fract_y
_atom_site_fract_z
C1 C 0.4381(2) 0.0207(3) 0.1387(4)
C2 C 0.4896(2) -0.0601(2) 0.1827(3)
C3 C 0.5704(2) -0.0428(2) 0.2119(3)
C4 C 0.6022(2) 0.0507(2) 0.1955(3)
C5 C 0.5473(2) 0.3013(2) 0.0688(3)
C6 C 0.4204(2) 0.3789(2) -0.0230(3)
C7 C 0.3380(2) 0.3801(3) -0.0523(3)
C8 C 0.2928(2) 0.3004(3) -0.0146(4)
C9 C 0.3313(2) 0.2187(2) 0.0488(3)
C10 C 0.4171(2) 0.2090(2) 0.0728(3)
C11 C 0.4659(2) 0.1192(2) 0.1227(2)
C12 C 0.5492(2) 0.1300(2) 0.1498(3)
C13 C 0.4597(2) 0.2944(3) 0.0377(3)
N1 N 0.6257(2) -0.1286(3) 0.2605(3)
N2 N 0.2746(2) 0.1460(2) 0.1001(3)
O1 O 0.5965(2) -0.2109(2) 0.2782(3)
O2 O 0.6975(1) -0.1131(2) 0.2811(3)
O3 O 0.2795(2) 0.1268(2) 0.2098(3)
O4 O 0.2241(2) 0.1131(2) 0.0311(3)
O5 O 0.5863(1) 0.2208(2) 0.1314(3)
O6 O 0.5870(1) 0.3734(2) 0.0480(2)
#END
