
#######################################################################
#
#                 Cambridge Crystallographic Data Centre
#                                CCDC
#
#######################################################################
#
# If this CIF has been generated from an entry in the Cambridge
# Structural Database, then it will include bibliographic, chemical,
# crystal, experimental, refinement or atomic coordinate data resulting
# from the CCDC's data processing and validation procedures.
#
#######################################################################

data_CSD_CIF_VAZCAC
_audit_creation_date 2012-10-16
_audit_creation_method CSD-ConQuest-V1
_database_code_CSD VAZCAC
_database_code_depnum_ccdc_archive 'CCDC 871737'
_chemical_formula_sum 'C2 H2 N6 O4'
_chemical_formula_moiety
;
C2 H2 N6 O4
;
_journal_coden_Cambridge 222
_journal_volume 41
_journal_year 2012
_journal_page_first 9451
_journal_name_full 'Dalton Trans. '
loop_
_publ_author_name
"T.M.Klapotke"
"D.G.Piercey"
"J.Stierstorfer"
_chemical_name_systematic
;
3,5-Dinitro-1H-1,2,4-triazol-1-amine
;
_cell_volume   1226.762
_exptl_crystal_colour 'colorless'
_exptl_crystal_density_diffrn 1.885
_exptl_crystal_description 'rod'
_diffrn_ambient_temperature 173
#These two values have been output from a single CSD field.
_refine_ls_R_factor_gt 0.0344
_refine_ls_wR_factor_gt 0.0344
_symmetry_cell_setting triclinic
_symmetry_space_group_name_H-M 'P 1'
_symmetry_Int_Tables_number 1
loop_
_symmetry_equiv_pos_site_id
_symmetry_equiv_pos_as_xyz
1 x,y,z
_cell_length_a 8.3125(7)
_cell_length_b 11.4102(8)
_cell_length_c 13.5629(16)
_cell_angle_alpha 78.074(8)
_cell_angle_beta 77.335(8)
_cell_angle_gamma 89.873(6)
_cell_formula_units_Z 8
loop_
_atom_type_symbol
_atom_type_radius_bond
C 0.68
H 0.23
N 0.68
O 0.68
loop_
_atom_site_label
_atom_site_type_symbol
_atom_site_fract_x
_atom_site_fract_y
_atom_site_fract_z
O1 O 0.1059(4) 0.6272(2) 0.4123(2)
O2 O -0.0607(3) 0.7133(2) 0.3197(2)
O3 O 0.5932(4) 1.0713(2) 0.2259(2)
O4 O 0.6353(4) 0.9042(3) 0.3241(2)
N1 N 0.1453(4) 0.9202(2) 0.2609(2)
N2 N 0.2777(4) 0.9956(2) 0.2384(2)
N3 N 0.3295(4) 0.8151(2) 0.3316(2)
N4 N 0.0660(4) 0.7102(3) 0.3524(2)
N5 N 0.5488(4) 0.9718(3) 0.2771(2)
N6 N 0.0048(4) 0.9620(3) 0.2251(3)
H1 H -0.033(6) 0.907(4) 0.201(3)
H2 H -0.072(6) 0.983(4) 0.272(4)
C1 C 0.1804(4) 0.8139(3) 0.3160(3)
C2 C 0.3832(4) 0.9261(3) 0.2835(3)
O5 O 0.1735(3) -0.1039(2) 0.7253(2)
O6 O 0.7459(4) 0.2199(2) 0.7529(3)
O7 O 0.6548(4) 0.2241(2) 0.6132(2)
O8 O 0.2243(3) -0.2373(2) 0.8529(2)
N7 N 0.6109(4) -0.0150(2) 0.8243(2)
N8 N 0.4987(4) -0.1082(2) 0.8505(2)
N9 N 0.4365(4) 0.0363(2) 0.7225(2)
N10 N 0.6641(4) 0.1797(3) 0.7014(3)
N11 N 0.2553(4) -0.1428(2) 0.7888(2)
N12 N 0.7470(4) -0.0256(3) 0.8713(3)
H3 H 0.828(6) -0.022(4) 0.814(4)
H4 H 0.750(6) 0.039(4) 0.891(3)
C3 C 0.5694(4) 0.0676(3) 0.7497(3)
C4 C 0.3995(4) -0.0703(3) 0.7874(3)
O9 O 0.9911(3) 0.2185(2) 0.3194(2)
O10 O 0.2816(4) 0.3831(3) 0.3311(2)
O11 O 0.3764(4) 0.5561(2) 0.2368(2)
O12 O 0.7621(3) 0.1245(2) 0.4076(2)
N13 N 0.8141(3) 0.4229(2) 0.2638(2)
N14 N 0.6905(4) 0.4947(2) 0.2449(2)
N15 N 0.5872(4) 0.3107(2) 0.3389(2)
N16 N 0.3942(4) 0.4570(3) 0.2865(2)
N17 N 0.8429(4) 0.2117(2) 0.3516(2)
N18 N 0.9778(4) 0.4677(3) 0.2259(3)
H5 H 1.031(6) 0.458(4) 0.272(4)
H6 H 1.017(5) 0.431(4) 0.181(3)
C5 C 0.7483(4) 0.3145(3) 0.3195(3)
C6 C 0.5606(4) 0.4210(3) 0.2917(3)
O13 O 0.5892(3) 0.3445(2) 0.0995(2)
O14 O 0.5557(3) 0.2237(3) 0.0005(2)
O15 O 1.2619(3) 0.0493(2) 0.0011(2)
O16 O 1.0811(3) -0.0126(2) -0.0724(2)
N19 N 1.0450(3) 0.2207(2) 0.0643(2)
N20 N 0.9087(3) 0.2827(2) 0.0862(2)
N21 N 0.8635(4) 0.1452(2) -0.0057(2)
N22 N 1.1287(4) 0.0528(2) -0.0227(2)
N23 N 0.6371(4) 0.2699(3) 0.0481(2)
N24 N 1.1857(4) 0.2509(3) 0.0971(3)
H7 H 1.205(5) 0.192(4) 0.141(3)
H8 H 1.272(6) 0.263(4) 0.047(3)
C7 C 0.8069(4) 0.2319(3) 0.0425(3)
C8 C 1.0138(4) 0.1399(3) 0.0103(3)
O17 O 0.4661(3) 0.3977(2) 0.7219(2)
O18 O 0.3272(3) 0.2647(2) 0.85044(19)
O19 O -0.1252(4) 0.7234(2) 0.7540(3)
O20 O 0.0629(4) 0.7273(2) 0.6132(2)
N25 N -0.0390(3) 0.4878(2) 0.8241(2)
N26 N 0.0551(3) 0.3949(2) 0.8496(2)
N27 N -0.0086(4) 0.6828(3) 0.7020(3)
N28 N 0.3411(4) 0.3592(2) 0.7868(2)
N29 N -0.2082(4) 0.4786(3) 0.8709(3)
H9 H -0.230(6) 0.549(4) 0.898(4)
H10 H -0.266(6) 0.494(4) 0.817(4)
N30 N 0.2064(4) 0.5391(2) 0.7216(2)
C9 C 0.1978(4) 0.4323(3) 0.7859(3)
C10 C 0.0536(4) 0.5704(3) 0.7493(3)
O21 O 0.3034(4) 0.2629(2) 0.5829(3)
O22 O 0.1132(4) 0.1934(3) 0.7219(2)
O23 O -0.1401(3) -0.1426(2) 0.47346(19)
O24 O -0.2837(3) -0.0758(2) 0.6021(2)
N31 N 0.2222(4) 0.0656(2) 0.5069(2)
N32 N 0.1295(4) -0.0131(2) 0.4781(2)
N33 N -0.0255(4) 0.0650(2) 0.6078(2)
N34 N 0.1861(4) 0.1958(3) 0.6332(3)
N35 N -0.1558(4) -0.0807(2) 0.5384(2)
N36 N 0.3913(4) 0.0791(3) 0.4614(3)
H11 H 0.437(6) 0.068(4) 0.518(4)
H12 H 0.407(5) 0.159(4) 0.436(3)
C11 C -0.0142(4) -0.0087(3) 0.5410(3)
C12 C 0.1272(4) 0.1098(3) 0.5821(3)
O25 O 0.9549(3) 0.3568(2) 0.4763(2)
O26 O 1.0060(3) 0.4237(2) 0.6054(2)
O27 O 0.5298(4) 0.6994(3) 0.7192(2)
O28 O 0.4360(3) 0.7663(2) 0.5802(3)
N37 N 0.5715(4) 0.5681(2) 0.5063(2)
N38 N 0.6834(4) 0.4874(2) 0.4798(2)
N39 N 0.7476(4) 0.5676(2) 0.6076(2)
N40 N 0.9255(4) 0.4195(2) 0.5411(2)
N41 N 0.4333(4) 0.5814(3) 0.4614(3)
H13 H 0.339(6) 0.569(4) 0.515(4)
H14 H 0.432(5) 0.668(4) 0.428(3)
N42 N 0.5182(4) 0.7000(3) 0.6310(3)
C13 C 0.6147(4) 0.6130(3) 0.5812(3)
C14 C 0.7825(4) 0.4932(3) 0.5420(3)
O29 O 0.4300(3) 0.4999(2) -0.0838(2)
O30 O 0.1935(3) 0.5418(2) 0.0036(2)
O31 O 0.7679(4) 0.8507(3) 0.1137(2)
O32 O 0.8835(4) 0.7267(3) 0.0209(3)
N43 N 0.4662(4) 0.7859(3) 0.0905(2)
N44 N 0.5896(3) 0.6482(2) 0.0009(2)
N45 N 0.7633(4) 0.7744(3) 0.0633(3)
N46 N 0.3441(4) 0.5550(2) -0.0255(2)
N47 N 0.3522(3) 0.7229(2) 0.0639(2)
N48 N 0.1855(4) 0.7459(3) 0.0956(3)
H15 H 0.131(5) 0.670(4) 0.127(3)
H16 H 0.153(6) 0.780(4) 0.046(4)
C15 C 0.6037(4) 0.7367(3) 0.0500(3)
C16 C 0.4287(4) 0.6425(3) 0.0111(3)
#END
