
#######################################################################
#
#                 Cambridge Crystallographic Data Centre
#                                CCDC
#
#######################################################################
#
# If this CIF has been generated from an entry in the Cambridge
# Structural Database, then it will include bibliographic, chemical,
# crystal, experimental, refinement or atomic coordinate data resulting
# from the CCDC's data processing and validation procedures.
#
#######################################################################

data_CSD_CIF_VAZMIS
_audit_creation_date 1990-06-27
_audit_creation_method CSD-ConQuest-V1
_database_code_CSD VAZMIS
_chemical_formula_sum 'C19 H24 N2 O5'
_chemical_formula_moiety
;
C19 H24 N2 O5
;
_journal_coden_Cambridge 154
_journal_volume 42
_journal_year 1989
_journal_page_first 1547
_journal_name_full 'Aust.J.Chem. '
loop_
_publ_author_name
"M.P.Hartshorn"
"W.T.Robinson"
"A.G.Waller"
"G.J.Wright"
_chemical_name_systematic
;
t-6-Benzyl-2-t-butyl-4,6-dimethyl-r-4,c-5-dinitrocyclohex-2-enone
;
_chemical_melting_point 400.15
_cell_volume   1881.898
_exptl_crystal_colour 'colorless'
_exptl_crystal_density_diffrn 1.27
_exptl_special_details
;
Melting point range 400.15-402.15K

;
_diffrn_ambient_temperature 173
#These two values have been output from a single CSD field.
_refine_ls_R_factor_gt 0.05
_refine_ls_wR_factor_gt 0.05
loop_
_citation_database_id_CSD
_citation_special_details
VAZMEO "is a stereoisomer of this entry"
_symmetry_cell_setting monoclinic
_symmetry_space_group_name_H-M 'P 21/c'
_symmetry_Int_Tables_number 14
loop_
_symmetry_equiv_pos_site_id
_symmetry_equiv_pos_as_xyz
1 x,y,z
2 -x,1/2+y,1/2-z
3 -x,-y,-z
4 x,-1/2-y,-1/2+z
_cell_length_a 7.124(2)
_cell_length_b 30.102(9)
_cell_length_c 8.792(2)
_cell_angle_alpha 90
_cell_angle_beta 93.50(2)
_cell_angle_gamma 90
_cell_formula_units_Z 4
loop_
_atom_type_symbol
_atom_type_radius_bond
C 0.68
H 0.23
N 0.68
O 0.68
loop_
_atom_site_label
_atom_site_type_symbol
_atom_site_fract_x
_atom_site_fract_y
_atom_site_fract_z
C1 C 0.1171(5) 0.3562(1) 0.9331(4)
C2 C 0.1346(5) 0.3535(1) 0.7647(4)
C3 C 0.1291(5) 0.3907(1) 0.6824(4)
C4 C 0.1018(5) 0.4364(1) 0.7398(4)
C5 C 0.0414(4) 0.4385(1) 0.9046(4)
C6 C 0.1327(5) 0.4020(5) 1.0105(4)
C7 C 0.1558(5) 0.3077(1) 0.6924(4)
C8 C -0.0143(6) 0.2784(1) 0.7216(5)
C9 C 0.1692(7) 0.3108(1) 0.5201(4)
C10 C 0.3371(6) 0.2856(1) 0.7587(5)
C11 C 0.2740(5) 0.4664(1) 0.7158(4)
C12 C 0.0385(5) 0.4011(1) 1.1616(4)
C13 C 0.3453(5) 0.4135(1) 1.0370(4)
C14 C 0.4503(5) 0.3907(1) 1.1684(5)
C15 C 0.5295(6) 0.3500(2) 1.1516(7)
C16 C 0.6331(7) 0.3299(2) 1.2809(8)
C17 C 0.6417(7) 0.3541(2) 1.4155(7)
C18 C 0.5666(7) 0.3945(3) 1.4336(7)
C19 C 0.4705(6) 0.4124(2) 1.3088(5)
N1 N -0.0522(4) 0.4594(1) 0.6356(4)
N2 N -0.1693(4) 0.4334(1) 0.9067(4)
O1 O 0.1017(4) 0.3236(1) 1.0121(3)
O2 O -0.1385(4) 0.4903(1) 0.6900(3)
O3 O -0.0708(4) 0.4477(1) 0.5040(3)
O4 O -0.2455(3) 0.4028(1) 0.8359(3)
O5 O -0.2519(4) 0.4601(1) 0.9849(3)
H1 H 0.14430 0.38760 0.57510
H2 H 0.08330 0.46700 0.94260
H3 H 0.00050 0.24940 0.67340
H4 H -0.12720 0.29310 0.67630
H5 H -0.02680 0.27440 0.83120
H6 H 0.17480 0.28000 0.48470
H7 H 0.28270 0.32670 0.49310
H8 H 0.05810 0.32540 0.47140
H9 H 0.34070 0.28270 0.86990
H10 H 0.44410 0.30350 0.72990
H11 H 0.34380 0.25600 0.71260
H12 H 0.28960 0.46590 0.60580
H13 H 0.38790 0.45480 0.77000
H14 H 0.25220 0.49700 0.74860
H15 H 0.04530 0.43070 1.20800
H16 H 0.10960 0.38000 1.22740
H17 H -0.09320 0.39170 1.14930
H18 H 0.35510 0.44490 1.05380
H19 H 0.40580 0.40580 0.94600
H20 H 0.51700 0.33490 1.05550
H21 H 0.69240 0.30140 1.27390
H22 H 0.70690 0.34080 1.50290
H23 H 0.57960 0.41000 1.52910
H24 H 0.41450 0.44120 1.31820
#END
