
#######################################################################
#
#                 Cambridge Crystallographic Data Centre
#                                CCDC
#
#######################################################################
#
# If this CIF has been generated from an entry in the Cambridge
# Structural Database, then it will include bibliographic, chemical,
# crystal, experimental, refinement or atomic coordinate data resulting
# from the CCDC's data processing and validation procedures.
#
#######################################################################

data_CSD_CIF_VAZMUE
_audit_creation_date 1990-07-26
_audit_creation_method CSD-ConQuest-V1
_database_code_CSD VAZMUE
_chemical_formula_sum 'C19 H24 N2 O5'
_chemical_formula_moiety
;
C19 H24 N2 O5
;
_journal_coden_Cambridge 154
_journal_volume 42
_journal_year 1989
_journal_page_first 1547
_journal_name_full 'Aust.J.Chem. '
loop_
_publ_author_name
"M.P.Hartshorn"
"W.T.Robinson"
"A.G.Waller"
"G.J.Wright"
_chemical_name_systematic
;
t-6-Benzyl-2-t-butyl-4,6-dimethyl-r-2,c-5-dinitrocyclohex-3-enone
;
_chemical_melting_point 383.15
_cell_volume   3811.220
_exptl_crystal_colour 'colorless'
_exptl_crystal_density_diffrn 1.26
_diffrn_ambient_temperature 173
#These two values have been output from a single CSD field.
_refine_ls_R_factor_gt 0.05
_refine_ls_wR_factor_gt 0.05
loop_
_citation_database_id_CSD
_citation_special_details
VAZMOY "is a stereoisomer of this entry"
_symmetry_cell_setting monoclinic
_symmetry_space_group_name_H-M 'P 21/c'
_symmetry_Int_Tables_number 14
loop_
_symmetry_equiv_pos_site_id
_symmetry_equiv_pos_as_xyz
1 x,y,z
2 -x,1/2+y,1/2-z
3 -x,-y,-z
4 x,-1/2-y,-1/2+z
_cell_length_a 13.119(3)
_cell_length_b 12.595(3)
_cell_length_c 23.779(5)
_cell_angle_alpha 90
_cell_angle_beta 104.07(2)
_cell_angle_gamma 90
_cell_formula_units_Z 8
loop_
_atom_type_symbol
_atom_type_radius_bond
C 0.68
H 0.23
N 0.68
O 0.68
loop_
_atom_site_label
_atom_site_type_symbol
_atom_site_fract_x
_atom_site_fract_y
_atom_site_fract_z
C1 C 0.3205(3) 0.7506(3) 0.1077(2)
C2 C 0.3679(3) 0.6428(3) 0.1316(2)
C3 C 0.4681(3) 0.6567(4) 0.1779(2)
C4 C 0.4990(3) 0.7447(4) 0.2075(2)
C5 C 0.4356(3) 0.8445(4) 0.1937(2)
C6 C 0.3743(3) 0.8549(3) 0.1299(2)
C7 C 0.3790(3) 0.5628(4) 0.0817(2)
C8 C 0.2716(4) 0.5209(4) 0.0480(2)
C9 C 0.4321(4) 0.6214(4) 0.0399(2)
C10 C 0.4469(4) 0.4667(4) 0.1059(2)
C11 C 0.5928(3) 0.7496(4) 0.2572(2)
C12 C 0.2925(4) 0.9427(4) 0.1226(2)
C13 C 0.4546(3) 0.8791(4) 0.0928(2)
C14 C 0.4984(3) 0.9905(4) 0.0984(2)
C15 C 0.5849(4) 1.0191(4) 0.1427(2)
C16 C 0.6211(4) 1.1216(4) 0.1477(2)
C17 C 0.5744(4) 1.1988(4) 0.1089(2)
C18 C 0.4903(4) 1.1705(4) 0.0636(2)
C19 C 0.4529(4) 1.0682(4) 0.0587(2)
N1 N 0.2887(3) 0.5894(3) 0.1623(2)
N2 N 0.3600(3) 0.8464(3) 0.2331(2)
O1 O 0.2423(2) 0.7528(2) 0.0676(1)
O2 O 0.3262(3) 0.5273(3) 0.2018(2)
O3 O 0.1953(3) 0.6066(3) 0.1449(1)
O4 O 0.2904(3) 0.7817(3) 0.2248(1)
O5 O 0.3761(3) 0.9121(3) 0.2720(1)
H1 H 0.51380 0.59620 0.18670
H2 H 0.48330 0.90360 0.20000
H3 H 0.22560 0.58130 0.03360
H4 H 0.23770 0.47470 0.07120
H5 H 0.28470 0.48080 0.01520
H6 H 0.39060 0.67950 0.01830
H7 H 0.44320 0.56660 0.01270
H8 H 0.50020 0.64870 0.06170
H9 H 0.52130 0.48400 0.12130
H10 H 0.43960 0.41680 0.07360
H11 H 0.41910 0.43420 0.13660
H12 H 0.64210 0.80610 0.25350
H13 H 0.62850 0.68080 0.25990
H14 H 0.56740 0.76150 0.29220
H15 H 0.32240 1.01030 0.13940
H16 H 0.23680 0.92050 0.14110
H17 H 0.26290 0.95160 0.08090
H18 H 0.42000 0.86740 0.05280
H19 H 0.51230 0.83060 0.10430
H20 H 0.61940 0.96650 0.16990
H21 H 0.68020 1.13990 0.17880
H22 H 0.59950 1.27060 0.11320
H23 H 0.45800 1.22290 0.03560
H24 H 0.39440 1.05000 0.02720
C20 C -0.1872(3) 0.6056(4) 0.1156(2)
C21 C -0.1319(3) 0.7129(3) 0.1344(2)
C22 C -0.0307(3) 0.7003(4) 0.1804(2)
C23 C -0.0006(3) 0.6141(4) 0.2112(2)
C24 C -0.0655(3) 0.5142(4) 0.2010(2)
C25 C -0.1321(3) 0.5008(3) 0.1388(2)
C26 C -0.1186(4) 0.7834(4) 0.0819(2)
C27 C -0.2212(5) 0.8054(6) 0.0374(3)
C28 C -0.0472(6) 0.7260(5) 0.0513(3)
C29 C -0.0693(7) 0.8887(5) 0.1021(3)
C30 C 0.0979(3) 0.6095(4) 0.2599(2)
C31 C -0.2157(4) 0.4149(4) 0.1342(2)
C32 C -0.0551(3) 0.4726(3) 0.0993(2)
C33 C -0.0119(4) 0.3610(4) 0.1062(2)
C34 C 0.0834(4) 0.3379(4) 0.1444(2)
C35 C 0.1218(4) 0.2341(4) 0.1497(2)
C36 C 0.0649(4) 0.1549(4) 0.1166(2)
C37 C -0.0296(4) 0.1764(4) 0.0783(2)
C38 C -0.0667(4) 0.2792(4) 0.0731(2)
N3 N -0.2053(3) 0.7762(3) 0.1647(2)
N4 N -0.1391(3) 0.5173(3) 0.2418(2)
O6 O -0.2714(2) 0.6030(3) 0.0814(1)
O7 O -0.1649(3) 0.8308(3) 0.2064(1)
O8 O -0.2995(3) 0.7719(3) 0.1454(2)
O9 O -0.2074(2) 0.5848(3) 0.2325(1)
O10 O -0.1235(3) 0.4539(3) 0.2816(1)
H25 H 0.01570 0.76040 0.18780
H26 H -0.01760 0.45530 0.20800
H27 H -0.26860 0.84150 0.05730
H28 H -0.25250 0.73780 0.02160
H29 H -0.21010 0.85030 0.00570
H30 H 0.01960 0.71160 0.07930
H31 H -0.03460 0.77110 0.02010
H32 H -0.07890 0.65880 0.03500
H33 H -0.00250 0.88960 0.13160
H34 H -0.12490 0.91800 0.11860
H35 H -0.06280 0.93170 0.06880
H36 H 0.13990 0.55060 0.25070
H37 H 0.07940 0.59500 0.29660
H38 H 0.13870 0.67530 0.26320
H39 H -0.18080 0.34950 0.15120
H40 H -0.24690 0.40380 0.09280
H41 H -0.27090 0.43370 0.15370
H42 H 0.00310 0.52100 0.10850
H43 H -0.09250 0.48210 0.05960
H44 H 0.12320 0.39360 0.16730
H45 H 0.18760 0.21810 0.17630
H46 H 0.09150 0.08350 0.12020
H47 H -0.06920 0.12060 0.05550
H48 H -0.13210 0.29460 0.04590
#END
