
#######################################################################
#
#                 Cambridge Crystallographic Data Centre
#                                CCDC
#
#######################################################################
#
# If this CIF has been generated from an entry in the Cambridge
# Structural Database, then it will include bibliographic, chemical,
# crystal, experimental, refinement or atomic coordinate data resulting
# from the CCDC's data processing and validation procedures.
#
#######################################################################

data_CSD_CIF_VAZMEP
_audit_creation_date 2006-02-21
_audit_creation_method CSD-ConQuest-V1
_database_code_CSD VAZMEP
_database_code_depnum_ccdc_archive 'CCDC 296614'
_chemical_formula_sum 'C6 H4 N4 O2'
_chemical_formula_moiety
;
C6 H4 N4 O2
;
_journal_coeditor_code "IUCr LH6567"
_journal_coden_Cambridge 1370
_journal_volume 62
_journal_year 2006
_journal_page_first o223
_journal_name_full 'Acta Crystallogr.,Sect.E:Struct.Rep.Online '
loop_
_publ_author_name
"J.Muller"
"E.G.Bardaji"
"F.-A.Polonius"
_chemical_name_systematic
;
6-Nitro-1-deazapurine
;
_cell_volume    721.197
_exptl_crystal_colour 'yellow'
_exptl_crystal_density_diffrn 1.512
_exptl_crystal_description 'block'
_exptl_crystal_preparation 'water'
_diffrn_ambient_temperature 298
#These two values have been output from a single CSD field.
_refine_ls_R_factor_gt 0.0531
_refine_ls_wR_factor_gt 0.0531
_symmetry_cell_setting monoclinic
_symmetry_space_group_name_H-M 'P 21/c'
_symmetry_Int_Tables_number 14
loop_
_symmetry_equiv_pos_site_id
_symmetry_equiv_pos_as_xyz
1 x,y,z
2 -x,1/2+y,1/2-z
3 -x,-y,-z
4 x,-1/2-y,-1/2+z
_cell_length_a 11.684(2)
_cell_length_b 9.5750(19)
_cell_length_c 7.2052(14)
_cell_angle_alpha 90
_cell_angle_beta 116.53(3)
_cell_angle_gamma 90
_cell_formula_units_Z 4
loop_
_atom_type_symbol
_atom_type_radius_bond
C 0.68
H 0.23
N 0.68
O 0.68
loop_
_atom_site_label
_atom_site_type_symbol
_atom_site_fract_x
_atom_site_fract_y
_atom_site_fract_z
O1 O 0.2563(2) 0.6124(2) 0.2776(4)
O2 O 0.4285(2) 0.5426(2) 0.2698(3)
N1 N 0.2151(2) 0.0968(2) 0.2911(3)
N2 N 0.3280(2) 0.5216(3) 0.2780(3)
N3 N 0.06591(19) 0.4195(2) 0.2507(3)
N4 N 0.01668(19) 0.19438(19) 0.2543(3)
C1 C 0.3713(3) 0.2669(3) 0.3058(4)
C2 C 0.3300(3) 0.1313(3) 0.3075(4)
C3 C 0.1393(2) 0.2058(3) 0.2733(3)
C4 C 0.1713(2) 0.3468(2) 0.2711(3)
C5 C 0.2901(2) 0.3766(3) 0.2857(4)
C6 C -0.0210(3) 0.3236(3) 0.2426(4)
H1 H 0.386(2) 0.051(3) 0.317(4)
H2 H -0.099(2) 0.353(2) 0.230(3)
H3 H 0.052(3) 0.516(3) 0.252(4)
H4 H 0.455(2) 0.289(2) 0.317(4)
#END
