
#######################################################################
#
#                 Cambridge Crystallographic Data Centre
#                                CCDC
#
#######################################################################
#
# If this CIF has been generated from an entry in the Cambridge
# Structural Database, then it will include bibliographic, chemical,
# crystal, experimental, refinement or atomic coordinate data resulting
# from the CCDC's data processing and validation procedures.
#
#######################################################################

data_CSD_CIF_VAZMOY
_audit_creation_date 1990-07-26
_audit_creation_method CSD-ConQuest-V1
_database_code_CSD VAZMOY
_chemical_formula_sum 'C19 H24 N2 O5'
_chemical_formula_moiety
;
C19 H24 N2 O5
;
_journal_coden_Cambridge 154
_journal_volume 42
_journal_year 1989
_journal_page_first 1547
_journal_name_full 'Aust.J.Chem. '
loop_
_publ_author_name
"M.P.Hartshorn"
"W.T.Robinson"
"A.G.Waller"
"G.J.Wright"
_chemical_name_systematic
;
c-6-Benzyl-2-t-butyl-4,6-dimethyl-r-2,t-5-dinitrocyclohex-3-enone
;
_chemical_melting_point 380.15
_cell_volume   3733.161
_exptl_crystal_colour 'colorless'
_exptl_crystal_density_diffrn 1.28
_exptl_special_details
;
Melting point range 380.15-382.15K

;
_diffrn_ambient_temperature 143
#These two values have been output from a single CSD field.
_refine_ls_R_factor_gt 0.051
_refine_ls_wR_factor_gt 0.051
loop_
_citation_database_id_CSD
_citation_special_details
VAZMUE "is a stereoisomer of this entry"
_symmetry_cell_setting monoclinic
_symmetry_space_group_name_H-M 'P 21/c'
_symmetry_Int_Tables_number 14
loop_
_symmetry_equiv_pos_site_id
_symmetry_equiv_pos_as_xyz
1 x,y,z
2 -x,1/2+y,1/2-z
3 -x,-y,-z
4 x,-1/2-y,-1/2+z
_cell_length_a 9.753(5)
_cell_length_b 27.62(1)
_cell_length_c 14.128(4)
_cell_angle_alpha 90
_cell_angle_beta 101.21(3)
_cell_angle_gamma 90
_cell_formula_units_Z 8
loop_
_atom_type_symbol
_atom_type_radius_bond
C 0.68
H 0.23
N 0.68
O 0.68
loop_
_atom_site_label
_atom_site_type_symbol
_atom_site_fract_x
_atom_site_fract_y
_atom_site_fract_z
C1 C 0.3792(4) 0.3775(1) -0.2928(3)
C2 C 0.4816(4) 0.4193(1) -0.2593(3)
C3 C 0.4175(4) 0.4549(1) -0.1986(3)
C4 C 0.2924(4) 0.4516(1) -0.1770(3)
C5 C 0.1910(4) 0.4125(1) -0.2185(3)
C6 C 0.2222(4) 0.3881(1) -0.3095(3)
C7 C 0.6332(4) 0.4043(1) -0.2082(3)
C8 C 0.6224(4) 0.3733(2) -0.1194(3)
C9 C 0.7243(4) 0.4487(2) -0.1718(3)
C10 C 0.7108(4) 0.3761(2) -0.2754(3)
C11 C 0.2412(5) 0.4871(2) -0.1106(3)
C12 C 0.1402(4) 0.3416(1) -0.3323(3)
C13 C 0.1865(4) 0.4248(1) -0.3942(3)
C14 C 0.0344(4) 0.4379(1) -0.4220(3)
C15 C -0.0194(4) 0.4785(1) -0.3827(3)
C16 C -0.1573(4) 0.4921(1) -0.4124(3)
C17 C -0.2424(4) 0.4665(1) -0.4831(3)
C18 C -0.1922(4) 0.4265(1) -0.5239(3)
C19 C -0.0545(4) 0.4131(1) -0.4935(3)
N1 N 0.4952(3) 0.4456(1) -0.3533(2)
N2 N 0.1909(4) 0.3747(1) -0.1406(2)
O1 O 0.4206(3) 0.3373(1) -0.3061(2)
O2 O 0.4852(3) 0.4209(1) -0.4262(2)
O3 O 0.5186(3) 0.4892(1) -0.3498(2)
O4 O 0.2977(3) 0.3535(1) -0.1109(2)
O5 O 0.0798(3) 0.3672(1) -0.1136(2)
H1 H 0.47330 0.48230 -0.17360
H2 H 0.10150 0.42770 -0.23850
H3 H 0.57500 0.34210 -0.13260
H4 H 0.58060 0.39130 -0.07240
H5 H 0.72190 0.36790 -0.09320
H6 H 0.68680 0.46420 -0.11980
H7 H 0.72050 0.47170 -0.22520
H8 H 0.82140 0.43910 -0.14760
H9 H 0.66300 0.34690 -0.30450
H10 H 0.80090 0.36710 -0.23540
H11 H 0.72640 0.39820 -0.32660
H12 H 0.15530 0.50260 -0.14480
H13 H 0.31230 0.51190 -0.08920
H14 H 0.22160 0.46960 -0.05450
H15 H 0.04190 0.35010 -0.33540
H16 H 0.16920 0.31770 -0.28110
H17 H 0.15160 0.32790 -0.39430
H18 H 0.21510 0.41100 -0.44960
H19 H 0.23840 0.45400 -0.37570
H20 H 0.04050 0.49730 -0.33430
H21 H -0.19340 0.51950 -0.38330
H22 H -0.33770 0.47640 -0.50450
H23 H -0.25240 0.40820 -0.57280
H24 H -0.01950 0.38560 -0.52290
C20 C 0.1963(4) 0.3685(1) 0.2653(3)
C21 C 0.0847(4) 0.3321(1) 0.2165(3)
C22 C 0.1398(4) 0.3010(1) 0.1445(3)
C23 C 0.2681(4) 0.3024(4) 0.1269(3)
C24 C 0.3770(4) 0.3357(1) 0.1797(3)
C25 C 0.3498(4) 0.3533(1) 0.2775(3)
C26 C -0.0620(4) 0.3550(1) 0.1736(3)
C27 C -0.0420(4) 0.3940(2) 0.1005(3)
C28 C -0.1616(4) 0.3171(2) 0.1206(3)
C29 C -0.1327(4) 0.3777(2) 0.2518(3)
C30 C 0.3142(4) 0.2693(1) 0.0543(1)
C31 C 0.4428(4) 0.3960(1) 0.3157(3)
C32 C 0.3761(4) 0.3096(1) 0.3503(3)
C33 C 0.5269(4) 0.2952(1) 0.3810(3)
C34 C 0.5885(4) 0.2627(1) 0.3265(3)
C35 C 0.7282(4) 0.2509(2) 0.3541(3)
C36 C 0.8064(4) 0.2701(2) 0.4365(3)
C37 C 0.7453(4) 0.3013(2) 0.4930(3)
C38 C 0.6065(4) 0.3138(1) 0.4650(3)
N3 N 0.0623(3) 0.2981(1) 0.3000(2)
N4 N 0.3885(4) 0.3797(1) 0.1166(2)
O6 O 0.1649(3) 0.4075(1) 0.2918(2)
O7 O 0.0782(3) 0.3160(1) 0.3807(2)
O8 O 0.0309(3) 0.2562(1) 0.2816(2)
O9 O 0.2831(3) 0.4044(1) 0.0924(2)
O10 O 0.5014(3) 0.3888(1) 0.0959(2)
H25 H 0.07620 0.27810 0.10840
H26 H 0.46200 0.31730 0.19310
H27 H 0.01460 0.42060 0.13330
H28 H -0.13360 0.40640 0.06890
H29 H 0.00530 0.37970 0.05200
H30 H -0.12770 0.30830 0.06210
H31 H -0.25460 0.33170 0.10280
H32 H -0.16710 0.28800 0.15940
H33 H -0.07510 0.40150 0.29290
H34 H -0.15410 0.35060 0.29150
H35 H -0.21990 0.39290 0.21940
H36 H 0.36080 0.28940 0.01290
H37 H 0.23680 0.25170 0.01430
H38 H 0.38130 0.24620 0.08970
H39 H 0.53910 0.38500 0.31850
H40 H 0.42910 0.40360 0.38100
H41 H 0.42530 0.42500 0.27530
H42 H 0.32520 0.28210 0.32020
H43 H 0.34130 0.31840 0.40700
H44 H 0.53370 0.24850 0.26950
H45 H 0.77060 0.22910 0.31540
H46 H 0.90360 0.26210 0.45510
H47 H 0.79950 0.31410 0.55170
H48 H 0.56480 0.33560 0.50400
#END
