
#######################################################################
#
#                 Cambridge Crystallographic Data Centre
#                                CCDC
#
#######################################################################
#
# If this CIF has been generated from an entry in the Cambridge
# Structural Database, then it will include bibliographic, chemical,
# crystal, experimental, refinement or atomic coordinate data resulting
# from the CCDC's data processing and validation procedures.
#
#######################################################################

data_CSD_CIF_VEBVUU
_audit_creation_date 2006-05-24
_audit_creation_method CSD-ConQuest-V1
_database_code_CSD VEBVUU
_database_code_depnum_ccdc_archive 'CCDC 282897'
_chemical_formula_sum 'C17 H29 N1 O6'
_chemical_formula_moiety
;
C17 H29 N1 O6
;
_journal_coden_Cambridge 1090
_journal_volume 17
_journal_year 2006
_journal_page_first 68
_journal_name_full 'Tetrahedron:Asymm. '
loop_
_publ_author_name
"S.Stecko"
"K.Pasniczek"
"M.Jurczak"
"Z.Urbanczyk-Lipkowska"
"M.Chmielewski"
_chemical_name_systematic
;
(3R,3aS,8aS,8bR,7S,8S)-7,8-bis(t-Butoxy)-3-hydroxymethylhexahydrofuro[3,4-d]py
rrolo[1,2-b]isoxazol-1(3H)-one
;
_chemical_melting_point 421.15
_cell_volume   1980.339
_exptl_crystal_colour 'colorless'
_exptl_crystal_density_diffrn 1.145
_exptl_special_details
;
Melting point range 421.15-423.15K

;
_exptl_crystal_description 'plate'
_diffrn_ambient_temperature 293
#These two values have been output from a single CSD field.
_refine_ls_R_factor_gt 0.0658
_refine_ls_wR_factor_gt 0.0658
_symmetry_cell_setting orthorhombic
_symmetry_space_group_name_H-M 'P 21 21 21'
_symmetry_Int_Tables_number 19
loop_
_symmetry_equiv_pos_site_id
_symmetry_equiv_pos_as_xyz
1 x,y,z
2 1/2-x,-y,1/2+z
3 1/2+x,1/2-y,-z
4 -x,1/2+y,1/2-z
_cell_length_a 7.531(8)
_cell_length_b 15.5376(10)
_cell_length_c 16.924(1)
_cell_angle_alpha 90
_cell_angle_beta 90
_cell_angle_gamma 90
_cell_formula_units_Z 4
loop_
_atom_type_symbol
_atom_type_radius_bond
C 0.68
H 0.23
N 0.68
O 0.68
loop_
_atom_site_label
_atom_site_type_symbol
_atom_site_fract_x
_atom_site_fract_y
_atom_site_fract_z
C1 C 0.0480(7) 0.8862(3) 0.9971(3)
H1 H -0.00790 0.86300 1.04480
C2 C -0.0538(7) 0.8657(4) 0.9230(3)
H2 H -0.00450 0.81380 0.89850
C3 C 0.0285(7) 1.0069(4) 0.9130(4)
C4 C 0.0617(6) 0.9823(3) 0.9978(3)
H3 H -0.02570 1.00830 1.03340
C5 C 0.2551(6) 1.0020(3) 1.0242(3)
H4 H 0.31620 1.03730 0.98460
C6 C 0.2780(7) 1.0404(3) 1.1064(3)
H5 H 0.19170 1.08610 1.11700
C7 C 0.2535(7) 0.9633(4) 1.1613(3)
H6 H 0.30660 0.97380 1.21330
C8 C 0.3477(8) 0.8911(4) 1.1179(4)
C9 C -0.2495(7) 0.8536(4) 0.9368(4)
H7 H -0.31120 0.84630 0.88690
H8 H -0.27050 0.80310 0.96920
C10 C 0.4889(9) 1.1598(4) 1.1169(4)
C11 C 0.4181(13) 1.1961(5) 1.1913(5)
H9 H 0.46840 1.16590 1.23540
H10 H 0.29120 1.19000 1.19210
H11 H 0.44870 1.25600 1.19460
C12 C 0.689(1) 1.1667(5) 1.1178(6)
H12 H 0.73590 1.14470 1.06910
H13 H 0.73550 1.13380 1.16120
H14 H 0.72290 1.22590 1.12370
C13 C 0.4148(12) 1.2081(5) 1.0486(5)
H15 H 0.46390 1.18570 1.00040
H16 H 0.44460 1.26790 1.05350
H17 H 0.28800 1.20170 1.04770
C14 C -0.0117(9) 0.9351(5) 1.2436(3)
C15 C -0.2066(8) 0.9189(5) 1.2229(4)
H18 H -0.21590 0.86730 1.19200
H19 H -0.25170 0.96670 1.19300
H20 H -0.27430 0.91260 1.27060
C16 C 0.0677(11) 0.8572(4) 1.2835(4)
H21 H 0.04940 0.80740 1.25090
H22 H 0.01160 0.84860 1.33380
H23 H 0.19270 0.86600 1.29110
C17 C 0.0134(10) 1.0143(5) 1.2930(4)
H24 H 0.13740 1.02180 1.30420
H25 H -0.05100 1.00820 1.34160
H26 H -0.03000 1.06350 1.26470
O1 O 0.2295(4) 0.8570(2) 0.9866(2)
O2 O -0.0254(5) 0.9388(3) 0.8714(2)
O3 O 0.0459(6) 1.0766(3) 0.8829(3)
O4 O 0.4550(5) 1.0694(2) 1.1143(3)
O5 O 0.0682(5) 0.9466(3) 1.1672(2)
O6 O -0.3096(5) 0.9284(3) 0.9758(3)
N1 N 0.3404(5) 0.9152(3) 1.0309(3)
H27 H -0.425(9) 0.921(4) 0.991(4)
#END
