
#######################################################################
#
#                 Cambridge Crystallographic Data Centre
#                                CCDC
#
#######################################################################
#
# If this CIF has been generated from an entry in the Cambridge
# Structural Database, then it will include bibliographic, chemical,
# crystal, experimental, refinement or atomic coordinate data resulting
# from the CCDC's data processing and validation procedures.
#
#######################################################################

data_CSD_CIF_VEBVII
_audit_creation_date 2006-05-24
_audit_creation_method CSD-ConQuest-V1
_database_code_CSD VEBVII
_database_code_depnum_ccdc_archive 'CCDC 282894'
_chemical_formula_sum 'C13 H21 N1 O5'
_chemical_formula_moiety
;
C13 H21 N1 O5
;
_journal_coden_Cambridge 1090
_journal_volume 17
_journal_year 2006
_journal_page_first 68
_journal_name_full 'Tetrahedron:Asymm. '
loop_
_publ_author_name
"S.Stecko"
"K.Pasniczek"
"M.Jurczak"
"Z.Urbanczyk-Lipkowska"
"M.Chmielewski"
_chemical_name_systematic
;
(3R,3aS,7S,8aR,8bR)-7-(t-Butoxy)-3-(hydroxymethyl)hexahydrofuro[3,4-d]pyrrolo[
1,2-b]isoxazol-1(3H)-one
;
_chemical_melting_point 387.15
_cell_volume   1415.276
_exptl_crystal_colour 'colorless'
_exptl_crystal_density_diffrn 1.273
_exptl_special_details
;
Melting point range 387.15-389.15K

;
_exptl_crystal_description 'rectangle'
_diffrn_ambient_temperature 293
#These two values have been output from a single CSD field.
_refine_ls_R_factor_gt 0.047
_refine_ls_wR_factor_gt 0.047
_symmetry_cell_setting monoclinic
_symmetry_space_group_name_H-M 'P 21'
_symmetry_Int_Tables_number 4
loop_
_symmetry_equiv_pos_site_id
_symmetry_equiv_pos_as_xyz
1 x,y,z
2 -x,1/2+y,1/2-z
_cell_length_a 8.9486(2)
_cell_length_b 9.2935(5)
_cell_length_c 17.018(3)
_cell_angle_alpha 90
_cell_angle_beta 90.16
_cell_angle_gamma 90
_cell_formula_units_Z 4
loop_
_atom_type_symbol
_atom_type_radius_bond
C 0.68
H 0.23
N 0.68
O 0.68
loop_
_atom_site_label
_atom_site_type_symbol
_atom_site_fract_x
_atom_site_fract_y
_atom_site_fract_z
H1 H 0.380(7) 0.236(9) 0.728(4)
H2 H 0.813(6) 0.931(6) 0.828(3)
C1 C 0.6374(5) 0.1497(6) 0.6204(3)
H3 H 0.68330 0.20410 0.66350
C2 C 1.0662(4) 0.7864(5) 0.6895(2)
H4 H 1.06160 0.88900 0.70250
C3 C 0.5612(5) 0.2518(6) 0.5626(3)
H5 H 0.57110 0.35290 0.57820
C4 C 0.9689(5) 0.7530(5) 0.6184(2)
H6 H 0.91570 0.83830 0.59930
C5 C 0.6407(5) 0.2195(6) 0.4864(3)
H7 H 0.57210 0.23030 0.44180
C6 C 1.0806(5) 0.6968(5) 0.5584(2)
H8 H 1.03380 0.62400 0.52480
C7 C 0.7862(6) 0.3037(6) 0.4717(4)
H9 H 0.76840 0.38390 0.43650
H10 H 0.82690 0.34030 0.52070
C8 C 1.1605(5) 0.8086(6) 0.5086(3)
H11 H 1.11160 0.81910 0.45800
H12 H 1.16120 0.90130 0.53480
C9 C 0.8915(5) 0.1964(6) 0.4350(3)
H13 H 0.98790 0.19650 0.46250
C10 C 1.3186(5) 0.7524(6) 0.4986(3)
H14 H 1.39200 0.82940 0.50600
C11 C 0.8141(6) 0.0509(6) 0.4441(4)
H15 H 0.78180 0.01600 0.39310
H16 H 0.88330 -0.01860 0.46630
C12 C 1.3357(5) 0.6351(7) 0.5623(3)
H17 H 1.35340 0.54240 0.53780
H18 H 1.42010 0.65730 0.59600
C13 C 0.5128(5) 0.0523(6) 0.6518(2)
H19 H 0.53970 -0.04910 0.64470
C14 C 1.0043(5) 0.6963(5) 0.7564(2)
H20 H 1.08320 0.63200 0.77560
C15 C 0.3999(5) 0.2023(7) 0.5607(3)
C16 C 0.8641(5) 0.6385(6) 0.6460(3)
C17 C 1.0400(6) 0.3013(7) 0.3269(3)
C18 C 1.4643(6) 0.7193(7) 0.3786(3)
C19 C 1.0547(8) 0.4394(8) 0.3735(5)
H21 H 0.96440 0.49450 0.36840
H22 H 1.13730 0.49440 0.35380
H23 H 1.07160 0.41690 0.42790
C20 C 1.6041(6) 0.6903(9) 0.4250(4)
H24 H 1.60620 0.59110 0.44070
H25 H 1.60580 0.75040 0.47090
H26 H 1.68990 0.71080 0.39310
C21 C 1.0068(10) 0.3284(10) 0.2418(4)
H27 H 0.91850 0.38640 0.23720
H28 H 0.99110 0.23830 0.21540
H29 H 1.08960 0.37770 0.21820
C22 C 1.4612(8) 0.8724(9) 0.3515(4)
H30 H 1.47390 0.93510 0.39580
H31 H 1.36710 0.89200 0.32660
H32 H 1.54070 0.88810 0.31480
C23 C 1.1776(6) 0.210(1) 0.3350(4)
H33 H 1.19610 0.19080 0.38960
H34 H 1.26160 0.26000 0.31310
H35 H 1.16320 0.12080 0.30760
C24 C 1.4472(8) 0.6195(11) 0.3073(4)
H36 H 1.45010 0.52110 0.32440
H37 H 1.52740 0.63670 0.27110
H38 H 1.35350 0.63820 0.28170
C25 C 0.4754(5) 0.0807(6) 0.7357(3)
H39 H 0.38650 0.02670 0.74960
H40 H 0.55670 0.04720 0.76880
C26 C 0.9413(5) 0.7789(5) 0.8250(2)
H41 H 0.89900 0.71300 0.86320
H42 H 1.01970 0.83390 0.85060
N1 N 0.6838(5) 0.0676(5) 0.4963(2)
N2 N 1.1968(4) 0.6298(5) 0.6093(2)
O1 O 0.7486(4) 0.0747(5) 0.5772(2)
O2 O 1.2147(3) 0.7458(4) 0.66845(17)
O3 O 0.3793(3) 0.0869(4) 0.60563(18)
O4 O 0.8833(3) 0.6087(3) 0.72258(17)
O5 O 0.3006(4) 0.2567(6) 0.5235(2)
O6 O 0.7733(4) 0.5715(5) 0.6078(2)
O7 O 0.9119(3) 0.2180(4) 0.35292(17)
O8 O 1.3338(4) 0.6880(4) 0.42341(18)
O9 O 0.4503(4) 0.2278(4) 0.7507(2)
O10 O 0.8286(4) 0.8728(4) 0.7957(2)
#END
