
#######################################################################
#
#                 Cambridge Crystallographic Data Centre
#                                CCDC
#
#######################################################################
#
# If this CIF has been generated from an entry in the Cambridge
# Structural Database, then it will include bibliographic, chemical,
# crystal, experimental, refinement or atomic coordinate data resulting
# from the CCDC's data processing and validation procedures.
#
#######################################################################

data_CSD_CIF_VEBVOO
_audit_creation_date 2006-05-24
_audit_creation_method CSD-ConQuest-V1
_database_code_CSD VEBVOO
_database_code_depnum_ccdc_archive 'CCDC 282895'
_chemical_formula_sum 'C13 H21 N1 O5'
_chemical_formula_moiety
;
C13 H21 N1 O5
;
_journal_coden_Cambridge 1090
_journal_volume 17
_journal_year 2006
_journal_page_first 68
_journal_name_full 'Tetrahedron:Asymm. '
loop_
_publ_author_name
"S.Stecko"
"K.Pasniczek"
"M.Jurczak"
"Z.Urbanczyk-Lipkowska"
"M.Chmielewski"
_chemical_name_systematic
;
(3R,3aS,8S,8aR,8bR)-8-t-(Butoxy)-3-(hydroxymethyl)hexahydrofuro[3,4-d]pyrrolo[
1,2-b]isoxazol-1(3H)-one
;
_chemical_melting_point 382.15
_cell_volume   1039.345
_exptl_crystal_colour 'colorless'
_exptl_crystal_density_diffrn 1.3
_exptl_special_details
;
Melting point range 382.15-384.15K

;
_exptl_crystal_description 'needle'
_diffrn_ambient_temperature 293
#These two values have been output from a single CSD field.
_refine_ls_R_factor_gt 0.0453
_refine_ls_wR_factor_gt 0.0453
_symmetry_cell_setting hexagonal
_symmetry_space_group_name_H-M 'P 32'
_symmetry_Int_Tables_number 145
loop_
_symmetry_equiv_pos_site_id
_symmetry_equiv_pos_as_xyz
1 x,y,z
2 -y,x-y,2/3+z
3 -x+y,-x,1/3+z
_cell_length_a 14.733(2)
_cell_length_b 14.733(2)
_cell_length_c 5.529(1)
_cell_angle_alpha 90
_cell_angle_beta 90
_cell_angle_gamma 120
_cell_formula_units_Z 3
loop_
_atom_type_symbol
_atom_type_radius_bond
C 0.68
H 0.23
N 0.68
O 0.68
loop_
_atom_site_label
_atom_site_type_symbol
_atom_site_fract_x
_atom_site_fract_y
_atom_site_fract_z
H1 H 0.055(5) 0.015(5) 1.002(11)
O1 O 0.4204(2) 0.2005(2) 0.8531(5)
O2 O 0.0888(3) 0.0488(3) 0.9164(7)
O3 O 0.2505(3) 0.0820(3) 1.2569(5)
O4 O 0.5135(3) -0.0311(3) 0.9772(5)
N1 N 0.4595(3) 0.1398(3) 0.7196(6)
O5 O 0.2483(3) -0.0673(4) 1.2955(8)
C1 C 0.3104(3) 0.1314(3) 0.8557(7)
H2 H 0.27730 0.13290 0.70320
C2 C 0.4050(3) 0.0369(3) 0.8456(8)
H3 H 0.39430 -0.01790 0.72950
C3 C 0.5672(4) 0.1525(4) 1.0531(9)
H4 H 0.55250 0.19410 1.16560
H5 H 0.63310 0.15710 1.09690
C4 C 0.5695(4) 0.1877(4) 0.7953(10)
H6 H 0.60360 0.26350 0.78680
H7 H 0.60710 0.16440 0.69230
C5 C 0.2642(3) 0.0047(4) 1.1703(9)
C6 C 0.5192(4) -0.0993(4) 1.1511(8)
C7 C 0.4783(3) 0.0389(3) 1.0492(8)
H8 H 0.44180 0.01830 1.20510
C8 C 0.2969(3) 0.0244(3) 0.9071(7)
H9 H 0.24220 -0.02890 0.80370
C9 C 0.2634(4) 0.1566(4) 1.0714(9)
H10 H 0.31250 0.22760 1.12830
C10 C 0.1577(4) 0.1473(4) 1.0235(10)
H11 H 0.12810 0.15420 1.17430
H12 H 0.16640 0.20320 0.91630
C11 C 0.5974(7) -0.0370(6) 1.3455(12)
H13 H 0.57340 0.00320 1.43360
H14 H 0.66400 0.00940 1.27290
H15 H 0.60450 -0.08390 1.45410
C12 C 0.4142(6) -0.1675(6) 1.2775(18)
H16 H 0.36240 -0.21050 1.16010
H17 H 0.39260 -0.12340 1.35670
H18 H 0.42160 -0.21130 1.39510
C13 C 0.5594(8) -0.1601(7) 1.0168(13)
H19 H 0.51020 -0.20150 0.89340
H20 H 0.56830 -0.20530 1.12720
H21 H 0.62560 -0.11250 0.94370
#END
