
#######################################################################
#
#                 Cambridge Crystallographic Data Centre
#                                CCDC
#
#######################################################################
#
# If this CIF has been generated from an entry in the Cambridge
# Structural Database, then it will include bibliographic, chemical,
# crystal, experimental, refinement or atomic coordinate data resulting
# from the CCDC's data processing and validation procedures.
#
#######################################################################

data_CSD_CIF_VECFIT
_audit_creation_date 2006-05-24
_audit_creation_method CSD-ConQuest-V1
_database_code_CSD VECFIT
_database_code_depnum_ccdc_archive 'CCDC 280334'
_chemical_formula_sum 'C27 H24 N6 O9'
_chemical_formula_moiety
;
C27 H24 N6 O9
;
_journal_coden_Cambridge 24
_journal_volume 47
_journal_year 2006
_journal_page_first 413
_journal_name_full 'Tetrahedron Lett. '
loop_
_publ_author_name
"F.Imabeppu"
"K.Katagiri"
"H.Masu"
"T.Kato"
"M.Tominaga"
"B.Therrien"
"H.Takayanagi"
"E.Kaji"
"K.Yamaguchi"
"H.Kagechika"
"I.Azumaya"
_chemical_name_systematic
;
1,9,17-Triethyl-5,13,21-trinitro-1,9,17-triaza(2.2.2)metacyclophane-2,10,18-tr
ione
;
_cell_volume   2659.832
_exptl_crystal_colour 'colorless'
_exptl_crystal_density_diffrn 1.44
_exptl_crystal_description 'prism'
_diffrn_ambient_temperature 150
#These two values have been output from a single CSD field.
_refine_ls_R_factor_gt 0.0393
_refine_ls_wR_factor_gt 0.0393
_symmetry_cell_setting monoclinic
_symmetry_space_group_name_H-M 'P 21/n'
_symmetry_Int_Tables_number 14
loop_
_symmetry_equiv_pos_site_id
_symmetry_equiv_pos_as_xyz
1 x,y,z
2 1/2-x,1/2+y,1/2-z
3 -x,-y,-z
4 -1/2+x,-1/2-y,-1/2+z
_cell_length_a 9.4900(4)
_cell_length_b 16.0952(7)
_cell_length_c 17.6257(8)
_cell_angle_alpha 90
_cell_angle_beta 98.895(1)
_cell_angle_gamma 90
_cell_formula_units_Z 4
loop_
_atom_type_symbol
_atom_type_radius_bond
C 0.68
H 0.23
N 0.68
O 0.68
loop_
_atom_site_label
_atom_site_type_symbol
_atom_site_fract_x
_atom_site_fract_y
_atom_site_fract_z
O1 O -0.19867(17) 0.12096(9) 0.25044(9)
O2 O 0.19794(17) 0.43032(11) 0.05703(10)
O3 O 0.60287(18) 0.23851(10) 0.3691(1)
N1 N 0.0410(2) 0.32337(12) 0.03743(11)
N2 N 0.5845(2) 0.26136(12) 0.24109(11)
N3 N 0.0360(2) 0.14420(11) 0.29528(11)
C1 C 0.3507(3) 0.02418(16) 0.25929(13)
C2 C 0.2866(3) 0.18311(15) 0.29618(12)
H1 H 0.26490 0.23820 0.30980
C3 C 0.1793(3) 0.12370(16) 0.28472(13)
C4 C 0.4588(3) 0.08206(16) 0.26905(13)
H2 H 0.55340 0.06730 0.26310
C5 C 0.3217(3) 0.23406(15) 0.02599(14)
H3 H 0.26010 0.22580 -0.02130
C6 C 0.2109(3) 0.04312(15) 0.26610(12)
H4 H 0.13870 0.00180 0.25820
C7 C 0.0033(2) 0.22184(15) 0.13628(14)
H5 H 0.04130 0.26030 0.17500
C8 C 0.4422(3) 0.18594(15) 0.04591(15)
C9 C -0.0502(2) 0.14581(16) 0.15679(14)
C10 C 0.5010(3) 0.25283(16) 0.16616(14)
C11 C 0.4254(3) 0.16250(16) 0.28783(13)
C12 C -0.0976(3) 0.10943(16) 0.02485(15)
C13 C 0.0012(2) 0.24157(16) 0.05901(15)
C14 C 0.5323(3) 0.19279(15) 0.11473(14)
H6 H 0.61310 0.15770 0.12660
C15 C -0.0487(2) 0.18467(16) 0.00253(14)
H7 H -0.04930 0.19710 -0.05020
C16 C -0.1034(2) 0.08942(15) 0.10041(15)
H8 H -0.14290 0.03810 0.11340
C17 C 0.2938(3) 0.29489(15) 0.07725(15)
C18 C 0.3852(3) 0.30474(15) 0.14600(14)
H9 H 0.36800 0.34810 0.18000
C19 C 0.5452(3) 0.22515(15) 0.30364(16)
C20 C -0.0767(3) 0.13331(14) 0.23786(14)
C21 C 0.1736(3) 0.35556(18) 0.05721(14)
C22 C 0.7037(2) 0.32121(14) 0.25216(14)
H10 H 0.75420 0.31910 0.20710
H11 H 0.77210 0.30500 0.29800
C23 C -0.0766(2) 0.37913(14) 0.00470(13)
H12 H -0.14110 0.34870 -0.03540
H13 H -0.03640 0.42680 -0.02030
C24 C 0.6534(3) 0.40900(14) 0.26240(15)
H14 H 0.59300 0.42730 0.21520
H15 H 0.73610 0.44590 0.27350
H16 H 0.59850 0.41070 0.30510
C25 C 0.0075(3) 0.15283(15) 0.37530(13)
H17 H -0.08130 0.18520 0.37500
H18 H 0.08640 0.18450 0.40540
C26 C -0.1619(3) 0.41143(16) 0.06357(15)
H19 H -0.20960 0.36500 0.08510
H20 H -0.23350 0.45100 0.03920
H21 H -0.09810 0.43940 0.10480
C27 C -0.0075(3) 0.07049(15) 0.41444(14)
H22 H -0.09000 0.04050 0.38720
H23 H -0.02130 0.08020 0.46770
H24 H 0.07900 0.03740 0.41380
N4 N 0.3875(3) -0.06262(14) 0.24330(12)
N5 N 0.4757(3) 0.12357(15) -0.01027(14)
N6 N -0.1470(2) 0.04719(16) -0.03515(15)
O4 O 0.2976(2) -0.11656(11) 0.24513(10)
O5 O -0.17400(19) -0.02326(12) -0.01449(11)
O6 O 0.3971(2) 0.11735(13) -0.07119(11)
O7 O 0.5066(2) -0.07776(11) 0.23150(13)
O8 O -0.1561(2) 0.06833(13) -0.10253(12)
O9 O 0.5811(2) 0.08041(13) 0.00804(12)
#END
