
#######################################################################
#
#                 Cambridge Crystallographic Data Centre
#                                CCDC
#
#######################################################################
#
# If this CIF has been generated from an entry in the Cambridge
# Structural Database, then it will include bibliographic, chemical,
# crystal, experimental, refinement or atomic coordinate data resulting
# from the CCDC's data processing and validation procedures.
#
#######################################################################

data_CSD_CIF_VECRED
_audit_creation_date 2017-09-08
_audit_creation_method CSD-ConQuest-V1
_database_code_CSD VECRED
_database_code_depnum_ccdc_archive 'CCDC 1547941'
_chemical_formula_sum 'C25 H21 N3 O4'
_chemical_formula_moiety
;
C25 H21 N3 O4
;
_journal_coden_Cambridge 24
_journal_volume 58
_journal_year 2017
_journal_page_first 3989
_journal_name_full 'Tetrahedron Lett. '
loop_
_publ_author_name
"Alexey Y.Barkov"
"N.S.Zimnitskiy"
"I.B.Kutyashev"
"Vladislav Y.Korotaev"
"Vyacheslav Y.Sosnovskikh"
_chemical_name_systematic
;
6a-nitro-6,7-diphenyl-6a,9,10,12a-tetrahydro-6H,7H,11H-[1]benzopyrano[4,3-c]py
razolo[1,2-a]pyrazol-11-one
;
_cell_volume   2082.781
_exptl_crystal_colour 'colorless'
_exptl_crystal_density_diffrn 1.363
_exptl_crystal_description 'prism'
_diffrn_ambient_temperature 295
#These two values have been output from a single CSD field.
_refine_ls_R_factor_gt 0.0378
_refine_ls_wR_factor_gt 0.0378
_symmetry_cell_setting monoclinic
_symmetry_space_group_name_H-M 'P 21/c'
_symmetry_Int_Tables_number 14
loop_
_symmetry_equiv_pos_site_id
_symmetry_equiv_pos_as_xyz
1 x,y,z
2 -x,1/2+y,1/2-z
3 -x,-y,-z
4 x,-1/2-y,-1/2+z
_cell_length_a 8.843(4)
_cell_length_b 14.203(8)
_cell_length_c 16.604(12)
_cell_angle_alpha 90
_cell_angle_beta 92.88(5)
_cell_angle_gamma 90
_cell_formula_units_Z 4
loop_
_atom_type_symbol
_atom_type_radius_bond
C 0.68
H 0.23
N 0.68
O 0.68
loop_
_atom_site_label
_atom_site_type_symbol
_atom_site_fract_x
_atom_site_fract_y
_atom_site_fract_z
O1 O 0.70789(11) 0.39921(7) 0.03305(6)
N1 N 1.16206(14) 0.36614(8) 0.02816(7)
C1 C 1.08133(16) 0.29828(9) -0.02816(8)
O2 O 0.74636(15) 0.18666(9) 0.04429(7)
C2 C 0.83149(16) 0.38350(9) -0.01715(8)
N2 N 1.12898(14) 0.32994(8) 0.10585(7)
O3 O 0.84612(14) 0.17425(7) -0.07145(6)
C3 C 0.92866(16) 0.29720(9) 0.01267(7)
N3 N 0.83528(15) 0.21088(8) -0.00594(7)
O4 O 1.23391(15) 0.23263(9) 0.20289(7)
C4 C 0.97006(16) 0.30373(9) 0.10457(7)
C5 C 0.87613(17) 0.37300(9) 0.14931(8)
C6 C 0.9133(2) 0.39243(11) 0.22991(8)
H1 H 0.99540 0.36220 0.25590
C7 C 0.8300(2) 0.45597(12) 0.27165(9)
H2 H 0.85670 0.46920 0.32530
C8 C 0.7064(2) 0.50032(12) 0.23395(10)
H3 H 0.65020 0.54320 0.26240
C9 C 0.6663(2) 0.48124(11) 0.15425(9)
H4 H 0.58310 0.51070 0.12880
C10 C 0.75232(18) 0.41727(9) 0.11259(8)
C11 C 1.33001(18) 0.36826(11) 0.03072(10)
H5 H 1.36660 0.43130 0.04280
H6 H 1.36670 0.34900 -0.02080
C12 C 1.38461(19) 0.30013(13) 0.09672(11)
H7 H 1.42320 0.24270 0.07370
H8 H 1.46370 0.32840 0.13140
C13 C 1.2458(2) 0.28055(11) 0.14280(9)
C14 C 1.16173(17) 0.20557(10) -0.03991(8)
C15 C 1.1621(2) 0.13108(11) 0.01413(9)
H9 H 1.10390 0.13470 0.05920
C16 C 1.2483(2) 0.05111(11) 0.00167(10)
H10 H 1.24790 0.00160 0.03830
C17 C 1.3340(2) 0.04534(12) -0.06483(12)
H11 H 1.39300 -0.00770 -0.07280
C18 C 1.3326(2) 0.11762(13) -0.11952(11)
H12 H 1.38990 0.11310 -0.16480
C19 C 1.2464(2) 0.19736(11) -0.10757(9)
H13 H 1.24530 0.24580 -0.14530
C20 C 0.76988(17) 0.37635(9) -0.10321(8)
C21 C 0.8457(2) 0.42050(11) -0.16353(9)
H14 H 0.93160 0.45630 -0.15060
C22 C 0.7937(2) 0.41142(14) -0.24324(10)
H15 H 0.84540 0.44050 -0.28380
C23 C 0.6659(2) 0.35957(14) -0.26254(10)
H16 H 0.63180 0.35320 -0.31620
C24 C 0.5888(2) 0.31736(13) -0.20332(9)
H17 H 0.50150 0.28310 -0.21670
C25 C 0.63984(18) 0.32520(11) -0.12354(9)
H18 H 0.58690 0.29610 -0.08340
H19 H 0.9649(18) 0.2440(11) 0.1297(8)
H20 H 0.9021(17) 0.4365(11) -0.0121(8)
H21 H 1.0684(16) 0.329(1) -0.0790(9)
#END
