
#######################################################################
#
#                 Cambridge Crystallographic Data Centre
#                                CCDC
#
#######################################################################
#
# If this CIF has been generated from an entry in the Cambridge
# Structural Database, then it will include bibliographic, chemical,
# crystal, experimental, refinement or atomic coordinate data resulting
# from the CCDC's data processing and validation procedures.
#
#######################################################################

data_CSD_CIF_VEDQAZ
_audit_creation_date 2017-09-11
_audit_creation_method CSD-ConQuest-V1
_database_code_CSD VEDQAZ
_database_code_depnum_ccdc_archive 'CCDC 1476051'
_chemical_formula_sum 'C13 H13 N3 O1'
_chemical_formula_moiety
;
C13 H13 N3 O1
;
_journal_coden_Cambridge 41
_journal_volume 62
_journal_year 2017
_journal_page_first 566
_journal_name_full 'Kristallografiya(Russ.)(Crystallogr.Rep.) '
loop_
_publ_author_name
"E.I.Polyakova"
"I.N.Polyakova"
"V.V.Davydov"
"M.A.Ryabov"
"V.S.Sergienko"
"Yu.V.Shklyaev"
_chemical_name_systematic
;
(2Z)-(3,3-dimethyl-3,4-dihydroisoquinolin-1(2H)-ylidene)(nitroso)acetonitrile
;
_cell_volume   1144.657
_exptl_crystal_colour 'dark blue'
_exptl_crystal_density_diffrn 1.319
_exptl_crystal_description 'prism'
_diffrn_ambient_temperature 150
_refine_special_details
;
O1,O2 and O1A,O2A disordered over two sites with occupancies 0.917:0.083.

;
#These two values have been output from a single CSD field.
_refine_ls_R_factor_gt 0.0435
_refine_ls_wR_factor_gt 0.0435
_symmetry_cell_setting monoclinic
_symmetry_space_group_name_H-M 'P 21'
_symmetry_Int_Tables_number 4
loop_
_symmetry_equiv_pos_site_id
_symmetry_equiv_pos_as_xyz
1 x,y,z
2 -x,1/2+y,-z
_cell_length_a 8.9959(4)
_cell_length_b 15.3733(6)
_cell_length_c 9.0789(4)
_cell_angle_alpha 90
_cell_angle_beta 114.265(1)
_cell_angle_gamma 90
_cell_formula_units_Z 4
loop_
_atom_type_symbol
_atom_type_radius_bond
C 0.68
H 0.23
N 0.68
O 0.68
loop_
_atom_site_label
_atom_site_type_symbol
_atom_site_fract_x
_atom_site_fract_y
_atom_site_fract_z
O1 O 0.2359(3) 0.38609(16) 0.4540(2)
N1 N 0.2031(2) 0.36610(14) 0.8752(2)
N2 N 0.2494(3) 0.38170(16) 0.5949(3)
N3 N 0.1455(3) 0.17812(18) 0.4428(3)
C1 C 0.2272(3) 0.29577(15) 0.8070(2)
C2 C 0.2516(3) 0.21250(15) 0.8937(3)
C3 C 0.3300(3) 0.14232(17) 0.8586(3)
C4 C 0.3507(4) 0.06548(18) 0.9439(3)
C5 C 0.2962(4) 0.05803(17) 1.0648(3)
C6 C 0.2212(3) 0.12806(16) 1.1035(3)
C7 C 0.1994(3) 0.20584(14) 1.0191(3)
C8 C 0.1197(3) 0.28369(15) 1.0556(3)
C9 C 0.1989(3) 0.36789(15) 1.0370(2)
C10 C 0.2267(3) 0.30209(17) 0.6486(3)
C11 C 0.0938(4) 0.44498(17) 1.0406(3)
C12 C 0.3727(3) 0.37704(19) 1.1642(3)
C13 C 0.1846(3) 0.23020(19) 0.5409(3)
H1 H 0.204(4) 0.417(2) 0.824(4)
H2 H 0.369(4) 0.147(2) 0.781(4)
H3 H 0.407(4) 0.017(2) 0.922(4)
H4 H 0.307(5) 0.003(3) 1.122(5)
H5 H 0.190(4) 0.125(2) 1.190(4)
H6 H 0.130(4) 0.281(2) 1.164(4)
H7 H -0.003(4) 0.2857(19) 0.971(4)
H8 H 0.084(4) 0.444(2) 1.141(4)
H9 H 0.138(4) 0.498(2) 1.023(4)
H10 H -0.014(5) 0.437(3) 0.958(5)
H11 H 0.439(4) 0.328(2) 1.158(4)
H12 H 0.418(5) 0.434(3) 1.143(5)
H13 H 0.370(4) 0.381(2) 1.269(4)
O2? O 0.272(3) 0.4558(12) 0.675(3)
O3 O 0.2368(3) 0.54772(14) 0.7989(3)
N4 N 0.2983(2) 0.64314(13) 0.6018(2)
N5 N 0.2460(3) 0.61514(16) 0.8878(3)
N6 N 0.3160(3) 0.8153(2) 1.0411(3)
C14 C 0.2709(3) 0.70910(15) 0.6774(3)
C15 C 0.2468(3) 0.79571(14) 0.6010(3)
C16 C 0.1583(3) 0.86109(16) 0.6352(3)
C17 C 0.1331(3) 0.94006(17) 0.5543(3)
C18 C 0.1962(4) 0.95359(17) 0.4399(3)
C19 C 0.2824(3) 0.88852(16) 0.4043(3)
C20 C 0.3078(3) 0.80915(14) 0.4833(3)
C21 C 0.3991(3) 0.73633(15) 0.4483(3)
C22 C 0.3187(3) 0.64858(15) 0.4481(3)
C23 C 0.2629(3) 0.69352(18) 0.8310(3)
C24 C 0.4285(4) 0.57398(17) 0.4469(4)
C25 C 0.1508(3) 0.6412(2) 0.3081(3)
C26 C 0.2894(3) 0.7621(2) 0.9449(3)
H14 H 0.302(4) 0.595(2) 0.641(4)
H15 H 0.103(4) 0.849(2) 0.713(4)
H16 H 0.070(4) 0.984(2) 0.576(4)
H17 H 0.166(4) 1.010(2) 0.386(4)
H18 H 0.327(4) 0.897(2) 0.321(4)
H19 H 0.409(4) 0.7433(19) 0.348(4)
H20 H 0.508(4) 0.7329(19) 0.522(4)
H21 H 0.541(4) 0.579(2) 0.538(4)
H22 H 0.382(5) 0.517(3) 0.455(4)
H23 H 0.440(4) 0.575(2) 0.347(4)
H24 H 0.160(4) 0.646(2) 0.208(4)
H25 H 0.076(4) 0.687(2) 0.314(4)
H26 H 0.099(5) 0.589(3) 0.318(4)
O4? O 0.278(3) 0.620(2) 1.0336(17)
#END
