
#######################################################################
#
#                 Cambridge Crystallographic Data Centre
#                                CCDC
#
#######################################################################
#
# If this CIF has been generated from an entry in the Cambridge
# Structural Database, then it will include bibliographic, chemical,
# crystal, experimental, refinement or atomic coordinate data resulting
# from the CCDC's data processing and validation procedures.
#
#######################################################################

data_CSD_CIF_VEDVUY
_audit_creation_date 2017-09-11
_audit_creation_method CSD-ConQuest-V1
_database_code_CSD VEDVUY
_database_code_depnum_ccdc_archive 'CCDC 1546415'
_chemical_formula_sum 'C8 H5 N7 O2'
_chemical_formula_moiety
;
C8 H5 N7 O2
;
_journal_coden_Cambridge 1291
_journal_year 2017
_journal_page_first 4963
_journal_name_full 'Eur.J.Org.Chem. '
loop_
_publ_author_name
"A.A.Voronin"
"A.M.Churakov"
"M.S.Klenov"
"Y.A.Strelenko"
"I.V.Fedyanin"
"V.A.Tartakovsky"
_chemical_name_systematic
;
2-phenyl-2H-[1,2,3]triazolo[4,5-e][1,2,3,4]tetrazine 4,6-dioxide
;
_cell_volume    916.171
_exptl_crystal_colour 'orange'
_exptl_crystal_density_diffrn 1.676
_exptl_crystal_description 'block'
_diffrn_ambient_temperature 120
#These two values have been output from a single CSD field.
_refine_ls_R_factor_gt 0.0286
_refine_ls_wR_factor_gt 0.0286
_symmetry_cell_setting orthorhombic
_symmetry_space_group_name_H-M 'P c a 21'
_symmetry_Int_Tables_number 29
loop_
_symmetry_equiv_pos_site_id
_symmetry_equiv_pos_as_xyz
1 x,y,z
2 -x,-y,1/2+z
3 1/2+x,-y,z
4 1/2-x,y,1/2+z
_cell_length_a 14.6482(3)
_cell_length_b 11.2299(2)
_cell_length_c 5.5695(1)
_cell_angle_alpha 90
_cell_angle_beta 90
_cell_angle_gamma 90
_cell_formula_units_Z 4
loop_
_atom_type_symbol
_atom_type_radius_bond
C 0.68
H 0.23
N 0.68
O 0.68
loop_
_atom_site_label
_atom_site_type_symbol
_atom_site_fract_x
_atom_site_fract_y
_atom_site_fract_z
O1 O 0.03691(12) -0.13374(15) 0.1051(4)
O2 O 0.19009(13) -0.22507(17) 0.7603(4)
N1 N 0.17207(13) 0.16407(17) 0.5150(4)
N2 N 0.12897(12) 0.19774(17) 0.3119(4)
N3 N 0.08872(12) 0.11260(17) 0.1819(4)
C1 C 0.10776(15) 0.0166(2) 0.3135(5)
N4 N 0.08411(13) -0.10046(18) 0.2782(4)
N5 N 0.11195(13) -0.18222(18) 0.4355(4)
N6 N 0.16511(13) -0.14232(18) 0.6294(4)
N7 N 0.18824(14) -0.03291(17) 0.6838(4)
C2 C 0.15804(15) 0.0462(2) 0.5162(5)
C3 C 0.12623(15) 0.3204(2) 0.2420(4)
C4 C 0.16412(15) 0.4049(2) 0.3952(4)
H1 H 0.19150 0.38160 0.54250
C5 C 0.16106(16) 0.5228(2) 0.3289(5)
H2 H 0.18620 0.58170 0.43190
C6 C 0.12130(16) 0.5565(2) 0.1119(5)
H3 H 0.11960 0.63810 0.06680
C7 C 0.08432(16) 0.4707(2) -0.0376(4)
H4 H 0.05730 0.49400 -0.18540
C8 C 0.08613(16) 0.3513(2) 0.0249(5)
H5 H 0.06070 0.29240 -0.07770
#END
