
#######################################################################
#
#                 Cambridge Crystallographic Data Centre
#                                CCDC
#
#######################################################################
#
# If this CIF has been generated from an entry in the Cambridge
# Structural Database, then it will include bibliographic, chemical,
# crystal, experimental, refinement or atomic coordinate data resulting
# from the CCDC's data processing and validation procedures.
#
#######################################################################

data_CSD_CIF_VEDWAF
_audit_creation_date 2017-09-11
_audit_creation_method CSD-ConQuest-V1
_database_code_CSD VEDWAF
_database_code_depnum_ccdc_archive 'CCDC 1546416'
_chemical_formula_sum 'C8 H5 N7 O2'
_chemical_formula_moiety
;
C8 H5 N7 O2
;
_journal_coden_Cambridge 1291
_journal_year 2017
_journal_page_first 4963
_journal_name_full 'Eur.J.Org.Chem. '
loop_
_publ_author_name
"A.A.Voronin"
"A.M.Churakov"
"M.S.Klenov"
"Y.A.Strelenko"
"I.V.Fedyanin"
"V.A.Tartakovsky"
_chemical_name_systematic
;
1-phenyl-1H-[1,2,3]triazolo[4,5-e][1,2,3,4]tetrazine 4,6-dioxide
;
_cell_volume    924.504
_exptl_crystal_colour 'yellow'
_exptl_crystal_density_diffrn 1.661
_exptl_crystal_description 'plate'
_diffrn_ambient_temperature 120
_diffrn_special_details
;
twin

;
#These two values have been output from a single CSD field.
_refine_ls_R_factor_gt 0.0576
_refine_ls_wR_factor_gt 0.0576
_symmetry_cell_setting monoclinic
_symmetry_space_group_name_H-M 'P 21/n'
_symmetry_Int_Tables_number 14
loop_
_symmetry_equiv_pos_site_id
_symmetry_equiv_pos_as_xyz
1 x,y,z
2 1/2-x,1/2+y,1/2-z
3 -x,-y,-z
4 -1/2+x,-1/2-y,-1/2+z
_cell_length_a 5.6257(8)
_cell_length_b 7.9173(11)
_cell_length_c 20.758(3)
_cell_angle_alpha 90
_cell_angle_beta 90.678(3)
_cell_angle_gamma 90
_cell_formula_units_Z 4
loop_
_atom_type_symbol
_atom_type_radius_bond
C 0.68
H 0.23
N 0.68
O 0.68
loop_
_atom_site_label
_atom_site_type_symbol
_atom_site_fract_x
_atom_site_fract_y
_atom_site_fract_z
O1 O 1.2127(3) 1.0495(2) 0.16146(8)
O2 O 0.5874(3) 0.7404(2) 0.20613(8)
N1 N 1.1324(3) 0.8879(2) 0.36460(8)
N2 N 1.3343(3) 0.9834(2) 0.35683(9)
N3 N 1.3572(3) 1.0239(2) 0.29628(9)
C1 C 1.1701(4) 0.9542(2) 0.26483(10)
N4 N 1.0994(3) 0.9683(2) 0.20202(8)
N5 N 0.8971(4) 0.8942(2) 0.18180(9)
N6 N 0.7710(3) 0.8072(2) 0.22808(8)
N7 N 0.8200(3) 0.7902(2) 0.29053(8)
C2 C 1.0236(3) 0.8683(2) 0.30646(9)
C3 C 1.0722(4) 0.8247(2) 0.42694(9)
C4 C 0.8596(4) 0.7391(3) 0.43557(10)
H1 H 0.75260 0.72080 0.40050
C5 C 0.8078(4) 0.6807(3) 0.49745(10)
H2 H 0.66330 0.62190 0.50460
C6 C 0.9643(5) 0.7074(3) 0.5485(1)
H3 H 0.92700 0.66720 0.59030
C7 C 1.1756(5) 0.7932(3) 0.53829(10)
H4 H 1.28260 0.81160 0.57330
C8 C 1.2325(4) 0.8523(3) 0.47745(10)
H5 H 1.37770 0.91030 0.47040
#END
