
#######################################################################
#
#                 Cambridge Crystallographic Data Centre
#                                CCDC
#
#######################################################################
#
# If this CIF has been generated from an entry in the Cambridge
# Structural Database, then it will include bibliographic, chemical,
# crystal, experimental, refinement or atomic coordinate data resulting
# from the CCDC's data processing and validation procedures.
#
#######################################################################

data_CSD_CIF_VEDWEJ
_audit_creation_date 2017-09-11
_audit_creation_method CSD-ConQuest-V1
_database_code_CSD VEDWEJ
_database_code_depnum_ccdc_archive 'CCDC 1546417'
_chemical_formula_sum 'C8 H5 N7 O2'
_chemical_formula_moiety
;
C8 H5 N7 O2
;
_journal_coden_Cambridge 1291
_journal_year 2017
_journal_page_first 4963
_journal_name_full 'Eur.J.Org.Chem. '
loop_
_publ_author_name
"A.A.Voronin"
"A.M.Churakov"
"M.S.Klenov"
"Y.A.Strelenko"
"I.V.Fedyanin"
"V.A.Tartakovsky"
_chemical_name_systematic
;
5-Diazo-N-nitro-3-phenyl-3,5-dihydro-4H-1,2,3-triazol-4-imine
;
_cell_volume    927.818
_exptl_crystal_colour 'brown'
_exptl_crystal_density_diffrn 1.655
_exptl_crystal_description 'block'
_diffrn_ambient_temperature 120
#These two values have been output from a single CSD field.
_refine_ls_R_factor_gt 0.0287
_refine_ls_wR_factor_gt 0.0287
_symmetry_cell_setting monoclinic
_symmetry_space_group_name_H-M 'P 21/c'
_symmetry_Int_Tables_number 14
loop_
_symmetry_equiv_pos_site_id
_symmetry_equiv_pos_as_xyz
1 x,y,z
2 -x,1/2+y,1/2-z
3 -x,-y,-z
4 x,-1/2-y,-1/2+z
_cell_length_a 10.1563(1)
_cell_length_b 6.5058(1)
_cell_length_c 14.4551(2)
_cell_angle_alpha 90
_cell_angle_beta 103.732(1)
_cell_angle_gamma 90
_cell_formula_units_Z 4
loop_
_atom_type_symbol
_atom_type_radius_bond
C 0.68
H 0.23
N 0.68
O 0.68
loop_
_atom_site_label
_atom_site_type_symbol
_atom_site_fract_x
_atom_site_fract_y
_atom_site_fract_z
O1 O 0.48998(9) 0.81071(12) 0.29624(6)
O2 O 0.57451(8) 0.57295(13) 0.39936(6)
N1 N 0.35016(10) 0.07068(15) 0.42906(7)
N2 N 0.22934(10) 0.13798(15) 0.42278(7)
N3 N 0.22116(9) 0.33667(14) 0.38887(7)
N4 N 0.34889(9) 0.58583(14) 0.33273(7)
N5 N 0.47636(10) 0.65535(14) 0.34318(7)
N6 N 0.55219(10) 0.18957(14) 0.39606(7)
N7 N 0.65664(10) 0.14683(16) 0.39354(7)
C1 C 0.34122(11) 0.40139(17) 0.37285(7)
C2 C 0.42214(11) 0.22600(17) 0.40011(8)
C3 C 0.09632(11) 0.44929(18) 0.37563(8)
C4 C 0.09864(12) 0.64652(18) 0.41261(8)
H1 H 0.18150 0.70670 0.44610
C5 C -0.02200(12) 0.75383(19) 0.39986(8)
H2 H -0.02220 0.88900 0.42470
C6 C -0.14275(12) 0.6648(2) 0.35091(9)
H3 H -0.22520 0.73930 0.34240
C7 C -0.14329(12) 0.46738(19) 0.31440(8)
H4 H -0.22620 0.40730 0.28090
C8 C -0.02306(12) 0.35714(18) 0.32661(8)
H5 H -0.02270 0.22180 0.30190
#END
