
#######################################################################
#
#                 Cambridge Crystallographic Data Centre
#                                CCDC
#
#######################################################################
#
# If this CIF has been generated from an entry in the Cambridge
# Structural Database, then it will include bibliographic, chemical,
# crystal, experimental, refinement or atomic coordinate data resulting
# from the CCDC's data processing and validation procedures.
#
#######################################################################

data_CSD_CIF_VEGBEO
_audit_creation_date 1990-10-01
_audit_creation_method CSD-ConQuest-V1
_database_code_CSD VEGBEO
_database_code_depnum_ccdc_archive 'CCDC 1281388'
_chemical_formula_sum 'C9 H11 N3 O2'
_chemical_formula_moiety
;
C9 H11 N3 O2
;
_journal_coden_Cambridge 98
_journal_volume 54
_journal_year 1989
_journal_page_first 3245
_journal_name_full 'Collect.Czech.Chem.Commun. '
loop_
_publ_author_name
"B.Tinant"
"J.-P.Declercq"
"J.Podlaha"
"O.Exner"
_chemical_name_systematic
;
N,N'-Dimethyl-4-nitrobenzamidine
;
_chemical_melting_point 422.15
_cell_volume    991.677
_exptl_crystal_density_diffrn 1.29
_exptl_special_details
;
Melting point range 422.15-425.15K

;
_diffrn_ambient_temperature ?
_diffrn_special_details
;
The study was carried out at room temperature,in the range 283-303K

;
#These two values have been output from a single CSD field.
_refine_ls_R_factor_gt 0.065
_refine_ls_wR_factor_gt 0.065
_symmetry_cell_setting monoclinic
_symmetry_space_group_name_H-M 'P 21/c'
_symmetry_Int_Tables_number 14
loop_
_symmetry_equiv_pos_site_id
_symmetry_equiv_pos_as_xyz
1 x,y,z
2 -x,1/2+y,1/2-z
3 -x,-y,-z
4 x,-1/2-y,-1/2+z
_cell_length_a 10.855(3)
_cell_length_b 11.043(3)
_cell_length_c 8.593(3)
_cell_angle_alpha 90
_cell_angle_beta 105.69(2)
_cell_angle_gamma 90
_cell_formula_units_Z 4
loop_
_atom_type_symbol
_atom_type_radius_bond
C 0.68
N 0.68
O 0.68
loop_
_atom_site_label
_atom_site_type_symbol
_atom_site_fract_x
_atom_site_fract_y
_atom_site_fract_z
C1 C 0.2260(3) 0.9288(3) -0.0529(4)
C2 C 0.1826(3) 1.0439(3) -0.0981(4)
C3 C 0.2430(4) 1.1147(3) -0.1857(5)
C4 C 0.3470(3) 1.0679(3) -0.2280(4)
C5 C 0.3924(4) 0.9542(4) -0.1822(5)
C6 C 0.3306(3) 0.8832(3) -0.0957(4)
C7 C 0.1577(3) 0.8524(3) 0.0455(4)
N1 N 0.1441(3) 0.8765(2) 0.1818(3)
C8 C 0.2018(5) 0.9866(4) 0.2693(6)
N2 N 0.1033(3) 0.7524(3) -0.0366(4)
C9 C 0.0338(4) 0.6666(3) 0.0319(5)
N3 N 0.4109(4) 1.1442(4) -0.3217(5)
O1 O 0.5052(5) 1.1072(4) -0.3496(7)
O2 O 0.3685(4) 1.2416(4) -0.3641(6)
#END
