
#######################################################################
#
#                 Cambridge Crystallographic Data Centre
#                                CCDC
#
#######################################################################
#
# If this CIF has been generated from an entry in the Cambridge
# Structural Database, then it will include bibliographic, chemical,
# crystal, experimental, refinement or atomic coordinate data resulting
# from the CCDC's data processing and validation procedures.
#
#######################################################################

data_CSD_CIF_VEGBIS
_audit_creation_date 1990-10-01
_audit_creation_method CSD-ConQuest-V1
_database_code_CSD VEGBIS
_database_code_depnum_ccdc_archive 'CCDC 1281389'
_chemical_formula_sum 'C8 H9 N3 O3'
_chemical_formula_moiety
;
C8 H9 N3 O3
;
_journal_coden_Cambridge 98
_journal_volume 54
_journal_year 1989
_journal_page_first 3245
_journal_name_full 'Collect.Czech.Chem.Commun. '
loop_
_publ_author_name
"B.Tinant"
"J.-P.Declercq"
"J.Podlaha"
"O.Exner"
_chemical_name_systematic
;
N'-Methyl-4-nitrobenzamidoxime
;
_chemical_melting_point 451.15
_cell_volume    944.889
_exptl_crystal_density_diffrn 1.37
_exptl_special_details
;
Melts with decomposition.

;
_diffrn_ambient_temperature ?
_diffrn_special_details
;
The study was carried out at room temperature,in the range 283-303K

;
#These two values have been output from a single CSD field.
_refine_ls_R_factor_gt 0.079
_refine_ls_wR_factor_gt 0.079
_symmetry_cell_setting monoclinic
_symmetry_space_group_name_H-M 'P 21/a'
_symmetry_Int_Tables_number 14
loop_
_symmetry_equiv_pos_site_id
_symmetry_equiv_pos_as_xyz
1 x,y,z
2 1/2-x,1/2+y,-z
3 -x,-y,-z
4 -1/2+x,-1/2-y,z
_cell_length_a 6.699(2)
_cell_length_b 24.178(9)
_cell_length_c 6.075(2)
_cell_angle_alpha 90
_cell_angle_beta 106.20(3)
_cell_angle_gamma 90
_cell_formula_units_Z 4
loop_
_atom_type_symbol
_atom_type_radius_bond
C 0.68
N 0.68
O 0.68
loop_
_atom_site_label
_atom_site_type_symbol
_atom_site_fract_x
_atom_site_fract_y
_atom_site_fract_z
C1 C 0.9547(4) 0.6082(1) 0.4050(4)
C2 C 0.9838(5) 0.6602(1) 0.3242(5)
C3 C 1.1085(5) 0.6982(1) 0.4708(6)
C4 C 1.2022(4) 0.6824(1) 0.6939(5)
C5 C 1.1822(5) 0.6309(2) 0.7720(5)
C6 C 1.0539(5) 0.5933(1) 0.6257(5)
C7 C 0.8193(4) 0.5677(1) 0.2528(4)
N1 N 0.9010(3) 0.5421(1) 0.1110(4)
O1 O 0.7550(3) 0.5039(1) -0.0285(3)
N2 N 0.6276(4) 0.5583(1) 0.2703(5)
C8 C 0.5350(6) 0.5862(2) 0.4290(7)
N3 N 1.3232(5) 0.7234(2) 0.8524(6)
O2 O 1.3126(5) 0.7714(1) 0.7972(6)
O3 O 1.4329(5) 0.7067(2) 1.0411(6)
#END
