
#######################################################################
#
#                 Cambridge Crystallographic Data Centre
#                                CCDC
#
#######################################################################
#
# If this CIF has been generated from an entry in the Cambridge
# Structural Database, then it will include bibliographic, chemical,
# crystal, experimental, refinement or atomic coordinate data resulting
# from the CCDC's data processing and validation procedures.
#
#######################################################################

data_CSD_CIF_VEGHEU
_audit_creation_date 1990-10-01
_audit_creation_method CSD-ConQuest-V1
_database_code_CSD VEGHEU
_chemical_formula_sum 'C4 H4 N4 O6'
_chemical_formula_moiety
;
C4 H4 N4 O6
;
_journal_coeditor_code "IUCr HH0343"
_journal_coden_Cambridge 591
_journal_volume 46
_journal_year 1990
_journal_page_first 706
_journal_name_full 'Acta Crystallogr.,Sect.C:Cryst.Struct.Commun. '
loop_
_publ_author_name
"R.Gilardi"
"J.L.Flippen-Anderson"
"C.George"
_chemical_name_systematic
;
1,4-Dinitro-2,5-dioxo-1,4-diazacylcohexane
;
_cell_volume    737.399
_exptl_crystal_colour 'colorless'
_exptl_crystal_density_diffrn 1.838
_diffrn_ambient_temperature ?
_diffrn_special_details
;
The study was carried out at room temperature,in the range 283-303K

;
#These two values have been output from a single CSD field.
_refine_ls_R_factor_gt 0.037
_refine_ls_wR_factor_gt 0.037
_symmetry_cell_setting orthorhombic
_symmetry_space_group_name_H-M 'C 2 c b'
_symmetry_Int_Tables_number 41
loop_
_symmetry_equiv_pos_site_id
_symmetry_equiv_pos_as_xyz
1 x,y,z
2 1/2+x,1/2+y,z
3 x,1/2-y,1/2+z
4 1/2+x,-y,1/2+z
5 x,1/2+y,1/2-z
6 1/2+x,y,1/2-z
7 x,-y,-z
8 1/2+x,1/2-y,-z
_cell_length_a 6.152(1)
_cell_length_b 12.961(2)
_cell_length_c 9.248(1)
_cell_angle_alpha 90
_cell_angle_beta 90
_cell_angle_gamma 90
_cell_formula_units_Z 4
loop_
_atom_type_symbol
_atom_type_radius_bond
C 0.68
H 0.23
N 0.68
O 0.68
loop_
_atom_site_label
_atom_site_type_symbol
_atom_site_fract_x
_atom_site_fract_y
_atom_site_fract_z
O1 O 0.05720 0.4846(1) 0.2114(2)
N1 N 0.0727(7) 0.4067(1) 0.4359(2)
O2 O 0.0262(6) 0.2361(1) 0.4526(1)
N2 N 0.1014(7) 0.3057(2) 0.3808(2)
O3 O 0.2029(7) 0.2973(2) 0.2693(2)
C1 C 0.0443(6) 0.4893(2) 0.3404(2)
C2 C -0.0145(9) 0.5880(2) 0.4167(3)
H1 H 0.0505(55) 0.6422(19) 0.3661(28)
H2 H -0.175(10) 0.5931(27) 0.4158(35)
C2F C -0.0145(9) 0.4120(2) 0.5833(3)
N1F N 0.0727(7) 0.5933(1) 0.5641(2)
C1F C 0.0443(6) 0.5107(2) 0.6596(2)
H1F H 0.0505(55) 0.3578(19) 0.6339(28)
H2F H -0.175(10) 0.4069(27) 0.5842(35)
N2F N 0.1014(7) 0.6943(2) 0.6192(2)
O1F O 0.05720 0.5154(1) 0.7886(2)
O2F O 0.0262(6) 0.7639(1) 0.5474(1)
O3F O 0.2029(7) 0.7027(2) 0.7307(2)
#END
