
#######################################################################
#
#                 Cambridge Crystallographic Data Centre
#                                CCDC
#
#######################################################################
#
# If this CIF has been generated from an entry in the Cambridge
# Structural Database, then it will include bibliographic, chemical,
# crystal, experimental, refinement or atomic coordinate data resulting
# from the CCDC's data processing and validation procedures.
#
#######################################################################

data_CSD_CIF_VEGJOG
_audit_creation_date 1990-10-01
_audit_creation_method CSD-ConQuest-V1
_database_code_CSD VEGJOG
_chemical_formula_sum 'C22 H29 N1 O12'
_chemical_formula_moiety
;
C22 H29 N1 O12
;
_journal_coden_Cambridge 156
_journal_volume 180
_journal_year 1988
_journal_page_first 263
_journal_name_full 'Carbohydr.Res. '
loop_
_publ_author_name
"E.R.Galan"
"D.J.Hodgson"
"Y.Yokomori"
"E.L.Eliel"
"M.B.Martinez"
"J.A.S.Blazquez"
_chemical_name_systematic
;
(5S,6S)1,2,3,4,5-Penta-O-acetyl-1-C-(5-endo-nitrobicyclo(2.2.1)hept-2-en-6-exo
-yl)-D-manno-pentitol
;
_cell_volume    641.459
_diffrn_ambient_temperature ?
_diffrn_special_details
;
The study was carried out at room temperature,in the range 283-303K

;
#These two values have been output from a single CSD field.
_refine_ls_R_factor_gt 0.074
_refine_ls_wR_factor_gt 0.074
loop_
_citation_database_id_CSD
_citation_special_details
VEGJIA "is a stereoisomer of this entry"
_symmetry_cell_setting triclinic
_symmetry_space_group_name_H-M 'P 1'
_symmetry_Int_Tables_number 1
loop_
_symmetry_equiv_pos_site_id
_symmetry_equiv_pos_as_xyz
1 x,y,z
_cell_length_a 8.680(4)
_cell_length_b 9.760(4)
_cell_length_c 8.695(7)
_cell_angle_alpha 98.69(5)
_cell_angle_beta 103.13(5)
_cell_angle_gamma 112.09(3)
_cell_formula_units_Z 1
loop_
_atom_type_symbol
_atom_type_radius_bond
C 0.68
N 0.68
O 0.68
loop_
_atom_site_label
_atom_site_type_symbol
_atom_site_fract_x
_atom_site_fract_y
_atom_site_fract_z
O1 O 0.4880(5) 0.7108(14) -0.5310(14)
O2 O 0.6990(17) 0.6873(11) -0.4350(13)
O3 O 0.7369(8) 0.5536(7) 0.0755(8)
O4 O 0.4918(10) 0.4374(11) 0.1487(11)
O5 O 0.8232(8) 0.8685(7) 0.1836(9)
O6 O 0.5977(11) 0.9239(10) 0.1277(13)
O7 O 1.05750 0.77750 0.07550
O8 O 1.0401(10) 0.6054(8) -0.1411(11)
O9 O 0.9483(9) 1.0528(7) -0.0964(10)
O10 O 1.0060(11) 1.2391(9) 0.1216(12)
O11 O 1.1572(9) 0.9635(9) -0.2306(10)
O12 O 1.4026(13) 0.9458(15) -0.2293(16)
N1 N 0.547(2) 0.661(2) -0.428(2)
C1 C 0.322(2) 0.463(1) -0.414(2)
C2 C 0.368(2) 0.356(1) -0.517(2)
C3 C 0.447(2) 0.304(1) -0.418(2)
C4 C 0.458(1) 0.370(1) -0.243(2)
C5 C 0.594(1) 0.538(1) -0.203(1)
C6 C 0.494(2) 0.598(1) -0.314(1)
C7 C 0.290(1) 0.380(1) -0.267(2)
C8 C 0.650(1) 0.622(1) -0.022(1)
C9 C 0.652(1) 0.473(1) 0.167(1)
C10 C 0.753(2) 0.410(1) 0.280(2)
C11 C 0.778(1) 0.795(1) 0.014(1)
C12 C 0.717(2) 0.933(1) 0.219(1)
C13 C 0.789(2) 1.015(2) 0.386(2)
C14 C 0.952(1) 0.831(1) -0.027(1)
C15 C 1.101(1) 0.671(1) 0.006(1)
C16 C 1.208(1) 0.627(1) 0.126(2)
C17 C 1.064(1) 1.000(1) -0.001(2)
C18 C 0.934(1) 1.173(1) -0.018(2)
C19 C 0.822(2) 1.219(1) -0.138(2)
C20 C 1.214(1) 1.030(1) -0.059(2)
C21 C 1.249(2) 0.921(2) -0.300(2)
C22 C 1.184(2) 0.866(2) -0.475(2)
#END
