
#######################################################################
#
#                 Cambridge Crystallographic Data Centre
#                                CCDC
#
#######################################################################
#
# If this CIF has been generated from an entry in the Cambridge
# Structural Database, then it will include bibliographic, chemical,
# crystal, experimental, refinement or atomic coordinate data resulting
# from the CCDC's data processing and validation procedures.
#
#######################################################################

data_CSD_CIF_VEGJIA
_audit_creation_date 1990-10-01
_audit_creation_method CSD-ConQuest-V1
_database_code_CSD VEGJIA
_chemical_formula_sum 'C22 H29 N1 O12'
_chemical_formula_moiety
;
C22 H29 N1 O12
;
_journal_coden_Cambridge 156
_journal_volume 180
_journal_year 1988
_journal_page_first 263
_journal_name_full 'Carbohydr.Res. '
loop_
_publ_author_name
"E.R.Galan"
"D.J.Hodgson"
"Y.Yokomori"
"E.L.Eliel"
"M.B.Martinez"
"J.A.S.Blazquez"
_chemical_name_systematic
;
(5S,6S)1,2,3,4,5-Penta-O-acetyl-1-C-(5-exo-nitrobicyclo(2.2.1)hept-2-en-6-endo
-yl)-D-manno-pentitol
;
_chemical_melting_point 388.15
_cell_volume   1282.379
_exptl_special_details
;
Melting point range 388.15-390.15K

;
_diffrn_ambient_temperature ?
_diffrn_special_details
;
The study was carried out at room temperature,in the range 283-303K

;
#These two values have been output from a single CSD field.
_refine_ls_R_factor_gt 0.05
_refine_ls_wR_factor_gt 0.05
loop_
_citation_database_id_CSD
_citation_special_details
VEGJOG "is a stereoisomer of this entry"
_symmetry_cell_setting monoclinic
_symmetry_space_group_name_H-M 'P 21'
_symmetry_Int_Tables_number 4
loop_
_symmetry_equiv_pos_site_id
_symmetry_equiv_pos_as_xyz
1 x,y,z
2 -x,1/2+y,-z
_cell_length_a 9.054(3)
_cell_length_b 15.580(11)
_cell_length_c 10.138(4)
_cell_angle_alpha 90
_cell_angle_beta 116.27(3)
_cell_angle_gamma 90
_cell_formula_units_Z 2
loop_
_atom_type_symbol
_atom_type_radius_bond
C 0.68
H 0.23
N 0.68
O 0.68
loop_
_atom_site_label
_atom_site_type_symbol
_atom_site_fract_x
_atom_site_fract_y
_atom_site_fract_z
O1 O -0.0152(6) 0.3872(4) 0.6368(5)
O2 O -0.1446(5) 0.4902(4) 0.6654(5)
O3 O 0.4489(4) 0.3293(2) 1.0970(3)
O4 O 0.6869(5) 0.3951(4) 1.1468(5)
O5 O 0.5087(3) 0.28370 0.8530(3)
O6 O 0.5203(5) 0.3958(4) 0.7232(5)
O7 O 0.3253(3) 0.1722(2) 0.9384(3)
O8 O 0.1408(4) 0.2064(3) 1.0212(4)
O9 O 0.1510(4) 0.2284(3) 0.5539(3)
O10 O 0.3447(6) 0.2014(5) 0.4822(5)
O11 O -0.0124(4) 0.1023(3) 0.6618(4)
O12 O -0.1435(6) 0.0896(5) 0.4243(5)
N1 N -0.0206(6) 0.4513(3) 0.6990(5)
C1 C 0.2290(6) 0.4632(4) 1.0832(5)
C2 C 0.3553(6) 0.5327(4) 1.1068(6)
C3 C 0.2855(7) 0.5899(4) 0.9985(7)
C4 C 0.1150(6) 0.5601(4) 0.9038(6)
C5 C 0.1386(6) 0.4804(4) 0.8228(5)
C6 C 0.2095(5) 0.4116(3) 0.9440(5)
C7 C 0.0724(6) 0.5167(4) 1.0167(6)
C8 C 0.3682(5) 0.3725(3) 0.9549(5)
C9 C 0.6070(6) 0.3469(4) 1.1837(6)
C10 C 0.6674(9) 0.3015(6) 1.3261(8)
C11 C 0.3468(5) 0.3100(3) 0.8323(5)
C12 C 0.5832(6) 0.3323(5) 0.7922(7)
C13 C 0.7489(7) 0.3001(5) 0.8255(8)
C14 C 0.2468(5) 0.2281(3) 0.8139(5)
C15 C 0.2601(5) 0.1677(4) 1.0345(5)
C16 C 0.3537(7) 0.1067(5) 1.1543(6)
C17 C 0.2358(5) 0.1748(4) 0.6850(5)
C18 C 0.2192(7) 0.2366(5) 0.4617(6)
C19 C 0.1236(10) 0.2941(5) 0.3411(7)
C20 C 0.1429(6) 0.0905(4) 0.6640(6)
C21 C -0.1460(7) 0.0907(6) 0.5432(6)
C22 C -0.2988(8) 0.0923(6) 0.5558(7)
H1 H 0.25740 0.42830 1.17050
H2 H 0.46710 0.54430 1.17940
H3 H 0.34900 0.64060 0.99510
H4 H 0.04300 0.60530 0.83970
H5 H 0.20940 0.49440 0.77860
H6 H 0.13750 0.36310 0.92100
H7 H 0.05640 0.55550 1.08300
H8 H -0.02880 0.48230 0.97130
H9 H 0.43610 0.41990 0.94910
H10 H 0.77940 0.31750 1.38910
H11 H 0.60280 0.32030 1.37770
H12 H 0.65780 0.24270 1.31420
H13 H 0.28510 0.34390 0.74430
H14 H 0.79650 0.33780 0.77690
H15 H 0.81670 0.29900 0.92490
H16 H 0.73920 0.24450 0.78220
H17 H 0.13840 0.24780 0.80060
H18 H 0.30800 0.10180 1.21900
H19 H 0.35140 0.04960 1.11050
H20 H 0.46720 0.12260 1.20360
H21 H 0.34720 0.15980 0.70520
H22 H 0.17080 0.30020 0.27230
H23 H 0.01320 0.27270 0.28550
H24 H 0.11610 0.35020 0.37570
H25 H 0.20480 0.05240 0.74540
H26 H 0.12810 0.06410 0.57610
H27 H -0.39140 0.08390 0.46550
H28 H -0.30090 0.05320 0.62750
H29 H -0.31340 0.15040 0.59150
#END
