
#######################################################################
#
#                 Cambridge Crystallographic Data Centre
#                                CCDC
#
#######################################################################
#
# If this CIF has been generated from an entry in the Cambridge
# Structural Database, then it will include bibliographic, chemical,
# crystal, experimental, refinement or atomic coordinate data resulting
# from the CCDC's data processing and validation procedures.
#
#######################################################################

data_CSD_CIF_VEGPAZ
_audit_creation_date 2006-05-24
_audit_creation_method CSD-ConQuest-V1
_database_code_CSD VEGPAZ
_database_code_depnum_ccdc_archive 'CCDC 282896'
_chemical_formula_sum 'C12 H19 N1 O4'
_chemical_formula_moiety
;
C12 H19 N1 O4
;
_journal_coden_Cambridge 1090
_journal_volume 17
_journal_year 2006
_journal_page_first 68
_journal_name_full 'Tetrahedron:Asymm. '
loop_
_publ_author_name
"S.Stecko"
"K.Pasniczek"
"M.Jurczak"
"Z.Urbanczyk-Lipkowska"
"M.Chmielewski"
_chemical_name_systematic
;
(3aR,8aS,8bS,7S)-7-(t-Butoxy)hexahydrofuro[3,4-d]pyrrolo[1,2-b]isoxazol-1(3H)-
one
;
_chemical_melting_point 377.15
_cell_volume   1264.470
_exptl_crystal_colour 'colorless'
_exptl_crystal_density_diffrn 1.257
_exptl_special_details
;
Melting point range 377.15-378.15K

;
_exptl_crystal_description 'irregular plate'
_diffrn_ambient_temperature 293
#These two values have been output from a single CSD field.
_refine_ls_R_factor_gt 0.0691
_refine_ls_wR_factor_gt 0.0691
loop_
_citation_database_id_CSD
_citation_special_details
VEBVEE "is a stereoisomer of this entry"
_symmetry_cell_setting orthorhombic
_symmetry_space_group_name_H-M 'P 21 21 21'
_symmetry_Int_Tables_number 19
loop_
_symmetry_equiv_pos_site_id
_symmetry_equiv_pos_as_xyz
1 x,y,z
2 1/2-x,-y,1/2+z
3 1/2+x,1/2-y,-z
4 -x,1/2+y,1/2-z
_cell_length_a 6.2130(2)
_cell_length_b 10.1760(5)
_cell_length_c 20.000(3)
_cell_angle_alpha 90
_cell_angle_beta 90
_cell_angle_gamma 90
_cell_formula_units_Z 4
loop_
_atom_type_symbol
_atom_type_radius_bond
C 0.68
H 0.23
N 0.68
O 0.68
loop_
_atom_site_label
_atom_site_type_symbol
_atom_site_fract_x
_atom_site_fract_y
_atom_site_fract_z
C1 C 0.844(2) 0.6339(13) 0.8240(6)
H1 H 0.80350 0.54090 0.82620
C2 C 1.0847(17) 0.6602(10) 0.8133(6)
H2 H 1.15200 0.58820 0.78830
C3 C 1.1708(19) 0.6666(12) 0.8838(6)
H3 H 1.28030 0.73570 0.88600
C4 C 1.2611(19) 0.5439(12) 0.9141(5)
H4 H 1.21320 0.46700 0.88960
H5 H 1.41720 0.54600 0.91380
C5 C 1.178(2) 0.5415(11) 0.9834(5)
H6 H 1.26750 0.59690 1.01240
C6 C 0.953(3) 0.6018(13) 0.9755(6)
C7 C 0.740(2) 0.7115(14) 0.7671(7)
H7 H 0.71160 0.65450 0.72930
H8 H 0.60550 0.75020 0.78170
C8 C 1.093(3) 0.7868(14) 0.7740(6)
C9 C 1.218(2) 0.3860(11) 1.0761(6)
C10 C 1.461(2) 0.4173(13) 1.0872(6)
H9 H 1.54650 0.36480 1.05750
H10 H 1.49950 0.39760 1.13260
H11 H 1.48680 0.50870 1.07850
C11 C 1.172(2) 0.2455(11) 1.0848(6)
H12 H 1.26020 0.19520 1.05490
H13 H 1.02280 0.22910 1.07510
H14 H 1.20200 0.22030 1.13010
C12 C 1.0875(18) 0.4696(12) 1.1239(6)
H15 H 1.12680 0.56020 1.11860
H16 H 1.11630 0.44250 1.16910
H17 H 0.93700 0.45900 1.11450
N1 N 0.9861(16) 0.7053(8) 0.9264(4)
O1 O 0.7989(14) 0.7085(10) 0.8837(4)
O2 O 0.8942(16) 0.8144(10) 0.7485(4)
O3 O 1.2384(15) 0.8598(9) 0.7658(5)
O4 O 1.1706(12) 0.4127(7) 1.0082(3)
#END
