
#######################################################################
#
#                 Cambridge Crystallographic Data Centre
#                                CCDC
#
#######################################################################
#
# If this CIF has been generated from an entry in the Cambridge
# Structural Database, then it will include bibliographic, chemical,
# crystal, experimental, refinement or atomic coordinate data resulting
# from the CCDC's data processing and validation procedures.
#
#######################################################################

data_CSD_CIF_VEHFOG
_audit_creation_date 2017-09-12
_audit_creation_method CSD-ConQuest-V1
_database_code_CSD VEHFOG
_database_code_depnum_ccdc_archive 'CCDC 1524774'
_chemical_formula_sum 'C54 H77 N9 O11'
_chemical_formula_moiety
;
C54 H77 N9 O11
;
_journal_coden_Cambridge 1490
_journal_volume 8
_journal_year 2017
_journal_page_first 391
_journal_name_full 'Nat.Commun. '
loop_
_publ_author_name
"Junying Ma"
"Hongbo Huang"
"Yunchang Xie"
"Zhiyong Liu"
"Jin Zhao"
"Chunyan Zhang"
"Yanxi Jia"
"Yun Zhang"
"Hua Zhang"
"Tianyu Zhang"
"Jianhua Ju"
_chemical_name_systematic
;
15-(but-2-en-1-yl)-6-(4-hydroxy-3-nitrobenzyl)-9,18,21-tri-isobutyl-1,3,10-tri
methyl-12-((1-(2-(oxiran-2-yl)propan-2-yl)-1H-indol-3-yl)methyl)-1,4,7,10,13,1
6,19-hepta-azacyclohenicosane-2,5,8,11,14,17,20-heptone
;
_chemical_name_common
;
ilamycin B!2$; PEPSEQ C=7 ALA-LEU*-LEU-GLY*-TRP*-LEU*-TYR*-
;
_cell_volume   6914.960
_exptl_crystal_colour 'yellow'
_exptl_crystal_density_diffrn 0.988
_exptl_special_details
;
anti-mycobacterial activity
We calculate 27 percent void space in the structure
;
_exptl_crystal_description 'block'
_diffrn_ambient_temperature 293
#These two values have been output from a single CSD field.
_refine_ls_R_factor_gt 0.0668
_refine_ls_wR_factor_gt 0.0668
_symmetry_cell_setting orthorhombic
_symmetry_space_group_name_H-M 'P 21 21 2'
_symmetry_Int_Tables_number 18
loop_
_symmetry_equiv_pos_site_id
_symmetry_equiv_pos_as_xyz
1 x,y,z
2 -x,-y,z
3 1/2-x,1/2+y,-z
4 1/2+x,1/2-y,-z
_cell_length_a 18.3538(2)
_cell_length_b 28.2850(3)
_cell_length_c 13.3201(1)
_cell_angle_alpha 90
_cell_angle_beta 90
_cell_angle_gamma 90
_cell_formula_units_Z 4
loop_
_atom_type_symbol
_atom_type_radius_bond
C 0.68
H 0.23
N 0.68
O 0.68
loop_
_atom_site_label
_atom_site_type_symbol
_atom_site_fract_x
_atom_site_fract_y
_atom_site_fract_z
N1 N 0.89313(19) 0.33102(12) 0.5765(2)
H1 H 0.93528 0.33525 0.54981
N2 N 0.8165(2) 0.24007(12) 0.4158(3)
H2 H 0.77699 0.23903 0.45031
N3 N 0.7338(2) 0.15355(13) 0.4146(3)
H3 H 0.70680 0.17185 0.45028
N4 N 0.6245(2) 0.10455(14) 0.5276(3)
N5 N 0.5918(2) 0.21807(13) 0.6457(3)
H4 H 0.56173 0.22908 0.68936
N6 N 0.65666(19) 0.31833(12) 0.6457(3)
H5 H 0.69732 0.30346 0.65127
N7 N 0.75461(19) 0.40769(12) 0.6550(3)
N8 N 0.8843(2) 0.47799(12) 0.8892(3)
N9 N 0.4258(3) 0.25500(18) 0.2411(4)
O1 O 0.8475(2) 0.42511(13) 0.5546(3)
O2 O 0.79231(16) 0.28571(10) 0.5833(2)
O3 O 0.8857(3) 0.20498(15) 0.2963(4)
O4 O 0.7837(3) 0.08130(15) 0.4027(4)
O5 O 0.52336(16) 0.14881(13) 0.5344(3)
O6 O 0.65427(17) 0.23056(10) 0.5031(2)
O7 O 0.58810(18) 0.37953(12) 0.6991(3)
O8 O 0.4779(4) 0.2313(2) 0.2111(4)
O9 O 0.3675(3) 0.24802(19) 0.2003(4)
O10 O 0.3133(3) 0.31455(18) 0.3155(5)
H6 H 0.31349 0.30001 0.26229
O11 O 0.9000(2) 0.54867(12) 1.0896(3)
C1 C 0.8215(2) 0.39999(15) 0.6209(3)
C2 C 0.8708(2) 0.36028(14) 0.6623(3)
H7 H 0.84398 0.34112 0.71119
C3 C 0.9373(3) 0.38262(18) 0.7115(3)
H8 H 0.96989 0.35784 0.73412
H9 H 0.96305 0.40154 0.66224
C4 C 0.9025(3) 0.45988(16) 0.7955(3)
H10 H 0.90448 0.47779 0.73697
C5 C 0.9168(2) 0.41346(15) 0.7997(3)
C6 C 0.9080(2) 0.39959(15) 0.9025(3)
C7 C 0.9171(3) 0.35698(16) 0.9546(3)
H11 H 0.92992 0.32956 0.92034
C8 C 0.9067(3) 0.35610(16) 1.0578(3)
H12 H 0.91196 0.32782 1.09268
C9 C 0.8886(3) 0.39723(16) 1.1096(3)
H13 H 0.88315 0.39582 1.17896
C10 C 0.8783(2) 0.43990(16) 1.0619(3)
H14 H 0.86542 0.46697 1.09731
C11 C 0.8882(2) 0.44072(14) 0.9567(3)
C12 C 0.8632(3) 0.52741(15) 0.9122(3)
C13 C 0.9176(3) 0.54722(16) 0.9840(4)
H15 H 0.96842 0.53944 0.96887
C14 C 0.9069(4) 0.59238(18) 1.0354(4)
H16 H 0.94955 0.61168 1.04832
H17 H 0.86271 0.60993 1.02098
C15 C 0.8696(5) 0.5575(2) 0.8146(4)
H18 H 0.85601 0.58961 0.82882
H19 H 0.91889 0.55666 0.79073
H20 H 0.83769 0.54483 0.76423
C16 C 0.7853(3) 0.52862(18) 0.9505(4)
H21 H 0.77181 0.56065 0.96537
H22 H 0.75326 0.51612 0.90014
H23 H 0.78161 0.50983 1.01036
C17 C 0.8491(2) 0.29817(14) 0.5399(3)
C18 C 0.8679(2) 0.27755(14) 0.4365(3)
H24 H 0.91717 0.26425 0.43881
C19 C 0.8654(2) 0.31658(15) 0.3567(3)
H25 H 0.90337 0.33946 0.37092
H26 H 0.87560 0.30274 0.29161
C20 C 0.7927(3) 0.34203(14) 0.3519(3)
H27 H 0.77708 0.35836 0.40859
C21 C 0.7504(3) 0.34229(15) 0.2718(3)
H28 H 0.76518 0.32472 0.21645
C22 C 0.6803(3) 0.3689(2) 0.2641(4)
H29 H 0.65919 0.36375 0.19904
H30 H 0.64725 0.35797 0.31493
H31 H 0.68937 0.40202 0.27331
C23 C 0.8273(3) 0.20681(16) 0.3455(4)
C24 C 0.7663(3) 0.17244(17) 0.3227(4)
H32 H 0.78731 0.14585 0.28545
C25 C 0.7079(4) 0.1950(2) 0.2564(4)
H33 H 0.68658 0.22135 0.29250
H34 H 0.66967 0.17196 0.24499
C26 C 0.7350(5) 0.2128(2) 0.1545(5)
H35 H 0.76939 0.23869 0.16687
C27 C 0.7746(6) 0.1750(3) 0.0938(6)
H36 H 0.81476 0.16292 0.13228
H37 H 0.74155 0.14977 0.07848
H38 H 0.79256 0.18862 0.03258
C28 C 0.6715(8) 0.2327(3) 0.0962(7)
H39 H 0.64742 0.25634 0.13570
H40 H 0.68889 0.24655 0.03494
H41 H 0.63788 0.20770 0.08083
C29 C 0.7442(3) 0.10920(16) 0.4456(4)
C30 C 0.7033(2) 0.09618(15) 0.5426(3)
H42 H 0.71983 0.11789 0.59518
C31 C 0.7228(4) 0.04596(18) 0.5763(5)
H43 H 0.69539 0.02388 0.53533
H44 H 0.77405 0.04077 0.56231
C32 C 0.7099(4) 0.0347(2) 0.6793(5)
H45 H 0.65812 0.03907 0.69458
C33 C 0.7576(4) 0.0652(2) 0.7559(4)
H46 H 0.74641 0.05598 0.82350
H47 H 0.80844 0.05991 0.74304
H48 H 0.74674 0.09819 0.74723
C34 C 0.7308(7) -0.0175(2) 0.6960(6)
H49 H 0.72253 -0.02587 0.76491
H50 H 0.70148 -0.03728 0.65344
H51 H 0.78131 -0.02199 0.67991
C35 C 0.5846(2) 0.14058(16) 0.5659(3)
C36 C 0.6147(2) 0.16919(16) 0.6526(3)
H52 H 0.66803 0.16752 0.65241
C37 C 0.5853(4) 0.14775(17) 0.7501(3)
H53 H 0.60038 0.11533 0.75491
H54 H 0.60397 0.16512 0.80638
H55 H 0.53303 0.14934 0.75005
C38 C 0.6161(2) 0.24620(14) 0.5735(3)
C39 C 0.5990(2) 0.29864(15) 0.5852(3)
H56 H 0.55236 0.30240 0.62013
C40 C 0.5955(2) 0.32390(17) 0.4828(4)
H57 H 0.60863 0.35687 0.49139
H58 H 0.63063 0.30966 0.43748
C41 C 0.5210(3) 0.32078(16) 0.4373(3)
C42 C 0.5101(3) 0.28918(16) 0.3662(4)
H59 H 0.54694 0.26897 0.34482
C43 C 0.4335(3) 0.28756(17) 0.3208(3)
C44 C 0.3799(3) 0.3156(2) 0.3528(5)
C45 C 0.3974(3) 0.3482(2) 0.4270(5)
H60 H 0.36185 0.36961 0.44738
C46 C 0.4648(3) 0.35040(18) 0.4716(4)
H61 H 0.47323 0.37134 0.52415
C47 C 0.6473(2) 0.35986(16) 0.6935(3)
C48 C 0.7173(2) 0.38153(15) 0.7366(3)
H62 H 0.74924 0.35564 0.75808
C49 C 0.7031(3) 0.41324(17) 0.8272(3)
H63 H 0.67311 0.43964 0.80579
H64 H 0.74921 0.42600 0.85011
C50 C 0.6654(3) 0.38881(19) 0.9162(3)
H65 H 0.61856 0.37638 0.89253
C51 C 0.7087(3) 0.3483(2) 0.9568(4)
H66 H 0.71787 0.32597 0.90411
H67 H 0.75420 0.35984 0.98266
H68 H 0.68189 0.33324 1.00972
C52 C 0.6499(4) 0.4249(2) 0.9978(4)
H69 H 0.62207 0.45055 0.97027
H70 H 0.62278 0.41021 1.05096
H71 H 0.69509 0.43681 1.02390
C53 C 0.7141(3) 0.44782(18) 0.6102(4)
H72 H 0.66675 0.44995 0.64043
H73 H 0.74038 0.47665 0.62188
H74 H 0.70898 0.44285 0.53924
C54 C 0.5919(3) 0.0767(2) 0.4465(4)
H75 H 0.62530 0.05244 0.42606
H76 H 0.54755 0.06246 0.46988
H77 H 0.58147 0.09697 0.39053
#END
