
#######################################################################
#
#                 Cambridge Crystallographic Data Centre
#                                CCDC
#
#######################################################################
#
# If this CIF has been generated from an entry in the Cambridge
# Structural Database, then it will include bibliographic, chemical,
# crystal, experimental, refinement or atomic coordinate data resulting
# from the CCDC's data processing and validation procedures.
#
#######################################################################

data_CSD_CIF_VEHGAT
_audit_creation_date 2017-09-12
_audit_creation_method CSD-ConQuest-V1
_database_code_CSD VEHGAT
_database_code_depnum_ccdc_archive 'CCDC 1524776'
_chemical_formula_sum 'C54 H75 N9 O13'
_chemical_formula_moiety
;
C54 H75 N9 O13
;
_journal_coden_Cambridge 1490
_journal_volume 8
_journal_year 2017
_journal_page_first 391
_journal_name_full 'Nat.Commun. '
loop_
_publ_author_name
"Junying Ma"
"Hongbo Huang"
"Yunchang Xie"
"Zhiyong Liu"
"Jin Zhao"
"Chunyan Zhang"
"Yanxi Jia"
"Yun Zhang"
"Hua Zhang"
"Tianyu Zhang"
"Jianhua Ju"
_chemical_name_systematic
;
3-(8-(but-2-en-1-yl)-17-(4-hydroxy-3-nitrobenzyl)-5,14-di-isobutyl-1,13,20-tri
methyl-11-((1-(2-(oxiran-2-yl)propan-2-yl)-1H-indol-3-yl)methyl)-3,6,9,12,15,1
8,21-heptaoxo-1,4,7,10,13,16,19-hepta-azacyclohenicosan-2-yl)-2-methylpropanoi
c acid
;
_chemical_name_common
;
ilamycin D; PEPSEQ C=7 ALA-GLU*-LEU-GLY*-TRP*-LEU*-TYR*-
;
_cell_volume   6669.878
_exptl_crystal_colour 'yellow'
_exptl_crystal_density_diffrn 1.054
_exptl_special_details
;
anti-mycobacterial activity

;
_exptl_crystal_description 'block'
_diffrn_ambient_temperature 150
_refine_special_details
;
C34A,O6A,O7A and C34B,O6B,O7B disordered over two sites with occupancies 
0.51:0.49.
;
#These two values have been output from a single CSD field.
_refine_ls_R_factor_gt 0.0699
_refine_ls_wR_factor_gt 0.0699
_symmetry_cell_setting orthorhombic
_symmetry_space_group_name_H-M 'P 21 21 21'
_symmetry_Int_Tables_number 19
loop_
_symmetry_equiv_pos_site_id
_symmetry_equiv_pos_as_xyz
1 x,y,z
2 1/2-x,-y,1/2+z
3 1/2+x,1/2-y,-z
4 -x,1/2+y,1/2-z
_cell_length_a 15.8709(2)
_cell_length_b 18.8030(3)
_cell_length_c 22.3506(3)
_cell_angle_alpha 90
_cell_angle_beta 90
_cell_angle_gamma 90
_cell_formula_units_Z 4
loop_
_atom_type_symbol
_atom_type_radius_bond
C 0.68
H 0.23
N 0.68
O 0.68
loop_
_atom_site_label
_atom_site_type_symbol
_atom_site_fract_x
_atom_site_fract_y
_atom_site_fract_z
O1 O -0.4029(2) -0.1479(2) -0.26229(19)
O2 O -0.5261(3) -0.0131(2) -0.22892(19)
O3 O -0.5748(3) 0.1229(2) -0.1335(2)
N1 N -0.3662(3) -0.2457(3) -0.3154(2)
H1 H -0.38190 -0.28790 -0.32830
N2 N -0.5612(3) -0.1822(2) -0.25105(19)
H2 H -0.53790 -0.14180 -0.23980
O4 O -0.6723(3) -0.2556(2) -0.2414(2)
N3 N -0.4351(3) 0.0551(3) -0.1781(2)
H3 H -0.39470 0.08720 -0.17980
N4 N -0.3544(3) -0.0103(3) -0.2935(2)
H4 H -0.36040 -0.05080 -0.27430
N5 N -0.0029(3) -0.2381(3) -0.3811(2)
O5 O -0.7189(3) -0.1349(3) -0.0827(2)
N6 N -0.6451(3) -0.0928(3) -0.1635(2)
H5 H -0.60460 -0.06420 -0.17560
C1 C -0.5135(3) -0.2300(3) -0.2885(2)
H6 H -0.51610 -0.27890 -0.27100
N7 N -0.5424(4) 0.2946(5) -0.3839(3)
C2 C -0.4177(3) 0.0457(3) -0.2857(3)
H7 H -0.38880 0.09260 -0.28060
N8 N -0.6167(3) 0.0254(3) -0.0838(3)
C3 C -0.4683(4) 0.0332(3) -0.1207(3)
H8 H -0.46910 -0.01990 -0.11810
C4 C -0.2778(3) -0.2217(4) -0.3252(3)
H9 H -0.25810 -0.19080 -0.29160
C5 C -0.0700(4) -0.2566(3) -0.2922(3)
C6 C -0.4763(4) 0.0492(3) -0.3397(3)
H10 H -0.44160 0.05180 -0.37650
H11 H -0.50950 0.00470 -0.34150
C7 C -0.4652(3) 0.0271(3) -0.2285(3)
O6 O -0.7115(4) 0.2764(4) -0.3364(3)
H12 H -0.69640 0.30970 -0.35900
N9 N -0.2626(4) -0.1094(4) -0.3864(3)
C8 C -0.5477(3) -0.2322(3) -0.3526(2)
H13 H -0.51530 -0.26800 -0.37560
H14 H -0.60710 -0.24830 -0.35140
C9 C -0.5774(5) 0.2300(3) -0.3589(3)
O7 O -0.5856(6) 0.3487(3) -0.3860(3)
C10 C -0.6402(3) -0.1969(3) -0.2326(3)
O8 O -0.2989(4) -0.2132(4) -0.4296(2)
C11 C -0.5438(4) -0.1616(4) -0.3855(3)
H15 H -0.49010 -0.14110 -0.39290
C12 C -0.5586(4) 0.0626(3) -0.1139(3)
C13 C -0.6637(4) -0.0964(3) -0.1042(3)
O9 O -0.4702(4) 0.3028(4) -0.4020(3)
C14 C -0.4222(4) -0.2042(3) -0.2872(2)
C15 C -0.0863(4) -0.2540(4) -0.3920(3)
H16 H -0.11080 -0.25640 -0.43070
O10 O -0.2740(3) 0.0544(3) -0.3549(3)
C16 C -0.6909(3) -0.1354(4) -0.2080(3)
H17 H -0.74130 -0.15600 -0.18740
C17 C 0.0083(3) -0.2397(4) -0.3192(2)
C18 C 0.0617(4) -0.2185(4) -0.4259(3)
C19 C -0.6002(6) -0.1266(5) 0.0264(3)
H18 H -0.62730 -0.16180 -0.00110
C20 C -0.6094(4) -0.0477(3) -0.0645(3)
H19 H -0.54940 -0.06210 -0.07040
C21 C -0.0755(5) -0.2623(4) -0.2310(3)
H20 H -0.12780 -0.27310 -0.21250
C22 C -0.7010(5) 0.0573(4) -0.0784(4)
H21 H -0.70120 0.10420 -0.09760
H22 H -0.71540 0.06260 -0.03600
H23 H -0.74250 0.02650 -0.09800
C23 C -0.2876(4) -0.0010(4) -0.3294(4)
C24 C -0.1292(4) -0.2659(4) -0.3399(3)
C25 C -0.2235(4) -0.2850(4) -0.3317(4)
H24 H -0.24260 -0.31290 -0.36670
H25 H -0.22970 -0.31530 -0.29580
C26 C -0.2798(4) -0.1803(5) -0.3842(3)
C27 C 0.0727(5) -0.2360(5) -0.2244(3)
H26 H 0.12120 -0.23050 -0.20000
C28 C -0.6100(5) -0.1281(4) -0.4040(3)
H27 H -0.66360 -0.14820 -0.39540
C29 C -0.2308(4) -0.0663(4) -0.3365(3)
H28 H -0.23510 -0.09530 -0.29910
C30 C 0.0798(4) -0.2280(4) -0.2846(3)
H29 H 0.13190 -0.21500 -0.30240
C31 C -0.6298(5) -0.0581(4) 0.0018(3)
H30 H -0.60370 -0.01890 0.02490
H31 H -0.69150 -0.05480 0.00730
C32 C -0.0054(5) -0.2523(5) -0.1973(3)
H32 H -0.00890 -0.25620 -0.15500
C33 C -0.7231(4) -0.0890(4) -0.2582(4)
H33 H -0.67420 -0.07180 -0.28150
H34 H -0.75770 -0.11880 -0.28520
C34 C -0.4154(5) 0.0637(5) -0.0701(3)
H35 H -0.35760 0.04570 -0.07320
H36 H -0.43960 0.04950 -0.03160
H37 H -0.41480 0.11570 -0.07290
C35 C -0.6555(6) 0.2271(5) -0.3370(4)
C36 C 0.0307(5) -0.2358(6) -0.4887(3)
H38 H 0.07660 -0.22850 -0.51740
H39 H -0.01650 -0.20450 -0.49890
H40 H 0.01210 -0.28540 -0.49030
C37 C 0.1397(4) -0.2607(6) -0.4156(3)
H41 H 0.12810 -0.31140 -0.40470
C38 C -0.6183(5) 0.1012(4) -0.3134(4)
H42 H -0.63400 0.05670 -0.29660
C39 C -0.5121(5) 0.1735(6) -0.3594(3)
H43 H -0.45660 0.18180 -0.37370
C40 C -0.5361(6) 0.1114(4) -0.3389(3)
C41 C -0.7749(5) -0.0257(5) -0.2395(4)
H44 H -0.73600 0.00920 -0.22000
C42 C -0.6428(8) -0.1446(7) 0.0878(4)
H45 H -0.62180 -0.19050 0.10230
H46 H -0.70410 -0.14720 0.08250
H47 H -0.62930 -0.10740 0.11690
C43 C -0.1403(5) -0.0454(6) -0.3449(5)
H48 H -0.10590 -0.08860 -0.35180
H49 H -0.13520 -0.01460 -0.38070
C44 C 0.2203(5) -0.2510(7) -0.4461(4)
H50 H 0.25410 -0.29400 -0.45510
H51 H 0.22460 -0.21240 -0.47600
C45 C -0.2693(7) -0.0738(7) -0.4455(4)
H52 H -0.22240 -0.08890 -0.47100
H53 H -0.26700 -0.02210 -0.44000
H54 H -0.32280 -0.08680 -0.46440
C46 C -0.6076(9) -0.0575(6) -0.4393(5)
H55 H -0.64620 -0.06050 -0.47340
H56 H -0.55020 -0.04890 -0.45370
H57 H -0.62490 -0.01840 -0.41310
C47 C -0.6755(5) 0.1592(5) -0.3139(4)
H58 H -0.73020 0.15190 -0.29780
C48 C 0.0812(7) -0.1372(5) -0.4204(4)
H59 H 0.02980 -0.10990 -0.42840
H60 H 0.12470 -0.12410 -0.44940
H61 H 0.10120 -0.12680 -0.37980
C49 C -0.1082(6) -0.0077(5) -0.2930(6)
H62 H -0.15440 0.02390 -0.27830
C50 C -0.8448(6) -0.0407(7) -0.1967(6)
H63 H -0.87910 0.00220 -0.19150
H64 H -0.82120 -0.05500 -0.15800
H65 H -0.88010 -0.07910 -0.21250
C51 C -0.8123(8) 0.0095(7) -0.2935(6)
H66 H -0.76720 0.03090 -0.31750
H67 H -0.85170 0.04670 -0.28070
H68 H -0.84230 -0.02590 -0.31750
C52 C -0.0322(8) 0.0397(8) -0.3067(11)
H69 H -0.04790 0.07520 -0.33680
H70 H 0.01410 0.01050 -0.32210
H71 H -0.01410 0.06390 -0.27000
C53 C -0.0862(9) -0.0602(7) -0.2414(7)
H72 H -0.03990 -0.09130 -0.25390
H73 H -0.13580 -0.08920 -0.23190
H74 H -0.06920 -0.03320 -0.20590
O11 O 0.2097(3) -0.2313(5) -0.3841(3)
O12 O -0.4679(11) -0.0958(13) 0.0279(8)
H75 H -0.41950 -0.10700 0.01600
O13 O -0.4909(10) -0.2128(10) 0.0367(6)
C54 C -0.515(2) -0.152(4) 0.0291(8)
H76? H -0.61030 -0.16580 -0.00300
O14? O -0.4572(12) -0.1687(12) 0.0512(7)
O15? O -0.4571(10) -0.0543(16) 0.0282(8)
H77? H -0.41230 -0.06220 0.00930
C55? C -0.497(2) -0.116(3) 0.0381(15)
#END
