
#######################################################################
#
#                 Cambridge Crystallographic Data Centre
#                                CCDC
#
#######################################################################
#
# If this CIF has been generated from an entry in the Cambridge
# Structural Database, then it will include bibliographic, chemical,
# crystal, experimental, refinement or atomic coordinate data resulting
# from the CCDC's data processing and validation procedures.
#
#######################################################################

data_CSD_CIF_VEHGEX
_audit_creation_date 2017-09-12
_audit_creation_method CSD-ConQuest-V1
_database_code_CSD VEHGEX
_database_code_depnum_ccdc_archive 'CCDC 1524777'
_chemical_formula_sum 'C54 H75 N9 O12'
_chemical_formula_moiety
;
C54 H75 N9 O12
;
_journal_coden_Cambridge 1490
_journal_volume 8
_journal_year 2017
_journal_page_first 391
_journal_name_full 'Nat.Commun. '
loop_
_publ_author_name
"Junying Ma"
"Hongbo Huang"
"Yunchang Xie"
"Zhiyong Liu"
"Jin Zhao"
"Chunyan Zhang"
"Yanxi Jia"
"Yun Zhang"
"Hua Zhang"
"Tianyu Zhang"
"Jianhua Ju"
_chemical_name_systematic
;
3-(8-(but-2-en-1-yl)-17-(4-hydroxy-3-nitrobenzyl)-5,14-di-isobutyl-1,13,20-tri
methyl-11-((1-(2-methylbut-3-en-2-yl)-1H-indol-3-yl)methyl)-3,6,9,12,15,18,21-
heptaoxo-1,4,7,10,13,16,19-hepta-azacyclohenicosan-2-yl)-2-methylpropanoic 
acid
;
_chemical_name_common
;
ilamycin F; PEPSEQ C=7 ALA-GLU*-LEU-GLY*-TRP*-LEU*-TYR*-
;
_cell_volume  12429.589
_exptl_crystal_colour 'yellow'
_exptl_crystal_density_diffrn 1.114
_exptl_special_details
;
anti-mycobacterial activity

;
_exptl_crystal_description 'block'
_diffrn_ambient_temperature 293
#These two values have been output from a single CSD field.
_refine_ls_R_factor_gt 0.0652
_refine_ls_wR_factor_gt 0.0652
_symmetry_cell_setting orthorhombic
_symmetry_space_group_name_H-M 'P 21 21 21'
_symmetry_Int_Tables_number 19
loop_
_symmetry_equiv_pos_site_id
_symmetry_equiv_pos_as_xyz
1 x,y,z
2 1/2-x,-y,1/2+z
3 -x,1/2+y,1/2-z
4 1/2+x,1/2-y,-z
_cell_length_a 17.10632(12)
_cell_length_b 18.5208(2)
_cell_length_c 39.2320(3)
_cell_angle_alpha 90
_cell_angle_beta 90
_cell_angle_gamma 90
_cell_formula_units_Z 8
loop_
_atom_type_symbol
_atom_type_radius_bond
C 0.68
H 0.23
N 0.68
O 0.68
loop_
_atom_site_label
_atom_site_type_symbol
_atom_site_fract_x
_atom_site_fract_y
_atom_site_fract_z
O1 O 0.2453(2) 0.4559(2) 0.20074(9)
O2 O 0.42782(19) 0.39594(18) 0.26432(8)
O3 O 0.6628(2) 0.4867(3) 0.21472(10)
O4 O 0.7795(2) 0.3867(3) 0.29492(10)
O5 O 0.6218(2) 0.33078(18) 0.39717(8)
O6 O 0.6298(2) 0.45130(18) 0.39341(8)
H1 H 0.59610 0.45050 0.40820
O7 O 0.6426(2) 0.1198(2) 0.29833(10)
O8 O 0.5396(2) 0.2535(2) 0.26091(10)
O9 O 0.6400(3) 0.0443(3) 0.16845(13)
O10 O 0.5931(3) -0.0612(3) 0.15733(14)
O11 O 0.4505(3) -0.0917(2) 0.17348(11)
H2 H 0.49540 -0.10300 0.16850
O12 O 0.2519(2) 0.1925(2) 0.25424(12)
N1 N 0.0268(3) 0.5089(3) 0.25329(11)
N2 N 0.3678(2) 0.4954(2) 0.24523(9)
H3 H 0.37410 0.53760 0.23660
N3 N 0.5631(2) 0.4216(2) 0.23562(9)
H4 H 0.54960 0.38230 0.24570
N4 N 0.6816(2) 0.3310(3) 0.26624(10)
H5 H 0.64430 0.30000 0.26780
N5 N 0.7016(2) 0.2211(3) 0.31563(11)
N6 N 0.4954(3) 0.1846(3) 0.30397(11)
H6 H 0.46190 0.15310 0.31060
N7 N 0.5884(3) 0.0047(3) 0.16833(11)
N8 N 0.3597(2) 0.2595(2) 0.26438(13)
H7 H 0.37880 0.29950 0.27170
N9 N 0.2315(2) 0.3589(2) 0.23428(10)
C1 C 0.2539(3) 0.4266(3) 0.22926(11)
C2 C 0.2902(3) 0.4742(3) 0.25708(11)
H8 H 0.29420 0.44730 0.27850
C3 C 0.2398(3) 0.5408(3) 0.26192(12)
H9 H 0.25860 0.56690 0.28170
H10 H 0.24650 0.57200 0.24230
C4 C 0.1539(3) 0.5266(3) 0.26649(12)
C5 C 0.0999(3) 0.5271(3) 0.24129(13)
H11 H 0.11080 0.53820 0.21870
C6 C 0.1126(3) 0.5069(3) 0.29707(12)
C7 C 0.1356(3) 0.5001(3) 0.33119(13)
H12 H 0.18740 0.50690 0.33750
C8 C 0.0795(3) 0.4831(4) 0.35514(14)
H13 H 0.09340 0.48020 0.37800
C9 C 0.0029(3) 0.4704(3) 0.34554(13)
H14 H -0.03280 0.45690 0.36220
C10 C -0.0228(3) 0.4770(3) 0.31239(14)
H15 H -0.07470 0.46890 0.30650
C11 C 0.0336(3) 0.4966(3) 0.28795(12)
C12 C -0.0467(4) 0.5061(5) 0.23295(17)
C13 C -0.1042(4) 0.5569(7) 0.2462(2)
H16 H -0.15630 0.54940 0.24050
C14 C -0.0870(7) 0.6152(7) 0.2665(3)
H17 H -0.03550 0.62440 0.27270
H18 H -0.12680 0.64540 0.27400
C15 C -0.0286(5) 0.5282(6) 0.19583(18)
H19 H 0.00240 0.57140 0.19580
H20 H -0.07670 0.53680 0.18390
H21 H -0.00030 0.49010 0.18480
C16 C -0.0779(6) 0.4288(6) 0.2333(2)
H22 H -0.04100 0.39740 0.22230
H23 H -0.12690 0.42690 0.22140
H24 H -0.08530 0.41340 0.25650
C17 C 0.4291(3) 0.4515(3) 0.24738(10)
C18 C 0.5024(3) 0.4731(3) 0.22781(11)
H25 H 0.51910 0.52100 0.23550
C19 C 0.4848(3) 0.4764(3) 0.18870(11)
H26 H 0.44330 0.51120 0.18490
H27 H 0.53100 0.49380 0.17700
C20 C 0.4615(4) 0.4071(4) 0.17348(13)
H28 H 0.49510 0.36900 0.17830
C21 C 0.4044(5) 0.3909(5) 0.15524(18)
H29 H 0.36420 0.42420 0.15260
C22 C 0.3982(8) 0.3170(5) 0.13685(18)
H30 H 0.38390 0.32460 0.11350
H31 H 0.35900 0.28800 0.14780
H32 H 0.44770 0.29270 0.13790
C23 C 0.6383(3) 0.4306(3) 0.22826(12)
C24 C 0.6928(3) 0.3673(4) 0.23373(13)
H33 H 0.74660 0.38540 0.23290
C25 C 0.6817(4) 0.3137(4) 0.20409(14)
H34 H 0.69250 0.33920 0.18300
H35 H 0.62700 0.29990 0.20360
C26 C 0.7309(5) 0.2437(4) 0.20413(19)
H36 H 0.71430 0.21340 0.22330
C27 C 0.7149(5) 0.2035(4) 0.1709(2)
H37 H 0.66110 0.18890 0.17020
H38 H 0.74780 0.16160 0.16970
H39 H 0.72580 0.23470 0.15200
C28 C 0.8172(5) 0.2598(5) 0.2078(2)
H40 H 0.83200 0.29630 0.19170
H41 H 0.84670 0.21660 0.20350
H42 H 0.82770 0.27650 0.23050
C29 C 0.7257(3) 0.3427(3) 0.29375(13)
C30 C 0.7035(3) 0.2976(3) 0.32485(12)
H43 H 0.65010 0.31130 0.33130
C31 C 0.7558(3) 0.3117(3) 0.35595(14)
H44 H 0.81020 0.31070 0.34890
H45 H 0.74820 0.27340 0.37250
C32 C 0.7378(3) 0.3851(3) 0.37285(12)
H46 H 0.74120 0.42370 0.35580
C33 C 0.7962(3) 0.3999(4) 0.40202(14)
H47 H 0.79530 0.36030 0.41780
H48 H 0.78170 0.44360 0.41360
H49 H 0.84790 0.40500 0.39280
C34 C 0.6572(3) 0.3842(3) 0.38844(10)
C35 C 0.6385(3) 0.1795(3) 0.31181(12)
C36 C 0.5603(3) 0.2047(3) 0.32640(14)
H50 H 0.56110 0.25730 0.32910
C37 C 0.5493(4) 0.1695(5) 0.36099(14)
H51 H 0.49990 0.18380 0.37040
H52 H 0.59060 0.18450 0.37600
H53 H 0.55070 0.11800 0.35850
C38 C 0.4881(3) 0.2145(3) 0.27361(14)
C39 C 0.4109(3) 0.2012(3) 0.25506(13)
H54 H 0.38840 0.15560 0.26310
C40 C 0.4225(3) 0.1970(3) 0.21601(14)
H55 H 0.37730 0.21750 0.20470
H56 H 0.46800 0.22520 0.20960
C41 C 0.4333(3) 0.1212(3) 0.20463(12)
C42 C 0.5017(3) 0.0972(4) 0.19250(12)
H57 H 0.54360 0.12920 0.19150
C43 C 0.5136(3) 0.0234(3) 0.18079(11)
C44 C 0.4484(3) -0.0243(3) 0.18214(12)
C45 C 0.3767(3) 0.0022(3) 0.19480(13)
H58 H 0.33350 -0.02830 0.19560
C46 C 0.3697(3) 0.0723(3) 0.20595(12)
H59 H 0.32200 0.08810 0.21460
C47 C 0.2817(3) 0.2511(3) 0.26154(14)
C48 C 0.2342(3) 0.3192(3) 0.26698(12)
H60 H 0.26080 0.34940 0.28390
C49 C 0.1501(3) 0.3048(3) 0.27926(17)
H61 H 0.12380 0.35080 0.28200
H62 H 0.12270 0.27830 0.26160
C50 C 0.1428(5) 0.2626(4) 0.31267(18)
H63 H 0.16530 0.21450 0.30920
C51 C 0.1867(7) 0.2987(4) 0.34141(18)
H64 H 0.24150 0.28800 0.33940
H65 H 0.16760 0.28100 0.36280
H66 H 0.17910 0.35000 0.34020
C52 C 0.0553(6) 0.2538(5) 0.3205(3)
H67 H 0.03330 0.29990 0.32610
H68 H 0.04880 0.22130 0.33940
H69 H 0.02920 0.23450 0.30080
C53 C 0.1971(4) 0.3214(4) 0.20521(15)
H70 H 0.14730 0.34240 0.19990
H71 H 0.19030 0.27130 0.21070
H72 H 0.23110 0.32580 0.18590
C54 C 0.7765(3) 0.1895(4) 0.30368(17)
H73 H 0.78200 0.19770 0.27960
H74 H 0.77670 0.13850 0.30810
H75 H 0.81920 0.21180 0.31560
O13 O 0.48204(16) -0.04428(17) 0.06081(7)
O14 O 0.54813(16) 0.11217(17) 0.00576(8)
O15 O 0.71410(15) 0.27666(17) 0.06465(7)
O16 O 0.69937(16) 0.40143(19) -0.03507(8)
O17 O 0.6902(3) 0.2160(3) -0.12375(10)
O18 O 0.5768(3) 0.2699(2) -0.13273(10)
H76 H 0.56670 0.23220 -0.14280
O19 O 0.37970(18) 0.4274(2) -0.05833(9)
O20 O 0.47118(16) 0.26245(17) -0.01982(9)
O21 O 0.0876(2) 0.3162(2) 0.06233(10)
O22 O 0.0963(2) 0.4328(2) 0.06734(11)
O23 O 0.2176(2) 0.5022(2) 0.04325(11)
H77 H 0.18670 0.50400 0.05920
O24 O 0.30683(18) 0.06981(18) -0.04553(9)
N10 N 0.4549(2) -0.2490(2) -0.00254(11)
N11 N 0.61652(19) 0.0209(2) 0.02915(9)
H78 H 0.65570 0.00790 0.04140
N12 N 0.62973(18) 0.21758(19) 0.03066(8)
H79 H 0.59550 0.22070 0.01470
N13 N 0.60034(18) 0.3473(2) -0.00585(8)
H80 H 0.55540 0.32690 -0.00770
N14 N 0.5094(2) 0.4116(2) -0.06044(9)
N15 N 0.37402(18) 0.2701(2) -0.05828(9)
H81 H 0.32620 0.26010 -0.06320
N16 N 0.1248(2) 0.3729(2) 0.05975(10)
N17 N 0.39208(19) 0.12359(19) -0.00933(10)
H82 H 0.43340 0.11710 0.00280
N18 N 0.42137(17) -0.01972(19) 0.01142(8)
C55 C 0.4858(2) -0.0311(2) 0.02987(10)
C56 C 0.5676(2) -0.0336(2) 0.01333(11)
H83 H 0.56360 -0.02480 -0.01120
C57 C 0.6019(3) -0.1085(3) 0.01988(14)
H84 H 0.65380 -0.11110 0.01000
H85 H 0.60690 -0.11590 0.04430
C58 C 0.4888(3) -0.2003(3) 0.01969(12)
H86 H 0.47110 -0.19100 0.04170
C59 C 0.5519(3) -0.1678(3) 0.00499(14)
C60 C 0.5588(3) -0.1980(3) -0.02860(14)
C61 C 0.6108(4) -0.1849(4) -0.05558(19)
H87 H 0.65180 -0.15220 -0.05320
C62 C 0.5994(5) -0.2218(4) -0.08557(19)
H88 H 0.63260 -0.21350 -0.10390
C63 C 0.5388(5) -0.2715(4) -0.08871(17)
H89 H 0.53340 -0.29670 -0.10910
C64 C 0.4879(4) -0.2843(3) -0.06345(15)
H90 H 0.44720 -0.31700 -0.06620
C65 C 0.4980(3) -0.2466(3) -0.03273(13)
C66 C 0.3823(3) -0.2908(3) 0.00356(15)
C67 C 0.3203(4) -0.2620(4) -0.0226(2)
H91 H 0.31150 -0.21240 -0.02300
C68 C 0.2789(5) -0.3023(6) -0.0444(3)
H92 H 0.28580 -0.35210 -0.04480
H93 H 0.24320 -0.28060 -0.05900
C69 C 0.3975(5) -0.3717(3) -0.00069(18)
H94 H 0.42810 -0.37970 -0.02080
H95 H 0.34850 -0.39670 -0.00270
H96 H 0.42530 -0.38950 0.01880
C70 C 0.3523(6) -0.2769(5) 0.0391(2)
H97 H 0.39310 -0.28650 0.05530
H98 H 0.30870 -0.30810 0.04360
H99 H 0.33610 -0.22750 0.04100
C71 C 0.6014(2) 0.0916(2) 0.02485(10)
C72 C 0.6485(2) 0.1463(2) 0.0449(1)
H100 H 0.70440 0.13650 0.04200
C73 C 0.6268(3) 0.1405(3) 0.08335(11)
H101 H 0.63740 0.09180 0.09120
H102 H 0.65970 0.17310 0.09630
C74 C 0.5426(3) 0.1582(3) 0.09021(11)
H103 H 0.52630 0.20550 0.08680
C75 C 0.4901(3) 0.1110(3) 0.10070(11)
H104 H 0.50690 0.06370 0.10390
C76 C 0.5196(3) 0.4875(3) -0.05070(12)
H105 H 0.49480 0.49600 -0.02910
H106 H 0.49630 0.51800 -0.06770
H107 H 0.57440 0.49830 -0.04890
C77 C 0.4060(3) 0.1268(3) 0.10796(11)
H108 H 0.37360 0.09800 0.09330
H109 H 0.39580 0.17700 0.10390
H110 H 0.39470 0.11550 0.13130
C78 C 0.6640(2) 0.2767(2) 0.04171(10)
C79 C 0.6369(2) 0.3506(2) 0.02783(10)
H111 H 0.68310 0.38170 0.02600
C80 C 0.5819(2) 0.3844(3) 0.05438(10)
H112 H 0.53620 0.35370 0.05650
H113 H 0.60840 0.38450 0.07620
C81 C 0.5543(3) 0.4612(3) 0.04689(13)
H114 H 0.52170 0.45920 0.02640
C82 C 0.6216(4) 0.5111(3) 0.03944(18)
H115 H 0.65430 0.51500 0.05930
H116 H 0.60180 0.55800 0.03350
H117 H 0.65160 0.49230 0.02080
C83 C 0.5023(4) 0.4880(4) 0.07638(15)
H118 H 0.45860 0.45590 0.07910
H119 H 0.48370 0.53570 0.07130
H120 H 0.53230 0.48900 0.09710
C84 C 0.6335(2) 0.3747(2) -0.03414(10)
C85 C 0.5814(2) 0.3698(2) -0.06616(10)
H121 H 0.56660 0.31910 -0.06930
C86 C 0.6219(3) 0.3956(3) -0.09909(11)
H122 H 0.58190 0.40440 -0.11610
H123 H 0.64730 0.44130 -0.09440
C87 C 0.6815(3) 0.3449(3) -0.11402(11)
H124 H 0.72300 0.33800 -0.09710
C88 C 0.7184(3) 0.3781(4) -0.14631(13)
H125 H 0.67790 0.39100 -0.16210
H126 H 0.75270 0.34350 -0.15670
H127 H 0.74760 0.42040 -0.14020
C89 C 0.6491(3) 0.2699(4) -0.12379(12)
C90 C 0.4360(2) 0.3881(3) -0.06562(10)
C91 C 0.4203(2) 0.3138(3) -0.08180(11)
H128 H 0.47010 0.28960 -0.08650
C92 C 0.3758(3) 0.3243(3) -0.11470(12)
H129 H 0.36060 0.27820 -0.12360
H130 H 0.40850 0.34870 -0.13090
H131 H 0.33000 0.35290 -0.11040
C93 C 0.4045(2) 0.2455(2) -0.02944(11)
C94 C 0.3550(2) 0.1944(2) -0.00815(11)
H132 H 0.30230 0.19140 -0.01780
C95 C 0.3503(2) 0.2207(3) 0.02866(11)
H133 H 0.31990 0.18650 0.04180
H134 H 0.40260 0.22190 0.03820
C96 C 0.3138(3) 0.2948(3) 0.03206(11)
C97 C 0.2375(3) 0.3024(3) 0.04297(11)
H135 H 0.20800 0.26140 0.04770
C98 C 0.2037(3) 0.3711(3) 0.04710(11)
C99 C 0.2458(3) 0.4329(3) 0.04000(14)
C100 C 0.3211(3) 0.4265(3) 0.02777(18)
H136 H 0.34940 0.46750 0.02200
C101 C 0.3546(3) 0.3587(3) 0.02409(16)
H137 H 0.40560 0.35530 0.01610
C102 C 0.3664(2) 0.0680(2) -0.02797(10)
C103 C 0.4170(2) -0.0009(2) -0.02497(9)
H138 H 0.46990 0.01030 -0.03310
C104 C 0.3853(2) -0.0639(3) -0.04572(11)
H139 H 0.33060 -0.07040 -0.03980
H140 H 0.41270 -0.10730 -0.03870
C105 C 0.3912(3) -0.0579(3) -0.08457(12)
H141 H 0.36580 -0.01310 -0.09190
C106 C 0.3492(5) -0.1211(5) -0.10054(18)
H142 H 0.35900 -0.16390 -0.08740
H143 H 0.36790 -0.12810 -0.12340
H144 H 0.29400 -0.11160 -0.10100
C107 C 0.4742(4) -0.0578(4) -0.09689(14)
H145 H 0.50070 -0.01610 -0.08810
H146 H 0.47480 -0.05660 -0.12140
H147 H 0.50010 -0.10070 -0.08910
C108 C 0.3456(2) -0.0264(3) 0.02890(11)
H148 H 0.33960 -0.07470 0.03730
H149 H 0.30420 -0.01570 0.01320
H150 H 0.34360 0.00700 0.04760
#END
