
#######################################################################
#
#                 Cambridge Crystallographic Data Centre
#                                CCDC
#
#######################################################################
#
# If this CIF has been generated from an entry in the Cambridge
# Structural Database, then it will include bibliographic, chemical,
# crystal, experimental, refinement or atomic coordinate data resulting
# from the CCDC's data processing and validation procedures.
#
#######################################################################

data_CSD_CIF_VEHTOU
_audit_creation_date 2017-09-12
_audit_creation_method CSD-ConQuest-V1
_database_code_CSD VEHTOU
_database_code_depnum_ccdc_archive 'CCDC 1549344'
_chemical_formula_sum 'C19 H17 N1 O4'
_chemical_formula_moiety
;
C19 H17 N1 O4
;
_journal_coden_Cambridge 1366
_journal_volume 359
_journal_year 2017
_journal_page_first 3311
_journal_name_full 'Adv.Synth.Catal. '
loop_
_publ_author_name
"S.S.Giri"
"Rai-Shung Liu"
_chemical_name_systematic
;
6,6-dimethyl-4-(4-nitrophenyl)-3-phenyl-5,6-dihydro-2H-pyran-2-one
;
_cell_volume    804.772
_exptl_crystal_colour 'colorless'
_exptl_crystal_density_diffrn 1.334
_exptl_crystal_description 'prism'
_diffrn_ambient_temperature 200
#These two values have been output from a single CSD field.
_refine_ls_R_factor_gt 0.0477
_refine_ls_wR_factor_gt 0.0477
_symmetry_cell_setting triclinic
_symmetry_space_group_name_H-M 'P 1'
_symmetry_Int_Tables_number 1
loop_
_symmetry_equiv_pos_site_id
_symmetry_equiv_pos_as_xyz
1 x,y,z
_cell_length_a 5.8255(5)
_cell_length_b 11.6538(9)
_cell_length_c 12.2798(10)
_cell_angle_alpha 75.465(2)
_cell_angle_beta 87.371(3)
_cell_angle_gamma 86.117(2)
_cell_formula_units_Z 2
loop_
_atom_type_symbol
_atom_type_radius_bond
C 0.68
H 0.23
N 0.68
O 0.68
loop_
_atom_site_label
_atom_site_type_symbol
_atom_site_fract_x
_atom_site_fract_y
_atom_site_fract_z
C1 C 0.3292(6) 0.6649(3) 0.1555(3)
C2 C 0.5336(6) 0.6270(3) 0.2093(3)
H1 H 0.59240 0.54700 0.22040
C3 C 0.6507(5) 0.7086(3) 0.2467(3)
H2 H 0.79090 0.68400 0.28470
C4 C 0.5655(5) 0.8267(3) 0.2292(2)
C5 C 0.3612(6) 0.8606(3) 0.1730(3)
H3 H 0.30210 0.94070 0.15980
C6 C 0.2420(6) 0.7795(3) 0.1356(3)
H4 H 0.10240 0.80330 0.09700
C7 C 0.6951(5) 0.9136(2) 0.2680(2)
C8 C 0.7799(5) 0.8918(3) 0.3716(3)
C9 C 0.7299(5) 0.7859(3) 0.4642(2)
C10 C 0.5129(5) 0.7782(3) 0.5166(3)
H5 H 0.39930 0.84130 0.49460
C11 C 0.4619(6) 0.6785(3) 0.6008(3)
H6 H 0.31320 0.67350 0.63630
C12 C 0.6250(6) 0.5869(3) 0.6332(3)
H7 H 0.58850 0.51840 0.69030
C13 C 0.8398(6) 0.5942(3) 0.5835(3)
H8 H 0.95270 0.53100 0.60660
C14 C 0.8938(5) 0.6933(2) 0.4995(3)
H9 H 1.04400 0.69790 0.46570
C15 C 0.9332(5) 0.9756(3) 0.3999(3)
C16 C 0.7934(6) 1.1271(3) 0.2378(3)
C17 C 0.9208(7) 1.2230(3) 0.1555(3)
H10 H 1.06460 1.18820 0.12970
H11 H 0.95570 1.28470 0.19270
H12 H 0.82450 1.25810 0.09080
C18 C 0.5827(6) 1.1757(3) 0.2889(3)
H13 H 0.47970 1.21800 0.22910
H14 H 0.62690 1.23060 0.33200
H15 H 0.50330 1.11030 0.33920
C19 C 0.7437(6) 1.0280(3) 0.1840(3)
H16 H 0.60940 1.05370 0.13530
H17 H 0.87750 1.01380 0.13540
N1 N 0.2034(6) 0.5779(3) 0.1169(3)
O1 O 0.0315(5) 0.6138(3) 0.0616(3)
O2 O 0.2757(5) 0.4735(2) 0.1424(2)
O3 O 1.0440(4) 0.95223(18) 0.48480(17)
O4 O 0.9613(4) 1.08084(18) 0.32690(19)
C20 C 0.2266(5) 0.3279(3) 0.4946(2)
C21 C 0.4205(6) 0.3707(3) 0.5257(3)
H18 H 0.45910 0.45030 0.49350
C22 C 0.5585(6) 0.2956(3) 0.6050(3)
H19 H 0.69180 0.32470 0.62810
C23 C 0.5064(5) 0.1777(2) 0.6519(2)
C24 C 0.3093(5) 0.1382(3) 0.6162(3)
H20 H 0.27120 0.05820 0.64640
C25 C 0.1677(6) 0.2128(3) 0.5378(3)
H21 H 0.03320 0.18500 0.51450
C26 C 0.6650(5) 0.0959(3) 0.7311(2)
C27 C 0.7783(5) 0.1262(3) 0.8127(2)
C28 C 0.7347(5) 0.2395(3) 0.8482(3)
C29 C 0.5248(6) 0.2624(3) 0.8988(3)
H22 H 0.40730 0.20790 0.90730
C30 C 0.4851(6) 0.3649(3) 0.9373(3)
H23 H 0.34080 0.38070 0.97160
C31 C 0.6574(6) 0.4436(3) 0.9253(3)
H24 H 0.63150 0.51330 0.95190
C32 C 0.8645(6) 0.4218(3) 0.8753(3)
H25 H 0.98140 0.47660 0.86720
C33 C 0.9048(6) 0.3206(3) 0.8364(3)
H26 H 1.04920 0.30620 0.80150
C34 C 0.9586(6) 0.0440(3) 0.8746(3)
C35 C 0.8034(6) -0.1169(3) 0.8123(3)
C36 C 0.9231(7) -0.2232(3) 0.7788(3)
H27 H 0.81280 -0.26170 0.74390
H28 H 0.98380 -0.27970 0.84590
H29 H 1.05000 -0.19670 0.72510
C37 C 0.6145(7) -0.1519(3) 0.9019(3)
H30 H 0.54290 -0.08040 0.92070
H31 H 0.68090 -0.20500 0.96950
H32 H 0.49790 -0.19270 0.87330
C38 C 0.7171(6) -0.0245(3) 0.7094(3)
H33 H 0.83480 -0.01810 0.64780
H34 H 0.57580 -0.05150 0.68410
N2 N 0.0786(5) 0.4087(2) 0.4105(2)
O5 O 0.1343(4) 0.5105(2) 0.37348(19)
O6 O -0.0929(4) 0.3707(2) 0.3825(2)
O7 O 1.0919(4) 0.07270(19) 0.9349(2)
O8 O 0.9866(4) -0.06817(17) 0.86196(18)
#END
