
#######################################################################
#
#                 Cambridge Crystallographic Data Centre
#                                CCDC
#
#######################################################################
#
# If this CIF has been generated from an entry in the Cambridge
# Structural Database, then it will include bibliographic, chemical,
# crystal, experimental, refinement or atomic coordinate data resulting
# from the CCDC's data processing and validation procedures.
#
#######################################################################

data_CSD_CIF_VEJDAP
_audit_creation_date 1990-11-19
_audit_creation_method CSD-ConQuest-V1
_database_code_CSD VEJDAP
_chemical_formula_sum 'C14 H18 N1 O2'
_chemical_formula_moiety
;
C14 H18 N1 O2
;
_journal_coeditor_code "IUCr HU0262"
_journal_coden_Cambridge 591
_journal_volume 46
_journal_year 1990
_journal_page_first 776
_journal_name_full 'Acta Crystallogr.,Sect.C:Cryst.Struct.Commun. '
loop_
_publ_author_name
"V.A.Igonin"
"V.E.Shklover"
"Yu.T.Struchkov"
"O.L.Lazareva"
"G.A.Vinogradov"
_chemical_name_systematic
;
5-(2,2,6,6-Tetramethyl-1-oxyl-1,2,5,6-tetrahydropyridin-4-yl)-penta-2,4-diyn-1
-ol
;
_cell_volume   1297.372
_exptl_crystal_density_diffrn 1.19
_diffrn_ambient_temperature 150
#These two values have been output from a single CSD field.
_refine_ls_R_factor_gt 0.044
_refine_ls_wR_factor_gt 0.044
_symmetry_cell_setting monoclinic
_symmetry_space_group_name_H-M 'P 21/n'
_symmetry_Int_Tables_number 14
loop_
_symmetry_equiv_pos_site_id
_symmetry_equiv_pos_as_xyz
1 x,y,z
2 1/2-x,1/2+y,1/2-z
3 -x,-y,-z
4 -1/2+x,-1/2-y,-1/2+z
_cell_length_a 5.760(1)
_cell_length_b 22.064(4)
_cell_length_c 10.520(1)
_cell_angle_alpha 90
_cell_angle_beta 103.98(1)
_cell_angle_gamma 90
_cell_formula_units_Z 4
loop_
_atom_type_symbol
_atom_type_radius_bond
C 0.68
H 0.23
N 0.68
O 0.68
loop_
_atom_site_label
_atom_site_type_symbol
_atom_site_fract_x
_atom_site_fract_y
_atom_site_fract_z
O1 O 0.1629(5) 0.8146(1) 0.9398(2)
O2 O 1.1734(4) 0.8806(1) 0.1601(2)
N1 N 1.0318(5) 0.8799(3) 0.2369(3)
C1 C 0.0755(7) 0.8615(2) 0.8491(4)
C2 C 0.2365(7) 0.8719(2) 0.7625(4)
C3 C 0.3615(6) 0.8778(2) 0.6888(3)
C4 C 0.5002(6) 0.8817(2) 0.5979(3)
C5 C 0.6165(6) 0.8837(2) 0.5190(3)
C6 C 0.7570(6) 0.8837(2) 0.4229(3)
C7 C 0.8877(7) 0.8269(2) 0.4076(4)
C8 C 0.9430(6) 0.8204(2) 0.2728(3)
C9 C 0.9183(6) 0.9386(2) 0.2542(3)
C10 C 0.7734(7) 0.9335(2) 0.3531(4)
C11 C 0.7209(7) 0.8027(2) 0.1680(4)
C12 C 1.1391(6) 0.7737(2) 0.2840(4)
C13 C 1.1185(6) 0.9851(2) 0.2990(4)
C14 C 0.7526(7) 0.9579(2) 0.1218(4)
H1 H 0.165(6) 0.831(2) 1.015(2)
H2 H -0.117(6) 0.854(2) 0.785(4)
H3 H 0.056(6) 0.896(2) 0.890(3)
H4 H 1.075(8) 0.832(2) 0.481(5)
H5 H 0.775(5) 0.794(1) 0.414(3)
H6 H 0.683(5) 0.974(1) 0.355(3)
H7 H 0.667(6) 0.764(6) 0.175(3)
H8 H 0.558(6) 0.833(2) 0.172(4)
H9 H 0.754(5) 0.803(1) 0.082(3)
H10 H 1.304(6) 0.790(2) 0.342(3)
H11 H 1.200(6) 0.767(1) 0.206(3)
H12 H 1.093(5) 0.737(1) 0.323(3)
H13 H 1.186(6) 0.987(2) 0.218(3)
H14 H 1.042(6) 1.021(1) 0.306(3)
H15 H 1.249(5) 0.967(1) 0.391(3)
H16 H 0.870(7) 0.958(2) 0.067(4)
H17 H 0.590(8) 0.925(2) 0.112(5)
H18 H 0.677(6) 0.992(2) 0.134(4)
#END
