
#######################################################################
#
#                 Cambridge Crystallographic Data Centre
#                                CCDC
#
#######################################################################
#
# If this CIF has been generated from an entry in the Cambridge
# Structural Database, then it will include bibliographic, chemical,
# crystal, experimental, refinement or atomic coordinate data resulting
# from the CCDC's data processing and validation procedures.
#
#######################################################################

data_CSD_CIF_VEJLAZ
_audit_creation_date 2013-02-01
_audit_creation_method CSD-ConQuest-V1
_database_code_CSD VEJLAZ
_database_code_depnum_ccdc_archive 'CCDC 872182'
_chemical_formula_sum 'C27 H23 N3 O6'
_chemical_formula_moiety
;
C27 H23 N3 O6
;
_journal_coden_Cambridge 182
_journal_volume 48
_journal_year 2012
_journal_page_first 8664
_journal_name_full 'Chem.Commun. '
loop_
_publ_author_name
"Xiao-nan Zhang"
"Hong-Ping Deng"
"Long Huang"
"Yin Wei"
"Min Shi"
_chemical_name_systematic
;
Methyl 
3,3-dicyano-4-(3-ethoxy-3-oxoprop-1-en-2-yl)-2-(4-methylphenyl)-4-(4-nitrophen
yl)cyclopent-1-ene-1-carboxylate
;
_cell_volume   2519.901
_exptl_crystal_colour 'colorless'
_exptl_crystal_density_diffrn 1.28
_exptl_special_details
;
Absolute configuration

;
_exptl_crystal_description 'block'
_diffrn_ambient_temperature 293
#These two values have been output from a single CSD field.
_refine_ls_R_factor_gt 0.0404
_refine_ls_wR_factor_gt 0.0404
_symmetry_cell_setting orthorhombic
_symmetry_space_group_name_H-M 'P 21 21 21'
_symmetry_Int_Tables_number 19
loop_
_symmetry_equiv_pos_site_id
_symmetry_equiv_pos_as_xyz
1 x,y,z
2 1/2+x,1/2-y,-z
3 -x,1/2+y,1/2-z
4 1/2-x,-y,1/2+z
_cell_length_a 10.2839(4)
_cell_length_b 15.4819(6)
_cell_length_c 15.8271(5)
_cell_angle_alpha 90
_cell_angle_beta 90
_cell_angle_gamma 90
_cell_formula_units_Z 4
loop_
_atom_type_symbol
_atom_type_radius_bond
C 0.68
H 0.23
N 0.68
O 0.68
loop_
_atom_site_label
_atom_site_type_symbol
_atom_site_fract_x
_atom_site_fract_y
_atom_site_fract_z
N1 N -0.0531(2) 0.11782(11) 0.25123(11)
N2 N 0.33473(18) 0.20982(14) 0.28277(14)
N3 N -0.49140(17) 0.40659(14) 0.21992(15)
O1 O 0.0287(2) 0.24053(12) 0.40115(9)
O2 O 0.12181(18) 0.33862(11) 0.48229(9)
O3 O 0.2151(2) 0.44174(11) 0.0118(1)
O4 O 0.10912(14) 0.33019(8) -0.04325(7)
O5 O -0.55298(14) 0.36559(15) 0.16908(13)
O6 O -0.5390(2) 0.4616(2) 0.2632(2)
C1 C 0.06046(15) 0.34169(9) 0.25052(9)
C2 C 0.10480(14) 0.24686(9) 0.22236(9)
C3 C 0.12484(13) 0.25443(9) 0.12532(9)
C4 C 0.13142(13) 0.33759(9) 0.10469(9)
C5 C 0.12081(14) 0.39777(9) 0.17866(9)
H1 H 0.06500 0.44640 0.16530
H2 H 0.20580 0.41930 0.19500
C6 C 0.11302(16) 0.36710(11) 0.33743(10)
C7 C 0.17682(19) 0.43959(13) 0.35154(12)
H3 H 0.20270 0.45370 0.40610
H4 H 0.19590 0.47660 0.30690
C8 C 0.08236(19) 0.30774(12) 0.40898(11)
C9 C 0.1034(4) 0.2843(2) 0.55658(14)
H5 H 0.14360 0.22830 0.54800
H6 H 0.01150 0.27580 0.56750
C10 C 0.1650(4) 0.3294(3) 0.62776(17)
H7 H 0.25600 0.33670 0.61640
H8 H 0.15410 0.29600 0.67840
H9 H 0.12500 0.38500 0.63500
C11 C -0.08797(15) 0.35282(10) 0.24633(9)
C12 C -0.16227(15) 0.31737(11) 0.18141(10)
H10 H -0.12250 0.28080 0.14260
C13 C -0.29301(16) 0.33492(11) 0.17313(11)
H11 H -0.34050 0.31090 0.12900
C14 C -0.35201(17) 0.38789(13) 0.23026(13)
C15 C -0.2819(2) 0.42456(17) 0.29539(16)
H12 H -0.32270 0.46070 0.33410
C16 C -0.15137(19) 0.40733(15) 0.30261(14)
H13 H -0.10430 0.43270 0.34620
C17 C 0.01383(17) 0.17585(10) 0.24207(10)
C18 C 0.23344(16) 0.22518(11) 0.25902(11)
C19 C 0.14923(15) 0.17561(10) 0.07458(9)
C20 C 0.27591(17) 0.15107(12) 0.05719(11)
H14 H 0.34460 0.18600 0.07440
C21 C 0.3010(2) 0.07451(13) 0.01418(13)
H15 H 0.38660 0.05820 0.00380
C22 C 0.2010(2) 0.02245(11) -0.01334(12)
C23 C 0.0748(2) 0.04743(12) 0.00343(12)
H16 H 0.00640 0.01280 -0.01480
C24 C 0.04809(17) 0.12318(12) 0.04694(11)
H17 H -0.03760 0.13890 0.05760
C25 C 0.2288(4) -0.05996(16) -0.06181(19)
H18 H 0.19650 -0.05450 -0.11850
H19 H 0.18650 -0.10760 -0.03440
H20 H 0.32090 -0.07000 -0.06320
C26 C 0.15801(16) 0.37561(10) 0.02006(10)
C27 C 0.1188(2) 0.37047(14) -0.12595(12)
H21 H 0.07930 0.42660 -0.12420
H22 H 0.07490 0.33530 -0.16700
H23 H 0.20870 0.37610 -0.14130
#END
