
#######################################################################
#
#                 Cambridge Crystallographic Data Centre
#                                CCDC
#
#######################################################################
#
# If this CIF has been generated from an entry in the Cambridge
# Structural Database, then it will include bibliographic, chemical,
# crystal, experimental, refinement or atomic coordinate data resulting
# from the CCDC's data processing and validation procedures.
#
#######################################################################

data_CSD_CIF_VEJVOW
_audit_creation_date 2006-09-28
_audit_creation_method CSD-ConQuest-V1
_database_code_CSD VEJVOW
_database_code_depnum_ccdc_archive 'CCDC 277840'
_chemical_formula_sum 'C9 H18 N2 O3'
_chemical_formula_moiety
;
C9 H18 N2 O3
;
_journal_coden_Cambridge 1291
_journal_year 2006
_journal_page_first 2695
_journal_name_full 'Eur.J.Org.Chem. '
loop_
_publ_author_name
"E.Tretyakov"
"G.Romanenko"
"A.Podoplelov"
"V.Ovcharenko"
_chemical_name_systematic
;
2,2,3,3-Tetramethyl-1,2,3,6,7,7a-hexahydroimidazo(1,2-b)isoxazole-1,6-diol
;
_chemical_melting_point 443.15
_cell_volume   1049.784
_exptl_crystal_colour 'pale yellow'
_exptl_crystal_density_diffrn 1.28
_exptl_special_details
;
Melts with decomposition.
Study temperature given as 513 K in the cif

;
_diffrn_ambient_temperature 293
#These two values have been output from a single CSD field.
_refine_ls_R_factor_gt 0.0549
_refine_ls_wR_factor_gt 0.0549
_symmetry_cell_setting monoclinic
_symmetry_space_group_name_H-M 'P 21/c'
_symmetry_Int_Tables_number 14
loop_
_symmetry_equiv_pos_site_id
_symmetry_equiv_pos_as_xyz
1 x,y,z
2 -x,1/2+y,1/2-z
3 -x,-y,-z
4 x,-1/2-y,-1/2+z
_cell_length_a 11.963(3)
_cell_length_b 7.1389(18)
_cell_length_c 13.626(3)
_cell_angle_alpha 90
_cell_angle_beta 115.563(4)
_cell_angle_gamma 90
_cell_formula_units_Z 4
loop_
_atom_type_symbol
_atom_type_radius_bond
C 0.68
H 0.23
N 0.68
O 0.68
loop_
_atom_site_label
_atom_site_type_symbol
_atom_site_fract_x
_atom_site_fract_y
_atom_site_fract_z
O1 O 0.45867(13) 0.3077(2) 0.43522(12)
H1 H 0.520(2) 0.388(3) 0.459(2)
N1 N 0.37189(13) 0.39090(19) 0.47052(12)
C1 C 0.33968(16) 0.2551(2) 0.53781(14)
C2 C 0.4437(2) 0.2487(4) 0.65251(19)
H2 H 0.412(2) 0.184(4) 0.699(2)
H3 H 0.478(2) 0.381(3) 0.6863(19)
H4 H 0.514(2) 0.174(4) 0.656(2)
C3 C 0.3170(2) 0.0579(3) 0.4895(2)
H5 H 0.392(2) 0.007(3) 0.4844(19)
H6 H 0.250(2) 0.054(3) 0.419(2)
H7 H 0.297(2) -0.029(4) 0.541(2)
C4 C 0.21868(17) 0.3493(2) 0.52920(14)
C5 C 0.2442(3) 0.5272(4) 0.5981(2)
H8 H 0.168(3) 0.593(4) 0.582(2)
H9 H 0.296(2) 0.615(3) 0.583(2)
H10 H 0.280(2) 0.498(3) 0.670(2)
C6 C 0.1356(2) 0.2200(4) 0.5583(2)
H11 H 0.065(2) 0.281(4) 0.5480(19)
H12 H 0.184(2) 0.172(4) 0.637(2)
H13 H 0.115(2) 0.107(3) 0.517(2)
N2 N 0.15661(13) 0.3859(2) 0.40851(12)
O2 O 0.08315(14) 0.5574(2) 0.38700(13)
C7 C 0.25499(15) 0.4220(2) 0.37297(14)
H14 H 0.2489(17) 0.331(3) 0.3187(16)
C8 C 0.2352(2) 0.6207(3) 0.3292(2)
H15 H 0.244(2) 0.635(3) 0.262(2)
H16 H 0.287(2) 0.700(3) 0.382(2)
C9 C 0.10324(19) 0.6626(3) 0.30748(17)
H17 H 0.0858(19) 0.795(3) 0.3181(16)
O3 O 0.02219(15) 0.6070(2) 0.20311(12)
H18 H -0.035(2) 0.699(4) 0.171(2)
#END
