
#######################################################################
#
#                 Cambridge Crystallographic Data Centre
#                                CCDC
#
#######################################################################
#
# If this CIF has been generated from an entry in the Cambridge
# Structural Database, then it will include bibliographic, chemical,
# crystal, experimental, refinement or atomic coordinate data resulting
# from the CCDC's data processing and validation procedures.
#
#######################################################################

data_CSD_CIF_VEKKUS
_audit_creation_date 2006-09-28
_audit_creation_method CSD-ConQuest-V1
_database_code_CSD VEKKUS
_database_code_depnum_ccdc_archive 'CCDC 294509'
_chemical_formula_sum 'C58 H40 N8 O16'
_chemical_formula_moiety
;
C58 H40 N8 O16
;
_journal_coden_Cambridge 16
_journal_volume 62
_journal_year 2006
_journal_page_first 7854
_journal_name_full 'Tetrahedron '
loop_
_publ_author_name
"H.M.Chawla"
"S.P.Singh"
"S.N.Sahu"
"S.Upreti"
_chemical_name_systematic
;
5,17-bis(2',4'-Dinitrophenylazo)-25,27-diacetoxy-26,28-bis(benzoyloxy)calix(4)
arene
;
_chemical_melting_point 543.15
_cell_volume   2610.563
_exptl_crystal_colour 'red'
_exptl_crystal_density_diffrn 1.406
_exptl_special_details
;
Melts above 543.15K
1,3-alternate conformer

;
_exptl_crystal_description 'block'
_diffrn_ambient_temperature 298
#These two values have been output from a single CSD field.
_refine_ls_R_factor_gt 0.0929
_refine_ls_wR_factor_gt 0.0929
_symmetry_cell_setting triclinic
_symmetry_space_group_name_H-M 'P -1'
_symmetry_Int_Tables_number 2
loop_
_symmetry_equiv_pos_site_id
_symmetry_equiv_pos_as_xyz
1 x,y,z
2 -x,-y,-z
_cell_length_a 11.229(3)
_cell_length_b 14.397(4)
_cell_length_c 17.555(5)
_cell_angle_alpha 103.152(5)
_cell_angle_beta 102.341(5)
_cell_angle_gamma 101.175(6)
_cell_formula_units_Z 2
loop_
_atom_type_symbol
_atom_type_radius_bond
C 0.68
H 0.23
N 0.68
O 0.68
loop_
_atom_site_label
_atom_site_type_symbol
_atom_site_fract_x
_atom_site_fract_y
_atom_site_fract_z
O1 O 0.2259(3) 0.6410(2) 0.0755(2)
O2 O 0.0652(4) 0.5805(3) -0.0371(3)
O3 O 0.1688(6) 1.2813(4) 0.0773(4)
O4 O 0.0957(5) 1.1249(4) 0.0260(3)
O5 O -0.1224(6) 1.4213(4) 0.2116(4)
O6 O -0.1428(5) 1.3777(3) 0.3175(3)
O7 O 0.2956(3) 0.7982(2) 0.3200(2)
O8 O 0.1423(4) 0.7502(3) 0.3770(2)
O9 O 0.6222(4) 0.7312(3) 0.2594(2)
O10 O 0.8257(6) 0.7486(5) 0.3082(6)
O11 O 0.9798(4) 1.2387(3) 0.4781(3)
O12 O 1.0770(5) 1.3870(4) 0.5480(4)
O13 O 0.8485(5) 1.6244(4) 0.6244(4)
O14 O 0.6589(5) 1.6009(3) 0.5620(4)
O15 O 0.4842(3) 0.9226(2) 0.1315(2)
O16 O 0.6214(5) 1.0155(3) 0.0845(3)
N1 N 0.0397(4) 0.9669(3) 0.1657(3)
N2 N 0.0874(4) 1.0442(3) 0.1500(3)
N3 N 0.1076(5) 1.2022(4) 0.0767(3)
N4 N -0.1140(5) 1.3663(4) 0.2538(4)
N5 N 0.6672(4) 1.1199(3) 0.4255(3)
N6 N 0.7419(5) 1.1845(3) 0.4088(3)
N7 N 0.9810(5) 1.3235(4) 0.5096(3)
N8 N 0.7531(6) 1.5725(4) 0.5761(4)
C1 C 0.1814(5) 0.7246(3) 0.0971(3)
C2 C 0.2112(5) 0.8019(4) 0.0624(3)
C3 C 0.1658(5) 0.8835(4) 0.0864(3)
H1 H 0.18460 0.93660 0.06530
C4 C 0.0930(5) 0.8879(4) 0.1411(3)
C5 C 0.0672(4) 0.8104(3) 0.1739(3)
H2 H 0.01760 0.81330 0.21000
C6 C 0.1131(5) 0.7287(4) 0.1544(3)
C7 C 0.0926(5) 0.6459(4) 0.1944(3)
H3 H 0.04300 0.66140 0.23230
H4 H 0.04400 0.58560 0.15290
C8 C 0.2125(5) 0.6274(3) 0.2395(3)
C9 C 0.2316(6) 0.5331(4) 0.2221(4)
H5 H 0.16960 0.48180 0.18310
C10 C 0.3400(6) 0.5141(4) 0.2612(4)
H6 H 0.35060 0.45040 0.24880
C11 C 0.4325(6) 0.5887(4) 0.3186(4)
H7 H 0.50500 0.57480 0.34530
C12 C 0.4201(5) 0.6848(4) 0.3375(3)
C13 C 0.3074(5) 0.7000(3) 0.2988(3)
C14 C 0.5255(5) 0.7680(4) 0.3977(3)
H8 H 0.59120 0.73970 0.42110
H9 H 0.49290 0.79800 0.44150
C15 C 0.5852(5) 0.8488(4) 0.3650(3)
C16 C 0.5973(5) 0.9466(4) 0.4046(3)
H10 H 0.56600 0.96190 0.44960
C17 C 0.6563(5) 1.0220(4) 0.3772(3)
C18 C 0.6978(5) 0.9997(4) 0.3083(3)
H11 H 0.73500 1.05060 0.28980
C19 C 0.6853(5) 0.9036(4) 0.2666(3)
C20 C 0.6328(5) 0.8304(4) 0.2985(3)
C21 C 0.7256(5) 0.8798(4) 0.1891(3)
H12 H 0.75880 0.94130 0.17800
H13 H 0.79380 0.84780 0.19790
C22 C 0.6244(5) 0.8152(4) 0.1153(3)
C23 C 0.6440(6) 0.7300(4) 0.0682(4)
H14 H 0.72070 0.71410 0.08230
C24 C 0.5511(6) 0.6696(5) 0.0013(4)
H15 H 0.56650 0.61430 -0.03030
C25 C 0.4364(6) 0.6894(4) -0.0196(3)
H16 H 0.37350 0.64590 -0.06370
C26 C 0.4122(5) 0.7738(4) 0.0242(3)
C27 C 0.5091(5) 0.8361(4) 0.0888(3)
C28 C 0.2858(5) 0.7972(4) 0.0001(3)
H17 H 0.29990 0.86020 -0.01220
H18 H 0.23480 0.74760 -0.04950
C29 C 0.0308(5) 1.1221(4) 0.1752(3)
C30 C 0.0422(5) 1.2000(4) 0.1405(3)
C31 C -0.0048(5) 1.2794(4) 0.1645(3)
H19 H 0.00130 1.32990 0.13950
C32 C -0.0608(5) 1.2819(4) 0.2262(4)
C33 C -0.0726(5) 1.2089(4) 0.2649(4)
H20 H -0.11130 1.21280 0.30700
C34 C -0.0248(5) 1.1300(4) 0.2389(4)
H21 H -0.02990 1.08030 0.26490
C35 C 0.2075(6) 0.8144(4) 0.3611(3)
C36 C 0.2015(5) 0.9192(4) 0.3803(3)
C37 C 0.1001(7) 0.9410(5) 0.4084(4)
H22 H 0.03850 0.89090 0.41320
C38 C 0.0919(8) 1.0376(5) 0.4292(4)
H23 H 0.02340 1.05230 0.44670
C39 C 0.1824(8) 1.1104(5) 0.4241(4)
H24 H 0.17690 1.17530 0.43950
C40 C 0.2812(6) 1.0908(4) 0.3971(4)
H25 H 0.34350 1.14200 0.39440
C41 C 0.2898(6) 0.9933(4) 0.3731(4)
H26 H 0.35590 0.97930 0.35230
C42 C 0.7467(6) 1.2827(4) 0.4547(3)
C43 C 0.8598(5) 1.3508(4) 0.5003(3)
C44 C 0.8631(6) 1.4452(4) 0.5410(4)
H27 H 0.93860 1.48960 0.57280
C45 C 0.7513(6) 1.4718(4) 0.5333(4)
C46 C 0.6379(6) 1.4081(4) 0.4890(4)
H28 H 0.56340 1.42810 0.48540
C47 C 0.6372(6) 1.3134(4) 0.4498(4)
H29 H 0.56090 1.26910 0.41920
C48 C 0.5460(6) 1.0104(4) 0.1234(4)
C49 C 0.5094(6) 1.0961(4) 0.1693(4)
C50 C 0.5773(8) 1.1879(5) 0.1741(4)
H30 H 0.64380 1.19470 0.15030
C51 C 0.5468(10) 1.2712(5) 0.2145(5)
H31 H 0.59430 1.33380 0.21940
C52 C 0.4460(9) 1.2604(6) 0.2472(5)
H32 H 0.42400 1.31580 0.27320
C53 C 0.3783(7) 1.1688(6) 0.2415(4)
H33 H 0.30960 1.16160 0.26330
C54 C 0.4116(6) 1.0858(5) 0.2032(4)
H34 H 0.36670 1.02320 0.20070
C55 C 0.1567(6) 0.5710(4) 0.0060(4)
C56 C 0.2109(6) 0.4821(4) -0.0045(4)
H35 H 0.16090 0.43130 0.01110
H36 H 0.29600 0.50050 0.02910
H37 H 0.21010 0.45800 -0.06030
C57 C 0.7250(8) 0.6961(6) 0.2700(6)
C58 C 0.6992(9) 0.5901(5) 0.2274(6)
H38 H 0.76410 0.57960 0.20100
H39 H 0.61900 0.56950 0.18750
H40 H 0.69780 0.55240 0.26600
#END
