
#######################################################################
#
#                 Cambridge Crystallographic Data Centre
#                                CCDC
#
#######################################################################
#
# If this CIF has been generated from an entry in the Cambridge
# Structural Database, then it will include bibliographic, chemical,
# crystal, experimental, refinement or atomic coordinate data resulting
# from the CCDC's data processing and validation procedures.
#
#######################################################################

data_CSD_CIF_VELFAW
_audit_creation_date 2018-01-19
_audit_creation_method CSD-ConQuest-V1
_database_code_CSD VELFAW
_database_code_depnum_ccdc_archive 'CCDC 1818001'
_chemical_formula_sum 'C13 H15 N1 O2'
_chemical_formula_moiety
;
C13 H15 N1 O2
;
_journal_coden_Cambridge 1078
_journal_year 2018
_journal_name_full 'CSD Communication(Private Communication) '
loop_
_publ_author_name
"XieXue peng"
_chemical_name_systematic
;
3-phenyl-3a,4,5,6,7,7a-hexahydro-1,2-benzoxazol-7-ol
;
_cell_volume   2205.408
_exptl_crystal_colour 'colorless'
_exptl_crystal_density_diffrn 1.309
_exptl_crystal_description 'block'
_diffrn_ambient_temperature 150.0
#These two values have been output from a single CSD field.
_refine_ls_R_factor_gt 0.0456
_refine_ls_wR_factor_gt 0.0456
_symmetry_cell_setting monoclinic
_symmetry_space_group_name_H-M 'P 21/n'
_symmetry_Int_Tables_number 14
loop_
_symmetry_equiv_pos_site_id
_symmetry_equiv_pos_as_xyz
1 x,y,z
2 1/2-x,1/2+y,1/2-z
3 -x,-y,-z
4 -1/2+x,-1/2-y,-1/2+z
_cell_length_a 10.9209(8)
_cell_length_b 11.7547(9)
_cell_length_c 17.8981(13)
_cell_angle_alpha 90
_cell_angle_beta 106.287(3)
_cell_angle_gamma 90
_cell_formula_units_Z 8
loop_
_atom_type_symbol
_atom_type_radius_bond
C 0.68
H 0.23
N 0.68
O 0.68
loop_
_atom_site_label
_atom_site_type_symbol
_atom_site_fract_x
_atom_site_fract_y
_atom_site_fract_z
O1 O 0.23142(11) 0.70261(10) 0.65031(7)
C1 C 0.46754(16) 1.02730(14) 0.63507(10)
H1 H 0.52499 0.97486 0.62256
N1 N 0.22796(13) 0.82374(11) 0.65809(8)
O2 O 0.50521(11) 0.51767(9) 0.66051(7)
H2 H 0.55714 0.56325 0.64986
C2 C 0.49350(18) 1.14236(15) 0.63641(10)
H3 H 0.56794 1.16889 0.62439
C3 C 0.41032(19) 1.21914(14) 0.65541(10)
H4 H 0.42701 1.29847 0.65556
C4 C 0.33178(14) 0.86428(13) 0.64821(9)
C5 C 0.35824(15) 0.98721(13) 0.65182(9)
C6 C 0.27595(17) 1.06470(14) 0.67201(9)
H5 H 0.20159 1.03846 0.68426
C7 C 0.30313(18) 1.18000(15) 0.67412(10)
H6 H 0.24771 1.23260 0.68853
C8 C 0.41507(15) 0.77493(13) 0.62684(9)
H7 H 0.50756 0.78872 0.65293
C9 C 0.38728(18) 0.76895(14) 0.53757(10)
H8 H 0.29583 0.78515 0.51312
H9 H 0.43781 0.82793 0.52009
C10 C 0.42001(18) 0.65230(15) 0.51096(10)
H10 H 0.39941 0.65060 0.45347
H11 H 0.51246 0.63756 0.53259
C11 C 0.34425(18) 0.56096(15) 0.53855(11)
H12 H 0.25192 0.57617 0.51680
H13 H 0.36281 0.48589 0.51912
C12 C 0.37721(15) 0.55787(13) 0.62672(10)
H14 H 0.31717 0.50416 0.64176
C13 C 0.36460(15) 0.67373(13) 0.66168(10)
H15 H 0.40816 0.67111 0.71881
N2 N 0.76871(13) 0.15969(11) 0.84342(8)
O3 O 0.55133(12) 0.50917(10) 0.82251(7)
H16 H 0.53930 0.50740 0.77406
O4 O 0.78470(11) 0.28026(9) 0.84515(7)
C14 C 0.67870(16) -0.07202(14) 0.82845(10)
H17 H 0.75080 -0.05743 0.81009
C15 C 0.63936(17) -0.18269(14) 0.83403(10)
H18 H 0.68452 -0.24385 0.81930
C16 C 0.53469(18) -0.20510(14) 0.86093(10)
H19 H 0.50959 -0.28141 0.86609
C17 C 0.46690(17) -0.11597(14) 0.88021(10)
H20 H 0.39424 -0.13113 0.89790
C18 C 0.50429(16) -0.00457(14) 0.87391(10)
H21 H 0.45594 0.05628 0.88609
C19 C 0.61233(15) 0.01867(13) 0.84982(9)
C20 C 0.65595(14) 0.13681(13) 0.84871(9)
C21 C 0.58361(15) 0.24175(13) 0.86103(9)
H22 H 0.49208 0.23813 0.82979
C22 C 0.59646(17) 0.25783(14) 0.94863(9)
H23 H 0.53062 0.21186 0.96308
H24 H 0.68120 0.23033 0.97957
C23 C 0.58113(18) 0.38263(15) 0.96785(10)
H25 H 0.49522 0.40964 0.93854
H26 H 0.58947 0.39066 1.02412
C24 C 0.68192(18) 0.45410(15) 0.94661(11)
H27 H 0.76764 0.42550 0.97492
H28 H 0.67514 0.53385 0.96279
C25 C 0.66641(16) 0.45022(14) 0.85981(10)
H29 H 0.74013 0.48979 0.84830
C26 C 0.65687(14) 0.32884(13) 0.82801(9)
H30 H 0.61955 0.33171 0.77024
#END
