
#######################################################################
#
#                 Cambridge Crystallographic Data Centre
#                                CCDC
#
#######################################################################
#
# If this CIF has been generated from an entry in the Cambridge
# Structural Database, then it will include bibliographic, chemical,
# crystal, experimental, refinement or atomic coordinate data resulting
# from the CCDC's data processing and validation procedures.
#
#######################################################################

data_CSD_CIF_VELTIQ
_audit_creation_date 2006-09-28
_audit_creation_method CSD-ConQuest-V1
_database_code_CSD VELTIQ
_database_code_depnum_ccdc_archive 'CCDC 619029'
_chemical_formula_sum 'C14 H8 N2 O7'
_chemical_formula_moiety
;
C14 H8 N2 O7
;
_journal_coeditor_code "IUCr OB2038"
_journal_coden_Cambridge 1370
_journal_volume 62
_journal_year 2006
_journal_page_first o3191
_journal_name_full 'Acta Crystallogr.,Sect.E:Struct.Rep.Online '
loop_
_publ_author_name
"G.Huelgas"
"L.Quintero"
"C.A.de Parrodi"
"S.Bernes"
_chemical_name_systematic
;
o-Nitrobenzoic acid anhydride
;
_chemical_melting_point 405
_cell_volume   1371.698
_exptl_crystal_colour 'colorless'
_exptl_crystal_density_diffrn 1.531
_exptl_special_details
;
Melting point range 405-406K

;
_exptl_crystal_description 'prism'
_exptl_crystal_preparation 'hexane/dichloromethane(5'
_diffrn_ambient_temperature 296.0
#These two values have been output from a single CSD field.
_refine_ls_R_factor_gt 0.0477
_refine_ls_wR_factor_gt 0.0477
_symmetry_cell_setting monoclinic
_symmetry_space_group_name_H-M 'P 21/c'
_symmetry_Int_Tables_number 14
loop_
_symmetry_equiv_pos_site_id
_symmetry_equiv_pos_as_xyz
1 x,y,z
2 -x,1/2+y,1/2-z
3 -x,-y,-z
4 x,-1/2-y,-1/2+z
_cell_length_a 7.9365(10)
_cell_length_b 16.1757(14)
_cell_length_c 11.0023(8)
_cell_angle_alpha 90
_cell_angle_beta 103.798(7)
_cell_angle_gamma 90
_cell_formula_units_Z 4
loop_
_atom_type_symbol
_atom_type_radius_bond
C 0.68
H 0.23
N 0.68
O 0.68
loop_
_atom_site_label
_atom_site_type_symbol
_atom_site_fract_x
_atom_site_fract_y
_atom_site_fract_z
O1 O 0.24894(11) 0.58378(6) 0.39785(9)
C1 C 0.09787(16) 0.57999(8) 0.30530(12)
O2 O -0.00984(15) 0.63229(7) 0.28553(12)
C2 C 0.09360(16) 0.50375(8) 0.22881(11)
C3 C 0.23826(18) 0.47882(9) 0.18863(14)
H1 H 0.34420 0.50500 0.21940
C4 C 0.2260(2) 0.4150(1) 0.10265(15)
H2 H 0.32370 0.39870 0.07600
C5 C 0.0700(2) 0.37575(11) 0.05673(15)
H3 H 0.06280 0.33340 -0.00140
C6 C -0.0761(2) 0.39873(11) 0.09618(14)
H4 H -0.18150 0.37210 0.06570
C7 C -0.06163(17) 0.46206(9) 0.18165(12)
N1 N -0.21612(17) 0.48223(9) 0.22704(15)
O3 O -0.1987(2) 0.49045(11) 0.33896(14)
O4 O -0.35384(18) 0.48700(13) 0.14957(18)
C8 C 0.27554(17) 0.64721(9) 0.48530(13)
O5 O 0.16167(14) 0.68366(9) 0.51471(13)
C9 C 0.46336(16) 0.66157(8) 0.53712(12)
C10 C 0.59048(17) 0.62448(9) 0.48733(13)
H5 H 0.55860 0.58580 0.42340
C11 C 0.76400(18) 0.64463(10) 0.53228(14)
H6 H 0.84760 0.61940 0.49830
C12 C 0.81354(18) 0.70195(10) 0.62712(14)
H7 H 0.93010 0.71550 0.65610
C13 C 0.69033(19) 0.73923(9) 0.67909(14)
H8 H 0.72290 0.77770 0.74320
C14 C 0.51868(17) 0.71829(8) 0.63426(12)
N2 N 0.39428(17) 0.75813(9) 0.69675(12)
O6 O 0.3534(2) 0.82906(9) 0.66836(16)
O7 O 0.3474(2) 0.71963(11) 0.77679(15)
#END
