
#######################################################################
#
#                 Cambridge Crystallographic Data Centre
#                                CCDC
#
#######################################################################
#
# If this CIF has been generated from an entry in the Cambridge
# Structural Database, then it will include bibliographic, chemical,
# crystal, experimental, refinement or atomic coordinate data resulting
# from the CCDC's data processing and validation procedures.
#
#######################################################################

data_CSD_CIF_VELZUI
_audit_creation_date 2006-12-04
_audit_creation_method CSD-ConQuest-V1
_database_code_CSD VELZUI
_database_code_depnum_ccdc_archive 'CCDC 618346'
_chemical_formula_sum 'C27 H28 N2 O7'
_chemical_formula_moiety
;
C27 H28 N2 O7
;
_journal_coeditor_code "IUCr XU2068"
_journal_coden_Cambridge 1370
_journal_volume 62
_journal_year 2006
_journal_page_first o3161
_journal_name_full 'Acta Crystallogr.,Sect.E:Struct.Rep.Online '
loop_
_publ_author_name
"Ai-Xi Hu"
"Xiao-Yun Wu"
"Gao Cao"
_chemical_name_systematic
;
3-Cinnamyl 5-(2-methoxyethyl) 
2,6-dimethyl-4-(3-nitrophenyl)-1,4-dihydropyridine-3,5-dicarboxylate
;
_chemical_name_common
;
Cilnidipine; DrugBank: DB09232
;
_chemical_melting_point 375
_cell_volume   9924.930
_exptl_crystal_colour 'yellow'
_exptl_crystal_density_diffrn 1.318
_exptl_special_details
;
Melting point range 375-377K
calcium antagonist

;
_exptl_crystal_description 'block'
_exptl_crystal_preparation 'methanol'
_diffrn_ambient_temperature 173
#These two values have been output from a single CSD field.
_refine_ls_R_factor_gt 0.051
_refine_ls_wR_factor_gt 0.051
_symmetry_cell_setting orthorhombic
_symmetry_space_group_name_H-M 'F d d 2'
_symmetry_Int_Tables_number 43
loop_
_symmetry_equiv_pos_site_id
_symmetry_equiv_pos_as_xyz
1 x,y,z
2 -x,-y,z
3 1/4+x,1/4-y,1/4+z
4 1/4-x,1/4+y,1/4+z
5 x,1/2+y,1/2+z
6 -x,1/2-y,1/2+z
7 1/4+x,3/4-y,3/4+z
8 1/4-x,3/4+y,3/4+z
9 1/2+x,y,1/2+z
10 1/2-x,-y,1/2+z
11 3/4+x,1/4-y,3/4+z
12 3/4-x,1/4+y,3/4+z
13 1/2+x,1/2+y,z
14 1/2-x,1/2-y,z
15 3/4+x,3/4-y,1/4+z
16 3/4-x,3/4+y,1/4+z
_cell_length_a 15.1280(8)
_cell_length_b 59.932(3)
_cell_length_c 10.9468(5)
_cell_angle_alpha 90
_cell_angle_beta 90
_cell_angle_gamma 90
_cell_formula_units_Z 16
loop_
_atom_type_symbol
_atom_type_radius_bond
C 0.68
H 0.23
N 0.68
O 0.68
loop_
_atom_site_label
_atom_site_type_symbol
_atom_site_fract_x
_atom_site_fract_y
_atom_site_fract_z
C1 C 0.3543(2) 0.01137(7) 0.7285(3)
C2 C 0.3371(2) 0.03293(6) 0.7004(3)
C3 C 0.3102(2) 0.03957(6) 0.5718(3)
H1 H 0.34180 0.05370 0.55100
C4 C 0.3378(2) 0.02204(6) 0.4794(3)
C5 C 0.3568(2) 0.00093(6) 0.5140(4)
C6 C 0.3781(3) -0.01860(7) 0.4332(5)
H2 H 0.33610 -0.01910 0.36510
H3 H 0.37380 -0.03240 0.48060
H4 H 0.43830 -0.01700 0.40120
C7 C 0.3721(3) 0.00209(8) 0.8531(4)
H5 H 0.42690 0.00850 0.88530
H6 H 0.37800 -0.01420 0.84800
H7 H 0.32290 0.00580 0.90770
C8 C 0.2106(2) 0.04446(6) 0.5696(3)
C9 C 0.1792(2) 0.06524(6) 0.5416(3)
H8 H 0.21900 0.07680 0.51880
C10 C 0.0893(3) 0.06936(7) 0.5465(4)
C11 C 0.0287(2) 0.05288(7) 0.5762(3)
H9 H -0.03300 0.05590 0.57680
C12 C 0.0604(2) 0.03199(7) 0.6048(4)
H10 H 0.02040 0.02040 0.62590
C13 C 0.1512(2) 0.02779(6) 0.6030(3)
H11 H 0.17270 0.01340 0.62470
C14 C 0.3402(2) 0.02818(6) 0.3492(3)
C15 C 0.2923(2) 0.05601(8) 0.2070(4)
H12 H 0.29570 0.04340 0.14900
H13 H 0.34070 0.06660 0.18810
C16 C 0.2050(2) 0.06741(6) 0.1962(4)
H14 H 0.19840 0.07850 0.26250
H15 H 0.20150 0.07540 0.11710
C17 C 0.0512(3) 0.06165(8) 0.2019(5)
H16 H 0.04530 0.07180 0.27160
H17 H 0.00590 0.05000 0.20730
H18 H 0.04350 0.07000 0.12580
C18 C 0.3381(2) 0.05035(7) 0.7946(4)
C19 C 0.3386(3) 0.08990(7) 0.8248(4)
H19 H 0.36670 0.10230 0.77950
H20 H 0.37800 0.08590 0.89370
C20 C 0.2527(3) 0.09757(7) 0.8741(4)
H21 H 0.25400 0.11050 0.92450
C21 C 0.1741(3) 0.08834(7) 0.8554(4)
H22 H 0.17220 0.07540 0.80500
C22 C 0.0900(3) 0.09623(7) 0.9053(4)
C23 C 0.0113(3) 0.08458(7) 0.8765(4)
H23 H 0.01330 0.07210 0.82290
C24 C -0.0680(3) 0.09127(7) 0.9262(4)
H24 H -0.12060 0.08340 0.90570
C25 C -0.0722(3) 0.10910(8) 1.0050(4)
H25 H -0.12730 0.11360 1.03880
C26 C 0.0037(3) 0.12040(7) 1.0344(5)
H26 H 0.00090 0.13260 1.08930
C27 C 0.0840(3) 0.11425(7) 0.9854(5)
H27 H 0.13580 0.12240 1.00640
N1 N 0.3568(2) -0.00441(5) 0.6366(3)
H28 H 0.35850 -0.01860 0.65730
N2 N 0.0566(3) 0.09177(7) 0.5230(4)
O1 O 0.34709(19) 0.04759(5) 0.9044(3)
O2 O 0.33051(18) 0.07082(4) 0.7441(3)
O3 O 0.3722(2) 0.01767(5) 0.2669(3)
O4 O 0.30053(17) 0.04799(4) 0.3317(2)
O5 O 0.13673(16) 0.05162(4) 0.2036(3)
O6 O 0.1071(3) 0.10508(6) 0.4729(4)
O7 O -0.0191(2) 0.09652(6) 0.5532(4)
#END
