
#######################################################################
#
#                 Cambridge Crystallographic Data Centre
#                                CCDC
#
#######################################################################
#
# If this CIF has been generated from an entry in the Cambridge
# Structural Database, then it will include bibliographic, chemical,
# crystal, experimental, refinement or atomic coordinate data resulting
# from the CCDC's data processing and validation procedures.
#
#######################################################################

data_CSD_CIF_VEMBAS
_audit_creation_date 2013-04-04
_audit_creation_method CSD-ConQuest-V1
_database_code_CSD VEMBAS
_database_code_depnum_ccdc_archive 'CCDC 899874'
_chemical_formula_sum 'C19 H14 N2 O8'
_chemical_formula_moiety
;
C19 H14 N2 O8
;
_journal_coden_Cambridge 24
_journal_volume 53
_journal_year 2012
_journal_page_first 6779
_journal_name_full 'Tetrahedron Lett. '
loop_
_publ_author_name
"A.Munoz"
"R.P.Murelli"
_chemical_name_systematic
;
7,9-bis(3-nitrophenyl)-1,6,8-trioxaspiro[4.5]dec-3-en-2-one
;
_cell_volume   1749.192
_exptl_crystal_colour 'colorless'
_exptl_crystal_density_diffrn 1.513
_exptl_crystal_description 'block'
_diffrn_ambient_temperature 100
_refine_special_details
;
The structure is disordered.

;
#These two values have been output from a single CSD field.
_refine_ls_R_factor_gt 0.0503
_refine_ls_wR_factor_gt 0.0503
_symmetry_cell_setting triclinic
_symmetry_space_group_name_H-M 'P -1'
_symmetry_Int_Tables_number 2
loop_
_symmetry_equiv_pos_site_id
_symmetry_equiv_pos_as_xyz
1 x,y,z
2 -x,-y,-z
_cell_length_a 11.7324(6)
_cell_length_b 12.5199(7)
_cell_length_c 13.9798(8)
_cell_angle_alpha 74.712(1)
_cell_angle_beta 77.384(1)
_cell_angle_gamma 62.729(1)
_cell_formula_units_Z 4
loop_
_atom_type_symbol
_atom_type_radius_bond
C 0.68
H 0.23
N 0.68
O 0.68
loop_
_atom_site_label
_atom_site_type_symbol
_atom_site_fract_x
_atom_site_fract_y
_atom_site_fract_z
O1 O 0.07177(16) -0.19568(16) 0.47792(13)
O2 O -0.02378(13) -0.03558(13) 0.34860(11)
O3 O -0.36422(18) -0.0769(2) 0.21391(15)
N1 N -0.4104(2) -0.0888(2) 0.30145(19)
O4 O -0.52388(19) -0.0691(3) 0.32770(17)
O5 O -0.2732(10) 0.3273(10) 0.1219(6)
N2 N -0.1803(3) 0.3531(3) 0.0956(2)
O6 O -0.1806(3) 0.4377(2) 0.0268(2)
C1 C 0.0015(2) -0.1583(2) 0.39385(17)
H1 H 0.05340 -0.21260 0.34410
C2 C 0.0942(2) -0.0244(2) 0.31016(17)
H2 H 0.14540 -0.08360 0.26410
C3 C 0.16828(19) -0.05753(19) 0.39563(15)
H3 H 0.25270 -0.05470 0.37020
H4 H 0.12040 0.00300 0.44000
C4 C 0.1897(2) -0.1817(2) 0.45351(17)
C5 C 0.2525(5) -0.2199(5) 0.5468(3)
H5 H 0.21340 -0.18490 0.60490
C6 C 0.3688(5) -0.3082(6) 0.5374(4)
H6 H 0.42580 -0.34890 0.58750
C7 C 0.3960(5) -0.3339(5) 0.4345(5)
O7 O 0.2835(5) -0.2672(5) 0.3907(5)
O8 O 0.4904(3) -0.4047(4) 0.3935(3)
C8 C -0.1263(2) -0.1645(2) 0.42510(18)
C9 C -0.2059(2) -0.1293(2) 0.35199(18)
H7 H -0.17800 -0.10640 0.28390
C10 C -0.3264(2) -0.1281(2) 0.37984(19)
C11 C -0.3712(2) -0.1611(2) 0.4774(2)
H8 H -0.45560 -0.15790 0.49480
C12 C -0.2895(3) -0.1990(3) 0.5491(2)
H9 H -0.31670 -0.22430 0.61690
C13 C -0.1683(2) -0.2006(2) 0.52295(19)
H10 H -0.11310 -0.22690 0.57320
C14 C 0.0652(2) 0.1031(2) 0.25205(17)
C15 C -0.0498(2) 0.1730(2) 0.20983(17)
H11 H -0.11510 0.14460 0.22220
C16 C -0.0666(2) 0.2841(2) 0.14979(19)
C17 C 0.0237(3) 0.3302(3) 0.1311(2)
H12 H 0.00870 0.40740 0.08890
C18 C 0.1353(3) 0.2628(3) 0.1744(2)
H13 H 0.19850 0.29360 0.16360
C19 C 0.1565(2) 0.1498(3) 0.2339(2)
H14 H 0.23500 0.10290 0.26300
O9 O 0.24722(14) 0.44742(14) 0.19388(12)
O10 O 0.18307(15) 0.65051(15) 0.20362(12)
O11 O 0.44784(15) 0.36033(15) 0.25018(11)
O12 O 0.59266(17) 0.16954(16) 0.30322(13)
O13 O 0.09026(18) 0.98514(17) -0.09746(13)
N3 N 0.1270(2) 1.0313(2) -0.05070(17)
O14 O 0.0882(2) 1.14238(17) -0.05983(18)
C20 C 0.1794(2) 0.5395(2) 0.25445(19)
H15 H 0.21840 0.51210 0.31840
C21 C 0.3141(2) 0.6383(2) 0.18404(18)
H16 H 0.35150 0.61240 0.24860
C22 C 0.3932(2) 0.5414(2) 0.11964(17)
H17 H 0.36530 0.57310 0.05190
H18 H 0.48550 0.52420 0.11350
C23 C 0.3778(2) 0.4242(2) 0.16370(17)
C24 C 0.4305(2) 0.3314(2) 0.09739(18)
H19 H 0.40540 0.34520 0.03350
C25 C 0.5167(2) 0.2281(2) 0.14138(18)
H20 H 0.56370 0.15570 0.11430
C26 C 0.5287(2) 0.2425(2) 0.23892(19)
C27 C 0.0431(2) 0.5536(2) 0.2753(2)
C28 C -0.0348(5) 0.5988(10) 0.1994(4)
H21 H -0.00620 0.62930 0.13360
C29 C -0.1560(4) 0.5983(4) 0.2220(3)
C30 C -0.2020(6) 0.5585(7) 0.3167(4)
H22 H -0.28640 0.56190 0.33020
C31 C -0.1249(5) 0.5140(7) 0.3915(5)
H23 H -0.15550 0.48620 0.45760
C32 C -0.0018(5) 0.5095(6) 0.3705(4)
H24 H 0.05270 0.47570 0.42220
O15 O -0.2064(9) 0.6899(13) 0.0611(3)
N4 N -0.2371(3) 0.6377(3) 0.1422(3)
O16 O -0.3313(3) 0.6120(3) 0.1592(2)
C33? C 0.0431(2) 0.5536(2) 0.2753(2)
C34? C -0.030(2) 0.535(4) 0.3657(14)
H25? H 0.00730 0.50930 0.42640
C35? C -0.157(2) 0.554(3) 0.3679(15)
C36? C -0.221(2) 0.605(3) 0.286(2)
H26? H -0.30970 0.62250 0.28900
C37? C -0.151(3) 0.631(4) 0.199(2)
H27? H -0.19370 0.66930 0.14050
C38? C -0.021(3) 0.605(8) 0.1904(18)
H28? H 0.02350 0.62120 0.12700
O17? O -0.1380(15) 0.4469(14) 0.5329(12)
N5? N -0.2082(12) 0.5146(15) 0.4684(11)
O18? O -0.3259(12) 0.5539(18) 0.4819(14)
C39 C 0.3097(2) 0.7620(2) 0.13262(17)
C40 C 0.2226(2) 0.8374(2) 0.06376(18)
H29 H 0.16630 0.81140 0.04690
C41 C 0.2200(2) 0.9514(2) 0.02036(18)
C42 C 0.3000(2) 0.9934(2) 0.04094(19)
H30 H 0.29460 1.07270 0.01060
C43 C 0.3881(3) 0.9161(3) 0.1071(2)
H31 H 0.44740 0.94070 0.12070
C44 C 0.3914(2) 0.8030(2) 0.15410(19)
H32 H 0.45040 0.75240 0.20180
C45? C 0.0431(2) 0.5536(2) 0.2753(2)
C46? C -0.051(2) 0.6187(15) 0.2126(17)
C47? C -0.169(2) 0.614(2) 0.249(2)
C48? C 0.07177(16) -0.19568(16) 0.47792(13)
C49? C -0.199(4) 0.552(5) 0.338(3)
C50? C -0.103(4) 0.489(5) 0.398(3)
C51? C 0.019(3) 0.488(3) 0.3681(16)
C52? C 0.1897(2) -0.1817(2) 0.45351(17)
C53? C 0.2707(17) -0.1938(18) 0.5294(13)
C54? C 0.3831(19) -0.287(2) 0.5151(16)
C55? C 0.3798(18) -0.355(2) 0.4428(19)
H33? H -0.03710 0.66410 0.14870
H34? H -0.28260 0.55340 0.35800
H35? H -0.11850 0.44450 0.46120
H36? H 0.08450 0.44350 0.41120
H37? H 0.01640 -0.14680 0.52950
H38? H 0.09150 -0.28260 0.50690
H39? H 0.24550 -0.14410 0.57790
H40? H 0.45660 -0.30800 0.54650
N6? N -0.2010(9) 0.3662(9) 0.1257(10)
N7? N -0.2378(15) 0.691(2) 0.1634(16)
O19? O 0.16828(19) -0.05753(19) 0.39563(15)
O20? O -0.198(6) 0.69(1) 0.075(2)
O21? O -0.3537(15) 0.721(2) 0.1892(16)
O22? O 0.2672(18) -0.2814(19) 0.3994(17)
O23? O 0.4634(12) -0.4322(12) 0.3981(11)
O24? O -0.275(3) 0.317(4) 0.143(3)
O25? O -0.2377(9) 0.4742(8) 0.0829(7)
#END
