
#######################################################################
#
#                 Cambridge Crystallographic Data Centre
#                                CCDC
#
#######################################################################
#
# If this CIF has been generated from an entry in the Cambridge
# Structural Database, then it will include bibliographic, chemical,
# crystal, experimental, refinement or atomic coordinate data resulting
# from the CCDC's data processing and validation procedures.
#
#######################################################################

data_CSD_CIF_VEMLUX
_audit_creation_date 2018-01-19
_audit_creation_method CSD-ConQuest-V1
_database_code_CSD VEMLUX
_database_code_depnum_ccdc_archive 'CCDC 1515426'
_chemical_formula_sum 'C25 H24 N4 O10'
_chemical_formula_moiety
;
C25 H24 N4 O10
;
_journal_coden_Cambridge 1490
_journal_volume 9
_journal_year 2018
_journal_page_first 227
_journal_name_full 'Nat.Commun. '
loop_
_publ_author_name
"Liu Ye"
"Qiang-Shuai Gu"
"Yu Tian"
"Xiang Meng"
"Guo-Cong Chen"
"Xin-Yuan Liu"
_chemical_name_systematic
;
dimethyl 
1-(((2,4-dinitrophenyl)hydrazono)methyl)-5-(4-(methoxycarbonyl)phenyl)bicyclo[
3.1.0]hexane-3,3-dicarboxylate
;
_cell_volume   1270.243
_exptl_crystal_colour 'orange'
_exptl_crystal_density_diffrn 1.413
_exptl_special_details
;
Absolute configuration

;
_exptl_crystal_description 'needle'
_diffrn_ambient_temperature 150
_diffrn_special_details
;
twin

;
#These two values have been output from a single CSD field.
_refine_ls_R_factor_gt 0.04
_refine_ls_wR_factor_gt 0.04
_symmetry_cell_setting triclinic
_symmetry_space_group_name_H-M 'P 1'
_symmetry_Int_Tables_number 1
loop_
_symmetry_equiv_pos_site_id
_symmetry_equiv_pos_as_xyz
1 x,y,z
_cell_length_a 6.8876(4)
_cell_length_b 12.3859(7)
_cell_length_c 15.7510(8)
_cell_angle_alpha 104.814(2)
_cell_angle_beta 94.697(2)
_cell_angle_gamma 99.519(2)
_cell_formula_units_Z 2
loop_
_atom_type_symbol
_atom_type_radius_bond
C 0.68
H 0.23
N 0.68
O 0.68
loop_
_atom_site_label
_atom_site_type_symbol
_atom_site_fract_x
_atom_site_fract_y
_atom_site_fract_z
O1 O -0.6264(6) 0.2073(4) 0.1507(3)
O2 O -0.4684(8) 0.1822(6) 0.0367(3)
O3 O -0.2771(5) 0.3914(3) 0.4369(2)
O4 O 0.0429(5) 0.4275(3) 0.4587(2)
O5 O 0.6250(5) 0.7348(3) 0.0820(2)
O6 O 0.8966(5) 0.8693(3) 0.1380(2)
O7 O 1.0076(5) 0.6211(3) 0.0965(2)
O8 O 1.1991(5) 0.7130(3) 0.2249(2)
O9 O 0.3071(6) 0.9669(4) 0.6696(3)
O10 O 0.5976(6) 0.9828(4) 0.7485(2)
N1 N -0.4738(7) 0.2197(4) 0.1161(3)
N2 N -0.1149(6) 0.3954(3) 0.4089(2)
N3 N 0.2409(5) 0.4505(3) 0.3268(2)
H1 H 0.25870 0.45810 0.38410
N4 N 0.3925(5) 0.4969(3) 0.2861(2)
C1 C -0.1099(6) 0.3638(3) 0.3145(3)
C2 C -0.2869(7) 0.3080(4) 0.2621(3)
H2 H -0.40340 0.28970 0.28810
C3 C -0.2908(7) 0.2797(4) 0.1718(3)
C4 C -0.1243(8) 0.3069(4) 0.1327(3)
H3 H -0.13110 0.28640 0.07000
C5 C 0.0503(7) 0.3634(4) 0.1842(3)
H4 H 0.16350 0.38270 0.15650
C6 C 0.0668(6) 0.3939(4) 0.2783(3)
C7 C 0.5401(7) 0.5604(3) 0.3399(3)
H5 H 0.54140 0.56880 0.40160
C8 C 0.7072(6) 0.6203(3) 0.3081(3)
C9 C 0.8087(6) 0.7414(3) 0.3635(3)
C10 C 0.8686(6) 0.8085(4) 0.2978(3)
H6 H 1.00760 0.85030 0.31530
H7 H 0.78140 0.86420 0.29620
C11 C 0.8469(6) 0.7211(4) 0.2056(3)
C12 C 0.6979(6) 0.6161(4) 0.2114(3)
H8 H 0.56200 0.61880 0.18730
H9 H 0.73460 0.54510 0.17730
C13 C 0.9115(6) 0.6443(3) 0.3639(3)
H10 H 0.91880 0.61870 0.41850
H11 H 1.02920 0.63950 0.33200
C14 C 0.7709(7) 0.7732(4) 0.1337(3)
C15 C 0.8497(9) 0.9297(6) 0.0740(4)
H12 H 0.87320 0.88760 0.01530
H13 H 0.93420 1.00570 0.09100
H14 H 0.70990 0.93680 0.07250
C16 C 1.0409(6) 0.6873(4) 0.1798(3)
C17 C 1.1782(8) 0.5812(5) 0.0590(4)
H15 H 1.13240 0.52220 0.00290
H16 H 1.24870 0.54950 0.10050
H17 H 1.26800 0.64500 0.04820
C18 C 0.7293(6) 0.7992(3) 0.4448(3)
C19 C 0.8391(7) 0.8291(4) 0.5276(3)
H18 H 0.96980 0.81410 0.53310
C20 C 0.7617(7) 0.8805(4) 0.6024(3)
H19 H 0.83950 0.90150 0.65890
C21 C 0.5696(7) 0.9016(4) 0.5950(3)
C22 C 0.4575(7) 0.8724(4) 0.5119(3)
H20 H 0.32640 0.88670 0.50660
C23 C 0.5364(7) 0.8228(4) 0.4373(3)
H21 H 0.46050 0.80450 0.38070
C24 C 0.4755(7) 0.9536(4) 0.6734(3)
C25 C 0.5204(10) 1.0335(6) 0.8281(4)
H22 H 0.37520 1.01230 0.81890
H23 H 0.56030 1.11650 0.84300
H24 H 0.57320 1.00620 0.87680
O11 O 0.4390(5) 0.5796(3) 0.5428(2)
O12 O 0.1897(6) 0.6624(3) 0.5630(2)
O13 O 0.0171(6) 0.8169(4) 0.8454(3)
O14 O 0.2067(10) 0.8223(6) 0.9637(3)
O15 O 0.2807(6) 0.0412(4) 0.3547(3)
O16 O 0.5253(5) 0.0204(3) 0.2709(2)
O17 O 1.1340(6) 0.1575(3) 0.8807(2)
O18 O 0.9660(6) 0.2947(3) 0.9304(2)
O19 O 1.4182(5) 0.4054(3) 0.9151(2)
O20 O 1.5050(5) 0.2988(3) 0.7919(2)
N5 N 0.1635(8) 0.7960(4) 0.8828(3)
N6 N 0.3353(6) 0.6329(3) 0.5923(2)
N7 N 0.6766(5) 0.5673(3) 0.6775(2)
H25 H 0.67040 0.55900 0.62010
N8 N 0.8126(5) 0.5215(3) 0.7203(2)
C26 C 0.3882(7) 0.6590(4) 0.6868(3)
C27 C 0.2617(7) 0.7149(4) 0.7383(3)
H26 H 0.15090 0.73610 0.71120
C28 C 0.2988(8) 0.7393(4) 0.8287(3)
C29 C 0.4592(8) 0.7084(4) 0.8695(3)
H27 H 0.48180 0.72540 0.93220
C30 C 0.5838(7) 0.6537(4) 0.8193(3)
H28 H 0.69430 0.63420 0.84790
C31 C 0.5538(6) 0.6251(3) 0.7254(3)
C32 C 0.9046(6) 0.4582(4) 0.6677(3)
H29 H 0.88140 0.45010 0.60590
C33 C 1.0452(6) 0.3978(3) 0.7011(3)
C34 C 1.0726(7) 0.4059(4) 0.7989(3)
H30 H 0.94420 0.40660 0.82290
H31 H 1.16700 0.47650 0.83180
C35 C 1.1548(7) 0.3004(4) 0.8078(3)
C36 C 1.0900(7) 0.2103(3) 0.7175(3)
H32 H 1.19610 0.16650 0.70200
H33 H 0.96810 0.15670 0.71980
C37 C 1.0512(6) 0.2747(3) 0.6493(3)
C38 C 1.2157(7) 0.3691(4) 0.6468(3)
H34 H 1.22080 0.39170 0.59100
H35 H 1.34690 0.37400 0.67990
C39 C 1.3796(7) 0.3322(4) 0.8345(3)
C40 C 1.6240(8) 0.4452(5) 0.9530(3)
H36 H 1.70190 0.46730 0.90870
H37 H 1.67460 0.38420 0.97150
H38 H 1.63510 0.51110 1.00450
C41 C 1.0724(6) 0.2537(4) 0.8808(3)
C42 C 1.0628(9) 0.1006(5) 0.9451(3)
H39 H 0.91820 0.07620 0.93230
H40 H 1.09780 0.15320 1.00470
H41 H 1.12430 0.03400 0.94200
C43 C 0.9012(6) 0.2145(3) 0.5702(3)
C44 C 0.6984(6) 0.1978(4) 0.5792(3)
H42 H 0.65760 0.22280 0.63590
C45 C 0.5587(7) 0.1458(4) 0.5072(3)
H43 H 0.42190 0.13550 0.51430
C46 C 0.6152(7) 0.1079(4) 0.4233(3)
C47 C 0.8156(6) 0.1220(4) 0.4136(3)
H44 H 0.85600 0.09520 0.35700
C48 C 0.9562(6) 0.1751(4) 0.4864(3)
H45 H 1.09300 0.18500 0.47910
C49 C 0.4557(7) 0.0548(4) 0.3482(3)
C50 C 0.3786(9) -0.0347(5) 0.1943(4)
H46 H 0.43020 -0.02040 0.14120
H47 H 0.25670 -0.00430 0.20230
H48 H 0.34960 -0.11690 0.18750
#END
