
#######################################################################
#
#                 Cambridge Crystallographic Data Centre
#                                CCDC
#
#######################################################################
#
# If this CIF has been generated from an entry in the Cambridge
# Structural Database, then it will include bibliographic, chemical,
# crystal, experimental, refinement or atomic coordinate data resulting
# from the CCDC's data processing and validation procedures.
#
#######################################################################

data_CSD_CIF_VEMPEK
_audit_creation_date 2013-04-04
_audit_creation_method CSD-ConQuest-V1
_database_code_CSD VEMPEK
_database_code_depnum_ccdc_archive 'CCDC 905436'
_chemical_formula_sum 'C24 H30 N2 O4'
_chemical_formula_moiety
;
C24 H30 N2 O4
;
_journal_coden_Cambridge 1090
_journal_volume 23
_journal_year 2012
_journal_page_first 1670
_journal_name_full 'Tetrahedron:Asymm. '
loop_
_publ_author_name
"K.B.Selim"
"A.Beauchard"
"J.Lhoste"
"A.Martel"
"M.Y.Laurent"
"G.Dujardin"
_chemical_name_systematic
;
Ethyl 
2-benzyl-3,5-dimethyl-4-((1-phenylethyl)carbamoyl)-1,2-oxazolidine-3-carboxyla
te
;
_cell_volume   4729.521
_exptl_crystal_density_diffrn 1.153
_diffrn_ambient_temperature 296
#These two values have been output from a single CSD field.
_refine_ls_R_factor_gt 0.0608
_refine_ls_wR_factor_gt 0.0608
_symmetry_cell_setting monoclinic
_symmetry_space_group_name_H-M 'P 21'
_symmetry_Int_Tables_number 4
loop_
_symmetry_equiv_pos_site_id
_symmetry_equiv_pos_as_xyz
1 x,y,z
2 -x,1/2+y,-z
_cell_length_a 9.5710(16)
_cell_length_b 13.657(3)
_cell_length_c 36.183(6)
_cell_angle_alpha 90
_cell_angle_beta 90.022(9)
_cell_angle_gamma 90
_cell_formula_units_Z 8
loop_
_atom_type_symbol
_atom_type_radius_bond
C 0.68
H 0.23
N 0.68
O 0.68
loop_
_atom_site_label
_atom_site_type_symbol
_atom_site_fract_x
_atom_site_fract_y
_atom_site_fract_z
C1 C 0.2423(7) 1.1198(6) 0.4098(2)
H1 H 0.28590 1.15520 0.39120
C2 C 0.1277(9) 1.1587(6) 0.4267(2)
H2 H 0.09390 1.21990 0.41990
C3 C 0.0633(9) 1.1055(7) 0.4540(3)
H3 H -0.01500 1.13070 0.46590
C4 C 0.1128(10) 1.0175(8) 0.4636(3)
H4 H 0.06750 0.98110 0.48170
C5 C 0.2320(9) 0.9800(7) 0.4466(3)
H5 H 0.26810 0.91990 0.45400
C6 C 0.2947(7) 1.0311(5) 0.41938(19)
C7 C 0.4311(7) 0.9977(5) 0.4018(2)
H6 H 0.45010 1.03840 0.38040
H7 H 0.50650 1.00730 0.41930
N1 N 0.4301(5) 0.8950(4) 0.39020(14)
O1 O 0.4571(4) 0.8394(3) 0.42343(12)
C8 C 0.4713(6) 0.7423(5) 0.41006(17)
H8 H 0.37850 0.71580 0.40460
C9 C 0.5398(8) 0.6802(5) 0.4390(2)
H9 H 0.62820 0.70830 0.44570
H10 H 0.55420 0.61530 0.42950
H11 H 0.48080 0.67700 0.46050
C10 C 0.5535(6) 0.7530(5) 0.37370(17)
H12 H 0.65070 0.73360 0.37810
C11 C 0.5490(6) 0.8636(5) 0.36561(17)
C12 C 0.5132(7) 0.8944(6) 0.32570(18)
H13 H 0.59060 0.87970 0.30980
H14 H 0.49450 0.96340 0.32500
H15 H 0.43210 0.85920 0.31750
C13 C 0.6877(8) 0.9094(6) 0.3794(2)
O2 O 0.7626(5) 0.8744(4) 0.40232(17)
O3 O 0.7071(5) 0.9968(4) 0.36442(16)
C14 C 0.8236(9) 1.0551(7) 0.3806(3)
H16 H 0.80570 1.06830 0.40650
H17 H 0.91090 1.01950 0.37860
C15 C 0.8313(12) 1.1442(9) 0.3604(4)
H18 H 0.85920 1.13070 0.33550
H19 H 0.89850 1.18680 0.37180
H20 H 0.74130 1.17530 0.36040
C16 C 0.4937(6) 0.6894(5) 0.34326(16)
O4 O 0.3670(4) 0.6842(4) 0.33716(12)
N2 N 0.5859(5) 0.6405(4) 0.32323(13)
H21 H 0.67340 0.64800 0.32790
C17 C 0.5444(6) 0.5750(5) 0.29383(17)
H22 H 0.46000 0.54040 0.30190
C18 C 0.5078(9) 0.6330(7) 0.2580(2)
H23 H 0.43290 0.67780 0.26300
H24 H 0.47950 0.58800 0.23900
H25 H 0.58840 0.66880 0.24990
C19 C 0.6571(7) 0.4998(6) 0.28758(18)
C20 C 0.636(1) 0.4059(8) 0.2971(2)
H26 H 0.55140 0.38780 0.30770
C21 C 0.7388(17) 0.3348(9) 0.2912(3)
H27 H 0.72120 0.26940 0.29670
C22 C 0.8623(15) 0.3620(11) 0.2778(3)
H28 H 0.93200 0.31520 0.27480
C23 C 0.8893(9) 0.4582(9) 0.2683(3)
H29 H 0.97610 0.47600 0.25890
C24 C 0.7863(8) 0.5271(6) 0.2727(2)
H30 H 0.80240 0.59170 0.26590
C25 C 0.7787(7) 0.3289(5) 0.4601(2)
H31 H 0.86250 0.33910 0.47250
C26 C 0.6956(9) 0.2485(6) 0.4693(2)
H32 H 0.72320 0.20520 0.48770
C27 C 0.5705(9) 0.2342(7) 0.4503(3)
H33 H 0.51620 0.17930 0.45520
C28 C 0.5279(10) 0.3003(8) 0.4246(3)
H34 H 0.44150 0.29300 0.41310
C29 C 0.6120(8) 0.3779(6) 0.4154(2)
H35 H 0.58260 0.42090 0.39710
C30 C 0.7379(6) 0.3943(5) 0.43247(19)
C31 C 0.8185(6) 0.4861(5) 0.4236(2)
H36 H 0.79810 0.50660 0.39860
H37 H 0.79010 0.53820 0.44020
N3 N 0.9700(5) 0.4685(4) 0.42758(15)
O5 O 1.0144(4) 0.3995(3) 0.40063(13)
C32 C 1.0382(6) 0.4513(5) 0.36630(19)
H38 H 0.95120 0.45400 0.35210
C33 C 1.1476(8) 0.3935(6) 0.3449(2)
H39 H 1.23240 0.39030 0.35900
H40 H 1.16560 0.42530 0.32170
H41 H 1.11370 0.32830 0.34040
C34 C 1.0814(5) 0.5548(4) 0.37764(17)
H42 H 1.18090 0.56380 0.37220
C35 C 1.0611(6) 0.5525(4) 0.42008(16)
C36 C 1.0113(7) 0.6468(5) 0.43720(18)
H43 H 0.92600 0.66690 0.42550
H44 H 1.08100 0.69650 0.43390
H45 H 0.99520 0.63690 0.46310
C37 C 1.2027(9) 0.5220(5) 0.4374(2)
O6 O 1.3059(6) 0.5034(5) 0.42118(17)
O7 O 1.1897(5) 0.5174(4) 0.47425(16)
C38 C 1.3057(11) 0.4719(9) 0.4945(3)
H46 H 1.39140 0.47680 0.48030
H47 H 1.31960 0.50450 0.51800
C39 C 1.2696(14) 0.3708(9) 0.5002(4)
H48 H 1.18370 0.36690 0.51390
H49 H 1.34250 0.33910 0.51400
H50 H 1.25840 0.33900 0.47680
C40 C 0.9991(6) 0.6348(5) 0.35875(16)
O8 O 0.8709(4) 0.6295(3) 0.35442(11)
N4 N 1.0723(4) 0.7111(4) 0.34748(13)
H51 H 1.16090 0.71160 0.35140
C41 C 1.0098(6) 0.7936(5) 0.32890(19)
H52 H 0.91670 0.80350 0.33950
C42 C 1.0953(8) 0.8849(6) 0.3369(2)
H53 H 1.18520 0.87910 0.32540
H54 H 1.10700 0.89190 0.36310
H55 H 1.04770 0.94120 0.32730
C43 C 0.9917(6) 0.7764(5) 0.2884(2)
C44 C 0.8812(8) 0.8176(6) 0.2694(3)
H56 H 0.81570 0.85450 0.28230
C45 C 0.8654(13) 0.8054(9) 0.2318(4)
H57 H 0.79130 0.83410 0.21920
C46 C 0.9626(17) 0.7496(10) 0.2136(3)
H58 H 0.95220 0.74010 0.18830
C47 C 1.0747(11) 0.7072(8) 0.2311(3)
H59 H 1.13990 0.67030 0.21810
C48 C 1.0871(8) 0.7212(6) 0.2683(2)
H60 H 1.16210 0.69280 0.28070
C49 C 0.622(2) -0.0632(10) 0.0578(3)
H61 H 0.65520 -0.00610 0.06870
C50 C 0.7047(13) -0.1322(18) 0.0488(4)
H62 H 0.80010 -0.12400 0.05260
C51 C 0.660(2) -0.2151(16) 0.0343(3)
H63 H 0.72360 -0.26360 0.02780
C52 C 0.528(3) -0.2291(14) 0.0290(4)
H64 H 0.49820 -0.28830 0.01900
C53 C 0.438(2) -0.164(2) 0.0370(5)
H65 H 0.34330 -0.17650 0.03360
C54 C 0.478(3) -0.0771(18) 0.0503(5)
C55 C 0.4341(11) 0.0243(11) 0.0720(3)
H66 H 0.46980 0.02460 0.09710
H67 H 0.46910 0.08160 0.05910
N5 N 0.2855(6) 0.0220(5) 0.07168(19)
O9 O 0.2274(5) -0.0494(3) 0.09653(14)
C56 C 0.2095(7) 0.0000(5) 0.1313(2)
H68 H 0.29770 -0.00070 0.14500
C57 C 0.0987(8) -0.0537(6) 0.1530(3)
H69 H 0.01420 -0.05680 0.13880
H70 H 0.08120 -0.01960 0.17570
H71 H 0.13040 -0.11890 0.15830
C58 C 0.1713(6) 0.1058(5) 0.12093(16)
H72 H 0.07140 0.11630 0.12540
C59 C 0.1994(6) 0.1106(5) 0.07929(17)
C60 C 0.2667(8) 0.2057(6) 0.0650(2)
H73 H 0.34680 0.22130 0.07980
H74 H 0.20010 0.25810 0.06640
H75 H 0.29510 0.19690 0.03970
C61 C 0.0610(9) 0.0888(6) 0.0583(2)
O10 O -0.0406(6) 0.0559(5) 0.07165(16)
O11 O 0.0748(6) 0.1104(5) 0.02255(16)
C62 C -0.0402(11) 0.0818(11) -0.0020(3)
H76 H -0.12520 0.07320 0.01220
H77 H -0.05640 0.13280 -0.02020
C63 C -0.0046(12) -0.0087(14) -0.0205(4)
H78 H 0.07570 0.00140 -0.03590
H79 H -0.08200 -0.02970 -0.03550
H80 H 0.01600 -0.05810 -0.00240
C64 C 0.2557(6) 0.1758(5) 0.14515(17)
O12 O 0.3857(4) 0.1747(3) 0.14525(12)
N6 N 0.1817(5) 0.2350(4) 0.16655(13)
H81 H 0.09420 0.24330 0.16210
C65 C 0.2468(6) 0.2866(5) 0.19759(17)
H82 H 0.34490 0.29810 0.19110
C66 C 0.1777(8) 0.3860(6) 0.2026(2)
H83 H 0.07980 0.37720 0.20730
H84 H 0.18970 0.42420 0.18060
H85 H 0.21990 0.41940 0.22310
C67 C 0.2444(6) 0.2265(5) 0.23203(16)
C68 C 0.1453(8) 0.1606(6) 0.2393(2)
H86 H 0.07490 0.15060 0.22200
C69 C 0.1432(10) 0.1067(8) 0.2717(3)
H87 H 0.07340 0.06040 0.27550
C70 C 0.2403(11) 0.1210(7) 0.2971(2)
H88 H 0.23910 0.08460 0.31880
C71 C 0.3398(10) 0.1877(8) 0.2916(2)
H89 H 0.40730 0.19840 0.30970
C72 C 0.3428(7) 0.2415(6) 0.2590(2)
H90 H 0.41230 0.28800 0.25540
C73 C 0.8989(9) 0.6852(6) 0.1052(2)
H91 H 0.81280 0.71010 0.09780
C74 C 1.0184(11) 0.7371(7) 0.0977(2)
H92 H 1.01250 0.79630 0.08500
C75 C 1.1477(9) 0.7022(6) 0.1087(3)
H93 H 1.22920 0.73640 0.10330
C76 C 1.1520(8) 0.6183(6) 0.1272(3)
H94 H 1.23740 0.59420 0.13540
C77 C 1.0313(8) 0.5666(6) 0.1343(3)
H95 H 1.03720 0.50780 0.14720
C78 C 0.9043(7) 0.5988(5) 0.1232(2)
C79 C 0.7706(6) 0.5447(5) 0.1321(2)
H96 H 0.73610 0.56640 0.15590
H97 H 0.70050 0.56050 0.11370
N7 N 0.7909(5) 0.4404(4) 0.13299(15)
O13 O 0.8069(4) 0.4099(3) 0.09514(12)
C80 C 0.8070(7) 0.3055(5) 0.09669(19)
H98 H 0.90050 0.28170 0.10320
C81 C 0.7663(9) 0.2681(7) 0.0591(2)
H99 H 0.67470 0.29160 0.05300
H100 H 0.76610 0.19780 0.05930
H101 H 0.83220 0.29110 0.04110
C82 C 0.7013(6) 0.2792(5) 0.12808(16)
H102 H 0.61580 0.25330 0.11690
C83 C 0.6680(6) 0.3807(5) 0.14623(17)
C84 C 0.6698(8) 0.3803(6) 0.18854(19)
H103 H 0.65120 0.44510 0.19750
H104 H 0.75980 0.35920 0.19710
H105 H 0.59940 0.33620 0.19750
C85 C 0.5335(8) 0.4254(6) 0.1322(3)
O14 O 0.4589(5) 0.4773(5) 0.15025(19)
O15 O 0.5117(5) 0.4047(4) 0.09688(18)
C86 C 0.3984(9) 0.4566(8) 0.0764(4)
H106 H 0.33040 0.40810 0.06870
H107 H 0.35180 0.50010 0.09360
C87 C 0.4319(15) 0.5056(18) 0.0487(5)
H108 H 0.49400 0.55730 0.05600
H109 H 0.34960 0.53310 0.03770
H110 H 0.47790 0.46400 0.03110
C88 C 0.7578(6) 0.2052(5) 0.15427(16)
O16 O 0.8816(4) 0.2041(3) 0.16403(11)
N8 N 0.6675(5) 0.1408(4) 0.16738(13)
H111 H 0.58220 0.14480 0.16010
C89 C 0.7037(6) 0.0629(5) 0.19365(18)
H112 H 0.79730 0.03970 0.18700
C90 C 0.7130(8) 0.1037(6) 0.2331(2)
H113 H 0.77560 0.15860 0.23350
H114 H 0.74720 0.05370 0.24940
H115 H 0.62190 0.12430 0.24110
C91 C 0.6082(6) -0.0209(5) 0.1897(2)
C92 C 0.6225(8) -0.0831(7) 0.1603(2)
H116 H 0.69240 -0.07060 0.14310
C93 C 0.5374(13) -0.1638(8) 0.1552(3)
H117 H 0.54980 -0.20510 0.13500
C94 C 0.4366(15) -0.1809(8) 0.1799(4)
H118 H 0.38110 -0.23620 0.17720
C95 C 0.4121(11) -0.1188(10) 0.2097(4)
H119 H 0.33840 -0.13020 0.22590
C96 C 0.4992(9) -0.0403(7) 0.2145(2)
H120 H 0.48570 0.00100 0.23460
#END
