
#######################################################################
#
#                 Cambridge Crystallographic Data Centre
#                                CCDC
#
#######################################################################
#
# If this CIF has been generated from an entry in the Cambridge
# Structural Database, then it will include bibliographic, chemical,
# crystal, experimental, refinement or atomic coordinate data resulting
# from the CCDC's data processing and validation procedures.
#
#######################################################################

data_CSD_CIF_VEMTOW01
_audit_creation_date 2003-08-07
_audit_creation_method CSD-ConQuest-V1
_database_code_CSD VEMTOW01
_database_code_depnum_ccdc_archive 'CCDC 214628'
_chemical_formula_sum 'C13 H8 N2 O7'
_chemical_formula_moiety
;
C13 H8 N2 O7
;
_journal_coeditor_code "IUCr BT6262"
_journal_coden_Cambridge 1370
_journal_volume 59
_journal_year 2003
_journal_page_first o688
_journal_name_full 'Acta Crystallogr.,Sect.E:Struct.Rep.Online '
loop_
_publ_author_name
"M.Simon"
"C.Csunderlik"
"P.G.Jones"
"I.Neda"
"A.K.Fischer"
_chemical_name_systematic
;
s-cis,s-cis-bis(o-Nitrophenyl) carbonate
;
_cell_volume   1304.184
_exptl_crystal_colour 'colorless'
_exptl_crystal_density_diffrn 1.549
_exptl_special_details
;
P21/c polymorph

;
_exptl_crystal_description 'prism'
_exptl_crystal_preparation 'benzene'
_diffrn_ambient_temperature 133
#These two values have been output from a single CSD field.
_refine_ls_R_factor_gt 0.0343
_refine_ls_wR_factor_gt 0.0343
_symmetry_cell_setting monoclinic
_symmetry_space_group_name_H-M 'P 21/c'
_symmetry_Int_Tables_number 14
loop_
_symmetry_equiv_pos_site_id
_symmetry_equiv_pos_as_xyz
1 x,y,z
2 x,1/2-y,1/2+z
3 -x,-y,-z
4 -x,-1/2+y,-1/2-z
_cell_length_a 11.9789(12)
_cell_length_b 11.9076(12)
_cell_length_c 9.1495(11)
_cell_angle_alpha 90
_cell_angle_beta 92.128(3)
_cell_angle_gamma 90
_cell_formula_units_Z 4
loop_
_atom_type_symbol
_atom_type_radius_bond
C 0.68
H 0.23
N 0.68
O 0.68
loop_
_atom_site_label
_atom_site_type_symbol
_atom_site_fract_x
_atom_site_fract_y
_atom_site_fract_z
O1 O 0.29019(6) 0.17099(7) 0.42919(9)
O2 O 0.21681(6) 0.05444(7) 0.59648(9)
O3 O 0.16596(6) 0.22750(6) 0.59518(8)
O4 O 0.5050(1) -0.00622(11) 0.83351(13)
O5 O 0.39845(9) 0.12506(8) 0.74522(11)
O6 O -0.07112(8) 0.29780(8) 0.27643(12)
O7 O 0.03683(7) 0.16887(7) 0.36686(11)
C1 C 0.23182(9) 0.15314(9) 0.52819(12)
C2 C 0.28894(9) -0.03163(9) 0.55776(12)
C3 C 0.38995(9) -0.0503(1) 0.63448(12)
C4 C 0.45412(10) -0.14359(10) 0.60383(14)
H1 H 0.52160 -0.15770 0.65860
C5 C 0.41949(11) -0.21607(10) 0.49325(15)
H2 H 0.46360 -0.27970 0.47100
C6 C 0.32031(11) -0.19585(11) 0.41487(15)
H3 H 0.29750 -0.24470 0.33730
C7 C 0.25427(10) -0.10472(10) 0.44916(14)
H4 H 0.18500 -0.09280 0.39750
C8 C 0.16043(9) 0.33294(9) 0.52775(12)
C9 C 0.08447(9) 0.35544(9) 0.41232(12)
C10 C 0.07547(9) 0.46284(9) 0.35468(12)
H5 H 0.02300 0.47830 0.27690
C11 C 0.14357(10) 0.54725(10) 0.41140(13)
H6 H 0.13850 0.62090 0.37180
C12 C 0.21931(10) 0.52451(10) 0.52598(13)
H7 H 0.26620 0.58270 0.56420
C13 C 0.22705(10) 0.41741(10) 0.58515(13)
H8 H 0.27800 0.40250 0.66480
N1 N 0.43350(9) 0.02891(10) 0.74587(12)
N2 N 0.01200(8) 0.26778(8) 0.34831(11)
#END
