
#######################################################################
#
#                 Cambridge Crystallographic Data Centre
#                                CCDC
#
#######################################################################
#
# If this CIF has been generated from an entry in the Cambridge
# Structural Database, then it will include bibliographic, chemical,
# crystal, experimental, refinement or atomic coordinate data resulting
# from the CCDC's data processing and validation procedures.
#
#######################################################################

data_CSD_CIF_VEMTOW
_audit_creation_date 1991-02-22
_audit_creation_method CSD-ConQuest-V1
_database_code_CSD VEMTOW
_chemical_formula_sum 'C13 H8 N2 O7'
_chemical_formula_moiety
;
C13 H8 N2 O7
;
_journal_coeditor_code "IUCr CR0190"
_journal_coden_Cambridge 591
_journal_volume 46
_journal_year 1990
_journal_page_first 1330
_journal_name_full 'Acta Crystallogr.,Sect.C:Cryst.Struct.Commun. '
loop_
_publ_author_name
"J.A.King Junior"
"G.L.Bryant Junior"
_chemical_name_systematic
;
2-Nitrophenyl 2-nitrophenoxyformate
;
_cell_volume    635.545
_exptl_crystal_density_diffrn 1.59
_exptl_special_details
;
Pc polymorph
Moisture-sensitive

;
_diffrn_ambient_temperature 173
#These two values have been output from a single CSD field.
_refine_ls_R_factor_gt 0.0396
_refine_ls_wR_factor_gt 0.0396
_symmetry_cell_setting monoclinic
_symmetry_space_group_name_H-M 'P c'
_symmetry_Int_Tables_number 7
loop_
_symmetry_equiv_pos_site_id
_symmetry_equiv_pos_as_xyz
1 x,y,z
2 x,-y,1/2+z
_cell_length_a 7.887(3)
_cell_length_b 10.969(7)
_cell_length_c 8.113(5)
_cell_angle_alpha 90
_cell_angle_beta 115.11(4)
_cell_angle_gamma 90
_cell_formula_units_Z 2
loop_
_atom_type_symbol
_atom_type_radius_bond
C 0.68
H 0.23
N 0.68
O 0.68
loop_
_atom_site_label
_atom_site_type_symbol
_atom_site_fract_x
_atom_site_fract_y
_atom_site_fract_z
N1 N -0.0534(5) 0.3217(2) -0.0384(5)
N2 N 0.0161(5) 0.9060(2) -0.0682(5)
O1 O -0.0081(5) 0.6437(2) -0.1482(5)
O2 O 0.1088(5) 0.5498(2) 0.1282(4)
O3 O -0.0878(5) 0.2132(2) -0.0297(5)
O4 O -0.1715(5) 0.4022(2) -0.0841(5)
O5 O -0.0974(5) 0.6874(2) 0.0779(4)
O6 O 0.0377(5) 0.9729(2) -0.1786(5)
O7 O 0.1445(5) 0.8596(2) 0.0636(5)
C1 C 0.00000 0.6288(2) 0.00000
C2 C 0.2133(5) 0.4674(2) 0.0776(5)
C3 C 0.3974(5) 0.4943(3) 0.1202(5)
C4 C 0.5078(5) 0.4106(3) 0.0819(5)
C5 C 0.4346(6) 0.2991(3) 0.0046(5)
C6 C 0.2522(6) 0.2684(3) -0.0308(5)
C7 C 0.1418(5) 0.3539(2) 0.0050(5)
C8 C -0.2210(5) 0.7786(2) -0.0185(5)
C9 C -0.4022(6) 0.7666(3) -0.0331(5)
C10 C -0.5351(5) 0.8553(3) -0.1196(6)
C11 C -0.4895(6) 0.9554(3) -0.1954(5)
C12 C -0.3095(6) 0.9693(3) -0.1841(5)
C13 C -0.1749(5) 0.8815(2) -0.0918(5)
H1 H 0.44960 0.57060 0.17710
H2 H 0.63520 0.43090 0.10780
H3 H 0.51140 0.24270 -0.02420
H4 H 0.20300 0.18950 -0.07840
H5 H -0.43500 0.69650 0.01830
H6 H -0.66000 0.84640 -0.12830
H7 H -0.58240 1.01660 -0.25560
H8 H -0.27820 1.03810 -0.23920
#END
