
#######################################################################
#
#                 Cambridge Crystallographic Data Centre
#                                CCDC
#
#######################################################################
#
# If this CIF has been generated from an entry in the Cambridge
# Structural Database, then it will include bibliographic, chemical,
# crystal, experimental, refinement or atomic coordinate data resulting
# from the CCDC's data processing and validation procedures.
#
#######################################################################

data_CSD_CIF_VENBAU
_audit_creation_date 2018-01-20
_audit_creation_method CSD-ConQuest-V1
_database_code_CSD VENBAU
_database_code_depnum_ccdc_archive 'CCDC 1816711'
_chemical_formula_sum 'C8 H8 N2 O4'
_chemical_formula_moiety
;
C8 H8 N2 O4
;
_journal_coeditor_code "xi2007"
_journal_coden_Cambridge 1828
_journal_volume 74
_journal_year 2018
_journal_page_first 196
_journal_name_full 'Acta Crystallogr.,Sect.E:Cryst.Commun. '
loop_
_publ_author_name
"R.C.Sausa"
"L.A.Wingard"
"P.E.Guzman"
"R.A.Pesce-Rodriguez"
"J.J.Sabatini"
"P.Y.Zavalij"
_chemical_name_systematic
;
([3,3'-bi-1,2-oxazole]-5,5'-diyl)dimethanol
;
_cell_volume    408.307
_exptl_crystal_colour 'colorless'
_exptl_crystal_density_diffrn 1.596
_exptl_crystal_description 'block'
_diffrn_ambient_temperature 150
#These two values have been output from a single CSD field.
_refine_ls_R_factor_gt 0.0333
_refine_ls_wR_factor_gt 0.0333
_symmetry_cell_setting monoclinic
_symmetry_space_group_name_H-M 'P 21/n'
_symmetry_Int_Tables_number 14
loop_
_symmetry_equiv_pos_site_id
_symmetry_equiv_pos_as_xyz
1 x,y,z
2 1/2-x,1/2+y,1/2-z
3 -x,-y,-z
4 -1/2+x,-1/2-y,-1/2+z
_cell_length_a 7.7824(3)
_cell_length_b 4.0652(1)
_cell_length_c 13.2109(5)
_cell_angle_alpha 90
_cell_angle_beta 102.334(4)
_cell_angle_gamma 90
_cell_formula_units_Z 2
loop_
_atom_type_symbol
_atom_type_radius_bond
C 0.68
H 0.23
N 0.68
O 0.68
loop_
_atom_site_label
_atom_site_type_symbol
_atom_site_fract_x
_atom_site_fract_y
_atom_site_fract_z
C1 C 0.64217(17) 0.3456(3) 0.39844(9)
C2 C 0.78918(17) 0.5023(3) 0.3881(1)
H1 H 0.80813 0.62141 0.33137
C3 C 0.90869(16) 0.4449(3) 0.48325(9)
C4 C 0.46651(17) 0.3002(3) 0.3283(1)
H2 H 0.45379 0.07623 0.30245
H3 H 0.37383 0.34373 0.36529
N1 N 0.83872(14) 0.2665(3) 0.54646(8)
O1 O 0.66636(12) 0.2010(2) 0.49285(7)
O2 O 0.45577(14) 0.5241(3) 0.24526(7)
H4 H 0.41255 0.43159 0.19058
C1B C 1.35783(17) 0.6544(3) 0.60156(9)
C2B C 1.21082(17) 0.4977(3) 0.6119(1)
H1B H 1.19187 0.37859 0.66863
C3B C 1.09131(16) 0.5551(3) 0.51675(9)
C4B C 1.53349(17) 0.6998(3) 0.6717(1)
H2B H 1.54621 0.92377 0.69755
H3B H 1.62617 0.65627 0.63471
N1B N 1.16128(14) 0.7335(3) 0.45354(8)
O1B O 1.33364(12) 0.7990(2) 0.50715(7)
O2B O 1.54423(14) 0.4759(3) 0.75474(7)
H4B H 1.58745 0.56841 0.80942
#END
