
#######################################################################
#
#                 Cambridge Crystallographic Data Centre
#                                CCDC
#
#######################################################################
#
# If this CIF has been generated from an entry in the Cambridge
# Structural Database, then it will include bibliographic, chemical,
# crystal, experimental, refinement or atomic coordinate data resulting
# from the CCDC's data processing and validation procedures.
#
#######################################################################

data_CSD_CIF_VENBEY
_audit_creation_date 2018-01-20
_audit_creation_method CSD-ConQuest-V1
_database_code_CSD VENBEY
_database_code_depnum_ccdc_archive 'CCDC 1816712'
_chemical_formula_sum 'C10 H12 N2 O6'
_chemical_formula_moiety
;
C10 H12 N2 O6
;
_journal_coeditor_code "xi2007"
_journal_coden_Cambridge 1828
_journal_volume 74
_journal_year 2018
_journal_page_first 196
_journal_name_full 'Acta Crystallogr.,Sect.E:Cryst.Commun. '
loop_
_publ_author_name
"R.C.Sausa"
"L.A.Wingard"
"P.E.Guzman"
"R.A.Pesce-Rodriguez"
"J.J.Sabatini"
"P.Y.Zavalij"
_chemical_name_systematic
;
([3,3'-bi-1,2-oxazole]-4,4',5,5'-tetrayl)tetramethanol
;
_cell_volume    532.855
_exptl_crystal_colour 'colorless'
_exptl_crystal_density_diffrn 1.597
_exptl_crystal_description 'needle'
_diffrn_ambient_temperature 150
#These two values have been output from a single CSD field.
_refine_ls_R_factor_gt 0.0342
_refine_ls_wR_factor_gt 0.0342
_symmetry_cell_setting monoclinic
_symmetry_space_group_name_H-M 'P 21/c'
_symmetry_Int_Tables_number 14
loop_
_symmetry_equiv_pos_site_id
_symmetry_equiv_pos_as_xyz
1 x,y,z
2 -x,1/2+y,1/2-z
3 -x,-y,-z
4 x,-1/2-y,-1/2+z
_cell_length_a 4.5379(4)
_cell_length_b 9.9195(8)
_cell_length_c 12.0177(9)
_cell_angle_alpha 90
_cell_angle_beta 99.9312(11)
_cell_angle_gamma 90
_cell_formula_units_Z 2
loop_
_atom_type_symbol
_atom_type_radius_bond
C 0.68
H 0.23
N 0.68
O 0.68
loop_
_atom_site_label
_atom_site_type_symbol
_atom_site_fract_x
_atom_site_fract_y
_atom_site_fract_z
O1 O 0.58044(17) 0.58291(7) 0.30718(6)
O2 O 0.23448(16) 0.42300(8) 0.13078(6)
H1 H 0.174(4) 0.5035(18) 0.1182(14)
O3 O 0.93528(19) 0.17777(8) 0.42532(7)
H2 H 1.037(4) 0.1801(18) 0.4858(16)
N1 N 0.7277(2) 0.60707(9) 0.41811(7)
C1 C 0.6765(2) 0.46292(10) 0.27170(8)
C2 C 0.8810(2) 0.40630(9) 0.35428(8)
C3 C 0.9048(2) 0.50244(10) 0.44419(8)
C4 C 0.5528(2) 0.42337(10) 0.15275(8)
H3 H 0.631(3) 0.4856(14) 0.1016(12)
H4 H 0.622(3) 0.3337(14) 0.1391(11)
C5 C 1.0376(2) 0.27405(10) 0.35134(9)
H5 H 1.255(3) 0.2866(14) 0.3717(12)
H6 H 0.992(3) 0.2362(14) 0.2760(11)
O1B O 1.41956(17) 0.41709(7) 0.69282(6)
O2B O 1.76552(16) 0.57700(8) 0.86922(6)
H1B H 1.826(4) 0.4965(18) 0.8818(14)
O3B O 1.06472(19) 0.82223(8) 0.57468(7)
H2B H 0.963(4) 0.8199(18) 0.5142(16)
N1B N 1.2723(2) 0.39293(9) 0.58189(7)
C1B C 1.3235(2) 0.53708(10) 0.72830(8)
C2B C 1.1190(2) 0.59370(9) 0.64572(8)
C3B C 1.0952(2) 0.49756(10) 0.55581(8)
C4B C 1.4472(2) 0.57663(10) 0.84725(8)
H3B H 1.369(3) 0.5144(14) 0.8984(12)
H4B H 1.378(3) 0.6663(14) 0.8609(11)
C5B C 0.9624(2) 0.72595(10) 0.64866(9)
H5B H 0.745(3) 0.7134(14) 0.6283(12)
H6B H 1.008(3) 0.7638(14) 0.7240(11)
#END
