
#######################################################################
#
#                 Cambridge Crystallographic Data Centre
#                                CCDC
#
#######################################################################
#
# If this CIF has been generated from an entry in the Cambridge
# Structural Database, then it will include bibliographic, chemical,
# crystal, experimental, refinement or atomic coordinate data resulting
# from the CCDC's data processing and validation procedures.
#
#######################################################################

data_CSD_CIF_VENRIP
_audit_creation_date 2001-03-19
_audit_creation_method CSD-ConQuest-V1
_database_code_CSD VENRIP
_chemical_formula_sum 'C18 H15 N1 O3'
_chemical_formula_moiety
;
C18 H15 N1 O3
;
_journal_coden_Cambridge 151
_journal_volume 42
_journal_year 1999
_journal_page_first 1358
_journal_name_full 'J.Med.Chem. '
loop_
_publ_author_name
"J.R.Dimmock"
"N.M.Kandepu"
"A.J.Nazarali"
"T.P.Kowalchuk"
"N.Motaganahalli"
"J.W.Quail"
"P.A.Mykytiuk"
"G.F.Audette"
"L.Prasad"
"P.Perjesi"
"T.M.Allen"
"C.L.Santos"
"J.Szydlowski"
"E.De Clercq"
"J.Balzarini"
_chemical_name_systematic
;
2-(4-Nitrophenylmethylene)-1-benzosuberone
;
_cell_volume    697.715
_exptl_crystal_density_diffrn 1.396
_exptl_special_details
;
cytotoxic activity against murine P388 and L1210 leukemia cell lines and 
human molt 4/C8 and CEM lymphocytes, with preferential cytotoxicity towards 
colon, breast and leukemic cells
;
_diffrn_ambient_temperature 123
#These two values have been output from a single CSD field.
_refine_ls_R_factor_gt 0.044
_refine_ls_wR_factor_gt 0.044
_symmetry_cell_setting triclinic
_symmetry_space_group_name_H-M 'P -1'
_symmetry_Int_Tables_number 2
loop_
_symmetry_equiv_pos_site_id
_symmetry_equiv_pos_as_xyz
1 x,y,z
2 -x,-y,-z
_cell_length_a 8.032(4)
_cell_length_b 8.918(4)
_cell_length_c 11.019(3)
_cell_angle_alpha 96.93(3)
_cell_angle_beta 105.57(4)
_cell_angle_gamma 109.41(4)
_cell_formula_units_Z 2
loop_
_atom_type_symbol
_atom_type_radius_bond
C 0.68
H 0.23
N 0.68
O 0.68
loop_
_atom_site_label
_atom_site_type_symbol
_atom_site_fract_x
_atom_site_fract_y
_atom_site_fract_z
N1 N 0.6155(2) 0.3540(2) 0.6008(2)
O1 O -0.5514(2) -0.1013(2) 0.2377(1)
O2 O 0.7316(2) 0.3166(2) 0.5647(1)
O3 O 0.6559(2) 0.4607(2) 0.6974(1)
C1 C -0.4710(2) -0.1440(2) 0.1687(2)
C2 C -0.2673(21) -0.1132(2) 0.2207(2)
C3 C -0.2126(2) -0.2434(2) 0.1610(2)
C4 C -0.1666(2) -0.2113(2) 0.0374(2)
C5 C -0.2898(2) -0.1343(2) -0.0413(2)
C6 C -0.4962(2) -0.2251(2) -0.0683(2)
C7 C -0.6133(3) -0.3015(2) -0.1956(2)
C8 C -0.8044(3) -0.3821(2) -0.2256(2)
C9 C -0.8845(2) -0.3875(2) -0.1292(2)
C10 C -0.7715(2) -0.3117(2) -0.0021(2)
C11 C -0.5786(2) -0.2308(2) 0.0294(2)
C12 C -0.1606(2) 0.0254(2) 0.3115(2)
C13 C 0.0412(2) 0.1018(2) 0.3814(2)
C14 C 0.1770(2) 0.0466(2) 0.3575(2)
C15 C 0.3646(2) 0.1283(2) 0.4291(2)
C16 C 0.4173(2) 0.2666(2) 0.5242(2)
C17 C 0.2891(2) 0.3258(2) 0.5510(2)
C18 C 0.1029(2) 0.2438(2) 0.4790(2)
H1 H -0.31640 -0.35100 0.13980
H2 H -0.10210 -0.24790 0.22490
H3 H -0.03380 -0.13770 0.06150
H4 H -0.18400 -0.31580 -0.01690
H5 H -0.25320 -0.02060 0.00620
H6 H -0.26630 -0.12990 -0.12480
H7 H -0.56050 -0.29820 -0.26320
H8 H -0.88060 -0.43380 -0.31300
H9 H -1.01560 -0.44260 -0.14960
H10 H -0.82620 -0.31480 0.06450
H11 H -0.22910 0.08600 0.33510
H12 H 0.13940 -0.04820 0.29120
H13 H 0.45530 0.08970 0.41300
H14 H 0.32860 0.42080 0.61740
H15 H 0.01380 0.28430 0.49590
#END
