
#######################################################################
#
#                 Cambridge Crystallographic Data Centre
#                                CCDC
#
#######################################################################
#
# If this CIF has been generated from an entry in the Cambridge
# Structural Database, then it will include bibliographic, chemical,
# crystal, experimental, refinement or atomic coordinate data resulting
# from the CCDC's data processing and validation procedures.
#
#######################################################################

data_CSD_CIF_VENXOE
_audit_creation_date 2018-01-22
_audit_creation_method CSD-ConQuest-V1
_database_code_CSD VENXOE
_database_code_depnum_ccdc_archive 'CCDC 1565469'
_chemical_formula_sum 'C15 H13 N1 O1'
_chemical_formula_moiety
;
C15 H13 N1 O1
;
_journal_coden_Cambridge 1291
_journal_year 2018
_journal_page_first 150
_journal_name_full 'Eur.J.Org.Chem. '
loop_
_publ_author_name
"Xue-Ling Mo"
"Chun-Hua Chen"
"Cui Liang"
"Dong-Liang Mo"
_chemical_name_systematic
;
N-hydroxy-1,3-diphenylprop-2-en-1-imine
;
_cell_volume   1263.408
_diffrn_ambient_temperature 296.1
#These two values have been output from a single CSD field.
_refine_ls_R_factor_gt 0.0469
_refine_ls_wR_factor_gt 0.0469
_symmetry_cell_setting triclinic
_symmetry_space_group_name_H-M 'P -1'
_symmetry_Int_Tables_number 2
loop_
_symmetry_equiv_pos_site_id
_symmetry_equiv_pos_as_xyz
1 x,y,z
2 -x,-y,-z
_cell_length_a 10.465(4)
_cell_length_b 11.247(4)
_cell_length_c 11.804(4)
_cell_angle_alpha 80.917(6)
_cell_angle_beta 88.085(6)
_cell_angle_gamma 67.124(6)
_cell_formula_units_Z 4
loop_
_atom_type_symbol
_atom_type_radius_bond
C 0.68
H 0.23
N 0.68
O 0.68
loop_
_atom_site_label
_atom_site_type_symbol
_atom_site_fract_x
_atom_site_fract_y
_atom_site_fract_z
N1 N 0.11329(13) 0.46673(13) 0.41520(11)
O1 O 0.13653(12) 0.36759(11) 0.5093(1)
H1 H 0.07270 0.39020 0.55370
C1 C 0.20781(15) 0.43694(15) 0.33951(13)
C2 C 0.32379(16) 0.30962(16) 0.34764(14)
H2 H 0.31550 0.23960 0.39630
C3 C 0.18825(15) 0.54069(16) 0.23909(13)
C4 C 0.55763(16) 0.16258(16) 0.29289(14)
C5 C 0.15419(17) 0.66890(17) 0.25250(15)
H3 H 0.14600 0.69100 0.32580
C6 C 0.43968(16) 0.28746(16) 0.29039(15)
H4 H 0.44690 0.35910 0.24350
C7 C 0.67866(19) 0.15952(19) 0.24027(18)
H5 H 0.68390 0.23680 0.20330
C8 C 0.55417(19) 0.04513(17) 0.34614(16)
H6 H 0.47420 0.04450 0.38260
C9 C 0.13201(19) 0.7651(2) 0.15748(19)
H7 H 0.10750 0.85170 0.16700
C10 C 0.2021(2) 0.5106(2) 0.12890(16)
H8 H 0.22510 0.42470 0.11790
C11 C 0.7922(2) 0.0428(2) 0.2419(2)
H9 H 0.87360 0.04250 0.20770
C12 C 0.6669(2) -0.07074(18) 0.34611(18)
H10 H 0.66230 -0.14870 0.38210
C13 C 0.7851(2) -0.0717(2) 0.29356(18)
H11 H 0.86070 -0.15030 0.29290
C14 C 0.1464(2) 0.7320(3) 0.0494(2)
H12 H 0.13140 0.79620 -0.01460
C15 C 0.1823(3) 0.6061(3) 0.03614(18)
H13 H 0.19380 0.58410 -0.03730
N2 N 0.61671(14) 0.47450(14) 0.41766(12)
O2 O 0.64210(13) 0.37280(13) 0.51014(11)
H14 H 0.57640 0.39150 0.55320
C16 C 0.71789(17) 0.45511(17) 0.34743(14)
C17 C 0.84630(17) 0.33836(17) 0.36457(14)
H15 H 0.86330 0.28770 0.43700
C18 C 1.06291(17) 0.17441(18) 0.29813(15)
C19 C 0.68960(17) 0.55848(17) 0.24525(14)
C20 C 1.1015(2) 0.0855(2) 0.39923(17)
H16 H 1.05120 0.10580 0.46480
C21 C 0.78737(19) 0.61015(18) 0.20726(15)
H17 H 0.87280 0.57930 0.24590
C22 C 0.56278(18) 0.60778(18) 0.18599(16)
H18 H 0.49580 0.57490 0.21020
C23 C 1.1429(2) 0.1417(2) 0.20239(17)
H19 H 1.12090 0.20000 0.13390
C24 C 0.94089(17) 0.29777(18) 0.28657(15)
H20 H 0.92850 0.35350 0.21710
C25 C 0.5346(2) 0.7045(2) 0.09192(18)
H21 H 0.44900 0.73670 0.05320
C26 C 0.7586(2) 0.7064(2) 0.11296(18)
H22 H 0.82490 0.73990 0.08820
C27 C 1.2889(2) -0.0635(2) 0.3090(2)
H23 H 1.36350 -0.14350 0.31250
C28 C 1.2126(2) -0.0318(2) 0.4042(2)
H24 H 1.23620 -0.09010 0.47270
C29 C 1.2548(2) 0.0233(2) 0.2085(2)
H25 H 1.30730 0.00250 0.14390
C30 C 0.6330(3) 0.7535(2) 0.05522(19)
H26 H 0.61450 0.81840 -0.00860
#END
