
#######################################################################
#
#                 Cambridge Crystallographic Data Centre
#                                CCDC
#
#######################################################################
#
# If this CIF has been generated from an entry in the Cambridge
# Structural Database, then it will include bibliographic, chemical,
# crystal, experimental, refinement or atomic coordinate data resulting
# from the CCDC's data processing and validation procedures.
#
#######################################################################

data_CSD_CIF_VEPDIG
_audit_creation_date 2018-01-22
_audit_creation_method CSD-ConQuest-V1
_database_code_CSD VEPDIG
_database_code_depnum_ccdc_archive 'CCDC 1573675'
_chemical_formula_sum 'C24 H23 N1 O7'
_chemical_formula_moiety
;
C24 H23 N1 O7
;
_journal_coden_Cambridge 35
_journal_volume 83
_journal_year 2018
_journal_page_first 571
_journal_name_full 'J.Org.Chem. '
loop_
_publ_author_name
"Murugesan Thangamani"
"K.Srinivasan"
_chemical_name_systematic
;
diethyl [5-(4-nitrophenyl)-1-oxo-1-phenylpenta-2,4-dien-2-yl]propanedioate
;
_cell_volume   4519.318
_exptl_crystal_colour 'colorless'
_exptl_crystal_density_diffrn 1.264
_exptl_crystal_description 'Block'
_diffrn_ambient_temperature 297.2
_diffrn_special_details
;
twin

;
_refine_special_details
;
C24A and C21B disordered over two sites with occupancies 0.54:0.46.

;
#These two values have been output from a single CSD field.
_refine_ls_R_factor_gt 0.0888
_refine_ls_wR_factor_gt 0.0888
_symmetry_cell_setting monoclinic
_symmetry_space_group_name_H-M 'C c'
_symmetry_Int_Tables_number 9
loop_
_symmetry_equiv_pos_site_id
_symmetry_equiv_pos_as_xyz
1 x,y,z
2 x,-y,1/2+z
3 1/2+x,1/2+y,z
4 1/2+x,1/2-y,1/2+z
_cell_length_a 17.832(2)
_cell_length_b 11.4226(13)
_cell_length_c 22.574(3)
_cell_angle_alpha 90
_cell_angle_beta 100.618(4)
_cell_angle_gamma 90
_cell_formula_units_Z 8
loop_
_atom_type_symbol
_atom_type_radius_bond
C 0.68
H 0.23
N 0.68
O 0.68
loop_
_atom_site_label
_atom_site_type_symbol
_atom_site_fract_x
_atom_site_fract_y
_atom_site_fract_z
O1 O 0.2974(3) 0.4028(4) 0.4889(2)
N1 N 0.5141(4) 1.1088(8) 0.3412(4)
O2 O 0.4981(4) 1.2132(6) 0.3341(4)
O3 O 0.2805(3) 0.4195(4) 0.6221(3)
O4 O 0.5249(3) 0.4127(6) 0.5924(3)
O5 O 0.3768(3) 0.2738(4) 0.5436(3)
C1 C 0.3375(4) 0.6806(5) 0.5617(3)
H1 H 0.30100 0.72567 0.57574
C2 C 0.3789(4) 0.7365(5) 0.5204(3)
H2 H 0.41602 0.69379 0.50586
C3 C 0.3660(4) 0.8478(5) 0.5021(3)
H3 H 0.32800 0.88794 0.51688
C4 C 0.4664(4) 0.4469(6) 0.6040(5)
O6 O 0.4561(4) 0.4625(8) 0.6608(3)
C5 C 0.4054(4) 0.9114(5) 0.4614(3)
C6 C 0.3000(4) 0.5218(6) 0.6259(3)
C7 C 0.3237(5) 0.6926(6) 0.6981(3)
H4 H 0.36918 0.70913 0.68510
C8 C 0.2784(4) 0.5994(6) 0.6723(3)
C9 C 0.4532(4) 0.8573(6) 0.4272(3)
H5 H 0.46178 0.77717 0.43111
C10 C 0.3463(3) 0.5684(5) 0.5824(3)
C11 C 0.3563(4) 0.3726(6) 0.5315(3)
O7 O 0.5593(5) 1.0579(9) 0.3171(4)
C12 C 0.4754(4) 1.0401(7) 0.3829(3)
C13 C 0.3987(4) 0.4813(5) 0.5589(3)
H6 H 0.41796 0.52071 0.52620
C14 C 0.3952(4) 1.0335(5) 0.4563(3)
H7 H 0.36424 1.07153 0.47917
C15 C 0.4308(4) 1.0971(6) 0.4173(3)
H8 H 0.42471 1.17786 0.41444
C16 C 0.2568(5) 0.3052(7) 0.4543(5)
H9 H 0.29092 0.26330 0.43294
H10 H 0.23789 0.25095 0.48117
C17 C 0.2349(7) 0.7363(9) 0.7621(4)
H11 H 0.22061 0.78024 0.79285
C18 C 0.4883(5) 0.9208(7) 0.3872(4)
H12 H 0.51948 0.88401 0.36408
C19 C 0.1930(5) 0.3552(9) 0.4114(4)
H13 H 0.21238 0.40743 0.38448
H14 H 0.16005 0.39757 0.43296
H15 H 0.16475 0.29334 0.38861
C20 C 0.3019(6) 0.7604(8) 0.7424(4)
H16 H 0.33240 0.82251 0.75905
C21 C 0.2104(4) 0.5771(8) 0.6941(3)
H17 H 0.18026 0.51340 0.67918
C22 C 0.1888(5) 0.6453(10) 0.7353(4)
H18 H 0.14195 0.63214 0.74663
C23 C 0.5204(9) 0.441(2) 0.7123(7)
H19 H 0.56853 0.44288 0.69805
H20 H 0.52129 0.50126 0.74241
C24 C 0.5116(14) 0.331(2) 0.7379(11)
H21 H 0.53106 0.27133 0.71505
H22 H 0.45844 0.31721 0.73772
H23 H 0.53914 0.32998 0.77870
O8 O 0.6715(3) 0.5243(5) 0.5282(2)
C25 C 0.6101(5) 0.5632(6) 0.4948(3)
O9 O 0.4349(4) -0.0712(7) 0.6840(4)
N2 N 0.4828(4) -0.1210(7) 0.6609(4)
O10 O 0.4998(5) -0.2238(7) 0.6691(4)
C26 C 0.6420(4) 0.4129(6) 0.4179(4)
C27 C 0.5923(4) 0.0744(6) 0.5417(3)
C28 C 0.6719(5) 0.3015(7) 0.3001(4)
H24 H 0.62613 0.28158 0.31179
C29 C 0.6064(5) -0.0450(7) 0.5528(4)
H25 H 0.64191 -0.08203 0.53373
C30 C 0.5388(4) 0.1258(6) 0.5721(3)
H26 H 0.52644 0.20446 0.56564
C31 C 0.6165(4) 0.2496(7) 0.4818(3)
H27 H 0.58205 0.29218 0.49952
C32 C 0.7841(5) 0.4208(6) 0.3125(3)
H28 H 0.81337 0.48210 0.33159
C33 C 0.5041(4) 0.0621(7) 0.6112(4)
H29 H 0.47023 0.09793 0.63228
O11 O 0.7064(5) 0.5690(5) 0.3807(5)
C34 C 0.6517(4) 0.3061(7) 0.4380(3)
H30 H 0.68604 0.26095 0.42144
C35 C 0.7155(4) 0.3914(6) 0.3294(3)
C36 C 0.5851(5) 0.5027(8) 0.4370(5)
H31 H 0.59718 0.56691 0.41150
C37 C 0.6301(4) 0.1392(7) 0.4987(4)
H32 H 0.66658 0.09905 0.48204
C38 C 0.8089(6) 0.3571(9) 0.2664(4)
H33 H 0.85484 0.37547 0.25468
C39 C 0.6948(6) 0.2413(8) 0.2545(4)
H34 H 0.66400 0.18315 0.23390
C40 C 0.5199(4) -0.0529(7) 0.6187(3)
C41 C 0.5105(8) 0.4916(14) 0.4097(5)
C42 C 0.5710(5) -0.1092(7) 0.5898(4)
H35 H 0.58091 -0.18871 0.59549
C43 C 0.7646(7) 0.2679(9) 0.2389(4)
H36 H 0.78153 0.22406 0.20927
C44 C 0.6884(4) 0.4648(7) 0.3764(4)
C45 C 0.6943(8) 0.5738(12) 0.5874(4)
H37 H 0.72024 0.64780 0.58492
H38 H 0.64987 0.58777 0.60557
C46 C 0.3347(11) 0.5666(19) 0.3618(11)
H39 H 0.28771 0.56255 0.33321
H40 H 0.35034 0.64687 0.36758
H41 H 0.32737 0.53407 0.39954
O12 O 0.4690(6) 0.4126(9) 0.4430(5)
C47 C 0.3912(9) 0.503(2) 0.3400(8)
H42 H 0.39025 0.52438 0.29835
H43 H 0.37923 0.42011 0.34099
C48 C 0.744(2) 0.493(3) 0.6225(9)
H44 H 0.75991 0.52410 0.66232
H45 H 0.71751 0.42043 0.62473
H46 H 0.78760 0.48021 0.60416
O13 O 0.4672(6) 0.5216(10) 0.3738(9)
O14 O 0.5719(7) 0.6418(10) 0.5073(4)
#END
