
#######################################################################
#
#                 Cambridge Crystallographic Data Centre
#                                CCDC
#
#######################################################################
#
# If this CIF has been generated from an entry in the Cambridge
# Structural Database, then it will include bibliographic, chemical,
# crystal, experimental, refinement or atomic coordinate data resulting
# from the CCDC's data processing and validation procedures.
#
#######################################################################

data_CSD_CIF_VEPXUL
_audit_creation_date 2013-02-01
_audit_creation_method CSD-ConQuest-V1
_database_code_CSD VEPXUL
_database_code_depnum_ccdc_archive 'CCDC 816961'
_chemical_formula_sum 'C24 H26 N4 O2'
_chemical_formula_moiety
;
C24 H26 N4 O2
;
_journal_coden_Cambridge 95
_journal_year 2011
_journal_page_first 898
_journal_name_full 'Izv.Akad.Nauk SSSR,Ser.Khim.(Russ.)(Russ.Chem.Bull.) '
loop_
_publ_author_name
"E.V.Verbitsky"
"Yu.A.Kvashnin"
"P.A.Slepukhin"
"A.V.Kuchin"
"G.L.Rusinov"
"O.N.Chupakhin"
"V.N.Charushin"
_chemical_name_systematic
;
2,6-Di-t-butyl-4-(6-phenyl[1,2,5]oxadiazolo[3,4-b]pyrazin-5-yl)phenol
;
_chemical_melting_point 220
_cell_volume   4358.285
_exptl_crystal_colour 'red'
_exptl_crystal_density_diffrn 1.227
_exptl_special_details
;
Melting point range 220-222K

;
_exptl_crystal_description 'plate'
_diffrn_ambient_temperature 295
#These two values have been output from a single CSD field.
_refine_ls_R_factor_gt 0.0354
_refine_ls_wR_factor_gt 0.0354
_symmetry_cell_setting orthorhombic
_symmetry_space_group_name_H-M 'P b c a'
_symmetry_Int_Tables_number 61
loop_
_symmetry_equiv_pos_site_id
_symmetry_equiv_pos_as_xyz
1 x,y,z
2 1/2-x,-y,1/2+z
3 -x,1/2+y,1/2-z
4 1/2+x,1/2-y,-z
5 -x,-y,-z
6 -1/2+x,y,-1/2-z
7 x,-1/2-y,-1/2+z
8 -1/2-x,-1/2+y,z
_cell_length_a 19.3830(15)
_cell_length_b 10.9693(10)
_cell_length_c 20.4982(19)
_cell_angle_alpha 90
_cell_angle_beta 90
_cell_angle_gamma 90
_cell_formula_units_Z 8
loop_
_atom_type_symbol
_atom_type_radius_bond
C 0.68
H 0.23
N 0.68
O 0.68
loop_
_atom_site_label
_atom_site_type_symbol
_atom_site_fract_x
_atom_site_fract_y
_atom_site_fract_z
O1 O 0.15189(7) 0.79130(14) 0.31791(7)
N1 N 0.07868(6) 0.48926(12) 0.06886(6)
C1 C 0.10325(7) 0.60073(15) 0.06933(8)
O2 O 0.06768(6) 0.31636(11) -0.07218(7)
N2 N 0.12068(6) 0.61491(14) -0.04945(6)
C2 C 0.12197(7) 0.66626(15) 0.00802(8)
C3 C 0.09947(8) 0.49618(18) -0.04814(9)
N3 N 0.09443(7) 0.42328(16) -0.09862(6)
C4 C 0.07657(8) 0.43715(17) 0.00858(9)
N4 N 0.05614(7) 0.32537(13) -0.00502(8)
C5 C 0.11415(8) 0.65630(14) 0.13409(7)
C6 C 0.06804(8) 0.62982(13) 0.18415(7)
H1 H 0.02980 0.58150 0.17510
C7 C 0.07720(8) 0.67312(13) 0.24713(7)
C8 C 0.13672(8) 0.74352(14) 0.25809(8)
C9 C 0.18614(8) 0.76963(13) 0.20982(9)
C10 C 0.17225(8) 0.72482(13) 0.14811(8)
H2 H 0.20320 0.74140 0.11460
C11 C 0.02513(8) 0.64176(15) 0.30110(8)
C12 C 0.25084(8) 0.84636(15) 0.22363(8)
C13 C 0.14032(9) 0.79786(16) 0.00785(8)
C14 C 0.10039(8) 0.88351(17) 0.03928(8)
H3 H 0.06300 0.85890 0.06440
C15 C 0.11591(10) 1.00663(17) 0.03348(9)
H4 H 0.08850 1.06420 0.05440
C16 C 0.17120(11) 1.04347(17) -0.00282(10)
H5 H 0.18150 1.12600 -0.00620
C17 C 0.21164(9) 0.95957(19) -0.03433(10)
H6 H 0.24950 0.98490 -0.05860
C18 C 0.19568(9) 0.83676(17) -0.02974(8)
H7 H 0.22230 0.77980 -0.05200
C19 C -0.03513(7) 0.56498(13) 0.27534(7)
H8 H -0.01790 0.48880 0.25900
H9 H -0.05800 0.60830 0.24090
H10 H -0.06720 0.54980 0.31010
C20 C -0.00736(7) 0.75743(14) 0.33033(7)
H11 H -0.03110 0.80170 0.29670
H12 H 0.02820 0.80780 0.34870
H13 H -0.03950 0.73500 0.36390
C21 C 0.06093(8) 0.56543(14) 0.35448(7)
H14 H 0.07650 0.48970 0.33620
H15 H 0.02890 0.54930 0.38910
H16 H 0.09970 0.60980 0.37140
C22 C 0.29757(7) 0.85451(14) 0.16287(7)
H17 H 0.31230 0.77420 0.15060
H18 H 0.33720 0.90380 0.17270
H19 H 0.27230 0.89060 0.12750
C23 C 0.29498(7) 0.79349(13) 0.27884(7)
H20 H 0.26830 0.79070 0.31830
H21 H 0.33480 0.84410 0.28540
H22 H 0.30950 0.71260 0.26740
C24 C 0.22921(7) 0.97725(12) 0.24072(8)
H23 H 0.20210 0.97660 0.27990
H24 H 0.20240 1.01060 0.20560
H25 H 0.26960 1.02630 0.24730
H26 H 0.1254(8) 0.7838(17) 0.3443(8)
#END
