
#######################################################################
#
#                 Cambridge Crystallographic Data Centre
#                                CCDC
#
#######################################################################
#
# If this CIF has been generated from an entry in the Cambridge
# Structural Database, then it will include bibliographic, chemical,
# crystal, experimental, refinement or atomic coordinate data resulting
# from the CCDC's data processing and validation procedures.
#
#######################################################################

data_CSD_CIF_VEPYEW
_audit_creation_date 2013-02-01
_audit_creation_method CSD-ConQuest-V1
_database_code_CSD VEPYEW
_database_code_depnum_ccdc_archive 'CCDC 816960'
_chemical_formula_sum 'C20 H14 N4 O2'
_chemical_formula_moiety
;
C20 H14 N4 O2
;
_journal_coden_Cambridge 95
_journal_year 2011
_journal_page_first 898
_journal_name_full 'Izv.Akad.Nauk SSSR,Ser.Khim.(Russ.)(Russ.Chem.Bull.) '
loop_
_publ_author_name
"E.V.Verbitsky"
"Yu.A.Kvashnin"
"P.A.Slepukhin"
"A.V.Kuchin"
"G.L.Rusinov"
"O.N.Chupakhin"
"V.N.Charushin"
_chemical_name_systematic
;
N-(2-Phenylnaphtho[2,1-b]furan-1-yl)-1,2,5-oxadiazole-3,4-diamine
;
_chemical_melting_point 253
_cell_volume   3205.142
_exptl_crystal_colour 'colorless'
_exptl_crystal_density_diffrn 1.419
_exptl_special_details
;
Melting point range 253-255K

;
_exptl_crystal_description 'plate'
_diffrn_ambient_temperature 295
#These two values have been output from a single CSD field.
_refine_ls_R_factor_gt 0.0791
_refine_ls_wR_factor_gt 0.0791
_symmetry_cell_setting monoclinic
_symmetry_space_group_name_H-M 'C 2/c'
_symmetry_Int_Tables_number 15
loop_
_symmetry_equiv_pos_site_id
_symmetry_equiv_pos_as_xyz
1 x,y,z
2 -x,y,1/2-z
3 1/2+x,1/2+y,z
4 1/2-x,1/2+y,1/2-z
5 -x,-y,-z
6 x,-y,-1/2+z
7 -1/2-x,-1/2-y,-z
8 -1/2+x,-1/2-y,-1/2+z
_cell_length_a 37.520(8)
_cell_length_b 5.6074(11)
_cell_length_c 15.293(4)
_cell_angle_alpha 90
_cell_angle_beta 95.021(19)
_cell_angle_gamma 90
_cell_formula_units_Z 8
loop_
_atom_type_symbol
_atom_type_radius_bond
C 0.68
H 0.23
N 0.68
O 0.68
loop_
_atom_site_label
_atom_site_type_symbol
_atom_site_fract_x
_atom_site_fract_y
_atom_site_fract_z
O1 O 0.43779(7) 0.1497(6) 0.0220(2)
N1 N 0.34853(9) 0.3172(7) -0.0580(2)
C1 C 0.41831(11) -0.0169(9) 0.0638(3)
O2 O 0.30651(9) -0.0608(6) -0.2146(2)
N2 N 0.27596(10) 0.4737(8) -0.1375(3)
H1 H 0.25500 0.50370 -0.16220
H2 H 0.28600 0.57150 -0.09950
C2 C 0.43358(13) -0.1895(10) 0.1186(3)
H3 H 0.45820 -0.19880 0.13160
N3 N 0.33577(10) -0.0048(8) -0.1546(3)
C3 C 0.41101(13) -0.3454(10) 0.1527(3)
H4 H 0.42030 -0.46320 0.19100
N4 N 0.28038(10) 0.1152(8) -0.2144(3)
C4 C 0.37354(12) -0.3338(9) 0.1317(3)
C5 C 0.34999(14) -0.5083(10) 0.1633(3)
H5 H 0.35950 -0.62890 0.20000
C6 C 0.31426(14) -0.5026(10) 0.1412(3)
H6 H 0.29960 -0.62020 0.16180
C7 C 0.29944(13) -0.3216(10) 0.0879(3)
H7 H 0.27490 -0.31780 0.07340
C8 C 0.32081(12) -0.1474(9) 0.0563(3)
H8 H 0.31040 -0.02580 0.02140
C9 C 0.35846(11) -0.1514(8) 0.0762(3)
C10 C 0.38256(11) 0.0090(8) 0.0421(3)
C11 C 0.38011(11) 0.2102(8) -0.0173(3)
C12 C 0.41375(11) 0.2852(9) -0.0285(3)
C13 C 0.42916(11) 0.4686(9) -0.0809(3)
C14 C 0.46610(12) 0.4713(10) -0.0898(3)
H9 H 0.48060 0.35500 -0.06180
C15 C 0.48099(14) 0.6399(11) -0.1385(4)
H10 H 0.50540 0.63460 -0.14520
C16 C 0.46063(13) 0.8169(10) -0.1777(4)
H11 H 0.47120 0.93350 -0.21020
C17 C 0.42464(12) 0.8233(9) -0.1694(3)
H12 H 0.41070 0.94370 -0.19660
C18 C 0.40897(11) 0.6517(9) -0.1207(3)
H13 H 0.38460 0.65900 -0.11460
C19 C 0.32733(10) 0.1963(9) -0.1206(3)
C20 C 0.29311(10) 0.2743(9) -0.1580(3)
H14 H 0.3360(14) 0.419(11) -0.017(4)
#END
