
#######################################################################
#
#                 Cambridge Crystallographic Data Centre
#                                CCDC
#
#######################################################################
#
# If this CIF has been generated from an entry in the Cambridge
# Structural Database, then it will include bibliographic, chemical,
# crystal, experimental, refinement or atomic coordinate data resulting
# from the CCDC's data processing and validation procedures.
#
#######################################################################

data_CSD_CIF_VEQBIF
_audit_creation_date 2018-01-22
_audit_creation_method CSD-ConQuest-V1
_database_code_CSD VEQBIF
_database_code_depnum_ccdc_archive 'CCDC 1461790'
_chemical_formula_sum 'C20 H18 N2 O5'
_chemical_formula_moiety
;
C20 H18 N2 O5
;
_journal_coden_Cambridge 917
_journal_volume 13
_journal_year 2017
_journal_page_first 1413
_journal_name_full 'Beilstein J.Org.Chem. '
loop_
_publ_author_name
"O.Bakulina"
"A.Ivanov"
"V.Suslonov"
"D.Darin"
"M.Krasavin"
_chemical_name_systematic
;
anti-11a,12,12-trimethyl-2-nitro-6-oxo-6,11,11a,12-tetrahydroindolo[1,2-b]isoq
uinoline-11-carboxylic acid
;
_cell_volume   1651.493
_exptl_crystal_colour 'colorless'
_exptl_crystal_density_diffrn 1.473
_exptl_crystal_description 'prism'
_diffrn_ambient_temperature 100
#These two values have been output from a single CSD field.
_refine_ls_R_factor_gt 0.0398
_refine_ls_wR_factor_gt 0.0398
_symmetry_cell_setting monoclinic
_symmetry_space_group_name_H-M 'P 21/c'
_symmetry_Int_Tables_number 14
loop_
_symmetry_equiv_pos_site_id
_symmetry_equiv_pos_as_xyz
1 x,y,z
2 -x,1/2+y,1/2-z
3 -x,-y,-z
4 x,-1/2-y,-1/2+z
_cell_length_a 8.8454(3)
_cell_length_b 14.1900(4)
_cell_length_c 13.5995(4)
_cell_angle_alpha 90
_cell_angle_beta 104.646(3)
_cell_angle_gamma 90
_cell_formula_units_Z 4
loop_
_atom_type_symbol
_atom_type_radius_bond
C 0.68
H 0.23
N 0.68
O 0.68
loop_
_atom_site_label
_atom_site_type_symbol
_atom_site_fract_x
_atom_site_fract_y
_atom_site_fract_z
O1 O -0.12761(11) 0.69769(8) 0.60965(8)
H1 H -0.21590 0.69500 0.62200
O2 O 0.32983(14) 1.22071(8) 0.59304(10)
O3 O -0.04432(13) 0.66006(10) 0.77312(9)
O4 O 0.57444(12) 1.20446(7) 0.59604(9)
O5 O 0.58631(11) 0.71553(7) 0.64032(9)
C1 C 0.18093(17) 0.8831(1) 0.78642(10)
H2 H 0.09740 0.84790 0.80550
H3 H 0.18250 0.94800 0.81140
H4 H 0.28170 0.85290 0.81650
N1 N 0.35833(12) 0.78755(8) 0.64288(8)
C2 C -0.01796(15) 0.68472(9) 0.69455(11)
N2 N 0.44722(14) 1.17258(8) 0.60281(9)
C3 C 0.18242(14) 0.78523(9) 0.62624(10)
C4 C 0.11128(15) 0.77863(10) 0.51111(10)
H5 H 0.14360 0.83350 0.47760
H6 H -0.00290 0.77730 0.49730
H7 H 0.14780 0.72090 0.48500
C5 C -0.01096(16) 0.92472(10) 0.62282(12)
H8 H -0.09050 0.88380 0.63920
H9 H -0.02800 0.92860 0.54890
H10 H -0.01840 0.98790 0.65040
C6 C 0.15132(15) 0.88396(9) 0.66969(10)
C7 C 0.13904(16) 0.52401(10) 0.63531(11)
H11 H 0.03670 0.51870 0.64500
C8 C 0.14882(15) 0.69895(9) 0.6861(1)
H12 H 0.21300 0.70830 0.75730
C9 C 0.21221(18) 0.44481(10) 0.60872(11)
H13 H 0.15930 0.38600 0.59990
C10 C 0.36208(18) 0.45111(10) 0.59500(11)
H14 H 0.41270 0.39650 0.57830
C11 C 0.29523(16) 1.03731(9) 0.63575(10)
H15 H 0.21180 1.07850 0.63870
C12 C 0.43597(16) 1.07123(9) 0.62125(10)
C13 C 0.43748(16) 0.5376(1) 0.60577(11)
H16 H 0.53990 0.54230 0.59620
C14 C 0.40654(15) 0.88178(9) 0.63968(10)
C15 C 0.54966(15) 0.91706(10) 0.63068(10)
H17 H 0.63500 0.87630 0.63110
C16 C 0.56262(16) 1.01415(10) 0.62109(10)
H18 H 0.65790 1.04110 0.61450
C17 C 0.28291(15) 0.94089(9) 0.64558(9)
C18 C 0.21420(15) 0.61093(9) 0.64786(10)
C19 C 0.36364(15) 0.61769(9) 0.63059(10)
C20 C 0.44662(15) 0.70963(9) 0.63827(10)
#END
