
#######################################################################
#
#                 Cambridge Crystallographic Data Centre
#                                CCDC
#
#######################################################################
#
# If this CIF has been generated from an entry in the Cambridge
# Structural Database, then it will include bibliographic, chemical,
# crystal, experimental, refinement or atomic coordinate data resulting
# from the CCDC's data processing and validation procedures.
#
#######################################################################

data_CSD_CIF_VEQJAD
_audit_creation_date 2006-12-04
_audit_creation_method CSD-ConQuest-V1
_database_code_CSD VEQJAD
_database_code_depnum_ccdc_archive 'CCDC 609878'
_chemical_formula_sum 'C26 H21 N1 O3'
_chemical_formula_moiety
;
C26 H21 N1 O3
;
_journal_coden_Cambridge 182
_journal_year 2006
_journal_page_first 3648
_journal_name_full 'Chem.Commun. '
loop_
_publ_author_name
"T.Furuta"
"T.Asakawa"
"M.Iinuma"
"S.Fujii"
"K.Tanaka"
"T.Kan"
_chemical_name_systematic
;
(2Z)-2-[3-(p-tolyl)-6-methyl-2-(4-nitrophenyl)-1H-inden-1-ylidene]propanal
;
_cell_volume   1043.014
_exptl_crystal_colour 'red'
_exptl_crystal_density_diffrn 1.259
_exptl_crystal_description 'prismatic'
_diffrn_ambient_temperature 298.1
#These two values have been output from a single CSD field.
_refine_ls_R_factor_gt 0.1183
_refine_ls_wR_factor_gt 0.1183
_symmetry_cell_setting triclinic
_symmetry_space_group_name_H-M 'P -1'
_symmetry_Int_Tables_number 2
loop_
_symmetry_equiv_pos_site_id
_symmetry_equiv_pos_as_xyz
1 x,y,z
2 -x,-y,-z
_cell_length_a 10.7108(14)
_cell_length_b 11.2338(13)
_cell_length_c 10.2696(12)
_cell_angle_alpha 96.444(10)
_cell_angle_beta 110.963(9)
_cell_angle_gamma 110.197(9)
_cell_formula_units_Z 2
loop_
_atom_type_symbol
_atom_type_radius_bond
C 0.68
H 0.23
N 0.68
O 0.68
loop_
_atom_site_label
_atom_site_type_symbol
_atom_site_fract_x
_atom_site_fract_y
_atom_site_fract_z
O1 O 0.1489(3) 0.0164(2) 0.6577(3)
O2 O -0.2398(4) 0.1663(4) 0.0350(3)
O3 O -0.1399(3) 0.0403(3) -0.0010(2)
N1 N -0.1412(2) 0.1316(2) 0.0730(3)
C1 C 0.4080(2) 0.3461(2) 0.7382(2)
C2 C 0.3364(2) 0.4053(2) 0.6296(2)
C3 C 0.4144(2) 0.5385(2) 0.6717(2)
C4 C 0.5459(2) 0.5729(2) 0.8060(2)
C5 C 0.3524(2) 0.2207(2) 0.7505(2)
C6 C 0.0983(2) 0.1694(2) 0.2576(2)
C7 C 0.6629(2) 0.6941(2) 0.8857(2)
C8 C 0.7824(3) 0.6980(2) 1.0013(2)
C9 C 0.0869(2) 0.3608(2) 0.4407(3)
C10 C 0.3575(2) 0.6216(2) 0.4509(2)
C11 C 0.7885(3) 0.5855(3) 1.0405(3)
C12 C -0.0195(2) 0.2018(2) 0.2163(2)
C13 C 0.2140(2) 0.2360(2) 0.3927(2)
C14 C 0.3754(3) 0.7439(2) 0.6656(3)
C15 C 0.2086(2) 0.3325(2) 0.4866(2)
C16 C -0.0278(3) 0.2962(2) 0.3066(3)
C17 C 0.6692(3) 0.4633(2) 0.9594(2)
C18 C 0.5483(2) 0.4564(2) 0.8426(2)
C19 C 0.3395(4) 0.8324(3) 0.5947(3)
C20 C 0.3830(2) 0.6351(2) 0.5951(2)
C21 C 0.3260(2) 0.7132(2) 0.3814(3)
C22 C 0.1956(3) 0.1296(2) 0.6596(3)
C23 C 0.4365(3) 0.1672(3) 0.8582(3)
C24 C 0.3165(3) 0.8199(2) 0.4505(3)
C25 C 0.2795(5) 0.9188(3) 0.3745(4)
C26 C 0.9195(4) 0.5916(4) 1.1646(4)
H1 H 0.10040 0.10460 0.19160
H2 H 0.66320 0.77320 0.86100
H3 H 0.86290 0.78020 1.05690
H4 H 0.08350 0.42730 0.50340
H5 H 0.36300 0.54890 0.40020
H6 H 0.29730 0.21580 0.42330
H7 H 0.39120 0.75540 0.76410
H8 H -0.11240 0.31450 0.27530
H9 H 0.67030 0.38500 0.98540
H10 H 0.33350 0.90510 0.64480
H11 H 0.31190 0.70330 0.28340
H12 H 0.13090 0.16490 0.60640
H13 H 0.48780 0.13000 0.82030
H14 H 0.36940 0.10110 0.88000
H15 H 0.50480 0.23590 0.94400
H16 H 0.17600 0.89160 0.33190
H17 H 0.31440 0.92650 0.30140
H18 H 0.32510 1.00170 0.44410
H19 H 0.98770 0.58110 1.13060
H20 H 0.88900 0.52280 1.20750
H21 H 0.96490 0.67420 1.23460
#END
