
#######################################################################
#
#                 Cambridge Crystallographic Data Centre
#                                CCDC
#
#######################################################################
#
# If this CIF has been generated from an entry in the Cambridge
# Structural Database, then it will include bibliographic, chemical,
# crystal, experimental, refinement or atomic coordinate data resulting
# from the CCDC's data processing and validation procedures.
#
#######################################################################

data_CSD_CIF_VERHOQ
_audit_creation_date 2006-12-04
_audit_creation_method CSD-ConQuest-V1
_database_code_CSD VERHOQ
_database_code_depnum_ccdc_archive 'CCDC 622851'
_chemical_formula_sum 'C20 H22 N4 O3'
_chemical_formula_moiety
;
C20 H22 N4 O3
;
_journal_coden_Cambridge 35
_journal_volume 71
_journal_year 2006
_journal_page_first 6619
_journal_name_full 'J.Org.Chem. '
loop_
_publ_author_name
"L.D.Shirtcliff"
"J.Rivers"
"M.M.Haley"
_chemical_name_systematic
;
5-methoxy-2-(4-nitrophenyl)-N-[1,2,2-trimethylpropylidene]-2H-indazol-3-amine
;
_chemical_melting_point 392.85
_cell_volume    941.024
_exptl_crystal_colour 'gold'
_exptl_crystal_density_diffrn 1.293
_exptl_special_details
;
Melting point range 392.85-393.95K

;
_exptl_crystal_description 'Plate'
_diffrn_ambient_temperature 153
#These two values have been output from a single CSD field.
_refine_ls_R_factor_gt 0.0483
_refine_ls_wR_factor_gt 0.0483
_symmetry_cell_setting triclinic
_symmetry_space_group_name_H-M 'P -1'
_symmetry_Int_Tables_number 2
loop_
_symmetry_equiv_pos_site_id
_symmetry_equiv_pos_as_xyz
1 x,y,z
2 -x,-y,-z
_cell_length_a 9.8124(13)
_cell_length_b 10.8017(14)
_cell_length_c 11.0897(13)
_cell_angle_alpha 113.836(3)
_cell_angle_beta 115.303(3)
_cell_angle_gamma 91.970(3)
_cell_formula_units_Z 2
loop_
_atom_type_symbol
_atom_type_radius_bond
C 0.68
H 0.23
N 0.68
O 0.68
loop_
_atom_site_label
_atom_site_type_symbol
_atom_site_fract_x
_atom_site_fract_y
_atom_site_fract_z
O1 O 0.0141(2) 1.22142(19) 0.6280(2)
O2 O 0.0152(3) 1.4081(2) 0.6032(2)
O3 O 0.40673(19) 0.78359(19) -0.33274(18)
N1 N 0.1925(2) 1.1204(2) 0.0333(2)
N2 N 0.20897(19) 1.05364(19) 0.1195(2)
N3 N 0.31700(19) 0.8709(2) 0.16886(19)
N4 N 0.0350(2) 1.2904(2) 0.5703(2)
C1 C 0.2415(2) 1.0427(2) -0.0629(3)
C2 C 0.2547(3) 1.0689(3) -0.1738(3)
C3 C 0.3111(3) 0.9795(3) -0.2567(3)
C4 C 0.3549(2) 0.8624(3) -0.2364(3)
C5 C 0.3448(2) 0.8352(3) -0.1298(2)
C6 C 0.2856(2) 0.9268(2) -0.0420(2)
C7 C 0.2645(2) 0.9364(2) 0.0777(2)
C8 C 0.1685(2) 1.1118(2) 0.2354(2)
C9 C 0.1497(3) 1.2477(3) 0.2794(3)
C10 C 0.1062(3) 1.3061(3) 0.3888(3)
C11 C 0.0841(2) 1.2293(2) 0.4559(2)
C12 C 0.1041(3) 1.0962(3) 0.4152(3)
C13 C 0.1449(3) 1.0360(3) 0.3039(3)
C14 C 0.4411(4) 0.6583(3) -0.3277(3)
C15 C 0.2869(2) 0.7393(2) 0.1179(2)
C16 C 0.1750(4) 0.6346(4) -0.0422(3)
C17 C 0.3708(2) 0.6813(2) 0.2270(2)
C18 C 0.4567(4) 0.7985(3) 0.3886(3)
C19 C 0.2579(4) 0.5721(3) 0.2165(4)
C20 C 0.4920(4) 0.6163(4) 0.1870(4)
H1 H 0.227(2) 1.152(2) -0.184(2)
H2 H 0.322(3) 0.989(3) -0.338(3)
H3 H 0.374(2) 0.758(2) -0.116(2)
H4 H 0.167(3) 1.297(2) 0.233(3)
H5 H 0.091(3) 1.400(3) 0.420(3)
H6 H 0.084(3) 1.046(2) 0.457(3)
H7 H 0.151(2) 0.940(2) 0.268(2)
H8 H 0.534(3) 0.683(2) -0.224(3)
H9 H 0.473(3) 0.612(3) -0.412(3)
H10 H 0.350(3) 0.593(3) -0.347(3)
H11 H 0.215(5) 0.552(5) -0.089(5)
H12 H 0.133(3) 0.678(3) -0.101(3)
H13 H 0.094(4) 0.577(3) -0.041(3)
H14 H 0.370(4) 0.842(3) 0.420(3)
H15 H 0.530(3) 0.878(3) 0.404(3)
H16 H 0.518(3) 0.759(3) 0.455(3)
H17 H 0.181(3) 0.618(3) 0.243(3)
H18 H 0.314(3) 0.543(3) 0.297(3)
H19 H 0.211(3) 0.485(3) 0.113(3)
H20 H 0.556(4) 0.576(3) 0.260(4)
H21 H 0.428(3) 0.531(3) 0.081(4)
H22 H 0.562(4) 0.689(3) 0.188(3)
#END
