
#######################################################################
#
#                 Cambridge Crystallographic Data Centre
#                                CCDC
#
#######################################################################
#
# If this CIF has been generated from an entry in the Cambridge
# Structural Database, then it will include bibliographic, chemical,
# crystal, experimental, refinement or atomic coordinate data resulting
# from the CCDC's data processing and validation procedures.
#
#######################################################################

data_CSD_CIF_VERJAE
_audit_creation_date 2006-12-04
_audit_creation_method CSD-ConQuest-V1
_database_code_CSD VERJAE
_database_code_depnum_ccdc_archive 'CCDC 622853'
_chemical_formula_sum 'C20 H11 N3 O6'
_chemical_formula_moiety
;
C20 H11 N3 O6
;
_journal_coden_Cambridge 35
_journal_volume 71
_journal_year 2006
_journal_page_first 6626
_journal_name_full 'J.Org.Chem. '
loop_
_publ_author_name
"Chun Zhang"
"Chuan-Feng Chen"
_chemical_name_systematic
;
2,7,14-trinitrotriptycene
;
_chemical_melting_point 573.15
_cell_volume   3319.293
_exptl_crystal_colour 'colorless'
_exptl_crystal_density_diffrn 1.558
_exptl_special_details
;
Melts above 573.15K

;
_exptl_crystal_description 'block'
_exptl_crystal_preparation 'dichloromethane/hexane'
_diffrn_ambient_temperature 113.1
#These two values have been output from a single CSD field.
_refine_ls_R_factor_gt 0.0548
_refine_ls_wR_factor_gt 0.0548
_symmetry_cell_setting monoclinic
_symmetry_space_group_name_H-M 'C 2/c'
_symmetry_Int_Tables_number 15
loop_
_symmetry_equiv_pos_site_id
_symmetry_equiv_pos_as_xyz
1 x,y,z
2 1/2+x,1/2+y,z
3 -x,y,1/2-z
4 1/2-x,1/2+y,1/2-z
5 -x,-y,-z
6 -1/2-x,-1/2-y,-z
7 x,-y,-1/2+z
8 -1/2+x,-1/2-y,-1/2+z
_cell_length_a 18.570(3)
_cell_length_b 9.8463(14)
_cell_length_c 18.461(3)
_cell_angle_alpha 90
_cell_angle_beta 100.472(3)
_cell_angle_gamma 90
_cell_formula_units_Z 8
loop_
_atom_type_symbol
_atom_type_radius_bond
C 0.68
H 0.23
N 0.68
O 0.68
loop_
_atom_site_label
_atom_site_type_symbol
_atom_site_fract_x
_atom_site_fract_y
_atom_site_fract_z
O1 O 0.37093(9) 0.07888(13) 0.19973(8)
O2 O 0.47701(9) 0.09963(16) 0.16790(9)
O3 O 0.05028(10) 0.6686(2) 0.04226(11)
O4 O 0.07373(12) 0.8536(3) -0.00877(14)
O5 O 0.31385(10) 0.66315(17) 0.51540(8)
O6 O 0.36125(10) 0.86531(18) 0.52652(9)
N1 N 0.42048(10) 0.14760(17) 0.18317(9)
N2 N 0.09136(11) 0.7605(2) 0.03353(10)
N3 N 0.34213(10) 0.76180(19) 0.49101(9)
C1 C 0.28583(10) 0.56912(18) 0.23398(9)
C2 C 0.34688(10) 0.49029(18) 0.20821(9)
C3 C 0.35272(10) 0.35070(18) 0.20749(9)
C4 C 0.41263(10) 0.29611(19) 0.18244(9)
C5 C 0.46497(10) 0.3744(2) 0.15784(10)
C6 C 0.4582(1) 0.5153(2) 0.15905(10)
C7 C 0.39986(10) 0.57246(18) 0.18488(9)
C8 C 0.38458(10) 0.72433(18) 0.19235(10)
C9 C 0.30784(11) 0.74756(18) 0.14828(10)
C10 C 0.28882(12) 0.84205(18) 0.09268(10)
C11 C 0.21623(12) 0.8482(2) 0.05603(10)
C12 C 0.16628(11) 0.7596(2) 0.07625(10)
C13 C 0.18317(10) 0.66612(19) 0.13318(10)
C14 C 0.2550(1) 0.66219(18) 0.16977(9)
C15 C 0.32489(10) 0.66170(17) 0.29503(10)
C16 C 0.37788(10) 0.74469(17) 0.27258(10)
C17 C 0.41836(10) 0.83483(18) 0.32146(11)
C18 C 0.40634(11) 0.84058(19) 0.39390(11)
C19 C 0.35418(11) 0.75649(19) 0.41443(10)
C20 C 0.31225(10) 0.66603(18) 0.36663(10)
H1 H 0.24800 0.50960 0.25000
H2 H 0.31720 0.29420 0.22350
H3 H 0.50480 0.33300 0.14040
H4 H 0.49340 0.57150 0.14230
H5 H 0.42240 0.78390 0.17650
H6 H 0.32460 0.90180 0.07960
H7 H 0.20160 0.91250 0.01780
H8 H 0.14700 0.60760 0.14640
H9 H 0.45380 0.89200 0.30590
H10 H 0.43360 0.90130 0.42840
H11 H 0.27650 0.60970 0.38230
#END
