
#######################################################################
#
#                 Cambridge Crystallographic Data Centre
#                                CCDC
#
#######################################################################
#
# If this CIF has been generated from an entry in the Cambridge
# Structural Database, then it will include bibliographic, chemical,
# crystal, experimental, refinement or atomic coordinate data resulting
# from the CCDC's data processing and validation procedures.
#
#######################################################################

data_CSD_CIF_VERXIC
_audit_creation_date 2018-01-23
_audit_creation_method CSD-ConQuest-V1
_database_code_CSD VERXIC
_database_code_depnum_ccdc_archive 'CCDC 1493398'
_chemical_formula_sum 'C24 H20 N2 O6'
_chemical_formula_moiety
;
C24 H20 N2 O6
;
_journal_coden_Cambridge 1147
_journal_volume 18
_journal_year 2018
_journal_page_first 623
_journal_name_full 'Cryst.Growth Des. '
loop_
_publ_author_name
"A.Rajbhandary"
"W.W.Brennessel"
"B.L.Nilsson"
_chemical_name_systematic
;
N-((9H-fluoren-9-ylmethoxy)carbonyl)-N-(4-nitrobenzyl)glycine
;
_cell_volume   4090.739
_exptl_crystal_colour 'colorless'
_exptl_crystal_density_diffrn 1.404
_exptl_crystal_description 'plate'
_diffrn_ambient_temperature 100
#These two values have been output from a single CSD field.
_refine_ls_R_factor_gt 0.0517
_refine_ls_wR_factor_gt 0.0517
_symmetry_cell_setting orthorhombic
_symmetry_space_group_name_H-M 'P b c a'
_symmetry_Int_Tables_number 61
loop_
_symmetry_equiv_pos_site_id
_symmetry_equiv_pos_as_xyz
1 x,y,z
2 1/2-x,-y,1/2+z
3 -x,1/2+y,1/2-z
4 1/2+x,1/2-y,-z
5 -x,-y,-z
6 -1/2+x,y,-1/2-z
7 x,-1/2-y,-1/2+z
8 -1/2-x,-1/2+y,z
_cell_length_a 12.115(3)
_cell_length_b 9.187(2)
_cell_length_c 36.754(9)
_cell_angle_alpha 90
_cell_angle_beta 90
_cell_angle_gamma 90
_cell_formula_units_Z 8
loop_
_atom_type_symbol
_atom_type_radius_bond
C 0.68
H 0.23
N 0.68
O 0.68
loop_
_atom_site_label
_atom_site_type_symbol
_atom_site_fract_x
_atom_site_fract_y
_atom_site_fract_z
O1 O 0.47671(7) 0.36222(10) 0.17085(2)
O2 O 0.44353(8) 0.20723(10) 0.21764(2)
O3 O 0.17972(9) 0.3445(1) 0.23151(3)
O4 O 0.10796(8) 0.12054(10) 0.23896(3)
H1 H 0.0615(19) 0.166(2) 0.2549(6)
O5 O 0.24573(11) -0.15306(12) 0.01240(3)
O6 O 0.42361(11) -0.12815(15) 0.01648(4)
N1 N 0.31327(9) 0.24668(12) 0.17459(3)
N2 N 0.32858(11) -0.09427(13) 0.02483(3)
C1 C 0.64924(11) 0.48439(15) 0.16022(3)
H2 H 0.7253(14) 0.4792(19) 0.1687(4)
C2 C 0.60933(11) 0.64034(15) 0.16185(3)
C3 C 0.59936(12) 0.73159(18) 0.19176(4)
H3 H 0.6205(16) 0.694(2) 0.2149(5)
C4 C 0.56206(14) 0.87409(19) 0.18633(5)
H4 H 0.5512(17) 0.932(2) 0.2076(6)
C5 C 0.53824(13) 0.92411(18) 0.15167(5)
H5 H 0.5113(19) 1.026(3) 0.1479(6)
C6 C 0.54979(12) 0.83434(16) 0.12145(5)
H6 H 0.5332(15) 0.8719(19) 0.0962(5)
C7 C 0.58458(10) 0.69153(15) 0.12680(4)
C8 C 0.6045(1) 0.57291(15) 0.10073(3)
C9 C 0.59286(13) 0.56777(18) 0.06292(4)
H7 H 0.5685(16) 0.652(2) 0.0497(5)
C10 C 0.61967(13) 0.4381(2) 0.04513(4)
H8 H 0.6138(17) 0.430(2) 0.0182(6)
C11 C 0.65689(12) 0.31785(19) 0.06423(4)
H9 H 0.6768(17) 0.227(2) 0.0514(5)
C12 C 0.66811(11) 0.32279(17) 0.10189(4)
H10 H 0.6957(16) 0.234(2) 0.1152(5)
C13 C 0.64207(10) 0.45080(15) 0.11998(3)
C14 C 0.58857(11) 0.37825(17) 0.18475(4)
H11 H 0.6234(14) 0.2858(19) 0.1836(4)
H12 H 0.5842(16) 0.413(2) 0.2100(5)
C15 C 0.41333(10) 0.26872(13) 0.18973(3)
C16 C 0.23831(11) 0.14697(13) 0.19263(3)
H13 H 0.2815(14) 0.0668(19) 0.2027(4)
H14 H 0.1806(15) 0.112(2) 0.1741(5)
C17 C 0.17364(10) 0.21820(13) 0.22310(3)
C18 C 0.2765(1) 0.31752(13) 0.14083(3)
H15 H 0.1972(14) 0.3487(18) 0.1445(4)
H16 H 0.3231(14) 0.4068(19) 0.1366(4)
C19 C 0.28778(10) 0.21757(13) 0.10828(3)
C20 C 0.39158(11) 0.19571(15) 0.09257(3)
H17 H 0.4560(16) 0.250(2) 0.1012(5)
C21 C 0.40523(12) 0.09673(15) 0.06446(4)
H18 H 0.4755(17) 0.082(2) 0.0532(5)
C22 C 0.31367(11) 0.02029(14) 0.05243(3)
C23 C 0.20867(11) 0.04464(14) 0.06591(3)
H19 H 0.1429(14) -0.0071(19) 0.0565(4)
C24 C 0.19659(11) 0.14465(14) 0.09410(3)
H20 H 0.1246(15) 0.1609(19) 0.1046(5)
#END
