
#######################################################################
#
#                 Cambridge Crystallographic Data Centre
#                                CCDC
#
#######################################################################
#
# If this CIF has been generated from an entry in the Cambridge
# Structural Database, then it will include bibliographic, chemical,
# crystal, experimental, refinement or atomic coordinate data resulting
# from the CCDC's data processing and validation procedures.
#
#######################################################################

data_CSD_CIF_VESRET
_audit_creation_date 2018-01-24
_audit_creation_method CSD-ConQuest-V1
_database_code_CSD VESRET
_database_code_depnum_ccdc_archive 'CCDC 1588579'
_chemical_formula_sum 'C13 H16 N2 O5'
_chemical_formula_moiety
;
C13 H16 N2 O5
;
_journal_coden_Cambridge 177
_journal_volume 16
_journal_year 2018
_journal_page_first 1126
_journal_name_full 'Org.Biomol.Chem. '
loop_
_publ_author_name
"Yeong-Chan Ahn"
"C.Fischer"
"M.J.van Belkum"
"J.C.Vederas"
_chemical_name_systematic
;
(1R)-1-phenylethyl (2S)-2-([(carbamoylamino)oxy]methyl)oxirane-2-carboxylate
;
_cell_volume    687.072
_exptl_crystal_colour 'colorless'
_exptl_crystal_density_diffrn 1.355
_exptl_crystal_description 'plate'
_exptl_crystal_preparation 'benzene/ethyl acetate'
_diffrn_ambient_temperature 173
#These two values have been output from a single CSD field.
_refine_ls_R_factor_gt 0.0268
_refine_ls_wR_factor_gt 0.0268
loop_
_citation_database_id_CSD
_citation_special_details
VESRAP "is a stereoisomer of this entry"
_symmetry_cell_setting monoclinic
_symmetry_space_group_name_H-M 'P 21'
_symmetry_Int_Tables_number 4
loop_
_symmetry_equiv_pos_site_id
_symmetry_equiv_pos_as_xyz
1 x,y,z
2 -x,1/2+y,-z
_cell_length_a 5.9238(1)
_cell_length_b 7.1787(1)
_cell_length_c 16.1585(3)
_cell_angle_alpha 90
_cell_angle_beta 90.8223(8)
_cell_angle_gamma 90
_cell_formula_units_Z 2
loop_
_atom_type_symbol
_atom_type_radius_bond
C 0.68
H 0.23
N 0.68
O 0.68
loop_
_atom_site_label
_atom_site_type_symbol
_atom_site_fract_x
_atom_site_fract_y
_atom_site_fract_z
O1 O 0.3141(2) 0.8250(2) 0.26192(8)
O2 O 0.3513(3) 0.3626(2) 0.17921(8)
O3 O 0.2068(2) 0.46650(18) 0.29919(8)
O4 O 0.6520(2) 0.68546(19) 0.13333(7)
O5 O 1.0047(2) 0.51275(19) -0.01896(8)
N1 N 0.7617(3) 0.6803(2) 0.05578(10)
H1 H 0.846(4) 0.787(4) 0.0449(16)
N2 N 0.7902(3) 0.3625(2) 0.07595(10)
H2 H 0.681(5) 0.372(4) 0.1073(16)
H3 H 0.856(5) 0.257(5) 0.0607(18)
C1 C 0.1033(3) 0.8089(3) 0.21824(11)
H4 H 0.06120 0.90940 0.17900
H5 H -0.02480 0.75140 0.24750
C2 C 0.2958(3) 0.6887(3) 0.19721(9)
C3 C 0.2906(3) 0.4870(3) 0.2238(1)
C4 C 0.4188(3) 0.7291(3) 0.11879(11)
H6 H 0.35710 0.65220 0.07290
H7 H 0.40180 0.86210 0.10370
C5 C 0.8607(3) 0.5141(3) 0.03668(10)
C6 C 0.1499(3) 0.2736(3) 0.32456(11)
H8 H 0.25140 0.18430 0.29560
C7 C -0.0908(4) 0.2391(3) 0.29683(12)
H9 H -0.13550 0.11260 0.31240
H10 H -0.19040 0.32930 0.32340
H11 H -0.10290 0.25290 0.23660
C8 C 0.1946(3) 0.2618(2) 0.41664(11)
C9 C 0.3976(3) 0.1862(3) 0.44551(13)
H12 H 0.50370 0.13980 0.40710
C10 C 0.4466(3) 0.1777(3) 0.52942(14)
H13 H 0.58710 0.12850 0.54820
C11 C 0.2906(4) 0.2411(3) 0.58607(12)
H14 H 0.32380 0.23570 0.64370
C12 C 0.0861(3) 0.3121(3) 0.55814(11)
H15 H -0.02240 0.35300 0.59680
C13 C 0.0386(3) 0.3239(2) 0.47390(11)
H16 H -0.10120 0.37470 0.45530
#END
