
#######################################################################
#
#                 Cambridge Crystallographic Data Centre
#                                CCDC
#
#######################################################################
#
# If this CIF has been generated from an entry in the Cambridge
# Structural Database, then it will include bibliographic, chemical,
# crystal, experimental, refinement or atomic coordinate data resulting
# from the CCDC's data processing and validation procedures.
#
#######################################################################

data_CSD_CIF_VETFUW
_audit_creation_date 2007-03-13
_audit_creation_method CSD-ConQuest-V1
_database_code_CSD VETFUW
_database_code_depnum_ccdc_archive 'CCDC 617731'
_chemical_formula_sum 'C29 H26 N4 O13'
_chemical_formula_moiety
;
C29 H26 N4 O13
;
_journal_coden_Cambridge 24
_journal_volume 47
_journal_year 2006
_journal_page_first 8355
_journal_name_full 'Tetrahedron Lett. '
loop_
_publ_author_name
"G.Mehta"
"K.Pallavi"
_chemical_name_systematic
;
(2,3b-Dimethyl-7-oxo-2,3,3a,3b,4,6a,7,7a-octahydro-1H-cyclopenta(a)pentalene-2
,6-dimethyl) bis(3,5-dinitrobenzoate)
;
_cell_volume   3333.563
_exptl_crystal_density_diffrn 1.272
_diffrn_ambient_temperature 293
#These two values have been output from a single CSD field.
_refine_ls_R_factor_gt 0.0874
_refine_ls_wR_factor_gt 0.0874
_symmetry_cell_setting triclinic
_symmetry_space_group_name_H-M 'P -1'
_symmetry_Int_Tables_number 2
loop_
_symmetry_equiv_pos_site_id
_symmetry_equiv_pos_as_xyz
1 x,y,z
2 -x,-y,-z
_cell_length_a 11.159(2)
_cell_length_b 15.112(3)
_cell_length_c 20.915(4)
_cell_angle_alpha 108.232(4)
_cell_angle_beta 90.660(4)
_cell_angle_gamma 95.137(4)
_cell_formula_units_Z 4
loop_
_atom_type_symbol
_atom_type_radius_bond
C 0.68
H 0.23
N 0.68
O 0.68
loop_
_atom_site_label
_atom_site_type_symbol
_atom_site_fract_x
_atom_site_fract_y
_atom_site_fract_z
O1 O 0.3771(3) 0.2072(2) 0.10591(16)
O2 O -0.0106(3) 0.2140(2) -0.14124(16)
O3 O -0.1917(3) 0.1438(2) -0.12946(16)
C1 C 0.3424(4) 0.0453(4) 0.0537(2)
O4 O 0.7401(3) 0.0161(3) 0.17299(18)
O5 O 0.4761(3) 0.1888(3) 0.33858(19)
O6 O 0.2442(3) 0.0517(3) -0.31761(18)
C2 C -0.1230(4) -0.0282(4) -0.2120(2)
H1 H -0.19050 -0.03110 -0.18670
C3 C -0.0571(4) 0.0575(3) -0.2045(2)
O7 O 0.8609(4) 0.2041(3) 0.59308(19)
O8 O 0.3024(3) 0.1191(3) 0.35632(18)
C4 C -0.0879(4) -0.1081(3) -0.2568(2)
O9 O 0.0183(3) -0.0855(3) -0.1021(2)
N1 N 0.0737(4) -0.0142(4) -0.0654(2)
C5 C 0.1799(4) -0.0231(3) -0.0250(2)
C6 C 0.4381(4) 0.0286(4) 0.2825(2)
C7 C -0.0948(4) 0.1415(3) -0.1546(2)
O10 O 0.0480(3) 0.0650(3) -0.05824(17)
C8 C 0.5022(5) -0.1401(4) 0.1935(2)
H2 H 0.52270 -0.19590 0.16350
C9 C 0.0733(4) -0.0248(3) -0.2882(2)
C10 C 0.0442(4) 0.0585(3) -0.2441(2)
H3 H 0.09050 0.11440 -0.24040
N2 N 0.1784(4) -0.0212(4) -0.3298(2)
C11 C 0.4195(4) 0.1261(4) 0.1011(2)
C12 C 0.6752(4) -0.0401(4) 0.4714(2)
C13 C 0.5384(4) 0.0285(3) 0.2450(2)
H4 H 0.58560 0.08400 0.24900
C14 C 0.0103(4) -0.1073(3) -0.2952(2)
H5 H 0.03270 -0.16240 -0.32540
C15 C 0.3072(4) -0.1190(3) 0.0064(2)
C16 C 0.1681(4) 0.3351(3) -0.0291(2)
H6 H 0.19360 0.27420 -0.05500
C17 C 0.8376(4) 0.0404(4) 0.5471(2)
N3 N -0.1586(5) -0.1988(4) -0.2629(3)
C18 C 0.2432(4) 0.0548(3) 0.0161(2)
H7 H 0.22080 0.11380 0.01940
C19 C 0.4032(5) -0.1368(4) 0.2333(3)
O11 O 0.5347(3) 0.0381(3) 0.4336(2)
C20 C 0.2058(4) -0.1112(3) -0.0296(2)
H8 H 0.15760 -0.16380 -0.05570
C21 C 0.3166(4) 0.4360(3) 0.0547(2)
H9 H 0.34710 0.50210 0.07360
C22 C 0.5681(4) -0.0559(4) 0.2010(2)
N4 N 0.5678(4) -0.0384(4) 0.4288(2)
C23 C 0.3748(4) -0.0433(4) 0.0479(2)
H10 H 0.44170 -0.05070 0.07200
C24 C 0.2720(4) 0.4141(3) -0.0178(2)
N5 N 0.6740(4) -0.0553(4) 0.1614(2)
N6 N 0.3393(5) -0.2133(3) 0.0021(2)
C25 C 0.3952(4) 0.3744(3) 0.1398(2)
C26 C 0.3693(4) -0.0566(4) 0.2753(2)
H11 H 0.30030 -0.05770 0.29970
C27 C 0.3971(5) 0.1158(4) 0.3303(3)
C28 C 0.8067(4) -0.1252(4) 0.5100(2)
O12 O 0.1960(4) -0.0920(3) -0.3733(2)
O13 O -0.2513(4) -0.1947(3) -0.2331(2)
C29 C 0.7360(4) 0.0430(4) 0.5082(2)
H12 H 0.71060 0.09970 0.50750
O14 O 0.5092(3) 0.1172(3) 0.1285(2)
O15 O 0.5202(4) -0.1113(3) 0.3921(2)
C30 C -0.0418(4) 0.3012(4) -0.0933(3)
H13 H -0.08510 0.28800 -0.05690
H14 H -0.09360 0.33180 -0.11560
C31 C 0.8714(5) -0.0446(5) 0.5469(2)
H15 H 0.93920 -0.04720 0.57230
C32 C 0.4425(4) 0.2916(3) 0.1510(3)
H16 H 0.52770 0.29170 0.14230
H17 H 0.43240 0.29350 0.19740
C33 C 0.7064(4) -0.1249(4) 0.4713(2)
H18 H 0.66190 -0.18030 0.44630
C34 C 0.1313(4) 0.3366(3) 0.0404(3)
N7 N 0.3279(6) -0.2249(4) 0.2247(3)
O16 O 0.0529(4) 0.2848(3) 0.0529(2)
O17 O -0.1215(5) -0.2695(3) -0.3006(3)
C35 C 0.4072(4) 0.3739(3) 0.0678(2)
H19 H 0.39100 0.31070 0.03710
H20 H 0.48820 0.39770 0.06120
C36 C 0.9089(6) 0.1247(5) 0.5905(3)
O18 O 0.2334(5) -0.2228(4) 0.2536(3)
C37 C 0.0684(4) 0.3629(3) -0.0663(2)
C38 C 0.2092(5) 0.4951(3) -0.0321(3)
H21 H 0.19630 0.54370 0.00960
H22 H 0.25770 0.52270 -0.06050
O19 O 0.2795(4) -0.2795(3) -0.0351(3)
C39 C 0.3704(4) 0.3878(3) -0.0689(2)
H23 H 0.43340 0.43840 -0.05930
H24 H 0.33660 0.37610 -0.11350
H25 H 0.40300 0.33250 -0.06590
C40 C 0.0932(5) 0.4500(4) -0.0669(3)
H26 H 0.04250 0.47990 -0.08730
C41 C 0.2075(4) 0.4125(3) 0.0941(2)
H27 H 0.16330 0.46750 0.11290
O20 O 1.0013(4) 0.1237(3) 0.6212(2)
C42 C 0.6543(5) 0.3201(3) 0.4456(3)
H28 H 0.68380 0.26020 0.42080
O21 O 0.6889(4) -0.1252(4) 0.1163(3)
C43 C 0.7935(5) 0.4259(3) 0.5308(3)
H29 H 0.81930 0.49300 0.54970
C44 C 0.8582(5) 0.3740(5) 0.4084(3)
H30 H 0.91550 0.42770 0.41490
H31 H 0.82700 0.35260 0.36260
H32 H 0.89700 0.32500 0.41780
C45 C 0.7552(5) 0.4005(4) 0.4557(3)
C46 C 0.5562(5) 0.3418(4) 0.4052(3)
N8 N 0.8431(5) -0.2164(4) 0.5121(3)
C47 C 0.4633(5) 0.4616(4) 0.1904(3)
H33 H 0.54600 0.46640 0.17870
H34 H 0.45910 0.45650 0.23490
H35 H 0.42730 0.51650 0.18910
O22 O 0.9312(5) -0.2144(4) 0.5468(3)
O23 O 0.4268(4) -0.2186(3) 0.0351(2)
C48 C 0.9196(6) 0.2921(5) 0.6361(3)
H36 H 1.00550 0.29490 0.62900
H37 H 0.90790 0.29720 0.68300
O24 O 0.3622(5) -0.2972(4) 0.1908(3)
C49 C 0.8674(6) 0.3718(4) 0.6202(3)
C50 C 0.6162(6) 0.3188(5) 0.5130(4)
C51 C 0.4451(6) 0.2773(5) 0.3818(4)
H38 H 0.40360 0.26870 0.42020
H39 H 0.39160 0.30390 0.35740
C52 C 0.8876(5) 0.3676(4) 0.5481(2)
H40 H 0.87630 0.30340 0.51850
H41 H 0.96850 0.39380 0.54370
C53 C 0.6850(6) 0.3986(4) 0.5680(4)
H42 H 0.63580 0.45110 0.58440
C54 C 0.2568(5) 0.3784(4) 0.1506(3)
H43 H 0.21810 0.31700 0.14740
H44 H 0.24260 0.42160 0.19450
C55 C 0.7310(6) 0.3698(5) 0.6261(3)
H45 H 0.69600 0.30740 0.62300
H46 H 0.71080 0.41310 0.66870
C56 C 0.5761(7) 0.4295(5) 0.4063(4)
H47 H 0.52300 0.45790 0.38610
O25 O 0.7821(5) -0.2848(4) 0.4809(3)
C57 C 0.9317(7) 0.4630(5) 0.6701(3)
H48 H 0.91850 0.46350 0.71550
H49 H 0.89980 0.51630 0.66300
H50 H 1.01650 0.46570 0.66280
O26 O 0.5432(5) 0.2640(5) 0.5242(3)
C58 C 0.6916(7) 0.4800(5) 0.4427(4)
H51 H 0.67620 0.52720 0.48460
H52 H 0.73900 0.50950 0.41490
#END
