
#######################################################################
#
#                 Cambridge Crystallographic Data Centre
#                                CCDC
#
#######################################################################
#
# If this CIF has been generated from an entry in the Cambridge
# Structural Database, then it will include bibliographic, chemical,
# crystal, experimental, refinement or atomic coordinate data resulting
# from the CCDC's data processing and validation procedures.
#
#######################################################################

data_CSD_CIF_VETQET
_audit_creation_date 2018-01-24
_audit_creation_method CSD-ConQuest-V1
_database_code_CSD VETQET
_database_code_depnum_ccdc_archive 'CCDC 1569821'
_chemical_formula_sum 'C19 H13 N1 O3'
_chemical_formula_moiety
;
C19 H13 N1 O3
;
_journal_coden_Cambridge 1267
_journal_volume 232
_journal_year 2017
_journal_page_first 893
_journal_name_full 'Z.Kristallogr.-New Cryst.Struct. '
loop_
_publ_author_name
"Zhi Hong"
"Yan-Li Zhan"
"Dang-Ran Yu"
"Ying Li"
"Wen-Jia Yuan"
"Hong-Yu Zhang"
_chemical_name_systematic
;
2-(naphthalen-2-yl)-3-nitro-2H-1-benzopyran
;
_cell_volume   1460.683
_exptl_crystal_colour 'colorless'
_exptl_crystal_density_diffrn 1.379
_exptl_crystal_description 'block'
_diffrn_ambient_temperature 291
#These two values have been output from a single CSD field.
_refine_ls_R_factor_gt 0.041
_refine_ls_wR_factor_gt 0.041
_symmetry_cell_setting triclinic
_symmetry_space_group_name_H-M 'P -1'
_symmetry_Int_Tables_number 2
loop_
_symmetry_equiv_pos_site_id
_symmetry_equiv_pos_as_xyz
1 x,y,z
2 -x,-y,-z
_cell_length_a 9.4457(6)
_cell_length_b 11.0520(7)
_cell_length_c 14.6746(9)
_cell_angle_alpha 100.779(1)
_cell_angle_beta 102.738(1)
_cell_angle_gamma 93.065(1)
_cell_formula_units_Z 4
loop_
_atom_type_symbol
_atom_type_radius_bond
C 0.68
H 0.23
N 0.68
O 0.68
loop_
_atom_site_label
_atom_site_type_symbol
_atom_site_fract_x
_atom_site_fract_y
_atom_site_fract_z
N1 N 0.24900(15) 0.32046(12) 0.38101(10)
O1 O 0.28085(14) 0.25661(11) 0.44079(9)
O2 O 0.12406(14) 0.32387(14) 0.33560(11)
O3 O 0.42326(11) 0.57580(9) 0.29709(8)
C1 C 0.26524(15) 0.40583(13) 0.18647(10)
C2 C 0.13272(17) 0.42842(16) 0.12885(13)
H1 H 0.07420 0.48350 0.15490
C3 C 0.08978(19) 0.37035(17) 0.03552(14)
H2 H 0.00140 0.38560 -0.00100
C4 C 0.17596(19) 0.28805(16) -0.00671(11)
C5 C 0.1348(3) 0.2270(2) -0.10422(14)
H3 H 0.04700 0.24100 -0.14220
C6 C 0.2215(3) 0.1489(2) -0.14254(14)
H4 H 0.19330 0.11050 -0.20670
C7 C 0.3527(3) 0.1257(2) -0.08672(15)
H5 H 0.41150 0.07190 -0.11390
C8 C 0.3958(2) 0.18126(18) 0.00761(13)
H6 H 0.48330 0.16430 0.04430
C9 C 0.30899(17) 0.26403(15) 0.04991(11)
C10 C 0.34958(16) 0.32444(14) 0.14722(10)
H7 H 0.43610 0.30820 0.18540
C11 C 0.31119(15) 0.47606(13) 0.28858(10)
H8 H 0.22600 0.51410 0.30450
C12 C 0.36282(16) 0.39791(13) 0.36058(10)
C13 C 0.50148(16) 0.39386(13) 0.40246(10)
H9 H 0.52690 0.34250 0.44570
C14 C 0.61299(16) 0.47066(13) 0.37989(10)
C15 C 0.76196(17) 0.46305(15) 0.41221(11)
H10 H 0.79370 0.40590 0.44950
C16 C 0.86248(18) 0.54007(16) 0.38910(12)
H11 H 0.96180 0.53510 0.41090
C17 C 0.81502(19) 0.62473(16) 0.33333(13)
H12 H 0.88310 0.67640 0.31790
C18 C 0.66815(18) 0.63365(14) 0.30024(11)
H13 H 0.63730 0.69020 0.26220
C19 C 0.56747(16) 0.55759(12) 0.32433(10)
N2 N 0.24749(15) 0.81438(12) 0.38340(9)
O4 O 0.12219(14) 0.82197(14) 0.34006(10)
O5 O 0.27881(14) 0.74394(11) 0.43849(9)
O6 O 0.42530(11) 1.08039(9) 0.31461(8)
C20 C 0.27822(15) 0.91593(13) 0.19336(10)
C21 C 0.20709(17) 0.98466(15) 0.12736(12)
H14 H 0.17880 1.06190 0.14950
C22 C 0.17998(18) 0.93853(17) 0.03189(12)
H15 H 0.13390 0.98510 -0.01040
C23 C 0.22040(17) 0.82141(16) -0.00415(11)
C24 C 0.1960(2) 0.7712(2) -0.10332(12)
H16 H 0.15190 0.81670 -0.14710
C25 C 0.2360(2) 0.6580(2) -0.13518(13)
H17 H 0.21960 0.62700 -0.20050
C26 C 0.3019(2) 0.58723(19) -0.07083(14)
H18 H 0.32810 0.50940 -0.09350
C27 C 0.32780(19) 0.63241(16) 0.02557(12)
H19 H 0.37160 0.58490 0.06790
C28 C 0.28855(16) 0.75060(14) 0.06116(10)
C29 C 0.31635(15) 0.80138(13) 0.16038(10)
H20 H 0.36140 0.75570 0.20380
C30 C 0.31370(15) 0.97723(13) 0.29786(10)
H21 H 0.22540 1.01130 0.31200
C31 C 0.36229(16) 0.89311(13) 0.36583(10)
C32 C 0.50095(16) 0.88535(13) 0.40550(9)
H22 H 0.52600 0.83010 0.44560
C33 C 0.61304(15) 0.96414(13) 0.38553(9)
C34 C 0.76176(16) 0.95318(15) 0.41492(10)
H23 H 0.79280 0.89120 0.44750
C35 C 0.86328(17) 1.03392(16) 0.39596(11)
H24 H 0.96240 1.02650 0.41580
C36 C 0.81691(18) 1.12585(15) 0.34729(11)
H25 H 0.88550 1.18020 0.33490
C37 C 0.67039(17) 1.13794(14) 0.31694(11)
H26 H 0.64020 1.19910 0.28340
C38 C 0.56868(15) 1.05810(12) 0.33689(10)
#END
