
#######################################################################
#
#                 Cambridge Crystallographic Data Centre
#                                CCDC
#
#######################################################################
#
# If this CIF has been generated from an entry in the Cambridge
# Structural Database, then it will include bibliographic, chemical,
# crystal, experimental, refinement or atomic coordinate data resulting
# from the CCDC's data processing and validation procedures.
#
#######################################################################

data_CSD_CIF_VETVEY
_audit_creation_date 2018-01-24
_audit_creation_method CSD-ConQuest-V1
_database_code_CSD VETVEY
_database_code_depnum_ccdc_archive 'CCDC 1540632'
_chemical_formula_sum 'C26 H22 N2 O4'
_chemical_formula_moiety
;
C26 H22 N2 O4
;
_journal_coden_Cambridge 1267
_journal_volume 232
_journal_year 2017
_journal_page_first 943
_journal_name_full 'Z.Kristallogr.-New Cryst.Struct. '
loop_
_publ_author_name
"Jing Li"
"Hao-Ran Jia"
"Yin-Xia Sun"
_chemical_name_systematic
;
8-[({4-[N-(benzyloxy)ethanimidoyl]phenyl}imino)methyl]-7-hydroxy-4-methyl-2H-1
-benzopyran-2-one
;
_cell_volume   1057.157
_exptl_crystal_colour 'dark orange'
_exptl_crystal_density_diffrn 1.34
_exptl_crystal_description 'block'
_diffrn_ambient_temperature 296
#These two values have been output from a single CSD field.
_refine_ls_R_factor_gt 0.0663
_refine_ls_wR_factor_gt 0.0663
_symmetry_cell_setting triclinic
_symmetry_space_group_name_H-M 'P -1'
_symmetry_Int_Tables_number 2
loop_
_symmetry_equiv_pos_site_id
_symmetry_equiv_pos_as_xyz
1 x,y,z
2 -x,-y,-z
_cell_length_a 8.035(3)
_cell_length_b 10.387(4)
_cell_length_c 13.126(5)
_cell_angle_alpha 83.831(10)
_cell_angle_beta 78.214(10)
_cell_angle_gamma 81.47(1)
_cell_formula_units_Z 2
loop_
_atom_type_symbol
_atom_type_radius_bond
C 0.68
H 0.23
N 0.68
O 0.68
loop_
_atom_site_label
_atom_site_type_symbol
_atom_site_fract_x
_atom_site_fract_y
_atom_site_fract_z
O1 O 0.2072(3) 0.23086(19) 0.52936(15)
O2 O 1.0137(3) 0.76485(19) -0.01835(15)
O3 O 0.0775(3) 0.6731(2) 0.61349(17)
H1 H 0.14450 0.68160 0.55770
N1 N 0.3055(3) 0.6047(2) 0.45654(18)
N2 N 0.8913(3) 0.7097(2) 0.06110(18)
O4 O 0.2673(3) 0.0300(2) 0.4800(2)
C1 C 0.7762(4) 0.7980(3) 0.1048(2)
C2 C 0.2777(4) 0.4843(3) 0.4792(2)
H2 H 0.33860 0.41980 0.43710
C3 C 0.6507(3) 0.7464(3) 0.1945(2)
C4 C 0.1514(4) 0.4501(3) 0.5706(2)
C5 C 1.2935(4) 0.7115(3) -0.1220(2)
C6 C 0.4600(4) 0.7742(3) 0.3610(2)
H3 H 0.40950 0.82680 0.41500
C7 C 0.5702(4) 0.8238(3) 0.2758(2)
H4 H 0.59110 0.91000 0.27250
C8 C 0.4235(3) 0.6457(3) 0.3669(2)
C9 C 0.6118(4) 0.6177(3) 0.2003(2)
H5 H 0.66200 0.56520 0.14630
C10 C -0.0022(4) 0.2827(3) 0.6844(2)
C11 C 0.5006(4) 0.5684(3) 0.2849(2)
H6 H 0.47680 0.48310 0.28730
C12 C 0.0557(4) 0.5475(3) 0.6357(2)
C13 C 1.2998(4) 0.7611(3) -0.2260(2)
H7 H 1.20490 0.76160 -0.25650
C14 C 0.7670(4) 0.9420(3) 0.0755(3)
H8 H 0.81810 0.98190 0.12200
H9 H 0.64930 0.97940 0.08040
H10 H 0.82770 0.95700 0.00510
C15 C 0.1161(4) 0.3203(3) 0.5963(2)
C16 C -0.0899(4) 0.3834(3) 0.7474(2)
H11 H -0.16800 0.36180 0.80730
C17 C 1.4455(4) 0.8097(3) -0.2847(2)
H12 H 1.44760 0.84280 -0.35360
C18 C 1.4376(4) 0.7118(3) -0.0787(2)
H13 H 1.43610 0.67970 -0.00960
C19 C -0.0269(4) 0.1467(3) 0.7041(2)
C20 C 1.5872(4) 0.8082(3) -0.2394(3)
H14 H 1.68520 0.84010 -0.27800
C21 C 1.1371(4) 0.6577(3) -0.0605(3)
H15 H 1.08750 0.61180 -0.10510
H16 H 1.16760 0.59640 -0.00410
C22 C 0.1825(4) 0.0998(3) 0.5444(3)
C23 C -0.0637(4) 0.5121(3) 0.7233(2)
H17 H -0.12610 0.57570 0.76570
C24 C 0.0611(4) 0.0616(3) 0.6361(3)
H18 H 0.04320 -0.02560 0.64850
C25 C 1.5830(4) 0.7592(3) -0.1366(3)
H19 H 1.67840 0.75810 -0.10640
C26 C -0.1493(4) 0.1023(4) 0.8005(3)
H20 H -0.14230 0.00890 0.80590
H21 H -0.26410 0.14030 0.79580
H22 H -0.11910 0.12970 0.86120
#END
