
#######################################################################
#
#                 Cambridge Crystallographic Data Centre
#                                CCDC
#
#######################################################################
#
# If this CIF has been generated from an entry in the Cambridge
# Structural Database, then it will include bibliographic, chemical,
# crystal, experimental, refinement or atomic coordinate data resulting
# from the CCDC's data processing and validation procedures.
#
#######################################################################

data_CSD_CIF_VETYUP
_audit_creation_date 2007-03-13
_audit_creation_method CSD-ConQuest-V1
_database_code_CSD VETYUP
_database_code_depnum_ccdc_archive 'CCDC 605374'
_chemical_formula_sum 'C32 H30 N2 O3'
_chemical_formula_moiety
;
C32 H30 N2 O3
;
_journal_coden_Cambridge 10
_journal_volume 89
_journal_year 2006
_journal_page_first 2312
_journal_name_full 'Helv.Chim.Acta '
loop_
_publ_author_name
"D.Gigmes"
"A.Gaudel-Siri"
"S.R.A.Marque"
"D.Bertin"
"P.Tordo"
"P.Astolfi"
"L.Greci"
"C.Rizzoli"
_chemical_name_systematic
;
Ethyl 
2-((2,3-dihydro-2,2-diphenyl-3-(phenylimino)-1H-indol-1-yl)oxy)-2-methylpropan
oate
;
_chemical_melting_point 379.15
_cell_volume   2636.930
_exptl_crystal_colour 'colorless'
_exptl_crystal_density_diffrn 1.236
_exptl_special_details
;
Melting point range 379.15-380.15K

;
_exptl_crystal_description 'prism'
_exptl_crystal_preparation 'ligroin'
_diffrn_ambient_temperature 298
#These two values have been output from a single CSD field.
_refine_ls_R_factor_gt 0.0371
_refine_ls_wR_factor_gt 0.0371
_symmetry_cell_setting orthorhombic
_symmetry_space_group_name_H-M 'P 21 21 21'
_symmetry_Int_Tables_number 19
loop_
_symmetry_equiv_pos_site_id
_symmetry_equiv_pos_as_xyz
1 x,y,z
2 1/2-x,-y,1/2+z
3 1/2+x,1/2-y,-z
4 -x,1/2+y,1/2-z
_cell_length_a 10.272(2)
_cell_length_b 28.347(4)
_cell_length_c 9.056(2)
_cell_angle_alpha 90
_cell_angle_beta 90
_cell_angle_gamma 90
_cell_formula_units_Z 4
loop_
_atom_type_symbol
_atom_type_radius_bond
C 0.68
H 0.23
N 0.68
O 0.68
loop_
_atom_site_label
_atom_site_type_symbol
_atom_site_fract_x
_atom_site_fract_y
_atom_site_fract_z
O1 O 0.6369(1) 0.1668(1) -0.0147(1)
O2 O 0.5207(2) 0.0654(1) -0.1980(2)
O3 O 0.4342(2) 0.1029(1) -0.0073(2)
N1 N 0.7402(1) 0.1404(1) 0.0521(2)
N2 N 0.8755(1) 0.1065(1) 0.3975(2)
C1 C 0.7133(2) 0.1273(1) 0.2110(2)
C2 C 0.8538(2) 0.1265(1) 0.2745(2)
C3 C 0.9356(2) 0.1530(1) 0.1711(2)
C4 C 1.0631(2) 0.1699(1) 0.1828(2)
C5 C 1.1092(2) 0.1999(1) 0.0752(3)
C6 C 1.0305(2) 0.2137(1) -0.0407(3)
C7 C 0.9041(2) 0.1966(1) -0.0557(2)
C8 C 0.8595(2) 0.1653(1) 0.0501(2)
C9 C 0.5878(2) 0.1451(1) -0.1498(2)
C10 C 0.5139(2) 0.0996(1) -0.1212(3)
C11 C 0.3562(3) 0.0616(1) 0.0343(5)
C12 C 0.2253(3) 0.0661(1) -0.0057(5)
C13 C 1.0048(2) 0.1026(1) 0.4512(2)
C14 C 1.0877(2) 0.0695(1) 0.3933(3)
C15 C 1.2136(2) 0.0649(1) 0.4495(3)
C16 C 1.2540(2) 0.0932(1) 0.5627(3)
C17 C 1.1703(2) 0.1254(1) 0.6234(3)
C18 C 1.0449(2) 0.1299(1) 0.5693(3)
C19 C 0.6334(2) 0.1659(1) 0.2871(2)
C20 C 0.6920(2) 0.2038(1) 0.3552(2)
C21 C 0.6201(2) 0.2393(1) 0.4213(3)
C22 C 0.4865(2) 0.2374(1) 0.4200(3)
C23 C 0.4263(2) 0.2005(1) 0.3512(3)
C24 C 0.4981(2) 0.1651(1) 0.2845(2)
C25 C 0.6592(2) 0.0773(1) 0.2251(2)
C26 C 0.5961(2) 0.0634(1) 0.3546(2)
C27 C 0.5600(2) 0.0165(1) 0.3737(3)
C28 C 0.5871(2) -0.0164(1) 0.2669(3)
C29 C 0.6520(2) -0.0031(1) 0.1405(3)
C30 C 0.6892(2) 0.0435(1) 0.1205(3)
C31 C 0.6949(3) 0.1367(1) -0.2623(3)
C32 C 0.4902(3) 0.1819(1) -0.2033(3)
H1 H 1.11570 0.16110 0.26170
H2 H 1.19430 0.21090 0.08050
H3 H 1.06260 0.23480 -0.11020
H4 H 0.85150 0.20590 -0.13400
H5 H 0.39230 0.03380 -0.01290
H6 H 0.36190 0.05710 0.14030
H7 H 0.17870 0.03830 0.02390
H8 H 0.21890 0.06990 -0.11080
H9 H 0.18860 0.09320 0.04240
H10 H 1.06010 0.05000 0.31670
H11 H 1.27000 0.04270 0.40980
H12 H 1.33850 0.09050 0.59870
H13 H 1.19790 0.14440 0.70110
H14 H 0.98750 0.15120 0.61250
H15 H 0.78240 0.20560 0.35680
H16 H 0.66230 0.26450 0.46670
H17 H 0.43780 0.26090 0.46540
H18 H 0.33580 0.19910 0.34910
H19 H 0.45530 0.14050 0.23720
H20 H 0.57820 0.08540 0.42790
H21 H 0.51730 0.00740 0.45960
H22 H 0.56160 -0.04760 0.27980
H23 H 0.67090 -0.02540 0.06840
H24 H 0.73480 0.05210 0.03590
H25 H 0.74100 0.16570 -0.27960
H26 H 0.65710 0.12590 -0.35310
H27 H 0.75410 0.11340 -0.22530
H28 H 0.42400 0.18630 -0.12970
H29 H 0.45070 0.17130 -0.29350
H30 H 0.53430 0.21130 -0.22050
#END
