
#######################################################################
#
#                 Cambridge Crystallographic Data Centre
#                                CCDC
#
#######################################################################
#
# If this CIF has been generated from an entry in the Cambridge
# Structural Database, then it will include bibliographic, chemical,
# crystal, experimental, refinement or atomic coordinate data resulting
# from the CCDC's data processing and validation procedures.
#
#######################################################################

data_CSD_CIF_VEVCUV
_audit_creation_date 2007-03-13
_audit_creation_method CSD-ConQuest-V1
_database_code_CSD VEVCUV
_database_code_depnum_ccdc_archive 'CCDC 622517'
_chemical_formula_sum 'C14 H15 N1 O6'
_chemical_formula_moiety
;
C14 H15 N1 O6
;
_journal_coden_Cambridge 16
_journal_volume 63
_journal_year 2007
_journal_page_first 1191
_journal_name_full 'Tetrahedron '
loop_
_publ_author_name
"S.R.Yong"
"A.T.Ung"
"S.G.Pyne"
"B.W.Skelton"
"A.H.White"
_chemical_name_systematic
;
(1R*,2R*)-2-Ethyl 1-methyl 1-(2-nitrophenyl)cyclopropane-1,2-dicarboxylate
;
_cell_volume   1362.703
_exptl_crystal_colour 'colorless'
_exptl_crystal_density_diffrn 1.429
_diffrn_ambient_temperature 100
#These two values have been output from a single CSD field.
_refine_ls_R_factor_gt 0.0425
_refine_ls_wR_factor_gt 0.0425
_symmetry_cell_setting triclinic
_symmetry_space_group_name_H-M 'P -1'
_symmetry_Int_Tables_number 2
loop_
_symmetry_equiv_pos_site_id
_symmetry_equiv_pos_as_xyz
1 x,y,z
2 -x,-y,-z
_cell_length_a 8.752(4)
_cell_length_b 11.117(4)
_cell_length_c 14.046(6)
_cell_angle_alpha 85.74(3)
_cell_angle_beta 89.75(3)
_cell_angle_gamma 89.20(3)
_cell_formula_units_Z 4
loop_
_atom_type_symbol
_atom_type_radius_bond
C 0.68
H 0.23
N 0.68
O 0.68
loop_
_atom_site_label
_atom_site_type_symbol
_atom_site_fract_x
_atom_site_fract_y
_atom_site_fract_z
C1 C 0.00333(10) 0.11682(8) 0.81795(7)
C2 C 0.09322(10) 0.02995(8) 0.86922(7)
N1 N 0.11362(9) -0.09076(7) 0.83455(6)
O1 O 0.00808(8) -0.13305(6) 0.79117(5)
O2 O 0.23558(9) -0.14479(7) 0.85241(6)
C3 C 0.16604(11) 0.05051(10) 0.95416(7)
H1 H 0.22810 -0.01060 0.98590
C4 C 0.14686(12) 0.16123(10) 0.99193(8)
H2 H 0.19470 0.17680 1.05030
C5 C 0.05672(12) 0.24945(10) 0.94342(8)
H3 H 0.04230 0.32540 0.96920
C6 C -0.01266(11) 0.22788(9) 0.85756(7)
H4 H -0.07220 0.29010 0.82510
C7 C -0.07645(10) 0.10015(8) 0.72560(7)
C8 C 0.00871(10) 0.06791(9) 0.63446(7)
H5 H -0.04940 0.01810 0.59100
C9 C -0.05169(12) 0.19317(9) 0.64296(7)
H6 H -0.14160 0.21940 0.60390
H7 H 0.02330 0.25730 0.65160
C10 C -0.23372(11) 0.04831(9) 0.73137(7)
O3 O -0.30647(8) 0.02411(8) 0.66277(5)
O4 O -0.28530(7) 0.03440(6) 0.82158(5)
C11 C -0.43540(11) -0.01791(9) 0.83133(8)
H8 H -0.43030 -0.10200 0.81490
H9 H -0.50670 0.02770 0.78830
H10 H -0.47090 -0.01490 0.89740
C12 C 0.17513(10) 0.04236(8) 0.64094(7)
O5 O 0.26564(8) 0.10047(6) 0.68314(5)
O6 O 0.21151(8) -0.05633(6) 0.59607(5)
C13 C 0.37053(11) -0.09757(10) 0.60550(8)
H11 H 0.39450 -0.12060 0.67330
H12 H 0.44020 -0.03240 0.58210
C14 C 0.39018(13) -0.20433(10) 0.54724(8)
H13 H 0.37340 -0.17920 0.47970
H14 H 0.31600 -0.26610 0.56820
H15 H 0.49400 -0.23750 0.55570
C15 C 0.49516(10) 0.58898(8) 0.17832(7)
C16 C 0.4063(1) 0.50387(8) 0.13553(7)
N2 N 0.39156(9) 0.38107(7) 0.18020(6)
O7 O 0.49625(8) 0.33839(6) 0.23038(5)
O8 O 0.27454(9) 0.32577(7) 0.16341(6)
C17 C 0.33082(11) 0.52885(9) 0.04945(7)
H16 H 0.27010 0.46920 0.02350
C18 C 0.34518(11) 0.64207(9) 0.00176(7)
H17 H 0.29500 0.66060 -0.05750
C19 C 0.43364(12) 0.72793(9) 0.04152(8)
H18 H 0.44480 0.80530 0.00890
C20 C 0.50595(11) 0.70169(9) 0.12847(7)
H19 H 0.56450 0.76230 0.15480
C21 C 0.57607(10) 0.56913(8) 0.27217(7)
C22 C 0.49245(10) 0.53680(8) 0.36680(7)
H20 H 0.55190 0.48530 0.41540
C23 C 0.55134(11) 0.66152(9) 0.34507(7)
H21 H 0.64140 0.68560 0.38110
H22 H 0.47550 0.72700 0.32980
C24 C 0.73442(10) 0.51538(9) 0.27205(7)
O9 O 0.80758(8) 0.49010(8) 0.34361(5)
O10 O 0.78639(7) 0.50125(6) 0.18358(5)
C25 C 0.93773(11) 0.44622(10) 0.18026(8)
H23 H 0.93470 0.36380 0.21030
H24 H 1.00990 0.49370 0.21460
H25 H 0.97070 0.44400 0.11360
C26 C 0.32524(10) 0.51545(8) 0.36593(7)
O11 O 0.23366(8) 0.57166(7) 0.31495(5)
O12 O 0.29167(8) 0.42444(6) 0.42963(5)
C27 C 0.13309(11) 0.38548(10) 0.43794(8)
H26 H 0.06710 0.43870 0.39550
H27 H 0.09670 0.39000 0.50440
C28 C 0.12515(14) 0.25803(11) 0.41007(9)
H28 H 0.19350 0.20650 0.45090
H29 H 0.15670 0.25500 0.34320
H30 H 0.02010 0.22940 0.41780
#END
