
#######################################################################
#
#                 Cambridge Crystallographic Data Centre
#                                CCDC
#
#######################################################################
#
# If this CIF has been generated from an entry in the Cambridge
# Structural Database, then it will include bibliographic, chemical,
# crystal, experimental, refinement or atomic coordinate data resulting
# from the CCDC's data processing and validation procedures.
#
#######################################################################

data_CSD_CIF_VEVDIK
_audit_creation_date 2007-03-13
_audit_creation_method CSD-ConQuest-V1
_database_code_CSD VEVDIK
_database_code_depnum_ccdc_archive 'CCDC 622520'
_chemical_formula_sum 'C18 H16 N2 O5'
_chemical_formula_moiety
;
C18 H16 N2 O5
;
_journal_coden_Cambridge 16
_journal_volume 63
_journal_year 2007
_journal_page_first 1191
_journal_name_full 'Tetrahedron '
loop_
_publ_author_name
"S.R.Yong"
"A.T.Ung"
"S.G.Pyne"
"B.W.Skelton"
"A.H.White"
_chemical_name_systematic
;
Methyl 
(1'R*,2'R*)-2'-(anilinocarbonyl)-1'-(2-nitrophenyl)cyclopropanecarboxylate
;
_chemical_melting_point 499.15
_cell_volume   1618.240
_exptl_crystal_colour 'colorless'
_exptl_crystal_density_diffrn 1.397
_exptl_special_details
;
Melting point range 499.15-501.15K

;
_exptl_crystal_description 'plate'
_diffrn_ambient_temperature 100
#These two values have been output from a single CSD field.
_refine_ls_R_factor_gt 0.0529
_refine_ls_wR_factor_gt 0.0529
_symmetry_cell_setting monoclinic
_symmetry_space_group_name_H-M 'P 21/c'
_symmetry_Int_Tables_number 14
loop_
_symmetry_equiv_pos_site_id
_symmetry_equiv_pos_as_xyz
1 x,y,z
2 -x,1/2+y,1/2-z
3 -x,-y,-z
4 x,-1/2-y,-1/2+z
_cell_length_a 8.179(1)
_cell_length_b 23.616(4)
_cell_length_c 8.873(1)
_cell_angle_alpha 90
_cell_angle_beta 109.23(1)
_cell_angle_gamma 90
_cell_formula_units_Z 4
loop_
_atom_type_symbol
_atom_type_radius_bond
C 0.68
H 0.23
N 0.68
O 0.68
loop_
_atom_site_label
_atom_site_type_symbol
_atom_site_fract_x
_atom_site_fract_y
_atom_site_fract_z
C1 C 0.3787(3) 0.89643(10) 0.9750(3)
C2 C 0.3436(3) 0.94055(11) 0.8644(3)
N1 N 0.1657(2) 0.96161(9) 0.7931(2)
O1 O 0.0691(2) 0.96116(7) 0.87351(19)
O2 O 0.1230(2) 0.98035(8) 0.6558(2)
C3 C 0.4714(3) 0.96758(11) 0.8207(3)
H1 H 0.44220 0.99670 0.74240
C4 C 0.6416(3) 0.95169(11) 0.8921(3)
H2 H 0.73050 0.96970 0.86280
C5 C 0.6831(3) 0.90924(11) 1.0071(3)
H3 H 0.80060 0.89880 1.05810
C6 C 0.5529(3) 0.88216(11) 1.0474(3)
H4 H 0.58280 0.85320 1.12610
C7 C 0.2417(3) 0.86347(10) 1.0151(3)
C8 C 0.2349(3) 0.79858(10) 0.9917(3)
H5 H 0.20430 0.77570 1.07340
C9 C 0.0956(3) 0.83518(11) 0.8869(3)
H6 H -0.01900 0.83390 0.90190
H7 H 0.09140 0.84010 0.77490
C10 C 0.3626(3) 0.77298(10) 0.9256(3)
O3 O 0.3716(2) 0.78785(7) 0.79498(18)
N2 N 0.4664(3) 0.73424(8) 1.0221(2)
H8 H 0.44710 0.72730 1.11230
C11 C 0.6031(3) 0.70326(11) 0.9956(3)
C12 C 0.6352(3) 0.64911(11) 1.0576(3)
H9 H 0.56680 0.63400 1.11630
C13 C 0.7664(3) 0.61681(12) 1.0347(3)
H10 H 0.78780 0.57960 1.07760
C14 C 0.8664(3) 0.63865(12) 0.9493(3)
H11 H 0.95430 0.61620 0.93070
C15 C 0.8376(3) 0.69327(12) 0.8913(3)
H12 H 0.90840 0.70860 0.83520
C16 C 0.7069(3) 0.72619(11) 0.9136(3)
H13 H 0.68830 0.76380 0.87360
C17 C 0.2005(3) 0.88037(11) 1.1620(3)
O4 O 0.0890(2) 0.85848(8) 1.2029(2)
O5 O 0.3028(2) 0.92204(7) 1.24181(19)
C18 C 0.2673(3) 0.94084(12) 1.3835(3)
H14 H 0.27420 0.90850 1.45460
H15 H 0.15090 0.95730 1.35280
H16 H 0.35280 0.96940 1.43900
#END
