
#######################################################################
#
#                 Cambridge Crystallographic Data Centre
#                                CCDC
#
#######################################################################
#
# If this CIF has been generated from an entry in the Cambridge
# Structural Database, then it will include bibliographic, chemical,
# crystal, experimental, refinement or atomic coordinate data resulting
# from the CCDC's data processing and validation procedures.
#
#######################################################################

data_CSD_CIF_VEVJOW
_audit_creation_date 2007-03-13
_audit_creation_method CSD-ConQuest-V1
_database_code_CSD VEVJOW
_database_code_depnum_ccdc_archive 'CCDC 258877'
_chemical_formula_sum 'C5 H7 N3 O1'
_chemical_formula_moiety
;
C5 H7 N3 O1
;
_journal_coden_Cambridge 1094
_journal_volume 17
_journal_year 2006
_journal_page_first 337
_journal_name_full 'Struct.Chem. '
loop_
_publ_author_name
"R.Odzak"
"S.Tomic"
"H.Cicak"
"Z.Mihalic"
"B.Prugovecki"
"D.Matkovic-Calogovic"
_chemical_name_systematic
;
N-Methyl-2-hydroxyiminomethylimidazole
;
_cell_volume   2550.076
_exptl_crystal_colour 'colorless'
_exptl_crystal_density_diffrn 1.304
_exptl_crystal_description 'prism'
_exptl_crystal_preparation 'isopropanol/diisopropyl ether'
_diffrn_ambient_temperature 295
#These two values have been output from a single CSD field.
_refine_ls_R_factor_gt 0.0536
_refine_ls_wR_factor_gt 0.0536
_symmetry_cell_setting monoclinic
_symmetry_space_group_name_H-M 'C 2/c'
_symmetry_Int_Tables_number 15
loop_
_symmetry_equiv_pos_site_id
_symmetry_equiv_pos_as_xyz
1 x,y,z
2 1/2+x,1/2+y,z
3 -x,y,1/2-z
4 1/2-x,1/2+y,1/2-z
5 -x,-y,-z
6 -1/2-x,-1/2-y,-z
7 x,-y,-1/2+z
8 -1/2+x,-1/2-y,-1/2+z
_cell_length_a 15.532(3)
_cell_length_b 9.733(2)
_cell_length_c 17.760(4)
_cell_angle_alpha 90
_cell_angle_beta 108.23(2)
_cell_angle_gamma 90
_cell_formula_units_Z 16
loop_
_atom_type_symbol
_atom_type_radius_bond
C 0.68
H 0.23
N 0.68
O 0.68
loop_
_atom_site_label
_atom_site_type_symbol
_atom_site_fract_x
_atom_site_fract_y
_atom_site_fract_z
O1 O 0.26265(10) 0.46978(16) -0.02275(9)
N1 N 0.28055(10) 0.40745(16) 0.05066(9)
C1 C 0.21866(13) 0.4325(2) 0.08125(12)
C2 C 0.35892(14) 0.2293(2) 0.19235(14)
H1 H 0.38950 0.17270 0.23690
H2 H 0.39950 0.29950 0.18590
H3 H 0.33970 0.17390 0.14530
N2 N 0.27986(10) 0.29316(16) 0.20581(9)
C3 C 0.21901(12) 0.37991(19) 0.15723(11)
N3 N 0.15503(12) 0.41539(18) 0.18812(11)
C4 C 0.17637(18) 0.3480(3) 0.25903(16)
C5 C 0.25214(17) 0.2729(2) 0.27072(15)
O2 O 0.00902(10) 0.58036(16) 0.12315(9)
N4 N 0.03023(10) 0.64948(16) 0.06249(9)
C6 C -0.03113(13) 0.7349(2) 0.02822(11)
C7 C 0.12210(13) 0.7426(2) -0.05121(13)
H4 H 0.15600 0.76630 -0.08620
H5 H 0.10830 0.64630 -0.05570
H6 H 0.15740 0.76360 0.00240
N5 N 0.03802(10) 0.82131(16) -0.07259(9)
C8 C -0.02806(11) 0.81827(18) -0.03784(11)
N6 N -0.09478(10) 0.90381(18) -0.07367(10)
C9 C -0.06986(17) 0.9620(3) -0.13334(14)
C10 C 0.01155(16) 0.9124(2) -0.13316(14)
H7 H 0.312(2) 0.445(3) -0.0426(17)
H8 H 0.1381(16) 0.360(3) 0.2919(14)
H9 H 0.2873(15) 0.221(2) 0.3150(14)
H10 H 0.1690(15) 0.493(2) 0.0530(12)
H11 H 0.0593(18) 0.527(3) 0.1445(15)
H12 H -0.1088(17) 1.026(2) -0.1690(14)
H13 H 0.0527(17) 0.933(3) -0.1660(14)
H14 H -0.0809(14) 0.746(2) 0.0464(11)
#END
