
#######################################################################
#
#                 Cambridge Crystallographic Data Centre
#                                CCDC
#
#######################################################################
#
# If this CIF has been generated from an entry in the Cambridge
# Structural Database, then it will include bibliographic, chemical,
# crystal, experimental, refinement or atomic coordinate data resulting
# from the CCDC's data processing and validation procedures.
#
#######################################################################

data_CSD_CIF_VEVLOZ
_audit_creation_date 2013-05-24
_audit_creation_method CSD-ConQuest-V1
_database_code_CSD VEVLOZ
_database_code_depnum_ccdc_archive 'CCDC 867067'
_chemical_formula_sum 'C13 H12 N4 O4'
_chemical_formula_moiety
;
C13 H12 N4 O4
;
_journal_coden_Cambridge 1506
_journal_volume 16
_journal_year 2012
_journal_page_first 1723
_journal_name_full 'Curr.Org.Chem. '
loop_
_publ_author_name
"Jian-Qi Zhu"
"Jia Li"
"Xin Wang"
"Ping Fan"
"Xiao-Nan Wang"
"Li-Jing Bian"
"Hao-Qiu Li"
"Yun-Qi Tian"
_chemical_name_systematic
;
N,N'-bis(2-Nitrophenyl)methanediamine
;
_cell_volume   1283.485
_exptl_crystal_colour 'salmon'
_exptl_crystal_density_diffrn 1.481
_exptl_crystal_description 'block'
_diffrn_ambient_temperature 273
#These two values have been output from a single CSD field.
_refine_ls_R_factor_gt 0.0472
_refine_ls_wR_factor_gt 0.0472
_symmetry_cell_setting monoclinic
_symmetry_space_group_name_H-M 'P 21/n'
_symmetry_Int_Tables_number 14
loop_
_symmetry_equiv_pos_site_id
_symmetry_equiv_pos_as_xyz
1 x,y,z
2 1/2-x,1/2+y,1/2-z
3 -x,-y,-z
4 -1/2+x,-1/2-y,-1/2+z
_cell_length_a 13.145(2)
_cell_length_b 7.5196(12)
_cell_length_c 14.363(2)
_cell_angle_alpha 90
_cell_angle_beta 115.305(2)
_cell_angle_gamma 90
_cell_formula_units_Z 4
loop_
_atom_type_symbol
_atom_type_radius_bond
C 0.68
H 0.23
N 0.68
O 0.68
loop_
_atom_site_label
_atom_site_type_symbol
_atom_site_fract_x
_atom_site_fract_y
_atom_site_fract_z
O1 O 0.55466(18) -0.3605(3) 0.59772(16)
O2 O 0.38278(19) -0.3105(3) 0.56671(19)
O3 O 0.8846(2) 0.3771(3) 0.36636(19)
O4 O 0.77951(18) 0.1535(3) 0.29812(16)
N1 N 0.63576(17) -0.2591(3) 0.46800(18)
N2 N 0.4609(2) -0.2985(3) 0.54254(19)
N3 N 0.8467(2) 0.2322(4) 0.37441(19)
N4 N 0.76367(18) -0.1095(3) 0.40917(17)
C1 C 0.3907(3) -0.0475(4) 0.2618(2)
H1 H 0.37350 0.00940 0.19940
C2 C 0.3085(3) -0.0657(4) 0.2966(3)
H2 H 0.23620 -0.02230 0.25810
C3 C 0.3350(2) -0.1486(4) 0.3885(2)
H3 H 0.28000 -0.16210 0.41250
C4 C 0.4423(2) -0.2131(3) 0.4466(2)
C5 C 0.5289(2) -0.1967(3) 0.4125(2)
C6 C 0.4972(2) -0.1114(4) 0.3174(2)
H4 H 0.55030 -0.09780 0.29110
C7 C 0.9620(2) 0.2468(4) 0.5573(2)
H5 H 0.98880 0.35490 0.54540
C8 C 1.0006(2) 0.1831(4) 0.6549(2)
H6 H 1.05370 0.24620 0.70980
C9 C 0.9592(2) 0.0221(4) 0.6709(2)
H7 H 0.98450 -0.02210 0.73750
C10 C 0.8824(2) -0.0723(4) 0.5912(2)
H8 H 0.85670 -0.17990 0.60500
C11 C 0.84005(19) -0.0129(4) 0.48828(19)
C12 C 0.8830(2) 0.1523(3) 0.47491(19)
C13 C 0.7164(2) -0.2760(4) 0.4238(2)
H9 H 0.77760 -0.35190 0.46830
H10 H 0.67970 -0.33500 0.35760
#END
