
#######################################################################
#
#                 Cambridge Crystallographic Data Centre
#                                CCDC
#
#######################################################################
#
# If this CIF has been generated from an entry in the Cambridge
# Structural Database, then it will include bibliographic, chemical,
# crystal, experimental, refinement or atomic coordinate data resulting
# from the CCDC's data processing and validation procedures.
#
#######################################################################

data_CSD_CIF_VEWXUT
_audit_creation_date 2018-06-05
_audit_creation_method CSD-ConQuest-V1
_database_code_CSD VEWXUT
_database_code_depnum_ccdc_archive 'CCDC 1847300'
_chemical_formula_sum 'C17 H24 N2 O5'
_chemical_formula_moiety
;
C17 H24 N2 O5
;
_journal_coden_Cambridge 179
_journal_volume 55
_journal_year 2016
_journal_page_first 1816
_journal_name_full 'Angew.Chem.,Int.Ed. '
loop_
_publ_author_name
"M.G.Beaver"
"T.M.Buscagan"
"O.Lavinda"
"K.A.Woerpel"
_chemical_name_systematic
;
3-(3-methyloxepan-2-yl)propyl (4-nitrophenyl)carbamate
;
_cell_volume   1714.326
_exptl_crystal_colour 'yellow'
_exptl_crystal_density_diffrn 1.303
_exptl_crystal_description 'plate'
_diffrn_ambient_temperature 100
#These two values have been output from a single CSD field.
_refine_ls_R_factor_gt 0.0513
_refine_ls_wR_factor_gt 0.0513
_symmetry_cell_setting monoclinic
_symmetry_space_group_name_H-M 'P 21/c'
_symmetry_Int_Tables_number 14
loop_
_symmetry_equiv_pos_site_id
_symmetry_equiv_pos_as_xyz
1 x,y,z
2 -x,1/2+y,1/2-z
3 -x,-y,-z
4 x,-1/2-y,-1/2+z
_cell_length_a 8.0149(18)
_cell_length_b 19.997(4)
_cell_length_c 10.910(2)
_cell_angle_alpha 90
_cell_angle_beta 101.361(3)
_cell_angle_gamma 90
_cell_formula_units_Z 4
loop_
_atom_type_symbol
_atom_type_radius_bond
C 0.68
H 0.23
N 0.68
O 0.68
loop_
_atom_site_label
_atom_site_type_symbol
_atom_site_fract_x
_atom_site_fract_y
_atom_site_fract_z
O1 O 0.23614(17) 0.44267(7) 0.16199(13)
O2 O 0.46100(17) 0.45157(7) 0.32313(12)
O3 O 0.3169(2) 0.71107(8) -0.30594(15)
O4 O 0.09532(19) 0.64673(8) -0.35227(14)
O5 O 0.26429(16) 0.41166(7) 0.67828(12)
N1 N 0.4361(2) 0.52630(9) 0.17113(15)
N2 N 0.2266(2) 0.66518(9) -0.28083(16)
C1 C 0.3647(2) 0.47094(10) 0.21278(17)
C2 C 0.3762(2) 0.56035(10) 0.05919(17)
C3 C 0.2161(2) 0.54853(11) -0.01674(19)
C4 C 0.1671(2) 0.58366(11) -0.12664(19)
C5 C 0.2757(2) 0.63024(10) -0.16148(18)
C6 C 0.4338(2) 0.64378(10) -0.08735(19)
C7 C 0.4832(2) 0.6086(1) 0.02290(18)
C8 C 0.3884(3) 0.39718(11) 0.38446(19)
C9 C 0.4992(3) 0.38974(11) 0.51270(19)
C10 C 0.4365(3) 0.33493(11) 0.5905(2)
C11 C 0.2606(2) 0.34713(10) 0.61955(19)
C12 C 0.2049(3) 0.29151(11) 0.6998(2)
C13 C 0.0745(3) 0.31450(13) 0.7760(2)
C14 C -0.0706(3) 0.35706(13) 0.7058(2)
C15 C -0.0289(3) 0.43150(13) 0.7053(3)
C16 C 0.1122(3) 0.45005(12) 0.6375(2)
C17 C 0.1372(3) 0.23179(11) 0.6180(2)
H1 H 0.5271(19) 0.5421(11) 0.2157(18)
H2 H 0.14170 0.51640 0.00760
H3 H 0.05870 0.57580 -0.17820
H4 H 0.50650 0.67650 -0.11190
H5 H 0.59100 0.61730 0.07460
H6 H 0.38780 0.35520 0.33620
H7 H 0.27000 0.40790 0.39130
H8 H 0.50210 0.43280 0.55770
H9 H 0.61680 0.37920 0.50360
H10 H 0.43450 0.29200 0.54510
H11 H 0.51920 0.33030 0.67040
H12 H 0.17670 0.34900 0.53860
H13 H 0.30840 0.27630 0.76020
H14 H 0.02530 0.27440 0.80860
H15 H 0.13470 0.34030 0.84880
H16 H -0.17140 0.35080 0.74440
H17 H -0.10080 0.34110 0.61830
H18 H -0.13320 0.45600 0.66610
H19 H 0.00340 0.44700 0.79290
H20 H 0.07180 0.44310 0.54670
H21 H 0.13920 0.49810 0.65120
H22 H 0.02590 0.24300 0.56700
H23 H 0.12550 0.19330 0.67120
H24 H 0.21670 0.22080 0.56330
#END
