
#######################################################################
#
#                 Cambridge Crystallographic Data Centre
#                                CCDC
#
#######################################################################
#
# If this CIF has been generated from an entry in the Cambridge
# Structural Database, then it will include bibliographic, chemical,
# crystal, experimental, refinement or atomic coordinate data resulting
# from the CCDC's data processing and validation procedures.
#
#######################################################################

data_CSD_CIF_VEWXED
_audit_creation_date 2018-06-05
_audit_creation_method CSD-ConQuest-V1
_database_code_CSD VEWXED
_database_code_depnum_ccdc_archive 'CCDC 1847295'
_chemical_formula_sum 'C17 H24 N2 O5'
_chemical_formula_moiety
;
C17 H24 N2 O5
;
_journal_coden_Cambridge 179
_journal_volume 55
_journal_year 2016
_journal_page_first 1816
_journal_name_full 'Angew.Chem.,Int.Ed. '
loop_
_publ_author_name
"M.G.Beaver"
"T.M.Buscagan"
"O.Lavinda"
"K.A.Woerpel"
_chemical_name_systematic
;
3-(5-methyloxepan-2-yl)propyl (4-nitrophenyl)carbamate
;
_cell_volume   3437.895
_exptl_crystal_colour 'colorless'
_exptl_crystal_density_diffrn 1.3
_exptl_crystal_description 'plate'
_diffrn_ambient_temperature 100
#These two values have been output from a single CSD field.
_refine_ls_R_factor_gt 0.0641
_refine_ls_wR_factor_gt 0.0641
_symmetry_cell_setting monoclinic
_symmetry_space_group_name_H-M 'P 21/c'
_symmetry_Int_Tables_number 14
loop_
_symmetry_equiv_pos_site_id
_symmetry_equiv_pos_as_xyz
1 x,y,z
2 -x,1/2+y,1/2-z
3 -x,-y,-z
4 x,-1/2-y,-1/2+z
_cell_length_a 7.5284(2)
_cell_length_b 9.2700(3)
_cell_length_c 49.2821(14)
_cell_angle_alpha 90
_cell_angle_beta 91.6448(10)
_cell_angle_gamma 90
_cell_formula_units_Z 8
loop_
_atom_type_symbol
_atom_type_radius_bond
C 0.68
H 0.23
N 0.68
O 0.68
loop_
_atom_site_label
_atom_site_type_symbol
_atom_site_fract_x
_atom_site_fract_y
_atom_site_fract_z
O1 O 0.0850(2) 1.08590(19) 0.35758(4)
O2 O 0.4682(2) 0.81860(18) 0.28483(3)
O3 O 0.4063(2) 1.03987(18) 0.26723(4)
O4 O 0.2745(3) 0.9553(2) 0.11673(4)
O5 O 0.1685(3) 1.1529(3) 0.13322(4)
N1 N 0.4194(3) 0.8361(2) 0.24069(4)
N2 N 0.2400(3) 1.0340(3) 0.13602(5)
C1 C 0.2022(4) 0.9853(3) 0.37145(5)
C2 C 0.2481(4) 1.0433(3) 0.39957(6)
C3 C 0.0955(4) 1.0549(4) 0.41893(6)
C4 C -0.0769(4) 1.1227(4) 0.40870(6)
C5 C -0.1691(4) 1.0326(4) 0.38666(6)
C6 C -0.0992(4) 1.0483(3) 0.35837(6)
C7 C -0.2025(5) 1.1457(5) 0.43218(7)
C8 C 0.3633(3) 0.9656(3) 0.35434(5)
C9 C 0.3228(3) 0.9172(3) 0.32536(5)
C10 C 0.4945(3) 0.8798(3) 0.31179(5)
C11 C 0.4291(3) 0.9108(3) 0.26450(5)
C12 C 0.3716(3) 0.8905(3) 0.21504(5)
C13 C 0.2776(3) 1.0195(3) 0.21134(5)
C14 C 0.2332(3) 1.0652(3) 0.18545(5)
C15 C 0.2828(3) 0.9840(3) 0.16341(5)
C16 C 0.3744(3) 0.8546(3) 0.16674(5)
C17 C 0.4174(3) 0.8085(3) 0.19251(5)
H1 H 0.460(4) 0.7522(16) 0.2414(6)
H2 H 0.14010 0.89060 0.37320
H3 H 0.30100 1.14040 0.39760
H4 H 0.34040 0.98030 0.40800
H5 H 0.06800 0.95630 0.42530
H6 H 0.13820 1.11060 0.43500
H7 H -0.04880 1.21920 0.40080
H8 H -0.15990 0.92980 0.39200
H9 H -0.29690 1.05810 0.38610
H10 H -0.11780 0.95620 0.34850
H11 H -0.16950 1.12340 0.34860
H12 H -0.23600 1.05190 0.43970
H13 H -0.30940 1.19630 0.42550
H14 H -0.14260 1.20340 0.44640
H15 H 0.44260 0.89350 0.36320
H16 H 0.42880 1.05810 0.35380
H17 H 0.24380 0.83190 0.32540
H18 H 0.26100 0.99550 0.31520
H19 H 0.56750 0.96820 0.31040
H20 H 0.56140 0.81000 0.32330
H21 H 0.24480 1.07520 0.22660
H22 H 0.16860 1.15240 0.18280
H23 H 0.40660 0.79920 0.15140
H24 H 0.47900 0.71990 0.19510
O6 O 0.2479(3) 0.4234(2) 0.38717(4)
O7 O 0.3138(3) 0.5969(2) 0.35678(4)
O8 O 0.0270(3) 0.3176(2) 0.21872(4)
O9 O 0.1716(2) 0.5197(2) 0.21857(4)
N3 N 0.1783(3) 0.3835(2) 0.34405(4)
N4 N 0.1073(3) 0.4159(2) 0.23062(4)
O10 O -0.0429(6) 0.7637(5) 0.45576(9)
C18 C -0.1053(8) 0.6384(7) 0.44301(14)
C19 C -0.2471(12) 0.5600(14) 0.4591(2)
C20 C -0.3180(11) 0.7060(8) 0.49987(16)
C21 C -0.1719(11) 0.8224(10) 0.49714(19)
C22 C -0.453(2) 0.783(3) 0.5173(4)
C23 C 0.1870(7) 0.6115(6) 0.41993(11)
C24 C -0.365(2) 0.6246(13) 0.4803(2)
C25 C 0.017(2) 0.7762(13) 0.4841(3)
C26 C 0.030(2) 0.557(3) 0.4324(4)
C27 C 0.3231(5) 0.5119(4) 0.40890(6)
C28 C 0.2521(4) 0.4799(3) 0.36207(6)
C29 C 0.1632(3) 0.3978(3) 0.31595(5)
C30 C 0.0867(3) 0.2828(3) 0.30125(5)
C31 C 0.0691(3) 0.2886(3) 0.27355(5)
C32 C 0.1261(3) 0.4107(3) 0.25997(5)
C33 C 0.2016(3) 0.5257(3) 0.27400(5)
C34 C 0.2195(3) 0.5198(3) 0.30180(5)
H25 H 0.145(4) 0.3035(18) 0.3499(6)
H26 H -0.16550 0.67020 0.42570
H27 H -0.18900 0.50560 0.47420
H28 H -0.31030 0.49000 0.44710
H29 H -0.50320 0.62320 0.47120
H30 H -0.26940 0.61860 0.50940
H31 H -0.21720 0.90260 0.48560
H32 H -0.13870 0.86170 0.51530
H33 H 0.00480 0.65220 0.49000
H34 H -0.45820 0.88520 0.51240
H35 H -0.41760 0.77330 0.53650
H36 H 0.09710 0.48820 0.45130
H37 H 0.13170 0.66740 0.40480
H38 H 0.24680 0.68060 0.43250
H39 H -0.34870 0.54530 0.49360
H40 H 0.12930 0.81520 0.49220
H41 H -0.54420 0.70740 0.51820
H42 H -0.04060 0.50170 0.41870
H43 H 0.42320 0.56910 0.40200
H44 H 0.37030 0.44900 0.42360
H45 H 0.04660 0.20000 0.31060
H46 H 0.01840 0.20990 0.26370
H47 H 0.24080 0.60830 0.26450
H48 H 0.27040 0.59900 0.31150
C35? C 0.2153(11) 0.4966(10) 0.43359(15)
C36? C 0.0444(14) 0.5340(16) 0.4348(3)
H49? H 0.32410 0.61430 0.40320
H50? H 0.44730 0.48230 0.41300
H51? H -0.00650 0.45670 0.42310
H52? H 0.03630 0.65790 0.42590
H53? H 0.28100 0.54350 0.44890
C37? C -0.3839(12) 0.6679(9) 0.47084(14)
C38? C -0.0089(15) 0.7541(10) 0.48428(19)
O11? O 0.0336(9) 0.6248(8) 0.47916(13)
C39? C -0.0718(12) 0.5568(11) 0.45911(18)
C40? C -0.2691(16) 0.578(2) 0.4550(3)
C41? C -0.3265(16) 0.7628(12) 0.4957(3)
C42? C -0.1334(14) 0.7926(15) 0.5038(3)
H54? H 0.10060 0.80740 0.48960
H55? H -0.32210 0.48640 0.44840
H56? H -0.28980 0.65160 0.44070
H57? H -0.12830 0.89310 0.51060
H58? H -0.01050 0.82840 0.46700
H59? H -0.10430 0.72960 0.51950
H60? H 0.20720 0.39260 0.43790
H61? H -0.39130 0.75600 0.45950
H62? H -0.34410 0.83480 0.48070
C43? C -0.487(4) 0.797(4) 0.5128(7)
H63? H -0.57070 0.73920 0.51430
H64? H -0.49300 0.62680 0.47530
H65? H -0.44720 0.85060 0.52910
H66? H -0.57120 0.85640 0.50220
H67? H -0.06410 0.45320 0.46470
#END
