
#######################################################################
#
#                 Cambridge Crystallographic Data Centre
#                                CCDC
#
#######################################################################
#
# If this CIF has been generated from an entry in the Cambridge
# Structural Database, then it will include bibliographic, chemical,
# crystal, experimental, refinement or atomic coordinate data resulting
# from the CCDC's data processing and validation procedures.
#
#######################################################################

data_CSD_CIF_VEXDEJ
_audit_creation_date 2013-05-24
_audit_creation_method CSD-ConQuest-V1
_database_code_CSD VEXDEJ
_database_code_depnum_ccdc_archive 'CCDC 865156'
_chemical_formula_sum 'C19 H18 N2 O5'
_chemical_formula_moiety
;
C19 H18 N2 O5
;
_journal_coden_Cambridge 1366
_journal_volume 354
_journal_year 2012
_journal_page_first 3523
_journal_name_full 'Adv.Synth.Catal. '
loop_
_publ_author_name
"D.Mailhol"
"M.del M.S Duque"
"W.Raimondi"
"D.Bonne"
"T.Constantieux"
"Y.Coquerel"
"J.Rodriguez"
_chemical_name_systematic
;
2-(2-Nitro-1-phenylethyl)-5-oxo-N-phenyltetrahydrofuran-2-carboxamide
;
_cell_volume   1748.954
_exptl_crystal_colour 'colorless'
_exptl_crystal_density_diffrn 1.346
_exptl_special_details
;
Absolute configuration

;
_exptl_crystal_description 'prism'
_diffrn_ambient_temperature 293
#These two values have been output from a single CSD field.
_refine_ls_R_factor_gt 0.0707
_refine_ls_wR_factor_gt 0.0707
_symmetry_cell_setting orthorhombic
_symmetry_space_group_name_H-M 'P 21 21 21'
_symmetry_Int_Tables_number 19
loop_
_symmetry_equiv_pos_site_id
_symmetry_equiv_pos_as_xyz
1 x,y,z
2 1/2-x,-y,1/2+z
3 1/2+x,1/2-y,-z
4 -x,1/2+y,1/2-z
_cell_length_a 6.1204(4)
_cell_length_b 7.7978(5)
_cell_length_c 36.646(2)
_cell_angle_alpha 90
_cell_angle_beta 90
_cell_angle_gamma 90
_cell_formula_units_Z 4
loop_
_atom_type_symbol
_atom_type_radius_bond
C 0.68
H 0.23
N 0.68
O 0.68
loop_
_atom_site_label
_atom_site_type_symbol
_atom_site_fract_x
_atom_site_fract_y
_atom_site_fract_z
C1 C 0.5708(6) 0.4135(5) 0.90339(9)
C2 C 0.4724(8) 0.2554(6) 0.92195(11)
H1 H 0.32810 0.28080 0.93150
H2 H 0.46110 0.16070 0.90490
C3 C 0.6284(8) 0.2125(6) 0.95248(11)
H3 H 0.57210 0.25260 0.97570
H4 H 0.65200 0.08970 0.95390
C4 C 0.8329(8) 0.3021(6) 0.94305(9)
C5 C 0.5437(7) 0.3985(6) 0.86222(10)
C6 C 0.7451(7) 0.3820(5) 0.80352(9)
C7 C 0.5814(7) 0.3117(5) 0.78238(9)
H5 H 0.45190 0.27440 0.79300
C8 C 0.6127(8) 0.2974(6) 0.74501(10)
H6 H 0.50450 0.24830 0.73060
C9 C 0.8013(9) 0.3549(7) 0.72918(12)
H7 H 0.81980 0.34680 0.70400
C10 C 0.9626(9) 0.4242(8) 0.75040(12)
H8 H 1.09110 0.46300 0.73970
C11 C 0.9356(7) 0.4369(6) 0.78757(10)
H9 H 1.04660 0.48270 0.80190
C12 C 0.4803(6) 0.5915(5) 0.91500(8)
H10 H 0.32820 0.59700 0.90670
C13 C 0.6030(6) 0.7350(5) 0.89574(9)
C14 C 0.5195(7) 0.8037(6) 0.86383(9)
H11 H 0.38380 0.76760 0.85540
C15 C 0.6361(10) 0.9259(6) 0.84431(11)
H12 H 0.57790 0.97120 0.82290
C16 C 0.8361(9) 0.9797(6) 0.85634(12)
H13 H 0.91540 1.05950 0.84290
C17 C 0.9185(7) 0.9161(6) 0.88811(12)
H14 H 1.05270 0.95510 0.89660
C18 C 0.8042(7) 0.7939(5) 0.9078(1)
H15 H 0.86300 0.75080 0.92930
C19 C 0.4766(6) 0.6071(5) 0.95635(9)
H16 H 0.38010 0.52030 0.96630
H17 H 0.62220 0.58620 0.96580
N1 N 0.7274(5) 0.3967(4) 0.84220(7)
H18 H 0.84820 0.40550 0.85410
N2 N 0.4011(5) 0.7801(4) 0.96851(8)
O1 O 0.8014(4) 0.4078(3) 0.91348(6)
O2 O 1.0068(6) 0.2983(5) 0.95774(7)
O3 O 0.3590(5) 0.3905(6) 0.85018(7)
O4 O 0.2689(5) 0.8578(4) 0.95030(8)
O5 O 0.4723(5) 0.8348(4) 0.99732(7)
#END
